 "x_c",  "y_c",  "u_c",  "v_c",  "exx",  "eyy",  "exy",  "e1",  "e2",  "gamma",  "e_vonmises",  "sigma",  "x",  "y",  "u",  "v"
-700,715,0,0,0,0,0,0,0,0,0,-1,524,309,0,0
-693,715,0,0,0,0,0,0,0,0,0,-1,531,309,0,0
-686,715,0,0,0,0,0,0,0,0,0,-1,538,309,0,0
-679,715,0,0,0,0,0,0,0,0,0,-1,545,309,0,0
-672,715,0,0,0,0,0,0,0,0,0,-1,552,309,0,0
-665,715,0,0,0,0,0,0,0,0,0,-1,559,309,0,0
-658,715,0,0,0,0,0,0,0,0,0,-1,566,309,0,0
-651,715,0,0,0,0,0,0,0,0,0,-1,573,309,0,0
-644,715,0,0,0,0,0,0,0,0,0,-1,580,309,0,0
-637,715,0,0,0,0,0,0,0,0,0,-1,587,309,0,0
-630,715,0,0,0,0,0,0,0,0,0,-1,594,309,0,0
-623,715,0,0,0,0,0,0,0,0,0,-1,601,309,0,0
-616,715,0,0,0,0,0,0,0,0,0,-1,608,309,0,0
-609,715,0,0,0,0,0,0,0,0,0,-1,615,309,0,0
-602,715,0,0,0,0,0,0,0,0,0,-1,622,309,0,0
-595,715,0,0,0,0,0,0,0,0,0,-1,629,309,0,0
-588,715,0,0,0,0,0,0,0,0,0,-1,636,309,0,0
-581,715,0,0,0,0,0,0,0,0,0,-1,643,309,0,0
-574,715,0,0,0,0,0,0,0,0,0,-1,650,309,0,0
-567,715,0,0,0,0,0,0,0,0,0,-1,657,309,0,0
-560,715,0,0,0,0,0,0,0,0,0,-1,664,309,0,0
-553,715,0,0,0,0,0,0,0,0,0,-1,671,309,0,0
-546,715,0,0,0,0,0,0,0,0,0,-1,678,309,0,0
-539,715,0,0,0,0,0,0,0,0,0,-1,685,309,0,0
-532,715,0,0,0,0,0,0,0,0,0,-1,692,309,0,0
-525,715,0,0,0,0,0,0,0,0,0,-1,699,309,0,0
-518,715,0,0,0,0,0,0,0,0,0,-1,706,309,0,0
-511,715,0,0,0,0,0,0,0,0,0,-1,713,309,0,0
-504,715,0,0,0,0,0,0,0,0,0,-1,720,309,0,0
-497,715,0,0,0,0,0,0,0,0,0,-1,727,309,0,0
-490,715,0,0,0,0,0,0,0,0,0,-1,734,309,0,0
-483,715,0,0,0,0,0,0,0,0,0,-1,741,309,0,0
-476,715,0,0,0,0,0,0,0,0,0,-1,748,309,0,0
-469,715,0,0,0,0,0,0,0,0,0,-1,755,309,0,0
-462,715,0,0,0,0,0,0,0,0,0,-1,762,309,0,0
-455,715,0,0,0,0,0,0,0,0,0,-1,769,309,0,0
-448,715,0,0,0,0,0,0,0,0,0,-1,776,309,0,0
-441,715,0,0,0,0,0,0,0,0,0,-1,783,309,0,0
-434,715,0,0,0,0,0,0,0,0,0,-1,790,309,0,0
-427,715,0,0,0,0,0,0,0,0,0,-1,797,309,0,0
-420,715,0,0,0,0,0,0,0,0,0,-1,804,309,0,0
-413,715,0,0,0,0,0,0,0,0,0,-1,811,309,0,0
-406,715,0,0,0,0,0,0,0,0,0,-1,818,309,0,0
-399,715,0,0,0,0,0,0,0,0,0,-1,825,309,0,0
-392,715,0,0,0,0,0,0,0,0,0,-1,832,309,0,0
-385,715,0,0,0,0,0,0,0,0,0,-1,839,309,0,0
-378,715,0,0,0,0,0,0,0,0,0,-1,846,309,0,0
-371,715,0,0,0,0,0,0,0,0,0,-1,853,309,0,0
-364,715,0,0,0,0,0,0,0,0,0,-1,860,309,0,0
-357,715,0,0,0,0,0,0,0,0,0,-1,867,309,0,0
-350,715,0,0,0,0,0,0,0,0,0,-1,874,309,0,0
-343,715,0,0,0,0,0,0,0,0,0,-1,881,309,0,0
-336,715,0,0,0,0,0,0,0,0,0,-1,888,309,0,0
-329,715,0,0,0,0,0,0,0,0,0,-1,895,309,0,0
-322,715,0,0,0,0,0,0,0,0,0,-1,902,309,0,0
-315,715,0,0,0,0,0,0,0,0,0,-1,909,309,0,0
-308,715,0,0,0,0,0,0,0,0,0,-1,916,309,0,0
-301,715,0,0,0,0,0,0,0,0,0,-1,923,309,0,0
-294,715,0,0,0,0,0,0,0,0,0,-1,930,309,0,0
-287,715,0,0,0,0,0,0,0,0,0,-1,937,309,0,0
-280,715,0,0,0,0,0,0,0,0,0,-1,944,309,0,0
-273,715,0,0,0,0,0,0,0,0,0,-1,951,309,0,0
-266,715,0,0,0,0,0,0,0,0,0,-1,958,309,0,0
-259,715,0,0,0,0,0,0,0,0,0,-1,965,309,0,0
-252,715,0,0,0,0,0,0,0,0,0,-1,972,309,0,0
-245,715,0,0,0,0,0,0,0,0,0,-1,979,309,0,0
-238,715,0,0,0,0,0,0,0,0,0,-1,986,309,0,0
-231,715,0,0,0,0,0,0,0,0,0,-1,993,309,0,0
-224,715,0,0,0,0,0,0,0,0,0,-1,1000,309,0,0
-217,715,0,0,0,0,0,0,0,0,0,-1,1007,309,0,0
-210,715,0,0,0,0,0,0,0,0,0,-1,1014,309,0,0
-203,715,0,0,0,0,0,0,0,0,0,-1,1021,309,0,0
-196,715,0,0,0,0,0,0,0,0,0,-1,1028,309,0,0
-189,715,0,0,0,0,0,0,0,0,0,-1,1035,309,0,0
-182,715,0,0,0,0,0,0,0,0,0,-1,1042,309,0,0
-175,715,0,0,0,0,0,0,0,0,0,-1,1049,309,0,0
-168,715,0,0,0,0,0,0,0,0,0,-1,1056,309,0,0
-161,715,0,0,0,0,0,0,0,0,0,-1,1063,309,0,0
-154,715,0,0,0,0,0,0,0,0,0,-1,1070,309,0,0
-147,715,0,0,0,0,0,0,0,0,0,-1,1077,309,0,0
-140,715,0,0,0,0,0,0,0,0,0,-1,1084,309,0,0
-133,715,0,0,0,0,0,0,0,0,0,-1,1091,309,0,0
-126,715,0,0,0,0,0,0,0,0,0,-1,1098,309,0,0
-119,715,0,0,0,0,0,0,0,0,0,-1,1105,309,0,0
-112,715,0,0,0,0,0,0,0,0,0,-1,1112,309,0,0
-105,715,0,0,0,0,0,0,0,0,0,-1,1119,309,0,0
-98,715,0,0,0,0,0,0,0,0,0,-1,1126,309,0,0
-91,715,0,0,0,0,0,0,0,0,0,-1,1133,309,0,0
-84,715,0,0,0,0,0,0,0,0,0,-1,1140,309,0,0
-77,715,0,0,0,0,0,0,0,0,0,-1,1147,309,0,0
-70,715,0,0,0,0,0,0,0,0,0,-1,1154,309,0,0
-63,715,0,0,0,0,0,0,0,0,0,-1,1161,309,0,0
-56,715,0,0,0,0,0,0,0,0,0,-1,1168,309,0,0
-49,715,0,0,0,0,0,0,0,0,0,-1,1175,309,0,0
-42,715,0,0,0,0,0,0,0,0,0,-1,1182,309,0,0
-35,715,0,0,0,0,0,0,0,0,0,-1,1189,309,0,0
-28,715,0,0,0,0,0,0,0,0,0,-1,1196,309,0,0
-21,715,0,0,0,0,0,0,0,0,0,-1,1203,309,0,0
-14,715,0,0,0,0,0,0,0,0,0,-1,1210,309,0,0
-7,715,0,0,0,0,0,0,0,0,0,-1,1217,309,0,0
0,715,0,0,0,0,0,0,0,0,0,-1,1224,309,0,0
7,715,0,0,0,0,0,0,0,0,0,-1,1231,309,0,0
14,715,0,0,0,0,0,0,0,0,0,-1,1238,309,0,0
21,715,0,0,0,0,0,0,0,0,0,-1,1245,309,0,0
28,715,0,0,0,0,0,0,0,0,0,-1,1252,309,0,0
35,715,0,0,0,0,0,0,0,0,0,-1,1259,309,0,0
42,715,0,0,0,0,0,0,0,0,0,-1,1266,309,0,0
49,715,0,0,0,0,0,0,0,0,0,-1,1273,309,0,0
56,715,0,0,0,0,0,0,0,0,0,-1,1280,309,0,0
63,715,8.14136,-119.246,0,0,0,0,0,0,0,-1,1287,309,8.14141,119.246
70,715,8.20374,-119.453,0,0,0,0,0,0,0,-1,1294,309,8.20378,119.453
77,715,0,0,0,0,0,0,0,0,0,-1,1301,309,0,0
84,715,0,0,0,0,0,0,0,0,0,-1,1308,309,0,0
91,715,0,0,0,0,0,0,0,0,0,-1,1315,309,0,0
98,715,0,0,0,0,0,0,0,0,0,-1,1322,309,0,0
105,715,0,0,0,0,0,0,0,0,0,-1,1329,309,0,0
112,715,0,0,0,0,0,0,0,0,0,-1,1336,309,0,0
119,715,0,0,0,0,0,0,0,0,0,-1,1343,309,0,0
126,715,0,0,0,0,0,0,0,0,0,-1,1350,309,0,0
133,715,0,0,0,0,0,0,0,0,0,-1,1357,309,0,0
140,715,0,0,0,0,0,0,0,0,0,-1,1364,309,0,0
147,715,0,0,0,0,0,0,0,0,0,-1,1371,309,0,0
154,715,0,0,0,0,0,0,0,0,0,-1,1378,309,0,0
161,715,0,0,0,0,0,0,0,0,0,-1,1385,309,0,0
168,715,0,0,0,0,0,0,0,0,0,-1,1392,309,0,0
175,715,0,0,0,0,0,0,0,0,0,-1,1399,309,0,0
182,715,0,0,0,0,0,0,0,0,0,-1,1406,309,0,0
189,715,0,0,0,0,0,0,0,0,0,-1,1413,309,0,0
196,715,0,0,0,0,0,0,0,0,0,-1,1420,309,0,0
203,715,0,0,0,0,0,0,0,0,0,-1,1427,309,0,0
210,715,0,0,0,0,0,0,0,0,0,-1,1434,309,0,0
217,715,0,0,0,0,0,0,0,0,0,-1,1441,309,0,0
224,715,0,0,0,0,0,0,0,0,0,-1,1448,309,0,0
231,715,0,0,0,0,0,0,0,0,0,-1,1455,309,0,0
238,715,0,0,0,0,0,0,0,0,0,-1,1462,309,0,0
245,715,0,0,0,0,0,0,0,0,0,-1,1469,309,0,0
252,715,0,0,0,0,0,0,0,0,0,-1,1476,309,0,0
259,715,0,0,0,0,0,0,0,0,0,-1,1483,309,0,0
266,715,0,0,0,0,0,0,0,0,0,-1,1490,309,0,0
273,715,0,0,0,0,0,0,0,0,0,-1,1497,309,0,0
280,715,0,0,0,0,0,0,0,0,0,-1,1504,309,0,0
287,715,0,0,0,0,0,0,0,0,0,-1,1511,309,0,0
294,715,0,0,0,0,0,0,0,0,0,-1,1518,309,0,0
301,715,0,0,0,0,0,0,0,0,0,-1,1525,309,0,0
308,715,0,0,0,0,0,0,0,0,0,-1,1532,309,0,0
315,715,0,0,0,0,0,0,0,0,0,-1,1539,309,0,0
322,715,0,0,0,0,0,0,0,0,0,-1,1546,309,0,0
329,715,0,0,0,0,0,0,0,0,0,-1,1553,309,0,0
336,715,0,0,0,0,0,0,0,0,0,-1,1560,309,0,0
343,715,0,0,0,0,0,0,0,0,0,-1,1567,309,0,0
350,715,0,0,0,0,0,0,0,0,0,-1,1574,309,0,0
357,715,0,0,0,0,0,0,0,0,0,-1,1581,309,0,0
364,715,0,0,0,0,0,0,0,0,0,-1,1588,309,0,0
371,715,0,0,0,0,0,0,0,0,0,-1,1595,309,0,0
378,715,0,0,0,0,0,0,0,0,0,-1,1602,309,0,0
385,715,0,0,0,0,0,0,0,0,0,-1,1609,309,0,0
392,715,0,0,0,0,0,0,0,0,0,-1,1616,309,0,0
399,715,0,0,0,0,0,0,0,0,0,-1,1623,309,0,0
406,715,0,0,0,0,0,0,0,0,0,-1,1630,309,0,0
413,715,0,0,0,0,0,0,0,0,0,-1,1637,309,0,0
420,715,0,0,0,0,0,0,0,0,0,-1,1644,309,0,0
427,715,0,0,0,0,0,0,0,0,0,-1,1651,309,0,0
434,715,0,0,0,0,0,0,0,0,0,-1,1658,309,0,0
441,715,0,0,0,0,0,0,0,0,0,-1,1665,309,0,0
448,715,0,0,0,0,0,0,0,0,0,-1,1672,309,0,0
455,715,0,0,0,0,0,0,0,0,0,-1,1679,309,0,0
462,715,0,0,0,0,0,0,0,0,0,-1,1686,309,0,0
469,715,0,0,0,0,0,0,0,0,0,-1,1693,309,0,0
476,715,0,0,0,0,0,0,0,0,0,-1,1700,309,0,0
483,715,0,0,0,0,0,0,0,0,0,-1,1707,309,0,0
490,715,0,0,0,0,0,0,0,0,0,-1,1714,309,0,0
497,715,0,0,0,0,0,0,0,0,0,-1,1721,309,0,0
504,715,0,0,0,0,0,0,0,0,0,-1,1728,309,0,0
511,715,0,0,0,0,0,0,0,0,0,-1,1735,309,0,0
518,715,0,0,0,0,0,0,0,0,0,-1,1742,309,0,0
525,715,0,0,0,0,0,0,0,0,0,-1,1749,309,0,0
532,715,0,0,0,0,0,0,0,0,0,-1,1756,309,0,0
539,715,0,0,0,0,0,0,0,0,0,-1,1763,309,0,0
546,715,0,0,0,0,0,0,0,0,0,-1,1770,309,0,0
553,715,0,0,0,0,0,0,0,0,0,-1,1777,309,0,0
560,715,0,0,0,0,0,0,0,0,0,-1,1784,309,0,0
567,715,0,0,0,0,0,0,0,0,0,-1,1791,309,0,0
574,715,0,0,0,0,0,0,0,0,0,-1,1798,309,0,0
581,715,0,0,0,0,0,0,0,0,0,-1,1805,309,0,0
588,715,0,0,0,0,0,0,0,0,0,-1,1812,309,0,0
595,715,0,0,0,0,0,0,0,0,0,-1,1819,309,0,0
602,715,0,0,0,0,0,0,0,0,0,-1,1826,309,0,0
609,715,0,0,0,0,0,0,0,0,0,-1,1833,309,0,0
616,715,0,0,0,0,0,0,0,0,0,-1,1840,309,0,0
623,715,0,0,0,0,0,0,0,0,0,-1,1847,309,0,0
630,715,0,0,0,0,0,0,0,0,0,-1,1854,309,0,0
637,715,0,0,0,0,0,0,0,0,0,-1,1861,309,0,0
644,715,0,0,0,0,0,0,0,0,0,-1,1868,309,0,0
651,715,0,0,0,0,0,0,0,0,0,-1,1875,309,0,0
658,715,0,0,0,0,0,0,0,0,0,-1,1882,309,0,0
665,715,0,0,0,0,0,0,0,0,0,-1,1889,309,0,0
672,715,0,0,0,0,0,0,0,0,0,-1,1896,309,0,0
679,715,0,0,0,0,0,0,0,0,0,-1,1903,309,0,0
686,715,0,0,0,0,0,0,0,0,0,-1,1910,309,0,0
693,715,0,0,0,0,0,0,0,0,0,-1,1917,309,0,0
700,715,0,0,0,0,0,0,0,0,0,-1,1924,309,0,0
707,715,0,0,0,0,0,0,0,0,0,-1,1931,309,0,0
714,715,0,0,0,0,0,0,0,0,0,-1,1938,309,0,0
721,715,0,0,0,0,0,0,0,0,0,-1,1945,309,0,0
728,715,0,0,0,0,0,0,0,0,0,-1,1952,309,0,0
735,715,0,0,0,0,0,0,0,0,0,-1,1959,309,0,0
742,715,0,0,0,0,0,0,0,0,0,-1,1966,309,0,0
749,715,0,0,0,0,0,0,0,0,0,-1,1973,309,0,0
756,715,0,0,0,0,0,0,0,0,0,-1,1980,309,0,0
763,715,0,0,0,0,0,0,0,0,0,-1,1987,309,0,0
770,715,0,0,0,0,0,0,0,0,0,-1,1994,309,0,0
777,715,0,0,0,0,0,0,0,0,0,-1,2001,309,0,0
784,715,0,0,0,0,0,0,0,0,0,-1,2008,309,0,0
791,715,0,0,0,0,0,0,0,0,0,-1,2015,309,0,0
798,715,0,0,0,0,0,0,0,0,0,-1,2022,309,0,0
805,715,0,0,0,0,0,0,0,0,0,-1,2029,309,0,0
812,715,0,0,0,0,0,0,0,0,0,-1,2036,309,0,0
-700,708,0,0,0,0,0,0,0,0,0,-1,524,316,0,0
-693,708,0,0,0,0,0,0,0,0,0,-1,531,316,0,0
-686,708,0,0,0,0,0,0,0,0,0,-1,538,316,0,0
-679,708,0,0,0,0,0,0,0,0,0,-1,545,316,0,0
-672,708,0,0,0,0,0,0,0,0,0,-1,552,316,0,0
-665,708,0,0,0,0,0,0,0,0,0,-1,559,316,0,0
-658,708,0,0,0,0,0,0,0,0,0,-1,566,316,0,0
-651,708,0,0,0,0,0,0,0,0,0,-1,573,316,0,0
-644,708,0,0,0,0,0,0,0,0,0,-1,580,316,0,0
-637,708,0,0,0,0,0,0,0,0,0,-1,587,316,0,0
-630,708,0,0,0,0,0,0,0,0,0,-1,594,316,0,0
-623,708,0,0,0,0,0,0,0,0,0,-1,601,316,0,0
-616,708,0,0,0,0,0,0,0,0,0,-1,608,316,0,0
-609,708,0,0,0,0,0,0,0,0,0,-1,615,316,0,0
-602,708,0,0,0,0,0,0,0,0,0,-1,622,316,0,0
-595,708,0,0,0,0,0,0,0,0,0,-1,629,316,0,0
-588,708,0,0,0,0,0,0,0,0,0,-1,636,316,0,0
-581,708,0,0,0,0,0,0,0,0,0,-1,643,316,0,0
-574,708,0,0,0,0,0,0,0,0,0,-1,650,316,0,0
-567,708,0,0,0,0,0,0,0,0,0,-1,657,316,0,0
-560,708,0,0,0,0,0,0,0,0,0,-1,664,316,0,0
-553,708,0,0,0,0,0,0,0,0,0,-1,671,316,0,0
-546,708,0,0,0,0,0,0,0,0,0,-1,678,316,0,0
-539,708,0,0,0,0,0,0,0,0,0,-1,685,316,0,0
-532,708,0,0,0,0,0,0,0,0,0,-1,692,316,0,0
-525,708,0,0,0,0,0,0,0,0,0,-1,699,316,0,0
-518,708,0,0,0,0,0,0,0,0,0,-1,706,316,0,0
-511,708,0,0,0,0,0,0,0,0,0,-1,713,316,0,0
-504,708,0,0,0,0,0,0,0,0,0,-1,720,316,0,0
-497,708,0,0,0,0,0,0,0,0,0,-1,727,316,0,0
-490,708,0,0,0,0,0,0,0,0,0,-1,734,316,0,0
-483,708,0,0,0,0,0,0,0,0,0,-1,741,316,0,0
-476,708,0,0,0,0,0,0,0,0,0,-1,748,316,0,0
-469,708,0,0,0,0,0,0,0,0,0,-1,755,316,0,0
-462,708,0,0,0,0,0,0,0,0,0,-1,762,316,0,0
-455,708,0,0,0,0,0,0,0,0,0,-1,769,316,0,0
-448,708,0,0,0,0,0,0,0,0,0,-1,776,316,0,0
-441,708,0,0,0,0,0,0,0,0,0,-1,783,316,0,0
-434,708,0,0,0,0,0,0,0,0,0,-1,790,316,0,0
-427,708,0,0,0,0,0,0,0,0,0,-1,797,316,0,0
-420,708,0,0,0,0,0,0,0,0,0,-1,804,316,0,0
-413,708,0,0,0,0,0,0,0,0,0,-1,811,316,0,0
-406,708,0,0,0,0,0,0,0,0,0,-1,818,316,0,0
-399,708,0,0,0,0,0,0,0,0,0,-1,825,316,0,0
-392,708,0,0,0,0,0,0,0,0,0,-1,832,316,0,0
-385,708,0,0,0,0,0,0,0,0,0,-1,839,316,0,0
-378,708,0,0,0,0,0,0,0,0,0,-1,846,316,0,0
-371,708,0,0,0,0,0,0,0,0,0,-1,853,316,0,0
-364,708,0,0,0,0,0,0,0,0,0,-1,860,316,0,0
-357,708,0,0,0,0,0,0,0,0,0,-1,867,316,0,0
-350,708,0,0,0,0,0,0,0,0,0,-1,874,316,0,0
-343,708,0,0,0,0,0,0,0,0,0,-1,881,316,0,0
-336,708,0,0,0,0,0,0,0,0,0,-1,888,316,0,0
-329,708,0,0,0,0,0,0,0,0,0,-1,895,316,0,0
-322,708,0,0,0,0,0,0,0,0,0,-1,902,316,0,0
-315,708,0,0,0,0,0,0,0,0,0,-1,909,316,0,0
-308,708,0,0,0,0,0,0,0,0,0,-1,916,316,0,0
-301,708,0,0,0,0,0,0,0,0,0,-1,923,316,0,0
-294,708,0,0,0,0,0,0,0,0,0,-1,930,316,0,0
-287,708,0,0,0,0,0,0,0,0,0,-1,937,316,0,0
-280,708,0,0,0,0,0,0,0,0,0,-1,944,316,0,0
-273,708,0,0,0,0,0,0,0,0,0,-1,951,316,0,0
-266,708,0,0,0,0,0,0,0,0,0,-1,958,316,0,0
-259,708,0,0,0,0,0,0,0,0,0,-1,965,316,0,0
-252,708,0,0,0,0,0,0,0,0,0,-1,972,316,0,0
-245,708,0,0,0,0,0,0,0,0,0,-1,979,316,0,0
-238,708,0,0,0,0,0,0,0,0,0,-1,986,316,0,0
-231,708,0,0,0,0,0,0,0,0,0,-1,993,316,0,0
-224,708,0,0,0,0,0,0,0,0,0,-1,1000,316,0,0
-217,708,0,0,0,0,0,0,0,0,0,-1,1007,316,0,0
-210,708,0,0,0,0,0,0,0,0,0,-1,1014,316,0,0
-203,708,0,0,0,0,0,0,0,0,0,-1,1021,316,0,0
-196,708,0,0,0,0,0,0,0,0,0,-1,1028,316,0,0
-189,708,0,0,0,0,0,0,0,0,0,-1,1035,316,0,0
-182,708,0,0,0,0,0,0,0,0,0,-1,1042,316,0,0
-175,708,0,0,0,0,0,0,0,0,0,-1,1049,316,0,0
-168,708,0,0,0,0,0,0,0,0,0,-1,1056,316,0,0
-161,708,0,0,0,0,0,0,0,0,0,-1,1063,316,0,0
-154,708,0,0,0,0,0,0,0,0,0,-1,1070,316,0,0
-147,708,0,0,0,0,0,0,0,0,0,-1,1077,316,0,0
-140,708,0,0,0,0,0,0,0,0,0,-1,1084,316,0,0
-133,708,0,0,0,0,0,0,0,0,0,-1,1091,316,0,0
-126,708,0,0,0,0,0,0,0,0,0,-1,1098,316,0,0
-119,708,0,0,0,0,0,0,0,0,0,-1,1105,316,0,0
-112,708,0,0,0,0,0,0,0,0,0,-1,1112,316,0,0
-105,708,0,0,0,0,0,0,0,0,0,-1,1119,316,0,0
-98,708,0,0,0,0,0,0,0,0,0,-1,1126,316,0,0
-91,708,0,0,0,0,0,0,0,0,0,-1,1133,316,0,0
-84,708,0,0,0,0,0,0,0,0,0,-1,1140,316,0,0
-77,708,0,0,0,0,0,0,0,0,0,-1,1147,316,0,0
-70,708,0,0,0,0,0,0,0,0,0,-1,1154,316,0,0
-63,708,0,0,0,0,0,0,0,0,0,-1,1161,316,0,0
-56,708,0,0,0,0,0,0,0,0,0,-1,1168,316,0,0
-49,708,0,0,0,0,0,0,0,0,0,-1,1175,316,0,0
-42,708,0,0,0,0,0,0,0,0,0,-1,1182,316,0,0
-35,708,-2.71204,-6.31558,0,0,0,0,0,0,0,-1,1189,316,-2.712,6.3156
-28,708,-2.92371,-5.53253,0,0,0,0,0,0,0,-1,1196,316,-2.92375,5.53254
-21,708,-0.417969,-24.5911,0,0,0,0,0,0,0,-1,1203,316,-0.418022,24.5911
-14,708,8.77576,-122.585,0,0,0,0,0,0,0,-1,1210,316,8.77573,122.585
-7,708,8.87292,-123.217,0,0,0,0,0,0,0,-1,1217,316,8.87295,123.217
0,708,8.97021,-123.85,0,0,0,0,0,0,0,-1,1224,316,8.97017,123.85
7,708,6.96973,-121.466,0,0,0,0,0,0,0,-1,1231,316,6.96978,121.466
14,708,7.20691,-119.157,0,0,0,0,0,0,0,-1,1238,316,7.20695,119.157
21,708,6.48389,-119.371,0,0,0,0,0,0,0,-1,1245,316,6.48383,119.371
28,708,6.71021,-119.555,0,0,0,0,0,0,0,-1,1252,316,6.71017,119.555
35,708,7.31689,-119.452,0,0,0,0,0,0,0,-1,1259,316,7.31695,119.452
42,708,8.72363,-120.018,0,0,0,0,0,0,0,-1,1266,316,8.72361,120.018
49,708,8.57825,-119.912,0,0,0,0,0,0,0,-1,1273,316,8.57829,119.912
56,708,8.43506,-119.826,0,0,0,0,0,0,0,-1,1280,316,8.43504,119.826
63,708,8.29907,-119.774,0,0,0,0,0,0,0,-1,1287,316,8.29904,119.774
70,708,8.32617,-119.677,0,0,0,0,0,0,0,-1,1294,316,8.32615,119.677
77,708,8.13086,-119.211,0,0,0,0,0,0,0,-1,1301,316,8.13092,119.211
84,708,7.92749,-118.728,0,0,0,0,0,0,0,-1,1308,316,7.92745,118.728
91,708,8.04431,-118.231,0,0,0,0,0,0,0,-1,1315,316,8.04436,118.231
98,708,7.88989,-117.94,0,0,0,0,0,0,0,-1,1322,316,7.88989,117.94
105,708,7.70032,-117.698,0,0,0,0,0,0,0,-1,1329,316,7.70037,117.698
112,708,8.05212,-116.462,0,0,0,0,0,0,0,-1,1336,316,8.05209,116.462
119,708,4.22241,-117.54,0,0,0,0,0,0,0,-1,1343,316,4.22246,117.54
126,708,3.62878,-116.281,0,0,0,0,0,0,0,-1,1350,316,3.62874,116.281
133,708,7.8053,-117.805,0,0,0,0,0,0,0,-1,1357,316,7.80527,117.805
140,708,7.15955,-118.207,0,0,0,0,0,0,0,-1,1364,316,7.15953,118.207
147,708,-7.81604,-108.593,0,0,0,0,0,0,0,-1,1371,316,-7.81607,108.593
154,708,0,0,0,0,0,0,0,0,0,-1,1378,316,0,0
161,708,0,0,0,0,0,0,0,0,0,-1,1385,316,0,0
168,708,0,0,0,0,0,0,0,0,0,-1,1392,316,0,0
175,708,0,0,0,0,0,0,0,0,0,-1,1399,316,0,0
182,708,0,0,0,0,0,0,0,0,0,-1,1406,316,0,0
189,708,0,0,0,0,0,0,0,0,0,-1,1413,316,0,0
196,708,0,0,0,0,0,0,0,0,0,-1,1420,316,0,0
203,708,0,0,0,0,0,0,0,0,0,-1,1427,316,0,0
210,708,0,0,0,0,0,0,0,0,0,-1,1434,316,0,0
217,708,0,0,0,0,0,0,0,0,0,-1,1441,316,0,0
224,708,0,0,0,0,0,0,0,0,0,-1,1448,316,0,0
231,708,0,0,0,0,0,0,0,0,0,-1,1455,316,0,0
238,708,0,0,0,0,0,0,0,0,0,-1,1462,316,0,0
245,708,0,0,0,0,0,0,0,0,0,-1,1469,316,0,0
252,708,0,0,0,0,0,0,0,0,0,-1,1476,316,0,0
259,708,0,0,0,0,0,0,0,0,0,-1,1483,316,0,0
266,708,0,0,0,0,0,0,0,0,0,-1,1490,316,0,0
273,708,0,0,0,0,0,0,0,0,0,-1,1497,316,0,0
280,708,0,0,0,0,0,0,0,0,0,-1,1504,316,0,0
287,708,0,0,0,0,0,0,0,0,0,-1,1511,316,0,0
294,708,0,0,0,0,0,0,0,0,0,-1,1518,316,0,0
301,708,0,0,0,0,0,0,0,0,0,-1,1525,316,0,0
308,708,0,0,0,0,0,0,0,0,0,-1,1532,316,0,0
315,708,0,0,0,0,0,0,0,0,0,-1,1539,316,0,0
322,708,0,0,0,0,0,0,0,0,0,-1,1546,316,0,0
329,708,0,0,0,0,0,0,0,0,0,-1,1553,316,0,0
336,708,0,0,0,0,0,0,0,0,0,-1,1560,316,0,0
343,708,0,0,0,0,0,0,0,0,0,-1,1567,316,0,0
350,708,0,0,0,0,0,0,0,0,0,-1,1574,316,0,0
357,708,0,0,0,0,0,0,0,0,0,-1,1581,316,0,0
364,708,0,0,0,0,0,0,0,0,0,-1,1588,316,0,0
371,708,0,0,0,0,0,0,0,0,0,-1,1595,316,0,0
378,708,0,0,0,0,0,0,0,0,0,-1,1602,316,0,0
385,708,0,0,0,0,0,0,0,0,0,-1,1609,316,0,0
392,708,0,0,0,0,0,0,0,0,0,-1,1616,316,0,0
399,708,0,0,0,0,0,0,0,0,0,-1,1623,316,0,0
406,708,0,0,0,0,0,0,0,0,0,-1,1630,316,0,0
413,708,0,0,0,0,0,0,0,0,0,-1,1637,316,0,0
420,708,0,0,0,0,0,0,0,0,0,-1,1644,316,0,0
427,708,0,0,0,0,0,0,0,0,0,-1,1651,316,0,0
434,708,0,0,0,0,0,0,0,0,0,-1,1658,316,0,0
441,708,0,0,0,0,0,0,0,0,0,-1,1665,316,0,0
448,708,0,0,0,0,0,0,0,0,0,-1,1672,316,0,0
455,708,0,0,0,0,0,0,0,0,0,-1,1679,316,0,0
462,708,0,0,0,0,0,0,0,0,0,-1,1686,316,0,0
469,708,0,0,0,0,0,0,0,0,0,-1,1693,316,0,0
476,708,0,0,0,0,0,0,0,0,0,-1,1700,316,0,0
483,708,0,0,0,0,0,0,0,0,0,-1,1707,316,0,0
490,708,0,0,0,0,0,0,0,0,0,-1,1714,316,0,0
497,708,0,0,0,0,0,0,0,0,0,-1,1721,316,0,0
504,708,0,0,0,0,0,0,0,0,0,-1,1728,316,0,0
511,708,0,0,0,0,0,0,0,0,0,-1,1735,316,0,0
518,708,0,0,0,0,0,0,0,0,0,-1,1742,316,0,0
525,708,0,0,0,0,0,0,0,0,0,-1,1749,316,0,0
532,708,0,0,0,0,0,0,0,0,0,-1,1756,316,0,0
539,708,0,0,0,0,0,0,0,0,0,-1,1763,316,0,0
546,708,0,0,0,0,0,0,0,0,0,-1,1770,316,0,0
553,708,0,0,0,0,0,0,0,0,0,-1,1777,316,0,0
560,708,0,0,0,0,0,0,0,0,0,-1,1784,316,0,0
567,708,0,0,0,0,0,0,0,0,0,-1,1791,316,0,0
574,708,0,0,0,0,0,0,0,0,0,-1,1798,316,0,0
581,708,0,0,0,0,0,0,0,0,0,-1,1805,316,0,0
588,708,0,0,0,0,0,0,0,0,0,-1,1812,316,0,0
595,708,0,0,0,0,0,0,0,0,0,-1,1819,316,0,0
602,708,0,0,0,0,0,0,0,0,0,-1,1826,316,0,0
609,708,0,0,0,0,0,0,0,0,0,-1,1833,316,0,0
616,708,0,0,0,0,0,0,0,0,0,-1,1840,316,0,0
623,708,0,0,0,0,0,0,0,0,0,-1,1847,316,0,0
630,708,0,0,0,0,0,0,0,0,0,-1,1854,316,0,0
637,708,0,0,0,0,0,0,0,0,0,-1,1861,316,0,0
644,708,0,0,0,0,0,0,0,0,0,-1,1868,316,0,0
651,708,0,0,0,0,0,0,0,0,0,-1,1875,316,0,0
658,708,0,0,0,0,0,0,0,0,0,-1,1882,316,0,0
665,708,0,0,0,0,0,0,0,0,0,-1,1889,316,0,0
672,708,0,0,0,0,0,0,0,0,0,-1,1896,316,0,0
679,708,0,0,0,0,0,0,0,0,0,-1,1903,316,0,0
686,708,0,0,0,0,0,0,0,0,0,-1,1910,316,0,0
693,708,0,0,0,0,0,0,0,0,0,-1,1917,316,0,0
700,708,0,0,0,0,0,0,0,0,0,-1,1924,316,0,0
707,708,0,0,0,0,0,0,0,0,0,-1,1931,316,0,0
714,708,0,0,0,0,0,0,0,0,0,-1,1938,316,0,0
721,708,0,0,0,0,0,0,0,0,0,-1,1945,316,0,0
728,708,0,0,0,0,0,0,0,0,0,-1,1952,316,0,0
735,708,0,0,0,0,0,0,0,0,0,-1,1959,316,0,0
742,708,0,0,0,0,0,0,0,0,0,-1,1966,316,0,0
749,708,0,0,0,0,0,0,0,0,0,-1,1973,316,0,0
756,708,0,0,0,0,0,0,0,0,0,-1,1980,316,0,0
763,708,0,0,0,0,0,0,0,0,0,-1,1987,316,0,0
770,708,0,0,0,0,0,0,0,0,0,-1,1994,316,0,0
777,708,0,0,0,0,0,0,0,0,0,-1,2001,316,0,0
784,708,0,0,0,0,0,0,0,0,0,-1,2008,316,0,0
791,708,0,0,0,0,0,0,0,0,0,-1,2015,316,0,0
798,708,0,0,0,0,0,0,0,0,0,-1,2022,316,0,0
805,708,0,0,0,0,0,0,0,0,0,-1,2029,316,0,0
812,708,0,0,0,0,0,0,0,0,0,-1,2036,316,0,0
-700,701,0,0,0,0,0,0,0,0,0,-1,524,323,0,0
-693,701,0,0,0,0,0,0,0,0,0,-1,531,323,0,0
-686,701,0,0,0,0,0,0,0,0,0,-1,538,323,0,0
-679,701,0,0,0,0,0,0,0,0,0,-1,545,323,0,0
-672,701,0,0,0,0,0,0,0,0,0,-1,552,323,0,0
-665,701,0,0,0,0,0,0,0,0,0,-1,559,323,0,0
-658,701,0,0,0,0,0,0,0,0,0,-1,566,323,0,0
-651,701,0,0,0,0,0,0,0,0,0,-1,573,323,0,0
-644,701,0,0,0,0,0,0,0,0,0,-1,580,323,0,0
-637,701,0,0,0,0,0,0,0,0,0,-1,587,323,0,0
-630,701,0,0,0,0,0,0,0,0,0,-1,594,323,0,0
-623,701,0,0,0,0,0,0,0,0,0,-1,601,323,0,0
-616,701,0,0,0,0,0,0,0,0,0,-1,608,323,0,0
-609,701,0,0,0,0,0,0,0,0,0,-1,615,323,0,0
-602,701,0,0,0,0,0,0,0,0,0,-1,622,323,0,0
-595,701,0,0,0,0,0,0,0,0,0,-1,629,323,0,0
-588,701,0,0,0,0,0,0,0,0,0,-1,636,323,0,0
-581,701,0,0,0,0,0,0,0,0,0,-1,643,323,0,0
-574,701,0,0,0,0,0,0,0,0,0,-1,650,323,0,0
-567,701,0,0,0,0,0,0,0,0,0,-1,657,323,0,0
-560,701,0,0,0,0,0,0,0,0,0,-1,664,323,0,0
-553,701,0,0,0,0,0,0,0,0,0,-1,671,323,0,0
-546,701,0,0,0,0,0,0,0,0,0,-1,678,323,0,0
-539,701,0,0,0,0,0,0,0,0,0,-1,685,323,0,0
-532,701,0,0,0,0,0,0,0,0,0,-1,692,323,0,0
-525,701,0,0,0,0,0,0,0,0,0,-1,699,323,0,0
-518,701,0,0,0,0,0,0,0,0,0,-1,706,323,0,0
-511,701,0,0,0,0,0,0,0,0,0,-1,713,323,0,0
-504,701,0,0,0,0,0,0,0,0,0,-1,720,323,0,0
-497,701,0,0,0,0,0,0,0,0,0,-1,727,323,0,0
-490,701,0,0,0,0,0,0,0,0,0,-1,734,323,0,0
-483,701,0,0,0,0,0,0,0,0,0,-1,741,323,0,0
-476,701,0,0,0,0,0,0,0,0,0,-1,748,323,0,0
-469,701,0,0,0,0,0,0,0,0,0,-1,755,323,0,0
-462,701,0,0,0,0,0,0,0,0,0,-1,762,323,0,0
-455,701,0,0,0,0,0,0,0,0,0,-1,769,323,0,0
-448,701,0,0,0,0,0,0,0,0,0,-1,776,323,0,0
-441,701,0,0,0,0,0,0,0,0,0,-1,783,323,0,0
-434,701,0,0,0,0,0,0,0,0,0,-1,790,323,0,0
-427,701,0,0,0,0,0,0,0,0,0,-1,797,323,0,0
-420,701,0,0,0,0,0,0,0,0,0,-1,804,323,0,0
-413,701,0,0,0,0,0,0,0,0,0,-1,811,323,0,0
-406,701,0,0,0,0,0,0,0,0,0,-1,818,323,0,0
-399,701,0,0,0,0,0,0,0,0,0,-1,825,323,0,0
-392,701,0,0,0,0,0,0,0,0,0,-1,832,323,0,0
-385,701,0,0,0,0,0,0,0,0,0,-1,839,323,0,0
-378,701,0,0,0,0,0,0,0,0,0,-1,846,323,0,0
-371,701,0,0,0,0,0,0,0,0,0,-1,853,323,0,0
-364,701,0,0,0,0,0,0,0,0,0,-1,860,323,0,0
-357,701,0,0,0,0,0,0,0,0,0,-1,867,323,0,0
-350,701,0,0,0,0,0,0,0,0,0,-1,874,323,0,0
-343,701,0,0,0,0,0,0,0,0,0,-1,881,323,0,0
-336,701,0,0,0,0,0,0,0,0,0,-1,888,323,0,0
-329,701,0,0,0,0,0,0,0,0,0,-1,895,323,0,0
-322,701,0,0,0,0,0,0,0,0,0,-1,902,323,0,0
-315,701,0,0,0,0,0,0,0,0,0,-1,909,323,0,0
-308,701,0,0,0,0,0,0,0,0,0,-1,916,323,0,0
-301,701,0,0,0,0,0,0,0,0,0,-1,923,323,0,0
-294,701,0,0,0,0,0,0,0,0,0,-1,930,323,0,0
-287,701,0,0,0,0,0,0,0,0,0,-1,937,323,0,0
-280,701,0,0,0,0,0,0,0,0,0,-1,944,323,0,0
-273,701,0,0,0,0,0,0,0,0,0,-1,951,323,0,0
-266,701,0,0,0,0,0,0,0,0,0,-1,958,323,0,0
-259,701,0,0,0,0,0,0,0,0,0,-1,965,323,0,0
-252,701,0,0,0,0,0,0,0,0,0,-1,972,323,0,0
-245,701,0,0,0,0,0,0,0,0,0,-1,979,323,0,0
-238,701,0,0,0,0,0,0,0,0,0,-1,986,323,0,0
-231,701,0,0,0,0,0,0,0,0,0,-1,993,323,0,0
-224,701,0,0,0,0,0,0,0,0,0,-1,1000,323,0,0
-217,701,0,0,0,0,0,0,0,0,0,-1,1007,323,0,0
-210,701,0,0,0,0,0,0,0,0,0,-1,1014,323,0,0
-203,701,0,0,0,0,0,0,0,0,0,-1,1021,323,0,0
-196,701,0,0,0,0,0,0,0,0,0,-1,1028,323,0,0
-189,701,0,0,0,0,0,0,0,0,0,-1,1035,323,0,0
-182,701,0,0,0,0,0,0,0,0,0,-1,1042,323,0,0
-175,701,0,0,0,0,0,0,0,0,0,-1,1049,323,0,0
-168,701,0,0,0,0,0,0,0,0,0,-1,1056,323,0,0
-161,701,0,0,0,0,0,0,0,0,0,-1,1063,323,0,0
-154,701,0,0,0,0,0,0,0,0,0,-1,1070,323,0,0
-147,701,0,0,0,0,0,0,0,0,0,-1,1077,323,0,0
-140,701,0,0,0,0,0,0,0,0,0,-1,1084,323,0,0
-133,701,0,0,0,0,0,0,0,0,0,-1,1091,323,0,0
-126,701,0,0,0,0,0,0,0,0,0,-1,1098,323,0,0
-119,701,0,0,0,0,0,0,0,0,0,-1,1105,323,0,0
-112,701,0,0,0,0,0,0,0,0,0,-1,1112,323,0,0
-105,701,0,0,0,0,0,0,0,0,0,-1,1119,323,0,0
-98,701,0,0,0,0,0,0,0,0,0,-1,1126,323,0,0
-91,701,0,0,0,0,0,0,0,0,0,-1,1133,323,0,0
-84,701,0,0,0,0,0,0,0,0,0,-1,1140,323,0,0
-77,701,0,0,0,0,0,0,0,0,0,-1,1147,323,0,0
-70,701,-12.7566,-30.413,0,0,0,0,0,0,0,-1,1154,323,-12.7566,30.413
-63,701,-18.3169,-21.2322,0,0,0,0,0,0,0,-1,1161,323,-18.3169,21.2322
-56,701,-0.420166,-0.101776,0,0,0,0,0,0,0,-1,1168,323,-0.420119,0.101777
-49,701,-1.09021,-0.155762,0,0,0,0,0,0,0,-1,1175,323,-1.09024,0.155768
-42,701,-0.210327,-0.299133,0,0,0,0,0,0,0,-1,1182,323,-0.210379,0.29914
-35,701,-2.9635,-7.98676,0,0,0,0,0,0,0,-1,1189,323,-2.9635,7.98676
-28,701,-6.64417,-5.4917,0,0,0,0,0,0,0,-1,1196,323,-6.64411,5.4917
-21,701,11.4597,-104.853,0,0,0,0,0,0,0,-1,1203,323,11.4598,104.853
-14,701,8.23767,-122.245,0,0,0,0,0,0,0,-1,1210,323,8.23766,122.245
-7,701,8.22827,-122.938,0,0,0,0,0,0,0,-1,1217,323,8.22828,122.938
0,701,6.92151,-122.302,0,0,0,0,0,0,0,-1,1224,323,6.92149,122.302
7,701,7.1615,-122.1,0,0,0,0,0,0,0,-1,1231,323,7.16154,122.1
14,701,6.77295,-119.995,0,0,0,0,0,0,0,-1,1238,323,6.7729,119.995
21,701,6.71692,-119.996,0,0,0,0,0,0,0,-1,1245,323,6.71696,119.996
28,701,6.89722,-119.941,0,0,0,0,0,0,0,-1,1252,323,6.89723,119.941
35,701,7.3717,-120.095,0,0,0,0,0,0,0,-1,1259,323,7.37167,120.095
42,701,8.30591,-120.407,0,0,0,0,0,0,0,-1,1266,323,8.30597,120.407
49,701,8.6593,-120.547,0,0,0,0,0,0,0,-1,1273,323,8.65936,120.547
56,701,8.55237,-120.438,0,0,0,0,0,0,0,-1,1280,323,8.55231,120.438
63,701,8.40564,-120.269,0,0,0,0,0,0,0,-1,1287,323,8.40569,120.269
70,701,8.45422,-119.942,0,0,0,0,0,0,0,-1,1294,323,8.45419,119.942
77,701,8.73608,-119.57,0,0,0,0,0,0,0,-1,1301,323,8.73604,119.57
84,701,8.10242,-119.028,0,0,0,0,0,0,0,-1,1308,323,8.10246,119.028
91,701,8.16809,-118.168,0,0,0,0,0,0,0,-1,1315,323,8.16813,118.168
98,701,7.99939,-117.882,0,0,0,0,0,0,0,-1,1322,323,7.99942,117.882
105,701,8.37439,-117.677,0,0,0,0,0,0,0,-1,1329,323,8.37439,117.677
112,701,9.55273,-117.327,0,0,0,0,0,0,0,-1,1336,323,9.55277,117.327
119,701,10.7312,-116.978,0,0,0,0,0,0,0,-1,1343,323,10.7311,116.978
126,701,4.05469,-113.035,0,0,0,0,0,0,0,-1,1350,323,4.05473,113.035
133,701,8.98853,-119.089,0,0,0,0,0,0,0,-1,1357,323,8.98847,119.089
140,701,8.26868,-119.367,0,0,0,0,0,0,0,-1,1364,323,8.26871,119.367
147,701,-6.5968,-110.041,0,0,0,0,0,0,0,-1,1371,323,-6.5968,110.041
154,701,-9.04028,-110.465,0,0,0,0,0,0,0,-1,1378,323,-9.04028,110.465
161,701,-4.83057,-59.3711,0,0,0,0,0,0,0,-1,1385,323,-4.83061,59.3711
168,701,30.7272,1.76184,0,0,0,0,0,0,0,-1,1392,323,30.7272,-1.76184
175,701,31.5035,2.25711,0,0,0,0,0,0,0,-1,1399,323,31.5036,-2.25712
182,701,8.80652,5.42807,0,0,0,0,0,0,0,-1,1406,323,8.8065,-5.42808
189,701,8.58081,4.24493,0,0,0,0,0,0,0,-1,1413,323,8.58082,-4.24494
196,701,0,0,0,0,0,0,0,0,0,-1,1420,323,0,0
203,701,0,0,0,0,0,0,0,0,0,-1,1427,323,0,0
210,701,0,0,0,0,0,0,0,0,0,-1,1434,323,0,0
217,701,0,0,0,0,0,0,0,0,0,-1,1441,323,0,0
224,701,0,0,0,0,0,0,0,0,0,-1,1448,323,0,0
231,701,0,0,0,0,0,0,0,0,0,-1,1455,323,0,0
238,701,0,0,0,0,0,0,0,0,0,-1,1462,323,0,0
245,701,0,0,0,0,0,0,0,0,0,-1,1469,323,0,0
252,701,0,0,0,0,0,0,0,0,0,-1,1476,323,0,0
259,701,0,0,0,0,0,0,0,0,0,-1,1483,323,0,0
266,701,0,0,0,0,0,0,0,0,0,-1,1490,323,0,0
273,701,0,0,0,0,0,0,0,0,0,-1,1497,323,0,0
280,701,0,0,0,0,0,0,0,0,0,-1,1504,323,0,0
287,701,0,0,0,0,0,0,0,0,0,-1,1511,323,0,0
294,701,0,0,0,0,0,0,0,0,0,-1,1518,323,0,0
301,701,0,0,0,0,0,0,0,0,0,-1,1525,323,0,0
308,701,0,0,0,0,0,0,0,0,0,-1,1532,323,0,0
315,701,0,0,0,0,0,0,0,0,0,-1,1539,323,0,0
322,701,0,0,0,0,0,0,0,0,0,-1,1546,323,0,0
329,701,0,0,0,0,0,0,0,0,0,-1,1553,323,0,0
336,701,0,0,0,0,0,0,0,0,0,-1,1560,323,0,0
343,701,0,0,0,0,0,0,0,0,0,-1,1567,323,0,0
350,701,0,0,0,0,0,0,0,0,0,-1,1574,323,0,0
357,701,0,0,0,0,0,0,0,0,0,-1,1581,323,0,0
364,701,0,0,0,0,0,0,0,0,0,-1,1588,323,0,0
371,701,0,0,0,0,0,0,0,0,0,-1,1595,323,0,0
378,701,0,0,0,0,0,0,0,0,0,-1,1602,323,0,0
385,701,0,0,0,0,0,0,0,0,0,-1,1609,323,0,0
392,701,0,0,0,0,0,0,0,0,0,-1,1616,323,0,0
399,701,0,0,0,0,0,0,0,0,0,-1,1623,323,0,0
406,701,0,0,0,0,0,0,0,0,0,-1,1630,323,0,0
413,701,0,0,0,0,0,0,0,0,0,-1,1637,323,0,0
420,701,0,0,0,0,0,0,0,0,0,-1,1644,323,0,0
427,701,0,0,0,0,0,0,0,0,0,-1,1651,323,0,0
434,701,0,0,0,0,0,0,0,0,0,-1,1658,323,0,0
441,701,0,0,0,0,0,0,0,0,0,-1,1665,323,0,0
448,701,0,0,0,0,0,0,0,0,0,-1,1672,323,0,0
455,701,0,0,0,0,0,0,0,0,0,-1,1679,323,0,0
462,701,0,0,0,0,0,0,0,0,0,-1,1686,323,0,0
469,701,0,0,0,0,0,0,0,0,0,-1,1693,323,0,0
476,701,0,0,0,0,0,0,0,0,0,-1,1700,323,0,0
483,701,0,0,0,0,0,0,0,0,0,-1,1707,323,0,0
490,701,0,0,0,0,0,0,0,0,0,-1,1714,323,0,0
497,701,0,0,0,0,0,0,0,0,0,-1,1721,323,0,0
504,701,0,0,0,0,0,0,0,0,0,-1,1728,323,0,0
511,701,0,0,0,0,0,0,0,0,0,-1,1735,323,0,0
518,701,0,0,0,0,0,0,0,0,0,-1,1742,323,0,0
525,701,0,0,0,0,0,0,0,0,0,-1,1749,323,0,0
532,701,0,0,0,0,0,0,0,0,0,-1,1756,323,0,0
539,701,0,0,0,0,0,0,0,0,0,-1,1763,323,0,0
546,701,0,0,0,0,0,0,0,0,0,-1,1770,323,0,0
553,701,0,0,0,0,0,0,0,0,0,-1,1777,323,0,0
560,701,0,0,0,0,0,0,0,0,0,-1,1784,323,0,0
567,701,0,0,0,0,0,0,0,0,0,-1,1791,323,0,0
574,701,0,0,0,0,0,0,0,0,0,-1,1798,323,0,0
581,701,0,0,0,0,0,0,0,0,0,-1,1805,323,0,0
588,701,0,0,0,0,0,0,0,0,0,-1,1812,323,0,0
595,701,0,0,0,0,0,0,0,0,0,-1,1819,323,0,0
602,701,0,0,0,0,0,0,0,0,0,-1,1826,323,0,0
609,701,0,0,0,0,0,0,0,0,0,-1,1833,323,0,0
616,701,0,0,0,0,0,0,0,0,0,-1,1840,323,0,0
623,701,0,0,0,0,0,0,0,0,0,-1,1847,323,0,0
630,701,0,0,0,0,0,0,0,0,0,-1,1854,323,0,0
637,701,0,0,0,0,0,0,0,0,0,-1,1861,323,0,0
644,701,0,0,0,0,0,0,0,0,0,-1,1868,323,0,0
651,701,0,0,0,0,0,0,0,0,0,-1,1875,323,0,0
658,701,0,0,0,0,0,0,0,0,0,-1,1882,323,0,0
665,701,0,0,0,0,0,0,0,0,0,-1,1889,323,0,0
672,701,0,0,0,0,0,0,0,0,0,-1,1896,323,0,0
679,701,0,0,0,0,0,0,0,0,0,-1,1903,323,0,0
686,701,0,0,0,0,0,0,0,0,0,-1,1910,323,0,0
693,701,0,0,0,0,0,0,0,0,0,-1,1917,323,0,0
700,701,0,0,0,0,0,0,0,0,0,-1,1924,323,0,0
707,701,0,0,0,0,0,0,0,0,0,-1,1931,323,0,0
714,701,0,0,0,0,0,0,0,0,0,-1,1938,323,0,0
721,701,0,0,0,0,0,0,0,0,0,-1,1945,323,0,0
728,701,0,0,0,0,0,0,0,0,0,-1,1952,323,0,0
735,701,0,0,0,0,0,0,0,0,0,-1,1959,323,0,0
742,701,0,0,0,0,0,0,0,0,0,-1,1966,323,0,0
749,701,0,0,0,0,0,0,0,0,0,-1,1973,323,0,0
756,701,0,0,0,0,0,0,0,0,0,-1,1980,323,0,0
763,701,0,0,0,0,0,0,0,0,0,-1,1987,323,0,0
770,701,0,0,0,0,0,0,0,0,0,-1,1994,323,0,0
777,701,0,0,0,0,0,0,0,0,0,-1,2001,323,0,0
784,701,0,0,0,0,0,0,0,0,0,-1,2008,323,0,0
791,701,0,0,0,0,0,0,0,0,0,-1,2015,323,0,0
798,701,0,0,0,0,0,0,0,0,0,-1,2022,323,0,0
805,701,0,0,0,0,0,0,0,0,0,-1,2029,323,0,0
812,701,0,0,0,0,0,0,0,0,0,-1,2036,323,0,0
-700,694,0,0,0,0,0,0,0,0,0,-1,524,330,0,0
-693,694,0,0,0,0,0,0,0,0,0,-1,531,330,0,0
-686,694,0,0,0,0,0,0,0,0,0,-1,538,330,0,0
-679,694,0,0,0,0,0,0,0,0,0,-1,545,330,0,0
-672,694,0,0,0,0,0,0,0,0,0,-1,552,330,0,0
-665,694,0,0,0,0,0,0,0,0,0,-1,559,330,0,0
-658,694,0,0,0,0,0,0,0,0,0,-1,566,330,0,0
-651,694,0,0,0,0,0,0,0,0,0,-1,573,330,0,0
-644,694,0,0,0,0,0,0,0,0,0,-1,580,330,0,0
-637,694,0,0,0,0,0,0,0,0,0,-1,587,330,0,0
-630,694,0,0,0,0,0,0,0,0,0,-1,594,330,0,0
-623,694,0,0,0,0,0,0,0,0,0,-1,601,330,0,0
-616,694,0,0,0,0,0,0,0,0,0,-1,608,330,0,0
-609,694,0,0,0,0,0,0,0,0,0,-1,615,330,0,0
-602,694,0,0,0,0,0,0,0,0,0,-1,622,330,0,0
-595,694,0,0,0,0,0,0,0,0,0,-1,629,330,0,0
-588,694,0,0,0,0,0,0,0,0,0,-1,636,330,0,0
-581,694,0,0,0,0,0,0,0,0,0,-1,643,330,0,0
-574,694,0,0,0,0,0,0,0,0,0,-1,650,330,0,0
-567,694,0,0,0,0,0,0,0,0,0,-1,657,330,0,0
-560,694,0,0,0,0,0,0,0,0,0,-1,664,330,0,0
-553,694,0,0,0,0,0,0,0,0,0,-1,671,330,0,0
-546,694,0,0,0,0,0,0,0,0,0,-1,678,330,0,0
-539,694,0,0,0,0,0,0,0,0,0,-1,685,330,0,0
-532,694,0,0,0,0,0,0,0,0,0,-1,692,330,0,0
-525,694,0,0,0,0,0,0,0,0,0,-1,699,330,0,0
-518,694,0,0,0,0,0,0,0,0,0,-1,706,330,0,0
-511,694,0,0,0,0,0,0,0,0,0,-1,713,330,0,0
-504,694,0,0,0,0,0,0,0,0,0,-1,720,330,0,0
-497,694,0,0,0,0,0,0,0,0,0,-1,727,330,0,0
-490,694,0,0,0,0,0,0,0,0,0,-1,734,330,0,0
-483,694,0,0,0,0,0,0,0,0,0,-1,741,330,0,0
-476,694,0,0,0,0,0,0,0,0,0,-1,748,330,0,0
-469,694,0,0,0,0,0,0,0,0,0,-1,755,330,0,0
-462,694,0,0,0,0,0,0,0,0,0,-1,762,330,0,0
-455,694,0,0,0,0,0,0,0,0,0,-1,769,330,0,0
-448,694,0,0,0,0,0,0,0,0,0,-1,776,330,0,0
-441,694,0,0,0,0,0,0,0,0,0,-1,783,330,0,0
-434,694,0,0,0,0,0,0,0,0,0,-1,790,330,0,0
-427,694,0,0,0,0,0,0,0,0,0,-1,797,330,0,0
-420,694,0,0,0,0,0,0,0,0,0,-1,804,330,0,0
-413,694,0,0,0,0,0,0,0,0,0,-1,811,330,0,0
-406,694,0,0,0,0,0,0,0,0,0,-1,818,330,0,0
-399,694,0,0,0,0,0,0,0,0,0,-1,825,330,0,0
-392,694,0,0,0,0,0,0,0,0,0,-1,832,330,0,0
-385,694,0,0,0,0,0,0,0,0,0,-1,839,330,0,0
-378,694,0,0,0,0,0,0,0,0,0,-1,846,330,0,0
-371,694,0,0,0,0,0,0,0,0,0,-1,853,330,0,0
-364,694,0,0,0,0,0,0,0,0,0,-1,860,330,0,0
-357,694,0,0,0,0,0,0,0,0,0,-1,867,330,0,0
-350,694,0,0,0,0,0,0,0,0,0,-1,874,330,0,0
-343,694,0,0,0,0,0,0,0,0,0,-1,881,330,0,0
-336,694,0,0,0,0,0,0,0,0,0,-1,888,330,0,0
-329,694,0,0,0,0,0,0,0,0,0,-1,895,330,0,0
-322,694,0,0,0,0,0,0,0,0,0,-1,902,330,0,0
-315,694,0,0,0,0,0,0,0,0,0,-1,909,330,0,0
-308,694,0,0,0,0,0,0,0,0,0,-1,916,330,0,0
-301,694,0,0,0,0,0,0,0,0,0,-1,923,330,0,0
-294,694,0,0,0,0,0,0,0,0,0,-1,930,330,0,0
-287,694,0,0,0,0,0,0,0,0,0,-1,937,330,0,0
-280,694,0,0,0,0,0,0,0,0,0,-1,944,330,0,0
-273,694,0,0,0,0,0,0,0,0,0,-1,951,330,0,0
-266,694,0,0,0,0,0,0,0,0,0,-1,958,330,0,0
-259,694,0,0,0,0,0,0,0,0,0,-1,965,330,0,0
-252,694,0,0,0,0,0,0,0,0,0,-1,972,330,0,0
-245,694,0,0,0,0,0,0,0,0,0,-1,979,330,0,0
-238,694,0,0,0,0,0,0,0,0,0,-1,986,330,0,0
-231,694,0,0,0,0,0,0,0,0,0,-1,993,330,0,0
-224,694,0,0,0,0,0,0,0,0,0,-1,1000,330,0,0
-217,694,0,0,0,0,0,0,0,0,0,-1,1007,330,0,0
-210,694,0,0,0,0,0,0,0,0,0,-1,1014,330,0,0
-203,694,0,0,0,0,0,0,0,0,0,-1,1021,330,0,0
-196,694,0,0,0,0,0,0,0,0,0,-1,1028,330,0,0
-189,694,0,0,0,0,0,0,0,0,0,-1,1035,330,0,0
-182,694,0,0,0,0,0,0,0,0,0,-1,1042,330,0,0
-175,694,0,0,0,0,0,0,0,0,0,-1,1049,330,0,0
-168,694,0,0,0,0,0,0,0,0,0,-1,1056,330,0,0
-161,694,0,0,0,0,0,0,0,0,0,-1,1063,330,0,0
-154,694,0,0,0,0,0,0,0,0,0,-1,1070,330,0,0
-147,694,0,0,0,0,0,0,0,0,0,-1,1077,330,0,0
-140,694,0,0,0,0,0,0,0,0,0,-1,1084,330,0,0
-133,694,0,0,0,0,0,0,0,0,0,-1,1091,330,0,0
-126,694,0,0,0,0,0,0,0,0,0,-1,1098,330,0,0
-119,694,0,0,0,0,0,0,0,0,0,-1,1105,330,0,0
-112,694,0,0,0,0,0,0,0,0,0,-1,1112,330,0,0
-105,694,2.5188,-19.3963,0,0,0,0,0,0,0,-1,1119,330,2.51882,19.3963
-98,694,1.34875,-10.1051,0,0,0,0,0,0,0,-1,1126,330,1.34874,10.1051
-91,694,6.62366,-46.8039,0,0,0,0,0,0,0,-1,1133,330,6.62363,46.8039
-84,694,0.0577393,-40.8823,0,0,0,0,0,0,0,-1,1140,330,0.0577026,40.8823
-77,694,-5.51379,-31.2714,0,0,0,0,0,0,0,-1,1147,330,-5.51383,31.2714
-70,694,-11.9945,-25.5143,0,0,0,0,0,0,0,-1,1154,330,-11.9945,25.5143
-63,694,-18.4752,-19.7572,0,0,0,0,0,0,0,-1,1161,330,-18.4752,19.7572
-56,694,-6.50623,-0.649139,0,0,0,0,0,0,0,-1,1168,330,-6.5062,0.649126
-49,694,-1.11426,0.0341797,0,0,0,0,0,0,0,-1,1175,330,-1.11424,-0.0341846
-42,694,-0.346313,-0.709595,0,0,0,0,0,0,0,-1,1182,330,-0.346298,0.709581
-35,694,-0.459106,-1.24713,0,0,0,0,0,0,0,-1,1189,330,-0.459142,1.24714
-28,694,-6.48413,-3.95972,0,0,0,0,0,0,0,-1,1196,330,-6.48414,3.9597
-21,694,31.5182,-74.39,0,0,0,0,0,0,0,-1,1203,330,31.5181,74.39
-14,694,7.92517,-122.674,0,0,0,0,0,0,0,-1,1210,330,7.92511,122.674
-7,694,7.75134,-122.815,0,0,0,0,0,0,0,-1,1217,330,7.75129,122.815
0,694,7.14978,-122.909,0,0,0,0,0,0,0,-1,1224,330,7.14975,122.909
7,694,7.41846,-122.763,0,0,0,0,0,0,0,-1,1231,330,7.41849,122.763
14,694,7.78088,-122.135,0,0,0,0,0,0,0,-1,1238,330,7.78094,122.135
21,694,6.76892,-120.556,0,0,0,0,0,0,0,-1,1245,330,6.76892,120.556
28,694,7.16833,-120.65,0,0,0,0,0,0,0,-1,1252,330,7.16829,120.65
35,694,7.62793,-120.881,0,0,0,0,0,0,0,-1,1259,330,7.62788,120.881
42,694,8.2395,-121.018,0,0,0,0,0,0,0,-1,1266,330,8.23955,121.018
49,694,8.58594,-121.055,0,0,0,0,0,0,0,-1,1273,330,8.58592,121.055
56,694,8.64148,-121.065,0,0,0,0,0,0,0,-1,1280,330,8.64148,121.065
63,694,8.6106,-120.929,0,0,0,0,0,0,0,-1,1287,330,8.6106,120.929
70,694,8.56128,-120.253,0,0,0,0,0,0,0,-1,1294,330,8.5613,120.253
77,694,8.91516,-119.88,0,0,0,0,0,0,0,-1,1301,330,8.91519,119.88
84,694,9.26904,-119.493,0,0,0,0,0,0,0,-1,1308,330,9.26907,119.493
91,694,9.6322,-119.327,0,0,0,0,0,0,0,-1,1315,330,9.63225,119.327
98,694,9.97595,-118.849,0,0,0,0,0,0,0,-1,1322,330,9.97595,118.849
105,694,10.3336,-118.418,0,0,0,0,0,0,0,-1,1329,330,10.3337,118.418
112,694,10.949,-118.03,0,0,0,0,0,0,0,-1,1336,330,10.949,118.03
119,694,11.6011,-117.631,0,0,0,0,0,0,0,-1,1343,330,11.601,117.631
126,694,12.0504,-117.05,0,0,0,0,0,0,0,-1,1350,330,12.0504,117.05
133,694,4.19275,-116.184,0,0,0,0,0,0,0,-1,1357,330,4.19273,116.184
140,694,9.5199,-117.237,0,0,0,0,0,0,0,-1,1364,330,9.51991,117.237
147,694,-6.99646,-112.223,0,0,0,0,0,0,0,-1,1371,330,-6.99642,112.223
154,694,-8.39124,-113.068,0,0,0,0,0,0,0,-1,1378,330,-8.39119,113.068
161,694,0.0187988,-38.6779,0,0,0,0,0,0,0,-1,1385,330,0.0187579,38.6779
168,694,30.451,0.196686,0,0,0,0,0,0,0,-1,1392,330,30.4511,-0.196674
175,694,31.0701,0.869873,0,0,0,0,0,0,0,-1,1399,330,31.07,-0.869874
182,694,8.29028,5.75238,0,0,0,0,0,0,0,-1,1406,330,8.29034,-5.75237
189,694,7.9801,4.46118,0,0,0,0,0,0,0,-1,1413,330,7.9801,-4.46118
196,694,7.39331,3.32632,0,0,0,0,0,0,0,-1,1420,330,7.39329,-3.32633
203,694,7.04492,2.20529,0,0,0,0,0,0,0,-1,1427,330,7.04496,-2.20529
210,694,6.44714,0.646912,0,0,0,0,0,0,0,-1,1434,330,6.44717,-0.646903
217,694,7.12061,-0.644958,0,0,0,0,0,0,0,-1,1441,330,7.12059,0.644961
224,694,6.74011,-1.70544,0,0,0,0,0,0,0,-1,1448,330,6.74013,1.70546
231,694,0,0,0,0,0,0,0,0,0,-1,1455,330,0,0
238,694,0,0,0,0,0,0,0,0,0,-1,1462,330,0,0
245,694,0,0,0,0,0,0,0,0,0,-1,1469,330,0,0
252,694,0,0,0,0,0,0,0,0,0,-1,1476,330,0,0
259,694,0,0,0,0,0,0,0,0,0,-1,1483,330,0,0
266,694,0,0,0,0,0,0,0,0,0,-1,1490,330,0,0
273,694,0,0,0,0,0,0,0,0,0,-1,1497,330,0,0
280,694,0,0,0,0,0,0,0,0,0,-1,1504,330,0,0
287,694,0,0,0,0,0,0,0,0,0,-1,1511,330,0,0
294,694,0,0,0,0,0,0,0,0,0,-1,1518,330,0,0
301,694,0,0,0,0,0,0,0,0,0,-1,1525,330,0,0
308,694,0,0,0,0,0,0,0,0,0,-1,1532,330,0,0
315,694,0,0,0,0,0,0,0,0,0,-1,1539,330,0,0
322,694,0,0,0,0,0,0,0,0,0,-1,1546,330,0,0
329,694,0,0,0,0,0,0,0,0,0,-1,1553,330,0,0
336,694,0,0,0,0,0,0,0,0,0,-1,1560,330,0,0
343,694,0,0,0,0,0,0,0,0,0,-1,1567,330,0,0
350,694,0,0,0,0,0,0,0,0,0,-1,1574,330,0,0
357,694,0,0,0,0,0,0,0,0,0,-1,1581,330,0,0
364,694,0,0,0,0,0,0,0,0,0,-1,1588,330,0,0
371,694,0,0,0,0,0,0,0,0,0,-1,1595,330,0,0
378,694,0,0,0,0,0,0,0,0,0,-1,1602,330,0,0
385,694,0,0,0,0,0,0,0,0,0,-1,1609,330,0,0
392,694,0,0,0,0,0,0,0,0,0,-1,1616,330,0,0
399,694,0,0,0,0,0,0,0,0,0,-1,1623,330,0,0
406,694,0,0,0,0,0,0,0,0,0,-1,1630,330,0,0
413,694,0,0,0,0,0,0,0,0,0,-1,1637,330,0,0
420,694,0,0,0,0,0,0,0,0,0,-1,1644,330,0,0
427,694,0,0,0,0,0,0,0,0,0,-1,1651,330,0,0
434,694,0,0,0,0,0,0,0,0,0,-1,1658,330,0,0
441,694,0,0,0,0,0,0,0,0,0,-1,1665,330,0,0
448,694,0,0,0,0,0,0,0,0,0,-1,1672,330,0,0
455,694,0,0,0,0,0,0,0,0,0,-1,1679,330,0,0
462,694,0,0,0,0,0,0,0,0,0,-1,1686,330,0,0
469,694,0,0,0,0,0,0,0,0,0,-1,1693,330,0,0
476,694,0,0,0,0,0,0,0,0,0,-1,1700,330,0,0
483,694,0,0,0,0,0,0,0,0,0,-1,1707,330,0,0
490,694,0,0,0,0,0,0,0,0,0,-1,1714,330,0,0
497,694,0,0,0,0,0,0,0,0,0,-1,1721,330,0,0
504,694,0,0,0,0,0,0,0,0,0,-1,1728,330,0,0
511,694,0,0,0,0,0,0,0,0,0,-1,1735,330,0,0
518,694,0,0,0,0,0,0,0,0,0,-1,1742,330,0,0
525,694,0,0,0,0,0,0,0,0,0,-1,1749,330,0,0
532,694,0,0,0,0,0,0,0,0,0,-1,1756,330,0,0
539,694,0,0,0,0,0,0,0,0,0,-1,1763,330,0,0
546,694,0,0,0,0,0,0,0,0,0,-1,1770,330,0,0
553,694,0,0,0,0,0,0,0,0,0,-1,1777,330,0,0
560,694,0,0,0,0,0,0,0,0,0,-1,1784,330,0,0
567,694,0,0,0,0,0,0,0,0,0,-1,1791,330,0,0
574,694,0,0,0,0,0,0,0,0,0,-1,1798,330,0,0
581,694,0,0,0,0,0,0,0,0,0,-1,1805,330,0,0
588,694,0,0,0,0,0,0,0,0,0,-1,1812,330,0,0
595,694,0,0,0,0,0,0,0,0,0,-1,1819,330,0,0
602,694,0,0,0,0,0,0,0,0,0,-1,1826,330,0,0
609,694,0,0,0,0,0,0,0,0,0,-1,1833,330,0,0
616,694,0,0,0,0,0,0,0,0,0,-1,1840,330,0,0
623,694,0,0,0,0,0,0,0,0,0,-1,1847,330,0,0
630,694,0,0,0,0,0,0,0,0,0,-1,1854,330,0,0
637,694,0,0,0,0,0,0,0,0,0,-1,1861,330,0,0
644,694,0,0,0,0,0,0,0,0,0,-1,1868,330,0,0
651,694,0,0,0,0,0,0,0,0,0,-1,1875,330,0,0
658,694,0,0,0,0,0,0,0,0,0,-1,1882,330,0,0
665,694,0,0,0,0,0,0,0,0,0,-1,1889,330,0,0
672,694,0,0,0,0,0,0,0,0,0,-1,1896,330,0,0
679,694,0,0,0,0,0,0,0,0,0,-1,1903,330,0,0
686,694,0,0,0,0,0,0,0,0,0,-1,1910,330,0,0
693,694,0,0,0,0,0,0,0,0,0,-1,1917,330,0,0
700,694,0,0,0,0,0,0,0,0,0,-1,1924,330,0,0
707,694,0,0,0,0,0,0,0,0,0,-1,1931,330,0,0
714,694,0,0,0,0,0,0,0,0,0,-1,1938,330,0,0
721,694,0,0,0,0,0,0,0,0,0,-1,1945,330,0,0
728,694,0,0,0,0,0,0,0,0,0,-1,1952,330,0,0
735,694,0,0,0,0,0,0,0,0,0,-1,1959,330,0,0
742,694,0,0,0,0,0,0,0,0,0,-1,1966,330,0,0
749,694,0,0,0,0,0,0,0,0,0,-1,1973,330,0,0
756,694,0,0,0,0,0,0,0,0,0,-1,1980,330,0,0
763,694,0,0,0,0,0,0,0,0,0,-1,1987,330,0,0
770,694,0,0,0,0,0,0,0,0,0,-1,1994,330,0,0
777,694,0,0,0,0,0,0,0,0,0,-1,2001,330,0,0
784,694,0,0,0,0,0,0,0,0,0,-1,2008,330,0,0
791,694,0,0,0,0,0,0,0,0,0,-1,2015,330,0,0
798,694,0,0,0,0,0,0,0,0,0,-1,2022,330,0,0
805,694,0,0,0,0,0,0,0,0,0,-1,2029,330,0,0
812,694,0,0,0,0,0,0,0,0,0,-1,2036,330,0,0
-700,687,0,0,0,0,0,0,0,0,0,-1,524,337,0,0
-693,687,0,0,0,0,0,0,0,0,0,-1,531,337,0,0
-686,687,0,0,0,0,0,0,0,0,0,-1,538,337,0,0
-679,687,0,0,0,0,0,0,0,0,0,-1,545,337,0,0
-672,687,0,0,0,0,0,0,0,0,0,-1,552,337,0,0
-665,687,0,0,0,0,0,0,0,0,0,-1,559,337,0,0
-658,687,0,0,0,0,0,0,0,0,0,-1,566,337,0,0
-651,687,0,0,0,0,0,0,0,0,0,-1,573,337,0,0
-644,687,0,0,0,0,0,0,0,0,0,-1,580,337,0,0
-637,687,0,0,0,0,0,0,0,0,0,-1,587,337,0,0
-630,687,0,0,0,0,0,0,0,0,0,-1,594,337,0,0
-623,687,0,0,0,0,0,0,0,0,0,-1,601,337,0,0
-616,687,0,0,0,0,0,0,0,0,0,-1,608,337,0,0
-609,687,0,0,0,0,0,0,0,0,0,-1,615,337,0,0
-602,687,0,0,0,0,0,0,0,0,0,-1,622,337,0,0
-595,687,0,0,0,0,0,0,0,0,0,-1,629,337,0,0
-588,687,0,0,0,0,0,0,0,0,0,-1,636,337,0,0
-581,687,0,0,0,0,0,0,0,0,0,-1,643,337,0,0
-574,687,0,0,0,0,0,0,0,0,0,-1,650,337,0,0
-567,687,0,0,0,0,0,0,0,0,0,-1,657,337,0,0
-560,687,0,0,0,0,0,0,0,0,0,-1,664,337,0,0
-553,687,0,0,0,0,0,0,0,0,0,-1,671,337,0,0
-546,687,0,0,0,0,0,0,0,0,0,-1,678,337,0,0
-539,687,0,0,0,0,0,0,0,0,0,-1,685,337,0,0
-532,687,0,0,0,0,0,0,0,0,0,-1,692,337,0,0
-525,687,0,0,0,0,0,0,0,0,0,-1,699,337,0,0
-518,687,0,0,0,0,0,0,0,0,0,-1,706,337,0,0
-511,687,0,0,0,0,0,0,0,0,0,-1,713,337,0,0
-504,687,0,0,0,0,0,0,0,0,0,-1,720,337,0,0
-497,687,0,0,0,0,0,0,0,0,0,-1,727,337,0,0
-490,687,0,0,0,0,0,0,0,0,0,-1,734,337,0,0
-483,687,0,0,0,0,0,0,0,0,0,-1,741,337,0,0
-476,687,0,0,0,0,0,0,0,0,0,-1,748,337,0,0
-469,687,0,0,0,0,0,0,0,0,0,-1,755,337,0,0
-462,687,0,0,0,0,0,0,0,0,0,-1,762,337,0,0
-455,687,0,0,0,0,0,0,0,0,0,-1,769,337,0,0
-448,687,0,0,0,0,0,0,0,0,0,-1,776,337,0,0
-441,687,0,0,0,0,0,0,0,0,0,-1,783,337,0,0
-434,687,0,0,0,0,0,0,0,0,0,-1,790,337,0,0
-427,687,0,0,0,0,0,0,0,0,0,-1,797,337,0,0
-420,687,0,0,0,0,0,0,0,0,0,-1,804,337,0,0
-413,687,0,0,0,0,0,0,0,0,0,-1,811,337,0,0
-406,687,0,0,0,0,0,0,0,0,0,-1,818,337,0,0
-399,687,0,0,0,0,0,0,0,0,0,-1,825,337,0,0
-392,687,0,0,0,0,0,0,0,0,0,-1,832,337,0,0
-385,687,0,0,0,0,0,0,0,0,0,-1,839,337,0,0
-378,687,0,0,0,0,0,0,0,0,0,-1,846,337,0,0
-371,687,0,0,0,0,0,0,0,0,0,-1,853,337,0,0
-364,687,0,0,0,0,0,0,0,0,0,-1,860,337,0,0
-357,687,0,0,0,0,0,0,0,0,0,-1,867,337,0,0
-350,687,0,0,0,0,0,0,0,0,0,-1,874,337,0,0
-343,687,0,0,0,0,0,0,0,0,0,-1,881,337,0,0
-336,687,0,0,0,0,0,0,0,0,0,-1,888,337,0,0
-329,687,0,0,0,0,0,0,0,0,0,-1,895,337,0,0
-322,687,0,0,0,0,0,0,0,0,0,-1,902,337,0,0
-315,687,0,0,0,0,0,0,0,0,0,-1,909,337,0,0
-308,687,0,0,0,0,0,0,0,0,0,-1,916,337,0,0
-301,687,0,0,0,0,0,0,0,0,0,-1,923,337,0,0
-294,687,0,0,0,0,0,0,0,0,0,-1,930,337,0,0
-287,687,0,0,0,0,0,0,0,0,0,-1,937,337,0,0
-280,687,0,0,0,0,0,0,0,0,0,-1,944,337,0,0
-273,687,0,0,0,0,0,0,0,0,0,-1,951,337,0,0
-266,687,0,0,0,0,0,0,0,0,0,-1,958,337,0,0
-259,687,0,0,0,0,0,0,0,0,0,-1,965,337,0,0
-252,687,0,0,0,0,0,0,0,0,0,-1,972,337,0,0
-245,687,0,0,0,0,0,0,0,0,0,-1,979,337,0,0
-238,687,0,0,0,0,0,0,0,0,0,-1,986,337,0,0
-231,687,0,0,0,0,0,0,0,0,0,-1,993,337,0,0
-224,687,0,0,0,0,0,0,0,0,0,-1,1000,337,0,0
-217,687,0,0,0,0,0,0,0,0,0,-1,1007,337,0,0
-210,687,0,0,0,0,0,0,0,0,0,-1,1014,337,0,0
-203,687,0,0,0,0,0,0,0,0,0,-1,1021,337,0,0
-196,687,0,0,0,0,0,0,0,0,0,-1,1028,337,0,0
-189,687,0,0,0,0,0,0,0,0,0,-1,1035,337,0,0
-182,687,0,0,0,0,0,0,0,0,0,-1,1042,337,0,0
-175,687,0,0,0,0,0,0,0,0,0,-1,1049,337,0,0
-168,687,0,0,0,0,0,0,0,0,0,-1,1056,337,0,0
-161,687,0,0,0,0,0,0,0,0,0,-1,1063,337,0,0
-154,687,0,0,0,0,0,0,0,0,0,-1,1070,337,0,0
-147,687,0,0,0,0,0,0,0,0,0,-1,1077,337,0,0
-140,687,0,0,0,0,0,0,0,0,0,-1,1084,337,0,0
-133,687,7.93958,-37.548,0,0,0,0,0,0,0,-1,1091,337,7.93957,37.548
-126,687,0.688477,-38.7298,0,0,0,0,0,0,0,-1,1098,337,0.688509,38.7298
-119,687,7.70825,-33.9236,0,0,0,0,0,0,0,-1,1105,337,7.70826,33.9236
-112,687,7.99866,-32.2983,0,0,0,0,0,0,0,-1,1112,337,7.99866,32.2983
-105,687,1.3208,-29.8313,0,0,0,0,0,0,0,-1,1119,337,1.3208,29.8313
-98,687,13.7111,-47.5645,0,0,0,0,0,0,0,-1,1126,337,13.711,47.5645
-91,687,7.22083,-41.1667,0,0,0,0,0,0,0,-1,1133,337,7.22079,41.1666
-84,687,0.745117,-35.0345,0,0,0,0,0,0,0,-1,1140,337,0.745155,35.0345
-77,687,-5.74353,-28.9553,0,0,0,0,0,0,0,-1,1147,337,-5.74357,28.9553
-70,687,-11.6842,-19.8473,0,0,0,0,0,0,0,-1,1154,337,-11.6842,19.8473
-63,687,-17.6757,-14.8966,0,0,0,0,0,0,0,-1,1161,337,-17.6756,14.8966
-56,687,-18.104,7.81931,0,0,0,0,0,0,0,-1,1168,337,-18.104,-7.81931
-49,687,-15.6449,-9.94391,0,0,0,0,0,0,0,-1,1175,337,-15.6449,9.94392
-42,687,-4.2019,-0.405609,0,0,0,0,0,0,0,-1,1182,337,-4.20192,0.405614
-35,687,-4.42273,-0.688171,0,0,0,0,0,0,0,-1,1189,337,-4.42276,0.688178
-28,687,-1.14038,-1.39072,0,0,0,0,0,0,0,-1,1196,337,-1.14035,1.3907
-21,687,16.6345,-105.042,0,0,0,0,0,0,0,-1,1203,337,16.6345,105.042
-14,687,7.59106,-123.259,0,0,0,0,0,0,0,-1,1210,337,7.59103,123.259
-7,687,7.42224,-123.35,0,0,0,0,0,0,0,-1,1217,337,7.42229,123.35
0,687,7.39587,-123.522,0,0,0,0,0,0,0,-1,1224,337,7.39589,123.522
7,687,7.6853,-123.321,0,0,0,0,0,0,0,-1,1231,337,7.68532,123.321
14,687,7.70288,-122.894,0,0,0,0,0,0,0,-1,1238,337,7.70289,122.894
21,687,7.54065,-122.255,0,0,0,0,0,0,0,-1,1245,337,7.54062,122.255
28,687,7.47327,-121.694,0,0,0,0,0,0,0,-1,1252,337,7.47321,121.694
35,687,7.8136,-121.703,0,0,0,0,0,0,0,-1,1259,337,7.81359,121.703
42,687,8.28809,-121.786,0,0,0,0,0,0,0,-1,1266,337,8.28803,121.786
49,687,8.6958,-121.88,0,0,0,0,0,0,0,-1,1273,337,8.69581,121.88
56,687,8.67859,-121.752,0,0,0,0,0,0,0,-1,1280,337,8.6786,121.752
63,687,8.66138,-121.624,0,0,0,0,0,0,0,-1,1287,337,8.66139,121.624
70,687,8.69922,-120.527,0,0,0,0,0,0,0,-1,1294,337,8.69924,120.527
77,687,8.96631,-120.172,0,0,0,0,0,0,0,-1,1301,337,8.96626,120.172
84,687,9.16711,-119.717,0,0,0,0,0,0,0,-1,1308,337,9.16708,119.717
91,687,10.5623,-120.067,0,0,0,0,0,0,0,-1,1315,337,10.5623,120.067
98,687,11.1895,-119.641,0,0,0,0,0,0,0,-1,1322,337,11.1895,119.641
105,687,11.7587,-119.117,0,0,0,0,0,0,0,-1,1329,337,11.7587,119.117
112,687,12.2915,-118.735,0,0,0,0,0,0,0,-1,1336,337,12.2914,118.735
119,687,12.8386,-118.392,0,0,0,0,0,0,0,-1,1343,337,12.8386,118.392
126,687,13.3451,-117.901,0,0,0,0,0,0,0,-1,1350,337,13.3451,117.901
133,687,13.8284,-117.484,0,0,0,0,0,0,0,-1,1357,337,13.8283,117.484
140,687,3.97791,-118.856,0,0,0,0,0,0,0,-1,1364,337,3.97789,118.856
147,687,-6.0741,-114.711,0,0,0,0,0,0,0,-1,1371,337,-6.07408,114.711
154,687,3.3324,-99.3925,0,0,0,0,0,0,0,-1,1378,337,3.33246,99.3925
161,687,29.3895,-1.90628,0,0,0,0,0,0,0,-1,1385,337,29.3895,1.90628
168,687,29.8564,-1.19434,0,0,0,0,0,0,0,-1,1392,337,29.8564,1.19434
175,687,30.3419,-0.453583,0,0,0,0,0,0,0,-1,1399,337,30.3419,0.45357
182,687,6.67249,0.289917,0,0,0,0,0,0,0,-1,1406,337,6.67247,-0.289916
189,687,7.76062,4.53635,0,0,0,0,0,0,0,-1,1413,337,7.76064,-4.53636
196,687,6.99048,3.2966,0,0,0,0,0,0,0,-1,1420,337,6.99046,-3.2966
203,687,6.36499,2.1445,0,0,0,0,0,0,0,-1,1427,337,6.36499,-2.14451
210,687,6.68066,0.674652,0,0,0,0,0,0,0,-1,1434,337,6.68062,-0.674655
217,687,5.99683,-0.630493,0,0,0,0,0,0,0,-1,1441,337,5.99684,0.630497
224,687,5.52917,0.524902,0,0,0,0,0,0,0,-1,1448,337,5.5292,-0.524915
231,687,5.85583,-1.73651,0,0,0,0,0,0,0,-1,1455,337,5.85577,1.73651
238,687,5.96582,-2.96774,0,0,0,0,0,0,0,-1,1462,337,5.96577,2.96773
245,687,1.28259,2.32211,0,0,0,0,0,0,0,-1,1469,337,1.28258,-2.32211
252,687,1.97278,3.88422,0,0,0,0,0,0,0,-1,1476,337,1.97281,-3.88421
259,687,0,0,0,0,0,0,0,0,0,-1,1483,337,0,0
266,687,0,0,0,0,0,0,0,0,0,-1,1490,337,0,0
273,687,0,0,0,0,0,0,0,0,0,-1,1497,337,0,0
280,687,0,0,0,0,0,0,0,0,0,-1,1504,337,0,0
287,687,0,0,0,0,0,0,0,0,0,-1,1511,337,0,0
294,687,0,0,0,0,0,0,0,0,0,-1,1518,337,0,0
301,687,0,0,0,0,0,0,0,0,0,-1,1525,337,0,0
308,687,0,0,0,0,0,0,0,0,0,-1,1532,337,0,0
315,687,0,0,0,0,0,0,0,0,0,-1,1539,337,0,0
322,687,0,0,0,0,0,0,0,0,0,-1,1546,337,0,0
329,687,0,0,0,0,0,0,0,0,0,-1,1553,337,0,0
336,687,0,0,0,0,0,0,0,0,0,-1,1560,337,0,0
343,687,0,0,0,0,0,0,0,0,0,-1,1567,337,0,0
350,687,0,0,0,0,0,0,0,0,0,-1,1574,337,0,0
357,687,0,0,0,0,0,0,0,0,0,-1,1581,337,0,0
364,687,0,0,0,0,0,0,0,0,0,-1,1588,337,0,0
371,687,0,0,0,0,0,0,0,0,0,-1,1595,337,0,0
378,687,0,0,0,0,0,0,0,0,0,-1,1602,337,0,0
385,687,0,0,0,0,0,0,0,0,0,-1,1609,337,0,0
392,687,0,0,0,0,0,0,0,0,0,-1,1616,337,0,0
399,687,0,0,0,0,0,0,0,0,0,-1,1623,337,0,0
406,687,0,0,0,0,0,0,0,0,0,-1,1630,337,0,0
413,687,0,0,0,0,0,0,0,0,0,-1,1637,337,0,0
420,687,0,0,0,0,0,0,0,0,0,-1,1644,337,0,0
427,687,0,0,0,0,0,0,0,0,0,-1,1651,337,0,0
434,687,0,0,0,0,0,0,0,0,0,-1,1658,337,0,0
441,687,0,0,0,0,0,0,0,0,0,-1,1665,337,0,0
448,687,0,0,0,0,0,0,0,0,0,-1,1672,337,0,0
455,687,0,0,0,0,0,0,0,0,0,-1,1679,337,0,0
462,687,0,0,0,0,0,0,0,0,0,-1,1686,337,0,0
469,687,0,0,0,0,0,0,0,0,0,-1,1693,337,0,0
476,687,0,0,0,0,0,0,0,0,0,-1,1700,337,0,0
483,687,0,0,0,0,0,0,0,0,0,-1,1707,337,0,0
490,687,0,0,0,0,0,0,0,0,0,-1,1714,337,0,0
497,687,0,0,0,0,0,0,0,0,0,-1,1721,337,0,0
504,687,0,0,0,0,0,0,0,0,0,-1,1728,337,0,0
511,687,0,0,0,0,0,0,0,0,0,-1,1735,337,0,0
518,687,0,0,0,0,0,0,0,0,0,-1,1742,337,0,0
525,687,0,0,0,0,0,0,0,0,0,-1,1749,337,0,0
532,687,0,0,0,0,0,0,0,0,0,-1,1756,337,0,0
539,687,0,0,0,0,0,0,0,0,0,-1,1763,337,0,0
546,687,0,0,0,0,0,0,0,0,0,-1,1770,337,0,0
553,687,0,0,0,0,0,0,0,0,0,-1,1777,337,0,0
560,687,0,0,0,0,0,0,0,0,0,-1,1784,337,0,0
567,687,0,0,0,0,0,0,0,0,0,-1,1791,337,0,0
574,687,0,0,0,0,0,0,0,0,0,-1,1798,337,0,0
581,687,0,0,0,0,0,0,0,0,0,-1,1805,337,0,0
588,687,0,0,0,0,0,0,0,0,0,-1,1812,337,0,0
595,687,0,0,0,0,0,0,0,0,0,-1,1819,337,0,0
602,687,0,0,0,0,0,0,0,0,0,-1,1826,337,0,0
609,687,0,0,0,0,0,0,0,0,0,-1,1833,337,0,0
616,687,0,0,0,0,0,0,0,0,0,-1,1840,337,0,0
623,687,0,0,0,0,0,0,0,0,0,-1,1847,337,0,0
630,687,0,0,0,0,0,0,0,0,0,-1,1854,337,0,0
637,687,0,0,0,0,0,0,0,0,0,-1,1861,337,0,0
644,687,0,0,0,0,0,0,0,0,0,-1,1868,337,0,0
651,687,0,0,0,0,0,0,0,0,0,-1,1875,337,0,0
658,687,0,0,0,0,0,0,0,0,0,-1,1882,337,0,0
665,687,0,0,0,0,0,0,0,0,0,-1,1889,337,0,0
672,687,0,0,0,0,0,0,0,0,0,-1,1896,337,0,0
679,687,0,0,0,0,0,0,0,0,0,-1,1903,337,0,0
686,687,0,0,0,0,0,0,0,0,0,-1,1910,337,0,0
693,687,0,0,0,0,0,0,0,0,0,-1,1917,337,0,0
700,687,0,0,0,0,0,0,0,0,0,-1,1924,337,0,0
707,687,0,0,0,0,0,0,0,0,0,-1,1931,337,0,0
714,687,0,0,0,0,0,0,0,0,0,-1,1938,337,0,0
721,687,0,0,0,0,0,0,0,0,0,-1,1945,337,0,0
728,687,0,0,0,0,0,0,0,0,0,-1,1952,337,0,0
735,687,0,0,0,0,0,0,0,0,0,-1,1959,337,0,0
742,687,0,0,0,0,0,0,0,0,0,-1,1966,337,0,0
749,687,0,0,0,0,0,0,0,0,0,-1,1973,337,0,0
756,687,0,0,0,0,0,0,0,0,0,-1,1980,337,0,0
763,687,0,0,0,0,0,0,0,0,0,-1,1987,337,0,0
770,687,0,0,0,0,0,0,0,0,0,-1,1994,337,0,0
777,687,0,0,0,0,0,0,0,0,0,-1,2001,337,0,0
784,687,0,0,0,0,0,0,0,0,0,-1,2008,337,0,0
791,687,0,0,0,0,0,0,0,0,0,-1,2015,337,0,0
798,687,0,0,0,0,0,0,0,0,0,-1,2022,337,0,0
805,687,0,0,0,0,0,0,0,0,0,-1,2029,337,0,0
812,687,0,0,0,0,0,0,0,0,0,-1,2036,337,0,0
-700,680,0,0,0,0,0,0,0,0,0,-1,524,344,0,0
-693,680,0,0,0,0,0,0,0,0,0,-1,531,344,0,0
-686,680,0,0,0,0,0,0,0,0,0,-1,538,344,0,0
-679,680,0,0,0,0,0,0,0,0,0,-1,545,344,0,0
-672,680,0,0,0,0,0,0,0,0,0,-1,552,344,0,0
-665,680,0,0,0,0,0,0,0,0,0,-1,559,344,0,0
-658,680,0,0,0,0,0,0,0,0,0,-1,566,344,0,0
-651,680,0,0,0,0,0,0,0,0,0,-1,573,344,0,0
-644,680,0,0,0,0,0,0,0,0,0,-1,580,344,0,0
-637,680,0,0,0,0,0,0,0,0,0,-1,587,344,0,0
-630,680,0,0,0,0,0,0,0,0,0,-1,594,344,0,0
-623,680,0,0,0,0,0,0,0,0,0,-1,601,344,0,0
-616,680,0,0,0,0,0,0,0,0,0,-1,608,344,0,0
-609,680,0,0,0,0,0,0,0,0,0,-1,615,344,0,0
-602,680,0,0,0,0,0,0,0,0,0,-1,622,344,0,0
-595,680,0,0,0,0,0,0,0,0,0,-1,629,344,0,0
-588,680,0,0,0,0,0,0,0,0,0,-1,636,344,0,0
-581,680,0,0,0,0,0,0,0,0,0,-1,643,344,0,0
-574,680,0,0,0,0,0,0,0,0,0,-1,650,344,0,0
-567,680,0,0,0,0,0,0,0,0,0,-1,657,344,0,0
-560,680,0,0,0,0,0,0,0,0,0,-1,664,344,0,0
-553,680,0,0,0,0,0,0,0,0,0,-1,671,344,0,0
-546,680,0,0,0,0,0,0,0,0,0,-1,678,344,0,0
-539,680,0,0,0,0,0,0,0,0,0,-1,685,344,0,0
-532,680,0,0,0,0,0,0,0,0,0,-1,692,344,0,0
-525,680,0,0,0,0,0,0,0,0,0,-1,699,344,0,0
-518,680,0,0,0,0,0,0,0,0,0,-1,706,344,0,0
-511,680,0,0,0,0,0,0,0,0,0,-1,713,344,0,0
-504,680,0,0,0,0,0,0,0,0,0,-1,720,344,0,0
-497,680,0,0,0,0,0,0,0,0,0,-1,727,344,0,0
-490,680,0,0,0,0,0,0,0,0,0,-1,734,344,0,0
-483,680,0,0,0,0,0,0,0,0,0,-1,741,344,0,0
-476,680,0,0,0,0,0,0,0,0,0,-1,748,344,0,0
-469,680,0,0,0,0,0,0,0,0,0,-1,755,344,0,0
-462,680,0,0,0,0,0,0,0,0,0,-1,762,344,0,0
-455,680,0,0,0,0,0,0,0,0,0,-1,769,344,0,0
-448,680,0,0,0,0,0,0,0,0,0,-1,776,344,0,0
-441,680,0,0,0,0,0,0,0,0,0,-1,783,344,0,0
-434,680,0,0,0,0,0,0,0,0,0,-1,790,344,0,0
-427,680,0,0,0,0,0,0,0,0,0,-1,797,344,0,0
-420,680,0,0,0,0,0,0,0,0,0,-1,804,344,0,0
-413,680,0,0,0,0,0,0,0,0,0,-1,811,344,0,0
-406,680,0,0,0,0,0,0,0,0,0,-1,818,344,0,0
-399,680,0,0,0,0,0,0,0,0,0,-1,825,344,0,0
-392,680,0,0,0,0,0,0,0,0,0,-1,832,344,0,0
-385,680,0,0,0,0,0,0,0,0,0,-1,839,344,0,0
-378,680,0,0,0,0,0,0,0,0,0,-1,846,344,0,0
-371,680,0,0,0,0,0,0,0,0,0,-1,853,344,0,0
-364,680,0,0,0,0,0,0,0,0,0,-1,860,344,0,0
-357,680,0,0,0,0,0,0,0,0,0,-1,867,344,0,0
-350,680,0,0,0,0,0,0,0,0,0,-1,874,344,0,0
-343,680,0,0,0,0,0,0,0,0,0,-1,881,344,0,0
-336,680,0,0,0,0,0,0,0,0,0,-1,888,344,0,0
-329,680,0,0,0,0,0,0,0,0,0,-1,895,344,0,0
-322,680,0,0,0,0,0,0,0,0,0,-1,902,344,0,0
-315,680,0,0,0,0,0,0,0,0,0,-1,909,344,0,0
-308,680,0,0,0,0,0,0,0,0,0,-1,916,344,0,0
-301,680,0,0,0,0,0,0,0,0,0,-1,923,344,0,0
-294,680,0,0,0,0,0,0,0,0,0,-1,930,344,0,0
-287,680,0,0,0,0,0,0,0,0,0,-1,937,344,0,0
-280,680,0,0,0,0,0,0,0,0,0,-1,944,344,0,0
-273,680,0,0,0,0,0,0,0,0,0,-1,951,344,0,0
-266,680,0,0,0,0,0,0,0,0,0,-1,958,344,0,0
-259,680,0,0,0,0,0,0,0,0,0,-1,965,344,0,0
-252,680,0,0,0,0,0,0,0,0,0,-1,972,344,0,0
-245,680,0,0,0,0,0,0,0,0,0,-1,979,344,0,0
-238,680,0,0,0,0,0,0,0,0,0,-1,986,344,0,0
-231,680,0,0,0,0,0,0,0,0,0,-1,993,344,0,0
-224,680,0,0,0,0,0,0,0,0,0,-1,1000,344,0,0
-217,680,0,0,0,0,0,0,0,0,0,-1,1007,344,0,0
-210,680,0,0,0,0,0,0,0,0,0,-1,1014,344,0,0
-203,680,0,0,0,0,0,0,0,0,0,-1,1021,344,0,0
-196,680,0,0,0,0,0,0,0,0,0,-1,1028,344,0,0
-189,680,0,0,0,0,0,0,0,0,0,-1,1035,344,0,0
-182,680,0,0,0,0,0,0,0,0,0,-1,1042,344,0,0
-175,680,0,0,0,0,0,0,0,0,0,-1,1049,344,0,0
-168,680,0,0,0,0,0,0,0,0,0,-1,1056,344,0,0
-161,680,0,0,0,0,0,0,0,0,0,-1,1063,344,0,0
-154,680,2.25244,-29.1442,0,0,0,0,0,0,0,-1,1070,344,2.25241,29.1442
-147,680,9.29614,-33.0369,0,0,0,0,0,0,0,-1,1077,344,9.29612,33.0369
-140,680,6.98022,-36.6899,0,0,0,0,0,0,0,-1,1084,344,6.98023,36.6899
-133,680,1.85693,-39.7233,0,0,0,0,0,0,0,-1,1091,344,1.85699,39.7233
-126,680,2.30017,-38.3751,0,0,0,0,0,0,0,-1,1098,344,2.30011,38.3751
-119,680,2.74329,-37.0269,0,0,0,0,0,0,0,-1,1105,344,2.74323,37.0269
-112,680,7.7467,-32.4407,0,0,0,0,0,0,0,-1,1112,344,7.74668,32.4407
-105,680,20.6371,-48.461,0,0,0,0,0,0,0,-1,1119,344,20.6371,48.461
-98,680,14.2684,-41.9997,0,0,0,0,0,0,0,-1,1126,344,14.2685,41.9997
-91,680,7.89648,-35.5147,0,0,0,0,0,0,0,-1,1133,344,7.8965,35.5147
-84,680,1.47168,-29.471,0,0,0,0,0,0,0,-1,1140,344,1.47163,29.471
-77,680,-4.95337,-23.3355,0,0,0,0,0,0,0,-1,1147,344,-4.9534,23.3356
-70,680,-11.5099,-17.4337,0,0,0,0,0,0,0,-1,1154,344,-11.5098,17.4338
-63,680,-17.2391,-1.43134,0,0,0,0,0,0,0,-1,1161,344,-17.2392,1.43133
-56,680,-6.96912,-8.83356,0,0,0,0,0,0,0,-1,1168,344,-6.96907,8.83354
-49,680,-6.7677,-2.24063,0,0,0,0,0,0,0,-1,1175,344,-6.76772,2.24063
-42,680,-1.02368,0.618805,0,0,0,0,0,0,0,-1,1182,344,-1.0237,-0.618797
-35,680,-0.947876,-0.942719,0,0,0,0,0,0,0,-1,1189,344,-0.947842,0.942731
-28,680,-1.46118,-1.10574,0,0,0,0,0,0,0,-1,1196,344,-1.4612,1.10575
-21,680,15.6656,-104.844,0,0,0,0,0,0,0,-1,1203,344,15.6656,104.844
-14,680,6.229,-123.017,0,0,0,0,0,0,0,-1,1210,344,6.22897,123.017
-7,680,6.86194,-123.248,0,0,0,0,0,0,0,-1,1217,344,6.86191,123.248
0,680,7.4541,-124.166,0,0,0,0,0,0,0,-1,1224,344,7.45405,124.166
7,680,7.77734,-123.949,0,0,0,0,0,0,0,-1,1231,344,7.77733,123.949
14,680,7.62488,-123.653,0,0,0,0,0,0,0,-1,1238,344,7.62484,123.653
21,680,11.2233,-121.43,0,0,0,0,0,0,0,-1,1245,344,11.2232,121.43
28,680,7.43188,-122.852,0,0,0,0,0,0,0,-1,1252,344,7.43194,122.852
35,680,7.92969,-122.551,0,0,0,0,0,0,0,-1,1259,344,7.92966,122.551
42,680,8.40479,-122.638,0,0,0,0,0,0,0,-1,1266,344,8.40477,122.638
49,680,7.47424,-160.77,0,0,0,0,0,0,0,-1,1273,344,7.47421,160.77
56,680,5.9436,-190.367,0,0,0,0,0,0,0,-1,1280,344,5.94364,190.367
63,680,8.76953,-122.134,0,0,0,0,0,0,0,-1,1287,344,8.76958,122.134
70,680,8.71704,-121.625,0,0,0,0,0,0,0,-1,1294,344,8.71704,121.625
77,680,8.31482,-121.182,0,0,0,0,0,0,0,-1,1301,344,8.31482,121.182
84,680,11.0287,-121.975,0,0,0,0,0,0,0,-1,1308,344,11.0287,121.975
91,680,11.4004,-121.108,0,0,0,0,0,0,0,-1,1315,344,11.4004,121.108
98,680,11.7721,-120.242,0,0,0,0,0,0,0,-1,1322,344,11.7721,120.242
105,680,12.9456,-119.966,0,0,0,0,0,0,0,-1,1329,344,12.9456,119.966
112,680,13.5817,-119.494,0,0,0,0,0,0,0,-1,1336,344,13.5817,119.494
119,680,14.1455,-119.18,0,0,0,0,0,0,0,-1,1343,344,14.1456,119.18
126,680,14.6399,-118.752,0,0,0,0,0,0,0,-1,1350,344,14.6398,118.752
133,680,5.18445,-120.769,0,0,0,0,0,0,0,-1,1357,344,5.18441,120.769
140,680,4.07813,-102.08,0,0,0,0,0,0,0,-1,1364,344,4.0781,102.08
147,680,4.32385,-99.3212,0,0,0,0,0,0,0,-1,1371,344,4.32389,99.3212
154,680,0.195801,-86.2149,0,0,0,0,0,0,0,-1,1378,344,0.19576,86.2149
161,680,-2.63489,-88.0134,0,0,0,0,0,0,0,-1,1385,344,-2.63486,88.0134
168,680,29.4142,-2.51651,0,0,0,0,0,0,0,-1,1392,344,29.4142,2.51652
175,680,6.66541,0.942078,0,0,0,0,0,0,0,-1,1399,344,6.66538,-0.942088
182,680,6.52917,0.532379,0,0,0,0,0,0,0,-1,1406,344,6.52922,-0.532385
189,680,7.55884,4.77695,0,0,0,0,0,0,0,-1,1413,344,7.55886,-4.77694
196,680,6.55627,3.35254,0,0,0,0,0,0,0,-1,1420,344,6.55622,-3.35255
203,680,5.7334,1.90753,0,0,0,0,0,0,0,-1,1427,344,5.73341,-1.90754
210,680,5.27515,0.493622,0,0,0,0,0,0,0,-1,1434,344,5.27514,-0.493632
217,680,6.56384,-0.374176,0,0,0,0,0,0,0,-1,1441,344,6.56379,0.374176
224,680,3.9491,-0.640228,0,0,0,0,0,0,0,-1,1448,344,3.94908,0.64024
231,680,4.24866,-1.96881,0,0,0,0,0,0,0,-1,1455,344,4.2486,1.96882
238,680,4.29333,-3.23984,0,0,0,0,0,0,0,-1,1462,344,4.29332,3.23984
245,680,2.44397,0.985382,0,0,0,0,0,0,0,-1,1469,344,2.44402,-0.985394
252,680,3.07349,2.18951,0,0,0,0,0,0,0,-1,1476,344,3.0735,-2.18952
259,680,2.82971,1.30682,0,0,0,0,0,0,0,-1,1483,344,2.82972,-1.30684
266,680,2.67554,1.44067,0,0,0,0,0,0,0,-1,1490,344,2.67551,-1.44066
273,680,2.46411,1.54666,0,0,0,0,0,0,0,-1,1497,344,2.46407,-1.54666
280,680,0,0,0,0,0,0,0,0,0,-1,1504,344,0,0
287,680,0,0,0,0,0,0,0,0,0,-1,1511,344,0,0
294,680,0,0,0,0,0,0,0,0,0,-1,1518,344,0,0
301,680,0,0,0,0,0,0,0,0,0,-1,1525,344,0,0
308,680,0,0,0,0,0,0,0,0,0,-1,1532,344,0,0
315,680,0,0,0,0,0,0,0,0,0,-1,1539,344,0,0
322,680,0,0,0,0,0,0,0,0,0,-1,1546,344,0,0
329,680,0,0,0,0,0,0,0,0,0,-1,1553,344,0,0
336,680,0,0,0,0,0,0,0,0,0,-1,1560,344,0,0
343,680,0,0,0,0,0,0,0,0,0,-1,1567,344,0,0
350,680,0,0,0,0,0,0,0,0,0,-1,1574,344,0,0
357,680,0,0,0,0,0,0,0,0,0,-1,1581,344,0,0
364,680,0,0,0,0,0,0,0,0,0,-1,1588,344,0,0
371,680,0,0,0,0,0,0,0,0,0,-1,1595,344,0,0
378,680,0,0,0,0,0,0,0,0,0,-1,1602,344,0,0
385,680,0,0,0,0,0,0,0,0,0,-1,1609,344,0,0
392,680,0,0,0,0,0,0,0,0,0,-1,1616,344,0,0
399,680,0,0,0,0,0,0,0,0,0,-1,1623,344,0,0
406,680,0,0,0,0,0,0,0,0,0,-1,1630,344,0,0
413,680,0,0,0,0,0,0,0,0,0,-1,1637,344,0,0
420,680,0,0,0,0,0,0,0,0,0,-1,1644,344,0,0
427,680,0,0,0,0,0,0,0,0,0,-1,1651,344,0,0
434,680,0,0,0,0,0,0,0,0,0,-1,1658,344,0,0
441,680,0,0,0,0,0,0,0,0,0,-1,1665,344,0,0
448,680,0,0,0,0,0,0,0,0,0,-1,1672,344,0,0
455,680,0,0,0,0,0,0,0,0,0,-1,1679,344,0,0
462,680,0,0,0,0,0,0,0,0,0,-1,1686,344,0,0
469,680,0,0,0,0,0,0,0,0,0,-1,1693,344,0,0
476,680,0,0,0,0,0,0,0,0,0,-1,1700,344,0,0
483,680,0,0,0,0,0,0,0,0,0,-1,1707,344,0,0
490,680,0,0,0,0,0,0,0,0,0,-1,1714,344,0,0
497,680,0,0,0,0,0,0,0,0,0,-1,1721,344,0,0
504,680,0,0,0,0,0,0,0,0,0,-1,1728,344,0,0
511,680,0,0,0,0,0,0,0,0,0,-1,1735,344,0,0
518,680,0,0,0,0,0,0,0,0,0,-1,1742,344,0,0
525,680,0,0,0,0,0,0,0,0,0,-1,1749,344,0,0
532,680,0,0,0,0,0,0,0,0,0,-1,1756,344,0,0
539,680,0,0,0,0,0,0,0,0,0,-1,1763,344,0,0
546,680,0,0,0,0,0,0,0,0,0,-1,1770,344,0,0
553,680,0,0,0,0,0,0,0,0,0,-1,1777,344,0,0
560,680,0,0,0,0,0,0,0,0,0,-1,1784,344,0,0
567,680,0,0,0,0,0,0,0,0,0,-1,1791,344,0,0
574,680,0,0,0,0,0,0,0,0,0,-1,1798,344,0,0
581,680,0,0,0,0,0,0,0,0,0,-1,1805,344,0,0
588,680,0,0,0,0,0,0,0,0,0,-1,1812,344,0,0
595,680,0,0,0,0,0,0,0,0,0,-1,1819,344,0,0
602,680,0,0,0,0,0,0,0,0,0,-1,1826,344,0,0
609,680,0,0,0,0,0,0,0,0,0,-1,1833,344,0,0
616,680,0,0,0,0,0,0,0,0,0,-1,1840,344,0,0
623,680,0,0,0,0,0,0,0,0,0,-1,1847,344,0,0
630,680,0,0,0,0,0,0,0,0,0,-1,1854,344,0,0
637,680,0,0,0,0,0,0,0,0,0,-1,1861,344,0,0
644,680,0,0,0,0,0,0,0,0,0,-1,1868,344,0,0
651,680,0,0,0,0,0,0,0,0,0,-1,1875,344,0,0
658,680,0,0,0,0,0,0,0,0,0,-1,1882,344,0,0
665,680,0,0,0,0,0,0,0,0,0,-1,1889,344,0,0
672,680,0,0,0,0,0,0,0,0,0,-1,1896,344,0,0
679,680,0,0,0,0,0,0,0,0,0,-1,1903,344,0,0
686,680,0,0,0,0,0,0,0,0,0,-1,1910,344,0,0
693,680,0,0,0,0,0,0,0,0,0,-1,1917,344,0,0
700,680,0,0,0,0,0,0,0,0,0,-1,1924,344,0,0
707,680,0,0,0,0,0,0,0,0,0,-1,1931,344,0,0
714,680,0,0,0,0,0,0,0,0,0,-1,1938,344,0,0
721,680,0,0,0,0,0,0,0,0,0,-1,1945,344,0,0
728,680,0,0,0,0,0,0,0,0,0,-1,1952,344,0,0
735,680,0,0,0,0,0,0,0,0,0,-1,1959,344,0,0
742,680,0,0,0,0,0,0,0,0,0,-1,1966,344,0,0
749,680,0,0,0,0,0,0,0,0,0,-1,1973,344,0,0
756,680,0,0,0,0,0,0,0,0,0,-1,1980,344,0,0
763,680,0,0,0,0,0,0,0,0,0,-1,1987,344,0,0
770,680,0,0,0,0,0,0,0,0,0,-1,1994,344,0,0
777,680,0,0,0,0,0,0,0,0,0,-1,2001,344,0,0
784,680,0,0,0,0,0,0,0,0,0,-1,2008,344,0,0
791,680,0,0,0,0,0,0,0,0,0,-1,2015,344,0,0
798,680,0,0,0,0,0,0,0,0,0,-1,2022,344,0,0
805,680,0,0,0,0,0,0,0,0,0,-1,2029,344,0,0
812,680,0,0,0,0,0,0,0,0,0,-1,2036,344,0,0
-700,673,0,0,0,0,0,0,0,0,0,-1,524,351,0,0
-693,673,0,0,0,0,0,0,0,0,0,-1,531,351,0,0
-686,673,0,0,0,0,0,0,0,0,0,-1,538,351,0,0
-679,673,0,0,0,0,0,0,0,0,0,-1,545,351,0,0
-672,673,0,0,0,0,0,0,0,0,0,-1,552,351,0,0
-665,673,0,0,0,0,0,0,0,0,0,-1,559,351,0,0
-658,673,0,0,0,0,0,0,0,0,0,-1,566,351,0,0
-651,673,0,0,0,0,0,0,0,0,0,-1,573,351,0,0
-644,673,0,0,0,0,0,0,0,0,0,-1,580,351,0,0
-637,673,0,0,0,0,0,0,0,0,0,-1,587,351,0,0
-630,673,0,0,0,0,0,0,0,0,0,-1,594,351,0,0
-623,673,0,0,0,0,0,0,0,0,0,-1,601,351,0,0
-616,673,0,0,0,0,0,0,0,0,0,-1,608,351,0,0
-609,673,0,0,0,0,0,0,0,0,0,-1,615,351,0,0
-602,673,0,0,0,0,0,0,0,0,0,-1,622,351,0,0
-595,673,0,0,0,0,0,0,0,0,0,-1,629,351,0,0
-588,673,0,0,0,0,0,0,0,0,0,-1,636,351,0,0
-581,673,0,0,0,0,0,0,0,0,0,-1,643,351,0,0
-574,673,0,0,0,0,0,0,0,0,0,-1,650,351,0,0
-567,673,0,0,0,0,0,0,0,0,0,-1,657,351,0,0
-560,673,0,0,0,0,0,0,0,0,0,-1,664,351,0,0
-553,673,0,0,0,0,0,0,0,0,0,-1,671,351,0,0
-546,673,0,0,0,0,0,0,0,0,0,-1,678,351,0,0
-539,673,0,0,0,0,0,0,0,0,0,-1,685,351,0,0
-532,673,0,0,0,0,0,0,0,0,0,-1,692,351,0,0
-525,673,0,0,0,0,0,0,0,0,0,-1,699,351,0,0
-518,673,0,0,0,0,0,0,0,0,0,-1,706,351,0,0
-511,673,0,0,0,0,0,0,0,0,0,-1,713,351,0,0
-504,673,0,0,0,0,0,0,0,0,0,-1,720,351,0,0
-497,673,0,0,0,0,0,0,0,0,0,-1,727,351,0,0
-490,673,0,0,0,0,0,0,0,0,0,-1,734,351,0,0
-483,673,0,0,0,0,0,0,0,0,0,-1,741,351,0,0
-476,673,0,0,0,0,0,0,0,0,0,-1,748,351,0,0
-469,673,0,0,0,0,0,0,0,0,0,-1,755,351,0,0
-462,673,0,0,0,0,0,0,0,0,0,-1,762,351,0,0
-455,673,0,0,0,0,0,0,0,0,0,-1,769,351,0,0
-448,673,0,0,0,0,0,0,0,0,0,-1,776,351,0,0
-441,673,0,0,0,0,0,0,0,0,0,-1,783,351,0,0
-434,673,0,0,0,0,0,0,0,0,0,-1,790,351,0,0
-427,673,0,0,0,0,0,0,0,0,0,-1,797,351,0,0
-420,673,0,0,0,0,0,0,0,0,0,-1,804,351,0,0
-413,673,0,0,0,0,0,0,0,0,0,-1,811,351,0,0
-406,673,0,0,0,0,0,0,0,0,0,-1,818,351,0,0
-399,673,0,0,0,0,0,0,0,0,0,-1,825,351,0,0
-392,673,0,0,0,0,0,0,0,0,0,-1,832,351,0,0
-385,673,0,0,0,0,0,0,0,0,0,-1,839,351,0,0
-378,673,0,0,0,0,0,0,0,0,0,-1,846,351,0,0
-371,673,0,0,0,0,0,0,0,0,0,-1,853,351,0,0
-364,673,0,0,0,0,0,0,0,0,0,-1,860,351,0,0
-357,673,0,0,0,0,0,0,0,0,0,-1,867,351,0,0
-350,673,0,0,0,0,0,0,0,0,0,-1,874,351,0,0
-343,673,0,0,0,0,0,0,0,0,0,-1,881,351,0,0
-336,673,0,0,0,0,0,0,0,0,0,-1,888,351,0,0
-329,673,0,0,0,0,0,0,0,0,0,-1,895,351,0,0
-322,673,0,0,0,0,0,0,0,0,0,-1,902,351,0,0
-315,673,0,0,0,0,0,0,0,0,0,-1,909,351,0,0
-308,673,0,0,0,0,0,0,0,0,0,-1,916,351,0,0
-301,673,0,0,0,0,0,0,0,0,0,-1,923,351,0,0
-294,673,0,0,0,0,0,0,0,0,0,-1,930,351,0,0
-287,673,0,0,0,0,0,0,0,0,0,-1,937,351,0,0
-280,673,0,0,0,0,0,0,0,0,0,-1,944,351,0,0
-273,673,0,0,0,0,0,0,0,0,0,-1,951,351,0,0
-266,673,0,0,0,0,0,0,0,0,0,-1,958,351,0,0
-259,673,0,0,0,0,0,0,0,0,0,-1,965,351,0,0
-252,673,0,0,0,0,0,0,0,0,0,-1,972,351,0,0
-245,673,0,0,0,0,0,0,0,0,0,-1,979,351,0,0
-238,673,0,0,0,0,0,0,0,0,0,-1,986,351,0,0
-231,673,0,0,0,0,0,0,0,0,0,-1,993,351,0,0
-224,673,0,0,0,0,0,0,0,0,0,-1,1000,351,0,0
-217,673,0,0,0,0,0,0,0,0,0,-1,1007,351,0,0
-210,673,0,0,0,0,0,0,0,0,0,-1,1014,351,0,0
-203,673,0,0,0,0,0,0,0,0,0,-1,1021,351,0,0
-196,673,0,0,0,0,0,0,0,0,0,-1,1028,351,0,0
-189,673,0,0,0,0,0,0,0,0,0,-1,1035,351,0,0
-182,673,0,0,0,0,0,0,0,0,0,-1,1042,351,0,0
-175,673,7.10449,-31.8279,0,0,0,0,0,0,0,-1,1049,351,7.10448,31.8279
-168,673,7.33081,-32.7122,0,0,0,0,0,0,0,-1,1056,351,7.33085,32.7122
-161,673,7.8938,-33.5352,0,0,0,0,0,0,0,-1,1063,351,7.89385,33.5352
-154,673,8.80566,-35.3518,0,0,0,0,0,0,0,-1,1070,351,8.80563,35.3518
-147,673,2.89221,-37.7351,0,0,0,0,0,0,0,-1,1077,351,2.89224,37.7351
-140,673,3.35046,-37.7151,0,0,0,0,0,0,0,-1,1084,351,3.35046,37.715
-133,673,3.35339,-39.0288,0,0,0,0,0,0,0,-1,1091,351,3.35342,39.0288
-126,673,3.7533,-38.0453,0,0,0,0,0,0,0,-1,1098,351,3.7533,38.0453
-119,673,4.1532,-37.0618,0,0,0,0,0,0,0,-1,1105,351,4.15318,37.0618
-112,673,7.27234,-32.5801,0,0,0,0,0,0,0,-1,1112,351,7.27231,32.5801
-105,673,21.1144,-43.3143,0,0,0,0,0,0,0,-1,1119,351,21.1143,43.3143
-98,673,14.8014,-36.7519,0,0,0,0,0,0,0,-1,1126,351,14.8014,36.7519
-91,673,8.54944,-29.9639,0,0,0,0,0,0,0,-1,1133,351,8.54949,29.9639
-84,673,2.17102,-24.3204,0,0,0,0,0,0,0,-1,1140,351,2.17107,24.3204
-77,673,-4.25378,-18.8346,0,0,0,0,0,0,0,-1,1147,351,-4.25381,18.8346
-70,673,-10.7933,-13.6681,0,0,0,0,0,0,0,-1,1154,351,-10.7934,13.6681
-63,673,-17.3896,-8.24469,0,0,0,0,0,0,0,-1,1161,351,-17.3896,8.2447
-56,673,-18.0282,2.79053,0,0,0,0,0,0,0,-1,1168,351,-18.0283,-2.79052
-49,673,-0.926758,-0.115448,0,0,0,0,0,0,0,-1,1175,351,-0.926732,0.115444
-42,673,-1.15015,0.289917,0,0,0,0,0,0,0,-1,1182,351,-1.15017,-0.289932
-35,673,-0.919556,-1.00711,0,0,0,0,0,0,0,-1,1189,351,-0.919514,1.00711
-28,673,5.28918,-39.2331,0,0,0,0,0,0,0,-1,1196,351,5.28924,39.2331
-21,673,11.2444,-92.9249,0,0,0,0,0,0,0,-1,1203,351,11.2444,92.9249
-14,673,14.4708,-104.129,0,0,0,0,0,0,0,-1,1210,351,14.4709,104.129
-7,673,11.002,-135.851,0,0,0,0,0,0,0,-1,1217,351,11.0019,135.851
0,673,2.99731,-264.825,0,0,0,0,0,0,0,-1,1224,351,2.99737,264.825
7,673,7.0658,-203.391,0,0,0,0,0,0,0,-1,1231,351,7.06576,203.391
14,673,2.87036,-264.726,0,0,0,0,0,0,0,-1,1238,351,2.8703,264.726
21,673,3.01917,-265.35,0,0,0,0,0,0,0,-1,1245,351,3.01912,265.35
28,673,10.4435,-123.673,0,0,0,0,0,0,0,-1,1252,351,10.4435,123.673
35,673,8.65234,-174.636,0,0,0,0,0,0,0,-1,1259,351,8.65234,174.636
42,673,7.62903,-175.005,0,0,0,0,0,0,0,-1,1266,351,7.62904,175.005
49,673,6.23169,-191.585,0,0,0,0,0,0,0,-1,1273,351,6.23166,191.585
56,673,6.14856,-191.704,0,0,0,0,0,0,0,-1,1280,351,6.1485,191.704
63,673,6.27625,-191.965,0,0,0,0,0,0,0,-1,1287,351,6.27629,191.965
70,673,8.58582,-122.182,0,0,0,0,0,0,0,-1,1294,351,8.5858,122.182
77,673,8.04187,-120.089,0,0,0,0,0,0,0,-1,1301,351,8.04189,120.089
84,673,7.37463,-119.7,0,0,0,0,0,0,0,-1,1308,351,7.37469,119.7
91,673,4.61047,-267.398,0,0,0,0,0,0,0,-1,1315,351,4.6105,267.398
98,673,4.00623,-266.897,0,0,0,0,0,0,0,-1,1322,351,4.00626,266.897
105,673,6.79333,-132.248,0,0,0,0,0,0,0,-1,1329,351,6.79335,132.248
112,673,7.85938,-111.635,0,0,0,0,0,0,0,-1,1336,351,7.85934,111.635
119,673,4.15515,-103.79,0,0,0,0,0,0,0,-1,1343,351,4.15521,103.79
126,673,4.59888,-103.542,0,0,0,0,0,0,0,-1,1350,351,4.59885,103.542
133,673,4.44226,-103.25,0,0,0,0,0,0,0,-1,1357,351,4.4423,103.25
140,673,4.12817,-99.7395,0,0,0,0,0,0,0,-1,1364,351,4.12818,99.7395
147,673,5.25964,-114.259,0,0,0,0,0,0,0,-1,1371,351,5.25959,114.259
154,673,5.15833,-114.149,0,0,0,0,0,0,0,-1,1378,351,5.15829,114.149
161,673,6.22559,-90.9402,0,0,0,0,0,0,0,-1,1385,351,6.22559,90.9402
168,673,6.87061,1.83954,0,0,0,0,0,0,0,-1,1392,351,6.87063,-1.83953
175,673,6.6228,1.1459,0,0,0,0,0,0,0,-1,1399,351,6.62276,-1.14591
182,673,6.37244,0.796112,0,0,0,0,0,0,0,-1,1406,351,6.3724,-0.796102
189,673,6.12097,0.265472,0,0,0,0,0,0,0,-1,1413,351,6.121,-0.265482
196,673,6.02173,3.12717,0,0,0,0,0,0,0,-1,1420,351,6.02176,-3.12717
203,673,5.04456,1.6351,0,0,0,0,0,0,0,-1,1427,351,5.04455,-1.63509
210,673,4.79224,0.447479,0,0,0,0,0,0,0,-1,1434,351,4.79229,-0.447469
217,673,2.01648,0.972687,0,0,0,0,0,0,0,-1,1441,351,2.01644,-0.972691
224,673,2.3689,-1.80539,0,0,0,0,0,0,0,-1,1448,351,2.36896,1.80539
231,673,2.65857,-2.18497,0,0,0,0,0,0,0,-1,1455,351,2.65852,2.18496
238,673,3.77844,-2.06088,0,0,0,0,0,0,0,-1,1462,351,3.77839,2.06088
245,673,3.5376,-0.190399,0,0,0,0,0,0,0,-1,1469,351,3.53759,0.1904
252,673,3.80518,0.55603,0,0,0,0,0,0,0,-1,1476,351,3.80519,-0.556022
259,673,3.88562,1.29617,0,0,0,0,0,0,0,-1,1483,351,3.88562,-1.29618
266,673,4.22424,2.04834,0,0,0,0,0,0,0,-1,1490,351,4.22429,-2.04834
273,673,6.07886,0.385895,0,0,0,0,0,0,0,-1,1497,351,6.0789,-0.385906
280,673,6.97534,-0.0820007,0,0,0,0,0,0,0,-1,1504,351,6.97536,0.0820122
287,673,7.66968,-0.348541,0,0,0,0,0,0,0,-1,1511,351,7.66969,0.348534
294,673,8.20996,0.28537,0,0,0,0,0,0,0,-1,1518,351,8.20993,-0.28536
301,673,0,0,0,0,0,0,0,0,0,-1,1525,351,0,0
308,673,0,0,0,0,0,0,0,0,0,-1,1532,351,0,0
315,673,0,0,0,0,0,0,0,0,0,-1,1539,351,0,0
322,673,0,0,0,0,0,0,0,0,0,-1,1546,351,0,0
329,673,0,0,0,0,0,0,0,0,0,-1,1553,351,0,0
336,673,0,0,0,0,0,0,0,0,0,-1,1560,351,0,0
343,673,0,0,0,0,0,0,0,0,0,-1,1567,351,0,0
350,673,0,0,0,0,0,0,0,0,0,-1,1574,351,0,0
357,673,0,0,0,0,0,0,0,0,0,-1,1581,351,0,0
364,673,0,0,0,0,0,0,0,0,0,-1,1588,351,0,0
371,673,0,0,0,0,0,0,0,0,0,-1,1595,351,0,0
378,673,0,0,0,0,0,0,0,0,0,-1,1602,351,0,0
385,673,0,0,0,0,0,0,0,0,0,-1,1609,351,0,0
392,673,0,0,0,0,0,0,0,0,0,-1,1616,351,0,0
399,673,0,0,0,0,0,0,0,0,0,-1,1623,351,0,0
406,673,0,0,0,0,0,0,0,0,0,-1,1630,351,0,0
413,673,0,0,0,0,0,0,0,0,0,-1,1637,351,0,0
420,673,0,0,0,0,0,0,0,0,0,-1,1644,351,0,0
427,673,0,0,0,0,0,0,0,0,0,-1,1651,351,0,0
434,673,0,0,0,0,0,0,0,0,0,-1,1658,351,0,0
441,673,0,0,0,0,0,0,0,0,0,-1,1665,351,0,0
448,673,0,0,0,0,0,0,0,0,0,-1,1672,351,0,0
455,673,0,0,0,0,0,0,0,0,0,-1,1679,351,0,0
462,673,0,0,0,0,0,0,0,0,0,-1,1686,351,0,0
469,673,0,0,0,0,0,0,0,0,0,-1,1693,351,0,0
476,673,0,0,0,0,0,0,0,0,0,-1,1700,351,0,0
483,673,0,0,0,0,0,0,0,0,0,-1,1707,351,0,0
490,673,0,0,0,0,0,0,0,0,0,-1,1714,351,0,0
497,673,0,0,0,0,0,0,0,0,0,-1,1721,351,0,0
504,673,0,0,0,0,0,0,0,0,0,-1,1728,351,0,0
511,673,0,0,0,0,0,0,0,0,0,-1,1735,351,0,0
518,673,0,0,0,0,0,0,0,0,0,-1,1742,351,0,0
525,673,0,0,0,0,0,0,0,0,0,-1,1749,351,0,0
532,673,0,0,0,0,0,0,0,0,0,-1,1756,351,0,0
539,673,0,0,0,0,0,0,0,0,0,-1,1763,351,0,0
546,673,0,0,0,0,0,0,0,0,0,-1,1770,351,0,0
553,673,0,0,0,0,0,0,0,0,0,-1,1777,351,0,0
560,673,0,0,0,0,0,0,0,0,0,-1,1784,351,0,0
567,673,0,0,0,0,0,0,0,0,0,-1,1791,351,0,0
574,673,0,0,0,0,0,0,0,0,0,-1,1798,351,0,0
581,673,0,0,0,0,0,0,0,0,0,-1,1805,351,0,0
588,673,0,0,0,0,0,0,0,0,0,-1,1812,351,0,0
595,673,0,0,0,0,0,0,0,0,0,-1,1819,351,0,0
602,673,0,0,0,0,0,0,0,0,0,-1,1826,351,0,0
609,673,0,0,0,0,0,0,0,0,0,-1,1833,351,0,0
616,673,0,0,0,0,0,0,0,0,0,-1,1840,351,0,0
623,673,0,0,0,0,0,0,0,0,0,-1,1847,351,0,0
630,673,0,0,0,0,0,0,0,0,0,-1,1854,351,0,0
637,673,0,0,0,0,0,0,0,0,0,-1,1861,351,0,0
644,673,0,0,0,0,0,0,0,0,0,-1,1868,351,0,0
651,673,0,0,0,0,0,0,0,0,0,-1,1875,351,0,0
658,673,0,0,0,0,0,0,0,0,0,-1,1882,351,0,0
665,673,0,0,0,0,0,0,0,0,0,-1,1889,351,0,0
672,673,0,0,0,0,0,0,0,0,0,-1,1896,351,0,0
679,673,0,0,0,0,0,0,0,0,0,-1,1903,351,0,0
686,673,0,0,0,0,0,0,0,0,0,-1,1910,351,0,0
693,673,0,0,0,0,0,0,0,0,0,-1,1917,351,0,0
700,673,0,0,0,0,0,0,0,0,0,-1,1924,351,0,0
707,673,0,0,0,0,0,0,0,0,0,-1,1931,351,0,0
714,673,0,0,0,0,0,0,0,0,0,-1,1938,351,0,0
721,673,0,0,0,0,0,0,0,0,0,-1,1945,351,0,0
728,673,0,0,0,0,0,0,0,0,0,-1,1952,351,0,0
735,673,0,0,0,0,0,0,0,0,0,-1,1959,351,0,0
742,673,0,0,0,0,0,0,0,0,0,-1,1966,351,0,0
749,673,0,0,0,0,0,0,0,0,0,-1,1973,351,0,0
756,673,0,0,0,0,0,0,0,0,0,-1,1980,351,0,0
763,673,0,0,0,0,0,0,0,0,0,-1,1987,351,0,0
770,673,0,0,0,0,0,0,0,0,0,-1,1994,351,0,0
777,673,0,0,0,0,0,0,0,0,0,-1,2001,351,0,0
784,673,0,0,0,0,0,0,0,0,0,-1,2008,351,0,0
791,673,0,0,0,0,0,0,0,0,0,-1,2015,351,0,0
798,673,0,0,0,0,0,0,0,0,0,-1,2022,351,0,0
805,673,0,0,0,0,0,0,0,0,0,-1,2029,351,0,0
812,673,0,0,0,0,0,0,0,0,0,-1,2036,351,0,0
-700,666,0,0,0,0,0,0,0,0,0,-1,524,358,0,0
-693,666,0,0,0,0,0,0,0,0,0,-1,531,358,0,0
-686,666,0,0,0,0,0,0,0,0,0,-1,538,358,0,0
-679,666,0,0,0,0,0,0,0,0,0,-1,545,358,0,0
-672,666,0,0,0,0,0,0,0,0,0,-1,552,358,0,0
-665,666,0,0,0,0,0,0,0,0,0,-1,559,358,0,0
-658,666,0,0,0,0,0,0,0,0,0,-1,566,358,0,0
-651,666,0,0,0,0,0,0,0,0,0,-1,573,358,0,0
-644,666,0,0,0,0,0,0,0,0,0,-1,580,358,0,0
-637,666,0,0,0,0,0,0,0,0,0,-1,587,358,0,0
-630,666,0,0,0,0,0,0,0,0,0,-1,594,358,0,0
-623,666,0,0,0,0,0,0,0,0,0,-1,601,358,0,0
-616,666,0,0,0,0,0,0,0,0,0,-1,608,358,0,0
-609,666,0,0,0,0,0,0,0,0,0,-1,615,358,0,0
-602,666,0,0,0,0,0,0,0,0,0,-1,622,358,0,0
-595,666,0,0,0,0,0,0,0,0,0,-1,629,358,0,0
-588,666,0,0,0,0,0,0,0,0,0,-1,636,358,0,0
-581,666,0,0,0,0,0,0,0,0,0,-1,643,358,0,0
-574,666,0,0,0,0,0,0,0,0,0,-1,650,358,0,0
-567,666,0,0,0,0,0,0,0,0,0,-1,657,358,0,0
-560,666,0,0,0,0,0,0,0,0,0,-1,664,358,0,0
-553,666,0,0,0,0,0,0,0,0,0,-1,671,358,0,0
-546,666,0,0,0,0,0,0,0,0,0,-1,678,358,0,0
-539,666,0,0,0,0,0,0,0,0,0,-1,685,358,0,0
-532,666,0,0,0,0,0,0,0,0,0,-1,692,358,0,0
-525,666,0,0,0,0,0,0,0,0,0,-1,699,358,0,0
-518,666,0,0,0,0,0,0,0,0,0,-1,706,358,0,0
-511,666,0,0,0,0,0,0,0,0,0,-1,713,358,0,0
-504,666,0,0,0,0,0,0,0,0,0,-1,720,358,0,0
-497,666,0,0,0,0,0,0,0,0,0,-1,727,358,0,0
-490,666,0,0,0,0,0,0,0,0,0,-1,734,358,0,0
-483,666,0,0,0,0,0,0,0,0,0,-1,741,358,0,0
-476,666,0,0,0,0,0,0,0,0,0,-1,748,358,0,0
-469,666,0,0,0,0,0,0,0,0,0,-1,755,358,0,0
-462,666,0,0,0,0,0,0,0,0,0,-1,762,358,0,0
-455,666,0,0,0,0,0,0,0,0,0,-1,769,358,0,0
-448,666,0,0,0,0,0,0,0,0,0,-1,776,358,0,0
-441,666,0,0,0,0,0,0,0,0,0,-1,783,358,0,0
-434,666,0,0,0,0,0,0,0,0,0,-1,790,358,0,0
-427,666,0,0,0,0,0,0,0,0,0,-1,797,358,0,0
-420,666,0,0,0,0,0,0,0,0,0,-1,804,358,0,0
-413,666,0,0,0,0,0,0,0,0,0,-1,811,358,0,0
-406,666,0,0,0,0,0,0,0,0,0,-1,818,358,0,0
-399,666,0,0,0,0,0,0,0,0,0,-1,825,358,0,0
-392,666,0,0,0,0,0,0,0,0,0,-1,832,358,0,0
-385,666,0,0,0,0,0,0,0,0,0,-1,839,358,0,0
-378,666,0,0,0,0,0,0,0,0,0,-1,846,358,0,0
-371,666,0,0,0,0,0,0,0,0,0,-1,853,358,0,0
-364,666,0,0,0,0,0,0,0,0,0,-1,860,358,0,0
-357,666,0,0,0,0,0,0,0,0,0,-1,867,358,0,0
-350,666,0,0,0,0,0,0,0,0,0,-1,874,358,0,0
-343,666,0,0,0,0,0,0,0,0,0,-1,881,358,0,0
-336,666,0,0,0,0,0,0,0,0,0,-1,888,358,0,0
-329,666,0,0,0,0,0,0,0,0,0,-1,895,358,0,0
-322,666,0,0,0,0,0,0,0,0,0,-1,902,358,0,0
-315,666,0,0,0,0,0,0,0,0,0,-1,909,358,0,0
-308,666,0,0,0,0,0,0,0,0,0,-1,916,358,0,0
-301,666,0,0,0,0,0,0,0,0,0,-1,923,358,0,0
-294,666,0,0,0,0,0,0,0,0,0,-1,930,358,0,0
-287,666,0,0,0,0,0,0,0,0,0,-1,937,358,0,0
-280,666,0,0,0,0,0,0,0,0,0,-1,944,358,0,0
-273,666,0,0,0,0,0,0,0,0,0,-1,951,358,0,0
-266,666,0,0,0,0,0,0,0,0,0,-1,958,358,0,0
-259,666,0,0,0,0,0,0,0,0,0,-1,965,358,0,0
-252,666,0,0,0,0,0,0,0,0,0,-1,972,358,0,0
-245,666,0,0,0,0,0,0,0,0,0,-1,979,358,0,0
-238,666,0,0,0,0,0,0,0,0,0,-1,986,358,0,0
-231,666,0,0,0,0,0,0,0,0,0,-1,993,358,0,0
-224,666,0,0,0,0,0,0,0,0,0,-1,1000,358,0,0
-217,666,0,0,0,0,0,0,0,0,0,-1,1007,358,0,0
-210,666,0,0,0,0,0,0,0,0,0,-1,1014,358,0,0
-203,666,0,0,0,0,0,0,0,0,0,-1,1021,358,0,0
-196,666,4.03418,-28.8724,0,0,0,0,0,0,0,-1,1028,358,4.03422,28.8724
-189,666,5.00366,-29.597,0,0,0,0,0,0,0,-1,1035,358,5.00363,29.597
-182,666,6.83252,-30.9843,0,0,0,0,0,0,0,-1,1042,358,6.83247,30.9844
-175,666,7.01611,-31.8763,0,0,0,0,0,0,0,-1,1049,358,7.01617,31.8762
-168,666,7.21545,-32.7414,0,0,0,0,0,0,0,-1,1056,358,7.2154,32.7414
-161,666,7.69116,-33.6269,0,0,0,0,0,0,0,-1,1063,358,7.69121,33.6269
-154,666,3.79041,-37.9204,0,0,0,0,0,0,0,-1,1070,358,3.79034,37.9204
-147,666,4.17908,-37.7466,0,0,0,0,0,0,0,-1,1077,358,4.17912,37.7466
-140,666,4.54309,-37.735,0,0,0,0,0,0,0,-1,1084,358,4.54304,37.735
-133,666,4.65723,-39.0643,0,0,0,0,0,0,0,-1,1091,358,4.65727,39.0643
-126,666,5.02368,-38.0699,0,0,0,0,0,0,0,-1,1098,358,5.02363,38.0698
-119,666,5.39001,-37.0754,0,0,0,0,0,0,0,-1,1105,358,5.38999,37.0754
-112,666,6.77014,-32.8165,0,0,0,0,0,0,0,-1,1112,358,6.77013,32.8165
-105,666,6.30908,-29.0855,0,0,0,0,0,0,0,-1,1119,358,6.30905,29.0855
-98,666,15.4427,-31.5168,0,0,0,0,0,0,0,-1,1126,358,15.4428,31.5168
-91,666,9.5127,-25.1347,0,0,0,0,0,0,0,-1,1133,358,9.51269,25.1347
-84,666,2.91589,-19.4071,0,0,0,0,0,0,0,-1,1140,358,2.91592,19.4071
-77,666,-3.48083,-14.0782,0,0,0,0,0,0,0,-1,1147,358,-3.48081,14.0782
-70,666,-9.99438,-8.90146,0,0,0,0,0,0,0,-1,1154,358,-9.99433,8.90146
-63,666,-11.7778,-0.975189,0,0,0,0,0,0,0,-1,1161,358,-11.7778,0.97519
-56,666,0.424683,-2.04132,0,0,0,0,0,0,0,-1,1168,358,0.424665,2.04132
-49,666,0.754395,-2.23169,0,0,0,0,0,0,0,-1,1175,358,0.754383,2.23169
-42,666,1.34473,-3.53897,0,0,0,0,0,0,0,-1,1182,358,1.34476,3.53896
-35,666,1.31079,-263.042,0,0,0,0,0,0,0,-1,1189,358,1.31084,263.042
-28,666,1.45288,-263.523,0,0,0,0,0,0,0,-1,1196,358,1.45284,263.523
-21,666,1.97351,-264.597,0,0,0,0,0,0,0,-1,1203,358,1.97352,264.597
-14,666,2.06604,-265.482,0,0,0,0,0,0,0,-1,1210,358,2.06599,265.482
-7,666,1.9231,-265.78,0,0,0,0,0,0,0,-1,1217,358,1.92311,265.78
0,666,1.97766,-266.363,0,0,0,0,0,0,0,-1,1224,358,1.97767,266.363
7,666,1.98474,-266.995,0,0,0,0,0,0,0,-1,1231,358,1.9847,266.995
14,666,1.96155,-267.274,0,0,0,0,0,0,0,-1,1238,358,1.96153,267.274
21,666,2.24304,-267.756,0,0,0,0,0,0,0,-1,1245,358,2.24299,267.756
28,666,2.35632,-268.215,0,0,0,0,0,0,0,-1,1252,358,2.35628,268.215
35,666,2.56274,-268.612,0,0,0,0,0,0,0,-1,1259,358,2.56276,268.612
42,666,2.90601,-268.856,0,0,0,0,0,0,0,-1,1266,358,2.90595,268.856
49,666,3.21411,-269.104,0,0,0,0,0,0,0,-1,1273,358,3.21411,269.105
56,666,3.45349,-269.32,0,0,0,0,0,0,0,-1,1280,358,3.45352,269.32
63,666,3.45093,-269.519,0,0,0,0,0,0,0,-1,1287,358,3.45095,269.519
70,666,3.72375,-269.566,0,0,0,0,0,0,0,-1,1294,358,3.72376,269.566
77,666,3.91968,-269.239,0,0,0,0,0,0,0,-1,1301,358,3.91964,269.239
84,666,4.19934,-269.168,0,0,0,0,0,0,0,-1,1308,358,4.19937,269.168
91,666,4.47827,-268.905,0,0,0,0,0,0,0,-1,1315,358,4.47828,268.905
98,666,4.46045,-268.545,0,0,0,0,0,0,0,-1,1322,358,4.46045,268.545
105,666,4.62732,-268.069,0,0,0,0,0,0,0,-1,1329,358,4.62736,268.069
112,666,4.95667,-267.756,0,0,0,0,0,0,0,-1,1336,358,4.9567,267.756
119,666,5.36316,-267.146,0,0,0,0,0,0,0,-1,1343,358,5.36313,267.146
126,666,5.65015,-266.172,0,0,0,0,0,0,0,-1,1350,358,5.6502,266.172
133,666,5.70691,-265.384,0,0,0,0,0,0,0,-1,1357,358,5.70688,265.384
140,666,5.69153,-265.068,0,0,0,0,0,0,0,-1,1364,358,5.69151,265.068
147,666,5.83203,-264.5,0,0,0,0,0,0,0,-1,1371,358,5.83204,264.5
154,666,6.09509,-263.571,0,0,0,0,0,0,0,-1,1378,358,6.09503,263.571
161,666,5.88977,-262.51,0,0,0,0,0,0,0,-1,1385,358,5.88982,262.51
168,666,5.7572,-260.518,0,0,0,0,0,0,0,-1,1392,358,5.75715,260.518
175,666,4.89124,-132.772,0,0,0,0,0,0,0,-1,1399,358,4.89125,132.772
182,666,2.60876,-5.17068,0,0,0,0,0,0,0,-1,1406,358,2.6088,5.17068
189,666,2.46973,-5.49979,0,0,0,0,0,0,0,-1,1413,358,2.46975,5.49979
196,666,2.32458,-5.23651,0,0,0,0,0,0,0,-1,1420,358,2.32461,5.23653
203,666,2.28064,-3.88004,0,0,0,0,0,0,0,-1,1427,358,2.28059,3.88003
210,666,3.02576,-5.83548,0,0,0,0,0,0,0,-1,1434,358,3.02581,5.83547
217,666,2.30444,-5.36011,0,0,0,0,0,0,0,-1,1441,358,2.30447,5.3601
224,666,1.82324,-6.03101,0,0,0,0,0,0,0,-1,1448,358,1.82322,6.031
231,666,2.29797,-10.1093,0,0,0,0,0,0,0,-1,1455,358,2.29801,10.1093
238,666,2.52429,-6.10568,0,0,0,0,0,0,0,-1,1462,358,2.52423,6.10567
245,666,4.53345,-1.38205,0,0,0,0,0,0,0,-1,1469,358,4.53349,1.38204
252,666,4.77405,-0.246979,0,0,0,0,0,0,0,-1,1476,358,4.77405,0.246993
259,666,4.83655,1.14087,0,0,0,0,0,0,0,-1,1483,358,4.83652,-1.14087
266,666,6.14148,0.749512,0,0,0,0,0,0,0,-1,1490,358,6.14144,-0.749519
273,666,3.17737,-33.7881,0,0,0,0,0,0,0,-1,1497,358,3.17735,33.7881
280,666,3.37268,-35.2123,0,0,0,0,0,0,0,-1,1504,358,3.37266,35.2123
287,666,-7.06934,-20.3464,0,0,0,0,0,0,0,-1,1511,358,-7.06933,20.3464
294,666,-2.11157,-23.2753,0,0,0,0,0,0,0,-1,1518,358,-2.11162,23.2753
301,666,-3.16162,-22.2271,0,0,0,0,0,0,0,-1,1525,358,-3.16161,22.2271
308,666,-4.24951,-20.9112,0,0,0,0,0,0,0,-1,1532,358,-4.24948,20.9112
315,666,-5.64954,-19.5784,0,0,0,0,0,0,0,-1,1539,358,-5.64959,19.5784
322,666,0,0,0,0,0,0,0,0,0,-1,1546,358,0,0
329,666,0,0,0,0,0,0,0,0,0,-1,1553,358,0,0
336,666,0,0,0,0,0,0,0,0,0,-1,1560,358,0,0
343,666,0,0,0,0,0,0,0,0,0,-1,1567,358,0,0
350,666,0,0,0,0,0,0,0,0,0,-1,1574,358,0,0
357,666,0,0,0,0,0,0,0,0,0,-1,1581,358,0,0
364,666,0,0,0,0,0,0,0,0,0,-1,1588,358,0,0
371,666,0,0,0,0,0,0,0,0,0,-1,1595,358,0,0
378,666,0,0,0,0,0,0,0,0,0,-1,1602,358,0,0
385,666,0,0,0,0,0,0,0,0,0,-1,1609,358,0,0
392,666,0,0,0,0,0,0,0,0,0,-1,1616,358,0,0
399,666,0,0,0,0,0,0,0,0,0,-1,1623,358,0,0
406,666,0,0,0,0,0,0,0,0,0,-1,1630,358,0,0
413,666,0,0,0,0,0,0,0,0,0,-1,1637,358,0,0
420,666,0,0,0,0,0,0,0,0,0,-1,1644,358,0,0
427,666,0,0,0,0,0,0,0,0,0,-1,1651,358,0,0
434,666,0,0,0,0,0,0,0,0,0,-1,1658,358,0,0
441,666,0,0,0,0,0,0,0,0,0,-1,1665,358,0,0
448,666,0,0,0,0,0,0,0,0,0,-1,1672,358,0,0
455,666,0,0,0,0,0,0,0,0,0,-1,1679,358,0,0
462,666,0,0,0,0,0,0,0,0,0,-1,1686,358,0,0
469,666,0,0,0,0,0,0,0,0,0,-1,1693,358,0,0
476,666,0,0,0,0,0,0,0,0,0,-1,1700,358,0,0
483,666,0,0,0,0,0,0,0,0,0,-1,1707,358,0,0
490,666,0,0,0,0,0,0,0,0,0,-1,1714,358,0,0
497,666,0,0,0,0,0,0,0,0,0,-1,1721,358,0,0
504,666,0,0,0,0,0,0,0,0,0,-1,1728,358,0,0
511,666,0,0,0,0,0,0,0,0,0,-1,1735,358,0,0
518,666,0,0,0,0,0,0,0,0,0,-1,1742,358,0,0
525,666,0,0,0,0,0,0,0,0,0,-1,1749,358,0,0
532,666,0,0,0,0,0,0,0,0,0,-1,1756,358,0,0
539,666,0,0,0,0,0,0,0,0,0,-1,1763,358,0,0
546,666,0,0,0,0,0,0,0,0,0,-1,1770,358,0,0
553,666,0,0,0,0,0,0,0,0,0,-1,1777,358,0,0
560,666,0,0,0,0,0,0,0,0,0,-1,1784,358,0,0
567,666,0,0,0,0,0,0,0,0,0,-1,1791,358,0,0
574,666,0,0,0,0,0,0,0,0,0,-1,1798,358,0,0
581,666,0,0,0,0,0,0,0,0,0,-1,1805,358,0,0
588,666,0,0,0,0,0,0,0,0,0,-1,1812,358,0,0
595,666,0,0,0,0,0,0,0,0,0,-1,1819,358,0,0
602,666,0,0,0,0,0,0,0,0,0,-1,1826,358,0,0
609,666,0,0,0,0,0,0,0,0,0,-1,1833,358,0,0
616,666,0,0,0,0,0,0,0,0,0,-1,1840,358,0,0
623,666,0,0,0,0,0,0,0,0,0,-1,1847,358,0,0
630,666,0,0,0,0,0,0,0,0,0,-1,1854,358,0,0
637,666,0,0,0,0,0,0,0,0,0,-1,1861,358,0,0
644,666,0,0,0,0,0,0,0,0,0,-1,1868,358,0,0
651,666,0,0,0,0,0,0,0,0,0,-1,1875,358,0,0
658,666,0,0,0,0,0,0,0,0,0,-1,1882,358,0,0
665,666,0,0,0,0,0,0,0,0,0,-1,1889,358,0,0
672,666,0,0,0,0,0,0,0,0,0,-1,1896,358,0,0
679,666,0,0,0,0,0,0,0,0,0,-1,1903,358,0,0
686,666,0,0,0,0,0,0,0,0,0,-1,1910,358,0,0
693,666,0,0,0,0,0,0,0,0,0,-1,1917,358,0,0
700,666,0,0,0,0,0,0,0,0,0,-1,1924,358,0,0
707,666,0,0,0,0,0,0,0,0,0,-1,1931,358,0,0
714,666,0,0,0,0,0,0,0,0,0,-1,1938,358,0,0
721,666,0,0,0,0,0,0,0,0,0,-1,1945,358,0,0
728,666,0,0,0,0,0,0,0,0,0,-1,1952,358,0,0
735,666,0,0,0,0,0,0,0,0,0,-1,1959,358,0,0
742,666,0,0,0,0,0,0,0,0,0,-1,1966,358,0,0
749,666,0,0,0,0,0,0,0,0,0,-1,1973,358,0,0
756,666,0,0,0,0,0,0,0,0,0,-1,1980,358,0,0
763,666,0,0,0,0,0,0,0,0,0,-1,1987,358,0,0
770,666,0,0,0,0,0,0,0,0,0,-1,1994,358,0,0
777,666,0,0,0,0,0,0,0,0,0,-1,2001,358,0,0
784,666,0,0,0,0,0,0,0,0,0,-1,2008,358,0,0
791,666,0,0,0,0,0,0,0,0,0,-1,2015,358,0,0
798,666,0,0,0,0,0,0,0,0,0,-1,2022,358,0,0
805,666,0,0,0,0,0,0,0,0,0,-1,2029,358,0,0
812,666,0,0,0,0,0,0,0,0,0,-1,2036,358,0,0
-700,659,0,0,0,0,0,0,0,0,0,-1,524,365,0,0
-693,659,0,0,0,0,0,0,0,0,0,-1,531,365,0,0
-686,659,0,0,0,0,0,0,0,0,0,-1,538,365,0,0
-679,659,0,0,0,0,0,0,0,0,0,-1,545,365,0,0
-672,659,0,0,0,0,0,0,0,0,0,-1,552,365,0,0
-665,659,0,0,0,0,0,0,0,0,0,-1,559,365,0,0
-658,659,0,0,0,0,0,0,0,0,0,-1,566,365,0,0
-651,659,0,0,0,0,0,0,0,0,0,-1,573,365,0,0
-644,659,0,0,0,0,0,0,0,0,0,-1,580,365,0,0
-637,659,0,0,0,0,0,0,0,0,0,-1,587,365,0,0
-630,659,0,0,0,0,0,0,0,0,0,-1,594,365,0,0
-623,659,0,0,0,0,0,0,0,0,0,-1,601,365,0,0
-616,659,0,0,0,0,0,0,0,0,0,-1,608,365,0,0
-609,659,0,0,0,0,0,0,0,0,0,-1,615,365,0,0
-602,659,0,0,0,0,0,0,0,0,0,-1,622,365,0,0
-595,659,0,0,0,0,0,0,0,0,0,-1,629,365,0,0
-588,659,0,0,0,0,0,0,0,0,0,-1,636,365,0,0
-581,659,0,0,0,0,0,0,0,0,0,-1,643,365,0,0
-574,659,0,0,0,0,0,0,0,0,0,-1,650,365,0,0
-567,659,0,0,0,0,0,0,0,0,0,-1,657,365,0,0
-560,659,0,0,0,0,0,0,0,0,0,-1,664,365,0,0
-553,659,0,0,0,0,0,0,0,0,0,-1,671,365,0,0
-546,659,0,0,0,0,0,0,0,0,0,-1,678,365,0,0
-539,659,0,0,0,0,0,0,0,0,0,-1,685,365,0,0
-532,659,0,0,0,0,0,0,0,0,0,-1,692,365,0,0
-525,659,0,0,0,0,0,0,0,0,0,-1,699,365,0,0
-518,659,0,0,0,0,0,0,0,0,0,-1,706,365,0,0
-511,659,0,0,0,0,0,0,0,0,0,-1,713,365,0,0
-504,659,0,0,0,0,0,0,0,0,0,-1,720,365,0,0
-497,659,0,0,0,0,0,0,0,0,0,-1,727,365,0,0
-490,659,0,0,0,0,0,0,0,0,0,-1,734,365,0,0
-483,659,0,0,0,0,0,0,0,0,0,-1,741,365,0,0
-476,659,0,0,0,0,0,0,0,0,0,-1,748,365,0,0
-469,659,0,0,0,0,0,0,0,0,0,-1,755,365,0,0
-462,659,0,0,0,0,0,0,0,0,0,-1,762,365,0,0
-455,659,0,0,0,0,0,0,0,0,0,-1,769,365,0,0
-448,659,0,0,0,0,0,0,0,0,0,-1,776,365,0,0
-441,659,0,0,0,0,0,0,0,0,0,-1,783,365,0,0
-434,659,0,0,0,0,0,0,0,0,0,-1,790,365,0,0
-427,659,0,0,0,0,0,0,0,0,0,-1,797,365,0,0
-420,659,0,0,0,0,0,0,0,0,0,-1,804,365,0,0
-413,659,0,0,0,0,0,0,0,0,0,-1,811,365,0,0
-406,659,0,0,0,0,0,0,0,0,0,-1,818,365,0,0
-399,659,0,0,0,0,0,0,0,0,0,-1,825,365,0,0
-392,659,0,0,0,0,0,0,0,0,0,-1,832,365,0,0
-385,659,0,0,0,0,0,0,0,0,0,-1,839,365,0,0
-378,659,0,0,0,0,0,0,0,0,0,-1,846,365,0,0
-371,659,0,0,0,0,0,0,0,0,0,-1,853,365,0,0
-364,659,0,0,0,0,0,0,0,0,0,-1,860,365,0,0
-357,659,0,0,0,0,0,0,0,0,0,-1,867,365,0,0
-350,659,0,0,0,0,0,0,0,0,0,-1,874,365,0,0
-343,659,0,0,0,0,0,0,0,0,0,-1,881,365,0,0
-336,659,0,0,0,0,0,0,0,0,0,-1,888,365,0,0
-329,659,0,0,0,0,0,0,0,0,0,-1,895,365,0,0
-322,659,0,0,0,0,0,0,0,0,0,-1,902,365,0,0
-315,659,0,0,0,0,0,0,0,0,0,-1,909,365,0,0
-308,659,0,0,0,0,0,0,0,0,0,-1,916,365,0,0
-301,659,0,0,0,0,0,0,0,0,0,-1,923,365,0,0
-294,659,0,0,0,0,0,0,0,0,0,-1,930,365,0,0
-287,659,0,0,0,0,0,0,0,0,0,-1,937,365,0,0
-280,659,0,0,0,0,0,0,0,0,0,-1,944,365,0,0
-273,659,0,0,0,0,0,0,0,0,0,-1,951,365,0,0
-266,659,0,0,0,0,0,0,0,0,0,-1,958,365,0,0
-259,659,0,0,0,0,0,0,0,0,0,-1,965,365,0,0
-252,659,0,0,0,0,0,0,0,0,0,-1,972,365,0,0
-245,659,0,0,0,0,0,0,0,0,0,-1,979,365,0,0
-238,659,0,0,0,0,0,0,0,0,0,-1,986,365,0,0
-231,659,0,0,0,0,0,0,0,0,0,-1,993,365,0,0
-224,659,0,0,0,0,0,0,0,0,0,-1,1000,365,0,0
-217,659,10.1305,-25.2622,0,0,0,0,0,0,0,-1,1007,365,10.1305,25.2622
-210,659,9.65643,-25.515,0,0,0,0,0,0,0,-1,1014,365,9.65642,25.515
-203,659,8.58911,-25.7432,0,0,0,0,0,0,0,-1,1021,365,8.58916,25.7432
-196,659,2.68323,-27.8121,0,0,0,0,0,0,0,-1,1028,365,2.6832,27.8121
-189,659,6.88049,-28.9412,0,0,0,0,0,0,0,-1,1035,365,6.88045,28.9412
-182,659,6.94189,-30.6316,0,0,0,0,0,0,0,-1,1042,365,6.94189,30.6316
-175,659,6.948,-32.0092,0,0,0,0,0,0,0,-1,1049,365,6.94798,32.0093
-168,659,7.1416,-32.7405,0,0,0,0,0,0,0,-1,1056,365,7.14157,32.7405
-161,659,7.57361,-33.7099,0,0,0,0,0,0,0,-1,1063,365,7.57355,33.7099
-154,659,7.71448,-34.8995,0,0,0,0,0,0,0,-1,1070,365,7.7145,34.8995
-147,659,5.46606,-37.758,0,0,0,0,0,0,0,-1,1077,365,5.46601,37.758
-140,659,5.7356,-37.755,0,0,0,0,0,0,0,-1,1084,365,5.73562,37.755
-133,659,5.91455,-37.9017,0,0,0,0,0,0,0,-1,1091,365,5.9146,37.9017
-126,659,6.31226,-37.9904,0,0,0,0,0,0,0,-1,1098,365,6.3122,37.9904
-119,659,6.26941,-35.0837,0,0,0,0,0,0,0,-1,1105,365,6.26943,35.0837
-112,659,6.24353,-35.0562,0,0,0,0,0,0,0,-1,1112,365,6.24349,35.0562
-105,659,5.38696,-30.5854,0,0,0,0,0,0,0,-1,1119,365,5.387,30.5854
-98,659,4.68042,-26.2438,0,0,0,0,0,0,0,-1,1126,365,4.68041,26.2438
-91,659,4.20776,-20.8654,0,0,0,0,0,0,0,-1,1133,365,4.20777,20.8654
-84,659,2.8584,-17.8303,0,0,0,0,0,0,0,-1,1140,365,2.85836,17.8303
-77,659,2.80139,-15.3457,0,0,0,0,0,0,0,-1,1147,365,2.80139,15.3457
-70,659,2.9353,-12.7028,0,0,0,0,0,0,0,-1,1154,365,2.93533,12.7028
-63,659,2.11267,-9.7796,0,0,0,0,0,0,0,-1,1161,365,2.11266,9.7796
-56,659,2.11182,-9.91541,0,0,0,0,0,0,0,-1,1168,365,2.11178,9.91541
-49,659,1.90723,-261.049,0,0,0,0,0,0,0,-1,1175,365,1.90726,261.049
-42,659,-0.0397949,-262.306,0,0,0,0,0,0,0,-1,1182,365,-0.0398332,262.306
-35,659,0.307617,-262.935,0.0252638,0.0197907,0.00662427,0.0296945,0.01536,0.58952,0.0171476,0.0391132,1189,365,0.307603,262.935
-28,659,0.536377,-263.701,0.0257916,0.0206864,0.0065031,0.0302251,0.0162528,0.598378,0.017467,0.0267504,1196,365,0.536402,263.701
-21,659,0.789673,-264.765,0.0262598,0.0214095,0.0062237,0.0305141,0.0171551,0.599616,0.0176627,0.0430124,1203,365,0.789734,264.765
-14,659,0.973999,-265.588,0.0269763,0.0220006,0.00600962,0.0309927,0.0179842,0.589148,0.0179703,0.0424321,1210,365,0.973938,265.588
-7,659,1.07861,-266.162,0.0281731,0.0224525,0.00585157,0.031826,0.0187996,0.558072,0.0184752,0.0410216,1217,365,1.07867,266.162
0,659,1.17358,-266.895,0.0295243,0.0225538,0.00556787,0.0326078,0.0194703,0.505753,0.0189441,0.0274304,1224,365,1.17357,266.895
7,659,1.33142,-267.474,0.0308878,0.0225212,0.00502291,0.0332413,0.0201677,0.438174,0.019337,0.0254173,1231,365,1.33139,267.474
14,659,1.57764,-267.716,0.032357,0.021989,0.004409,0.0339783,0.0203676,0.352393,0.0197463,0.0267031,1238,365,1.57764,267.716
21,659,1.78918,-268.097,0.0339336,0.0214469,0.00394155,0.0350737,0.0203068,0.281565,0.0203338,0.0245748,1245,365,1.78923,268.097
28,659,1.9375,-268.562,0.0354492,0.0201939,0.00339309,0.0361698,0.0194732,0.209277,0.0209032,0.0253375,1252,365,1.93753,268.562
35,659,2.26904,-268.903,0.0365759,0.0188901,0.00253528,0.0369322,0.0185338,0.139606,0.0213229,0.0271818,1259,365,2.26899,268.903
42,659,2.65503,-269.203,0.0378155,0.0176873,0.001762,0.0379686,0.0175342,0.0866605,0.0219425,0.0297019,1266,365,2.65508,269.203
49,659,2.97937,-269.48,0.0391762,0.0161634,0.00112881,0.0392314,0.0161081,0.0488947,0.0227707,0.0315923,1273,365,2.97938,269.48
56,659,3.17688,-269.561,0.0397879,0.0154026,0.000621626,0.0398038,0.0153868,0.0254698,0.023177,0.0358134,1280,365,3.1769,269.561
63,659,3.375,-269.645,0.0399307,0.0152469,0.000424371,0.039938,0.0152396,0.0171855,0.0232728,0.0283982,1287,365,3.37497,269.645
70,659,3.76245,-269.555,0.0403156,0.0149775,0.000599536,0.0403297,0.0149633,0.0236438,0.0235412,0.0319476,1294,365,3.76243,269.555
77,659,4.13379,-269.424,0.0408074,0.0153386,0.000865951,0.0408368,0.0153092,0.0339482,0.0238219,0.0301933,1301,365,4.13383,269.424
84,659,4.37622,-269.383,0.0404512,0.016687,0.00105143,0.0404976,0.0166406,0.0441297,0.0235047,0.020248,1308,365,4.37617,269.383
91,659,4.57227,-269.234,0.0397885,0.0186698,0.00103549,0.0398391,0.0186191,0.0488759,0.0230175,0.0188635,1315,365,4.57232,269.234
98,659,4.75061,-268.826,0.0394511,0.0206374,0.00108074,0.039513,0.0205756,0.0571936,0.0228194,0.016334,1322,365,4.75063,268.826
105,659,5.07715,-268.37,0.0393646,0.0226166,0.00127212,0.0394607,0.0225205,0.0753801,0.0228584,0.0191156,1329,365,5.07711,268.37
112,659,5.42297,-267.939,0.0392087,0.0251095,0.00128564,0.039325,0.0249933,0.0901944,0.0229807,0.0216032,1336,365,5.42302,267.939
119,659,5.72107,-267.34,0.038848,0.0272171,0.00114279,0.0389592,0.0271059,0.0970188,0.0230606,0.0339453,1343,365,5.72107,267.34
126,659,5.99304,-266.611,0.0379915,0.029804,0.00100884,0.038114,0.0296816,0.120809,0.023117,0.0389037,1350,365,5.99303,266.611
133,659,6.29553,-265.86,0.0371265,0.0319288,0.00107806,0.0373412,0.0317141,0.196609,0.0232466,0.0380434,1357,365,6.29549,265.86
140,659,6.43079,-265.341,0.0362063,0.0337345,0.00109006,0.0366183,0.0333225,0.361389,0.0233911,0.0369365,1364,365,6.43084,265.341
147,659,6.61938,-264.766,0.0346764,0.0349964,0.000721846,0.0355758,0.034097,0.894469,0.02324,0.037644,1371,365,6.61936,264.766
154,659,6.91211,-263.905,0.0327826,0.036256,0.00066109,0.0363775,0.0326611,1.38893,0.0231127,0.0402602,1378,365,6.91213,263.905
161,659,6.96765,-262.811,0.0309557,0.0375388,0.000640484,0.0376005,0.030894,1.4747,0.0231575,0.0387001,1385,365,6.96765,262.811
168,659,6.979,-261.524,0,0,0,0,0,0,0,-1,1392,365,6.97903,261.524
175,659,7.64319,-260.306,0,0,0,0,0,0,0,-1,1399,365,7.64319,260.306
182,659,7.6283,-259.254,0,0,0,0,0,0,0,-1,1406,365,7.62832,259.254
189,659,5.07507,-133.501,0,0,0,0,0,0,0,-1,1413,365,5.07502,133.501
196,659,2.41248,-13.4371,0,0,0,0,0,0,0,-1,1420,365,2.41243,13.4371
203,659,2.38623,-12.2163,0,0,0,0,0,0,0,-1,1427,365,2.38617,12.2163
210,659,2.20789,-13.9792,0,0,0,0,0,0,0,-1,1434,365,2.20794,13.9792
217,659,2.24121,-13.487,0,0,0,0,0,0,0,-1,1441,365,2.24116,13.487
224,659,2.3479,-15.2926,0,0,0,0,0,0,0,-1,1448,365,2.34793,15.2926
231,659,2.47974,-17.8629,0,0,0,0,0,0,0,-1,1455,365,2.47976,17.8628
238,659,3.57886,-21.1258,0,0,0,0,0,0,0,-1,1462,365,3.57889,21.1258
245,659,3.29883,-25.0283,0,0,0,0,0,0,0,-1,1469,365,3.29889,25.0283
252,659,2.81909,-24.1604,0,0,0,0,0,0,0,-1,1476,365,2.81905,24.1604
259,659,2.33069,-3.36703,0,0,0,0,0,0,0,-1,1483,365,2.33073,3.36702
266,659,3.40918,-35.2544,0,0,0,0,0,0,0,-1,1490,365,3.40913,35.2544
273,659,4.45557,-42.3683,0,0,0,0,0,0,0,-1,1497,365,4.45554,42.3683
280,659,4.87903,-41.4995,0,0,0,0,0,0,0,-1,1504,365,4.87898,41.4995
287,659,1.09851,-23.7787,0,0,0,0,0,0,0,-1,1511,365,1.09847,23.7787
294,659,0.115601,-24.0352,0,0,0,0,0,0,0,-1,1518,365,0.115612,24.0352
301,659,-1.21362,-22.6162,0,0,0,0,0,0,0,-1,1525,365,-1.21358,22.6162
308,659,-2.32605,-21.2737,0,0,0,0,0,0,0,-1,1532,365,-2.32606,21.2737
315,659,-3.69629,-19.8803,0,0,0,0,0,0,0,-1,1539,365,-3.69631,19.8803
322,659,-4.9646,-18.5258,0,0,0,0,0,0,0,-1,1546,365,-4.96464,18.5257
329,659,-7.67749,-23.0449,0,0,0,0,0,0,0,-1,1553,365,-7.67745,23.0449
336,659,-7.71436,-22.4188,0,0,0,0,0,0,0,-1,1560,365,-7.71432,22.4188
343,659,0,0,0,0,0,0,0,0,0,-1,1567,365,0,0
350,659,0,0,0,0,0,0,0,0,0,-1,1574,365,0,0
357,659,0,0,0,0,0,0,0,0,0,-1,1581,365,0,0
364,659,0,0,0,0,0,0,0,0,0,-1,1588,365,0,0
371,659,0,0,0,0,0,0,0,0,0,-1,1595,365,0,0
378,659,0,0,0,0,0,0,0,0,0,-1,1602,365,0,0
385,659,0,0,0,0,0,0,0,0,0,-1,1609,365,0,0
392,659,0,0,0,0,0,0,0,0,0,-1,1616,365,0,0
399,659,0,0,0,0,0,0,0,0,0,-1,1623,365,0,0
406,659,0,0,0,0,0,0,0,0,0,-1,1630,365,0,0
413,659,0,0,0,0,0,0,0,0,0,-1,1637,365,0,0
420,659,0,0,0,0,0,0,0,0,0,-1,1644,365,0,0
427,659,0,0,0,0,0,0,0,0,0,-1,1651,365,0,0
434,659,0,0,0,0,0,0,0,0,0,-1,1658,365,0,0
441,659,0,0,0,0,0,0,0,0,0,-1,1665,365,0,0
448,659,0,0,0,0,0,0,0,0,0,-1,1672,365,0,0
455,659,0,0,0,0,0,0,0,0,0,-1,1679,365,0,0
462,659,0,0,0,0,0,0,0,0,0,-1,1686,365,0,0
469,659,0,0,0,0,0,0,0,0,0,-1,1693,365,0,0
476,659,0,0,0,0,0,0,0,0,0,-1,1700,365,0,0
483,659,0,0,0,0,0,0,0,0,0,-1,1707,365,0,0
490,659,0,0,0,0,0,0,0,0,0,-1,1714,365,0,0
497,659,0,0,0,0,0,0,0,0,0,-1,1721,365,0,0
504,659,0,0,0,0,0,0,0,0,0,-1,1728,365,0,0
511,659,0,0,0,0,0,0,0,0,0,-1,1735,365,0,0
518,659,0,0,0,0,0,0,0,0,0,-1,1742,365,0,0
525,659,0,0,0,0,0,0,0,0,0,-1,1749,365,0,0
532,659,0,0,0,0,0,0,0,0,0,-1,1756,365,0,0
539,659,0,0,0,0,0,0,0,0,0,-1,1763,365,0,0
546,659,0,0,0,0,0,0,0,0,0,-1,1770,365,0,0
553,659,0,0,0,0,0,0,0,0,0,-1,1777,365,0,0
560,659,0,0,0,0,0,0,0,0,0,-1,1784,365,0,0
567,659,0,0,0,0,0,0,0,0,0,-1,1791,365,0,0
574,659,0,0,0,0,0,0,0,0,0,-1,1798,365,0,0
581,659,0,0,0,0,0,0,0,0,0,-1,1805,365,0,0
588,659,0,0,0,0,0,0,0,0,0,-1,1812,365,0,0
595,659,0,0,0,0,0,0,0,0,0,-1,1819,365,0,0
602,659,0,0,0,0,0,0,0,0,0,-1,1826,365,0,0
609,659,0,0,0,0,0,0,0,0,0,-1,1833,365,0,0
616,659,0,0,0,0,0,0,0,0,0,-1,1840,365,0,0
623,659,0,0,0,0,0,0,0,0,0,-1,1847,365,0,0
630,659,0,0,0,0,0,0,0,0,0,-1,1854,365,0,0
637,659,0,0,0,0,0,0,0,0,0,-1,1861,365,0,0
644,659,0,0,0,0,0,0,0,0,0,-1,1868,365,0,0
651,659,0,0,0,0,0,0,0,0,0,-1,1875,365,0,0
658,659,0,0,0,0,0,0,0,0,0,-1,1882,365,0,0
665,659,0,0,0,0,0,0,0,0,0,-1,1889,365,0,0
672,659,0,0,0,0,0,0,0,0,0,-1,1896,365,0,0
679,659,0,0,0,0,0,0,0,0,0,-1,1903,365,0,0
686,659,0,0,0,0,0,0,0,0,0,-1,1910,365,0,0
693,659,0,0,0,0,0,0,0,0,0,-1,1917,365,0,0
700,659,0,0,0,0,0,0,0,0,0,-1,1924,365,0,0
707,659,0,0,0,0,0,0,0,0,0,-1,1931,365,0,0
714,659,0,0,0,0,0,0,0,0,0,-1,1938,365,0,0
721,659,0,0,0,0,0,0,0,0,0,-1,1945,365,0,0
728,659,0,0,0,0,0,0,0,0,0,-1,1952,365,0,0
735,659,0,0,0,0,0,0,0,0,0,-1,1959,365,0,0
742,659,0,0,0,0,0,0,0,0,0,-1,1966,365,0,0
749,659,0,0,0,0,0,0,0,0,0,-1,1973,365,0,0
756,659,0,0,0,0,0,0,0,0,0,-1,1980,365,0,0
763,659,0,0,0,0,0,0,0,0,0,-1,1987,365,0,0
770,659,0,0,0,0,0,0,0,0,0,-1,1994,365,0,0
777,659,0,0,0,0,0,0,0,0,0,-1,2001,365,0,0
784,659,0,0,0,0,0,0,0,0,0,-1,2008,365,0,0
791,659,0,0,0,0,0,0,0,0,0,-1,2015,365,0,0
798,659,0,0,0,0,0,0,0,0,0,-1,2022,365,0,0
805,659,0,0,0,0,0,0,0,0,0,-1,2029,365,0,0
812,659,0,0,0,0,0,0,0,0,0,-1,2036,365,0,0
-700,652,0,0,0,0,0,0,0,0,0,-1,524,372,0,0
-693,652,0,0,0,0,0,0,0,0,0,-1,531,372,0,0
-686,652,0,0,0,0,0,0,0,0,0,-1,538,372,0,0
-679,652,0,0,0,0,0,0,0,0,0,-1,545,372,0,0
-672,652,0,0,0,0,0,0,0,0,0,-1,552,372,0,0
-665,652,0,0,0,0,0,0,0,0,0,-1,559,372,0,0
-658,652,0,0,0,0,0,0,0,0,0,-1,566,372,0,0
-651,652,0,0,0,0,0,0,0,0,0,-1,573,372,0,0
-644,652,0,0,0,0,0,0,0,0,0,-1,580,372,0,0
-637,652,0,0,0,0,0,0,0,0,0,-1,587,372,0,0
-630,652,0,0,0,0,0,0,0,0,0,-1,594,372,0,0
-623,652,0,0,0,0,0,0,0,0,0,-1,601,372,0,0
-616,652,0,0,0,0,0,0,0,0,0,-1,608,372,0,0
-609,652,0,0,0,0,0,0,0,0,0,-1,615,372,0,0
-602,652,0,0,0,0,0,0,0,0,0,-1,622,372,0,0
-595,652,0,0,0,0,0,0,0,0,0,-1,629,372,0,0
-588,652,0,0,0,0,0,0,0,0,0,-1,636,372,0,0
-581,652,0,0,0,0,0,0,0,0,0,-1,643,372,0,0
-574,652,0,0,0,0,0,0,0,0,0,-1,650,372,0,0
-567,652,0,0,0,0,0,0,0,0,0,-1,657,372,0,0
-560,652,0,0,0,0,0,0,0,0,0,-1,664,372,0,0
-553,652,0,0,0,0,0,0,0,0,0,-1,671,372,0,0
-546,652,0,0,0,0,0,0,0,0,0,-1,678,372,0,0
-539,652,0,0,0,0,0,0,0,0,0,-1,685,372,0,0
-532,652,0,0,0,0,0,0,0,0,0,-1,692,372,0,0
-525,652,0,0,0,0,0,0,0,0,0,-1,699,372,0,0
-518,652,0,0,0,0,0,0,0,0,0,-1,706,372,0,0
-511,652,0,0,0,0,0,0,0,0,0,-1,713,372,0,0
-504,652,0,0,0,0,0,0,0,0,0,-1,720,372,0,0
-497,652,0,0,0,0,0,0,0,0,0,-1,727,372,0,0
-490,652,0,0,0,0,0,0,0,0,0,-1,734,372,0,0
-483,652,0,0,0,0,0,0,0,0,0,-1,741,372,0,0
-476,652,0,0,0,0,0,0,0,0,0,-1,748,372,0,0
-469,652,0,0,0,0,0,0,0,0,0,-1,755,372,0,0
-462,652,0,0,0,0,0,0,0,0,0,-1,762,372,0,0
-455,652,0,0,0,0,0,0,0,0,0,-1,769,372,0,0
-448,652,0,0,0,0,0,0,0,0,0,-1,776,372,0,0
-441,652,0,0,0,0,0,0,0,0,0,-1,783,372,0,0
-434,652,0,0,0,0,0,0,0,0,0,-1,790,372,0,0
-427,652,0,0,0,0,0,0,0,0,0,-1,797,372,0,0
-420,652,0,0,0,0,0,0,0,0,0,-1,804,372,0,0
-413,652,0,0,0,0,0,0,0,0,0,-1,811,372,0,0
-406,652,0,0,0,0,0,0,0,0,0,-1,818,372,0,0
-399,652,0,0,0,0,0,0,0,0,0,-1,825,372,0,0
-392,652,0,0,0,0,0,0,0,0,0,-1,832,372,0,0
-385,652,0,0,0,0,0,0,0,0,0,-1,839,372,0,0
-378,652,0,0,0,0,0,0,0,0,0,-1,846,372,0,0
-371,652,0,0,0,0,0,0,0,0,0,-1,853,372,0,0
-364,652,0,0,0,0,0,0,0,0,0,-1,860,372,0,0
-357,652,0,0,0,0,0,0,0,0,0,-1,867,372,0,0
-350,652,0,0,0,0,0,0,0,0,0,-1,874,372,0,0
-343,652,0,0,0,0,0,0,0,0,0,-1,881,372,0,0
-336,652,0,0,0,0,0,0,0,0,0,-1,888,372,0,0
-329,652,0,0,0,0,0,0,0,0,0,-1,895,372,0,0
-322,652,0,0,0,0,0,0,0,0,0,-1,902,372,0,0
-315,652,0,0,0,0,0,0,0,0,0,-1,909,372,0,0
-308,652,0,0,0,0,0,0,0,0,0,-1,916,372,0,0
-301,652,0,0,0,0,0,0,0,0,0,-1,923,372,0,0
-294,652,0,0,0,0,0,0,0,0,0,-1,930,372,0,0
-287,652,0,0,0,0,0,0,0,0,0,-1,937,372,0,0
-280,652,0,0,0,0,0,0,0,0,0,-1,944,372,0,0
-273,652,0,0,0,0,0,0,0,0,0,-1,951,372,0,0
-266,652,0,0,0,0,0,0,0,0,0,-1,958,372,0,0
-259,652,0,0,0,0,0,0,0,0,0,-1,965,372,0,0
-252,652,0,0,0,0,0,0,0,0,0,-1,972,372,0,0
-245,652,0,0,0,0,0,0,0,0,0,-1,979,372,0,0
-238,652,0,0,0,0,0,0,0,0,0,-1,986,372,0,0
-231,652,8.79358,-27.1656,0,0,0,0,0,0,0,-1,993,372,8.79357,27.1656
-224,652,8.84552,-27.675,0,0,0,0,0,0,0,-1,1000,372,8.84555,27.675
-217,652,9.03113,-27.7474,0,0,0,0,0,0,0,-1,1007,372,9.0311,27.7474
-210,652,9.72803,-30.4624,0,0,0,0,0,0,0,-1,1014,372,9.72805,30.4624
-203,652,7.2677,-26.0732,0,0,0,0,0,0,0,-1,1021,372,7.26775,26.0732
-196,652,5.90686,-26.957,0,0,0,0,0,0,0,-1,1028,372,5.9068,26.957
-189,652,6.21326,-28.3035,0,0,0,0,0,0,0,-1,1035,372,6.21331,28.3035
-182,652,6.45068,-29.9377,0,0,0,0,0,0,0,-1,1042,372,6.45074,29.9377
-175,652,6.72559,-31.6948,0,0,0,0,0,0,0,-1,1049,372,6.72563,31.6948
-168,652,7.08533,-32.8669,0,0,0,0,0,0,0,-1,1056,372,7.08532,32.8669
-161,652,7.85291,-37.3545,0,0,0,0,0,0,0,-1,1063,372,7.85294,37.3545
-154,652,7.54639,-37.9586,0,0,0,0,0,0,0,-1,1070,372,7.54642,37.9586
-147,652,7.85571,-42.3712,0,0,0,0,0,0,0,-1,1077,372,7.8557,42.3712
-140,652,5.6842,-33.9781,0,0,0,0,0,0,0,-1,1084,372,5.68421,33.9781
-133,652,6.3009,-35.2887,0,0,0,0,0,0,0,-1,1091,372,6.30093,35.2887
-126,652,5.86841,-37.0981,0,0,0,0,0,0,0,-1,1098,372,5.86845,37.0981
-119,652,8.18018,-49.52,0,0,0,0,0,0,0,-1,1105,372,8.18015,49.52
-112,652,7.81982,-48.4793,0,0,0,0,0,0,0,-1,1112,372,7.81981,48.4793
-105,652,6.63855,-39.9965,0,0,0,0,0,0,0,-1,1119,372,6.63852,39.9965
-98,652,5.84302,-35.2455,0,0,0,0,0,0,0,-1,1126,372,5.84307,35.2455
-91,652,5.66296,-32.9003,0,0,0,0,0,0,0,-1,1133,372,5.66297,32.9003
-84,652,5.46057,-34.9186,0,0,0,0,0,0,0,-1,1140,372,5.46057,34.9186
-77,652,-0.697144,-255.338,0,0,0,0,0,0,0,-1,1147,372,-0.697169,255.338
-70,652,-1.17407,-257.122,0,0,0,0,0,0,0,-1,1154,372,-1.17404,257.122
-63,652,-1.07495,-258.487,0,0,0,0,0,0,0,-1,1161,372,-1.07492,258.487
-56,652,-1.16638,-259.911,0,0,0,0,0,0,0,-1,1168,372,-1.16641,259.911
-49,652,-0.850342,-261.232,0,0,0,0,0,0,0,-1,1175,372,-0.850389,261.232
-42,652,-0.450195,-261.96,0,0,0,0,0,0,0,-1,1182,372,-0.450174,261.96
-35,652,-0.601074,-262.922,0.0341208,0.0120995,0.00721904,0.0362763,0.00994393,0.290166,0.0216449,0.0272217,1189,372,-0.60104,262.922
-28,652,-0.44104,-263.894,0.0349487,0.0126754,0.0070132,0.036973,0.0106511,0.281,0.0219762,0.0138463,1196,372,-0.441094,263.894
-21,652,-0.302979,-264.854,0.0356415,0.0131106,0.00666448,0.0374652,0.011287,0.267105,0.0221928,0.0195172,1203,372,-0.302979,264.854
-14,652,0.0239258,-265.517,0.036606,0.0134638,0.00640286,0.0382594,0.0118104,0.252706,0.0226216,0.0247756,1210,372,0.0239428,265.517
-7,652,0.266113,-266.3,0.0380332,0.013733,0.00621882,0.0395323,0.012234,0.236534,0.0233698,0.0311129,1217,372,0.266086,266.3
0,652,0.394043,-266.969,0.0396109,0.0137178,0.00595855,0.0409163,0.0124124,0.215669,0.0242243,0.0327551,1224,372,0.394104,266.969
7,652,0.777466,-267.374,0.0411901,0.013598,0.00544531,0.0422259,0.0125622,0.187965,0.0250367,0.0328681,1231,372,0.777485,267.374
14,652,1.21094,-267.968,0.0428102,0.0130508,0.00488874,0.0435927,0.0122682,0.15872,0.0259575,0.0183258,1238,372,1.21097,267.968
21,652,1.34692,-268.431,0.0445324,0.0125326,0.0044163,0.0451307,0.0119343,0.134657,0.0270029,0.0149194,1245,372,1.34694,268.431
28,652,1.55627,-268.81,0.0462622,0.0114985,0.00385797,0.0466852,0.0110755,0.109207,0.0281671,0.0177677,1252,372,1.55627,268.81
35,652,1.9762,-269.062,0.0476369,0.0104356,0.00300891,0.0478787,0.0101938,0.0801874,0.0291221,0.0183846,1259,372,1.97623,269.062
42,652,2.38733,-269.3,0.0490533,0.00940079,0.00218671,0.0491735,0.00928057,0.0549249,0.0301685,0.0176606,1266,372,2.38735,269.3
49,652,2.79041,-269.511,0.0505132,0.00814275,0.00149525,0.0505659,0.00809005,0.0352314,0.0313637,0.0215082,1273,372,2.79039,269.511
56,652,3.03833,-269.603,0.051217,0.00747579,0.000783141,0.051231,0.00746177,0.0178963,0.0319584,0.0251062,1280,372,3.03831,269.603
63,652,3.25696,-269.693,0.0515974,0.00725775,0.000274609,0.0515991,0.00725605,0.00619299,0.0322539,0.0278934,1287,372,3.2569,269.693
70,652,3.78369,-269.547,0.0520186,0.00700092,5.7005e-05,0.0520187,0.00700085,0.00126628,0.0325971,0.0236601,1294,372,3.78369,269.547
77,652,4.29199,-269.483,0.0524634,0.00726917,-2.74432e-05,0.0524634,0.00726915,-0.000607229,0.032822,0.0199624,1301,372,4.29202,269.483
84,652,4.52063,-269.476,0.0522908,0.00833916,-0.000219237,0.0522919,0.00833807,-0.00498798,0.0324411,0.0161195,1308,372,4.52057,269.476
91,652,4.75439,-269.415,0.0517149,0.00989292,-0.000541568,0.0517219,0.0098859,-0.0129465,0.031704,0.0218431,1315,372,4.75441,269.415
98,652,5.2113,-269.014,0.0514086,0.0114464,-0.000753906,0.0514228,0.0114322,-0.0188565,0.0311778,0.0201521,1322,372,5.21131,269.014
105,652,5.58496,-268.579,0.0513703,0.013098,-0.000902629,0.0513916,0.0130767,-0.0235669,0.0308405,0.0190538,1329,372,5.58495,268.579
112,652,5.91296,-268.119,0.0512558,0.0151303,-0.00113937,0.0512917,0.0150944,-0.0314973,0.0304373,0.0163559,1336,372,5.91299,268.119
119,652,6.19958,-267.584,0.0508465,0.0168975,-0.00147366,0.0509104,0.0168336,-0.0432994,0.0299498,0.026463,1343,372,6.19959,267.584
126,652,6.52039,-266.894,0.0499044,0.0191056,-0.00174619,0.0500031,0.0190069,-0.0564555,0.0291446,0.0362237,1350,372,6.52034,266.894
133,652,6.86804,-266.131,0.048913,0.0209429,-0.00179558,0.0490278,0.0208281,-0.0638472,0.0284126,0.0289752,1357,372,6.8681,266.131
140,652,7.10498,-265.51,0.0479456,0.0225561,-0.00185983,0.0480812,0.0224206,-0.0727345,0.0277807,0.01751,1364,372,7.10493,265.51
147,652,7.45532,-264.847,0.0464988,0.0237385,-0.00222064,0.0467134,0.0235239,-0.0963559,0.0269702,0.0162667,1371,372,7.45536,264.847
154,652,7.78064,-264.024,0.0446432,0.0249182,-0.00234659,0.0449185,0.0246428,-0.116793,0.0259745,0.0176317,1378,372,7.7806,264.024
161,652,8.05188,-263.077,0.0427965,0.0261399,-0.00242821,0.0431433,0.0257932,-0.141848,0.0250673,0.0235908,1385,372,8.0519,263.077
168,652,8.36609,-262.055,0.0407662,0.027144,-0.00275858,0.0413037,0.0266065,-0.192409,0.0241749,0.0325735,1392,372,8.36605,262.055
175,652,8.58691,-260.877,0.0384519,0.0277752,-0.00312088,0.0392973,0.0269298,-0.264513,0.0232017,0.0341637,1399,372,8.58692,260.877
182,652,8.64014,-259.728,0.0367392,0.0281143,-0.00329013,0.0378509,0.0270025,-0.325865,0.0225069,0.0422431,1406,372,8.64017,259.728
189,652,8.80249,-258.573,0,0,0,0,0,0,0,-1,1413,372,8.80252,258.573
196,652,8.67004,-257.419,0,0,0,0,0,0,0,-1,1420,372,8.67007,257.419
203,652,8.69763,-255.838,0,0,0,0,0,0,0,-1,1427,372,8.69767,255.838
210,652,9.28528,-254.003,0,0,0,0,0,0,0,-1,1434,372,9.28533,254.003
217,652,6.06433,-252.151,0,0,0,0,0,0,0,-1,1441,372,6.06429,252.151
224,652,3.63794,-31.2791,0,0,0,0,0,0,0,-1,1448,372,3.63799,31.2791
231,652,3.83936,-30.4812,0,0,0,0,0,0,0,-1,1455,372,3.8393,30.4812
238,652,4.42358,-36.4103,0,0,0,0,0,0,0,-1,1462,372,4.4236,36.4103
245,652,4.53296,-41.8512,0,0,0,0,0,0,0,-1,1469,372,4.5329,41.8512
252,652,5.00793,-47.7065,0,0,0,0,0,0,0,-1,1476,372,5.00791,47.7064
259,652,3.44922,-31.2655,0,0,0,0,0,0,0,-1,1483,372,3.44921,31.2655
266,652,5.5387,-50.3915,0,0,0,0,0,0,0,-1,1490,372,5.53875,50.3915
273,652,5.76855,-57.8665,0,0,0,0,0,0,0,-1,1497,372,5.76858,57.8665
280,652,4.05066,-24.6993,0,0,0,0,0,0,0,-1,1504,372,4.05066,24.6993
287,652,3.0979,-23.6951,0,0,0,0,0,0,0,-1,1511,372,3.09796,23.6951
294,652,2.06946,-24.1711,0,0,0,0,0,0,0,-1,1518,372,2.0694,24.1711
301,652,1.78735,-24.3724,0,0,0,0,0,0,0,-1,1525,372,1.78732,24.3724
308,652,-0.706299,-22.1083,0,0,0,0,0,0,0,-1,1532,372,-0.706291,22.1083
315,652,-1.65198,-21.8662,0,0,0,0,0,0,0,-1,1539,372,-1.65204,21.8662
322,652,-2.66101,-21.728,0,0,0,0,0,0,0,-1,1546,372,-2.66097,21.728
329,652,-7.12329,-21.7065,0,0,0,0,0,0,0,-1,1553,372,-7.12334,21.7065
336,652,-3.56519,-22.3688,0,0,0,0,0,0,0,-1,1560,372,-3.56517,22.3688
343,652,-3.58069,-21.9185,0,0,0,0,0,0,0,-1,1567,372,-3.58069,21.9185
350,652,5.28394,-25.6715,0,0,0,0,0,0,0,-1,1574,372,5.28393,25.6715
357,652,0,0,0,0,0,0,0,0,0,-1,1581,372,0,0
364,652,0,0,0,0,0,0,0,0,0,-1,1588,372,0,0
371,652,0,0,0,0,0,0,0,0,0,-1,1595,372,0,0
378,652,0,0,0,0,0,0,0,0,0,-1,1602,372,0,0
385,652,0,0,0,0,0,0,0,0,0,-1,1609,372,0,0
392,652,0,0,0,0,0,0,0,0,0,-1,1616,372,0,0
399,652,0,0,0,0,0,0,0,0,0,-1,1623,372,0,0
406,652,0,0,0,0,0,0,0,0,0,-1,1630,372,0,0
413,652,0,0,0,0,0,0,0,0,0,-1,1637,372,0,0
420,652,0,0,0,0,0,0,0,0,0,-1,1644,372,0,0
427,652,0,0,0,0,0,0,0,0,0,-1,1651,372,0,0
434,652,0,0,0,0,0,0,0,0,0,-1,1658,372,0,0
441,652,0,0,0,0,0,0,0,0,0,-1,1665,372,0,0
448,652,0,0,0,0,0,0,0,0,0,-1,1672,372,0,0
455,652,0,0,0,0,0,0,0,0,0,-1,1679,372,0,0
462,652,0,0,0,0,0,0,0,0,0,-1,1686,372,0,0
469,652,0,0,0,0,0,0,0,0,0,-1,1693,372,0,0
476,652,0,0,0,0,0,0,0,0,0,-1,1700,372,0,0
483,652,0,0,0,0,0,0,0,0,0,-1,1707,372,0,0
490,652,0,0,0,0,0,0,0,0,0,-1,1714,372,0,0
497,652,0,0,0,0,0,0,0,0,0,-1,1721,372,0,0
504,652,0,0,0,0,0,0,0,0,0,-1,1728,372,0,0
511,652,0,0,0,0,0,0,0,0,0,-1,1735,372,0,0
518,652,0,0,0,0,0,0,0,0,0,-1,1742,372,0,0
525,652,0,0,0,0,0,0,0,0,0,-1,1749,372,0,0
532,652,0,0,0,0,0,0,0,0,0,-1,1756,372,0,0
539,652,0,0,0,0,0,0,0,0,0,-1,1763,372,0,0
546,652,0,0,0,0,0,0,0,0,0,-1,1770,372,0,0
553,652,0,0,0,0,0,0,0,0,0,-1,1777,372,0,0
560,652,0,0,0,0,0,0,0,0,0,-1,1784,372,0,0
567,652,0,0,0,0,0,0,0,0,0,-1,1791,372,0,0
574,652,0,0,0,0,0,0,0,0,0,-1,1798,372,0,0
581,652,0,0,0,0,0,0,0,0,0,-1,1805,372,0,0
588,652,0,0,0,0,0,0,0,0,0,-1,1812,372,0,0
595,652,0,0,0,0,0,0,0,0,0,-1,1819,372,0,0
602,652,0,0,0,0,0,0,0,0,0,-1,1826,372,0,0
609,652,0,0,0,0,0,0,0,0,0,-1,1833,372,0,0
616,652,0,0,0,0,0,0,0,0,0,-1,1840,372,0,0
623,652,0,0,0,0,0,0,0,0,0,-1,1847,372,0,0
630,652,0,0,0,0,0,0,0,0,0,-1,1854,372,0,0
637,652,0,0,0,0,0,0,0,0,0,-1,1861,372,0,0
644,652,0,0,0,0,0,0,0,0,0,-1,1868,372,0,0
651,652,0,0,0,0,0,0,0,0,0,-1,1875,372,0,0
658,652,0,0,0,0,0,0,0,0,0,-1,1882,372,0,0
665,652,0,0,0,0,0,0,0,0,0,-1,1889,372,0,0
672,652,0,0,0,0,0,0,0,0,0,-1,1896,372,0,0
679,652,0,0,0,0,0,0,0,0,0,-1,1903,372,0,0
686,652,0,0,0,0,0,0,0,0,0,-1,1910,372,0,0
693,652,0,0,0,0,0,0,0,0,0,-1,1917,372,0,0
700,652,0,0,0,0,0,0,0,0,0,-1,1924,372,0,0
707,652,0,0,0,0,0,0,0,0,0,-1,1931,372,0,0
714,652,0,0,0,0,0,0,0,0,0,-1,1938,372,0,0
721,652,0,0,0,0,0,0,0,0,0,-1,1945,372,0,0
728,652,0,0,0,0,0,0,0,0,0,-1,1952,372,0,0
735,652,0,0,0,0,0,0,0,0,0,-1,1959,372,0,0
742,652,0,0,0,0,0,0,0,0,0,-1,1966,372,0,0
749,652,0,0,0,0,0,0,0,0,0,-1,1973,372,0,0
756,652,0,0,0,0,0,0,0,0,0,-1,1980,372,0,0
763,652,0,0,0,0,0,0,0,0,0,-1,1987,372,0,0
770,652,0,0,0,0,0,0,0,0,0,-1,1994,372,0,0
777,652,0,0,0,0,0,0,0,0,0,-1,2001,372,0,0
784,652,0,0,0,0,0,0,0,0,0,-1,2008,372,0,0
791,652,0,0,0,0,0,0,0,0,0,-1,2015,372,0,0
798,652,0,0,0,0,0,0,0,0,0,-1,2022,372,0,0
805,652,0,0,0,0,0,0,0,0,0,-1,2029,372,0,0
812,652,0,0,0,0,0,0,0,0,0,-1,2036,372,0,0
-700,645,0,0,0,0,0,0,0,0,0,-1,524,379,0,0
-693,645,0,0,0,0,0,0,0,0,0,-1,531,379,0,0
-686,645,0,0,0,0,0,0,0,0,0,-1,538,379,0,0
-679,645,0,0,0,0,0,0,0,0,0,-1,545,379,0,0
-672,645,0,0,0,0,0,0,0,0,0,-1,552,379,0,0
-665,645,0,0,0,0,0,0,0,0,0,-1,559,379,0,0
-658,645,0,0,0,0,0,0,0,0,0,-1,566,379,0,0
-651,645,0,0,0,0,0,0,0,0,0,-1,573,379,0,0
-644,645,0,0,0,0,0,0,0,0,0,-1,580,379,0,0
-637,645,0,0,0,0,0,0,0,0,0,-1,587,379,0,0
-630,645,0,0,0,0,0,0,0,0,0,-1,594,379,0,0
-623,645,0,0,0,0,0,0,0,0,0,-1,601,379,0,0
-616,645,0,0,0,0,0,0,0,0,0,-1,608,379,0,0
-609,645,0,0,0,0,0,0,0,0,0,-1,615,379,0,0
-602,645,0,0,0,0,0,0,0,0,0,-1,622,379,0,0
-595,645,0,0,0,0,0,0,0,0,0,-1,629,379,0,0
-588,645,0,0,0,0,0,0,0,0,0,-1,636,379,0,0
-581,645,0,0,0,0,0,0,0,0,0,-1,643,379,0,0
-574,645,0,0,0,0,0,0,0,0,0,-1,650,379,0,0
-567,645,0,0,0,0,0,0,0,0,0,-1,657,379,0,0
-560,645,0,0,0,0,0,0,0,0,0,-1,664,379,0,0
-553,645,0,0,0,0,0,0,0,0,0,-1,671,379,0,0
-546,645,0,0,0,0,0,0,0,0,0,-1,678,379,0,0
-539,645,0,0,0,0,0,0,0,0,0,-1,685,379,0,0
-532,645,0,0,0,0,0,0,0,0,0,-1,692,379,0,0
-525,645,0,0,0,0,0,0,0,0,0,-1,699,379,0,0
-518,645,0,0,0,0,0,0,0,0,0,-1,706,379,0,0
-511,645,0,0,0,0,0,0,0,0,0,-1,713,379,0,0
-504,645,0,0,0,0,0,0,0,0,0,-1,720,379,0,0
-497,645,0,0,0,0,0,0,0,0,0,-1,727,379,0,0
-490,645,0,0,0,0,0,0,0,0,0,-1,734,379,0,0
-483,645,0,0,0,0,0,0,0,0,0,-1,741,379,0,0
-476,645,0,0,0,0,0,0,0,0,0,-1,748,379,0,0
-469,645,0,0,0,0,0,0,0,0,0,-1,755,379,0,0
-462,645,0,0,0,0,0,0,0,0,0,-1,762,379,0,0
-455,645,0,0,0,0,0,0,0,0,0,-1,769,379,0,0
-448,645,0,0,0,0,0,0,0,0,0,-1,776,379,0,0
-441,645,0,0,0,0,0,0,0,0,0,-1,783,379,0,0
-434,645,0,0,0,0,0,0,0,0,0,-1,790,379,0,0
-427,645,0,0,0,0,0,0,0,0,0,-1,797,379,0,0
-420,645,0,0,0,0,0,0,0,0,0,-1,804,379,0,0
-413,645,0,0,0,0,0,0,0,0,0,-1,811,379,0,0
-406,645,0,0,0,0,0,0,0,0,0,-1,818,379,0,0
-399,645,0,0,0,0,0,0,0,0,0,-1,825,379,0,0
-392,645,0,0,0,0,0,0,0,0,0,-1,832,379,0,0
-385,645,0,0,0,0,0,0,0,0,0,-1,839,379,0,0
-378,645,0,0,0,0,0,0,0,0,0,-1,846,379,0,0
-371,645,0,0,0,0,0,0,0,0,0,-1,853,379,0,0
-364,645,0,0,0,0,0,0,0,0,0,-1,860,379,0,0
-357,645,0,0,0,0,0,0,0,0,0,-1,867,379,0,0
-350,645,0,0,0,0,0,0,0,0,0,-1,874,379,0,0
-343,645,0,0,0,0,0,0,0,0,0,-1,881,379,0,0
-336,645,0,0,0,0,0,0,0,0,0,-1,888,379,0,0
-329,645,0,0,0,0,0,0,0,0,0,-1,895,379,0,0
-322,645,0,0,0,0,0,0,0,0,0,-1,902,379,0,0
-315,645,0,0,0,0,0,0,0,0,0,-1,909,379,0,0
-308,645,0,0,0,0,0,0,0,0,0,-1,916,379,0,0
-301,645,0,0,0,0,0,0,0,0,0,-1,923,379,0,0
-294,645,0,0,0,0,0,0,0,0,0,-1,930,379,0,0
-287,645,0,0,0,0,0,0,0,0,0,-1,937,379,0,0
-280,645,0,0,0,0,0,0,0,0,0,-1,944,379,0,0
-273,645,0,0,0,0,0,0,0,0,0,-1,951,379,0,0
-266,645,0,0,0,0,0,0,0,0,0,-1,958,379,0,0
-259,645,0,0,0,0,0,0,0,0,0,-1,965,379,0,0
-252,645,2.95691,-26.9133,0,0,0,0,0,0,0,-1,972,379,2.9569,26.9133
-245,645,2.73169,-27.0215,0,0,0,0,0,0,0,-1,979,379,2.73172,27.0215
-238,645,2.6665,-26.9464,0,0,0,0,0,0,0,-1,986,379,2.66649,26.9464
-231,645,7.26807,-29.1054,0,0,0,0,0,0,0,-1,993,379,7.26806,29.1054
-224,645,7.69073,-29.5737,0,0,0,0,0,0,0,-1,1000,379,7.69071,29.5737
-217,645,8.65485,-33.4136,0,0,0,0,0,0,0,-1,1007,379,8.65487,33.4136
-210,645,9.21594,-32.5157,0,0,0,0,0,0,0,-1,1014,379,9.21591,32.5156
-203,645,9.77698,-31.6176,0,0,0,0,0,0,0,-1,1021,379,9.77696,31.6177
-196,645,10.2664,-29.7741,0,0,0,0,0,0,0,-1,1028,379,10.2664,29.7741
-189,645,5.88062,-28.2191,0,0,0,0,0,0,0,-1,1035,379,5.88062,28.2191
-182,645,6.34167,-29.2525,0,0,0,0,0,0,0,-1,1042,379,6.3417,29.2525
-175,645,6.36462,-35.5586,0,0,0,0,0,0,0,-1,1049,379,6.3646,35.5586
-168,645,7.19116,-39.5785,0,0,0,0,0,0,0,-1,1056,379,7.19115,39.5785
-161,645,7.22083,-37.6093,0,0,0,0,0,0,0,-1,1063,379,7.22085,37.6094
-154,645,7.42102,-41.6806,0,0,0,0,0,0,0,-1,1070,379,7.42105,41.6806
-147,645,8.89526,-50.6488,0,0,0,0,0,0,0,-1,1077,379,8.89521,50.6488
-140,645,10.4504,-64.9295,0,0,0,0,0,0,0,-1,1084,379,10.4504,64.9295
-133,645,10.6296,-65.2849,0,0,0,0,0,0,0,-1,1091,379,10.6297,65.2849
-126,645,10.2167,-62.2486,0,0,0,0,0,0,0,-1,1098,379,10.2167,62.2486
-119,645,10.1696,-65.1252,0,0,0,0,0,0,0,-1,1105,379,10.1695,65.1252
-112,645,-2.57397,-247.86,0,0,0,0,0,0,0,-1,1112,379,-2.57403,247.86
-105,645,-2.70422,-249.743,0,0,0,0,0,0,0,-1,1119,379,-2.70427,249.743
-98,645,-2.86072,-251.368,0,0,0,0,0,0,0,-1,1126,379,-2.86072,251.368
-91,645,-2.97546,-253.005,0,0,0,0,0,0,0,-1,1133,379,-2.97546,253.005
-84,645,-2.88281,-254.653,0,0,0,0,0,0,0,-1,1140,379,-2.88279,254.652
-77,645,-2.61182,-255.962,0,0,0,0,0,0,0,-1,1147,379,-2.61176,255.962
-70,645,-2.48169,-257.223,0.0334876,0.006283,0.00702038,0.0351925,0.00457817,0.238229,0.0220943,0.0234197,1154,379,-2.48169,257.223
-63,645,-2.34009,-258.494,0.0362642,0.00573445,0.00772832,0.0381091,0.00388958,0.23433,0.0242139,0.0215142,1161,379,-2.34011,258.494
-56,645,-2.18982,-259.639,0.0383757,0.00551304,0.00810108,0.0402642,0.00362454,0.229027,0.0257199,0.0384741,1168,379,-2.18977,259.639
-49,645,-2.0481,-260.912,0.0400197,0.00522033,0.00836531,0.0419262,0.00331387,0.224074,0.0269143,0.0462578,1175,379,-2.04814,260.912
-42,645,-2.01501,-261.822,0.0418414,0.00465365,0.00826722,0.0435965,0.00289859,0.209186,0.0281479,0.0474201,1182,379,-2.01496,261.822
-35,645,-1.62146,-262.913,0.0435328,0.00455827,0.00811127,0.0451535,0.00293757,0.197211,0.0291725,0.0298232,1189,379,-1.62144,262.913
-28,645,-1.39587,-263.935,0.0446332,0.00476321,0.0078248,0.0461139,0.00328253,0.187019,0.0297089,0.0139571,1196,379,-1.39586,263.935
-21,645,-1.18909,-264.817,0.0455273,0.00488924,0.00744381,0.0468479,0.00356865,0.175581,0.030113,0.0215552,1203,379,-1.18904,264.817
-14,645,-0.820068,-265.684,0.046713,0.00502776,0.00710192,0.0478898,0.00385102,0.164201,0.0307234,0.0176592,1210,379,-0.820044,265.684
-7,645,-0.600708,-266.432,0.0483361,0.00512561,0.00684613,0.0493948,0.00406687,0.153432,0.0316614,0.0251368,1217,379,-0.60071,266.432
0,645,-0.353394,-266.818,0,0,0,0,0,0,0,-1,1224,379,-0.353375,266.818
7,645,0.282349,-267.421,0.0518352,0.00475564,0.0060183,0.0525923,0.00399848,0.125152,0.0338076,0.0385611,1231,379,0.282314,267.421
14,645,0.677368,-267.917,0.0535751,0.00418509,0.00547265,0.0541743,0.00358596,0.109042,0.0349822,0.0236251,1238,379,0.677332,267.917
21,645,0.928589,-268.44,0.0554177,0.00366797,0.00494468,0.0558859,0.00319974,0.0944115,0.0362378,0.0151515,1245,379,0.928632,268.44
28,645,1.21851,-268.787,0.0573129,0.00281595,0.00432543,0.0576541,0.00247477,0.0787134,0.0376383,0.0152914,1252,379,1.21851,268.787
35,645,1.66968,-269.061,0.0588754,0.00197639,0.00345605,0.0590846,0.00176723,0.0604438,0.0388141,0.0153483,1259,379,1.66967,269.061
42,645,2.20801,-269.324,0.0604054,0.00112351,0.0025785,0.0605173,0.00101157,0.0433863,0.0400119,0.0157797,1266,379,2.208,269.324
49,645,2.65771,-269.443,0.0619114,0.000146926,0.00182877,0.0619655,9.28249e-05,0.0295742,0.0412794,0.0229707,1273,379,2.65769,269.443
56,645,3.00562,-269.566,0.0627296,-0.000402454,0.000909999,0.0627427,-0.000415565,0.0144102,0.0419677,0.0255209,1280,379,3.00567,269.566
63,645,3.43445,-269.749,0.0633545,-0.000635196,8.76652e-05,0.0633546,-0.000635318,0.00136999,0.0424498,0.0201824,1287,379,3.43445,269.749
70,645,3.88794,-269.669,0.063789,-0.000818006,-0.000513548,0.0637931,-0.00082209,-0.00794812,0.0428054,0.0216729,1294,379,3.88792,269.669
77,645,4.38794,-269.554,0.0641854,-0.000579942,-0.000924119,0.0641985,-0.000593122,-0.0142649,0.0429981,0.0246135,1301,379,4.38788,269.554
84,645,4.70581,-269.438,0.0642359,0.000278195,-0.00145908,0.0642692,0.00024493,-0.0227974,0.0427647,0.0188636,1308,379,4.70585,269.438
91,645,5.05579,-269.322,0.063776,0.00145726,-0.00206767,0.0638445,0.00138874,-0.0331304,0.0421077,0.0236743,1315,379,5.05574,269.322
98,645,5.55798,-268.965,0.0635304,0.00264403,-0.00253277,0.0636356,0.00253885,-0.0415028,0.0416033,0.0202494,1322,379,5.55799,268.965
105,645,5.98035,-268.592,0.0635465,0.0040167,-0.00300371,0.0636977,0.00386553,-0.050287,0.041237,0.0159796,1329,379,5.98035,268.592
112,645,6.37976,-268.164,0.0634589,0.00558634,-0.00346848,0.063666,0.0053792,-0.0596485,0.0407694,0.0137024,1336,379,6.37978,268.164
119,645,6.78333,-267.629,0.0629761,0.00699977,-0.00396965,0.0632562,0.00671966,-0.0704467,0.040119,0.0165485,1343,379,6.78327,267.629
126,645,7.10608,-266.953,0.0619221,0.00878436,-0.00434889,0.0622756,0.00843079,-0.0811226,0.0390117,0.0271004,1350,379,7.10603,266.953
133,645,7.49097,-266.207,0.0607848,0.0102913,-0.0045008,0.0611829,0.00989321,-0.0882094,0.0379235,0.02566,1357,379,7.49094,266.207
140,645,7.90479,-265.64,0.0597546,0.0116683,-0.00465272,0.0602007,0.0112223,-0.0955763,0.0369653,0.0188506,1364,379,7.90484,265.64
147,645,8.34143,-264.853,0.058374,0.0127325,-0.00501549,0.0589186,0.0121879,-0.108169,0.0359126,0.0192546,1371,379,8.34144,264.853
154,645,8.73999,-263.964,0.0565255,0.01381,-0.00520585,0.0571508,0.0131847,-0.119542,0.0345545,0.0148061,1378,379,8.74002,263.964
161,645,9.07788,-263.1,0.0546035,0.0149534,-0.00534073,0.0553102,0.0142466,-0.131573,0.0331609,0.0223513,1385,379,9.07782,263.1
168,645,9.42676,-262.211,0.0526491,0.015993,-0.00566379,0.0535043,0.0151378,-0.149857,0.0318463,0.0356617,1392,379,9.42676,262.21
175,645,9.59668,-261.204,0.0505958,0.0167649,-0.00609316,0.0516598,0.0157009,-0.172872,0.0305806,0.0348257,1399,379,9.59672,261.204
182,645,9.74951,-259.919,0.0489679,0.0173605,-0.00641781,0.0502213,0.0161071,-0.192875,0.02961,0.0228654,1406,379,9.74957,259.919
189,645,9.98718,-258.575,0.0477933,0.0181532,-0.0067903,0.0492748,0.0166716,-0.21482,0.0289402,0.0207357,1413,379,9.98717,258.575
196,645,10.1051,-257.454,0.0453987,0.0185432,-0.007052,0.0471378,0.0168041,-0.241795,0.0275862,0.0211902,1420,379,10.105,257.454
203,645,10.2775,-255.897,0,0,0,0,0,0,0,-1,1427,379,10.2774,255.897
210,645,10.7155,-254.129,0,0,0,0,0,0,0,-1,1434,379,10.7155,254.129
217,645,10.9346,-253.177,0,0,0,0,0,0,0,-1,1441,379,10.9345,253.177
224,645,11.2198,-251.781,0,0,0,0,0,0,0,-1,1448,379,11.2199,251.781
231,645,11.1433,-250.099,0,0,0,0,0,0,0,-1,1455,379,11.1433,250.099
238,645,11.1749,-248.097,0,0,0,0,0,0,0,-1,1462,379,11.1749,248.097
245,645,11.2317,-246.093,0,0,0,0,0,0,0,-1,1469,379,11.2316,246.093
252,645,6.27942,-52.6305,0,0,0,0,0,0,0,-1,1476,379,6.27947,52.6305
259,645,6.5321,-54.0518,0,0,0,0,0,0,0,-1,1483,379,6.53211,54.0518
266,645,6.84973,-61.1459,0,0,0,0,0,0,0,-1,1490,379,6.84972,61.146
273,645,6.9054,-70.7075,0,0,0,0,0,0,0,-1,1497,379,6.90542,70.7075
280,645,6.67688,-72.5746,0,0,0,0,0,0,0,-1,1504,379,6.67691,72.5746
287,645,7.4104,-62.5272,0,0,0,0,0,0,0,-1,1511,379,7.41036,62.5271
294,645,3.76428,-22.9539,0,0,0,0,0,0,0,-1,1518,379,3.7643,22.9539
301,645,2.74219,-23.503,0,0,0,0,0,0,0,-1,1525,379,2.74222,23.503
308,645,1.82227,-23.9479,0,0,0,0,0,0,0,-1,1532,379,1.82227,23.9479
315,645,0.990356,-24.8735,0,0,0,0,0,0,0,-1,1539,379,0.990376,24.8735
322,645,-0.256714,-24.7577,0,0,0,0,0,0,0,-1,1546,379,-0.256653,24.7577
329,645,-4.45581,-22.707,0,0,0,0,0,0,0,-1,1553,379,-4.45579,22.707
336,645,-5.83154,-22.8404,0,0,0,0,0,0,0,-1,1560,379,-5.83149,22.8404
343,645,4.03186,-38.0623,0,0,0,0,0,0,0,-1,1567,379,4.03187,38.0623
350,645,4.76404,-22.1987,0,0,0,0,0,0,0,-1,1574,379,4.76399,22.1987
357,645,4.61316,-21.967,0,0,0,0,0,0,0,-1,1581,379,4.61316,21.967
364,645,-0.0794678,-3.22021,0,0,0,0,0,0,0,-1,1588,379,-0.0794987,3.22021
371,645,0,0,0,0,0,0,0,0,0,-1,1595,379,0,0
378,645,0,0,0,0,0,0,0,0,0,-1,1602,379,0,0
385,645,0,0,0,0,0,0,0,0,0,-1,1609,379,0,0
392,645,0,0,0,0,0,0,0,0,0,-1,1616,379,0,0
399,645,0,0,0,0,0,0,0,0,0,-1,1623,379,0,0
406,645,0,0,0,0,0,0,0,0,0,-1,1630,379,0,0
413,645,0,0,0,0,0,0,0,0,0,-1,1637,379,0,0
420,645,0,0,0,0,0,0,0,0,0,-1,1644,379,0,0
427,645,0,0,0,0,0,0,0,0,0,-1,1651,379,0,0
434,645,0,0,0,0,0,0,0,0,0,-1,1658,379,0,0
441,645,0,0,0,0,0,0,0,0,0,-1,1665,379,0,0
448,645,0,0,0,0,0,0,0,0,0,-1,1672,379,0,0
455,645,0,0,0,0,0,0,0,0,0,-1,1679,379,0,0
462,645,0,0,0,0,0,0,0,0,0,-1,1686,379,0,0
469,645,0,0,0,0,0,0,0,0,0,-1,1693,379,0,0
476,645,0,0,0,0,0,0,0,0,0,-1,1700,379,0,0
483,645,0,0,0,0,0,0,0,0,0,-1,1707,379,0,0
490,645,0,0,0,0,0,0,0,0,0,-1,1714,379,0,0
497,645,0,0,0,0,0,0,0,0,0,-1,1721,379,0,0
504,645,0,0,0,0,0,0,0,0,0,-1,1728,379,0,0
511,645,0,0,0,0,0,0,0,0,0,-1,1735,379,0,0
518,645,0,0,0,0,0,0,0,0,0,-1,1742,379,0,0
525,645,0,0,0,0,0,0,0,0,0,-1,1749,379,0,0
532,645,0,0,0,0,0,0,0,0,0,-1,1756,379,0,0
539,645,0,0,0,0,0,0,0,0,0,-1,1763,379,0,0
546,645,0,0,0,0,0,0,0,0,0,-1,1770,379,0,0
553,645,0,0,0,0,0,0,0,0,0,-1,1777,379,0,0
560,645,0,0,0,0,0,0,0,0,0,-1,1784,379,0,0
567,645,0,0,0,0,0,0,0,0,0,-1,1791,379,0,0
574,645,0,0,0,0,0,0,0,0,0,-1,1798,379,0,0
581,645,0,0,0,0,0,0,0,0,0,-1,1805,379,0,0
588,645,0,0,0,0,0,0,0,0,0,-1,1812,379,0,0
595,645,0,0,0,0,0,0,0,0,0,-1,1819,379,0,0
602,645,0,0,0,0,0,0,0,0,0,-1,1826,379,0,0
609,645,0,0,0,0,0,0,0,0,0,-1,1833,379,0,0
616,645,0,0,0,0,0,0,0,0,0,-1,1840,379,0,0
623,645,0,0,0,0,0,0,0,0,0,-1,1847,379,0,0
630,645,0,0,0,0,0,0,0,0,0,-1,1854,379,0,0
637,645,0,0,0,0,0,0,0,0,0,-1,1861,379,0,0
644,645,0,0,0,0,0,0,0,0,0,-1,1868,379,0,0
651,645,0,0,0,0,0,0,0,0,0,-1,1875,379,0,0
658,645,0,0,0,0,0,0,0,0,0,-1,1882,379,0,0
665,645,0,0,0,0,0,0,0,0,0,-1,1889,379,0,0
672,645,0,0,0,0,0,0,0,0,0,-1,1896,379,0,0
679,645,0,0,0,0,0,0,0,0,0,-1,1903,379,0,0
686,645,0,0,0,0,0,0,0,0,0,-1,1910,379,0,0
693,645,0,0,0,0,0,0,0,0,0,-1,1917,379,0,0
700,645,0,0,0,0,0,0,0,0,0,-1,1924,379,0,0
707,645,0,0,0,0,0,0,0,0,0,-1,1931,379,0,0
714,645,0,0,0,0,0,0,0,0,0,-1,1938,379,0,0
721,645,0,0,0,0,0,0,0,0,0,-1,1945,379,0,0
728,645,0,0,0,0,0,0,0,0,0,-1,1952,379,0,0
735,645,0,0,0,0,0,0,0,0,0,-1,1959,379,0,0
742,645,0,0,0,0,0,0,0,0,0,-1,1966,379,0,0
749,645,0,0,0,0,0,0,0,0,0,-1,1973,379,0,0
756,645,0,0,0,0,0,0,0,0,0,-1,1980,379,0,0
763,645,0,0,0,0,0,0,0,0,0,-1,1987,379,0,0
770,645,0,0,0,0,0,0,0,0,0,-1,1994,379,0,0
777,645,0,0,0,0,0,0,0,0,0,-1,2001,379,0,0
784,645,0,0,0,0,0,0,0,0,0,-1,2008,379,0,0
791,645,0,0,0,0,0,0,0,0,0,-1,2015,379,0,0
798,645,0,0,0,0,0,0,0,0,0,-1,2022,379,0,0
805,645,0,0,0,0,0,0,0,0,0,-1,2029,379,0,0
812,645,0,0,0,0,0,0,0,0,0,-1,2036,379,0,0
-700,638,0,0,0,0,0,0,0,0,0,-1,524,386,0,0
-693,638,0,0,0,0,0,0,0,0,0,-1,531,386,0,0
-686,638,0,0,0,0,0,0,0,0,0,-1,538,386,0,0
-679,638,0,0,0,0,0,0,0,0,0,-1,545,386,0,0
-672,638,0,0,0,0,0,0,0,0,0,-1,552,386,0,0
-665,638,0,0,0,0,0,0,0,0,0,-1,559,386,0,0
-658,638,0,0,0,0,0,0,0,0,0,-1,566,386,0,0
-651,638,0,0,0,0,0,0,0,0,0,-1,573,386,0,0
-644,638,0,0,0,0,0,0,0,0,0,-1,580,386,0,0
-637,638,0,0,0,0,0,0,0,0,0,-1,587,386,0,0
-630,638,0,0,0,0,0,0,0,0,0,-1,594,386,0,0
-623,638,0,0,0,0,0,0,0,0,0,-1,601,386,0,0
-616,638,0,0,0,0,0,0,0,0,0,-1,608,386,0,0
-609,638,0,0,0,0,0,0,0,0,0,-1,615,386,0,0
-602,638,0,0,0,0,0,0,0,0,0,-1,622,386,0,0
-595,638,0,0,0,0,0,0,0,0,0,-1,629,386,0,0
-588,638,0,0,0,0,0,0,0,0,0,-1,636,386,0,0
-581,638,0,0,0,0,0,0,0,0,0,-1,643,386,0,0
-574,638,0,0,0,0,0,0,0,0,0,-1,650,386,0,0
-567,638,0,0,0,0,0,0,0,0,0,-1,657,386,0,0
-560,638,0,0,0,0,0,0,0,0,0,-1,664,386,0,0
-553,638,0,0,0,0,0,0,0,0,0,-1,671,386,0,0
-546,638,0,0,0,0,0,0,0,0,0,-1,678,386,0,0
-539,638,0,0,0,0,0,0,0,0,0,-1,685,386,0,0
-532,638,0,0,0,0,0,0,0,0,0,-1,692,386,0,0
-525,638,0,0,0,0,0,0,0,0,0,-1,699,386,0,0
-518,638,0,0,0,0,0,0,0,0,0,-1,706,386,0,0
-511,638,0,0,0,0,0,0,0,0,0,-1,713,386,0,0
-504,638,0,0,0,0,0,0,0,0,0,-1,720,386,0,0
-497,638,0,0,0,0,0,0,0,0,0,-1,727,386,0,0
-490,638,0,0,0,0,0,0,0,0,0,-1,734,386,0,0
-483,638,0,0,0,0,0,0,0,0,0,-1,741,386,0,0
-476,638,0,0,0,0,0,0,0,0,0,-1,748,386,0,0
-469,638,0,0,0,0,0,0,0,0,0,-1,755,386,0,0
-462,638,0,0,0,0,0,0,0,0,0,-1,762,386,0,0
-455,638,0,0,0,0,0,0,0,0,0,-1,769,386,0,0
-448,638,0,0,0,0,0,0,0,0,0,-1,776,386,0,0
-441,638,0,0,0,0,0,0,0,0,0,-1,783,386,0,0
-434,638,0,0,0,0,0,0,0,0,0,-1,790,386,0,0
-427,638,0,0,0,0,0,0,0,0,0,-1,797,386,0,0
-420,638,0,0,0,0,0,0,0,0,0,-1,804,386,0,0
-413,638,0,0,0,0,0,0,0,0,0,-1,811,386,0,0
-406,638,0,0,0,0,0,0,0,0,0,-1,818,386,0,0
-399,638,0,0,0,0,0,0,0,0,0,-1,825,386,0,0
-392,638,0,0,0,0,0,0,0,0,0,-1,832,386,0,0
-385,638,0,0,0,0,0,0,0,0,0,-1,839,386,0,0
-378,638,0,0,0,0,0,0,0,0,0,-1,846,386,0,0
-371,638,0,0,0,0,0,0,0,0,0,-1,853,386,0,0
-364,638,0,0,0,0,0,0,0,0,0,-1,860,386,0,0
-357,638,0,0,0,0,0,0,0,0,0,-1,867,386,0,0
-350,638,0,0,0,0,0,0,0,0,0,-1,874,386,0,0
-343,638,0,0,0,0,0,0,0,0,0,-1,881,386,0,0
-336,638,0,0,0,0,0,0,0,0,0,-1,888,386,0,0
-329,638,0,0,0,0,0,0,0,0,0,-1,895,386,0,0
-322,638,0,0,0,0,0,0,0,0,0,-1,902,386,0,0
-315,638,0,0,0,0,0,0,0,0,0,-1,909,386,0,0
-308,638,0,0,0,0,0,0,0,0,0,-1,916,386,0,0
-301,638,0,0,0,0,0,0,0,0,0,-1,923,386,0,0
-294,638,0,0,0,0,0,0,0,0,0,-1,930,386,0,0
-287,638,0,0,0,0,0,0,0,0,0,-1,937,386,0,0
-280,638,0,0,0,0,0,0,0,0,0,-1,944,386,0,0
-273,638,0,0,0,0,0,0,0,0,0,-1,951,386,0,0
-266,638,10.1613,-36.3326,0,0,0,0,0,0,0,-1,958,386,10.1612,36.3326
-259,638,9.95282,-34.6103,0,0,0,0,0,0,0,-1,965,386,9.9528,34.6103
-252,638,9.95746,-33.6964,0,0,0,0,0,0,0,-1,972,386,9.95744,33.6965
-245,638,9.84143,-32.9009,0,0,0,0,0,0,0,-1,979,386,9.84145,32.9009
-238,638,2.93518,-26.3649,0,0,0,0,0,0,0,-1,986,386,2.93516,26.3649
-231,638,2.36829,-26.0088,0,0,0,0,0,0,0,-1,993,386,2.3683,26.0088
-224,638,6.3465,-30.9124,0,0,0,0,0,0,0,-1,1000,386,6.34648,30.9124
-217,638,7.41205,-32.7263,0,0,0,0,0,0,0,-1,1007,386,7.41204,32.7262
-210,638,8.7038,-34.5688,0,0,0,0,0,0,0,-1,1014,386,8.70378,34.5689
-203,638,4.32593,-27.5803,0,0,0,0,0,0,0,-1,1021,386,4.32594,27.5803
-196,638,6.0614,-28.4651,0,0,0,0,0,0,0,-1,1028,386,6.06143,28.4651
-189,638,11.4561,-30.1556,0,0,0,0,0,0,0,-1,1035,386,11.456,30.1556
-182,638,6.45471,-33.4271,0,0,0,0,0,0,0,-1,1042,386,6.45473,33.427
-175,638,8.39648,-48.7238,0,0,0,0,0,0,0,-1,1049,386,8.39643,48.7238
-168,638,10.3712,-61.8581,0,0,0,0,0,0,0,-1,1056,386,10.3712,61.8581
-161,638,11.0891,-91.2155,0,0,0,0,0,0,0,-1,1063,386,11.0892,91.2155
-154,638,10.7274,-91.6196,0,0,0,0,0,0,0,-1,1070,386,10.7275,91.6196
-147,638,10.2598,-87.4278,0,0,0,0,0,0,0,-1,1077,386,10.2598,87.4278
-140,638,-4.46973,-240.021,0,0,0,0,0,0,0,-1,1084,386,-4.46974,240.021
-133,638,-4.43408,-242.208,0,0,0,0,0,0,0,-1,1091,386,-4.43403,242.208
-126,638,-4.37744,-244.308,0,0,0,0,0,0,0,-1,1098,386,-4.37741,244.308
-119,638,-4.33484,-246.092,0,0,0,0,0,0,0,-1,1105,386,-4.33484,246.092
-112,638,-4.42358,-247.875,0.030483,0.0114734,0.00423084,0.0313821,0.0105743,0.209397,0.0184368,0.0464909,1112,386,-4.42355,247.875
-105,638,-4.54297,-249.62,0.0324395,0.0090608,0.00530331,0.0335862,0.00791403,0.212958,0.0202744,0.0286854,1119,386,-4.54297,249.62
-98,638,-4.40894,-251.278,0.0340209,0.00638849,0.00640507,0.0354333,0.00497602,0.21705,0.0221506,0.0263684,1126,386,-4.40896,251.278
-91,638,-4.41394,-252.868,0.035988,0.00451082,0.00744756,0.0376612,0.00283765,0.220991,0.0242171,0.0176747,1133,386,-4.41389,252.868
-84,638,-4.36292,-254.492,0.0383953,0.00257203,0.00856303,0.0403369,0.000630401,0.222976,0.0266836,0.0197706,1140,386,-4.36286,254.492
-77,638,-4.26831,-255.88,0.0406421,0.00156444,0.00920298,0.042701,-0.000494435,0.220094,0.0286335,0.0237374,1147,386,-4.26834,255.88
-70,638,-3.9248,-257.007,0.0431664,0.000723101,0.00970464,0.0452801,-0.0013906,0.214454,0.0306608,0.0341334,1154,386,-3.92482,257.007
-63,638,-3.56909,-258.349,0.0457177,-0.000103523,0.00997834,0.0477963,-0.00218217,0.205379,0.032616,0.0339491,1161,386,-3.56905,258.349
-56,638,-3.38953,-259.6,0.0477574,-0.000831714,0.00992953,0.0497082,-0.00278256,0.193998,0.0341042,0.0287346,1168,386,-3.38957,259.6
-49,638,-3.23181,-260.566,0.0496698,-0.00158024,0.00986404,0.0515028,-0.0034132,0.183727,0.0355276,0.0305053,1175,386,-3.23177,260.566
-42,638,-3.08264,-261.81,0.0515817,-0.002424,0.00958444,0.0532322,-0.00407452,0.170535,0.0369213,0.0289987,1182,386,-3.08268,261.81
-35,638,-2.66956,-262.847,0.0533827,-0.00285262,0.00932872,0.0548898,-0.00435974,0.160173,0.0381296,0.0166318,1189,386,-2.66954,262.847
-28,638,-2.34448,-263.833,0.0547907,-0.00301504,0.00896331,0.0561486,-0.00437298,0.150357,0.038972,0.0149729,1196,386,-2.34452,263.833
-21,638,-1.97827,-264.744,0.055903,-0.00318987,0.00855303,0.057116,-0.00440292,0.140888,0.0396266,0.0175419,1203,386,-1.97826,264.744
-14,638,-1.65173,-265.682,0.05729,-0.00324487,0.00809742,0.0583544,-0.00430931,0.130704,0.040416,0.0174513,1210,386,-1.65172,265.682
-7,638,-1.60474,-266.649,0.0590766,-0.00331017,0.00772502,0.060019,-0.00425249,0.121382,0.0415028,0.030235,1217,386,-1.60472,266.649
0,638,-1.56079,-267.621,0,0,0,0,0,0,0,-1,1224,386,-1.56084,267.621
7,638,-0.147217,-267.619,0.0628164,-0.00396348,0.00673309,0.0634885,-0.00463558,0.099491,0.0439524,0.0466533,1231,386,-0.147246,267.619
14,638,0.126221,-267.926,0.0646445,-0.0045759,0.0061508,0.0651868,-0.0051182,0.0879401,0.0452605,0.019784,1238,386,0.126255,267.926
21,638,0.507568,-268.459,0.0665795,-0.00512476,0.00551555,0.0670012,-0.00554654,0.0763225,0.0466264,0.0178508,1245,386,0.507599,268.459
28,638,0.808228,-268.726,0.0685878,-0.00584348,0.00478269,0.0688938,-0.00614955,0.0639062,0.0481102,0.0145177,1252,386,0.808194,268.726
35,638,1.31653,-268.959,0.0702724,-0.00648817,0.00386125,0.0704661,-0.00668192,0.0501338,0.0493557,0.0193151,1259,386,1.31656,268.959
42,638,1.99939,-269.273,0.071849,-0.00715758,0.00291766,0.0719566,-0.00726518,0.0368624,0.0505671,0.0224607,1266,386,1.99937,269.273
49,638,2.43518,-269.428,0.0733474,-0.00784772,0.00210598,0.073402,-0.00790231,0.025914,0.0517702,0.0187238,1273,386,2.43514,269.428
56,638,2.98413,-269.513,0.0743053,-0.00825817,0.000978715,0.0743169,-0.00826977,0.0118519,0.0525187,0.0250512,1280,386,2.98411,269.513
63,638,3.57166,-269.755,0.0751796,-0.00845858,-0.000159218,0.0751799,-0.00845888,-0.00190364,0.0531644,0.0214809,1287,386,3.57172,269.755
70,638,3.98547,-269.717,0.0756025,-0.00849827,-0.00113324,0.0756177,-0.00851353,-0.0134716,0.053476,0.0270655,1294,386,3.98547,269.717
77,638,4.46057,-269.508,0.0759519,-0.00822135,-0.00184363,0.0759922,-0.00826171,-0.0218889,0.0536279,0.0320193,1301,386,4.46062,269.508
84,638,4.86768,-269.302,0.0762706,-0.00750055,-0.00268419,0.0763566,-0.00758647,-0.0319982,0.0536124,0.0304832,1308,386,4.86763,269.302
91,638,5.46167,-269.133,0.0759644,-0.00663241,-0.00355753,0.0761173,-0.00678536,-0.042965,0.0531512,0.0390531,1315,386,5.46173,269.133
98,638,5.90906,-268.877,0.0758162,-0.00575703,-0.00426913,0.076039,-0.00597984,-0.052145,0.052799,0.0278219,1322,386,5.90904,268.877
105,638,6.34741,-268.522,0.0758951,-0.00460506,-0.00504156,0.0762097,-0.00491957,-0.0623035,0.0525232,0.0145919,1329,386,6.34744,268.522
112,638,6.82996,-268.067,0.0758193,-0.00350183,-0.00570863,0.076228,-0.00391057,-0.0714776,0.0521711,0.0136552,1336,386,6.82992,268.067
119,638,7.38306,-267.531,0.0752385,-0.00245771,-0.00634851,0.0757538,-0.00297302,-0.0809934,0.0515222,0.0215591,1343,386,7.38304,267.531
126,638,7.89307,-266.913,0.0740483,-0.00113949,-0.00679896,0.0746581,-0.00174934,-0.0894594,0.0503653,0.0294858,1350,386,7.89307,266.913
133,638,8.33594,-266.351,0.0727506,-3.80426e-06,-0.00703525,0.0734246,-0.000677861,-0.0955194,0.0491772,0.0282946,1357,386,8.33599,266.351
140,638,8.82788,-265.794,0.0716466,0.00109494,-0.00728611,0.0723912,0.000350334,-0.101841,0.0481445,0.0224937,1364,386,8.82788,265.794
147,638,9.21252,-264.867,0.0703175,0.00199899,-0.00766239,0.0711663,0.00115015,-0.110331,0.0470655,0.0250321,1371,386,9.21246,264.867
154,638,9.64343,-263.891,0.0684482,0.00294865,-0.00791734,0.0693916,0.00200522,-0.118601,0.0456074,0.0225673,1378,386,9.64344,263.891
161,638,10.1144,-263.053,0.0664,0.00398857,-0.00810028,0.0674342,0.00295438,-0.126986,0.0440044,0.0252405,1385,386,10.1144,263.053
168,638,10.4812,-262.042,0.0645368,0.00508605,-0.00840197,0.0657014,0.00392144,-0.137734,0.042554,0.0301294,1392,386,10.4812,262.042
175,638,10.7585,-261.029,0,0,0,0,0,0,0,-1,1399,386,10.7585,261.029
182,638,10.9656,-259.818,0.0610977,0.00698033,-0.00944478,0.0626987,0.00537935,-0.167913,0.0401264,0.0223524,1406,386,10.9656,259.818
189,638,11.3047,-258.461,0.0595793,0.00808151,-0.00994269,0.0614323,0.00622854,-0.184251,0.0390446,0.0219727,1413,386,11.3047,258.461
196,638,11.7235,-257.198,0.0572289,0.00890941,-0.0103353,0.0593468,0.00679158,-0.202115,0.0375062,0.0277422,1420,386,11.7235,257.198
203,638,12.1007,-255.914,0,0,0,0,0,0,0,-1,1427,386,12.1007,255.914
210,638,12.321,-254.513,0.0530677,0.0109592,-0.0111584,0.0558418,0.00818511,-0.243672,0.0348216,0.0381847,1434,386,12.3211,254.513
217,638,12.5319,-253.121,0.0512301,0.011254,-0.0115122,0.0543083,0.00817576,-0.261276,0.0338114,0.0275056,1441,386,12.5318,253.121
224,638,12.8229,-251.63,0.0487944,0.0117673,-0.0117973,0.0522337,0.00832804,-0.283671,0.0324051,0.0217615,1448,386,12.8229,251.631
231,638,12.9844,-249.969,0.0466479,0.0117959,-0.0125249,0.0506821,0.0077617,-0.311598,0.031521,0.0269835,1455,386,12.9843,249.969
238,638,13.0592,-248.174,0.0448531,0.0124896,-0.0131354,0.0495133,0.00782944,-0.34093,0.0307333,0.0295898,1462,386,13.0592,248.174
245,638,13.0823,-246.3,0,0,0,0,0,0,0,-1,1469,386,13.0823,246.3
252,638,12.8849,-244.742,0,0,0,0,0,0,0,-1,1476,386,12.8849,244.742
259,638,12.8813,-242.736,0,0,0,0,0,0,0,-1,1483,386,12.8814,242.736
266,638,13.1138,-240.707,0,0,0,0,0,0,0,-1,1490,386,13.1138,240.707
273,638,13.1696,-238.685,0,0,0,0,0,0,0,-1,1497,386,13.1695,238.685
280,638,6.75476,-82.5267,0,0,0,0,0,0,0,-1,1504,386,6.7548,82.5267
287,638,6.52307,-79.9485,0,0,0,0,0,0,0,-1,1511,386,6.5231,79.9485
294,638,6.37231,-79.665,0,0,0,0,0,0,0,-1,1518,386,6.37237,79.665
301,638,5.67981,-80.2637,0,0,0,0,0,0,0,-1,1525,386,5.67976,80.2637
308,638,7.54175,-66.9734,0,0,0,0,0,0,0,-1,1532,386,7.54171,66.9734
315,638,3.3927,-28.2032,0,0,0,0,0,0,0,-1,1539,386,3.39269,28.2032
322,638,6.1698,-44.6835,0,0,0,0,0,0,0,-1,1546,386,6.16984,44.6835
329,638,6.06885,-44.2856,0,0,0,0,0,0,0,-1,1553,386,6.06881,44.2855
336,638,5.15234,-38.1966,0,0,0,0,0,0,0,-1,1560,386,5.15238,38.1966
343,638,4.8208,-37.2159,0,0,0,0,0,0,0,-1,1567,386,4.82078,37.2159
350,638,4.35254,-37.1565,0,0,0,0,0,0,0,-1,1574,386,4.35259,37.1565
357,638,0.387329,-3.01077,0,0,0,0,0,0,0,-1,1581,386,0.387332,3.01077
364,638,3.78149,-6.45215,0,0,0,0,0,0,0,-1,1588,386,3.78155,6.45216
371,638,4.18604,-6.71164,0,0,0,0,0,0,0,-1,1595,386,4.18598,6.71164
378,638,4.59045,-6.97113,0,0,0,0,0,0,0,-1,1602,386,4.5904,6.97112
385,638,0,0,0,0,0,0,0,0,0,-1,1609,386,0,0
392,638,0,0,0,0,0,0,0,0,0,-1,1616,386,0,0
399,638,0,0,0,0,0,0,0,0,0,-1,1623,386,0,0
406,638,0,0,0,0,0,0,0,0,0,-1,1630,386,0,0
413,638,0,0,0,0,0,0,0,0,0,-1,1637,386,0,0
420,638,0,0,0,0,0,0,0,0,0,-1,1644,386,0,0
427,638,0,0,0,0,0,0,0,0,0,-1,1651,386,0,0
434,638,0,0,0,0,0,0,0,0,0,-1,1658,386,0,0
441,638,0,0,0,0,0,0,0,0,0,-1,1665,386,0,0
448,638,0,0,0,0,0,0,0,0,0,-1,1672,386,0,0
455,638,0,0,0,0,0,0,0,0,0,-1,1679,386,0,0
462,638,0,0,0,0,0,0,0,0,0,-1,1686,386,0,0
469,638,0,0,0,0,0,0,0,0,0,-1,1693,386,0,0
476,638,0,0,0,0,0,0,0,0,0,-1,1700,386,0,0
483,638,0,0,0,0,0,0,0,0,0,-1,1707,386,0,0
490,638,0,0,0,0,0,0,0,0,0,-1,1714,386,0,0
497,638,0,0,0,0,0,0,0,0,0,-1,1721,386,0,0
504,638,0,0,0,0,0,0,0,0,0,-1,1728,386,0,0
511,638,0,0,0,0,0,0,0,0,0,-1,1735,386,0,0
518,638,0,0,0,0,0,0,0,0,0,-1,1742,386,0,0
525,638,0,0,0,0,0,0,0,0,0,-1,1749,386,0,0
532,638,0,0,0,0,0,0,0,0,0,-1,1756,386,0,0
539,638,0,0,0,0,0,0,0,0,0,-1,1763,386,0,0
546,638,0,0,0,0,0,0,0,0,0,-1,1770,386,0,0
553,638,0,0,0,0,0,0,0,0,0,-1,1777,386,0,0
560,638,0,0,0,0,0,0,0,0,0,-1,1784,386,0,0
567,638,0,0,0,0,0,0,0,0,0,-1,1791,386,0,0
574,638,0,0,0,0,0,0,0,0,0,-1,1798,386,0,0
581,638,0,0,0,0,0,0,0,0,0,-1,1805,386,0,0
588,638,0,0,0,0,0,0,0,0,0,-1,1812,386,0,0
595,638,0,0,0,0,0,0,0,0,0,-1,1819,386,0,0
602,638,0,0,0,0,0,0,0,0,0,-1,1826,386,0,0
609,638,0,0,0,0,0,0,0,0,0,-1,1833,386,0,0
616,638,0,0,0,0,0,0,0,0,0,-1,1840,386,0,0
623,638,0,0,0,0,0,0,0,0,0,-1,1847,386,0,0
630,638,0,0,0,0,0,0,0,0,0,-1,1854,386,0,0
637,638,0,0,0,0,0,0,0,0,0,-1,1861,386,0,0
644,638,0,0,0,0,0,0,0,0,0,-1,1868,386,0,0
651,638,0,0,0,0,0,0,0,0,0,-1,1875,386,0,0
658,638,0,0,0,0,0,0,0,0,0,-1,1882,386,0,0
665,638,0,0,0,0,0,0,0,0,0,-1,1889,386,0,0
672,638,0,0,0,0,0,0,0,0,0,-1,1896,386,0,0
679,638,0,0,0,0,0,0,0,0,0,-1,1903,386,0,0
686,638,0,0,0,0,0,0,0,0,0,-1,1910,386,0,0
693,638,0,0,0,0,0,0,0,0,0,-1,1917,386,0,0
700,638,0,0,0,0,0,0,0,0,0,-1,1924,386,0,0
707,638,0,0,0,0,0,0,0,0,0,-1,1931,386,0,0
714,638,0,0,0,0,0,0,0,0,0,-1,1938,386,0,0
721,638,0,0,0,0,0,0,0,0,0,-1,1945,386,0,0
728,638,0,0,0,0,0,0,0,0,0,-1,1952,386,0,0
735,638,0,0,0,0,0,0,0,0,0,-1,1959,386,0,0
742,638,0,0,0,0,0,0,0,0,0,-1,1966,386,0,0
749,638,0,0,0,0,0,0,0,0,0,-1,1973,386,0,0
756,638,0,0,0,0,0,0,0,0,0,-1,1980,386,0,0
763,638,0,0,0,0,0,0,0,0,0,-1,1987,386,0,0
770,638,0,0,0,0,0,0,0,0,0,-1,1994,386,0,0
777,638,0,0,0,0,0,0,0,0,0,-1,2001,386,0,0
784,638,0,0,0,0,0,0,0,0,0,-1,2008,386,0,0
791,638,0,0,0,0,0,0,0,0,0,-1,2015,386,0,0
798,638,0,0,0,0,0,0,0,0,0,-1,2022,386,0,0
805,638,0,0,0,0,0,0,0,0,0,-1,2029,386,0,0
812,638,0,0,0,0,0,0,0,0,0,-1,2036,386,0,0
-700,631,0,0,0,0,0,0,0,0,0,-1,524,393,0,0
-693,631,0,0,0,0,0,0,0,0,0,-1,531,393,0,0
-686,631,0,0,0,0,0,0,0,0,0,-1,538,393,0,0
-679,631,0,0,0,0,0,0,0,0,0,-1,545,393,0,0
-672,631,0,0,0,0,0,0,0,0,0,-1,552,393,0,0
-665,631,0,0,0,0,0,0,0,0,0,-1,559,393,0,0
-658,631,0,0,0,0,0,0,0,0,0,-1,566,393,0,0
-651,631,0,0,0,0,0,0,0,0,0,-1,573,393,0,0
-644,631,0,0,0,0,0,0,0,0,0,-1,580,393,0,0
-637,631,0,0,0,0,0,0,0,0,0,-1,587,393,0,0
-630,631,0,0,0,0,0,0,0,0,0,-1,594,393,0,0
-623,631,0,0,0,0,0,0,0,0,0,-1,601,393,0,0
-616,631,0,0,0,0,0,0,0,0,0,-1,608,393,0,0
-609,631,0,0,0,0,0,0,0,0,0,-1,615,393,0,0
-602,631,0,0,0,0,0,0,0,0,0,-1,622,393,0,0
-595,631,0,0,0,0,0,0,0,0,0,-1,629,393,0,0
-588,631,0,0,0,0,0,0,0,0,0,-1,636,393,0,0
-581,631,0,0,0,0,0,0,0,0,0,-1,643,393,0,0
-574,631,0,0,0,0,0,0,0,0,0,-1,650,393,0,0
-567,631,0,0,0,0,0,0,0,0,0,-1,657,393,0,0
-560,631,0,0,0,0,0,0,0,0,0,-1,664,393,0,0
-553,631,0,0,0,0,0,0,0,0,0,-1,671,393,0,0
-546,631,0,0,0,0,0,0,0,0,0,-1,678,393,0,0
-539,631,0,0,0,0,0,0,0,0,0,-1,685,393,0,0
-532,631,0,0,0,0,0,0,0,0,0,-1,692,393,0,0
-525,631,0,0,0,0,0,0,0,0,0,-1,699,393,0,0
-518,631,0,0,0,0,0,0,0,0,0,-1,706,393,0,0
-511,631,0,0,0,0,0,0,0,0,0,-1,713,393,0,0
-504,631,0,0,0,0,0,0,0,0,0,-1,720,393,0,0
-497,631,0,0,0,0,0,0,0,0,0,-1,727,393,0,0
-490,631,0,0,0,0,0,0,0,0,0,-1,734,393,0,0
-483,631,0,0,0,0,0,0,0,0,0,-1,741,393,0,0
-476,631,0,0,0,0,0,0,0,0,0,-1,748,393,0,0
-469,631,0,0,0,0,0,0,0,0,0,-1,755,393,0,0
-462,631,0,0,0,0,0,0,0,0,0,-1,762,393,0,0
-455,631,0,0,0,0,0,0,0,0,0,-1,769,393,0,0
-448,631,0,0,0,0,0,0,0,0,0,-1,776,393,0,0
-441,631,0,0,0,0,0,0,0,0,0,-1,783,393,0,0
-434,631,0,0,0,0,0,0,0,0,0,-1,790,393,0,0
-427,631,0,0,0,0,0,0,0,0,0,-1,797,393,0,0
-420,631,0,0,0,0,0,0,0,0,0,-1,804,393,0,0
-413,631,0,0,0,0,0,0,0,0,0,-1,811,393,0,0
-406,631,0,0,0,0,0,0,0,0,0,-1,818,393,0,0
-399,631,0,0,0,0,0,0,0,0,0,-1,825,393,0,0
-392,631,0,0,0,0,0,0,0,0,0,-1,832,393,0,0
-385,631,0,0,0,0,0,0,0,0,0,-1,839,393,0,0
-378,631,0,0,0,0,0,0,0,0,0,-1,846,393,0,0
-371,631,0,0,0,0,0,0,0,0,0,-1,853,393,0,0
-364,631,0,0,0,0,0,0,0,0,0,-1,860,393,0,0
-357,631,0,0,0,0,0,0,0,0,0,-1,867,393,0,0
-350,631,0,0,0,0,0,0,0,0,0,-1,874,393,0,0
-343,631,0,0,0,0,0,0,0,0,0,-1,881,393,0,0
-336,631,0,0,0,0,0,0,0,0,0,-1,888,393,0,0
-329,631,0,0,0,0,0,0,0,0,0,-1,895,393,0,0
-322,631,0,0,0,0,0,0,0,0,0,-1,902,393,0,0
-315,631,0,0,0,0,0,0,0,0,0,-1,909,393,0,0
-308,631,0,0,0,0,0,0,0,0,0,-1,916,393,0,0
-301,631,0,0,0,0,0,0,0,0,0,-1,923,393,0,0
-294,631,0,0,0,0,0,0,0,0,0,-1,930,393,0,0
-287,631,0,0,0,0,0,0,0,0,0,-1,937,393,0,0
-280,631,7.71283,-34.969,0,0,0,0,0,0,0,-1,944,393,7.71282,34.969
-273,631,8.04437,-34.934,0,0,0,0,0,0,0,-1,951,393,8.04436,34.9339
-266,631,8.40277,-34.7584,0,0,0,0,0,0,0,-1,958,393,8.40275,34.7584
-259,631,8.56659,-34.037,0,0,0,0,0,0,0,-1,965,393,8.56662,34.037
-252,631,8.44446,-33.2643,0,0,0,0,0,0,0,-1,972,393,8.44445,33.2644
-245,631,8.34705,-32.527,0,0,0,0,0,0,0,-1,979,393,8.34704,32.527
-238,631,8.41888,-31.8855,0,0,0,0,0,0,0,-1,986,393,8.41887,31.8855
-231,631,2.14966,-25.2306,0,0,0,0,0,0,0,-1,993,393,2.14968,25.2306
-224,631,6.83575,-19.7909,0,0,0,0,0,0,0,-1,1000,393,6.83575,19.7909
-217,631,5.05188,-18.3867,0,0,0,0,0,0,0,-1,1007,393,5.0519,18.3866
-210,631,3.37842,-26.3769,0,0,0,0,0,0,0,-1,1014,393,3.37839,26.3769
-203,631,8.59509,-47.1953,0,0,0,0,0,0,0,-1,1021,393,8.5951,47.1954
-196,631,8.51001,-47.9163,0,0,0,0,0,0,0,-1,1028,393,8.50997,47.9163
-189,631,6.57983,-42.4494,0,0,0,0,0,0,0,-1,1035,393,6.57983,42.4494
-182,631,8.0531,-47.8031,0,0,0,0,0,0,0,-1,1042,393,8.05311,47.8031
-175,631,9.61975,-74.9516,0,0,0,0,0,0,0,-1,1049,393,9.61973,74.9516
-168,631,10.1567,-101.718,0,0,0,0,0,0,0,-1,1056,393,10.1567,101.718
-161,631,-5.85608,-233.711,0,0,0,0,0,0,0,-1,1063,393,-5.85613,233.71
-154,631,-6.1543,-236.189,0,0,0,0,0,0,0,-1,1070,393,-6.15424,236.189
-147,631,-6.31934,-238.133,0,0,0,0,0,0,0,-1,1077,393,-6.31935,238.133
-140,631,-6.41284,-240.158,0.0310944,0.0143768,0.00521259,0.0325865,0.0128847,0.278799,0.0189505,0.0474104,1084,393,-6.4128,240.158
-133,631,-6.40771,-242.187,0.0333476,0.0119933,0.00604732,0.0349412,0.0103996,0.257666,0.0207167,0.0250834,1091,393,-6.40774,242.187
-126,631,-6.3147,-244.206,0.0353777,0.00983911,0.00727018,0.0373023,0.00791452,0.258789,0.0226948,0.028342,1098,393,-6.31472,244.206
-119,631,-6.26965,-246.074,0.0376204,0.00770801,0.00845819,0.0398464,0.00548198,0.257345,0.0249386,0.0348825,1105,393,-6.26963,246.074
-112,631,-6.35962,-247.776,0.0397545,0.00546283,0.00943319,0.0421782,0.00303918,0.251488,0.0271624,0.0264911,1112,393,-6.35962,247.775
-105,631,-6.20691,-249.488,0.0418053,0.00326381,0.0102727,0.0443723,0.000696722,0.244878,0.0293521,0.0319038,1119,393,-6.20686,249.488
-98,631,-6.0199,-251.174,0.0436493,0.00102865,0.0110333,0.0463361,-0.00165816,0.23887,0.031458,0.0240244,1126,393,-6.01995,251.174
-91,631,-5.91614,-252.766,0.045798,-0.000654595,0.0116512,0.0485565,-0.00341314,0.232479,0.0335666,0.0239776,1133,393,-5.9161,252.766
-84,631,-5.92871,-254.364,0.0482405,-0.00233918,0.0122704,0.0510601,-0.00515874,0.225865,0.0358834,0.0242425,1140,393,-5.92868,254.364
-77,631,-5.87109,-255.778,0.0505817,-0.00346557,0.0125393,0.0533492,-0.00623308,0.217223,0.0378155,0.0271114,1147,393,-5.87115,255.778
-70,631,-5.44067,-256.952,0.0530588,-0.0045186,0.0126463,0.055714,-0.00717378,0.206951,0.0397503,0.0375703,1154,393,-5.44064,256.952
-63,631,-4.94531,-258.195,0.055439,-0.00566037,0.0125383,0.057912,-0.00813329,0.19473,0.041585,0.0396228,1161,393,-4.94532,258.195
-56,631,-4.57336,-259.309,0.0574952,-0.00690427,0.0120977,0.0596928,-0.00910187,0.179695,0.0431503,0.0407976,1168,393,-4.57337,259.309
-49,631,-4.46741,-260.487,0.0596998,-0.00813784,0.0116867,0.0616567,-0.0100947,0.165905,0.0448497,0.0206914,1175,393,-4.46744,260.487
-42,631,-4.05872,-261.686,0.0617161,-0.00930663,0.0112103,0.0634435,-0.011034,0.15289,0.046413,0.0139999,1182,393,-4.05872,261.686
-35,631,-3.67322,-262.738,0.063646,-0.010075,0.0108505,0.0652098,-0.0116388,0.14314,0.0478272,0.0146572,1189,393,-3.6732,262.738
-28,631,-3.27637,-263.717,0.0653945,-0.010595,0.0104121,0.0667953,-0.0119958,0.133737,0.0490206,0.0172846,1196,393,-3.27638,263.717
-21,631,-2.86877,-264.613,0.0667487,-0.0110619,0.00998305,0.0680091,-0.0123223,0.12559,0.049956,0.0158713,1203,393,-2.86878,264.613
-14,631,-2.62903,-265.545,0.0683235,-0.0112909,0.0093797,0.0694136,-0.0123811,0.115704,0.0509071,0.019557,1210,393,-2.629,265.545
-7,631,-2.49146,-266.509,0.0702433,-0.0115141,0.00884638,0.0711895,-0.0124603,0.10656,0.0521121,0.0334699,1217,393,-2.49141,266.509
0,631,-2.37549,-267.491,0,0,0,0,0,0,0,-1,1224,393,-2.37553,267.491
7,631,-0.848755,-267.338,0.0741189,-0.0125171,0.0075792,0.0747769,-0.0131752,0.0866066,0.0547738,0.0446886,1231,393,-0.848746,267.338
14,631,-0.395874,-267.9,0.0760018,-0.0132008,0.0069118,0.0765342,-0.0137332,0.0768728,0.056163,0.0200698,1238,393,-0.395854,267.9
21,631,-0.0385742,-268.351,0.0779976,-0.0138255,0.00611665,0.0784033,-0.0142312,0.0662234,0.0576016,0.0228488,1245,393,-0.0385987,268.351
28,631,0.343628,-268.646,0.0800629,-0.0144728,0.00521637,0.0803499,-0.0147598,0.0549564,0.0591041,0.025254,1252,393,0.343597,268.646
35,631,0.930176,-268.872,0.081799,-0.0149633,0.00420916,0.0819817,-0.015146,0.0433908,0.0603402,0.0246826,1259,393,0.930225,268.872
42,631,1.74316,-269.182,0.0833535,-0.0154611,0.00318495,0.083456,-0.0155636,0.032187,0.0614854,0.0409561,1266,393,1.74321,269.182
49,631,2.22693,-269.309,0.0847913,-0.0158715,0.00230397,0.084844,-0.0159242,0.0228721,0.0625501,0.0369721,1273,393,2.22695,269.309
56,631,2.98352,-269.507,0.0859182,-0.0161247,0.000966142,0.0859274,-0.0161338,0.00946687,0.0633514,0.0336991,1280,393,2.98347,269.507
63,631,3.41907,-269.631,0.0870453,-0.0162469,-0.000488988,0.0870476,-0.0162492,-0.00473388,0.064138,0.0214797,1287,393,3.41906,269.631
70,631,3.87842,-269.6,0.0874302,-0.0160666,-0.00182375,0.0874624,-0.0160987,-0.017614,0.0643493,0.0252554,1294,393,3.87842,269.6
77,631,4.4054,-269.306,0.0877378,-0.0156748,-0.00280672,0.0878139,-0.0157509,-0.0271144,0.0644378,0.0373509,1301,393,4.40536,269.306
84,631,5.23633,-269.082,0.0883771,-0.0150076,-0.00391211,0.0885249,-0.0151554,-0.0377684,0.0646632,0.0308241,1308,393,5.23629,269.082
91,631,5.78723,-268.98,0.0882717,-0.0143757,-0.0050277,0.0885174,-0.0146213,-0.0488245,0.0644407,0.0434767,1315,393,5.78718,268.98
98,631,6.1936,-268.896,0,0,0,0,0,0,0,-1,1322,393,6.19361,268.896
105,631,6.78516,-268.396,0.0884192,-0.0127447,-0.00702889,0.0889053,-0.0132308,-0.0690381,0.064137,0.0173225,1329,393,6.78514,268.396
112,631,7.42993,-267.962,0.0883391,-0.0121132,-0.00786889,0.0889518,-0.0127259,-0.0777029,0.0639665,0.0200969,1336,393,7.42994,267.962
119,631,8.03711,-267.447,0.0876358,-0.0114568,-0.00861568,0.0883793,-0.0122003,-0.086085,0.063379,0.0201329,1343,393,8.03708,267.447
126,631,8.62439,-266.857,0.0862874,-0.0106463,-0.00909845,0.087134,-0.0114929,-0.0927827,0.0622748,0.0250817,1350,393,8.62438,266.857
133,631,9.11255,-266.268,0.0848192,-0.00992098,-0.00939906,0.0857427,-0.0108445,-0.0979367,0.0610982,0.0279466,1357,393,9.11253,266.268
140,631,9.70789,-265.618,0.0836352,-0.00914201,-0.00975989,0.0846507,-0.0101576,-0.103685,0.0601065,0.0271883,1364,393,9.70791,265.618
147,631,10.1166,-264.755,0.0823446,-0.00844421,-0.0101633,0.0834684,-0.00956803,-0.110129,0.0590937,0.0310863,1371,393,10.1165,264.755
154,631,10.5818,-263.815,0.0804297,-0.00765222,-0.010484,0.0816604,-0.00888288,-0.116851,0.0576299,0.0312703,1378,393,10.5817,263.815
161,631,11.2336,-262.984,0.07821,-0.00674926,-0.0107127,0.0795399,-0.00807922,-0.123517,0.0559146,0.0329785,1385,393,11.2336,262.984
168,631,11.7101,-261.904,0.076474,-0.00557383,-0.010979,0.0779177,-0.00701755,-0.130748,0.0544353,0.0354662,1392,393,11.71,261.904
175,631,11.9828,-260.81,0.0750504,-0.00444319,-0.0116013,0.0767089,-0.00610169,-0.141996,0.0532898,0.0266809,1399,393,11.9828,260.81
182,631,12.1857,-259.618,0.0732593,-0.00307182,-0.0123791,0.0752167,-0.0050292,-0.156823,0.0519022,0.0212011,1406,393,12.1856,259.618
189,631,12.6678,-258.237,0.0713311,-0.00162267,-0.0130465,0.073594,-0.00388561,-0.171743,0.0504078,0.0300175,1413,393,12.6678,258.237
196,631,13.1792,-256.984,0.069048,-0.000331094,-0.0135807,0.0716116,-0.00289473,-0.186575,0.0487347,0.0295944,1420,393,13.1792,256.984
203,631,13.5614,-255.714,0,0,0,0,0,0,0,-1,1427,393,13.5615,255.714
210,631,13.8342,-254.456,0.0647959,0.0026143,-0.0145461,0.0680304,-0.000620235,-0.218803,0.0455617,0.0341111,1434,393,13.8342,254.456
217,631,14.1929,-253.043,0.0628306,0.00356856,-0.0149552,0.0663908,8.39308e-06,-0.233706,0.0442577,0.0294645,1441,393,14.1929,253.043
224,631,14.4539,-251.461,0.0605289,0.00461173,-0.0153763,0.0644782,0.000662416,-0.251409,0.0427664,0.0212582,1448,393,14.4538,251.461
231,631,14.7104,-249.806,0.0583617,0.00531169,-0.0160867,0.0628586,0.000814784,-0.272583,0.0416368,0.0183096,1455,393,14.7104,249.806
238,631,14.9591,-248.09,0.0561746,0.00639304,-0.0166526,0.0612315,0.00133621,-0.294817,0.0403829,0.0263657,1462,393,14.9591,248.09
245,631,15.0425,-246.504,0.0533468,0.00807879,-0.0167786,0.0588875,0.00253801,-0.318955,0.0384403,0.0256006,1469,393,15.0425,246.504
252,631,14.8578,-244.607,0.0505986,0.00972021,-0.0165689,0.0564708,0.003848,-0.340599,0.0364324,0.0298703,1476,393,14.8578,244.607
259,631,15.0343,-242.566,0.0478325,0.0110397,-0.0165277,0.0541664,0.0047057,-0.36597,0.0346491,0.0236061,1483,393,15.0343,242.566
266,631,15.3125,-240.629,0.0451864,0.0117373,-0.0164696,0.0519343,0.00498931,-0.388859,0.0330854,0.0202,1490,393,15.3125,240.629
273,631,15.354,-238.672,0.0432334,0.0133418,-0.0156972,0.049962,0.00661323,-0.404957,0.0313371,0.0340432,1497,393,15.3541,238.672
280,631,15.1089,-236.561,0,0,0,0,0,0,0,-1,1504,393,15.1089,236.561
287,631,15.2637,-234.167,0,0,0,0,0,0,0,-1,1511,393,15.2636,234.167
294,631,8.7467,-231.373,0,0,0,0,0,0,0,-1,1518,393,8.7467,231.373
301,631,6.50122,-101.507,0,0,0,0,0,0,0,-1,1525,393,6.50127,101.507
308,631,6.3407,-98.7534,0,0,0,0,0,0,0,-1,1532,393,6.34066,98.7534
315,631,6.22485,-99.3872,0,0,0,0,0,0,0,-1,1539,393,6.2248,99.3872
322,631,7.49646,-74.1723,0,0,0,0,0,0,0,-1,1546,393,7.4965,74.1723
329,631,5.70972,-38.2651,0,0,0,0,0,0,0,-1,1553,393,5.70967,38.2651
336,631,5.38281,-39.6306,0,0,0,0,0,0,0,-1,1560,393,5.38277,39.6306
343,631,6.21558,-38.7278,0,0,0,0,0,0,0,-1,1567,393,6.21558,38.7278
350,631,5.18359,-35.9677,0,0,0,0,0,0,0,-1,1574,393,5.18355,35.9677
357,631,2.6449,-9.60303,0,0,0,0,0,0,0,-1,1581,393,2.64491,9.60304
364,631,3.39136,-5.7594,0,0,0,0,0,0,0,-1,1588,393,3.39137,5.75939
371,631,3.72839,-6.0574,0,0,0,0,0,0,0,-1,1595,393,3.72845,6.05742
378,631,4.06555,-6.35544,0,0,0,0,0,0,0,-1,1602,393,4.06553,6.35544
385,631,3.90442,-3.58298,0,0,0,0,0,0,0,-1,1609,393,3.90437,3.58299
392,631,0.352295,-2.21301,0,0,0,0,0,0,0,-1,1616,393,0.352345,2.213
399,631,0,0,0,0,0,0,0,0,0,-1,1623,393,0,0
406,631,0,0,0,0,0,0,0,0,0,-1,1630,393,0,0
413,631,0,0,0,0,0,0,0,0,0,-1,1637,393,0,0
420,631,0,0,0,0,0,0,0,0,0,-1,1644,393,0,0
427,631,0,0,0,0,0,0,0,0,0,-1,1651,393,0,0
434,631,0,0,0,0,0,0,0,0,0,-1,1658,393,0,0
441,631,0,0,0,0,0,0,0,0,0,-1,1665,393,0,0
448,631,0,0,0,0,0,0,0,0,0,-1,1672,393,0,0
455,631,0,0,0,0,0,0,0,0,0,-1,1679,393,0,0
462,631,0,0,0,0,0,0,0,0,0,-1,1686,393,0,0
469,631,0,0,0,0,0,0,0,0,0,-1,1693,393,0,0
476,631,0,0,0,0,0,0,0,0,0,-1,1700,393,0,0
483,631,0,0,0,0,0,0,0,0,0,-1,1707,393,0,0
490,631,0,0,0,0,0,0,0,0,0,-1,1714,393,0,0
497,631,0,0,0,0,0,0,0,0,0,-1,1721,393,0,0
504,631,0,0,0,0,0,0,0,0,0,-1,1728,393,0,0
511,631,0,0,0,0,0,0,0,0,0,-1,1735,393,0,0
518,631,0,0,0,0,0,0,0,0,0,-1,1742,393,0,0
525,631,0,0,0,0,0,0,0,0,0,-1,1749,393,0,0
532,631,0,0,0,0,0,0,0,0,0,-1,1756,393,0,0
539,631,0,0,0,0,0,0,0,0,0,-1,1763,393,0,0
546,631,0,0,0,0,0,0,0,0,0,-1,1770,393,0,0
553,631,0,0,0,0,0,0,0,0,0,-1,1777,393,0,0
560,631,0,0,0,0,0,0,0,0,0,-1,1784,393,0,0
567,631,0,0,0,0,0,0,0,0,0,-1,1791,393,0,0
574,631,0,0,0,0,0,0,0,0,0,-1,1798,393,0,0
581,631,0,0,0,0,0,0,0,0,0,-1,1805,393,0,0
588,631,0,0,0,0,0,0,0,0,0,-1,1812,393,0,0
595,631,0,0,0,0,0,0,0,0,0,-1,1819,393,0,0
602,631,0,0,0,0,0,0,0,0,0,-1,1826,393,0,0
609,631,0,0,0,0,0,0,0,0,0,-1,1833,393,0,0
616,631,0,0,0,0,0,0,0,0,0,-1,1840,393,0,0
623,631,0,0,0,0,0,0,0,0,0,-1,1847,393,0,0
630,631,0,0,0,0,0,0,0,0,0,-1,1854,393,0,0
637,631,0,0,0,0,0,0,0,0,0,-1,1861,393,0,0
644,631,0,0,0,0,0,0,0,0,0,-1,1868,393,0,0
651,631,0,0,0,0,0,0,0,0,0,-1,1875,393,0,0
658,631,0,0,0,0,0,0,0,0,0,-1,1882,393,0,0
665,631,0,0,0,0,0,0,0,0,0,-1,1889,393,0,0
672,631,0,0,0,0,0,0,0,0,0,-1,1896,393,0,0
679,631,0,0,0,0,0,0,0,0,0,-1,1903,393,0,0
686,631,0,0,0,0,0,0,0,0,0,-1,1910,393,0,0
693,631,0,0,0,0,0,0,0,0,0,-1,1917,393,0,0
700,631,0,0,0,0,0,0,0,0,0,-1,1924,393,0,0
707,631,0,0,0,0,0,0,0,0,0,-1,1931,393,0,0
714,631,0,0,0,0,0,0,0,0,0,-1,1938,393,0,0
721,631,0,0,0,0,0,0,0,0,0,-1,1945,393,0,0
728,631,0,0,0,0,0,0,0,0,0,-1,1952,393,0,0
735,631,0,0,0,0,0,0,0,0,0,-1,1959,393,0,0
742,631,0,0,0,0,0,0,0,0,0,-1,1966,393,0,0
749,631,0,0,0,0,0,0,0,0,0,-1,1973,393,0,0
756,631,0,0,0,0,0,0,0,0,0,-1,1980,393,0,0
763,631,0,0,0,0,0,0,0,0,0,-1,1987,393,0,0
770,631,0,0,0,0,0,0,0,0,0,-1,1994,393,0,0
777,631,0,0,0,0,0,0,0,0,0,-1,2001,393,0,0
784,631,0,0,0,0,0,0,0,0,0,-1,2008,393,0,0
791,631,0,0,0,0,0,0,0,0,0,-1,2015,393,0,0
798,631,0,0,0,0,0,0,0,0,0,-1,2022,393,0,0
805,631,0,0,0,0,0,0,0,0,0,-1,2029,393,0,0
812,631,0,0,0,0,0,0,0,0,0,-1,2036,393,0,0
-700,624,0,0,0,0,0,0,0,0,0,-1,524,400,0,0
-693,624,0,0,0,0,0,0,0,0,0,-1,531,400,0,0
-686,624,0,0,0,0,0,0,0,0,0,-1,538,400,0,0
-679,624,0,0,0,0,0,0,0,0,0,-1,545,400,0,0
-672,624,0,0,0,0,0,0,0,0,0,-1,552,400,0,0
-665,624,0,0,0,0,0,0,0,0,0,-1,559,400,0,0
-658,624,0,0,0,0,0,0,0,0,0,-1,566,400,0,0
-651,624,0,0,0,0,0,0,0,0,0,-1,573,400,0,0
-644,624,0,0,0,0,0,0,0,0,0,-1,580,400,0,0
-637,624,0,0,0,0,0,0,0,0,0,-1,587,400,0,0
-630,624,0,0,0,0,0,0,0,0,0,-1,594,400,0,0
-623,624,0,0,0,0,0,0,0,0,0,-1,601,400,0,0
-616,624,0,0,0,0,0,0,0,0,0,-1,608,400,0,0
-609,624,0,0,0,0,0,0,0,0,0,-1,615,400,0,0
-602,624,0,0,0,0,0,0,0,0,0,-1,622,400,0,0
-595,624,0,0,0,0,0,0,0,0,0,-1,629,400,0,0
-588,624,0,0,0,0,0,0,0,0,0,-1,636,400,0,0
-581,624,0,0,0,0,0,0,0,0,0,-1,643,400,0,0
-574,624,0,0,0,0,0,0,0,0,0,-1,650,400,0,0
-567,624,0,0,0,0,0,0,0,0,0,-1,657,400,0,0
-560,624,0,0,0,0,0,0,0,0,0,-1,664,400,0,0
-553,624,0,0,0,0,0,0,0,0,0,-1,671,400,0,0
-546,624,0,0,0,0,0,0,0,0,0,-1,678,400,0,0
-539,624,0,0,0,0,0,0,0,0,0,-1,685,400,0,0
-532,624,0,0,0,0,0,0,0,0,0,-1,692,400,0,0
-525,624,0,0,0,0,0,0,0,0,0,-1,699,400,0,0
-518,624,0,0,0,0,0,0,0,0,0,-1,706,400,0,0
-511,624,0,0,0,0,0,0,0,0,0,-1,713,400,0,0
-504,624,0,0,0,0,0,0,0,0,0,-1,720,400,0,0
-497,624,0,0,0,0,0,0,0,0,0,-1,727,400,0,0
-490,624,0,0,0,0,0,0,0,0,0,-1,734,400,0,0
-483,624,0,0,0,0,0,0,0,0,0,-1,741,400,0,0
-476,624,0,0,0,0,0,0,0,0,0,-1,748,400,0,0
-469,624,0,0,0,0,0,0,0,0,0,-1,755,400,0,0
-462,624,0,0,0,0,0,0,0,0,0,-1,762,400,0,0
-455,624,0,0,0,0,0,0,0,0,0,-1,769,400,0,0
-448,624,0,0,0,0,0,0,0,0,0,-1,776,400,0,0
-441,624,0,0,0,0,0,0,0,0,0,-1,783,400,0,0
-434,624,0,0,0,0,0,0,0,0,0,-1,790,400,0,0
-427,624,0,0,0,0,0,0,0,0,0,-1,797,400,0,0
-420,624,0,0,0,0,0,0,0,0,0,-1,804,400,0,0
-413,624,0,0,0,0,0,0,0,0,0,-1,811,400,0,0
-406,624,0,0,0,0,0,0,0,0,0,-1,818,400,0,0
-399,624,0,0,0,0,0,0,0,0,0,-1,825,400,0,0
-392,624,0,0,0,0,0,0,0,0,0,-1,832,400,0,0
-385,624,0,0,0,0,0,0,0,0,0,-1,839,400,0,0
-378,624,0,0,0,0,0,0,0,0,0,-1,846,400,0,0
-371,624,0,0,0,0,0,0,0,0,0,-1,853,400,0,0
-364,624,0,0,0,0,0,0,0,0,0,-1,860,400,0,0
-357,624,0,0,0,0,0,0,0,0,0,-1,867,400,0,0
-350,624,0,0,0,0,0,0,0,0,0,-1,874,400,0,0
-343,624,0,0,0,0,0,0,0,0,0,-1,881,400,0,0
-336,624,0,0,0,0,0,0,0,0,0,-1,888,400,0,0
-329,624,0,0,0,0,0,0,0,0,0,-1,895,400,0,0
-322,624,0,0,0,0,0,0,0,0,0,-1,902,400,0,0
-315,624,0,0,0,0,0,0,0,0,0,-1,909,400,0,0
-308,624,0,0,0,0,0,0,0,0,0,-1,916,400,0,0
-301,624,0,0,0,0,0,0,0,0,0,-1,923,400,0,0
-294,624,5.08527,-28.5311,0,0,0,0,0,0,0,-1,930,400,5.08525,28.5311
-287,624,6.70825,-33.8,0,0,0,0,0,0,0,-1,937,400,6.70827,33.8
-280,624,6.92474,-33.8738,0,0,0,0,0,0,0,-1,944,400,6.92477,33.8739
-273,624,8.617,-37.3463,0,0,0,0,0,0,0,-1,951,400,8.61697,37.3463
-266,624,7.71747,-37.0599,0,0,0,0,0,0,0,-1,958,400,7.7175,37.0599
-259,624,7.33569,-33.1199,0,0,0,0,0,0,0,-1,965,400,7.33567,33.1199
-252,624,7.5528,-32.8158,0,0,0,0,0,0,0,-1,972,400,7.5528,32.8158
-245,624,6.8396,-32.02,0,0,0,0,0,0,0,-1,979,400,6.83963,32.02
-238,624,6.99402,-31.5278,0,0,0,0,0,0,0,-1,986,400,6.99404,31.5278
-231,624,3.86121,-29.6032,0,0,0,0,0,0,0,-1,993,400,3.86122,29.6032
-224,624,4.59351,-27.4048,0,0,0,0,0,0,0,-1,1000,400,4.59353,27.4048
-217,624,9.39142,-50.7224,0,0,0,0,0,0,0,-1,1007,400,9.39142,50.7224
-210,624,9.65839,-57.4372,0,0,0,0,0,0,0,-1,1014,400,9.65841,57.4372
-203,624,9.56946,-68.5125,0,0,0,0,0,0,0,-1,1021,400,9.56951,68.5125
-196,624,9.81567,-88.2332,0,0,0,0,0,0,0,-1,1028,400,9.8157,88.2333
-189,624,9.90796,-108.95,0,0,0,0,0,0,0,-1,1035,400,9.90798,108.95
-182,624,9.73926,-107.138,0,0,0,0,0,0,0,-1,1042,400,9.73923,107.138
-175,624,9.60266,-111.051,0,0,0,0,0,0,0,-1,1049,400,9.60261,111.051
-168,624,-7.99487,-231.289,0,0,0,0,0,0,0,-1,1056,400,-7.99483,231.289
-161,624,-8.13184,-233.749,0.0308059,0.0142875,0.00873511,0.0345682,0.0105252,0.406697,0.0204603,0.0464962,1063,400,-8.13189,233.749
-154,624,-8.32642,-235.912,0.0338481,0.0120831,0.00959334,0.0374729,0.00845831,0.36126,0.0226941,0.0135329,1070,400,-8.32639,235.912
-147,624,-8.47205,-238.016,0.0367548,0.0097814,0.0103487,0.0402677,0.00626847,0.32725,0.0250188,0.0140953,1077,400,-8.47202,238.016
-140,624,-8.48096,-240.048,0.0394494,0.00768478,0.0109886,0.0428802,0.00425396,0.302626,0.0272796,0.01396,1084,400,-8.48091,240.048
-133,624,-8.44312,-241.982,0.0419416,0.00551042,0.0117614,0.0454087,0.00204335,0.286665,0.0296149,0.017043,1091,400,-8.44314,241.982
-126,624,-8.24695,-243.915,0.044235,0.00357927,0.0127287,0.0478914,-7.70688e-05,0.27972,0.0319533,0.0228263,1098,400,-8.24698,243.915
-119,624,-8.19202,-245.821,0.046635,0.00176695,0.0137506,0.0505138,-0.00211182,0.274937,0.0344014,0.0264394,1105,400,-8.19204,245.821
-112,624,-8.1189,-247.753,0,0,0,0,0,0,0,-1,1112,400,-8.11886,247.753
-105,624,-7.8208,-249.345,0.0511477,-0.00207012,0.0152603,0.055213,-0.00613546,0.260354,0.039015,0.0231537,1119,400,-7.82086,249.345
-98,624,-7.64514,-250.981,0.0532884,-0.00387356,0.0157584,0.0573448,-0.00792998,0.251943,0.0411288,0.0219553,1126,400,-7.64517,250.981
-91,624,-7.54236,-252.581,0.0556712,-0.00539698,0.0160162,0.0596168,-0.00934258,0.241541,0.0431968,0.0295314,1133,400,-7.54238,252.581
-84,624,-7.57983,-254.084,0.058189,-0.00689581,0.016162,0.0619814,-0.0106882,0.23048,0.0453059,0.0272327,1140,400,-7.57979,254.084
-77,624,-7.25769,-255.47,0.0606819,-0.00813302,0.0160765,0.0642525,-0.0117036,0.218549,0.0472221,0.0271049,1147,400,-7.25772,255.47
-70,624,-6.92529,-256.755,0,0,0,0,0,0,0,-1,1154,400,-6.92523,256.755
-63,624,-6.29797,-257.987,0,0,0,0,0,0,0,-1,1161,400,-6.29802,257.987
-56,624,-5.95435,-259.003,0.0675827,-0.0126541,0.0145809,0.0701503,-0.0152216,0.174301,0.0525803,0.0486976,1168,400,-5.95438,259.003
-49,624,-5.58838,-260.364,0.0700986,-0.0143981,0.0138074,0.0722976,-0.0165971,0.157936,0.0545786,0.0254939,1175,400,-5.58842,260.364
-42,624,-5.19592,-261.51,0.0722267,-0.0159441,0.0131178,0.0741369,-0.0178543,0.144605,0.0563273,0.0160154,1182,400,-5.19596,261.51
-35,624,-4.74841,-262.557,0.0742984,-0.0170537,0.0126503,0.0760179,-0.0187731,0.135093,0.0579588,0.0222707,1189,400,-4.74846,262.557
-28,624,-4.2981,-263.57,0.076415,-0.0179144,0.0121508,0.0779551,-0.0194545,0.126071,0.0595242,0.0253024,1196,400,-4.29804,263.57
-21,624,-3.86145,-264.424,0.0780394,-0.0186627,0.0117243,0.0794405,-0.0200638,0.118945,0.0607627,0.0194518,1203,400,-3.8615,264.424
-14,624,-3.43787,-265.201,0.0797945,-0.0190471,0.0109388,0.0809906,-0.0202432,0.108914,0.0618556,0.0234076,1210,400,-3.43792,265.2
-7,624,-2.94739,-266.051,0.0818176,-0.0194248,0.0102005,0.0828351,-0.0204423,0.0994223,0.0631502,0.0314005,1217,400,-2.94734,266.051
0,624,-2.24194,-266.604,0.0838479,-0.0201791,0.00944073,0.0846977,-0.0210289,0.0897754,0.0646255,0.0466809,1224,400,-2.242,266.604
7,624,-1.48621,-267.116,0.0857192,-0.0208633,0.00854461,0.0863998,-0.021544,0.0794924,0.0659645,0.033048,1231,400,-1.48617,267.116
14,624,-1.05347,-267.729,0.087621,-0.0216595,0.00774269,0.0881668,-0.0222054,0.0703829,0.06741,0.0223294,1238,400,-1.05347,267.729
21,624,-0.473999,-268.204,0.0896414,-0.0224171,0.00673452,0.0900447,-0.0228203,0.0598114,0.0689079,0.0266219,1245,400,-0.474014,268.204
28,624,0.126343,-268.543,0.0917036,-0.0230694,0.00561246,0.0919774,-0.0233432,0.0487455,0.0704013,0.0273156,1252,400,0.126314,268.543
35,624,0.73877,-268.743,0.0934161,-0.0234598,0.00448442,0.0935879,-0.0236317,0.038294,0.0715815,0.0278577,1259,400,0.738819,268.743
42,624,1.50696,-269.055,0.094879,-0.0238123,0.00336149,0.0949741,-0.0239074,0.0282911,0.0726092,0.0433679,1266,400,1.50699,269.055
49,624,2.06372,-269.253,0,0,0,0,0,0,0,-1,1273,400,2.06377,269.253
56,624,2.76123,-269.368,0.0975361,-0.0240433,0.00084947,0.0975421,-0.0240492,0.0069865,0.0743524,0.0405131,1280,400,2.76122,269.368
63,624,3.21729,-269.406,0.0989184,-0.0240432,-0.000924887,0.0989253,-0.0240502,-0.00752119,0.075259,0.0234811,1287,400,3.21728,269.406
70,624,3.79297,-269.389,0.0992384,-0.0235579,-0.00260751,0.0992938,-0.0236132,-0.0212217,0.0753112,0.0254281,1294,400,3.79291,269.389
77,624,4.61182,-269.216,0.0995141,-0.0229676,-0.00383563,0.0996341,-0.0230876,-0.0312751,0.0753077,0.0370241,1301,400,4.61183,269.216
84,624,5.58044,-268.892,0.100535,-0.0222598,-0.00516223,0.100751,-0.0224764,-0.0419409,0.0757792,0.0364752,1308,400,5.58042,268.892
91,624,6.1521,-268.707,0.100689,-0.0217769,-0.0064969,0.101033,-0.0221206,-0.0528529,0.0758121,0.0383531,1315,400,6.15208,268.707
98,624,6.72339,-268.611,0.100882,-0.0213169,-0.00767909,0.101363,-0.0217976,-0.0625131,0.0758918,0.0292753,1322,400,6.72339,268.611
105,624,7.33533,-268.285,0.101123,-0.0203791,-0.008981,0.101783,-0.0210394,-0.0733849,0.0758476,0.0232377,1329,400,7.33532,268.285
112,624,8.12964,-267.76,0.101021,-0.0202261,-0.00996074,0.101834,-0.0210389,-0.0814249,0.0758807,0.0270021,1336,400,8.12964,267.76
119,624,8.75073,-267.239,0.100171,-0.0199789,-0.0107789,0.10113,-0.0209383,-0.0887679,0.0753751,0.0248783,1343,400,8.75069,267.239
126,624,9.05713,-266.753,0.0986445,-0.0197166,-0.0112519,0.0997047,-0.0207768,-0.0939426,0.0743692,0.0301764,1350,400,9.05714,266.753
133,624,9.87012,-266.043,0.0970005,-0.0194398,-0.0115948,0.0981439,-0.0205832,-0.0982912,0.0732606,0.0311182,1357,400,9.87008,266.043
140,624,10.4846,-265.32,0.0957338,-0.0190221,-0.0120762,0.0969908,-0.0202792,-0.10372,0.0723736,0.0282413,1364,400,10.4846,265.32
147,624,11.0376,-264.375,0.0944706,-0.0185817,-0.0125224,0.095841,-0.0199522,-0.109006,0.0714791,0.0381981,1371,400,11.0375,264.375
154,624,11.7427,-263.605,0.0924888,-0.0179822,-0.0129109,0.0939777,-0.019471,-0.11481,0.07005,0.0391116,1378,400,11.7427,263.605
161,624,12.4233,-262.799,0.0900577,-0.0172587,-0.0131861,0.0916542,-0.0188551,-0.120484,0.0682614,0.0310001,1385,400,12.4234,262.799
168,624,12.8945,-261.737,0.0885091,-0.0159861,-0.0134014,0.0902004,-0.0176775,-0.125542,0.0668103,0.0294202,1392,400,12.8945,261.737
175,624,13.214,-260.687,0.0874894,-0.0146483,-0.0141591,0.0894159,-0.0165749,-0.135231,0.0658348,0.0221105,1399,400,13.214,260.687
182,624,13.4305,-259.444,0.0855083,-0.0128018,-0.0152361,0.0878154,-0.0151089,-0.150285,0.0641755,0.0176386,1406,400,13.4305,259.444
189,624,13.9523,-258.071,0.0830944,-0.0109765,-0.0161142,0.0857782,-0.0136602,-0.165032,0.0622406,0.0288924,1413,400,13.9523,258.071
196,624,14.3768,-256.797,0.0808977,-0.00920919,-0.0167931,0.0839256,-0.0122371,-0.178393,0.0604438,0.0329627,1420,400,14.3768,256.797
203,624,14.79,-255.608,0,0,0,0,0,0,0,-1,1427,400,14.79,255.608
210,624,15.2594,-254.424,0,0,0,0,0,0,0,-1,1434,400,15.2594,254.424
217,624,15.7592,-252.677,0.0744548,-0.00379427,-0.0183359,0.0785384,-0.00787779,-0.21913,0.0551726,0.0316814,1441,400,15.7591,252.677
224,624,16.0345,-251.188,0.0722625,-0.00226216,-0.0188894,0.0767769,-0.00677652,-0.234589,0.0535865,0.0238939,1448,400,16.0346,251.188
231,624,16.4618,-249.606,0.0700636,-0.000988071,-0.0195831,0.0751036,-0.00602802,-0.251896,0.0521945,0.0201687,1455,400,16.4618,249.606
238,624,16.8673,-247.908,0.0675179,0.000442529,-0.0200956,0.0730777,-0.00511722,-0.269913,0.0505107,0.0277217,1462,400,16.8673,247.908
245,624,17.0146,-246.302,0.0643485,0.00220099,-0.020186,0.0703295,-0.00377998,-0.288052,0.0481958,0.0252519,1469,400,17.0147,246.302
252,624,16.8392,-244.385,0.0612407,0.00401889,-0.0200331,0.0675571,-0.00229741,-0.305427,0.045823,0.0234761,1476,400,16.8392,244.385
259,624,17.1959,-242.361,0.0582446,0.00556418,-0.0199634,0.064955,-0.00114623,-0.324271,0.0436904,0.0194608,1483,400,17.1959,242.361
266,624,17.533,-240.392,0.055388,0.00655713,-0.0198959,0.0624679,-0.000522817,-0.341877,0.0418206,0.0209172,1490,400,17.5329,240.392
273,624,17.5128,-238.366,0.0530402,0.00839958,-0.0192594,0.0602007,0.00123906,-0.355957,0.0397272,0.0217162,1497,400,17.5128,238.366
280,624,17.3815,-236.187,0.0505237,0.0101499,-0.019006,0.058063,0.00261062,-0.377639,0.0378685,0.0257393,1504,400,17.3815,236.187
287,624,17.5198,-234.128,0.0474758,0.0118577,-0.0185613,0.0553899,0.00394354,-0.403039,0.0356848,0.0293485,1511,400,17.5198,234.128
294,624,17.5972,-232.047,0,0,0,0,0,0,0,-1,1518,400,17.5972,232.047
301,624,17.4316,-229.373,0,0,0,0,0,0,0,-1,1525,400,17.4316,229.373
308,624,17.3167,-226.743,0,0,0,0,0,0,0,-1,1532,400,17.3166,226.743
315,624,0.643066,-177.551,0,0,0,0,0,0,0,-1,1539,400,0.643077,177.551
322,624,4.60291,-127.623,0,0,0,0,0,0,0,-1,1546,400,4.60288,127.623
329,624,4.22205,-125.324,0,0,0,0,0,0,0,-1,1553,400,4.22199,125.324
336,624,7.32373,-84.7607,0,0,0,0,0,0,0,-1,1560,400,7.32378,84.7607
343,624,6.53369,-39.5615,0,0,0,0,0,0,0,-1,1567,400,6.53364,39.5615
350,624,1.99194,-7.29742,0,0,0,0,0,0,0,-1,1574,400,1.99198,7.29741
357,624,2.64075,-3.13092,0,0,0,0,0,0,0,-1,1581,400,2.64076,3.13091
364,624,3.16565,-4.9458,0,0,0,0,0,0,0,-1,1588,400,3.16564,4.94579
371,624,3.37561,-5.23529,0,0,0,0,0,0,0,-1,1595,400,3.37563,5.23529
378,624,1.50439,-5.22165,0,0,0,0,0,0,0,-1,1602,400,1.50438,5.22164
385,624,1.2301,-10.5866,0,0,0,0,0,0,0,-1,1609,400,1.2301,10.5866
392,624,4.26819,-5.14236,0,0,0,0,0,0,0,-1,1616,400,4.26818,5.14236
399,624,2.22168,-9.19293,0,0,0,0,0,0,0,-1,1623,400,2.22173,9.19294
406,624,2.68213,-9.91171,0,0,0,0,0,0,0,-1,1630,400,2.68213,9.91171
413,624,0,0,0,0,0,0,0,0,0,-1,1637,400,0,0
420,624,0,0,0,0,0,0,0,0,0,-1,1644,400,0,0
427,624,0,0,0,0,0,0,0,0,0,-1,1651,400,0,0
434,624,0,0,0,0,0,0,0,0,0,-1,1658,400,0,0
441,624,0,0,0,0,0,0,0,0,0,-1,1665,400,0,0
448,624,0,0,0,0,0,0,0,0,0,-1,1672,400,0,0
455,624,0,0,0,0,0,0,0,0,0,-1,1679,400,0,0
462,624,0,0,0,0,0,0,0,0,0,-1,1686,400,0,0
469,624,0,0,0,0,0,0,0,0,0,-1,1693,400,0,0
476,624,0,0,0,0,0,0,0,0,0,-1,1700,400,0,0
483,624,0,0,0,0,0,0,0,0,0,-1,1707,400,0,0
490,624,0,0,0,0,0,0,0,0,0,-1,1714,400,0,0
497,624,0,0,0,0,0,0,0,0,0,-1,1721,400,0,0
504,624,0,0,0,0,0,0,0,0,0,-1,1728,400,0,0
511,624,0,0,0,0,0,0,0,0,0,-1,1735,400,0,0
518,624,0,0,0,0,0,0,0,0,0,-1,1742,400,0,0
525,624,0,0,0,0,0,0,0,0,0,-1,1749,400,0,0
532,624,0,0,0,0,0,0,0,0,0,-1,1756,400,0,0
539,624,0,0,0,0,0,0,0,0,0,-1,1763,400,0,0
546,624,0,0,0,0,0,0,0,0,0,-1,1770,400,0,0
553,624,0,0,0,0,0,0,0,0,0,-1,1777,400,0,0
560,624,0,0,0,0,0,0,0,0,0,-1,1784,400,0,0
567,624,0,0,0,0,0,0,0,0,0,-1,1791,400,0,0
574,624,0,0,0,0,0,0,0,0,0,-1,1798,400,0,0
581,624,0,0,0,0,0,0,0,0,0,-1,1805,400,0,0
588,624,0,0,0,0,0,0,0,0,0,-1,1812,400,0,0
595,624,0,0,0,0,0,0,0,0,0,-1,1819,400,0,0
602,624,0,0,0,0,0,0,0,0,0,-1,1826,400,0,0
609,624,0,0,0,0,0,0,0,0,0,-1,1833,400,0,0
616,624,0,0,0,0,0,0,0,0,0,-1,1840,400,0,0
623,624,0,0,0,0,0,0,0,0,0,-1,1847,400,0,0
630,624,0,0,0,0,0,0,0,0,0,-1,1854,400,0,0
637,624,0,0,0,0,0,0,0,0,0,-1,1861,400,0,0
644,624,0,0,0,0,0,0,0,0,0,-1,1868,400,0,0
651,624,0,0,0,0,0,0,0,0,0,-1,1875,400,0,0
658,624,0,0,0,0,0,0,0,0,0,-1,1882,400,0,0
665,624,0,0,0,0,0,0,0,0,0,-1,1889,400,0,0
672,624,0,0,0,0,0,0,0,0,0,-1,1896,400,0,0
679,624,0,0,0,0,0,0,0,0,0,-1,1903,400,0,0
686,624,0,0,0,0,0,0,0,0,0,-1,1910,400,0,0
693,624,0,0,0,0,0,0,0,0,0,-1,1917,400,0,0
700,624,0,0,0,0,0,0,0,0,0,-1,1924,400,0,0
707,624,0,0,0,0,0,0,0,0,0,-1,1931,400,0,0
714,624,0,0,0,0,0,0,0,0,0,-1,1938,400,0,0
721,624,0,0,0,0,0,0,0,0,0,-1,1945,400,0,0
728,624,0,0,0,0,0,0,0,0,0,-1,1952,400,0,0
735,624,0,0,0,0,0,0,0,0,0,-1,1959,400,0,0
742,624,0,0,0,0,0,0,0,0,0,-1,1966,400,0,0
749,624,0,0,0,0,0,0,0,0,0,-1,1973,400,0,0
756,624,0,0,0,0,0,0,0,0,0,-1,1980,400,0,0
763,624,0,0,0,0,0,0,0,0,0,-1,1987,400,0,0
770,624,0,0,0,0,0,0,0,0,0,-1,1994,400,0,0
777,624,0,0,0,0,0,0,0,0,0,-1,2001,400,0,0
784,624,0,0,0,0,0,0,0,0,0,-1,2008,400,0,0
791,624,0,0,0,0,0,0,0,0,0,-1,2015,400,0,0
798,624,0,0,0,0,0,0,0,0,0,-1,2022,400,0,0
805,624,0,0,0,0,0,0,0,0,0,-1,2029,400,0,0
812,624,0,0,0,0,0,0,0,0,0,-1,2036,400,0,0
-700,617,0,0,0,0,0,0,0,0,0,-1,524,407,0,0
-693,617,0,0,0,0,0,0,0,0,0,-1,531,407,0,0
-686,617,0,0,0,0,0,0,0,0,0,-1,538,407,0,0
-679,617,0,0,0,0,0,0,0,0,0,-1,545,407,0,0
-672,617,0,0,0,0,0,0,0,0,0,-1,552,407,0,0
-665,617,0,0,0,0,0,0,0,0,0,-1,559,407,0,0
-658,617,0,0,0,0,0,0,0,0,0,-1,566,407,0,0
-651,617,0,0,0,0,0,0,0,0,0,-1,573,407,0,0
-644,617,0,0,0,0,0,0,0,0,0,-1,580,407,0,0
-637,617,0,0,0,0,0,0,0,0,0,-1,587,407,0,0
-630,617,0,0,0,0,0,0,0,0,0,-1,594,407,0,0
-623,617,0,0,0,0,0,0,0,0,0,-1,601,407,0,0
-616,617,0,0,0,0,0,0,0,0,0,-1,608,407,0,0
-609,617,0,0,0,0,0,0,0,0,0,-1,615,407,0,0
-602,617,0,0,0,0,0,0,0,0,0,-1,622,407,0,0
-595,617,0,0,0,0,0,0,0,0,0,-1,629,407,0,0
-588,617,0,0,0,0,0,0,0,0,0,-1,636,407,0,0
-581,617,0,0,0,0,0,0,0,0,0,-1,643,407,0,0
-574,617,0,0,0,0,0,0,0,0,0,-1,650,407,0,0
-567,617,0,0,0,0,0,0,0,0,0,-1,657,407,0,0
-560,617,0,0,0,0,0,0,0,0,0,-1,664,407,0,0
-553,617,0,0,0,0,0,0,0,0,0,-1,671,407,0,0
-546,617,0,0,0,0,0,0,0,0,0,-1,678,407,0,0
-539,617,0,0,0,0,0,0,0,0,0,-1,685,407,0,0
-532,617,0,0,0,0,0,0,0,0,0,-1,692,407,0,0
-525,617,0,0,0,0,0,0,0,0,0,-1,699,407,0,0
-518,617,0,0,0,0,0,0,0,0,0,-1,706,407,0,0
-511,617,0,0,0,0,0,0,0,0,0,-1,713,407,0,0
-504,617,0,0,0,0,0,0,0,0,0,-1,720,407,0,0
-497,617,0,0,0,0,0,0,0,0,0,-1,727,407,0,0
-490,617,0,0,0,0,0,0,0,0,0,-1,734,407,0,0
-483,617,0,0,0,0,0,0,0,0,0,-1,741,407,0,0
-476,617,0,0,0,0,0,0,0,0,0,-1,748,407,0,0
-469,617,0,0,0,0,0,0,0,0,0,-1,755,407,0,0
-462,617,0,0,0,0,0,0,0,0,0,-1,762,407,0,0
-455,617,0,0,0,0,0,0,0,0,0,-1,769,407,0,0
-448,617,0,0,0,0,0,0,0,0,0,-1,776,407,0,0
-441,617,0,0,0,0,0,0,0,0,0,-1,783,407,0,0
-434,617,0,0,0,0,0,0,0,0,0,-1,790,407,0,0
-427,617,0,0,0,0,0,0,0,0,0,-1,797,407,0,0
-420,617,0,0,0,0,0,0,0,0,0,-1,804,407,0,0
-413,617,0,0,0,0,0,0,0,0,0,-1,811,407,0,0
-406,617,0,0,0,0,0,0,0,0,0,-1,818,407,0,0
-399,617,0,0,0,0,0,0,0,0,0,-1,825,407,0,0
-392,617,0,0,0,0,0,0,0,0,0,-1,832,407,0,0
-385,617,0,0,0,0,0,0,0,0,0,-1,839,407,0,0
-378,617,0,0,0,0,0,0,0,0,0,-1,846,407,0,0
-371,617,0,0,0,0,0,0,0,0,0,-1,853,407,0,0
-364,617,0,0,0,0,0,0,0,0,0,-1,860,407,0,0
-357,617,0,0,0,0,0,0,0,0,0,-1,867,407,0,0
-350,617,0,0,0,0,0,0,0,0,0,-1,874,407,0,0
-343,617,0,0,0,0,0,0,0,0,0,-1,881,407,0,0
-336,617,0,0,0,0,0,0,0,0,0,-1,888,407,0,0
-329,617,0,0,0,0,0,0,0,0,0,-1,895,407,0,0
-322,617,0,0,0,0,0,0,0,0,0,-1,902,407,0,0
-315,617,0,0,0,0,0,0,0,0,0,-1,909,407,0,0
-308,617,0,0,0,0,0,0,0,0,0,-1,916,407,0,0
-301,617,6.81897,-24.525,0,0,0,0,0,0,0,-1,923,407,6.81899,24.525
-294,617,6.19263,-26.917,0,0,0,0,0,0,0,-1,930,407,6.19261,26.917
-287,617,7.00409,-31.9773,0,0,0,0,0,0,0,-1,937,407,7.00406,31.9773
-280,617,9.1106,-36.5021,0,0,0,0,0,0,0,-1,944,407,9.11059,36.5021
-273,617,8.35004,-36.2751,0,0,0,0,0,0,0,-1,951,407,8.35003,36.2751
-266,617,7.61749,-36.1671,0,0,0,0,0,0,0,-1,958,407,7.61746,36.1671
-259,617,6.83643,-36.3605,0,0,0,0,0,0,0,-1,965,407,6.83643,36.3605
-252,617,6.02264,-36.5001,0,0,0,0,0,0,0,-1,972,407,6.02265,36.5001
-245,617,6.72626,-34.4465,0,0,0,0,0,0,0,-1,979,407,6.72627,34.4465
-238,617,5.6474,-34.6842,0,0,0,0,0,0,0,-1,986,407,5.64741,34.6842
-231,617,8.70416,-54.2625,0,0,0,0,0,0,0,-1,993,407,8.70417,54.2624
-224,617,8.59882,-64.002,0,0,0,0,0,0,0,-1,1000,407,8.59879,64.002
-217,617,8.79517,-79.8425,0,0,0,0,0,0,0,-1,1007,407,8.79519,79.8425
-210,617,7.15131,-152.502,0,0,0,0,0,0,0,-1,1014,407,7.15128,152.502
-203,617,7.49023,-144.245,0,0,0,0,0,0,0,-1,1021,407,7.49021,144.245
-196,617,-4.46631,-220.521,0,0,0,0,0,0,0,-1,1028,407,-4.46632,220.521
-189,617,-9.94873,-224.049,0,0,0,0,0,0,0,-1,1035,407,-9.94871,224.049
-182,617,-10.2505,-226.516,0,0,0,0,0,0,0,-1,1042,407,-10.2505,226.516
-175,617,-10.3153,-228.914,0,0,0,0,0,0,0,-1,1049,407,-10.3153,228.914
-168,617,-10.3723,-231.126,0.0362247,0.0089583,0.0126815,0.041211,0.00397201,0.374624,0.0262504,0.0338912,1056,407,-10.3723,231.126
-161,617,-10.4796,-233.524,0.0394461,0.00744145,0.0140668,0.0447499,0.00213773,0.360558,0.0291468,0.0177066,1063,407,-10.4796,233.524
-154,617,-10.6227,-235.64,0.0424408,0.00541077,0.0150229,0.0477689,8.27033e-05,0.340823,0.0318184,0.0173725,1070,407,-10.6227,235.64
-147,617,-10.5719,-237.73,0.0453631,0.00339755,0.0158744,0.0506914,-0.00193078,0.323839,0.0344559,0.0240616,1077,407,-10.5719,237.73
-140,617,-10.5736,-239.832,0.048107,0.00150173,0.0166273,0.0534309,-0.00382217,0.309876,0.0369606,0.0183814,1084,407,-10.5736,239.832
-133,617,-10.5165,-241.761,0.0506927,-0.000471961,0.0173881,0.0560426,-0.00582184,0.298483,0.0394458,0.0234117,1091,407,-10.5164,241.761
-126,617,-10.2566,-243.605,0.053144,-0.0021821,0.018136,0.058559,-0.00759715,0.290153,0.0418025,0.0241887,1098,407,-10.2566,243.605
-119,617,-10.228,-245.49,0.0556563,-0.0037094,0.0190492,0.061243,-0.0092961,0.285279,0.0442541,0.0238621,1105,407,-10.228,245.49
-112,617,-10.0112,-247.229,0.0581467,-0.0052737,0.0198285,0.0638358,-0.0109628,0.279408,0.0466429,0.0272622,1112,407,-10.0113,247.229
-105,617,-9.69592,-249.004,0.0604982,-0.00685803,0.0203303,0.0661588,-0.0125186,0.271555,0.0488168,0.0247455,1119,407,-9.69595,249.004
-98,617,-9.45703,-250.606,0.0629613,-0.00824644,0.0206068,0.0684948,-0.0137799,0.262335,0.0508823,0.0180304,1126,407,-9.45704,250.606
-91,617,-9.27368,-252.241,0.0656171,-0.00964723,0.0205365,0.0708559,-0.0148861,0.249774,0.0529021,0.0260496,1133,407,-9.27369,252.241
-84,617,-9.04297,-253.751,0.0682464,-0.0110285,0.0202246,0.0731079,-0.0158901,0.235903,0.0548086,0.0270579,1140,407,-9.04292,253.751
-77,617,-8.73376,-255.143,0.0709473,-0.0123859,0.019799,0.0754121,-0.0168507,0.221796,0.056732,0.0230069,1147,407,-8.73378,255.143
-70,617,-8.34399,-256.526,0,0,0,0,0,0,0,-1,1154,407,-8.34395,256.526
-63,617,-7.57056,-258.307,0,0,0,0,0,0,0,-1,1161,407,-7.57056,258.307
-56,617,-7.19775,-259.45,0,0,0,0,0,0,0,-1,1168,407,-7.19774,259.45
-49,617,-6.74426,-260.286,0.0808639,-0.0203104,0.016196,0.0833933,-0.0228399,0.154924,0.0645696,0.0265508,1175,407,-6.74424,260.286
-42,617,-6.29102,-261.371,0.0831013,-0.0222915,0.0152744,0.0852704,-0.0244606,0.141063,0.0665169,0.0182561,1182,407,-6.29103,261.371
-35,617,-5.90906,-262.307,0.0853174,-0.0237382,0.0146964,0.0872631,-0.025684,0.131633,0.0683644,0.024749,1189,407,-5.90904,262.307
-28,617,-5.45129,-263.222,0.0878206,-0.0249147,0.014155,0.0895707,-0.0266648,0.123015,0.0703082,0.0266933,1196,407,-5.45126,263.222
-21,617,-4.85339,-264.052,0.0897453,-0.0259297,0.013766,0.091361,-0.0275454,0.116832,0.0718707,0.0194197,1203,407,-4.85339,264.052
-14,617,-4.22925,-264.845,0.0916782,-0.0264499,0.0127638,0.0930416,-0.0278133,0.106414,0.0730848,0.0240903,1210,407,-4.22925,264.845
-7,617,-3.73352,-265.635,0.0937742,-0.0269802,0.011777,0.0949121,-0.0281181,0.0963195,0.0744392,0.0332922,1217,407,-3.73348,265.635
0,617,-3,-266.314,0.09579,-0.0280497,0.0107431,0.096715,-0.0289747,0.0858953,0.0759989,0.0318832,1224,407,-3.00004,266.314
7,617,-2.19873,-266.926,0.0975844,-0.0289605,0.0096158,0.0983109,-0.029687,0.0754102,0.077359,0.0229709,1231,407,-2.19872,266.926
14,617,-1.70374,-267.556,0.0994651,-0.0299235,0.00862893,0.100038,-0.0304964,0.0662987,0.0788485,0.0260555,1238,407,-1.70378,267.556
21,617,-0.802856,-268.005,0.101469,-0.0308853,0.00735456,0.101876,-0.0312928,0.0553402,0.0804044,0.0252932,1245,407,-0.802856,268.005
28,617,0.0655518,-268.477,0,0,0,0,0,0,0,-1,1252,407,0.0655805,268.477
35,617,0.49353,-268.736,0.105073,-0.0319956,0.00467159,0.105232,-0.0321547,0.0340294,0.0829765,0.0246435,1259,407,0.493485,268.736
42,617,1.23621,-268.853,0.106375,-0.0322446,0.00342879,0.10646,-0.0323294,0.0247151,0.0838536,0.030828,1266,407,1.23622,268.853
49,617,1.90027,-269.059,0.107542,-0.0321681,0.00237339,0.107582,-0.0322084,0.0169815,0.0845283,0.033496,1273,407,1.90021,269.059
56,617,2.32837,-269.098,0,0,0,0,0,0,0,-1,1280,407,2.3284,269.098
63,617,3.14441,-269.171,0.110759,-0.0319,-0.00149053,0.110775,-0.0319156,-0.0104466,0.0864746,0.0224823,1287,407,3.14436,269.171
70,617,4.10864,-269.158,0.110987,-0.0310162,-0.00350795,0.111074,-0.0311028,-0.0246832,0.0863057,0.0321982,1294,407,4.10866,269.158
77,617,4.9873,-269.079,0.111247,-0.0301356,-0.00495448,0.111421,-0.030309,-0.0349858,0.0861787,0.027268,1301,407,4.9873,269.079
84,617,5.72913,-268.924,0.112721,-0.0292811,-0.00645611,0.113014,-0.0295741,-0.0453403,0.0868945,0.0234695,1308,407,5.7291,268.924
91,617,6.28564,-268.628,0.113206,-0.0288459,-0.00798644,0.113654,-0.0292935,-0.0559867,0.0871898,0.0249475,1315,407,6.2857,268.628
98,617,6.97791,-268.443,0.113665,-0.0284639,-0.00939208,0.114283,-0.0290819,-0.0657007,0.0875085,0.0232245,1322,407,6.97792,268.443
105,617,7.82825,-268.071,0.114012,-0.0274847,-0.0109162,0.114849,-0.0283219,-0.0765443,0.0875472,0.0242248,1329,407,7.82826,268.071
112,617,8.81665,-267.508,0.113868,-0.0278179,-0.0119983,0.114877,-0.0288268,-0.0838866,0.0877856,0.0306277,1336,407,8.8167,267.508
119,617,9.33179,-267.028,0.112846,-0.0280051,-0.0128484,0.114008,-0.0291676,-0.0902273,0.0873665,0.0319984,1343,407,9.33179,267.028
126,617,9.62585,-266.505,0.111126,-0.0283311,-0.0132663,0.112376,-0.0295819,-0.0940052,0.0864814,0.038726,1350,407,9.6259,266.505
133,617,10.5835,-265.794,0.109305,-0.0285407,-0.0136276,0.110639,-0.0298751,-0.0976026,0.0854763,0.0304627,1357,407,10.5835,265.793
140,617,11.667,-265.083,0,0,0,0,0,0,0,-1,1364,407,11.667,265.083
147,617,11.8456,-264.094,0.106711,-0.0284005,-0.0147459,0.108301,-0.0299911,-0.107454,0.0840018,0.0372499,1371,407,11.8456,264.094
154,617,12.6892,-263.336,0.104644,-0.0280339,-0.015205,0.106365,-0.0297541,-0.112655,0.082633,0.039224,1378,407,12.6892,263.336
161,617,13.4913,-262.659,0.101968,-0.027542,-0.0155307,0.103804,-0.0293784,-0.117696,0.0807963,0.031631,1385,407,13.4914,262.659
168,617,14.0626,-261.67,0.100695,-0.0261524,-0.0156757,0.102603,-0.0280609,-0.121151,0.0794256,0.0262871,1392,407,14.0626,261.67
175,617,14.4548,-260.548,0.100164,-0.0245949,-0.0165983,0.102335,-0.0267655,-0.13003,0.0786774,0.0219777,1399,407,14.4548,260.548
182,617,14.7662,-259.264,0.0978984,-0.0222157,-0.0180279,0.100546,-0.0248631,-0.14581,0.076674,0.0159555,1406,407,14.7662,259.264
189,617,15.2389,-257.915,0.0949069,-0.0199975,-0.0191522,0.0980151,-0.0231057,-0.160887,0.0742534,0.0201551,1413,407,15.2388,257.915
196,617,15.4279,-256.799,0,0,0,0,0,0,0,-1,1420,407,15.4279,256.799
203,617,15.9843,-255.461,0,0,0,0,0,0,0,-1,1427,407,15.9842,255.461
210,617,17.0745,-253.901,0,0,0,0,0,0,0,-1,1434,407,17.0744,253.901
217,617,17.3583,-252.297,0.0861135,-0.01086,-0.021622,0.0907161,-0.0154625,-0.209734,0.0662359,0.0307384,1441,407,17.3583,252.297
224,617,17.788,-250.891,0.0840083,-0.00887279,-0.022301,0.0890853,-0.0139498,-0.223843,0.0645446,0.0254071,1448,407,17.788,250.891
231,617,18.2223,-249.356,0.0817638,-0.00710403,-0.0229733,0.0873514,-0.0126916,-0.238586,0.0628931,0.0222228,1455,407,18.2223,249.356
238,617,18.6838,-247.721,0.0788825,-0.00534821,-0.0234239,0.0849582,-0.011424,-0.253789,0.0608056,0.0291949,1462,407,18.6838,247.721
245,617,19.0385,-246.025,0.0754098,-0.00350067,-0.0234537,0.0818544,-0.00994523,-0.26816,0.0581688,0.0218258,1469,407,19.0385,246.025
252,617,19.0544,-244.121,0.0719864,-0.00150181,-0.0233367,0.0787708,-0.00828621,-0.28292,0.0554826,0.0279797,1476,407,19.0545,244.121
259,617,19.3289,-242.071,0.0687954,0.000247325,-0.0232651,0.0759456,-0.00690294,-0.298176,0.0530812,0.0327717,1483,407,19.3289,242.071
266,617,19.6591,-240.031,0.0656626,0.00160091,-0.0231952,0.0731791,-0.00591558,-0.313376,0.0508727,0.0267695,1490,407,19.6591,240.031
273,617,19.7085,-237.904,0.0627986,0.00367687,-0.0227228,0.0705227,-0.00404727,-0.327675,0.0484207,0.0211934,1497,407,19.7086,237.904
280,617,19.6282,-235.822,0.0598854,0.00568481,-0.0224182,0.0679561,-0.00238592,-0.345563,0.04612,0.0266702,1504,407,19.6282,235.822
287,617,19.7067,-233.704,0.0566335,0.00757096,-0.0219387,0.0650126,-0.000808101,-0.364833,0.0436136,0.0390572,1511,407,19.7067,233.704
294,617,19.8705,-231.485,0.0535395,0.00932255,-0.0208585,0.0618262,0.00103592,-0.378157,0.0408765,0.0282847,1518,407,19.8704,231.485
301,617,19.8475,-229.2,0.0509652,0.0113423,-0.0190741,0.058655,0.00365257,-0.38322,0.0379444,0.0200205,1525,407,19.8475,229.199
308,617,19.7454,-226.736,0.0484981,0.0136308,-0.0169804,0.055401,0.00672796,-0.386114,0.0349081,0.038178,1532,407,19.7453,226.736
315,617,19.6207,-224.301,0,0,0,0,0,0,0,-1,1539,407,19.6207,224.301
322,617,19.5045,-221.655,0,0,0,0,0,0,0,-1,1546,407,19.5045,221.655
329,617,13.4055,-218.347,0,0,0,0,0,0,0,-1,1553,407,13.4055,218.347
336,617,3.7113,-147.346,0,0,0,0,0,0,0,-1,1560,407,3.7113,147.346
343,617,4.15369,-139.098,0,0,0,0,0,0,0,-1,1567,407,4.15371,139.098
350,617,2.8457,-140.993,0,0,0,0,0,0,0,-1,1574,407,2.84567,140.993
357,617,2.63464,-139.438,0,0,0,0,0,0,0,-1,1581,407,2.63469,139.438
364,617,0.620972,-140.778,0,0,0,0,0,0,0,-1,1588,407,0.62097,140.778
371,617,2.60266,-6.20667,0,0,0,0,0,0,0,-1,1595,407,2.60261,6.20668
378,617,8.75098,-47.4916,0,0,0,0,0,0,0,-1,1602,407,8.75093,47.4916
385,617,1.74146,-10.3561,0,0,0,0,0,0,0,-1,1609,407,1.7414,10.3561
392,617,1.96936,-5.10449,0,0,0,0,0,0,0,-1,1616,407,1.96931,5.10451
399,617,2.48889,-5.81256,0,0,0,0,0,0,0,-1,1623,407,2.48888,5.81255
406,617,3.01465,-6.51642,0,0,0,0,0,0,0,-1,1630,407,3.01461,6.51643
413,617,5.66919,-50.9252,0,0,0,0,0,0,0,-1,1637,407,5.66925,50.9252
420,617,5.401,-51.0232,0,0,0,0,0,0,0,-1,1644,407,5.40098,51.0232
427,617,0,0,0,0,0,0,0,0,0,-1,1651,407,0,0
434,617,0,0,0,0,0,0,0,0,0,-1,1658,407,0,0
441,617,0,0,0,0,0,0,0,0,0,-1,1665,407,0,0
448,617,0,0,0,0,0,0,0,0,0,-1,1672,407,0,0
455,617,0,0,0,0,0,0,0,0,0,-1,1679,407,0,0
462,617,0,0,0,0,0,0,0,0,0,-1,1686,407,0,0
469,617,0,0,0,0,0,0,0,0,0,-1,1693,407,0,0
476,617,0,0,0,0,0,0,0,0,0,-1,1700,407,0,0
483,617,0,0,0,0,0,0,0,0,0,-1,1707,407,0,0
490,617,0,0,0,0,0,0,0,0,0,-1,1714,407,0,0
497,617,0,0,0,0,0,0,0,0,0,-1,1721,407,0,0
504,617,0,0,0,0,0,0,0,0,0,-1,1728,407,0,0
511,617,0,0,0,0,0,0,0,0,0,-1,1735,407,0,0
518,617,0,0,0,0,0,0,0,0,0,-1,1742,407,0,0
525,617,0,0,0,0,0,0,0,0,0,-1,1749,407,0,0
532,617,0,0,0,0,0,0,0,0,0,-1,1756,407,0,0
539,617,0,0,0,0,0,0,0,0,0,-1,1763,407,0,0
546,617,0,0,0,0,0,0,0,0,0,-1,1770,407,0,0
553,617,0,0,0,0,0,0,0,0,0,-1,1777,407,0,0
560,617,0,0,0,0,0,0,0,0,0,-1,1784,407,0,0
567,617,0,0,0,0,0,0,0,0,0,-1,1791,407,0,0
574,617,0,0,0,0,0,0,0,0,0,-1,1798,407,0,0
581,617,0,0,0,0,0,0,0,0,0,-1,1805,407,0,0
588,617,0,0,0,0,0,0,0,0,0,-1,1812,407,0,0
595,617,0,0,0,0,0,0,0,0,0,-1,1819,407,0,0
602,617,0,0,0,0,0,0,0,0,0,-1,1826,407,0,0
609,617,0,0,0,0,0,0,0,0,0,-1,1833,407,0,0
616,617,0,0,0,0,0,0,0,0,0,-1,1840,407,0,0
623,617,0,0,0,0,0,0,0,0,0,-1,1847,407,0,0
630,617,0,0,0,0,0,0,0,0,0,-1,1854,407,0,0
637,617,0,0,0,0,0,0,0,0,0,-1,1861,407,0,0
644,617,0,0,0,0,0,0,0,0,0,-1,1868,407,0,0
651,617,0,0,0,0,0,0,0,0,0,-1,1875,407,0,0
658,617,0,0,0,0,0,0,0,0,0,-1,1882,407,0,0
665,617,0,0,0,0,0,0,0,0,0,-1,1889,407,0,0
672,617,0,0,0,0,0,0,0,0,0,-1,1896,407,0,0
679,617,0,0,0,0,0,0,0,0,0,-1,1903,407,0,0
686,617,0,0,0,0,0,0,0,0,0,-1,1910,407,0,0
693,617,0,0,0,0,0,0,0,0,0,-1,1917,407,0,0
700,617,0,0,0,0,0,0,0,0,0,-1,1924,407,0,0
707,617,0,0,0,0,0,0,0,0,0,-1,1931,407,0,0
714,617,0,0,0,0,0,0,0,0,0,-1,1938,407,0,0
721,617,0,0,0,0,0,0,0,0,0,-1,1945,407,0,0
728,617,0,0,0,0,0,0,0,0,0,-1,1952,407,0,0
735,617,0,0,0,0,0,0,0,0,0,-1,1959,407,0,0
742,617,0,0,0,0,0,0,0,0,0,-1,1966,407,0,0
749,617,0,0,0,0,0,0,0,0,0,-1,1973,407,0,0
756,617,0,0,0,0,0,0,0,0,0,-1,1980,407,0,0
763,617,0,0,0,0,0,0,0,0,0,-1,1987,407,0,0
770,617,0,0,0,0,0,0,0,0,0,-1,1994,407,0,0
777,617,0,0,0,0,0,0,0,0,0,-1,2001,407,0,0
784,617,0,0,0,0,0,0,0,0,0,-1,2008,407,0,0
791,617,0,0,0,0,0,0,0,0,0,-1,2015,407,0,0
798,617,0,0,0,0,0,0,0,0,0,-1,2022,407,0,0
805,617,0,0,0,0,0,0,0,0,0,-1,2029,407,0,0
812,617,0,0,0,0,0,0,0,0,0,-1,2036,407,0,0
-700,610,0,0,0,0,0,0,0,0,0,-1,524,414,0,0
-693,610,0,0,0,0,0,0,0,0,0,-1,531,414,0,0
-686,610,0,0,0,0,0,0,0,0,0,-1,538,414,0,0
-679,610,0,0,0,0,0,0,0,0,0,-1,545,414,0,0
-672,610,0,0,0,0,0,0,0,0,0,-1,552,414,0,0
-665,610,0,0,0,0,0,0,0,0,0,-1,559,414,0,0
-658,610,0,0,0,0,0,0,0,0,0,-1,566,414,0,0
-651,610,0,0,0,0,0,0,0,0,0,-1,573,414,0,0
-644,610,0,0,0,0,0,0,0,0,0,-1,580,414,0,0
-637,610,0,0,0,0,0,0,0,0,0,-1,587,414,0,0
-630,610,0,0,0,0,0,0,0,0,0,-1,594,414,0,0
-623,610,0,0,0,0,0,0,0,0,0,-1,601,414,0,0
-616,610,0,0,0,0,0,0,0,0,0,-1,608,414,0,0
-609,610,0,0,0,0,0,0,0,0,0,-1,615,414,0,0
-602,610,0,0,0,0,0,0,0,0,0,-1,622,414,0,0
-595,610,0,0,0,0,0,0,0,0,0,-1,629,414,0,0
-588,610,0,0,0,0,0,0,0,0,0,-1,636,414,0,0
-581,610,0,0,0,0,0,0,0,0,0,-1,643,414,0,0
-574,610,0,0,0,0,0,0,0,0,0,-1,650,414,0,0
-567,610,0,0,0,0,0,0,0,0,0,-1,657,414,0,0
-560,610,0,0,0,0,0,0,0,0,0,-1,664,414,0,0
-553,610,0,0,0,0,0,0,0,0,0,-1,671,414,0,0
-546,610,0,0,0,0,0,0,0,0,0,-1,678,414,0,0
-539,610,0,0,0,0,0,0,0,0,0,-1,685,414,0,0
-532,610,0,0,0,0,0,0,0,0,0,-1,692,414,0,0
-525,610,0,0,0,0,0,0,0,0,0,-1,699,414,0,0
-518,610,0,0,0,0,0,0,0,0,0,-1,706,414,0,0
-511,610,0,0,0,0,0,0,0,0,0,-1,713,414,0,0
-504,610,0,0,0,0,0,0,0,0,0,-1,720,414,0,0
-497,610,0,0,0,0,0,0,0,0,0,-1,727,414,0,0
-490,610,0,0,0,0,0,0,0,0,0,-1,734,414,0,0
-483,610,0,0,0,0,0,0,0,0,0,-1,741,414,0,0
-476,610,0,0,0,0,0,0,0,0,0,-1,748,414,0,0
-469,610,0,0,0,0,0,0,0,0,0,-1,755,414,0,0
-462,610,0,0,0,0,0,0,0,0,0,-1,762,414,0,0
-455,610,0,0,0,0,0,0,0,0,0,-1,769,414,0,0
-448,610,0,0,0,0,0,0,0,0,0,-1,776,414,0,0
-441,610,0,0,0,0,0,0,0,0,0,-1,783,414,0,0
-434,610,0,0,0,0,0,0,0,0,0,-1,790,414,0,0
-427,610,0,0,0,0,0,0,0,0,0,-1,797,414,0,0
-420,610,0,0,0,0,0,0,0,0,0,-1,804,414,0,0
-413,610,0,0,0,0,0,0,0,0,0,-1,811,414,0,0
-406,610,0,0,0,0,0,0,0,0,0,-1,818,414,0,0
-399,610,0,0,0,0,0,0,0,0,0,-1,825,414,0,0
-392,610,0,0,0,0,0,0,0,0,0,-1,832,414,0,0
-385,610,0,0,0,0,0,0,0,0,0,-1,839,414,0,0
-378,610,0,0,0,0,0,0,0,0,0,-1,846,414,0,0
-371,610,0,0,0,0,0,0,0,0,0,-1,853,414,0,0
-364,610,0,0,0,0,0,0,0,0,0,-1,860,414,0,0
-357,610,0,0,0,0,0,0,0,0,0,-1,867,414,0,0
-350,610,0,0,0,0,0,0,0,0,0,-1,874,414,0,0
-343,610,0,0,0,0,0,0,0,0,0,-1,881,414,0,0
-336,610,0,0,0,0,0,0,0,0,0,-1,888,414,0,0
-329,610,0,0,0,0,0,0,0,0,0,-1,895,414,0,0
-322,610,0,0,0,0,0,0,0,0,0,-1,902,414,0,0
-315,610,7.68475,-21.5402,0,0,0,0,0,0,0,-1,909,414,7.68475,21.5402
-308,610,3.97211,-23.4133,0,0,0,0,0,0,0,-1,916,414,3.9721,23.4133
-301,610,7.38513,-22.4166,0,0,0,0,0,0,0,-1,923,414,7.38516,22.4166
-294,610,6.77832,-24.1945,0,0,0,0,0,0,0,-1,930,414,6.77829,24.1946
-287,610,3.39276,-28.5804,0,0,0,0,0,0,0,-1,937,414,3.39276,28.5803
-280,610,8.8728,-35.4336,0,0,0,0,0,0,0,-1,944,414,8.87283,35.4336
-273,610,8.14722,-35.5264,0,0,0,0,0,0,0,-1,951,414,8.14723,35.5264
-266,610,7.38361,-35.6366,0,0,0,0,0,0,0,-1,958,414,7.38359,35.6366
-259,610,6.47375,-35.762,0,0,0,0,0,0,0,-1,965,414,6.47373,35.762
-252,610,5.65308,-35.8931,0,0,0,0,0,0,0,-1,972,414,5.65305,35.8931
-245,610,8.48608,-60.1828,0,0,0,0,0,0,0,-1,979,414,8.4861,60.1828
-238,610,7.21301,-70.1616,0,0,0,0,0,0,0,-1,986,414,7.21304,70.1615
-231,610,7.96533,-98.6728,0,0,0,0,0,0,0,-1,993,414,7.96532,98.6728
-224,610,6.0943,-157.78,0,0,0,0,0,0,0,-1,1000,414,6.09428,157.78
-217,610,4.86194,-173.344,0,0,0,0,0,0,0,-1,1007,414,4.86196,173.344
-210,610,-11.7856,-215.922,0,0,0,0,0,0,0,-1,1014,414,-11.7856,215.922
-203,610,-11.955,-218.774,0,0,0,0,0,0,0,-1,1021,414,-11.9549,218.774
-196,610,-12.2672,-221.276,0,0,0,0,0,0,0,-1,1028,414,-12.2672,221.276
-189,610,-12.4636,-223.705,0.0366835,0.00667978,0.0136778,0.0419828,0.00138044,0.369633,0.0275399,0.019056,1035,414,-12.4636,223.705
-182,610,-12.6525,-226.058,0.0391913,0.00591781,0.015211,0.0450968,1.22543e-05,0.37033,0.0300605,0.0264813,1042,414,-12.6525,226.058
-175,610,-12.6859,-228.492,0.0416421,0.00432412,0.0167597,0.0480639,-0.00209765,0.365912,0.0327642,0.031609,1049,414,-12.686,228.492
-168,610,-12.7739,-230.839,0.0446418,0.00272178,0.0180932,0.0513709,-0.00400731,0.356061,0.0356582,0.0235565,1056,414,-12.7739,230.839
-161,610,-12.8693,-233.182,0.0479813,0.00107047,0.0192989,0.0549003,-0.00584849,0.344241,0.0386973,0.0168808,1063,414,-12.8692,233.182
-154,610,-12.8597,-235.337,0.0510341,-0.000819525,0.0203437,0.0580628,-0.00784821,0.332658,0.0415723,0.0263104,1070,414,-12.8598,235.337
-147,610,-12.7527,-237.356,0.054075,-0.00258135,0.0213138,0.0611976,-0.00970402,0.322514,0.0443881,0.0305028,1077,414,-12.7527,237.356
-140,610,-12.6713,-239.403,0.0568445,-0.00426904,0.022186,0.0640493,-0.0114738,0.314001,0.0469934,0.0225024,1084,414,-12.6712,239.403
-133,610,-12.5338,-241.33,0.0594839,-0.00600998,0.0229596,0.0667308,-0.0132569,0.305739,0.0495014,0.0240575,1091,414,-12.5338,241.33
-126,610,-12.3395,-243.234,0.0620507,-0.00747884,0.0235065,0.069252,-0.0146801,0.297273,0.05176,0.0228406,1098,414,-12.3395,243.234
-119,610,-12.1251,-245.032,0.0646627,-0.00871944,0.0243478,0.0720062,-0.016063,0.292935,0.0541584,0.0177454,1105,414,-12.1252,245.032
-112,610,-11.7576,-246.959,0.0673225,-0.00989088,0.0251065,0.0747681,-0.0173365,0.288298,0.0565176,0.0311141,1112,414,-11.7575,246.959
-105,610,-11.535,-248.676,0.0698557,-0.011074,0.0254663,0.0772023,-0.0184206,0.280858,0.0585819,0.0325402,1119,414,-11.535,248.676
-98,610,-11.2825,-250.229,0.0726674,-0.0120418,0.0255668,0.0797857,-0.0191602,0.271545,0.0605955,0.0204843,1126,414,-11.2825,250.229
-91,610,-10.849,-251.728,0.0756413,-0.0133386,0.0252066,0.0822858,-0.0199831,0.257737,0.0625907,0.0250931,1133,414,-10.849,251.728
-84,610,-10.5126,-253.349,0.0784162,-0.0146694,0.0244459,0.0844456,-0.0206988,0.241816,0.0643166,0.0293303,1140,414,-10.5126,253.349
-77,610,-10.3365,-254.919,0.0813831,-0.0161683,0.0236916,0.0868325,-0.0216177,0.226082,0.06628,0.020487,1147,414,-10.3366,254.919
-70,610,-9.87878,-256.253,0,0,0,0,0,0,0,-1,1154,414,-9.87877,256.253
-63,610,-9.22461,-257.548,0,0,0,0,0,0,0,-1,1161,414,-9.22455,257.548
-56,610,-8.81738,-258.778,0,0,0,0,0,0,0,-1,1168,414,-8.81738,258.777
-49,610,-8.17627,-259.975,0.0920021,-0.0258275,0.0188191,0.0949348,-0.0287602,0.154593,0.0747443,0.0285313,1175,414,-8.17622,259.975
-42,610,-7.52405,-261.058,0.0943345,-0.0283105,0.0176427,0.096822,-0.030798,0.140069,0.076898,0.0237512,1182,414,-7.52402,261.058
-35,610,-6.94629,-262.058,0.0966829,-0.0300845,0.0169512,0.0989105,-0.0323121,0.130661,0.0789468,0.0232664,1189,414,-6.94627,262.058
-28,610,-6.4303,-262.985,0.0995786,-0.0315422,0.0163943,0.101597,-0.033561,0.122519,0.0812624,0.0228404,1196,414,-6.43032,262.985
-21,610,-5.75928,-263.803,0.101832,-0.0328029,0.0160956,0.10373,-0.0347004,0.117347,0.0831689,0.0190922,1203,414,-5.75933,263.803
-14,610,-5.15015,-264.55,0.103944,-0.0334369,0.0148424,0.105529,-0.0350222,0.106403,0.0844822,0.0213684,1210,414,-5.15015,264.55
-7,610,-4.54077,-265.382,0.10608,-0.0341175,0.013564,0.10738,-0.0354177,0.0955682,0.0858631,0.0311159,1217,414,-4.54071,265.382
0,610,-3.7793,-266.167,0.108021,-0.0355807,0.0121955,0.109049,-0.036609,0.0841232,0.0874937,0.027066,1224,414,-3.77929,266.167
7,610,-3.04431,-266.836,0.109672,-0.0367682,0.0107778,0.110461,-0.0375572,0.0730738,0.0888462,0.029956,1231,414,-3.04437,266.836
14,610,-2.49097,-267.421,0,0,0,0,0,0,0,-1,1238,414,-2.49103,267.421
21,610,-1.10803,-267.873,0,0,0,0,0,0,0,-1,1245,414,-1.10799,267.873
28,610,-0.389526,-268.187,0,0,0,0,0,0,0,-1,1252,414,-0.389471,268.187
35,610,0.41272,-268.409,0.116707,-0.0405964,0.00475531,0.116851,-0.04074,0.0301933,0.0944561,0.0377919,1259,414,0.412699,268.41
42,610,1.04358,-268.517,0.117781,-0.0408008,0.00336873,0.117852,-0.0408723,0.0212301,0.0951645,0.0336828,1266,414,1.04353,268.517
49,610,1.62085,-268.832,0.118744,-0.0405453,0.00220182,0.118775,-0.0405758,0.0138192,0.0956225,0.0367826,1273,414,1.62085,268.832
56,610,2.43018,-268.897,0,0,0,0,0,0,0,-1,1280,414,2.43017,268.897
63,610,3.27795,-269.171,0,0,0,0,0,0,0,-1,1287,414,3.27798,269.171
70,610,4.37061,-268.998,0,0,0,0,0,0,0,-1,1294,414,4.37056,268.998
77,610,5.28455,-268.762,0,0,0,0,0,0,0,-1,1301,414,5.2846,268.762
84,610,5.89575,-268.666,0,0,0,0,0,0,0,-1,1308,414,5.89577,268.666
91,610,6.38159,-268.604,0,0,0,0,0,0,0,-1,1315,414,6.38154,268.604
98,610,7.14954,-268.354,0,0,0,0,0,0,0,-1,1322,414,7.14952,268.354
105,610,8.53516,-267.84,0.127093,-0.0340375,-0.0128561,0.128112,-0.0350568,-0.07912,0.0991807,0.0388998,1329,414,8.53514,267.84
112,610,9.53625,-267.282,0.126884,-0.0348657,-0.0139989,0.128087,-0.0360683,-0.0856975,0.099615,0.0268465,1336,414,9.53619,267.282
119,610,10.1058,-266.81,0.125666,-0.0355161,-0.0148372,0.127021,-0.0368705,-0.0910329,0.0992796,0.0388796,1343,414,10.1058,266.81
126,610,10.3632,-266.331,0,0,0,0,0,0,0,-1,1350,414,10.3632,266.331
133,610,11.2089,-265.615,0.121744,-0.0372051,-0.0155055,0.123242,-0.0387035,-0.0963398,0.0976536,0.0444084,1357,414,11.2088,265.615
140,610,12.2916,-264.916,0,0,0,0,0,0,0,-1,1364,414,12.2917,264.916
147,610,12.9032,-264.108,0,0,0,0,0,0,0,-1,1371,414,12.9032,264.108
154,610,13.6985,-263.128,0.116915,-0.0378032,-0.0173752,0.118843,-0.0397305,-0.110469,0.0952744,0.0456668,1378,414,13.6985,263.128
161,610,14.4121,-262.238,0.113967,-0.0376054,-0.0177585,0.116019,-0.0396582,-0.115086,0.0934153,0.0373809,1385,414,14.4121,262.238
168,610,15.0801,-261.206,0.113088,-0.036076,-0.0178075,0.115184,-0.0381725,-0.117188,0.0921869,0.0336471,1392,414,15.0801,261.206
175,610,15.6123,-260.074,0.113153,-0.0342899,-0.018925,0.115544,-0.0366802,-0.125642,0.0917338,0.0275297,1399,414,15.6123,260.074
182,610,16.1621,-258.908,0.110481,-0.0313202,-0.0207612,0.113458,-0.0342974,-0.142429,0.0892943,0.0291894,1406,414,16.1621,258.908
189,610,16.865,-257.576,0.106795,-0.0287042,-0.0221602,0.110327,-0.0322363,-0.15806,0.0863272,0.0275513,1413,414,16.865,257.576
196,610,17.6495,-256.359,0.104797,-0.0259983,-0.023105,0.108759,-0.0299598,-0.169806,0.0842863,0.0448215,1420,414,17.6495,256.359
203,610,18.78,-255.139,0,0,0,0,0,0,0,-1,1427,414,18.78,255.139
210,610,18.6035,-253.597,0,0,0,0,0,0,0,-1,1434,414,18.6035,253.597
217,610,19.1659,-251.997,0.0978065,-0.0176454,-0.0247742,0.102898,-0.022737,-0.202698,0.0773005,0.0254428,1441,414,19.1658,251.997
224,610,19.6859,-250.562,0.0957698,-0.0152308,-0.0255708,0.101377,-0.0208382,-0.215872,0.0754956,0.0283415,1448,414,19.6859,250.562
231,610,20.0864,-249.075,0.0934654,-0.0130319,-0.0262138,0.0995681,-0.0191346,-0.228731,0.0735908,0.025066,1455,414,20.0865,249.075
238,610,20.4517,-247.347,0.0902653,-0.0109647,-0.026595,0.096827,-0.0175264,-0.241895,0.071117,0.0232904,1462,414,20.4516,247.347
245,610,21.0096,-245.6,0.0865275,-0.00901466,-0.0265432,0.0934064,-0.0158935,-0.253579,0.068189,0.0246641,1469,414,21.0097,245.6
252,610,21.1041,-243.743,0.0828353,-0.00683431,-0.0264465,0.0900541,-0.0140531,-0.266467,0.065227,0.0239628,1476,414,21.1041,243.743
259,610,21.4517,-241.73,0.0794875,-0.00490336,-0.0263993,0.0870654,-0.0124812,-0.279531,0.06262,0.0299772,1483,414,21.4516,241.73
266,610,21.7877,-239.693,0.0760252,-0.00311549,-0.0263233,0.0839809,-0.0110712,-0.293503,0.060019,0.0246117,1490,414,21.7878,239.693
273,610,21.9406,-237.629,0.0725413,-0.000781068,-0.0260258,0.0808399,-0.00907969,-0.30867,0.0571607,0.0172545,1497,414,21.9406,237.629
280,610,22.0233,-235.524,0.0691048,0.00150891,-0.0256895,0.0777597,-0.00714607,-0.324964,0.0543786,0.0299084,1504,414,22.0233,235.524
287,610,21.9781,-233.266,0,0,0,0,0,0,0,-1,1511,414,21.9781,233.266
294,610,22.2998,-231.067,0.0619809,0.00556943,-0.0242736,0.0709877,-0.00343737,-0.355306,0.0485115,0.0430365,1518,414,22.2998,231.067
301,610,22.3904,-228.842,0.0587694,0.007688,-0.022814,0.0674749,-0.00101755,-0.364534,0.0453263,0.0241304,1525,414,22.3904,228.842
308,610,22.3823,-226.399,0.0557064,0.00989519,-0.0210489,0.063909,0.00169255,-0.371591,0.0420532,0.0262203,1532,414,22.3824,226.399
315,610,22.233,-223.949,0.0523923,0.0125433,-0.0181095,0.0593925,0.00554303,-0.368858,0.0378827,0.022471,1539,414,22.233,223.949
322,610,22.1632,-221.083,0.0491406,0.014661,-0.0151381,0.0548436,0.00895797,-0.360289,0.0339724,0.0329723,1546,414,22.1632,221.083
329,610,22.2123,-218.321,0,0,0,0,0,0,0,-1,1553,414,22.2123,218.321
336,610,21.7969,-216.334,0,0,0,0,0,0,0,-1,1560,414,21.7969,216.334
343,610,21.4152,-213.288,0,0,0,0,0,0,0,-1,1567,414,21.4151,213.288
350,610,2.16211,-169.78,0,0,0,0,0,0,0,-1,1574,414,2.16212,169.78
357,610,2.01099,-161.046,0,0,0,0,0,0,0,-1,1581,414,2.01093,161.046
364,610,1.37036,-160.506,0,0,0,0,0,0,0,-1,1588,414,1.37038,160.506
371,610,2.50562,-141.433,0,0,0,0,0,0,0,-1,1595,414,2.50557,141.433
378,610,10.524,-62.0682,0,0,0,0,0,0,0,-1,1602,414,10.524,62.0682
385,610,9.28003,-47.0623,0,0,0,0,0,0,0,-1,1609,414,9.28002,47.0623
392,610,1.99744,-1.83582,0,0,0,0,0,0,0,-1,1616,414,1.99741,1.8358
399,610,2.77136,-2.60333,0,0,0,0,0,0,0,-1,1623,414,2.77133,2.60332
406,610,7.03125,-48.9078,0,0,0,0,0,0,0,-1,1630,414,7.03126,48.9078
413,610,7.7926,-49.6027,0,0,0,0,0,0,0,-1,1637,414,7.79259,49.6027
420,610,7.58374,-49.1523,0,0,0,0,0,0,0,-1,1644,414,7.58375,49.1523
427,610,7.52539,-48.6574,0,0,0,0,0,0,0,-1,1651,414,7.52544,48.6574
434,610,8.73706,-22.6227,0,0,0,0,0,0,0,-1,1658,414,8.73703,22.6227
441,610,0,0,0,0,0,0,0,0,0,-1,1665,414,0,0
448,610,0,0,0,0,0,0,0,0,0,-1,1672,414,0,0
455,610,0,0,0,0,0,0,0,0,0,-1,1679,414,0,0
462,610,0,0,0,0,0,0,0,0,0,-1,1686,414,0,0
469,610,0,0,0,0,0,0,0,0,0,-1,1693,414,0,0
476,610,0,0,0,0,0,0,0,0,0,-1,1700,414,0,0
483,610,0,0,0,0,0,0,0,0,0,-1,1707,414,0,0
490,610,0,0,0,0,0,0,0,0,0,-1,1714,414,0,0
497,610,0,0,0,0,0,0,0,0,0,-1,1721,414,0,0
504,610,0,0,0,0,0,0,0,0,0,-1,1728,414,0,0
511,610,0,0,0,0,0,0,0,0,0,-1,1735,414,0,0
518,610,0,0,0,0,0,0,0,0,0,-1,1742,414,0,0
525,610,0,0,0,0,0,0,0,0,0,-1,1749,414,0,0
532,610,0,0,0,0,0,0,0,0,0,-1,1756,414,0,0
539,610,0,0,0,0,0,0,0,0,0,-1,1763,414,0,0
546,610,0,0,0,0,0,0,0,0,0,-1,1770,414,0,0
553,610,0,0,0,0,0,0,0,0,0,-1,1777,414,0,0
560,610,0,0,0,0,0,0,0,0,0,-1,1784,414,0,0
567,610,0,0,0,0,0,0,0,0,0,-1,1791,414,0,0
574,610,0,0,0,0,0,0,0,0,0,-1,1798,414,0,0
581,610,0,0,0,0,0,0,0,0,0,-1,1805,414,0,0
588,610,0,0,0,0,0,0,0,0,0,-1,1812,414,0,0
595,610,0,0,0,0,0,0,0,0,0,-1,1819,414,0,0
602,610,0,0,0,0,0,0,0,0,0,-1,1826,414,0,0
609,610,0,0,0,0,0,0,0,0,0,-1,1833,414,0,0
616,610,0,0,0,0,0,0,0,0,0,-1,1840,414,0,0
623,610,0,0,0,0,0,0,0,0,0,-1,1847,414,0,0
630,610,0,0,0,0,0,0,0,0,0,-1,1854,414,0,0
637,610,0,0,0,0,0,0,0,0,0,-1,1861,414,0,0
644,610,0,0,0,0,0,0,0,0,0,-1,1868,414,0,0
651,610,0,0,0,0,0,0,0,0,0,-1,1875,414,0,0
658,610,0,0,0,0,0,0,0,0,0,-1,1882,414,0,0
665,610,0,0,0,0,0,0,0,0,0,-1,1889,414,0,0
672,610,0,0,0,0,0,0,0,0,0,-1,1896,414,0,0
679,610,0,0,0,0,0,0,0,0,0,-1,1903,414,0,0
686,610,0,0,0,0,0,0,0,0,0,-1,1910,414,0,0
693,610,0,0,0,0,0,0,0,0,0,-1,1917,414,0,0
700,610,0,0,0,0,0,0,0,0,0,-1,1924,414,0,0
707,610,0,0,0,0,0,0,0,0,0,-1,1931,414,0,0
714,610,0,0,0,0,0,0,0,0,0,-1,1938,414,0,0
721,610,0,0,0,0,0,0,0,0,0,-1,1945,414,0,0
728,610,0,0,0,0,0,0,0,0,0,-1,1952,414,0,0
735,610,0,0,0,0,0,0,0,0,0,-1,1959,414,0,0
742,610,0,0,0,0,0,0,0,0,0,-1,1966,414,0,0
749,610,0,0,0,0,0,0,0,0,0,-1,1973,414,0,0
756,610,0,0,0,0,0,0,0,0,0,-1,1980,414,0,0
763,610,0,0,0,0,0,0,0,0,0,-1,1987,414,0,0
770,610,0,0,0,0,0,0,0,0,0,-1,1994,414,0,0
777,610,0,0,0,0,0,0,0,0,0,-1,2001,414,0,0
784,610,0,0,0,0,0,0,0,0,0,-1,2008,414,0,0
791,610,0,0,0,0,0,0,0,0,0,-1,2015,414,0,0
798,610,0,0,0,0,0,0,0,0,0,-1,2022,414,0,0
805,610,0,0,0,0,0,0,0,0,0,-1,2029,414,0,0
812,610,0,0,0,0,0,0,0,0,0,-1,2036,414,0,0
-700,603,0,0,0,0,0,0,0,0,0,-1,524,421,0,0
-693,603,0,0,0,0,0,0,0,0,0,-1,531,421,0,0
-686,603,0,0,0,0,0,0,0,0,0,-1,538,421,0,0
-679,603,0,0,0,0,0,0,0,0,0,-1,545,421,0,0
-672,603,0,0,0,0,0,0,0,0,0,-1,552,421,0,0
-665,603,0,0,0,0,0,0,0,0,0,-1,559,421,0,0
-658,603,0,0,0,0,0,0,0,0,0,-1,566,421,0,0
-651,603,0,0,0,0,0,0,0,0,0,-1,573,421,0,0
-644,603,0,0,0,0,0,0,0,0,0,-1,580,421,0,0
-637,603,0,0,0,0,0,0,0,0,0,-1,587,421,0,0
-630,603,0,0,0,0,0,0,0,0,0,-1,594,421,0,0
-623,603,0,0,0,0,0,0,0,0,0,-1,601,421,0,0
-616,603,0,0,0,0,0,0,0,0,0,-1,608,421,0,0
-609,603,0,0,0,0,0,0,0,0,0,-1,615,421,0,0
-602,603,0,0,0,0,0,0,0,0,0,-1,622,421,0,0
-595,603,0,0,0,0,0,0,0,0,0,-1,629,421,0,0
-588,603,0,0,0,0,0,0,0,0,0,-1,636,421,0,0
-581,603,0,0,0,0,0,0,0,0,0,-1,643,421,0,0
-574,603,0,0,0,0,0,0,0,0,0,-1,650,421,0,0
-567,603,0,0,0,0,0,0,0,0,0,-1,657,421,0,0
-560,603,0,0,0,0,0,0,0,0,0,-1,664,421,0,0
-553,603,0,0,0,0,0,0,0,0,0,-1,671,421,0,0
-546,603,0,0,0,0,0,0,0,0,0,-1,678,421,0,0
-539,603,0,0,0,0,0,0,0,0,0,-1,685,421,0,0
-532,603,0,0,0,0,0,0,0,0,0,-1,692,421,0,0
-525,603,0,0,0,0,0,0,0,0,0,-1,699,421,0,0
-518,603,0,0,0,0,0,0,0,0,0,-1,706,421,0,0
-511,603,0,0,0,0,0,0,0,0,0,-1,713,421,0,0
-504,603,0,0,0,0,0,0,0,0,0,-1,720,421,0,0
-497,603,0,0,0,0,0,0,0,0,0,-1,727,421,0,0
-490,603,0,0,0,0,0,0,0,0,0,-1,734,421,0,0
-483,603,0,0,0,0,0,0,0,0,0,-1,741,421,0,0
-476,603,0,0,0,0,0,0,0,0,0,-1,748,421,0,0
-469,603,0,0,0,0,0,0,0,0,0,-1,755,421,0,0
-462,603,0,0,0,0,0,0,0,0,0,-1,762,421,0,0
-455,603,0,0,0,0,0,0,0,0,0,-1,769,421,0,0
-448,603,0,0,0,0,0,0,0,0,0,-1,776,421,0,0
-441,603,0,0,0,0,0,0,0,0,0,-1,783,421,0,0
-434,603,0,0,0,0,0,0,0,0,0,-1,790,421,0,0
-427,603,0,0,0,0,0,0,0,0,0,-1,797,421,0,0
-420,603,0,0,0,0,0,0,0,0,0,-1,804,421,0,0
-413,603,0,0,0,0,0,0,0,0,0,-1,811,421,0,0
-406,603,0,0,0,0,0,0,0,0,0,-1,818,421,0,0
-399,603,0,0,0,0,0,0,0,0,0,-1,825,421,0,0
-392,603,0,0,0,0,0,0,0,0,0,-1,832,421,0,0
-385,603,0,0,0,0,0,0,0,0,0,-1,839,421,0,0
-378,603,0,0,0,0,0,0,0,0,0,-1,846,421,0,0
-371,603,0,0,0,0,0,0,0,0,0,-1,853,421,0,0
-364,603,0,0,0,0,0,0,0,0,0,-1,860,421,0,0
-357,603,0,0,0,0,0,0,0,0,0,-1,867,421,0,0
-350,603,0,0,0,0,0,0,0,0,0,-1,874,421,0,0
-343,603,0,0,0,0,0,0,0,0,0,-1,881,421,0,0
-336,603,0,0,0,0,0,0,0,0,0,-1,888,421,0,0
-329,603,4.09686,-17.9702,0,0,0,0,0,0,0,-1,895,421,4.09687,17.9702
-322,603,8.83179,-28.7376,0,0,0,0,0,0,0,-1,902,421,8.83179,28.7376
-315,603,5.99744,-20.4501,0,0,0,0,0,0,0,-1,909,421,5.99745,20.4501
-308,603,5.92249,-20.778,0,0,0,0,0,0,0,-1,916,421,5.92248,20.778
-301,603,2.72424,-20.9059,0,0,0,0,0,0,0,-1,923,421,2.72424,20.9059
-294,603,2.41553,-20.6767,0,0,0,0,0,0,0,-1,930,421,2.41554,20.6767
-287,603,1.91766,-21.2242,0,0,0,0,0,0,0,-1,937,421,1.91767,21.2242
-280,603,2.36121,-27.3314,0,0,0,0,0,0,0,-1,944,421,2.36119,27.3314
-273,603,7.96613,-34.8225,0,0,0,0,0,0,0,-1,951,421,7.96613,34.8225
-266,603,7.18787,-34.9736,0,0,0,0,0,0,0,-1,958,421,7.18788,34.9736
-259,603,5.44666,-36.8901,0,0,0,0,0,0,0,-1,965,421,5.44664,36.8901
-252,603,7.27246,-79.9079,0,0,0,0,0,0,0,-1,972,421,7.27246,79.9079
-245,603,4.96075,-161.213,0,0,0,0,0,0,0,-1,979,421,4.96073,161.213
-238,603,4.8288,-187.289,0,0,0,0,0,0,0,-1,986,421,4.82878,187.289
-231,603,-13.486,-206.767,0,0,0,0,0,0,0,-1,993,421,-13.486,206.767
-224,603,-13.9653,-210.015,0,0,0,0,0,0,0,-1,1000,421,-13.9653,210.015
-217,603,-14.4927,-212.715,0,0,0,0,0,0,0,-1,1007,421,-14.4927,212.715
-210,603,-14.611,-215.445,0.0370354,0.00302377,0.0146027,0.0424447,-0.00238553,0.354759,0.0291242,0.0438598,1014,421,-14.611,215.445
-203,603,-14.7471,-218.269,0.0390306,0.00255009,0.0165362,0.0454105,-0.00382986,0.36822,0.0316277,0.0366479,1021,421,-14.7471,218.269
-196,603,-14.8433,-220.835,0.041401,0.00213584,0.0180439,0.0484334,-0.00489658,0.371629,0.0340387,0.033039,1028,421,-14.8433,220.835
-189,603,-14.949,-223.324,0.0440703,0.00184794,0.0193098,0.0515694,-0.00565121,0.370431,0.0364098,0.0230321,1035,421,-14.949,223.324
-182,603,-15.118,-225.592,0.0469774,0.000765217,0.020712,0.0549015,-0.00715895,0.365407,0.0392058,0.021107,1042,421,-15.118,225.592
-175,603,-15.1519,-228.012,0.0498794,-0.001042,0.0221181,0.0581449,-0.00930752,0.35763,0.0422093,0.0207756,1049,421,-15.1518,228.012
-168,603,-15.2576,-230.341,0.0531525,-0.00287428,0.0232727,0.0615585,-0.0112802,0.346612,0.04527,0.0208879,1056,421,-15.2576,230.341
-161,603,-15.2791,-232.639,0.0565653,-0.00477688,0.0243509,0.0650565,-0.013268,0.335516,0.0484037,0.0206925,1063,421,-15.2791,232.639
-154,603,-15.1722,-234.772,0.0597061,-0.00661196,0.025501,0.0683779,-0.0152838,0.327792,0.0514424,0.0238016,1070,421,-15.1723,234.772
-147,603,-15.1313,-236.797,0,0,0,0,0,0,0,-1,1077,421,-15.1314,236.797
-140,603,-14.7264,-238.935,0.0656932,-0.00964532,0.0276238,0.0747364,-0.0186885,0.316372,0.0570828,0.0247939,1084,421,-14.7264,238.935
-133,603,-14.6421,-240.916,0.0683383,-0.0111139,0.028436,0.0774667,-0.0202424,0.310626,0.05955,0.0211146,1091,421,-14.6421,240.916
-126,603,-14.4426,-242.802,0.0709716,-0.0123154,0.0288015,0.0799612,-0.021305,0.30254,0.0616487,0.0170819,1098,421,-14.4426,242.802
-119,603,-14.127,-244.602,0.0736594,-0.0132629,0.0296056,0.082785,-0.0223884,0.298997,0.0639723,0.0174457,1105,421,-14.127,244.602
-112,603,-13.8864,-246.483,0.0764808,-0.0139909,0.0304015,0.0857476,-0.0232577,0.295866,0.0662918,0.0269181,1112,421,-13.8864,246.483
-105,603,-13.615,-248.209,0.0792156,-0.0146993,0.0306466,0.0883315,-0.0238152,0.289117,0.0682259,0.0319234,1119,421,-13.615,248.209
-98,603,-13.324,-249.824,0.0824018,-0.0152164,0.0306234,0.0912132,-0.0240278,0.280166,0.0702023,0.0250475,1126,421,-13.3239,249.824
-91,603,-12.8137,-251.444,0.085746,-0.0164057,0.0300218,0.0939159,-0.0245756,0.265696,0.0722101,0.0216344,1133,421,-12.8138,251.444
-84,603,-12.266,-252.996,0.0887199,-0.0177412,0.0288482,0.0960345,-0.0250558,0.24832,0.0738064,0.0257729,1140,421,-12.266,252.996
-77,603,-11.6667,-254.603,0.0920649,-0.0193336,0.0278197,0.0986259,-0.0258946,0.231609,0.0758697,0.0279129,1147,421,-11.6667,254.603
-70,603,-11.4712,-256.22,0,0,0,0,0,0,0,-1,1154,421,-11.4712,256.22
-63,603,-10.8785,-256.789,0,0,0,0,0,0,0,-1,1161,421,-10.8785,256.789
-56,603,-10.437,-258.105,0,0,0,0,0,0,0,-1,1168,421,-10.437,258.105
-49,603,-9.625,-259.619,0,0,0,0,0,0,0,-1,1175,421,-9.625,259.618
-42,603,-8.87732,-260.69,0,0,0,0,0,0,0,-1,1182,421,-8.87737,260.69
-35,603,-8.06641,-261.65,0,0,0,0,0,0,0,-1,1189,421,-8.06639,261.65
-28,603,-7.22144,-262.767,0,0,0,0,0,0,0,-1,1196,421,-7.22138,262.767
-21,603,-6.6698,-263.657,0,0,0,0,0,0,0,-1,1203,421,-6.66979,263.657
-14,603,-6.05823,-264.359,0,0,0,0,0,0,0,-1,1210,421,-6.0582,264.359
-7,603,-5.35632,-265.295,0,0,0,0,0,0,0,-1,1217,421,-5.35633,265.295
0,603,-4.53491,-266.295,0,0,0,0,0,0,0,-1,1224,421,-4.5349,266.295
7,603,-3.93799,-266.733,0,0,0,0,0,0,0,-1,1231,421,-3.938,266.733
14,603,-0.694214,-266.146,0,0,0,0,0,0,0,-1,1238,421,-0.694213,266.146
21,603,1.14038,-238.37,0,0,0,0,0,0,0,-1,1245,421,1.14033,238.37
28,603,-0.625732,-267.72,0,0,0,0,0,0,0,-1,1252,421,-0.625711,267.72
35,603,0.574951,-267.846,0,0,0,0,0,0,0,-1,1259,421,0.574933,267.846
42,603,1.30798,-267.534,0,0,0,0,0,0,0,-1,1266,421,1.30796,267.534
49,603,1.7384,-267.486,0,0,0,0,0,0,0,-1,1273,421,1.73837,267.486
56,603,2.25146,-267.887,0,0,0,0,0,0,0,-1,1280,421,2.2515,267.887
63,603,0.912598,-267.009,0,0,0,0,0,0,0,-1,1287,421,0.912579,267.009
70,603,-0.823364,-266.209,0,0,0,0,0,0,0,-1,1294,421,-0.823404,266.209
77,603,-1.92297,-265.757,0,0,0,0,0,0,0,-1,1301,421,-1.92299,265.757
84,603,9.05786,-106.929,0,0,0,0,0,0,0,-1,1308,421,9.05781,106.929
91,603,6.18372,-268.614,0,0,0,0,0,0,0,-1,1315,421,6.18373,268.614
98,603,6.91943,-268.754,0,0,0,0,0,0,0,-1,1322,421,6.9194,268.754
105,603,9.34265,-267.696,0,0,0,0,0,0,0,-1,1329,421,9.34266,267.696
112,603,10.2844,-266.961,0,0,0,0,0,0,0,-1,1336,421,10.2844,266.961
119,603,10.8644,-266.345,0,0,0,0,0,0,0,-1,1343,421,10.8644,266.345
126,603,9.06384,-217.198,0,0,0,0,0,0,0,-1,1350,421,9.0639,217.198
133,603,11.7598,-265.349,0,0,0,0,0,0,0,-1,1357,421,11.7597,265.349
140,603,13.7725,-264.596,0,0,0,0,0,0,0,-1,1364,421,13.7724,264.596
147,603,13.9773,-263.454,0,0,0,0,0,0,0,-1,1371,421,13.9773,263.454
154,603,14.6687,-262.706,0,0,0,0,0,0,0,-1,1378,421,14.6686,262.706
161,603,15.287,-261.813,0,0,0,0,0,0,0,-1,1385,421,15.287,261.813
168,603,16.1671,-260.71,0,0,0,0,0,0,0,-1,1392,421,16.1671,260.71
175,603,16.7494,-259.525,0,0,0,0,0,0,0,-1,1399,421,16.7493,259.525
182,603,17.5936,-258.436,0,0,0,0,0,0,0,-1,1406,421,17.5936,258.436
189,603,18.4877,-257.081,0,0,0,0,0,0,0,-1,1413,421,18.4877,257.081
196,603,19.1389,-255.858,0,0,0,0,0,0,0,-1,1420,421,19.1389,255.858
203,603,20.0746,-254.638,0,0,0,0,0,0,0,-1,1427,421,20.0746,254.638
210,603,20.3109,-253.489,0,0,0,0,0,0,0,-1,1434,421,20.3109,253.489
217,603,20.5297,-251.855,0.109523,-0.0241588,-0.0277474,0.115054,-0.0296894,-0.196739,0.0882791,0.0294711,1441,421,20.5297,251.855
224,603,21.543,-250.177,0.107542,-0.0213392,-0.0286546,0.113626,-0.027423,-0.209205,0.0863554,0.0354235,1448,421,21.543,250.177
231,603,22.1022,-248.634,0.105165,-0.0187627,-0.0292582,0.111726,-0.025323,-0.220573,0.0842037,0.0245941,1455,421,22.1022,248.634
238,603,22.4163,-246.923,0.101662,-0.0163907,-0.029564,0.108652,-0.0233806,-0.232169,0.0813557,0.0263549,1462,421,22.4163,246.923
245,603,22.9208,-245.161,0.0976993,-0.0143272,-0.0294133,0.104952,-0.0215803,-0.241768,0.0781611,0.0257036,1469,421,22.9207,245.161
252,603,23.3462,-243.268,0.0937895,-0.0119679,-0.0293262,0.101377,-0.0195556,-0.253182,0.0749585,0.0181423,1476,421,23.3462,243.268
259,603,23.7552,-241.318,0.0903268,-0.00987743,-0.0293302,0.0982806,-0.0178312,-0.264811,0.0722018,0.0182635,1483,421,23.7552,241.318
266,603,24.048,-239.297,0.0864804,-0.00759666,-0.0292522,0.0948343,-0.0159505,-0.278175,0.0691556,0.0203639,1490,421,24.048,239.297
273,603,24.3025,-237.248,0.0822946,-0.0050173,-0.0291535,0.0911341,-0.0138568,-0.294394,0.0658626,0.0189368,1497,421,24.3024,237.248
280,603,24.4618,-235.09,0.0782605,-0.00247682,-0.0288231,0.0874943,-0.0117106,-0.310029,0.0625992,0.0277723,1504,421,24.4618,235.09
287,603,24.6434,-232.862,0.07442,-0.000248944,-0.0283507,0.0839644,-0.00979333,-0.324736,0.0595099,0.0414143,1511,421,24.6435,232.862
294,603,24.9146,-230.646,0.0704108,0.00194493,-0.0276483,0.0801815,-0.0078258,-0.339695,0.0562447,0.0327397,1518,421,24.9145,230.646
301,603,25.0288,-228.393,0.0666315,0.00419018,-0.0265823,0.0764151,-0.00559344,-0.352663,0.0529065,0.0363654,1525,421,25.0288,228.393
308,603,25.0646,-225.965,0,0,0,0,0,0,0,-1,1532,421,25.0646,225.965
315,603,24.9503,-223.351,0.0592917,0.00866179,-0.0230499,0.0682133,-0.00025982,-0.369299,0.0455624,0.0378023,1539,421,24.9504,223.351
322,603,24.8778,-220.807,0.055658,0.0107237,-0.0206594,0.0637127,0.00266897,-0.371753,0.041614,0.0379677,1546,421,24.8777,220.807
329,603,24.8872,-218.243,0.0521249,0.0127836,-0.0179137,0.0590594,0.00584908,-0.369342,0.0375753,0.0281976,1553,421,24.8872,218.243
336,603,24.9302,-215.814,0,0,0,0,0,0,0,-1,1560,421,24.9302,215.814
343,603,24.42,-212.922,0,0,0,0,0,0,0,-1,1567,421,24.42,212.922
350,603,24.0364,-209.986,0,0,0,0,0,0,0,-1,1574,421,24.0364,209.986
357,603,23.7478,-206.915,0,0,0,0,0,0,0,-1,1581,421,23.7478,206.915
364,603,23.3397,-203.412,0,0,0,0,0,0,0,-1,1588,421,23.3397,203.412
371,603,3.83484,-189.529,0,0,0,0,0,0,0,-1,1595,421,3.83484,189.529
378,603,1.58484,-170.685,0,0,0,0,0,0,0,-1,1602,421,1.58484,170.685
385,603,10.1917,-79.6275,0,0,0,0,0,0,0,-1,1609,421,10.1917,79.6275
392,603,9.09521,-64.8771,0,0,0,0,0,0,0,-1,1616,421,9.09525,64.8771
399,603,8.90503,-65.8219,0,0,0,0,0,0,0,-1,1623,421,8.905,65.8219
406,603,10.679,-50.994,0,0,0,0,0,0,0,-1,1630,421,10.6789,50.994
413,603,7.74963,-48.7354,0,0,0,0,0,0,0,-1,1637,421,7.74968,48.7354
420,603,10.0659,-47.2677,0,0,0,0,0,0,0,-1,1644,421,10.0659,47.2677
427,603,10.1735,-46.1418,0,0,0,0,0,0,0,-1,1651,421,10.1735,46.1418
434,603,8.01489,-22.5655,0,0,0,0,0,0,0,-1,1658,421,8.01493,22.5655
441,603,8.00122,-22.3072,0,0,0,0,0,0,0,-1,1665,421,8.00116,22.3071
448,603,1.14355,-4.59842,0,0,0,0,0,0,0,-1,1672,421,1.14355,4.59841
455,603,0,0,0,0,0,0,0,0,0,-1,1679,421,0,0
462,603,0,0,0,0,0,0,0,0,0,-1,1686,421,0,0
469,603,0,0,0,0,0,0,0,0,0,-1,1693,421,0,0
476,603,0,0,0,0,0,0,0,0,0,-1,1700,421,0,0
483,603,0,0,0,0,0,0,0,0,0,-1,1707,421,0,0
490,603,0,0,0,0,0,0,0,0,0,-1,1714,421,0,0
497,603,0,0,0,0,0,0,0,0,0,-1,1721,421,0,0
504,603,0,0,0,0,0,0,0,0,0,-1,1728,421,0,0
511,603,0,0,0,0,0,0,0,0,0,-1,1735,421,0,0
518,603,0,0,0,0,0,0,0,0,0,-1,1742,421,0,0
525,603,0,0,0,0,0,0,0,0,0,-1,1749,421,0,0
532,603,0,0,0,0,0,0,0,0,0,-1,1756,421,0,0
539,603,0,0,0,0,0,0,0,0,0,-1,1763,421,0,0
546,603,0,0,0,0,0,0,0,0,0,-1,1770,421,0,0
553,603,0,0,0,0,0,0,0,0,0,-1,1777,421,0,0
560,603,0,0,0,0,0,0,0,0,0,-1,1784,421,0,0
567,603,0,0,0,0,0,0,0,0,0,-1,1791,421,0,0
574,603,0,0,0,0,0,0,0,0,0,-1,1798,421,0,0
581,603,0,0,0,0,0,0,0,0,0,-1,1805,421,0,0
588,603,0,0,0,0,0,0,0,0,0,-1,1812,421,0,0
595,603,0,0,0,0,0,0,0,0,0,-1,1819,421,0,0
602,603,0,0,0,0,0,0,0,0,0,-1,1826,421,0,0
609,603,0,0,0,0,0,0,0,0,0,-1,1833,421,0,0
616,603,0,0,0,0,0,0,0,0,0,-1,1840,421,0,0
623,603,0,0,0,0,0,0,0,0,0,-1,1847,421,0,0
630,603,0,0,0,0,0,0,0,0,0,-1,1854,421,0,0
637,603,0,0,0,0,0,0,0,0,0,-1,1861,421,0,0
644,603,0,0,0,0,0,0,0,0,0,-1,1868,421,0,0
651,603,0,0,0,0,0,0,0,0,0,-1,1875,421,0,0
658,603,0,0,0,0,0,0,0,0,0,-1,1882,421,0,0
665,603,0,0,0,0,0,0,0,0,0,-1,1889,421,0,0
672,603,0,0,0,0,0,0,0,0,0,-1,1896,421,0,0
679,603,0,0,0,0,0,0,0,0,0,-1,1903,421,0,0
686,603,0,0,0,0,0,0,0,0,0,-1,1910,421,0,0
693,603,0,0,0,0,0,0,0,0,0,-1,1917,421,0,0
700,603,0,0,0,0,0,0,0,0,0,-1,1924,421,0,0
707,603,0,0,0,0,0,0,0,0,0,-1,1931,421,0,0
714,603,0,0,0,0,0,0,0,0,0,-1,1938,421,0,0
721,603,0,0,0,0,0,0,0,0,0,-1,1945,421,0,0
728,603,0,0,0,0,0,0,0,0,0,-1,1952,421,0,0
735,603,0,0,0,0,0,0,0,0,0,-1,1959,421,0,0
742,603,0,0,0,0,0,0,0,0,0,-1,1966,421,0,0
749,603,0,0,0,0,0,0,0,0,0,-1,1973,421,0,0
756,603,0,0,0,0,0,0,0,0,0,-1,1980,421,0,0
763,603,0,0,0,0,0,0,0,0,0,-1,1987,421,0,0
770,603,0,0,0,0,0,0,0,0,0,-1,1994,421,0,0
777,603,0,0,0,0,0,0,0,0,0,-1,2001,421,0,0
784,603,0,0,0,0,0,0,0,0,0,-1,2008,421,0,0
791,603,0,0,0,0,0,0,0,0,0,-1,2015,421,0,0
798,603,0,0,0,0,0,0,0,0,0,-1,2022,421,0,0
805,603,0,0,0,0,0,0,0,0,0,-1,2029,421,0,0
812,603,0,0,0,0,0,0,0,0,0,-1,2036,421,0,0
-700,596,0,0,0,0,0,0,0,0,0,-1,524,428,0,0
-693,596,0,0,0,0,0,0,0,0,0,-1,531,428,0,0
-686,596,0,0,0,0,0,0,0,0,0,-1,538,428,0,0
-679,596,0,0,0,0,0,0,0,0,0,-1,545,428,0,0
-672,596,0,0,0,0,0,0,0,0,0,-1,552,428,0,0
-665,596,0,0,0,0,0,0,0,0,0,-1,559,428,0,0
-658,596,0,0,0,0,0,0,0,0,0,-1,566,428,0,0
-651,596,0,0,0,0,0,0,0,0,0,-1,573,428,0,0
-644,596,0,0,0,0,0,0,0,0,0,-1,580,428,0,0
-637,596,0,0,0,0,0,0,0,0,0,-1,587,428,0,0
-630,596,0,0,0,0,0,0,0,0,0,-1,594,428,0,0
-623,596,0,0,0,0,0,0,0,0,0,-1,601,428,0,0
-616,596,0,0,0,0,0,0,0,0,0,-1,608,428,0,0
-609,596,0,0,0,0,0,0,0,0,0,-1,615,428,0,0
-602,596,0,0,0,0,0,0,0,0,0,-1,622,428,0,0
-595,596,0,0,0,0,0,0,0,0,0,-1,629,428,0,0
-588,596,0,0,0,0,0,0,0,0,0,-1,636,428,0,0
-581,596,0,0,0,0,0,0,0,0,0,-1,643,428,0,0
-574,596,0,0,0,0,0,0,0,0,0,-1,650,428,0,0
-567,596,0,0,0,0,0,0,0,0,0,-1,657,428,0,0
-560,596,0,0,0,0,0,0,0,0,0,-1,664,428,0,0
-553,596,0,0,0,0,0,0,0,0,0,-1,671,428,0,0
-546,596,0,0,0,0,0,0,0,0,0,-1,678,428,0,0
-539,596,0,0,0,0,0,0,0,0,0,-1,685,428,0,0
-532,596,0,0,0,0,0,0,0,0,0,-1,692,428,0,0
-525,596,0,0,0,0,0,0,0,0,0,-1,699,428,0,0
-518,596,0,0,0,0,0,0,0,0,0,-1,706,428,0,0
-511,596,0,0,0,0,0,0,0,0,0,-1,713,428,0,0
-504,596,0,0,0,0,0,0,0,0,0,-1,720,428,0,0
-497,596,0,0,0,0,0,0,0,0,0,-1,727,428,0,0
-490,596,0,0,0,0,0,0,0,0,0,-1,734,428,0,0
-483,596,0,0,0,0,0,0,0,0,0,-1,741,428,0,0
-476,596,0,0,0,0,0,0,0,0,0,-1,748,428,0,0
-469,596,0,0,0,0,0,0,0,0,0,-1,755,428,0,0
-462,596,0,0,0,0,0,0,0,0,0,-1,762,428,0,0
-455,596,0,0,0,0,0,0,0,0,0,-1,769,428,0,0
-448,596,0,0,0,0,0,0,0,0,0,-1,776,428,0,0
-441,596,0,0,0,0,0,0,0,0,0,-1,783,428,0,0
-434,596,0,0,0,0,0,0,0,0,0,-1,790,428,0,0
-427,596,0,0,0,0,0,0,0,0,0,-1,797,428,0,0
-420,596,0,0,0,0,0,0,0,0,0,-1,804,428,0,0
-413,596,0,0,0,0,0,0,0,0,0,-1,811,428,0,0
-406,596,0,0,0,0,0,0,0,0,0,-1,818,428,0,0
-399,596,0,0,0,0,0,0,0,0,0,-1,825,428,0,0
-392,596,0,0,0,0,0,0,0,0,0,-1,832,428,0,0
-385,596,0,0,0,0,0,0,0,0,0,-1,839,428,0,0
-378,596,0,0,0,0,0,0,0,0,0,-1,846,428,0,0
-371,596,0,0,0,0,0,0,0,0,0,-1,853,428,0,0
-364,596,0,0,0,0,0,0,0,0,0,-1,860,428,0,0
-357,596,0,0,0,0,0,0,0,0,0,-1,867,428,0,0
-350,596,0,0,0,0,0,0,0,0,0,-1,874,428,0,0
-343,596,0,0,0,0,0,0,0,0,0,-1,881,428,0,0
-336,596,6.81445,-30.5258,0,0,0,0,0,0,0,-1,888,428,6.81446,30.5258
-329,596,6.84772,-28.9253,0,0,0,0,0,0,0,-1,895,428,6.84773,28.9253
-322,596,6.97449,-27.9047,0,0,0,0,0,0,0,-1,902,428,6.97451,27.9047
-315,596,7.10132,-26.8841,0,0,0,0,0,0,0,-1,909,428,7.10129,26.8841
-308,596,0.254761,-20.841,0,0,0,0,0,0,0,-1,916,428,0.254731,20.841
-301,596,3.43213,-26.756,0,0,0,0,0,0,0,-1,923,428,3.43214,26.756
-294,596,4.1767,-27.6454,0,0,0,0,0,0,0,-1,930,428,4.17667,27.6454
-287,596,4.36041,-27.6119,0,0,0,0,0,0,0,-1,937,428,4.3604,27.6119
-280,596,5.96619,-42.5634,0,0,0,0,0,0,0,-1,944,428,5.96616,42.5634
-273,596,6.43732,-79.1028,0,0,0,0,0,0,0,-1,951,428,6.43729,79.1027
-266,596,5.98578,-80.1731,0,0,0,0,0,0,0,-1,958,428,5.98578,80.1731
-259,596,4.25879,-131.114,0,0,0,0,0,0,0,-1,965,428,4.25878,131.114
-252,596,1.48248,-192.981,0,0,0,0,0,0,0,-1,972,428,1.4825,192.981
-245,596,-15.5375,-201.239,0,0,0,0,0,0,0,-1,979,428,-15.5375,201.239
-238,596,-16.0283,-203.315,0,0,0,0,0,0,0,-1,986,428,-16.0283,203.315
-231,596,-16.4264,-206.503,0.0345725,0.0021672,0.0167036,0.0416408,-0.00490111,0.400311,0.0295301,0.0410955,993,428,-16.4264,206.503
-224,596,-16.7028,-209.484,0.0373468,0.00105414,0.0178941,0.0446855,-0.00628458,0.3892,0.032091,0.0241825,1000,428,-16.7027,209.484
-217,596,-17.1311,-212.206,0.0402463,0.000611427,0.0191746,0.0480042,-0.00714641,0.384456,0.0346316,0.0298604,1007,428,-17.1311,212.206
-210,596,-17.3978,-214.922,0.0428413,0.000194372,0.020504,0.0511,-0.00806431,0.382904,0.0370485,0.0281842,1014,428,-17.3977,214.922
-203,596,-17.4894,-217.69,0.0452915,-0.00070979,0.0220615,0.0541615,-0.00957983,0.38228,0.0396882,0.0289725,1021,428,-17.4894,217.691
-196,596,-17.5205,-220.228,0.0481177,-0.00144961,0.023376,0.0574026,-0.0107345,0.378089,0.042303,0.0264053,1028,428,-17.5205,220.228
-189,596,-17.6861,-222.786,0.0512867,-0.00224798,0.0246445,0.060904,-0.0118653,0.372066,0.0450813,0.0192618,1035,428,-17.6861,222.786
-182,596,-17.7329,-225.049,0.0546489,-0.00375048,0.025981,0.0645342,-0.0136358,0.363568,0.0482151,0.0183648,1042,428,-17.733,225.049
-175,596,-17.707,-227.415,0.0581338,-0.0058828,0.0272589,0.0681681,-0.0159171,0.352717,0.0515764,0.0187419,1049,428,-17.707,227.415
-168,596,-17.8101,-229.79,0.0617299,-0.0079981,0.0282584,0.0717439,-0.0180121,0.340566,0.0548286,0.0237224,1056,428,-17.81,229.79
-161,596,-17.7223,-232.082,0.0652111,-0.0101977,0.029223,0.07521,-0.0201967,0.329672,0.0580553,0.0253116,1063,428,-17.7222,232.082
-154,596,-17.6366,-234.325,0.0684826,-0.0120148,0.0304674,0.0787138,-0.022246,0.323976,0.0612529,0.0311676,1070,428,-17.6365,234.325
-147,596,-17.3519,-236.198,0.071958,-0.0134255,0.0317772,0.0824863,-0.0239538,0.319935,0.0644762,0.0452032,1077,428,-17.3519,236.198
-140,596,-16.9297,-238.228,0.0746875,-0.0146526,0.0328983,0.0854946,-0.0254597,0.317394,0.0671125,0.0492586,1084,428,-16.9297,238.228
-133,596,-16.6371,-240.417,0,0,0,0,0,0,0,-1,1091,428,-16.637,240.417
-126,596,-16.4586,-242.371,0.0799267,-0.0167009,0.0339791,0.090679,-0.0274532,0.306469,0.0713856,0.0196335,1098,428,-16.4587,242.371
-119,596,-16.1201,-244.231,0.082654,-0.0173453,0.0347762,0.0935587,-0.0282501,0.303859,0.0736187,0.0223258,1105,428,-16.1201,244.231
-112,596,-16.0421,-246.001,0.0856164,-0.0175703,0.0356789,0.0967515,-0.0287054,0.302513,0.0759009,0.0250736,1112,428,-16.0421,246.001
-105,596,-15.9171,-247.88,0.088571,-0.0177226,0.0358434,0.0995282,-0.0286798,0.296676,0.077697,0.0390883,1119,428,-15.9171,247.88
-98,596,-15.3977,-249.622,0.0921562,-0.0177318,0.0357576,0.102767,-0.0283427,0.288469,0.0796579,0.0492377,1126,428,-15.3977,249.622
-91,596,-15.036,-251.471,0,0,0,0,0,0,0,-1,1133,428,-15.036,251.471
-84,596,-14.1151,-252.625,0,0,0,0,0,0,0,-1,1140,428,-14.1151,252.625
-77,596,-12.9045,-254.337,0,0,0,0,0,0,0,-1,1147,428,-12.9046,254.337
-70,596,3.50696,-32.137,0,0,0,0,0,0,0,-1,1154,428,3.50696,32.137
-63,596,1.95569,-12.2758,0,0,0,0,0,0,0,-1,1161,428,1.95563,12.2759
-56,596,1.60107,-10.5827,0,0,0,0,0,0,0,-1,1168,428,1.60108,10.5827
-49,596,1.59473,-10.0393,0,0,0,0,0,0,0,-1,1175,428,1.59472,10.0393
-42,596,1.99585,-6.6246,0,0,0,0,0,0,0,-1,1182,428,1.99586,6.62459
-35,596,-9.16663,-261.026,0,0,0,0,0,0,0,-1,1189,428,-9.16662,261.026
-28,596,-8.31604,-262.363,0,0,0,0,0,0,0,-1,1196,428,-8.31607,262.363
-21,596,-6.25891,-262.926,0,0,0,0,0,0,0,-1,1203,428,-6.25895,262.926
-14,596,-6.67065,-264.207,0,0,0,0,0,0,0,-1,1210,428,-6.67062,264.207
-7,596,19.0161,-268.272,0,0,0,0,0,0,0,-1,1217,428,19.0161,268.272
0,596,12.7396,-266.463,0,0,0,0,0,0,0,-1,1224,428,12.7397,266.463
7,596,11.1921,-266.489,0,0,0,0,0,0,0,-1,1231,428,11.1921,266.489
14,596,9.46277,-266.514,0,0,0,0,0,0,0,-1,1238,428,9.46278,266.514
21,596,8.31165,-266.972,0,0,0,0,0,0,0,-1,1245,428,8.3117,266.972
28,596,6.85193,-266.989,0,0,0,0,0,0,0,-1,1252,428,6.85191,266.989
35,596,5.17798,-267.149,0,0,0,0,0,0,0,-1,1259,428,5.17798,267.149
42,596,3.58691,-266.845,0,0,0,0,0,0,0,-1,1266,428,3.5869,266.845
49,596,1.77051,-266.144,0,0,0,0,0,0,0,-1,1273,428,1.77048,266.144
56,596,1.1521,-266.607,0,0,0,0,0,0,0,-1,1280,428,1.15214,266.607
63,596,0.0841064,-266.304,0,0,0,0,0,0,0,-1,1287,428,0.0840848,266.304
70,596,-1.00964,-265.585,0,0,0,0,0,0,0,-1,1294,428,-1.00961,265.585
77,596,-2.10144,-265.169,0,0,0,0,0,0,0,-1,1301,428,-2.10148,265.169
84,596,-3.40894,-264.55,0,0,0,0,0,0,0,-1,1308,428,-3.40893,264.55
91,596,-4.59558,-264.109,0,0,0,0,0,0,0,-1,1315,428,-4.59562,264.109
98,596,-4.89746,-263.675,0,0,0,0,0,0,0,-1,1322,428,-4.89741,263.675
105,596,-5.81958,-262.962,0,0,0,0,0,0,0,-1,1329,428,-5.81953,262.962
112,596,-8.20398,-266.194,0,0,0,0,0,0,0,-1,1336,428,-8.20395,266.194
119,596,-7.12219,-260.6,0,0,0,0,0,0,0,-1,1343,428,-7.12224,260.6
126,596,-2.12634,-128.843,0,0,0,0,0,0,0,-1,1350,428,-2.12635,128.843
133,596,-13.7607,-114.368,0,0,0,0,0,0,0,-1,1357,428,-13.7607,114.368
140,596,-2.68896,-133.173,0,0,0,0,0,0,0,-1,1364,428,-2.68897,133.173
147,596,-4.47974,-92.1547,0,0,0,0,0,0,0,-1,1371,428,-4.4797,92.1547
154,596,-4.78699,-135.457,0,0,0,0,0,0,0,-1,1378,428,-4.78705,135.457
161,596,16.5326,-260.994,0,0,0,0,0,0,0,-1,1385,428,16.5327,260.994
168,596,12.5786,-183.263,0,0,0,0,0,0,0,-1,1392,428,12.5786,183.263
175,596,13.1626,-108.734,0,0,0,0,0,0,0,-1,1399,428,13.1625,108.734
182,596,12.1792,-74.929,0,0,0,0,0,0,0,-1,1406,428,12.1791,74.929
189,596,12.5646,-200.22,0,0,0,0,0,0,0,-1,1413,428,12.5645,200.22
196,596,20.504,-255.127,0,0,0,0,0,0,0,-1,1420,428,20.504,255.127
203,596,20.7091,-254.082,0,0,0,0,0,0,0,-1,1427,428,20.709,254.082
210,596,21.5979,-253.405,0,0,0,0,0,0,0,-1,1434,428,21.5979,253.405
217,596,21.7917,-251.856,0,0,0,0,0,0,0,-1,1441,428,21.7917,251.856
224,596,23.1807,-249.822,0,0,0,0,0,0,0,-1,1448,428,23.1806,249.822
231,596,24.1571,-248.174,0.116811,-0.024231,-0.032037,0.123747,-0.031167,-0.213208,0.0946141,0.0360011,1455,428,24.1571,248.174
238,596,24.4125,-246.44,0.113067,-0.021608,-0.0322827,0.120405,-0.0289466,-0.223523,0.0914589,0.0363605,1462,428,24.4125,246.44
245,596,24.8651,-244.598,0.108924,-0.0194217,-0.0320193,0.116469,-0.0269663,-0.231405,0.0880224,0.03217,1469,428,24.8651,244.598
252,596,25.4347,-242.758,0.104855,-0.0168885,-0.0319363,0.112724,-0.0247576,-0.241587,0.0846176,0.020637,1476,428,25.4347,242.758
259,596,25.9692,-240.888,0.101322,-0.0146614,-0.0320196,0.109575,-0.0229139,-0.252242,0.0817652,0.0212483,1483,428,25.9693,240.888
266,596,26.2681,-238.885,0.0969957,-0.0118029,-0.0319355,0.105677,-0.0204842,-0.265424,0.0781791,0.0206695,1490,428,26.2681,238.885
273,596,26.6243,-236.761,0.092001,-0.00898241,-0.0320623,0.101321,-0.0183021,-0.28288,0.074402,0.0188925,1497,428,26.6242,236.761
280,596,26.8843,-234.598,0.0872875,-0.0062273,-0.031777,0.0970635,-0.0160033,-0.298456,0.0706502,0.0187847,1504,428,26.8842,234.598
287,596,27.1583,-232.343,0.083166,-0.0039047,-0.0313781,0.0932955,-0.0140341,-0.312258,0.0673641,0.0232809,1511,428,27.1583,232.343
294,596,27.4501,-230.116,0.0787926,-0.00149664,-0.0309403,0.0893323,-0.0120363,-0.328316,0.0639457,0.0243896,1518,428,27.4501,230.116
301,596,27.5636,-227.861,0.0744996,0.000899004,-0.0303168,0.0853791,-0.00998059,-0.344549,0.0605212,0.039457,1525,428,27.5635,227.861
308,596,27.4592,-225.45,0,0,0,0,0,0,0,-1,1532,428,27.4592,225.45
315,596,27.7505,-222.797,0,0,0,0,0,0,0,-1,1539,428,27.7505,222.797
322,596,27.7168,-220.513,0.0623454,0.0071871,-0.0261165,0.0727489,-0.00321639,-0.379083,0.0496062,0.0307778,1546,428,27.7169,220.513
329,596,27.694,-217.848,0.0585217,0.00915469,-0.0237292,0.0680778,-0.0004014,-0.382844,0.0455196,0.0217057,1553,428,27.6939,217.848
336,596,27.6122,-215.28,0.0542121,0.0110254,-0.0208756,0.0626531,0.00258443,-0.384249,0.0409345,0.0176383,1560,428,27.6122,215.28
343,596,27.3589,-212.554,0.0488746,0.0135783,-0.0175621,0.0561239,0.00632901,-0.391477,0.0354948,0.0194401,1567,428,27.3588,212.554
350,596,27.0454,-209.619,0.0436788,0.0155979,-0.0140861,0.0495269,0.00974983,-0.39351,0.0302955,0.0197836,1574,428,27.0454,209.619
357,596,26.7507,-206.706,0.0382337,0.0176494,-0.0104617,0.0426172,0.0132659,-0.396783,0.0251825,0.0225009,1581,428,26.7508,206.706
364,596,26.4298,-203.665,0.0322765,0.0197535,-0.00676627,0.0352339,0.0167961,-0.412063,0.0203497,0.0492522,1588,428,26.4298,203.665
371,596,26.0608,-200.635,0,0,0,0,0,0,0,-1,1595,428,26.0608,200.635
378,596,25.5481,-197.844,0,0,0,0,0,0,0,-1,1602,428,25.5481,197.844
385,596,3.64026,-167.129,0,0,0,0,0,0,0,-1,1609,428,3.64024,167.129
392,596,3.25391,-146.365,0,0,0,0,0,0,0,-1,1616,428,3.25394,146.365
399,596,3.38647,-141.819,0,0,0,0,0,0,0,-1,1623,428,3.38653,141.819
406,596,10.4819,-65.187,0,0,0,0,0,0,0,-1,1630,428,10.482,65.187
413,596,12.1365,-50.3984,0,0,0,0,0,0,0,-1,1637,428,12.1364,50.3984
420,596,14.0704,-45.0912,0,0,0,0,0,0,0,-1,1644,428,14.0704,45.0912
427,596,8.40686,-23.8744,0,0,0,0,0,0,0,-1,1651,428,8.40683,23.8744
434,596,5.09753,-22.5213,0,0,0,0,0,0,0,-1,1658,428,5.09755,22.5213
441,596,7.19043,-22.087,0,0,0,0,0,0,0,-1,1665,428,7.19046,22.087
448,596,1.0769,0.0083313,0,0,0,0,0,0,0,-1,1672,428,1.07684,-0.00832231
455,596,2.00769,-1.43329,0,0,0,0,0,0,0,-1,1679,428,2.00765,1.4333
462,596,0,0,0,0,0,0,0,0,0,-1,1686,428,0,0
469,596,0,0,0,0,0,0,0,0,0,-1,1693,428,0,0
476,596,0,0,0,0,0,0,0,0,0,-1,1700,428,0,0
483,596,0,0,0,0,0,0,0,0,0,-1,1707,428,0,0
490,596,0,0,0,0,0,0,0,0,0,-1,1714,428,0,0
497,596,0,0,0,0,0,0,0,0,0,-1,1721,428,0,0
504,596,0,0,0,0,0,0,0,0,0,-1,1728,428,0,0
511,596,0,0,0,0,0,0,0,0,0,-1,1735,428,0,0
518,596,0,0,0,0,0,0,0,0,0,-1,1742,428,0,0
525,596,0,0,0,0,0,0,0,0,0,-1,1749,428,0,0
532,596,0,0,0,0,0,0,0,0,0,-1,1756,428,0,0
539,596,0,0,0,0,0,0,0,0,0,-1,1763,428,0,0
546,596,0,0,0,0,0,0,0,0,0,-1,1770,428,0,0
553,596,0,0,0,0,0,0,0,0,0,-1,1777,428,0,0
560,596,0,0,0,0,0,0,0,0,0,-1,1784,428,0,0
567,596,0,0,0,0,0,0,0,0,0,-1,1791,428,0,0
574,596,0,0,0,0,0,0,0,0,0,-1,1798,428,0,0
581,596,0,0,0,0,0,0,0,0,0,-1,1805,428,0,0
588,596,0,0,0,0,0,0,0,0,0,-1,1812,428,0,0
595,596,0,0,0,0,0,0,0,0,0,-1,1819,428,0,0
602,596,0,0,0,0,0,0,0,0,0,-1,1826,428,0,0
609,596,0,0,0,0,0,0,0,0,0,-1,1833,428,0,0
616,596,0,0,0,0,0,0,0,0,0,-1,1840,428,0,0
623,596,0,0,0,0,0,0,0,0,0,-1,1847,428,0,0
630,596,0,0,0,0,0,0,0,0,0,-1,1854,428,0,0
637,596,0,0,0,0,0,0,0,0,0,-1,1861,428,0,0
644,596,0,0,0,0,0,0,0,0,0,-1,1868,428,0,0
651,596,0,0,0,0,0,0,0,0,0,-1,1875,428,0,0
658,596,0,0,0,0,0,0,0,0,0,-1,1882,428,0,0
665,596,0,0,0,0,0,0,0,0,0,-1,1889,428,0,0
672,596,0,0,0,0,0,0,0,0,0,-1,1896,428,0,0
679,596,0,0,0,0,0,0,0,0,0,-1,1903,428,0,0
686,596,0,0,0,0,0,0,0,0,0,-1,1910,428,0,0
693,596,0,0,0,0,0,0,0,0,0,-1,1917,428,0,0
700,596,0,0,0,0,0,0,0,0,0,-1,1924,428,0,0
707,596,0,0,0,0,0,0,0,0,0,-1,1931,428,0,0
714,596,0,0,0,0,0,0,0,0,0,-1,1938,428,0,0
721,596,0,0,0,0,0,0,0,0,0,-1,1945,428,0,0
728,596,0,0,0,0,0,0,0,0,0,-1,1952,428,0,0
735,596,0,0,0,0,0,0,0,0,0,-1,1959,428,0,0
742,596,0,0,0,0,0,0,0,0,0,-1,1966,428,0,0
749,596,0,0,0,0,0,0,0,0,0,-1,1973,428,0,0
756,596,0,0,0,0,0,0,0,0,0,-1,1980,428,0,0
763,596,0,0,0,0,0,0,0,0,0,-1,1987,428,0,0
770,596,0,0,0,0,0,0,0,0,0,-1,1994,428,0,0
777,596,0,0,0,0,0,0,0,0,0,-1,2001,428,0,0
784,596,0,0,0,0,0,0,0,0,0,-1,2008,428,0,0
791,596,0,0,0,0,0,0,0,0,0,-1,2015,428,0,0
798,596,0,0,0,0,0,0,0,0,0,-1,2022,428,0,0
805,596,0,0,0,0,0,0,0,0,0,-1,2029,428,0,0
812,596,0,0,0,0,0,0,0,0,0,-1,2036,428,0,0
-700,589,0,0,0,0,0,0,0,0,0,-1,524,435,0,0
-693,589,0,0,0,0,0,0,0,0,0,-1,531,435,0,0
-686,589,0,0,0,0,0,0,0,0,0,-1,538,435,0,0
-679,589,0,0,0,0,0,0,0,0,0,-1,545,435,0,0
-672,589,0,0,0,0,0,0,0,0,0,-1,552,435,0,0
-665,589,0,0,0,0,0,0,0,0,0,-1,559,435,0,0
-658,589,0,0,0,0,0,0,0,0,0,-1,566,435,0,0
-651,589,0,0,0,0,0,0,0,0,0,-1,573,435,0,0
-644,589,0,0,0,0,0,0,0,0,0,-1,580,435,0,0
-637,589,0,0,0,0,0,0,0,0,0,-1,587,435,0,0
-630,589,0,0,0,0,0,0,0,0,0,-1,594,435,0,0
-623,589,0,0,0,0,0,0,0,0,0,-1,601,435,0,0
-616,589,0,0,0,0,0,0,0,0,0,-1,608,435,0,0
-609,589,0,0,0,0,0,0,0,0,0,-1,615,435,0,0
-602,589,0,0,0,0,0,0,0,0,0,-1,622,435,0,0
-595,589,0,0,0,0,0,0,0,0,0,-1,629,435,0,0
-588,589,0,0,0,0,0,0,0,0,0,-1,636,435,0,0
-581,589,0,0,0,0,0,0,0,0,0,-1,643,435,0,0
-574,589,0,0,0,0,0,0,0,0,0,-1,650,435,0,0
-567,589,0,0,0,0,0,0,0,0,0,-1,657,435,0,0
-560,589,0,0,0,0,0,0,0,0,0,-1,664,435,0,0
-553,589,0,0,0,0,0,0,0,0,0,-1,671,435,0,0
-546,589,0,0,0,0,0,0,0,0,0,-1,678,435,0,0
-539,589,0,0,0,0,0,0,0,0,0,-1,685,435,0,0
-532,589,0,0,0,0,0,0,0,0,0,-1,692,435,0,0
-525,589,0,0,0,0,0,0,0,0,0,-1,699,435,0,0
-518,589,0,0,0,0,0,0,0,0,0,-1,706,435,0,0
-511,589,0,0,0,0,0,0,0,0,0,-1,713,435,0,0
-504,589,0,0,0,0,0,0,0,0,0,-1,720,435,0,0
-497,589,0,0,0,0,0,0,0,0,0,-1,727,435,0,0
-490,589,0,0,0,0,0,0,0,0,0,-1,734,435,0,0
-483,589,0,0,0,0,0,0,0,0,0,-1,741,435,0,0
-476,589,0,0,0,0,0,0,0,0,0,-1,748,435,0,0
-469,589,0,0,0,0,0,0,0,0,0,-1,755,435,0,0
-462,589,0,0,0,0,0,0,0,0,0,-1,762,435,0,0
-455,589,0,0,0,0,0,0,0,0,0,-1,769,435,0,0
-448,589,0,0,0,0,0,0,0,0,0,-1,776,435,0,0
-441,589,0,0,0,0,0,0,0,0,0,-1,783,435,0,0
-434,589,0,0,0,0,0,0,0,0,0,-1,790,435,0,0
-427,589,0,0,0,0,0,0,0,0,0,-1,797,435,0,0
-420,589,0,0,0,0,0,0,0,0,0,-1,804,435,0,0
-413,589,0,0,0,0,0,0,0,0,0,-1,811,435,0,0
-406,589,0,0,0,0,0,0,0,0,0,-1,818,435,0,0
-399,589,0,0,0,0,0,0,0,0,0,-1,825,435,0,0
-392,589,0,0,0,0,0,0,0,0,0,-1,832,435,0,0
-385,589,0,0,0,0,0,0,0,0,0,-1,839,435,0,0
-378,589,0,0,0,0,0,0,0,0,0,-1,846,435,0,0
-371,589,0,0,0,0,0,0,0,0,0,-1,853,435,0,0
-364,589,0,0,0,0,0,0,0,0,0,-1,860,435,0,0
-357,589,0,0,0,0,0,0,0,0,0,-1,867,435,0,0
-350,589,-0.799927,-20.664,0,0,0,0,0,0,0,-1,874,435,-0.799952,20.664
-343,589,5.15289,-30.4847,0,0,0,0,0,0,0,-1,881,435,5.15291,30.4847
-336,589,5.07684,-29.2368,0,0,0,0,0,0,0,-1,888,435,5.07687,29.2368
-329,589,4.9624,-28.1366,0,0,0,0,0,0,0,-1,895,435,4.96242,28.1366
-322,589,5.10156,-27.065,0,0,0,0,0,0,0,-1,902,435,5.10155,27.065
-315,589,4.22705,-27.9655,0,0,0,0,0,0,0,-1,909,435,4.22705,27.9655
-308,589,4.46698,-29.037,0,0,0,0,0,0,0,-1,916,435,4.46696,29.037
-301,589,4.94867,-33.7458,0,0,0,0,0,0,0,-1,923,435,4.94869,33.7458
-294,589,4.1037,-31.2976,0,0,0,0,0,0,0,-1,930,435,4.10371,31.2976
-287,589,5.97778,-51.672,0,0,0,0,0,0,0,-1,937,435,5.97776,51.672
-280,589,3.64484,-141.037,0,0,0,0,0,0,0,-1,944,435,3.64486,141.037
-273,589,-15.7616,-186.134,0,0,0,0,0,0,0,-1,951,435,-15.7616,186.134
-266,589,-13.2786,-188.804,0,0,0,0,0,0,0,-1,958,435,-13.2786,188.804
-259,589,-17.3662,-193.087,0,0,0,0,0,0,0,-1,965,435,-17.3662,193.087
-252,589,-18.033,-197.429,0,0,0,0,0,0,0,-1,972,435,-18.033,197.429
-245,589,-18.6114,-200.441,0.0336396,0.00442187,0.0194046,0.0433197,-0.0052583,0.462735,0.0307827,0.0361225,979,435,-18.6114,200.441
-238,589,-19.0815,-203.207,0.0365416,0.00253234,0.0208109,0.0464117,-0.00733778,0.442857,0.0336548,0.0283289,986,435,-19.0815,203.207
-231,589,-19.4001,-206.049,0.0392387,0.000510804,0.0221541,0.0492986,-0.00954913,0.42625,0.0364679,0.0256789,993,435,-19.4002,206.049
-224,589,-19.5602,-208.816,0.0422613,-0.00065092,0.0233296,0.0525012,-0.0108908,0.413604,0.0391395,0.0208061,1000,435,-19.5602,208.816
-217,589,-19.9019,-211.64,0.0454266,-0.00134837,0.0244663,0.0558854,-0.0118072,0.403969,0.0417529,0.0208359,1007,435,-19.9019,211.64
-210,589,-20.2092,-214.296,0.04843,-0.00213061,0.0257058,0.0592035,-0.0129042,0.396871,0.0443999,0.0255091,1014,435,-20.2092,214.296
-203,589,-20.2656,-217.028,0.0513464,-0.00340637,0.0270906,0.0624845,-0.0145445,0.390076,0.0472566,0.0212912,1021,435,-20.2656,217.028
-196,589,-20.3254,-219.696,0.0545712,-0.00450282,0.0283377,0.0659666,-0.0158982,0.382339,0.0501247,0.0242467,1028,435,-20.3255,219.696
-189,589,-20.3815,-222.288,0.0582889,-0.00581425,0.0297119,0.069942,-0.0174674,0.373768,0.0534112,0.0253106,1035,435,-20.3815,222.288
-182,589,-20.3601,-224.519,0.0622497,-0.00777085,0.031034,0.0740243,-0.0195455,0.362632,0.056993,0.021714,1042,435,-20.3601,224.519
-175,589,-20.2386,-226.858,0.0664459,-0.0102702,0.0321752,0.0781536,-0.021978,0.348982,0.060768,0.026696,1049,435,-20.2387,226.858
-168,589,-20.3197,-229.177,0.0704026,-0.0126861,0.0330243,0.0819293,-0.0242128,0.335817,0.0642302,0.0221501,1056,435,-20.3198,229.177
-161,589,-20.1554,-231.442,0.0739443,-0.0152199,0.0338734,0.085353,-0.0266286,0.324871,0.067551,0.0220797,1063,435,-20.1554,231.442
-154,589,-19.9589,-233.691,0.0773888,-0.017058,0.0351956,0.0890617,-0.028731,0.320243,0.0709187,0.0276888,1070,435,-19.9589,233.691
-147,589,-19.8107,-235.798,0.0812099,-0.0183613,0.0367233,0.0932887,-0.0304401,0.317768,0.0744434,0.0368422,1077,435,-19.8107,235.798
-140,589,-19.4404,-237.805,0.0838652,-0.019324,0.0379662,0.0963286,-0.0317874,0.317193,0.077033,0.0416742,1084,435,-19.4404,237.805
-133,589,-19.0592,-239.956,0,0,0,0,0,0,0,-1,1091,435,-19.0592,239.956
-126,589,-18.4315,-241.828,0,0,0,0,0,0,0,-1,1098,435,-18.4315,241.828
-119,589,-17.9647,-243.715,0,0,0,0,0,0,0,-1,1105,435,-17.9648,243.715
-112,589,-18.1204,-245.521,0,0,0,0,0,0,0,-1,1112,435,-18.1203,245.521
-105,589,-17.9585,-247.475,0,0,0,0,0,0,0,-1,1119,435,-17.9585,247.475
-98,589,-17.7081,-249.658,0,0,0,0,0,0,0,-1,1126,435,-17.7081,249.658
-91,589,3.39563,-37.8231,0,0,0,0,0,0,0,-1,1133,435,3.39565,37.8231
-84,589,2.76538,-22.6013,0,0,0,0,0,0,0,-1,1140,435,2.76539,22.6014
-77,589,2.18152,-14.8023,0,0,0,0,0,0,0,-1,1147,435,2.18155,14.8023
-70,589,1.48267,-9.90961,0,0,0,0,0,0,0,-1,1154,435,1.48264,9.9096
-63,589,0.880127,-5.50586,0,0,0,0,0,0,0,-1,1161,435,0.880186,5.50587
-56,589,-2.78052,-7.28082,0,0,0,0,0,0,0,-1,1168,435,-2.78053,7.28082
-49,589,-0.525757,-2.76703,0,0,0,0,0,0,0,-1,1175,435,-0.525771,2.76702
-42,589,-2.7738,-2.87921,0,0,0,0,0,0,0,-1,1182,435,-2.77383,2.87922
-35,589,-2.55225,-3.27551,0,0,0,0,0,0,0,-1,1189,435,-2.55223,3.27552
-28,589,-0.0632324,-3.42938,0,0,0,0,0,0,0,-1,1196,435,-0.063241,3.42938
-21,589,18.5024,-269.735,0,0,0,0,0,0,0,-1,1203,435,18.5024,269.735
-14,589,16.5924,-268.635,0,0,0,0,0,0,0,-1,1210,435,16.5924,268.635
-7,589,14.6824,-267.534,0,0,0,0,0,0,0,-1,1217,435,14.6823,267.534
0,589,13.7198,-267.567,0,0,0,0,0,0,0,-1,1224,435,13.7198,267.567
7,589,12.2334,-267.363,0,0,0,0,0,0,0,-1,1231,435,12.2334,267.363
14,589,10.4368,-267.061,0,0,0,0,0,0,0,-1,1238,435,10.4367,267.061
21,589,8.86182,-266.967,0,0,0,0,0,0,0,-1,1245,435,8.86178,266.967
28,589,7.36011,-266.911,0,0,0,0,0,0,0,-1,1252,435,7.36011,266.911
35,589,5.64258,-266.62,0,0,0,0,0,0,0,-1,1259,435,5.6426,266.62
42,589,3.68628,-266.209,0,0,0,0,0,0,0,-1,1266,435,3.68624,266.209
49,589,2.47046,-266.038,0,0,0,0,0,0,0,-1,1273,435,2.47047,266.038
56,589,1.31873,-265.898,0,0,0,0,0,0,0,-1,1280,435,1.31873,265.898
63,589,0.204346,-265.787,0,0,0,0,0,0,0,-1,1287,435,0.204294,265.787
70,589,-1.11279,-264.774,0,0,0,0,0,0,0,-1,1294,435,-1.11279,264.774
77,589,-2.39685,-264.305,0,0,0,0,0,0,0,-1,1301,435,-2.39689,264.305
84,589,-3.53528,-263.815,0,0,0,0,0,0,0,-1,1308,435,-3.53533,263.815
91,589,-4.69348,-263.301,0,0,0,0,0,0,0,-1,1315,435,-4.69348,263.301
98,589,-5.26196,-262.537,0,0,0,0,0,0,0,-1,1322,435,-5.26195,262.537
105,589,-6.19629,-261.819,0,0,0,0,0,0,0,-1,1329,435,-6.19631,261.819
112,589,-6.95129,-261.36,0,0,0,0,0,0,0,-1,1336,435,-6.95123,261.36
119,589,-7.5708,-260.411,0,0,0,0,0,0,0,-1,1343,435,-7.57081,260.411
126,589,-8.27942,-259.517,0,0,0,0,0,0,0,-1,1350,435,-8.27936,259.517
133,589,-8.21643,-264.302,0,0,0,0,0,0,0,-1,1357,435,-8.2164,264.302
140,589,-9.66895,-264.728,0,0,0,0,0,0,0,-1,1364,435,-9.66891,264.728
147,589,-3.672,-133.969,0,0,0,0,0,0,0,-1,1371,435,-3.67202,133.969
154,589,-4.3866,-135.404,0,0,0,0,0,0,0,-1,1378,435,-4.38657,135.404
161,589,-4.89026,-137.749,0,0,0,0,0,0,0,-1,1385,435,-4.89027,137.749
168,589,13.689,-82.1438,0,0,0,0,0,0,0,-1,1392,435,13.689,82.1438
175,589,8.66992,-7.65527,0,0,0,0,0,0,0,-1,1399,435,8.66994,7.65528
182,589,3.8136,-2.45389,0,0,0,0,0,0,0,-1,1406,435,3.81363,2.4539
189,589,3.69983,-3.68149,0,0,0,0,0,0,0,-1,1413,435,3.69987,3.68147
196,589,3.31055,-5.31677,0,0,0,0,0,0,0,-1,1420,435,3.31059,5.31678
203,589,2.72559,-8.84338,0,0,0,0,0,0,0,-1,1427,435,2.72558,8.84338
210,589,3.62378,-14.4032,0,0,0,0,0,0,0,-1,1434,435,3.62378,14.4032
217,589,4.65601,-22.3745,0,0,0,0,0,0,0,-1,1441,435,4.65607,22.3745
224,589,6.79028,-33.9412,0,0,0,0,0,0,0,-1,1448,435,6.79028,33.9412
231,589,26.1893,-247.827,0,0,0,0,0,0,0,-1,1455,435,26.1893,247.827
238,589,26.4525,-246.023,0,0,0,0,0,0,0,-1,1462,435,26.4525,246.023
245,589,26.7841,-244.135,0,0,0,0,0,0,0,-1,1469,435,26.7841,244.135
252,589,27.3842,-242.296,0,0,0,0,0,0,0,-1,1476,435,27.3841,242.296
259,589,28.0039,-240.666,0.112487,-0.0192387,-0.0344265,0.120942,-0.0276934,-0.240821,0.0912703,0.044035,1483,435,28.0039,240.666
266,589,28.5306,-238.336,0.107527,-0.0156843,-0.0343226,0.116443,-0.0246002,-0.254151,0.0869962,0.0305917,1490,435,28.5306,238.336
273,589,29.0452,-236.198,0.101593,-0.0126201,-0.0347086,0.111314,-0.0223405,-0.273062,0.0826683,0.0202877,1497,435,29.0452,236.198
280,589,29.327,-234.108,0.096121,-0.00969373,-0.0345115,0.106382,-0.0199547,-0.288995,0.0784237,0.0189888,1504,435,29.3271,234.108
287,589,29.5811,-231.911,0.0917674,-0.00732649,-0.0342499,0.102453,-0.018012,-0.302418,0.0750302,0.0246129,1511,435,29.581,231.911
294,589,29.9598,-229.522,0.08712,-0.00467731,-0.0341444,0.0984274,-0.0159846,-0.319795,0.0715442,0.0351532,1518,435,29.9598,229.522
301,589,30.1603,-226.987,0,0,0,0,0,0,0,-1,1525,435,30.1603,226.987
308,589,27.2095,-224.141,0,0,0,0,0,0,0,-1,1532,435,27.2095,224.141
315,589,30.6085,-222.568,0,0,0,0,0,0,0,-1,1539,435,30.6086,222.568
322,589,30.5934,-219.876,0.0692362,0.00410089,-0.0314922,0.0819721,-0.00863502,-0.384306,0.057742,0.0267763,1546,435,30.5933,219.876
329,589,30.5753,-217.277,0.0652541,0.00608827,-0.0294522,0.0774154,-0.00607304,-0.391592,0.0537491,0.0220574,1553,435,30.5753,217.277
336,589,30.4669,-214.752,0.0609253,0.00785049,-0.0270589,0.072288,-0.00351221,-0.397564,0.0494044,0.017817,1560,435,30.4669,214.752
343,589,30.2813,-212.036,0.0556561,0.010045,-0.0242833,0.0661638,-0.000462662,-0.408385,0.0442643,0.0193296,1567,435,30.2812,212.036
350,589,29.8813,-209.16,0.0504627,0.011948,-0.0213151,0.0599313,0.00247946,-0.418036,0.0391539,0.0253068,1574,435,29.8814,209.16
357,589,29.6479,-206.211,0.0450626,0.0138181,-0.0181744,0.0534062,0.00547442,-0.430385,0.0339269,0.0244333,1581,435,29.6479,206.211
364,589,29.4344,-203.25,0.0390914,0.0156644,-0.0149222,0.0463484,0.00840745,-0.452644,0.0285127,0.020526,1588,435,29.4345,203.25
371,589,29.0358,-200.263,0.0325537,0.0181316,-0.0110285,0.0385194,0.012166,-0.495857,0.0227364,0.0190317,1595,435,29.0358,200.263
378,589,28.6216,-197.197,0.026004,0.0201856,-0.00711078,0.0307777,0.0154119,-0.591223,0.0177695,0.0328512,1602,435,28.6215,197.197
385,589,28.1918,-194.101,0,0,0,0,0,0,0,-1,1609,435,28.1918,194.101
392,589,27.3937,-190.278,0,0,0,0,0,0,0,-1,1616,435,27.3936,190.278
399,589,20.3914,-186.182,0,0,0,0,0,0,0,-1,1623,435,20.3913,186.182
406,589,4.5813,-144.292,0,0,0,0,0,0,0,-1,1630,435,4.58134,144.292
413,589,5.61377,-19.0606,0,0,0,0,0,0,0,-1,1637,435,5.61372,19.0606
420,589,2.79724,-5.79956,0,0,0,0,0,0,0,-1,1644,435,2.7973,5.79955
427,589,10.9475,-45.1117,0,0,0,0,0,0,0,-1,1651,435,10.9475,45.1117
434,589,9.14709,-34.4435,0,0,0,0,0,0,0,-1,1658,435,9.1471,34.4435
441,589,7.85901,-29.8665,0,0,0,0,0,0,0,-1,1665,435,7.85898,29.8666
448,589,0.453735,-3.2868,0,0,0,0,0,0,0,-1,1672,435,0.453701,3.28681
455,589,0.664307,-3.46848,0,0,0,0,0,0,0,-1,1679,435,0.66425,3.46846
462,589,3.46716,-4.41891,0,0,0,0,0,0,0,-1,1686,435,3.4672,4.41891
469,589,0.0238037,-3.81497,0,0,0,0,0,0,0,-1,1693,435,0.0237965,3.81498
476,589,0,0,0,0,0,0,0,0,0,-1,1700,435,0,0
483,589,0,0,0,0,0,0,0,0,0,-1,1707,435,0,0
490,589,0,0,0,0,0,0,0,0,0,-1,1714,435,0,0
497,589,0,0,0,0,0,0,0,0,0,-1,1721,435,0,0
504,589,0,0,0,0,0,0,0,0,0,-1,1728,435,0,0
511,589,0,0,0,0,0,0,0,0,0,-1,1735,435,0,0
518,589,0,0,0,0,0,0,0,0,0,-1,1742,435,0,0
525,589,0,0,0,0,0,0,0,0,0,-1,1749,435,0,0
532,589,0,0,0,0,0,0,0,0,0,-1,1756,435,0,0
539,589,0,0,0,0,0,0,0,0,0,-1,1763,435,0,0
546,589,0,0,0,0,0,0,0,0,0,-1,1770,435,0,0
553,589,0,0,0,0,0,0,0,0,0,-1,1777,435,0,0
560,589,0,0,0,0,0,0,0,0,0,-1,1784,435,0,0
567,589,0,0,0,0,0,0,0,0,0,-1,1791,435,0,0
574,589,0,0,0,0,0,0,0,0,0,-1,1798,435,0,0
581,589,0,0,0,0,0,0,0,0,0,-1,1805,435,0,0
588,589,0,0,0,0,0,0,0,0,0,-1,1812,435,0,0
595,589,0,0,0,0,0,0,0,0,0,-1,1819,435,0,0
602,589,0,0,0,0,0,0,0,0,0,-1,1826,435,0,0
609,589,0,0,0,0,0,0,0,0,0,-1,1833,435,0,0
616,589,0,0,0,0,0,0,0,0,0,-1,1840,435,0,0
623,589,0,0,0,0,0,0,0,0,0,-1,1847,435,0,0
630,589,0,0,0,0,0,0,0,0,0,-1,1854,435,0,0
637,589,0,0,0,0,0,0,0,0,0,-1,1861,435,0,0
644,589,0,0,0,0,0,0,0,0,0,-1,1868,435,0,0
651,589,0,0,0,0,0,0,0,0,0,-1,1875,435,0,0
658,589,0,0,0,0,0,0,0,0,0,-1,1882,435,0,0
665,589,0,0,0,0,0,0,0,0,0,-1,1889,435,0,0
672,589,0,0,0,0,0,0,0,0,0,-1,1896,435,0,0
679,589,0,0,0,0,0,0,0,0,0,-1,1903,435,0,0
686,589,0,0,0,0,0,0,0,0,0,-1,1910,435,0,0
693,589,0,0,0,0,0,0,0,0,0,-1,1917,435,0,0
700,589,0,0,0,0,0,0,0,0,0,-1,1924,435,0,0
707,589,0,0,0,0,0,0,0,0,0,-1,1931,435,0,0
714,589,0,0,0,0,0,0,0,0,0,-1,1938,435,0,0
721,589,0,0,0,0,0,0,0,0,0,-1,1945,435,0,0
728,589,0,0,0,0,0,0,0,0,0,-1,1952,435,0,0
735,589,0,0,0,0,0,0,0,0,0,-1,1959,435,0,0
742,589,0,0,0,0,0,0,0,0,0,-1,1966,435,0,0
749,589,0,0,0,0,0,0,0,0,0,-1,1973,435,0,0
756,589,0,0,0,0,0,0,0,0,0,-1,1980,435,0,0
763,589,0,0,0,0,0,0,0,0,0,-1,1987,435,0,0
770,589,0,0,0,0,0,0,0,0,0,-1,1994,435,0,0
777,589,0,0,0,0,0,0,0,0,0,-1,2001,435,0,0
784,589,0,0,0,0,0,0,0,0,0,-1,2008,435,0,0
791,589,0,0,0,0,0,0,0,0,0,-1,2015,435,0,0
798,589,0,0,0,0,0,0,0,0,0,-1,2022,435,0,0
805,589,0,0,0,0,0,0,0,0,0,-1,2029,435,0,0
812,589,0,0,0,0,0,0,0,0,0,-1,2036,435,0,0
-700,582,0,0,0,0,0,0,0,0,0,-1,524,442,0,0
-693,582,0,0,0,0,0,0,0,0,0,-1,531,442,0,0
-686,582,0,0,0,0,0,0,0,0,0,-1,538,442,0,0
-679,582,0,0,0,0,0,0,0,0,0,-1,545,442,0,0
-672,582,0,0,0,0,0,0,0,0,0,-1,552,442,0,0
-665,582,0,0,0,0,0,0,0,0,0,-1,559,442,0,0
-658,582,0,0,0,0,0,0,0,0,0,-1,566,442,0,0
-651,582,0,0,0,0,0,0,0,0,0,-1,573,442,0,0
-644,582,0,0,0,0,0,0,0,0,0,-1,580,442,0,0
-637,582,0,0,0,0,0,0,0,0,0,-1,587,442,0,0
-630,582,0,0,0,0,0,0,0,0,0,-1,594,442,0,0
-623,582,0,0,0,0,0,0,0,0,0,-1,601,442,0,0
-616,582,0,0,0,0,0,0,0,0,0,-1,608,442,0,0
-609,582,0,0,0,0,0,0,0,0,0,-1,615,442,0,0
-602,582,0,0,0,0,0,0,0,0,0,-1,622,442,0,0
-595,582,0,0,0,0,0,0,0,0,0,-1,629,442,0,0
-588,582,0,0,0,0,0,0,0,0,0,-1,636,442,0,0
-581,582,0,0,0,0,0,0,0,0,0,-1,643,442,0,0
-574,582,0,0,0,0,0,0,0,0,0,-1,650,442,0,0
-567,582,0,0,0,0,0,0,0,0,0,-1,657,442,0,0
-560,582,0,0,0,0,0,0,0,0,0,-1,664,442,0,0
-553,582,0,0,0,0,0,0,0,0,0,-1,671,442,0,0
-546,582,0,0,0,0,0,0,0,0,0,-1,678,442,0,0
-539,582,0,0,0,0,0,0,0,0,0,-1,685,442,0,0
-532,582,0,0,0,0,0,0,0,0,0,-1,692,442,0,0
-525,582,0,0,0,0,0,0,0,0,0,-1,699,442,0,0
-518,582,0,0,0,0,0,0,0,0,0,-1,706,442,0,0
-511,582,0,0,0,0,0,0,0,0,0,-1,713,442,0,0
-504,582,0,0,0,0,0,0,0,0,0,-1,720,442,0,0
-497,582,0,0,0,0,0,0,0,0,0,-1,727,442,0,0
-490,582,0,0,0,0,0,0,0,0,0,-1,734,442,0,0
-483,582,0,0,0,0,0,0,0,0,0,-1,741,442,0,0
-476,582,0,0,0,0,0,0,0,0,0,-1,748,442,0,0
-469,582,0,0,0,0,0,0,0,0,0,-1,755,442,0,0
-462,582,0,0,0,0,0,0,0,0,0,-1,762,442,0,0
-455,582,0,0,0,0,0,0,0,0,0,-1,769,442,0,0
-448,582,0,0,0,0,0,0,0,0,0,-1,776,442,0,0
-441,582,0,0,0,0,0,0,0,0,0,-1,783,442,0,0
-434,582,0,0,0,0,0,0,0,0,0,-1,790,442,0,0
-427,582,0,0,0,0,0,0,0,0,0,-1,797,442,0,0
-420,582,0,0,0,0,0,0,0,0,0,-1,804,442,0,0
-413,582,0,0,0,0,0,0,0,0,0,-1,811,442,0,0
-406,582,0,0,0,0,0,0,0,0,0,-1,818,442,0,0
-399,582,0,0,0,0,0,0,0,0,0,-1,825,442,0,0
-392,582,0,0,0,0,0,0,0,0,0,-1,832,442,0,0
-385,582,0,0,0,0,0,0,0,0,0,-1,839,442,0,0
-378,582,0,0,0,0,0,0,0,0,0,-1,846,442,0,0
-371,582,0,0,0,0,0,0,0,0,0,-1,853,442,0,0
-364,582,0,0,0,0,0,0,0,0,0,-1,860,442,0,0
-357,582,-1.4903,-21.5295,0,0,0,0,0,0,0,-1,867,442,-1.49031,21.5295
-350,582,-0.880859,-19.7966,0,0,0,0,0,0,0,-1,874,442,-0.880885,19.7966
-343,582,0.939941,-19.1705,0,0,0,0,0,0,0,-1,881,442,0.939935,19.1705
-336,582,3.33929,-27.9479,0,0,0,0,0,0,0,-1,888,442,3.33928,27.9479
-329,582,3.63544,-26.4736,0,0,0,0,0,0,0,-1,895,442,3.63546,26.4736
-322,582,3.67145,-27.1796,0,0,0,0,0,0,0,-1,902,442,3.67143,27.1796
-315,582,3.90686,-27.6446,0,0,0,0,0,0,0,-1,909,442,3.90689,27.6446
-308,582,4.07587,-33.1895,0,0,0,0,0,0,0,-1,916,442,4.07588,33.1895
-301,582,4.28662,-65.2938,0,0,0,0,0,0,0,-1,923,442,4.28664,65.2938
-294,582,3.77667,-81.41,0,0,0,0,0,0,0,-1,930,442,3.77669,81.41
-287,582,0.772339,-142.446,0,0,0,0,0,0,0,-1,937,442,0.772344,142.446
-280,582,-18.9465,-182.254,0,0,0,0,0,0,0,-1,944,442,-18.9465,182.254
-273,582,-19.4915,-186.012,0,0,0,0,0,0,0,-1,951,442,-19.4915,186.012
-266,582,-20.2997,-190.06,0,0,0,0,0,0,0,-1,958,442,-20.2998,190.06
-259,582,-20.7118,-193.099,0.0330027,0.0080867,0.0206744,0.0446825,-0.0035931,0.514241,0.0310554,0.0416385,965,442,-20.7118,193.099
-252,582,-21.137,-196.482,0.0364558,0.00470102,0.0228957,0.0484406,-0.0072838,0.482234,0.0349754,0.0201594,972,442,-21.137,196.482
-245,582,-21.668,-199.497,0.0394713,0.00225383,0.0244558,0.0515932,-0.00986806,0.460174,0.038113,0.0193181,979,442,-21.6679,199.497
-238,582,-22.1517,-202.448,0.0421866,0.000521827,0.0258191,0.0545298,-0.0118213,0.445944,0.0408676,0.0262988,986,442,-22.1517,202.448
-231,582,-22.433,-205.274,0.0448956,-0.00131873,0.0271969,0.0574761,-0.0138993,0.43326,0.0436937,0.0216495,993,442,-22.433,205.274
-224,582,-22.616,-208.151,0.0479375,-0.00239106,0.0283668,0.0606931,-0.0151467,0.422577,0.0463435,0.0169939,1000,442,-22.616,208.151
-217,582,-22.8403,-210.92,0.0511726,-0.00320463,0.0293901,0.0640214,-0.0160535,0.412144,0.0489182,0.0191564,1007,442,-22.8403,210.92
-210,582,-23.1437,-213.641,0.0543752,-0.00420592,0.0305627,0.0674168,-0.0172476,0.403325,0.0516625,0.0237252,1014,442,-23.1437,213.641
-203,582,-23.2894,-216.342,0.0575714,-0.00571681,0.0318055,0.070793,-0.0189385,0.393971,0.0546139,0.0263095,1021,442,-23.2893,216.342
-196,582,-23.1053,-219.274,0,0,0,0,0,0,0,-1,1028,442,-23.1053,219.274
-189,582,-22.9797,-221.834,0,0,0,0,0,0,0,-1,1035,442,-22.9797,221.834
-182,582,-23.0208,-224.072,0.0698298,-0.0113288,0.0358513,0.0833985,-0.0248974,0.361809,0.065495,0.0254139,1042,442,-23.0208,224.072
-175,582,-22.838,-226.34,0.0748548,-0.0142284,0.0368408,0.0881163,-0.0274899,0.345527,0.0697376,0.0275777,1049,442,-22.8381,226.34
-168,582,-22.7616,-228.65,0.0792056,-0.0169573,0.0375396,0.0921245,-0.0298762,0.331446,0.0734298,0.0204124,1056,442,-22.7616,228.65
-161,582,-22.6449,-230.823,0.0827654,-0.019847,0.038267,0.0954646,-0.0325462,0.320421,0.0768252,0.0219549,1063,442,-22.6449,230.823
-154,582,-22.3225,-233.021,0.0863889,-0.0217272,0.0396381,0.0993641,-0.0347023,0.316348,0.0803483,0.0309496,1070,442,-22.3225,233.021
-147,582,-22.0643,-235.205,0.0906353,-0.0229561,0.0414233,0.104136,-0.0364572,0.315073,0.0842484,0.0489174,1077,442,-22.0643,235.205
-140,582,-22.0139,-237.375,0,0,0,0,0,0,0,-1,1084,442,-22.014,237.375
-133,582,-21.2761,-239.377,0,0,0,0,0,0,0,-1,1091,442,-21.2762,239.377
-126,582,-20.5612,-241.319,0,0,0,0,0,0,0,-1,1098,442,-20.5612,241.319
-119,582,4.06213,-72.0599,0,0,0,0,0,0,0,-1,1105,442,4.06213,72.0599
-112,582,3.47888,-53.7394,0,0,0,0,0,0,0,-1,1112,442,3.47883,53.7394
-105,582,2.87219,-43.073,0,0,0,0,0,0,0,-1,1119,442,2.87217,43.073
-98,582,2.61938,-32.8673,0,0,0,0,0,0,0,-1,1126,442,2.61944,32.8673
-91,582,2.16492,-24.1119,0,0,0,0,0,0,0,-1,1133,442,2.16496,24.1119
-84,582,2.10278,-16.7533,0,0,0,0,0,0,0,-1,1140,442,2.10279,16.7533
-77,582,2.30212,-11.4907,0,0,0,0,0,0,0,-1,1147,442,2.30207,11.4907
-70,582,1.49255,-6.36548,0,0,0,0,0,0,0,-1,1154,442,1.49251,6.36549
-63,582,-4.62915,-4.0347,0,0,0,0,0,0,0,-1,1161,442,-4.6292,4.03471
-56,582,-5.81714,-5.24149,0,0,0,0,0,0,0,-1,1168,442,-5.81718,5.24149
-49,582,-3.88672,-10.1064,0,0,0,0,0,0,0,-1,1175,442,-3.88678,10.1064
-42,582,-0.948975,1.13968,0,0,0,0,0,0,0,-1,1182,442,-0.949003,-1.13969
-35,582,-2.58435,-3.86911,0,0,0,0,0,0,0,-1,1189,442,-2.58437,3.86912
-28,582,-0.825317,-3.45941,0,0,0,0,0,0,0,-1,1196,442,-0.825377,3.45942
-21,582,19.3571,-271.52,0,0,0,0,0,0,0,-1,1203,442,19.357,271.52
-14,582,17.2961,-269.92,0,0,0,0,0,0,0,-1,1210,442,17.2961,269.92
-7,582,15.1801,-268.39,0,0,0,0,0,0,0,-1,1217,442,15.1801,268.39
0,582,13.0938,-267.039,0,0,0,0,0,0,0,-1,1224,442,13.0937,267.039
7,582,13.5275,-268.569,0,0,0,0,0,0,0,-1,1231,442,13.5274,268.569
14,582,10.6134,-266.904,0,0,0,0,0,0,0,-1,1238,442,10.6134,266.904
21,582,9.4093,-266.96,0,0,0,0,0,0,0,-1,1245,442,9.40932,266.96
28,582,7.87451,-266.827,0,0,0,0,0,0,0,-1,1252,442,7.87455,266.827
35,582,6.10718,-266.091,0,0,0,0,0,0,0,-1,1259,442,6.10722,266.091
42,582,3.82373,-265.576,0,0,0,0,0,0,0,-1,1266,442,3.82375,265.576
49,582,2.42957,-265.508,0,0,0,0,0,0,0,-1,1273,442,2.42953,265.508
56,582,1.27014,-264.992,0,0,0,0,0,0,0,-1,1280,442,1.2702,264.992
63,582,0.108276,-264.483,0,0,0,0,0,0,0,-1,1287,442,0.108292,264.483
70,582,-1.07813,-263.972,0,0,0,0,0,0,0,-1,1294,442,-1.07807,263.972
77,582,-2.28992,-263.433,0,0,0,0,0,0,0,-1,1301,442,-2.28989,263.433
84,582,-3.64539,-263.016,0,0,0,0,0,0,0,-1,1308,442,-3.64544,263.016
91,582,-4.88452,-262.68,0,0,0,0,0,0,0,-1,1315,442,-4.88456,262.68
98,582,-5.77856,-262.134,0,0,0,0,0,0,0,-1,1322,442,-5.77862,262.134
105,582,-6.75623,-261.502,0,0,0,0,0,0,0,-1,1329,442,-6.75627,261.502
112,582,-7.37683,-261.092,0,0,0,0,0,0,0,-1,1336,442,-7.37679,261.092
119,582,-8.03418,-260.175,0,0,0,0,0,0,0,-1,1343,442,-8.03412,260.175
126,582,-8.68335,-259.349,0,0,0,0,0,0,0,-1,1350,442,-8.68333,259.349
133,582,-9.32361,-262.754,0,0,0,0,0,0,0,-1,1357,442,-9.32356,262.754
140,582,-10.2118,-264.181,0,0,0,0,0,0,0,-1,1364,442,-10.2117,264.181
147,582,-11.7651,-264.522,0,0,0,0,0,0,0,-1,1371,442,-11.7651,264.522
154,582,-12.8557,-265.3,0,0,0,0,0,0,0,-1,1378,442,-12.8557,265.3
161,582,-4.41931,-137.539,0,0,0,0,0,0,0,-1,1385,442,-4.41927,137.539
168,582,0.081665,-40.4535,0,0,0,0,0,0,0,-1,1392,442,0.0816215,40.4535
175,582,6.50549,-2.00424,0,0,0,0,0,0,0,-1,1399,442,6.50546,2.00425
182,582,5.18958,-2.18652,0,0,0,0,0,0,0,-1,1406,442,5.1896,2.18652
189,582,6.19751,-0.880951,0,0,0,0,0,0,0,-1,1413,442,6.19754,0.88096
196,582,4.87354,-2.22327,0,0,0,0,0,0,0,-1,1420,442,4.87348,2.22325
203,582,3.11401,-4.48257,0,0,0,0,0,0,0,-1,1427,442,3.11404,4.48259
210,582,2.93115,-11.0731,0,0,0,0,0,0,0,-1,1434,442,2.93113,11.0731
217,582,4.94092,-16.5476,0,0,0,0,0,0,0,-1,1441,442,4.94087,16.5476
224,582,5.21008,-20.9908,0,0,0,0,0,0,0,-1,1448,442,5.21006,20.9908
231,582,5.70032,-25.622,0,0,0,0,0,0,0,-1,1455,442,5.70026,25.6221
238,582,6.44189,-30.7028,0,0,0,0,0,0,0,-1,1462,442,6.44195,30.7028
245,582,10.0378,-45.1569,0,0,0,0,0,0,0,-1,1469,442,10.0379,45.1568
252,582,13.8408,-67.8125,0,0,0,0,0,0,0,-1,1476,442,13.8408,67.8125
259,582,29.8931,-240.45,0,0,0,0,0,0,0,-1,1483,442,29.8931,240.45
266,582,30.693,-237.838,0,0,0,0,0,0,0,-1,1490,442,30.6929,237.838
273,582,31.6122,-235.816,0,0,0,0,0,0,0,-1,1497,442,31.6122,235.816
280,582,31.7517,-233.473,0,0,0,0,0,0,0,-1,1504,442,31.7517,233.473
287,582,32.3616,-231.344,0,0,0,0,0,0,0,-1,1511,442,32.3616,231.344
294,582,32.8591,-229.022,0,0,0,0,0,0,0,-1,1518,442,32.8591,229.022
301,582,33.035,-226.481,0,0,0,0,0,0,0,-1,1525,442,33.035,226.481
308,582,33.3455,-224.149,0,0,0,0,0,0,0,-1,1532,442,33.3455,224.149
315,582,33.2996,-221.845,0,0,0,0,0,0,0,-1,1539,442,33.2995,221.845
322,582,33.3536,-219.234,0.076348,0.00149008,-0.0367755,0.0913915,-0.0135534,-0.388296,0.0659116,0.0257179,1546,442,33.3537,219.235
329,582,33.3756,-216.69,0.0723068,0.00356105,-0.0350799,0.087047,-0.0111792,-0.397789,0.0620941,0.0224038,1553,442,33.3756,216.69
336,582,33.2736,-214.07,0.0680087,0.00528194,-0.0331456,0.0822774,-0.00898678,-0.406509,0.0580795,0.0192091,1560,442,33.2736,214.07
343,582,33.1411,-211.235,0.0628494,0.00717806,-0.0308791,0.0765871,-0.0065596,-0.418593,0.0533791,0.0243547,1567,442,33.1412,211.235
350,582,32.9055,-208.331,0.0577059,0.0090613,-0.0283056,0.0707036,-0.0039364,-0.430471,0.0485012,0.0295525,1574,442,32.9056,208.331
357,582,32.7561,-205.398,0.0523722,0.0108491,-0.025495,0.0644898,-0.00126851,-0.443687,0.0434222,0.0259327,1581,442,32.7561,205.398
364,582,32.6061,-202.518,0.046408,0.0125633,-0.0224854,0.0576275,0.00134392,-0.462819,0.0379783,0.0198173,1588,442,32.6061,202.518
371,582,32.2955,-199.528,0.0400525,0.0144594,-0.0189821,0.0501485,0.00436332,-0.488819,0.032077,0.0242548,1595,442,32.2955,199.528
378,582,31.8163,-196.536,0.033769,0.0162082,-0.0153619,0.0426827,0.00729449,-0.525772,0.0263622,0.022976,1602,442,31.8163,196.536
385,582,31.3557,-193.315,0.027865,0.0182862,-0.0114783,0.0355131,0.0106381,-0.58775,0.0210455,0.024573,1609,442,31.3557,193.315
392,582,30.7495,-189.987,0.0237508,0.0214726,-0.00665981,0.0293682,0.0158552,-0.700696,0.0169737,0.0351313,1616,442,30.7495,189.987
399,582,30.0774,-186.871,0,0,0,0,0,0,0,-1,1623,442,30.0774,186.871
406,582,22.9617,-182.932,0,0,0,0,0,0,0,-1,1630,442,22.9617,182.932
413,582,6.4043,-151.33,0,0,0,0,0,0,0,-1,1637,442,6.40426,151.33
420,582,5.51392,-147.772,0,0,0,0,0,0,0,-1,1644,442,5.51396,147.772
427,582,5.48132,-130.472,0,0,0,0,0,0,0,-1,1651,442,5.48131,130.472
434,582,12.3431,-48.7588,0,0,0,0,0,0,0,-1,1658,442,12.3432,48.7588
441,582,10.8484,-36.2891,0,0,0,0,0,0,0,-1,1665,442,10.8484,36.2891
448,582,11.2651,-32.8669,0,0,0,0,0,0,0,-1,1672,442,11.2651,32.8668
455,582,6.4585,-19.4734,0,0,0,0,0,0,0,-1,1679,442,6.45854,19.4734
462,582,5.35022,-19.2616,0,0,0,0,0,0,0,-1,1686,442,5.35025,19.2616
469,582,6.28601,-21.5695,0,0,0,0,0,0,0,-1,1693,442,6.28597,21.5695
476,582,1.93579,-8.53891,0,0,0,0,0,0,0,-1,1700,442,1.93579,8.53892
483,582,0,0,0,0,0,0,0,0,0,-1,1707,442,0,0
490,582,0,0,0,0,0,0,0,0,0,-1,1714,442,0,0
497,582,0,0,0,0,0,0,0,0,0,-1,1721,442,0,0
504,582,0,0,0,0,0,0,0,0,0,-1,1728,442,0,0
511,582,0,0,0,0,0,0,0,0,0,-1,1735,442,0,0
518,582,0,0,0,0,0,0,0,0,0,-1,1742,442,0,0
525,582,0,0,0,0,0,0,0,0,0,-1,1749,442,0,0
532,582,0,0,0,0,0,0,0,0,0,-1,1756,442,0,0
539,582,0,0,0,0,0,0,0,0,0,-1,1763,442,0,0
546,582,0,0,0,0,0,0,0,0,0,-1,1770,442,0,0
553,582,0,0,0,0,0,0,0,0,0,-1,1777,442,0,0
560,582,0,0,0,0,0,0,0,0,0,-1,1784,442,0,0
567,582,0,0,0,0,0,0,0,0,0,-1,1791,442,0,0
574,582,0,0,0,0,0,0,0,0,0,-1,1798,442,0,0
581,582,0,0,0,0,0,0,0,0,0,-1,1805,442,0,0
588,582,0,0,0,0,0,0,0,0,0,-1,1812,442,0,0
595,582,0,0,0,0,0,0,0,0,0,-1,1819,442,0,0
602,582,0,0,0,0,0,0,0,0,0,-1,1826,442,0,0
609,582,0,0,0,0,0,0,0,0,0,-1,1833,442,0,0
616,582,0,0,0,0,0,0,0,0,0,-1,1840,442,0,0
623,582,0,0,0,0,0,0,0,0,0,-1,1847,442,0,0
630,582,0,0,0,0,0,0,0,0,0,-1,1854,442,0,0
637,582,0,0,0,0,0,0,0,0,0,-1,1861,442,0,0
644,582,0,0,0,0,0,0,0,0,0,-1,1868,442,0,0
651,582,0,0,0,0,0,0,0,0,0,-1,1875,442,0,0
658,582,0,0,0,0,0,0,0,0,0,-1,1882,442,0,0
665,582,0,0,0,0,0,0,0,0,0,-1,1889,442,0,0
672,582,0,0,0,0,0,0,0,0,0,-1,1896,442,0,0
679,582,0,0,0,0,0,0,0,0,0,-1,1903,442,0,0
686,582,0,0,0,0,0,0,0,0,0,-1,1910,442,0,0
693,582,0,0,0,0,0,0,0,0,0,-1,1917,442,0,0
700,582,0,0,0,0,0,0,0,0,0,-1,1924,442,0,0
707,582,0,0,0,0,0,0,0,0,0,-1,1931,442,0,0
714,582,0,0,0,0,0,0,0,0,0,-1,1938,442,0,0
721,582,0,0,0,0,0,0,0,0,0,-1,1945,442,0,0
728,582,0,0,0,0,0,0,0,0,0,-1,1952,442,0,0
735,582,0,0,0,0,0,0,0,0,0,-1,1959,442,0,0
742,582,0,0,0,0,0,0,0,0,0,-1,1966,442,0,0
749,582,0,0,0,0,0,0,0,0,0,-1,1973,442,0,0
756,582,0,0,0,0,0,0,0,0,0,-1,1980,442,0,0
763,582,0,0,0,0,0,0,0,0,0,-1,1987,442,0,0
770,582,0,0,0,0,0,0,0,0,0,-1,1994,442,0,0
777,582,0,0,0,0,0,0,0,0,0,-1,2001,442,0,0
784,582,0,0,0,0,0,0,0,0,0,-1,2008,442,0,0
791,582,0,0,0,0,0,0,0,0,0,-1,2015,442,0,0
798,582,0,0,0,0,0,0,0,0,0,-1,2022,442,0,0
805,582,0,0,0,0,0,0,0,0,0,-1,2029,442,0,0
812,582,0,0,0,0,0,0,0,0,0,-1,2036,442,0,0
-700,575,0,0,0,0,0,0,0,0,0,-1,524,449,0,0
-693,575,0,0,0,0,0,0,0,0,0,-1,531,449,0,0
-686,575,0,0,0,0,0,0,0,0,0,-1,538,449,0,0
-679,575,0,0,0,0,0,0,0,0,0,-1,545,449,0,0
-672,575,0,0,0,0,0,0,0,0,0,-1,552,449,0,0
-665,575,0,0,0,0,0,0,0,0,0,-1,559,449,0,0
-658,575,0,0,0,0,0,0,0,0,0,-1,566,449,0,0
-651,575,0,0,0,0,0,0,0,0,0,-1,573,449,0,0
-644,575,0,0,0,0,0,0,0,0,0,-1,580,449,0,0
-637,575,0,0,0,0,0,0,0,0,0,-1,587,449,0,0
-630,575,0,0,0,0,0,0,0,0,0,-1,594,449,0,0
-623,575,0,0,0,0,0,0,0,0,0,-1,601,449,0,0
-616,575,0,0,0,0,0,0,0,0,0,-1,608,449,0,0
-609,575,0,0,0,0,0,0,0,0,0,-1,615,449,0,0
-602,575,0,0,0,0,0,0,0,0,0,-1,622,449,0,0
-595,575,0,0,0,0,0,0,0,0,0,-1,629,449,0,0
-588,575,0,0,0,0,0,0,0,0,0,-1,636,449,0,0
-581,575,0,0,0,0,0,0,0,0,0,-1,643,449,0,0
-574,575,0,0,0,0,0,0,0,0,0,-1,650,449,0,0
-567,575,0,0,0,0,0,0,0,0,0,-1,657,449,0,0
-560,575,0,0,0,0,0,0,0,0,0,-1,664,449,0,0
-553,575,0,0,0,0,0,0,0,0,0,-1,671,449,0,0
-546,575,0,0,0,0,0,0,0,0,0,-1,678,449,0,0
-539,575,0,0,0,0,0,0,0,0,0,-1,685,449,0,0
-532,575,0,0,0,0,0,0,0,0,0,-1,692,449,0,0
-525,575,0,0,0,0,0,0,0,0,0,-1,699,449,0,0
-518,575,0,0,0,0,0,0,0,0,0,-1,706,449,0,0
-511,575,0,0,0,0,0,0,0,0,0,-1,713,449,0,0
-504,575,0,0,0,0,0,0,0,0,0,-1,720,449,0,0
-497,575,0,0,0,0,0,0,0,0,0,-1,727,449,0,0
-490,575,0,0,0,0,0,0,0,0,0,-1,734,449,0,0
-483,575,0,0,0,0,0,0,0,0,0,-1,741,449,0,0
-476,575,0,0,0,0,0,0,0,0,0,-1,748,449,0,0
-469,575,0,0,0,0,0,0,0,0,0,-1,755,449,0,0
-462,575,0,0,0,0,0,0,0,0,0,-1,762,449,0,0
-455,575,0,0,0,0,0,0,0,0,0,-1,769,449,0,0
-448,575,0,0,0,0,0,0,0,0,0,-1,776,449,0,0
-441,575,0,0,0,0,0,0,0,0,0,-1,783,449,0,0
-434,575,0,0,0,0,0,0,0,0,0,-1,790,449,0,0
-427,575,0,0,0,0,0,0,0,0,0,-1,797,449,0,0
-420,575,0,0,0,0,0,0,0,0,0,-1,804,449,0,0
-413,575,0,0,0,0,0,0,0,0,0,-1,811,449,0,0
-406,575,0,0,0,0,0,0,0,0,0,-1,818,449,0,0
-399,575,0,0,0,0,0,0,0,0,0,-1,825,449,0,0
-392,575,0,0,0,0,0,0,0,0,0,-1,832,449,0,0
-385,575,0,0,0,0,0,0,0,0,0,-1,839,449,0,0
-378,575,0,0,0,0,0,0,0,0,0,-1,846,449,0,0
-371,575,0.56897,-3.52304,0,0,0,0,0,0,0,-1,853,449,0.568955,3.52306
-364,575,1.49805,-4.67191,0,0,0,0,0,0,0,-1,860,449,1.49803,4.6719
-357,575,3.15521,-8.29892,0,0,0,0,0,0,0,-1,867,449,3.15521,8.29891
-350,575,-0.825928,-18.5347,0,0,0,0,0,0,0,-1,874,449,-0.825948,18.5347
-343,575,0.465393,-16.3569,0,0,0,0,0,0,0,-1,881,449,0.465397,16.3569
-336,575,3.1994,-17.5725,0,0,0,0,0,0,0,-1,888,449,3.19941,17.5725
-329,575,2.81946,-29.1576,0,0,0,0,0,0,0,-1,895,449,2.81945,29.1576
-322,575,4.28943,-27.9487,0,0,0,0,0,0,0,-1,902,449,4.28944,27.9487
-315,575,6.13507,-35.9424,0,0,0,0,0,0,0,-1,909,449,6.13508,35.9424
-308,575,2.17755,-78.9857,0,0,0,0,0,0,0,-1,916,449,2.17756,78.9857
-301,575,0.565491,-156.994,0,0,0,0,0,0,0,-1,923,449,0.565483,156.994
-294,575,-5.13062,-171.608,0,0,0,0,0,0,0,-1,930,449,-5.13063,171.608
-287,575,-21.432,-178.53,0,0,0,0,0,0,0,-1,937,449,-21.432,178.53
-280,575,-22.4637,-182.266,0,0,0,0,0,0,0,-1,944,449,-22.4637,182.266
-273,575,-23.0478,-185.945,0,0,0,0,0,0,0,-1,951,449,-23.0478,185.945
-266,575,-23.6292,-189.403,0,0,0,0,0,0,0,-1,958,449,-23.6292,189.403
-259,575,-24.0152,-192.553,0.0390514,0.00514494,0.0257412,0.0529206,-0.00872426,0.494199,0.0385192,0.0252279,965,449,-24.0152,192.553
-252,575,-24.4852,-195.622,0.0424177,0.00214626,0.0278189,0.0566235,-0.0120595,0.472132,0.0423451,0.0222376,972,449,-24.4852,195.623
-245,575,-24.8937,-198.613,0.0454479,-1.40642e-05,0.0292918,0.0597939,-0.0143601,0.455425,0.0454125,0.0283375,979,449,-24.8937,198.613
-238,575,-25.259,-201.594,0.0481127,-0.0015502,0.0305574,0.0626558,-0.0160933,0.444205,0.048042,0.026137,986,449,-25.259,201.594
-231,575,-25.5038,-204.572,0.0508833,-0.00312328,0.0318777,0.0656576,-0.0178976,0.433997,0.0507996,0.0230749,993,449,-25.5038,204.572
-224,575,-25.7477,-207.538,0.053953,-0.00404074,0.032999,0.0688851,-0.0189728,0.424932,0.0533836,0.0223114,1000,449,-25.7478,207.538
-217,575,-25.8724,-210.26,0.0572116,-0.00488544,0.0339272,0.0721529,-0.0198268,0.414837,0.0558956,0.0185274,1007,449,-25.8724,210.26
-210,575,-26.0486,-212.944,0.0605573,-0.00601204,0.035046,0.0756057,-0.0210605,0.405584,0.0586972,0.0146721,1014,449,-26.0486,212.944
-203,575,-26.4192,-215.61,0.0639464,-0.00764722,0.0361733,0.0790408,-0.0227416,0.395314,0.0616879,0.0350173,1021,449,-26.4192,215.61
-196,575,-26.7784,-218.176,0,0,0,0,0,0,0,-1,1028,449,-26.7784,218.176
-189,575,-25.8418,-220.895,0,0,0,0,0,0,0,-1,1035,449,-25.8418,220.895
-182,575,-25.7931,-223.279,0.0774256,-0.0143785,0.0403989,0.0926715,-0.0296244,0.360858,0.0736687,0.0245806,1042,449,-25.7931,223.279
-175,575,-25.5361,-225.711,0.0834548,-0.0176618,0.0411972,0.0981142,-0.0323212,0.341864,0.0784353,0.0350039,1049,449,-25.5361,225.711
-168,575,-25.1622,-228.053,0.0882749,-0.0206368,0.0417182,0.102418,-0.0347801,0.32686,0.0823577,0.0347573,1056,449,-25.1623,228.053
-161,575,-25.1035,-230.207,0,0,0,0,0,0,0,-1,1063,449,-25.1036,230.207
-154,575,-24.6843,-232.399,0,0,0,0,0,0,0,-1,1070,449,-24.6843,232.399
-147,575,-24.51,-234.71,0,0,0,0,0,0,0,-1,1077,449,-24.51,234.71
-140,575,1.74573,-82.2679,0,0,0,0,0,0,0,-1,1084,449,1.74574,82.268
-133,575,3.1123,-72.4413,0,0,0,0,0,0,0,-1,1091,449,3.11224,72.4413
-126,575,3.56506,-62.5804,0,0,0,0,0,0,0,-1,1098,449,3.56505,62.5804
-119,575,3.00208,-52.3971,0,0,0,0,0,0,0,-1,1105,449,3.00204,52.3971
-112,575,2.70337,-43.3701,0,0,0,0,0,0,0,-1,1112,449,2.70333,43.3701
-105,575,2.18347,-36.5414,0,0,0,0,0,0,0,-1,1119,449,2.18351,36.5414
-98,575,1.521,-25.6961,0,0,0,0,0,0,0,-1,1126,449,1.52105,25.6961
-91,575,1.60803,-16.4247,0,0,0,0,0,0,0,-1,1133,449,1.60802,16.4247
-84,575,1.16553,-11.9056,0,0,0,0,0,0,0,-1,1140,449,1.16558,11.9056
-77,575,0.205078,-11.2584,0,0,0,0,0,0,0,-1,1147,449,0.205117,11.2584
-70,575,-4.2467,-1.78738,0,0,0,0,0,0,0,-1,1154,449,-4.24674,1.78739
-63,575,-4.52209,-3.48798,0,0,0,0,0,0,0,-1,1161,449,-4.5221,3.48796
-56,575,-5.5968,-5.4928,0,0,0,0,0,0,0,-1,1168,449,-5.59683,5.49281
-49,575,-5.96863,-7.17612,0,0,0,0,0,0,0,-1,1175,449,-5.96868,7.1761
-42,575,-0.830322,0.773499,0,0,0,0,0,0,0,-1,1182,449,-0.83038,-0.77351
-35,575,-0.62085,0.205139,0,0,0,0,0,0,0,-1,1189,449,-0.620855,-0.205126
-28,575,0.49292,-3.87988,0,0,0,0,0,0,0,-1,1196,449,0.492941,3.87989
-21,575,19.9785,-272.322,0,0,0,0,0,0,0,-1,1203,449,19.9785,272.322
-14,575,17.8982,-270.729,0,0,0,0,0,0,0,-1,1210,449,17.8982,270.729
-7,575,15.7484,-269.084,0,0,0,0,0,0,0,-1,1217,449,15.7484,269.084
0,575,13.6565,-267.606,0,0,0,0,0,0,0,-1,1224,449,13.6565,267.606
7,575,12.5558,-266.618,0,0,0,0,0,0,0,-1,1231,449,12.5558,266.618
14,575,11.2036,-266.648,0,0,0,0,0,0,0,-1,1238,449,11.2037,266.648
21,575,9.85486,-266.618,0,0,0,0,0,0,0,-1,1245,449,9.85489,266.618
28,575,8.44885,-266.622,0,0,0,0,0,0,0,-1,1252,449,8.4489,266.622
35,575,4.74756,-265.828,0,0,0,0,0,0,0,-1,1259,449,4.74752,265.828
42,575,3.60706,-265.293,0,0,0,0,0,0,0,-1,1266,449,3.6071,265.293
49,575,2.4342,-264.759,0,0,0,0,0,0,0,-1,1273,449,2.43427,264.759
56,575,1.22473,-264.22,0,0,0,0,0,0,0,-1,1280,449,1.22471,264.22
63,575,0.0327148,-263.716,0,0,0,0,0,0,0,-1,1287,449,0.032739,263.716
70,575,-1.14111,-263.232,0,0,0,0,0,0,0,-1,1294,449,-1.14112,263.231
77,575,-2.30774,-262.717,0,0,0,0,0,0,0,-1,1301,449,-2.30772,262.717
84,575,-3.46423,-262.189,0,0,0,0,0,0,0,-1,1308,449,-3.46419,262.189
91,575,-5.50806,-262.44,0,0,0,0,0,0,0,-1,1315,449,-5.50805,262.44
98,575,-6.24255,-262.197,0,0,0,0,0,0,0,-1,1322,449,-6.24259,262.197
105,575,-7.00342,-261.61,0,0,0,0,0,0,0,-1,1329,449,-7.00343,261.61
112,575,-7.7821,-260.827,0,0,0,0,0,0,0,-1,1336,449,-7.78216,260.827
119,575,-8.45605,-259.974,0,0,0,0,0,0,0,-1,1343,449,-8.45611,259.974
126,575,-9.07544,-259.157,0,0,0,0,0,0,0,-1,1350,449,-9.07548,259.157
133,575,-9.70654,-258.34,0,0,0,0,0,0,0,-1,1357,449,-9.70652,258.34
140,575,-9.57715,-260.532,0,0,0,0,0,0,0,-1,1364,449,-9.57714,260.532
147,575,-12.7744,-256.011,0,0,0,0,0,0,0,-1,1371,449,-12.7744,256.011
154,575,-13.3037,-264.861,0,0,0,0,0,0,0,-1,1378,449,-13.3038,264.861
161,575,-14.5403,-265.619,0,0,0,0,0,0,0,-1,1385,449,-14.5403,265.619
168,575,-4.97888,-77.9566,0,0,0,0,0,0,0,-1,1392,449,-4.97891,77.9566
175,575,4.32617,1.93634,0,0,0,0,0,0,0,-1,1399,449,4.32612,-1.93634
182,575,6.3147,-2.88345,0,0,0,0,0,0,0,-1,1406,449,6.31466,2.88346
189,575,6.10449,-1.30817,0,0,0,0,0,0,0,-1,1413,449,6.10455,1.30817
196,575,5.79895,0.818359,0,0,0,0,0,0,0,-1,1420,449,5.79895,-0.81837
203,575,3.29724,-1.46378,0,0,0,0,0,0,0,-1,1427,449,3.29722,1.46377
210,575,2.32739,-7.74503,0,0,0,0,0,0,0,-1,1434,449,2.32741,7.74502
217,575,3.33618,-11.5521,0,0,0,0,0,0,0,-1,1441,449,3.3362,11.5521
224,575,5.51709,-16.3903,0,0,0,0,0,0,0,-1,1448,449,5.51713,16.3903
231,575,5.48572,-20.4595,0,0,0,0,0,0,0,-1,1455,449,5.48571,20.4595
238,575,5.33484,-22.3575,0,0,0,0,0,0,0,-1,1462,449,5.33478,22.3575
245,575,5.59741,-23.513,0,0,0,0,0,0,0,-1,1469,449,5.5974,23.513
252,575,10.5602,-44.9309,0,0,0,0,0,0,0,-1,1476,449,10.5602,44.9309
259,575,12.6493,-57.551,0,0,0,0,0,0,0,-1,1483,449,12.6493,57.551
266,575,14.9243,-69.1833,0,0,0,0,0,0,0,-1,1490,449,14.9243,69.1833
273,575,15.9393,-82.0017,0,0,0,0,0,0,0,-1,1497,449,15.9394,82.0017
280,575,31.5233,-232.973,0,0,0,0,0,0,0,-1,1504,449,31.5233,232.973
287,575,35.4569,-230.853,0,0,0,0,0,0,0,-1,1511,449,35.4569,230.853
294,575,35.6213,-228.546,0,0,0,0,0,0,0,-1,1518,449,35.6213,228.546
301,575,35.8954,-226.06,0,0,0,0,0,0,0,-1,1525,449,35.8954,226.06
308,575,36.1553,-223.631,0,0,0,0,0,0,0,-1,1532,449,36.1553,223.631
315,575,36.1724,-221.188,0.0879346,-0.0029734,-0.0426652,0.104821,-0.0198603,-0.37688,0.0773556,0.0235949,1539,449,36.1723,221.188
322,575,36.1749,-218.633,0.0836999,-0.000637004,-0.0419573,0.101018,-0.0179547,-0.391444,0.074059,0.0184463,1546,449,36.1749,218.633
329,575,36.2666,-216.11,0.0796941,0.00156136,-0.0406099,0.0969779,-0.0157224,-0.402384,0.0704797,0.0185917,1553,449,36.2666,216.11
336,575,36.2496,-213.4,0.0754798,0.00325382,-0.0391361,0.0926189,-0.0138853,-0.412776,0.0668567,0.0213948,1560,449,36.2496,213.4
343,575,36.1946,-210.377,0.070492,0.0048189,-0.0373603,0.0873951,-0.0120842,-0.424877,0.0626809,0.0304674,1567,449,36.1946,210.377
350,575,36.1139,-207.501,0.0654791,0.00667349,-0.0350995,0.0818639,-0.00971127,-0.436744,0.0580842,0.0266258,1574,449,36.1139,207.501
357,575,36.0682,-204.898,0.0602854,0.00835888,-0.0325343,0.0759463,-0.00730205,-0.44863,0.0532321,0.0440506,1581,449,36.0683,204.898
364,575,36.1394,-202.351,0,0,0,0,0,0,0,-1,1588,449,36.1394,202.351
371,575,35.6327,-198.764,0,0,0,0,0,0,0,-1,1595,449,35.6327,198.764
378,575,35.1731,-195.798,0.0423604,0.0130018,-0.0231083,0.0550577,0.000304565,-0.502434,0.036604,0.0296314,1602,449,35.1731,195.798
385,575,34.6284,-192.712,0.0366621,0.0148346,-0.0194817,0.0480788,0.00341804,-0.530075,0.0309761,0.026047,1609,449,34.6284,192.712
392,575,33.9556,-189.598,0.0323092,0.0176756,-0.0149837,0.0416671,0.00831772,-0.558269,0.0254625,0.0270106,1616,449,33.9556,189.598
399,575,33.0715,-186.613,0,0,0,0,0,0,0,-1,1623,449,33.0715,186.613
406,575,32.1958,-183.506,0,0,0,0,0,0,0,-1,1630,449,32.1958,183.506
413,575,32.3043,-179.424,0,0,0,0,0,0,0,-1,1637,449,32.3043,179.424
420,575,20.9784,-175.024,0,0,0,0,0,0,0,-1,1644,449,20.9784,175.024
427,575,7.86377,-144.226,0,0,0,0,0,0,0,-1,1651,449,7.86376,144.226
434,575,7.81628,-127.139,0,0,0,0,0,0,0,-1,1658,449,7.8163,127.139
441,575,14.0811,-51.3901,0,0,0,0,0,0,0,-1,1665,449,14.081,51.3901
448,575,13.4385,-39.1208,0,0,0,0,0,0,0,-1,1672,449,13.4385,39.1208
455,575,11.7931,-31.6917,0,0,0,0,0,0,0,-1,1679,449,11.793,31.6917
462,575,7.12781,-21.7179,0,0,0,0,0,0,0,-1,1686,449,7.12778,21.7178
469,575,13.3328,-39.946,0,0,0,0,0,0,0,-1,1693,449,13.3328,39.946
476,575,12.8243,-36.3585,0,0,0,0,0,0,0,-1,1700,449,12.8244,36.3585
483,575,7.80994,-33.4096,0,0,0,0,0,0,0,-1,1707,449,7.80991,33.4096
490,575,7.42871,-25.5027,0,0,0,0,0,0,0,-1,1714,449,7.42869,25.5027
497,575,0,0,0,0,0,0,0,0,0,-1,1721,449,0,0
504,575,0,0,0,0,0,0,0,0,0,-1,1728,449,0,0
511,575,0,0,0,0,0,0,0,0,0,-1,1735,449,0,0
518,575,0,0,0,0,0,0,0,0,0,-1,1742,449,0,0
525,575,0,0,0,0,0,0,0,0,0,-1,1749,449,0,0
532,575,0,0,0,0,0,0,0,0,0,-1,1756,449,0,0
539,575,0,0,0,0,0,0,0,0,0,-1,1763,449,0,0
546,575,0,0,0,0,0,0,0,0,0,-1,1770,449,0,0
553,575,0,0,0,0,0,0,0,0,0,-1,1777,449,0,0
560,575,0,0,0,0,0,0,0,0,0,-1,1784,449,0,0
567,575,0,0,0,0,0,0,0,0,0,-1,1791,449,0,0
574,575,0,0,0,0,0,0,0,0,0,-1,1798,449,0,0
581,575,0,0,0,0,0,0,0,0,0,-1,1805,449,0,0
588,575,0,0,0,0,0,0,0,0,0,-1,1812,449,0,0
595,575,0,0,0,0,0,0,0,0,0,-1,1819,449,0,0
602,575,0,0,0,0,0,0,0,0,0,-1,1826,449,0,0
609,575,0,0,0,0,0,0,0,0,0,-1,1833,449,0,0
616,575,0,0,0,0,0,0,0,0,0,-1,1840,449,0,0
623,575,0,0,0,0,0,0,0,0,0,-1,1847,449,0,0
630,575,0,0,0,0,0,0,0,0,0,-1,1854,449,0,0
637,575,0,0,0,0,0,0,0,0,0,-1,1861,449,0,0
644,575,0,0,0,0,0,0,0,0,0,-1,1868,449,0,0
651,575,0,0,0,0,0,0,0,0,0,-1,1875,449,0,0
658,575,0,0,0,0,0,0,0,0,0,-1,1882,449,0,0
665,575,0,0,0,0,0,0,0,0,0,-1,1889,449,0,0
672,575,0,0,0,0,0,0,0,0,0,-1,1896,449,0,0
679,575,0,0,0,0,0,0,0,0,0,-1,1903,449,0,0
686,575,0,0,0,0,0,0,0,0,0,-1,1910,449,0,0
693,575,0,0,0,0,0,0,0,0,0,-1,1917,449,0,0
700,575,0,0,0,0,0,0,0,0,0,-1,1924,449,0,0
707,575,0,0,0,0,0,0,0,0,0,-1,1931,449,0,0
714,575,0,0,0,0,0,0,0,0,0,-1,1938,449,0,0
721,575,0,0,0,0,0,0,0,0,0,-1,1945,449,0,0
728,575,0,0,0,0,0,0,0,0,0,-1,1952,449,0,0
735,575,0,0,0,0,0,0,0,0,0,-1,1959,449,0,0
742,575,0,0,0,0,0,0,0,0,0,-1,1966,449,0,0
749,575,0,0,0,0,0,0,0,0,0,-1,1973,449,0,0
756,575,0,0,0,0,0,0,0,0,0,-1,1980,449,0,0
763,575,0,0,0,0,0,0,0,0,0,-1,1987,449,0,0
770,575,0,0,0,0,0,0,0,0,0,-1,1994,449,0,0
777,575,0,0,0,0,0,0,0,0,0,-1,2001,449,0,0
784,575,0,0,0,0,0,0,0,0,0,-1,2008,449,0,0
791,575,0,0,0,0,0,0,0,0,0,-1,2015,449,0,0
798,575,0,0,0,0,0,0,0,0,0,-1,2022,449,0,0
805,575,0,0,0,0,0,0,0,0,0,-1,2029,449,0,0
812,575,0,0,0,0,0,0,0,0,0,-1,2036,449,0,0
-700,568,0,0,0,0,0,0,0,0,0,-1,524,456,0,0
-693,568,0,0,0,0,0,0,0,0,0,-1,531,456,0,0
-686,568,0,0,0,0,0,0,0,0,0,-1,538,456,0,0
-679,568,0,0,0,0,0,0,0,0,0,-1,545,456,0,0
-672,568,0,0,0,0,0,0,0,0,0,-1,552,456,0,0
-665,568,0,0,0,0,0,0,0,0,0,-1,559,456,0,0
-658,568,0,0,0,0,0,0,0,0,0,-1,566,456,0,0
-651,568,0,0,0,0,0,0,0,0,0,-1,573,456,0,0
-644,568,0,0,0,0,0,0,0,0,0,-1,580,456,0,0
-637,568,0,0,0,0,0,0,0,0,0,-1,587,456,0,0
-630,568,0,0,0,0,0,0,0,0,0,-1,594,456,0,0
-623,568,0,0,0,0,0,0,0,0,0,-1,601,456,0,0
-616,568,0,0,0,0,0,0,0,0,0,-1,608,456,0,0
-609,568,0,0,0,0,0,0,0,0,0,-1,615,456,0,0
-602,568,0,0,0,0,0,0,0,0,0,-1,622,456,0,0
-595,568,0,0,0,0,0,0,0,0,0,-1,629,456,0,0
-588,568,0,0,0,0,0,0,0,0,0,-1,636,456,0,0
-581,568,0,0,0,0,0,0,0,0,0,-1,643,456,0,0
-574,568,0,0,0,0,0,0,0,0,0,-1,650,456,0,0
-567,568,0,0,0,0,0,0,0,0,0,-1,657,456,0,0
-560,568,0,0,0,0,0,0,0,0,0,-1,664,456,0,0
-553,568,0,0,0,0,0,0,0,0,0,-1,671,456,0,0
-546,568,0,0,0,0,0,0,0,0,0,-1,678,456,0,0
-539,568,0,0,0,0,0,0,0,0,0,-1,685,456,0,0
-532,568,0,0,0,0,0,0,0,0,0,-1,692,456,0,0
-525,568,0,0,0,0,0,0,0,0,0,-1,699,456,0,0
-518,568,0,0,0,0,0,0,0,0,0,-1,706,456,0,0
-511,568,0,0,0,0,0,0,0,0,0,-1,713,456,0,0
-504,568,0,0,0,0,0,0,0,0,0,-1,720,456,0,0
-497,568,0,0,0,0,0,0,0,0,0,-1,727,456,0,0
-490,568,0,0,0,0,0,0,0,0,0,-1,734,456,0,0
-483,568,0,0,0,0,0,0,0,0,0,-1,741,456,0,0
-476,568,0,0,0,0,0,0,0,0,0,-1,748,456,0,0
-469,568,0,0,0,0,0,0,0,0,0,-1,755,456,0,0
-462,568,0,0,0,0,0,0,0,0,0,-1,762,456,0,0
-455,568,0,0,0,0,0,0,0,0,0,-1,769,456,0,0
-448,568,0,0,0,0,0,0,0,0,0,-1,776,456,0,0
-441,568,0,0,0,0,0,0,0,0,0,-1,783,456,0,0
-434,568,0,0,0,0,0,0,0,0,0,-1,790,456,0,0
-427,568,0,0,0,0,0,0,0,0,0,-1,797,456,0,0
-420,568,0,0,0,0,0,0,0,0,0,-1,804,456,0,0
-413,568,0,0,0,0,0,0,0,0,0,-1,811,456,0,0
-406,568,0,0,0,0,0,0,0,0,0,-1,818,456,0,0
-399,568,0,0,0,0,0,0,0,0,0,-1,825,456,0,0
-392,568,0,0,0,0,0,0,0,0,0,-1,832,456,0,0
-385,568,0,0,0,0,0,0,0,0,0,-1,839,456,0,0
-378,568,0.321777,-7.29929,0,0,0,0,0,0,0,-1,846,456,0.321806,7.29927
-371,568,1.09595,-7.46707,0,0,0,0,0,0,0,-1,853,456,1.09597,7.46707
-364,568,2.70746,-23.4782,0,0,0,0,0,0,0,-1,860,456,2.70746,23.4782
-357,568,2.14166,-7.67645,0,0,0,0,0,0,0,-1,867,456,2.14167,7.67646
-350,568,2.7467,-11.2507,0,0,0,0,0,0,0,-1,874,456,2.7467,11.2507
-343,568,2.16516,-11.3762,0,0,0,0,0,0,0,-1,881,456,2.16514,11.3762
-336,568,1.14984,-29.3232,0,0,0,0,0,0,0,-1,888,456,1.14984,29.3231
-329,568,2.80359,-32.459,0,0,0,0,0,0,0,-1,895,456,2.80357,32.4591
-322,568,0.987793,-58.3259,0,0,0,0,0,0,0,-1,902,456,0.98779,58.3259
-315,568,0.755188,-84.5458,0,0,0,0,0,0,0,-1,909,456,0.755164,84.5458
-308,568,-1.79626,-152.83,0,0,0,0,0,0,0,-1,916,456,-1.79629,152.83
-301,568,-7.60577,-167.248,0,0,0,0,0,0,0,-1,923,456,-7.60576,167.248
-294,568,-24.8852,-175.146,0,0,0,0,0,0,0,-1,930,456,-24.8852,175.147
-287,568,-25.1868,-178.17,0.0346893,0.0158224,0.0180715,0.0456413,0.00487037,0.544848,0.028941,0.0445962,937,456,-25.1868,178.17
-280,568,-25.728,-181.862,0.0376397,0.0124135,0.0218305,0.0502389,-0.000185672,0.52344,0.0335547,0.0332542,944,456,-25.728,181.862
-273,568,-26.2682,-185.501,0,0,0,0,0,0,0,-1,951,456,-26.2683,185.501
-266,568,-27.1456,-188.699,0,0,0,0,0,0,0,-1,958,456,-27.1456,188.699
-259,568,-27.4659,-191.815,0.0456656,0.0020369,0.0308247,0.061614,-0.0139115,0.477464,0.0464134,0.0253894,965,456,-27.4659,191.815
-252,568,-27.8807,-194.795,0.0487726,-0.000569911,0.0326448,0.0650203,-0.0168175,0.461813,0.0499063,0.0242709,972,456,-27.8807,194.795
-245,568,-28.1978,-197.801,0.0517647,-0.00243376,0.0339318,0.0680905,-0.0187596,0.448443,0.0527703,0.0285523,979,456,-28.1978,197.801
-238,568,-28.4449,-200.805,0.0543725,-0.00370981,0.0350109,0.0708193,-0.0201566,0.439166,0.055173,0.0244715,986,456,-28.445,200.805
-231,568,-28.7352,-203.735,0.0572011,-0.00491164,0.0361705,0.0738187,-0.0215292,0.430662,0.0577426,0.0204444,993,456,-28.7352,203.735
-224,568,-28.9592,-206.636,0.0602604,-0.00559689,0.0372015,0.0770133,-0.0223497,0.423125,0.0601915,0.0225669,1000,456,-28.9592,206.636
-217,568,-29.0123,-209.407,0.063504,-0.00638968,0.0380513,0.0802213,-0.023107,0.41395,0.0626208,0.0205741,1007,456,-29.0123,209.407
-210,568,-28.9548,-212.121,0.0669516,-0.00755221,0.0391243,0.083722,-0.0243226,0.404954,0.0654465,0.0191173,1014,456,-28.9548,212.121
-203,568,-29.1284,-214.826,0.0704402,-0.00918033,0.0401624,0.0871797,-0.0259198,0.394901,0.0684165,0.0244117,1021,456,-29.1283,214.826
-196,568,-29.3743,-217.117,0,0,0,0,0,0,0,-1,1028,456,-29.3743,217.117
-189,568,-29.3721,-219.158,0,0,0,0,0,0,0,-1,1035,456,-29.3721,219.158
-182,568,-28.5894,-222.485,0,0,0,0,0,0,0,-1,1042,456,-28.5893,222.485
-175,568,-28.1194,-225.024,0,0,0,0,0,0,0,-1,1049,456,-28.1195,225.024
-168,568,-27.552,-227.498,0,0,0,0,0,0,0,-1,1056,456,-27.552,227.498
-161,568,-2.68726,-108.88,0,0,0,0,0,0,0,-1,1063,456,-2.68729,108.88
-154,568,-0.830933,-89.7711,0,0,0,0,0,0,0,-1,1070,456,-0.830932,89.771
-147,568,2.48108,-65.0201,0,0,0,0,0,0,0,-1,1077,456,2.48114,65.0201
-140,568,2.39624,-65.523,0,0,0,0,0,0,0,-1,1084,456,2.39621,65.523
-133,568,2.48999,-60.2435,0,0,0,0,0,0,0,-1,1091,456,2.49001,60.2435
-126,568,2.47339,-55.9059,0,0,0,0,0,0,0,-1,1098,456,2.47343,55.9059
-119,568,1.89978,-50.8443,0,0,0,0,0,0,0,-1,1105,456,1.89978,50.8443
-112,568,1.98242,-35.0942,0,0,0,0,0,0,0,-1,1112,456,1.98247,35.0942
-105,568,2.02454,-25.038,0,0,0,0,0,0,0,-1,1119,456,2.02459,25.038
-98,568,1.58618,-14.7874,0,0,0,0,0,0,0,-1,1126,456,1.58617,14.7874
-91,568,1.11621,-11.1853,0,0,0,0,0,0,0,-1,1133,456,1.11626,11.1853
-84,568,0.461792,-9.7959,0,0,0,0,0,0,0,-1,1140,456,0.461793,9.7959
-77,568,-1.13806,-8.57822,0,0,0,0,0,0,0,-1,1147,456,-1.13807,8.57821
-70,568,-4.09766,-1.42911,0,0,0,0,0,0,0,-1,1154,456,-4.09767,1.4291
-63,568,-5.92273,-3.70752,0,0,0,0,0,0,0,-1,1161,456,-5.92272,3.70751
-56,568,-5.24158,-6.01385,0,0,0,0,0,0,0,-1,1168,456,-5.24161,6.01386
-49,568,-5.24365,-8.33557,0,0,0,0,0,0,0,-1,1175,456,-5.24371,8.33557
-42,568,-0.664795,0.521973,0,0,0,0,0,0,0,-1,1182,456,-0.664829,-0.521984
-35,568,-0.153076,-1.67731,0,0,0,0,0,0,0,-1,1189,456,-0.153068,1.67731
-28,568,1.25439,-4.48798,0,0,0,0,0,0,0,-1,1196,456,1.2544,4.48797
-21,568,20.5062,-273.442,0,0,0,0,0,0,0,-1,1203,456,20.5063,273.442
-14,568,18.5016,-271.758,0,0,0,0,0,0,0,-1,1210,456,18.5016,271.758
-7,568,16.2893,-269.669,0,0,0,0,0,0,0,-1,1217,456,16.2894,269.669
0,568,14.2471,-268.141,0,0,0,0,0,0,0,-1,1224,456,14.2471,268.141
7,568,12.3439,-266.727,0,0,0,0,0,0,0,-1,1231,456,12.3439,266.727
14,568,11.9967,-266.664,0,0,0,0,0,0,0,-1,1238,456,11.9967,266.664
21,568,10.6251,-266.576,0,0,0,0,0,0,0,-1,1245,456,10.6252,266.576
28,568,9.06323,-266.312,0,0,0,0,0,0,0,-1,1252,456,9.06321,266.312
35,568,4.38452,-265.729,0,0,0,0,0,0,0,-1,1259,456,4.38451,265.729
42,568,3.50317,-264.8,0,0,0,0,0,0,0,-1,1266,456,3.50321,264.8
49,568,2.44861,-264.038,0,0,0,0,0,0,0,-1,1273,456,2.44867,264.038
56,568,1.20154,-263.498,0,0,0,0,0,0,0,-1,1280,456,1.20151,263.498
63,568,-0.0812988,-263.26,0,0,0,0,0,0,0,-1,1287,456,-0.08135,263.26
70,568,-0.783569,-262.867,0,0,0,0,0,0,0,-1,1294,456,-0.78356,262.867
77,568,-2.22668,-262.071,0,0,0,0,0,0,0,-1,1301,456,-2.22663,262.071
84,568,-3.39087,-261.29,0,0,0,0,0,0,0,-1,1308,456,-3.39091,261.29
91,568,-6.56531,-262.006,0,0,0,0,0,0,0,-1,1315,456,-6.56525,262.006
98,568,-6.69934,-262.312,0,0,0,0,0,0,0,-1,1322,456,-6.69929,262.312
105,568,-7.41992,-261.57,0,0,0,0,0,0,0,-1,1329,456,-7.41997,261.57
112,568,-7.96631,-260.492,0,0,0,0,0,0,0,-1,1336,456,-7.96633,260.492
119,568,-8.48633,-259.466,0,0,0,0,0,0,0,-1,1343,456,-8.48628,259.466
126,568,-9.35376,-258.993,0,0,0,0,0,0,0,-1,1350,456,-9.35382,258.993
133,568,-9.70117,-257.809,0,0,0,0,0,0,0,-1,1357,456,-9.70122,257.809
140,568,-12.2761,-258.091,0,0,0,0,0,0,0,-1,1364,456,-12.2761,258.091
147,568,-13.4856,-256.599,0,0,0,0,0,0,0,-1,1371,456,-13.4856,256.599
154,568,-14.1648,-256.025,0,0,0,0,0,0,0,-1,1378,456,-14.1648,256.025
161,568,-15.1989,-265.068,0,0,0,0,0,0,0,-1,1385,456,-15.1988,265.068
168,568,-11.53,-55.4321,0,0,0,0,0,0,0,-1,1392,456,-11.53,55.4321
175,568,10.5151,0.747498,0,0,0,0,0,0,0,-1,1399,456,10.5152,-0.747501
182,568,6.35095,-3.63361,0,0,0,0,0,0,0,-1,1406,456,6.35093,3.63359
189,568,6.17493,-1.70911,0,0,0,0,0,0,0,-1,1413,456,6.17497,1.70911
196,568,6.04724,0.200836,0,0,0,0,0,0,0,-1,1420,456,6.04724,-0.200835
203,568,5.9281,2.08649,0,0,0,0,0,0,0,-1,1427,456,5.92812,-2.08648
210,568,1.46216,-2.50446,0,0,0,0,0,0,0,-1,1434,456,1.46219,2.50446
217,568,2.62366,-7.86703,0,0,0,0,0,0,0,-1,1441,456,2.62365,7.86704
224,568,3.43494,-12.1555,0,0,0,0,0,0,0,-1,1448,456,3.43492,12.1555
231,568,4.38245,-9.3205,0,0,0,0,0,0,0,-1,1455,456,4.38244,9.32048
238,568,5.88879,-20.7448,0,0,0,0,0,0,0,-1,1462,456,5.88876,20.7449
245,568,3.34387,-10.6774,0,0,0,0,0,0,0,-1,1469,456,3.34389,10.6774
252,568,3.56946,-9.28928,0,0,0,0,0,0,0,-1,1476,456,3.56948,9.28928
259,568,3.38843,-8.73068,0,0,0,0,0,0,0,-1,1483,456,3.38842,8.73068
266,568,14.0127,-59.903,0,0,0,0,0,0,0,-1,1490,456,14.0127,59.9029
273,568,15.7317,-67.1277,0,0,0,0,0,0,0,-1,1497,456,15.7317,67.1278
280,568,16.2292,-72.0379,0,0,0,0,0,0,0,-1,1504,456,16.2293,72.0379
287,568,16.8087,-82.9175,0,0,0,0,0,0,0,-1,1511,456,16.8087,82.9175
294,568,19.5126,-106.497,0,0,0,0,0,0,0,-1,1518,456,19.5125,106.497
301,568,38.7559,-225.639,0,0,0,0,0,0,0,-1,1525,456,38.7559,225.639
308,568,38.9651,-223.113,0,0,0,0,0,0,0,-1,1532,456,38.9651,223.113
315,568,39.0186,-220.672,0.0954482,-0.00479076,-0.0474869,0.114372,-0.0237145,-0.379217,0.0852594,0.0368796,1539,456,39.0185,220.672
322,568,39.1412,-218.024,0.0913192,-0.00235253,-0.0470453,0.110868,-0.0219009,-0.393815,0.0821904,0.0230846,1546,456,39.1412,218.024
329,568,39.2736,-215.37,0.0874263,5.77876e-05,-0.0460482,0.107214,-0.0197304,-0.405868,0.07888,0.0176388,1553,456,39.2735,215.37
336,568,39.2875,-212.605,0.0833285,0.00174731,-0.0450238,0.103292,-0.0182158,-0.417344,0.0756674,0.0194668,1560,456,39.2875,212.605
343,568,39.4111,-209.738,0.0785539,0.00293552,-0.0436991,0.09853,-0.0170407,-0.428767,0.0720419,0.0339331,1567,456,39.4111,209.738
350,568,39.4529,-206.887,0.0737267,0.00475059,-0.0416669,0.0933271,-0.0148498,-0.439694,0.0677129,0.0294495,1574,456,39.4529,206.887
357,568,39.4263,-204.136,0.0687034,0.00630819,-0.0392887,0.0876745,-0.0126628,-0.449844,0.0630956,0.0476689,1581,456,39.4263,204.136
364,568,39.5077,-201.707,0,0,0,0,0,0,0,-1,1588,456,39.5077,201.707
371,568,39.0884,-198.15,0,0,0,0,0,0,0,-1,1595,456,39.0884,198.15
378,568,38.4517,-195.096,0.0514442,0.0104021,-0.0305433,0.06772,-0.00587369,-0.489601,0.0472265,0.0320835,1602,456,38.4517,195.096
385,568,37.8978,-191.98,0.0458665,0.0120543,-0.0271425,0.0609374,-0.00301667,-0.506867,0.0416669,0.0259277,1609,456,37.8978,191.98
392,568,37.2483,-188.957,0.0411904,0.014535,-0.0229538,0.0544053,0.00132017,-0.52237,0.0358382,0.0345999,1616,456,37.2483,188.957
399,568,36.0657,-186.356,0,0,0,0,0,0,0,-1,1623,456,36.0657,186.356
406,568,36.7341,-182.368,0,0,0,0,0,0,0,-1,1630,456,36.7341,182.368
413,568,36.0417,-178.821,0,0,0,0,0,0,0,-1,1637,456,36.0418,178.821
420,568,35.4828,-175.365,0,0,0,0,0,0,0,-1,1644,456,35.4828,175.365
427,568,34.655,-171.524,0,0,0,0,0,0,0,-1,1651,456,34.655,171.524
434,568,14.1353,-161.818,0,0,0,0,0,0,0,-1,1658,456,14.1353,161.818
441,568,9.81958,-144.498,0,0,0,0,0,0,0,-1,1665,456,9.8196,144.498
448,568,15.3542,-50.0354,0,0,0,0,0,0,0,-1,1672,456,15.3542,50.0354
455,568,15.1589,-41.3369,0,0,0,0,0,0,0,-1,1679,456,15.1589,41.3369
462,568,14.3977,-40.8195,0,0,0,0,0,0,0,-1,1686,456,14.3977,40.8194
469,568,13.8547,-74.0195,0,0,0,0,0,0,0,-1,1693,456,13.8547,74.0195
476,568,14.7294,-42.0833,0,0,0,0,0,0,0,-1,1700,456,14.7293,42.0833
483,568,13.5175,-35.9629,0,0,0,0,0,0,0,-1,1707,456,13.5174,35.9629
490,568,9.21021,-25.4427,0,0,0,0,0,0,0,-1,1714,456,9.21025,25.4427
497,568,9.19275,-22.8114,0,0,0,0,0,0,0,-1,1721,456,9.19273,22.8114
504,568,0,0,0,0,0,0,0,0,0,-1,1728,456,0,0
511,568,0,0,0,0,0,0,0,0,0,-1,1735,456,0,0
518,568,0,0,0,0,0,0,0,0,0,-1,1742,456,0,0
525,568,0,0,0,0,0,0,0,0,0,-1,1749,456,0,0
532,568,0,0,0,0,0,0,0,0,0,-1,1756,456,0,0
539,568,0,0,0,0,0,0,0,0,0,-1,1763,456,0,0
546,568,0,0,0,0,0,0,0,0,0,-1,1770,456,0,0
553,568,0,0,0,0,0,0,0,0,0,-1,1777,456,0,0
560,568,0,0,0,0,0,0,0,0,0,-1,1784,456,0,0
567,568,0,0,0,0,0,0,0,0,0,-1,1791,456,0,0
574,568,0,0,0,0,0,0,0,0,0,-1,1798,456,0,0
581,568,0,0,0,0,0,0,0,0,0,-1,1805,456,0,0
588,568,0,0,0,0,0,0,0,0,0,-1,1812,456,0,0
595,568,0,0,0,0,0,0,0,0,0,-1,1819,456,0,0
602,568,0,0,0,0,0,0,0,0,0,-1,1826,456,0,0
609,568,0,0,0,0,0,0,0,0,0,-1,1833,456,0,0
616,568,0,0,0,0,0,0,0,0,0,-1,1840,456,0,0
623,568,0,0,0,0,0,0,0,0,0,-1,1847,456,0,0
630,568,0,0,0,0,0,0,0,0,0,-1,1854,456,0,0
637,568,0,0,0,0,0,0,0,0,0,-1,1861,456,0,0
644,568,0,0,0,0,0,0,0,0,0,-1,1868,456,0,0
651,568,0,0,0,0,0,0,0,0,0,-1,1875,456,0,0
658,568,0,0,0,0,0,0,0,0,0,-1,1882,456,0,0
665,568,0,0,0,0,0,0,0,0,0,-1,1889,456,0,0
672,568,0,0,0,0,0,0,0,0,0,-1,1896,456,0,0
679,568,0,0,0,0,0,0,0,0,0,-1,1903,456,0,0
686,568,0,0,0,0,0,0,0,0,0,-1,1910,456,0,0
693,568,0,0,0,0,0,0,0,0,0,-1,1917,456,0,0
700,568,0,0,0,0,0,0,0,0,0,-1,1924,456,0,0
707,568,0,0,0,0,0,0,0,0,0,-1,1931,456,0,0
714,568,0,0,0,0,0,0,0,0,0,-1,1938,456,0,0
721,568,0,0,0,0,0,0,0,0,0,-1,1945,456,0,0
728,568,0,0,0,0,0,0,0,0,0,-1,1952,456,0,0
735,568,0,0,0,0,0,0,0,0,0,-1,1959,456,0,0
742,568,0,0,0,0,0,0,0,0,0,-1,1966,456,0,0
749,568,0,0,0,0,0,0,0,0,0,-1,1973,456,0,0
756,568,0,0,0,0,0,0,0,0,0,-1,1980,456,0,0
763,568,0,0,0,0,0,0,0,0,0,-1,1987,456,0,0
770,568,0,0,0,0,0,0,0,0,0,-1,1994,456,0,0
777,568,0,0,0,0,0,0,0,0,0,-1,2001,456,0,0
784,568,0,0,0,0,0,0,0,0,0,-1,2008,456,0,0
791,568,0,0,0,0,0,0,0,0,0,-1,2015,456,0,0
798,568,0,0,0,0,0,0,0,0,0,-1,2022,456,0,0
805,568,0,0,0,0,0,0,0,0,0,-1,2029,456,0,0
812,568,0,0,0,0,0,0,0,0,0,-1,2036,456,0,0
-700,561,0,0,0,0,0,0,0,0,0,-1,524,463,0,0
-693,561,0,0,0,0,0,0,0,0,0,-1,531,463,0,0
-686,561,0,0,0,0,0,0,0,0,0,-1,538,463,0,0
-679,561,0,0,0,0,0,0,0,0,0,-1,545,463,0,0
-672,561,0,0,0,0,0,0,0,0,0,-1,552,463,0,0
-665,561,0,0,0,0,0,0,0,0,0,-1,559,463,0,0
-658,561,0,0,0,0,0,0,0,0,0,-1,566,463,0,0
-651,561,0,0,0,0,0,0,0,0,0,-1,573,463,0,0
-644,561,0,0,0,0,0,0,0,0,0,-1,580,463,0,0
-637,561,0,0,0,0,0,0,0,0,0,-1,587,463,0,0
-630,561,0,0,0,0,0,0,0,0,0,-1,594,463,0,0
-623,561,0,0,0,0,0,0,0,0,0,-1,601,463,0,0
-616,561,0,0,0,0,0,0,0,0,0,-1,608,463,0,0
-609,561,0,0,0,0,0,0,0,0,0,-1,615,463,0,0
-602,561,0,0,0,0,0,0,0,0,0,-1,622,463,0,0
-595,561,0,0,0,0,0,0,0,0,0,-1,629,463,0,0
-588,561,0,0,0,0,0,0,0,0,0,-1,636,463,0,0
-581,561,0,0,0,0,0,0,0,0,0,-1,643,463,0,0
-574,561,0,0,0,0,0,0,0,0,0,-1,650,463,0,0
-567,561,0,0,0,0,0,0,0,0,0,-1,657,463,0,0
-560,561,0,0,0,0,0,0,0,0,0,-1,664,463,0,0
-553,561,0,0,0,0,0,0,0,0,0,-1,671,463,0,0
-546,561,0,0,0,0,0,0,0,0,0,-1,678,463,0,0
-539,561,0,0,0,0,0,0,0,0,0,-1,685,463,0,0
-532,561,0,0,0,0,0,0,0,0,0,-1,692,463,0,0
-525,561,0,0,0,0,0,0,0,0,0,-1,699,463,0,0
-518,561,0,0,0,0,0,0,0,0,0,-1,706,463,0,0
-511,561,0,0,0,0,0,0,0,0,0,-1,713,463,0,0
-504,561,0,0,0,0,0,0,0,0,0,-1,720,463,0,0
-497,561,0,0,0,0,0,0,0,0,0,-1,727,463,0,0
-490,561,0,0,0,0,0,0,0,0,0,-1,734,463,0,0
-483,561,0,0,0,0,0,0,0,0,0,-1,741,463,0,0
-476,561,0,0,0,0,0,0,0,0,0,-1,748,463,0,0
-469,561,0,0,0,0,0,0,0,0,0,-1,755,463,0,0
-462,561,0,0,0,0,0,0,0,0,0,-1,762,463,0,0
-455,561,0,0,0,0,0,0,0,0,0,-1,769,463,0,0
-448,561,0,0,0,0,0,0,0,0,0,-1,776,463,0,0
-441,561,0,0,0,0,0,0,0,0,0,-1,783,463,0,0
-434,561,0,0,0,0,0,0,0,0,0,-1,790,463,0,0
-427,561,0,0,0,0,0,0,0,0,0,-1,797,463,0,0
-420,561,0,0,0,0,0,0,0,0,0,-1,804,463,0,0
-413,561,0,0,0,0,0,0,0,0,0,-1,811,463,0,0
-406,561,0,0,0,0,0,0,0,0,0,-1,818,463,0,0
-399,561,0,0,0,0,0,0,0,0,0,-1,825,463,0,0
-392,561,4.92407,-2.54578,0,0,0,0,0,0,0,-1,832,463,4.92408,2.54576
-385,561,5.55634,-1.02338,0,0,0,0,0,0,0,-1,839,463,5.55634,1.02338
-378,561,0.160522,-4.51785,0,0,0,0,0,0,0,-1,846,463,0.160542,4.51785
-371,561,2.62524,-27.795,0,0,0,0,0,0,0,-1,853,463,2.62525,27.7949
-364,561,3.72833,-30.5013,0,0,0,0,0,0,0,-1,860,463,3.72835,30.5013
-357,561,2.16742,-23.5582,0,0,0,0,0,0,0,-1,867,463,2.1674,23.5582
-350,561,1.33124,-11.9406,0,0,0,0,0,0,0,-1,874,463,1.33127,11.9406
-343,561,1.13214,-14.1837,0,0,0,0,0,0,0,-1,881,463,1.13217,14.1837
-336,561,2.91016,-36.595,0,0,0,0,0,0,0,-1,888,463,2.91014,36.595
-329,561,-3.06433,-115.89,0,0,0,0,0,0,0,-1,895,463,-3.06431,115.89
-322,561,-13.014,-156.581,0,0,0,0,0,0,0,-1,902,463,-13.014,156.581
-315,561,-25.6506,-162.385,0,0,0,0,0,0,0,-1,909,463,-25.6507,162.385
-308,561,-26.5355,-166.739,0,0,0,0,0,0,0,-1,916,463,-26.5354,166.739
-301,561,-27.7285,-170.31,0,0,0,0,0,0,0,-1,923,463,-27.7285,170.31
-294,561,-28.3369,-174.005,0.0372058,0.0144862,0.0197936,0.0486677,0.00302425,0.524889,0.0314855,0.0325591,930,463,-28.3369,174.005
-287,561,-28.9115,-177.516,0.0400528,0.0111795,0.0240391,0.0536572,-0.00242478,0.514987,0.0366065,0.0234588,937,463,-28.9115,177.516
-280,561,-29.4069,-180.911,0.0431203,0.00806028,0.0275922,0.0582801,-0.00709961,0.502403,0.0414233,0.0228392,944,463,-29.4069,180.911
-273,561,-30.0125,-184.34,0.0461218,0.00498721,0.0307499,0.0625487,-0.0114397,0.49064,0.0459891,0.0319987,951,463,-30.0125,184.34
-266,561,-30.5625,-187.563,0.0490564,0.0018599,0.0336339,0.0665448,-0.0156286,0.479492,0.0503873,0.0211953,958,463,-30.5625,187.563
-259,561,-30.8964,-190.82,0.0521201,-0.00114863,0.035859,0.070154,-0.0191826,0.465975,0.0543049,0.0165522,965,463,-30.8964,190.82
-252,561,-31.1846,-193.916,0.0552132,-0.00339139,0.0373357,0.0733722,-0.0215504,0.452686,0.0574615,0.0241695,972,463,-31.1846,193.916
-245,561,-31.5223,-196.988,0.0583063,-0.00497521,0.0383681,0.0763973,-0.0230662,0.440598,0.0601139,0.0280641,979,463,-31.5224,196.988
-238,561,-31.7349,-199.945,0.0609271,-0.00595377,0.0391882,0.0790035,-0.0240301,0.432187,0.0622449,0.0234151,986,463,-31.7349,199.945
-231,561,-31.9896,-202.876,0.0638104,-0.00669012,0.0400819,0.0819375,-0.0248172,0.424724,0.0645087,0.0208432,993,463,-31.9896,202.876
-224,561,-32.2766,-205.735,0.0668197,-0.00705924,0.0409615,0.0850378,-0.0252774,0.418491,0.066733,0.022837,1000,463,-32.2765,205.735
-217,561,-32.2623,-208.535,0.0699957,-0.00770899,0.0417393,0.0881668,-0.0258801,0.410602,0.0690408,0.0277358,1007,463,-32.2623,208.535
-210,561,-32.0793,-211.367,0.0735146,-0.0087999,0.0427554,0.0917033,-0.0269886,0.40222,0.0718419,0.0277484,1014,463,-32.0793,211.367
-203,561,-32.0453,-214.212,0.077035,-0.0102746,0.0437045,0.0951525,-0.0283922,0.392984,0.0747194,0.0437714,1021,463,-32.0453,214.212
-196,561,-32.1182,-217.074,0,0,0,0,0,0,0,-1,1028,463,-32.1182,217.074
-189,561,-22.7559,-219.203,0,0,0,0,0,0,0,-1,1035,463,-22.7559,219.203
-182,561,-7.18176,-128.216,0,0,0,0,0,0,0,-1,1042,463,-7.18178,128.216
-175,561,-4.55042,-111.222,0,0,0,0,0,0,0,-1,1049,463,-4.55046,111.222
-168,561,-2.89514,-98.4026,0,0,0,0,0,0,0,-1,1056,463,-2.89508,98.4026
-161,561,-2.00903,-88.1659,0,0,0,0,0,0,0,-1,1063,463,-2.00904,88.1659
-154,561,1.63977,-64.6129,0,0,0,0,0,0,0,-1,1070,463,1.63981,64.6129
-147,561,1.70703,-65.0358,0,0,0,0,0,0,0,-1,1077,463,1.70703,65.0359
-140,561,2.1239,-59.8181,0,0,0,0,0,0,0,-1,1084,463,2.12391,59.818
-133,561,1.37939,-55.0099,0,0,0,0,0,0,0,-1,1091,463,1.37945,55.01
-126,561,1.77014,-49.4318,0,0,0,0,0,0,0,-1,1098,463,1.7702,49.4318
-119,561,-0.336304,-35.422,0,0,0,0,0,0,0,-1,1105,463,-0.336245,35.422
-112,561,1.24365,-29.1982,0,0,0,0,0,0,0,-1,1112,463,1.2437,29.1981
-105,561,0.530518,-13.5379,0,0,0,0,0,0,0,-1,1119,463,0.530477,13.5379
-98,561,1.5387,-7.54352,0,0,0,0,0,0,0,-1,1126,463,1.53871,7.54351
-91,561,1.29553,-6.57968,0,0,0,0,0,0,0,-1,1133,463,1.29549,6.5797
-84,561,1.23364,-5.84555,0,0,0,0,0,0,0,-1,1140,463,1.23363,5.84556
-77,561,-2.36023,1.00204,0,0,0,0,0,0,0,-1,1147,463,-2.3602,-1.00205
-70,561,-3.90015,-1.41541,0,0,0,0,0,0,0,-1,1154,463,-3.90009,1.4154
-63,561,-6.95691,-4.02756,0,0,0,0,0,0,0,-1,1161,463,-6.95696,4.02756
-56,561,-5.37988,-6.66855,0,0,0,0,0,0,0,-1,1168,463,-5.37988,6.66854
-49,561,-5.7439,-9.11029,0,0,0,0,0,0,0,-1,1175,463,-5.74387,9.1103
-42,561,-1.72644,-5.63065,0,0,0,0,0,0,0,-1,1182,463,-1.72648,5.63064
-35,561,-1.65674,-4.87994,0,0,0,0,0,0,0,-1,1189,463,-1.6567,4.87993
-28,561,-1.91418,-3.86896,0,0,0,0,0,0,0,-1,1196,463,-1.91414,3.86895
-21,561,21.0439,-274.516,0,0,0,0,0,0,0,-1,1203,463,21.0439,274.516
-14,561,19.0778,-272.791,0,0,0,0,0,0,0,-1,1210,463,19.0777,272.791
-7,561,17.152,-270.961,0,0,0,0,0,0,0,-1,1217,463,17.152,270.961
0,561,14.9637,-268.392,0,0,0,0,0,0,0,-1,1224,463,14.9637,268.392
7,561,12.8604,-267.039,0,0,0,0,0,0,0,-1,1231,463,12.8604,267.039
14,561,10.7147,-265.754,0,0,0,0,0,0,0,-1,1238,463,10.7148,265.754
21,561,8.59729,-265.098,0,0,0,0,0,0,0,-1,1245,463,8.59725,265.098
28,561,9.64819,-266.028,0,0,0,0,0,0,0,-1,1252,463,9.64818,266.028
35,561,5.59558,-263.866,0,0,0,0,0,0,0,-1,1259,463,5.59562,263.866
42,561,3.66296,-264.043,0,0,0,0,0,0,0,-1,1266,463,3.66301,264.043
49,561,2.62402,-263.317,0,0,0,0,0,0,0,-1,1273,463,2.62403,263.317
56,561,1.11047,-262.777,0,0,0,0,0,0,0,-1,1280,463,1.1105,262.777
63,561,0.523926,-262.101,0,0,0,0,0,0,0,-1,1287,463,0.523924,262.101
70,561,-0.40332,-262.372,0,0,0,0,0,0,0,-1,1294,463,-0.403304,262.372
77,561,-2.14026,-261.609,0,0,0,0,0,0,0,-1,1301,463,-2.14025,261.609
84,561,-3.31909,-260.683,0,0,0,0,0,0,0,-1,1308,463,-3.31903,260.683
91,561,-8.03796,-260.964,0,0,0,0,0,0,0,-1,1315,463,-8.038,260.964
98,561,-7.30017,-262.494,0,0,0,0,0,0,0,-1,1322,463,-7.30012,262.494
105,561,-7.77197,-261.998,0,0,0,0,0,0,0,-1,1329,463,-7.77194,261.998
112,561,-8.5614,-260.555,0,0,0,0,0,0,0,-1,1336,463,-8.56137,260.555
119,561,-9.95715,-260.225,0,0,0,0,0,0,0,-1,1343,463,-9.95719,260.225
126,561,-9.81445,-258.707,0,0,0,0,0,0,0,-1,1350,463,-9.8145,258.707
133,561,-9.71948,-257.187,0,0,0,0,0,0,0,-1,1357,463,-9.71942,257.187
140,561,-13.6847,-258.396,0,0,0,0,0,0,0,-1,1364,463,-13.6846,258.396
147,561,-14.1986,-257.434,0,0,0,0,0,0,0,-1,1371,463,-14.1986,257.434
154,561,-14.6423,-256.481,0,0,0,0,0,0,0,-1,1378,463,-14.6424,256.481
161,561,-15.071,-255.476,0,0,0,0,0,0,0,-1,1385,463,-15.0711,255.476
168,561,-16.1415,-265.938,0,0,0,0,0,0,0,-1,1392,463,-16.1415,265.938
175,561,10.4185,0.276398,0,0,0,0,0,0,0,-1,1399,463,10.4185,-0.276394
182,561,6.45703,-4.02127,0,0,0,0,0,0,0,-1,1406,463,6.45704,4.02127
189,561,6.50854,-2.08685,0,0,0,0,0,0,0,-1,1413,463,6.50851,2.08686
196,561,6.44775,-0.27182,0,0,0,0,0,0,0,-1,1420,463,6.44773,0.271814
203,561,6.18591,1.1301,0,0,0,0,0,0,0,-1,1427,463,6.18592,-1.13009
210,561,5.68713,2.68427,0,0,0,0,0,0,0,-1,1434,463,5.6871,-2.68425
217,561,3.61743,-7.33582,0,0,0,0,0,0,0,-1,1441,463,3.61738,7.33581
224,561,4.27466,-8.59171,0,0,0,0,0,0,0,-1,1448,463,4.27466,8.59171
231,561,4.93188,-9.8476,0,0,0,0,0,0,0,-1,1455,463,4.93193,9.84761
238,561,2.18018,-5.18359,0,0,0,0,0,0,0,-1,1462,463,2.18023,5.18359
245,561,3.07568,-3.50238,0,0,0,0,0,0,0,-1,1469,463,3.0757,3.50238
252,561,3.47412,-3.71109,0,0,0,0,0,0,0,-1,1476,463,3.47413,3.71109
259,561,3.42212,-3.2334,0,0,0,0,0,0,0,-1,1483,463,3.42214,3.2334
266,561,4.44373,-5.90027,0,0,0,0,0,0,0,-1,1490,463,4.44372,5.90026
273,561,16.3015,-62.0638,0,0,0,0,0,0,0,-1,1497,463,16.3016,62.0639
280,561,16.6068,-65.9482,0,0,0,0,0,0,0,-1,1504,463,16.6068,65.9482
287,561,17.3195,-70.585,0,0,0,0,0,0,0,-1,1511,463,17.3194,70.585
294,561,17.6993,-75.0805,0,0,0,0,0,0,0,-1,1518,463,17.6994,75.0805
301,561,20.2274,-97.1867,0,0,0,0,0,0,0,-1,1525,463,20.2275,97.1867
308,561,21.4679,-112.982,0,0,0,0,0,0,0,-1,1532,463,21.4678,112.982
315,561,41.993,-220.417,0,0,0,0,0,0,0,-1,1539,463,41.993,220.417
322,561,42.0284,-217.434,0,0,0,0,0,0,0,-1,1546,463,42.0284,217.434
329,561,42.2098,-214.628,0,0,0,0,0,0,0,-1,1553,463,42.2098,214.628
336,561,42.4148,-211.819,0.0915176,0.000868578,-0.0508578,0.114317,-0.0219305,-0.421432,0.0844756,0.0322559,1560,463,42.4148,211.819
343,561,42.6394,-209.076,0.0869797,0.00155885,-0.0499029,0.109954,-0.0214154,-0.431452,0.0813858,0.0283322,1567,463,42.6395,209.076
350,561,42.5995,-206.159,0.0823895,0.00330965,-0.0479787,0.105022,-0.0193224,-0.440762,0.0772648,0.0277532,1574,463,42.5995,206.159
357,561,42.4537,-203.176,0,0,0,0,0,0,0,-1,1581,463,42.4538,203.176
364,561,25.8826,-196.416,0,0,0,0,0,0,0,-1,1588,463,25.8825,196.416
371,561,41.993,-197.372,0,0,0,0,0,0,0,-1,1595,463,41.9931,197.372
378,561,41.6234,-194.285,0.0608778,0.0084658,-0.0376276,0.0805258,-0.0111822,-0.481226,0.0577731,0.0212579,1602,463,41.6234,194.285
385,561,41.4005,-191.063,0.0552716,0.0100253,-0.0343875,0.0738104,-0.00851358,-0.494448,0.0522764,0.0238883,1609,463,41.4005,191.063
392,561,41.0328,-187.962,0.0501717,0.0121413,-0.0305201,0.0671156,-0.00480255,-0.506804,0.0464274,0.0354972,1616,463,41.0328,187.962
399,561,40.5597,-185.004,0,0,0,0,0,0,0,-1,1623,463,40.5597,185.004
406,561,40.4166,-181.379,0,0,0,0,0,0,0,-1,1630,463,40.4167,181.379
413,561,40.0509,-177.865,0,0,0,0,0,0,0,-1,1637,463,40.0509,177.865
420,561,39.0763,-174.336,0.0363235,0.0187306,-0.0174616,0.0470792,0.00797499,-0.552073,0.0290944,0.0206904,1644,463,39.0763,174.336
427,561,38.4084,-170.671,0.0353741,0.0212766,-0.0138585,0.0438735,0.0127773,-0.550138,0.026056,0.0299969,1651,463,38.4084,170.671
434,561,37.7634,-167.055,0,0,0,0,0,0,0,-1,1658,463,37.7634,167.055
441,561,37.3132,-162.793,0,0,0,0,0,0,0,-1,1665,463,37.3133,162.793
448,561,12.2344,-140.326,0,0,0,0,0,0,0,-1,1672,463,12.2343,140.326
455,561,12.9248,-110.453,0,0,0,0,0,0,0,-1,1679,463,12.9249,110.453
462,561,16.1986,-76.7032,0,0,0,0,0,0,0,-1,1686,463,16.1986,76.7032
469,561,15.9751,-73.8943,0,0,0,0,0,0,0,-1,1693,463,15.9751,73.8943
476,561,15.6277,-72.0689,0,0,0,0,0,0,0,-1,1700,463,15.6277,72.0689
483,561,15.0601,-41.4633,0,0,0,0,0,0,0,-1,1707,463,15.0601,41.4632
490,561,13.1162,-34.5897,0,0,0,0,0,0,0,-1,1714,463,13.1162,34.5897
497,561,11.7618,-20.3894,0,0,0,0,0,0,0,-1,1721,463,11.7618,20.3894
504,561,12.9351,-20.1285,0,0,0,0,0,0,0,-1,1728,463,12.935,20.1285
511,561,0,0,0,0,0,0,0,0,0,-1,1735,463,0,0
518,561,0,0,0,0,0,0,0,0,0,-1,1742,463,0,0
525,561,0,0,0,0,0,0,0,0,0,-1,1749,463,0,0
532,561,0,0,0,0,0,0,0,0,0,-1,1756,463,0,0
539,561,0,0,0,0,0,0,0,0,0,-1,1763,463,0,0
546,561,0,0,0,0,0,0,0,0,0,-1,1770,463,0,0
553,561,0,0,0,0,0,0,0,0,0,-1,1777,463,0,0
560,561,0,0,0,0,0,0,0,0,0,-1,1784,463,0,0
567,561,0,0,0,0,0,0,0,0,0,-1,1791,463,0,0
574,561,0,0,0,0,0,0,0,0,0,-1,1798,463,0,0
581,561,0,0,0,0,0,0,0,0,0,-1,1805,463,0,0
588,561,0,0,0,0,0,0,0,0,0,-1,1812,463,0,0
595,561,0,0,0,0,0,0,0,0,0,-1,1819,463,0,0
602,561,0,0,0,0,0,0,0,0,0,-1,1826,463,0,0
609,561,0,0,0,0,0,0,0,0,0,-1,1833,463,0,0
616,561,0,0,0,0,0,0,0,0,0,-1,1840,463,0,0
623,561,0,0,0,0,0,0,0,0,0,-1,1847,463,0,0
630,561,0,0,0,0,0,0,0,0,0,-1,1854,463,0,0
637,561,0,0,0,0,0,0,0,0,0,-1,1861,463,0,0
644,561,0,0,0,0,0,0,0,0,0,-1,1868,463,0,0
651,561,0,0,0,0,0,0,0,0,0,-1,1875,463,0,0
658,561,0,0,0,0,0,0,0,0,0,-1,1882,463,0,0
665,561,0,0,0,0,0,0,0,0,0,-1,1889,463,0,0
672,561,0,0,0,0,0,0,0,0,0,-1,1896,463,0,0
679,561,0,0,0,0,0,0,0,0,0,-1,1903,463,0,0
686,561,0,0,0,0,0,0,0,0,0,-1,1910,463,0,0
693,561,0,0,0,0,0,0,0,0,0,-1,1917,463,0,0
700,561,0,0,0,0,0,0,0,0,0,-1,1924,463,0,0
707,561,0,0,0,0,0,0,0,0,0,-1,1931,463,0,0
714,561,0,0,0,0,0,0,0,0,0,-1,1938,463,0,0
721,561,0,0,0,0,0,0,0,0,0,-1,1945,463,0,0
728,561,0,0,0,0,0,0,0,0,0,-1,1952,463,0,0
735,561,0,0,0,0,0,0,0,0,0,-1,1959,463,0,0
742,561,0,0,0,0,0,0,0,0,0,-1,1966,463,0,0
749,561,0,0,0,0,0,0,0,0,0,-1,1973,463,0,0
756,561,0,0,0,0,0,0,0,0,0,-1,1980,463,0,0
763,561,0,0,0,0,0,0,0,0,0,-1,1987,463,0,0
770,561,0,0,0,0,0,0,0,0,0,-1,1994,463,0,0
777,561,0,0,0,0,0,0,0,0,0,-1,2001,463,0,0
784,561,0,0,0,0,0,0,0,0,0,-1,2008,463,0,0
791,561,0,0,0,0,0,0,0,0,0,-1,2015,463,0,0
798,561,0,0,0,0,0,0,0,0,0,-1,2022,463,0,0
805,561,0,0,0,0,0,0,0,0,0,-1,2029,463,0,0
812,561,0,0,0,0,0,0,0,0,0,-1,2036,463,0,0
-700,554,0,0,0,0,0,0,0,0,0,-1,524,470,0,0
-693,554,0,0,0,0,0,0,0,0,0,-1,531,470,0,0
-686,554,0,0,0,0,0,0,0,0,0,-1,538,470,0,0
-679,554,0,0,0,0,0,0,0,0,0,-1,545,470,0,0
-672,554,0,0,0,0,0,0,0,0,0,-1,552,470,0,0
-665,554,0,0,0,0,0,0,0,0,0,-1,559,470,0,0
-658,554,0,0,0,0,0,0,0,0,0,-1,566,470,0,0
-651,554,0,0,0,0,0,0,0,0,0,-1,573,470,0,0
-644,554,0,0,0,0,0,0,0,0,0,-1,580,470,0,0
-637,554,0,0,0,0,0,0,0,0,0,-1,587,470,0,0
-630,554,0,0,0,0,0,0,0,0,0,-1,594,470,0,0
-623,554,0,0,0,0,0,0,0,0,0,-1,601,470,0,0
-616,554,0,0,0,0,0,0,0,0,0,-1,608,470,0,0
-609,554,0,0,0,0,0,0,0,0,0,-1,615,470,0,0
-602,554,0,0,0,0,0,0,0,0,0,-1,622,470,0,0
-595,554,0,0,0,0,0,0,0,0,0,-1,629,470,0,0
-588,554,0,0,0,0,0,0,0,0,0,-1,636,470,0,0
-581,554,0,0,0,0,0,0,0,0,0,-1,643,470,0,0
-574,554,0,0,0,0,0,0,0,0,0,-1,650,470,0,0
-567,554,0,0,0,0,0,0,0,0,0,-1,657,470,0,0
-560,554,0,0,0,0,0,0,0,0,0,-1,664,470,0,0
-553,554,0,0,0,0,0,0,0,0,0,-1,671,470,0,0
-546,554,0,0,0,0,0,0,0,0,0,-1,678,470,0,0
-539,554,0,0,0,0,0,0,0,0,0,-1,685,470,0,0
-532,554,0,0,0,0,0,0,0,0,0,-1,692,470,0,0
-525,554,0,0,0,0,0,0,0,0,0,-1,699,470,0,0
-518,554,0,0,0,0,0,0,0,0,0,-1,706,470,0,0
-511,554,0,0,0,0,0,0,0,0,0,-1,713,470,0,0
-504,554,0,0,0,0,0,0,0,0,0,-1,720,470,0,0
-497,554,0,0,0,0,0,0,0,0,0,-1,727,470,0,0
-490,554,0,0,0,0,0,0,0,0,0,-1,734,470,0,0
-483,554,0,0,0,0,0,0,0,0,0,-1,741,470,0,0
-476,554,0,0,0,0,0,0,0,0,0,-1,748,470,0,0
-469,554,0,0,0,0,0,0,0,0,0,-1,755,470,0,0
-462,554,0,0,0,0,0,0,0,0,0,-1,762,470,0,0
-455,554,0,0,0,0,0,0,0,0,0,-1,769,470,0,0
-448,554,0,0,0,0,0,0,0,0,0,-1,776,470,0,0
-441,554,0,0,0,0,0,0,0,0,0,-1,783,470,0,0
-434,554,0,0,0,0,0,0,0,0,0,-1,790,470,0,0
-427,554,0,0,0,0,0,0,0,0,0,-1,797,470,0,0
-420,554,0,0,0,0,0,0,0,0,0,-1,804,470,0,0
-413,554,0,0,0,0,0,0,0,0,0,-1,811,470,0,0
-406,554,0,0,0,0,0,0,0,0,0,-1,818,470,0,0
-399,554,-1.32275,-3.95142,0,0,0,0,0,0,0,-1,825,470,-1.32275,3.95141
-392,554,-1.35632,-3.7406,0,0,0,0,0,0,0,-1,832,470,-1.35632,3.7406
-385,554,1.54614,-28.7236,0,0,0,0,0,0,0,-1,839,470,1.54616,28.7236
-378,554,1.92175,-29.1808,0,0,0,0,0,0,0,-1,846,470,1.92174,29.1808
-371,554,2.90704,-29.4795,0,0,0,0,0,0,0,-1,853,470,2.90703,29.4795
-364,554,2.69928,-30.6884,0,0,0,0,0,0,0,-1,860,470,2.69926,30.6884
-357,554,2.43024,-31.9178,0,0,0,0,0,0,0,-1,867,470,2.43024,31.9178
-350,554,1.17157,-18.1341,0,0,0,0,0,0,0,-1,874,470,1.17156,18.1341
-343,554,2.02539,-41.0046,0,0,0,0,0,0,0,-1,881,470,2.02541,41.0046
-336,554,-5.33704,-112.343,0,0,0,0,0,0,0,-1,888,470,-5.33704,112.343
-329,554,-15.7035,-151.576,0,0,0,0,0,0,0,-1,895,470,-15.7035,151.576
-322,554,-28.928,-157.849,0,0,0,0,0,0,0,-1,902,470,-28.9281,157.849
-315,554,-29.5772,-161.813,0.0347202,0.0161518,0.0135003,0.0418206,0.0090514,0.484186,0.0254065,0.0486365,909,470,-29.5772,161.813
-308,554,-30.4689,-165.727,0.037462,0.0149648,0.0176854,0.047173,0.00525376,0.502149,0.0298519,0.0352527,916,470,-30.4689,165.727
-301,554,-31.3134,-169.376,0.0397813,0.0128797,0.0221103,0.0522107,0.000450203,0.51213,0.0346581,0.0279177,923,470,-31.3134,169.376
-294,554,-32.0241,-172.894,0.0425439,0.00981105,0.0263933,0.0572333,-0.00487839,0.507865,0.0398812,0.0198925,930,470,-32.0241,172.894
-287,554,-32.6216,-176.41,0.0455872,0.00674638,0.0302949,0.0621519,-0.00981839,0.500371,0.0450654,0.0185313,937,470,-32.6216,176.41
-280,554,-33.2316,-179.891,0.0486446,0.00384777,0.0336088,0.0666347,-0.0141424,0.491474,0.0498111,0.0178857,944,470,-33.2316,179.891
-273,554,-33.745,-183.327,0.0518805,0.000946198,0.0364962,0.0709167,-0.01809,0.480773,0.0543213,0.0230894,951,470,-33.745,183.327
-266,554,-34.2124,-186.593,0.0551932,-0.00183436,0.0390571,0.0750374,-0.0216786,0.470092,0.0586033,0.020132,958,470,-34.2124,186.593
-259,554,-34.4847,-189.672,0.0585143,-0.00439734,0.0409264,0.0786767,-0.0245597,0.45775,0.0622735,0.0191203,965,470,-34.4847,189.672
-252,554,-34.6346,-192.776,0.0617459,-0.00630198,0.0419596,0.0817426,-0.0262987,0.44473,0.065058,0.0229747,972,470,-34.6346,192.776
-245,554,-34.7255,-196.017,0.0650253,-0.00764021,0.0426635,0.0847305,-0.0273453,0.432683,0.0674751,0.0216764,979,470,-34.7254,196.017
-238,554,-35.0928,-199.099,0.0677351,-0.00829091,0.0431334,0.0872154,-0.0277712,0.424208,0.0692815,0.020356,986,470,-35.0927,199.099
-231,554,-35.2933,-202.102,0.0706917,-0.00846599,0.0436294,0.0900197,-0.027794,0.41702,0.0711119,0.0220814,993,470,-35.2933,202.102
-224,554,-35.4081,-204.917,0.0735854,-0.00841813,0.0442619,0.0929182,-0.027751,0.411808,0.0729763,0.0282034,1000,470,-35.4081,204.917
-217,554,-35.418,-207.801,0.0766137,-0.00880334,0.044939,0.0959014,-0.028091,0.405421,0.0750708,0.0431324,1007,470,-35.4181,207.801
-210,554,-35.3619,-210.749,0,0,0,0,0,0,0,-1,1014,470,-35.3619,210.749
-203,554,-34.9916,-213.671,0,0,0,0,0,0,0,-1,1021,470,-34.9916,213.671
-196,554,-9.70605,-128.487,0,0,0,0,0,0,0,-1,1028,470,-9.70603,128.487
-189,554,-4.25269,-93.2308,0,0,0,0,0,0,0,-1,1035,470,-4.25265,93.2308
-182,554,-3.94775,-89.1434,0,0,0,0,0,0,0,-1,1042,470,-3.94776,89.1434
-175,554,-3.32971,-84.2911,0,0,0,0,0,0,0,-1,1049,470,-3.3297,84.2911
-168,554,-2.08459,-77.5436,0,0,0,0,0,0,0,-1,1056,470,-2.08462,77.5436
-161,554,1.09583,-42.015,0,0,0,0,0,0,0,-1,1063,470,1.09577,42.015
-154,554,1.03186,-42.7216,0,0,0,0,0,0,0,-1,1070,470,1.03187,42.7216
-147,554,1.4552,-41.5187,0,0,0,0,0,0,0,-1,1077,470,1.45525,41.5187
-140,554,0.428101,-38.9893,0,0,0,0,0,0,0,-1,1084,470,0.428152,38.9893
-133,554,2.67163,-32.8187,0,0,0,0,0,0,0,-1,1091,470,2.67161,32.8187
-126,554,0.851929,-33.5393,0,0,0,0,0,0,0,-1,1098,470,0.851942,33.5393
-119,554,-1.03479,-32.1628,0,0,0,0,0,0,0,-1,1105,470,-1.03476,32.1628
-112,554,1.03162,-24.5784,0,0,0,0,0,0,0,-1,1112,470,1.03156,24.5784
-105,554,0.608765,-21.0475,0,0,0,0,0,0,0,-1,1119,470,0.608728,21.0475
-98,554,1.51929,-7.3624,0,0,0,0,0,0,0,-1,1126,470,1.51928,7.36241
-91,554,1.41089,-6.5864,0,0,0,0,0,0,0,-1,1133,470,1.41093,6.58638
-84,554,1.62305,-5.87186,0,0,0,0,0,0,0,-1,1140,470,1.62299,5.87186
-77,554,-2.56958,1.33258,0,0,0,0,0,0,0,-1,1147,470,-2.56959,-1.33257
-70,554,-3.68164,-1.18332,0,0,0,0,0,0,0,-1,1154,470,-3.68158,1.18331
-63,554,-4.86853,-3.88708,0,0,0,0,0,0,0,-1,1161,470,-4.86853,3.88708
-56,554,-5.69958,-6.45422,0,0,0,0,0,0,0,-1,1168,470,-5.69955,6.45422
-49,554,-6.23645,-8.8569,0,0,0,0,0,0,0,-1,1175,470,-6.23643,8.85689
-42,554,-6.62524,-11.5382,0,0,0,0,0,0,0,-1,1182,470,-6.62522,11.5382
-35,554,-2.40173,-4.59482,0,0,0,0,0,0,0,-1,1189,470,-2.40169,4.59481
-28,554,-0.760132,-1.65555,0,0,0,0,0,0,0,-1,1196,470,-0.760095,1.65556
-21,554,7.18884,-69.2834,0,0,0,0,0,0,0,-1,1203,470,7.18885,69.2834
-14,554,19.6727,-273.742,0,0,0,0,0,0,0,-1,1210,470,19.6728,273.742
-7,554,17.7529,-271.729,0,0,0,0,0,0,0,-1,1217,470,17.7529,271.729
0,554,15.7909,-269.888,0,0,0,0,0,0,0,-1,1224,470,15.7909,269.888
7,554,12.0865,-266.067,0,0,0,0,0,0,0,-1,1231,470,12.0865,266.067
14,554,10.5402,-265.929,0,0,0,0,0,0,0,-1,1238,470,10.5401,265.929
21,554,8.62463,-265.766,0,0,0,0,0,0,0,-1,1245,470,8.62461,265.766
28,554,6.89417,-265.27,0,0,0,0,0,0,0,-1,1252,470,6.89416,265.27
35,554,5.58289,-264.631,0,0,0,0,0,0,0,-1,1259,470,5.58294,264.631
42,554,4.23291,-264.028,0,0,0,0,0,0,0,-1,1266,470,4.23286,264.028
49,554,2.92651,-263.311,0,0,0,0,0,0,0,-1,1273,470,2.92652,263.311
56,554,1.68188,-262.68,0,0,0,0,0,0,0,-1,1280,470,1.68186,262.68
63,554,0.399048,-262.635,0,0,0,0,0,0,0,-1,1287,470,0.399,262.635
70,554,-1.03735,-262.342,0,0,0,0,0,0,0,-1,1294,470,-1.03739,262.342
77,554,-2.10913,-261.062,0,0,0,0,0,0,0,-1,1301,470,-2.10916,261.062
84,554,-3.34851,-259.967,0,0,0,0,0,0,0,-1,1308,470,-3.34852,259.967
91,554,-4.85095,-259.088,0,0,0,0,0,0,0,-1,1315,470,-4.85099,259.088
98,554,-8.05725,-262.619,0,0,0,0,0,0,0,-1,1322,470,-8.05721,262.619
105,554,-8.61023,-262.119,0,0,0,0,0,0,0,-1,1329,470,-8.61018,262.119
112,554,-9.38123,-261.543,0,0,0,0,0,0,0,-1,1336,470,-9.3812,261.543
119,554,-10.1493,-261.26,0,0,0,0,0,0,0,-1,1343,470,-10.1493,261.26
126,554,-10.6705,-258.198,0,0,0,0,0,0,0,-1,1350,470,-10.6705,258.198
133,554,-10.6786,-256.505,0,0,0,0,0,0,0,-1,1357,470,-10.6786,256.505
140,554,-14.1263,-259.073,0,0,0,0,0,0,0,-1,1364,470,-14.1263,259.073
147,554,-14.5531,-257.957,0,0,0,0,0,0,0,-1,1371,470,-14.5531,257.957
154,554,-15.1317,-256.939,0,0,0,0,0,0,0,-1,1378,470,-15.1317,256.939
161,554,-15.522,-255.882,0,0,0,0,0,0,0,-1,1385,470,-15.5219,255.882
168,554,-15.8523,-254.804,0,0,0,0,0,0,0,-1,1392,470,-15.8523,254.804
175,554,10.663,0.286957,0,0,0,0,0,0,0,-1,1399,470,10.663,-0.286966
182,554,6.71106,-4.50217,0,0,0,0,0,0,0,-1,1406,470,6.71107,4.50215
189,554,6.90479,-2.50348,0,0,0,0,0,0,0,-1,1413,470,6.90477,2.50348
196,554,6.96216,-0.740906,0,0,0,0,0,0,0,-1,1420,470,6.96214,0.740912
203,554,6.43518,0.414154,0,0,0,0,0,0,0,-1,1427,470,6.43523,-0.414141
210,554,6.21167,1.96707,0,0,0,0,0,0,0,-1,1434,470,6.21165,-1.96706
217,554,5.64551,3.4989,0,0,0,0,0,0,0,-1,1441,470,5.64555,-3.49891
224,554,4.85144,-8.85172,0,0,0,0,0,0,0,-1,1448,470,4.85146,8.85173
231,554,3.25073,-5.29642,0,0,0,0,0,0,0,-1,1455,470,3.25078,5.29642
238,554,4.28625,-3.25253,0,0,0,0,0,0,0,-1,1462,470,4.28622,3.25252
245,554,4.0752,-2.90033,0,0,0,0,0,0,0,-1,1469,470,4.07515,2.90032
252,554,3.52112,-0.934998,0,0,0,0,0,0,0,-1,1476,470,3.52113,0.934996
259,554,3.96448,-2.16425,0,0,0,0,0,0,0,-1,1483,470,3.96446,2.16424
266,554,3.0592,-2.71716,0,0,0,0,0,0,0,-1,1490,470,3.05923,2.71718
273,554,2.58521,-3.06876,0,0,0,0,0,0,0,-1,1497,470,2.58524,3.06874
280,554,17.1266,-60.7137,0,0,0,0,0,0,0,-1,1504,470,17.1266,60.7137
287,554,15.8918,-56.7317,0,0,0,0,0,0,0,-1,1511,470,15.8918,56.7317
294,554,18.4086,-63.1683,0,0,0,0,0,0,0,-1,1518,470,18.4085,63.1683
301,554,18.8044,-71.5027,0,0,0,0,0,0,0,-1,1525,470,18.8045,71.5028
308,554,21.7498,-95.5919,0,0,0,0,0,0,0,-1,1532,470,21.7498,95.5919
315,554,22.215,-100.177,0,0,0,0,0,0,0,-1,1539,470,22.215,100.177
322,554,22.08,-98.105,0,0,0,0,0,0,0,-1,1546,470,22.08,98.105
329,554,23.7661,-126.615,0,0,0,0,0,0,0,-1,1553,470,23.7661,126.615
336,554,45.6349,-211.196,0,0,0,0,0,0,0,-1,1560,470,45.6349,211.196
343,554,45.9159,-208.409,0,0,0,0,0,0,0,-1,1567,470,45.9159,208.409
350,554,45.7559,-205.368,0,0,0,0,0,0,0,-1,1574,470,45.7559,205.368
357,554,45.6553,-202.287,0,0,0,0,0,0,0,-1,1581,470,45.6552,202.287
364,554,45.5035,-199.484,0,0,0,0,0,0,0,-1,1588,470,45.5036,199.484
371,554,45.3562,-196.506,0.0759214,0.00582734,-0.0468951,0.0994187,-0.01767,-0.464497,0.0728866,0.0356365,1595,470,45.3562,196.506
378,554,45.1653,-193.321,0.0705698,0.00730976,-0.044359,0.0934208,-0.0155412,-0.475684,0.068055,0.0202138,1602,470,45.1653,193.321
385,554,44.9731,-190.122,0.0648063,0.00887787,-0.0410815,0.086538,-0.0128538,-0.48657,0.0624194,0.0191413,1609,470,44.9731,190.122
392,554,44.772,-186.998,0.0591225,0.0105696,-0.0374786,0.0795002,-0.00980806,-0.498005,0.0565537,0.02326,1616,470,44.772,186.998
399,554,44.3651,-183.561,0.0540787,0.011904,-0.0341295,0.0731099,-0.0071272,-0.508673,0.0512811,0.024386,1623,470,44.3651,183.561
406,554,44.0807,-180.196,0.0500296,0.0132818,-0.0311464,0.0678178,-0.00450636,-0.518911,0.0467864,0.0254488,1630,470,44.0807,180.196
413,554,43.5334,-176.822,0.0465736,0.0144995,-0.0279672,0.0627755,-0.00170237,-0.525074,0.0424292,0.021605,1637,470,43.5335,176.822
420,554,42.7084,-173.399,0.0439364,0.0159436,-0.0251639,0.0587344,0.00114559,-0.531599,0.0387801,0.0224392,1644,470,42.7084,173.399
427,554,42.1593,-169.769,0.0423098,0.0179586,-0.0221201,0.0553838,0.00488457,-0.53381,0.0354068,0.0265994,1651,470,42.1593,169.769
434,554,41.682,-166.196,0.0413593,0.020161,-0.0193876,0.052856,0.00866444,-0.535247,0.0327337,0.0334671,1658,470,41.682,166.196
441,554,41.1534,-162.341,0.0407198,0.022315,-0.0168699,0.050734,0.0123008,-0.535711,0.0305591,0.0446092,1665,470,41.1534,162.341
448,554,40.5886,-158.53,0,0,0,0,0,0,0,-1,1672,470,40.5886,158.53
455,554,39.0417,-154.461,0,0,0,0,0,0,0,-1,1679,470,39.0418,154.461
462,554,37.4185,-150.289,0,0,0,0,0,0,0,-1,1686,470,37.4184,150.289
469,554,16.9983,-83.4775,0,0,0,0,0,0,0,-1,1693,470,16.9982,83.4776
476,554,17.3702,-71.8294,0,0,0,0,0,0,0,-1,1700,470,17.3703,71.8294
483,554,16.5232,-37.438,0,0,0,0,0,0,0,-1,1707,470,16.5232,37.438
490,554,12.5504,-17.9805,0,0,0,0,0,0,0,-1,1714,470,12.5505,17.9805
497,554,14.3204,-17.9055,0,0,0,0,0,0,0,-1,1721,470,14.3204,17.9055
504,554,2.13257,-3.81628,0,0,0,0,0,0,0,-1,1728,470,2.1326,3.8163
511,554,1.31396,-4.02713,0,0,0,0,0,0,0,-1,1735,470,1.31398,4.02712
518,554,5.04236,-5.9472,0,0,0,0,0,0,0,-1,1742,470,5.04231,5.94721
525,554,0,0,0,0,0,0,0,0,0,-1,1749,470,0,0
532,554,0,0,0,0,0,0,0,0,0,-1,1756,470,0,0
539,554,0,0,0,0,0,0,0,0,0,-1,1763,470,0,0
546,554,0,0,0,0,0,0,0,0,0,-1,1770,470,0,0
553,554,0,0,0,0,0,0,0,0,0,-1,1777,470,0,0
560,554,0,0,0,0,0,0,0,0,0,-1,1784,470,0,0
567,554,0,0,0,0,0,0,0,0,0,-1,1791,470,0,0
574,554,0,0,0,0,0,0,0,0,0,-1,1798,470,0,0
581,554,0,0,0,0,0,0,0,0,0,-1,1805,470,0,0
588,554,0,0,0,0,0,0,0,0,0,-1,1812,470,0,0
595,554,0,0,0,0,0,0,0,0,0,-1,1819,470,0,0
602,554,0,0,0,0,0,0,0,0,0,-1,1826,470,0,0
609,554,0,0,0,0,0,0,0,0,0,-1,1833,470,0,0
616,554,0,0,0,0,0,0,0,0,0,-1,1840,470,0,0
623,554,0,0,0,0,0,0,0,0,0,-1,1847,470,0,0
630,554,0,0,0,0,0,0,0,0,0,-1,1854,470,0,0
637,554,0,0,0,0,0,0,0,0,0,-1,1861,470,0,0
644,554,0,0,0,0,0,0,0,0,0,-1,1868,470,0,0
651,554,0,0,0,0,0,0,0,0,0,-1,1875,470,0,0
658,554,0,0,0,0,0,0,0,0,0,-1,1882,470,0,0
665,554,0,0,0,0,0,0,0,0,0,-1,1889,470,0,0
672,554,0,0,0,0,0,0,0,0,0,-1,1896,470,0,0
679,554,0,0,0,0,0,0,0,0,0,-1,1903,470,0,0
686,554,0,0,0,0,0,0,0,0,0,-1,1910,470,0,0
693,554,0,0,0,0,0,0,0,0,0,-1,1917,470,0,0
700,554,0,0,0,0,0,0,0,0,0,-1,1924,470,0,0
707,554,0,0,0,0,0,0,0,0,0,-1,1931,470,0,0
714,554,0,0,0,0,0,0,0,0,0,-1,1938,470,0,0
721,554,0,0,0,0,0,0,0,0,0,-1,1945,470,0,0
728,554,0,0,0,0,0,0,0,0,0,-1,1952,470,0,0
735,554,0,0,0,0,0,0,0,0,0,-1,1959,470,0,0
742,554,0,0,0,0,0,0,0,0,0,-1,1966,470,0,0
749,554,0,0,0,0,0,0,0,0,0,-1,1973,470,0,0
756,554,0,0,0,0,0,0,0,0,0,-1,1980,470,0,0
763,554,0,0,0,0,0,0,0,0,0,-1,1987,470,0,0
770,554,0,0,0,0,0,0,0,0,0,-1,1994,470,0,0
777,554,0,0,0,0,0,0,0,0,0,-1,2001,470,0,0
784,554,0,0,0,0,0,0,0,0,0,-1,2008,470,0,0
791,554,0,0,0,0,0,0,0,0,0,-1,2015,470,0,0
798,554,0,0,0,0,0,0,0,0,0,-1,2022,470,0,0
805,554,0,0,0,0,0,0,0,0,0,-1,2029,470,0,0
812,554,0,0,0,0,0,0,0,0,0,-1,2036,470,0,0
-700,547,0,0,0,0,0,0,0,0,0,-1,524,477,0,0
-693,547,0,0,0,0,0,0,0,0,0,-1,531,477,0,0
-686,547,0,0,0,0,0,0,0,0,0,-1,538,477,0,0
-679,547,0,0,0,0,0,0,0,0,0,-1,545,477,0,0
-672,547,0,0,0,0,0,0,0,0,0,-1,552,477,0,0
-665,547,0,0,0,0,0,0,0,0,0,-1,559,477,0,0
-658,547,0,0,0,0,0,0,0,0,0,-1,566,477,0,0
-651,547,0,0,0,0,0,0,0,0,0,-1,573,477,0,0
-644,547,0,0,0,0,0,0,0,0,0,-1,580,477,0,0
-637,547,0,0,0,0,0,0,0,0,0,-1,587,477,0,0
-630,547,0,0,0,0,0,0,0,0,0,-1,594,477,0,0
-623,547,0,0,0,0,0,0,0,0,0,-1,601,477,0,0
-616,547,0,0,0,0,0,0,0,0,0,-1,608,477,0,0
-609,547,0,0,0,0,0,0,0,0,0,-1,615,477,0,0
-602,547,0,0,0,0,0,0,0,0,0,-1,622,477,0,0
-595,547,0,0,0,0,0,0,0,0,0,-1,629,477,0,0
-588,547,0,0,0,0,0,0,0,0,0,-1,636,477,0,0
-581,547,0,0,0,0,0,0,0,0,0,-1,643,477,0,0
-574,547,0,0,0,0,0,0,0,0,0,-1,650,477,0,0
-567,547,0,0,0,0,0,0,0,0,0,-1,657,477,0,0
-560,547,0,0,0,0,0,0,0,0,0,-1,664,477,0,0
-553,547,0,0,0,0,0,0,0,0,0,-1,671,477,0,0
-546,547,0,0,0,0,0,0,0,0,0,-1,678,477,0,0
-539,547,0,0,0,0,0,0,0,0,0,-1,685,477,0,0
-532,547,0,0,0,0,0,0,0,0,0,-1,692,477,0,0
-525,547,0,0,0,0,0,0,0,0,0,-1,699,477,0,0
-518,547,0,0,0,0,0,0,0,0,0,-1,706,477,0,0
-511,547,0,0,0,0,0,0,0,0,0,-1,713,477,0,0
-504,547,0,0,0,0,0,0,0,0,0,-1,720,477,0,0
-497,547,0,0,0,0,0,0,0,0,0,-1,727,477,0,0
-490,547,0,0,0,0,0,0,0,0,0,-1,734,477,0,0
-483,547,0,0,0,0,0,0,0,0,0,-1,741,477,0,0
-476,547,0,0,0,0,0,0,0,0,0,-1,748,477,0,0
-469,547,0,0,0,0,0,0,0,0,0,-1,755,477,0,0
-462,547,0,0,0,0,0,0,0,0,0,-1,762,477,0,0
-455,547,0,0,0,0,0,0,0,0,0,-1,769,477,0,0
-448,547,0,0,0,0,0,0,0,0,0,-1,776,477,0,0
-441,547,0,0,0,0,0,0,0,0,0,-1,783,477,0,0
-434,547,0,0,0,0,0,0,0,0,0,-1,790,477,0,0
-427,547,0,0,0,0,0,0,0,0,0,-1,797,477,0,0
-420,547,0,0,0,0,0,0,0,0,0,-1,804,477,0,0
-413,547,0,0,0,0,0,0,0,0,0,-1,811,477,0,0
-406,547,0.144592,-11.0292,0,0,0,0,0,0,0,-1,818,477,0.144583,11.0292
-399,547,0.775513,-10.0294,0,0,0,0,0,0,0,-1,825,477,0.775482,10.0295
-392,547,0.219055,-28.7913,0,0,0,0,0,0,0,-1,832,477,0.219056,28.7913
-385,547,0.564331,-29.2501,0,0,0,0,0,0,0,-1,839,477,0.564342,29.2501
-378,547,0.934631,-29.7303,0,0,0,0,0,0,0,-1,846,477,0.934644,29.7303
-371,547,1.85028,-29.6768,0,0,0,0,0,0,0,-1,853,477,1.85026,29.6768
-364,547,1.65063,-30.9048,0,0,0,0,0,0,0,-1,860,477,1.65062,30.9048
-357,547,1.38422,-32.116,0,0,0,0,0,0,0,-1,867,477,1.3842,32.116
-350,547,-2.25751,-57.7035,0,0,0,0,0,0,0,-1,874,477,-2.25754,57.7035
-343,547,-7.14227,-105.726,0,0,0,0,0,0,0,-1,881,477,-7.14228,105.726
-336,547,-8.40704,-139.106,0,0,0,0,0,0,0,-1,888,477,-8.40706,139.106
-329,547,-31.8747,-152.837,0,0,0,0,0,0,0,-1,895,477,-31.8747,152.837
-322,547,-32.7338,-157.017,0.0349723,0.0136911,0.016983,0.0443727,0.00429062,0.505543,0.0282604,0.0374561,902,477,-32.7337,157.017
-315,547,-33.6258,-160.989,0.0381358,0.0124409,0.020981,0.0498904,0.000686336,0.510677,0.0330339,0.0187066,909,477,-33.6258,160.989
-308,547,-34.4127,-164.647,0.0410863,0.010951,0.0250932,0.0552881,-0.00325087,0.515017,0.0379888,0.0215279,916,477,-34.4127,164.647
-301,547,-35.0988,-168.22,0.0439877,0.00868599,0.0293424,0.060579,-0.00790538,0.51462,0.0432626,0.021845,923,477,-35.0987,168.22
-294,547,-35.6995,-171.842,0.0472589,0.00566335,0.0333075,0.0657286,-0.0128064,0.506308,0.048653,0.0171443,930,477,-35.6995,171.842
-287,547,-36.2801,-175.466,0.0506222,0.00266643,0.036886,0.0706388,-0.0173502,0.497191,0.0538164,0.0184503,937,477,-36.2801,175.466
-280,547,-36.8599,-178.982,0.0538546,-0.000154249,0.039943,0.0750651,-0.0213648,0.488155,0.0584807,0.023653,944,477,-36.8599,178.982
-273,547,-37.3812,-182.267,0.0574174,-0.00302194,0.0425272,0.0793685,-0.024973,0.476497,0.0629112,0.0199279,951,477,-37.3811,182.267
-266,547,-37.7893,-185.477,0.0611583,-0.00554218,0.0446832,0.0835649,-0.0279488,0.464811,0.0669984,0.0195256,958,477,-37.7893,185.477
-259,547,-38.0274,-188.634,0.0648271,-0.00768044,0.046106,0.0872257,-0.0300791,0.452229,0.0703538,0.0185226,965,477,-38.0274,188.634
-252,547,-37.9509,-191.978,0.0683087,-0.00928118,0.0466039,0.0901518,-0.0311243,0.438293,0.0727308,0.0250323,972,477,-37.9509,191.978
-245,547,-37.7697,-195.204,0.0719238,-0.0104296,0.0468877,0.0931488,-0.0316547,0.425079,0.0749142,0.0287015,979,477,-37.7697,195.204
-238,547,-38.2623,-198.32,0.074913,-0.0107347,0.0468823,0.0955859,-0.0314075,0.415304,0.0763769,0.0211846,986,477,-38.2623,198.32
-231,547,-38.7518,-201.252,0.0781317,-0.01027,0.0467841,0.0982928,-0.0304312,0.406891,0.0776851,0.0286696,993,477,-38.7518,201.252
-224,547,-38.6721,-203.969,0,0,0,0,0,0,0,-1,1000,477,-38.672,203.969
-217,547,-38.5054,-207.068,0,0,0,0,0,0,0,-1,1007,477,-38.5054,207.068
-210,547,-17.7064,-159.297,0,0,0,0,0,0,0,-1,1014,477,-17.7064,159.297
-203,547,-3.7373,-74.9356,0,0,0,0,0,0,0,-1,1021,477,-3.73728,74.9356
-196,547,-3.4635,-72.0665,0,0,0,0,0,0,0,-1,1028,477,-3.46345,72.0665
-189,547,-3.04053,-72.5745,0,0,0,0,0,0,0,-1,1035,477,-3.04049,72.5745
-182,547,-1.53381,-67.4076,0,0,0,0,0,0,0,-1,1042,477,-1.53385,67.4076
-175,547,1.37634,-47.526,0,0,0,0,0,0,0,-1,1049,477,1.3763,47.526
-168,547,0.761719,-32.9387,0,0,0,0,0,0,0,-1,1056,477,0.761738,32.9387
-161,547,0.0430908,-34.6016,0,0,0,0,0,0,0,-1,1063,477,0.0431231,34.6016
-154,547,-0.284424,-31.1176,0,0,0,0,0,0,0,-1,1070,477,-0.284395,31.1176
-147,547,3.69434,-26.413,0,0,0,0,0,0,0,-1,1077,477,3.69437,26.413
-140,547,1.55676,-22.5229,0,0,0,0,0,0,0,-1,1084,477,1.5568,22.5229
-133,547,2.31665,-17.9421,0,0,0,0,0,0,0,-1,1091,477,2.31667,17.9421
-126,547,-1.15271,-30.6984,0,0,0,0,0,0,0,-1,1098,477,-1.15267,30.6984
-119,547,0.967651,-24.9351,0,0,0,0,0,0,0,-1,1105,477,0.967657,24.9351
-112,547,1.15674,-22.2276,0,0,0,0,0,0,0,-1,1112,477,1.15677,22.2276
-105,547,0.966797,-20.5777,0,0,0,0,0,0,0,-1,1119,477,0.966804,20.5777
-98,547,0.70166,-18.9755,0,0,0,0,0,0,0,-1,1126,477,0.701713,18.9755
-91,547,1.37805,-7.12024,0,0,0,0,0,0,0,-1,1133,477,1.37804,7.12025
-84,547,1.94202,-6.66241,0,0,0,0,0,0,0,-1,1140,477,1.94201,6.66241
-77,547,-2.28357,1.8588,0,0,0,0,0,0,0,-1,1147,477,-2.28356,-1.85879
-70,547,-3.70178,-0.874908,0,0,0,0,0,0,0,-1,1154,477,-3.70182,0.874918
-63,547,-5.12012,-3.60861,0,0,0,0,0,0,0,-1,1161,477,-5.12009,3.60862
-56,547,-6.01917,-6.2399,0,0,0,0,0,0,0,-1,1168,477,-6.01921,6.23991
-49,547,-6.729,-8.60349,0,0,0,0,0,0,0,-1,1175,477,-6.72899,8.60348
-42,547,-2.41736,-5.53012,0,0,0,0,0,0,0,-1,1182,477,-2.41734,5.53011
-35,547,-2.96838,-4.45734,0,0,0,0,0,0,0,-1,1189,477,-2.96839,4.45734
-28,547,-0.869141,-1.29901,0,0,0,0,0,0,0,-1,1196,477,-0.869135,1.29901
-21,547,5.84937,-261.939,0,0,0,0,0,0,0,-1,1203,477,5.84941,261.939
-14,547,20.2421,-274.45,0,0,0,0,0,0,0,-1,1210,477,20.2421,274.45
-7,547,18.2933,-272.619,0,0,0,0,0,0,0,-1,1217,477,18.2933,272.619
0,547,16.3307,-270.805,0,0,0,0,0,0,0,-1,1224,477,16.3307,270.806
7,547,14.3851,-268.99,0,0,0,0,0,0,0,-1,1231,477,14.3852,268.99
14,547,0,0,0,0,0,0,0,0,0,-1,1238,477,0,0
21,547,0,0,0,0,0,0,0,0,0,-1,1245,477,0,0
28,547,0,0,0,0,0,0,0,0,0,-1,1252,477,0,0
35,547,0,0,0,0,0,0,0,0,0,-1,1259,477,0,0
42,547,0,0,0,0,0,0,0,0,0,-1,1266,477,0,0
49,547,0,0,0,0,0,0,0,0,0,-1,1273,477,0,0
56,547,0,0,0,0,0,0,0,0,0,-1,1280,477,0,0
63,547,0,0,0,0,0,0,0,0,0,-1,1287,477,0,0
70,547,0,0,0,0,0,0,0,0,0,-1,1294,477,0,0
77,547,0,0,0,0,0,0,0,0,0,-1,1301,477,0,0
84,547,0,0,0,0,0,0,0,0,0,-1,1308,477,0,0
91,547,0,0,0,0,0,0,0,0,0,-1,1315,477,0,0
98,547,0,0,0,0,0,0,0,0,0,-1,1322,477,0,0
105,547,-9.66663,-262.092,0,0,0,0,0,0,0,-1,1329,477,-9.66663,262.092
112,547,-10.5378,-260.938,0,0,0,0,0,0,0,-1,1336,477,-10.5378,260.938
119,547,-11.4215,-260.063,0,0,0,0,0,0,0,-1,1343,477,-11.4215,260.063
126,547,-12.4204,-259.68,0,0,0,0,0,0,0,-1,1350,477,-12.4205,259.68
133,547,-13.7721,-259.485,0,0,0,0,0,0,0,-1,1357,477,-13.7721,259.485
140,547,-14.9291,-259.166,0,0,0,0,0,0,0,-1,1364,477,-14.9291,259.166
147,547,-15.2665,-258.446,0,0,0,0,0,0,0,-1,1371,477,-15.2665,258.446
154,547,-15.5857,-257.464,0,0,0,0,0,0,0,-1,1378,477,-15.5857,257.464
161,547,-15.9368,-256.282,0,0,0,0,0,0,0,-1,1385,477,-15.9367,256.282
168,547,-16.1832,-255.118,0,0,0,0,0,0,0,-1,1392,477,-16.1832,255.118
175,547,3.35034,-0.26532,0,0,0,0,0,0,0,-1,1399,477,3.3503,0.265306
182,547,4.26038,3.72672,0,0,0,0,0,0,0,-1,1406,477,4.26039,-3.7267
189,547,3.40454,1.28671,0,0,0,0,0,0,0,-1,1413,477,3.40457,-1.28673
196,547,3.53931,1.87793,0,0,0,0,0,0,0,-1,1420,477,3.53928,-1.87794
203,547,6.49414,-0.425842,0,0,0,0,0,0,0,-1,1427,477,6.4941,0.425844
210,547,4.82092,0.53595,0,0,0,0,0,0,0,-1,1434,477,4.82096,-0.535942
217,547,4.68579,0.480072,0,0,0,0,0,0,0,-1,1441,477,4.68577,-0.480069
224,547,4.55615,0.739807,0,0,0,0,0,0,0,-1,1448,477,4.55613,-0.73981
231,547,5.90869,-3.57721,0,0,0,0,0,0,0,-1,1455,477,5.90871,3.57722
238,547,5.50049,-3.15356,0,0,0,0,0,0,0,-1,1462,477,5.50045,3.15356
245,547,5.13708,-2.65213,0,0,0,0,0,0,0,-1,1469,477,5.13708,2.65212
252,547,3.73511,-0.645233,0,0,0,0,0,0,0,-1,1476,477,3.73515,0.645237
259,547,5.86816,-3.20816,0,0,0,0,0,0,0,-1,1483,477,5.86815,3.20816
266,547,5.40222,-2.45731,0,0,0,0,0,0,0,-1,1490,477,5.40221,2.45732
273,547,3.05737,0.495789,0,0,0,0,0,0,0,-1,1497,477,3.05742,-0.49578
280,547,2.0885,1.47797,0,0,0,0,0,0,0,-1,1504,477,2.08848,-1.47795
287,547,16.7034,-52.6257,0,0,0,0,0,0,0,-1,1511,477,16.7033,52.6258
294,547,16.8954,-51.6904,0,0,0,0,0,0,0,-1,1518,477,16.8954,51.6904
301,547,16.5122,-48.5859,0,0,0,0,0,0,0,-1,1525,477,16.5122,48.5859
308,547,14.5352,-46.2472,0,0,0,0,0,0,0,-1,1532,477,14.5351,46.2472
315,547,16.3188,-48.3778,0,0,0,0,0,0,0,-1,1539,477,16.3188,48.3778
322,547,17.0029,-52.4161,0,0,0,0,0,0,0,-1,1546,477,17.0029,52.4161
329,547,21.0952,-81.7401,0,0,0,0,0,0,0,-1,1553,477,21.0952,81.7401
336,547,22.9993,-90.8107,0,0,0,0,0,0,0,-1,1560,477,22.9993,90.8107
343,547,25.0878,-120.782,0,0,0,0,0,0,0,-1,1567,477,25.0877,120.782
350,547,48.9072,-204.691,0,0,0,0,0,0,0,-1,1574,477,48.9073,204.691
357,547,49.1021,-202.316,0,0,0,0,0,0,0,-1,1581,477,49.1021,202.316
364,547,48.8857,-198.905,0,0,0,0,0,0,0,-1,1588,477,48.8858,198.905
371,547,48.8521,-195.603,0.0857163,0.00549453,-0.0529192,0.112008,-0.0207973,-0.461108,0.0824832,0.0178725,1595,477,48.852,195.603
378,547,48.766,-192.383,0.0804379,0.00705321,-0.0507409,0.106363,-0.0188721,-0.472357,0.0779646,0.0192608,1602,477,48.766,192.383
385,547,48.4745,-189.07,0.0743848,0.00864199,-0.0473724,0.0991734,-0.0161466,-0.48209,0.0721029,0.0223928,1609,477,48.4745,189.07
392,547,48.2997,-185.869,0.0680076,0.00983325,-0.0440232,0.091685,-0.0138442,-0.493459,0.0662222,0.0302496,1616,477,48.2997,185.869
399,547,47.9708,-182.554,0.0623506,0.0108706,-0.0406851,0.0847544,-0.0115332,-0.503352,0.0607136,0.0307413,1623,477,47.9709,182.554
406,547,47.6248,-179.225,0.0577102,0.0120321,-0.0376041,0.0788677,-0.00912537,-0.512493,0.0558692,0.0223522,1630,477,47.6248,179.225
413,547,47.1552,-175.711,0.0538005,0.0130455,-0.0344452,0.0734444,-0.00659842,-0.518291,0.051304,0.024117,1637,477,47.1552,175.71
420,547,46.4042,-172.281,0.0506459,0.0142644,-0.0316445,0.0689556,-0.00404524,-0.524539,0.0473764,0.0383824,1644,477,46.4041,172.281
427,547,45.676,-168.962,0,0,0,0,0,0,0,-1,1651,477,45.676,168.962
434,547,45.5577,-165.281,0.0464693,0.0176011,-0.0257876,0.0615876,0.00248283,-0.530257,0.0402563,0.0448822,1658,477,45.5578,165.281
441,547,44.8633,-161.814,0.0450335,0.0193844,-0.0229236,0.058476,0.00594186,-0.530364,0.0371621,0.0325422,1665,477,44.8633,161.814
448,547,43.9156,-157.92,0.0441199,0.0205694,-0.0199136,0.0554792,0.0092101,-0.518393,0.0343304,0.0287865,1672,477,43.9156,157.92
455,547,43.132,-154.109,0.0423424,0.0223272,-0.0163118,0.0514719,0.0131977,-0.510248,0.0308705,0.0355782,1679,477,43.132,154.109
462,547,42.4283,-150.15,0,0,0,0,0,0,0,-1,1686,477,42.4283,150.15
469,547,40.354,-146.109,0,0,0,0,0,0,0,-1,1693,477,40.354,146.109
476,547,18.7277,-80.9745,0,0,0,0,0,0,0,-1,1700,477,18.7277,80.9745
483,547,17.813,-45.9664,0,0,0,0,0,0,0,-1,1707,477,17.813,45.9664
490,547,3.65271,-3.71707,0,0,0,0,0,0,0,-1,1714,477,3.65277,3.71708
497,547,2.55481,-3.81421,0,0,0,0,0,0,0,-1,1721,477,2.55476,3.8142
504,547,4.01953,-2.22714,0,0,0,0,0,0,0,-1,1728,477,4.0195,2.22713
511,547,5.2146,-6.9552,0,0,0,0,0,0,0,-1,1735,477,5.21464,6.95521
518,547,5.24243,-6.56122,0,0,0,0,0,0,0,-1,1742,477,5.24241,6.56121
525,547,5.89368,-5.49866,0,0,0,0,0,0,0,-1,1749,477,5.89372,5.49866
532,547,0,0,0,0,0,0,0,0,0,-1,1756,477,0,0
539,547,0,0,0,0,0,0,0,0,0,-1,1763,477,0,0
546,547,0,0,0,0,0,0,0,0,0,-1,1770,477,0,0
553,547,0,0,0,0,0,0,0,0,0,-1,1777,477,0,0
560,547,0,0,0,0,0,0,0,0,0,-1,1784,477,0,0
567,547,0,0,0,0,0,0,0,0,0,-1,1791,477,0,0
574,547,0,0,0,0,0,0,0,0,0,-1,1798,477,0,0
581,547,0,0,0,0,0,0,0,0,0,-1,1805,477,0,0
588,547,0,0,0,0,0,0,0,0,0,-1,1812,477,0,0
595,547,0,0,0,0,0,0,0,0,0,-1,1819,477,0,0
602,547,0,0,0,0,0,0,0,0,0,-1,1826,477,0,0
609,547,0,0,0,0,0,0,0,0,0,-1,1833,477,0,0
616,547,0,0,0,0,0,0,0,0,0,-1,1840,477,0,0
623,547,0,0,0,0,0,0,0,0,0,-1,1847,477,0,0
630,547,0,0,0,0,0,0,0,0,0,-1,1854,477,0,0
637,547,0,0,0,0,0,0,0,0,0,-1,1861,477,0,0
644,547,0,0,0,0,0,0,0,0,0,-1,1868,477,0,0
651,547,0,0,0,0,0,0,0,0,0,-1,1875,477,0,0
658,547,0,0,0,0,0,0,0,0,0,-1,1882,477,0,0
665,547,0,0,0,0,0,0,0,0,0,-1,1889,477,0,0
672,547,0,0,0,0,0,0,0,0,0,-1,1896,477,0,0
679,547,0,0,0,0,0,0,0,0,0,-1,1903,477,0,0
686,547,0,0,0,0,0,0,0,0,0,-1,1910,477,0,0
693,547,0,0,0,0,0,0,0,0,0,-1,1917,477,0,0
700,547,0,0,0,0,0,0,0,0,0,-1,1924,477,0,0
707,547,0,0,0,0,0,0,0,0,0,-1,1931,477,0,0
714,547,0,0,0,0,0,0,0,0,0,-1,1938,477,0,0
721,547,0,0,0,0,0,0,0,0,0,-1,1945,477,0,0
728,547,0,0,0,0,0,0,0,0,0,-1,1952,477,0,0
735,547,0,0,0,0,0,0,0,0,0,-1,1959,477,0,0
742,547,0,0,0,0,0,0,0,0,0,-1,1966,477,0,0
749,547,0,0,0,0,0,0,0,0,0,-1,1973,477,0,0
756,547,0,0,0,0,0,0,0,0,0,-1,1980,477,0,0
763,547,0,0,0,0,0,0,0,0,0,-1,1987,477,0,0
770,547,0,0,0,0,0,0,0,0,0,-1,1994,477,0,0
777,547,0,0,0,0,0,0,0,0,0,-1,2001,477,0,0
784,547,0,0,0,0,0,0,0,0,0,-1,2008,477,0,0
791,547,0,0,0,0,0,0,0,0,0,-1,2015,477,0,0
798,547,0,0,0,0,0,0,0,0,0,-1,2022,477,0,0
805,547,0,0,0,0,0,0,0,0,0,-1,2029,477,0,0
812,547,0,0,0,0,0,0,0,0,0,-1,2036,477,0,0
-700,540,0,0,0,0,0,0,0,0,0,-1,524,484,0,0
-693,540,0,0,0,0,0,0,0,0,0,-1,531,484,0,0
-686,540,0,0,0,0,0,0,0,0,0,-1,538,484,0,0
-679,540,0,0,0,0,0,0,0,0,0,-1,545,484,0,0
-672,540,0,0,0,0,0,0,0,0,0,-1,552,484,0,0
-665,540,0,0,0,0,0,0,0,0,0,-1,559,484,0,0
-658,540,0,0,0,0,0,0,0,0,0,-1,566,484,0,0
-651,540,0,0,0,0,0,0,0,0,0,-1,573,484,0,0
-644,540,0,0,0,0,0,0,0,0,0,-1,580,484,0,0
-637,540,0,0,0,0,0,0,0,0,0,-1,587,484,0,0
-630,540,0,0,0,0,0,0,0,0,0,-1,594,484,0,0
-623,540,0,0,0,0,0,0,0,0,0,-1,601,484,0,0
-616,540,0,0,0,0,0,0,0,0,0,-1,608,484,0,0
-609,540,0,0,0,0,0,0,0,0,0,-1,615,484,0,0
-602,540,0,0,0,0,0,0,0,0,0,-1,622,484,0,0
-595,540,0,0,0,0,0,0,0,0,0,-1,629,484,0,0
-588,540,0,0,0,0,0,0,0,0,0,-1,636,484,0,0
-581,540,0,0,0,0,0,0,0,0,0,-1,643,484,0,0
-574,540,0,0,0,0,0,0,0,0,0,-1,650,484,0,0
-567,540,0,0,0,0,0,0,0,0,0,-1,657,484,0,0
-560,540,0,0,0,0,0,0,0,0,0,-1,664,484,0,0
-553,540,0,0,0,0,0,0,0,0,0,-1,671,484,0,0
-546,540,0,0,0,0,0,0,0,0,0,-1,678,484,0,0
-539,540,0,0,0,0,0,0,0,0,0,-1,685,484,0,0
-532,540,0,0,0,0,0,0,0,0,0,-1,692,484,0,0
-525,540,0,0,0,0,0,0,0,0,0,-1,699,484,0,0
-518,540,0,0,0,0,0,0,0,0,0,-1,706,484,0,0
-511,540,0,0,0,0,0,0,0,0,0,-1,713,484,0,0
-504,540,0,0,0,0,0,0,0,0,0,-1,720,484,0,0
-497,540,0,0,0,0,0,0,0,0,0,-1,727,484,0,0
-490,540,0,0,0,0,0,0,0,0,0,-1,734,484,0,0
-483,540,0,0,0,0,0,0,0,0,0,-1,741,484,0,0
-476,540,0,0,0,0,0,0,0,0,0,-1,748,484,0,0
-469,540,0,0,0,0,0,0,0,0,0,-1,755,484,0,0
-462,540,0,0,0,0,0,0,0,0,0,-1,762,484,0,0
-455,540,0,0,0,0,0,0,0,0,0,-1,769,484,0,0
-448,540,0,0,0,0,0,0,0,0,0,-1,776,484,0,0
-441,540,0,0,0,0,0,0,0,0,0,-1,783,484,0,0
-434,540,0,0,0,0,0,0,0,0,0,-1,790,484,0,0
-427,540,0,0,0,0,0,0,0,0,0,-1,797,484,0,0
-420,540,0.227051,-10.0402,0,0,0,0,0,0,0,-1,804,484,0.227063,10.0402
-413,540,-0.0393677,-10.3862,0,0,0,0,0,0,0,-1,811,484,-0.0393683,10.3862
-406,540,-0.518372,-11.5288,0,0,0,0,0,0,0,-1,818,484,-0.518402,11.5288
-399,540,0.0863037,-11.3801,0,0,0,0,0,0,0,-1,825,484,0.0863201,11.3801
-392,540,-0.517395,-10.6735,0,0,0,0,0,0,0,-1,832,484,-0.517377,10.6735
-385,540,-0.41748,-29.7767,0,0,0,0,0,0,0,-1,839,484,-0.417475,29.7767
-378,540,-0.0524292,-30.2798,0,0,0,0,0,0,0,-1,846,484,-0.0524504,30.2798
-371,540,0.825806,-28.765,0,0,0,0,0,0,0,-1,853,484,0.8258,28.765
-364,540,0.631714,-31.1377,0,0,0,0,0,0,0,-1,860,484,0.631715,31.1377
-357,540,-8.12195,-96.1753,0,0,0,0,0,0,0,-1,867,484,-8.12197,96.1753
-350,540,-9.69135,-126.599,0,0,0,0,0,0,0,-1,874,484,-9.69134,126.599
-343,540,-10.6005,-131.501,0,0,0,0,0,0,0,-1,881,484,-10.6005,131.501
-336,540,-34.623,-148.288,0,0,0,0,0,0,0,-1,888,484,-34.6231,148.288
-329,540,-35.6899,-152.178,0.0362121,0.0121683,0.0200732,0.047588,0.000792386,0.515592,0.0314646,0.0273868,895,484,-35.69,152.178
-322,540,-36.6229,-156.001,0.0388389,0.0109117,0.024149,0.0527707,-0.00302011,0.52327,0.0362292,0.0200802,902,484,-36.6229,156.001
-315,540,-37.5568,-159.809,0.0417567,0.00928772,0.0282031,0.0580641,-0.00701964,0.524245,0.0412489,0.0179209,909,484,-37.5568,159.809
-308,540,-38.3435,-163.389,0.044766,0.0074213,0.0323403,0.0634373,-0.01125,0.523591,0.0464974,0.0203606,916,484,-38.3435,163.389
-301,540,-38.9966,-166.914,0.0480601,0.00490276,0.0365301,0.0689089,-0.015946,0.518618,0.0520749,0.0229224,923,484,-38.9966,166.914
-294,540,-39.4516,-170.659,0.0516602,0.00182804,0.0403338,0.0741533,-0.020665,0.508715,0.0575737,0.0213176,930,484,-39.4516,170.659
-287,540,-39.9167,-174.393,0.0552746,-0.00118438,0.0437275,0.0790931,-0.025003,0.498768,0.0627462,0.0158345,937,484,-39.9168,174.393
-280,540,-40.5318,-177.82,0.0587249,-0.00402206,0.0466076,0.0835347,-0.0288319,0.489163,0.0673887,0.0174743,944,484,-40.5318,177.82
-273,540,-41.0161,-181.114,0.0626565,-0.00690939,0.0489184,0.0878974,-0.0321503,0.47635,0.0717573,0.0198865,951,484,-41.016,181.114
-266,540,-41.2613,-184.32,0.066832,-0.00923842,0.050611,0.0921068,-0.0345132,0.463162,0.0755828,0.0292757,958,484,-41.2613,184.32
-259,540,-41.4825,-187.626,0.0709604,-0.0109493,0.0514789,0.0957883,-0.0357772,0.449382,0.0785492,0.0400441,965,484,-41.4825,187.626
-252,540,-41.2914,-190.848,0.074879,-0.0122527,0.0512662,0.0985903,-0.0359639,0.43321,0.0804408,0.041504,972,484,-41.2915,190.848
-245,540,-40.808,-194.282,0,0,0,0,0,0,0,-1,979,484,-40.8081,194.282
-238,540,-41.5137,-197.352,0,0,0,0,0,0,0,-1,986,484,-41.5137,197.352
-231,540,-42.3049,-200.315,0,0,0,0,0,0,0,-1,993,484,-42.3049,200.315
-224,540,-22.3848,-166.932,0,0,0,0,0,0,0,-1,1000,484,-22.3847,166.932
-217,540,-11.2583,-111.761,0,0,0,0,0,0,0,-1,1007,484,-11.2583,111.761
-210,540,-2.77222,-65.5617,0,0,0,0,0,0,0,-1,1014,484,-2.77221,65.5617
-203,540,-2.54187,-61.2912,0,0,0,0,0,0,0,-1,1021,484,-2.54189,61.2912
-196,540,-1.87683,-60.7388,0,0,0,0,0,0,0,-1,1028,484,-1.87686,60.7388
-189,540,-2.04358,-57.9892,0,0,0,0,0,0,0,-1,1035,484,-2.04359,57.9892
-182,540,-0.826782,-43.3494,0,0,0,0,0,0,0,-1,1042,484,-0.826777,43.3494
-175,540,1.73413,-10.728,0,0,0,0,0,0,0,-1,1049,484,1.73414,10.728
-168,540,1.18164,-7.65347,0,0,0,0,0,0,0,-1,1056,484,1.18163,7.65347
-161,540,-0.405884,-9.86481,0,0,0,0,0,0,0,-1,1063,484,-0.405886,9.8648
-154,540,1.96863,-22.0727,0,0,0,0,0,0,0,-1,1070,484,1.96859,22.0727
-147,540,1.32764,-21.9952,0,0,0,0,0,0,0,-1,1077,484,1.32762,21.9952
-140,540,1.40735,-15.6289,0,0,0,0,0,0,0,-1,1084,484,1.4073,15.6289
-133,540,2.28345,-17.6413,0,0,0,0,0,0,0,-1,1091,484,2.2835,17.6413
-126,540,1.25293,-23.9108,0,0,0,0,0,0,0,-1,1098,484,1.25288,23.9108
-119,540,1.55969,-23.0125,0,0,0,0,0,0,0,-1,1105,484,1.55968,23.0125
-112,540,1.4801,-21.6515,0,0,0,0,0,0,0,-1,1112,484,1.4801,21.6515
-105,540,1.30078,-19.8938,0,0,0,0,0,0,0,-1,1119,484,1.30077,19.8938
-98,540,1.08105,-18.1304,0,0,0,0,0,0,0,-1,1126,484,1.08101,18.1304
-91,540,1.56519,-7.48666,0,0,0,0,0,0,0,-1,1133,484,1.56514,7.48667
-84,540,-0.945923,4.43073,0,0,0,0,0,0,0,-1,1140,484,-0.945891,-4.43074
-77,540,-2.28894,2.14368,0,0,0,0,0,0,0,-1,1147,484,-2.28894,-2.14368
-70,540,-3.75244,-0.452576,0,0,0,0,0,0,0,-1,1154,484,-3.75244,0.452576
-63,540,-5.26257,-3.04767,0,0,0,0,0,0,0,-1,1161,484,-5.26262,3.04766
-56,540,-5.19055,-6.12595,0,0,0,0,0,0,0,-1,1168,484,-5.19057,6.12595
-49,540,-5.63867,-8.52298,0,0,0,0,0,0,0,-1,1175,484,-5.63871,8.52298
-42,540,0,0,0,0,0,0,0,0,0,-1,1182,484,0,0
-35,540,0,0,0,0,0,0,0,0,0,-1,1189,484,0,0
-28,540,0,0,0,0,0,0,0,0,0,-1,1196,484,0,0
-21,540,0,0,0,0,0,0,0,0,0,-1,1203,484,0,0
-14,540,0,0,0,0,0,0,0,0,0,-1,1210,484,0,0
-7,540,0,0,0,0,0,0,0,0,0,-1,1217,484,0,0
0,540,0,0,0,0,0,0,0,0,0,-1,1224,484,0,0
7,540,0,0,0,0,0,0,0,0,0,-1,1231,484,0,0
14,540,0,0,0,0,0,0,0,0,0,-1,1238,484,0,0
21,540,0,0,0,0,0,0,0,0,0,-1,1245,484,0,0
28,540,0,0,0,0,0,0,0,0,0,-1,1252,484,0,0
35,540,0,0,0,0,0,0,0,0,0,-1,1259,484,0,0
42,540,0,0,0,0,0,0,0,0,0,-1,1266,484,0,0
49,540,0,0,0,0,0,0,0,0,0,-1,1273,484,0,0
56,540,0,0,0,0,0,0,0,0,0,-1,1280,484,0,0
63,540,0,0,0,0,0,0,0,0,0,-1,1287,484,0,0
70,540,0,0,0,0,0,0,0,0,0,-1,1294,484,0,0
77,540,0,0,0,0,0,0,0,0,0,-1,1301,484,0,0
84,540,0,0,0,0,0,0,0,0,0,-1,1308,484,0,0
91,540,0,0,0,0,0,0,0,0,0,-1,1315,484,0,0
98,540,0,0,0,0,0,0,0,0,0,-1,1322,484,0,0
105,540,0,0,0,0,0,0,0,0,0,-1,1329,484,0,0
112,540,0,0,0,0,0,0,0,0,0,-1,1336,484,0,0
119,540,0,0,0,0,0,0,0,0,0,-1,1343,484,0,0
126,540,0,0,0,0,0,0,0,0,0,-1,1350,484,0,0
133,540,0,0,0,0,0,0,0,0,0,-1,1357,484,0,0
140,540,0,0,0,0,0,0,0,0,0,-1,1364,484,0,0
147,540,0,0,0,0,0,0,0,0,0,-1,1371,484,0,0
154,540,0,0,0,0,0,0,0,0,0,-1,1378,484,0,0
161,540,0,0,0,0,0,0,0,0,0,-1,1385,484,0,0
168,540,3.05078,-0.0010376,0,0,0,0,0,0,0,-1,1392,484,3.05084,0.00102554
175,540,3.37708,0.617035,0,0,0,0,0,0,0,-1,1399,484,3.37707,-0.617046
182,540,3.32678,1.23267,0,0,0,0,0,0,0,-1,1406,484,3.32678,-1.23266
189,540,3.5813,2.15619,0,0,0,0,0,0,0,-1,1413,484,3.58129,-2.1562
196,540,1.84448,-0.801483,0,0,0,0,0,0,0,-1,1420,484,1.84446,0.80148
203,540,4.14648,0.702087,0,0,0,0,0,0,0,-1,1427,484,4.14645,-0.702089
210,540,4.50671,-0.56076,0,0,0,0,0,0,0,-1,1434,484,4.50667,0.560771
217,540,5.00452,-0.278717,0,0,0,0,0,0,0,-1,1441,484,5.00452,0.278709
224,540,6.44458,-2.83527,0,0,0,0,0,0,0,-1,1448,484,6.44457,2.83525
231,540,6.9231,-3.10504,0,0,0,0,0,0,0,-1,1455,484,6.92307,3.10505
238,540,6.4823,-2.58365,0,0,0,0,0,0,0,-1,1462,484,6.48225,2.58363
245,540,6.02087,-1.97916,0,0,0,0,0,0,0,-1,1469,484,6.02088,1.97915
252,540,6.50647,-3.56006,0,0,0,0,0,0,0,-1,1476,484,6.50649,3.56006
259,540,6.01941,-2.798,0,0,0,0,0,0,0,-1,1483,484,6.01941,2.79801
266,540,5.5332,-2.02853,0,0,0,0,0,0,0,-1,1490,484,5.53323,2.02855
273,540,5.06787,-1.28137,0,0,0,0,0,0,0,-1,1497,484,5.06786,1.28136
280,540,1.62903,-2.14609,0,0,0,0,0,0,0,-1,1504,484,1.62906,2.1461
287,540,1.97156,-2.45053,0,0,0,0,0,0,0,-1,1511,484,1.97159,2.45053
294,540,2.44165,-2.6185,0,0,0,0,0,0,0,-1,1518,484,2.44167,2.6185
301,540,4.36169,-2.54272,0,0,0,0,0,0,0,-1,1525,484,4.36165,2.54272
308,540,4.2019,-4.30469,0,0,0,0,0,0,0,-1,1532,484,4.20193,4.3047
315,540,4.45923,-5.32101,0,0,0,0,0,0,0,-1,1539,484,4.45923,5.32103
322,540,4.71655,-6.33737,0,0,0,0,0,0,0,-1,1546,484,4.71653,6.33736
329,540,15.0289,-44.3801,0,0,0,0,0,0,0,-1,1553,484,15.0289,44.3801
336,540,17.1764,-48.0145,0,0,0,0,0,0,0,-1,1560,484,17.1764,48.0145
343,540,17.5421,-50.0817,0,0,0,0,0,0,0,-1,1567,484,17.5421,50.0817
350,540,23.2103,-81.6647,0,0,0,0,0,0,0,-1,1574,484,23.2104,81.6648
357,540,26.0358,-101.872,0,0,0,0,0,0,0,-1,1581,484,26.0358,101.872
364,540,52.1034,-198.16,0,0,0,0,0,0,0,-1,1588,484,52.1034,198.16
371,540,52.3616,-194.623,0,0,0,0,0,0,0,-1,1595,484,52.3615,194.623
378,540,52.6067,-191.494,0.090912,0.00827113,-0.056406,0.119513,-0.02033,-0.469278,0.0872452,0.0474481,1602,484,52.6067,191.494
385,540,52.3041,-188.116,0.0841669,0.00971495,-0.0529554,0.111672,-0.0177897,-0.479041,0.0810311,0.0374071,1609,484,52.3041,188.116
392,540,51.8777,-184.829,0.0767878,0.0101282,-0.0499719,0.103525,-0.0166092,-0.491292,0.0751674,0.0382659,1616,484,51.8777,184.829
399,540,51.5438,-181.634,0.0703462,0.0107715,-0.0466824,0.0959352,-0.0148174,-0.501421,0.069425,0.0484204,1623,484,51.5439,181.634
406,540,51.3075,-178.287,0.0649907,0.0116537,-0.0435103,0.0893551,-0.0127107,-0.510464,0.0642276,0.0310988,1630,484,51.3074,178.287
413,540,50.7982,-174.634,0.0605324,0.0124361,-0.0403892,0.0834906,-0.0105222,-0.516879,0.0594789,0.0344074,1637,484,50.7983,174.634
420,540,50.1849,-170.994,0.0566941,0.0133725,-0.0375769,0.0784063,-0.00833966,-0.523941,0.0552609,0.0456014,1644,484,50.185,170.994
427,540,49.764,-167.473,0,0,0,0,0,0,0,-1,1651,484,49.764,167.473
434,540,49.3854,-164.172,0,0,0,0,0,0,0,-1,1658,484,49.3853,164.172
441,540,48.7379,-160.991,0,0,0,0,0,0,0,-1,1665,484,48.7379,160.991
448,540,48.0262,-156.736,0.047518,0.0185096,-0.0255027,0.0623525,0.00367511,-0.526842,0.040399,0.0240698,1672,484,48.0263,156.736
455,540,47.2766,-152.924,0.0455522,0.0198569,-0.0218762,0.0580744,0.00733474,-0.519887,0.0365178,0.0190626,1679,484,47.2766,152.924
462,540,46.4379,-149.039,0,0,0,0,0,0,0,-1,1686,484,46.4379,149.039
469,540,45.1754,-144.869,0,0,0,0,0,0,0,-1,1693,484,45.1754,144.869
476,540,44.0863,-140.295,0,0,0,0,0,0,0,-1,1700,484,44.0863,140.295
483,540,20.5968,-86.2985,0,0,0,0,0,0,0,-1,1707,484,20.5968,86.2985
490,540,19.4117,-44.4761,0,0,0,0,0,0,0,-1,1714,484,19.4117,44.4761
497,540,10.3452,-16.9359,0,0,0,0,0,0,0,-1,1721,484,10.3453,16.9359
504,540,12.519,-18.0764,0,0,0,0,0,0,0,-1,1728,484,12.519,18.0765
511,540,5.82471,-6.83521,0,0,0,0,0,0,0,-1,1735,484,5.82465,6.83522
518,540,9.98181,-12.4608,0,0,0,0,0,0,0,-1,1742,484,9.98187,12.4608
525,540,12.4843,-16.3481,0,0,0,0,0,0,0,-1,1749,484,12.4842,16.3481
532,540,2.84265,-1.07925,0,0,0,0,0,0,0,-1,1756,484,2.84269,1.07927
539,540,0,0,0,0,0,0,0,0,0,-1,1763,484,0,0
546,540,0,0,0,0,0,0,0,0,0,-1,1770,484,0,0
553,540,0,0,0,0,0,0,0,0,0,-1,1777,484,0,0
560,540,0,0,0,0,0,0,0,0,0,-1,1784,484,0,0
567,540,0,0,0,0,0,0,0,0,0,-1,1791,484,0,0
574,540,0,0,0,0,0,0,0,0,0,-1,1798,484,0,0
581,540,0,0,0,0,0,0,0,0,0,-1,1805,484,0,0
588,540,0,0,0,0,0,0,0,0,0,-1,1812,484,0,0
595,540,0,0,0,0,0,0,0,0,0,-1,1819,484,0,0
602,540,0,0,0,0,0,0,0,0,0,-1,1826,484,0,0
609,540,0,0,0,0,0,0,0,0,0,-1,1833,484,0,0
616,540,0,0,0,0,0,0,0,0,0,-1,1840,484,0,0
623,540,0,0,0,0,0,0,0,0,0,-1,1847,484,0,0
630,540,0,0,0,0,0,0,0,0,0,-1,1854,484,0,0
637,540,0,0,0,0,0,0,0,0,0,-1,1861,484,0,0
644,540,0,0,0,0,0,0,0,0,0,-1,1868,484,0,0
651,540,0,0,0,0,0,0,0,0,0,-1,1875,484,0,0
658,540,0,0,0,0,0,0,0,0,0,-1,1882,484,0,0
665,540,0,0,0,0,0,0,0,0,0,-1,1889,484,0,0
672,540,0,0,0,0,0,0,0,0,0,-1,1896,484,0,0
679,540,0,0,0,0,0,0,0,0,0,-1,1903,484,0,0
686,540,0,0,0,0,0,0,0,0,0,-1,1910,484,0,0
693,540,0,0,0,0,0,0,0,0,0,-1,1917,484,0,0
700,540,0,0,0,0,0,0,0,0,0,-1,1924,484,0,0
707,540,0,0,0,0,0,0,0,0,0,-1,1931,484,0,0
714,540,0,0,0,0,0,0,0,0,0,-1,1938,484,0,0
721,540,0,0,0,0,0,0,0,0,0,-1,1945,484,0,0
728,540,0,0,0,0,0,0,0,0,0,-1,1952,484,0,0
735,540,0,0,0,0,0,0,0,0,0,-1,1959,484,0,0
742,540,0,0,0,0,0,0,0,0,0,-1,1966,484,0,0
749,540,0,0,0,0,0,0,0,0,0,-1,1973,484,0,0
756,540,0,0,0,0,0,0,0,0,0,-1,1980,484,0,0
763,540,0,0,0,0,0,0,0,0,0,-1,1987,484,0,0
770,540,0,0,0,0,0,0,0,0,0,-1,1994,484,0,0
777,540,0,0,0,0,0,0,0,0,0,-1,2001,484,0,0
784,540,0,0,0,0,0,0,0,0,0,-1,2008,484,0,0
791,540,0,0,0,0,0,0,0,0,0,-1,2015,484,0,0
798,540,0,0,0,0,0,0,0,0,0,-1,2022,484,0,0
805,540,0,0,0,0,0,0,0,0,0,-1,2029,484,0,0
812,540,0,0,0,0,0,0,0,0,0,-1,2036,484,0,0
-700,533,0,0,0,0,0,0,0,0,0,-1,524,491,0,0
-693,533,0,0,0,0,0,0,0,0,0,-1,531,491,0,0
-686,533,0,0,0,0,0,0,0,0,0,-1,538,491,0,0
-679,533,0,0,0,0,0,0,0,0,0,-1,545,491,0,0
-672,533,0,0,0,0,0,0,0,0,0,-1,552,491,0,0
-665,533,0,0,0,0,0,0,0,0,0,-1,559,491,0,0
-658,533,0,0,0,0,0,0,0,0,0,-1,566,491,0,0
-651,533,0,0,0,0,0,0,0,0,0,-1,573,491,0,0
-644,533,0,0,0,0,0,0,0,0,0,-1,580,491,0,0
-637,533,0,0,0,0,0,0,0,0,0,-1,587,491,0,0
-630,533,0,0,0,0,0,0,0,0,0,-1,594,491,0,0
-623,533,0,0,0,0,0,0,0,0,0,-1,601,491,0,0
-616,533,0,0,0,0,0,0,0,0,0,-1,608,491,0,0
-609,533,0,0,0,0,0,0,0,0,0,-1,615,491,0,0
-602,533,0,0,0,0,0,0,0,0,0,-1,622,491,0,0
-595,533,0,0,0,0,0,0,0,0,0,-1,629,491,0,0
-588,533,0,0,0,0,0,0,0,0,0,-1,636,491,0,0
-581,533,0,0,0,0,0,0,0,0,0,-1,643,491,0,0
-574,533,0,0,0,0,0,0,0,0,0,-1,650,491,0,0
-567,533,0,0,0,0,0,0,0,0,0,-1,657,491,0,0
-560,533,0,0,0,0,0,0,0,0,0,-1,664,491,0,0
-553,533,0,0,0,0,0,0,0,0,0,-1,671,491,0,0
-546,533,0,0,0,0,0,0,0,0,0,-1,678,491,0,0
-539,533,0,0,0,0,0,0,0,0,0,-1,685,491,0,0
-532,533,0,0,0,0,0,0,0,0,0,-1,692,491,0,0
-525,533,0,0,0,0,0,0,0,0,0,-1,699,491,0,0
-518,533,0,0,0,0,0,0,0,0,0,-1,706,491,0,0
-511,533,0,0,0,0,0,0,0,0,0,-1,713,491,0,0
-504,533,0,0,0,0,0,0,0,0,0,-1,720,491,0,0
-497,533,0,0,0,0,0,0,0,0,0,-1,727,491,0,0
-490,533,0,0,0,0,0,0,0,0,0,-1,734,491,0,0
-483,533,0,0,0,0,0,0,0,0,0,-1,741,491,0,0
-476,533,0,0,0,0,0,0,0,0,0,-1,748,491,0,0
-469,533,0,0,0,0,0,0,0,0,0,-1,755,491,0,0
-462,533,0,0,0,0,0,0,0,0,0,-1,762,491,0,0
-455,533,0,0,0,0,0,0,0,0,0,-1,769,491,0,0
-448,533,0,0,0,0,0,0,0,0,0,-1,776,491,0,0
-441,533,0,0,0,0,0,0,0,0,0,-1,783,491,0,0
-434,533,0,0,0,0,0,0,0,0,0,-1,790,491,0,0
-427,533,0.559814,-4.40222,0,0,0,0,0,0,0,-1,797,491,0.559816,4.40222
-420,533,-1.11127,-10.9054,0,0,0,0,0,0,0,-1,804,491,-1.11124,10.9054
-413,533,-0.704773,-11.0942,0,0,0,0,0,0,0,-1,811,491,-0.704742,11.0942
-406,533,-0.670898,-12.0899,0,0,0,0,0,0,0,-1,818,491,-0.670908,12.0899
-399,533,-0.455017,-12.4423,0,0,0,0,0,0,0,-1,825,491,-0.455032,12.4423
-392,533,-1.89661,-10.3905,0,0,0,0,0,0,0,-1,832,491,-1.89661,10.3905
-385,533,0.797729,-17.0485,0,0,0,0,0,0,0,-1,839,491,0.797746,17.0485
-378,533,-1.89435,-19.6771,0,0,0,0,0,0,0,-1,846,491,-1.89433,19.6771
-371,533,-1.10254,-31.3197,0,0,0,0,0,0,0,-1,853,491,-1.10254,31.3197
-364,533,-10.5637,-92.7236,0,0,0,0,0,0,0,-1,860,491,-10.5636,92.7237
-357,533,-13.6718,-128.381,0,0,0,0,0,0,0,-1,867,491,-13.6718,128.381
-350,533,-36.4656,-138.387,0,0,0,0,0,0,0,-1,874,491,-36.4656,138.387
-343,533,-37.8364,-142.697,0,0,0,0,0,0,0,-1,881,491,-37.8364,142.697
-336,533,-38.9599,-146.783,0.0371844,0.0107851,0.023068,0.0505622,-0.00259274,0.525533,0.0346048,0.0479673,888,491,-38.9599,146.783
-329,533,-39.7641,-150.761,0.0399016,0.00932903,0.0268924,0.0555486,-0.00631801,0.526959,0.039308,0.0243503,895,491,-39.7641,150.761
-322,533,-40.684,-154.591,0.0424575,0.00777359,0.0310259,0.0606591,-0.0104281,0.530554,0.0443262,0.0194686,902,491,-40.6839,154.591
-315,533,-41.5316,-158.522,0.045171,0.00600498,0.0351868,0.0658572,-0.0146812,0.531471,0.0495292,0.0321975,909,491,-41.5316,158.522
-308,533,-42.1837,-162.347,0.0481891,0.00396687,0.0394118,0.0712686,-0.0191126,0.529763,0.0550015,0.0286915,916,491,-42.1837,162.347
-301,533,-42.8951,-165.781,0.0517736,0.00130947,0.0436328,0.0769447,-0.0238617,0.52325,0.0608309,0.0201794,923,491,-42.8951,165.781
-294,533,-43.5396,-169.472,0.0556042,-0.0017586,0.047416,0.0823385,-0.0284929,0.513395,0.0664581,0.0221933,930,491,-43.5396,169.472
-287,533,-43.915,-173.159,0.0594303,-0.00482441,0.0508092,0.0874173,-0.0328114,0.503478,0.0717609,0.0223384,937,491,-43.915,173.159
-280,533,-44.3117,-176.669,0.0631487,-0.00776848,0.0536805,0.0920244,-0.0366442,0.49352,0.0765462,0.018442,944,491,-44.3117,176.669
-273,533,-44.6844,-179.928,0.0673416,-0.0108482,0.055823,0.0963981,-0.0399048,0.479922,0.0809162,0.0217308,951,491,-44.6844,179.928
-266,533,-45.0537,-183.177,0.0718521,-0.0131753,0.0571053,0.100531,-0.0418545,0.465419,0.0845012,0.0320591,958,491,-45.0537,183.177
-259,533,-45.0373,-186.582,0,0,0,0,0,0,0,-1,965,491,-45.0373,186.582
-252,533,-44.7041,-189.505,0,0,0,0,0,0,0,-1,972,491,-44.7041,189.505
-245,533,-36.4008,-191.7,0,0,0,0,0,0,0,-1,979,491,-36.4008,191.7
-238,533,-37.0947,-195.194,0,0,0,0,0,0,0,-1,986,491,-37.0947,195.194
-231,533,-23.6509,-156.913,0,0,0,0,0,0,0,-1,993,491,-23.6509,156.913
-224,533,-5.08032,-67.3872,0,0,0,0,0,0,0,-1,1000,491,-5.08035,67.3872
-217,533,-3.58942,-61.3351,0,0,0,0,0,0,0,-1,1007,491,-3.58944,61.3351
-210,533,-2.8175,-58.3744,0,0,0,0,0,0,0,-1,1014,491,-2.81753,58.3744
-203,533,-2.78027,-57.4929,0,0,0,0,0,0,0,-1,1021,491,-2.78027,57.4928
-196,533,-2.47253,-52.2668,0,0,0,0,0,0,0,-1,1028,491,-2.47251,52.2669
-189,533,-1.75317,-43.4744,0,0,0,0,0,0,0,-1,1035,491,-1.75312,43.4744
-182,533,1.26123,-11.4969,0,0,0,0,0,0,0,-1,1042,491,1.26128,11.4969
-175,533,0.937744,-7.36966,0,0,0,0,0,0,0,-1,1049,491,0.937769,7.36965
-168,533,2.64807,-2.7543,0,0,0,0,0,0,0,-1,1056,491,2.64812,2.7543
-161,533,1.91833,-1.76553,0,0,0,0,0,0,0,-1,1063,491,1.91836,1.76554
-154,533,0.376709,-11.0633,0,0,0,0,0,0,0,-1,1070,491,0.376715,11.0632
-147,533,0.383789,-12.1586,0,0,0,0,0,0,0,-1,1077,491,0.383829,12.1586
-140,533,1.14001,-15.4608,0,0,0,0,0,0,0,-1,1084,491,1.14005,15.4608
-133,533,0.189941,-16.0795,0,0,0,0,0,0,0,-1,1091,491,0.18994,16.0795
-126,533,2.89612,-2.59003,0,0,0,0,0,0,0,-1,1098,491,2.89608,2.59003
-119,533,1.78284,-22.5394,0,0,0,0,0,0,0,-1,1105,491,1.78279,22.5394
-112,533,1.83862,-21.2401,0,0,0,0,0,0,0,-1,1112,491,1.83859,21.24
-105,533,1.67554,-19.4018,0,0,0,0,0,0,0,-1,1119,491,1.6755,19.4018
-98,533,-1.39392,-5.16367,0,0,0,0,0,0,0,-1,1126,491,-1.39394,5.16367
-91,533,0.367432,4.49753,0,0,0,0,0,0,0,-1,1133,491,0.367468,-4.49754
-84,533,-0.88623,3.03604,0,0,0,0,0,0,0,-1,1140,491,-0.886288,-3.03605
-77,533,0,0,0,0,0,0,0,0,0,-1,1147,491,0,0
-70,533,0,0,0,0,0,0,0,0,0,-1,1154,491,0,0
-63,533,0,0,0,0,0,0,0,0,0,-1,1161,491,0,0
-56,533,0,0,0,0,0,0,0,0,0,-1,1168,491,0,0
-49,533,0,0,0,0,0,0,0,0,0,-1,1175,491,0,0
-42,533,0,0,0,0,0,0,0,0,0,-1,1182,491,0,0
-35,533,0,0,0,0,0,0,0,0,0,-1,1189,491,0,0
-28,533,0,0,0,0,0,0,0,0,0,-1,1196,491,0,0
-21,533,0,0,0,0,0,0,0,0,0,-1,1203,491,0,0
-14,533,0,0,0,0,0,0,0,0,0,-1,1210,491,0,0
-7,533,0,0,0,0,0,0,0,0,0,-1,1217,491,0,0
0,533,0,0,0,0,0,0,0,0,0,-1,1224,491,0,0
7,533,0,0,0,0,0,0,0,0,0,-1,1231,491,0,0
14,533,0,0,0,0,0,0,0,0,0,-1,1238,491,0,0
21,533,0,0,0,0,0,0,0,0,0,-1,1245,491,0,0
28,533,0,0,0,0,0,0,0,0,0,-1,1252,491,0,0
35,533,0,0,0,0,0,0,0,0,0,-1,1259,491,0,0
42,533,0,0,0,0,0,0,0,0,0,-1,1266,491,0,0
49,533,0,0,0,0,0,0,0,0,0,-1,1273,491,0,0
56,533,0,0,0,0,0,0,0,0,0,-1,1280,491,0,0
63,533,0,0,0,0,0,0,0,0,0,-1,1287,491,0,0
70,533,0,0,0,0,0,0,0,0,0,-1,1294,491,0,0
77,533,0,0,0,0,0,0,0,0,0,-1,1301,491,0,0
84,533,0,0,0,0,0,0,0,0,0,-1,1308,491,0,0
91,533,0,0,0,0,0,0,0,0,0,-1,1315,491,0,0
98,533,0,0,0,0,0,0,0,0,0,-1,1322,491,0,0
105,533,0,0,0,0,0,0,0,0,0,-1,1329,491,0,0
112,533,0,0,0,0,0,0,0,0,0,-1,1336,491,0,0
119,533,0,0,0,0,0,0,0,0,0,-1,1343,491,0,0
126,533,0,0,0,0,0,0,0,0,0,-1,1350,491,0,0
133,533,0,0,0,0,0,0,0,0,0,-1,1357,491,0,0
140,533,0,0,0,0,0,0,0,0,0,-1,1364,491,0,0
147,533,0,0,0,0,0,0,0,0,0,-1,1371,491,0,0
154,533,0,0,0,0,0,0,0,0,0,-1,1378,491,0,0
161,533,0,0,0,0,0,0,0,0,0,-1,1385,491,0,0
168,533,0,0,0,0,0,0,0,0,0,-1,1392,491,0,0
175,533,0,0,0,0,0,0,0,0,0,-1,1399,491,0,0
182,533,0,0,0,0,0,0,0,0,0,-1,1406,491,0,0
189,533,0,0,0,0,0,0,0,0,0,-1,1413,491,0,0
196,533,0,0,0,0,0,0,0,0,0,-1,1420,491,0,0
203,533,3.7887,1.16193,0,0,0,0,0,0,0,-1,1427,491,3.78872,-1.16193
210,533,5.09558,-0.216034,0,0,0,0,0,0,0,-1,1434,491,5.09559,0.216028
217,533,6.91614,-2.46814,0,0,0,0,0,0,0,-1,1441,491,6.91618,2.46814
224,533,7.23621,-2.1857,0,0,0,0,0,0,0,-1,1448,491,7.23621,2.1857
231,533,7.23474,-1.92282,0,0,0,0,0,0,0,-1,1455,491,7.2347,1.92282
238,533,7.23535,-1.67258,0,0,0,0,0,0,0,-1,1462,491,7.23539,1.67258
245,533,6.86682,-1.2301,0,0,0,0,0,0,0,-1,1469,491,6.86686,1.23011
252,533,6.63354,-3.07825,0,0,0,0,0,0,0,-1,1476,491,6.6335,3.07824
259,533,6.16431,-2.35037,0,0,0,0,0,0,0,-1,1483,491,6.1643,2.35037
266,533,5.68884,-1.6214,0,0,0,0,0,0,0,-1,1490,491,5.68885,1.6214
273,533,5.21399,-0.864227,0,0,0,0,0,0,0,-1,1497,491,5.21403,0.864227
280,533,1.41089,-1.97946,0,0,0,0,0,0,0,-1,1504,491,1.41087,1.97946
287,533,1.6814,-2.44443,0,0,0,0,0,0,0,-1,1511,491,1.6814,2.44444
294,533,2.2384,-2.57626,0,0,0,0,0,0,0,-1,1518,491,2.23839,2.57625
301,533,3.39941,-4.0817,0,0,0,0,0,0,0,-1,1525,491,3.3994,4.08171
308,533,4.13733,-4.14752,0,0,0,0,0,0,0,-1,1532,491,4.13727,4.14752
315,533,4.80762,-5.29349,0,0,0,0,0,0,0,-1,1539,491,4.80762,5.29347
322,533,5.47803,-6.43942,0,0,0,0,0,0,0,-1,1546,491,5.47798,6.43943
329,533,3.88477,-3.86301,0,0,0,0,0,0,0,-1,1553,491,3.88475,3.86299
336,533,14.5214,-40.908,0,0,0,0,0,0,0,-1,1560,491,14.5214,40.908
343,533,16.3387,-44.9998,0,0,0,0,0,0,0,-1,1567,491,16.3387,44.9998
350,533,17.6749,-47.6289,0,0,0,0,0,0,0,-1,1574,491,17.6749,47.6289
357,533,20.983,-56.1171,0,0,0,0,0,0,0,-1,1581,491,20.983,56.1171
364,533,25.2891,-83.5117,0,0,0,0,0,0,0,-1,1588,491,25.289,83.5117
371,533,27.5264,-99.8054,0,0,0,0,0,0,0,-1,1595,491,27.5263,99.8054
378,533,56.4263,-190.493,0,0,0,0,0,0,0,-1,1602,491,56.4262,190.493
385,533,56.1495,-187.17,0,0,0,0,0,0,0,-1,1609,491,56.1496,187.17
392,533,55.5454,-184.155,0,0,0,0,0,0,0,-1,1616,491,55.5454,184.155
399,533,55.256,-180.807,0.077985,0.0116394,-0.0520979,0.106575,-0.0169505,-0.5019,0.0773218,0.0432708,1623,491,55.2559,180.807
406,533,55.0934,-177.263,0.0717823,0.0121229,-0.0488036,0.0991506,-0.0152454,-0.511084,0.0717243,0.0409234,1630,491,55.0933,177.262
413,533,54.6101,-173.807,0.0667356,0.0126195,-0.0457349,0.0928172,-0.0134621,-0.518277,0.066819,0.035985,1637,491,54.6101,173.807
420,533,53.6599,-170.377,0,0,0,0,0,0,0,-1,1644,491,53.6599,170.377
427,533,54.2593,-166.609,0,0,0,0,0,0,0,-1,1651,491,54.2593,166.609
434,533,53.7625,-163.017,0.0548999,0.01468,-0.0372301,0.0771042,-0.0075242,-0.537772,0.0540856,0.0349388,1658,491,53.7624,163.017
441,533,53.1051,-159.23,0.052408,0.0158738,-0.0341273,0.0728495,-0.00456776,-0.539669,0.0501583,0.0273334,1665,491,53.1051,159.23
448,533,52.2612,-155.308,0.0504495,0.0169176,-0.0308257,0.0687737,-0.00140662,-0.536326,0.0463251,0.0257525,1672,491,52.2613,155.308
455,533,51.4954,-151.518,0.0482253,0.0179493,-0.027211,0.0642257,0.00194899,-0.531557,0.0421825,0.0227818,1679,491,51.4953,151.518
462,533,50.7473,-147.706,0.0464679,0.0191241,-0.0232326,0.0597529,0.00583907,-0.519446,0.0380386,0.0265257,1686,491,50.7473,147.706
469,533,49.649,-143.608,0.0451672,0.020629,-0.0188246,0.055368,0.0104282,-0.496592,0.0339737,0.0193204,1693,491,49.649,143.608
476,533,48.5525,-139.191,0.0440672,0.0224181,-0.0144513,0.0512984,0.0151869,-0.463956,0.0304274,0.0378837,1700,491,48.5525,139.191
483,533,47.4586,-134.67,0,0,0,0,0,0,0,-1,1707,491,47.4587,134.67
490,533,22.6746,-83.02,0,0,0,0,0,0,0,-1,1714,491,22.6745,83.02
497,533,20.9993,-43.9825,0,0,0,0,0,0,0,-1,1721,491,20.9992,43.9825
504,533,20.9569,-42.8138,0,0,0,0,0,0,0,-1,1728,491,20.9569,42.8139
511,533,13.6221,-19.2798,0,0,0,0,0,0,0,-1,1735,491,13.6221,19.2798
518,533,14.1954,-19.4995,0,0,0,0,0,0,0,-1,1742,491,14.1955,19.4995
525,533,13.7935,-19.6901,0,0,0,0,0,0,0,-1,1749,491,13.7934,19.6901
532,533,15.4377,-17.9016,0,0,0,0,0,0,0,-1,1756,491,15.4377,17.9015
539,533,12.8733,-18.2556,0,0,0,0,0,0,0,-1,1763,491,12.8733,18.2556
546,533,3.59607,1.65799,0,0,0,0,0,0,0,-1,1770,491,3.59605,-1.658
553,533,0,0,0,0,0,0,0,0,0,-1,1777,491,0,0
560,533,0,0,0,0,0,0,0,0,0,-1,1784,491,0,0
567,533,0,0,0,0,0,0,0,0,0,-1,1791,491,0,0
574,533,0,0,0,0,0,0,0,0,0,-1,1798,491,0,0
581,533,0,0,0,0,0,0,0,0,0,-1,1805,491,0,0
588,533,0,0,0,0,0,0,0,0,0,-1,1812,491,0,0
595,533,0,0,0,0,0,0,0,0,0,-1,1819,491,0,0
602,533,0,0,0,0,0,0,0,0,0,-1,1826,491,0,0
609,533,0,0,0,0,0,0,0,0,0,-1,1833,491,0,0
616,533,0,0,0,0,0,0,0,0,0,-1,1840,491,0,0
623,533,0,0,0,0,0,0,0,0,0,-1,1847,491,0,0
630,533,0,0,0,0,0,0,0,0,0,-1,1854,491,0,0
637,533,0,0,0,0,0,0,0,0,0,-1,1861,491,0,0
644,533,0,0,0,0,0,0,0,0,0,-1,1868,491,0,0
651,533,0,0,0,0,0,0,0,0,0,-1,1875,491,0,0
658,533,0,0,0,0,0,0,0,0,0,-1,1882,491,0,0
665,533,0,0,0,0,0,0,0,0,0,-1,1889,491,0,0
672,533,0,0,0,0,0,0,0,0,0,-1,1896,491,0,0
679,533,0,0,0,0,0,0,0,0,0,-1,1903,491,0,0
686,533,0,0,0,0,0,0,0,0,0,-1,1910,491,0,0
693,533,0,0,0,0,0,0,0,0,0,-1,1917,491,0,0
700,533,0,0,0,0,0,0,0,0,0,-1,1924,491,0,0
707,533,0,0,0,0,0,0,0,0,0,-1,1931,491,0,0
714,533,0,0,0,0,0,0,0,0,0,-1,1938,491,0,0
721,533,0,0,0,0,0,0,0,0,0,-1,1945,491,0,0
728,533,0,0,0,0,0,0,0,0,0,-1,1952,491,0,0
735,533,0,0,0,0,0,0,0,0,0,-1,1959,491,0,0
742,533,0,0,0,0,0,0,0,0,0,-1,1966,491,0,0
749,533,0,0,0,0,0,0,0,0,0,-1,1973,491,0,0
756,533,0,0,0,0,0,0,0,0,0,-1,1980,491,0,0
763,533,0,0,0,0,0,0,0,0,0,-1,1987,491,0,0
770,533,0,0,0,0,0,0,0,0,0,-1,1994,491,0,0
777,533,0,0,0,0,0,0,0,0,0,-1,2001,491,0,0
784,533,0,0,0,0,0,0,0,0,0,-1,2008,491,0,0
791,533,0,0,0,0,0,0,0,0,0,-1,2015,491,0,0
798,533,0,0,0,0,0,0,0,0,0,-1,2022,491,0,0
805,533,0,0,0,0,0,0,0,0,0,-1,2029,491,0,0
812,533,0,0,0,0,0,0,0,0,0,-1,2036,491,0,0
-700,526,0,0,0,0,0,0,0,0,0,-1,524,498,0,0
-693,526,0,0,0,0,0,0,0,0,0,-1,531,498,0,0
-686,526,0,0,0,0,0,0,0,0,0,-1,538,498,0,0
-679,526,0,0,0,0,0,0,0,0,0,-1,545,498,0,0
-672,526,0,0,0,0,0,0,0,0,0,-1,552,498,0,0
-665,526,0,0,0,0,0,0,0,0,0,-1,559,498,0,0
-658,526,0,0,0,0,0,0,0,0,0,-1,566,498,0,0
-651,526,0,0,0,0,0,0,0,0,0,-1,573,498,0,0
-644,526,0,0,0,0,0,0,0,0,0,-1,580,498,0,0
-637,526,0,0,0,0,0,0,0,0,0,-1,587,498,0,0
-630,526,0,0,0,0,0,0,0,0,0,-1,594,498,0,0
-623,526,0,0,0,0,0,0,0,0,0,-1,601,498,0,0
-616,526,0,0,0,0,0,0,0,0,0,-1,608,498,0,0
-609,526,0,0,0,0,0,0,0,0,0,-1,615,498,0,0
-602,526,0,0,0,0,0,0,0,0,0,-1,622,498,0,0
-595,526,0,0,0,0,0,0,0,0,0,-1,629,498,0,0
-588,526,0,0,0,0,0,0,0,0,0,-1,636,498,0,0
-581,526,0,0,0,0,0,0,0,0,0,-1,643,498,0,0
-574,526,0,0,0,0,0,0,0,0,0,-1,650,498,0,0
-567,526,0,0,0,0,0,0,0,0,0,-1,657,498,0,0
-560,526,0,0,0,0,0,0,0,0,0,-1,664,498,0,0
-553,526,0,0,0,0,0,0,0,0,0,-1,671,498,0,0
-546,526,0,0,0,0,0,0,0,0,0,-1,678,498,0,0
-539,526,0,0,0,0,0,0,0,0,0,-1,685,498,0,0
-532,526,0,0,0,0,0,0,0,0,0,-1,692,498,0,0
-525,526,0,0,0,0,0,0,0,0,0,-1,699,498,0,0
-518,526,0,0,0,0,0,0,0,0,0,-1,706,498,0,0
-511,526,0,0,0,0,0,0,0,0,0,-1,713,498,0,0
-504,526,0,0,0,0,0,0,0,0,0,-1,720,498,0,0
-497,526,0,0,0,0,0,0,0,0,0,-1,727,498,0,0
-490,526,0,0,0,0,0,0,0,0,0,-1,734,498,0,0
-483,526,0,0,0,0,0,0,0,0,0,-1,741,498,0,0
-476,526,0,0,0,0,0,0,0,0,0,-1,748,498,0,0
-469,526,0,0,0,0,0,0,0,0,0,-1,755,498,0,0
-462,526,0,0,0,0,0,0,0,0,0,-1,762,498,0,0
-455,526,0,0,0,0,0,0,0,0,0,-1,769,498,0,0
-448,526,0,0,0,0,0,0,0,0,0,-1,776,498,0,0
-441,526,0,0,0,0,0,0,0,0,0,-1,783,498,0,0
-434,526,-0.153564,-5.96649,0,0,0,0,0,0,0,-1,790,498,-0.153589,5.9665
-427,526,1.23206,-4.59808,0,0,0,0,0,0,0,-1,797,498,1.23208,4.59809
-420,526,-1.76373,-11.6241,0,0,0,0,0,0,0,-1,804,498,-1.76373,11.6241
-413,526,-1.38965,-11.7916,0,0,0,0,0,0,0,-1,811,498,-1.38963,11.7916
-406,526,-1.35187,-12.5182,0,0,0,0,0,0,0,-1,818,498,-1.35185,12.5181
-399,526,-1.32715,-13.2116,0,0,0,0,0,0,0,-1,825,498,-1.32713,13.2116
-392,526,0.197571,-15.303,0,0,0,0,0,0,0,-1,832,498,0.197598,15.303
-385,526,-2.69397,-19.6176,0,0,0,0,0,0,0,-1,839,498,-2.69399,19.6176
-378,526,-2.67041,-33.2585,0,0,0,0,0,0,0,-1,846,498,-2.67042,33.2585
-371,526,-12.8555,-82.679,0,0,0,0,0,0,0,-1,853,498,-12.8555,82.6789
-364,526,-16.8508,-122.91,0,0,0,0,0,0,0,-1,860,498,-16.8508,122.91
-357,526,-39.6846,-132.666,0,0,0,0,0,0,0,-1,867,498,-39.6847,132.666
-350,526,-40.9075,-137.083,0.0333697,0.0104768,0.0218854,0.0466213,-0.00277483,0.544452,0.0320459,0.0329812,874,498,-40.9074,137.083
-343,526,-42.1583,-141.266,0.0369205,0.00897868,0.025688,0.052191,-0.00629181,0.536336,0.0370697,0.0289991,881,498,-42.1583,141.266
-336,526,-43.143,-145.33,0.0402757,0.00798103,0.0292339,0.0575253,-0.00926862,0.533076,0.0417839,0.0248448,888,498,-43.143,145.33
-329,526,-44.0094,-149.371,0.0431684,0.00643125,0.0332841,0.0628161,-0.0132165,0.533258,0.0469077,0.0248029,895,498,-44.0094,149.371
-322,526,-44.9466,-153.257,0.045905,0.00472272,0.0375113,0.0681051,-0.0174774,0.534387,0.0522135,0.0250663,902,498,-44.9466,153.257
-315,526,-45.5858,-157.401,0.048566,0.00285769,0.0418285,0.0733767,-0.021953,0.535369,0.0576461,0.0341113,909,498,-45.5858,157.401
-308,526,-46.0955,-161.541,0.0515894,0.000669256,0.0462341,0.07891,-0.0266514,0.533717,0.0633865,0.0306913,916,498,-46.0955,161.541
-301,526,-46.8146,-164.821,0.0553854,-0.00211374,0.0505858,0.0848205,-0.0315489,0.526994,0.0694929,0.0207533,923,498,-46.8146,164.821
-294,526,-47.5419,-168.243,0.0592277,-0.00520841,0.0545068,0.0903263,-0.0363069,0.518479,0.0752964,0.0178758,930,498,-47.5419,168.243
-287,526,-48.0587,-171.814,0.0629916,-0.00835309,0.0581766,0.0955617,-0.0409232,0.510374,0.080877,0.0223538,937,498,-48.0586,171.814
-280,526,-48.3114,-175.266,0.0669686,-0.0114171,0.061145,0.100403,-0.044852,0.500393,0.0858833,0.0301547,944,498,-48.3114,175.266
-273,526,-48.3656,-178.722,0.0713828,-0.0146783,0.0631706,0.104786,-0.0480818,0.486407,0.0902597,0.0248123,951,498,-48.3656,178.722
-266,526,-49.0789,-182.094,0,0,0,0,0,0,0,-1,958,498,-49.0788,182.094
-259,526,-35.0405,-183.592,0,0,0,0,0,0,0,-1,965,498,-35.0405,183.592
-252,526,-20.0807,-125.473,0,0,0,0,0,0,0,-1,972,498,-20.0808,125.473
-245,526,-12.1247,-91.3829,0,0,0,0,0,0,0,-1,979,498,-12.1247,91.3829
-238,526,-5.37366,-62.8764,0,0,0,0,0,0,0,-1,986,498,-5.37368,62.8764
-231,526,-3.13611,-55.2932,0,0,0,0,0,0,0,-1,993,498,-3.13609,55.2932
-224,526,-2.755,-53.1861,0,0,0,0,0,0,0,-1,1000,498,-2.75499,53.1861
-217,526,-2.39459,-50.3551,0,0,0,0,0,0,0,-1,1007,498,-2.39458,50.3551
-210,526,-1.77289,-44.7313,0,0,0,0,0,0,0,-1,1014,498,-1.77289,44.7313
-203,526,-0.659302,-18.8818,0,0,0,0,0,0,0,-1,1021,498,-0.659273,18.8818
-196,526,-0.328247,-12.179,0,0,0,0,0,0,0,-1,1028,498,-0.328238,12.179
-189,526,0.401245,-5.96826,0,0,0,0,0,0,0,-1,1035,498,0.401197,5.96826
-182,526,1.7323,-2.99405,0,0,0,0,0,0,0,-1,1042,498,1.73226,2.99404
-175,526,2.27637,-2.07983,0,0,0,0,0,0,0,-1,1049,498,2.27639,2.07984
-168,526,2.12036,-1.66049,0,0,0,0,0,0,0,-1,1056,498,2.12035,1.66048
-161,526,2.09082,-1.20572,0,0,0,0,0,0,0,-1,1063,498,2.09086,1.2057
-154,526,-1.3446,-5.37799,0,0,0,0,0,0,0,-1,1070,498,-1.34457,5.37799
-147,526,-0.472656,-6.64996,0,0,0,0,0,0,0,-1,1077,498,-0.472659,6.64997
-140,526,0.422852,-8.03339,0,0,0,0,0,0,0,-1,1084,498,0.422844,8.0334
-133,526,1.09583,-9.2215,0,0,0,0,0,0,0,-1,1091,498,1.09581,9.2215
-126,526,3.42529,-2.36053,0,0,0,0,0,0,0,-1,1098,498,3.42523,2.36052
-119,526,2.7771,-0.764099,0,0,0,0,0,0,0,-1,1105,498,2.7771,0.764107
-112,526,2.57715,-1.1893,0,0,0,0,0,0,0,-1,1112,498,2.57718,1.1893
-105,526,0,0,0,0,0,0,0,0,0,-1,1119,498,0,0
-98,526,0,0,0,0,0,0,0,0,0,-1,1126,498,0,0
-91,526,0,0,0,0,0,0,0,0,0,-1,1133,498,0,0
-84,526,0,0,0,0,0,0,0,0,0,-1,1140,498,0,0
-77,526,0,0,0,0,0,0,0,0,0,-1,1147,498,0,0
-70,526,0,0,0,0,0,0,0,0,0,-1,1154,498,0,0
-63,526,0,0,0,0,0,0,0,0,0,-1,1161,498,0,0
-56,526,0,0,0,0,0,0,0,0,0,-1,1168,498,0,0
-49,526,0,0,0,0,0,0,0,0,0,-1,1175,498,0,0
-42,526,0,0,0,0,0,0,0,0,0,-1,1182,498,0,0
-35,526,0,0,0,0,0,0,0,0,0,-1,1189,498,0,0
-28,526,0,0,0,0,0,0,0,0,0,-1,1196,498,0,0
-21,526,0,0,0,0,0,0,0,0,0,-1,1203,498,0,0
-14,526,0,0,0,0,0,0,0,0,0,-1,1210,498,0,0
-7,526,0,0,0,0,0,0,0,0,0,-1,1217,498,0,0
0,526,0,0,0,0,0,0,0,0,0,-1,1224,498,0,0
7,526,0,0,0,0,0,0,0,0,0,-1,1231,498,0,0
14,526,0,0,0,0,0,0,0,0,0,-1,1238,498,0,0
21,526,0,0,0,0,0,0,0,0,0,-1,1245,498,0,0
28,526,0,0,0,0,0,0,0,0,0,-1,1252,498,0,0
35,526,0,0,0,0,0,0,0,0,0,-1,1259,498,0,0
42,526,0,0,0,0,0,0,0,0,0,-1,1266,498,0,0
49,526,0,0,0,0,0,0,0,0,0,-1,1273,498,0,0
56,526,0,0,0,0,0,0,0,0,0,-1,1280,498,0,0
63,526,0,0,0,0,0,0,0,0,0,-1,1287,498,0,0
70,526,0,0,0,0,0,0,0,0,0,-1,1294,498,0,0
77,526,0,0,0,0,0,0,0,0,0,-1,1301,498,0,0
84,526,0,0,0,0,0,0,0,0,0,-1,1308,498,0,0
91,526,0,0,0,0,0,0,0,0,0,-1,1315,498,0,0
98,526,0,0,0,0,0,0,0,0,0,-1,1322,498,0,0
105,526,0,0,0,0,0,0,0,0,0,-1,1329,498,0,0
112,526,0,0,0,0,0,0,0,0,0,-1,1336,498,0,0
119,526,0,0,0,0,0,0,0,0,0,-1,1343,498,0,0
126,526,0,0,0,0,0,0,0,0,0,-1,1350,498,0,0
133,526,0,0,0,0,0,0,0,0,0,-1,1357,498,0,0
140,526,0,0,0,0,0,0,0,0,0,-1,1364,498,0,0
147,526,0,0,0,0,0,0,0,0,0,-1,1371,498,0,0
154,526,0,0,0,0,0,0,0,0,0,-1,1378,498,0,0
161,526,0,0,0,0,0,0,0,0,0,-1,1385,498,0,0
168,526,0,0,0,0,0,0,0,0,0,-1,1392,498,0,0
175,526,0,0,0,0,0,0,0,0,0,-1,1399,498,0,0
182,526,0,0,0,0,0,0,0,0,0,-1,1406,498,0,0
189,526,0,0,0,0,0,0,0,0,0,-1,1413,498,0,0
196,526,0,0,0,0,0,0,0,0,0,-1,1420,498,0,0
203,526,0,0,0,0,0,0,0,0,0,-1,1427,498,0,0
210,526,0,0,0,0,0,0,0,0,0,-1,1434,498,0,0
217,526,0,0,0,0,0,0,0,0,0,-1,1441,498,0,0
224,526,0,0,0,0,0,0,0,0,0,-1,1448,498,0,0
231,526,7.93237,-1.30618,0,0,0,0,0,0,0,-1,1455,498,7.93238,1.30618
238,526,7.97717,-1.08197,0,0,0,0,0,0,0,-1,1462,498,7.97723,1.08196
245,526,7.2793,-0.792938,0,0,0,0,0,0,0,-1,1469,498,7.27931,0.792926
252,526,6.73523,-2.23608,0,0,0,0,0,0,0,-1,1476,498,6.73525,2.23608
259,526,6.22949,-1.84967,0,0,0,0,0,0,0,-1,1483,498,6.22953,1.84968
266,526,5.72375,-1.46329,0,0,0,0,0,0,0,-1,1490,498,5.72381,1.46328
273,526,4.33984,0.49173,0,0,0,0,0,0,0,-1,1497,498,4.33979,-0.491727
280,526,1.4585,-1.59897,0,0,0,0,0,0,0,-1,1504,498,1.45846,1.59895
287,526,1.46411,-2.40134,0,0,0,0,0,0,0,-1,1511,498,1.46406,2.40133
294,526,5.57471,-4.59085,0,0,0,0,0,0,0,-1,1518,498,5.57466,4.59084
301,526,4.42786,-3.99677,0,0,0,0,0,0,0,-1,1525,498,4.42788,3.99676
308,526,5.79529,-4.19366,0,0,0,0,0,0,0,-1,1532,498,5.79528,4.19368
315,526,5.09851,-5.20068,0,0,0,0,0,0,0,-1,1539,498,5.09851,5.20068
322,526,5.50708,-4.72348,0,0,0,0,0,0,0,-1,1546,498,5.50713,4.72347
329,526,3.88672,-4.345,0,0,0,0,0,0,0,-1,1553,498,3.88674,4.34501
336,526,4.97876,-2.23828,0,0,0,0,0,0,0,-1,1560,498,4.97877,2.23828
343,526,3.31665,-2.69696,0,0,0,0,0,0,0,-1,1567,498,3.31667,2.69696
350,526,6.06287,-6.12015,0,0,0,0,0,0,0,-1,1574,498,6.06286,6.12014
357,526,18.325,-47.38,0,0,0,0,0,0,0,-1,1581,498,18.325,47.38
364,526,21.9415,-54.9628,0,0,0,0,0,0,0,-1,1588,498,21.9416,54.9628
371,526,21.4055,-54.6006,0,0,0,0,0,0,0,-1,1595,498,21.4055,54.6007
378,526,24.0167,-70.1567,0,0,0,0,0,0,0,-1,1602,498,24.0167,70.1567
385,526,26.2645,-77.2075,0,0,0,0,0,0,0,-1,1609,498,26.2645,77.2074
392,526,54.6313,-183.259,0,0,0,0,0,0,0,-1,1616,498,54.6313,183.259
399,526,58.7242,-180.102,0,0,0,0,0,0,0,-1,1623,498,58.7242,180.102
406,526,59.0941,-176.367,0,0,0,0,0,0,0,-1,1630,498,59.0941,176.367
413,526,58.4896,-173.071,0,0,0,0,0,0,0,-1,1637,498,58.4896,173.071
420,526,57.9753,-169.27,0,0,0,0,0,0,0,-1,1644,498,57.9754,169.27
427,526,58.0724,-165.649,0.0620672,0.0135513,-0.0450256,0.0889537,-0.0133352,-0.538312,0.0642108,0.0381616,1651,498,58.0724,165.649
434,526,57.9421,-161.911,0.0583701,0.0139548,-0.0423641,0.0839944,-0.0116695,-0.543985,0.0602639,0.0372776,1658,498,57.9422,161.911
441,526,57.2551,-157.919,0.0554365,0.0147502,-0.0393152,0.07936,-0.00917318,-0.546648,0.0562144,0.0186956,1665,498,57.2552,157.919
448,526,56.4238,-154.032,0.0530446,0.0155534,-0.0359663,0.0748573,-0.00625925,-0.545167,0.0521167,0.0163305,1672,498,56.4238,154.032
455,526,55.6261,-150.177,0.0505588,0.0162027,-0.032373,0.070029,-0.00326752,-0.541473,0.0478124,0.0223345,1679,498,55.6261,150.177
462,526,54.8844,-146.319,0.0486308,0.0170976,-0.0283503,0.0653038,0.000424657,-0.531628,0.043395,0.0179346,1686,498,54.8843,146.319
469,526,54.0543,-142.305,0.0472473,0.0182507,-0.0239171,0.0607173,0.00478067,-0.512919,0.0389825,0.0166198,1693,498,54.0544,142.304
476,526,52.968,-138.094,0.0460721,0.0197522,-0.0193443,0.0563085,0.00951585,-0.486707,0.0348034,0.0182677,1700,498,52.9681,138.094
483,526,51.8446,-133.688,0.0451525,0.0213801,-0.0147977,0.0522467,0.0142859,-0.44704,0.0311798,0.0354598,1707,498,51.8447,133.688
490,526,50.6213,-129.141,0,0,0,0,0,0,0,-1,1714,498,50.6214,129.141
497,526,25.0912,-69.6101,0,0,0,0,0,0,0,-1,1721,498,25.0911,69.6101
504,526,22.2432,-43.0208,0,0,0,0,0,0,0,-1,1728,498,22.2432,43.0208
511,526,22.3535,-41.4437,0,0,0,0,0,0,0,-1,1735,498,22.3535,41.4437
518,526,14.7889,-20.4046,0,0,0,0,0,0,0,-1,1742,498,14.7889,20.4046
525,526,14.7009,-19.7487,0,0,0,0,0,0,0,-1,1749,498,14.7009,19.7486
532,526,15.7457,-17.9624,0,0,0,0,0,0,0,-1,1756,498,15.7458,17.9624
539,526,16.1064,-16.42,0,0,0,0,0,0,0,-1,1763,498,16.1065,16.42
546,526,12.4675,-17.1617,0,0,0,0,0,0,0,-1,1770,498,12.4675,17.1617
553,526,3.40796,1.37137,0,0,0,0,0,0,0,-1,1777,498,3.40792,-1.37138
560,526,0,0,0,0,0,0,0,0,0,-1,1784,498,0,0
567,526,0,0,0,0,0,0,0,0,0,-1,1791,498,0,0
574,526,0,0,0,0,0,0,0,0,0,-1,1798,498,0,0
581,526,0,0,0,0,0,0,0,0,0,-1,1805,498,0,0
588,526,0,0,0,0,0,0,0,0,0,-1,1812,498,0,0
595,526,0,0,0,0,0,0,0,0,0,-1,1819,498,0,0
602,526,0,0,0,0,0,0,0,0,0,-1,1826,498,0,0
609,526,0,0,0,0,0,0,0,0,0,-1,1833,498,0,0
616,526,0,0,0,0,0,0,0,0,0,-1,1840,498,0,0
623,526,0,0,0,0,0,0,0,0,0,-1,1847,498,0,0
630,526,0,0,0,0,0,0,0,0,0,-1,1854,498,0,0
637,526,0,0,0,0,0,0,0,0,0,-1,1861,498,0,0
644,526,0,0,0,0,0,0,0,0,0,-1,1868,498,0,0
651,526,0,0,0,0,0,0,0,0,0,-1,1875,498,0,0
658,526,0,0,0,0,0,0,0,0,0,-1,1882,498,0,0
665,526,0,0,0,0,0,0,0,0,0,-1,1889,498,0,0
672,526,0,0,0,0,0,0,0,0,0,-1,1896,498,0,0
679,526,0,0,0,0,0,0,0,0,0,-1,1903,498,0,0
686,526,0,0,0,0,0,0,0,0,0,-1,1910,498,0,0
693,526,0,0,0,0,0,0,0,0,0,-1,1917,498,0,0
700,526,0,0,0,0,0,0,0,0,0,-1,1924,498,0,0
707,526,0,0,0,0,0,0,0,0,0,-1,1931,498,0,0
714,526,0,0,0,0,0,0,0,0,0,-1,1938,498,0,0
721,526,0,0,0,0,0,0,0,0,0,-1,1945,498,0,0
728,526,0,0,0,0,0,0,0,0,0,-1,1952,498,0,0
735,526,0,0,0,0,0,0,0,0,0,-1,1959,498,0,0
742,526,0,0,0,0,0,0,0,0,0,-1,1966,498,0,0
749,526,0,0,0,0,0,0,0,0,0,-1,1973,498,0,0
756,526,0,0,0,0,0,0,0,0,0,-1,1980,498,0,0
763,526,0,0,0,0,0,0,0,0,0,-1,1987,498,0,0
770,526,0,0,0,0,0,0,0,0,0,-1,1994,498,0,0
777,526,0,0,0,0,0,0,0,0,0,-1,2001,498,0,0
784,526,0,0,0,0,0,0,0,0,0,-1,2008,498,0,0
791,526,0,0,0,0,0,0,0,0,0,-1,2015,498,0,0
798,526,0,0,0,0,0,0,0,0,0,-1,2022,498,0,0
805,526,0,0,0,0,0,0,0,0,0,-1,2029,498,0,0
812,526,0,0,0,0,0,0,0,0,0,-1,2036,498,0,0
-700,519,0,0,0,0,0,0,0,0,0,-1,524,505,0,0
-693,519,0,0,0,0,0,0,0,0,0,-1,531,505,0,0
-686,519,0,0,0,0,0,0,0,0,0,-1,538,505,0,0
-679,519,0,0,0,0,0,0,0,0,0,-1,545,505,0,0
-672,519,0,0,0,0,0,0,0,0,0,-1,552,505,0,0
-665,519,0,0,0,0,0,0,0,0,0,-1,559,505,0,0
-658,519,0,0,0,0,0,0,0,0,0,-1,566,505,0,0
-651,519,0,0,0,0,0,0,0,0,0,-1,573,505,0,0
-644,519,0,0,0,0,0,0,0,0,0,-1,580,505,0,0
-637,519,0,0,0,0,0,0,0,0,0,-1,587,505,0,0
-630,519,0,0,0,0,0,0,0,0,0,-1,594,505,0,0
-623,519,0,0,0,0,0,0,0,0,0,-1,601,505,0,0
-616,519,0,0,0,0,0,0,0,0,0,-1,608,505,0,0
-609,519,0,0,0,0,0,0,0,0,0,-1,615,505,0,0
-602,519,0,0,0,0,0,0,0,0,0,-1,622,505,0,0
-595,519,0,0,0,0,0,0,0,0,0,-1,629,505,0,0
-588,519,0,0,0,0,0,0,0,0,0,-1,636,505,0,0
-581,519,0,0,0,0,0,0,0,0,0,-1,643,505,0,0
-574,519,0,0,0,0,0,0,0,0,0,-1,650,505,0,0
-567,519,0,0,0,0,0,0,0,0,0,-1,657,505,0,0
-560,519,0,0,0,0,0,0,0,0,0,-1,664,505,0,0
-553,519,0,0,0,0,0,0,0,0,0,-1,671,505,0,0
-546,519,0,0,0,0,0,0,0,0,0,-1,678,505,0,0
-539,519,0,0,0,0,0,0,0,0,0,-1,685,505,0,0
-532,519,0,0,0,0,0,0,0,0,0,-1,692,505,0,0
-525,519,0,0,0,0,0,0,0,0,0,-1,699,505,0,0
-518,519,0,0,0,0,0,0,0,0,0,-1,706,505,0,0
-511,519,0,0,0,0,0,0,0,0,0,-1,713,505,0,0
-504,519,0,0,0,0,0,0,0,0,0,-1,720,505,0,0
-497,519,0,0,0,0,0,0,0,0,0,-1,727,505,0,0
-490,519,0,0,0,0,0,0,0,0,0,-1,734,505,0,0
-483,519,0,0,0,0,0,0,0,0,0,-1,741,505,0,0
-476,519,0,0,0,0,0,0,0,0,0,-1,748,505,0,0
-469,519,0,0,0,0,0,0,0,0,0,-1,755,505,0,0
-462,519,0,0,0,0,0,0,0,0,0,-1,762,505,0,0
-455,519,0,0,0,0,0,0,0,0,0,-1,769,505,0,0
-448,519,0,0,0,0,0,0,0,0,0,-1,776,505,0,0
-441,519,1.34839,-5.29346,0,0,0,0,0,0,0,-1,783,505,1.3484,5.29347
-434,519,0.949585,-5.77313,0,0,0,0,0,0,0,-1,790,505,0.949598,5.77315
-427,519,-0.0523682,-9.31567,0,0,0,0,0,0,0,-1,797,505,-0.0523854,9.31568
-420,519,-2.38867,-12.1938,0,0,0,0,0,0,0,-1,804,505,-2.38867,12.1938
-413,519,-2.2298,-12.4998,0,0,0,0,0,0,0,-1,811,505,-2.22979,12.4998
-406,519,-1.44373,-12.3475,0,0,0,0,0,0,0,-1,818,505,-1.44376,12.3475
-399,519,-1.60516,-15.0849,0,0,0,0,0,0,0,-1,825,505,-1.60518,15.0849
-392,519,-1.94183,-24.8959,0,0,0,0,0,0,0,-1,832,505,-1.94183,24.8958
-385,519,-15.0157,-79.7313,0,0,0,0,0,0,0,-1,839,505,-15.0157,79.7313
-378,519,-14.6688,-79.4247,0,0,0,0,0,0,0,-1,846,505,-14.6688,79.4248
-371,519,-17.8939,-108.971,0,0,0,0,0,0,0,-1,853,505,-17.8938,108.971
-364,519,-43.5369,-127.226,0,0,0,0,0,0,0,-1,860,505,-43.5369,127.226
-357,519,-44.4874,-131.495,0.0345035,0.00895159,0.0231575,0.0481755,-0.00472046,0.533326,0.0338005,0.0419823,867,505,-44.4874,131.495
-350,519,-45.3603,-135.737,0.0376474,0.00749345,0.0272478,0.0537114,-0.00857051,0.532701,0.0389798,0.027143,874,505,-45.3603,135.737
-343,519,-46.4214,-139.825,0.0407174,0.00622396,0.0311562,0.0590819,-0.0121405,0.532613,0.0439967,0.0286102,881,505,-46.4215,139.825
-336,519,-47.4706,-143.865,0.0437012,0.00524475,0.0349442,0.0643581,-0.0154121,0.533878,0.0488599,0.0296024,888,505,-47.4706,143.865
-329,519,-48.3267,-147.893,0.0464473,0.0036756,0.039234,0.0697455,-0.0196225,0.535867,0.0542343,0.0289367,895,505,-48.3266,147.893
-322,519,-49.1858,-151.872,0.0491507,0.00186077,0.0436063,0.0751102,-0.0240987,0.536966,0.0597489,0.0283483,902,505,-49.1858,151.872
-315,519,-49.8097,-156.081,0.0516505,-0.000123375,0.0481443,0.0804262,-0.0288991,0.538725,0.0654141,0.038095,909,505,-49.8097,156.081
-308,519,-49.9813,-160.634,0,0,0,0,0,0,0,-1,916,505,-49.9812,160.634
-301,519,-50.7628,-163.738,0.0584601,-0.00545826,0.0574095,0.0922067,-0.0392048,0.531417,0.0779003,0.0331054,923,505,-50.7628,163.738
-294,519,-51.4541,-166.857,0.0622289,-0.00866338,0.0616576,0.097903,-0.0443375,0.524524,0.0840412,0.0260276,930,505,-51.4541,166.857
-287,519,-52.1796,-170.369,0.0657653,-0.011847,0.0658259,0.103372,-0.049454,0.519056,0.0900461,0.0217925,937,505,-52.1796,170.369
-280,519,-52.5097,-173.823,0,0,0,0,0,0,0,-1,944,505,-52.5097,173.823
-273,519,-52.1136,-177.573,0,0,0,0,0,0,0,-1,951,505,-52.1136,177.573
-266,519,-37.4893,-179.309,0,0,0,0,0,0,0,-1,958,505,-37.4893,179.309
-259,519,-14.0467,-90.6321,0,0,0,0,0,0,0,-1,965,505,-14.0467,90.6322
-252,519,-1.84009,-26.8372,0,0,0,0,0,0,0,-1,972,505,-1.8401,26.8372
-245,519,-1.23254,-23.2696,0,0,0,0,0,0,0,-1,979,505,-1.23256,23.2696
-238,519,-3.37726,-48.8871,0,0,0,0,0,0,0,-1,986,505,-3.37723,48.8871
-231,519,-2.22742,-51.4121,0,0,0,0,0,0,0,-1,993,505,-2.22742,51.4121
-224,519,-3.33752,-42.7635,0,0,0,0,0,0,0,-1,1000,505,-3.33753,42.7635
-217,519,-2.87396,-38.149,0,0,0,0,0,0,0,-1,1007,505,-2.87394,38.149
-210,519,-0.883362,-34.799,0,0,0,0,0,0,0,-1,1014,505,-0.883379,34.799
-203,519,-0.513611,-5.39017,0,0,0,0,0,0,0,-1,1021,505,-0.513585,5.39017
-196,519,-0.374023,-5.41635,0,0,0,0,0,0,0,-1,1028,505,-0.374047,5.41635
-189,519,-0.234497,-5.44254,0,0,0,0,0,0,0,-1,1035,505,-0.234508,5.44253
-182,519,2.76697,-1.19659,0,0,0,0,0,0,0,-1,1042,505,2.76696,1.19661
-175,519,2.31323,-0.960938,0,0,0,0,0,0,0,-1,1049,505,2.31319,0.960941
-168,519,2.01074,-0.721405,0,0,0,0,0,0,0,-1,1056,505,2.01072,0.721407
-161,519,2.32056,-0.522339,0,0,0,0,0,0,0,-1,1063,505,2.32057,0.522328
-154,519,2.55566,0.116669,0,0,0,0,0,0,0,-1,1070,505,2.55563,-0.116661
-147,519,-0.55127,-6.14001,0,0,0,0,0,0,0,-1,1077,505,-0.551252,6.14001
-140,519,0.240601,-7.53503,0,0,0,0,0,0,0,-1,1084,505,0.240653,7.53501
-133,519,2.70911,-4.4516,0,0,0,0,0,0,0,-1,1091,505,2.70915,4.45161
-126,519,0,0,0,0,0,0,0,0,0,-1,1098,505,0,0
-119,519,0,0,0,0,0,0,0,0,0,-1,1105,505,0,0
-112,519,0,0,0,0,0,0,0,0,0,-1,1112,505,0,0
-105,519,0,0,0,0,0,0,0,0,0,-1,1119,505,0,0
-98,519,0,0,0,0,0,0,0,0,0,-1,1126,505,0,0
-91,519,0,0,0,0,0,0,0,0,0,-1,1133,505,0,0
-84,519,0,0,0,0,0,0,0,0,0,-1,1140,505,0,0
-77,519,0,0,0,0,0,0,0,0,0,-1,1147,505,0,0
-70,519,0,0,0,0,0,0,0,0,0,-1,1154,505,0,0
-63,519,0,0,0,0,0,0,0,0,0,-1,1161,505,0,0
-56,519,0,0,0,0,0,0,0,0,0,-1,1168,505,0,0
-49,519,0,0,0,0,0,0,0,0,0,-1,1175,505,0,0
-42,519,0,0,0,0,0,0,0,0,0,-1,1182,505,0,0
-35,519,0,0,0,0,0,0,0,0,0,-1,1189,505,0,0
-28,519,0,0,0,0,0,0,0,0,0,-1,1196,505,0,0
-21,519,0,0,0,0,0,0,0,0,0,-1,1203,505,0,0
-14,519,0,0,0,0,0,0,0,0,0,-1,1210,505,0,0
-7,519,0,0,0,0,0,0,0,0,0,-1,1217,505,0,0
0,519,0,0,0,0,0,0,0,0,0,-1,1224,505,0,0
7,519,0,0,0,0,0,0,0,0,0,-1,1231,505,0,0
14,519,0,0,0,0,0,0,0,0,0,-1,1238,505,0,0
21,519,0,0,0,0,0,0,0,0,0,-1,1245,505,0,0
28,519,0,0,0,0,0,0,0,0,0,-1,1252,505,0,0
35,519,0,0,0,0,0,0,0,0,0,-1,1259,505,0,0
42,519,0,0,0,0,0,0,0,0,0,-1,1266,505,0,0
49,519,0,0,0,0,0,0,0,0,0,-1,1273,505,0,0
56,519,0,0,0,0,0,0,0,0,0,-1,1280,505,0,0
63,519,0,0,0,0,0,0,0,0,0,-1,1287,505,0,0
70,519,0,0,0,0,0,0,0,0,0,-1,1294,505,0,0
77,519,0,0,0,0,0,0,0,0,0,-1,1301,505,0,0
84,519,0,0,0,0,0,0,0,0,0,-1,1308,505,0,0
91,519,0,0,0,0,0,0,0,0,0,-1,1315,505,0,0
98,519,0,0,0,0,0,0,0,0,0,-1,1322,505,0,0
105,519,0,0,0,0,0,0,0,0,0,-1,1329,505,0,0
112,519,0,0,0,0,0,0,0,0,0,-1,1336,505,0,0
119,519,0,0,0,0,0,0,0,0,0,-1,1343,505,0,0
126,519,0,0,0,0,0,0,0,0,0,-1,1350,505,0,0
133,519,0,0,0,0,0,0,0,0,0,-1,1357,505,0,0
140,519,0,0,0,0,0,0,0,0,0,-1,1364,505,0,0
147,519,0,0,0,0,0,0,0,0,0,-1,1371,505,0,0
154,519,0,0,0,0,0,0,0,0,0,-1,1378,505,0,0
161,519,0,0,0,0,0,0,0,0,0,-1,1385,505,0,0
168,519,0,0,0,0,0,0,0,0,0,-1,1392,505,0,0
175,519,0,0,0,0,0,0,0,0,0,-1,1399,505,0,0
182,519,0,0,0,0,0,0,0,0,0,-1,1406,505,0,0
189,519,0,0,0,0,0,0,0,0,0,-1,1413,505,0,0
196,519,0,0,0,0,0,0,0,0,0,-1,1420,505,0,0
203,519,0,0,0,0,0,0,0,0,0,-1,1427,505,0,0
210,519,0,0,0,0,0,0,0,0,0,-1,1434,505,0,0
217,519,0,0,0,0,0,0,0,0,0,-1,1441,505,0,0
224,519,0,0,0,0,0,0,0,0,0,-1,1448,505,0,0
231,519,0,0,0,0,0,0,0,0,0,-1,1455,505,0,0
238,519,0,0,0,0,0,0,0,0,0,-1,1462,505,0,0
245,519,0,0,0,0,0,0,0,0,0,-1,1469,505,0,0
252,519,5.26208,0.0938416,0,0,0,0,0,0,0,-1,1476,505,5.26207,-0.0938493
259,519,6.14246,-1.36441,0,0,0,0,0,0,0,-1,1483,505,6.14241,1.36441
266,519,5.31909,-0.400787,0,0,0,0,0,0,0,-1,1490,505,5.31912,0.400773
273,519,4.02393,0.325531,0,0,0,0,0,0,0,-1,1497,505,4.0239,-0.325522
280,519,4.68848,0.53006,0,0,0,0,0,0,0,-1,1504,505,4.68842,-0.530073
287,519,7.9519,-3.80801,0,0,0,0,0,0,0,-1,1511,505,7.95193,3.808
294,519,6.92273,-3.38889,0,0,0,0,0,0,0,-1,1518,505,6.92268,3.38888
301,519,5.35669,-2.92661,0,0,0,0,0,0,0,-1,1525,505,5.35675,2.9266
308,519,7.37549,-5.64529,0,0,0,0,0,0,0,-1,1532,505,7.3755,5.64529
315,519,6.30029,-4.53754,0,0,0,0,0,0,0,-1,1539,505,6.30024,4.53753
322,519,5.84302,-5.45117,0,0,0,0,0,0,0,-1,1546,505,5.84303,5.45116
329,519,4.92407,0.62384,0,0,0,0,0,0,0,-1,1553,505,4.92403,-0.623832
336,519,3.10095,-0.329285,0,0,0,0,0,0,0,-1,1560,505,3.1009,0.329283
343,519,2.49146,-2.31119,0,0,0,0,0,0,0,-1,1567,505,2.49145,2.31119
350,519,3.47729,-2.22516,0,0,0,0,0,0,0,-1,1574,505,3.47726,2.22515
357,519,13.271,-29.6344,0,0,0,0,0,0,0,-1,1581,505,13.271,29.6344
364,519,12.8292,-28.3627,0,0,0,0,0,0,0,-1,1588,505,12.8292,28.3627
371,519,12.3875,-27.0911,0,0,0,0,0,0,0,-1,1595,505,12.3874,27.091
378,519,6.36597,-10.0967,0,0,0,0,0,0,0,-1,1602,505,6.36597,10.0967
385,519,6.24756,-9.72186,0,0,0,0,0,0,0,-1,1609,505,6.24752,9.72183
392,519,16.8391,-37.6736,0,0,0,0,0,0,0,-1,1616,505,16.8391,37.6737
399,519,31.8569,-108.321,0,0,0,0,0,0,0,-1,1623,505,31.8569,108.321
406,519,62.7542,-174.802,0,0,0,0,0,0,0,-1,1630,505,62.7541,174.802
413,519,61.9102,-171.173,0,0,0,0,0,0,0,-1,1637,505,61.9101,171.173
420,519,62.6023,-168.207,0,0,0,0,0,0,0,-1,1644,505,62.6023,168.207
427,519,62.5439,-164.39,0.0654909,0.0137304,-0.0493686,0.0953515,-0.0161303,-0.543979,0.0695706,0.0443455,1651,505,62.5439,164.39
434,519,62.2157,-160.561,0.0613385,0.01364,-0.047069,0.0902555,-0.015277,-0.550907,0.065856,0.0430565,1658,505,62.2157,160.561
441,519,61.4048,-156.644,0.057943,0.0139494,-0.0442926,0.0854002,-0.0135078,-0.554927,0.0619291,0.0201212,1665,505,61.4048,156.644
448,519,60.647,-152.764,0.0551665,0.014382,-0.0410919,0.0806479,-0.0110993,-0.555073,0.0578213,0.0157927,1672,505,60.647,152.764
455,519,59.8185,-148.868,0.0525004,0.0146478,-0.0376197,0.0756864,-0.00853821,-0.552338,0.0535311,0.01756,1679,505,59.8184,148.868
462,519,59.0508,-144.886,0.0505251,0.0152621,-0.0336614,0.070893,-0.00510588,-0.544149,0.0490526,0.0171853,1686,505,59.0508,144.886
469,519,58.2507,-140.79,0.0492135,0.0160984,-0.0293332,0.0663396,-0.00102768,-0.528458,0.0445729,0.0222358,1693,505,58.2507,140.79
476,519,57.2361,-136.634,0.0482237,0.017332,-0.0247902,0.0619862,0.00356945,-0.506795,0.0401872,0.0238779,1700,505,57.2361,136.634
483,519,56.1676,-132.468,0.0474372,0.0186729,-0.0201574,0.0578173,0.00829283,-0.475536,0.0360995,0.0205783,1707,505,56.1676,132.468
490,519,54.8904,-128.104,0.0468867,0.0204659,-0.0151931,0.0538094,0.0135431,-0.427544,0.0323187,0.0181953,1714,505,54.8903,128.104
497,519,53.5979,-123.705,0,0,0,0,0,0,0,-1,1721,505,53.5979,123.705
504,519,52.6866,-119.078,0,0,0,0,0,0,0,-1,1728,505,52.6867,119.078
511,519,26.5901,-66.6717,0,0,0,0,0,0,0,-1,1735,505,26.5901,66.6717
518,519,20.183,-28.4342,0,0,0,0,0,0,0,-1,1742,505,20.183,28.4342
525,519,15.9647,-20.5714,0,0,0,0,0,0,0,-1,1749,505,15.9648,20.5714
532,519,15.825,-19.0025,0,0,0,0,0,0,0,-1,1756,505,15.8249,19.0025
539,519,16.5902,-16.8075,0,0,0,0,0,0,0,-1,1763,505,16.5903,16.8075
546,519,12.4001,-16.5616,0,0,0,0,0,0,0,-1,1770,505,12.4002,16.5616
553,519,4.14136,0.0667419,0,0,0,0,0,0,0,-1,1777,505,4.14141,-0.0667503
560,519,3.77856,0.279724,0,0,0,0,0,0,0,-1,1784,505,3.77861,-0.279731
567,519,0,0,0,0,0,0,0,0,0,-1,1791,505,0,0
574,519,0,0,0,0,0,0,0,0,0,-1,1798,505,0,0
581,519,0,0,0,0,0,0,0,0,0,-1,1805,505,0,0
588,519,0,0,0,0,0,0,0,0,0,-1,1812,505,0,0
595,519,0,0,0,0,0,0,0,0,0,-1,1819,505,0,0
602,519,0,0,0,0,0,0,0,0,0,-1,1826,505,0,0
609,519,0,0,0,0,0,0,0,0,0,-1,1833,505,0,0
616,519,0,0,0,0,0,0,0,0,0,-1,1840,505,0,0
623,519,0,0,0,0,0,0,0,0,0,-1,1847,505,0,0
630,519,0,0,0,0,0,0,0,0,0,-1,1854,505,0,0
637,519,0,0,0,0,0,0,0,0,0,-1,1861,505,0,0
644,519,0,0,0,0,0,0,0,0,0,-1,1868,505,0,0
651,519,0,0,0,0,0,0,0,0,0,-1,1875,505,0,0
658,519,0,0,0,0,0,0,0,0,0,-1,1882,505,0,0
665,519,0,0,0,0,0,0,0,0,0,-1,1889,505,0,0
672,519,0,0,0,0,0,0,0,0,0,-1,1896,505,0,0
679,519,0,0,0,0,0,0,0,0,0,-1,1903,505,0,0
686,519,0,0,0,0,0,0,0,0,0,-1,1910,505,0,0
693,519,0,0,0,0,0,0,0,0,0,-1,1917,505,0,0
700,519,0,0,0,0,0,0,0,0,0,-1,1924,505,0,0
707,519,0,0,0,0,0,0,0,0,0,-1,1931,505,0,0
714,519,0,0,0,0,0,0,0,0,0,-1,1938,505,0,0
721,519,0,0,0,0,0,0,0,0,0,-1,1945,505,0,0
728,519,0,0,0,0,0,0,0,0,0,-1,1952,505,0,0
735,519,0,0,0,0,0,0,0,0,0,-1,1959,505,0,0
742,519,0,0,0,0,0,0,0,0,0,-1,1966,505,0,0
749,519,0,0,0,0,0,0,0,0,0,-1,1973,505,0,0
756,519,0,0,0,0,0,0,0,0,0,-1,1980,505,0,0
763,519,0,0,0,0,0,0,0,0,0,-1,1987,505,0,0
770,519,0,0,0,0,0,0,0,0,0,-1,1994,505,0,0
777,519,0,0,0,0,0,0,0,0,0,-1,2001,505,0,0
784,519,0,0,0,0,0,0,0,0,0,-1,2008,505,0,0
791,519,0,0,0,0,0,0,0,0,0,-1,2015,505,0,0
798,519,0,0,0,0,0,0,0,0,0,-1,2022,505,0,0
805,519,0,0,0,0,0,0,0,0,0,-1,2029,505,0,0
812,519,0,0,0,0,0,0,0,0,0,-1,2036,505,0,0
-700,512,0,0,0,0,0,0,0,0,0,-1,524,512,0,0
-693,512,0,0,0,0,0,0,0,0,0,-1,531,512,0,0
-686,512,0,0,0,0,0,0,0,0,0,-1,538,512,0,0
-679,512,0,0,0,0,0,0,0,0,0,-1,545,512,0,0
-672,512,0,0,0,0,0,0,0,0,0,-1,552,512,0,0
-665,512,0,0,0,0,0,0,0,0,0,-1,559,512,0,0
-658,512,0,0,0,0,0,0,0,0,0,-1,566,512,0,0
-651,512,0,0,0,0,0,0,0,0,0,-1,573,512,0,0
-644,512,0,0,0,0,0,0,0,0,0,-1,580,512,0,0
-637,512,0,0,0,0,0,0,0,0,0,-1,587,512,0,0
-630,512,0,0,0,0,0,0,0,0,0,-1,594,512,0,0
-623,512,0,0,0,0,0,0,0,0,0,-1,601,512,0,0
-616,512,0,0,0,0,0,0,0,0,0,-1,608,512,0,0
-609,512,0,0,0,0,0,0,0,0,0,-1,615,512,0,0
-602,512,0,0,0,0,0,0,0,0,0,-1,622,512,0,0
-595,512,0,0,0,0,0,0,0,0,0,-1,629,512,0,0
-588,512,0,0,0,0,0,0,0,0,0,-1,636,512,0,0
-581,512,0,0,0,0,0,0,0,0,0,-1,643,512,0,0
-574,512,0,0,0,0,0,0,0,0,0,-1,650,512,0,0
-567,512,0,0,0,0,0,0,0,0,0,-1,657,512,0,0
-560,512,0,0,0,0,0,0,0,0,0,-1,664,512,0,0
-553,512,0,0,0,0,0,0,0,0,0,-1,671,512,0,0
-546,512,0,0,0,0,0,0,0,0,0,-1,678,512,0,0
-539,512,0,0,0,0,0,0,0,0,0,-1,685,512,0,0
-532,512,0,0,0,0,0,0,0,0,0,-1,692,512,0,0
-525,512,0,0,0,0,0,0,0,0,0,-1,699,512,0,0
-518,512,0,0,0,0,0,0,0,0,0,-1,706,512,0,0
-511,512,0,0,0,0,0,0,0,0,0,-1,713,512,0,0
-504,512,0,0,0,0,0,0,0,0,0,-1,720,512,0,0
-497,512,0,0,0,0,0,0,0,0,0,-1,727,512,0,0
-490,512,0,0,0,0,0,0,0,0,0,-1,734,512,0,0
-483,512,0,0,0,0,0,0,0,0,0,-1,741,512,0,0
-476,512,0,0,0,0,0,0,0,0,0,-1,748,512,0,0
-469,512,0,0,0,0,0,0,0,0,0,-1,755,512,0,0
-462,512,0,0,0,0,0,0,0,0,0,-1,762,512,0,0
-455,512,0,0,0,0,0,0,0,0,0,-1,769,512,0,0
-448,512,1.96283,-4.15674,0,0,0,0,0,0,0,-1,776,512,1.96285,4.15677
-441,512,1.78198,-4.88824,0,0,0,0,0,0,0,-1,783,512,1.78201,4.88826
-434,512,0.0726929,-9.85822,0,0,0,0,0,0,0,-1,790,512,0.0727008,9.85819
-427,512,-0.384583,-9.94824,0,0,0,0,0,0,0,-1,797,512,-0.384552,9.94823
-420,512,-2.93219,-12.4855,0,0,0,0,0,0,0,-1,804,512,-2.93219,12.4855
-413,512,-2.22711,-11.4485,0,0,0,0,0,0,0,-1,811,512,-2.22712,11.4485
-406,512,-2.38037,-13.5743,0,0,0,0,0,0,0,-1,818,512,-2.38034,13.5743
-399,512,-3.13367,-23.934,0,0,0,0,0,0,0,-1,825,512,-3.13368,23.934
-392,512,-17.0581,-76.7349,0,0,0,0,0,0,0,-1,832,512,-17.0581,76.7349
-385,512,-27.1439,-110.304,0,0,0,0,0,0,0,-1,839,512,-27.1439,110.304
-378,512,-44.7638,-116.532,0,0,0,0,0,0,0,-1,846,512,-44.7638,116.532
-371,512,-46.1765,-121.281,0,0,0,0,0,0,0,-1,853,512,-46.1765,121.281
-364,512,-47.5398,-125.884,0.0357173,0.00752152,0.024404,0.0498028,-0.00656405,0.523473,0.0355922,0.0412044,860,512,-47.5398,125.884
-357,512,-48.7714,-130.071,0.0384617,0.00609568,0.0282567,0.0548414,-0.010284,0.52534,0.0404273,0.0321228,867,512,-48.7714,130.071
-350,512,-49.8217,-134.213,0.041288,0.00488514,0.0323538,0.0602088,-0.0140356,0.529175,0.0455444,0.0227604,874,512,-49.8217,134.213
-343,512,-50.8815,-138.324,0.0440808,0.00365885,0.0363557,0.0654657,-0.0177262,0.531709,0.0505984,0.0238754,881,512,-50.8815,138.324
-336,512,-51.8803,-142.38,0.0467935,0.00254425,0.0403892,0.0707209,-0.0213831,0.534827,0.0556613,0.029871,888,512,-51.8803,142.38
-329,512,-52.7152,-146.355,0.0494364,0.000918994,0.0448949,0.0762075,-0.0258521,0.537698,0.0612682,0.036639,895,512,-52.7152,146.355
-322,512,-53.3618,-150.411,0.0521461,-0.00102284,0.0494022,0.0816626,-0.0305393,0.538559,0.0669837,0.033286,902,512,-53.3618,150.411
-315,512,-54.0949,-154.364,0.0545642,-0.00314488,0.0541681,0.0870836,-0.0356643,0.540672,0.0729117,0.033025,909,512,-54.0949,154.364
-308,512,-54.6771,-158.29,0.0574048,-0.00568407,0.0590949,0.0928474,-0.0411266,0.54024,0.0792479,0.0401917,916,512,-54.6771,158.29
-301,512,-54.6234,-162.642,0,0,0,0,0,0,0,-1,923,512,-54.6234,162.642
-294,512,-55.6116,-165.427,0,0,0,0,0,0,0,-1,930,512,-55.6116,165.428
-287,512,-56.2394,-169.047,0,0,0,0,0,0,0,-1,937,512,-56.2395,169.047
-280,512,-29.0358,-135.184,0,0,0,0,0,0,0,-1,944,512,-29.0358,135.184
-273,512,-15.7443,-87.9698,0,0,0,0,0,0,0,-1,951,512,-15.7443,87.9698
-266,512,-2.33594,-25.9839,0,0,0,0,0,0,0,-1,958,512,-2.33592,25.9839
-259,512,-0.525452,-14.0815,0,0,0,0,0,0,0,-1,965,512,-0.525475,14.0815
-252,512,1.45941,-3.43475,0,0,0,0,0,0,0,-1,972,512,1.45938,3.43475
-245,512,-1.6731,-22.8959,0,0,0,0,0,0,0,-1,979,512,-1.67312,22.8959
-238,512,0.227051,-8.92969,0,0,0,0,0,0,0,-1,986,512,0.227073,8.92968
-231,512,-1.90576,-38.0918,0,0,0,0,0,0,0,-1,993,512,-1.90575,38.0918
-224,512,-1.29974,-33.6304,0,0,0,0,0,0,0,-1,1000,512,-1.29974,33.6304
-217,512,-0.963196,-34.1697,0,0,0,0,0,0,0,-1,1007,512,-0.963226,34.1697
-210,512,-3.76642,-1.94702,0,0,0,0,0,0,0,-1,1014,512,-3.76641,1.94702
-203,512,-2.48328,-5.19061,0,0,0,0,0,0,0,-1,1021,512,-2.48328,5.19059
-196,512,-1.14929,-4.63202,0,0,0,0,0,0,0,-1,1028,512,-1.14934,4.632
-189,512,0.197998,4.55505,0,0,0,0,0,0,0,-1,1035,512,0.197996,-4.55506
-182,512,2.73938,0.0778503,0,0,0,0,0,0,0,-1,1042,512,2.73944,-0.077852
-175,512,2.29565,0.209808,0,0,0,0,0,0,0,-1,1049,512,2.29565,-0.209813
-168,512,2.09399,-0.302856,0,0,0,0,0,0,0,-1,1056,512,2.09403,0.302826
-161,512,2.76636,0.0921021,0,0,0,0,0,0,0,-1,1063,512,2.76633,-0.0921104
-154,512,3.41382,0.466187,0,0,0,0,0,0,0,-1,1070,512,3.41382,-0.466178
-147,512,0,0,0,0,0,0,0,0,0,-1,1077,512,0,0
-140,512,0,0,0,0,0,0,0,0,0,-1,1084,512,0,0
-133,512,0,0,0,0,0,0,0,0,0,-1,1091,512,0,0
-126,512,0,0,0,0,0,0,0,0,0,-1,1098,512,0,0
-119,512,0,0,0,0,0,0,0,0,0,-1,1105,512,0,0
-112,512,0,0,0,0,0,0,0,0,0,-1,1112,512,0,0
-105,512,0,0,0,0,0,0,0,0,0,-1,1119,512,0,0
-98,512,0,0,0,0,0,0,0,0,0,-1,1126,512,0,0
-91,512,0,0,0,0,0,0,0,0,0,-1,1133,512,0,0
-84,512,0,0,0,0,0,0,0,0,0,-1,1140,512,0,0
-77,512,0,0,0,0,0,0,0,0,0,-1,1147,512,0,0
-70,512,0,0,0,0,0,0,0,0,0,-1,1154,512,0,0
-63,512,0,0,0,0,0,0,0,0,0,-1,1161,512,0,0
-56,512,0,0,0,0,0,0,0,0,0,-1,1168,512,0,0
-49,512,0,0,0,0,0,0,0,0,0,-1,1175,512,0,0
-42,512,0,0,0,0,0,0,0,0,0,-1,1182,512,0,0
-35,512,0,0,0,0,0,0,0,0,0,-1,1189,512,0,0
-28,512,0,0,0,0,0,0,0,0,0,-1,1196,512,0,0
-21,512,0,0,0,0,0,0,0,0,0,-1,1203,512,0,0
-14,512,0,0,0,0,0,0,0,0,0,-1,1210,512,0,0
-7,512,0,0,0,0,0,0,0,0,0,-1,1217,512,0,0
0,512,0,0,0,0,0,0,0,0,0,-1,1224,512,0,0
7,512,0,0,0,0,0,0,0,0,0,-1,1231,512,0,0
14,512,0,0,0,0,0,0,0,0,0,-1,1238,512,0,0
21,512,0,0,0,0,0,0,0,0,0,-1,1245,512,0,0
28,512,0,0,0,0,0,0,0,0,0,-1,1252,512,0,0
35,512,0,0,0,0,0,0,0,0,0,-1,1259,512,0,0
42,512,0,0,0,0,0,0,0,0,0,-1,1266,512,0,0
49,512,0,0,0,0,0,0,0,0,0,-1,1273,512,0,0
56,512,0,0,0,0,0,0,0,0,0,-1,1280,512,0,0
63,512,0,0,0,0,0,0,0,0,0,-1,1287,512,0,0
70,512,0,0,0,0,0,0,0,0,0,-1,1294,512,0,0
77,512,0,0,0,0,0,0,0,0,0,-1,1301,512,0,0
84,512,0,0,0,0,0,0,0,0,0,-1,1308,512,0,0
91,512,0,0,0,0,0,0,0,0,0,-1,1315,512,0,0
98,512,0,0,0,0,0,0,0,0,0,-1,1322,512,0,0
105,512,0,0,0,0,0,0,0,0,0,-1,1329,512,0,0
112,512,0,0,0,0,0,0,0,0,0,-1,1336,512,0,0
119,512,0,0,0,0,0,0,0,0,0,-1,1343,512,0,0
126,512,0,0,0,0,0,0,0,0,0,-1,1350,512,0,0
133,512,0,0,0,0,0,0,0,0,0,-1,1357,512,0,0
140,512,0,0,0,0,0,0,0,0,0,-1,1364,512,0,0
147,512,0,0,0,0,0,0,0,0,0,-1,1371,512,0,0
154,512,0,0,0,0,0,0,0,0,0,-1,1378,512,0,0
161,512,0,0,0,0,0,0,0,0,0,-1,1385,512,0,0
168,512,0,0,0,0,0,0,0,0,0,-1,1392,512,0,0
175,512,0,0,0,0,0,0,0,0,0,-1,1399,512,0,0
182,512,0,0,0,0,0,0,0,0,0,-1,1406,512,0,0
189,512,0,0,0,0,0,0,0,0,0,-1,1413,512,0,0
196,512,0,0,0,0,0,0,0,0,0,-1,1420,512,0,0
203,512,0,0,0,0,0,0,0,0,0,-1,1427,512,0,0
210,512,0,0,0,0,0,0,0,0,0,-1,1434,512,0,0
217,512,0,0,0,0,0,0,0,0,0,-1,1441,512,0,0
224,512,0,0,0,0,0,0,0,0,0,-1,1448,512,0,0
231,512,0,0,0,0,0,0,0,0,0,-1,1455,512,0,0
238,512,0,0,0,0,0,0,0,0,0,-1,1462,512,0,0
245,512,0,0,0,0,0,0,0,0,0,-1,1469,512,0,0
252,512,0,0,0,0,0,0,0,0,0,-1,1476,512,0,0
259,512,0,0,0,0,0,0,0,0,0,-1,1483,512,0,0
266,512,0,0,0,0,0,0,0,0,0,-1,1490,512,0,0
273,512,4.00745,0.618622,0,0,0,0,0,0,0,-1,1497,512,4.00747,-0.618611
280,512,4.49609,0.649841,0,0,0,0,0,0,0,-1,1504,512,4.49612,-0.649834
287,512,4.77234,0.458069,0,0,0,0,0,0,0,-1,1511,512,4.77233,-0.458083
294,512,8.54956,-2.36273,0,0,0,0,0,0,0,-1,1518,512,8.54952,2.36274
301,512,6.302,-1.69092,0,0,0,0,0,0,0,-1,1525,512,6.30196,1.69093
308,512,8.2439,-6.22754,0,0,0,0,0,0,0,-1,1532,512,8.24394,6.22757
315,512,7.53687,-6.04211,0,0,0,0,0,0,0,-1,1539,512,7.53691,6.04211
322,512,6.82983,-5.85663,0,0,0,0,0,0,0,-1,1546,512,6.82988,5.85666
329,512,4.38147,-0.329651,0,0,0,0,0,0,0,-1,1553,512,4.38144,0.329662
336,512,4.41467,-0.741455,0,0,0,0,0,0,0,-1,1560,512,4.41467,0.741442
343,512,4.44727,-1.21667,0,0,0,0,0,0,0,-1,1567,512,4.44732,1.21666
350,512,4.55469,-1.65082,0,0,0,0,0,0,0,-1,1574,512,4.5547,1.65083
357,512,5.79993,-2.67456,0,0,0,0,0,0,0,-1,1581,512,5.79991,2.67454
364,512,13.118,-28.5485,0,0,0,0,0,0,0,-1,1588,512,13.1181,28.5485
371,512,5.28467,-7.69269,0,0,0,0,0,0,0,-1,1595,512,5.28464,7.69269
378,512,6.29407,-9.88055,0,0,0,0,0,0,0,-1,1602,512,6.29412,9.88057
385,512,6.45569,-9.32233,0,0,0,0,0,0,0,-1,1609,512,6.45565,9.3223
392,512,6.35522,-8.98425,0,0,0,0,0,0,0,-1,1616,512,6.35526,8.98422
399,512,16.9089,-33.7311,0,0,0,0,0,0,0,-1,1623,512,16.9089,33.7311
406,512,21.3325,-43.5074,0,0,0,0,0,0,0,-1,1630,512,21.3325,43.5074
413,512,66.2461,-169.974,0,0,0,0,0,0,0,-1,1637,512,66.2461,169.974
420,512,65.6412,-166.296,0,0,0,0,0,0,0,-1,1644,512,65.6412,166.296
427,512,66.9139,-163.069,0,0,0,0,0,0,0,-1,1651,512,66.9139,163.069
434,512,66.637,-159.163,0.0637265,0.0135334,-0.0514498,0.0958743,-0.0186144,-0.558483,0.0709398,0.0405709,1658,512,66.637,159.163
441,512,65.7756,-155.309,0.059543,0.0132556,-0.0492235,0.0907922,-0.0179935,-0.565646,0.0673322,0.0193692,1665,512,65.7756,155.309
448,512,64.8743,-151.504,0.0562397,0.0132491,-0.0463509,0.085837,-0.0163482,-0.568283,0.0633808,0.0182034,1672,512,64.8742,151.504
455,512,64.0367,-147.603,0.0533423,0.0131239,-0.0430823,0.0807775,-0.0143112,-0.567045,0.0592015,0.0212752,1679,512,64.0367,147.603
462,512,63.2794,-143.589,0.0513464,0.0134445,-0.0392532,0.0759838,-0.011193,-0.560506,0.0547695,0.018968,1686,512,63.2794,143.589
469,512,62.4075,-139.328,0.0501782,0.0139746,-0.0350874,0.0715581,-0.00740524,-0.547253,0.0503556,0.0235855,1693,512,62.4074,139.328
476,512,61.4944,-135.15,0.0495484,0.0149111,-0.0306667,0.0674488,-0.00298933,-0.528355,0.0459947,0.0302777,1700,512,61.4944,135.15
483,512,60.5034,-131.007,0.0492327,0.0159249,-0.0260779,0.0635209,0.00163673,-0.501231,0.0418124,0.0233865,1707,512,60.5034,131.007
490,512,59.4633,-126.727,0.0494717,0.0173453,-0.0215362,0.0602755,0.00654157,-0.464972,0.0381903,0.0164171,1714,512,59.4633,126.727
497,512,58.2664,-122.366,0.0497234,0.0186317,-0.017469,0.0575622,0.010793,-0.421791,0.035331,0.0174165,1721,512,58.2664,122.366
504,512,57.0511,-117.951,0.0501087,0.0204159,-0.013608,0.0554017,0.015123,-0.370953,0.033067,0.0398562,1728,512,57.0512,117.951
511,512,55.8405,-113.44,0,0,0,0,0,0,0,-1,1735,512,55.8405,113.44
518,512,28.3206,-64.3033,0,0,0,0,0,0,0,-1,1742,512,28.3206,64.3033
525,512,21.4387,-27.6805,0,0,0,0,0,0,0,-1,1749,512,21.4388,27.6805
532,512,16.6807,-19.0635,0,0,0,0,0,0,0,-1,1756,512,16.6807,19.0635
539,512,12.6367,-16.4022,0,0,0,0,0,0,0,-1,1763,512,12.6367,16.4021
546,512,2.77551,-0.66449,0,0,0,0,0,0,0,-1,1770,512,2.77548,0.664503
553,512,3.927,-0.448853,0,0,0,0,0,0,0,-1,1777,512,3.92704,0.448843
560,512,3.55762,-0.201233,0,0,0,0,0,0,0,-1,1784,512,3.55768,0.201259
567,512,3.09045,0.191193,0,0,0,0,0,0,0,-1,1791,512,3.09045,-0.191203
574,512,0,0,0,0,0,0,0,0,0,-1,1798,512,0,0
581,512,0,0,0,0,0,0,0,0,0,-1,1805,512,0,0
588,512,0,0,0,0,0,0,0,0,0,-1,1812,512,0,0
595,512,0,0,0,0,0,0,0,0,0,-1,1819,512,0,0
602,512,0,0,0,0,0,0,0,0,0,-1,1826,512,0,0
609,512,0,0,0,0,0,0,0,0,0,-1,1833,512,0,0
616,512,0,0,0,0,0,0,0,0,0,-1,1840,512,0,0
623,512,0,0,0,0,0,0,0,0,0,-1,1847,512,0,0
630,512,0,0,0,0,0,0,0,0,0,-1,1854,512,0,0
637,512,0,0,0,0,0,0,0,0,0,-1,1861,512,0,0
644,512,0,0,0,0,0,0,0,0,0,-1,1868,512,0,0
651,512,0,0,0,0,0,0,0,0,0,-1,1875,512,0,0
658,512,0,0,0,0,0,0,0,0,0,-1,1882,512,0,0
665,512,0,0,0,0,0,0,0,0,0,-1,1889,512,0,0
672,512,0,0,0,0,0,0,0,0,0,-1,1896,512,0,0
679,512,0,0,0,0,0,0,0,0,0,-1,1903,512,0,0
686,512,0,0,0,0,0,0,0,0,0,-1,1910,512,0,0
693,512,0,0,0,0,0,0,0,0,0,-1,1917,512,0,0
700,512,0,0,0,0,0,0,0,0,0,-1,1924,512,0,0
707,512,0,0,0,0,0,0,0,0,0,-1,1931,512,0,0
714,512,0,0,0,0,0,0,0,0,0,-1,1938,512,0,0
721,512,0,0,0,0,0,0,0,0,0,-1,1945,512,0,0
728,512,0,0,0,0,0,0,0,0,0,-1,1952,512,0,0
735,512,0,0,0,0,0,0,0,0,0,-1,1959,512,0,0
742,512,0,0,0,0,0,0,0,0,0,-1,1966,512,0,0
749,512,0,0,0,0,0,0,0,0,0,-1,1973,512,0,0
756,512,0,0,0,0,0,0,0,0,0,-1,1980,512,0,0
763,512,0,0,0,0,0,0,0,0,0,-1,1987,512,0,0
770,512,0,0,0,0,0,0,0,0,0,-1,1994,512,0,0
777,512,0,0,0,0,0,0,0,0,0,-1,2001,512,0,0
784,512,0,0,0,0,0,0,0,0,0,-1,2008,512,0,0
791,512,0,0,0,0,0,0,0,0,0,-1,2015,512,0,0
798,512,0,0,0,0,0,0,0,0,0,-1,2022,512,0,0
805,512,0,0,0,0,0,0,0,0,0,-1,2029,512,0,0
812,512,0,0,0,0,0,0,0,0,0,-1,2036,512,0,0
-700,505,0,0,0,0,0,0,0,0,0,-1,524,519,0,0
-693,505,0,0,0,0,0,0,0,0,0,-1,531,519,0,0
-686,505,0,0,0,0,0,0,0,0,0,-1,538,519,0,0
-679,505,0,0,0,0,0,0,0,0,0,-1,545,519,0,0
-672,505,0,0,0,0,0,0,0,0,0,-1,552,519,0,0
-665,505,0,0,0,0,0,0,0,0,0,-1,559,519,0,0
-658,505,0,0,0,0,0,0,0,0,0,-1,566,519,0,0
-651,505,0,0,0,0,0,0,0,0,0,-1,573,519,0,0
-644,505,0,0,0,0,0,0,0,0,0,-1,580,519,0,0
-637,505,0,0,0,0,0,0,0,0,0,-1,587,519,0,0
-630,505,0,0,0,0,0,0,0,0,0,-1,594,519,0,0
-623,505,0,0,0,0,0,0,0,0,0,-1,601,519,0,0
-616,505,0,0,0,0,0,0,0,0,0,-1,608,519,0,0
-609,505,0,0,0,0,0,0,0,0,0,-1,615,519,0,0
-602,505,0,0,0,0,0,0,0,0,0,-1,622,519,0,0
-595,505,0,0,0,0,0,0,0,0,0,-1,629,519,0,0
-588,505,0,0,0,0,0,0,0,0,0,-1,636,519,0,0
-581,505,0,0,0,0,0,0,0,0,0,-1,643,519,0,0
-574,505,0,0,0,0,0,0,0,0,0,-1,650,519,0,0
-567,505,0,0,0,0,0,0,0,0,0,-1,657,519,0,0
-560,505,0,0,0,0,0,0,0,0,0,-1,664,519,0,0
-553,505,0,0,0,0,0,0,0,0,0,-1,671,519,0,0
-546,505,0,0,0,0,0,0,0,0,0,-1,678,519,0,0
-539,505,0,0,0,0,0,0,0,0,0,-1,685,519,0,0
-532,505,0,0,0,0,0,0,0,0,0,-1,692,519,0,0
-525,505,0,0,0,0,0,0,0,0,0,-1,699,519,0,0
-518,505,0,0,0,0,0,0,0,0,0,-1,706,519,0,0
-511,505,0,0,0,0,0,0,0,0,0,-1,713,519,0,0
-504,505,0,0,0,0,0,0,0,0,0,-1,720,519,0,0
-497,505,0,0,0,0,0,0,0,0,0,-1,727,519,0,0
-490,505,0,0,0,0,0,0,0,0,0,-1,734,519,0,0
-483,505,0,0,0,0,0,0,0,0,0,-1,741,519,0,0
-476,505,0,0,0,0,0,0,0,0,0,-1,748,519,0,0
-469,505,0,0,0,0,0,0,0,0,0,-1,755,519,0,0
-462,505,0,0,0,0,0,0,0,0,0,-1,762,519,0,0
-455,505,2.72137,-3.26379,0,0,0,0,0,0,0,-1,769,519,2.72135,3.26377
-448,505,2.51111,-3.94989,0,0,0,0,0,0,0,-1,776,519,2.51112,3.94986
-441,505,2.80212,-6.8902,0,0,0,0,0,0,0,-1,783,519,2.80209,6.89019
-434,505,-0.155212,-10.6374,0,0,0,0,0,0,0,-1,790,519,-0.155194,10.6374
-427,505,-0.474426,-10.4702,0,0,0,0,0,0,0,-1,797,519,-0.474433,10.4702
-420,505,-0.922546,-10.1928,0,0,0,0,0,0,0,-1,804,519,-0.92257,10.1928
-413,505,-3.33948,-13.6183,0,0,0,0,0,0,0,-1,811,519,-3.33949,13.6184
-406,505,-3.2439,-18.3408,0,0,0,0,0,0,0,-1,818,519,-3.24389,18.3408
-399,505,-13.6014,-52.9089,0,0,0,0,0,0,0,-1,825,519,-13.6014,52.9089
-392,505,-30.1122,-103.988,0,0,0,0,0,0,0,-1,832,519,-30.1122,103.988
-385,505,-48.1989,-109.953,0,0,0,0,0,0,0,-1,839,519,-48.1989,109.954
-378,505,-49.4778,-115.051,0.0346979,0.00831627,0.0216832,0.0468873,-0.00387317,0.512132,0.032626,0.0322153,846,519,-49.4778,115.051
-371,505,-50.8416,-119.707,0.0366071,0.00631851,0.0255228,0.0511404,-0.00821482,0.517635,0.037136,0.0226333,853,519,-50.8416,119.707
-364,505,-51.9711,-124.179,0.0390867,0.00475703,0.0293775,0.0559464,-0.0121027,0.521007,0.0419183,0.0245873,860,519,-51.9711,124.179
-357,505,-53.1926,-128.545,0.0418718,0.00340808,0.0332265,0.0610309,-0.015751,0.523051,0.0468291,0.0199865,867,519,-53.1926,128.545
-350,505,-54.3738,-132.77,0.044572,0.0023686,0.0372641,0.0662943,-0.0193537,0.527773,0.0518654,0.019086,874,519,-54.3738,132.77
-343,505,-55.4942,-136.894,0.0472118,0.00117942,0.0413062,0.0714813,-0.0230902,0.531218,0.0569337,0.0184001,881,519,-55.4942,136.894
-336,505,-56.4315,-140.91,0.0497563,-5.3052e-05,0.045527,0.0767453,-0.027042,0.535118,0.0621698,0.0268103,888,519,-56.4315,140.91
-329,505,-57.1071,-144.89,0.0523547,-0.0017146,0.0501847,0.0823234,-0.0316832,0.538334,0.0679517,0.0434777,895,519,-57.107,144.89
-322,505,-57.5475,-148.919,0,0,0,0,0,0,0,-1,902,519,-57.5475,148.919
-315,505,-58.3636,-152.821,0.0573934,-0.00617114,0.0598418,0.0933692,-0.0421469,0.541288,0.0800816,0.0399333,909,519,-58.3636,152.821
-308,505,-59.1563,-156.506,0.0599895,-0.00904255,0.0651292,0.0991835,-0.0482366,0.541734,0.0867907,0.0373816,916,519,-59.1562,156.506
-301,505,-59.8936,-160.08,0,0,0,0,0,0,0,-1,923,519,-59.8936,160.08
-294,505,-59.7305,-164.005,0,0,0,0,0,0,0,-1,930,519,-59.7304,164.006
-287,505,-18.8856,-88.2983,0,0,0,0,0,0,0,-1,937,519,-18.8856,88.2983
-280,505,-16.3037,-81.0037,0,0,0,0,0,0,0,-1,944,519,-16.3037,81.0037
-273,505,-0.0680542,-9.44867,0,0,0,0,0,0,0,-1,951,519,-0.0680462,9.44866
-266,505,-0.036377,-9.07922,0,0,0,0,0,0,0,-1,958,519,-0.0364055,9.0792
-259,505,0.10321,-6.69824,0,0,0,0,0,0,0,-1,965,519,0.103235,6.69826
-252,505,6.82312,-15.6972,0,0,0,0,0,0,0,-1,972,519,6.82314,15.6972
-245,505,4.26727,-12.9861,0,0,0,0,0,0,0,-1,979,519,4.2673,12.9861
-238,505,1.67432,-11.2307,0,0,0,0,0,0,0,-1,986,519,1.67429,11.2307
-231,505,-0.958435,-8.3075,0,0,0,0,0,0,0,-1,993,519,-0.958421,8.30751
-224,505,-1.46399,-33.4399,0,0,0,0,0,0,0,-1,1000,519,-1.46397,33.4399
-217,505,-6.34302,-1.65533,0,0,0,0,0,0,0,-1,1007,519,-6.34299,1.65535
-210,505,-3.06128,-0.396301,0,0,0,0,0,0,0,-1,1014,519,-3.06129,0.396294
-203,505,-4.26465,2.03607,0,0,0,0,0,0,0,-1,1021,519,-4.26462,-2.03606
-196,505,-5.47595,4.27295,0,0,0,0,0,0,0,-1,1028,519,-5.47597,-4.27292
-189,505,1.51526,5.56207,0,0,0,0,0,0,0,-1,1035,519,1.51523,-5.56209
-182,505,2.97815,7.5097,0,0,0,0,0,0,0,-1,1042,519,2.97812,-7.5097
-175,505,-2.38416,-2.17548,0,0,0,0,0,0,0,-1,1049,519,-2.38411,2.1755
-168,505,0,0,0,0,0,0,0,0,0,-1,1056,519,0,0
-161,505,0,0,0,0,0,0,0,0,0,-1,1063,519,0,0
-154,505,0,0,0,0,0,0,0,0,0,-1,1070,519,0,0
-147,505,0,0,0,0,0,0,0,0,0,-1,1077,519,0,0
-140,505,0,0,0,0,0,0,0,0,0,-1,1084,519,0,0
-133,505,0,0,0,0,0,0,0,0,0,-1,1091,519,0,0
-126,505,0,0,0,0,0,0,0,0,0,-1,1098,519,0,0
-119,505,0,0,0,0,0,0,0,0,0,-1,1105,519,0,0
-112,505,0,0,0,0,0,0,0,0,0,-1,1112,519,0,0
-105,505,0,0,0,0,0,0,0,0,0,-1,1119,519,0,0
-98,505,0,0,0,0,0,0,0,0,0,-1,1126,519,0,0
-91,505,0,0,0,0,0,0,0,0,0,-1,1133,519,0,0
-84,505,0,0,0,0,0,0,0,0,0,-1,1140,519,0,0
-77,505,0,0,0,0,0,0,0,0,0,-1,1147,519,0,0
-70,505,0,0,0,0,0,0,0,0,0,-1,1154,519,0,0
-63,505,0,0,0,0,0,0,0,0,0,-1,1161,519,0,0
-56,505,0,0,0,0,0,0,0,0,0,-1,1168,519,0,0
-49,505,0,0,0,0,0,0,0,0,0,-1,1175,519,0,0
-42,505,0,0,0,0,0,0,0,0,0,-1,1182,519,0,0
-35,505,0,0,0,0,0,0,0,0,0,-1,1189,519,0,0
-28,505,0,0,0,0,0,0,0,0,0,-1,1196,519,0,0
-21,505,0,0,0,0,0,0,0,0,0,-1,1203,519,0,0
-14,505,0,0,0,0,0,0,0,0,0,-1,1210,519,0,0
-7,505,0,0,0,0,0,0,0,0,0,-1,1217,519,0,0
0,505,0,0,0,0,0,0,0,0,0,-1,1224,519,0,0
7,505,0,0,0,0,0,0,0,0,0,-1,1231,519,0,0
14,505,0,0,0,0,0,0,0,0,0,-1,1238,519,0,0
21,505,0,0,0,0,0,0,0,0,0,-1,1245,519,0,0
28,505,0,0,0,0,0,0,0,0,0,-1,1252,519,0,0
35,505,0,0,0,0,0,0,0,0,0,-1,1259,519,0,0
42,505,0,0,0,0,0,0,0,0,0,-1,1266,519,0,0
49,505,0,0,0,0,0,0,0,0,0,-1,1273,519,0,0
56,505,0,0,0,0,0,0,0,0,0,-1,1280,519,0,0
63,505,0,0,0,0,0,0,0,0,0,-1,1287,519,0,0
70,505,0,0,0,0,0,0,0,0,0,-1,1294,519,0,0
77,505,0,0,0,0,0,0,0,0,0,-1,1301,519,0,0
84,505,0,0,0,0,0,0,0,0,0,-1,1308,519,0,0
91,505,0,0,0,0,0,0,0,0,0,-1,1315,519,0,0
98,505,0,0,0,0,0,0,0,0,0,-1,1322,519,0,0
105,505,0,0,0,0,0,0,0,0,0,-1,1329,519,0,0
112,505,0,0,0,0,0,0,0,0,0,-1,1336,519,0,0
119,505,0,0,0,0,0,0,0,0,0,-1,1343,519,0,0
126,505,0,0,0,0,0,0,0,0,0,-1,1350,519,0,0
133,505,0,0,0,0,0,0,0,0,0,-1,1357,519,0,0
140,505,0,0,0,0,0,0,0,0,0,-1,1364,519,0,0
147,505,0,0,0,0,0,0,0,0,0,-1,1371,519,0,0
154,505,0,0,0,0,0,0,0,0,0,-1,1378,519,0,0
161,505,0,0,0,0,0,0,0,0,0,-1,1385,519,0,0
168,505,0,0,0,0,0,0,0,0,0,-1,1392,519,0,0
175,505,0,0,0,0,0,0,0,0,0,-1,1399,519,0,0
182,505,0,0,0,0,0,0,0,0,0,-1,1406,519,0,0
189,505,0,0,0,0,0,0,0,0,0,-1,1413,519,0,0
196,505,0,0,0,0,0,0,0,0,0,-1,1420,519,0,0
203,505,0,0,0,0,0,0,0,0,0,-1,1427,519,0,0
210,505,0,0,0,0,0,0,0,0,0,-1,1434,519,0,0
217,505,0,0,0,0,0,0,0,0,0,-1,1441,519,0,0
224,505,0,0,0,0,0,0,0,0,0,-1,1448,519,0,0
231,505,0,0,0,0,0,0,0,0,0,-1,1455,519,0,0
238,505,0,0,0,0,0,0,0,0,0,-1,1462,519,0,0
245,505,0,0,0,0,0,0,0,0,0,-1,1469,519,0,0
252,505,0,0,0,0,0,0,0,0,0,-1,1476,519,0,0
259,505,0,0,0,0,0,0,0,0,0,-1,1483,519,0,0
266,505,0,0,0,0,0,0,0,0,0,-1,1490,519,0,0
273,505,0,0,0,0,0,0,0,0,0,-1,1497,519,0,0
280,505,0,0,0,0,0,0,0,0,0,-1,1504,519,0,0
287,505,4.39478,0.499512,0,0,0,0,0,0,0,-1,1511,519,4.39476,-0.499506
294,505,4.88867,0.0822754,0,0,0,0,0,0,0,-1,1518,519,4.88871,-0.0822748
301,505,4.82153,-0.0704346,0,0,0,0,0,0,0,-1,1525,519,4.82156,0.0704312
308,505,4.67761,-0.29187,0,0,0,0,0,0,0,-1,1532,519,4.67762,0.291845
315,505,8.44055,-6.54352,0,0,0,0,0,0,0,-1,1539,519,8.44059,6.54349
322,505,4.78955,-0.594116,0,0,0,0,0,0,0,-1,1546,519,4.78957,0.594096
329,505,5.16321,0.434631,0,0,0,0,0,0,0,-1,1553,519,5.16316,-0.434614
336,505,4.94495,-0.920471,0,0,0,0,0,0,0,-1,1560,519,4.945,0.920495
343,505,5.01855,-1.4823,0,0,0,0,0,0,0,-1,1567,519,5.01851,1.48227
350,505,5.33154,-1.77838,0,0,0,0,0,0,0,-1,1574,519,5.33152,1.77838
357,505,5.56567,-1.9425,0,0,0,0,0,0,0,-1,1581,519,5.56562,1.94248
364,505,5.85205,-2.6579,0,0,0,0,0,0,0,-1,1588,519,5.85211,2.65788
371,505,5.88477,-7.00922,0,0,0,0,0,0,0,-1,1595,519,5.88473,7.00924
378,505,5.44104,-7.10162,0,0,0,0,0,0,0,-1,1602,519,5.44099,7.10162
385,505,6.64661,-8.65015,0,0,0,0,0,0,0,-1,1609,519,6.64662,8.65014
392,505,6.34558,-8.3429,0,0,0,0,0,0,0,-1,1616,519,6.34554,8.34288
399,505,7.45898,-9.70386,0,0,0,0,0,0,0,-1,1623,519,7.45899,9.70388
406,505,7.08679,-9.4928,0,0,0,0,0,0,0,-1,1630,519,7.08678,9.49278
413,505,8.4032,-14.0308,0,0,0,0,0,0,0,-1,1637,519,8.4032,14.0308
420,505,24.9926,-49.3197,0,0,0,0,0,0,0,-1,1644,519,24.9925,49.3197
427,505,71.3944,-162.527,0,0,0,0,0,0,0,-1,1651,519,71.3944,162.527
434,505,70.7217,-158.126,0.0653851,0.0134549,-0.0553771,0.100582,-0.0217422,-0.566177,0.0753551,0.0459821,1658,519,70.7217,158.126
441,505,69.9821,-153.948,0.0605009,0.0125038,-0.0540673,0.0956564,-0.0226517,-0.576528,0.0725106,0.0221839,1665,519,69.9821,153.948
448,505,69.1639,-150.104,0.0567241,0.0120231,-0.0517209,0.0907172,-0.02197,-0.581448,0.0689778,0.0261913,1672,519,69.164,150.104
455,505,68.4442,-146.182,0.053581,0.0115123,-0.0487413,0.085633,-0.0205397,-0.581695,0.0650257,0.0300771,1679,519,68.4442,146.182
462,505,67.599,-142.191,0.0514887,0.0115821,-0.0450969,0.0808493,-0.0177785,-0.577118,0.0606999,0.0230013,1686,519,67.599,142.191
469,505,66.679,-137.949,0.050283,0.0118653,-0.041137,0.0764749,-0.0143267,-0.566969,0.056369,0.0262447,1693,519,66.679,137.949
476,505,65.8188,-133.782,0.0496942,0.0125307,-0.0368801,0.0724092,-0.0101843,-0.55204,0.0520011,0.0305627,1700,519,65.8188,133.782
483,505,64.9172,-129.557,0.0494231,0.0132425,-0.032399,0.0684401,-0.00577454,-0.530779,0.0476683,0.0276505,1707,519,64.9172,129.557
490,505,63.887,-125.299,0.0497968,0.0143189,-0.0282411,0.065408,-0.00129228,-0.504977,0.0440424,0.0228624,1714,519,63.887,125.299
497,505,62.7563,-120.878,0.0504038,0.0154688,-0.0243629,0.0629141,0.00295856,-0.474386,0.0409921,0.0197664,1721,519,62.7563,120.878
504,505,61.5743,-116.478,0.0511453,0.0169065,-0.0207801,0.0609496,0.00710215,-0.440844,0.0384848,0.0195607,1728,519,61.5743,116.478
511,505,60.3474,-112.041,0.0519053,0.0185353,-0.0177866,0.0596079,0.0108327,-0.408672,0.036665,0.0298523,1735,519,60.3474,112.041
518,505,59.087,-107.435,0,0,0,0,0,0,0,-1,1742,519,59.087,107.435
525,505,22.7377,-30.1271,0,0,0,0,0,0,0,-1,1749,519,22.7376,30.1271
532,505,20.189,-24.8809,0,0,0,0,0,0,0,-1,1756,519,20.189,24.8808
539,505,13.9879,-13.9018,0,0,0,0,0,0,0,-1,1763,519,13.988,13.9018
546,505,7.94946,-6.64539,0,0,0,0,0,0,0,-1,1770,519,7.94947,6.64539
553,505,2.82837,0.162659,0,0,0,0,0,0,0,-1,1777,519,2.82841,-0.162672
560,505,3.66223,-0.479797,0,0,0,0,0,0,0,-1,1784,519,3.66219,0.47982
567,505,4.65271,-0.950256,0,0,0,0,0,0,0,-1,1791,519,4.65274,0.95028
574,505,5.54443,-1.19977,0,0,0,0,0,0,0,-1,1798,519,5.54443,1.19974
581,505,0,0,0,0,0,0,0,0,0,-1,1805,519,0,0
588,505,0,0,0,0,0,0,0,0,0,-1,1812,519,0,0
595,505,0,0,0,0,0,0,0,0,0,-1,1819,519,0,0
602,505,0,0,0,0,0,0,0,0,0,-1,1826,519,0,0
609,505,0,0,0,0,0,0,0,0,0,-1,1833,519,0,0
616,505,0,0,0,0,0,0,0,0,0,-1,1840,519,0,0
623,505,0,0,0,0,0,0,0,0,0,-1,1847,519,0,0
630,505,0,0,0,0,0,0,0,0,0,-1,1854,519,0,0
637,505,0,0,0,0,0,0,0,0,0,-1,1861,519,0,0
644,505,0,0,0,0,0,0,0,0,0,-1,1868,519,0,0
651,505,0,0,0,0,0,0,0,0,0,-1,1875,519,0,0
658,505,0,0,0,0,0,0,0,0,0,-1,1882,519,0,0
665,505,0,0,0,0,0,0,0,0,0,-1,1889,519,0,0
672,505,0,0,0,0,0,0,0,0,0,-1,1896,519,0,0
679,505,0,0,0,0,0,0,0,0,0,-1,1903,519,0,0
686,505,0,0,0,0,0,0,0,0,0,-1,1910,519,0,0
693,505,0,0,0,0,0,0,0,0,0,-1,1917,519,0,0
700,505,0,0,0,0,0,0,0,0,0,-1,1924,519,0,0
707,505,0,0,0,0,0,0,0,0,0,-1,1931,519,0,0
714,505,0,0,0,0,0,0,0,0,0,-1,1938,519,0,0
721,505,0,0,0,0,0,0,0,0,0,-1,1945,519,0,0
728,505,0,0,0,0,0,0,0,0,0,-1,1952,519,0,0
735,505,0,0,0,0,0,0,0,0,0,-1,1959,519,0,0
742,505,0,0,0,0,0,0,0,0,0,-1,1966,519,0,0
749,505,0,0,0,0,0,0,0,0,0,-1,1973,519,0,0
756,505,0,0,0,0,0,0,0,0,0,-1,1980,519,0,0
763,505,0,0,0,0,0,0,0,0,0,-1,1987,519,0,0
770,505,0,0,0,0,0,0,0,0,0,-1,1994,519,0,0
777,505,0,0,0,0,0,0,0,0,0,-1,2001,519,0,0
784,505,0,0,0,0,0,0,0,0,0,-1,2008,519,0,0
791,505,0,0,0,0,0,0,0,0,0,-1,2015,519,0,0
798,505,0,0,0,0,0,0,0,0,0,-1,2022,519,0,0
805,505,0,0,0,0,0,0,0,0,0,-1,2029,519,0,0
812,505,0,0,0,0,0,0,0,0,0,-1,2036,519,0,0
-700,498,0,0,0,0,0,0,0,0,0,-1,524,526,0,0
-693,498,0,0,0,0,0,0,0,0,0,-1,531,526,0,0
-686,498,0,0,0,0,0,0,0,0,0,-1,538,526,0,0
-679,498,0,0,0,0,0,0,0,0,0,-1,545,526,0,0
-672,498,0,0,0,0,0,0,0,0,0,-1,552,526,0,0
-665,498,0,0,0,0,0,0,0,0,0,-1,559,526,0,0
-658,498,0,0,0,0,0,0,0,0,0,-1,566,526,0,0
-651,498,0,0,0,0,0,0,0,0,0,-1,573,526,0,0
-644,498,0,0,0,0,0,0,0,0,0,-1,580,526,0,0
-637,498,0,0,0,0,0,0,0,0,0,-1,587,526,0,0
-630,498,0,0,0,0,0,0,0,0,0,-1,594,526,0,0
-623,498,0,0,0,0,0,0,0,0,0,-1,601,526,0,0
-616,498,0,0,0,0,0,0,0,0,0,-1,608,526,0,0
-609,498,0,0,0,0,0,0,0,0,0,-1,615,526,0,0
-602,498,0,0,0,0,0,0,0,0,0,-1,622,526,0,0
-595,498,0,0,0,0,0,0,0,0,0,-1,629,526,0,0
-588,498,0,0,0,0,0,0,0,0,0,-1,636,526,0,0
-581,498,0,0,0,0,0,0,0,0,0,-1,643,526,0,0
-574,498,0,0,0,0,0,0,0,0,0,-1,650,526,0,0
-567,498,0,0,0,0,0,0,0,0,0,-1,657,526,0,0
-560,498,0,0,0,0,0,0,0,0,0,-1,664,526,0,0
-553,498,0,0,0,0,0,0,0,0,0,-1,671,526,0,0
-546,498,0,0,0,0,0,0,0,0,0,-1,678,526,0,0
-539,498,0,0,0,0,0,0,0,0,0,-1,685,526,0,0
-532,498,0,0,0,0,0,0,0,0,0,-1,692,526,0,0
-525,498,0,0,0,0,0,0,0,0,0,-1,699,526,0,0
-518,498,0,0,0,0,0,0,0,0,0,-1,706,526,0,0
-511,498,0,0,0,0,0,0,0,0,0,-1,713,526,0,0
-504,498,0,0,0,0,0,0,0,0,0,-1,720,526,0,0
-497,498,0,0,0,0,0,0,0,0,0,-1,727,526,0,0
-490,498,0,0,0,0,0,0,0,0,0,-1,734,526,0,0
-483,498,0,0,0,0,0,0,0,0,0,-1,741,526,0,0
-476,498,0,0,0,0,0,0,0,0,0,-1,748,526,0,0
-469,498,0,0,0,0,0,0,0,0,0,-1,755,526,0,0
-462,498,6.81024,1.15515,0,0,0,0,0,0,0,-1,762,526,6.81026,-1.15514
-455,498,3.25757,-3.0592,0,0,0,0,0,0,0,-1,769,526,3.25754,3.05921
-448,498,3.05939,-3.74298,0,0,0,0,0,0,0,-1,776,526,3.05939,3.74296
-441,498,2.77191,-6.08209,0,0,0,0,0,0,0,-1,783,526,2.77189,6.08207
-434,498,2.10681,-6.95929,0,0,0,0,0,0,0,-1,790,526,2.10682,6.9593
-427,498,-0.368042,-10.7726,0,0,0,0,0,0,0,-1,797,526,-0.36807,10.7726
-420,498,-1.05035,-10.5142,0,0,0,0,0,0,0,-1,804,526,-1.05034,10.5142
-413,498,-4.52112,-18.8354,0,0,0,0,0,0,0,-1,811,526,-4.52111,18.8354
-406,498,-11.5986,-39.3751,0,0,0,0,0,0,0,-1,818,526,-11.5986,39.3751
-399,498,-23.0398,-78.6486,0,0,0,0,0,0,0,-1,825,526,-23.0398,78.6486
-392,498,-51.4727,-104.127,0,0,0,0,0,0,0,-1,832,526,-51.4727,104.127
-385,498,-52.7791,-108.879,0.0360552,0.00753631,0.0235494,0.0493258,-0.00573434,0.513167,0.0349525,0.0400726,839,526,-52.7791,108.879
-378,498,-54.1098,-113.556,0.0377457,0.00556939,0.0271565,0.0532218,-0.00990672,0.517983,0.0392029,0.0181018,846,526,-54.1098,113.556
-371,498,-55.3727,-118.059,0.0396392,0.00381858,0.0305976,0.0571829,-0.0137252,0.520609,0.0434261,0.024808,853,526,-55.3727,118.059
-364,498,-56.4995,-122.508,0.0421345,0.00229444,0.0342482,0.0618346,-0.0174056,0.521994,0.0480867,0.0229807,860,526,-56.4995,122.508
-357,498,-57.6173,-126.892,0.0449254,0.00104832,0.0380447,0.0669038,-0.0209301,0.523861,0.0529759,0.0166536,867,526,-57.6173,126.892
-350,498,-58.7458,-131.179,0.0475673,0.000141617,0.0419793,0.0720681,-0.0243592,0.528304,0.0578992,0.0191369,874,526,-58.7458,131.179
-343,498,-59.9038,-135.419,0.0501353,-0.00103187,0.0460083,0.0771947,-0.0280912,0.531654,0.0629519,0.0251625,881,526,-59.9038,135.419
-336,498,-60.9028,-139.658,0.0525551,-0.00240457,0.0503573,0.0824426,-0.032292,0.535631,0.0683188,0.0310343,888,526,-60.9028,139.658
-329,498,-61.584,-143.655,0.0551041,-0.00405109,0.0550635,0.0880311,-0.0369781,0.538934,0.0741532,0.0461141,895,526,-61.584,143.655
-322,498,-62.2037,-147.642,0,0,0,0,0,0,0,-1,902,526,-62.2037,147.642
-315,498,-62.6451,-151.297,0,0,0,0,0,0,0,-1,909,526,-62.6451,151.297
-308,498,-63.4286,-155.023,0,0,0,0,0,0,0,-1,916,526,-63.4286,155.023
-301,498,-41.2611,-152.612,0,0,0,0,0,0,0,-1,923,526,-41.2611,152.612
-294,498,-17.9421,-77.6995,0,0,0,0,0,0,0,-1,930,526,-17.9421,77.6995
-287,498,-0.91394,-13.4327,0,0,0,0,0,0,0,-1,937,526,-0.913935,13.4327
-280,498,-0.341614,-8.66608,0,0,0,0,0,0,0,-1,944,526,-0.341589,8.66606
-273,498,-0.988892,-8.62921,0,0,0,0,0,0,0,-1,951,526,-0.988906,8.62922
-266,498,0.362488,-6.33545,0,0,0,0,0,0,0,-1,958,526,0.362478,6.33547
-259,498,10.9454,-17.3615,0,0,0,0,0,0,0,-1,965,526,10.9454,17.3614
-252,498,8.56586,-14.6886,0,0,0,0,0,0,0,-1,972,526,8.56584,14.6886
-245,498,5.97382,-11.928,0,0,0,0,0,0,0,-1,979,526,5.97381,11.928
-238,498,2.24841,-13.8145,0,0,0,0,0,0,0,-1,986,526,2.24838,13.8145
-231,498,0.665894,-10.4898,0,0,0,0,0,0,0,-1,993,526,0.665863,10.4898
-224,498,-2.11243,-4.76312,0,0,0,0,0,0,0,-1,1000,526,-2.11245,4.76314
-217,498,-3.82239,-1.42841,0,0,0,0,0,0,0,-1,1007,526,-3.82241,1.42843
-210,498,-1.80591,-0.358215,0,0,0,0,0,0,0,-1,1014,526,-1.8059,0.3582
-203,498,-3.17316,1.06641,0,0,0,0,0,0,0,-1,1021,526,-3.17313,-1.0664
-196,498,-0.103271,5.40527,0,0,0,0,0,0,0,-1,1028,526,-0.103285,-5.40528
-189,498,3.00256,6.47137,0,0,0,0,0,0,0,-1,1035,526,3.00256,-6.47139
-182,498,0,0,0,0,0,0,0,0,0,-1,1042,526,0,0
-175,498,0,0,0,0,0,0,0,0,0,-1,1049,526,0,0
-168,498,0,0,0,0,0,0,0,0,0,-1,1056,526,0,0
-161,498,0,0,0,0,0,0,0,0,0,-1,1063,526,0,0
-154,498,0,0,0,0,0,0,0,0,0,-1,1070,526,0,0
-147,498,0,0,0,0,0,0,0,0,0,-1,1077,526,0,0
-140,498,0,0,0,0,0,0,0,0,0,-1,1084,526,0,0
-133,498,0,0,0,0,0,0,0,0,0,-1,1091,526,0,0
-126,498,0,0,0,0,0,0,0,0,0,-1,1098,526,0,0
-119,498,0,0,0,0,0,0,0,0,0,-1,1105,526,0,0
-112,498,0,0,0,0,0,0,0,0,0,-1,1112,526,0,0
-105,498,0,0,0,0,0,0,0,0,0,-1,1119,526,0,0
-98,498,0,0,0,0,0,0,0,0,0,-1,1126,526,0,0
-91,498,0,0,0,0,0,0,0,0,0,-1,1133,526,0,0
-84,498,0,0,0,0,0,0,0,0,0,-1,1140,526,0,0
-77,498,0,0,0,0,0,0,0,0,0,-1,1147,526,0,0
-70,498,0,0,0,0,0,0,0,0,0,-1,1154,526,0,0
-63,498,0,0,0,0,0,0,0,0,0,-1,1161,526,0,0
-56,498,0,0,0,0,0,0,0,0,0,-1,1168,526,0,0
-49,498,0,0,0,0,0,0,0,0,0,-1,1175,526,0,0
-42,498,0,0,0,0,0,0,0,0,0,-1,1182,526,0,0
-35,498,0,0,0,0,0,0,0,0,0,-1,1189,526,0,0
-28,498,0,0,0,0,0,0,0,0,0,-1,1196,526,0,0
-21,498,0,0,0,0,0,0,0,0,0,-1,1203,526,0,0
-14,498,0,0,0,0,0,0,0,0,0,-1,1210,526,0,0
-7,498,0,0,0,0,0,0,0,0,0,-1,1217,526,0,0
0,498,0,0,0,0,0,0,0,0,0,-1,1224,526,0,0
7,498,0,0,0,0,0,0,0,0,0,-1,1231,526,0,0
14,498,0,0,0,0,0,0,0,0,0,-1,1238,526,0,0
21,498,0,0,0,0,0,0,0,0,0,-1,1245,526,0,0
28,498,0,0,0,0,0,0,0,0,0,-1,1252,526,0,0
35,498,0,0,0,0,0,0,0,0,0,-1,1259,526,0,0
42,498,0,0,0,0,0,0,0,0,0,-1,1266,526,0,0
49,498,0,0,0,0,0,0,0,0,0,-1,1273,526,0,0
56,498,0,0,0,0,0,0,0,0,0,-1,1280,526,0,0
63,498,0,0,0,0,0,0,0,0,0,-1,1287,526,0,0
70,498,0,0,0,0,0,0,0,0,0,-1,1294,526,0,0
77,498,0,0,0,0,0,0,0,0,0,-1,1301,526,0,0
84,498,0,0,0,0,0,0,0,0,0,-1,1308,526,0,0
91,498,0,0,0,0,0,0,0,0,0,-1,1315,526,0,0
98,498,0,0,0,0,0,0,0,0,0,-1,1322,526,0,0
105,498,0,0,0,0,0,0,0,0,0,-1,1329,526,0,0
112,498,0,0,0,0,0,0,0,0,0,-1,1336,526,0,0
119,498,0,0,0,0,0,0,0,0,0,-1,1343,526,0,0
126,498,0,0,0,0,0,0,0,0,0,-1,1350,526,0,0
133,498,0,0,0,0,0,0,0,0,0,-1,1357,526,0,0
140,498,0,0,0,0,0,0,0,0,0,-1,1364,526,0,0
147,498,0,0,0,0,0,0,0,0,0,-1,1371,526,0,0
154,498,0,0,0,0,0,0,0,0,0,-1,1378,526,0,0
161,498,0,0,0,0,0,0,0,0,0,-1,1385,526,0,0
168,498,0,0,0,0,0,0,0,0,0,-1,1392,526,0,0
175,498,0,0,0,0,0,0,0,0,0,-1,1399,526,0,0
182,498,0,0,0,0,0,0,0,0,0,-1,1406,526,0,0
189,498,0,0,0,0,0,0,0,0,0,-1,1413,526,0,0
196,498,0,0,0,0,0,0,0,0,0,-1,1420,526,0,0
203,498,0,0,0,0,0,0,0,0,0,-1,1427,526,0,0
210,498,0,0,0,0,0,0,0,0,0,-1,1434,526,0,0
217,498,0,0,0,0,0,0,0,0,0,-1,1441,526,0,0
224,498,0,0,0,0,0,0,0,0,0,-1,1448,526,0,0
231,498,0,0,0,0,0,0,0,0,0,-1,1455,526,0,0
238,498,0,0,0,0,0,0,0,0,0,-1,1462,526,0,0
245,498,0,0,0,0,0,0,0,0,0,-1,1469,526,0,0
252,498,0,0,0,0,0,0,0,0,0,-1,1476,526,0,0
259,498,0,0,0,0,0,0,0,0,0,-1,1483,526,0,0
266,498,0,0,0,0,0,0,0,0,0,-1,1490,526,0,0
273,498,0,0,0,0,0,0,0,0,0,-1,1497,526,0,0
280,498,0,0,0,0,0,0,0,0,0,-1,1504,526,0,0
287,498,0,0,0,0,0,0,0,0,0,-1,1511,526,0,0
294,498,0,0,0,0,0,0,0,0,0,-1,1518,526,0,0
301,498,0,0,0,0,0,0,0,0,0,-1,1525,526,0,0
308,498,4.77942,-0.293884,0,0,0,0,0,0,0,-1,1532,526,4.77939,0.293899
315,498,4.56091,-0.564148,0,0,0,0,0,0,0,-1,1539,526,4.56097,0.564142
322,498,4.52344,-0.447266,0,0,0,0,0,0,0,-1,1546,526,4.52341,0.447295
329,498,4.63232,-0.156982,0,0,0,0,0,0,0,-1,1553,526,4.63238,0.156991
336,498,5.22644,0.0925903,0,0,0,0,0,0,0,-1,1560,526,5.22648,-0.0926188
343,498,6.22607,-1.67615,0,0,0,0,0,0,0,-1,1567,526,6.22605,1.67617
350,498,6.19373,-1.59906,0,0,0,0,0,0,0,-1,1574,526,6.19367,1.59906
357,498,6.21472,-1.58929,0,0,0,0,0,0,0,-1,1581,526,6.21476,1.58927
364,498,5.73547,-1.2019,0,0,0,0,0,0,0,-1,1588,526,5.73547,1.20192
371,498,3.27087,-4.55334,0,0,0,0,0,0,0,-1,1595,526,3.27089,4.55332
378,498,8.42944,-4.70624,0,0,0,0,0,0,0,-1,1602,526,8.42942,4.70624
385,498,4.7793,-5.15314,0,0,0,0,0,0,0,-1,1609,526,4.77935,5.15311
392,498,9.12439,-8.57953,0,0,0,0,0,0,0,-1,1616,526,9.12443,8.57955
399,498,7.98938,-9.46021,0,0,0,0,0,0,0,-1,1623,526,7.98936,9.4602
406,498,7.58081,-9.26819,0,0,0,0,0,0,0,-1,1630,526,7.58085,9.26817
413,498,7.17236,-9.07611,0,0,0,0,0,0,0,-1,1637,526,7.17234,9.07614
420,498,11.4314,-16.1147,0,0,0,0,0,0,0,-1,1644,526,11.4313,16.1147
427,498,24.2933,-44.8103,0,0,0,0,0,0,0,-1,1651,526,24.2933,44.8103
434,498,74.9449,-157.049,0,0,0,0,0,0,0,-1,1658,526,74.9449,157.049
441,498,74.1244,-152.629,0,0,0,0,0,0,0,-1,1665,526,74.1244,152.629
448,498,73.6101,-148.57,0.0564303,0.0109684,-0.0572364,0.0952843,-0.0278856,-0.596378,0.0745766,0.032724,1672,526,73.6102,148.57
455,498,72.9327,-144.614,0.0529162,0.00987899,-0.0546764,0.090156,-0.0273608,-0.597926,0.0710038,0.0264101,1679,526,72.9327,144.614
462,498,72.1707,-140.604,0.0506494,0.00968999,-0.0512023,0.0853158,-0.0249764,-0.595155,0.0667782,0.026594,1686,526,72.1707,140.604
469,498,71.3568,-136.457,0.049331,0.0097549,-0.047402,0.0809095,-0.0218236,-0.587669,0.0624974,0.0250798,1693,526,71.3568,136.457
476,498,70.295,-132.432,0.0487478,0.0101922,-0.043258,0.0768292,-0.0178891,-0.575784,0.0581078,0.0247565,1700,526,70.2951,132.432
483,498,69.1289,-128.546,0.0485411,0.0106516,-0.0388406,0.0728108,-0.0136182,-0.558496,0.0536591,0.0212721,1707,526,69.1289,128.546
490,498,68.1022,-124.271,0.0490493,0.0114315,-0.0349343,0.0699164,-0.00943554,-0.538448,0.0500534,0.032352,1714,526,68.1022,124.271
497,498,67.2075,-119.347,0.0499751,0.0124574,-0.031143,0.0675726,-0.00514001,-0.514327,0.0468558,0.0279427,1721,526,67.2076,119.347
504,498,66.1655,-114.844,0.0509897,0.0135831,-0.0277042,0.065713,-0.00114014,-0.488487,0.0441936,0.0221715,1728,526,66.1655,114.844
511,498,64.9487,-110.406,0.0520466,0.0149146,-0.0250094,0.0646281,0.00233313,-0.466101,0.0423291,0.0237806,1735,526,64.9488,110.406
518,498,63.7874,-105.922,0,0,0,0,0,0,0,-1,1742,526,63.7873,105.921
525,498,62.575,-101.441,0,0,0,0,0,0,0,-1,1749,526,62.5749,101.441
532,498,26.9988,-39.1529,0,0,0,0,0,0,0,-1,1756,526,26.9987,39.1529
539,498,21.764,-25.5663,0,0,0,0,0,0,0,-1,1763,526,21.764,25.5663
546,498,10.2014,-8.47589,0,0,0,0,0,0,0,-1,1770,526,10.2014,8.47589
553,498,5.93958,-1.71448,0,0,0,0,0,0,0,-1,1777,526,5.93956,1.71447
560,498,3.69385,-0.615112,0,0,0,0,0,0,0,-1,1784,526,3.69381,0.615118
567,498,5.12695,-0.581604,0,0,0,0,0,0,0,-1,1791,526,5.12699,0.58159
574,498,3.88,0.0286255,0,0,0,0,0,0,0,-1,1798,526,3.87999,-0.0286535
581,498,10.8722,2.58551,0,0,0,0,0,0,0,-1,1805,526,10.8723,-2.58551
588,498,0,0,0,0,0,0,0,0,0,-1,1812,526,0,0
595,498,0,0,0,0,0,0,0,0,0,-1,1819,526,0,0
602,498,0,0,0,0,0,0,0,0,0,-1,1826,526,0,0
609,498,0,0,0,0,0,0,0,0,0,-1,1833,526,0,0
616,498,0,0,0,0,0,0,0,0,0,-1,1840,526,0,0
623,498,0,0,0,0,0,0,0,0,0,-1,1847,526,0,0
630,498,0,0,0,0,0,0,0,0,0,-1,1854,526,0,0
637,498,0,0,0,0,0,0,0,0,0,-1,1861,526,0,0
644,498,0,0,0,0,0,0,0,0,0,-1,1868,526,0,0
651,498,0,0,0,0,0,0,0,0,0,-1,1875,526,0,0
658,498,0,0,0,0,0,0,0,0,0,-1,1882,526,0,0
665,498,0,0,0,0,0,0,0,0,0,-1,1889,526,0,0
672,498,0,0,0,0,0,0,0,0,0,-1,1896,526,0,0
679,498,0,0,0,0,0,0,0,0,0,-1,1903,526,0,0
686,498,0,0,0,0,0,0,0,0,0,-1,1910,526,0,0
693,498,0,0,0,0,0,0,0,0,0,-1,1917,526,0,0
700,498,0,0,0,0,0,0,0,0,0,-1,1924,526,0,0
707,498,0,0,0,0,0,0,0,0,0,-1,1931,526,0,0
714,498,0,0,0,0,0,0,0,0,0,-1,1938,526,0,0
721,498,0,0,0,0,0,0,0,0,0,-1,1945,526,0,0
728,498,0,0,0,0,0,0,0,0,0,-1,1952,526,0,0
735,498,0,0,0,0,0,0,0,0,0,-1,1959,526,0,0
742,498,0,0,0,0,0,0,0,0,0,-1,1966,526,0,0
749,498,0,0,0,0,0,0,0,0,0,-1,1973,526,0,0
756,498,0,0,0,0,0,0,0,0,0,-1,1980,526,0,0
763,498,0,0,0,0,0,0,0,0,0,-1,1987,526,0,0
770,498,0,0,0,0,0,0,0,0,0,-1,1994,526,0,0
777,498,0,0,0,0,0,0,0,0,0,-1,2001,526,0,0
784,498,0,0,0,0,0,0,0,0,0,-1,2008,526,0,0
791,498,0,0,0,0,0,0,0,0,0,-1,2015,526,0,0
798,498,0,0,0,0,0,0,0,0,0,-1,2022,526,0,0
805,498,0,0,0,0,0,0,0,0,0,-1,2029,526,0,0
812,498,0,0,0,0,0,0,0,0,0,-1,2036,526,0,0
-700,491,0,0,0,0,0,0,0,0,0,-1,524,533,0,0
-693,491,0,0,0,0,0,0,0,0,0,-1,531,533,0,0
-686,491,0,0,0,0,0,0,0,0,0,-1,538,533,0,0
-679,491,0,0,0,0,0,0,0,0,0,-1,545,533,0,0
-672,491,0,0,0,0,0,0,0,0,0,-1,552,533,0,0
-665,491,0,0,0,0,0,0,0,0,0,-1,559,533,0,0
-658,491,0,0,0,0,0,0,0,0,0,-1,566,533,0,0
-651,491,0,0,0,0,0,0,0,0,0,-1,573,533,0,0
-644,491,0,0,0,0,0,0,0,0,0,-1,580,533,0,0
-637,491,0,0,0,0,0,0,0,0,0,-1,587,533,0,0
-630,491,0,0,0,0,0,0,0,0,0,-1,594,533,0,0
-623,491,0,0,0,0,0,0,0,0,0,-1,601,533,0,0
-616,491,0,0,0,0,0,0,0,0,0,-1,608,533,0,0
-609,491,0,0,0,0,0,0,0,0,0,-1,615,533,0,0
-602,491,0,0,0,0,0,0,0,0,0,-1,622,533,0,0
-595,491,0,0,0,0,0,0,0,0,0,-1,629,533,0,0
-588,491,0,0,0,0,0,0,0,0,0,-1,636,533,0,0
-581,491,0,0,0,0,0,0,0,0,0,-1,643,533,0,0
-574,491,0,0,0,0,0,0,0,0,0,-1,650,533,0,0
-567,491,0,0,0,0,0,0,0,0,0,-1,657,533,0,0
-560,491,0,0,0,0,0,0,0,0,0,-1,664,533,0,0
-553,491,0,0,0,0,0,0,0,0,0,-1,671,533,0,0
-546,491,0,0,0,0,0,0,0,0,0,-1,678,533,0,0
-539,491,0,0,0,0,0,0,0,0,0,-1,685,533,0,0
-532,491,0,0,0,0,0,0,0,0,0,-1,692,533,0,0
-525,491,0,0,0,0,0,0,0,0,0,-1,699,533,0,0
-518,491,0,0,0,0,0,0,0,0,0,-1,706,533,0,0
-511,491,0,0,0,0,0,0,0,0,0,-1,713,533,0,0
-504,491,0,0,0,0,0,0,0,0,0,-1,720,533,0,0
-497,491,0,0,0,0,0,0,0,0,0,-1,727,533,0,0
-490,491,0,0,0,0,0,0,0,0,0,-1,734,533,0,0
-483,491,0,0,0,0,0,0,0,0,0,-1,741,533,0,0
-476,491,0,0,0,0,0,0,0,0,0,-1,748,533,0,0
-469,491,-5.85913,4.55011,0,0,0,0,0,0,0,-1,755,533,-5.8591,-4.55009
-462,491,-9.93713,4.90381,0,0,0,0,0,0,0,-1,762,533,-9.93716,-4.9038
-455,491,1.9494,-0.27887,0,0,0,0,0,0,0,-1,769,533,1.94941,0.27885
-448,491,2.68909,-1.8999,0,0,0,0,0,0,0,-1,776,533,2.6891,1.89988
-441,491,3.46069,-3.51855,0,0,0,0,0,0,0,-1,783,533,3.46071,3.51854
-434,491,2.67145,-7.44061,0,0,0,0,0,0,0,-1,790,533,2.67146,7.44061
-427,491,2.27136,-8.34546,0,0,0,0,0,0,0,-1,797,533,2.27136,8.34546
-420,491,-6.41321,-22.5922,0,0,0,0,0,0,0,-1,804,533,-6.41323,22.5922
-413,491,-12.8848,-37.5042,0,0,0,0,0,0,0,-1,811,533,-12.8847,37.5042
-406,491,-26.6932,-80.2836,0,0,0,0,0,0,0,-1,818,533,-26.6932,80.2835
-399,491,-54.7521,-98.9492,0,0,0,0,0,0,0,-1,825,533,-54.7521,98.9492
-392,491,-56.072,-103.284,0.0371677,0.00712018,0.0254025,0.0516567,-0.00736878,0.518351,0.0371385,0.0444424,832,533,-56.072,103.284
-385,491,-57.373,-107.505,0.0386949,0.00515395,0.0288014,0.0552526,-0.0114038,0.521755,0.0411663,0.0177878,839,533,-57.373,107.505
-378,491,-58.6886,-111.904,0.0403195,0.00351971,0.0322167,0.0590204,-0.0151812,0.525938,0.0452641,0.0207429,846,533,-58.6886,111.905
-371,491,-59.9249,-116.358,0.0421861,0.00195328,0.0354875,0.0628622,-0.0187228,0.527551,0.0493476,0.0241175,853,533,-59.9249,116.358
-364,491,-61.0967,-120.779,0.0447002,0.000550093,0.0390085,0.0674467,-0.0221964,0.527912,0.0539086,0.0228786,860,533,-61.0967,120.779
-357,491,-62.1097,-125.103,0.0475151,-0.00059784,0.0427587,0.07252,-0.0256028,0.529162,0.0587703,0.0193796,867,533,-62.1097,125.103
-350,491,-63.0849,-129.385,0.0501907,-0.00147068,0.0465638,0.0776085,-0.0288885,0.532161,0.0635946,0.0215032,874,533,-63.0849,129.385
-343,491,-64.0474,-133.664,0.0528197,-0.00268849,0.0505148,0.0827027,-0.0325715,0.534198,0.0686194,0.0378322,881,533,-64.0473,133.664
-336,491,-65.0853,-137.977,0.0552172,-0.00435168,0.0549157,0.0879056,-0.03704,0.536916,0.0741032,0.0400066,888,533,-65.0853,137.977
-329,491,-65.8915,-141.853,0.0577531,-0.0060881,0.0595192,0.0933711,-0.0417061,0.539263,0.0798657,0.0419782,895,533,-65.8916,141.853
-322,491,-66.781,-145.635,0,0,0,0,0,0,0,-1,902,533,-66.781,145.635
-315,491,-62.1166,-149.636,0,0,0,0,0,0,0,-1,909,533,-62.1166,149.636
-308,491,-33.4544,-112.486,0,0,0,0,0,0,0,-1,916,533,-33.4544,112.486
-301,491,-6.54926,-39.0012,0,0,0,0,0,0,0,-1,923,533,-6.54927,39.0012
-294,491,-0.777283,-8.60913,0,0,0,0,0,0,0,-1,930,533,-0.777288,8.6091
-287,491,-0.26123,-8.69055,0,0,0,0,0,0,0,-1,937,533,-0.261204,8.69053
-280,491,0.2948,-5.99219,0,0,0,0,0,0,0,-1,944,533,0.294811,5.99221
-273,491,0.369995,-5.33691,0,0,0,0,0,0,0,-1,951,533,0.369985,5.33693
-266,491,1.1167,-5.0321,0,0,0,0,0,0,0,-1,958,533,1.11668,5.0321
-259,491,12.0862,-16.9615,0,0,0,0,0,0,0,-1,965,533,12.0862,16.9615
-252,491,9.72443,-13.8417,0,0,0,0,0,0,0,-1,972,533,9.72444,13.8418
-245,491,5.27258,-14.3619,0,0,0,0,0,0,0,-1,979,533,5.27255,14.3619
-238,491,3.65381,-11.1472,0,0,0,0,0,0,0,-1,986,533,3.6538,11.1472
-231,491,2.17719,-7.86835,0,0,0,0,0,0,0,-1,993,533,2.17719,7.86832
-224,491,0.554626,-4.61725,0,0,0,0,0,0,0,-1,1000,533,0.554608,4.61727
-217,491,-2.92743,-1.0766,0,0,0,0,0,0,0,-1,1007,533,-2.92743,1.07659
-210,491,-0.92395,0.374512,0,0,0,0,0,0,0,-1,1014,533,-0.923959,-0.374531
-203,491,0.417419,4.77161,0,0,0,0,0,0,0,-1,1021,533,0.417446,-4.77162
-196,491,0,0,0,0,0,0,0,0,0,-1,1028,533,0,0
-189,491,0,0,0,0,0,0,0,0,0,-1,1035,533,0,0
-182,491,0,0,0,0,0,0,0,0,0,-1,1042,533,0,0
-175,491,0,0,0,0,0,0,0,0,0,-1,1049,533,0,0
-168,491,0,0,0,0,0,0,0,0,0,-1,1056,533,0,0
-161,491,0,0,0,0,0,0,0,0,0,-1,1063,533,0,0
-154,491,0,0,0,0,0,0,0,0,0,-1,1070,533,0,0
-147,491,0,0,0,0,0,0,0,0,0,-1,1077,533,0,0
-140,491,0,0,0,0,0,0,0,0,0,-1,1084,533,0,0
-133,491,0,0,0,0,0,0,0,0,0,-1,1091,533,0,0
-126,491,0,0,0,0,0,0,0,0,0,-1,1098,533,0,0
-119,491,0,0,0,0,0,0,0,0,0,-1,1105,533,0,0
-112,491,0,0,0,0,0,0,0,0,0,-1,1112,533,0,0
-105,491,0,0,0,0,0,0,0,0,0,-1,1119,533,0,0
-98,491,0,0,0,0,0,0,0,0,0,-1,1126,533,0,0
-91,491,0,0,0,0,0,0,0,0,0,-1,1133,533,0,0
-84,491,0,0,0,0,0,0,0,0,0,-1,1140,533,0,0
-77,491,0,0,0,0,0,0,0,0,0,-1,1147,533,0,0
-70,491,0,0,0,0,0,0,0,0,0,-1,1154,533,0,0
-63,491,0,0,0,0,0,0,0,0,0,-1,1161,533,0,0
-56,491,0,0,0,0,0,0,0,0,0,-1,1168,533,0,0
-49,491,0,0,0,0,0,0,0,0,0,-1,1175,533,0,0
-42,491,0,0,0,0,0,0,0,0,0,-1,1182,533,0,0
-35,491,0,0,0,0,0,0,0,0,0,-1,1189,533,0,0
-28,491,0,0,0,0,0,0,0,0,0,-1,1196,533,0,0
-21,491,0,0,0,0,0,0,0,0,0,-1,1203,533,0,0
-14,491,0,0,0,0,0,0,0,0,0,-1,1210,533,0,0
-7,491,0,0,0,0,0,0,0,0,0,-1,1217,533,0,0
0,491,0,0,0,0,0,0,0,0,0,-1,1224,533,0,0
7,491,0,0,0,0,0,0,0,0,0,-1,1231,533,0,0
14,491,0,0,0,0,0,0,0,0,0,-1,1238,533,0,0
21,491,0,0,0,0,0,0,0,0,0,-1,1245,533,0,0
28,491,0,0,0,0,0,0,0,0,0,-1,1252,533,0,0
35,491,0,0,0,0,0,0,0,0,0,-1,1259,533,0,0
42,491,0,0,0,0,0,0,0,0,0,-1,1266,533,0,0
49,491,0,0,0,0,0,0,0,0,0,-1,1273,533,0,0
56,491,0,0,0,0,0,0,0,0,0,-1,1280,533,0,0
63,491,0,0,0,0,0,0,0,0,0,-1,1287,533,0,0
70,491,0,0,0,0,0,0,0,0,0,-1,1294,533,0,0
77,491,0,0,0,0,0,0,0,0,0,-1,1301,533,0,0
84,491,0,0,0,0,0,0,0,0,0,-1,1308,533,0,0
91,491,0,0,0,0,0,0,0,0,0,-1,1315,533,0,0
98,491,0,0,0,0,0,0,0,0,0,-1,1322,533,0,0
105,491,0,0,0,0,0,0,0,0,0,-1,1329,533,0,0
112,491,0,0,0,0,0,0,0,0,0,-1,1336,533,0,0
119,491,0,0,0,0,0,0,0,0,0,-1,1343,533,0,0
126,491,0,0,0,0,0,0,0,0,0,-1,1350,533,0,0
133,491,0,0,0,0,0,0,0,0,0,-1,1357,533,0,0
140,491,0,0,0,0,0,0,0,0,0,-1,1364,533,0,0
147,491,0,0,0,0,0,0,0,0,0,-1,1371,533,0,0
154,491,0,0,0,0,0,0,0,0,0,-1,1378,533,0,0
161,491,0,0,0,0,0,0,0,0,0,-1,1385,533,0,0
168,491,0,0,0,0,0,0,0,0,0,-1,1392,533,0,0
175,491,0,0,0,0,0,0,0,0,0,-1,1399,533,0,0
182,491,0,0,0,0,0,0,0,0,0,-1,1406,533,0,0
189,491,0,0,0,0,0,0,0,0,0,-1,1413,533,0,0
196,491,0,0,0,0,0,0,0,0,0,-1,1420,533,0,0
203,491,0,0,0,0,0,0,0,0,0,-1,1427,533,0,0
210,491,0,0,0,0,0,0,0,0,0,-1,1434,533,0,0
217,491,0,0,0,0,0,0,0,0,0,-1,1441,533,0,0
224,491,0,0,0,0,0,0,0,0,0,-1,1448,533,0,0
231,491,0,0,0,0,0,0,0,0,0,-1,1455,533,0,0
238,491,0,0,0,0,0,0,0,0,0,-1,1462,533,0,0
245,491,0,0,0,0,0,0,0,0,0,-1,1469,533,0,0
252,491,0,0,0,0,0,0,0,0,0,-1,1476,533,0,0
259,491,0,0,0,0,0,0,0,0,0,-1,1483,533,0,0
266,491,0,0,0,0,0,0,0,0,0,-1,1490,533,0,0
273,491,0,0,0,0,0,0,0,0,0,-1,1497,533,0,0
280,491,0,0,0,0,0,0,0,0,0,-1,1504,533,0,0
287,491,0,0,0,0,0,0,0,0,0,-1,1511,533,0,0
294,491,0,0,0,0,0,0,0,0,0,-1,1518,533,0,0
301,491,0,0,0,0,0,0,0,0,0,-1,1525,533,0,0
308,491,0,0,0,0,0,0,0,0,0,-1,1532,533,0,0
315,491,0,0,0,0,0,0,0,0,0,-1,1539,533,0,0
322,491,4.26331,-0.734314,0,0,0,0,0,0,0,-1,1546,533,4.26326,0.734324
329,491,4.25354,-0.783752,0,0,0,0,0,0,0,-1,1553,533,4.25359,0.783734
336,491,4.81604,-0.722107,0,0,0,0,0,0,0,-1,1560,533,4.81605,0.722115
343,491,6.14478,-1.44281,0,0,0,0,0,0,0,-1,1567,533,6.14474,1.44281
350,491,6.36353,-1.30792,0,0,0,0,0,0,0,-1,1574,533,6.36352,1.3079
357,491,6.69482,-1.06018,0,0,0,0,0,0,0,-1,1581,533,6.69489,1.06018
364,491,8.01086,-1.69604,0,0,0,0,0,0,0,-1,1588,533,8.01087,1.69607
371,491,8.2135,-0.539307,0,0,0,0,0,0,0,-1,1595,533,8.21348,0.53929
378,491,13.3589,2.17267,0,0,0,0,0,0,0,-1,1602,533,13.3589,-2.17264
385,491,8.08228,-4.95471,0,0,0,0,0,0,0,-1,1609,533,8.08227,4.95474
392,491,2.88721,-4.30988,0,0,0,0,0,0,0,-1,1616,533,2.88716,4.30986
399,491,8.95862,-8.55518,0,0,0,0,0,0,0,-1,1623,533,8.95864,8.55516
406,491,8.16541,-9.00806,0,0,0,0,0,0,0,-1,1630,533,8.16535,9.00807
413,491,5.31848,-3.7124,0,0,0,0,0,0,0,-1,1637,533,5.31849,3.7124
420,491,4.86389,-3.95892,0,0,0,0,0,0,0,-1,1644,533,4.86387,3.95893
427,491,11.5096,-15.2742,0,0,0,0,0,0,0,-1,1651,533,11.5096,15.2742
434,491,24.1083,-39.8145,0,0,0,0,0,0,0,-1,1658,533,24.1083,39.8145
441,491,56.7123,-148.218,0,0,0,0,0,0,0,-1,1665,533,56.7123,148.218
448,491,77.9578,-147.248,0,0,0,0,0,0,0,-1,1672,533,77.9577,147.248
455,491,77.3159,-143.077,0,0,0,0,0,0,0,-1,1679,533,77.3159,143.077
462,491,76.7428,-138.907,0,0,0,0,0,0,0,-1,1686,533,76.7428,138.907
469,491,75.9481,-134.91,0.0471706,0.00755671,-0.0540772,0.0849541,-0.0302268,-0.60985,0.0689565,0.0238492,1693,533,75.9482,134.91
476,491,74.802,-130.896,0.0466454,0.00783677,-0.0498632,0.0807468,-0.0262647,-0.599839,0.064397,0.0211351,1700,533,74.8019,130.896
483,491,73.5403,-127.112,0,0,0,0,0,0,0,-1,1707,533,73.5403,127.112
490,491,72.4236,-123.204,0,0,0,0,0,0,0,-1,1714,533,72.4236,123.204
497,491,71.7305,-117.732,0.0483679,0.0096588,-0.0376149,0.0713156,-0.0132889,-0.54779,0.0525366,0.0289308,1721,533,71.7305,117.732
504,491,70.7563,-113.162,0.0496416,0.0106589,-0.0341163,0.0694419,-0.00914143,-0.525866,0.0496232,0.0218611,1728,533,70.7563,113.162
511,491,69.6372,-108.763,0.0509916,0.0118823,-0.0314258,0.06845,-0.00557613,-0.507089,0.047601,0.020178,1735,533,69.6372,108.763
518,491,68.421,-104.339,0.0522007,0.0133376,-0.0294267,0.0680327,-0.00249436,-0.493594,0.046209,0.0164997,1742,533,68.4211,104.339
525,491,67.1757,-99.8535,0.0530651,0.0152315,-0.0279641,0.0679098,0.000386864,-0.488019,0.0451448,0.0202744,1749,533,67.1757,99.8535
532,491,65.8805,-95.2593,0,0,0,0,0,0,0,-1,1756,533,65.8805,95.2594
539,491,27.2163,-35.1343,0,0,0,0,0,0,0,-1,1763,533,27.2163,35.1343
546,491,22.9856,-26.3007,0,0,0,0,0,0,0,-1,1770,533,22.9856,26.3007
553,491,10.5021,-7.77869,0,0,0,0,0,0,0,-1,1777,533,10.502,7.77871
560,491,6.28455,-1.43585,0,0,0,0,0,0,0,-1,1784,533,6.28458,1.43586
567,491,5.67651,-1.3562,0,0,0,0,0,0,0,-1,1791,533,5.67649,1.3562
574,491,8.0719,1.58325,0,0,0,0,0,0,0,-1,1798,533,8.07195,-1.58326
581,491,9.44812,1.60931,0,0,0,0,0,0,0,-1,1805,533,9.44808,-1.60933
588,491,11.0497,1.54962,0,0,0,0,0,0,0,-1,1812,533,11.0496,-1.54963
595,491,0,0,0,0,0,0,0,0,0,-1,1819,533,0,0
602,491,0,0,0,0,0,0,0,0,0,-1,1826,533,0,0
609,491,0,0,0,0,0,0,0,0,0,-1,1833,533,0,0
616,491,0,0,0,0,0,0,0,0,0,-1,1840,533,0,0
623,491,0,0,0,0,0,0,0,0,0,-1,1847,533,0,0
630,491,0,0,0,0,0,0,0,0,0,-1,1854,533,0,0
637,491,0,0,0,0,0,0,0,0,0,-1,1861,533,0,0
644,491,0,0,0,0,0,0,0,0,0,-1,1868,533,0,0
651,491,0,0,0,0,0,0,0,0,0,-1,1875,533,0,0
658,491,0,0,0,0,0,0,0,0,0,-1,1882,533,0,0
665,491,0,0,0,0,0,0,0,0,0,-1,1889,533,0,0
672,491,0,0,0,0,0,0,0,0,0,-1,1896,533,0,0
679,491,0,0,0,0,0,0,0,0,0,-1,1903,533,0,0
686,491,0,0,0,0,0,0,0,0,0,-1,1910,533,0,0
693,491,0,0,0,0,0,0,0,0,0,-1,1917,533,0,0
700,491,0,0,0,0,0,0,0,0,0,-1,1924,533,0,0
707,491,0,0,0,0,0,0,0,0,0,-1,1931,533,0,0
714,491,0,0,0,0,0,0,0,0,0,-1,1938,533,0,0
721,491,0,0,0,0,0,0,0,0,0,-1,1945,533,0,0
728,491,0,0,0,0,0,0,0,0,0,-1,1952,533,0,0
735,491,0,0,0,0,0,0,0,0,0,-1,1959,533,0,0
742,491,0,0,0,0,0,0,0,0,0,-1,1966,533,0,0
749,491,0,0,0,0,0,0,0,0,0,-1,1973,533,0,0
756,491,0,0,0,0,0,0,0,0,0,-1,1980,533,0,0
763,491,0,0,0,0,0,0,0,0,0,-1,1987,533,0,0
770,491,0,0,0,0,0,0,0,0,0,-1,1994,533,0,0
777,491,0,0,0,0,0,0,0,0,0,-1,2001,533,0,0
784,491,0,0,0,0,0,0,0,0,0,-1,2008,533,0,0
791,491,0,0,0,0,0,0,0,0,0,-1,2015,533,0,0
798,491,0,0,0,0,0,0,0,0,0,-1,2022,533,0,0
805,491,0,0,0,0,0,0,0,0,0,-1,2029,533,0,0
812,491,0,0,0,0,0,0,0,0,0,-1,2036,533,0,0
-700,484,0,0,0,0,0,0,0,0,0,-1,524,540,0,0
-693,484,0,0,0,0,0,0,0,0,0,-1,531,540,0,0
-686,484,0,0,0,0,0,0,0,0,0,-1,538,540,0,0
-679,484,0,0,0,0,0,0,0,0,0,-1,545,540,0,0
-672,484,0,0,0,0,0,0,0,0,0,-1,552,540,0,0
-665,484,0,0,0,0,0,0,0,0,0,-1,559,540,0,0
-658,484,0,0,0,0,0,0,0,0,0,-1,566,540,0,0
-651,484,0,0,0,0,0,0,0,0,0,-1,573,540,0,0
-644,484,0,0,0,0,0,0,0,0,0,-1,580,540,0,0
-637,484,0,0,0,0,0,0,0,0,0,-1,587,540,0,0
-630,484,0,0,0,0,0,0,0,0,0,-1,594,540,0,0
-623,484,0,0,0,0,0,0,0,0,0,-1,601,540,0,0
-616,484,0,0,0,0,0,0,0,0,0,-1,608,540,0,0
-609,484,0,0,0,0,0,0,0,0,0,-1,615,540,0,0
-602,484,0,0,0,0,0,0,0,0,0,-1,622,540,0,0
-595,484,0,0,0,0,0,0,0,0,0,-1,629,540,0,0
-588,484,0,0,0,0,0,0,0,0,0,-1,636,540,0,0
-581,484,0,0,0,0,0,0,0,0,0,-1,643,540,0,0
-574,484,0,0,0,0,0,0,0,0,0,-1,650,540,0,0
-567,484,0,0,0,0,0,0,0,0,0,-1,657,540,0,0
-560,484,0,0,0,0,0,0,0,0,0,-1,664,540,0,0
-553,484,0,0,0,0,0,0,0,0,0,-1,671,540,0,0
-546,484,0,0,0,0,0,0,0,0,0,-1,678,540,0,0
-539,484,0,0,0,0,0,0,0,0,0,-1,685,540,0,0
-532,484,0,0,0,0,0,0,0,0,0,-1,692,540,0,0
-525,484,0,0,0,0,0,0,0,0,0,-1,699,540,0,0
-518,484,0,0,0,0,0,0,0,0,0,-1,706,540,0,0
-511,484,0,0,0,0,0,0,0,0,0,-1,713,540,0,0
-504,484,0,0,0,0,0,0,0,0,0,-1,720,540,0,0
-497,484,0,0,0,0,0,0,0,0,0,-1,727,540,0,0
-490,484,0,0,0,0,0,0,0,0,0,-1,734,540,0,0
-483,484,0,0,0,0,0,0,0,0,0,-1,741,540,0,0
-476,484,-8.46552,1.44702,0,0,0,0,0,0,0,-1,748,540,-8.46554,-1.44702
-469,484,-7.82343,1.70355,0,0,0,0,0,0,0,-1,755,540,-7.82345,-1.70355
-462,484,-8.36987,3.08612,0,0,0,0,0,0,0,-1,762,540,-8.36988,-3.0861
-455,484,-6.77197,2.07092,0,0,0,0,0,0,0,-1,769,540,-6.77197,-2.07094
-448,484,3.54895,-1.40106,0,0,0,0,0,0,0,-1,776,540,3.54897,1.40106
-441,484,4.28906,-3.05884,0,0,0,0,0,0,0,-1,783,540,4.28905,3.05883
-434,484,-2.17548,-5.07245,0,0,0,0,0,0,0,-1,790,540,-2.17546,5.07243
-427,484,-6.97125,-22.7925,0,0,0,0,0,0,0,-1,797,540,-6.97126,22.7925
-420,484,-27.6194,-78.022,0,0,0,0,0,0,0,-1,804,540,-27.6195,78.022
-413,484,-56.8532,-87.1679,0,0,0,0,0,0,0,-1,811,540,-56.8532,87.1679
-406,484,-58.6216,-91.9916,0,0,0,0,0,0,0,-1,818,540,-58.6216,91.9916
-399,484,-59.4625,-96.9271,0,0,0,0,0,0,0,-1,825,540,-59.4625,96.9271
-392,484,-60.6994,-101.291,0.039588,0.00563673,0.0309975,0.0579538,-0.0127291,0.534881,0.0435041,0.0372259,832,540,-60.6994,101.291
-385,484,-61.9466,-105.782,0.0407403,0.00382197,0.0340689,0.0610295,-0.0164672,0.537128,0.047144,0.0209869,839,540,-61.9466,105.782
-378,484,-63.376,-110.186,0.0422571,0.0022849,0.0372226,0.0645199,-0.0199779,0.53902,0.0509942,0.0208389,846,540,-63.376,110.186
-371,484,-64.561,-114.633,0.0441241,0.000810439,0.0402638,0.0681859,-0.0232513,0.538655,0.054875,0.025193,853,540,-64.561,114.633
-364,484,-65.705,-118.979,0.0466878,-0.000491905,0.0435986,0.0726693,-0.0264734,0.537418,0.0592751,0.0191733,860,540,-65.705,118.979
-357,484,-66.6802,-123.3,0.0495665,-0.00158156,0.0472507,0.0777202,-0.0297352,0.537351,0.0640681,0.0196403,867,540,-66.6803,123.3
-350,484,-67.6321,-127.551,0.0523898,-0.00255213,0.0508987,0.0827577,-0.03292,0.537941,0.0688217,0.021348,874,540,-67.6322,127.551
-343,484,-68.5834,-131.893,0.0552255,-0.00393005,0.0547279,0.087857,-0.0365615,0.537657,0.07384,0.0323317,881,540,-68.5835,131.893
-336,484,-69.698,-136.153,0.0575428,-0.00606228,0.0592147,0.0929547,-0.0414742,0.538966,0.0794869,0.0453127,888,540,-69.698,136.153
-329,484,-70.674,-140.291,0,0,0,0,0,0,0,-1,895,540,-70.674,140.291
-322,484,-51.9425,-141.9,0,0,0,0,0,0,0,-1,902,540,-51.9425,141.9
-315,484,-35.3205,-109.059,0,0,0,0,0,0,0,-1,909,540,-35.3205,109.059
-308,484,-1.32623,-8.9317,0,0,0,0,0,0,0,-1,916,540,-1.32626,8.93173
-301,484,-1.33453,-6.52667,0,0,0,0,0,0,0,-1,923,540,-1.33454,6.5267
-294,484,-1.61224,-8.17059,0,0,0,0,0,0,0,-1,930,540,-1.61227,8.17058
-287,484,-0.715759,-5.62103,0,0,0,0,0,0,0,-1,937,540,-0.715772,5.62105
-280,484,2.66742,-1.6795,0,0,0,0,0,0,0,-1,944,540,2.6674,1.67949
-273,484,2.53125,-2.22296,0,0,0,0,0,0,0,-1,951,540,2.53128,2.22295
-266,484,2.6778,-2.72058,0,0,0,0,0,0,0,-1,958,540,2.6778,2.72061
-259,484,2.41718,-2.59894,0,0,0,0,0,0,0,-1,965,540,2.41717,2.59892
-252,484,10.6069,-11.696,0,0,0,0,0,0,0,-1,972,540,10.6069,11.696
-245,484,6.34106,-11.6107,0,0,0,0,0,0,0,-1,979,540,6.34104,11.6107
-238,484,4.89319,-8.54059,0,0,0,0,0,0,0,-1,986,540,4.89321,8.5406
-231,484,3.47675,-5.22064,0,0,0,0,0,0,0,-1,993,540,3.47676,5.22067
-224,484,1.71344,-2.03473,0,0,0,0,0,0,0,-1,1000,540,1.71342,2.03472
-217,484,-0.745056,1.17358,0,0,0,0,0,0,0,-1,1007,540,-0.745043,-1.17359
-210,484,0,0,0,0,0,0,0,0,0,-1,1014,540,0,0
-203,484,0,0,0,0,0,0,0,0,0,-1,1021,540,0,0
-196,484,0,0,0,0,0,0,0,0,0,-1,1028,540,0,0
-189,484,0,0,0,0,0,0,0,0,0,-1,1035,540,0,0
-182,484,0,0,0,0,0,0,0,0,0,-1,1042,540,0,0
-175,484,0,0,0,0,0,0,0,0,0,-1,1049,540,0,0
-168,484,0,0,0,0,0,0,0,0,0,-1,1056,540,0,0
-161,484,0,0,0,0,0,0,0,0,0,-1,1063,540,0,0
-154,484,0,0,0,0,0,0,0,0,0,-1,1070,540,0,0
-147,484,0,0,0,0,0,0,0,0,0,-1,1077,540,0,0
-140,484,0,0,0,0,0,0,0,0,0,-1,1084,540,0,0
-133,484,0,0,0,0,0,0,0,0,0,-1,1091,540,0,0
-126,484,0,0,0,0,0,0,0,0,0,-1,1098,540,0,0
-119,484,0,0,0,0,0,0,0,0,0,-1,1105,540,0,0
-112,484,0,0,0,0,0,0,0,0,0,-1,1112,540,0,0
-105,484,0,0,0,0,0,0,0,0,0,-1,1119,540,0,0
-98,484,0,0,0,0,0,0,0,0,0,-1,1126,540,0,0
-91,484,0,0,0,0,0,0,0,0,0,-1,1133,540,0,0
-84,484,0,0,0,0,0,0,0,0,0,-1,1140,540,0,0
-77,484,0,0,0,0,0,0,0,0,0,-1,1147,540,0,0
-70,484,0,0,0,0,0,0,0,0,0,-1,1154,540,0,0
-63,484,0,0,0,0,0,0,0,0,0,-1,1161,540,0,0
-56,484,0,0,0,0,0,0,0,0,0,-1,1168,540,0,0
-49,484,0,0,0,0,0,0,0,0,0,-1,1175,540,0,0
-42,484,0,0,0,0,0,0,0,0,0,-1,1182,540,0,0
-35,484,0,0,0,0,0,0,0,0,0,-1,1189,540,0,0
-28,484,0,0,0,0,0,0,0,0,0,-1,1196,540,0,0
-21,484,0,0,0,0,0,0,0,0,0,-1,1203,540,0,0
-14,484,0,0,0,0,0,0,0,0,0,-1,1210,540,0,0
-7,484,0,0,0,0,0,0,0,0,0,-1,1217,540,0,0
0,484,0,0,0,0,0,0,0,0,0,-1,1224,540,0,0
7,484,0,0,0,0,0,0,0,0,0,-1,1231,540,0,0
14,484,0,0,0,0,0,0,0,0,0,-1,1238,540,0,0
21,484,0,0,0,0,0,0,0,0,0,-1,1245,540,0,0
28,484,0,0,0,0,0,0,0,0,0,-1,1252,540,0,0
35,484,0,0,0,0,0,0,0,0,0,-1,1259,540,0,0
42,484,0,0,0,0,0,0,0,0,0,-1,1266,540,0,0
49,484,0,0,0,0,0,0,0,0,0,-1,1273,540,0,0
56,484,0,0,0,0,0,0,0,0,0,-1,1280,540,0,0
63,484,0,0,0,0,0,0,0,0,0,-1,1287,540,0,0
70,484,0,0,0,0,0,0,0,0,0,-1,1294,540,0,0
77,484,0,0,0,0,0,0,0,0,0,-1,1301,540,0,0
84,484,0,0,0,0,0,0,0,0,0,-1,1308,540,0,0
91,484,0,0,0,0,0,0,0,0,0,-1,1315,540,0,0
98,484,0,0,0,0,0,0,0,0,0,-1,1322,540,0,0
105,484,0,0,0,0,0,0,0,0,0,-1,1329,540,0,0
112,484,0,0,0,0,0,0,0,0,0,-1,1336,540,0,0
119,484,0,0,0,0,0,0,0,0,0,-1,1343,540,0,0
126,484,0,0,0,0,0,0,0,0,0,-1,1350,540,0,0
133,484,0,0,0,0,0,0,0,0,0,-1,1357,540,0,0
140,484,0,0,0,0,0,0,0,0,0,-1,1364,540,0,0
147,484,0,0,0,0,0,0,0,0,0,-1,1371,540,0,0
154,484,0,0,0,0,0,0,0,0,0,-1,1378,540,0,0
161,484,0,0,0,0,0,0,0,0,0,-1,1385,540,0,0
168,484,0,0,0,0,0,0,0,0,0,-1,1392,540,0,0
175,484,0,0,0,0,0,0,0,0,0,-1,1399,540,0,0
182,484,0,0,0,0,0,0,0,0,0,-1,1406,540,0,0
189,484,0,0,0,0,0,0,0,0,0,-1,1413,540,0,0
196,484,0,0,0,0,0,0,0,0,0,-1,1420,540,0,0
203,484,0,0,0,0,0,0,0,0,0,-1,1427,540,0,0
210,484,0,0,0,0,0,0,0,0,0,-1,1434,540,0,0
217,484,0,0,0,0,0,0,0,0,0,-1,1441,540,0,0
224,484,0,0,0,0,0,0,0,0,0,-1,1448,540,0,0
231,484,0,0,0,0,0,0,0,0,0,-1,1455,540,0,0
238,484,0,0,0,0,0,0,0,0,0,-1,1462,540,0,0
245,484,0,0,0,0,0,0,0,0,0,-1,1469,540,0,0
252,484,0,0,0,0,0,0,0,0,0,-1,1476,540,0,0
259,484,0,0,0,0,0,0,0,0,0,-1,1483,540,0,0
266,484,0,0,0,0,0,0,0,0,0,-1,1490,540,0,0
273,484,0,0,0,0,0,0,0,0,0,-1,1497,540,0,0
280,484,0,0,0,0,0,0,0,0,0,-1,1504,540,0,0
287,484,0,0,0,0,0,0,0,0,0,-1,1511,540,0,0
294,484,0,0,0,0,0,0,0,0,0,-1,1518,540,0,0
301,484,0,0,0,0,0,0,0,0,0,-1,1525,540,0,0
308,484,0,0,0,0,0,0,0,0,0,-1,1532,540,0,0
315,484,0,0,0,0,0,0,0,0,0,-1,1539,540,0,0
322,484,0,0,0,0,0,0,0,0,0,-1,1546,540,0,0
329,484,0,0,0,0,0,0,0,0,0,-1,1553,540,0,0
336,484,4.38708,-1.64136,0,0,0,0,0,0,0,-1,1560,540,4.38704,1.64138
343,484,7.57996,-1.05457,0,0,0,0,0,0,0,-1,1567,540,7.57995,1.05454
350,484,8.10425,-1.18878,0,0,0,0,0,0,0,-1,1574,540,8.1043,1.18877
357,484,7.74902,-3.80286,0,0,0,0,0,0,0,-1,1581,540,7.74901,3.80287
364,484,6.31262,-3.87213,0,0,0,0,0,0,0,-1,1588,540,6.31263,3.87215
371,484,7.21008,0.973511,0,0,0,0,0,0,0,-1,1595,540,7.21014,-0.973541
378,484,11.0563,1.5014,0,0,0,0,0,0,0,-1,1602,540,11.0563,-1.5014
385,484,14.3469,2.5545,0,0,0,0,0,0,0,-1,1609,540,14.3469,-2.55453
392,484,7.39453,-4.95026,0,0,0,0,0,0,0,-1,1616,540,7.39448,4.95023
399,484,7.14417,-2.5639,0,0,0,0,0,0,0,-1,1623,540,7.14417,2.56391
406,484,7.88953,-2.47321,0,0,0,0,0,0,0,-1,1630,540,7.88954,2.47323
413,484,4.4895,-1.08673,0,0,0,0,0,0,0,-1,1637,540,4.48952,1.08674
420,484,4.50012,-2.11255,0,0,0,0,0,0,0,-1,1644,540,4.50012,2.11256
427,484,5.28601,-3.54053,0,0,0,0,0,0,0,-1,1651,540,5.28599,3.54051
434,484,11.1488,-13.5359,0,0,0,0,0,0,0,-1,1658,540,11.1489,13.5359
441,484,24.9087,-38.5439,0,0,0,0,0,0,0,-1,1665,540,24.9087,38.5439
448,484,34.1501,-61.0443,0,0,0,0,0,0,0,-1,1672,540,34.1502,61.0443
455,484,81.6395,-141.681,0,0,0,0,0,0,0,-1,1679,540,81.6395,141.681
462,484,81.4553,-137.542,0,0,0,0,0,0,0,-1,1686,540,81.4554,137.542
469,484,80.3529,-133.294,0.0434514,0.0052898,-0.0611192,0.0883989,-0.0396578,-0.634097,0.0756977,0.0413821,1693,540,80.3529,133.294
476,484,79.2362,-129.03,0.0430898,0.00555764,-0.0566573,0.084008,-0.0353606,-0.625474,0.0707995,0.0481956,1700,540,79.2362,129.03
483,484,78.1251,-124.932,0.043211,0.00570227,-0.0519906,0.0797264,-0.0308131,-0.612299,0.0658698,0.0434349,1707,540,78.1251,124.932
490,484,77.2423,-120.536,0.0441231,0.00619533,-0.0479342,0.0767084,-0.02639,-0.597034,0.0618419,0.0434315,1714,540,77.2423,120.536
497,484,76.3967,-115.966,0.0456614,0.00710459,-0.0438562,0.0742894,-0.0215234,-0.57832,0.0580464,0.0303948,1721,540,76.3968,115.966
504,484,75.4375,-111.519,0.0472248,0.00802221,-0.0401703,0.072321,-0.0170739,-0.558415,0.0547992,0.0272497,1728,540,75.4376,111.519
511,484,74.2625,-107.084,0.0488248,0.00916129,-0.0373018,0.071239,-0.0132529,-0.541072,0.0524712,0.0257031,1735,540,74.2625,107.084
518,484,73.0131,-102.697,0.0502434,0.0105049,-0.0350984,0.0707063,-0.00995808,-0.527838,0.0507834,0.0234771,1742,540,73.013,102.697
525,484,71.8656,-98.1365,0.0513917,0.0123028,-0.0335505,0.0706754,-0.00698086,-0.521658,0.0496078,0.0214865,1749,540,71.8655,98.1365
532,484,70.682,-93.478,0.0522369,0.0143694,-0.0328872,0.0712512,-0.00464492,-0.524212,0.0491224,0.0259064,1756,540,70.682,93.478
539,484,69.2402,-88.8826,0,0,0,0,0,0,0,-1,1763,540,69.2402,88.8826
546,484,28.965,-33.8799,0,0,0,0,0,0,0,-1,1770,540,28.965,33.8799
553,484,12.4246,-8.96423,0,0,0,0,0,0,0,-1,1777,540,12.4246,8.96422
560,484,10.0549,-5.47931,0,0,0,0,0,0,0,-1,1784,540,10.055,5.47928
567,484,7.78223,-1.38312,0,0,0,0,0,0,0,-1,1791,540,7.78224,1.38311
574,484,5.74463,1.50922,0,0,0,0,0,0,0,-1,1798,540,5.74463,-1.50924
581,484,10.34,2.9491,0,0,0,0,0,0,0,-1,1805,540,10.34,-2.94912
588,484,10.6669,2.88568,0,0,0,0,0,0,0,-1,1812,540,10.6669,-2.88567
595,484,10.7233,1.04767,0,0,0,0,0,0,0,-1,1819,540,10.7233,-1.04766
602,484,0,0,0,0,0,0,0,0,0,-1,1826,540,0,0
609,484,0,0,0,0,0,0,0,0,0,-1,1833,540,0,0
616,484,0,0,0,0,0,0,0,0,0,-1,1840,540,0,0
623,484,0,0,0,0,0,0,0,0,0,-1,1847,540,0,0
630,484,0,0,0,0,0,0,0,0,0,-1,1854,540,0,0
637,484,0,0,0,0,0,0,0,0,0,-1,1861,540,0,0
644,484,0,0,0,0,0,0,0,0,0,-1,1868,540,0,0
651,484,0,0,0,0,0,0,0,0,0,-1,1875,540,0,0
658,484,0,0,0,0,0,0,0,0,0,-1,1882,540,0,0
665,484,0,0,0,0,0,0,0,0,0,-1,1889,540,0,0
672,484,0,0,0,0,0,0,0,0,0,-1,1896,540,0,0
679,484,0,0,0,0,0,0,0,0,0,-1,1903,540,0,0
686,484,0,0,0,0,0,0,0,0,0,-1,1910,540,0,0
693,484,0,0,0,0,0,0,0,0,0,-1,1917,540,0,0
700,484,0,0,0,0,0,0,0,0,0,-1,1924,540,0,0
707,484,0,0,0,0,0,0,0,0,0,-1,1931,540,0,0
714,484,0,0,0,0,0,0,0,0,0,-1,1938,540,0,0
721,484,0,0,0,0,0,0,0,0,0,-1,1945,540,0,0
728,484,0,0,0,0,0,0,0,0,0,-1,1952,540,0,0
735,484,0,0,0,0,0,0,0,0,0,-1,1959,540,0,0
742,484,0,0,0,0,0,0,0,0,0,-1,1966,540,0,0
749,484,0,0,0,0,0,0,0,0,0,-1,1973,540,0,0
756,484,0,0,0,0,0,0,0,0,0,-1,1980,540,0,0
763,484,0,0,0,0,0,0,0,0,0,-1,1987,540,0,0
770,484,0,0,0,0,0,0,0,0,0,-1,1994,540,0,0
777,484,0,0,0,0,0,0,0,0,0,-1,2001,540,0,0
784,484,0,0,0,0,0,0,0,0,0,-1,2008,540,0,0
791,484,0,0,0,0,0,0,0,0,0,-1,2015,540,0,0
798,484,0,0,0,0,0,0,0,0,0,-1,2022,540,0,0
805,484,0,0,0,0,0,0,0,0,0,-1,2029,540,0,0
812,484,0,0,0,0,0,0,0,0,0,-1,2036,540,0,0
-700,477,0,0,0,0,0,0,0,0,0,-1,524,547,0,0
-693,477,0,0,0,0,0,0,0,0,0,-1,531,547,0,0
-686,477,0,0,0,0,0,0,0,0,0,-1,538,547,0,0
-679,477,0,0,0,0,0,0,0,0,0,-1,545,547,0,0
-672,477,0,0,0,0,0,0,0,0,0,-1,552,547,0,0
-665,477,0,0,0,0,0,0,0,0,0,-1,559,547,0,0
-658,477,0,0,0,0,0,0,0,0,0,-1,566,547,0,0
-651,477,0,0,0,0,0,0,0,0,0,-1,573,547,0,0
-644,477,0,0,0,0,0,0,0,0,0,-1,580,547,0,0
-637,477,0,0,0,0,0,0,0,0,0,-1,587,547,0,0
-630,477,0,0,0,0,0,0,0,0,0,-1,594,547,0,0
-623,477,0,0,0,0,0,0,0,0,0,-1,601,547,0,0
-616,477,0,0,0,0,0,0,0,0,0,-1,608,547,0,0
-609,477,0,0,0,0,0,0,0,0,0,-1,615,547,0,0
-602,477,0,0,0,0,0,0,0,0,0,-1,622,547,0,0
-595,477,0,0,0,0,0,0,0,0,0,-1,629,547,0,0
-588,477,0,0,0,0,0,0,0,0,0,-1,636,547,0,0
-581,477,0,0,0,0,0,0,0,0,0,-1,643,547,0,0
-574,477,0,0,0,0,0,0,0,0,0,-1,650,547,0,0
-567,477,0,0,0,0,0,0,0,0,0,-1,657,547,0,0
-560,477,0,0,0,0,0,0,0,0,0,-1,664,547,0,0
-553,477,0,0,0,0,0,0,0,0,0,-1,671,547,0,0
-546,477,0,0,0,0,0,0,0,0,0,-1,678,547,0,0
-539,477,0,0,0,0,0,0,0,0,0,-1,685,547,0,0
-532,477,0,0,0,0,0,0,0,0,0,-1,692,547,0,0
-525,477,0,0,0,0,0,0,0,0,0,-1,699,547,0,0
-518,477,0,0,0,0,0,0,0,0,0,-1,706,547,0,0
-511,477,0,0,0,0,0,0,0,0,0,-1,713,547,0,0
-504,477,0,0,0,0,0,0,0,0,0,-1,720,547,0,0
-497,477,0,0,0,0,0,0,0,0,0,-1,727,547,0,0
-490,477,0,0,0,0,0,0,0,0,0,-1,734,547,0,0
-483,477,-7.73151,-0.224182,0,0,0,0,0,0,0,-1,741,547,-7.73152,0.224176
-476,477,-6.25806,-0.310547,0,0,0,0,0,0,0,-1,748,547,-6.25804,0.310549
-469,477,-7.26617,0.525085,0,0,0,0,0,0,0,-1,755,547,-7.2662,-0.525111
-462,477,-6.65143,1.06042,0,0,0,0,0,0,0,-1,762,547,-6.65143,-1.06043
-455,477,-5.31757,0.429016,0,0,0,0,0,0,0,-1,769,547,-5.31756,-0.42902
-448,477,-4.0697,0.273376,0,0,0,0,0,0,0,-1,776,547,-4.06971,-0.273363
-441,477,-2.47504,-4.76971,0,0,0,0,0,0,0,-1,783,547,-2.47505,4.76973
-434,477,-7.66589,-22.4534,0,0,0,0,0,0,0,-1,790,547,-7.66591,22.4534
-427,477,-36.6924,-76.6806,0,0,0,0,0,0,0,-1,797,547,-36.6924,76.6806
-420,477,-60.5458,-80.8149,0,0,0,0,0,0,0,-1,804,547,-60.5458,80.8149
-413,477,-61.7289,-85.6056,0.0408277,0.0132377,0.028985,0.0591331,-0.0050677,0.563292,0.0412153,0.0445267,811,547,-61.729,85.6056
-406,477,-63.3162,-90.2189,0.0406552,0.0098809,0.0312329,0.0600856,-0.00954949,0.55652,0.0435903,0.0290299,818,547,-63.3161,90.2188
-399,477,-64.1372,-94.6651,0,0,0,0,0,0,0,-1,825,547,-64.1372,94.6651
-392,477,-65.4058,-99.3022,0.0408521,0.00484448,0.0363133,0.0633796,-0.0176831,0.555261,0.049218,0.0287335,832,547,-65.4057,99.3023
-385,477,-66.678,-103.943,0.0418745,0.00319409,0.0390483,0.0661097,-0.0210411,0.555462,0.0525113,0.0216054,839,547,-66.678,103.943
-378,477,-68.0294,-108.403,0.0433878,0.00174547,0.041965,0.069413,-0.0242797,0.555114,0.0561466,0.0187937,846,547,-68.0294,108.403
-371,477,-69.2536,-112.741,0.0453496,0.000389215,0.0448088,0.0730011,-0.0272623,0.552898,0.0598612,0.0194404,853,547,-69.2536,112.741
-364,477,-70.2991,-117.08,0.0480243,-0.000786391,0.0479825,0.0774515,-0.0302136,0.550134,0.0641238,0.0193217,860,547,-70.2991,117.08
-357,477,-71.3734,-121.405,0.0510436,-0.00181681,0.051567,0.0825591,-0.0333324,0.548583,0.0688927,0.0177188,867,547,-71.3733,121.405
-350,477,-72.3401,-125.691,0.054214,-0.00301812,0.0551092,0.0876938,-0.036498,0.545929,0.073705,0.0172671,874,547,-72.3402,125.691
-343,477,-73.082,-130.303,0.0574566,-0.00457997,0.0588326,0.0929471,-0.0400704,0.542802,0.0787943,0.0476312,881,547,-73.082,130.303
-336,477,-74.238,-134.416,0,0,0,0,0,0,0,-1,888,547,-74.238,134.416
-329,477,-15.676,-52.1498,0,0,0,0,0,0,0,-1,895,547,-15.676,52.1498
-322,477,-5.91638,-27.4468,0,0,0,0,0,0,0,-1,902,547,-5.91639,27.4468
-315,477,-1.67358,-9.15253,0,0,0,0,0,0,0,-1,909,547,-1.67356,9.15253
-308,477,-1.30127,-6.55188,0,0,0,0,0,0,0,-1,916,547,-1.30128,6.55185
-301,477,-1.21185,-6.28351,0,0,0,0,0,0,0,-1,923,547,-1.21184,6.28352
-294,477,-0.352905,3.27142,0,0,0,0,0,0,0,-1,930,547,-0.35292,-3.27144
-287,477,3.54364,2.15399,0,0,0,0,0,0,0,-1,937,547,3.54362,-2.15396
-280,477,1.97308,-0.954163,0,0,0,0,0,0,0,-1,944,547,1.9731,0.954178
-273,477,2.11621,-3.76709,0,0,0,0,0,0,0,-1,951,547,2.11619,3.76706
-266,477,2.04669,-3.42389,0,0,0,0,0,0,0,-1,958,547,2.04671,3.42391
-259,477,-1.33478,-3.41205,0,0,0,0,0,0,0,-1,965,547,-1.3348,3.41206
-252,477,0.597168,-5.32922,0,0,0,0,0,0,0,-1,972,547,0.597144,5.32924
-245,477,8.2309,-8.48492,0,0,0,0,0,0,0,-1,979,547,8.23091,8.48494
-238,477,6.60938,-5.64063,0,0,0,0,0,0,0,-1,986,547,6.60938,5.64063
-231,477,4.71716,-2.52484,0,0,0,0,0,0,0,-1,993,547,4.71716,2.52483
-224,477,0,0,0,0,0,0,0,0,0,-1,1000,547,0,0
-217,477,0,0,0,0,0,0,0,0,0,-1,1007,547,0,0
-210,477,0,0,0,0,0,0,0,0,0,-1,1014,547,0,0
-203,477,0,0,0,0,0,0,0,0,0,-1,1021,547,0,0
-196,477,0,0,0,0,0,0,0,0,0,-1,1028,547,0,0
-189,477,0,0,0,0,0,0,0,0,0,-1,1035,547,0,0
-182,477,0,0,0,0,0,0,0,0,0,-1,1042,547,0,0
-175,477,0,0,0,0,0,0,0,0,0,-1,1049,547,0,0
-168,477,0,0,0,0,0,0,0,0,0,-1,1056,547,0,0
-161,477,0,0,0,0,0,0,0,0,0,-1,1063,547,0,0
-154,477,0,0,0,0,0,0,0,0,0,-1,1070,547,0,0
-147,477,0,0,0,0,0,0,0,0,0,-1,1077,547,0,0
-140,477,0,0,0,0,0,0,0,0,0,-1,1084,547,0,0
-133,477,0,0,0,0,0,0,0,0,0,-1,1091,547,0,0
-126,477,0,0,0,0,0,0,0,0,0,-1,1098,547,0,0
-119,477,0,0,0,0,0,0,0,0,0,-1,1105,547,0,0
-112,477,0,0,0,0,0,0,0,0,0,-1,1112,547,0,0
-105,477,0,0,0,0,0,0,0,0,0,-1,1119,547,0,0
-98,477,0,0,0,0,0,0,0,0,0,-1,1126,547,0,0
-91,477,0,0,0,0,0,0,0,0,0,-1,1133,547,0,0
-84,477,0,0,0,0,0,0,0,0,0,-1,1140,547,0,0
-77,477,0,0,0,0,0,0,0,0,0,-1,1147,547,0,0
-70,477,0,0,0,0,0,0,0,0,0,-1,1154,547,0,0
-63,477,0,0,0,0,0,0,0,0,0,-1,1161,547,0,0
-56,477,0,0,0,0,0,0,0,0,0,-1,1168,547,0,0
-49,477,0,0,0,0,0,0,0,0,0,-1,1175,547,0,0
-42,477,0,0,0,0,0,0,0,0,0,-1,1182,547,0,0
-35,477,0,0,0,0,0,0,0,0,0,-1,1189,547,0,0
-28,477,0,0,0,0,0,0,0,0,0,-1,1196,547,0,0
-21,477,0,0,0,0,0,0,0,0,0,-1,1203,547,0,0
-14,477,0,0,0,0,0,0,0,0,0,-1,1210,547,0,0
-7,477,0,0,0,0,0,0,0,0,0,-1,1217,547,0,0
0,477,0,0,0,0,0,0,0,0,0,-1,1224,547,0,0
7,477,0,0,0,0,0,0,0,0,0,-1,1231,547,0,0
14,477,0,0,0,0,0,0,0,0,0,-1,1238,547,0,0
21,477,0,0,0,0,0,0,0,0,0,-1,1245,547,0,0
28,477,0,0,0,0,0,0,0,0,0,-1,1252,547,0,0
35,477,0,0,0,0,0,0,0,0,0,-1,1259,547,0,0
42,477,0,0,0,0,0,0,0,0,0,-1,1266,547,0,0
49,477,0,0,0,0,0,0,0,0,0,-1,1273,547,0,0
56,477,0,0,0,0,0,0,0,0,0,-1,1280,547,0,0
63,477,0,0,0,0,0,0,0,0,0,-1,1287,547,0,0
70,477,0,0,0,0,0,0,0,0,0,-1,1294,547,0,0
77,477,0,0,0,0,0,0,0,0,0,-1,1301,547,0,0
84,477,0,0,0,0,0,0,0,0,0,-1,1308,547,0,0
91,477,0,0,0,0,0,0,0,0,0,-1,1315,547,0,0
98,477,0,0,0,0,0,0,0,0,0,-1,1322,547,0,0
105,477,0,0,0,0,0,0,0,0,0,-1,1329,547,0,0
112,477,0,0,0,0,0,0,0,0,0,-1,1336,547,0,0
119,477,0,0,0,0,0,0,0,0,0,-1,1343,547,0,0
126,477,0,0,0,0,0,0,0,0,0,-1,1350,547,0,0
133,477,0,0,0,0,0,0,0,0,0,-1,1357,547,0,0
140,477,0,0,0,0,0,0,0,0,0,-1,1364,547,0,0
147,477,0,0,0,0,0,0,0,0,0,-1,1371,547,0,0
154,477,0,0,0,0,0,0,0,0,0,-1,1378,547,0,0
161,477,0,0,0,0,0,0,0,0,0,-1,1385,547,0,0
168,477,0,0,0,0,0,0,0,0,0,-1,1392,547,0,0
175,477,0,0,0,0,0,0,0,0,0,-1,1399,547,0,0
182,477,0,0,0,0,0,0,0,0,0,-1,1406,547,0,0
189,477,0,0,0,0,0,0,0,0,0,-1,1413,547,0,0
196,477,0,0,0,0,0,0,0,0,0,-1,1420,547,0,0
203,477,0,0,0,0,0,0,0,0,0,-1,1427,547,0,0
210,477,0,0,0,0,0,0,0,0,0,-1,1434,547,0,0
217,477,0,0,0,0,0,0,0,0,0,-1,1441,547,0,0
224,477,0,0,0,0,0,0,0,0,0,-1,1448,547,0,0
231,477,0,0,0,0,0,0,0,0,0,-1,1455,547,0,0
238,477,0,0,0,0,0,0,0,0,0,-1,1462,547,0,0
245,477,0,0,0,0,0,0,0,0,0,-1,1469,547,0,0
252,477,0,0,0,0,0,0,0,0,0,-1,1476,547,0,0
259,477,0,0,0,0,0,0,0,0,0,-1,1483,547,0,0
266,477,0,0,0,0,0,0,0,0,0,-1,1490,547,0,0
273,477,0,0,0,0,0,0,0,0,0,-1,1497,547,0,0
280,477,0,0,0,0,0,0,0,0,0,-1,1504,547,0,0
287,477,0,0,0,0,0,0,0,0,0,-1,1511,547,0,0
294,477,0,0,0,0,0,0,0,0,0,-1,1518,547,0,0
301,477,0,0,0,0,0,0,0,0,0,-1,1525,547,0,0
308,477,0,0,0,0,0,0,0,0,0,-1,1532,547,0,0
315,477,0,0,0,0,0,0,0,0,0,-1,1539,547,0,0
322,477,0,0,0,0,0,0,0,0,0,-1,1546,547,0,0
329,477,0,0,0,0,0,0,0,0,0,-1,1553,547,0,0
336,477,0,0,0,0,0,0,0,0,0,-1,1560,547,0,0
343,477,0,0,0,0,0,0,0,0,0,-1,1567,547,0,0
350,477,1.7699,-3.32275,0,0,0,0,0,0,0,-1,1574,547,1.7699,3.32272
357,477,3.073,-4.83313,0,0,0,0,0,0,0,-1,1581,547,3.07303,4.83316
364,477,4.30127,-4.22864,0,0,0,0,0,0,0,-1,1588,547,4.30125,4.22865
371,477,4.57703,0.283264,0,0,0,0,0,0,0,-1,1595,547,4.57706,-0.283262
378,477,8.57947,1.05969,0,0,0,0,0,0,0,-1,1602,547,8.5795,-1.05972
385,477,12.3726,2.02356,0,0,0,0,0,0,0,-1,1609,547,12.3725,-2.02355
392,477,16.4678,2.76843,0,0,0,0,0,0,0,-1,1616,547,16.4678,-2.76845
399,477,8.00037,-2.29523,0,0,0,0,0,0,0,-1,1623,547,8.00031,2.2952
406,477,4.82495,2.7475,0,0,0,0,0,0,0,-1,1630,547,4.825,-2.74752
413,477,4.88171,-0.336426,0,0,0,0,0,0,0,-1,1637,547,4.88169,0.336398
420,477,3.34875,0.102722,0,0,0,0,0,0,0,-1,1644,547,3.34871,-0.1027
427,477,1.66772,-0.373108,0,0,0,0,0,0,0,-1,1651,547,1.66768,0.373104
434,477,3.76978,-2.30798,0,0,0,0,0,0,0,-1,1658,547,3.76974,2.30801
441,477,4.05444,-2.80402,0,0,0,0,0,0,0,-1,1665,547,4.05444,2.804
448,477,10.4247,-11.7421,0,0,0,0,0,0,0,-1,1672,547,10.4247,11.7421
455,477,13.3054,-16.8109,0,0,0,0,0,0,0,-1,1679,547,13.3054,16.8109
462,477,41.8641,-79.7932,0,0,0,0,0,0,0,-1,1686,547,41.8641,79.7932
469,477,84.8668,-131.723,0,0,0,0,0,0,0,-1,1693,547,84.8668,131.723
476,477,83.8271,-127.154,0,0,0,0,0,0,0,-1,1700,547,83.8271,127.154
483,477,83.0631,-123.052,0.0383359,0.00362303,-0.0584792,0.08198,-0.040021,-0.64114,0.0718125,0.0420962,1707,547,83.0631,123.052
490,477,82.0712,-118.713,0.0397686,0.00398209,-0.0541099,0.078867,-0.0351163,-0.625716,0.0674048,0.0365636,1714,547,82.0712,118.713
497,477,81.1021,-114.216,0.041841,0.00482988,-0.0497339,0.0764007,-0.0297298,-0.607289,0.0632185,0.0307537,1721,547,81.1021,114.216
504,477,80.1492,-109.754,0.0438079,0.00567397,-0.0457681,0.0743219,-0.02484,-0.588032,0.0595797,0.0276004,1728,547,80.1492,109.754
511,477,78.9159,-105.303,0.0457296,0.00674472,-0.0426206,0.0731036,-0.0206294,-0.570924,0.0568733,0.0272885,1735,547,78.9159,105.303
518,477,77.7734,-100.798,0.0474232,0.00803297,-0.0401709,0.0724673,-0.0170112,-0.557477,0.0548681,0.026306,1742,547,77.7734,100.798
525,477,76.6339,-96.4713,0.0488686,0.00982471,-0.038473,0.0724892,-0.0137959,-0.550615,0.0535207,0.028432,1749,547,76.6339,96.4713
532,477,75.3821,-91.9502,0.05006,0.0121293,-0.0375906,0.0731985,-0.0110092,-0.551768,0.0528524,0.0353913,1756,547,75.3821,91.9502
539,477,74.1829,-87.4086,0.0513609,0.0149811,-0.0378732,0.0751859,-0.0088439,-0.561522,0.053317,0.0323048,1763,547,74.1829,87.4085
546,477,73.0562,-83.0724,0,0,0,0,0,0,0,-1,1770,547,73.0562,83.0724
553,477,33.2839,-37.685,0,0,0,0,0,0,0,-1,1777,547,33.284,37.685
560,477,19.4597,-16.1135,0,0,0,0,0,0,0,-1,1784,547,19.4597,16.1135
567,477,29.3896,-26.2586,0,0,0,0,0,0,0,-1,1791,547,29.3897,26.2586
574,477,6.82593,-0.916992,0,0,0,0,0,0,0,-1,1798,547,6.82598,0.916977
581,477,9.29321,-0.557007,0,0,0,0,0,0,0,-1,1805,547,9.29324,0.55703
588,477,9.75195,0.422729,0,0,0,0,0,0,0,-1,1812,547,9.75198,-0.42273
595,477,9.89172,1.21326,0,0,0,0,0,0,0,-1,1819,547,9.89174,-1.21328
602,477,6.5271,-0.964417,0,0,0,0,0,0,0,-1,1826,547,6.52706,0.964427
609,477,0,0,0,0,0,0,0,0,0,-1,1833,547,0,0
616,477,0,0,0,0,0,0,0,0,0,-1,1840,547,0,0
623,477,0,0,0,0,0,0,0,0,0,-1,1847,547,0,0
630,477,0,0,0,0,0,0,0,0,0,-1,1854,547,0,0
637,477,0,0,0,0,0,0,0,0,0,-1,1861,547,0,0
644,477,0,0,0,0,0,0,0,0,0,-1,1868,547,0,0
651,477,0,0,0,0,0,0,0,0,0,-1,1875,547,0,0
658,477,0,0,0,0,0,0,0,0,0,-1,1882,547,0,0
665,477,0,0,0,0,0,0,0,0,0,-1,1889,547,0,0
672,477,0,0,0,0,0,0,0,0,0,-1,1896,547,0,0
679,477,0,0,0,0,0,0,0,0,0,-1,1903,547,0,0
686,477,0,0,0,0,0,0,0,0,0,-1,1910,547,0,0
693,477,0,0,0,0,0,0,0,0,0,-1,1917,547,0,0
700,477,0,0,0,0,0,0,0,0,0,-1,1924,547,0,0
707,477,0,0,0,0,0,0,0,0,0,-1,1931,547,0,0
714,477,0,0,0,0,0,0,0,0,0,-1,1938,547,0,0
721,477,0,0,0,0,0,0,0,0,0,-1,1945,547,0,0
728,477,0,0,0,0,0,0,0,0,0,-1,1952,547,0,0
735,477,0,0,0,0,0,0,0,0,0,-1,1959,547,0,0
742,477,0,0,0,0,0,0,0,0,0,-1,1966,547,0,0
749,477,0,0,0,0,0,0,0,0,0,-1,1973,547,0,0
756,477,0,0,0,0,0,0,0,0,0,-1,1980,547,0,0
763,477,0,0,0,0,0,0,0,0,0,-1,1987,547,0,0
770,477,0,0,0,0,0,0,0,0,0,-1,1994,547,0,0
777,477,0,0,0,0,0,0,0,0,0,-1,2001,547,0,0
784,477,0,0,0,0,0,0,0,0,0,-1,2008,547,0,0
791,477,0,0,0,0,0,0,0,0,0,-1,2015,547,0,0
798,477,0,0,0,0,0,0,0,0,0,-1,2022,547,0,0
805,477,0,0,0,0,0,0,0,0,0,-1,2029,547,0,0
812,477,0,0,0,0,0,0,0,0,0,-1,2036,547,0,0
-700,470,0,0,0,0,0,0,0,0,0,-1,524,554,0,0
-693,470,0,0,0,0,0,0,0,0,0,-1,531,554,0,0
-686,470,0,0,0,0,0,0,0,0,0,-1,538,554,0,0
-679,470,0,0,0,0,0,0,0,0,0,-1,545,554,0,0
-672,470,0,0,0,0,0,0,0,0,0,-1,552,554,0,0
-665,470,0,0,0,0,0,0,0,0,0,-1,559,554,0,0
-658,470,0,0,0,0,0,0,0,0,0,-1,566,554,0,0
-651,470,0,0,0,0,0,0,0,0,0,-1,573,554,0,0
-644,470,0,0,0,0,0,0,0,0,0,-1,580,554,0,0
-637,470,0,0,0,0,0,0,0,0,0,-1,587,554,0,0
-630,470,0,0,0,0,0,0,0,0,0,-1,594,554,0,0
-623,470,0,0,0,0,0,0,0,0,0,-1,601,554,0,0
-616,470,0,0,0,0,0,0,0,0,0,-1,608,554,0,0
-609,470,0,0,0,0,0,0,0,0,0,-1,615,554,0,0
-602,470,0,0,0,0,0,0,0,0,0,-1,622,554,0,0
-595,470,0,0,0,0,0,0,0,0,0,-1,629,554,0,0
-588,470,0,0,0,0,0,0,0,0,0,-1,636,554,0,0
-581,470,0,0,0,0,0,0,0,0,0,-1,643,554,0,0
-574,470,0,0,0,0,0,0,0,0,0,-1,650,554,0,0
-567,470,0,0,0,0,0,0,0,0,0,-1,657,554,0,0
-560,470,0,0,0,0,0,0,0,0,0,-1,664,554,0,0
-553,470,0,0,0,0,0,0,0,0,0,-1,671,554,0,0
-546,470,0,0,0,0,0,0,0,0,0,-1,678,554,0,0
-539,470,0,0,0,0,0,0,0,0,0,-1,685,554,0,0
-532,470,0,0,0,0,0,0,0,0,0,-1,692,554,0,0
-525,470,0,0,0,0,0,0,0,0,0,-1,699,554,0,0
-518,470,0,0,0,0,0,0,0,0,0,-1,706,554,0,0
-511,470,0,0,0,0,0,0,0,0,0,-1,713,554,0,0
-504,470,0,0,0,0,0,0,0,0,0,-1,720,554,0,0
-497,470,0,0,0,0,0,0,0,0,0,-1,727,554,0,0
-490,470,-9.13263,-1.03125,0,0,0,0,0,0,0,-1,734,554,-9.1326,1.03127
-483,470,-7.68677,-1.03955,0,0,0,0,0,0,0,-1,741,554,-7.68678,1.03958
-476,470,-6.17969,-1.03394,0,0,0,0,0,0,0,-1,748,554,-6.17971,1.03395
-469,470,-6.23016,-0.651855,0,0,0,0,0,0,0,-1,755,554,-6.23014,0.651829
-462,470,-4.87915,-1.03705,0,0,0,0,0,0,0,-1,762,554,-4.87914,1.03702
-455,470,-4.14777,-1.37079,0,0,0,0,0,0,0,-1,769,554,-4.14779,1.37078
-448,470,-2.9314,-5.74518,0,0,0,0,0,0,0,-1,776,554,-2.93137,5.74518
-441,470,-8.03943,-19.0135,0,0,0,0,0,0,0,-1,783,554,-8.03942,19.0135
-434,470,-45.1323,-70.0407,0,0,0,0,0,0,0,-1,790,554,-45.1323,70.0407
-427,470,-64.1334,-74.2808,0,0,0,0,0,0,0,-1,797,554,-64.1334,74.2808
-420,470,-65.2042,-79.2512,0.0415582,0.0166043,0.033114,0.0644679,-0.00630539,0.60523,0.0452271,0.0454047,804,554,-65.2042,79.2512
-413,470,-66.5983,-83.9227,0.0410567,0.0128357,0.0347756,0.0644755,-0.0105831,0.592667,0.046911,0.0208036,811,554,-66.5983,83.9227
-406,470,-67.9263,-88.4001,0.0407933,0.00954257,0.0366767,0.0650344,-0.0146985,0.584027,0.0489963,0.0316193,818,554,-67.9263,88.4001
-399,470,-69.0192,-92.8886,0.0407252,0.00676653,0.0387689,0.0660699,-0.0185781,0.578998,0.0513716,0.0481358,825,554,-69.0192,92.8886
-392,470,-70.0636,-97.5016,0.0412529,0.00468078,0.041109,0.0679594,-0.0220257,0.57613,0.0541622,0.0268195,832,554,-70.0636,97.5016
-385,470,-71.3906,-102.103,0.0422571,0.00315292,0.0436268,0.0705128,-0.0251027,0.574734,0.0572413,0.0172518,839,554,-71.3906,102.103
-378,470,-72.6458,-106.548,0.043791,0.00182184,0.0463803,0.073713,-0.0281002,0.572955,0.0607164,0.0223684,846,554,-72.6458,106.548
-371,470,-73.8948,-110.885,0.0458548,0.000670148,0.0491231,0.0773317,-0.0308068,0.569865,0.0643311,0.0199899,853,554,-73.8948,110.885
-364,470,-74.9689,-115.291,0.048591,-0.00024247,0.0521738,0.0817788,-0.0334303,0.566542,0.0684406,0.0209589,860,554,-74.9688,115.291
-357,470,-76.0641,-119.663,0.0516585,-0.00105225,0.0557027,0.0869261,-0.0363199,0.564432,0.0731283,0.0286528,867,554,-76.0641,119.663
-350,470,-77.2145,-123.946,0.0551155,-0.00235157,0.0590464,0.0920485,-0.0392846,0.558953,0.0778383,0.0408121,874,554,-77.2145,123.946
-343,470,-78.3677,-128.614,0,0,0,0,0,0,0,-1,881,554,-78.3678,128.614
-336,470,-14.7072,-46.67,0,0,0,0,0,0,0,-1,888,554,-14.7072,46.67
-329,470,-2.78516,-12.3594,0,0,0,0,0,0,0,-1,895,554,-2.78517,12.3594
-322,470,-2.30829,-11.4527,0,0,0,0,0,0,0,-1,902,554,-2.30827,11.4527
-315,470,-1.04797,-8.29529,0,0,0,0,0,0,0,-1,909,554,-1.04797,8.29526
-308,470,-1.39368,-6.68152,0,0,0,0,0,0,0,-1,916,554,-1.39369,6.68149
-301,470,-0.0340576,3.34888,0,0,0,0,0,0,0,-1,923,554,-0.0340496,-3.3489
-294,470,-1.18378,3.22266,0,0,0,0,0,0,0,-1,930,554,-1.18376,-3.22268
-287,470,-2.15454,3.2204,0,0,0,0,0,0,0,-1,937,554,-2.15452,-3.22037
-280,470,-3.00537,3.099,0,0,0,0,0,0,0,-1,944,554,-3.00536,-3.09898
-273,470,-12.3932,3.65009,0,0,0,0,0,0,0,-1,951,554,-12.3932,-3.65011
-266,470,-11.5706,1.16028,0,0,0,0,0,0,0,-1,958,554,-11.5706,-1.16031
-259,470,-7.50415,-2.77167,0,0,0,0,0,0,0,-1,965,554,-7.50413,2.7717
-252,470,-0.371155,-5.87823,0,0,0,0,0,0,0,-1,972,554,-0.37114,5.87821
-245,470,1.33221,-6.81122,0,0,0,0,0,0,0,-1,979,554,1.33223,6.8112
-238,470,0,0,0,0,0,0,0,0,0,-1,986,554,0,0
-231,470,0,0,0,0,0,0,0,0,0,-1,993,554,0,0
-224,470,0,0,0,0,0,0,0,0,0,-1,1000,554,0,0
-217,470,0,0,0,0,0,0,0,0,0,-1,1007,554,0,0
-210,470,0,0,0,0,0,0,0,0,0,-1,1014,554,0,0
-203,470,0,0,0,0,0,0,0,0,0,-1,1021,554,0,0
-196,470,0,0,0,0,0,0,0,0,0,-1,1028,554,0,0
-189,470,0,0,0,0,0,0,0,0,0,-1,1035,554,0,0
-182,470,0,0,0,0,0,0,0,0,0,-1,1042,554,0,0
-175,470,0,0,0,0,0,0,0,0,0,-1,1049,554,0,0
-168,470,0,0,0,0,0,0,0,0,0,-1,1056,554,0,0
-161,470,0,0,0,0,0,0,0,0,0,-1,1063,554,0,0
-154,470,0,0,0,0,0,0,0,0,0,-1,1070,554,0,0
-147,470,0,0,0,0,0,0,0,0,0,-1,1077,554,0,0
-140,470,0,0,0,0,0,0,0,0,0,-1,1084,554,0,0
-133,470,0,0,0,0,0,0,0,0,0,-1,1091,554,0,0
-126,470,0,0,0,0,0,0,0,0,0,-1,1098,554,0,0
-119,470,0,0,0,0,0,0,0,0,0,-1,1105,554,0,0
-112,470,0,0,0,0,0,0,0,0,0,-1,1112,554,0,0
-105,470,0,0,0,0,0,0,0,0,0,-1,1119,554,0,0
-98,470,0,0,0,0,0,0,0,0,0,-1,1126,554,0,0
-91,470,0,0,0,0,0,0,0,0,0,-1,1133,554,0,0
-84,470,0,0,0,0,0,0,0,0,0,-1,1140,554,0,0
-77,470,0,0,0,0,0,0,0,0,0,-1,1147,554,0,0
-70,470,0,0,0,0,0,0,0,0,0,-1,1154,554,0,0
-63,470,0,0,0,0,0,0,0,0,0,-1,1161,554,0,0
-56,470,0,0,0,0,0,0,0,0,0,-1,1168,554,0,0
-49,470,0,0,0,0,0,0,0,0,0,-1,1175,554,0,0
-42,470,0,0,0,0,0,0,0,0,0,-1,1182,554,0,0
-35,470,0,0,0,0,0,0,0,0,0,-1,1189,554,0,0
-28,470,0,0,0,0,0,0,0,0,0,-1,1196,554,0,0
-21,470,0,0,0,0,0,0,0,0,0,-1,1203,554,0,0
-14,470,0,0,0,0,0,0,0,0,0,-1,1210,554,0,0
-7,470,0,0,0,0,0,0,0,0,0,-1,1217,554,0,0
0,470,0,0,0,0,0,0,0,0,0,-1,1224,554,0,0
7,470,0,0,0,0,0,0,0,0,0,-1,1231,554,0,0
14,470,0,0,0,0,0,0,0,0,0,-1,1238,554,0,0
21,470,0,0,0,0,0,0,0,0,0,-1,1245,554,0,0
28,470,0,0,0,0,0,0,0,0,0,-1,1252,554,0,0
35,470,0,0,0,0,0,0,0,0,0,-1,1259,554,0,0
42,470,0,0,0,0,0,0,0,0,0,-1,1266,554,0,0
49,470,0,0,0,0,0,0,0,0,0,-1,1273,554,0,0
56,470,0,0,0,0,0,0,0,0,0,-1,1280,554,0,0
63,470,0,0,0,0,0,0,0,0,0,-1,1287,554,0,0
70,470,0,0,0,0,0,0,0,0,0,-1,1294,554,0,0
77,470,0,0,0,0,0,0,0,0,0,-1,1301,554,0,0
84,470,0,0,0,0,0,0,0,0,0,-1,1308,554,0,0
91,470,0,0,0,0,0,0,0,0,0,-1,1315,554,0,0
98,470,0,0,0,0,0,0,0,0,0,-1,1322,554,0,0
105,470,0,0,0,0,0,0,0,0,0,-1,1329,554,0,0
112,470,0,0,0,0,0,0,0,0,0,-1,1336,554,0,0
119,470,0,0,0,0,0,0,0,0,0,-1,1343,554,0,0
126,470,0,0,0,0,0,0,0,0,0,-1,1350,554,0,0
133,470,0,0,0,0,0,0,0,0,0,-1,1357,554,0,0
140,470,0,0,0,0,0,0,0,0,0,-1,1364,554,0,0
147,470,0,0,0,0,0,0,0,0,0,-1,1371,554,0,0
154,470,0,0,0,0,0,0,0,0,0,-1,1378,554,0,0
161,470,0,0,0,0,0,0,0,0,0,-1,1385,554,0,0
168,470,0,0,0,0,0,0,0,0,0,-1,1392,554,0,0
175,470,0,0,0,0,0,0,0,0,0,-1,1399,554,0,0
182,470,0,0,0,0,0,0,0,0,0,-1,1406,554,0,0
189,470,0,0,0,0,0,0,0,0,0,-1,1413,554,0,0
196,470,0,0,0,0,0,0,0,0,0,-1,1420,554,0,0
203,470,0,0,0,0,0,0,0,0,0,-1,1427,554,0,0
210,470,0,0,0,0,0,0,0,0,0,-1,1434,554,0,0
217,470,0,0,0,0,0,0,0,0,0,-1,1441,554,0,0
224,470,0,0,0,0,0,0,0,0,0,-1,1448,554,0,0
231,470,0,0,0,0,0,0,0,0,0,-1,1455,554,0,0
238,470,0,0,0,0,0,0,0,0,0,-1,1462,554,0,0
245,470,0,0,0,0,0,0,0,0,0,-1,1469,554,0,0
252,470,0,0,0,0,0,0,0,0,0,-1,1476,554,0,0
259,470,0,0,0,0,0,0,0,0,0,-1,1483,554,0,0
266,470,0,0,0,0,0,0,0,0,0,-1,1490,554,0,0
273,470,0,0,0,0,0,0,0,0,0,-1,1497,554,0,0
280,470,0,0,0,0,0,0,0,0,0,-1,1504,554,0,0
287,470,0,0,0,0,0,0,0,0,0,-1,1511,554,0,0
294,470,0,0,0,0,0,0,0,0,0,-1,1518,554,0,0
301,470,0,0,0,0,0,0,0,0,0,-1,1525,554,0,0
308,470,0,0,0,0,0,0,0,0,0,-1,1532,554,0,0
315,470,0,0,0,0,0,0,0,0,0,-1,1539,554,0,0
322,470,0,0,0,0,0,0,0,0,0,-1,1546,554,0,0
329,470,0,0,0,0,0,0,0,0,0,-1,1553,554,0,0
336,470,0,0,0,0,0,0,0,0,0,-1,1560,554,0,0
343,470,0,0,0,0,0,0,0,0,0,-1,1567,554,0,0
350,470,0,0,0,0,0,0,0,0,0,-1,1574,554,0,0
357,470,0,0,0,0,0,0,0,0,0,-1,1581,554,0,0
364,470,1.33423,0.293335,0,0,0,0,0,0,0,-1,1588,554,1.33422,-0.293348
371,470,2.22498,-0.0305176,0,0,0,0,0,0,0,-1,1595,554,2.22494,0.0305046
378,470,6.27051,0.710083,0,0,0,0,0,0,0,-1,1602,554,6.27054,-0.710093
385,470,10.3657,1.47296,0,0,0,0,0,0,0,-1,1609,554,10.3657,-1.47299
392,470,15.3881,3.01935,0,0,0,0,0,0,0,-1,1616,554,15.388,-3.01937
399,470,18.4479,2.93793,0,0,0,0,0,0,0,-1,1623,554,18.4479,-2.93792
406,470,15.1896,1.36676,0,0,0,0,0,0,0,-1,1630,554,15.1896,-1.36679
413,470,6.55383,1.99207,0,0,0,0,0,0,0,-1,1637,554,6.5538,-1.99208
420,470,4.47095,0.845703,0,0,0,0,0,0,0,-1,1644,554,4.47098,-0.845718
427,470,3.51038,1.19684,0,0,0,0,0,0,0,-1,1651,554,3.51039,-1.19684
434,470,3.31775,-1.37427,0,0,0,0,0,0,0,-1,1658,554,3.31781,1.37426
441,470,2.55457,-2.05902,0,0,0,0,0,0,0,-1,1665,554,2.55461,2.05904
448,470,3.27258,-2.64032,0,0,0,0,0,0,0,-1,1672,554,3.27257,2.64029
455,470,10.3658,-9.82233,0,0,0,0,0,0,0,-1,1679,554,10.3659,9.82233
462,470,11.0651,-11.9958,0,0,0,0,0,0,0,-1,1686,554,11.0651,11.9958
469,470,15.4242,-19.0521,0,0,0,0,0,0,0,-1,1693,554,15.4242,19.0521
476,470,87.6804,-125.185,0,0,0,0,0,0,0,-1,1700,554,87.6804,125.185
483,470,88.1624,-121.206,0,0,0,0,0,0,0,-1,1707,554,88.1624,121.206
490,470,87.2786,-116.579,0.0339447,0.00213498,-0.0597739,0.0798936,-0.0438139,-0.655369,0.072428,0.0324844,1714,554,87.2786,116.579
497,470,85.7749,-112.152,0.0368038,0.00303893,-0.0549128,0.0773708,-0.0375281,-0.636264,0.0676533,0.0324923,1721,554,85.7749,112.152
504,470,84.7761,-107.819,0.0393536,0.00387175,-0.0505654,0.0751999,-0.0319746,-0.616682,0.0635327,0.0289357,1728,554,84.7762,107.819
511,470,83.6075,-103.405,0.0417151,0.00490183,-0.0470659,0.0738456,-0.0272287,-0.599001,0.0603887,0.0303734,1735,554,83.6076,103.405
518,470,82.4418,-98.8391,0.0438012,0.00619476,-0.0443664,0.0731845,-0.0231885,-0.584964,0.0580832,0.0374555,1742,554,82.4417,98.8391
525,470,81.2882,-94.5381,0.0456184,0.00794399,-0.0425367,0.0733023,-0.0197399,-0.576954,0.0566073,0.0305069,1749,554,81.2883,94.5381
532,470,80.0841,-90.1292,0.0471559,0.0102838,-0.0415225,0.0741512,-0.0167115,-0.576471,0.0558444,0.0314009,1756,554,80.0841,90.1292
539,470,78.9875,-85.7521,0.0485816,0.0128857,-0.0415179,0.0759253,-0.0144579,-0.582397,0.0560611,0.0342799,1763,554,78.9875,85.7521
546,470,77.8223,-81.3964,0.0489825,0.0158663,-0.042922,0.0784294,-0.0135807,-0.601308,0.0573517,0.0289886,1770,554,77.8223,81.3964
553,470,76.5233,-77.0034,0,0,0,0,0,0,0,-1,1777,554,76.5233,77.0033
560,470,47.7207,-71.8304,0,0,0,0,0,0,0,-1,1784,554,47.7207,71.8304
567,470,30.5542,-27.1653,0,0,0,0,0,0,0,-1,1791,554,30.5542,27.1653
574,470,30.1276,-24.6316,0,0,0,0,0,0,0,-1,1798,554,30.1275,24.6316
581,470,8.24646,-4.06317,0,0,0,0,0,0,0,-1,1805,554,8.24648,4.06318
588,470,11.1803,1.74927,0,0,0,0,0,0,0,-1,1812,554,11.1803,-1.74926
595,470,4.72192,3.44116,0,0,0,0,0,0,0,-1,1819,554,4.72191,-3.44116
602,470,14.4307,2.76141,0,0,0,0,0,0,0,-1,1826,554,14.4306,-2.76139
609,470,20.9181,4.41058,0,0,0,0,0,0,0,-1,1833,554,20.9181,-4.4106
616,470,0,0,0,0,0,0,0,0,0,-1,1840,554,0,0
623,470,0,0,0,0,0,0,0,0,0,-1,1847,554,0,0
630,470,0,0,0,0,0,0,0,0,0,-1,1854,554,0,0
637,470,0,0,0,0,0,0,0,0,0,-1,1861,554,0,0
644,470,0,0,0,0,0,0,0,0,0,-1,1868,554,0,0
651,470,0,0,0,0,0,0,0,0,0,-1,1875,554,0,0
658,470,0,0,0,0,0,0,0,0,0,-1,1882,554,0,0
665,470,0,0,0,0,0,0,0,0,0,-1,1889,554,0,0
672,470,0,0,0,0,0,0,0,0,0,-1,1896,554,0,0
679,470,0,0,0,0,0,0,0,0,0,-1,1903,554,0,0
686,470,0,0,0,0,0,0,0,0,0,-1,1910,554,0,0
693,470,0,0,0,0,0,0,0,0,0,-1,1917,554,0,0
700,470,0,0,0,0,0,0,0,0,0,-1,1924,554,0,0
707,470,0,0,0,0,0,0,0,0,0,-1,1931,554,0,0
714,470,0,0,0,0,0,0,0,0,0,-1,1938,554,0,0
721,470,0,0,0,0,0,0,0,0,0,-1,1945,554,0,0
728,470,0,0,0,0,0,0,0,0,0,-1,1952,554,0,0
735,470,0,0,0,0,0,0,0,0,0,-1,1959,554,0,0
742,470,0,0,0,0,0,0,0,0,0,-1,1966,554,0,0
749,470,0,0,0,0,0,0,0,0,0,-1,1973,554,0,0
756,470,0,0,0,0,0,0,0,0,0,-1,1980,554,0,0
763,470,0,0,0,0,0,0,0,0,0,-1,1987,554,0,0
770,470,0,0,0,0,0,0,0,0,0,-1,1994,554,0,0
777,470,0,0,0,0,0,0,0,0,0,-1,2001,554,0,0
784,470,0,0,0,0,0,0,0,0,0,-1,2008,554,0,0
791,470,0,0,0,0,0,0,0,0,0,-1,2015,554,0,0
798,470,0,0,0,0,0,0,0,0,0,-1,2022,554,0,0
805,470,0,0,0,0,0,0,0,0,0,-1,2029,554,0,0
812,470,0,0,0,0,0,0,0,0,0,-1,2036,554,0,0
-700,463,0,0,0,0,0,0,0,0,0,-1,524,561,0,0
-693,463,0,0,0,0,0,0,0,0,0,-1,531,561,0,0
-686,463,0,0,0,0,0,0,0,0,0,-1,538,561,0,0
-679,463,0,0,0,0,0,0,0,0,0,-1,545,561,0,0
-672,463,0,0,0,0,0,0,0,0,0,-1,552,561,0,0
-665,463,0,0,0,0,0,0,0,0,0,-1,559,561,0,0
-658,463,0,0,0,0,0,0,0,0,0,-1,566,561,0,0
-651,463,0,0,0,0,0,0,0,0,0,-1,573,561,0,0
-644,463,0,0,0,0,0,0,0,0,0,-1,580,561,0,0
-637,463,0,0,0,0,0,0,0,0,0,-1,587,561,0,0
-630,463,0,0,0,0,0,0,0,0,0,-1,594,561,0,0
-623,463,0,0,0,0,0,0,0,0,0,-1,601,561,0,0
-616,463,0,0,0,0,0,0,0,0,0,-1,608,561,0,0
-609,463,0,0,0,0,0,0,0,0,0,-1,615,561,0,0
-602,463,0,0,0,0,0,0,0,0,0,-1,622,561,0,0
-595,463,0,0,0,0,0,0,0,0,0,-1,629,561,0,0
-588,463,0,0,0,0,0,0,0,0,0,-1,636,561,0,0
-581,463,0,0,0,0,0,0,0,0,0,-1,643,561,0,0
-574,463,0,0,0,0,0,0,0,0,0,-1,650,561,0,0
-567,463,0,0,0,0,0,0,0,0,0,-1,657,561,0,0
-560,463,0,0,0,0,0,0,0,0,0,-1,664,561,0,0
-553,463,0,0,0,0,0,0,0,0,0,-1,671,561,0,0
-546,463,0,0,0,0,0,0,0,0,0,-1,678,561,0,0
-539,463,0,0,0,0,0,0,0,0,0,-1,685,561,0,0
-532,463,0,0,0,0,0,0,0,0,0,-1,692,561,0,0
-525,463,0,0,0,0,0,0,0,0,0,-1,699,561,0,0
-518,463,0,0,0,0,0,0,0,0,0,-1,706,561,0,0
-511,463,0,0,0,0,0,0,0,0,0,-1,713,561,0,0
-504,463,0,0,0,0,0,0,0,0,0,-1,720,561,0,0
-497,463,-9.81451,-1.67126,0,0,0,0,0,0,0,-1,727,561,-9.81452,1.67127
-490,463,-8.57043,-1.58942,0,0,0,0,0,0,0,-1,734,561,-8.57045,1.58944
-483,463,-7.29224,-1.7226,0,0,0,0,0,0,0,-1,741,561,-7.29226,1.72261
-476,463,-5.77704,-1.7312,0,0,0,0,0,0,0,-1,748,561,-5.77703,1.73121
-469,463,-5.14545,-2.138,0,0,0,0,0,0,0,-1,755,561,-5.14546,2.13799
-462,463,-3.13672,-3.07977,0,0,0,0,0,0,0,-1,762,561,-3.13672,3.07974
-455,463,-2.91406,-5.61798,0,0,0,0,0,0,0,-1,769,561,-2.91406,5.61801
-448,463,-4.00177,-8.54681,0,0,0,0,0,0,0,-1,776,561,-4.00175,8.54683
-441,463,-48.1638,-63.7264,0,0,0,0,0,0,0,-1,783,561,-48.1638,63.7264
-434,463,-68.0634,-68.7057,0,0,0,0,0,0,0,-1,790,561,-68.0633,68.7057
-427,463,-68.8971,-73.1794,0.0413884,0.0202433,0.0372623,0.069549,-0.00791733,0.647165,0.0492179,0.0487513,797,561,-68.8971,73.1794
-420,463,-69.9768,-77.6516,0.0409149,0.0163393,0.0383556,0.068903,-0.0116487,0.630382,0.0502701,0.0176274,804,561,-69.9768,77.6516
-413,463,-71.3531,-82.1769,0.040359,0.0127398,0.0396968,0.0685796,-0.0154809,0.618007,0.0516591,0.017101,811,561,-71.3531,82.1769
-406,463,-72.5997,-86.6525,0.040018,0.00956917,0.0412872,0.0687983,-0.0192111,0.608761,0.0534331,0.0279928,818,561,-72.5997,86.6525
-399,463,-73.7363,-91.067,0.0399506,0.00699783,0.043143,0.0696563,-0.0227079,0.602994,0.0555754,0.0318106,825,561,-73.7363,91.067
-392,463,-74.8862,-95.5893,0.0405909,0.00508858,0.0451857,0.0713872,-0.0257077,0.598235,0.0580889,0.0195922,832,561,-74.8862,95.5893
-385,463,-76.1297,-100.149,0.0415882,0.0037384,0.0475335,0.0738257,-0.0284991,0.595948,0.0609787,0.0178293,839,561,-76.1297,100.149
-378,463,-77.3593,-104.665,0.0431607,0.0026211,0.0501887,0.0770183,-0.0312365,0.593479,0.064337,0.0196682,846,561,-77.3593,104.665
-371,463,-78.5641,-109.036,0.0454337,0.00182034,0.0529777,0.0809172,-0.0336632,0.590156,0.0680024,0.0255609,853,561,-78.5642,109.036
-364,463,-79.7554,-113.362,0.0483914,0.00137161,0.0560399,0.0856531,-0.0358901,0.586788,0.0721069,0.0351613,860,561,-79.7554,113.362
-357,463,-80.9713,-117.741,0,0,0,0,0,0,0,-1,867,561,-80.9713,117.741
-350,463,-82.2477,-122.152,0,0,0,0,0,0,0,-1,874,561,-82.2477,122.152
-343,463,-21.5904,-55.3489,0,0,0,0,0,0,0,-1,881,561,-21.5904,55.3489
-336,463,-2.94928,-12.2127,0,0,0,0,0,0,0,-1,888,561,-2.94925,12.2127
-329,463,-2.64307,-12.7037,0,0,0,0,0,0,0,-1,895,561,-2.64307,12.7038
-322,463,-1.82898,-9.11957,0,0,0,0,0,0,0,-1,902,561,-1.829,9.11957
-315,463,-0.944763,-5.96234,0,0,0,0,0,0,0,-1,909,561,-0.94479,5.96237
-308,463,-1.1535,-3.17889,0,0,0,0,0,0,0,-1,916,561,-1.15352,3.17889
-301,463,-1.50366,-3.15338,0,0,0,0,0,0,0,-1,923,561,-1.50364,3.15341
-294,463,-2.35889,-3.93463,0,0,0,0,0,0,0,-1,930,561,-2.35886,3.93465
-287,463,-2.80322,2.73999,0,0,0,0,0,0,0,-1,937,561,-2.80322,-2.74
-280,463,-12.864,5.25146,0,0,0,0,0,0,0,-1,944,561,-12.864,-5.25149
-273,463,-12.4598,3.39178,0,0,0,0,0,0,0,-1,951,561,-12.4598,-3.3918
-266,463,-8.78101,-3.7356,0,0,0,0,0,0,0,-1,958,561,-8.78098,3.73562
-259,463,-6.23285,-5.68842,0,0,0,0,0,0,0,-1,965,561,-6.23288,5.68843
-252,463,0,0,0,0,0,0,0,0,0,-1,972,561,0,0
-245,463,0,0,0,0,0,0,0,0,0,-1,979,561,0,0
-238,463,0,0,0,0,0,0,0,0,0,-1,986,561,0,0
-231,463,0,0,0,0,0,0,0,0,0,-1,993,561,0,0
-224,463,0,0,0,0,0,0,0,0,0,-1,1000,561,0,0
-217,463,0,0,0,0,0,0,0,0,0,-1,1007,561,0,0
-210,463,0,0,0,0,0,0,0,0,0,-1,1014,561,0,0
-203,463,0,0,0,0,0,0,0,0,0,-1,1021,561,0,0
-196,463,0,0,0,0,0,0,0,0,0,-1,1028,561,0,0
-189,463,0,0,0,0,0,0,0,0,0,-1,1035,561,0,0
-182,463,0,0,0,0,0,0,0,0,0,-1,1042,561,0,0
-175,463,0,0,0,0,0,0,0,0,0,-1,1049,561,0,0
-168,463,0,0,0,0,0,0,0,0,0,-1,1056,561,0,0
-161,463,0,0,0,0,0,0,0,0,0,-1,1063,561,0,0
-154,463,0,0,0,0,0,0,0,0,0,-1,1070,561,0,0
-147,463,0,0,0,0,0,0,0,0,0,-1,1077,561,0,0
-140,463,0,0,0,0,0,0,0,0,0,-1,1084,561,0,0
-133,463,0,0,0,0,0,0,0,0,0,-1,1091,561,0,0
-126,463,0,0,0,0,0,0,0,0,0,-1,1098,561,0,0
-119,463,0,0,0,0,0,0,0,0,0,-1,1105,561,0,0
-112,463,0,0,0,0,0,0,0,0,0,-1,1112,561,0,0
-105,463,0,0,0,0,0,0,0,0,0,-1,1119,561,0,0
-98,463,0,0,0,0,0,0,0,0,0,-1,1126,561,0,0
-91,463,0,0,0,0,0,0,0,0,0,-1,1133,561,0,0
-84,463,0,0,0,0,0,0,0,0,0,-1,1140,561,0,0
-77,463,0,0,0,0,0,0,0,0,0,-1,1147,561,0,0
-70,463,0,0,0,0,0,0,0,0,0,-1,1154,561,0,0
-63,463,0,0,0,0,0,0,0,0,0,-1,1161,561,0,0
-56,463,0,0,0,0,0,0,0,0,0,-1,1168,561,0,0
-49,463,0,0,0,0,0,0,0,0,0,-1,1175,561,0,0
-42,463,0,0,0,0,0,0,0,0,0,-1,1182,561,0,0
-35,463,0,0,0,0,0,0,0,0,0,-1,1189,561,0,0
-28,463,0,0,0,0,0,0,0,0,0,-1,1196,561,0,0
-21,463,0,0,0,0,0,0,0,0,0,-1,1203,561,0,0
-14,463,0,0,0,0,0,0,0,0,0,-1,1210,561,0,0
-7,463,0,0,0,0,0,0,0,0,0,-1,1217,561,0,0
0,463,0,0,0,0,0,0,0,0,0,-1,1224,561,0,0
7,463,0,0,0,0,0,0,0,0,0,-1,1231,561,0,0
14,463,0,0,0,0,0,0,0,0,0,-1,1238,561,0,0
21,463,0,0,0,0,0,0,0,0,0,-1,1245,561,0,0
28,463,0,0,0,0,0,0,0,0,0,-1,1252,561,0,0
35,463,0,0,0,0,0,0,0,0,0,-1,1259,561,0,0
42,463,0,0,0,0,0,0,0,0,0,-1,1266,561,0,0
49,463,0,0,0,0,0,0,0,0,0,-1,1273,561,0,0
56,463,0,0,0,0,0,0,0,0,0,-1,1280,561,0,0
63,463,0,0,0,0,0,0,0,0,0,-1,1287,561,0,0
70,463,0,0,0,0,0,0,0,0,0,-1,1294,561,0,0
77,463,0,0,0,0,0,0,0,0,0,-1,1301,561,0,0
84,463,0,0,0,0,0,0,0,0,0,-1,1308,561,0,0
91,463,0,0,0,0,0,0,0,0,0,-1,1315,561,0,0
98,463,0,0,0,0,0,0,0,0,0,-1,1322,561,0,0
105,463,0,0,0,0,0,0,0,0,0,-1,1329,561,0,0
112,463,0,0,0,0,0,0,0,0,0,-1,1336,561,0,0
119,463,0,0,0,0,0,0,0,0,0,-1,1343,561,0,0
126,463,0,0,0,0,0,0,0,0,0,-1,1350,561,0,0
133,463,0,0,0,0,0,0,0,0,0,-1,1357,561,0,0
140,463,0,0,0,0,0,0,0,0,0,-1,1364,561,0,0
147,463,0,0,0,0,0,0,0,0,0,-1,1371,561,0,0
154,463,0,0,0,0,0,0,0,0,0,-1,1378,561,0,0
161,463,0,0,0,0,0,0,0,0,0,-1,1385,561,0,0
168,463,0,0,0,0,0,0,0,0,0,-1,1392,561,0,0
175,463,0,0,0,0,0,0,0,0,0,-1,1399,561,0,0
182,463,0,0,0,0,0,0,0,0,0,-1,1406,561,0,0
189,463,0,0,0,0,0,0,0,0,0,-1,1413,561,0,0
196,463,0,0,0,0,0,0,0,0,0,-1,1420,561,0,0
203,463,0,0,0,0,0,0,0,0,0,-1,1427,561,0,0
210,463,0,0,0,0,0,0,0,0,0,-1,1434,561,0,0
217,463,0,0,0,0,0,0,0,0,0,-1,1441,561,0,0
224,463,0,0,0,0,0,0,0,0,0,-1,1448,561,0,0
231,463,0,0,0,0,0,0,0,0,0,-1,1455,561,0,0
238,463,0,0,0,0,0,0,0,0,0,-1,1462,561,0,0
245,463,0,0,0,0,0,0,0,0,0,-1,1469,561,0,0
252,463,0,0,0,0,0,0,0,0,0,-1,1476,561,0,0
259,463,0,0,0,0,0,0,0,0,0,-1,1483,561,0,0
266,463,0,0,0,0,0,0,0,0,0,-1,1490,561,0,0
273,463,0,0,0,0,0,0,0,0,0,-1,1497,561,0,0
280,463,0,0,0,0,0,0,0,0,0,-1,1504,561,0,0
287,463,0,0,0,0,0,0,0,0,0,-1,1511,561,0,0
294,463,0,0,0,0,0,0,0,0,0,-1,1518,561,0,0
301,463,0,0,0,0,0,0,0,0,0,-1,1525,561,0,0
308,463,0,0,0,0,0,0,0,0,0,-1,1532,561,0,0
315,463,0,0,0,0,0,0,0,0,0,-1,1539,561,0,0
322,463,0,0,0,0,0,0,0,0,0,-1,1546,561,0,0
329,463,0,0,0,0,0,0,0,0,0,-1,1553,561,0,0
336,463,0,0,0,0,0,0,0,0,0,-1,1560,561,0,0
343,463,0,0,0,0,0,0,0,0,0,-1,1567,561,0,0
350,463,0,0,0,0,0,0,0,0,0,-1,1574,561,0,0
357,463,0,0,0,0,0,0,0,0,0,-1,1581,561,0,0
364,463,0,0,0,0,0,0,0,0,0,-1,1588,561,0,0
371,463,1.75842,0.152588,0,0,0,0,0,0,0,-1,1595,561,1.75844,-0.152558
378,463,4.58813,-0.0444336,0,0,0,0,0,0,0,-1,1602,561,4.58809,0.0444505
385,463,8.88574,1.65057,0,0,0,0,0,0,0,-1,1609,561,8.88575,-1.65055
392,463,14.0912,2.50513,0,0,0,0,0,0,0,-1,1616,561,14.0912,-2.5051
399,463,21.4769,2.7002,0,0,0,0,0,0,0,-1,1623,561,21.477,-2.70017
406,463,26.2987,4.32318,0,0,0,0,0,0,0,-1,1630,561,26.2987,-4.3232
413,463,26.5011,2.65222,0,0,0,0,0,0,0,-1,1637,561,26.5011,-2.65224
420,463,8.849,2.26611,0,0,0,0,0,0,0,-1,1644,561,8.84899,-2.26613
427,463,5.12207,1.69183,0,0,0,0,0,0,0,-1,1651,561,5.12206,-1.69184
434,463,4.59814,1.81995,0,0,0,0,0,0,0,-1,1658,561,4.59812,-1.81994
441,463,1.76392,-5.99225,0,0,0,0,0,0,0,-1,1665,561,1.7639,5.99225
448,463,2.49939,-4.30536,0,0,0,0,0,0,0,-1,1672,561,2.49941,4.30536
455,463,4.40295,-3.02557,0,0,0,0,0,0,0,-1,1679,561,4.40299,3.02558
462,463,5.38293,-4.06445,0,0,0,0,0,0,0,-1,1686,561,5.38289,4.06444
469,463,5.94373,-4.50647,0,0,0,0,0,0,0,-1,1693,561,5.94368,4.50646
476,463,15.2559,-17.3189,0,0,0,0,0,0,0,-1,1700,561,15.2558,17.3189
483,463,94.4855,-118.297,0,0,0,0,0,0,0,-1,1707,561,94.4855,118.297
490,463,92.5785,-114.192,0.0262793,0.000743584,-0.0647639,0.0795219,-0.052499,-0.688074,0.0767527,0.041882,1714,561,92.5785,114.192
497,463,90.7401,-110.102,0.0305647,0.00191931,-0.0591289,0.0770809,-0.0445969,-0.666573,0.0710803,0.0372173,1721,561,90.7401,110.102
504,463,89.4487,-105.914,0.0341063,0.00283494,-0.0542526,0.0749314,-0.0379902,-0.6451,0.066348,0.0260224,1728,561,89.4487,105.914
511,463,88.254,-101.517,0.0371488,0.00383484,-0.0502828,0.0734618,-0.0324781,-0.625454,0.0626715,0.0284192,1735,561,88.254,101.517
518,463,87.0793,-97.0223,0.039781,0.0051094,-0.0473265,0.0728468,-0.0279565,-0.609837,0.0600917,0.0355216,1742,561,87.0793,97.0223
525,463,85.8284,-92.7283,0.0420035,0.00673784,-0.0453665,0.0730434,-0.0243021,-0.600045,0.0585037,0.036161,1749,561,85.8284,92.7282
532,463,84.876,-88.3502,0.0437907,0.00894132,-0.0442671,0.0739391,-0.0212071,-0.597898,0.0576763,0.0361568,1756,561,84.876,88.3501
539,463,83.7987,-83.9741,0.0451914,0.0112341,-0.0441005,0.0754688,-0.0190433,-0.601644,0.0577172,0.0410759,1763,561,83.7987,83.974
546,463,82.5642,-79.7095,0.0458346,0.0137219,-0.0450408,0.0775954,-0.0180389,-0.614178,0.0586749,0.0283801,1770,561,82.5642,79.7095
553,463,81.2419,-75.3298,0.0462577,0.0162351,-0.0466586,0.0802603,-0.0177675,-0.629764,0.0603082,0.017431,1777,561,81.242,75.3298
560,463,80.0869,-70.9805,0,0,0,0,0,0,0,-1,1784,561,80.0869,70.9805
567,463,77.4862,-66.1777,0,0,0,0,0,0,0,-1,1791,561,77.4863,66.1777
574,463,32.9689,-27.5378,0,0,0,0,0,0,0,-1,1798,561,32.9689,27.5379
581,463,9.4939,-3.88245,0,0,0,0,0,0,0,-1,1805,561,9.49392,3.88245
588,463,1.97424,2.16016,0,0,0,0,0,0,0,-1,1812,561,1.97422,-2.16013
595,463,9.98657,2.99854,0,0,0,0,0,0,0,-1,1819,561,9.98662,-2.99856
602,463,17.2202,4.91302,0,0,0,0,0,0,0,-1,1826,561,17.2202,-4.91305
609,463,17.96,4.03131,0,0,0,0,0,0,0,-1,1833,561,17.96,-4.03132
616,463,20.8352,3.15131,0,0,0,0,0,0,0,-1,1840,561,20.8352,-3.1513
623,463,0,0,0,0,0,0,0,0,0,-1,1847,561,0,0
630,463,0,0,0,0,0,0,0,0,0,-1,1854,561,0,0
637,463,0,0,0,0,0,0,0,0,0,-1,1861,561,0,0
644,463,0,0,0,0,0,0,0,0,0,-1,1868,561,0,0
651,463,0,0,0,0,0,0,0,0,0,-1,1875,561,0,0
658,463,0,0,0,0,0,0,0,0,0,-1,1882,561,0,0
665,463,0,0,0,0,0,0,0,0,0,-1,1889,561,0,0
672,463,0,0,0,0,0,0,0,0,0,-1,1896,561,0,0
679,463,0,0,0,0,0,0,0,0,0,-1,1903,561,0,0
686,463,0,0,0,0,0,0,0,0,0,-1,1910,561,0,0
693,463,0,0,0,0,0,0,0,0,0,-1,1917,561,0,0
700,463,0,0,0,0,0,0,0,0,0,-1,1924,561,0,0
707,463,0,0,0,0,0,0,0,0,0,-1,1931,561,0,0
714,463,0,0,0,0,0,0,0,0,0,-1,1938,561,0,0
721,463,0,0,0,0,0,0,0,0,0,-1,1945,561,0,0
728,463,0,0,0,0,0,0,0,0,0,-1,1952,561,0,0
735,463,0,0,0,0,0,0,0,0,0,-1,1959,561,0,0
742,463,0,0,0,0,0,0,0,0,0,-1,1966,561,0,0
749,463,0,0,0,0,0,0,0,0,0,-1,1973,561,0,0
756,463,0,0,0,0,0,0,0,0,0,-1,1980,561,0,0
763,463,0,0,0,0,0,0,0,0,0,-1,1987,561,0,0
770,463,0,0,0,0,0,0,0,0,0,-1,1994,561,0,0
777,463,0,0,0,0,0,0,0,0,0,-1,2001,561,0,0
784,463,0,0,0,0,0,0,0,0,0,-1,2008,561,0,0
791,463,0,0,0,0,0,0,0,0,0,-1,2015,561,0,0
798,463,0,0,0,0,0,0,0,0,0,-1,2022,561,0,0
805,463,0,0,0,0,0,0,0,0,0,-1,2029,561,0,0
812,463,0,0,0,0,0,0,0,0,0,-1,2036,561,0,0
-700,456,0,0,0,0,0,0,0,0,0,-1,524,568,0,0
-693,456,0,0,0,0,0,0,0,0,0,-1,531,568,0,0
-686,456,0,0,0,0,0,0,0,0,0,-1,538,568,0,0
-679,456,0,0,0,0,0,0,0,0,0,-1,545,568,0,0
-672,456,0,0,0,0,0,0,0,0,0,-1,552,568,0,0
-665,456,0,0,0,0,0,0,0,0,0,-1,559,568,0,0
-658,456,0,0,0,0,0,0,0,0,0,-1,566,568,0,0
-651,456,0,0,0,0,0,0,0,0,0,-1,573,568,0,0
-644,456,0,0,0,0,0,0,0,0,0,-1,580,568,0,0
-637,456,0,0,0,0,0,0,0,0,0,-1,587,568,0,0
-630,456,0,0,0,0,0,0,0,0,0,-1,594,568,0,0
-623,456,0,0,0,0,0,0,0,0,0,-1,601,568,0,0
-616,456,0,0,0,0,0,0,0,0,0,-1,608,568,0,0
-609,456,0,0,0,0,0,0,0,0,0,-1,615,568,0,0
-602,456,0,0,0,0,0,0,0,0,0,-1,622,568,0,0
-595,456,0,0,0,0,0,0,0,0,0,-1,629,568,0,0
-588,456,0,0,0,0,0,0,0,0,0,-1,636,568,0,0
-581,456,0,0,0,0,0,0,0,0,0,-1,643,568,0,0
-574,456,0,0,0,0,0,0,0,0,0,-1,650,568,0,0
-567,456,0,0,0,0,0,0,0,0,0,-1,657,568,0,0
-560,456,0,0,0,0,0,0,0,0,0,-1,664,568,0,0
-553,456,0,0,0,0,0,0,0,0,0,-1,671,568,0,0
-546,456,0,0,0,0,0,0,0,0,0,-1,678,568,0,0
-539,456,0,0,0,0,0,0,0,0,0,-1,685,568,0,0
-532,456,0,0,0,0,0,0,0,0,0,-1,692,568,0,0
-525,456,0,0,0,0,0,0,0,0,0,-1,699,568,0,0
-518,456,0,0,0,0,0,0,0,0,0,-1,706,568,0,0
-511,456,0,0,0,0,0,0,0,0,0,-1,713,568,0,0
-504,456,-10.3994,-2.34839,0,0,0,0,0,0,0,-1,720,568,-10.3994,2.3484
-497,456,-9.21375,-2.38068,0,0,0,0,0,0,0,-1,727,568,-9.21372,2.38069
-490,456,-8.09058,-2.31824,0,0,0,0,0,0,0,-1,734,568,-8.09057,2.31821
-483,456,-6.66119,-2.24329,0,0,0,0,0,0,0,-1,741,568,-6.66121,2.24331
-476,456,-5.1499,-2.21185,0,0,0,0,0,0,0,-1,748,568,-5.14992,2.21184
-469,456,-2.81238,-3.51501,0,0,0,0,0,0,0,-1,755,568,-2.81237,3.51501
-462,456,-4.2431,-5.27478,0,0,0,0,0,0,0,-1,762,568,-4.24312,5.27476
-455,456,-5.98364,-8.72119,0,0,0,0,0,0,0,-1,769,568,-5.98364,8.72122
-448,456,-10.723,-19.1761,0,0,0,0,0,0,0,-1,776,568,-10.723,19.1761
-441,456,-70.5778,-61.6143,0,0,0,0,0,0,0,-1,783,568,-70.5777,61.6143
-434,456,-72.6371,-67.0894,0,0,0,0,0,0,0,-1,790,568,-72.6371,67.0894
-427,456,-73.6215,-71.4863,0.0400438,0.0200488,0.0414791,0.0727132,-0.0126206,0.667141,0.0531838,0.0302846,797,568,-73.6215,71.4863
-420,456,-74.8028,-75.9179,0.0394257,0.0162438,0.0422943,0.0716886,-0.016019,0.651655,0.053931,0.0164756,804,568,-74.8028,75.9179
-413,456,-76.1699,-80.393,0.0388339,0.0128337,0.0434263,0.0711642,-0.0194966,0.639964,0.0551036,0.0241183,811,568,-76.1699,80.393
-406,456,-77.4359,-84.8242,0.0384529,0.00987041,0.0448526,0.0712361,-0.0229128,0.63117,0.0566933,0.0279089,818,568,-77.4359,84.8242
-399,456,-78.5475,-89.1456,0.038369,0.00760279,0.0466117,0.0720704,-0.0260987,0.626013,0.058713,0.0261153,825,568,-78.5476,89.1456
-392,456,-79.6374,-93.6286,0.0390176,0.00595339,0.0484924,0.0737185,-0.0287475,0.621116,0.0610284,0.0174023,832,568,-79.6374,93.6286
-385,456,-80.8695,-98.177,0.0399153,0.00484132,0.0507619,0.0760842,-0.0313275,0.619079,0.0637834,0.0164941,839,568,-80.8695,98.177
-378,456,-82.2905,-102.79,0.0413688,0.00402212,0.0534141,0.0792795,-0.0338886,0.617241,0.0670666,0.0257359,846,568,-82.2905,102.79
-371,456,-83.6569,-107.444,0,0,0,0,0,0,0,-1,853,568,-83.6569,107.444
-364,456,-84.6624,-111.188,0,0,0,0,0,0,0,-1,860,568,-84.6624,111.188
-357,456,-53.2725,-110.042,0,0,0,0,0,0,0,-1,867,568,-53.2725,110.042
-350,456,-24.6786,-56.8698,0,0,0,0,0,0,0,-1,874,568,-24.6786,56.8698
-343,456,-3.39081,-12.0217,0,0,0,0,0,0,0,-1,881,568,-3.39078,12.0217
-336,456,-3.04517,-12.4623,0,0,0,0,0,0,0,-1,888,568,-3.04519,12.4624
-329,456,-1.06183,-10.7184,0,0,0,0,0,0,0,-1,895,568,-1.06184,10.7184
-322,456,-0.662537,-7.66632,0,0,0,0,0,0,0,-1,902,568,-0.662564,7.66633
-315,456,-0.675476,-3.38397,0,0,0,0,0,0,0,-1,909,568,-0.675473,3.38399
-308,456,-1.1618,-3.15314,0,0,0,0,0,0,0,-1,916,568,-1.16178,3.15314
-301,456,-1.83551,-3.26447,0,0,0,0,0,0,0,-1,923,568,-1.8355,3.26449
-294,456,-2.93414,-3.35449,0,0,0,0,0,0,0,-1,930,568,-2.93413,3.35451
-287,456,-3.7569,-3.53101,0,0,0,0,0,0,0,-1,937,568,-3.75692,3.53101
-280,456,-13.072,4.52856,0,0,0,0,0,0,0,-1,944,568,-13.072,-4.52855
-273,456,-8.26538,-6.66748,0,0,0,0,0,0,0,-1,951,568,-8.26536,6.66745
-266,456,-5.71527,-9.36884,0,0,0,0,0,0,0,-1,958,568,-5.71529,9.36885
-259,456,0,0,0,0,0,0,0,0,0,-1,965,568,0,0
-252,456,0,0,0,0,0,0,0,0,0,-1,972,568,0,0
-245,456,0,0,0,0,0,0,0,0,0,-1,979,568,0,0
-238,456,0,0,0,0,0,0,0,0,0,-1,986,568,0,0
-231,456,0,0,0,0,0,0,0,0,0,-1,993,568,0,0
-224,456,0,0,0,0,0,0,0,0,0,-1,1000,568,0,0
-217,456,0,0,0,0,0,0,0,0,0,-1,1007,568,0,0
-210,456,0,0,0,0,0,0,0,0,0,-1,1014,568,0,0
-203,456,0,0,0,0,0,0,0,0,0,-1,1021,568,0,0
-196,456,0,0,0,0,0,0,0,0,0,-1,1028,568,0,0
-189,456,0,0,0,0,0,0,0,0,0,-1,1035,568,0,0
-182,456,0,0,0,0,0,0,0,0,0,-1,1042,568,0,0
-175,456,0,0,0,0,0,0,0,0,0,-1,1049,568,0,0
-168,456,0,0,0,0,0,0,0,0,0,-1,1056,568,0,0
-161,456,0,0,0,0,0,0,0,0,0,-1,1063,568,0,0
-154,456,0,0,0,0,0,0,0,0,0,-1,1070,568,0,0
-147,456,0,0,0,0,0,0,0,0,0,-1,1077,568,0,0
-140,456,0,0,0,0,0,0,0,0,0,-1,1084,568,0,0
-133,456,0,0,0,0,0,0,0,0,0,-1,1091,568,0,0
-126,456,0,0,0,0,0,0,0,0,0,-1,1098,568,0,0
-119,456,0,0,0,0,0,0,0,0,0,-1,1105,568,0,0
-112,456,0,0,0,0,0,0,0,0,0,-1,1112,568,0,0
-105,456,0,0,0,0,0,0,0,0,0,-1,1119,568,0,0
-98,456,0,0,0,0,0,0,0,0,0,-1,1126,568,0,0
-91,456,0,0,0,0,0,0,0,0,0,-1,1133,568,0,0
-84,456,0,0,0,0,0,0,0,0,0,-1,1140,568,0,0
-77,456,0,0,0,0,0,0,0,0,0,-1,1147,568,0,0
-70,456,0,0,0,0,0,0,0,0,0,-1,1154,568,0,0
-63,456,0,0,0,0,0,0,0,0,0,-1,1161,568,0,0
-56,456,0,0,0,0,0,0,0,0,0,-1,1168,568,0,0
-49,456,0,0,0,0,0,0,0,0,0,-1,1175,568,0,0
-42,456,0,0,0,0,0,0,0,0,0,-1,1182,568,0,0
-35,456,0,0,0,0,0,0,0,0,0,-1,1189,568,0,0
-28,456,0,0,0,0,0,0,0,0,0,-1,1196,568,0,0
-21,456,0,0,0,0,0,0,0,0,0,-1,1203,568,0,0
-14,456,0,0,0,0,0,0,0,0,0,-1,1210,568,0,0
-7,456,0,0,0,0,0,0,0,0,0,-1,1217,568,0,0
0,456,0,0,0,0,0,0,0,0,0,-1,1224,568,0,0
7,456,0,0,0,0,0,0,0,0,0,-1,1231,568,0,0
14,456,0,0,0,0,0,0,0,0,0,-1,1238,568,0,0
21,456,0,0,0,0,0,0,0,0,0,-1,1245,568,0,0
28,456,0,0,0,0,0,0,0,0,0,-1,1252,568,0,0
35,456,0,0,0,0,0,0,0,0,0,-1,1259,568,0,0
42,456,0,0,0,0,0,0,0,0,0,-1,1266,568,0,0
49,456,0,0,0,0,0,0,0,0,0,-1,1273,568,0,0
56,456,0,0,0,0,0,0,0,0,0,-1,1280,568,0,0
63,456,0,0,0,0,0,0,0,0,0,-1,1287,568,0,0
70,456,0,0,0,0,0,0,0,0,0,-1,1294,568,0,0
77,456,0,0,0,0,0,0,0,0,0,-1,1301,568,0,0
84,456,0,0,0,0,0,0,0,0,0,-1,1308,568,0,0
91,456,0,0,0,0,0,0,0,0,0,-1,1315,568,0,0
98,456,0,0,0,0,0,0,0,0,0,-1,1322,568,0,0
105,456,0,0,0,0,0,0,0,0,0,-1,1329,568,0,0
112,456,0,0,0,0,0,0,0,0,0,-1,1336,568,0,0
119,456,0,0,0,0,0,0,0,0,0,-1,1343,568,0,0
126,456,0,0,0,0,0,0,0,0,0,-1,1350,568,0,0
133,456,0,0,0,0,0,0,0,0,0,-1,1357,568,0,0
140,456,0,0,0,0,0,0,0,0,0,-1,1364,568,0,0
147,456,0,0,0,0,0,0,0,0,0,-1,1371,568,0,0
154,456,0,0,0,0,0,0,0,0,0,-1,1378,568,0,0
161,456,0,0,0,0,0,0,0,0,0,-1,1385,568,0,0
168,456,0,0,0,0,0,0,0,0,0,-1,1392,568,0,0
175,456,0,0,0,0,0,0,0,0,0,-1,1399,568,0,0
182,456,0,0,0,0,0,0,0,0,0,-1,1406,568,0,0
189,456,0,0,0,0,0,0,0,0,0,-1,1413,568,0,0
196,456,0,0,0,0,0,0,0,0,0,-1,1420,568,0,0
203,456,0,0,0,0,0,0,0,0,0,-1,1427,568,0,0
210,456,0,0,0,0,0,0,0,0,0,-1,1434,568,0,0
217,456,0,0,0,0,0,0,0,0,0,-1,1441,568,0,0
224,456,0,0,0,0,0,0,0,0,0,-1,1448,568,0,0
231,456,0,0,0,0,0,0,0,0,0,-1,1455,568,0,0
238,456,0,0,0,0,0,0,0,0,0,-1,1462,568,0,0
245,456,0,0,0,0,0,0,0,0,0,-1,1469,568,0,0
252,456,0,0,0,0,0,0,0,0,0,-1,1476,568,0,0
259,456,0,0,0,0,0,0,0,0,0,-1,1483,568,0,0
266,456,0,0,0,0,0,0,0,0,0,-1,1490,568,0,0
273,456,0,0,0,0,0,0,0,0,0,-1,1497,568,0,0
280,456,0,0,0,0,0,0,0,0,0,-1,1504,568,0,0
287,456,0,0,0,0,0,0,0,0,0,-1,1511,568,0,0
294,456,0,0,0,0,0,0,0,0,0,-1,1518,568,0,0
301,456,0,0,0,0,0,0,0,0,0,-1,1525,568,0,0
308,456,0,0,0,0,0,0,0,0,0,-1,1532,568,0,0
315,456,0,0,0,0,0,0,0,0,0,-1,1539,568,0,0
322,456,0,0,0,0,0,0,0,0,0,-1,1546,568,0,0
329,456,0,0,0,0,0,0,0,0,0,-1,1553,568,0,0
336,456,0,0,0,0,0,0,0,0,0,-1,1560,568,0,0
343,456,0,0,0,0,0,0,0,0,0,-1,1567,568,0,0
350,456,0,0,0,0,0,0,0,0,0,-1,1574,568,0,0
357,456,0,0,0,0,0,0,0,0,0,-1,1581,568,0,0
364,456,0,0,0,0,0,0,0,0,0,-1,1588,568,0,0
371,456,0,0,0,0,0,0,0,0,0,-1,1595,568,0,0
378,456,0,0,0,0,0,0,0,0,0,-1,1602,568,0,0
385,456,5.66284,0.660645,0,0,0,0,0,0,0,-1,1609,568,5.66285,-0.660615
392,456,17.5027,4.32971,0,0,0,0,0,0,0,-1,1616,568,17.5026,-4.32971
399,456,24.1917,5.99652,0,0,0,0,0,0,0,-1,1623,568,24.1916,-5.99651
406,456,24.446,4.53003,0,0,0,0,0,0,0,-1,1630,568,24.446,-4.53005
413,456,24.9418,2.90521,0,0,0,0,0,0,0,-1,1637,568,24.9418,-2.90524
420,456,25.3048,1.04712,0,0,0,0,0,0,0,-1,1644,568,25.3048,-1.04713
427,456,6.21375,2.02905,0,0,0,0,0,0,0,-1,1651,568,6.21372,-2.02904
434,456,3.0719,-4.86285,0,0,0,0,0,0,0,-1,1658,568,3.07184,4.86287
441,456,2.90344,-4.70459,0,0,0,0,0,0,0,-1,1665,568,2.90346,4.7046
448,456,3.06995,-4.93689,0,0,0,0,0,0,0,-1,1672,568,3.06991,4.93687
455,456,3.46582,-3.43701,0,0,0,0,0,0,0,-1,1679,568,3.46585,3.43698
462,456,4.68445,-4.45831,0,0,0,0,0,0,0,-1,1686,568,4.68439,4.45833
469,456,4.93201,-2.289,0,0,0,0,0,0,0,-1,1693,568,4.93197,2.28903
476,456,4.8363,-2.79364,0,0,0,0,0,0,0,-1,1700,568,4.83636,2.79363
483,456,12.8522,-13.692,0,0,0,0,0,0,0,-1,1707,568,12.8522,13.6919
490,456,97.8201,-111.921,0,0,0,0,0,0,0,-1,1714,568,97.8201,111.921
497,456,95.7755,-108.2,0,0,0,0,0,0,0,-1,1721,568,95.7755,108.2
504,456,94.2054,-104.067,0.0277313,0.00246801,-0.0569321,0.0734162,-0.0432169,-0.676231,0.0680864,0.0270384,1728,568,94.2054,104.067
511,456,93.0148,-99.7016,0.0317122,0.00336255,-0.0525134,0.0719302,-0.0368555,-0.653576,0.0638864,0.0201742,1735,568,93.0148,99.7016
518,456,91.8113,-95.2932,0.0351023,0.0046353,-0.049342,0.0715088,-0.0317712,-0.635673,0.0610823,0.023761,1742,568,91.8112,95.2932
525,456,90.6012,-90.9572,0.0378396,0.00615031,-0.0472176,0.0718002,-0.0278102,-0.623518,0.05935,0.0265052,1749,568,90.6012,90.9572
532,456,89.4214,-86.4796,0.0399751,0.00817351,-0.0459805,0.0727265,-0.0245779,-0.618927,0.0584264,0.034202,1756,568,89.4213,86.4796
539,456,88.3783,-82.0386,0,0,0,0,0,0,0,-1,1763,568,88.3784,82.0386
546,456,87.272,-78.0765,0,0,0,0,0,0,0,-1,1770,568,87.272,78.0765
553,456,85.949,-73.6496,0.0432358,0.0147702,-0.0474845,0.0785747,-0.0205687,-0.639791,0.0604179,0.0250213,1777,568,85.949,73.6496
560,456,85.0663,-69.4056,0.0442118,0.0171111,-0.049229,0.0817213,-0.0203984,-0.651098,0.0624017,0.0232318,1784,568,85.0663,69.4056
567,456,84.479,-65.1979,0,0,0,0,0,0,0,-1,1791,568,84.479,65.1979
574,456,81.4016,-60.7692,0,0,0,0,0,0,0,-1,1798,568,81.4016,60.7692
581,456,16.2228,-9.08563,0,0,0,0,0,0,0,-1,1805,568,16.2228,9.08562
588,456,5.23901,-0.0901489,0,0,0,0,0,0,0,-1,1812,568,5.23906,0.0901656
595,456,6.90063,3.14886,0,0,0,0,0,0,0,-1,1819,568,6.90066,-3.14887
602,456,16.894,4.10938,0,0,0,0,0,0,0,-1,1826,568,16.8941,-4.1094
609,456,14.9966,3.5708,0,0,0,0,0,0,0,-1,1833,568,14.9966,-3.57083
616,456,17.7407,2.6579,0,0,0,0,0,0,0,-1,1840,568,17.7408,-2.6579
623,456,20.6838,1.7121,0,0,0,0,0,0,0,-1,1847,568,20.6838,-1.71208
630,456,0,0,0,0,0,0,0,0,0,-1,1854,568,0,0
637,456,0,0,0,0,0,0,0,0,0,-1,1861,568,0,0
644,456,0,0,0,0,0,0,0,0,0,-1,1868,568,0,0
651,456,0,0,0,0,0,0,0,0,0,-1,1875,568,0,0
658,456,0,0,0,0,0,0,0,0,0,-1,1882,568,0,0
665,456,0,0,0,0,0,0,0,0,0,-1,1889,568,0,0
672,456,0,0,0,0,0,0,0,0,0,-1,1896,568,0,0
679,456,0,0,0,0,0,0,0,0,0,-1,1903,568,0,0
686,456,0,0,0,0,0,0,0,0,0,-1,1910,568,0,0
693,456,0,0,0,0,0,0,0,0,0,-1,1917,568,0,0
700,456,0,0,0,0,0,0,0,0,0,-1,1924,568,0,0
707,456,0,0,0,0,0,0,0,0,0,-1,1931,568,0,0
714,456,0,0,0,0,0,0,0,0,0,-1,1938,568,0,0
721,456,0,0,0,0,0,0,0,0,0,-1,1945,568,0,0
728,456,0,0,0,0,0,0,0,0,0,-1,1952,568,0,0
735,456,0,0,0,0,0,0,0,0,0,-1,1959,568,0,0
742,456,0,0,0,0,0,0,0,0,0,-1,1966,568,0,0
749,456,0,0,0,0,0,0,0,0,0,-1,1973,568,0,0
756,456,0,0,0,0,0,0,0,0,0,-1,1980,568,0,0
763,456,0,0,0,0,0,0,0,0,0,-1,1987,568,0,0
770,456,0,0,0,0,0,0,0,0,0,-1,1994,568,0,0
777,456,0,0,0,0,0,0,0,0,0,-1,2001,568,0,0
784,456,0,0,0,0,0,0,0,0,0,-1,2008,568,0,0
791,456,0,0,0,0,0,0,0,0,0,-1,2015,568,0,0
798,456,0,0,0,0,0,0,0,0,0,-1,2022,568,0,0
805,456,0,0,0,0,0,0,0,0,0,-1,2029,568,0,0
812,456,0,0,0,0,0,0,0,0,0,-1,2036,568,0,0
-700,449,0,0,0,0,0,0,0,0,0,-1,524,575,0,0
-693,449,0,0,0,0,0,0,0,0,0,-1,531,575,0,0
-686,449,0,0,0,0,0,0,0,0,0,-1,538,575,0,0
-679,449,0,0,0,0,0,0,0,0,0,-1,545,575,0,0
-672,449,0,0,0,0,0,0,0,0,0,-1,552,575,0,0
-665,449,0,0,0,0,0,0,0,0,0,-1,559,575,0,0
-658,449,0,0,0,0,0,0,0,0,0,-1,566,575,0,0
-651,449,0,0,0,0,0,0,0,0,0,-1,573,575,0,0
-644,449,0,0,0,0,0,0,0,0,0,-1,580,575,0,0
-637,449,0,0,0,0,0,0,0,0,0,-1,587,575,0,0
-630,449,0,0,0,0,0,0,0,0,0,-1,594,575,0,0
-623,449,0,0,0,0,0,0,0,0,0,-1,601,575,0,0
-616,449,0,0,0,0,0,0,0,0,0,-1,608,575,0,0
-609,449,0,0,0,0,0,0,0,0,0,-1,615,575,0,0
-602,449,0,0,0,0,0,0,0,0,0,-1,622,575,0,0
-595,449,0,0,0,0,0,0,0,0,0,-1,629,575,0,0
-588,449,0,0,0,0,0,0,0,0,0,-1,636,575,0,0
-581,449,0,0,0,0,0,0,0,0,0,-1,643,575,0,0
-574,449,0,0,0,0,0,0,0,0,0,-1,650,575,0,0
-567,449,0,0,0,0,0,0,0,0,0,-1,657,575,0,0
-560,449,0,0,0,0,0,0,0,0,0,-1,664,575,0,0
-553,449,0,0,0,0,0,0,0,0,0,-1,671,575,0,0
-546,449,0,0,0,0,0,0,0,0,0,-1,678,575,0,0
-539,449,0,0,0,0,0,0,0,0,0,-1,685,575,0,0
-532,449,0,0,0,0,0,0,0,0,0,-1,692,575,0,0
-525,449,0,0,0,0,0,0,0,0,0,-1,699,575,0,0
-518,449,0,0,0,0,0,0,0,0,0,-1,706,575,0,0
-511,449,-0.941345,-4.4519,0,0,0,0,0,0,0,-1,713,575,-0.941356,4.45191
-504,449,-14.1078,0.318237,0,0,0,0,0,0,0,-1,720,575,-14.1078,-0.318231
-497,449,-8.61292,-3.09009,0,0,0,0,0,0,0,-1,727,575,-8.61291,3.09011
-490,449,-7.50995,-2.96252,0,0,0,0,0,0,0,-1,734,575,-7.50995,2.96251
-483,449,-5.77789,-2.50061,0,0,0,0,0,0,0,-1,741,575,-5.77792,2.50059
-476,449,-4.1723,-2.07739,0,0,0,0,0,0,0,-1,748,575,-4.17228,2.0774
-469,449,-5.0976,-5.78448,0,0,0,0,0,0,0,-1,755,575,-5.09758,5.78451
-462,449,-6.54181,-9.54535,0,0,0,0,0,0,0,-1,762,575,-6.54178,9.54536
-455,449,-18.7641,-24.19,0,0,0,0,0,0,0,-1,769,575,-18.7641,24.19
-448,449,-75.8722,-56.9283,0,0,0,0,0,0,0,-1,776,575,-75.8722,56.9283
-441,449,-76.8462,-60.7756,0,0,0,0,0,0,0,-1,783,575,-76.8462,60.7756
-434,449,-77.71,-65.2612,0,0,0,0,0,0,0,-1,790,575,-77.7101,65.2612
-427,449,-78.6769,-69.7877,0.0378367,0.0199446,0.0446804,0.0744578,-0.0166765,0.686593,0.0560308,0.0374029,797,575,-78.6769,69.7878
-420,449,-79.7059,-74.1028,0.0372056,0.0162798,0.0452011,0.0731389,-0.0196535,0.671664,0.0564624,0.0226143,804,575,-79.706,74.1028
-413,449,-81.0552,-78.5588,0.0365867,0.0130765,0.0461224,0.0724285,-0.0227652,0.660621,0.0573992,0.0300654,811,575,-81.0552,78.5588
-406,449,-82.1621,-82.9206,0.0361482,0.0103805,0.0473732,0.0723582,-0.0258296,0.652627,0.0587721,0.0273661,818,575,-82.1621,82.9206
-399,449,-83.2988,-87.2477,0.0360226,0.00850217,0.0490409,0.0731972,-0.0286724,0.648622,0.0606581,0.0188673,825,575,-83.2988,87.2477
-392,449,-84.4228,-91.7529,0.036593,0.00724683,0.0507729,0.0747705,-0.0309307,0.644734,0.0627519,0.0187365,832,575,-84.4228,91.7529
-385,449,-85.7022,-96.2889,0.0373226,0.00651364,0.0529233,0.0770378,-0.0332016,0.643776,0.0653025,0.0213483,839,575,-85.7022,96.2889
-378,449,-87.2024,-100.974,0.038576,0.00619875,0.0555192,0.0802187,-0.0354439,0.643538,0.0684253,0.0231268,846,575,-87.2024,100.974
-371,449,-88.7275,-105.752,0,0,0,0,0,0,0,-1,853,575,-88.7275,105.752
-364,449,-54.8773,-103.736,0,0,0,0,0,0,0,-1,860,575,-54.8772,103.736
-357,449,-26.1739,-54.8464,0,0,0,0,0,0,0,-1,867,575,-26.1739,54.8464
-350,449,-2.8764,-9.90204,0,0,0,0,0,0,0,-1,874,575,-2.87638,9.90203
-343,449,-2.98492,-9.2254,0,0,0,0,0,0,0,-1,881,575,-2.98491,9.22541
-336,449,-1.29523,-9.54626,0,0,0,0,0,0,0,-1,888,575,-1.29525,9.54626
-329,449,-0.733398,-7.78937,0,0,0,0,0,0,0,-1,895,575,-0.733398,7.78937
-322,449,-0.628845,-3.16669,0,0,0,0,0,0,0,-1,902,575,-0.628861,3.16667
-315,449,-0.540344,-3.21918,0,0,0,0,0,0,0,-1,909,575,-0.540336,3.21917
-308,449,-1.04413,-2.99341,0,0,0,0,0,0,0,-1,916,575,-1.04415,2.99338
-301,449,-1.58691,-2.80725,0,0,0,0,0,0,0,-1,923,575,-1.58692,2.80728
-294,449,-3.71118,-2.76086,0,0,0,0,0,0,0,-1,930,575,-3.71119,2.76087
-287,449,-4.4082,-2.69525,0,0,0,0,0,0,0,-1,937,575,-4.40822,2.69526
-280,449,0.723999,-14.2697,0,0,0,0,0,0,0,-1,944,575,0.723977,14.2696
-273,449,0,0,0,0,0,0,0,0,0,-1,951,575,0,0
-266,449,0,0,0,0,0,0,0,0,0,-1,958,575,0,0
-259,449,0,0,0,0,0,0,0,0,0,-1,965,575,0,0
-252,449,0,0,0,0,0,0,0,0,0,-1,972,575,0,0
-245,449,0,0,0,0,0,0,0,0,0,-1,979,575,0,0
-238,449,0,0,0,0,0,0,0,0,0,-1,986,575,0,0
-231,449,0,0,0,0,0,0,0,0,0,-1,993,575,0,0
-224,449,0,0,0,0,0,0,0,0,0,-1,1000,575,0,0
-217,449,0,0,0,0,0,0,0,0,0,-1,1007,575,0,0
-210,449,0,0,0,0,0,0,0,0,0,-1,1014,575,0,0
-203,449,0,0,0,0,0,0,0,0,0,-1,1021,575,0,0
-196,449,0,0,0,0,0,0,0,0,0,-1,1028,575,0,0
-189,449,0,0,0,0,0,0,0,0,0,-1,1035,575,0,0
-182,449,0,0,0,0,0,0,0,0,0,-1,1042,575,0,0
-175,449,0,0,0,0,0,0,0,0,0,-1,1049,575,0,0
-168,449,0,0,0,0,0,0,0,0,0,-1,1056,575,0,0
-161,449,0,0,0,0,0,0,0,0,0,-1,1063,575,0,0
-154,449,0,0,0,0,0,0,0,0,0,-1,1070,575,0,0
-147,449,0,0,0,0,0,0,0,0,0,-1,1077,575,0,0
-140,449,0,0,0,0,0,0,0,0,0,-1,1084,575,0,0
-133,449,0,0,0,0,0,0,0,0,0,-1,1091,575,0,0
-126,449,0,0,0,0,0,0,0,0,0,-1,1098,575,0,0
-119,449,0,0,0,0,0,0,0,0,0,-1,1105,575,0,0
-112,449,0,0,0,0,0,0,0,0,0,-1,1112,575,0,0
-105,449,0,0,0,0,0,0,0,0,0,-1,1119,575,0,0
-98,449,0,0,0,0,0,0,0,0,0,-1,1126,575,0,0
-91,449,0,0,0,0,0,0,0,0,0,-1,1133,575,0,0
-84,449,0,0,0,0,0,0,0,0,0,-1,1140,575,0,0
-77,449,0,0,0,0,0,0,0,0,0,-1,1147,575,0,0
-70,449,0,0,0,0,0,0,0,0,0,-1,1154,575,0,0
-63,449,0,0,0,0,0,0,0,0,0,-1,1161,575,0,0
-56,449,0,0,0,0,0,0,0,0,0,-1,1168,575,0,0
-49,449,0,0,0,0,0,0,0,0,0,-1,1175,575,0,0
-42,449,0,0,0,0,0,0,0,0,0,-1,1182,575,0,0
-35,449,0,0,0,0,0,0,0,0,0,-1,1189,575,0,0
-28,449,0,0,0,0,0,0,0,0,0,-1,1196,575,0,0
-21,449,0,0,0,0,0,0,0,0,0,-1,1203,575,0,0
-14,449,0,0,0,0,0,0,0,0,0,-1,1210,575,0,0
-7,449,0,0,0,0,0,0,0,0,0,-1,1217,575,0,0
0,449,0,0,0,0,0,0,0,0,0,-1,1224,575,0,0
7,449,0,0,0,0,0,0,0,0,0,-1,1231,575,0,0
14,449,0,0,0,0,0,0,0,0,0,-1,1238,575,0,0
21,449,0,0,0,0,0,0,0,0,0,-1,1245,575,0,0
28,449,0,0,0,0,0,0,0,0,0,-1,1252,575,0,0
35,449,0,0,0,0,0,0,0,0,0,-1,1259,575,0,0
42,449,0,0,0,0,0,0,0,0,0,-1,1266,575,0,0
49,449,0,0,0,0,0,0,0,0,0,-1,1273,575,0,0
56,449,0,0,0,0,0,0,0,0,0,-1,1280,575,0,0
63,449,0,0,0,0,0,0,0,0,0,-1,1287,575,0,0
70,449,0,0,0,0,0,0,0,0,0,-1,1294,575,0,0
77,449,0,0,0,0,0,0,0,0,0,-1,1301,575,0,0
84,449,0,0,0,0,0,0,0,0,0,-1,1308,575,0,0
91,449,0,0,0,0,0,0,0,0,0,-1,1315,575,0,0
98,449,0,0,0,0,0,0,0,0,0,-1,1322,575,0,0
105,449,0,0,0,0,0,0,0,0,0,-1,1329,575,0,0
112,449,0,0,0,0,0,0,0,0,0,-1,1336,575,0,0
119,449,0,0,0,0,0,0,0,0,0,-1,1343,575,0,0
126,449,0,0,0,0,0,0,0,0,0,-1,1350,575,0,0
133,449,0,0,0,0,0,0,0,0,0,-1,1357,575,0,0
140,449,0,0,0,0,0,0,0,0,0,-1,1364,575,0,0
147,449,0,0,0,0,0,0,0,0,0,-1,1371,575,0,0
154,449,0,0,0,0,0,0,0,0,0,-1,1378,575,0,0
161,449,0,0,0,0,0,0,0,0,0,-1,1385,575,0,0
168,449,0,0,0,0,0,0,0,0,0,-1,1392,575,0,0
175,449,0,0,0,0,0,0,0,0,0,-1,1399,575,0,0
182,449,0,0,0,0,0,0,0,0,0,-1,1406,575,0,0
189,449,0,0,0,0,0,0,0,0,0,-1,1413,575,0,0
196,449,0,0,0,0,0,0,0,0,0,-1,1420,575,0,0
203,449,0,0,0,0,0,0,0,0,0,-1,1427,575,0,0
210,449,0,0,0,0,0,0,0,0,0,-1,1434,575,0,0
217,449,0,0,0,0,0,0,0,0,0,-1,1441,575,0,0
224,449,0,0,0,0,0,0,0,0,0,-1,1448,575,0,0
231,449,0,0,0,0,0,0,0,0,0,-1,1455,575,0,0
238,449,0,0,0,0,0,0,0,0,0,-1,1462,575,0,0
245,449,0,0,0,0,0,0,0,0,0,-1,1469,575,0,0
252,449,0,0,0,0,0,0,0,0,0,-1,1476,575,0,0
259,449,0,0,0,0,0,0,0,0,0,-1,1483,575,0,0
266,449,0,0,0,0,0,0,0,0,0,-1,1490,575,0,0
273,449,0,0,0,0,0,0,0,0,0,-1,1497,575,0,0
280,449,0,0,0,0,0,0,0,0,0,-1,1504,575,0,0
287,449,0,0,0,0,0,0,0,0,0,-1,1511,575,0,0
294,449,0,0,0,0,0,0,0,0,0,-1,1518,575,0,0
301,449,0,0,0,0,0,0,0,0,0,-1,1525,575,0,0
308,449,0,0,0,0,0,0,0,0,0,-1,1532,575,0,0
315,449,0,0,0,0,0,0,0,0,0,-1,1539,575,0,0
322,449,0,0,0,0,0,0,0,0,0,-1,1546,575,0,0
329,449,0,0,0,0,0,0,0,0,0,-1,1553,575,0,0
336,449,0,0,0,0,0,0,0,0,0,-1,1560,575,0,0
343,449,0,0,0,0,0,0,0,0,0,-1,1567,575,0,0
350,449,0,0,0,0,0,0,0,0,0,-1,1574,575,0,0
357,449,0,0,0,0,0,0,0,0,0,-1,1581,575,0,0
364,449,0,0,0,0,0,0,0,0,0,-1,1588,575,0,0
371,449,0,0,0,0,0,0,0,0,0,-1,1595,575,0,0
378,449,0,0,0,0,0,0,0,0,0,-1,1602,575,0,0
385,449,0,0,0,0,0,0,0,0,0,-1,1609,575,0,0
392,449,7.95471,3.66217,0,0,0,0,0,0,0,-1,1616,575,7.95471,-3.66218
399,449,19.9791,5.565,0,0,0,0,0,0,0,-1,1623,575,19.9791,-5.56499
406,449,24.9847,4.55969,0,0,0,0,0,0,0,-1,1630,575,24.9848,-4.55968
413,449,30.4159,3.15027,0,0,0,0,0,0,0,-1,1637,575,30.4159,-3.15028
420,449,23.9675,1.29718,0,0,0,0,0,0,0,-1,1644,575,23.9675,-1.29721
427,449,24.4276,-0.596558,0,0,0,0,0,0,0,-1,1651,575,24.4277,0.596569
434,449,25.61,-2.96594,0,0,0,0,0,0,0,-1,1658,575,25.61,2.96595
441,449,3.89856,-6.06458,0,0,0,0,0,0,0,-1,1665,575,3.89855,6.06459
448,449,4.03198,-5.18207,0,0,0,0,0,0,0,-1,1672,575,4.03197,5.18207
455,449,4.21948,-4.09467,0,0,0,0,0,0,0,-1,1679,575,4.21952,4.09465
462,449,4.23181,-2.96924,0,0,0,0,0,0,0,-1,1686,575,4.23185,2.96926
469,449,4.51672,-2.95135,0,0,0,0,0,0,0,-1,1693,575,4.51672,2.95135
476,449,4.71838,-1.86688,0,0,0,0,0,0,0,-1,1700,575,4.71842,1.86689
483,449,4.87878,-1.73126,0,0,0,0,0,0,0,-1,1707,575,4.87875,1.73128
490,449,5.73279,-2.74573,0,0,0,0,0,0,0,-1,1714,575,5.73282,2.74575
497,449,17.2095,-16.4381,0,0,0,0,0,0,0,-1,1721,575,17.2094,16.4381
504,449,98.9735,-102.303,0,0,0,0,0,0,0,-1,1728,575,98.9735,102.303
511,449,97.8722,-98.04,0.0257506,0.00375456,-0.0532464,0.069123,-0.0396178,-0.683556,0.0635472,0.0329739,1735,575,97.8721,98.0399
518,449,96.5785,-93.5796,0.0300489,0.0049944,-0.0500197,0.0690862,-0.0340429,-0.662699,0.0606766,0.0240677,1742,575,96.5785,93.5796
525,449,95.2645,-89.1396,0.0334019,0.00632529,-0.0478757,0.0696167,-0.0298894,-0.647605,0.0589563,0.0273347,1749,575,95.2645,89.1396
532,449,93.9828,-84.7423,0.0359373,0.00808113,-0.046604,0.07065,-0.0266316,-0.640193,0.0580505,0.0258422,1756,575,93.9828,84.7423
539,449,92.8892,-80.4997,0.0377147,0.00996866,-0.0461375,0.0720198,-0.0243364,-0.639354,0.0578573,0.0357883,1763,575,92.8891,80.4997
546,449,91.7852,-76.3167,0,0,0,0,0,0,0,-1,1770,575,91.7852,76.3167
553,449,90.9131,-72.0173,0,0,0,0,0,0,0,-1,1777,575,90.913,72.0173
560,449,89.8298,-67.7377,0.0409105,0.0163319,-0.0491218,0.079257,-0.0220145,-0.662824,0.0615038,0.0305318,1784,575,89.8299,67.7377
567,449,88.9381,-63.6607,0.0421675,0.0186882,-0.0508985,0.0826627,-0.0218069,-0.672056,0.0636353,0.0222513,1791,575,88.9382,63.6607
574,449,87.8705,-59.6059,0,0,0,0,0,0,0,-1,1798,575,87.8705,59.6059
581,449,40.2885,-30.4276,0,0,0,0,0,0,0,-1,1805,575,40.2884,30.4275
588,449,12.3274,-4.5672,0,0,0,0,0,0,0,-1,1812,575,12.3274,4.5672
595,449,15.9352,-5.65479,0,0,0,0,0,0,0,-1,1819,575,15.9352,5.65478
602,449,9.46167,4.17444,0,0,0,0,0,0,0,-1,1826,575,9.46164,-4.17442
609,449,12.2028,3.18652,0,0,0,0,0,0,0,-1,1833,575,12.2027,-3.18655
616,449,14.9438,2.19867,0,0,0,0,0,0,0,-1,1840,575,14.9438,-2.19867
623,449,9.83789,-0.0820313,0,0,0,0,0,0,0,-1,1847,575,9.83794,0.0820443
630,449,8.90686,4.99329,0,0,0,0,0,0,0,-1,1854,575,8.90685,-4.99327
637,449,0,0,0,0,0,0,0,0,0,-1,1861,575,0,0
644,449,0,0,0,0,0,0,0,0,0,-1,1868,575,0,0
651,449,0,0,0,0,0,0,0,0,0,-1,1875,575,0,0
658,449,0,0,0,0,0,0,0,0,0,-1,1882,575,0,0
665,449,0,0,0,0,0,0,0,0,0,-1,1889,575,0,0
672,449,0,0,0,0,0,0,0,0,0,-1,1896,575,0,0
679,449,0,0,0,0,0,0,0,0,0,-1,1903,575,0,0
686,449,0,0,0,0,0,0,0,0,0,-1,1910,575,0,0
693,449,0,0,0,0,0,0,0,0,0,-1,1917,575,0,0
700,449,0,0,0,0,0,0,0,0,0,-1,1924,575,0,0
707,449,0,0,0,0,0,0,0,0,0,-1,1931,575,0,0
714,449,0,0,0,0,0,0,0,0,0,-1,1938,575,0,0
721,449,0,0,0,0,0,0,0,0,0,-1,1945,575,0,0
728,449,0,0,0,0,0,0,0,0,0,-1,1952,575,0,0
735,449,0,0,0,0,0,0,0,0,0,-1,1959,575,0,0
742,449,0,0,0,0,0,0,0,0,0,-1,1966,575,0,0
749,449,0,0,0,0,0,0,0,0,0,-1,1973,575,0,0
756,449,0,0,0,0,0,0,0,0,0,-1,1980,575,0,0
763,449,0,0,0,0,0,0,0,0,0,-1,1987,575,0,0
770,449,0,0,0,0,0,0,0,0,0,-1,1994,575,0,0
777,449,0,0,0,0,0,0,0,0,0,-1,2001,575,0,0
784,449,0,0,0,0,0,0,0,0,0,-1,2008,575,0,0
791,449,0,0,0,0,0,0,0,0,0,-1,2015,575,0,0
798,449,0,0,0,0,0,0,0,0,0,-1,2022,575,0,0
805,449,0,0,0,0,0,0,0,0,0,-1,2029,575,0,0
812,449,0,0,0,0,0,0,0,0,0,-1,2036,575,0,0
-700,442,0,0,0,0,0,0,0,0,0,-1,524,582,0,0
-693,442,0,0,0,0,0,0,0,0,0,-1,531,582,0,0
-686,442,0,0,0,0,0,0,0,0,0,-1,538,582,0,0
-679,442,0,0,0,0,0,0,0,0,0,-1,545,582,0,0
-672,442,0,0,0,0,0,0,0,0,0,-1,552,582,0,0
-665,442,0,0,0,0,0,0,0,0,0,-1,559,582,0,0
-658,442,0,0,0,0,0,0,0,0,0,-1,566,582,0,0
-651,442,0,0,0,0,0,0,0,0,0,-1,573,582,0,0
-644,442,0,0,0,0,0,0,0,0,0,-1,580,582,0,0
-637,442,0,0,0,0,0,0,0,0,0,-1,587,582,0,0
-630,442,0,0,0,0,0,0,0,0,0,-1,594,582,0,0
-623,442,0,0,0,0,0,0,0,0,0,-1,601,582,0,0
-616,442,0,0,0,0,0,0,0,0,0,-1,608,582,0,0
-609,442,0,0,0,0,0,0,0,0,0,-1,615,582,0,0
-602,442,0,0,0,0,0,0,0,0,0,-1,622,582,0,0
-595,442,0,0,0,0,0,0,0,0,0,-1,629,582,0,0
-588,442,0,0,0,0,0,0,0,0,0,-1,636,582,0,0
-581,442,0,0,0,0,0,0,0,0,0,-1,643,582,0,0
-574,442,0,0,0,0,0,0,0,0,0,-1,650,582,0,0
-567,442,0,0,0,0,0,0,0,0,0,-1,657,582,0,0
-560,442,0,0,0,0,0,0,0,0,0,-1,664,582,0,0
-553,442,0,0,0,0,0,0,0,0,0,-1,671,582,0,0
-546,442,0,0,0,0,0,0,0,0,0,-1,678,582,0,0
-539,442,0,0,0,0,0,0,0,0,0,-1,685,582,0,0
-532,442,0,0,0,0,0,0,0,0,0,-1,692,582,0,0
-525,442,0,0,0,0,0,0,0,0,0,-1,699,582,0,0
-518,442,-0.493774,-5.72943,0,0,0,0,0,0,0,-1,706,582,-0.493791,5.72946
-511,442,-1.33008,-6.18512,0,0,0,0,0,0,0,-1,713,582,-1.33006,6.18511
-504,442,-3.20807,-6.34082,0,0,0,0,0,0,0,-1,720,582,-3.2081,6.34083
-497,442,-13.6886,-0.250122,0,0,0,0,0,0,0,-1,727,582,-13.6886,0.250143
-490,442,-9.09039,-3.64862,0,0,0,0,0,0,0,-1,734,582,-9.09037,3.64861
-483,442,-7.36499,-1.01892,0,0,0,0,0,0,0,-1,741,582,-7.365,1.01895
-476,442,-4.84784,-4.44141,0,0,0,0,0,0,0,-1,748,582,-4.84787,4.44138
-469,442,-13.2483,-15.6807,0,0,0,0,0,0,0,-1,755,582,-13.2483,15.6807
-462,442,-15.0205,-19.2228,0,0,0,0,0,0,0,-1,762,582,-15.0205,19.2229
-455,442,-79.2664,-51.1702,0,0,0,0,0,0,0,-1,769,582,-79.2664,51.1702
-448,442,-80.5181,-55.5452,0.0374582,0.0333127,0.0480614,0.0834916,-0.0127207,0.763848,0.0603498,0.0439046,776,582,-80.5181,55.5452
-441,442,-81.7172,-59.7222,0.0367594,0.028421,0.0471658,0.0799399,-0.0147595,0.741316,0.0588335,0.0256637,783,582,-81.7172,59.7222
-434,442,-82.9227,-63.8053,0,0,0,0,0,0,0,-1,790,582,-82.9228,63.8053
-427,442,-83.5553,-68.0728,0.0352426,0.0199555,0.0465959,0.0748177,-0.0196196,0.704103,0.0575442,0.0205027,797,582,-83.5553,68.0728
-420,442,-84.5864,-72.3115,0.0345066,0.0164627,0.046885,0.0732298,-0.0222605,0.690347,0.0576898,0.0186942,804,582,-84.5863,72.3115
-413,442,-85.7999,-76.6757,0.0337805,0.0134815,0.0476262,0.0723267,-0.0250647,0.680415,0.0583942,0.0248399,811,582,-85.7999,76.6757
-406,442,-86.9198,-81.0522,0.0331913,0.0111066,0.0487106,0.0720955,-0.0277977,0.673936,0.0595336,0.0242547,818,582,-86.9198,81.0522
-399,442,-88.1923,-85.2717,0.0329338,0.00970601,0.0502796,0.0729234,-0.0302836,0.671896,0.0612583,0.0215196,825,582,-88.1922,85.2717
-392,442,-89.6314,-89.6624,0.0332797,0.00902371,0.0518617,0.0744126,-0.0321092,0.670536,0.0630963,0.0324516,832,582,-89.6314,89.6624
-385,442,-90.916,-94.2679,0.0337418,0.00889571,0.053873,0.0766056,-0.0339681,0.67208,0.0654027,0.0453103,839,582,-90.916,94.2679
-378,442,-91.9183,-98.9223,0,0,0,0,0,0,0,-1,846,582,-91.9183,98.9223
-371,442,-57.6353,-99.1408,0,0,0,0,0,0,0,-1,853,582,-57.6353,99.1408
-364,442,-6.89764,-17.5333,0,0,0,0,0,0,0,-1,860,582,-6.89765,17.5333
-357,442,-4.9115,-11.2649,0,0,0,0,0,0,0,-1,867,582,-4.91147,11.2649
-350,442,-1.75372,-6.27618,0,0,0,0,0,0,0,-1,874,582,-1.75371,6.27618
-343,442,-1.4599,-4.63605,0,0,0,0,0,0,0,-1,881,582,-1.4599,4.63607
-336,442,-1.4054,-2.64313,0,0,0,0,0,0,0,-1,888,582,-1.40539,2.64315
-329,442,-0.952576,-2.76923,0,0,0,0,0,0,0,-1,895,582,-0.952571,2.7692
-322,442,-0.972534,-2.63208,0,0,0,0,0,0,0,-1,902,582,-0.972512,2.6321
-315,442,-0.445557,-2.89764,0,0,0,0,0,0,0,-1,909,582,-0.445582,2.89765
-308,442,-0.654175,-3.07831,0,0,0,0,0,0,0,-1,916,582,-0.654145,3.07832
-301,442,-1.37427,-2.41455,0,0,0,0,0,0,0,-1,923,582,-1.37425,2.41453
-294,442,-2.99963,-2.07855,0,0,0,0,0,0,0,-1,930,582,-2.99964,2.07857
-287,442,3.91034,-10.1913,0,0,0,0,0,0,0,-1,937,582,3.91034,10.1913
-280,442,0,0,0,0,0,0,0,0,0,-1,944,582,0,0
-273,442,0,0,0,0,0,0,0,0,0,-1,951,582,0,0
-266,442,0,0,0,0,0,0,0,0,0,-1,958,582,0,0
-259,442,0,0,0,0,0,0,0,0,0,-1,965,582,0,0
-252,442,0,0,0,0,0,0,0,0,0,-1,972,582,0,0
-245,442,0,0,0,0,0,0,0,0,0,-1,979,582,0,0
-238,442,0,0,0,0,0,0,0,0,0,-1,986,582,0,0
-231,442,0,0,0,0,0,0,0,0,0,-1,993,582,0,0
-224,442,0,0,0,0,0,0,0,0,0,-1,1000,582,0,0
-217,442,0,0,0,0,0,0,0,0,0,-1,1007,582,0,0
-210,442,0,0,0,0,0,0,0,0,0,-1,1014,582,0,0
-203,442,0,0,0,0,0,0,0,0,0,-1,1021,582,0,0
-196,442,0,0,0,0,0,0,0,0,0,-1,1028,582,0,0
-189,442,0,0,0,0,0,0,0,0,0,-1,1035,582,0,0
-182,442,0,0,0,0,0,0,0,0,0,-1,1042,582,0,0
-175,442,0,0,0,0,0,0,0,0,0,-1,1049,582,0,0
-168,442,0,0,0,0,0,0,0,0,0,-1,1056,582,0,0
-161,442,0,0,0,0,0,0,0,0,0,-1,1063,582,0,0
-154,442,0,0,0,0,0,0,0,0,0,-1,1070,582,0,0
-147,442,0,0,0,0,0,0,0,0,0,-1,1077,582,0,0
-140,442,0,0,0,0,0,0,0,0,0,-1,1084,582,0,0
-133,442,0,0,0,0,0,0,0,0,0,-1,1091,582,0,0
-126,442,0,0,0,0,0,0,0,0,0,-1,1098,582,0,0
-119,442,0,0,0,0,0,0,0,0,0,-1,1105,582,0,0
-112,442,0,0,0,0,0,0,0,0,0,-1,1112,582,0,0
-105,442,0,0,0,0,0,0,0,0,0,-1,1119,582,0,0
-98,442,0,0,0,0,0,0,0,0,0,-1,1126,582,0,0
-91,442,0,0,0,0,0,0,0,0,0,-1,1133,582,0,0
-84,442,0,0,0,0,0,0,0,0,0,-1,1140,582,0,0
-77,442,0,0,0,0,0,0,0,0,0,-1,1147,582,0,0
-70,442,0,0,0,0,0,0,0,0,0,-1,1154,582,0,0
-63,442,0,0,0,0,0,0,0,0,0,-1,1161,582,0,0
-56,442,0,0,0,0,0,0,0,0,0,-1,1168,582,0,0
-49,442,0,0,0,0,0,0,0,0,0,-1,1175,582,0,0
-42,442,0,0,0,0,0,0,0,0,0,-1,1182,582,0,0
-35,442,0,0,0,0,0,0,0,0,0,-1,1189,582,0,0
-28,442,0,0,0,0,0,0,0,0,0,-1,1196,582,0,0
-21,442,0,0,0,0,0,0,0,0,0,-1,1203,582,0,0
-14,442,0,0,0,0,0,0,0,0,0,-1,1210,582,0,0
-7,442,0,0,0,0,0,0,0,0,0,-1,1217,582,0,0
0,442,0,0,0,0,0,0,0,0,0,-1,1224,582,0,0
7,442,0,0,0,0,0,0,0,0,0,-1,1231,582,0,0
14,442,0,0,0,0,0,0,0,0,0,-1,1238,582,0,0
21,442,0,0,0,0,0,0,0,0,0,-1,1245,582,0,0
28,442,0,0,0,0,0,0,0,0,0,-1,1252,582,0,0
35,442,0,0,0,0,0,0,0,0,0,-1,1259,582,0,0
42,442,0,0,0,0,0,0,0,0,0,-1,1266,582,0,0
49,442,0,0,0,0,0,0,0,0,0,-1,1273,582,0,0
56,442,0,0,0,0,0,0,0,0,0,-1,1280,582,0,0
63,442,0,0,0,0,0,0,0,0,0,-1,1287,582,0,0
70,442,0,0,0,0,0,0,0,0,0,-1,1294,582,0,0
77,442,0,0,0,0,0,0,0,0,0,-1,1301,582,0,0
84,442,0,0,0,0,0,0,0,0,0,-1,1308,582,0,0
91,442,0,0,0,0,0,0,0,0,0,-1,1315,582,0,0
98,442,0,0,0,0,0,0,0,0,0,-1,1322,582,0,0
105,442,0,0,0,0,0,0,0,0,0,-1,1329,582,0,0
112,442,0,0,0,0,0,0,0,0,0,-1,1336,582,0,0
119,442,0,0,0,0,0,0,0,0,0,-1,1343,582,0,0
126,442,0,0,0,0,0,0,0,0,0,-1,1350,582,0,0
133,442,0,0,0,0,0,0,0,0,0,-1,1357,582,0,0
140,442,0,0,0,0,0,0,0,0,0,-1,1364,582,0,0
147,442,0,0,0,0,0,0,0,0,0,-1,1371,582,0,0
154,442,0,0,0,0,0,0,0,0,0,-1,1378,582,0,0
161,442,0,0,0,0,0,0,0,0,0,-1,1385,582,0,0
168,442,0,0,0,0,0,0,0,0,0,-1,1392,582,0,0
175,442,0,0,0,0,0,0,0,0,0,-1,1399,582,0,0
182,442,0,0,0,0,0,0,0,0,0,-1,1406,582,0,0
189,442,0,0,0,0,0,0,0,0,0,-1,1413,582,0,0
196,442,0,0,0,0,0,0,0,0,0,-1,1420,582,0,0
203,442,0,0,0,0,0,0,0,0,0,-1,1427,582,0,0
210,442,0,0,0,0,0,0,0,0,0,-1,1434,582,0,0
217,442,0,0,0,0,0,0,0,0,0,-1,1441,582,0,0
224,442,0,0,0,0,0,0,0,0,0,-1,1448,582,0,0
231,442,0,0,0,0,0,0,0,0,0,-1,1455,582,0,0
238,442,0,0,0,0,0,0,0,0,0,-1,1462,582,0,0
245,442,0,0,0,0,0,0,0,0,0,-1,1469,582,0,0
252,442,0,0,0,0,0,0,0,0,0,-1,1476,582,0,0
259,442,0,0,0,0,0,0,0,0,0,-1,1483,582,0,0
266,442,0,0,0,0,0,0,0,0,0,-1,1490,582,0,0
273,442,0,0,0,0,0,0,0,0,0,-1,1497,582,0,0
280,442,0,0,0,0,0,0,0,0,0,-1,1504,582,0,0
287,442,0,0,0,0,0,0,0,0,0,-1,1511,582,0,0
294,442,0,0,0,0,0,0,0,0,0,-1,1518,582,0,0
301,442,0,0,0,0,0,0,0,0,0,-1,1525,582,0,0
308,442,0,0,0,0,0,0,0,0,0,-1,1532,582,0,0
315,442,0,0,0,0,0,0,0,0,0,-1,1539,582,0,0
322,442,0,0,0,0,0,0,0,0,0,-1,1546,582,0,0
329,442,0,0,0,0,0,0,0,0,0,-1,1553,582,0,0
336,442,0,0,0,0,0,0,0,0,0,-1,1560,582,0,0
343,442,0,0,0,0,0,0,0,0,0,-1,1567,582,0,0
350,442,0,0,0,0,0,0,0,0,0,-1,1574,582,0,0
357,442,0,0,0,0,0,0,0,0,0,-1,1581,582,0,0
364,442,0,0,0,0,0,0,0,0,0,-1,1588,582,0,0
371,442,0,0,0,0,0,0,0,0,0,-1,1595,582,0,0
378,442,0,0,0,0,0,0,0,0,0,-1,1602,582,0,0
385,442,0,0,0,0,0,0,0,0,0,-1,1609,582,0,0
392,442,0,0,0,0,0,0,0,0,0,-1,1616,582,0,0
399,442,0,0,0,0,0,0,0,0,0,-1,1623,582,0,0
406,442,17.6321,4.08295,0,0,0,0,0,0,0,-1,1630,582,17.6321,-4.08293
413,442,25.4768,2.74445,0,0,0,0,0,0,0,-1,1637,582,25.4768,-2.74444
420,442,22.7478,1.55011,0,0,0,0,0,0,0,-1,1644,582,22.7478,-1.55009
427,442,23.2969,-0.456787,0,0,0,0,0,0,0,-1,1651,582,23.2968,0.456769
434,442,23.9512,-2.49365,0,0,0,0,0,0,0,-1,1658,582,23.9512,2.49366
441,442,24.8251,-4.43958,0,0,0,0,0,0,0,-1,1665,582,24.8251,4.43956
448,442,4.7749,-5.88562,0,0,0,0,0,0,0,-1,1672,582,4.7749,5.8856
455,442,4.87024,-4.60687,0,0,0,0,0,0,0,-1,1679,582,4.87019,4.60686
462,442,5.02307,-3.72821,0,0,0,0,0,0,0,-1,1686,582,5.02311,3.7282
469,442,5.12976,-2.98834,0,0,0,0,0,0,0,-1,1693,582,5.12971,2.98834
476,442,5.4624,1.76947,0,0,0,0,0,0,0,-1,1700,582,5.46234,-1.76944
483,442,5.98486,1.87042,0,0,0,0,0,0,0,-1,1707,582,5.98492,-1.87045
490,442,5.04407,-2.35834,0,0,0,0,0,0,0,-1,1714,582,5.04411,2.35837
497,442,6.20984,-3.07831,0,0,0,0,0,0,0,-1,1721,582,6.2098,3.07833
504,442,20.9276,-19.7709,0,0,0,0,0,0,0,-1,1728,582,20.9276,19.771
511,442,102.676,-96.4603,0,0,0,0,0,0,0,-1,1735,582,102.676,96.4603
518,442,101.431,-91.6629,0,0,0,0,0,0,0,-1,1742,582,101.431,91.6629
525,442,100.05,-87.2173,0.0291489,0.00724866,-0.0473048,0.0667544,-0.0303569,-0.671662,0.0573649,0.040637,1749,582,100.05,87.2173
532,442,98.5463,-82.8601,0.031889,0.00859324,-0.0460751,0.0677657,-0.0272835,-0.661591,0.0565114,0.038847,1756,582,98.5462,82.8601
539,442,97.3962,-78.7118,0.0337883,0.0102641,-0.0456038,0.0691224,-0.02507,-0.659189,0.0563296,0.039092,1763,582,97.3962,78.7118
546,442,96.3169,-74.4523,0.0356489,0.0120389,-0.045592,0.0709394,-0.0232516,-0.658717,0.0566568,0.046369,1770,582,96.3169,74.4523
553,442,95.3921,-70.3515,0.03659,0.0139679,-0.0468037,0.07343,-0.0228721,-0.666837,0.058098,0.0424908,1777,582,95.3921,70.3515
560,442,94.4729,-66.3452,0,0,0,0,0,0,0,-1,1784,582,94.4729,66.3451
567,442,93.3362,-62.0963,0.0384403,0.0182067,-0.0501301,0.0794643,-0.0228173,-0.68583,0.0619977,0.0185821,1791,582,93.3362,62.0962
574,442,92.2386,-57.9387,0.0397651,0.0201716,-0.0519086,0.0827934,-0.0228567,-0.69213,0.0641857,0.023414,1798,582,92.2386,57.9387
581,442,91.136,-53.7598,0,0,0,0,0,0,0,-1,1805,582,91.1359,53.7597
588,442,35.4717,-22.1596,0,0,0,0,0,0,0,-1,1812,582,35.4717,22.1596
595,442,16.27,-6.47083,0,0,0,0,0,0,0,-1,1819,582,16.27,6.47082
602,442,16.2213,-4.49225,0,0,0,0,0,0,0,-1,1826,582,16.2213,4.49223
609,442,12.761,2.97223,0,0,0,0,0,0,0,-1,1833,582,12.761,-2.97221
616,442,9.78345,-0.103394,0,0,0,0,0,0,0,-1,1840,582,9.78341,0.103424
623,442,9.23828,0.326721,0,0,0,0,0,0,0,-1,1847,582,9.23829,-0.326727
630,442,7.74304,2.3924,0,0,0,0,0,0,0,-1,1854,582,7.7431,-2.39238
637,442,5.87805,1.84027,0,0,0,0,0,0,0,-1,1861,582,5.87807,-1.84025
644,442,0,0,0,0,0,0,0,0,0,-1,1868,582,0,0
651,442,0,0,0,0,0,0,0,0,0,-1,1875,582,0,0
658,442,0,0,0,0,0,0,0,0,0,-1,1882,582,0,0
665,442,0,0,0,0,0,0,0,0,0,-1,1889,582,0,0
672,442,0,0,0,0,0,0,0,0,0,-1,1896,582,0,0
679,442,0,0,0,0,0,0,0,0,0,-1,1903,582,0,0
686,442,0,0,0,0,0,0,0,0,0,-1,1910,582,0,0
693,442,0,0,0,0,0,0,0,0,0,-1,1917,582,0,0
700,442,0,0,0,0,0,0,0,0,0,-1,1924,582,0,0
707,442,0,0,0,0,0,0,0,0,0,-1,1931,582,0,0
714,442,0,0,0,0,0,0,0,0,0,-1,1938,582,0,0
721,442,0,0,0,0,0,0,0,0,0,-1,1945,582,0,0
728,442,0,0,0,0,0,0,0,0,0,-1,1952,582,0,0
735,442,0,0,0,0,0,0,0,0,0,-1,1959,582,0,0
742,442,0,0,0,0,0,0,0,0,0,-1,1966,582,0,0
749,442,0,0,0,0,0,0,0,0,0,-1,1973,582,0,0
756,442,0,0,0,0,0,0,0,0,0,-1,1980,582,0,0
763,442,0,0,0,0,0,0,0,0,0,-1,1987,582,0,0
770,442,0,0,0,0,0,0,0,0,0,-1,1994,582,0,0
777,442,0,0,0,0,0,0,0,0,0,-1,2001,582,0,0
784,442,0,0,0,0,0,0,0,0,0,-1,2008,582,0,0
791,442,0,0,0,0,0,0,0,0,0,-1,2015,582,0,0
798,442,0,0,0,0,0,0,0,0,0,-1,2022,582,0,0
805,442,0,0,0,0,0,0,0,0,0,-1,2029,582,0,0
812,442,0,0,0,0,0,0,0,0,0,-1,2036,582,0,0
-700,435,0,0,0,0,0,0,0,0,0,-1,524,589,0,0
-693,435,0,0,0,0,0,0,0,0,0,-1,531,589,0,0
-686,435,0,0,0,0,0,0,0,0,0,-1,538,589,0,0
-679,435,0,0,0,0,0,0,0,0,0,-1,545,589,0,0
-672,435,0,0,0,0,0,0,0,0,0,-1,552,589,0,0
-665,435,0,0,0,0,0,0,0,0,0,-1,559,589,0,0
-658,435,0,0,0,0,0,0,0,0,0,-1,566,589,0,0
-651,435,0,0,0,0,0,0,0,0,0,-1,573,589,0,0
-644,435,0,0,0,0,0,0,0,0,0,-1,580,589,0,0
-637,435,0,0,0,0,0,0,0,0,0,-1,587,589,0,0
-630,435,0,0,0,0,0,0,0,0,0,-1,594,589,0,0
-623,435,0,0,0,0,0,0,0,0,0,-1,601,589,0,0
-616,435,0,0,0,0,0,0,0,0,0,-1,608,589,0,0
-609,435,0,0,0,0,0,0,0,0,0,-1,615,589,0,0
-602,435,0,0,0,0,0,0,0,0,0,-1,622,589,0,0
-595,435,0,0,0,0,0,0,0,0,0,-1,629,589,0,0
-588,435,0,0,0,0,0,0,0,0,0,-1,636,589,0,0
-581,435,0,0,0,0,0,0,0,0,0,-1,643,589,0,0
-574,435,0,0,0,0,0,0,0,0,0,-1,650,589,0,0
-567,435,0,0,0,0,0,0,0,0,0,-1,657,589,0,0
-560,435,0,0,0,0,0,0,0,0,0,-1,664,589,0,0
-553,435,0,0,0,0,0,0,0,0,0,-1,671,589,0,0
-546,435,0,0,0,0,0,0,0,0,0,-1,678,589,0,0
-539,435,0,0,0,0,0,0,0,0,0,-1,685,589,0,0
-532,435,0,0,0,0,0,0,0,0,0,-1,692,589,0,0
-525,435,-10.0776,10.0547,0,0,0,0,0,0,0,-1,699,589,-10.0776,-10.0547
-518,435,-1.83093,-5.82367,0,0,0,0,0,0,0,-1,706,589,-1.83093,5.8237
-511,435,-2.45154,-5.33118,0,0,0,0,0,0,0,-1,713,589,-2.45151,5.33115
-504,435,-3.07208,-4.83862,0,0,0,0,0,0,0,-1,720,589,-3.0721,4.8386
-497,435,-6.31012,-5.84698,0,0,0,0,0,0,0,-1,727,589,-6.31012,5.84697
-490,435,-5.81903,-0.458679,0,0,0,0,0,0,0,-1,734,589,-5.81902,0.458684
-483,435,-6.96503,-3.01624,0,0,0,0,0,0,0,-1,741,589,-6.96505,3.01623
-476,435,-14.5337,-14.7686,0,0,0,0,0,0,0,-1,748,589,-14.5337,14.7685
-469,435,-19.5134,-19.9833,0,0,0,0,0,0,0,-1,755,589,-19.5134,19.9833
-462,435,-30.1574,-30.2823,0,0,0,0,0,0,0,-1,762,589,-30.1574,30.2823
-455,435,-83.8159,-50.0558,0,0,0,0,0,0,0,-1,769,589,-83.8158,50.0558
-448,435,-85.0555,-54.1052,0.0345959,0.0325463,0.0490457,0.0826275,-0.0154854,0.774952,0.0609065,0.0261762,776,589,-85.0556,54.1053
-441,435,-86.204,-58.1732,0.033968,0.0279787,0.0480841,0.0791506,-0.0172039,0.754299,0.0593389,0.0171089,783,589,-86.204,58.1732
-434,435,-87.1417,-62.2159,0.0332304,0.0237456,0.0475016,0.0762257,-0.0192497,0.735645,0.0583028,0.0190786,790,589,-87.1417,62.2159
-427,435,-88.1632,-66.4194,0.0324452,0.0200532,0.0471813,0.0738356,-0.0213372,0.72011,0.0576674,0.0170155,797,589,-88.1632,66.4194
-420,435,-89.2728,-70.5951,0.0315952,0.0167546,0.0473005,0.072054,-0.0237041,0.707595,0.0575872,0.0156932,804,589,-89.2728,70.5951
-413,435,-90.405,-74.8618,0.030713,0.0139926,0.0479063,0.0709831,-0.0262775,0.699012,0.0580971,0.0164887,811,589,-90.405,74.8618
-406,435,-91.6674,-79.1329,0.0298355,0.01192,0.0488958,0.0705874,-0.0288318,0.694802,0.0590631,0.0201692,818,589,-91.6674,79.1329
-399,435,-93.1818,-83.2487,0.0291914,0.0109513,0.0504811,0.0713696,-0.0312269,0.696031,0.0607267,0.0328,825,589,-93.1818,83.2486
-392,435,-94.8622,-87.187,0,0,0,0,0,0,0,-1,832,589,-94.8622,87.187
-385,435,-96.3993,-92.2639,0,0,0,0,0,0,0,-1,839,589,-96.3993,92.2638
-378,435,-58.4313,-91.4755,0,0,0,0,0,0,0,-1,846,589,-58.4314,91.4755
-371,435,-10.247,-21.7153,0,0,0,0,0,0,0,-1,853,589,-10.247,21.7153
-364,435,-5.62848,-11.5937,0,0,0,0,0,0,0,-1,860,589,-5.62847,11.5937
-357,435,-5.57343,-10.9666,0,0,0,0,0,0,0,-1,867,589,-5.57342,10.9666
-350,435,-0.86676,-3.69836,0,0,0,0,0,0,0,-1,874,589,-0.866784,3.69834
-343,435,-1.60706,-2.36835,0,0,0,0,0,0,0,-1,881,589,-1.60706,2.36838
-336,435,-2.07263,-1.94012,0,0,0,0,0,0,0,-1,888,589,-2.07265,1.94014
-329,435,-2.55963,-1.5517,0,0,0,0,0,0,0,-1,895,589,-2.5596,1.55168
-322,435,-3.08545,-1.55255,0,0,0,0,0,0,0,-1,902,589,-3.08544,1.55254
-315,435,-0.404297,-2.63763,0,0,0,0,0,0,0,-1,909,589,-0.404276,2.63761
-308,435,-1.70056,-1.90369,0,0,0,0,0,0,0,-1,916,589,-1.70056,1.90367
-301,435,-1.19391,-2.41632,0,0,0,0,0,0,0,-1,923,589,-1.1939,2.41635
-294,435,3.78278,-10.3275,0,0,0,0,0,0,0,-1,930,589,3.78281,10.3275
-287,435,0,0,0,0,0,0,0,0,0,-1,937,589,0,0
-280,435,0,0,0,0,0,0,0,0,0,-1,944,589,0,0
-273,435,0,0,0,0,0,0,0,0,0,-1,951,589,0,0
-266,435,0,0,0,0,0,0,0,0,0,-1,958,589,0,0
-259,435,0,0,0,0,0,0,0,0,0,-1,965,589,0,0
-252,435,0,0,0,0,0,0,0,0,0,-1,972,589,0,0
-245,435,0,0,0,0,0,0,0,0,0,-1,979,589,0,0
-238,435,0,0,0,0,0,0,0,0,0,-1,986,589,0,0
-231,435,0,0,0,0,0,0,0,0,0,-1,993,589,0,0
-224,435,0,0,0,0,0,0,0,0,0,-1,1000,589,0,0
-217,435,0,0,0,0,0,0,0,0,0,-1,1007,589,0,0
-210,435,0,0,0,0,0,0,0,0,0,-1,1014,589,0,0
-203,435,0,0,0,0,0,0,0,0,0,-1,1021,589,0,0
-196,435,0,0,0,0,0,0,0,0,0,-1,1028,589,0,0
-189,435,0,0,0,0,0,0,0,0,0,-1,1035,589,0,0
-182,435,0,0,0,0,0,0,0,0,0,-1,1042,589,0,0
-175,435,0,0,0,0,0,0,0,0,0,-1,1049,589,0,0
-168,435,0,0,0,0,0,0,0,0,0,-1,1056,589,0,0
-161,435,0,0,0,0,0,0,0,0,0,-1,1063,589,0,0
-154,435,0,0,0,0,0,0,0,0,0,-1,1070,589,0,0
-147,435,0,0,0,0,0,0,0,0,0,-1,1077,589,0,0
-140,435,0,0,0,0,0,0,0,0,0,-1,1084,589,0,0
-133,435,0,0,0,0,0,0,0,0,0,-1,1091,589,0,0
-126,435,0,0,0,0,0,0,0,0,0,-1,1098,589,0,0
-119,435,0,0,0,0,0,0,0,0,0,-1,1105,589,0,0
-112,435,0,0,0,0,0,0,0,0,0,-1,1112,589,0,0
-105,435,0,0,0,0,0,0,0,0,0,-1,1119,589,0,0
-98,435,0,0,0,0,0,0,0,0,0,-1,1126,589,0,0
-91,435,0,0,0,0,0,0,0,0,0,-1,1133,589,0,0
-84,435,0,0,0,0,0,0,0,0,0,-1,1140,589,0,0
-77,435,0,0,0,0,0,0,0,0,0,-1,1147,589,0,0
-70,435,0,0,0,0,0,0,0,0,0,-1,1154,589,0,0
-63,435,0,0,0,0,0,0,0,0,0,-1,1161,589,0,0
-56,435,0,0,0,0,0,0,0,0,0,-1,1168,589,0,0
-49,435,0,0,0,0,0,0,0,0,0,-1,1175,589,0,0
-42,435,0,0,0,0,0,0,0,0,0,-1,1182,589,0,0
-35,435,0,0,0,0,0,0,0,0,0,-1,1189,589,0,0
-28,435,0,0,0,0,0,0,0,0,0,-1,1196,589,0,0
-21,435,0,0,0,0,0,0,0,0,0,-1,1203,589,0,0
-14,435,0,0,0,0,0,0,0,0,0,-1,1210,589,0,0
-7,435,0,0,0,0,0,0,0,0,0,-1,1217,589,0,0
0,435,0,0,0,0,0,0,0,0,0,-1,1224,589,0,0
7,435,0,0,0,0,0,0,0,0,0,-1,1231,589,0,0
14,435,0,0,0,0,0,0,0,0,0,-1,1238,589,0,0
21,435,0,0,0,0,0,0,0,0,0,-1,1245,589,0,0
28,435,0,0,0,0,0,0,0,0,0,-1,1252,589,0,0
35,435,0,0,0,0,0,0,0,0,0,-1,1259,589,0,0
42,435,0,0,0,0,0,0,0,0,0,-1,1266,589,0,0
49,435,0,0,0,0,0,0,0,0,0,-1,1273,589,0,0
56,435,0,0,0,0,0,0,0,0,0,-1,1280,589,0,0
63,435,0,0,0,0,0,0,0,0,0,-1,1287,589,0,0
70,435,0,0,0,0,0,0,0,0,0,-1,1294,589,0,0
77,435,0,0,0,0,0,0,0,0,0,-1,1301,589,0,0
84,435,0,0,0,0,0,0,0,0,0,-1,1308,589,0,0
91,435,0,0,0,0,0,0,0,0,0,-1,1315,589,0,0
98,435,0,0,0,0,0,0,0,0,0,-1,1322,589,0,0
105,435,0,0,0,0,0,0,0,0,0,-1,1329,589,0,0
112,435,0,0,0,0,0,0,0,0,0,-1,1336,589,0,0
119,435,0,0,0,0,0,0,0,0,0,-1,1343,589,0,0
126,435,0,0,0,0,0,0,0,0,0,-1,1350,589,0,0
133,435,0,0,0,0,0,0,0,0,0,-1,1357,589,0,0
140,435,0,0,0,0,0,0,0,0,0,-1,1364,589,0,0
147,435,0,0,0,0,0,0,0,0,0,-1,1371,589,0,0
154,435,0,0,0,0,0,0,0,0,0,-1,1378,589,0,0
161,435,0,0,0,0,0,0,0,0,0,-1,1385,589,0,0
168,435,0,0,0,0,0,0,0,0,0,-1,1392,589,0,0
175,435,0,0,0,0,0,0,0,0,0,-1,1399,589,0,0
182,435,0,0,0,0,0,0,0,0,0,-1,1406,589,0,0
189,435,0,0,0,0,0,0,0,0,0,-1,1413,589,0,0
196,435,0,0,0,0,0,0,0,0,0,-1,1420,589,0,0
203,435,0,0,0,0,0,0,0,0,0,-1,1427,589,0,0
210,435,0,0,0,0,0,0,0,0,0,-1,1434,589,0,0
217,435,0,0,0,0,0,0,0,0,0,-1,1441,589,0,0
224,435,0,0,0,0,0,0,0,0,0,-1,1448,589,0,0
231,435,0,0,0,0,0,0,0,0,0,-1,1455,589,0,0
238,435,0,0,0,0,0,0,0,0,0,-1,1462,589,0,0
245,435,0,0,0,0,0,0,0,0,0,-1,1469,589,0,0
252,435,0,0,0,0,0,0,0,0,0,-1,1476,589,0,0
259,435,0,0,0,0,0,0,0,0,0,-1,1483,589,0,0
266,435,0,0,0,0,0,0,0,0,0,-1,1490,589,0,0
273,435,0,0,0,0,0,0,0,0,0,-1,1497,589,0,0
280,435,0,0,0,0,0,0,0,0,0,-1,1504,589,0,0
287,435,0,0,0,0,0,0,0,0,0,-1,1511,589,0,0
294,435,0,0,0,0,0,0,0,0,0,-1,1518,589,0,0
301,435,0,0,0,0,0,0,0,0,0,-1,1525,589,0,0
308,435,0,0,0,0,0,0,0,0,0,-1,1532,589,0,0
315,435,0,0,0,0,0,0,0,0,0,-1,1539,589,0,0
322,435,0,0,0,0,0,0,0,0,0,-1,1546,589,0,0
329,435,0,0,0,0,0,0,0,0,0,-1,1553,589,0,0
336,435,0,0,0,0,0,0,0,0,0,-1,1560,589,0,0
343,435,0,0,0,0,0,0,0,0,0,-1,1567,589,0,0
350,435,0,0,0,0,0,0,0,0,0,-1,1574,589,0,0
357,435,0,0,0,0,0,0,0,0,0,-1,1581,589,0,0
364,435,0,0,0,0,0,0,0,0,0,-1,1588,589,0,0
371,435,0,0,0,0,0,0,0,0,0,-1,1595,589,0,0
378,435,0,0,0,0,0,0,0,0,0,-1,1602,589,0,0
385,435,0,0,0,0,0,0,0,0,0,-1,1609,589,0,0
392,435,0,0,0,0,0,0,0,0,0,-1,1616,589,0,0
399,435,0,0,0,0,0,0,0,0,0,-1,1623,589,0,0
406,435,0,0,0,0,0,0,0,0,0,-1,1630,589,0,0
413,435,20.4565,3.49835,0,0,0,0,0,0,0,-1,1637,589,20.4565,-3.49836
420,435,21.4015,1.49609,0,0,0,0,0,0,0,-1,1644,589,21.4015,-1.49609
427,435,22.0464,-0.373962,0,0,0,0,0,0,0,-1,1651,589,22.0464,0.373972
434,435,22.1863,-1.54407,0,0,0,0,0,0,0,-1,1658,589,22.1862,1.54405
441,435,22.3992,-2.38287,0,0,0,0,0,0,0,-1,1665,589,22.3992,2.38289
448,435,7.4585,-0.00292969,0,0,0,0,0,0,0,-1,1672,589,7.45848,0.00294131
455,435,5.49915,-5.047,0,0,0,0,0,0,0,-1,1679,589,5.49914,5.04703
462,435,5.60669,-4.71466,0,0,0,0,0,0,0,-1,1686,589,5.60675,4.71469
469,435,5.87708,1.22351,0,0,0,0,0,0,0,-1,1693,589,5.87703,-1.22351
476,435,6.14136,1.37714,0,0,0,0,0,0,0,-1,1700,589,6.14138,-1.37712
483,435,6.49243,1.36169,0,0,0,0,0,0,0,-1,1707,589,6.49242,-1.36171
490,435,4.38391,-1.36218,0,0,0,0,0,0,0,-1,1714,589,4.38389,1.3622
497,435,7.23499,-3.64551,0,0,0,0,0,0,0,-1,1721,589,7.23495,3.64551
504,435,7.31189,-3.75909,0,0,0,0,0,0,0,-1,1728,589,7.31184,3.75911
511,435,63.4806,-86.4816,0,0,0,0,0,0,0,-1,1735,589,63.4806,86.4816
518,435,80.7251,-90.1277,0,0,0,0,0,0,0,-1,1742,589,80.7252,90.1278
525,435,105.008,-85.1049,0,0,0,0,0,0,0,-1,1749,589,105.008,85.1049
532,435,103.174,-81.0405,0,0,0,0,0,0,0,-1,1756,589,103.174,81.0405
539,435,102.011,-77.2056,0.0299086,0.0109989,-0.0437545,0.0652181,-0.0243106,-0.67899,0.0534577,0.0452999,1763,589,102.011,77.2056
546,435,100.899,-72.8472,0.0318713,0.0124665,-0.0438226,0.0670527,-0.0227149,-0.676455,0.0538934,0.0393882,1770,589,100.899,72.8472
553,435,99.9396,-68.7311,0.0328706,0.0142019,-0.0451225,0.0696141,-0.0225416,-0.683403,0.0554716,0.0234231,1777,589,99.9396,68.7312
560,435,98.928,-64.6519,0.0336166,0.0162136,-0.0467866,0.072504,-0.0226738,-0.693457,0.0574064,0.0150172,1784,589,98.928,64.6519
567,435,97.7791,-60.5151,0.0345301,0.0180138,-0.0486703,0.0756379,-0.023094,-0.701361,0.059633,0.0170501,1791,589,97.7791,60.5151
574,435,96.7366,-56.4329,0.0357684,0.0198633,-0.0506752,0.0791113,-0.0234795,-0.707567,0.0620658,0.01851,1798,589,96.7366,56.4329
581,435,95.7664,-52.3824,0.0373198,0.0214756,-0.0529558,0.0829428,-0.0241474,-0.711149,0.0648604,0.0394106,1805,589,95.7664,52.3825
588,435,95.0417,-48.3914,0,0,0,0,0,0,0,-1,1812,589,95.0418,48.3914
595,435,38.4182,-22.4416,0,0,0,0,0,0,0,-1,1819,589,38.4182,22.4416
602,435,16.8671,-6.39026,0,0,0,0,0,0,0,-1,1826,589,16.867,6.39024
609,435,15.2611,-3.42242,0,0,0,0,0,0,0,-1,1833,589,15.2611,3.42242
616,435,5.05151,-2.75269,0,0,0,0,0,0,0,-1,1840,589,5.05157,2.7527
623,435,11.7588,3.9704,0,0,0,0,0,0,0,-1,1847,589,11.7587,-3.97043
630,435,4.72742,-0.87561,0,0,0,0,0,0,0,-1,1854,589,4.7274,0.875636
637,435,5.05286,1.48792,0,0,0,0,0,0,0,-1,1861,589,5.05291,-1.48792
644,435,0,0,0,0,0,0,0,0,0,-1,1868,589,0,0
651,435,0,0,0,0,0,0,0,0,0,-1,1875,589,0,0
658,435,0,0,0,0,0,0,0,0,0,-1,1882,589,0,0
665,435,0,0,0,0,0,0,0,0,0,-1,1889,589,0,0
672,435,0,0,0,0,0,0,0,0,0,-1,1896,589,0,0
679,435,0,0,0,0,0,0,0,0,0,-1,1903,589,0,0
686,435,0,0,0,0,0,0,0,0,0,-1,1910,589,0,0
693,435,0,0,0,0,0,0,0,0,0,-1,1917,589,0,0
700,435,0,0,0,0,0,0,0,0,0,-1,1924,589,0,0
707,435,0,0,0,0,0,0,0,0,0,-1,1931,589,0,0
714,435,0,0,0,0,0,0,0,0,0,-1,1938,589,0,0
721,435,0,0,0,0,0,0,0,0,0,-1,1945,589,0,0
728,435,0,0,0,0,0,0,0,0,0,-1,1952,589,0,0
735,435,0,0,0,0,0,0,0,0,0,-1,1959,589,0,0
742,435,0,0,0,0,0,0,0,0,0,-1,1966,589,0,0
749,435,0,0,0,0,0,0,0,0,0,-1,1973,589,0,0
756,435,0,0,0,0,0,0,0,0,0,-1,1980,589,0,0
763,435,0,0,0,0,0,0,0,0,0,-1,1987,589,0,0
770,435,0,0,0,0,0,0,0,0,0,-1,1994,589,0,0
777,435,0,0,0,0,0,0,0,0,0,-1,2001,589,0,0
784,435,0,0,0,0,0,0,0,0,0,-1,2008,589,0,0
791,435,0,0,0,0,0,0,0,0,0,-1,2015,589,0,0
798,435,0,0,0,0,0,0,0,0,0,-1,2022,589,0,0
805,435,0,0,0,0,0,0,0,0,0,-1,2029,589,0,0
812,435,0,0,0,0,0,0,0,0,0,-1,2036,589,0,0
-700,428,0,0,0,0,0,0,0,0,0,-1,524,596,0,0
-693,428,0,0,0,0,0,0,0,0,0,-1,531,596,0,0
-686,428,0,0,0,0,0,0,0,0,0,-1,538,596,0,0
-679,428,0,0,0,0,0,0,0,0,0,-1,545,596,0,0
-672,428,0,0,0,0,0,0,0,0,0,-1,552,596,0,0
-665,428,0,0,0,0,0,0,0,0,0,-1,559,596,0,0
-658,428,0,0,0,0,0,0,0,0,0,-1,566,596,0,0
-651,428,0,0,0,0,0,0,0,0,0,-1,573,596,0,0
-644,428,0,0,0,0,0,0,0,0,0,-1,580,596,0,0
-637,428,0,0,0,0,0,0,0,0,0,-1,587,596,0,0
-630,428,0,0,0,0,0,0,0,0,0,-1,594,596,0,0
-623,428,0,0,0,0,0,0,0,0,0,-1,601,596,0,0
-616,428,0,0,0,0,0,0,0,0,0,-1,608,596,0,0
-609,428,0,0,0,0,0,0,0,0,0,-1,615,596,0,0
-602,428,0,0,0,0,0,0,0,0,0,-1,622,596,0,0
-595,428,0,0,0,0,0,0,0,0,0,-1,629,596,0,0
-588,428,0,0,0,0,0,0,0,0,0,-1,636,596,0,0
-581,428,0,0,0,0,0,0,0,0,0,-1,643,596,0,0
-574,428,0,0,0,0,0,0,0,0,0,-1,650,596,0,0
-567,428,0,0,0,0,0,0,0,0,0,-1,657,596,0,0
-560,428,0,0,0,0,0,0,0,0,0,-1,664,596,0,0
-553,428,0,0,0,0,0,0,0,0,0,-1,671,596,0,0
-546,428,0,0,0,0,0,0,0,0,0,-1,678,596,0,0
-539,428,0,0,0,0,0,0,0,0,0,-1,685,596,0,0
-532,428,0,0,0,0,0,0,0,0,0,-1,692,596,0,0
-525,428,-9.59918,7.58618,0,0,0,0,0,0,0,-1,699,596,-9.59918,-7.5862
-518,428,-2.92285,-4.81854,0,0,0,0,0,0,0,-1,706,596,-2.92285,4.81856
-511,428,-3.68811,-4.79474,0,0,0,0,0,0,0,-1,713,596,-3.68811,4.79474
-504,428,-4.45337,-4.77094,0,0,0,0,0,0,0,-1,720,596,-4.45337,4.77092
-497,428,-2.98108,-3.77502,0,0,0,0,0,0,0,-1,727,596,-2.98106,3.77505
-490,428,-6.39044,-2.80481,0,0,0,0,0,0,0,-1,734,596,-6.39047,2.80483
-483,428,-10.8474,-9.11322,0,0,0,0,0,0,0,-1,741,596,-10.8473,9.11321
-476,428,-20.6912,-18.7292,0,0,0,0,0,0,0,-1,748,596,-20.6912,18.7292
-469,428,-23.0342,-21.3403,0,0,0,0,0,0,0,-1,755,596,-23.0342,21.3403
-462,428,-87.7838,-44.5953,0,0,0,0,0,0,0,-1,762,596,-87.7838,44.5954
-455,428,-88.7133,-48.6699,0.0322468,0.0364181,0.0502053,0.0845811,-0.0159162,0.806157,0.0623734,0.0306084,769,596,-88.7132,48.6699
-448,428,-89.5684,-52.6273,0.0316736,0.0317949,0.048956,0.0806902,-0.0172218,0.786017,0.0603587,0.0189944,776,596,-89.5683,52.6273
-441,428,-90.6901,-56.6168,0.0309413,0.0273959,0.0479517,0.077153,-0.0188159,0.766922,0.0587209,0.0175643,783,596,-90.6901,56.6168
-434,428,-91.804,-60.7217,0.0301704,0.0234044,0.0472584,0.0741667,-0.020592,0.749667,0.0575499,0.0148283,790,596,-91.804,60.7217
-427,428,-92.8608,-64.8541,0.0292939,0.0199477,0.0467368,0.0715907,-0.0223491,0.73557,0.0566654,0.0190668,797,596,-92.8608,64.8541
-420,428,-93.9184,-68.9688,0.0283344,0.0168618,0.0466832,0.0696324,-0.0244362,0.724266,0.0563613,0.017722,804,596,-93.9184,68.9688
-413,428,-95.096,-73.1846,0.0273306,0.014342,0.0471266,0.0684082,-0.0267357,0.716926,0.0566605,0.0196112,811,596,-95.096,73.1846
-406,428,-96.5158,-77.472,0.0262061,0.0126139,0.0479987,0.0678874,-0.0290674,0.715071,0.0574531,0.0338716,818,596,-96.5158,77.472
-399,428,-98.2067,-81.3049,0,0,0,0,0,0,0,-1,825,596,-98.2067,81.3048
-392,428,-91.8439,-84.4954,0,0,0,0,0,0,0,-1,832,596,-91.8439,84.4953
-385,428,-58.4974,-83.2041,0,0,0,0,0,0,0,-1,839,596,-58.4974,83.2041
-378,428,-10.8172,-20.952,0,0,0,0,0,0,0,-1,846,596,-10.8172,20.952
-371,428,-5.96155,-11.0703,0,0,0,0,0,0,0,-1,853,596,-5.96154,11.0702
-364,428,-6.33643,-10.7223,0,0,0,0,0,0,0,-1,860,596,-6.33645,10.7223
-357,428,-3.20996,-4.70966,0,0,0,0,0,0,0,-1,867,596,-3.20997,4.70965
-350,428,-1.62793,-3.94055,0,0,0,0,0,0,0,-1,874,596,-1.62794,3.94055
-343,428,-0.0567017,-4.80994,0,0,0,0,0,0,0,-1,881,596,-0.0567096,4.80996
-336,428,-3.29175,-1.39569,0,0,0,0,0,0,0,-1,888,596,-3.29172,1.39568
-329,428,-3.71564,-0.791321,0,0,0,0,0,0,0,-1,895,596,-3.71564,0.791299
-322,428,-5.52863,-3.59827,0,0,0,0,0,0,0,-1,902,596,-5.52865,3.59829
-315,428,-4.57172,-1.22052,0,0,0,0,0,0,0,-1,909,596,-4.57171,1.22052
-308,428,-5.60742,-3.40961,0,0,0,0,0,0,0,-1,916,596,-5.60744,3.40959
-301,428,0,0,0,0,0,0,0,0,0,-1,923,596,0,0
-294,428,0,0,0,0,0,0,0,0,0,-1,930,596,0,0
-287,428,0,0,0,0,0,0,0,0,0,-1,937,596,0,0
-280,428,0,0,0,0,0,0,0,0,0,-1,944,596,0,0
-273,428,0,0,0,0,0,0,0,0,0,-1,951,596,0,0
-266,428,0,0,0,0,0,0,0,0,0,-1,958,596,0,0
-259,428,0,0,0,0,0,0,0,0,0,-1,965,596,0,0
-252,428,0,0,0,0,0,0,0,0,0,-1,972,596,0,0
-245,428,0,0,0,0,0,0,0,0,0,-1,979,596,0,0
-238,428,0,0,0,0,0,0,0,0,0,-1,986,596,0,0
-231,428,0,0,0,0,0,0,0,0,0,-1,993,596,0,0
-224,428,0,0,0,0,0,0,0,0,0,-1,1000,596,0,0
-217,428,0,0,0,0,0,0,0,0,0,-1,1007,596,0,0
-210,428,0,0,0,0,0,0,0,0,0,-1,1014,596,0,0
-203,428,0,0,0,0,0,0,0,0,0,-1,1021,596,0,0
-196,428,0,0,0,0,0,0,0,0,0,-1,1028,596,0,0
-189,428,0,0,0,0,0,0,0,0,0,-1,1035,596,0,0
-182,428,0,0,0,0,0,0,0,0,0,-1,1042,596,0,0
-175,428,0,0,0,0,0,0,0,0,0,-1,1049,596,0,0
-168,428,0,0,0,0,0,0,0,0,0,-1,1056,596,0,0
-161,428,0,0,0,0,0,0,0,0,0,-1,1063,596,0,0
-154,428,0,0,0,0,0,0,0,0,0,-1,1070,596,0,0
-147,428,0,0,0,0,0,0,0,0,0,-1,1077,596,0,0
-140,428,0,0,0,0,0,0,0,0,0,-1,1084,596,0,0
-133,428,0,0,0,0,0,0,0,0,0,-1,1091,596,0,0
-126,428,0,0,0,0,0,0,0,0,0,-1,1098,596,0,0
-119,428,0,0,0,0,0,0,0,0,0,-1,1105,596,0,0
-112,428,0,0,0,0,0,0,0,0,0,-1,1112,596,0,0
-105,428,0,0,0,0,0,0,0,0,0,-1,1119,596,0,0
-98,428,0,0,0,0,0,0,0,0,0,-1,1126,596,0,0
-91,428,0,0,0,0,0,0,0,0,0,-1,1133,596,0,0
-84,428,0,0,0,0,0,0,0,0,0,-1,1140,596,0,0
-77,428,0,0,0,0,0,0,0,0,0,-1,1147,596,0,0
-70,428,0,0,0,0,0,0,0,0,0,-1,1154,596,0,0
-63,428,0,0,0,0,0,0,0,0,0,-1,1161,596,0,0
-56,428,0,0,0,0,0,0,0,0,0,-1,1168,596,0,0
-49,428,0,0,0,0,0,0,0,0,0,-1,1175,596,0,0
-42,428,0,0,0,0,0,0,0,0,0,-1,1182,596,0,0
-35,428,0,0,0,0,0,0,0,0,0,-1,1189,596,0,0
-28,428,0,0,0,0,0,0,0,0,0,-1,1196,596,0,0
-21,428,0,0,0,0,0,0,0,0,0,-1,1203,596,0,0
-14,428,0,0,0,0,0,0,0,0,0,-1,1210,596,0,0
-7,428,0,0,0,0,0,0,0,0,0,-1,1217,596,0,0
0,428,0,0,0,0,0,0,0,0,0,-1,1224,596,0,0
7,428,0,0,0,0,0,0,0,0,0,-1,1231,596,0,0
14,428,0,0,0,0,0,0,0,0,0,-1,1238,596,0,0
21,428,0,0,0,0,0,0,0,0,0,-1,1245,596,0,0
28,428,0,0,0,0,0,0,0,0,0,-1,1252,596,0,0
35,428,0,0,0,0,0,0,0,0,0,-1,1259,596,0,0
42,428,0,0,0,0,0,0,0,0,0,-1,1266,596,0,0
49,428,0,0,0,0,0,0,0,0,0,-1,1273,596,0,0
56,428,0,0,0,0,0,0,0,0,0,-1,1280,596,0,0
63,428,0,0,0,0,0,0,0,0,0,-1,1287,596,0,0
70,428,0,0,0,0,0,0,0,0,0,-1,1294,596,0,0
77,428,0,0,0,0,0,0,0,0,0,-1,1301,596,0,0
84,428,0,0,0,0,0,0,0,0,0,-1,1308,596,0,0
91,428,0,0,0,0,0,0,0,0,0,-1,1315,596,0,0
98,428,0,0,0,0,0,0,0,0,0,-1,1322,596,0,0
105,428,0,0,0,0,0,0,0,0,0,-1,1329,596,0,0
112,428,0,0,0,0,0,0,0,0,0,-1,1336,596,0,0
119,428,0,0,0,0,0,0,0,0,0,-1,1343,596,0,0
126,428,0,0,0,0,0,0,0,0,0,-1,1350,596,0,0
133,428,0,0,0,0,0,0,0,0,0,-1,1357,596,0,0
140,428,0,0,0,0,0,0,0,0,0,-1,1364,596,0,0
147,428,0,0,0,0,0,0,0,0,0,-1,1371,596,0,0
154,428,0,0,0,0,0,0,0,0,0,-1,1378,596,0,0
161,428,0,0,0,0,0,0,0,0,0,-1,1385,596,0,0
168,428,0,0,0,0,0,0,0,0,0,-1,1392,596,0,0
175,428,0,0,0,0,0,0,0,0,0,-1,1399,596,0,0
182,428,0,0,0,0,0,0,0,0,0,-1,1406,596,0,0
189,428,0,0,0,0,0,0,0,0,0,-1,1413,596,0,0
196,428,0,0,0,0,0,0,0,0,0,-1,1420,596,0,0
203,428,0,0,0,0,0,0,0,0,0,-1,1427,596,0,0
210,428,0,0,0,0,0,0,0,0,0,-1,1434,596,0,0
217,428,0,0,0,0,0,0,0,0,0,-1,1441,596,0,0
224,428,0,0,0,0,0,0,0,0,0,-1,1448,596,0,0
231,428,0,0,0,0,0,0,0,0,0,-1,1455,596,0,0
238,428,0,0,0,0,0,0,0,0,0,-1,1462,596,0,0
245,428,0,0,0,0,0,0,0,0,0,-1,1469,596,0,0
252,428,0,0,0,0,0,0,0,0,0,-1,1476,596,0,0
259,428,0,0,0,0,0,0,0,0,0,-1,1483,596,0,0
266,428,0,0,0,0,0,0,0,0,0,-1,1490,596,0,0
273,428,0,0,0,0,0,0,0,0,0,-1,1497,596,0,0
280,428,0,0,0,0,0,0,0,0,0,-1,1504,596,0,0
287,428,0,0,0,0,0,0,0,0,0,-1,1511,596,0,0
294,428,0,0,0,0,0,0,0,0,0,-1,1518,596,0,0
301,428,0,0,0,0,0,0,0,0,0,-1,1525,596,0,0
308,428,0,0,0,0,0,0,0,0,0,-1,1532,596,0,0
315,428,0,0,0,0,0,0,0,0,0,-1,1539,596,0,0
322,428,0,0,0,0,0,0,0,0,0,-1,1546,596,0,0
329,428,0,0,0,0,0,0,0,0,0,-1,1553,596,0,0
336,428,0,0,0,0,0,0,0,0,0,-1,1560,596,0,0
343,428,0,0,0,0,0,0,0,0,0,-1,1567,596,0,0
350,428,0,0,0,0,0,0,0,0,0,-1,1574,596,0,0
357,428,0,0,0,0,0,0,0,0,0,-1,1581,596,0,0
364,428,0,0,0,0,0,0,0,0,0,-1,1588,596,0,0
371,428,0,0,0,0,0,0,0,0,0,-1,1595,596,0,0
378,428,0,0,0,0,0,0,0,0,0,-1,1602,596,0,0
385,428,0,0,0,0,0,0,0,0,0,-1,1609,596,0,0
392,428,0,0,0,0,0,0,0,0,0,-1,1616,596,0,0
399,428,0,0,0,0,0,0,0,0,0,-1,1623,596,0,0
406,428,0,0,0,0,0,0,0,0,0,-1,1630,596,0,0
413,428,0,0,0,0,0,0,0,0,0,-1,1637,596,0,0
420,428,19.8469,1.3399,0,0,0,0,0,0,0,-1,1644,596,19.8469,-1.33992
427,428,20.7299,-0.225281,0,0,0,0,0,0,0,-1,1651,596,20.7299,0.225262
434,428,19.8915,-0.583069,0,0,0,0,0,0,0,-1,1658,596,19.8915,0.583075
441,428,8.17993,0.607483,0,0,0,0,0,0,0,-1,1665,596,8.17997,-0.607513
448,428,7.84338,-0.385986,0,0,0,0,0,0,0,-1,1672,596,7.84336,0.385978
455,428,6.64038,2.1123,0,0,0,0,0,0,0,-1,1679,596,6.64037,-2.11229
462,428,4.84106,4.12341,0,0,0,0,0,0,0,-1,1686,596,4.84107,-4.12339
469,428,7.83789,3.10083,0,0,0,0,0,0,0,-1,1693,596,7.83785,-3.10086
476,428,7.61255,1.73956,0,0,0,0,0,0,0,-1,1700,596,7.61252,-1.73958
483,428,7.22766,1.05121,0,0,0,0,0,0,0,-1,1707,596,7.2277,-1.05121
490,428,5.4071,-3.2793,0,0,0,0,0,0,0,-1,1714,596,5.40707,3.27929
497,428,7.84106,-3.65491,0,0,0,0,0,0,0,-1,1721,596,7.84107,3.65491
504,428,6.92139,-2.83356,0,0,0,0,0,0,0,-1,1728,596,6.92137,2.83353
511,428,7.88501,-3.78723,0,0,0,0,0,0,0,-1,1735,596,7.88502,3.78722
518,428,66.0958,-82.11,0,0,0,0,0,0,0,-1,1742,596,66.0958,82.11
525,428,89.0146,-85.3292,0,0,0,0,0,0,0,-1,1749,596,89.0147,85.3292
532,428,106.135,-80.9557,0,0,0,0,0,0,0,-1,1756,596,106.135,80.9557
539,428,106.684,-75.7667,0,0,0,0,0,0,0,-1,1763,596,106.684,75.7667
546,428,105.675,-71.2748,0.0282159,0.0132567,-0.0408645,0.0622797,-0.0208071,-0.694883,0.0499224,0.0305131,1770,596,105.675,71.2748
553,428,104.649,-67.1466,0.0290591,0.0146779,-0.0423859,0.06486,-0.021123,-0.701375,0.0517388,0.0207128,1777,596,104.649,67.1466
560,428,103.468,-63.0841,0.0295867,0.0163516,-0.0442148,0.0676764,-0.0217381,-0.711115,0.0538467,0.0199141,1784,596,103.468,63.0841
567,428,102.371,-59.0095,0.0302867,0.0178652,-0.0462593,0.0707504,-0.0225984,-0.718668,0.0562343,0.0201744,1791,596,102.371,59.0095
574,428,101.372,-55.0388,0.0313297,0.0195888,-0.0484963,0.0743095,-0.0233911,-0.725167,0.0589057,0.0229258,1798,596,101.372,55.0388
581,428,100.397,-51.147,0.0327913,0.0214044,-0.0510262,0.0784407,-0.0242449,-0.729839,0.0619769,0.0182301,1805,596,100.397,51.147
588,428,99.5961,-47.2514,0.0347746,0.0230443,-0.053952,0.0831793,-0.0253604,-0.731255,0.0655622,0.03951,1812,596,99.5961,47.2514
595,428,98.8641,-43.301,0,0,0,0,0,0,0,-1,1819,596,98.8642,43.301
602,428,39.9447,-21.0615,0,0,0,0,0,0,0,-1,1826,596,39.9447,21.0615
609,428,17.2073,-4.82446,0,0,0,0,0,0,0,-1,1833,596,17.2073,4.82447
616,428,15.7817,-3.09558,0,0,0,0,0,0,0,-1,1840,596,15.7817,3.09556
623,428,9.53577,1.12518,0,0,0,0,0,0,0,-1,1847,596,9.5358,-1.1252
630,428,7.07996,6.88562,0,0,0,0,0,0,0,-1,1854,596,7.0799,-6.88565
637,428,3.95435,1.90857,0,0,0,0,0,0,0,-1,1861,596,3.95439,-1.90858
644,428,5.75476,0.888977,0,0,0,0,0,0,0,-1,1868,596,5.75472,-0.888955
651,428,0,0,0,0,0,0,0,0,0,-1,1875,596,0,0
658,428,0,0,0,0,0,0,0,0,0,-1,1882,596,0,0
665,428,0,0,0,0,0,0,0,0,0,-1,1889,596,0,0
672,428,0,0,0,0,0,0,0,0,0,-1,1896,596,0,0
679,428,0,0,0,0,0,0,0,0,0,-1,1903,596,0,0
686,428,0,0,0,0,0,0,0,0,0,-1,1910,596,0,0
693,428,0,0,0,0,0,0,0,0,0,-1,1917,596,0,0
700,428,0,0,0,0,0,0,0,0,0,-1,1924,596,0,0
707,428,0,0,0,0,0,0,0,0,0,-1,1931,596,0,0
714,428,0,0,0,0,0,0,0,0,0,-1,1938,596,0,0
721,428,0,0,0,0,0,0,0,0,0,-1,1945,596,0,0
728,428,0,0,0,0,0,0,0,0,0,-1,1952,596,0,0
735,428,0,0,0,0,0,0,0,0,0,-1,1959,596,0,0
742,428,0,0,0,0,0,0,0,0,0,-1,1966,596,0,0
749,428,0,0,0,0,0,0,0,0,0,-1,1973,596,0,0
756,428,0,0,0,0,0,0,0,0,0,-1,1980,596,0,0
763,428,0,0,0,0,0,0,0,0,0,-1,1987,596,0,0
770,428,0,0,0,0,0,0,0,0,0,-1,1994,596,0,0
777,428,0,0,0,0,0,0,0,0,0,-1,2001,596,0,0
784,428,0,0,0,0,0,0,0,0,0,-1,2008,596,0,0
791,428,0,0,0,0,0,0,0,0,0,-1,2015,596,0,0
798,428,0,0,0,0,0,0,0,0,0,-1,2022,596,0,0
805,428,0,0,0,0,0,0,0,0,0,-1,2029,596,0,0
812,428,0,0,0,0,0,0,0,0,0,-1,2036,596,0,0
-700,421,0,0,0,0,0,0,0,0,0,-1,524,603,0,0
-693,421,0,0,0,0,0,0,0,0,0,-1,531,603,0,0
-686,421,0,0,0,0,0,0,0,0,0,-1,538,603,0,0
-679,421,0,0,0,0,0,0,0,0,0,-1,545,603,0,0
-672,421,0,0,0,0,0,0,0,0,0,-1,552,603,0,0
-665,421,0,0,0,0,0,0,0,0,0,-1,559,603,0,0
-658,421,0,0,0,0,0,0,0,0,0,-1,566,603,0,0
-651,421,0,0,0,0,0,0,0,0,0,-1,573,603,0,0
-644,421,0,0,0,0,0,0,0,0,0,-1,580,603,0,0
-637,421,0,0,0,0,0,0,0,0,0,-1,587,603,0,0
-630,421,0,0,0,0,0,0,0,0,0,-1,594,603,0,0
-623,421,0,0,0,0,0,0,0,0,0,-1,601,603,0,0
-616,421,0,0,0,0,0,0,0,0,0,-1,608,603,0,0
-609,421,0,0,0,0,0,0,0,0,0,-1,615,603,0,0
-602,421,0,0,0,0,0,0,0,0,0,-1,622,603,0,0
-595,421,0,0,0,0,0,0,0,0,0,-1,629,603,0,0
-588,421,0,0,0,0,0,0,0,0,0,-1,636,603,0,0
-581,421,0,0,0,0,0,0,0,0,0,-1,643,603,0,0
-574,421,0,0,0,0,0,0,0,0,0,-1,650,603,0,0
-567,421,0,0,0,0,0,0,0,0,0,-1,657,603,0,0
-560,421,0,0,0,0,0,0,0,0,0,-1,664,603,0,0
-553,421,0,0,0,0,0,0,0,0,0,-1,671,603,0,0
-546,421,0,0,0,0,0,0,0,0,0,-1,678,603,0,0
-539,421,0,0,0,0,0,0,0,0,0,-1,685,603,0,0
-532,421,-8.97382,6.95636,0,0,0,0,0,0,0,-1,692,603,-8.97384,-6.95634
-525,421,-2.11481,-8.04272,0,0,0,0,0,0,0,-1,699,603,-2.11483,8.0427
-518,421,-3.05908,-5.07233,0,0,0,0,0,0,0,-1,706,603,-3.0591,5.07235
-511,421,-4.63525,-4.08447,0,0,0,0,0,0,0,-1,713,603,-4.63524,4.08449
-504,421,-5.17029,-4.94458,0,0,0,0,0,0,0,-1,720,603,-5.17029,4.9446
-497,421,-6.63141,-2.32501,0,0,0,0,0,0,0,-1,727,603,-6.6314,2.32498
-490,421,-6.7616,-4.14783,0,0,0,0,0,0,0,-1,734,603,-6.76159,4.1478
-483,421,-16.1866,-14.4011,0,0,0,0,0,0,0,-1,741,603,-16.1866,14.4011
-476,421,-80.0347,-36.0903,0,0,0,0,0,0,0,-1,748,603,-80.0347,36.0903
-469,421,-91.4702,-39.3745,0,0,0,0,0,0,0,-1,755,603,-91.4701,39.3745
-462,421,-92.4351,-43.397,0.0305483,0.040139,0.0508589,0.086428,-0.0157408,0.832403,0.0635191,0.0357524,762,603,-92.4351,43.397
-455,421,-93.448,-47.336,0.0296444,0.0352652,0.0494974,0.0820319,-0.0171223,0.813757,0.0611991,0.0289795,769,603,-93.448,47.336
-448,421,-94.2848,-51.2754,0.0287977,0.0307629,0.0482116,0.078002,-0.0184414,0.795588,0.0591152,0.0298453,776,603,-94.2848,51.2754
-441,421,-95.2922,-55.2043,0.0279574,0.026573,0.047113,0.0743833,-0.0198529,0.778053,0.0573633,0.0218362,783,603,-95.2922,55.2043
-434,421,-96.4202,-59.2386,0.0270926,0.0228245,0.0462343,0.0712421,-0.021325,0.762336,0.0559739,0.0146605,790,603,-96.4202,59.2386
-427,421,-97.4128,-63.3179,0.0260591,0.019612,0.0454323,0.068382,-0.022711,0.749981,0.0547516,0.0152212,797,603,-97.4128,63.3179
-420,421,-98.4828,-67.4273,0.0248906,0.0167768,0.0450432,0.0660592,-0.0243918,0.740485,0.0540373,0.0167985,804,603,-98.4829,67.4273
-413,421,-99.6948,-71.6253,0.0236294,0.014534,0.0450735,0.0643841,-0.0262206,0.735121,0.0538352,0.0205649,811,603,-99.6948,71.6253
-406,421,-101.234,-75.8061,0,0,0,0,0,0,0,-1,818,603,-101.235,75.8061
-399,421,-97.8541,-80.3696,0,0,0,0,0,0,0,-1,825,603,-97.8541,80.3696
-392,421,-39.7571,-54.787,0,0,0,0,0,0,0,-1,832,603,-39.7571,54.7871
-385,421,-11.5825,-18.8583,0,0,0,0,0,0,0,-1,839,603,-11.5825,18.8583
-378,421,-4.94733,-8.87909,0,0,0,0,0,0,0,-1,846,603,-4.94731,8.87906
-371,421,-5.65082,-7.01849,0,0,0,0,0,0,0,-1,853,603,-5.65082,7.0185
-364,421,-5.94189,-7.09875,0,0,0,0,0,0,0,-1,860,603,-5.94192,7.09878
-357,421,-7.62531,-8.26337,0,0,0,0,0,0,0,-1,867,603,-7.62532,8.26337
-350,421,-5.38019,-3.75024,0,0,0,0,0,0,0,-1,874,603,-5.38017,3.75026
-343,421,-6.22797,-2.57123,0,0,0,0,0,0,0,-1,881,603,-6.22798,2.57121
-336,421,-6.22882,-2.59369,0,0,0,0,0,0,0,-1,888,603,-6.22883,2.5937
-329,421,-4.50134,-1.49469,0,0,0,0,0,0,0,-1,895,603,-4.50137,1.49468
-322,421,-7.55817,1.13263,0,0,0,0,0,0,0,-1,902,603,-7.55818,-1.13263
-315,421,-4.16144,-1.96649,0,0,0,0,0,0,0,-1,909,603,-4.16146,1.9665
-308,421,0,0,0,0,0,0,0,0,0,-1,916,603,0,0
-301,421,0,0,0,0,0,0,0,0,0,-1,923,603,0,0
-294,421,0,0,0,0,0,0,0,0,0,-1,930,603,0,0
-287,421,0,0,0,0,0,0,0,0,0,-1,937,603,0,0
-280,421,0,0,0,0,0,0,0,0,0,-1,944,603,0,0
-273,421,0,0,0,0,0,0,0,0,0,-1,951,603,0,0
-266,421,0,0,0,0,0,0,0,0,0,-1,958,603,0,0
-259,421,0,0,0,0,0,0,0,0,0,-1,965,603,0,0
-252,421,0,0,0,0,0,0,0,0,0,-1,972,603,0,0
-245,421,0,0,0,0,0,0,0,0,0,-1,979,603,0,0
-238,421,0,0,0,0,0,0,0,0,0,-1,986,603,0,0
-231,421,0,0,0,0,0,0,0,0,0,-1,993,603,0,0
-224,421,0,0,0,0,0,0,0,0,0,-1,1000,603,0,0
-217,421,0,0,0,0,0,0,0,0,0,-1,1007,603,0,0
-210,421,0,0,0,0,0,0,0,0,0,-1,1014,603,0,0
-203,421,0,0,0,0,0,0,0,0,0,-1,1021,603,0,0
-196,421,0,0,0,0,0,0,0,0,0,-1,1028,603,0,0
-189,421,0,0,0,0,0,0,0,0,0,-1,1035,603,0,0
-182,421,0,0,0,0,0,0,0,0,0,-1,1042,603,0,0
-175,421,0,0,0,0,0,0,0,0,0,-1,1049,603,0,0
-168,421,0,0,0,0,0,0,0,0,0,-1,1056,603,0,0
-161,421,0,0,0,0,0,0,0,0,0,-1,1063,603,0,0
-154,421,0,0,0,0,0,0,0,0,0,-1,1070,603,0,0
-147,421,0,0,0,0,0,0,0,0,0,-1,1077,603,0,0
-140,421,0,0,0,0,0,0,0,0,0,-1,1084,603,0,0
-133,421,0,0,0,0,0,0,0,0,0,-1,1091,603,0,0
-126,421,0,0,0,0,0,0,0,0,0,-1,1098,603,0,0
-119,421,0,0,0,0,0,0,0,0,0,-1,1105,603,0,0
-112,421,0,0,0,0,0,0,0,0,0,-1,1112,603,0,0
-105,421,0,0,0,0,0,0,0,0,0,-1,1119,603,0,0
-98,421,0,0,0,0,0,0,0,0,0,-1,1126,603,0,0
-91,421,0,0,0,0,0,0,0,0,0,-1,1133,603,0,0
-84,421,0,0,0,0,0,0,0,0,0,-1,1140,603,0,0
-77,421,0,0,0,0,0,0,0,0,0,-1,1147,603,0,0
-70,421,0,0,0,0,0,0,0,0,0,-1,1154,603,0,0
-63,421,0,0,0,0,0,0,0,0,0,-1,1161,603,0,0
-56,421,0,0,0,0,0,0,0,0,0,-1,1168,603,0,0
-49,421,0,0,0,0,0,0,0,0,0,-1,1175,603,0,0
-42,421,0,0,0,0,0,0,0,0,0,-1,1182,603,0,0
-35,421,0,0,0,0,0,0,0,0,0,-1,1189,603,0,0
-28,421,0,0,0,0,0,0,0,0,0,-1,1196,603,0,0
-21,421,0,0,0,0,0,0,0,0,0,-1,1203,603,0,0
-14,421,0,0,0,0,0,0,0,0,0,-1,1210,603,0,0
-7,421,0,0,0,0,0,0,0,0,0,-1,1217,603,0,0
0,421,0,0,0,0,0,0,0,0,0,-1,1224,603,0,0
7,421,0,0,0,0,0,0,0,0,0,-1,1231,603,0,0
14,421,0,0,0,0,0,0,0,0,0,-1,1238,603,0,0
21,421,0,0,0,0,0,0,0,0,0,-1,1245,603,0,0
28,421,0,0,0,0,0,0,0,0,0,-1,1252,603,0,0
35,421,0,0,0,0,0,0,0,0,0,-1,1259,603,0,0
42,421,0,0,0,0,0,0,0,0,0,-1,1266,603,0,0
49,421,0,0,0,0,0,0,0,0,0,-1,1273,603,0,0
56,421,0,0,0,0,0,0,0,0,0,-1,1280,603,0,0
63,421,0,0,0,0,0,0,0,0,0,-1,1287,603,0,0
70,421,0,0,0,0,0,0,0,0,0,-1,1294,603,0,0
77,421,0,0,0,0,0,0,0,0,0,-1,1301,603,0,0
84,421,0,0,0,0,0,0,0,0,0,-1,1308,603,0,0
91,421,0,0,0,0,0,0,0,0,0,-1,1315,603,0,0
98,421,0,0,0,0,0,0,0,0,0,-1,1322,603,0,0
105,421,0,0,0,0,0,0,0,0,0,-1,1329,603,0,0
112,421,0,0,0,0,0,0,0,0,0,-1,1336,603,0,0
119,421,0,0,0,0,0,0,0,0,0,-1,1343,603,0,0
126,421,0,0,0,0,0,0,0,0,0,-1,1350,603,0,0
133,421,0,0,0,0,0,0,0,0,0,-1,1357,603,0,0
140,421,0,0,0,0,0,0,0,0,0,-1,1364,603,0,0
147,421,0,0,0,0,0,0,0,0,0,-1,1371,603,0,0
154,421,0,0,0,0,0,0,0,0,0,-1,1378,603,0,0
161,421,0,0,0,0,0,0,0,0,0,-1,1385,603,0,0
168,421,0,0,0,0,0,0,0,0,0,-1,1392,603,0,0
175,421,0,0,0,0,0,0,0,0,0,-1,1399,603,0,0
182,421,0,0,0,0,0,0,0,0,0,-1,1406,603,0,0
189,421,0,0,0,0,0,0,0,0,0,-1,1413,603,0,0
196,421,0,0,0,0,0,0,0,0,0,-1,1420,603,0,0
203,421,0,0,0,0,0,0,0,0,0,-1,1427,603,0,0
210,421,0,0,0,0,0,0,0,0,0,-1,1434,603,0,0
217,421,0,0,0,0,0,0,0,0,0,-1,1441,603,0,0
224,421,0,0,0,0,0,0,0,0,0,-1,1448,603,0,0
231,421,0,0,0,0,0,0,0,0,0,-1,1455,603,0,0
238,421,0,0,0,0,0,0,0,0,0,-1,1462,603,0,0
245,421,0,0,0,0,0,0,0,0,0,-1,1469,603,0,0
252,421,0,0,0,0,0,0,0,0,0,-1,1476,603,0,0
259,421,0,0,0,0,0,0,0,0,0,-1,1483,603,0,0
266,421,0,0,0,0,0,0,0,0,0,-1,1490,603,0,0
273,421,0,0,0,0,0,0,0,0,0,-1,1497,603,0,0
280,421,0,0,0,0,0,0,0,0,0,-1,1504,603,0,0
287,421,0,0,0,0,0,0,0,0,0,-1,1511,603,0,0
294,421,0,0,0,0,0,0,0,0,0,-1,1518,603,0,0
301,421,0,0,0,0,0,0,0,0,0,-1,1525,603,0,0
308,421,0,0,0,0,0,0,0,0,0,-1,1532,603,0,0
315,421,0,0,0,0,0,0,0,0,0,-1,1539,603,0,0
322,421,0,0,0,0,0,0,0,0,0,-1,1546,603,0,0
329,421,0,0,0,0,0,0,0,0,0,-1,1553,603,0,0
336,421,0,0,0,0,0,0,0,0,0,-1,1560,603,0,0
343,421,0,0,0,0,0,0,0,0,0,-1,1567,603,0,0
350,421,0,0,0,0,0,0,0,0,0,-1,1574,603,0,0
357,421,0,0,0,0,0,0,0,0,0,-1,1581,603,0,0
364,421,0,0,0,0,0,0,0,0,0,-1,1588,603,0,0
371,421,0,0,0,0,0,0,0,0,0,-1,1595,603,0,0
378,421,0,0,0,0,0,0,0,0,0,-1,1602,603,0,0
385,421,0,0,0,0,0,0,0,0,0,-1,1609,603,0,0
392,421,0,0,0,0,0,0,0,0,0,-1,1616,603,0,0
399,421,0,0,0,0,0,0,0,0,0,-1,1623,603,0,0
406,421,0,0,0,0,0,0,0,0,0,-1,1630,603,0,0
413,421,0,0,0,0,0,0,0,0,0,-1,1637,603,0,0
420,421,0,0,0,0,0,0,0,0,0,-1,1644,603,0,0
427,421,0,0,0,0,0,0,0,0,0,-1,1651,603,0,0
434,421,3.68176,-0.0327759,0,0,0,0,0,0,0,-1,1658,603,3.6818,0.0328037
441,421,8.06689,0.527832,0,0,0,0,0,0,0,-1,1665,603,8.06693,-0.527851
448,421,6.93921,0.802246,0,0,0,0,0,0,0,-1,1672,603,6.93923,-0.802251
455,421,7.29456,2.14825,0,0,0,0,0,0,0,-1,1679,603,7.29461,-2.14827
462,421,7.86902,3.53174,0,0,0,0,0,0,0,-1,1686,603,7.869,-3.53173
469,421,8.06604,2.81213,0,0,0,0,0,0,0,-1,1693,603,8.06606,-2.81212
476,421,8.26306,2.09253,0,0,0,0,0,0,0,-1,1700,603,8.26312,-2.09251
483,421,8.05322,0.798096,0,0,0,0,0,0,0,-1,1707,603,8.05323,-0.7981
490,421,7.51233,0.213074,0,0,0,0,0,0,0,-1,1714,603,7.51235,-0.213043
497,421,7.49634,-2.86688,0,0,0,0,0,0,0,-1,1721,603,7.4963,2.86688
504,421,6.90491,-2.18671,0,0,0,0,0,0,0,-1,1728,603,6.90491,2.18669
511,421,6.31348,-1.50653,0,0,0,0,0,0,0,-1,1735,603,6.31353,1.5065
518,421,6.27588,-2.49878,0,0,0,0,0,0,0,-1,1742,603,6.2759,2.4988
525,421,30.6759,-25.1779,0,0,0,0,0,0,0,-1,1749,603,30.6759,25.1779
532,421,97.0912,-78.8753,0,0,0,0,0,0,0,-1,1756,603,97.0912,78.8753
539,421,111.278,-74.0502,0,0,0,0,0,0,0,-1,1763,603,111.278,74.0501
546,421,110.232,-69.7444,0.0246459,0.0141955,-0.0368135,0.0566032,-0.0177618,-0.714901,0.0448443,0.0245041,1770,603,110.232,69.7445
553,421,109.082,-65.6085,0.0252926,0.0153173,-0.0386012,0.059227,-0.0186172,-0.721149,0.0469377,0.0229707,1777,603,109.082,65.6085
560,421,108.018,-61.5772,0.0255713,0.0165347,-0.0406742,0.0619774,-0.0198713,-0.730082,0.0492957,0.0219774,1784,603,108.018,61.5772
567,421,106.985,-57.6984,0.0260715,0.017755,-0.0429343,0.0650484,-0.021222,-0.737123,0.0519064,0.0251999,1791,603,106.985,57.6984
574,421,105.99,-53.7051,0.0269034,0.0193359,-0.0453941,0.0686712,-0.0224319,-0.743817,0.0548102,0.0318024,1798,603,105.991,53.7051
581,421,105.042,-49.7952,0.0281909,0.0212097,-0.0481305,0.0729572,-0.0235566,-0.7492,0.0581045,0.0292655,1805,603,105.042,49.7952
588,421,104.109,-45.9213,0.029942,0.0231187,-0.0512299,0.0778737,-0.024813,-0.75215,0.0618682,0.0190941,1812,603,104.109,45.9213
595,421,103.262,-41.9514,0.0324002,0.0252291,-0.0546836,0.0836156,-0.0259864,-0.75266,0.0661303,0.0416197,1819,603,103.262,41.9513
602,421,102.523,-37.9293,0,0,0,0,0,0,0,-1,1826,603,102.523,37.9293
609,421,22.8762,-8.37524,0,0,0,0,0,0,0,-1,1833,603,22.8762,8.37525
616,421,17.7633,-4.72491,0,0,0,0,0,0,0,-1,1840,603,17.7633,4.7249
623,421,6.19885,0.376648,0,0,0,0,0,0,0,-1,1847,603,6.19881,-0.376624
630,421,6.54993,0.778748,0,0,0,0,0,0,0,-1,1854,603,6.54991,-0.778744
637,421,3.74512,1.65405,0,0,0,0,0,0,0,-1,1861,603,3.74517,-1.65407
644,421,3.58081,0.354675,0,0,0,0,0,0,0,-1,1868,603,3.58082,-0.354704
651,421,3.28687,3.66351,0,0,0,0,0,0,0,-1,1875,603,3.28688,-3.66353
658,421,0,0,0,0,0,0,0,0,0,-1,1882,603,0,0
665,421,0,0,0,0,0,0,0,0,0,-1,1889,603,0,0
672,421,0,0,0,0,0,0,0,0,0,-1,1896,603,0,0
679,421,0,0,0,0,0,0,0,0,0,-1,1903,603,0,0
686,421,0,0,0,0,0,0,0,0,0,-1,1910,603,0,0
693,421,0,0,0,0,0,0,0,0,0,-1,1917,603,0,0
700,421,0,0,0,0,0,0,0,0,0,-1,1924,603,0,0
707,421,0,0,0,0,0,0,0,0,0,-1,1931,603,0,0
714,421,0,0,0,0,0,0,0,0,0,-1,1938,603,0,0
721,421,0,0,0,0,0,0,0,0,0,-1,1945,603,0,0
728,421,0,0,0,0,0,0,0,0,0,-1,1952,603,0,0
735,421,0,0,0,0,0,0,0,0,0,-1,1959,603,0,0
742,421,0,0,0,0,0,0,0,0,0,-1,1966,603,0,0
749,421,0,0,0,0,0,0,0,0,0,-1,1973,603,0,0
756,421,0,0,0,0,0,0,0,0,0,-1,1980,603,0,0
763,421,0,0,0,0,0,0,0,0,0,-1,1987,603,0,0
770,421,0,0,0,0,0,0,0,0,0,-1,1994,603,0,0
777,421,0,0,0,0,0,0,0,0,0,-1,2001,603,0,0
784,421,0,0,0,0,0,0,0,0,0,-1,2008,603,0,0
791,421,0,0,0,0,0,0,0,0,0,-1,2015,603,0,0
798,421,0,0,0,0,0,0,0,0,0,-1,2022,603,0,0
805,421,0,0,0,0,0,0,0,0,0,-1,2029,603,0,0
812,421,0,0,0,0,0,0,0,0,0,-1,2036,603,0,0
-700,414,0,0,0,0,0,0,0,0,0,-1,524,610,0,0
-693,414,0,0,0,0,0,0,0,0,0,-1,531,610,0,0
-686,414,0,0,0,0,0,0,0,0,0,-1,538,610,0,0
-679,414,0,0,0,0,0,0,0,0,0,-1,545,610,0,0
-672,414,0,0,0,0,0,0,0,0,0,-1,552,610,0,0
-665,414,0,0,0,0,0,0,0,0,0,-1,559,610,0,0
-658,414,0,0,0,0,0,0,0,0,0,-1,566,610,0,0
-651,414,0,0,0,0,0,0,0,0,0,-1,573,610,0,0
-644,414,0,0,0,0,0,0,0,0,0,-1,580,610,0,0
-637,414,0,0,0,0,0,0,0,0,0,-1,587,610,0,0
-630,414,0,0,0,0,0,0,0,0,0,-1,594,610,0,0
-623,414,0,0,0,0,0,0,0,0,0,-1,601,610,0,0
-616,414,0,0,0,0,0,0,0,0,0,-1,608,610,0,0
-609,414,0,0,0,0,0,0,0,0,0,-1,615,610,0,0
-602,414,0,0,0,0,0,0,0,0,0,-1,622,610,0,0
-595,414,0,0,0,0,0,0,0,0,0,-1,629,610,0,0
-588,414,0,0,0,0,0,0,0,0,0,-1,636,610,0,0
-581,414,0,0,0,0,0,0,0,0,0,-1,643,610,0,0
-574,414,0,0,0,0,0,0,0,0,0,-1,650,610,0,0
-567,414,0,0,0,0,0,0,0,0,0,-1,657,610,0,0
-560,414,0,0,0,0,0,0,0,0,0,-1,664,610,0,0
-553,414,0,0,0,0,0,0,0,0,0,-1,671,610,0,0
-546,414,0,0,0,0,0,0,0,0,0,-1,678,610,0,0
-539,414,-7.50146,5.65619,0,0,0,0,0,0,0,-1,685,610,-7.50149,-5.65617
-532,414,-8.15204,4.01605,0,0,0,0,0,0,0,-1,692,610,-8.15206,-4.01606
-525,414,-3.47137,-3.27924,0,0,0,0,0,0,0,-1,699,610,-3.47136,3.27922
-518,414,-4.12909,-4.36908,0,0,0,0,0,0,0,-1,706,610,-4.12909,4.36909
-511,414,-3.92542,-4.97021,0,0,0,0,0,0,0,-1,713,610,-3.92542,4.97023
-504,414,-9.35394,-5.49896,0,0,0,0,0,0,0,-1,720,610,-9.35394,5.49898
-497,414,-9.67627,-6.54761,0,0,0,0,0,0,0,-1,727,610,-9.6763,6.5476
-490,414,-17.4136,-12.953,0,0,0,0,0,0,0,-1,734,610,-17.4136,12.953
-483,414,-94.72,-30.7003,0,0,0,0,0,0,0,-1,741,610,-94.72,30.7002
-476,414,-95.6726,-34.285,0,0,0,0,0,0,0,-1,748,610,-95.6726,34.285
-469,414,-96.2128,-38.2729,0.02902,0.0434934,0.0503583,0.0871323,-0.0146189,0.856762,0.0635244,0.0339626,755,610,-96.2129,38.2729
-462,414,-97.0461,-42.1731,0.0277075,0.0384105,0.049239,0.0825879,-0.0164699,0.839528,0.0612907,0.0302853,762,610,-97.0461,42.1731
-455,414,-98.0637,-46.075,0.0266134,0.0336929,0.0479457,0.0782293,-0.0179231,0.822245,0.0590411,0.0345893,769,610,-98.0637,46.075
-448,414,-98.9409,-49.9915,0.0255442,0.0293238,0.0466798,0.074152,-0.019284,0.80563,0.0569614,0.0353458,776,610,-98.9409,49.9915
-441,414,-99.9008,-53.8658,0.0245997,0.0253351,0.0454733,0.0704422,-0.0205074,0.789441,0.0550848,0.0253855,783,610,-99.9007,53.8658
-434,414,-100.933,-57.7847,0.0236849,0.0218401,0.0443723,0.0671444,-0.0216195,0.775006,0.0534474,0.0145244,790,610,-100.933,57.7847
-427,414,-101.926,-61.8203,0.0225922,0.0189087,0.0432576,0.0640472,-0.0225463,0.764123,0.0518734,0.0153348,797,610,-101.926,61.8203
-420,414,-103.02,-65.8754,0.0213528,0.0163987,0.0424568,0.0614048,-0.0236532,0.75626,0.0506949,0.0157091,804,610,-103.02,65.8754
-413,414,-104.213,-70.1024,0.0200579,0.0145139,0.0419123,0.0592897,-0.0247179,0.752377,0.0498521,0.0286224,811,610,-104.213,70.1024
-406,414,-105.541,-74.4045,0,0,0,0,0,0,0,-1,818,610,-105.541,74.4045
-399,414,-38.7434,-47.9197,0,0,0,0,0,0,0,-1,825,610,-38.7434,47.9197
-392,414,-9.43781,-14.5624,0,0,0,0,0,0,0,-1,832,610,-9.43779,14.5624
-385,414,-8.14691,-13.0653,0,0,0,0,0,0,0,-1,839,610,-8.14692,13.0653
-378,414,-8.04907,-11.3331,0,0,0,0,0,0,0,-1,846,610,-8.04905,11.3331
-371,414,-5.20886,-8.05151,0,0,0,0,0,0,0,-1,853,610,-5.20887,8.05153
-364,414,-6.76282,-6.58759,0,0,0,0,0,0,0,-1,860,610,-6.7628,6.58756
-357,414,-9.08685,-8.86188,0,0,0,0,0,0,0,-1,867,610,-9.08688,8.86187
-350,414,-6.4502,-2.41821,0,0,0,0,0,0,0,-1,874,610,-6.45021,2.41822
-343,414,-6.80249,-2.32117,0,0,0,0,0,0,0,-1,881,610,-6.80252,2.32116
-336,414,-7.11017,-2.52026,0,0,0,0,0,0,0,-1,888,610,-7.11016,2.52026
-329,414,-7.59747,-2.70313,0,0,0,0,0,0,0,-1,895,610,-7.59747,2.70315
-322,414,-4.42236,-1.29163,0,0,0,0,0,0,0,-1,902,610,-4.42238,1.2916
-315,414,0,0,0,0,0,0,0,0,0,-1,909,610,0,0
-308,414,0,0,0,0,0,0,0,0,0,-1,916,610,0,0
-301,414,0,0,0,0,0,0,0,0,0,-1,923,610,0,0
-294,414,0,0,0,0,0,0,0,0,0,-1,930,610,0,0
-287,414,0,0,0,0,0,0,0,0,0,-1,937,610,0,0
-280,414,0,0,0,0,0,0,0,0,0,-1,944,610,0,0
-273,414,0,0,0,0,0,0,0,0,0,-1,951,610,0,0
-266,414,0,0,0,0,0,0,0,0,0,-1,958,610,0,0
-259,414,0,0,0,0,0,0,0,0,0,-1,965,610,0,0
-252,414,0,0,0,0,0,0,0,0,0,-1,972,610,0,0
-245,414,0,0,0,0,0,0,0,0,0,-1,979,610,0,0
-238,414,0,0,0,0,0,0,0,0,0,-1,986,610,0,0
-231,414,0,0,0,0,0,0,0,0,0,-1,993,610,0,0
-224,414,0,0,0,0,0,0,0,0,0,-1,1000,610,0,0
-217,414,0,0,0,0,0,0,0,0,0,-1,1007,610,0,0
-210,414,0,0,0,0,0,0,0,0,0,-1,1014,610,0,0
-203,414,0,0,0,0,0,0,0,0,0,-1,1021,610,0,0
-196,414,0,0,0,0,0,0,0,0,0,-1,1028,610,0,0
-189,414,0,0,0,0,0,0,0,0,0,-1,1035,610,0,0
-182,414,0,0,0,0,0,0,0,0,0,-1,1042,610,0,0
-175,414,0,0,0,0,0,0,0,0,0,-1,1049,610,0,0
-168,414,0,0,0,0,0,0,0,0,0,-1,1056,610,0,0
-161,414,0,0,0,0,0,0,0,0,0,-1,1063,610,0,0
-154,414,0,0,0,0,0,0,0,0,0,-1,1070,610,0,0
-147,414,0,0,0,0,0,0,0,0,0,-1,1077,610,0,0
-140,414,0,0,0,0,0,0,0,0,0,-1,1084,610,0,0
-133,414,0,0,0,0,0,0,0,0,0,-1,1091,610,0,0
-126,414,0,0,0,0,0,0,0,0,0,-1,1098,610,0,0
-119,414,0,0,0,0,0,0,0,0,0,-1,1105,610,0,0
-112,414,0,0,0,0,0,0,0,0,0,-1,1112,610,0,0
-105,414,0,0,0,0,0,0,0,0,0,-1,1119,610,0,0
-98,414,0,0,0,0,0,0,0,0,0,-1,1126,610,0,0
-91,414,0,0,0,0,0,0,0,0,0,-1,1133,610,0,0
-84,414,0,0,0,0,0,0,0,0,0,-1,1140,610,0,0
-77,414,0,0,0,0,0,0,0,0,0,-1,1147,610,0,0
-70,414,0,0,0,0,0,0,0,0,0,-1,1154,610,0,0
-63,414,0,0,0,0,0,0,0,0,0,-1,1161,610,0,0
-56,414,0,0,0,0,0,0,0,0,0,-1,1168,610,0,0
-49,414,0,0,0,0,0,0,0,0,0,-1,1175,610,0,0
-42,414,0,0,0,0,0,0,0,0,0,-1,1182,610,0,0
-35,414,0,0,0,0,0,0,0,0,0,-1,1189,610,0,0
-28,414,0,0,0,0,0,0,0,0,0,-1,1196,610,0,0
-21,414,0,0,0,0,0,0,0,0,0,-1,1203,610,0,0
-14,414,0,0,0,0,0,0,0,0,0,-1,1210,610,0,0
-7,414,0,0,0,0,0,0,0,0,0,-1,1217,610,0,0
0,414,0,0,0,0,0,0,0,0,0,-1,1224,610,0,0
7,414,0,0,0,0,0,0,0,0,0,-1,1231,610,0,0
14,414,0,0,0,0,0,0,0,0,0,-1,1238,610,0,0
21,414,0,0,0,0,0,0,0,0,0,-1,1245,610,0,0
28,414,0,0,0,0,0,0,0,0,0,-1,1252,610,0,0
35,414,0,0,0,0,0,0,0,0,0,-1,1259,610,0,0
42,414,0,0,0,0,0,0,0,0,0,-1,1266,610,0,0
49,414,0,0,0,0,0,0,0,0,0,-1,1273,610,0,0
56,414,0,0,0,0,0,0,0,0,0,-1,1280,610,0,0
63,414,0,0,0,0,0,0,0,0,0,-1,1287,610,0,0
70,414,0,0,0,0,0,0,0,0,0,-1,1294,610,0,0
77,414,0,0,0,0,0,0,0,0,0,-1,1301,610,0,0
84,414,0,0,0,0,0,0,0,0,0,-1,1308,610,0,0
91,414,0,0,0,0,0,0,0,0,0,-1,1315,610,0,0
98,414,0,0,0,0,0,0,0,0,0,-1,1322,610,0,0
105,414,0,0,0,0,0,0,0,0,0,-1,1329,610,0,0
112,414,0,0,0,0,0,0,0,0,0,-1,1336,610,0,0
119,414,0,0,0,0,0,0,0,0,0,-1,1343,610,0,0
126,414,0,0,0,0,0,0,0,0,0,-1,1350,610,0,0
133,414,0,0,0,0,0,0,0,0,0,-1,1357,610,0,0
140,414,0,0,0,0,0,0,0,0,0,-1,1364,610,0,0
147,414,0,0,0,0,0,0,0,0,0,-1,1371,610,0,0
154,414,0,0,0,0,0,0,0,0,0,-1,1378,610,0,0
161,414,0,0,0,0,0,0,0,0,0,-1,1385,610,0,0
168,414,0,0,0,0,0,0,0,0,0,-1,1392,610,0,0
175,414,0,0,0,0,0,0,0,0,0,-1,1399,610,0,0
182,414,0,0,0,0,0,0,0,0,0,-1,1406,610,0,0
189,414,0,0,0,0,0,0,0,0,0,-1,1413,610,0,0
196,414,0,0,0,0,0,0,0,0,0,-1,1420,610,0,0
203,414,0,0,0,0,0,0,0,0,0,-1,1427,610,0,0
210,414,0,0,0,0,0,0,0,0,0,-1,1434,610,0,0
217,414,0,0,0,0,0,0,0,0,0,-1,1441,610,0,0
224,414,0,0,0,0,0,0,0,0,0,-1,1448,610,0,0
231,414,0,0,0,0,0,0,0,0,0,-1,1455,610,0,0
238,414,0,0,0,0,0,0,0,0,0,-1,1462,610,0,0
245,414,0,0,0,0,0,0,0,0,0,-1,1469,610,0,0
252,414,0,0,0,0,0,0,0,0,0,-1,1476,610,0,0
259,414,0,0,0,0,0,0,0,0,0,-1,1483,610,0,0
266,414,0,0,0,0,0,0,0,0,0,-1,1490,610,0,0
273,414,0,0,0,0,0,0,0,0,0,-1,1497,610,0,0
280,414,0,0,0,0,0,0,0,0,0,-1,1504,610,0,0
287,414,0,0,0,0,0,0,0,0,0,-1,1511,610,0,0
294,414,0,0,0,0,0,0,0,0,0,-1,1518,610,0,0
301,414,0,0,0,0,0,0,0,0,0,-1,1525,610,0,0
308,414,0,0,0,0,0,0,0,0,0,-1,1532,610,0,0
315,414,0,0,0,0,0,0,0,0,0,-1,1539,610,0,0
322,414,0,0,0,0,0,0,0,0,0,-1,1546,610,0,0
329,414,0,0,0,0,0,0,0,0,0,-1,1553,610,0,0
336,414,0,0,0,0,0,0,0,0,0,-1,1560,610,0,0
343,414,0,0,0,0,0,0,0,0,0,-1,1567,610,0,0
350,414,0,0,0,0,0,0,0,0,0,-1,1574,610,0,0
357,414,0,0,0,0,0,0,0,0,0,-1,1581,610,0,0
364,414,0,0,0,0,0,0,0,0,0,-1,1588,610,0,0
371,414,0,0,0,0,0,0,0,0,0,-1,1595,610,0,0
378,414,0,0,0,0,0,0,0,0,0,-1,1602,610,0,0
385,414,0,0,0,0,0,0,0,0,0,-1,1609,610,0,0
392,414,0,0,0,0,0,0,0,0,0,-1,1616,610,0,0
399,414,0,0,0,0,0,0,0,0,0,-1,1623,610,0,0
406,414,0,0,0,0,0,0,0,0,0,-1,1630,610,0,0
413,414,0,0,0,0,0,0,0,0,0,-1,1637,610,0,0
420,414,0,0,0,0,0,0,0,0,0,-1,1644,610,0,0
427,414,0,0,0,0,0,0,0,0,0,-1,1651,610,0,0
434,414,0,0,0,0,0,0,0,0,0,-1,1658,610,0,0
441,414,7.84375,0.584412,0,0,0,0,0,0,0,-1,1665,610,7.84379,-0.584394
448,414,7.40808,1.25446,0,0,0,0,0,0,0,-1,1672,610,7.40807,-1.25446
455,414,6.3512,1.73846,0,0,0,0,0,0,0,-1,1679,610,6.3512,-1.73847
462,414,8.18103,3.22113,0,0,0,0,0,0,0,-1,1686,610,8.18108,-3.22112
469,414,8.38513,2.49579,0,0,0,0,0,0,0,-1,1693,610,8.38516,-2.49576
476,414,8.64099,1.71161,0,0,0,0,0,0,0,-1,1700,610,8.64097,-1.71164
483,414,8.62744,0.687622,0,0,0,0,0,0,0,-1,1707,610,8.62749,-0.687615
490,414,8.38831,-0.0302734,0,0,0,0,0,0,0,-1,1714,610,8.38835,0.0302913
497,414,4.71094,-0.110046,0,0,0,0,0,0,0,-1,1721,610,4.71089,0.110024
504,414,7.19568,-1.43835,0,0,0,0,0,0,0,-1,1728,610,7.19563,1.43836
511,414,5.94153,-1.28772,0,0,0,0,0,0,0,-1,1735,610,5.94151,1.28769
518,414,4.53381,-0.0996704,0,0,0,0,0,0,0,-1,1742,610,4.53378,0.0996819
525,414,6.18811,-1.64056,0,0,0,0,0,0,0,-1,1749,610,6.18814,1.64055
532,414,32.4541,-24.196,0,0,0,0,0,0,0,-1,1756,610,32.4541,24.196
539,414,115.448,-72.799,0,0,0,0,0,0,0,-1,1763,610,115.448,72.799
546,414,114.601,-68.4497,0.020949,0.0149209,-0.0320066,0.0500832,-0.0142132,-0.738452,0.0389996,0.0450114,1770,610,114.601,68.4497
553,414,113.548,-64.2176,0.0214415,0.015848,-0.0339926,0.0527522,-0.0154627,-0.744353,0.0412988,0.0379272,1777,610,113.548,64.2176
560,414,112.494,-60.1025,0.0215833,0.0164638,-0.0363172,0.0554308,-0.0173837,-0.750215,0.0439108,0.0404905,1784,610,112.494,60.1025
567,414,111.415,-56.1315,0,0,0,0,0,0,0,-1,1791,610,111.415,56.1315
574,414,110.469,-52.2621,0.0225603,0.0188813,-0.0415236,0.0622851,-0.0208435,-0.763263,0.0499428,0.0383991,1798,610,110.469,52.2621
581,414,109.386,-48.3123,0.0237017,0.0207753,-0.0444657,0.0667282,-0.0222512,-0.768951,0.0534688,0.0308492,1805,610,109.386,48.3123
588,414,108.228,-44.4926,0.0252264,0.0228928,-0.0477665,0.0718404,-0.0237212,-0.773187,0.0574567,0.0252631,1812,610,108.228,44.4926
595,414,107.305,-40.6222,0.0272208,0.0252735,-0.0513655,0.0776218,-0.0251275,-0.775922,0.0618492,0.034058,1819,610,107.305,40.6222
602,414,106.479,-37.0255,0.0302923,0.0286387,-0.055456,0.0849277,-0.0259967,-0.777944,0.0669872,0.0476964,1826,610,106.48,37.0255
609,414,105.627,-33.1524,0,0,0,0,0,0,0,-1,1833,610,105.627,33.1524
616,414,51.8026,-23.4824,0,0,0,0,0,0,0,-1,1840,610,51.8027,23.4824
623,414,9.6969,0.0378418,0,0,0,0,0,0,0,-1,1847,610,9.69685,-0.0378644
630,414,5.47144,0.499329,0,0,0,0,0,0,0,-1,1854,610,5.47142,-0.499303
637,414,8.36707,4.16278,0,0,0,0,0,0,0,-1,1861,610,8.36709,-4.16278
644,414,5.87073,1.51422,0,0,0,0,0,0,0,-1,1868,610,5.87076,-1.51424
651,414,3.6377,0.820557,0,0,0,0,0,0,0,-1,1875,610,3.6377,-0.820543
658,414,2.29761,3.87323,0,0,0,0,0,0,0,-1,1882,610,2.29758,-3.87325
665,414,0,0,0,0,0,0,0,0,0,-1,1889,610,0,0
672,414,0,0,0,0,0,0,0,0,0,-1,1896,610,0,0
679,414,0,0,0,0,0,0,0,0,0,-1,1903,610,0,0
686,414,0,0,0,0,0,0,0,0,0,-1,1910,610,0,0
693,414,0,0,0,0,0,0,0,0,0,-1,1917,610,0,0
700,414,0,0,0,0,0,0,0,0,0,-1,1924,610,0,0
707,414,0,0,0,0,0,0,0,0,0,-1,1931,610,0,0
714,414,0,0,0,0,0,0,0,0,0,-1,1938,610,0,0
721,414,0,0,0,0,0,0,0,0,0,-1,1945,610,0,0
728,414,0,0,0,0,0,0,0,0,0,-1,1952,610,0,0
735,414,0,0,0,0,0,0,0,0,0,-1,1959,610,0,0
742,414,0,0,0,0,0,0,0,0,0,-1,1966,610,0,0
749,414,0,0,0,0,0,0,0,0,0,-1,1973,610,0,0
756,414,0,0,0,0,0,0,0,0,0,-1,1980,610,0,0
763,414,0,0,0,0,0,0,0,0,0,-1,1987,610,0,0
770,414,0,0,0,0,0,0,0,0,0,-1,1994,610,0,0
777,414,0,0,0,0,0,0,0,0,0,-1,2001,610,0,0
784,414,0,0,0,0,0,0,0,0,0,-1,2008,610,0,0
791,414,0,0,0,0,0,0,0,0,0,-1,2015,610,0,0
798,414,0,0,0,0,0,0,0,0,0,-1,2022,610,0,0
805,414,0,0,0,0,0,0,0,0,0,-1,2029,610,0,0
812,414,0,0,0,0,0,0,0,0,0,-1,2036,610,0,0
-700,407,0,0,0,0,0,0,0,0,0,-1,524,617,0,0
-693,407,0,0,0,0,0,0,0,0,0,-1,531,617,0,0
-686,407,0,0,0,0,0,0,0,0,0,-1,538,617,0,0
-679,407,0,0,0,0,0,0,0,0,0,-1,545,617,0,0
-672,407,0,0,0,0,0,0,0,0,0,-1,552,617,0,0
-665,407,0,0,0,0,0,0,0,0,0,-1,559,617,0,0
-658,407,0,0,0,0,0,0,0,0,0,-1,566,617,0,0
-651,407,0,0,0,0,0,0,0,0,0,-1,573,617,0,0
-644,407,0,0,0,0,0,0,0,0,0,-1,580,617,0,0
-637,407,0,0,0,0,0,0,0,0,0,-1,587,617,0,0
-630,407,0,0,0,0,0,0,0,0,0,-1,594,617,0,0
-623,407,0,0,0,0,0,0,0,0,0,-1,601,617,0,0
-616,407,0,0,0,0,0,0,0,0,0,-1,608,617,0,0
-609,407,0,0,0,0,0,0,0,0,0,-1,615,617,0,0
-602,407,0,0,0,0,0,0,0,0,0,-1,622,617,0,0
-595,407,0,0,0,0,0,0,0,0,0,-1,629,617,0,0
-588,407,0,0,0,0,0,0,0,0,0,-1,636,617,0,0
-581,407,0,0,0,0,0,0,0,0,0,-1,643,617,0,0
-574,407,0,0,0,0,0,0,0,0,0,-1,650,617,0,0
-567,407,0,0,0,0,0,0,0,0,0,-1,657,617,0,0
-560,407,0,0,0,0,0,0,0,0,0,-1,664,617,0,0
-553,407,0,0,0,0,0,0,0,0,0,-1,671,617,0,0
-546,407,-8.54517,-0.658142,0,0,0,0,0,0,0,-1,678,617,-8.54515,0.658112
-539,407,-6.09442,-1.01154,0,0,0,0,0,0,0,-1,685,617,-6.09441,1.01155
-532,407,-7.75665,1.62152,0,0,0,0,0,0,0,-1,692,617,-7.75667,-1.62154
-525,407,-3.78247,-2.67639,0,0,0,0,0,0,0,-1,699,617,-3.78246,2.67638
-518,407,-5.013,-5.87323,0,0,0,0,0,0,0,-1,706,617,-5.013,5.87324
-511,407,-9.42743,-4.94189,0,0,0,0,0,0,0,-1,713,617,-9.42745,4.94191
-504,407,-10.8291,-8.05927,0,0,0,0,0,0,0,-1,720,617,-10.8291,8.05927
-497,407,-9.84467,-6.81641,0,0,0,0,0,0,0,-1,727,617,-9.84468,6.8164
-490,407,-97.9966,-25.9276,0,0,0,0,0,0,0,-1,734,617,-97.9966,25.9276
-483,407,-98.9005,-29.8834,0.0301184,0.0523338,0.049405,0.0918644,-0.00941218,0.895974,0.0646092,0.0440207,741,617,-98.9005,29.8834
-476,407,-99.7153,-33.4602,0.0278013,0.0463779,0.0490913,0.0870518,-0.0128727,0.878895,0.062767,0.0245716,748,617,-99.7153,33.4602
-469,407,-100.465,-37.1242,0.0260597,0.0410961,0.0482576,0.0824177,-0.0152619,0.862673,0.0606756,0.018432,755,617,-100.465,37.1242
-462,407,-101.349,-40.9091,0.0245861,0.0361663,0.0472122,0.0779421,-0.0171897,0.846413,0.0585387,0.0277859,762,617,-101.349,40.9091
-455,407,-102.37,-44.7801,0.023284,0.0316256,0.045965,0.0736087,-0.0186991,0.830644,0.0563493,0.0288362,769,617,-102.37,44.7801
-448,407,-103.35,-48.5714,0.0220706,0.0273999,0.0446832,0.0694977,-0.0200273,0.81518,0.0542541,0.0243585,776,617,-103.35,48.5714
-441,407,-104.358,-52.3926,0.0210763,0.0236014,0.0433529,0.0657101,-0.0210324,0.799955,0.0522483,0.0187386,783,617,-104.358,52.3926
-434,407,-105.349,-56.3349,0.0201742,0.0203498,0.0420108,0.062273,-0.0217489,0.786443,0.0503556,0.015043,790,617,-105.349,56.3349
-427,407,-106.41,-60.3336,0.0191364,0.0176652,0.040594,0.0590015,-0.0221999,0.776339,0.04846,0.0155213,797,617,-106.41,60.3335
-420,407,-107.565,-64.3669,0.0179736,0.0154729,0.0393822,0.0561253,-0.0226788,0.769529,0.0468436,0.0219745,804,617,-107.565,64.3669
-413,407,-108.754,-68.4759,0,0,0,0,0,0,0,-1,811,617,-108.754,68.4759
-406,407,-60.2758,-66.5497,0,0,0,0,0,0,0,-1,818,617,-60.2757,66.5497
-399,407,-16.5686,-23.1791,0,0,0,0,0,0,0,-1,825,617,-16.5686,23.1791
-392,407,-8.33612,-12.195,0,0,0,0,0,0,0,-1,832,617,-8.33611,12.195
-385,407,-7.65765,-10.7744,0,0,0,0,0,0,0,-1,839,617,-7.65767,10.7744
-378,407,-6.08655,-7.42291,0,0,0,0,0,0,0,-1,846,617,-6.08652,7.42292
-371,407,-7.4007,-5.79449,0,0,0,0,0,0,0,-1,853,617,-7.40072,5.79447
-364,407,-10.0638,-6.6228,0,0,0,0,0,0,0,-1,860,617,-10.0639,6.62279
-357,407,-6.64447,-1.83337,0,0,0,0,0,0,0,-1,867,617,-6.64446,1.8334
-350,407,-7.03351,-1.77551,0,0,0,0,0,0,0,-1,874,617,-7.03349,1.77551
-343,407,-7.40967,-1.95026,0,0,0,0,0,0,0,-1,881,617,-7.40969,1.95026
-336,407,-8.10229,-2.40662,0,0,0,0,0,0,0,-1,888,617,-8.10229,2.40664
-329,407,-8.81232,-2.76331,0,0,0,0,0,0,0,-1,895,617,-8.81235,2.76331
-322,407,0,0,0,0,0,0,0,0,0,-1,902,617,0,0
-315,407,0,0,0,0,0,0,0,0,0,-1,909,617,0,0
-308,407,0,0,0,0,0,0,0,0,0,-1,916,617,0,0
-301,407,0,0,0,0,0,0,0,0,0,-1,923,617,0,0
-294,407,0,0,0,0,0,0,0,0,0,-1,930,617,0,0
-287,407,0,0,0,0,0,0,0,0,0,-1,937,617,0,0
-280,407,0,0,0,0,0,0,0,0,0,-1,944,617,0,0
-273,407,0,0,0,0,0,0,0,0,0,-1,951,617,0,0
-266,407,0,0,0,0,0,0,0,0,0,-1,958,617,0,0
-259,407,0,0,0,0,0,0,0,0,0,-1,965,617,0,0
-252,407,0,0,0,0,0,0,0,0,0,-1,972,617,0,0
-245,407,0,0,0,0,0,0,0,0,0,-1,979,617,0,0
-238,407,0,0,0,0,0,0,0,0,0,-1,986,617,0,0
-231,407,0,0,0,0,0,0,0,0,0,-1,993,617,0,0
-224,407,0,0,0,0,0,0,0,0,0,-1,1000,617,0,0
-217,407,0,0,0,0,0,0,0,0,0,-1,1007,617,0,0
-210,407,0,0,0,0,0,0,0,0,0,-1,1014,617,0,0
-203,407,0,0,0,0,0,0,0,0,0,-1,1021,617,0,0
-196,407,0,0,0,0,0,0,0,0,0,-1,1028,617,0,0
-189,407,0,0,0,0,0,0,0,0,0,-1,1035,617,0,0
-182,407,0,0,0,0,0,0,0,0,0,-1,1042,617,0,0
-175,407,0,0,0,0,0,0,0,0,0,-1,1049,617,0,0
-168,407,0,0,0,0,0,0,0,0,0,-1,1056,617,0,0
-161,407,0,0,0,0,0,0,0,0,0,-1,1063,617,0,0
-154,407,0,0,0,0,0,0,0,0,0,-1,1070,617,0,0
-147,407,0,0,0,0,0,0,0,0,0,-1,1077,617,0,0
-140,407,0,0,0,0,0,0,0,0,0,-1,1084,617,0,0
-133,407,0,0,0,0,0,0,0,0,0,-1,1091,617,0,0
-126,407,0,0,0,0,0,0,0,0,0,-1,1098,617,0,0
-119,407,0,0,0,0,0,0,0,0,0,-1,1105,617,0,0
-112,407,0,0,0,0,0,0,0,0,0,-1,1112,617,0,0
-105,407,0,0,0,0,0,0,0,0,0,-1,1119,617,0,0
-98,407,0,0,0,0,0,0,0,0,0,-1,1126,617,0,0
-91,407,0,0,0,0,0,0,0,0,0,-1,1133,617,0,0
-84,407,0,0,0,0,0,0,0,0,0,-1,1140,617,0,0
-77,407,0,0,0,0,0,0,0,0,0,-1,1147,617,0,0
-70,407,0,0,0,0,0,0,0,0,0,-1,1154,617,0,0
-63,407,0,0,0,0,0,0,0,0,0,-1,1161,617,0,0
-56,407,0,0,0,0,0,0,0,0,0,-1,1168,617,0,0
-49,407,0,0,0,0,0,0,0,0,0,-1,1175,617,0,0
-42,407,0,0,0,0,0,0,0,0,0,-1,1182,617,0,0
-35,407,0,0,0,0,0,0,0,0,0,-1,1189,617,0,0
-28,407,0,0,0,0,0,0,0,0,0,-1,1196,617,0,0
-21,407,0,0,0,0,0,0,0,0,0,-1,1203,617,0,0
-14,407,0,0,0,0,0,0,0,0,0,-1,1210,617,0,0
-7,407,0,0,0,0,0,0,0,0,0,-1,1217,617,0,0
0,407,0,0,0,0,0,0,0,0,0,-1,1224,617,0,0
7,407,0,0,0,0,0,0,0,0,0,-1,1231,617,0,0
14,407,0,0,0,0,0,0,0,0,0,-1,1238,617,0,0
21,407,0,0,0,0,0,0,0,0,0,-1,1245,617,0,0
28,407,0,0,0,0,0,0,0,0,0,-1,1252,617,0,0
35,407,0,0,0,0,0,0,0,0,0,-1,1259,617,0,0
42,407,0,0,0,0,0,0,0,0,0,-1,1266,617,0,0
49,407,0,0,0,0,0,0,0,0,0,-1,1273,617,0,0
56,407,0,0,0,0,0,0,0,0,0,-1,1280,617,0,0
63,407,0,0,0,0,0,0,0,0,0,-1,1287,617,0,0
70,407,0,0,0,0,0,0,0,0,0,-1,1294,617,0,0
77,407,0,0,0,0,0,0,0,0,0,-1,1301,617,0,0
84,407,0,0,0,0,0,0,0,0,0,-1,1308,617,0,0
91,407,0,0,0,0,0,0,0,0,0,-1,1315,617,0,0
98,407,0,0,0,0,0,0,0,0,0,-1,1322,617,0,0
105,407,0,0,0,0,0,0,0,0,0,-1,1329,617,0,0
112,407,0,0,0,0,0,0,0,0,0,-1,1336,617,0,0
119,407,0,0,0,0,0,0,0,0,0,-1,1343,617,0,0
126,407,0,0,0,0,0,0,0,0,0,-1,1350,617,0,0
133,407,0,0,0,0,0,0,0,0,0,-1,1357,617,0,0
140,407,0,0,0,0,0,0,0,0,0,-1,1364,617,0,0
147,407,0,0,0,0,0,0,0,0,0,-1,1371,617,0,0
154,407,0,0,0,0,0,0,0,0,0,-1,1378,617,0,0
161,407,0,0,0,0,0,0,0,0,0,-1,1385,617,0,0
168,407,0,0,0,0,0,0,0,0,0,-1,1392,617,0,0
175,407,0,0,0,0,0,0,0,0,0,-1,1399,617,0,0
182,407,0,0,0,0,0,0,0,0,0,-1,1406,617,0,0
189,407,0,0,0,0,0,0,0,0,0,-1,1413,617,0,0
196,407,0,0,0,0,0,0,0,0,0,-1,1420,617,0,0
203,407,0,0,0,0,0,0,0,0,0,-1,1427,617,0,0
210,407,0,0,0,0,0,0,0,0,0,-1,1434,617,0,0
217,407,0,0,0,0,0,0,0,0,0,-1,1441,617,0,0
224,407,0,0,0,0,0,0,0,0,0,-1,1448,617,0,0
231,407,0,0,0,0,0,0,0,0,0,-1,1455,617,0,0
238,407,0,0,0,0,0,0,0,0,0,-1,1462,617,0,0
245,407,0,0,0,0,0,0,0,0,0,-1,1469,617,0,0
252,407,0,0,0,0,0,0,0,0,0,-1,1476,617,0,0
259,407,0,0,0,0,0,0,0,0,0,-1,1483,617,0,0
266,407,0,0,0,0,0,0,0,0,0,-1,1490,617,0,0
273,407,0,0,0,0,0,0,0,0,0,-1,1497,617,0,0
280,407,0,0,0,0,0,0,0,0,0,-1,1504,617,0,0
287,407,0,0,0,0,0,0,0,0,0,-1,1511,617,0,0
294,407,0,0,0,0,0,0,0,0,0,-1,1518,617,0,0
301,407,0,0,0,0,0,0,0,0,0,-1,1525,617,0,0
308,407,0,0,0,0,0,0,0,0,0,-1,1532,617,0,0
315,407,0,0,0,0,0,0,0,0,0,-1,1539,617,0,0
322,407,0,0,0,0,0,0,0,0,0,-1,1546,617,0,0
329,407,0,0,0,0,0,0,0,0,0,-1,1553,617,0,0
336,407,0,0,0,0,0,0,0,0,0,-1,1560,617,0,0
343,407,0,0,0,0,0,0,0,0,0,-1,1567,617,0,0
350,407,0,0,0,0,0,0,0,0,0,-1,1574,617,0,0
357,407,0,0,0,0,0,0,0,0,0,-1,1581,617,0,0
364,407,0,0,0,0,0,0,0,0,0,-1,1588,617,0,0
371,407,0,0,0,0,0,0,0,0,0,-1,1595,617,0,0
378,407,0,0,0,0,0,0,0,0,0,-1,1602,617,0,0
385,407,0,0,0,0,0,0,0,0,0,-1,1609,617,0,0
392,407,0,0,0,0,0,0,0,0,0,-1,1616,617,0,0
399,407,0,0,0,0,0,0,0,0,0,-1,1623,617,0,0
406,407,0,0,0,0,0,0,0,0,0,-1,1630,617,0,0
413,407,0,0,0,0,0,0,0,0,0,-1,1637,617,0,0
420,407,0,0,0,0,0,0,0,0,0,-1,1644,617,0,0
427,407,0,0,0,0,0,0,0,0,0,-1,1651,617,0,0
434,407,0,0,0,0,0,0,0,0,0,-1,1658,617,0,0
441,407,0,0,0,0,0,0,0,0,0,-1,1665,617,0,0
448,407,7.02893,2.13843,0,0,0,0,0,0,0,-1,1672,617,7.02899,-2.13844
455,407,7.55237,2.29242,0,0,0,0,0,0,0,-1,1679,617,7.55236,-2.29244
462,407,8.2926,2.46173,0,0,0,0,0,0,0,-1,1686,617,8.29261,-2.46174
469,407,8.71509,2.22681,0,0,0,0,0,0,0,-1,1693,617,8.71511,-2.22681
476,407,8.89917,1.47766,0,0,0,0,0,0,0,-1,1700,617,8.89914,-1.47768
483,407,9.02612,0.682983,0,0,0,0,0,0,0,-1,1707,617,9.02608,-0.683004
490,407,9.12659,0.000671387,0,0,0,0,0,0,0,-1,1714,617,9.12653,-0.000675931
497,407,7.76819,0.855835,0,0,0,0,0,0,0,-1,1721,617,7.7682,-0.855865
504,407,4.69336,0.160706,0,0,0,0,0,0,0,-1,1728,617,4.69337,-0.1607
511,407,4.07104,-0.00140381,0,0,0,0,0,0,0,-1,1735,617,4.07109,0.00141425
518,407,6.09534,1.9411,0,0,0,0,0,0,0,-1,1742,617,6.09532,-1.94113
525,407,5.72534,-1.35986,0,0,0,0,0,0,0,-1,1749,617,5.72529,1.35988
532,407,18.5767,-10.6388,0,0,0,0,0,0,0,-1,1756,617,18.5766,10.6388
539,407,70.3644,-66.1935,0,0,0,0,0,0,0,-1,1763,617,70.3643,66.1935
546,407,118.999,-67.3337,0,0,0,0,0,0,0,-1,1770,617,118.999,67.3338
553,407,118.026,-62.9104,0,0,0,0,0,0,0,-1,1777,617,118.026,62.9104
560,407,116.865,-58.7836,0,0,0,0,0,0,0,-1,1784,617,116.865,58.7836
567,407,115.958,-54.4239,0,0,0,0,0,0,0,-1,1791,617,115.958,54.4239
574,407,114.759,-50.7081,0.0181758,0.0182829,-0.0369492,0.0551786,-0.0187198,-0.786123,0.0443623,0.0437659,1798,617,114.759,50.708
581,407,113.559,-46.8533,0.0192918,0.0201684,-0.0401174,0.05985,-0.0203897,-0.79086,0.0481575,0.0426026,1805,617,113.559,46.8533
588,407,112.561,-43.1969,0.0207133,0.022389,-0.0436282,0.0651873,-0.0220851,-0.794999,0.0523951,0.0337552,1812,617,112.561,43.1969
595,407,111.684,-39.5796,0,0,0,0,0,0,0,-1,1819,617,111.684,39.5796
602,407,110.755,-35.4965,0.024761,0.028111,-0.0514903,0.0779535,-0.0250815,-0.801658,0.0620431,0.0473335,1826,617,110.755,35.4964
609,407,110.05,-32.0126,0.0274252,0.0320185,-0.0559608,0.0857297,-0.026286,-0.805907,0.0676397,0.0454527,1833,617,110.05,32.0126
616,407,109.543,-28.6011,0,0,0,0,0,0,0,-1,1840,617,109.543,28.6011
623,407,53.5945,-21.0079,0,0,0,0,0,0,0,-1,1847,617,53.5945,21.0078
630,407,7.06177,0.814575,0,0,0,0,0,0,0,-1,1854,617,7.06178,-0.814579
637,407,11.1063,0.391846,0,0,0,0,0,0,0,-1,1861,617,11.1063,-0.391862
644,407,5.09766,2.27747,0,0,0,0,0,0,0,-1,1868,617,5.09764,-2.27746
651,407,7.37524,0.0513916,0,0,0,0,0,0,0,-1,1875,617,7.3752,-0.0513923
658,407,3.76685,0.594177,0,0,0,0,0,0,0,-1,1882,617,3.76683,-0.594184
665,407,5.76123,0.375061,0,0,0,0,0,0,0,-1,1889,617,5.76118,-0.37509
672,407,0,0,0,0,0,0,0,0,0,-1,1896,617,0,0
679,407,0,0,0,0,0,0,0,0,0,-1,1903,617,0,0
686,407,0,0,0,0,0,0,0,0,0,-1,1910,617,0,0
693,407,0,0,0,0,0,0,0,0,0,-1,1917,617,0,0
700,407,0,0,0,0,0,0,0,0,0,-1,1924,617,0,0
707,407,0,0,0,0,0,0,0,0,0,-1,1931,617,0,0
714,407,0,0,0,0,0,0,0,0,0,-1,1938,617,0,0
721,407,0,0,0,0,0,0,0,0,0,-1,1945,617,0,0
728,407,0,0,0,0,0,0,0,0,0,-1,1952,617,0,0
735,407,0,0,0,0,0,0,0,0,0,-1,1959,617,0,0
742,407,0,0,0,0,0,0,0,0,0,-1,1966,617,0,0
749,407,0,0,0,0,0,0,0,0,0,-1,1973,617,0,0
756,407,0,0,0,0,0,0,0,0,0,-1,1980,617,0,0
763,407,0,0,0,0,0,0,0,0,0,-1,1987,617,0,0
770,407,0,0,0,0,0,0,0,0,0,-1,1994,617,0,0
777,407,0,0,0,0,0,0,0,0,0,-1,2001,617,0,0
784,407,0,0,0,0,0,0,0,0,0,-1,2008,617,0,0
791,407,0,0,0,0,0,0,0,0,0,-1,2015,617,0,0
798,407,0,0,0,0,0,0,0,0,0,-1,2022,617,0,0
805,407,0,0,0,0,0,0,0,0,0,-1,2029,617,0,0
812,407,0,0,0,0,0,0,0,0,0,-1,2036,617,0,0
-700,400,0,0,0,0,0,0,0,0,0,-1,524,624,0,0
-693,400,0,0,0,0,0,0,0,0,0,-1,531,624,0,0
-686,400,0,0,0,0,0,0,0,0,0,-1,538,624,0,0
-679,400,0,0,0,0,0,0,0,0,0,-1,545,624,0,0
-672,400,0,0,0,0,0,0,0,0,0,-1,552,624,0,0
-665,400,0,0,0,0,0,0,0,0,0,-1,559,624,0,0
-658,400,0,0,0,0,0,0,0,0,0,-1,566,624,0,0
-651,400,0,0,0,0,0,0,0,0,0,-1,573,624,0,0
-644,400,0,0,0,0,0,0,0,0,0,-1,580,624,0,0
-637,400,0,0,0,0,0,0,0,0,0,-1,587,624,0,0
-630,400,0,0,0,0,0,0,0,0,0,-1,594,624,0,0
-623,400,0,0,0,0,0,0,0,0,0,-1,601,624,0,0
-616,400,0,0,0,0,0,0,0,0,0,-1,608,624,0,0
-609,400,0,0,0,0,0,0,0,0,0,-1,615,624,0,0
-602,400,0,0,0,0,0,0,0,0,0,-1,622,624,0,0
-595,400,0,0,0,0,0,0,0,0,0,-1,629,624,0,0
-588,400,0,0,0,0,0,0,0,0,0,-1,636,624,0,0
-581,400,0,0,0,0,0,0,0,0,0,-1,643,624,0,0
-574,400,0,0,0,0,0,0,0,0,0,-1,650,624,0,0
-567,400,0,0,0,0,0,0,0,0,0,-1,657,624,0,0
-560,400,0,0,0,0,0,0,0,0,0,-1,664,624,0,0
-553,400,0,0,0,0,0,0,0,0,0,-1,671,624,0,0
-546,400,-8.41174,-1.4599,0,0,0,0,0,0,0,-1,678,624,-8.41173,1.45989
-539,400,-5.69104,-1.7337,0,0,0,0,0,0,0,-1,685,624,-5.69103,1.7337
-532,400,-3.03632,-2.03912,0,0,0,0,0,0,0,-1,692,624,-3.03632,2.03909
-525,400,-6.20813,-7.04071,0,0,0,0,0,0,0,-1,699,624,-6.20814,7.04071
-518,400,-5.26544,-1.58661,0,0,0,0,0,0,0,-1,706,624,-5.26544,1.58658
-511,400,-10.6307,-6.7121,0,0,0,0,0,0,0,-1,713,624,-10.6307,6.71209
-504,400,-10.2663,-6.55109,0,0,0,0,0,0,0,-1,720,624,-10.2663,6.55106
-497,400,-37.1384,-17.8541,0,0,0,0,0,0,0,-1,727,624,-37.1384,17.8541
-490,400,-102.302,-25.0028,0,0,0,0,0,0,0,-1,734,624,-102.302,25.0028
-483,400,-103.194,-28.8416,0.0270508,0.0480973,0.0475547,0.0862792,-0.011131,0.894287,0.0615661,0.0215705,741,624,-103.194,28.8415
-476,400,-103.968,-32.4343,0.0246903,0.042753,0.0470843,0.0816643,-0.014221,0.880153,0.05975,0.0171336,748,624,-103.968,32.4343
-469,400,-104.86,-36.0417,0.0228269,0.0378998,0.0462027,0.0771766,-0.0164499,0.866245,0.0577211,0.0197455,755,624,-104.86,36.0417
-462,400,-105.764,-39.782,0.0212401,0.0333515,0.0450765,0.0727773,-0.0181857,0.85217,0.0555808,0.0243588,762,624,-105.764,39.782
-455,400,-106.618,-43.4603,0.0198223,0.0291411,0.0437395,0.0684687,-0.0195053,0.838461,0.0533496,0.0246289,769,624,-106.618,43.4603
-448,400,-107.643,-47.1607,0.0185349,0.0252043,0.0423309,0.0643316,-0.0205925,0.824705,0.0511527,0.0201892,776,624,-107.643,47.1607
-441,400,-108.682,-50.9855,0.0174985,0.0217178,0.0408132,0.0604759,-0.0212596,0.81122,0.0489671,0.0190287,783,624,-108.682,50.9856
-434,400,-109.742,-54.9659,0.0166004,0.0188055,0.0392138,0.0569323,-0.0215264,0.799453,0.0468103,0.0177469,790,624,-109.742,54.966
-427,400,-110.797,-59.1057,0.0156325,0.0164213,0.0375938,0.0536228,-0.021569,0.790643,0.0447075,0.0276253,797,624,-110.797,59.1057
-420,400,-111.783,-63.2097,0,0,0,0,0,0,0,-1,804,624,-111.783,63.2097
-413,400,-63.7141,-63.7772,0,0,0,0,0,0,0,-1,811,624,-63.7141,63.7772
-406,400,-20.0208,-25.2792,0,0,0,0,0,0,0,-1,818,624,-20.0208,25.2792
-399,400,-11.0176,-13.2944,0,0,0,0,0,0,0,-1,825,624,-11.0176,13.2944
-392,400,-4.92285,-6.63354,0,0,0,0,0,0,0,-1,832,624,-4.92285,6.63354
-385,400,-3.68738,-5.04205,0,0,0,0,0,0,0,-1,839,624,-3.68736,5.04207
-378,400,-6.84064,-1.28662,0,0,0,0,0,0,0,-1,846,624,-6.84062,1.28662
-371,400,-6.98865,-1.2572,0,0,0,0,0,0,0,-1,853,624,-6.98865,1.25721
-364,400,-6.97247,-1.24133,0,0,0,0,0,0,0,-1,860,624,-6.97249,1.24135
-357,400,-7.18329,-1.23218,0,0,0,0,0,0,0,-1,867,624,-7.18327,1.2322
-350,400,-7.40186,-1.19409,0,0,0,0,0,0,0,-1,874,624,-7.40187,1.19407
-343,400,-8.09357,-1.51147,0,0,0,0,0,0,0,-1,881,624,-8.09355,1.51148
-336,400,0,0,0,0,0,0,0,0,0,-1,888,624,0,0
-329,400,0,0,0,0,0,0,0,0,0,-1,895,624,0,0
-322,400,0,0,0,0,0,0,0,0,0,-1,902,624,0,0
-315,400,0,0,0,0,0,0,0,0,0,-1,909,624,0,0
-308,400,0,0,0,0,0,0,0,0,0,-1,916,624,0,0
-301,400,0,0,0,0,0,0,0,0,0,-1,923,624,0,0
-294,400,0,0,0,0,0,0,0,0,0,-1,930,624,0,0
-287,400,0,0,0,0,0,0,0,0,0,-1,937,624,0,0
-280,400,0,0,0,0,0,0,0,0,0,-1,944,624,0,0
-273,400,0,0,0,0,0,0,0,0,0,-1,951,624,0,0
-266,400,0,0,0,0,0,0,0,0,0,-1,958,624,0,0
-259,400,0,0,0,0,0,0,0,0,0,-1,965,624,0,0
-252,400,0,0,0,0,0,0,0,0,0,-1,972,624,0,0
-245,400,0,0,0,0,0,0,0,0,0,-1,979,624,0,0
-238,400,0,0,0,0,0,0,0,0,0,-1,986,624,0,0
-231,400,0,0,0,0,0,0,0,0,0,-1,993,624,0,0
-224,400,0,0,0,0,0,0,0,0,0,-1,1000,624,0,0
-217,400,0,0,0,0,0,0,0,0,0,-1,1007,624,0,0
-210,400,0,0,0,0,0,0,0,0,0,-1,1014,624,0,0
-203,400,0,0,0,0,0,0,0,0,0,-1,1021,624,0,0
-196,400,0,0,0,0,0,0,0,0,0,-1,1028,624,0,0
-189,400,0,0,0,0,0,0,0,0,0,-1,1035,624,0,0
-182,400,0,0,0,0,0,0,0,0,0,-1,1042,624,0,0
-175,400,0,0,0,0,0,0,0,0,0,-1,1049,624,0,0
-168,400,0,0,0,0,0,0,0,0,0,-1,1056,624,0,0
-161,400,0,0,0,0,0,0,0,0,0,-1,1063,624,0,0
-154,400,0,0,0,0,0,0,0,0,0,-1,1070,624,0,0
-147,400,0,0,0,0,0,0,0,0,0,-1,1077,624,0,0
-140,400,0,0,0,0,0,0,0,0,0,-1,1084,624,0,0
-133,400,0,0,0,0,0,0,0,0,0,-1,1091,624,0,0
-126,400,0,0,0,0,0,0,0,0,0,-1,1098,624,0,0
-119,400,0,0,0,0,0,0,0,0,0,-1,1105,624,0,0
-112,400,0,0,0,0,0,0,0,0,0,-1,1112,624,0,0
-105,400,0,0,0,0,0,0,0,0,0,-1,1119,624,0,0
-98,400,0,0,0,0,0,0,0,0,0,-1,1126,624,0,0
-91,400,0,0,0,0,0,0,0,0,0,-1,1133,624,0,0
-84,400,0,0,0,0,0,0,0,0,0,-1,1140,624,0,0
-77,400,0,0,0,0,0,0,0,0,0,-1,1147,624,0,0
-70,400,0,0,0,0,0,0,0,0,0,-1,1154,624,0,0
-63,400,0,0,0,0,0,0,0,0,0,-1,1161,624,0,0
-56,400,0,0,0,0,0,0,0,0,0,-1,1168,624,0,0
-49,400,0,0,0,0,0,0,0,0,0,-1,1175,624,0,0
-42,400,0,0,0,0,0,0,0,0,0,-1,1182,624,0,0
-35,400,0,0,0,0,0,0,0,0,0,-1,1189,624,0,0
-28,400,0,0,0,0,0,0,0,0,0,-1,1196,624,0,0
-21,400,0,0,0,0,0,0,0,0,0,-1,1203,624,0,0
-14,400,0,0,0,0,0,0,0,0,0,-1,1210,624,0,0
-7,400,0,0,0,0,0,0,0,0,0,-1,1217,624,0,0
0,400,0,0,0,0,0,0,0,0,0,-1,1224,624,0,0
7,400,0,0,0,0,0,0,0,0,0,-1,1231,624,0,0
14,400,0,0,0,0,0,0,0,0,0,-1,1238,624,0,0
21,400,0,0,0,0,0,0,0,0,0,-1,1245,624,0,0
28,400,0,0,0,0,0,0,0,0,0,-1,1252,624,0,0
35,400,0,0,0,0,0,0,0,0,0,-1,1259,624,0,0
42,400,0,0,0,0,0,0,0,0,0,-1,1266,624,0,0
49,400,0,0,0,0,0,0,0,0,0,-1,1273,624,0,0
56,400,0,0,0,0,0,0,0,0,0,-1,1280,624,0,0
63,400,0,0,0,0,0,0,0,0,0,-1,1287,624,0,0
70,400,0,0,0,0,0,0,0,0,0,-1,1294,624,0,0
77,400,0,0,0,0,0,0,0,0,0,-1,1301,624,0,0
84,400,0,0,0,0,0,0,0,0,0,-1,1308,624,0,0
91,400,0,0,0,0,0,0,0,0,0,-1,1315,624,0,0
98,400,0,0,0,0,0,0,0,0,0,-1,1322,624,0,0
105,400,0,0,0,0,0,0,0,0,0,-1,1329,624,0,0
112,400,0,0,0,0,0,0,0,0,0,-1,1336,624,0,0
119,400,0,0,0,0,0,0,0,0,0,-1,1343,624,0,0
126,400,0,0,0,0,0,0,0,0,0,-1,1350,624,0,0
133,400,0,0,0,0,0,0,0,0,0,-1,1357,624,0,0
140,400,0,0,0,0,0,0,0,0,0,-1,1364,624,0,0
147,400,0,0,0,0,0,0,0,0,0,-1,1371,624,0,0
154,400,0,0,0,0,0,0,0,0,0,-1,1378,624,0,0
161,400,0,0,0,0,0,0,0,0,0,-1,1385,624,0,0
168,400,0,0,0,0,0,0,0,0,0,-1,1392,624,0,0
175,400,0,0,0,0,0,0,0,0,0,-1,1399,624,0,0
182,400,0,0,0,0,0,0,0,0,0,-1,1406,624,0,0
189,400,0,0,0,0,0,0,0,0,0,-1,1413,624,0,0
196,400,0,0,0,0,0,0,0,0,0,-1,1420,624,0,0
203,400,0,0,0,0,0,0,0,0,0,-1,1427,624,0,0
210,400,0,0,0,0,0,0,0,0,0,-1,1434,624,0,0
217,400,0,0,0,0,0,0,0,0,0,-1,1441,624,0,0
224,400,0,0,0,0,0,0,0,0,0,-1,1448,624,0,0
231,400,0,0,0,0,0,0,0,0,0,-1,1455,624,0,0
238,400,0,0,0,0,0,0,0,0,0,-1,1462,624,0,0
245,400,0,0,0,0,0,0,0,0,0,-1,1469,624,0,0
252,400,0,0,0,0,0,0,0,0,0,-1,1476,624,0,0
259,400,0,0,0,0,0,0,0,0,0,-1,1483,624,0,0
266,400,0,0,0,0,0,0,0,0,0,-1,1490,624,0,0
273,400,0,0,0,0,0,0,0,0,0,-1,1497,624,0,0
280,400,0,0,0,0,0,0,0,0,0,-1,1504,624,0,0
287,400,0,0,0,0,0,0,0,0,0,-1,1511,624,0,0
294,400,0,0,0,0,0,0,0,0,0,-1,1518,624,0,0
301,400,0,0,0,0,0,0,0,0,0,-1,1525,624,0,0
308,400,0,0,0,0,0,0,0,0,0,-1,1532,624,0,0
315,400,0,0,0,0,0,0,0,0,0,-1,1539,624,0,0
322,400,0,0,0,0,0,0,0,0,0,-1,1546,624,0,0
329,400,0,0,0,0,0,0,0,0,0,-1,1553,624,0,0
336,400,0,0,0,0,0,0,0,0,0,-1,1560,624,0,0
343,400,0,0,0,0,0,0,0,0,0,-1,1567,624,0,0
350,400,0,0,0,0,0,0,0,0,0,-1,1574,624,0,0
357,400,0,0,0,0,0,0,0,0,0,-1,1581,624,0,0
364,400,0,0,0,0,0,0,0,0,0,-1,1588,624,0,0
371,400,0,0,0,0,0,0,0,0,0,-1,1595,624,0,0
378,400,0,0,0,0,0,0,0,0,0,-1,1602,624,0,0
385,400,0,0,0,0,0,0,0,0,0,-1,1609,624,0,0
392,400,0,0,0,0,0,0,0,0,0,-1,1616,624,0,0
399,400,0,0,0,0,0,0,0,0,0,-1,1623,624,0,0
406,400,0,0,0,0,0,0,0,0,0,-1,1630,624,0,0
413,400,0,0,0,0,0,0,0,0,0,-1,1637,624,0,0
420,400,0,0,0,0,0,0,0,0,0,-1,1644,624,0,0
427,400,0,0,0,0,0,0,0,0,0,-1,1651,624,0,0
434,400,0,0,0,0,0,0,0,0,0,-1,1658,624,0,0
441,400,0,0,0,0,0,0,0,0,0,-1,1665,624,0,0
448,400,0,0,0,0,0,0,0,0,0,-1,1672,624,0,0
455,400,8.91309,2.75885,0,0,0,0,0,0,0,-1,1679,624,8.91312,-2.75885
462,400,8.90356,2.37878,0,0,0,0,0,0,0,-1,1686,624,8.90353,-2.37878
469,400,9.14429,1.76849,0,0,0,0,0,0,0,-1,1693,624,9.14432,-1.76847
476,400,9.23254,1.25995,0,0,0,0,0,0,0,-1,1700,624,9.23252,-1.25994
483,400,9.59766,0.562439,0,0,0,0,0,0,0,-1,1707,624,9.59771,-0.56242
490,400,9.92578,-0.213745,0,0,0,0,0,0,0,-1,1714,624,9.92579,0.21376
497,400,9.19141,0.175232,0,0,0,0,0,0,0,-1,1721,624,9.19138,-0.175209
504,400,9.23438,0.00823975,0,0,0,0,0,0,0,-1,1728,624,9.23436,-0.00823766
511,400,6.16687,3.3501,0,0,0,0,0,0,0,-1,1735,624,6.16682,-3.35007
518,400,6.55237,1.74994,0,0,0,0,0,0,0,-1,1742,624,6.55236,-1.74993
525,400,6.99731,1.08783,0,0,0,0,0,0,0,-1,1749,624,6.99736,-1.08785
532,400,6.96582,-1.74982,0,0,0,0,0,0,0,-1,1756,624,6.96585,1.74983
539,400,21.2305,-10.5841,0,0,0,0,0,0,0,-1,1763,624,21.2304,10.5841
546,400,73.1659,-62.1676,0,0,0,0,0,0,0,-1,1770,624,73.1659,62.1676
553,400,114.791,-63.8492,0,0,0,0,0,0,0,-1,1777,624,114.791,63.8492
560,400,121.053,-57.7722,0,0,0,0,0,0,0,-1,1784,624,121.053,57.7722
567,400,120.166,-53.4465,0,0,0,0,0,0,0,-1,1791,624,120.166,53.4465
574,400,118.94,-49.6332,0,0,0,0,0,0,0,-1,1798,624,118.94,49.6332
581,400,117.841,-45.5115,0,0,0,0,0,0,0,-1,1805,624,117.841,45.5115
588,400,116.965,-41.9593,0,0,0,0,0,0,0,-1,1812,624,116.965,41.9593
595,400,115.66,-38.3329,0,0,0,0,0,0,0,-1,1819,624,115.66,38.333
602,400,115.148,-34.3053,0,0,0,0,0,0,0,-1,1826,624,115.148,34.3053
609,400,114.331,-31.0734,0.0219221,0.0307385,-0.0509739,0.0774945,-0.0248339,-0.828531,0.0616319,0.0295727,1833,624,114.331,31.0734
616,400,113.684,-27.6367,0.0241177,0.0345524,-0.0552603,0.0848411,-0.026171,-0.832466,0.0670102,0.0367196,1840,624,113.684,27.6367
623,400,113.081,-23.9675,0,0,0,0,0,0,0,-1,1847,624,113.081,23.9676
630,400,11.9432,0.09021,0,0,0,0,0,0,0,-1,1854,624,11.9432,-0.0902007
637,400,6.92896,1.01917,0,0,0,0,0,0,0,-1,1861,624,6.92899,-1.01918
644,400,8.65381,1.4599,0,0,0,0,0,0,0,-1,1868,624,8.65379,-1.45991
651,400,7.90601,0.424072,0,0,0,0,0,0,0,-1,1875,624,7.90598,-0.424097
658,400,8.69031,1.0484,0,0,0,0,0,0,0,-1,1882,624,8.6903,-1.0484
665,400,5.98438,0.522522,0,0,0,0,0,0,0,-1,1889,624,5.98442,-0.522552
672,400,0,0,0,0,0,0,0,0,0,-1,1896,624,0,0
679,400,0,0,0,0,0,0,0,0,0,-1,1903,624,0,0
686,400,0,0,0,0,0,0,0,0,0,-1,1910,624,0,0
693,400,0,0,0,0,0,0,0,0,0,-1,1917,624,0,0
700,400,0,0,0,0,0,0,0,0,0,-1,1924,624,0,0
707,400,0,0,0,0,0,0,0,0,0,-1,1931,624,0,0
714,400,0,0,0,0,0,0,0,0,0,-1,1938,624,0,0
721,400,0,0,0,0,0,0,0,0,0,-1,1945,624,0,0
728,400,0,0,0,0,0,0,0,0,0,-1,1952,624,0,0
735,400,0,0,0,0,0,0,0,0,0,-1,1959,624,0,0
742,400,0,0,0,0,0,0,0,0,0,-1,1966,624,0,0
749,400,0,0,0,0,0,0,0,0,0,-1,1973,624,0,0
756,400,0,0,0,0,0,0,0,0,0,-1,1980,624,0,0
763,400,0,0,0,0,0,0,0,0,0,-1,1987,624,0,0
770,400,0,0,0,0,0,0,0,0,0,-1,1994,624,0,0
777,400,0,0,0,0,0,0,0,0,0,-1,2001,624,0,0
784,400,0,0,0,0,0,0,0,0,0,-1,2008,624,0,0
791,400,0,0,0,0,0,0,0,0,0,-1,2015,624,0,0
798,400,0,0,0,0,0,0,0,0,0,-1,2022,624,0,0
805,400,0,0,0,0,0,0,0,0,0,-1,2029,624,0,0
812,400,0,0,0,0,0,0,0,0,0,-1,2036,624,0,0
-700,393,0,0,0,0,0,0,0,0,0,-1,524,631,0,0
-693,393,0,0,0,0,0,0,0,0,0,-1,531,631,0,0
-686,393,0,0,0,0,0,0,0,0,0,-1,538,631,0,0
-679,393,0,0,0,0,0,0,0,0,0,-1,545,631,0,0
-672,393,0,0,0,0,0,0,0,0,0,-1,552,631,0,0
-665,393,0,0,0,0,0,0,0,0,0,-1,559,631,0,0
-658,393,0,0,0,0,0,0,0,0,0,-1,566,631,0,0
-651,393,0,0,0,0,0,0,0,0,0,-1,573,631,0,0
-644,393,0,0,0,0,0,0,0,0,0,-1,580,631,0,0
-637,393,0,0,0,0,0,0,0,0,0,-1,587,631,0,0
-630,393,0,0,0,0,0,0,0,0,0,-1,594,631,0,0
-623,393,0,0,0,0,0,0,0,0,0,-1,601,631,0,0
-616,393,0,0,0,0,0,0,0,0,0,-1,608,631,0,0
-609,393,0,0,0,0,0,0,0,0,0,-1,615,631,0,0
-602,393,0,0,0,0,0,0,0,0,0,-1,622,631,0,0
-595,393,0,0,0,0,0,0,0,0,0,-1,629,631,0,0
-588,393,0,0,0,0,0,0,0,0,0,-1,636,631,0,0
-581,393,0,0,0,0,0,0,0,0,0,-1,643,631,0,0
-574,393,0,0,0,0,0,0,0,0,0,-1,650,631,0,0
-567,393,0,0,0,0,0,0,0,0,0,-1,657,631,0,0
-560,393,0,0,0,0,0,0,0,0,0,-1,664,631,0,0
-553,393,-2.35107,3.92633,0,0,0,0,0,0,0,-1,671,631,-2.35108,-3.92634
-546,393,-1.78778,2.4856,0,0,0,0,0,0,0,-1,678,631,-1.78778,-2.48557
-539,393,-5.2113,-2.20245,0,0,0,0,0,0,0,-1,685,631,-5.21128,2.20247
-532,393,-2.83643,-2.01624,0,0,0,0,0,0,0,-1,692,631,-2.83642,2.01626
-525,393,-5.9505,-0.952698,0,0,0,0,0,0,0,-1,699,631,-5.95053,0.95268
-518,393,-5.80219,-1.57739,0,0,0,0,0,0,0,-1,706,631,-5.80219,1.57738
-511,393,-6.15527,-2.09906,0,0,0,0,0,0,0,-1,713,631,-6.15526,2.09903
-504,393,-13.6063,-6.95947,0,0,0,0,0,0,0,-1,720,631,-13.6063,6.95946
-497,393,-105.826,-20.2184,0,0,0,0,0,0,0,-1,727,631,-105.826,20.2184
-490,393,-106.648,-24.058,0.0265306,0.0482264,0.0462428,0.0848767,-0.0101197,0.900608,0.0602417,0.04928,734,631,-106.648,24.058
-483,393,-107.457,-27.756,0.023772,0.0435346,0.0458032,0.0805103,-0.0132036,0.891637,0.0585729,0.0285357,741,631,-107.457,27.756
-476,393,-108.202,-31.3622,0.0213519,0.0389844,0.0450218,0.076045,-0.0157087,0.882086,0.0566634,0.0214078,748,631,-108.202,31.3622
-469,393,-109.135,-34.9133,0.0193445,0.0347256,0.0439516,0.0716544,-0.0175844,0.87201,0.0545835,0.0183081,755,631,-109.135,34.9133
-462,393,-110.107,-38.5764,0.0176252,0.0306901,0.042655,0.0673099,-0.0189947,0.861381,0.0523661,0.0206382,762,631,-110.107,38.5764
-455,393,-111.023,-42.2778,0.0160857,0.0269032,0.0411676,0.0630159,-0.020027,0.850716,0.0500404,0.0203436,769,631,-111.024,42.2778
-448,393,-111.915,-45.9726,0.0147272,0.0233282,0.0395936,0.0588542,-0.0207988,0.839494,0.0477051,0.0194228,776,631,-111.915,45.9726
-441,393,-112.908,-49.7408,0.0136401,0.020184,0.0378619,0.0549151,-0.021091,0.8285,0.0453074,0.0172479,783,631,-112.908,49.7408
-434,393,-114.053,-53.7064,0.0127718,0.0175832,0.0359959,0.0512537,-0.0208987,0.818765,0.0428684,0.0210267,790,631,-114.053,53.7063
-427,393,-115.102,-57.8414,0,0,0,0,0,0,0,-1,797,631,-115.102,57.8414
-420,393,-93.9938,-64.2738,0,0,0,0,0,0,0,-1,804,631,-93.9939,64.2738
-413,393,-15.0913,-18.3777,0,0,0,0,0,0,0,-1,811,631,-15.0913,18.3777
-406,393,-11.826,-12.7987,0,0,0,0,0,0,0,-1,818,631,-11.8261,12.7987
-399,393,-5.07343,-5.92365,0,0,0,0,0,0,0,-1,825,631,-5.07344,5.92364
-392,393,-2.08063,-3.02386,0,0,0,0,0,0,0,-1,832,631,-2.08063,3.02384
-385,393,-3.16931,-0.624756,0,0,0,0,0,0,0,-1,839,631,-3.16928,0.624764
-378,393,-7.33081,-0.872314,0,0,0,0,0,0,0,-1,846,631,-7.33081,0.872325
-371,393,-7.47858,-0.811096,0,0,0,0,0,0,0,-1,853,631,-7.47859,0.811075
-364,393,-7.64917,-0.662415,0,0,0,0,0,0,0,-1,860,631,-7.64917,0.662406
-357,393,-8.09686,-0.726013,0,0,0,0,0,0,0,-1,867,631,-8.09689,0.726029
-350,393,-8.38788,-0.511841,0,0,0,0,0,0,0,-1,874,631,-8.38785,0.511811
-343,393,0,0,0,0,0,0,0,0,0,-1,881,631,0,0
-336,393,0,0,0,0,0,0,0,0,0,-1,888,631,0,0
-329,393,0,0,0,0,0,0,0,0,0,-1,895,631,0,0
-322,393,0,0,0,0,0,0,0,0,0,-1,902,631,0,0
-315,393,0,0,0,0,0,0,0,0,0,-1,909,631,0,0
-308,393,0,0,0,0,0,0,0,0,0,-1,916,631,0,0
-301,393,0,0,0,0,0,0,0,0,0,-1,923,631,0,0
-294,393,0,0,0,0,0,0,0,0,0,-1,930,631,0,0
-287,393,0,0,0,0,0,0,0,0,0,-1,937,631,0,0
-280,393,0,0,0,0,0,0,0,0,0,-1,944,631,0,0
-273,393,0,0,0,0,0,0,0,0,0,-1,951,631,0,0
-266,393,0,0,0,0,0,0,0,0,0,-1,958,631,0,0
-259,393,0,0,0,0,0,0,0,0,0,-1,965,631,0,0
-252,393,0,0,0,0,0,0,0,0,0,-1,972,631,0,0
-245,393,0,0,0,0,0,0,0,0,0,-1,979,631,0,0
-238,393,0,0,0,0,0,0,0,0,0,-1,986,631,0,0
-231,393,0,0,0,0,0,0,0,0,0,-1,993,631,0,0
-224,393,0,0,0,0,0,0,0,0,0,-1,1000,631,0,0
-217,393,0,0,0,0,0,0,0,0,0,-1,1007,631,0,0
-210,393,0,0,0,0,0,0,0,0,0,-1,1014,631,0,0
-203,393,0,0,0,0,0,0,0,0,0,-1,1021,631,0,0
-196,393,0,0,0,0,0,0,0,0,0,-1,1028,631,0,0
-189,393,0,0,0,0,0,0,0,0,0,-1,1035,631,0,0
-182,393,0,0,0,0,0,0,0,0,0,-1,1042,631,0,0
-175,393,0,0,0,0,0,0,0,0,0,-1,1049,631,0,0
-168,393,0,0,0,0,0,0,0,0,0,-1,1056,631,0,0
-161,393,0,0,0,0,0,0,0,0,0,-1,1063,631,0,0
-154,393,0,0,0,0,0,0,0,0,0,-1,1070,631,0,0
-147,393,0,0,0,0,0,0,0,0,0,-1,1077,631,0,0
-140,393,0,0,0,0,0,0,0,0,0,-1,1084,631,0,0
-133,393,0,0,0,0,0,0,0,0,0,-1,1091,631,0,0
-126,393,0,0,0,0,0,0,0,0,0,-1,1098,631,0,0
-119,393,0,0,0,0,0,0,0,0,0,-1,1105,631,0,0
-112,393,0,0,0,0,0,0,0,0,0,-1,1112,631,0,0
-105,393,0,0,0,0,0,0,0,0,0,-1,1119,631,0,0
-98,393,0,0,0,0,0,0,0,0,0,-1,1126,631,0,0
-91,393,0,0,0,0,0,0,0,0,0,-1,1133,631,0,0
-84,393,0,0,0,0,0,0,0,0,0,-1,1140,631,0,0
-77,393,0,0,0,0,0,0,0,0,0,-1,1147,631,0,0
-70,393,0,0,0,0,0,0,0,0,0,-1,1154,631,0,0
-63,393,0,0,0,0,0,0,0,0,0,-1,1161,631,0,0
-56,393,0,0,0,0,0,0,0,0,0,-1,1168,631,0,0
-49,393,0,0,0,0,0,0,0,0,0,-1,1175,631,0,0
-42,393,0,0,0,0,0,0,0,0,0,-1,1182,631,0,0
-35,393,0,0,0,0,0,0,0,0,0,-1,1189,631,0,0
-28,393,0,0,0,0,0,0,0,0,0,-1,1196,631,0,0
-21,393,0,0,0,0,0,0,0,0,0,-1,1203,631,0,0
-14,393,0,0,0,0,0,0,0,0,0,-1,1210,631,0,0
-7,393,0,0,0,0,0,0,0,0,0,-1,1217,631,0,0
0,393,0,0,0,0,0,0,0,0,0,-1,1224,631,0,0
7,393,0,0,0,0,0,0,0,0,0,-1,1231,631,0,0
14,393,0,0,0,0,0,0,0,0,0,-1,1238,631,0,0
21,393,0,0,0,0,0,0,0,0,0,-1,1245,631,0,0
28,393,0,0,0,0,0,0,0,0,0,-1,1252,631,0,0
35,393,0,0,0,0,0,0,0,0,0,-1,1259,631,0,0
42,393,0,0,0,0,0,0,0,0,0,-1,1266,631,0,0
49,393,0,0,0,0,0,0,0,0,0,-1,1273,631,0,0
56,393,0,0,0,0,0,0,0,0,0,-1,1280,631,0,0
63,393,0,0,0,0,0,0,0,0,0,-1,1287,631,0,0
70,393,0,0,0,0,0,0,0,0,0,-1,1294,631,0,0
77,393,0,0,0,0,0,0,0,0,0,-1,1301,631,0,0
84,393,0,0,0,0,0,0,0,0,0,-1,1308,631,0,0
91,393,0,0,0,0,0,0,0,0,0,-1,1315,631,0,0
98,393,0,0,0,0,0,0,0,0,0,-1,1322,631,0,0
105,393,0,0,0,0,0,0,0,0,0,-1,1329,631,0,0
112,393,0,0,0,0,0,0,0,0,0,-1,1336,631,0,0
119,393,0,0,0,0,0,0,0,0,0,-1,1343,631,0,0
126,393,0,0,0,0,0,0,0,0,0,-1,1350,631,0,0
133,393,0,0,0,0,0,0,0,0,0,-1,1357,631,0,0
140,393,0,0,0,0,0,0,0,0,0,-1,1364,631,0,0
147,393,0,0,0,0,0,0,0,0,0,-1,1371,631,0,0
154,393,0,0,0,0,0,0,0,0,0,-1,1378,631,0,0
161,393,0,0,0,0,0,0,0,0,0,-1,1385,631,0,0
168,393,0,0,0,0,0,0,0,0,0,-1,1392,631,0,0
175,393,0,0,0,0,0,0,0,0,0,-1,1399,631,0,0
182,393,0,0,0,0,0,0,0,0,0,-1,1406,631,0,0
189,393,0,0,0,0,0,0,0,0,0,-1,1413,631,0,0
196,393,0,0,0,0,0,0,0,0,0,-1,1420,631,0,0
203,393,0,0,0,0,0,0,0,0,0,-1,1427,631,0,0
210,393,0,0,0,0,0,0,0,0,0,-1,1434,631,0,0
217,393,0,0,0,0,0,0,0,0,0,-1,1441,631,0,0
224,393,0,0,0,0,0,0,0,0,0,-1,1448,631,0,0
231,393,0,0,0,0,0,0,0,0,0,-1,1455,631,0,0
238,393,0,0,0,0,0,0,0,0,0,-1,1462,631,0,0
245,393,0,0,0,0,0,0,0,0,0,-1,1469,631,0,0
252,393,0,0,0,0,0,0,0,0,0,-1,1476,631,0,0
259,393,0,0,0,0,0,0,0,0,0,-1,1483,631,0,0
266,393,0,0,0,0,0,0,0,0,0,-1,1490,631,0,0
273,393,0,0,0,0,0,0,0,0,0,-1,1497,631,0,0
280,393,0,0,0,0,0,0,0,0,0,-1,1504,631,0,0
287,393,0,0,0,0,0,0,0,0,0,-1,1511,631,0,0
294,393,0,0,0,0,0,0,0,0,0,-1,1518,631,0,0
301,393,0,0,0,0,0,0,0,0,0,-1,1525,631,0,0
308,393,0,0,0,0,0,0,0,0,0,-1,1532,631,0,0
315,393,0,0,0,0,0,0,0,0,0,-1,1539,631,0,0
322,393,0,0,0,0,0,0,0,0,0,-1,1546,631,0,0
329,393,0,0,0,0,0,0,0,0,0,-1,1553,631,0,0
336,393,0,0,0,0,0,0,0,0,0,-1,1560,631,0,0
343,393,0,0,0,0,0,0,0,0,0,-1,1567,631,0,0
350,393,0,0,0,0,0,0,0,0,0,-1,1574,631,0,0
357,393,0,0,0,0,0,0,0,0,0,-1,1581,631,0,0
364,393,0,0,0,0,0,0,0,0,0,-1,1588,631,0,0
371,393,0,0,0,0,0,0,0,0,0,-1,1595,631,0,0
378,393,0,0,0,0,0,0,0,0,0,-1,1602,631,0,0
385,393,0,0,0,0,0,0,0,0,0,-1,1609,631,0,0
392,393,0,0,0,0,0,0,0,0,0,-1,1616,631,0,0
399,393,0,0,0,0,0,0,0,0,0,-1,1623,631,0,0
406,393,0,0,0,0,0,0,0,0,0,-1,1630,631,0,0
413,393,0,0,0,0,0,0,0,0,0,-1,1637,631,0,0
420,393,0,0,0,0,0,0,0,0,0,-1,1644,631,0,0
427,393,0,0,0,0,0,0,0,0,0,-1,1651,631,0,0
434,393,0,0,0,0,0,0,0,0,0,-1,1658,631,0,0
441,393,0,0,0,0,0,0,0,0,0,-1,1665,631,0,0
448,393,0,0,0,0,0,0,0,0,0,-1,1672,631,0,0
455,393,0,0,0,0,0,0,0,0,0,-1,1679,631,0,0
462,393,8.51099,1.89502,0,0,0,0,0,0,0,-1,1686,631,8.51103,-1.89504
469,393,9.39465,1.51703,0,0,0,0,0,0,0,-1,1693,631,9.39465,-1.51703
476,393,9.95569,1.185,0,0,0,0,0,0,0,-1,1700,631,9.95575,-1.18497
483,393,10.5267,0.887329,0,0,0,0,0,0,0,-1,1707,631,10.5267,-0.887321
490,393,10.9303,0.761414,0,0,0,0,0,0,0,-1,1714,631,10.9303,-0.761386
497,393,8.32153,1.88104,0,0,0,0,0,0,0,-1,1721,631,8.32148,-1.88103
504,393,9.46985,1.78711,0,0,0,0,0,0,0,-1,1728,631,9.46986,-1.78713
511,393,9.66565,-0.375977,0,0,0,0,0,0,0,-1,1735,631,9.66571,0.375949
518,393,7.01599,1.62482,0,0,0,0,0,0,0,-1,1742,631,7.01597,-1.62483
525,393,7.88245,-1.13422,0,0,0,0,0,0,0,-1,1749,631,7.88246,1.13423
532,393,7.06335,-1.18103,0,0,0,0,0,0,0,-1,1756,631,7.06332,1.18101
539,393,9.91626,-2.46301,0,0,0,0,0,0,0,-1,1763,631,9.91625,2.46302
546,393,16.4094,-8.04651,0,0,0,0,0,0,0,-1,1770,631,16.4094,8.04649
553,393,71.0729,-54.5511,0,0,0,0,0,0,0,-1,1777,631,71.0729,54.5511
560,393,125.316,-56.3403,0,0,0,0,0,0,0,-1,1784,631,125.316,56.3403
567,393,124.318,-52.2994,0,0,0,0,0,0,0,-1,1791,631,124.318,52.2994
574,393,123.166,-48.436,0,0,0,0,0,0,0,-1,1798,631,123.166,48.436
581,393,122.078,-44.558,0,0,0,0,0,0,0,-1,1805,631,122.078,44.5581
588,393,121.477,-40.7259,0,0,0,0,0,0,0,-1,1812,631,121.477,40.7259
595,393,120.049,-37.1865,0,0,0,0,0,0,0,-1,1819,631,120.049,37.1864
602,393,119.267,-33.5511,0.0149772,0.0260098,-0.0419879,0.0628422,-0.0218552,-0.850714,0.0507728,0.0414199,1826,631,119.267,33.5511
609,393,118.551,-30.081,0.0170661,0.0295283,-0.0461375,0.0698535,-0.0232592,-0.85252,0.0559572,0.0275021,1833,631,118.551,30.081
616,393,117.774,-26.6326,0.0191437,0.0332107,-0.0502988,0.0769655,-0.024611,-0.854865,0.0611867,0.0226111,1840,631,117.774,26.6326
623,393,116.952,-23.1115,0,0,0,0,0,0,0,-1,1847,631,116.952,23.1115
630,393,50.0315,-15.3729,0,0,0,0,0,0,0,-1,1854,631,50.0316,15.3728
637,393,11.4626,0.608887,0,0,0,0,0,0,0,-1,1861,631,11.4627,-0.608904
644,393,8.97583,1.30585,0,0,0,0,0,0,0,-1,1868,631,8.97586,-1.30584
651,393,11.348,0.53302,0,0,0,0,0,0,0,-1,1875,631,11.348,-0.53305
658,393,9.21338,1.50836,0,0,0,0,0,0,0,-1,1882,631,9.21338,-1.50834
665,393,6.1001,2.32129,0,0,0,0,0,0,0,-1,1889,631,6.10012,-2.3213
672,393,7.14575,2.43225,0,0,0,0,0,0,0,-1,1896,631,7.14572,-2.43222
679,393,0,0,0,0,0,0,0,0,0,-1,1903,631,0,0
686,393,0,0,0,0,0,0,0,0,0,-1,1910,631,0,0
693,393,0,0,0,0,0,0,0,0,0,-1,1917,631,0,0
700,393,0,0,0,0,0,0,0,0,0,-1,1924,631,0,0
707,393,0,0,0,0,0,0,0,0,0,-1,1931,631,0,0
714,393,0,0,0,0,0,0,0,0,0,-1,1938,631,0,0
721,393,0,0,0,0,0,0,0,0,0,-1,1945,631,0,0
728,393,0,0,0,0,0,0,0,0,0,-1,1952,631,0,0
735,393,0,0,0,0,0,0,0,0,0,-1,1959,631,0,0
742,393,0,0,0,0,0,0,0,0,0,-1,1966,631,0,0
749,393,0,0,0,0,0,0,0,0,0,-1,1973,631,0,0
756,393,0,0,0,0,0,0,0,0,0,-1,1980,631,0,0
763,393,0,0,0,0,0,0,0,0,0,-1,1987,631,0,0
770,393,0,0,0,0,0,0,0,0,0,-1,1994,631,0,0
777,393,0,0,0,0,0,0,0,0,0,-1,2001,631,0,0
784,393,0,0,0,0,0,0,0,0,0,-1,2008,631,0,0
791,393,0,0,0,0,0,0,0,0,0,-1,2015,631,0,0
798,393,0,0,0,0,0,0,0,0,0,-1,2022,631,0,0
805,393,0,0,0,0,0,0,0,0,0,-1,2029,631,0,0
812,393,0,0,0,0,0,0,0,0,0,-1,2036,631,0,0
-700,386,0,0,0,0,0,0,0,0,0,-1,524,638,0,0
-693,386,0,0,0,0,0,0,0,0,0,-1,531,638,0,0
-686,386,0,0,0,0,0,0,0,0,0,-1,538,638,0,0
-679,386,0,0,0,0,0,0,0,0,0,-1,545,638,0,0
-672,386,0,0,0,0,0,0,0,0,0,-1,552,638,0,0
-665,386,0,0,0,0,0,0,0,0,0,-1,559,638,0,0
-658,386,0,0,0,0,0,0,0,0,0,-1,566,638,0,0
-651,386,0,0,0,0,0,0,0,0,0,-1,573,638,0,0
-644,386,0,0,0,0,0,0,0,0,0,-1,580,638,0,0
-637,386,0,0,0,0,0,0,0,0,0,-1,587,638,0,0
-630,386,0,0,0,0,0,0,0,0,0,-1,594,638,0,0
-623,386,0,0,0,0,0,0,0,0,0,-1,601,638,0,0
-616,386,0,0,0,0,0,0,0,0,0,-1,608,638,0,0
-609,386,0,0,0,0,0,0,0,0,0,-1,615,638,0,0
-602,386,0,0,0,0,0,0,0,0,0,-1,622,638,0,0
-595,386,0,0,0,0,0,0,0,0,0,-1,629,638,0,0
-588,386,0,0,0,0,0,0,0,0,0,-1,636,638,0,0
-581,386,0,0,0,0,0,0,0,0,0,-1,643,638,0,0
-574,386,0,0,0,0,0,0,0,0,0,-1,650,638,0,0
-567,386,0,0,0,0,0,0,0,0,0,-1,657,638,0,0
-560,386,-3.97229,-5.13898,0,0,0,0,0,0,0,-1,664,638,-3.97232,5.13897
-553,386,-4.94244,-5.54309,0,0,0,0,0,0,0,-1,671,638,-4.94242,5.5431
-546,386,-1.78668,1.72827,0,0,0,0,0,0,0,-1,678,638,-1.78668,-1.72829
-539,386,-0.879456,-2.90009,0,0,0,0,0,0,0,-1,685,638,-0.879442,2.90008
-532,386,-5.4884,1.73328,0,0,0,0,0,0,0,-1,692,638,-5.4884,-1.73325
-525,386,-6.64148,-1.50604,0,0,0,0,0,0,0,-1,699,638,-6.64149,1.50603
-518,386,-11.1217,-4.10382,0,0,0,0,0,0,0,-1,706,638,-11.1217,4.1038
-511,386,-13.0612,-5.05151,0,0,0,0,0,0,0,-1,713,638,-13.0612,5.05149
-504,386,-34.0443,-13.7252,0,0,0,0,0,0,0,-1,720,638,-34.0442,13.7252
-497,386,-109.924,-19.4641,0,0,0,0,0,0,0,-1,727,638,-109.924,19.4641
-490,386,-110.869,-23.1354,0.023416,0.043095,0.0448437,0.079166,-0.0126551,0.893396,0.0574621,0.0275179,734,638,-110.869,23.1354
-483,386,-111.761,-26.7471,0.0205814,0.0394654,0.0439252,0.074952,-0.0149051,0.891265,0.0556063,0.0298714,741,638,-111.761,26.747
-476,386,-112.444,-30.252,0.0180346,0.0358533,0.042774,0.0706359,-0.0167481,0.888075,0.0535535,0.0251875,748,638,-112.444,30.252
-469,386,-113.344,-33.7701,0.0158002,0.0323248,0.0414383,0.0663165,-0.0181915,0.883802,0.0513601,0.0176235,755,638,-113.344,33.7702
-462,386,-114.308,-37.4166,0.0138595,0.0289001,0.0398915,0.061974,-0.0192144,0.878564,0.0489933,0.0159461,762,638,-114.308,37.4166
-455,386,-115.313,-41.1688,0.0121213,0.0255904,0.0381717,0.0576171,-0.0199054,0.872713,0.0464894,0.0194835,769,638,-115.313,41.1688
-448,386,-116.139,-44.8773,0.0106266,0.0223883,0.0363075,0.0532882,-0.0202732,0.865687,0.0438734,0.019686,776,638,-116.139,44.8773
-441,386,-117.117,-48.5632,0.00939105,0.0195124,0.0341545,0.0489791,-0.0200757,0.858948,0.0410164,0.0187192,783,638,-117.117,48.5633
-434,386,-118.25,-52.3347,0,0,0,0,0,0,0,-1,790,638,-118.25,52.3347
-427,386,-116.088,-57.1801,0,0,0,0,0,0,0,-1,797,638,-116.088,57.1801
-420,386,-14.5338,-16.0451,0,0,0,0,0,0,0,-1,804,638,-14.5338,16.0451
-413,386,-5.45691,-5.35785,0,0,0,0,0,0,0,-1,811,638,-5.45691,5.35783
-406,386,-4.51135,-4.10999,0,0,0,0,0,0,0,-1,818,638,-4.51135,4.10996
-399,386,-3.57117,-3.42126,0,0,0,0,0,0,0,-1,825,638,-3.57116,3.42129
-392,386,-4.00977,0.403625,0,0,0,0,0,0,0,-1,832,638,-4.0098,-0.403616
-385,386,-3.2406,-0.118469,0,0,0,0,0,0,0,-1,839,638,-3.24058,0.118485
-378,386,-2.55243,-1.22748,0,0,0,0,0,0,0,-1,846,638,-2.55243,1.22748
-371,386,-7.95807,-0.330261,0,0,0,0,0,0,0,-1,853,638,-7.95806,0.330284
-364,386,-8.90637,-0.665955,0,0,0,0,0,0,0,-1,860,638,-8.90635,0.665951
-357,386,-9.10364,-0.388733,0,0,0,0,0,0,0,-1,867,638,-9.10364,0.388744
-350,386,0,0,0,0,0,0,0,0,0,-1,874,638,0,0
-343,386,0,0,0,0,0,0,0,0,0,-1,881,638,0,0
-336,386,0,0,0,0,0,0,0,0,0,-1,888,638,0,0
-329,386,0,0,0,0,0,0,0,0,0,-1,895,638,0,0
-322,386,0,0,0,0,0,0,0,0,0,-1,902,638,0,0
-315,386,0,0,0,0,0,0,0,0,0,-1,909,638,0,0
-308,386,0,0,0,0,0,0,0,0,0,-1,916,638,0,0
-301,386,0,0,0,0,0,0,0,0,0,-1,923,638,0,0
-294,386,0,0,0,0,0,0,0,0,0,-1,930,638,0,0
-287,386,0,0,0,0,0,0,0,0,0,-1,937,638,0,0
-280,386,0,0,0,0,0,0,0,0,0,-1,944,638,0,0
-273,386,0,0,0,0,0,0,0,0,0,-1,951,638,0,0
-266,386,0,0,0,0,0,0,0,0,0,-1,958,638,0,0
-259,386,0,0,0,0,0,0,0,0,0,-1,965,638,0,0
-252,386,0,0,0,0,0,0,0,0,0,-1,972,638,0,0
-245,386,0,0,0,0,0,0,0,0,0,-1,979,638,0,0
-238,386,0,0,0,0,0,0,0,0,0,-1,986,638,0,0
-231,386,0,0,0,0,0,0,0,0,0,-1,993,638,0,0
-224,386,0,0,0,0,0,0,0,0,0,-1,1000,638,0,0
-217,386,0,0,0,0,0,0,0,0,0,-1,1007,638,0,0
-210,386,0,0,0,0,0,0,0,0,0,-1,1014,638,0,0
-203,386,0,0,0,0,0,0,0,0,0,-1,1021,638,0,0
-196,386,0,0,0,0,0,0,0,0,0,-1,1028,638,0,0
-189,386,0,0,0,0,0,0,0,0,0,-1,1035,638,0,0
-182,386,0,0,0,0,0,0,0,0,0,-1,1042,638,0,0
-175,386,0,0,0,0,0,0,0,0,0,-1,1049,638,0,0
-168,386,0,0,0,0,0,0,0,0,0,-1,1056,638,0,0
-161,386,0,0,0,0,0,0,0,0,0,-1,1063,638,0,0
-154,386,0,0,0,0,0,0,0,0,0,-1,1070,638,0,0
-147,386,0,0,0,0,0,0,0,0,0,-1,1077,638,0,0
-140,386,0,0,0,0,0,0,0,0,0,-1,1084,638,0,0
-133,386,0,0,0,0,0,0,0,0,0,-1,1091,638,0,0
-126,386,0,0,0,0,0,0,0,0,0,-1,1098,638,0,0
-119,386,0,0,0,0,0,0,0,0,0,-1,1105,638,0,0
-112,386,0,0,0,0,0,0,0,0,0,-1,1112,638,0,0
-105,386,0,0,0,0,0,0,0,0,0,-1,1119,638,0,0
-98,386,0,0,0,0,0,0,0,0,0,-1,1126,638,0,0
-91,386,0,0,0,0,0,0,0,0,0,-1,1133,638,0,0
-84,386,0,0,0,0,0,0,0,0,0,-1,1140,638,0,0
-77,386,0,0,0,0,0,0,0,0,0,-1,1147,638,0,0
-70,386,0,0,0,0,0,0,0,0,0,-1,1154,638,0,0
-63,386,0,0,0,0,0,0,0,0,0,-1,1161,638,0,0
-56,386,0,0,0,0,0,0,0,0,0,-1,1168,638,0,0
-49,386,0,0,0,0,0,0,0,0,0,-1,1175,638,0,0
-42,386,0,0,0,0,0,0,0,0,0,-1,1182,638,0,0
-35,386,0,0,0,0,0,0,0,0,0,-1,1189,638,0,0
-28,386,0,0,0,0,0,0,0,0,0,-1,1196,638,0,0
-21,386,0,0,0,0,0,0,0,0,0,-1,1203,638,0,0
-14,386,0,0,0,0,0,0,0,0,0,-1,1210,638,0,0
-7,386,0,0,0,0,0,0,0,0,0,-1,1217,638,0,0
0,386,0,0,0,0,0,0,0,0,0,-1,1224,638,0,0
7,386,0,0,0,0,0,0,0,0,0,-1,1231,638,0,0
14,386,0,0,0,0,0,0,0,0,0,-1,1238,638,0,0
21,386,0,0,0,0,0,0,0,0,0,-1,1245,638,0,0
28,386,0,0,0,0,0,0,0,0,0,-1,1252,638,0,0
35,386,0,0,0,0,0,0,0,0,0,-1,1259,638,0,0
42,386,0,0,0,0,0,0,0,0,0,-1,1266,638,0,0
49,386,0,0,0,0,0,0,0,0,0,-1,1273,638,0,0
56,386,0,0,0,0,0,0,0,0,0,-1,1280,638,0,0
63,386,0,0,0,0,0,0,0,0,0,-1,1287,638,0,0
70,386,0,0,0,0,0,0,0,0,0,-1,1294,638,0,0
77,386,0,0,0,0,0,0,0,0,0,-1,1301,638,0,0
84,386,0,0,0,0,0,0,0,0,0,-1,1308,638,0,0
91,386,0,0,0,0,0,0,0,0,0,-1,1315,638,0,0
98,386,0,0,0,0,0,0,0,0,0,-1,1322,638,0,0
105,386,0,0,0,0,0,0,0,0,0,-1,1329,638,0,0
112,386,0,0,0,0,0,0,0,0,0,-1,1336,638,0,0
119,386,0,0,0,0,0,0,0,0,0,-1,1343,638,0,0
126,386,0,0,0,0,0,0,0,0,0,-1,1350,638,0,0
133,386,0,0,0,0,0,0,0,0,0,-1,1357,638,0,0
140,386,0,0,0,0,0,0,0,0,0,-1,1364,638,0,0
147,386,0,0,0,0,0,0,0,0,0,-1,1371,638,0,0
154,386,0,0,0,0,0,0,0,0,0,-1,1378,638,0,0
161,386,0,0,0,0,0,0,0,0,0,-1,1385,638,0,0
168,386,0,0,0,0,0,0,0,0,0,-1,1392,638,0,0
175,386,0,0,0,0,0,0,0,0,0,-1,1399,638,0,0
182,386,0,0,0,0,0,0,0,0,0,-1,1406,638,0,0
189,386,0,0,0,0,0,0,0,0,0,-1,1413,638,0,0
196,386,0,0,0,0,0,0,0,0,0,-1,1420,638,0,0
203,386,0,0,0,0,0,0,0,0,0,-1,1427,638,0,0
210,386,0,0,0,0,0,0,0,0,0,-1,1434,638,0,0
217,386,0,0,0,0,0,0,0,0,0,-1,1441,638,0,0
224,386,0,0,0,0,0,0,0,0,0,-1,1448,638,0,0
231,386,0,0,0,0,0,0,0,0,0,-1,1455,638,0,0
238,386,0,0,0,0,0,0,0,0,0,-1,1462,638,0,0
245,386,0,0,0,0,0,0,0,0,0,-1,1469,638,0,0
252,386,0,0,0,0,0,0,0,0,0,-1,1476,638,0,0
259,386,0,0,0,0,0,0,0,0,0,-1,1483,638,0,0
266,386,0,0,0,0,0,0,0,0,0,-1,1490,638,0,0
273,386,0,0,0,0,0,0,0,0,0,-1,1497,638,0,0
280,386,0,0,0,0,0,0,0,0,0,-1,1504,638,0,0
287,386,0,0,0,0,0,0,0,0,0,-1,1511,638,0,0
294,386,0,0,0,0,0,0,0,0,0,-1,1518,638,0,0
301,386,0,0,0,0,0,0,0,0,0,-1,1525,638,0,0
308,386,0,0,0,0,0,0,0,0,0,-1,1532,638,0,0
315,386,0,0,0,0,0,0,0,0,0,-1,1539,638,0,0
322,386,0,0,0,0,0,0,0,0,0,-1,1546,638,0,0
329,386,0,0,0,0,0,0,0,0,0,-1,1553,638,0,0
336,386,0,0,0,0,0,0,0,0,0,-1,1560,638,0,0
343,386,0,0,0,0,0,0,0,0,0,-1,1567,638,0,0
350,386,0,0,0,0,0,0,0,0,0,-1,1574,638,0,0
357,386,0,0,0,0,0,0,0,0,0,-1,1581,638,0,0
364,386,0,0,0,0,0,0,0,0,0,-1,1588,638,0,0
371,386,0,0,0,0,0,0,0,0,0,-1,1595,638,0,0
378,386,0,0,0,0,0,0,0,0,0,-1,1602,638,0,0
385,386,0,0,0,0,0,0,0,0,0,-1,1609,638,0,0
392,386,0,0,0,0,0,0,0,0,0,-1,1616,638,0,0
399,386,0,0,0,0,0,0,0,0,0,-1,1623,638,0,0
406,386,0,0,0,0,0,0,0,0,0,-1,1630,638,0,0
413,386,0,0,0,0,0,0,0,0,0,-1,1637,638,0,0
420,386,0,0,0,0,0,0,0,0,0,-1,1644,638,0,0
427,386,0,0,0,0,0,0,0,0,0,-1,1651,638,0,0
434,386,0,0,0,0,0,0,0,0,0,-1,1658,638,0,0
441,386,0,0,0,0,0,0,0,0,0,-1,1665,638,0,0
448,386,0,0,0,0,0,0,0,0,0,-1,1672,638,0,0
455,386,0,0,0,0,0,0,0,0,0,-1,1679,638,0,0
462,386,0,0,0,0,0,0,0,0,0,-1,1686,638,0,0
469,386,9.84692,1.55804,0,0,0,0,0,0,0,-1,1693,638,9.84691,-1.55807
476,386,10.6145,0.986511,0,0,0,0,0,0,0,-1,1700,638,10.6145,-0.986529
483,386,11.4113,0.732971,0,0,0,0,0,0,0,-1,1707,638,11.4112,-0.732958
490,386,7.79785,1.79572,0,0,0,0,0,0,0,-1,1714,638,7.79788,-1.7957
497,386,8.96362,1.77081,0,0,0,0,0,0,0,-1,1721,638,8.96357,-1.77081
504,386,10.0555,1.69427,0,0,0,0,0,0,0,-1,1728,638,10.0555,-1.69426
511,386,11.2172,1.534,0,0,0,0,0,0,0,-1,1735,638,11.2172,-1.53398
518,386,7.41553,1.75238,0,0,0,0,0,0,0,-1,1742,638,7.41547,-1.75238
525,386,8.82422,-1.1449,0,0,0,0,0,0,0,-1,1749,638,8.82426,1.14492
532,386,10.6432,0.617371,0,0,0,0,0,0,0,-1,1756,638,10.6432,-0.617359
539,386,9.62061,-0.393616,0,0,0,0,0,0,0,-1,1763,638,9.62059,0.393634
546,386,10.7963,-2.854,0,0,0,0,0,0,0,-1,1770,638,10.7962,2.854
553,386,16.9939,-7.27942,0,0,0,0,0,0,0,-1,1777,638,16.9939,7.27944
560,386,73.2229,-52.2673,0,0,0,0,0,0,0,-1,1784,638,73.2229,52.2673
567,386,128.381,-51.3172,0,0,0,0,0,0,0,-1,1791,638,128.381,51.3172
574,386,127.385,-47.1915,0,0,0,0,0,0,0,-1,1798,638,127.385,47.1915
581,386,126.373,-43.6172,0,0,0,0,0,0,0,-1,1805,638,126.373,43.6172
588,386,125.722,-39.9501,0.00766227,0.0191169,-0.0289564,0.042907,-0.0161278,-0.883033,0.0352332,0.0479714,1812,638,125.722,39.9501
595,386,124.503,-36.2509,0.00923674,0.0218184,-0.0331405,0.0492599,-0.0182048,-0.879193,0.0403028,0.0472664,1819,638,124.503,36.2509
602,386,123.573,-32.6489,0.0108611,0.0247497,-0.0372957,0.055742,-0.0201313,-0.877442,0.0453853,0.0282773,1826,638,123.573,32.6489
609,386,122.791,-29.1359,0.0128115,0.0281819,-0.0414785,0.0626811,-0.0216878,-0.877,0.0505907,0.0200255,1833,638,122.791,29.1359
616,386,121.853,-25.5502,0.0147453,0.0316791,-0.0455763,0.0695683,-0.0231439,-0.877238,0.0557195,0.0170731,1840,638,121.853,25.5502
623,386,120.965,-22.088,0.0164343,0.0350595,-0.0494962,0.0761116,-0.0246178,-0.878385,0.0606363,0.0162012,1847,638,120.965,22.088
630,386,120.066,-18.6014,0,0,0,0,0,0,0,-1,1854,638,120.066,18.6014
637,386,51.4513,-13.595,0,0,0,0,0,0,0,-1,1861,638,51.4513,13.595
644,386,11.6521,0.723328,0,0,0,0,0,0,0,-1,1868,638,11.6521,-0.723355
651,386,9.3866,1.31097,0,0,0,0,0,0,0,-1,1875,638,9.3866,-1.31095
658,386,12.0731,-0.00415039,0,0,0,0,0,0,0,-1,1882,638,12.0731,0.00412803
665,386,6.33167,1.78601,0,0,0,0,0,0,0,-1,1889,638,6.33171,-1.78601
672,386,7.23352,2.14435,0,0,0,0,0,0,0,-1,1896,638,7.23353,-2.14433
679,386,8.07764,2.57104,0,0,0,0,0,0,0,-1,1903,638,8.07758,-2.57103
686,386,0,0,0,0,0,0,0,0,0,-1,1910,638,0,0
693,386,0,0,0,0,0,0,0,0,0,-1,1917,638,0,0
700,386,0,0,0,0,0,0,0,0,0,-1,1924,638,0,0
707,386,0,0,0,0,0,0,0,0,0,-1,1931,638,0,0
714,386,0,0,0,0,0,0,0,0,0,-1,1938,638,0,0
721,386,0,0,0,0,0,0,0,0,0,-1,1945,638,0,0
728,386,0,0,0,0,0,0,0,0,0,-1,1952,638,0,0
735,386,0,0,0,0,0,0,0,0,0,-1,1959,638,0,0
742,386,0,0,0,0,0,0,0,0,0,-1,1966,638,0,0
749,386,0,0,0,0,0,0,0,0,0,-1,1973,638,0,0
756,386,0,0,0,0,0,0,0,0,0,-1,1980,638,0,0
763,386,0,0,0,0,0,0,0,0,0,-1,1987,638,0,0
770,386,0,0,0,0,0,0,0,0,0,-1,1994,638,0,0
777,386,0,0,0,0,0,0,0,0,0,-1,2001,638,0,0
784,386,0,0,0,0,0,0,0,0,0,-1,2008,638,0,0
791,386,0,0,0,0,0,0,0,0,0,-1,2015,638,0,0
798,386,0,0,0,0,0,0,0,0,0,-1,2022,638,0,0
805,386,0,0,0,0,0,0,0,0,0,-1,2029,638,0,0
812,386,0,0,0,0,0,0,0,0,0,-1,2036,638,0,0
-700,379,0,0,0,0,0,0,0,0,0,-1,524,645,0,0
-693,379,0,0,0,0,0,0,0,0,0,-1,531,645,0,0
-686,379,0,0,0,0,0,0,0,0,0,-1,538,645,0,0
-679,379,0,0,0,0,0,0,0,0,0,-1,545,645,0,0
-672,379,0,0,0,0,0,0,0,0,0,-1,552,645,0,0
-665,379,0,0,0,0,0,0,0,0,0,-1,559,645,0,0
-658,379,0,0,0,0,0,0,0,0,0,-1,566,645,0,0
-651,379,0,0,0,0,0,0,0,0,0,-1,573,645,0,0
-644,379,0,0,0,0,0,0,0,0,0,-1,580,645,0,0
-637,379,0,0,0,0,0,0,0,0,0,-1,587,645,0,0
-630,379,0,0,0,0,0,0,0,0,0,-1,594,645,0,0
-623,379,0,0,0,0,0,0,0,0,0,-1,601,645,0,0
-616,379,0,0,0,0,0,0,0,0,0,-1,608,645,0,0
-609,379,0,0,0,0,0,0,0,0,0,-1,615,645,0,0
-602,379,0,0,0,0,0,0,0,0,0,-1,622,645,0,0
-595,379,0,0,0,0,0,0,0,0,0,-1,629,645,0,0
-588,379,0,0,0,0,0,0,0,0,0,-1,636,645,0,0
-581,379,0,0,0,0,0,0,0,0,0,-1,643,645,0,0
-574,379,0,0,0,0,0,0,0,0,0,-1,650,645,0,0
-567,379,-8.78058,0.59668,0,0,0,0,0,0,0,-1,657,645,-8.7806,-0.596692
-560,379,-9.53485,-0.211304,0,0,0,0,0,0,0,-1,664,645,-9.53487,0.211282
-553,379,-5.17108,-4.53119,0,0,0,0,0,0,0,-1,671,645,-5.17106,4.53117
-546,379,-6.23053,-4.92102,0,0,0,0,0,0,0,-1,678,645,-6.23054,4.92105
-539,379,-0.71698,-2.19427,0,0,0,0,0,0,0,-1,685,645,-0.716959,2.19427
-532,379,-7.69611,0.217224,0,0,0,0,0,0,0,-1,692,645,-7.69614,-0.217204
-525,379,-7.09833,-1.13043,0,0,0,0,0,0,0,-1,699,645,-7.0983,1.13041
-518,379,-13.126,-5.33893,0,0,0,0,0,0,0,-1,706,645,-13.126,5.33895
-511,379,-38.2532,-12.7537,0,0,0,0,0,0,0,-1,713,645,-38.2533,12.7537
-504,379,-113.447,-14.9864,0,0,0,0,0,0,0,-1,720,645,-113.447,14.9864
-497,379,-114.187,-18.6074,0.0230715,0.0426058,0.0434961,0.0774179,-0.0117406,0.895842,0.0559377,0.0440149,727,645,-114.187,18.6074
-490,379,-114.966,-22.1177,0.0200944,0.039516,0.0424667,0.073368,-0.0137577,0.8978,0.0540844,0.0265059,734,645,-114.966,22.1177
-483,379,-115.758,-25.694,0.0171971,0.0363797,0.0413416,0.069228,-0.0156513,0.899382,0.0521578,0.0241557,741,645,-115.758,25.694
-476,379,-116.471,-29.1656,0.0145148,0.033254,0.0400504,0.0650162,-0.0172474,0.900305,0.050093,0.0213361,748,645,-116.471,29.1656
-469,379,-117.345,-32.6181,0.0120843,0.0301555,0.0386181,0.060781,-0.0185412,0.900317,0.0479122,0.0195637,755,645,-117.345,32.6181
-462,379,-118.315,-36.2531,0.00994979,0.0271063,0.0369869,0.0564966,-0.0194406,0.899347,0.0455491,0.0143507,762,645,-118.315,36.2531
-455,379,-119.324,-39.9672,0.00808184,0.0241152,0.0351967,0.0521967,-0.0199996,0.897372,0.043042,0.0137139,769,645,-119.324,39.9672
-448,379,-120.28,-43.6715,0.00658217,0.0212347,0.0331631,0.0478711,-0.0200542,0.894111,0.040298,0.0190265,776,645,-120.28,43.6715
-441,379,-121.219,-47.3632,0,0,0,0,0,0,0,-1,783,645,-121.219,47.3632
-434,379,-121.172,-51.64,0,0,0,0,0,0,0,-1,790,645,-121.172,51.64
-427,379,-4.16113,-4.13452,0,0,0,0,0,0,0,-1,797,645,-4.16116,4.1345
-420,379,-4.63953,-3.46869,0,0,0,0,0,0,0,-1,804,645,-4.63953,3.46872
-413,379,-4.62543,-3.7912,0,0,0,0,0,0,0,-1,811,645,-4.62541,3.79123
-406,379,-4.64063,-4.38489,0,0,0,0,0,0,0,-1,818,645,-4.64065,4.3849
-399,379,-2.93536,-1.40118,0,0,0,0,0,0,0,-1,825,645,-2.93534,1.40119
-392,379,-4.16711,-0.466003,0,0,0,0,0,0,0,-1,832,645,-4.16714,0.465992
-385,379,-3.51862,0.441101,0,0,0,0,0,0,0,-1,839,645,-3.51859,-0.441072
-378,379,-5.3504,0.212219,0,0,0,0,0,0,0,-1,846,645,-5.35038,-0.212241
-371,379,-4.32092,-0.186707,0,0,0,0,0,0,0,-1,853,645,-4.3209,0.186707
-364,379,-3.40887,-0.549805,0,0,0,0,0,0,0,-1,860,645,-3.4089,0.549802
-357,379,0,0,0,0,0,0,0,0,0,-1,867,645,0,0
-350,379,0,0,0,0,0,0,0,0,0,-1,874,645,0,0
-343,379,0,0,0,0,0,0,0,0,0,-1,881,645,0,0
-336,379,0,0,0,0,0,0,0,0,0,-1,888,645,0,0
-329,379,0,0,0,0,0,0,0,0,0,-1,895,645,0,0
-322,379,0,0,0,0,0,0,0,0,0,-1,902,645,0,0
-315,379,0,0,0,0,0,0,0,0,0,-1,909,645,0,0
-308,379,0,0,0,0,0,0,0,0,0,-1,916,645,0,0
-301,379,0,0,0,0,0,0,0,0,0,-1,923,645,0,0
-294,379,0,0,0,0,0,0,0,0,0,-1,930,645,0,0
-287,379,0,0,0,0,0,0,0,0,0,-1,937,645,0,0
-280,379,0,0,0,0,0,0,0,0,0,-1,944,645,0,0
-273,379,0,0,0,0,0,0,0,0,0,-1,951,645,0,0
-266,379,0,0,0,0,0,0,0,0,0,-1,958,645,0,0
-259,379,0,0,0,0,0,0,0,0,0,-1,965,645,0,0
-252,379,0,0,0,0,0,0,0,0,0,-1,972,645,0,0
-245,379,0,0,0,0,0,0,0,0,0,-1,979,645,0,0
-238,379,0,0,0,0,0,0,0,0,0,-1,986,645,0,0
-231,379,0,0,0,0,0,0,0,0,0,-1,993,645,0,0
-224,379,0,0,0,0,0,0,0,0,0,-1,1000,645,0,0
-217,379,0,0,0,0,0,0,0,0,0,-1,1007,645,0,0
-210,379,0,0,0,0,0,0,0,0,0,-1,1014,645,0,0
-203,379,0,0,0,0,0,0,0,0,0,-1,1021,645,0,0
-196,379,0,0,0,0,0,0,0,0,0,-1,1028,645,0,0
-189,379,0,0,0,0,0,0,0,0,0,-1,1035,645,0,0
-182,379,0,0,0,0,0,0,0,0,0,-1,1042,645,0,0
-175,379,0,0,0,0,0,0,0,0,0,-1,1049,645,0,0
-168,379,0,0,0,0,0,0,0,0,0,-1,1056,645,0,0
-161,379,0,0,0,0,0,0,0,0,0,-1,1063,645,0,0
-154,379,0,0,0,0,0,0,0,0,0,-1,1070,645,0,0
-147,379,0,0,0,0,0,0,0,0,0,-1,1077,645,0,0
-140,379,0,0,0,0,0,0,0,0,0,-1,1084,645,0,0
-133,379,0,0,0,0,0,0,0,0,0,-1,1091,645,0,0
-126,379,0,0,0,0,0,0,0,0,0,-1,1098,645,0,0
-119,379,0,0,0,0,0,0,0,0,0,-1,1105,645,0,0
-112,379,0,0,0,0,0,0,0,0,0,-1,1112,645,0,0
-105,379,0,0,0,0,0,0,0,0,0,-1,1119,645,0,0
-98,379,0,0,0,0,0,0,0,0,0,-1,1126,645,0,0
-91,379,0,0,0,0,0,0,0,0,0,-1,1133,645,0,0
-84,379,0,0,0,0,0,0,0,0,0,-1,1140,645,0,0
-77,379,0,0,0,0,0,0,0,0,0,-1,1147,645,0,0
-70,379,0,0,0,0,0,0,0,0,0,-1,1154,645,0,0
-63,379,0,0,0,0,0,0,0,0,0,-1,1161,645,0,0
-56,379,0,0,0,0,0,0,0,0,0,-1,1168,645,0,0
-49,379,0,0,0,0,0,0,0,0,0,-1,1175,645,0,0
-42,379,0,0,0,0,0,0,0,0,0,-1,1182,645,0,0
-35,379,0,0,0,0,0,0,0,0,0,-1,1189,645,0,0
-28,379,0,0,0,0,0,0,0,0,0,-1,1196,645,0,0
-21,379,0,0,0,0,0,0,0,0,0,-1,1203,645,0,0
-14,379,0,0,0,0,0,0,0,0,0,-1,1210,645,0,0
-7,379,0,0,0,0,0,0,0,0,0,-1,1217,645,0,0
0,379,0,0,0,0,0,0,0,0,0,-1,1224,645,0,0
7,379,0,0,0,0,0,0,0,0,0,-1,1231,645,0,0
14,379,0,0,0,0,0,0,0,0,0,-1,1238,645,0,0
21,379,0,0,0,0,0,0,0,0,0,-1,1245,645,0,0
28,379,0,0,0,0,0,0,0,0,0,-1,1252,645,0,0
35,379,0,0,0,0,0,0,0,0,0,-1,1259,645,0,0
42,379,0,0,0,0,0,0,0,0,0,-1,1266,645,0,0
49,379,0,0,0,0,0,0,0,0,0,-1,1273,645,0,0
56,379,0,0,0,0,0,0,0,0,0,-1,1280,645,0,0
63,379,0,0,0,0,0,0,0,0,0,-1,1287,645,0,0
70,379,0,0,0,0,0,0,0,0,0,-1,1294,645,0,0
77,379,0,0,0,0,0,0,0,0,0,-1,1301,645,0,0
84,379,0,0,0,0,0,0,0,0,0,-1,1308,645,0,0
91,379,0,0,0,0,0,0,0,0,0,-1,1315,645,0,0
98,379,0,0,0,0,0,0,0,0,0,-1,1322,645,0,0
105,379,0,0,0,0,0,0,0,0,0,-1,1329,645,0,0
112,379,0,0,0,0,0,0,0,0,0,-1,1336,645,0,0
119,379,0,0,0,0,0,0,0,0,0,-1,1343,645,0,0
126,379,0,0,0,0,0,0,0,0,0,-1,1350,645,0,0
133,379,0,0,0,0,0,0,0,0,0,-1,1357,645,0,0
140,379,0,0,0,0,0,0,0,0,0,-1,1364,645,0,0
147,379,0,0,0,0,0,0,0,0,0,-1,1371,645,0,0
154,379,0,0,0,0,0,0,0,0,0,-1,1378,645,0,0
161,379,0,0,0,0,0,0,0,0,0,-1,1385,645,0,0
168,379,0,0,0,0,0,0,0,0,0,-1,1392,645,0,0
175,379,0,0,0,0,0,0,0,0,0,-1,1399,645,0,0
182,379,0,0,0,0,0,0,0,0,0,-1,1406,645,0,0
189,379,0,0,0,0,0,0,0,0,0,-1,1413,645,0,0
196,379,0,0,0,0,0,0,0,0,0,-1,1420,645,0,0
203,379,0,0,0,0,0,0,0,0,0,-1,1427,645,0,0
210,379,0,0,0,0,0,0,0,0,0,-1,1434,645,0,0
217,379,0,0,0,0,0,0,0,0,0,-1,1441,645,0,0
224,379,0,0,0,0,0,0,0,0,0,-1,1448,645,0,0
231,379,0,0,0,0,0,0,0,0,0,-1,1455,645,0,0
238,379,0,0,0,0,0,0,0,0,0,-1,1462,645,0,0
245,379,0,0,0,0,0,0,0,0,0,-1,1469,645,0,0
252,379,0,0,0,0,0,0,0,0,0,-1,1476,645,0,0
259,379,0,0,0,0,0,0,0,0,0,-1,1483,645,0,0
266,379,0,0,0,0,0,0,0,0,0,-1,1490,645,0,0
273,379,0,0,0,0,0,0,0,0,0,-1,1497,645,0,0
280,379,0,0,0,0,0,0,0,0,0,-1,1504,645,0,0
287,379,0,0,0,0,0,0,0,0,0,-1,1511,645,0,0
294,379,0,0,0,0,0,0,0,0,0,-1,1518,645,0,0
301,379,0,0,0,0,0,0,0,0,0,-1,1525,645,0,0
308,379,0,0,0,0,0,0,0,0,0,-1,1532,645,0,0
315,379,0,0,0,0,0,0,0,0,0,-1,1539,645,0,0
322,379,0,0,0,0,0,0,0,0,0,-1,1546,645,0,0
329,379,0,0,0,0,0,0,0,0,0,-1,1553,645,0,0
336,379,0,0,0,0,0,0,0,0,0,-1,1560,645,0,0
343,379,0,0,0,0,0,0,0,0,0,-1,1567,645,0,0
350,379,0,0,0,0,0,0,0,0,0,-1,1574,645,0,0
357,379,0,0,0,0,0,0,0,0,0,-1,1581,645,0,0
364,379,0,0,0,0,0,0,0,0,0,-1,1588,645,0,0
371,379,0,0,0,0,0,0,0,0,0,-1,1595,645,0,0
378,379,0,0,0,0,0,0,0,0,0,-1,1602,645,0,0
385,379,0,0,0,0,0,0,0,0,0,-1,1609,645,0,0
392,379,0,0,0,0,0,0,0,0,0,-1,1616,645,0,0
399,379,0,0,0,0,0,0,0,0,0,-1,1623,645,0,0
406,379,0,0,0,0,0,0,0,0,0,-1,1630,645,0,0
413,379,0,0,0,0,0,0,0,0,0,-1,1637,645,0,0
420,379,0,0,0,0,0,0,0,0,0,-1,1644,645,0,0
427,379,0,0,0,0,0,0,0,0,0,-1,1651,645,0,0
434,379,0,0,0,0,0,0,0,0,0,-1,1658,645,0,0
441,379,0,0,0,0,0,0,0,0,0,-1,1665,645,0,0
448,379,0,0,0,0,0,0,0,0,0,-1,1672,645,0,0
455,379,0,0,0,0,0,0,0,0,0,-1,1679,645,0,0
462,379,0,0,0,0,0,0,0,0,0,-1,1686,645,0,0
469,379,0,0,0,0,0,0,0,0,0,-1,1693,645,0,0
476,379,11.1787,0.830383,0,0,0,0,0,0,0,-1,1700,645,11.1787,-0.830365
483,379,7.4231,1.54321,0,0,0,0,0,0,0,-1,1707,645,7.42314,-1.54324
490,379,8.52881,1.56677,0,0,0,0,0,0,0,-1,1714,645,8.52878,-1.56677
497,379,9.63599,1.49573,0,0,0,0,0,0,0,-1,1721,645,9.63604,-1.4957
504,379,10.0833,1.35229,0,0,0,0,0,0,0,-1,1728,645,10.0832,-1.35227
511,379,8.14343,1.59912,0,0,0,0,0,0,0,-1,1735,645,8.14347,-1.59912
518,379,12.7955,-0.324097,0,0,0,0,0,0,0,-1,1742,645,12.7955,0.324101
525,379,6.03711,1.10352,0,0,0,0,0,0,0,-1,1749,645,6.03711,-1.10351
532,379,8.70947,0.887817,0,0,0,0,0,0,0,-1,1756,645,8.70953,-0.887808
539,379,9.87097,0.111389,0,0,0,0,0,0,0,-1,1763,645,9.87095,-0.111395
546,379,8.42383,-0.730652,0,0,0,0,0,0,0,-1,1770,645,8.42378,0.730638
553,379,19.2905,-7.67834,0,0,0,0,0,0,0,-1,1777,645,19.2905,7.67837
560,379,71.6378,-47.4678,0,0,0,0,0,0,0,-1,1784,645,71.6378,47.4678
567,379,84.3038,-53.5042,0,0,0,0,0,0,0,-1,1791,645,84.3038,53.5041
574,379,131.649,-45.9875,0,0,0,0,0,0,0,-1,1798,645,131.649,45.9875
581,379,130.62,-42.5831,0,0,0,0,0,0,0,-1,1805,645,130.62,42.5831
588,379,129.474,-38.8392,0.00387951,0.0171963,-0.0237661,0.0352191,-0.0141433,-0.921979,0.0293525,0.0459125,1812,645,129.474,38.8392
595,379,128.44,-35.1823,0.00568869,0.0201449,-0.0282059,0.0420341,-0.0162006,-0.91083,0.034707,0.0371502,1819,645,128.44,35.1823
602,379,127.582,-31.558,0.00725524,0.0231416,-0.0325143,0.0486689,-0.0182721,-0.9052,0.0399545,0.0252351,1826,645,127.582,31.558
609,379,126.609,-28.0977,0.00907187,0.0265296,-0.0367649,0.0555876,-0.0199862,-0.901952,0.0452176,0.0290999,1833,645,126.61,28.0977
616,379,125.773,-24.6036,0.0108101,0.0298955,-0.0408605,0.0623128,-0.0216072,-0.900114,0.0503153,0.0238158,1840,645,125.773,24.6036
623,379,124.954,-21.0975,0.0123157,0.0330922,-0.0447773,0.0686705,-0.0232626,-0.899381,0.0551935,0.022524,1847,645,124.954,21.0974
630,379,124.103,-17.7823,0.0135554,0.036116,-0.0484303,0.0745624,-0.024891,-0.899818,0.0597589,0.0270942,1854,645,124.103,17.7823
637,379,123.431,-14.4557,0,0,0,0,0,0,0,-1,1861,645,123.431,14.4557
644,379,49.4104,-10.7761,0,0,0,0,0,0,0,-1,1868,645,49.4104,10.7762
651,379,12.9515,0.220825,0,0,0,0,0,0,0,-1,1875,645,12.9515,-0.220814
658,379,13.7498,0.37439,0,0,0,0,0,0,0,-1,1882,645,13.7498,-0.374371
665,379,11.9719,0.353333,0,0,0,0,0,0,0,-1,1889,645,11.9719,-0.353321
672,379,7.57605,2.15326,0,0,0,0,0,0,0,-1,1896,645,7.57599,-2.15326
679,379,8.55078,2.50409,0,0,0,0,0,0,0,-1,1903,645,8.55073,-2.50406
686,379,0,0,0,0,0,0,0,0,0,-1,1910,645,0,0
693,379,0,0,0,0,0,0,0,0,0,-1,1917,645,0,0
700,379,0,0,0,0,0,0,0,0,0,-1,1924,645,0,0
707,379,0,0,0,0,0,0,0,0,0,-1,1931,645,0,0
714,379,0,0,0,0,0,0,0,0,0,-1,1938,645,0,0
721,379,0,0,0,0,0,0,0,0,0,-1,1945,645,0,0
728,379,0,0,0,0,0,0,0,0,0,-1,1952,645,0,0
735,379,0,0,0,0,0,0,0,0,0,-1,1959,645,0,0
742,379,0,0,0,0,0,0,0,0,0,-1,1966,645,0,0
749,379,0,0,0,0,0,0,0,0,0,-1,1973,645,0,0
756,379,0,0,0,0,0,0,0,0,0,-1,1980,645,0,0
763,379,0,0,0,0,0,0,0,0,0,-1,1987,645,0,0
770,379,0,0,0,0,0,0,0,0,0,-1,1994,645,0,0
777,379,0,0,0,0,0,0,0,0,0,-1,2001,645,0,0
784,379,0,0,0,0,0,0,0,0,0,-1,2008,645,0,0
791,379,0,0,0,0,0,0,0,0,0,-1,2015,645,0,0
798,379,0,0,0,0,0,0,0,0,0,-1,2022,645,0,0
805,379,0,0,0,0,0,0,0,0,0,-1,2029,645,0,0
812,379,0,0,0,0,0,0,0,0,0,-1,2036,645,0,0
-700,372,0,0,0,0,0,0,0,0,0,-1,524,652,0,0
-693,372,0,0,0,0,0,0,0,0,0,-1,531,652,0,0
-686,372,0,0,0,0,0,0,0,0,0,-1,538,652,0,0
-679,372,0,0,0,0,0,0,0,0,0,-1,545,652,0,0
-672,372,0,0,0,0,0,0,0,0,0,-1,552,652,0,0
-665,372,0,0,0,0,0,0,0,0,0,-1,559,652,0,0
-658,372,0,0,0,0,0,0,0,0,0,-1,566,652,0,0
-651,372,0,0,0,0,0,0,0,0,0,-1,573,652,0,0
-644,372,0,0,0,0,0,0,0,0,0,-1,580,652,0,0
-637,372,0,0,0,0,0,0,0,0,0,-1,587,652,0,0
-630,372,0,0,0,0,0,0,0,0,0,-1,594,652,0,0
-623,372,0,0,0,0,0,0,0,0,0,-1,601,652,0,0
-616,372,0,0,0,0,0,0,0,0,0,-1,608,652,0,0
-609,372,0,0,0,0,0,0,0,0,0,-1,615,652,0,0
-602,372,0,0,0,0,0,0,0,0,0,-1,622,652,0,0
-595,372,0,0,0,0,0,0,0,0,0,-1,629,652,0,0
-588,372,0,0,0,0,0,0,0,0,0,-1,636,652,0,0
-581,372,0,0,0,0,0,0,0,0,0,-1,643,652,0,0
-574,372,0,0,0,0,0,0,0,0,0,-1,650,652,0,0
-567,372,-7.93744,0.73407,0,0,0,0,0,0,0,-1,657,652,-7.93741,-0.734076
-560,372,-8.78552,-0.158203,0,0,0,0,0,0,0,-1,664,652,-8.78552,0.158216
-553,372,-7.95551,1.61694,0,0,0,0,0,0,0,-1,671,652,-7.95552,-1.61697
-546,372,-4.2403,-3.75372,0,0,0,0,0,0,0,-1,678,652,-4.24028,3.75369
-539,372,-7.92285,-0.0650024,0,0,0,0,0,0,0,-1,685,652,-7.92287,0.0649772
-532,372,-8.59589,-0.419556,0,0,0,0,0,0,0,-1,692,652,-8.59591,0.419539
-525,372,-8.03674,-1.36804,0,0,0,0,0,0,0,-1,699,652,-8.03676,1.36806
-518,372,-39.8794,-10.6113,0,0,0,0,0,0,0,-1,706,652,-39.8794,10.6113
-511,372,-80.2879,-14.7131,0,0,0,0,0,0,0,-1,713,652,-80.2879,14.7131
-504,372,-117.365,-14.5313,0,0,0,0,0,0,0,-1,720,652,-117.365,14.5313
-497,372,-118.259,-17.8605,0.0195896,0.0393229,0.041355,0.071972,-0.0130595,0.902501,0.0528748,0.0284933,727,652,-118.259,17.8605
-490,372,-119.129,-21.2086,0.0166747,0.0365191,0.0399073,0.0677191,-0.0145254,0.907243,0.0506865,0.0255938,734,652,-119.129,21.2086
-483,372,-119.886,-24.696,0.013716,0.0337418,0.0385087,0.0635181,-0.0160603,0.912589,0.0485917,0.0216921,741,652,-119.886,24.696
-476,372,-120.519,-28.1483,0.0108823,0.0310744,0.0370489,0.0593783,-0.0174216,0.918421,0.0464937,0.021079,748,652,-120.519,28.1482
-469,372,-121.399,-31.5535,0.00823343,0.0284484,0.0355244,0.0552752,-0.0185934,0.923997,0.0443663,0.0161535,755,652,-121.399,31.5536
-462,372,-122.399,-35.1271,0.00588575,0.025841,0.0338514,0.0511546,-0.0194278,0.928714,0.0421007,0.0140653,762,652,-122.399,35.1271
-455,372,-123.461,-38.7744,0.00388476,0.0232506,0.0320789,0.0470761,-0.0199407,0.931974,0.0397353,0.0223477,769,652,-123.461,38.7743
-448,372,-124.504,-42.5368,0.00227834,0.020845,0.0300597,0.0430222,-0.0198989,0.935167,0.0371362,0.0344222,776,652,-124.504,42.5368
-441,372,-125.54,-46.5675,0,0,0,0,0,0,0,-1,783,652,-125.54,46.5675
-434,372,-9.86865,-9.68494,0,0,0,0,0,0,0,-1,790,652,-9.86863,9.68492
-427,372,-4.54248,-3.56268,0,0,0,0,0,0,0,-1,797,652,-4.54247,3.56266
-420,372,-4.66168,-2.93597,0,0,0,0,0,0,0,-1,804,652,-4.66166,2.93599
-413,372,-4.74762,-3.29541,0,0,0,0,0,0,0,-1,811,652,-4.74763,3.29542
-406,372,-0.885437,-0.583923,0,0,0,0,0,0,0,-1,818,652,-0.885437,0.5839
-399,372,-3.97357,-0.825012,0,0,0,0,0,0,0,-1,825,652,-3.97359,0.825037
-392,372,-7.64337,0.173035,0,0,0,0,0,0,0,-1,832,652,-7.64337,-0.173019
-385,372,-6.48871,-0.0271606,0,0,0,0,0,0,0,-1,839,652,-6.48874,0.0271353
-378,372,-5.33044,-0.242432,0,0,0,0,0,0,0,-1,846,652,-5.33042,0.242457
-371,372,-4.40802,-0.495667,0,0,0,0,0,0,0,-1,853,652,-4.40802,0.495661
-364,372,0,0,0,0,0,0,0,0,0,-1,860,652,0,0
-357,372,0,0,0,0,0,0,0,0,0,-1,867,652,0,0
-350,372,0,0,0,0,0,0,0,0,0,-1,874,652,0,0
-343,372,0,0,0,0,0,0,0,0,0,-1,881,652,0,0
-336,372,0,0,0,0,0,0,0,0,0,-1,888,652,0,0
-329,372,0,0,0,0,0,0,0,0,0,-1,895,652,0,0
-322,372,0,0,0,0,0,0,0,0,0,-1,902,652,0,0
-315,372,0,0,0,0,0,0,0,0,0,-1,909,652,0,0
-308,372,0,0,0,0,0,0,0,0,0,-1,916,652,0,0
-301,372,0,0,0,0,0,0,0,0,0,-1,923,652,0,0
-294,372,0,0,0,0,0,0,0,0,0,-1,930,652,0,0
-287,372,0,0,0,0,0,0,0,0,0,-1,937,652,0,0
-280,372,0,0,0,0,0,0,0,0,0,-1,944,652,0,0
-273,372,0,0,0,0,0,0,0,0,0,-1,951,652,0,0
-266,372,0,0,0,0,0,0,0,0,0,-1,958,652,0,0
-259,372,0,0,0,0,0,0,0,0,0,-1,965,652,0,0
-252,372,0,0,0,0,0,0,0,0,0,-1,972,652,0,0
-245,372,0,0,0,0,0,0,0,0,0,-1,979,652,0,0
-238,372,0,0,0,0,0,0,0,0,0,-1,986,652,0,0
-231,372,0,0,0,0,0,0,0,0,0,-1,993,652,0,0
-224,372,0,0,0,0,0,0,0,0,0,-1,1000,652,0,0
-217,372,0,0,0,0,0,0,0,0,0,-1,1007,652,0,0
-210,372,0,0,0,0,0,0,0,0,0,-1,1014,652,0,0
-203,372,0,0,0,0,0,0,0,0,0,-1,1021,652,0,0
-196,372,0,0,0,0,0,0,0,0,0,-1,1028,652,0,0
-189,372,0,0,0,0,0,0,0,0,0,-1,1035,652,0,0
-182,372,0,0,0,0,0,0,0,0,0,-1,1042,652,0,0
-175,372,0,0,0,0,0,0,0,0,0,-1,1049,652,0,0
-168,372,0,0,0,0,0,0,0,0,0,-1,1056,652,0,0
-161,372,0,0,0,0,0,0,0,0,0,-1,1063,652,0,0
-154,372,0,0,0,0,0,0,0,0,0,-1,1070,652,0,0
-147,372,0,0,0,0,0,0,0,0,0,-1,1077,652,0,0
-140,372,0,0,0,0,0,0,0,0,0,-1,1084,652,0,0
-133,372,0,0,0,0,0,0,0,0,0,-1,1091,652,0,0
-126,372,0,0,0,0,0,0,0,0,0,-1,1098,652,0,0
-119,372,0,0,0,0,0,0,0,0,0,-1,1105,652,0,0
-112,372,0,0,0,0,0,0,0,0,0,-1,1112,652,0,0
-105,372,0,0,0,0,0,0,0,0,0,-1,1119,652,0,0
-98,372,0,0,0,0,0,0,0,0,0,-1,1126,652,0,0
-91,372,0,0,0,0,0,0,0,0,0,-1,1133,652,0,0
-84,372,0,0,0,0,0,0,0,0,0,-1,1140,652,0,0
-77,372,0,0,0,0,0,0,0,0,0,-1,1147,652,0,0
-70,372,0,0,0,0,0,0,0,0,0,-1,1154,652,0,0
-63,372,0,0,0,0,0,0,0,0,0,-1,1161,652,0,0
-56,372,0,0,0,0,0,0,0,0,0,-1,1168,652,0,0
-49,372,0,0,0,0,0,0,0,0,0,-1,1175,652,0,0
-42,372,0,0,0,0,0,0,0,0,0,-1,1182,652,0,0
-35,372,0,0,0,0,0,0,0,0,0,-1,1189,652,0,0
-28,372,0,0,0,0,0,0,0,0,0,-1,1196,652,0,0
-21,372,0,0,0,0,0,0,0,0,0,-1,1203,652,0,0
-14,372,0,0,0,0,0,0,0,0,0,-1,1210,652,0,0
-7,372,0,0,0,0,0,0,0,0,0,-1,1217,652,0,0
0,372,0,0,0,0,0,0,0,0,0,-1,1224,652,0,0
7,372,0,0,0,0,0,0,0,0,0,-1,1231,652,0,0
14,372,0,0,0,0,0,0,0,0,0,-1,1238,652,0,0
21,372,0,0,0,0,0,0,0,0,0,-1,1245,652,0,0
28,372,0,0,0,0,0,0,0,0,0,-1,1252,652,0,0
35,372,0,0,0,0,0,0,0,0,0,-1,1259,652,0,0
42,372,0,0,0,0,0,0,0,0,0,-1,1266,652,0,0
49,372,0,0,0,0,0,0,0,0,0,-1,1273,652,0,0
56,372,0,0,0,0,0,0,0,0,0,-1,1280,652,0,0
63,372,0,0,0,0,0,0,0,0,0,-1,1287,652,0,0
70,372,0,0,0,0,0,0,0,0,0,-1,1294,652,0,0
77,372,0,0,0,0,0,0,0,0,0,-1,1301,652,0,0
84,372,0,0,0,0,0,0,0,0,0,-1,1308,652,0,0
91,372,0,0,0,0,0,0,0,0,0,-1,1315,652,0,0
98,372,0,0,0,0,0,0,0,0,0,-1,1322,652,0,0
105,372,0,0,0,0,0,0,0,0,0,-1,1329,652,0,0
112,372,0,0,0,0,0,0,0,0,0,-1,1336,652,0,0
119,372,0,0,0,0,0,0,0,0,0,-1,1343,652,0,0
126,372,0,0,0,0,0,0,0,0,0,-1,1350,652,0,0
133,372,0,0,0,0,0,0,0,0,0,-1,1357,652,0,0
140,372,0,0,0,0,0,0,0,0,0,-1,1364,652,0,0
147,372,0,0,0,0,0,0,0,0,0,-1,1371,652,0,0
154,372,0,0,0,0,0,0,0,0,0,-1,1378,652,0,0
161,372,0,0,0,0,0,0,0,0,0,-1,1385,652,0,0
168,372,0,0,0,0,0,0,0,0,0,-1,1392,652,0,0
175,372,0,0,0,0,0,0,0,0,0,-1,1399,652,0,0
182,372,0,0,0,0,0,0,0,0,0,-1,1406,652,0,0
189,372,0,0,0,0,0,0,0,0,0,-1,1413,652,0,0
196,372,0,0,0,0,0,0,0,0,0,-1,1420,652,0,0
203,372,0,0,0,0,0,0,0,0,0,-1,1427,652,0,0
210,372,0,0,0,0,0,0,0,0,0,-1,1434,652,0,0
217,372,0,0,0,0,0,0,0,0,0,-1,1441,652,0,0
224,372,0,0,0,0,0,0,0,0,0,-1,1448,652,0,0
231,372,0,0,0,0,0,0,0,0,0,-1,1455,652,0,0
238,372,0,0,0,0,0,0,0,0,0,-1,1462,652,0,0
245,372,0,0,0,0,0,0,0,0,0,-1,1469,652,0,0
252,372,0,0,0,0,0,0,0,0,0,-1,1476,652,0,0
259,372,0,0,0,0,0,0,0,0,0,-1,1483,652,0,0
266,372,0,0,0,0,0,0,0,0,0,-1,1490,652,0,0
273,372,0,0,0,0,0,0,0,0,0,-1,1497,652,0,0
280,372,0,0,0,0,0,0,0,0,0,-1,1504,652,0,0
287,372,0,0,0,0,0,0,0,0,0,-1,1511,652,0,0
294,372,0,0,0,0,0,0,0,0,0,-1,1518,652,0,0
301,372,0,0,0,0,0,0,0,0,0,-1,1525,652,0,0
308,372,0,0,0,0,0,0,0,0,0,-1,1532,652,0,0
315,372,0,0,0,0,0,0,0,0,0,-1,1539,652,0,0
322,372,0,0,0,0,0,0,0,0,0,-1,1546,652,0,0
329,372,0,0,0,0,0,0,0,0,0,-1,1553,652,0,0
336,372,0,0,0,0,0,0,0,0,0,-1,1560,652,0,0
343,372,0,0,0,0,0,0,0,0,0,-1,1567,652,0,0
350,372,0,0,0,0,0,0,0,0,0,-1,1574,652,0,0
357,372,0,0,0,0,0,0,0,0,0,-1,1581,652,0,0
364,372,0,0,0,0,0,0,0,0,0,-1,1588,652,0,0
371,372,0,0,0,0,0,0,0,0,0,-1,1595,652,0,0
378,372,0,0,0,0,0,0,0,0,0,-1,1602,652,0,0
385,372,0,0,0,0,0,0,0,0,0,-1,1609,652,0,0
392,372,0,0,0,0,0,0,0,0,0,-1,1616,652,0,0
399,372,0,0,0,0,0,0,0,0,0,-1,1623,652,0,0
406,372,0,0,0,0,0,0,0,0,0,-1,1630,652,0,0
413,372,0,0,0,0,0,0,0,0,0,-1,1637,652,0,0
420,372,0,0,0,0,0,0,0,0,0,-1,1644,652,0,0
427,372,0,0,0,0,0,0,0,0,0,-1,1651,652,0,0
434,372,0,0,0,0,0,0,0,0,0,-1,1658,652,0,0
441,372,0,0,0,0,0,0,0,0,0,-1,1665,652,0,0
448,372,0,0,0,0,0,0,0,0,0,-1,1672,652,0,0
455,372,0,0,0,0,0,0,0,0,0,-1,1679,652,0,0
462,372,0,0,0,0,0,0,0,0,0,-1,1686,652,0,0
469,372,0,0,0,0,0,0,0,0,0,-1,1693,652,0,0
476,372,0,0,0,0,0,0,0,0,0,-1,1700,652,0,0
483,372,8.74182,1.53125,0,0,0,0,0,0,0,-1,1707,652,8.74186,-1.53126
490,372,9.78455,1.67096,0,0,0,0,0,0,0,-1,1714,652,9.7846,-1.67093
497,372,9.97644,1.46069,0,0,0,0,0,0,0,-1,1721,652,9.97647,-1.46071
504,372,10.1216,1.28375,0,0,0,0,0,0,0,-1,1728,652,10.1216,-1.28376
511,372,11.7367,-0.0272217,0,0,0,0,0,0,0,-1,1735,652,11.7367,0.0272326
518,372,12.0657,-0.0995483,0,0,0,0,0,0,0,-1,1742,652,12.0657,0.0995285
525,372,12.3947,-0.171814,0,0,0,0,0,0,0,-1,1749,652,12.3946,0.171824
532,372,9.36597,1.72034,0,0,0,0,0,0,0,-1,1756,652,9.36597,-1.72036
539,372,7.82886,-0.0865479,0,0,0,0,0,0,0,-1,1763,652,7.82882,0.0865771
546,372,10.953,-0.187195,0,0,0,0,0,0,0,-1,1770,652,10.953,0.187181
553,372,14.1201,-4.83234,0,0,0,0,0,0,0,-1,1777,652,14.1201,4.83235
560,372,73.8258,-45.9283,0,0,0,0,0,0,0,-1,1784,652,73.8258,45.9284
567,372,77.1294,-46.5966,0,0,0,0,0,0,0,-1,1791,652,77.1294,46.5965
574,372,86.9434,-49.3795,0,0,0,0,0,0,0,-1,1798,652,86.9433,49.3795
581,372,134.376,-41.5032,0,0,0,0,0,0,0,-1,1805,652,134.376,41.5032
588,372,133.399,-37.7845,0.000320631,0.0150556,-0.0183369,0.0274497,-0.0120735,-0.97642,0.0233873,0.0394013,1812,652,133.399,37.7845
595,372,132.424,-34.1369,0.00237631,0.0183419,-0.0230955,0.0347954,-0.0140771,-0.951792,0.0290494,0.0189606,1819,652,132.424,34.1369
602,372,131.531,-30.5003,0.00400015,0.0214938,-0.02761,0.0417093,-0.0162154,-0.938797,0.0345056,0.0315816,1826,652,131.531,30.5003
609,372,130.514,-27.1287,0.00581476,0.0248566,-0.0319603,0.048684,-0.0180127,-0.930162,0.0398415,0.0403389,1833,652,130.514,27.1287
616,372,129.691,-23.718,0.00752856,0.0280974,-0.0361431,0.0553908,-0.0197649,-0.924008,0.0449868,0.0388733,1840,652,129.691,23.718
623,372,128.936,-20.2286,0.00907232,0.0311435,-0.0401498,0.0617468,-0.0215309,-0.919517,0.0499142,0.0267358,1847,652,128.936,20.2286
630,372,128.158,-16.9361,0.0103939,0.0340147,-0.0439362,0.0677002,-0.0232916,-0.916698,0.0545799,0.0301837,1854,652,128.158,16.9361
637,372,127.55,-13.6602,0.0115832,0.03671,-0.0474935,0.0732737,-0.0249805,-0.914701,0.0589669,0.0487172,1861,652,127.55,13.6602
644,372,126.794,-10.3834,0,0,0,0,0,0,0,-1,1868,652,126.794,10.3834
651,372,21.3998,-0.888,0,0,0,0,0,0,0,-1,1875,652,21.3998,0.887992
658,372,14.157,0.280273,0,0,0,0,0,0,0,-1,1882,652,14.157,-0.280264
665,372,15.2286,0.463867,0,0,0,0,0,0,0,-1,1889,652,15.2287,-0.463854
672,372,9.34106,1.48444,0,0,0,0,0,0,0,-1,1896,652,9.34109,-1.48444
679,372,10.7308,2.32391,0,0,0,0,0,0,0,-1,1903,652,10.7309,-2.3239
686,372,11.6295,2.52997,0,0,0,0,0,0,0,-1,1910,652,11.6296,-2.52996
693,372,0,0,0,0,0,0,0,0,0,-1,1917,652,0,0
700,372,0,0,0,0,0,0,0,0,0,-1,1924,652,0,0
707,372,0,0,0,0,0,0,0,0,0,-1,1931,652,0,0
714,372,0,0,0,0,0,0,0,0,0,-1,1938,652,0,0
721,372,0,0,0,0,0,0,0,0,0,-1,1945,652,0,0
728,372,0,0,0,0,0,0,0,0,0,-1,1952,652,0,0
735,372,0,0,0,0,0,0,0,0,0,-1,1959,652,0,0
742,372,0,0,0,0,0,0,0,0,0,-1,1966,652,0,0
749,372,0,0,0,0,0,0,0,0,0,-1,1973,652,0,0
756,372,0,0,0,0,0,0,0,0,0,-1,1980,652,0,0
763,372,0,0,0,0,0,0,0,0,0,-1,1987,652,0,0
770,372,0,0,0,0,0,0,0,0,0,-1,1994,652,0,0
777,372,0,0,0,0,0,0,0,0,0,-1,2001,652,0,0
784,372,0,0,0,0,0,0,0,0,0,-1,2008,652,0,0
791,372,0,0,0,0,0,0,0,0,0,-1,2015,652,0,0
798,372,0,0,0,0,0,0,0,0,0,-1,2022,652,0,0
805,372,0,0,0,0,0,0,0,0,0,-1,2029,652,0,0
812,372,0,0,0,0,0,0,0,0,0,-1,2036,652,0,0
-700,365,0,0,0,0,0,0,0,0,0,-1,524,659,0,0
-693,365,0,0,0,0,0,0,0,0,0,-1,531,659,0,0
-686,365,0,0,0,0,0,0,0,0,0,-1,538,659,0,0
-679,365,0,0,0,0,0,0,0,0,0,-1,545,659,0,0
-672,365,0,0,0,0,0,0,0,0,0,-1,552,659,0,0
-665,365,0,0,0,0,0,0,0,0,0,-1,559,659,0,0
-658,365,0,0,0,0,0,0,0,0,0,-1,566,659,0,0
-651,365,0,0,0,0,0,0,0,0,0,-1,573,659,0,0
-644,365,0,0,0,0,0,0,0,0,0,-1,580,659,0,0
-637,365,0,0,0,0,0,0,0,0,0,-1,587,659,0,0
-630,365,0,0,0,0,0,0,0,0,0,-1,594,659,0,0
-623,365,0,0,0,0,0,0,0,0,0,-1,601,659,0,0
-616,365,0,0,0,0,0,0,0,0,0,-1,608,659,0,0
-609,365,0,0,0,0,0,0,0,0,0,-1,615,659,0,0
-602,365,0,0,0,0,0,0,0,0,0,-1,622,659,0,0
-595,365,0,0,0,0,0,0,0,0,0,-1,629,659,0,0
-588,365,0,0,0,0,0,0,0,0,0,-1,636,659,0,0
-581,365,0,0,0,0,0,0,0,0,0,-1,643,659,0,0
-574,365,-7.69281,1.59015,0,0,0,0,0,0,0,-1,650,659,-7.69282,-1.59018
-567,365,-8.2583,1.72638,0,0,0,0,0,0,0,-1,657,659,-8.25827,-1.72637
-560,365,-7.17767,0.275757,0,0,0,0,0,0,0,-1,664,659,-7.17768,-0.27577
-553,365,-10.0349,-0.169617,0,0,0,0,0,0,0,-1,671,659,-10.0349,0.169593
-546,365,-10.6303,-1.51642,0,0,0,0,0,0,0,-1,678,659,-10.6303,1.5164
-539,365,-8.38599,1.52936,0,0,0,0,0,0,0,-1,685,659,-8.38598,-1.52935
-532,365,-8.52863,0.166504,0,0,0,0,0,0,0,-1,692,659,-8.52863,-0.166501
-525,365,-9.28229,-2.62726,0,0,0,0,0,0,0,-1,699,659,-9.28227,2.62724
-518,365,-51.3718,-12.6115,0,0,0,0,0,0,0,-1,706,659,-51.3718,12.6115
-511,365,-120.58,-9.96381,0,0,0,0,0,0,0,-1,713,659,-120.58,9.96379
-504,365,-121.346,-13.3798,0.0192699,0.0392695,0.0407725,0.0712505,-0.0127111,0.905654,0.0522553,0.0224829,720,659,-121.346,13.3798
-497,365,-122.158,-16.8517,0.0163649,0.036569,0.038955,0.0667105,-0.0137765,0.912267,0.0497063,0.0194036,727,659,-122.158,16.8517
-490,365,-123.011,-20.2717,0.0133834,0.0341491,0.0371922,0.0623805,-0.014848,0.921517,0.0473194,0.0213994,734,659,-123.011,20.2717
-483,365,-123.831,-23.6013,0.0102792,0.0318472,0.0355195,0.0581837,-0.0160573,0.93278,0.0451046,0.0182015,741,659,-123.831,23.6013
-476,365,-124.499,-27.1137,0.00721375,0.0297259,0.0338474,0.0541398,-0.0172001,0.945923,0.0429892,0.0205608,748,659,-124.499,27.1137
-469,365,-125.389,-30.5276,0.0042635,0.0276831,0.0321785,0.0502161,-0.0182695,0.959901,0.0409491,0.0206092,755,659,-125.389,30.5277
-462,365,-126.311,-33.8448,0.00156334,0.0256537,0.0304133,0.0463202,-0.0191032,0.973946,0.0388464,0.022906,762,659,-126.311,33.8448
-455,365,-127.309,-37.2628,0,0,0,0,0,0,0,-1,769,659,-127.309,37.2628
-448,365,-128.891,-41.4264,0,0,0,0,0,0,0,-1,776,659,-128.891,41.4264
-441,365,-105.474,-47.8329,0,0,0,0,0,0,0,-1,783,659,-105.474,47.833
-434,365,-5.45056,-3.98041,0,0,0,0,0,0,0,-1,790,659,-5.45055,3.98042
-427,365,-5.05377,-4.74689,0,0,0,0,0,0,0,-1,797,659,-5.05376,4.7469
-420,365,-4.58813,-3.16376,0,0,0,0,0,0,0,-1,804,659,-4.58816,3.16374
-413,365,0.141357,0.672729,0,0,0,0,0,0,0,-1,811,659,0.141365,-0.672714
-406,365,-1.75067,-0.934448,0,0,0,0,0,0,0,-1,818,659,-1.7507,0.934424
-399,365,-4.10242,-1.25439,0,0,0,0,0,0,0,-1,825,659,-4.10244,1.25438
-392,365,-7.46545,-0.779724,0,0,0,0,0,0,0,-1,832,659,-7.46543,0.779744
-385,365,-6.27875,-0.887573,0,0,0,0,0,0,0,-1,839,659,-6.27874,0.887545
-378,365,-5.34503,-0.263306,0,0,0,0,0,0,0,-1,846,659,-5.34504,0.263275
-371,365,0,0,0,0,0,0,0,0,0,-1,853,659,0,0
-364,365,0,0,0,0,0,0,0,0,0,-1,860,659,0,0
-357,365,0,0,0,0,0,0,0,0,0,-1,867,659,0,0
-350,365,0,0,0,0,0,0,0,0,0,-1,874,659,0,0
-343,365,0,0,0,0,0,0,0,0,0,-1,881,659,0,0
-336,365,0,0,0,0,0,0,0,0,0,-1,888,659,0,0
-329,365,0,0,0,0,0,0,0,0,0,-1,895,659,0,0
-322,365,0,0,0,0,0,0,0,0,0,-1,902,659,0,0
-315,365,0,0,0,0,0,0,0,0,0,-1,909,659,0,0
-308,365,0,0,0,0,0,0,0,0,0,-1,916,659,0,0
-301,365,0,0,0,0,0,0,0,0,0,-1,923,659,0,0
-294,365,0,0,0,0,0,0,0,0,0,-1,930,659,0,0
-287,365,0,0,0,0,0,0,0,0,0,-1,937,659,0,0
-280,365,0,0,0,0,0,0,0,0,0,-1,944,659,0,0
-273,365,0,0,0,0,0,0,0,0,0,-1,951,659,0,0
-266,365,0,0,0,0,0,0,0,0,0,-1,958,659,0,0
-259,365,0,0,0,0,0,0,0,0,0,-1,965,659,0,0
-252,365,0,0,0,0,0,0,0,0,0,-1,972,659,0,0
-245,365,0,0,0,0,0,0,0,0,0,-1,979,659,0,0
-238,365,0,0,0,0,0,0,0,0,0,-1,986,659,0,0
-231,365,0,0,0,0,0,0,0,0,0,-1,993,659,0,0
-224,365,0,0,0,0,0,0,0,0,0,-1,1000,659,0,0
-217,365,0,0,0,0,0,0,0,0,0,-1,1007,659,0,0
-210,365,0,0,0,0,0,0,0,0,0,-1,1014,659,0,0
-203,365,0,0,0,0,0,0,0,0,0,-1,1021,659,0,0
-196,365,0,0,0,0,0,0,0,0,0,-1,1028,659,0,0
-189,365,0,0,0,0,0,0,0,0,0,-1,1035,659,0,0
-182,365,0,0,0,0,0,0,0,0,0,-1,1042,659,0,0
-175,365,0,0,0,0,0,0,0,0,0,-1,1049,659,0,0
-168,365,0,0,0,0,0,0,0,0,0,-1,1056,659,0,0
-161,365,0,0,0,0,0,0,0,0,0,-1,1063,659,0,0
-154,365,0,0,0,0,0,0,0,0,0,-1,1070,659,0,0
-147,365,0,0,0,0,0,0,0,0,0,-1,1077,659,0,0
-140,365,0,0,0,0,0,0,0,0,0,-1,1084,659,0,0
-133,365,0,0,0,0,0,0,0,0,0,-1,1091,659,0,0
-126,365,0,0,0,0,0,0,0,0,0,-1,1098,659,0,0
-119,365,0,0,0,0,0,0,0,0,0,-1,1105,659,0,0
-112,365,0,0,0,0,0,0,0,0,0,-1,1112,659,0,0
-105,365,0,0,0,0,0,0,0,0,0,-1,1119,659,0,0
-98,365,0,0,0,0,0,0,0,0,0,-1,1126,659,0,0
-91,365,0,0,0,0,0,0,0,0,0,-1,1133,659,0,0
-84,365,0,0,0,0,0,0,0,0,0,-1,1140,659,0,0
-77,365,0,0,0,0,0,0,0,0,0,-1,1147,659,0,0
-70,365,0,0,0,0,0,0,0,0,0,-1,1154,659,0,0
-63,365,0,0,0,0,0,0,0,0,0,-1,1161,659,0,0
-56,365,0,0,0,0,0,0,0,0,0,-1,1168,659,0,0
-49,365,0,0,0,0,0,0,0,0,0,-1,1175,659,0,0
-42,365,0,0,0,0,0,0,0,0,0,-1,1182,659,0,0
-35,365,0,0,0,0,0,0,0,0,0,-1,1189,659,0,0
-28,365,0,0,0,0,0,0,0,0,0,-1,1196,659,0,0
-21,365,0,0,0,0,0,0,0,0,0,-1,1203,659,0,0
-14,365,0,0,0,0,0,0,0,0,0,-1,1210,659,0,0
-7,365,0,0,0,0,0,0,0,0,0,-1,1217,659,0,0
0,365,0,0,0,0,0,0,0,0,0,-1,1224,659,0,0
7,365,0,0,0,0,0,0,0,0,0,-1,1231,659,0,0
14,365,0,0,0,0,0,0,0,0,0,-1,1238,659,0,0
21,365,0,0,0,0,0,0,0,0,0,-1,1245,659,0,0
28,365,0,0,0,0,0,0,0,0,0,-1,1252,659,0,0
35,365,0,0,0,0,0,0,0,0,0,-1,1259,659,0,0
42,365,0,0,0,0,0,0,0,0,0,-1,1266,659,0,0
49,365,0,0,0,0,0,0,0,0,0,-1,1273,659,0,0
56,365,0,0,0,0,0,0,0,0,0,-1,1280,659,0,0
63,365,0,0,0,0,0,0,0,0,0,-1,1287,659,0,0
70,365,0,0,0,0,0,0,0,0,0,-1,1294,659,0,0
77,365,0,0,0,0,0,0,0,0,0,-1,1301,659,0,0
84,365,0,0,0,0,0,0,0,0,0,-1,1308,659,0,0
91,365,0,0,0,0,0,0,0,0,0,-1,1315,659,0,0
98,365,0,0,0,0,0,0,0,0,0,-1,1322,659,0,0
105,365,0,0,0,0,0,0,0,0,0,-1,1329,659,0,0
112,365,0,0,0,0,0,0,0,0,0,-1,1336,659,0,0
119,365,0,0,0,0,0,0,0,0,0,-1,1343,659,0,0
126,365,0,0,0,0,0,0,0,0,0,-1,1350,659,0,0
133,365,0,0,0,0,0,0,0,0,0,-1,1357,659,0,0
140,365,0,0,0,0,0,0,0,0,0,-1,1364,659,0,0
147,365,0,0,0,0,0,0,0,0,0,-1,1371,659,0,0
154,365,0,0,0,0,0,0,0,0,0,-1,1378,659,0,0
161,365,0,0,0,0,0,0,0,0,0,-1,1385,659,0,0
168,365,0,0,0,0,0,0,0,0,0,-1,1392,659,0,0
175,365,0,0,0,0,0,0,0,0,0,-1,1399,659,0,0
182,365,0,0,0,0,0,0,0,0,0,-1,1406,659,0,0
189,365,0,0,0,0,0,0,0,0,0,-1,1413,659,0,0
196,365,0,0,0,0,0,0,0,0,0,-1,1420,659,0,0
203,365,0,0,0,0,0,0,0,0,0,-1,1427,659,0,0
210,365,0,0,0,0,0,0,0,0,0,-1,1434,659,0,0
217,365,0,0,0,0,0,0,0,0,0,-1,1441,659,0,0
224,365,0,0,0,0,0,0,0,0,0,-1,1448,659,0,0
231,365,0,0,0,0,0,0,0,0,0,-1,1455,659,0,0
238,365,0,0,0,0,0,0,0,0,0,-1,1462,659,0,0
245,365,0,0,0,0,0,0,0,0,0,-1,1469,659,0,0
252,365,0,0,0,0,0,0,0,0,0,-1,1476,659,0,0
259,365,0,0,0,0,0,0,0,0,0,-1,1483,659,0,0
266,365,0,0,0,0,0,0,0,0,0,-1,1490,659,0,0
273,365,0,0,0,0,0,0,0,0,0,-1,1497,659,0,0
280,365,0,0,0,0,0,0,0,0,0,-1,1504,659,0,0
287,365,0,0,0,0,0,0,0,0,0,-1,1511,659,0,0
294,365,0,0,0,0,0,0,0,0,0,-1,1518,659,0,0
301,365,0,0,0,0,0,0,0,0,0,-1,1525,659,0,0
308,365,0,0,0,0,0,0,0,0,0,-1,1532,659,0,0
315,365,0,0,0,0,0,0,0,0,0,-1,1539,659,0,0
322,365,0,0,0,0,0,0,0,0,0,-1,1546,659,0,0
329,365,0,0,0,0,0,0,0,0,0,-1,1553,659,0,0
336,365,0,0,0,0,0,0,0,0,0,-1,1560,659,0,0
343,365,0,0,0,0,0,0,0,0,0,-1,1567,659,0,0
350,365,0,0,0,0,0,0,0,0,0,-1,1574,659,0,0
357,365,0,0,0,0,0,0,0,0,0,-1,1581,659,0,0
364,365,0,0,0,0,0,0,0,0,0,-1,1588,659,0,0
371,365,0,0,0,0,0,0,0,0,0,-1,1595,659,0,0
378,365,0,0,0,0,0,0,0,0,0,-1,1602,659,0,0
385,365,0,0,0,0,0,0,0,0,0,-1,1609,659,0,0
392,365,0,0,0,0,0,0,0,0,0,-1,1616,659,0,0
399,365,0,0,0,0,0,0,0,0,0,-1,1623,659,0,0
406,365,0,0,0,0,0,0,0,0,0,-1,1630,659,0,0
413,365,0,0,0,0,0,0,0,0,0,-1,1637,659,0,0
420,365,0,0,0,0,0,0,0,0,0,-1,1644,659,0,0
427,365,0,0,0,0,0,0,0,0,0,-1,1651,659,0,0
434,365,0,0,0,0,0,0,0,0,0,-1,1658,659,0,0
441,365,0,0,0,0,0,0,0,0,0,-1,1665,659,0,0
448,365,0,0,0,0,0,0,0,0,0,-1,1672,659,0,0
455,365,0,0,0,0,0,0,0,0,0,-1,1679,659,0,0
462,365,0,0,0,0,0,0,0,0,0,-1,1686,659,0,0
469,365,0,0,0,0,0,0,0,0,0,-1,1693,659,0,0
476,365,0,0,0,0,0,0,0,0,0,-1,1700,659,0,0
483,365,0,0,0,0,0,0,0,0,0,-1,1707,659,0,0
490,365,8.39551,0.471252,0,0,0,0,0,0,0,-1,1714,659,8.39551,-0.471241
497,365,9.89233,1.35394,0,0,0,0,0,0,0,-1,1721,659,9.89237,-1.35396
504,365,10.1414,1.18005,0,0,0,0,0,0,0,-1,1728,659,10.1413,-1.18004
511,365,10.5151,0.993896,0,0,0,0,0,0,0,-1,1735,659,10.5152,-0.993894
518,365,11.2029,0.398132,0,0,0,0,0,0,0,-1,1742,659,11.2029,-0.398136
525,365,15.5748,3.85303,0,0,0,0,0,0,0,-1,1749,659,15.5748,-3.85303
532,365,11.2446,1.00629,0,0,0,0,0,0,0,-1,1756,659,11.2446,-1.00631
539,365,12.6301,1.03204,0,0,0,0,0,0,0,-1,1763,659,12.6302,-1.03204
546,365,11.647,0.84198,0,0,0,0,0,0,0,-1,1770,659,11.6469,-0.841955
553,365,12.028,-0.558899,0,0,0,0,0,0,0,-1,1777,659,12.028,0.558873
560,365,14.5372,-4.55548,0,0,0,0,0,0,0,-1,1784,659,14.5373,4.55547
567,365,76.046,-42.9528,0,0,0,0,0,0,0,-1,1791,659,76.0461,42.9528
574,365,79.3885,-42.8714,0,0,0,0,0,0,0,-1,1798,659,79.3886,42.8714
581,365,132.355,-40.6136,0,0,0,0,0,0,0,-1,1805,659,132.355,40.6136
588,365,137.353,-36.7687,0,0,0,0,0,0,0,-1,1812,659,137.353,36.7688
595,365,136.462,-33.0914,-0.000449141,0.0167697,-0.0181091,0.0282118,-0.0118912,-1.00729,0.023784,0.0280789,1819,659,136.462,33.0914
602,365,135.419,-29.4608,0.00131323,0.0202093,-0.0228971,0.0355311,-0.0140086,-0.981071,0.0294877,0.0339708,1826,659,135.419,29.4608
609,365,134.604,-25.8636,0.0031875,0.0235703,-0.0273877,0.0426014,-0.0158435,-0.963519,0.0349021,0.046671,1833,659,134.603,25.8636
616,365,133.788,-22.4797,0.00487489,0.0266715,-0.0316759,0.0492715,-0.0177251,-0.951083,0.0400844,0.0497083,1840,659,133.788,22.4797
623,365,132.863,-19.3331,0.00636154,0.0295213,-0.0357493,0.0555194,-0.0196366,-0.942025,0.0450097,0.0200422,1847,659,132.863,19.333
630,365,132.132,-15.9554,0.00762753,0.0321597,-0.0396124,0.0613617,-0.0215744,-0.935543,0.0496859,0.0219724,1854,659,132.132,15.9554
637,365,131.439,-12.7498,0.00875167,0.0346158,-0.0432733,0.0668481,-0.0234806,-0.930597,0.0541178,0.0304987,1861,659,131.439,12.7498
644,365,130.666,-9.5708,0.00975171,0.0367176,-0.0465873,0.0717338,-0.0252645,-0.926256,0.0581047,0.0371952,1868,659,130.666,9.57081
651,365,129.934,-6.26355,0,0,0,0,0,0,0,-1,1875,659,129.934,6.26354
658,365,24.745,-2.13275,0,0,0,0,0,0,0,-1,1882,659,24.745,2.13277
665,365,14.0961,0.769043,0,0,0,0,0,0,0,-1,1889,659,14.0961,-0.769063
672,365,10.0579,2.15088,0,0,0,0,0,0,0,-1,1896,659,10.0579,-2.15088
679,365,10.9718,2.19208,0,0,0,0,0,0,0,-1,1903,659,10.9718,-2.19211
686,365,12.2134,2.17108,0,0,0,0,0,0,0,-1,1910,659,12.2134,-2.17109
693,365,13.7141,1.98279,0,0,0,0,0,0,0,-1,1917,659,13.7141,-1.98278
700,365,0,0,0,0,0,0,0,0,0,-1,1924,659,0,0
707,365,0,0,0,0,0,0,0,0,0,-1,1931,659,0,0
714,365,0,0,0,0,0,0,0,0,0,-1,1938,659,0,0
721,365,0,0,0,0,0,0,0,0,0,-1,1945,659,0,0
728,365,0,0,0,0,0,0,0,0,0,-1,1952,659,0,0
735,365,0,0,0,0,0,0,0,0,0,-1,1959,659,0,0
742,365,0,0,0,0,0,0,0,0,0,-1,1966,659,0,0
749,365,0,0,0,0,0,0,0,0,0,-1,1973,659,0,0
756,365,0,0,0,0,0,0,0,0,0,-1,1980,659,0,0
763,365,0,0,0,0,0,0,0,0,0,-1,1987,659,0,0
770,365,0,0,0,0,0,0,0,0,0,-1,1994,659,0,0
777,365,0,0,0,0,0,0,0,0,0,-1,2001,659,0,0
784,365,0,0,0,0,0,0,0,0,0,-1,2008,659,0,0
791,365,0,0,0,0,0,0,0,0,0,-1,2015,659,0,0
798,365,0,0,0,0,0,0,0,0,0,-1,2022,659,0,0
805,365,0,0,0,0,0,0,0,0,0,-1,2029,659,0,0
812,365,0,0,0,0,0,0,0,0,0,-1,2036,659,0,0
-700,358,0,0,0,0,0,0,0,0,0,-1,524,666,0,0
-693,358,0,0,0,0,0,0,0,0,0,-1,531,666,0,0
-686,358,0,0,0,0,0,0,0,0,0,-1,538,666,0,0
-679,358,0,0,0,0,0,0,0,0,0,-1,545,666,0,0
-672,358,0,0,0,0,0,0,0,0,0,-1,552,666,0,0
-665,358,0,0,0,0,0,0,0,0,0,-1,559,666,0,0
-658,358,0,0,0,0,0,0,0,0,0,-1,566,666,0,0
-651,358,0,0,0,0,0,0,0,0,0,-1,573,666,0,0
-644,358,0,0,0,0,0,0,0,0,0,-1,580,666,0,0
-637,358,0,0,0,0,0,0,0,0,0,-1,587,666,0,0
-630,358,0,0,0,0,0,0,0,0,0,-1,594,666,0,0
-623,358,0,0,0,0,0,0,0,0,0,-1,601,666,0,0
-616,358,0,0,0,0,0,0,0,0,0,-1,608,666,0,0
-609,358,0,0,0,0,0,0,0,0,0,-1,615,666,0,0
-602,358,0,0,0,0,0,0,0,0,0,-1,622,666,0,0
-595,358,0,0,0,0,0,0,0,0,0,-1,629,666,0,0
-588,358,0,0,0,0,0,0,0,0,0,-1,636,666,0,0
-581,358,-8.31616,1.61993,0,0,0,0,0,0,0,-1,643,666,-8.31614,-1.61993
-574,358,-8.22406,1.75385,0,0,0,0,0,0,0,-1,650,666,-8.22408,-1.75383
-567,358,-8.14215,1.91577,0,0,0,0,0,0,0,-1,657,666,-8.14214,-1.91579
-560,358,-10.6086,2.18872,0,0,0,0,0,0,0,-1,664,666,-10.6086,-2.18873
-553,358,-13.4767,1.09552,0,0,0,0,0,0,0,-1,671,666,-13.4767,-1.09551
-546,358,-13.3743,-0.185059,0,0,0,0,0,0,0,-1,678,666,-13.3743,0.185037
-539,358,-9.43884,-2.04785,0,0,0,0,0,0,0,-1,685,666,-9.43884,2.04785
-532,358,-12.4141,-2.36572,0,0,0,0,0,0,0,-1,692,666,-12.4141,2.3657
-525,358,-12.731,-3.88031,0,0,0,0,0,0,0,-1,699,666,-12.731,3.88029
-518,358,-124.171,-6.13531,0,0,0,0,0,0,0,-1,706,666,-124.171,6.13531
-511,358,-124.685,-9.36304,0.0184775,0.0394008,0.0403956,0.0706674,-0.0127892,0.912104,0.0519026,0.0293385,713,666,-124.685,9.36301
-504,358,-125.246,-12.5949,0.0159788,0.036854,0.0383062,0.0661191,-0.0132863,0.918408,0.0491109,0.017011,720,666,-125.246,12.5949
-497,358,-126.003,-15.9362,0.0131425,0.034594,0.0362778,0.0616984,-0.0139619,0.929131,0.0464904,0.016927,727,666,-126.003,15.9362
-490,358,-126.798,-19.3176,0.0101187,0.0326332,0.0342604,0.0574384,-0.0146865,0.94413,0.0440123,0.0160838,734,666,-126.798,19.3176
-483,358,-127.578,-22.6253,0.00688182,0.0309033,0.0323221,0.0533741,-0.015589,0.96329,0.0417605,0.0136859,741,666,-127.578,22.6253
-476,358,-128.412,-26.0485,0.00358845,0.0294144,0.030393,0.0495238,-0.016521,0.986277,0.0396861,0.0183653,748,666,-128.412,26.0485
-469,358,-129.376,-29.4202,0.000315925,0.0280329,0.0284852,0.0458519,-0.0175031,1.0118,0.0377789,0.0244894,755,666,-129.376,29.4201
-462,358,-130.197,-32.4909,-0.00284839,0.0266403,0.0264932,0.0422157,-0.0184238,1.03932,0.0358972,0.0410039,762,666,-130.197,32.4909
-455,358,-130.941,-35.6837,0,0,0,0,0,0,0,-1,769,666,-130.941,35.6837
-448,358,-108.503,-42.5771,0,0,0,0,0,0,0,-1,776,666,-108.503,42.5771
-441,358,-5.56293,-3.98041,0,0,0,0,0,0,0,-1,783,666,-5.56291,3.98043
-434,358,-5.21558,-4.43127,0,0,0,0,0,0,0,-1,790,666,-5.21559,4.43125
-427,358,-3.56189,-3.15729,0,0,0,0,0,0,0,-1,797,666,-3.56192,3.15729
-420,358,0.200195,1.08234,0,0,0,0,0,0,0,-1,804,666,0.200174,-1.08231
-413,358,0.0325317,0.161072,0,0,0,0,0,0,0,-1,811,666,0.0325501,-0.161098
-406,358,-3.85846,0.753113,0,0,0,0,0,0,0,-1,818,666,-3.85846,-0.753129
-399,358,-1.31213,0.190735,0,0,0,0,0,0,0,-1,825,666,-1.31215,-0.190763
-392,358,-3.73914,-0.832214,0,0,0,0,0,0,0,-1,832,666,-3.73915,0.832202
-385,358,-5.95178,-1.69141,0,0,0,0,0,0,0,-1,839,666,-5.9518,1.69143
-378,358,0,0,0,0,0,0,0,0,0,-1,846,666,0,0
-371,358,0,0,0,0,0,0,0,0,0,-1,853,666,0,0
-364,358,0,0,0,0,0,0,0,0,0,-1,860,666,0,0
-357,358,0,0,0,0,0,0,0,0,0,-1,867,666,0,0
-350,358,0,0,0,0,0,0,0,0,0,-1,874,666,0,0
-343,358,0,0,0,0,0,0,0,0,0,-1,881,666,0,0
-336,358,0,0,0,0,0,0,0,0,0,-1,888,666,0,0
-329,358,0,0,0,0,0,0,0,0,0,-1,895,666,0,0
-322,358,0,0,0,0,0,0,0,0,0,-1,902,666,0,0
-315,358,0,0,0,0,0,0,0,0,0,-1,909,666,0,0
-308,358,0,0,0,0,0,0,0,0,0,-1,916,666,0,0
-301,358,0,0,0,0,0,0,0,0,0,-1,923,666,0,0
-294,358,0,0,0,0,0,0,0,0,0,-1,930,666,0,0
-287,358,0,0,0,0,0,0,0,0,0,-1,937,666,0,0
-280,358,0,0,0,0,0,0,0,0,0,-1,944,666,0,0
-273,358,0,0,0,0,0,0,0,0,0,-1,951,666,0,0
-266,358,0,0,0,0,0,0,0,0,0,-1,958,666,0,0
-259,358,0,0,0,0,0,0,0,0,0,-1,965,666,0,0
-252,358,0,0,0,0,0,0,0,0,0,-1,972,666,0,0
-245,358,0,0,0,0,0,0,0,0,0,-1,979,666,0,0
-238,358,0,0,0,0,0,0,0,0,0,-1,986,666,0,0
-231,358,0,0,0,0,0,0,0,0,0,-1,993,666,0,0
-224,358,0,0,0,0,0,0,0,0,0,-1,1000,666,0,0
-217,358,0,0,0,0,0,0,0,0,0,-1,1007,666,0,0
-210,358,0,0,0,0,0,0,0,0,0,-1,1014,666,0,0
-203,358,0,0,0,0,0,0,0,0,0,-1,1021,666,0,0
-196,358,0,0,0,0,0,0,0,0,0,-1,1028,666,0,0
-189,358,0,0,0,0,0,0,0,0,0,-1,1035,666,0,0
-182,358,0,0,0,0,0,0,0,0,0,-1,1042,666,0,0
-175,358,0,0,0,0,0,0,0,0,0,-1,1049,666,0,0
-168,358,0,0,0,0,0,0,0,0,0,-1,1056,666,0,0
-161,358,0,0,0,0,0,0,0,0,0,-1,1063,666,0,0
-154,358,0,0,0,0,0,0,0,0,0,-1,1070,666,0,0
-147,358,0,0,0,0,0,0,0,0,0,-1,1077,666,0,0
-140,358,0,0,0,0,0,0,0,0,0,-1,1084,666,0,0
-133,358,0,0,0,0,0,0,0,0,0,-1,1091,666,0,0
-126,358,0,0,0,0,0,0,0,0,0,-1,1098,666,0,0
-119,358,0,0,0,0,0,0,0,0,0,-1,1105,666,0,0
-112,358,0,0,0,0,0,0,0,0,0,-1,1112,666,0,0
-105,358,0,0,0,0,0,0,0,0,0,-1,1119,666,0,0
-98,358,0,0,0,0,0,0,0,0,0,-1,1126,666,0,0
-91,358,0,0,0,0,0,0,0,0,0,-1,1133,666,0,0
-84,358,0,0,0,0,0,0,0,0,0,-1,1140,666,0,0
-77,358,0,0,0,0,0,0,0,0,0,-1,1147,666,0,0
-70,358,0,0,0,0,0,0,0,0,0,-1,1154,666,0,0
-63,358,0,0,0,0,0,0,0,0,0,-1,1161,666,0,0
-56,358,0,0,0,0,0,0,0,0,0,-1,1168,666,0,0
-49,358,0,0,0,0,0,0,0,0,0,-1,1175,666,0,0
-42,358,0,0,0,0,0,0,0,0,0,-1,1182,666,0,0
-35,358,0,0,0,0,0,0,0,0,0,-1,1189,666,0,0
-28,358,0,0,0,0,0,0,0,0,0,-1,1196,666,0,0
-21,358,0,0,0,0,0,0,0,0,0,-1,1203,666,0,0
-14,358,0,0,0,0,0,0,0,0,0,-1,1210,666,0,0
-7,358,0,0,0,0,0,0,0,0,0,-1,1217,666,0,0
0,358,0,0,0,0,0,0,0,0,0,-1,1224,666,0,0
7,358,0,0,0,0,0,0,0,0,0,-1,1231,666,0,0
14,358,0,0,0,0,0,0,0,0,0,-1,1238,666,0,0
21,358,0,0,0,0,0,0,0,0,0,-1,1245,666,0,0
28,358,0,0,0,0,0,0,0,0,0,-1,1252,666,0,0
35,358,0,0,0,0,0,0,0,0,0,-1,1259,666,0,0
42,358,0,0,0,0,0,0,0,0,0,-1,1266,666,0,0
49,358,0,0,0,0,0,0,0,0,0,-1,1273,666,0,0
56,358,0,0,0,0,0,0,0,0,0,-1,1280,666,0,0
63,358,0,0,0,0,0,0,0,0,0,-1,1287,666,0,0
70,358,0,0,0,0,0,0,0,0,0,-1,1294,666,0,0
77,358,0,0,0,0,0,0,0,0,0,-1,1301,666,0,0
84,358,0,0,0,0,0,0,0,0,0,-1,1308,666,0,0
91,358,0,0,0,0,0,0,0,0,0,-1,1315,666,0,0
98,358,0,0,0,0,0,0,0,0,0,-1,1322,666,0,0
105,358,0,0,0,0,0,0,0,0,0,-1,1329,666,0,0
112,358,0,0,0,0,0,0,0,0,0,-1,1336,666,0,0
119,358,0,0,0,0,0,0,0,0,0,-1,1343,666,0,0
126,358,0,0,0,0,0,0,0,0,0,-1,1350,666,0,0
133,358,0,0,0,0,0,0,0,0,0,-1,1357,666,0,0
140,358,0,0,0,0,0,0,0,0,0,-1,1364,666,0,0
147,358,0,0,0,0,0,0,0,0,0,-1,1371,666,0,0
154,358,0,0,0,0,0,0,0,0,0,-1,1378,666,0,0
161,358,0,0,0,0,0,0,0,0,0,-1,1385,666,0,0
168,358,0,0,0,0,0,0,0,0,0,-1,1392,666,0,0
175,358,0,0,0,0,0,0,0,0,0,-1,1399,666,0,0
182,358,0,0,0,0,0,0,0,0,0,-1,1406,666,0,0
189,358,0,0,0,0,0,0,0,0,0,-1,1413,666,0,0
196,358,0,0,0,0,0,0,0,0,0,-1,1420,666,0,0
203,358,0,0,0,0,0,0,0,0,0,-1,1427,666,0,0
210,358,0,0,0,0,0,0,0,0,0,-1,1434,666,0,0
217,358,0,0,0,0,0,0,0,0,0,-1,1441,666,0,0
224,358,0,0,0,0,0,0,0,0,0,-1,1448,666,0,0
231,358,0,0,0,0,0,0,0,0,0,-1,1455,666,0,0
238,358,0,0,0,0,0,0,0,0,0,-1,1462,666,0,0
245,358,0,0,0,0,0,0,0,0,0,-1,1469,666,0,0
252,358,0,0,0,0,0,0,0,0,0,-1,1476,666,0,0
259,358,0,0,0,0,0,0,0,0,0,-1,1483,666,0,0
266,358,0,0,0,0,0,0,0,0,0,-1,1490,666,0,0
273,358,0,0,0,0,0,0,0,0,0,-1,1497,666,0,0
280,358,0,0,0,0,0,0,0,0,0,-1,1504,666,0,0
287,358,0,0,0,0,0,0,0,0,0,-1,1511,666,0,0
294,358,0,0,0,0,0,0,0,0,0,-1,1518,666,0,0
301,358,0,0,0,0,0,0,0,0,0,-1,1525,666,0,0
308,358,0,0,0,0,0,0,0,0,0,-1,1532,666,0,0
315,358,0,0,0,0,0,0,0,0,0,-1,1539,666,0,0
322,358,0,0,0,0,0,0,0,0,0,-1,1546,666,0,0
329,358,0,0,0,0,0,0,0,0,0,-1,1553,666,0,0
336,358,0,0,0,0,0,0,0,0,0,-1,1560,666,0,0
343,358,0,0,0,0,0,0,0,0,0,-1,1567,666,0,0
350,358,0,0,0,0,0,0,0,0,0,-1,1574,666,0,0
357,358,0,0,0,0,0,0,0,0,0,-1,1581,666,0,0
364,358,0,0,0,0,0,0,0,0,0,-1,1588,666,0,0
371,358,0,0,0,0,0,0,0,0,0,-1,1595,666,0,0
378,358,0,0,0,0,0,0,0,0,0,-1,1602,666,0,0
385,358,0,0,0,0,0,0,0,0,0,-1,1609,666,0,0
392,358,0,0,0,0,0,0,0,0,0,-1,1616,666,0,0
399,358,0,0,0,0,0,0,0,0,0,-1,1623,666,0,0
406,358,0,0,0,0,0,0,0,0,0,-1,1630,666,0,0
413,358,0,0,0,0,0,0,0,0,0,-1,1637,666,0,0
420,358,0,0,0,0,0,0,0,0,0,-1,1644,666,0,0
427,358,0,0,0,0,0,0,0,0,0,-1,1651,666,0,0
434,358,0,0,0,0,0,0,0,0,0,-1,1658,666,0,0
441,358,0,0,0,0,0,0,0,0,0,-1,1665,666,0,0
448,358,0,0,0,0,0,0,0,0,0,-1,1672,666,0,0
455,358,0,0,0,0,0,0,0,0,0,-1,1679,666,0,0
462,358,0,0,0,0,0,0,0,0,0,-1,1686,666,0,0
469,358,0,0,0,0,0,0,0,0,0,-1,1693,666,0,0
476,358,0,0,0,0,0,0,0,0,0,-1,1700,666,0,0
483,358,0,0,0,0,0,0,0,0,0,-1,1707,666,0,0
490,358,0,0,0,0,0,0,0,0,0,-1,1714,666,0,0
497,358,8.57239,1.1322,0,0,0,0,0,0,0,-1,1721,666,8.57234,-1.13219
504,358,10.5972,0.832947,0,0,0,0,0,0,0,-1,1728,666,10.5972,-0.832968
511,358,10.6873,0.868469,0,0,0,0,0,0,0,-1,1735,666,10.6872,-0.868484
518,358,16.5884,2.34894,0,0,0,0,0,0,0,-1,1742,666,16.5884,-2.34894
525,358,15.7626,3.65344,0,0,0,0,0,0,0,-1,1749,666,15.7626,-3.65342
532,358,14.9368,4.95789,0,0,0,0,0,0,0,-1,1756,666,14.9367,-4.9579
539,358,15.1597,3.42694,0,0,0,0,0,0,0,-1,1763,666,15.1597,-3.42692
546,358,12.3792,1.53558,0,0,0,0,0,0,0,-1,1770,666,12.3792,-1.5356
553,358,11.6584,1.26172,0,0,0,0,0,0,0,-1,1777,666,11.6585,-1.26175
560,358,10.8234,1.43042,0,0,0,0,0,0,0,-1,1784,666,10.8233,-1.43041
567,358,10.1333,-0.955139,0,0,0,0,0,0,0,-1,1791,666,10.1333,0.955132
574,358,14.7886,-2.69293,0,0,0,0,0,0,0,-1,1798,666,14.7885,2.6929
581,358,76.2957,-37.3464,0,0,0,0,0,0,0,-1,1805,666,76.2957,37.3464
588,358,141.881,-35.4691,0,0,0,0,0,0,0,-1,1812,666,141.881,35.4691
595,358,140.364,-32.011,-0.00320321,0.0160122,-0.0135863,0.0230447,-0.0102356,-1.09316,0.0196831,0.0486094,1819,666,140.364,32.011
602,358,139.16,-28.4817,-0.000928183,0.0195264,-0.0183893,0.0303411,-0.0117429,-1.03918,0.0250756,0.027402,1826,666,139.16,28.4817
609,358,138.337,-24.8281,0.00111746,0.0227365,-0.0228695,0.0372224,-0.0133685,-1.00617,0.0302716,0.0425177,1833,666,138.337,24.828
616,358,137.661,-21.5049,0.00283537,0.025593,-0.0271707,0.0436713,-0.015243,-0.983697,0.0353095,0.0380153,1840,666,137.661,21.5049
623,358,136.757,-18.4224,0.00430637,0.028163,-0.031262,0.049695,-0.0172257,-0.967653,0.040124,0.0192357,1847,666,136.757,18.4224
630,358,136.026,-15.0422,0.00562251,0.0305332,-0.0351782,0.0553959,-0.0192402,-0.955544,0.0447448,0.023303,1854,666,136.026,15.0422
637,358,135.256,-11.8667,0.0068409,0.0327316,-0.0389298,0.060812,-0.0212395,-0.945912,0.0491747,0.0328076,1861,666,135.256,11.8667
644,358,134.426,-8.7453,0.00803726,0.0346941,-0.0424601,0.0658685,-0.0231372,-0.93748,0.053325,0.0303932,1868,666,134.426,8.74529
651,358,133.613,-5.44214,0,0,0,0,0,0,0,-1,1875,666,133.613,5.44212
658,358,52.9972,-7.31555,0,0,0,0,0,0,0,-1,1882,666,52.9972,7.31555
665,358,28.0272,-2.07764,0,0,0,0,0,0,0,-1,1889,666,28.0272,2.07764
672,358,12.4299,1.47272,0,0,0,0,0,0,0,-1,1896,666,12.4299,-1.4727
679,358,12.1294,2.19702,0,0,0,0,0,0,0,-1,1903,666,12.1294,-2.19703
686,358,11.9557,2.2002,0,0,0,0,0,0,0,-1,1910,666,11.9557,-2.20021
693,358,13.188,2.52203,0,0,0,0,0,0,0,-1,1917,666,13.188,-2.52202
700,358,0,0,0,0,0,0,0,0,0,-1,1924,666,0,0
707,358,0,0,0,0,0,0,0,0,0,-1,1931,666,0,0
714,358,0,0,0,0,0,0,0,0,0,-1,1938,666,0,0
721,358,0,0,0,0,0,0,0,0,0,-1,1945,666,0,0
728,358,0,0,0,0,0,0,0,0,0,-1,1952,666,0,0
735,358,0,0,0,0,0,0,0,0,0,-1,1959,666,0,0
742,358,0,0,0,0,0,0,0,0,0,-1,1966,666,0,0
749,358,0,0,0,0,0,0,0,0,0,-1,1973,666,0,0
756,358,0,0,0,0,0,0,0,0,0,-1,1980,666,0,0
763,358,0,0,0,0,0,0,0,0,0,-1,1987,666,0,0
770,358,0,0,0,0,0,0,0,0,0,-1,1994,666,0,0
777,358,0,0,0,0,0,0,0,0,0,-1,2001,666,0,0
784,358,0,0,0,0,0,0,0,0,0,-1,2008,666,0,0
791,358,0,0,0,0,0,0,0,0,0,-1,2015,666,0,0
798,358,0,0,0,0,0,0,0,0,0,-1,2022,666,0,0
805,358,0,0,0,0,0,0,0,0,0,-1,2029,666,0,0
812,358,0,0,0,0,0,0,0,0,0,-1,2036,666,0,0
-700,351,0,0,0,0,0,0,0,0,0,-1,524,673,0,0
-693,351,0,0,0,0,0,0,0,0,0,-1,531,673,0,0
-686,351,0,0,0,0,0,0,0,0,0,-1,538,673,0,0
-679,351,0,0,0,0,0,0,0,0,0,-1,545,673,0,0
-672,351,0,0,0,0,0,0,0,0,0,-1,552,673,0,0
-665,351,0,0,0,0,0,0,0,0,0,-1,559,673,0,0
-658,351,0,0,0,0,0,0,0,0,0,-1,566,673,0,0
-651,351,0,0,0,0,0,0,0,0,0,-1,573,673,0,0
-644,351,0,0,0,0,0,0,0,0,0,-1,580,673,0,0
-637,351,0,0,0,0,0,0,0,0,0,-1,587,673,0,0
-630,351,0,0,0,0,0,0,0,0,0,-1,594,673,0,0
-623,351,0,0,0,0,0,0,0,0,0,-1,601,673,0,0
-616,351,0,0,0,0,0,0,0,0,0,-1,608,673,0,0
-609,351,0,0,0,0,0,0,0,0,0,-1,615,673,0,0
-602,351,0,0,0,0,0,0,0,0,0,-1,622,673,0,0
-595,351,0,0,0,0,0,0,0,0,0,-1,629,673,0,0
-588,351,0,0,0,0,0,0,0,0,0,-1,636,673,0,0
-581,351,-9.0647,1.71906,0,0,0,0,0,0,0,-1,643,673,-9.06472,-1.71908
-574,351,-8.23584,2.64764,0,0,0,0,0,0,0,-1,650,673,-8.23584,-2.64764
-567,351,-10.8027,4.56836,0,0,0,0,0,0,0,-1,657,673,-10.8027,-4.56839
-560,351,-14.2001,2.17084,0,0,0,0,0,0,0,-1,664,673,-14.2002,-2.17086
-553,351,-13.4979,0.779541,0,0,0,0,0,0,0,-1,671,673,-13.4978,-0.779519
-546,351,-14.0065,0.73645,0,0,0,0,0,0,0,-1,678,673,-14.0065,-0.736473
-539,351,-12.8123,-1.46393,0,0,0,0,0,0,0,-1,685,673,-12.8123,1.46395
-532,351,-16.0198,-4.03937,0,0,0,0,0,0,0,-1,692,673,-16.0198,4.03936
-525,351,-127.158,-2.01355,0,0,0,0,0,0,0,-1,699,673,-127.158,2.01357
-518,351,-127.801,-5.27863,0.0179124,0.0396531,0.0403957,0.0706154,-0.0130499,0.916833,0.0519759,0.0380996,706,673,-127.801,5.27864
-511,351,-128.459,-8.53009,0.015683,0.0373184,0.0377396,0.0657601,-0.0127587,0.924976,0.0486538,0.0178129,713,673,-128.459,8.53007
-504,351,-129.097,-11.7416,0.0130018,0.0349954,0.035478,0.0611419,-0.0131446,0.935683,0.0457762,0.0146847,720,673,-129.097,11.7416
-497,351,-129.85,-15.0198,0.0100262,0.0331341,0.0332619,0.0567917,-0.0136314,0.95256,0.043129,0.0138107,727,673,-129.85,15.0198
-490,351,-130.578,-18.3167,0.00680506,0.0316841,0.03102,0.0526659,-0.0141767,0.976089,0.0406683,0.0127395,734,673,-130.578,18.3166
-483,351,-131.367,-21.7141,0.00330344,0.0306471,0.0288402,0.0488919,-0.0149414,1.00674,0.0385526,0.0161849,741,673,-131.367,21.7141
-476,351,-132.25,-25.1337,-0.000343566,0.0300033,0.0266637,0.0455086,-0.0158489,1.04408,0.0367785,0.0153499,748,673,-132.25,25.1337
-469,351,-133.213,-28.476,-0.00408133,0.0295848,0.024486,0.0424657,-0.0169622,1.08653,0.0353482,0.0231185,755,673,-133.213,28.476
-462,351,-134.166,-31.4246,0,0,0,0,0,0,0,-1,762,673,-134.166,31.4246
-455,351,-39.3901,-22.7581,0,0,0,0,0,0,0,-1,769,673,-39.3901,22.758
-448,351,-6.61456,-4.38654,0,0,0,0,0,0,0,-1,776,673,-6.61456,4.38654
-441,351,-4.31567,-2.3009,0,0,0,0,0,0,0,-1,783,673,-4.31565,2.30089
-434,351,-3.81708,-2.28003,0,0,0,0,0,0,0,-1,790,673,-3.81706,2.28006
-427,351,-2.05157,-2.7785,0,0,0,0,0,0,0,-1,797,673,-2.05157,2.77848
-420,351,-1.06989,-2.43665,0,0,0,0,0,0,0,-1,804,673,-1.06991,2.43663
-413,351,-0.392334,-2.06671,0,0,0,0,0,0,0,-1,811,673,-0.392363,2.06672
-406,351,-1.86316,-2.58105,0,0,0,0,0,0,0,-1,818,673,-1.86313,2.58106
-399,351,1.00952,-1.53455,0,0,0,0,0,0,0,-1,825,673,1.00954,1.53457
-392,351,-1.02197,0.877136,0,0,0,0,0,0,0,-1,832,673,-1.02195,-0.877143
-385,351,-1.47205,1.04437,0,0,0,0,0,0,0,-1,839,673,-1.47207,-1.04435
-378,351,0,0,0,0,0,0,0,0,0,-1,846,673,0,0
-371,351,0,0,0,0,0,0,0,0,0,-1,853,673,0,0
-364,351,0,0,0,0,0,0,0,0,0,-1,860,673,0,0
-357,351,0,0,0,0,0,0,0,0,0,-1,867,673,0,0
-350,351,0,0,0,0,0,0,0,0,0,-1,874,673,0,0
-343,351,0,0,0,0,0,0,0,0,0,-1,881,673,0,0
-336,351,0,0,0,0,0,0,0,0,0,-1,888,673,0,0
-329,351,0,0,0,0,0,0,0,0,0,-1,895,673,0,0
-322,351,0,0,0,0,0,0,0,0,0,-1,902,673,0,0
-315,351,0,0,0,0,0,0,0,0,0,-1,909,673,0,0
-308,351,0,0,0,0,0,0,0,0,0,-1,916,673,0,0
-301,351,0,0,0,0,0,0,0,0,0,-1,923,673,0,0
-294,351,0,0,0,0,0,0,0,0,0,-1,930,673,0,0
-287,351,0,0,0,0,0,0,0,0,0,-1,937,673,0,0
-280,351,0,0,0,0,0,0,0,0,0,-1,944,673,0,0
-273,351,0,0,0,0,0,0,0,0,0,-1,951,673,0,0
-266,351,0,0,0,0,0,0,0,0,0,-1,958,673,0,0
-259,351,0,0,0,0,0,0,0,0,0,-1,965,673,0,0
-252,351,0,0,0,0,0,0,0,0,0,-1,972,673,0,0
-245,351,0,0,0,0,0,0,0,0,0,-1,979,673,0,0
-238,351,0,0,0,0,0,0,0,0,0,-1,986,673,0,0
-231,351,0,0,0,0,0,0,0,0,0,-1,993,673,0,0
-224,351,0,0,0,0,0,0,0,0,0,-1,1000,673,0,0
-217,351,0,0,0,0,0,0,0,0,0,-1,1007,673,0,0
-210,351,0,0,0,0,0,0,0,0,0,-1,1014,673,0,0
-203,351,0,0,0,0,0,0,0,0,0,-1,1021,673,0,0
-196,351,0,0,0,0,0,0,0,0,0,-1,1028,673,0,0
-189,351,0,0,0,0,0,0,0,0,0,-1,1035,673,0,0
-182,351,0,0,0,0,0,0,0,0,0,-1,1042,673,0,0
-175,351,0,0,0,0,0,0,0,0,0,-1,1049,673,0,0
-168,351,0,0,0,0,0,0,0,0,0,-1,1056,673,0,0
-161,351,0,0,0,0,0,0,0,0,0,-1,1063,673,0,0
-154,351,0,0,0,0,0,0,0,0,0,-1,1070,673,0,0
-147,351,0,0,0,0,0,0,0,0,0,-1,1077,673,0,0
-140,351,0,0,0,0,0,0,0,0,0,-1,1084,673,0,0
-133,351,0,0,0,0,0,0,0,0,0,-1,1091,673,0,0
-126,351,0,0,0,0,0,0,0,0,0,-1,1098,673,0,0
-119,351,0,0,0,0,0,0,0,0,0,-1,1105,673,0,0
-112,351,0,0,0,0,0,0,0,0,0,-1,1112,673,0,0
-105,351,0,0,0,0,0,0,0,0,0,-1,1119,673,0,0
-98,351,0,0,0,0,0,0,0,0,0,-1,1126,673,0,0
-91,351,0,0,0,0,0,0,0,0,0,-1,1133,673,0,0
-84,351,0,0,0,0,0,0,0,0,0,-1,1140,673,0,0
-77,351,0,0,0,0,0,0,0,0,0,-1,1147,673,0,0
-70,351,0,0,0,0,0,0,0,0,0,-1,1154,673,0,0
-63,351,0,0,0,0,0,0,0,0,0,-1,1161,673,0,0
-56,351,0,0,0,0,0,0,0,0,0,-1,1168,673,0,0
-49,351,0,0,0,0,0,0,0,0,0,-1,1175,673,0,0
-42,351,0,0,0,0,0,0,0,0,0,-1,1182,673,0,0
-35,351,0,0,0,0,0,0,0,0,0,-1,1189,673,0,0
-28,351,0,0,0,0,0,0,0,0,0,-1,1196,673,0,0
-21,351,0,0,0,0,0,0,0,0,0,-1,1203,673,0,0
-14,351,0,0,0,0,0,0,0,0,0,-1,1210,673,0,0
-7,351,0,0,0,0,0,0,0,0,0,-1,1217,673,0,0
0,351,0,0,0,0,0,0,0,0,0,-1,1224,673,0,0
7,351,0,0,0,0,0,0,0,0,0,-1,1231,673,0,0
14,351,0,0,0,0,0,0,0,0,0,-1,1238,673,0,0
21,351,0,0,0,0,0,0,0,0,0,-1,1245,673,0,0
28,351,0,0,0,0,0,0,0,0,0,-1,1252,673,0,0
35,351,0,0,0,0,0,0,0,0,0,-1,1259,673,0,0
42,351,0,0,0,0,0,0,0,0,0,-1,1266,673,0,0
49,351,0,0,0,0,0,0,0,0,0,-1,1273,673,0,0
56,351,0,0,0,0,0,0,0,0,0,-1,1280,673,0,0
63,351,0,0,0,0,0,0,0,0,0,-1,1287,673,0,0
70,351,0,0,0,0,0,0,0,0,0,-1,1294,673,0,0
77,351,0,0,0,0,0,0,0,0,0,-1,1301,673,0,0
84,351,0,0,0,0,0,0,0,0,0,-1,1308,673,0,0
91,351,0,0,0,0,0,0,0,0,0,-1,1315,673,0,0
98,351,0,0,0,0,0,0,0,0,0,-1,1322,673,0,0
105,351,0,0,0,0,0,0,0,0,0,-1,1329,673,0,0
112,351,0,0,0,0,0,0,0,0,0,-1,1336,673,0,0
119,351,0,0,0,0,0,0,0,0,0,-1,1343,673,0,0
126,351,0,0,0,0,0,0,0,0,0,-1,1350,673,0,0
133,351,0,0,0,0,0,0,0,0,0,-1,1357,673,0,0
140,351,0,0,0,0,0,0,0,0,0,-1,1364,673,0,0
147,351,0,0,0,0,0,0,0,0,0,-1,1371,673,0,0
154,351,0,0,0,0,0,0,0,0,0,-1,1378,673,0,0
161,351,0,0,0,0,0,0,0,0,0,-1,1385,673,0,0
168,351,0,0,0,0,0,0,0,0,0,-1,1392,673,0,0
175,351,0,0,0,0,0,0,0,0,0,-1,1399,673,0,0
182,351,0,0,0,0,0,0,0,0,0,-1,1406,673,0,0
189,351,0,0,0,0,0,0,0,0,0,-1,1413,673,0,0
196,351,0,0,0,0,0,0,0,0,0,-1,1420,673,0,0
203,351,0,0,0,0,0,0,0,0,0,-1,1427,673,0,0
210,351,0,0,0,0,0,0,0,0,0,-1,1434,673,0,0
217,351,0,0,0,0,0,0,0,0,0,-1,1441,673,0,0
224,351,0,0,0,0,0,0,0,0,0,-1,1448,673,0,0
231,351,0,0,0,0,0,0,0,0,0,-1,1455,673,0,0
238,351,0,0,0,0,0,0,0,0,0,-1,1462,673,0,0
245,351,0,0,0,0,0,0,0,0,0,-1,1469,673,0,0
252,351,0,0,0,0,0,0,0,0,0,-1,1476,673,0,0
259,351,0,0,0,0,0,0,0,0,0,-1,1483,673,0,0
266,351,0,0,0,0,0,0,0,0,0,-1,1490,673,0,0
273,351,0,0,0,0,0,0,0,0,0,-1,1497,673,0,0
280,351,0,0,0,0,0,0,0,0,0,-1,1504,673,0,0
287,351,0,0,0,0,0,0,0,0,0,-1,1511,673,0,0
294,351,0,0,0,0,0,0,0,0,0,-1,1518,673,0,0
301,351,0,0,0,0,0,0,0,0,0,-1,1525,673,0,0
308,351,0,0,0,0,0,0,0,0,0,-1,1532,673,0,0
315,351,0,0,0,0,0,0,0,0,0,-1,1539,673,0,0
322,351,0,0,0,0,0,0,0,0,0,-1,1546,673,0,0
329,351,0,0,0,0,0,0,0,0,0,-1,1553,673,0,0
336,351,0,0,0,0,0,0,0,0,0,-1,1560,673,0,0
343,351,0,0,0,0,0,0,0,0,0,-1,1567,673,0,0
350,351,0,0,0,0,0,0,0,0,0,-1,1574,673,0,0
357,351,0,0,0,0,0,0,0,0,0,-1,1581,673,0,0
364,351,0,0,0,0,0,0,0,0,0,-1,1588,673,0,0
371,351,0,0,0,0,0,0,0,0,0,-1,1595,673,0,0
378,351,0,0,0,0,0,0,0,0,0,-1,1602,673,0,0
385,351,0,0,0,0,0,0,0,0,0,-1,1609,673,0,0
392,351,0,0,0,0,0,0,0,0,0,-1,1616,673,0,0
399,351,0,0,0,0,0,0,0,0,0,-1,1623,673,0,0
406,351,0,0,0,0,0,0,0,0,0,-1,1630,673,0,0
413,351,0,0,0,0,0,0,0,0,0,-1,1637,673,0,0
420,351,0,0,0,0,0,0,0,0,0,-1,1644,673,0,0
427,351,0,0,0,0,0,0,0,0,0,-1,1651,673,0,0
434,351,0,0,0,0,0,0,0,0,0,-1,1658,673,0,0
441,351,0,0,0,0,0,0,0,0,0,-1,1665,673,0,0
448,351,0,0,0,0,0,0,0,0,0,-1,1672,673,0,0
455,351,0,0,0,0,0,0,0,0,0,-1,1679,673,0,0
462,351,0,0,0,0,0,0,0,0,0,-1,1686,673,0,0
469,351,0,0,0,0,0,0,0,0,0,-1,1693,673,0,0
476,351,0,0,0,0,0,0,0,0,0,-1,1700,673,0,0
483,351,0,0,0,0,0,0,0,0,0,-1,1707,673,0,0
490,351,0,0,0,0,0,0,0,0,0,-1,1714,673,0,0
497,351,0,0,0,0,0,0,0,0,0,-1,1721,673,0,0
504,351,10.8842,1.61615,0,0,0,0,0,0,0,-1,1728,673,10.8842,-1.61618
511,351,15.4548,0.0236816,0,0,0,0,0,0,0,-1,1735,673,15.4549,-0.0236664
518,351,16.7448,2.49268,0,0,0,0,0,0,0,-1,1742,673,16.7448,-2.49269
525,351,16.0701,3.43225,0,0,0,0,0,0,0,-1,1749,673,16.07,-3.43227
532,351,32.3822,3.03021,0,0,0,0,0,0,0,-1,1756,673,32.3822,-3.03019
539,351,15.3387,3.54486,0,0,0,0,0,0,0,-1,1763,673,15.3387,-3.54485
546,351,13.9387,4.59357,0,0,0,0,0,0,0,-1,1770,673,13.9388,-4.59359
553,351,12.0682,2.02832,0,0,0,0,0,0,0,-1,1777,673,12.0683,-2.02831
560,351,12.0173,0.55304,0,0,0,0,0,0,0,-1,1784,673,12.0174,-0.553028
567,351,10.7827,0.130188,0,0,0,0,0,0,0,-1,1791,673,10.7827,-0.130183
574,351,13.405,-1.09204,0,0,0,0,0,0,0,-1,1798,673,13.405,1.09207
581,351,15.2351,-3.06049,0,0,0,0,0,0,0,-1,1805,673,15.2351,3.06046
588,351,79.4626,-35.6771,0,0,0,0,0,0,0,-1,1812,673,79.4626,35.6771
595,351,144.159,-31.033,0,0,0,0,0,0,0,-1,1819,673,144.159,31.033
602,351,142.987,-27.548,-0.00216659,0.0187452,-0.0140163,0.025776,-0.00919735,-1.10586,0.0209344,0.0406539,1826,673,142.987,27.548
609,351,142.018,-24.244,-0.00032938,0.021653,-0.0184047,0.0320987,-0.0107751,-1.05457,0.0257535,0.0308662,1833,673,142.018,24.2439
616,351,141.252,-20.8624,0.00124596,0.0242612,-0.0227076,0.0382106,-0.0127035,-1.01992,0.0306002,0.0212595,1840,673,141.252,20.8624
623,351,140.484,-17.6317,0.00261442,0.0266017,-0.0268383,0.0440043,-0.0147882,-0.995529,0.0353133,0.0176809,1847,673,140.484,17.6316
630,351,139.656,-14.3582,0.00388843,0.028801,-0.030822,0.0495886,-0.0168991,-0.977432,0.0399033,0.0277593,1854,673,139.656,14.3582
637,351,138.849,-11.0909,0.00512522,0.0308919,-0.0346612,0.0549866,-0.0189695,-0.963333,0.0443543,0.0345458,1861,673,138.849,11.0909
644,351,138.064,-7.93378,0.00639833,0.0328803,-0.038345,0.0602061,-0.0209274,-0.951644,0.0486378,0.0289326,1868,673,138.064,7.93379
651,351,137.413,-4.7865,0.00756938,0.0347612,-0.0418558,0.0651739,-0.0228433,-0.942436,0.0527394,0.0372521,1875,673,137.413,4.78651
658,351,136.934,-1.6828,0,0,0,0,0,0,0,-1,1882,673,136.934,1.68278
665,351,54.0391,-5.79291,0,0,0,0,0,0,0,-1,1889,673,54.039,5.79288
672,351,34.9646,-3.1748,0,0,0,0,0,0,0,-1,1896,673,34.9646,3.17482
679,351,14.1252,1.85681,0,0,0,0,0,0,0,-1,1903,673,14.1253,-1.85682
686,351,13.0294,2.1189,0,0,0,0,0,0,0,-1,1910,673,13.0294,-2.11892
693,351,13.5187,2.34595,0,0,0,0,0,0,0,-1,1917,673,13.5187,-2.34596
700,351,14.5629,-2.40173,0,0,0,0,0,0,0,-1,1924,673,14.5629,2.40172
707,351,0,0,0,0,0,0,0,0,0,-1,1931,673,0,0
714,351,0,0,0,0,0,0,0,0,0,-1,1938,673,0,0
721,351,0,0,0,0,0,0,0,0,0,-1,1945,673,0,0
728,351,0,0,0,0,0,0,0,0,0,-1,1952,673,0,0
735,351,0,0,0,0,0,0,0,0,0,-1,1959,673,0,0
742,351,0,0,0,0,0,0,0,0,0,-1,1966,673,0,0
749,351,0,0,0,0,0,0,0,0,0,-1,1973,673,0,0
756,351,0,0,0,0,0,0,0,0,0,-1,1980,673,0,0
763,351,0,0,0,0,0,0,0,0,0,-1,1987,673,0,0
770,351,0,0,0,0,0,0,0,0,0,-1,1994,673,0,0
777,351,0,0,0,0,0,0,0,0,0,-1,2001,673,0,0
784,351,0,0,0,0,0,0,0,0,0,-1,2008,673,0,0
791,351,0,0,0,0,0,0,0,0,0,-1,2015,673,0,0
798,351,0,0,0,0,0,0,0,0,0,-1,2022,673,0,0
805,351,0,0,0,0,0,0,0,0,0,-1,2029,673,0,0
812,351,0,0,0,0,0,0,0,0,0,-1,2036,673,0,0
-700,344,0,0,0,0,0,0,0,0,0,-1,524,680,0,0
-693,344,0,0,0,0,0,0,0,0,0,-1,531,680,0,0
-686,344,0,0,0,0,0,0,0,0,0,-1,538,680,0,0
-679,344,0,0,0,0,0,0,0,0,0,-1,545,680,0,0
-672,344,0,0,0,0,0,0,0,0,0,-1,552,680,0,0
-665,344,0,0,0,0,0,0,0,0,0,-1,559,680,0,0
-658,344,0,0,0,0,0,0,0,0,0,-1,566,680,0,0
-651,344,0,0,0,0,0,0,0,0,0,-1,573,680,0,0
-644,344,0,0,0,0,0,0,0,0,0,-1,580,680,0,0
-637,344,0,0,0,0,0,0,0,0,0,-1,587,680,0,0
-630,344,0,0,0,0,0,0,0,0,0,-1,594,680,0,0
-623,344,0,0,0,0,0,0,0,0,0,-1,601,680,0,0
-616,344,0,0,0,0,0,0,0,0,0,-1,608,680,0,0
-609,344,0,0,0,0,0,0,0,0,0,-1,615,680,0,0
-602,344,0,0,0,0,0,0,0,0,0,-1,622,680,0,0
-595,344,0,0,0,0,0,0,0,0,0,-1,629,680,0,0
-588,344,-9.27826,1.47302,0,0,0,0,0,0,0,-1,636,680,-9.27829,-1.473
-581,344,-10.0098,1.71753,0,0,0,0,0,0,0,-1,643,680,-10.0098,-1.7175
-574,344,-10.2208,3.04871,0,0,0,0,0,0,0,-1,650,680,-10.2208,-3.04869
-567,344,-14.3779,2.29016,0,0,0,0,0,0,0,-1,657,680,-14.3779,-2.29014
-560,344,-14.1238,1.8374,0,0,0,0,0,0,0,-1,664,680,-14.1238,-1.83743
-553,344,-14.7884,2.00116,0,0,0,0,0,0,0,-1,671,680,-14.7884,-2.00115
-546,344,-17.4192,0.157654,0,0,0,0,0,0,0,-1,678,680,-17.4192,-0.157635
-539,344,-17.2671,-2.75714,0,0,0,0,0,0,0,-1,685,680,-17.2671,2.75712
-532,344,-18.4417,-4.38605,0,0,0,0,0,0,0,-1,692,680,-18.4417,4.38603
-525,344,-130.738,-1.18915,0,0,0,0,0,0,0,-1,699,680,-130.738,1.18916
-518,344,-131.465,-4.46124,0.0150882,0.0383781,0.0375632,0.06606,-0.0125937,0.935705,0.0487828,0.0262459,706,680,-131.465,4.46127
-511,344,-132.239,-7.71472,0.0126859,0.0358204,0.0348718,0.0609934,-0.0124871,0.945541,0.0454007,0.02132,713,680,-132.239,7.71474
-504,344,-132.954,-10.9655,0.00993239,0.033652,0.0323926,0.0562877,-0.0127033,0.960882,0.0423987,0.0198102,720,680,-132.954,10.9654
-497,344,-133.639,-14.2103,0.00690186,0.0321084,0.0299633,0.0520111,-0.0130009,0.984477,0.0397233,0.0171679,727,680,-133.639,14.2102
-490,344,-134.331,-17.5118,0.00352433,0.031143,0.0275069,0.0481123,-0.013445,1.01803,0.0373716,0.0175181,734,680,-134.331,17.5118
-483,344,-135.111,-20.8636,-0.0002436,0.0308147,0.0251039,0.0448044,-0.0142333,1.06239,0.0355761,0.0191084,741,680,-135.111,20.8637
-476,344,-136.051,-24.2043,-0.00431527,0.0310969,0.0227099,0.0421875,-0.0154058,1.11651,0.034429,0.0216722,748,680,-136.051,24.2043
-469,344,-137.208,-27.8412,-0.00859691,0.031825,0.0203357,0.0402849,-0.0170569,1.17656,0.0339997,0.0353077,755,680,-137.208,27.8412
-462,344,-138.965,-31.3173,0,0,0,0,0,0,0,-1,762,680,-138.965,31.3173
-455,344,-12.1653,-7.99176,0,0,0,0,0,0,0,-1,769,680,-12.1653,7.99174
-448,344,-5.67657,-2.72864,0,0,0,0,0,0,0,-1,776,680,-5.6766,2.72863
-441,344,-5.09229,-2.34167,0,0,0,0,0,0,0,-1,783,680,-5.09229,2.34168
-434,344,-4.28778,-2.08807,0,0,0,0,0,0,0,-1,790,680,-4.28778,2.08809
-427,344,-3.06506,-1.45404,0,0,0,0,0,0,0,-1,797,680,-3.06505,1.45402
-420,344,-1.96582,-1.57574,0,0,0,0,0,0,0,-1,804,680,-1.96579,1.57574
-413,344,-0.817993,-1.4751,0,0,0,0,0,0,0,-1,811,680,-0.818017,1.47511
-406,344,-0.00714111,-1.25189,0,0,0,0,0,0,0,-1,818,680,-0.00714956,1.25191
-399,344,0.240051,-1.75769,0,0,0,0,0,0,0,-1,825,680,0.240079,1.75767
-392,344,1.11353,-2.05615,0,0,0,0,0,0,0,-1,832,680,1.11351,2.05616
-385,344,0,0,0,0,0,0,0,0,0,-1,839,680,0,0
-378,344,0,0,0,0,0,0,0,0,0,-1,846,680,0,0
-371,344,0,0,0,0,0,0,0,0,0,-1,853,680,0,0
-364,344,0,0,0,0,0,0,0,0,0,-1,860,680,0,0
-357,344,0,0,0,0,0,0,0,0,0,-1,867,680,0,0
-350,344,0,0,0,0,0,0,0,0,0,-1,874,680,0,0
-343,344,0,0,0,0,0,0,0,0,0,-1,881,680,0,0
-336,344,0,0,0,0,0,0,0,0,0,-1,888,680,0,0
-329,344,0,0,0,0,0,0,0,0,0,-1,895,680,0,0
-322,344,0,0,0,0,0,0,0,0,0,-1,902,680,0,0
-315,344,0,0,0,0,0,0,0,0,0,-1,909,680,0,0
-308,344,0,0,0,0,0,0,0,0,0,-1,916,680,0,0
-301,344,0,0,0,0,0,0,0,0,0,-1,923,680,0,0
-294,344,0,0,0,0,0,0,0,0,0,-1,930,680,0,0
-287,344,0,0,0,0,0,0,0,0,0,-1,937,680,0,0
-280,344,0,0,0,0,0,0,0,0,0,-1,944,680,0,0
-273,344,0,0,0,0,0,0,0,0,0,-1,951,680,0,0
-266,344,0,0,0,0,0,0,0,0,0,-1,958,680,0,0
-259,344,0,0,0,0,0,0,0,0,0,-1,965,680,0,0
-252,344,0,0,0,0,0,0,0,0,0,-1,972,680,0,0
-245,344,0,0,0,0,0,0,0,0,0,-1,979,680,0,0
-238,344,0,0,0,0,0,0,0,0,0,-1,986,680,0,0
-231,344,0,0,0,0,0,0,0,0,0,-1,993,680,0,0
-224,344,0,0,0,0,0,0,0,0,0,-1,1000,680,0,0
-217,344,0,0,0,0,0,0,0,0,0,-1,1007,680,0,0
-210,344,0,0,0,0,0,0,0,0,0,-1,1014,680,0,0
-203,344,0,0,0,0,0,0,0,0,0,-1,1021,680,0,0
-196,344,0,0,0,0,0,0,0,0,0,-1,1028,680,0,0
-189,344,0,0,0,0,0,0,0,0,0,-1,1035,680,0,0
-182,344,0,0,0,0,0,0,0,0,0,-1,1042,680,0,0
-175,344,0,0,0,0,0,0,0,0,0,-1,1049,680,0,0
-168,344,0,0,0,0,0,0,0,0,0,-1,1056,680,0,0
-161,344,0,0,0,0,0,0,0,0,0,-1,1063,680,0,0
-154,344,0,0,0,0,0,0,0,0,0,-1,1070,680,0,0
-147,344,0,0,0,0,0,0,0,0,0,-1,1077,680,0,0
-140,344,0,0,0,0,0,0,0,0,0,-1,1084,680,0,0
-133,344,0,0,0,0,0,0,0,0,0,-1,1091,680,0,0
-126,344,0,0,0,0,0,0,0,0,0,-1,1098,680,0,0
-119,344,0,0,0,0,0,0,0,0,0,-1,1105,680,0,0
-112,344,0,0,0,0,0,0,0,0,0,-1,1112,680,0,0
-105,344,0,0,0,0,0,0,0,0,0,-1,1119,680,0,0
-98,344,0,0,0,0,0,0,0,0,0,-1,1126,680,0,0
-91,344,0,0,0,0,0,0,0,0,0,-1,1133,680,0,0
-84,344,0,0,0,0,0,0,0,0,0,-1,1140,680,0,0
-77,344,0,0,0,0,0,0,0,0,0,-1,1147,680,0,0
-70,344,0,0,0,0,0,0,0,0,0,-1,1154,680,0,0
-63,344,0,0,0,0,0,0,0,0,0,-1,1161,680,0,0
-56,344,0,0,0,0,0,0,0,0,0,-1,1168,680,0,0
-49,344,0,0,0,0,0,0,0,0,0,-1,1175,680,0,0
-42,344,0,0,0,0,0,0,0,0,0,-1,1182,680,0,0
-35,344,0,0,0,0,0,0,0,0,0,-1,1189,680,0,0
-28,344,0,0,0,0,0,0,0,0,0,-1,1196,680,0,0
-21,344,0,0,0,0,0,0,0,0,0,-1,1203,680,0,0
-14,344,0,0,0,0,0,0,0,0,0,-1,1210,680,0,0
-7,344,0,0,0,0,0,0,0,0,0,-1,1217,680,0,0
0,344,0,0,0,0,0,0,0,0,0,-1,1224,680,0,0
7,344,0,0,0,0,0,0,0,0,0,-1,1231,680,0,0
14,344,0,0,0,0,0,0,0,0,0,-1,1238,680,0,0
21,344,0,0,0,0,0,0,0,0,0,-1,1245,680,0,0
28,344,0,0,0,0,0,0,0,0,0,-1,1252,680,0,0
35,344,0,0,0,0,0,0,0,0,0,-1,1259,680,0,0
42,344,0,0,0,0,0,0,0,0,0,-1,1266,680,0,0
49,344,0,0,0,0,0,0,0,0,0,-1,1273,680,0,0
56,344,0,0,0,0,0,0,0,0,0,-1,1280,680,0,0
63,344,0,0,0,0,0,0,0,0,0,-1,1287,680,0,0
70,344,0,0,0,0,0,0,0,0,0,-1,1294,680,0,0
77,344,0,0,0,0,0,0,0,0,0,-1,1301,680,0,0
84,344,0,0,0,0,0,0,0,0,0,-1,1308,680,0,0
91,344,0,0,0,0,0,0,0,0,0,-1,1315,680,0,0
98,344,0,0,0,0,0,0,0,0,0,-1,1322,680,0,0
105,344,0,0,0,0,0,0,0,0,0,-1,1329,680,0,0
112,344,0,0,0,0,0,0,0,0,0,-1,1336,680,0,0
119,344,0,0,0,0,0,0,0,0,0,-1,1343,680,0,0
126,344,0,0,0,0,0,0,0,0,0,-1,1350,680,0,0
133,344,0,0,0,0,0,0,0,0,0,-1,1357,680,0,0
140,344,0,0,0,0,0,0,0,0,0,-1,1364,680,0,0
147,344,0,0,0,0,0,0,0,0,0,-1,1371,680,0,0
154,344,0,0,0,0,0,0,0,0,0,-1,1378,680,0,0
161,344,0,0,0,0,0,0,0,0,0,-1,1385,680,0,0
168,344,0,0,0,0,0,0,0,0,0,-1,1392,680,0,0
175,344,0,0,0,0,0,0,0,0,0,-1,1399,680,0,0
182,344,0,0,0,0,0,0,0,0,0,-1,1406,680,0,0
189,344,0,0,0,0,0,0,0,0,0,-1,1413,680,0,0
196,344,0,0,0,0,0,0,0,0,0,-1,1420,680,0,0
203,344,0,0,0,0,0,0,0,0,0,-1,1427,680,0,0
210,344,0,0,0,0,0,0,0,0,0,-1,1434,680,0,0
217,344,0,0,0,0,0,0,0,0,0,-1,1441,680,0,0
224,344,0,0,0,0,0,0,0,0,0,-1,1448,680,0,0
231,344,0,0,0,0,0,0,0,0,0,-1,1455,680,0,0
238,344,0,0,0,0,0,0,0,0,0,-1,1462,680,0,0
245,344,0,0,0,0,0,0,0,0,0,-1,1469,680,0,0
252,344,0,0,0,0,0,0,0,0,0,-1,1476,680,0,0
259,344,0,0,0,0,0,0,0,0,0,-1,1483,680,0,0
266,344,0,0,0,0,0,0,0,0,0,-1,1490,680,0,0
273,344,0,0,0,0,0,0,0,0,0,-1,1497,680,0,0
280,344,0,0,0,0,0,0,0,0,0,-1,1504,680,0,0
287,344,0,0,0,0,0,0,0,0,0,-1,1511,680,0,0
294,344,0,0,0,0,0,0,0,0,0,-1,1518,680,0,0
301,344,0,0,0,0,0,0,0,0,0,-1,1525,680,0,0
308,344,0,0,0,0,0,0,0,0,0,-1,1532,680,0,0
315,344,0,0,0,0,0,0,0,0,0,-1,1539,680,0,0
322,344,0,0,0,0,0,0,0,0,0,-1,1546,680,0,0
329,344,0,0,0,0,0,0,0,0,0,-1,1553,680,0,0
336,344,0,0,0,0,0,0,0,0,0,-1,1560,680,0,0
343,344,0,0,0,0,0,0,0,0,0,-1,1567,680,0,0
350,344,0,0,0,0,0,0,0,0,0,-1,1574,680,0,0
357,344,0,0,0,0,0,0,0,0,0,-1,1581,680,0,0
364,344,0,0,0,0,0,0,0,0,0,-1,1588,680,0,0
371,344,0,0,0,0,0,0,0,0,0,-1,1595,680,0,0
378,344,0,0,0,0,0,0,0,0,0,-1,1602,680,0,0
385,344,0,0,0,0,0,0,0,0,0,-1,1609,680,0,0
392,344,0,0,0,0,0,0,0,0,0,-1,1616,680,0,0
399,344,0,0,0,0,0,0,0,0,0,-1,1623,680,0,0
406,344,0,0,0,0,0,0,0,0,0,-1,1630,680,0,0
413,344,0,0,0,0,0,0,0,0,0,-1,1637,680,0,0
420,344,0,0,0,0,0,0,0,0,0,-1,1644,680,0,0
427,344,0,0,0,0,0,0,0,0,0,-1,1651,680,0,0
434,344,0,0,0,0,0,0,0,0,0,-1,1658,680,0,0
441,344,0,0,0,0,0,0,0,0,0,-1,1665,680,0,0
448,344,0,0,0,0,0,0,0,0,0,-1,1672,680,0,0
455,344,0,0,0,0,0,0,0,0,0,-1,1679,680,0,0
462,344,0,0,0,0,0,0,0,0,0,-1,1686,680,0,0
469,344,0,0,0,0,0,0,0,0,0,-1,1693,680,0,0
476,344,0,0,0,0,0,0,0,0,0,-1,1700,680,0,0
483,344,0,0,0,0,0,0,0,0,0,-1,1707,680,0,0
490,344,0,0,0,0,0,0,0,0,0,-1,1714,680,0,0
497,344,0,0,0,0,0,0,0,0,0,-1,1721,680,0,0
504,344,0,0,0,0,0,0,0,0,0,-1,1728,680,0,0
511,344,15.4819,0.452637,0,0,0,0,0,0,0,-1,1735,680,15.4819,-0.452656
518,344,17.1357,2.31207,0,0,0,0,0,0,0,-1,1742,680,17.1358,-2.31207
525,344,31.5201,2.6217,0,0,0,0,0,0,0,-1,1749,680,31.5201,-2.62168
532,344,31.9766,2.61047,0,0,0,0,0,0,0,-1,1756,680,31.9765,-2.6105
539,344,32.4379,2.65314,0,0,0,0,0,0,0,-1,1763,680,32.4378,-2.65316
546,344,14.6722,4.30243,0,0,0,0,0,0,0,-1,1770,680,14.6722,-4.30241
553,344,14.8136,4.35681,0,0,0,0,0,0,0,-1,1777,680,14.8136,-4.35679
560,344,11.9363,2.14185,0,0,0,0,0,0,0,-1,1784,680,11.9362,-2.14182
567,344,11.397,0.925842,0,0,0,0,0,0,0,-1,1791,680,11.397,-0.92583
574,344,10.0004,0.504639,0,0,0,0,0,0,0,-1,1798,680,10.0004,-0.504645
581,344,13.6709,-0.969604,0,0,0,0,0,0,0,-1,1805,680,13.6709,0.969629
588,344,77.6672,-32.3207,0,0,0,0,0,0,0,-1,1812,680,77.6673,32.3207
595,344,81.5276,-32.8669,0,0,0,0,0,0,0,-1,1819,680,81.5276,32.8669
602,344,146.879,-26.5419,0,0,0,0,0,0,0,-1,1826,680,146.879,26.5418
609,344,145.735,-23.3896,-0.00139385,0.0206247,-0.0140789,0.0274878,-0.00825686,-1.11722,0.0216098,0.0395847,1833,680,145.735,23.3896
616,344,144.853,-20.0053,9.92162e-06,0.0230233,-0.0184132,0.0332295,-0.0101963,-1.06467,0.0262212,0.0309282,1840,680,144.853,20.0053
623,344,143.985,-16.8156,0.00123584,0.0251599,-0.0226057,0.0387734,-0.0123777,-1.02875,0.0308149,0.0236097,1847,680,143.985,16.8156
630,344,143.156,-13.5711,0.0024221,0.0272174,-0.0266733,0.0442335,-0.014594,-1.00294,0.0353719,0.0298053,1854,680,143.156,13.5711
637,344,142.285,-10.3201,0.00359788,0.029236,-0.0306117,0.0496044,-0.0167705,-0.983687,0.0398538,0.0319265,1861,680,142.285,10.3201
644,344,141.541,-7.14941,0.00484446,0.0312285,-0.0344282,0.0549056,-0.0188326,-0.968358,0.0442383,0.0238535,1868,680,141.541,7.14944
651,344,141.021,-4.09015,0.00607883,0.033189,-0.0380725,0.0600475,-0.0207797,-0.956418,0.0484665,0.0202858,1875,680,141.021,4.09013
658,344,140.536,-1.13092,0,0,0,0,0,0,0,-1,1882,680,140.536,1.13089
665,344,140.126,1.91125,0,0,0,0,0,0,0,-1,1889,680,140.126,-1.91124
672,344,54.3232,-5.07654,0,0,0,0,0,0,0,-1,1896,680,54.3233,5.07656
679,344,36.7468,-2.59857,0,0,0,0,0,0,0,-1,1903,680,36.7468,2.59857
686,344,15.024,1.82709,0,0,0,0,0,0,0,-1,1910,680,15.024,-1.82706
693,344,12.4362,-1.42346,0,0,0,0,0,0,0,-1,1917,680,12.4361,1.42348
700,344,17.5396,2.61206,0,0,0,0,0,0,0,-1,1924,680,17.5396,-2.61204
707,344,18.5829,3.29352,0,0,0,0,0,0,0,-1,1931,680,18.5828,-3.2935
714,344,0,0,0,0,0,0,0,0,0,-1,1938,680,0,0
721,344,0,0,0,0,0,0,0,0,0,-1,1945,680,0,0
728,344,0,0,0,0,0,0,0,0,0,-1,1952,680,0,0
735,344,0,0,0,0,0,0,0,0,0,-1,1959,680,0,0
742,344,0,0,0,0,0,0,0,0,0,-1,1966,680,0,0
749,344,0,0,0,0,0,0,0,0,0,-1,1973,680,0,0
756,344,0,0,0,0,0,0,0,0,0,-1,1980,680,0,0
763,344,0,0,0,0,0,0,0,0,0,-1,1987,680,0,0
770,344,0,0,0,0,0,0,0,0,0,-1,1994,680,0,0
777,344,0,0,0,0,0,0,0,0,0,-1,2001,680,0,0
784,344,0,0,0,0,0,0,0,0,0,-1,2008,680,0,0
791,344,0,0,0,0,0,0,0,0,0,-1,2015,680,0,0
798,344,0,0,0,0,0,0,0,0,0,-1,2022,680,0,0
805,344,0,0,0,0,0,0,0,0,0,-1,2029,680,0,0
812,344,0,0,0,0,0,0,0,0,0,-1,2036,680,0,0
-700,337,0,0,0,0,0,0,0,0,0,-1,524,687,0,0
-693,337,0,0,0,0,0,0,0,0,0,-1,531,687,0,0
-686,337,0,0,0,0,0,0,0,0,0,-1,538,687,0,0
-679,337,0,0,0,0,0,0,0,0,0,-1,545,687,0,0
-672,337,0,0,0,0,0,0,0,0,0,-1,552,687,0,0
-665,337,0,0,0,0,0,0,0,0,0,-1,559,687,0,0
-658,337,0,0,0,0,0,0,0,0,0,-1,566,687,0,0
-651,337,0,0,0,0,0,0,0,0,0,-1,573,687,0,0
-644,337,0,0,0,0,0,0,0,0,0,-1,580,687,0,0
-637,337,0,0,0,0,0,0,0,0,0,-1,587,687,0,0
-630,337,0,0,0,0,0,0,0,0,0,-1,594,687,0,0
-623,337,0,0,0,0,0,0,0,0,0,-1,601,687,0,0
-616,337,0,0,0,0,0,0,0,0,0,-1,608,687,0,0
-609,337,0,0,0,0,0,0,0,0,0,-1,615,687,0,0
-602,337,0,0,0,0,0,0,0,0,0,-1,622,687,0,0
-595,337,0,0,0,0,0,0,0,0,0,-1,629,687,0,0
-588,337,-10.8413,1.27863,0,0,0,0,0,0,0,-1,636,687,-10.8413,-1.27861
-581,337,-11.2157,1.31567,0,0,0,0,0,0,0,-1,643,687,-11.2157,-1.3157
-574,337,-6.03339,2.0321,0,0,0,0,0,0,0,-1,650,687,-6.03337,-2.03213
-567,337,-13.8102,1.56787,0,0,0,0,0,0,0,-1,657,687,-13.8102,-1.56789
-560,337,-15.5435,2.34247,0,0,0,0,0,0,0,-1,664,687,-15.5435,-2.34247
-553,337,-18.0128,1.12927,0,0,0,0,0,0,0,-1,671,687,-18.0128,-1.12926
-546,337,-18.0244,-2.03845,0,0,0,0,0,0,0,-1,678,687,-18.0244,2.03846
-539,337,-19.2426,-3.53815,0,0,0,0,0,0,0,-1,685,687,-19.2426,3.53813
-532,337,-133.962,2.56409,0,0,0,0,0,0,0,-1,692,687,-133.962,-2.5641
-525,337,-134.556,-0.525452,0.0143321,0.0410842,0.0375139,0.0675354,-0.0121191,0.956652,0.0495597,0.0293165,699,687,-134.556,0.525471
-518,337,-135.155,-3.65674,0.0122901,0.0371672,0.0347593,0.0616465,-0.0121892,0.957223,0.0457058,0.0298463,706,687,-135.155,3.65677
-511,337,-135.943,-6.92664,0.00968612,0.0345782,0.0319542,0.0564247,-0.0121604,0.971108,0.0422572,0.0277023,713,687,-135.943,6.92667
-504,337,-136.666,-10.1645,0.00679297,0.0326015,0.0292225,0.0516421,-0.0122476,0.993316,0.0391544,0.0246985,720,687,-136.666,10.1645
-497,337,-137.333,-13.3661,0.00363105,0.0313829,0.0265563,0.04747,-0.012456,1.02614,0.0365138,0.0182529,727,687,-137.333,13.3662
-490,337,-138.004,-16.6891,5.17393e-05,0.0309537,0.023883,0.0439479,-0.0129425,1.07251,0.0344334,0.0187171,734,687,-138.004,16.6892
-483,337,-138.826,-20.1,-0.00401164,0.031435,0.0212263,0.0413644,-0.013941,1.13325,0.0332133,0.0283764,741,687,-138.826,20.1
-476,337,-139.896,-23.762,-0.008435,0.0328398,0.0184895,0.0399109,-0.0155061,1.20552,0.033013,0.0399115,748,687,-139.896,23.762
-469,337,-141.122,-27.3246,-0.0132091,0.0350197,0.015775,0.0397212,-0.0179105,1.28114,0.0340587,0.0460499,755,687,-141.122,27.3246
-462,337,-143.04,-30.5707,0,0,0,0,0,0,0,-1,762,687,-143.04,30.5708
-455,337,-6.00574,-3.12933,0,0,0,0,0,0,0,-1,769,687,-6.00576,3.12934
-448,337,-5.30627,-2.07202,0,0,0,0,0,0,0,-1,776,687,-5.30628,2.07205
-441,337,-4.24762,-1.49597,0,0,0,0,0,0,0,-1,783,687,-4.24762,1.49598
-434,337,-6.86908,1.37531,0,0,0,0,0,0,0,-1,790,687,-6.86908,-1.3753
-427,337,-9.92004,2.487,0,0,0,0,0,0,0,-1,797,687,-9.92002,-2.48701
-420,337,-2.95996,-1.76697,0,0,0,0,0,0,0,-1,804,687,-2.95998,1.76696
-413,337,-1.29169,-1.99487,0,0,0,0,0,0,0,-1,811,687,-1.29171,1.9949
-406,337,-1.02356,-1.89563,0,0,0,0,0,0,0,-1,818,687,-1.02357,1.89564
-399,337,-0.472839,-2.21338,0,0,0,0,0,0,0,-1,825,687,-0.472837,2.2134
-392,337,0,0,0,0,0,0,0,0,0,-1,832,687,0,0
-385,337,0,0,0,0,0,0,0,0,0,-1,839,687,0,0
-378,337,0,0,0,0,0,0,0,0,0,-1,846,687,0,0
-371,337,0,0,0,0,0,0,0,0,0,-1,853,687,0,0
-364,337,0,0,0,0,0,0,0,0,0,-1,860,687,0,0
-357,337,0,0,0,0,0,0,0,0,0,-1,867,687,0,0
-350,337,0,0,0,0,0,0,0,0,0,-1,874,687,0,0
-343,337,0,0,0,0,0,0,0,0,0,-1,881,687,0,0
-336,337,0,0,0,0,0,0,0,0,0,-1,888,687,0,0
-329,337,0,0,0,0,0,0,0,0,0,-1,895,687,0,0
-322,337,0,0,0,0,0,0,0,0,0,-1,902,687,0,0
-315,337,0,0,0,0,0,0,0,0,0,-1,909,687,0,0
-308,337,0,0,0,0,0,0,0,0,0,-1,916,687,0,0
-301,337,0,0,0,0,0,0,0,0,0,-1,923,687,0,0
-294,337,0,0,0,0,0,0,0,0,0,-1,930,687,0,0
-287,337,0,0,0,0,0,0,0,0,0,-1,937,687,0,0
-280,337,0,0,0,0,0,0,0,0,0,-1,944,687,0,0
-273,337,0,0,0,0,0,0,0,0,0,-1,951,687,0,0
-266,337,0,0,0,0,0,0,0,0,0,-1,958,687,0,0
-259,337,0,0,0,0,0,0,0,0,0,-1,965,687,0,0
-252,337,0,0,0,0,0,0,0,0,0,-1,972,687,0,0
-245,337,0,0,0,0,0,0,0,0,0,-1,979,687,0,0
-238,337,0,0,0,0,0,0,0,0,0,-1,986,687,0,0
-231,337,0,0,0,0,0,0,0,0,0,-1,993,687,0,0
-224,337,0,0,0,0,0,0,0,0,0,-1,1000,687,0,0
-217,337,0,0,0,0,0,0,0,0,0,-1,1007,687,0,0
-210,337,0,0,0,0,0,0,0,0,0,-1,1014,687,0,0
-203,337,0,0,0,0,0,0,0,0,0,-1,1021,687,0,0
-196,337,0,0,0,0,0,0,0,0,0,-1,1028,687,0,0
-189,337,0,0,0,0,0,0,0,0,0,-1,1035,687,0,0
-182,337,0,0,0,0,0,0,0,0,0,-1,1042,687,0,0
-175,337,0,0,0,0,0,0,0,0,0,-1,1049,687,0,0
-168,337,0,0,0,0,0,0,0,0,0,-1,1056,687,0,0
-161,337,0,0,0,0,0,0,0,0,0,-1,1063,687,0,0
-154,337,0,0,0,0,0,0,0,0,0,-1,1070,687,0,0
-147,337,0,0,0,0,0,0,0,0,0,-1,1077,687,0,0
-140,337,0,0,0,0,0,0,0,0,0,-1,1084,687,0,0
-133,337,0,0,0,0,0,0,0,0,0,-1,1091,687,0,0
-126,337,0,0,0,0,0,0,0,0,0,-1,1098,687,0,0
-119,337,0,0,0,0,0,0,0,0,0,-1,1105,687,0,0
-112,337,0,0,0,0,0,0,0,0,0,-1,1112,687,0,0
-105,337,0,0,0,0,0,0,0,0,0,-1,1119,687,0,0
-98,337,0,0,0,0,0,0,0,0,0,-1,1126,687,0,0
-91,337,0,0,0,0,0,0,0,0,0,-1,1133,687,0,0
-84,337,0,0,0,0,0,0,0,0,0,-1,1140,687,0,0
-77,337,0,0,0,0,0,0,0,0,0,-1,1147,687,0,0
-70,337,0,0,0,0,0,0,0,0,0,-1,1154,687,0,0
-63,337,0,0,0,0,0,0,0,0,0,-1,1161,687,0,0
-56,337,0,0,0,0,0,0,0,0,0,-1,1168,687,0,0
-49,337,0,0,0,0,0,0,0,0,0,-1,1175,687,0,0
-42,337,0,0,0,0,0,0,0,0,0,-1,1182,687,0,0
-35,337,0,0,0,0,0,0,0,0,0,-1,1189,687,0,0
-28,337,0,0,0,0,0,0,0,0,0,-1,1196,687,0,0
-21,337,0,0,0,0,0,0,0,0,0,-1,1203,687,0,0
-14,337,0,0,0,0,0,0,0,0,0,-1,1210,687,0,0
-7,337,0,0,0,0,0,0,0,0,0,-1,1217,687,0,0
0,337,0,0,0,0,0,0,0,0,0,-1,1224,687,0,0
7,337,0,0,0,0,0,0,0,0,0,-1,1231,687,0,0
14,337,0,0,0,0,0,0,0,0,0,-1,1238,687,0,0
21,337,0,0,0,0,0,0,0,0,0,-1,1245,687,0,0
28,337,0,0,0,0,0,0,0,0,0,-1,1252,687,0,0
35,337,0,0,0,0,0,0,0,0,0,-1,1259,687,0,0
42,337,0,0,0,0,0,0,0,0,0,-1,1266,687,0,0
49,337,0,0,0,0,0,0,0,0,0,-1,1273,687,0,0
56,337,0,0,0,0,0,0,0,0,0,-1,1280,687,0,0
63,337,0,0,0,0,0,0,0,0,0,-1,1287,687,0,0
70,337,0,0,0,0,0,0,0,0,0,-1,1294,687,0,0
77,337,0,0,0,0,0,0,0,0,0,-1,1301,687,0,0
84,337,0,0,0,0,0,0,0,0,0,-1,1308,687,0,0
91,337,0,0,0,0,0,0,0,0,0,-1,1315,687,0,0
98,337,0,0,0,0,0,0,0,0,0,-1,1322,687,0,0
105,337,0,0,0,0,0,0,0,0,0,-1,1329,687,0,0
112,337,0,0,0,0,0,0,0,0,0,-1,1336,687,0,0
119,337,0,0,0,0,0,0,0,0,0,-1,1343,687,0,0
126,337,0,0,0,0,0,0,0,0,0,-1,1350,687,0,0
133,337,0,0,0,0,0,0,0,0,0,-1,1357,687,0,0
140,337,0,0,0,0,0,0,0,0,0,-1,1364,687,0,0
147,337,0,0,0,0,0,0,0,0,0,-1,1371,687,0,0
154,337,0,0,0,0,0,0,0,0,0,-1,1378,687,0,0
161,337,0,0,0,0,0,0,0,0,0,-1,1385,687,0,0
168,337,0,0,0,0,0,0,0,0,0,-1,1392,687,0,0
175,337,0,0,0,0,0,0,0,0,0,-1,1399,687,0,0
182,337,0,0,0,0,0,0,0,0,0,-1,1406,687,0,0
189,337,0,0,0,0,0,0,0,0,0,-1,1413,687,0,0
196,337,0,0,0,0,0,0,0,0,0,-1,1420,687,0,0
203,337,0,0,0,0,0,0,0,0,0,-1,1427,687,0,0
210,337,0,0,0,0,0,0,0,0,0,-1,1434,687,0,0
217,337,0,0,0,0,0,0,0,0,0,-1,1441,687,0,0
224,337,0,0,0,0,0,0,0,0,0,-1,1448,687,0,0
231,337,0,0,0,0,0,0,0,0,0,-1,1455,687,0,0
238,337,0,0,0,0,0,0,0,0,0,-1,1462,687,0,0
245,337,0,0,0,0,0,0,0,0,0,-1,1469,687,0,0
252,337,0,0,0,0,0,0,0,0,0,-1,1476,687,0,0
259,337,0,0,0,0,0,0,0,0,0,-1,1483,687,0,0
266,337,0,0,0,0,0,0,0,0,0,-1,1490,687,0,0
273,337,0,0,0,0,0,0,0,0,0,-1,1497,687,0,0
280,337,0,0,0,0,0,0,0,0,0,-1,1504,687,0,0
287,337,0,0,0,0,0,0,0,0,0,-1,1511,687,0,0
294,337,0,0,0,0,0,0,0,0,0,-1,1518,687,0,0
301,337,0,0,0,0,0,0,0,0,0,-1,1525,687,0,0
308,337,0,0,0,0,0,0,0,0,0,-1,1532,687,0,0
315,337,0,0,0,0,0,0,0,0,0,-1,1539,687,0,0
322,337,0,0,0,0,0,0,0,0,0,-1,1546,687,0,0
329,337,0,0,0,0,0,0,0,0,0,-1,1553,687,0,0
336,337,0,0,0,0,0,0,0,0,0,-1,1560,687,0,0
343,337,0,0,0,0,0,0,0,0,0,-1,1567,687,0,0
350,337,0,0,0,0,0,0,0,0,0,-1,1574,687,0,0
357,337,0,0,0,0,0,0,0,0,0,-1,1581,687,0,0
364,337,0,0,0,0,0,0,0,0,0,-1,1588,687,0,0
371,337,0,0,0,0,0,0,0,0,0,-1,1595,687,0,0
378,337,0,0,0,0,0,0,0,0,0,-1,1602,687,0,0
385,337,0,0,0,0,0,0,0,0,0,-1,1609,687,0,0
392,337,0,0,0,0,0,0,0,0,0,-1,1616,687,0,0
399,337,0,0,0,0,0,0,0,0,0,-1,1623,687,0,0
406,337,0,0,0,0,0,0,0,0,0,-1,1630,687,0,0
413,337,0,0,0,0,0,0,0,0,0,-1,1637,687,0,0
420,337,0,0,0,0,0,0,0,0,0,-1,1644,687,0,0
427,337,0,0,0,0,0,0,0,0,0,-1,1651,687,0,0
434,337,0,0,0,0,0,0,0,0,0,-1,1658,687,0,0
441,337,0,0,0,0,0,0,0,0,0,-1,1665,687,0,0
448,337,0,0,0,0,0,0,0,0,0,-1,1672,687,0,0
455,337,0,0,0,0,0,0,0,0,0,-1,1679,687,0,0
462,337,0,0,0,0,0,0,0,0,0,-1,1686,687,0,0
469,337,0,0,0,0,0,0,0,0,0,-1,1693,687,0,0
476,337,0,0,0,0,0,0,0,0,0,-1,1700,687,0,0
483,337,0,0,0,0,0,0,0,0,0,-1,1707,687,0,0
490,337,0,0,0,0,0,0,0,0,0,-1,1714,687,0,0
497,337,0,0,0,0,0,0,0,0,0,-1,1721,687,0,0
504,337,0,0,0,0,0,0,0,0,0,-1,1728,687,0,0
511,337,0,0,0,0,0,0,0,0,0,-1,1735,687,0,0
518,337,18.0369,1.64581,0,0,0,0,0,0,0,-1,1742,687,18.0368,-1.64581
525,337,31.0717,2.13745,0,0,0,0,0,0,0,-1,1749,687,31.0717,-2.13747
532,337,31.5126,2.13904,0,0,0,0,0,0,0,-1,1756,687,31.5125,-2.13905
539,337,31.9684,2.15594,0,0,0,0,0,0,0,-1,1763,687,31.9684,-2.15596
546,337,32.3584,1.43719,0,0,0,0,0,0,0,-1,1770,687,32.3585,-1.43722
553,337,32.1809,1.36395,0,0,0,0,0,0,0,-1,1777,687,32.181,-1.36396
560,337,18.4053,3.62793,0,0,0,0,0,0,0,-1,1784,687,18.4052,-3.6279
567,337,11.9288,1.38776,0,0,0,0,0,0,0,-1,1791,687,11.9288,-1.38777
574,337,10.704,1.19476,0,0,0,0,0,0,0,-1,1798,687,10.704,-1.19478
581,337,8.50427,0.561768,0,0,0,0,0,0,0,-1,1805,687,8.5043,-0.561754
588,337,8.5885,-0.0536499,0,0,0,0,0,0,0,-1,1812,687,8.58844,0.0536788
595,337,81.6165,-31.2047,0,0,0,0,0,0,0,-1,1819,687,81.6165,31.2047
602,337,88.9606,-31.2034,0,0,0,0,0,0,0,-1,1826,687,88.9605,31.2034
609,337,149.229,-22.5989,0,0,0,0,0,0,0,-1,1833,687,149.229,22.5989
616,337,148.412,-19.3649,-0.00112526,0.0220557,-0.0140873,0.0287078,-0.00777732,-1.12963,0.02219,0.039076,1840,687,148.412,19.3649
623,337,147.572,-15.8974,-1.15002e-05,0.0239727,-0.0183732,0.033921,-0.00995984,-1.07453,0.0265638,0.0193985,1847,687,147.572,15.8974
630,337,146.768,-12.6095,0.00111934,0.0258949,-0.0225421,0.0392287,-0.0122145,-1.03664,0.0310358,0.0249694,1854,687,146.768,12.6095
637,337,145.978,-9.55396,0.00227107,0.0278488,-0.0265906,0.0445661,-0.0144462,-1.00955,0.0355193,0.0268408,1861,687,145.977,9.55394
644,337,145.258,-6.4538,0.00350729,0.0298845,-0.0305122,0.0499364,-0.0165446,-0.989392,0.0399642,0.0213904,1868,687,145.258,6.4538
651,337,144.635,-3.40405,0.00479912,0.0319522,-0.0342597,0.0552274,-0.018476,-0.974048,0.0442809,0.0189357,1875,687,144.635,3.40404
658,337,144.056,-0.402222,0.00613566,0.0341713,-0.0378456,0.0605117,-0.0202048,-0.962762,0.0484998,0.0198621,1882,687,144.056,0.402219
665,337,143.493,2.56165,0.00771389,0.0367783,-0.0412287,0.065961,-0.0214688,-0.954838,0.0526112,0.0247452,1889,687,143.493,-2.56164
672,337,142.977,5.68896,0,0,0,0,0,0,0,-1,1896,687,142.977,-5.68898
679,337,53.736,-3.5094,0,0,0,0,0,0,0,-1,1903,687,53.736,3.50941
686,337,18.5614,1.68597,0,0,0,0,0,0,0,-1,1910,687,18.5614,-1.68598
693,337,16.5415,2.21411,0,0,0,0,0,0,0,-1,1917,687,16.5415,-2.2141
700,337,17.2661,2.44379,0,0,0,0,0,0,0,-1,1924,687,17.2661,-2.44378
707,337,17.3544,5.61853,0,0,0,0,0,0,0,-1,1931,687,17.3543,-5.61851
714,337,0,0,0,0,0,0,0,0,0,-1,1938,687,0,0
721,337,0,0,0,0,0,0,0,0,0,-1,1945,687,0,0
728,337,0,0,0,0,0,0,0,0,0,-1,1952,687,0,0
735,337,0,0,0,0,0,0,0,0,0,-1,1959,687,0,0
742,337,0,0,0,0,0,0,0,0,0,-1,1966,687,0,0
749,337,0,0,0,0,0,0,0,0,0,-1,1973,687,0,0
756,337,0,0,0,0,0,0,0,0,0,-1,1980,687,0,0
763,337,0,0,0,0,0,0,0,0,0,-1,1987,687,0,0
770,337,0,0,0,0,0,0,0,0,0,-1,1994,687,0,0
777,337,0,0,0,0,0,0,0,0,0,-1,2001,687,0,0
784,337,0,0,0,0,0,0,0,0,0,-1,2008,687,0,0
791,337,0,0,0,0,0,0,0,0,0,-1,2015,687,0,0
798,337,0,0,0,0,0,0,0,0,0,-1,2022,687,0,0
805,337,0,0,0,0,0,0,0,0,0,-1,2029,687,0,0
812,337,0,0,0,0,0,0,0,0,0,-1,2036,687,0,0
-700,330,0,0,0,0,0,0,0,0,0,-1,524,694,0,0
-693,330,0,0,0,0,0,0,0,0,0,-1,531,694,0,0
-686,330,0,0,0,0,0,0,0,0,0,-1,538,694,0,0
-679,330,0,0,0,0,0,0,0,0,0,-1,545,694,0,0
-672,330,0,0,0,0,0,0,0,0,0,-1,552,694,0,0
-665,330,0,0,0,0,0,0,0,0,0,-1,559,694,0,0
-658,330,0,0,0,0,0,0,0,0,0,-1,566,694,0,0
-651,330,0,0,0,0,0,0,0,0,0,-1,573,694,0,0
-644,330,0,0,0,0,0,0,0,0,0,-1,580,694,0,0
-637,330,0,0,0,0,0,0,0,0,0,-1,587,694,0,0
-630,330,0,0,0,0,0,0,0,0,0,-1,594,694,0,0
-623,330,0,0,0,0,0,0,0,0,0,-1,601,694,0,0
-616,330,0,0,0,0,0,0,0,0,0,-1,608,694,0,0
-609,330,0,0,0,0,0,0,0,0,0,-1,615,694,0,0
-602,330,0,0,0,0,0,0,0,0,0,-1,622,694,0,0
-595,330,-4.67883,1.65515,0,0,0,0,0,0,0,-1,629,694,-4.67881,-1.65515
-588,330,-8.5047,2.67346,0,0,0,0,0,0,0,-1,636,694,-8.50469,-2.67348
-581,330,-12.4227,0.947083,0,0,0,0,0,0,0,-1,643,694,-12.4227,-0.947109
-574,330,-9.02118,1.87952,0,0,0,0,0,0,0,-1,650,694,-9.02115,-1.87953
-567,330,-8.35577,0.909973,0,0,0,0,0,0,0,-1,657,694,-8.35575,-0.909945
-560,330,-13.1036,-0.584656,0,0,0,0,0,0,0,-1,664,694,-13.1035,0.584658
-553,330,-17.5484,-1.21545,0,0,0,0,0,0,0,-1,671,694,-17.5484,1.21547
-546,330,-136.008,9.27679,0,0,0,0,0,0,0,-1,678,694,-136.008,-9.27677
-539,330,-136.852,6.24298,0,0,0,0,0,0,0,-1,685,694,-136.852,-6.24295
-532,330,-137.607,3.22437,0.0141514,0.0436815,0.0379126,0.0696027,-0.0117698,0.971087,0.0507818,0.0391973,692,694,-137.607,-3.22438
-525,330,-138.141,0.103088,0.0119736,0.0394721,0.0348597,0.063196,-0.0117503,0.97324,0.0465445,0.015675,699,694,-138.141,-0.10307
-518,330,-138.795,-2.94098,0.00947293,0.0360849,0.03181,0.0572597,-0.0117018,0.983488,0.0426127,0.018508,706,694,-138.795,2.94099
-511,330,-139.542,-6.11157,0.00656843,0.033556,0.0288522,0.0519139,-0.0117895,1.00413,0.0391356,0.0233737,713,694,-139.542,6.11158
-504,330,-140.262,-9.31421,0.00339915,0.0317732,0.0259036,0.0471204,-0.0119481,1.03593,0.0360622,0.0205393,720,694,-140.262,9.31418
-497,330,-140.962,-12.5233,-5.55899e-05,0.0308234,0.023014,0.0430971,-0.0123293,1.08085,0.0336038,0.016743,727,694,-140.962,12.5233
-490,330,-141.671,-15.8984,-0.00400451,0.0308854,0.0201299,0.0400776,-0.0131968,1.14243,0.0320365,0.0227502,734,694,-141.671,15.8983
-483,330,-142.403,-19.2625,0,0,0,0,0,0,0,-1,741,694,-142.403,19.2625
-476,330,-143.685,-23.3131,0,0,0,0,0,0,0,-1,748,694,-143.685,23.3131
-469,330,-144.887,-26.7755,0,0,0,0,0,0,0,-1,755,694,-144.887,26.7755
-462,330,-7.26733,-3.84833,0,0,0,0,0,0,0,-1,762,694,-7.26731,3.84832
-455,330,-5.04254,-1.79303,0,0,0,0,0,0,0,-1,769,694,-5.04252,1.79305
-448,330,-4.89886,-1.66156,0,0,0,0,0,0,0,-1,776,694,-4.89886,1.66157
-441,330,-5.30676,-2.34045,0,0,0,0,0,0,0,-1,783,694,-5.30679,2.34048
-434,330,-7.20428,1.00024,0,0,0,0,0,0,0,-1,790,694,-7.20431,-1.00027
-427,330,-16.0428,2.89258,0,0,0,0,0,0,0,-1,797,694,-16.0428,-2.89259
-420,330,-29.0331,0.271606,0,0,0,0,0,0,0,-1,804,694,-29.0331,-0.27158
-413,330,-29.0896,0.56366,0,0,0,0,0,0,0,-1,811,694,-29.0896,-0.563671
-406,330,-1.65375,-1.74371,0,0,0,0,0,0,0,-1,818,694,-1.65375,1.74371
-399,330,0,0,0,0,0,0,0,0,0,-1,825,694,0,0
-392,330,0,0,0,0,0,0,0,0,0,-1,832,694,0,0
-385,330,0,0,0,0,0,0,0,0,0,-1,839,694,0,0
-378,330,0,0,0,0,0,0,0,0,0,-1,846,694,0,0
-371,330,0,0,0,0,0,0,0,0,0,-1,853,694,0,0
-364,330,0,0,0,0,0,0,0,0,0,-1,860,694,0,0
-357,330,0,0,0,0,0,0,0,0,0,-1,867,694,0,0
-350,330,0,0,0,0,0,0,0,0,0,-1,874,694,0,0
-343,330,0,0,0,0,0,0,0,0,0,-1,881,694,0,0
-336,330,0,0,0,0,0,0,0,0,0,-1,888,694,0,0
-329,330,0,0,0,0,0,0,0,0,0,-1,895,694,0,0
-322,330,0,0,0,0,0,0,0,0,0,-1,902,694,0,0
-315,330,0,0,0,0,0,0,0,0,0,-1,909,694,0,0
-308,330,0,0,0,0,0,0,0,0,0,-1,916,694,0,0
-301,330,0,0,0,0,0,0,0,0,0,-1,923,694,0,0
-294,330,0,0,0,0,0,0,0,0,0,-1,930,694,0,0
-287,330,0,0,0,0,0,0,0,0,0,-1,937,694,0,0
-280,330,0,0,0,0,0,0,0,0,0,-1,944,694,0,0
-273,330,0,0,0,0,0,0,0,0,0,-1,951,694,0,0
-266,330,0,0,0,0,0,0,0,0,0,-1,958,694,0,0
-259,330,0,0,0,0,0,0,0,0,0,-1,965,694,0,0
-252,330,0,0,0,0,0,0,0,0,0,-1,972,694,0,0
-245,330,0,0,0,0,0,0,0,0,0,-1,979,694,0,0
-238,330,0,0,0,0,0,0,0,0,0,-1,986,694,0,0
-231,330,0,0,0,0,0,0,0,0,0,-1,993,694,0,0
-224,330,0,0,0,0,0,0,0,0,0,-1,1000,694,0,0
-217,330,0,0,0,0,0,0,0,0,0,-1,1007,694,0,0
-210,330,0,0,0,0,0,0,0,0,0,-1,1014,694,0,0
-203,330,0,0,0,0,0,0,0,0,0,-1,1021,694,0,0
-196,330,0,0,0,0,0,0,0,0,0,-1,1028,694,0,0
-189,330,0,0,0,0,0,0,0,0,0,-1,1035,694,0,0
-182,330,0,0,0,0,0,0,0,0,0,-1,1042,694,0,0
-175,330,0,0,0,0,0,0,0,0,0,-1,1049,694,0,0
-168,330,0,0,0,0,0,0,0,0,0,-1,1056,694,0,0
-161,330,0,0,0,0,0,0,0,0,0,-1,1063,694,0,0
-154,330,0,0,0,0,0,0,0,0,0,-1,1070,694,0,0
-147,330,0,0,0,0,0,0,0,0,0,-1,1077,694,0,0
-140,330,0,0,0,0,0,0,0,0,0,-1,1084,694,0,0
-133,330,0,0,0,0,0,0,0,0,0,-1,1091,694,0,0
-126,330,0,0,0,0,0,0,0,0,0,-1,1098,694,0,0
-119,330,0,0,0,0,0,0,0,0,0,-1,1105,694,0,0
-112,330,0,0,0,0,0,0,0,0,0,-1,1112,694,0,0
-105,330,0,0,0,0,0,0,0,0,0,-1,1119,694,0,0
-98,330,0,0,0,0,0,0,0,0,0,-1,1126,694,0,0
-91,330,0,0,0,0,0,0,0,0,0,-1,1133,694,0,0
-84,330,0,0,0,0,0,0,0,0,0,-1,1140,694,0,0
-77,330,0,0,0,0,0,0,0,0,0,-1,1147,694,0,0
-70,330,0,0,0,0,0,0,0,0,0,-1,1154,694,0,0
-63,330,0,0,0,0,0,0,0,0,0,-1,1161,694,0,0
-56,330,0,0,0,0,0,0,0,0,0,-1,1168,694,0,0
-49,330,0,0,0,0,0,0,0,0,0,-1,1175,694,0,0
-42,330,0,0,0,0,0,0,0,0,0,-1,1182,694,0,0
-35,330,0,0,0,0,0,0,0,0,0,-1,1189,694,0,0
-28,330,0,0,0,0,0,0,0,0,0,-1,1196,694,0,0
-21,330,0,0,0,0,0,0,0,0,0,-1,1203,694,0,0
-14,330,0,0,0,0,0,0,0,0,0,-1,1210,694,0,0
-7,330,0,0,0,0,0,0,0,0,0,-1,1217,694,0,0
0,330,0,0,0,0,0,0,0,0,0,-1,1224,694,0,0
7,330,0,0,0,0,0,0,0,0,0,-1,1231,694,0,0
14,330,0,0,0,0,0,0,0,0,0,-1,1238,694,0,0
21,330,0,0,0,0,0,0,0,0,0,-1,1245,694,0,0
28,330,0,0,0,0,0,0,0,0,0,-1,1252,694,0,0
35,330,0,0,0,0,0,0,0,0,0,-1,1259,694,0,0
42,330,0,0,0,0,0,0,0,0,0,-1,1266,694,0,0
49,330,0,0,0,0,0,0,0,0,0,-1,1273,694,0,0
56,330,0,0,0,0,0,0,0,0,0,-1,1280,694,0,0
63,330,0,0,0,0,0,0,0,0,0,-1,1287,694,0,0
70,330,0,0,0,0,0,0,0,0,0,-1,1294,694,0,0
77,330,0,0,0,0,0,0,0,0,0,-1,1301,694,0,0
84,330,0,0,0,0,0,0,0,0,0,-1,1308,694,0,0
91,330,0,0,0,0,0,0,0,0,0,-1,1315,694,0,0
98,330,0,0,0,0,0,0,0,0,0,-1,1322,694,0,0
105,330,0,0,0,0,0,0,0,0,0,-1,1329,694,0,0
112,330,0,0,0,0,0,0,0,0,0,-1,1336,694,0,0
119,330,0,0,0,0,0,0,0,0,0,-1,1343,694,0,0
126,330,0,0,0,0,0,0,0,0,0,-1,1350,694,0,0
133,330,0,0,0,0,0,0,0,0,0,-1,1357,694,0,0
140,330,0,0,0,0,0,0,0,0,0,-1,1364,694,0,0
147,330,0,0,0,0,0,0,0,0,0,-1,1371,694,0,0
154,330,0,0,0,0,0,0,0,0,0,-1,1378,694,0,0
161,330,0,0,0,0,0,0,0,0,0,-1,1385,694,0,0
168,330,0,0,0,0,0,0,0,0,0,-1,1392,694,0,0
175,330,0,0,0,0,0,0,0,0,0,-1,1399,694,0,0
182,330,0,0,0,0,0,0,0,0,0,-1,1406,694,0,0
189,330,0,0,0,0,0,0,0,0,0,-1,1413,694,0,0
196,330,0,0,0,0,0,0,0,0,0,-1,1420,694,0,0
203,330,0,0,0,0,0,0,0,0,0,-1,1427,694,0,0
210,330,0,0,0,0,0,0,0,0,0,-1,1434,694,0,0
217,330,0,0,0,0,0,0,0,0,0,-1,1441,694,0,0
224,330,0,0,0,0,0,0,0,0,0,-1,1448,694,0,0
231,330,0,0,0,0,0,0,0,0,0,-1,1455,694,0,0
238,330,0,0,0,0,0,0,0,0,0,-1,1462,694,0,0
245,330,0,0,0,0,0,0,0,0,0,-1,1469,694,0,0
252,330,0,0,0,0,0,0,0,0,0,-1,1476,694,0,0
259,330,0,0,0,0,0,0,0,0,0,-1,1483,694,0,0
266,330,0,0,0,0,0,0,0,0,0,-1,1490,694,0,0
273,330,0,0,0,0,0,0,0,0,0,-1,1497,694,0,0
280,330,0,0,0,0,0,0,0,0,0,-1,1504,694,0,0
287,330,0,0,0,0,0,0,0,0,0,-1,1511,694,0,0
294,330,0,0,0,0,0,0,0,0,0,-1,1518,694,0,0
301,330,0,0,0,0,0,0,0,0,0,-1,1525,694,0,0
308,330,0,0,0,0,0,0,0,0,0,-1,1532,694,0,0
315,330,0,0,0,0,0,0,0,0,0,-1,1539,694,0,0
322,330,0,0,0,0,0,0,0,0,0,-1,1546,694,0,0
329,330,0,0,0,0,0,0,0,0,0,-1,1553,694,0,0
336,330,0,0,0,0,0,0,0,0,0,-1,1560,694,0,0
343,330,0,0,0,0,0,0,0,0,0,-1,1567,694,0,0
350,330,0,0,0,0,0,0,0,0,0,-1,1574,694,0,0
357,330,0,0,0,0,0,0,0,0,0,-1,1581,694,0,0
364,330,0,0,0,0,0,0,0,0,0,-1,1588,694,0,0
371,330,0,0,0,0,0,0,0,0,0,-1,1595,694,0,0
378,330,0,0,0,0,0,0,0,0,0,-1,1602,694,0,0
385,330,0,0,0,0,0,0,0,0,0,-1,1609,694,0,0
392,330,0,0,0,0,0,0,0,0,0,-1,1616,694,0,0
399,330,0,0,0,0,0,0,0,0,0,-1,1623,694,0,0
406,330,0,0,0,0,0,0,0,0,0,-1,1630,694,0,0
413,330,0,0,0,0,0,0,0,0,0,-1,1637,694,0,0
420,330,0,0,0,0,0,0,0,0,0,-1,1644,694,0,0
427,330,0,0,0,0,0,0,0,0,0,-1,1651,694,0,0
434,330,0,0,0,0,0,0,0,0,0,-1,1658,694,0,0
441,330,0,0,0,0,0,0,0,0,0,-1,1665,694,0,0
448,330,0,0,0,0,0,0,0,0,0,-1,1672,694,0,0
455,330,0,0,0,0,0,0,0,0,0,-1,1679,694,0,0
462,330,0,0,0,0,0,0,0,0,0,-1,1686,694,0,0
469,330,0,0,0,0,0,0,0,0,0,-1,1693,694,0,0
476,330,0,0,0,0,0,0,0,0,0,-1,1700,694,0,0
483,330,0,0,0,0,0,0,0,0,0,-1,1707,694,0,0
490,330,0,0,0,0,0,0,0,0,0,-1,1714,694,0,0
497,330,0,0,0,0,0,0,0,0,0,-1,1721,694,0,0
504,330,0,0,0,0,0,0,0,0,0,-1,1728,694,0,0
511,330,0,0,0,0,0,0,0,0,0,-1,1735,694,0,0
518,330,0,0,0,0,0,0,0,0,0,-1,1742,694,0,0
525,330,30.6694,0.69519,0,0,0,0,0,0,0,-1,1749,694,30.6694,-0.695206
532,330,30.9469,1.32501,0,0,0,0,0,0,0,-1,1756,694,30.9469,-1.32501
539,330,31.5155,1.62506,0,0,0,0,0,0,0,-1,1763,694,31.5155,-1.62507
546,330,31.4187,1.85651,0,0,0,0,0,0,0,-1,1770,694,31.4187,-1.85651
553,330,31.8452,1.81476,0,0,0,0,0,0,0,-1,1777,694,31.8452,-1.81475
560,330,32.2401,2.43225,0,0,0,0,0,0,0,-1,1784,694,32.2401,-2.43227
567,330,18.0321,3.98578,0,0,0,0,0,0,0,-1,1791,694,18.0321,-3.98576
574,330,12.0454,2.1662,0,0,0,0,0,0,0,-1,1798,694,12.0455,-2.16618
581,330,11.4215,4.50836,0,0,0,0,0,0,0,-1,1805,694,11.4215,-4.50837
588,330,6.45667,-0.0630493,0,0,0,0,0,0,0,-1,1812,694,6.45661,0.0630695
595,330,79.1702,-27.7747,0,0,0,0,0,0,0,-1,1819,694,79.1702,27.7747
602,330,88.7308,-30.3799,0,0,0,0,0,0,0,-1,1826,694,88.7308,30.38
609,330,152.9,-21.9742,0,0,0,0,0,0,0,-1,1833,694,152.9,21.9742
616,330,151.901,-18.5116,-0.00204694,0.0215839,-0.00987127,0.0251648,-0.00562782,-1.2228,0.0189334,0.0475271,1840,694,151.901,18.5116
623,330,151.124,-15.0543,-0.00107602,0.0232382,-0.0143116,0.0298592,-0.00769699,-1.13749,0.022907,0.0188221,1847,694,151.124,15.0543
630,330,150.392,-11.827,-3.00968e-05,0.0249808,-0.0186032,0.034891,-0.00994036,-1.08132,0.0271868,0.0207987,1854,694,150.392,11.827
637,330,149.581,-8.69659,0.00107387,0.0268081,-0.0227616,0.0400877,-0.0122057,-1.04266,0.0315898,0.0188104,1861,694,149.581,8.6966
644,330,148.899,-5.63379,0.00225317,0.0287802,-0.0267674,0.0453899,-0.0143566,-1.01542,0.0360124,0.0150902,1868,694,148.899,5.63379
651,330,148.181,-2.70087,0.00353736,0.030852,-0.0305961,0.0507005,-0.0163112,-0.995315,0.0403517,0.02138,1875,694,148.181,2.70088
658,330,147.559,0.288452,0.00484888,0.0331273,-0.0342582,0.0560494,-0.0180733,-0.981112,0.0446277,0.0203114,1882,694,147.559,-0.288433
665,330,146.899,3.24677,0.00627834,0.0357544,-0.0377048,0.0614992,-0.0194665,-0.971708,0.0488002,0.0189588,1889,694,146.899,-3.24678
672,330,146.303,6.26532,0,0,0,0,0,0,0,-1,1896,694,146.303,-6.2653
679,330,59.6794,-2.67194,0,0,0,0,0,0,0,-1,1903,694,59.6795,2.67195
686,330,30.6691,0.582825,0,0,0,0,0,0,0,-1,1910,694,30.6691,-0.582798
693,330,17.3999,2.5976,0,0,0,0,0,0,0,-1,1917,694,17.4,-2.59759
700,330,17.1072,4.13,0,0,0,0,0,0,0,-1,1924,694,17.1071,-4.13002
707,330,16.663,4.88672,0,0,0,0,0,0,0,-1,1931,694,16.6629,-4.88673
714,330,16.5454,5.80896,0,0,0,0,0,0,0,-1,1938,694,16.5454,-5.80899
721,330,0,0,0,0,0,0,0,0,0,-1,1945,694,0,0
728,330,0,0,0,0,0,0,0,0,0,-1,1952,694,0,0
735,330,0,0,0,0,0,0,0,0,0,-1,1959,694,0,0
742,330,0,0,0,0,0,0,0,0,0,-1,1966,694,0,0
749,330,0,0,0,0,0,0,0,0,0,-1,1973,694,0,0
756,330,0,0,0,0,0,0,0,0,0,-1,1980,694,0,0
763,330,0,0,0,0,0,0,0,0,0,-1,1987,694,0,0
770,330,0,0,0,0,0,0,0,0,0,-1,1994,694,0,0
777,330,0,0,0,0,0,0,0,0,0,-1,2001,694,0,0
784,330,0,0,0,0,0,0,0,0,0,-1,2008,694,0,0
791,330,0,0,0,0,0,0,0,0,0,-1,2015,694,0,0
798,330,0,0,0,0,0,0,0,0,0,-1,2022,694,0,0
805,330,0,0,0,0,0,0,0,0,0,-1,2029,694,0,0
812,330,0,0,0,0,0,0,0,0,0,-1,2036,694,0,0
-700,323,0,0,0,0,0,0,0,0,0,-1,524,701,0,0
-693,323,0,0,0,0,0,0,0,0,0,-1,531,701,0,0
-686,323,0,0,0,0,0,0,0,0,0,-1,538,701,0,0
-679,323,0,0,0,0,0,0,0,0,0,-1,545,701,0,0
-672,323,0,0,0,0,0,0,0,0,0,-1,552,701,0,0
-665,323,0,0,0,0,0,0,0,0,0,-1,559,701,0,0
-658,323,0,0,0,0,0,0,0,0,0,-1,566,701,0,0
-651,323,0,0,0,0,0,0,0,0,0,-1,573,701,0,0
-644,323,0,0,0,0,0,0,0,0,0,-1,580,701,0,0
-637,323,0,0,0,0,0,0,0,0,0,-1,587,701,0,0
-630,323,0,0,0,0,0,0,0,0,0,-1,594,701,0,0
-623,323,0,0,0,0,0,0,0,0,0,-1,601,701,0,0
-616,323,0,0,0,0,0,0,0,0,0,-1,608,701,0,0
-609,323,0,0,0,0,0,0,0,0,0,-1,615,701,0,0
-602,323,-4.15833,2.12256,0,0,0,0,0,0,0,-1,622,701,-4.1583,-2.12257
-595,323,-4.052,1.79156,0,0,0,0,0,0,0,-1,629,701,-4.05198,-1.79158
-588,323,-4.07019,1.94543,0,0,0,0,0,0,0,-1,636,701,-4.07019,-1.94542
-581,323,-6.63727,0.562805,0,0,0,0,0,0,0,-1,643,701,-6.63728,-0.56279
-574,323,-6.15887,0.426697,0,0,0,0,0,0,0,-1,650,701,-6.15887,-0.426727
-567,323,-10.0015,0.0371094,0,0,0,0,0,0,0,-1,657,701,-10.0015,-0.037126
-560,323,-16.3503,-1.16956,0,0,0,0,0,0,0,-1,664,701,-16.3503,1.16957
-553,323,-139.454,12.0856,0,0,0,0,0,0,0,-1,671,701,-139.454,-12.0856
-546,323,-139.915,9.46179,0.0153871,0.0494757,0.0422298,0.0779711,-0.0131083,0.977204,0.0568561,0.0444737,678,701,-139.915,-9.46179
-539,323,-140.474,6.65607,0.0132262,0.045597,0.0384619,0.0711403,-0.0123171,0.984559,0.0520209,0.0341076,685,701,-140.474,-6.65609
-532,323,-141.068,3.74921,0.0112157,0.0415503,0.0350827,0.064604,-0.011838,0.989429,0.0475095,0.0175531,692,701,-141.068,-3.74918
-525,323,-141.618,0.850647,0.00901819,0.0377026,0.0318562,0.0582963,-0.0115755,0.996915,0.0432423,0.012257,699,701,-141.618,-0.850628
-518,323,-142.279,-2.23846,0.0064195,0.0346933,0.0286634,0.0525164,-0.0114036,1.0145,0.0393666,0.0134176,706,701,-142.279,2.23846
-511,323,-142.992,-5.35156,0.00345889,0.0322655,0.0256195,0.0472529,-0.0115285,1.04148,0.035966,0.0175168,713,701,-142.992,5.35155
-504,323,-143.703,-8.50616,0.000197567,0.0306809,0.022552,0.0426587,-0.0117802,1.08256,0.0330728,0.0187004,720,701,-143.703,8.50614
-497,323,-144.461,-11.6812,-0.00343818,0.0300393,0.0194922,0.0389936,-0.0123925,1.14017,0.0309645,0.0193456,727,701,-144.461,11.6811
-490,323,-145.25,-14.9528,-0.00770244,0.030686,0.0164482,0.0367695,-0.0137859,1.21654,0.0301769,0.035936,734,701,-145.25,14.9528
-483,323,-145.92,-18.3567,0,0,0,0,0,0,0,-1,741,701,-145.92,18.3567
-476,323,-86.7814,-28.3901,0,0,0,0,0,0,0,-1,748,701,-86.7815,28.3902
-469,323,-8.33301,-3.64001,0,0,0,0,0,0,0,-1,755,701,-8.33298,3.64
-462,323,-5.29431,-1.45697,0,0,0,0,0,0,0,-1,762,701,-5.29431,1.45699
-455,323,-5.0658,-1.36639,0,0,0,0,0,0,0,-1,769,701,-5.06578,1.3664
-448,323,-4.91608,-1.59601,0,0,0,0,0,0,0,-1,776,701,-4.91606,1.59604
-441,323,-14.4006,0.535217,0,0,0,0,0,0,0,-1,783,701,-14.4006,-0.535203
-434,323,-15.3158,2.479,0,0,0,0,0,0,0,-1,790,701,-15.3158,-2.47898
-427,323,-28.3923,1.16797,0,0,0,0,0,0,0,-1,797,701,-28.3923,-1.16796
-420,323,-28.7292,1.09302,0,0,0,0,0,0,0,-1,804,701,-28.7292,-1.09304
-413,323,-28.7955,1.22418,0,0,0,0,0,0,0,-1,811,701,-28.7956,-1.22419
-406,323,0,0,0,0,0,0,0,0,0,-1,818,701,0,0
-399,323,0,0,0,0,0,0,0,0,0,-1,825,701,0,0
-392,323,0,0,0,0,0,0,0,0,0,-1,832,701,0,0
-385,323,0,0,0,0,0,0,0,0,0,-1,839,701,0,0
-378,323,0,0,0,0,0,0,0,0,0,-1,846,701,0,0
-371,323,0,0,0,0,0,0,0,0,0,-1,853,701,0,0
-364,323,0,0,0,0,0,0,0,0,0,-1,860,701,0,0
-357,323,0,0,0,0,0,0,0,0,0,-1,867,701,0,0
-350,323,0,0,0,0,0,0,0,0,0,-1,874,701,0,0
-343,323,0,0,0,0,0,0,0,0,0,-1,881,701,0,0
-336,323,0,0,0,0,0,0,0,0,0,-1,888,701,0,0
-329,323,0,0,0,0,0,0,0,0,0,-1,895,701,0,0
-322,323,0,0,0,0,0,0,0,0,0,-1,902,701,0,0
-315,323,0,0,0,0,0,0,0,0,0,-1,909,701,0,0
-308,323,0,0,0,0,0,0,0,0,0,-1,916,701,0,0
-301,323,0,0,0,0,0,0,0,0,0,-1,923,701,0,0
-294,323,0,0,0,0,0,0,0,0,0,-1,930,701,0,0
-287,323,0,0,0,0,0,0,0,0,0,-1,937,701,0,0
-280,323,0,0,0,0,0,0,0,0,0,-1,944,701,0,0
-273,323,0,0,0,0,0,0,0,0,0,-1,951,701,0,0
-266,323,0,0,0,0,0,0,0,0,0,-1,958,701,0,0
-259,323,0,0,0,0,0,0,0,0,0,-1,965,701,0,0
-252,323,0,0,0,0,0,0,0,0,0,-1,972,701,0,0
-245,323,0,0,0,0,0,0,0,0,0,-1,979,701,0,0
-238,323,0,0,0,0,0,0,0,0,0,-1,986,701,0,0
-231,323,0,0,0,0,0,0,0,0,0,-1,993,701,0,0
-224,323,0,0,0,0,0,0,0,0,0,-1,1000,701,0,0
-217,323,0,0,0,0,0,0,0,0,0,-1,1007,701,0,0
-210,323,0,0,0,0,0,0,0,0,0,-1,1014,701,0,0
-203,323,0,0,0,0,0,0,0,0,0,-1,1021,701,0,0
-196,323,0,0,0,0,0,0,0,0,0,-1,1028,701,0,0
-189,323,0,0,0,0,0,0,0,0,0,-1,1035,701,0,0
-182,323,0,0,0,0,0,0,0,0,0,-1,1042,701,0,0
-175,323,0,0,0,0,0,0,0,0,0,-1,1049,701,0,0
-168,323,0,0,0,0,0,0,0,0,0,-1,1056,701,0,0
-161,323,0,0,0,0,0,0,0,0,0,-1,1063,701,0,0
-154,323,0,0,0,0,0,0,0,0,0,-1,1070,701,0,0
-147,323,0,0,0,0,0,0,0,0,0,-1,1077,701,0,0
-140,323,0,0,0,0,0,0,0,0,0,-1,1084,701,0,0
-133,323,0,0,0,0,0,0,0,0,0,-1,1091,701,0,0
-126,323,0,0,0,0,0,0,0,0,0,-1,1098,701,0,0
-119,323,0,0,0,0,0,0,0,0,0,-1,1105,701,0,0
-112,323,0,0,0,0,0,0,0,0,0,-1,1112,701,0,0
-105,323,0,0,0,0,0,0,0,0,0,-1,1119,701,0,0
-98,323,0,0,0,0,0,0,0,0,0,-1,1126,701,0,0
-91,323,0,0,0,0,0,0,0,0,0,-1,1133,701,0,0
-84,323,0,0,0,0,0,0,0,0,0,-1,1140,701,0,0
-77,323,0,0,0,0,0,0,0,0,0,-1,1147,701,0,0
-70,323,0,0,0,0,0,0,0,0,0,-1,1154,701,0,0
-63,323,0,0,0,0,0,0,0,0,0,-1,1161,701,0,0
-56,323,0,0,0,0,0,0,0,0,0,-1,1168,701,0,0
-49,323,0,0,0,0,0,0,0,0,0,-1,1175,701,0,0
-42,323,0,0,0,0,0,0,0,0,0,-1,1182,701,0,0
-35,323,0,0,0,0,0,0,0,0,0,-1,1189,701,0,0
-28,323,0,0,0,0,0,0,0,0,0,-1,1196,701,0,0
-21,323,0,0,0,0,0,0,0,0,0,-1,1203,701,0,0
-14,323,0,0,0,0,0,0,0,0,0,-1,1210,701,0,0
-7,323,0,0,0,0,0,0,0,0,0,-1,1217,701,0,0
0,323,0,0,0,0,0,0,0,0,0,-1,1224,701,0,0
7,323,0,0,0,0,0,0,0,0,0,-1,1231,701,0,0
14,323,0,0,0,0,0,0,0,0,0,-1,1238,701,0,0
21,323,0,0,0,0,0,0,0,0,0,-1,1245,701,0,0
28,323,0,0,0,0,0,0,0,0,0,-1,1252,701,0,0
35,323,0,0,0,0,0,0,0,0,0,-1,1259,701,0,0
42,323,0,0,0,0,0,0,0,0,0,-1,1266,701,0,0
49,323,0,0,0,0,0,0,0,0,0,-1,1273,701,0,0
56,323,0,0,0,0,0,0,0,0,0,-1,1280,701,0,0
63,323,0,0,0,0,0,0,0,0,0,-1,1287,701,0,0
70,323,0,0,0,0,0,0,0,0,0,-1,1294,701,0,0
77,323,0,0,0,0,0,0,0,0,0,-1,1301,701,0,0
84,323,0,0,0,0,0,0,0,0,0,-1,1308,701,0,0
91,323,0,0,0,0,0,0,0,0,0,-1,1315,701,0,0
98,323,0,0,0,0,0,0,0,0,0,-1,1322,701,0,0
105,323,0,0,0,0,0,0,0,0,0,-1,1329,701,0,0
112,323,0,0,0,0,0,0,0,0,0,-1,1336,701,0,0
119,323,0,0,0,0,0,0,0,0,0,-1,1343,701,0,0
126,323,0,0,0,0,0,0,0,0,0,-1,1350,701,0,0
133,323,0,0,0,0,0,0,0,0,0,-1,1357,701,0,0
140,323,0,0,0,0,0,0,0,0,0,-1,1364,701,0,0
147,323,0,0,0,0,0,0,0,0,0,-1,1371,701,0,0
154,323,0,0,0,0,0,0,0,0,0,-1,1378,701,0,0
161,323,0,0,0,0,0,0,0,0,0,-1,1385,701,0,0
168,323,0,0,0,0,0,0,0,0,0,-1,1392,701,0,0
175,323,0,0,0,0,0,0,0,0,0,-1,1399,701,0,0
182,323,0,0,0,0,0,0,0,0,0,-1,1406,701,0,0
189,323,0,0,0,0,0,0,0,0,0,-1,1413,701,0,0
196,323,0,0,0,0,0,0,0,0,0,-1,1420,701,0,0
203,323,0,0,0,0,0,0,0,0,0,-1,1427,701,0,0
210,323,0,0,0,0,0,0,0,0,0,-1,1434,701,0,0
217,323,0,0,0,0,0,0,0,0,0,-1,1441,701,0,0
224,323,0,0,0,0,0,0,0,0,0,-1,1448,701,0,0
231,323,0,0,0,0,0,0,0,0,0,-1,1455,701,0,0
238,323,0,0,0,0,0,0,0,0,0,-1,1462,701,0,0
245,323,0,0,0,0,0,0,0,0,0,-1,1469,701,0,0
252,323,0,0,0,0,0,0,0,0,0,-1,1476,701,0,0
259,323,0,0,0,0,0,0,0,0,0,-1,1483,701,0,0
266,323,0,0,0,0,0,0,0,0,0,-1,1490,701,0,0
273,323,0,0,0,0,0,0,0,0,0,-1,1497,701,0,0
280,323,0,0,0,0,0,0,0,0,0,-1,1504,701,0,0
287,323,0,0,0,0,0,0,0,0,0,-1,1511,701,0,0
294,323,0,0,0,0,0,0,0,0,0,-1,1518,701,0,0
301,323,0,0,0,0,0,0,0,0,0,-1,1525,701,0,0
308,323,0,0,0,0,0,0,0,0,0,-1,1532,701,0,0
315,323,0,0,0,0,0,0,0,0,0,-1,1539,701,0,0
322,323,0,0,0,0,0,0,0,0,0,-1,1546,701,0,0
329,323,0,0,0,0,0,0,0,0,0,-1,1553,701,0,0
336,323,0,0,0,0,0,0,0,0,0,-1,1560,701,0,0
343,323,0,0,0,0,0,0,0,0,0,-1,1567,701,0,0
350,323,0,0,0,0,0,0,0,0,0,-1,1574,701,0,0
357,323,0,0,0,0,0,0,0,0,0,-1,1581,701,0,0
364,323,0,0,0,0,0,0,0,0,0,-1,1588,701,0,0
371,323,0,0,0,0,0,0,0,0,0,-1,1595,701,0,0
378,323,0,0,0,0,0,0,0,0,0,-1,1602,701,0,0
385,323,0,0,0,0,0,0,0,0,0,-1,1609,701,0,0
392,323,0,0,0,0,0,0,0,0,0,-1,1616,701,0,0
399,323,0,0,0,0,0,0,0,0,0,-1,1623,701,0,0
406,323,0,0,0,0,0,0,0,0,0,-1,1630,701,0,0
413,323,0,0,0,0,0,0,0,0,0,-1,1637,701,0,0
420,323,0,0,0,0,0,0,0,0,0,-1,1644,701,0,0
427,323,0,0,0,0,0,0,0,0,0,-1,1651,701,0,0
434,323,0,0,0,0,0,0,0,0,0,-1,1658,701,0,0
441,323,0,0,0,0,0,0,0,0,0,-1,1665,701,0,0
448,323,0,0,0,0,0,0,0,0,0,-1,1672,701,0,0
455,323,0,0,0,0,0,0,0,0,0,-1,1679,701,0,0
462,323,0,0,0,0,0,0,0,0,0,-1,1686,701,0,0
469,323,0,0,0,0,0,0,0,0,0,-1,1693,701,0,0
476,323,0,0,0,0,0,0,0,0,0,-1,1700,701,0,0
483,323,0,0,0,0,0,0,0,0,0,-1,1707,701,0,0
490,323,0,0,0,0,0,0,0,0,0,-1,1714,701,0,0
497,323,0,0,0,0,0,0,0,0,0,-1,1721,701,0,0
504,323,0,0,0,0,0,0,0,0,0,-1,1728,701,0,0
511,323,0,0,0,0,0,0,0,0,0,-1,1735,701,0,0
518,323,0,0,0,0,0,0,0,0,0,-1,1742,701,0,0
525,323,0,0,0,0,0,0,0,0,0,-1,1749,701,0,0
532,323,33.6193,1.69446,0,0,0,0,0,0,0,-1,1756,701,33.6193,-1.69444
539,323,32.2698,2.44037,0,0,0,0,0,0,0,-1,1763,701,32.2697,-2.44036
546,323,31.1644,3.9444,0,0,0,0,0,0,0,-1,1770,701,31.1644,-3.94438
553,323,30.2488,5.8775,0,0,0,0,0,0,0,-1,1777,701,30.2487,-5.87752
560,323,40.6711,1.25153,0,0,0,0,0,0,0,-1,1784,701,40.6711,-1.25154
567,323,42.1637,2.01208,0,0,0,0,0,0,0,-1,1791,701,42.1637,-2.01207
574,323,12.514,5.89685,0,0,0,0,0,0,0,-1,1798,701,12.5141,-5.89683
581,323,11.821,5.3476,0,0,0,0,0,0,0,-1,1805,701,11.821,-5.34762
588,323,11.7933,7.00818,0,0,0,0,0,0,0,-1,1812,701,11.7933,-7.00819
595,323,6.67847,0.06604,0,0,0,0,0,0,0,-1,1819,701,6.67841,-0.0660418
602,323,82.4321,-26.4705,0,0,0,0,0,0,0,-1,1826,701,82.4321,26.4705
609,323,136.009,-22.1287,0,0,0,0,0,0,0,-1,1833,701,136.009,22.1287
616,323,155.207,-17.4825,0,0,0,0,0,0,0,-1,1840,701,155.207,17.4825
623,323,154.614,-14.3456,-0.00233391,0.0227902,-0.0102266,0.0264266,-0.00597026,-1.22916,0.0199085,0.026079,1847,701,154.614,14.3456
630,323,153.789,-11.1132,-0.00133295,0.024249,-0.0146781,0.0309274,-0.00801132,-1.1438,0.0237436,0.0214125,1854,701,153.789,11.1132
637,323,153.021,-7.94275,-0.000232545,0.0258617,-0.018956,0.0358267,-0.0101975,-1.08681,0.0279117,0.0166114,1861,701,153.021,7.94278
644,323,152.393,-4.94061,0.000932059,0.0277008,-0.0230326,0.0409555,-0.0123226,-1.0486,0.0322069,0.0121614,1868,701,152.393,4.9406
651,323,151.706,-1.95599,0.0022088,0.029767,-0.0268866,0.0461997,-0.0142239,-1.02219,0.0364775,0.0172304,1875,701,151.706,1.95602
658,323,151.094,1.07214,0.00349102,0.0320862,-0.0305476,0.0515166,-0.0159394,-1.00428,0.0407113,0.0225976,1882,701,151.094,-1.07213
665,323,150.47,3.94739,0.0048077,0.0347807,-0.0339634,0.0569171,-0.0173286,-0.993177,0.044851,0.022408,1889,701,150.47,-3.94741
672,323,149.994,6.81769,0.00632753,0.0378713,-0.036935,0.062261,-0.0180621,-0.987187,0.0486586,0.0434135,1896,701,149.994,-6.81767
679,323,149.51,9.987,0,0,0,0,0,0,0,-1,1903,701,149.51,-9.98701
686,323,30.4916,0.378235,0,0,0,0,0,0,0,-1,1910,701,30.4916,-0.37825
693,323,23.8806,1.08844,0,0,0,0,0,0,0,-1,1917,701,23.8806,-1.08845
700,323,10.7705,0.828613,0,0,0,0,0,0,0,-1,1924,701,10.7705,-0.828591
707,323,16.9005,4.79193,0,0,0,0,0,0,0,-1,1931,701,16.9005,-4.7919
714,323,16.2346,6.25958,0,0,0,0,0,0,0,-1,1938,701,16.2346,-6.25956
721,323,0,0,0,0,0,0,0,0,0,-1,1945,701,0,0
728,323,0,0,0,0,0,0,0,0,0,-1,1952,701,0,0
735,323,0,0,0,0,0,0,0,0,0,-1,1959,701,0,0
742,323,0,0,0,0,0,0,0,0,0,-1,1966,701,0,0
749,323,0,0,0,0,0,0,0,0,0,-1,1973,701,0,0
756,323,0,0,0,0,0,0,0,0,0,-1,1980,701,0,0
763,323,0,0,0,0,0,0,0,0,0,-1,1987,701,0,0
770,323,0,0,0,0,0,0,0,0,0,-1,1994,701,0,0
777,323,0,0,0,0,0,0,0,0,0,-1,2001,701,0,0
784,323,0,0,0,0,0,0,0,0,0,-1,2008,701,0,0
791,323,0,0,0,0,0,0,0,0,0,-1,2015,701,0,0
798,323,0,0,0,0,0,0,0,0,0,-1,2022,701,0,0
805,323,0,0,0,0,0,0,0,0,0,-1,2029,701,0,0
812,323,0,0,0,0,0,0,0,0,0,-1,2036,701,0,0
-700,316,0,0,0,0,0,0,0,0,0,-1,524,708,0,0
-693,316,0,0,0,0,0,0,0,0,0,-1,531,708,0,0
-686,316,0,0,0,0,0,0,0,0,0,-1,538,708,0,0
-679,316,0,0,0,0,0,0,0,0,0,-1,545,708,0,0
-672,316,0,0,0,0,0,0,0,0,0,-1,552,708,0,0
-665,316,0,0,0,0,0,0,0,0,0,-1,559,708,0,0
-658,316,0,0,0,0,0,0,0,0,0,-1,566,708,0,0
-651,316,0,0,0,0,0,0,0,0,0,-1,573,708,0,0
-644,316,0,0,0,0,0,0,0,0,0,-1,580,708,0,0
-637,316,0,0,0,0,0,0,0,0,0,-1,587,708,0,0
-630,316,0,0,0,0,0,0,0,0,0,-1,594,708,0,0
-623,316,0,0,0,0,0,0,0,0,0,-1,601,708,0,0
-616,316,0,0,0,0,0,0,0,0,0,-1,608,708,0,0
-609,316,0,0,0,0,0,0,0,0,0,-1,615,708,0,0
-602,316,-0.451782,-0.0494995,0,0,0,0,0,0,0,-1,622,708,-0.451768,0.0495022
-595,316,-3.3761,2.17188,0,0,0,0,0,0,0,-1,629,708,-3.37609,-2.17189
-588,316,-5.00177,2.60675,0,0,0,0,0,0,0,-1,636,708,-5.00175,-2.60676
-581,316,-3.94653,0.393433,0,0,0,0,0,0,0,-1,643,708,-3.94655,-0.39342
-574,316,-9.67395,1.06067,0,0,0,0,0,0,0,-1,650,708,-9.67396,-1.06065
-567,316,-10.1962,0.448425,0,0,0,0,0,0,0,-1,657,708,-10.1962,-0.448411
-560,316,-18.9941,-1.75067,0,0,0,0,0,0,0,-1,664,708,-18.9941,1.75068
-553,316,-143.017,13.0421,0,0,0,0,0,0,0,-1,671,708,-143.017,-13.0421
-546,316,-143.539,10.1204,0.0122286,0.0472601,0.039308,0.0727783,-0.0132895,0.994994,0.0535017,0.0423422,678,708,-143.539,-10.1204
-539,316,-144.086,7.12036,0.0103927,0.0434931,0.0355109,0.0661211,-0.0122354,1.00346,0.0486745,0.0186663,685,708,-144.086,-7.12039
-532,316,-144.629,4.24475,0.00847087,0.0396494,0.0320329,0.0596849,-0.0115647,1.01186,0.0441526,0.0151765,692,708,-144.629,-4.24473
-525,316,-145.141,1.38959,0.00624776,0.0360892,0.0286932,0.0535093,-0.0111723,1.02516,0.0399215,0.0147037,699,708,-145.141,-1.38956
-518,316,-145.79,-1.5722,0.00356872,0.0333293,0.0254208,0.0479048,-0.0110068,1.05019,0.0361681,0.0141934,706,708,-145.79,1.5722
-511,316,-146.461,-4.62579,0.000538152,0.0309829,0.0223285,0.0427843,-0.0112632,1.08458,0.0329258,0.0143059,713,708,-146.461,4.62578
-504,316,-147.181,-7.81079,-0.00285852,0.0294987,0.0192182,0.0384415,-0.0118014,1.13527,0.0303365,0.0207501,720,708,-147.181,7.8108
-497,316,-147.935,-10.8894,-0.00674364,0.0290495,0.0160828,0.0352142,-0.0129083,1.20476,0.0287612,0.0251712,727,708,-147.935,10.8894
-490,316,-148.876,-13.9586,0,0,0,0,0,0,0,-1,734,708,-148.876,13.9585
-483,316,-148.28,-17.6034,0,0,0,0,0,0,0,-1,741,708,-148.28,17.6034
-476,316,-8.90894,-3.31207,0,0,0,0,0,0,0,-1,748,708,-8.90896,3.31206
-469,316,-6.24194,-1.42725,0,0,0,0,0,0,0,-1,755,708,-6.24192,1.42725
-462,316,-5.74237,-1.40039,0,0,0,0,0,0,0,-1,762,708,-5.74238,1.40039
-455,316,-5.44745,-1.21899,0,0,0,0,0,0,0,-1,769,708,-5.44746,1.21898
-448,316,-14.8945,0.655396,0,0,0,0,0,0,0,-1,776,708,-14.8946,-0.655396
-441,316,-14.9626,0.576111,0,0,0,0,0,0,0,-1,783,708,-14.9626,-0.576115
-434,316,-27.7723,1.15576,0,0,0,0,0,0,0,-1,790,708,-27.7723,-1.15579
-427,316,-28.0504,1.31427,0,0,0,0,0,0,0,-1,797,708,-28.0504,-1.31427
-420,316,-28.198,1.62891,0,0,0,0,0,0,0,-1,804,708,-28.198,-1.62889
-413,316,0,0,0,0,0,0,0,0,0,-1,811,708,0,0
-406,316,0,0,0,0,0,0,0,0,0,-1,818,708,0,0
-399,316,0,0,0,0,0,0,0,0,0,-1,825,708,0,0
-392,316,0,0,0,0,0,0,0,0,0,-1,832,708,0,0
-385,316,0,0,0,0,0,0,0,0,0,-1,839,708,0,0
-378,316,0,0,0,0,0,0,0,0,0,-1,846,708,0,0
-371,316,0,0,0,0,0,0,0,0,0,-1,853,708,0,0
-364,316,0,0,0,0,0,0,0,0,0,-1,860,708,0,0
-357,316,0,0,0,0,0,0,0,0,0,-1,867,708,0,0
-350,316,0,0,0,0,0,0,0,0,0,-1,874,708,0,0
-343,316,0,0,0,0,0,0,0,0,0,-1,881,708,0,0
-336,316,0,0,0,0,0,0,0,0,0,-1,888,708,0,0
-329,316,0,0,0,0,0,0,0,0,0,-1,895,708,0,0
-322,316,0,0,0,0,0,0,0,0,0,-1,902,708,0,0
-315,316,0,0,0,0,0,0,0,0,0,-1,909,708,0,0
-308,316,0,0,0,0,0,0,0,0,0,-1,916,708,0,0
-301,316,0,0,0,0,0,0,0,0,0,-1,923,708,0,0
-294,316,0,0,0,0,0,0,0,0,0,-1,930,708,0,0
-287,316,0,0,0,0,0,0,0,0,0,-1,937,708,0,0
-280,316,0,0,0,0,0,0,0,0,0,-1,944,708,0,0
-273,316,0,0,0,0,0,0,0,0,0,-1,951,708,0,0
-266,316,0,0,0,0,0,0,0,0,0,-1,958,708,0,0
-259,316,0,0,0,0,0,0,0,0,0,-1,965,708,0,0
-252,316,0,0,0,0,0,0,0,0,0,-1,972,708,0,0
-245,316,0,0,0,0,0,0,0,0,0,-1,979,708,0,0
-238,316,0,0,0,0,0,0,0,0,0,-1,986,708,0,0
-231,316,0,0,0,0,0,0,0,0,0,-1,993,708,0,0
-224,316,0,0,0,0,0,0,0,0,0,-1,1000,708,0,0
-217,316,0,0,0,0,0,0,0,0,0,-1,1007,708,0,0
-210,316,0,0,0,0,0,0,0,0,0,-1,1014,708,0,0
-203,316,0,0,0,0,0,0,0,0,0,-1,1021,708,0,0
-196,316,0,0,0,0,0,0,0,0,0,-1,1028,708,0,0
-189,316,0,0,0,0,0,0,0,0,0,-1,1035,708,0,0
-182,316,0,0,0,0,0,0,0,0,0,-1,1042,708,0,0
-175,316,0,0,0,0,0,0,0,0,0,-1,1049,708,0,0
-168,316,0,0,0,0,0,0,0,0,0,-1,1056,708,0,0
-161,316,0,0,0,0,0,0,0,0,0,-1,1063,708,0,0
-154,316,0,0,0,0,0,0,0,0,0,-1,1070,708,0,0
-147,316,0,0,0,0,0,0,0,0,0,-1,1077,708,0,0
-140,316,0,0,0,0,0,0,0,0,0,-1,1084,708,0,0
-133,316,0,0,0,0,0,0,0,0,0,-1,1091,708,0,0
-126,316,0,0,0,0,0,0,0,0,0,-1,1098,708,0,0
-119,316,0,0,0,0,0,0,0,0,0,-1,1105,708,0,0
-112,316,0,0,0,0,0,0,0,0,0,-1,1112,708,0,0
-105,316,0,0,0,0,0,0,0,0,0,-1,1119,708,0,0
-98,316,0,0,0,0,0,0,0,0,0,-1,1126,708,0,0
-91,316,0,0,0,0,0,0,0,0,0,-1,1133,708,0,0
-84,316,0,0,0,0,0,0,0,0,0,-1,1140,708,0,0
-77,316,0,0,0,0,0,0,0,0,0,-1,1147,708,0,0
-70,316,0,0,0,0,0,0,0,0,0,-1,1154,708,0,0
-63,316,0,0,0,0,0,0,0,0,0,-1,1161,708,0,0
-56,316,0,0,0,0,0,0,0,0,0,-1,1168,708,0,0
-49,316,0,0,0,0,0,0,0,0,0,-1,1175,708,0,0
-42,316,0,0,0,0,0,0,0,0,0,-1,1182,708,0,0
-35,316,0,0,0,0,0,0,0,0,0,-1,1189,708,0,0
-28,316,0,0,0,0,0,0,0,0,0,-1,1196,708,0,0
-21,316,0,0,0,0,0,0,0,0,0,-1,1203,708,0,0
-14,316,0,0,0,0,0,0,0,0,0,-1,1210,708,0,0
-7,316,0,0,0,0,0,0,0,0,0,-1,1217,708,0,0
0,316,0,0,0,0,0,0,0,0,0,-1,1224,708,0,0
7,316,0,0,0,0,0,0,0,0,0,-1,1231,708,0,0
14,316,0,0,0,0,0,0,0,0,0,-1,1238,708,0,0
21,316,0,0,0,0,0,0,0,0,0,-1,1245,708,0,0
28,316,0,0,0,0,0,0,0,0,0,-1,1252,708,0,0
35,316,0,0,0,0,0,0,0,0,0,-1,1259,708,0,0
42,316,0,0,0,0,0,0,0,0,0,-1,1266,708,0,0
49,316,0,0,0,0,0,0,0,0,0,-1,1273,708,0,0
56,316,0,0,0,0,0,0,0,0,0,-1,1280,708,0,0
63,316,0,0,0,0,0,0,0,0,0,-1,1287,708,0,0
70,316,0,0,0,0,0,0,0,0,0,-1,1294,708,0,0
77,316,0,0,0,0,0,0,0,0,0,-1,1301,708,0,0
84,316,0,0,0,0,0,0,0,0,0,-1,1308,708,0,0
91,316,0,0,0,0,0,0,0,0,0,-1,1315,708,0,0
98,316,0,0,0,0,0,0,0,0,0,-1,1322,708,0,0
105,316,0,0,0,0,0,0,0,0,0,-1,1329,708,0,0
112,316,0,0,0,0,0,0,0,0,0,-1,1336,708,0,0
119,316,0,0,0,0,0,0,0,0,0,-1,1343,708,0,0
126,316,0,0,0,0,0,0,0,0,0,-1,1350,708,0,0
133,316,0,0,0,0,0,0,0,0,0,-1,1357,708,0,0
140,316,0,0,0,0,0,0,0,0,0,-1,1364,708,0,0
147,316,0,0,0,0,0,0,0,0,0,-1,1371,708,0,0
154,316,0,0,0,0,0,0,0,0,0,-1,1378,708,0,0
161,316,0,0,0,0,0,0,0,0,0,-1,1385,708,0,0
168,316,0,0,0,0,0,0,0,0,0,-1,1392,708,0,0
175,316,0,0,0,0,0,0,0,0,0,-1,1399,708,0,0
182,316,0,0,0,0,0,0,0,0,0,-1,1406,708,0,0
189,316,0,0,0,0,0,0,0,0,0,-1,1413,708,0,0
196,316,0,0,0,0,0,0,0,0,0,-1,1420,708,0,0
203,316,0,0,0,0,0,0,0,0,0,-1,1427,708,0,0
210,316,0,0,0,0,0,0,0,0,0,-1,1434,708,0,0
217,316,0,0,0,0,0,0,0,0,0,-1,1441,708,0,0
224,316,0,0,0,0,0,0,0,0,0,-1,1448,708,0,0
231,316,0,0,0,0,0,0,0,0,0,-1,1455,708,0,0
238,316,0,0,0,0,0,0,0,0,0,-1,1462,708,0,0
245,316,0,0,0,0,0,0,0,0,0,-1,1469,708,0,0
252,316,0,0,0,0,0,0,0,0,0,-1,1476,708,0,0
259,316,0,0,0,0,0,0,0,0,0,-1,1483,708,0,0
266,316,0,0,0,0,0,0,0,0,0,-1,1490,708,0,0
273,316,0,0,0,0,0,0,0,0,0,-1,1497,708,0,0
280,316,0,0,0,0,0,0,0,0,0,-1,1504,708,0,0
287,316,0,0,0,0,0,0,0,0,0,-1,1511,708,0,0
294,316,0,0,0,0,0,0,0,0,0,-1,1518,708,0,0
301,316,0,0,0,0,0,0,0,0,0,-1,1525,708,0,0
308,316,0,0,0,0,0,0,0,0,0,-1,1532,708,0,0
315,316,0,0,0,0,0,0,0,0,0,-1,1539,708,0,0
322,316,0,0,0,0,0,0,0,0,0,-1,1546,708,0,0
329,316,0,0,0,0,0,0,0,0,0,-1,1553,708,0,0
336,316,0,0,0,0,0,0,0,0,0,-1,1560,708,0,0
343,316,0,0,0,0,0,0,0,0,0,-1,1567,708,0,0
350,316,0,0,0,0,0,0,0,0,0,-1,1574,708,0,0
357,316,0,0,0,0,0,0,0,0,0,-1,1581,708,0,0
364,316,0,0,0,0,0,0,0,0,0,-1,1588,708,0,0
371,316,0,0,0,0,0,0,0,0,0,-1,1595,708,0,0
378,316,0,0,0,0,0,0,0,0,0,-1,1602,708,0,0
385,316,0,0,0,0,0,0,0,0,0,-1,1609,708,0,0
392,316,0,0,0,0,0,0,0,0,0,-1,1616,708,0,0
399,316,0,0,0,0,0,0,0,0,0,-1,1623,708,0,0
406,316,0,0,0,0,0,0,0,0,0,-1,1630,708,0,0
413,316,0,0,0,0,0,0,0,0,0,-1,1637,708,0,0
420,316,0,0,0,0,0,0,0,0,0,-1,1644,708,0,0
427,316,0,0,0,0,0,0,0,0,0,-1,1651,708,0,0
434,316,0,0,0,0,0,0,0,0,0,-1,1658,708,0,0
441,316,0,0,0,0,0,0,0,0,0,-1,1665,708,0,0
448,316,0,0,0,0,0,0,0,0,0,-1,1672,708,0,0
455,316,0,0,0,0,0,0,0,0,0,-1,1679,708,0,0
462,316,0,0,0,0,0,0,0,0,0,-1,1686,708,0,0
469,316,0,0,0,0,0,0,0,0,0,-1,1693,708,0,0
476,316,0,0,0,0,0,0,0,0,0,-1,1700,708,0,0
483,316,0,0,0,0,0,0,0,0,0,-1,1707,708,0,0
490,316,0,0,0,0,0,0,0,0,0,-1,1714,708,0,0
497,316,0,0,0,0,0,0,0,0,0,-1,1721,708,0,0
504,316,0,0,0,0,0,0,0,0,0,-1,1728,708,0,0
511,316,0,0,0,0,0,0,0,0,0,-1,1735,708,0,0
518,316,0,0,0,0,0,0,0,0,0,-1,1742,708,0,0
525,316,0,0,0,0,0,0,0,0,0,-1,1749,708,0,0
532,316,33.8604,0.531128,0,0,0,0,0,0,0,-1,1756,708,33.8604,-0.531151
539,316,44.4543,2.73468,0,0,0,0,0,0,0,-1,1763,708,44.4543,-2.7347
546,316,44.713,3.35498,0,0,0,0,0,0,0,-1,1770,708,44.7131,-3.35501
553,316,39.9031,6.57275,0,0,0,0,0,0,0,-1,1777,708,39.9031,-6.57274
560,316,39.1196,1.10046,0,0,0,0,0,0,0,-1,1784,708,39.1197,-1.10048
567,316,47.3683,6.04919,0,0,0,0,0,0,0,-1,1791,708,47.3683,-6.04918
574,316,45.9872,6.7655,0,0,0,0,0,0,0,-1,1798,708,45.9871,-6.76552
581,316,24.6815,7.77496,0,0,0,0,0,0,0,-1,1805,708,24.6815,-7.77499
588,316,19.7659,2.90198,0,0,0,0,0,0,0,-1,1812,708,19.7659,-2.902
595,316,12.5363,1.50702,0,0,0,0,0,0,0,-1,1819,708,12.5363,-1.50701
602,316,7.79919,0.0422363,0,0,0,0,0,0,0,-1,1826,708,7.79923,-0.0422066
609,316,85.3544,-24.1375,0,0,0,0,0,0,0,-1,1833,708,85.3544,24.1375
616,316,158.749,-16.903,0,0,0,0,0,0,0,-1,1840,708,158.749,16.903
623,316,157.893,-13.6596,-0.00351117,0.0224071,-0.00613333,0.0237853,-0.00488929,-1.34977,0.017713,0.0325711,1847,708,157.893,13.6596
630,316,157.137,-10.4348,-0.00269429,0.0236032,-0.0107272,0.0274239,-0.00651497,-1.22864,0.0207972,0.0221297,1854,708,157.137,10.4348
637,316,156.446,-7.29504,-0.00169073,0.0250078,-0.0151083,0.0318195,-0.0085024,-1.14723,0.024543,0.0192419,1861,708,156.446,7.29502
644,316,155.822,-4.3147,-0.000602994,0.0267306,-0.0192555,0.0366764,-0.0105488,-1.09402,0.0286227,0.0177253,1868,708,155.822,4.31472
651,316,155.179,-1.32343,0.000633791,0.028795,-0.0231598,0.0418186,-0.0123898,-1.05853,0.0327986,0.0226155,1875,708,155.179,1.32342
658,316,154.636,1.8476,0.00192575,0.0311877,-0.0268623,0.0471451,-0.0140317,-1.03477,0.037005,0.0403671,1882,708,154.636,-1.84759
665,316,153.931,4.57666,0.0032386,0.0339843,-0.0303279,0.052613,-0.0153901,-1.01997,0.0411755,0.0323187,1889,708,153.931,-4.57668
672,316,153.362,7.29651,0.00472814,0.0372721,-0.0334425,0.0581912,-0.016191,-1.01182,0.045169,0.0208899,1896,708,153.362,-7.29654
679,316,152.794,10.2493,0,0,0,0,0,0,0,-1,1903,708,152.794,-10.2494
686,316,34.0828,0.223206,0,0,0,0,0,0,0,-1,1910,708,34.0828,-0.223183
693,316,26.4315,1.80652,0,0,0,0,0,0,0,-1,1917,708,26.4315,-1.80651
700,316,12.8749,2.89136,0,0,0,0,0,0,0,-1,1924,708,12.8748,-2.89137
707,316,15.7089,5.41486,0,0,0,0,0,0,0,-1,1931,708,15.7088,-5.41487
714,316,16.1727,5.52045,0,0,0,0,0,0,0,-1,1938,708,16.1728,-5.52042
721,316,16.7094,6.53351,0,0,0,0,0,0,0,-1,1945,708,16.7094,-6.5335
728,316,0,0,0,0,0,0,0,0,0,-1,1952,708,0,0
735,316,0,0,0,0,0,0,0,0,0,-1,1959,708,0,0
742,316,0,0,0,0,0,0,0,0,0,-1,1966,708,0,0
749,316,0,0,0,0,0,0,0,0,0,-1,1973,708,0,0
756,316,0,0,0,0,0,0,0,0,0,-1,1980,708,0,0
763,316,0,0,0,0,0,0,0,0,0,-1,1987,708,0,0
770,316,0,0,0,0,0,0,0,0,0,-1,1994,708,0,0
777,316,0,0,0,0,0,0,0,0,0,-1,2001,708,0,0
784,316,0,0,0,0,0,0,0,0,0,-1,2008,708,0,0
791,316,0,0,0,0,0,0,0,0,0,-1,2015,708,0,0
798,316,0,0,0,0,0,0,0,0,0,-1,2022,708,0,0
805,316,0,0,0,0,0,0,0,0,0,-1,2029,708,0,0
812,316,0,0,0,0,0,0,0,0,0,-1,2036,708,0,0
-700,309,0,0,0,0,0,0,0,0,0,-1,524,715,0,0
-693,309,0,0,0,0,0,0,0,0,0,-1,531,715,0,0
-686,309,0,0,0,0,0,0,0,0,0,-1,538,715,0,0
-679,309,0,0,0,0,0,0,0,0,0,-1,545,715,0,0
-672,309,0,0,0,0,0,0,0,0,0,-1,552,715,0,0
-665,309,0,0,0,0,0,0,0,0,0,-1,559,715,0,0
-658,309,0,0,0,0,0,0,0,0,0,-1,566,715,0,0
-651,309,0,0,0,0,0,0,0,0,0,-1,573,715,0,0
-644,309,0,0,0,0,0,0,0,0,0,-1,580,715,0,0
-637,309,0,0,0,0,0,0,0,0,0,-1,587,715,0,0
-630,309,0,0,0,0,0,0,0,0,0,-1,594,715,0,0
-623,309,0,0,0,0,0,0,0,0,0,-1,601,715,0,0
-616,309,0,0,0,0,0,0,0,0,0,-1,608,715,0,0
-609,309,-5.95392,-3.93689,0,0,0,0,0,0,0,-1,615,715,-5.95392,3.93686
-602,309,-4.99786,-3.31287,0,0,0,0,0,0,0,-1,622,715,-4.99786,3.31284
-595,309,-6.80847,2.4046,0,0,0,0,0,0,0,-1,629,715,-6.80845,-2.40458
-588,309,-6.08795,2.19324,0,0,0,0,0,0,0,-1,636,715,-6.08793,-2.19325
-581,309,-5.97552,1.3277,0,0,0,0,0,0,0,-1,643,715,-5.97552,-1.32769
-574,309,-8.73602,0.208435,0,0,0,0,0,0,0,-1,650,715,-8.73604,-0.208437
-567,309,-10.3909,0.85968,0,0,0,0,0,0,0,-1,657,715,-10.3909,-0.859696
-560,309,-18.6088,-1.73389,0,0,0,0,0,0,0,-1,664,715,-18.6088,1.73389
-553,309,-146.522,13.3896,0,0,0,0,0,0,0,-1,671,715,-146.522,-13.3897
-546,309,-146.919,10.6596,0.00948678,0.0452772,0.0362685,0.0678251,-0.0130611,1.01458,0.0501407,0.039991,678,715,-146.919,-10.6596
-539,309,-147.406,7.81854,0.0079083,0.0415239,0.0324874,0.0612939,-0.0118617,1.02412,0.0453368,0.0262499,685,715,-147.406,-7.81856
-532,309,-148.035,4.84113,0.0060286,0.0377952,0.0289533,0.0549357,-0.0111119,1.03628,0.0408349,0.0188863,692,715,-148.035,-4.8411
-525,309,-148.663,1.92004,0.00371583,0.0344157,0.0255315,0.0488564,-0.0107248,1.05605,0.0366724,0.020083,699,715,-148.663,-1.92005
-518,309,-149.302,-0.979431,0.000891866,0.0317918,0.0221795,0.0433721,-0.0106884,1.08961,0.0330586,0.021501,706,715,-149.302,0.979458
-511,309,-149.919,-3.88562,-0.00232143,0.0295571,0.018966,0.0383922,-0.0111565,1.13485,0.030013,0.0180531,713,715,-149.919,3.88563
-504,309,-150.585,-7.16052,-0.00597645,0.02816,0.0157568,0.0343211,-0.0121375,1.19806,0.0278235,0.0236138,720,715,-150.585,7.16055
-497,309,-151.392,-10.3081,-0.010214,0.0279136,0.0124713,0.0316306,-0.013931,1.28114,0.0269585,0.0430196,727,715,-151.392,10.3081
-490,309,-152.549,-13.522,0,0,0,0,0,0,0,-1,734,715,-152.549,13.522
-483,309,-150.35,-16.889,0,0,0,0,0,0,0,-1,741,715,-150.35,16.889
-476,309,-5.29486,-1.2262,0,0,0,0,0,0,0,-1,748,715,-5.29484,1.22622
-469,309,-4.22717,-0.592896,0,0,0,0,0,0,0,-1,755,715,-4.2272,0.592905
-462,309,-10.428,2.46948,0,0,0,0,0,0,0,-1,762,715,-10.428,-2.46947
-455,309,-15.8216,0.00915527,0,0,0,0,0,0,0,-1,769,715,-15.8216,-0.00913359
-448,309,-37.3543,-1.02441,0,0,0,0,0,0,0,-1,776,715,-37.3543,1.02444
-441,309,-19.8181,1.4425,0,0,0,0,0,0,0,-1,783,715,-19.8181,-1.44249
-434,309,-46.7953,1.72064,0,0,0,0,0,0,0,-1,790,715,-46.7953,-1.72067
-427,309,-27.8553,1.40332,0,0,0,0,0,0,0,-1,797,715,-27.8553,-1.40334
-420,309,-27.3148,1.90747,0,0,0,0,0,0,0,-1,804,715,-27.3148,-1.90745
-413,309,0,0,0,0,0,0,0,0,0,-1,811,715,0,0
-406,309,0,0,0,0,0,0,0,0,0,-1,818,715,0,0
-399,309,0,0,0,0,0,0,0,0,0,-1,825,715,0,0
-392,309,0,0,0,0,0,0,0,0,0,-1,832,715,0,0
-385,309,0,0,0,0,0,0,0,0,0,-1,839,715,0,0
-378,309,0,0,0,0,0,0,0,0,0,-1,846,715,0,0
-371,309,0,0,0,0,0,0,0,0,0,-1,853,715,0,0
-364,309,0,0,0,0,0,0,0,0,0,-1,860,715,0,0
-357,309,0,0,0,0,0,0,0,0,0,-1,867,715,0,0
-350,309,0,0,0,0,0,0,0,0,0,-1,874,715,0,0
-343,309,0,0,0,0,0,0,0,0,0,-1,881,715,0,0
-336,309,0,0,0,0,0,0,0,0,0,-1,888,715,0,0
-329,309,0,0,0,0,0,0,0,0,0,-1,895,715,0,0
-322,309,0,0,0,0,0,0,0,0,0,-1,902,715,0,0
-315,309,0,0,0,0,0,0,0,0,0,-1,909,715,0,0
-308,309,0,0,0,0,0,0,0,0,0,-1,916,715,0,0
-301,309,0,0,0,0,0,0,0,0,0,-1,923,715,0,0
-294,309,0,0,0,0,0,0,0,0,0,-1,930,715,0,0
-287,309,0,0,0,0,0,0,0,0,0,-1,937,715,0,0
-280,309,0,0,0,0,0,0,0,0,0,-1,944,715,0,0
-273,309,0,0,0,0,0,0,0,0,0,-1,951,715,0,0
-266,309,0,0,0,0,0,0,0,0,0,-1,958,715,0,0
-259,309,0,0,0,0,0,0,0,0,0,-1,965,715,0,0
-252,309,0,0,0,0,0,0,0,0,0,-1,972,715,0,0
-245,309,0,0,0,0,0,0,0,0,0,-1,979,715,0,0
-238,309,0,0,0,0,0,0,0,0,0,-1,986,715,0,0
-231,309,0,0,0,0,0,0,0,0,0,-1,993,715,0,0
-224,309,0,0,0,0,0,0,0,0,0,-1,1000,715,0,0
-217,309,0,0,0,0,0,0,0,0,0,-1,1007,715,0,0
-210,309,0,0,0,0,0,0,0,0,0,-1,1014,715,0,0
-203,309,0,0,0,0,0,0,0,0,0,-1,1021,715,0,0
-196,309,0,0,0,0,0,0,0,0,0,-1,1028,715,0,0
-189,309,0,0,0,0,0,0,0,0,0,-1,1035,715,0,0
-182,309,0,0,0,0,0,0,0,0,0,-1,1042,715,0,0
-175,309,0,0,0,0,0,0,0,0,0,-1,1049,715,0,0
-168,309,0,0,0,0,0,0,0,0,0,-1,1056,715,0,0
-161,309,0,0,0,0,0,0,0,0,0,-1,1063,715,0,0
-154,309,0,0,0,0,0,0,0,0,0,-1,1070,715,0,0
-147,309,0,0,0,0,0,0,0,0,0,-1,1077,715,0,0
-140,309,0,0,0,0,0,0,0,0,0,-1,1084,715,0,0
-133,309,0,0,0,0,0,0,0,0,0,-1,1091,715,0,0
-126,309,0,0,0,0,0,0,0,0,0,-1,1098,715,0,0
-119,309,0,0,0,0,0,0,0,0,0,-1,1105,715,0,0
-112,309,0,0,0,0,0,0,0,0,0,-1,1112,715,0,0
-105,309,0,0,0,0,0,0,0,0,0,-1,1119,715,0,0
-98,309,0,0,0,0,0,0,0,0,0,-1,1126,715,0,0
-91,309,0,0,0,0,0,0,0,0,0,-1,1133,715,0,0
-84,309,0,0,0,0,0,0,0,0,0,-1,1140,715,0,0
-77,309,0,0,0,0,0,0,0,0,0,-1,1147,715,0,0
-70,309,0,0,0,0,0,0,0,0,0,-1,1154,715,0,0
-63,309,0,0,0,0,0,0,0,0,0,-1,1161,715,0,0
-56,309,0,0,0,0,0,0,0,0,0,-1,1168,715,0,0
-49,309,0,0,0,0,0,0,0,0,0,-1,1175,715,0,0
-42,309,0,0,0,0,0,0,0,0,0,-1,1182,715,0,0
-35,309,0,0,0,0,0,0,0,0,0,-1,1189,715,0,0
-28,309,0,0,0,0,0,0,0,0,0,-1,1196,715,0,0
-21,309,0,0,0,0,0,0,0,0,0,-1,1203,715,0,0
-14,309,0,0,0,0,0,0,0,0,0,-1,1210,715,0,0
-7,309,0,0,0,0,0,0,0,0,0,-1,1217,715,0,0
0,309,0,0,0,0,0,0,0,0,0,-1,1224,715,0,0
7,309,0,0,0,0,0,0,0,0,0,-1,1231,715,0,0
14,309,0,0,0,0,0,0,0,0,0,-1,1238,715,0,0
21,309,0,0,0,0,0,0,0,0,0,-1,1245,715,0,0
28,309,0,0,0,0,0,0,0,0,0,-1,1252,715,0,0
35,309,0,0,0,0,0,0,0,0,0,-1,1259,715,0,0
42,309,0,0,0,0,0,0,0,0,0,-1,1266,715,0,0
49,309,0,0,0,0,0,0,0,0,0,-1,1273,715,0,0
56,309,0,0,0,0,0,0,0,0,0,-1,1280,715,0,0
63,309,0,0,0,0,0,0,0,0,0,-1,1287,715,0,0
70,309,0,0,0,0,0,0,0,0,0,-1,1294,715,0,0
77,309,0,0,0,0,0,0,0,0,0,-1,1301,715,0,0
84,309,0,0,0,0,0,0,0,0,0,-1,1308,715,0,0
91,309,0,0,0,0,0,0,0,0,0,-1,1315,715,0,0
98,309,0,0,0,0,0,0,0,0,0,-1,1322,715,0,0
105,309,0,0,0,0,0,0,0,0,0,-1,1329,715,0,0
112,309,0,0,0,0,0,0,0,0,0,-1,1336,715,0,0
119,309,0,0,0,0,0,0,0,0,0,-1,1343,715,0,0
126,309,0,0,0,0,0,0,0,0,0,-1,1350,715,0,0
133,309,0,0,0,0,0,0,0,0,0,-1,1357,715,0,0
140,309,0,0,0,0,0,0,0,0,0,-1,1364,715,0,0
147,309,0,0,0,0,0,0,0,0,0,-1,1371,715,0,0
154,309,0,0,0,0,0,0,0,0,0,-1,1378,715,0,0
161,309,0,0,0,0,0,0,0,0,0,-1,1385,715,0,0
168,309,0,0,0,0,0,0,0,0,0,-1,1392,715,0,0
175,309,0,0,0,0,0,0,0,0,0,-1,1399,715,0,0
182,309,0,0,0,0,0,0,0,0,0,-1,1406,715,0,0
189,309,0,0,0,0,0,0,0,0,0,-1,1413,715,0,0
196,309,0,0,0,0,0,0,0,0,0,-1,1420,715,0,0
203,309,0,0,0,0,0,0,0,0,0,-1,1427,715,0,0
210,309,0,0,0,0,0,0,0,0,0,-1,1434,715,0,0
217,309,0,0,0,0,0,0,0,0,0,-1,1441,715,0,0
224,309,0,0,0,0,0,0,0,0,0,-1,1448,715,0,0
231,309,0,0,0,0,0,0,0,0,0,-1,1455,715,0,0
238,309,0,0,0,0,0,0,0,0,0,-1,1462,715,0,0
245,309,0,0,0,0,0,0,0,0,0,-1,1469,715,0,0
252,309,0,0,0,0,0,0,0,0,0,-1,1476,715,0,0
259,309,0,0,0,0,0,0,0,0,0,-1,1483,715,0,0
266,309,0,0,0,0,0,0,0,0,0,-1,1490,715,0,0
273,309,0,0,0,0,0,0,0,0,0,-1,1497,715,0,0
280,309,0,0,0,0,0,0,0,0,0,-1,1504,715,0,0
287,309,0,0,0,0,0,0,0,0,0,-1,1511,715,0,0
294,309,0,0,0,0,0,0,0,0,0,-1,1518,715,0,0
301,309,0,0,0,0,0,0,0,0,0,-1,1525,715,0,0
308,309,0,0,0,0,0,0,0,0,0,-1,1532,715,0,0
315,309,0,0,0,0,0,0,0,0,0,-1,1539,715,0,0
322,309,0,0,0,0,0,0,0,0,0,-1,1546,715,0,0
329,309,0,0,0,0,0,0,0,0,0,-1,1553,715,0,0
336,309,0,0,0,0,0,0,0,0,0,-1,1560,715,0,0
343,309,0,0,0,0,0,0,0,0,0,-1,1567,715,0,0
350,309,0,0,0,0,0,0,0,0,0,-1,1574,715,0,0
357,309,0,0,0,0,0,0,0,0,0,-1,1581,715,0,0
364,309,0,0,0,0,0,0,0,0,0,-1,1588,715,0,0
371,309,0,0,0,0,0,0,0,0,0,-1,1595,715,0,0
378,309,0,0,0,0,0,0,0,0,0,-1,1602,715,0,0
385,309,0,0,0,0,0,0,0,0,0,-1,1609,715,0,0
392,309,0,0,0,0,0,0,0,0,0,-1,1616,715,0,0
399,309,0,0,0,0,0,0,0,0,0,-1,1623,715,0,0
406,309,0,0,0,0,0,0,0,0,0,-1,1630,715,0,0
413,309,0,0,0,0,0,0,0,0,0,-1,1637,715,0,0
420,309,0,0,0,0,0,0,0,0,0,-1,1644,715,0,0
427,309,0,0,0,0,0,0,0,0,0,-1,1651,715,0,0
434,309,0,0,0,0,0,0,0,0,0,-1,1658,715,0,0
441,309,0,0,0,0,0,0,0,0,0,-1,1665,715,0,0
448,309,0,0,0,0,0,0,0,0,0,-1,1672,715,0,0
455,309,0,0,0,0,0,0,0,0,0,-1,1679,715,0,0
462,309,0,0,0,0,0,0,0,0,0,-1,1686,715,0,0
469,309,0,0,0,0,0,0,0,0,0,-1,1693,715,0,0
476,309,0,0,0,0,0,0,0,0,0,-1,1700,715,0,0
483,309,0,0,0,0,0,0,0,0,0,-1,1707,715,0,0
490,309,0,0,0,0,0,0,0,0,0,-1,1714,715,0,0
497,309,0,0,0,0,0,0,0,0,0,-1,1721,715,0,0
504,309,0,0,0,0,0,0,0,0,0,-1,1728,715,0,0
511,309,0,0,0,0,0,0,0,0,0,-1,1735,715,0,0
518,309,0,0,0,0,0,0,0,0,0,-1,1742,715,0,0
525,309,0,0,0,0,0,0,0,0,0,-1,1749,715,0,0
532,309,0,0,0,0,0,0,0,0,0,-1,1756,715,0,0
539,309,44.2073,2.66235,0,0,0,0,0,0,0,-1,1763,715,44.2073,-2.66238
546,309,44.4976,3.25531,0,0,0,0,0,0,0,-1,1770,715,44.4976,-3.25533
553,309,47.9611,4.06433,0,0,0,0,0,0,0,-1,1777,715,47.9611,-4.06434
560,309,47.9784,4.64801,0,0,0,0,0,0,0,-1,1784,715,47.9784,-4.64799
567,309,47.0073,5.43121,0,0,0,0,0,0,0,-1,1791,715,47.0073,-5.43121
574,309,45.8746,6.53271,0,0,0,0,0,0,0,-1,1798,715,45.8747,-6.53269
581,309,45.0629,7.73468,0,0,0,0,0,0,0,-1,1805,715,45.0629,-7.73471
588,309,26.2064,7.76422,0,0,0,0,0,0,0,-1,1812,715,26.2064,-7.7642
595,309,19.585,3.71558,0,0,0,0,0,0,0,-1,1819,715,19.5849,-3.71555
602,309,11.0811,3.47772,0,0,0,0,0,0,0,-1,1826,715,11.0811,-3.47772
609,309,56.9344,-15.415,0,0,0,0,0,0,0,-1,1833,715,56.9345,15.415
616,309,93.344,-22.6922,0,0,0,0,0,0,0,-1,1840,715,93.344,22.6922
623,309,161.323,-12.9781,0,0,0,0,0,0,0,-1,1847,715,161.323,12.9782
630,309,160.677,-9.89563,-0.00430636,0.0230106,-0.00696788,0.0246853,-0.00598103,-1.33493,0.0187709,0.0375792,1854,715,160.677,9.89564
637,309,159.754,-6.63916,-0.00324036,0.0241556,-0.0114573,0.0283155,-0.00740027,-1.22252,0.0217672,0.0292483,1861,715,159.754,6.63916
644,309,158.947,-3.66913,-0.00211609,0.0257193,-0.0156893,0.0327744,-0.00917118,-1.14821,0.0254633,0.0238453,1868,715,158.947,3.6691
651,309,158.286,-0.758545,-0.000850015,0.0277428,-0.0196633,0.0377575,-0.0108648,-1.09973,0.0294686,0.0234541,1875,715,158.286,0.758551
658,309,157.748,2.20422,0.000508632,0.0301718,-0.0234143,0.0430568,-0.0123763,-1.06772,0.0335986,0.0391168,1882,715,157.748,-2.20423
665,309,157.095,5.06635,0.00185352,0.0330401,-0.0269406,0.0485747,-0.0136811,-1.04774,0.0377785,0.0330544,1889,715,157.095,-5.06634
672,309,156.5,7.88098,0.00331959,0.036467,-0.03018,0.0543247,-0.0145381,-1.0365,0.0419116,0.0231336,1896,715,156.5,-7.88097
679,309,155.972,10.7043,0.00494475,0.0405471,-0.0330299,0.0602673,-0.0147755,-1.03255,0.045903,0.0400624,1903,715,155.972,-10.7043
686,309,155.431,13.6142,0,0,0,0,0,0,0,-1,1910,715,155.431,-13.6142
693,309,32.7026,1.51727,0,0,0,0,0,0,0,-1,1917,715,32.7026,-1.51727
700,309,23.0179,3.08337,0,0,0,0,0,0,0,-1,1924,715,23.018,-3.08336
707,309,15.6318,4.58655,0,0,0,0,0,0,0,-1,1931,715,15.6318,-4.58657
714,309,16.7573,6.68286,0,0,0,0,0,0,0,-1,1938,715,16.7574,-6.68284
721,309,16.8337,5.4458,0,0,0,0,0,0,0,-1,1945,715,16.8338,-5.44582
728,309,0,0,0,0,0,0,0,0,0,-1,1952,715,0,0
735,309,0,0,0,0,0,0,0,0,0,-1,1959,715,0,0
742,309,0,0,0,0,0,0,0,0,0,-1,1966,715,0,0
749,309,0,0,0,0,0,0,0,0,0,-1,1973,715,0,0
756,309,0,0,0,0,0,0,0,0,0,-1,1980,715,0,0
763,309,0,0,0,0,0,0,0,0,0,-1,1987,715,0,0
770,309,0,0,0,0,0,0,0,0,0,-1,1994,715,0,0
777,309,0,0,0,0,0,0,0,0,0,-1,2001,715,0,0
784,309,0,0,0,0,0,0,0,0,0,-1,2008,715,0,0
791,309,0,0,0,0,0,0,0,0,0,-1,2015,715,0,0
798,309,0,0,0,0,0,0,0,0,0,-1,2022,715,0,0
805,309,0,0,0,0,0,0,0,0,0,-1,2029,715,0,0
812,309,0,0,0,0,0,0,0,0,0,-1,2036,715,0,0
-700,302,0,0,0,0,0,0,0,0,0,-1,524,722,0,0
-693,302,0,0,0,0,0,0,0,0,0,-1,531,722,0,0
-686,302,0,0,0,0,0,0,0,0,0,-1,538,722,0,0
-679,302,0,0,0,0,0,0,0,0,0,-1,545,722,0,0
-672,302,0,0,0,0,0,0,0,0,0,-1,552,722,0,0
-665,302,0,0,0,0,0,0,0,0,0,-1,559,722,0,0
-658,302,0,0,0,0,0,0,0,0,0,-1,566,722,0,0
-651,302,0,0,0,0,0,0,0,0,0,-1,573,722,0,0
-644,302,0,0,0,0,0,0,0,0,0,-1,580,722,0,0
-637,302,0,0,0,0,0,0,0,0,0,-1,587,722,0,0
-630,302,0,0,0,0,0,0,0,0,0,-1,594,722,0,0
-623,302,0,0,0,0,0,0,0,0,0,-1,601,722,0,0
-616,302,0,0,0,0,0,0,0,0,0,-1,608,722,0,0
-609,302,-7.79266,-3.71649,0,0,0,0,0,0,0,-1,615,722,-7.79267,3.7165
-602,302,0.92865,-1.99158,0,0,0,0,0,0,0,-1,622,722,0.928637,1.99157
-595,302,-7.89941,2.13641,0,0,0,0,0,0,0,-1,629,722,-7.89939,-2.13639
-588,302,-7.10895,1.79163,0,0,0,0,0,0,0,-1,636,722,-7.10896,-1.79163
-581,302,-9.17566,1.09448,0,0,0,0,0,0,0,-1,643,722,-9.17569,-1.09445
-574,302,-11.5183,-0.344543,0,0,0,0,0,0,0,-1,650,722,-11.5183,0.344557
-567,302,-12.1534,-0.672241,0,0,0,0,0,0,0,-1,657,722,-12.1535,0.672246
-560,302,-149.452,16.6451,0,0,0,0,0,0,0,-1,664,722,-149.452,-16.6451
-553,302,-149.706,13.7792,0.00767629,0.0476953,0.0374214,0.0701209,-0.0147493,1.03091,0.0523608,0.0442901,671,722,-149.706,-13.7792
-546,302,-150.123,11.0583,0.00711246,0.0433585,0.0331251,0.0629941,-0.0125232,1.03571,0.0467332,0.0291213,678,722,-150.123,-11.0583
-539,302,-150.705,8.37128,0.0056077,0.0395248,0.0293,0.0564201,-0.0112876,1.04774,0.041886,0.0278383,685,722,-150.705,-8.3713
-532,302,-151.364,5.44824,0.00366178,0.0358074,0.0256896,0.0500379,-0.0105687,1.06493,0.0373828,0.0223278,692,722,-151.364,-5.44822
-525,302,-152.015,2.39764,0.00120761,0.0324822,0.0221954,0.0439956,-0.0103058,1.09228,0.0333015,0.0248699,699,722,-152.015,-2.39765
-518,302,-152.637,-0.42157,-0.0017767,0.0298648,0.0187765,0.0385971,-0.010509,1.13548,0.0298574,0.0316955,706,722,-152.637,0.421574
-511,302,-153.282,-3.24908,-0.00519098,0.0276981,0.0154467,0.0338151,-0.011308,1.19374,0.0271106,0.0201185,713,722,-153.282,3.24909
-504,302,-153.972,-6.39716,-0.00911595,0.0263458,0.012182,0.0301274,-0.0128975,1.26981,0.0254957,0.0285466,720,722,-153.972,6.39713
-497,302,-155.101,-9.56885,-0.0137169,0.0263231,0.00878249,0.0281648,-0.0155586,1.36409,0.0255911,0.0413256,727,722,-155.101,9.56887
-490,302,-156.363,-12.7388,0,0,0,0,0,0,0,-1,734,722,-156.363,12.7388
-483,302,-9.53412,-3.1673,0,0,0,0,0,0,0,-1,741,722,-9.53411,3.1673
-476,302,-4.29749,-0.203491,0,0,0,0,0,0,0,-1,748,722,-4.29751,0.203464
-469,302,-12.369,1.42859,0,0,0,0,0,0,0,-1,755,722,-12.3689,-1.42857
-462,302,-17.4766,0.310791,0,0,0,0,0,0,0,-1,762,722,-17.4766,-0.310788
-455,302,-36.7368,-2.97418,0,0,0,0,0,0,0,-1,769,722,-36.7368,2.97416
-448,302,-42.1174,-1.44232,0,0,0,0,0,0,0,-1,776,722,-42.1174,1.44229
-441,302,-46.7637,0.580078,0,0,0,0,0,0,0,-1,783,722,-46.7636,-0.58007
-434,302,-46.574,1.30511,0,0,0,0,0,0,0,-1,790,722,-46.574,-1.30509
-427,302,-46.7514,1.51532,0,0,0,0,0,0,0,-1,797,722,-46.7514,-1.51532
-420,302,0,0,0,0,0,0,0,0,0,-1,804,722,0,0
-413,302,0,0,0,0,0,0,0,0,0,-1,811,722,0,0
-406,302,0,0,0,0,0,0,0,0,0,-1,818,722,0,0
-399,302,0,0,0,0,0,0,0,0,0,-1,825,722,0,0
-392,302,0,0,0,0,0,0,0,0,0,-1,832,722,0,0
-385,302,0,0,0,0,0,0,0,0,0,-1,839,722,0,0
-378,302,0,0,0,0,0,0,0,0,0,-1,846,722,0,0
-371,302,0,0,0,0,0,0,0,0,0,-1,853,722,0,0
-364,302,0,0,0,0,0,0,0,0,0,-1,860,722,0,0
-357,302,0,0,0,0,0,0,0,0,0,-1,867,722,0,0
-350,302,0,0,0,0,0,0,0,0,0,-1,874,722,0,0
-343,302,0,0,0,0,0,0,0,0,0,-1,881,722,0,0
-336,302,0,0,0,0,0,0,0,0,0,-1,888,722,0,0
-329,302,0,0,0,0,0,0,0,0,0,-1,895,722,0,0
-322,302,0,0,0,0,0,0,0,0,0,-1,902,722,0,0
-315,302,0,0,0,0,0,0,0,0,0,-1,909,722,0,0
-308,302,0,0,0,0,0,0,0,0,0,-1,916,722,0,0
-301,302,0,0,0,0,0,0,0,0,0,-1,923,722,0,0
-294,302,0,0,0,0,0,0,0,0,0,-1,930,722,0,0
-287,302,0,0,0,0,0,0,0,0,0,-1,937,722,0,0
-280,302,0,0,0,0,0,0,0,0,0,-1,944,722,0,0
-273,302,0,0,0,0,0,0,0,0,0,-1,951,722,0,0
-266,302,0,0,0,0,0,0,0,0,0,-1,958,722,0,0
-259,302,0,0,0,0,0,0,0,0,0,-1,965,722,0,0
-252,302,0,0,0,0,0,0,0,0,0,-1,972,722,0,0
-245,302,0,0,0,0,0,0,0,0,0,-1,979,722,0,0
-238,302,0,0,0,0,0,0,0,0,0,-1,986,722,0,0
-231,302,0,0,0,0,0,0,0,0,0,-1,993,722,0,0
-224,302,0,0,0,0,0,0,0,0,0,-1,1000,722,0,0
-217,302,0,0,0,0,0,0,0,0,0,-1,1007,722,0,0
-210,302,0,0,0,0,0,0,0,0,0,-1,1014,722,0,0
-203,302,0,0,0,0,0,0,0,0,0,-1,1021,722,0,0
-196,302,0,0,0,0,0,0,0,0,0,-1,1028,722,0,0
-189,302,0,0,0,0,0,0,0,0,0,-1,1035,722,0,0
-182,302,0,0,0,0,0,0,0,0,0,-1,1042,722,0,0
-175,302,0,0,0,0,0,0,0,0,0,-1,1049,722,0,0
-168,302,0,0,0,0,0,0,0,0,0,-1,1056,722,0,0
-161,302,0,0,0,0,0,0,0,0,0,-1,1063,722,0,0
-154,302,0,0,0,0,0,0,0,0,0,-1,1070,722,0,0
-147,302,0,0,0,0,0,0,0,0,0,-1,1077,722,0,0
-140,302,0,0,0,0,0,0,0,0,0,-1,1084,722,0,0
-133,302,0,0,0,0,0,0,0,0,0,-1,1091,722,0,0
-126,302,0,0,0,0,0,0,0,0,0,-1,1098,722,0,0
-119,302,0,0,0,0,0,0,0,0,0,-1,1105,722,0,0
-112,302,0,0,0,0,0,0,0,0,0,-1,1112,722,0,0
-105,302,0,0,0,0,0,0,0,0,0,-1,1119,722,0,0
-98,302,0,0,0,0,0,0,0,0,0,-1,1126,722,0,0
-91,302,0,0,0,0,0,0,0,0,0,-1,1133,722,0,0
-84,302,0,0,0,0,0,0,0,0,0,-1,1140,722,0,0
-77,302,0,0,0,0,0,0,0,0,0,-1,1147,722,0,0
-70,302,0,0,0,0,0,0,0,0,0,-1,1154,722,0,0
-63,302,0,0,0,0,0,0,0,0,0,-1,1161,722,0,0
-56,302,0,0,0,0,0,0,0,0,0,-1,1168,722,0,0
-49,302,0,0,0,0,0,0,0,0,0,-1,1175,722,0,0
-42,302,0,0,0,0,0,0,0,0,0,-1,1182,722,0,0
-35,302,0,0,0,0,0,0,0,0,0,-1,1189,722,0,0
-28,302,0,0,0,0,0,0,0,0,0,-1,1196,722,0,0
-21,302,0,0,0,0,0,0,0,0,0,-1,1203,722,0,0
-14,302,0,0,0,0,0,0,0,0,0,-1,1210,722,0,0
-7,302,0,0,0,0,0,0,0,0,0,-1,1217,722,0,0
0,302,0,0,0,0,0,0,0,0,0,-1,1224,722,0,0
7,302,0,0,0,0,0,0,0,0,0,-1,1231,722,0,0
14,302,0,0,0,0,0,0,0,0,0,-1,1238,722,0,0
21,302,0,0,0,0,0,0,0,0,0,-1,1245,722,0,0
28,302,0,0,0,0,0,0,0,0,0,-1,1252,722,0,0
35,302,0,0,0,0,0,0,0,0,0,-1,1259,722,0,0
42,302,0,0,0,0,0,0,0,0,0,-1,1266,722,0,0
49,302,0,0,0,0,0,0,0,0,0,-1,1273,722,0,0
56,302,0,0,0,0,0,0,0,0,0,-1,1280,722,0,0
63,302,0,0,0,0,0,0,0,0,0,-1,1287,722,0,0
70,302,0,0,0,0,0,0,0,0,0,-1,1294,722,0,0
77,302,0,0,0,0,0,0,0,0,0,-1,1301,722,0,0
84,302,0,0,0,0,0,0,0,0,0,-1,1308,722,0,0
91,302,0,0,0,0,0,0,0,0,0,-1,1315,722,0,0
98,302,0,0,0,0,0,0,0,0,0,-1,1322,722,0,0
105,302,0,0,0,0,0,0,0,0,0,-1,1329,722,0,0
112,302,0,0,0,0,0,0,0,0,0,-1,1336,722,0,0
119,302,0,0,0,0,0,0,0,0,0,-1,1343,722,0,0
126,302,0,0,0,0,0,0,0,0,0,-1,1350,722,0,0
133,302,0,0,0,0,0,0,0,0,0,-1,1357,722,0,0
140,302,0,0,0,0,0,0,0,0,0,-1,1364,722,0,0
147,302,0,0,0,0,0,0,0,0,0,-1,1371,722,0,0
154,302,0,0,0,0,0,0,0,0,0,-1,1378,722,0,0
161,302,0,0,0,0,0,0,0,0,0,-1,1385,722,0,0
168,302,0,0,0,0,0,0,0,0,0,-1,1392,722,0,0
175,302,0,0,0,0,0,0,0,0,0,-1,1399,722,0,0
182,302,0,0,0,0,0,0,0,0,0,-1,1406,722,0,0
189,302,0,0,0,0,0,0,0,0,0,-1,1413,722,0,0
196,302,0,0,0,0,0,0,0,0,0,-1,1420,722,0,0
203,302,0,0,0,0,0,0,0,0,0,-1,1427,722,0,0
210,302,0,0,0,0,0,0,0,0,0,-1,1434,722,0,0
217,302,0,0,0,0,0,0,0,0,0,-1,1441,722,0,0
224,302,0,0,0,0,0,0,0,0,0,-1,1448,722,0,0
231,302,0,0,0,0,0,0,0,0,0,-1,1455,722,0,0
238,302,0,0,0,0,0,0,0,0,0,-1,1462,722,0,0
245,302,0,0,0,0,0,0,0,0,0,-1,1469,722,0,0
252,302,0,0,0,0,0,0,0,0,0,-1,1476,722,0,0
259,302,0,0,0,0,0,0,0,0,0,-1,1483,722,0,0
266,302,0,0,0,0,0,0,0,0,0,-1,1490,722,0,0
273,302,0,0,0,0,0,0,0,0,0,-1,1497,722,0,0
280,302,0,0,0,0,0,0,0,0,0,-1,1504,722,0,0
287,302,0,0,0,0,0,0,0,0,0,-1,1511,722,0,0
294,302,0,0,0,0,0,0,0,0,0,-1,1518,722,0,0
301,302,0,0,0,0,0,0,0,0,0,-1,1525,722,0,0
308,302,0,0,0,0,0,0,0,0,0,-1,1532,722,0,0
315,302,0,0,0,0,0,0,0,0,0,-1,1539,722,0,0
322,302,0,0,0,0,0,0,0,0,0,-1,1546,722,0,0
329,302,0,0,0,0,0,0,0,0,0,-1,1553,722,0,0
336,302,0,0,0,0,0,0,0,0,0,-1,1560,722,0,0
343,302,0,0,0,0,0,0,0,0,0,-1,1567,722,0,0
350,302,0,0,0,0,0,0,0,0,0,-1,1574,722,0,0
357,302,0,0,0,0,0,0,0,0,0,-1,1581,722,0,0
364,302,0,0,0,0,0,0,0,0,0,-1,1588,722,0,0
371,302,0,0,0,0,0,0,0,0,0,-1,1595,722,0,0
378,302,0,0,0,0,0,0,0,0,0,-1,1602,722,0,0
385,302,0,0,0,0,0,0,0,0,0,-1,1609,722,0,0
392,302,0,0,0,0,0,0,0,0,0,-1,1616,722,0,0
399,302,0,0,0,0,0,0,0,0,0,-1,1623,722,0,0
406,302,0,0,0,0,0,0,0,0,0,-1,1630,722,0,0
413,302,0,0,0,0,0,0,0,0,0,-1,1637,722,0,0
420,302,0,0,0,0,0,0,0,0,0,-1,1644,722,0,0
427,302,0,0,0,0,0,0,0,0,0,-1,1651,722,0,0
434,302,0,0,0,0,0,0,0,0,0,-1,1658,722,0,0
441,302,0,0,0,0,0,0,0,0,0,-1,1665,722,0,0
448,302,0,0,0,0,0,0,0,0,0,-1,1672,722,0,0
455,302,0,0,0,0,0,0,0,0,0,-1,1679,722,0,0
462,302,0,0,0,0,0,0,0,0,0,-1,1686,722,0,0
469,302,0,0,0,0,0,0,0,0,0,-1,1693,722,0,0
476,302,0,0,0,0,0,0,0,0,0,-1,1700,722,0,0
483,302,0,0,0,0,0,0,0,0,0,-1,1707,722,0,0
490,302,0,0,0,0,0,0,0,0,0,-1,1714,722,0,0
497,302,0,0,0,0,0,0,0,0,0,-1,1721,722,0,0
504,302,0,0,0,0,0,0,0,0,0,-1,1728,722,0,0
511,302,0,0,0,0,0,0,0,0,0,-1,1735,722,0,0
518,302,0,0,0,0,0,0,0,0,0,-1,1742,722,0,0
525,302,0,0,0,0,0,0,0,0,0,-1,1749,722,0,0
532,302,0,0,0,0,0,0,0,0,0,-1,1756,722,0,0
539,302,0,0,0,0,0,0,0,0,0,-1,1763,722,0,0
546,302,48.9873,1.50562,0,0,0,0,0,0,0,-1,1770,722,48.9873,-1.50562
553,302,56.7844,3.46533,0,0,0,0,0,0,0,-1,1777,722,56.7844,-3.4653
560,302,56.7115,3.84808,0,0,0,0,0,0,0,-1,1784,722,56.7116,-3.84806
567,302,55.9475,4.24542,0,0,0,0,0,0,0,-1,1791,722,55.9475,-4.24542
574,302,45.9537,6.00867,0,0,0,0,0,0,0,-1,1798,722,45.9537,-6.00864
581,302,45.137,7.38043,0,0,0,0,0,0,0,-1,1805,722,45.1369,-7.38044
588,302,26.9731,7.19983,0,0,0,0,0,0,0,-1,1812,722,26.9732,-7.19981
595,302,27.3826,8.13104,0,0,0,0,0,0,0,-1,1819,722,27.3825,-8.13102
602,302,14.7349,5.21246,0,0,0,0,0,0,0,-1,1826,722,14.7349,-5.21247
609,302,31.1039,-6.34253,0,0,0,0,0,0,0,-1,1833,722,31.1039,6.34254
616,302,74.8665,-16.7825,0,0,0,0,0,0,0,-1,1840,722,74.8664,16.7825
623,302,143.144,-13.0864,0,0,0,0,0,0,0,-1,1847,722,143.143,13.0863
630,302,164.042,-9.12671,0,0,0,0,0,0,0,-1,1854,722,164.042,9.12669
637,302,162.942,-6.04474,-0.00469124,0.023112,-0.00809689,0.0252981,-0.00687733,-1.30709,0.019565,0.0427249,1861,722,162.942,6.04473
644,302,162.197,-3.04791,-0.00347564,0.0244901,-0.0124621,0.0292376,-0.00822308,-1.20682,0.022734,0.0275472,1868,722,162.197,3.04793
651,302,161.52,-0.155518,-0.00220097,0.0264467,-0.0165368,0.0340006,-0.00975492,-1.1423,0.0265236,0.0241542,1875,722,161.52,0.155532
658,302,160.975,2.65344,-0.000810581,0.0288942,-0.0203342,0.0392226,-0.011139,-1.10082,0.030546,0.0306973,1882,722,160.975,-2.65346
665,302,160.332,5.56232,0.000531139,0.0318231,-0.0239109,0.0447521,-0.0123978,-1.07511,0.0347133,0.0295052,1889,722,160.332,-5.56233
672,302,159.679,8.39569,0.00191024,0.0353262,-0.0272455,0.0505788,-0.0133423,-1.06045,0.0389362,0.0186283,1896,722,159.679,-8.39569
679,302,159.193,11.1684,0.00343408,0.0394805,-0.0302473,0.0566671,-0.0137525,-1.05408,0.0431,0.0143636,1903,722,159.193,-11.1684
686,302,158.685,13.885,0.00497957,0.0448913,-0.0329779,0.0634812,-0.0136103,-1.05749,0.0475119,0.0356235,1910,722,158.685,-13.885
693,302,158.073,16.5384,0,0,0,0,0,0,0,-1,1917,722,158.073,-16.5384
700,302,25.4069,1.97308,0,0,0,0,0,0,0,-1,1924,722,25.4068,-1.97311
707,302,16.7321,4.76685,0,0,0,0,0,0,0,-1,1931,722,16.7321,-4.76687
714,302,17.2,5.77594,0,0,0,0,0,0,0,-1,1938,722,17.2,-5.77595
721,302,17.7914,6.60394,0,0,0,0,0,0,0,-1,1945,722,17.7914,-6.60395
728,302,17.2798,4.81702,0,0,0,0,0,0,0,-1,1952,722,17.2798,-4.81703
735,302,0,0,0,0,0,0,0,0,0,-1,1959,722,0,0
742,302,0,0,0,0,0,0,0,0,0,-1,1966,722,0,0
749,302,0,0,0,0,0,0,0,0,0,-1,1973,722,0,0
756,302,0,0,0,0,0,0,0,0,0,-1,1980,722,0,0
763,302,0,0,0,0,0,0,0,0,0,-1,1987,722,0,0
770,302,0,0,0,0,0,0,0,0,0,-1,1994,722,0,0
777,302,0,0,0,0,0,0,0,0,0,-1,2001,722,0,0
784,302,0,0,0,0,0,0,0,0,0,-1,2008,722,0,0
791,302,0,0,0,0,0,0,0,0,0,-1,2015,722,0,0
798,302,0,0,0,0,0,0,0,0,0,-1,2022,722,0,0
805,302,0,0,0,0,0,0,0,0,0,-1,2029,722,0,0
812,302,0,0,0,0,0,0,0,0,0,-1,2036,722,0,0
-700,295,0,0,0,0,0,0,0,0,0,-1,524,729,0,0
-693,295,0,0,0,0,0,0,0,0,0,-1,531,729,0,0
-686,295,0,0,0,0,0,0,0,0,0,-1,538,729,0,0
-679,295,0,0,0,0,0,0,0,0,0,-1,545,729,0,0
-672,295,0,0,0,0,0,0,0,0,0,-1,552,729,0,0
-665,295,0,0,0,0,0,0,0,0,0,-1,559,729,0,0
-658,295,0,0,0,0,0,0,0,0,0,-1,566,729,0,0
-651,295,0,0,0,0,0,0,0,0,0,-1,573,729,0,0
-644,295,0,0,0,0,0,0,0,0,0,-1,580,729,0,0
-637,295,0,0,0,0,0,0,0,0,0,-1,587,729,0,0
-630,295,0,0,0,0,0,0,0,0,0,-1,594,729,0,0
-623,295,0,0,0,0,0,0,0,0,0,-1,601,729,0,0
-616,295,-13.4911,1.31738,0,0,0,0,0,0,0,-1,608,729,-13.4911,-1.3174
-609,295,-10.2864,0.832031,0,0,0,0,0,0,0,-1,615,729,-10.2863,-0.832034
-602,295,-8.19006,3.01587,0,0,0,0,0,0,0,-1,622,729,-8.19005,-3.01588
-595,295,-0.615479,-1.95447,0,0,0,0,0,0,0,-1,629,729,-0.615481,1.95445
-588,295,-7.98999,1.56903,0,0,0,0,0,0,0,-1,636,729,-7.98997,-1.56905
-581,295,-12.0404,0.150574,0,0,0,0,0,0,0,-1,643,729,-12.0404,-0.150604
-574,295,-12.1605,-0.0739746,0,0,0,0,0,0,0,-1,650,729,-12.1605,0.0739856
-567,295,-62.5502,4.69238,0,0,0,0,0,0,0,-1,657,729,-62.5503,-4.69241
-560,295,-152.45,16.9294,0,0,0,0,0,0,0,-1,664,729,-152.45,-16.9294
-553,295,-152.839,14.1845,0.00601413,0.0455695,0.0341761,0.0652781,-0.0136945,1.0477,0.0487292,0.0296955,671,729,-152.839,-14.1845
-546,295,-153.429,11.5334,0.0052284,0.0413512,0.0299819,0.0582916,-0.011712,1.05649,0.0432964,0.0284169,678,729,-153.429,-11.5334
-539,295,-154.016,8.77112,0.00360749,0.0375384,0.0261371,0.0517334,-0.0105875,1.07327,0.0385064,0.0262557,685,729,-154.016,-8.77111
-532,295,-154.549,6.02716,0.00146121,0.0338859,0.02247,0.0453818,-0.0100346,1.09791,0.0340952,0.0198223,692,729,-154.549,-6.02718
-525,295,-155.111,3.10297,-0.00124109,0.0306083,0.0189188,0.0394125,-0.0100452,1.13524,0.0301858,0.0184496,699,729,-155.111,-3.10296
-518,295,-155.785,0.226074,-0.00449554,0.0279361,0.0154497,0.0341177,-0.0106772,1.19019,0.0270169,0.0163427,706,729,-155.785,-0.226056
-511,295,-156.458,-2.64722,-0.0082481,0.0256951,0.0121167,0.0295765,-0.0121296,1.26079,0.0247714,0.0205461,713,729,-156.458,2.64722
-504,295,-157.333,-5.74426,-0.0126196,0.0241757,0.00892233,0.0262251,-0.014669,1.34502,0.0239224,0.0259129,720,729,-157.333,5.74424
-497,295,-158.903,-8.87463,0,0,0,0,0,0,0,-1,727,729,-158.903,8.87465
-490,295,-52.578,-14.2667,0,0,0,0,0,0,0,-1,734,729,-52.578,14.2667
-483,295,-6.84503,-0.454651,0,0,0,0,0,0,0,-1,741,729,-6.84505,0.454639
-476,295,-13.1738,-0.836243,0,0,0,0,0,0,0,-1,748,729,-13.1738,0.836223
-469,295,-26.5608,-0.466187,0,0,0,0,0,0,0,-1,755,729,-26.5608,0.466162
-462,295,-29.7701,-0.792664,0,0,0,0,0,0,0,-1,762,729,-29.7701,0.792642
-455,295,-45.11,-2.79272,0,0,0,0,0,0,0,-1,769,729,-45.11,2.79272
-448,295,-48.0288,1.41229,0,0,0,0,0,0,0,-1,776,729,-48.0288,-1.41227
-441,295,-47.1089,1.03058,0,0,0,0,0,0,0,-1,783,729,-47.109,-1.0306
-434,295,-46.2319,1.10614,0,0,0,0,0,0,0,-1,790,729,-46.2319,-1.10612
-427,295,0,0,0,0,0,0,0,0,0,-1,797,729,0,0
-420,295,0,0,0,0,0,0,0,0,0,-1,804,729,0,0
-413,295,0,0,0,0,0,0,0,0,0,-1,811,729,0,0
-406,295,0,0,0,0,0,0,0,0,0,-1,818,729,0,0
-399,295,0,0,0,0,0,0,0,0,0,-1,825,729,0,0
-392,295,0,0,0,0,0,0,0,0,0,-1,832,729,0,0
-385,295,0,0,0,0,0,0,0,0,0,-1,839,729,0,0
-378,295,0,0,0,0,0,0,0,0,0,-1,846,729,0,0
-371,295,0,0,0,0,0,0,0,0,0,-1,853,729,0,0
-364,295,0,0,0,0,0,0,0,0,0,-1,860,729,0,0
-357,295,0,0,0,0,0,0,0,0,0,-1,867,729,0,0
-350,295,0,0,0,0,0,0,0,0,0,-1,874,729,0,0
-343,295,0,0,0,0,0,0,0,0,0,-1,881,729,0,0
-336,295,0,0,0,0,0,0,0,0,0,-1,888,729,0,0
-329,295,0,0,0,0,0,0,0,0,0,-1,895,729,0,0
-322,295,0,0,0,0,0,0,0,0,0,-1,902,729,0,0
-315,295,0,0,0,0,0,0,0,0,0,-1,909,729,0,0
-308,295,0,0,0,0,0,0,0,0,0,-1,916,729,0,0
-301,295,0,0,0,0,0,0,0,0,0,-1,923,729,0,0
-294,295,0,0,0,0,0,0,0,0,0,-1,930,729,0,0
-287,295,0,0,0,0,0,0,0,0,0,-1,937,729,0,0
-280,295,0,0,0,0,0,0,0,0,0,-1,944,729,0,0
-273,295,0,0,0,0,0,0,0,0,0,-1,951,729,0,0
-266,295,0,0,0,0,0,0,0,0,0,-1,958,729,0,0
-259,295,0,0,0,0,0,0,0,0,0,-1,965,729,0,0
-252,295,0,0,0,0,0,0,0,0,0,-1,972,729,0,0
-245,295,0,0,0,0,0,0,0,0,0,-1,979,729,0,0
-238,295,0,0,0,0,0,0,0,0,0,-1,986,729,0,0
-231,295,0,0,0,0,0,0,0,0,0,-1,993,729,0,0
-224,295,0,0,0,0,0,0,0,0,0,-1,1000,729,0,0
-217,295,0,0,0,0,0,0,0,0,0,-1,1007,729,0,0
-210,295,0,0,0,0,0,0,0,0,0,-1,1014,729,0,0
-203,295,0,0,0,0,0,0,0,0,0,-1,1021,729,0,0
-196,295,0,0,0,0,0,0,0,0,0,-1,1028,729,0,0
-189,295,0,0,0,0,0,0,0,0,0,-1,1035,729,0,0
-182,295,0,0,0,0,0,0,0,0,0,-1,1042,729,0,0
-175,295,0,0,0,0,0,0,0,0,0,-1,1049,729,0,0
-168,295,0,0,0,0,0,0,0,0,0,-1,1056,729,0,0
-161,295,0,0,0,0,0,0,0,0,0,-1,1063,729,0,0
-154,295,0,0,0,0,0,0,0,0,0,-1,1070,729,0,0
-147,295,0,0,0,0,0,0,0,0,0,-1,1077,729,0,0
-140,295,0,0,0,0,0,0,0,0,0,-1,1084,729,0,0
-133,295,0,0,0,0,0,0,0,0,0,-1,1091,729,0,0
-126,295,0,0,0,0,0,0,0,0,0,-1,1098,729,0,0
-119,295,0,0,0,0,0,0,0,0,0,-1,1105,729,0,0
-112,295,0,0,0,0,0,0,0,0,0,-1,1112,729,0,0
-105,295,0,0,0,0,0,0,0,0,0,-1,1119,729,0,0
-98,295,0,0,0,0,0,0,0,0,0,-1,1126,729,0,0
-91,295,0,0,0,0,0,0,0,0,0,-1,1133,729,0,0
-84,295,0,0,0,0,0,0,0,0,0,-1,1140,729,0,0
-77,295,0,0,0,0,0,0,0,0,0,-1,1147,729,0,0
-70,295,0,0,0,0,0,0,0,0,0,-1,1154,729,0,0
-63,295,0,0,0,0,0,0,0,0,0,-1,1161,729,0,0
-56,295,0,0,0,0,0,0,0,0,0,-1,1168,729,0,0
-49,295,0,0,0,0,0,0,0,0,0,-1,1175,729,0,0
-42,295,0,0,0,0,0,0,0,0,0,-1,1182,729,0,0
-35,295,0,0,0,0,0,0,0,0,0,-1,1189,729,0,0
-28,295,0,0,0,0,0,0,0,0,0,-1,1196,729,0,0
-21,295,0,0,0,0,0,0,0,0,0,-1,1203,729,0,0
-14,295,0,0,0,0,0,0,0,0,0,-1,1210,729,0,0
-7,295,0,0,0,0,0,0,0,0,0,-1,1217,729,0,0
0,295,0,0,0,0,0,0,0,0,0,-1,1224,729,0,0
7,295,0,0,0,0,0,0,0,0,0,-1,1231,729,0,0
14,295,0,0,0,0,0,0,0,0,0,-1,1238,729,0,0
21,295,0,0,0,0,0,0,0,0,0,-1,1245,729,0,0
28,295,0,0,0,0,0,0,0,0,0,-1,1252,729,0,0
35,295,0,0,0,0,0,0,0,0,0,-1,1259,729,0,0
42,295,0,0,0,0,0,0,0,0,0,-1,1266,729,0,0
49,295,0,0,0,0,0,0,0,0,0,-1,1273,729,0,0
56,295,0,0,0,0,0,0,0,0,0,-1,1280,729,0,0
63,295,0,0,0,0,0,0,0,0,0,-1,1287,729,0,0
70,295,0,0,0,0,0,0,0,0,0,-1,1294,729,0,0
77,295,0,0,0,0,0,0,0,0,0,-1,1301,729,0,0
84,295,0,0,0,0,0,0,0,0,0,-1,1308,729,0,0
91,295,0,0,0,0,0,0,0,0,0,-1,1315,729,0,0
98,295,0,0,0,0,0,0,0,0,0,-1,1322,729,0,0
105,295,0,0,0,0,0,0,0,0,0,-1,1329,729,0,0
112,295,0,0,0,0,0,0,0,0,0,-1,1336,729,0,0
119,295,0,0,0,0,0,0,0,0,0,-1,1343,729,0,0
126,295,0,0,0,0,0,0,0,0,0,-1,1350,729,0,0
133,295,0,0,0,0,0,0,0,0,0,-1,1357,729,0,0
140,295,0,0,0,0,0,0,0,0,0,-1,1364,729,0,0
147,295,0,0,0,0,0,0,0,0,0,-1,1371,729,0,0
154,295,0,0,0,0,0,0,0,0,0,-1,1378,729,0,0
161,295,0,0,0,0,0,0,0,0,0,-1,1385,729,0,0
168,295,0,0,0,0,0,0,0,0,0,-1,1392,729,0,0
175,295,0,0,0,0,0,0,0,0,0,-1,1399,729,0,0
182,295,0,0,0,0,0,0,0,0,0,-1,1406,729,0,0
189,295,0,0,0,0,0,0,0,0,0,-1,1413,729,0,0
196,295,0,0,0,0,0,0,0,0,0,-1,1420,729,0,0
203,295,0,0,0,0,0,0,0,0,0,-1,1427,729,0,0
210,295,0,0,0,0,0,0,0,0,0,-1,1434,729,0,0
217,295,0,0,0,0,0,0,0,0,0,-1,1441,729,0,0
224,295,0,0,0,0,0,0,0,0,0,-1,1448,729,0,0
231,295,0,0,0,0,0,0,0,0,0,-1,1455,729,0,0
238,295,0,0,0,0,0,0,0,0,0,-1,1462,729,0,0
245,295,0,0,0,0,0,0,0,0,0,-1,1469,729,0,0
252,295,0,0,0,0,0,0,0,0,0,-1,1476,729,0,0
259,295,0,0,0,0,0,0,0,0,0,-1,1483,729,0,0
266,295,0,0,0,0,0,0,0,0,0,-1,1490,729,0,0
273,295,0,0,0,0,0,0,0,0,0,-1,1497,729,0,0
280,295,0,0,0,0,0,0,0,0,0,-1,1504,729,0,0
287,295,0,0,0,0,0,0,0,0,0,-1,1511,729,0,0
294,295,0,0,0,0,0,0,0,0,0,-1,1518,729,0,0
301,295,0,0,0,0,0,0,0,0,0,-1,1525,729,0,0
308,295,0,0,0,0,0,0,0,0,0,-1,1532,729,0,0
315,295,0,0,0,0,0,0,0,0,0,-1,1539,729,0,0
322,295,0,0,0,0,0,0,0,0,0,-1,1546,729,0,0
329,295,0,0,0,0,0,0,0,0,0,-1,1553,729,0,0
336,295,0,0,0,0,0,0,0,0,0,-1,1560,729,0,0
343,295,0,0,0,0,0,0,0,0,0,-1,1567,729,0,0
350,295,0,0,0,0,0,0,0,0,0,-1,1574,729,0,0
357,295,0,0,0,0,0,0,0,0,0,-1,1581,729,0,0
364,295,0,0,0,0,0,0,0,0,0,-1,1588,729,0,0
371,295,0,0,0,0,0,0,0,0,0,-1,1595,729,0,0
378,295,0,0,0,0,0,0,0,0,0,-1,1602,729,0,0
385,295,0,0,0,0,0,0,0,0,0,-1,1609,729,0,0
392,295,0,0,0,0,0,0,0,0,0,-1,1616,729,0,0
399,295,0,0,0,0,0,0,0,0,0,-1,1623,729,0,0
406,295,0,0,0,0,0,0,0,0,0,-1,1630,729,0,0
413,295,0,0,0,0,0,0,0,0,0,-1,1637,729,0,0
420,295,0,0,0,0,0,0,0,0,0,-1,1644,729,0,0
427,295,0,0,0,0,0,0,0,0,0,-1,1651,729,0,0
434,295,0,0,0,0,0,0,0,0,0,-1,1658,729,0,0
441,295,0,0,0,0,0,0,0,0,0,-1,1665,729,0,0
448,295,0,0,0,0,0,0,0,0,0,-1,1672,729,0,0
455,295,0,0,0,0,0,0,0,0,0,-1,1679,729,0,0
462,295,0,0,0,0,0,0,0,0,0,-1,1686,729,0,0
469,295,0,0,0,0,0,0,0,0,0,-1,1693,729,0,0
476,295,0,0,0,0,0,0,0,0,0,-1,1700,729,0,0
483,295,0,0,0,0,0,0,0,0,0,-1,1707,729,0,0
490,295,0,0,0,0,0,0,0,0,0,-1,1714,729,0,0
497,295,0,0,0,0,0,0,0,0,0,-1,1721,729,0,0
504,295,0,0,0,0,0,0,0,0,0,-1,1728,729,0,0
511,295,0,0,0,0,0,0,0,0,0,-1,1735,729,0,0
518,295,0,0,0,0,0,0,0,0,0,-1,1742,729,0,0
525,295,0,0,0,0,0,0,0,0,0,-1,1749,729,0,0
532,295,0,0,0,0,0,0,0,0,0,-1,1756,729,0,0
539,295,0,0,0,0,0,0,0,0,0,-1,1763,729,0,0
546,295,57.4674,2.36884,0,0,0,0,0,0,0,-1,1770,729,57.4674,-2.36883
553,295,57.1969,2.73846,0,0,0,0,0,0,0,-1,1777,729,57.197,-2.73843
560,295,57.0291,3.27454,0,0,0,0,0,0,0,-1,1784,729,57.029,-3.27454
567,295,56.6243,3.88239,0,0,0,0,0,0,0,-1,1791,729,56.6242,-3.8824
574,295,56.5275,4.755,0,0,0,0,0,0,0,-1,1798,729,56.5274,-4.75501
581,295,37.8191,2.19592,0,0,0,0,0,0,0,-1,1805,729,37.8191,-2.19594
588,295,39.0542,2.45679,0,0,0,0,0,0,0,-1,1812,729,39.0542,-2.45676
595,295,27.2102,6.99121,0,0,0,0,0,0,0,-1,1819,729,27.2103,-6.99121
602,295,26.9065,7.82141,0,0,0,0,0,0,0,-1,1826,729,26.9064,-7.8214
609,295,11.7737,2.19989,0,0,0,0,0,0,0,-1,1833,729,11.7736,-2.19988
616,295,45.2537,-10.4867,0,0,0,0,0,0,0,-1,1840,729,45.2537,10.4867
623,295,86.2454,-17.1973,0,0,0,0,0,0,0,-1,1847,729,86.2454,17.1973
630,295,145.647,-9.03015,0,0,0,0,0,0,0,-1,1854,729,145.647,9.03017
637,295,166.181,-5.48376,0,0,0,0,0,0,0,-1,1861,729,166.181,5.48376
644,295,165.452,-2.51923,-0.00484512,0.0229624,-0.0093523,0.0258152,-0.00769785,-1.27473,0.0202693,0.044542,1868,729,165.452,2.51925
651,295,164.77,0.545593,-0.0036061,0.0248616,-0.0136345,0.0303382,-0.0090827,-1.18885,0.023837,0.0214826,1875,729,164.77,-0.545604
658,295,164.132,3.38324,-0.00229658,0.0273449,-0.017551,0.0354957,-0.0104474,-1.13603,0.0278083,0.0243528,1882,729,164.132,-3.38324
665,295,163.452,6.12628,-0.000966007,0.0303652,-0.0211872,0.0410494,-0.0116501,-1.10374,0.0319653,0.0207208,1889,729,163.452,-6.1263
672,295,162.916,8.90552,0.000384447,0.0339502,-0.0245878,0.0469368,-0.0126022,-1.08486,0.0362301,0.020488,1896,729,162.916,-8.90551
679,295,162.429,11.6951,0.00188259,0.0381712,-0.0276885,0.0531308,-0.013077,-1.07544,0.0404897,0.0180127,1903,729,162.429,-11.695
686,295,161.865,14.3035,0.00351024,0.0434156,-0.030517,0.0599238,-0.012998,-1.07493,0.0449133,0.0183449,1910,729,161.865,-14.3035
693,295,161.27,17.1418,0,0,0,0,0,0,0,-1,1917,729,161.27,-17.1418
700,295,31.3757,2.06982,0,0,0,0,0,0,0,-1,1924,729,31.3758,-2.0698
707,295,22.2661,3.05206,0,0,0,0,0,0,0,-1,1931,729,22.2662,-3.05207
714,295,17.4906,4.63068,0,0,0,0,0,0,0,-1,1938,729,17.4906,-4.63066
721,295,18.3792,5.32281,0,0,0,0,0,0,0,-1,1945,729,18.3791,-5.32283
728,295,17.379,3.74866,0,0,0,0,0,0,0,-1,1952,729,17.379,-3.74863
735,295,0,0,0,0,0,0,0,0,0,-1,1959,729,0,0
742,295,0,0,0,0,0,0,0,0,0,-1,1966,729,0,0
749,295,0,0,0,0,0,0,0,0,0,-1,1973,729,0,0
756,295,0,0,0,0,0,0,0,0,0,-1,1980,729,0,0
763,295,0,0,0,0,0,0,0,0,0,-1,1987,729,0,0
770,295,0,0,0,0,0,0,0,0,0,-1,1994,729,0,0
777,295,0,0,0,0,0,0,0,0,0,-1,2001,729,0,0
784,295,0,0,0,0,0,0,0,0,0,-1,2008,729,0,0
791,295,0,0,0,0,0,0,0,0,0,-1,2015,729,0,0
798,295,0,0,0,0,0,0,0,0,0,-1,2022,729,0,0
805,295,0,0,0,0,0,0,0,0,0,-1,2029,729,0,0
812,295,0,0,0,0,0,0,0,0,0,-1,2036,729,0,0
-700,288,0,0,0,0,0,0,0,0,0,-1,524,736,0,0
-693,288,0,0,0,0,0,0,0,0,0,-1,531,736,0,0
-686,288,0,0,0,0,0,0,0,0,0,-1,538,736,0,0
-679,288,0,0,0,0,0,0,0,0,0,-1,545,736,0,0
-672,288,0,0,0,0,0,0,0,0,0,-1,552,736,0,0
-665,288,0,0,0,0,0,0,0,0,0,-1,559,736,0,0
-658,288,0,0,0,0,0,0,0,0,0,-1,566,736,0,0
-651,288,0,0,0,0,0,0,0,0,0,-1,573,736,0,0
-644,288,0,0,0,0,0,0,0,0,0,-1,580,736,0,0
-637,288,0,0,0,0,0,0,0,0,0,-1,587,736,0,0
-630,288,0,0,0,0,0,0,0,0,0,-1,594,736,0,0
-623,288,0,0,0,0,0,0,0,0,0,-1,601,736,0,0
-616,288,-11.7584,2.4425,0,0,0,0,0,0,0,-1,608,736,-11.7584,-2.44251
-609,288,-10.3007,2.32178,0,0,0,0,0,0,0,-1,615,736,-10.3007,-2.32178
-602,288,-10.1458,-1.85559,0,0,0,0,0,0,0,-1,622,736,-10.1458,1.85556
-595,288,-7.63208,1.81769,0,0,0,0,0,0,0,-1,629,736,-7.63205,-1.81766
-588,288,-8.19269,1.50598,0,0,0,0,0,0,0,-1,636,736,-8.19268,-1.50601
-581,288,-59.2949,7.2605,0,0,0,0,0,0,0,-1,643,736,-59.2949,-7.26048
-574,288,-74.4278,8.36401,0,0,0,0,0,0,0,-1,650,736,-74.4278,-8.36403
-567,288,-155.175,19.7549,0,0,0,0,0,0,0,-1,657,736,-155.175,-19.7549
-560,288,-155.62,17.0562,0.00449203,0.0474175,0.0352318,0.0672092,-0.0152996,1.05897,0.0506817,0.0287596,664,736,-155.62,-17.0562
-553,288,-155.976,14.6423,0.00438767,0.0432619,0.0310603,0.0604656,-0.012816,1.06498,0.0451923,0.0286016,671,736,-155.976,-14.6423
-546,288,-156.597,12.0394,0.00351035,0.0392627,0.0269061,0.0536897,-0.0109167,1.07861,0.0399326,0.0314788,678,736,-156.597,-12.0395
-539,288,-157.222,9.27039,0.00184827,0.0355781,0.0229998,0.0472337,-0.00980724,1.10175,0.0352164,0.0239686,685,736,-157.222,-9.27038
-532,288,-157.624,6.48871,-0.000427452,0.0320686,0.0192419,0.0410049,-0.00936376,1.13602,0.0309339,0.018872,692,736,-157.624,-6.48872
-525,288,-158.153,3.7005,-0.00332089,0.0288594,0.015621,0.0351949,-0.00965639,1.18549,0.0272583,0.0170551,699,736,-158.153,-3.70047
-518,288,-158.873,0.825806,-0.00685482,0.026099,0.0121314,0.0300832,-0.0108391,1.25347,0.0244818,0.0216316,706,736,-158.873,-0.825818
-511,288,-159.766,-2.08087,-0.0110043,0.0237247,0.00884771,0.0258489,-0.0131285,1.33518,0.0228995,0.0235891,713,736,-159.766,2.08085
-504,288,-160.419,-5.06818,0,0,0,0,0,0,0,-1,720,736,-160.419,5.06819
-497,288,-81.8885,-16.6532,0,0,0,0,0,0,0,-1,727,736,-81.8885,16.6532
-490,288,-50.7991,-12.983,0,0,0,0,0,0,0,-1,734,736,-50.799,12.9831
-483,288,-17.3287,0.564758,0,0,0,0,0,0,0,-1,741,736,-17.3287,-0.56477
-476,288,-26.136,0.452148,0,0,0,0,0,0,0,-1,748,736,-26.136,-0.452177
-469,288,-27.7904,0.649841,0,0,0,0,0,0,0,-1,755,736,-27.7904,-0.649854
-462,288,-44.999,-2.65112,0,0,0,0,0,0,0,-1,762,736,-44.999,2.65111
-455,288,-49.1631,1.86432,0,0,0,0,0,0,0,-1,769,736,-49.1632,-1.8643
-448,288,-55.5283,0.0455933,0,0,0,0,0,0,0,-1,776,736,-55.5284,-0.0456
-441,288,-55.0096,0.39325,0,0,0,0,0,0,0,-1,783,736,-55.0096,-0.393269
-434,288,-46.7119,1.66388,0,0,0,0,0,0,0,-1,790,736,-46.7119,-1.66385
-427,288,0,0,0,0,0,0,0,0,0,-1,797,736,0,0
-420,288,0,0,0,0,0,0,0,0,0,-1,804,736,0,0
-413,288,0,0,0,0,0,0,0,0,0,-1,811,736,0,0
-406,288,0,0,0,0,0,0,0,0,0,-1,818,736,0,0
-399,288,0,0,0,0,0,0,0,0,0,-1,825,736,0,0
-392,288,0,0,0,0,0,0,0,0,0,-1,832,736,0,0
-385,288,0,0,0,0,0,0,0,0,0,-1,839,736,0,0
-378,288,0,0,0,0,0,0,0,0,0,-1,846,736,0,0
-371,288,0,0,0,0,0,0,0,0,0,-1,853,736,0,0
-364,288,0,0,0,0,0,0,0,0,0,-1,860,736,0,0
-357,288,0,0,0,0,0,0,0,0,0,-1,867,736,0,0
-350,288,0,0,0,0,0,0,0,0,0,-1,874,736,0,0
-343,288,0,0,0,0,0,0,0,0,0,-1,881,736,0,0
-336,288,0,0,0,0,0,0,0,0,0,-1,888,736,0,0
-329,288,0,0,0,0,0,0,0,0,0,-1,895,736,0,0
-322,288,0,0,0,0,0,0,0,0,0,-1,902,736,0,0
-315,288,0,0,0,0,0,0,0,0,0,-1,909,736,0,0
-308,288,0,0,0,0,0,0,0,0,0,-1,916,736,0,0
-301,288,0,0,0,0,0,0,0,0,0,-1,923,736,0,0
-294,288,0,0,0,0,0,0,0,0,0,-1,930,736,0,0
-287,288,0,0,0,0,0,0,0,0,0,-1,937,736,0,0
-280,288,0,0,0,0,0,0,0,0,0,-1,944,736,0,0
-273,288,0,0,0,0,0,0,0,0,0,-1,951,736,0,0
-266,288,0,0,0,0,0,0,0,0,0,-1,958,736,0,0
-259,288,0,0,0,0,0,0,0,0,0,-1,965,736,0,0
-252,288,0,0,0,0,0,0,0,0,0,-1,972,736,0,0
-245,288,0,0,0,0,0,0,0,0,0,-1,979,736,0,0
-238,288,0,0,0,0,0,0,0,0,0,-1,986,736,0,0
-231,288,0,0,0,0,0,0,0,0,0,-1,993,736,0,0
-224,288,0,0,0,0,0,0,0,0,0,-1,1000,736,0,0
-217,288,0,0,0,0,0,0,0,0,0,-1,1007,736,0,0
-210,288,0,0,0,0,0,0,0,0,0,-1,1014,736,0,0
-203,288,0,0,0,0,0,0,0,0,0,-1,1021,736,0,0
-196,288,0,0,0,0,0,0,0,0,0,-1,1028,736,0,0
-189,288,0,0,0,0,0,0,0,0,0,-1,1035,736,0,0
-182,288,0,0,0,0,0,0,0,0,0,-1,1042,736,0,0
-175,288,0,0,0,0,0,0,0,0,0,-1,1049,736,0,0
-168,288,0,0,0,0,0,0,0,0,0,-1,1056,736,0,0
-161,288,0,0,0,0,0,0,0,0,0,-1,1063,736,0,0
-154,288,0,0,0,0,0,0,0,0,0,-1,1070,736,0,0
-147,288,0,0,0,0,0,0,0,0,0,-1,1077,736,0,0
-140,288,0,0,0,0,0,0,0,0,0,-1,1084,736,0,0
-133,288,0,0,0,0,0,0,0,0,0,-1,1091,736,0,0
-126,288,0,0,0,0,0,0,0,0,0,-1,1098,736,0,0
-119,288,0,0,0,0,0,0,0,0,0,-1,1105,736,0,0
-112,288,0,0,0,0,0,0,0,0,0,-1,1112,736,0,0
-105,288,0,0,0,0,0,0,0,0,0,-1,1119,736,0,0
-98,288,0,0,0,0,0,0,0,0,0,-1,1126,736,0,0
-91,288,0,0,0,0,0,0,0,0,0,-1,1133,736,0,0
-84,288,0,0,0,0,0,0,0,0,0,-1,1140,736,0,0
-77,288,0,0,0,0,0,0,0,0,0,-1,1147,736,0,0
-70,288,0,0,0,0,0,0,0,0,0,-1,1154,736,0,0
-63,288,0,0,0,0,0,0,0,0,0,-1,1161,736,0,0
-56,288,0,0,0,0,0,0,0,0,0,-1,1168,736,0,0
-49,288,0,0,0,0,0,0,0,0,0,-1,1175,736,0,0
-42,288,0,0,0,0,0,0,0,0,0,-1,1182,736,0,0
-35,288,0,0,0,0,0,0,0,0,0,-1,1189,736,0,0
-28,288,0,0,0,0,0,0,0,0,0,-1,1196,736,0,0
-21,288,0,0,0,0,0,0,0,0,0,-1,1203,736,0,0
-14,288,0,0,0,0,0,0,0,0,0,-1,1210,736,0,0
-7,288,0,0,0,0,0,0,0,0,0,-1,1217,736,0,0
0,288,0,0,0,0,0,0,0,0,0,-1,1224,736,0,0
7,288,0,0,0,0,0,0,0,0,0,-1,1231,736,0,0
14,288,0,0,0,0,0,0,0,0,0,-1,1238,736,0,0
21,288,0,0,0,0,0,0,0,0,0,-1,1245,736,0,0
28,288,0,0,0,0,0,0,0,0,0,-1,1252,736,0,0
35,288,0,0,0,0,0,0,0,0,0,-1,1259,736,0,0
42,288,0,0,0,0,0,0,0,0,0,-1,1266,736,0,0
49,288,0,0,0,0,0,0,0,0,0,-1,1273,736,0,0
56,288,0,0,0,0,0,0,0,0,0,-1,1280,736,0,0
63,288,0,0,0,0,0,0,0,0,0,-1,1287,736,0,0
70,288,0,0,0,0,0,0,0,0,0,-1,1294,736,0,0
77,288,0,0,0,0,0,0,0,0,0,-1,1301,736,0,0
84,288,0,0,0,0,0,0,0,0,0,-1,1308,736,0,0
91,288,0,0,0,0,0,0,0,0,0,-1,1315,736,0,0
98,288,0,0,0,0,0,0,0,0,0,-1,1322,736,0,0
105,288,0,0,0,0,0,0,0,0,0,-1,1329,736,0,0
112,288,0,0,0,0,0,0,0,0,0,-1,1336,736,0,0
119,288,0,0,0,0,0,0,0,0,0,-1,1343,736,0,0
126,288,0,0,0,0,0,0,0,0,0,-1,1350,736,0,0
133,288,0,0,0,0,0,0,0,0,0,-1,1357,736,0,0
140,288,0,0,0,0,0,0,0,0,0,-1,1364,736,0,0
147,288,0,0,0,0,0,0,0,0,0,-1,1371,736,0,0
154,288,0,0,0,0,0,0,0,0,0,-1,1378,736,0,0
161,288,0,0,0,0,0,0,0,0,0,-1,1385,736,0,0
168,288,0,0,0,0,0,0,0,0,0,-1,1392,736,0,0
175,288,0,0,0,0,0,0,0,0,0,-1,1399,736,0,0
182,288,0,0,0,0,0,0,0,0,0,-1,1406,736,0,0
189,288,0,0,0,0,0,0,0,0,0,-1,1413,736,0,0
196,288,0,0,0,0,0,0,0,0,0,-1,1420,736,0,0
203,288,0,0,0,0,0,0,0,0,0,-1,1427,736,0,0
210,288,0,0,0,0,0,0,0,0,0,-1,1434,736,0,0
217,288,0,0,0,0,0,0,0,0,0,-1,1441,736,0,0
224,288,0,0,0,0,0,0,0,0,0,-1,1448,736,0,0
231,288,0,0,0,0,0,0,0,0,0,-1,1455,736,0,0
238,288,0,0,0,0,0,0,0,0,0,-1,1462,736,0,0
245,288,0,0,0,0,0,0,0,0,0,-1,1469,736,0,0
252,288,0,0,0,0,0,0,0,0,0,-1,1476,736,0,0
259,288,0,0,0,0,0,0,0,0,0,-1,1483,736,0,0
266,288,0,0,0,0,0,0,0,0,0,-1,1490,736,0,0
273,288,0,0,0,0,0,0,0,0,0,-1,1497,736,0,0
280,288,0,0,0,0,0,0,0,0,0,-1,1504,736,0,0
287,288,0,0,0,0,0,0,0,0,0,-1,1511,736,0,0
294,288,0,0,0,0,0,0,0,0,0,-1,1518,736,0,0
301,288,0,0,0,0,0,0,0,0,0,-1,1525,736,0,0
308,288,0,0,0,0,0,0,0,0,0,-1,1532,736,0,0
315,288,0,0,0,0,0,0,0,0,0,-1,1539,736,0,0
322,288,0,0,0,0,0,0,0,0,0,-1,1546,736,0,0
329,288,0,0,0,0,0,0,0,0,0,-1,1553,736,0,0
336,288,0,0,0,0,0,0,0,0,0,-1,1560,736,0,0
343,288,0,0,0,0,0,0,0,0,0,-1,1567,736,0,0
350,288,0,0,0,0,0,0,0,0,0,-1,1574,736,0,0
357,288,0,0,0,0,0,0,0,0,0,-1,1581,736,0,0
364,288,0,0,0,0,0,0,0,0,0,-1,1588,736,0,0
371,288,0,0,0,0,0,0,0,0,0,-1,1595,736,0,0
378,288,0,0,0,0,0,0,0,0,0,-1,1602,736,0,0
385,288,0,0,0,0,0,0,0,0,0,-1,1609,736,0,0
392,288,0,0,0,0,0,0,0,0,0,-1,1616,736,0,0
399,288,0,0,0,0,0,0,0,0,0,-1,1623,736,0,0
406,288,0,0,0,0,0,0,0,0,0,-1,1630,736,0,0
413,288,0,0,0,0,0,0,0,0,0,-1,1637,736,0,0
420,288,0,0,0,0,0,0,0,0,0,-1,1644,736,0,0
427,288,0,0,0,0,0,0,0,0,0,-1,1651,736,0,0
434,288,0,0,0,0,0,0,0,0,0,-1,1658,736,0,0
441,288,0,0,0,0,0,0,0,0,0,-1,1665,736,0,0
448,288,0,0,0,0,0,0,0,0,0,-1,1672,736,0,0
455,288,0,0,0,0,0,0,0,0,0,-1,1679,736,0,0
462,288,0,0,0,0,0,0,0,0,0,-1,1686,736,0,0
469,288,0,0,0,0,0,0,0,0,0,-1,1693,736,0,0
476,288,0,0,0,0,0,0,0,0,0,-1,1700,736,0,0
483,288,0,0,0,0,0,0,0,0,0,-1,1707,736,0,0
490,288,0,0,0,0,0,0,0,0,0,-1,1714,736,0,0
497,288,0,0,0,0,0,0,0,0,0,-1,1721,736,0,0
504,288,0,0,0,0,0,0,0,0,0,-1,1728,736,0,0
511,288,0,0,0,0,0,0,0,0,0,-1,1735,736,0,0
518,288,0,0,0,0,0,0,0,0,0,-1,1742,736,0,0
525,288,0,0,0,0,0,0,0,0,0,-1,1749,736,0,0
532,288,0,0,0,0,0,0,0,0,0,-1,1756,736,0,0
539,288,0,0,0,0,0,0,0,0,0,-1,1763,736,0,0
546,288,0,0,0,0,0,0,0,0,0,-1,1770,736,0,0
553,288,57.4934,2.28064,0,0,0,0,0,0,0,-1,1777,736,57.4934,-2.28064
560,288,57.3807,3.02881,0,0,0,0,0,0,0,-1,1784,736,57.3808,-3.0288
567,288,57.2081,3.74274,0,0,0,0,0,0,0,-1,1791,736,57.2081,-3.74273
574,288,56.9817,4.36981,0,0,0,0,0,0,0,-1,1798,736,56.9816,-4.36984
581,288,53.4904,5.33215,0,0,0,0,0,0,0,-1,1805,736,53.4904,-5.33218
588,288,54.9313,3.29852,0,0,0,0,0,0,0,-1,1812,736,54.9313,-3.29849
595,288,47.035,3.35156,0,0,0,0,0,0,0,-1,1819,736,47.035,-3.35157
602,288,26.7634,7.61279,0,0,0,0,0,0,0,-1,1826,736,26.7635,-7.61279
609,288,17.5223,4.86414,0,0,0,0,0,0,0,-1,1833,736,17.5223,-4.86412
616,288,13.4886,0.801331,0,0,0,0,0,0,0,-1,1840,736,13.4886,-0.80132
623,288,57.6567,-12.0563,0,0,0,0,0,0,0,-1,1847,736,57.6568,12.0563
630,288,165.069,-6.86572,0,0,0,0,0,0,0,-1,1854,736,165.069,6.8657
637,288,163.787,-4.63043,0,0,0,0,0,0,0,-1,1861,736,163.787,4.63045
644,288,168.59,-1.97552,0,0,0,0,0,0,0,-1,1868,736,168.59,1.97553
651,288,167.842,1.10187,-0.00485602,0.0231473,-0.0109777,0.0269377,-0.00864637,-1.23833,0.0214301,0.0277156,1875,736,167.842,-1.10187
658,288,167.091,3.96143,-0.00374653,0.0255681,-0.014914,0.0318217,-0.0100001,-1.17376,0.0252176,0.0260191,1882,736,167.091,-3.9614
665,288,166.511,6.69519,-0.002504,0.0286147,-0.0185854,0.037294,-0.0111833,-1.1339,0.0293104,0.0255158,1889,736,166.511,-6.6952
672,288,166.053,9.41797,-0.00122165,0.0322378,-0.0220359,0.0431751,-0.0121589,-1.11008,0.0335784,0.027357,1896,736,166.053,-9.41799
679,288,165.57,12.1935,0.000244331,0.0364767,-0.0252357,0.0494255,-0.0127045,-1.09671,0.0379017,0.0256826,1903,736,165.57,-12.1935
686,288,164.977,14.6784,0.0019443,0.0415693,-0.0281856,0.0562091,-0.0126955,-1.09174,0.0423438,0.0204755,1910,736,164.977,-14.6784
693,288,164.432,17.2967,0.00394486,0.047367,-0.03087,0.0633962,-0.0120843,-1.09187,0.046815,0.0402754,1917,736,164.432,-17.2967
700,288,163.864,20.0098,0,0,0,0,0,0,0,-1,1924,736,163.864,-20.0098
707,288,30.9496,3.07977,0,0,0,0,0,0,0,-1,1931,736,30.9496,-3.07975
714,288,23.0149,3.82544,0,0,0,0,0,0,0,-1,1938,736,23.0149,-3.82541
721,288,18.0732,3.69385,0,0,0,0,0,0,0,-1,1945,736,18.0732,-3.69387
728,288,19.3208,3.91455,0,0,0,0,0,0,0,-1,1952,736,19.3209,-3.91455
735,288,18.7712,3.51312,0,0,0,0,0,0,0,-1,1959,736,18.7713,-3.51309
742,288,0,0,0,0,0,0,0,0,0,-1,1966,736,0,0
749,288,0,0,0,0,0,0,0,0,0,-1,1973,736,0,0
756,288,0,0,0,0,0,0,0,0,0,-1,1980,736,0,0
763,288,0,0,0,0,0,0,0,0,0,-1,1987,736,0,0
770,288,0,0,0,0,0,0,0,0,0,-1,1994,736,0,0
777,288,0,0,0,0,0,0,0,0,0,-1,2001,736,0,0
784,288,0,0,0,0,0,0,0,0,0,-1,2008,736,0,0
791,288,0,0,0,0,0,0,0,0,0,-1,2015,736,0,0
798,288,0,0,0,0,0,0,0,0,0,-1,2022,736,0,0
805,288,0,0,0,0,0,0,0,0,0,-1,2029,736,0,0
812,288,0,0,0,0,0,0,0,0,0,-1,2036,736,0,0
-700,281,0,0,0,0,0,0,0,0,0,-1,524,743,0,0
-693,281,0,0,0,0,0,0,0,0,0,-1,531,743,0,0
-686,281,0,0,0,0,0,0,0,0,0,-1,538,743,0,0
-679,281,0,0,0,0,0,0,0,0,0,-1,545,743,0,0
-672,281,0,0,0,0,0,0,0,0,0,-1,552,743,0,0
-665,281,0,0,0,0,0,0,0,0,0,-1,559,743,0,0
-658,281,0,0,0,0,0,0,0,0,0,-1,566,743,0,0
-651,281,0,0,0,0,0,0,0,0,0,-1,573,743,0,0
-644,281,0,0,0,0,0,0,0,0,0,-1,580,743,0,0
-637,281,0,0,0,0,0,0,0,0,0,-1,587,743,0,0
-630,281,0,0,0,0,0,0,0,0,0,-1,594,743,0,0
-623,281,-19.1697,5.67017,0,0,0,0,0,0,0,-1,601,743,-19.1697,-5.67019
-616,281,-11.5906,2.6853,0,0,0,0,0,0,0,-1,608,743,-11.5906,-2.68529
-609,281,-16.1972,4.14838,0,0,0,0,0,0,0,-1,615,743,-16.1972,-4.14837
-602,281,-21.9772,6.77417,0,0,0,0,0,0,0,-1,622,743,-21.9771,-6.77415
-595,281,-10.4797,-1.07404,0,0,0,0,0,0,0,-1,629,743,-10.4798,1.07402
-588,281,-61.8041,9.54553,0,0,0,0,0,0,0,-1,636,743,-61.8041,-9.54551
-581,281,-76.5182,10.7938,0,0,0,0,0,0,0,-1,643,743,-76.5183,-10.7938
-574,281,-158.108,22.3907,0,0,0,0,0,0,0,-1,650,743,-158.108,-22.3907
-567,281,-158.343,19.9357,0,0,0,0,0,0,0,-1,657,743,-158.343,-19.9357
-560,281,-158.766,17.45,0.00314269,0.0454375,0.031955,0.062609,-0.0140288,1.07771,0.0471169,0.0145894,664,743,-158.766,-17.45
-553,281,-159.242,14.9118,0.00285678,0.0412044,0.0278885,0.0558744,-0.0118132,1.08655,0.0417482,0.0311509,671,743,-159.242,-14.9118
-546,281,-159.702,12.3843,0.00183989,0.0372516,0.0238089,0.0492166,-0.0101252,1.10511,0.0366553,0.0355678,678,743,-159.702,-12.3843
-539,281,-160.235,9.6521,0.000103248,0.0335874,0.0198686,0.0428272,-0.00913654,1.1355,0.0320343,0.0228947,685,743,-160.235,-9.65212
-532,281,-160.748,6.96106,-0.002305,0.0301239,0.0160573,0.0367292,-0.0089104,1.18053,0.0279341,0.0195898,692,743,-160.748,-6.96104
-525,281,-161.226,4.20569,-0.00537944,0.0268779,0.0124034,0.0310956,-0.00959722,1.24301,0.0245626,0.0295739,699,743,-161.226,-4.20571
-518,281,-161.881,1.26636,-0.00919417,0.0239232,0.00893011,0.0261777,-0.0114487,1.3235,0.0222715,0.0389852,706,743,-161.881,-1.26637
-511,281,-163.011,-1.58026,-0.0137938,0.0212734,0.00579199,0.0222053,-0.0147257,1.41127,0.0214673,0.0357709,713,743,-163.011,1.58027
-504,281,-164.073,-4.50598,0,0,0,0,0,0,0,-1,720,743,-164.073,4.50597
-497,281,-73.8456,-14.3827,0,0,0,0,0,0,0,-1,727,743,-73.8456,14.3827
-490,281,-27.6985,-9.63165,0,0,0,0,0,0,0,-1,734,743,-27.6986,9.63165
-483,281,-22.1078,-2.34973,0,0,0,0,0,0,0,-1,741,743,-22.1078,2.3497
-476,281,-28.0016,2.17786,0,0,0,0,0,0,0,-1,748,743,-28.0016,-2.17786
-469,281,-34.6448,0.171692,0,0,0,0,0,0,0,-1,755,743,-34.6448,-0.171685
-462,281,-46.6214,0.0193481,0,0,0,0,0,0,0,-1,762,743,-46.6214,-0.0193665
-455,281,-56.0239,-0.1521,0,0,0,0,0,0,0,-1,769,743,-56.024,0.152123
-448,281,-55.8145,0.304321,0,0,0,0,0,0,0,-1,776,743,-55.8145,-0.304294
-441,281,-55.4486,0.766052,0,0,0,0,0,0,0,-1,783,743,-55.4486,-0.766078
-434,281,0,0,0,0,0,0,0,0,0,-1,790,743,0,0
-427,281,0,0,0,0,0,0,0,0,0,-1,797,743,0,0
-420,281,0,0,0,0,0,0,0,0,0,-1,804,743,0,0
-413,281,0,0,0,0,0,0,0,0,0,-1,811,743,0,0
-406,281,0,0,0,0,0,0,0,0,0,-1,818,743,0,0
-399,281,0,0,0,0,0,0,0,0,0,-1,825,743,0,0
-392,281,0,0,0,0,0,0,0,0,0,-1,832,743,0,0
-385,281,0,0,0,0,0,0,0,0,0,-1,839,743,0,0
-378,281,0,0,0,0,0,0,0,0,0,-1,846,743,0,0
-371,281,0,0,0,0,0,0,0,0,0,-1,853,743,0,0
-364,281,0,0,0,0,0,0,0,0,0,-1,860,743,0,0
-357,281,0,0,0,0,0,0,0,0,0,-1,867,743,0,0
-350,281,0,0,0,0,0,0,0,0,0,-1,874,743,0,0
-343,281,0,0,0,0,0,0,0,0,0,-1,881,743,0,0
-336,281,0,0,0,0,0,0,0,0,0,-1,888,743,0,0
-329,281,0,0,0,0,0,0,0,0,0,-1,895,743,0,0
-322,281,0,0,0,0,0,0,0,0,0,-1,902,743,0,0
-315,281,0,0,0,0,0,0,0,0,0,-1,909,743,0,0
-308,281,0,0,0,0,0,0,0,0,0,-1,916,743,0,0
-301,281,0,0,0,0,0,0,0,0,0,-1,923,743,0,0
-294,281,0,0,0,0,0,0,0,0,0,-1,930,743,0,0
-287,281,0,0,0,0,0,0,0,0,0,-1,937,743,0,0
-280,281,0,0,0,0,0,0,0,0,0,-1,944,743,0,0
-273,281,0,0,0,0,0,0,0,0,0,-1,951,743,0,0
-266,281,0,0,0,0,0,0,0,0,0,-1,958,743,0,0
-259,281,0,0,0,0,0,0,0,0,0,-1,965,743,0,0
-252,281,0,0,0,0,0,0,0,0,0,-1,972,743,0,0
-245,281,0,0,0,0,0,0,0,0,0,-1,979,743,0,0
-238,281,0,0,0,0,0,0,0,0,0,-1,986,743,0,0
-231,281,0,0,0,0,0,0,0,0,0,-1,993,743,0,0
-224,281,0,0,0,0,0,0,0,0,0,-1,1000,743,0,0
-217,281,0,0,0,0,0,0,0,0,0,-1,1007,743,0,0
-210,281,0,0,0,0,0,0,0,0,0,-1,1014,743,0,0
-203,281,0,0,0,0,0,0,0,0,0,-1,1021,743,0,0
-196,281,0,0,0,0,0,0,0,0,0,-1,1028,743,0,0
-189,281,0,0,0,0,0,0,0,0,0,-1,1035,743,0,0
-182,281,0,0,0,0,0,0,0,0,0,-1,1042,743,0,0
-175,281,0,0,0,0,0,0,0,0,0,-1,1049,743,0,0
-168,281,0,0,0,0,0,0,0,0,0,-1,1056,743,0,0
-161,281,0,0,0,0,0,0,0,0,0,-1,1063,743,0,0
-154,281,0,0,0,0,0,0,0,0,0,-1,1070,743,0,0
-147,281,0,0,0,0,0,0,0,0,0,-1,1077,743,0,0
-140,281,0,0,0,0,0,0,0,0,0,-1,1084,743,0,0
-133,281,0,0,0,0,0,0,0,0,0,-1,1091,743,0,0
-126,281,0,0,0,0,0,0,0,0,0,-1,1098,743,0,0
-119,281,0,0,0,0,0,0,0,0,0,-1,1105,743,0,0
-112,281,0,0,0,0,0,0,0,0,0,-1,1112,743,0,0
-105,281,0,0,0,0,0,0,0,0,0,-1,1119,743,0,0
-98,281,0,0,0,0,0,0,0,0,0,-1,1126,743,0,0
-91,281,0,0,0,0,0,0,0,0,0,-1,1133,743,0,0
-84,281,0,0,0,0,0,0,0,0,0,-1,1140,743,0,0
-77,281,0,0,0,0,0,0,0,0,0,-1,1147,743,0,0
-70,281,0,0,0,0,0,0,0,0,0,-1,1154,743,0,0
-63,281,0,0,0,0,0,0,0,0,0,-1,1161,743,0,0
-56,281,0,0,0,0,0,0,0,0,0,-1,1168,743,0,0
-49,281,0,0,0,0,0,0,0,0,0,-1,1175,743,0,0
-42,281,0,0,0,0,0,0,0,0,0,-1,1182,743,0,0
-35,281,0,0,0,0,0,0,0,0,0,-1,1189,743,0,0
-28,281,0,0,0,0,0,0,0,0,0,-1,1196,743,0,0
-21,281,0,0,0,0,0,0,0,0,0,-1,1203,743,0,0
-14,281,0,0,0,0,0,0,0,0,0,-1,1210,743,0,0
-7,281,0,0,0,0,0,0,0,0,0,-1,1217,743,0,0
0,281,0,0,0,0,0,0,0,0,0,-1,1224,743,0,0
7,281,0,0,0,0,0,0,0,0,0,-1,1231,743,0,0
14,281,0,0,0,0,0,0,0,0,0,-1,1238,743,0,0
21,281,0,0,0,0,0,0,0,0,0,-1,1245,743,0,0
28,281,0,0,0,0,0,0,0,0,0,-1,1252,743,0,0
35,281,0,0,0,0,0,0,0,0,0,-1,1259,743,0,0
42,281,0,0,0,0,0,0,0,0,0,-1,1266,743,0,0
49,281,0,0,0,0,0,0,0,0,0,-1,1273,743,0,0
56,281,0,0,0,0,0,0,0,0,0,-1,1280,743,0,0
63,281,0,0,0,0,0,0,0,0,0,-1,1287,743,0,0
70,281,0,0,0,0,0,0,0,0,0,-1,1294,743,0,0
77,281,0,0,0,0,0,0,0,0,0,-1,1301,743,0,0
84,281,0,0,0,0,0,0,0,0,0,-1,1308,743,0,0
91,281,0,0,0,0,0,0,0,0,0,-1,1315,743,0,0
98,281,0,0,0,0,0,0,0,0,0,-1,1322,743,0,0
105,281,0,0,0,0,0,0,0,0,0,-1,1329,743,0,0
112,281,0,0,0,0,0,0,0,0,0,-1,1336,743,0,0
119,281,0,0,0,0,0,0,0,0,0,-1,1343,743,0,0
126,281,0,0,0,0,0,0,0,0,0,-1,1350,743,0,0
133,281,0,0,0,0,0,0,0,0,0,-1,1357,743,0,0
140,281,0,0,0,0,0,0,0,0,0,-1,1364,743,0,0
147,281,0,0,0,0,0,0,0,0,0,-1,1371,743,0,0
154,281,0,0,0,0,0,0,0,0,0,-1,1378,743,0,0
161,281,0,0,0,0,0,0,0,0,0,-1,1385,743,0,0
168,281,0,0,0,0,0,0,0,0,0,-1,1392,743,0,0
175,281,0,0,0,0,0,0,0,0,0,-1,1399,743,0,0
182,281,0,0,0,0,0,0,0,0,0,-1,1406,743,0,0
189,281,0,0,0,0,0,0,0,0,0,-1,1413,743,0,0
196,281,0,0,0,0,0,0,0,0,0,-1,1420,743,0,0
203,281,0,0,0,0,0,0,0,0,0,-1,1427,743,0,0
210,281,0,0,0,0,0,0,0,0,0,-1,1434,743,0,0
217,281,0,0,0,0,0,0,0,0,0,-1,1441,743,0,0
224,281,0,0,0,0,0,0,0,0,0,-1,1448,743,0,0
231,281,0,0,0,0,0,0,0,0,0,-1,1455,743,0,0
238,281,0,0,0,0,0,0,0,0,0,-1,1462,743,0,0
245,281,0,0,0,0,0,0,0,0,0,-1,1469,743,0,0
252,281,0,0,0,0,0,0,0,0,0,-1,1476,743,0,0
259,281,0,0,0,0,0,0,0,0,0,-1,1483,743,0,0
266,281,0,0,0,0,0,0,0,0,0,-1,1490,743,0,0
273,281,0,0,0,0,0,0,0,0,0,-1,1497,743,0,0
280,281,0,0,0,0,0,0,0,0,0,-1,1504,743,0,0
287,281,0,0,0,0,0,0,0,0,0,-1,1511,743,0,0
294,281,0,0,0,0,0,0,0,0,0,-1,1518,743,0,0
301,281,0,0,0,0,0,0,0,0,0,-1,1525,743,0,0
308,281,0,0,0,0,0,0,0,0,0,-1,1532,743,0,0
315,281,0,0,0,0,0,0,0,0,0,-1,1539,743,0,0
322,281,0,0,0,0,0,0,0,0,0,-1,1546,743,0,0
329,281,0,0,0,0,0,0,0,0,0,-1,1553,743,0,0
336,281,0,0,0,0,0,0,0,0,0,-1,1560,743,0,0
343,281,0,0,0,0,0,0,0,0,0,-1,1567,743,0,0
350,281,0,0,0,0,0,0,0,0,0,-1,1574,743,0,0
357,281,0,0,0,0,0,0,0,0,0,-1,1581,743,0,0
364,281,0,0,0,0,0,0,0,0,0,-1,1588,743,0,0
371,281,0,0,0,0,0,0,0,0,0,-1,1595,743,0,0
378,281,0,0,0,0,0,0,0,0,0,-1,1602,743,0,0
385,281,0,0,0,0,0,0,0,0,0,-1,1609,743,0,0
392,281,0,0,0,0,0,0,0,0,0,-1,1616,743,0,0
399,281,0,0,0,0,0,0,0,0,0,-1,1623,743,0,0
406,281,0,0,0,0,0,0,0,0,0,-1,1630,743,0,0
413,281,0,0,0,0,0,0,0,0,0,-1,1637,743,0,0
420,281,0,0,0,0,0,0,0,0,0,-1,1644,743,0,0
427,281,0,0,0,0,0,0,0,0,0,-1,1651,743,0,0
434,281,0,0,0,0,0,0,0,0,0,-1,1658,743,0,0
441,281,0,0,0,0,0,0,0,0,0,-1,1665,743,0,0
448,281,0,0,0,0,0,0,0,0,0,-1,1672,743,0,0
455,281,0,0,0,0,0,0,0,0,0,-1,1679,743,0,0
462,281,0,0,0,0,0,0,0,0,0,-1,1686,743,0,0
469,281,0,0,0,0,0,0,0,0,0,-1,1693,743,0,0
476,281,0,0,0,0,0,0,0,0,0,-1,1700,743,0,0
483,281,0,0,0,0,0,0,0,0,0,-1,1707,743,0,0
490,281,0,0,0,0,0,0,0,0,0,-1,1714,743,0,0
497,281,0,0,0,0,0,0,0,0,0,-1,1721,743,0,0
504,281,0,0,0,0,0,0,0,0,0,-1,1728,743,0,0
511,281,0,0,0,0,0,0,0,0,0,-1,1735,743,0,0
518,281,0,0,0,0,0,0,0,0,0,-1,1742,743,0,0
525,281,0,0,0,0,0,0,0,0,0,-1,1749,743,0,0
532,281,0,0,0,0,0,0,0,0,0,-1,1756,743,0,0
539,281,0,0,0,0,0,0,0,0,0,-1,1763,743,0,0
546,281,0,0,0,0,0,0,0,0,0,-1,1770,743,0,0
553,281,0,0,0,0,0,0,0,0,0,-1,1777,743,0,0
560,281,57.8354,3.06482,0,0,0,0,0,0,0,-1,1784,743,57.8354,-3.06479
567,281,57.6156,3.64508,0,0,0,0,0,0,0,-1,1791,743,57.6156,-3.64511
574,281,57.3431,4.17767,0,0,0,0,0,0,0,-1,1798,743,57.3431,-4.17769
581,281,57.0648,4.53906,0,0,0,0,0,0,0,-1,1805,743,57.0648,-4.53908
588,281,53.5422,6.00092,0,0,0,0,0,0,0,-1,1812,743,53.5422,-6.00092
595,281,54.8569,3.32269,0,0,0,0,0,0,0,-1,1819,743,54.857,-3.32269
602,281,45.9985,3.98254,0,0,0,0,0,0,0,-1,1826,743,45.9985,-3.98254
609,281,32.7925,1.28723,0,0,0,0,0,0,0,-1,1833,743,32.7925,-1.28722
616,281,21.3191,-0.253906,0,0,0,0,0,0,0,-1,1840,743,21.3191,0.253931
623,281,31.8741,-4.74182,0,0,0,0,0,0,0,-1,1847,743,31.8741,4.74184
630,281,83.0317,-13.8112,0,0,0,0,0,0,0,-1,1854,743,83.0318,13.8112
637,281,166.478,-3.78363,0,0,0,0,0,0,0,-1,1861,743,166.478,3.78362
644,281,165.302,-1.21118,0,0,0,0,0,0,0,-1,1868,743,165.302,1.21119
651,281,170.852,1.63257,0,0,0,0,0,0,0,-1,1875,743,170.852,-1.63258
658,281,170.181,4.4043,-0.00514857,0.0234091,-0.0124307,0.028062,-0.00980141,-1.21264,0.022692,0.0316034,1882,743,170.181,-4.40427
665,281,169.556,7.15295,-0.00399746,0.0265206,-0.0161125,0.0334528,-0.0109297,-1.1645,0.0267014,0.0310883,1889,743,169.556,-7.15298
672,281,169.049,9.89642,-0.00277327,0.0302341,-0.0196176,0.0393668,-0.0119059,-1.1351,0.0309853,0.0225686,1896,743,169.049,-9.89645
679,281,168.504,12.5672,-0.00135458,0.0345219,-0.0229457,0.045709,-0.0125416,-1.11716,0.0354016,0.0392421,1903,743,168.504,-12.5672
686,281,168.004,15.0746,0.000364754,0.0395099,-0.0260706,0.0525373,-0.0126627,-1.10739,0.0399209,0.0329283,1910,743,168.004,-15.0746
693,281,167.511,17.541,0.00246005,0.045176,-0.0289783,0.0598167,-0.0121807,-1.10297,0.0444973,0.0234439,1917,743,167.511,-17.541
700,281,167.045,20.0172,0,0,0,0,0,0,0,-1,1924,743,167.045,-20.0172
707,281,53.7238,1.7442,0,0,0,0,0,0,0,-1,1931,743,53.7237,-1.74422
714,281,25.0125,2.5105,0,0,0,0,0,0,0,-1,1938,743,25.0124,-2.51053
721,281,16.9656,3.22174,0,0,0,0,0,0,0,-1,1945,743,16.9656,-3.22172
728,281,19.0251,3.63934,0,0,0,0,0,0,0,-1,1952,743,19.0252,-3.63932
735,281,19.0869,2.50311,0,0,0,0,0,0,0,-1,1959,743,19.0869,-2.5031
742,281,0,0,0,0,0,0,0,0,0,-1,1966,743,0,0
749,281,0,0,0,0,0,0,0,0,0,-1,1973,743,0,0
756,281,0,0,0,0,0,0,0,0,0,-1,1980,743,0,0
763,281,0,0,0,0,0,0,0,0,0,-1,1987,743,0,0
770,281,0,0,0,0,0,0,0,0,0,-1,1994,743,0,0
777,281,0,0,0,0,0,0,0,0,0,-1,2001,743,0,0
784,281,0,0,0,0,0,0,0,0,0,-1,2008,743,0,0
791,281,0,0,0,0,0,0,0,0,0,-1,2015,743,0,0
798,281,0,0,0,0,0,0,0,0,0,-1,2022,743,0,0
805,281,0,0,0,0,0,0,0,0,0,-1,2029,743,0,0
812,281,0,0,0,0,0,0,0,0,0,-1,2036,743,0,0
-700,274,0,0,0,0,0,0,0,0,0,-1,524,750,0,0
-693,274,0,0,0,0,0,0,0,0,0,-1,531,750,0,0
-686,274,0,0,0,0,0,0,0,0,0,-1,538,750,0,0
-679,274,0,0,0,0,0,0,0,0,0,-1,545,750,0,0
-672,274,0,0,0,0,0,0,0,0,0,-1,552,750,0,0
-665,274,0,0,0,0,0,0,0,0,0,-1,559,750,0,0
-658,274,0,0,0,0,0,0,0,0,0,-1,566,750,0,0
-651,274,0,0,0,0,0,0,0,0,0,-1,573,750,0,0
-644,274,0,0,0,0,0,0,0,0,0,-1,580,750,0,0
-637,274,0,0,0,0,0,0,0,0,0,-1,587,750,0,0
-630,274,0,0,0,0,0,0,0,0,0,-1,594,750,0,0
-623,274,-19.6909,5.12701,0,0,0,0,0,0,0,-1,601,750,-19.6908,-5.12703
-616,274,-17.9133,3.9024,0,0,0,0,0,0,0,-1,608,750,-17.9133,-3.90239
-609,274,-26.0861,5.57306,0,0,0,0,0,0,0,-1,615,750,-26.0861,-5.57307
-602,274,-25.7372,3.73846,0,0,0,0,0,0,0,-1,622,750,-25.7372,-3.73849
-595,274,-25.258,2.53473,0,0,0,0,0,0,0,-1,629,750,-25.258,-2.53474
-588,274,-73.9796,12.9916,0,0,0,0,0,0,0,-1,636,750,-73.9796,-12.9916
-581,274,-110.397,18.036,0,0,0,0,0,0,0,-1,643,750,-110.397,-18.036
-574,274,-160.199,22.8148,0,0,0,0,0,0,0,-1,650,750,-160.199,-22.8148
-567,274,-161.07,20.8765,0,0,0,0,0,0,0,-1,657,750,-161.07,-20.8766
-560,274,-161.732,18.0754,0.00183054,0.0433093,0.0288845,0.0581288,-0.012989,1.09675,0.04373,0.0228404,664,750,-161.732,-18.0755
-553,274,-162.381,15.3353,0.00142917,0.0390909,0.0248692,0.0514542,-0.0109341,1.10944,0.038469,0.0182548,671,750,-162.381,-15.3352
-546,274,-162.795,12.7401,0.000323851,0.0352228,0.020815,0.0449348,-0.00938817,1.13423,0.033527,0.0214896,678,750,-162.795,-12.7401
-539,274,-163.207,10.1015,-0.00147026,0.0316299,0.0168108,0.0386702,-0.00851062,1.17419,0.0290358,0.0178469,685,750,-163.207,-10.1015
-532,274,-163.716,7.46747,-0.00397352,0.0282749,0.0128999,0.0328001,-0.0084987,1.23342,0.0251823,0.019984,692,750,-163.716,-7.46745
-525,274,-164.165,4.64868,-0.00721115,0.0251846,0.00911669,0.027574,-0.00960051,1.31448,0.0222832,0.0301845,699,750,-164.165,-4.6487
-518,274,-164.688,1.89191,-0.0113743,0.0224607,0.00548499,0.0233276,-0.0122412,1.41403,0.0208656,0.0401333,706,750,-164.688,-1.8919
-511,274,-165.435,-0.893921,0,0,0,0,0,0,0,-1,713,750,-165.435,0.893915
-504,274,-78.1935,-12.3701,0,0,0,0,0,0,0,-1,720,750,-78.1935,12.3701
-497,274,-40.4099,-10.8548,0,0,0,0,0,0,0,-1,727,750,-40.4099,10.8548
-490,274,-13.6545,-3.58826,0,0,0,0,0,0,0,-1,734,750,-13.6546,3.58825
-483,274,-27.8608,1.30981,0,0,0,0,0,0,0,-1,741,750,-27.8608,-1.30979
-476,274,-33.7561,-0.508606,0,0,0,0,0,0,0,-1,748,750,-33.7561,0.508636
-469,274,-41.1387,0.907715,0,0,0,0,0,0,0,-1,755,750,-41.1387,-0.907744
-462,274,-56.4362,0.240723,0,0,0,0,0,0,0,-1,762,750,-56.4362,-0.240732
-455,274,-67.431,1.67236,0,0,0,0,0,0,0,-1,769,750,-67.431,-1.67238
-448,274,-56.1052,0.421143,0,0,0,0,0,0,0,-1,776,750,-56.1052,-0.421134
-441,274,0,0,0,0,0,0,0,0,0,-1,783,750,0,0
-434,274,0,0,0,0,0,0,0,0,0,-1,790,750,0,0
-427,274,0,0,0,0,0,0,0,0,0,-1,797,750,0,0
-420,274,0,0,0,0,0,0,0,0,0,-1,804,750,0,0
-413,274,0,0,0,0,0,0,0,0,0,-1,811,750,0,0
-406,274,0,0,0,0,0,0,0,0,0,-1,818,750,0,0
-399,274,0,0,0,0,0,0,0,0,0,-1,825,750,0,0
-392,274,0,0,0,0,0,0,0,0,0,-1,832,750,0,0
-385,274,0,0,0,0,0,0,0,0,0,-1,839,750,0,0
-378,274,0,0,0,0,0,0,0,0,0,-1,846,750,0,0
-371,274,0,0,0,0,0,0,0,0,0,-1,853,750,0,0
-364,274,0,0,0,0,0,0,0,0,0,-1,860,750,0,0
-357,274,0,0,0,0,0,0,0,0,0,-1,867,750,0,0
-350,274,0,0,0,0,0,0,0,0,0,-1,874,750,0,0
-343,274,0,0,0,0,0,0,0,0,0,-1,881,750,0,0
-336,274,0,0,0,0,0,0,0,0,0,-1,888,750,0,0
-329,274,0,0,0,0,0,0,0,0,0,-1,895,750,0,0
-322,274,0,0,0,0,0,0,0,0,0,-1,902,750,0,0
-315,274,0,0,0,0,0,0,0,0,0,-1,909,750,0,0
-308,274,0,0,0,0,0,0,0,0,0,-1,916,750,0,0
-301,274,0,0,0,0,0,0,0,0,0,-1,923,750,0,0
-294,274,0,0,0,0,0,0,0,0,0,-1,930,750,0,0
-287,274,0,0,0,0,0,0,0,0,0,-1,937,750,0,0
-280,274,0,0,0,0,0,0,0,0,0,-1,944,750,0,0
-273,274,0,0,0,0,0,0,0,0,0,-1,951,750,0,0
-266,274,0,0,0,0,0,0,0,0,0,-1,958,750,0,0
-259,274,0,0,0,0,0,0,0,0,0,-1,965,750,0,0
-252,274,0,0,0,0,0,0,0,0,0,-1,972,750,0,0
-245,274,0,0,0,0,0,0,0,0,0,-1,979,750,0,0
-238,274,0,0,0,0,0,0,0,0,0,-1,986,750,0,0
-231,274,0,0,0,0,0,0,0,0,0,-1,993,750,0,0
-224,274,0,0,0,0,0,0,0,0,0,-1,1000,750,0,0
-217,274,0,0,0,0,0,0,0,0,0,-1,1007,750,0,0
-210,274,0,0,0,0,0,0,0,0,0,-1,1014,750,0,0
-203,274,0,0,0,0,0,0,0,0,0,-1,1021,750,0,0
-196,274,0,0,0,0,0,0,0,0,0,-1,1028,750,0,0
-189,274,0,0,0,0,0,0,0,0,0,-1,1035,750,0,0
-182,274,0,0,0,0,0,0,0,0,0,-1,1042,750,0,0
-175,274,0,0,0,0,0,0,0,0,0,-1,1049,750,0,0
-168,274,0,0,0,0,0,0,0,0,0,-1,1056,750,0,0
-161,274,0,0,0,0,0,0,0,0,0,-1,1063,750,0,0
-154,274,0,0,0,0,0,0,0,0,0,-1,1070,750,0,0
-147,274,0,0,0,0,0,0,0,0,0,-1,1077,750,0,0
-140,274,0,0,0,0,0,0,0,0,0,-1,1084,750,0,0
-133,274,0,0,0,0,0,0,0,0,0,-1,1091,750,0,0
-126,274,0,0,0,0,0,0,0,0,0,-1,1098,750,0,0
-119,274,0,0,0,0,0,0,0,0,0,-1,1105,750,0,0
-112,274,0,0,0,0,0,0,0,0,0,-1,1112,750,0,0
-105,274,0,0,0,0,0,0,0,0,0,-1,1119,750,0,0
-98,274,0,0,0,0,0,0,0,0,0,-1,1126,750,0,0
-91,274,0,0,0,0,0,0,0,0,0,-1,1133,750,0,0
-84,274,0,0,0,0,0,0,0,0,0,-1,1140,750,0,0
-77,274,0,0,0,0,0,0,0,0,0,-1,1147,750,0,0
-70,274,0,0,0,0,0,0,0,0,0,-1,1154,750,0,0
-63,274,0,0,0,0,0,0,0,0,0,-1,1161,750,0,0
-56,274,0,0,0,0,0,0,0,0,0,-1,1168,750,0,0
-49,274,0,0,0,0,0,0,0,0,0,-1,1175,750,0,0
-42,274,0,0,0,0,0,0,0,0,0,-1,1182,750,0,0
-35,274,0,0,0,0,0,0,0,0,0,-1,1189,750,0,0
-28,274,0,0,0,0,0,0,0,0,0,-1,1196,750,0,0
-21,274,0,0,0,0,0,0,0,0,0,-1,1203,750,0,0
-14,274,0,0,0,0,0,0,0,0,0,-1,1210,750,0,0
-7,274,0,0,0,0,0,0,0,0,0,-1,1217,750,0,0
0,274,0,0,0,0,0,0,0,0,0,-1,1224,750,0,0
7,274,0,0,0,0,0,0,0,0,0,-1,1231,750,0,0
14,274,0,0,0,0,0,0,0,0,0,-1,1238,750,0,0
21,274,0,0,0,0,0,0,0,0,0,-1,1245,750,0,0
28,274,0,0,0,0,0,0,0,0,0,-1,1252,750,0,0
35,274,0,0,0,0,0,0,0,0,0,-1,1259,750,0,0
42,274,0,0,0,0,0,0,0,0,0,-1,1266,750,0,0
49,274,0,0,0,0,0,0,0,0,0,-1,1273,750,0,0
56,274,0,0,0,0,0,0,0,0,0,-1,1280,750,0,0
63,274,0,0,0,0,0,0,0,0,0,-1,1287,750,0,0
70,274,0,0,0,0,0,0,0,0,0,-1,1294,750,0,0
77,274,0,0,0,0,0,0,0,0,0,-1,1301,750,0,0
84,274,0,0,0,0,0,0,0,0,0,-1,1308,750,0,0
91,274,0,0,0,0,0,0,0,0,0,-1,1315,750,0,0
98,274,0,0,0,0,0,0,0,0,0,-1,1322,750,0,0
105,274,0,0,0,0,0,0,0,0,0,-1,1329,750,0,0
112,274,0,0,0,0,0,0,0,0,0,-1,1336,750,0,0
119,274,0,0,0,0,0,0,0,0,0,-1,1343,750,0,0
126,274,0,0,0,0,0,0,0,0,0,-1,1350,750,0,0
133,274,0,0,0,0,0,0,0,0,0,-1,1357,750,0,0
140,274,0,0,0,0,0,0,0,0,0,-1,1364,750,0,0
147,274,0,0,0,0,0,0,0,0,0,-1,1371,750,0,0
154,274,0,0,0,0,0,0,0,0,0,-1,1378,750,0,0
161,274,0,0,0,0,0,0,0,0,0,-1,1385,750,0,0
168,274,0,0,0,0,0,0,0,0,0,-1,1392,750,0,0
175,274,0,0,0,0,0,0,0,0,0,-1,1399,750,0,0
182,274,0,0,0,0,0,0,0,0,0,-1,1406,750,0,0
189,274,0,0,0,0,0,0,0,0,0,-1,1413,750,0,0
196,274,0,0,0,0,0,0,0,0,0,-1,1420,750,0,0
203,274,0,0,0,0,0,0,0,0,0,-1,1427,750,0,0
210,274,0,0,0,0,0,0,0,0,0,-1,1434,750,0,0
217,274,0,0,0,0,0,0,0,0,0,-1,1441,750,0,0
224,274,0,0,0,0,0,0,0,0,0,-1,1448,750,0,0
231,274,0,0,0,0,0,0,0,0,0,-1,1455,750,0,0
238,274,0,0,0,0,0,0,0,0,0,-1,1462,750,0,0
245,274,0,0,0,0,0,0,0,0,0,-1,1469,750,0,0
252,274,0,0,0,0,0,0,0,0,0,-1,1476,750,0,0
259,274,0,0,0,0,0,0,0,0,0,-1,1483,750,0,0
266,274,0,0,0,0,0,0,0,0,0,-1,1490,750,0,0
273,274,0,0,0,0,0,0,0,0,0,-1,1497,750,0,0
280,274,0,0,0,0,0,0,0,0,0,-1,1504,750,0,0
287,274,0,0,0,0,0,0,0,0,0,-1,1511,750,0,0
294,274,0,0,0,0,0,0,0,0,0,-1,1518,750,0,0
301,274,0,0,0,0,0,0,0,0,0,-1,1525,750,0,0
308,274,0,0,0,0,0,0,0,0,0,-1,1532,750,0,0
315,274,0,0,0,0,0,0,0,0,0,-1,1539,750,0,0
322,274,0,0,0,0,0,0,0,0,0,-1,1546,750,0,0
329,274,0,0,0,0,0,0,0,0,0,-1,1553,750,0,0
336,274,0,0,0,0,0,0,0,0,0,-1,1560,750,0,0
343,274,0,0,0,0,0,0,0,0,0,-1,1567,750,0,0
350,274,0,0,0,0,0,0,0,0,0,-1,1574,750,0,0
357,274,0,0,0,0,0,0,0,0,0,-1,1581,750,0,0
364,274,0,0,0,0,0,0,0,0,0,-1,1588,750,0,0
371,274,0,0,0,0,0,0,0,0,0,-1,1595,750,0,0
378,274,0,0,0,0,0,0,0,0,0,-1,1602,750,0,0
385,274,0,0,0,0,0,0,0,0,0,-1,1609,750,0,0
392,274,0,0,0,0,0,0,0,0,0,-1,1616,750,0,0
399,274,0,0,0,0,0,0,0,0,0,-1,1623,750,0,0
406,274,0,0,0,0,0,0,0,0,0,-1,1630,750,0,0
413,274,0,0,0,0,0,0,0,0,0,-1,1637,750,0,0
420,274,0,0,0,0,0,0,0,0,0,-1,1644,750,0,0
427,274,0,0,0,0,0,0,0,0,0,-1,1651,750,0,0
434,274,0,0,0,0,0,0,0,0,0,-1,1658,750,0,0
441,274,0,0,0,0,0,0,0,0,0,-1,1665,750,0,0
448,274,0,0,0,0,0,0,0,0,0,-1,1672,750,0,0
455,274,0,0,0,0,0,0,0,0,0,-1,1679,750,0,0
462,274,0,0,0,0,0,0,0,0,0,-1,1686,750,0,0
469,274,0,0,0,0,0,0,0,0,0,-1,1693,750,0,0
476,274,0,0,0,0,0,0,0,0,0,-1,1700,750,0,0
483,274,0,0,0,0,0,0,0,0,0,-1,1707,750,0,0
490,274,0,0,0,0,0,0,0,0,0,-1,1714,750,0,0
497,274,0,0,0,0,0,0,0,0,0,-1,1721,750,0,0
504,274,0,0,0,0,0,0,0,0,0,-1,1728,750,0,0
511,274,0,0,0,0,0,0,0,0,0,-1,1735,750,0,0
518,274,0,0,0,0,0,0,0,0,0,-1,1742,750,0,0
525,274,0,0,0,0,0,0,0,0,0,-1,1749,750,0,0
532,274,0,0,0,0,0,0,0,0,0,-1,1756,750,0,0
539,274,0,0,0,0,0,0,0,0,0,-1,1763,750,0,0
546,274,0,0,0,0,0,0,0,0,0,-1,1770,750,0,0
553,274,0,0,0,0,0,0,0,0,0,-1,1777,750,0,0
560,274,57.9182,3.24518,0,0,0,0,0,0,0,-1,1784,750,57.9182,-3.24516
567,274,57.8315,3.4137,0,0,0,0,0,0,0,-1,1791,750,57.8315,-3.41368
574,274,58.2571,3.11115,0,0,0,0,0,0,0,-1,1798,750,58.2571,-3.11114
581,274,54.4941,4.68127,0,0,0,0,0,0,0,-1,1805,750,54.4941,-4.68125
588,274,53.9908,5.6676,0,0,0,0,0,0,0,-1,1812,750,53.9908,-5.66763
595,274,66.2316,2.66986,0,0,0,0,0,0,0,-1,1819,750,66.2315,-2.66988
602,274,55.6321,2.56519,0,0,0,0,0,0,0,-1,1826,750,55.6321,-2.56521
609,274,44.6676,3.10461,0,0,0,0,0,0,0,-1,1833,750,44.6676,-3.1046
616,274,32.7869,1.78436,0,0,0,0,0,0,0,-1,1840,750,32.7868,-1.78437
623,274,24.8231,-1.80353,0,0,0,0,0,0,0,-1,1847,750,24.8232,1.80351
630,274,58.5311,-10.4259,0,0,0,0,0,0,0,-1,1854,750,58.5312,10.4259
637,274,93.1326,-11.4611,0,0,0,0,0,0,0,-1,1861,750,93.1325,11.4611
644,274,96.5939,-11.506,0,0,0,0,0,0,0,-1,1868,750,96.5939,11.506
651,274,173.798,1.96948,0,0,0,0,0,0,0,-1,1875,750,173.798,-1.96949
658,274,173.192,4.93262,-0.00628,0.0210204,-0.0101469,0.0243787,-0.00963827,-1.25118,0.020245,0.0292044,1882,750,173.192,-4.93263
665,274,172.613,7.65186,-0.0051306,0.0241944,-0.0138226,0.0296827,-0.0106188,-1.19284,0.0241202,0.0239345,1889,750,172.612,-7.65185
672,274,171.996,10.3591,-0.00392829,0.0279638,-0.0173706,0.0355977,-0.0115622,-1.15673,0.0283821,0.0207139,1896,750,171.996,-10.3591
679,274,171.454,13.0168,-0.00258956,0.0322726,-0.0208046,0.0419832,-0.0123002,-1.1341,0.0328653,0.0251866,1903,750,171.454,-13.0168
686,274,170.963,15.5134,-0.000962649,0.0371425,-0.0240871,0.0488014,-0.0126215,-1.12001,0.0374571,0.0293587,1910,750,170.963,-15.5134
693,274,170.493,17.9943,0.00103965,0.0426225,-0.0272027,0.0560695,-0.0124073,-1.1117,0.0421289,0.0211788,1917,750,170.493,-17.9943
700,274,169.995,20.5491,0.00363983,0.0487118,-0.0301488,0.0638165,-0.0114649,-1.10635,0.046836,0.0335362,1924,750,169.995,-20.549
707,274,169.801,22.9133,0,0,0,0,0,0,0,-1,1931,750,169.801,-22.9133
714,274,49.125,2.56622,0,0,0,0,0,0,0,-1,1938,750,49.1251,-2.5662
721,274,25.6215,3.91144,0,0,0,0,0,0,0,-1,1945,750,25.6214,-3.91141
728,274,19.2209,3.95154,0,0,0,0,0,0,0,-1,1952,750,19.221,-3.95151
735,274,20.6608,4.10931,0,0,0,0,0,0,0,-1,1959,750,20.6607,-4.10932
742,274,11.7815,-0.740234,0,0,0,0,0,0,0,-1,1966,750,11.7815,0.740253
749,274,0,0,0,0,0,0,0,0,0,-1,1973,750,0,0
756,274,0,0,0,0,0,0,0,0,0,-1,1980,750,0,0
763,274,0,0,0,0,0,0,0,0,0,-1,1987,750,0,0
770,274,0,0,0,0,0,0,0,0,0,-1,1994,750,0,0
777,274,0,0,0,0,0,0,0,0,0,-1,2001,750,0,0
784,274,0,0,0,0,0,0,0,0,0,-1,2008,750,0,0
791,274,0,0,0,0,0,0,0,0,0,-1,2015,750,0,0
798,274,0,0,0,0,0,0,0,0,0,-1,2022,750,0,0
805,274,0,0,0,0,0,0,0,0,0,-1,2029,750,0,0
812,274,0,0,0,0,0,0,0,0,0,-1,2036,750,0,0
-700,267,0,0,0,0,0,0,0,0,0,-1,524,757,0,0
-693,267,0,0,0,0,0,0,0,0,0,-1,531,757,0,0
-686,267,0,0,0,0,0,0,0,0,0,-1,538,757,0,0
-679,267,0,0,0,0,0,0,0,0,0,-1,545,757,0,0
-672,267,0,0,0,0,0,0,0,0,0,-1,552,757,0,0
-665,267,0,0,0,0,0,0,0,0,0,-1,559,757,0,0
-658,267,0,0,0,0,0,0,0,0,0,-1,566,757,0,0
-651,267,0,0,0,0,0,0,0,0,0,-1,573,757,0,0
-644,267,0,0,0,0,0,0,0,0,0,-1,580,757,0,0
-637,267,0,0,0,0,0,0,0,0,0,-1,587,757,0,0
-630,267,-21.3979,5.17529,0,0,0,0,0,0,0,-1,594,757,-21.3979,-5.17529
-623,267,-20.043,4.43115,0,0,0,0,0,0,0,-1,601,757,-20.043,-4.43116
-616,267,-27.1628,5.9325,0,0,0,0,0,0,0,-1,608,757,-27.1629,-5.93249
-609,267,-26.9868,4.99658,0,0,0,0,0,0,0,-1,615,757,-26.9868,-4.99656
-602,267,-26.6637,3.74072,0,0,0,0,0,0,0,-1,622,757,-26.6637,-3.74075
-595,267,-32.7299,2.1203,0,0,0,0,0,0,0,-1,629,757,-32.7299,-2.12028
-588,267,-96.1294,17.3846,0,0,0,0,0,0,0,-1,636,757,-96.1294,-17.3846
-581,267,-163.476,25.5015,0,0,0,0,0,0,0,-1,643,757,-163.476,-25.5015
-574,267,-163.701,23.1592,0,0,0,0,0,0,0,-1,650,757,-163.701,-23.1592
-567,267,-164.212,20.6718,0.000467053,0.0460809,0.0292334,0.0603516,-0.0138037,1.11666,0.0455384,0.0446239,657,757,-164.212,-20.6718
-560,267,-164.657,18.3515,0.000879126,0.0412532,0.0255759,0.053649,-0.0115167,1.11949,0.0401592,0.0308964,664,757,-164.657,-18.3515
-553,267,-165.12,15.8804,0.000323218,0.0370515,0.0217227,0.0471323,-0.00975762,1.1363,0.0351287,0.0259686,671,757,-165.12,-15.8804
-546,267,-165.652,13.2637,-0.000898263,0.0332796,0.0177917,0.0408599,-0.00847864,1.16803,0.0304621,0.0154504,678,757,-165.652,-13.2637
-539,267,-165.992,10.5351,-0.0027863,0.0298066,0.0138334,0.0348862,-0.00786597,1.21888,0.0262749,0.0219072,685,757,-165.992,-10.5351
-532,267,-166.534,7.64081,-0.00542052,0.0266656,0.00991677,0.0294832,-0.00823805,1.29397,0.0229008,0.0372882,692,757,-166.534,-7.6408
-525,267,-167.17,5.04742,-0.00887129,0.0238679,0.00609963,0.0249674,-0.00997079,1.39246,0.0207817,0.0341875,699,757,-167.17,-5.04742
-518,267,-167.6,2.41003,-0.0135243,0.0215706,0.0024045,0.0217346,-0.0136883,1.50271,0.0206265,0.0422092,706,757,-167.6,-2.41005
-511,267,-167.957,-0.198181,0,0,0,0,0,0,0,-1,713,757,-167.957,0.198199
-504,267,-67.1038,-11.0731,0,0,0,0,0,0,0,-1,720,757,-67.1038,11.073
-497,267,-31.5913,-8.72119,0,0,0,0,0,0,0,-1,727,757,-31.5913,8.72117
-490,267,-23.4949,-0.494995,0,0,0,0,0,0,0,-1,734,757,-23.4949,0.494981
-483,267,-33.2785,-0.448425,0,0,0,0,0,0,0,-1,741,757,-33.2785,0.448407
-476,267,-40.2954,0.52002,0,0,0,0,0,0,0,-1,748,757,-40.2954,-0.520037
-469,267,-52.9857,0.187744,0,0,0,0,0,0,0,-1,755,757,-52.9857,-0.187726
-462,267,-67.6375,0.974915,0,0,0,0,0,0,0,-1,762,757,-67.6374,-0.974935
-455,267,-71.4348,0.0582886,0,0,0,0,0,0,0,-1,769,757,-71.4348,-0.0582862
-448,267,-68.0212,1.50757,0,0,0,0,0,0,0,-1,776,757,-68.0212,-1.50758
-441,267,0,0,0,0,0,0,0,0,0,-1,783,757,0,0
-434,267,0,0,0,0,0,0,0,0,0,-1,790,757,0,0
-427,267,0,0,0,0,0,0,0,0,0,-1,797,757,0,0
-420,267,0,0,0,0,0,0,0,0,0,-1,804,757,0,0
-413,267,0,0,0,0,0,0,0,0,0,-1,811,757,0,0
-406,267,0,0,0,0,0,0,0,0,0,-1,818,757,0,0
-399,267,0,0,0,0,0,0,0,0,0,-1,825,757,0,0
-392,267,0,0,0,0,0,0,0,0,0,-1,832,757,0,0
-385,267,0,0,0,0,0,0,0,0,0,-1,839,757,0,0
-378,267,0,0,0,0,0,0,0,0,0,-1,846,757,0,0
-371,267,0,0,0,0,0,0,0,0,0,-1,853,757,0,0
-364,267,0,0,0,0,0,0,0,0,0,-1,860,757,0,0
-357,267,0,0,0,0,0,0,0,0,0,-1,867,757,0,0
-350,267,0,0,0,0,0,0,0,0,0,-1,874,757,0,0
-343,267,0,0,0,0,0,0,0,0,0,-1,881,757,0,0
-336,267,0,0,0,0,0,0,0,0,0,-1,888,757,0,0
-329,267,0,0,0,0,0,0,0,0,0,-1,895,757,0,0
-322,267,0,0,0,0,0,0,0,0,0,-1,902,757,0,0
-315,267,0,0,0,0,0,0,0,0,0,-1,909,757,0,0
-308,267,0,0,0,0,0,0,0,0,0,-1,916,757,0,0
-301,267,0,0,0,0,0,0,0,0,0,-1,923,757,0,0
-294,267,0,0,0,0,0,0,0,0,0,-1,930,757,0,0
-287,267,0,0,0,0,0,0,0,0,0,-1,937,757,0,0
-280,267,0,0,0,0,0,0,0,0,0,-1,944,757,0,0
-273,267,0,0,0,0,0,0,0,0,0,-1,951,757,0,0
-266,267,0,0,0,0,0,0,0,0,0,-1,958,757,0,0
-259,267,0,0,0,0,0,0,0,0,0,-1,965,757,0,0
-252,267,0,0,0,0,0,0,0,0,0,-1,972,757,0,0
-245,267,0,0,0,0,0,0,0,0,0,-1,979,757,0,0
-238,267,0,0,0,0,0,0,0,0,0,-1,986,757,0,0
-231,267,0,0,0,0,0,0,0,0,0,-1,993,757,0,0
-224,267,0,0,0,0,0,0,0,0,0,-1,1000,757,0,0
-217,267,0,0,0,0,0,0,0,0,0,-1,1007,757,0,0
-210,267,0,0,0,0,0,0,0,0,0,-1,1014,757,0,0
-203,267,0,0,0,0,0,0,0,0,0,-1,1021,757,0,0
-196,267,0,0,0,0,0,0,0,0,0,-1,1028,757,0,0
-189,267,0,0,0,0,0,0,0,0,0,-1,1035,757,0,0
-182,267,0,0,0,0,0,0,0,0,0,-1,1042,757,0,0
-175,267,0,0,0,0,0,0,0,0,0,-1,1049,757,0,0
-168,267,0,0,0,0,0,0,0,0,0,-1,1056,757,0,0
-161,267,0,0,0,0,0,0,0,0,0,-1,1063,757,0,0
-154,267,0,0,0,0,0,0,0,0,0,-1,1070,757,0,0
-147,267,0,0,0,0,0,0,0,0,0,-1,1077,757,0,0
-140,267,0,0,0,0,0,0,0,0,0,-1,1084,757,0,0
-133,267,0,0,0,0,0,0,0,0,0,-1,1091,757,0,0
-126,267,0,0,0,0,0,0,0,0,0,-1,1098,757,0,0
-119,267,0,0,0,0,0,0,0,0,0,-1,1105,757,0,0
-112,267,0,0,0,0,0,0,0,0,0,-1,1112,757,0,0
-105,267,0,0,0,0,0,0,0,0,0,-1,1119,757,0,0
-98,267,0,0,0,0,0,0,0,0,0,-1,1126,757,0,0
-91,267,0,0,0,0,0,0,0,0,0,-1,1133,757,0,0
-84,267,0,0,0,0,0,0,0,0,0,-1,1140,757,0,0
-77,267,0,0,0,0,0,0,0,0,0,-1,1147,757,0,0
-70,267,0,0,0,0,0,0,0,0,0,-1,1154,757,0,0
-63,267,0,0,0,0,0,0,0,0,0,-1,1161,757,0,0
-56,267,0,0,0,0,0,0,0,0,0,-1,1168,757,0,0
-49,267,0,0,0,0,0,0,0,0,0,-1,1175,757,0,0
-42,267,0,0,0,0,0,0,0,0,0,-1,1182,757,0,0
-35,267,0,0,0,0,0,0,0,0,0,-1,1189,757,0,0
-28,267,0,0,0,0,0,0,0,0,0,-1,1196,757,0,0
-21,267,0,0,0,0,0,0,0,0,0,-1,1203,757,0,0
-14,267,0,0,0,0,0,0,0,0,0,-1,1210,757,0,0
-7,267,0,0,0,0,0,0,0,0,0,-1,1217,757,0,0
0,267,0,0,0,0,0,0,0,0,0,-1,1224,757,0,0
7,267,0,0,0,0,0,0,0,0,0,-1,1231,757,0,0
14,267,0,0,0,0,0,0,0,0,0,-1,1238,757,0,0
21,267,0,0,0,0,0,0,0,0,0,-1,1245,757,0,0
28,267,0,0,0,0,0,0,0,0,0,-1,1252,757,0,0
35,267,0,0,0,0,0,0,0,0,0,-1,1259,757,0,0
42,267,0,0,0,0,0,0,0,0,0,-1,1266,757,0,0
49,267,0,0,0,0,0,0,0,0,0,-1,1273,757,0,0
56,267,0,0,0,0,0,0,0,0,0,-1,1280,757,0,0
63,267,0,0,0,0,0,0,0,0,0,-1,1287,757,0,0
70,267,0,0,0,0,0,0,0,0,0,-1,1294,757,0,0
77,267,0,0,0,0,0,0,0,0,0,-1,1301,757,0,0
84,267,0,0,0,0,0,0,0,0,0,-1,1308,757,0,0
91,267,0,0,0,0,0,0,0,0,0,-1,1315,757,0,0
98,267,0,0,0,0,0,0,0,0,0,-1,1322,757,0,0
105,267,0,0,0,0,0,0,0,0,0,-1,1329,757,0,0
112,267,0,0,0,0,0,0,0,0,0,-1,1336,757,0,0
119,267,0,0,0,0,0,0,0,0,0,-1,1343,757,0,0
126,267,0,0,0,0,0,0,0,0,0,-1,1350,757,0,0
133,267,0,0,0,0,0,0,0,0,0,-1,1357,757,0,0
140,267,0,0,0,0,0,0,0,0,0,-1,1364,757,0,0
147,267,0,0,0,0,0,0,0,0,0,-1,1371,757,0,0
154,267,0,0,0,0,0,0,0,0,0,-1,1378,757,0,0
161,267,0,0,0,0,0,0,0,0,0,-1,1385,757,0,0
168,267,0,0,0,0,0,0,0,0,0,-1,1392,757,0,0
175,267,0,0,0,0,0,0,0,0,0,-1,1399,757,0,0
182,267,0,0,0,0,0,0,0,0,0,-1,1406,757,0,0
189,267,0,0,0,0,0,0,0,0,0,-1,1413,757,0,0
196,267,0,0,0,0,0,0,0,0,0,-1,1420,757,0,0
203,267,0,0,0,0,0,0,0,0,0,-1,1427,757,0,0
210,267,0,0,0,0,0,0,0,0,0,-1,1434,757,0,0
217,267,0,0,0,0,0,0,0,0,0,-1,1441,757,0,0
224,267,0,0,0,0,0,0,0,0,0,-1,1448,757,0,0
231,267,0,0,0,0,0,0,0,0,0,-1,1455,757,0,0
238,267,0,0,0,0,0,0,0,0,0,-1,1462,757,0,0
245,267,0,0,0,0,0,0,0,0,0,-1,1469,757,0,0
252,267,0,0,0,0,0,0,0,0,0,-1,1476,757,0,0
259,267,0,0,0,0,0,0,0,0,0,-1,1483,757,0,0
266,267,0,0,0,0,0,0,0,0,0,-1,1490,757,0,0
273,267,0,0,0,0,0,0,0,0,0,-1,1497,757,0,0
280,267,0,0,0,0,0,0,0,0,0,-1,1504,757,0,0
287,267,0,0,0,0,0,0,0,0,0,-1,1511,757,0,0
294,267,0,0,0,0,0,0,0,0,0,-1,1518,757,0,0
301,267,0,0,0,0,0,0,0,0,0,-1,1525,757,0,0
308,267,0,0,0,0,0,0,0,0,0,-1,1532,757,0,0
315,267,0,0,0,0,0,0,0,0,0,-1,1539,757,0,0
322,267,0,0,0,0,0,0,0,0,0,-1,1546,757,0,0
329,267,0,0,0,0,0,0,0,0,0,-1,1553,757,0,0
336,267,0,0,0,0,0,0,0,0,0,-1,1560,757,0,0
343,267,0,0,0,0,0,0,0,0,0,-1,1567,757,0,0
350,267,0,0,0,0,0,0,0,0,0,-1,1574,757,0,0
357,267,0,0,0,0,0,0,0,0,0,-1,1581,757,0,0
364,267,0,0,0,0,0,0,0,0,0,-1,1588,757,0,0
371,267,0,0,0,0,0,0,0,0,0,-1,1595,757,0,0
378,267,0,0,0,0,0,0,0,0,0,-1,1602,757,0,0
385,267,0,0,0,0,0,0,0,0,0,-1,1609,757,0,0
392,267,0,0,0,0,0,0,0,0,0,-1,1616,757,0,0
399,267,0,0,0,0,0,0,0,0,0,-1,1623,757,0,0
406,267,0,0,0,0,0,0,0,0,0,-1,1630,757,0,0
413,267,0,0,0,0,0,0,0,0,0,-1,1637,757,0,0
420,267,0,0,0,0,0,0,0,0,0,-1,1644,757,0,0
427,267,0,0,0,0,0,0,0,0,0,-1,1651,757,0,0
434,267,0,0,0,0,0,0,0,0,0,-1,1658,757,0,0
441,267,0,0,0,0,0,0,0,0,0,-1,1665,757,0,0
448,267,0,0,0,0,0,0,0,0,0,-1,1672,757,0,0
455,267,0,0,0,0,0,0,0,0,0,-1,1679,757,0,0
462,267,0,0,0,0,0,0,0,0,0,-1,1686,757,0,0
469,267,0,0,0,0,0,0,0,0,0,-1,1693,757,0,0
476,267,0,0,0,0,0,0,0,0,0,-1,1700,757,0,0
483,267,0,0,0,0,0,0,0,0,0,-1,1707,757,0,0
490,267,0,0,0,0,0,0,0,0,0,-1,1714,757,0,0
497,267,0,0,0,0,0,0,0,0,0,-1,1721,757,0,0
504,267,0,0,0,0,0,0,0,0,0,-1,1728,757,0,0
511,267,0,0,0,0,0,0,0,0,0,-1,1735,757,0,0
518,267,0,0,0,0,0,0,0,0,0,-1,1742,757,0,0
525,267,0,0,0,0,0,0,0,0,0,-1,1749,757,0,0
532,267,0,0,0,0,0,0,0,0,0,-1,1756,757,0,0
539,267,0,0,0,0,0,0,0,0,0,-1,1763,757,0,0
546,267,0,0,0,0,0,0,0,0,0,-1,1770,757,0,0
553,267,0,0,0,0,0,0,0,0,0,-1,1777,757,0,0
560,267,0,0,0,0,0,0,0,0,0,-1,1784,757,0,0
567,267,58.0104,3.24304,0,0,0,0,0,0,0,-1,1791,757,58.0104,-3.24306
574,267,64.5414,2.91858,0,0,0,0,0,0,0,-1,1798,757,64.5414,-2.91855
581,267,58.374,2.95636,0,0,0,0,0,0,0,-1,1805,757,58.3741,-2.95639
588,267,65.9681,2.6438,0,0,0,0,0,0,0,-1,1812,757,65.9682,-2.64382
595,267,66.191,2.60791,0,0,0,0,0,0,0,-1,1819,757,66.191,-2.60792
602,267,66.4139,2.57202,0,0,0,0,0,0,0,-1,1826,757,66.4139,-2.57203
609,267,54.5498,3.24054,0,0,0,0,0,0,0,-1,1833,757,54.5498,-3.24052
616,267,44.2543,3.28918,0,0,0,0,0,0,0,-1,1840,757,44.2542,-3.28918
623,267,24.1475,-1.1391,0,0,0,0,0,0,0,-1,1847,757,24.1475,1.13913
630,267,40.7198,-5.42108,0,0,0,0,0,0,0,-1,1854,757,40.7198,5.4211
637,267,89.6044,-11.636,0,0,0,0,0,0,0,-1,1861,757,89.6043,11.636
644,267,94.4562,-10.2131,0,0,0,0,0,0,0,-1,1868,757,94.4562,10.2131
651,267,173.639,2.15485,0,0,0,0,0,0,0,-1,1875,757,173.639,-2.15485
658,267,176.107,5.27716,0,0,0,0,0,0,0,-1,1882,757,176.108,-5.27716
665,267,175.528,8.09418,-0.00592801,0.0216962,-0.011622,0.0259353,-0.0101671,-1.22105,0.0214962,0.035468,1889,757,175.528,-8.09415
672,267,174.878,10.7751,-0.00500498,0.0254691,-0.0151825,0.031742,-0.0112778,-1.17899,0.0257572,0.0226103,1896,757,174.878,-10.7751
679,267,174.385,13.3465,-0.00391215,0.0297432,-0.0186993,0.0380718,-0.0122407,-1.15178,0.0302972,0.0175548,1903,757,174.385,-13.3465
686,267,173.848,15.8585,-0.00250262,0.0344644,-0.0221309,0.0448152,-0.0128534,-1.13331,0.034958,0.0292498,1910,757,173.848,-15.8585
693,267,173.264,18.254,-0.000706625,0.039714,-0.0254556,0.0520067,-0.0129993,-1.12092,0.0397198,0.0324793,1917,757,173.264,-18.254
700,267,172.855,20.6965,0.00162861,0.0454213,-0.0286439,0.0595794,-0.0125295,-1.11174,0.0444881,0.0273972,1924,757,172.856,-20.6965
707,267,172.63,23.0387,0.00453483,0.0513209,-0.0316583,0.0672913,-0.0114356,-1.10359,0.0491185,0.0462153,1931,757,172.63,-23.0387
714,267,172.36,25.5057,0,0,0,0,0,0,0,-1,1938,757,172.36,-25.5058
721,267,47.0829,3.73804,0,0,0,0,0,0,0,-1,1945,757,47.0828,-3.73803
728,267,26.7886,3.90027,0,0,0,0,0,0,0,-1,1952,757,26.7886,-3.90028
735,267,24.6713,2.82483,0,0,0,0,0,0,0,-1,1959,757,24.6713,-2.82483
742,267,18.1177,3.56561,0,0,0,0,0,0,0,-1,1966,757,18.1176,-3.56564
749,267,0,0,0,0,0,0,0,0,0,-1,1973,757,0,0
756,267,0,0,0,0,0,0,0,0,0,-1,1980,757,0,0
763,267,0,0,0,0,0,0,0,0,0,-1,1987,757,0,0
770,267,0,0,0,0,0,0,0,0,0,-1,1994,757,0,0
777,267,0,0,0,0,0,0,0,0,0,-1,2001,757,0,0
784,267,0,0,0,0,0,0,0,0,0,-1,2008,757,0,0
791,267,0,0,0,0,0,0,0,0,0,-1,2015,757,0,0
798,267,0,0,0,0,0,0,0,0,0,-1,2022,757,0,0
805,267,0,0,0,0,0,0,0,0,0,-1,2029,757,0,0
812,267,0,0,0,0,0,0,0,0,0,-1,2036,757,0,0
-700,260,0,0,0,0,0,0,0,0,0,-1,524,764,0,0
-693,260,0,0,0,0,0,0,0,0,0,-1,531,764,0,0
-686,260,0,0,0,0,0,0,0,0,0,-1,538,764,0,0
-679,260,0,0,0,0,0,0,0,0,0,-1,545,764,0,0
-672,260,0,0,0,0,0,0,0,0,0,-1,552,764,0,0
-665,260,0,0,0,0,0,0,0,0,0,-1,559,764,0,0
-658,260,0,0,0,0,0,0,0,0,0,-1,566,764,0,0
-651,260,0,0,0,0,0,0,0,0,0,-1,573,764,0,0
-644,260,0,0,0,0,0,0,0,0,0,-1,580,764,0,0
-637,260,0,0,0,0,0,0,0,0,0,-1,587,764,0,0
-630,260,-21.8905,4.49341,0,0,0,0,0,0,0,-1,594,764,-21.8905,-4.49342
-623,260,-20.3127,3.53546,0,0,0,0,0,0,0,-1,601,764,-20.3127,-3.53544
-616,260,-23.4346,3.65009,0,0,0,0,0,0,0,-1,608,764,-23.4345,-3.65008
-609,260,-27.8874,4.42004,0,0,0,0,0,0,0,-1,615,764,-27.8874,-4.42005
-602,260,-32.8671,3.61243,0,0,0,0,0,0,0,-1,622,764,-32.867,-3.61241
-595,260,-44.4068,5.76526,0,0,0,0,0,0,0,-1,629,764,-44.4068,-5.76525
-588,260,-166.182,28.4122,0,0,0,0,0,0,0,-1,636,764,-166.182,-28.4123
-581,260,-166.288,25.8057,0,0,0,0,0,0,0,-1,643,764,-166.288,-25.8056
-574,260,-166.623,23.3589,-0.00110911,0.0493795,0.0294465,0.0629214,-0.014651,1.13976,0.0475891,0.0348558,650,764,-166.623,-23.359
-567,260,-167.139,20.8939,-0.000616858,0.0442004,0.0262591,0.0563126,-0.012729,1.13862,0.0424261,0.0248057,657,764,-167.139,-20.8939
-560,260,-167.533,18.5452,-0.000454513,0.0393871,0.0227238,0.0496857,-0.0107531,1.14528,0.0372294,0.0278067,664,764,-167.533,-18.5452
-553,260,-168.008,16.1585,-0.00105131,0.0351545,0.0189222,0.0432387,-0.00913553,1.16703,0.0323044,0.0269559,671,764,-168.008,-16.1585
-546,260,-168.429,13.6724,-0.00227912,0.0313854,0.0149933,0.0370947,-0.00798845,1.20696,0.0277782,0.0183814,678,764,-168.429,-13.6725
-539,260,-168.681,10.8401,-0.00420185,0.0279706,0.0109783,0.0313598,-0.00759101,1.27137,0.0238431,0.029007,685,764,-168.681,-10.8401
-532,260,-169.261,7.83887,0,0,0,0,0,0,0,-1,692,764,-169.261,-7.83889
-525,260,-170.154,5.57281,0,0,0,0,0,0,0,-1,699,764,-170.154,-5.57281
-518,260,-170.624,2.75403,0,0,0,0,0,0,0,-1,706,764,-170.624,-2.75401
-511,260,-83.9215,-10.0087,0,0,0,0,0,0,0,-1,713,764,-83.9215,10.0087
-504,260,-34.7117,-8.67163,0,0,0,0,0,0,0,-1,720,764,-34.7117,8.6716
-497,260,-16.6542,-3.67334,0,0,0,0,0,0,0,-1,727,764,-16.6542,3.67331
-490,260,-29.4557,0.921387,0,0,0,0,0,0,0,-1,734,764,-29.4557,-0.921369
-483,260,-40.8972,1.04193,0,0,0,0,0,0,0,-1,741,764,-40.8972,-1.04193
-476,260,-53.8282,0.00378418,0,0,0,0,0,0,0,-1,748,764,-53.8283,-0.00378825
-469,260,-67.7608,1.11853,0,0,0,0,0,0,0,-1,755,764,-67.7608,-1.11852
-462,260,-71.5759,0.041748,0,0,0,0,0,0,0,-1,762,764,-71.5759,-0.0417456
-455,260,-71.384,0.305603,0,0,0,0,0,0,0,-1,769,764,-71.384,-0.305624
-448,260,0,0,0,0,0,0,0,0,0,-1,776,764,0,0
-441,260,0,0,0,0,0,0,0,0,0,-1,783,764,0,0
-434,260,0,0,0,0,0,0,0,0,0,-1,790,764,0,0
-427,260,0,0,0,0,0,0,0,0,0,-1,797,764,0,0
-420,260,0,0,0,0,0,0,0,0,0,-1,804,764,0,0
-413,260,0,0,0,0,0,0,0,0,0,-1,811,764,0,0
-406,260,0,0,0,0,0,0,0,0,0,-1,818,764,0,0
-399,260,0,0,0,0,0,0,0,0,0,-1,825,764,0,0
-392,260,0,0,0,0,0,0,0,0,0,-1,832,764,0,0
-385,260,0,0,0,0,0,0,0,0,0,-1,839,764,0,0
-378,260,0,0,0,0,0,0,0,0,0,-1,846,764,0,0
-371,260,0,0,0,0,0,0,0,0,0,-1,853,764,0,0
-364,260,0,0,0,0,0,0,0,0,0,-1,860,764,0,0
-357,260,0,0,0,0,0,0,0,0,0,-1,867,764,0,0
-350,260,0,0,0,0,0,0,0,0,0,-1,874,764,0,0
-343,260,0,0,0,0,0,0,0,0,0,-1,881,764,0,0
-336,260,0,0,0,0,0,0,0,0,0,-1,888,764,0,0
-329,260,0,0,0,0,0,0,0,0,0,-1,895,764,0,0
-322,260,0,0,0,0,0,0,0,0,0,-1,902,764,0,0
-315,260,0,0,0,0,0,0,0,0,0,-1,909,764,0,0
-308,260,0,0,0,0,0,0,0,0,0,-1,916,764,0,0
-301,260,0,0,0,0,0,0,0,0,0,-1,923,764,0,0
-294,260,0,0,0,0,0,0,0,0,0,-1,930,764,0,0
-287,260,0,0,0,0,0,0,0,0,0,-1,937,764,0,0
-280,260,0,0,0,0,0,0,0,0,0,-1,944,764,0,0
-273,260,0,0,0,0,0,0,0,0,0,-1,951,764,0,0
-266,260,0,0,0,0,0,0,0,0,0,-1,958,764,0,0
-259,260,0,0,0,0,0,0,0,0,0,-1,965,764,0,0
-252,260,0,0,0,0,0,0,0,0,0,-1,972,764,0,0
-245,260,0,0,0,0,0,0,0,0,0,-1,979,764,0,0
-238,260,0,0,0,0,0,0,0,0,0,-1,986,764,0,0
-231,260,0,0,0,0,0,0,0,0,0,-1,993,764,0,0
-224,260,0,0,0,0,0,0,0,0,0,-1,1000,764,0,0
-217,260,0,0,0,0,0,0,0,0,0,-1,1007,764,0,0
-210,260,0,0,0,0,0,0,0,0,0,-1,1014,764,0,0
-203,260,0,0,0,0,0,0,0,0,0,-1,1021,764,0,0
-196,260,0,0,0,0,0,0,0,0,0,-1,1028,764,0,0
-189,260,0,0,0,0,0,0,0,0,0,-1,1035,764,0,0
-182,260,0,0,0,0,0,0,0,0,0,-1,1042,764,0,0
-175,260,0,0,0,0,0,0,0,0,0,-1,1049,764,0,0
-168,260,0,0,0,0,0,0,0,0,0,-1,1056,764,0,0
-161,260,0,0,0,0,0,0,0,0,0,-1,1063,764,0,0
-154,260,0,0,0,0,0,0,0,0,0,-1,1070,764,0,0
-147,260,0,0,0,0,0,0,0,0,0,-1,1077,764,0,0
-140,260,0,0,0,0,0,0,0,0,0,-1,1084,764,0,0
-133,260,0,0,0,0,0,0,0,0,0,-1,1091,764,0,0
-126,260,0,0,0,0,0,0,0,0,0,-1,1098,764,0,0
-119,260,0,0,0,0,0,0,0,0,0,-1,1105,764,0,0
-112,260,0,0,0,0,0,0,0,0,0,-1,1112,764,0,0
-105,260,0,0,0,0,0,0,0,0,0,-1,1119,764,0,0
-98,260,0,0,0,0,0,0,0,0,0,-1,1126,764,0,0
-91,260,0,0,0,0,0,0,0,0,0,-1,1133,764,0,0
-84,260,0,0,0,0,0,0,0,0,0,-1,1140,764,0,0
-77,260,0,0,0,0,0,0,0,0,0,-1,1147,764,0,0
-70,260,0,0,0,0,0,0,0,0,0,-1,1154,764,0,0
-63,260,0,0,0,0,0,0,0,0,0,-1,1161,764,0,0
-56,260,0,0,0,0,0,0,0,0,0,-1,1168,764,0,0
-49,260,0,0,0,0,0,0,0,0,0,-1,1175,764,0,0
-42,260,0,0,0,0,0,0,0,0,0,-1,1182,764,0,0
-35,260,0,0,0,0,0,0,0,0,0,-1,1189,764,0,0
-28,260,0,0,0,0,0,0,0,0,0,-1,1196,764,0,0
-21,260,0,0,0,0,0,0,0,0,0,-1,1203,764,0,0
-14,260,0,0,0,0,0,0,0,0,0,-1,1210,764,0,0
-7,260,0,0,0,0,0,0,0,0,0,-1,1217,764,0,0
0,260,0,0,0,0,0,0,0,0,0,-1,1224,764,0,0
7,260,0,0,0,0,0,0,0,0,0,-1,1231,764,0,0
14,260,0,0,0,0,0,0,0,0,0,-1,1238,764,0,0
21,260,0,0,0,0,0,0,0,0,0,-1,1245,764,0,0
28,260,0,0,0,0,0,0,0,0,0,-1,1252,764,0,0
35,260,0,0,0,0,0,0,0,0,0,-1,1259,764,0,0
42,260,0,0,0,0,0,0,0,0,0,-1,1266,764,0,0
49,260,0,0,0,0,0,0,0,0,0,-1,1273,764,0,0
56,260,0,0,0,0,0,0,0,0,0,-1,1280,764,0,0
63,260,0,0,0,0,0,0,0,0,0,-1,1287,764,0,0
70,260,0,0,0,0,0,0,0,0,0,-1,1294,764,0,0
77,260,0,0,0,0,0,0,0,0,0,-1,1301,764,0,0
84,260,0,0,0,0,0,0,0,0,0,-1,1308,764,0,0
91,260,0,0,0,0,0,0,0,0,0,-1,1315,764,0,0
98,260,0,0,0,0,0,0,0,0,0,-1,1322,764,0,0
105,260,0,0,0,0,0,0,0,0,0,-1,1329,764,0,0
112,260,0,0,0,0,0,0,0,0,0,-1,1336,764,0,0
119,260,0,0,0,0,0,0,0,0,0,-1,1343,764,0,0
126,260,0,0,0,0,0,0,0,0,0,-1,1350,764,0,0
133,260,0,0,0,0,0,0,0,0,0,-1,1357,764,0,0
140,260,0,0,0,0,0,0,0,0,0,-1,1364,764,0,0
147,260,0,0,0,0,0,0,0,0,0,-1,1371,764,0,0
154,260,0,0,0,0,0,0,0,0,0,-1,1378,764,0,0
161,260,0,0,0,0,0,0,0,0,0,-1,1385,764,0,0
168,260,0,0,0,0,0,0,0,0,0,-1,1392,764,0,0
175,260,0,0,0,0,0,0,0,0,0,-1,1399,764,0,0
182,260,0,0,0,0,0,0,0,0,0,-1,1406,764,0,0
189,260,0,0,0,0,0,0,0,0,0,-1,1413,764,0,0
196,260,0,0,0,0,0,0,0,0,0,-1,1420,764,0,0
203,260,0,0,0,0,0,0,0,0,0,-1,1427,764,0,0
210,260,0,0,0,0,0,0,0,0,0,-1,1434,764,0,0
217,260,0,0,0,0,0,0,0,0,0,-1,1441,764,0,0
224,260,0,0,0,0,0,0,0,0,0,-1,1448,764,0,0
231,260,0,0,0,0,0,0,0,0,0,-1,1455,764,0,0
238,260,0,0,0,0,0,0,0,0,0,-1,1462,764,0,0
245,260,0,0,0,0,0,0,0,0,0,-1,1469,764,0,0
252,260,0,0,0,0,0,0,0,0,0,-1,1476,764,0,0
259,260,0,0,0,0,0,0,0,0,0,-1,1483,764,0,0
266,260,0,0,0,0,0,0,0,0,0,-1,1490,764,0,0
273,260,0,0,0,0,0,0,0,0,0,-1,1497,764,0,0
280,260,0,0,0,0,0,0,0,0,0,-1,1504,764,0,0
287,260,0,0,0,0,0,0,0,0,0,-1,1511,764,0,0
294,260,0,0,0,0,0,0,0,0,0,-1,1518,764,0,0
301,260,0,0,0,0,0,0,0,0,0,-1,1525,764,0,0
308,260,0,0,0,0,0,0,0,0,0,-1,1532,764,0,0
315,260,0,0,0,0,0,0,0,0,0,-1,1539,764,0,0
322,260,0,0,0,0,0,0,0,0,0,-1,1546,764,0,0
329,260,0,0,0,0,0,0,0,0,0,-1,1553,764,0,0
336,260,0,0,0,0,0,0,0,0,0,-1,1560,764,0,0
343,260,0,0,0,0,0,0,0,0,0,-1,1567,764,0,0
350,260,0,0,0,0,0,0,0,0,0,-1,1574,764,0,0
357,260,0,0,0,0,0,0,0,0,0,-1,1581,764,0,0
364,260,0,0,0,0,0,0,0,0,0,-1,1588,764,0,0
371,260,0,0,0,0,0,0,0,0,0,-1,1595,764,0,0
378,260,0,0,0,0,0,0,0,0,0,-1,1602,764,0,0
385,260,0,0,0,0,0,0,0,0,0,-1,1609,764,0,0
392,260,0,0,0,0,0,0,0,0,0,-1,1616,764,0,0
399,260,0,0,0,0,0,0,0,0,0,-1,1623,764,0,0
406,260,0,0,0,0,0,0,0,0,0,-1,1630,764,0,0
413,260,0,0,0,0,0,0,0,0,0,-1,1637,764,0,0
420,260,0,0,0,0,0,0,0,0,0,-1,1644,764,0,0
427,260,0,0,0,0,0,0,0,0,0,-1,1651,764,0,0
434,260,0,0,0,0,0,0,0,0,0,-1,1658,764,0,0
441,260,0,0,0,0,0,0,0,0,0,-1,1665,764,0,0
448,260,0,0,0,0,0,0,0,0,0,-1,1672,764,0,0
455,260,0,0,0,0,0,0,0,0,0,-1,1679,764,0,0
462,260,0,0,0,0,0,0,0,0,0,-1,1686,764,0,0
469,260,0,0,0,0,0,0,0,0,0,-1,1693,764,0,0
476,260,0,0,0,0,0,0,0,0,0,-1,1700,764,0,0
483,260,0,0,0,0,0,0,0,0,0,-1,1707,764,0,0
490,260,0,0,0,0,0,0,0,0,0,-1,1714,764,0,0
497,260,0,0,0,0,0,0,0,0,0,-1,1721,764,0,0
504,260,0,0,0,0,0,0,0,0,0,-1,1728,764,0,0
511,260,0,0,0,0,0,0,0,0,0,-1,1735,764,0,0
518,260,0,0,0,0,0,0,0,0,0,-1,1742,764,0,0
525,260,0,0,0,0,0,0,0,0,0,-1,1749,764,0,0
532,260,0,0,0,0,0,0,0,0,0,-1,1756,764,0,0
539,260,0,0,0,0,0,0,0,0,0,-1,1763,764,0,0
546,260,0,0,0,0,0,0,0,0,0,-1,1770,764,0,0
553,260,0,0,0,0,0,0,0,0,0,-1,1777,764,0,0
560,260,0,0,0,0,0,0,0,0,0,-1,1784,764,0,0
567,260,0,0,0,0,0,0,0,0,0,-1,1791,764,0,0
574,260,123.775,3.97382,0,0,0,0,0,0,0,-1,1798,764,123.775,-3.97382
581,260,123.673,4.10852,0,0,0,0,0,0,0,-1,1805,764,123.673,-4.10852
588,260,78.047,2.81091,0,0,0,0,0,0,0,-1,1812,764,78.047,-2.81091
595,260,66.1678,2.56989,0,0,0,0,0,0,0,-1,1819,764,66.1678,-2.56989
602,260,65.9274,2.69824,0,0,0,0,0,0,0,-1,1826,764,65.9274,-2.69825
609,260,65.4674,3.08105,0,0,0,0,0,0,0,-1,1833,764,65.4673,-3.08107
616,260,46.0709,2.74542,0,0,0,0,0,0,0,-1,1840,764,46.0709,-2.74545
623,260,32.2268,3.25836,0,0,0,0,0,0,0,-1,1847,764,32.2268,-3.25833
630,260,24.3739,-0.536316,0,0,0,0,0,0,0,-1,1854,764,24.3739,0.536343
637,260,42.7155,-5.35486,0,0,0,0,0,0,0,-1,1861,764,42.7154,5.35488
644,260,91.3242,-9.78699,0,0,0,0,0,0,0,-1,1868,764,91.3243,9.78696
651,260,76.7991,-7.37592,0,0,0,0,0,0,0,-1,1875,764,76.7991,7.37592
658,260,176.308,5.30743,0,0,0,0,0,0,0,-1,1882,764,176.308,-5.30742
665,260,178.474,8.40674,0,0,0,0,0,0,0,-1,1889,764,178.474,-8.40675
672,260,177.633,11.1953,-0.00592312,0.0228883,-0.0127556,0.0277239,-0.0107588,-1.20844,0.0229264,0.0329956,1896,764,177.633,-11.1953
679,260,177.192,13.7576,-0.00492126,0.0271959,-0.0164348,0.0341151,-0.0118405,-1.17231,0.0275518,0.0168786,1903,764,177.192,-13.7576
686,260,176.62,16.1844,-0.00364705,0.031852,-0.0200569,0.0408854,-0.0126804,-1.14762,0.0323237,0.0371549,1910,764,176.62,-16.1844
693,260,176.011,18.4567,-0.00202914,0.0369246,-0.0235787,0.0480305,-0.013135,-1.13061,0.0371802,0.0386809,1917,764,176.011,-18.4567
700,260,175.648,20.7886,4.60501e-05,0.0423494,-0.0269573,0.0554627,-0.0130673,-1.11805,0.0420138,0.0286025,1924,764,175.648,-20.7886
707,260,175.478,23.2009,0.00260485,0.0479673,-0.0301568,0.0630203,-0.0124481,-1.10782,0.046719,0.0339097,1931,764,175.478,-23.2009
714,260,175.191,25.7191,0,0,0,0,0,0,0,-1,1938,764,175.191,-25.7191
721,260,59.4307,4.13696,0,0,0,0,0,0,0,-1,1945,764,59.4307,-4.13694
728,260,33.4344,5.75409,0,0,0,0,0,0,0,-1,1952,764,33.4345,-5.75408
735,260,26.9788,4.85681,0,0,0,0,0,0,0,-1,1959,764,26.9787,-4.85678
742,260,32.1443,1.73688,0,0,0,0,0,0,0,-1,1966,764,32.1442,-1.73688
749,260,33.6013,2.94733,0,0,0,0,0,0,0,-1,1973,764,33.6013,-2.9473
756,260,0,0,0,0,0,0,0,0,0,-1,1980,764,0,0
763,260,0,0,0,0,0,0,0,0,0,-1,1987,764,0,0
770,260,0,0,0,0,0,0,0,0,0,-1,1994,764,0,0
777,260,0,0,0,0,0,0,0,0,0,-1,2001,764,0,0
784,260,0,0,0,0,0,0,0,0,0,-1,2008,764,0,0
791,260,0,0,0,0,0,0,0,0,0,-1,2015,764,0,0
798,260,0,0,0,0,0,0,0,0,0,-1,2022,764,0,0
805,260,0,0,0,0,0,0,0,0,0,-1,2029,764,0,0
812,260,0,0,0,0,0,0,0,0,0,-1,2036,764,0,0
-700,253,0,0,0,0,0,0,0,0,0,-1,524,771,0,0
-693,253,0,0,0,0,0,0,0,0,0,-1,531,771,0,0
-686,253,0,0,0,0,0,0,0,0,0,-1,538,771,0,0
-679,253,0,0,0,0,0,0,0,0,0,-1,545,771,0,0
-672,253,0,0,0,0,0,0,0,0,0,-1,552,771,0,0
-665,253,0,0,0,0,0,0,0,0,0,-1,559,771,0,0
-658,253,0,0,0,0,0,0,0,0,0,-1,566,771,0,0
-651,253,0,0,0,0,0,0,0,0,0,-1,573,771,0,0
-644,253,0,0,0,0,0,0,0,0,0,-1,580,771,0,0
-637,253,-24.7979,-0.491394,0,0,0,0,0,0,0,-1,587,771,-24.7978,0.491371
-630,253,-25.156,0.540405,0,0,0,0,0,0,0,-1,594,771,-25.156,-0.540421
-623,253,-20.808,2.84314,0,0,0,0,0,0,0,-1,601,771,-20.8081,-2.84312
-616,253,-25.0877,2.96875,0,0,0,0,0,0,0,-1,608,771,-25.0877,-2.96876
-609,253,-24.28,2.08228,0,0,0,0,0,0,0,-1,615,771,-24.2801,-2.08227
-602,253,-45.6953,6.73285,0,0,0,0,0,0,0,-1,622,771,-45.6953,-6.73285
-595,253,-50.7667,7.12732,0,0,0,0,0,0,0,-1,629,771,-50.7667,-7.1273
-588,253,-168.868,27.8265,0,0,0,0,0,0,0,-1,636,771,-168.868,-27.8265
-581,253,-169.008,26.03,0,0,0,0,0,0,0,-1,643,771,-169.008,-26.03
-574,253,-169.399,23.5146,-0.00176796,0.0475479,0.0267168,0.0592466,-0.0134666,1.15807,0.0446684,0.0418323,650,771,-169.399,-23.5146
-567,253,-169.901,21.2346,-0.00154982,0.0422354,0.0236214,0.0525493,-0.0118637,1.15911,0.0395845,0.0221377,657,771,-169.901,-21.2345
-560,253,-170.339,18.8837,-0.00170521,0.0374434,0.0201596,0.0459683,-0.0102301,1.17073,0.0345639,0.0176579,664,771,-170.339,-18.8838
-553,253,-170.787,16.4995,-0.00244413,0.0332085,0.016386,0.0395954,-0.00883101,1.19913,0.0297803,0.0176335,671,771,-170.787,-16.4995
-546,253,-171.186,14.0593,-0.00377546,0.0294423,0.012412,0.0335677,-0.00790089,1.24991,0.0254247,0.0192742,678,771,-171.186,-14.0593
-539,253,-171.343,11.4515,-0.00580948,0.0261074,0.00829636,0.0281351,-0.00783718,1.33109,0.0218429,0.0354978,685,771,-171.343,-11.4516
-532,253,-172.398,8.74707,-0.008641,0.0232087,0.00407757,0.0237224,-0.00915474,1.44546,0.0195929,0.0428515,692,771,-172.398,-8.74706
-525,253,-172.996,5.97778,0,0,0,0,0,0,0,-1,699,771,-172.996,-5.9778
-518,253,-173.433,3.22418,0,0,0,0,0,0,0,-1,706,771,-173.433,-3.22417
-511,253,-68.3588,-8.90771,0,0,0,0,0,0,0,-1,713,771,-68.3588,8.90769
-504,253,-19.317,-4.1723,0,0,0,0,0,0,0,-1,720,771,-19.317,4.1723
-497,253,-21.7737,-1.76837,0,0,0,0,0,0,0,-1,727,771,-21.7738,1.7684
-490,253,-29.7674,0.438354,0,0,0,0,0,0,0,-1,734,771,-29.7674,-0.438339
-483,253,-45.4489,1.59302,0,0,0,0,0,0,0,-1,741,771,-45.4489,-1.59303
-476,253,-64.2688,0.0551758,0,0,0,0,0,0,0,-1,748,771,-64.2688,-0.0552001
-469,253,-71.0914,0.867859,0,0,0,0,0,0,0,-1,755,771,-71.0914,-0.867851
-462,253,-71.4388,0.379639,0,0,0,0,0,0,0,-1,762,771,-71.4388,-0.379644
-455,253,-71.35,0.581238,0,0,0,0,0,0,0,-1,769,771,-71.35,-0.581243
-448,253,0,0,0,0,0,0,0,0,0,-1,776,771,0,0
-441,253,0,0,0,0,0,0,0,0,0,-1,783,771,0,0
-434,253,0,0,0,0,0,0,0,0,0,-1,790,771,0,0
-427,253,0,0,0,0,0,0,0,0,0,-1,797,771,0,0
-420,253,0,0,0,0,0,0,0,0,0,-1,804,771,0,0
-413,253,0,0,0,0,0,0,0,0,0,-1,811,771,0,0
-406,253,0,0,0,0,0,0,0,0,0,-1,818,771,0,0
-399,253,0,0,0,0,0,0,0,0,0,-1,825,771,0,0
-392,253,0,0,0,0,0,0,0,0,0,-1,832,771,0,0
-385,253,0,0,0,0,0,0,0,0,0,-1,839,771,0,0
-378,253,0,0,0,0,0,0,0,0,0,-1,846,771,0,0
-371,253,0,0,0,0,0,0,0,0,0,-1,853,771,0,0
-364,253,0,0,0,0,0,0,0,0,0,-1,860,771,0,0
-357,253,0,0,0,0,0,0,0,0,0,-1,867,771,0,0
-350,253,0,0,0,0,0,0,0,0,0,-1,874,771,0,0
-343,253,0,0,0,0,0,0,0,0,0,-1,881,771,0,0
-336,253,0,0,0,0,0,0,0,0,0,-1,888,771,0,0
-329,253,0,0,0,0,0,0,0,0,0,-1,895,771,0,0
-322,253,0,0,0,0,0,0,0,0,0,-1,902,771,0,0
-315,253,0,0,0,0,0,0,0,0,0,-1,909,771,0,0
-308,253,0,0,0,0,0,0,0,0,0,-1,916,771,0,0
-301,253,0,0,0,0,0,0,0,0,0,-1,923,771,0,0
-294,253,0,0,0,0,0,0,0,0,0,-1,930,771,0,0
-287,253,0,0,0,0,0,0,0,0,0,-1,937,771,0,0
-280,253,0,0,0,0,0,0,0,0,0,-1,944,771,0,0
-273,253,0,0,0,0,0,0,0,0,0,-1,951,771,0,0
-266,253,0,0,0,0,0,0,0,0,0,-1,958,771,0,0
-259,253,0,0,0,0,0,0,0,0,0,-1,965,771,0,0
-252,253,0,0,0,0,0,0,0,0,0,-1,972,771,0,0
-245,253,0,0,0,0,0,0,0,0,0,-1,979,771,0,0
-238,253,0,0,0,0,0,0,0,0,0,-1,986,771,0,0
-231,253,0,0,0,0,0,0,0,0,0,-1,993,771,0,0
-224,253,0,0,0,0,0,0,0,0,0,-1,1000,771,0,0
-217,253,0,0,0,0,0,0,0,0,0,-1,1007,771,0,0
-210,253,0,0,0,0,0,0,0,0,0,-1,1014,771,0,0
-203,253,0,0,0,0,0,0,0,0,0,-1,1021,771,0,0
-196,253,0,0,0,0,0,0,0,0,0,-1,1028,771,0,0
-189,253,0,0,0,0,0,0,0,0,0,-1,1035,771,0,0
-182,253,0,0,0,0,0,0,0,0,0,-1,1042,771,0,0
-175,253,0,0,0,0,0,0,0,0,0,-1,1049,771,0,0
-168,253,0,0,0,0,0,0,0,0,0,-1,1056,771,0,0
-161,253,0,0,0,0,0,0,0,0,0,-1,1063,771,0,0
-154,253,0,0,0,0,0,0,0,0,0,-1,1070,771,0,0
-147,253,0,0,0,0,0,0,0,0,0,-1,1077,771,0,0
-140,253,0,0,0,0,0,0,0,0,0,-1,1084,771,0,0
-133,253,0,0,0,0,0,0,0,0,0,-1,1091,771,0,0
-126,253,0,0,0,0,0,0,0,0,0,-1,1098,771,0,0
-119,253,0,0,0,0,0,0,0,0,0,-1,1105,771,0,0
-112,253,0,0,0,0,0,0,0,0,0,-1,1112,771,0,0
-105,253,0,0,0,0,0,0,0,0,0,-1,1119,771,0,0
-98,253,0,0,0,0,0,0,0,0,0,-1,1126,771,0,0
-91,253,0,0,0,0,0,0,0,0,0,-1,1133,771,0,0
-84,253,0,0,0,0,0,0,0,0,0,-1,1140,771,0,0
-77,253,0,0,0,0,0,0,0,0,0,-1,1147,771,0,0
-70,253,0,0,0,0,0,0,0,0,0,-1,1154,771,0,0
-63,253,0,0,0,0,0,0,0,0,0,-1,1161,771,0,0
-56,253,0,0,0,0,0,0,0,0,0,-1,1168,771,0,0
-49,253,0,0,0,0,0,0,0,0,0,-1,1175,771,0,0
-42,253,0,0,0,0,0,0,0,0,0,-1,1182,771,0,0
-35,253,0,0,0,0,0,0,0,0,0,-1,1189,771,0,0
-28,253,0,0,0,0,0,0,0,0,0,-1,1196,771,0,0
-21,253,0,0,0,0,0,0,0,0,0,-1,1203,771,0,0
-14,253,0,0,0,0,0,0,0,0,0,-1,1210,771,0,0
-7,253,0,0,0,0,0,0,0,0,0,-1,1217,771,0,0
0,253,0,0,0,0,0,0,0,0,0,-1,1224,771,0,0
7,253,0,0,0,0,0,0,0,0,0,-1,1231,771,0,0
14,253,0,0,0,0,0,0,0,0,0,-1,1238,771,0,0
21,253,0,0,0,0,0,0,0,0,0,-1,1245,771,0,0
28,253,0,0,0,0,0,0,0,0,0,-1,1252,771,0,0
35,253,0,0,0,0,0,0,0,0,0,-1,1259,771,0,0
42,253,0,0,0,0,0,0,0,0,0,-1,1266,771,0,0
49,253,0,0,0,0,0,0,0,0,0,-1,1273,771,0,0
56,253,0,0,0,0,0,0,0,0,0,-1,1280,771,0,0
63,253,0,0,0,0,0,0,0,0,0,-1,1287,771,0,0
70,253,0,0,0,0,0,0,0,0,0,-1,1294,771,0,0
77,253,0,0,0,0,0,0,0,0,0,-1,1301,771,0,0
84,253,0,0,0,0,0,0,0,0,0,-1,1308,771,0,0
91,253,0,0,0,0,0,0,0,0,0,-1,1315,771,0,0
98,253,0,0,0,0,0,0,0,0,0,-1,1322,771,0,0
105,253,0,0,0,0,0,0,0,0,0,-1,1329,771,0,0
112,253,0,0,0,0,0,0,0,0,0,-1,1336,771,0,0
119,253,0,0,0,0,0,0,0,0,0,-1,1343,771,0,0
126,253,0,0,0,0,0,0,0,0,0,-1,1350,771,0,0
133,253,0,0,0,0,0,0,0,0,0,-1,1357,771,0,0
140,253,0,0,0,0,0,0,0,0,0,-1,1364,771,0,0
147,253,0,0,0,0,0,0,0,0,0,-1,1371,771,0,0
154,253,0,0,0,0,0,0,0,0,0,-1,1378,771,0,0
161,253,0,0,0,0,0,0,0,0,0,-1,1385,771,0,0
168,253,0,0,0,0,0,0,0,0,0,-1,1392,771,0,0
175,253,0,0,0,0,0,0,0,0,0,-1,1399,771,0,0
182,253,0,0,0,0,0,0,0,0,0,-1,1406,771,0,0
189,253,0,0,0,0,0,0,0,0,0,-1,1413,771,0,0
196,253,0,0,0,0,0,0,0,0,0,-1,1420,771,0,0
203,253,0,0,0,0,0,0,0,0,0,-1,1427,771,0,0
210,253,0,0,0,0,0,0,0,0,0,-1,1434,771,0,0
217,253,0,0,0,0,0,0,0,0,0,-1,1441,771,0,0
224,253,0,0,0,0,0,0,0,0,0,-1,1448,771,0,0
231,253,0,0,0,0,0,0,0,0,0,-1,1455,771,0,0
238,253,0,0,0,0,0,0,0,0,0,-1,1462,771,0,0
245,253,0,0,0,0,0,0,0,0,0,-1,1469,771,0,0
252,253,0,0,0,0,0,0,0,0,0,-1,1476,771,0,0
259,253,0,0,0,0,0,0,0,0,0,-1,1483,771,0,0
266,253,0,0,0,0,0,0,0,0,0,-1,1490,771,0,0
273,253,0,0,0,0,0,0,0,0,0,-1,1497,771,0,0
280,253,0,0,0,0,0,0,0,0,0,-1,1504,771,0,0
287,253,0,0,0,0,0,0,0,0,0,-1,1511,771,0,0
294,253,0,0,0,0,0,0,0,0,0,-1,1518,771,0,0
301,253,0,0,0,0,0,0,0,0,0,-1,1525,771,0,0
308,253,0,0,0,0,0,0,0,0,0,-1,1532,771,0,0
315,253,0,0,0,0,0,0,0,0,0,-1,1539,771,0,0
322,253,0,0,0,0,0,0,0,0,0,-1,1546,771,0,0
329,253,0,0,0,0,0,0,0,0,0,-1,1553,771,0,0
336,253,0,0,0,0,0,0,0,0,0,-1,1560,771,0,0
343,253,0,0,0,0,0,0,0,0,0,-1,1567,771,0,0
350,253,0,0,0,0,0,0,0,0,0,-1,1574,771,0,0
357,253,0,0,0,0,0,0,0,0,0,-1,1581,771,0,0
364,253,0,0,0,0,0,0,0,0,0,-1,1588,771,0,0
371,253,0,0,0,0,0,0,0,0,0,-1,1595,771,0,0
378,253,0,0,0,0,0,0,0,0,0,-1,1602,771,0,0
385,253,0,0,0,0,0,0,0,0,0,-1,1609,771,0,0
392,253,0,0,0,0,0,0,0,0,0,-1,1616,771,0,0
399,253,0,0,0,0,0,0,0,0,0,-1,1623,771,0,0
406,253,0,0,0,0,0,0,0,0,0,-1,1630,771,0,0
413,253,0,0,0,0,0,0,0,0,0,-1,1637,771,0,0
420,253,0,0,0,0,0,0,0,0,0,-1,1644,771,0,0
427,253,0,0,0,0,0,0,0,0,0,-1,1651,771,0,0
434,253,0,0,0,0,0,0,0,0,0,-1,1658,771,0,0
441,253,0,0,0,0,0,0,0,0,0,-1,1665,771,0,0
448,253,0,0,0,0,0,0,0,0,0,-1,1672,771,0,0
455,253,0,0,0,0,0,0,0,0,0,-1,1679,771,0,0
462,253,0,0,0,0,0,0,0,0,0,-1,1686,771,0,0
469,253,0,0,0,0,0,0,0,0,0,-1,1693,771,0,0
476,253,0,0,0,0,0,0,0,0,0,-1,1700,771,0,0
483,253,0,0,0,0,0,0,0,0,0,-1,1707,771,0,0
490,253,0,0,0,0,0,0,0,0,0,-1,1714,771,0,0
497,253,0,0,0,0,0,0,0,0,0,-1,1721,771,0,0
504,253,0,0,0,0,0,0,0,0,0,-1,1728,771,0,0
511,253,0,0,0,0,0,0,0,0,0,-1,1735,771,0,0
518,253,0,0,0,0,0,0,0,0,0,-1,1742,771,0,0
525,253,0,0,0,0,0,0,0,0,0,-1,1749,771,0,0
532,253,0,0,0,0,0,0,0,0,0,-1,1756,771,0,0
539,253,0,0,0,0,0,0,0,0,0,-1,1763,771,0,0
546,253,0,0,0,0,0,0,0,0,0,-1,1770,771,0,0
553,253,0,0,0,0,0,0,0,0,0,-1,1777,771,0,0
560,253,0,0,0,0,0,0,0,0,0,-1,1784,771,0,0
567,253,0,0,0,0,0,0,0,0,0,-1,1791,771,0,0
574,253,123.62,3.96124,0,0,0,0,0,0,0,-1,1798,771,123.62,-3.96124
581,253,228.75,8.91077,0,0,0,0,0,0,0,-1,1805,771,228.75,-8.91076
588,253,125.995,4.1709,0,0,0,0,0,0,0,-1,1812,771,125.995,-4.17091
595,253,107.31,2.72931,0,0,0,0,0,0,0,-1,1819,771,107.31,-2.72928
602,253,66.4502,2.6098,0,0,0,0,0,0,0,-1,1826,771,66.4502,-2.60979
609,253,65.2542,3.18195,0,0,0,0,0,0,0,-1,1833,771,65.2541,-3.18193
616,253,58.416,2.69031,0,0,0,0,0,0,0,-1,1840,771,58.4161,-2.69031
623,253,48.8328,3.01001,0,0,0,0,0,0,0,-1,1847,771,48.8328,-3.01002
630,253,33.561,2.96838,0,0,0,0,0,0,0,-1,1854,771,33.561,-2.96836
637,253,22.3192,-0.604004,0,0,0,0,0,0,0,-1,1861,771,22.3192,0.603986
644,253,48.2843,-5.22784,0,0,0,0,0,0,0,-1,1868,771,48.2843,5.22783
651,253,71.8274,-7.87415,0,0,0,0,0,0,0,-1,1875,771,71.8274,7.87416
658,253,74.8138,-4.5741,0,0,0,0,0,0,0,-1,1882,771,74.8138,4.57408
665,253,180.018,8.86444,0,0,0,0,0,0,0,-1,1889,771,180.018,-8.86443
672,253,180.285,11.5386,-0.00582912,0.0205268,-0.010146,0.0239801,-0.00928248,-1.24273,0.0198193,0.0498585,1896,771,180.285,-11.5386
679,253,180,14.1332,-0.00527689,0.0248922,-0.0140415,0.0304161,-0.0108008,-1.196,0.0246785,0.0188033,1903,771,180,-14.1332
686,253,179.355,16.5704,-0.00442509,0.0295575,-0.017862,0.0372189,-0.0120865,-1.16561,0.0296736,0.0424134,1910,771,179.355,-16.5704
693,253,178.814,18.8779,-0.00322368,0.0344761,-0.0215744,0.0442753,-0.0130229,-1.14445,0.0346826,0.0428708,1917,771,178.814,-18.8779
700,253,178.479,21.0954,-0.00162451,0.039678,-0.0251352,0.0515575,-0.013504,-1.12929,0.0396472,0.0315287,1924,771,178.479,-21.0954
707,253,178.268,23.4059,0.000360458,0.045095,-0.0285007,0.0589573,-0.0135019,-1.1181,0.0444937,0.027783,1931,771,178.268,-23.406
714,253,177.932,25.8853,0,0,0,0,0,0,0,-1,1938,771,177.932,-25.8853
721,253,113.766,17.9685,0,0,0,0,0,0,0,-1,1945,771,113.766,-17.9685
728,253,96.8784,15.2808,0,0,0,0,0,0,0,-1,1952,771,96.8783,-15.2808
735,253,34.5735,6.15118,0,0,0,0,0,0,0,-1,1959,771,34.5734,-6.1512
742,253,31.0571,5.7337,0,0,0,0,0,0,0,-1,1966,771,31.0571,-5.73373
749,253,33.7754,3.21533,0,0,0,0,0,0,0,-1,1973,771,33.7754,-3.21533
756,253,0,0,0,0,0,0,0,0,0,-1,1980,771,0,0
763,253,0,0,0,0,0,0,0,0,0,-1,1987,771,0,0
770,253,0,0,0,0,0,0,0,0,0,-1,1994,771,0,0
777,253,0,0,0,0,0,0,0,0,0,-1,2001,771,0,0
784,253,0,0,0,0,0,0,0,0,0,-1,2008,771,0,0
791,253,0,0,0,0,0,0,0,0,0,-1,2015,771,0,0
798,253,0,0,0,0,0,0,0,0,0,-1,2022,771,0,0
805,253,0,0,0,0,0,0,0,0,0,-1,2029,771,0,0
812,253,0,0,0,0,0,0,0,0,0,-1,2036,771,0,0
-700,246,0,0,0,0,0,0,0,0,0,-1,524,778,0,0
-693,246,0,0,0,0,0,0,0,0,0,-1,531,778,0,0
-686,246,0,0,0,0,0,0,0,0,0,-1,538,778,0,0
-679,246,0,0,0,0,0,0,0,0,0,-1,545,778,0,0
-672,246,0,0,0,0,0,0,0,0,0,-1,552,778,0,0
-665,246,0,0,0,0,0,0,0,0,0,-1,559,778,0,0
-658,246,0,0,0,0,0,0,0,0,0,-1,566,778,0,0
-651,246,0,0,0,0,0,0,0,0,0,-1,573,778,0,0
-644,246,0,0,0,0,0,0,0,0,0,-1,580,778,0,0
-637,246,-24.1234,0.130432,0,0,0,0,0,0,0,-1,587,778,-24.1234,-0.130438
-630,246,-24.0781,1.38916,0,0,0,0,0,0,0,-1,594,778,-24.0781,-1.38913
-623,246,-23.9183,2.49573,0,0,0,0,0,0,0,-1,601,778,-23.9183,-2.49575
-616,246,-26.8182,2.0705,0,0,0,0,0,0,0,-1,608,778,-26.8182,-2.07052
-609,246,-26.0615,1.16388,0,0,0,0,0,0,0,-1,615,778,-26.0615,-1.16388
-602,246,-51.7078,9.6991,0,0,0,0,0,0,0,-1,622,778,-51.7078,-9.69909
-595,246,-62.918,10.173,0,0,0,0,0,0,0,-1,629,778,-62.918,-10.173
-588,246,-171.565,28.2145,0,0,0,0,0,0,0,-1,636,778,-171.565,-28.2146
-581,246,-171.866,26.0109,-0.00314414,0.0515705,0.026926,0.0625985,-0.0141722,1.18207,0.0471715,0.0401375,643,778,-171.866,-26.0109
-574,246,-172.194,23.6555,-0.0027607,0.0455543,0.0243172,0.0556738,-0.0128802,1.17645,0.0420717,0.0307479,650,778,-172.194,-23.6555
-567,246,-172.616,21.3971,-0.00261432,0.0402514,0.0212785,0.0490203,-0.0113832,1.1799,0.0370619,0.0258733,657,778,-172.616,-21.3971
-560,246,-173.024,19.1667,-0.00291862,0.0355468,0.0178633,0.0425628,-0.00993463,1.19655,0.0322017,0.0196551,664,778,-173.024,-19.1667
-553,246,-173.478,16.8216,-0.0037116,0.0313883,0.0141064,0.0363548,-0.00867811,1.23227,0.027588,0.0173534,671,778,-173.478,-16.8216
-546,246,-173.935,14.3706,-0.0050558,0.0277078,0.0100698,0.0305553,-0.00790327,1.29522,0.0234528,0.0214688,678,778,-173.935,-14.3706
-539,246,-174.163,11.8415,-0.00713733,0.0245444,0.00581608,0.0255783,-0.0081713,1.39486,0.0203309,0.0341835,685,778,-174.163,-11.8415
-532,246,-175.116,9.34241,-0.00999901,0.021864,0.00132814,0.0219192,-0.0100543,1.52921,0.0188788,0.0350479,692,778,-175.116,-9.34241
-525,246,-175.869,6.65308,0,0,0,0,0,0,0,-1,699,778,-175.869,-6.6531
-518,246,-78.9205,-6.83978,0,0,0,0,0,0,0,-1,706,778,-78.9205,6.83976
-511,246,-28.5886,-5.38635,0,0,0,0,0,0,0,-1,713,778,-28.5886,5.38633
-504,246,-20.0047,-2.88214,0,0,0,0,0,0,0,-1,720,778,-20.0047,2.88216
-497,246,-29.4669,1.82684,0,0,0,0,0,0,0,-1,727,778,-29.4669,-1.82687
-490,246,-40.4299,1.04309,0,0,0,0,0,0,0,-1,734,778,-40.4299,-1.04308
-483,246,-55.5514,-0.0795898,0,0,0,0,0,0,0,-1,741,778,-55.5514,0.0795595
-476,246,-71.3194,0.512817,0,0,0,0,0,0,0,-1,748,778,-71.3194,-0.512787
-469,246,-71.1252,0.834961,0,0,0,0,0,0,0,-1,755,778,-71.1252,-0.834941
-462,246,-71.2921,0.690796,0,0,0,0,0,0,0,-1,762,778,-71.2921,-0.690778
-455,246,0,0,0,0,0,0,0,0,0,-1,769,778,0,0
-448,246,0,0,0,0,0,0,0,0,0,-1,776,778,0,0
-441,246,0,0,0,0,0,0,0,0,0,-1,783,778,0,0
-434,246,0,0,0,0,0,0,0,0,0,-1,790,778,0,0
-427,246,0,0,0,0,0,0,0,0,0,-1,797,778,0,0
-420,246,0,0,0,0,0,0,0,0,0,-1,804,778,0,0
-413,246,0,0,0,0,0,0,0,0,0,-1,811,778,0,0
-406,246,0,0,0,0,0,0,0,0,0,-1,818,778,0,0
-399,246,0,0,0,0,0,0,0,0,0,-1,825,778,0,0
-392,246,0,0,0,0,0,0,0,0,0,-1,832,778,0,0
-385,246,0,0,0,0,0,0,0,0,0,-1,839,778,0,0
-378,246,0,0,0,0,0,0,0,0,0,-1,846,778,0,0
-371,246,0,0,0,0,0,0,0,0,0,-1,853,778,0,0
-364,246,0,0,0,0,0,0,0,0,0,-1,860,778,0,0
-357,246,0,0,0,0,0,0,0,0,0,-1,867,778,0,0
-350,246,0,0,0,0,0,0,0,0,0,-1,874,778,0,0
-343,246,0,0,0,0,0,0,0,0,0,-1,881,778,0,0
-336,246,0,0,0,0,0,0,0,0,0,-1,888,778,0,0
-329,246,0,0,0,0,0,0,0,0,0,-1,895,778,0,0
-322,246,0,0,0,0,0,0,0,0,0,-1,902,778,0,0
-315,246,0,0,0,0,0,0,0,0,0,-1,909,778,0,0
-308,246,0,0,0,0,0,0,0,0,0,-1,916,778,0,0
-301,246,0,0,0,0,0,0,0,0,0,-1,923,778,0,0
-294,246,0,0,0,0,0,0,0,0,0,-1,930,778,0,0
-287,246,0,0,0,0,0,0,0,0,0,-1,937,778,0,0
-280,246,0,0,0,0,0,0,0,0,0,-1,944,778,0,0
-273,246,0,0,0,0,0,0,0,0,0,-1,951,778,0,0
-266,246,0,0,0,0,0,0,0,0,0,-1,958,778,0,0
-259,246,0,0,0,0,0,0,0,0,0,-1,965,778,0,0
-252,246,0,0,0,0,0,0,0,0,0,-1,972,778,0,0
-245,246,0,0,0,0,0,0,0,0,0,-1,979,778,0,0
-238,246,0,0,0,0,0,0,0,0,0,-1,986,778,0,0
-231,246,0,0,0,0,0,0,0,0,0,-1,993,778,0,0
-224,246,0,0,0,0,0,0,0,0,0,-1,1000,778,0,0
-217,246,0,0,0,0,0,0,0,0,0,-1,1007,778,0,0
-210,246,0,0,0,0,0,0,0,0,0,-1,1014,778,0,0
-203,246,0,0,0,0,0,0,0,0,0,-1,1021,778,0,0
-196,246,0,0,0,0,0,0,0,0,0,-1,1028,778,0,0
-189,246,0,0,0,0,0,0,0,0,0,-1,1035,778,0,0
-182,246,0,0,0,0,0,0,0,0,0,-1,1042,778,0,0
-175,246,0,0,0,0,0,0,0,0,0,-1,1049,778,0,0
-168,246,0,0,0,0,0,0,0,0,0,-1,1056,778,0,0
-161,246,0,0,0,0,0,0,0,0,0,-1,1063,778,0,0
-154,246,0,0,0,0,0,0,0,0,0,-1,1070,778,0,0
-147,246,0,0,0,0,0,0,0,0,0,-1,1077,778,0,0
-140,246,0,0,0,0,0,0,0,0,0,-1,1084,778,0,0
-133,246,0,0,0,0,0,0,0,0,0,-1,1091,778,0,0
-126,246,0,0,0,0,0,0,0,0,0,-1,1098,778,0,0
-119,246,0,0,0,0,0,0,0,0,0,-1,1105,778,0,0
-112,246,0,0,0,0,0,0,0,0,0,-1,1112,778,0,0
-105,246,0,0,0,0,0,0,0,0,0,-1,1119,778,0,0
-98,246,0,0,0,0,0,0,0,0,0,-1,1126,778,0,0
-91,246,0,0,0,0,0,0,0,0,0,-1,1133,778,0,0
-84,246,0,0,0,0,0,0,0,0,0,-1,1140,778,0,0
-77,246,0,0,0,0,0,0,0,0,0,-1,1147,778,0,0
-70,246,0,0,0,0,0,0,0,0,0,-1,1154,778,0,0
-63,246,0,0,0,0,0,0,0,0,0,-1,1161,778,0,0
-56,246,0,0,0,0,0,0,0,0,0,-1,1168,778,0,0
-49,246,0,0,0,0,0,0,0,0,0,-1,1175,778,0,0
-42,246,0,0,0,0,0,0,0,0,0,-1,1182,778,0,0
-35,246,0,0,0,0,0,0,0,0,0,-1,1189,778,0,0
-28,246,0,0,0,0,0,0,0,0,0,-1,1196,778,0,0
-21,246,0,0,0,0,0,0,0,0,0,-1,1203,778,0,0
-14,246,0,0,0,0,0,0,0,0,0,-1,1210,778,0,0
-7,246,0,0,0,0,0,0,0,0,0,-1,1217,778,0,0
0,246,0,0,0,0,0,0,0,0,0,-1,1224,778,0,0
7,246,0,0,0,0,0,0,0,0,0,-1,1231,778,0,0
14,246,0,0,0,0,0,0,0,0,0,-1,1238,778,0,0
21,246,0,0,0,0,0,0,0,0,0,-1,1245,778,0,0
28,246,0,0,0,0,0,0,0,0,0,-1,1252,778,0,0
35,246,0,0,0,0,0,0,0,0,0,-1,1259,778,0,0
42,246,0,0,0,0,0,0,0,0,0,-1,1266,778,0,0
49,246,0,0,0,0,0,0,0,0,0,-1,1273,778,0,0
56,246,0,0,0,0,0,0,0,0,0,-1,1280,778,0,0
63,246,0,0,0,0,0,0,0,0,0,-1,1287,778,0,0
70,246,0,0,0,0,0,0,0,0,0,-1,1294,778,0,0
77,246,0,0,0,0,0,0,0,0,0,-1,1301,778,0,0
84,246,0,0,0,0,0,0,0,0,0,-1,1308,778,0,0
91,246,0,0,0,0,0,0,0,0,0,-1,1315,778,0,0
98,246,0,0,0,0,0,0,0,0,0,-1,1322,778,0,0
105,246,0,0,0,0,0,0,0,0,0,-1,1329,778,0,0
112,246,0,0,0,0,0,0,0,0,0,-1,1336,778,0,0
119,246,0,0,0,0,0,0,0,0,0,-1,1343,778,0,0
126,246,0,0,0,0,0,0,0,0,0,-1,1350,778,0,0
133,246,0,0,0,0,0,0,0,0,0,-1,1357,778,0,0
140,246,0,0,0,0,0,0,0,0,0,-1,1364,778,0,0
147,246,0,0,0,0,0,0,0,0,0,-1,1371,778,0,0
154,246,0,0,0,0,0,0,0,0,0,-1,1378,778,0,0
161,246,0,0,0,0,0,0,0,0,0,-1,1385,778,0,0
168,246,0,0,0,0,0,0,0,0,0,-1,1392,778,0,0
175,246,0,0,0,0,0,0,0,0,0,-1,1399,778,0,0
182,246,0,0,0,0,0,0,0,0,0,-1,1406,778,0,0
189,246,0,0,0,0,0,0,0,0,0,-1,1413,778,0,0
196,246,0,0,0,0,0,0,0,0,0,-1,1420,778,0,0
203,246,0,0,0,0,0,0,0,0,0,-1,1427,778,0,0
210,246,0,0,0,0,0,0,0,0,0,-1,1434,778,0,0
217,246,0,0,0,0,0,0,0,0,0,-1,1441,778,0,0
224,246,0,0,0,0,0,0,0,0,0,-1,1448,778,0,0
231,246,0,0,0,0,0,0,0,0,0,-1,1455,778,0,0
238,246,0,0,0,0,0,0,0,0,0,-1,1462,778,0,0
245,246,0,0,0,0,0,0,0,0,0,-1,1469,778,0,0
252,246,0,0,0,0,0,0,0,0,0,-1,1476,778,0,0
259,246,0,0,0,0,0,0,0,0,0,-1,1483,778,0,0
266,246,0,0,0,0,0,0,0,0,0,-1,1490,778,0,0
273,246,0,0,0,0,0,0,0,0,0,-1,1497,778,0,0
280,246,0,0,0,0,0,0,0,0,0,-1,1504,778,0,0
287,246,0,0,0,0,0,0,0,0,0,-1,1511,778,0,0
294,246,0,0,0,0,0,0,0,0,0,-1,1518,778,0,0
301,246,0,0,0,0,0,0,0,0,0,-1,1525,778,0,0
308,246,0,0,0,0,0,0,0,0,0,-1,1532,778,0,0
315,246,0,0,0,0,0,0,0,0,0,-1,1539,778,0,0
322,246,0,0,0,0,0,0,0,0,0,-1,1546,778,0,0
329,246,0,0,0,0,0,0,0,0,0,-1,1553,778,0,0
336,246,0,0,0,0,0,0,0,0,0,-1,1560,778,0,0
343,246,0,0,0,0,0,0,0,0,0,-1,1567,778,0,0
350,246,0,0,0,0,0,0,0,0,0,-1,1574,778,0,0
357,246,0,0,0,0,0,0,0,0,0,-1,1581,778,0,0
364,246,0,0,0,0,0,0,0,0,0,-1,1588,778,0,0
371,246,0,0,0,0,0,0,0,0,0,-1,1595,778,0,0
378,246,0,0,0,0,0,0,0,0,0,-1,1602,778,0,0
385,246,0,0,0,0,0,0,0,0,0,-1,1609,778,0,0
392,246,0,0,0,0,0,0,0,0,0,-1,1616,778,0,0
399,246,0,0,0,0,0,0,0,0,0,-1,1623,778,0,0
406,246,0,0,0,0,0,0,0,0,0,-1,1630,778,0,0
413,246,0,0,0,0,0,0,0,0,0,-1,1637,778,0,0
420,246,0,0,0,0,0,0,0,0,0,-1,1644,778,0,0
427,246,0,0,0,0,0,0,0,0,0,-1,1651,778,0,0
434,246,0,0,0,0,0,0,0,0,0,-1,1658,778,0,0
441,246,0,0,0,0,0,0,0,0,0,-1,1665,778,0,0
448,246,0,0,0,0,0,0,0,0,0,-1,1672,778,0,0
455,246,0,0,0,0,0,0,0,0,0,-1,1679,778,0,0
462,246,0,0,0,0,0,0,0,0,0,-1,1686,778,0,0
469,246,0,0,0,0,0,0,0,0,0,-1,1693,778,0,0
476,246,0,0,0,0,0,0,0,0,0,-1,1700,778,0,0
483,246,0,0,0,0,0,0,0,0,0,-1,1707,778,0,0
490,246,0,0,0,0,0,0,0,0,0,-1,1714,778,0,0
497,246,0,0,0,0,0,0,0,0,0,-1,1721,778,0,0
504,246,0,0,0,0,0,0,0,0,0,-1,1728,778,0,0
511,246,0,0,0,0,0,0,0,0,0,-1,1735,778,0,0
518,246,0,0,0,0,0,0,0,0,0,-1,1742,778,0,0
525,246,0,0,0,0,0,0,0,0,0,-1,1749,778,0,0
532,246,0,0,0,0,0,0,0,0,0,-1,1756,778,0,0
539,246,0,0,0,0,0,0,0,0,0,-1,1763,778,0,0
546,246,0,0,0,0,0,0,0,0,0,-1,1770,778,0,0
553,246,0,0,0,0,0,0,0,0,0,-1,1777,778,0,0
560,246,0,0,0,0,0,0,0,0,0,-1,1784,778,0,0
567,246,0,0,0,0,0,0,0,0,0,-1,1791,778,0,0
574,246,0,0,0,0,0,0,0,0,0,-1,1798,778,0,0
581,246,228.768,9.00354,0,0,0,0,0,0,0,-1,1805,778,228.768,-9.00354
588,246,228.748,8.99066,0,0,0,0,0,0,0,-1,1812,778,228.748,-8.99066
595,246,228.74,8.82281,0,0,0,0,0,0,0,-1,1819,778,228.74,-8.82281
602,246,107.337,2.6972,0,0,0,0,0,0,0,-1,1826,778,107.337,-2.69723
609,246,65.04,3.03278,0,0,0,0,0,0,0,-1,1833,778,65.04,-3.03277
616,246,60.4568,3.98492,0,0,0,0,0,0,0,-1,1840,778,60.4568,-3.98491
623,246,55.8947,3.95953,0,0,0,0,0,0,0,-1,1847,778,55.8947,-3.95952
630,246,49.5938,1.99902,0,0,0,0,0,0,0,-1,1854,778,49.5937,-1.999
637,246,29.5785,0.837585,0,0,0,0,0,0,0,-1,1861,778,29.5785,-0.837606
644,246,28.1232,-1.43188,0,0,0,0,0,0,0,-1,1868,778,28.1232,1.43188
651,246,48.5865,-4.32922,0,0,0,0,0,0,0,-1,1875,778,48.5865,4.32921
658,246,72.3572,-5.37158,0,0,0,0,0,0,0,-1,1882,778,72.3571,5.37156
665,246,86.7817,-3.43433,0,0,0,0,0,0,0,-1,1889,778,86.7817,3.43432
672,246,182.783,11.7286,0,0,0,0,0,0,0,-1,1896,778,182.783,-11.7286
679,246,182.738,14.4438,-0.00548196,0.0227462,-0.0112477,0.0266797,-0.00941553,-1.23437,0.0216196,0.0336228,1903,778,182.738,-14.4438
686,246,182.223,16.9288,-0.00507099,0.0273241,-0.0153492,0.0334416,-0.0111885,-1.19154,0.0268136,0.0382195,1910,778,182.223,-16.9288
693,246,181.764,19.2928,-0.00433833,0.0321466,-0.0193197,0.0404755,-0.0126673,-1.16376,0.0320516,0.0306581,1917,778,181.764,-19.2928
700,246,181.365,21.5103,-0.00326751,0.0372198,-0.0231227,0.0477083,-0.013756,-1.14495,0.0372475,0.0255055,1924,778,181.365,-21.5103
707,246,180.854,23.7397,-0.00189193,0.0425581,-0.0267215,0.0550892,-0.014423,-1.13229,0.0423603,0.0222472,1931,778,180.854,-23.7397
714,246,180.515,25.9421,-0.000237059,0.0482226,-0.0301678,0.0626862,-0.0147007,-1.12373,0.0474562,0.031503,1938,778,180.515,-25.9421
721,246,180.168,28.1213,0,0,0,0,0,0,0,-1,1945,778,180.168,-28.1213
728,246,115.72,20.5336,0,0,0,0,0,0,0,-1,1952,778,115.72,-20.5337
735,246,98.2612,18.2271,0,0,0,0,0,0,0,-1,1959,778,98.2612,-18.2271
742,246,31.7356,6.70013,0,0,0,0,0,0,0,-1,1966,778,31.7356,-6.70011
749,246,32.3883,7.69324,0,0,0,0,0,0,0,-1,1973,778,32.3883,-7.69322
756,246,33.6919,3.45264,0,0,0,0,0,0,0,-1,1980,778,33.6919,-3.45262
763,246,0,0,0,0,0,0,0,0,0,-1,1987,778,0,0
770,246,0,0,0,0,0,0,0,0,0,-1,1994,778,0,0
777,246,0,0,0,0,0,0,0,0,0,-1,2001,778,0,0
784,246,0,0,0,0,0,0,0,0,0,-1,2008,778,0,0
791,246,0,0,0,0,0,0,0,0,0,-1,2015,778,0,0
798,246,0,0,0,0,0,0,0,0,0,-1,2022,778,0,0
805,246,0,0,0,0,0,0,0,0,0,-1,2029,778,0,0
812,246,0,0,0,0,0,0,0,0,0,-1,2036,778,0,0
-700,239,0,0,0,0,0,0,0,0,0,-1,524,785,0,0
-693,239,0,0,0,0,0,0,0,0,0,-1,531,785,0,0
-686,239,0,0,0,0,0,0,0,0,0,-1,538,785,0,0
-679,239,0,0,0,0,0,0,0,0,0,-1,545,785,0,0
-672,239,0,0,0,0,0,0,0,0,0,-1,552,785,0,0
-665,239,0,0,0,0,0,0,0,0,0,-1,559,785,0,0
-658,239,0,0,0,0,0,0,0,0,0,-1,566,785,0,0
-651,239,0,0,0,0,0,0,0,0,0,-1,573,785,0,0
-644,239,0,0,0,0,0,0,0,0,0,-1,580,785,0,0
-637,239,-23.2709,0.465088,0,0,0,0,0,0,0,-1,587,785,-23.271,-0.465116
-630,239,-23.4006,0.956299,0,0,0,0,0,0,0,-1,594,785,-23.4005,-0.956285
-623,239,-30.6328,2.52185,0,0,0,0,0,0,0,-1,601,785,-30.6328,-2.52183
-616,239,-29.1425,1.42139,0,0,0,0,0,0,0,-1,608,785,-29.1425,-1.42139
-609,239,-52.9622,11.0265,0,0,0,0,0,0,0,-1,615,785,-52.9622,-11.0265
-602,239,-60.6862,12.3326,0,0,0,0,0,0,0,-1,622,785,-60.6862,-12.3326
-595,239,-170.357,30.5814,0,0,0,0,0,0,0,-1,629,785,-170.357,-30.5814
-588,239,-174.262,28.4406,0,0,0,0,0,0,0,-1,636,785,-174.262,-28.4406
-581,239,-174.609,26.1714,-0.0044671,0.0493864,0.0246743,0.0589819,-0.0140626,1.19991,0.0447514,0.0251364,643,785,-174.609,-26.1714
-574,239,-174.996,23.8868,-0.00382586,0.0435242,0.0220522,0.0522035,-0.0125052,1.19583,0.0396339,0.0197917,650,785,-174.996,-23.8868
-567,239,-175.281,21.6873,-0.00356554,0.0383009,0.01903,0.0456579,-0.0109226,1.20189,0.034658,0.0209109,657,785,-175.281,-21.6872
-560,239,-175.706,19.4742,-0.00386329,0.0336981,0.0156346,0.0393542,-0.00951933,1.22368,0.0299184,0.0198503,664,785,-175.706,-19.4742
-553,239,-176.188,17.1531,-0.00465407,0.0296293,0.0118817,0.0333446,-0.0083693,1.26774,0.0254818,0.027701,671,785,-176.188,-17.1532
-546,239,-176.683,14.6489,-0.00612218,0.0261079,0.00782505,0.0279073,-0.00792154,1.34478,0.0217321,0.038368,678,785,-176.683,-14.6489
-539,239,-176.975,12.0636,-0.00838792,0.0232032,0.00345668,0.023577,-0.00876173,1.46308,0.0193129,0.0404327,685,785,-176.975,-12.0636
-532,239,-177.707,9.45197,-0.0114729,0.0208315,-0.00128311,0.0208824,-0.0115238,-1.53116,0.018968,0.0425824,692,785,-177.707,-9.45197
-525,239,-178.522,6.82477,0,0,0,0,0,0,0,-1,699,785,-178.522,-6.82477
-518,239,-40.5128,-6.22827,0,0,0,0,0,0,0,-1,706,785,-40.5128,6.22828
-511,239,-20.9849,-2.09235,0,0,0,0,0,0,0,-1,713,785,-20.9848,2.09234
-504,239,-25.5015,2.00421,0,0,0,0,0,0,0,-1,720,785,-25.5015,-2.00422
-497,239,-40.2453,1.4447,0,0,0,0,0,0,0,-1,727,785,-40.2453,-1.4447
-490,239,-55.7633,-0.30426,0,0,0,0,0,0,0,-1,734,785,-55.7633,0.304271
-483,239,-71.5136,0.470825,0,0,0,0,0,0,0,-1,741,785,-71.5136,-0.470807
-476,239,-71.3347,0.550476,0,0,0,0,0,0,0,-1,748,785,-71.3347,-0.550462
-469,239,-71.1616,0.772156,0,0,0,0,0,0,0,-1,755,785,-71.1616,-0.772161
-462,239,-71.1605,0.909424,0,0,0,0,0,0,0,-1,762,785,-71.1605,-0.909427
-455,239,0,0,0,0,0,0,0,0,0,-1,769,785,0,0
-448,239,0,0,0,0,0,0,0,0,0,-1,776,785,0,0
-441,239,0,0,0,0,0,0,0,0,0,-1,783,785,0,0
-434,239,0,0,0,0,0,0,0,0,0,-1,790,785,0,0
-427,239,0,0,0,0,0,0,0,0,0,-1,797,785,0,0
-420,239,0,0,0,0,0,0,0,0,0,-1,804,785,0,0
-413,239,0,0,0,0,0,0,0,0,0,-1,811,785,0,0
-406,239,0,0,0,0,0,0,0,0,0,-1,818,785,0,0
-399,239,0,0,0,0,0,0,0,0,0,-1,825,785,0,0
-392,239,0,0,0,0,0,0,0,0,0,-1,832,785,0,0
-385,239,0,0,0,0,0,0,0,0,0,-1,839,785,0,0
-378,239,0,0,0,0,0,0,0,0,0,-1,846,785,0,0
-371,239,0,0,0,0,0,0,0,0,0,-1,853,785,0,0
-364,239,0,0,0,0,0,0,0,0,0,-1,860,785,0,0
-357,239,0,0,0,0,0,0,0,0,0,-1,867,785,0,0
-350,239,0,0,0,0,0,0,0,0,0,-1,874,785,0,0
-343,239,0,0,0,0,0,0,0,0,0,-1,881,785,0,0
-336,239,0,0,0,0,0,0,0,0,0,-1,888,785,0,0
-329,239,0,0,0,0,0,0,0,0,0,-1,895,785,0,0
-322,239,0,0,0,0,0,0,0,0,0,-1,902,785,0,0
-315,239,0,0,0,0,0,0,0,0,0,-1,909,785,0,0
-308,239,0,0,0,0,0,0,0,0,0,-1,916,785,0,0
-301,239,0,0,0,0,0,0,0,0,0,-1,923,785,0,0
-294,239,0,0,0,0,0,0,0,0,0,-1,930,785,0,0
-287,239,0,0,0,0,0,0,0,0,0,-1,937,785,0,0
-280,239,0,0,0,0,0,0,0,0,0,-1,944,785,0,0
-273,239,0,0,0,0,0,0,0,0,0,-1,951,785,0,0
-266,239,0,0,0,0,0,0,0,0,0,-1,958,785,0,0
-259,239,0,0,0,0,0,0,0,0,0,-1,965,785,0,0
-252,239,0,0,0,0,0,0,0,0,0,-1,972,785,0,0
-245,239,0,0,0,0,0,0,0,0,0,-1,979,785,0,0
-238,239,0,0,0,0,0,0,0,0,0,-1,986,785,0,0
-231,239,0,0,0,0,0,0,0,0,0,-1,993,785,0,0
-224,239,0,0,0,0,0,0,0,0,0,-1,1000,785,0,0
-217,239,0,0,0,0,0,0,0,0,0,-1,1007,785,0,0
-210,239,0,0,0,0,0,0,0,0,0,-1,1014,785,0,0
-203,239,0,0,0,0,0,0,0,0,0,-1,1021,785,0,0
-196,239,0,0,0,0,0,0,0,0,0,-1,1028,785,0,0
-189,239,0,0,0,0,0,0,0,0,0,-1,1035,785,0,0
-182,239,0,0,0,0,0,0,0,0,0,-1,1042,785,0,0
-175,239,0,0,0,0,0,0,0,0,0,-1,1049,785,0,0
-168,239,0,0,0,0,0,0,0,0,0,-1,1056,785,0,0
-161,239,0,0,0,0,0,0,0,0,0,-1,1063,785,0,0
-154,239,0,0,0,0,0,0,0,0,0,-1,1070,785,0,0
-147,239,0,0,0,0,0,0,0,0,0,-1,1077,785,0,0
-140,239,0,0,0,0,0,0,0,0,0,-1,1084,785,0,0
-133,239,0,0,0,0,0,0,0,0,0,-1,1091,785,0,0
-126,239,0,0,0,0,0,0,0,0,0,-1,1098,785,0,0
-119,239,0,0,0,0,0,0,0,0,0,-1,1105,785,0,0
-112,239,0,0,0,0,0,0,0,0,0,-1,1112,785,0,0
-105,239,0,0,0,0,0,0,0,0,0,-1,1119,785,0,0
-98,239,0,0,0,0,0,0,0,0,0,-1,1126,785,0,0
-91,239,0,0,0,0,0,0,0,0,0,-1,1133,785,0,0
-84,239,0,0,0,0,0,0,0,0,0,-1,1140,785,0,0
-77,239,0,0,0,0,0,0,0,0,0,-1,1147,785,0,0
-70,239,0,0,0,0,0,0,0,0,0,-1,1154,785,0,0
-63,239,0,0,0,0,0,0,0,0,0,-1,1161,785,0,0
-56,239,0,0,0,0,0,0,0,0,0,-1,1168,785,0,0
-49,239,0,0,0,0,0,0,0,0,0,-1,1175,785,0,0
-42,239,0,0,0,0,0,0,0,0,0,-1,1182,785,0,0
-35,239,0,0,0,0,0,0,0,0,0,-1,1189,785,0,0
-28,239,0,0,0,0,0,0,0,0,0,-1,1196,785,0,0
-21,239,0,0,0,0,0,0,0,0,0,-1,1203,785,0,0
-14,239,0,0,0,0,0,0,0,0,0,-1,1210,785,0,0
-7,239,0,0,0,0,0,0,0,0,0,-1,1217,785,0,0
0,239,0,0,0,0,0,0,0,0,0,-1,1224,785,0,0
7,239,0,0,0,0,0,0,0,0,0,-1,1231,785,0,0
14,239,0,0,0,0,0,0,0,0,0,-1,1238,785,0,0
21,239,0,0,0,0,0,0,0,0,0,-1,1245,785,0,0
28,239,0,0,0,0,0,0,0,0,0,-1,1252,785,0,0
35,239,0,0,0,0,0,0,0,0,0,-1,1259,785,0,0
42,239,0,0,0,0,0,0,0,0,0,-1,1266,785,0,0
49,239,0,0,0,0,0,0,0,0,0,-1,1273,785,0,0
56,239,0,0,0,0,0,0,0,0,0,-1,1280,785,0,0
63,239,0,0,0,0,0,0,0,0,0,-1,1287,785,0,0
70,239,0,0,0,0,0,0,0,0,0,-1,1294,785,0,0
77,239,0,0,0,0,0,0,0,0,0,-1,1301,785,0,0
84,239,0,0,0,0,0,0,0,0,0,-1,1308,785,0,0
91,239,0,0,0,0,0,0,0,0,0,-1,1315,785,0,0
98,239,0,0,0,0,0,0,0,0,0,-1,1322,785,0,0
105,239,0,0,0,0,0,0,0,0,0,-1,1329,785,0,0
112,239,0,0,0,0,0,0,0,0,0,-1,1336,785,0,0
119,239,0,0,0,0,0,0,0,0,0,-1,1343,785,0,0
126,239,0,0,0,0,0,0,0,0,0,-1,1350,785,0,0
133,239,0,0,0,0,0,0,0,0,0,-1,1357,785,0,0
140,239,0,0,0,0,0,0,0,0,0,-1,1364,785,0,0
147,239,0,0,0,0,0,0,0,0,0,-1,1371,785,0,0
154,239,0,0,0,0,0,0,0,0,0,-1,1378,785,0,0
161,239,0,0,0,0,0,0,0,0,0,-1,1385,785,0,0
168,239,0,0,0,0,0,0,0,0,0,-1,1392,785,0,0
175,239,0,0,0,0,0,0,0,0,0,-1,1399,785,0,0
182,239,0,0,0,0,0,0,0,0,0,-1,1406,785,0,0
189,239,0,0,0,0,0,0,0,0,0,-1,1413,785,0,0
196,239,0,0,0,0,0,0,0,0,0,-1,1420,785,0,0
203,239,0,0,0,0,0,0,0,0,0,-1,1427,785,0,0
210,239,0,0,0,0,0,0,0,0,0,-1,1434,785,0,0
217,239,0,0,0,0,0,0,0,0,0,-1,1441,785,0,0
224,239,0,0,0,0,0,0,0,0,0,-1,1448,785,0,0
231,239,0,0,0,0,0,0,0,0,0,-1,1455,785,0,0
238,239,0,0,0,0,0,0,0,0,0,-1,1462,785,0,0
245,239,0,0,0,0,0,0,0,0,0,-1,1469,785,0,0
252,239,0,0,0,0,0,0,0,0,0,-1,1476,785,0,0
259,239,0,0,0,0,0,0,0,0,0,-1,1483,785,0,0
266,239,0,0,0,0,0,0,0,0,0,-1,1490,785,0,0
273,239,0,0,0,0,0,0,0,0,0,-1,1497,785,0,0
280,239,0,0,0,0,0,0,0,0,0,-1,1504,785,0,0
287,239,0,0,0,0,0,0,0,0,0,-1,1511,785,0,0
294,239,0,0,0,0,0,0,0,0,0,-1,1518,785,0,0
301,239,0,0,0,0,0,0,0,0,0,-1,1525,785,0,0
308,239,0,0,0,0,0,0,0,0,0,-1,1532,785,0,0
315,239,0,0,0,0,0,0,0,0,0,-1,1539,785,0,0
322,239,0,0,0,0,0,0,0,0,0,-1,1546,785,0,0
329,239,0,0,0,0,0,0,0,0,0,-1,1553,785,0,0
336,239,0,0,0,0,0,0,0,0,0,-1,1560,785,0,0
343,239,0,0,0,0,0,0,0,0,0,-1,1567,785,0,0
350,239,0,0,0,0,0,0,0,0,0,-1,1574,785,0,0
357,239,0,0,0,0,0,0,0,0,0,-1,1581,785,0,0
364,239,0,0,0,0,0,0,0,0,0,-1,1588,785,0,0
371,239,0,0,0,0,0,0,0,0,0,-1,1595,785,0,0
378,239,0,0,0,0,0,0,0,0,0,-1,1602,785,0,0
385,239,0,0,0,0,0,0,0,0,0,-1,1609,785,0,0
392,239,0,0,0,0,0,0,0,0,0,-1,1616,785,0,0
399,239,0,0,0,0,0,0,0,0,0,-1,1623,785,0,0
406,239,0,0,0,0,0,0,0,0,0,-1,1630,785,0,0
413,239,0,0,0,0,0,0,0,0,0,-1,1637,785,0,0
420,239,0,0,0,0,0,0,0,0,0,-1,1644,785,0,0
427,239,0,0,0,0,0,0,0,0,0,-1,1651,785,0,0
434,239,0,0,0,0,0,0,0,0,0,-1,1658,785,0,0
441,239,0,0,0,0,0,0,0,0,0,-1,1665,785,0,0
448,239,0,0,0,0,0,0,0,0,0,-1,1672,785,0,0
455,239,0,0,0,0,0,0,0,0,0,-1,1679,785,0,0
462,239,0,0,0,0,0,0,0,0,0,-1,1686,785,0,0
469,239,0,0,0,0,0,0,0,0,0,-1,1693,785,0,0
476,239,0,0,0,0,0,0,0,0,0,-1,1700,785,0,0
483,239,0,0,0,0,0,0,0,0,0,-1,1707,785,0,0
490,239,0,0,0,0,0,0,0,0,0,-1,1714,785,0,0
497,239,0,0,0,0,0,0,0,0,0,-1,1721,785,0,0
504,239,0,0,0,0,0,0,0,0,0,-1,1728,785,0,0
511,239,0,0,0,0,0,0,0,0,0,-1,1735,785,0,0
518,239,0,0,0,0,0,0,0,0,0,-1,1742,785,0,0
525,239,0,0,0,0,0,0,0,0,0,-1,1749,785,0,0
532,239,0,0,0,0,0,0,0,0,0,-1,1756,785,0,0
539,239,0,0,0,0,0,0,0,0,0,-1,1763,785,0,0
546,239,0,0,0,0,0,0,0,0,0,-1,1770,785,0,0
553,239,0,0,0,0,0,0,0,0,0,-1,1777,785,0,0
560,239,0,0,0,0,0,0,0,0,0,-1,1784,785,0,0
567,239,0,0,0,0,0,0,0,0,0,-1,1791,785,0,0
574,239,0,0,0,0,0,0,0,0,0,-1,1798,785,0,0
581,239,228.718,8.97174,0,0,0,0,0,0,0,-1,1805,785,228.718,-8.97172
588,239,228.755,8.96295,0,0,0,0,0,0,0,-1,1812,785,228.755,-8.96298
595,239,228.776,8.90875,0,0,0,0,0,0,0,-1,1819,785,228.776,-8.90878
602,239,228.769,8.78156,0,0,0,0,0,0,0,-1,1826,785,228.769,-8.78156
609,239,100.036,2.43237,0,0,0,0,0,0,0,-1,1833,785,100.036,-2.43237
616,239,55.8469,3.72443,0,0,0,0,0,0,0,-1,1840,785,55.8469,-3.72445
623,239,65.0618,2.66516,0,0,0,0,0,0,0,-1,1847,785,65.0617,-2.66519
630,239,54.5767,3.64667,0,0,0,0,0,0,0,-1,1854,785,54.5766,-3.64667
637,239,39.5542,2.54114,0,0,0,0,0,0,0,-1,1861,785,39.5543,-2.54114
644,239,18.3466,0.735413,0,0,0,0,0,0,0,-1,1868,785,18.3465,-0.735414
651,239,34.2471,-2.15778,0,0,0,0,0,0,0,-1,1875,785,34.2471,2.1578
658,239,77.917,-5.03833,0,0,0,0,0,0,0,-1,1882,785,77.917,5.03835
665,239,79.9928,-3.56384,0,0,0,0,0,0,0,-1,1889,785,79.9928,3.56385
672,239,184.897,12.4264,0,0,0,0,0,0,0,-1,1896,785,184.897,-12.4264
679,239,185.114,14.915,0,0,0,0,0,0,0,-1,1903,785,185.113,-14.915
686,239,184.935,17.3039,0,0,0,0,0,0,0,-1,1910,785,184.935,-17.3039
693,239,184.542,19.6462,-0.00524168,0.0298664,-0.0170464,0.0367812,-0.0121565,-1.18543,0.0294223,0.0338139,1917,785,184.542,-19.6462
700,239,184.017,21.8488,-0.00459804,0.0348951,-0.0210795,0.0440323,-0.0137353,-1.16178,0.0348476,0.0217861,1924,785,184.017,-21.8488
707,239,183.499,23.9406,-0.00375851,0.0402194,-0.0249427,0.0514818,-0.0150209,-1.14667,0.040273,0.0172872,1931,785,183.499,-23.9406
714,239,183.111,26.0807,-0.00277258,0.0459152,-0.0286785,0.0591889,-0.0160463,-1.13731,0.0457557,0.0220462,1938,785,183.111,-26.0807
721,239,182.651,28.0846,0,0,0,0,0,0,0,-1,1945,785,182.651,-28.0846
728,239,137.158,26.5078,0,0,0,0,0,0,0,-1,1952,785,137.158,-26.5077
735,239,77.1766,10.8863,0,0,0,0,0,0,0,-1,1959,785,77.1767,-10.8863
742,239,32.4141,7.6665,0,0,0,0,0,0,0,-1,1966,785,32.4141,-7.6665
749,239,32.1489,3.4411,0,0,0,0,0,0,0,-1,1973,785,32.149,-3.44109
756,239,32.9064,3.6687,0,0,0,0,0,0,0,-1,1980,785,32.9063,-3.66873
763,239,0,0,0,0,0,0,0,0,0,-1,1987,785,0,0
770,239,0,0,0,0,0,0,0,0,0,-1,1994,785,0,0
777,239,0,0,0,0,0,0,0,0,0,-1,2001,785,0,0
784,239,0,0,0,0,0,0,0,0,0,-1,2008,785,0,0
791,239,0,0,0,0,0,0,0,0,0,-1,2015,785,0,0
798,239,0,0,0,0,0,0,0,0,0,-1,2022,785,0,0
805,239,0,0,0,0,0,0,0,0,0,-1,2029,785,0,0
812,239,0,0,0,0,0,0,0,0,0,-1,2036,785,0,0
-700,232,0,0,0,0,0,0,0,0,0,-1,524,792,0,0
-693,232,0,0,0,0,0,0,0,0,0,-1,531,792,0,0
-686,232,0,0,0,0,0,0,0,0,0,-1,538,792,0,0
-679,232,0,0,0,0,0,0,0,0,0,-1,545,792,0,0
-672,232,0,0,0,0,0,0,0,0,0,-1,552,792,0,0
-665,232,0,0,0,0,0,0,0,0,0,-1,559,792,0,0
-658,232,0,0,0,0,0,0,0,0,0,-1,566,792,0,0
-651,232,0,0,0,0,0,0,0,0,0,-1,573,792,0,0
-644,232,-41.2348,4.28168,0,0,0,0,0,0,0,-1,580,792,-41.2348,-4.28166
-637,232,-42.1427,3.51453,0,0,0,0,0,0,0,-1,587,792,-42.1427,-3.51452
-630,232,-32.2345,1.80212,0,0,0,0,0,0,0,-1,594,792,-32.2345,-1.80211
-623,232,-31.5665,1.05115,0,0,0,0,0,0,0,-1,601,792,-31.5664,-1.05112
-616,232,-30.6812,0.432861,0,0,0,0,0,0,0,-1,608,792,-30.6812,-0.432881
-609,232,-100.422,23.6974,0,0,0,0,0,0,0,-1,615,792,-100.422,-23.6974
-602,232,-80.7242,16.2311,0,0,0,0,0,0,0,-1,622,792,-80.7242,-16.2311
-595,232,-176.763,30.8168,0,0,0,0,0,0,0,-1,629,792,-176.763,-30.8168
-588,232,-176.907,28.5287,-0.00880993,0.0543553,0.0241108,0.0625067,-0.0169613,1.24478,0.0483275,0.0318366,636,792,-176.907,-28.5288
-581,232,-177.221,26.2635,-0.00603628,0.0472485,0.022436,0.055437,-0.0142248,1.22085,0.0425006,0.0146908,643,792,-177.221,-26.2635
-574,232,-177.543,24.1812,-0.00488201,0.0413171,0.0198739,0.0486899,-0.0122547,1.21556,0.0372234,0.0133518,650,792,-177.543,-24.1811
-567,232,-177.952,21.9736,-0.0042244,0.0360163,0.0169637,0.0422132,-0.0104213,1.22056,0.0321833,0.0158969,657,792,-177.952,-21.9736
-560,232,-178.379,19.7664,-0.0041971,0.0313684,0.0136903,0.0360278,-0.00885651,1.24275,0.0274511,0.0191582,664,792,-178.379,-19.7664
-553,232,-178.879,17.5021,-0.00474786,0.0273178,0.0100633,0.0302144,-0.00764441,1.29054,0.0231163,0.028612,671,792,-178.879,-17.5021
-546,232,-179.357,15.0555,0,0,0,0,0,0,0,-1,678,792,-179.357,-15.0555
-539,232,-179.682,12.5475,0,0,0,0,0,0,0,-1,685,792,-179.682,-12.5476
-532,232,-180.257,9.7052,0,0,0,0,0,0,0,-1,692,792,-180.257,-9.70518
-525,232,-72.6752,-4.75323,0,0,0,0,0,0,0,-1,699,792,-72.6752,4.75324
-518,232,-20.8098,-3.08154,0,0,0,0,0,0,0,-1,706,792,-20.8098,3.08155
-511,232,-21.6708,-0.962708,0,0,0,0,0,0,0,-1,713,792,-21.6708,0.962731
-504,232,-34.2155,0.346985,0,0,0,0,0,0,0,-1,720,792,-34.2155,-0.346955
-497,232,-52.7195,0.518677,0,0,0,0,0,0,0,-1,727,792,-52.7195,-0.518678
-490,232,-71.4019,0.270386,0,0,0,0,0,0,0,-1,734,792,-71.4019,-0.270382
-483,232,-71.4127,0.497375,0,0,0,0,0,0,0,-1,741,792,-71.4127,-0.497367
-476,232,-71.2791,0.580017,0,0,0,0,0,0,0,-1,748,792,-71.2791,-0.580024
-469,232,-71.2144,0.716919,0,0,0,0,0,0,0,-1,755,792,-71.2143,-0.716921
-462,232,0,0,0,0,0,0,0,0,0,-1,762,792,0,0
-455,232,0,0,0,0,0,0,0,0,0,-1,769,792,0,0
-448,232,0,0,0,0,0,0,0,0,0,-1,776,792,0,0
-441,232,0,0,0,0,0,0,0,0,0,-1,783,792,0,0
-434,232,0,0,0,0,0,0,0,0,0,-1,790,792,0,0
-427,232,0,0,0,0,0,0,0,0,0,-1,797,792,0,0
-420,232,0,0,0,0,0,0,0,0,0,-1,804,792,0,0
-413,232,0,0,0,0,0,0,0,0,0,-1,811,792,0,0
-406,232,0,0,0,0,0,0,0,0,0,-1,818,792,0,0
-399,232,0,0,0,0,0,0,0,0,0,-1,825,792,0,0
-392,232,0,0,0,0,0,0,0,0,0,-1,832,792,0,0
-385,232,0,0,0,0,0,0,0,0,0,-1,839,792,0,0
-378,232,0,0,0,0,0,0,0,0,0,-1,846,792,0,0
-371,232,0,0,0,0,0,0,0,0,0,-1,853,792,0,0
-364,232,0,0,0,0,0,0,0,0,0,-1,860,792,0,0
-357,232,0,0,0,0,0,0,0,0,0,-1,867,792,0,0
-350,232,0,0,0,0,0,0,0,0,0,-1,874,792,0,0
-343,232,0,0,0,0,0,0,0,0,0,-1,881,792,0,0
-336,232,0,0,0,0,0,0,0,0,0,-1,888,792,0,0
-329,232,0,0,0,0,0,0,0,0,0,-1,895,792,0,0
-322,232,0,0,0,0,0,0,0,0,0,-1,902,792,0,0
-315,232,0,0,0,0,0,0,0,0,0,-1,909,792,0,0
-308,232,0,0,0,0,0,0,0,0,0,-1,916,792,0,0
-301,232,0,0,0,0,0,0,0,0,0,-1,923,792,0,0
-294,232,0,0,0,0,0,0,0,0,0,-1,930,792,0,0
-287,232,0,0,0,0,0,0,0,0,0,-1,937,792,0,0
-280,232,0,0,0,0,0,0,0,0,0,-1,944,792,0,0
-273,232,0,0,0,0,0,0,0,0,0,-1,951,792,0,0
-266,232,0,0,0,0,0,0,0,0,0,-1,958,792,0,0
-259,232,0,0,0,0,0,0,0,0,0,-1,965,792,0,0
-252,232,0,0,0,0,0,0,0,0,0,-1,972,792,0,0
-245,232,0,0,0,0,0,0,0,0,0,-1,979,792,0,0
-238,232,0,0,0,0,0,0,0,0,0,-1,986,792,0,0
-231,232,0,0,0,0,0,0,0,0,0,-1,993,792,0,0
-224,232,0,0,0,0,0,0,0,0,0,-1,1000,792,0,0
-217,232,0,0,0,0,0,0,0,0,0,-1,1007,792,0,0
-210,232,0,0,0,0,0,0,0,0,0,-1,1014,792,0,0
-203,232,0,0,0,0,0,0,0,0,0,-1,1021,792,0,0
-196,232,0,0,0,0,0,0,0,0,0,-1,1028,792,0,0
-189,232,0,0,0,0,0,0,0,0,0,-1,1035,792,0,0
-182,232,0,0,0,0,0,0,0,0,0,-1,1042,792,0,0
-175,232,0,0,0,0,0,0,0,0,0,-1,1049,792,0,0
-168,232,0,0,0,0,0,0,0,0,0,-1,1056,792,0,0
-161,232,0,0,0,0,0,0,0,0,0,-1,1063,792,0,0
-154,232,0,0,0,0,0,0,0,0,0,-1,1070,792,0,0
-147,232,0,0,0,0,0,0,0,0,0,-1,1077,792,0,0
-140,232,0,0,0,0,0,0,0,0,0,-1,1084,792,0,0
-133,232,0,0,0,0,0,0,0,0,0,-1,1091,792,0,0
-126,232,0,0,0,0,0,0,0,0,0,-1,1098,792,0,0
-119,232,0,0,0,0,0,0,0,0,0,-1,1105,792,0,0
-112,232,0,0,0,0,0,0,0,0,0,-1,1112,792,0,0
-105,232,0,0,0,0,0,0,0,0,0,-1,1119,792,0,0
-98,232,0,0,0,0,0,0,0,0,0,-1,1126,792,0,0
-91,232,0,0,0,0,0,0,0,0,0,-1,1133,792,0,0
-84,232,0,0,0,0,0,0,0,0,0,-1,1140,792,0,0
-77,232,0,0,0,0,0,0,0,0,0,-1,1147,792,0,0
-70,232,0,0,0,0,0,0,0,0,0,-1,1154,792,0,0
-63,232,0,0,0,0,0,0,0,0,0,-1,1161,792,0,0
-56,232,0,0,0,0,0,0,0,0,0,-1,1168,792,0,0
-49,232,0,0,0,0,0,0,0,0,0,-1,1175,792,0,0
-42,232,0,0,0,0,0,0,0,0,0,-1,1182,792,0,0
-35,232,0,0,0,0,0,0,0,0,0,-1,1189,792,0,0
-28,232,0,0,0,0,0,0,0,0,0,-1,1196,792,0,0
-21,232,0,0,0,0,0,0,0,0,0,-1,1203,792,0,0
-14,232,0,0,0,0,0,0,0,0,0,-1,1210,792,0,0
-7,232,0,0,0,0,0,0,0,0,0,-1,1217,792,0,0
0,232,0,0,0,0,0,0,0,0,0,-1,1224,792,0,0
7,232,0,0,0,0,0,0,0,0,0,-1,1231,792,0,0
14,232,0,0,0,0,0,0,0,0,0,-1,1238,792,0,0
21,232,0,0,0,0,0,0,0,0,0,-1,1245,792,0,0
28,232,0,0,0,0,0,0,0,0,0,-1,1252,792,0,0
35,232,0,0,0,0,0,0,0,0,0,-1,1259,792,0,0
42,232,0,0,0,0,0,0,0,0,0,-1,1266,792,0,0
49,232,0,0,0,0,0,0,0,0,0,-1,1273,792,0,0
56,232,0,0,0,0,0,0,0,0,0,-1,1280,792,0,0
63,232,0,0,0,0,0,0,0,0,0,-1,1287,792,0,0
70,232,0,0,0,0,0,0,0,0,0,-1,1294,792,0,0
77,232,0,0,0,0,0,0,0,0,0,-1,1301,792,0,0
84,232,0,0,0,0,0,0,0,0,0,-1,1308,792,0,0
91,232,0,0,0,0,0,0,0,0,0,-1,1315,792,0,0
98,232,0,0,0,0,0,0,0,0,0,-1,1322,792,0,0
105,232,0,0,0,0,0,0,0,0,0,-1,1329,792,0,0
112,232,0,0,0,0,0,0,0,0,0,-1,1336,792,0,0
119,232,0,0,0,0,0,0,0,0,0,-1,1343,792,0,0
126,232,0,0,0,0,0,0,0,0,0,-1,1350,792,0,0
133,232,0,0,0,0,0,0,0,0,0,-1,1357,792,0,0
140,232,0,0,0,0,0,0,0,0,0,-1,1364,792,0,0
147,232,0,0,0,0,0,0,0,0,0,-1,1371,792,0,0
154,232,0,0,0,0,0,0,0,0,0,-1,1378,792,0,0
161,232,0,0,0,0,0,0,0,0,0,-1,1385,792,0,0
168,232,0,0,0,0,0,0,0,0,0,-1,1392,792,0,0
175,232,0,0,0,0,0,0,0,0,0,-1,1399,792,0,0
182,232,0,0,0,0,0,0,0,0,0,-1,1406,792,0,0
189,232,0,0,0,0,0,0,0,0,0,-1,1413,792,0,0
196,232,0,0,0,0,0,0,0,0,0,-1,1420,792,0,0
203,232,0,0,0,0,0,0,0,0,0,-1,1427,792,0,0
210,232,0,0,0,0,0,0,0,0,0,-1,1434,792,0,0
217,232,0,0,0,0,0,0,0,0,0,-1,1441,792,0,0
224,232,0,0,0,0,0,0,0,0,0,-1,1448,792,0,0
231,232,0,0,0,0,0,0,0,0,0,-1,1455,792,0,0
238,232,0,0,0,0,0,0,0,0,0,-1,1462,792,0,0
245,232,0,0,0,0,0,0,0,0,0,-1,1469,792,0,0
252,232,0,0,0,0,0,0,0,0,0,-1,1476,792,0,0
259,232,0,0,0,0,0,0,0,0,0,-1,1483,792,0,0
266,232,0,0,0,0,0,0,0,0,0,-1,1490,792,0,0
273,232,0,0,0,0,0,0,0,0,0,-1,1497,792,0,0
280,232,0,0,0,0,0,0,0,0,0,-1,1504,792,0,0
287,232,0,0,0,0,0,0,0,0,0,-1,1511,792,0,0
294,232,0,0,0,0,0,0,0,0,0,-1,1518,792,0,0
301,232,0,0,0,0,0,0,0,0,0,-1,1525,792,0,0
308,232,0,0,0,0,0,0,0,0,0,-1,1532,792,0,0
315,232,0,0,0,0,0,0,0,0,0,-1,1539,792,0,0
322,232,0,0,0,0,0,0,0,0,0,-1,1546,792,0,0
329,232,0,0,0,0,0,0,0,0,0,-1,1553,792,0,0
336,232,0,0,0,0,0,0,0,0,0,-1,1560,792,0,0
343,232,0,0,0,0,0,0,0,0,0,-1,1567,792,0,0
350,232,0,0,0,0,0,0,0,0,0,-1,1574,792,0,0
357,232,0,0,0,0,0,0,0,0,0,-1,1581,792,0,0
364,232,0,0,0,0,0,0,0,0,0,-1,1588,792,0,0
371,232,0,0,0,0,0,0,0,0,0,-1,1595,792,0,0
378,232,0,0,0,0,0,0,0,0,0,-1,1602,792,0,0
385,232,0,0,0,0,0,0,0,0,0,-1,1609,792,0,0
392,232,0,0,0,0,0,0,0,0,0,-1,1616,792,0,0
399,232,0,0,0,0,0,0,0,0,0,-1,1623,792,0,0
406,232,0,0,0,0,0,0,0,0,0,-1,1630,792,0,0
413,232,0,0,0,0,0,0,0,0,0,-1,1637,792,0,0
420,232,0,0,0,0,0,0,0,0,0,-1,1644,792,0,0
427,232,0,0,0,0,0,0,0,0,0,-1,1651,792,0,0
434,232,0,0,0,0,0,0,0,0,0,-1,1658,792,0,0
441,232,0,0,0,0,0,0,0,0,0,-1,1665,792,0,0
448,232,0,0,0,0,0,0,0,0,0,-1,1672,792,0,0
455,232,0,0,0,0,0,0,0,0,0,-1,1679,792,0,0
462,232,0,0,0,0,0,0,0,0,0,-1,1686,792,0,0
469,232,0,0,0,0,0,0,0,0,0,-1,1693,792,0,0
476,232,0,0,0,0,0,0,0,0,0,-1,1700,792,0,0
483,232,0,0,0,0,0,0,0,0,0,-1,1707,792,0,0
490,232,0,0,0,0,0,0,0,0,0,-1,1714,792,0,0
497,232,0,0,0,0,0,0,0,0,0,-1,1721,792,0,0
504,232,0,0,0,0,0,0,0,0,0,-1,1728,792,0,0
511,232,0,0,0,0,0,0,0,0,0,-1,1735,792,0,0
518,232,0,0,0,0,0,0,0,0,0,-1,1742,792,0,0
525,232,0,0,0,0,0,0,0,0,0,-1,1749,792,0,0
532,232,0,0,0,0,0,0,0,0,0,-1,1756,792,0,0
539,232,0,0,0,0,0,0,0,0,0,-1,1763,792,0,0
546,232,0,0,0,0,0,0,0,0,0,-1,1770,792,0,0
553,232,0,0,0,0,0,0,0,0,0,-1,1777,792,0,0
560,232,0,0,0,0,0,0,0,0,0,-1,1784,792,0,0
567,232,0,0,0,0,0,0,0,0,0,-1,1791,792,0,0
574,232,0,0,0,0,0,0,0,0,0,-1,1798,792,0,0
581,232,0,0,0,0,0,0,0,0,0,-1,1805,792,0,0
588,232,228.76,8.87097,0,0,0,0,0,0,0,-1,1812,792,228.76,-8.871
595,232,228.759,8.93939,0,0,0,0,0,0,0,-1,1819,792,228.759,-8.93942
602,232,228.716,8.88763,0,0,0,0,0,0,0,-1,1826,792,228.716,-8.88761
609,232,228.729,8.79504,0,0,0,0,0,0,0,-1,1833,792,228.729,-8.79503
616,232,95.6742,2.46368,0,0,0,0,0,0,0,-1,1840,792,95.6742,-2.46369
623,232,74.9668,2.53278,0,0,0,0,0,0,0,-1,1847,792,74.9667,-2.5328
630,232,64.9034,2.97992,0,0,0,0,0,0,0,-1,1854,792,64.9035,-2.9799
637,232,47.0471,4.04309,0,0,0,0,0,0,0,-1,1861,792,47.0471,-4.04309
644,232,30.7756,4.24139,0,0,0,0,0,0,0,-1,1868,792,30.7757,-4.24141
651,232,31.6797,-0.564087,0,0,0,0,0,0,0,-1,1875,792,31.6797,0.564059
658,232,79.729,-4.87579,0,0,0,0,0,0,0,-1,1882,792,79.729,4.87581
665,232,79.3129,-3.47662,0,0,0,0,0,0,0,-1,1889,792,79.3128,3.47662
672,232,187.595,13.3207,0,0,0,0,0,0,0,-1,1896,792,187.595,-13.3207
679,232,187.484,15.591,0,0,0,0,0,0,0,-1,1903,792,187.484,-15.591
686,232,187.404,17.8176,-0.00529059,0.022846,-0.0104692,0.0263139,-0.00875858,-1.25092,0.0210777,0.0460124,1910,792,187.404,-17.8176
693,232,186.958,19.9674,-0.00538502,0.0275196,-0.0148403,0.0332239,-0.0110893,-1.20383,0.0266269,0.0234197,1917,792,186.958,-19.9674
700,232,186.524,22.1116,-0.00533389,0.0325203,-0.0190457,0.0404441,-0.0132577,-1.17654,0.032302,0.0212059,1924,792,186.524,-22.1116
707,232,186.128,24.2156,-0.00519846,0.0378474,-0.0230746,0.0478788,-0.0152299,-1.16071,0.0380264,0.0216755,1931,792,186.128,-24.2156
714,232,185.638,26.314,-0.00505686,0.0435262,-0.0269557,0.0555208,-0.0170515,-1.15213,0.043818,0.0315404,1938,792,185.638,-26.314
721,232,185.008,28.399,0,0,0,0,0,0,0,-1,1945,792,185.008,-28.399
728,232,180.091,29.92,0,0,0,0,0,0,0,-1,1952,792,180.091,-29.92
735,232,75.9558,10.0535,0,0,0,0,0,0,0,-1,1959,792,75.9558,-10.0535
742,232,25.6461,6.00684,0,0,0,0,0,0,0,-1,1966,792,25.6461,-6.00684
749,232,31.2874,3.74713,0,0,0,0,0,0,0,-1,1973,792,31.2874,-3.74713
756,232,34.9586,15.3984,0,0,0,0,0,0,0,-1,1980,792,34.9586,-15.3984
763,232,35.741,16.6099,0,0,0,0,0,0,0,-1,1987,792,35.741,-16.6099
770,232,0,0,0,0,0,0,0,0,0,-1,1994,792,0,0
777,232,0,0,0,0,0,0,0,0,0,-1,2001,792,0,0
784,232,0,0,0,0,0,0,0,0,0,-1,2008,792,0,0
791,232,0,0,0,0,0,0,0,0,0,-1,2015,792,0,0
798,232,0,0,0,0,0,0,0,0,0,-1,2022,792,0,0
805,232,0,0,0,0,0,0,0,0,0,-1,2029,792,0,0
812,232,0,0,0,0,0,0,0,0,0,-1,2036,792,0,0
-700,225,0,0,0,0,0,0,0,0,0,-1,524,799,0,0
-693,225,0,0,0,0,0,0,0,0,0,-1,531,799,0,0
-686,225,0,0,0,0,0,0,0,0,0,-1,538,799,0,0
-679,225,0,0,0,0,0,0,0,0,0,-1,545,799,0,0
-672,225,0,0,0,0,0,0,0,0,0,-1,552,799,0,0
-665,225,0,0,0,0,0,0,0,0,0,-1,559,799,0,0
-658,225,0,0,0,0,0,0,0,0,0,-1,566,799,0,0
-651,225,0,0,0,0,0,0,0,0,0,-1,573,799,0,0
-644,225,-40.8898,4.14661,0,0,0,0,0,0,0,-1,580,799,-40.8898,-4.14661
-637,225,-41.61,3.36749,0,0,0,0,0,0,0,-1,587,799,-41.61,-3.36751
-630,225,-30.244,4.82196,0,0,0,0,0,0,0,-1,594,799,-30.244,-4.82193
-623,225,-32.8276,-0.00836182,0,0,0,0,0,0,0,-1,601,799,-32.8276,0.00837668
-616,225,-101.933,24.8918,0,0,0,0,0,0,0,-1,608,799,-101.933,-24.8918
-609,225,-126.364,27.8994,0,0,0,0,0,0,0,-1,615,799,-126.364,-27.8994
-602,225,-130.831,27.6741,0,0,0,0,0,0,0,-1,622,799,-130.831,-27.6741
-595,225,-179.182,30.8145,0,0,0,0,0,0,0,-1,629,799,-179.182,-30.8145
-588,225,-179.396,28.5438,-0.00993294,0.0518355,0.022403,0.0591053,-0.0172027,1.25702,0.0462176,0.0257371,636,799,-179.396,-28.5438
-581,225,-179.71,26.458,-0.00701151,0.0449171,0.0206007,0.0520969,-0.0141913,1.23544,0.0403033,0.0164533,643,799,-179.71,-26.458
-574,225,-180.088,24.4305,-0.00535132,0.0389418,0.0181782,0.0454469,-0.0118564,1.22714,0.0349274,0.0132998,650,799,-180.088,-24.4305
-567,225,-180.518,22.2342,-0.00421833,0.0335776,0.0154553,0.0390927,-0.00973346,1.22804,0.0298402,0.0170867,657,799,-180.518,-22.2342
-560,225,-180.839,20.0527,-0.0036644,0.0288474,0.0123747,0.0330216,-0.00783857,1.24547,0.0250396,0.0169876,664,799,-180.839,-20.0527
-553,225,-181.224,17.8451,-0.00374893,0.0247713,0.00894116,0.0273426,-0.00632019,1.29078,0.0206599,0.021863,671,799,-181.224,-17.8451
-546,225,-181.546,15.7305,0,0,0,0,0,0,0,-1,678,799,-181.546,-15.7305
-539,225,-182.34,12.8696,0,0,0,0,0,0,0,-1,685,799,-182.34,-12.8696
-532,225,-73.9179,-3.04211,0,0,0,0,0,0,0,-1,692,799,-73.9179,3.04213
-525,225,-29.1705,-3.88239,0,0,0,0,0,0,0,-1,699,799,-29.1705,3.88237
-518,225,-21.963,0.171326,0,0,0,0,0,0,0,-1,706,799,-21.9629,-0.171319
-511,225,-33.0002,0.660217,0,0,0,0,0,0,0,-1,713,799,-33.0002,-0.660239
-504,225,-50.4542,0.524109,0,0,0,0,0,0,0,-1,720,799,-50.4542,-0.524105
-497,225,-71.3785,0.302002,0,0,0,0,0,0,0,-1,727,799,-71.3785,-0.302022
-490,225,-71.3395,0.410217,0,0,0,0,0,0,0,-1,734,799,-71.3395,-0.410223
-483,225,-71.3074,0.58075,0,0,0,0,0,0,0,-1,741,799,-71.3074,-0.580749
-476,225,-71.2732,0.59375,0,0,0,0,0,0,0,-1,748,799,-71.2732,-0.593749
-469,225,-71.2862,0.688171,0,0,0,0,0,0,0,-1,755,799,-71.2862,-0.688153
-462,225,0,0,0,0,0,0,0,0,0,-1,762,799,0,0
-455,225,0,0,0,0,0,0,0,0,0,-1,769,799,0,0
-448,225,0,0,0,0,0,0,0,0,0,-1,776,799,0,0
-441,225,0,0,0,0,0,0,0,0,0,-1,783,799,0,0
-434,225,0,0,0,0,0,0,0,0,0,-1,790,799,0,0
-427,225,0,0,0,0,0,0,0,0,0,-1,797,799,0,0
-420,225,0,0,0,0,0,0,0,0,0,-1,804,799,0,0
-413,225,0,0,0,0,0,0,0,0,0,-1,811,799,0,0
-406,225,0,0,0,0,0,0,0,0,0,-1,818,799,0,0
-399,225,0,0,0,0,0,0,0,0,0,-1,825,799,0,0
-392,225,0,0,0,0,0,0,0,0,0,-1,832,799,0,0
-385,225,0,0,0,0,0,0,0,0,0,-1,839,799,0,0
-378,225,0,0,0,0,0,0,0,0,0,-1,846,799,0,0
-371,225,0,0,0,0,0,0,0,0,0,-1,853,799,0,0
-364,225,0,0,0,0,0,0,0,0,0,-1,860,799,0,0
-357,225,0,0,0,0,0,0,0,0,0,-1,867,799,0,0
-350,225,0,0,0,0,0,0,0,0,0,-1,874,799,0,0
-343,225,0,0,0,0,0,0,0,0,0,-1,881,799,0,0
-336,225,0,0,0,0,0,0,0,0,0,-1,888,799,0,0
-329,225,0,0,0,0,0,0,0,0,0,-1,895,799,0,0
-322,225,0,0,0,0,0,0,0,0,0,-1,902,799,0,0
-315,225,0,0,0,0,0,0,0,0,0,-1,909,799,0,0
-308,225,0,0,0,0,0,0,0,0,0,-1,916,799,0,0
-301,225,0,0,0,0,0,0,0,0,0,-1,923,799,0,0
-294,225,0,0,0,0,0,0,0,0,0,-1,930,799,0,0
-287,225,0,0,0,0,0,0,0,0,0,-1,937,799,0,0
-280,225,0,0,0,0,0,0,0,0,0,-1,944,799,0,0
-273,225,0,0,0,0,0,0,0,0,0,-1,951,799,0,0
-266,225,0,0,0,0,0,0,0,0,0,-1,958,799,0,0
-259,225,0,0,0,0,0,0,0,0,0,-1,965,799,0,0
-252,225,0,0,0,0,0,0,0,0,0,-1,972,799,0,0
-245,225,0,0,0,0,0,0,0,0,0,-1,979,799,0,0
-238,225,0,0,0,0,0,0,0,0,0,-1,986,799,0,0
-231,225,0,0,0,0,0,0,0,0,0,-1,993,799,0,0
-224,225,0,0,0,0,0,0,0,0,0,-1,1000,799,0,0
-217,225,0,0,0,0,0,0,0,0,0,-1,1007,799,0,0
-210,225,0,0,0,0,0,0,0,0,0,-1,1014,799,0,0
-203,225,0,0,0,0,0,0,0,0,0,-1,1021,799,0,0
-196,225,0,0,0,0,0,0,0,0,0,-1,1028,799,0,0
-189,225,0,0,0,0,0,0,0,0,0,-1,1035,799,0,0
-182,225,0,0,0,0,0,0,0,0,0,-1,1042,799,0,0
-175,225,0,0,0,0,0,0,0,0,0,-1,1049,799,0,0
-168,225,0,0,0,0,0,0,0,0,0,-1,1056,799,0,0
-161,225,0,0,0,0,0,0,0,0,0,-1,1063,799,0,0
-154,225,0,0,0,0,0,0,0,0,0,-1,1070,799,0,0
-147,225,0,0,0,0,0,0,0,0,0,-1,1077,799,0,0
-140,225,0,0,0,0,0,0,0,0,0,-1,1084,799,0,0
-133,225,0,0,0,0,0,0,0,0,0,-1,1091,799,0,0
-126,225,0,0,0,0,0,0,0,0,0,-1,1098,799,0,0
-119,225,0,0,0,0,0,0,0,0,0,-1,1105,799,0,0
-112,225,0,0,0,0,0,0,0,0,0,-1,1112,799,0,0
-105,225,0,0,0,0,0,0,0,0,0,-1,1119,799,0,0
-98,225,0,0,0,0,0,0,0,0,0,-1,1126,799,0,0
-91,225,0,0,0,0,0,0,0,0,0,-1,1133,799,0,0
-84,225,0,0,0,0,0,0,0,0,0,-1,1140,799,0,0
-77,225,0,0,0,0,0,0,0,0,0,-1,1147,799,0,0
-70,225,0,0,0,0,0,0,0,0,0,-1,1154,799,0,0
-63,225,0,0,0,0,0,0,0,0,0,-1,1161,799,0,0
-56,225,0,0,0,0,0,0,0,0,0,-1,1168,799,0,0
-49,225,0,0,0,0,0,0,0,0,0,-1,1175,799,0,0
-42,225,0,0,0,0,0,0,0,0,0,-1,1182,799,0,0
-35,225,0,0,0,0,0,0,0,0,0,-1,1189,799,0,0
-28,225,0,0,0,0,0,0,0,0,0,-1,1196,799,0,0
-21,225,0,0,0,0,0,0,0,0,0,-1,1203,799,0,0
-14,225,0,0,0,0,0,0,0,0,0,-1,1210,799,0,0
-7,225,0,0,0,0,0,0,0,0,0,-1,1217,799,0,0
0,225,0,0,0,0,0,0,0,0,0,-1,1224,799,0,0
7,225,0,0,0,0,0,0,0,0,0,-1,1231,799,0,0
14,225,0,0,0,0,0,0,0,0,0,-1,1238,799,0,0
21,225,0,0,0,0,0,0,0,0,0,-1,1245,799,0,0
28,225,0,0,0,0,0,0,0,0,0,-1,1252,799,0,0
35,225,0,0,0,0,0,0,0,0,0,-1,1259,799,0,0
42,225,0,0,0,0,0,0,0,0,0,-1,1266,799,0,0
49,225,0,0,0,0,0,0,0,0,0,-1,1273,799,0,0
56,225,0,0,0,0,0,0,0,0,0,-1,1280,799,0,0
63,225,0,0,0,0,0,0,0,0,0,-1,1287,799,0,0
70,225,0,0,0,0,0,0,0,0,0,-1,1294,799,0,0
77,225,0,0,0,0,0,0,0,0,0,-1,1301,799,0,0
84,225,0,0,0,0,0,0,0,0,0,-1,1308,799,0,0
91,225,0,0,0,0,0,0,0,0,0,-1,1315,799,0,0
98,225,0,0,0,0,0,0,0,0,0,-1,1322,799,0,0
105,225,0,0,0,0,0,0,0,0,0,-1,1329,799,0,0
112,225,0,0,0,0,0,0,0,0,0,-1,1336,799,0,0
119,225,0,0,0,0,0,0,0,0,0,-1,1343,799,0,0
126,225,0,0,0,0,0,0,0,0,0,-1,1350,799,0,0
133,225,0,0,0,0,0,0,0,0,0,-1,1357,799,0,0
140,225,0,0,0,0,0,0,0,0,0,-1,1364,799,0,0
147,225,0,0,0,0,0,0,0,0,0,-1,1371,799,0,0
154,225,0,0,0,0,0,0,0,0,0,-1,1378,799,0,0
161,225,0,0,0,0,0,0,0,0,0,-1,1385,799,0,0
168,225,0,0,0,0,0,0,0,0,0,-1,1392,799,0,0
175,225,0,0,0,0,0,0,0,0,0,-1,1399,799,0,0
182,225,0,0,0,0,0,0,0,0,0,-1,1406,799,0,0
189,225,0,0,0,0,0,0,0,0,0,-1,1413,799,0,0
196,225,0,0,0,0,0,0,0,0,0,-1,1420,799,0,0
203,225,0,0,0,0,0,0,0,0,0,-1,1427,799,0,0
210,225,0,0,0,0,0,0,0,0,0,-1,1434,799,0,0
217,225,0,0,0,0,0,0,0,0,0,-1,1441,799,0,0
224,225,0,0,0,0,0,0,0,0,0,-1,1448,799,0,0
231,225,0,0,0,0,0,0,0,0,0,-1,1455,799,0,0
238,225,0,0,0,0,0,0,0,0,0,-1,1462,799,0,0
245,225,0,0,0,0,0,0,0,0,0,-1,1469,799,0,0
252,225,0,0,0,0,0,0,0,0,0,-1,1476,799,0,0
259,225,0,0,0,0,0,0,0,0,0,-1,1483,799,0,0
266,225,0,0,0,0,0,0,0,0,0,-1,1490,799,0,0
273,225,0,0,0,0,0,0,0,0,0,-1,1497,799,0,0
280,225,0,0,0,0,0,0,0,0,0,-1,1504,799,0,0
287,225,0,0,0,0,0,0,0,0,0,-1,1511,799,0,0
294,225,0,0,0,0,0,0,0,0,0,-1,1518,799,0,0
301,225,0,0,0,0,0,0,0,0,0,-1,1525,799,0,0
308,225,0,0,0,0,0,0,0,0,0,-1,1532,799,0,0
315,225,0,0,0,0,0,0,0,0,0,-1,1539,799,0,0
322,225,0,0,0,0,0,0,0,0,0,-1,1546,799,0,0
329,225,0,0,0,0,0,0,0,0,0,-1,1553,799,0,0
336,225,0,0,0,0,0,0,0,0,0,-1,1560,799,0,0
343,225,0,0,0,0,0,0,0,0,0,-1,1567,799,0,0
350,225,0,0,0,0,0,0,0,0,0,-1,1574,799,0,0
357,225,0,0,0,0,0,0,0,0,0,-1,1581,799,0,0
364,225,0,0,0,0,0,0,0,0,0,-1,1588,799,0,0
371,225,0,0,0,0,0,0,0,0,0,-1,1595,799,0,0
378,225,0,0,0,0,0,0,0,0,0,-1,1602,799,0,0
385,225,0,0,0,0,0,0,0,0,0,-1,1609,799,0,0
392,225,0,0,0,0,0,0,0,0,0,-1,1616,799,0,0
399,225,0,0,0,0,0,0,0,0,0,-1,1623,799,0,0
406,225,0,0,0,0,0,0,0,0,0,-1,1630,799,0,0
413,225,0,0,0,0,0,0,0,0,0,-1,1637,799,0,0
420,225,0,0,0,0,0,0,0,0,0,-1,1644,799,0,0
427,225,0,0,0,0,0,0,0,0,0,-1,1651,799,0,0
434,225,0,0,0,0,0,0,0,0,0,-1,1658,799,0,0
441,225,0,0,0,0,0,0,0,0,0,-1,1665,799,0,0
448,225,0,0,0,0,0,0,0,0,0,-1,1672,799,0,0
455,225,0,0,0,0,0,0,0,0,0,-1,1679,799,0,0
462,225,0,0,0,0,0,0,0,0,0,-1,1686,799,0,0
469,225,0,0,0,0,0,0,0,0,0,-1,1693,799,0,0
476,225,0,0,0,0,0,0,0,0,0,-1,1700,799,0,0
483,225,0,0,0,0,0,0,0,0,0,-1,1707,799,0,0
490,225,0,0,0,0,0,0,0,0,0,-1,1714,799,0,0
497,225,0,0,0,0,0,0,0,0,0,-1,1721,799,0,0
504,225,0,0,0,0,0,0,0,0,0,-1,1728,799,0,0
511,225,0,0,0,0,0,0,0,0,0,-1,1735,799,0,0
518,225,0,0,0,0,0,0,0,0,0,-1,1742,799,0,0
525,225,0,0,0,0,0,0,0,0,0,-1,1749,799,0,0
532,225,0,0,0,0,0,0,0,0,0,-1,1756,799,0,0
539,225,0,0,0,0,0,0,0,0,0,-1,1763,799,0,0
546,225,0,0,0,0,0,0,0,0,0,-1,1770,799,0,0
553,225,0,0,0,0,0,0,0,0,0,-1,1777,799,0,0
560,225,0,0,0,0,0,0,0,0,0,-1,1784,799,0,0
567,225,0,0,0,0,0,0,0,0,0,-1,1791,799,0,0
574,225,0,0,0,0,0,0,0,0,0,-1,1798,799,0,0
581,225,0,0,0,0,0,0,0,0,0,-1,1805,799,0,0
588,225,228.787,8.89941,0,0,0,0,0,0,0,-1,1812,799,228.787,-8.89942
595,225,228.743,8.81555,0,0,0,0,0,0,0,-1,1819,799,228.743,-8.81557
602,225,228.679,8.8396,0,0,0,0,0,0,0,-1,1826,799,228.679,-8.83962
609,225,228.708,8.89349,0,0,0,0,0,0,0,-1,1833,799,228.708,-8.89347
616,225,228.736,8.73352,0,0,0,0,0,0,0,-1,1840,799,228.736,-8.73351
623,225,98.7035,2.56226,0,0,0,0,0,0,0,-1,1847,799,98.7035,-2.56224
630,225,75.2485,2.28778,0,0,0,0,0,0,0,-1,1854,799,75.2485,-2.28778
637,225,55.6359,2.8064,0,0,0,0,0,0,0,-1,1861,799,55.6359,-2.80637
644,225,42.0298,2.46411,0,0,0,0,0,0,0,-1,1868,799,42.0298,-2.4641
651,225,27.9657,0.579529,0,0,0,0,0,0,0,-1,1875,799,27.9657,-0.579541
658,225,79.1904,-4.22021,0,0,0,0,0,0,0,-1,1882,799,79.1905,4.22019
665,225,80.8872,-3.34991,0,0,0,0,0,0,0,-1,1889,799,80.8872,3.34992
672,225,85.205,-1.42188,0,0,0,0,0,0,0,-1,1896,799,85.205,1.4219
679,225,189.434,15.9784,0,0,0,0,0,0,0,-1,1903,799,189.434,-15.9784
686,225,189.642,17.9721,-0.00503319,0.0202028,-0.00845684,0.0227746,-0.00760506,-1.27557,0.0182541,0.0355704,1910,799,189.642,-17.9721
693,225,189.31,20.1908,-0.00549463,0.0250152,-0.0127876,0.029666,-0.0101454,-1.22198,0.0238883,0.0180984,1917,799,189.31,-20.1908
700,225,188.984,22.3492,-0.00594805,0.0302758,-0.0168935,0.0369314,-0.0126037,-1.19549,0.0297265,0.0195411,1924,799,188.984,-22.3492
707,225,188.706,24.4321,0,0,0,0,0,0,0,-1,1931,799,188.706,-24.4321
714,225,188.155,26.4647,0,0,0,0,0,0,0,-1,1938,799,188.154,-26.4647
721,225,187.78,28.4532,0,0,0,0,0,0,0,-1,1945,799,187.78,-28.4533
728,225,187.743,30.3129,0,0,0,0,0,0,0,-1,1952,799,187.743,-30.3129
735,225,95.1782,15.2966,0,0,0,0,0,0,0,-1,1959,799,95.1782,-15.2966
742,225,77.4065,11.2324,0,0,0,0,0,0,0,-1,1966,799,77.4065,-11.2324
749,225,29.9529,4.45538,0,0,0,0,0,0,0,-1,1973,799,29.9529,-4.45537
756,225,42.6417,11.3672,0,0,0,0,0,0,0,-1,1980,799,42.6417,-11.3672
763,225,42.6943,10.949,0,0,0,0,0,0,0,-1,1987,799,42.6943,-10.9489
770,225,0,0,0,0,0,0,0,0,0,-1,1994,799,0,0
777,225,0,0,0,0,0,0,0,0,0,-1,2001,799,0,0
784,225,0,0,0,0,0,0,0,0,0,-1,2008,799,0,0
791,225,0,0,0,0,0,0,0,0,0,-1,2015,799,0,0
798,225,0,0,0,0,0,0,0,0,0,-1,2022,799,0,0
805,225,0,0,0,0,0,0,0,0,0,-1,2029,799,0,0
812,225,0,0,0,0,0,0,0,0,0,-1,2036,799,0,0
-700,218,0,0,0,0,0,0,0,0,0,-1,524,806,0,0
-693,218,0,0,0,0,0,0,0,0,0,-1,531,806,0,0
-686,218,0,0,0,0,0,0,0,0,0,-1,538,806,0,0
-679,218,0,0,0,0,0,0,0,0,0,-1,545,806,0,0
-672,218,0,0,0,0,0,0,0,0,0,-1,552,806,0,0
-665,218,0,0,0,0,0,0,0,0,0,-1,559,806,0,0
-658,218,0,0,0,0,0,0,0,0,0,-1,566,806,0,0
-651,218,-40.3778,5.1792,0,0,0,0,0,0,0,-1,573,806,-40.3778,-5.1792
-644,218,-40.7704,4.19714,0,0,0,0,0,0,0,-1,580,806,-40.7704,-4.19714
-637,218,-41.541,3.36328,0,0,0,0,0,0,0,-1,587,806,-41.541,-3.36326
-630,218,-42.1423,2.85565,0,0,0,0,0,0,0,-1,594,806,-42.1423,-2.85567
-623,218,-42.7292,2.59015,0,0,0,0,0,0,0,-1,601,806,-42.7292,-2.59015
-616,218,-128.5,29.2946,0,0,0,0,0,0,0,-1,608,806,-128.5,-29.2946
-609,218,-148.764,32.5039,0,0,0,0,0,0,0,-1,615,806,-148.764,-32.5039
-602,218,-181.179,33.046,0,0,0,0,0,0,0,-1,622,806,-181.179,-33.046
-595,218,-181.478,30.8673,-0.0116942,0.0561636,0.0229395,0.0631907,-0.0187212,1.27354,0.0495605,0.0404861,629,806,-181.478,-30.8673
-588,218,-181.772,28.7512,-0.00921898,0.0490745,0.0212118,0.0559759,-0.0161204,1.25624,0.0436935,0.0248696,636,806,-181.772,-28.7512
-581,218,-182.127,26.6901,-0.00679685,0.0424409,0.0192471,0.0490716,-0.0134276,1.23902,0.0379897,0.0170362,643,806,-182.127,-26.6901
-574,218,-182.506,24.6535,-0.00507686,0.036482,0.0168481,0.0424541,-0.0110489,1.23015,0.0326156,0.0145354,650,806,-182.506,-24.6535
-567,218,-182.809,22.3931,-0.00380252,0.0310793,0.0141587,0.0361029,-0.00882613,1.22985,0.0274871,0.0239777,657,806,-182.809,-22.3931
-560,218,-183.219,20.3408,-0.00300654,0.026271,0.0110937,0.0299997,-0.00673521,1.24655,0.0225822,0.0246648,664,806,-183.219,-20.3408
-553,218,-183.559,18.0161,-0.00287619,0.0221187,0.0076491,0.0242737,-0.00503122,1.29618,0.0180942,0.0284934,671,806,-183.559,-18.0161
-546,218,-183.982,15.7474,-0.00427637,0.0189867,0.003796,0.0195904,-0.00488013,1.41307,0.0149548,0.0320714,678,806,-183.982,-15.7474
-539,218,-184.245,13.6462,0,0,0,0,0,0,0,-1,685,806,-184.245,-13.6462
-532,218,-65.3845,-3.26965,0,0,0,0,0,0,0,-1,692,806,-65.3845,3.26966
-525,218,-29.3521,-3.64417,0,0,0,0,0,0,0,-1,699,806,-29.3521,3.64414
-518,218,-23.61,2.54181,0,0,0,0,0,0,0,-1,706,806,-23.61,-2.54183
-511,218,-41.0953,1.06879,0,0,0,0,0,0,0,-1,713,806,-41.0953,-1.06876
-504,218,-59.1388,0.682068,0,0,0,0,0,0,0,-1,720,806,-59.1388,-0.682072
-497,218,-71.1117,0.685852,0,0,0,0,0,0,0,-1,727,806,-71.1117,-0.685864
-490,218,-71.2746,0.549255,0,0,0,0,0,0,0,-1,734,806,-71.2746,-0.54923
-483,218,-71.272,0.618164,0,0,0,0,0,0,0,-1,741,806,-71.272,-0.618135
-476,218,-71.212,0.670837,0,0,0,0,0,0,0,-1,748,806,-71.212,-0.670823
-469,218,0,0,0,0,0,0,0,0,0,-1,755,806,0,0
-462,218,0,0,0,0,0,0,0,0,0,-1,762,806,0,0
-455,218,0,0,0,0,0,0,0,0,0,-1,769,806,0,0
-448,218,0,0,0,0,0,0,0,0,0,-1,776,806,0,0
-441,218,0,0,0,0,0,0,0,0,0,-1,783,806,0,0
-434,218,0,0,0,0,0,0,0,0,0,-1,790,806,0,0
-427,218,0,0,0,0,0,0,0,0,0,-1,797,806,0,0
-420,218,0,0,0,0,0,0,0,0,0,-1,804,806,0,0
-413,218,0,0,0,0,0,0,0,0,0,-1,811,806,0,0
-406,218,0,0,0,0,0,0,0,0,0,-1,818,806,0,0
-399,218,0,0,0,0,0,0,0,0,0,-1,825,806,0,0
-392,218,0,0,0,0,0,0,0,0,0,-1,832,806,0,0
-385,218,0,0,0,0,0,0,0,0,0,-1,839,806,0,0
-378,218,0,0,0,0,0,0,0,0,0,-1,846,806,0,0
-371,218,0,0,0,0,0,0,0,0,0,-1,853,806,0,0
-364,218,0,0,0,0,0,0,0,0,0,-1,860,806,0,0
-357,218,0,0,0,0,0,0,0,0,0,-1,867,806,0,0
-350,218,0,0,0,0,0,0,0,0,0,-1,874,806,0,0
-343,218,0,0,0,0,0,0,0,0,0,-1,881,806,0,0
-336,218,0,0,0,0,0,0,0,0,0,-1,888,806,0,0
-329,218,0,0,0,0,0,0,0,0,0,-1,895,806,0,0
-322,218,0,0,0,0,0,0,0,0,0,-1,902,806,0,0
-315,218,0,0,0,0,0,0,0,0,0,-1,909,806,0,0
-308,218,0,0,0,0,0,0,0,0,0,-1,916,806,0,0
-301,218,0,0,0,0,0,0,0,0,0,-1,923,806,0,0
-294,218,0,0,0,0,0,0,0,0,0,-1,930,806,0,0
-287,218,0,0,0,0,0,0,0,0,0,-1,937,806,0,0
-280,218,0,0,0,0,0,0,0,0,0,-1,944,806,0,0
-273,218,0,0,0,0,0,0,0,0,0,-1,951,806,0,0
-266,218,0,0,0,0,0,0,0,0,0,-1,958,806,0,0
-259,218,0,0,0,0,0,0,0,0,0,-1,965,806,0,0
-252,218,0,0,0,0,0,0,0,0,0,-1,972,806,0,0
-245,218,0,0,0,0,0,0,0,0,0,-1,979,806,0,0
-238,218,0,0,0,0,0,0,0,0,0,-1,986,806,0,0
-231,218,0,0,0,0,0,0,0,0,0,-1,993,806,0,0
-224,218,0,0,0,0,0,0,0,0,0,-1,1000,806,0,0
-217,218,0,0,0,0,0,0,0,0,0,-1,1007,806,0,0
-210,218,0,0,0,0,0,0,0,0,0,-1,1014,806,0,0
-203,218,0,0,0,0,0,0,0,0,0,-1,1021,806,0,0
-196,218,0,0,0,0,0,0,0,0,0,-1,1028,806,0,0
-189,218,0,0,0,0,0,0,0,0,0,-1,1035,806,0,0
-182,218,0,0,0,0,0,0,0,0,0,-1,1042,806,0,0
-175,218,0,0,0,0,0,0,0,0,0,-1,1049,806,0,0
-168,218,0,0,0,0,0,0,0,0,0,-1,1056,806,0,0
-161,218,0,0,0,0,0,0,0,0,0,-1,1063,806,0,0
-154,218,0,0,0,0,0,0,0,0,0,-1,1070,806,0,0
-147,218,0,0,0,0,0,0,0,0,0,-1,1077,806,0,0
-140,218,0,0,0,0,0,0,0,0,0,-1,1084,806,0,0
-133,218,0,0,0,0,0,0,0,0,0,-1,1091,806,0,0
-126,218,0,0,0,0,0,0,0,0,0,-1,1098,806,0,0
-119,218,0,0,0,0,0,0,0,0,0,-1,1105,806,0,0
-112,218,0,0,0,0,0,0,0,0,0,-1,1112,806,0,0
-105,218,0,0,0,0,0,0,0,0,0,-1,1119,806,0,0
-98,218,0,0,0,0,0,0,0,0,0,-1,1126,806,0,0
-91,218,0,0,0,0,0,0,0,0,0,-1,1133,806,0,0
-84,218,0,0,0,0,0,0,0,0,0,-1,1140,806,0,0
-77,218,0,0,0,0,0,0,0,0,0,-1,1147,806,0,0
-70,218,0,0,0,0,0,0,0,0,0,-1,1154,806,0,0
-63,218,0,0,0,0,0,0,0,0,0,-1,1161,806,0,0
-56,218,0,0,0,0,0,0,0,0,0,-1,1168,806,0,0
-49,218,0,0,0,0,0,0,0,0,0,-1,1175,806,0,0
-42,218,0,0,0,0,0,0,0,0,0,-1,1182,806,0,0
-35,218,0,0,0,0,0,0,0,0,0,-1,1189,806,0,0
-28,218,0,0,0,0,0,0,0,0,0,-1,1196,806,0,0
-21,218,0,0,0,0,0,0,0,0,0,-1,1203,806,0,0
-14,218,0,0,0,0,0,0,0,0,0,-1,1210,806,0,0
-7,218,0,0,0,0,0,0,0,0,0,-1,1217,806,0,0
0,218,0,0,0,0,0,0,0,0,0,-1,1224,806,0,0
7,218,0,0,0,0,0,0,0,0,0,-1,1231,806,0,0
14,218,0,0,0,0,0,0,0,0,0,-1,1238,806,0,0
21,218,0,0,0,0,0,0,0,0,0,-1,1245,806,0,0
28,218,0,0,0,0,0,0,0,0,0,-1,1252,806,0,0
35,218,0,0,0,0,0,0,0,0,0,-1,1259,806,0,0
42,218,0,0,0,0,0,0,0,0,0,-1,1266,806,0,0
49,218,0,0,0,0,0,0,0,0,0,-1,1273,806,0,0
56,218,0,0,0,0,0,0,0,0,0,-1,1280,806,0,0
63,218,0,0,0,0,0,0,0,0,0,-1,1287,806,0,0
70,218,0,0,0,0,0,0,0,0,0,-1,1294,806,0,0
77,218,0,0,0,0,0,0,0,0,0,-1,1301,806,0,0
84,218,0,0,0,0,0,0,0,0,0,-1,1308,806,0,0
91,218,0,0,0,0,0,0,0,0,0,-1,1315,806,0,0
98,218,0,0,0,0,0,0,0,0,0,-1,1322,806,0,0
105,218,0,0,0,0,0,0,0,0,0,-1,1329,806,0,0
112,218,0,0,0,0,0,0,0,0,0,-1,1336,806,0,0
119,218,0,0,0,0,0,0,0,0,0,-1,1343,806,0,0
126,218,0,0,0,0,0,0,0,0,0,-1,1350,806,0,0
133,218,0,0,0,0,0,0,0,0,0,-1,1357,806,0,0
140,218,0,0,0,0,0,0,0,0,0,-1,1364,806,0,0
147,218,0,0,0,0,0,0,0,0,0,-1,1371,806,0,0
154,218,0,0,0,0,0,0,0,0,0,-1,1378,806,0,0
161,218,0,0,0,0,0,0,0,0,0,-1,1385,806,0,0
168,218,0,0,0,0,0,0,0,0,0,-1,1392,806,0,0
175,218,0,0,0,0,0,0,0,0,0,-1,1399,806,0,0
182,218,0,0,0,0,0,0,0,0,0,-1,1406,806,0,0
189,218,0,0,0,0,0,0,0,0,0,-1,1413,806,0,0
196,218,0,0,0,0,0,0,0,0,0,-1,1420,806,0,0
203,218,0,0,0,0,0,0,0,0,0,-1,1427,806,0,0
210,218,0,0,0,0,0,0,0,0,0,-1,1434,806,0,0
217,218,0,0,0,0,0,0,0,0,0,-1,1441,806,0,0
224,218,0,0,0,0,0,0,0,0,0,-1,1448,806,0,0
231,218,0,0,0,0,0,0,0,0,0,-1,1455,806,0,0
238,218,0,0,0,0,0,0,0,0,0,-1,1462,806,0,0
245,218,0,0,0,0,0,0,0,0,0,-1,1469,806,0,0
252,218,0,0,0,0,0,0,0,0,0,-1,1476,806,0,0
259,218,0,0,0,0,0,0,0,0,0,-1,1483,806,0,0
266,218,0,0,0,0,0,0,0,0,0,-1,1490,806,0,0
273,218,0,0,0,0,0,0,0,0,0,-1,1497,806,0,0
280,218,0,0,0,0,0,0,0,0,0,-1,1504,806,0,0
287,218,0,0,0,0,0,0,0,0,0,-1,1511,806,0,0
294,218,0,0,0,0,0,0,0,0,0,-1,1518,806,0,0
301,218,0,0,0,0,0,0,0,0,0,-1,1525,806,0,0
308,218,0,0,0,0,0,0,0,0,0,-1,1532,806,0,0
315,218,0,0,0,0,0,0,0,0,0,-1,1539,806,0,0
322,218,0,0,0,0,0,0,0,0,0,-1,1546,806,0,0
329,218,0,0,0,0,0,0,0,0,0,-1,1553,806,0,0
336,218,0,0,0,0,0,0,0,0,0,-1,1560,806,0,0
343,218,0,0,0,0,0,0,0,0,0,-1,1567,806,0,0
350,218,0,0,0,0,0,0,0,0,0,-1,1574,806,0,0
357,218,0,0,0,0,0,0,0,0,0,-1,1581,806,0,0
364,218,0,0,0,0,0,0,0,0,0,-1,1588,806,0,0
371,218,0,0,0,0,0,0,0,0,0,-1,1595,806,0,0
378,218,0,0,0,0,0,0,0,0,0,-1,1602,806,0,0
385,218,0,0,0,0,0,0,0,0,0,-1,1609,806,0,0
392,218,0,0,0,0,0,0,0,0,0,-1,1616,806,0,0
399,218,0,0,0,0,0,0,0,0,0,-1,1623,806,0,0
406,218,0,0,0,0,0,0,0,0,0,-1,1630,806,0,0
413,218,0,0,0,0,0,0,0,0,0,-1,1637,806,0,0
420,218,0,0,0,0,0,0,0,0,0,-1,1644,806,0,0
427,218,0,0,0,0,0,0,0,0,0,-1,1651,806,0,0
434,218,0,0,0,0,0,0,0,0,0,-1,1658,806,0,0
441,218,0,0,0,0,0,0,0,0,0,-1,1665,806,0,0
448,218,0,0,0,0,0,0,0,0,0,-1,1672,806,0,0
455,218,0,0,0,0,0,0,0,0,0,-1,1679,806,0,0
462,218,0,0,0,0,0,0,0,0,0,-1,1686,806,0,0
469,218,0,0,0,0,0,0,0,0,0,-1,1693,806,0,0
476,218,0,0,0,0,0,0,0,0,0,-1,1700,806,0,0
483,218,0,0,0,0,0,0,0,0,0,-1,1707,806,0,0
490,218,0,0,0,0,0,0,0,0,0,-1,1714,806,0,0
497,218,0,0,0,0,0,0,0,0,0,-1,1721,806,0,0
504,218,0,0,0,0,0,0,0,0,0,-1,1728,806,0,0
511,218,0,0,0,0,0,0,0,0,0,-1,1735,806,0,0
518,218,0,0,0,0,0,0,0,0,0,-1,1742,806,0,0
525,218,0,0,0,0,0,0,0,0,0,-1,1749,806,0,0
532,218,0,0,0,0,0,0,0,0,0,-1,1756,806,0,0
539,218,0,0,0,0,0,0,0,0,0,-1,1763,806,0,0
546,218,0,0,0,0,0,0,0,0,0,-1,1770,806,0,0
553,218,0,0,0,0,0,0,0,0,0,-1,1777,806,0,0
560,218,0,0,0,0,0,0,0,0,0,-1,1784,806,0,0
567,218,0,0,0,0,0,0,0,0,0,-1,1791,806,0,0
574,218,0,0,0,0,0,0,0,0,0,-1,1798,806,0,0
581,218,0,0,0,0,0,0,0,0,0,-1,1805,806,0,0
588,218,0,0,0,0,0,0,0,0,0,-1,1812,806,0,0
595,218,228.743,8.9101,0,0,0,0,0,0,0,-1,1819,806,228.743,-8.91012
602,218,228.67,8.87958,0,0,0,0,0,0,0,-1,1826,806,228.67,-8.87958
609,218,228.692,8.90857,0,0,0,0,0,0,0,-1,1833,806,228.692,-8.90856
616,218,228.716,8.88196,0,0,0,0,0,0,0,-1,1840,806,228.715,-8.88196
623,218,228.627,8.69452,0,0,0,0,0,0,0,-1,1847,806,228.627,-8.69449
630,218,98.8997,2.35669,0,0,0,0,0,0,0,-1,1854,806,98.8997,-2.3567
637,218,75.0532,2.44513,0,0,0,0,0,0,0,-1,1861,806,75.0532,-2.44515
644,218,52.4042,2.47949,0,0,0,0,0,0,0,-1,1868,806,52.4041,-2.47949
651,218,41.7338,1.99164,0,0,0,0,0,0,0,-1,1875,806,41.7338,-1.99162
658,218,28.41,0.514954,0,0,0,0,0,0,0,-1,1882,806,28.41,-0.514983
665,218,87.3844,-2.94836,0,0,0,0,0,0,0,-1,1889,806,87.3844,2.94834
672,218,105.041,-0.09729,0,0,0,0,0,0,0,-1,1896,806,105.041,0.0972892
679,218,192.445,15.768,0,0,0,0,0,0,0,-1,1903,806,192.445,-15.768
686,218,192.077,18.1821,-0.00409025,0.0175623,-0.00603117,0.0191289,-0.00565685,-1.31666,0.0149981,0.0468191,1910,806,192.077,-18.1821
693,218,191.708,20.4674,-0.00493776,0.0224972,-0.0104847,0.0260452,-0.00848579,-1.24449,0.0207779,0.0202655,1917,806,191.708,-20.4674
700,218,191.447,22.6467,-0.0059268,0.0279089,-0.0146961,0.0334006,-0.0114185,-1.21318,0.0268937,0.0194905,1924,806,191.447,-22.6467
707,218,190.805,24.8011,-0.00707475,0.0339041,-0.0187063,0.0411589,-0.0143295,-1.20083,0.0332611,0.0415284,1931,806,190.805,-24.8011
714,218,190.146,27.0093,0,0,0,0,0,0,0,-1,1938,806,190.146,-27.0093
721,218,190.318,28.6382,0,0,0,0,0,0,0,-1,1945,806,190.318,-28.6382
728,218,190.115,30.5199,0,0,0,0,0,0,0,-1,1952,806,190.115,-30.5199
735,218,118.738,21.3044,0,0,0,0,0,0,0,-1,1959,806,118.738,-21.3045
742,218,47.8733,6.84155,0,0,0,0,0,0,0,-1,1966,806,47.8733,-6.84158
749,218,42.0249,6.64703,0,0,0,0,0,0,0,-1,1973,806,42.0249,-6.64703
756,218,68.6807,8.39844,0,0,0,0,0,0,0,-1,1980,806,68.6807,-8.39847
763,218,70.9336,11.1503,0,0,0,0,0,0,0,-1,1987,806,70.9336,-11.1503
770,218,0,0,0,0,0,0,0,0,0,-1,1994,806,0,0
777,218,0,0,0,0,0,0,0,0,0,-1,2001,806,0,0
784,218,0,0,0,0,0,0,0,0,0,-1,2008,806,0,0
791,218,0,0,0,0,0,0,0,0,0,-1,2015,806,0,0
798,218,0,0,0,0,0,0,0,0,0,-1,2022,806,0,0
805,218,0,0,0,0,0,0,0,0,0,-1,2029,806,0,0
812,218,0,0,0,0,0,0,0,0,0,-1,2036,806,0,0
-700,211,0,0,0,0,0,0,0,0,0,-1,524,813,0,0
-693,211,0,0,0,0,0,0,0,0,0,-1,531,813,0,0
-686,211,0,0,0,0,0,0,0,0,0,-1,538,813,0,0
-679,211,0,0,0,0,0,0,0,0,0,-1,545,813,0,0
-672,211,0,0,0,0,0,0,0,0,0,-1,552,813,0,0
-665,211,0,0,0,0,0,0,0,0,0,-1,559,813,0,0
-658,211,0,0,0,0,0,0,0,0,0,-1,566,813,0,0
-651,211,-40.2495,5.20386,0,0,0,0,0,0,0,-1,573,813,-40.2494,-5.20384
-644,211,-40.6288,4.32092,0,0,0,0,0,0,0,-1,580,813,-40.6288,-4.3209
-637,211,-41.3664,3.51849,0,0,0,0,0,0,0,-1,587,813,-41.3664,-3.51847
-630,211,-41.9262,2.94977,0,0,0,0,0,0,0,-1,594,813,-41.9262,-2.94975
-623,211,-42.5012,2.62903,0,0,0,0,0,0,0,-1,601,813,-42.5011,-2.629
-616,211,-151.41,34.4951,0,0,0,0,0,0,0,-1,608,813,-151.41,-34.495
-609,211,-182.701,34.5547,0,0,0,0,0,0,0,-1,615,813,-182.701,-34.5547
-602,211,-183.301,32.6334,-0.0119988,0.0602235,0.023537,0.0672169,-0.0189923,1.28198,0.0523043,0.044161,622,813,-183.301,-32.6334
-595,211,-183.873,30.7062,-0.0105266,0.0529372,0.0217773,0.0596912,-0.0172806,1.27006,0.0466341,0.0274185,629,813,-183.873,-30.7062
-588,211,-184.255,28.7871,-0.00841196,0.0461264,0.0199379,0.0526378,-0.0149233,1.25513,0.0409823,0.0225724,636,813,-184.255,-28.7871
-581,211,-184.574,26.887,-0.00621004,0.0396785,0.0179017,0.045836,-0.0123675,1.23951,0.0354073,0.0172661,643,813,-184.574,-26.887
-574,211,-184.894,24.7501,-0.00427861,0.0337097,0.0155809,0.0392827,-0.00985156,1.2273,0.0300161,0.0172165,650,813,-184.894,-24.7501
-567,211,-185.32,22.6295,-0.00264014,0.0282348,0.0129814,0.0329674,-0.00737274,1.2212,0.0248038,0.0290669,657,813,-185.32,-22.6295
-560,211,-185.593,20.6958,0,0,0,0,0,0,0,-1,664,813,-185.593,-20.6958
-553,211,-185.935,18.1451,0,0,0,0,0,0,0,-1,671,813,-185.935,-18.1451
-546,211,-186.434,15.9827,0,0,0,0,0,0,0,-1,678,813,-186.434,-15.9827
-539,211,-186.936,14.0121,0,0,0,0,0,0,0,-1,685,813,-186.936,-14.0121
-532,211,-56.3252,-3.37701,0,0,0,0,0,0,0,-1,692,813,-56.3252,3.37701
-525,211,-14.3009,2.3233,0,0,0,0,0,0,0,-1,699,813,-14.3009,-2.3233
-518,211,-34.952,1.93011,0,0,0,0,0,0,0,-1,706,813,-34.952,-1.9301
-511,211,-53.0876,0.677734,0,0,0,0,0,0,0,-1,713,813,-53.0876,-0.677737
-504,211,-71.0793,0.713501,0,0,0,0,0,0,0,-1,720,813,-71.0793,-0.713471
-497,211,-71.1944,0.650879,0,0,0,0,0,0,0,-1,727,813,-71.1944,-0.650871
-490,211,-71.2502,0.66217,0,0,0,0,0,0,0,-1,734,813,-71.2502,-0.662185
-483,211,-71.1762,0.722412,0,0,0,0,0,0,0,-1,741,813,-71.1762,-0.722423
-476,211,-71.2107,0.635254,0,0,0,0,0,0,0,-1,748,813,-71.2107,-0.635269
-469,211,0,0,0,0,0,0,0,0,0,-1,755,813,0,0
-462,211,0,0,0,0,0,0,0,0,0,-1,762,813,0,0
-455,211,0,0,0,0,0,0,0,0,0,-1,769,813,0,0
-448,211,0,0,0,0,0,0,0,0,0,-1,776,813,0,0
-441,211,0,0,0,0,0,0,0,0,0,-1,783,813,0,0
-434,211,0,0,0,0,0,0,0,0,0,-1,790,813,0,0
-427,211,0,0,0,0,0,0,0,0,0,-1,797,813,0,0
-420,211,0,0,0,0,0,0,0,0,0,-1,804,813,0,0
-413,211,0,0,0,0,0,0,0,0,0,-1,811,813,0,0
-406,211,0,0,0,0,0,0,0,0,0,-1,818,813,0,0
-399,211,0,0,0,0,0,0,0,0,0,-1,825,813,0,0
-392,211,0,0,0,0,0,0,0,0,0,-1,832,813,0,0
-385,211,0,0,0,0,0,0,0,0,0,-1,839,813,0,0
-378,211,0,0,0,0,0,0,0,0,0,-1,846,813,0,0
-371,211,0,0,0,0,0,0,0,0,0,-1,853,813,0,0
-364,211,0,0,0,0,0,0,0,0,0,-1,860,813,0,0
-357,211,0,0,0,0,0,0,0,0,0,-1,867,813,0,0
-350,211,0,0,0,0,0,0,0,0,0,-1,874,813,0,0
-343,211,0,0,0,0,0,0,0,0,0,-1,881,813,0,0
-336,211,0,0,0,0,0,0,0,0,0,-1,888,813,0,0
-329,211,0,0,0,0,0,0,0,0,0,-1,895,813,0,0
-322,211,0,0,0,0,0,0,0,0,0,-1,902,813,0,0
-315,211,0,0,0,0,0,0,0,0,0,-1,909,813,0,0
-308,211,0,0,0,0,0,0,0,0,0,-1,916,813,0,0
-301,211,0,0,0,0,0,0,0,0,0,-1,923,813,0,0
-294,211,0,0,0,0,0,0,0,0,0,-1,930,813,0,0
-287,211,0,0,0,0,0,0,0,0,0,-1,937,813,0,0
-280,211,0,0,0,0,0,0,0,0,0,-1,944,813,0,0
-273,211,0,0,0,0,0,0,0,0,0,-1,951,813,0,0
-266,211,0,0,0,0,0,0,0,0,0,-1,958,813,0,0
-259,211,0,0,0,0,0,0,0,0,0,-1,965,813,0,0
-252,211,0,0,0,0,0,0,0,0,0,-1,972,813,0,0
-245,211,0,0,0,0,0,0,0,0,0,-1,979,813,0,0
-238,211,0,0,0,0,0,0,0,0,0,-1,986,813,0,0
-231,211,0,0,0,0,0,0,0,0,0,-1,993,813,0,0
-224,211,0,0,0,0,0,0,0,0,0,-1,1000,813,0,0
-217,211,0,0,0,0,0,0,0,0,0,-1,1007,813,0,0
-210,211,0,0,0,0,0,0,0,0,0,-1,1014,813,0,0
-203,211,0,0,0,0,0,0,0,0,0,-1,1021,813,0,0
-196,211,0,0,0,0,0,0,0,0,0,-1,1028,813,0,0
-189,211,0,0,0,0,0,0,0,0,0,-1,1035,813,0,0
-182,211,0,0,0,0,0,0,0,0,0,-1,1042,813,0,0
-175,211,0,0,0,0,0,0,0,0,0,-1,1049,813,0,0
-168,211,0,0,0,0,0,0,0,0,0,-1,1056,813,0,0
-161,211,0,0,0,0,0,0,0,0,0,-1,1063,813,0,0
-154,211,0,0,0,0,0,0,0,0,0,-1,1070,813,0,0
-147,211,0,0,0,0,0,0,0,0,0,-1,1077,813,0,0
-140,211,0,0,0,0,0,0,0,0,0,-1,1084,813,0,0
-133,211,0,0,0,0,0,0,0,0,0,-1,1091,813,0,0
-126,211,0,0,0,0,0,0,0,0,0,-1,1098,813,0,0
-119,211,0,0,0,0,0,0,0,0,0,-1,1105,813,0,0
-112,211,0,0,0,0,0,0,0,0,0,-1,1112,813,0,0
-105,211,0,0,0,0,0,0,0,0,0,-1,1119,813,0,0
-98,211,0,0,0,0,0,0,0,0,0,-1,1126,813,0,0
-91,211,0,0,0,0,0,0,0,0,0,-1,1133,813,0,0
-84,211,0,0,0,0,0,0,0,0,0,-1,1140,813,0,0
-77,211,0,0,0,0,0,0,0,0,0,-1,1147,813,0,0
-70,211,0,0,0,0,0,0,0,0,0,-1,1154,813,0,0
-63,211,0,0,0,0,0,0,0,0,0,-1,1161,813,0,0
-56,211,0,0,0,0,0,0,0,0,0,-1,1168,813,0,0
-49,211,0,0,0,0,0,0,0,0,0,-1,1175,813,0,0
-42,211,0,0,0,0,0,0,0,0,0,-1,1182,813,0,0
-35,211,0,0,0,0,0,0,0,0,0,-1,1189,813,0,0
-28,211,0,0,0,0,0,0,0,0,0,-1,1196,813,0,0
-21,211,0,0,0,0,0,0,0,0,0,-1,1203,813,0,0
-14,211,0,0,0,0,0,0,0,0,0,-1,1210,813,0,0
-7,211,0,0,0,0,0,0,0,0,0,-1,1217,813,0,0
0,211,0,0,0,0,0,0,0,0,0,-1,1224,813,0,0
7,211,0,0,0,0,0,0,0,0,0,-1,1231,813,0,0
14,211,0,0,0,0,0,0,0,0,0,-1,1238,813,0,0
21,211,0,0,0,0,0,0,0,0,0,-1,1245,813,0,0
28,211,0,0,0,0,0,0,0,0,0,-1,1252,813,0,0
35,211,0,0,0,0,0,0,0,0,0,-1,1259,813,0,0
42,211,0,0,0,0,0,0,0,0,0,-1,1266,813,0,0
49,211,0,0,0,0,0,0,0,0,0,-1,1273,813,0,0
56,211,0,0,0,0,0,0,0,0,0,-1,1280,813,0,0
63,211,0,0,0,0,0,0,0,0,0,-1,1287,813,0,0
70,211,0,0,0,0,0,0,0,0,0,-1,1294,813,0,0
77,211,0,0,0,0,0,0,0,0,0,-1,1301,813,0,0
84,211,0,0,0,0,0,0,0,0,0,-1,1308,813,0,0
91,211,0,0,0,0,0,0,0,0,0,-1,1315,813,0,0
98,211,0,0,0,0,0,0,0,0,0,-1,1322,813,0,0
105,211,0,0,0,0,0,0,0,0,0,-1,1329,813,0,0
112,211,0,0,0,0,0,0,0,0,0,-1,1336,813,0,0
119,211,0,0,0,0,0,0,0,0,0,-1,1343,813,0,0
126,211,0,0,0,0,0,0,0,0,0,-1,1350,813,0,0
133,211,0,0,0,0,0,0,0,0,0,-1,1357,813,0,0
140,211,0,0,0,0,0,0,0,0,0,-1,1364,813,0,0
147,211,0,0,0,0,0,0,0,0,0,-1,1371,813,0,0
154,211,0,0,0,0,0,0,0,0,0,-1,1378,813,0,0
161,211,0,0,0,0,0,0,0,0,0,-1,1385,813,0,0
168,211,0,0,0,0,0,0,0,0,0,-1,1392,813,0,0
175,211,0,0,0,0,0,0,0,0,0,-1,1399,813,0,0
182,211,0,0,0,0,0,0,0,0,0,-1,1406,813,0,0
189,211,0,0,0,0,0,0,0,0,0,-1,1413,813,0,0
196,211,0,0,0,0,0,0,0,0,0,-1,1420,813,0,0
203,211,0,0,0,0,0,0,0,0,0,-1,1427,813,0,0
210,211,0,0,0,0,0,0,0,0,0,-1,1434,813,0,0
217,211,0,0,0,0,0,0,0,0,0,-1,1441,813,0,0
224,211,0,0,0,0,0,0,0,0,0,-1,1448,813,0,0
231,211,0,0,0,0,0,0,0,0,0,-1,1455,813,0,0
238,211,0,0,0,0,0,0,0,0,0,-1,1462,813,0,0
245,211,0,0,0,0,0,0,0,0,0,-1,1469,813,0,0
252,211,0,0,0,0,0,0,0,0,0,-1,1476,813,0,0
259,211,0,0,0,0,0,0,0,0,0,-1,1483,813,0,0
266,211,0,0,0,0,0,0,0,0,0,-1,1490,813,0,0
273,211,0,0,0,0,0,0,0,0,0,-1,1497,813,0,0
280,211,0,0,0,0,0,0,0,0,0,-1,1504,813,0,0
287,211,0,0,0,0,0,0,0,0,0,-1,1511,813,0,0
294,211,0,0,0,0,0,0,0,0,0,-1,1518,813,0,0
301,211,0,0,0,0,0,0,0,0,0,-1,1525,813,0,0
308,211,0,0,0,0,0,0,0,0,0,-1,1532,813,0,0
315,211,0,0,0,0,0,0,0,0,0,-1,1539,813,0,0
322,211,0,0,0,0,0,0,0,0,0,-1,1546,813,0,0
329,211,0,0,0,0,0,0,0,0,0,-1,1553,813,0,0
336,211,0,0,0,0,0,0,0,0,0,-1,1560,813,0,0
343,211,0,0,0,0,0,0,0,0,0,-1,1567,813,0,0
350,211,0,0,0,0,0,0,0,0,0,-1,1574,813,0,0
357,211,0,0,0,0,0,0,0,0,0,-1,1581,813,0,0
364,211,0,0,0,0,0,0,0,0,0,-1,1588,813,0,0
371,211,0,0,0,0,0,0,0,0,0,-1,1595,813,0,0
378,211,0,0,0,0,0,0,0,0,0,-1,1602,813,0,0
385,211,0,0,0,0,0,0,0,0,0,-1,1609,813,0,0
392,211,0,0,0,0,0,0,0,0,0,-1,1616,813,0,0
399,211,0,0,0,0,0,0,0,0,0,-1,1623,813,0,0
406,211,0,0,0,0,0,0,0,0,0,-1,1630,813,0,0
413,211,0,0,0,0,0,0,0,0,0,-1,1637,813,0,0
420,211,0,0,0,0,0,0,0,0,0,-1,1644,813,0,0
427,211,0,0,0,0,0,0,0,0,0,-1,1651,813,0,0
434,211,0,0,0,0,0,0,0,0,0,-1,1658,813,0,0
441,211,0,0,0,0,0,0,0,0,0,-1,1665,813,0,0
448,211,0,0,0,0,0,0,0,0,0,-1,1672,813,0,0
455,211,0,0,0,0,0,0,0,0,0,-1,1679,813,0,0
462,211,0,0,0,0,0,0,0,0,0,-1,1686,813,0,0
469,211,0,0,0,0,0,0,0,0,0,-1,1693,813,0,0
476,211,0,0,0,0,0,0,0,0,0,-1,1700,813,0,0
483,211,0,0,0,0,0,0,0,0,0,-1,1707,813,0,0
490,211,0,0,0,0,0,0,0,0,0,-1,1714,813,0,0
497,211,0,0,0,0,0,0,0,0,0,-1,1721,813,0,0
504,211,0,0,0,0,0,0,0,0,0,-1,1728,813,0,0
511,211,0,0,0,0,0,0,0,0,0,-1,1735,813,0,0
518,211,0,0,0,0,0,0,0,0,0,-1,1742,813,0,0
525,211,0,0,0,0,0,0,0,0,0,-1,1749,813,0,0
532,211,0,0,0,0,0,0,0,0,0,-1,1756,813,0,0
539,211,0,0,0,0,0,0,0,0,0,-1,1763,813,0,0
546,211,0,0,0,0,0,0,0,0,0,-1,1770,813,0,0
553,211,0,0,0,0,0,0,0,0,0,-1,1777,813,0,0
560,211,0,0,0,0,0,0,0,0,0,-1,1784,813,0,0
567,211,0,0,0,0,0,0,0,0,0,-1,1791,813,0,0
574,211,0,0,0,0,0,0,0,0,0,-1,1798,813,0,0
581,211,0,0,0,0,0,0,0,0,0,-1,1805,813,0,0
588,211,0,0,0,0,0,0,0,0,0,-1,1812,813,0,0
595,211,228.768,8.91089,0,0,0,0,0,0,0,-1,1819,813,228.768,-8.91087
602,211,228.702,8.90363,0,0,0,0,0,0,0,-1,1826,813,228.702,-8.90361
609,211,228.711,8.9245,0,0,0,0,0,0,0,-1,1833,813,228.711,-8.92449
616,211,228.721,8.95911,0,0,0,0,0,0,0,-1,1840,813,228.721,-8.95912
623,211,228.694,8.901,0,0,0,0,0,0,0,-1,1847,813,228.694,-8.901
630,211,228.603,8.76074,0,0,0,0,0,0,0,-1,1854,813,228.603,-8.76073
637,211,93.1104,2.29517,0,0,0,0,0,0,0,-1,1861,813,93.1103,-2.29517
644,211,66.401,2.3595,0,0,0,0,0,0,0,-1,1868,813,66.401,-2.35952
651,211,48.5043,2.95557,0,0,0,0,0,0,0,-1,1875,813,48.5043,-2.95558
658,211,27.7909,1.52234,0,0,0,0,0,0,0,-1,1882,813,27.7909,-1.52234
665,211,42.2053,-0.745605,0,0,0,0,0,0,0,-1,1889,813,42.2054,0.745605
672,211,88.5627,-1.52313,0,0,0,0,0,0,0,-1,1896,813,88.5627,1.52312
679,211,190.752,16.1187,0,0,0,0,0,0,0,-1,1903,813,190.752,-16.1187
686,211,194.349,18.374,0,0,0,0,0,0,0,-1,1910,813,194.349,-18.374
693,211,194.082,20.708,-0.00478835,0.0198421,-0.00899577,0.0227777,-0.00772399,-1.25536,0.0183111,0.027046,1917,813,194.082,-20.708
700,211,193.705,23.0001,-0.00617807,0.0253172,-0.0130093,0.0299958,-0.0108566,-1.22557,0.0244337,0.0243038,1924,813,193.705,-23.0001
707,211,193.366,25.1049,-0.0077709,0.0314338,-0.0168435,0.0376763,-0.0140134,-1.21587,0.0308679,0.0473352,1931,813,193.366,-25.1049
714,211,192.881,27.1298,0,0,0,0,0,0,0,-1,1938,813,192.881,-27.1298
721,211,192.516,28.937,-0.0116097,0.0448526,-0.0240992,0.0537398,-0.0204968,-1.2175,0.0442698,0.0452011,1945,813,192.516,-28.937
728,211,192.269,30.9119,-0.0138611,0.0521843,-0.0276135,0.0622081,-0.0238849,-1.22258,0.0513211,0.0460636,1952,813,192.269,-30.9119
735,211,192.023,32.8582,0,0,0,0,0,0,0,-1,1959,813,192.024,-32.8582
742,211,84.2058,12.8079,0,0,0,0,0,0,0,-1,1966,813,84.2058,-12.8079
749,211,73.5072,9.75317,0,0,0,0,0,0,0,-1,1973,813,73.5072,-9.75319
756,211,69.7454,8.43085,0,0,0,0,0,0,0,-1,1980,813,69.7454,-8.43087
763,211,79.0168,15.136,0,0,0,0,0,0,0,-1,1987,813,79.017,-15.136
770,211,69.272,8.75696,0,0,0,0,0,0,0,-1,1994,813,69.2719,-8.75697
777,211,0,0,0,0,0,0,0,0,0,-1,2001,813,0,0
784,211,0,0,0,0,0,0,0,0,0,-1,2008,813,0,0
791,211,0,0,0,0,0,0,0,0,0,-1,2015,813,0,0
798,211,0,0,0,0,0,0,0,0,0,-1,2022,813,0,0
805,211,0,0,0,0,0,0,0,0,0,-1,2029,813,0,0
812,211,0,0,0,0,0,0,0,0,0,-1,2036,813,0,0
-700,204,0,0,0,0,0,0,0,0,0,-1,524,820,0,0
-693,204,0,0,0,0,0,0,0,0,0,-1,531,820,0,0
-686,204,0,0,0,0,0,0,0,0,0,-1,538,820,0,0
-679,204,0,0,0,0,0,0,0,0,0,-1,545,820,0,0
-672,204,0,0,0,0,0,0,0,0,0,-1,552,820,0,0
-665,204,0,0,0,0,0,0,0,0,0,-1,559,820,0,0
-658,204,0,0,0,0,0,0,0,0,0,-1,566,820,0,0
-651,204,-40.064,5.25806,0,0,0,0,0,0,0,-1,573,820,-40.064,-5.25806
-644,204,-40.4117,4.54321,0,0,0,0,0,0,0,-1,580,820,-40.4117,-4.54323
-637,204,-40.8671,3.93817,0,0,0,0,0,0,0,-1,587,820,-40.8671,-3.93819
-630,204,-41.7101,3.04382,0,0,0,0,0,0,0,-1,594,820,-41.7101,-3.04383
-623,204,-41.8597,2.11951,0,0,0,0,0,0,0,-1,601,820,-41.8597,-2.11951
-616,204,-172.704,35.5907,0,0,0,0,0,0,0,-1,608,820,-172.704,-35.5907
-609,204,-185.305,34.4104,0,0,0,0,0,0,0,-1,615,820,-185.305,-34.4104
-602,204,-185.732,32.5958,-0.0109034,0.05653,0.0224264,0.0633073,-0.0176807,1.27732,0.0491697,0.036329,622,820,-185.732,-32.5958
-595,204,-186.1,30.8737,-0.00962071,0.0497468,0.0206642,0.0562312,-0.0161051,1.26673,0.0438529,0.0307292,629,820,-186.101,-30.8737
-588,204,-186.551,28.925,-0.0075598,0.0432,0.018817,0.0494147,-0.0137745,1.2518,0.0383679,0.0246145,636,820,-186.551,-28.925
-581,204,-186.819,26.8913,-0.00530181,0.0369234,0.0167768,0.0427775,-0.0111559,1.23507,0.0328741,0.027536,643,820,-186.819,-26.8913
-574,204,-187.17,24.8893,-0.00303542,0.0309897,0.01454,0.0363566,-0.0084023,1.2172,0.0274702,0.0218018,650,820,-187.17,-24.8894
-567,204,-187.651,22.9844,-0.000821894,0.0254835,0.0120474,0.0301671,-0.0055055,1.20001,0.0221756,0.0233715,657,820,-187.651,-22.9844
-560,204,-188.155,21.1164,0,0,0,0,0,0,0,-1,664,820,-188.155,-21.1164
-553,204,-187.278,18.5019,0,0,0,0,0,0,0,-1,671,820,-187.278,-18.5019
-546,204,-189.036,16.349,0,0,0,0,0,0,0,-1,678,820,-189.036,-16.349
-539,204,-184.58,14.2836,0,0,0,0,0,0,0,-1,685,820,-184.58,-14.2836
-532,204,-30.0565,-3.29065,0,0,0,0,0,0,0,-1,692,820,-30.0565,3.29063
-525,204,-25.7137,1.52496,0,0,0,0,0,0,0,-1,699,820,-25.7137,-1.52496
-518,204,-43.4591,0.383972,0,0,0,0,0,0,0,-1,706,820,-43.4591,-0.383942
-511,204,-67.4779,0.469788,0,0,0,0,0,0,0,-1,713,820,-67.4779,-0.469764
-504,204,-71.0822,0.762695,0,0,0,0,0,0,0,-1,720,820,-71.0822,-0.762675
-497,204,-71.2341,0.638,0,0,0,0,0,0,0,-1,727,820,-71.2341,-0.638005
-490,204,-71.2697,0.596191,0,0,0,0,0,0,0,-1,734,820,-71.2697,-0.596182
-483,204,-71.1739,0.642822,0,0,0,0,0,0,0,-1,741,820,-71.1739,-0.6428
-476,204,0,0,0,0,0,0,0,0,0,-1,748,820,0,0
-469,204,0,0,0,0,0,0,0,0,0,-1,755,820,0,0
-462,204,0,0,0,0,0,0,0,0,0,-1,762,820,0,0
-455,204,0,0,0,0,0,0,0,0,0,-1,769,820,0,0
-448,204,0,0,0,0,0,0,0,0,0,-1,776,820,0,0
-441,204,0,0,0,0,0,0,0,0,0,-1,783,820,0,0
-434,204,0,0,0,0,0,0,0,0,0,-1,790,820,0,0
-427,204,0,0,0,0,0,0,0,0,0,-1,797,820,0,0
-420,204,0,0,0,0,0,0,0,0,0,-1,804,820,0,0
-413,204,0,0,0,0,0,0,0,0,0,-1,811,820,0,0
-406,204,0,0,0,0,0,0,0,0,0,-1,818,820,0,0
-399,204,0,0,0,0,0,0,0,0,0,-1,825,820,0,0
-392,204,0,0,0,0,0,0,0,0,0,-1,832,820,0,0
-385,204,0,0,0,0,0,0,0,0,0,-1,839,820,0,0
-378,204,0,0,0,0,0,0,0,0,0,-1,846,820,0,0
-371,204,0,0,0,0,0,0,0,0,0,-1,853,820,0,0
-364,204,0,0,0,0,0,0,0,0,0,-1,860,820,0,0
-357,204,0,0,0,0,0,0,0,0,0,-1,867,820,0,0
-350,204,0,0,0,0,0,0,0,0,0,-1,874,820,0,0
-343,204,0,0,0,0,0,0,0,0,0,-1,881,820,0,0
-336,204,0,0,0,0,0,0,0,0,0,-1,888,820,0,0
-329,204,0,0,0,0,0,0,0,0,0,-1,895,820,0,0
-322,204,0,0,0,0,0,0,0,0,0,-1,902,820,0,0
-315,204,0,0,0,0,0,0,0,0,0,-1,909,820,0,0
-308,204,0,0,0,0,0,0,0,0,0,-1,916,820,0,0
-301,204,0,0,0,0,0,0,0,0,0,-1,923,820,0,0
-294,204,0,0,0,0,0,0,0,0,0,-1,930,820,0,0
-287,204,0,0,0,0,0,0,0,0,0,-1,937,820,0,0
-280,204,0,0,0,0,0,0,0,0,0,-1,944,820,0,0
-273,204,0,0,0,0,0,0,0,0,0,-1,951,820,0,0
-266,204,0,0,0,0,0,0,0,0,0,-1,958,820,0,0
-259,204,0,0,0,0,0,0,0,0,0,-1,965,820,0,0
-252,204,0,0,0,0,0,0,0,0,0,-1,972,820,0,0
-245,204,0,0,0,0,0,0,0,0,0,-1,979,820,0,0
-238,204,0,0,0,0,0,0,0,0,0,-1,986,820,0,0
-231,204,0,0,0,0,0,0,0,0,0,-1,993,820,0,0
-224,204,0,0,0,0,0,0,0,0,0,-1,1000,820,0,0
-217,204,0,0,0,0,0,0,0,0,0,-1,1007,820,0,0
-210,204,0,0,0,0,0,0,0,0,0,-1,1014,820,0,0
-203,204,0,0,0,0,0,0,0,0,0,-1,1021,820,0,0
-196,204,0,0,0,0,0,0,0,0,0,-1,1028,820,0,0
-189,204,0,0,0,0,0,0,0,0,0,-1,1035,820,0,0
-182,204,0,0,0,0,0,0,0,0,0,-1,1042,820,0,0
-175,204,0,0,0,0,0,0,0,0,0,-1,1049,820,0,0
-168,204,0,0,0,0,0,0,0,0,0,-1,1056,820,0,0
-161,204,0,0,0,0,0,0,0,0,0,-1,1063,820,0,0
-154,204,0,0,0,0,0,0,0,0,0,-1,1070,820,0,0
-147,204,0,0,0,0,0,0,0,0,0,-1,1077,820,0,0
-140,204,0,0,0,0,0,0,0,0,0,-1,1084,820,0,0
-133,204,0,0,0,0,0,0,0,0,0,-1,1091,820,0,0
-126,204,0,0,0,0,0,0,0,0,0,-1,1098,820,0,0
-119,204,0,0,0,0,0,0,0,0,0,-1,1105,820,0,0
-112,204,0,0,0,0,0,0,0,0,0,-1,1112,820,0,0
-105,204,0,0,0,0,0,0,0,0,0,-1,1119,820,0,0
-98,204,0,0,0,0,0,0,0,0,0,-1,1126,820,0,0
-91,204,0,0,0,0,0,0,0,0,0,-1,1133,820,0,0
-84,204,0,0,0,0,0,0,0,0,0,-1,1140,820,0,0
-77,204,0,0,0,0,0,0,0,0,0,-1,1147,820,0,0
-70,204,0,0,0,0,0,0,0,0,0,-1,1154,820,0,0
-63,204,0,0,0,0,0,0,0,0,0,-1,1161,820,0,0
-56,204,0,0,0,0,0,0,0,0,0,-1,1168,820,0,0
-49,204,0,0,0,0,0,0,0,0,0,-1,1175,820,0,0
-42,204,0,0,0,0,0,0,0,0,0,-1,1182,820,0,0
-35,204,0,0,0,0,0,0,0,0,0,-1,1189,820,0,0
-28,204,0,0,0,0,0,0,0,0,0,-1,1196,820,0,0
-21,204,0,0,0,0,0,0,0,0,0,-1,1203,820,0,0
-14,204,0,0,0,0,0,0,0,0,0,-1,1210,820,0,0
-7,204,0,0,0,0,0,0,0,0,0,-1,1217,820,0,0
0,204,0,0,0,0,0,0,0,0,0,-1,1224,820,0,0
7,204,0,0,0,0,0,0,0,0,0,-1,1231,820,0,0
14,204,0,0,0,0,0,0,0,0,0,-1,1238,820,0,0
21,204,0,0,0,0,0,0,0,0,0,-1,1245,820,0,0
28,204,0,0,0,0,0,0,0,0,0,-1,1252,820,0,0
35,204,0,0,0,0,0,0,0,0,0,-1,1259,820,0,0
42,204,0,0,0,0,0,0,0,0,0,-1,1266,820,0,0
49,204,0,0,0,0,0,0,0,0,0,-1,1273,820,0,0
56,204,0,0,0,0,0,0,0,0,0,-1,1280,820,0,0
63,204,0,0,0,0,0,0,0,0,0,-1,1287,820,0,0
70,204,0,0,0,0,0,0,0,0,0,-1,1294,820,0,0
77,204,0,0,0,0,0,0,0,0,0,-1,1301,820,0,0
84,204,0,0,0,0,0,0,0,0,0,-1,1308,820,0,0
91,204,0,0,0,0,0,0,0,0,0,-1,1315,820,0,0
98,204,0,0,0,0,0,0,0,0,0,-1,1322,820,0,0
105,204,0,0,0,0,0,0,0,0,0,-1,1329,820,0,0
112,204,0,0,0,0,0,0,0,0,0,-1,1336,820,0,0
119,204,0,0,0,0,0,0,0,0,0,-1,1343,820,0,0
126,204,0,0,0,0,0,0,0,0,0,-1,1350,820,0,0
133,204,0,0,0,0,0,0,0,0,0,-1,1357,820,0,0
140,204,0,0,0,0,0,0,0,0,0,-1,1364,820,0,0
147,204,0,0,0,0,0,0,0,0,0,-1,1371,820,0,0
154,204,0,0,0,0,0,0,0,0,0,-1,1378,820,0,0
161,204,0,0,0,0,0,0,0,0,0,-1,1385,820,0,0
168,204,0,0,0,0,0,0,0,0,0,-1,1392,820,0,0
175,204,0,0,0,0,0,0,0,0,0,-1,1399,820,0,0
182,204,0,0,0,0,0,0,0,0,0,-1,1406,820,0,0
189,204,0,0,0,0,0,0,0,0,0,-1,1413,820,0,0
196,204,0,0,0,0,0,0,0,0,0,-1,1420,820,0,0
203,204,0,0,0,0,0,0,0,0,0,-1,1427,820,0,0
210,204,0,0,0,0,0,0,0,0,0,-1,1434,820,0,0
217,204,0,0,0,0,0,0,0,0,0,-1,1441,820,0,0
224,204,0,0,0,0,0,0,0,0,0,-1,1448,820,0,0
231,204,0,0,0,0,0,0,0,0,0,-1,1455,820,0,0
238,204,0,0,0,0,0,0,0,0,0,-1,1462,820,0,0
245,204,0,0,0,0,0,0,0,0,0,-1,1469,820,0,0
252,204,0,0,0,0,0,0,0,0,0,-1,1476,820,0,0
259,204,0,0,0,0,0,0,0,0,0,-1,1483,820,0,0
266,204,0,0,0,0,0,0,0,0,0,-1,1490,820,0,0
273,204,0,0,0,0,0,0,0,0,0,-1,1497,820,0,0
280,204,0,0,0,0,0,0,0,0,0,-1,1504,820,0,0
287,204,0,0,0,0,0,0,0,0,0,-1,1511,820,0,0
294,204,0,0,0,0,0,0,0,0,0,-1,1518,820,0,0
301,204,0,0,0,0,0,0,0,0,0,-1,1525,820,0,0
308,204,0,0,0,0,0,0,0,0,0,-1,1532,820,0,0
315,204,0,0,0,0,0,0,0,0,0,-1,1539,820,0,0
322,204,0,0,0,0,0,0,0,0,0,-1,1546,820,0,0
329,204,0,0,0,0,0,0,0,0,0,-1,1553,820,0,0
336,204,0,0,0,0,0,0,0,0,0,-1,1560,820,0,0
343,204,0,0,0,0,0,0,0,0,0,-1,1567,820,0,0
350,204,0,0,0,0,0,0,0,0,0,-1,1574,820,0,0
357,204,0,0,0,0,0,0,0,0,0,-1,1581,820,0,0
364,204,0,0,0,0,0,0,0,0,0,-1,1588,820,0,0
371,204,0,0,0,0,0,0,0,0,0,-1,1595,820,0,0
378,204,0,0,0,0,0,0,0,0,0,-1,1602,820,0,0
385,204,0,0,0,0,0,0,0,0,0,-1,1609,820,0,0
392,204,0,0,0,0,0,0,0,0,0,-1,1616,820,0,0
399,204,0,0,0,0,0,0,0,0,0,-1,1623,820,0,0
406,204,0,0,0,0,0,0,0,0,0,-1,1630,820,0,0
413,204,0,0,0,0,0,0,0,0,0,-1,1637,820,0,0
420,204,0,0,0,0,0,0,0,0,0,-1,1644,820,0,0
427,204,0,0,0,0,0,0,0,0,0,-1,1651,820,0,0
434,204,0,0,0,0,0,0,0,0,0,-1,1658,820,0,0
441,204,0,0,0,0,0,0,0,0,0,-1,1665,820,0,0
448,204,0,0,0,0,0,0,0,0,0,-1,1672,820,0,0
455,204,0,0,0,0,0,0,0,0,0,-1,1679,820,0,0
462,204,0,0,0,0,0,0,0,0,0,-1,1686,820,0,0
469,204,0,0,0,0,0,0,0,0,0,-1,1693,820,0,0
476,204,0,0,0,0,0,0,0,0,0,-1,1700,820,0,0
483,204,0,0,0,0,0,0,0,0,0,-1,1707,820,0,0
490,204,0,0,0,0,0,0,0,0,0,-1,1714,820,0,0
497,204,0,0,0,0,0,0,0,0,0,-1,1721,820,0,0
504,204,0,0,0,0,0,0,0,0,0,-1,1728,820,0,0
511,204,0,0,0,0,0,0,0,0,0,-1,1735,820,0,0
518,204,0,0,0,0,0,0,0,0,0,-1,1742,820,0,0
525,204,0,0,0,0,0,0,0,0,0,-1,1749,820,0,0
532,204,0,0,0,0,0,0,0,0,0,-1,1756,820,0,0
539,204,0,0,0,0,0,0,0,0,0,-1,1763,820,0,0
546,204,0,0,0,0,0,0,0,0,0,-1,1770,820,0,0
553,204,0,0,0,0,0,0,0,0,0,-1,1777,820,0,0
560,204,0,0,0,0,0,0,0,0,0,-1,1784,820,0,0
567,204,0,0,0,0,0,0,0,0,0,-1,1791,820,0,0
574,204,0,0,0,0,0,0,0,0,0,-1,1798,820,0,0
581,204,0,0,0,0,0,0,0,0,0,-1,1805,820,0,0
588,204,0,0,0,0,0,0,0,0,0,-1,1812,820,0,0
595,204,0,0,0,0,0,0,0,0,0,-1,1819,820,0,0
602,204,228.886,9.13098,0,0,0,0,0,0,0,-1,1826,820,228.886,-9.13099
609,204,228.74,8.85309,0,0,0,0,0,0,0,-1,1833,820,228.74,-8.8531
616,204,228.777,8.71375,0,0,0,0,0,0,0,-1,1840,820,228.777,-8.71374
623,204,228.699,8.92609,0,0,0,0,0,0,0,-1,1847,820,228.699,-8.92611
630,204,228.639,8.95276,0,0,0,0,0,0,0,-1,1854,820,228.639,-8.95273
637,204,228.567,8.86487,0,0,0,0,0,0,0,-1,1861,820,228.567,-8.86485
644,204,80.9747,2.19354,0,0,0,0,0,0,0,-1,1868,820,80.9747,-2.19357
651,204,53.7611,2.32251,0,0,0,0,0,0,0,-1,1875,820,53.7611,-2.32249
658,204,34.9631,1.64844,0,0,0,0,0,0,0,-1,1882,820,34.9631,-1.64842
665,204,21.8292,1.51099,0,0,0,0,0,0,0,-1,1889,820,21.8292,-1.51099
672,204,76.1548,-2.67474,0,0,0,0,0,0,0,-1,1896,820,76.1548,2.67474
679,204,197.206,17.0188,0,0,0,0,0,0,0,-1,1903,820,197.206,-17.0188
686,204,196.95,18.7886,0,0,0,0,0,0,0,-1,1910,820,196.95,-18.7886
693,204,196.344,20.8922,0,0,0,0,0,0,0,-1,1917,820,196.344,-20.8922
700,204,195.765,23.0488,-0.00611714,0.0227407,-0.0113155,0.0266485,-0.0100249,-1.23827,0.0218865,0.025039,1924,820,195.765,-23.0488
707,204,195.712,25.0973,-0.00804029,0.0290576,-0.0149892,0.0343568,-0.0133396,-1.23097,0.0284147,0.0213032,1931,820,195.712,-25.0973
714,204,195.245,27.0747,-0.0102192,0.03573,-0.0185467,0.0422818,-0.0167711,-1.23122,0.0351387,0.0385917,1938,820,195.245,-27.0747
721,204,194.813,29.0466,-0.0126733,0.0427521,-0.0220428,0.0504495,-0.0203708,-1.23483,0.0420995,0.0468042,1945,820,194.813,-29.0466
728,204,194.556,30.884,-0.0153939,0.0501449,-0.0255309,0.0589165,-0.0241655,-1.23986,0.0493463,0.0336163,1952,820,194.556,-30.884
735,204,194.01,32.6947,0,0,0,0,0,0,0,-1,1959,820,194.01,-32.6947
742,204,193.745,34.205,0,0,0,0,0,0,0,-1,1966,820,193.745,-34.205
749,204,101.314,18.9936,0,0,0,0,0,0,0,-1,1973,820,101.314,-18.9936
756,204,92.436,17.8448,0,0,0,0,0,0,0,-1,1980,820,92.436,-17.8448
763,204,100.431,20.1368,0,0,0,0,0,0,0,-1,1987,820,100.431,-20.1368
770,204,81.447,15.5807,0,0,0,0,0,0,0,-1,1994,820,81.4469,-15.5807
777,204,0,0,0,0,0,0,0,0,0,-1,2001,820,0,0
784,204,0,0,0,0,0,0,0,0,0,-1,2008,820,0,0
791,204,0,0,0,0,0,0,0,0,0,-1,2015,820,0,0
798,204,0,0,0,0,0,0,0,0,0,-1,2022,820,0,0
805,204,0,0,0,0,0,0,0,0,0,-1,2029,820,0,0
812,204,0,0,0,0,0,0,0,0,0,-1,2036,820,0,0
-700,197,0,0,0,0,0,0,0,0,0,-1,524,827,0,0
-693,197,0,0,0,0,0,0,0,0,0,-1,531,827,0,0
-686,197,0,0,0,0,0,0,0,0,0,-1,538,827,0,0
-679,197,0,0,0,0,0,0,0,0,0,-1,545,827,0,0
-672,197,0,0,0,0,0,0,0,0,0,-1,552,827,0,0
-665,197,0,0,0,0,0,0,0,0,0,-1,559,827,0,0
-658,197,-39.9774,5.66638,0,0,0,0,0,0,0,-1,566,827,-39.9774,-5.66637
-651,197,-39.9665,5.23578,0,0,0,0,0,0,0,-1,573,827,-39.9665,-5.23575
-644,197,-38.9225,4.75665,0,0,0,0,0,0,0,-1,580,827,-38.9225,-4.75665
-637,197,-45.2572,7.41498,0,0,0,0,0,0,0,-1,587,827,-45.2572,-7.415
-630,197,-40.4908,2.45648,0,0,0,0,0,0,0,-1,594,827,-40.4908,-2.45649
-623,197,-74.227,17.6605,0,0,0,0,0,0,0,-1,601,827,-74.227,-17.6605
-616,197,-187.364,36.0327,0,0,0,0,0,0,0,-1,608,827,-187.364,-36.0327
-609,197,-187.614,34.2465,0,0,0,0,0,0,0,-1,615,827,-187.614,-34.2465
-602,197,-187.987,32.5035,-0.00914538,0.0529568,0.021067,0.0594289,-0.0156175,1.27273,0.045723,0.0314884,622,827,-187.987,-32.5035
-595,197,-188.366,30.8463,-0.00821207,0.0466576,0.0193716,0.0528075,-0.0143619,1.26339,0.0408428,0.0290955,629,827,-188.366,-30.8462
-588,197,-188.751,29.0331,-0.00629201,0.040396,0.0175973,0.0462857,-0.0121817,1.24782,0.0356189,0.0371542,636,827,-188.751,-29.0331
-581,197,-189.041,27.0158,-0.00390817,0.0343137,0.0156626,0.0399119,-0.00950642,1.22752,0.0302784,0.0263589,643,827,-189.041,-27.0158
-574,197,-189.409,25.0612,-0.00122281,0.0284566,0.0136011,0.0337467,-0.00651285,1.19986,0.0249537,0.0253001,650,827,-189.409,-25.0612
-567,197,-189.661,23.2056,0.00187567,0.0229374,0.0113076,0.0278584,-0.00304534,1.16032,0.0196661,0.0318242,657,827,-189.661,-23.2056
-560,197,-189.816,21.3741,0,0,0,0,0,0,0,-1,664,827,-189.816,-21.3741
-553,197,-189.519,18.8787,0,0,0,0,0,0,0,-1,671,827,-189.519,-18.8787
-546,197,-190.154,17.1949,0,0,0,0,0,0,0,-1,678,827,-190.154,-17.195
-539,197,-32.8993,-2.61737,0,0,0,0,0,0,0,-1,685,827,-32.8993,2.61737
-532,197,-16.0519,0.0410156,0,0,0,0,0,0,0,-1,692,827,-16.0519,-0.0410415
-525,197,-35.3785,2.11829,0,0,0,0,0,0,0,-1,699,827,-35.3785,-2.11826
-518,197,-57.6698,0.308533,0,0,0,0,0,0,0,-1,706,827,-57.6698,-0.308561
-511,197,-72.6749,0.492554,0,0,0,0,0,0,0,-1,713,827,-72.6749,-0.492524
-504,197,-71.1552,0.703064,0,0,0,0,0,0,0,-1,720,827,-71.1552,-0.703067
-497,197,-71.2643,0.608765,0,0,0,0,0,0,0,-1,727,827,-71.2643,-0.608793
-490,197,-71.2889,0.46698,0,0,0,0,0,0,0,-1,734,827,-71.2889,-0.466976
-483,197,-71.1486,0.482544,0,0,0,0,0,0,0,-1,741,827,-71.1485,-0.482525
-476,197,0,0,0,0,0,0,0,0,0,-1,748,827,0,0
-469,197,0,0,0,0,0,0,0,0,0,-1,755,827,0,0
-462,197,0,0,0,0,0,0,0,0,0,-1,762,827,0,0
-455,197,0,0,0,0,0,0,0,0,0,-1,769,827,0,0
-448,197,0,0,0,0,0,0,0,0,0,-1,776,827,0,0
-441,197,0,0,0,0,0,0,0,0,0,-1,783,827,0,0
-434,197,0,0,0,0,0,0,0,0,0,-1,790,827,0,0
-427,197,0,0,0,0,0,0,0,0,0,-1,797,827,0,0
-420,197,0,0,0,0,0,0,0,0,0,-1,804,827,0,0
-413,197,0,0,0,0,0,0,0,0,0,-1,811,827,0,0
-406,197,0,0,0,0,0,0,0,0,0,-1,818,827,0,0
-399,197,0,0,0,0,0,0,0,0,0,-1,825,827,0,0
-392,197,0,0,0,0,0,0,0,0,0,-1,832,827,0,0
-385,197,0,0,0,0,0,0,0,0,0,-1,839,827,0,0
-378,197,0,0,0,0,0,0,0,0,0,-1,846,827,0,0
-371,197,0,0,0,0,0,0,0,0,0,-1,853,827,0,0
-364,197,0,0,0,0,0,0,0,0,0,-1,860,827,0,0
-357,197,0,0,0,0,0,0,0,0,0,-1,867,827,0,0
-350,197,0,0,0,0,0,0,0,0,0,-1,874,827,0,0
-343,197,0,0,0,0,0,0,0,0,0,-1,881,827,0,0
-336,197,0,0,0,0,0,0,0,0,0,-1,888,827,0,0
-329,197,0,0,0,0,0,0,0,0,0,-1,895,827,0,0
-322,197,0,0,0,0,0,0,0,0,0,-1,902,827,0,0
-315,197,0,0,0,0,0,0,0,0,0,-1,909,827,0,0
-308,197,0,0,0,0,0,0,0,0,0,-1,916,827,0,0
-301,197,0,0,0,0,0,0,0,0,0,-1,923,827,0,0
-294,197,0,0,0,0,0,0,0,0,0,-1,930,827,0,0
-287,197,0,0,0,0,0,0,0,0,0,-1,937,827,0,0
-280,197,0,0,0,0,0,0,0,0,0,-1,944,827,0,0
-273,197,0,0,0,0,0,0,0,0,0,-1,951,827,0,0
-266,197,0,0,0,0,0,0,0,0,0,-1,958,827,0,0
-259,197,0,0,0,0,0,0,0,0,0,-1,965,827,0,0
-252,197,0,0,0,0,0,0,0,0,0,-1,972,827,0,0
-245,197,0,0,0,0,0,0,0,0,0,-1,979,827,0,0
-238,197,0,0,0,0,0,0,0,0,0,-1,986,827,0,0
-231,197,0,0,0,0,0,0,0,0,0,-1,993,827,0,0
-224,197,0,0,0,0,0,0,0,0,0,-1,1000,827,0,0
-217,197,0,0,0,0,0,0,0,0,0,-1,1007,827,0,0
-210,197,0,0,0,0,0,0,0,0,0,-1,1014,827,0,0
-203,197,0,0,0,0,0,0,0,0,0,-1,1021,827,0,0
-196,197,0,0,0,0,0,0,0,0,0,-1,1028,827,0,0
-189,197,0,0,0,0,0,0,0,0,0,-1,1035,827,0,0
-182,197,0,0,0,0,0,0,0,0,0,-1,1042,827,0,0
-175,197,0,0,0,0,0,0,0,0,0,-1,1049,827,0,0
-168,197,0,0,0,0,0,0,0,0,0,-1,1056,827,0,0
-161,197,0,0,0,0,0,0,0,0,0,-1,1063,827,0,0
-154,197,0,0,0,0,0,0,0,0,0,-1,1070,827,0,0
-147,197,0,0,0,0,0,0,0,0,0,-1,1077,827,0,0
-140,197,0,0,0,0,0,0,0,0,0,-1,1084,827,0,0
-133,197,0,0,0,0,0,0,0,0,0,-1,1091,827,0,0
-126,197,0,0,0,0,0,0,0,0,0,-1,1098,827,0,0
-119,197,0,0,0,0,0,0,0,0,0,-1,1105,827,0,0
-112,197,0,0,0,0,0,0,0,0,0,-1,1112,827,0,0
-105,197,0,0,0,0,0,0,0,0,0,-1,1119,827,0,0
-98,197,0,0,0,0,0,0,0,0,0,-1,1126,827,0,0
-91,197,0,0,0,0,0,0,0,0,0,-1,1133,827,0,0
-84,197,0,0,0,0,0,0,0,0,0,-1,1140,827,0,0
-77,197,0,0,0,0,0,0,0,0,0,-1,1147,827,0,0
-70,197,0,0,0,0,0,0,0,0,0,-1,1154,827,0,0
-63,197,0,0,0,0,0,0,0,0,0,-1,1161,827,0,0
-56,197,0,0,0,0,0,0,0,0,0,-1,1168,827,0,0
-49,197,0,0,0,0,0,0,0,0,0,-1,1175,827,0,0
-42,197,0,0,0,0,0,0,0,0,0,-1,1182,827,0,0
-35,197,0,0,0,0,0,0,0,0,0,-1,1189,827,0,0
-28,197,0,0,0,0,0,0,0,0,0,-1,1196,827,0,0
-21,197,0,0,0,0,0,0,0,0,0,-1,1203,827,0,0
-14,197,0,0,0,0,0,0,0,0,0,-1,1210,827,0,0
-7,197,0,0,0,0,0,0,0,0,0,-1,1217,827,0,0
0,197,0,0,0,0,0,0,0,0,0,-1,1224,827,0,0
7,197,0,0,0,0,0,0,0,0,0,-1,1231,827,0,0
14,197,0,0,0,0,0,0,0,0,0,-1,1238,827,0,0
21,197,0,0,0,0,0,0,0,0,0,-1,1245,827,0,0
28,197,0,0,0,0,0,0,0,0,0,-1,1252,827,0,0
35,197,0,0,0,0,0,0,0,0,0,-1,1259,827,0,0
42,197,0,0,0,0,0,0,0,0,0,-1,1266,827,0,0
49,197,0,0,0,0,0,0,0,0,0,-1,1273,827,0,0
56,197,0,0,0,0,0,0,0,0,0,-1,1280,827,0,0
63,197,0,0,0,0,0,0,0,0,0,-1,1287,827,0,0
70,197,0,0,0,0,0,0,0,0,0,-1,1294,827,0,0
77,197,0,0,0,0,0,0,0,0,0,-1,1301,827,0,0
84,197,0,0,0,0,0,0,0,0,0,-1,1308,827,0,0
91,197,0,0,0,0,0,0,0,0,0,-1,1315,827,0,0
98,197,0,0,0,0,0,0,0,0,0,-1,1322,827,0,0
105,197,0,0,0,0,0,0,0,0,0,-1,1329,827,0,0
112,197,0,0,0,0,0,0,0,0,0,-1,1336,827,0,0
119,197,0,0,0,0,0,0,0,0,0,-1,1343,827,0,0
126,197,0,0,0,0,0,0,0,0,0,-1,1350,827,0,0
133,197,0,0,0,0,0,0,0,0,0,-1,1357,827,0,0
140,197,0,0,0,0,0,0,0,0,0,-1,1364,827,0,0
147,197,0,0,0,0,0,0,0,0,0,-1,1371,827,0,0
154,197,0,0,0,0,0,0,0,0,0,-1,1378,827,0,0
161,197,0,0,0,0,0,0,0,0,0,-1,1385,827,0,0
168,197,0,0,0,0,0,0,0,0,0,-1,1392,827,0,0
175,197,0,0,0,0,0,0,0,0,0,-1,1399,827,0,0
182,197,0,0,0,0,0,0,0,0,0,-1,1406,827,0,0
189,197,0,0,0,0,0,0,0,0,0,-1,1413,827,0,0
196,197,0,0,0,0,0,0,0,0,0,-1,1420,827,0,0
203,197,0,0,0,0,0,0,0,0,0,-1,1427,827,0,0
210,197,0,0,0,0,0,0,0,0,0,-1,1434,827,0,0
217,197,0,0,0,0,0,0,0,0,0,-1,1441,827,0,0
224,197,0,0,0,0,0,0,0,0,0,-1,1448,827,0,0
231,197,0,0,0,0,0,0,0,0,0,-1,1455,827,0,0
238,197,0,0,0,0,0,0,0,0,0,-1,1462,827,0,0
245,197,0,0,0,0,0,0,0,0,0,-1,1469,827,0,0
252,197,0,0,0,0,0,0,0,0,0,-1,1476,827,0,0
259,197,0,0,0,0,0,0,0,0,0,-1,1483,827,0,0
266,197,0,0,0,0,0,0,0,0,0,-1,1490,827,0,0
273,197,0,0,0,0,0,0,0,0,0,-1,1497,827,0,0
280,197,0,0,0,0,0,0,0,0,0,-1,1504,827,0,0
287,197,0,0,0,0,0,0,0,0,0,-1,1511,827,0,0
294,197,0,0,0,0,0,0,0,0,0,-1,1518,827,0,0
301,197,0,0,0,0,0,0,0,0,0,-1,1525,827,0,0
308,197,0,0,0,0,0,0,0,0,0,-1,1532,827,0,0
315,197,0,0,0,0,0,0,0,0,0,-1,1539,827,0,0
322,197,0,0,0,0,0,0,0,0,0,-1,1546,827,0,0
329,197,0,0,0,0,0,0,0,0,0,-1,1553,827,0,0
336,197,0,0,0,0,0,0,0,0,0,-1,1560,827,0,0
343,197,0,0,0,0,0,0,0,0,0,-1,1567,827,0,0
350,197,0,0,0,0,0,0,0,0,0,-1,1574,827,0,0
357,197,0,0,0,0,0,0,0,0,0,-1,1581,827,0,0
364,197,0,0,0,0,0,0,0,0,0,-1,1588,827,0,0
371,197,0,0,0,0,0,0,0,0,0,-1,1595,827,0,0
378,197,0,0,0,0,0,0,0,0,0,-1,1602,827,0,0
385,197,0,0,0,0,0,0,0,0,0,-1,1609,827,0,0
392,197,0,0,0,0,0,0,0,0,0,-1,1616,827,0,0
399,197,0,0,0,0,0,0,0,0,0,-1,1623,827,0,0
406,197,0,0,0,0,0,0,0,0,0,-1,1630,827,0,0
413,197,0,0,0,0,0,0,0,0,0,-1,1637,827,0,0
420,197,0,0,0,0,0,0,0,0,0,-1,1644,827,0,0
427,197,0,0,0,0,0,0,0,0,0,-1,1651,827,0,0
434,197,0,0,0,0,0,0,0,0,0,-1,1658,827,0,0
441,197,0,0,0,0,0,0,0,0,0,-1,1665,827,0,0
448,197,0,0,0,0,0,0,0,0,0,-1,1672,827,0,0
455,197,0,0,0,0,0,0,0,0,0,-1,1679,827,0,0
462,197,0,0,0,0,0,0,0,0,0,-1,1686,827,0,0
469,197,0,0,0,0,0,0,0,0,0,-1,1693,827,0,0
476,197,0,0,0,0,0,0,0,0,0,-1,1700,827,0,0
483,197,0,0,0,0,0,0,0,0,0,-1,1707,827,0,0
490,197,0,0,0,0,0,0,0,0,0,-1,1714,827,0,0
497,197,0,0,0,0,0,0,0,0,0,-1,1721,827,0,0
504,197,0,0,0,0,0,0,0,0,0,-1,1728,827,0,0
511,197,0,0,0,0,0,0,0,0,0,-1,1735,827,0,0
518,197,0,0,0,0,0,0,0,0,0,-1,1742,827,0,0
525,197,0,0,0,0,0,0,0,0,0,-1,1749,827,0,0
532,197,0,0,0,0,0,0,0,0,0,-1,1756,827,0,0
539,197,0,0,0,0,0,0,0,0,0,-1,1763,827,0,0
546,197,0,0,0,0,0,0,0,0,0,-1,1770,827,0,0
553,197,0,0,0,0,0,0,0,0,0,-1,1777,827,0,0
560,197,0,0,0,0,0,0,0,0,0,-1,1784,827,0,0
567,197,0,0,0,0,0,0,0,0,0,-1,1791,827,0,0
574,197,0,0,0,0,0,0,0,0,0,-1,1798,827,0,0
581,197,0,0,0,0,0,0,0,0,0,-1,1805,827,0,0
588,197,0,0,0,0,0,0,0,0,0,-1,1812,827,0,0
595,197,0,0,0,0,0,0,0,0,0,-1,1819,827,0,0
602,197,228.812,9.19293,0,0,0,0,0,0,0,-1,1826,827,228.812,-9.19291
609,197,228.673,8.79987,0,0,0,0,0,0,0,-1,1833,827,228.673,-8.79986
616,197,228.811,8.63806,0,0,0,0,0,0,0,-1,1840,827,228.811,-8.63806
623,197,228.698,8.83801,0,0,0,0,0,0,0,-1,1847,827,228.698,-8.838
630,197,228.702,8.83746,0,0,0,0,0,0,0,-1,1854,827,228.703,-8.83747
637,197,228.649,8.79773,0,0,0,0,0,0,0,-1,1861,827,228.649,-8.79774
644,197,228.58,8.78076,0,0,0,0,0,0,0,-1,1868,827,228.58,-8.78076
651,197,73.8147,2.2644,0,0,0,0,0,0,0,-1,1875,827,73.8147,-2.26442
658,197,40.4694,3.05927,0,0,0,0,0,0,0,-1,1882,827,40.4694,-3.05926
665,197,14.0618,1.80304,0,0,0,0,0,0,0,-1,1889,827,14.0617,-1.80303
672,197,73.9781,-2.86737,0,0,0,0,0,0,0,-1,1896,827,73.9782,2.86738
679,197,199.573,17.2822,0,0,0,0,0,0,0,-1,1903,827,199.573,-17.2821
686,197,199.058,19.1945,0,0,0,0,0,0,0,-1,1910,827,199.058,-19.1945
693,197,198.697,21.4502,0,0,0,0,0,0,0,-1,1917,827,198.697,-21.4502
700,197,197.878,23.1157,0,0,0,0,0,0,0,-1,1924,827,197.878,-23.1158
707,197,197.827,25.2091,-0.00819336,0.0264794,-0.0132778,0.0309799,-0.0126939,-1.244,0.0259413,0.0144237,1931,827,197.827,-25.2091
714,197,197.532,27.1348,-0.0104658,0.0333848,-0.0166628,0.038998,-0.016079,-1.24587,0.0327035,0.0179604,1938,827,197.533,-27.1348
721,197,197.123,29.0566,-0.0130544,0.0405832,-0.0200487,0.0472487,-0.0197199,-1.24983,0.0397383,0.020144,1945,827,197.123,-29.0566
728,197,196.796,30.8459,-0.0159336,0.0481029,-0.0234883,0.0557945,-0.0236252,-1.25434,0.0470901,0.020987,1952,827,196.796,-30.8459
735,197,196.487,32.5336,-0.019063,0.0559929,-0.0270287,0.0647132,-0.0277833,-1.25871,0.0548033,0.0326432,1959,827,196.486,-32.5336
742,197,196.141,34.1826,0,0,0,0,0,0,0,-1,1966,827,196.141,-34.1825
749,197,195.963,35.8399,0,0,0,0,0,0,0,-1,1973,827,195.963,-35.8399
756,197,121.426,24.1558,0,0,0,0,0,0,0,-1,1980,827,121.426,-24.1558
763,197,104.387,22.0678,0,0,0,0,0,0,0,-1,1987,827,104.387,-22.0678
770,197,101.281,21.3771,0,0,0,0,0,0,0,-1,1994,827,101.281,-21.3772
777,197,0,0,0,0,0,0,0,0,0,-1,2001,827,0,0
784,197,0,0,0,0,0,0,0,0,0,-1,2008,827,0,0
791,197,0,0,0,0,0,0,0,0,0,-1,2015,827,0,0
798,197,0,0,0,0,0,0,0,0,0,-1,2022,827,0,0
805,197,0,0,0,0,0,0,0,0,0,-1,2029,827,0,0
812,197,0,0,0,0,0,0,0,0,0,-1,2036,827,0,0
-700,190,0,0,0,0,0,0,0,0,0,-1,524,834,0,0
-693,190,0,0,0,0,0,0,0,0,0,-1,531,834,0,0
-686,190,0,0,0,0,0,0,0,0,0,-1,538,834,0,0
-679,190,0,0,0,0,0,0,0,0,0,-1,545,834,0,0
-672,190,0,0,0,0,0,0,0,0,0,-1,552,834,0,0
-665,190,0,0,0,0,0,0,0,0,0,-1,559,834,0,0
-658,190,-41.9736,5.50092,0,0,0,0,0,0,0,-1,566,834,-41.9736,-5.50089
-651,190,-40.1895,4.99677,0,0,0,0,0,0,0,-1,573,834,-40.1894,-4.99677
-644,190,-106.669,29.3985,0,0,0,0,0,0,0,-1,580,834,-106.669,-29.3985
-637,190,-64.9345,16.5327,0,0,0,0,0,0,0,-1,587,834,-64.9345,-16.5327
-630,190,-50.036,11.1152,0,0,0,0,0,0,0,-1,594,834,-50.036,-11.1152
-623,190,-188.832,37.6187,0,0,0,0,0,0,0,-1,601,834,-188.832,-37.6187
-616,190,-174.894,35.7552,0,0,0,0,0,0,0,-1,608,834,-174.894,-35.7553
-609,190,-189.674,34.262,0,0,0,0,0,0,0,-1,615,834,-189.674,-34.262
-602,190,-190.192,32.6382,-0.00748053,0.0497836,0.0196971,0.0559045,-0.0136015,1.2695,0.0425347,0.0349267,622,834,-190.192,-32.6382
-595,190,-190.699,30.7747,-0.00676756,0.0437325,0.0180955,0.0495471,-0.0125822,1.25989,0.0379276,0.0287184,629,834,-190.699,-30.7747
-588,190,-191.013,28.9805,-0.0048379,0.0375712,0.0164254,0.0431888,-0.0104555,1.24126,0.0328373,0.0291883,636,834,-191.013,-28.9805
-581,190,-191.271,27.0637,-0.00208301,0.0314603,0.0146368,0.036949,-0.00757172,1.21203,0.0275062,0.0225968,643,834,-191.271,-27.0636
-574,190,-191.58,25.1877,0.00128033,0.0254523,0.0127673,0.0309469,-0.00421421,1.16439,0.0221699,0.0215472,650,834,-191.58,-25.1877
-567,190,-191.754,23.0928,0.00582285,0.0195953,0.0106736,0.0254113,6.88434e-06,1.07188,0.0169386,0.0318745,657,834,-191.754,-23.0928
-560,190,-191.869,21.1371,0,0,0,0,0,0,0,-1,664,834,-191.869,-21.1371
-553,190,-192.335,19.1829,0,0,0,0,0,0,0,-1,671,834,-192.335,-19.1829
-546,190,-81.8255,2.11407,0,0,0,0,0,0,0,-1,678,834,-81.8255,-2.11409
-539,190,-16.4624,-0.542542,0,0,0,0,0,0,0,-1,685,834,-16.4624,0.542527
-532,190,-21.6292,2.06122,0,0,0,0,0,0,0,-1,692,834,-21.6292,-2.06123
-525,190,-38.9377,1.03369,0,0,0,0,0,0,0,-1,699,834,-38.9377,-1.0337
-518,190,-72.4769,0.710876,0,0,0,0,0,0,0,-1,706,834,-72.4768,-0.710856
-511,190,-72.7098,0.459412,0,0,0,0,0,0,0,-1,713,834,-72.7098,-0.459385
-504,190,-72.9623,0.199707,0,0,0,0,0,0,0,-1,720,834,-72.9624,-0.199699
-497,190,-71.3149,0.34845,0,0,0,0,0,0,0,-1,727,834,-71.3149,-0.348457
-490,190,-72.7162,1.22229,0,0,0,0,0,0,0,-1,734,834,-72.7163,-1.22232
-483,190,0,0,0,0,0,0,0,0,0,-1,741,834,0,0
-476,190,0,0,0,0,0,0,0,0,0,-1,748,834,0,0
-469,190,0,0,0,0,0,0,0,0,0,-1,755,834,0,0
-462,190,0,0,0,0,0,0,0,0,0,-1,762,834,0,0
-455,190,0,0,0,0,0,0,0,0,0,-1,769,834,0,0
-448,190,0,0,0,0,0,0,0,0,0,-1,776,834,0,0
-441,190,0,0,0,0,0,0,0,0,0,-1,783,834,0,0
-434,190,0,0,0,0,0,0,0,0,0,-1,790,834,0,0
-427,190,0,0,0,0,0,0,0,0,0,-1,797,834,0,0
-420,190,0,0,0,0,0,0,0,0,0,-1,804,834,0,0
-413,190,0,0,0,0,0,0,0,0,0,-1,811,834,0,0
-406,190,0,0,0,0,0,0,0,0,0,-1,818,834,0,0
-399,190,0,0,0,0,0,0,0,0,0,-1,825,834,0,0
-392,190,0,0,0,0,0,0,0,0,0,-1,832,834,0,0
-385,190,0,0,0,0,0,0,0,0,0,-1,839,834,0,0
-378,190,0,0,0,0,0,0,0,0,0,-1,846,834,0,0
-371,190,0,0,0,0,0,0,0,0,0,-1,853,834,0,0
-364,190,0,0,0,0,0,0,0,0,0,-1,860,834,0,0
-357,190,0,0,0,0,0,0,0,0,0,-1,867,834,0,0
-350,190,0,0,0,0,0,0,0,0,0,-1,874,834,0,0
-343,190,0,0,0,0,0,0,0,0,0,-1,881,834,0,0
-336,190,0,0,0,0,0,0,0,0,0,-1,888,834,0,0
-329,190,0,0,0,0,0,0,0,0,0,-1,895,834,0,0
-322,190,0,0,0,0,0,0,0,0,0,-1,902,834,0,0
-315,190,0,0,0,0,0,0,0,0,0,-1,909,834,0,0
-308,190,0,0,0,0,0,0,0,0,0,-1,916,834,0,0
-301,190,0,0,0,0,0,0,0,0,0,-1,923,834,0,0
-294,190,0,0,0,0,0,0,0,0,0,-1,930,834,0,0
-287,190,0,0,0,0,0,0,0,0,0,-1,937,834,0,0
-280,190,0,0,0,0,0,0,0,0,0,-1,944,834,0,0
-273,190,0,0,0,0,0,0,0,0,0,-1,951,834,0,0
-266,190,0,0,0,0,0,0,0,0,0,-1,958,834,0,0
-259,190,0,0,0,0,0,0,0,0,0,-1,965,834,0,0
-252,190,0,0,0,0,0,0,0,0,0,-1,972,834,0,0
-245,190,0,0,0,0,0,0,0,0,0,-1,979,834,0,0
-238,190,0,0,0,0,0,0,0,0,0,-1,986,834,0,0
-231,190,0,0,0,0,0,0,0,0,0,-1,993,834,0,0
-224,190,0,0,0,0,0,0,0,0,0,-1,1000,834,0,0
-217,190,0,0,0,0,0,0,0,0,0,-1,1007,834,0,0
-210,190,0,0,0,0,0,0,0,0,0,-1,1014,834,0,0
-203,190,0,0,0,0,0,0,0,0,0,-1,1021,834,0,0
-196,190,0,0,0,0,0,0,0,0,0,-1,1028,834,0,0
-189,190,0,0,0,0,0,0,0,0,0,-1,1035,834,0,0
-182,190,0,0,0,0,0,0,0,0,0,-1,1042,834,0,0
-175,190,0,0,0,0,0,0,0,0,0,-1,1049,834,0,0
-168,190,0,0,0,0,0,0,0,0,0,-1,1056,834,0,0
-161,190,0,0,0,0,0,0,0,0,0,-1,1063,834,0,0
-154,190,0,0,0,0,0,0,0,0,0,-1,1070,834,0,0
-147,190,0,0,0,0,0,0,0,0,0,-1,1077,834,0,0
-140,190,0,0,0,0,0,0,0,0,0,-1,1084,834,0,0
-133,190,0,0,0,0,0,0,0,0,0,-1,1091,834,0,0
-126,190,0,0,0,0,0,0,0,0,0,-1,1098,834,0,0
-119,190,0,0,0,0,0,0,0,0,0,-1,1105,834,0,0
-112,190,0,0,0,0,0,0,0,0,0,-1,1112,834,0,0
-105,190,0,0,0,0,0,0,0,0,0,-1,1119,834,0,0
-98,190,0,0,0,0,0,0,0,0,0,-1,1126,834,0,0
-91,190,0,0,0,0,0,0,0,0,0,-1,1133,834,0,0
-84,190,0,0,0,0,0,0,0,0,0,-1,1140,834,0,0
-77,190,0,0,0,0,0,0,0,0,0,-1,1147,834,0,0
-70,190,0,0,0,0,0,0,0,0,0,-1,1154,834,0,0
-63,190,0,0,0,0,0,0,0,0,0,-1,1161,834,0,0
-56,190,0,0,0,0,0,0,0,0,0,-1,1168,834,0,0
-49,190,0,0,0,0,0,0,0,0,0,-1,1175,834,0,0
-42,190,0,0,0,0,0,0,0,0,0,-1,1182,834,0,0
-35,190,0,0,0,0,0,0,0,0,0,-1,1189,834,0,0
-28,190,0,0,0,0,0,0,0,0,0,-1,1196,834,0,0
-21,190,0,0,0,0,0,0,0,0,0,-1,1203,834,0,0
-14,190,0,0,0,0,0,0,0,0,0,-1,1210,834,0,0
-7,190,0,0,0,0,0,0,0,0,0,-1,1217,834,0,0
0,190,0,0,0,0,0,0,0,0,0,-1,1224,834,0,0
7,190,0,0,0,0,0,0,0,0,0,-1,1231,834,0,0
14,190,0,0,0,0,0,0,0,0,0,-1,1238,834,0,0
21,190,0,0,0,0,0,0,0,0,0,-1,1245,834,0,0
28,190,0,0,0,0,0,0,0,0,0,-1,1252,834,0,0
35,190,0,0,0,0,0,0,0,0,0,-1,1259,834,0,0
42,190,0,0,0,0,0,0,0,0,0,-1,1266,834,0,0
49,190,0,0,0,0,0,0,0,0,0,-1,1273,834,0,0
56,190,0,0,0,0,0,0,0,0,0,-1,1280,834,0,0
63,190,0,0,0,0,0,0,0,0,0,-1,1287,834,0,0
70,190,0,0,0,0,0,0,0,0,0,-1,1294,834,0,0
77,190,0,0,0,0,0,0,0,0,0,-1,1301,834,0,0
84,190,0,0,0,0,0,0,0,0,0,-1,1308,834,0,0
91,190,0,0,0,0,0,0,0,0,0,-1,1315,834,0,0
98,190,0,0,0,0,0,0,0,0,0,-1,1322,834,0,0
105,190,0,0,0,0,0,0,0,0,0,-1,1329,834,0,0
112,190,0,0,0,0,0,0,0,0,0,-1,1336,834,0,0
119,190,0,0,0,0,0,0,0,0,0,-1,1343,834,0,0
126,190,0,0,0,0,0,0,0,0,0,-1,1350,834,0,0
133,190,0,0,0,0,0,0,0,0,0,-1,1357,834,0,0
140,190,0,0,0,0,0,0,0,0,0,-1,1364,834,0,0
147,190,0,0,0,0,0,0,0,0,0,-1,1371,834,0,0
154,190,0,0,0,0,0,0,0,0,0,-1,1378,834,0,0
161,190,0,0,0,0,0,0,0,0,0,-1,1385,834,0,0
168,190,0,0,0,0,0,0,0,0,0,-1,1392,834,0,0
175,190,0,0,0,0,0,0,0,0,0,-1,1399,834,0,0
182,190,0,0,0,0,0,0,0,0,0,-1,1406,834,0,0
189,190,0,0,0,0,0,0,0,0,0,-1,1413,834,0,0
196,190,0,0,0,0,0,0,0,0,0,-1,1420,834,0,0
203,190,0,0,0,0,0,0,0,0,0,-1,1427,834,0,0
210,190,0,0,0,0,0,0,0,0,0,-1,1434,834,0,0
217,190,0,0,0,0,0,0,0,0,0,-1,1441,834,0,0
224,190,0,0,0,0,0,0,0,0,0,-1,1448,834,0,0
231,190,0,0,0,0,0,0,0,0,0,-1,1455,834,0,0
238,190,0,0,0,0,0,0,0,0,0,-1,1462,834,0,0
245,190,0,0,0,0,0,0,0,0,0,-1,1469,834,0,0
252,190,0,0,0,0,0,0,0,0,0,-1,1476,834,0,0
259,190,0,0,0,0,0,0,0,0,0,-1,1483,834,0,0
266,190,0,0,0,0,0,0,0,0,0,-1,1490,834,0,0
273,190,0,0,0,0,0,0,0,0,0,-1,1497,834,0,0
280,190,0,0,0,0,0,0,0,0,0,-1,1504,834,0,0
287,190,0,0,0,0,0,0,0,0,0,-1,1511,834,0,0
294,190,0,0,0,0,0,0,0,0,0,-1,1518,834,0,0
301,190,0,0,0,0,0,0,0,0,0,-1,1525,834,0,0
308,190,0,0,0,0,0,0,0,0,0,-1,1532,834,0,0
315,190,0,0,0,0,0,0,0,0,0,-1,1539,834,0,0
322,190,0,0,0,0,0,0,0,0,0,-1,1546,834,0,0
329,190,0,0,0,0,0,0,0,0,0,-1,1553,834,0,0
336,190,0,0,0,0,0,0,0,0,0,-1,1560,834,0,0
343,190,0,0,0,0,0,0,0,0,0,-1,1567,834,0,0
350,190,0,0,0,0,0,0,0,0,0,-1,1574,834,0,0
357,190,0,0,0,0,0,0,0,0,0,-1,1581,834,0,0
364,190,0,0,0,0,0,0,0,0,0,-1,1588,834,0,0
371,190,0,0,0,0,0,0,0,0,0,-1,1595,834,0,0
378,190,0,0,0,0,0,0,0,0,0,-1,1602,834,0,0
385,190,0,0,0,0,0,0,0,0,0,-1,1609,834,0,0
392,190,0,0,0,0,0,0,0,0,0,-1,1616,834,0,0
399,190,0,0,0,0,0,0,0,0,0,-1,1623,834,0,0
406,190,0,0,0,0,0,0,0,0,0,-1,1630,834,0,0
413,190,0,0,0,0,0,0,0,0,0,-1,1637,834,0,0
420,190,0,0,0,0,0,0,0,0,0,-1,1644,834,0,0
427,190,0,0,0,0,0,0,0,0,0,-1,1651,834,0,0
434,190,0,0,0,0,0,0,0,0,0,-1,1658,834,0,0
441,190,0,0,0,0,0,0,0,0,0,-1,1665,834,0,0
448,190,0,0,0,0,0,0,0,0,0,-1,1672,834,0,0
455,190,0,0,0,0,0,0,0,0,0,-1,1679,834,0,0
462,190,0,0,0,0,0,0,0,0,0,-1,1686,834,0,0
469,190,0,0,0,0,0,0,0,0,0,-1,1693,834,0,0
476,190,0,0,0,0,0,0,0,0,0,-1,1700,834,0,0
483,190,0,0,0,0,0,0,0,0,0,-1,1707,834,0,0
490,190,0,0,0,0,0,0,0,0,0,-1,1714,834,0,0
497,190,0,0,0,0,0,0,0,0,0,-1,1721,834,0,0
504,190,0,0,0,0,0,0,0,0,0,-1,1728,834,0,0
511,190,0,0,0,0,0,0,0,0,0,-1,1735,834,0,0
518,190,0,0,0,0,0,0,0,0,0,-1,1742,834,0,0
525,190,0,0,0,0,0,0,0,0,0,-1,1749,834,0,0
532,190,0,0,0,0,0,0,0,0,0,-1,1756,834,0,0
539,190,0,0,0,0,0,0,0,0,0,-1,1763,834,0,0
546,190,0,0,0,0,0,0,0,0,0,-1,1770,834,0,0
553,190,0,0,0,0,0,0,0,0,0,-1,1777,834,0,0
560,190,0,0,0,0,0,0,0,0,0,-1,1784,834,0,0
567,190,0,0,0,0,0,0,0,0,0,-1,1791,834,0,0
574,190,0,0,0,0,0,0,0,0,0,-1,1798,834,0,0
581,190,0,0,0,0,0,0,0,0,0,-1,1805,834,0,0
588,190,0,0,0,0,0,0,0,0,0,-1,1812,834,0,0
595,190,0,0,0,0,0,0,0,0,0,-1,1819,834,0,0
602,190,228.542,8.76239,0,0,0,0,0,0,0,-1,1826,834,228.542,-8.76237
609,190,228.626,8.78217,0,0,0,0,0,0,0,-1,1833,834,228.626,-8.78219
616,190,228.75,8.71606,0,0,0,0,0,0,0,-1,1840,834,228.75,-8.71608
623,190,228.715,9.0022,0,0,0,0,0,0,0,-1,1847,834,228.715,-9.00219
630,190,228.702,9.01001,0,0,0,0,0,0,0,-1,1854,834,228.702,-9.01004
637,190,228.693,8.85406,0,0,0,0,0,0,0,-1,1861,834,228.693,-8.85408
644,190,228.628,8.8457,0,0,0,0,0,0,0,-1,1868,834,228.628,-8.84573
651,190,166.686,6.40106,0,0,0,0,0,0,0,-1,1875,834,166.686,-6.40108
658,190,54.0599,3.0943,0,0,0,0,0,0,0,-1,1882,834,54.0599,-3.09428
665,190,25.9916,3.05157,0,0,0,0,0,0,0,-1,1889,834,25.9916,-3.05156
672,190,27.2662,1.70862,0,0,0,0,0,0,0,-1,1896,834,27.2662,-1.70861
679,190,201.876,17.6417,0,0,0,0,0,0,0,-1,1903,834,201.876,-17.6417
686,190,201.301,19.5711,0,0,0,0,0,0,0,-1,1910,834,201.301,-19.5711
693,190,200.708,21.6298,-0.00453696,0.0110153,-0.00556819,0.0128033,-0.00632498,-1.26008,0.0112529,0.0438664,1917,834,200.708,-21.6298
700,190,200.266,23.509,-0.00588605,0.0169892,-0.00870564,0.0199254,-0.00882228,-1.2455,0.0170051,0.039531,1924,834,200.266,-23.509
707,190,199.859,25.411,-0.00788201,0.0237779,-0.0119243,0.0277665,-0.0118706,-1.248,0.0234899,0.0230736,1931,834,199.859,-25.411
714,190,199.649,27.2468,-0.0101975,0.0307862,-0.0151503,0.0357786,-0.0151899,-1.25248,0.0302164,0.0206691,1938,834,199.649,-27.2467
721,190,199.4,29.1003,-0.012905,0.0380385,-0.0184431,0.0440144,-0.0188809,-1.25745,0.0372666,0.0186973,1945,834,199.4,-29.1004
728,190,199.053,30.8715,-0.0159615,0.0455699,-0.0218488,0.0525388,-0.0229304,-1.26204,0.0446759,0.0217979,1952,834,199.053,-30.8715
735,190,198.667,32.524,-0.019303,0.0534343,-0.0254057,0.0614292,-0.0272979,-1.26592,0.0524748,0.0204665,1959,834,198.667,-32.524
742,190,198.536,34.16,0,0,0,0,0,0,0,-1,1966,834,198.536,-34.16
749,190,198.45,35.6962,0,0,0,0,0,0,0,-1,1973,834,198.45,-35.6962
756,190,173.624,35.8187,0,0,0,0,0,0,0,-1,1980,834,173.624,-35.8187
763,190,122.597,25.3192,0,0,0,0,0,0,0,-1,1987,834,122.597,-25.3191
770,190,106.929,24.4991,0,0,0,0,0,0,0,-1,1994,834,106.929,-24.4992
777,190,51.4365,10.3331,0,0,0,0,0,0,0,-1,2001,834,51.4366,-10.3331
784,190,0,0,0,0,0,0,0,0,0,-1,2008,834,0,0
791,190,0,0,0,0,0,0,0,0,0,-1,2015,834,0,0
798,190,0,0,0,0,0,0,0,0,0,-1,2022,834,0,0
805,190,0,0,0,0,0,0,0,0,0,-1,2029,834,0,0
812,190,0,0,0,0,0,0,0,0,0,-1,2036,834,0,0
-700,183,0,0,0,0,0,0,0,0,0,-1,524,841,0,0
-693,183,0,0,0,0,0,0,0,0,0,-1,531,841,0,0
-686,183,0,0,0,0,0,0,0,0,0,-1,538,841,0,0
-679,183,0,0,0,0,0,0,0,0,0,-1,545,841,0,0
-672,183,0,0,0,0,0,0,0,0,0,-1,552,841,0,0
-665,183,0,0,0,0,0,0,0,0,0,-1,559,841,0,0
-658,183,-56.7401,1.32843,0,0,0,0,0,0,0,-1,566,841,-56.7401,-1.32844
-651,183,-107.228,30.9319,0,0,0,0,0,0,0,-1,573,841,-107.228,-30.9319
-644,183,-131.669,32.186,0,0,0,0,0,0,0,-1,580,841,-131.669,-32.186
-637,183,-108.134,28.3177,0,0,0,0,0,0,0,-1,587,841,-108.134,-28.3177
-630,183,-190.475,38.7462,0,0,0,0,0,0,0,-1,594,841,-190.475,-38.7462
-623,183,-191.825,37.6374,0,0,0,0,0,0,0,-1,601,841,-191.825,-37.6374
-616,183,-191.229,36.1565,0,0,0,0,0,0,0,-1,608,841,-191.229,-36.1565
-609,183,-191.976,34.3719,0,0,0,0,0,0,0,-1,615,841,-191.976,-34.3719
-602,183,-192.429,32.574,-0.00573376,0.0467595,0.0183341,0.0525288,-0.0115031,1.26593,0.0394171,0.0215016,622,841,-192.429,-32.574
-595,183,-192.832,30.8145,-0.00516342,0.0408619,0.0168939,0.0463972,-0.0106987,1.25417,0.0350463,0.0171689,629,841,-192.832,-30.8145
-588,183,-193.086,29.036,-0.00319107,0.0347409,0.0153979,0.0402045,-0.00865466,1.22983,0.0301054,0.0211522,636,841,-193.086,-29.036
-581,183,-193.384,27.1935,-0.000103131,0.0284782,0.0138614,0.0340964,-0.00572126,1.18572,0.0248584,0.0223004,643,841,-193.384,-27.1936
-574,183,-193.644,25.2892,0.00384427,0.0221883,0.0122859,0.0283482,-0.00231569,1.10604,0.0197161,0.0294481,650,841,-193.644,-25.2892
-567,183,-193.632,23.3184,0.00995903,0.0157124,0.0105224,0.0237443,0.00192715,0.91883,0.0152278,0.0377264,657,841,-193.632,-23.3184
-560,183,-193.771,21.3375,0,0,0,0,0,0,0,-1,664,841,-193.771,-21.3375
-553,183,-193.464,18.8489,0,0,0,0,0,0,0,-1,671,841,-193.464,-18.8489
-546,183,-27.8053,-1.91199,0,0,0,0,0,0,0,-1,678,841,-27.8053,1.91201
-539,183,-16.8032,-0.417297,0,0,0,0,0,0,0,-1,685,841,-16.8032,0.41732
-532,183,-29.9686,0.953613,0,0,0,0,0,0,0,-1,692,841,-29.9686,-0.953627
-525,183,-55.6847,0.842468,0,0,0,0,0,0,0,-1,699,841,-55.6847,-0.842446
-518,183,-72.6883,0.389221,0,0,0,0,0,0,0,-1,706,841,-72.6883,-0.389223
-511,183,-72.7325,0.370056,0,0,0,0,0,0,0,-1,713,841,-72.7325,-0.370065
-504,183,-72.9583,0.115173,0,0,0,0,0,0,0,-1,720,841,-72.9583,-0.115146
-497,183,-73.1502,-0.125122,0,0,0,0,0,0,0,-1,727,841,-73.1502,0.125119
-490,183,-72.6449,0.85791,0,0,0,0,0,0,0,-1,734,841,-72.6449,-0.857887
-483,183,0,0,0,0,0,0,0,0,0,-1,741,841,0,0
-476,183,0,0,0,0,0,0,0,0,0,-1,748,841,0,0
-469,183,0,0,0,0,0,0,0,0,0,-1,755,841,0,0
-462,183,0,0,0,0,0,0,0,0,0,-1,762,841,0,0
-455,183,0,0,0,0,0,0,0,0,0,-1,769,841,0,0
-448,183,0,0,0,0,0,0,0,0,0,-1,776,841,0,0
-441,183,0,0,0,0,0,0,0,0,0,-1,783,841,0,0
-434,183,0,0,0,0,0,0,0,0,0,-1,790,841,0,0
-427,183,0,0,0,0,0,0,0,0,0,-1,797,841,0,0
-420,183,0,0,0,0,0,0,0,0,0,-1,804,841,0,0
-413,183,0,0,0,0,0,0,0,0,0,-1,811,841,0,0
-406,183,0,0,0,0,0,0,0,0,0,-1,818,841,0,0
-399,183,0,0,0,0,0,0,0,0,0,-1,825,841,0,0
-392,183,0,0,0,0,0,0,0,0,0,-1,832,841,0,0
-385,183,0,0,0,0,0,0,0,0,0,-1,839,841,0,0
-378,183,0,0,0,0,0,0,0,0,0,-1,846,841,0,0
-371,183,0,0,0,0,0,0,0,0,0,-1,853,841,0,0
-364,183,0,0,0,0,0,0,0,0,0,-1,860,841,0,0
-357,183,0,0,0,0,0,0,0,0,0,-1,867,841,0,0
-350,183,0,0,0,0,0,0,0,0,0,-1,874,841,0,0
-343,183,0,0,0,0,0,0,0,0,0,-1,881,841,0,0
-336,183,0,0,0,0,0,0,0,0,0,-1,888,841,0,0
-329,183,0,0,0,0,0,0,0,0,0,-1,895,841,0,0
-322,183,0,0,0,0,0,0,0,0,0,-1,902,841,0,0
-315,183,0,0,0,0,0,0,0,0,0,-1,909,841,0,0
-308,183,0,0,0,0,0,0,0,0,0,-1,916,841,0,0
-301,183,0,0,0,0,0,0,0,0,0,-1,923,841,0,0
-294,183,0,0,0,0,0,0,0,0,0,-1,930,841,0,0
-287,183,0,0,0,0,0,0,0,0,0,-1,937,841,0,0
-280,183,0,0,0,0,0,0,0,0,0,-1,944,841,0,0
-273,183,0,0,0,0,0,0,0,0,0,-1,951,841,0,0
-266,183,0,0,0,0,0,0,0,0,0,-1,958,841,0,0
-259,183,0,0,0,0,0,0,0,0,0,-1,965,841,0,0
-252,183,0,0,0,0,0,0,0,0,0,-1,972,841,0,0
-245,183,0,0,0,0,0,0,0,0,0,-1,979,841,0,0
-238,183,0,0,0,0,0,0,0,0,0,-1,986,841,0,0
-231,183,0,0,0,0,0,0,0,0,0,-1,993,841,0,0
-224,183,0,0,0,0,0,0,0,0,0,-1,1000,841,0,0
-217,183,0,0,0,0,0,0,0,0,0,-1,1007,841,0,0
-210,183,0,0,0,0,0,0,0,0,0,-1,1014,841,0,0
-203,183,0,0,0,0,0,0,0,0,0,-1,1021,841,0,0
-196,183,0,0,0,0,0,0,0,0,0,-1,1028,841,0,0
-189,183,0,0,0,0,0,0,0,0,0,-1,1035,841,0,0
-182,183,0,0,0,0,0,0,0,0,0,-1,1042,841,0,0
-175,183,0,0,0,0,0,0,0,0,0,-1,1049,841,0,0
-168,183,0,0,0,0,0,0,0,0,0,-1,1056,841,0,0
-161,183,0,0,0,0,0,0,0,0,0,-1,1063,841,0,0
-154,183,0,0,0,0,0,0,0,0,0,-1,1070,841,0,0
-147,183,0,0,0,0,0,0,0,0,0,-1,1077,841,0,0
-140,183,0,0,0,0,0,0,0,0,0,-1,1084,841,0,0
-133,183,0,0,0,0,0,0,0,0,0,-1,1091,841,0,0
-126,183,0,0,0,0,0,0,0,0,0,-1,1098,841,0,0
-119,183,0,0,0,0,0,0,0,0,0,-1,1105,841,0,0
-112,183,0,0,0,0,0,0,0,0,0,-1,1112,841,0,0
-105,183,0,0,0,0,0,0,0,0,0,-1,1119,841,0,0
-98,183,0,0,0,0,0,0,0,0,0,-1,1126,841,0,0
-91,183,0,0,0,0,0,0,0,0,0,-1,1133,841,0,0
-84,183,0,0,0,0,0,0,0,0,0,-1,1140,841,0,0
-77,183,0,0,0,0,0,0,0,0,0,-1,1147,841,0,0
-70,183,0,0,0,0,0,0,0,0,0,-1,1154,841,0,0
-63,183,0,0,0,0,0,0,0,0,0,-1,1161,841,0,0
-56,183,0,0,0,0,0,0,0,0,0,-1,1168,841,0,0
-49,183,0,0,0,0,0,0,0,0,0,-1,1175,841,0,0
-42,183,0,0,0,0,0,0,0,0,0,-1,1182,841,0,0
-35,183,0,0,0,0,0,0,0,0,0,-1,1189,841,0,0
-28,183,0,0,0,0,0,0,0,0,0,-1,1196,841,0,0
-21,183,0,0,0,0,0,0,0,0,0,-1,1203,841,0,0
-14,183,0,0,0,0,0,0,0,0,0,-1,1210,841,0,0
-7,183,0,0,0,0,0,0,0,0,0,-1,1217,841,0,0
0,183,0,0,0,0,0,0,0,0,0,-1,1224,841,0,0
7,183,0,0,0,0,0,0,0,0,0,-1,1231,841,0,0
14,183,0,0,0,0,0,0,0,0,0,-1,1238,841,0,0
21,183,0,0,0,0,0,0,0,0,0,-1,1245,841,0,0
28,183,0,0,0,0,0,0,0,0,0,-1,1252,841,0,0
35,183,0,0,0,0,0,0,0,0,0,-1,1259,841,0,0
42,183,0,0,0,0,0,0,0,0,0,-1,1266,841,0,0
49,183,0,0,0,0,0,0,0,0,0,-1,1273,841,0,0
56,183,0,0,0,0,0,0,0,0,0,-1,1280,841,0,0
63,183,0,0,0,0,0,0,0,0,0,-1,1287,841,0,0
70,183,0,0,0,0,0,0,0,0,0,-1,1294,841,0,0
77,183,0,0,0,0,0,0,0,0,0,-1,1301,841,0,0
84,183,0,0,0,0,0,0,0,0,0,-1,1308,841,0,0
91,183,0,0,0,0,0,0,0,0,0,-1,1315,841,0,0
98,183,0,0,0,0,0,0,0,0,0,-1,1322,841,0,0
105,183,0,0,0,0,0,0,0,0,0,-1,1329,841,0,0
112,183,0,0,0,0,0,0,0,0,0,-1,1336,841,0,0
119,183,0,0,0,0,0,0,0,0,0,-1,1343,841,0,0
126,183,0,0,0,0,0,0,0,0,0,-1,1350,841,0,0
133,183,0,0,0,0,0,0,0,0,0,-1,1357,841,0,0
140,183,0,0,0,0,0,0,0,0,0,-1,1364,841,0,0
147,183,0,0,0,0,0,0,0,0,0,-1,1371,841,0,0
154,183,0,0,0,0,0,0,0,0,0,-1,1378,841,0,0
161,183,0,0,0,0,0,0,0,0,0,-1,1385,841,0,0
168,183,0,0,0,0,0,0,0,0,0,-1,1392,841,0,0
175,183,0,0,0,0,0,0,0,0,0,-1,1399,841,0,0
182,183,0,0,0,0,0,0,0,0,0,-1,1406,841,0,0
189,183,0,0,0,0,0,0,0,0,0,-1,1413,841,0,0
196,183,0,0,0,0,0,0,0,0,0,-1,1420,841,0,0
203,183,0,0,0,0,0,0,0,0,0,-1,1427,841,0,0
210,183,0,0,0,0,0,0,0,0,0,-1,1434,841,0,0
217,183,0,0,0,0,0,0,0,0,0,-1,1441,841,0,0
224,183,0,0,0,0,0,0,0,0,0,-1,1448,841,0,0
231,183,0,0,0,0,0,0,0,0,0,-1,1455,841,0,0
238,183,0,0,0,0,0,0,0,0,0,-1,1462,841,0,0
245,183,0,0,0,0,0,0,0,0,0,-1,1469,841,0,0
252,183,0,0,0,0,0,0,0,0,0,-1,1476,841,0,0
259,183,0,0,0,0,0,0,0,0,0,-1,1483,841,0,0
266,183,0,0,0,0,0,0,0,0,0,-1,1490,841,0,0
273,183,0,0,0,0,0,0,0,0,0,-1,1497,841,0,0
280,183,0,0,0,0,0,0,0,0,0,-1,1504,841,0,0
287,183,0,0,0,0,0,0,0,0,0,-1,1511,841,0,0
294,183,0,0,0,0,0,0,0,0,0,-1,1518,841,0,0
301,183,0,0,0,0,0,0,0,0,0,-1,1525,841,0,0
308,183,0,0,0,0,0,0,0,0,0,-1,1532,841,0,0
315,183,0,0,0,0,0,0,0,0,0,-1,1539,841,0,0
322,183,0,0,0,0,0,0,0,0,0,-1,1546,841,0,0
329,183,0,0,0,0,0,0,0,0,0,-1,1553,841,0,0
336,183,0,0,0,0,0,0,0,0,0,-1,1560,841,0,0
343,183,0,0,0,0,0,0,0,0,0,-1,1567,841,0,0
350,183,0,0,0,0,0,0,0,0,0,-1,1574,841,0,0
357,183,0,0,0,0,0,0,0,0,0,-1,1581,841,0,0
364,183,0,0,0,0,0,0,0,0,0,-1,1588,841,0,0
371,183,0,0,0,0,0,0,0,0,0,-1,1595,841,0,0
378,183,0,0,0,0,0,0,0,0,0,-1,1602,841,0,0
385,183,0,0,0,0,0,0,0,0,0,-1,1609,841,0,0
392,183,0,0,0,0,0,0,0,0,0,-1,1616,841,0,0
399,183,0,0,0,0,0,0,0,0,0,-1,1623,841,0,0
406,183,0,0,0,0,0,0,0,0,0,-1,1630,841,0,0
413,183,0,0,0,0,0,0,0,0,0,-1,1637,841,0,0
420,183,0,0,0,0,0,0,0,0,0,-1,1644,841,0,0
427,183,0,0,0,0,0,0,0,0,0,-1,1651,841,0,0
434,183,0,0,0,0,0,0,0,0,0,-1,1658,841,0,0
441,183,0,0,0,0,0,0,0,0,0,-1,1665,841,0,0
448,183,0,0,0,0,0,0,0,0,0,-1,1672,841,0,0
455,183,0,0,0,0,0,0,0,0,0,-1,1679,841,0,0
462,183,0,0,0,0,0,0,0,0,0,-1,1686,841,0,0
469,183,0,0,0,0,0,0,0,0,0,-1,1693,841,0,0
476,183,0,0,0,0,0,0,0,0,0,-1,1700,841,0,0
483,183,0,0,0,0,0,0,0,0,0,-1,1707,841,0,0
490,183,0,0,0,0,0,0,0,0,0,-1,1714,841,0,0
497,183,0,0,0,0,0,0,0,0,0,-1,1721,841,0,0
504,183,0,0,0,0,0,0,0,0,0,-1,1728,841,0,0
511,183,0,0,0,0,0,0,0,0,0,-1,1735,841,0,0
518,183,0,0,0,0,0,0,0,0,0,-1,1742,841,0,0
525,183,0,0,0,0,0,0,0,0,0,-1,1749,841,0,0
532,183,0,0,0,0,0,0,0,0,0,-1,1756,841,0,0
539,183,0,0,0,0,0,0,0,0,0,-1,1763,841,0,0
546,183,0,0,0,0,0,0,0,0,0,-1,1770,841,0,0
553,183,0,0,0,0,0,0,0,0,0,-1,1777,841,0,0
560,183,0,0,0,0,0,0,0,0,0,-1,1784,841,0,0
567,183,0,0,0,0,0,0,0,0,0,-1,1791,841,0,0
574,183,0,0,0,0,0,0,0,0,0,-1,1798,841,0,0
581,183,0,0,0,0,0,0,0,0,0,-1,1805,841,0,0
588,183,0,0,0,0,0,0,0,0,0,-1,1812,841,0,0
595,183,0,0,0,0,0,0,0,0,0,-1,1819,841,0,0
602,183,0,0,0,0,0,0,0,0,0,-1,1826,841,0,0
609,183,228.576,8.90735,0,0,0,0,0,0,0,-1,1833,841,228.576,-8.90734
616,183,228.636,8.96411,0,0,0,0,0,0,0,-1,1840,841,228.636,-8.96412
623,183,228.72,9.13092,0,0,0,0,0,0,0,-1,1847,841,228.72,-9.13091
630,183,228.737,9.01227,0,0,0,0,0,0,0,-1,1854,841,228.737,-9.01228
637,183,228.699,8.82837,0,0,0,0,0,0,0,-1,1861,841,228.699,-8.82835
644,183,228.592,8.79633,0,0,0,0,0,0,0,-1,1868,841,228.592,-8.79635
651,183,228.564,8.8468,0,0,0,0,0,0,0,-1,1875,841,228.564,-8.84679
658,183,83.877,2.72919,0,0,0,0,0,0,0,-1,1882,841,83.8769,-2.72919
665,183,38.4337,2.66992,0,0,0,0,0,0,0,-1,1889,841,38.4337,-2.6699
672,183,29.168,1.54572,0,0,0,0,0,0,0,-1,1896,841,29.168,-1.54574
679,183,78.9729,-1.12219,0,0,0,0,0,0,0,-1,1903,841,78.9729,1.12222
686,183,203.491,20.1309,0,0,0,0,0,0,0,-1,1910,841,203.491,-20.1309
693,183,202.672,21.8141,-0.00380577,0.00875446,-0.00536144,0.0107318,-0.00578307,-1.21747,0.00967648,0.0384878,1917,841,202.672,-21.8141
700,183,202.376,23.8286,-0.00494763,0.0147036,-0.00799551,0.0175457,-0.00778973,-1.22926,0.0149845,0.0450309,1924,841,202.376,-23.8285
707,183,201.88,25.5509,-0.00702617,0.0214769,-0.0109027,0.025169,-0.0107183,-1.24427,0.0212721,0.0224024,1931,841,201.88,-25.5509
714,183,201.846,27.314,-0.00946077,0.0283786,-0.013854,0.0329086,-0.0139908,-1.25477,0.027802,0.0284005,1938,841,201.846,-27.314
721,183,201.797,29.1851,-0.0123567,0.0354737,-0.0168919,0.0408377,-0.0177208,-1.26332,0.0346758,0.0266702,1945,841,201.797,-29.1851
728,183,201.374,30.9993,-0.0156401,0.0427894,-0.020067,0.0490174,-0.021868,-1.26986,0.0419143,0.0235824,1952,841,201.374,-30.9993
735,183,200.93,32.5991,-0.0192036,0.0503859,-0.0233969,0.0575207,-0.0263384,-1.27481,0.0495193,0.0237526,1959,841,200.93,-32.5991
742,183,200.476,34.1409,0,0,0,0,0,0,0,-1,1966,841,200.476,-34.1409
749,183,200.22,35.7086,0,0,0,0,0,0,0,-1,1973,841,200.22,-35.7086
756,183,199.896,37.2243,0,0,0,0,0,0,0,-1,1980,841,199.896,-37.2243
763,183,174.226,37.3138,0,0,0,0,0,0,0,-1,1987,841,174.226,-37.3138
770,183,51.5659,9.50665,0,0,0,0,0,0,0,-1,1994,841,51.5659,-9.50663
777,183,42.1948,7.22906,0,0,0,0,0,0,0,-1,2001,841,42.1948,-7.22905
784,183,0,0,0,0,0,0,0,0,0,-1,2008,841,0,0
791,183,0,0,0,0,0,0,0,0,0,-1,2015,841,0,0
798,183,0,0,0,0,0,0,0,0,0,-1,2022,841,0,0
805,183,0,0,0,0,0,0,0,0,0,-1,2029,841,0,0
812,183,0,0,0,0,0,0,0,0,0,-1,2036,841,0,0
-700,176,0,0,0,0,0,0,0,0,0,-1,524,848,0,0
-693,176,0,0,0,0,0,0,0,0,0,-1,531,848,0,0
-686,176,0,0,0,0,0,0,0,0,0,-1,538,848,0,0
-679,176,0,0,0,0,0,0,0,0,0,-1,545,848,0,0
-672,176,0,0,0,0,0,0,0,0,0,-1,552,848,0,0
-665,176,-59.6962,8.75854,0,0,0,0,0,0,0,-1,559,848,-59.6962,-8.75853
-658,176,-59.6349,7.95142,0,0,0,0,0,0,0,-1,566,848,-59.6349,-7.95144
-651,176,-133.25,33.5839,0,0,0,0,0,0,0,-1,573,848,-133.25,-33.5838
-644,176,-133.137,32.3544,0,0,0,0,0,0,0,-1,580,848,-133.137,-32.3544
-637,176,-133.18,31.4319,0,0,0,0,0,0,0,-1,587,848,-133.18,-31.4319
-630,176,-193.673,39.2216,0,0,0,0,0,0,0,-1,594,848,-193.673,-39.2216
-623,176,-195.286,37.3124,0,0,0,0,0,0,0,-1,601,848,-195.286,-37.3124
-616,176,-194.626,35.6324,0,0,0,0,0,0,0,-1,608,848,-194.626,-35.6324
-609,176,-194.439,34.2298,-0.0031479,0.0493294,0.0184896,0.0551895,-0.00900803,1.26387,0.0401341,0.0261463,615,848,-194.439,-34.2298
-602,176,-194.629,32.624,-0.00452433,0.0439651,0.0172441,0.0494721,-0.0100313,1.26168,0.036784,0.0181799,622,848,-194.629,-32.624
-595,176,-194.915,30.8591,-0.00399701,0.0382247,0.0158985,0.0435417,-0.00931399,1.24806,0.0325793,0.0171204,629,848,-194.915,-30.8592
-588,176,-195.157,29.1347,-0.00188484,0.0322023,0.0145164,0.0375464,-0.00722895,1.21805,0.0277561,0.0233574,636,848,-195.157,-29.1347
-581,176,-195.413,27.3901,0.00155184,0.0259892,0.0131162,0.0316963,-0.00415521,1.16039,0.0226434,0.0276956,643,848,-195.413,-27.3901
-574,176,-195.805,25.6273,0.00607362,0.0196949,0.0117079,0.0264289,-0.000660451,1.04883,0.0178435,0.0351019,650,848,-195.805,-25.6273
-567,176,-195.793,23.6646,0.0138263,0.0130194,0.0101073,0.0235382,0.00330748,0.76545,0.0147141,0.0342344,657,848,-195.794,-23.6646
-560,176,-195.938,21.592,0,0,0,0,0,0,0,-1,664,848,-195.938,-21.5921
-553,176,-130.914,10.5666,0,0,0,0,0,0,0,-1,671,848,-130.914,-10.5666
-546,176,-16.657,-0.403198,0,0,0,0,0,0,0,-1,678,848,-16.657,0.403182
-539,176,-22.7061,1.48657,0,0,0,0,0,0,0,-1,685,848,-22.7061,-1.48657
-532,176,-38.8326,1.29749,0,0,0,0,0,0,0,-1,692,848,-38.8326,-1.29747
-525,176,-72.6287,0.52948,0,0,0,0,0,0,0,-1,699,848,-72.6287,-0.529456
-518,176,-72.6528,0.501587,0,0,0,0,0,0,0,-1,706,848,-72.6528,-0.501577
-511,176,-72.6872,0.485535,0,0,0,0,0,0,0,-1,713,848,-72.6872,-0.485559
-504,176,-72.8505,0.407227,0,0,0,0,0,0,0,-1,720,848,-72.8506,-0.407217
-497,176,-72.7821,0.65387,0,0,0,0,0,0,0,-1,727,848,-72.7821,-0.653851
-490,176,-72.6411,0.631165,0,0,0,0,0,0,0,-1,734,848,-72.641,-0.631162
-483,176,0,0,0,0,0,0,0,0,0,-1,741,848,0,0
-476,176,0,0,0,0,0,0,0,0,0,-1,748,848,0,0
-469,176,0,0,0,0,0,0,0,0,0,-1,755,848,0,0
-462,176,0,0,0,0,0,0,0,0,0,-1,762,848,0,0
-455,176,0,0,0,0,0,0,0,0,0,-1,769,848,0,0
-448,176,0,0,0,0,0,0,0,0,0,-1,776,848,0,0
-441,176,0,0,0,0,0,0,0,0,0,-1,783,848,0,0
-434,176,0,0,0,0,0,0,0,0,0,-1,790,848,0,0
-427,176,0,0,0,0,0,0,0,0,0,-1,797,848,0,0
-420,176,0,0,0,0,0,0,0,0,0,-1,804,848,0,0
-413,176,0,0,0,0,0,0,0,0,0,-1,811,848,0,0
-406,176,0,0,0,0,0,0,0,0,0,-1,818,848,0,0
-399,176,0,0,0,0,0,0,0,0,0,-1,825,848,0,0
-392,176,0,0,0,0,0,0,0,0,0,-1,832,848,0,0
-385,176,0,0,0,0,0,0,0,0,0,-1,839,848,0,0
-378,176,0,0,0,0,0,0,0,0,0,-1,846,848,0,0
-371,176,0,0,0,0,0,0,0,0,0,-1,853,848,0,0
-364,176,0,0,0,0,0,0,0,0,0,-1,860,848,0,0
-357,176,0,0,0,0,0,0,0,0,0,-1,867,848,0,0
-350,176,0,0,0,0,0,0,0,0,0,-1,874,848,0,0
-343,176,0,0,0,0,0,0,0,0,0,-1,881,848,0,0
-336,176,0,0,0,0,0,0,0,0,0,-1,888,848,0,0
-329,176,0,0,0,0,0,0,0,0,0,-1,895,848,0,0
-322,176,0,0,0,0,0,0,0,0,0,-1,902,848,0,0
-315,176,0,0,0,0,0,0,0,0,0,-1,909,848,0,0
-308,176,0,0,0,0,0,0,0,0,0,-1,916,848,0,0
-301,176,0,0,0,0,0,0,0,0,0,-1,923,848,0,0
-294,176,0,0,0,0,0,0,0,0,0,-1,930,848,0,0
-287,176,0,0,0,0,0,0,0,0,0,-1,937,848,0,0
-280,176,0,0,0,0,0,0,0,0,0,-1,944,848,0,0
-273,176,0,0,0,0,0,0,0,0,0,-1,951,848,0,0
-266,176,0,0,0,0,0,0,0,0,0,-1,958,848,0,0
-259,176,0,0,0,0,0,0,0,0,0,-1,965,848,0,0
-252,176,0,0,0,0,0,0,0,0,0,-1,972,848,0,0
-245,176,0,0,0,0,0,0,0,0,0,-1,979,848,0,0
-238,176,0,0,0,0,0,0,0,0,0,-1,986,848,0,0
-231,176,0,0,0,0,0,0,0,0,0,-1,993,848,0,0
-224,176,0,0,0,0,0,0,0,0,0,-1,1000,848,0,0
-217,176,0,0,0,0,0,0,0,0,0,-1,1007,848,0,0
-210,176,0,0,0,0,0,0,0,0,0,-1,1014,848,0,0
-203,176,0,0,0,0,0,0,0,0,0,-1,1021,848,0,0
-196,176,0,0,0,0,0,0,0,0,0,-1,1028,848,0,0
-189,176,0,0,0,0,0,0,0,0,0,-1,1035,848,0,0
-182,176,0,0,0,0,0,0,0,0,0,-1,1042,848,0,0
-175,176,0,0,0,0,0,0,0,0,0,-1,1049,848,0,0
-168,176,0,0,0,0,0,0,0,0,0,-1,1056,848,0,0
-161,176,0,0,0,0,0,0,0,0,0,-1,1063,848,0,0
-154,176,0,0,0,0,0,0,0,0,0,-1,1070,848,0,0
-147,176,0,0,0,0,0,0,0,0,0,-1,1077,848,0,0
-140,176,0,0,0,0,0,0,0,0,0,-1,1084,848,0,0
-133,176,0,0,0,0,0,0,0,0,0,-1,1091,848,0,0
-126,176,0,0,0,0,0,0,0,0,0,-1,1098,848,0,0
-119,176,0,0,0,0,0,0,0,0,0,-1,1105,848,0,0
-112,176,0,0,0,0,0,0,0,0,0,-1,1112,848,0,0
-105,176,0,0,0,0,0,0,0,0,0,-1,1119,848,0,0
-98,176,0,0,0,0,0,0,0,0,0,-1,1126,848,0,0
-91,176,0,0,0,0,0,0,0,0,0,-1,1133,848,0,0
-84,176,0,0,0,0,0,0,0,0,0,-1,1140,848,0,0
-77,176,0,0,0,0,0,0,0,0,0,-1,1147,848,0,0
-70,176,0,0,0,0,0,0,0,0,0,-1,1154,848,0,0
-63,176,0,0,0,0,0,0,0,0,0,-1,1161,848,0,0
-56,176,0,0,0,0,0,0,0,0,0,-1,1168,848,0,0
-49,176,0,0,0,0,0,0,0,0,0,-1,1175,848,0,0
-42,176,0,0,0,0,0,0,0,0,0,-1,1182,848,0,0
-35,176,0,0,0,0,0,0,0,0,0,-1,1189,848,0,0
-28,176,0,0,0,0,0,0,0,0,0,-1,1196,848,0,0
-21,176,0,0,0,0,0,0,0,0,0,-1,1203,848,0,0
-14,176,0,0,0,0,0,0,0,0,0,-1,1210,848,0,0
-7,176,0,0,0,0,0,0,0,0,0,-1,1217,848,0,0
0,176,0,0,0,0,0,0,0,0,0,-1,1224,848,0,0
7,176,0,0,0,0,0,0,0,0,0,-1,1231,848,0,0
14,176,0,0,0,0,0,0,0,0,0,-1,1238,848,0,0
21,176,0,0,0,0,0,0,0,0,0,-1,1245,848,0,0
28,176,0,0,0,0,0,0,0,0,0,-1,1252,848,0,0
35,176,0,0,0,0,0,0,0,0,0,-1,1259,848,0,0
42,176,0,0,0,0,0,0,0,0,0,-1,1266,848,0,0
49,176,0,0,0,0,0,0,0,0,0,-1,1273,848,0,0
56,176,0,0,0,0,0,0,0,0,0,-1,1280,848,0,0
63,176,0,0,0,0,0,0,0,0,0,-1,1287,848,0,0
70,176,0,0,0,0,0,0,0,0,0,-1,1294,848,0,0
77,176,0,0,0,0,0,0,0,0,0,-1,1301,848,0,0
84,176,0,0,0,0,0,0,0,0,0,-1,1308,848,0,0
91,176,0,0,0,0,0,0,0,0,0,-1,1315,848,0,0
98,176,0,0,0,0,0,0,0,0,0,-1,1322,848,0,0
105,176,0,0,0,0,0,0,0,0,0,-1,1329,848,0,0
112,176,0,0,0,0,0,0,0,0,0,-1,1336,848,0,0
119,176,0,0,0,0,0,0,0,0,0,-1,1343,848,0,0
126,176,0,0,0,0,0,0,0,0,0,-1,1350,848,0,0
133,176,0,0,0,0,0,0,0,0,0,-1,1357,848,0,0
140,176,0,0,0,0,0,0,0,0,0,-1,1364,848,0,0
147,176,0,0,0,0,0,0,0,0,0,-1,1371,848,0,0
154,176,0,0,0,0,0,0,0,0,0,-1,1378,848,0,0
161,176,0,0,0,0,0,0,0,0,0,-1,1385,848,0,0
168,176,0,0,0,0,0,0,0,0,0,-1,1392,848,0,0
175,176,0,0,0,0,0,0,0,0,0,-1,1399,848,0,0
182,176,0,0,0,0,0,0,0,0,0,-1,1406,848,0,0
189,176,0,0,0,0,0,0,0,0,0,-1,1413,848,0,0
196,176,0,0,0,0,0,0,0,0,0,-1,1420,848,0,0
203,176,0,0,0,0,0,0,0,0,0,-1,1427,848,0,0
210,176,0,0,0,0,0,0,0,0,0,-1,1434,848,0,0
217,176,0,0,0,0,0,0,0,0,0,-1,1441,848,0,0
224,176,0,0,0,0,0,0,0,0,0,-1,1448,848,0,0
231,176,0,0,0,0,0,0,0,0,0,-1,1455,848,0,0
238,176,0,0,0,0,0,0,0,0,0,-1,1462,848,0,0
245,176,0,0,0,0,0,0,0,0,0,-1,1469,848,0,0
252,176,0,0,0,0,0,0,0,0,0,-1,1476,848,0,0
259,176,0,0,0,0,0,0,0,0,0,-1,1483,848,0,0
266,176,0,0,0,0,0,0,0,0,0,-1,1490,848,0,0
273,176,0,0,0,0,0,0,0,0,0,-1,1497,848,0,0
280,176,0,0,0,0,0,0,0,0,0,-1,1504,848,0,0
287,176,0,0,0,0,0,0,0,0,0,-1,1511,848,0,0
294,176,0,0,0,0,0,0,0,0,0,-1,1518,848,0,0
301,176,0,0,0,0,0,0,0,0,0,-1,1525,848,0,0
308,176,0,0,0,0,0,0,0,0,0,-1,1532,848,0,0
315,176,0,0,0,0,0,0,0,0,0,-1,1539,848,0,0
322,176,0,0,0,0,0,0,0,0,0,-1,1546,848,0,0
329,176,0,0,0,0,0,0,0,0,0,-1,1553,848,0,0
336,176,0,0,0,0,0,0,0,0,0,-1,1560,848,0,0
343,176,0,0,0,0,0,0,0,0,0,-1,1567,848,0,0
350,176,0,0,0,0,0,0,0,0,0,-1,1574,848,0,0
357,176,0,0,0,0,0,0,0,0,0,-1,1581,848,0,0
364,176,0,0,0,0,0,0,0,0,0,-1,1588,848,0,0
371,176,0,0,0,0,0,0,0,0,0,-1,1595,848,0,0
378,176,0,0,0,0,0,0,0,0,0,-1,1602,848,0,0
385,176,0,0,0,0,0,0,0,0,0,-1,1609,848,0,0
392,176,0,0,0,0,0,0,0,0,0,-1,1616,848,0,0
399,176,0,0,0,0,0,0,0,0,0,-1,1623,848,0,0
406,176,0,0,0,0,0,0,0,0,0,-1,1630,848,0,0
413,176,0,0,0,0,0,0,0,0,0,-1,1637,848,0,0
420,176,0,0,0,0,0,0,0,0,0,-1,1644,848,0,0
427,176,0,0,0,0,0,0,0,0,0,-1,1651,848,0,0
434,176,0,0,0,0,0,0,0,0,0,-1,1658,848,0,0
441,176,0,0,0,0,0,0,0,0,0,-1,1665,848,0,0
448,176,0,0,0,0,0,0,0,0,0,-1,1672,848,0,0
455,176,0,0,0,0,0,0,0,0,0,-1,1679,848,0,0
462,176,0,0,0,0,0,0,0,0,0,-1,1686,848,0,0
469,176,0,0,0,0,0,0,0,0,0,-1,1693,848,0,0
476,176,0,0,0,0,0,0,0,0,0,-1,1700,848,0,0
483,176,0,0,0,0,0,0,0,0,0,-1,1707,848,0,0
490,176,0,0,0,0,0,0,0,0,0,-1,1714,848,0,0
497,176,0,0,0,0,0,0,0,0,0,-1,1721,848,0,0
504,176,0,0,0,0,0,0,0,0,0,-1,1728,848,0,0
511,176,0,0,0,0,0,0,0,0,0,-1,1735,848,0,0
518,176,0,0,0,0,0,0,0,0,0,-1,1742,848,0,0
525,176,0,0,0,0,0,0,0,0,0,-1,1749,848,0,0
532,176,0,0,0,0,0,0,0,0,0,-1,1756,848,0,0
539,176,0,0,0,0,0,0,0,0,0,-1,1763,848,0,0
546,176,0,0,0,0,0,0,0,0,0,-1,1770,848,0,0
553,176,0,0,0,0,0,0,0,0,0,-1,1777,848,0,0
560,176,0,0,0,0,0,0,0,0,0,-1,1784,848,0,0
567,176,0,0,0,0,0,0,0,0,0,-1,1791,848,0,0
574,176,0,0,0,0,0,0,0,0,0,-1,1798,848,0,0
581,176,0,0,0,0,0,0,0,0,0,-1,1805,848,0,0
588,176,0,0,0,0,0,0,0,0,0,-1,1812,848,0,0
595,176,0,0,0,0,0,0,0,0,0,-1,1819,848,0,0
602,176,0,0,0,0,0,0,0,0,0,-1,1826,848,0,0
609,176,228.523,9.03601,0,0,0,0,0,0,0,-1,1833,848,228.523,-9.03599
616,176,228.501,9.07178,0,0,0,0,0,0,0,-1,1840,848,228.501,-9.07177
623,176,228.614,9.14758,0,0,0,0,0,0,0,-1,1847,848,228.614,-9.1476
630,176,228.788,8.95422,0,0,0,0,0,0,0,-1,1854,848,228.788,-8.95421
637,176,228.737,8.74939,0,0,0,0,0,0,0,-1,1861,848,228.737,-8.7494
644,176,228.608,8.78247,0,0,0,0,0,0,0,-1,1868,848,228.608,-8.78244
651,176,228.547,8.90942,0,0,0,0,0,0,0,-1,1875,848,228.547,-8.90945
658,176,228.521,8.90051,0,0,0,0,0,0,0,-1,1882,848,228.521,-8.9005
665,176,54.3333,2.34277,0,0,0,0,0,0,0,-1,1889,848,54.3333,-2.34279
672,176,16.9304,2.80719,0,0,0,0,0,0,0,-1,1896,848,16.9305,-2.80719
679,176,50.9341,0.315979,0,0,0,0,0,0,0,-1,1903,848,50.9341,-0.315984
686,176,166.622,18.533,0,0,0,0,0,0,0,-1,1910,848,166.622,-18.533
693,176,204.603,21.9756,0,0,0,0,0,0,0,-1,1917,848,204.603,-21.9757
700,176,204.459,24.1052,-0.00406268,0.0112562,-0.00695597,0.0139434,-0.00674986,-1.20214,0.0121855,0.046731,1924,848,204.46,-24.1051
707,176,204.08,25.8141,-0.00629532,0.0182564,-0.00964925,0.0215948,-0.00963371,-1.23771,0.0184654,0.0452939,1931,848,204.08,-25.8141
714,176,203.809,27.4636,-0.00878567,0.0252839,-0.0124501,0.0293486,-0.0128504,-1.25523,0.0249766,0.0255723,1938,848,203.809,-27.4636
721,176,203.71,29.2938,-0.0117117,0.0324756,-0.0153376,0.0372775,-0.0165136,-1.26738,0.0318182,0.0232006,1945,848,203.71,-29.2938
728,176,203.425,31.0598,-0.0149855,0.039825,-0.0183847,0.0454204,-0.020581,-1.27535,0.0389951,0.0289091,1952,848,203.425,-31.0598
735,176,202.828,32.6359,-0.0184683,0.0473857,-0.0215909,0.0538333,-0.0249158,-1.2806,0.0464764,0.0266147,1959,848,202.828,-32.6359
742,176,202.37,34.2337,-0.0219995,0.0552463,-0.0249321,0.0625945,-0.0293477,-1.28418,0.0542273,0.0276152,1966,848,202.37,-34.2337
749,176,202.107,35.668,-0.0256398,0.0636564,-0.0281451,0.071787,-0.0337704,-1.28957,0.0622472,0.0423561,1973,848,202.107,-35.6681
756,176,201.848,37.1108,0,0,0,0,0,0,0,-1,1980,848,201.848,-37.1108
763,176,115.493,23.4837,0,0,0,0,0,0,0,-1,1987,848,115.493,-23.4837
770,176,36.4186,4.25641,0,0,0,0,0,0,0,-1,1994,848,36.4186,-4.25639
777,176,43.8328,7.50177,0,0,0,0,0,0,0,-1,2001,848,43.8328,-7.50178
784,176,0,0,0,0,0,0,0,0,0,-1,2008,848,0,0
791,176,0,0,0,0,0,0,0,0,0,-1,2015,848,0,0
798,176,0,0,0,0,0,0,0,0,0,-1,2022,848,0,0
805,176,0,0,0,0,0,0,0,0,0,-1,2029,848,0,0
812,176,0,0,0,0,0,0,0,0,0,-1,2036,848,0,0
-700,169,0,0,0,0,0,0,0,0,0,-1,524,855,0,0
-693,169,0,0,0,0,0,0,0,0,0,-1,531,855,0,0
-686,169,0,0,0,0,0,0,0,0,0,-1,538,855,0,0
-679,169,0,0,0,0,0,0,0,0,0,-1,545,855,0,0
-672,169,0,0,0,0,0,0,0,0,0,-1,552,855,0,0
-665,169,-50.4697,8.3269,0,0,0,0,0,0,0,-1,559,855,-50.4697,-8.32688
-658,169,-58.8608,8.22839,0,0,0,0,0,0,0,-1,566,855,-58.8608,-8.2284
-651,169,-134.47,33.6487,0,0,0,0,0,0,0,-1,573,855,-134.47,-33.6487
-644,169,-134.489,32.519,0,0,0,0,0,0,0,-1,580,855,-134.489,-32.5191
-637,169,-139.811,32.4285,0,0,0,0,0,0,0,-1,587,855,-139.811,-32.4285
-630,169,-196.943,38.7408,0,0,0,0,0,0,0,-1,594,855,-196.943,-38.7408
-623,169,-196.658,37.0707,0.00986959,0.0558315,0.0190682,0.0627123,0.00298885,1.22449,0.0408484,0.0455784,601,855,-196.658,-37.0707
-616,169,-196.265,35.6069,0.00108677,0.0517058,0.0182316,0.0575887,-0.00479605,1.25867,0.0400869,0.0386101,608,855,-196.265,-35.6069
-609,169,-196.346,34.1998,-0.00234862,0.0468683,0.0172158,0.0522925,-0.00777281,1.26557,0.0377205,0.0222652,615,855,-196.346,-34.1998
-602,169,-196.632,32.5816,-0.00369178,0.0415189,0.0161488,0.0466946,-0.00886748,1.26064,0.0344679,0.0177302,622,855,-196.632,-32.5816
-595,169,-196.919,30.8726,-0.00315405,0.0357823,0.0150224,0.0409044,-0.00827618,1.24219,0.0304061,0.0188513,629,855,-196.919,-30.8726
-588,169,-197.154,29.2112,-0.000964947,0.0297251,0.0138789,0.0350705,-0.00631037,1.20316,0.0257429,0.0195629,636,855,-197.154,-29.2112
-581,169,-197.389,27.5235,0.00266703,0.0234342,0.0127378,0.0294844,-0.00338323,1.12736,0.0208756,0.0354525,643,855,-197.389,-27.5235
-574,169,-198.017,26.0266,0,0,0,0,0,0,0,-1,650,855,-198.017,-26.0266
-567,169,-198.191,23.7281,0,0,0,0,0,0,0,-1,657,855,-198.191,-23.7282
-560,169,-198.715,21.9199,0,0,0,0,0,0,0,-1,664,855,-198.715,-21.9199
-553,169,-32.1944,-0.787964,0,0,0,0,0,0,0,-1,671,855,-32.1944,0.787959
-546,169,-19.0852,-1.05609,0,0,0,0,0,0,0,-1,678,855,-19.0852,1.05612
-539,169,-33.2307,1.10706,0,0,0,0,0,0,0,-1,685,855,-33.2307,-1.10708
-532,169,-71.3272,0.203064,0,0,0,0,0,0,0,-1,692,855,-71.3272,-0.203058
-525,169,-72.7736,0.297241,0,0,0,0,0,0,0,-1,699,855,-72.7736,-0.297265
-518,169,-72.6509,0.381287,0,0,0,0,0,0,0,-1,706,855,-72.6509,-0.38129
-511,169,-72.4978,0.552429,0,0,0,0,0,0,0,-1,713,855,-72.4978,-0.552413
-504,169,-72.7489,0.517273,0,0,0,0,0,0,0,-1,720,855,-72.7489,-0.517272
-497,169,-72.8129,0.525146,0,0,0,0,0,0,0,-1,727,855,-72.8129,-0.525136
-490,169,0,0,0,0,0,0,0,0,0,-1,734,855,0,0
-483,169,0,0,0,0,0,0,0,0,0,-1,741,855,0,0
-476,169,0,0,0,0,0,0,0,0,0,-1,748,855,0,0
-469,169,0,0,0,0,0,0,0,0,0,-1,755,855,0,0
-462,169,0,0,0,0,0,0,0,0,0,-1,762,855,0,0
-455,169,0,0,0,0,0,0,0,0,0,-1,769,855,0,0
-448,169,0,0,0,0,0,0,0,0,0,-1,776,855,0,0
-441,169,0,0,0,0,0,0,0,0,0,-1,783,855,0,0
-434,169,0,0,0,0,0,0,0,0,0,-1,790,855,0,0
-427,169,0,0,0,0,0,0,0,0,0,-1,797,855,0,0
-420,169,0,0,0,0,0,0,0,0,0,-1,804,855,0,0
-413,169,0,0,0,0,0,0,0,0,0,-1,811,855,0,0
-406,169,0,0,0,0,0,0,0,0,0,-1,818,855,0,0
-399,169,0,0,0,0,0,0,0,0,0,-1,825,855,0,0
-392,169,0,0,0,0,0,0,0,0,0,-1,832,855,0,0
-385,169,0,0,0,0,0,0,0,0,0,-1,839,855,0,0
-378,169,0,0,0,0,0,0,0,0,0,-1,846,855,0,0
-371,169,0,0,0,0,0,0,0,0,0,-1,853,855,0,0
-364,169,0,0,0,0,0,0,0,0,0,-1,860,855,0,0
-357,169,0,0,0,0,0,0,0,0,0,-1,867,855,0,0
-350,169,0,0,0,0,0,0,0,0,0,-1,874,855,0,0
-343,169,0,0,0,0,0,0,0,0,0,-1,881,855,0,0
-336,169,0,0,0,0,0,0,0,0,0,-1,888,855,0,0
-329,169,0,0,0,0,0,0,0,0,0,-1,895,855,0,0
-322,169,0,0,0,0,0,0,0,0,0,-1,902,855,0,0
-315,169,0,0,0,0,0,0,0,0,0,-1,909,855,0,0
-308,169,0,0,0,0,0,0,0,0,0,-1,916,855,0,0
-301,169,0,0,0,0,0,0,0,0,0,-1,923,855,0,0
-294,169,0,0,0,0,0,0,0,0,0,-1,930,855,0,0
-287,169,0,0,0,0,0,0,0,0,0,-1,937,855,0,0
-280,169,0,0,0,0,0,0,0,0,0,-1,944,855,0,0
-273,169,0,0,0,0,0,0,0,0,0,-1,951,855,0,0
-266,169,0,0,0,0,0,0,0,0,0,-1,958,855,0,0
-259,169,0,0,0,0,0,0,0,0,0,-1,965,855,0,0
-252,169,0,0,0,0,0,0,0,0,0,-1,972,855,0,0
-245,169,0,0,0,0,0,0,0,0,0,-1,979,855,0,0
-238,169,0,0,0,0,0,0,0,0,0,-1,986,855,0,0
-231,169,0,0,0,0,0,0,0,0,0,-1,993,855,0,0
-224,169,0,0,0,0,0,0,0,0,0,-1,1000,855,0,0
-217,169,0,0,0,0,0,0,0,0,0,-1,1007,855,0,0
-210,169,0,0,0,0,0,0,0,0,0,-1,1014,855,0,0
-203,169,0,0,0,0,0,0,0,0,0,-1,1021,855,0,0
-196,169,0,0,0,0,0,0,0,0,0,-1,1028,855,0,0
-189,169,0,0,0,0,0,0,0,0,0,-1,1035,855,0,0
-182,169,0,0,0,0,0,0,0,0,0,-1,1042,855,0,0
-175,169,0,0,0,0,0,0,0,0,0,-1,1049,855,0,0
-168,169,0,0,0,0,0,0,0,0,0,-1,1056,855,0,0
-161,169,0,0,0,0,0,0,0,0,0,-1,1063,855,0,0
-154,169,0,0,0,0,0,0,0,0,0,-1,1070,855,0,0
-147,169,0,0,0,0,0,0,0,0,0,-1,1077,855,0,0
-140,169,0,0,0,0,0,0,0,0,0,-1,1084,855,0,0
-133,169,0,0,0,0,0,0,0,0,0,-1,1091,855,0,0
-126,169,0,0,0,0,0,0,0,0,0,-1,1098,855,0,0
-119,169,0,0,0,0,0,0,0,0,0,-1,1105,855,0,0
-112,169,0,0,0,0,0,0,0,0,0,-1,1112,855,0,0
-105,169,0,0,0,0,0,0,0,0,0,-1,1119,855,0,0
-98,169,0,0,0,0,0,0,0,0,0,-1,1126,855,0,0
-91,169,0,0,0,0,0,0,0,0,0,-1,1133,855,0,0
-84,169,0,0,0,0,0,0,0,0,0,-1,1140,855,0,0
-77,169,0,0,0,0,0,0,0,0,0,-1,1147,855,0,0
-70,169,0,0,0,0,0,0,0,0,0,-1,1154,855,0,0
-63,169,0,0,0,0,0,0,0,0,0,-1,1161,855,0,0
-56,169,0,0,0,0,0,0,0,0,0,-1,1168,855,0,0
-49,169,0,0,0,0,0,0,0,0,0,-1,1175,855,0,0
-42,169,0,0,0,0,0,0,0,0,0,-1,1182,855,0,0
-35,169,0,0,0,0,0,0,0,0,0,-1,1189,855,0,0
-28,169,0,0,0,0,0,0,0,0,0,-1,1196,855,0,0
-21,169,0,0,0,0,0,0,0,0,0,-1,1203,855,0,0
-14,169,0,0,0,0,0,0,0,0,0,-1,1210,855,0,0
-7,169,0,0,0,0,0,0,0,0,0,-1,1217,855,0,0
0,169,0,0,0,0,0,0,0,0,0,-1,1224,855,0,0
7,169,0,0,0,0,0,0,0,0,0,-1,1231,855,0,0
14,169,0,0,0,0,0,0,0,0,0,-1,1238,855,0,0
21,169,0,0,0,0,0,0,0,0,0,-1,1245,855,0,0
28,169,0,0,0,0,0,0,0,0,0,-1,1252,855,0,0
35,169,0,0,0,0,0,0,0,0,0,-1,1259,855,0,0
42,169,0,0,0,0,0,0,0,0,0,-1,1266,855,0,0
49,169,0,0,0,0,0,0,0,0,0,-1,1273,855,0,0
56,169,0,0,0,0,0,0,0,0,0,-1,1280,855,0,0
63,169,0,0,0,0,0,0,0,0,0,-1,1287,855,0,0
70,169,0,0,0,0,0,0,0,0,0,-1,1294,855,0,0
77,169,0,0,0,0,0,0,0,0,0,-1,1301,855,0,0
84,169,0,0,0,0,0,0,0,0,0,-1,1308,855,0,0
91,169,0,0,0,0,0,0,0,0,0,-1,1315,855,0,0
98,169,0,0,0,0,0,0,0,0,0,-1,1322,855,0,0
105,169,0,0,0,0,0,0,0,0,0,-1,1329,855,0,0
112,169,0,0,0,0,0,0,0,0,0,-1,1336,855,0,0
119,169,0,0,0,0,0,0,0,0,0,-1,1343,855,0,0
126,169,0,0,0,0,0,0,0,0,0,-1,1350,855,0,0
133,169,0,0,0,0,0,0,0,0,0,-1,1357,855,0,0
140,169,0,0,0,0,0,0,0,0,0,-1,1364,855,0,0
147,169,0,0,0,0,0,0,0,0,0,-1,1371,855,0,0
154,169,0,0,0,0,0,0,0,0,0,-1,1378,855,0,0
161,169,0,0,0,0,0,0,0,0,0,-1,1385,855,0,0
168,169,0,0,0,0,0,0,0,0,0,-1,1392,855,0,0
175,169,0,0,0,0,0,0,0,0,0,-1,1399,855,0,0
182,169,0,0,0,0,0,0,0,0,0,-1,1406,855,0,0
189,169,0,0,0,0,0,0,0,0,0,-1,1413,855,0,0
196,169,0,0,0,0,0,0,0,0,0,-1,1420,855,0,0
203,169,0,0,0,0,0,0,0,0,0,-1,1427,855,0,0
210,169,0,0,0,0,0,0,0,0,0,-1,1434,855,0,0
217,169,0,0,0,0,0,0,0,0,0,-1,1441,855,0,0
224,169,0,0,0,0,0,0,0,0,0,-1,1448,855,0,0
231,169,0,0,0,0,0,0,0,0,0,-1,1455,855,0,0
238,169,0,0,0,0,0,0,0,0,0,-1,1462,855,0,0
245,169,0,0,0,0,0,0,0,0,0,-1,1469,855,0,0
252,169,0,0,0,0,0,0,0,0,0,-1,1476,855,0,0
259,169,0,0,0,0,0,0,0,0,0,-1,1483,855,0,0
266,169,0,0,0,0,0,0,0,0,0,-1,1490,855,0,0
273,169,0,0,0,0,0,0,0,0,0,-1,1497,855,0,0
280,169,0,0,0,0,0,0,0,0,0,-1,1504,855,0,0
287,169,0,0,0,0,0,0,0,0,0,-1,1511,855,0,0
294,169,0,0,0,0,0,0,0,0,0,-1,1518,855,0,0
301,169,0,0,0,0,0,0,0,0,0,-1,1525,855,0,0
308,169,0,0,0,0,0,0,0,0,0,-1,1532,855,0,0
315,169,0,0,0,0,0,0,0,0,0,-1,1539,855,0,0
322,169,0,0,0,0,0,0,0,0,0,-1,1546,855,0,0
329,169,0,0,0,0,0,0,0,0,0,-1,1553,855,0,0
336,169,0,0,0,0,0,0,0,0,0,-1,1560,855,0,0
343,169,0,0,0,0,0,0,0,0,0,-1,1567,855,0,0
350,169,0,0,0,0,0,0,0,0,0,-1,1574,855,0,0
357,169,0,0,0,0,0,0,0,0,0,-1,1581,855,0,0
364,169,0,0,0,0,0,0,0,0,0,-1,1588,855,0,0
371,169,0,0,0,0,0,0,0,0,0,-1,1595,855,0,0
378,169,0,0,0,0,0,0,0,0,0,-1,1602,855,0,0
385,169,0,0,0,0,0,0,0,0,0,-1,1609,855,0,0
392,169,0,0,0,0,0,0,0,0,0,-1,1616,855,0,0
399,169,0,0,0,0,0,0,0,0,0,-1,1623,855,0,0
406,169,0,0,0,0,0,0,0,0,0,-1,1630,855,0,0
413,169,0,0,0,0,0,0,0,0,0,-1,1637,855,0,0
420,169,0,0,0,0,0,0,0,0,0,-1,1644,855,0,0
427,169,0,0,0,0,0,0,0,0,0,-1,1651,855,0,0
434,169,0,0,0,0,0,0,0,0,0,-1,1658,855,0,0
441,169,0,0,0,0,0,0,0,0,0,-1,1665,855,0,0
448,169,0,0,0,0,0,0,0,0,0,-1,1672,855,0,0
455,169,0,0,0,0,0,0,0,0,0,-1,1679,855,0,0
462,169,0,0,0,0,0,0,0,0,0,-1,1686,855,0,0
469,169,0,0,0,0,0,0,0,0,0,-1,1693,855,0,0
476,169,0,0,0,0,0,0,0,0,0,-1,1700,855,0,0
483,169,0,0,0,0,0,0,0,0,0,-1,1707,855,0,0
490,169,0,0,0,0,0,0,0,0,0,-1,1714,855,0,0
497,169,0,0,0,0,0,0,0,0,0,-1,1721,855,0,0
504,169,0,0,0,0,0,0,0,0,0,-1,1728,855,0,0
511,169,0,0,0,0,0,0,0,0,0,-1,1735,855,0,0
518,169,0,0,0,0,0,0,0,0,0,-1,1742,855,0,0
525,169,0,0,0,0,0,0,0,0,0,-1,1749,855,0,0
532,169,0,0,0,0,0,0,0,0,0,-1,1756,855,0,0
539,169,0,0,0,0,0,0,0,0,0,-1,1763,855,0,0
546,169,0,0,0,0,0,0,0,0,0,-1,1770,855,0,0
553,169,0,0,0,0,0,0,0,0,0,-1,1777,855,0,0
560,169,0,0,0,0,0,0,0,0,0,-1,1784,855,0,0
567,169,0,0,0,0,0,0,0,0,0,-1,1791,855,0,0
574,169,0,0,0,0,0,0,0,0,0,-1,1798,855,0,0
581,169,0,0,0,0,0,0,0,0,0,-1,1805,855,0,0
588,169,0,0,0,0,0,0,0,0,0,-1,1812,855,0,0
595,169,0,0,0,0,0,0,0,0,0,-1,1819,855,0,0
602,169,0,0,0,0,0,0,0,0,0,-1,1826,855,0,0
609,169,0,0,0,0,0,0,0,0,0,-1,1833,855,0,0
616,169,228.432,8.987,0,0,0,0,0,0,0,-1,1840,855,228.432,-8.98699
623,169,228.568,9.03479,0,0,0,0,0,0,0,-1,1847,855,228.568,-9.03481
630,169,228.815,8.90002,0,0,0,0,0,0,0,-1,1854,855,228.815,-8.90001
637,169,228.762,8.86023,0,0,0,0,0,0,0,-1,1861,855,228.762,-8.86021
644,169,228.646,8.91406,0,0,0,0,0,0,0,-1,1868,855,228.647,-8.91406
651,169,228.528,9.02142,0,0,0,0,0,0,0,-1,1875,855,228.528,-9.02143
658,169,228.467,9.03741,0,0,0,0,0,0,0,-1,1882,855,228.467,-9.03743
665,169,74.1068,1.9809,0,0,0,0,0,0,0,-1,1889,855,74.1069,-1.98093
672,169,31.2465,2.96387,0,0,0,0,0,0,0,-1,1896,855,31.2464,-2.9639
679,169,38.4297,1.08197,0,0,0,0,0,0,0,-1,1903,855,38.4296,-1.08194
686,169,170.483,18.8353,0,0,0,0,0,0,0,-1,1910,855,170.483,-18.8353
693,169,206.359,22.1508,0,0,0,0,0,0,0,-1,1917,855,206.359,-22.1508
700,169,206.441,24.3224,0,0,0,0,0,0,0,-1,1924,855,206.441,-24.3224
707,169,206.43,26.2098,0,0,0,0,0,0,0,-1,1931,855,206.431,-26.2098
714,169,205.542,27.5351,-0.00889856,0.0219205,-0.0110205,0.0254558,-0.0124338,-1.26038,0.0223021,0.0340021,1938,855,205.542,-27.5351
721,169,205.47,29.2979,-0.0115806,0.0291382,-0.0137567,0.0333502,-0.0157926,-1.27368,0.0289699,0.0305781,1945,855,205.47,-29.2978
728,169,205.182,30.9119,-0.0145512,0.0364468,-0.0166379,0.0413949,-0.0194992,-1.28173,0.0359068,0.0254665,1952,855,205.182,-30.9119
735,169,204.705,32.5173,-0.0176617,0.0438919,-0.0196496,0.0496297,-0.0233995,-1.28669,0.0430604,0.0333451,1959,855,204.705,-32.5174
742,169,204.305,34.0752,-0.0207508,0.0515361,-0.0227562,0.0581032,-0.027318,-1.28984,0.0503742,0.0270026,1966,855,204.305,-34.0752
749,169,204.035,35.1642,-0.0237631,0.0595466,-0.0257342,0.0668548,-0.0310712,-1.2941,0.0577821,0.0496821,1973,855,204.035,-35.1642
756,169,204.074,36.0061,0,0,0,0,0,0,0,-1,1980,855,204.074,-36.0061
763,169,61.2976,7.40009,0,0,0,0,0,0,0,-1,1987,855,61.2975,-7.40007
770,169,37.2059,3.97021,0,0,0,0,0,0,0,-1,1994,855,37.2059,-3.97022
777,169,41.7505,8.7085,0,0,0,0,0,0,0,-1,2001,855,41.7505,-8.70852
784,169,40.7385,9.24359,0,0,0,0,0,0,0,-1,2008,855,40.7384,-9.24361
791,169,0,0,0,0,0,0,0,0,0,-1,2015,855,0,0
798,169,0,0,0,0,0,0,0,0,0,-1,2022,855,0,0
805,169,0,0,0,0,0,0,0,0,0,-1,2029,855,0,0
812,169,0,0,0,0,0,0,0,0,0,-1,2036,855,0,0
-700,162,0,0,0,0,0,0,0,0,0,-1,524,862,0,0
-693,162,0,0,0,0,0,0,0,0,0,-1,531,862,0,0
-686,162,0,0,0,0,0,0,0,0,0,-1,538,862,0,0
-679,162,0,0,0,0,0,0,0,0,0,-1,545,862,0,0
-672,162,0,0,0,0,0,0,0,0,0,-1,552,862,0,0
-665,162,-50.6751,7.18884,0,0,0,0,0,0,0,-1,559,862,-50.6751,-7.18885
-658,162,-50.7888,6.02673,0,0,0,0,0,0,0,-1,566,862,-50.7888,-6.02673
-651,162,-132.896,33.8102,0,0,0,0,0,0,0,-1,573,862,-132.896,-33.8102
-644,162,-140.793,32.8753,0,0,0,0,0,0,0,-1,580,862,-140.793,-32.8753
-637,162,-150.535,35.4913,0,0,0,0,0,0,0,-1,587,862,-150.535,-35.4913
-630,162,-198.637,38.4487,0,0,0,0,0,0,0,-1,594,862,-198.637,-38.4487
-623,162,-198.251,36.9435,0.00829522,0.0544187,0.0174516,0.0602776,0.00243636,1.2469,0.039398,0.0440069,601,862,-198.251,-36.9435
-616,162,-198.017,35.5165,0.000882078,0.0497893,0.016837,0.0550252,-0.00435378,1.2693,0.0382175,0.035028,608,862,-198.017,-35.5165
-609,162,-198.279,34.0834,-0.00224104,0.0447468,0.016049,0.0497052,-0.00719944,1.27115,0.0357789,0.0212802,615,862,-198.279,-34.0833
-602,162,-198.546,32.5345,-0.00344653,0.0393191,0.015212,0.044178,-0.00830549,1.26162,0.0325754,0.0175862,622,862,-198.546,-32.5346
-595,162,-198.782,30.9272,-0.00285322,0.0335362,0.0143492,0.0385136,-0.00783064,1.23691,0.028645,0.0211814,629,862,-198.782,-30.9272
-588,162,-198.963,29.2927,-0.000584417,0.0274388,0.0134861,0.0328746,-0.00602015,1.18765,0.0241743,0.028298,636,862,-198.963,-29.2927
-581,162,-199.298,27.3331,0,0,0,0,0,0,0,-1,643,862,-199.298,-27.3331
-574,162,-197.776,25.4708,0,0,0,0,0,0,0,-1,650,862,-197.776,-25.4707
-567,162,-200.844,23.6096,0,0,0,0,0,0,0,-1,657,862,-200.844,-23.6096
-560,162,-36.5075,-0.831665,0,0,0,0,0,0,0,-1,664,862,-36.5075,0.831657
-553,162,-35.9823,-1.60956,0,0,0,0,0,0,0,-1,671,862,-35.9823,1.60954
-546,162,-22.8181,-1.51154,0,0,0,0,0,0,0,-1,678,862,-22.8181,1.51155
-539,162,-53.0229,0.9328,0,0,0,0,0,0,0,-1,685,862,-53.0229,-0.932798
-532,162,-72.6682,0.448364,0,0,0,0,0,0,0,-1,692,862,-72.6681,-0.44835
-525,162,-72.7237,0.432861,0,0,0,0,0,0,0,-1,699,862,-72.7237,-0.432833
-518,162,-72.6802,0.400024,0,0,0,0,0,0,0,-1,706,862,-72.6803,-0.400041
-511,162,-72.5015,0.546997,0,0,0,0,0,0,0,-1,713,862,-72.5015,-0.54698
-504,162,-72.6396,0.532898,0,0,0,0,0,0,0,-1,720,862,-72.6396,-0.532875
-497,162,-72.7673,0.427124,0,0,0,0,0,0,0,-1,727,862,-72.7673,-0.427125
-490,162,0,0,0,0,0,0,0,0,0,-1,734,862,0,0
-483,162,0,0,0,0,0,0,0,0,0,-1,741,862,0,0
-476,162,0,0,0,0,0,0,0,0,0,-1,748,862,0,0
-469,162,0,0,0,0,0,0,0,0,0,-1,755,862,0,0
-462,162,0,0,0,0,0,0,0,0,0,-1,762,862,0,0
-455,162,0,0,0,0,0,0,0,0,0,-1,769,862,0,0
-448,162,0,0,0,0,0,0,0,0,0,-1,776,862,0,0
-441,162,0,0,0,0,0,0,0,0,0,-1,783,862,0,0
-434,162,0,0,0,0,0,0,0,0,0,-1,790,862,0,0
-427,162,0,0,0,0,0,0,0,0,0,-1,797,862,0,0
-420,162,0,0,0,0,0,0,0,0,0,-1,804,862,0,0
-413,162,0,0,0,0,0,0,0,0,0,-1,811,862,0,0
-406,162,0,0,0,0,0,0,0,0,0,-1,818,862,0,0
-399,162,0,0,0,0,0,0,0,0,0,-1,825,862,0,0
-392,162,0,0,0,0,0,0,0,0,0,-1,832,862,0,0
-385,162,0,0,0,0,0,0,0,0,0,-1,839,862,0,0
-378,162,0,0,0,0,0,0,0,0,0,-1,846,862,0,0
-371,162,0,0,0,0,0,0,0,0,0,-1,853,862,0,0
-364,162,0,0,0,0,0,0,0,0,0,-1,860,862,0,0
-357,162,0,0,0,0,0,0,0,0,0,-1,867,862,0,0
-350,162,0,0,0,0,0,0,0,0,0,-1,874,862,0,0
-343,162,0,0,0,0,0,0,0,0,0,-1,881,862,0,0
-336,162,0,0,0,0,0,0,0,0,0,-1,888,862,0,0
-329,162,0,0,0,0,0,0,0,0,0,-1,895,862,0,0
-322,162,0,0,0,0,0,0,0,0,0,-1,902,862,0,0
-315,162,0,0,0,0,0,0,0,0,0,-1,909,862,0,0
-308,162,0,0,0,0,0,0,0,0,0,-1,916,862,0,0
-301,162,0,0,0,0,0,0,0,0,0,-1,923,862,0,0
-294,162,0,0,0,0,0,0,0,0,0,-1,930,862,0,0
-287,162,0,0,0,0,0,0,0,0,0,-1,937,862,0,0
-280,162,0,0,0,0,0,0,0,0,0,-1,944,862,0,0
-273,162,0,0,0,0,0,0,0,0,0,-1,951,862,0,0
-266,162,0,0,0,0,0,0,0,0,0,-1,958,862,0,0
-259,162,0,0,0,0,0,0,0,0,0,-1,965,862,0,0
-252,162,0,0,0,0,0,0,0,0,0,-1,972,862,0,0
-245,162,0,0,0,0,0,0,0,0,0,-1,979,862,0,0
-238,162,0,0,0,0,0,0,0,0,0,-1,986,862,0,0
-231,162,0,0,0,0,0,0,0,0,0,-1,993,862,0,0
-224,162,0,0,0,0,0,0,0,0,0,-1,1000,862,0,0
-217,162,0,0,0,0,0,0,0,0,0,-1,1007,862,0,0
-210,162,0,0,0,0,0,0,0,0,0,-1,1014,862,0,0
-203,162,0,0,0,0,0,0,0,0,0,-1,1021,862,0,0
-196,162,0,0,0,0,0,0,0,0,0,-1,1028,862,0,0
-189,162,0,0,0,0,0,0,0,0,0,-1,1035,862,0,0
-182,162,0,0,0,0,0,0,0,0,0,-1,1042,862,0,0
-175,162,0,0,0,0,0,0,0,0,0,-1,1049,862,0,0
-168,162,0,0,0,0,0,0,0,0,0,-1,1056,862,0,0
-161,162,0,0,0,0,0,0,0,0,0,-1,1063,862,0,0
-154,162,0,0,0,0,0,0,0,0,0,-1,1070,862,0,0
-147,162,0,0,0,0,0,0,0,0,0,-1,1077,862,0,0
-140,162,0,0,0,0,0,0,0,0,0,-1,1084,862,0,0
-133,162,0,0,0,0,0,0,0,0,0,-1,1091,862,0,0
-126,162,0,0,0,0,0,0,0,0,0,-1,1098,862,0,0
-119,162,0,0,0,0,0,0,0,0,0,-1,1105,862,0,0
-112,162,0,0,0,0,0,0,0,0,0,-1,1112,862,0,0
-105,162,0,0,0,0,0,0,0,0,0,-1,1119,862,0,0
-98,162,0,0,0,0,0,0,0,0,0,-1,1126,862,0,0
-91,162,0,0,0,0,0,0,0,0,0,-1,1133,862,0,0
-84,162,0,0,0,0,0,0,0,0,0,-1,1140,862,0,0
-77,162,0,0,0,0,0,0,0,0,0,-1,1147,862,0,0
-70,162,0,0,0,0,0,0,0,0,0,-1,1154,862,0,0
-63,162,0,0,0,0,0,0,0,0,0,-1,1161,862,0,0
-56,162,0,0,0,0,0,0,0,0,0,-1,1168,862,0,0
-49,162,0,0,0,0,0,0,0,0,0,-1,1175,862,0,0
-42,162,0,0,0,0,0,0,0,0,0,-1,1182,862,0,0
-35,162,0,0,0,0,0,0,0,0,0,-1,1189,862,0,0
-28,162,0,0,0,0,0,0,0,0,0,-1,1196,862,0,0
-21,162,0,0,0,0,0,0,0,0,0,-1,1203,862,0,0
-14,162,0,0,0,0,0,0,0,0,0,-1,1210,862,0,0
-7,162,0,0,0,0,0,0,0,0,0,-1,1217,862,0,0
0,162,0,0,0,0,0,0,0,0,0,-1,1224,862,0,0
7,162,0,0,0,0,0,0,0,0,0,-1,1231,862,0,0
14,162,0,0,0,0,0,0,0,0,0,-1,1238,862,0,0
21,162,0,0,0,0,0,0,0,0,0,-1,1245,862,0,0
28,162,0,0,0,0,0,0,0,0,0,-1,1252,862,0,0
35,162,0,0,0,0,0,0,0,0,0,-1,1259,862,0,0
42,162,0,0,0,0,0,0,0,0,0,-1,1266,862,0,0
49,162,0,0,0,0,0,0,0,0,0,-1,1273,862,0,0
56,162,0,0,0,0,0,0,0,0,0,-1,1280,862,0,0
63,162,0,0,0,0,0,0,0,0,0,-1,1287,862,0,0
70,162,0,0,0,0,0,0,0,0,0,-1,1294,862,0,0
77,162,0,0,0,0,0,0,0,0,0,-1,1301,862,0,0
84,162,0,0,0,0,0,0,0,0,0,-1,1308,862,0,0
91,162,0,0,0,0,0,0,0,0,0,-1,1315,862,0,0
98,162,0,0,0,0,0,0,0,0,0,-1,1322,862,0,0
105,162,0,0,0,0,0,0,0,0,0,-1,1329,862,0,0
112,162,0,0,0,0,0,0,0,0,0,-1,1336,862,0,0
119,162,0,0,0,0,0,0,0,0,0,-1,1343,862,0,0
126,162,0,0,0,0,0,0,0,0,0,-1,1350,862,0,0
133,162,0,0,0,0,0,0,0,0,0,-1,1357,862,0,0
140,162,0,0,0,0,0,0,0,0,0,-1,1364,862,0,0
147,162,0,0,0,0,0,0,0,0,0,-1,1371,862,0,0
154,162,0,0,0,0,0,0,0,0,0,-1,1378,862,0,0
161,162,0,0,0,0,0,0,0,0,0,-1,1385,862,0,0
168,162,0,0,0,0,0,0,0,0,0,-1,1392,862,0,0
175,162,0,0,0,0,0,0,0,0,0,-1,1399,862,0,0
182,162,0,0,0,0,0,0,0,0,0,-1,1406,862,0,0
189,162,0,0,0,0,0,0,0,0,0,-1,1413,862,0,0
196,162,0,0,0,0,0,0,0,0,0,-1,1420,862,0,0
203,162,0,0,0,0,0,0,0,0,0,-1,1427,862,0,0
210,162,0,0,0,0,0,0,0,0,0,-1,1434,862,0,0
217,162,0,0,0,0,0,0,0,0,0,-1,1441,862,0,0
224,162,0,0,0,0,0,0,0,0,0,-1,1448,862,0,0
231,162,0,0,0,0,0,0,0,0,0,-1,1455,862,0,0
238,162,0,0,0,0,0,0,0,0,0,-1,1462,862,0,0
245,162,0,0,0,0,0,0,0,0,0,-1,1469,862,0,0
252,162,0,0,0,0,0,0,0,0,0,-1,1476,862,0,0
259,162,0,0,0,0,0,0,0,0,0,-1,1483,862,0,0
266,162,0,0,0,0,0,0,0,0,0,-1,1490,862,0,0
273,162,0,0,0,0,0,0,0,0,0,-1,1497,862,0,0
280,162,0,0,0,0,0,0,0,0,0,-1,1504,862,0,0
287,162,0,0,0,0,0,0,0,0,0,-1,1511,862,0,0
294,162,0,0,0,0,0,0,0,0,0,-1,1518,862,0,0
301,162,0,0,0,0,0,0,0,0,0,-1,1525,862,0,0
308,162,0,0,0,0,0,0,0,0,0,-1,1532,862,0,0
315,162,0,0,0,0,0,0,0,0,0,-1,1539,862,0,0
322,162,0,0,0,0,0,0,0,0,0,-1,1546,862,0,0
329,162,0,0,0,0,0,0,0,0,0,-1,1553,862,0,0
336,162,0,0,0,0,0,0,0,0,0,-1,1560,862,0,0
343,162,0,0,0,0,0,0,0,0,0,-1,1567,862,0,0
350,162,0,0,0,0,0,0,0,0,0,-1,1574,862,0,0
357,162,0,0,0,0,0,0,0,0,0,-1,1581,862,0,0
364,162,0,0,0,0,0,0,0,0,0,-1,1588,862,0,0
371,162,0,0,0,0,0,0,0,0,0,-1,1595,862,0,0
378,162,0,0,0,0,0,0,0,0,0,-1,1602,862,0,0
385,162,0,0,0,0,0,0,0,0,0,-1,1609,862,0,0
392,162,0,0,0,0,0,0,0,0,0,-1,1616,862,0,0
399,162,0,0,0,0,0,0,0,0,0,-1,1623,862,0,0
406,162,0,0,0,0,0,0,0,0,0,-1,1630,862,0,0
413,162,0,0,0,0,0,0,0,0,0,-1,1637,862,0,0
420,162,0,0,0,0,0,0,0,0,0,-1,1644,862,0,0
427,162,0,0,0,0,0,0,0,0,0,-1,1651,862,0,0
434,162,0,0,0,0,0,0,0,0,0,-1,1658,862,0,0
441,162,0,0,0,0,0,0,0,0,0,-1,1665,862,0,0
448,162,0,0,0,0,0,0,0,0,0,-1,1672,862,0,0
455,162,0,0,0,0,0,0,0,0,0,-1,1679,862,0,0
462,162,0,0,0,0,0,0,0,0,0,-1,1686,862,0,0
469,162,0,0,0,0,0,0,0,0,0,-1,1693,862,0,0
476,162,0,0,0,0,0,0,0,0,0,-1,1700,862,0,0
483,162,0,0,0,0,0,0,0,0,0,-1,1707,862,0,0
490,162,0,0,0,0,0,0,0,0,0,-1,1714,862,0,0
497,162,0,0,0,0,0,0,0,0,0,-1,1721,862,0,0
504,162,0,0,0,0,0,0,0,0,0,-1,1728,862,0,0
511,162,0,0,0,0,0,0,0,0,0,-1,1735,862,0,0
518,162,0,0,0,0,0,0,0,0,0,-1,1742,862,0,0
525,162,0,0,0,0,0,0,0,0,0,-1,1749,862,0,0
532,162,0,0,0,0,0,0,0,0,0,-1,1756,862,0,0
539,162,0,0,0,0,0,0,0,0,0,-1,1763,862,0,0
546,162,0,0,0,0,0,0,0,0,0,-1,1770,862,0,0
553,162,0,0,0,0,0,0,0,0,0,-1,1777,862,0,0
560,162,0,0,0,0,0,0,0,0,0,-1,1784,862,0,0
567,162,0,0,0,0,0,0,0,0,0,-1,1791,862,0,0
574,162,0,0,0,0,0,0,0,0,0,-1,1798,862,0,0
581,162,0,0,0,0,0,0,0,0,0,-1,1805,862,0,0
588,162,0,0,0,0,0,0,0,0,0,-1,1812,862,0,0
595,162,0,0,0,0,0,0,0,0,0,-1,1819,862,0,0
602,162,0,0,0,0,0,0,0,0,0,-1,1826,862,0,0
609,162,0,0,0,0,0,0,0,0,0,-1,1833,862,0,0
616,162,228.418,8.87042,0,0,0,0,0,0,0,-1,1840,862,228.418,-8.87041
623,162,228.541,8.95294,0,0,0,0,0,0,0,-1,1847,862,228.541,-8.95296
630,162,228.7,8.85657,0,0,0,0,0,0,0,-1,1854,862,228.7,-8.85659
637,162,228.706,8.83276,0,0,0,0,0,0,0,-1,1861,862,228.706,-8.83278
644,162,228.669,8.81561,0,0,0,0,0,0,0,-1,1868,862,228.669,-8.81559
651,162,228.55,8.89386,0,0,0,0,0,0,0,-1,1875,862,228.55,-8.89388
658,162,228.553,8.79663,0,0,0,0,0,0,0,-1,1882,862,228.553,-8.79661
665,162,223.067,8.72296,0,0,0,0,0,0,0,-1,1889,862,223.067,-8.72296
672,162,56.9712,3.04034,0,0,0,0,0,0,0,-1,1896,862,56.9711,-3.04034
679,162,26.5077,2.54785,0,0,0,0,0,0,0,-1,1903,862,26.5077,-2.54787
686,162,69.0739,-0.282166,0,0,0,0,0,0,0,-1,1910,862,69.0738,0.28219
693,162,172.14,20.9952,0,0,0,0,0,0,0,-1,1917,862,172.14,-20.9951
700,162,208.271,24.4211,0,0,0,0,0,0,0,-1,1924,862,208.271,-24.4211
707,162,207.812,26.0868,-0.00631817,0.0124047,-0.0067109,0.0145616,-0.0084751,-1.25982,0.0134541,0.0393427,1931,862,207.812,-26.0868
714,162,207.372,27.4882,-0.00857317,0.0192763,-0.009467,0.0221897,-0.0114866,-1.27225,0.0197676,0.0475196,1938,862,207.371,-27.4882
721,162,207.23,29.2139,0,0,0,0,0,0,0,-1,1945,862,207.23,-29.2139
728,162,206.801,30.9808,-0.0139076,0.0333573,-0.014887,0.0376554,-0.0182057,-1.28972,0.0328966,0.0401137,1952,862,206.801,-30.9808
735,162,206.581,32.4822,-0.0167677,0.040508,-0.0177417,0.0455583,-0.021818,-1.29347,0.0396965,0.0194803,1959,862,206.581,-32.4822
742,162,206.233,33.9446,-0.0195412,0.0478033,-0.0206353,0.0536233,-0.0253612,-1.2959,0.0465646,0.025583,1966,862,206.233,-33.9446
749,162,205.793,35.1986,-0.0221263,0.055358,-0.0233818,0.061867,-0.0286353,-1.29929,0.0534128,0.0438124,1973,862,205.793,-35.1986
756,162,205.32,36.2537,0,0,0,0,0,0,0,-1,1980,862,205.32,-36.2537
763,162,87.7278,14.9944,0,0,0,0,0,0,0,-1,1987,862,87.7277,-14.9944
770,162,54.8257,9.36987,0,0,0,0,0,0,0,-1,1994,862,54.8256,-9.36988
777,162,66.324,10.5801,0,0,0,0,0,0,0,-1,2001,862,66.3239,-10.5802
784,162,55.6492,10.6049,0,0,0,0,0,0,0,-1,2008,862,55.6491,-10.6049
791,162,0,0,0,0,0,0,0,0,0,-1,2015,862,0,0
798,162,0,0,0,0,0,0,0,0,0,-1,2022,862,0,0
805,162,0,0,0,0,0,0,0,0,0,-1,2029,862,0,0
812,162,0,0,0,0,0,0,0,0,0,-1,2036,862,0,0
-700,155,0,0,0,0,0,0,0,0,0,-1,524,869,0,0
-693,155,0,0,0,0,0,0,0,0,0,-1,531,869,0,0
-686,155,0,0,0,0,0,0,0,0,0,-1,538,869,0,0
-679,155,0,0,0,0,0,0,0,0,0,-1,545,869,0,0
-672,155,0,0,0,0,0,0,0,0,0,-1,552,869,0,0
-665,155,-50.9639,6.01917,0,0,0,0,0,0,0,-1,559,869,-50.9639,-6.01917
-658,155,-51.2028,4.90723,0,0,0,0,0,0,0,-1,566,869,-51.2028,-4.90722
-651,155,-51.22,3.81226,0,0,0,0,0,0,0,-1,573,869,-51.2201,-3.81228
-644,155,-134.493,32.0388,0,0,0,0,0,0,0,-1,580,869,-134.493,-32.0388
-637,155,-142.264,31.7313,0,0,0,0,0,0,0,-1,587,869,-142.264,-31.7313
-630,155,-199.049,38.7513,0,0,0,0,0,0,0,-1,594,869,-199.049,-38.7513
-623,155,-199.758,36.7957,0,0,0,0,0,0,0,-1,601,869,-199.758,-36.7957
-616,155,-199.827,35.4909,0.00019197,0.0479025,0.0157766,0.0526475,-0.00455304,1.27864,0.0367103,0.0314967,608,869,-199.827,-35.4909
-609,155,-200.105,33.9452,-0.00252865,0.0426675,0.0150789,0.0472364,-0.00709757,1.27659,0.0341039,0.0235643,615,869,-200.105,-33.9452
-602,155,-200.355,32.4381,-0.00364122,0.037144,0.0143578,0.0416914,-0.00818862,1.26407,0.0308878,0.018669,622,869,-200.355,-32.4381
-595,155,-200.583,30.8932,-0.00319228,0.0313454,0.0136322,0.0360777,-0.00792458,1.23667,0.0270826,0.0191294,629,869,-200.583,-30.8932
-588,155,-200.685,29.4177,-0.00123066,0.0252951,0.0129233,0.0305502,-0.00648578,1.18458,0.0228378,0.0353585,636,869,-200.685,-29.4177
-581,155,-200.493,27.8583,0,0,0,0,0,0,0,-1,643,869,-200.493,-27.8583
-574,155,-50.6295,2.30585,0,0,0,0,0,0,0,-1,650,869,-50.6295,-2.30585
-567,155,-38.0134,0.582214,0,0,0,0,0,0,0,-1,657,869,-38.0134,-0.582192
-560,155,-37.1416,-0.708008,0,0,0,0,0,0,0,-1,664,869,-37.1416,0.70801
-553,155,-36.7729,-1.71521,0,0,0,0,0,0,0,-1,671,869,-36.7729,1.71523
-546,155,-22.7988,0.873657,0,0,0,0,0,0,0,-1,678,869,-22.7988,-0.873645
-539,155,-72.6761,0.243042,0,0,0,0,0,0,0,-1,685,869,-72.6761,-0.243061
-532,155,-72.5966,0.578491,0,0,0,0,0,0,0,-1,692,869,-72.5965,-0.578462
-525,155,-72.6186,0.610901,0,0,0,0,0,0,0,-1,699,869,-72.6186,-0.61091
-518,155,-72.5714,0.588013,0,0,0,0,0,0,0,-1,706,869,-72.5714,-0.588003
-511,155,-72.443,0.543091,0,0,0,0,0,0,0,-1,713,869,-72.443,-0.543098
-504,155,-72.4114,0.27301,0,0,0,0,0,0,0,-1,720,869,-72.4115,-0.27298
-497,155,0,0,0,0,0,0,0,0,0,-1,727,869,0,0
-490,155,0,0,0,0,0,0,0,0,0,-1,734,869,0,0
-483,155,0,0,0,0,0,0,0,0,0,-1,741,869,0,0
-476,155,0,0,0,0,0,0,0,0,0,-1,748,869,0,0
-469,155,0,0,0,0,0,0,0,0,0,-1,755,869,0,0
-462,155,0,0,0,0,0,0,0,0,0,-1,762,869,0,0
-455,155,0,0,0,0,0,0,0,0,0,-1,769,869,0,0
-448,155,0,0,0,0,0,0,0,0,0,-1,776,869,0,0
-441,155,0,0,0,0,0,0,0,0,0,-1,783,869,0,0
-434,155,0,0,0,0,0,0,0,0,0,-1,790,869,0,0
-427,155,0,0,0,0,0,0,0,0,0,-1,797,869,0,0
-420,155,0,0,0,0,0,0,0,0,0,-1,804,869,0,0
-413,155,0,0,0,0,0,0,0,0,0,-1,811,869,0,0
-406,155,0,0,0,0,0,0,0,0,0,-1,818,869,0,0
-399,155,0,0,0,0,0,0,0,0,0,-1,825,869,0,0
-392,155,0,0,0,0,0,0,0,0,0,-1,832,869,0,0
-385,155,0,0,0,0,0,0,0,0,0,-1,839,869,0,0
-378,155,0,0,0,0,0,0,0,0,0,-1,846,869,0,0
-371,155,0,0,0,0,0,0,0,0,0,-1,853,869,0,0
-364,155,0,0,0,0,0,0,0,0,0,-1,860,869,0,0
-357,155,0,0,0,0,0,0,0,0,0,-1,867,869,0,0
-350,155,0,0,0,0,0,0,0,0,0,-1,874,869,0,0
-343,155,0,0,0,0,0,0,0,0,0,-1,881,869,0,0
-336,155,0,0,0,0,0,0,0,0,0,-1,888,869,0,0
-329,155,0,0,0,0,0,0,0,0,0,-1,895,869,0,0
-322,155,0,0,0,0,0,0,0,0,0,-1,902,869,0,0
-315,155,0,0,0,0,0,0,0,0,0,-1,909,869,0,0
-308,155,0,0,0,0,0,0,0,0,0,-1,916,869,0,0
-301,155,0,0,0,0,0,0,0,0,0,-1,923,869,0,0
-294,155,0,0,0,0,0,0,0,0,0,-1,930,869,0,0
-287,155,0,0,0,0,0,0,0,0,0,-1,937,869,0,0
-280,155,0,0,0,0,0,0,0,0,0,-1,944,869,0,0
-273,155,0,0,0,0,0,0,0,0,0,-1,951,869,0,0
-266,155,0,0,0,0,0,0,0,0,0,-1,958,869,0,0
-259,155,0,0,0,0,0,0,0,0,0,-1,965,869,0,0
-252,155,0,0,0,0,0,0,0,0,0,-1,972,869,0,0
-245,155,0,0,0,0,0,0,0,0,0,-1,979,869,0,0
-238,155,0,0,0,0,0,0,0,0,0,-1,986,869,0,0
-231,155,0,0,0,0,0,0,0,0,0,-1,993,869,0,0
-224,155,0,0,0,0,0,0,0,0,0,-1,1000,869,0,0
-217,155,0,0,0,0,0,0,0,0,0,-1,1007,869,0,0
-210,155,0,0,0,0,0,0,0,0,0,-1,1014,869,0,0
-203,155,0,0,0,0,0,0,0,0,0,-1,1021,869,0,0
-196,155,0,0,0,0,0,0,0,0,0,-1,1028,869,0,0
-189,155,0,0,0,0,0,0,0,0,0,-1,1035,869,0,0
-182,155,0,0,0,0,0,0,0,0,0,-1,1042,869,0,0
-175,155,0,0,0,0,0,0,0,0,0,-1,1049,869,0,0
-168,155,0,0,0,0,0,0,0,0,0,-1,1056,869,0,0
-161,155,0,0,0,0,0,0,0,0,0,-1,1063,869,0,0
-154,155,0,0,0,0,0,0,0,0,0,-1,1070,869,0,0
-147,155,0,0,0,0,0,0,0,0,0,-1,1077,869,0,0
-140,155,0,0,0,0,0,0,0,0,0,-1,1084,869,0,0
-133,155,0,0,0,0,0,0,0,0,0,-1,1091,869,0,0
-126,155,0,0,0,0,0,0,0,0,0,-1,1098,869,0,0
-119,155,0,0,0,0,0,0,0,0,0,-1,1105,869,0,0
-112,155,0,0,0,0,0,0,0,0,0,-1,1112,869,0,0
-105,155,0,0,0,0,0,0,0,0,0,-1,1119,869,0,0
-98,155,0,0,0,0,0,0,0,0,0,-1,1126,869,0,0
-91,155,0,0,0,0,0,0,0,0,0,-1,1133,869,0,0
-84,155,0,0,0,0,0,0,0,0,0,-1,1140,869,0,0
-77,155,0,0,0,0,0,0,0,0,0,-1,1147,869,0,0
-70,155,0,0,0,0,0,0,0,0,0,-1,1154,869,0,0
-63,155,0,0,0,0,0,0,0,0,0,-1,1161,869,0,0
-56,155,0,0,0,0,0,0,0,0,0,-1,1168,869,0,0
-49,155,0,0,0,0,0,0,0,0,0,-1,1175,869,0,0
-42,155,0,0,0,0,0,0,0,0,0,-1,1182,869,0,0
-35,155,0,0,0,0,0,0,0,0,0,-1,1189,869,0,0
-28,155,0,0,0,0,0,0,0,0,0,-1,1196,869,0,0
-21,155,0,0,0,0,0,0,0,0,0,-1,1203,869,0,0
-14,155,0,0,0,0,0,0,0,0,0,-1,1210,869,0,0
-7,155,0,0,0,0,0,0,0,0,0,-1,1217,869,0,0
0,155,0,0,0,0,0,0,0,0,0,-1,1224,869,0,0
7,155,0,0,0,0,0,0,0,0,0,-1,1231,869,0,0
14,155,0,0,0,0,0,0,0,0,0,-1,1238,869,0,0
21,155,0,0,0,0,0,0,0,0,0,-1,1245,869,0,0
28,155,0,0,0,0,0,0,0,0,0,-1,1252,869,0,0
35,155,0,0,0,0,0,0,0,0,0,-1,1259,869,0,0
42,155,0,0,0,0,0,0,0,0,0,-1,1266,869,0,0
49,155,0,0,0,0,0,0,0,0,0,-1,1273,869,0,0
56,155,0,0,0,0,0,0,0,0,0,-1,1280,869,0,0
63,155,0,0,0,0,0,0,0,0,0,-1,1287,869,0,0
70,155,0,0,0,0,0,0,0,0,0,-1,1294,869,0,0
77,155,0,0,0,0,0,0,0,0,0,-1,1301,869,0,0
84,155,0,0,0,0,0,0,0,0,0,-1,1308,869,0,0
91,155,0,0,0,0,0,0,0,0,0,-1,1315,869,0,0
98,155,0,0,0,0,0,0,0,0,0,-1,1322,869,0,0
105,155,0,0,0,0,0,0,0,0,0,-1,1329,869,0,0
112,155,0,0,0,0,0,0,0,0,0,-1,1336,869,0,0
119,155,0,0,0,0,0,0,0,0,0,-1,1343,869,0,0
126,155,0,0,0,0,0,0,0,0,0,-1,1350,869,0,0
133,155,0,0,0,0,0,0,0,0,0,-1,1357,869,0,0
140,155,0,0,0,0,0,0,0,0,0,-1,1364,869,0,0
147,155,0,0,0,0,0,0,0,0,0,-1,1371,869,0,0
154,155,0,0,0,0,0,0,0,0,0,-1,1378,869,0,0
161,155,0,0,0,0,0,0,0,0,0,-1,1385,869,0,0
168,155,0,0,0,0,0,0,0,0,0,-1,1392,869,0,0
175,155,0,0,0,0,0,0,0,0,0,-1,1399,869,0,0
182,155,0,0,0,0,0,0,0,0,0,-1,1406,869,0,0
189,155,0,0,0,0,0,0,0,0,0,-1,1413,869,0,0
196,155,0,0,0,0,0,0,0,0,0,-1,1420,869,0,0
203,155,0,0,0,0,0,0,0,0,0,-1,1427,869,0,0
210,155,0,0,0,0,0,0,0,0,0,-1,1434,869,0,0
217,155,0,0,0,0,0,0,0,0,0,-1,1441,869,0,0
224,155,0,0,0,0,0,0,0,0,0,-1,1448,869,0,0
231,155,0,0,0,0,0,0,0,0,0,-1,1455,869,0,0
238,155,0,0,0,0,0,0,0,0,0,-1,1462,869,0,0
245,155,0,0,0,0,0,0,0,0,0,-1,1469,869,0,0
252,155,0,0,0,0,0,0,0,0,0,-1,1476,869,0,0
259,155,0,0,0,0,0,0,0,0,0,-1,1483,869,0,0
266,155,0,0,0,0,0,0,0,0,0,-1,1490,869,0,0
273,155,0,0,0,0,0,0,0,0,0,-1,1497,869,0,0
280,155,0,0,0,0,0,0,0,0,0,-1,1504,869,0,0
287,155,0,0,0,0,0,0,0,0,0,-1,1511,869,0,0
294,155,0,0,0,0,0,0,0,0,0,-1,1518,869,0,0
301,155,0,0,0,0,0,0,0,0,0,-1,1525,869,0,0
308,155,0,0,0,0,0,0,0,0,0,-1,1532,869,0,0
315,155,0,0,0,0,0,0,0,0,0,-1,1539,869,0,0
322,155,0,0,0,0,0,0,0,0,0,-1,1546,869,0,0
329,155,0,0,0,0,0,0,0,0,0,-1,1553,869,0,0
336,155,0,0,0,0,0,0,0,0,0,-1,1560,869,0,0
343,155,0,0,0,0,0,0,0,0,0,-1,1567,869,0,0
350,155,0,0,0,0,0,0,0,0,0,-1,1574,869,0,0
357,155,0,0,0,0,0,0,0,0,0,-1,1581,869,0,0
364,155,0,0,0,0,0,0,0,0,0,-1,1588,869,0,0
371,155,0,0,0,0,0,0,0,0,0,-1,1595,869,0,0
378,155,0,0,0,0,0,0,0,0,0,-1,1602,869,0,0
385,155,0,0,0,0,0,0,0,0,0,-1,1609,869,0,0
392,155,0,0,0,0,0,0,0,0,0,-1,1616,869,0,0
399,155,0,0,0,0,0,0,0,0,0,-1,1623,869,0,0
406,155,0,0,0,0,0,0,0,0,0,-1,1630,869,0,0
413,155,0,0,0,0,0,0,0,0,0,-1,1637,869,0,0
420,155,0,0,0,0,0,0,0,0,0,-1,1644,869,0,0
427,155,0,0,0,0,0,0,0,0,0,-1,1651,869,0,0
434,155,0,0,0,0,0,0,0,0,0,-1,1658,869,0,0
441,155,0,0,0,0,0,0,0,0,0,-1,1665,869,0,0
448,155,0,0,0,0,0,0,0,0,0,-1,1672,869,0,0
455,155,0,0,0,0,0,0,0,0,0,-1,1679,869,0,0
462,155,0,0,0,0,0,0,0,0,0,-1,1686,869,0,0
469,155,0,0,0,0,0,0,0,0,0,-1,1693,869,0,0
476,155,0,0,0,0,0,0,0,0,0,-1,1700,869,0,0
483,155,0,0,0,0,0,0,0,0,0,-1,1707,869,0,0
490,155,0,0,0,0,0,0,0,0,0,-1,1714,869,0,0
497,155,0,0,0,0,0,0,0,0,0,-1,1721,869,0,0
504,155,0,0,0,0,0,0,0,0,0,-1,1728,869,0,0
511,155,0,0,0,0,0,0,0,0,0,-1,1735,869,0,0
518,155,0,0,0,0,0,0,0,0,0,-1,1742,869,0,0
525,155,0,0,0,0,0,0,0,0,0,-1,1749,869,0,0
532,155,0,0,0,0,0,0,0,0,0,-1,1756,869,0,0
539,155,0,0,0,0,0,0,0,0,0,-1,1763,869,0,0
546,155,0,0,0,0,0,0,0,0,0,-1,1770,869,0,0
553,155,0,0,0,0,0,0,0,0,0,-1,1777,869,0,0
560,155,0,0,0,0,0,0,0,0,0,-1,1784,869,0,0
567,155,0,0,0,0,0,0,0,0,0,-1,1791,869,0,0
574,155,0,0,0,0,0,0,0,0,0,-1,1798,869,0,0
581,155,0,0,0,0,0,0,0,0,0,-1,1805,869,0,0
588,155,0,0,0,0,0,0,0,0,0,-1,1812,869,0,0
595,155,0,0,0,0,0,0,0,0,0,-1,1819,869,0,0
602,155,0,0,0,0,0,0,0,0,0,-1,1826,869,0,0
609,155,0,0,0,0,0,0,0,0,0,-1,1833,869,0,0
616,155,228.435,8.78363,0,0,0,0,0,0,0,-1,1840,869,228.435,-8.78362
623,155,228.582,8.92584,0,0,0,0,0,0,0,-1,1847,869,228.581,-8.92585
630,155,228.572,8.92877,0,0,0,0,0,0,0,-1,1854,869,228.572,-8.92877
637,155,228.551,8.83398,0,0,0,0,0,0,0,-1,1861,869,228.551,-8.83401
644,155,228.591,8.74988,0,0,0,0,0,0,0,-1,1868,869,228.591,-8.74987
651,155,228.609,8.73969,0,0,0,0,0,0,0,-1,1875,869,228.609,-8.7397
658,155,228.569,8.72961,0,0,0,0,0,0,0,-1,1882,869,228.569,-8.72962
665,155,228.52,8.74878,0,0,0,0,0,0,0,-1,1889,869,228.52,-8.74876
672,155,228.69,8.38562,0,0,0,0,0,0,0,-1,1896,869,228.691,-8.3856
679,155,35.1565,2.78528,0,0,0,0,0,0,0,-1,1903,869,35.1565,-2.7853
686,155,43.6101,1.63361,0,0,0,0,0,0,0,-1,1910,869,43.6101,-1.63362
693,155,70.7813,1.23804,0,0,0,0,0,0,0,-1,1917,869,70.7813,-1.23802
700,155,209.307,24.6905,0,0,0,0,0,0,0,-1,1924,869,209.307,-24.6905
707,155,209.625,26.2409,0,0,0,0,0,0,0,-1,1931,869,209.624,-26.2409
714,155,209.264,27.4247,0,0,0,0,0,0,0,-1,1938,869,209.264,-27.4248
721,155,208.717,29.494,0,0,0,0,0,0,0,-1,1945,869,208.717,-29.494
728,155,208.497,30.9965,-0.0135369,0.0303324,-0.0132907,0.0340448,-0.0172493,-1.29841,0.0301392,0.0301793,1952,869,208.497,-30.9965
735,155,208.271,32.4729,-0.0162386,0.0373353,-0.0159778,0.0417386,-0.0206419,-1.30188,0.0366955,0.0236595,1959,869,208.271,-32.4729
742,155,208.037,33.8925,-0.0188078,0.0444829,-0.0186393,0.0495643,-0.0238892,-1.30465,0.0432633,0.0302966,1966,869,208.037,-33.8925
749,155,207.648,35.218,-0.0211337,0.0518662,-0.0211242,0.0575382,-0.0268057,-1.30847,0.0497619,0.0345338,1973,869,207.648,-35.218
756,155,207.234,36.5082,0,0,0,0,0,0,0,-1,1980,869,207.234,-36.5082
763,155,154.673,33.9367,0,0,0,0,0,0,0,-1,1987,869,154.673,-33.9367
770,155,74.0938,12.5649,0,0,0,0,0,0,0,-1,1994,869,74.0936,-12.565
777,155,73.948,14.0645,0,0,0,0,0,0,0,-1,2001,869,73.948,-14.0645
784,155,69.9526,8.4718,0,0,0,0,0,0,0,-1,2008,869,69.9525,-8.47183
791,155,0,0,0,0,0,0,0,0,0,-1,2015,869,0,0
798,155,0,0,0,0,0,0,0,0,0,-1,2022,869,0,0
805,155,0,0,0,0,0,0,0,0,0,-1,2029,869,0,0
812,155,0,0,0,0,0,0,0,0,0,-1,2036,869,0,0
-700,148,0,0,0,0,0,0,0,0,0,-1,524,876,0,0
-693,148,0,0,0,0,0,0,0,0,0,-1,531,876,0,0
-686,148,0,0,0,0,0,0,0,0,0,-1,538,876,0,0
-679,148,0,0,0,0,0,0,0,0,0,-1,545,876,0,0
-672,148,-48.1407,-0.726746,0,0,0,0,0,0,0,-1,552,876,-48.1407,0.726755
-665,148,-48.2041,-3.97095,0,0,0,0,0,0,0,-1,559,876,-48.2041,3.97096
-658,148,-51.7661,3.82794,0,0,0,0,0,0,0,-1,566,876,-51.7661,-3.82797
-651,148,-52.0392,2.79663,0,0,0,0,0,0,0,-1,573,876,-52.0392,-2.79661
-644,148,-52.2687,1.81482,0,0,0,0,0,0,0,-1,580,876,-52.2687,-1.81482
-637,148,-52.5708,0.881165,0,0,0,0,0,0,0,-1,587,876,-52.5708,-0.88117
-630,148,-200.734,39.6432,0,0,0,0,0,0,0,-1,594,876,-200.734,-39.6432
-623,148,-201.014,37.5598,0,0,0,0,0,0,0,-1,601,876,-201.014,-37.5598
-616,148,-201.533,35.5302,-0.00170176,0.0459873,0.0150219,0.0503246,-0.00603914,1.2897,0.0357333,0.0319996,608,876,-201.533,-35.5301
-609,148,-201.88,33.9303,-0.00359067,0.0405827,0.0141578,0.0447309,-0.0077388,1.28578,0.0327068,0.0211096,615,876,-201.88,-33.9303
-602,148,-202.088,32.3612,-0.00423592,0.0349904,0.0132689,0.0390572,-0.00830269,1.2734,0.0292018,0.0199662,622,876,-202.088,-32.3612
-595,148,-202.286,30.8337,-0.0036495,0.0292178,0.0123649,0.03335,-0.00778176,1.24827,0.0252305,0.0182682,629,876,-202.286,-30.8337
-588,148,-202.516,29.3337,-0.00184055,0.0232794,0.0114561,0.0277193,-0.00628046,1.20106,0.0208901,0.0389185,636,876,-202.516,-29.3337
-581,148,-202.538,27.8256,0,0,0,0,0,0,0,-1,643,876,-202.538,-27.8256
-574,148,-141.084,19.3962,0,0,0,0,0,0,0,-1,650,876,-141.084,-19.3962
-567,148,-35.6293,0.615784,0,0,0,0,0,0,0,-1,657,876,-35.6293,-0.615792
-560,148,-37.7973,-0.588135,0,0,0,0,0,0,0,-1,664,876,-37.7973,0.588143
-553,148,-18.3896,-0.00280762,0,0,0,0,0,0,0,-1,671,876,-18.3897,0.00278524
-546,148,-72.6356,0.278809,0,0,0,0,0,0,0,-1,678,876,-72.6356,-0.278824
-539,148,-72.5992,0.387451,0,0,0,0,0,0,0,-1,685,876,-72.5992,-0.387442
-532,148,-72.5662,0.512207,0,0,0,0,0,0,0,-1,692,876,-72.5661,-0.512225
-525,148,-72.5568,0.659302,0,0,0,0,0,0,0,-1,699,876,-72.5568,-0.659294
-518,148,-72.5514,0.678345,0,0,0,0,0,0,0,-1,706,876,-72.5514,-0.678346
-511,148,-72.4734,0.641174,0,0,0,0,0,0,0,-1,713,876,-72.4734,-0.64118
-504,148,-72.4635,0.438782,0,0,0,0,0,0,0,-1,720,876,-72.4635,-0.438791
-497,148,0,0,0,0,0,0,0,0,0,-1,727,876,0,0
-490,148,0,0,0,0,0,0,0,0,0,-1,734,876,0,0
-483,148,0,0,0,0,0,0,0,0,0,-1,741,876,0,0
-476,148,0,0,0,0,0,0,0,0,0,-1,748,876,0,0
-469,148,0,0,0,0,0,0,0,0,0,-1,755,876,0,0
-462,148,0,0,0,0,0,0,0,0,0,-1,762,876,0,0
-455,148,0,0,0,0,0,0,0,0,0,-1,769,876,0,0
-448,148,0,0,0,0,0,0,0,0,0,-1,776,876,0,0
-441,148,0,0,0,0,0,0,0,0,0,-1,783,876,0,0
-434,148,0,0,0,0,0,0,0,0,0,-1,790,876,0,0
-427,148,0,0,0,0,0,0,0,0,0,-1,797,876,0,0
-420,148,0,0,0,0,0,0,0,0,0,-1,804,876,0,0
-413,148,0,0,0,0,0,0,0,0,0,-1,811,876,0,0
-406,148,0,0,0,0,0,0,0,0,0,-1,818,876,0,0
-399,148,0,0,0,0,0,0,0,0,0,-1,825,876,0,0
-392,148,0,0,0,0,0,0,0,0,0,-1,832,876,0,0
-385,148,0,0,0,0,0,0,0,0,0,-1,839,876,0,0
-378,148,0,0,0,0,0,0,0,0,0,-1,846,876,0,0
-371,148,0,0,0,0,0,0,0,0,0,-1,853,876,0,0
-364,148,0,0,0,0,0,0,0,0,0,-1,860,876,0,0
-357,148,0,0,0,0,0,0,0,0,0,-1,867,876,0,0
-350,148,0,0,0,0,0,0,0,0,0,-1,874,876,0,0
-343,148,0,0,0,0,0,0,0,0,0,-1,881,876,0,0
-336,148,0,0,0,0,0,0,0,0,0,-1,888,876,0,0
-329,148,0,0,0,0,0,0,0,0,0,-1,895,876,0,0
-322,148,0,0,0,0,0,0,0,0,0,-1,902,876,0,0
-315,148,0,0,0,0,0,0,0,0,0,-1,909,876,0,0
-308,148,0,0,0,0,0,0,0,0,0,-1,916,876,0,0
-301,148,0,0,0,0,0,0,0,0,0,-1,923,876,0,0
-294,148,0,0,0,0,0,0,0,0,0,-1,930,876,0,0
-287,148,0,0,0,0,0,0,0,0,0,-1,937,876,0,0
-280,148,0,0,0,0,0,0,0,0,0,-1,944,876,0,0
-273,148,0,0,0,0,0,0,0,0,0,-1,951,876,0,0
-266,148,0,0,0,0,0,0,0,0,0,-1,958,876,0,0
-259,148,0,0,0,0,0,0,0,0,0,-1,965,876,0,0
-252,148,0,0,0,0,0,0,0,0,0,-1,972,876,0,0
-245,148,0,0,0,0,0,0,0,0,0,-1,979,876,0,0
-238,148,0,0,0,0,0,0,0,0,0,-1,986,876,0,0
-231,148,0,0,0,0,0,0,0,0,0,-1,993,876,0,0
-224,148,0,0,0,0,0,0,0,0,0,-1,1000,876,0,0
-217,148,0,0,0,0,0,0,0,0,0,-1,1007,876,0,0
-210,148,0,0,0,0,0,0,0,0,0,-1,1014,876,0,0
-203,148,0,0,0,0,0,0,0,0,0,-1,1021,876,0,0
-196,148,0,0,0,0,0,0,0,0,0,-1,1028,876,0,0
-189,148,0,0,0,0,0,0,0,0,0,-1,1035,876,0,0
-182,148,0,0,0,0,0,0,0,0,0,-1,1042,876,0,0
-175,148,0,0,0,0,0,0,0,0,0,-1,1049,876,0,0
-168,148,0,0,0,0,0,0,0,0,0,-1,1056,876,0,0
-161,148,0,0,0,0,0,0,0,0,0,-1,1063,876,0,0
-154,148,0,0,0,0,0,0,0,0,0,-1,1070,876,0,0
-147,148,0,0,0,0,0,0,0,0,0,-1,1077,876,0,0
-140,148,0,0,0,0,0,0,0,0,0,-1,1084,876,0,0
-133,148,0,0,0,0,0,0,0,0,0,-1,1091,876,0,0
-126,148,0,0,0,0,0,0,0,0,0,-1,1098,876,0,0
-119,148,0,0,0,0,0,0,0,0,0,-1,1105,876,0,0
-112,148,0,0,0,0,0,0,0,0,0,-1,1112,876,0,0
-105,148,0,0,0,0,0,0,0,0,0,-1,1119,876,0,0
-98,148,0,0,0,0,0,0,0,0,0,-1,1126,876,0,0
-91,148,0,0,0,0,0,0,0,0,0,-1,1133,876,0,0
-84,148,0,0,0,0,0,0,0,0,0,-1,1140,876,0,0
-77,148,0,0,0,0,0,0,0,0,0,-1,1147,876,0,0
-70,148,0,0,0,0,0,0,0,0,0,-1,1154,876,0,0
-63,148,0,0,0,0,0,0,0,0,0,-1,1161,876,0,0
-56,148,0,0,0,0,0,0,0,0,0,-1,1168,876,0,0
-49,148,0,0,0,0,0,0,0,0,0,-1,1175,876,0,0
-42,148,0,0,0,0,0,0,0,0,0,-1,1182,876,0,0
-35,148,0,0,0,0,0,0,0,0,0,-1,1189,876,0,0
-28,148,0,0,0,0,0,0,0,0,0,-1,1196,876,0,0
-21,148,0,0,0,0,0,0,0,0,0,-1,1203,876,0,0
-14,148,0,0,0,0,0,0,0,0,0,-1,1210,876,0,0
-7,148,0,0,0,0,0,0,0,0,0,-1,1217,876,0,0
0,148,0,0,0,0,0,0,0,0,0,-1,1224,876,0,0
7,148,0,0,0,0,0,0,0,0,0,-1,1231,876,0,0
14,148,0,0,0,0,0,0,0,0,0,-1,1238,876,0,0
21,148,0,0,0,0,0,0,0,0,0,-1,1245,876,0,0
28,148,0,0,0,0,0,0,0,0,0,-1,1252,876,0,0
35,148,0,0,0,0,0,0,0,0,0,-1,1259,876,0,0
42,148,0,0,0,0,0,0,0,0,0,-1,1266,876,0,0
49,148,0,0,0,0,0,0,0,0,0,-1,1273,876,0,0
56,148,0,0,0,0,0,0,0,0,0,-1,1280,876,0,0
63,148,0,0,0,0,0,0,0,0,0,-1,1287,876,0,0
70,148,0,0,0,0,0,0,0,0,0,-1,1294,876,0,0
77,148,0,0,0,0,0,0,0,0,0,-1,1301,876,0,0
84,148,0,0,0,0,0,0,0,0,0,-1,1308,876,0,0
91,148,0,0,0,0,0,0,0,0,0,-1,1315,876,0,0
98,148,0,0,0,0,0,0,0,0,0,-1,1322,876,0,0
105,148,0,0,0,0,0,0,0,0,0,-1,1329,876,0,0
112,148,0,0,0,0,0,0,0,0,0,-1,1336,876,0,0
119,148,0,0,0,0,0,0,0,0,0,-1,1343,876,0,0
126,148,0,0,0,0,0,0,0,0,0,-1,1350,876,0,0
133,148,0,0,0,0,0,0,0,0,0,-1,1357,876,0,0
140,148,0,0,0,0,0,0,0,0,0,-1,1364,876,0,0
147,148,0,0,0,0,0,0,0,0,0,-1,1371,876,0,0
154,148,0,0,0,0,0,0,0,0,0,-1,1378,876,0,0
161,148,0,0,0,0,0,0,0,0,0,-1,1385,876,0,0
168,148,0,0,0,0,0,0,0,0,0,-1,1392,876,0,0
175,148,0,0,0,0,0,0,0,0,0,-1,1399,876,0,0
182,148,0,0,0,0,0,0,0,0,0,-1,1406,876,0,0
189,148,0,0,0,0,0,0,0,0,0,-1,1413,876,0,0
196,148,0,0,0,0,0,0,0,0,0,-1,1420,876,0,0
203,148,0,0,0,0,0,0,0,0,0,-1,1427,876,0,0
210,148,0,0,0,0,0,0,0,0,0,-1,1434,876,0,0
217,148,0,0,0,0,0,0,0,0,0,-1,1441,876,0,0
224,148,0,0,0,0,0,0,0,0,0,-1,1448,876,0,0
231,148,0,0,0,0,0,0,0,0,0,-1,1455,876,0,0
238,148,0,0,0,0,0,0,0,0,0,-1,1462,876,0,0
245,148,0,0,0,0,0,0,0,0,0,-1,1469,876,0,0
252,148,0,0,0,0,0,0,0,0,0,-1,1476,876,0,0
259,148,0,0,0,0,0,0,0,0,0,-1,1483,876,0,0
266,148,0,0,0,0,0,0,0,0,0,-1,1490,876,0,0
273,148,0,0,0,0,0,0,0,0,0,-1,1497,876,0,0
280,148,0,0,0,0,0,0,0,0,0,-1,1504,876,0,0
287,148,0,0,0,0,0,0,0,0,0,-1,1511,876,0,0
294,148,0,0,0,0,0,0,0,0,0,-1,1518,876,0,0
301,148,0,0,0,0,0,0,0,0,0,-1,1525,876,0,0
308,148,0,0,0,0,0,0,0,0,0,-1,1532,876,0,0
315,148,0,0,0,0,0,0,0,0,0,-1,1539,876,0,0
322,148,0,0,0,0,0,0,0,0,0,-1,1546,876,0,0
329,148,0,0,0,0,0,0,0,0,0,-1,1553,876,0,0
336,148,0,0,0,0,0,0,0,0,0,-1,1560,876,0,0
343,148,0,0,0,0,0,0,0,0,0,-1,1567,876,0,0
350,148,0,0,0,0,0,0,0,0,0,-1,1574,876,0,0
357,148,0,0,0,0,0,0,0,0,0,-1,1581,876,0,0
364,148,0,0,0,0,0,0,0,0,0,-1,1588,876,0,0
371,148,0,0,0,0,0,0,0,0,0,-1,1595,876,0,0
378,148,0,0,0,0,0,0,0,0,0,-1,1602,876,0,0
385,148,0,0,0,0,0,0,0,0,0,-1,1609,876,0,0
392,148,0,0,0,0,0,0,0,0,0,-1,1616,876,0,0
399,148,0,0,0,0,0,0,0,0,0,-1,1623,876,0,0
406,148,0,0,0,0,0,0,0,0,0,-1,1630,876,0,0
413,148,0,0,0,0,0,0,0,0,0,-1,1637,876,0,0
420,148,0,0,0,0,0,0,0,0,0,-1,1644,876,0,0
427,148,0,0,0,0,0,0,0,0,0,-1,1651,876,0,0
434,148,0,0,0,0,0,0,0,0,0,-1,1658,876,0,0
441,148,0,0,0,0,0,0,0,0,0,-1,1665,876,0,0
448,148,0,0,0,0,0,0,0,0,0,-1,1672,876,0,0
455,148,0,0,0,0,0,0,0,0,0,-1,1679,876,0,0
462,148,0,0,0,0,0,0,0,0,0,-1,1686,876,0,0
469,148,0,0,0,0,0,0,0,0,0,-1,1693,876,0,0
476,148,0,0,0,0,0,0,0,0,0,-1,1700,876,0,0
483,148,0,0,0,0,0,0,0,0,0,-1,1707,876,0,0
490,148,0,0,0,0,0,0,0,0,0,-1,1714,876,0,0
497,148,0,0,0,0,0,0,0,0,0,-1,1721,876,0,0
504,148,0,0,0,0,0,0,0,0,0,-1,1728,876,0,0
511,148,0,0,0,0,0,0,0,0,0,-1,1735,876,0,0
518,148,0,0,0,0,0,0,0,0,0,-1,1742,876,0,0
525,148,0,0,0,0,0,0,0,0,0,-1,1749,876,0,0
532,148,0,0,0,0,0,0,0,0,0,-1,1756,876,0,0
539,148,0,0,0,0,0,0,0,0,0,-1,1763,876,0,0
546,148,0,0,0,0,0,0,0,0,0,-1,1770,876,0,0
553,148,0,0,0,0,0,0,0,0,0,-1,1777,876,0,0
560,148,0,0,0,0,0,0,0,0,0,-1,1784,876,0,0
567,148,0,0,0,0,0,0,0,0,0,-1,1791,876,0,0
574,148,0,0,0,0,0,0,0,0,0,-1,1798,876,0,0
581,148,0,0,0,0,0,0,0,0,0,-1,1805,876,0,0
588,148,0,0,0,0,0,0,0,0,0,-1,1812,876,0,0
595,148,0,0,0,0,0,0,0,0,0,-1,1819,876,0,0
602,148,0,0,0,0,0,0,0,0,0,-1,1826,876,0,0
609,148,0,0,0,0,0,0,0,0,0,-1,1833,876,0,0
616,148,0,0,0,0,0,0,0,0,0,-1,1840,876,0,0
623,148,228.568,8.78137,0,0,0,0,0,0,0,-1,1847,876,228.568,-8.7814
630,148,228.445,8.90546,0,0,0,0,0,0,0,-1,1854,876,228.445,-8.90545
637,148,228.454,8.90735,0,0,0,0,0,0,0,-1,1861,876,228.454,-8.90733
644,148,228.504,8.75946,0,0,0,0,0,0,0,-1,1868,876,228.504,-8.75945
651,148,228.569,8.6452,0,0,0,0,0,0,0,-1,1875,876,228.569,-8.64523
658,148,228.577,8.69836,0,0,0,0,0,0,0,-1,1882,876,228.577,-8.69834
665,148,228.517,8.80908,0,0,0,0,0,0,0,-1,1889,876,228.517,-8.80906
672,148,228.564,8.64441,0,0,0,0,0,0,0,-1,1896,876,228.564,-8.64439
679,148,228.639,8.46301,0,0,0,0,0,0,0,-1,1903,876,228.639,-8.463
686,148,21.6195,2.40845,0,0,0,0,0,0,0,-1,1910,876,21.6196,-2.40846
693,148,48.1387,1.97351,0,0,0,0,0,0,0,-1,1917,876,48.1387,-1.97351
700,148,172.962,23.575,0,0,0,0,0,0,0,-1,1924,876,172.962,-23.5749
707,148,211.444,26.6099,0,0,0,0,0,0,0,-1,1931,876,211.444,-26.6098
714,148,211.091,27.9641,0,0,0,0,0,0,0,-1,1938,876,211.091,-27.9641
721,148,210.505,29.4301,-0.0105271,0.0205109,-0.00903589,0.0229498,-0.012966,-1.30716,0.0210014,0.0429307,1945,876,210.505,-29.43
728,148,210.317,30.9213,-0.0129038,0.0273596,-0.0116016,0.0304633,-0.0160075,-1.3094,0.0272592,0.0287249,1952,876,210.317,-30.9213
735,148,210.113,32.4191,-0.0152275,0.0342876,-0.0141608,0.0380514,-0.0189913,-1.31102,0.0335408,0.0280643,1959,876,210.113,-32.4191
742,148,209.705,33.7906,-0.0173504,0.0413496,-0.0166408,0.0457388,-0.0217397,-1.3129,0.0397716,0.0310817,1966,876,209.705,-33.7907
749,148,209.337,35.0599,-0.0191343,0.0486242,-0.0189117,0.0535451,-0.0240552,-1.31623,0.0458683,0.0347799,1973,876,209.337,-35.0599
756,148,209.238,36.5338,-0.0205408,0.0560725,-0.0209747,0.0614389,-0.0259072,-1.32032,0.0518015,0.0403993,1980,876,209.238,-36.5337
763,148,209.196,38.1887,0,0,0,0,0,0,0,-1,1987,876,209.196,-38.1886
770,148,108.528,22.8148,0,0,0,0,0,0,0,-1,1994,876,108.528,-22.8148
777,148,75.2727,13.6713,0,0,0,0,0,0,0,-1,2001,876,75.2726,-13.6714
784,148,75.4836,15.2984,0,0,0,0,0,0,0,-1,2008,876,75.4836,-15.2984
791,148,71.4524,10.6003,0,0,0,0,0,0,0,-1,2015,876,71.4523,-10.6003
798,148,0,0,0,0,0,0,0,0,0,-1,2022,876,0,0
805,148,0,0,0,0,0,0,0,0,0,-1,2029,876,0,0
812,148,0,0,0,0,0,0,0,0,0,-1,2036,876,0,0
-700,141,0,0,0,0,0,0,0,0,0,-1,524,883,0,0
-693,141,0,0,0,0,0,0,0,0,0,-1,531,883,0,0
-686,141,0,0,0,0,0,0,0,0,0,-1,538,883,0,0
-679,141,0,0,0,0,0,0,0,0,0,-1,545,883,0,0
-672,141,-48.7804,-0.600891,0,0,0,0,0,0,0,-1,552,883,-48.7804,0.600898
-665,141,-48.764,-3.67065,0,0,0,0,0,0,0,-1,559,883,-48.764,3.67066
-658,141,-52.3438,3.12531,0,0,0,0,0,0,0,-1,566,883,-52.3438,-3.1253
-651,141,-53.1779,1.50293,0,0,0,0,0,0,0,-1,573,883,-53.1778,-1.50292
-644,141,-52.4205,-0.191956,0,0,0,0,0,0,0,-1,580,883,-52.4205,0.191941
-637,141,-52.859,0.400024,0,0,0,0,0,0,0,-1,587,883,-52.859,-0.400006
-630,141,-179.258,37.9363,0,0,0,0,0,0,0,-1,594,883,-179.258,-37.9364
-623,141,-202.749,36.9304,0,0,0,0,0,0,0,-1,601,883,-202.749,-36.9304
-616,141,-203.293,35.3169,-0.00393701,0.0445161,0.0142453,0.0483939,-0.0078148,1.30502,0.0351582,0.0275045,608,883,-203.293,-35.3169
-609,141,-203.641,33.7804,-0.00472787,0.0387366,0.0131966,0.0424295,-0.0084208,1.29794,0.0314711,0.0210767,615,883,-203.641,-33.7804
-602,141,-203.783,32.3035,-0.00460814,0.0328593,0.0121345,0.0364459,-0.0081948,1.2834,0.0274399,0.0212509,622,883,-203.783,-32.3034
-595,141,-203.867,30.8539,-0.00357628,0.0268884,0.011071,0.0304867,-0.00717456,1.25655,0.0230906,0.0247905,629,883,-203.867,-30.8539
-588,141,-204.419,29.0849,0,0,0,0,0,0,0,-1,636,883,-204.419,-29.0849
-581,141,-204.504,27.735,0,0,0,0,0,0,0,-1,643,883,-204.504,-27.735
-574,141,-171.227,25.0035,0,0,0,0,0,0,0,-1,650,883,-171.227,-25.0035
-567,141,-30.5335,0.480103,0,0,0,0,0,0,0,-1,657,883,-30.5335,-0.480081
-560,141,-30.5542,0.23175,0,0,0,0,0,0,0,-1,664,883,-30.5542,-0.231742
-553,141,-32.0876,1.39459,0,0,0,0,0,0,0,-1,671,883,-32.0876,-1.3946
-546,141,-72.5951,0.447754,0,0,0,0,0,0,0,-1,678,883,-72.5951,-0.447775
-539,141,-72.5854,0.451538,0,0,0,0,0,0,0,-1,685,883,-72.5855,-0.451528
-532,141,-72.5859,0.468872,0,0,0,0,0,0,0,-1,692,883,-72.5859,-0.468888
-525,141,-72.6156,0.501648,0,0,0,0,0,0,0,-1,699,883,-72.6156,-0.501667
-518,141,-72.6504,0.630859,0,0,0,0,0,0,0,-1,706,883,-72.6504,-0.630879
-511,141,-72.6628,0.72522,0,0,0,0,0,0,0,-1,713,883,-72.6628,-0.725227
-504,141,-72.6421,0.891968,0,0,0,0,0,0,0,-1,720,883,-72.6421,-0.891968
-497,141,0,0,0,0,0,0,0,0,0,-1,727,883,0,0
-490,141,0,0,0,0,0,0,0,0,0,-1,734,883,0,0
-483,141,0,0,0,0,0,0,0,0,0,-1,741,883,0,0
-476,141,0,0,0,0,0,0,0,0,0,-1,748,883,0,0
-469,141,0,0,0,0,0,0,0,0,0,-1,755,883,0,0
-462,141,0,0,0,0,0,0,0,0,0,-1,762,883,0,0
-455,141,0,0,0,0,0,0,0,0,0,-1,769,883,0,0
-448,141,0,0,0,0,0,0,0,0,0,-1,776,883,0,0
-441,141,0,0,0,0,0,0,0,0,0,-1,783,883,0,0
-434,141,0,0,0,0,0,0,0,0,0,-1,790,883,0,0
-427,141,0,0,0,0,0,0,0,0,0,-1,797,883,0,0
-420,141,0,0,0,0,0,0,0,0,0,-1,804,883,0,0
-413,141,0,0,0,0,0,0,0,0,0,-1,811,883,0,0
-406,141,0,0,0,0,0,0,0,0,0,-1,818,883,0,0
-399,141,0,0,0,0,0,0,0,0,0,-1,825,883,0,0
-392,141,0,0,0,0,0,0,0,0,0,-1,832,883,0,0
-385,141,0,0,0,0,0,0,0,0,0,-1,839,883,0,0
-378,141,0,0,0,0,0,0,0,0,0,-1,846,883,0,0
-371,141,0,0,0,0,0,0,0,0,0,-1,853,883,0,0
-364,141,0,0,0,0,0,0,0,0,0,-1,860,883,0,0
-357,141,0,0,0,0,0,0,0,0,0,-1,867,883,0,0
-350,141,0,0,0,0,0,0,0,0,0,-1,874,883,0,0
-343,141,0,0,0,0,0,0,0,0,0,-1,881,883,0,0
-336,141,0,0,0,0,0,0,0,0,0,-1,888,883,0,0
-329,141,0,0,0,0,0,0,0,0,0,-1,895,883,0,0
-322,141,0,0,0,0,0,0,0,0,0,-1,902,883,0,0
-315,141,0,0,0,0,0,0,0,0,0,-1,909,883,0,0
-308,141,0,0,0,0,0,0,0,0,0,-1,916,883,0,0
-301,141,0,0,0,0,0,0,0,0,0,-1,923,883,0,0
-294,141,0,0,0,0,0,0,0,0,0,-1,930,883,0,0
-287,141,0,0,0,0,0,0,0,0,0,-1,937,883,0,0
-280,141,0,0,0,0,0,0,0,0,0,-1,944,883,0,0
-273,141,0,0,0,0,0,0,0,0,0,-1,951,883,0,0
-266,141,0,0,0,0,0,0,0,0,0,-1,958,883,0,0
-259,141,0,0,0,0,0,0,0,0,0,-1,965,883,0,0
-252,141,0,0,0,0,0,0,0,0,0,-1,972,883,0,0
-245,141,0,0,0,0,0,0,0,0,0,-1,979,883,0,0
-238,141,0,0,0,0,0,0,0,0,0,-1,986,883,0,0
-231,141,0,0,0,0,0,0,0,0,0,-1,993,883,0,0
-224,141,0,0,0,0,0,0,0,0,0,-1,1000,883,0,0
-217,141,0,0,0,0,0,0,0,0,0,-1,1007,883,0,0
-210,141,0,0,0,0,0,0,0,0,0,-1,1014,883,0,0
-203,141,0,0,0,0,0,0,0,0,0,-1,1021,883,0,0
-196,141,0,0,0,0,0,0,0,0,0,-1,1028,883,0,0
-189,141,0,0,0,0,0,0,0,0,0,-1,1035,883,0,0
-182,141,0,0,0,0,0,0,0,0,0,-1,1042,883,0,0
-175,141,0,0,0,0,0,0,0,0,0,-1,1049,883,0,0
-168,141,0,0,0,0,0,0,0,0,0,-1,1056,883,0,0
-161,141,0,0,0,0,0,0,0,0,0,-1,1063,883,0,0
-154,141,0,0,0,0,0,0,0,0,0,-1,1070,883,0,0
-147,141,0,0,0,0,0,0,0,0,0,-1,1077,883,0,0
-140,141,0,0,0,0,0,0,0,0,0,-1,1084,883,0,0
-133,141,0,0,0,0,0,0,0,0,0,-1,1091,883,0,0
-126,141,0,0,0,0,0,0,0,0,0,-1,1098,883,0,0
-119,141,0,0,0,0,0,0,0,0,0,-1,1105,883,0,0
-112,141,0,0,0,0,0,0,0,0,0,-1,1112,883,0,0
-105,141,0,0,0,0,0,0,0,0,0,-1,1119,883,0,0
-98,141,0,0,0,0,0,0,0,0,0,-1,1126,883,0,0
-91,141,0,0,0,0,0,0,0,0,0,-1,1133,883,0,0
-84,141,0,0,0,0,0,0,0,0,0,-1,1140,883,0,0
-77,141,0,0,0,0,0,0,0,0,0,-1,1147,883,0,0
-70,141,0,0,0,0,0,0,0,0,0,-1,1154,883,0,0
-63,141,0,0,0,0,0,0,0,0,0,-1,1161,883,0,0
-56,141,0,0,0,0,0,0,0,0,0,-1,1168,883,0,0
-49,141,0,0,0,0,0,0,0,0,0,-1,1175,883,0,0
-42,141,0,0,0,0,0,0,0,0,0,-1,1182,883,0,0
-35,141,0,0,0,0,0,0,0,0,0,-1,1189,883,0,0
-28,141,0,0,0,0,0,0,0,0,0,-1,1196,883,0,0
-21,141,0,0,0,0,0,0,0,0,0,-1,1203,883,0,0
-14,141,0,0,0,0,0,0,0,0,0,-1,1210,883,0,0
-7,141,0,0,0,0,0,0,0,0,0,-1,1217,883,0,0
0,141,0,0,0,0,0,0,0,0,0,-1,1224,883,0,0
7,141,0,0,0,0,0,0,0,0,0,-1,1231,883,0,0
14,141,0,0,0,0,0,0,0,0,0,-1,1238,883,0,0
21,141,0,0,0,0,0,0,0,0,0,-1,1245,883,0,0
28,141,0,0,0,0,0,0,0,0,0,-1,1252,883,0,0
35,141,0,0,0,0,0,0,0,0,0,-1,1259,883,0,0
42,141,0,0,0,0,0,0,0,0,0,-1,1266,883,0,0
49,141,0,0,0,0,0,0,0,0,0,-1,1273,883,0,0
56,141,0,0,0,0,0,0,0,0,0,-1,1280,883,0,0
63,141,0,0,0,0,0,0,0,0,0,-1,1287,883,0,0
70,141,0,0,0,0,0,0,0,0,0,-1,1294,883,0,0
77,141,0,0,0,0,0,0,0,0,0,-1,1301,883,0,0
84,141,0,0,0,0,0,0,0,0,0,-1,1308,883,0,0
91,141,0,0,0,0,0,0,0,0,0,-1,1315,883,0,0
98,141,0,0,0,0,0,0,0,0,0,-1,1322,883,0,0
105,141,0,0,0,0,0,0,0,0,0,-1,1329,883,0,0
112,141,0,0,0,0,0,0,0,0,0,-1,1336,883,0,0
119,141,0,0,0,0,0,0,0,0,0,-1,1343,883,0,0
126,141,0,0,0,0,0,0,0,0,0,-1,1350,883,0,0
133,141,0,0,0,0,0,0,0,0,0,-1,1357,883,0,0
140,141,0,0,0,0,0,0,0,0,0,-1,1364,883,0,0
147,141,0,0,0,0,0,0,0,0,0,-1,1371,883,0,0
154,141,0,0,0,0,0,0,0,0,0,-1,1378,883,0,0
161,141,0,0,0,0,0,0,0,0,0,-1,1385,883,0,0
168,141,0,0,0,0,0,0,0,0,0,-1,1392,883,0,0
175,141,0,0,0,0,0,0,0,0,0,-1,1399,883,0,0
182,141,0,0,0,0,0,0,0,0,0,-1,1406,883,0,0
189,141,0,0,0,0,0,0,0,0,0,-1,1413,883,0,0
196,141,0,0,0,0,0,0,0,0,0,-1,1420,883,0,0
203,141,0,0,0,0,0,0,0,0,0,-1,1427,883,0,0
210,141,0,0,0,0,0,0,0,0,0,-1,1434,883,0,0
217,141,0,0,0,0,0,0,0,0,0,-1,1441,883,0,0
224,141,0,0,0,0,0,0,0,0,0,-1,1448,883,0,0
231,141,0,0,0,0,0,0,0,0,0,-1,1455,883,0,0
238,141,0,0,0,0,0,0,0,0,0,-1,1462,883,0,0
245,141,0,0,0,0,0,0,0,0,0,-1,1469,883,0,0
252,141,0,0,0,0,0,0,0,0,0,-1,1476,883,0,0
259,141,0,0,0,0,0,0,0,0,0,-1,1483,883,0,0
266,141,0,0,0,0,0,0,0,0,0,-1,1490,883,0,0
273,141,0,0,0,0,0,0,0,0,0,-1,1497,883,0,0
280,141,0,0,0,0,0,0,0,0,0,-1,1504,883,0,0
287,141,0,0,0,0,0,0,0,0,0,-1,1511,883,0,0
294,141,0,0,0,0,0,0,0,0,0,-1,1518,883,0,0
301,141,0,0,0,0,0,0,0,0,0,-1,1525,883,0,0
308,141,0,0,0,0,0,0,0,0,0,-1,1532,883,0,0
315,141,0,0,0,0,0,0,0,0,0,-1,1539,883,0,0
322,141,0,0,0,0,0,0,0,0,0,-1,1546,883,0,0
329,141,0,0,0,0,0,0,0,0,0,-1,1553,883,0,0
336,141,0,0,0,0,0,0,0,0,0,-1,1560,883,0,0
343,141,0,0,0,0,0,0,0,0,0,-1,1567,883,0,0
350,141,0,0,0,0,0,0,0,0,0,-1,1574,883,0,0
357,141,0,0,0,0,0,0,0,0,0,-1,1581,883,0,0
364,141,0,0,0,0,0,0,0,0,0,-1,1588,883,0,0
371,141,0,0,0,0,0,0,0,0,0,-1,1595,883,0,0
378,141,0,0,0,0,0,0,0,0,0,-1,1602,883,0,0
385,141,0,0,0,0,0,0,0,0,0,-1,1609,883,0,0
392,141,0,0,0,0,0,0,0,0,0,-1,1616,883,0,0
399,141,0,0,0,0,0,0,0,0,0,-1,1623,883,0,0
406,141,0,0,0,0,0,0,0,0,0,-1,1630,883,0,0
413,141,0,0,0,0,0,0,0,0,0,-1,1637,883,0,0
420,141,0,0,0,0,0,0,0,0,0,-1,1644,883,0,0
427,141,0,0,0,0,0,0,0,0,0,-1,1651,883,0,0
434,141,0,0,0,0,0,0,0,0,0,-1,1658,883,0,0
441,141,0,0,0,0,0,0,0,0,0,-1,1665,883,0,0
448,141,0,0,0,0,0,0,0,0,0,-1,1672,883,0,0
455,141,0,0,0,0,0,0,0,0,0,-1,1679,883,0,0
462,141,0,0,0,0,0,0,0,0,0,-1,1686,883,0,0
469,141,0,0,0,0,0,0,0,0,0,-1,1693,883,0,0
476,141,0,0,0,0,0,0,0,0,0,-1,1700,883,0,0
483,141,0,0,0,0,0,0,0,0,0,-1,1707,883,0,0
490,141,0,0,0,0,0,0,0,0,0,-1,1714,883,0,0
497,141,0,0,0,0,0,0,0,0,0,-1,1721,883,0,0
504,141,0,0,0,0,0,0,0,0,0,-1,1728,883,0,0
511,141,0,0,0,0,0,0,0,0,0,-1,1735,883,0,0
518,141,0,0,0,0,0,0,0,0,0,-1,1742,883,0,0
525,141,0,0,0,0,0,0,0,0,0,-1,1749,883,0,0
532,141,0,0,0,0,0,0,0,0,0,-1,1756,883,0,0
539,141,0,0,0,0,0,0,0,0,0,-1,1763,883,0,0
546,141,0,0,0,0,0,0,0,0,0,-1,1770,883,0,0
553,141,0,0,0,0,0,0,0,0,0,-1,1777,883,0,0
560,141,0,0,0,0,0,0,0,0,0,-1,1784,883,0,0
567,141,0,0,0,0,0,0,0,0,0,-1,1791,883,0,0
574,141,0,0,0,0,0,0,0,0,0,-1,1798,883,0,0
581,141,0,0,0,0,0,0,0,0,0,-1,1805,883,0,0
588,141,0,0,0,0,0,0,0,0,0,-1,1812,883,0,0
595,141,0,0,0,0,0,0,0,0,0,-1,1819,883,0,0
602,141,0,0,0,0,0,0,0,0,0,-1,1826,883,0,0
609,141,0,0,0,0,0,0,0,0,0,-1,1833,883,0,0
616,141,0,0,0,0,0,0,0,0,0,-1,1840,883,0,0
623,141,228.503,8.76044,0,0,0,0,0,0,0,-1,1847,883,228.503,-8.76042
630,141,228.352,9.08057,0,0,0,0,0,0,0,-1,1854,883,228.352,-9.08058
637,141,228.432,8.97046,0,0,0,0,0,0,0,-1,1861,883,228.432,-8.97044
644,141,228.479,8.81067,0,0,0,0,0,0,0,-1,1868,883,228.479,-8.81069
651,141,228.606,8.78357,0,0,0,0,0,0,0,-1,1875,883,228.606,-8.78355
658,141,228.573,8.80774,0,0,0,0,0,0,0,-1,1882,883,228.573,-8.80777
665,141,228.42,8.78467,0,0,0,0,0,0,0,-1,1889,883,228.42,-8.78469
672,141,228.439,8.79126,0,0,0,0,0,0,0,-1,1896,883,228.439,-8.79125
679,141,228.539,8.72919,0,0,0,0,0,0,0,-1,1903,883,228.539,-8.72921
686,141,189.992,7.97687,0,0,0,0,0,0,0,-1,1910,883,189.992,-7.97685
693,141,51.7202,1.76593,0,0,0,0,0,0,0,-1,1917,883,51.7202,-1.76595
700,141,62.7651,1.95361,0,0,0,0,0,0,0,-1,1924,883,62.7651,-1.95364
707,141,211.3,26.8883,0,0,0,0,0,0,0,-1,1931,883,211.3,-26.8883
714,141,212.083,28.0651,0,0,0,0,0,0,0,-1,1938,883,212.083,-28.0651
721,141,212.049,29.4916,-0.0104704,0.0180662,-0.00738247,0.0198629,-0.0122671,-1.33206,0.0187223,0.027579,1945,883,212.049,-29.4916
728,141,212.018,30.9712,-0.0125136,0.0248192,-0.00985034,0.0272588,-0.0149532,-1.32801,0.0247139,0.0213186,1952,883,212.018,-30.9712
735,141,211.816,32.6072,-0.0144455,0.0316428,-0.0122656,0.0347038,-0.0175065,-1.32623,0.0306839,0.0250295,1959,883,211.816,-32.6072
742,141,211.389,33.8299,-0.0161299,0.0385821,-0.0145541,0.0422127,-0.0197605,-1.32633,0.0365546,0.0260892,1966,883,211.389,-33.8299
749,141,211.149,35.0625,-0.0174346,0.0456966,-0.0166094,0.0497998,-0.0215378,-1.32861,0.0422504,0.0219401,1973,883,211.149,-35.0625
756,141,211.115,36.4193,-0.0182839,0.0529892,-0.0183844,0.0574519,-0.0227466,-1.33266,0.0477259,0.0301046,1980,883,211.115,-36.4193
763,141,211.138,37.7345,0,0,0,0,0,0,0,-1,1987,883,211.138,-37.7345
770,141,144.087,31.3549,0,0,0,0,0,0,0,-1,1994,883,144.087,-31.3548
777,141,110.394,25.0393,0,0,0,0,0,0,0,-1,2001,883,110.394,-25.0393
784,141,73.3435,9.80182,0,0,0,0,0,0,0,-1,2008,883,73.3434,-9.80183
791,141,73.7993,11.1595,0,0,0,0,0,0,0,-1,2015,883,73.7994,-11.1595
798,141,0,0,0,0,0,0,0,0,0,-1,2022,883,0,0
805,141,0,0,0,0,0,0,0,0,0,-1,2029,883,0,0
812,141,0,0,0,0,0,0,0,0,0,-1,2036,883,0,0
-700,134,0,0,0,0,0,0,0,0,0,-1,524,890,0,0
-693,134,0,0,0,0,0,0,0,0,0,-1,531,890,0,0
-686,134,0,0,0,0,0,0,0,0,0,-1,538,890,0,0
-679,134,0,0,0,0,0,0,0,0,0,-1,545,890,0,0
-672,134,-49.3306,-0.500671,0,0,0,0,0,0,0,-1,552,890,-49.3306,0.500651
-665,134,-49.3356,-3.00098,0,0,0,0,0,0,0,-1,559,890,-49.3356,3.00096
-658,134,-49.3368,-5.46246,0,0,0,0,0,0,0,-1,566,890,-49.3368,5.46248
-651,134,-53.0905,0.530762,0,0,0,0,0,0,0,-1,573,890,-53.0905,-0.530792
-644,134,-51.8253,-1.26782,0,0,0,0,0,0,0,-1,580,890,-51.8253,1.26783
-637,134,-50.5067,-2.83545,0,0,0,0,0,0,0,-1,587,890,-50.5066,2.83545
-630,134,-182.257,36.1755,0,0,0,0,0,0,0,-1,594,890,-182.257,-36.1755
-623,134,-204.432,36.3387,0,0,0,0,0,0,0,-1,601,890,-204.432,-36.3387
-616,134,-204.905,35.1427,-0.00594681,0.0433176,0.0136639,0.0468536,-0.00948281,1.31757,0.0348297,0.0282551,608,890,-204.905,-35.1427
-609,134,-205.278,33.7673,-0.00567123,0.0369685,0.0124174,0.0403211,-0.00902379,1.3071,0.0303393,0.0191091,615,890,-205.278,-33.7673
-602,134,-205.446,32.3295,-0.00476156,0.0305627,0.0111669,0.0337968,-0.00799563,1.2889,0.0256158,0.0210361,622,890,-205.446,-32.3295
-595,134,-205.415,30.9827,-0.00321751,0.0240996,0.00993874,0.0273329,-0.00645081,1.25627,0.0207098,0.0312936,629,890,-205.415,-30.9826
-588,134,-205.302,29.6014,0,0,0,0,0,0,0,-1,636,890,-205.302,-29.6014
-581,134,-205.62,27.6826,0,0,0,0,0,0,0,-1,643,890,-205.62,-27.6825
-574,134,-31.1517,0.757751,0,0,0,0,0,0,0,-1,650,890,-31.1517,-0.757758
-567,134,-30.9003,0.296326,0,0,0,0,0,0,0,-1,657,890,-30.9002,-0.296302
-560,134,-22.9123,0.106567,0,0,0,0,0,0,0,-1,664,890,-22.9123,-0.106594
-553,134,-72.5416,0.452454,0,0,0,0,0,0,0,-1,671,890,-72.5416,-0.452462
-546,134,-72.5792,0.43927,0,0,0,0,0,0,0,-1,678,890,-72.5792,-0.439291
-539,134,-72.602,0.427246,0,0,0,0,0,0,0,-1,685,890,-72.602,-0.42724
-532,134,-72.6031,0.462463,0,0,0,0,0,0,0,-1,692,890,-72.6031,-0.462467
-525,134,-72.651,0.554382,0,0,0,0,0,0,0,-1,699,890,-72.651,-0.554408
-518,134,-72.6708,0.689209,0,0,0,0,0,0,0,-1,706,890,-72.6708,-0.689198
-511,134,-72.619,0.895386,0,0,0,0,0,0,0,-1,713,890,-72.619,-0.895374
-504,134,0,0,0,0,0,0,0,0,0,-1,720,890,0,0
-497,134,0,0,0,0,0,0,0,0,0,-1,727,890,0,0
-490,134,0,0,0,0,0,0,0,0,0,-1,734,890,0,0
-483,134,0,0,0,0,0,0,0,0,0,-1,741,890,0,0
-476,134,0,0,0,0,0,0,0,0,0,-1,748,890,0,0
-469,134,0,0,0,0,0,0,0,0,0,-1,755,890,0,0
-462,134,0,0,0,0,0,0,0,0,0,-1,762,890,0,0
-455,134,0,0,0,0,0,0,0,0,0,-1,769,890,0,0
-448,134,0,0,0,0,0,0,0,0,0,-1,776,890,0,0
-441,134,0,0,0,0,0,0,0,0,0,-1,783,890,0,0
-434,134,0,0,0,0,0,0,0,0,0,-1,790,890,0,0
-427,134,0,0,0,0,0,0,0,0,0,-1,797,890,0,0
-420,134,0,0,0,0,0,0,0,0,0,-1,804,890,0,0
-413,134,0,0,0,0,0,0,0,0,0,-1,811,890,0,0
-406,134,0,0,0,0,0,0,0,0,0,-1,818,890,0,0
-399,134,0,0,0,0,0,0,0,0,0,-1,825,890,0,0
-392,134,0,0,0,0,0,0,0,0,0,-1,832,890,0,0
-385,134,0,0,0,0,0,0,0,0,0,-1,839,890,0,0
-378,134,0,0,0,0,0,0,0,0,0,-1,846,890,0,0
-371,134,0,0,0,0,0,0,0,0,0,-1,853,890,0,0
-364,134,0,0,0,0,0,0,0,0,0,-1,860,890,0,0
-357,134,0,0,0,0,0,0,0,0,0,-1,867,890,0,0
-350,134,0,0,0,0,0,0,0,0,0,-1,874,890,0,0
-343,134,0,0,0,0,0,0,0,0,0,-1,881,890,0,0
-336,134,0,0,0,0,0,0,0,0,0,-1,888,890,0,0
-329,134,0,0,0,0,0,0,0,0,0,-1,895,890,0,0
-322,134,0,0,0,0,0,0,0,0,0,-1,902,890,0,0
-315,134,0,0,0,0,0,0,0,0,0,-1,909,890,0,0
-308,134,0,0,0,0,0,0,0,0,0,-1,916,890,0,0
-301,134,0,0,0,0,0,0,0,0,0,-1,923,890,0,0
-294,134,0,0,0,0,0,0,0,0,0,-1,930,890,0,0
-287,134,0,0,0,0,0,0,0,0,0,-1,937,890,0,0
-280,134,0,0,0,0,0,0,0,0,0,-1,944,890,0,0
-273,134,0,0,0,0,0,0,0,0,0,-1,951,890,0,0
-266,134,0,0,0,0,0,0,0,0,0,-1,958,890,0,0
-259,134,0,0,0,0,0,0,0,0,0,-1,965,890,0,0
-252,134,0,0,0,0,0,0,0,0,0,-1,972,890,0,0
-245,134,0,0,0,0,0,0,0,0,0,-1,979,890,0,0
-238,134,0,0,0,0,0,0,0,0,0,-1,986,890,0,0
-231,134,0,0,0,0,0,0,0,0,0,-1,993,890,0,0
-224,134,0,0,0,0,0,0,0,0,0,-1,1000,890,0,0
-217,134,0,0,0,0,0,0,0,0,0,-1,1007,890,0,0
-210,134,0,0,0,0,0,0,0,0,0,-1,1014,890,0,0
-203,134,0,0,0,0,0,0,0,0,0,-1,1021,890,0,0
-196,134,0,0,0,0,0,0,0,0,0,-1,1028,890,0,0
-189,134,0,0,0,0,0,0,0,0,0,-1,1035,890,0,0
-182,134,0,0,0,0,0,0,0,0,0,-1,1042,890,0,0
-175,134,0,0,0,0,0,0,0,0,0,-1,1049,890,0,0
-168,134,0,0,0,0,0,0,0,0,0,-1,1056,890,0,0
-161,134,0,0,0,0,0,0,0,0,0,-1,1063,890,0,0
-154,134,0,0,0,0,0,0,0,0,0,-1,1070,890,0,0
-147,134,0,0,0,0,0,0,0,0,0,-1,1077,890,0,0
-140,134,0,0,0,0,0,0,0,0,0,-1,1084,890,0,0
-133,134,0,0,0,0,0,0,0,0,0,-1,1091,890,0,0
-126,134,0,0,0,0,0,0,0,0,0,-1,1098,890,0,0
-119,134,0,0,0,0,0,0,0,0,0,-1,1105,890,0,0
-112,134,0,0,0,0,0,0,0,0,0,-1,1112,890,0,0
-105,134,0,0,0,0,0,0,0,0,0,-1,1119,890,0,0
-98,134,0,0,0,0,0,0,0,0,0,-1,1126,890,0,0
-91,134,0,0,0,0,0,0,0,0,0,-1,1133,890,0,0
-84,134,0,0,0,0,0,0,0,0,0,-1,1140,890,0,0
-77,134,0,0,0,0,0,0,0,0,0,-1,1147,890,0,0
-70,134,0,0,0,0,0,0,0,0,0,-1,1154,890,0,0
-63,134,0,0,0,0,0,0,0,0,0,-1,1161,890,0,0
-56,134,0,0,0,0,0,0,0,0,0,-1,1168,890,0,0
-49,134,0,0,0,0,0,0,0,0,0,-1,1175,890,0,0
-42,134,0,0,0,0,0,0,0,0,0,-1,1182,890,0,0
-35,134,0,0,0,0,0,0,0,0,0,-1,1189,890,0,0
-28,134,0,0,0,0,0,0,0,0,0,-1,1196,890,0,0
-21,134,0,0,0,0,0,0,0,0,0,-1,1203,890,0,0
-14,134,0,0,0,0,0,0,0,0,0,-1,1210,890,0,0
-7,134,0,0,0,0,0,0,0,0,0,-1,1217,890,0,0
0,134,0,0,0,0,0,0,0,0,0,-1,1224,890,0,0
7,134,0,0,0,0,0,0,0,0,0,-1,1231,890,0,0
14,134,0,0,0,0,0,0,0,0,0,-1,1238,890,0,0
21,134,0,0,0,0,0,0,0,0,0,-1,1245,890,0,0
28,134,0,0,0,0,0,0,0,0,0,-1,1252,890,0,0
35,134,0,0,0,0,0,0,0,0,0,-1,1259,890,0,0
42,134,0,0,0,0,0,0,0,0,0,-1,1266,890,0,0
49,134,0,0,0,0,0,0,0,0,0,-1,1273,890,0,0
56,134,0,0,0,0,0,0,0,0,0,-1,1280,890,0,0
63,134,0,0,0,0,0,0,0,0,0,-1,1287,890,0,0
70,134,0,0,0,0,0,0,0,0,0,-1,1294,890,0,0
77,134,0,0,0,0,0,0,0,0,0,-1,1301,890,0,0
84,134,0,0,0,0,0,0,0,0,0,-1,1308,890,0,0
91,134,0,0,0,0,0,0,0,0,0,-1,1315,890,0,0
98,134,0,0,0,0,0,0,0,0,0,-1,1322,890,0,0
105,134,0,0,0,0,0,0,0,0,0,-1,1329,890,0,0
112,134,0,0,0,0,0,0,0,0,0,-1,1336,890,0,0
119,134,0,0,0,0,0,0,0,0,0,-1,1343,890,0,0
126,134,0,0,0,0,0,0,0,0,0,-1,1350,890,0,0
133,134,0,0,0,0,0,0,0,0,0,-1,1357,890,0,0
140,134,0,0,0,0,0,0,0,0,0,-1,1364,890,0,0
147,134,0,0,0,0,0,0,0,0,0,-1,1371,890,0,0
154,134,0,0,0,0,0,0,0,0,0,-1,1378,890,0,0
161,134,0,0,0,0,0,0,0,0,0,-1,1385,890,0,0
168,134,0,0,0,0,0,0,0,0,0,-1,1392,890,0,0
175,134,0,0,0,0,0,0,0,0,0,-1,1399,890,0,0
182,134,0,0,0,0,0,0,0,0,0,-1,1406,890,0,0
189,134,0,0,0,0,0,0,0,0,0,-1,1413,890,0,0
196,134,0,0,0,0,0,0,0,0,0,-1,1420,890,0,0
203,134,0,0,0,0,0,0,0,0,0,-1,1427,890,0,0
210,134,0,0,0,0,0,0,0,0,0,-1,1434,890,0,0
217,134,0,0,0,0,0,0,0,0,0,-1,1441,890,0,0
224,134,0,0,0,0,0,0,0,0,0,-1,1448,890,0,0
231,134,0,0,0,0,0,0,0,0,0,-1,1455,890,0,0
238,134,0,0,0,0,0,0,0,0,0,-1,1462,890,0,0
245,134,0,0,0,0,0,0,0,0,0,-1,1469,890,0,0
252,134,0,0,0,0,0,0,0,0,0,-1,1476,890,0,0
259,134,0,0,0,0,0,0,0,0,0,-1,1483,890,0,0
266,134,0,0,0,0,0,0,0,0,0,-1,1490,890,0,0
273,134,0,0,0,0,0,0,0,0,0,-1,1497,890,0,0
280,134,0,0,0,0,0,0,0,0,0,-1,1504,890,0,0
287,134,0,0,0,0,0,0,0,0,0,-1,1511,890,0,0
294,134,0,0,0,0,0,0,0,0,0,-1,1518,890,0,0
301,134,0,0,0,0,0,0,0,0,0,-1,1525,890,0,0
308,134,0,0,0,0,0,0,0,0,0,-1,1532,890,0,0
315,134,0,0,0,0,0,0,0,0,0,-1,1539,890,0,0
322,134,0,0,0,0,0,0,0,0,0,-1,1546,890,0,0
329,134,0,0,0,0,0,0,0,0,0,-1,1553,890,0,0
336,134,0,0,0,0,0,0,0,0,0,-1,1560,890,0,0
343,134,0,0,0,0,0,0,0,0,0,-1,1567,890,0,0
350,134,0,0,0,0,0,0,0,0,0,-1,1574,890,0,0
357,134,0,0,0,0,0,0,0,0,0,-1,1581,890,0,0
364,134,0,0,0,0,0,0,0,0,0,-1,1588,890,0,0
371,134,0,0,0,0,0,0,0,0,0,-1,1595,890,0,0
378,134,0,0,0,0,0,0,0,0,0,-1,1602,890,0,0
385,134,0,0,0,0,0,0,0,0,0,-1,1609,890,0,0
392,134,0,0,0,0,0,0,0,0,0,-1,1616,890,0,0
399,134,0,0,0,0,0,0,0,0,0,-1,1623,890,0,0
406,134,0,0,0,0,0,0,0,0,0,-1,1630,890,0,0
413,134,0,0,0,0,0,0,0,0,0,-1,1637,890,0,0
420,134,0,0,0,0,0,0,0,0,0,-1,1644,890,0,0
427,134,0,0,0,0,0,0,0,0,0,-1,1651,890,0,0
434,134,0,0,0,0,0,0,0,0,0,-1,1658,890,0,0
441,134,0,0,0,0,0,0,0,0,0,-1,1665,890,0,0
448,134,0,0,0,0,0,0,0,0,0,-1,1672,890,0,0
455,134,0,0,0,0,0,0,0,0,0,-1,1679,890,0,0
462,134,0,0,0,0,0,0,0,0,0,-1,1686,890,0,0
469,134,0,0,0,0,0,0,0,0,0,-1,1693,890,0,0
476,134,0,0,0,0,0,0,0,0,0,-1,1700,890,0,0
483,134,0,0,0,0,0,0,0,0,0,-1,1707,890,0,0
490,134,0,0,0,0,0,0,0,0,0,-1,1714,890,0,0
497,134,0,0,0,0,0,0,0,0,0,-1,1721,890,0,0
504,134,0,0,0,0,0,0,0,0,0,-1,1728,890,0,0
511,134,0,0,0,0,0,0,0,0,0,-1,1735,890,0,0
518,134,0,0,0,0,0,0,0,0,0,-1,1742,890,0,0
525,134,0,0,0,0,0,0,0,0,0,-1,1749,890,0,0
532,134,0,0,0,0,0,0,0,0,0,-1,1756,890,0,0
539,134,0,0,0,0,0,0,0,0,0,-1,1763,890,0,0
546,134,0,0,0,0,0,0,0,0,0,-1,1770,890,0,0
553,134,0,0,0,0,0,0,0,0,0,-1,1777,890,0,0
560,134,0,0,0,0,0,0,0,0,0,-1,1784,890,0,0
567,134,0,0,0,0,0,0,0,0,0,-1,1791,890,0,0
574,134,0,0,0,0,0,0,0,0,0,-1,1798,890,0,0
581,134,0,0,0,0,0,0,0,0,0,-1,1805,890,0,0
588,134,0,0,0,0,0,0,0,0,0,-1,1812,890,0,0
595,134,0,0,0,0,0,0,0,0,0,-1,1819,890,0,0
602,134,0,0,0,0,0,0,0,0,0,-1,1826,890,0,0
609,134,0,0,0,0,0,0,0,0,0,-1,1833,890,0,0
616,134,0,0,0,0,0,0,0,0,0,-1,1840,890,0,0
623,134,228.516,8.98645,0,0,0,0,0,0,0,-1,1847,890,228.516,-8.98644
630,134,228.532,8.76495,0,0,0,0,0,0,0,-1,1854,890,228.532,-8.76496
637,134,228.478,9.11932,0,0,0,0,0,0,0,-1,1861,890,228.478,-9.11934
644,134,228.594,8.93811,0,0,0,0,0,0,0,-1,1868,890,228.594,-8.9381
651,134,228.586,8.85687,0,0,0,0,0,0,0,-1,1875,890,228.586,-8.85686
658,134,228.534,8.82513,0,0,0,0,0,0,0,-1,1882,890,228.534,-8.82513
665,134,228.385,8.69421,0,0,0,0,0,0,0,-1,1889,890,228.385,-8.69419
672,134,228.442,8.65033,0,0,0,0,0,0,0,-1,1896,890,228.442,-8.65035
679,134,228.525,8.65643,0,0,0,0,0,0,0,-1,1903,890,228.525,-8.65645
686,134,228.614,8.59589,0,0,0,0,0,0,0,-1,1910,890,228.613,-8.59591
693,134,34.5778,2.48096,0,0,0,0,0,0,0,-1,1917,890,34.5777,-2.48099
700,134,148.722,16.1923,0,0,0,0,0,0,0,-1,1924,890,148.722,-16.1923
707,134,214.06,26.2758,0,0,0,0,0,0,0,-1,1931,890,214.06,-26.2758
714,134,213.786,27.8053,-0.00791435,0.00889227,-0.00306366,0.00943332,-0.00845541,-1.396,0.0103332,0.0338224,1938,890,213.786,-27.8053
721,134,213.714,29.3913,-0.0102443,0.0155766,-0.00560791,0.016742,-0.0114096,-1.36591,0.0163502,0.0289738,1945,890,213.714,-29.3913
728,134,213.662,30.9349,-0.0121617,0.0223146,-0.00801227,0.0240856,-0.0139328,-1.35325,0.0222093,0.0265977,1952,890,213.662,-30.935
735,134,213.417,32.5416,-0.0139072,0.0291285,-0.0103321,0.0314805,-0.0162592,-1.34697,0.0280257,0.0359812,1959,890,213.417,-32.5416
742,134,213.035,33.812,-0.0153649,0.0360527,-0.0124887,0.0389256,-0.0182377,-1.34469,0.033716,0.0235342,1966,890,213.035,-33.812
749,134,212.837,35.0027,-0.0164181,0.0431279,-0.0143917,0.0464238,-0.019714,-1.34566,0.0392089,0.018613,1973,890,212.837,-35.0027
756,134,212.685,36.2444,-0.0169813,0.0503822,-0.0159726,0.0539776,-0.0205767,-1.34939,0.0444605,0.022858,1980,890,212.685,-36.2445
763,134,212.448,37.7745,-0.0170398,0.057878,-0.0172574,0.0616621,-0.020824,-1.35494,0.0495307,0.0445026,1987,890,212.449,-37.7745
770,134,212.095,39.3632,0,0,0,0,0,0,0,-1,1994,890,212.095,-39.3632
777,134,74.8572,9.58441,0,0,0,0,0,0,0,-1,2001,890,74.8572,-9.58442
784,134,75.1489,10.8398,0,0,0,0,0,0,0,-1,2008,890,75.1489,-10.8398
791,134,75.4202,12.0895,0,0,0,0,0,0,0,-1,2015,890,75.4202,-12.0896
798,134,0,0,0,0,0,0,0,0,0,-1,2022,890,0,0
805,134,0,0,0,0,0,0,0,0,0,-1,2029,890,0,0
812,134,0,0,0,0,0,0,0,0,0,-1,2036,890,0,0
-700,127,0,0,0,0,0,0,0,0,0,-1,524,897,0,0
-693,127,0,0,0,0,0,0,0,0,0,-1,531,897,0,0
-686,127,0,0,0,0,0,0,0,0,0,-1,538,897,0,0
-679,127,-52.0821,4.30957,0,0,0,0,0,0,0,-1,545,897,-52.0821,-4.30955
-672,127,-50.373,4.8219,0,0,0,0,0,0,0,-1,552,897,-50.373,-4.8219
-665,127,-49.6271,-2.44153,0,0,0,0,0,0,0,-1,559,897,-49.6271,2.44154
-658,127,-48.965,-4.18744,0,0,0,0,0,0,0,-1,566,897,-48.965,4.18745
-651,127,-52.9149,-0.455505,0,0,0,0,0,0,0,-1,573,897,-52.9149,0.455524
-644,127,-51.6913,-2.33765,0,0,0,0,0,0,0,-1,580,897,-51.6914,2.33763
-637,127,-50.3104,-4.18658,0,0,0,0,0,0,0,-1,587,897,-50.3104,4.18656
-630,127,-206.157,36.9584,0,0,0,0,0,0,0,-1,594,897,-206.157,-36.9584
-623,127,-206.259,36.0806,-0.00769848,0.0486457,0.0145989,0.0522036,-0.0112564,1.33174,0.0390985,0.0357908,601,897,-206.259,-36.0806
-616,127,-206.478,34.9894,-0.00728994,0.0419289,0.0130634,0.0451812,-0.0105422,1.32679,0.0341812,0.0254519,608,897,-206.478,-34.9894
-609,127,-206.819,33.6793,-0.00638077,0.0352433,0.0115243,0.0382209,-0.00935845,1.31794,0.029106,0.0240217,615,897,-206.819,-33.6793
-602,127,-207.018,32.3498,-0.00509587,0.0285505,0.00996654,0.0312812,-0.00782649,1.30338,0.0238941,0.0262278,622,897,-207.018,-32.3498
-595,127,-206.953,31.0261,0,0,0,0,0,0,0,-1,629,897,-206.953,-31.0261
-588,127,-206.587,29.2759,0,0,0,0,0,0,0,-1,636,897,-206.587,-29.2759
-581,127,-206.215,27.3618,0,0,0,0,0,0,0,-1,643,897,-206.215,-27.3618
-574,127,-25.2603,0.511169,0,0,0,0,0,0,0,-1,650,897,-25.2603,-0.51117
-567,127,-24.5417,-0.0447388,0,0,0,0,0,0,0,-1,657,897,-24.5417,0.0447226
-560,127,-18.9678,1.21667,0,0,0,0,0,0,0,-1,664,897,-18.9677,-1.2167
-553,127,-72.5789,0.438843,0,0,0,0,0,0,0,-1,671,897,-72.5789,-0.438847
-546,127,-72.5634,0.41156,0,0,0,0,0,0,0,-1,678,897,-72.5634,-0.411548
-539,127,-72.5593,0.420044,0,0,0,0,0,0,0,-1,685,897,-72.5593,-0.420028
-532,127,-72.5491,0.465576,0,0,0,0,0,0,0,-1,692,897,-72.5491,-0.465589
-525,127,-72.5822,0.586487,0,0,0,0,0,0,0,-1,699,897,-72.5822,-0.586498
-518,127,-72.545,0.665894,0,0,0,0,0,0,0,-1,706,897,-72.5451,-0.665918
-511,127,-72.4194,0.653198,0,0,0,0,0,0,0,-1,713,897,-72.4195,-0.653199
-504,127,0,0,0,0,0,0,0,0,0,-1,720,897,0,0
-497,127,0,0,0,0,0,0,0,0,0,-1,727,897,0,0
-490,127,0,0,0,0,0,0,0,0,0,-1,734,897,0,0
-483,127,0,0,0,0,0,0,0,0,0,-1,741,897,0,0
-476,127,0,0,0,0,0,0,0,0,0,-1,748,897,0,0
-469,127,0,0,0,0,0,0,0,0,0,-1,755,897,0,0
-462,127,0,0,0,0,0,0,0,0,0,-1,762,897,0,0
-455,127,0,0,0,0,0,0,0,0,0,-1,769,897,0,0
-448,127,0,0,0,0,0,0,0,0,0,-1,776,897,0,0
-441,127,0,0,0,0,0,0,0,0,0,-1,783,897,0,0
-434,127,0,0,0,0,0,0,0,0,0,-1,790,897,0,0
-427,127,0,0,0,0,0,0,0,0,0,-1,797,897,0,0
-420,127,0,0,0,0,0,0,0,0,0,-1,804,897,0,0
-413,127,0,0,0,0,0,0,0,0,0,-1,811,897,0,0
-406,127,0,0,0,0,0,0,0,0,0,-1,818,897,0,0
-399,127,0,0,0,0,0,0,0,0,0,-1,825,897,0,0
-392,127,0,0,0,0,0,0,0,0,0,-1,832,897,0,0
-385,127,0,0,0,0,0,0,0,0,0,-1,839,897,0,0
-378,127,0,0,0,0,0,0,0,0,0,-1,846,897,0,0
-371,127,0,0,0,0,0,0,0,0,0,-1,853,897,0,0
-364,127,0,0,0,0,0,0,0,0,0,-1,860,897,0,0
-357,127,0,0,0,0,0,0,0,0,0,-1,867,897,0,0
-350,127,0,0,0,0,0,0,0,0,0,-1,874,897,0,0
-343,127,0,0,0,0,0,0,0,0,0,-1,881,897,0,0
-336,127,0,0,0,0,0,0,0,0,0,-1,888,897,0,0
-329,127,0,0,0,0,0,0,0,0,0,-1,895,897,0,0
-322,127,0,0,0,0,0,0,0,0,0,-1,902,897,0,0
-315,127,0,0,0,0,0,0,0,0,0,-1,909,897,0,0
-308,127,0,0,0,0,0,0,0,0,0,-1,916,897,0,0
-301,127,0,0,0,0,0,0,0,0,0,-1,923,897,0,0
-294,127,0,0,0,0,0,0,0,0,0,-1,930,897,0,0
-287,127,0,0,0,0,0,0,0,0,0,-1,937,897,0,0
-280,127,0,0,0,0,0,0,0,0,0,-1,944,897,0,0
-273,127,0,0,0,0,0,0,0,0,0,-1,951,897,0,0
-266,127,0,0,0,0,0,0,0,0,0,-1,958,897,0,0
-259,127,0,0,0,0,0,0,0,0,0,-1,965,897,0,0
-252,127,0,0,0,0,0,0,0,0,0,-1,972,897,0,0
-245,127,0,0,0,0,0,0,0,0,0,-1,979,897,0,0
-238,127,0,0,0,0,0,0,0,0,0,-1,986,897,0,0
-231,127,0,0,0,0,0,0,0,0,0,-1,993,897,0,0
-224,127,0,0,0,0,0,0,0,0,0,-1,1000,897,0,0
-217,127,0,0,0,0,0,0,0,0,0,-1,1007,897,0,0
-210,127,0,0,0,0,0,0,0,0,0,-1,1014,897,0,0
-203,127,0,0,0,0,0,0,0,0,0,-1,1021,897,0,0
-196,127,0,0,0,0,0,0,0,0,0,-1,1028,897,0,0
-189,127,0,0,0,0,0,0,0,0,0,-1,1035,897,0,0
-182,127,0,0,0,0,0,0,0,0,0,-1,1042,897,0,0
-175,127,0,0,0,0,0,0,0,0,0,-1,1049,897,0,0
-168,127,0,0,0,0,0,0,0,0,0,-1,1056,897,0,0
-161,127,0,0,0,0,0,0,0,0,0,-1,1063,897,0,0
-154,127,0,0,0,0,0,0,0,0,0,-1,1070,897,0,0
-147,127,0,0,0,0,0,0,0,0,0,-1,1077,897,0,0
-140,127,0,0,0,0,0,0,0,0,0,-1,1084,897,0,0
-133,127,0,0,0,0,0,0,0,0,0,-1,1091,897,0,0
-126,127,0,0,0,0,0,0,0,0,0,-1,1098,897,0,0
-119,127,0,0,0,0,0,0,0,0,0,-1,1105,897,0,0
-112,127,0,0,0,0,0,0,0,0,0,-1,1112,897,0,0
-105,127,0,0,0,0,0,0,0,0,0,-1,1119,897,0,0
-98,127,0,0,0,0,0,0,0,0,0,-1,1126,897,0,0
-91,127,0,0,0,0,0,0,0,0,0,-1,1133,897,0,0
-84,127,0,0,0,0,0,0,0,0,0,-1,1140,897,0,0
-77,127,0,0,0,0,0,0,0,0,0,-1,1147,897,0,0
-70,127,0,0,0,0,0,0,0,0,0,-1,1154,897,0,0
-63,127,0,0,0,0,0,0,0,0,0,-1,1161,897,0,0
-56,127,0,0,0,0,0,0,0,0,0,-1,1168,897,0,0
-49,127,0,0,0,0,0,0,0,0,0,-1,1175,897,0,0
-42,127,0,0,0,0,0,0,0,0,0,-1,1182,897,0,0
-35,127,0,0,0,0,0,0,0,0,0,-1,1189,897,0,0
-28,127,0,0,0,0,0,0,0,0,0,-1,1196,897,0,0
-21,127,0,0,0,0,0,0,0,0,0,-1,1203,897,0,0
-14,127,0,0,0,0,0,0,0,0,0,-1,1210,897,0,0
-7,127,0,0,0,0,0,0,0,0,0,-1,1217,897,0,0
0,127,0,0,0,0,0,0,0,0,0,-1,1224,897,0,0
7,127,0,0,0,0,0,0,0,0,0,-1,1231,897,0,0
14,127,0,0,0,0,0,0,0,0,0,-1,1238,897,0,0
21,127,0,0,0,0,0,0,0,0,0,-1,1245,897,0,0
28,127,0,0,0,0,0,0,0,0,0,-1,1252,897,0,0
35,127,0,0,0,0,0,0,0,0,0,-1,1259,897,0,0
42,127,0,0,0,0,0,0,0,0,0,-1,1266,897,0,0
49,127,0,0,0,0,0,0,0,0,0,-1,1273,897,0,0
56,127,0,0,0,0,0,0,0,0,0,-1,1280,897,0,0
63,127,0,0,0,0,0,0,0,0,0,-1,1287,897,0,0
70,127,0,0,0,0,0,0,0,0,0,-1,1294,897,0,0
77,127,0,0,0,0,0,0,0,0,0,-1,1301,897,0,0
84,127,0,0,0,0,0,0,0,0,0,-1,1308,897,0,0
91,127,0,0,0,0,0,0,0,0,0,-1,1315,897,0,0
98,127,0,0,0,0,0,0,0,0,0,-1,1322,897,0,0
105,127,0,0,0,0,0,0,0,0,0,-1,1329,897,0,0
112,127,0,0,0,0,0,0,0,0,0,-1,1336,897,0,0
119,127,0,0,0,0,0,0,0,0,0,-1,1343,897,0,0
126,127,0,0,0,0,0,0,0,0,0,-1,1350,897,0,0
133,127,0,0,0,0,0,0,0,0,0,-1,1357,897,0,0
140,127,0,0,0,0,0,0,0,0,0,-1,1364,897,0,0
147,127,0,0,0,0,0,0,0,0,0,-1,1371,897,0,0
154,127,0,0,0,0,0,0,0,0,0,-1,1378,897,0,0
161,127,0,0,0,0,0,0,0,0,0,-1,1385,897,0,0
168,127,0,0,0,0,0,0,0,0,0,-1,1392,897,0,0
175,127,0,0,0,0,0,0,0,0,0,-1,1399,897,0,0
182,127,0,0,0,0,0,0,0,0,0,-1,1406,897,0,0
189,127,0,0,0,0,0,0,0,0,0,-1,1413,897,0,0
196,127,0,0,0,0,0,0,0,0,0,-1,1420,897,0,0
203,127,0,0,0,0,0,0,0,0,0,-1,1427,897,0,0
210,127,0,0,0,0,0,0,0,0,0,-1,1434,897,0,0
217,127,0,0,0,0,0,0,0,0,0,-1,1441,897,0,0
224,127,0,0,0,0,0,0,0,0,0,-1,1448,897,0,0
231,127,0,0,0,0,0,0,0,0,0,-1,1455,897,0,0
238,127,0,0,0,0,0,0,0,0,0,-1,1462,897,0,0
245,127,0,0,0,0,0,0,0,0,0,-1,1469,897,0,0
252,127,0,0,0,0,0,0,0,0,0,-1,1476,897,0,0
259,127,0,0,0,0,0,0,0,0,0,-1,1483,897,0,0
266,127,0,0,0,0,0,0,0,0,0,-1,1490,897,0,0
273,127,0,0,0,0,0,0,0,0,0,-1,1497,897,0,0
280,127,0,0,0,0,0,0,0,0,0,-1,1504,897,0,0
287,127,0,0,0,0,0,0,0,0,0,-1,1511,897,0,0
294,127,0,0,0,0,0,0,0,0,0,-1,1518,897,0,0
301,127,0,0,0,0,0,0,0,0,0,-1,1525,897,0,0
308,127,0,0,0,0,0,0,0,0,0,-1,1532,897,0,0
315,127,0,0,0,0,0,0,0,0,0,-1,1539,897,0,0
322,127,0,0,0,0,0,0,0,0,0,-1,1546,897,0,0
329,127,0,0,0,0,0,0,0,0,0,-1,1553,897,0,0
336,127,0,0,0,0,0,0,0,0,0,-1,1560,897,0,0
343,127,0,0,0,0,0,0,0,0,0,-1,1567,897,0,0
350,127,0,0,0,0,0,0,0,0,0,-1,1574,897,0,0
357,127,0,0,0,0,0,0,0,0,0,-1,1581,897,0,0
364,127,0,0,0,0,0,0,0,0,0,-1,1588,897,0,0
371,127,0,0,0,0,0,0,0,0,0,-1,1595,897,0,0
378,127,0,0,0,0,0,0,0,0,0,-1,1602,897,0,0
385,127,0,0,0,0,0,0,0,0,0,-1,1609,897,0,0
392,127,0,0,0,0,0,0,0,0,0,-1,1616,897,0,0
399,127,0,0,0,0,0,0,0,0,0,-1,1623,897,0,0
406,127,0,0,0,0,0,0,0,0,0,-1,1630,897,0,0
413,127,0,0,0,0,0,0,0,0,0,-1,1637,897,0,0
420,127,0,0,0,0,0,0,0,0,0,-1,1644,897,0,0
427,127,0,0,0,0,0,0,0,0,0,-1,1651,897,0,0
434,127,0,0,0,0,0,0,0,0,0,-1,1658,897,0,0
441,127,0,0,0,0,0,0,0,0,0,-1,1665,897,0,0
448,127,0,0,0,0,0,0,0,0,0,-1,1672,897,0,0
455,127,0,0,0,0,0,0,0,0,0,-1,1679,897,0,0
462,127,0,0,0,0,0,0,0,0,0,-1,1686,897,0,0
469,127,0,0,0,0,0,0,0,0,0,-1,1693,897,0,0
476,127,0,0,0,0,0,0,0,0,0,-1,1700,897,0,0
483,127,0,0,0,0,0,0,0,0,0,-1,1707,897,0,0
490,127,0,0,0,0,0,0,0,0,0,-1,1714,897,0,0
497,127,0,0,0,0,0,0,0,0,0,-1,1721,897,0,0
504,127,0,0,0,0,0,0,0,0,0,-1,1728,897,0,0
511,127,0,0,0,0,0,0,0,0,0,-1,1735,897,0,0
518,127,0,0,0,0,0,0,0,0,0,-1,1742,897,0,0
525,127,0,0,0,0,0,0,0,0,0,-1,1749,897,0,0
532,127,0,0,0,0,0,0,0,0,0,-1,1756,897,0,0
539,127,0,0,0,0,0,0,0,0,0,-1,1763,897,0,0
546,127,0,0,0,0,0,0,0,0,0,-1,1770,897,0,0
553,127,0,0,0,0,0,0,0,0,0,-1,1777,897,0,0
560,127,0,0,0,0,0,0,0,0,0,-1,1784,897,0,0
567,127,0,0,0,0,0,0,0,0,0,-1,1791,897,0,0
574,127,0,0,0,0,0,0,0,0,0,-1,1798,897,0,0
581,127,0,0,0,0,0,0,0,0,0,-1,1805,897,0,0
588,127,0,0,0,0,0,0,0,0,0,-1,1812,897,0,0
595,127,0,0,0,0,0,0,0,0,0,-1,1819,897,0,0
602,127,0,0,0,0,0,0,0,0,0,-1,1826,897,0,0
609,127,0,0,0,0,0,0,0,0,0,-1,1833,897,0,0
616,127,0,0,0,0,0,0,0,0,0,-1,1840,897,0,0
623,127,0,0,0,0,0,0,0,0,0,-1,1847,897,0,0
630,127,228.57,8.71405,0,0,0,0,0,0,0,-1,1854,897,228.57,-8.71405
637,127,228.562,8.74591,0,0,0,0,0,0,0,-1,1861,897,228.562,-8.74593
644,127,228.471,9.12042,0,0,0,0,0,0,0,-1,1868,897,228.471,-9.1204
651,127,228.486,8.7533,0,0,0,0,0,0,0,-1,1875,897,228.486,-8.75332
658,127,228.406,8.74176,0,0,0,0,0,0,0,-1,1882,897,228.406,-8.74178
665,127,228.423,8.67786,0,0,0,0,0,0,0,-1,1889,897,228.423,-8.67783
672,127,228.451,8.59784,0,0,0,0,0,0,0,-1,1896,897,228.451,-8.59787
679,127,228.534,8.70251,0,0,0,0,0,0,0,-1,1903,897,228.534,-8.70252
686,127,228.609,8.71246,0,0,0,0,0,0,0,-1,1910,897,228.609,-8.71248
693,127,222.922,8.67822,0,0,0,0,0,0,0,-1,1917,897,222.922,-8.6782
700,127,145.75,15.071,0,0,0,0,0,0,0,-1,1924,897,145.749,-15.071
707,127,215.668,25.9416,0,0,0,0,0,0,0,-1,1931,897,215.668,-25.9416
714,127,215.638,27.8037,-0.00829755,0.00618802,-0.00108585,0.00626897,-0.00837849,-1.49639,0.0084859,0.0357775,1938,897,215.638,-27.8037
721,127,215.438,29.5466,-0.010563,0.0129375,-0.00381321,0.0135407,-0.0111662,-1.4139,0.0142865,0.0293329,1945,897,215.438,-29.5466
728,127,215.174,30.9721,-0.012227,0.019757,-0.0062616,0.0209391,-0.0134092,-1.3842,0.0199892,0.029723,1952,897,215.174,-30.9721
735,127,214.853,32.3605,-0.0137207,0.0266571,-0.00858036,0.0284048,-0.0154684,-1.36986,0.0256946,0.0319067,1959,897,214.853,-32.3605
742,127,214.576,33.6606,-0.0149376,0.0336672,-0.0106931,0.0359156,-0.0171861,-1.36354,0.0312875,0.027502,1966,897,214.576,-33.6606
749,127,214.389,34.9141,-0.0157725,0.0408176,-0.0125237,0.0434653,-0.0184201,-1.36245,0.0366919,0.0183196,1973,897,214.389,-34.9141
756,127,214.192,36.1033,-0.0161283,0.0481414,-0.0140028,0.0510598,-0.0190466,-1.36533,0.041859,0.0230687,1980,897,214.192,-36.1033
763,127,213.983,37.3351,-0.0159779,0.0556831,-0.0151146,0.0587405,-0.0190354,-1.3712,0.0468138,0.0344535,1987,897,213.983,-37.3351
770,127,213.954,38.5906,0,0,0,0,0,0,0,-1,1994,897,213.954,-38.5906
777,127,76.3003,10.8735,0,0,0,0,0,0,0,-1,2001,897,76.3003,-10.8735
784,127,78.9905,10.8276,0,0,0,0,0,0,0,-1,2008,897,78.9905,-10.8276
791,127,76.7629,12.9143,0,0,0,0,0,0,0,-1,2015,897,76.763,-12.9143
798,127,0,0,0,0,0,0,0,0,0,-1,2022,897,0,0
805,127,0,0,0,0,0,0,0,0,0,-1,2029,897,0,0
812,127,0,0,0,0,0,0,0,0,0,-1,2036,897,0,0
-700,120,0,0,0,0,0,0,0,0,0,-1,524,904,0,0
-693,120,0,0,0,0,0,0,0,0,0,-1,531,904,0,0
-686,120,0,0,0,0,0,0,0,0,0,-1,538,904,0,0
-679,120,-52.0888,4.76025,0,0,0,0,0,0,0,-1,545,904,-52.0888,-4.76024
-672,120,-51.1454,5.42755,0,0,0,0,0,0,0,-1,552,904,-51.1454,-5.42753
-665,120,-50.2376,-2.67987,0,0,0,0,0,0,0,-1,559,904,-50.2376,2.67988
-658,120,-54.6443,7.5307,0,0,0,0,0,0,0,-1,566,904,-54.6443,-7.53071
-651,120,-52.9452,-1.22644,0,0,0,0,0,0,0,-1,573,904,-52.9452,1.22647
-644,120,-51.6526,-3.15863,0,0,0,0,0,0,0,-1,580,904,-51.6526,3.15864
-637,120,-63.5991,12.2592,0,0,0,0,0,0,0,-1,587,904,-63.5991,-12.2592
-630,120,-207.74,37.1492,0,0,0,0,0,0,0,-1,594,904,-207.74,-37.1491
-623,120,-207.861,35.9565,-0.00943396,0.0472552,0.0140145,0.0505306,-0.0127093,1.3412,0.0386269,0.0282513,601,904,-207.861,-35.9566
-616,120,-208.057,34.77,-0.00826972,0.040336,0.0123064,0.0432743,-0.011208,1.33643,0.0332218,0.0189934,608,904,-208.057,-34.7699
-609,120,-208.286,33.5753,-0.00685682,0.0334125,0.0104937,0.0359829,-0.0094273,1.33057,0.0276716,0.0207592,615,904,-208.286,-33.5753
-602,120,-208.505,32.2845,-0.00522861,0.0264909,0.00859336,0.0286694,-0.00740709,1.32252,0.0220016,0.0228525,622,904,-208.505,-32.2846
-595,120,-208.568,30.9784,-0.00342048,0.0195806,0.00662011,0.0213499,-0.00518977,1.30964,0.0162419,0.0365065,629,904,-208.568,-30.9784
-588,120,-208.598,29.8024,0,0,0,0,0,0,0,-1,636,904,-208.598,-29.8024
-581,120,-209.123,28.5751,0,0,0,0,0,0,0,-1,643,904,-209.123,-28.5751
-574,120,-27.5438,0.505066,0,0,0,0,0,0,0,-1,650,904,-27.5438,-0.505085
-567,120,-25.2822,-0.410645,0,0,0,0,0,0,0,-1,657,904,-25.2821,0.410629
-560,120,-27.3358,1.10327,0,0,0,0,0,0,0,-1,664,904,-27.3358,-1.10324
-553,120,-72.493,0.529297,0,0,0,0,0,0,0,-1,671,904,-72.493,-0.529275
-546,120,-72.4564,0.473267,0,0,0,0,0,0,0,-1,678,904,-72.4564,-0.47327
-539,120,-72.4779,0.478088,0,0,0,0,0,0,0,-1,685,904,-72.4779,-0.478083
-532,120,-72.5178,0.429443,0,0,0,0,0,0,0,-1,692,904,-72.5178,-0.429422
-525,120,-72.5717,0.447632,0,0,0,0,0,0,0,-1,699,904,-72.5716,-0.447629
-518,120,-72.5829,0.531921,0,0,0,0,0,0,0,-1,706,904,-72.5829,-0.531914
-511,120,-72.8918,0.68634,0,0,0,0,0,0,0,-1,713,904,-72.8918,-0.686362
-504,120,0,0,0,0,0,0,0,0,0,-1,720,904,0,0
-497,120,0,0,0,0,0,0,0,0,0,-1,727,904,0,0
-490,120,0,0,0,0,0,0,0,0,0,-1,734,904,0,0
-483,120,0,0,0,0,0,0,0,0,0,-1,741,904,0,0
-476,120,0,0,0,0,0,0,0,0,0,-1,748,904,0,0
-469,120,0,0,0,0,0,0,0,0,0,-1,755,904,0,0
-462,120,0,0,0,0,0,0,0,0,0,-1,762,904,0,0
-455,120,0,0,0,0,0,0,0,0,0,-1,769,904,0,0
-448,120,0,0,0,0,0,0,0,0,0,-1,776,904,0,0
-441,120,0,0,0,0,0,0,0,0,0,-1,783,904,0,0
-434,120,0,0,0,0,0,0,0,0,0,-1,790,904,0,0
-427,120,0,0,0,0,0,0,0,0,0,-1,797,904,0,0
-420,120,0,0,0,0,0,0,0,0,0,-1,804,904,0,0
-413,120,0,0,0,0,0,0,0,0,0,-1,811,904,0,0
-406,120,0,0,0,0,0,0,0,0,0,-1,818,904,0,0
-399,120,0,0,0,0,0,0,0,0,0,-1,825,904,0,0
-392,120,0,0,0,0,0,0,0,0,0,-1,832,904,0,0
-385,120,0,0,0,0,0,0,0,0,0,-1,839,904,0,0
-378,120,0,0,0,0,0,0,0,0,0,-1,846,904,0,0
-371,120,0,0,0,0,0,0,0,0,0,-1,853,904,0,0
-364,120,0,0,0,0,0,0,0,0,0,-1,860,904,0,0
-357,120,0,0,0,0,0,0,0,0,0,-1,867,904,0,0
-350,120,0,0,0,0,0,0,0,0,0,-1,874,904,0,0
-343,120,0,0,0,0,0,0,0,0,0,-1,881,904,0,0
-336,120,0,0,0,0,0,0,0,0,0,-1,888,904,0,0
-329,120,0,0,0,0,0,0,0,0,0,-1,895,904,0,0
-322,120,0,0,0,0,0,0,0,0,0,-1,902,904,0,0
-315,120,0,0,0,0,0,0,0,0,0,-1,909,904,0,0
-308,120,0,0,0,0,0,0,0,0,0,-1,916,904,0,0
-301,120,0,0,0,0,0,0,0,0,0,-1,923,904,0,0
-294,120,0,0,0,0,0,0,0,0,0,-1,930,904,0,0
-287,120,0,0,0,0,0,0,0,0,0,-1,937,904,0,0
-280,120,0,0,0,0,0,0,0,0,0,-1,944,904,0,0
-273,120,0,0,0,0,0,0,0,0,0,-1,951,904,0,0
-266,120,0,0,0,0,0,0,0,0,0,-1,958,904,0,0
-259,120,0,0,0,0,0,0,0,0,0,-1,965,904,0,0
-252,120,0,0,0,0,0,0,0,0,0,-1,972,904,0,0
-245,120,0,0,0,0,0,0,0,0,0,-1,979,904,0,0
-238,120,0,0,0,0,0,0,0,0,0,-1,986,904,0,0
-231,120,0,0,0,0,0,0,0,0,0,-1,993,904,0,0
-224,120,0,0,0,0,0,0,0,0,0,-1,1000,904,0,0
-217,120,0,0,0,0,0,0,0,0,0,-1,1007,904,0,0
-210,120,0,0,0,0,0,0,0,0,0,-1,1014,904,0,0
-203,120,0,0,0,0,0,0,0,0,0,-1,1021,904,0,0
-196,120,0,0,0,0,0,0,0,0,0,-1,1028,904,0,0
-189,120,0,0,0,0,0,0,0,0,0,-1,1035,904,0,0
-182,120,0,0,0,0,0,0,0,0,0,-1,1042,904,0,0
-175,120,0,0,0,0,0,0,0,0,0,-1,1049,904,0,0
-168,120,0,0,0,0,0,0,0,0,0,-1,1056,904,0,0
-161,120,0,0,0,0,0,0,0,0,0,-1,1063,904,0,0
-154,120,0,0,0,0,0,0,0,0,0,-1,1070,904,0,0
-147,120,0,0,0,0,0,0,0,0,0,-1,1077,904,0,0
-140,120,0,0,0,0,0,0,0,0,0,-1,1084,904,0,0
-133,120,0,0,0,0,0,0,0,0,0,-1,1091,904,0,0
-126,120,0,0,0,0,0,0,0,0,0,-1,1098,904,0,0
-119,120,0,0,0,0,0,0,0,0,0,-1,1105,904,0,0
-112,120,0,0,0,0,0,0,0,0,0,-1,1112,904,0,0
-105,120,0,0,0,0,0,0,0,0,0,-1,1119,904,0,0
-98,120,0,0,0,0,0,0,0,0,0,-1,1126,904,0,0
-91,120,0,0,0,0,0,0,0,0,0,-1,1133,904,0,0
-84,120,0,0,0,0,0,0,0,0,0,-1,1140,904,0,0
-77,120,0,0,0,0,0,0,0,0,0,-1,1147,904,0,0
-70,120,0,0,0,0,0,0,0,0,0,-1,1154,904,0,0
-63,120,0,0,0,0,0,0,0,0,0,-1,1161,904,0,0
-56,120,0,0,0,0,0,0,0,0,0,-1,1168,904,0,0
-49,120,0,0,0,0,0,0,0,0,0,-1,1175,904,0,0
-42,120,0,0,0,0,0,0,0,0,0,-1,1182,904,0,0
-35,120,0,0,0,0,0,0,0,0,0,-1,1189,904,0,0
-28,120,0,0,0,0,0,0,0,0,0,-1,1196,904,0,0
-21,120,0,0,0,0,0,0,0,0,0,-1,1203,904,0,0
-14,120,0,0,0,0,0,0,0,0,0,-1,1210,904,0,0
-7,120,0,0,0,0,0,0,0,0,0,-1,1217,904,0,0
0,120,0,0,0,0,0,0,0,0,0,-1,1224,904,0,0
7,120,0,0,0,0,0,0,0,0,0,-1,1231,904,0,0
14,120,0,0,0,0,0,0,0,0,0,-1,1238,904,0,0
21,120,0,0,0,0,0,0,0,0,0,-1,1245,904,0,0
28,120,0,0,0,0,0,0,0,0,0,-1,1252,904,0,0
35,120,0,0,0,0,0,0,0,0,0,-1,1259,904,0,0
42,120,0,0,0,0,0,0,0,0,0,-1,1266,904,0,0
49,120,0,0,0,0,0,0,0,0,0,-1,1273,904,0,0
56,120,0,0,0,0,0,0,0,0,0,-1,1280,904,0,0
63,120,0,0,0,0,0,0,0,0,0,-1,1287,904,0,0
70,120,0,0,0,0,0,0,0,0,0,-1,1294,904,0,0
77,120,0,0,0,0,0,0,0,0,0,-1,1301,904,0,0
84,120,0,0,0,0,0,0,0,0,0,-1,1308,904,0,0
91,120,0,0,0,0,0,0,0,0,0,-1,1315,904,0,0
98,120,0,0,0,0,0,0,0,0,0,-1,1322,904,0,0
105,120,0,0,0,0,0,0,0,0,0,-1,1329,904,0,0
112,120,0,0,0,0,0,0,0,0,0,-1,1336,904,0,0
119,120,0,0,0,0,0,0,0,0,0,-1,1343,904,0,0
126,120,0,0,0,0,0,0,0,0,0,-1,1350,904,0,0
133,120,0,0,0,0,0,0,0,0,0,-1,1357,904,0,0
140,120,0,0,0,0,0,0,0,0,0,-1,1364,904,0,0
147,120,0,0,0,0,0,0,0,0,0,-1,1371,904,0,0
154,120,0,0,0,0,0,0,0,0,0,-1,1378,904,0,0
161,120,0,0,0,0,0,0,0,0,0,-1,1385,904,0,0
168,120,0,0,0,0,0,0,0,0,0,-1,1392,904,0,0
175,120,0,0,0,0,0,0,0,0,0,-1,1399,904,0,0
182,120,0,0,0,0,0,0,0,0,0,-1,1406,904,0,0
189,120,0,0,0,0,0,0,0,0,0,-1,1413,904,0,0
196,120,0,0,0,0,0,0,0,0,0,-1,1420,904,0,0
203,120,0,0,0,0,0,0,0,0,0,-1,1427,904,0,0
210,120,0,0,0,0,0,0,0,0,0,-1,1434,904,0,0
217,120,0,0,0,0,0,0,0,0,0,-1,1441,904,0,0
224,120,0,0,0,0,0,0,0,0,0,-1,1448,904,0,0
231,120,0,0,0,0,0,0,0,0,0,-1,1455,904,0,0
238,120,0,0,0,0,0,0,0,0,0,-1,1462,904,0,0
245,120,0,0,0,0,0,0,0,0,0,-1,1469,904,0,0
252,120,0,0,0,0,0,0,0,0,0,-1,1476,904,0,0
259,120,0,0,0,0,0,0,0,0,0,-1,1483,904,0,0
266,120,0,0,0,0,0,0,0,0,0,-1,1490,904,0,0
273,120,0,0,0,0,0,0,0,0,0,-1,1497,904,0,0
280,120,0,0,0,0,0,0,0,0,0,-1,1504,904,0,0
287,120,0,0,0,0,0,0,0,0,0,-1,1511,904,0,0
294,120,0,0,0,0,0,0,0,0,0,-1,1518,904,0,0
301,120,0,0,0,0,0,0,0,0,0,-1,1525,904,0,0
308,120,0,0,0,0,0,0,0,0,0,-1,1532,904,0,0
315,120,0,0,0,0,0,0,0,0,0,-1,1539,904,0,0
322,120,0,0,0,0,0,0,0,0,0,-1,1546,904,0,0
329,120,0,0,0,0,0,0,0,0,0,-1,1553,904,0,0
336,120,0,0,0,0,0,0,0,0,0,-1,1560,904,0,0
343,120,0,0,0,0,0,0,0,0,0,-1,1567,904,0,0
350,120,0,0,0,0,0,0,0,0,0,-1,1574,904,0,0
357,120,0,0,0,0,0,0,0,0,0,-1,1581,904,0,0
364,120,0,0,0,0,0,0,0,0,0,-1,1588,904,0,0
371,120,0,0,0,0,0,0,0,0,0,-1,1595,904,0,0
378,120,0,0,0,0,0,0,0,0,0,-1,1602,904,0,0
385,120,0,0,0,0,0,0,0,0,0,-1,1609,904,0,0
392,120,0,0,0,0,0,0,0,0,0,-1,1616,904,0,0
399,120,0,0,0,0,0,0,0,0,0,-1,1623,904,0,0
406,120,0,0,0,0,0,0,0,0,0,-1,1630,904,0,0
413,120,0,0,0,0,0,0,0,0,0,-1,1637,904,0,0
420,120,0,0,0,0,0,0,0,0,0,-1,1644,904,0,0
427,120,0,0,0,0,0,0,0,0,0,-1,1651,904,0,0
434,120,0,0,0,0,0,0,0,0,0,-1,1658,904,0,0
441,120,0,0,0,0,0,0,0,0,0,-1,1665,904,0,0
448,120,0,0,0,0,0,0,0,0,0,-1,1672,904,0,0
455,120,0,0,0,0,0,0,0,0,0,-1,1679,904,0,0
462,120,0,0,0,0,0,0,0,0,0,-1,1686,904,0,0
469,120,0,0,0,0,0,0,0,0,0,-1,1693,904,0,0
476,120,0,0,0,0,0,0,0,0,0,-1,1700,904,0,0
483,120,0,0,0,0,0,0,0,0,0,-1,1707,904,0,0
490,120,0,0,0,0,0,0,0,0,0,-1,1714,904,0,0
497,120,0,0,0,0,0,0,0,0,0,-1,1721,904,0,0
504,120,0,0,0,0,0,0,0,0,0,-1,1728,904,0,0
511,120,0,0,0,0,0,0,0,0,0,-1,1735,904,0,0
518,120,0,0,0,0,0,0,0,0,0,-1,1742,904,0,0
525,120,0,0,0,0,0,0,0,0,0,-1,1749,904,0,0
532,120,0,0,0,0,0,0,0,0,0,-1,1756,904,0,0
539,120,0,0,0,0,0,0,0,0,0,-1,1763,904,0,0
546,120,0,0,0,0,0,0,0,0,0,-1,1770,904,0,0
553,120,0,0,0,0,0,0,0,0,0,-1,1777,904,0,0
560,120,0,0,0,0,0,0,0,0,0,-1,1784,904,0,0
567,120,0,0,0,0,0,0,0,0,0,-1,1791,904,0,0
574,120,0,0,0,0,0,0,0,0,0,-1,1798,904,0,0
581,120,0,0,0,0,0,0,0,0,0,-1,1805,904,0,0
588,120,0,0,0,0,0,0,0,0,0,-1,1812,904,0,0
595,120,0,0,0,0,0,0,0,0,0,-1,1819,904,0,0
602,120,0,0,0,0,0,0,0,0,0,-1,1826,904,0,0
609,120,0,0,0,0,0,0,0,0,0,-1,1833,904,0,0
616,120,0,0,0,0,0,0,0,0,0,-1,1840,904,0,0
623,120,0,0,0,0,0,0,0,0,0,-1,1847,904,0,0
630,120,228.601,8.69409,0,0,0,0,0,0,0,-1,1854,904,228.601,-8.6941
637,120,228.441,8.92346,0,0,0,0,0,0,0,-1,1861,904,228.441,-8.92345
644,120,228.439,9.24756,0,0,0,0,0,0,0,-1,1868,904,228.439,-9.24758
651,120,228.343,8.9187,0,0,0,0,0,0,0,-1,1875,904,228.343,-8.91869
658,120,228.329,8.90344,0,0,0,0,0,0,0,-1,1882,904,228.329,-8.90346
665,120,228.411,8.76611,0,0,0,0,0,0,0,-1,1889,904,228.411,-8.76613
672,120,228.509,8.62555,0,0,0,0,0,0,0,-1,1896,904,228.509,-8.62552
679,120,228.568,8.63623,0,0,0,0,0,0,0,-1,1903,904,228.568,-8.6362
686,120,228.519,8.70801,0,0,0,0,0,0,0,-1,1910,904,228.519,-8.70802
693,120,228.617,8.65796,0,0,0,0,0,0,0,-1,1917,904,228.617,-8.65796
700,120,42.2007,3.00946,0,0,0,0,0,0,0,-1,1924,904,42.2007,-3.00944
707,120,217.425,26.9904,0,0,0,0,0,0,0,-1,1931,904,217.425,-26.9904
714,120,217.2,28.4782,-0.00818685,0.0037937,0.00106487,0.00388761,-0.00828076,1.48283,0.00717641,0.0335076,1938,904,217.2,-28.4782
721,120,216.835,29.8532,-0.0105098,0.010511,-0.00206639,0.0107122,-0.010711,-1.47373,0.0123687,0.0319739,1945,904,216.835,-29.8532
728,120,216.472,31.0695,-0.0120671,0.0173353,-0.00469068,0.0180655,-0.0127973,-1.41637,0.0179049,0.0228281,1952,904,216.472,-31.0694
735,120,216.289,32.3281,-0.0134653,0.0242474,-0.00709924,0.0255396,-0.0147574,-1.39076,0.0235414,0.0217757,1959,904,216.289,-32.3281
742,120,216.059,33.5926,-0.0146097,0.0312726,-0.00923484,0.0330615,-0.0163986,-1.37945,0.029091,0.021061,1966,904,216.059,-33.5926
749,120,215.853,34.8487,-0.0154015,0.038437,-0.0110382,0.0406122,-0.0175768,-1.37623,0.0344618,0.0148849,1973,904,215.853,-34.8487
756,120,215.515,36.0831,-0.0157379,0.0457674,-0.012448,0.0481912,-0.0181617,-1.37849,0.039595,0.0246134,1980,904,215.515,-36.0831
763,120,215.202,37.2014,-0.0155736,0.0533043,-0.0134278,0.0558295,-0.0180988,-1.38491,0.0444969,0.0476819,1987,904,215.202,-37.2013
770,120,215.083,38.361,0,0,0,0,0,0,0,-1,1994,904,215.083,-38.361
777,120,77.7629,11.9034,0,0,0,0,0,0,0,-1,2001,904,77.763,-11.9034
784,120,78.0063,12.8853,0,0,0,0,0,0,0,-1,2008,904,78.0063,-12.8852
791,120,78.2561,13.8319,0,0,0,0,0,0,0,-1,2015,904,78.2561,-13.8319
798,120,78.5127,14.8143,0,0,0,0,0,0,0,-1,2022,904,78.5128,-14.8143
805,120,0,0,0,0,0,0,0,0,0,-1,2029,904,0,0
812,120,0,0,0,0,0,0,0,0,0,-1,2036,904,0,0
-700,113,0,0,0,0,0,0,0,0,0,-1,524,911,0,0
-693,113,0,0,0,0,0,0,0,0,0,-1,531,911,0,0
-686,113,0,0,0,0,0,0,0,0,0,-1,538,911,0,0
-679,113,-55.9637,4.78546,0,0,0,0,0,0,0,-1,545,911,-55.9637,-4.78548
-672,113,-52.5881,5.49811,0,0,0,0,0,0,0,-1,552,911,-52.5881,-5.49808
-665,113,-56.8114,7.23682,0,0,0,0,0,0,0,-1,559,911,-56.8114,-7.23679
-658,113,-54.1535,7.58624,0,0,0,0,0,0,0,-1,566,911,-54.1535,-7.58627
-651,113,-53.3762,7.8313,0,0,0,0,0,0,0,-1,573,911,-53.3762,-7.8313
-644,113,-48.5211,7.83691,0,0,0,0,0,0,0,-1,580,911,-48.5211,-7.83694
-637,113,-209.339,38.2266,0,0,0,0,0,0,0,-1,587,911,-209.339,-38.2265
-630,113,-209.358,37.0522,-0.0135137,0.0532383,0.0151278,0.0565067,-0.0167821,1.35802,0.0443368,0.0353382,594,911,-209.358,-37.0522
-623,113,-209.428,35.788,-0.0116694,0.0459847,0.0133899,0.0489427,-0.0146274,1.35338,0.0384433,0.0216633,601,911,-209.428,-35.7879
-616,113,-209.565,34.622,-0.0096549,0.038756,0.0115172,0.0413563,-0.0122552,1.34874,0.0324371,0.0162788,608,911,-209.565,-34.622
-609,113,-209.726,33.5161,-0.00748806,0.0315514,0.00952368,0.0337508,-0.00968745,1.34384,0.0263305,0.0172518,615,911,-209.726,-33.5161
-602,113,-209.927,32.2841,-0.00518747,0.0243728,0.007421,0.0261312,-0.00694588,1.33814,0.0201394,0.0251482,622,911,-209.927,-32.284
-595,113,-210.139,31.1188,-0.00277272,0.0172254,0.00521837,0.0185052,-0.00405252,1.33029,0.0138861,0.0322418,629,911,-210.139,-31.1188
-588,113,-210.162,29.7483,0,0,0,0,0,0,0,-1,636,911,-210.162,-29.7483
-581,113,-210.366,28.4577,0,0,0,0,0,0,0,-1,643,911,-210.366,-28.4577
-574,113,-210.716,26.9496,0,0,0,0,0,0,0,-1,650,911,-210.716,-26.9496
-567,113,-21.8396,0.437378,0,0,0,0,0,0,0,-1,657,911,-21.8396,-0.437351
-560,113,-72.5729,0.38501,0,0,0,0,0,0,0,-1,664,911,-72.5729,-0.385037
-553,113,-72.5334,0.569885,0,0,0,0,0,0,0,-1,671,911,-72.5334,-0.5699
-546,113,-72.5052,0.60083,0,0,0,0,0,0,0,-1,678,911,-72.5052,-0.60083
-539,113,-72.4194,0.534973,0,0,0,0,0,0,0,-1,685,911,-72.4194,-0.534962
-532,113,-72.4289,0.388855,0,0,0,0,0,0,0,-1,692,911,-72.4289,-0.388827
-525,113,-72.5496,0.299011,0,0,0,0,0,0,0,-1,699,911,-72.5496,-0.299028
-518,113,-72.7172,0.401367,0,0,0,0,0,0,0,-1,706,911,-72.7172,-0.401357
-511,113,-72.8064,0.46875,0,0,0,0,0,0,0,-1,713,911,-72.8064,-0.468774
-504,113,0,0,0,0,0,0,0,0,0,-1,720,911,0,0
-497,113,0,0,0,0,0,0,0,0,0,-1,727,911,0,0
-490,113,0,0,0,0,0,0,0,0,0,-1,734,911,0,0
-483,113,0,0,0,0,0,0,0,0,0,-1,741,911,0,0
-476,113,0,0,0,0,0,0,0,0,0,-1,748,911,0,0
-469,113,0,0,0,0,0,0,0,0,0,-1,755,911,0,0
-462,113,0,0,0,0,0,0,0,0,0,-1,762,911,0,0
-455,113,0,0,0,0,0,0,0,0,0,-1,769,911,0,0
-448,113,0,0,0,0,0,0,0,0,0,-1,776,911,0,0
-441,113,0,0,0,0,0,0,0,0,0,-1,783,911,0,0
-434,113,0,0,0,0,0,0,0,0,0,-1,790,911,0,0
-427,113,0,0,0,0,0,0,0,0,0,-1,797,911,0,0
-420,113,0,0,0,0,0,0,0,0,0,-1,804,911,0,0
-413,113,0,0,0,0,0,0,0,0,0,-1,811,911,0,0
-406,113,0,0,0,0,0,0,0,0,0,-1,818,911,0,0
-399,113,0,0,0,0,0,0,0,0,0,-1,825,911,0,0
-392,113,0,0,0,0,0,0,0,0,0,-1,832,911,0,0
-385,113,0,0,0,0,0,0,0,0,0,-1,839,911,0,0
-378,113,0,0,0,0,0,0,0,0,0,-1,846,911,0,0
-371,113,0,0,0,0,0,0,0,0,0,-1,853,911,0,0
-364,113,0,0,0,0,0,0,0,0,0,-1,860,911,0,0
-357,113,0,0,0,0,0,0,0,0,0,-1,867,911,0,0
-350,113,0,0,0,0,0,0,0,0,0,-1,874,911,0,0
-343,113,0,0,0,0,0,0,0,0,0,-1,881,911,0,0
-336,113,0,0,0,0,0,0,0,0,0,-1,888,911,0,0
-329,113,0,0,0,0,0,0,0,0,0,-1,895,911,0,0
-322,113,0,0,0,0,0,0,0,0,0,-1,902,911,0,0
-315,113,0,0,0,0,0,0,0,0,0,-1,909,911,0,0
-308,113,0,0,0,0,0,0,0,0,0,-1,916,911,0,0
-301,113,0,0,0,0,0,0,0,0,0,-1,923,911,0,0
-294,113,0,0,0,0,0,0,0,0,0,-1,930,911,0,0
-287,113,0,0,0,0,0,0,0,0,0,-1,937,911,0,0
-280,113,0,0,0,0,0,0,0,0,0,-1,944,911,0,0
-273,113,0,0,0,0,0,0,0,0,0,-1,951,911,0,0
-266,113,0,0,0,0,0,0,0,0,0,-1,958,911,0,0
-259,113,0,0,0,0,0,0,0,0,0,-1,965,911,0,0
-252,113,0,0,0,0,0,0,0,0,0,-1,972,911,0,0
-245,113,0,0,0,0,0,0,0,0,0,-1,979,911,0,0
-238,113,0,0,0,0,0,0,0,0,0,-1,986,911,0,0
-231,113,0,0,0,0,0,0,0,0,0,-1,993,911,0,0
-224,113,0,0,0,0,0,0,0,0,0,-1,1000,911,0,0
-217,113,0,0,0,0,0,0,0,0,0,-1,1007,911,0,0
-210,113,0,0,0,0,0,0,0,0,0,-1,1014,911,0,0
-203,113,0,0,0,0,0,0,0,0,0,-1,1021,911,0,0
-196,113,0,0,0,0,0,0,0,0,0,-1,1028,911,0,0
-189,113,0,0,0,0,0,0,0,0,0,-1,1035,911,0,0
-182,113,0,0,0,0,0,0,0,0,0,-1,1042,911,0,0
-175,113,0,0,0,0,0,0,0,0,0,-1,1049,911,0,0
-168,113,0,0,0,0,0,0,0,0,0,-1,1056,911,0,0
-161,113,0,0,0,0,0,0,0,0,0,-1,1063,911,0,0
-154,113,0,0,0,0,0,0,0,0,0,-1,1070,911,0,0
-147,113,0,0,0,0,0,0,0,0,0,-1,1077,911,0,0
-140,113,0,0,0,0,0,0,0,0,0,-1,1084,911,0,0
-133,113,0,0,0,0,0,0,0,0,0,-1,1091,911,0,0
-126,113,0,0,0,0,0,0,0,0,0,-1,1098,911,0,0
-119,113,0,0,0,0,0,0,0,0,0,-1,1105,911,0,0
-112,113,0,0,0,0,0,0,0,0,0,-1,1112,911,0,0
-105,113,0,0,0,0,0,0,0,0,0,-1,1119,911,0,0
-98,113,0,0,0,0,0,0,0,0,0,-1,1126,911,0,0
-91,113,0,0,0,0,0,0,0,0,0,-1,1133,911,0,0
-84,113,0,0,0,0,0,0,0,0,0,-1,1140,911,0,0
-77,113,0,0,0,0,0,0,0,0,0,-1,1147,911,0,0
-70,113,0,0,0,0,0,0,0,0,0,-1,1154,911,0,0
-63,113,0,0,0,0,0,0,0,0,0,-1,1161,911,0,0
-56,113,0,0,0,0,0,0,0,0,0,-1,1168,911,0,0
-49,113,0,0,0,0,0,0,0,0,0,-1,1175,911,0,0
-42,113,0,0,0,0,0,0,0,0,0,-1,1182,911,0,0
-35,113,0,0,0,0,0,0,0,0,0,-1,1189,911,0,0
-28,113,0,0,0,0,0,0,0,0,0,-1,1196,911,0,0
-21,113,0,0,0,0,0,0,0,0,0,-1,1203,911,0,0
-14,113,0,0,0,0,0,0,0,0,0,-1,1210,911,0,0
-7,113,0,0,0,0,0,0,0,0,0,-1,1217,911,0,0
0,113,0,0,0,0,0,0,0,0,0,-1,1224,911,0,0
7,113,0,0,0,0,0,0,0,0,0,-1,1231,911,0,0
14,113,0,0,0,0,0,0,0,0,0,-1,1238,911,0,0
21,113,0,0,0,0,0,0,0,0,0,-1,1245,911,0,0
28,113,0,0,0,0,0,0,0,0,0,-1,1252,911,0,0
35,113,0,0,0,0,0,0,0,0,0,-1,1259,911,0,0
42,113,0,0,0,0,0,0,0,0,0,-1,1266,911,0,0
49,113,0,0,0,0,0,0,0,0,0,-1,1273,911,0,0
56,113,0,0,0,0,0,0,0,0,0,-1,1280,911,0,0
63,113,0,0,0,0,0,0,0,0,0,-1,1287,911,0,0
70,113,0,0,0,0,0,0,0,0,0,-1,1294,911,0,0
77,113,0,0,0,0,0,0,0,0,0,-1,1301,911,0,0
84,113,0,0,0,0,0,0,0,0,0,-1,1308,911,0,0
91,113,0,0,0,0,0,0,0,0,0,-1,1315,911,0,0
98,113,0,0,0,0,0,0,0,0,0,-1,1322,911,0,0
105,113,0,0,0,0,0,0,0,0,0,-1,1329,911,0,0
112,113,0,0,0,0,0,0,0,0,0,-1,1336,911,0,0
119,113,0,0,0,0,0,0,0,0,0,-1,1343,911,0,0
126,113,0,0,0,0,0,0,0,0,0,-1,1350,911,0,0
133,113,0,0,0,0,0,0,0,0,0,-1,1357,911,0,0
140,113,0,0,0,0,0,0,0,0,0,-1,1364,911,0,0
147,113,0,0,0,0,0,0,0,0,0,-1,1371,911,0,0
154,113,0,0,0,0,0,0,0,0,0,-1,1378,911,0,0
161,113,0,0,0,0,0,0,0,0,0,-1,1385,911,0,0
168,113,0,0,0,0,0,0,0,0,0,-1,1392,911,0,0
175,113,0,0,0,0,0,0,0,0,0,-1,1399,911,0,0
182,113,0,0,0,0,0,0,0,0,0,-1,1406,911,0,0
189,113,0,0,0,0,0,0,0,0,0,-1,1413,911,0,0
196,113,0,0,0,0,0,0,0,0,0,-1,1420,911,0,0
203,113,0,0,0,0,0,0,0,0,0,-1,1427,911,0,0
210,113,0,0,0,0,0,0,0,0,0,-1,1434,911,0,0
217,113,0,0,0,0,0,0,0,0,0,-1,1441,911,0,0
224,113,0,0,0,0,0,0,0,0,0,-1,1448,911,0,0
231,113,0,0,0,0,0,0,0,0,0,-1,1455,911,0,0
238,113,0,0,0,0,0,0,0,0,0,-1,1462,911,0,0
245,113,0,0,0,0,0,0,0,0,0,-1,1469,911,0,0
252,113,0,0,0,0,0,0,0,0,0,-1,1476,911,0,0
259,113,0,0,0,0,0,0,0,0,0,-1,1483,911,0,0
266,113,0,0,0,0,0,0,0,0,0,-1,1490,911,0,0
273,113,0,0,0,0,0,0,0,0,0,-1,1497,911,0,0
280,113,0,0,0,0,0,0,0,0,0,-1,1504,911,0,0
287,113,0,0,0,0,0,0,0,0,0,-1,1511,911,0,0
294,113,0,0,0,0,0,0,0,0,0,-1,1518,911,0,0
301,113,0,0,0,0,0,0,0,0,0,-1,1525,911,0,0
308,113,0,0,0,0,0,0,0,0,0,-1,1532,911,0,0
315,113,0,0,0,0,0,0,0,0,0,-1,1539,911,0,0
322,113,0,0,0,0,0,0,0,0,0,-1,1546,911,0,0
329,113,0,0,0,0,0,0,0,0,0,-1,1553,911,0,0
336,113,0,0,0,0,0,0,0,0,0,-1,1560,911,0,0
343,113,0,0,0,0,0,0,0,0,0,-1,1567,911,0,0
350,113,0,0,0,0,0,0,0,0,0,-1,1574,911,0,0
357,113,0,0,0,0,0,0,0,0,0,-1,1581,911,0,0
364,113,0,0,0,0,0,0,0,0,0,-1,1588,911,0,0
371,113,0,0,0,0,0,0,0,0,0,-1,1595,911,0,0
378,113,0,0,0,0,0,0,0,0,0,-1,1602,911,0,0
385,113,0,0,0,0,0,0,0,0,0,-1,1609,911,0,0
392,113,0,0,0,0,0,0,0,0,0,-1,1616,911,0,0
399,113,0,0,0,0,0,0,0,0,0,-1,1623,911,0,0
406,113,0,0,0,0,0,0,0,0,0,-1,1630,911,0,0
413,113,0,0,0,0,0,0,0,0,0,-1,1637,911,0,0
420,113,0,0,0,0,0,0,0,0,0,-1,1644,911,0,0
427,113,0,0,0,0,0,0,0,0,0,-1,1651,911,0,0
434,113,0,0,0,0,0,0,0,0,0,-1,1658,911,0,0
441,113,0,0,0,0,0,0,0,0,0,-1,1665,911,0,0
448,113,0,0,0,0,0,0,0,0,0,-1,1672,911,0,0
455,113,0,0,0,0,0,0,0,0,0,-1,1679,911,0,0
462,113,0,0,0,0,0,0,0,0,0,-1,1686,911,0,0
469,113,0,0,0,0,0,0,0,0,0,-1,1693,911,0,0
476,113,0,0,0,0,0,0,0,0,0,-1,1700,911,0,0
483,113,0,0,0,0,0,0,0,0,0,-1,1707,911,0,0
490,113,0,0,0,0,0,0,0,0,0,-1,1714,911,0,0
497,113,0,0,0,0,0,0,0,0,0,-1,1721,911,0,0
504,113,0,0,0,0,0,0,0,0,0,-1,1728,911,0,0
511,113,0,0,0,0,0,0,0,0,0,-1,1735,911,0,0
518,113,0,0,0,0,0,0,0,0,0,-1,1742,911,0,0
525,113,0,0,0,0,0,0,0,0,0,-1,1749,911,0,0
532,113,0,0,0,0,0,0,0,0,0,-1,1756,911,0,0
539,113,0,0,0,0,0,0,0,0,0,-1,1763,911,0,0
546,113,0,0,0,0,0,0,0,0,0,-1,1770,911,0,0
553,113,0,0,0,0,0,0,0,0,0,-1,1777,911,0,0
560,113,0,0,0,0,0,0,0,0,0,-1,1784,911,0,0
567,113,0,0,0,0,0,0,0,0,0,-1,1791,911,0,0
574,113,0,0,0,0,0,0,0,0,0,-1,1798,911,0,0
581,113,0,0,0,0,0,0,0,0,0,-1,1805,911,0,0
588,113,0,0,0,0,0,0,0,0,0,-1,1812,911,0,0
595,113,0,0,0,0,0,0,0,0,0,-1,1819,911,0,0
602,113,0,0,0,0,0,0,0,0,0,-1,1826,911,0,0
609,113,0,0,0,0,0,0,0,0,0,-1,1833,911,0,0
616,113,0,0,0,0,0,0,0,0,0,-1,1840,911,0,0
623,113,0,0,0,0,0,0,0,0,0,-1,1847,911,0,0
630,113,228.572,8.83362,0,0,0,0,0,0,0,-1,1854,911,228.572,-8.8336
637,113,228.485,9.18372,0,0,0,0,0,0,0,-1,1861,911,228.485,-9.18372
644,113,228.538,9.22913,0,0,0,0,0,0,0,-1,1868,911,228.538,-9.22912
651,113,228.414,8.95081,0,0,0,0,0,0,0,-1,1875,911,228.414,-8.95081
658,113,228.415,8.71222,0,0,0,0,0,0,0,-1,1882,911,228.414,-8.71224
665,113,228.431,8.72821,0,0,0,0,0,0,0,-1,1889,911,228.431,-8.72819
672,113,228.43,8.72742,0,0,0,0,0,0,0,-1,1896,911,228.43,-8.72742
679,113,228.481,8.64972,0,0,0,0,0,0,0,-1,1903,911,228.482,-8.64971
686,113,228.57,8.71246,0,0,0,0,0,0,0,-1,1910,911,228.57,-8.71244
693,113,228.419,8.77954,0,0,0,0,0,0,0,-1,1917,911,228.419,-8.77951
700,113,43.897,2.79669,0,0,0,0,0,0,0,-1,1924,911,43.897,-2.79671
707,113,218.386,26.984,0,0,0,0,0,0,0,-1,1931,911,218.386,-26.984
714,113,218.325,28.438,-0.00862605,0.00154771,0.00231368,0.00204916,-0.0091275,1.35736,0.00687068,0.0275383,1938,911,218.325,-28.438
721,113,218.103,29.7936,-0.0107483,0.00842427,-0.000920395,0.00846835,-0.0107924,-1.52294,0.0111472,0.0313623,1945,911,218.103,-29.7937
728,113,217.804,31.0787,-0.01209,0.0153668,-0.00349688,0.0158051,-0.0125284,-1.44609,0.0163948,0.0278864,1952,911,217.804,-31.0788
735,113,217.713,32.2902,-0.0133842,0.0223379,-0.00584258,0.0232692,-0.0143155,-1.41273,0.0219038,0.0240473,1959,911,217.713,-32.2902
742,113,217.493,33.489,-0.0145133,0.0293854,-0.00790211,0.0307645,-0.0158924,-1.39801,0.0273898,0.0182481,1966,911,217.493,-33.489
749,113,217.286,34.7295,-0.0153849,0.0365261,-0.00963185,0.0382556,-0.0171144,-1.39313,0.0327354,0.0154385,1973,911,217.286,-34.7295
756,113,216.952,36.0012,-0.0159025,0.043774,-0.0109872,0.0457326,-0.0178612,-1.39439,0.037873,0.026184,1980,911,216.952,-36.0012
763,113,216.538,37.3006,0,0,0,0,0,0,0,-1,1987,911,216.538,-37.3006
770,113,211.768,38.637,0,0,0,0,0,0,0,-1,1994,911,211.768,-38.6369
777,113,58.1719,9.65338,0,0,0,0,0,0,0,-1,2001,911,58.172,-9.6534
784,113,79.3757,13.6559,0,0,0,0,0,0,0,-1,2008,911,79.3756,-13.6559
791,113,74.5583,10.0654,0,0,0,0,0,0,0,-1,2015,911,74.5583,-10.0654
798,113,74.8208,11.6051,0,0,0,0,0,0,0,-1,2022,911,74.8207,-11.6051
805,113,0,0,0,0,0,0,0,0,0,-1,2029,911,0,0
812,113,0,0,0,0,0,0,0,0,0,-1,2036,911,0,0
-700,106,0,0,0,0,0,0,0,0,0,-1,524,918,0,0
-693,106,0,0,0,0,0,0,0,0,0,-1,531,918,0,0
-686,106,0,0,0,0,0,0,0,0,0,-1,538,918,0,0
-679,106,-60.4137,10.3801,0,0,0,0,0,0,0,-1,545,918,-60.4137,-10.3802
-672,106,-59.9378,11.2709,0,0,0,0,0,0,0,-1,552,918,-59.9378,-11.271
-665,106,-53.5263,9.70886,0,0,0,0,0,0,0,-1,559,918,-53.5263,-9.70888
-658,106,-53.7712,10.2163,0,0,0,0,0,0,0,-1,566,918,-53.7712,-10.2163
-651,106,-52.8008,8.01733,0,0,0,0,0,0,0,-1,573,918,-52.8008,-8.01734
-644,106,-64.0154,12.8989,0,0,0,0,0,0,0,-1,580,918,-64.0155,-12.8989
-637,106,-210.531,37.6389,0,0,0,0,0,0,0,-1,587,918,-210.531,-37.6389
-630,106,-210.647,36.662,-0.0147472,0.051842,0.0146291,0.0549141,-0.0178193,1.3638,0.0437753,0.0282843,594,918,-210.647,-36.662
-623,106,-210.876,35.5761,-0.0124083,0.0444085,0.0127377,0.0471335,-0.0151333,1.36004,0.0374988,0.0264321,601,918,-210.876,-35.5761
-616,106,-211.014,34.4617,-0.009959,0.0370157,0.0107266,0.0393492,-0.0122925,1.35659,0.0311495,0.0244337,608,918,-211.014,-34.4616
-609,106,-211.108,33.407,-0.0074096,0.0296588,0.00860715,0.0315599,-0.00931065,1.35342,0.0247346,0.0183309,615,918,-211.108,-33.407
-602,106,-211.243,32.2194,-0.00477148,0.0223359,0.00638828,0.023766,-0.00620154,1.35057,0.0182655,0.0241622,622,918,-211.243,-32.2194
-595,106,-211.564,31.0054,-0.0020575,0.0150477,0.00407631,0.0159695,-0.00297925,1.34841,0.0117658,0.0307671,629,918,-211.564,-31.0054
-588,106,-211.864,29.7353,0,0,0,0,0,0,0,-1,636,918,-211.864,-29.7353
-581,106,-211.677,28.3829,0,0,0,0,0,0,0,-1,643,918,-211.677,-28.3829
-574,106,-212.12,27.1302,0,0,0,0,0,0,0,-1,650,918,-212.12,-27.1303
-567,106,-41.3706,0.420776,0,0,0,0,0,0,0,-1,657,918,-41.3706,-0.420794
-560,106,-72.5184,0.346619,0,0,0,0,0,0,0,-1,664,918,-72.5184,-0.346624
-553,106,-72.5411,0.640625,0,0,0,0,0,0,0,-1,671,918,-72.5411,-0.640601
-546,106,-72.6151,0.578125,0,0,0,0,0,0,0,-1,678,918,-72.6151,-0.578127
-539,106,-72.566,0.447876,0,0,0,0,0,0,0,-1,685,918,-72.566,-0.4479
-532,106,-72.3527,0.214966,0,0,0,0,0,0,0,-1,692,918,-72.3527,-0.214992
-525,106,-72.5553,0.141418,0,0,0,0,0,0,0,-1,699,918,-72.5553,-0.141448
-518,106,-72.6719,0.387268,0,0,0,0,0,0,0,-1,706,918,-72.672,-0.387285
-511,106,0,0,0,0,0,0,0,0,0,-1,713,918,0,0
-504,106,0,0,0,0,0,0,0,0,0,-1,720,918,0,0
-497,106,0,0,0,0,0,0,0,0,0,-1,727,918,0,0
-490,106,0,0,0,0,0,0,0,0,0,-1,734,918,0,0
-483,106,0,0,0,0,0,0,0,0,0,-1,741,918,0,0
-476,106,0,0,0,0,0,0,0,0,0,-1,748,918,0,0
-469,106,0,0,0,0,0,0,0,0,0,-1,755,918,0,0
-462,106,0,0,0,0,0,0,0,0,0,-1,762,918,0,0
-455,106,0,0,0,0,0,0,0,0,0,-1,769,918,0,0
-448,106,0,0,0,0,0,0,0,0,0,-1,776,918,0,0
-441,106,0,0,0,0,0,0,0,0,0,-1,783,918,0,0
-434,106,0,0,0,0,0,0,0,0,0,-1,790,918,0,0
-427,106,0,0,0,0,0,0,0,0,0,-1,797,918,0,0
-420,106,0,0,0,0,0,0,0,0,0,-1,804,918,0,0
-413,106,0,0,0,0,0,0,0,0,0,-1,811,918,0,0
-406,106,0,0,0,0,0,0,0,0,0,-1,818,918,0,0
-399,106,0,0,0,0,0,0,0,0,0,-1,825,918,0,0
-392,106,0,0,0,0,0,0,0,0,0,-1,832,918,0,0
-385,106,0,0,0,0,0,0,0,0,0,-1,839,918,0,0
-378,106,0,0,0,0,0,0,0,0,0,-1,846,918,0,0
-371,106,0,0,0,0,0,0,0,0,0,-1,853,918,0,0
-364,106,0,0,0,0,0,0,0,0,0,-1,860,918,0,0
-357,106,0,0,0,0,0,0,0,0,0,-1,867,918,0,0
-350,106,0,0,0,0,0,0,0,0,0,-1,874,918,0,0
-343,106,0,0,0,0,0,0,0,0,0,-1,881,918,0,0
-336,106,0,0,0,0,0,0,0,0,0,-1,888,918,0,0
-329,106,0,0,0,0,0,0,0,0,0,-1,895,918,0,0
-322,106,0,0,0,0,0,0,0,0,0,-1,902,918,0,0
-315,106,0,0,0,0,0,0,0,0,0,-1,909,918,0,0
-308,106,0,0,0,0,0,0,0,0,0,-1,916,918,0,0
-301,106,0,0,0,0,0,0,0,0,0,-1,923,918,0,0
-294,106,0,0,0,0,0,0,0,0,0,-1,930,918,0,0
-287,106,0,0,0,0,0,0,0,0,0,-1,937,918,0,0
-280,106,0,0,0,0,0,0,0,0,0,-1,944,918,0,0
-273,106,0,0,0,0,0,0,0,0,0,-1,951,918,0,0
-266,106,0,0,0,0,0,0,0,0,0,-1,958,918,0,0
-259,106,0,0,0,0,0,0,0,0,0,-1,965,918,0,0
-252,106,0,0,0,0,0,0,0,0,0,-1,972,918,0,0
-245,106,0,0,0,0,0,0,0,0,0,-1,979,918,0,0
-238,106,0,0,0,0,0,0,0,0,0,-1,986,918,0,0
-231,106,0,0,0,0,0,0,0,0,0,-1,993,918,0,0
-224,106,0,0,0,0,0,0,0,0,0,-1,1000,918,0,0
-217,106,0,0,0,0,0,0,0,0,0,-1,1007,918,0,0
-210,106,0,0,0,0,0,0,0,0,0,-1,1014,918,0,0
-203,106,0,0,0,0,0,0,0,0,0,-1,1021,918,0,0
-196,106,0,0,0,0,0,0,0,0,0,-1,1028,918,0,0
-189,106,0,0,0,0,0,0,0,0,0,-1,1035,918,0,0
-182,106,0,0,0,0,0,0,0,0,0,-1,1042,918,0,0
-175,106,0,0,0,0,0,0,0,0,0,-1,1049,918,0,0
-168,106,0,0,0,0,0,0,0,0,0,-1,1056,918,0,0
-161,106,0,0,0,0,0,0,0,0,0,-1,1063,918,0,0
-154,106,0,0,0,0,0,0,0,0,0,-1,1070,918,0,0
-147,106,0,0,0,0,0,0,0,0,0,-1,1077,918,0,0
-140,106,0,0,0,0,0,0,0,0,0,-1,1084,918,0,0
-133,106,0,0,0,0,0,0,0,0,0,-1,1091,918,0,0
-126,106,0,0,0,0,0,0,0,0,0,-1,1098,918,0,0
-119,106,0,0,0,0,0,0,0,0,0,-1,1105,918,0,0
-112,106,0,0,0,0,0,0,0,0,0,-1,1112,918,0,0
-105,106,0,0,0,0,0,0,0,0,0,-1,1119,918,0,0
-98,106,0,0,0,0,0,0,0,0,0,-1,1126,918,0,0
-91,106,0,0,0,0,0,0,0,0,0,-1,1133,918,0,0
-84,106,0,0,0,0,0,0,0,0,0,-1,1140,918,0,0
-77,106,0,0,0,0,0,0,0,0,0,-1,1147,918,0,0
-70,106,0,0,0,0,0,0,0,0,0,-1,1154,918,0,0
-63,106,0,0,0,0,0,0,0,0,0,-1,1161,918,0,0
-56,106,0,0,0,0,0,0,0,0,0,-1,1168,918,0,0
-49,106,0,0,0,0,0,0,0,0,0,-1,1175,918,0,0
-42,106,0,0,0,0,0,0,0,0,0,-1,1182,918,0,0
-35,106,0,0,0,0,0,0,0,0,0,-1,1189,918,0,0
-28,106,0,0,0,0,0,0,0,0,0,-1,1196,918,0,0
-21,106,0,0,0,0,0,0,0,0,0,-1,1203,918,0,0
-14,106,0,0,0,0,0,0,0,0,0,-1,1210,918,0,0
-7,106,0,0,0,0,0,0,0,0,0,-1,1217,918,0,0
0,106,0,0,0,0,0,0,0,0,0,-1,1224,918,0,0
7,106,0,0,0,0,0,0,0,0,0,-1,1231,918,0,0
14,106,0,0,0,0,0,0,0,0,0,-1,1238,918,0,0
21,106,0,0,0,0,0,0,0,0,0,-1,1245,918,0,0
28,106,0,0,0,0,0,0,0,0,0,-1,1252,918,0,0
35,106,0,0,0,0,0,0,0,0,0,-1,1259,918,0,0
42,106,0,0,0,0,0,0,0,0,0,-1,1266,918,0,0
49,106,0,0,0,0,0,0,0,0,0,-1,1273,918,0,0
56,106,0,0,0,0,0,0,0,0,0,-1,1280,918,0,0
63,106,0,0,0,0,0,0,0,0,0,-1,1287,918,0,0
70,106,0,0,0,0,0,0,0,0,0,-1,1294,918,0,0
77,106,0,0,0,0,0,0,0,0,0,-1,1301,918,0,0
84,106,0,0,0,0,0,0,0,0,0,-1,1308,918,0,0
91,106,0,0,0,0,0,0,0,0,0,-1,1315,918,0,0
98,106,0,0,0,0,0,0,0,0,0,-1,1322,918,0,0
105,106,0,0,0,0,0,0,0,0,0,-1,1329,918,0,0
112,106,0,0,0,0,0,0,0,0,0,-1,1336,918,0,0
119,106,0,0,0,0,0,0,0,0,0,-1,1343,918,0,0
126,106,0,0,0,0,0,0,0,0,0,-1,1350,918,0,0
133,106,0,0,0,0,0,0,0,0,0,-1,1357,918,0,0
140,106,0,0,0,0,0,0,0,0,0,-1,1364,918,0,0
147,106,0,0,0,0,0,0,0,0,0,-1,1371,918,0,0
154,106,0,0,0,0,0,0,0,0,0,-1,1378,918,0,0
161,106,0,0,0,0,0,0,0,0,0,-1,1385,918,0,0
168,106,0,0,0,0,0,0,0,0,0,-1,1392,918,0,0
175,106,0,0,0,0,0,0,0,0,0,-1,1399,918,0,0
182,106,0,0,0,0,0,0,0,0,0,-1,1406,918,0,0
189,106,0,0,0,0,0,0,0,0,0,-1,1413,918,0,0
196,106,0,0,0,0,0,0,0,0,0,-1,1420,918,0,0
203,106,0,0,0,0,0,0,0,0,0,-1,1427,918,0,0
210,106,0,0,0,0,0,0,0,0,0,-1,1434,918,0,0
217,106,0,0,0,0,0,0,0,0,0,-1,1441,918,0,0
224,106,0,0,0,0,0,0,0,0,0,-1,1448,918,0,0
231,106,0,0,0,0,0,0,0,0,0,-1,1455,918,0,0
238,106,0,0,0,0,0,0,0,0,0,-1,1462,918,0,0
245,106,0,0,0,0,0,0,0,0,0,-1,1469,918,0,0
252,106,0,0,0,0,0,0,0,0,0,-1,1476,918,0,0
259,106,0,0,0,0,0,0,0,0,0,-1,1483,918,0,0
266,106,0,0,0,0,0,0,0,0,0,-1,1490,918,0,0
273,106,0,0,0,0,0,0,0,0,0,-1,1497,918,0,0
280,106,0,0,0,0,0,0,0,0,0,-1,1504,918,0,0
287,106,0,0,0,0,0,0,0,0,0,-1,1511,918,0,0
294,106,0,0,0,0,0,0,0,0,0,-1,1518,918,0,0
301,106,0,0,0,0,0,0,0,0,0,-1,1525,918,0,0
308,106,0,0,0,0,0,0,0,0,0,-1,1532,918,0,0
315,106,0,0,0,0,0,0,0,0,0,-1,1539,918,0,0
322,106,0,0,0,0,0,0,0,0,0,-1,1546,918,0,0
329,106,0,0,0,0,0,0,0,0,0,-1,1553,918,0,0
336,106,0,0,0,0,0,0,0,0,0,-1,1560,918,0,0
343,106,0,0,0,0,0,0,0,0,0,-1,1567,918,0,0
350,106,0,0,0,0,0,0,0,0,0,-1,1574,918,0,0
357,106,0,0,0,0,0,0,0,0,0,-1,1581,918,0,0
364,106,0,0,0,0,0,0,0,0,0,-1,1588,918,0,0
371,106,0,0,0,0,0,0,0,0,0,-1,1595,918,0,0
378,106,0,0,0,0,0,0,0,0,0,-1,1602,918,0,0
385,106,0,0,0,0,0,0,0,0,0,-1,1609,918,0,0
392,106,0,0,0,0,0,0,0,0,0,-1,1616,918,0,0
399,106,0,0,0,0,0,0,0,0,0,-1,1623,918,0,0
406,106,0,0,0,0,0,0,0,0,0,-1,1630,918,0,0
413,106,0,0,0,0,0,0,0,0,0,-1,1637,918,0,0
420,106,0,0,0,0,0,0,0,0,0,-1,1644,918,0,0
427,106,0,0,0,0,0,0,0,0,0,-1,1651,918,0,0
434,106,0,0,0,0,0,0,0,0,0,-1,1658,918,0,0
441,106,0,0,0,0,0,0,0,0,0,-1,1665,918,0,0
448,106,0,0,0,0,0,0,0,0,0,-1,1672,918,0,0
455,106,0,0,0,0,0,0,0,0,0,-1,1679,918,0,0
462,106,0,0,0,0,0,0,0,0,0,-1,1686,918,0,0
469,106,0,0,0,0,0,0,0,0,0,-1,1693,918,0,0
476,106,0,0,0,0,0,0,0,0,0,-1,1700,918,0,0
483,106,0,0,0,0,0,0,0,0,0,-1,1707,918,0,0
490,106,0,0,0,0,0,0,0,0,0,-1,1714,918,0,0
497,106,0,0,0,0,0,0,0,0,0,-1,1721,918,0,0
504,106,0,0,0,0,0,0,0,0,0,-1,1728,918,0,0
511,106,0,0,0,0,0,0,0,0,0,-1,1735,918,0,0
518,106,0,0,0,0,0,0,0,0,0,-1,1742,918,0,0
525,106,0,0,0,0,0,0,0,0,0,-1,1749,918,0,0
532,106,0,0,0,0,0,0,0,0,0,-1,1756,918,0,0
539,106,0,0,0,0,0,0,0,0,0,-1,1763,918,0,0
546,106,0,0,0,0,0,0,0,0,0,-1,1770,918,0,0
553,106,0,0,0,0,0,0,0,0,0,-1,1777,918,0,0
560,106,0,0,0,0,0,0,0,0,0,-1,1784,918,0,0
567,106,0,0,0,0,0,0,0,0,0,-1,1791,918,0,0
574,106,0,0,0,0,0,0,0,0,0,-1,1798,918,0,0
581,106,0,0,0,0,0,0,0,0,0,-1,1805,918,0,0
588,106,0,0,0,0,0,0,0,0,0,-1,1812,918,0,0
595,106,0,0,0,0,0,0,0,0,0,-1,1819,918,0,0
602,106,0,0,0,0,0,0,0,0,0,-1,1826,918,0,0
609,106,0,0,0,0,0,0,0,0,0,-1,1833,918,0,0
616,106,0,0,0,0,0,0,0,0,0,-1,1840,918,0,0
623,106,0,0,0,0,0,0,0,0,0,-1,1847,918,0,0
630,106,228.574,8.96777,0,0,0,0,0,0,0,-1,1854,918,228.574,-8.96777
637,106,228.607,8.9986,0,0,0,0,0,0,0,-1,1861,918,228.607,-8.99857
644,106,228.595,8.81769,0,0,0,0,0,0,0,-1,1868,918,228.595,-8.81769
651,106,228.445,8.80212,0,0,0,0,0,0,0,-1,1875,918,228.445,-8.80213
658,106,228.432,8.60632,0,0,0,0,0,0,0,-1,1882,918,228.432,-8.6063
665,106,228.317,8.78558,0,0,0,0,0,0,0,-1,1889,918,228.317,-8.7856
672,106,228.255,8.96393,0,0,0,0,0,0,0,-1,1896,918,228.255,-8.96391
679,106,228.415,8.88361,0,0,0,0,0,0,0,-1,1903,918,228.415,-8.88363
686,106,228.586,8.57068,0,0,0,0,0,0,0,-1,1910,918,228.586,-8.57067
693,106,223.064,8.72864,0,0,0,0,0,0,0,-1,1917,918,223.064,-8.72862
700,106,222.802,8.52106,0,0,0,0,0,0,0,-1,1924,918,222.802,-8.52106
707,106,219.768,26.9996,0,0,0,0,0,0,0,-1,1931,918,219.768,-26.9997
714,106,219.59,28.47,-0.00789714,-0.000478623,0.00360373,0.000983723,-0.00935949,1.18531,0.00659208,0.0317793,1938,918,219.59,-28.47
721,106,219.38,29.9037,-0.0102801,0.00662198,0.00012653,0.00662293,-0.010281,1.56331,0.00983538,0.037933,1945,918,219.38,-29.9038
728,106,219.261,31.1755,-0.0117024,0.0137147,-0.00243492,0.0139458,-0.0119336,-1.47614,0.0149565,0.0326015,1952,918,219.261,-31.1755
735,106,219.143,32.3058,-0.013093,0.020768,-0.00474869,0.0214214,-0.0137463,-1.43407,0.0204646,0.0249131,1959,918,219.143,-32.3058
742,106,218.901,33.5135,-0.0143221,0.027856,-0.00678877,0.0289217,-0.0153879,-1.41508,0.0259769,0.0350398,1966,918,218.901,-33.5135
749,106,218.745,34.7881,-0.0153123,0.0349873,-0.00852435,0.0363926,-0.0167177,-1.4074,0.0313568,0.0421755,1973,918,218.745,-34.7881
756,106,218.454,35.775,-0.0159724,0.042164,-0.00993954,0.0438164,-0.0176248,-1.40606,0.0365316,0.0383362,1980,918,218.454,-35.775
763,106,218.061,37.0664,-0.0162081,0.0493821,-0.0110221,0.0511848,-0.0180107,-1.40868,0.0414522,0.0419146,1987,918,218.061,-37.0664
770,106,217.799,38.4041,0,0,0,0,0,0,0,-1,1994,918,217.799,-38.4041
777,106,88.3054,13.259,0,0,0,0,0,0,0,-1,2001,918,88.3054,-13.259
784,106,89.1936,14.7273,0,0,0,0,0,0,0,-1,2008,918,89.1936,-14.7273
791,106,83.1514,12.6997,0,0,0,0,0,0,0,-1,2015,918,83.1513,-12.6997
798,106,85.3481,12.517,0,0,0,0,0,0,0,-1,2022,918,85.3481,-12.517
805,106,0,0,0,0,0,0,0,0,0,-1,2029,918,0,0
812,106,0,0,0,0,0,0,0,0,0,-1,2036,918,0,0
-700,99,0,0,0,0,0,0,0,0,0,-1,524,925,0,0
-693,99,0,0,0,0,0,0,0,0,0,-1,531,925,0,0
-686,99,0,0,0,0,0,0,0,0,0,-1,538,925,0,0
-679,99,-60.0285,9.58405,0,0,0,0,0,0,0,-1,545,925,-60.0285,-9.58402
-672,99,-59.5222,10.1797,0,0,0,0,0,0,0,-1,552,925,-59.5222,-10.1797
-665,99,-58.8331,10.9661,0,0,0,0,0,0,0,-1,559,925,-58.8331,-10.9661
-658,99,-58.6227,11.3068,0,0,0,0,0,0,0,-1,566,925,-58.6227,-11.3068
-651,99,-58.2084,11.0227,0,0,0,0,0,0,0,-1,573,925,-58.2084,-11.0227
-644,99,-92.0863,19.8066,0,0,0,0,0,0,0,-1,580,925,-92.0863,-19.8066
-637,99,-211.923,37.6544,0,0,0,0,0,0,0,-1,587,925,-211.923,-37.6544
-630,99,-211.967,36.6618,-0.0139526,0.0502414,0.01417,0.0532301,-0.0169413,1.36293,0.0422807,0.0356459,594,925,-211.967,-36.6618
-623,99,-212.199,35.6339,-0.0116242,0.0427224,0.012108,0.0452979,-0.0141998,1.36121,0.035881,0.0191332,601,925,-212.199,-35.6339
-616,99,-212.289,34.4434,-0.00920709,0.0352222,0.00994317,0.0373459,-0.0113308,1.36037,0.029411,0.0210105,608,925,-212.289,-34.4434
-609,99,-212.405,33.345,-0.00671118,0.0277331,0.00768199,0.0293687,-0.0083468,1.36101,0.0228748,0.0151589,615,925,-212.405,-33.345
-602,99,-212.494,32.2371,-0.00414801,0.0202492,0.00532787,0.021362,-0.00526076,1.3649,0.0162807,0.0199265,622,925,-212.494,-32.237
-595,99,-212.738,31.043,-0.00153095,0.012767,0.00288103,0.0133257,-0.00208965,1.37925,0.00965599,0.0291744,629,925,-212.738,-31.043
-588,99,-212.918,29.8223,0.00112422,0.00528479,0.00033855,0.00531215,0.00109685,1.49013,0.00323834,0.0322592,636,925,-212.918,-29.8223
-581,99,-213.265,28.4586,0,0,0,0,0,0,0,-1,643,925,-213.265,-28.4585
-574,99,-213.858,27.1038,0,0,0,0,0,0,0,-1,650,925,-213.858,-27.1038
-567,99,-50.5977,0.659485,0,0,0,0,0,0,0,-1,657,925,-50.5977,-0.659461
-560,99,-72.4919,0.276306,0,0,0,0,0,0,0,-1,664,925,-72.4919,-0.276328
-553,99,-72.5533,0.815918,0,0,0,0,0,0,0,-1,671,925,-72.5533,-0.815947
-546,99,-72.6324,0.722656,0,0,0,0,0,0,0,-1,678,925,-72.6324,-0.722639
-539,99,-72.7263,0.40863,0,0,0,0,0,0,0,-1,685,925,-72.7263,-0.408647
-532,99,-72.3987,0.165527,0,0,0,0,0,0,0,-1,692,925,-72.3988,-0.165522
-525,99,-72.4885,0.298767,0,0,0,0,0,0,0,-1,699,925,-72.4885,-0.29878
-518,99,-72.6053,0.533752,0,0,0,0,0,0,0,-1,706,925,-72.6053,-0.533766
-511,99,0,0,0,0,0,0,0,0,0,-1,713,925,0,0
-504,99,0,0,0,0,0,0,0,0,0,-1,720,925,0,0
-497,99,0,0,0,0,0,0,0,0,0,-1,727,925,0,0
-490,99,0,0,0,0,0,0,0,0,0,-1,734,925,0,0
-483,99,0,0,0,0,0,0,0,0,0,-1,741,925,0,0
-476,99,0,0,0,0,0,0,0,0,0,-1,748,925,0,0
-469,99,0,0,0,0,0,0,0,0,0,-1,755,925,0,0
-462,99,0,0,0,0,0,0,0,0,0,-1,762,925,0,0
-455,99,0,0,0,0,0,0,0,0,0,-1,769,925,0,0
-448,99,0,0,0,0,0,0,0,0,0,-1,776,925,0,0
-441,99,0,0,0,0,0,0,0,0,0,-1,783,925,0,0
-434,99,0,0,0,0,0,0,0,0,0,-1,790,925,0,0
-427,99,0,0,0,0,0,0,0,0,0,-1,797,925,0,0
-420,99,0,0,0,0,0,0,0,0,0,-1,804,925,0,0
-413,99,0,0,0,0,0,0,0,0,0,-1,811,925,0,0
-406,99,0,0,0,0,0,0,0,0,0,-1,818,925,0,0
-399,99,0,0,0,0,0,0,0,0,0,-1,825,925,0,0
-392,99,0,0,0,0,0,0,0,0,0,-1,832,925,0,0
-385,99,0,0,0,0,0,0,0,0,0,-1,839,925,0,0
-378,99,0,0,0,0,0,0,0,0,0,-1,846,925,0,0
-371,99,0,0,0,0,0,0,0,0,0,-1,853,925,0,0
-364,99,0,0,0,0,0,0,0,0,0,-1,860,925,0,0
-357,99,0,0,0,0,0,0,0,0,0,-1,867,925,0,0
-350,99,0,0,0,0,0,0,0,0,0,-1,874,925,0,0
-343,99,0,0,0,0,0,0,0,0,0,-1,881,925,0,0
-336,99,0,0,0,0,0,0,0,0,0,-1,888,925,0,0
-329,99,0,0,0,0,0,0,0,0,0,-1,895,925,0,0
-322,99,0,0,0,0,0,0,0,0,0,-1,902,925,0,0
-315,99,0,0,0,0,0,0,0,0,0,-1,909,925,0,0
-308,99,0,0,0,0,0,0,0,0,0,-1,916,925,0,0
-301,99,0,0,0,0,0,0,0,0,0,-1,923,925,0,0
-294,99,0,0,0,0,0,0,0,0,0,-1,930,925,0,0
-287,99,0,0,0,0,0,0,0,0,0,-1,937,925,0,0
-280,99,0,0,0,0,0,0,0,0,0,-1,944,925,0,0
-273,99,0,0,0,0,0,0,0,0,0,-1,951,925,0,0
-266,99,0,0,0,0,0,0,0,0,0,-1,958,925,0,0
-259,99,0,0,0,0,0,0,0,0,0,-1,965,925,0,0
-252,99,0,0,0,0,0,0,0,0,0,-1,972,925,0,0
-245,99,0,0,0,0,0,0,0,0,0,-1,979,925,0,0
-238,99,0,0,0,0,0,0,0,0,0,-1,986,925,0,0
-231,99,0,0,0,0,0,0,0,0,0,-1,993,925,0,0
-224,99,0,0,0,0,0,0,0,0,0,-1,1000,925,0,0
-217,99,0,0,0,0,0,0,0,0,0,-1,1007,925,0,0
-210,99,0,0,0,0,0,0,0,0,0,-1,1014,925,0,0
-203,99,0,0,0,0,0,0,0,0,0,-1,1021,925,0,0
-196,99,0,0,0,0,0,0,0,0,0,-1,1028,925,0,0
-189,99,0,0,0,0,0,0,0,0,0,-1,1035,925,0,0
-182,99,0,0,0,0,0,0,0,0,0,-1,1042,925,0,0
-175,99,0,0,0,0,0,0,0,0,0,-1,1049,925,0,0
-168,99,0,0,0,0,0,0,0,0,0,-1,1056,925,0,0
-161,99,0,0,0,0,0,0,0,0,0,-1,1063,925,0,0
-154,99,0,0,0,0,0,0,0,0,0,-1,1070,925,0,0
-147,99,0,0,0,0,0,0,0,0,0,-1,1077,925,0,0
-140,99,0,0,0,0,0,0,0,0,0,-1,1084,925,0,0
-133,99,0,0,0,0,0,0,0,0,0,-1,1091,925,0,0
-126,99,0,0,0,0,0,0,0,0,0,-1,1098,925,0,0
-119,99,0,0,0,0,0,0,0,0,0,-1,1105,925,0,0
-112,99,0,0,0,0,0,0,0,0,0,-1,1112,925,0,0
-105,99,0,0,0,0,0,0,0,0,0,-1,1119,925,0,0
-98,99,0,0,0,0,0,0,0,0,0,-1,1126,925,0,0
-91,99,0,0,0,0,0,0,0,0,0,-1,1133,925,0,0
-84,99,0,0,0,0,0,0,0,0,0,-1,1140,925,0,0
-77,99,0,0,0,0,0,0,0,0,0,-1,1147,925,0,0
-70,99,0,0,0,0,0,0,0,0,0,-1,1154,925,0,0
-63,99,0,0,0,0,0,0,0,0,0,-1,1161,925,0,0
-56,99,0,0,0,0,0,0,0,0,0,-1,1168,925,0,0
-49,99,0,0,0,0,0,0,0,0,0,-1,1175,925,0,0
-42,99,0,0,0,0,0,0,0,0,0,-1,1182,925,0,0
-35,99,0,0,0,0,0,0,0,0,0,-1,1189,925,0,0
-28,99,0,0,0,0,0,0,0,0,0,-1,1196,925,0,0
-21,99,0,0,0,0,0,0,0,0,0,-1,1203,925,0,0
-14,99,0,0,0,0,0,0,0,0,0,-1,1210,925,0,0
-7,99,0,0,0,0,0,0,0,0,0,-1,1217,925,0,0
0,99,0,0,0,0,0,0,0,0,0,-1,1224,925,0,0
7,99,0,0,0,0,0,0,0,0,0,-1,1231,925,0,0
14,99,0,0,0,0,0,0,0,0,0,-1,1238,925,0,0
21,99,0,0,0,0,0,0,0,0,0,-1,1245,925,0,0
28,99,0,0,0,0,0,0,0,0,0,-1,1252,925,0,0
35,99,0,0,0,0,0,0,0,0,0,-1,1259,925,0,0
42,99,0,0,0,0,0,0,0,0,0,-1,1266,925,0,0
49,99,0,0,0,0,0,0,0,0,0,-1,1273,925,0,0
56,99,0,0,0,0,0,0,0,0,0,-1,1280,925,0,0
63,99,0,0,0,0,0,0,0,0,0,-1,1287,925,0,0
70,99,0,0,0,0,0,0,0,0,0,-1,1294,925,0,0
77,99,0,0,0,0,0,0,0,0,0,-1,1301,925,0,0
84,99,0,0,0,0,0,0,0,0,0,-1,1308,925,0,0
91,99,0,0,0,0,0,0,0,0,0,-1,1315,925,0,0
98,99,0,0,0,0,0,0,0,0,0,-1,1322,925,0,0
105,99,0,0,0,0,0,0,0,0,0,-1,1329,925,0,0
112,99,0,0,0,0,0,0,0,0,0,-1,1336,925,0,0
119,99,0,0,0,0,0,0,0,0,0,-1,1343,925,0,0
126,99,0,0,0,0,0,0,0,0,0,-1,1350,925,0,0
133,99,0,0,0,0,0,0,0,0,0,-1,1357,925,0,0
140,99,0,0,0,0,0,0,0,0,0,-1,1364,925,0,0
147,99,0,0,0,0,0,0,0,0,0,-1,1371,925,0,0
154,99,0,0,0,0,0,0,0,0,0,-1,1378,925,0,0
161,99,0,0,0,0,0,0,0,0,0,-1,1385,925,0,0
168,99,0,0,0,0,0,0,0,0,0,-1,1392,925,0,0
175,99,0,0,0,0,0,0,0,0,0,-1,1399,925,0,0
182,99,0,0,0,0,0,0,0,0,0,-1,1406,925,0,0
189,99,0,0,0,0,0,0,0,0,0,-1,1413,925,0,0
196,99,0,0,0,0,0,0,0,0,0,-1,1420,925,0,0
203,99,0,0,0,0,0,0,0,0,0,-1,1427,925,0,0
210,99,0,0,0,0,0,0,0,0,0,-1,1434,925,0,0
217,99,0,0,0,0,0,0,0,0,0,-1,1441,925,0,0
224,99,0,0,0,0,0,0,0,0,0,-1,1448,925,0,0
231,99,0,0,0,0,0,0,0,0,0,-1,1455,925,0,0
238,99,0,0,0,0,0,0,0,0,0,-1,1462,925,0,0
245,99,0,0,0,0,0,0,0,0,0,-1,1469,925,0,0
252,99,0,0,0,0,0,0,0,0,0,-1,1476,925,0,0
259,99,0,0,0,0,0,0,0,0,0,-1,1483,925,0,0
266,99,0,0,0,0,0,0,0,0,0,-1,1490,925,0,0
273,99,0,0,0,0,0,0,0,0,0,-1,1497,925,0,0
280,99,0,0,0,0,0,0,0,0,0,-1,1504,925,0,0
287,99,0,0,0,0,0,0,0,0,0,-1,1511,925,0,0
294,99,0,0,0,0,0,0,0,0,0,-1,1518,925,0,0
301,99,0,0,0,0,0,0,0,0,0,-1,1525,925,0,0
308,99,0,0,0,0,0,0,0,0,0,-1,1532,925,0,0
315,99,0,0,0,0,0,0,0,0,0,-1,1539,925,0,0
322,99,0,0,0,0,0,0,0,0,0,-1,1546,925,0,0
329,99,0,0,0,0,0,0,0,0,0,-1,1553,925,0,0
336,99,0,0,0,0,0,0,0,0,0,-1,1560,925,0,0
343,99,0,0,0,0,0,0,0,0,0,-1,1567,925,0,0
350,99,0,0,0,0,0,0,0,0,0,-1,1574,925,0,0
357,99,0,0,0,0,0,0,0,0,0,-1,1581,925,0,0
364,99,0,0,0,0,0,0,0,0,0,-1,1588,925,0,0
371,99,0,0,0,0,0,0,0,0,0,-1,1595,925,0,0
378,99,0,0,0,0,0,0,0,0,0,-1,1602,925,0,0
385,99,0,0,0,0,0,0,0,0,0,-1,1609,925,0,0
392,99,0,0,0,0,0,0,0,0,0,-1,1616,925,0,0
399,99,0,0,0,0,0,0,0,0,0,-1,1623,925,0,0
406,99,0,0,0,0,0,0,0,0,0,-1,1630,925,0,0
413,99,0,0,0,0,0,0,0,0,0,-1,1637,925,0,0
420,99,0,0,0,0,0,0,0,0,0,-1,1644,925,0,0
427,99,0,0,0,0,0,0,0,0,0,-1,1651,925,0,0
434,99,0,0,0,0,0,0,0,0,0,-1,1658,925,0,0
441,99,0,0,0,0,0,0,0,0,0,-1,1665,925,0,0
448,99,0,0,0,0,0,0,0,0,0,-1,1672,925,0,0
455,99,0,0,0,0,0,0,0,0,0,-1,1679,925,0,0
462,99,0,0,0,0,0,0,0,0,0,-1,1686,925,0,0
469,99,0,0,0,0,0,0,0,0,0,-1,1693,925,0,0
476,99,0,0,0,0,0,0,0,0,0,-1,1700,925,0,0
483,99,0,0,0,0,0,0,0,0,0,-1,1707,925,0,0
490,99,0,0,0,0,0,0,0,0,0,-1,1714,925,0,0
497,99,0,0,0,0,0,0,0,0,0,-1,1721,925,0,0
504,99,0,0,0,0,0,0,0,0,0,-1,1728,925,0,0
511,99,0,0,0,0,0,0,0,0,0,-1,1735,925,0,0
518,99,0,0,0,0,0,0,0,0,0,-1,1742,925,0,0
525,99,0,0,0,0,0,0,0,0,0,-1,1749,925,0,0
532,99,0,0,0,0,0,0,0,0,0,-1,1756,925,0,0
539,99,0,0,0,0,0,0,0,0,0,-1,1763,925,0,0
546,99,0,0,0,0,0,0,0,0,0,-1,1770,925,0,0
553,99,0,0,0,0,0,0,0,0,0,-1,1777,925,0,0
560,99,0,0,0,0,0,0,0,0,0,-1,1784,925,0,0
567,99,0,0,0,0,0,0,0,0,0,-1,1791,925,0,0
574,99,0,0,0,0,0,0,0,0,0,-1,1798,925,0,0
581,99,0,0,0,0,0,0,0,0,0,-1,1805,925,0,0
588,99,0,0,0,0,0,0,0,0,0,-1,1812,925,0,0
595,99,0,0,0,0,0,0,0,0,0,-1,1819,925,0,0
602,99,0,0,0,0,0,0,0,0,0,-1,1826,925,0,0
609,99,0,0,0,0,0,0,0,0,0,-1,1833,925,0,0
616,99,0,0,0,0,0,0,0,0,0,-1,1840,925,0,0
623,99,0,0,0,0,0,0,0,0,0,-1,1847,925,0,0
630,99,0,0,0,0,0,0,0,0,0,-1,1854,925,0,0
637,99,228.646,8.89111,0,0,0,0,0,0,0,-1,1861,925,228.646,-8.89114
644,99,228.613,8.61407,0,0,0,0,0,0,0,-1,1868,925,228.613,-8.61408
651,99,228.461,8.65808,0,0,0,0,0,0,0,-1,1875,925,228.461,-8.65807
658,99,228.376,8.72809,0,0,0,0,0,0,0,-1,1882,925,228.376,-8.72808
665,99,228.24,8.9165,0,0,0,0,0,0,0,-1,1889,925,228.24,-8.91652
672,99,228.217,9.01111,0,0,0,0,0,0,0,-1,1896,925,228.217,-9.01111
679,99,228.39,8.93579,0,0,0,0,0,0,0,-1,1903,925,228.39,-8.93579
686,99,228.529,8.73029,0,0,0,0,0,0,0,-1,1910,925,228.529,-8.7303
693,99,223.2,8.74664,0,0,0,0,0,0,0,-1,1917,925,223.2,-8.74666
700,99,202.766,8.29431,0,0,0,0,0,0,0,-1,1924,925,202.766,-8.29432
707,99,221.727,27.374,0,0,0,0,0,0,0,-1,1931,925,221.727,-27.374
714,99,220.995,28.61,0,0,0,0,0,0,0,-1,1938,925,220.995,-28.6101
721,99,220.568,29.7366,0,0,0,0,0,0,0,-1,1945,925,220.568,-29.7366
728,99,220.511,31.1011,-0.0116668,0.0121195,-0.00167286,0.0122366,-0.0117839,-1.50093,0.013869,0.0355778,1952,925,220.511,-31.1012
735,99,220.425,32.2944,-0.0130718,0.0192045,-0.00392093,0.019674,-0.0135413,-1.45162,0.0192855,0.024459,1959,925,220.425,-32.2945
742,99,220.319,33.593,-0.0143027,0.0263156,-0.00596221,0.0271727,-0.0151598,-1.42802,0.0247666,0.0455014,1966,925,220.319,-33.593
749,99,220.212,34.8853,-0.0153068,0.0334521,-0.00775996,0.0346573,-0.016512,-1.41672,0.0301554,0.0498022,1973,925,220.212,-34.8853
756,99,219.842,35.6689,-0.0159833,0.0406026,-0.00931698,0.0420972,-0.0174778,-1.41174,0.0353611,0.0403544,1980,925,219.842,-35.669
763,99,219.617,36.6501,-0.0162272,0.0477502,-0.010642,0.0494739,-0.017951,-1.41022,0.040321,0.0261775,1987,925,219.617,-36.6501
770,99,219.9,37.7382,-0.0158268,0.0548876,-0.0115163,0.0567158,-0.017655,-1.41336,0.0448687,0.0483774,1994,925,219.9,-37.7382
777,99,220.397,38.6669,0,0,0,0,0,0,0,-1,2001,925,220.397,-38.6669
784,99,90.0874,14.4108,0,0,0,0,0,0,0,-1,2008,925,90.0873,-14.4108
791,99,91.6816,15.5447,0,0,0,0,0,0,0,-1,2015,925,91.6815,-15.5447
798,99,91.3784,14.3621,0,0,0,0,0,0,0,-1,2022,925,91.3783,-14.3621
805,99,0,0,0,0,0,0,0,0,0,-1,2029,925,0,0
812,99,0,0,0,0,0,0,0,0,0,-1,2036,925,0,0
-700,92,0,0,0,0,0,0,0,0,0,-1,524,932,0,0
-693,92,0,0,0,0,0,0,0,0,0,-1,531,932,0,0
-686,92,-71.6475,-3.3797,0,0,0,0,0,0,0,-1,538,932,-71.6475,3.3797
-679,92,-69.8624,-2.1322,0,0,0,0,0,0,0,-1,545,932,-69.8624,2.1322
-672,92,-59.2169,9.25281,0,0,0,0,0,0,0,-1,552,932,-59.2169,-9.25281
-665,92,-58.6809,9.84479,0,0,0,0,0,0,0,-1,559,932,-58.6809,-9.8448
-658,92,-58.4986,10.1044,0,0,0,0,0,0,0,-1,566,932,-58.4986,-10.1044
-651,92,-58.3638,10.0627,0,0,0,0,0,0,0,-1,573,932,-58.3637,-10.0627
-644,92,-100.671,21.8364,0,0,0,0,0,0,0,-1,580,932,-100.671,-21.8364
-637,92,-213.019,37.5068,0,0,0,0,0,0,0,-1,587,932,-213.019,-37.5069
-630,92,-213.187,36.4971,-0.0137554,0.0487846,0.0136896,0.0516499,-0.0166207,1.36447,0.0411091,0.0334419,594,932,-213.187,-36.4971
-623,92,-213.407,35.4803,-0.0111608,0.0411199,0.0115082,0.0435411,-0.0135819,1.36344,0.0344587,0.0171761,601,932,-213.407,-35.4803
-616,92,-213.483,34.4203,-0.00853838,0.0334539,0.00925164,0.0354018,-0.0104863,1.36328,0.0277648,0.0152893,608,932,-213.483,-34.4203
-609,92,-213.65,33.3125,-0.00588241,0.0257786,0.00692328,0.0272263,-0.00733012,1.36466,0.0210246,0.0112869,615,932,-213.65,-33.3125
-602,92,-213.759,32.1665,-0.00319073,0.0180867,0.00452266,0.0190081,-0.00411215,1.36981,0.0142421,0.0139461,622,932,-213.759,-32.1665
-595,92,-213.806,30.9129,-0.000464779,0.0103711,0.0020452,0.0107443,-0.000837944,1.39032,0.00745788,0.0268503,629,932,-213.806,-30.9129
-588,92,-213.882,29.7825,0.00219721,0.00261941,-0.000527048,0.00297606,0.00184056,-0.97588,0.00173423,0.0356975,636,932,-213.882,-29.7825
-581,92,-213.888,28.6528,0,0,0,0,0,0,0,-1,643,932,-213.888,-28.6528
-574,92,-207.842,26.9155,0,0,0,0,0,0,0,-1,650,932,-207.842,-26.9155
-567,92,-70.9372,0.522583,0,0,0,0,0,0,0,-1,657,932,-70.9372,-0.522612
-560,92,-72.371,0.383606,0,0,0,0,0,0,0,-1,664,932,-72.371,-0.383636
-553,92,-72.4481,0.722412,0,0,0,0,0,0,0,-1,671,932,-72.448,-0.722438
-546,92,-72.5264,0.623535,0,0,0,0,0,0,0,-1,678,932,-72.5265,-0.62354
-539,92,-72.5651,0.373596,0,0,0,0,0,0,0,-1,685,932,-72.5652,-0.373594
-532,92,-72.5598,0.387268,0,0,0,0,0,0,0,-1,692,932,-72.5598,-0.387249
-525,92,-72.5999,0.502197,0,0,0,0,0,0,0,-1,699,932,-72.5999,-0.502169
-518,92,-72.532,0.667786,0,0,0,0,0,0,0,-1,706,932,-72.532,-0.667758
-511,92,0,0,0,0,0,0,0,0,0,-1,713,932,0,0
-504,92,0,0,0,0,0,0,0,0,0,-1,720,932,0,0
-497,92,0,0,0,0,0,0,0,0,0,-1,727,932,0,0
-490,92,0,0,0,0,0,0,0,0,0,-1,734,932,0,0
-483,92,0,0,0,0,0,0,0,0,0,-1,741,932,0,0
-476,92,0,0,0,0,0,0,0,0,0,-1,748,932,0,0
-469,92,0,0,0,0,0,0,0,0,0,-1,755,932,0,0
-462,92,0,0,0,0,0,0,0,0,0,-1,762,932,0,0
-455,92,0,0,0,0,0,0,0,0,0,-1,769,932,0,0
-448,92,0,0,0,0,0,0,0,0,0,-1,776,932,0,0
-441,92,0,0,0,0,0,0,0,0,0,-1,783,932,0,0
-434,92,0,0,0,0,0,0,0,0,0,-1,790,932,0,0
-427,92,0,0,0,0,0,0,0,0,0,-1,797,932,0,0
-420,92,0,0,0,0,0,0,0,0,0,-1,804,932,0,0
-413,92,0,0,0,0,0,0,0,0,0,-1,811,932,0,0
-406,92,0,0,0,0,0,0,0,0,0,-1,818,932,0,0
-399,92,0,0,0,0,0,0,0,0,0,-1,825,932,0,0
-392,92,0,0,0,0,0,0,0,0,0,-1,832,932,0,0
-385,92,0,0,0,0,0,0,0,0,0,-1,839,932,0,0
-378,92,0,0,0,0,0,0,0,0,0,-1,846,932,0,0
-371,92,0,0,0,0,0,0,0,0,0,-1,853,932,0,0
-364,92,0,0,0,0,0,0,0,0,0,-1,860,932,0,0
-357,92,0,0,0,0,0,0,0,0,0,-1,867,932,0,0
-350,92,0,0,0,0,0,0,0,0,0,-1,874,932,0,0
-343,92,0,0,0,0,0,0,0,0,0,-1,881,932,0,0
-336,92,0,0,0,0,0,0,0,0,0,-1,888,932,0,0
-329,92,0,0,0,0,0,0,0,0,0,-1,895,932,0,0
-322,92,0,0,0,0,0,0,0,0,0,-1,902,932,0,0
-315,92,0,0,0,0,0,0,0,0,0,-1,909,932,0,0
-308,92,0,0,0,0,0,0,0,0,0,-1,916,932,0,0
-301,92,0,0,0,0,0,0,0,0,0,-1,923,932,0,0
-294,92,0,0,0,0,0,0,0,0,0,-1,930,932,0,0
-287,92,0,0,0,0,0,0,0,0,0,-1,937,932,0,0
-280,92,0,0,0,0,0,0,0,0,0,-1,944,932,0,0
-273,92,0,0,0,0,0,0,0,0,0,-1,951,932,0,0
-266,92,0,0,0,0,0,0,0,0,0,-1,958,932,0,0
-259,92,0,0,0,0,0,0,0,0,0,-1,965,932,0,0
-252,92,0,0,0,0,0,0,0,0,0,-1,972,932,0,0
-245,92,0,0,0,0,0,0,0,0,0,-1,979,932,0,0
-238,92,0,0,0,0,0,0,0,0,0,-1,986,932,0,0
-231,92,0,0,0,0,0,0,0,0,0,-1,993,932,0,0
-224,92,0,0,0,0,0,0,0,0,0,-1,1000,932,0,0
-217,92,0,0,0,0,0,0,0,0,0,-1,1007,932,0,0
-210,92,0,0,0,0,0,0,0,0,0,-1,1014,932,0,0
-203,92,0,0,0,0,0,0,0,0,0,-1,1021,932,0,0
-196,92,0,0,0,0,0,0,0,0,0,-1,1028,932,0,0
-189,92,0,0,0,0,0,0,0,0,0,-1,1035,932,0,0
-182,92,0,0,0,0,0,0,0,0,0,-1,1042,932,0,0
-175,92,0,0,0,0,0,0,0,0,0,-1,1049,932,0,0
-168,92,0,0,0,0,0,0,0,0,0,-1,1056,932,0,0
-161,92,0,0,0,0,0,0,0,0,0,-1,1063,932,0,0
-154,92,0,0,0,0,0,0,0,0,0,-1,1070,932,0,0
-147,92,0,0,0,0,0,0,0,0,0,-1,1077,932,0,0
-140,92,0,0,0,0,0,0,0,0,0,-1,1084,932,0,0
-133,92,0,0,0,0,0,0,0,0,0,-1,1091,932,0,0
-126,92,0,0,0,0,0,0,0,0,0,-1,1098,932,0,0
-119,92,0,0,0,0,0,0,0,0,0,-1,1105,932,0,0
-112,92,0,0,0,0,0,0,0,0,0,-1,1112,932,0,0
-105,92,0,0,0,0,0,0,0,0,0,-1,1119,932,0,0
-98,92,0,0,0,0,0,0,0,0,0,-1,1126,932,0,0
-91,92,0,0,0,0,0,0,0,0,0,-1,1133,932,0,0
-84,92,0,0,0,0,0,0,0,0,0,-1,1140,932,0,0
-77,92,0,0,0,0,0,0,0,0,0,-1,1147,932,0,0
-70,92,0,0,0,0,0,0,0,0,0,-1,1154,932,0,0
-63,92,0,0,0,0,0,0,0,0,0,-1,1161,932,0,0
-56,92,0,0,0,0,0,0,0,0,0,-1,1168,932,0,0
-49,92,0,0,0,0,0,0,0,0,0,-1,1175,932,0,0
-42,92,0,0,0,0,0,0,0,0,0,-1,1182,932,0,0
-35,92,0,0,0,0,0,0,0,0,0,-1,1189,932,0,0
-28,92,0,0,0,0,0,0,0,0,0,-1,1196,932,0,0
-21,92,0,0,0,0,0,0,0,0,0,-1,1203,932,0,0
-14,92,0,0,0,0,0,0,0,0,0,-1,1210,932,0,0
-7,92,0,0,0,0,0,0,0,0,0,-1,1217,932,0,0
0,92,0,0,0,0,0,0,0,0,0,-1,1224,932,0,0
7,92,0,0,0,0,0,0,0,0,0,-1,1231,932,0,0
14,92,0,0,0,0,0,0,0,0,0,-1,1238,932,0,0
21,92,0,0,0,0,0,0,0,0,0,-1,1245,932,0,0
28,92,0,0,0,0,0,0,0,0,0,-1,1252,932,0,0
35,92,0,0,0,0,0,0,0,0,0,-1,1259,932,0,0
42,92,0,0,0,0,0,0,0,0,0,-1,1266,932,0,0
49,92,0,0,0,0,0,0,0,0,0,-1,1273,932,0,0
56,92,0,0,0,0,0,0,0,0,0,-1,1280,932,0,0
63,92,0,0,0,0,0,0,0,0,0,-1,1287,932,0,0
70,92,0,0,0,0,0,0,0,0,0,-1,1294,932,0,0
77,92,0,0,0,0,0,0,0,0,0,-1,1301,932,0,0
84,92,0,0,0,0,0,0,0,0,0,-1,1308,932,0,0
91,92,0,0,0,0,0,0,0,0,0,-1,1315,932,0,0
98,92,0,0,0,0,0,0,0,0,0,-1,1322,932,0,0
105,92,0,0,0,0,0,0,0,0,0,-1,1329,932,0,0
112,92,0,0,0,0,0,0,0,0,0,-1,1336,932,0,0
119,92,0,0,0,0,0,0,0,0,0,-1,1343,932,0,0
126,92,0,0,0,0,0,0,0,0,0,-1,1350,932,0,0
133,92,0,0,0,0,0,0,0,0,0,-1,1357,932,0,0
140,92,0,0,0,0,0,0,0,0,0,-1,1364,932,0,0
147,92,0,0,0,0,0,0,0,0,0,-1,1371,932,0,0
154,92,0,0,0,0,0,0,0,0,0,-1,1378,932,0,0
161,92,0,0,0,0,0,0,0,0,0,-1,1385,932,0,0
168,92,0,0,0,0,0,0,0,0,0,-1,1392,932,0,0
175,92,0,0,0,0,0,0,0,0,0,-1,1399,932,0,0
182,92,0,0,0,0,0,0,0,0,0,-1,1406,932,0,0
189,92,0,0,0,0,0,0,0,0,0,-1,1413,932,0,0
196,92,0,0,0,0,0,0,0,0,0,-1,1420,932,0,0
203,92,0,0,0,0,0,0,0,0,0,-1,1427,932,0,0
210,92,0,0,0,0,0,0,0,0,0,-1,1434,932,0,0
217,92,0,0,0,0,0,0,0,0,0,-1,1441,932,0,0
224,92,0,0,0,0,0,0,0,0,0,-1,1448,932,0,0
231,92,0,0,0,0,0,0,0,0,0,-1,1455,932,0,0
238,92,0,0,0,0,0,0,0,0,0,-1,1462,932,0,0
245,92,0,0,0,0,0,0,0,0,0,-1,1469,932,0,0
252,92,0,0,0,0,0,0,0,0,0,-1,1476,932,0,0
259,92,0,0,0,0,0,0,0,0,0,-1,1483,932,0,0
266,92,0,0,0,0,0,0,0,0,0,-1,1490,932,0,0
273,92,0,0,0,0,0,0,0,0,0,-1,1497,932,0,0
280,92,0,0,0,0,0,0,0,0,0,-1,1504,932,0,0
287,92,0,0,0,0,0,0,0,0,0,-1,1511,932,0,0
294,92,0,0,0,0,0,0,0,0,0,-1,1518,932,0,0
301,92,0,0,0,0,0,0,0,0,0,-1,1525,932,0,0
308,92,0,0,0,0,0,0,0,0,0,-1,1532,932,0,0
315,92,0,0,0,0,0,0,0,0,0,-1,1539,932,0,0
322,92,0,0,0,0,0,0,0,0,0,-1,1546,932,0,0
329,92,0,0,0,0,0,0,0,0,0,-1,1553,932,0,0
336,92,0,0,0,0,0,0,0,0,0,-1,1560,932,0,0
343,92,0,0,0,0,0,0,0,0,0,-1,1567,932,0,0
350,92,0,0,0,0,0,0,0,0,0,-1,1574,932,0,0
357,92,0,0,0,0,0,0,0,0,0,-1,1581,932,0,0
364,92,0,0,0,0,0,0,0,0,0,-1,1588,932,0,0
371,92,0,0,0,0,0,0,0,0,0,-1,1595,932,0,0
378,92,0,0,0,0,0,0,0,0,0,-1,1602,932,0,0
385,92,0,0,0,0,0,0,0,0,0,-1,1609,932,0,0
392,92,0,0,0,0,0,0,0,0,0,-1,1616,932,0,0
399,92,0,0,0,0,0,0,0,0,0,-1,1623,932,0,0
406,92,0,0,0,0,0,0,0,0,0,-1,1630,932,0,0
413,92,0,0,0,0,0,0,0,0,0,-1,1637,932,0,0
420,92,0,0,0,0,0,0,0,0,0,-1,1644,932,0,0
427,92,0,0,0,0,0,0,0,0,0,-1,1651,932,0,0
434,92,0,0,0,0,0,0,0,0,0,-1,1658,932,0,0
441,92,0,0,0,0,0,0,0,0,0,-1,1665,932,0,0
448,92,0,0,0,0,0,0,0,0,0,-1,1672,932,0,0
455,92,0,0,0,0,0,0,0,0,0,-1,1679,932,0,0
462,92,0,0,0,0,0,0,0,0,0,-1,1686,932,0,0
469,92,0,0,0,0,0,0,0,0,0,-1,1693,932,0,0
476,92,0,0,0,0,0,0,0,0,0,-1,1700,932,0,0
483,92,0,0,0,0,0,0,0,0,0,-1,1707,932,0,0
490,92,0,0,0,0,0,0,0,0,0,-1,1714,932,0,0
497,92,0,0,0,0,0,0,0,0,0,-1,1721,932,0,0
504,92,0,0,0,0,0,0,0,0,0,-1,1728,932,0,0
511,92,0,0,0,0,0,0,0,0,0,-1,1735,932,0,0
518,92,0,0,0,0,0,0,0,0,0,-1,1742,932,0,0
525,92,0,0,0,0,0,0,0,0,0,-1,1749,932,0,0
532,92,0,0,0,0,0,0,0,0,0,-1,1756,932,0,0
539,92,0,0,0,0,0,0,0,0,0,-1,1763,932,0,0
546,92,0,0,0,0,0,0,0,0,0,-1,1770,932,0,0
553,92,0,0,0,0,0,0,0,0,0,-1,1777,932,0,0
560,92,0,0,0,0,0,0,0,0,0,-1,1784,932,0,0
567,92,0,0,0,0,0,0,0,0,0,-1,1791,932,0,0
574,92,0,0,0,0,0,0,0,0,0,-1,1798,932,0,0
581,92,0,0,0,0,0,0,0,0,0,-1,1805,932,0,0
588,92,0,0,0,0,0,0,0,0,0,-1,1812,932,0,0
595,92,0,0,0,0,0,0,0,0,0,-1,1819,932,0,0
602,92,0,0,0,0,0,0,0,0,0,-1,1826,932,0,0
609,92,0,0,0,0,0,0,0,0,0,-1,1833,932,0,0
616,92,0,0,0,0,0,0,0,0,0,-1,1840,932,0,0
623,92,0,0,0,0,0,0,0,0,0,-1,1847,932,0,0
630,92,0,0,0,0,0,0,0,0,0,-1,1854,932,0,0
637,92,228.493,8.94153,0,0,0,0,0,0,0,-1,1861,932,228.493,-8.94151
644,92,228.649,8.64825,0,0,0,0,0,0,0,-1,1868,932,228.649,-8.64827
651,92,228.811,8.28235,0,0,0,0,0,0,0,-1,1875,932,228.81,-8.28238
658,92,228.26,9.15015,0,0,0,0,0,0,0,-1,1882,932,228.26,-9.15016
665,92,228.276,8.84534,0,0,0,0,0,0,0,-1,1889,932,228.276,-8.84532
672,92,228.325,8.69043,0,0,0,0,0,0,0,-1,1896,932,228.325,-8.69043
679,92,228.419,8.70239,0,0,0,0,0,0,0,-1,1903,932,228.42,-8.7024
686,92,228.626,8.50897,0,0,0,0,0,0,0,-1,1910,932,228.626,-8.50899
693,92,214.728,8.79572,0,0,0,0,0,0,0,-1,1917,932,214.728,-8.79572
700,92,222.984,9.07092,0,0,0,0,0,0,0,-1,1924,932,222.984,-9.0709
707,92,140.011,15.4938,0,0,0,0,0,0,0,-1,1931,932,140.011,-15.4939
714,92,222.451,28.7372,0,0,0,0,0,0,0,-1,1938,932,222.451,-28.7373
721,92,222.149,29.9774,-0.00912759,0.00321313,0.00142655,0.00337589,-0.00929035,1.4572,0.00757394,0.0429567,1945,932,222.149,-29.9774
728,92,221.793,31.1259,-0.0107967,0.0105147,-0.000905847,0.0105531,-0.0108351,-1.52839,0.0123488,0.0342191,1952,932,221.793,-31.1259
735,92,221.628,32.2265,-0.0124644,0.0176798,-0.00309128,0.0179935,-0.0127782,-1.46965,0.0178509,0.0269406,1959,932,221.628,-32.2265
742,92,221.602,33.3674,-0.0139369,0.0248453,-0.00514116,0.0255152,-0.0146068,-1.44121,0.0234481,0.0476736,1966,932,221.602,-33.3674
749,92,221.409,34.6024,-0.015189,0.0320042,-0.00700556,0.0330222,-0.016207,-1.4265,0.0289699,0.0485004,1973,932,221.409,-34.6024
756,92,220.988,35.5444,-0.016118,0.0391355,-0.00870034,0.0404731,-0.0174556,-1.41825,0.0343139,0.0328831,1980,932,220.988,-35.5444
763,92,220.876,36.5023,-0.0166191,0.0462129,-0.0102477,0.0478421,-0.0182482,-1.41314,0.0394117,0.0249601,1987,932,220.876,-36.5023
770,92,220.925,37.4269,-0.0165346,0.0532146,-0.0115487,0.055077,-0.018397,-1.4109,0.0441472,0.0409391,1994,932,220.925,-37.4269
777,92,221.013,38.3259,0,0,0,0,0,0,0,-1,2001,932,221.013,-38.3259
784,92,117.767,21.7665,0,0,0,0,0,0,0,-1,2008,932,117.767,-21.7665
791,92,95.6941,14.4346,0,0,0,0,0,0,0,-1,2015,932,95.694,-14.4346
798,92,92.6777,13.6,0,0,0,0,0,0,0,-1,2022,932,92.6777,-13.6
805,92,0,0,0,0,0,0,0,0,0,-1,2029,932,0,0
812,92,0,0,0,0,0,0,0,0,0,-1,2036,932,0,0
-700,85,0,0,0,0,0,0,0,0,0,-1,524,939,0,0
-693,85,0,0,0,0,0,0,0,0,0,-1,531,939,0,0
-686,85,-71.3799,-3.12042,0,0,0,0,0,0,0,-1,538,939,-71.3799,3.1204
-679,85,-70.2184,-2.08044,0,0,0,0,0,0,0,-1,545,939,-70.2184,2.08043
-672,85,-58.9819,8.30292,0,0,0,0,0,0,0,-1,552,939,-58.9819,-8.30292
-665,85,-58.5912,8.72552,0,0,0,0,0,0,0,-1,559,939,-58.5912,-8.7255
-658,85,-58.3745,8.90198,0,0,0,0,0,0,0,-1,566,939,-58.3745,-8.90199
-651,85,-58.5191,9.10278,0,0,0,0,0,0,0,-1,573,939,-58.5191,-9.1028
-644,85,-67.919,11.7991,0,0,0,0,0,0,0,-1,580,939,-67.919,-11.7991
-637,85,-214.292,37.335,0,0,0,0,0,0,0,-1,587,939,-214.292,-37.335
-630,85,-214.403,36.2073,-0.0139677,0.0473847,0.0131266,0.0500752,-0.0166582,1.36863,0.0401064,0.0296961,594,939,-214.403,-36.2072
-623,85,-214.598,35.216,-0.0109552,0.0396153,0.0108522,0.0418458,-0.0131856,1.36809,0.0331776,0.0158642,601,939,-214.598,-35.216
-616,85,-214.7,34.2693,-0.00799633,0.0318442,0.00852228,0.0335906,-0.00974277,1.36867,0.0262511,0.0158157,608,939,-214.7,-34.2693
-609,85,-214.878,33.2374,-0.00506952,0.0240692,0.00614399,0.0253117,-0.00631201,1.37126,0.0193252,0.0181669,615,939,-214.878,-33.2374
-602,85,-215.044,32.1579,-0.00215769,0.0162876,0.00372022,0.0170096,-0.00287976,1.37909,0.0124115,0.0198234,622,939,-215.044,-32.1579
-595,85,-215.07,31.0392,0.000752149,0.00849606,0.00124992,0.00869281,0.000555401,1.41467,0.00561923,0.0200909,629,939,-215.07,-31.0392
-588,85,-215.053,29.8901,0.00345032,0.000679587,-0.00129744,0.003963,0.000166907,-0.376317,0.00258816,0.0276616,636,939,-215.053,-29.89
-581,85,-215.08,28.6534,0,0,0,0,0,0,0,-1,643,939,-215.08,-28.6534
-574,85,-215.76,27.5544,0,0,0,0,0,0,0,-1,650,939,-215.76,-27.5544
-567,85,-72.4246,0.480103,0,0,0,0,0,0,0,-1,657,939,-72.4246,-0.480077
-560,85,-72.3094,0.425659,0,0,0,0,0,0,0,-1,664,939,-72.3094,-0.425637
-553,85,-72.3888,0.423218,0,0,0,0,0,0,0,-1,671,939,-72.3888,-0.423207
-546,85,-72.4185,0.450989,0,0,0,0,0,0,0,-1,678,939,-72.4184,-0.450987
-539,85,-72.4494,0.444458,0,0,0,0,0,0,0,-1,685,939,-72.4494,-0.444476
-532,85,-72.5694,0.691101,0,0,0,0,0,0,0,-1,692,939,-72.5694,-0.691116
-525,85,-72.6234,0.690491,0,0,0,0,0,0,0,-1,699,939,-72.6234,-0.690502
-518,85,-72.5887,0.684326,0,0,0,0,0,0,0,-1,706,939,-72.5888,-0.684306
-511,85,0,0,0,0,0,0,0,0,0,-1,713,939,0,0
-504,85,0,0,0,0,0,0,0,0,0,-1,720,939,0,0
-497,85,0,0,0,0,0,0,0,0,0,-1,727,939,0,0
-490,85,0,0,0,0,0,0,0,0,0,-1,734,939,0,0
-483,85,0,0,0,0,0,0,0,0,0,-1,741,939,0,0
-476,85,0,0,0,0,0,0,0,0,0,-1,748,939,0,0
-469,85,0,0,0,0,0,0,0,0,0,-1,755,939,0,0
-462,85,0,0,0,0,0,0,0,0,0,-1,762,939,0,0
-455,85,0,0,0,0,0,0,0,0,0,-1,769,939,0,0
-448,85,0,0,0,0,0,0,0,0,0,-1,776,939,0,0
-441,85,0,0,0,0,0,0,0,0,0,-1,783,939,0,0
-434,85,0,0,0,0,0,0,0,0,0,-1,790,939,0,0
-427,85,0,0,0,0,0,0,0,0,0,-1,797,939,0,0
-420,85,0,0,0,0,0,0,0,0,0,-1,804,939,0,0
-413,85,0,0,0,0,0,0,0,0,0,-1,811,939,0,0
-406,85,0,0,0,0,0,0,0,0,0,-1,818,939,0,0
-399,85,0,0,0,0,0,0,0,0,0,-1,825,939,0,0
-392,85,0,0,0,0,0,0,0,0,0,-1,832,939,0,0
-385,85,0,0,0,0,0,0,0,0,0,-1,839,939,0,0
-378,85,0,0,0,0,0,0,0,0,0,-1,846,939,0,0
-371,85,0,0,0,0,0,0,0,0,0,-1,853,939,0,0
-364,85,0,0,0,0,0,0,0,0,0,-1,860,939,0,0
-357,85,0,0,0,0,0,0,0,0,0,-1,867,939,0,0
-350,85,0,0,0,0,0,0,0,0,0,-1,874,939,0,0
-343,85,0,0,0,0,0,0,0,0,0,-1,881,939,0,0
-336,85,0,0,0,0,0,0,0,0,0,-1,888,939,0,0
-329,85,0,0,0,0,0,0,0,0,0,-1,895,939,0,0
-322,85,0,0,0,0,0,0,0,0,0,-1,902,939,0,0
-315,85,0,0,0,0,0,0,0,0,0,-1,909,939,0,0
-308,85,0,0,0,0,0,0,0,0,0,-1,916,939,0,0
-301,85,0,0,0,0,0,0,0,0,0,-1,923,939,0,0
-294,85,0,0,0,0,0,0,0,0,0,-1,930,939,0,0
-287,85,0,0,0,0,0,0,0,0,0,-1,937,939,0,0
-280,85,0,0,0,0,0,0,0,0,0,-1,944,939,0,0
-273,85,0,0,0,0,0,0,0,0,0,-1,951,939,0,0
-266,85,0,0,0,0,0,0,0,0,0,-1,958,939,0,0
-259,85,0,0,0,0,0,0,0,0,0,-1,965,939,0,0
-252,85,0,0,0,0,0,0,0,0,0,-1,972,939,0,0
-245,85,0,0,0,0,0,0,0,0,0,-1,979,939,0,0
-238,85,0,0,0,0,0,0,0,0,0,-1,986,939,0,0
-231,85,0,0,0,0,0,0,0,0,0,-1,993,939,0,0
-224,85,0,0,0,0,0,0,0,0,0,-1,1000,939,0,0
-217,85,0,0,0,0,0,0,0,0,0,-1,1007,939,0,0
-210,85,0,0,0,0,0,0,0,0,0,-1,1014,939,0,0
-203,85,0,0,0,0,0,0,0,0,0,-1,1021,939,0,0
-196,85,0,0,0,0,0,0,0,0,0,-1,1028,939,0,0
-189,85,0,0,0,0,0,0,0,0,0,-1,1035,939,0,0
-182,85,0,0,0,0,0,0,0,0,0,-1,1042,939,0,0
-175,85,0,0,0,0,0,0,0,0,0,-1,1049,939,0,0
-168,85,0,0,0,0,0,0,0,0,0,-1,1056,939,0,0
-161,85,0,0,0,0,0,0,0,0,0,-1,1063,939,0,0
-154,85,0,0,0,0,0,0,0,0,0,-1,1070,939,0,0
-147,85,0,0,0,0,0,0,0,0,0,-1,1077,939,0,0
-140,85,0,0,0,0,0,0,0,0,0,-1,1084,939,0,0
-133,85,0,0,0,0,0,0,0,0,0,-1,1091,939,0,0
-126,85,0,0,0,0,0,0,0,0,0,-1,1098,939,0,0
-119,85,0,0,0,0,0,0,0,0,0,-1,1105,939,0,0
-112,85,0,0,0,0,0,0,0,0,0,-1,1112,939,0,0
-105,85,0,0,0,0,0,0,0,0,0,-1,1119,939,0,0
-98,85,0,0,0,0,0,0,0,0,0,-1,1126,939,0,0
-91,85,0,0,0,0,0,0,0,0,0,-1,1133,939,0,0
-84,85,0,0,0,0,0,0,0,0,0,-1,1140,939,0,0
-77,85,0,0,0,0,0,0,0,0,0,-1,1147,939,0,0
-70,85,0,0,0,0,0,0,0,0,0,-1,1154,939,0,0
-63,85,0,0,0,0,0,0,0,0,0,-1,1161,939,0,0
-56,85,0,0,0,0,0,0,0,0,0,-1,1168,939,0,0
-49,85,0,0,0,0,0,0,0,0,0,-1,1175,939,0,0
-42,85,0,0,0,0,0,0,0,0,0,-1,1182,939,0,0
-35,85,0,0,0,0,0,0,0,0,0,-1,1189,939,0,0
-28,85,0,0,0,0,0,0,0,0,0,-1,1196,939,0,0
-21,85,0,0,0,0,0,0,0,0,0,-1,1203,939,0,0
-14,85,0,0,0,0,0,0,0,0,0,-1,1210,939,0,0
-7,85,0,0,0,0,0,0,0,0,0,-1,1217,939,0,0
0,85,0,0,0,0,0,0,0,0,0,-1,1224,939,0,0
7,85,0,0,0,0,0,0,0,0,0,-1,1231,939,0,0
14,85,0,0,0,0,0,0,0,0,0,-1,1238,939,0,0
21,85,0,0,0,0,0,0,0,0,0,-1,1245,939,0,0
28,85,0,0,0,0,0,0,0,0,0,-1,1252,939,0,0
35,85,0,0,0,0,0,0,0,0,0,-1,1259,939,0,0
42,85,0,0,0,0,0,0,0,0,0,-1,1266,939,0,0
49,85,0,0,0,0,0,0,0,0,0,-1,1273,939,0,0
56,85,0,0,0,0,0,0,0,0,0,-1,1280,939,0,0
63,85,0,0,0,0,0,0,0,0,0,-1,1287,939,0,0
70,85,0,0,0,0,0,0,0,0,0,-1,1294,939,0,0
77,85,0,0,0,0,0,0,0,0,0,-1,1301,939,0,0
84,85,0,0,0,0,0,0,0,0,0,-1,1308,939,0,0
91,85,0,0,0,0,0,0,0,0,0,-1,1315,939,0,0
98,85,0,0,0,0,0,0,0,0,0,-1,1322,939,0,0
105,85,0,0,0,0,0,0,0,0,0,-1,1329,939,0,0
112,85,0,0,0,0,0,0,0,0,0,-1,1336,939,0,0
119,85,0,0,0,0,0,0,0,0,0,-1,1343,939,0,0
126,85,0,0,0,0,0,0,0,0,0,-1,1350,939,0,0
133,85,0,0,0,0,0,0,0,0,0,-1,1357,939,0,0
140,85,0,0,0,0,0,0,0,0,0,-1,1364,939,0,0
147,85,0,0,0,0,0,0,0,0,0,-1,1371,939,0,0
154,85,0,0,0,0,0,0,0,0,0,-1,1378,939,0,0
161,85,0,0,0,0,0,0,0,0,0,-1,1385,939,0,0
168,85,0,0,0,0,0,0,0,0,0,-1,1392,939,0,0
175,85,0,0,0,0,0,0,0,0,0,-1,1399,939,0,0
182,85,0,0,0,0,0,0,0,0,0,-1,1406,939,0,0
189,85,0,0,0,0,0,0,0,0,0,-1,1413,939,0,0
196,85,0,0,0,0,0,0,0,0,0,-1,1420,939,0,0
203,85,0,0,0,0,0,0,0,0,0,-1,1427,939,0,0
210,85,0,0,0,0,0,0,0,0,0,-1,1434,939,0,0
217,85,0,0,0,0,0,0,0,0,0,-1,1441,939,0,0
224,85,0,0,0,0,0,0,0,0,0,-1,1448,939,0,0
231,85,0,0,0,0,0,0,0,0,0,-1,1455,939,0,0
238,85,0,0,0,0,0,0,0,0,0,-1,1462,939,0,0
245,85,0,0,0,0,0,0,0,0,0,-1,1469,939,0,0
252,85,0,0,0,0,0,0,0,0,0,-1,1476,939,0,0
259,85,0,0,0,0,0,0,0,0,0,-1,1483,939,0,0
266,85,0,0,0,0,0,0,0,0,0,-1,1490,939,0,0
273,85,0,0,0,0,0,0,0,0,0,-1,1497,939,0,0
280,85,0,0,0,0,0,0,0,0,0,-1,1504,939,0,0
287,85,0,0,0,0,0,0,0,0,0,-1,1511,939,0,0
294,85,0,0,0,0,0,0,0,0,0,-1,1518,939,0,0
301,85,0,0,0,0,0,0,0,0,0,-1,1525,939,0,0
308,85,0,0,0,0,0,0,0,0,0,-1,1532,939,0,0
315,85,0,0,0,0,0,0,0,0,0,-1,1539,939,0,0
322,85,0,0,0,0,0,0,0,0,0,-1,1546,939,0,0
329,85,0,0,0,0,0,0,0,0,0,-1,1553,939,0,0
336,85,0,0,0,0,0,0,0,0,0,-1,1560,939,0,0
343,85,0,0,0,0,0,0,0,0,0,-1,1567,939,0,0
350,85,0,0,0,0,0,0,0,0,0,-1,1574,939,0,0
357,85,0,0,0,0,0,0,0,0,0,-1,1581,939,0,0
364,85,0,0,0,0,0,0,0,0,0,-1,1588,939,0,0
371,85,0,0,0,0,0,0,0,0,0,-1,1595,939,0,0
378,85,0,0,0,0,0,0,0,0,0,-1,1602,939,0,0
385,85,0,0,0,0,0,0,0,0,0,-1,1609,939,0,0
392,85,0,0,0,0,0,0,0,0,0,-1,1616,939,0,0
399,85,0,0,0,0,0,0,0,0,0,-1,1623,939,0,0
406,85,0,0,0,0,0,0,0,0,0,-1,1630,939,0,0
413,85,0,0,0,0,0,0,0,0,0,-1,1637,939,0,0
420,85,0,0,0,0,0,0,0,0,0,-1,1644,939,0,0
427,85,0,0,0,0,0,0,0,0,0,-1,1651,939,0,0
434,85,0,0,0,0,0,0,0,0,0,-1,1658,939,0,0
441,85,0,0,0,0,0,0,0,0,0,-1,1665,939,0,0
448,85,0,0,0,0,0,0,0,0,0,-1,1672,939,0,0
455,85,0,0,0,0,0,0,0,0,0,-1,1679,939,0,0
462,85,0,0,0,0,0,0,0,0,0,-1,1686,939,0,0
469,85,0,0,0,0,0,0,0,0,0,-1,1693,939,0,0
476,85,0,0,0,0,0,0,0,0,0,-1,1700,939,0,0
483,85,0,0,0,0,0,0,0,0,0,-1,1707,939,0,0
490,85,0,0,0,0,0,0,0,0,0,-1,1714,939,0,0
497,85,0,0,0,0,0,0,0,0,0,-1,1721,939,0,0
504,85,0,0,0,0,0,0,0,0,0,-1,1728,939,0,0
511,85,0,0,0,0,0,0,0,0,0,-1,1735,939,0,0
518,85,0,0,0,0,0,0,0,0,0,-1,1742,939,0,0
525,85,0,0,0,0,0,0,0,0,0,-1,1749,939,0,0
532,85,0,0,0,0,0,0,0,0,0,-1,1756,939,0,0
539,85,0,0,0,0,0,0,0,0,0,-1,1763,939,0,0
546,85,0,0,0,0,0,0,0,0,0,-1,1770,939,0,0
553,85,0,0,0,0,0,0,0,0,0,-1,1777,939,0,0
560,85,0,0,0,0,0,0,0,0,0,-1,1784,939,0,0
567,85,0,0,0,0,0,0,0,0,0,-1,1791,939,0,0
574,85,0,0,0,0,0,0,0,0,0,-1,1798,939,0,0
581,85,0,0,0,0,0,0,0,0,0,-1,1805,939,0,0
588,85,0,0,0,0,0,0,0,0,0,-1,1812,939,0,0
595,85,0,0,0,0,0,0,0,0,0,-1,1819,939,0,0
602,85,0,0,0,0,0,0,0,0,0,-1,1826,939,0,0
609,85,0,0,0,0,0,0,0,0,0,-1,1833,939,0,0
616,85,0,0,0,0,0,0,0,0,0,-1,1840,939,0,0
623,85,0,0,0,0,0,0,0,0,0,-1,1847,939,0,0
630,85,0,0,0,0,0,0,0,0,0,-1,1854,939,0,0
637,85,228.369,8.98206,0,0,0,0,0,0,0,-1,1861,939,228.369,-8.98207
644,85,228.569,8.72284,0,0,0,0,0,0,0,-1,1868,939,228.569,-8.72284
651,85,228.66,8.48926,0,0,0,0,0,0,0,-1,1875,939,228.66,-8.48928
658,85,228.216,9.12897,0,0,0,0,0,0,0,-1,1882,939,228.216,-9.12899
665,85,228.252,8.66302,0,0,0,0,0,0,0,-1,1889,939,228.252,-8.66304
672,85,228.535,8.38623,0,0,0,0,0,0,0,-1,1896,939,228.535,-8.38623
679,85,228.68,8.50354,0,0,0,0,0,0,0,-1,1903,939,228.68,-8.50353
686,85,228.372,8.65735,0,0,0,0,0,0,0,-1,1910,939,228.372,-8.65733
693,85,228.369,8.85034,0,0,0,0,0,0,0,-1,1917,939,228.369,-8.85035
700,85,228.445,8.81134,0,0,0,0,0,0,0,-1,1924,939,228.445,-8.81136
707,85,222.927,8.80347,0,0,0,0,0,0,0,-1,1931,939,222.927,-8.80344
714,85,223.942,28.7861,0,0,0,0,0,0,0,-1,1938,939,223.942,-28.7861
721,85,223.335,30.0227,0,0,0,0,0,0,0,-1,1945,939,223.335,-30.0227
728,85,222.979,31.1995,0,0,0,0,0,0,0,-1,1952,939,222.979,-31.1995
735,85,222.823,32.1438,0,0,0,0,0,0,0,-1,1959,939,222.823,-32.1438
742,85,222.718,33.308,-0.013382,0.0234616,-0.00429366,0.0239553,-0.0138757,-1.4563,0.0220987,0.0357769,1966,939,222.718,-33.308
749,85,222.405,34.3154,-0.0150333,0.0306438,-0.00623498,0.0314795,-0.0158691,-1.43754,0.0278276,0.0214222,1973,939,222.405,-34.3154
756,85,222.124,35.2927,-0.0163551,0.0377549,-0.00807821,0.0389352,-0.0175353,-1.42572,0.0333745,0.0181884,1980,939,222.124,-35.2927
763,85,221.963,36.2791,-0.0172466,0.0447635,-0.00985859,0.0462931,-0.0187763,-1.41687,0.0386713,0.0190081,1987,939,221.963,-36.2791
770,85,221.727,37.2271,-0.017584,0.0516398,-0.0115564,0.053518,-0.0194623,-1.40967,0.0436376,0.0284015,1994,939,221.727,-37.227
777,85,221.393,38.1865,0,0,0,0,0,0,0,-1,2001,939,221.393,-38.1865
784,85,114.733,22.3542,0,0,0,0,0,0,0,-1,2008,939,114.733,-22.3543
791,85,108.085,18.0881,0,0,0,0,0,0,0,-1,2015,939,108.085,-18.0881
798,85,93.9771,12.838,0,0,0,0,0,0,0,-1,2022,939,93.9771,-12.838
805,85,67.4045,8.44751,0,0,0,0,0,0,0,-1,2029,939,67.4046,-8.4475
812,85,0,0,0,0,0,0,0,0,0,-1,2036,939,0,0
-700,78,0,0,0,0,0,0,0,0,0,-1,524,946,0,0
-693,78,0,0,0,0,0,0,0,0,0,-1,531,946,0,0
-686,78,-71.3092,-3.06555,0,0,0,0,0,0,0,-1,538,946,-71.3092,3.06553
-679,78,-70.2859,-2.42047,0,0,0,0,0,0,0,-1,545,946,-70.2859,2.42045
-672,78,-68.8298,-1.27698,0,0,0,0,0,0,0,-1,552,946,-68.8298,1.27699
-665,78,-58.3835,7.82446,0,0,0,0,0,0,0,-1,559,946,-58.3835,-7.82444
-658,78,-68.3195,14.526,0,0,0,0,0,0,0,-1,566,946,-68.3195,-14.526
-651,78,-57.2355,9.40192,0,0,0,0,0,0,0,-1,573,946,-57.2355,-9.40191
-644,78,-68.5534,11.7624,0,0,0,0,0,0,0,-1,580,946,-68.5534,-11.7624
-637,78,-215.611,36.7601,0,0,0,0,0,0,0,-1,587,946,-215.611,-36.7601
-630,78,-215.649,35.8745,-0.0137682,0.046237,0.0124881,0.0487322,-0.0162634,1.37359,0.0390548,0.0341446,594,946,-215.649,-35.8745
-623,78,-215.71,35.0088,-0.0104543,0.038403,0.0101557,0.0404299,-0.0124812,1.3738,0.0319373,0.0168224,601,946,-215.71,-35.0088
-616,78,-215.862,34.0849,-0.0072399,0.0305453,0.00778464,0.0320862,-0.00878087,1.37537,0.0248406,0.0168052,608,946,-215.862,-34.0849
-609,78,-216.016,33.1691,-0.00409279,0.0226665,0.00538457,0.0237093,-0.00513564,1.37949,0.0177673,0.0186565,615,946,-216.016,-33.1691
-602,78,-216.103,32.1088,-0.000984412,0.0147679,0.00296197,0.0153064,-0.00152295,1.39094,0.0107479,0.0211568,622,946,-216.103,-32.1088
-595,78,-216.084,31.1263,0.00211036,0.00684919,0.000519888,0.00690555,0.00205399,1.4628,0.00409453,0.0186998,629,946,-216.084,-31.1263
-588,78,-216.187,30.1412,0.00494321,-0.00111737,-0.00197813,0.00553171,-0.00170587,-0.289166,0.00436889,0.0191252,636,946,-216.187,-30.1412
-581,78,-216.508,29.0928,0,0,0,0,0,0,0,-1,643,946,-216.508,-29.0929
-574,78,-217.183,27.948,0,0,0,0,0,0,0,-1,650,946,-217.183,-27.948
-567,78,-72.409,0.433167,0,0,0,0,0,0,0,-1,657,946,-72.409,-0.433163
-560,78,-72.4455,0.42749,0,0,0,0,0,0,0,-1,664,946,-72.4455,-0.427491
-553,78,-72.4747,0.470947,0,0,0,0,0,0,0,-1,671,946,-72.4747,-0.47097
-546,78,-72.4727,0.549438,0,0,0,0,0,0,0,-1,678,946,-72.4727,-0.549428
-539,78,-72.4183,0.590637,0,0,0,0,0,0,0,-1,685,946,-72.4183,-0.590633
-532,78,-72.4738,0.447388,0,0,0,0,0,0,0,-1,692,946,-72.4738,-0.447377
-525,78,-72.4651,0.455017,0,0,0,0,0,0,0,-1,699,946,-72.4652,-0.455003
-518,78,-72.4155,0.587219,0,0,0,0,0,0,0,-1,706,946,-72.4155,-0.587229
-511,78,0,0,0,0,0,0,0,0,0,-1,713,946,0,0
-504,78,0,0,0,0,0,0,0,0,0,-1,720,946,0,0
-497,78,0,0,0,0,0,0,0,0,0,-1,727,946,0,0
-490,78,0,0,0,0,0,0,0,0,0,-1,734,946,0,0
-483,78,0,0,0,0,0,0,0,0,0,-1,741,946,0,0
-476,78,0,0,0,0,0,0,0,0,0,-1,748,946,0,0
-469,78,0,0,0,0,0,0,0,0,0,-1,755,946,0,0
-462,78,0,0,0,0,0,0,0,0,0,-1,762,946,0,0
-455,78,0,0,0,0,0,0,0,0,0,-1,769,946,0,0
-448,78,0,0,0,0,0,0,0,0,0,-1,776,946,0,0
-441,78,0,0,0,0,0,0,0,0,0,-1,783,946,0,0
-434,78,0,0,0,0,0,0,0,0,0,-1,790,946,0,0
-427,78,0,0,0,0,0,0,0,0,0,-1,797,946,0,0
-420,78,0,0,0,0,0,0,0,0,0,-1,804,946,0,0
-413,78,0,0,0,0,0,0,0,0,0,-1,811,946,0,0
-406,78,0,0,0,0,0,0,0,0,0,-1,818,946,0,0
-399,78,0,0,0,0,0,0,0,0,0,-1,825,946,0,0
-392,78,0,0,0,0,0,0,0,0,0,-1,832,946,0,0
-385,78,0,0,0,0,0,0,0,0,0,-1,839,946,0,0
-378,78,0,0,0,0,0,0,0,0,0,-1,846,946,0,0
-371,78,0,0,0,0,0,0,0,0,0,-1,853,946,0,0
-364,78,0,0,0,0,0,0,0,0,0,-1,860,946,0,0
-357,78,0,0,0,0,0,0,0,0,0,-1,867,946,0,0
-350,78,0,0,0,0,0,0,0,0,0,-1,874,946,0,0
-343,78,0,0,0,0,0,0,0,0,0,-1,881,946,0,0
-336,78,0,0,0,0,0,0,0,0,0,-1,888,946,0,0
-329,78,0,0,0,0,0,0,0,0,0,-1,895,946,0,0
-322,78,0,0,0,0,0,0,0,0,0,-1,902,946,0,0
-315,78,0,0,0,0,0,0,0,0,0,-1,909,946,0,0
-308,78,0,0,0,0,0,0,0,0,0,-1,916,946,0,0
-301,78,0,0,0,0,0,0,0,0,0,-1,923,946,0,0
-294,78,0,0,0,0,0,0,0,0,0,-1,930,946,0,0
-287,78,0,0,0,0,0,0,0,0,0,-1,937,946,0,0
-280,78,0,0,0,0,0,0,0,0,0,-1,944,946,0,0
-273,78,0,0,0,0,0,0,0,0,0,-1,951,946,0,0
-266,78,0,0,0,0,0,0,0,0,0,-1,958,946,0,0
-259,78,0,0,0,0,0,0,0,0,0,-1,965,946,0,0
-252,78,0,0,0,0,0,0,0,0,0,-1,972,946,0,0
-245,78,0,0,0,0,0,0,0,0,0,-1,979,946,0,0
-238,78,0,0,0,0,0,0,0,0,0,-1,986,946,0,0
-231,78,0,0,0,0,0,0,0,0,0,-1,993,946,0,0
-224,78,0,0,0,0,0,0,0,0,0,-1,1000,946,0,0
-217,78,0,0,0,0,0,0,0,0,0,-1,1007,946,0,0
-210,78,0,0,0,0,0,0,0,0,0,-1,1014,946,0,0
-203,78,0,0,0,0,0,0,0,0,0,-1,1021,946,0,0
-196,78,0,0,0,0,0,0,0,0,0,-1,1028,946,0,0
-189,78,0,0,0,0,0,0,0,0,0,-1,1035,946,0,0
-182,78,0,0,0,0,0,0,0,0,0,-1,1042,946,0,0
-175,78,0,0,0,0,0,0,0,0,0,-1,1049,946,0,0
-168,78,0,0,0,0,0,0,0,0,0,-1,1056,946,0,0
-161,78,0,0,0,0,0,0,0,0,0,-1,1063,946,0,0
-154,78,0,0,0,0,0,0,0,0,0,-1,1070,946,0,0
-147,78,0,0,0,0,0,0,0,0,0,-1,1077,946,0,0
-140,78,0,0,0,0,0,0,0,0,0,-1,1084,946,0,0
-133,78,0,0,0,0,0,0,0,0,0,-1,1091,946,0,0
-126,78,0,0,0,0,0,0,0,0,0,-1,1098,946,0,0
-119,78,0,0,0,0,0,0,0,0,0,-1,1105,946,0,0
-112,78,0,0,0,0,0,0,0,0,0,-1,1112,946,0,0
-105,78,0,0,0,0,0,0,0,0,0,-1,1119,946,0,0
-98,78,0,0,0,0,0,0,0,0,0,-1,1126,946,0,0
-91,78,0,0,0,0,0,0,0,0,0,-1,1133,946,0,0
-84,78,0,0,0,0,0,0,0,0,0,-1,1140,946,0,0
-77,78,0,0,0,0,0,0,0,0,0,-1,1147,946,0,0
-70,78,0,0,0,0,0,0,0,0,0,-1,1154,946,0,0
-63,78,0,0,0,0,0,0,0,0,0,-1,1161,946,0,0
-56,78,0,0,0,0,0,0,0,0,0,-1,1168,946,0,0
-49,78,0,0,0,0,0,0,0,0,0,-1,1175,946,0,0
-42,78,0,0,0,0,0,0,0,0,0,-1,1182,946,0,0
-35,78,0,0,0,0,0,0,0,0,0,-1,1189,946,0,0
-28,78,0,0,0,0,0,0,0,0,0,-1,1196,946,0,0
-21,78,0,0,0,0,0,0,0,0,0,-1,1203,946,0,0
-14,78,0,0,0,0,0,0,0,0,0,-1,1210,946,0,0
-7,78,0,0,0,0,0,0,0,0,0,-1,1217,946,0,0
0,78,0,0,0,0,0,0,0,0,0,-1,1224,946,0,0
7,78,0,0,0,0,0,0,0,0,0,-1,1231,946,0,0
14,78,0,0,0,0,0,0,0,0,0,-1,1238,946,0,0
21,78,0,0,0,0,0,0,0,0,0,-1,1245,946,0,0
28,78,0,0,0,0,0,0,0,0,0,-1,1252,946,0,0
35,78,0,0,0,0,0,0,0,0,0,-1,1259,946,0,0
42,78,0,0,0,0,0,0,0,0,0,-1,1266,946,0,0
49,78,0,0,0,0,0,0,0,0,0,-1,1273,946,0,0
56,78,0,0,0,0,0,0,0,0,0,-1,1280,946,0,0
63,78,0,0,0,0,0,0,0,0,0,-1,1287,946,0,0
70,78,0,0,0,0,0,0,0,0,0,-1,1294,946,0,0
77,78,0,0,0,0,0,0,0,0,0,-1,1301,946,0,0
84,78,0,0,0,0,0,0,0,0,0,-1,1308,946,0,0
91,78,0,0,0,0,0,0,0,0,0,-1,1315,946,0,0
98,78,0,0,0,0,0,0,0,0,0,-1,1322,946,0,0
105,78,0,0,0,0,0,0,0,0,0,-1,1329,946,0,0
112,78,0,0,0,0,0,0,0,0,0,-1,1336,946,0,0
119,78,0,0,0,0,0,0,0,0,0,-1,1343,946,0,0
126,78,0,0,0,0,0,0,0,0,0,-1,1350,946,0,0
133,78,0,0,0,0,0,0,0,0,0,-1,1357,946,0,0
140,78,0,0,0,0,0,0,0,0,0,-1,1364,946,0,0
147,78,0,0,0,0,0,0,0,0,0,-1,1371,946,0,0
154,78,0,0,0,0,0,0,0,0,0,-1,1378,946,0,0
161,78,0,0,0,0,0,0,0,0,0,-1,1385,946,0,0
168,78,0,0,0,0,0,0,0,0,0,-1,1392,946,0,0
175,78,0,0,0,0,0,0,0,0,0,-1,1399,946,0,0
182,78,0,0,0,0,0,0,0,0,0,-1,1406,946,0,0
189,78,0,0,0,0,0,0,0,0,0,-1,1413,946,0,0
196,78,0,0,0,0,0,0,0,0,0,-1,1420,946,0,0
203,78,0,0,0,0,0,0,0,0,0,-1,1427,946,0,0
210,78,0,0,0,0,0,0,0,0,0,-1,1434,946,0,0
217,78,0,0,0,0,0,0,0,0,0,-1,1441,946,0,0
224,78,0,0,0,0,0,0,0,0,0,-1,1448,946,0,0
231,78,0,0,0,0,0,0,0,0,0,-1,1455,946,0,0
238,78,0,0,0,0,0,0,0,0,0,-1,1462,946,0,0
245,78,0,0,0,0,0,0,0,0,0,-1,1469,946,0,0
252,78,0,0,0,0,0,0,0,0,0,-1,1476,946,0,0
259,78,0,0,0,0,0,0,0,0,0,-1,1483,946,0,0
266,78,0,0,0,0,0,0,0,0,0,-1,1490,946,0,0
273,78,0,0,0,0,0,0,0,0,0,-1,1497,946,0,0
280,78,0,0,0,0,0,0,0,0,0,-1,1504,946,0,0
287,78,0,0,0,0,0,0,0,0,0,-1,1511,946,0,0
294,78,0,0,0,0,0,0,0,0,0,-1,1518,946,0,0
301,78,0,0,0,0,0,0,0,0,0,-1,1525,946,0,0
308,78,0,0,0,0,0,0,0,0,0,-1,1532,946,0,0
315,78,0,0,0,0,0,0,0,0,0,-1,1539,946,0,0
322,78,0,0,0,0,0,0,0,0,0,-1,1546,946,0,0
329,78,0,0,0,0,0,0,0,0,0,-1,1553,946,0,0
336,78,0,0,0,0,0,0,0,0,0,-1,1560,946,0,0
343,78,0,0,0,0,0,0,0,0,0,-1,1567,946,0,0
350,78,0,0,0,0,0,0,0,0,0,-1,1574,946,0,0
357,78,0,0,0,0,0,0,0,0,0,-1,1581,946,0,0
364,78,0,0,0,0,0,0,0,0,0,-1,1588,946,0,0
371,78,0,0,0,0,0,0,0,0,0,-1,1595,946,0,0
378,78,0,0,0,0,0,0,0,0,0,-1,1602,946,0,0
385,78,0,0,0,0,0,0,0,0,0,-1,1609,946,0,0
392,78,0,0,0,0,0,0,0,0,0,-1,1616,946,0,0
399,78,0,0,0,0,0,0,0,0,0,-1,1623,946,0,0
406,78,0,0,0,0,0,0,0,0,0,-1,1630,946,0,0
413,78,0,0,0,0,0,0,0,0,0,-1,1637,946,0,0
420,78,0,0,0,0,0,0,0,0,0,-1,1644,946,0,0
427,78,0,0,0,0,0,0,0,0,0,-1,1651,946,0,0
434,78,0,0,0,0,0,0,0,0,0,-1,1658,946,0,0
441,78,0,0,0,0,0,0,0,0,0,-1,1665,946,0,0
448,78,0,0,0,0,0,0,0,0,0,-1,1672,946,0,0
455,78,0,0,0,0,0,0,0,0,0,-1,1679,946,0,0
462,78,0,0,0,0,0,0,0,0,0,-1,1686,946,0,0
469,78,0,0,0,0,0,0,0,0,0,-1,1693,946,0,0
476,78,0,0,0,0,0,0,0,0,0,-1,1700,946,0,0
483,78,0,0,0,0,0,0,0,0,0,-1,1707,946,0,0
490,78,0,0,0,0,0,0,0,0,0,-1,1714,946,0,0
497,78,0,0,0,0,0,0,0,0,0,-1,1721,946,0,0
504,78,0,0,0,0,0,0,0,0,0,-1,1728,946,0,0
511,78,0,0,0,0,0,0,0,0,0,-1,1735,946,0,0
518,78,0,0,0,0,0,0,0,0,0,-1,1742,946,0,0
525,78,0,0,0,0,0,0,0,0,0,-1,1749,946,0,0
532,78,0,0,0,0,0,0,0,0,0,-1,1756,946,0,0
539,78,0,0,0,0,0,0,0,0,0,-1,1763,946,0,0
546,78,0,0,0,0,0,0,0,0,0,-1,1770,946,0,0
553,78,0,0,0,0,0,0,0,0,0,-1,1777,946,0,0
560,78,0,0,0,0,0,0,0,0,0,-1,1784,946,0,0
567,78,0,0,0,0,0,0,0,0,0,-1,1791,946,0,0
574,78,0,0,0,0,0,0,0,0,0,-1,1798,946,0,0
581,78,0,0,0,0,0,0,0,0,0,-1,1805,946,0,0
588,78,0,0,0,0,0,0,0,0,0,-1,1812,946,0,0
595,78,0,0,0,0,0,0,0,0,0,-1,1819,946,0,0
602,78,0,0,0,0,0,0,0,0,0,-1,1826,946,0,0
609,78,0,0,0,0,0,0,0,0,0,-1,1833,946,0,0
616,78,0,0,0,0,0,0,0,0,0,-1,1840,946,0,0
623,78,0,0,0,0,0,0,0,0,0,-1,1847,946,0,0
630,78,0,0,0,0,0,0,0,0,0,-1,1854,946,0,0
637,78,228.45,9.10529,0,0,0,0,0,0,0,-1,1861,946,228.45,-9.10529
644,78,228.504,8.78888,0,0,0,0,0,0,0,-1,1868,946,228.504,-8.78889
651,78,228.498,8.51947,0,0,0,0,0,0,0,-1,1875,946,228.498,-8.51947
658,78,228.397,8.52069,0,0,0,0,0,0,0,-1,1882,946,228.397,-8.5207
665,78,228.412,8.42841,0,0,0,0,0,0,0,-1,1889,946,228.412,-8.42841
672,78,228.516,8.36804,0,0,0,0,0,0,0,-1,1896,946,228.516,-8.36805
679,78,228.545,8.58539,0,0,0,0,0,0,0,-1,1903,946,228.545,-8.5854
686,78,228.394,8.7251,0,0,0,0,0,0,0,-1,1910,946,228.394,-8.72513
693,78,228.369,8.69104,0,0,0,0,0,0,0,-1,1917,946,228.369,-8.69104
700,78,228.434,8.74408,0,0,0,0,0,0,0,-1,1924,946,228.434,-8.7441
707,78,228.365,8.84857,0,0,0,0,0,0,0,-1,1931,946,228.366,-8.84859
714,78,224.786,28.8069,0,0,0,0,0,0,0,-1,1938,946,224.786,-28.8069
721,78,224.235,30.0164,0,0,0,0,0,0,0,-1,1945,946,224.235,-30.0164
728,78,223.684,31.226,0,0,0,0,0,0,0,-1,1952,946,223.684,-31.226
735,78,223.969,32.3382,-0.0102075,0.0145366,-0.0015401,0.0146321,-0.010303,-1.50887,0.0144684,0.0460874,1959,946,223.97,-32.3382
742,78,223.815,33.2234,-0.0124933,0.0218321,-0.00368861,0.022224,-0.0128852,-1.46495,0.020508,0.0372637,1966,946,223.815,-33.2235
749,78,223.492,34.2629,-0.0145345,0.0290344,-0.0057578,0.0297825,-0.0152825,-1.4416,0.0264634,0.0224325,1973,946,223.492,-34.2629
756,78,223.309,35.1423,-0.0162313,0.0361141,-0.00778769,0.0372482,-0.0173653,-1.42619,0.0322201,0.0206422,1980,946,223.309,-35.1423
763,78,223.08,36.0562,-0.0174844,0.0430403,-0.00982484,0.0445952,-0.0190393,-1.41384,0.0377141,0.0264774,1987,946,223.08,-36.0562
770,78,222.794,36.9801,-0.0182051,0.0497697,-0.0118765,0.051785,-0.0202204,-1.40271,0.0428831,0.0345064,1994,946,222.794,-36.9801
777,78,222.323,37.7955,0,0,0,0,0,0,0,-1,2001,946,222.323,-37.7955
784,78,221.827,37.1591,0,0,0,0,0,0,0,-1,2008,946,221.827,-37.159
791,78,175.01,38.6979,0,0,0,0,0,0,0,-1,2015,946,175.01,-38.6979
798,78,70.8296,7.99933,0,0,0,0,0,0,0,-1,2022,946,70.8295,-7.99931
805,78,68.5852,7.34106,0,0,0,0,0,0,0,-1,2029,946,68.5853,-7.34105
812,78,0,0,0,0,0,0,0,0,0,-1,2036,946,0,0
-700,71,0,0,0,0,0,0,0,0,0,-1,524,953,0,0
-693,71,0,0,0,0,0,0,0,0,0,-1,531,953,0,0
-686,71,-71.189,-2.98248,0,0,0,0,0,0,0,-1,538,953,-71.189,2.98245
-679,71,-70.2738,-2.17017,0,0,0,0,0,0,0,-1,545,953,-70.2738,2.17015
-672,71,-69.1418,-1.21301,0,0,0,0,0,0,0,-1,552,953,-69.1418,1.21302
-665,71,-68.7411,12.514,0,0,0,0,0,0,0,-1,559,953,-68.7411,-12.514
-658,71,-68.6742,12.8325,0,0,0,0,0,0,0,-1,566,953,-68.6741,-12.8325
-651,71,-162.769,34.3455,0,0,0,0,0,0,0,-1,573,953,-162.769,-34.3455
-644,71,-217.084,38.1105,0,0,0,0,0,0,0,-1,580,953,-217.084,-38.1105
-637,71,-216.582,36.4169,0,0,0,0,0,0,0,-1,587,953,-216.582,-36.4169
-630,71,-216.683,35.6585,-0.0134968,0.0450031,0.011683,0.04725,-0.0157438,1.38079,0.0378554,0.0270113,594,953,-216.683,-35.6585
-623,71,-216.77,34.8365,-0.00982052,0.0371538,0.00934237,0.0389436,-0.0116104,1.38151,0.0305763,0.0193786,601,953,-216.77,-34.8365
-616,71,-216.905,33.8869,-0.0062807,0.0292538,0.00698382,0.0305771,-0.007604,1.38354,0.0233361,0.0194421,608,953,-216.905,-33.8869
-609,71,-217.017,32.9472,-0.00283487,0.0213084,0.00461993,0.0221622,-0.00368872,1.38804,0.0161455,0.0205047,615,953,-217.017,-32.9472
-602,71,-217.067,32.044,0.000555966,0.0133208,0.0022606,0.0137093,0.000167449,1.40059,0.00908423,0.0205396,622,953,-217.067,-32.044
-595,71,-217.11,31.1151,0.00392793,0.00529276,-8.68975e-05,0.00529827,0.00392242,-1.50747,0.00317455,0.0235723,629,953,-217.11,-31.1151
-588,71,-217.154,30.2444,0.00699467,-0.00282568,-0.00245905,0.00757601,-0.00340702,-0.232146,0.00649154,0.0288532,636,953,-217.154,-30.2444
-581,71,-217.012,29.1752,0,0,0,0,0,0,0,-1,643,953,-217.012,-29.1752
-574,71,-72.4724,0.236389,0,0,0,0,0,0,0,-1,650,953,-72.4724,-0.236367
-567,71,-72.4236,0.345825,0,0,0,0,0,0,0,-1,657,953,-72.4236,-0.345807
-560,71,-72.4896,0.420471,0,0,0,0,0,0,0,-1,664,953,-72.4896,-0.420502
-553,71,-72.5439,0.572449,0,0,0,0,0,0,0,-1,671,953,-72.5439,-0.572455
-546,71,-72.5021,0.74353,0,0,0,0,0,0,0,-1,678,953,-72.5022,-0.743537
-539,71,-72.4401,0.409424,0,0,0,0,0,0,0,-1,685,953,-72.4401,-0.409447
-532,71,-72.476,0.163879,0,0,0,0,0,0,0,-1,692,953,-72.4759,-0.163905
-525,71,-72.3993,0.277771,0,0,0,0,0,0,0,-1,699,953,-72.3993,-0.277776
-518,71,0,0,0,0,0,0,0,0,0,-1,706,953,0,0
-511,71,0,0,0,0,0,0,0,0,0,-1,713,953,0,0
-504,71,0,0,0,0,0,0,0,0,0,-1,720,953,0,0
-497,71,0,0,0,0,0,0,0,0,0,-1,727,953,0,0
-490,71,0,0,0,0,0,0,0,0,0,-1,734,953,0,0
-483,71,0,0,0,0,0,0,0,0,0,-1,741,953,0,0
-476,71,0,0,0,0,0,0,0,0,0,-1,748,953,0,0
-469,71,0,0,0,0,0,0,0,0,0,-1,755,953,0,0
-462,71,0,0,0,0,0,0,0,0,0,-1,762,953,0,0
-455,71,0,0,0,0,0,0,0,0,0,-1,769,953,0,0
-448,71,0,0,0,0,0,0,0,0,0,-1,776,953,0,0
-441,71,0,0,0,0,0,0,0,0,0,-1,783,953,0,0
-434,71,0,0,0,0,0,0,0,0,0,-1,790,953,0,0
-427,71,0,0,0,0,0,0,0,0,0,-1,797,953,0,0
-420,71,0,0,0,0,0,0,0,0,0,-1,804,953,0,0
-413,71,0,0,0,0,0,0,0,0,0,-1,811,953,0,0
-406,71,0,0,0,0,0,0,0,0,0,-1,818,953,0,0
-399,71,0,0,0,0,0,0,0,0,0,-1,825,953,0,0
-392,71,0,0,0,0,0,0,0,0,0,-1,832,953,0,0
-385,71,0,0,0,0,0,0,0,0,0,-1,839,953,0,0
-378,71,0,0,0,0,0,0,0,0,0,-1,846,953,0,0
-371,71,0,0,0,0,0,0,0,0,0,-1,853,953,0,0
-364,71,0,0,0,0,0,0,0,0,0,-1,860,953,0,0
-357,71,0,0,0,0,0,0,0,0,0,-1,867,953,0,0
-350,71,0,0,0,0,0,0,0,0,0,-1,874,953,0,0
-343,71,0,0,0,0,0,0,0,0,0,-1,881,953,0,0
-336,71,0,0,0,0,0,0,0,0,0,-1,888,953,0,0
-329,71,0,0,0,0,0,0,0,0,0,-1,895,953,0,0
-322,71,0,0,0,0,0,0,0,0,0,-1,902,953,0,0
-315,71,0,0,0,0,0,0,0,0,0,-1,909,953,0,0
-308,71,0,0,0,0,0,0,0,0,0,-1,916,953,0,0
-301,71,0,0,0,0,0,0,0,0,0,-1,923,953,0,0
-294,71,0,0,0,0,0,0,0,0,0,-1,930,953,0,0
-287,71,0,0,0,0,0,0,0,0,0,-1,937,953,0,0
-280,71,0,0,0,0,0,0,0,0,0,-1,944,953,0,0
-273,71,0,0,0,0,0,0,0,0,0,-1,951,953,0,0
-266,71,0,0,0,0,0,0,0,0,0,-1,958,953,0,0
-259,71,0,0,0,0,0,0,0,0,0,-1,965,953,0,0
-252,71,0,0,0,0,0,0,0,0,0,-1,972,953,0,0
-245,71,0,0,0,0,0,0,0,0,0,-1,979,953,0,0
-238,71,0,0,0,0,0,0,0,0,0,-1,986,953,0,0
-231,71,0,0,0,0,0,0,0,0,0,-1,993,953,0,0
-224,71,0,0,0,0,0,0,0,0,0,-1,1000,953,0,0
-217,71,0,0,0,0,0,0,0,0,0,-1,1007,953,0,0
-210,71,0,0,0,0,0,0,0,0,0,-1,1014,953,0,0
-203,71,0,0,0,0,0,0,0,0,0,-1,1021,953,0,0
-196,71,0,0,0,0,0,0,0,0,0,-1,1028,953,0,0
-189,71,0,0,0,0,0,0,0,0,0,-1,1035,953,0,0
-182,71,0,0,0,0,0,0,0,0,0,-1,1042,953,0,0
-175,71,0,0,0,0,0,0,0,0,0,-1,1049,953,0,0
-168,71,0,0,0,0,0,0,0,0,0,-1,1056,953,0,0
-161,71,0,0,0,0,0,0,0,0,0,-1,1063,953,0,0
-154,71,0,0,0,0,0,0,0,0,0,-1,1070,953,0,0
-147,71,0,0,0,0,0,0,0,0,0,-1,1077,953,0,0
-140,71,0,0,0,0,0,0,0,0,0,-1,1084,953,0,0
-133,71,0,0,0,0,0,0,0,0,0,-1,1091,953,0,0
-126,71,0,0,0,0,0,0,0,0,0,-1,1098,953,0,0
-119,71,0,0,0,0,0,0,0,0,0,-1,1105,953,0,0
-112,71,0,0,0,0,0,0,0,0,0,-1,1112,953,0,0
-105,71,0,0,0,0,0,0,0,0,0,-1,1119,953,0,0
-98,71,0,0,0,0,0,0,0,0,0,-1,1126,953,0,0
-91,71,0,0,0,0,0,0,0,0,0,-1,1133,953,0,0
-84,71,0,0,0,0,0,0,0,0,0,-1,1140,953,0,0
-77,71,0,0,0,0,0,0,0,0,0,-1,1147,953,0,0
-70,71,0,0,0,0,0,0,0,0,0,-1,1154,953,0,0
-63,71,0,0,0,0,0,0,0,0,0,-1,1161,953,0,0
-56,71,0,0,0,0,0,0,0,0,0,-1,1168,953,0,0
-49,71,0,0,0,0,0,0,0,0,0,-1,1175,953,0,0
-42,71,0,0,0,0,0,0,0,0,0,-1,1182,953,0,0
-35,71,0,0,0,0,0,0,0,0,0,-1,1189,953,0,0
-28,71,0,0,0,0,0,0,0,0,0,-1,1196,953,0,0
-21,71,0,0,0,0,0,0,0,0,0,-1,1203,953,0,0
-14,71,0,0,0,0,0,0,0,0,0,-1,1210,953,0,0
-7,71,0,0,0,0,0,0,0,0,0,-1,1217,953,0,0
0,71,0,0,0,0,0,0,0,0,0,-1,1224,953,0,0
7,71,0,0,0,0,0,0,0,0,0,-1,1231,953,0,0
14,71,0,0,0,0,0,0,0,0,0,-1,1238,953,0,0
21,71,0,0,0,0,0,0,0,0,0,-1,1245,953,0,0
28,71,0,0,0,0,0,0,0,0,0,-1,1252,953,0,0
35,71,0,0,0,0,0,0,0,0,0,-1,1259,953,0,0
42,71,0,0,0,0,0,0,0,0,0,-1,1266,953,0,0
49,71,0,0,0,0,0,0,0,0,0,-1,1273,953,0,0
56,71,0,0,0,0,0,0,0,0,0,-1,1280,953,0,0
63,71,0,0,0,0,0,0,0,0,0,-1,1287,953,0,0
70,71,0,0,0,0,0,0,0,0,0,-1,1294,953,0,0
77,71,0,0,0,0,0,0,0,0,0,-1,1301,953,0,0
84,71,0,0,0,0,0,0,0,0,0,-1,1308,953,0,0
91,71,0,0,0,0,0,0,0,0,0,-1,1315,953,0,0
98,71,0,0,0,0,0,0,0,0,0,-1,1322,953,0,0
105,71,0,0,0,0,0,0,0,0,0,-1,1329,953,0,0
112,71,0,0,0,0,0,0,0,0,0,-1,1336,953,0,0
119,71,0,0,0,0,0,0,0,0,0,-1,1343,953,0,0
126,71,0,0,0,0,0,0,0,0,0,-1,1350,953,0,0
133,71,0,0,0,0,0,0,0,0,0,-1,1357,953,0,0
140,71,0,0,0,0,0,0,0,0,0,-1,1364,953,0,0
147,71,0,0,0,0,0,0,0,0,0,-1,1371,953,0,0
154,71,0,0,0,0,0,0,0,0,0,-1,1378,953,0,0
161,71,0,0,0,0,0,0,0,0,0,-1,1385,953,0,0
168,71,0,0,0,0,0,0,0,0,0,-1,1392,953,0,0
175,71,0,0,0,0,0,0,0,0,0,-1,1399,953,0,0
182,71,0,0,0,0,0,0,0,0,0,-1,1406,953,0,0
189,71,0,0,0,0,0,0,0,0,0,-1,1413,953,0,0
196,71,0,0,0,0,0,0,0,0,0,-1,1420,953,0,0
203,71,0,0,0,0,0,0,0,0,0,-1,1427,953,0,0
210,71,0,0,0,0,0,0,0,0,0,-1,1434,953,0,0
217,71,0,0,0,0,0,0,0,0,0,-1,1441,953,0,0
224,71,0,0,0,0,0,0,0,0,0,-1,1448,953,0,0
231,71,0,0,0,0,0,0,0,0,0,-1,1455,953,0,0
238,71,0,0,0,0,0,0,0,0,0,-1,1462,953,0,0
245,71,0,0,0,0,0,0,0,0,0,-1,1469,953,0,0
252,71,0,0,0,0,0,0,0,0,0,-1,1476,953,0,0
259,71,0,0,0,0,0,0,0,0,0,-1,1483,953,0,0
266,71,0,0,0,0,0,0,0,0,0,-1,1490,953,0,0
273,71,0,0,0,0,0,0,0,0,0,-1,1497,953,0,0
280,71,0,0,0,0,0,0,0,0,0,-1,1504,953,0,0
287,71,0,0,0,0,0,0,0,0,0,-1,1511,953,0,0
294,71,0,0,0,0,0,0,0,0,0,-1,1518,953,0,0
301,71,0,0,0,0,0,0,0,0,0,-1,1525,953,0,0
308,71,0,0,0,0,0,0,0,0,0,-1,1532,953,0,0
315,71,0,0,0,0,0,0,0,0,0,-1,1539,953,0,0
322,71,0,0,0,0,0,0,0,0,0,-1,1546,953,0,0
329,71,0,0,0,0,0,0,0,0,0,-1,1553,953,0,0
336,71,0,0,0,0,0,0,0,0,0,-1,1560,953,0,0
343,71,0,0,0,0,0,0,0,0,0,-1,1567,953,0,0
350,71,0,0,0,0,0,0,0,0,0,-1,1574,953,0,0
357,71,0,0,0,0,0,0,0,0,0,-1,1581,953,0,0
364,71,0,0,0,0,0,0,0,0,0,-1,1588,953,0,0
371,71,0,0,0,0,0,0,0,0,0,-1,1595,953,0,0
378,71,0,0,0,0,0,0,0,0,0,-1,1602,953,0,0
385,71,0,0,0,0,0,0,0,0,0,-1,1609,953,0,0
392,71,0,0,0,0,0,0,0,0,0,-1,1616,953,0,0
399,71,0,0,0,0,0,0,0,0,0,-1,1623,953,0,0
406,71,0,0,0,0,0,0,0,0,0,-1,1630,953,0,0
413,71,0,0,0,0,0,0,0,0,0,-1,1637,953,0,0
420,71,0,0,0,0,0,0,0,0,0,-1,1644,953,0,0
427,71,0,0,0,0,0,0,0,0,0,-1,1651,953,0,0
434,71,0,0,0,0,0,0,0,0,0,-1,1658,953,0,0
441,71,0,0,0,0,0,0,0,0,0,-1,1665,953,0,0
448,71,0,0,0,0,0,0,0,0,0,-1,1672,953,0,0
455,71,0,0,0,0,0,0,0,0,0,-1,1679,953,0,0
462,71,0,0,0,0,0,0,0,0,0,-1,1686,953,0,0
469,71,0,0,0,0,0,0,0,0,0,-1,1693,953,0,0
476,71,0,0,0,0,0,0,0,0,0,-1,1700,953,0,0
483,71,0,0,0,0,0,0,0,0,0,-1,1707,953,0,0
490,71,0,0,0,0,0,0,0,0,0,-1,1714,953,0,0
497,71,0,0,0,0,0,0,0,0,0,-1,1721,953,0,0
504,71,0,0,0,0,0,0,0,0,0,-1,1728,953,0,0
511,71,0,0,0,0,0,0,0,0,0,-1,1735,953,0,0
518,71,0,0,0,0,0,0,0,0,0,-1,1742,953,0,0
525,71,0,0,0,0,0,0,0,0,0,-1,1749,953,0,0
532,71,0,0,0,0,0,0,0,0,0,-1,1756,953,0,0
539,71,0,0,0,0,0,0,0,0,0,-1,1763,953,0,0
546,71,0,0,0,0,0,0,0,0,0,-1,1770,953,0,0
553,71,0,0,0,0,0,0,0,0,0,-1,1777,953,0,0
560,71,0,0,0,0,0,0,0,0,0,-1,1784,953,0,0
567,71,0,0,0,0,0,0,0,0,0,-1,1791,953,0,0
574,71,0,0,0,0,0,0,0,0,0,-1,1798,953,0,0
581,71,0,0,0,0,0,0,0,0,0,-1,1805,953,0,0
588,71,0,0,0,0,0,0,0,0,0,-1,1812,953,0,0
595,71,0,0,0,0,0,0,0,0,0,-1,1819,953,0,0
602,71,0,0,0,0,0,0,0,0,0,-1,1826,953,0,0
609,71,0,0,0,0,0,0,0,0,0,-1,1833,953,0,0
616,71,0,0,0,0,0,0,0,0,0,-1,1840,953,0,0
623,71,0,0,0,0,0,0,0,0,0,-1,1847,953,0,0
630,71,0,0,0,0,0,0,0,0,0,-1,1854,953,0,0
637,71,228.469,8.85419,0,0,0,0,0,0,0,-1,1861,953,228.47,-8.85418
644,71,228.351,8.76941,0,0,0,0,0,0,0,-1,1868,953,228.351,-8.76942
651,71,228.373,8.60968,0,0,0,0,0,0,0,-1,1875,953,228.373,-8.60966
658,71,228.426,8.61578,0,0,0,0,0,0,0,-1,1882,953,228.426,-8.6158
665,71,228.469,8.59369,0,0,0,0,0,0,0,-1,1889,953,228.469,-8.59369
672,71,228.428,8.62988,0,0,0,0,0,0,0,-1,1896,953,228.428,-8.62988
679,71,228.411,8.71436,0,0,0,0,0,0,0,-1,1903,953,228.411,-8.71435
686,71,228.368,8.63531,0,0,0,0,0,0,0,-1,1910,953,228.368,-8.63528
693,71,228.417,8.48254,0,0,0,0,0,0,0,-1,1917,953,228.417,-8.48257
700,71,228.422,8.67682,0,0,0,0,0,0,0,-1,1924,953,228.422,-8.67684
707,71,223.075,8.47913,0,0,0,0,0,0,0,-1,1931,953,223.075,-8.47912
714,71,225.683,28.9759,0,0,0,0,0,0,0,-1,1938,953,225.683,-28.9759
721,71,225.211,30.1797,0,0,0,0,0,0,0,-1,1945,953,225.211,-30.1797
728,71,224.64,31.6929,0,0,0,0,0,0,0,-1,1952,953,224.64,-31.6928
735,71,224.794,32.4553,-0.00873241,0.013281,-0.0010265,0.0133288,-0.00878018,-1.5243,0.0128543,0.036599,1959,953,224.794,-32.4553
742,71,224.746,33.3312,-0.0114242,0.0205721,-0.00317287,0.0208837,-0.0117358,-1.4729,0.0190781,0.0384532,1966,953,224.746,-33.3312
749,71,224.552,34.2103,-0.0138369,0.0277732,-0.0052839,0.0284337,-0.0144974,-1.44644,0.0252178,0.0303322,1973,953,224.552,-34.2103
756,71,224.378,34.9626,-0.0158687,0.0348496,-0.00740784,0.0359094,-0.0169286,-1.42869,0.0311552,0.0248598,1980,953,224.378,-34.9626
763,71,224.195,35.8607,-0.0174204,0.041766,-0.00959942,0.043284,-0.0189384,-1.41396,0.0368293,0.0399039,1987,953,224.195,-35.8607
770,71,223.814,36.6821,-0.0184154,0.0484964,-0.011891,0.0505468,-0.0204658,-1.40005,0.0422074,0.0423085,1994,953,223.814,-36.6821
777,71,223.219,37.4301,0,0,0,0,0,0,0,-1,2001,953,223.219,-37.43
784,71,222.222,37.5388,0,0,0,0,0,0,0,-1,2008,953,222.223,-37.5388
791,71,223.403,37.9648,0,0,0,0,0,0,0,-1,2015,953,223.403,-37.9648
798,71,176.074,39.0334,0,0,0,0,0,0,0,-1,2022,953,176.075,-39.0334
805,71,59.978,6.41992,0,0,0,0,0,0,0,-1,2029,953,59.9781,-6.41992
812,71,0,0,0,0,0,0,0,0,0,-1,2036,953,0,0
-700,64,0,0,0,0,0,0,0,0,0,-1,524,960,0,0
-693,64,0,0,0,0,0,0,0,0,0,-1,531,960,0,0
-686,64,-73.4523,4.74207,0,0,0,0,0,0,0,-1,538,960,-73.4523,-4.74207
-679,64,-81.7646,8.53833,0,0,0,0,0,0,0,-1,545,960,-81.7646,-8.53834
-672,64,-69.4809,11.0681,0,0,0,0,0,0,0,-1,552,960,-69.4809,-11.0681
-665,64,-69.2921,11.0865,0,0,0,0,0,0,0,-1,559,960,-69.2921,-11.0865
-658,64,-163.936,34.8105,0,0,0,0,0,0,0,-1,566,960,-163.936,-34.8106
-651,64,-218.523,38.8836,0,0,0,0,0,0,0,-1,573,960,-218.523,-38.8836
-644,64,-217.639,36.9941,0,0,0,0,0,0,0,-1,580,960,-217.639,-36.9941
-637,64,-217.584,36.202,-0.0176493,0.0513927,0.0131864,0.0538255,-0.0200821,1.38836,0.0441281,0.0304106,587,960,-217.584,-36.202
-630,64,-217.652,35.4614,-0.0133316,0.0436154,0.0108555,0.0456145,-0.0153307,1.38868,0.0366062,0.0214597,594,960,-217.652,-35.4614
-623,64,-217.778,34.6934,-0.00925313,0.0357687,0.00851152,0.0373241,-0.0108085,1.39005,0.0291611,0.0192436,601,960,-217.778,-34.6934
-616,64,-217.885,33.835,-0.00535856,0.0278598,0.00617003,0.0289688,-0.00646757,1.39295,0.0217907,0.023743,608,960,-217.885,-33.8349
-609,64,-217.983,32.9532,-0.00159567,0.0198938,0.0038449,0.020561,-0.00226288,1.39898,0.0145205,0.0236011,615,960,-217.983,-32.9532
-602,64,-218.054,32.0939,0.00208523,0.0118744,0.00154832,0.0121134,0.00184617,1.41761,0.00753599,0.021259,622,960,-218.054,-32.0939
-595,64,-218.133,31.1859,0.00573201,0.00380333,-0.00070917,0.00596469,0.00357064,-0.317044,0.00346598,0.0303671,629,960,-218.133,-31.1859
-588,64,-218.022,30.2639,0.00899951,-0.0043874,-0.00296461,0.00962666,-0.00501455,-0.208472,0.00859177,0.0435432,636,960,-218.022,-30.2639
-581,64,-217.743,29.1759,0,0,0,0,0,0,0,-1,643,960,-217.743,-29.1759
-574,64,-72.4006,0.371521,0,0,0,0,0,0,0,-1,650,960,-72.4006,-0.37155
-567,64,-72.3788,0.370911,0,0,0,0,0,0,0,-1,657,960,-72.3788,-0.370913
-560,64,-72.4356,0.388611,0,0,0,0,0,0,0,-1,664,960,-72.4356,-0.388604
-553,64,-72.4363,0.548584,0,0,0,0,0,0,0,-1,671,960,-72.4363,-0.5486
-546,64,-72.4562,0.710083,0,0,0,0,0,0,0,-1,678,960,-72.4563,-0.710067
-539,64,-72.674,0.512695,0,0,0,0,0,0,0,-1,685,960,-72.674,-0.512709
-532,64,-72.5784,0.511841,0,0,0,0,0,0,0,-1,692,960,-72.5783,-0.511854
-525,64,-72.2922,0.433228,0,0,0,0,0,0,0,-1,699,960,-72.2922,-0.433254
-518,64,0,0,0,0,0,0,0,0,0,-1,706,960,0,0
-511,64,0,0,0,0,0,0,0,0,0,-1,713,960,0,0
-504,64,0,0,0,0,0,0,0,0,0,-1,720,960,0,0
-497,64,0,0,0,0,0,0,0,0,0,-1,727,960,0,0
-490,64,0,0,0,0,0,0,0,0,0,-1,734,960,0,0
-483,64,0,0,0,0,0,0,0,0,0,-1,741,960,0,0
-476,64,0,0,0,0,0,0,0,0,0,-1,748,960,0,0
-469,64,0,0,0,0,0,0,0,0,0,-1,755,960,0,0
-462,64,0,0,0,0,0,0,0,0,0,-1,762,960,0,0
-455,64,0,0,0,0,0,0,0,0,0,-1,769,960,0,0
-448,64,0,0,0,0,0,0,0,0,0,-1,776,960,0,0
-441,64,0,0,0,0,0,0,0,0,0,-1,783,960,0,0
-434,64,0,0,0,0,0,0,0,0,0,-1,790,960,0,0
-427,64,0,0,0,0,0,0,0,0,0,-1,797,960,0,0
-420,64,0,0,0,0,0,0,0,0,0,-1,804,960,0,0
-413,64,0,0,0,0,0,0,0,0,0,-1,811,960,0,0
-406,64,0,0,0,0,0,0,0,0,0,-1,818,960,0,0
-399,64,0,0,0,0,0,0,0,0,0,-1,825,960,0,0
-392,64,0,0,0,0,0,0,0,0,0,-1,832,960,0,0
-385,64,0,0,0,0,0,0,0,0,0,-1,839,960,0,0
-378,64,0,0,0,0,0,0,0,0,0,-1,846,960,0,0
-371,64,0,0,0,0,0,0,0,0,0,-1,853,960,0,0
-364,64,0,0,0,0,0,0,0,0,0,-1,860,960,0,0
-357,64,0,0,0,0,0,0,0,0,0,-1,867,960,0,0
-350,64,0,0,0,0,0,0,0,0,0,-1,874,960,0,0
-343,64,0,0,0,0,0,0,0,0,0,-1,881,960,0,0
-336,64,0,0,0,0,0,0,0,0,0,-1,888,960,0,0
-329,64,0,0,0,0,0,0,0,0,0,-1,895,960,0,0
-322,64,0,0,0,0,0,0,0,0,0,-1,902,960,0,0
-315,64,0,0,0,0,0,0,0,0,0,-1,909,960,0,0
-308,64,0,0,0,0,0,0,0,0,0,-1,916,960,0,0
-301,64,0,0,0,0,0,0,0,0,0,-1,923,960,0,0
-294,64,0,0,0,0,0,0,0,0,0,-1,930,960,0,0
-287,64,0,0,0,0,0,0,0,0,0,-1,937,960,0,0
-280,64,0,0,0,0,0,0,0,0,0,-1,944,960,0,0
-273,64,0,0,0,0,0,0,0,0,0,-1,951,960,0,0
-266,64,0,0,0,0,0,0,0,0,0,-1,958,960,0,0
-259,64,0,0,0,0,0,0,0,0,0,-1,965,960,0,0
-252,64,0,0,0,0,0,0,0,0,0,-1,972,960,0,0
-245,64,0,0,0,0,0,0,0,0,0,-1,979,960,0,0
-238,64,0,0,0,0,0,0,0,0,0,-1,986,960,0,0
-231,64,0,0,0,0,0,0,0,0,0,-1,993,960,0,0
-224,64,0,0,0,0,0,0,0,0,0,-1,1000,960,0,0
-217,64,0,0,0,0,0,0,0,0,0,-1,1007,960,0,0
-210,64,0,0,0,0,0,0,0,0,0,-1,1014,960,0,0
-203,64,0,0,0,0,0,0,0,0,0,-1,1021,960,0,0
-196,64,0,0,0,0,0,0,0,0,0,-1,1028,960,0,0
-189,64,0,0,0,0,0,0,0,0,0,-1,1035,960,0,0
-182,64,0,0,0,0,0,0,0,0,0,-1,1042,960,0,0
-175,64,0,0,0,0,0,0,0,0,0,-1,1049,960,0,0
-168,64,0,0,0,0,0,0,0,0,0,-1,1056,960,0,0
-161,64,0,0,0,0,0,0,0,0,0,-1,1063,960,0,0
-154,64,0,0,0,0,0,0,0,0,0,-1,1070,960,0,0
-147,64,0,0,0,0,0,0,0,0,0,-1,1077,960,0,0
-140,64,0,0,0,0,0,0,0,0,0,-1,1084,960,0,0
-133,64,0,0,0,0,0,0,0,0,0,-1,1091,960,0,0
-126,64,0,0,0,0,0,0,0,0,0,-1,1098,960,0,0
-119,64,0,0,0,0,0,0,0,0,0,-1,1105,960,0,0
-112,64,0,0,0,0,0,0,0,0,0,-1,1112,960,0,0
-105,64,0,0,0,0,0,0,0,0,0,-1,1119,960,0,0
-98,64,0,0,0,0,0,0,0,0,0,-1,1126,960,0,0
-91,64,0,0,0,0,0,0,0,0,0,-1,1133,960,0,0
-84,64,0,0,0,0,0,0,0,0,0,-1,1140,960,0,0
-77,64,0,0,0,0,0,0,0,0,0,-1,1147,960,0,0
-70,64,0,0,0,0,0,0,0,0,0,-1,1154,960,0,0
-63,64,0,0,0,0,0,0,0,0,0,-1,1161,960,0,0
-56,64,0,0,0,0,0,0,0,0,0,-1,1168,960,0,0
-49,64,0,0,0,0,0,0,0,0,0,-1,1175,960,0,0
-42,64,0,0,0,0,0,0,0,0,0,-1,1182,960,0,0
-35,64,0,0,0,0,0,0,0,0,0,-1,1189,960,0,0
-28,64,0,0,0,0,0,0,0,0,0,-1,1196,960,0,0
-21,64,0,0,0,0,0,0,0,0,0,-1,1203,960,0,0
-14,64,0,0,0,0,0,0,0,0,0,-1,1210,960,0,0
-7,64,0,0,0,0,0,0,0,0,0,-1,1217,960,0,0
0,64,0,0,0,0,0,0,0,0,0,-1,1224,960,0,0
7,64,0,0,0,0,0,0,0,0,0,-1,1231,960,0,0
14,64,0,0,0,0,0,0,0,0,0,-1,1238,960,0,0
21,64,0,0,0,0,0,0,0,0,0,-1,1245,960,0,0
28,64,0,0,0,0,0,0,0,0,0,-1,1252,960,0,0
35,64,0,0,0,0,0,0,0,0,0,-1,1259,960,0,0
42,64,0,0,0,0,0,0,0,0,0,-1,1266,960,0,0
49,64,0,0,0,0,0,0,0,0,0,-1,1273,960,0,0
56,64,0,0,0,0,0,0,0,0,0,-1,1280,960,0,0
63,64,0,0,0,0,0,0,0,0,0,-1,1287,960,0,0
70,64,0,0,0,0,0,0,0,0,0,-1,1294,960,0,0
77,64,0,0,0,0,0,0,0,0,0,-1,1301,960,0,0
84,64,0,0,0,0,0,0,0,0,0,-1,1308,960,0,0
91,64,0,0,0,0,0,0,0,0,0,-1,1315,960,0,0
98,64,0,0,0,0,0,0,0,0,0,-1,1322,960,0,0
105,64,0,0,0,0,0,0,0,0,0,-1,1329,960,0,0
112,64,0,0,0,0,0,0,0,0,0,-1,1336,960,0,0
119,64,0,0,0,0,0,0,0,0,0,-1,1343,960,0,0
126,64,0,0,0,0,0,0,0,0,0,-1,1350,960,0,0
133,64,0,0,0,0,0,0,0,0,0,-1,1357,960,0,0
140,64,0,0,0,0,0,0,0,0,0,-1,1364,960,0,0
147,64,0,0,0,0,0,0,0,0,0,-1,1371,960,0,0
154,64,0,0,0,0,0,0,0,0,0,-1,1378,960,0,0
161,64,0,0,0,0,0,0,0,0,0,-1,1385,960,0,0
168,64,0,0,0,0,0,0,0,0,0,-1,1392,960,0,0
175,64,0,0,0,0,0,0,0,0,0,-1,1399,960,0,0
182,64,0,0,0,0,0,0,0,0,0,-1,1406,960,0,0
189,64,0,0,0,0,0,0,0,0,0,-1,1413,960,0,0
196,64,0,0,0,0,0,0,0,0,0,-1,1420,960,0,0
203,64,0,0,0,0,0,0,0,0,0,-1,1427,960,0,0
210,64,0,0,0,0,0,0,0,0,0,-1,1434,960,0,0
217,64,0,0,0,0,0,0,0,0,0,-1,1441,960,0,0
224,64,0,0,0,0,0,0,0,0,0,-1,1448,960,0,0
231,64,0,0,0,0,0,0,0,0,0,-1,1455,960,0,0
238,64,0,0,0,0,0,0,0,0,0,-1,1462,960,0,0
245,64,0,0,0,0,0,0,0,0,0,-1,1469,960,0,0
252,64,0,0,0,0,0,0,0,0,0,-1,1476,960,0,0
259,64,0,0,0,0,0,0,0,0,0,-1,1483,960,0,0
266,64,0,0,0,0,0,0,0,0,0,-1,1490,960,0,0
273,64,0,0,0,0,0,0,0,0,0,-1,1497,960,0,0
280,64,0,0,0,0,0,0,0,0,0,-1,1504,960,0,0
287,64,0,0,0,0,0,0,0,0,0,-1,1511,960,0,0
294,64,0,0,0,0,0,0,0,0,0,-1,1518,960,0,0
301,64,0,0,0,0,0,0,0,0,0,-1,1525,960,0,0
308,64,0,0,0,0,0,0,0,0,0,-1,1532,960,0,0
315,64,0,0,0,0,0,0,0,0,0,-1,1539,960,0,0
322,64,0,0,0,0,0,0,0,0,0,-1,1546,960,0,0
329,64,0,0,0,0,0,0,0,0,0,-1,1553,960,0,0
336,64,0,0,0,0,0,0,0,0,0,-1,1560,960,0,0
343,64,0,0,0,0,0,0,0,0,0,-1,1567,960,0,0
350,64,0,0,0,0,0,0,0,0,0,-1,1574,960,0,0
357,64,0,0,0,0,0,0,0,0,0,-1,1581,960,0,0
364,64,0,0,0,0,0,0,0,0,0,-1,1588,960,0,0
371,64,0,0,0,0,0,0,0,0,0,-1,1595,960,0,0
378,64,0,0,0,0,0,0,0,0,0,-1,1602,960,0,0
385,64,0,0,0,0,0,0,0,0,0,-1,1609,960,0,0
392,64,0,0,0,0,0,0,0,0,0,-1,1616,960,0,0
399,64,0,0,0,0,0,0,0,0,0,-1,1623,960,0,0
406,64,0,0,0,0,0,0,0,0,0,-1,1630,960,0,0
413,64,0,0,0,0,0,0,0,0,0,-1,1637,960,0,0
420,64,0,0,0,0,0,0,0,0,0,-1,1644,960,0,0
427,64,0,0,0,0,0,0,0,0,0,-1,1651,960,0,0
434,64,0,0,0,0,0,0,0,0,0,-1,1658,960,0,0
441,64,0,0,0,0,0,0,0,0,0,-1,1665,960,0,0
448,64,0,0,0,0,0,0,0,0,0,-1,1672,960,0,0
455,64,0,0,0,0,0,0,0,0,0,-1,1679,960,0,0
462,64,0,0,0,0,0,0,0,0,0,-1,1686,960,0,0
469,64,0,0,0,0,0,0,0,0,0,-1,1693,960,0,0
476,64,0,0,0,0,0,0,0,0,0,-1,1700,960,0,0
483,64,0,0,0,0,0,0,0,0,0,-1,1707,960,0,0
490,64,0,0,0,0,0,0,0,0,0,-1,1714,960,0,0
497,64,0,0,0,0,0,0,0,0,0,-1,1721,960,0,0
504,64,0,0,0,0,0,0,0,0,0,-1,1728,960,0,0
511,64,0,0,0,0,0,0,0,0,0,-1,1735,960,0,0
518,64,0,0,0,0,0,0,0,0,0,-1,1742,960,0,0
525,64,0,0,0,0,0,0,0,0,0,-1,1749,960,0,0
532,64,0,0,0,0,0,0,0,0,0,-1,1756,960,0,0
539,64,0,0,0,0,0,0,0,0,0,-1,1763,960,0,0
546,64,0,0,0,0,0,0,0,0,0,-1,1770,960,0,0
553,64,0,0,0,0,0,0,0,0,0,-1,1777,960,0,0
560,64,0,0,0,0,0,0,0,0,0,-1,1784,960,0,0
567,64,0,0,0,0,0,0,0,0,0,-1,1791,960,0,0
574,64,0,0,0,0,0,0,0,0,0,-1,1798,960,0,0
581,64,0,0,0,0,0,0,0,0,0,-1,1805,960,0,0
588,64,0,0,0,0,0,0,0,0,0,-1,1812,960,0,0
595,64,0,0,0,0,0,0,0,0,0,-1,1819,960,0,0
602,64,0,0,0,0,0,0,0,0,0,-1,1826,960,0,0
609,64,0,0,0,0,0,0,0,0,0,-1,1833,960,0,0
616,64,0,0,0,0,0,0,0,0,0,-1,1840,960,0,0
623,64,0,0,0,0,0,0,0,0,0,-1,1847,960,0,0
630,64,0,0,0,0,0,0,0,0,0,-1,1854,960,0,0
637,64,0,0,0,0,0,0,0,0,0,-1,1861,960,0,0
644,64,228.409,8.79541,0,0,0,0,0,0,0,-1,1868,960,228.409,-8.79541
651,64,228.398,8.71466,0,0,0,0,0,0,0,-1,1875,960,228.398,-8.71465
658,64,228.432,8.73401,0,0,0,0,0,0,0,-1,1882,960,228.432,-8.734
665,64,228.412,8.68115,0,0,0,0,0,0,0,-1,1889,960,228.412,-8.68115
672,64,228.425,8.69568,0,0,0,0,0,0,0,-1,1896,960,228.425,-8.69565
679,64,228.438,8.68335,0,0,0,0,0,0,0,-1,1903,960,228.438,-8.68338
686,64,228.367,8.59631,0,0,0,0,0,0,0,-1,1910,960,228.367,-8.59631
693,64,228.439,8.45978,0,0,0,0,0,0,0,-1,1917,960,228.44,-8.4598
700,64,228.523,8.47247,0,0,0,0,0,0,0,-1,1924,960,228.524,-8.47249
707,64,190.186,7.72693,0,0,0,0,0,0,0,-1,1931,960,190.186,-7.72695
714,64,217.992,28.7947,0,0,0,0,0,0,0,-1,1938,960,217.992,-28.7947
721,64,226.093,30.1849,0,0,0,0,0,0,0,-1,1945,960,226.093,-30.1848
728,64,225.697,31.3187,-0.00264558,0.00451019,0.00144719,0.00479179,-0.00292718,1.37861,0.00449968,0.0409458,1952,960,225.697,-31.3187
735,64,225.488,32.4422,-0.00662842,0.0119778,-0.000540125,0.0119934,-0.00664409,-1.5418,0.0109071,0.0497037,1959,960,225.488,-32.4422
742,64,225.707,33.2225,-0.00987694,0.0193451,-0.00273617,0.0195991,-0.0101309,-1.47823,0.0174523,0.0416355,1966,960,225.707,-33.2225
749,64,225.607,34.0127,-0.0127509,0.0266303,-0.00492498,0.0272368,-0.0133574,-1.44825,0.0238894,0.0241076,1973,960,225.607,-34.0127
756,64,225.357,34.7784,-0.0151582,0.0337921,-0.00715652,0.034817,-0.016183,-1.42856,0.0300928,0.0217427,1980,960,225.357,-34.7784
763,64,225.277,35.595,-0.0170087,0.0407902,-0.00948773,0.0423077,-0.0185263,-1.41219,0.036006,0.0331813,1987,960,225.277,-35.595
770,64,224.874,36.2584,-0.0182173,0.0476133,-0.0119652,0.0497207,-0.0203246,-1.39646,0.0416108,0.0333741,1994,960,224.874,-36.2584
777,64,224.503,37.0189,-0.0188149,0.0541832,-0.0146985,0.0570317,-0.0216634,-1.37938,0.0469392,0.04935,2001,960,224.503,-37.0189
784,64,224.451,37.9863,0,0,0,0,0,0,0,-1,2008,960,224.451,-37.9863
791,64,223.182,38.1181,0,0,0,0,0,0,0,-1,2015,960,223.182,-38.1181
798,64,204.88,41.7885,0,0,0,0,0,0,0,-1,2022,960,204.88,-41.7885
805,64,71.8018,7.16925,0,0,0,0,0,0,0,-1,2029,960,71.8016,-7.16926
812,64,0,0,0,0,0,0,0,0,0,-1,2036,960,0,0
-700,57,0,0,0,0,0,0,0,0,0,-1,524,967,0,0
-693,57,0,0,0,0,0,0,0,0,0,-1,531,967,0,0
-686,57,-103.514,6.7984,0,0,0,0,0,0,0,-1,538,967,-103.514,-6.79842
-679,57,-81.4638,7.94403,0,0,0,0,0,0,0,-1,545,967,-81.4638,-7.94406
-672,57,-81.1378,8.84052,0,0,0,0,0,0,0,-1,552,967,-81.1378,-8.84049
-665,57,-69.8138,9.20465,0,0,0,0,0,0,0,-1,559,967,-69.8138,-9.20464
-658,57,-69.5607,9.87787,0,0,0,0,0,0,0,-1,566,967,-69.5607,-9.87786
-651,57,-219.578,37.2904,0,0,0,0,0,0,0,-1,573,967,-219.578,-37.2904
-644,57,-218.962,36.5797,0,0,0,0,0,0,0,-1,580,967,-218.962,-36.5797
-637,57,-218.506,35.8832,-0.0182069,0.049981,0.012675,0.0522609,-0.0204867,1.39283,0.0433157,0.0294533,587,967,-218.506,-35.8832
-630,57,-218.629,35.2277,-0.0133311,0.0422441,0.0103201,0.0440987,-0.0151856,1.39299,0.0355588,0.0210507,594,967,-218.629,-35.2277
-623,57,-218.739,34.5386,-0.00874449,0.0344187,0.00796582,0.0358418,-0.0101677,1.394,0.0279082,0.0182719,601,967,-218.739,-34.5386
-616,57,-218.793,33.7601,-0.00438704,0.0265135,0.00562985,0.0275072,-0.0053808,1.39608,0.02037,0.0217978,608,967,-218.792,-33.7601
-609,57,-218.892,32.9287,-0.00020101,0.0185357,0.00332883,0.0191095,-0.000774848,1.40009,0.0130056,0.0230788,615,967,-218.892,-32.9287
-602,57,-218.948,32.0477,0.00386954,0.0104908,0.00107803,0.0106619,0.00369845,1.4134,0.0062511,0.0146117,622,967,-218.948,-32.0476
-595,57,-219.035,31.1806,0.00787957,0.0023828,-0.0011085,0.00809469,0.00216767,-0.191686,0.00483856,0.0228926,629,967,-219.035,-31.1806
-588,57,-218.807,30.3417,0.0114048,-0.00588196,-0.00327687,0.0120051,-0.00648227,-0.181189,0.0108313,0.0407006,636,967,-218.807,-30.3417
-581,57,-218.567,29.3489,0,0,0,0,0,0,0,-1,643,967,-218.567,-29.349
-574,57,-72.3458,0.503174,0,0,0,0,0,0,0,-1,650,967,-72.3458,-0.503146
-567,57,-72.3713,0.355774,0,0,0,0,0,0,0,-1,657,967,-72.3714,-0.355774
-560,57,-72.4128,0.327271,0,0,0,0,0,0,0,-1,664,967,-72.4128,-0.327253
-553,57,-72.379,0.421326,0,0,0,0,0,0,0,-1,671,967,-72.379,-0.4213
-546,57,-72.3694,0.425354,0,0,0,0,0,0,0,-1,678,967,-72.3694,-0.425354
-539,57,-72.5713,0.431824,0,0,0,0,0,0,0,-1,685,967,-72.5713,-0.431793
-532,57,-72.5948,0.583679,0,0,0,0,0,0,0,-1,692,967,-72.5948,-0.583709
-525,57,-72.3409,0.563782,0,0,0,0,0,0,0,-1,699,967,-72.3409,-0.563798
-518,57,0,0,0,0,0,0,0,0,0,-1,706,967,0,0
-511,57,0,0,0,0,0,0,0,0,0,-1,713,967,0,0
-504,57,0,0,0,0,0,0,0,0,0,-1,720,967,0,0
-497,57,0,0,0,0,0,0,0,0,0,-1,727,967,0,0
-490,57,0,0,0,0,0,0,0,0,0,-1,734,967,0,0
-483,57,0,0,0,0,0,0,0,0,0,-1,741,967,0,0
-476,57,0,0,0,0,0,0,0,0,0,-1,748,967,0,0
-469,57,0,0,0,0,0,0,0,0,0,-1,755,967,0,0
-462,57,0,0,0,0,0,0,0,0,0,-1,762,967,0,0
-455,57,0,0,0,0,0,0,0,0,0,-1,769,967,0,0
-448,57,0,0,0,0,0,0,0,0,0,-1,776,967,0,0
-441,57,0,0,0,0,0,0,0,0,0,-1,783,967,0,0
-434,57,0,0,0,0,0,0,0,0,0,-1,790,967,0,0
-427,57,0,0,0,0,0,0,0,0,0,-1,797,967,0,0
-420,57,0,0,0,0,0,0,0,0,0,-1,804,967,0,0
-413,57,0,0,0,0,0,0,0,0,0,-1,811,967,0,0
-406,57,0,0,0,0,0,0,0,0,0,-1,818,967,0,0
-399,57,0,0,0,0,0,0,0,0,0,-1,825,967,0,0
-392,57,0,0,0,0,0,0,0,0,0,-1,832,967,0,0
-385,57,0,0,0,0,0,0,0,0,0,-1,839,967,0,0
-378,57,0,0,0,0,0,0,0,0,0,-1,846,967,0,0
-371,57,0,0,0,0,0,0,0,0,0,-1,853,967,0,0
-364,57,0,0,0,0,0,0,0,0,0,-1,860,967,0,0
-357,57,0,0,0,0,0,0,0,0,0,-1,867,967,0,0
-350,57,0,0,0,0,0,0,0,0,0,-1,874,967,0,0
-343,57,0,0,0,0,0,0,0,0,0,-1,881,967,0,0
-336,57,0,0,0,0,0,0,0,0,0,-1,888,967,0,0
-329,57,0,0,0,0,0,0,0,0,0,-1,895,967,0,0
-322,57,0,0,0,0,0,0,0,0,0,-1,902,967,0,0
-315,57,0,0,0,0,0,0,0,0,0,-1,909,967,0,0
-308,57,0,0,0,0,0,0,0,0,0,-1,916,967,0,0
-301,57,0,0,0,0,0,0,0,0,0,-1,923,967,0,0
-294,57,0,0,0,0,0,0,0,0,0,-1,930,967,0,0
-287,57,0,0,0,0,0,0,0,0,0,-1,937,967,0,0
-280,57,0,0,0,0,0,0,0,0,0,-1,944,967,0,0
-273,57,0,0,0,0,0,0,0,0,0,-1,951,967,0,0
-266,57,0,0,0,0,0,0,0,0,0,-1,958,967,0,0
-259,57,0,0,0,0,0,0,0,0,0,-1,965,967,0,0
-252,57,0,0,0,0,0,0,0,0,0,-1,972,967,0,0
-245,57,0,0,0,0,0,0,0,0,0,-1,979,967,0,0
-238,57,0,0,0,0,0,0,0,0,0,-1,986,967,0,0
-231,57,0,0,0,0,0,0,0,0,0,-1,993,967,0,0
-224,57,0,0,0,0,0,0,0,0,0,-1,1000,967,0,0
-217,57,0,0,0,0,0,0,0,0,0,-1,1007,967,0,0
-210,57,0,0,0,0,0,0,0,0,0,-1,1014,967,0,0
-203,57,0,0,0,0,0,0,0,0,0,-1,1021,967,0,0
-196,57,0,0,0,0,0,0,0,0,0,-1,1028,967,0,0
-189,57,0,0,0,0,0,0,0,0,0,-1,1035,967,0,0
-182,57,0,0,0,0,0,0,0,0,0,-1,1042,967,0,0
-175,57,0,0,0,0,0,0,0,0,0,-1,1049,967,0,0
-168,57,0,0,0,0,0,0,0,0,0,-1,1056,967,0,0
-161,57,0,0,0,0,0,0,0,0,0,-1,1063,967,0,0
-154,57,0,0,0,0,0,0,0,0,0,-1,1070,967,0,0
-147,57,0,0,0,0,0,0,0,0,0,-1,1077,967,0,0
-140,57,0,0,0,0,0,0,0,0,0,-1,1084,967,0,0
-133,57,0,0,0,0,0,0,0,0,0,-1,1091,967,0,0
-126,57,0,0,0,0,0,0,0,0,0,-1,1098,967,0,0
-119,57,0,0,0,0,0,0,0,0,0,-1,1105,967,0,0
-112,57,0,0,0,0,0,0,0,0,0,-1,1112,967,0,0
-105,57,0,0,0,0,0,0,0,0,0,-1,1119,967,0,0
-98,57,0,0,0,0,0,0,0,0,0,-1,1126,967,0,0
-91,57,0,0,0,0,0,0,0,0,0,-1,1133,967,0,0
-84,57,0,0,0,0,0,0,0,0,0,-1,1140,967,0,0
-77,57,0,0,0,0,0,0,0,0,0,-1,1147,967,0,0
-70,57,0,0,0,0,0,0,0,0,0,-1,1154,967,0,0
-63,57,0,0,0,0,0,0,0,0,0,-1,1161,967,0,0
-56,57,0,0,0,0,0,0,0,0,0,-1,1168,967,0,0
-49,57,0,0,0,0,0,0,0,0,0,-1,1175,967,0,0
-42,57,0,0,0,0,0,0,0,0,0,-1,1182,967,0,0
-35,57,0,0,0,0,0,0,0,0,0,-1,1189,967,0,0
-28,57,0,0,0,0,0,0,0,0,0,-1,1196,967,0,0
-21,57,0,0,0,0,0,0,0,0,0,-1,1203,967,0,0
-14,57,0,0,0,0,0,0,0,0,0,-1,1210,967,0,0
-7,57,0,0,0,0,0,0,0,0,0,-1,1217,967,0,0
0,57,0,0,0,0,0,0,0,0,0,-1,1224,967,0,0
7,57,0,0,0,0,0,0,0,0,0,-1,1231,967,0,0
14,57,0,0,0,0,0,0,0,0,0,-1,1238,967,0,0
21,57,0,0,0,0,0,0,0,0,0,-1,1245,967,0,0
28,57,0,0,0,0,0,0,0,0,0,-1,1252,967,0,0
35,57,0,0,0,0,0,0,0,0,0,-1,1259,967,0,0
42,57,0,0,0,0,0,0,0,0,0,-1,1266,967,0,0
49,57,0,0,0,0,0,0,0,0,0,-1,1273,967,0,0
56,57,0,0,0,0,0,0,0,0,0,-1,1280,967,0,0
63,57,0,0,0,0,0,0,0,0,0,-1,1287,967,0,0
70,57,0,0,0,0,0,0,0,0,0,-1,1294,967,0,0
77,57,0,0,0,0,0,0,0,0,0,-1,1301,967,0,0
84,57,0,0,0,0,0,0,0,0,0,-1,1308,967,0,0
91,57,0,0,0,0,0,0,0,0,0,-1,1315,967,0,0
98,57,0,0,0,0,0,0,0,0,0,-1,1322,967,0,0
105,57,0,0,0,0,0,0,0,0,0,-1,1329,967,0,0
112,57,0,0,0,0,0,0,0,0,0,-1,1336,967,0,0
119,57,0,0,0,0,0,0,0,0,0,-1,1343,967,0,0
126,57,0,0,0,0,0,0,0,0,0,-1,1350,967,0,0
133,57,0,0,0,0,0,0,0,0,0,-1,1357,967,0,0
140,57,0,0,0,0,0,0,0,0,0,-1,1364,967,0,0
147,57,0,0,0,0,0,0,0,0,0,-1,1371,967,0,0
154,57,0,0,0,0,0,0,0,0,0,-1,1378,967,0,0
161,57,0,0,0,0,0,0,0,0,0,-1,1385,967,0,0
168,57,0,0,0,0,0,0,0,0,0,-1,1392,967,0,0
175,57,0,0,0,0,0,0,0,0,0,-1,1399,967,0,0
182,57,0,0,0,0,0,0,0,0,0,-1,1406,967,0,0
189,57,0,0,0,0,0,0,0,0,0,-1,1413,967,0,0
196,57,0,0,0,0,0,0,0,0,0,-1,1420,967,0,0
203,57,0,0,0,0,0,0,0,0,0,-1,1427,967,0,0
210,57,0,0,0,0,0,0,0,0,0,-1,1434,967,0,0
217,57,0,0,0,0,0,0,0,0,0,-1,1441,967,0,0
224,57,0,0,0,0,0,0,0,0,0,-1,1448,967,0,0
231,57,0,0,0,0,0,0,0,0,0,-1,1455,967,0,0
238,57,0,0,0,0,0,0,0,0,0,-1,1462,967,0,0
245,57,0,0,0,0,0,0,0,0,0,-1,1469,967,0,0
252,57,0,0,0,0,0,0,0,0,0,-1,1476,967,0,0
259,57,0,0,0,0,0,0,0,0,0,-1,1483,967,0,0
266,57,0,0,0,0,0,0,0,0,0,-1,1490,967,0,0
273,57,0,0,0,0,0,0,0,0,0,-1,1497,967,0,0
280,57,0,0,0,0,0,0,0,0,0,-1,1504,967,0,0
287,57,0,0,0,0,0,0,0,0,0,-1,1511,967,0,0
294,57,0,0,0,0,0,0,0,0,0,-1,1518,967,0,0
301,57,0,0,0,0,0,0,0,0,0,-1,1525,967,0,0
308,57,0,0,0,0,0,0,0,0,0,-1,1532,967,0,0
315,57,0,0,0,0,0,0,0,0,0,-1,1539,967,0,0
322,57,0,0,0,0,0,0,0,0,0,-1,1546,967,0,0
329,57,0,0,0,0,0,0,0,0,0,-1,1553,967,0,0
336,57,0,0,0,0,0,0,0,0,0,-1,1560,967,0,0
343,57,0,0,0,0,0,0,0,0,0,-1,1567,967,0,0
350,57,0,0,0,0,0,0,0,0,0,-1,1574,967,0,0
357,57,0,0,0,0,0,0,0,0,0,-1,1581,967,0,0
364,57,0,0,0,0,0,0,0,0,0,-1,1588,967,0,0
371,57,0,0,0,0,0,0,0,0,0,-1,1595,967,0,0
378,57,0,0,0,0,0,0,0,0,0,-1,1602,967,0,0
385,57,0,0,0,0,0,0,0,0,0,-1,1609,967,0,0
392,57,0,0,0,0,0,0,0,0,0,-1,1616,967,0,0
399,57,0,0,0,0,0,0,0,0,0,-1,1623,967,0,0
406,57,0,0,0,0,0,0,0,0,0,-1,1630,967,0,0
413,57,0,0,0,0,0,0,0,0,0,-1,1637,967,0,0
420,57,0,0,0,0,0,0,0,0,0,-1,1644,967,0,0
427,57,0,0,0,0,0,0,0,0,0,-1,1651,967,0,0
434,57,0,0,0,0,0,0,0,0,0,-1,1658,967,0,0
441,57,0,0,0,0,0,0,0,0,0,-1,1665,967,0,0
448,57,0,0,0,0,0,0,0,0,0,-1,1672,967,0,0
455,57,0,0,0,0,0,0,0,0,0,-1,1679,967,0,0
462,57,0,0,0,0,0,0,0,0,0,-1,1686,967,0,0
469,57,0,0,0,0,0,0,0,0,0,-1,1693,967,0,0
476,57,0,0,0,0,0,0,0,0,0,-1,1700,967,0,0
483,57,0,0,0,0,0,0,0,0,0,-1,1707,967,0,0
490,57,0,0,0,0,0,0,0,0,0,-1,1714,967,0,0
497,57,0,0,0,0,0,0,0,0,0,-1,1721,967,0,0
504,57,0,0,0,0,0,0,0,0,0,-1,1728,967,0,0
511,57,0,0,0,0,0,0,0,0,0,-1,1735,967,0,0
518,57,0,0,0,0,0,0,0,0,0,-1,1742,967,0,0
525,57,0,0,0,0,0,0,0,0,0,-1,1749,967,0,0
532,57,0,0,0,0,0,0,0,0,0,-1,1756,967,0,0
539,57,0,0,0,0,0,0,0,0,0,-1,1763,967,0,0
546,57,0,0,0,0,0,0,0,0,0,-1,1770,967,0,0
553,57,0,0,0,0,0,0,0,0,0,-1,1777,967,0,0
560,57,0,0,0,0,0,0,0,0,0,-1,1784,967,0,0
567,57,0,0,0,0,0,0,0,0,0,-1,1791,967,0,0
574,57,0,0,0,0,0,0,0,0,0,-1,1798,967,0,0
581,57,0,0,0,0,0,0,0,0,0,-1,1805,967,0,0
588,57,0,0,0,0,0,0,0,0,0,-1,1812,967,0,0
595,57,0,0,0,0,0,0,0,0,0,-1,1819,967,0,0
602,57,0,0,0,0,0,0,0,0,0,-1,1826,967,0,0
609,57,0,0,0,0,0,0,0,0,0,-1,1833,967,0,0
616,57,0,0,0,0,0,0,0,0,0,-1,1840,967,0,0
623,57,0,0,0,0,0,0,0,0,0,-1,1847,967,0,0
630,57,0,0,0,0,0,0,0,0,0,-1,1854,967,0,0
637,57,0,0,0,0,0,0,0,0,0,-1,1861,967,0,0
644,57,228.429,8.85577,0,0,0,0,0,0,0,-1,1868,967,228.429,-8.85575
651,57,228.316,8.83484,0,0,0,0,0,0,0,-1,1875,967,228.316,-8.83487
658,57,228.366,8.7334,0,0,0,0,0,0,0,-1,1882,967,228.366,-8.73337
665,57,228.315,8.63116,0,0,0,0,0,0,0,-1,1889,967,228.315,-8.63115
672,57,228.392,8.61163,0,0,0,0,0,0,0,-1,1896,967,228.392,-8.61166
679,57,228.4,8.59753,0,0,0,0,0,0,0,-1,1903,967,228.4,-8.59754
686,57,228.325,8.59027,0,0,0,0,0,0,0,-1,1910,967,228.326,-8.59026
693,57,228.328,8.52435,0,0,0,0,0,0,0,-1,1917,967,228.328,-8.52435
700,57,228.4,8.55322,0,0,0,0,0,0,0,-1,1924,967,228.4,-8.55321
707,57,222.851,9.51062,0,0,0,0,0,0,0,-1,1931,967,222.851,-9.51064
714,57,218.394,29.1464,0,0,0,0,0,0,0,-1,1938,967,218.394,-29.1464
721,57,227.097,30.4957,0,0,0,0,0,0,0,-1,1945,967,227.098,-30.4958
728,57,226.752,31.3802,-0.00015052,0.0024931,0.00183942,0.00343638,-0.0010938,1.09695,0.00272958,0.0321576,1952,967,226.752,-31.3802
735,57,226.639,32.2672,-0.00476083,0.010235,-5.02689e-05,0.0102352,-0.004761,-1.56744,0.00884825,0.0409875,1959,967,226.639,-32.2672
742,57,226.596,32.9915,-0.00842782,0.0177937,-0.00223913,0.0179835,-0.00861765,-1.48622,0.0156723,0.0288765,1966,967,226.596,-32.9915
749,57,226.477,33.8266,-0.0116474,0.0252278,-0.00445728,0.0257589,-0.0121786,-1.4522,0.0223661,0.019808,1973,967,226.477,-33.8266
756,57,226.279,34.6101,-0.0143354,0.0325066,-0.00675251,0.0334606,-0.0152893,-1.43045,0.0287901,0.019597,1980,967,226.279,-34.6101
763,57,226.055,35.3914,-0.0164077,0.0395991,-0.00918082,0.0410656,-0.0178742,-1.41239,0.034896,0.0223714,1987,967,226.056,-35.3914
770,57,225.799,36.1256,-0.0177813,0.0464845,-0.0118027,0.0485835,-0.0198804,-1.39479,0.0406691,0.0217341,1994,967,225.799,-36.1256
777,57,225.623,36.9199,-0.0184686,0.0531201,-0.014713,0.056026,-0.0213745,-1.3758,0.0461558,0.0379467,2001,967,225.623,-36.9199
784,57,225.508,37.6894,-0.01667,0.0590109,-0.0181741,0.063149,-0.0208081,-1.34692,0.0504856,0.0450208,2008,967,225.508,-37.6894
791,57,225.306,38.5142,0,0,0,0,0,0,0,-1,2015,967,225.306,-38.5142
798,57,219.228,38.0513,0,0,0,0,0,0,0,-1,2022,967,219.228,-38.0513
805,57,206.221,43.4042,0,0,0,0,0,0,0,-1,2029,967,206.221,-43.4043
812,57,0,0,0,0,0,0,0,0,0,-1,2036,967,0,0
-700,50,0,0,0,0,0,0,0,0,0,-1,524,974,0,0
-693,50,-102.432,2.85944,0,0,0,0,0,0,0,-1,531,974,-102.432,-2.85945
-686,50,-102.001,5.11273,0,0,0,0,0,0,0,-1,538,974,-102.001,-5.11273
-679,50,-100.914,6.28094,0,0,0,0,0,0,0,-1,545,974,-100.914,-6.28094
-672,50,-81.1913,8.17609,0,0,0,0,0,0,0,-1,552,974,-81.1913,-8.17607
-665,50,-66.1696,0.16217,0,0,0,0,0,0,0,-1,559,974,-66.1696,-0.162174
-658,50,-67.4576,10.0194,0,0,0,0,0,0,0,-1,566,974,-67.4576,-10.0194
-651,50,-218.529,36.6538,0,0,0,0,0,0,0,-1,573,974,-218.529,-36.6538
-644,50,-219.677,36.408,0,0,0,0,0,0,0,-1,580,974,-219.677,-36.408
-637,50,-219.366,35.637,-0.0179291,0.049089,0.0117776,0.0510985,-0.0199386,1.4018,0.042308,0.0271527,587,974,-219.366,-35.637
-630,50,-219.503,35.0327,-0.0126004,0.0413418,0.00954185,0.0429799,-0.0142385,1.40078,0.0343962,0.0166441,594,974,-219.503,-35.0327
-623,50,-219.59,34.4055,-0.00758937,0.0334923,0.00732349,0.0347588,-0.00885586,1.39955,0.0266201,0.0173435,601,974,-219.59,-34.4055
-616,50,-219.692,33.6884,-0.00283072,0.0255535,0.00514249,0.0264565,-0.00373368,1.39698,0.0190049,0.0178667,608,974,-219.692,-33.6884
-609,50,-219.734,32.831,0.00173787,0.0175378,0.00301782,0.0180945,0.00118108,1.38835,0.0116892,0.0168746,615,974,-219.734,-32.831
-602,50,-219.785,32.0416,0.00617618,0.00945611,0.000967432,0.0097202,0.00591209,1.30431,0.00565561,0.0144611,622,974,-219.785,-32.0416
-595,50,-219.836,31.2251,0.0105422,0.00131886,-0.000991857,0.0106477,0.0012134,-0.105924,0.00673053,0.0172007,629,974,-219.836,-31.2251
-588,50,-219.751,30.1387,0,0,0,0,0,0,0,-1,636,974,-219.751,-30.1387
-581,50,-219.156,28.5698,0,0,0,0,0,0,0,-1,643,974,-219.156,-28.5698
-574,50,-72.3653,0.396179,0,0,0,0,0,0,0,-1,650,974,-72.3653,-0.396162
-567,50,-72.3264,0.2995,0,0,0,0,0,0,0,-1,657,974,-72.3264,-0.299482
-560,50,-72.3513,0.199829,0,0,0,0,0,0,0,-1,664,974,-72.3513,-0.199808
-553,50,-72.4231,0.359375,0,0,0,0,0,0,0,-1,671,974,-72.4231,-0.359398
-546,50,-72.4158,0.498962,0,0,0,0,0,0,0,-1,678,974,-72.4158,-0.498949
-539,50,-72.4652,0.52063,0,0,0,0,0,0,0,-1,685,974,-72.4652,-0.520637
-532,50,-72.4564,0.349854,0,0,0,0,0,0,0,-1,692,974,-72.4564,-0.349861
-525,50,-72.4167,0.362976,0,0,0,0,0,0,0,-1,699,974,-72.4167,-0.362984
-518,50,0,0,0,0,0,0,0,0,0,-1,706,974,0,0
-511,50,0,0,0,0,0,0,0,0,0,-1,713,974,0,0
-504,50,0,0,0,0,0,0,0,0,0,-1,720,974,0,0
-497,50,0,0,0,0,0,0,0,0,0,-1,727,974,0,0
-490,50,0,0,0,0,0,0,0,0,0,-1,734,974,0,0
-483,50,0,0,0,0,0,0,0,0,0,-1,741,974,0,0
-476,50,0,0,0,0,0,0,0,0,0,-1,748,974,0,0
-469,50,0,0,0,0,0,0,0,0,0,-1,755,974,0,0
-462,50,0,0,0,0,0,0,0,0,0,-1,762,974,0,0
-455,50,0,0,0,0,0,0,0,0,0,-1,769,974,0,0
-448,50,0,0,0,0,0,0,0,0,0,-1,776,974,0,0
-441,50,0,0,0,0,0,0,0,0,0,-1,783,974,0,0
-434,50,0,0,0,0,0,0,0,0,0,-1,790,974,0,0
-427,50,0,0,0,0,0,0,0,0,0,-1,797,974,0,0
-420,50,0,0,0,0,0,0,0,0,0,-1,804,974,0,0
-413,50,0,0,0,0,0,0,0,0,0,-1,811,974,0,0
-406,50,0,0,0,0,0,0,0,0,0,-1,818,974,0,0
-399,50,0,0,0,0,0,0,0,0,0,-1,825,974,0,0
-392,50,0,0,0,0,0,0,0,0,0,-1,832,974,0,0
-385,50,0,0,0,0,0,0,0,0,0,-1,839,974,0,0
-378,50,0,0,0,0,0,0,0,0,0,-1,846,974,0,0
-371,50,0,0,0,0,0,0,0,0,0,-1,853,974,0,0
-364,50,0,0,0,0,0,0,0,0,0,-1,860,974,0,0
-357,50,0,0,0,0,0,0,0,0,0,-1,867,974,0,0
-350,50,0,0,0,0,0,0,0,0,0,-1,874,974,0,0
-343,50,0,0,0,0,0,0,0,0,0,-1,881,974,0,0
-336,50,0,0,0,0,0,0,0,0,0,-1,888,974,0,0
-329,50,0,0,0,0,0,0,0,0,0,-1,895,974,0,0
-322,50,0,0,0,0,0,0,0,0,0,-1,902,974,0,0
-315,50,0,0,0,0,0,0,0,0,0,-1,909,974,0,0
-308,50,0,0,0,0,0,0,0,0,0,-1,916,974,0,0
-301,50,0,0,0,0,0,0,0,0,0,-1,923,974,0,0
-294,50,0,0,0,0,0,0,0,0,0,-1,930,974,0,0
-287,50,0,0,0,0,0,0,0,0,0,-1,937,974,0,0
-280,50,0,0,0,0,0,0,0,0,0,-1,944,974,0,0
-273,50,0,0,0,0,0,0,0,0,0,-1,951,974,0,0
-266,50,0,0,0,0,0,0,0,0,0,-1,958,974,0,0
-259,50,0,0,0,0,0,0,0,0,0,-1,965,974,0,0
-252,50,0,0,0,0,0,0,0,0,0,-1,972,974,0,0
-245,50,0,0,0,0,0,0,0,0,0,-1,979,974,0,0
-238,50,0,0,0,0,0,0,0,0,0,-1,986,974,0,0
-231,50,0,0,0,0,0,0,0,0,0,-1,993,974,0,0
-224,50,0,0,0,0,0,0,0,0,0,-1,1000,974,0,0
-217,50,0,0,0,0,0,0,0,0,0,-1,1007,974,0,0
-210,50,0,0,0,0,0,0,0,0,0,-1,1014,974,0,0
-203,50,0,0,0,0,0,0,0,0,0,-1,1021,974,0,0
-196,50,0,0,0,0,0,0,0,0,0,-1,1028,974,0,0
-189,50,0,0,0,0,0,0,0,0,0,-1,1035,974,0,0
-182,50,0,0,0,0,0,0,0,0,0,-1,1042,974,0,0
-175,50,0,0,0,0,0,0,0,0,0,-1,1049,974,0,0
-168,50,0,0,0,0,0,0,0,0,0,-1,1056,974,0,0
-161,50,0,0,0,0,0,0,0,0,0,-1,1063,974,0,0
-154,50,0,0,0,0,0,0,0,0,0,-1,1070,974,0,0
-147,50,0,0,0,0,0,0,0,0,0,-1,1077,974,0,0
-140,50,0,0,0,0,0,0,0,0,0,-1,1084,974,0,0
-133,50,0,0,0,0,0,0,0,0,0,-1,1091,974,0,0
-126,50,0,0,0,0,0,0,0,0,0,-1,1098,974,0,0
-119,50,0,0,0,0,0,0,0,0,0,-1,1105,974,0,0
-112,50,0,0,0,0,0,0,0,0,0,-1,1112,974,0,0
-105,50,0,0,0,0,0,0,0,0,0,-1,1119,974,0,0
-98,50,0,0,0,0,0,0,0,0,0,-1,1126,974,0,0
-91,50,0,0,0,0,0,0,0,0,0,-1,1133,974,0,0
-84,50,0,0,0,0,0,0,0,0,0,-1,1140,974,0,0
-77,50,0,0,0,0,0,0,0,0,0,-1,1147,974,0,0
-70,50,0,0,0,0,0,0,0,0,0,-1,1154,974,0,0
-63,50,0,0,0,0,0,0,0,0,0,-1,1161,974,0,0
-56,50,0,0,0,0,0,0,0,0,0,-1,1168,974,0,0
-49,50,0,0,0,0,0,0,0,0,0,-1,1175,974,0,0
-42,50,0,0,0,0,0,0,0,0,0,-1,1182,974,0,0
-35,50,0,0,0,0,0,0,0,0,0,-1,1189,974,0,0
-28,50,0,0,0,0,0,0,0,0,0,-1,1196,974,0,0
-21,50,0,0,0,0,0,0,0,0,0,-1,1203,974,0,0
-14,50,0,0,0,0,0,0,0,0,0,-1,1210,974,0,0
-7,50,0,0,0,0,0,0,0,0,0,-1,1217,974,0,0
0,50,0,0,0,0,0,0,0,0,0,-1,1224,974,0,0
7,50,0,0,0,0,0,0,0,0,0,-1,1231,974,0,0
14,50,0,0,0,0,0,0,0,0,0,-1,1238,974,0,0
21,50,0,0,0,0,0,0,0,0,0,-1,1245,974,0,0
28,50,0,0,0,0,0,0,0,0,0,-1,1252,974,0,0
35,50,0,0,0,0,0,0,0,0,0,-1,1259,974,0,0
42,50,0,0,0,0,0,0,0,0,0,-1,1266,974,0,0
49,50,0,0,0,0,0,0,0,0,0,-1,1273,974,0,0
56,50,0,0,0,0,0,0,0,0,0,-1,1280,974,0,0
63,50,0,0,0,0,0,0,0,0,0,-1,1287,974,0,0
70,50,0,0,0,0,0,0,0,0,0,-1,1294,974,0,0
77,50,0,0,0,0,0,0,0,0,0,-1,1301,974,0,0
84,50,0,0,0,0,0,0,0,0,0,-1,1308,974,0,0
91,50,0,0,0,0,0,0,0,0,0,-1,1315,974,0,0
98,50,0,0,0,0,0,0,0,0,0,-1,1322,974,0,0
105,50,0,0,0,0,0,0,0,0,0,-1,1329,974,0,0
112,50,0,0,0,0,0,0,0,0,0,-1,1336,974,0,0
119,50,0,0,0,0,0,0,0,0,0,-1,1343,974,0,0
126,50,0,0,0,0,0,0,0,0,0,-1,1350,974,0,0
133,50,0,0,0,0,0,0,0,0,0,-1,1357,974,0,0
140,50,0,0,0,0,0,0,0,0,0,-1,1364,974,0,0
147,50,0,0,0,0,0,0,0,0,0,-1,1371,974,0,0
154,50,0,0,0,0,0,0,0,0,0,-1,1378,974,0,0
161,50,0,0,0,0,0,0,0,0,0,-1,1385,974,0,0
168,50,0,0,0,0,0,0,0,0,0,-1,1392,974,0,0
175,50,0,0,0,0,0,0,0,0,0,-1,1399,974,0,0
182,50,0,0,0,0,0,0,0,0,0,-1,1406,974,0,0
189,50,0,0,0,0,0,0,0,0,0,-1,1413,974,0,0
196,50,0,0,0,0,0,0,0,0,0,-1,1420,974,0,0
203,50,0,0,0,0,0,0,0,0,0,-1,1427,974,0,0
210,50,0,0,0,0,0,0,0,0,0,-1,1434,974,0,0
217,50,0,0,0,0,0,0,0,0,0,-1,1441,974,0,0
224,50,0,0,0,0,0,0,0,0,0,-1,1448,974,0,0
231,50,0,0,0,0,0,0,0,0,0,-1,1455,974,0,0
238,50,0,0,0,0,0,0,0,0,0,-1,1462,974,0,0
245,50,0,0,0,0,0,0,0,0,0,-1,1469,974,0,0
252,50,0,0,0,0,0,0,0,0,0,-1,1476,974,0,0
259,50,0,0,0,0,0,0,0,0,0,-1,1483,974,0,0
266,50,0,0,0,0,0,0,0,0,0,-1,1490,974,0,0
273,50,0,0,0,0,0,0,0,0,0,-1,1497,974,0,0
280,50,0,0,0,0,0,0,0,0,0,-1,1504,974,0,0
287,50,0,0,0,0,0,0,0,0,0,-1,1511,974,0,0
294,50,0,0,0,0,0,0,0,0,0,-1,1518,974,0,0
301,50,0,0,0,0,0,0,0,0,0,-1,1525,974,0,0
308,50,0,0,0,0,0,0,0,0,0,-1,1532,974,0,0
315,50,0,0,0,0,0,0,0,0,0,-1,1539,974,0,0
322,50,0,0,0,0,0,0,0,0,0,-1,1546,974,0,0
329,50,0,0,0,0,0,0,0,0,0,-1,1553,974,0,0
336,50,0,0,0,0,0,0,0,0,0,-1,1560,974,0,0
343,50,0,0,0,0,0,0,0,0,0,-1,1567,974,0,0
350,50,0,0,0,0,0,0,0,0,0,-1,1574,974,0,0
357,50,0,0,0,0,0,0,0,0,0,-1,1581,974,0,0
364,50,0,0,0,0,0,0,0,0,0,-1,1588,974,0,0
371,50,0,0,0,0,0,0,0,0,0,-1,1595,974,0,0
378,50,0,0,0,0,0,0,0,0,0,-1,1602,974,0,0
385,50,0,0,0,0,0,0,0,0,0,-1,1609,974,0,0
392,50,0,0,0,0,0,0,0,0,0,-1,1616,974,0,0
399,50,0,0,0,0,0,0,0,0,0,-1,1623,974,0,0
406,50,0,0,0,0,0,0,0,0,0,-1,1630,974,0,0
413,50,0,0,0,0,0,0,0,0,0,-1,1637,974,0,0
420,50,0,0,0,0,0,0,0,0,0,-1,1644,974,0,0
427,50,0,0,0,0,0,0,0,0,0,-1,1651,974,0,0
434,50,0,0,0,0,0,0,0,0,0,-1,1658,974,0,0
441,50,0,0,0,0,0,0,0,0,0,-1,1665,974,0,0
448,50,0,0,0,0,0,0,0,0,0,-1,1672,974,0,0
455,50,0,0,0,0,0,0,0,0,0,-1,1679,974,0,0
462,50,0,0,0,0,0,0,0,0,0,-1,1686,974,0,0
469,50,0,0,0,0,0,0,0,0,0,-1,1693,974,0,0
476,50,0,0,0,0,0,0,0,0,0,-1,1700,974,0,0
483,50,0,0,0,0,0,0,0,0,0,-1,1707,974,0,0
490,50,0,0,0,0,0,0,0,0,0,-1,1714,974,0,0
497,50,0,0,0,0,0,0,0,0,0,-1,1721,974,0,0
504,50,0,0,0,0,0,0,0,0,0,-1,1728,974,0,0
511,50,0,0,0,0,0,0,0,0,0,-1,1735,974,0,0
518,50,0,0,0,0,0,0,0,0,0,-1,1742,974,0,0
525,50,0,0,0,0,0,0,0,0,0,-1,1749,974,0,0
532,50,0,0,0,0,0,0,0,0,0,-1,1756,974,0,0
539,50,0,0,0,0,0,0,0,0,0,-1,1763,974,0,0
546,50,0,0,0,0,0,0,0,0,0,-1,1770,974,0,0
553,50,0,0,0,0,0,0,0,0,0,-1,1777,974,0,0
560,50,0,0,0,0,0,0,0,0,0,-1,1784,974,0,0
567,50,0,0,0,0,0,0,0,0,0,-1,1791,974,0,0
574,50,0,0,0,0,0,0,0,0,0,-1,1798,974,0,0
581,50,0,0,0,0,0,0,0,0,0,-1,1805,974,0,0
588,50,0,0,0,0,0,0,0,0,0,-1,1812,974,0,0
595,50,0,0,0,0,0,0,0,0,0,-1,1819,974,0,0
602,50,0,0,0,0,0,0,0,0,0,-1,1826,974,0,0
609,50,0,0,0,0,0,0,0,0,0,-1,1833,974,0,0
616,50,0,0,0,0,0,0,0,0,0,-1,1840,974,0,0
623,50,0,0,0,0,0,0,0,0,0,-1,1847,974,0,0
630,50,0,0,0,0,0,0,0,0,0,-1,1854,974,0,0
637,50,0,0,0,0,0,0,0,0,0,-1,1861,974,0,0
644,50,228.307,8.83105,0,0,0,0,0,0,0,-1,1868,974,228.307,-8.83106
651,50,228.229,8.90057,0,0,0,0,0,0,0,-1,1875,974,228.23,-8.90056
658,50,228.302,8.79218,0,0,0,0,0,0,0,-1,1882,974,228.302,-8.79216
665,50,228.28,8.59875,0,0,0,0,0,0,0,-1,1889,974,228.28,-8.59877
672,50,228.361,8.47833,0,0,0,0,0,0,0,-1,1896,974,228.361,-8.47832
679,50,228.333,8.56354,0,0,0,0,0,0,0,-1,1903,974,228.333,-8.56352
686,50,228.326,8.60742,0,0,0,0,0,0,0,-1,1910,974,228.326,-8.6074
693,50,228.187,8.64038,0,0,0,0,0,0,0,-1,1917,974,228.187,-8.64038
700,50,228.214,8.62164,0,0,0,0,0,0,0,-1,1924,974,228.214,-8.62165
707,50,222.772,9.27673,0,0,0,0,0,0,0,-1,1931,974,222.772,-9.27674
714,50,205.916,7.94446,0,0,0,0,0,0,0,-1,1938,974,205.916,-7.94446
721,50,227.592,30.6581,0,0,0,0,0,0,0,-1,1945,974,227.592,-30.6581
728,50,227.68,31.3724,0.00226454,0.000720075,0.00228555,0.00390479,-0.000920175,0.622481,0.00295802,0.0259067,1952,974,227.68,-31.3724
735,50,227.597,32.1875,-0.00295981,0.00866902,0.000471396,0.0086881,-0.00297889,1.53035,0.00699961,0.0252505,1959,974,227.597,-32.1875
742,50,227.427,33.0591,-0.00706145,0.0163844,-0.00169597,0.0165064,-0.00718349,-1.49896,0.014026,0.0204825,1966,974,227.427,-33.0591
749,50,227.333,33.735,-0.0106628,0.0239614,-0.00390422,0.0243962,-0.0110976,-1.45989,0.0209663,0.0221506,1973,974,227.334,-33.735
756,50,227.159,34.4264,-0.0136881,0.0313787,-0.00620051,0.0322162,-0.0145257,-1.43653,0.0276232,0.0227715,1980,974,227.159,-34.4264
763,50,226.936,35.1683,-0.0160606,0.0386138,-0.0086408,0.0399469,-0.0173937,-1.41772,0.0339484,0.022528,1987,974,226.936,-35.1684
770,50,226.728,35.8577,-0.0177021,0.0456438,-0.0112901,0.0475959,-0.0196542,-1.39959,0.0399284,0.0216799,1994,974,226.728,-35.8577
777,50,226.699,36.6302,-0.0186334,0.0524673,-0.0142353,0.0552115,-0.0213776,-1.38036,0.0456343,0.0340819,2001,974,226.699,-36.6302
784,50,226.763,37.4061,-0.0170167,0.0585484,-0.0177035,0.0624904,-0.0209586,-1.3517,0.0501289,0.0460522,2008,974,226.763,-37.4061
791,50,226.773,38.275,0,0,0,0,0,0,0,-1,2015,974,226.773,-38.275
798,50,224.026,40.6409,0,0,0,0,0,0,0,-1,2022,974,224.026,-40.6409
805,50,95.884,13.8399,0,0,0,0,0,0,0,-1,2029,974,95.8841,-13.8399
812,50,0,0,0,0,0,0,0,0,0,-1,2036,974,0,0
-700,43,0,0,0,0,0,0,0,0,0,-1,524,981,0,0
-693,43,-100.95,1.95203,0,0,0,0,0,0,0,-1,531,981,-100.95,-1.95204
-686,43,-100.614,3.59869,0,0,0,0,0,0,0,-1,538,981,-100.614,-3.5987
-679,43,-99.7601,5.06866,0,0,0,0,0,0,0,-1,545,981,-99.7601,-5.06869
-672,43,-98.6341,6.25378,0,0,0,0,0,0,0,-1,552,981,-98.6341,-6.25376
-665,43,-62.4393,6.80096,0,0,0,0,0,0,0,-1,559,981,-62.4393,-6.80097
-658,43,-96.4501,16.9009,0,0,0,0,0,0,0,-1,566,981,-96.4501,-16.9009
-651,43,-219.385,36.3409,0,0,0,0,0,0,0,-1,573,981,-219.385,-36.3409
-644,43,-219.907,35.9002,-0.0233257,0.0560392,0.0127944,0.0580508,-0.0253373,1.41485,0.0493636,0.0380422,580,981,-219.907,-35.9002
-637,43,-220.214,35.3852,-0.0173007,0.0485019,0.0107261,0.0502062,-0.0190049,1.41322,0.0412904,0.0239095,587,981,-220.214,-35.3852
-630,43,-220.321,34.8292,-0.0116879,0.0407442,0.00867441,0.042142,-0.0130858,1.41103,0.0333243,0.018045,594,981,-220.321,-34.8292
-623,43,-220.388,34.1994,-0.00640891,0.0328551,0.00665932,0.0339538,-0.00750762,1.40728,0.0255093,0.016584,601,981,-220.388,-34.1994
-616,43,-220.45,33.4948,-0.0013962,0.0248544,0.00470395,0.0256719,-0.00221366,1.39873,0.0178982,0.0166477,608,981,-220.45,-33.4948
-609,43,-220.548,32.717,0.00341415,0.0167619,0.00283102,0.0173376,0.00283852,1.3702,0.010738,0.0187634,615,981,-220.548,-32.717
-602,43,-220.54,31.9858,0.00808307,0.00859715,0.0010625,0.00943326,0.00724696,0.904076,0.00570155,0.0185392,622,981,-220.54,-31.9859
-595,43,-220.617,31.3286,0.0126692,0.00037946,-0.000580657,0.0126966,0.000352086,-0.0471072,0.00834953,0.0345595,629,981,-220.617,-31.3286
-588,43,-220.802,30.6194,0,0,0,0,0,0,0,-1,636,981,-220.802,-30.6194
-581,43,-72.4127,0.449585,0,0,0,0,0,0,0,-1,643,981,-72.4127,-0.449601
-574,43,-72.3796,0.402466,0,0,0,0,0,0,0,-1,650,981,-72.3796,-0.402445
-567,43,-72.3245,0.34906,0,0,0,0,0,0,0,-1,657,981,-72.3245,-0.349055
-560,43,-72.3109,0.30719,0,0,0,0,0,0,0,-1,664,981,-72.3109,-0.307183
-553,43,-72.4063,0.408447,0,0,0,0,0,0,0,-1,671,981,-72.4063,-0.408433
-546,43,-72.4841,0.671204,0,0,0,0,0,0,0,-1,678,981,-72.4841,-0.671202
-539,43,-72.3586,0.661743,0,0,0,0,0,0,0,-1,685,981,-72.3586,-0.661716
-532,43,-72.2639,0.142639,0,0,0,0,0,0,0,-1,692,981,-72.2639,-0.142642
-525,43,-72.2532,0.235413,0,0,0,0,0,0,0,-1,699,981,-72.2533,-0.235409
-518,43,0,0,0,0,0,0,0,0,0,-1,706,981,0,0
-511,43,0,0,0,0,0,0,0,0,0,-1,713,981,0,0
-504,43,0,0,0,0,0,0,0,0,0,-1,720,981,0,0
-497,43,0,0,0,0,0,0,0,0,0,-1,727,981,0,0
-490,43,0,0,0,0,0,0,0,0,0,-1,734,981,0,0
-483,43,0,0,0,0,0,0,0,0,0,-1,741,981,0,0
-476,43,0,0,0,0,0,0,0,0,0,-1,748,981,0,0
-469,43,0,0,0,0,0,0,0,0,0,-1,755,981,0,0
-462,43,0,0,0,0,0,0,0,0,0,-1,762,981,0,0
-455,43,0,0,0,0,0,0,0,0,0,-1,769,981,0,0
-448,43,0,0,0,0,0,0,0,0,0,-1,776,981,0,0
-441,43,0,0,0,0,0,0,0,0,0,-1,783,981,0,0
-434,43,0,0,0,0,0,0,0,0,0,-1,790,981,0,0
-427,43,0,0,0,0,0,0,0,0,0,-1,797,981,0,0
-420,43,0,0,0,0,0,0,0,0,0,-1,804,981,0,0
-413,43,0,0,0,0,0,0,0,0,0,-1,811,981,0,0
-406,43,0,0,0,0,0,0,0,0,0,-1,818,981,0,0
-399,43,0,0,0,0,0,0,0,0,0,-1,825,981,0,0
-392,43,0,0,0,0,0,0,0,0,0,-1,832,981,0,0
-385,43,0,0,0,0,0,0,0,0,0,-1,839,981,0,0
-378,43,0,0,0,0,0,0,0,0,0,-1,846,981,0,0
-371,43,0,0,0,0,0,0,0,0,0,-1,853,981,0,0
-364,43,0,0,0,0,0,0,0,0,0,-1,860,981,0,0
-357,43,0,0,0,0,0,0,0,0,0,-1,867,981,0,0
-350,43,0,0,0,0,0,0,0,0,0,-1,874,981,0,0
-343,43,0,0,0,0,0,0,0,0,0,-1,881,981,0,0
-336,43,0,0,0,0,0,0,0,0,0,-1,888,981,0,0
-329,43,0,0,0,0,0,0,0,0,0,-1,895,981,0,0
-322,43,0,0,0,0,0,0,0,0,0,-1,902,981,0,0
-315,43,0,0,0,0,0,0,0,0,0,-1,909,981,0,0
-308,43,0,0,0,0,0,0,0,0,0,-1,916,981,0,0
-301,43,0,0,0,0,0,0,0,0,0,-1,923,981,0,0
-294,43,0,0,0,0,0,0,0,0,0,-1,930,981,0,0
-287,43,0,0,0,0,0,0,0,0,0,-1,937,981,0,0
-280,43,0,0,0,0,0,0,0,0,0,-1,944,981,0,0
-273,43,0,0,0,0,0,0,0,0,0,-1,951,981,0,0
-266,43,0,0,0,0,0,0,0,0,0,-1,958,981,0,0
-259,43,0,0,0,0,0,0,0,0,0,-1,965,981,0,0
-252,43,0,0,0,0,0,0,0,0,0,-1,972,981,0,0
-245,43,0,0,0,0,0,0,0,0,0,-1,979,981,0,0
-238,43,0,0,0,0,0,0,0,0,0,-1,986,981,0,0
-231,43,0,0,0,0,0,0,0,0,0,-1,993,981,0,0
-224,43,0,0,0,0,0,0,0,0,0,-1,1000,981,0,0
-217,43,0,0,0,0,0,0,0,0,0,-1,1007,981,0,0
-210,43,0,0,0,0,0,0,0,0,0,-1,1014,981,0,0
-203,43,0,0,0,0,0,0,0,0,0,-1,1021,981,0,0
-196,43,0,0,0,0,0,0,0,0,0,-1,1028,981,0,0
-189,43,0,0,0,0,0,0,0,0,0,-1,1035,981,0,0
-182,43,0,0,0,0,0,0,0,0,0,-1,1042,981,0,0
-175,43,0,0,0,0,0,0,0,0,0,-1,1049,981,0,0
-168,43,0,0,0,0,0,0,0,0,0,-1,1056,981,0,0
-161,43,0,0,0,0,0,0,0,0,0,-1,1063,981,0,0
-154,43,0,0,0,0,0,0,0,0,0,-1,1070,981,0,0
-147,43,0,0,0,0,0,0,0,0,0,-1,1077,981,0,0
-140,43,0,0,0,0,0,0,0,0,0,-1,1084,981,0,0
-133,43,0,0,0,0,0,0,0,0,0,-1,1091,981,0,0
-126,43,0,0,0,0,0,0,0,0,0,-1,1098,981,0,0
-119,43,0,0,0,0,0,0,0,0,0,-1,1105,981,0,0
-112,43,0,0,0,0,0,0,0,0,0,-1,1112,981,0,0
-105,43,0,0,0,0,0,0,0,0,0,-1,1119,981,0,0
-98,43,0,0,0,0,0,0,0,0,0,-1,1126,981,0,0
-91,43,0,0,0,0,0,0,0,0,0,-1,1133,981,0,0
-84,43,0,0,0,0,0,0,0,0,0,-1,1140,981,0,0
-77,43,0,0,0,0,0,0,0,0,0,-1,1147,981,0,0
-70,43,0,0,0,0,0,0,0,0,0,-1,1154,981,0,0
-63,43,0,0,0,0,0,0,0,0,0,-1,1161,981,0,0
-56,43,0,0,0,0,0,0,0,0,0,-1,1168,981,0,0
-49,43,0,0,0,0,0,0,0,0,0,-1,1175,981,0,0
-42,43,0,0,0,0,0,0,0,0,0,-1,1182,981,0,0
-35,43,0,0,0,0,0,0,0,0,0,-1,1189,981,0,0
-28,43,0,0,0,0,0,0,0,0,0,-1,1196,981,0,0
-21,43,0,0,0,0,0,0,0,0,0,-1,1203,981,0,0
-14,43,0,0,0,0,0,0,0,0,0,-1,1210,981,0,0
-7,43,0,0,0,0,0,0,0,0,0,-1,1217,981,0,0
0,43,0,0,0,0,0,0,0,0,0,-1,1224,981,0,0
7,43,0,0,0,0,0,0,0,0,0,-1,1231,981,0,0
14,43,0,0,0,0,0,0,0,0,0,-1,1238,981,0,0
21,43,0,0,0,0,0,0,0,0,0,-1,1245,981,0,0
28,43,0,0,0,0,0,0,0,0,0,-1,1252,981,0,0
35,43,0,0,0,0,0,0,0,0,0,-1,1259,981,0,0
42,43,0,0,0,0,0,0,0,0,0,-1,1266,981,0,0
49,43,0,0,0,0,0,0,0,0,0,-1,1273,981,0,0
56,43,0,0,0,0,0,0,0,0,0,-1,1280,981,0,0
63,43,0,0,0,0,0,0,0,0,0,-1,1287,981,0,0
70,43,0,0,0,0,0,0,0,0,0,-1,1294,981,0,0
77,43,0,0,0,0,0,0,0,0,0,-1,1301,981,0,0
84,43,0,0,0,0,0,0,0,0,0,-1,1308,981,0,0
91,43,0,0,0,0,0,0,0,0,0,-1,1315,981,0,0
98,43,0,0,0,0,0,0,0,0,0,-1,1322,981,0,0
105,43,0,0,0,0,0,0,0,0,0,-1,1329,981,0,0
112,43,0,0,0,0,0,0,0,0,0,-1,1336,981,0,0
119,43,0,0,0,0,0,0,0,0,0,-1,1343,981,0,0
126,43,0,0,0,0,0,0,0,0,0,-1,1350,981,0,0
133,43,0,0,0,0,0,0,0,0,0,-1,1357,981,0,0
140,43,0,0,0,0,0,0,0,0,0,-1,1364,981,0,0
147,43,0,0,0,0,0,0,0,0,0,-1,1371,981,0,0
154,43,0,0,0,0,0,0,0,0,0,-1,1378,981,0,0
161,43,0,0,0,0,0,0,0,0,0,-1,1385,981,0,0
168,43,0,0,0,0,0,0,0,0,0,-1,1392,981,0,0
175,43,0,0,0,0,0,0,0,0,0,-1,1399,981,0,0
182,43,0,0,0,0,0,0,0,0,0,-1,1406,981,0,0
189,43,0,0,0,0,0,0,0,0,0,-1,1413,981,0,0
196,43,0,0,0,0,0,0,0,0,0,-1,1420,981,0,0
203,43,0,0,0,0,0,0,0,0,0,-1,1427,981,0,0
210,43,0,0,0,0,0,0,0,0,0,-1,1434,981,0,0
217,43,0,0,0,0,0,0,0,0,0,-1,1441,981,0,0
224,43,0,0,0,0,0,0,0,0,0,-1,1448,981,0,0
231,43,0,0,0,0,0,0,0,0,0,-1,1455,981,0,0
238,43,0,0,0,0,0,0,0,0,0,-1,1462,981,0,0
245,43,0,0,0,0,0,0,0,0,0,-1,1469,981,0,0
252,43,0,0,0,0,0,0,0,0,0,-1,1476,981,0,0
259,43,0,0,0,0,0,0,0,0,0,-1,1483,981,0,0
266,43,0,0,0,0,0,0,0,0,0,-1,1490,981,0,0
273,43,0,0,0,0,0,0,0,0,0,-1,1497,981,0,0
280,43,0,0,0,0,0,0,0,0,0,-1,1504,981,0,0
287,43,0,0,0,0,0,0,0,0,0,-1,1511,981,0,0
294,43,0,0,0,0,0,0,0,0,0,-1,1518,981,0,0
301,43,0,0,0,0,0,0,0,0,0,-1,1525,981,0,0
308,43,0,0,0,0,0,0,0,0,0,-1,1532,981,0,0
315,43,0,0,0,0,0,0,0,0,0,-1,1539,981,0,0
322,43,0,0,0,0,0,0,0,0,0,-1,1546,981,0,0
329,43,0,0,0,0,0,0,0,0,0,-1,1553,981,0,0
336,43,0,0,0,0,0,0,0,0,0,-1,1560,981,0,0
343,43,0,0,0,0,0,0,0,0,0,-1,1567,981,0,0
350,43,0,0,0,0,0,0,0,0,0,-1,1574,981,0,0
357,43,0,0,0,0,0,0,0,0,0,-1,1581,981,0,0
364,43,0,0,0,0,0,0,0,0,0,-1,1588,981,0,0
371,43,0,0,0,0,0,0,0,0,0,-1,1595,981,0,0
378,43,0,0,0,0,0,0,0,0,0,-1,1602,981,0,0
385,43,0,0,0,0,0,0,0,0,0,-1,1609,981,0,0
392,43,0,0,0,0,0,0,0,0,0,-1,1616,981,0,0
399,43,0,0,0,0,0,0,0,0,0,-1,1623,981,0,0
406,43,0,0,0,0,0,0,0,0,0,-1,1630,981,0,0
413,43,0,0,0,0,0,0,0,0,0,-1,1637,981,0,0
420,43,0,0,0,0,0,0,0,0,0,-1,1644,981,0,0
427,43,0,0,0,0,0,0,0,0,0,-1,1651,981,0,0
434,43,0,0,0,0,0,0,0,0,0,-1,1658,981,0,0
441,43,0,0,0,0,0,0,0,0,0,-1,1665,981,0,0
448,43,0,0,0,0,0,0,0,0,0,-1,1672,981,0,0
455,43,0,0,0,0,0,0,0,0,0,-1,1679,981,0,0
462,43,0,0,0,0,0,0,0,0,0,-1,1686,981,0,0
469,43,0,0,0,0,0,0,0,0,0,-1,1693,981,0,0
476,43,0,0,0,0,0,0,0,0,0,-1,1700,981,0,0
483,43,0,0,0,0,0,0,0,0,0,-1,1707,981,0,0
490,43,0,0,0,0,0,0,0,0,0,-1,1714,981,0,0
497,43,0,0,0,0,0,0,0,0,0,-1,1721,981,0,0
504,43,0,0,0,0,0,0,0,0,0,-1,1728,981,0,0
511,43,0,0,0,0,0,0,0,0,0,-1,1735,981,0,0
518,43,0,0,0,0,0,0,0,0,0,-1,1742,981,0,0
525,43,0,0,0,0,0,0,0,0,0,-1,1749,981,0,0
532,43,0,0,0,0,0,0,0,0,0,-1,1756,981,0,0
539,43,0,0,0,0,0,0,0,0,0,-1,1763,981,0,0
546,43,0,0,0,0,0,0,0,0,0,-1,1770,981,0,0
553,43,0,0,0,0,0,0,0,0,0,-1,1777,981,0,0
560,43,0,0,0,0,0,0,0,0,0,-1,1784,981,0,0
567,43,0,0,0,0,0,0,0,0,0,-1,1791,981,0,0
574,43,0,0,0,0,0,0,0,0,0,-1,1798,981,0,0
581,43,0,0,0,0,0,0,0,0,0,-1,1805,981,0,0
588,43,0,0,0,0,0,0,0,0,0,-1,1812,981,0,0
595,43,0,0,0,0,0,0,0,0,0,-1,1819,981,0,0
602,43,0,0,0,0,0,0,0,0,0,-1,1826,981,0,0
609,43,0,0,0,0,0,0,0,0,0,-1,1833,981,0,0
616,43,0,0,0,0,0,0,0,0,0,-1,1840,981,0,0
623,43,0,0,0,0,0,0,0,0,0,-1,1847,981,0,0
630,43,0,0,0,0,0,0,0,0,0,-1,1854,981,0,0
637,43,0,0,0,0,0,0,0,0,0,-1,1861,981,0,0
644,43,228.147,8.85822,0,0,0,0,0,0,0,-1,1868,981,228.148,-8.85824
651,43,228.217,8.83575,0,0,0,0,0,0,0,-1,1875,981,228.217,-8.83575
658,43,228.459,8.78418,0,0,0,0,0,0,0,-1,1882,981,228.46,-8.78417
665,43,228.321,8.75299,0,0,0,0,0,0,0,-1,1889,981,228.32,-8.75301
672,43,228.32,8.5531,0,0,0,0,0,0,0,-1,1896,981,228.32,-8.5531
679,43,228.293,8.52295,0,0,0,0,0,0,0,-1,1903,981,228.293,-8.52297
686,43,228.268,8.6239,0,0,0,0,0,0,0,-1,1910,981,228.268,-8.6239
693,43,228.274,8.65112,0,0,0,0,0,0,0,-1,1917,981,228.274,-8.65112
700,43,228.309,8.70148,0,0,0,0,0,0,0,-1,1924,981,228.309,-8.70149
707,43,220.713,8.7287,0,0,0,0,0,0,0,-1,1931,981,220.713,-8.72867
714,43,193.781,8.07935,0,0,0,0,0,0,0,-1,1938,981,193.78,-8.07934
721,43,228.1,30.7177,0,0,0,0,0,0,0,-1,1945,981,228.1,-30.7177
728,43,228.265,31.5046,0.00490031,-0.0012343,0.00261042,0.00586074,-0.00219473,0.352551,0.00480869,0.0234952,1952,981,228.265,-31.5046
735,43,228.365,32.2491,-0.001018,0.00700931,0.000858116,0.00710002,-0.00110871,1.46548,0.00514291,0.0184279,1959,981,228.365,-32.2491
742,43,228.223,32.9824,-0.00565606,0.0149994,-0.00125908,0.0150759,-0.00573252,-1.51014,0.0124109,0.0215901,1966,981,228.223,-32.9824
749,43,228.143,33.6028,-0.00974543,0.0228622,-0.00341117,0.0232153,-0.0100985,-1.46767,0.0197244,0.0235061,1973,981,228.143,-33.6028
756,43,227.976,34.2635,-0.0132159,0.0305774,-0.00564914,0.0312944,-0.0139329,-1.44455,0.0267456,0.02771,1980,981,227.976,-34.2635
763,43,227.875,34.8978,-0.0159932,0.0381235,-0.00803208,0.0392905,-0.0171601,-1.42652,0.0334162,0.0316478,1987,981,227.875,-34.8978
770,43,227.693,35.6498,-0.0179989,0.0454784,-0.0106272,0.0472103,-0.0197308,-1.40925,0.0397191,0.0309951,1994,981,227.693,-35.6498
777,43,227.808,36.3582,-0.0192271,0.0526467,-0.0135171,0.0551048,-0.0216851,-1.39091,0.0457128,0.0360631,2001,981,227.808,-36.3582
784,43,228.053,37.1371,0,0,0,0,0,0,0,-1,2008,981,228.053,-37.1371
791,43,226.24,40.0161,0,0,0,0,0,0,0,-1,2015,981,226.24,-40.0161
798,43,199.719,37.7299,0,0,0,0,0,0,0,-1,2022,981,199.72,-37.7299
805,43,100.68,14.4006,0,0,0,0,0,0,0,-1,2029,981,100.68,-14.4006
812,43,88.1521,11.3432,0,0,0,0,0,0,0,-1,2036,981,88.1521,-11.3432
-700,36,0,0,0,0,0,0,0,0,0,-1,524,988,0,0
-693,36,-99.4285,1.0423,0,0,0,0,0,0,0,-1,531,988,-99.4285,-1.0423
-686,36,-99.1122,2.69891,0,0,0,0,0,0,0,-1,538,988,-99.1122,-2.69891
-679,36,-98.9387,3.27319,0,0,0,0,0,0,0,-1,545,988,-98.9387,-3.27319
-672,36,-92.8255,3.66522,0,0,0,0,0,0,0,-1,552,988,-92.8255,-3.66522
-665,36,-76.8934,4.69366,0,0,0,0,0,0,0,-1,559,988,-76.8934,-4.69369
-658,36,-90.5589,15.0411,0,0,0,0,0,0,0,-1,566,988,-90.5589,-15.0411
-651,36,-220.114,35.9791,0,0,0,0,0,0,0,-1,573,988,-220.114,-35.979
-644,36,-220.628,35.5906,-0.0231681,0.0556588,0.0113422,0.0572583,-0.0247676,1.43069,0.0485803,0.0461562,580,988,-220.628,-35.5906
-637,36,-220.987,35.0549,-0.0168848,0.04801,0.00955109,0.0493865,-0.0182613,1.42766,0.040411,0.0292708,587,988,-220.987,-35.0549
-630,36,-221.154,34.5488,-0.0110164,0.0401938,0.00773259,0.041336,-0.0121585,1.42415,0.0323802,0.020476,594,988,-221.154,-34.5488
-623,36,-221.243,33.9536,-0.0054994,0.0322515,0.00594841,0.0331667,-0.00641451,1.41815,0.0245304,0.0181899,601,988,-221.243,-33.9536
-616,36,-221.217,33.401,-0.000268588,0.0242043,0.00422384,0.0249128,-0.000977082,1.40461,0.0169436,0.015273,608,988,-221.217,-33.401
-609,36,-221.146,32.7837,0.00473857,0.0160734,0.00258453,0.0166349,0.00417707,1.35687,0.00999296,0.0210432,615,988,-221.146,-32.7837
-602,36,-221.171,32.0671,0.00958264,0.00788087,0.00105612,0.010088,0.00737551,0.446304,0.00602815,0.0244203,622,988,-221.171,-32.0671
-595,36,-221.083,31.2687,0,0,0,0,0,0,0,-1,629,988,-221.083,-31.2688
-588,36,-178.321,28.7643,0,0,0,0,0,0,0,-1,636,988,-178.321,-28.7643
-581,36,-72.3473,0.507568,0,0,0,0,0,0,0,-1,643,988,-72.3473,-0.50759
-574,36,-72.3412,0.423096,0,0,0,0,0,0,0,-1,650,988,-72.3412,-0.423081
-567,36,-72.3419,0.350952,0,0,0,0,0,0,0,-1,657,988,-72.3419,-0.350938
-560,36,-72.3801,0.31012,0,0,0,0,0,0,0,-1,664,988,-72.3801,-0.310147
-553,36,-72.459,0.418152,0,0,0,0,0,0,0,-1,671,988,-72.459,-0.418138
-546,36,-72.4573,0.761353,0,0,0,0,0,0,0,-1,678,988,-72.4573,-0.761375
-539,36,-72.3875,0.629822,0,0,0,0,0,0,0,-1,685,988,-72.3875,-0.629807
-532,36,-72.3541,0.460571,0,0,0,0,0,0,0,-1,692,988,-72.3541,-0.460576
-525,36,-72.4338,0.453003,0,0,0,0,0,0,0,-1,699,988,-72.4338,-0.453011
-518,36,0,0,0,0,0,0,0,0,0,-1,706,988,0,0
-511,36,0,0,0,0,0,0,0,0,0,-1,713,988,0,0
-504,36,0,0,0,0,0,0,0,0,0,-1,720,988,0,0
-497,36,0,0,0,0,0,0,0,0,0,-1,727,988,0,0
-490,36,0,0,0,0,0,0,0,0,0,-1,734,988,0,0
-483,36,0,0,0,0,0,0,0,0,0,-1,741,988,0,0
-476,36,0,0,0,0,0,0,0,0,0,-1,748,988,0,0
-469,36,0,0,0,0,0,0,0,0,0,-1,755,988,0,0
-462,36,0,0,0,0,0,0,0,0,0,-1,762,988,0,0
-455,36,0,0,0,0,0,0,0,0,0,-1,769,988,0,0
-448,36,0,0,0,0,0,0,0,0,0,-1,776,988,0,0
-441,36,0,0,0,0,0,0,0,0,0,-1,783,988,0,0
-434,36,0,0,0,0,0,0,0,0,0,-1,790,988,0,0
-427,36,0,0,0,0,0,0,0,0,0,-1,797,988,0,0
-420,36,0,0,0,0,0,0,0,0,0,-1,804,988,0,0
-413,36,0,0,0,0,0,0,0,0,0,-1,811,988,0,0
-406,36,0,0,0,0,0,0,0,0,0,-1,818,988,0,0
-399,36,0,0,0,0,0,0,0,0,0,-1,825,988,0,0
-392,36,0,0,0,0,0,0,0,0,0,-1,832,988,0,0
-385,36,0,0,0,0,0,0,0,0,0,-1,839,988,0,0
-378,36,0,0,0,0,0,0,0,0,0,-1,846,988,0,0
-371,36,0,0,0,0,0,0,0,0,0,-1,853,988,0,0
-364,36,0,0,0,0,0,0,0,0,0,-1,860,988,0,0
-357,36,0,0,0,0,0,0,0,0,0,-1,867,988,0,0
-350,36,0,0,0,0,0,0,0,0,0,-1,874,988,0,0
-343,36,0,0,0,0,0,0,0,0,0,-1,881,988,0,0
-336,36,0,0,0,0,0,0,0,0,0,-1,888,988,0,0
-329,36,0,0,0,0,0,0,0,0,0,-1,895,988,0,0
-322,36,0,0,0,0,0,0,0,0,0,-1,902,988,0,0
-315,36,0,0,0,0,0,0,0,0,0,-1,909,988,0,0
-308,36,0,0,0,0,0,0,0,0,0,-1,916,988,0,0
-301,36,0,0,0,0,0,0,0,0,0,-1,923,988,0,0
-294,36,0,0,0,0,0,0,0,0,0,-1,930,988,0,0
-287,36,0,0,0,0,0,0,0,0,0,-1,937,988,0,0
-280,36,0,0,0,0,0,0,0,0,0,-1,944,988,0,0
-273,36,0,0,0,0,0,0,0,0,0,-1,951,988,0,0
-266,36,0,0,0,0,0,0,0,0,0,-1,958,988,0,0
-259,36,0,0,0,0,0,0,0,0,0,-1,965,988,0,0
-252,36,0,0,0,0,0,0,0,0,0,-1,972,988,0,0
-245,36,0,0,0,0,0,0,0,0,0,-1,979,988,0,0
-238,36,0,0,0,0,0,0,0,0,0,-1,986,988,0,0
-231,36,0,0,0,0,0,0,0,0,0,-1,993,988,0,0
-224,36,0,0,0,0,0,0,0,0,0,-1,1000,988,0,0
-217,36,0,0,0,0,0,0,0,0,0,-1,1007,988,0,0
-210,36,0,0,0,0,0,0,0,0,0,-1,1014,988,0,0
-203,36,0,0,0,0,0,0,0,0,0,-1,1021,988,0,0
-196,36,0,0,0,0,0,0,0,0,0,-1,1028,988,0,0
-189,36,0,0,0,0,0,0,0,0,0,-1,1035,988,0,0
-182,36,0,0,0,0,0,0,0,0,0,-1,1042,988,0,0
-175,36,0,0,0,0,0,0,0,0,0,-1,1049,988,0,0
-168,36,0,0,0,0,0,0,0,0,0,-1,1056,988,0,0
-161,36,0,0,0,0,0,0,0,0,0,-1,1063,988,0,0
-154,36,0,0,0,0,0,0,0,0,0,-1,1070,988,0,0
-147,36,0,0,0,0,0,0,0,0,0,-1,1077,988,0,0
-140,36,0,0,0,0,0,0,0,0,0,-1,1084,988,0,0
-133,36,0,0,0,0,0,0,0,0,0,-1,1091,988,0,0
-126,36,0,0,0,0,0,0,0,0,0,-1,1098,988,0,0
-119,36,0,0,0,0,0,0,0,0,0,-1,1105,988,0,0
-112,36,0,0,0,0,0,0,0,0,0,-1,1112,988,0,0
-105,36,0,0,0,0,0,0,0,0,0,-1,1119,988,0,0
-98,36,0,0,0,0,0,0,0,0,0,-1,1126,988,0,0
-91,36,0,0,0,0,0,0,0,0,0,-1,1133,988,0,0
-84,36,0,0,0,0,0,0,0,0,0,-1,1140,988,0,0
-77,36,0,0,0,0,0,0,0,0,0,-1,1147,988,0,0
-70,36,0,0,0,0,0,0,0,0,0,-1,1154,988,0,0
-63,36,0,0,0,0,0,0,0,0,0,-1,1161,988,0,0
-56,36,0,0,0,0,0,0,0,0,0,-1,1168,988,0,0
-49,36,0,0,0,0,0,0,0,0,0,-1,1175,988,0,0
-42,36,0,0,0,0,0,0,0,0,0,-1,1182,988,0,0
-35,36,0,0,0,0,0,0,0,0,0,-1,1189,988,0,0
-28,36,0,0,0,0,0,0,0,0,0,-1,1196,988,0,0
-21,36,0,0,0,0,0,0,0,0,0,-1,1203,988,0,0
-14,36,0,0,0,0,0,0,0,0,0,-1,1210,988,0,0
-7,36,0,0,0,0,0,0,0,0,0,-1,1217,988,0,0
0,36,0,0,0,0,0,0,0,0,0,-1,1224,988,0,0
7,36,0,0,0,0,0,0,0,0,0,-1,1231,988,0,0
14,36,0,0,0,0,0,0,0,0,0,-1,1238,988,0,0
21,36,0,0,0,0,0,0,0,0,0,-1,1245,988,0,0
28,36,0,0,0,0,0,0,0,0,0,-1,1252,988,0,0
35,36,0,0,0,0,0,0,0,0,0,-1,1259,988,0,0
42,36,0,0,0,0,0,0,0,0,0,-1,1266,988,0,0
49,36,0,0,0,0,0,0,0,0,0,-1,1273,988,0,0
56,36,0,0,0,0,0,0,0,0,0,-1,1280,988,0,0
63,36,0,0,0,0,0,0,0,0,0,-1,1287,988,0,0
70,36,0,0,0,0,0,0,0,0,0,-1,1294,988,0,0
77,36,0,0,0,0,0,0,0,0,0,-1,1301,988,0,0
84,36,0,0,0,0,0,0,0,0,0,-1,1308,988,0,0
91,36,0,0,0,0,0,0,0,0,0,-1,1315,988,0,0
98,36,0,0,0,0,0,0,0,0,0,-1,1322,988,0,0
105,36,0,0,0,0,0,0,0,0,0,-1,1329,988,0,0
112,36,0,0,0,0,0,0,0,0,0,-1,1336,988,0,0
119,36,0,0,0,0,0,0,0,0,0,-1,1343,988,0,0
126,36,0,0,0,0,0,0,0,0,0,-1,1350,988,0,0
133,36,0,0,0,0,0,0,0,0,0,-1,1357,988,0,0
140,36,0,0,0,0,0,0,0,0,0,-1,1364,988,0,0
147,36,0,0,0,0,0,0,0,0,0,-1,1371,988,0,0
154,36,0,0,0,0,0,0,0,0,0,-1,1378,988,0,0
161,36,0,0,0,0,0,0,0,0,0,-1,1385,988,0,0
168,36,0,0,0,0,0,0,0,0,0,-1,1392,988,0,0
175,36,0,0,0,0,0,0,0,0,0,-1,1399,988,0,0
182,36,0,0,0,0,0,0,0,0,0,-1,1406,988,0,0
189,36,0,0,0,0,0,0,0,0,0,-1,1413,988,0,0
196,36,0,0,0,0,0,0,0,0,0,-1,1420,988,0,0
203,36,0,0,0,0,0,0,0,0,0,-1,1427,988,0,0
210,36,0,0,0,0,0,0,0,0,0,-1,1434,988,0,0
217,36,0,0,0,0,0,0,0,0,0,-1,1441,988,0,0
224,36,0,0,0,0,0,0,0,0,0,-1,1448,988,0,0
231,36,0,0,0,0,0,0,0,0,0,-1,1455,988,0,0
238,36,0,0,0,0,0,0,0,0,0,-1,1462,988,0,0
245,36,0,0,0,0,0,0,0,0,0,-1,1469,988,0,0
252,36,0,0,0,0,0,0,0,0,0,-1,1476,988,0,0
259,36,0,0,0,0,0,0,0,0,0,-1,1483,988,0,0
266,36,0,0,0,0,0,0,0,0,0,-1,1490,988,0,0
273,36,0,0,0,0,0,0,0,0,0,-1,1497,988,0,0
280,36,0,0,0,0,0,0,0,0,0,-1,1504,988,0,0
287,36,0,0,0,0,0,0,0,0,0,-1,1511,988,0,0
294,36,0,0,0,0,0,0,0,0,0,-1,1518,988,0,0
301,36,0,0,0,0,0,0,0,0,0,-1,1525,988,0,0
308,36,0,0,0,0,0,0,0,0,0,-1,1532,988,0,0
315,36,0,0,0,0,0,0,0,0,0,-1,1539,988,0,0
322,36,0,0,0,0,0,0,0,0,0,-1,1546,988,0,0
329,36,0,0,0,0,0,0,0,0,0,-1,1553,988,0,0
336,36,0,0,0,0,0,0,0,0,0,-1,1560,988,0,0
343,36,0,0,0,0,0,0,0,0,0,-1,1567,988,0,0
350,36,0,0,0,0,0,0,0,0,0,-1,1574,988,0,0
357,36,0,0,0,0,0,0,0,0,0,-1,1581,988,0,0
364,36,0,0,0,0,0,0,0,0,0,-1,1588,988,0,0
371,36,0,0,0,0,0,0,0,0,0,-1,1595,988,0,0
378,36,0,0,0,0,0,0,0,0,0,-1,1602,988,0,0
385,36,0,0,0,0,0,0,0,0,0,-1,1609,988,0,0
392,36,0,0,0,0,0,0,0,0,0,-1,1616,988,0,0
399,36,0,0,0,0,0,0,0,0,0,-1,1623,988,0,0
406,36,0,0,0,0,0,0,0,0,0,-1,1630,988,0,0
413,36,0,0,0,0,0,0,0,0,0,-1,1637,988,0,0
420,36,0,0,0,0,0,0,0,0,0,-1,1644,988,0,0
427,36,0,0,0,0,0,0,0,0,0,-1,1651,988,0,0
434,36,0,0,0,0,0,0,0,0,0,-1,1658,988,0,0
441,36,0,0,0,0,0,0,0,0,0,-1,1665,988,0,0
448,36,0,0,0,0,0,0,0,0,0,-1,1672,988,0,0
455,36,0,0,0,0,0,0,0,0,0,-1,1679,988,0,0
462,36,0,0,0,0,0,0,0,0,0,-1,1686,988,0,0
469,36,0,0,0,0,0,0,0,0,0,-1,1693,988,0,0
476,36,0,0,0,0,0,0,0,0,0,-1,1700,988,0,0
483,36,0,0,0,0,0,0,0,0,0,-1,1707,988,0,0
490,36,0,0,0,0,0,0,0,0,0,-1,1714,988,0,0
497,36,0,0,0,0,0,0,0,0,0,-1,1721,988,0,0
504,36,0,0,0,0,0,0,0,0,0,-1,1728,988,0,0
511,36,0,0,0,0,0,0,0,0,0,-1,1735,988,0,0
518,36,0,0,0,0,0,0,0,0,0,-1,1742,988,0,0
525,36,0,0,0,0,0,0,0,0,0,-1,1749,988,0,0
532,36,0,0,0,0,0,0,0,0,0,-1,1756,988,0,0
539,36,0,0,0,0,0,0,0,0,0,-1,1763,988,0,0
546,36,0,0,0,0,0,0,0,0,0,-1,1770,988,0,0
553,36,0,0,0,0,0,0,0,0,0,-1,1777,988,0,0
560,36,0,0,0,0,0,0,0,0,0,-1,1784,988,0,0
567,36,0,0,0,0,0,0,0,0,0,-1,1791,988,0,0
574,36,0,0,0,0,0,0,0,0,0,-1,1798,988,0,0
581,36,0,0,0,0,0,0,0,0,0,-1,1805,988,0,0
588,36,0,0,0,0,0,0,0,0,0,-1,1812,988,0,0
595,36,0,0,0,0,0,0,0,0,0,-1,1819,988,0,0
602,36,0,0,0,0,0,0,0,0,0,-1,1826,988,0,0
609,36,0,0,0,0,0,0,0,0,0,-1,1833,988,0,0
616,36,0,0,0,0,0,0,0,0,0,-1,1840,988,0,0
623,36,0,0,0,0,0,0,0,0,0,-1,1847,988,0,0
630,36,0,0,0,0,0,0,0,0,0,-1,1854,988,0,0
637,36,0,0,0,0,0,0,0,0,0,-1,1861,988,0,0
644,36,228.167,8.9021,0,0,0,0,0,0,0,-1,1868,988,228.167,-8.90207
651,36,228.235,8.85718,0,0,0,0,0,0,0,-1,1875,988,228.235,-8.85718
658,36,228.463,8.84418,0,0,0,0,0,0,0,-1,1882,988,228.463,-8.84416
665,36,228.344,8.90363,0,0,0,0,0,0,0,-1,1889,988,228.344,-8.9036
672,36,228.293,8.72534,0,0,0,0,0,0,0,-1,1896,988,228.293,-8.72534
679,36,228.304,8.59283,0,0,0,0,0,0,0,-1,1903,988,228.304,-8.59286
686,36,228.26,8.61072,0,0,0,0,0,0,0,-1,1910,988,228.26,-8.61069
693,36,228.283,8.68121,0,0,0,0,0,0,0,-1,1917,988,228.283,-8.68124
700,36,228.306,8.77777,0,0,0,0,0,0,0,-1,1924,988,228.306,-8.77776
707,36,228.483,8.33893,0,0,0,0,0,0,0,-1,1931,988,228.483,-8.33893
714,36,196.268,8.11206,0,0,0,0,0,0,0,-1,1938,988,196.268,-8.11206
721,36,228.554,30.7061,0,0,0,0,0,0,0,-1,1945,988,228.554,-30.7061
728,36,228.782,31.5233,0.00806389,-0.00314526,0.00301912,0.00882535,-0.00390672,0.247059,0.00753149,0.0309288,1952,988,228.782,-31.5232
735,36,228.951,32.3024,0.00128109,0.00544321,0.00135805,0.00584713,0.000877172,1.2817,0.00364109,0.023795,1959,988,228.951,-32.3024
742,36,228.866,32.8349,-0.00398289,0.0137606,-0.000662418,0.0137853,-0.00400758,-1.53353,0.0107773,0.0185582,1966,988,228.866,-32.8349
749,36,228.764,33.4768,-0.0086079,0.0219652,-0.00268461,0.0221992,-0.00884184,-1.48387,0.0184663,0.0214096,1973,988,228.764,-33.4768
756,36,228.627,34.1206,-0.0125387,0.0300353,-0.00476246,0.0305615,-0.0130649,-1.46075,0.0258541,0.0233375,1980,988,228.627,-34.1206
763,36,228.475,34.6921,-0.0157125,0.0379472,-0.00695695,0.0388345,-0.0165998,-1.44394,0.032852,0.02483,1987,988,228.475,-34.6921
770,36,228.347,35.3291,-0.0180599,0.0456767,-0.00933602,0.0470161,-0.0193993,-1.42831,0.0394345,0.0230791,1994,988,228.347,-35.3291
777,36,228.217,36.087,0,0,0,0,0,0,0,-1,2001,988,228.217,-36.087
784,36,228.198,36.2264,0,0,0,0,0,0,0,-1,2008,988,228.198,-36.2264
791,36,202.26,37.1884,0,0,0,0,0,0,0,-1,2015,988,202.26,-37.1884
798,36,114.126,20.1268,0,0,0,0,0,0,0,-1,2022,988,114.126,-20.1268
805,36,114.409,21.1661,0,0,0,0,0,0,0,-1,2029,988,114.409,-21.1661
812,36,80.2622,5.14569,0,0,0,0,0,0,0,-1,2036,988,80.2621,-5.1457
-700,29,0,0,0,0,0,0,0,0,0,-1,524,995,0,0
-693,29,-97.8289,0.372925,0,0,0,0,0,0,0,-1,531,995,-97.8289,-0.372929
-686,29,-97.6048,1.65991,0,0,0,0,0,0,0,-1,538,995,-97.6048,-1.65989
-679,29,-97.4024,2.89258,0,0,0,0,0,0,0,-1,545,995,-97.4024,-2.8926
-672,29,-97.1027,4.07483,0,0,0,0,0,0,0,-1,552,995,-97.1027,-4.07484
-665,29,-76.1727,4.00098,0,0,0,0,0,0,0,-1,559,995,-76.1727,-4.00097
-658,29,-74.8002,4.05365,0,0,0,0,0,0,0,-1,566,995,-74.8002,-4.05367
-651,29,-91.399,14.4346,0,0,0,0,0,0,0,-1,573,995,-91.399,-14.4346
-644,29,-221.356,35.171,0,0,0,0,0,0,0,-1,580,995,-221.356,-35.171
-637,29,-221.677,34.7787,-0.0165576,0.0474348,0.00809748,0.0484435,-0.0175663,1.44686,0.0394762,0.0384501,587,995,-221.677,-34.7787
-630,29,-221.82,34.2407,-0.010475,0.0394949,0.00660769,0.0403539,-0.011334,1.44152,0.0313707,0.0207762,594,995,-221.82,-34.2406
-623,29,-221.877,33.7168,-0.00476307,0.0314834,0.00513611,0.0321972,-0.0054768,1.43272,0.023504,0.0186528,601,995,-221.877,-33.7168
-616,29,-221.881,33.265,0.00063541,0.0234166,0.00371162,0.0240061,4.59487e-05,1.4133,0.0159888,0.0238348,608,995,-221.881,-33.265
-609,29,-221.769,32.7208,0.00577621,0.0153121,0.00236384,0.0158659,0.00522241,1.34067,0.00933674,0.0312614,615,995,-221.769,-32.7208
-602,29,-221.741,32.0723,0.0107144,0.00718905,0.00112286,0.0110416,0.00686179,0.283599,0.00643727,0.0314433,622,995,-221.741,-32.0722
-595,29,-221.612,31.327,0,0,0,0,0,0,0,-1,629,995,-221.612,-31.327
-588,29,-184.78,29.9845,0,0,0,0,0,0,0,-1,636,995,-184.78,-29.9845
-581,29,-72.3035,0.499573,0,0,0,0,0,0,0,-1,643,995,-72.3036,-0.499578
-574,29,-72.31,0.427063,0,0,0,0,0,0,0,-1,650,995,-72.31,-0.427046
-567,29,-72.3035,0.407288,0,0,0,0,0,0,0,-1,657,995,-72.3035,-0.407297
-560,29,-72.4127,0.387878,0,0,0,0,0,0,0,-1,664,995,-72.4127,-0.387875
-553,29,-72.4764,0.807861,0,0,0,0,0,0,0,-1,671,995,-72.4764,-0.807876
-546,29,-72.4146,0.674622,0,0,0,0,0,0,0,-1,678,995,-72.4146,-0.674645
-539,29,-72.316,0.321289,0,0,0,0,0,0,0,-1,685,995,-72.316,-0.321271
-532,29,-72.0922,0.0151978,0,0,0,0,0,0,0,-1,692,995,-72.0922,-0.0152197
-525,29,-72.4575,0.468079,0,0,0,0,0,0,0,-1,699,995,-72.4575,-0.4681
-518,29,0,0,0,0,0,0,0,0,0,-1,706,995,0,0
-511,29,0,0,0,0,0,0,0,0,0,-1,713,995,0,0
-504,29,0,0,0,0,0,0,0,0,0,-1,720,995,0,0
-497,29,0,0,0,0,0,0,0,0,0,-1,727,995,0,0
-490,29,0,0,0,0,0,0,0,0,0,-1,734,995,0,0
-483,29,0,0,0,0,0,0,0,0,0,-1,741,995,0,0
-476,29,0,0,0,0,0,0,0,0,0,-1,748,995,0,0
-469,29,0,0,0,0,0,0,0,0,0,-1,755,995,0,0
-462,29,0,0,0,0,0,0,0,0,0,-1,762,995,0,0
-455,29,0,0,0,0,0,0,0,0,0,-1,769,995,0,0
-448,29,0,0,0,0,0,0,0,0,0,-1,776,995,0,0
-441,29,0,0,0,0,0,0,0,0,0,-1,783,995,0,0
-434,29,0,0,0,0,0,0,0,0,0,-1,790,995,0,0
-427,29,0,0,0,0,0,0,0,0,0,-1,797,995,0,0
-420,29,0,0,0,0,0,0,0,0,0,-1,804,995,0,0
-413,29,0,0,0,0,0,0,0,0,0,-1,811,995,0,0
-406,29,0,0,0,0,0,0,0,0,0,-1,818,995,0,0
-399,29,0,0,0,0,0,0,0,0,0,-1,825,995,0,0
-392,29,0,0,0,0,0,0,0,0,0,-1,832,995,0,0
-385,29,0,0,0,0,0,0,0,0,0,-1,839,995,0,0
-378,29,0,0,0,0,0,0,0,0,0,-1,846,995,0,0
-371,29,0,0,0,0,0,0,0,0,0,-1,853,995,0,0
-364,29,0,0,0,0,0,0,0,0,0,-1,860,995,0,0
-357,29,0,0,0,0,0,0,0,0,0,-1,867,995,0,0
-350,29,0,0,0,0,0,0,0,0,0,-1,874,995,0,0
-343,29,0,0,0,0,0,0,0,0,0,-1,881,995,0,0
-336,29,0,0,0,0,0,0,0,0,0,-1,888,995,0,0
-329,29,0,0,0,0,0,0,0,0,0,-1,895,995,0,0
-322,29,0,0,0,0,0,0,0,0,0,-1,902,995,0,0
-315,29,0,0,0,0,0,0,0,0,0,-1,909,995,0,0
-308,29,0,0,0,0,0,0,0,0,0,-1,916,995,0,0
-301,29,0,0,0,0,0,0,0,0,0,-1,923,995,0,0
-294,29,0,0,0,0,0,0,0,0,0,-1,930,995,0,0
-287,29,0,0,0,0,0,0,0,0,0,-1,937,995,0,0
-280,29,0,0,0,0,0,0,0,0,0,-1,944,995,0,0
-273,29,0,0,0,0,0,0,0,0,0,-1,951,995,0,0
-266,29,0,0,0,0,0,0,0,0,0,-1,958,995,0,0
-259,29,0,0,0,0,0,0,0,0,0,-1,965,995,0,0
-252,29,0,0,0,0,0,0,0,0,0,-1,972,995,0,0
-245,29,0,0,0,0,0,0,0,0,0,-1,979,995,0,0
-238,29,0,0,0,0,0,0,0,0,0,-1,986,995,0,0
-231,29,0,0,0,0,0,0,0,0,0,-1,993,995,0,0
-224,29,0,0,0,0,0,0,0,0,0,-1,1000,995,0,0
-217,29,0,0,0,0,0,0,0,0,0,-1,1007,995,0,0
-210,29,0,0,0,0,0,0,0,0,0,-1,1014,995,0,0
-203,29,0,0,0,0,0,0,0,0,0,-1,1021,995,0,0
-196,29,0,0,0,0,0,0,0,0,0,-1,1028,995,0,0
-189,29,0,0,0,0,0,0,0,0,0,-1,1035,995,0,0
-182,29,0,0,0,0,0,0,0,0,0,-1,1042,995,0,0
-175,29,0,0,0,0,0,0,0,0,0,-1,1049,995,0,0
-168,29,0,0,0,0,0,0,0,0,0,-1,1056,995,0,0
-161,29,0,0,0,0,0,0,0,0,0,-1,1063,995,0,0
-154,29,0,0,0,0,0,0,0,0,0,-1,1070,995,0,0
-147,29,0,0,0,0,0,0,0,0,0,-1,1077,995,0,0
-140,29,0,0,0,0,0,0,0,0,0,-1,1084,995,0,0
-133,29,0,0,0,0,0,0,0,0,0,-1,1091,995,0,0
-126,29,0,0,0,0,0,0,0,0,0,-1,1098,995,0,0
-119,29,0,0,0,0,0,0,0,0,0,-1,1105,995,0,0
-112,29,0,0,0,0,0,0,0,0,0,-1,1112,995,0,0
-105,29,0,0,0,0,0,0,0,0,0,-1,1119,995,0,0
-98,29,0,0,0,0,0,0,0,0,0,-1,1126,995,0,0
-91,29,0,0,0,0,0,0,0,0,0,-1,1133,995,0,0
-84,29,0,0,0,0,0,0,0,0,0,-1,1140,995,0,0
-77,29,0,0,0,0,0,0,0,0,0,-1,1147,995,0,0
-70,29,0,0,0,0,0,0,0,0,0,-1,1154,995,0,0
-63,29,0,0,0,0,0,0,0,0,0,-1,1161,995,0,0
-56,29,0,0,0,0,0,0,0,0,0,-1,1168,995,0,0
-49,29,0,0,0,0,0,0,0,0,0,-1,1175,995,0,0
-42,29,0,0,0,0,0,0,0,0,0,-1,1182,995,0,0
-35,29,0,0,0,0,0,0,0,0,0,-1,1189,995,0,0
-28,29,0,0,0,0,0,0,0,0,0,-1,1196,995,0,0
-21,29,0,0,0,0,0,0,0,0,0,-1,1203,995,0,0
-14,29,0,0,0,0,0,0,0,0,0,-1,1210,995,0,0
-7,29,0,0,0,0,0,0,0,0,0,-1,1217,995,0,0
0,29,0,0,0,0,0,0,0,0,0,-1,1224,995,0,0
7,29,0,0,0,0,0,0,0,0,0,-1,1231,995,0,0
14,29,0,0,0,0,0,0,0,0,0,-1,1238,995,0,0
21,29,0,0,0,0,0,0,0,0,0,-1,1245,995,0,0
28,29,0,0,0,0,0,0,0,0,0,-1,1252,995,0,0
35,29,0,0,0,0,0,0,0,0,0,-1,1259,995,0,0
42,29,0,0,0,0,0,0,0,0,0,-1,1266,995,0,0
49,29,0,0,0,0,0,0,0,0,0,-1,1273,995,0,0
56,29,0,0,0,0,0,0,0,0,0,-1,1280,995,0,0
63,29,0,0,0,0,0,0,0,0,0,-1,1287,995,0,0
70,29,0,0,0,0,0,0,0,0,0,-1,1294,995,0,0
77,29,0,0,0,0,0,0,0,0,0,-1,1301,995,0,0
84,29,0,0,0,0,0,0,0,0,0,-1,1308,995,0,0
91,29,0,0,0,0,0,0,0,0,0,-1,1315,995,0,0
98,29,0,0,0,0,0,0,0,0,0,-1,1322,995,0,0
105,29,0,0,0,0,0,0,0,0,0,-1,1329,995,0,0
112,29,0,0,0,0,0,0,0,0,0,-1,1336,995,0,0
119,29,0,0,0,0,0,0,0,0,0,-1,1343,995,0,0
126,29,0,0,0,0,0,0,0,0,0,-1,1350,995,0,0
133,29,0,0,0,0,0,0,0,0,0,-1,1357,995,0,0
140,29,0,0,0,0,0,0,0,0,0,-1,1364,995,0,0
147,29,0,0,0,0,0,0,0,0,0,-1,1371,995,0,0
154,29,0,0,0,0,0,0,0,0,0,-1,1378,995,0,0
161,29,0,0,0,0,0,0,0,0,0,-1,1385,995,0,0
168,29,0,0,0,0,0,0,0,0,0,-1,1392,995,0,0
175,29,0,0,0,0,0,0,0,0,0,-1,1399,995,0,0
182,29,0,0,0,0,0,0,0,0,0,-1,1406,995,0,0
189,29,0,0,0,0,0,0,0,0,0,-1,1413,995,0,0
196,29,0,0,0,0,0,0,0,0,0,-1,1420,995,0,0
203,29,0,0,0,0,0,0,0,0,0,-1,1427,995,0,0
210,29,0,0,0,0,0,0,0,0,0,-1,1434,995,0,0
217,29,0,0,0,0,0,0,0,0,0,-1,1441,995,0,0
224,29,0,0,0,0,0,0,0,0,0,-1,1448,995,0,0
231,29,0,0,0,0,0,0,0,0,0,-1,1455,995,0,0
238,29,0,0,0,0,0,0,0,0,0,-1,1462,995,0,0
245,29,0,0,0,0,0,0,0,0,0,-1,1469,995,0,0
252,29,0,0,0,0,0,0,0,0,0,-1,1476,995,0,0
259,29,0,0,0,0,0,0,0,0,0,-1,1483,995,0,0
266,29,0,0,0,0,0,0,0,0,0,-1,1490,995,0,0
273,29,0,0,0,0,0,0,0,0,0,-1,1497,995,0,0
280,29,0,0,0,0,0,0,0,0,0,-1,1504,995,0,0
287,29,0,0,0,0,0,0,0,0,0,-1,1511,995,0,0
294,29,0,0,0,0,0,0,0,0,0,-1,1518,995,0,0
301,29,0,0,0,0,0,0,0,0,0,-1,1525,995,0,0
308,29,0,0,0,0,0,0,0,0,0,-1,1532,995,0,0
315,29,0,0,0,0,0,0,0,0,0,-1,1539,995,0,0
322,29,0,0,0,0,0,0,0,0,0,-1,1546,995,0,0
329,29,0,0,0,0,0,0,0,0,0,-1,1553,995,0,0
336,29,0,0,0,0,0,0,0,0,0,-1,1560,995,0,0
343,29,0,0,0,0,0,0,0,0,0,-1,1567,995,0,0
350,29,0,0,0,0,0,0,0,0,0,-1,1574,995,0,0
357,29,0,0,0,0,0,0,0,0,0,-1,1581,995,0,0
364,29,0,0,0,0,0,0,0,0,0,-1,1588,995,0,0
371,29,0,0,0,0,0,0,0,0,0,-1,1595,995,0,0
378,29,0,0,0,0,0,0,0,0,0,-1,1602,995,0,0
385,29,0,0,0,0,0,0,0,0,0,-1,1609,995,0,0
392,29,0,0,0,0,0,0,0,0,0,-1,1616,995,0,0
399,29,0,0,0,0,0,0,0,0,0,-1,1623,995,0,0
406,29,0,0,0,0,0,0,0,0,0,-1,1630,995,0,0
413,29,0,0,0,0,0,0,0,0,0,-1,1637,995,0,0
420,29,0,0,0,0,0,0,0,0,0,-1,1644,995,0,0
427,29,0,0,0,0,0,0,0,0,0,-1,1651,995,0,0
434,29,0,0,0,0,0,0,0,0,0,-1,1658,995,0,0
441,29,0,0,0,0,0,0,0,0,0,-1,1665,995,0,0
448,29,0,0,0,0,0,0,0,0,0,-1,1672,995,0,0
455,29,0,0,0,0,0,0,0,0,0,-1,1679,995,0,0
462,29,0,0,0,0,0,0,0,0,0,-1,1686,995,0,0
469,29,0,0,0,0,0,0,0,0,0,-1,1693,995,0,0
476,29,0,0,0,0,0,0,0,0,0,-1,1700,995,0,0
483,29,0,0,0,0,0,0,0,0,0,-1,1707,995,0,0
490,29,0,0,0,0,0,0,0,0,0,-1,1714,995,0,0
497,29,0,0,0,0,0,0,0,0,0,-1,1721,995,0,0
504,29,0,0,0,0,0,0,0,0,0,-1,1728,995,0,0
511,29,0,0,0,0,0,0,0,0,0,-1,1735,995,0,0
518,29,0,0,0,0,0,0,0,0,0,-1,1742,995,0,0
525,29,0,0,0,0,0,0,0,0,0,-1,1749,995,0,0
532,29,0,0,0,0,0,0,0,0,0,-1,1756,995,0,0
539,29,0,0,0,0,0,0,0,0,0,-1,1763,995,0,0
546,29,0,0,0,0,0,0,0,0,0,-1,1770,995,0,0
553,29,0,0,0,0,0,0,0,0,0,-1,1777,995,0,0
560,29,0,0,0,0,0,0,0,0,0,-1,1784,995,0,0
567,29,0,0,0,0,0,0,0,0,0,-1,1791,995,0,0
574,29,0,0,0,0,0,0,0,0,0,-1,1798,995,0,0
581,29,0,0,0,0,0,0,0,0,0,-1,1805,995,0,0
588,29,0,0,0,0,0,0,0,0,0,-1,1812,995,0,0
595,29,0,0,0,0,0,0,0,0,0,-1,1819,995,0,0
602,29,0,0,0,0,0,0,0,0,0,-1,1826,995,0,0
609,29,0,0,0,0,0,0,0,0,0,-1,1833,995,0,0
616,29,0,0,0,0,0,0,0,0,0,-1,1840,995,0,0
623,29,0,0,0,0,0,0,0,0,0,-1,1847,995,0,0
630,29,0,0,0,0,0,0,0,0,0,-1,1854,995,0,0
637,29,0,0,0,0,0,0,0,0,0,-1,1861,995,0,0
644,29,228.325,8.96875,0,0,0,0,0,0,0,-1,1868,995,228.325,-8.96874
651,29,228.28,8.95862,0,0,0,0,0,0,0,-1,1875,995,228.28,-8.95861
658,29,228.328,8.95581,0,0,0,0,0,0,0,-1,1882,995,228.328,-8.95583
665,29,228.273,8.88782,0,0,0,0,0,0,0,-1,1889,995,228.273,-8.88779
672,29,228.242,8.73413,0,0,0,0,0,0,0,-1,1896,995,228.242,-8.73413
679,29,228.27,8.62079,0,0,0,0,0,0,0,-1,1903,995,228.27,-8.62081
686,29,228.272,8.68042,0,0,0,0,0,0,0,-1,1910,995,228.272,-8.6804
693,29,228.26,8.79504,0,0,0,0,0,0,0,-1,1917,995,228.261,-8.79507
700,29,228.268,8.82629,0,0,0,0,0,0,0,-1,1924,995,228.268,-8.8263
707,29,228.404,8.75525,0,0,0,0,0,0,0,-1,1931,995,228.404,-8.75526
714,29,228.275,8.72168,0,0,0,0,0,0,0,-1,1938,995,228.275,-8.72169
721,29,228.902,31.1261,0,0,0,0,0,0,0,-1,1945,995,228.902,-31.1261
728,29,229.382,31.6143,0.00937127,-0.00464691,0.00342276,0.0101623,-0.00543799,0.227135,0.00914349,0.0409289,1952,995,229.382,-31.6142
735,29,229.6,32.1901,0.00205591,0.00413864,0.00192352,0.00528459,0.000909959,1.0335,0.00326232,0.0198313,1959,995,229.6,-32.1901
742,29,229.48,32.7654,-0.00356412,0.0126132,3.72768e-05,0.0126133,-0.00356421,1.56849,0.00981507,0.0159891,1966,995,229.48,-32.7654
749,29,229.408,33.3716,-0.0084907,0.0209691,-0.00183222,0.0210826,-0.00860422,-1.50892,0.0176372,0.0166371,1973,995,229.409,-33.3717
756,29,229.285,33.9581,-0.0126791,0.0291869,-0.00373498,0.0295175,-0.0130097,-1.48251,0.0251622,0.0189122,1980,995,229.285,-33.9581
763,29,229.146,34.4635,-0.0160774,0.0372462,-0.00572611,0.0378542,-0.0166854,-1.46502,0.0322694,0.0178331,1987,995,229.146,-34.4635
770,29,229.018,34.9528,-0.0186265,0.0451258,-0.00786574,0.0460819,-0.0195827,-1.44983,0.0389269,0.0266733,1994,995,229.018,-34.9528
777,29,228.806,35.7421,0,0,0,0,0,0,0,-1,2001,995,228.806,-35.7421
784,29,228.867,36.293,0,0,0,0,0,0,0,-1,2008,995,228.867,-36.293
791,29,114.385,18.9071,0,0,0,0,0,0,0,-1,2015,995,114.385,-18.9071
798,29,114.547,20.011,0,0,0,0,0,0,0,-1,2022,995,114.547,-20.011
805,29,89.9102,12.0472,0,0,0,0,0,0,0,-1,2029,995,89.9103,-12.0472
812,29,74.3464,11.3901,0,0,0,0,0,0,0,-1,2036,995,74.3464,-11.3901
-700,22,0,0,0,0,0,0,0,0,0,-1,524,1002,0,0
-693,22,-96.5399,0.00201416,0,0,0,0,0,0,0,-1,531,1002,-96.5399,-0.00198688
-686,22,-96.4305,1.45563,0,0,0,0,0,0,0,-1,538,1002,-96.4305,-1.45565
-679,22,-96.1309,2.72589,0,0,0,0,0,0,0,-1,545,1002,-96.1309,-2.72589
-672,22,-95.7907,3.92188,0,0,0,0,0,0,0,-1,552,1002,-95.7907,-3.9219
-665,22,-87.7646,3.7699,0,0,0,0,0,0,0,-1,559,1002,-87.7646,-3.76988
-658,22,-68.7921,5.42706,0,0,0,0,0,0,0,-1,566,1002,-68.7921,-5.42709
-651,22,-70.0956,8.71375,0,0,0,0,0,0,0,-1,573,1002,-70.0956,-8.71376
-644,22,-222.089,34.855,0,0,0,0,0,0,0,-1,580,1002,-222.089,-34.855
-637,22,-222.388,34.3937,-0.0165193,0.0469685,0.00686232,0.0477018,-0.0172526,1.46435,0.0388506,0.0412693,587,1002,-222.388,-34.3937
-630,22,-222.434,33.9486,-0.0102202,0.0388598,0.00562448,0.0394961,-0.0108565,1.45814,0.0305984,0.0241758,594,1002,-222.434,-33.9486
-623,22,-222.52,33.447,-0.0042718,0.0307233,0.00441935,0.0312727,-0.00482127,1.4471,0.0226275,0.0204999,601,1002,-222.519,-33.447
-616,22,-222.481,32.9543,0.00137582,0.022574,0.00327246,0.0230677,0.000882132,1.42106,0.015093,0.0330867,608,1002,-222.481,-32.9543
-609,22,-222.425,32.6214,0.00677247,0.0144294,0.00221084,0.0150219,0.00617997,1.30895,0.0087182,0.0407438,615,1002,-222.425,-32.6214
-602,22,-222.336,31.9611,0.0119684,0.00630951,0.00126289,0.0122375,0.00604046,0.209902,0.00706549,0.0393748,622,1002,-222.336,-31.9611
-595,22,-222.14,31.3024,0,0,0,0,0,0,0,-1,629,1002,-222.14,-31.3024
-588,22,-209.999,30.4661,0,0,0,0,0,0,0,-1,636,1002,-209.999,-30.4661
-581,22,-72.3125,0.418152,0,0,0,0,0,0,0,-1,643,1002,-72.3125,-0.41816
-574,22,-72.3202,0.457031,0,0,0,0,0,0,0,-1,650,1002,-72.3202,-0.457039
-567,22,-72.3143,0.489685,0,0,0,0,0,0,0,-1,657,1002,-72.3143,-0.48969
-560,22,-72.375,0.517212,0,0,0,0,0,0,0,-1,664,1002,-72.375,-0.517202
-553,22,-72.4261,0.57373,0,0,0,0,0,0,0,-1,671,1002,-72.4261,-0.573721
-546,22,-72.3248,0.688538,0,0,0,0,0,0,0,-1,678,1002,-72.3248,-0.688512
-539,22,-72.3094,0.448792,0,0,0,0,0,0,0,-1,685,1002,-72.3094,-0.448788
-532,22,-72.2036,0.229858,0,0,0,0,0,0,0,-1,692,1002,-72.2036,-0.229864
-525,22,0,0,0,0,0,0,0,0,0,-1,699,1002,0,0
-518,22,0,0,0,0,0,0,0,0,0,-1,706,1002,0,0
-511,22,0,0,0,0,0,0,0,0,0,-1,713,1002,0,0
-504,22,0,0,0,0,0,0,0,0,0,-1,720,1002,0,0
-497,22,0,0,0,0,0,0,0,0,0,-1,727,1002,0,0
-490,22,0,0,0,0,0,0,0,0,0,-1,734,1002,0,0
-483,22,0,0,0,0,0,0,0,0,0,-1,741,1002,0,0
-476,22,0,0,0,0,0,0,0,0,0,-1,748,1002,0,0
-469,22,0,0,0,0,0,0,0,0,0,-1,755,1002,0,0
-462,22,0,0,0,0,0,0,0,0,0,-1,762,1002,0,0
-455,22,0,0,0,0,0,0,0,0,0,-1,769,1002,0,0
-448,22,0,0,0,0,0,0,0,0,0,-1,776,1002,0,0
-441,22,0,0,0,0,0,0,0,0,0,-1,783,1002,0,0
-434,22,0,0,0,0,0,0,0,0,0,-1,790,1002,0,0
-427,22,0,0,0,0,0,0,0,0,0,-1,797,1002,0,0
-420,22,0,0,0,0,0,0,0,0,0,-1,804,1002,0,0
-413,22,0,0,0,0,0,0,0,0,0,-1,811,1002,0,0
-406,22,0,0,0,0,0,0,0,0,0,-1,818,1002,0,0
-399,22,0,0,0,0,0,0,0,0,0,-1,825,1002,0,0
-392,22,0,0,0,0,0,0,0,0,0,-1,832,1002,0,0
-385,22,0,0,0,0,0,0,0,0,0,-1,839,1002,0,0
-378,22,0,0,0,0,0,0,0,0,0,-1,846,1002,0,0
-371,22,0,0,0,0,0,0,0,0,0,-1,853,1002,0,0
-364,22,0,0,0,0,0,0,0,0,0,-1,860,1002,0,0
-357,22,0,0,0,0,0,0,0,0,0,-1,867,1002,0,0
-350,22,0,0,0,0,0,0,0,0,0,-1,874,1002,0,0
-343,22,0,0,0,0,0,0,0,0,0,-1,881,1002,0,0
-336,22,0,0,0,0,0,0,0,0,0,-1,888,1002,0,0
-329,22,0,0,0,0,0,0,0,0,0,-1,895,1002,0,0
-322,22,0,0,0,0,0,0,0,0,0,-1,902,1002,0,0
-315,22,0,0,0,0,0,0,0,0,0,-1,909,1002,0,0
-308,22,0,0,0,0,0,0,0,0,0,-1,916,1002,0,0
-301,22,0,0,0,0,0,0,0,0,0,-1,923,1002,0,0
-294,22,0,0,0,0,0,0,0,0,0,-1,930,1002,0,0
-287,22,0,0,0,0,0,0,0,0,0,-1,937,1002,0,0
-280,22,0,0,0,0,0,0,0,0,0,-1,944,1002,0,0
-273,22,0,0,0,0,0,0,0,0,0,-1,951,1002,0,0
-266,22,0,0,0,0,0,0,0,0,0,-1,958,1002,0,0
-259,22,0,0,0,0,0,0,0,0,0,-1,965,1002,0,0
-252,22,0,0,0,0,0,0,0,0,0,-1,972,1002,0,0
-245,22,0,0,0,0,0,0,0,0,0,-1,979,1002,0,0
-238,22,0,0,0,0,0,0,0,0,0,-1,986,1002,0,0
-231,22,0,0,0,0,0,0,0,0,0,-1,993,1002,0,0
-224,22,0,0,0,0,0,0,0,0,0,-1,1000,1002,0,0
-217,22,0,0,0,0,0,0,0,0,0,-1,1007,1002,0,0
-210,22,0,0,0,0,0,0,0,0,0,-1,1014,1002,0,0
-203,22,0,0,0,0,0,0,0,0,0,-1,1021,1002,0,0
-196,22,0,0,0,0,0,0,0,0,0,-1,1028,1002,0,0
-189,22,0,0,0,0,0,0,0,0,0,-1,1035,1002,0,0
-182,22,0,0,0,0,0,0,0,0,0,-1,1042,1002,0,0
-175,22,0,0,0,0,0,0,0,0,0,-1,1049,1002,0,0
-168,22,0,0,0,0,0,0,0,0,0,-1,1056,1002,0,0
-161,22,0,0,0,0,0,0,0,0,0,-1,1063,1002,0,0
-154,22,0,0,0,0,0,0,0,0,0,-1,1070,1002,0,0
-147,22,0,0,0,0,0,0,0,0,0,-1,1077,1002,0,0
-140,22,0,0,0,0,0,0,0,0,0,-1,1084,1002,0,0
-133,22,0,0,0,0,0,0,0,0,0,-1,1091,1002,0,0
-126,22,0,0,0,0,0,0,0,0,0,-1,1098,1002,0,0
-119,22,0,0,0,0,0,0,0,0,0,-1,1105,1002,0,0
-112,22,0,0,0,0,0,0,0,0,0,-1,1112,1002,0,0
-105,22,0,0,0,0,0,0,0,0,0,-1,1119,1002,0,0
-98,22,0,0,0,0,0,0,0,0,0,-1,1126,1002,0,0
-91,22,0,0,0,0,0,0,0,0,0,-1,1133,1002,0,0
-84,22,0,0,0,0,0,0,0,0,0,-1,1140,1002,0,0
-77,22,0,0,0,0,0,0,0,0,0,-1,1147,1002,0,0
-70,22,0,0,0,0,0,0,0,0,0,-1,1154,1002,0,0
-63,22,0,0,0,0,0,0,0,0,0,-1,1161,1002,0,0
-56,22,0,0,0,0,0,0,0,0,0,-1,1168,1002,0,0
-49,22,0,0,0,0,0,0,0,0,0,-1,1175,1002,0,0
-42,22,0,0,0,0,0,0,0,0,0,-1,1182,1002,0,0
-35,22,0,0,0,0,0,0,0,0,0,-1,1189,1002,0,0
-28,22,0,0,0,0,0,0,0,0,0,-1,1196,1002,0,0
-21,22,0,0,0,0,0,0,0,0,0,-1,1203,1002,0,0
-14,22,0,0,0,0,0,0,0,0,0,-1,1210,1002,0,0
-7,22,0,0,0,0,0,0,0,0,0,-1,1217,1002,0,0
0,22,0,0,0,0,0,0,0,0,0,-1,1224,1002,0,0
7,22,0,0,0,0,0,0,0,0,0,-1,1231,1002,0,0
14,22,0,0,0,0,0,0,0,0,0,-1,1238,1002,0,0
21,22,0,0,0,0,0,0,0,0,0,-1,1245,1002,0,0
28,22,0,0,0,0,0,0,0,0,0,-1,1252,1002,0,0
35,22,0,0,0,0,0,0,0,0,0,-1,1259,1002,0,0
42,22,0,0,0,0,0,0,0,0,0,-1,1266,1002,0,0
49,22,0,0,0,0,0,0,0,0,0,-1,1273,1002,0,0
56,22,0,0,0,0,0,0,0,0,0,-1,1280,1002,0,0
63,22,0,0,0,0,0,0,0,0,0,-1,1287,1002,0,0
70,22,0,0,0,0,0,0,0,0,0,-1,1294,1002,0,0
77,22,0,0,0,0,0,0,0,0,0,-1,1301,1002,0,0
84,22,0,0,0,0,0,0,0,0,0,-1,1308,1002,0,0
91,22,0,0,0,0,0,0,0,0,0,-1,1315,1002,0,0
98,22,0,0,0,0,0,0,0,0,0,-1,1322,1002,0,0
105,22,0,0,0,0,0,0,0,0,0,-1,1329,1002,0,0
112,22,0,0,0,0,0,0,0,0,0,-1,1336,1002,0,0
119,22,0,0,0,0,0,0,0,0,0,-1,1343,1002,0,0
126,22,0,0,0,0,0,0,0,0,0,-1,1350,1002,0,0
133,22,0,0,0,0,0,0,0,0,0,-1,1357,1002,0,0
140,22,0,0,0,0,0,0,0,0,0,-1,1364,1002,0,0
147,22,0,0,0,0,0,0,0,0,0,-1,1371,1002,0,0
154,22,0,0,0,0,0,0,0,0,0,-1,1378,1002,0,0
161,22,0,0,0,0,0,0,0,0,0,-1,1385,1002,0,0
168,22,0,0,0,0,0,0,0,0,0,-1,1392,1002,0,0
175,22,0,0,0,0,0,0,0,0,0,-1,1399,1002,0,0
182,22,0,0,0,0,0,0,0,0,0,-1,1406,1002,0,0
189,22,0,0,0,0,0,0,0,0,0,-1,1413,1002,0,0
196,22,0,0,0,0,0,0,0,0,0,-1,1420,1002,0,0
203,22,0,0,0,0,0,0,0,0,0,-1,1427,1002,0,0
210,22,0,0,0,0,0,0,0,0,0,-1,1434,1002,0,0
217,22,0,0,0,0,0,0,0,0,0,-1,1441,1002,0,0
224,22,0,0,0,0,0,0,0,0,0,-1,1448,1002,0,0
231,22,0,0,0,0,0,0,0,0,0,-1,1455,1002,0,0
238,22,0,0,0,0,0,0,0,0,0,-1,1462,1002,0,0
245,22,0,0,0,0,0,0,0,0,0,-1,1469,1002,0,0
252,22,0,0,0,0,0,0,0,0,0,-1,1476,1002,0,0
259,22,0,0,0,0,0,0,0,0,0,-1,1483,1002,0,0
266,22,0,0,0,0,0,0,0,0,0,-1,1490,1002,0,0
273,22,0,0,0,0,0,0,0,0,0,-1,1497,1002,0,0
280,22,0,0,0,0,0,0,0,0,0,-1,1504,1002,0,0
287,22,0,0,0,0,0,0,0,0,0,-1,1511,1002,0,0
294,22,0,0,0,0,0,0,0,0,0,-1,1518,1002,0,0
301,22,0,0,0,0,0,0,0,0,0,-1,1525,1002,0,0
308,22,0,0,0,0,0,0,0,0,0,-1,1532,1002,0,0
315,22,0,0,0,0,0,0,0,0,0,-1,1539,1002,0,0
322,22,0,0,0,0,0,0,0,0,0,-1,1546,1002,0,0
329,22,0,0,0,0,0,0,0,0,0,-1,1553,1002,0,0
336,22,0,0,0,0,0,0,0,0,0,-1,1560,1002,0,0
343,22,0,0,0,0,0,0,0,0,0,-1,1567,1002,0,0
350,22,0,0,0,0,0,0,0,0,0,-1,1574,1002,0,0
357,22,0,0,0,0,0,0,0,0,0,-1,1581,1002,0,0
364,22,0,0,0,0,0,0,0,0,0,-1,1588,1002,0,0
371,22,0,0,0,0,0,0,0,0,0,-1,1595,1002,0,0
378,22,0,0,0,0,0,0,0,0,0,-1,1602,1002,0,0
385,22,0,0,0,0,0,0,0,0,0,-1,1609,1002,0,0
392,22,0,0,0,0,0,0,0,0,0,-1,1616,1002,0,0
399,22,0,0,0,0,0,0,0,0,0,-1,1623,1002,0,0
406,22,0,0,0,0,0,0,0,0,0,-1,1630,1002,0,0
413,22,0,0,0,0,0,0,0,0,0,-1,1637,1002,0,0
420,22,0,0,0,0,0,0,0,0,0,-1,1644,1002,0,0
427,22,0,0,0,0,0,0,0,0,0,-1,1651,1002,0,0
434,22,0,0,0,0,0,0,0,0,0,-1,1658,1002,0,0
441,22,0,0,0,0,0,0,0,0,0,-1,1665,1002,0,0
448,22,0,0,0,0,0,0,0,0,0,-1,1672,1002,0,0
455,22,0,0,0,0,0,0,0,0,0,-1,1679,1002,0,0
462,22,0,0,0,0,0,0,0,0,0,-1,1686,1002,0,0
469,22,0,0,0,0,0,0,0,0,0,-1,1693,1002,0,0
476,22,0,0,0,0,0,0,0,0,0,-1,1700,1002,0,0
483,22,0,0,0,0,0,0,0,0,0,-1,1707,1002,0,0
490,22,0,0,0,0,0,0,0,0,0,-1,1714,1002,0,0
497,22,0,0,0,0,0,0,0,0,0,-1,1721,1002,0,0
504,22,0,0,0,0,0,0,0,0,0,-1,1728,1002,0,0
511,22,0,0,0,0,0,0,0,0,0,-1,1735,1002,0,0
518,22,0,0,0,0,0,0,0,0,0,-1,1742,1002,0,0
525,22,0,0,0,0,0,0,0,0,0,-1,1749,1002,0,0
532,22,0,0,0,0,0,0,0,0,0,-1,1756,1002,0,0
539,22,0,0,0,0,0,0,0,0,0,-1,1763,1002,0,0
546,22,0,0,0,0,0,0,0,0,0,-1,1770,1002,0,0
553,22,0,0,0,0,0,0,0,0,0,-1,1777,1002,0,0
560,22,0,0,0,0,0,0,0,0,0,-1,1784,1002,0,0
567,22,0,0,0,0,0,0,0,0,0,-1,1791,1002,0,0
574,22,0,0,0,0,0,0,0,0,0,-1,1798,1002,0,0
581,22,0,0,0,0,0,0,0,0,0,-1,1805,1002,0,0
588,22,0,0,0,0,0,0,0,0,0,-1,1812,1002,0,0
595,22,0,0,0,0,0,0,0,0,0,-1,1819,1002,0,0
602,22,0,0,0,0,0,0,0,0,0,-1,1826,1002,0,0
609,22,0,0,0,0,0,0,0,0,0,-1,1833,1002,0,0
616,22,0,0,0,0,0,0,0,0,0,-1,1840,1002,0,0
623,22,0,0,0,0,0,0,0,0,0,-1,1847,1002,0,0
630,22,0,0,0,0,0,0,0,0,0,-1,1854,1002,0,0
637,22,0,0,0,0,0,0,0,0,0,-1,1861,1002,0,0
644,22,228.335,8.94354,0,0,0,0,0,0,0,-1,1868,1002,228.335,-8.94351
651,22,228.298,8.95569,0,0,0,0,0,0,0,-1,1875,1002,228.298,-8.95569
658,22,228.369,8.78278,0,0,0,0,0,0,0,-1,1882,1002,228.369,-8.78275
665,22,228.333,8.97974,0,0,0,0,0,0,0,-1,1889,1002,228.333,-8.97974
672,22,228.244,8.76343,0,0,0,0,0,0,0,-1,1896,1002,228.244,-8.76344
679,22,228.218,8.61597,0,0,0,0,0,0,0,-1,1903,1002,228.218,-8.61597
686,22,228.232,8.73035,0,0,0,0,0,0,0,-1,1910,1002,228.232,-8.73034
693,22,228.353,8.82239,0,0,0,0,0,0,0,-1,1917,1002,228.353,-8.8224
700,22,228.367,8.72284,0,0,0,0,0,0,0,-1,1924,1002,228.367,-8.72285
707,22,228.398,8.81433,0,0,0,0,0,0,0,-1,1931,1002,228.398,-8.81433
714,22,228.386,9.22559,0,0,0,0,0,0,0,-1,1938,1002,228.386,-9.2256
721,22,76.814,2.41211,0,0,0,0,0,0,0,-1,1945,1002,76.814,-2.41212
728,22,229.699,31.8276,0,0,0,0,0,0,0,-1,1952,1002,229.699,-31.8276
735,22,230.14,32.2056,0.000715113,0.00338232,0.001946,0.00440783,-0.000310393,1.0858,0.00304729,0.0188032,1959,1002,230.14,-32.2056
742,22,230.076,32.7308,-0.00460742,0.0117925,0.000355273,0.0118002,-0.00461511,1.54915,0.00977535,0.0201,1966,1002,230.076,-32.7308
749,22,229.998,33.2697,-0.00929287,0.0201041,-0.00118591,0.0201518,-0.00934064,-1.53054,0.0174047,0.0143886,1973,1002,229.998,-33.2697
756,22,229.948,33.7495,-0.013303,0.0283015,-0.00272377,0.028479,-0.0134806,-1.5057,0.0247359,0.0221296,1980,1002,229.947,-33.7495
763,22,229.77,34.3054,-0.0165898,0.0363666,-0.00430825,0.0367148,-0.016938,-1.49015,0.0316702,0.0267539,1987,1002,229.77,-34.3054
770,22,229.487,34.8044,-0.0190965,0.0442787,-0.00599297,0.0448404,-0.0196583,-1.47734,0.0381727,0.0292828,1994,1002,229.487,-34.8044
777,22,229.074,35.1534,0,0,0,0,0,0,0,-1,2001,1002,229.075,-35.1535
784,22,176.982,32.8964,0,0,0,0,0,0,0,-1,2008,1002,176.982,-32.8964
791,22,100.772,12.5767,0,0,0,0,0,0,0,-1,2015,1002,100.772,-12.5767
798,22,88.1873,9.98132,0,0,0,0,0,0,0,-1,2022,1002,88.1872,-9.98132
805,22,75.3247,9.49249,0,0,0,0,0,0,0,-1,2029,1002,75.3248,-9.49248
812,22,75.3965,9.88782,0,0,0,0,0,0,0,-1,2036,1002,75.3966,-9.88781
-700,15,0,0,0,0,0,0,0,0,0,-1,524,1009,0,0
-693,15,-95.7462,0.0612793,0,0,0,0,0,0,0,-1,531,1009,-95.7463,-0.0612602
-686,15,-95.0714,1.24689,0,0,0,0,0,0,0,-1,538,1009,-95.0714,-1.24687
-679,15,-94.2675,2.47766,0,0,0,0,0,0,0,-1,545,1009,-94.2675,-2.47764
-672,15,-92.8383,3.98071,0,0,0,0,0,0,0,-1,552,1009,-92.8382,-3.98072
-665,15,-91.6124,4.78375,0,0,0,0,0,0,0,-1,559,1009,-91.6124,-4.78375
-658,15,-67.7799,6.4903,0,0,0,0,0,0,0,-1,566,1009,-67.7799,-6.49027
-651,15,-51.4943,3.62128,0,0,0,0,0,0,0,-1,573,1009,-51.4943,-3.62128
-644,15,-222.802,34.6702,0,0,0,0,0,0,0,-1,580,1009,-222.802,-34.6702
-637,15,-222.813,34.2302,-0.0158186,0.0467178,0.00592829,0.0472749,-0.0163756,1.47711,0.0381647,0.0408301,587,1009,-222.813,-34.2302
-630,15,-222.906,33.7856,-0.00963601,0.0384718,0.00486475,0.0389588,-0.010123,1.47102,0.0299232,0.0234984,594,1009,-222.906,-33.7857
-623,15,-223.003,33.3046,-0.00374682,0.0302135,0.00385678,0.030646,-0.00417931,1.45912,0.0219568,0.0171821,601,1009,-223.003,-33.3046
-616,15,-222.862,32.8397,0.00188781,0.0219574,0.00292468,0.0223749,0.00147029,1.429,0.0144514,0.0238938,608,1009,-222.862,-32.8396
-609,15,-222.795,32.4056,0.00730665,0.01372,0.00209078,0.0143414,0.00668525,1.2819,0.00828633,0.0273211,615,1009,-222.795,-32.4056
-602,15,-222.711,31.9445,0.0125492,0.00552089,0.00137947,0.0128103,0.00525984,0.187031,0.00743534,0.0302665,622,1009,-222.711,-31.9445
-595,15,-222.908,31.4686,0,0,0,0,0,0,0,-1,629,1009,-222.908,-31.4686
-588,15,-72.2071,0.610718,0,0,0,0,0,0,0,-1,636,1009,-72.2071,-0.61074
-581,15,-72.2703,0.514465,0,0,0,0,0,0,0,-1,643,1009,-72.2703,-0.514438
-574,15,-72.299,0.44397,0,0,0,0,0,0,0,-1,650,1009,-72.299,-0.443981
-567,15,-72.3457,0.428711,0,0,0,0,0,0,0,-1,657,1009,-72.3457,-0.428701
-560,15,-72.3326,0.582153,0,0,0,0,0,0,0,-1,664,1009,-72.3326,-0.582123
-553,15,-72.2341,0.739929,0,0,0,0,0,0,0,-1,671,1009,-72.2341,-0.739918
-546,15,-72.1395,0.576538,0,0,0,0,0,0,0,-1,678,1009,-72.1395,-0.576547
-539,15,-72.1952,0.250854,0,0,0,0,0,0,0,-1,685,1009,-72.1952,-0.250863
-532,15,-72.2346,0.0326538,0,0,0,0,0,0,0,-1,692,1009,-72.2346,-0.0326423
-525,15,0,0,0,0,0,0,0,0,0,-1,699,1009,0,0
-518,15,0,0,0,0,0,0,0,0,0,-1,706,1009,0,0
-511,15,0,0,0,0,0,0,0,0,0,-1,713,1009,0,0
-504,15,0,0,0,0,0,0,0,0,0,-1,720,1009,0,0
-497,15,0,0,0,0,0,0,0,0,0,-1,727,1009,0,0
-490,15,0,0,0,0,0,0,0,0,0,-1,734,1009,0,0
-483,15,0,0,0,0,0,0,0,0,0,-1,741,1009,0,0
-476,15,0,0,0,0,0,0,0,0,0,-1,748,1009,0,0
-469,15,0,0,0,0,0,0,0,0,0,-1,755,1009,0,0
-462,15,0,0,0,0,0,0,0,0,0,-1,762,1009,0,0
-455,15,0,0,0,0,0,0,0,0,0,-1,769,1009,0,0
-448,15,0,0,0,0,0,0,0,0,0,-1,776,1009,0,0
-441,15,0,0,0,0,0,0,0,0,0,-1,783,1009,0,0
-434,15,0,0,0,0,0,0,0,0,0,-1,790,1009,0,0
-427,15,0,0,0,0,0,0,0,0,0,-1,797,1009,0,0
-420,15,0,0,0,0,0,0,0,0,0,-1,804,1009,0,0
-413,15,0,0,0,0,0,0,0,0,0,-1,811,1009,0,0
-406,15,0,0,0,0,0,0,0,0,0,-1,818,1009,0,0
-399,15,0,0,0,0,0,0,0,0,0,-1,825,1009,0,0
-392,15,0,0,0,0,0,0,0,0,0,-1,832,1009,0,0
-385,15,0,0,0,0,0,0,0,0,0,-1,839,1009,0,0
-378,15,0,0,0,0,0,0,0,0,0,-1,846,1009,0,0
-371,15,0,0,0,0,0,0,0,0,0,-1,853,1009,0,0
-364,15,0,0,0,0,0,0,0,0,0,-1,860,1009,0,0
-357,15,0,0,0,0,0,0,0,0,0,-1,867,1009,0,0
-350,15,0,0,0,0,0,0,0,0,0,-1,874,1009,0,0
-343,15,0,0,0,0,0,0,0,0,0,-1,881,1009,0,0
-336,15,0,0,0,0,0,0,0,0,0,-1,888,1009,0,0
-329,15,0,0,0,0,0,0,0,0,0,-1,895,1009,0,0
-322,15,0,0,0,0,0,0,0,0,0,-1,902,1009,0,0
-315,15,0,0,0,0,0,0,0,0,0,-1,909,1009,0,0
-308,15,0,0,0,0,0,0,0,0,0,-1,916,1009,0,0
-301,15,0,0,0,0,0,0,0,0,0,-1,923,1009,0,0
-294,15,0,0,0,0,0,0,0,0,0,-1,930,1009,0,0
-287,15,0,0,0,0,0,0,0,0,0,-1,937,1009,0,0
-280,15,0,0,0,0,0,0,0,0,0,-1,944,1009,0,0
-273,15,0,0,0,0,0,0,0,0,0,-1,951,1009,0,0
-266,15,0,0,0,0,0,0,0,0,0,-1,958,1009,0,0
-259,15,0,0,0,0,0,0,0,0,0,-1,965,1009,0,0
-252,15,0,0,0,0,0,0,0,0,0,-1,972,1009,0,0
-245,15,0,0,0,0,0,0,0,0,0,-1,979,1009,0,0
-238,15,0,0,0,0,0,0,0,0,0,-1,986,1009,0,0
-231,15,0,0,0,0,0,0,0,0,0,-1,993,1009,0,0
-224,15,0,0,0,0,0,0,0,0,0,-1,1000,1009,0,0
-217,15,0,0,0,0,0,0,0,0,0,-1,1007,1009,0,0
-210,15,0,0,0,0,0,0,0,0,0,-1,1014,1009,0,0
-203,15,0,0,0,0,0,0,0,0,0,-1,1021,1009,0,0
-196,15,0,0,0,0,0,0,0,0,0,-1,1028,1009,0,0
-189,15,0,0,0,0,0,0,0,0,0,-1,1035,1009,0,0
-182,15,0,0,0,0,0,0,0,0,0,-1,1042,1009,0,0
-175,15,0,0,0,0,0,0,0,0,0,-1,1049,1009,0,0
-168,15,0,0,0,0,0,0,0,0,0,-1,1056,1009,0,0
-161,15,0,0,0,0,0,0,0,0,0,-1,1063,1009,0,0
-154,15,0,0,0,0,0,0,0,0,0,-1,1070,1009,0,0
-147,15,0,0,0,0,0,0,0,0,0,-1,1077,1009,0,0
-140,15,0,0,0,0,0,0,0,0,0,-1,1084,1009,0,0
-133,15,0,0,0,0,0,0,0,0,0,-1,1091,1009,0,0
-126,15,0,0,0,0,0,0,0,0,0,-1,1098,1009,0,0
-119,15,0,0,0,0,0,0,0,0,0,-1,1105,1009,0,0
-112,15,0,0,0,0,0,0,0,0,0,-1,1112,1009,0,0
-105,15,0,0,0,0,0,0,0,0,0,-1,1119,1009,0,0
-98,15,0,0,0,0,0,0,0,0,0,-1,1126,1009,0,0
-91,15,0,0,0,0,0,0,0,0,0,-1,1133,1009,0,0
-84,15,0,0,0,0,0,0,0,0,0,-1,1140,1009,0,0
-77,15,0,0,0,0,0,0,0,0,0,-1,1147,1009,0,0
-70,15,0,0,0,0,0,0,0,0,0,-1,1154,1009,0,0
-63,15,0,0,0,0,0,0,0,0,0,-1,1161,1009,0,0
-56,15,0,0,0,0,0,0,0,0,0,-1,1168,1009,0,0
-49,15,0,0,0,0,0,0,0,0,0,-1,1175,1009,0,0
-42,15,0,0,0,0,0,0,0,0,0,-1,1182,1009,0,0
-35,15,0,0,0,0,0,0,0,0,0,-1,1189,1009,0,0
-28,15,0,0,0,0,0,0,0,0,0,-1,1196,1009,0,0
-21,15,0,0,0,0,0,0,0,0,0,-1,1203,1009,0,0
-14,15,0,0,0,0,0,0,0,0,0,-1,1210,1009,0,0
-7,15,0,0,0,0,0,0,0,0,0,-1,1217,1009,0,0
0,15,0,0,0,0,0,0,0,0,0,-1,1224,1009,0,0
7,15,0,0,0,0,0,0,0,0,0,-1,1231,1009,0,0
14,15,0,0,0,0,0,0,0,0,0,-1,1238,1009,0,0
21,15,0,0,0,0,0,0,0,0,0,-1,1245,1009,0,0
28,15,0,0,0,0,0,0,0,0,0,-1,1252,1009,0,0
35,15,0,0,0,0,0,0,0,0,0,-1,1259,1009,0,0
42,15,0,0,0,0,0,0,0,0,0,-1,1266,1009,0,0
49,15,0,0,0,0,0,0,0,0,0,-1,1273,1009,0,0
56,15,0,0,0,0,0,0,0,0,0,-1,1280,1009,0,0
63,15,0,0,0,0,0,0,0,0,0,-1,1287,1009,0,0
70,15,0,0,0,0,0,0,0,0,0,-1,1294,1009,0,0
77,15,0,0,0,0,0,0,0,0,0,-1,1301,1009,0,0
84,15,0,0,0,0,0,0,0,0,0,-1,1308,1009,0,0
91,15,0,0,0,0,0,0,0,0,0,-1,1315,1009,0,0
98,15,0,0,0,0,0,0,0,0,0,-1,1322,1009,0,0
105,15,0,0,0,0,0,0,0,0,0,-1,1329,1009,0,0
112,15,0,0,0,0,0,0,0,0,0,-1,1336,1009,0,0
119,15,0,0,0,0,0,0,0,0,0,-1,1343,1009,0,0
126,15,0,0,0,0,0,0,0,0,0,-1,1350,1009,0,0
133,15,0,0,0,0,0,0,0,0,0,-1,1357,1009,0,0
140,15,0,0,0,0,0,0,0,0,0,-1,1364,1009,0,0
147,15,0,0,0,0,0,0,0,0,0,-1,1371,1009,0,0
154,15,0,0,0,0,0,0,0,0,0,-1,1378,1009,0,0
161,15,0,0,0,0,0,0,0,0,0,-1,1385,1009,0,0
168,15,0,0,0,0,0,0,0,0,0,-1,1392,1009,0,0
175,15,0,0,0,0,0,0,0,0,0,-1,1399,1009,0,0
182,15,0,0,0,0,0,0,0,0,0,-1,1406,1009,0,0
189,15,0,0,0,0,0,0,0,0,0,-1,1413,1009,0,0
196,15,0,0,0,0,0,0,0,0,0,-1,1420,1009,0,0
203,15,0,0,0,0,0,0,0,0,0,-1,1427,1009,0,0
210,15,0,0,0,0,0,0,0,0,0,-1,1434,1009,0,0
217,15,0,0,0,0,0,0,0,0,0,-1,1441,1009,0,0
224,15,0,0,0,0,0,0,0,0,0,-1,1448,1009,0,0
231,15,0,0,0,0,0,0,0,0,0,-1,1455,1009,0,0
238,15,0,0,0,0,0,0,0,0,0,-1,1462,1009,0,0
245,15,0,0,0,0,0,0,0,0,0,-1,1469,1009,0,0
252,15,0,0,0,0,0,0,0,0,0,-1,1476,1009,0,0
259,15,0,0,0,0,0,0,0,0,0,-1,1483,1009,0,0
266,15,0,0,0,0,0,0,0,0,0,-1,1490,1009,0,0
273,15,0,0,0,0,0,0,0,0,0,-1,1497,1009,0,0
280,15,0,0,0,0,0,0,0,0,0,-1,1504,1009,0,0
287,15,0,0,0,0,0,0,0,0,0,-1,1511,1009,0,0
294,15,0,0,0,0,0,0,0,0,0,-1,1518,1009,0,0
301,15,0,0,0,0,0,0,0,0,0,-1,1525,1009,0,0
308,15,0,0,0,0,0,0,0,0,0,-1,1532,1009,0,0
315,15,0,0,0,0,0,0,0,0,0,-1,1539,1009,0,0
322,15,0,0,0,0,0,0,0,0,0,-1,1546,1009,0,0
329,15,0,0,0,0,0,0,0,0,0,-1,1553,1009,0,0
336,15,0,0,0,0,0,0,0,0,0,-1,1560,1009,0,0
343,15,0,0,0,0,0,0,0,0,0,-1,1567,1009,0,0
350,15,0,0,0,0,0,0,0,0,0,-1,1574,1009,0,0
357,15,0,0,0,0,0,0,0,0,0,-1,1581,1009,0,0
364,15,0,0,0,0,0,0,0,0,0,-1,1588,1009,0,0
371,15,0,0,0,0,0,0,0,0,0,-1,1595,1009,0,0
378,15,0,0,0,0,0,0,0,0,0,-1,1602,1009,0,0
385,15,0,0,0,0,0,0,0,0,0,-1,1609,1009,0,0
392,15,0,0,0,0,0,0,0,0,0,-1,1616,1009,0,0
399,15,0,0,0,0,0,0,0,0,0,-1,1623,1009,0,0
406,15,0,0,0,0,0,0,0,0,0,-1,1630,1009,0,0
413,15,0,0,0,0,0,0,0,0,0,-1,1637,1009,0,0
420,15,0,0,0,0,0,0,0,0,0,-1,1644,1009,0,0
427,15,0,0,0,0,0,0,0,0,0,-1,1651,1009,0,0
434,15,0,0,0,0,0,0,0,0,0,-1,1658,1009,0,0
441,15,0,0,0,0,0,0,0,0,0,-1,1665,1009,0,0
448,15,0,0,0,0,0,0,0,0,0,-1,1672,1009,0,0
455,15,0,0,0,0,0,0,0,0,0,-1,1679,1009,0,0
462,15,0,0,0,0,0,0,0,0,0,-1,1686,1009,0,0
469,15,0,0,0,0,0,0,0,0,0,-1,1693,1009,0,0
476,15,0,0,0,0,0,0,0,0,0,-1,1700,1009,0,0
483,15,0,0,0,0,0,0,0,0,0,-1,1707,1009,0,0
490,15,0,0,0,0,0,0,0,0,0,-1,1714,1009,0,0
497,15,0,0,0,0,0,0,0,0,0,-1,1721,1009,0,0
504,15,0,0,0,0,0,0,0,0,0,-1,1728,1009,0,0
511,15,0,0,0,0,0,0,0,0,0,-1,1735,1009,0,0
518,15,0,0,0,0,0,0,0,0,0,-1,1742,1009,0,0
525,15,0,0,0,0,0,0,0,0,0,-1,1749,1009,0,0
532,15,0,0,0,0,0,0,0,0,0,-1,1756,1009,0,0
539,15,0,0,0,0,0,0,0,0,0,-1,1763,1009,0,0
546,15,0,0,0,0,0,0,0,0,0,-1,1770,1009,0,0
553,15,0,0,0,0,0,0,0,0,0,-1,1777,1009,0,0
560,15,0,0,0,0,0,0,0,0,0,-1,1784,1009,0,0
567,15,0,0,0,0,0,0,0,0,0,-1,1791,1009,0,0
574,15,0,0,0,0,0,0,0,0,0,-1,1798,1009,0,0
581,15,0,0,0,0,0,0,0,0,0,-1,1805,1009,0,0
588,15,0,0,0,0,0,0,0,0,0,-1,1812,1009,0,0
595,15,0,0,0,0,0,0,0,0,0,-1,1819,1009,0,0
602,15,0,0,0,0,0,0,0,0,0,-1,1826,1009,0,0
609,15,0,0,0,0,0,0,0,0,0,-1,1833,1009,0,0
616,15,0,0,0,0,0,0,0,0,0,-1,1840,1009,0,0
623,15,0,0,0,0,0,0,0,0,0,-1,1847,1009,0,0
630,15,0,0,0,0,0,0,0,0,0,-1,1854,1009,0,0
637,15,0,0,0,0,0,0,0,0,0,-1,1861,1009,0,0
644,15,228.208,8.75452,0,0,0,0,0,0,0,-1,1868,1009,228.208,-8.75453
651,15,228.295,8.72217,0,0,0,0,0,0,0,-1,1875,1009,228.295,-8.72216
658,15,228.274,8.71429,0,0,0,0,0,0,0,-1,1882,1009,228.274,-8.71431
665,15,228.251,8.78564,0,0,0,0,0,0,0,-1,1889,1009,228.251,-8.78565
672,15,228.202,8.94958,0,0,0,0,0,0,0,-1,1896,1009,228.202,-8.9496
679,15,228.302,8.61273,0,0,0,0,0,0,0,-1,1903,1009,228.301,-8.61276
686,15,228.286,8.65771,0,0,0,0,0,0,0,-1,1910,1009,228.286,-8.65774
693,15,228.269,8.70258,0,0,0,0,0,0,0,-1,1917,1009,228.269,-8.70257
700,15,228.304,8.60339,0,0,0,0,0,0,0,-1,1924,1009,228.304,-8.60341
707,15,228.382,8.73309,0,0,0,0,0,0,0,-1,1931,1009,228.382,-8.73311
714,15,228.658,9.04852,0,0,0,0,0,0,0,-1,1938,1009,228.658,-9.04852
721,15,105.871,3.06104,0,0,0,0,0,0,0,-1,1945,1009,105.871,-3.06104
728,15,230.714,31.7844,0,0,0,0,0,0,0,-1,1952,1009,230.714,-31.7843
735,15,230.596,32.2963,0,0,0,0,0,0,0,-1,1959,1009,230.596,-32.2963
742,15,230.671,32.6676,0,0,0,0,0,0,0,-1,1966,1009,230.671,-32.6676
749,15,230.525,33.2892,-0.0103768,0.0197195,-0.000700918,0.0197358,-0.0103931,-1.54752,0.0176715,0.0352374,1973,1009,230.525,-33.2892
756,15,230.522,33.5308,-0.0141399,0.0277888,-0.00177609,0.0278639,-0.014215,-1.52854,0.0247166,0.0280799,1980,1009,230.522,-33.5308
763,15,230.317,34.0742,-0.0172642,0.0358016,-0.00284633,0.0359539,-0.0174164,-1.51736,0.0314268,0.0196436,1987,1009,230.317,-34.0742
770,15,230.056,34.3372,-0.0196983,0.0437364,-0.00395828,0.0439825,-0.0199443,-1.50872,0.0377679,0.0272898,1994,1009,230.056,-34.3372
777,15,229.557,34.5414,0,0,0,0,0,0,0,-1,2001,1009,229.557,-34.5414
784,15,183.132,33.4588,0,0,0,0,0,0,0,-1,2008,1009,183.132,-33.4588
791,15,77.2153,5.6933,0,0,0,0,0,0,0,-1,2015,1009,77.2154,-5.69328
798,15,88.0789,8.15259,0,0,0,0,0,0,0,-1,2022,1009,88.0789,-8.1526
805,15,88.3564,8.5954,0,0,0,0,0,0,0,-1,2029,1009,88.3564,-8.59542
812,15,88.9314,8.58789,0,0,0,0,0,0,0,-1,2036,1009,88.9313,-8.58789
-700,8,0,0,0,0,0,0,0,0,0,-1,524,1016,0,0
-693,8,-94.4625,-0.110535,0,0,0,0,0,0,0,-1,531,1016,-94.4625,0.110518
-686,8,-93.652,1.13306,0,0,0,0,0,0,0,-1,538,1016,-93.652,-1.13308
-679,8,-92.8582,2.35199,0,0,0,0,0,0,0,-1,545,1016,-92.8582,-2.35199
-672,8,-91.9374,3.4234,0,0,0,0,0,0,0,-1,552,1016,-91.9374,-3.42337
-665,8,-91.0598,4.48438,0,0,0,0,0,0,0,-1,559,1016,-91.0598,-4.48439
-658,8,-67.093,6.67358,0,0,0,0,0,0,0,-1,566,1016,-67.093,-6.67358
-651,8,-66.0091,7.37134,0,0,0,0,0,0,0,-1,573,1016,-66.0091,-7.37133
-644,8,-219.968,33.6034,0,0,0,0,0,0,0,-1,580,1016,-219.968,-33.6034
-637,8,-223.187,33.98,0,0,0,0,0,0,0,-1,587,1016,-223.187,-33.9801
-630,8,-223.347,33.5711,-0.00918011,0.0382142,0.00411377,0.0385686,-0.00953453,1.48485,0.0294103,0.0325635,594,1016,-223.347,-33.5711
-623,8,-223.385,33.2083,-0.0034561,0.0298618,0.00336581,0.0301984,-0.00379272,1.47112,0.0215083,0.0213417,601,1016,-223.385,-33.2083
-616,8,-223.371,32.8234,0.00204675,0.0215147,0.00271274,0.0218856,0.00167581,1.4349,0.0140651,0.0201376,608,1016,-223.371,-32.8234
-609,8,-223.331,32.3672,0.00735836,0.01319,0.00217717,0.0139131,0.00663521,1.25011,0.0080356,0.0200727,615,1016,-223.331,-32.3672
-602,8,-223.184,32.0469,0.012508,0.004907,0.00178399,0.0129059,0.00450912,0.219438,0.00756307,0.0319179,622,1016,-223.184,-32.0469
-595,8,-222.984,31.6431,0,0,0,0,0,0,0,-1,629,1016,-222.984,-31.6432
-588,8,-72.1575,0.396667,0,0,0,0,0,0,0,-1,636,1016,-72.1575,-0.396696
-581,8,-72.2949,0.488342,0,0,0,0,0,0,0,-1,643,1016,-72.2949,-0.488366
-574,8,-72.2419,0.491821,0,0,0,0,0,0,0,-1,650,1016,-72.242,-0.491798
-567,8,-72.2828,0.555176,0,0,0,0,0,0,0,-1,657,1016,-72.2828,-0.555176
-560,8,-72.3215,0.677917,0,0,0,0,0,0,0,-1,664,1016,-72.3215,-0.677912
-553,8,-72.1692,0.698608,0,0,0,0,0,0,0,-1,671,1016,-72.1692,-0.698607
-546,8,-72.1154,0.481506,0,0,0,0,0,0,0,-1,678,1016,-72.1154,-0.481502
-539,8,-72.0368,0.219299,0,0,0,0,0,0,0,-1,685,1016,-72.0368,-0.219299
-532,8,-72.2081,0.637329,0,0,0,0,0,0,0,-1,692,1016,-72.2082,-0.637349
-525,8,0,0,0,0,0,0,0,0,0,-1,699,1016,0,0
-518,8,0,0,0,0,0,0,0,0,0,-1,706,1016,0,0
-511,8,0,0,0,0,0,0,0,0,0,-1,713,1016,0,0
-504,8,0,0,0,0,0,0,0,0,0,-1,720,1016,0,0
-497,8,0,0,0,0,0,0,0,0,0,-1,727,1016,0,0
-490,8,0,0,0,0,0,0,0,0,0,-1,734,1016,0,0
-483,8,0,0,0,0,0,0,0,0,0,-1,741,1016,0,0
-476,8,0,0,0,0,0,0,0,0,0,-1,748,1016,0,0
-469,8,0,0,0,0,0,0,0,0,0,-1,755,1016,0,0
-462,8,0,0,0,0,0,0,0,0,0,-1,762,1016,0,0
-455,8,0,0,0,0,0,0,0,0,0,-1,769,1016,0,0
-448,8,0,0,0,0,0,0,0,0,0,-1,776,1016,0,0
-441,8,0,0,0,0,0,0,0,0,0,-1,783,1016,0,0
-434,8,0,0,0,0,0,0,0,0,0,-1,790,1016,0,0
-427,8,0,0,0,0,0,0,0,0,0,-1,797,1016,0,0
-420,8,0,0,0,0,0,0,0,0,0,-1,804,1016,0,0
-413,8,0,0,0,0,0,0,0,0,0,-1,811,1016,0,0
-406,8,0,0,0,0,0,0,0,0,0,-1,818,1016,0,0
-399,8,0,0,0,0,0,0,0,0,0,-1,825,1016,0,0
-392,8,0,0,0,0,0,0,0,0,0,-1,832,1016,0,0
-385,8,0,0,0,0,0,0,0,0,0,-1,839,1016,0,0
-378,8,0,0,0,0,0,0,0,0,0,-1,846,1016,0,0
-371,8,0,0,0,0,0,0,0,0,0,-1,853,1016,0,0
-364,8,0,0,0,0,0,0,0,0,0,-1,860,1016,0,0
-357,8,0,0,0,0,0,0,0,0,0,-1,867,1016,0,0
-350,8,0,0,0,0,0,0,0,0,0,-1,874,1016,0,0
-343,8,0,0,0,0,0,0,0,0,0,-1,881,1016,0,0
-336,8,0,0,0,0,0,0,0,0,0,-1,888,1016,0,0
-329,8,0,0,0,0,0,0,0,0,0,-1,895,1016,0,0
-322,8,0,0,0,0,0,0,0,0,0,-1,902,1016,0,0
-315,8,0,0,0,0,0,0,0,0,0,-1,909,1016,0,0
-308,8,0,0,0,0,0,0,0,0,0,-1,916,1016,0,0
-301,8,0,0,0,0,0,0,0,0,0,-1,923,1016,0,0
-294,8,0,0,0,0,0,0,0,0,0,-1,930,1016,0,0
-287,8,0,0,0,0,0,0,0,0,0,-1,937,1016,0,0
-280,8,0,0,0,0,0,0,0,0,0,-1,944,1016,0,0
-273,8,0,0,0,0,0,0,0,0,0,-1,951,1016,0,0
-266,8,0,0,0,0,0,0,0,0,0,-1,958,1016,0,0
-259,8,0,0,0,0,0,0,0,0,0,-1,965,1016,0,0
-252,8,0,0,0,0,0,0,0,0,0,-1,972,1016,0,0
-245,8,0,0,0,0,0,0,0,0,0,-1,979,1016,0,0
-238,8,0,0,0,0,0,0,0,0,0,-1,986,1016,0,0
-231,8,0,0,0,0,0,0,0,0,0,-1,993,1016,0,0
-224,8,0,0,0,0,0,0,0,0,0,-1,1000,1016,0,0
-217,8,0,0,0,0,0,0,0,0,0,-1,1007,1016,0,0
-210,8,0,0,0,0,0,0,0,0,0,-1,1014,1016,0,0
-203,8,0,0,0,0,0,0,0,0,0,-1,1021,1016,0,0
-196,8,0,0,0,0,0,0,0,0,0,-1,1028,1016,0,0
-189,8,0,0,0,0,0,0,0,0,0,-1,1035,1016,0,0
-182,8,0,0,0,0,0,0,0,0,0,-1,1042,1016,0,0
-175,8,0,0,0,0,0,0,0,0,0,-1,1049,1016,0,0
-168,8,0,0,0,0,0,0,0,0,0,-1,1056,1016,0,0
-161,8,0,0,0,0,0,0,0,0,0,-1,1063,1016,0,0
-154,8,0,0,0,0,0,0,0,0,0,-1,1070,1016,0,0
-147,8,0,0,0,0,0,0,0,0,0,-1,1077,1016,0,0
-140,8,0,0,0,0,0,0,0,0,0,-1,1084,1016,0,0
-133,8,0,0,0,0,0,0,0,0,0,-1,1091,1016,0,0
-126,8,0,0,0,0,0,0,0,0,0,-1,1098,1016,0,0
-119,8,0,0,0,0,0,0,0,0,0,-1,1105,1016,0,0
-112,8,0,0,0,0,0,0,0,0,0,-1,1112,1016,0,0
-105,8,0,0,0,0,0,0,0,0,0,-1,1119,1016,0,0
-98,8,0,0,0,0,0,0,0,0,0,-1,1126,1016,0,0
-91,8,0,0,0,0,0,0,0,0,0,-1,1133,1016,0,0
-84,8,0,0,0,0,0,0,0,0,0,-1,1140,1016,0,0
-77,8,0,0,0,0,0,0,0,0,0,-1,1147,1016,0,0
-70,8,0,0,0,0,0,0,0,0,0,-1,1154,1016,0,0
-63,8,0,0,0,0,0,0,0,0,0,-1,1161,1016,0,0
-56,8,0,0,0,0,0,0,0,0,0,-1,1168,1016,0,0
-49,8,0,0,0,0,0,0,0,0,0,-1,1175,1016,0,0
-42,8,0,0,0,0,0,0,0,0,0,-1,1182,1016,0,0
-35,8,0,0,0,0,0,0,0,0,0,-1,1189,1016,0,0
-28,8,0,0,0,0,0,0,0,0,0,-1,1196,1016,0,0
-21,8,0,0,0,0,0,0,0,0,0,-1,1203,1016,0,0
-14,8,0,0,0,0,0,0,0,0,0,-1,1210,1016,0,0
-7,8,0,0,0,0,0,0,0,0,0,-1,1217,1016,0,0
0,8,0,0,0,0,0,0,0,0,0,-1,1224,1016,0,0
7,8,0,0,0,0,0,0,0,0,0,-1,1231,1016,0,0
14,8,0,0,0,0,0,0,0,0,0,-1,1238,1016,0,0
21,8,0,0,0,0,0,0,0,0,0,-1,1245,1016,0,0
28,8,0,0,0,0,0,0,0,0,0,-1,1252,1016,0,0
35,8,0,0,0,0,0,0,0,0,0,-1,1259,1016,0,0
42,8,0,0,0,0,0,0,0,0,0,-1,1266,1016,0,0
49,8,0,0,0,0,0,0,0,0,0,-1,1273,1016,0,0
56,8,0,0,0,0,0,0,0,0,0,-1,1280,1016,0,0
63,8,0,0,0,0,0,0,0,0,0,-1,1287,1016,0,0
70,8,0,0,0,0,0,0,0,0,0,-1,1294,1016,0,0
77,8,0,0,0,0,0,0,0,0,0,-1,1301,1016,0,0
84,8,0,0,0,0,0,0,0,0,0,-1,1308,1016,0,0
91,8,0,0,0,0,0,0,0,0,0,-1,1315,1016,0,0
98,8,0,0,0,0,0,0,0,0,0,-1,1322,1016,0,0
105,8,0,0,0,0,0,0,0,0,0,-1,1329,1016,0,0
112,8,0,0,0,0,0,0,0,0,0,-1,1336,1016,0,0
119,8,0,0,0,0,0,0,0,0,0,-1,1343,1016,0,0
126,8,0,0,0,0,0,0,0,0,0,-1,1350,1016,0,0
133,8,0,0,0,0,0,0,0,0,0,-1,1357,1016,0,0
140,8,0,0,0,0,0,0,0,0,0,-1,1364,1016,0,0
147,8,0,0,0,0,0,0,0,0,0,-1,1371,1016,0,0
154,8,0,0,0,0,0,0,0,0,0,-1,1378,1016,0,0
161,8,0,0,0,0,0,0,0,0,0,-1,1385,1016,0,0
168,8,0,0,0,0,0,0,0,0,0,-1,1392,1016,0,0
175,8,0,0,0,0,0,0,0,0,0,-1,1399,1016,0,0
182,8,0,0,0,0,0,0,0,0,0,-1,1406,1016,0,0
189,8,0,0,0,0,0,0,0,0,0,-1,1413,1016,0,0
196,8,0,0,0,0,0,0,0,0,0,-1,1420,1016,0,0
203,8,0,0,0,0,0,0,0,0,0,-1,1427,1016,0,0
210,8,0,0,0,0,0,0,0,0,0,-1,1434,1016,0,0
217,8,0,0,0,0,0,0,0,0,0,-1,1441,1016,0,0
224,8,0,0,0,0,0,0,0,0,0,-1,1448,1016,0,0
231,8,0,0,0,0,0,0,0,0,0,-1,1455,1016,0,0
238,8,0,0,0,0,0,0,0,0,0,-1,1462,1016,0,0
245,8,0,0,0,0,0,0,0,0,0,-1,1469,1016,0,0
252,8,0,0,0,0,0,0,0,0,0,-1,1476,1016,0,0
259,8,0,0,0,0,0,0,0,0,0,-1,1483,1016,0,0
266,8,0,0,0,0,0,0,0,0,0,-1,1490,1016,0,0
273,8,0,0,0,0,0,0,0,0,0,-1,1497,1016,0,0
280,8,0,0,0,0,0,0,0,0,0,-1,1504,1016,0,0
287,8,0,0,0,0,0,0,0,0,0,-1,1511,1016,0,0
294,8,0,0,0,0,0,0,0,0,0,-1,1518,1016,0,0
301,8,0,0,0,0,0,0,0,0,0,-1,1525,1016,0,0
308,8,0,0,0,0,0,0,0,0,0,-1,1532,1016,0,0
315,8,0,0,0,0,0,0,0,0,0,-1,1539,1016,0,0
322,8,0,0,0,0,0,0,0,0,0,-1,1546,1016,0,0
329,8,0,0,0,0,0,0,0,0,0,-1,1553,1016,0,0
336,8,0,0,0,0,0,0,0,0,0,-1,1560,1016,0,0
343,8,0,0,0,0,0,0,0,0,0,-1,1567,1016,0,0
350,8,0,0,0,0,0,0,0,0,0,-1,1574,1016,0,0
357,8,0,0,0,0,0,0,0,0,0,-1,1581,1016,0,0
364,8,0,0,0,0,0,0,0,0,0,-1,1588,1016,0,0
371,8,0,0,0,0,0,0,0,0,0,-1,1595,1016,0,0
378,8,0,0,0,0,0,0,0,0,0,-1,1602,1016,0,0
385,8,0,0,0,0,0,0,0,0,0,-1,1609,1016,0,0
392,8,0,0,0,0,0,0,0,0,0,-1,1616,1016,0,0
399,8,0,0,0,0,0,0,0,0,0,-1,1623,1016,0,0
406,8,0,0,0,0,0,0,0,0,0,-1,1630,1016,0,0
413,8,0,0,0,0,0,0,0,0,0,-1,1637,1016,0,0
420,8,0,0,0,0,0,0,0,0,0,-1,1644,1016,0,0
427,8,0,0,0,0,0,0,0,0,0,-1,1651,1016,0,0
434,8,0,0,0,0,0,0,0,0,0,-1,1658,1016,0,0
441,8,0,0,0,0,0,0,0,0,0,-1,1665,1016,0,0
448,8,0,0,0,0,0,0,0,0,0,-1,1672,1016,0,0
455,8,0,0,0,0,0,0,0,0,0,-1,1679,1016,0,0
462,8,0,0,0,0,0,0,0,0,0,-1,1686,1016,0,0
469,8,0,0,0,0,0,0,0,0,0,-1,1693,1016,0,0
476,8,0,0,0,0,0,0,0,0,0,-1,1700,1016,0,0
483,8,0,0,0,0,0,0,0,0,0,-1,1707,1016,0,0
490,8,0,0,0,0,0,0,0,0,0,-1,1714,1016,0,0
497,8,0,0,0,0,0,0,0,0,0,-1,1721,1016,0,0
504,8,0,0,0,0,0,0,0,0,0,-1,1728,1016,0,0
511,8,0,0,0,0,0,0,0,0,0,-1,1735,1016,0,0
518,8,0,0,0,0,0,0,0,0,0,-1,1742,1016,0,0
525,8,0,0,0,0,0,0,0,0,0,-1,1749,1016,0,0
532,8,0,0,0,0,0,0,0,0,0,-1,1756,1016,0,0
539,8,0,0,0,0,0,0,0,0,0,-1,1763,1016,0,0
546,8,0,0,0,0,0,0,0,0,0,-1,1770,1016,0,0
553,8,0,0,0,0,0,0,0,0,0,-1,1777,1016,0,0
560,8,0,0,0,0,0,0,0,0,0,-1,1784,1016,0,0
567,8,0,0,0,0,0,0,0,0,0,-1,1791,1016,0,0
574,8,0,0,0,0,0,0,0,0,0,-1,1798,1016,0,0
581,8,0,0,0,0,0,0,0,0,0,-1,1805,1016,0,0
588,8,0,0,0,0,0,0,0,0,0,-1,1812,1016,0,0
595,8,0,0,0,0,0,0,0,0,0,-1,1819,1016,0,0
602,8,0,0,0,0,0,0,0,0,0,-1,1826,1016,0,0
609,8,0,0,0,0,0,0,0,0,0,-1,1833,1016,0,0
616,8,0,0,0,0,0,0,0,0,0,-1,1840,1016,0,0
623,8,0,0,0,0,0,0,0,0,0,-1,1847,1016,0,0
630,8,0,0,0,0,0,0,0,0,0,-1,1854,1016,0,0
637,8,0,0,0,0,0,0,0,0,0,-1,1861,1016,0,0
644,8,228.155,8.90302,0,0,0,0,0,0,0,-1,1868,1016,228.155,-8.90301
651,8,228.195,8.74585,0,0,0,0,0,0,0,-1,1875,1016,228.195,-8.74586
658,8,228.148,8.67865,0,0,0,0,0,0,0,-1,1882,1016,228.148,-8.67868
665,8,228.129,8.7403,0,0,0,0,0,0,0,-1,1889,1016,228.129,-8.74032
672,8,228.24,8.77673,0,0,0,0,0,0,0,-1,1896,1016,228.239,-8.77671
679,8,228.29,8.65491,0,0,0,0,0,0,0,-1,1903,1016,228.29,-8.65489
686,8,228.204,8.8338,0,0,0,0,0,0,0,-1,1910,1016,228.204,-8.8338
693,8,228.146,8.83441,0,0,0,0,0,0,0,-1,1917,1016,228.146,-8.83442
700,8,228.183,8.65314,0,0,0,0,0,0,0,-1,1924,1016,228.183,-8.65312
707,8,228.292,8.67938,0,0,0,0,0,0,0,-1,1931,1016,228.292,-8.67937
714,8,228.304,8.62756,0,0,0,0,0,0,0,-1,1938,1016,228.304,-8.62754
721,8,222.525,8.33405,0,0,0,0,0,0,0,-1,1945,1016,222.525,-8.33405
728,8,52.1681,5.36774,0,0,0,0,0,0,0,-1,1952,1016,52.168,-5.36773
735,8,231.071,32.3738,0,0,0,0,0,0,0,-1,1959,1016,231.071,-32.3738
742,8,83.9912,8.48407,0,0,0,0,0,0,0,-1,1966,1016,83.9913,-8.48409
749,8,231.131,33.3412,0,0,0,0,0,0,0,-1,1973,1016,231.131,-33.3413
756,8,231.107,33.4651,0,0,0,0,0,0,0,-1,1980,1016,231.107,-33.4651
763,8,230.854,33.7195,0,0,0,0,0,0,0,-1,1987,1016,230.854,-33.7195
770,8,230.583,34.0002,0,0,0,0,0,0,0,-1,1994,1016,230.583,-34.0002
777,8,230.179,34.3432,0,0,0,0,0,0,0,-1,2001,1016,230.179,-34.3432
784,8,134.481,19.9537,0,0,0,0,0,0,0,-1,2008,1016,134.481,-19.9537
791,8,88.1389,7.42731,0,0,0,0,0,0,0,-1,2015,1016,88.1389,-7.42729
798,8,88.519,7.40491,0,0,0,0,0,0,0,-1,2022,1016,88.519,-7.40488
805,8,94.8618,12.5284,0,0,0,0,0,0,0,-1,2029,1016,94.8618,-12.5284
812,8,95.3872,12.9834,0,0,0,0,0,0,0,-1,2036,1016,95.3873,-12.9834
-700,1,0,0,0,0,0,0,0,0,0,-1,524,1023,0,0
-693,1,-89.0085,15.0234,0,0,0,0,0,0,0,-1,531,1023,-89.0085,-15.0233
-686,1,-92.1439,0.987854,0,0,0,0,0,0,0,-1,538,1023,-92.1439,-0.987837
-679,1,-91.2599,2.24536,0,0,0,0,0,0,0,-1,545,1023,-91.2599,-2.24535
-672,1,-90.748,2.95911,0,0,0,0,0,0,0,-1,552,1023,-90.748,-2.95909
-665,1,-89.907,3.96826,0,0,0,0,0,0,0,-1,559,1023,-89.907,-3.96827
-658,1,-71.1587,7.20117,0,0,0,0,0,0,0,-1,566,1023,-71.1587,-7.20115
-651,1,-67.7609,7.71844,0,0,0,0,0,0,0,-1,573,1023,-67.7609,-7.71845
-644,1,-211.26,34.5236,0,0,0,0,0,0,0,-1,580,1023,-211.26,-34.5236
-637,1,-224.126,33.7563,0,0,0,0,0,0,0,-1,587,1023,-224.126,-33.7563
-630,1,-223.932,33.3685,-0.00894131,0.0380133,0.00334232,0.03825,-0.00917803,1.50009,0.0290468,0.0475584,594,1023,-223.932,-33.3685
-623,1,-223.739,33.0311,-0.00343512,0.0295097,0.00290856,0.0297646,-0.00368993,1.48341,0.0211804,0.0203763,601,1023,-223.739,-33.0312
-616,1,-223.883,32.5814,0.00186906,0.0210213,0.00255908,0.0213573,0.00153302,1.44023,0.0137557,0.0237057,608,1023,-223.883,-32.5814
-609,1,-223.873,32.3409,0.00699486,0.0125688,0.00231903,0.0134074,0.00615621,1.22379,0.00774937,0.0214567,615,1023,-223.873,-32.3409
-602,1,-223.587,31.9833,0.0119635,0.004175,0.00221621,0.01255,0.00358854,0.258693,0.0074638,0.0194421,622,1023,-223.587,-31.9833
-595,1,-223.382,31.6207,0.0167941,-0.00413471,0.00228144,0.0170399,-0.00438053,0.10733,0.0130672,0.0336387,629,1023,-223.382,-31.6207
-588,1,-223.113,31.4619,0,0,0,0,0,0,0,-1,636,1023,-223.113,-31.4619
-581,1,-72.3068,0.48175,0,0,0,0,0,0,0,-1,643,1023,-72.3068,-0.481753
-574,1,-72.3138,0.632874,0,0,0,0,0,0,0,-1,650,1023,-72.3138,-0.632846
-567,1,-72.231,0.548584,0,0,0,0,0,0,0,-1,657,1023,-72.231,-0.548607
-560,1,-72.2925,0.673706,0,0,0,0,0,0,0,-1,664,1023,-72.2926,-0.673701
-553,1,-72.1824,-0.118774,0,0,0,0,0,0,0,-1,671,1023,-72.1824,0.118785
-546,1,-72.0557,0.329224,0,0,0,0,0,0,0,-1,678,1023,-72.0557,-0.329219
-539,1,-72.0885,0.710022,0,0,0,0,0,0,0,-1,685,1023,-72.0885,-0.710042
-532,1,-72.1794,0.856262,0,0,0,0,0,0,0,-1,692,1023,-72.1794,-0.856276
-525,1,0,0,0,0,0,0,0,0,0,-1,699,1023,0,0
-518,1,0,0,0,0,0,0,0,0,0,-1,706,1023,0,0
-511,1,0,0,0,0,0,0,0,0,0,-1,713,1023,0,0
-504,1,0,0,0,0,0,0,0,0,0,-1,720,1023,0,0
-497,1,0,0,0,0,0,0,0,0,0,-1,727,1023,0,0
-490,1,0,0,0,0,0,0,0,0,0,-1,734,1023,0,0
-483,1,0,0,0,0,0,0,0,0,0,-1,741,1023,0,0
-476,1,0,0,0,0,0,0,0,0,0,-1,748,1023,0,0
-469,1,0,0,0,0,0,0,0,0,0,-1,755,1023,0,0
-462,1,0,0,0,0,0,0,0,0,0,-1,762,1023,0,0
-455,1,0,0,0,0,0,0,0,0,0,-1,769,1023,0,0
-448,1,0,0,0,0,0,0,0,0,0,-1,776,1023,0,0
-441,1,0,0,0,0,0,0,0,0,0,-1,783,1023,0,0
-434,1,0,0,0,0,0,0,0,0,0,-1,790,1023,0,0
-427,1,0,0,0,0,0,0,0,0,0,-1,797,1023,0,0
-420,1,0,0,0,0,0,0,0,0,0,-1,804,1023,0,0
-413,1,0,0,0,0,0,0,0,0,0,-1,811,1023,0,0
-406,1,0,0,0,0,0,0,0,0,0,-1,818,1023,0,0
-399,1,0,0,0,0,0,0,0,0,0,-1,825,1023,0,0
-392,1,0,0,0,0,0,0,0,0,0,-1,832,1023,0,0
-385,1,0,0,0,0,0,0,0,0,0,-1,839,1023,0,0
-378,1,0,0,0,0,0,0,0,0,0,-1,846,1023,0,0
-371,1,0,0,0,0,0,0,0,0,0,-1,853,1023,0,0
-364,1,0,0,0,0,0,0,0,0,0,-1,860,1023,0,0
-357,1,0,0,0,0,0,0,0,0,0,-1,867,1023,0,0
-350,1,0,0,0,0,0,0,0,0,0,-1,874,1023,0,0
-343,1,0,0,0,0,0,0,0,0,0,-1,881,1023,0,0
-336,1,0,0,0,0,0,0,0,0,0,-1,888,1023,0,0
-329,1,0,0,0,0,0,0,0,0,0,-1,895,1023,0,0
-322,1,0,0,0,0,0,0,0,0,0,-1,902,1023,0,0
-315,1,0,0,0,0,0,0,0,0,0,-1,909,1023,0,0
-308,1,0,0,0,0,0,0,0,0,0,-1,916,1023,0,0
-301,1,0,0,0,0,0,0,0,0,0,-1,923,1023,0,0
-294,1,0,0,0,0,0,0,0,0,0,-1,930,1023,0,0
-287,1,0,0,0,0,0,0,0,0,0,-1,937,1023,0,0
-280,1,0,0,0,0,0,0,0,0,0,-1,944,1023,0,0
-273,1,0,0,0,0,0,0,0,0,0,-1,951,1023,0,0
-266,1,0,0,0,0,0,0,0,0,0,-1,958,1023,0,0
-259,1,0,0,0,0,0,0,0,0,0,-1,965,1023,0,0
-252,1,0,0,0,0,0,0,0,0,0,-1,972,1023,0,0
-245,1,0,0,0,0,0,0,0,0,0,-1,979,1023,0,0
-238,1,0,0,0,0,0,0,0,0,0,-1,986,1023,0,0
-231,1,0,0,0,0,0,0,0,0,0,-1,993,1023,0,0
-224,1,0,0,0,0,0,0,0,0,0,-1,1000,1023,0,0
-217,1,0,0,0,0,0,0,0,0,0,-1,1007,1023,0,0
-210,1,0,0,0,0,0,0,0,0,0,-1,1014,1023,0,0
-203,1,0,0,0,0,0,0,0,0,0,-1,1021,1023,0,0
-196,1,0,0,0,0,0,0,0,0,0,-1,1028,1023,0,0
-189,1,0,0,0,0,0,0,0,0,0,-1,1035,1023,0,0
-182,1,0,0,0,0,0,0,0,0,0,-1,1042,1023,0,0
-175,1,0,0,0,0,0,0,0,0,0,-1,1049,1023,0,0
-168,1,0,0,0,0,0,0,0,0,0,-1,1056,1023,0,0
-161,1,0,0,0,0,0,0,0,0,0,-1,1063,1023,0,0
-154,1,0,0,0,0,0,0,0,0,0,-1,1070,1023,0,0
-147,1,0,0,0,0,0,0,0,0,0,-1,1077,1023,0,0
-140,1,0,0,0,0,0,0,0,0,0,-1,1084,1023,0,0
-133,1,0,0,0,0,0,0,0,0,0,-1,1091,1023,0,0
-126,1,0,0,0,0,0,0,0,0,0,-1,1098,1023,0,0
-119,1,0,0,0,0,0,0,0,0,0,-1,1105,1023,0,0
-112,1,0,0,0,0,0,0,0,0,0,-1,1112,1023,0,0
-105,1,0,0,0,0,0,0,0,0,0,-1,1119,1023,0,0
-98,1,0,0,0,0,0,0,0,0,0,-1,1126,1023,0,0
-91,1,0,0,0,0,0,0,0,0,0,-1,1133,1023,0,0
-84,1,0,0,0,0,0,0,0,0,0,-1,1140,1023,0,0
-77,1,0,0,0,0,0,0,0,0,0,-1,1147,1023,0,0
-70,1,0,0,0,0,0,0,0,0,0,-1,1154,1023,0,0
-63,1,0,0,0,0,0,0,0,0,0,-1,1161,1023,0,0
-56,1,0,0,0,0,0,0,0,0,0,-1,1168,1023,0,0
-49,1,0,0,0,0,0,0,0,0,0,-1,1175,1023,0,0
-42,1,0,0,0,0,0,0,0,0,0,-1,1182,1023,0,0
-35,1,0,0,0,0,0,0,0,0,0,-1,1189,1023,0,0
-28,1,0,0,0,0,0,0,0,0,0,-1,1196,1023,0,0
-21,1,0,0,0,0,0,0,0,0,0,-1,1203,1023,0,0
-14,1,0,0,0,0,0,0,0,0,0,-1,1210,1023,0,0
-7,1,0,0,0,0,0,0,0,0,0,-1,1217,1023,0,0
0,1,0,0,0,0,0,0,0,0,0,-1,1224,1023,0,0
7,1,0,0,0,0,0,0,0,0,0,-1,1231,1023,0,0
14,1,0,0,0,0,0,0,0,0,0,-1,1238,1023,0,0
21,1,0,0,0,0,0,0,0,0,0,-1,1245,1023,0,0
28,1,0,0,0,0,0,0,0,0,0,-1,1252,1023,0,0
35,1,0,0,0,0,0,0,0,0,0,-1,1259,1023,0,0
42,1,0,0,0,0,0,0,0,0,0,-1,1266,1023,0,0
49,1,0,0,0,0,0,0,0,0,0,-1,1273,1023,0,0
56,1,0,0,0,0,0,0,0,0,0,-1,1280,1023,0,0
63,1,0,0,0,0,0,0,0,0,0,-1,1287,1023,0,0
70,1,0,0,0,0,0,0,0,0,0,-1,1294,1023,0,0
77,1,0,0,0,0,0,0,0,0,0,-1,1301,1023,0,0
84,1,0,0,0,0,0,0,0,0,0,-1,1308,1023,0,0
91,1,0,0,0,0,0,0,0,0,0,-1,1315,1023,0,0
98,1,0,0,0,0,0,0,0,0,0,-1,1322,1023,0,0
105,1,0,0,0,0,0,0,0,0,0,-1,1329,1023,0,0
112,1,0,0,0,0,0,0,0,0,0,-1,1336,1023,0,0
119,1,0,0,0,0,0,0,0,0,0,-1,1343,1023,0,0
126,1,0,0,0,0,0,0,0,0,0,-1,1350,1023,0,0
133,1,0,0,0,0,0,0,0,0,0,-1,1357,1023,0,0
140,1,0,0,0,0,0,0,0,0,0,-1,1364,1023,0,0
147,1,0,0,0,0,0,0,0,0,0,-1,1371,1023,0,0
154,1,0,0,0,0,0,0,0,0,0,-1,1378,1023,0,0
161,1,0,0,0,0,0,0,0,0,0,-1,1385,1023,0,0
168,1,0,0,0,0,0,0,0,0,0,-1,1392,1023,0,0
175,1,0,0,0,0,0,0,0,0,0,-1,1399,1023,0,0
182,1,0,0,0,0,0,0,0,0,0,-1,1406,1023,0,0
189,1,0,0,0,0,0,0,0,0,0,-1,1413,1023,0,0
196,1,0,0,0,0,0,0,0,0,0,-1,1420,1023,0,0
203,1,0,0,0,0,0,0,0,0,0,-1,1427,1023,0,0
210,1,0,0,0,0,0,0,0,0,0,-1,1434,1023,0,0
217,1,0,0,0,0,0,0,0,0,0,-1,1441,1023,0,0
224,1,0,0,0,0,0,0,0,0,0,-1,1448,1023,0,0
231,1,0,0,0,0,0,0,0,0,0,-1,1455,1023,0,0
238,1,0,0,0,0,0,0,0,0,0,-1,1462,1023,0,0
245,1,0,0,0,0,0,0,0,0,0,-1,1469,1023,0,0
252,1,0,0,0,0,0,0,0,0,0,-1,1476,1023,0,0
259,1,0,0,0,0,0,0,0,0,0,-1,1483,1023,0,0
266,1,0,0,0,0,0,0,0,0,0,-1,1490,1023,0,0
273,1,0,0,0,0,0,0,0,0,0,-1,1497,1023,0,0
280,1,0,0,0,0,0,0,0,0,0,-1,1504,1023,0,0
287,1,0,0,0,0,0,0,0,0,0,-1,1511,1023,0,0
294,1,0,0,0,0,0,0,0,0,0,-1,1518,1023,0,0
301,1,0,0,0,0,0,0,0,0,0,-1,1525,1023,0,0
308,1,0,0,0,0,0,0,0,0,0,-1,1532,1023,0,0
315,1,0,0,0,0,0,0,0,0,0,-1,1539,1023,0,0
322,1,0,0,0,0,0,0,0,0,0,-1,1546,1023,0,0
329,1,0,0,0,0,0,0,0,0,0,-1,1553,1023,0,0
336,1,0,0,0,0,0,0,0,0,0,-1,1560,1023,0,0
343,1,0,0,0,0,0,0,0,0,0,-1,1567,1023,0,0
350,1,0,0,0,0,0,0,0,0,0,-1,1574,1023,0,0
357,1,0,0,0,0,0,0,0,0,0,-1,1581,1023,0,0
364,1,0,0,0,0,0,0,0,0,0,-1,1588,1023,0,0
371,1,0,0,0,0,0,0,0,0,0,-1,1595,1023,0,0
378,1,0,0,0,0,0,0,0,0,0,-1,1602,1023,0,0
385,1,0,0,0,0,0,0,0,0,0,-1,1609,1023,0,0
392,1,0,0,0,0,0,0,0,0,0,-1,1616,1023,0,0
399,1,0,0,0,0,0,0,0,0,0,-1,1623,1023,0,0
406,1,0,0,0,0,0,0,0,0,0,-1,1630,1023,0,0
413,1,0,0,0,0,0,0,0,0,0,-1,1637,1023,0,0
420,1,0,0,0,0,0,0,0,0,0,-1,1644,1023,0,0
427,1,0,0,0,0,0,0,0,0,0,-1,1651,1023,0,0
434,1,0,0,0,0,0,0,0,0,0,-1,1658,1023,0,0
441,1,0,0,0,0,0,0,0,0,0,-1,1665,1023,0,0
448,1,0,0,0,0,0,0,0,0,0,-1,1672,1023,0,0
455,1,0,0,0,0,0,0,0,0,0,-1,1679,1023,0,0
462,1,0,0,0,0,0,0,0,0,0,-1,1686,1023,0,0
469,1,0,0,0,0,0,0,0,0,0,-1,1693,1023,0,0
476,1,0,0,0,0,0,0,0,0,0,-1,1700,1023,0,0
483,1,0,0,0,0,0,0,0,0,0,-1,1707,1023,0,0
490,1,0,0,0,0,0,0,0,0,0,-1,1714,1023,0,0
497,1,0,0,0,0,0,0,0,0,0,-1,1721,1023,0,0
504,1,0,0,0,0,0,0,0,0,0,-1,1728,1023,0,0
511,1,0,0,0,0,0,0,0,0,0,-1,1735,1023,0,0
518,1,0,0,0,0,0,0,0,0,0,-1,1742,1023,0,0
525,1,0,0,0,0,0,0,0,0,0,-1,1749,1023,0,0
532,1,0,0,0,0,0,0,0,0,0,-1,1756,1023,0,0
539,1,0,0,0,0,0,0,0,0,0,-1,1763,1023,0,0
546,1,0,0,0,0,0,0,0,0,0,-1,1770,1023,0,0
553,1,0,0,0,0,0,0,0,0,0,-1,1777,1023,0,0
560,1,0,0,0,0,0,0,0,0,0,-1,1784,1023,0,0
567,1,0,0,0,0,0,0,0,0,0,-1,1791,1023,0,0
574,1,0,0,0,0,0,0,0,0,0,-1,1798,1023,0,0
581,1,0,0,0,0,0,0,0,0,0,-1,1805,1023,0,0
588,1,0,0,0,0,0,0,0,0,0,-1,1812,1023,0,0
595,1,0,0,0,0,0,0,0,0,0,-1,1819,1023,0,0
602,1,0,0,0,0,0,0,0,0,0,-1,1826,1023,0,0
609,1,0,0,0,0,0,0,0,0,0,-1,1833,1023,0,0
616,1,0,0,0,0,0,0,0,0,0,-1,1840,1023,0,0
623,1,0,0,0,0,0,0,0,0,0,-1,1847,1023,0,0
630,1,0,0,0,0,0,0,0,0,0,-1,1854,1023,0,0
637,1,0,0,0,0,0,0,0,0,0,-1,1861,1023,0,0
644,1,0,0,0,0,0,0,0,0,0,-1,1868,1023,0,0
651,1,228.163,8.80615,0,0,0,0,0,0,0,-1,1875,1023,228.163,-8.80613
658,1,228.14,8.81818,0,0,0,0,0,0,0,-1,1882,1023,228.14,-8.81816
665,1,228.222,8.77802,0,0,0,0,0,0,0,-1,1889,1023,228.222,-8.778
672,1,228.413,8.71887,0,0,0,0,0,0,0,-1,1896,1023,228.413,-8.7189
679,1,228.285,8.84076,0,0,0,0,0,0,0,-1,1903,1023,228.285,-8.84075
686,1,228.122,8.78009,0,0,0,0,0,0,0,-1,1910,1023,228.122,-8.78007
693,1,228.158,8.74097,0,0,0,0,0,0,0,-1,1917,1023,228.158,-8.74097
700,1,228.242,8.77881,0,0,0,0,0,0,0,-1,1924,1023,228.242,-8.77881
707,1,228.258,8.6684,0,0,0,0,0,0,0,-1,1931,1023,228.258,-8.66841
714,1,228.229,8.66107,0,0,0,0,0,0,0,-1,1938,1023,228.229,-8.66104
721,1,228.092,8.74854,0,0,0,0,0,0,0,-1,1945,1023,228.092,-8.74856
728,1,52.4639,5.59277,0,0,0,0,0,0,0,-1,1952,1023,52.4639,-5.59276
735,1,53.3617,6.10699,0,0,0,0,0,0,0,-1,1959,1023,53.3617,-6.10698
742,1,52.4393,5.81525,0,0,0,0,0,0,0,-1,1966,1023,52.4393,-5.81527
749,1,82.8113,7.83478,0,0,0,0,0,0,0,-1,1973,1023,82.8112,-7.8348
756,1,210.199,33.1948,0,0,0,0,0,0,0,-1,1980,1023,210.199,-33.1948
763,1,231.283,33.477,0,0,0,0,0,0,0,-1,1987,1023,231.283,-33.477
770,1,230.993,33.7372,-0.0202032,0.0426291,-0.000461801,0.0426325,-0.0202066,-1.56345,0.0370423,0.0295937,1994,1023,230.993,-33.7372
777,1,230.735,34.0294,-0.0217449,0.050839,-0.000324234,0.0508404,-0.0217463,-1.56633,0.0430155,0.046704,2001,1023,230.735,-34.0294
784,1,230.501,34.251,0,0,0,0,0,0,0,-1,2008,1023,230.502,-34.251
791,1,100.412,8.00543,0,0,0,0,0,0,0,-1,2015,1023,100.411,-8.00544
798,1,101.517,12.6337,0,0,0,0,0,0,0,-1,2022,1023,101.517,-12.6337
805,1,104.376,19.1456,0,0,0,0,0,0,0,-1,2029,1023,104.376,-19.1455
812,1,104.873,17.9626,0,0,0,0,0,0,0,-1,2036,1023,104.873,-17.9627
-700,-6,0,0,0,0,0,0,0,0,0,-1,524,1030,0,0
-693,-6,-88.6603,13.7856,0,0,0,0,0,0,0,-1,531,1030,-88.6604,-13.7856
-686,-6,-90.5388,13.9272,0,0,0,0,0,0,0,-1,538,1030,-90.5388,-13.9272
-679,-6,-91.8646,14.2508,0,0,0,0,0,0,0,-1,545,1030,-91.8646,-14.2508
-672,-6,-89.5654,2.59106,0,0,0,0,0,0,0,-1,552,1030,-89.5654,-2.59105
-665,-6,-87.2815,3.90417,0,0,0,0,0,0,0,-1,559,1030,-87.2815,-3.90414
-658,-6,-85.4016,4.85437,0,0,0,0,0,0,0,-1,566,1030,-85.4016,-4.85436
-651,-6,-87.49,11.0592,0,0,0,0,0,0,0,-1,573,1030,-87.4899,-11.0592
-644,-6,-194.497,33.6895,0,0,0,0,0,0,0,-1,580,1030,-194.497,-33.6895
-637,-6,-224.237,33.579,0,0,0,0,0,0,0,-1,587,1030,-224.237,-33.579
-630,-6,-224.125,33.1234,-0.008721,0.0376928,0.00278149,0.0378589,-0.0088871,1.51115,0.0286646,0.0358091,594,1030,-224.125,-33.1234
-623,-6,-224.071,32.8503,-0.00344942,0.0290178,0.00258166,0.0292218,-0.00365343,1.49194,0.0208062,0.0232351,601,1030,-224.071,-32.8504
-616,-6,-224.159,32.4859,0.00169218,0.0203736,0.00242253,0.0206827,0.00138315,1.44392,0.0133513,0.0242546,608,1030,-224.159,-32.4859
-609,-6,-224.142,32.2809,0.00672978,0.0117791,0.00232803,0.0126886,0.00582025,1.19835,0.00733411,0.0203409,615,1030,-224.142,-32.281
-602,-6,-224.042,31.9819,0.0116879,0.00325464,0.00232467,0.0122863,0.00265628,0.251924,0.00746465,0.0198141,622,1030,-224.042,-31.9819
-595,-6,-223.955,31.5952,0.0165897,-0.0051773,0.00244181,0.0168602,-0.00544786,0.110352,0.0134296,0.0418809,629,1030,-223.955,-31.5952
-588,-6,-223.317,31.2808,0,0,0,0,0,0,0,-1,636,1030,-223.317,-31.2808
-581,-6,-72.2767,0.400757,0,0,0,0,0,0,0,-1,643,1030,-72.2767,-0.400731
-574,-6,-72.3219,0.456665,0,0,0,0,0,0,0,-1,650,1030,-72.3219,-0.456675
-567,-6,-72.2971,0.412842,0,0,0,0,0,0,0,-1,657,1030,-72.2971,-0.412811
-560,-6,-72.3146,0.529053,0,0,0,0,0,0,0,-1,664,1030,-72.3146,-0.529107
-553,-6,-72.132,0.543579,0,0,0,0,0,0,0,-1,671,1030,-72.132,-0.543622
-546,-6,-72.027,0.153687,0,0,0,0,0,0,0,-1,678,1030,-72.0271,-0.153691
-539,-6,-72.1198,0.670776,0,0,0,0,0,0,0,-1,685,1030,-72.1198,-0.670789
-532,-6,-72.3258,1.02258,0,0,0,0,0,0,0,-1,692,1030,-72.3258,-1.02254
-525,-6,0,0,0,0,0,0,0,0,0,-1,699,1030,0,0
-518,-6,0,0,0,0,0,0,0,0,0,-1,706,1030,0,0
-511,-6,0,0,0,0,0,0,0,0,0,-1,713,1030,0,0
-504,-6,0,0,0,0,0,0,0,0,0,-1,720,1030,0,0
-497,-6,0,0,0,0,0,0,0,0,0,-1,727,1030,0,0
-490,-6,0,0,0,0,0,0,0,0,0,-1,734,1030,0,0
-483,-6,0,0,0,0,0,0,0,0,0,-1,741,1030,0,0
-476,-6,0,0,0,0,0,0,0,0,0,-1,748,1030,0,0
-469,-6,0,0,0,0,0,0,0,0,0,-1,755,1030,0,0
-462,-6,0,0,0,0,0,0,0,0,0,-1,762,1030,0,0
-455,-6,0,0,0,0,0,0,0,0,0,-1,769,1030,0,0
-448,-6,0,0,0,0,0,0,0,0,0,-1,776,1030,0,0
-441,-6,0,0,0,0,0,0,0,0,0,-1,783,1030,0,0
-434,-6,0,0,0,0,0,0,0,0,0,-1,790,1030,0,0
-427,-6,0,0,0,0,0,0,0,0,0,-1,797,1030,0,0
-420,-6,0,0,0,0,0,0,0,0,0,-1,804,1030,0,0
-413,-6,0,0,0,0,0,0,0,0,0,-1,811,1030,0,0
-406,-6,0,0,0,0,0,0,0,0,0,-1,818,1030,0,0
-399,-6,0,0,0,0,0,0,0,0,0,-1,825,1030,0,0
-392,-6,0,0,0,0,0,0,0,0,0,-1,832,1030,0,0
-385,-6,0,0,0,0,0,0,0,0,0,-1,839,1030,0,0
-378,-6,0,0,0,0,0,0,0,0,0,-1,846,1030,0,0
-371,-6,0,0,0,0,0,0,0,0,0,-1,853,1030,0,0
-364,-6,0,0,0,0,0,0,0,0,0,-1,860,1030,0,0
-357,-6,0,0,0,0,0,0,0,0,0,-1,867,1030,0,0
-350,-6,0,0,0,0,0,0,0,0,0,-1,874,1030,0,0
-343,-6,0,0,0,0,0,0,0,0,0,-1,881,1030,0,0
-336,-6,0,0,0,0,0,0,0,0,0,-1,888,1030,0,0
-329,-6,0,0,0,0,0,0,0,0,0,-1,895,1030,0,0
-322,-6,0,0,0,0,0,0,0,0,0,-1,902,1030,0,0
-315,-6,0,0,0,0,0,0,0,0,0,-1,909,1030,0,0
-308,-6,0,0,0,0,0,0,0,0,0,-1,916,1030,0,0
-301,-6,0,0,0,0,0,0,0,0,0,-1,923,1030,0,0
-294,-6,0,0,0,0,0,0,0,0,0,-1,930,1030,0,0
-287,-6,0,0,0,0,0,0,0,0,0,-1,937,1030,0,0
-280,-6,0,0,0,0,0,0,0,0,0,-1,944,1030,0,0
-273,-6,0,0,0,0,0,0,0,0,0,-1,951,1030,0,0
-266,-6,0,0,0,0,0,0,0,0,0,-1,958,1030,0,0
-259,-6,0,0,0,0,0,0,0,0,0,-1,965,1030,0,0
-252,-6,0,0,0,0,0,0,0,0,0,-1,972,1030,0,0
-245,-6,0,0,0,0,0,0,0,0,0,-1,979,1030,0,0
-238,-6,0,0,0,0,0,0,0,0,0,-1,986,1030,0,0
-231,-6,0,0,0,0,0,0,0,0,0,-1,993,1030,0,0
-224,-6,0,0,0,0,0,0,0,0,0,-1,1000,1030,0,0
-217,-6,0,0,0,0,0,0,0,0,0,-1,1007,1030,0,0
-210,-6,0,0,0,0,0,0,0,0,0,-1,1014,1030,0,0
-203,-6,0,0,0,0,0,0,0,0,0,-1,1021,1030,0,0
-196,-6,0,0,0,0,0,0,0,0,0,-1,1028,1030,0,0
-189,-6,0,0,0,0,0,0,0,0,0,-1,1035,1030,0,0
-182,-6,0,0,0,0,0,0,0,0,0,-1,1042,1030,0,0
-175,-6,0,0,0,0,0,0,0,0,0,-1,1049,1030,0,0
-168,-6,0,0,0,0,0,0,0,0,0,-1,1056,1030,0,0
-161,-6,0,0,0,0,0,0,0,0,0,-1,1063,1030,0,0
-154,-6,0,0,0,0,0,0,0,0,0,-1,1070,1030,0,0
-147,-6,0,0,0,0,0,0,0,0,0,-1,1077,1030,0,0
-140,-6,0,0,0,0,0,0,0,0,0,-1,1084,1030,0,0
-133,-6,0,0,0,0,0,0,0,0,0,-1,1091,1030,0,0
-126,-6,0,0,0,0,0,0,0,0,0,-1,1098,1030,0,0
-119,-6,0,0,0,0,0,0,0,0,0,-1,1105,1030,0,0
-112,-6,0,0,0,0,0,0,0,0,0,-1,1112,1030,0,0
-105,-6,0,0,0,0,0,0,0,0,0,-1,1119,1030,0,0
-98,-6,0,0,0,0,0,0,0,0,0,-1,1126,1030,0,0
-91,-6,0,0,0,0,0,0,0,0,0,-1,1133,1030,0,0
-84,-6,0,0,0,0,0,0,0,0,0,-1,1140,1030,0,0
-77,-6,0,0,0,0,0,0,0,0,0,-1,1147,1030,0,0
-70,-6,0,0,0,0,0,0,0,0,0,-1,1154,1030,0,0
-63,-6,0,0,0,0,0,0,0,0,0,-1,1161,1030,0,0
-56,-6,0,0,0,0,0,0,0,0,0,-1,1168,1030,0,0
-49,-6,0,0,0,0,0,0,0,0,0,-1,1175,1030,0,0
-42,-6,0,0,0,0,0,0,0,0,0,-1,1182,1030,0,0
-35,-6,0,0,0,0,0,0,0,0,0,-1,1189,1030,0,0
-28,-6,0,0,0,0,0,0,0,0,0,-1,1196,1030,0,0
-21,-6,0,0,0,0,0,0,0,0,0,-1,1203,1030,0,0
-14,-6,0,0,0,0,0,0,0,0,0,-1,1210,1030,0,0
-7,-6,0,0,0,0,0,0,0,0,0,-1,1217,1030,0,0
0,-6,0,0,0,0,0,0,0,0,0,-1,1224,1030,0,0
7,-6,0,0,0,0,0,0,0,0,0,-1,1231,1030,0,0
14,-6,0,0,0,0,0,0,0,0,0,-1,1238,1030,0,0
21,-6,0,0,0,0,0,0,0,0,0,-1,1245,1030,0,0
28,-6,0,0,0,0,0,0,0,0,0,-1,1252,1030,0,0
35,-6,0,0,0,0,0,0,0,0,0,-1,1259,1030,0,0
42,-6,0,0,0,0,0,0,0,0,0,-1,1266,1030,0,0
49,-6,0,0,0,0,0,0,0,0,0,-1,1273,1030,0,0
56,-6,0,0,0,0,0,0,0,0,0,-1,1280,1030,0,0
63,-6,0,0,0,0,0,0,0,0,0,-1,1287,1030,0,0
70,-6,0,0,0,0,0,0,0,0,0,-1,1294,1030,0,0
77,-6,0,0,0,0,0,0,0,0,0,-1,1301,1030,0,0
84,-6,0,0,0,0,0,0,0,0,0,-1,1308,1030,0,0
91,-6,0,0,0,0,0,0,0,0,0,-1,1315,1030,0,0
98,-6,0,0,0,0,0,0,0,0,0,-1,1322,1030,0,0
105,-6,0,0,0,0,0,0,0,0,0,-1,1329,1030,0,0
112,-6,0,0,0,0,0,0,0,0,0,-1,1336,1030,0,0
119,-6,0,0,0,0,0,0,0,0,0,-1,1343,1030,0,0
126,-6,0,0,0,0,0,0,0,0,0,-1,1350,1030,0,0
133,-6,0,0,0,0,0,0,0,0,0,-1,1357,1030,0,0
140,-6,0,0,0,0,0,0,0,0,0,-1,1364,1030,0,0
147,-6,0,0,0,0,0,0,0,0,0,-1,1371,1030,0,0
154,-6,0,0,0,0,0,0,0,0,0,-1,1378,1030,0,0
161,-6,0,0,0,0,0,0,0,0,0,-1,1385,1030,0,0
168,-6,0,0,0,0,0,0,0,0,0,-1,1392,1030,0,0
175,-6,0,0,0,0,0,0,0,0,0,-1,1399,1030,0,0
182,-6,0,0,0,0,0,0,0,0,0,-1,1406,1030,0,0
189,-6,0,0,0,0,0,0,0,0,0,-1,1413,1030,0,0
196,-6,0,0,0,0,0,0,0,0,0,-1,1420,1030,0,0
203,-6,0,0,0,0,0,0,0,0,0,-1,1427,1030,0,0
210,-6,0,0,0,0,0,0,0,0,0,-1,1434,1030,0,0
217,-6,0,0,0,0,0,0,0,0,0,-1,1441,1030,0,0
224,-6,0,0,0,0,0,0,0,0,0,-1,1448,1030,0,0
231,-6,0,0,0,0,0,0,0,0,0,-1,1455,1030,0,0
238,-6,0,0,0,0,0,0,0,0,0,-1,1462,1030,0,0
245,-6,0,0,0,0,0,0,0,0,0,-1,1469,1030,0,0
252,-6,0,0,0,0,0,0,0,0,0,-1,1476,1030,0,0
259,-6,0,0,0,0,0,0,0,0,0,-1,1483,1030,0,0
266,-6,0,0,0,0,0,0,0,0,0,-1,1490,1030,0,0
273,-6,0,0,0,0,0,0,0,0,0,-1,1497,1030,0,0
280,-6,0,0,0,0,0,0,0,0,0,-1,1504,1030,0,0
287,-6,0,0,0,0,0,0,0,0,0,-1,1511,1030,0,0
294,-6,0,0,0,0,0,0,0,0,0,-1,1518,1030,0,0
301,-6,0,0,0,0,0,0,0,0,0,-1,1525,1030,0,0
308,-6,0,0,0,0,0,0,0,0,0,-1,1532,1030,0,0
315,-6,0,0,0,0,0,0,0,0,0,-1,1539,1030,0,0
322,-6,0,0,0,0,0,0,0,0,0,-1,1546,1030,0,0
329,-6,0,0,0,0,0,0,0,0,0,-1,1553,1030,0,0
336,-6,0,0,0,0,0,0,0,0,0,-1,1560,1030,0,0
343,-6,0,0,0,0,0,0,0,0,0,-1,1567,1030,0,0
350,-6,0,0,0,0,0,0,0,0,0,-1,1574,1030,0,0
357,-6,0,0,0,0,0,0,0,0,0,-1,1581,1030,0,0
364,-6,0,0,0,0,0,0,0,0,0,-1,1588,1030,0,0
371,-6,0,0,0,0,0,0,0,0,0,-1,1595,1030,0,0
378,-6,0,0,0,0,0,0,0,0,0,-1,1602,1030,0,0
385,-6,0,0,0,0,0,0,0,0,0,-1,1609,1030,0,0
392,-6,0,0,0,0,0,0,0,0,0,-1,1616,1030,0,0
399,-6,0,0,0,0,0,0,0,0,0,-1,1623,1030,0,0
406,-6,0,0,0,0,0,0,0,0,0,-1,1630,1030,0,0
413,-6,0,0,0,0,0,0,0,0,0,-1,1637,1030,0,0
420,-6,0,0,0,0,0,0,0,0,0,-1,1644,1030,0,0
427,-6,0,0,0,0,0,0,0,0,0,-1,1651,1030,0,0
434,-6,0,0,0,0,0,0,0,0,0,-1,1658,1030,0,0
441,-6,0,0,0,0,0,0,0,0,0,-1,1665,1030,0,0
448,-6,0,0,0,0,0,0,0,0,0,-1,1672,1030,0,0
455,-6,0,0,0,0,0,0,0,0,0,-1,1679,1030,0,0
462,-6,0,0,0,0,0,0,0,0,0,-1,1686,1030,0,0
469,-6,0,0,0,0,0,0,0,0,0,-1,1693,1030,0,0
476,-6,0,0,0,0,0,0,0,0,0,-1,1700,1030,0,0
483,-6,0,0,0,0,0,0,0,0,0,-1,1707,1030,0,0
490,-6,0,0,0,0,0,0,0,0,0,-1,1714,1030,0,0
497,-6,0,0,0,0,0,0,0,0,0,-1,1721,1030,0,0
504,-6,0,0,0,0,0,0,0,0,0,-1,1728,1030,0,0
511,-6,0,0,0,0,0,0,0,0,0,-1,1735,1030,0,0
518,-6,0,0,0,0,0,0,0,0,0,-1,1742,1030,0,0
525,-6,0,0,0,0,0,0,0,0,0,-1,1749,1030,0,0
532,-6,0,0,0,0,0,0,0,0,0,-1,1756,1030,0,0
539,-6,0,0,0,0,0,0,0,0,0,-1,1763,1030,0,0
546,-6,0,0,0,0,0,0,0,0,0,-1,1770,1030,0,0
553,-6,0,0,0,0,0,0,0,0,0,-1,1777,1030,0,0
560,-6,0,0,0,0,0,0,0,0,0,-1,1784,1030,0,0
567,-6,0,0,0,0,0,0,0,0,0,-1,1791,1030,0,0
574,-6,0,0,0,0,0,0,0,0,0,-1,1798,1030,0,0
581,-6,0,0,0,0,0,0,0,0,0,-1,1805,1030,0,0
588,-6,0,0,0,0,0,0,0,0,0,-1,1812,1030,0,0
595,-6,0,0,0,0,0,0,0,0,0,-1,1819,1030,0,0
602,-6,0,0,0,0,0,0,0,0,0,-1,1826,1030,0,0
609,-6,0,0,0,0,0,0,0,0,0,-1,1833,1030,0,0
616,-6,0,0,0,0,0,0,0,0,0,-1,1840,1030,0,0
623,-6,0,0,0,0,0,0,0,0,0,-1,1847,1030,0,0
630,-6,0,0,0,0,0,0,0,0,0,-1,1854,1030,0,0
637,-6,0,0,0,0,0,0,0,0,0,-1,1861,1030,0,0
644,-6,0,0,0,0,0,0,0,0,0,-1,1868,1030,0,0
651,-6,228.333,8.93445,0,0,0,0,0,0,0,-1,1875,1030,228.333,-8.93444
658,-6,228.308,9.02509,0,0,0,0,0,0,0,-1,1882,1030,228.308,-9.02506
665,-6,228.519,8.80927,0,0,0,0,0,0,0,-1,1889,1030,228.518,-8.80924
672,-6,228.59,8.60266,0,0,0,0,0,0,0,-1,1896,1030,228.59,-8.60268
679,-6,228.556,8.19696,0,0,0,0,0,0,0,-1,1903,1030,228.556,-8.19698
686,-6,228.184,8.53345,0,0,0,0,0,0,0,-1,1910,1030,228.184,-8.53344
693,-6,228.248,8.62134,0,0,0,0,0,0,0,-1,1917,1030,228.248,-8.62136
700,-6,228.28,8.73444,0,0,0,0,0,0,0,-1,1924,1030,228.28,-8.73443
707,-6,228.261,8.55621,0,0,0,0,0,0,0,-1,1931,1030,228.261,-8.55618
714,-6,228.461,8.19196,0,0,0,0,0,0,0,-1,1938,1030,228.461,-8.19198
721,-6,184.064,6.99164,0,0,0,0,0,0,0,-1,1945,1030,184.064,-6.99162
728,-6,53.1713,6.25494,0,0,0,0,0,0,0,-1,1952,1030,53.1713,-6.25495
735,-6,78.4772,7.47345,0,0,0,0,0,0,0,-1,1959,1030,78.4772,-7.47343
742,-6,93.9734,9.68024,0,0,0,0,0,0,0,-1,1966,1030,93.9735,-9.68022
749,-6,210.681,32.5361,0,0,0,0,0,0,0,-1,1973,1030,210.681,-32.5361
756,-6,231.696,32.5678,0,0,0,0,0,0,0,-1,1980,1030,231.696,-32.5678
763,-6,231.455,33.0868,0,0,0,0,0,0,0,-1,1987,1030,231.455,-33.0868
770,-6,231.214,33.4186,-0.0209937,0.041819,0.00153316,0.0418564,-0.0210311,1.54641,0.0369658,0.0224189,1994,1030,231.214,-33.4186
777,-6,231.124,33.6394,-0.022873,0.0500094,0.00252722,0.0500969,-0.0229606,1.53618,0.0431388,0.033701,2001,1030,231.124,-33.6394
784,-6,231.01,33.8394,0,0,0,0,0,0,0,-1,2008,1030,231.01,-33.8394
791,-6,122.263,16.3963,0,0,0,0,0,0,0,-1,2015,1030,122.263,-16.3963
798,-6,109.146,16.0051,0,0,0,0,0,0,0,-1,2022,1030,109.146,-16.0051
805,-6,108.771,15.1763,0,0,0,0,0,0,0,-1,2029,1030,108.771,-15.1763
812,-6,108.805,14.3323,0,0,0,0,0,0,0,-1,2036,1030,108.805,-14.3324
-700,-13,0,0,0,0,0,0,0,0,0,-1,524,1037,0,0
-693,-13,-88.6181,12.3467,0,0,0,0,0,0,0,-1,531,1037,-88.6181,-12.3467
-686,-13,-90.2635,12.9246,0,0,0,0,0,0,0,-1,538,1037,-90.2636,-12.9246
-679,-13,-91.6175,13.3315,0,0,0,0,0,0,0,-1,545,1037,-91.6175,-13.3315
-672,-13,-92.9723,13.725,0,0,0,0,0,0,0,-1,552,1037,-92.9723,-13.725
-665,-13,-102.499,14.6928,0,0,0,0,0,0,0,-1,559,1037,-102.499,-14.6928
-658,-13,-86.5689,5.10486,0,0,0,0,0,0,0,-1,566,1037,-86.569,-5.10484
-651,-13,-194.564,33.5059,0,0,0,0,0,0,0,-1,573,1037,-194.564,-33.5059
-644,-13,-223.769,33.1683,0,0,0,0,0,0,0,-1,580,1037,-223.769,-33.1683
-637,-13,-224.035,32.8766,-0.0133782,0.0461178,0.00251301,0.0462238,-0.0134841,1.52866,0.0361586,0.0371749,587,1037,-224.035,-32.8767
-630,-13,-224.277,32.6353,-0.00839011,0.0373253,0.00245572,0.0374568,-0.00852165,1.51728,0.0282436,0.0227458,594,1037,-224.277,-32.6352
-623,-13,-224.319,32.5585,-0.00345578,0.0285858,0.00239034,0.0287632,-0.00363312,1.49674,0.0204941,0.0213885,601,1037,-224.319,-32.5585
-616,-13,-224.372,32.3636,0.00145215,0.0199102,0.00233908,0.020202,0.00116035,1.44669,0.0130984,0.0182871,608,1037,-224.372,-32.3636
-609,-13,-224.37,32.1306,0.00636082,0.0113115,0.0023264,0.0122332,0.00543919,1.1936,0.00707725,0.0223553,615,1037,-224.37,-32.1306
-602,-13,-224.3,31.9637,0.0112974,0.0028051,0.00237943,0.0119186,0.00218386,0.255387,0.00732708,0.0188947,622,1037,-224.3,-31.9637
-595,-13,-224.365,31.7874,0,0,0,0,0,0,0,-1,629,1037,-224.365,-31.7874
-588,-13,-72.2089,0.594238,0,0,0,0,0,0,0,-1,636,1037,-72.2089,-0.594287
-581,-13,-72.2836,0.314087,0,0,0,0,0,0,0,-1,643,1037,-72.2836,-0.314046
-574,-13,-72.244,0.27478,0,0,0,0,0,0,0,-1,650,1037,-72.244,-0.274767
-567,-13,-72.2231,0.455933,0,0,0,0,0,0,0,-1,657,1037,-72.2231,-0.455912
-560,-13,-72.3318,0.672241,0,0,0,0,0,0,0,-1,664,1037,-72.3318,-0.672274
-553,-13,-72.1812,0.473267,0,0,0,0,0,0,0,-1,671,1037,-72.1812,-0.473223
-546,-13,-72.0977,0.129761,0,0,0,0,0,0,0,-1,678,1037,-72.0977,-0.129714
-539,-13,-72.2216,0.659302,0,0,0,0,0,0,0,-1,685,1037,-72.2216,-0.659334
-532,-13,-72.4635,0.773682,0,0,0,0,0,0,0,-1,692,1037,-72.4635,-0.77364
-525,-13,0,0,0,0,0,0,0,0,0,-1,699,1037,0,0
-518,-13,0,0,0,0,0,0,0,0,0,-1,706,1037,0,0
-511,-13,0,0,0,0,0,0,0,0,0,-1,713,1037,0,0
-504,-13,0,0,0,0,0,0,0,0,0,-1,720,1037,0,0
-497,-13,0,0,0,0,0,0,0,0,0,-1,727,1037,0,0
-490,-13,0,0,0,0,0,0,0,0,0,-1,734,1037,0,0
-483,-13,0,0,0,0,0,0,0,0,0,-1,741,1037,0,0
-476,-13,0,0,0,0,0,0,0,0,0,-1,748,1037,0,0
-469,-13,0,0,0,0,0,0,0,0,0,-1,755,1037,0,0
-462,-13,0,0,0,0,0,0,0,0,0,-1,762,1037,0,0
-455,-13,0,0,0,0,0,0,0,0,0,-1,769,1037,0,0
-448,-13,0,0,0,0,0,0,0,0,0,-1,776,1037,0,0
-441,-13,0,0,0,0,0,0,0,0,0,-1,783,1037,0,0
-434,-13,0,0,0,0,0,0,0,0,0,-1,790,1037,0,0
-427,-13,0,0,0,0,0,0,0,0,0,-1,797,1037,0,0
-420,-13,0,0,0,0,0,0,0,0,0,-1,804,1037,0,0
-413,-13,0,0,0,0,0,0,0,0,0,-1,811,1037,0,0
-406,-13,0,0,0,0,0,0,0,0,0,-1,818,1037,0,0
-399,-13,0,0,0,0,0,0,0,0,0,-1,825,1037,0,0
-392,-13,0,0,0,0,0,0,0,0,0,-1,832,1037,0,0
-385,-13,0,0,0,0,0,0,0,0,0,-1,839,1037,0,0
-378,-13,0,0,0,0,0,0,0,0,0,-1,846,1037,0,0
-371,-13,0,0,0,0,0,0,0,0,0,-1,853,1037,0,0
-364,-13,0,0,0,0,0,0,0,0,0,-1,860,1037,0,0
-357,-13,0,0,0,0,0,0,0,0,0,-1,867,1037,0,0
-350,-13,0,0,0,0,0,0,0,0,0,-1,874,1037,0,0
-343,-13,0,0,0,0,0,0,0,0,0,-1,881,1037,0,0
-336,-13,0,0,0,0,0,0,0,0,0,-1,888,1037,0,0
-329,-13,0,0,0,0,0,0,0,0,0,-1,895,1037,0,0
-322,-13,0,0,0,0,0,0,0,0,0,-1,902,1037,0,0
-315,-13,0,0,0,0,0,0,0,0,0,-1,909,1037,0,0
-308,-13,0,0,0,0,0,0,0,0,0,-1,916,1037,0,0
-301,-13,0,0,0,0,0,0,0,0,0,-1,923,1037,0,0
-294,-13,0,0,0,0,0,0,0,0,0,-1,930,1037,0,0
-287,-13,0,0,0,0,0,0,0,0,0,-1,937,1037,0,0
-280,-13,0,0,0,0,0,0,0,0,0,-1,944,1037,0,0
-273,-13,0,0,0,0,0,0,0,0,0,-1,951,1037,0,0
-266,-13,0,0,0,0,0,0,0,0,0,-1,958,1037,0,0
-259,-13,0,0,0,0,0,0,0,0,0,-1,965,1037,0,0
-252,-13,0,0,0,0,0,0,0,0,0,-1,972,1037,0,0
-245,-13,0,0,0,0,0,0,0,0,0,-1,979,1037,0,0
-238,-13,0,0,0,0,0,0,0,0,0,-1,986,1037,0,0
-231,-13,0,0,0,0,0,0,0,0,0,-1,993,1037,0,0
-224,-13,0,0,0,0,0,0,0,0,0,-1,1000,1037,0,0
-217,-13,0,0,0,0,0,0,0,0,0,-1,1007,1037,0,0
-210,-13,0,0,0,0,0,0,0,0,0,-1,1014,1037,0,0
-203,-13,0,0,0,0,0,0,0,0,0,-1,1021,1037,0,0
-196,-13,0,0,0,0,0,0,0,0,0,-1,1028,1037,0,0
-189,-13,0,0,0,0,0,0,0,0,0,-1,1035,1037,0,0
-182,-13,0,0,0,0,0,0,0,0,0,-1,1042,1037,0,0
-175,-13,0,0,0,0,0,0,0,0,0,-1,1049,1037,0,0
-168,-13,0,0,0,0,0,0,0,0,0,-1,1056,1037,0,0
-161,-13,0,0,0,0,0,0,0,0,0,-1,1063,1037,0,0
-154,-13,0,0,0,0,0,0,0,0,0,-1,1070,1037,0,0
-147,-13,0,0,0,0,0,0,0,0,0,-1,1077,1037,0,0
-140,-13,0,0,0,0,0,0,0,0,0,-1,1084,1037,0,0
-133,-13,0,0,0,0,0,0,0,0,0,-1,1091,1037,0,0
-126,-13,0,0,0,0,0,0,0,0,0,-1,1098,1037,0,0
-119,-13,0,0,0,0,0,0,0,0,0,-1,1105,1037,0,0
-112,-13,0,0,0,0,0,0,0,0,0,-1,1112,1037,0,0
-105,-13,0,0,0,0,0,0,0,0,0,-1,1119,1037,0,0
-98,-13,0,0,0,0,0,0,0,0,0,-1,1126,1037,0,0
-91,-13,0,0,0,0,0,0,0,0,0,-1,1133,1037,0,0
-84,-13,0,0,0,0,0,0,0,0,0,-1,1140,1037,0,0
-77,-13,0,0,0,0,0,0,0,0,0,-1,1147,1037,0,0
-70,-13,0,0,0,0,0,0,0,0,0,-1,1154,1037,0,0
-63,-13,0,0,0,0,0,0,0,0,0,-1,1161,1037,0,0
-56,-13,0,0,0,0,0,0,0,0,0,-1,1168,1037,0,0
-49,-13,0,0,0,0,0,0,0,0,0,-1,1175,1037,0,0
-42,-13,0,0,0,0,0,0,0,0,0,-1,1182,1037,0,0
-35,-13,0,0,0,0,0,0,0,0,0,-1,1189,1037,0,0
-28,-13,0,0,0,0,0,0,0,0,0,-1,1196,1037,0,0
-21,-13,0,0,0,0,0,0,0,0,0,-1,1203,1037,0,0
-14,-13,0,0,0,0,0,0,0,0,0,-1,1210,1037,0,0
-7,-13,0,0,0,0,0,0,0,0,0,-1,1217,1037,0,0
0,-13,0,0,0,0,0,0,0,0,0,-1,1224,1037,0,0
7,-13,0,0,0,0,0,0,0,0,0,-1,1231,1037,0,0
14,-13,0,0,0,0,0,0,0,0,0,-1,1238,1037,0,0
21,-13,0,0,0,0,0,0,0,0,0,-1,1245,1037,0,0
28,-13,0,0,0,0,0,0,0,0,0,-1,1252,1037,0,0
35,-13,0,0,0,0,0,0,0,0,0,-1,1259,1037,0,0
42,-13,0,0,0,0,0,0,0,0,0,-1,1266,1037,0,0
49,-13,0,0,0,0,0,0,0,0,0,-1,1273,1037,0,0
56,-13,0,0,0,0,0,0,0,0,0,-1,1280,1037,0,0
63,-13,0,0,0,0,0,0,0,0,0,-1,1287,1037,0,0
70,-13,0,0,0,0,0,0,0,0,0,-1,1294,1037,0,0
77,-13,0,0,0,0,0,0,0,0,0,-1,1301,1037,0,0
84,-13,0,0,0,0,0,0,0,0,0,-1,1308,1037,0,0
91,-13,0,0,0,0,0,0,0,0,0,-1,1315,1037,0,0
98,-13,0,0,0,0,0,0,0,0,0,-1,1322,1037,0,0
105,-13,0,0,0,0,0,0,0,0,0,-1,1329,1037,0,0
112,-13,0,0,0,0,0,0,0,0,0,-1,1336,1037,0,0
119,-13,0,0,0,0,0,0,0,0,0,-1,1343,1037,0,0
126,-13,0,0,0,0,0,0,0,0,0,-1,1350,1037,0,0
133,-13,0,0,0,0,0,0,0,0,0,-1,1357,1037,0,0
140,-13,0,0,0,0,0,0,0,0,0,-1,1364,1037,0,0
147,-13,0,0,0,0,0,0,0,0,0,-1,1371,1037,0,0
154,-13,0,0,0,0,0,0,0,0,0,-1,1378,1037,0,0
161,-13,0,0,0,0,0,0,0,0,0,-1,1385,1037,0,0
168,-13,0,0,0,0,0,0,0,0,0,-1,1392,1037,0,0
175,-13,0,0,0,0,0,0,0,0,0,-1,1399,1037,0,0
182,-13,0,0,0,0,0,0,0,0,0,-1,1406,1037,0,0
189,-13,0,0,0,0,0,0,0,0,0,-1,1413,1037,0,0
196,-13,0,0,0,0,0,0,0,0,0,-1,1420,1037,0,0
203,-13,0,0,0,0,0,0,0,0,0,-1,1427,1037,0,0
210,-13,0,0,0,0,0,0,0,0,0,-1,1434,1037,0,0
217,-13,0,0,0,0,0,0,0,0,0,-1,1441,1037,0,0
224,-13,0,0,0,0,0,0,0,0,0,-1,1448,1037,0,0
231,-13,0,0,0,0,0,0,0,0,0,-1,1455,1037,0,0
238,-13,0,0,0,0,0,0,0,0,0,-1,1462,1037,0,0
245,-13,0,0,0,0,0,0,0,0,0,-1,1469,1037,0,0
252,-13,0,0,0,0,0,0,0,0,0,-1,1476,1037,0,0
259,-13,0,0,0,0,0,0,0,0,0,-1,1483,1037,0,0
266,-13,0,0,0,0,0,0,0,0,0,-1,1490,1037,0,0
273,-13,0,0,0,0,0,0,0,0,0,-1,1497,1037,0,0
280,-13,0,0,0,0,0,0,0,0,0,-1,1504,1037,0,0
287,-13,0,0,0,0,0,0,0,0,0,-1,1511,1037,0,0
294,-13,0,0,0,0,0,0,0,0,0,-1,1518,1037,0,0
301,-13,0,0,0,0,0,0,0,0,0,-1,1525,1037,0,0
308,-13,0,0,0,0,0,0,0,0,0,-1,1532,1037,0,0
315,-13,0,0,0,0,0,0,0,0,0,-1,1539,1037,0,0
322,-13,0,0,0,0,0,0,0,0,0,-1,1546,1037,0,0
329,-13,0,0,0,0,0,0,0,0,0,-1,1553,1037,0,0
336,-13,0,0,0,0,0,0,0,0,0,-1,1560,1037,0,0
343,-13,0,0,0,0,0,0,0,0,0,-1,1567,1037,0,0
350,-13,0,0,0,0,0,0,0,0,0,-1,1574,1037,0,0
357,-13,0,0,0,0,0,0,0,0,0,-1,1581,1037,0,0
364,-13,0,0,0,0,0,0,0,0,0,-1,1588,1037,0,0
371,-13,0,0,0,0,0,0,0,0,0,-1,1595,1037,0,0
378,-13,0,0,0,0,0,0,0,0,0,-1,1602,1037,0,0
385,-13,0,0,0,0,0,0,0,0,0,-1,1609,1037,0,0
392,-13,0,0,0,0,0,0,0,0,0,-1,1616,1037,0,0
399,-13,0,0,0,0,0,0,0,0,0,-1,1623,1037,0,0
406,-13,0,0,0,0,0,0,0,0,0,-1,1630,1037,0,0
413,-13,0,0,0,0,0,0,0,0,0,-1,1637,1037,0,0
420,-13,0,0,0,0,0,0,0,0,0,-1,1644,1037,0,0
427,-13,0,0,0,0,0,0,0,0,0,-1,1651,1037,0,0
434,-13,0,0,0,0,0,0,0,0,0,-1,1658,1037,0,0
441,-13,0,0,0,0,0,0,0,0,0,-1,1665,1037,0,0
448,-13,0,0,0,0,0,0,0,0,0,-1,1672,1037,0,0
455,-13,0,0,0,0,0,0,0,0,0,-1,1679,1037,0,0
462,-13,0,0,0,0,0,0,0,0,0,-1,1686,1037,0,0
469,-13,0,0,0,0,0,0,0,0,0,-1,1693,1037,0,0
476,-13,0,0,0,0,0,0,0,0,0,-1,1700,1037,0,0
483,-13,0,0,0,0,0,0,0,0,0,-1,1707,1037,0,0
490,-13,0,0,0,0,0,0,0,0,0,-1,1714,1037,0,0
497,-13,0,0,0,0,0,0,0,0,0,-1,1721,1037,0,0
504,-13,0,0,0,0,0,0,0,0,0,-1,1728,1037,0,0
511,-13,0,0,0,0,0,0,0,0,0,-1,1735,1037,0,0
518,-13,0,0,0,0,0,0,0,0,0,-1,1742,1037,0,0
525,-13,0,0,0,0,0,0,0,0,0,-1,1749,1037,0,0
532,-13,0,0,0,0,0,0,0,0,0,-1,1756,1037,0,0
539,-13,0,0,0,0,0,0,0,0,0,-1,1763,1037,0,0
546,-13,0,0,0,0,0,0,0,0,0,-1,1770,1037,0,0
553,-13,0,0,0,0,0,0,0,0,0,-1,1777,1037,0,0
560,-13,0,0,0,0,0,0,0,0,0,-1,1784,1037,0,0
567,-13,0,0,0,0,0,0,0,0,0,-1,1791,1037,0,0
574,-13,0,0,0,0,0,0,0,0,0,-1,1798,1037,0,0
581,-13,0,0,0,0,0,0,0,0,0,-1,1805,1037,0,0
588,-13,0,0,0,0,0,0,0,0,0,-1,1812,1037,0,0
595,-13,0,0,0,0,0,0,0,0,0,-1,1819,1037,0,0
602,-13,0,0,0,0,0,0,0,0,0,-1,1826,1037,0,0
609,-13,0,0,0,0,0,0,0,0,0,-1,1833,1037,0,0
616,-13,0,0,0,0,0,0,0,0,0,-1,1840,1037,0,0
623,-13,0,0,0,0,0,0,0,0,0,-1,1847,1037,0,0
630,-13,0,0,0,0,0,0,0,0,0,-1,1854,1037,0,0
637,-13,0,0,0,0,0,0,0,0,0,-1,1861,1037,0,0
644,-13,0,0,0,0,0,0,0,0,0,-1,1868,1037,0,0
651,-13,228.397,8.75488,0,0,0,0,0,0,0,-1,1875,1037,228.397,-8.75487
658,-13,228.394,8.96118,0,0,0,0,0,0,0,-1,1882,1037,228.394,-8.96112
665,-13,228.61,9.13391,0,0,0,0,0,0,0,-1,1889,1037,228.61,-9.13395
672,-13,228.584,8.69836,0,0,0,0,0,0,0,-1,1896,1037,228.584,-8.69835
679,-13,228.342,8.52698,0,0,0,0,0,0,0,-1,1903,1037,228.342,-8.52697
686,-13,228.184,8.68567,0,0,0,0,0,0,0,-1,1910,1037,228.184,-8.6857
693,-13,228.215,8.77856,0,0,0,0,0,0,0,-1,1917,1037,228.215,-8.77852
700,-13,228.266,8.63208,0,0,0,0,0,0,0,-1,1924,1037,228.266,-8.63203
707,-13,228.408,8.47913,0,0,0,0,0,0,0,-1,1931,1037,228.408,-8.47909
714,-13,228.813,8.14307,0,0,0,0,0,0,0,-1,1938,1037,228.813,-8.14305
721,-13,178.453,6.83362,0,0,0,0,0,0,0,-1,1945,1037,178.453,-6.83357
728,-13,78.576,7.60706,0,0,0,0,0,0,0,-1,1952,1037,78.5761,-7.60708
735,-13,231.723,32.2236,0,0,0,0,0,0,0,-1,1959,1037,231.723,-32.2236
742,-13,93.698,9.32483,0,0,0,0,0,0,0,-1,1966,1037,93.6979,-9.32482
749,-13,232.125,32.8669,0,0,0,0,0,0,0,-1,1973,1037,232.125,-32.8669
756,-13,231.853,32.8541,0,0,0,0,0,0,0,-1,1980,1037,231.853,-32.8542
763,-13,231.325,32.4938,0,0,0,0,0,0,0,-1,1987,1037,231.325,-32.4938
770,-13,231.46,32.9111,-0.0215894,0.0411929,0.00255482,0.0412967,-0.0216932,1.53019,0.0369496,0.0246524,1994,1037,231.46,-32.9111
777,-13,231.387,33.2656,-0.0232946,0.0494242,0.00381616,0.0496239,-0.0234943,1.51851,0.043104,0.0295207,2001,1037,231.387,-33.2656
784,-13,231.215,33.384,0,0,0,0,0,0,0,-1,2008,1037,231.215,-33.384
791,-13,221.358,33.3361,0,0,0,0,0,0,0,-1,2015,1037,221.358,-33.3362
798,-13,141.364,21.8746,0,0,0,0,0,0,0,-1,2022,1037,141.364,-21.8746
805,-13,141.104,21.3998,0,0,0,0,0,0,0,-1,2029,1037,141.104,-21.3998
812,-13,118.83,15.0224,0,0,0,0,0,0,0,-1,2036,1037,118.83,-15.0224
-700,-20,-93.2781,-2.50916,0,0,0,0,0,0,0,-1,524,1044,-93.2781,2.50913
-693,-20,-89.4135,12.1685,0,0,0,0,0,0,0,-1,531,1044,-89.4135,-12.1684
-686,-20,-90.3054,12.3282,0,0,0,0,0,0,0,-1,538,1044,-90.3054,-12.3283
-679,-20,-91.2314,12.5063,0,0,0,0,0,0,0,-1,545,1044,-91.2314,-12.5063
-672,-20,-102.373,14.449,0,0,0,0,0,0,0,-1,552,1044,-102.373,-14.449
-665,-20,-183.108,31.8218,0,0,0,0,0,0,0,-1,559,1044,-183.108,-31.8218
-658,-20,-215.865,33.2686,0,0,0,0,0,0,0,-1,566,1044,-215.865,-33.2686
-651,-20,-224.095,33.1314,0,0,0,0,0,0,0,-1,573,1044,-224.095,-33.1314
-644,-20,-224.08,32.7111,-0.0173297,0.0544564,0.0019308,0.0545083,-0.0173816,1.54393,0.0433114,0.0377982,580,1044,-224.08,-32.7111
-637,-20,-224.26,32.3911,-0.0128449,0.0456683,0.00203768,0.0457392,-0.0129158,1.53603,0.0355881,0.0280438,587,1044,-224.26,-32.391
-630,-20,-224.355,32.4658,-0.00835368,0.0369419,0.00209897,0.037039,-0.00845073,1.52459,0.0279389,0.0213162,594,1044,-224.355,-32.4657
-623,-20,-224.463,32.4071,-0.00383751,0.0282817,0.00213473,0.028423,-0.00397877,1.50472,0.0204046,0.0191363,601,1044,-224.463,-32.4071
-616,-20,-224.532,32.22,0.000722984,0.0196947,0.00216665,0.019939,0.00047869,1.45852,0.013136,0.0183543,608,1044,-224.532,-32.22
-609,-20,-224.579,32.0764,0.0053482,0.0111907,0.00221848,0.0119376,0.0046013,1.24604,0.00695222,0.0203323,615,1044,-224.579,-32.0764
-602,-20,-224.566,31.9514,0.0100597,0.00278227,0.00231641,0.0107345,0.00210752,0.283449,0.00656751,0.0182264,622,1044,-224.566,-31.9514
-595,-20,-224.616,31.8399,0,0,0,0,0,0,0,-1,629,1044,-224.616,-31.8399
-588,-20,-72.2241,0.531372,0,0,0,0,0,0,0,-1,636,1044,-72.2241,-0.531387
-581,-20,-72.261,0.247192,0,0,0,0,0,0,0,-1,643,1044,-72.261,-0.247205
-574,-20,-72.2443,0.32019,0,0,0,0,0,0,0,-1,650,1044,-72.2443,-0.320219
-567,-20,-72.0424,0.520142,0,0,0,0,0,0,0,-1,657,1044,-72.0424,-0.520167
-560,-20,-71.8108,0.804077,0,0,0,0,0,0,0,-1,664,1044,-71.8108,-0.804076
-553,-20,-72.0823,0.542358,0,0,0,0,0,0,0,-1,671,1044,-72.0823,-0.542369
-546,-20,-72.0886,0.290649,0,0,0,0,0,0,0,-1,678,1044,-72.0885,-0.290684
-539,-20,-72.2553,0.547974,0,0,0,0,0,0,0,-1,685,1044,-72.2553,-0.547983
-532,-20,-72.5035,0.667969,0,0,0,0,0,0,0,-1,692,1044,-72.5035,-0.667925
-525,-20,0,0,0,0,0,0,0,0,0,-1,699,1044,0,0
-518,-20,0,0,0,0,0,0,0,0,0,-1,706,1044,0,0
-511,-20,0,0,0,0,0,0,0,0,0,-1,713,1044,0,0
-504,-20,0,0,0,0,0,0,0,0,0,-1,720,1044,0,0
-497,-20,0,0,0,0,0,0,0,0,0,-1,727,1044,0,0
-490,-20,0,0,0,0,0,0,0,0,0,-1,734,1044,0,0
-483,-20,0,0,0,0,0,0,0,0,0,-1,741,1044,0,0
-476,-20,0,0,0,0,0,0,0,0,0,-1,748,1044,0,0
-469,-20,0,0,0,0,0,0,0,0,0,-1,755,1044,0,0
-462,-20,0,0,0,0,0,0,0,0,0,-1,762,1044,0,0
-455,-20,0,0,0,0,0,0,0,0,0,-1,769,1044,0,0
-448,-20,0,0,0,0,0,0,0,0,0,-1,776,1044,0,0
-441,-20,0,0,0,0,0,0,0,0,0,-1,783,1044,0,0
-434,-20,0,0,0,0,0,0,0,0,0,-1,790,1044,0,0
-427,-20,0,0,0,0,0,0,0,0,0,-1,797,1044,0,0
-420,-20,0,0,0,0,0,0,0,0,0,-1,804,1044,0,0
-413,-20,0,0,0,0,0,0,0,0,0,-1,811,1044,0,0
-406,-20,0,0,0,0,0,0,0,0,0,-1,818,1044,0,0
-399,-20,0,0,0,0,0,0,0,0,0,-1,825,1044,0,0
-392,-20,0,0,0,0,0,0,0,0,0,-1,832,1044,0,0
-385,-20,0,0,0,0,0,0,0,0,0,-1,839,1044,0,0
-378,-20,0,0,0,0,0,0,0,0,0,-1,846,1044,0,0
-371,-20,0,0,0,0,0,0,0,0,0,-1,853,1044,0,0
-364,-20,0,0,0,0,0,0,0,0,0,-1,860,1044,0,0
-357,-20,0,0,0,0,0,0,0,0,0,-1,867,1044,0,0
-350,-20,0,0,0,0,0,0,0,0,0,-1,874,1044,0,0
-343,-20,0,0,0,0,0,0,0,0,0,-1,881,1044,0,0
-336,-20,0,0,0,0,0,0,0,0,0,-1,888,1044,0,0
-329,-20,0,0,0,0,0,0,0,0,0,-1,895,1044,0,0
-322,-20,0,0,0,0,0,0,0,0,0,-1,902,1044,0,0
-315,-20,0,0,0,0,0,0,0,0,0,-1,909,1044,0,0
-308,-20,0,0,0,0,0,0,0,0,0,-1,916,1044,0,0
-301,-20,0,0,0,0,0,0,0,0,0,-1,923,1044,0,0
-294,-20,0,0,0,0,0,0,0,0,0,-1,930,1044,0,0
-287,-20,0,0,0,0,0,0,0,0,0,-1,937,1044,0,0
-280,-20,0,0,0,0,0,0,0,0,0,-1,944,1044,0,0
-273,-20,0,0,0,0,0,0,0,0,0,-1,951,1044,0,0
-266,-20,0,0,0,0,0,0,0,0,0,-1,958,1044,0,0
-259,-20,0,0,0,0,0,0,0,0,0,-1,965,1044,0,0
-252,-20,0,0,0,0,0,0,0,0,0,-1,972,1044,0,0
-245,-20,0,0,0,0,0,0,0,0,0,-1,979,1044,0,0
-238,-20,0,0,0,0,0,0,0,0,0,-1,986,1044,0,0
-231,-20,0,0,0,0,0,0,0,0,0,-1,993,1044,0,0
-224,-20,0,0,0,0,0,0,0,0,0,-1,1000,1044,0,0
-217,-20,0,0,0,0,0,0,0,0,0,-1,1007,1044,0,0
-210,-20,0,0,0,0,0,0,0,0,0,-1,1014,1044,0,0
-203,-20,0,0,0,0,0,0,0,0,0,-1,1021,1044,0,0
-196,-20,0,0,0,0,0,0,0,0,0,-1,1028,1044,0,0
-189,-20,0,0,0,0,0,0,0,0,0,-1,1035,1044,0,0
-182,-20,0,0,0,0,0,0,0,0,0,-1,1042,1044,0,0
-175,-20,0,0,0,0,0,0,0,0,0,-1,1049,1044,0,0
-168,-20,0,0,0,0,0,0,0,0,0,-1,1056,1044,0,0
-161,-20,0,0,0,0,0,0,0,0,0,-1,1063,1044,0,0
-154,-20,0,0,0,0,0,0,0,0,0,-1,1070,1044,0,0
-147,-20,0,0,0,0,0,0,0,0,0,-1,1077,1044,0,0
-140,-20,0,0,0,0,0,0,0,0,0,-1,1084,1044,0,0
-133,-20,0,0,0,0,0,0,0,0,0,-1,1091,1044,0,0
-126,-20,0,0,0,0,0,0,0,0,0,-1,1098,1044,0,0
-119,-20,0,0,0,0,0,0,0,0,0,-1,1105,1044,0,0
-112,-20,0,0,0,0,0,0,0,0,0,-1,1112,1044,0,0
-105,-20,0,0,0,0,0,0,0,0,0,-1,1119,1044,0,0
-98,-20,0,0,0,0,0,0,0,0,0,-1,1126,1044,0,0
-91,-20,0,0,0,0,0,0,0,0,0,-1,1133,1044,0,0
-84,-20,0,0,0,0,0,0,0,0,0,-1,1140,1044,0,0
-77,-20,0,0,0,0,0,0,0,0,0,-1,1147,1044,0,0
-70,-20,0,0,0,0,0,0,0,0,0,-1,1154,1044,0,0
-63,-20,0,0,0,0,0,0,0,0,0,-1,1161,1044,0,0
-56,-20,0,0,0,0,0,0,0,0,0,-1,1168,1044,0,0
-49,-20,0,0,0,0,0,0,0,0,0,-1,1175,1044,0,0
-42,-20,0,0,0,0,0,0,0,0,0,-1,1182,1044,0,0
-35,-20,0,0,0,0,0,0,0,0,0,-1,1189,1044,0,0
-28,-20,0,0,0,0,0,0,0,0,0,-1,1196,1044,0,0
-21,-20,0,0,0,0,0,0,0,0,0,-1,1203,1044,0,0
-14,-20,0,0,0,0,0,0,0,0,0,-1,1210,1044,0,0
-7,-20,0,0,0,0,0,0,0,0,0,-1,1217,1044,0,0
0,-20,0,0,0,0,0,0,0,0,0,-1,1224,1044,0,0
7,-20,0,0,0,0,0,0,0,0,0,-1,1231,1044,0,0
14,-20,0,0,0,0,0,0,0,0,0,-1,1238,1044,0,0
21,-20,0,0,0,0,0,0,0,0,0,-1,1245,1044,0,0
28,-20,0,0,0,0,0,0,0,0,0,-1,1252,1044,0,0
35,-20,0,0,0,0,0,0,0,0,0,-1,1259,1044,0,0
42,-20,0,0,0,0,0,0,0,0,0,-1,1266,1044,0,0
49,-20,0,0,0,0,0,0,0,0,0,-1,1273,1044,0,0
56,-20,0,0,0,0,0,0,0,0,0,-1,1280,1044,0,0
63,-20,0,0,0,0,0,0,0,0,0,-1,1287,1044,0,0
70,-20,0,0,0,0,0,0,0,0,0,-1,1294,1044,0,0
77,-20,0,0,0,0,0,0,0,0,0,-1,1301,1044,0,0
84,-20,0,0,0,0,0,0,0,0,0,-1,1308,1044,0,0
91,-20,0,0,0,0,0,0,0,0,0,-1,1315,1044,0,0
98,-20,0,0,0,0,0,0,0,0,0,-1,1322,1044,0,0
105,-20,0,0,0,0,0,0,0,0,0,-1,1329,1044,0,0
112,-20,0,0,0,0,0,0,0,0,0,-1,1336,1044,0,0
119,-20,0,0,0,0,0,0,0,0,0,-1,1343,1044,0,0
126,-20,0,0,0,0,0,0,0,0,0,-1,1350,1044,0,0
133,-20,0,0,0,0,0,0,0,0,0,-1,1357,1044,0,0
140,-20,0,0,0,0,0,0,0,0,0,-1,1364,1044,0,0
147,-20,0,0,0,0,0,0,0,0,0,-1,1371,1044,0,0
154,-20,0,0,0,0,0,0,0,0,0,-1,1378,1044,0,0
161,-20,0,0,0,0,0,0,0,0,0,-1,1385,1044,0,0
168,-20,0,0,0,0,0,0,0,0,0,-1,1392,1044,0,0
175,-20,0,0,0,0,0,0,0,0,0,-1,1399,1044,0,0
182,-20,0,0,0,0,0,0,0,0,0,-1,1406,1044,0,0
189,-20,0,0,0,0,0,0,0,0,0,-1,1413,1044,0,0
196,-20,0,0,0,0,0,0,0,0,0,-1,1420,1044,0,0
203,-20,0,0,0,0,0,0,0,0,0,-1,1427,1044,0,0
210,-20,0,0,0,0,0,0,0,0,0,-1,1434,1044,0,0
217,-20,0,0,0,0,0,0,0,0,0,-1,1441,1044,0,0
224,-20,0,0,0,0,0,0,0,0,0,-1,1448,1044,0,0
231,-20,0,0,0,0,0,0,0,0,0,-1,1455,1044,0,0
238,-20,0,0,0,0,0,0,0,0,0,-1,1462,1044,0,0
245,-20,0,0,0,0,0,0,0,0,0,-1,1469,1044,0,0
252,-20,0,0,0,0,0,0,0,0,0,-1,1476,1044,0,0
259,-20,0,0,0,0,0,0,0,0,0,-1,1483,1044,0,0
266,-20,0,0,0,0,0,0,0,0,0,-1,1490,1044,0,0
273,-20,0,0,0,0,0,0,0,0,0,-1,1497,1044,0,0
280,-20,0,0,0,0,0,0,0,0,0,-1,1504,1044,0,0
287,-20,0,0,0,0,0,0,0,0,0,-1,1511,1044,0,0
294,-20,0,0,0,0,0,0,0,0,0,-1,1518,1044,0,0
301,-20,0,0,0,0,0,0,0,0,0,-1,1525,1044,0,0
308,-20,0,0,0,0,0,0,0,0,0,-1,1532,1044,0,0
315,-20,0,0,0,0,0,0,0,0,0,-1,1539,1044,0,0
322,-20,0,0,0,0,0,0,0,0,0,-1,1546,1044,0,0
329,-20,0,0,0,0,0,0,0,0,0,-1,1553,1044,0,0
336,-20,0,0,0,0,0,0,0,0,0,-1,1560,1044,0,0
343,-20,0,0,0,0,0,0,0,0,0,-1,1567,1044,0,0
350,-20,0,0,0,0,0,0,0,0,0,-1,1574,1044,0,0
357,-20,0,0,0,0,0,0,0,0,0,-1,1581,1044,0,0
364,-20,0,0,0,0,0,0,0,0,0,-1,1588,1044,0,0
371,-20,0,0,0,0,0,0,0,0,0,-1,1595,1044,0,0
378,-20,0,0,0,0,0,0,0,0,0,-1,1602,1044,0,0
385,-20,0,0,0,0,0,0,0,0,0,-1,1609,1044,0,0
392,-20,0,0,0,0,0,0,0,0,0,-1,1616,1044,0,0
399,-20,0,0,0,0,0,0,0,0,0,-1,1623,1044,0,0
406,-20,0,0,0,0,0,0,0,0,0,-1,1630,1044,0,0
413,-20,0,0,0,0,0,0,0,0,0,-1,1637,1044,0,0
420,-20,0,0,0,0,0,0,0,0,0,-1,1644,1044,0,0
427,-20,0,0,0,0,0,0,0,0,0,-1,1651,1044,0,0
434,-20,0,0,0,0,0,0,0,0,0,-1,1658,1044,0,0
441,-20,0,0,0,0,0,0,0,0,0,-1,1665,1044,0,0
448,-20,0,0,0,0,0,0,0,0,0,-1,1672,1044,0,0
455,-20,0,0,0,0,0,0,0,0,0,-1,1679,1044,0,0
462,-20,0,0,0,0,0,0,0,0,0,-1,1686,1044,0,0
469,-20,0,0,0,0,0,0,0,0,0,-1,1693,1044,0,0
476,-20,0,0,0,0,0,0,0,0,0,-1,1700,1044,0,0
483,-20,0,0,0,0,0,0,0,0,0,-1,1707,1044,0,0
490,-20,0,0,0,0,0,0,0,0,0,-1,1714,1044,0,0
497,-20,0,0,0,0,0,0,0,0,0,-1,1721,1044,0,0
504,-20,0,0,0,0,0,0,0,0,0,-1,1728,1044,0,0
511,-20,0,0,0,0,0,0,0,0,0,-1,1735,1044,0,0
518,-20,0,0,0,0,0,0,0,0,0,-1,1742,1044,0,0
525,-20,0,0,0,0,0,0,0,0,0,-1,1749,1044,0,0
532,-20,0,0,0,0,0,0,0,0,0,-1,1756,1044,0,0
539,-20,0,0,0,0,0,0,0,0,0,-1,1763,1044,0,0
546,-20,0,0,0,0,0,0,0,0,0,-1,1770,1044,0,0
553,-20,0,0,0,0,0,0,0,0,0,-1,1777,1044,0,0
560,-20,0,0,0,0,0,0,0,0,0,-1,1784,1044,0,0
567,-20,0,0,0,0,0,0,0,0,0,-1,1791,1044,0,0
574,-20,0,0,0,0,0,0,0,0,0,-1,1798,1044,0,0
581,-20,0,0,0,0,0,0,0,0,0,-1,1805,1044,0,0
588,-20,0,0,0,0,0,0,0,0,0,-1,1812,1044,0,0
595,-20,0,0,0,0,0,0,0,0,0,-1,1819,1044,0,0
602,-20,0,0,0,0,0,0,0,0,0,-1,1826,1044,0,0
609,-20,0,0,0,0,0,0,0,0,0,-1,1833,1044,0,0
616,-20,0,0,0,0,0,0,0,0,0,-1,1840,1044,0,0
623,-20,0,0,0,0,0,0,0,0,0,-1,1847,1044,0,0
630,-20,0,0,0,0,0,0,0,0,0,-1,1854,1044,0,0
637,-20,0,0,0,0,0,0,0,0,0,-1,1861,1044,0,0
644,-20,0,0,0,0,0,0,0,0,0,-1,1868,1044,0,0
651,-20,228.313,8.73401,0,0,0,0,0,0,0,-1,1875,1044,228.314,-8.73398
658,-20,228.324,8.95471,0,0,0,0,0,0,0,-1,1882,1044,228.324,-8.95465
665,-20,228.325,9.07031,0,0,0,0,0,0,0,-1,1889,1044,228.325,-9.07033
672,-20,228.3,8.8573,0,0,0,0,0,0,0,-1,1896,1044,228.3,-8.85734
679,-20,228.284,8.73022,0,0,0,0,0,0,0,-1,1903,1044,228.284,-8.73018
686,-20,228.272,8.69421,0,0,0,0,0,0,0,-1,1910,1044,228.272,-8.69417
693,-20,228.263,8.70996,0,0,0,0,0,0,0,-1,1917,1044,228.263,-8.70994
700,-20,228.201,8.58679,0,0,0,0,0,0,0,-1,1924,1044,228.201,-8.58683
707,-20,228.202,8.57996,0,0,0,0,0,0,0,-1,1931,1044,228.202,-8.57994
714,-20,210.085,8.54321,0,0,0,0,0,0,0,-1,1938,1044,210.085,-8.54319
721,-20,178.509,7.30029,0,0,0,0,0,0,0,-1,1945,1044,178.509,-7.30034
728,-20,232.512,32.3142,0,0,0,0,0,0,0,-1,1952,1044,232.512,-32.3142
735,-20,232.254,32.343,0,0,0,0,0,0,0,-1,1959,1044,232.254,-32.343
742,-20,232.192,32.4118,0,0,0,0,0,0,0,-1,1966,1044,232.192,-32.4118
749,-20,232.307,32.6563,0,0,0,0,0,0,0,-1,1973,1044,232.307,-32.6562
756,-20,232.066,32.6616,-0.0184342,0.0240222,0.00101121,0.0240462,-0.0184583,1.547,0.0246106,0.0293273,1980,1044,232.066,-32.6616
763,-20,231.834,32.7302,-0.0202106,0.0320062,0.00199026,0.032082,-0.0202864,1.53275,0.0304894,0.0287678,1987,1044,231.834,-32.7302
770,-20,231.638,32.6296,-0.0217932,0.0400274,0.0031446,0.0401869,-0.0219528,1.5201,0.0363876,0.0251416,1994,1044,231.638,-32.6296
777,-20,231.502,33.0402,-0.0231336,0.0480767,0.00445689,0.0483546,-0.0234115,1.50853,0.0422601,0.0280419,2001,1044,231.502,-33.0401
784,-20,231.355,33.4147,0,0,0,0,0,0,0,-1,2008,1044,231.355,-33.4148
791,-20,221.194,33.4452,0,0,0,0,0,0,0,-1,2015,1044,221.194,-33.4452
798,-20,221.642,33.224,0,0,0,0,0,0,0,-1,2022,1044,221.642,-33.224
805,-20,145.318,17.1595,0,0,0,0,0,0,0,-1,2029,1044,145.318,-17.1595
812,-20,146.059,16.0255,0,0,0,0,0,0,0,-1,2036,1044,146.059,-16.0255
-700,-27,-88.3745,10.9375,0,0,0,0,0,0,0,-1,524,1051,-88.3745,-10.9374
-693,-27,-89.2953,11.3148,0,0,0,0,0,0,0,-1,531,1051,-89.2953,-11.3148
-686,-27,-90.1198,11.5474,0,0,0,0,0,0,0,-1,538,1051,-90.1198,-11.5473
-679,-27,-101.677,13.863,0,0,0,0,0,0,0,-1,545,1051,-101.677,-13.863
-672,-27,-183.888,31.3157,0,0,0,0,0,0,0,-1,552,1051,-183.889,-31.3157
-665,-27,-216.17,33.3818,0,0,0,0,0,0,0,-1,559,1051,-216.17,-33.3818
-658,-27,-222.149,32.6206,0,0,0,0,0,0,0,-1,566,1051,-222.149,-32.6206
-651,-27,-224.253,32.6688,0,0,0,0,0,0,0,-1,573,1051,-224.253,-32.6687
-644,-27,-224.254,32.2852,-0.017467,0.0538002,0.00184633,0.053848,-0.0175148,1.54491,0.0429445,0.0289939,580,1051,-224.254,-32.2852
-637,-27,-224.431,32.1662,-0.0132094,0.0451412,0.0019421,0.0452057,-0.013274,1.53756,0.0354013,0.0224861,587,1051,-224.431,-32.1662
-630,-27,-224.474,32.2822,-0.00893685,0.0365359,0.00197951,0.0366219,-0.00902286,1.52737,0.0279126,0.0244639,594,1051,-224.474,-32.2822
-623,-27,-224.606,32.2809,-0.00463365,0.0279883,0.00197386,0.0281073,-0.00475265,1.51058,0.0205068,0.0208269,601,1051,-224.606,-32.2809
-616,-27,-224.598,32.1885,-0.000283596,0.019505,0.00194226,0.0196939,-0.000472426,1.47388,0.0132895,0.017053,608,1051,-224.598,-32.1885
-609,-27,-224.64,32.1064,0.00413047,0.0110953,0.00190407,0.0115819,0.00364392,1.32062,0.00683827,0.0172233,615,1051,-224.64,-32.1064
-602,-27,-224.643,32.0115,0.00862684,0.00277162,0.00188129,0.0091792,0.00221926,0.285579,0.00553019,0.016503,622,1051,-224.643,-32.0115
-595,-27,-224.655,31.9164,0,0,0,0,0,0,0,-1,629,1051,-224.655,-31.9165
-588,-27,-220.749,31.8921,0,0,0,0,0,0,0,-1,636,1051,-220.749,-31.8921
-581,-27,-72.1835,0.374878,0,0,0,0,0,0,0,-1,643,1051,-72.1835,-0.37492
-574,-27,-72.1907,0.398804,0,0,0,0,0,0,0,-1,650,1051,-72.1907,-0.398771
-567,-27,-72.0397,0.301392,0,0,0,0,0,0,0,-1,657,1051,-72.0396,-0.301375
-560,-27,-72.0294,0.408813,0,0,0,0,0,0,0,-1,664,1051,-72.0294,-0.408812
-553,-27,-72.0273,0.499268,0,0,0,0,0,0,0,-1,671,1051,-72.0273,-0.499301
-546,-27,-72.1342,0.19397,0,0,0,0,0,0,0,-1,678,1051,-72.1342,-0.193915
-539,-27,-72.2832,0.279175,0,0,0,0,0,0,0,-1,685,1051,-72.2832,-0.279193
-532,-27,-72.424,0.484375,0,0,0,0,0,0,0,-1,692,1051,-72.424,-0.484377
-525,-27,0,0,0,0,0,0,0,0,0,-1,699,1051,0,0
-518,-27,0,0,0,0,0,0,0,0,0,-1,706,1051,0,0
-511,-27,0,0,0,0,0,0,0,0,0,-1,713,1051,0,0
-504,-27,0,0,0,0,0,0,0,0,0,-1,720,1051,0,0
-497,-27,0,0,0,0,0,0,0,0,0,-1,727,1051,0,0
-490,-27,0,0,0,0,0,0,0,0,0,-1,734,1051,0,0
-483,-27,0,0,0,0,0,0,0,0,0,-1,741,1051,0,0
-476,-27,0,0,0,0,0,0,0,0,0,-1,748,1051,0,0
-469,-27,0,0,0,0,0,0,0,0,0,-1,755,1051,0,0
-462,-27,0,0,0,0,0,0,0,0,0,-1,762,1051,0,0
-455,-27,0,0,0,0,0,0,0,0,0,-1,769,1051,0,0
-448,-27,0,0,0,0,0,0,0,0,0,-1,776,1051,0,0
-441,-27,0,0,0,0,0,0,0,0,0,-1,783,1051,0,0
-434,-27,0,0,0,0,0,0,0,0,0,-1,790,1051,0,0
-427,-27,0,0,0,0,0,0,0,0,0,-1,797,1051,0,0
-420,-27,0,0,0,0,0,0,0,0,0,-1,804,1051,0,0
-413,-27,0,0,0,0,0,0,0,0,0,-1,811,1051,0,0
-406,-27,0,0,0,0,0,0,0,0,0,-1,818,1051,0,0
-399,-27,0,0,0,0,0,0,0,0,0,-1,825,1051,0,0
-392,-27,0,0,0,0,0,0,0,0,0,-1,832,1051,0,0
-385,-27,0,0,0,0,0,0,0,0,0,-1,839,1051,0,0
-378,-27,0,0,0,0,0,0,0,0,0,-1,846,1051,0,0
-371,-27,0,0,0,0,0,0,0,0,0,-1,853,1051,0,0
-364,-27,0,0,0,0,0,0,0,0,0,-1,860,1051,0,0
-357,-27,0,0,0,0,0,0,0,0,0,-1,867,1051,0,0
-350,-27,0,0,0,0,0,0,0,0,0,-1,874,1051,0,0
-343,-27,0,0,0,0,0,0,0,0,0,-1,881,1051,0,0
-336,-27,0,0,0,0,0,0,0,0,0,-1,888,1051,0,0
-329,-27,0,0,0,0,0,0,0,0,0,-1,895,1051,0,0
-322,-27,0,0,0,0,0,0,0,0,0,-1,902,1051,0,0
-315,-27,0,0,0,0,0,0,0,0,0,-1,909,1051,0,0
-308,-27,0,0,0,0,0,0,0,0,0,-1,916,1051,0,0
-301,-27,0,0,0,0,0,0,0,0,0,-1,923,1051,0,0
-294,-27,0,0,0,0,0,0,0,0,0,-1,930,1051,0,0
-287,-27,0,0,0,0,0,0,0,0,0,-1,937,1051,0,0
-280,-27,0,0,0,0,0,0,0,0,0,-1,944,1051,0,0
-273,-27,0,0,0,0,0,0,0,0,0,-1,951,1051,0,0
-266,-27,0,0,0,0,0,0,0,0,0,-1,958,1051,0,0
-259,-27,0,0,0,0,0,0,0,0,0,-1,965,1051,0,0
-252,-27,0,0,0,0,0,0,0,0,0,-1,972,1051,0,0
-245,-27,0,0,0,0,0,0,0,0,0,-1,979,1051,0,0
-238,-27,0,0,0,0,0,0,0,0,0,-1,986,1051,0,0
-231,-27,0,0,0,0,0,0,0,0,0,-1,993,1051,0,0
-224,-27,0,0,0,0,0,0,0,0,0,-1,1000,1051,0,0
-217,-27,0,0,0,0,0,0,0,0,0,-1,1007,1051,0,0
-210,-27,0,0,0,0,0,0,0,0,0,-1,1014,1051,0,0
-203,-27,0,0,0,0,0,0,0,0,0,-1,1021,1051,0,0
-196,-27,0,0,0,0,0,0,0,0,0,-1,1028,1051,0,0
-189,-27,0,0,0,0,0,0,0,0,0,-1,1035,1051,0,0
-182,-27,0,0,0,0,0,0,0,0,0,-1,1042,1051,0,0
-175,-27,0,0,0,0,0,0,0,0,0,-1,1049,1051,0,0
-168,-27,0,0,0,0,0,0,0,0,0,-1,1056,1051,0,0
-161,-27,0,0,0,0,0,0,0,0,0,-1,1063,1051,0,0
-154,-27,0,0,0,0,0,0,0,0,0,-1,1070,1051,0,0
-147,-27,0,0,0,0,0,0,0,0,0,-1,1077,1051,0,0
-140,-27,0,0,0,0,0,0,0,0,0,-1,1084,1051,0,0
-133,-27,0,0,0,0,0,0,0,0,0,-1,1091,1051,0,0
-126,-27,0,0,0,0,0,0,0,0,0,-1,1098,1051,0,0
-119,-27,0,0,0,0,0,0,0,0,0,-1,1105,1051,0,0
-112,-27,0,0,0,0,0,0,0,0,0,-1,1112,1051,0,0
-105,-27,0,0,0,0,0,0,0,0,0,-1,1119,1051,0,0
-98,-27,0,0,0,0,0,0,0,0,0,-1,1126,1051,0,0
-91,-27,0,0,0,0,0,0,0,0,0,-1,1133,1051,0,0
-84,-27,0,0,0,0,0,0,0,0,0,-1,1140,1051,0,0
-77,-27,0,0,0,0,0,0,0,0,0,-1,1147,1051,0,0
-70,-27,0,0,0,0,0,0,0,0,0,-1,1154,1051,0,0
-63,-27,0,0,0,0,0,0,0,0,0,-1,1161,1051,0,0
-56,-27,0,0,0,0,0,0,0,0,0,-1,1168,1051,0,0
-49,-27,0,0,0,0,0,0,0,0,0,-1,1175,1051,0,0
-42,-27,0,0,0,0,0,0,0,0,0,-1,1182,1051,0,0
-35,-27,0,0,0,0,0,0,0,0,0,-1,1189,1051,0,0
-28,-27,0,0,0,0,0,0,0,0,0,-1,1196,1051,0,0
-21,-27,0,0,0,0,0,0,0,0,0,-1,1203,1051,0,0
-14,-27,0,0,0,0,0,0,0,0,0,-1,1210,1051,0,0
-7,-27,0,0,0,0,0,0,0,0,0,-1,1217,1051,0,0
0,-27,0,0,0,0,0,0,0,0,0,-1,1224,1051,0,0
7,-27,0,0,0,0,0,0,0,0,0,-1,1231,1051,0,0
14,-27,0,0,0,0,0,0,0,0,0,-1,1238,1051,0,0
21,-27,0,0,0,0,0,0,0,0,0,-1,1245,1051,0,0
28,-27,0,0,0,0,0,0,0,0,0,-1,1252,1051,0,0
35,-27,0,0,0,0,0,0,0,0,0,-1,1259,1051,0,0
42,-27,0,0,0,0,0,0,0,0,0,-1,1266,1051,0,0
49,-27,0,0,0,0,0,0,0,0,0,-1,1273,1051,0,0
56,-27,0,0,0,0,0,0,0,0,0,-1,1280,1051,0,0
63,-27,0,0,0,0,0,0,0,0,0,-1,1287,1051,0,0
70,-27,0,0,0,0,0,0,0,0,0,-1,1294,1051,0,0
77,-27,0,0,0,0,0,0,0,0,0,-1,1301,1051,0,0
84,-27,0,0,0,0,0,0,0,0,0,-1,1308,1051,0,0
91,-27,0,0,0,0,0,0,0,0,0,-1,1315,1051,0,0
98,-27,0,0,0,0,0,0,0,0,0,-1,1322,1051,0,0
105,-27,0,0,0,0,0,0,0,0,0,-1,1329,1051,0,0
112,-27,0,0,0,0,0,0,0,0,0,-1,1336,1051,0,0
119,-27,0,0,0,0,0,0,0,0,0,-1,1343,1051,0,0
126,-27,0,0,0,0,0,0,0,0,0,-1,1350,1051,0,0
133,-27,0,0,0,0,0,0,0,0,0,-1,1357,1051,0,0
140,-27,0,0,0,0,0,0,0,0,0,-1,1364,1051,0,0
147,-27,0,0,0,0,0,0,0,0,0,-1,1371,1051,0,0
154,-27,0,0,0,0,0,0,0,0,0,-1,1378,1051,0,0
161,-27,0,0,0,0,0,0,0,0,0,-1,1385,1051,0,0
168,-27,0,0,0,0,0,0,0,0,0,-1,1392,1051,0,0
175,-27,0,0,0,0,0,0,0,0,0,-1,1399,1051,0,0
182,-27,0,0,0,0,0,0,0,0,0,-1,1406,1051,0,0
189,-27,0,0,0,0,0,0,0,0,0,-1,1413,1051,0,0
196,-27,0,0,0,0,0,0,0,0,0,-1,1420,1051,0,0
203,-27,0,0,0,0,0,0,0,0,0,-1,1427,1051,0,0
210,-27,0,0,0,0,0,0,0,0,0,-1,1434,1051,0,0
217,-27,0,0,0,0,0,0,0,0,0,-1,1441,1051,0,0
224,-27,0,0,0,0,0,0,0,0,0,-1,1448,1051,0,0
231,-27,0,0,0,0,0,0,0,0,0,-1,1455,1051,0,0
238,-27,0,0,0,0,0,0,0,0,0,-1,1462,1051,0,0
245,-27,0,0,0,0,0,0,0,0,0,-1,1469,1051,0,0
252,-27,0,0,0,0,0,0,0,0,0,-1,1476,1051,0,0
259,-27,0,0,0,0,0,0,0,0,0,-1,1483,1051,0,0
266,-27,0,0,0,0,0,0,0,0,0,-1,1490,1051,0,0
273,-27,0,0,0,0,0,0,0,0,0,-1,1497,1051,0,0
280,-27,0,0,0,0,0,0,0,0,0,-1,1504,1051,0,0
287,-27,0,0,0,0,0,0,0,0,0,-1,1511,1051,0,0
294,-27,0,0,0,0,0,0,0,0,0,-1,1518,1051,0,0
301,-27,0,0,0,0,0,0,0,0,0,-1,1525,1051,0,0
308,-27,0,0,0,0,0,0,0,0,0,-1,1532,1051,0,0
315,-27,0,0,0,0,0,0,0,0,0,-1,1539,1051,0,0
322,-27,0,0,0,0,0,0,0,0,0,-1,1546,1051,0,0
329,-27,0,0,0,0,0,0,0,0,0,-1,1553,1051,0,0
336,-27,0,0,0,0,0,0,0,0,0,-1,1560,1051,0,0
343,-27,0,0,0,0,0,0,0,0,0,-1,1567,1051,0,0
350,-27,0,0,0,0,0,0,0,0,0,-1,1574,1051,0,0
357,-27,0,0,0,0,0,0,0,0,0,-1,1581,1051,0,0
364,-27,0,0,0,0,0,0,0,0,0,-1,1588,1051,0,0
371,-27,0,0,0,0,0,0,0,0,0,-1,1595,1051,0,0
378,-27,0,0,0,0,0,0,0,0,0,-1,1602,1051,0,0
385,-27,0,0,0,0,0,0,0,0,0,-1,1609,1051,0,0
392,-27,0,0,0,0,0,0,0,0,0,-1,1616,1051,0,0
399,-27,0,0,0,0,0,0,0,0,0,-1,1623,1051,0,0
406,-27,0,0,0,0,0,0,0,0,0,-1,1630,1051,0,0
413,-27,0,0,0,0,0,0,0,0,0,-1,1637,1051,0,0
420,-27,0,0,0,0,0,0,0,0,0,-1,1644,1051,0,0
427,-27,0,0,0,0,0,0,0,0,0,-1,1651,1051,0,0
434,-27,0,0,0,0,0,0,0,0,0,-1,1658,1051,0,0
441,-27,0,0,0,0,0,0,0,0,0,-1,1665,1051,0,0
448,-27,0,0,0,0,0,0,0,0,0,-1,1672,1051,0,0
455,-27,0,0,0,0,0,0,0,0,0,-1,1679,1051,0,0
462,-27,0,0,0,0,0,0,0,0,0,-1,1686,1051,0,0
469,-27,0,0,0,0,0,0,0,0,0,-1,1693,1051,0,0
476,-27,0,0,0,0,0,0,0,0,0,-1,1700,1051,0,0
483,-27,0,0,0,0,0,0,0,0,0,-1,1707,1051,0,0
490,-27,0,0,0,0,0,0,0,0,0,-1,1714,1051,0,0
497,-27,0,0,0,0,0,0,0,0,0,-1,1721,1051,0,0
504,-27,0,0,0,0,0,0,0,0,0,-1,1728,1051,0,0
511,-27,0,0,0,0,0,0,0,0,0,-1,1735,1051,0,0
518,-27,0,0,0,0,0,0,0,0,0,-1,1742,1051,0,0
525,-27,0,0,0,0,0,0,0,0,0,-1,1749,1051,0,0
532,-27,0,0,0,0,0,0,0,0,0,-1,1756,1051,0,0
539,-27,0,0,0,0,0,0,0,0,0,-1,1763,1051,0,0
546,-27,0,0,0,0,0,0,0,0,0,-1,1770,1051,0,0
553,-27,0,0,0,0,0,0,0,0,0,-1,1777,1051,0,0
560,-27,0,0,0,0,0,0,0,0,0,-1,1784,1051,0,0
567,-27,0,0,0,0,0,0,0,0,0,-1,1791,1051,0,0
574,-27,0,0,0,0,0,0,0,0,0,-1,1798,1051,0,0
581,-27,0,0,0,0,0,0,0,0,0,-1,1805,1051,0,0
588,-27,0,0,0,0,0,0,0,0,0,-1,1812,1051,0,0
595,-27,0,0,0,0,0,0,0,0,0,-1,1819,1051,0,0
602,-27,0,0,0,0,0,0,0,0,0,-1,1826,1051,0,0
609,-27,0,0,0,0,0,0,0,0,0,-1,1833,1051,0,0
616,-27,0,0,0,0,0,0,0,0,0,-1,1840,1051,0,0
623,-27,0,0,0,0,0,0,0,0,0,-1,1847,1051,0,0
630,-27,0,0,0,0,0,0,0,0,0,-1,1854,1051,0,0
637,-27,0,0,0,0,0,0,0,0,0,-1,1861,1051,0,0
644,-27,0,0,0,0,0,0,0,0,0,-1,1868,1051,0,0
651,-27,228.316,8.87036,0,0,0,0,0,0,0,-1,1875,1051,228.316,-8.87042
658,-27,228.302,8.97681,0,0,0,0,0,0,0,-1,1882,1051,228.302,-8.97678
665,-27,228.093,8.86182,0,0,0,0,0,0,0,-1,1889,1051,228.093,-8.86177
672,-27,228.006,8.77258,0,0,0,0,0,0,0,-1,1896,1051,228.006,-8.77258
679,-27,228.09,8.72473,0,0,0,0,0,0,0,-1,1903,1051,228.09,-8.72472
686,-27,228.183,8.69165,0,0,0,0,0,0,0,-1,1910,1051,228.183,-8.69164
693,-27,228.287,8.60754,0,0,0,0,0,0,0,-1,1917,1051,228.287,-8.60754
700,-27,228.147,8.53088,0,0,0,0,0,0,0,-1,1924,1051,228.147,-8.53091
707,-27,228.111,8.59204,0,0,0,0,0,0,0,-1,1931,1051,228.111,-8.59203
714,-27,228.129,8.54468,0,0,0,0,0,0,0,-1,1938,1051,228.129,-8.54463
721,-27,202.48,8.61157,0,0,0,0,0,0,0,-1,1945,1051,202.48,-8.61152
728,-27,232.911,32.3523,0,0,0,0,0,0,0,-1,1952,1051,232.911,-32.3523
735,-27,232.478,32.3991,-0.015703,-4.45532e-06,-0.00025228,-4.02331e-07,-0.0157071,-1.55473,0.0104712,0.0300373,1959,1051,232.478,-32.3991
742,-27,232.273,32.4315,-0.0169112,0.00771719,0.000194388,0.00771873,-0.0169127,1.5629,0.0145474,0.0248643,1966,1051,232.273,-32.4315
749,-27,232.281,32.386,-0.0182165,0.0155149,0.000831829,0.0155354,-0.018237,1.54616,0.0195193,0.0226048,1973,1051,232.281,-32.386
756,-27,232.149,32.4577,-0.019551,0.0233769,0.00165034,0.0234403,-0.0196144,1.53243,0.0248903,0.0232256,1980,1051,232.149,-32.4577
763,-27,231.957,32.549,-0.0208451,0.0312927,0.00263784,0.0314258,-0.0209782,1.52037,0.0304553,0.0216149,1987,1051,231.957,-32.549
770,-27,231.83,32.6042,-0.0220282,0.0392534,0.00377928,0.0394856,-0.0222604,1.50944,0.0361085,0.0213228,1994,1051,231.83,-32.6042
777,-27,231.617,32.9048,-0.0230288,0.0472514,0.00505589,0.0476132,-0.0233906,1.49935,0.0417817,0.029267,2001,1051,231.617,-32.9048
784,-27,231.585,33.3624,0,0,0,0,0,0,0,-1,2008,1051,231.585,-33.3624
791,-27,231.779,33.7636,0,0,0,0,0,0,0,-1,2015,1051,231.779,-33.7636
798,-27,148.048,15.4778,0,0,0,0,0,0,0,-1,2022,1051,148.048,-15.4778
805,-27,149.532,12.9192,0,0,0,0,0,0,0,-1,2029,1051,149.532,-12.9192
812,-27,122.348,7.61328,0,0,0,0,0,0,0,-1,2036,1051,122.348,-7.61324
-700,-34,-88.641,10.5408,0,0,0,0,0,0,0,-1,524,1058,-88.641,-10.5407
-693,-34,-89.3244,10.6776,0,0,0,0,0,0,0,-1,531,1058,-89.3244,-10.6776
-686,-34,-89.9775,10.8049,0,0,0,0,0,0,0,-1,538,1058,-89.9775,-10.805
-679,-34,-90.4781,10.9393,0,0,0,0,0,0,0,-1,545,1058,-90.4781,-10.9394
-672,-34,-102.759,13.5153,0,0,0,0,0,0,0,-1,552,1058,-102.759,-13.5153
-665,-34,-184.19,31.0149,0,0,0,0,0,0,0,-1,559,1058,-184.19,-31.0149
-658,-34,-223.983,31.6045,0,0,0,0,0,0,0,-1,566,1058,-223.983,-31.6045
-651,-34,-224.28,31.7783,0,0,0,0,0,0,0,-1,573,1058,-224.28,-31.7783
-644,-34,-224.504,31.9203,-0.0178879,0.0535658,0.00164774,0.0536037,-0.0179259,1.54775,0.0429759,0.0223663,580,1058,-224.504,-31.9203
-637,-34,-224.543,31.9802,-0.0137271,0.0449421,0.00177749,0.0449959,-0.0137809,1.54054,0.0354942,0.0227112,587,1058,-224.543,-31.9803
-630,-34,-224.492,32.0242,-0.00954866,0.0363696,0.00184935,0.036444,-0.00962302,1.53061,0.0280592,0.0216797,594,1058,-224.492,-32.0242
-623,-34,-224.574,32.0426,-0.00534062,0.0278501,0.00187329,0.0279555,-0.00544601,1.51459,0.0206926,0.018304,601,1058,-224.574,-32.0426
-616,-34,-224.584,32.1289,-0.00109029,0.0193874,0.00186096,0.0195551,-0.00125803,1.4809,0.0134757,0.0270737,608,1058,-224.584,-32.1288
-609,-34,-224.598,32.0815,0.00321614,0.0109881,0.00182614,0.0113958,0.00280844,1.35114,0.00685556,0.0236952,615,1058,-224.598,-32.0815
-602,-34,-224.676,32.0048,0.00759384,0.00266168,0.00178511,0.00817213,0.00208339,0.313282,0.00490344,0.0200507,622,1058,-224.676,-32.0048
-595,-34,-224.694,31.9783,0,0,0,0,0,0,0,-1,629,1058,-224.694,-31.9783
-588,-34,-223.018,32.2854,0,0,0,0,0,0,0,-1,636,1058,-223.018,-32.2854
-581,-34,-72.1434,0.436035,0,0,0,0,0,0,0,-1,643,1058,-72.1434,-0.436062
-574,-34,-72.0847,0.55542,0,0,0,0,0,0,0,-1,650,1058,-72.0847,-0.555444
-567,-34,-72.0326,0.461548,0,0,0,0,0,0,0,-1,657,1058,-72.0326,-0.461549
-560,-34,-71.9365,0.331909,0,0,0,0,0,0,0,-1,664,1058,-71.9365,-0.331852
-553,-34,-72.034,0.347778,0,0,0,0,0,0,0,-1,671,1058,-72.034,-0.347718
-546,-34,-72.1083,0.333984,0,0,0,0,0,0,0,-1,678,1058,-72.1083,-0.334014
-539,-34,-72.1866,0.363037,0,0,0,0,0,0,0,-1,685,1058,-72.1866,-0.363007
-532,-34,-72.3097,0.421509,0,0,0,0,0,0,0,-1,692,1058,-72.3097,-0.421536
-525,-34,0,0,0,0,0,0,0,0,0,-1,699,1058,0,0
-518,-34,0,0,0,0,0,0,0,0,0,-1,706,1058,0,0
-511,-34,0,0,0,0,0,0,0,0,0,-1,713,1058,0,0
-504,-34,0,0,0,0,0,0,0,0,0,-1,720,1058,0,0
-497,-34,0,0,0,0,0,0,0,0,0,-1,727,1058,0,0
-490,-34,0,0,0,0,0,0,0,0,0,-1,734,1058,0,0
-483,-34,0,0,0,0,0,0,0,0,0,-1,741,1058,0,0
-476,-34,0,0,0,0,0,0,0,0,0,-1,748,1058,0,0
-469,-34,0,0,0,0,0,0,0,0,0,-1,755,1058,0,0
-462,-34,0,0,0,0,0,0,0,0,0,-1,762,1058,0,0
-455,-34,0,0,0,0,0,0,0,0,0,-1,769,1058,0,0
-448,-34,0,0,0,0,0,0,0,0,0,-1,776,1058,0,0
-441,-34,0,0,0,0,0,0,0,0,0,-1,783,1058,0,0
-434,-34,0,0,0,0,0,0,0,0,0,-1,790,1058,0,0
-427,-34,0,0,0,0,0,0,0,0,0,-1,797,1058,0,0
-420,-34,0,0,0,0,0,0,0,0,0,-1,804,1058,0,0
-413,-34,0,0,0,0,0,0,0,0,0,-1,811,1058,0,0
-406,-34,0,0,0,0,0,0,0,0,0,-1,818,1058,0,0
-399,-34,0,0,0,0,0,0,0,0,0,-1,825,1058,0,0
-392,-34,0,0,0,0,0,0,0,0,0,-1,832,1058,0,0
-385,-34,0,0,0,0,0,0,0,0,0,-1,839,1058,0,0
-378,-34,0,0,0,0,0,0,0,0,0,-1,846,1058,0,0
-371,-34,0,0,0,0,0,0,0,0,0,-1,853,1058,0,0
-364,-34,0,0,0,0,0,0,0,0,0,-1,860,1058,0,0
-357,-34,0,0,0,0,0,0,0,0,0,-1,867,1058,0,0
-350,-34,0,0,0,0,0,0,0,0,0,-1,874,1058,0,0
-343,-34,0,0,0,0,0,0,0,0,0,-1,881,1058,0,0
-336,-34,0,0,0,0,0,0,0,0,0,-1,888,1058,0,0
-329,-34,0,0,0,0,0,0,0,0,0,-1,895,1058,0,0
-322,-34,0,0,0,0,0,0,0,0,0,-1,902,1058,0,0
-315,-34,0,0,0,0,0,0,0,0,0,-1,909,1058,0,0
-308,-34,0,0,0,0,0,0,0,0,0,-1,916,1058,0,0
-301,-34,0,0,0,0,0,0,0,0,0,-1,923,1058,0,0
-294,-34,0,0,0,0,0,0,0,0,0,-1,930,1058,0,0
-287,-34,0,0,0,0,0,0,0,0,0,-1,937,1058,0,0
-280,-34,0,0,0,0,0,0,0,0,0,-1,944,1058,0,0
-273,-34,0,0,0,0,0,0,0,0,0,-1,951,1058,0,0
-266,-34,0,0,0,0,0,0,0,0,0,-1,958,1058,0,0
-259,-34,0,0,0,0,0,0,0,0,0,-1,965,1058,0,0
-252,-34,0,0,0,0,0,0,0,0,0,-1,972,1058,0,0
-245,-34,0,0,0,0,0,0,0,0,0,-1,979,1058,0,0
-238,-34,0,0,0,0,0,0,0,0,0,-1,986,1058,0,0
-231,-34,0,0,0,0,0,0,0,0,0,-1,993,1058,0,0
-224,-34,0,0,0,0,0,0,0,0,0,-1,1000,1058,0,0
-217,-34,0,0,0,0,0,0,0,0,0,-1,1007,1058,0,0
-210,-34,0,0,0,0,0,0,0,0,0,-1,1014,1058,0,0
-203,-34,0,0,0,0,0,0,0,0,0,-1,1021,1058,0,0
-196,-34,0,0,0,0,0,0,0,0,0,-1,1028,1058,0,0
-189,-34,0,0,0,0,0,0,0,0,0,-1,1035,1058,0,0
-182,-34,0,0,0,0,0,0,0,0,0,-1,1042,1058,0,0
-175,-34,0,0,0,0,0,0,0,0,0,-1,1049,1058,0,0
-168,-34,0,0,0,0,0,0,0,0,0,-1,1056,1058,0,0
-161,-34,0,0,0,0,0,0,0,0,0,-1,1063,1058,0,0
-154,-34,0,0,0,0,0,0,0,0,0,-1,1070,1058,0,0
-147,-34,0,0,0,0,0,0,0,0,0,-1,1077,1058,0,0
-140,-34,0,0,0,0,0,0,0,0,0,-1,1084,1058,0,0
-133,-34,0,0,0,0,0,0,0,0,0,-1,1091,1058,0,0
-126,-34,0,0,0,0,0,0,0,0,0,-1,1098,1058,0,0
-119,-34,0,0,0,0,0,0,0,0,0,-1,1105,1058,0,0
-112,-34,0,0,0,0,0,0,0,0,0,-1,1112,1058,0,0
-105,-34,0,0,0,0,0,0,0,0,0,-1,1119,1058,0,0
-98,-34,0,0,0,0,0,0,0,0,0,-1,1126,1058,0,0
-91,-34,0,0,0,0,0,0,0,0,0,-1,1133,1058,0,0
-84,-34,0,0,0,0,0,0,0,0,0,-1,1140,1058,0,0
-77,-34,0,0,0,0,0,0,0,0,0,-1,1147,1058,0,0
-70,-34,0,0,0,0,0,0,0,0,0,-1,1154,1058,0,0
-63,-34,0,0,0,0,0,0,0,0,0,-1,1161,1058,0,0
-56,-34,0,0,0,0,0,0,0,0,0,-1,1168,1058,0,0
-49,-34,0,0,0,0,0,0,0,0,0,-1,1175,1058,0,0
-42,-34,0,0,0,0,0,0,0,0,0,-1,1182,1058,0,0
-35,-34,0,0,0,0,0,0,0,0,0,-1,1189,1058,0,0
-28,-34,0,0,0,0,0,0,0,0,0,-1,1196,1058,0,0
-21,-34,0,0,0,0,0,0,0,0,0,-1,1203,1058,0,0
-14,-34,0,0,0,0,0,0,0,0,0,-1,1210,1058,0,0
-7,-34,0,0,0,0,0,0,0,0,0,-1,1217,1058,0,0
0,-34,0,0,0,0,0,0,0,0,0,-1,1224,1058,0,0
7,-34,0,0,0,0,0,0,0,0,0,-1,1231,1058,0,0
14,-34,0,0,0,0,0,0,0,0,0,-1,1238,1058,0,0
21,-34,0,0,0,0,0,0,0,0,0,-1,1245,1058,0,0
28,-34,0,0,0,0,0,0,0,0,0,-1,1252,1058,0,0
35,-34,0,0,0,0,0,0,0,0,0,-1,1259,1058,0,0
42,-34,0,0,0,0,0,0,0,0,0,-1,1266,1058,0,0
49,-34,0,0,0,0,0,0,0,0,0,-1,1273,1058,0,0
56,-34,0,0,0,0,0,0,0,0,0,-1,1280,1058,0,0
63,-34,0,0,0,0,0,0,0,0,0,-1,1287,1058,0,0
70,-34,0,0,0,0,0,0,0,0,0,-1,1294,1058,0,0
77,-34,0,0,0,0,0,0,0,0,0,-1,1301,1058,0,0
84,-34,0,0,0,0,0,0,0,0,0,-1,1308,1058,0,0
91,-34,0,0,0,0,0,0,0,0,0,-1,1315,1058,0,0
98,-34,0,0,0,0,0,0,0,0,0,-1,1322,1058,0,0
105,-34,0,0,0,0,0,0,0,0,0,-1,1329,1058,0,0
112,-34,0,0,0,0,0,0,0,0,0,-1,1336,1058,0,0
119,-34,0,0,0,0,0,0,0,0,0,-1,1343,1058,0,0
126,-34,0,0,0,0,0,0,0,0,0,-1,1350,1058,0,0
133,-34,0,0,0,0,0,0,0,0,0,-1,1357,1058,0,0
140,-34,0,0,0,0,0,0,0,0,0,-1,1364,1058,0,0
147,-34,0,0,0,0,0,0,0,0,0,-1,1371,1058,0,0
154,-34,0,0,0,0,0,0,0,0,0,-1,1378,1058,0,0
161,-34,0,0,0,0,0,0,0,0,0,-1,1385,1058,0,0
168,-34,0,0,0,0,0,0,0,0,0,-1,1392,1058,0,0
175,-34,0,0,0,0,0,0,0,0,0,-1,1399,1058,0,0
182,-34,0,0,0,0,0,0,0,0,0,-1,1406,1058,0,0
189,-34,0,0,0,0,0,0,0,0,0,-1,1413,1058,0,0
196,-34,0,0,0,0,0,0,0,0,0,-1,1420,1058,0,0
203,-34,0,0,0,0,0,0,0,0,0,-1,1427,1058,0,0
210,-34,0,0,0,0,0,0,0,0,0,-1,1434,1058,0,0
217,-34,0,0,0,0,0,0,0,0,0,-1,1441,1058,0,0
224,-34,0,0,0,0,0,0,0,0,0,-1,1448,1058,0,0
231,-34,0,0,0,0,0,0,0,0,0,-1,1455,1058,0,0
238,-34,0,0,0,0,0,0,0,0,0,-1,1462,1058,0,0
245,-34,0,0,0,0,0,0,0,0,0,-1,1469,1058,0,0
252,-34,0,0,0,0,0,0,0,0,0,-1,1476,1058,0,0
259,-34,0,0,0,0,0,0,0,0,0,-1,1483,1058,0,0
266,-34,0,0,0,0,0,0,0,0,0,-1,1490,1058,0,0
273,-34,0,0,0,0,0,0,0,0,0,-1,1497,1058,0,0
280,-34,0,0,0,0,0,0,0,0,0,-1,1504,1058,0,0
287,-34,0,0,0,0,0,0,0,0,0,-1,1511,1058,0,0
294,-34,0,0,0,0,0,0,0,0,0,-1,1518,1058,0,0
301,-34,0,0,0,0,0,0,0,0,0,-1,1525,1058,0,0
308,-34,0,0,0,0,0,0,0,0,0,-1,1532,1058,0,0
315,-34,0,0,0,0,0,0,0,0,0,-1,1539,1058,0,0
322,-34,0,0,0,0,0,0,0,0,0,-1,1546,1058,0,0
329,-34,0,0,0,0,0,0,0,0,0,-1,1553,1058,0,0
336,-34,0,0,0,0,0,0,0,0,0,-1,1560,1058,0,0
343,-34,0,0,0,0,0,0,0,0,0,-1,1567,1058,0,0
350,-34,0,0,0,0,0,0,0,0,0,-1,1574,1058,0,0
357,-34,0,0,0,0,0,0,0,0,0,-1,1581,1058,0,0
364,-34,0,0,0,0,0,0,0,0,0,-1,1588,1058,0,0
371,-34,0,0,0,0,0,0,0,0,0,-1,1595,1058,0,0
378,-34,0,0,0,0,0,0,0,0,0,-1,1602,1058,0,0
385,-34,0,0,0,0,0,0,0,0,0,-1,1609,1058,0,0
392,-34,0,0,0,0,0,0,0,0,0,-1,1616,1058,0,0
399,-34,0,0,0,0,0,0,0,0,0,-1,1623,1058,0,0
406,-34,0,0,0,0,0,0,0,0,0,-1,1630,1058,0,0
413,-34,0,0,0,0,0,0,0,0,0,-1,1637,1058,0,0
420,-34,0,0,0,0,0,0,0,0,0,-1,1644,1058,0,0
427,-34,0,0,0,0,0,0,0,0,0,-1,1651,1058,0,0
434,-34,0,0,0,0,0,0,0,0,0,-1,1658,1058,0,0
441,-34,0,0,0,0,0,0,0,0,0,-1,1665,1058,0,0
448,-34,0,0,0,0,0,0,0,0,0,-1,1672,1058,0,0
455,-34,0,0,0,0,0,0,0,0,0,-1,1679,1058,0,0
462,-34,0,0,0,0,0,0,0,0,0,-1,1686,1058,0,0
469,-34,0,0,0,0,0,0,0,0,0,-1,1693,1058,0,0
476,-34,0,0,0,0,0,0,0,0,0,-1,1700,1058,0,0
483,-34,0,0,0,0,0,0,0,0,0,-1,1707,1058,0,0
490,-34,0,0,0,0,0,0,0,0,0,-1,1714,1058,0,0
497,-34,0,0,0,0,0,0,0,0,0,-1,1721,1058,0,0
504,-34,0,0,0,0,0,0,0,0,0,-1,1728,1058,0,0
511,-34,0,0,0,0,0,0,0,0,0,-1,1735,1058,0,0
518,-34,0,0,0,0,0,0,0,0,0,-1,1742,1058,0,0
525,-34,0,0,0,0,0,0,0,0,0,-1,1749,1058,0,0
532,-34,0,0,0,0,0,0,0,0,0,-1,1756,1058,0,0
539,-34,0,0,0,0,0,0,0,0,0,-1,1763,1058,0,0
546,-34,0,0,0,0,0,0,0,0,0,-1,1770,1058,0,0
553,-34,0,0,0,0,0,0,0,0,0,-1,1777,1058,0,0
560,-34,0,0,0,0,0,0,0,0,0,-1,1784,1058,0,0
567,-34,0,0,0,0,0,0,0,0,0,-1,1791,1058,0,0
574,-34,0,0,0,0,0,0,0,0,0,-1,1798,1058,0,0
581,-34,0,0,0,0,0,0,0,0,0,-1,1805,1058,0,0
588,-34,0,0,0,0,0,0,0,0,0,-1,1812,1058,0,0
595,-34,0,0,0,0,0,0,0,0,0,-1,1819,1058,0,0
602,-34,0,0,0,0,0,0,0,0,0,-1,1826,1058,0,0
609,-34,0,0,0,0,0,0,0,0,0,-1,1833,1058,0,0
616,-34,0,0,0,0,0,0,0,0,0,-1,1840,1058,0,0
623,-34,0,0,0,0,0,0,0,0,0,-1,1847,1058,0,0
630,-34,0,0,0,0,0,0,0,0,0,-1,1854,1058,0,0
637,-34,0,0,0,0,0,0,0,0,0,-1,1861,1058,0,0
644,-34,0,0,0,0,0,0,0,0,0,-1,1868,1058,0,0
651,-34,228.186,8.91443,0,0,0,0,0,0,0,-1,1875,1058,228.186,-8.91437
658,-34,228.186,8.92163,0,0,0,0,0,0,0,-1,1882,1058,228.186,-8.92159
665,-34,228.083,8.83606,0,0,0,0,0,0,0,-1,1889,1058,228.083,-8.83607
672,-34,228.001,8.86121,0,0,0,0,0,0,0,-1,1896,1058,228.001,-8.86117
679,-34,228.165,8.89075,0,0,0,0,0,0,0,-1,1903,1058,228.165,-8.89072
686,-34,228.209,8.79883,0,0,0,0,0,0,0,-1,1910,1058,228.209,-8.79879
693,-34,228.22,8.62317,0,0,0,0,0,0,0,-1,1917,1058,228.22,-8.62312
700,-34,228.048,8.57813,0,0,0,0,0,0,0,-1,1924,1058,228.048,-8.57807
707,-34,228.083,8.67529,0,0,0,0,0,0,0,-1,1931,1058,228.083,-8.67529
714,-34,228.142,8.74194,0,0,0,0,0,0,0,-1,1938,1058,228.142,-8.74196
721,-34,228.051,8.72205,0,0,0,0,0,0,0,-1,1945,1058,228.051,-8.72202
728,-34,232.551,32.1555,0,0,0,0,0,0,0,-1,1952,1058,232.551,-32.1556
735,-34,232.482,32.3345,-0.0158751,-0.00100237,0.00102294,-0.000932345,-0.0159452,1.50245,0.0103334,0.0295561,1959,1058,232.482,-32.3344
742,-34,232.349,32.3324,-0.0170087,0.00679844,0.00132218,0.00687164,-0.0170819,1.51549,0.0142422,0.0216354,1966,1058,232.349,-32.3324
749,-34,232.292,32.3245,-0.0182871,0.0146889,0.00179898,0.0147867,-0.018385,1.51646,0.0191892,0.0235654,1973,1058,232.292,-32.3245
756,-34,232.195,32.2935,-0.0196376,0.0226544,0.0024468,0.0227955,-0.0197787,1.5132,0.0246008,0.0196853,1980,1058,232.195,-32.2934
763,-34,232.008,32.3184,-0.020983,0.0306812,0.00325704,0.0308857,-0.0211875,1.50808,0.0302378,0.0192229,1987,1058,232.008,-32.3184
770,-34,231.792,32.4102,-0.0222418,0.0387568,0.00421836,0.0390471,-0.0225322,1.50208,0.0359765,0.0259345,1994,1058,231.792,-32.4102
777,-34,231.543,32.5842,-0.0233293,0.0468705,0.00531582,0.0472708,-0.0237296,1.49564,0.0417364,0.0303411,2001,1058,231.544,-32.5842
784,-34,231.708,33.2501,0,0,0,0,0,0,0,-1,2008,1058,231.708,-33.2501
791,-34,159.261,24.1865,0,0,0,0,0,0,0,-1,2015,1058,159.261,-24.1865
798,-34,121.588,12.5922,0,0,0,0,0,0,0,-1,2022,1058,121.588,-12.5921
805,-34,125.464,13.6713,0,0,0,0,0,0,0,-1,2029,1058,125.464,-13.6713
812,-34,120.777,11.1539,0,0,0,0,0,0,0,-1,2036,1058,120.777,-11.154
-700,-41,-89.518,-1.90662,0,0,0,0,0,0,0,-1,524,1065,-89.5181,1.90658
-693,-41,-89.1671,9.85364,0,0,0,0,0,0,0,-1,531,1065,-89.167,-9.85359
-686,-41,-89.8336,9.96179,0,0,0,0,0,0,0,-1,538,1065,-89.8336,-9.96181
-679,-41,-89.9981,10.0525,0,0,0,0,0,0,0,-1,545,1065,-89.9981,-10.0525
-672,-41,-87.9003,9.43982,0,0,0,0,0,0,0,-1,552,1065,-87.9003,-9.43984
-665,-41,-100.841,12.2817,0,0,0,0,0,0,0,-1,559,1065,-100.841,-12.2818
-658,-41,-223.549,30.8862,0,0,0,0,0,0,0,-1,566,1065,-223.549,-30.8863
-651,-41,-224.49,31.3801,0,0,0,0,0,0,0,-1,573,1065,-224.489,-31.3802
-644,-41,-224.471,31.611,-0.0180616,0.053691,0.00159096,0.0537262,-0.0180969,1.54864,0.0431343,0.0235306,580,1065,-224.471,-31.611
-637,-41,-224.573,31.7245,-0.0140861,0.0451274,0.00171963,0.0451773,-0.014136,1.54179,0.0357737,0.0261063,587,1065,-224.573,-31.7245
-630,-41,-224.557,31.7711,-0.0100793,0.036606,0.00178419,0.0366741,-0.0101474,1.53265,0.0284418,0.0193958,594,1065,-224.557,-31.7712
-623,-41,-224.579,31.8131,-0.00603218,0.028128,0.00179157,0.0282217,-0.00612588,1.51854,0.0211542,0.0187252,601,1065,-224.579,-31.8131
-616,-41,-224.685,31.9365,-0.00193475,0.0196965,0.00174995,0.0198372,-0.0020754,1.49059,0.0139681,0.027454,608,1065,-224.685,-31.9366
-609,-41,-224.595,31.9703,0.00222418,0.0113172,0.00166917,0.011614,0.00192746,1.39487,0.00718683,0.0274952,615,1065,-224.595,-31.9703
-602,-41,-224.669,32.0024,0.00645742,0.00299827,0.00156105,0.00705772,0.00239797,0.367115,0.00414393,0.0180932,622,1065,-224.669,-32.0024
-595,-41,-224.798,32.0211,0,0,0,0,0,0,0,-1,629,1065,-224.798,-32.0212
-588,-41,-223.146,32.1674,0,0,0,0,0,0,0,-1,636,1065,-223.146,-32.1674
-581,-41,-72.1207,0.19458,0,0,0,0,0,0,0,-1,643,1065,-72.1207,-0.194633
-574,-41,-72.1909,0.302856,0,0,0,0,0,0,0,-1,650,1065,-72.1909,-0.302903
-567,-41,-72.1972,0.48999,0,0,0,0,0,0,0,-1,657,1065,-72.1972,-0.490016
-560,-41,-72.1502,0.519897,0,0,0,0,0,0,0,-1,664,1065,-72.1502,-0.519944
-553,-41,-72.0277,0.413452,0,0,0,0,0,0,0,-1,671,1065,-72.0277,-0.413458
-546,-41,-72.038,0.488159,0,0,0,0,0,0,0,-1,678,1065,-72.038,-0.488107
-539,-41,-72.1121,0.595093,0,0,0,0,0,0,0,-1,685,1065,-72.112,-0.595043
-532,-41,-72.0419,0.654419,0,0,0,0,0,0,0,-1,692,1065,-72.0419,-0.654407
-525,-41,0,0,0,0,0,0,0,0,0,-1,699,1065,0,0
-518,-41,0,0,0,0,0,0,0,0,0,-1,706,1065,0,0
-511,-41,0,0,0,0,0,0,0,0,0,-1,713,1065,0,0
-504,-41,0,0,0,0,0,0,0,0,0,-1,720,1065,0,0
-497,-41,0,0,0,0,0,0,0,0,0,-1,727,1065,0,0
-490,-41,0,0,0,0,0,0,0,0,0,-1,734,1065,0,0
-483,-41,0,0,0,0,0,0,0,0,0,-1,741,1065,0,0
-476,-41,0,0,0,0,0,0,0,0,0,-1,748,1065,0,0
-469,-41,0,0,0,0,0,0,0,0,0,-1,755,1065,0,0
-462,-41,0,0,0,0,0,0,0,0,0,-1,762,1065,0,0
-455,-41,0,0,0,0,0,0,0,0,0,-1,769,1065,0,0
-448,-41,0,0,0,0,0,0,0,0,0,-1,776,1065,0,0
-441,-41,0,0,0,0,0,0,0,0,0,-1,783,1065,0,0
-434,-41,0,0,0,0,0,0,0,0,0,-1,790,1065,0,0
-427,-41,0,0,0,0,0,0,0,0,0,-1,797,1065,0,0
-420,-41,0,0,0,0,0,0,0,0,0,-1,804,1065,0,0
-413,-41,0,0,0,0,0,0,0,0,0,-1,811,1065,0,0
-406,-41,0,0,0,0,0,0,0,0,0,-1,818,1065,0,0
-399,-41,0,0,0,0,0,0,0,0,0,-1,825,1065,0,0
-392,-41,0,0,0,0,0,0,0,0,0,-1,832,1065,0,0
-385,-41,0,0,0,0,0,0,0,0,0,-1,839,1065,0,0
-378,-41,0,0,0,0,0,0,0,0,0,-1,846,1065,0,0
-371,-41,0,0,0,0,0,0,0,0,0,-1,853,1065,0,0
-364,-41,0,0,0,0,0,0,0,0,0,-1,860,1065,0,0
-357,-41,0,0,0,0,0,0,0,0,0,-1,867,1065,0,0
-350,-41,0,0,0,0,0,0,0,0,0,-1,874,1065,0,0
-343,-41,0,0,0,0,0,0,0,0,0,-1,881,1065,0,0
-336,-41,0,0,0,0,0,0,0,0,0,-1,888,1065,0,0
-329,-41,0,0,0,0,0,0,0,0,0,-1,895,1065,0,0
-322,-41,0,0,0,0,0,0,0,0,0,-1,902,1065,0,0
-315,-41,0,0,0,0,0,0,0,0,0,-1,909,1065,0,0
-308,-41,0,0,0,0,0,0,0,0,0,-1,916,1065,0,0
-301,-41,0,0,0,0,0,0,0,0,0,-1,923,1065,0,0
-294,-41,0,0,0,0,0,0,0,0,0,-1,930,1065,0,0
-287,-41,0,0,0,0,0,0,0,0,0,-1,937,1065,0,0
-280,-41,0,0,0,0,0,0,0,0,0,-1,944,1065,0,0
-273,-41,0,0,0,0,0,0,0,0,0,-1,951,1065,0,0
-266,-41,0,0,0,0,0,0,0,0,0,-1,958,1065,0,0
-259,-41,0,0,0,0,0,0,0,0,0,-1,965,1065,0,0
-252,-41,0,0,0,0,0,0,0,0,0,-1,972,1065,0,0
-245,-41,0,0,0,0,0,0,0,0,0,-1,979,1065,0,0
-238,-41,0,0,0,0,0,0,0,0,0,-1,986,1065,0,0
-231,-41,0,0,0,0,0,0,0,0,0,-1,993,1065,0,0
-224,-41,0,0,0,0,0,0,0,0,0,-1,1000,1065,0,0
-217,-41,0,0,0,0,0,0,0,0,0,-1,1007,1065,0,0
-210,-41,0,0,0,0,0,0,0,0,0,-1,1014,1065,0,0
-203,-41,0,0,0,0,0,0,0,0,0,-1,1021,1065,0,0
-196,-41,0,0,0,0,0,0,0,0,0,-1,1028,1065,0,0
-189,-41,0,0,0,0,0,0,0,0,0,-1,1035,1065,0,0
-182,-41,0,0,0,0,0,0,0,0,0,-1,1042,1065,0,0
-175,-41,0,0,0,0,0,0,0,0,0,-1,1049,1065,0,0
-168,-41,0,0,0,0,0,0,0,0,0,-1,1056,1065,0,0
-161,-41,0,0,0,0,0,0,0,0,0,-1,1063,1065,0,0
-154,-41,0,0,0,0,0,0,0,0,0,-1,1070,1065,0,0
-147,-41,0,0,0,0,0,0,0,0,0,-1,1077,1065,0,0
-140,-41,0,0,0,0,0,0,0,0,0,-1,1084,1065,0,0
-133,-41,0,0,0,0,0,0,0,0,0,-1,1091,1065,0,0
-126,-41,0,0,0,0,0,0,0,0,0,-1,1098,1065,0,0
-119,-41,0,0,0,0,0,0,0,0,0,-1,1105,1065,0,0
-112,-41,0,0,0,0,0,0,0,0,0,-1,1112,1065,0,0
-105,-41,0,0,0,0,0,0,0,0,0,-1,1119,1065,0,0
-98,-41,0,0,0,0,0,0,0,0,0,-1,1126,1065,0,0
-91,-41,0,0,0,0,0,0,0,0,0,-1,1133,1065,0,0
-84,-41,0,0,0,0,0,0,0,0,0,-1,1140,1065,0,0
-77,-41,0,0,0,0,0,0,0,0,0,-1,1147,1065,0,0
-70,-41,0,0,0,0,0,0,0,0,0,-1,1154,1065,0,0
-63,-41,0,0,0,0,0,0,0,0,0,-1,1161,1065,0,0
-56,-41,0,0,0,0,0,0,0,0,0,-1,1168,1065,0,0
-49,-41,0,0,0,0,0,0,0,0,0,-1,1175,1065,0,0
-42,-41,0,0,0,0,0,0,0,0,0,-1,1182,1065,0,0
-35,-41,0,0,0,0,0,0,0,0,0,-1,1189,1065,0,0
-28,-41,0,0,0,0,0,0,0,0,0,-1,1196,1065,0,0
-21,-41,0,0,0,0,0,0,0,0,0,-1,1203,1065,0,0
-14,-41,0,0,0,0,0,0,0,0,0,-1,1210,1065,0,0
-7,-41,0,0,0,0,0,0,0,0,0,-1,1217,1065,0,0
0,-41,0,0,0,0,0,0,0,0,0,-1,1224,1065,0,0
7,-41,0,0,0,0,0,0,0,0,0,-1,1231,1065,0,0
14,-41,0,0,0,0,0,0,0,0,0,-1,1238,1065,0,0
21,-41,0,0,0,0,0,0,0,0,0,-1,1245,1065,0,0
28,-41,0,0,0,0,0,0,0,0,0,-1,1252,1065,0,0
35,-41,0,0,0,0,0,0,0,0,0,-1,1259,1065,0,0
42,-41,0,0,0,0,0,0,0,0,0,-1,1266,1065,0,0
49,-41,0,0,0,0,0,0,0,0,0,-1,1273,1065,0,0
56,-41,0,0,0,0,0,0,0,0,0,-1,1280,1065,0,0
63,-41,0,0,0,0,0,0,0,0,0,-1,1287,1065,0,0
70,-41,0,0,0,0,0,0,0,0,0,-1,1294,1065,0,0
77,-41,0,0,0,0,0,0,0,0,0,-1,1301,1065,0,0
84,-41,0,0,0,0,0,0,0,0,0,-1,1308,1065,0,0
91,-41,0,0,0,0,0,0,0,0,0,-1,1315,1065,0,0
98,-41,0,0,0,0,0,0,0,0,0,-1,1322,1065,0,0
105,-41,0,0,0,0,0,0,0,0,0,-1,1329,1065,0,0
112,-41,0,0,0,0,0,0,0,0,0,-1,1336,1065,0,0
119,-41,0,0,0,0,0,0,0,0,0,-1,1343,1065,0,0
126,-41,0,0,0,0,0,0,0,0,0,-1,1350,1065,0,0
133,-41,0,0,0,0,0,0,0,0,0,-1,1357,1065,0,0
140,-41,0,0,0,0,0,0,0,0,0,-1,1364,1065,0,0
147,-41,0,0,0,0,0,0,0,0,0,-1,1371,1065,0,0
154,-41,0,0,0,0,0,0,0,0,0,-1,1378,1065,0,0
161,-41,0,0,0,0,0,0,0,0,0,-1,1385,1065,0,0
168,-41,0,0,0,0,0,0,0,0,0,-1,1392,1065,0,0
175,-41,0,0,0,0,0,0,0,0,0,-1,1399,1065,0,0
182,-41,0,0,0,0,0,0,0,0,0,-1,1406,1065,0,0
189,-41,0,0,0,0,0,0,0,0,0,-1,1413,1065,0,0
196,-41,0,0,0,0,0,0,0,0,0,-1,1420,1065,0,0
203,-41,0,0,0,0,0,0,0,0,0,-1,1427,1065,0,0
210,-41,0,0,0,0,0,0,0,0,0,-1,1434,1065,0,0
217,-41,0,0,0,0,0,0,0,0,0,-1,1441,1065,0,0
224,-41,0,0,0,0,0,0,0,0,0,-1,1448,1065,0,0
231,-41,0,0,0,0,0,0,0,0,0,-1,1455,1065,0,0
238,-41,0,0,0,0,0,0,0,0,0,-1,1462,1065,0,0
245,-41,0,0,0,0,0,0,0,0,0,-1,1469,1065,0,0
252,-41,0,0,0,0,0,0,0,0,0,-1,1476,1065,0,0
259,-41,0,0,0,0,0,0,0,0,0,-1,1483,1065,0,0
266,-41,0,0,0,0,0,0,0,0,0,-1,1490,1065,0,0
273,-41,0,0,0,0,0,0,0,0,0,-1,1497,1065,0,0
280,-41,0,0,0,0,0,0,0,0,0,-1,1504,1065,0,0
287,-41,0,0,0,0,0,0,0,0,0,-1,1511,1065,0,0
294,-41,0,0,0,0,0,0,0,0,0,-1,1518,1065,0,0
301,-41,0,0,0,0,0,0,0,0,0,-1,1525,1065,0,0
308,-41,0,0,0,0,0,0,0,0,0,-1,1532,1065,0,0
315,-41,0,0,0,0,0,0,0,0,0,-1,1539,1065,0,0
322,-41,0,0,0,0,0,0,0,0,0,-1,1546,1065,0,0
329,-41,0,0,0,0,0,0,0,0,0,-1,1553,1065,0,0
336,-41,0,0,0,0,0,0,0,0,0,-1,1560,1065,0,0
343,-41,0,0,0,0,0,0,0,0,0,-1,1567,1065,0,0
350,-41,0,0,0,0,0,0,0,0,0,-1,1574,1065,0,0
357,-41,0,0,0,0,0,0,0,0,0,-1,1581,1065,0,0
364,-41,0,0,0,0,0,0,0,0,0,-1,1588,1065,0,0
371,-41,0,0,0,0,0,0,0,0,0,-1,1595,1065,0,0
378,-41,0,0,0,0,0,0,0,0,0,-1,1602,1065,0,0
385,-41,0,0,0,0,0,0,0,0,0,-1,1609,1065,0,0
392,-41,0,0,0,0,0,0,0,0,0,-1,1616,1065,0,0
399,-41,0,0,0,0,0,0,0,0,0,-1,1623,1065,0,0
406,-41,0,0,0,0,0,0,0,0,0,-1,1630,1065,0,0
413,-41,0,0,0,0,0,0,0,0,0,-1,1637,1065,0,0
420,-41,0,0,0,0,0,0,0,0,0,-1,1644,1065,0,0
427,-41,0,0,0,0,0,0,0,0,0,-1,1651,1065,0,0
434,-41,0,0,0,0,0,0,0,0,0,-1,1658,1065,0,0
441,-41,0,0,0,0,0,0,0,0,0,-1,1665,1065,0,0
448,-41,0,0,0,0,0,0,0,0,0,-1,1672,1065,0,0
455,-41,0,0,0,0,0,0,0,0,0,-1,1679,1065,0,0
462,-41,0,0,0,0,0,0,0,0,0,-1,1686,1065,0,0
469,-41,0,0,0,0,0,0,0,0,0,-1,1693,1065,0,0
476,-41,0,0,0,0,0,0,0,0,0,-1,1700,1065,0,0
483,-41,0,0,0,0,0,0,0,0,0,-1,1707,1065,0,0
490,-41,0,0,0,0,0,0,0,0,0,-1,1714,1065,0,0
497,-41,0,0,0,0,0,0,0,0,0,-1,1721,1065,0,0
504,-41,0,0,0,0,0,0,0,0,0,-1,1728,1065,0,0
511,-41,0,0,0,0,0,0,0,0,0,-1,1735,1065,0,0
518,-41,0,0,0,0,0,0,0,0,0,-1,1742,1065,0,0
525,-41,0,0,0,0,0,0,0,0,0,-1,1749,1065,0,0
532,-41,0,0,0,0,0,0,0,0,0,-1,1756,1065,0,0
539,-41,0,0,0,0,0,0,0,0,0,-1,1763,1065,0,0
546,-41,0,0,0,0,0,0,0,0,0,-1,1770,1065,0,0
553,-41,0,0,0,0,0,0,0,0,0,-1,1777,1065,0,0
560,-41,0,0,0,0,0,0,0,0,0,-1,1784,1065,0,0
567,-41,0,0,0,0,0,0,0,0,0,-1,1791,1065,0,0
574,-41,0,0,0,0,0,0,0,0,0,-1,1798,1065,0,0
581,-41,0,0,0,0,0,0,0,0,0,-1,1805,1065,0,0
588,-41,0,0,0,0,0,0,0,0,0,-1,1812,1065,0,0
595,-41,0,0,0,0,0,0,0,0,0,-1,1819,1065,0,0
602,-41,0,0,0,0,0,0,0,0,0,-1,1826,1065,0,0
609,-41,0,0,0,0,0,0,0,0,0,-1,1833,1065,0,0
616,-41,0,0,0,0,0,0,0,0,0,-1,1840,1065,0,0
623,-41,0,0,0,0,0,0,0,0,0,-1,1847,1065,0,0
630,-41,0,0,0,0,0,0,0,0,0,-1,1854,1065,0,0
637,-41,0,0,0,0,0,0,0,0,0,-1,1861,1065,0,0
644,-41,0,0,0,0,0,0,0,0,0,-1,1868,1065,0,0
651,-41,228.071,8.80542,0,0,0,0,0,0,0,-1,1875,1065,228.071,-8.80546
658,-41,228.244,8.63831,0,0,0,0,0,0,0,-1,1882,1065,228.244,-8.63835
665,-41,228.316,8.57715,0,0,0,0,0,0,0,-1,1889,1065,228.316,-8.57719
672,-41,228.34,8.63098,0,0,0,0,0,0,0,-1,1896,1065,228.34,-8.63103
679,-41,228.262,8.87329,0,0,0,0,0,0,0,-1,1903,1065,228.262,-8.87325
686,-41,228.282,8.94312,0,0,0,0,0,0,0,-1,1910,1065,228.282,-8.94315
693,-41,228.225,8.80029,0,0,0,0,0,0,0,-1,1917,1065,228.225,-8.80023
700,-41,228.116,8.75098,0,0,0,0,0,0,0,-1,1924,1065,228.116,-8.75097
707,-41,228.078,8.6825,0,0,0,0,0,0,0,-1,1931,1065,228.078,-8.68252
714,-41,228.17,8.76501,0,0,0,0,0,0,0,-1,1938,1065,228.17,-8.76499
721,-41,228.199,8.73987,0,0,0,0,0,0,0,-1,1945,1065,228.199,-8.73986
728,-41,232.736,32.0591,0,0,0,0,0,0,0,-1,1952,1065,232.736,-32.0591
735,-41,232.458,32.1614,-0.015027,-0.00254912,0.00259774,-0.0020299,-0.0155462,1.37352,0.00975813,0.0398049,1959,1065,232.458,-32.1614
742,-41,232.251,32.1575,-0.0164092,0.00556589,0.00271411,0.00589614,-0.0167394,1.44971,0.0135593,0.0253936,1966,1065,232.251,-32.1575
749,-41,232.178,32.2449,-0.0179309,0.0137302,0.0029931,0.0140107,-0.0182114,1.47736,0.018656,0.0231334,1973,1065,232.178,-32.2449
756,-41,232.127,32.2688,-0.0195281,0.0219403,0.0034277,0.0222217,-0.0198095,1.48888,0.02428,0.0218832,1980,1065,232.127,-32.2688
763,-41,231.995,32.1531,-0.0211288,0.0301915,0.00400967,0.0305029,-0.0214402,1.49329,0.0301411,0.0203015,1987,1065,231.995,-32.1531
770,-41,231.73,32.0697,-0.0226531,0.0384794,0.00472873,0.038843,-0.0230167,1.49405,0.0361022,0.0261335,1994,1065,231.73,-32.0697
777,-41,231.487,32.071,-0.0240135,0.0467998,0.00557175,0.0472356,-0.0244492,1.49275,0.0420784,0.0286621,2001,1065,231.487,-32.071
784,-41,231.333,31.9817,-0.0251155,0.0551503,0.00652186,0.0556767,-0.025642,1.49025,0.048005,0.0444787,2008,1065,231.333,-31.9817
791,-41,231.334,31.8536,0,0,0,0,0,0,0,-1,2015,1065,231.334,-31.8536
798,-41,144.406,18.5679,0,0,0,0,0,0,0,-1,2022,1065,144.406,-18.5679
805,-41,143.496,17.1398,0,0,0,0,0,0,0,-1,2029,1065,143.496,-17.1397
812,-41,130.787,15.5538,0,0,0,0,0,0,0,-1,2036,1065,130.787,-15.5539
-700,-48,-88.5808,-1.61304,0,0,0,0,0,0,0,-1,524,1072,-88.5808,1.61309
-693,-48,-89.1802,8.5564,0,0,0,0,0,0,0,-1,531,1072,-89.1802,-8.55644
-686,-48,-89.7466,8.80872,0,0,0,0,0,0,0,-1,538,1072,-89.7466,-8.80872
-679,-48,-90.313,9.06104,0,0,0,0,0,0,0,-1,545,1072,-90.313,-9.06099
-672,-48,-85.5398,3.31128,0,0,0,0,0,0,0,-1,552,1072,-85.5398,-3.31128
-665,-48,-84.2753,4.37109,0,0,0,0,0,0,0,-1,559,1072,-84.2753,-4.37112
-658,-48,-98.2539,10.8611,0,0,0,0,0,0,0,-1,566,1072,-98.2539,-10.8611
-651,-48,-224.016,31.3979,0,0,0,0,0,0,0,-1,573,1072,-224.016,-31.398
-644,-48,-224.261,31.3501,-0.0175398,0.0529284,0.0010976,0.0529455,-0.0175569,1.55523,0.0423794,0.0322619,580,1072,-224.261,-31.3501
-637,-48,-224.47,31.2898,-0.0139406,0.0447056,0.00133682,0.044736,-0.0139711,1.54802,0.0354119,0.0328566,587,1072,-224.47,-31.2898
-630,-48,-224.612,31.4952,-0.0102751,0.0364789,0.00149967,0.036527,-0.0103232,1.53876,0.0284243,0.0356365,594,1072,-224.612,-31.4952
-623,-48,-224.688,31.5974,-0.00653904,0.0282523,0.00158817,0.0283247,-0.00661139,1.52527,0.0214296,0.0198917,601,1072,-224.688,-31.5974
-616,-48,-224.672,31.7195,-0.00272664,0.0200316,0.00160544,0.0201443,-0.00283934,1.50072,0.0144692,0.0182498,608,1072,-224.672,-31.7195
-609,-48,-224.577,31.9434,0.00116945,0.0118247,0.00155592,0.0120472,0.000946895,1.42872,0.00773519,0.0173569,615,1072,-224.577,-31.9434
-602,-48,-224.605,31.9825,0.00515852,0.00364161,0.00144574,0.00603268,0.00276746,0.543826,0.00348692,0.0179227,622,1072,-224.605,-31.9826
-595,-48,-224.571,32.0022,0,0,0,0,0,0,0,-1,629,1072,-224.571,-32.0022
-588,-48,-222.897,32.0579,0,0,0,0,0,0,0,-1,636,1072,-222.897,-32.0579
-581,-48,-72.1721,0.0887451,0,0,0,0,0,0,0,-1,643,1072,-72.172,-0.0887806
-574,-48,-72.2043,0.252686,0,0,0,0,0,0,0,-1,650,1072,-72.2043,-0.25272
-567,-48,-72.2415,0.488281,0,0,0,0,0,0,0,-1,657,1072,-72.2414,-0.488321
-560,-48,-72.2725,0.536499,0,0,0,0,0,0,0,-1,664,1072,-72.2725,-0.536524
-553,-48,-72.2182,0.4552,0,0,0,0,0,0,0,-1,671,1072,-72.2182,-0.45517
-546,-48,-72.1917,0.478149,0,0,0,0,0,0,0,-1,678,1072,-72.1916,-0.478111
-539,-48,-72.183,0.666382,0,0,0,0,0,0,0,-1,685,1072,-72.183,-0.66641
-532,-48,-72.2211,0.694214,0,0,0,0,0,0,0,-1,692,1072,-72.2211,-0.694174
-525,-48,0,0,0,0,0,0,0,0,0,-1,699,1072,0,0
-518,-48,0,0,0,0,0,0,0,0,0,-1,706,1072,0,0
-511,-48,0,0,0,0,0,0,0,0,0,-1,713,1072,0,0
-504,-48,0,0,0,0,0,0,0,0,0,-1,720,1072,0,0
-497,-48,0,0,0,0,0,0,0,0,0,-1,727,1072,0,0
-490,-48,0,0,0,0,0,0,0,0,0,-1,734,1072,0,0
-483,-48,0,0,0,0,0,0,0,0,0,-1,741,1072,0,0
-476,-48,0,0,0,0,0,0,0,0,0,-1,748,1072,0,0
-469,-48,0,0,0,0,0,0,0,0,0,-1,755,1072,0,0
-462,-48,0,0,0,0,0,0,0,0,0,-1,762,1072,0,0
-455,-48,0,0,0,0,0,0,0,0,0,-1,769,1072,0,0
-448,-48,0,0,0,0,0,0,0,0,0,-1,776,1072,0,0
-441,-48,0,0,0,0,0,0,0,0,0,-1,783,1072,0,0
-434,-48,0,0,0,0,0,0,0,0,0,-1,790,1072,0,0
-427,-48,0,0,0,0,0,0,0,0,0,-1,797,1072,0,0
-420,-48,0,0,0,0,0,0,0,0,0,-1,804,1072,0,0
-413,-48,0,0,0,0,0,0,0,0,0,-1,811,1072,0,0
-406,-48,0,0,0,0,0,0,0,0,0,-1,818,1072,0,0
-399,-48,0,0,0,0,0,0,0,0,0,-1,825,1072,0,0
-392,-48,0,0,0,0,0,0,0,0,0,-1,832,1072,0,0
-385,-48,0,0,0,0,0,0,0,0,0,-1,839,1072,0,0
-378,-48,0,0,0,0,0,0,0,0,0,-1,846,1072,0,0
-371,-48,0,0,0,0,0,0,0,0,0,-1,853,1072,0,0
-364,-48,0,0,0,0,0,0,0,0,0,-1,860,1072,0,0
-357,-48,0,0,0,0,0,0,0,0,0,-1,867,1072,0,0
-350,-48,0,0,0,0,0,0,0,0,0,-1,874,1072,0,0
-343,-48,0,0,0,0,0,0,0,0,0,-1,881,1072,0,0
-336,-48,0,0,0,0,0,0,0,0,0,-1,888,1072,0,0
-329,-48,0,0,0,0,0,0,0,0,0,-1,895,1072,0,0
-322,-48,0,0,0,0,0,0,0,0,0,-1,902,1072,0,0
-315,-48,0,0,0,0,0,0,0,0,0,-1,909,1072,0,0
-308,-48,0,0,0,0,0,0,0,0,0,-1,916,1072,0,0
-301,-48,0,0,0,0,0,0,0,0,0,-1,923,1072,0,0
-294,-48,0,0,0,0,0,0,0,0,0,-1,930,1072,0,0
-287,-48,0,0,0,0,0,0,0,0,0,-1,937,1072,0,0
-280,-48,0,0,0,0,0,0,0,0,0,-1,944,1072,0,0
-273,-48,0,0,0,0,0,0,0,0,0,-1,951,1072,0,0
-266,-48,0,0,0,0,0,0,0,0,0,-1,958,1072,0,0
-259,-48,0,0,0,0,0,0,0,0,0,-1,965,1072,0,0
-252,-48,0,0,0,0,0,0,0,0,0,-1,972,1072,0,0
-245,-48,0,0,0,0,0,0,0,0,0,-1,979,1072,0,0
-238,-48,0,0,0,0,0,0,0,0,0,-1,986,1072,0,0
-231,-48,0,0,0,0,0,0,0,0,0,-1,993,1072,0,0
-224,-48,0,0,0,0,0,0,0,0,0,-1,1000,1072,0,0
-217,-48,0,0,0,0,0,0,0,0,0,-1,1007,1072,0,0
-210,-48,0,0,0,0,0,0,0,0,0,-1,1014,1072,0,0
-203,-48,0,0,0,0,0,0,0,0,0,-1,1021,1072,0,0
-196,-48,0,0,0,0,0,0,0,0,0,-1,1028,1072,0,0
-189,-48,0,0,0,0,0,0,0,0,0,-1,1035,1072,0,0
-182,-48,0,0,0,0,0,0,0,0,0,-1,1042,1072,0,0
-175,-48,0,0,0,0,0,0,0,0,0,-1,1049,1072,0,0
-168,-48,0,0,0,0,0,0,0,0,0,-1,1056,1072,0,0
-161,-48,0,0,0,0,0,0,0,0,0,-1,1063,1072,0,0
-154,-48,0,0,0,0,0,0,0,0,0,-1,1070,1072,0,0
-147,-48,0,0,0,0,0,0,0,0,0,-1,1077,1072,0,0
-140,-48,0,0,0,0,0,0,0,0,0,-1,1084,1072,0,0
-133,-48,0,0,0,0,0,0,0,0,0,-1,1091,1072,0,0
-126,-48,0,0,0,0,0,0,0,0,0,-1,1098,1072,0,0
-119,-48,0,0,0,0,0,0,0,0,0,-1,1105,1072,0,0
-112,-48,0,0,0,0,0,0,0,0,0,-1,1112,1072,0,0
-105,-48,0,0,0,0,0,0,0,0,0,-1,1119,1072,0,0
-98,-48,0,0,0,0,0,0,0,0,0,-1,1126,1072,0,0
-91,-48,0,0,0,0,0,0,0,0,0,-1,1133,1072,0,0
-84,-48,0,0,0,0,0,0,0,0,0,-1,1140,1072,0,0
-77,-48,0,0,0,0,0,0,0,0,0,-1,1147,1072,0,0
-70,-48,0,0,0,0,0,0,0,0,0,-1,1154,1072,0,0
-63,-48,0,0,0,0,0,0,0,0,0,-1,1161,1072,0,0
-56,-48,0,0,0,0,0,0,0,0,0,-1,1168,1072,0,0
-49,-48,0,0,0,0,0,0,0,0,0,-1,1175,1072,0,0
-42,-48,0,0,0,0,0,0,0,0,0,-1,1182,1072,0,0
-35,-48,0,0,0,0,0,0,0,0,0,-1,1189,1072,0,0
-28,-48,0,0,0,0,0,0,0,0,0,-1,1196,1072,0,0
-21,-48,0,0,0,0,0,0,0,0,0,-1,1203,1072,0,0
-14,-48,0,0,0,0,0,0,0,0,0,-1,1210,1072,0,0
-7,-48,0,0,0,0,0,0,0,0,0,-1,1217,1072,0,0
0,-48,0,0,0,0,0,0,0,0,0,-1,1224,1072,0,0
7,-48,0,0,0,0,0,0,0,0,0,-1,1231,1072,0,0
14,-48,0,0,0,0,0,0,0,0,0,-1,1238,1072,0,0
21,-48,0,0,0,0,0,0,0,0,0,-1,1245,1072,0,0
28,-48,0,0,0,0,0,0,0,0,0,-1,1252,1072,0,0
35,-48,0,0,0,0,0,0,0,0,0,-1,1259,1072,0,0
42,-48,0,0,0,0,0,0,0,0,0,-1,1266,1072,0,0
49,-48,0,0,0,0,0,0,0,0,0,-1,1273,1072,0,0
56,-48,0,0,0,0,0,0,0,0,0,-1,1280,1072,0,0
63,-48,0,0,0,0,0,0,0,0,0,-1,1287,1072,0,0
70,-48,0,0,0,0,0,0,0,0,0,-1,1294,1072,0,0
77,-48,0,0,0,0,0,0,0,0,0,-1,1301,1072,0,0
84,-48,0,0,0,0,0,0,0,0,0,-1,1308,1072,0,0
91,-48,0,0,0,0,0,0,0,0,0,-1,1315,1072,0,0
98,-48,0,0,0,0,0,0,0,0,0,-1,1322,1072,0,0
105,-48,0,0,0,0,0,0,0,0,0,-1,1329,1072,0,0
112,-48,0,0,0,0,0,0,0,0,0,-1,1336,1072,0,0
119,-48,0,0,0,0,0,0,0,0,0,-1,1343,1072,0,0
126,-48,0,0,0,0,0,0,0,0,0,-1,1350,1072,0,0
133,-48,0,0,0,0,0,0,0,0,0,-1,1357,1072,0,0
140,-48,0,0,0,0,0,0,0,0,0,-1,1364,1072,0,0
147,-48,0,0,0,0,0,0,0,0,0,-1,1371,1072,0,0
154,-48,0,0,0,0,0,0,0,0,0,-1,1378,1072,0,0
161,-48,0,0,0,0,0,0,0,0,0,-1,1385,1072,0,0
168,-48,0,0,0,0,0,0,0,0,0,-1,1392,1072,0,0
175,-48,0,0,0,0,0,0,0,0,0,-1,1399,1072,0,0
182,-48,0,0,0,0,0,0,0,0,0,-1,1406,1072,0,0
189,-48,0,0,0,0,0,0,0,0,0,-1,1413,1072,0,0
196,-48,0,0,0,0,0,0,0,0,0,-1,1420,1072,0,0
203,-48,0,0,0,0,0,0,0,0,0,-1,1427,1072,0,0
210,-48,0,0,0,0,0,0,0,0,0,-1,1434,1072,0,0
217,-48,0,0,0,0,0,0,0,0,0,-1,1441,1072,0,0
224,-48,0,0,0,0,0,0,0,0,0,-1,1448,1072,0,0
231,-48,0,0,0,0,0,0,0,0,0,-1,1455,1072,0,0
238,-48,0,0,0,0,0,0,0,0,0,-1,1462,1072,0,0
245,-48,0,0,0,0,0,0,0,0,0,-1,1469,1072,0,0
252,-48,0,0,0,0,0,0,0,0,0,-1,1476,1072,0,0
259,-48,0,0,0,0,0,0,0,0,0,-1,1483,1072,0,0
266,-48,0,0,0,0,0,0,0,0,0,-1,1490,1072,0,0
273,-48,0,0,0,0,0,0,0,0,0,-1,1497,1072,0,0
280,-48,0,0,0,0,0,0,0,0,0,-1,1504,1072,0,0
287,-48,0,0,0,0,0,0,0,0,0,-1,1511,1072,0,0
294,-48,0,0,0,0,0,0,0,0,0,-1,1518,1072,0,0
301,-48,0,0,0,0,0,0,0,0,0,-1,1525,1072,0,0
308,-48,0,0,0,0,0,0,0,0,0,-1,1532,1072,0,0
315,-48,0,0,0,0,0,0,0,0,0,-1,1539,1072,0,0
322,-48,0,0,0,0,0,0,0,0,0,-1,1546,1072,0,0
329,-48,0,0,0,0,0,0,0,0,0,-1,1553,1072,0,0
336,-48,0,0,0,0,0,0,0,0,0,-1,1560,1072,0,0
343,-48,0,0,0,0,0,0,0,0,0,-1,1567,1072,0,0
350,-48,0,0,0,0,0,0,0,0,0,-1,1574,1072,0,0
357,-48,0,0,0,0,0,0,0,0,0,-1,1581,1072,0,0
364,-48,0,0,0,0,0,0,0,0,0,-1,1588,1072,0,0
371,-48,0,0,0,0,0,0,0,0,0,-1,1595,1072,0,0
378,-48,0,0,0,0,0,0,0,0,0,-1,1602,1072,0,0
385,-48,0,0,0,0,0,0,0,0,0,-1,1609,1072,0,0
392,-48,0,0,0,0,0,0,0,0,0,-1,1616,1072,0,0
399,-48,0,0,0,0,0,0,0,0,0,-1,1623,1072,0,0
406,-48,0,0,0,0,0,0,0,0,0,-1,1630,1072,0,0
413,-48,0,0,0,0,0,0,0,0,0,-1,1637,1072,0,0
420,-48,0,0,0,0,0,0,0,0,0,-1,1644,1072,0,0
427,-48,0,0,0,0,0,0,0,0,0,-1,1651,1072,0,0
434,-48,0,0,0,0,0,0,0,0,0,-1,1658,1072,0,0
441,-48,0,0,0,0,0,0,0,0,0,-1,1665,1072,0,0
448,-48,0,0,0,0,0,0,0,0,0,-1,1672,1072,0,0
455,-48,0,0,0,0,0,0,0,0,0,-1,1679,1072,0,0
462,-48,0,0,0,0,0,0,0,0,0,-1,1686,1072,0,0
469,-48,0,0,0,0,0,0,0,0,0,-1,1693,1072,0,0
476,-48,0,0,0,0,0,0,0,0,0,-1,1700,1072,0,0
483,-48,0,0,0,0,0,0,0,0,0,-1,1707,1072,0,0
490,-48,0,0,0,0,0,0,0,0,0,-1,1714,1072,0,0
497,-48,0,0,0,0,0,0,0,0,0,-1,1721,1072,0,0
504,-48,0,0,0,0,0,0,0,0,0,-1,1728,1072,0,0
511,-48,0,0,0,0,0,0,0,0,0,-1,1735,1072,0,0
518,-48,0,0,0,0,0,0,0,0,0,-1,1742,1072,0,0
525,-48,0,0,0,0,0,0,0,0,0,-1,1749,1072,0,0
532,-48,0,0,0,0,0,0,0,0,0,-1,1756,1072,0,0
539,-48,0,0,0,0,0,0,0,0,0,-1,1763,1072,0,0
546,-48,0,0,0,0,0,0,0,0,0,-1,1770,1072,0,0
553,-48,0,0,0,0,0,0,0,0,0,-1,1777,1072,0,0
560,-48,0,0,0,0,0,0,0,0,0,-1,1784,1072,0,0
567,-48,0,0,0,0,0,0,0,0,0,-1,1791,1072,0,0
574,-48,0,0,0,0,0,0,0,0,0,-1,1798,1072,0,0
581,-48,0,0,0,0,0,0,0,0,0,-1,1805,1072,0,0
588,-48,0,0,0,0,0,0,0,0,0,-1,1812,1072,0,0
595,-48,0,0,0,0,0,0,0,0,0,-1,1819,1072,0,0
602,-48,0,0,0,0,0,0,0,0,0,-1,1826,1072,0,0
609,-48,0,0,0,0,0,0,0,0,0,-1,1833,1072,0,0
616,-48,0,0,0,0,0,0,0,0,0,-1,1840,1072,0,0
623,-48,0,0,0,0,0,0,0,0,0,-1,1847,1072,0,0
630,-48,0,0,0,0,0,0,0,0,0,-1,1854,1072,0,0
637,-48,0,0,0,0,0,0,0,0,0,-1,1861,1072,0,0
644,-48,0,0,0,0,0,0,0,0,0,-1,1868,1072,0,0
651,-48,228.113,8.69421,0,0,0,0,0,0,0,-1,1875,1072,228.113,-8.69427
658,-48,228.225,8.65845,0,0,0,0,0,0,0,-1,1882,1072,228.225,-8.65844
665,-48,228.254,8.65637,0,0,0,0,0,0,0,-1,1889,1072,228.254,-8.65639
672,-48,227.965,8.85974,0,0,0,0,0,0,0,-1,1896,1072,227.965,-8.8597
679,-48,227.987,8.80322,0,0,0,0,0,0,0,-1,1903,1072,227.987,-8.80319
686,-48,228.037,8.80151,0,0,0,0,0,0,0,-1,1910,1072,228.037,-8.80149
693,-48,228.168,8.77808,0,0,0,0,0,0,0,-1,1917,1072,228.168,-8.77809
700,-48,228.193,8.81213,0,0,0,0,0,0,0,-1,1924,1072,228.193,-8.81215
707,-48,228.209,8.72034,0,0,0,0,0,0,0,-1,1931,1072,228.209,-8.72033
714,-48,228.172,8.599,0,0,0,0,0,0,0,-1,1938,1072,228.172,-8.59897
721,-48,228.159,8.49976,0,0,0,0,0,0,0,-1,1945,1072,228.159,-8.49977
728,-48,232.669,32.4158,0,0,0,0,0,0,0,-1,1952,1072,232.669,-32.4157
735,-48,232.376,32.3812,-0.0132909,-0.00352895,0.00301732,-0.00267163,-0.0141482,1.29396,0.00867976,0.0410626,1959,1072,232.377,-32.3813
742,-48,232.073,32.2266,-0.0151633,0.00493953,0.00300709,0.0053797,-0.0156035,1.42545,0.0125848,0.0244661,1966,1072,232.073,-32.2266
749,-48,232.049,32.0988,-0.0171596,0.013415,0.00316063,0.0137383,-0.0174829,1.46886,0.0180688,0.0249974,1973,1072,232.049,-32.0988
756,-48,231.975,32.0387,-0.0192163,0.0219014,0.00346734,0.0221917,-0.0195067,1.48726,0.0240912,0.0228194,1980,1072,231.975,-32.0387
763,-48,231.864,31.9333,-0.0212621,0.030402,0.00391558,0.0306971,-0.0215572,1.49558,0.0303225,0.0197637,1987,1072,231.864,-31.9334
770,-48,231.716,31.7787,-0.0232168,0.0389206,0.00449214,0.0392437,-0.0235398,1.499,0.0366241,0.0261264,1994,1072,231.716,-31.7787
777,-48,231.472,31.7058,-0.0249914,0.0474619,0.00518172,0.0478307,-0.0253601,1.49976,0.0429154,0.0244307,2001,1072,231.472,-31.7058
784,-48,231.307,31.731,-0.026489,0.0560323,0.00596641,0.0564614,-0.0269181,1.49899,0.0491361,0.0365829,2008,1072,231.307,-31.731
791,-48,231.257,31.6857,0,0,0,0,0,0,0,-1,2015,1072,231.257,-31.6857
798,-48,224.573,30.7754,0,0,0,0,0,0,0,-1,2022,1072,224.573,-30.7754
805,-48,145.94,17.7681,0,0,0,0,0,0,0,-1,2029,1072,145.94,-17.768
812,-48,145.715,16.424,0,0,0,0,0,0,0,-1,2036,1072,145.715,-16.424
-700,-55,-87.3454,-1.32239,0,0,0,0,0,0,0,-1,524,1079,-87.3454,1.32238
-693,-55,-88.6417,7.0238,0,0,0,0,0,0,0,-1,531,1079,-88.6417,-7.02386
-686,-55,-89.3746,7.15051,0,0,0,0,0,0,0,-1,538,1079,-89.3746,-7.15048
-679,-55,-90.1075,7.2771,0,0,0,0,0,0,0,-1,545,1079,-90.1075,-7.27709
-672,-55,-85.4192,2.81006,0,0,0,0,0,0,0,-1,552,1079,-85.4192,-2.81005
-665,-55,-84.8889,2.23938,0,0,0,0,0,0,0,-1,559,1079,-84.8889,-2.23935
-658,-55,-84.2544,2.53162,0,0,0,0,0,0,0,-1,566,1079,-84.2544,-2.53157
-651,-55,-224.153,30.9873,0,0,0,0,0,0,0,-1,573,1079,-224.153,-30.9873
-644,-55,-224.241,31.0254,-0.0174758,0.0519462,0.000216613,0.0519469,-0.0174765,1.56768,0.041696,0.0406825,580,1079,-224.241,-31.0254
-637,-55,-224.355,30.973,-0.0142195,0.0441429,0.000700071,0.0441513,-0.0142279,1.5588,0.0351502,0.0293536,587,1079,-224.355,-30.973
-630,-55,-224.476,31.2042,-0.0108411,0.0362691,0.00107397,0.0362936,-0.0108655,1.54801,0.0285161,0.0320603,594,1079,-224.476,-31.2042
-623,-55,-224.645,31.4866,-0.00734516,0.0283349,0.00133609,0.0283848,-0.00739512,1.53342,0.0218103,0.0257801,601,1079,-224.645,-31.4866
-616,-55,-224.65,31.6149,-0.00373533,0.0203514,0.00148495,0.0204426,-0.00382653,1.50946,0.0150668,0.0234755,608,1079,-224.65,-31.6148
-609,-55,-224.547,31.8768,-1.36088e-05,0.012331,0.00152003,0.0125154,-0.000198021,1.45007,0.0084104,0.0247603,615,1079,-224.547,-31.8768
-602,-55,-224.482,31.985,0.00381973,0.00428703,0.00144198,0.00551416,0.0025926,0.865718,0.00318549,0.0188742,622,1079,-224.482,-31.985
-595,-55,-224.349,32.0273,0.00776648,-0.00376563,0.00125297,0.00790104,-0.0039002,0.106987,0.00694274,0.0495351,629,1079,-224.349,-32.0273
-588,-55,-224.527,32.1046,0,0,0,0,0,0,0,-1,636,1079,-224.527,-32.1046
-581,-55,-72.2021,0.568848,0,0,0,0,0,0,0,-1,643,1079,-72.2021,-0.568903
-574,-55,-72.1902,0.588257,0,0,0,0,0,0,0,-1,650,1079,-72.1903,-0.588203
-567,-55,-72.2176,0.383911,0,0,0,0,0,0,0,-1,657,1079,-72.2176,-0.383936
-560,-55,-72.2438,0.371704,0,0,0,0,0,0,0,-1,664,1079,-72.2438,-0.371714
-553,-55,-72.1981,0.384766,0,0,0,0,0,0,0,-1,671,1079,-72.1981,-0.384818
-546,-55,-72.202,0.425049,0,0,0,0,0,0,0,-1,678,1079,-72.202,-0.425034
-539,-55,-72.2377,0.464722,0,0,0,0,0,0,0,-1,685,1079,-72.2377,-0.464753
-532,-55,-76.1212,-0.043335,0,0,0,0,0,0,0,-1,692,1079,-76.1211,0.043395
-525,-55,0,0,0,0,0,0,0,0,0,-1,699,1079,0,0
-518,-55,0,0,0,0,0,0,0,0,0,-1,706,1079,0,0
-511,-55,0,0,0,0,0,0,0,0,0,-1,713,1079,0,0
-504,-55,0,0,0,0,0,0,0,0,0,-1,720,1079,0,0
-497,-55,0,0,0,0,0,0,0,0,0,-1,727,1079,0,0
-490,-55,0,0,0,0,0,0,0,0,0,-1,734,1079,0,0
-483,-55,0,0,0,0,0,0,0,0,0,-1,741,1079,0,0
-476,-55,0,0,0,0,0,0,0,0,0,-1,748,1079,0,0
-469,-55,0,0,0,0,0,0,0,0,0,-1,755,1079,0,0
-462,-55,0,0,0,0,0,0,0,0,0,-1,762,1079,0,0
-455,-55,0,0,0,0,0,0,0,0,0,-1,769,1079,0,0
-448,-55,0,0,0,0,0,0,0,0,0,-1,776,1079,0,0
-441,-55,0,0,0,0,0,0,0,0,0,-1,783,1079,0,0
-434,-55,0,0,0,0,0,0,0,0,0,-1,790,1079,0,0
-427,-55,0,0,0,0,0,0,0,0,0,-1,797,1079,0,0
-420,-55,0,0,0,0,0,0,0,0,0,-1,804,1079,0,0
-413,-55,0,0,0,0,0,0,0,0,0,-1,811,1079,0,0
-406,-55,0,0,0,0,0,0,0,0,0,-1,818,1079,0,0
-399,-55,0,0,0,0,0,0,0,0,0,-1,825,1079,0,0
-392,-55,0,0,0,0,0,0,0,0,0,-1,832,1079,0,0
-385,-55,0,0,0,0,0,0,0,0,0,-1,839,1079,0,0
-378,-55,0,0,0,0,0,0,0,0,0,-1,846,1079,0,0
-371,-55,0,0,0,0,0,0,0,0,0,-1,853,1079,0,0
-364,-55,0,0,0,0,0,0,0,0,0,-1,860,1079,0,0
-357,-55,0,0,0,0,0,0,0,0,0,-1,867,1079,0,0
-350,-55,0,0,0,0,0,0,0,0,0,-1,874,1079,0,0
-343,-55,0,0,0,0,0,0,0,0,0,-1,881,1079,0,0
-336,-55,0,0,0,0,0,0,0,0,0,-1,888,1079,0,0
-329,-55,0,0,0,0,0,0,0,0,0,-1,895,1079,0,0
-322,-55,0,0,0,0,0,0,0,0,0,-1,902,1079,0,0
-315,-55,0,0,0,0,0,0,0,0,0,-1,909,1079,0,0
-308,-55,0,0,0,0,0,0,0,0,0,-1,916,1079,0,0
-301,-55,0,0,0,0,0,0,0,0,0,-1,923,1079,0,0
-294,-55,0,0,0,0,0,0,0,0,0,-1,930,1079,0,0
-287,-55,0,0,0,0,0,0,0,0,0,-1,937,1079,0,0
-280,-55,0,0,0,0,0,0,0,0,0,-1,944,1079,0,0
-273,-55,0,0,0,0,0,0,0,0,0,-1,951,1079,0,0
-266,-55,0,0,0,0,0,0,0,0,0,-1,958,1079,0,0
-259,-55,0,0,0,0,0,0,0,0,0,-1,965,1079,0,0
-252,-55,0,0,0,0,0,0,0,0,0,-1,972,1079,0,0
-245,-55,0,0,0,0,0,0,0,0,0,-1,979,1079,0,0
-238,-55,0,0,0,0,0,0,0,0,0,-1,986,1079,0,0
-231,-55,0,0,0,0,0,0,0,0,0,-1,993,1079,0,0
-224,-55,0,0,0,0,0,0,0,0,0,-1,1000,1079,0,0
-217,-55,0,0,0,0,0,0,0,0,0,-1,1007,1079,0,0
-210,-55,0,0,0,0,0,0,0,0,0,-1,1014,1079,0,0
-203,-55,0,0,0,0,0,0,0,0,0,-1,1021,1079,0,0
-196,-55,0,0,0,0,0,0,0,0,0,-1,1028,1079,0,0
-189,-55,0,0,0,0,0,0,0,0,0,-1,1035,1079,0,0
-182,-55,0,0,0,0,0,0,0,0,0,-1,1042,1079,0,0
-175,-55,0,0,0,0,0,0,0,0,0,-1,1049,1079,0,0
-168,-55,0,0,0,0,0,0,0,0,0,-1,1056,1079,0,0
-161,-55,0,0,0,0,0,0,0,0,0,-1,1063,1079,0,0
-154,-55,0,0,0,0,0,0,0,0,0,-1,1070,1079,0,0
-147,-55,0,0,0,0,0,0,0,0,0,-1,1077,1079,0,0
-140,-55,0,0,0,0,0,0,0,0,0,-1,1084,1079,0,0
-133,-55,0,0,0,0,0,0,0,0,0,-1,1091,1079,0,0
-126,-55,0,0,0,0,0,0,0,0,0,-1,1098,1079,0,0
-119,-55,0,0,0,0,0,0,0,0,0,-1,1105,1079,0,0
-112,-55,0,0,0,0,0,0,0,0,0,-1,1112,1079,0,0
-105,-55,0,0,0,0,0,0,0,0,0,-1,1119,1079,0,0
-98,-55,0,0,0,0,0,0,0,0,0,-1,1126,1079,0,0
-91,-55,0,0,0,0,0,0,0,0,0,-1,1133,1079,0,0
-84,-55,0,0,0,0,0,0,0,0,0,-1,1140,1079,0,0
-77,-55,0,0,0,0,0,0,0,0,0,-1,1147,1079,0,0
-70,-55,0,0,0,0,0,0,0,0,0,-1,1154,1079,0,0
-63,-55,0,0,0,0,0,0,0,0,0,-1,1161,1079,0,0
-56,-55,0,0,0,0,0,0,0,0,0,-1,1168,1079,0,0
-49,-55,0,0,0,0,0,0,0,0,0,-1,1175,1079,0,0
-42,-55,0,0,0,0,0,0,0,0,0,-1,1182,1079,0,0
-35,-55,0,0,0,0,0,0,0,0,0,-1,1189,1079,0,0
-28,-55,0,0,0,0,0,0,0,0,0,-1,1196,1079,0,0
-21,-55,0,0,0,0,0,0,0,0,0,-1,1203,1079,0,0
-14,-55,0,0,0,0,0,0,0,0,0,-1,1210,1079,0,0
-7,-55,0,0,0,0,0,0,0,0,0,-1,1217,1079,0,0
0,-55,0,0,0,0,0,0,0,0,0,-1,1224,1079,0,0
7,-55,0,0,0,0,0,0,0,0,0,-1,1231,1079,0,0
14,-55,0,0,0,0,0,0,0,0,0,-1,1238,1079,0,0
21,-55,0,0,0,0,0,0,0,0,0,-1,1245,1079,0,0
28,-55,0,0,0,0,0,0,0,0,0,-1,1252,1079,0,0
35,-55,0,0,0,0,0,0,0,0,0,-1,1259,1079,0,0
42,-55,0,0,0,0,0,0,0,0,0,-1,1266,1079,0,0
49,-55,0,0,0,0,0,0,0,0,0,-1,1273,1079,0,0
56,-55,0,0,0,0,0,0,0,0,0,-1,1280,1079,0,0
63,-55,0,0,0,0,0,0,0,0,0,-1,1287,1079,0,0
70,-55,0,0,0,0,0,0,0,0,0,-1,1294,1079,0,0
77,-55,0,0,0,0,0,0,0,0,0,-1,1301,1079,0,0
84,-55,0,0,0,0,0,0,0,0,0,-1,1308,1079,0,0
91,-55,0,0,0,0,0,0,0,0,0,-1,1315,1079,0,0
98,-55,0,0,0,0,0,0,0,0,0,-1,1322,1079,0,0
105,-55,0,0,0,0,0,0,0,0,0,-1,1329,1079,0,0
112,-55,0,0,0,0,0,0,0,0,0,-1,1336,1079,0,0
119,-55,0,0,0,0,0,0,0,0,0,-1,1343,1079,0,0
126,-55,0,0,0,0,0,0,0,0,0,-1,1350,1079,0,0
133,-55,0,0,0,0,0,0,0,0,0,-1,1357,1079,0,0
140,-55,0,0,0,0,0,0,0,0,0,-1,1364,1079,0,0
147,-55,0,0,0,0,0,0,0,0,0,-1,1371,1079,0,0
154,-55,0,0,0,0,0,0,0,0,0,-1,1378,1079,0,0
161,-55,0,0,0,0,0,0,0,0,0,-1,1385,1079,0,0
168,-55,0,0,0,0,0,0,0,0,0,-1,1392,1079,0,0
175,-55,0,0,0,0,0,0,0,0,0,-1,1399,1079,0,0
182,-55,0,0,0,0,0,0,0,0,0,-1,1406,1079,0,0
189,-55,0,0,0,0,0,0,0,0,0,-1,1413,1079,0,0
196,-55,0,0,0,0,0,0,0,0,0,-1,1420,1079,0,0
203,-55,0,0,0,0,0,0,0,0,0,-1,1427,1079,0,0
210,-55,0,0,0,0,0,0,0,0,0,-1,1434,1079,0,0
217,-55,0,0,0,0,0,0,0,0,0,-1,1441,1079,0,0
224,-55,0,0,0,0,0,0,0,0,0,-1,1448,1079,0,0
231,-55,0,0,0,0,0,0,0,0,0,-1,1455,1079,0,0
238,-55,0,0,0,0,0,0,0,0,0,-1,1462,1079,0,0
245,-55,0,0,0,0,0,0,0,0,0,-1,1469,1079,0,0
252,-55,0,0,0,0,0,0,0,0,0,-1,1476,1079,0,0
259,-55,0,0,0,0,0,0,0,0,0,-1,1483,1079,0,0
266,-55,0,0,0,0,0,0,0,0,0,-1,1490,1079,0,0
273,-55,0,0,0,0,0,0,0,0,0,-1,1497,1079,0,0
280,-55,0,0,0,0,0,0,0,0,0,-1,1504,1079,0,0
287,-55,0,0,0,0,0,0,0,0,0,-1,1511,1079,0,0
294,-55,0,0,0,0,0,0,0,0,0,-1,1518,1079,0,0
301,-55,0,0,0,0,0,0,0,0,0,-1,1525,1079,0,0
308,-55,0,0,0,0,0,0,0,0,0,-1,1532,1079,0,0
315,-55,0,0,0,0,0,0,0,0,0,-1,1539,1079,0,0
322,-55,0,0,0,0,0,0,0,0,0,-1,1546,1079,0,0
329,-55,0,0,0,0,0,0,0,0,0,-1,1553,1079,0,0
336,-55,0,0,0,0,0,0,0,0,0,-1,1560,1079,0,0
343,-55,0,0,0,0,0,0,0,0,0,-1,1567,1079,0,0
350,-55,0,0,0,0,0,0,0,0,0,-1,1574,1079,0,0
357,-55,0,0,0,0,0,0,0,0,0,-1,1581,1079,0,0
364,-55,0,0,0,0,0,0,0,0,0,-1,1588,1079,0,0
371,-55,0,0,0,0,0,0,0,0,0,-1,1595,1079,0,0
378,-55,0,0,0,0,0,0,0,0,0,-1,1602,1079,0,0
385,-55,0,0,0,0,0,0,0,0,0,-1,1609,1079,0,0
392,-55,0,0,0,0,0,0,0,0,0,-1,1616,1079,0,0
399,-55,0,0,0,0,0,0,0,0,0,-1,1623,1079,0,0
406,-55,0,0,0,0,0,0,0,0,0,-1,1630,1079,0,0
413,-55,0,0,0,0,0,0,0,0,0,-1,1637,1079,0,0
420,-55,0,0,0,0,0,0,0,0,0,-1,1644,1079,0,0
427,-55,0,0,0,0,0,0,0,0,0,-1,1651,1079,0,0
434,-55,0,0,0,0,0,0,0,0,0,-1,1658,1079,0,0
441,-55,0,0,0,0,0,0,0,0,0,-1,1665,1079,0,0
448,-55,0,0,0,0,0,0,0,0,0,-1,1672,1079,0,0
455,-55,0,0,0,0,0,0,0,0,0,-1,1679,1079,0,0
462,-55,0,0,0,0,0,0,0,0,0,-1,1686,1079,0,0
469,-55,0,0,0,0,0,0,0,0,0,-1,1693,1079,0,0
476,-55,0,0,0,0,0,0,0,0,0,-1,1700,1079,0,0
483,-55,0,0,0,0,0,0,0,0,0,-1,1707,1079,0,0
490,-55,0,0,0,0,0,0,0,0,0,-1,1714,1079,0,0
497,-55,0,0,0,0,0,0,0,0,0,-1,1721,1079,0,0
504,-55,0,0,0,0,0,0,0,0,0,-1,1728,1079,0,0
511,-55,0,0,0,0,0,0,0,0,0,-1,1735,1079,0,0
518,-55,0,0,0,0,0,0,0,0,0,-1,1742,1079,0,0
525,-55,0,0,0,0,0,0,0,0,0,-1,1749,1079,0,0
532,-55,0,0,0,0,0,0,0,0,0,-1,1756,1079,0,0
539,-55,0,0,0,0,0,0,0,0,0,-1,1763,1079,0,0
546,-55,0,0,0,0,0,0,0,0,0,-1,1770,1079,0,0
553,-55,0,0,0,0,0,0,0,0,0,-1,1777,1079,0,0
560,-55,0,0,0,0,0,0,0,0,0,-1,1784,1079,0,0
567,-55,0,0,0,0,0,0,0,0,0,-1,1791,1079,0,0
574,-55,0,0,0,0,0,0,0,0,0,-1,1798,1079,0,0
581,-55,0,0,0,0,0,0,0,0,0,-1,1805,1079,0,0
588,-55,0,0,0,0,0,0,0,0,0,-1,1812,1079,0,0
595,-55,0,0,0,0,0,0,0,0,0,-1,1819,1079,0,0
602,-55,0,0,0,0,0,0,0,0,0,-1,1826,1079,0,0
609,-55,0,0,0,0,0,0,0,0,0,-1,1833,1079,0,0
616,-55,0,0,0,0,0,0,0,0,0,-1,1840,1079,0,0
623,-55,0,0,0,0,0,0,0,0,0,-1,1847,1079,0,0
630,-55,0,0,0,0,0,0,0,0,0,-1,1854,1079,0,0
637,-55,0,0,0,0,0,0,0,0,0,-1,1861,1079,0,0
644,-55,0,0,0,0,0,0,0,0,0,-1,1868,1079,0,0
651,-55,228.029,8.76709,0,0,0,0,0,0,0,-1,1875,1079,228.029,-8.76708
658,-55,228.222,8.75989,0,0,0,0,0,0,0,-1,1882,1079,228.222,-8.75993
665,-55,228.163,8.71338,0,0,0,0,0,0,0,-1,1889,1079,228.163,-8.71338
672,-55,228.066,8.81958,0,0,0,0,0,0,0,-1,1896,1079,228.066,-8.81962
679,-55,227.977,8.73572,0,0,0,0,0,0,0,-1,1903,1079,227.977,-8.73569
686,-55,227.981,8.57861,0,0,0,0,0,0,0,-1,1910,1079,227.981,-8.57862
693,-55,228.035,8.67773,0,0,0,0,0,0,0,-1,1917,1079,228.035,-8.67774
700,-55,228.138,8.90161,0,0,0,0,0,0,0,-1,1924,1079,228.138,-8.90158
707,-55,228.218,8.7616,0,0,0,0,0,0,0,-1,1931,1079,228.218,-8.76162
714,-55,228.155,8.60461,0,0,0,0,0,0,0,-1,1938,1079,228.155,-8.60466
721,-55,227.903,8.61694,0,0,0,0,0,0,0,-1,1945,1079,227.903,-8.6169
728,-55,232.284,32.5934,0,0,0,0,0,0,0,-1,1952,1079,232.284,-32.5934
735,-55,232.067,32.4292,-0.0115653,-0.00409078,0.00323762,-0.00288342,-0.0127727,1.21385,0.00773524,0.0306259,1959,1079,232.067,-32.4292
742,-55,232.02,32.2938,-0.0138877,0.00466713,0.00314434,0.0051855,-0.014406,1.40741,0.0117213,0.0299521,1966,1079,232.02,-32.2938
749,-55,232.014,32.0812,-0.0163225,0.0133954,0.00321459,0.0137391,-0.0166663,1.46427,0.0175817,0.0247756,1973,1079,232.014,-32.0811
756,-55,231.804,31.8834,-0.0188079,0.0221049,0.00343548,0.0223913,-0.0190944,1.4876,0.023977,0.0223234,1980,1079,231.804,-31.8834
763,-55,231.708,31.7382,-0.0212742,0.0308071,0.00379291,0.0310819,-0.021549,1.49848,0.0305521,0.0218438,1987,1079,231.708,-31.7382
770,-55,231.535,31.5795,-0.0236437,0.0395145,0.00427128,0.0398021,-0.0239313,1.50358,0.0371748,0.0268912,1994,1079,231.535,-31.5795
777,-55,231.34,31.4711,-0.0258298,0.0482413,0.00485318,0.0485579,-0.0261464,1.50565,0.0437728,0.024435,2001,1079,231.34,-31.471
784,-55,231.294,31.5023,-0.027737,0.0570039,0.00551909,0.0573618,-0.0280949,1.50603,0.0502937,0.0412509,2008,1079,231.294,-31.5024
791,-55,231.311,31.5514,0,0,0,0,0,0,0,-1,2015,1079,231.311,-31.5514
798,-55,227.13,30.9592,0,0,0,0,0,0,0,-1,2022,1079,227.13,-30.9592
805,-55,144.886,17.7817,0,0,0,0,0,0,0,-1,2029,1079,144.886,-17.7818
812,-55,144.398,16.9786,0,0,0,0,0,0,0,-1,2036,1079,144.398,-16.9786
-700,-62,-85.9905,-1.22083,0,0,0,0,0,0,0,-1,524,1086,-85.9906,1.22079
-693,-62,-86.1433,0.277466,0,0,0,0,0,0,0,-1,531,1086,-86.1434,-0.277479
-686,-62,-88.9893,5.4032,0,0,0,0,0,0,0,-1,538,1086,-88.9893,-5.40321
-679,-62,-85.3067,3.15723,0,0,0,0,0,0,0,-1,545,1086,-85.3067,-3.15717
-672,-62,-84.727,4.49841,0,0,0,0,0,0,0,-1,552,1086,-84.727,-4.4984
-665,-62,-84.3833,2.66711,0,0,0,0,0,0,0,-1,559,1086,-84.3833,-2.66709
-658,-62,-84.1052,2.85754,0,0,0,0,0,0,0,-1,566,1086,-84.1052,-2.8576
-651,-62,-223.966,29.7725,0,0,0,0,0,0,0,-1,573,1086,-223.966,-29.7725
-644,-62,-224.132,30.5197,-0.0176089,0.0510448,-0.00101591,0.0510598,-0.0176239,-1.556,0.0411911,0.0495971,580,1086,-224.132,-30.5197
-637,-62,-224.22,30.8704,-0.0145653,0.0436265,-0.0002757,0.0436278,-0.0145666,-1.56606,0.0349671,0.0233975,587,1086,-224.22,-30.8703
-630,-62,-224.317,31.0739,-0.0113528,0.0360965,0.000340976,0.0360989,-0.0113553,1.56361,0.0286123,0.0216745,594,1086,-224.317,-31.0738
-623,-62,-224.425,31.3591,-0.00798342,0.02847,0.000828653,0.0284888,-0.00800225,1.54808,0.0221472,0.0241548,601,1086,-224.425,-31.3592
-616,-62,-224.674,31.552,0,0,0,0,0,0,0,-1,608,1086,-224.674,-31.552
-609,-62,-224.433,31.7809,-0.000812972,0.0129889,0.00139966,0.0131294,-0.000953482,1.47074,0.00908744,0.0261758,615,1086,-224.433,-31.7809
-602,-62,-224.336,31.9275,0.00297347,0.00516617,0.00147665,0.00590897,0.00223067,1.10473,0.0034455,0.0227904,622,1086,-224.336,-31.9275
-595,-62,-224.167,32.2201,0.00688821,-0.00268888,0.00141226,0.00709212,-0.00289279,0.143397,0.0059323,0.0466266,629,1086,-224.167,-32.2201
-588,-62,-224,32.4752,0,0,0,0,0,0,0,-1,636,1086,-224,-32.4752
-581,-62,-72.1781,0.615723,0,0,0,0,0,0,0,-1,643,1086,-72.1781,-0.615709
-574,-62,-72.2164,0.539185,0,0,0,0,0,0,0,-1,650,1086,-72.2164,-0.539192
-567,-62,-72.2147,0.359985,0,0,0,0,0,0,0,-1,657,1086,-72.2147,-0.360028
-560,-62,-72.1146,0.307617,0,0,0,0,0,0,0,-1,664,1086,-72.1146,-0.307569
-553,-62,-72.0814,0.354126,0,0,0,0,0,0,0,-1,671,1086,-72.0814,-0.354185
-546,-62,-72.1473,0.42334,0,0,0,0,0,0,0,-1,678,1086,-72.1473,-0.423366
-539,-62,-72.1967,0.42981,0,0,0,0,0,0,0,-1,685,1086,-72.1967,-0.429812
-532,-62,-72.1149,0.448608,0,0,0,0,0,0,0,-1,692,1086,-72.1149,-0.448575
-525,-62,0,0,0,0,0,0,0,0,0,-1,699,1086,0,0
-518,-62,0,0,0,0,0,0,0,0,0,-1,706,1086,0,0
-511,-62,0,0,0,0,0,0,0,0,0,-1,713,1086,0,0
-504,-62,0,0,0,0,0,0,0,0,0,-1,720,1086,0,0
-497,-62,0,0,0,0,0,0,0,0,0,-1,727,1086,0,0
-490,-62,0,0,0,0,0,0,0,0,0,-1,734,1086,0,0
-483,-62,0,0,0,0,0,0,0,0,0,-1,741,1086,0,0
-476,-62,0,0,0,0,0,0,0,0,0,-1,748,1086,0,0
-469,-62,0,0,0,0,0,0,0,0,0,-1,755,1086,0,0
-462,-62,0,0,0,0,0,0,0,0,0,-1,762,1086,0,0
-455,-62,0,0,0,0,0,0,0,0,0,-1,769,1086,0,0
-448,-62,0,0,0,0,0,0,0,0,0,-1,776,1086,0,0
-441,-62,0,0,0,0,0,0,0,0,0,-1,783,1086,0,0
-434,-62,0,0,0,0,0,0,0,0,0,-1,790,1086,0,0
-427,-62,0,0,0,0,0,0,0,0,0,-1,797,1086,0,0
-420,-62,0,0,0,0,0,0,0,0,0,-1,804,1086,0,0
-413,-62,0,0,0,0,0,0,0,0,0,-1,811,1086,0,0
-406,-62,0,0,0,0,0,0,0,0,0,-1,818,1086,0,0
-399,-62,0,0,0,0,0,0,0,0,0,-1,825,1086,0,0
-392,-62,0,0,0,0,0,0,0,0,0,-1,832,1086,0,0
-385,-62,0,0,0,0,0,0,0,0,0,-1,839,1086,0,0
-378,-62,0,0,0,0,0,0,0,0,0,-1,846,1086,0,0
-371,-62,0,0,0,0,0,0,0,0,0,-1,853,1086,0,0
-364,-62,0,0,0,0,0,0,0,0,0,-1,860,1086,0,0
-357,-62,0,0,0,0,0,0,0,0,0,-1,867,1086,0,0
-350,-62,0,0,0,0,0,0,0,0,0,-1,874,1086,0,0
-343,-62,0,0,0,0,0,0,0,0,0,-1,881,1086,0,0
-336,-62,0,0,0,0,0,0,0,0,0,-1,888,1086,0,0
-329,-62,0,0,0,0,0,0,0,0,0,-1,895,1086,0,0
-322,-62,0,0,0,0,0,0,0,0,0,-1,902,1086,0,0
-315,-62,0,0,0,0,0,0,0,0,0,-1,909,1086,0,0
-308,-62,0,0,0,0,0,0,0,0,0,-1,916,1086,0,0
-301,-62,0,0,0,0,0,0,0,0,0,-1,923,1086,0,0
-294,-62,0,0,0,0,0,0,0,0,0,-1,930,1086,0,0
-287,-62,0,0,0,0,0,0,0,0,0,-1,937,1086,0,0
-280,-62,0,0,0,0,0,0,0,0,0,-1,944,1086,0,0
-273,-62,0,0,0,0,0,0,0,0,0,-1,951,1086,0,0
-266,-62,0,0,0,0,0,0,0,0,0,-1,958,1086,0,0
-259,-62,0,0,0,0,0,0,0,0,0,-1,965,1086,0,0
-252,-62,0,0,0,0,0,0,0,0,0,-1,972,1086,0,0
-245,-62,0,0,0,0,0,0,0,0,0,-1,979,1086,0,0
-238,-62,0,0,0,0,0,0,0,0,0,-1,986,1086,0,0
-231,-62,0,0,0,0,0,0,0,0,0,-1,993,1086,0,0
-224,-62,0,0,0,0,0,0,0,0,0,-1,1000,1086,0,0
-217,-62,0,0,0,0,0,0,0,0,0,-1,1007,1086,0,0
-210,-62,0,0,0,0,0,0,0,0,0,-1,1014,1086,0,0
-203,-62,0,0,0,0,0,0,0,0,0,-1,1021,1086,0,0
-196,-62,0,0,0,0,0,0,0,0,0,-1,1028,1086,0,0
-189,-62,0,0,0,0,0,0,0,0,0,-1,1035,1086,0,0
-182,-62,0,0,0,0,0,0,0,0,0,-1,1042,1086,0,0
-175,-62,0,0,0,0,0,0,0,0,0,-1,1049,1086,0,0
-168,-62,0,0,0,0,0,0,0,0,0,-1,1056,1086,0,0
-161,-62,0,0,0,0,0,0,0,0,0,-1,1063,1086,0,0
-154,-62,0,0,0,0,0,0,0,0,0,-1,1070,1086,0,0
-147,-62,0,0,0,0,0,0,0,0,0,-1,1077,1086,0,0
-140,-62,0,0,0,0,0,0,0,0,0,-1,1084,1086,0,0
-133,-62,0,0,0,0,0,0,0,0,0,-1,1091,1086,0,0
-126,-62,0,0,0,0,0,0,0,0,0,-1,1098,1086,0,0
-119,-62,0,0,0,0,0,0,0,0,0,-1,1105,1086,0,0
-112,-62,0,0,0,0,0,0,0,0,0,-1,1112,1086,0,0
-105,-62,0,0,0,0,0,0,0,0,0,-1,1119,1086,0,0
-98,-62,0,0,0,0,0,0,0,0,0,-1,1126,1086,0,0
-91,-62,0,0,0,0,0,0,0,0,0,-1,1133,1086,0,0
-84,-62,0,0,0,0,0,0,0,0,0,-1,1140,1086,0,0
-77,-62,0,0,0,0,0,0,0,0,0,-1,1147,1086,0,0
-70,-62,0,0,0,0,0,0,0,0,0,-1,1154,1086,0,0
-63,-62,0,0,0,0,0,0,0,0,0,-1,1161,1086,0,0
-56,-62,0,0,0,0,0,0,0,0,0,-1,1168,1086,0,0
-49,-62,0,0,0,0,0,0,0,0,0,-1,1175,1086,0,0
-42,-62,0,0,0,0,0,0,0,0,0,-1,1182,1086,0,0
-35,-62,0,0,0,0,0,0,0,0,0,-1,1189,1086,0,0
-28,-62,0,0,0,0,0,0,0,0,0,-1,1196,1086,0,0
-21,-62,0,0,0,0,0,0,0,0,0,-1,1203,1086,0,0
-14,-62,0,0,0,0,0,0,0,0,0,-1,1210,1086,0,0
-7,-62,0,0,0,0,0,0,0,0,0,-1,1217,1086,0,0
0,-62,0,0,0,0,0,0,0,0,0,-1,1224,1086,0,0
7,-62,0,0,0,0,0,0,0,0,0,-1,1231,1086,0,0
14,-62,0,0,0,0,0,0,0,0,0,-1,1238,1086,0,0
21,-62,0,0,0,0,0,0,0,0,0,-1,1245,1086,0,0
28,-62,0,0,0,0,0,0,0,0,0,-1,1252,1086,0,0
35,-62,0,0,0,0,0,0,0,0,0,-1,1259,1086,0,0
42,-62,0,0,0,0,0,0,0,0,0,-1,1266,1086,0,0
49,-62,0,0,0,0,0,0,0,0,0,-1,1273,1086,0,0
56,-62,0,0,0,0,0,0,0,0,0,-1,1280,1086,0,0
63,-62,0,0,0,0,0,0,0,0,0,-1,1287,1086,0,0
70,-62,0,0,0,0,0,0,0,0,0,-1,1294,1086,0,0
77,-62,0,0,0,0,0,0,0,0,0,-1,1301,1086,0,0
84,-62,0,0,0,0,0,0,0,0,0,-1,1308,1086,0,0
91,-62,0,0,0,0,0,0,0,0,0,-1,1315,1086,0,0
98,-62,0,0,0,0,0,0,0,0,0,-1,1322,1086,0,0
105,-62,0,0,0,0,0,0,0,0,0,-1,1329,1086,0,0
112,-62,0,0,0,0,0,0,0,0,0,-1,1336,1086,0,0
119,-62,0,0,0,0,0,0,0,0,0,-1,1343,1086,0,0
126,-62,0,0,0,0,0,0,0,0,0,-1,1350,1086,0,0
133,-62,0,0,0,0,0,0,0,0,0,-1,1357,1086,0,0
140,-62,0,0,0,0,0,0,0,0,0,-1,1364,1086,0,0
147,-62,0,0,0,0,0,0,0,0,0,-1,1371,1086,0,0
154,-62,0,0,0,0,0,0,0,0,0,-1,1378,1086,0,0
161,-62,0,0,0,0,0,0,0,0,0,-1,1385,1086,0,0
168,-62,0,0,0,0,0,0,0,0,0,-1,1392,1086,0,0
175,-62,0,0,0,0,0,0,0,0,0,-1,1399,1086,0,0
182,-62,0,0,0,0,0,0,0,0,0,-1,1406,1086,0,0
189,-62,0,0,0,0,0,0,0,0,0,-1,1413,1086,0,0
196,-62,0,0,0,0,0,0,0,0,0,-1,1420,1086,0,0
203,-62,0,0,0,0,0,0,0,0,0,-1,1427,1086,0,0
210,-62,0,0,0,0,0,0,0,0,0,-1,1434,1086,0,0
217,-62,0,0,0,0,0,0,0,0,0,-1,1441,1086,0,0
224,-62,0,0,0,0,0,0,0,0,0,-1,1448,1086,0,0
231,-62,0,0,0,0,0,0,0,0,0,-1,1455,1086,0,0
238,-62,0,0,0,0,0,0,0,0,0,-1,1462,1086,0,0
245,-62,0,0,0,0,0,0,0,0,0,-1,1469,1086,0,0
252,-62,0,0,0,0,0,0,0,0,0,-1,1476,1086,0,0
259,-62,0,0,0,0,0,0,0,0,0,-1,1483,1086,0,0
266,-62,0,0,0,0,0,0,0,0,0,-1,1490,1086,0,0
273,-62,0,0,0,0,0,0,0,0,0,-1,1497,1086,0,0
280,-62,0,0,0,0,0,0,0,0,0,-1,1504,1086,0,0
287,-62,0,0,0,0,0,0,0,0,0,-1,1511,1086,0,0
294,-62,0,0,0,0,0,0,0,0,0,-1,1518,1086,0,0
301,-62,0,0,0,0,0,0,0,0,0,-1,1525,1086,0,0
308,-62,0,0,0,0,0,0,0,0,0,-1,1532,1086,0,0
315,-62,0,0,0,0,0,0,0,0,0,-1,1539,1086,0,0
322,-62,0,0,0,0,0,0,0,0,0,-1,1546,1086,0,0
329,-62,0,0,0,0,0,0,0,0,0,-1,1553,1086,0,0
336,-62,0,0,0,0,0,0,0,0,0,-1,1560,1086,0,0
343,-62,0,0,0,0,0,0,0,0,0,-1,1567,1086,0,0
350,-62,0,0,0,0,0,0,0,0,0,-1,1574,1086,0,0
357,-62,0,0,0,0,0,0,0,0,0,-1,1581,1086,0,0
364,-62,0,0,0,0,0,0,0,0,0,-1,1588,1086,0,0
371,-62,0,0,0,0,0,0,0,0,0,-1,1595,1086,0,0
378,-62,0,0,0,0,0,0,0,0,0,-1,1602,1086,0,0
385,-62,0,0,0,0,0,0,0,0,0,-1,1609,1086,0,0
392,-62,0,0,0,0,0,0,0,0,0,-1,1616,1086,0,0
399,-62,0,0,0,0,0,0,0,0,0,-1,1623,1086,0,0
406,-62,0,0,0,0,0,0,0,0,0,-1,1630,1086,0,0
413,-62,0,0,0,0,0,0,0,0,0,-1,1637,1086,0,0
420,-62,0,0,0,0,0,0,0,0,0,-1,1644,1086,0,0
427,-62,0,0,0,0,0,0,0,0,0,-1,1651,1086,0,0
434,-62,0,0,0,0,0,0,0,0,0,-1,1658,1086,0,0
441,-62,0,0,0,0,0,0,0,0,0,-1,1665,1086,0,0
448,-62,0,0,0,0,0,0,0,0,0,-1,1672,1086,0,0
455,-62,0,0,0,0,0,0,0,0,0,-1,1679,1086,0,0
462,-62,0,0,0,0,0,0,0,0,0,-1,1686,1086,0,0
469,-62,0,0,0,0,0,0,0,0,0,-1,1693,1086,0,0
476,-62,0,0,0,0,0,0,0,0,0,-1,1700,1086,0,0
483,-62,0,0,0,0,0,0,0,0,0,-1,1707,1086,0,0
490,-62,0,0,0,0,0,0,0,0,0,-1,1714,1086,0,0
497,-62,0,0,0,0,0,0,0,0,0,-1,1721,1086,0,0
504,-62,0,0,0,0,0,0,0,0,0,-1,1728,1086,0,0
511,-62,0,0,0,0,0,0,0,0,0,-1,1735,1086,0,0
518,-62,0,0,0,0,0,0,0,0,0,-1,1742,1086,0,0
525,-62,0,0,0,0,0,0,0,0,0,-1,1749,1086,0,0
532,-62,0,0,0,0,0,0,0,0,0,-1,1756,1086,0,0
539,-62,0,0,0,0,0,0,0,0,0,-1,1763,1086,0,0
546,-62,0,0,0,0,0,0,0,0,0,-1,1770,1086,0,0
553,-62,0,0,0,0,0,0,0,0,0,-1,1777,1086,0,0
560,-62,0,0,0,0,0,0,0,0,0,-1,1784,1086,0,0
567,-62,0,0,0,0,0,0,0,0,0,-1,1791,1086,0,0
574,-62,0,0,0,0,0,0,0,0,0,-1,1798,1086,0,0
581,-62,0,0,0,0,0,0,0,0,0,-1,1805,1086,0,0
588,-62,0,0,0,0,0,0,0,0,0,-1,1812,1086,0,0
595,-62,0,0,0,0,0,0,0,0,0,-1,1819,1086,0,0
602,-62,0,0,0,0,0,0,0,0,0,-1,1826,1086,0,0
609,-62,0,0,0,0,0,0,0,0,0,-1,1833,1086,0,0
616,-62,0,0,0,0,0,0,0,0,0,-1,1840,1086,0,0
623,-62,0,0,0,0,0,0,0,0,0,-1,1847,1086,0,0
630,-62,0,0,0,0,0,0,0,0,0,-1,1854,1086,0,0
637,-62,0,0,0,0,0,0,0,0,0,-1,1861,1086,0,0
644,-62,0,0,0,0,0,0,0,0,0,-1,1868,1086,0,0
651,-62,227.94,8.69434,0,0,0,0,0,0,0,-1,1875,1086,227.94,-8.69438
658,-62,228.071,8.84985,0,0,0,0,0,0,0,-1,1882,1086,228.071,-8.84989
665,-62,228.062,8.91211,0,0,0,0,0,0,0,-1,1889,1086,228.062,-8.91211
672,-62,227.988,8.84302,0,0,0,0,0,0,0,-1,1896,1086,227.988,-8.84307
679,-62,227.886,8.69312,0,0,0,0,0,0,0,-1,1903,1086,227.886,-8.69309
686,-62,228.038,8.49878,0,0,0,0,0,0,0,-1,1910,1086,228.038,-8.49882
693,-62,228.049,8.64111,0,0,0,0,0,0,0,-1,1917,1086,228.049,-8.64114
700,-62,228.168,8.81848,0,0,0,0,0,0,0,-1,1924,1086,228.169,-8.81852
707,-62,228.182,8.60449,0,0,0,0,0,0,0,-1,1931,1086,228.182,-8.60444
714,-62,228.032,8.54944,0,0,0,0,0,0,0,-1,1938,1086,228.032,-8.54949
721,-62,227.799,8.56213,0,0,0,0,0,0,0,-1,1945,1086,227.799,-8.56216
728,-62,232.002,32.7758,0,0,0,0,0,0,0,-1,1952,1086,232.003,-32.7758
735,-62,231.87,32.3342,-0.01018,-0.00448298,0.00363857,-0.00271054,-0.0119525,1.1175,0.00723605,0.039763,1959,1086,231.87,-32.3343
742,-62,231.849,32.2456,-0.0128905,0.0045197,0.00341207,0.00516452,-0.0135353,1.38402,0.0111511,0.0434521,1966,1086,231.849,-32.2457
749,-62,231.821,32.0945,-0.0157522,0.013495,0.00334873,0.0138735,-0.0161307,1.45824,0.0173393,0.033583,1973,1086,231.821,-32.0945
756,-62,231.62,31.7872,-0.0186947,0.0224504,0.00343352,0.0227349,-0.0189793,1.48811,0.0241162,0.0217118,1980,1086,231.62,-31.7872
763,-62,231.449,31.5389,-0.0216415,0.0313976,0.00364983,0.0316475,-0.0218914,1.50241,0.0310813,0.0261317,1987,1086,231.449,-31.5389
770,-62,231.303,31.3199,-0.0245091,0.0403524,0.00397936,0.0405957,-0.0247523,1.50975,0.0380965,0.0262255,1994,1086,231.303,-31.32
777,-62,231.019,31.022,-0.0272066,0.049335,0.00440212,0.0495874,-0.027459,1.51354,0.0450902,0.0283402,2001,1086,231.019,-31.0219
784,-62,231.028,30.8381,-0.0296119,0.0583782,0.00491687,0.0586521,-0.0298858,1.51515,0.052009,0.0436009,2008,1086,231.028,-30.8381
791,-62,231.179,30.868,0,0,0,0,0,0,0,-1,2015,1086,231.179,-30.868
798,-62,145.367,17.0892,0,0,0,0,0,0,0,-1,2022,1086,145.367,-17.0892
805,-62,143.891,17.6748,0,0,0,0,0,0,0,-1,2029,1086,143.891,-17.6749
812,-62,143.176,17.629,0,0,0,0,0,0,0,-1,2036,1086,143.175,-17.629
-700,-69,-84.8301,-0.922119,0,0,0,0,0,0,0,-1,524,1093,-84.8301,0.922103
-693,-69,-85.0201,0.548096,0,0,0,0,0,0,0,-1,531,1093,-85.0201,-0.548078
-686,-69,-85.1974,2.0426,0,0,0,0,0,0,0,-1,538,1093,-85.1974,-2.04259
-679,-69,-85.5246,3.56934,0,0,0,0,0,0,0,-1,545,1093,-85.5246,-3.56928
-672,-69,-83.949,2.89832,0,0,0,0,0,0,0,-1,552,1093,-83.949,-2.89829
-665,-69,-83.4005,3.32349,0,0,0,0,0,0,0,-1,559,1093,-83.4005,-3.32348
-658,-69,-82.7957,3.74512,0,0,0,0,0,0,0,-1,566,1093,-82.7957,-3.74516
-651,-69,-91.5511,10.6301,0,0,0,0,0,0,0,-1,573,1093,-91.5511,-10.6301
-644,-69,-223.908,30.3407,0,0,0,0,0,0,0,-1,580,1093,-223.907,-30.3407
-637,-69,-223.87,30.6442,-0.0147611,0.0428095,-0.00144964,0.042846,-0.0147976,-1.54564,0.0345689,0.0301385,587,1093,-223.87,-30.6441
-630,-69,-224.011,30.8964,-0.0117297,0.0357103,-0.00056918,0.0357171,-0.0117366,-1.5588,0.0285397,0.0222003,594,1093,-224.011,-30.8964
-623,-69,-223.998,31.0801,-0.00852861,0.0284861,0.000178745,0.028487,-0.00852947,1.56597,0.0223829,0.0280462,601,1093,-223.998,-31.08
-616,-69,-224.085,31.3212,-0.00517246,0.0211604,0.000789048,0.0211841,-0.00519608,1.54087,0.0161361,0.0352459,608,1093,-224.085,-31.3212
-609,-69,-224.237,31.6427,-0.00167383,0.0137567,0.00125754,0.0138585,-0.00177564,1.49001,0.00988419,0.0307433,615,1093,-224.238,-31.6427
-602,-69,-224.187,31.9008,0.0019571,0.00629845,0.00158087,0.0068131,0.00144245,1.25607,0.00414576,0.0283931,622,1093,-224.187,-31.9008
-595,-69,-224.119,32.119,0.00571258,-0.00118996,0.0017567,0.00613394,-0.00161132,0.235411,0.004719,0.0438563,629,1093,-224.119,-32.1191
-588,-69,-224.187,32.3873,0,0,0,0,0,0,0,-1,636,1093,-224.187,-32.3873
-581,-69,-72.1123,0.543701,0,0,0,0,0,0,0,-1,643,1093,-72.1123,-0.543654
-574,-69,-72.1184,0.475464,0,0,0,0,0,0,0,-1,650,1093,-72.1184,-0.475443
-567,-69,-72.0325,0.365845,0,0,0,0,0,0,0,-1,657,1093,-72.0325,-0.365815
-560,-69,-72.1545,0.69043,0,0,0,0,0,0,0,-1,664,1093,-72.1545,-0.690484
-553,-69,-72.1738,0.429199,0,0,0,0,0,0,0,-1,671,1093,-72.1738,-0.429245
-546,-69,-72.1447,0.32312,0,0,0,0,0,0,0,-1,678,1093,-72.1447,-0.323069
-539,-69,-72.1819,0.331909,0,0,0,0,0,0,0,-1,685,1093,-72.1819,-0.331935
-532,-69,-72.0621,0.311523,0,0,0,0,0,0,0,-1,692,1093,-72.0621,-0.31155
-525,-69,0,0,0,0,0,0,0,0,0,-1,699,1093,0,0
-518,-69,0,0,0,0,0,0,0,0,0,-1,706,1093,0,0
-511,-69,0,0,0,0,0,0,0,0,0,-1,713,1093,0,0
-504,-69,0,0,0,0,0,0,0,0,0,-1,720,1093,0,0
-497,-69,0,0,0,0,0,0,0,0,0,-1,727,1093,0,0
-490,-69,0,0,0,0,0,0,0,0,0,-1,734,1093,0,0
-483,-69,0,0,0,0,0,0,0,0,0,-1,741,1093,0,0
-476,-69,0,0,0,0,0,0,0,0,0,-1,748,1093,0,0
-469,-69,0,0,0,0,0,0,0,0,0,-1,755,1093,0,0
-462,-69,0,0,0,0,0,0,0,0,0,-1,762,1093,0,0
-455,-69,0,0,0,0,0,0,0,0,0,-1,769,1093,0,0
-448,-69,0,0,0,0,0,0,0,0,0,-1,776,1093,0,0
-441,-69,0,0,0,0,0,0,0,0,0,-1,783,1093,0,0
-434,-69,0,0,0,0,0,0,0,0,0,-1,790,1093,0,0
-427,-69,0,0,0,0,0,0,0,0,0,-1,797,1093,0,0
-420,-69,0,0,0,0,0,0,0,0,0,-1,804,1093,0,0
-413,-69,0,0,0,0,0,0,0,0,0,-1,811,1093,0,0
-406,-69,0,0,0,0,0,0,0,0,0,-1,818,1093,0,0
-399,-69,0,0,0,0,0,0,0,0,0,-1,825,1093,0,0
-392,-69,0,0,0,0,0,0,0,0,0,-1,832,1093,0,0
-385,-69,0,0,0,0,0,0,0,0,0,-1,839,1093,0,0
-378,-69,0,0,0,0,0,0,0,0,0,-1,846,1093,0,0
-371,-69,0,0,0,0,0,0,0,0,0,-1,853,1093,0,0
-364,-69,0,0,0,0,0,0,0,0,0,-1,860,1093,0,0
-357,-69,0,0,0,0,0,0,0,0,0,-1,867,1093,0,0
-350,-69,0,0,0,0,0,0,0,0,0,-1,874,1093,0,0
-343,-69,0,0,0,0,0,0,0,0,0,-1,881,1093,0,0
-336,-69,0,0,0,0,0,0,0,0,0,-1,888,1093,0,0
-329,-69,0,0,0,0,0,0,0,0,0,-1,895,1093,0,0
-322,-69,0,0,0,0,0,0,0,0,0,-1,902,1093,0,0
-315,-69,0,0,0,0,0,0,0,0,0,-1,909,1093,0,0
-308,-69,0,0,0,0,0,0,0,0,0,-1,916,1093,0,0
-301,-69,0,0,0,0,0,0,0,0,0,-1,923,1093,0,0
-294,-69,0,0,0,0,0,0,0,0,0,-1,930,1093,0,0
-287,-69,0,0,0,0,0,0,0,0,0,-1,937,1093,0,0
-280,-69,0,0,0,0,0,0,0,0,0,-1,944,1093,0,0
-273,-69,0,0,0,0,0,0,0,0,0,-1,951,1093,0,0
-266,-69,0,0,0,0,0,0,0,0,0,-1,958,1093,0,0
-259,-69,0,0,0,0,0,0,0,0,0,-1,965,1093,0,0
-252,-69,0,0,0,0,0,0,0,0,0,-1,972,1093,0,0
-245,-69,0,0,0,0,0,0,0,0,0,-1,979,1093,0,0
-238,-69,0,0,0,0,0,0,0,0,0,-1,986,1093,0,0
-231,-69,0,0,0,0,0,0,0,0,0,-1,993,1093,0,0
-224,-69,0,0,0,0,0,0,0,0,0,-1,1000,1093,0,0
-217,-69,0,0,0,0,0,0,0,0,0,-1,1007,1093,0,0
-210,-69,0,0,0,0,0,0,0,0,0,-1,1014,1093,0,0
-203,-69,0,0,0,0,0,0,0,0,0,-1,1021,1093,0,0
-196,-69,0,0,0,0,0,0,0,0,0,-1,1028,1093,0,0
-189,-69,0,0,0,0,0,0,0,0,0,-1,1035,1093,0,0
-182,-69,0,0,0,0,0,0,0,0,0,-1,1042,1093,0,0
-175,-69,0,0,0,0,0,0,0,0,0,-1,1049,1093,0,0
-168,-69,0,0,0,0,0,0,0,0,0,-1,1056,1093,0,0
-161,-69,0,0,0,0,0,0,0,0,0,-1,1063,1093,0,0
-154,-69,0,0,0,0,0,0,0,0,0,-1,1070,1093,0,0
-147,-69,0,0,0,0,0,0,0,0,0,-1,1077,1093,0,0
-140,-69,0,0,0,0,0,0,0,0,0,-1,1084,1093,0,0
-133,-69,0,0,0,0,0,0,0,0,0,-1,1091,1093,0,0
-126,-69,0,0,0,0,0,0,0,0,0,-1,1098,1093,0,0
-119,-69,0,0,0,0,0,0,0,0,0,-1,1105,1093,0,0
-112,-69,0,0,0,0,0,0,0,0,0,-1,1112,1093,0,0
-105,-69,0,0,0,0,0,0,0,0,0,-1,1119,1093,0,0
-98,-69,0,0,0,0,0,0,0,0,0,-1,1126,1093,0,0
-91,-69,0,0,0,0,0,0,0,0,0,-1,1133,1093,0,0
-84,-69,0,0,0,0,0,0,0,0,0,-1,1140,1093,0,0
-77,-69,0,0,0,0,0,0,0,0,0,-1,1147,1093,0,0
-70,-69,0,0,0,0,0,0,0,0,0,-1,1154,1093,0,0
-63,-69,0,0,0,0,0,0,0,0,0,-1,1161,1093,0,0
-56,-69,0,0,0,0,0,0,0,0,0,-1,1168,1093,0,0
-49,-69,0,0,0,0,0,0,0,0,0,-1,1175,1093,0,0
-42,-69,0,0,0,0,0,0,0,0,0,-1,1182,1093,0,0
-35,-69,0,0,0,0,0,0,0,0,0,-1,1189,1093,0,0
-28,-69,0,0,0,0,0,0,0,0,0,-1,1196,1093,0,0
-21,-69,0,0,0,0,0,0,0,0,0,-1,1203,1093,0,0
-14,-69,0,0,0,0,0,0,0,0,0,-1,1210,1093,0,0
-7,-69,0,0,0,0,0,0,0,0,0,-1,1217,1093,0,0
0,-69,0,0,0,0,0,0,0,0,0,-1,1224,1093,0,0
7,-69,0,0,0,0,0,0,0,0,0,-1,1231,1093,0,0
14,-69,0,0,0,0,0,0,0,0,0,-1,1238,1093,0,0
21,-69,0,0,0,0,0,0,0,0,0,-1,1245,1093,0,0
28,-69,0,0,0,0,0,0,0,0,0,-1,1252,1093,0,0
35,-69,0,0,0,0,0,0,0,0,0,-1,1259,1093,0,0
42,-69,0,0,0,0,0,0,0,0,0,-1,1266,1093,0,0
49,-69,0,0,0,0,0,0,0,0,0,-1,1273,1093,0,0
56,-69,0,0,0,0,0,0,0,0,0,-1,1280,1093,0,0
63,-69,0,0,0,0,0,0,0,0,0,-1,1287,1093,0,0
70,-69,0,0,0,0,0,0,0,0,0,-1,1294,1093,0,0
77,-69,0,0,0,0,0,0,0,0,0,-1,1301,1093,0,0
84,-69,0,0,0,0,0,0,0,0,0,-1,1308,1093,0,0
91,-69,0,0,0,0,0,0,0,0,0,-1,1315,1093,0,0
98,-69,0,0,0,0,0,0,0,0,0,-1,1322,1093,0,0
105,-69,0,0,0,0,0,0,0,0,0,-1,1329,1093,0,0
112,-69,0,0,0,0,0,0,0,0,0,-1,1336,1093,0,0
119,-69,0,0,0,0,0,0,0,0,0,-1,1343,1093,0,0
126,-69,0,0,0,0,0,0,0,0,0,-1,1350,1093,0,0
133,-69,0,0,0,0,0,0,0,0,0,-1,1357,1093,0,0
140,-69,0,0,0,0,0,0,0,0,0,-1,1364,1093,0,0
147,-69,0,0,0,0,0,0,0,0,0,-1,1371,1093,0,0
154,-69,0,0,0,0,0,0,0,0,0,-1,1378,1093,0,0
161,-69,0,0,0,0,0,0,0,0,0,-1,1385,1093,0,0
168,-69,0,0,0,0,0,0,0,0,0,-1,1392,1093,0,0
175,-69,0,0,0,0,0,0,0,0,0,-1,1399,1093,0,0
182,-69,0,0,0,0,0,0,0,0,0,-1,1406,1093,0,0
189,-69,0,0,0,0,0,0,0,0,0,-1,1413,1093,0,0
196,-69,0,0,0,0,0,0,0,0,0,-1,1420,1093,0,0
203,-69,0,0,0,0,0,0,0,0,0,-1,1427,1093,0,0
210,-69,0,0,0,0,0,0,0,0,0,-1,1434,1093,0,0
217,-69,0,0,0,0,0,0,0,0,0,-1,1441,1093,0,0
224,-69,0,0,0,0,0,0,0,0,0,-1,1448,1093,0,0
231,-69,0,0,0,0,0,0,0,0,0,-1,1455,1093,0,0
238,-69,0,0,0,0,0,0,0,0,0,-1,1462,1093,0,0
245,-69,0,0,0,0,0,0,0,0,0,-1,1469,1093,0,0
252,-69,0,0,0,0,0,0,0,0,0,-1,1476,1093,0,0
259,-69,0,0,0,0,0,0,0,0,0,-1,1483,1093,0,0
266,-69,0,0,0,0,0,0,0,0,0,-1,1490,1093,0,0
273,-69,0,0,0,0,0,0,0,0,0,-1,1497,1093,0,0
280,-69,0,0,0,0,0,0,0,0,0,-1,1504,1093,0,0
287,-69,0,0,0,0,0,0,0,0,0,-1,1511,1093,0,0
294,-69,0,0,0,0,0,0,0,0,0,-1,1518,1093,0,0
301,-69,0,0,0,0,0,0,0,0,0,-1,1525,1093,0,0
308,-69,0,0,0,0,0,0,0,0,0,-1,1532,1093,0,0
315,-69,0,0,0,0,0,0,0,0,0,-1,1539,1093,0,0
322,-69,0,0,0,0,0,0,0,0,0,-1,1546,1093,0,0
329,-69,0,0,0,0,0,0,0,0,0,-1,1553,1093,0,0
336,-69,0,0,0,0,0,0,0,0,0,-1,1560,1093,0,0
343,-69,0,0,0,0,0,0,0,0,0,-1,1567,1093,0,0
350,-69,0,0,0,0,0,0,0,0,0,-1,1574,1093,0,0
357,-69,0,0,0,0,0,0,0,0,0,-1,1581,1093,0,0
364,-69,0,0,0,0,0,0,0,0,0,-1,1588,1093,0,0
371,-69,0,0,0,0,0,0,0,0,0,-1,1595,1093,0,0
378,-69,0,0,0,0,0,0,0,0,0,-1,1602,1093,0,0
385,-69,0,0,0,0,0,0,0,0,0,-1,1609,1093,0,0
392,-69,0,0,0,0,0,0,0,0,0,-1,1616,1093,0,0
399,-69,0,0,0,0,0,0,0,0,0,-1,1623,1093,0,0
406,-69,0,0,0,0,0,0,0,0,0,-1,1630,1093,0,0
413,-69,0,0,0,0,0,0,0,0,0,-1,1637,1093,0,0
420,-69,0,0,0,0,0,0,0,0,0,-1,1644,1093,0,0
427,-69,0,0,0,0,0,0,0,0,0,-1,1651,1093,0,0
434,-69,0,0,0,0,0,0,0,0,0,-1,1658,1093,0,0
441,-69,0,0,0,0,0,0,0,0,0,-1,1665,1093,0,0
448,-69,0,0,0,0,0,0,0,0,0,-1,1672,1093,0,0
455,-69,0,0,0,0,0,0,0,0,0,-1,1679,1093,0,0
462,-69,0,0,0,0,0,0,0,0,0,-1,1686,1093,0,0
469,-69,0,0,0,0,0,0,0,0,0,-1,1693,1093,0,0
476,-69,0,0,0,0,0,0,0,0,0,-1,1700,1093,0,0
483,-69,0,0,0,0,0,0,0,0,0,-1,1707,1093,0,0
490,-69,0,0,0,0,0,0,0,0,0,-1,1714,1093,0,0
497,-69,0,0,0,0,0,0,0,0,0,-1,1721,1093,0,0
504,-69,0,0,0,0,0,0,0,0,0,-1,1728,1093,0,0
511,-69,0,0,0,0,0,0,0,0,0,-1,1735,1093,0,0
518,-69,0,0,0,0,0,0,0,0,0,-1,1742,1093,0,0
525,-69,0,0,0,0,0,0,0,0,0,-1,1749,1093,0,0
532,-69,0,0,0,0,0,0,0,0,0,-1,1756,1093,0,0
539,-69,0,0,0,0,0,0,0,0,0,-1,1763,1093,0,0
546,-69,0,0,0,0,0,0,0,0,0,-1,1770,1093,0,0
553,-69,0,0,0,0,0,0,0,0,0,-1,1777,1093,0,0
560,-69,0,0,0,0,0,0,0,0,0,-1,1784,1093,0,0
567,-69,0,0,0,0,0,0,0,0,0,-1,1791,1093,0,0
574,-69,0,0,0,0,0,0,0,0,0,-1,1798,1093,0,0
581,-69,0,0,0,0,0,0,0,0,0,-1,1805,1093,0,0
588,-69,0,0,0,0,0,0,0,0,0,-1,1812,1093,0,0
595,-69,0,0,0,0,0,0,0,0,0,-1,1819,1093,0,0
602,-69,0,0,0,0,0,0,0,0,0,-1,1826,1093,0,0
609,-69,0,0,0,0,0,0,0,0,0,-1,1833,1093,0,0
616,-69,0,0,0,0,0,0,0,0,0,-1,1840,1093,0,0
623,-69,0,0,0,0,0,0,0,0,0,-1,1847,1093,0,0
630,-69,0,0,0,0,0,0,0,0,0,-1,1854,1093,0,0
637,-69,0,0,0,0,0,0,0,0,0,-1,1861,1093,0,0
644,-69,0,0,0,0,0,0,0,0,0,-1,1868,1093,0,0
651,-69,228.156,8.75305,0,0,0,0,0,0,0,-1,1875,1093,228.156,-8.75301
658,-69,228.073,8.85669,0,0,0,0,0,0,0,-1,1882,1093,228.073,-8.85665
665,-69,227.988,8.89343,0,0,0,0,0,0,0,-1,1889,1093,227.988,-8.89347
672,-69,227.841,8.87708,0,0,0,0,0,0,0,-1,1896,1093,227.841,-8.87704
679,-69,227.849,8.71667,0,0,0,0,0,0,0,-1,1903,1093,227.849,-8.71669
686,-69,227.977,8.599,0,0,0,0,0,0,0,-1,1910,1093,227.977,-8.599
693,-69,228.061,8.66345,0,0,0,0,0,0,0,-1,1917,1093,228.061,-8.66348
700,-69,228.118,8.52026,0,0,0,0,0,0,0,-1,1924,1093,228.118,-8.52031
707,-69,228.102,8.51306,0,0,0,0,0,0,0,-1,1931,1093,228.102,-8.51301
714,-69,228.006,8.53247,0,0,0,0,0,0,0,-1,1938,1093,228.006,-8.53248
721,-69,227.776,8.58044,0,0,0,0,0,0,0,-1,1945,1093,227.776,-8.58038
728,-69,231.258,32.8895,0,0,0,0,0,0,0,-1,1952,1093,231.258,-32.8895
735,-69,231.498,32.5176,-0.00947573,-0.00491291,0.00468533,-0.00198307,-0.0124056,1.01197,0.00769501,0.0469464,1959,1093,231.498,-32.5175
742,-69,231.473,32.3121,-0.0124136,0.00442987,0.00413923,0.0053921,-0.0133758,1.34239,0.0111577,0.0419502,1966,1093,231.473,-32.3122
749,-69,231.273,31.9752,-0.0155816,0.0137549,0.003779,0.0142339,-0.0160606,1.44472,0.0175011,0.0427781,1973,1093,231.273,-31.9752
756,-69,231.299,31.5842,-0.018901,0.0230662,0.00358453,0.0233701,-0.019205,1.4862,0.0246199,0.0211216,1980,1093,231.299,-31.5843
763,-69,231.154,31.2648,-0.0222866,0.0323741,0.00353467,0.0326017,-0.0225143,1.50649,0.0319984,0.0292112,1987,1093,231.154,-31.2648
770,-69,230.859,31.1458,-0.0256472,0.0416952,0.00360732,0.0418878,-0.0258398,1.51743,0.0394668,0.0368355,1994,1093,230.859,-31.1458
777,-69,230.698,30.9727,-0.0288844,0.0510519,0.00377939,0.0512302,-0.0290627,1.52366,0.0469423,0.0430685,2001,1093,230.698,-30.9726
784,-69,230.595,30.6929,0,0,0,0,0,0,0,-1,2008,1093,230.595,-30.6929
791,-69,211.786,30.1648,0,0,0,0,0,0,0,-1,2015,1093,211.786,-30.1648
798,-69,130.727,14.436,0,0,0,0,0,0,0,-1,2022,1093,130.727,-14.4361
805,-69,141.347,18.6334,0,0,0,0,0,0,0,-1,2029,1093,141.347,-18.6334
812,-69,141.898,18.0513,0,0,0,0,0,0,0,-1,2036,1093,141.898,-18.0513
-700,-76,0,0,0,0,0,0,0,0,0,-1,524,1100,0,0
-693,-76,-84.1913,0.912598,0,0,0,0,0,0,0,-1,531,1100,-84.1913,-0.912564
-686,-76,-84.7185,2.40625,0,0,0,0,0,0,0,-1,538,1100,-84.7185,-2.40624
-679,-76,-85.125,4.04797,0,0,0,0,0,0,0,-1,545,1100,-85.125,-4.04794
-672,-76,-85.447,5.35437,0,0,0,0,0,0,0,-1,552,1100,-85.447,-5.35438
-665,-76,-85.3085,6.47705,0,0,0,0,0,0,0,-1,559,1100,-85.3085,-6.47707
-658,-76,-67.4031,4.96143,0,0,0,0,0,0,0,-1,566,1100,-67.4031,-4.9614
-651,-76,-182.68,30.7188,0,0,0,0,0,0,0,-1,573,1100,-182.68,-30.7187
-644,-76,-223.357,30.0249,0,0,0,0,0,0,0,-1,580,1100,-223.357,-30.0249
-637,-76,-223.474,30.2545,-0.0149809,0.0423508,-0.00255977,0.0424649,-0.015095,-1.52627,0.0344618,0.0347143,587,1100,-223.474,-30.2545
-630,-76,-223.559,30.5618,-0.0121881,0.0356875,-0.00144897,0.0357313,-0.012232,-1.54057,0.0287782,0.0211171,594,1100,-223.559,-30.5618
-623,-76,-223.648,30.8312,-0.009208,0.0288411,-0.000462254,0.0288467,-0.00921361,-1.55865,0.0229279,0.0310296,601,1100,-223.648,-30.8312
-616,-76,-223.78,31.1641,-0.00606326,0.0218475,0.000393397,0.021853,-0.00606881,1.55671,0.0169576,0.0322514,608,1100,-223.78,-31.164
-609,-76,-223.854,31.572,-0.00277441,0.0147417,0.00111198,0.014812,-0.00284472,1.50765,0.0109468,0.0307703,615,1100,-223.854,-31.572
-602,-76,-223.801,31.877,0.00064039,0.00755808,0.00168832,0.00794813,0.000250334,1.34375,0.00521731,0.0268169,622,1100,-223.801,-31.8769
-595,-76,-223.893,32.0018,0.00416528,0.000331554,0.00211814,0.00510514,-0.000608308,0.41762,0.00362326,0.0437456,629,1100,-223.893,-32.0019
-588,-76,-224.129,32.0819,0,0,0,0,0,0,0,-1,636,1100,-224.129,-32.0819
-581,-76,-72.097,0.376953,0,0,0,0,0,0,0,-1,643,1100,-72.097,-0.377007
-574,-76,-72.0711,0.447632,0,0,0,0,0,0,0,-1,650,1100,-72.0711,-0.44758
-567,-76,-72.015,0.546509,0,0,0,0,0,0,0,-1,657,1100,-72.015,-0.546474
-560,-76,-72.2302,0.441284,0,0,0,0,0,0,0,-1,664,1100,-72.2302,-0.44127
-553,-76,-72.1963,0.22937,0,0,0,0,0,0,0,-1,671,1100,-72.1963,-0.229379
-546,-76,-72.09,0.186401,0,0,0,0,0,0,0,-1,678,1100,-72.09,-0.186419
-539,-76,-72.1268,0.189087,0,0,0,0,0,0,0,-1,685,1100,-72.1268,-0.18903
-532,-76,-72.0507,0.187256,0,0,0,0,0,0,0,-1,692,1100,-72.0507,-0.187309
-525,-76,0,0,0,0,0,0,0,0,0,-1,699,1100,0,0
-518,-76,0,0,0,0,0,0,0,0,0,-1,706,1100,0,0
-511,-76,0,0,0,0,0,0,0,0,0,-1,713,1100,0,0
-504,-76,0,0,0,0,0,0,0,0,0,-1,720,1100,0,0
-497,-76,0,0,0,0,0,0,0,0,0,-1,727,1100,0,0
-490,-76,0,0,0,0,0,0,0,0,0,-1,734,1100,0,0
-483,-76,0,0,0,0,0,0,0,0,0,-1,741,1100,0,0
-476,-76,0,0,0,0,0,0,0,0,0,-1,748,1100,0,0
-469,-76,0,0,0,0,0,0,0,0,0,-1,755,1100,0,0
-462,-76,0,0,0,0,0,0,0,0,0,-1,762,1100,0,0
-455,-76,0,0,0,0,0,0,0,0,0,-1,769,1100,0,0
-448,-76,0,0,0,0,0,0,0,0,0,-1,776,1100,0,0
-441,-76,0,0,0,0,0,0,0,0,0,-1,783,1100,0,0
-434,-76,0,0,0,0,0,0,0,0,0,-1,790,1100,0,0
-427,-76,0,0,0,0,0,0,0,0,0,-1,797,1100,0,0
-420,-76,0,0,0,0,0,0,0,0,0,-1,804,1100,0,0
-413,-76,0,0,0,0,0,0,0,0,0,-1,811,1100,0,0
-406,-76,0,0,0,0,0,0,0,0,0,-1,818,1100,0,0
-399,-76,0,0,0,0,0,0,0,0,0,-1,825,1100,0,0
-392,-76,0,0,0,0,0,0,0,0,0,-1,832,1100,0,0
-385,-76,0,0,0,0,0,0,0,0,0,-1,839,1100,0,0
-378,-76,0,0,0,0,0,0,0,0,0,-1,846,1100,0,0
-371,-76,0,0,0,0,0,0,0,0,0,-1,853,1100,0,0
-364,-76,0,0,0,0,0,0,0,0,0,-1,860,1100,0,0
-357,-76,0,0,0,0,0,0,0,0,0,-1,867,1100,0,0
-350,-76,0,0,0,0,0,0,0,0,0,-1,874,1100,0,0
-343,-76,0,0,0,0,0,0,0,0,0,-1,881,1100,0,0
-336,-76,0,0,0,0,0,0,0,0,0,-1,888,1100,0,0
-329,-76,0,0,0,0,0,0,0,0,0,-1,895,1100,0,0
-322,-76,0,0,0,0,0,0,0,0,0,-1,902,1100,0,0
-315,-76,0,0,0,0,0,0,0,0,0,-1,909,1100,0,0
-308,-76,0,0,0,0,0,0,0,0,0,-1,916,1100,0,0
-301,-76,0,0,0,0,0,0,0,0,0,-1,923,1100,0,0
-294,-76,0,0,0,0,0,0,0,0,0,-1,930,1100,0,0
-287,-76,0,0,0,0,0,0,0,0,0,-1,937,1100,0,0
-280,-76,0,0,0,0,0,0,0,0,0,-1,944,1100,0,0
-273,-76,0,0,0,0,0,0,0,0,0,-1,951,1100,0,0
-266,-76,0,0,0,0,0,0,0,0,0,-1,958,1100,0,0
-259,-76,0,0,0,0,0,0,0,0,0,-1,965,1100,0,0
-252,-76,0,0,0,0,0,0,0,0,0,-1,972,1100,0,0
-245,-76,0,0,0,0,0,0,0,0,0,-1,979,1100,0,0
-238,-76,0,0,0,0,0,0,0,0,0,-1,986,1100,0,0
-231,-76,0,0,0,0,0,0,0,0,0,-1,993,1100,0,0
-224,-76,0,0,0,0,0,0,0,0,0,-1,1000,1100,0,0
-217,-76,0,0,0,0,0,0,0,0,0,-1,1007,1100,0,0
-210,-76,0,0,0,0,0,0,0,0,0,-1,1014,1100,0,0
-203,-76,0,0,0,0,0,0,0,0,0,-1,1021,1100,0,0
-196,-76,0,0,0,0,0,0,0,0,0,-1,1028,1100,0,0
-189,-76,0,0,0,0,0,0,0,0,0,-1,1035,1100,0,0
-182,-76,0,0,0,0,0,0,0,0,0,-1,1042,1100,0,0
-175,-76,0,0,0,0,0,0,0,0,0,-1,1049,1100,0,0
-168,-76,0,0,0,0,0,0,0,0,0,-1,1056,1100,0,0
-161,-76,0,0,0,0,0,0,0,0,0,-1,1063,1100,0,0
-154,-76,0,0,0,0,0,0,0,0,0,-1,1070,1100,0,0
-147,-76,0,0,0,0,0,0,0,0,0,-1,1077,1100,0,0
-140,-76,0,0,0,0,0,0,0,0,0,-1,1084,1100,0,0
-133,-76,0,0,0,0,0,0,0,0,0,-1,1091,1100,0,0
-126,-76,0,0,0,0,0,0,0,0,0,-1,1098,1100,0,0
-119,-76,0,0,0,0,0,0,0,0,0,-1,1105,1100,0,0
-112,-76,0,0,0,0,0,0,0,0,0,-1,1112,1100,0,0
-105,-76,0,0,0,0,0,0,0,0,0,-1,1119,1100,0,0
-98,-76,0,0,0,0,0,0,0,0,0,-1,1126,1100,0,0
-91,-76,0,0,0,0,0,0,0,0,0,-1,1133,1100,0,0
-84,-76,0,0,0,0,0,0,0,0,0,-1,1140,1100,0,0
-77,-76,0,0,0,0,0,0,0,0,0,-1,1147,1100,0,0
-70,-76,0,0,0,0,0,0,0,0,0,-1,1154,1100,0,0
-63,-76,0,0,0,0,0,0,0,0,0,-1,1161,1100,0,0
-56,-76,0,0,0,0,0,0,0,0,0,-1,1168,1100,0,0
-49,-76,0,0,0,0,0,0,0,0,0,-1,1175,1100,0,0
-42,-76,0,0,0,0,0,0,0,0,0,-1,1182,1100,0,0
-35,-76,0,0,0,0,0,0,0,0,0,-1,1189,1100,0,0
-28,-76,0,0,0,0,0,0,0,0,0,-1,1196,1100,0,0
-21,-76,0,0,0,0,0,0,0,0,0,-1,1203,1100,0,0
-14,-76,0,0,0,0,0,0,0,0,0,-1,1210,1100,0,0
-7,-76,0,0,0,0,0,0,0,0,0,-1,1217,1100,0,0
0,-76,0,0,0,0,0,0,0,0,0,-1,1224,1100,0,0
7,-76,0,0,0,0,0,0,0,0,0,-1,1231,1100,0,0
14,-76,0,0,0,0,0,0,0,0,0,-1,1238,1100,0,0
21,-76,0,0,0,0,0,0,0,0,0,-1,1245,1100,0,0
28,-76,0,0,0,0,0,0,0,0,0,-1,1252,1100,0,0
35,-76,0,0,0,0,0,0,0,0,0,-1,1259,1100,0,0
42,-76,0,0,0,0,0,0,0,0,0,-1,1266,1100,0,0
49,-76,0,0,0,0,0,0,0,0,0,-1,1273,1100,0,0
56,-76,0,0,0,0,0,0,0,0,0,-1,1280,1100,0,0
63,-76,0,0,0,0,0,0,0,0,0,-1,1287,1100,0,0
70,-76,0,0,0,0,0,0,0,0,0,-1,1294,1100,0,0
77,-76,0,0,0,0,0,0,0,0,0,-1,1301,1100,0,0
84,-76,0,0,0,0,0,0,0,0,0,-1,1308,1100,0,0
91,-76,0,0,0,0,0,0,0,0,0,-1,1315,1100,0,0
98,-76,0,0,0,0,0,0,0,0,0,-1,1322,1100,0,0
105,-76,0,0,0,0,0,0,0,0,0,-1,1329,1100,0,0
112,-76,0,0,0,0,0,0,0,0,0,-1,1336,1100,0,0
119,-76,0,0,0,0,0,0,0,0,0,-1,1343,1100,0,0
126,-76,0,0,0,0,0,0,0,0,0,-1,1350,1100,0,0
133,-76,0,0,0,0,0,0,0,0,0,-1,1357,1100,0,0
140,-76,0,0,0,0,0,0,0,0,0,-1,1364,1100,0,0
147,-76,0,0,0,0,0,0,0,0,0,-1,1371,1100,0,0
154,-76,0,0,0,0,0,0,0,0,0,-1,1378,1100,0,0
161,-76,0,0,0,0,0,0,0,0,0,-1,1385,1100,0,0
168,-76,0,0,0,0,0,0,0,0,0,-1,1392,1100,0,0
175,-76,0,0,0,0,0,0,0,0,0,-1,1399,1100,0,0
182,-76,0,0,0,0,0,0,0,0,0,-1,1406,1100,0,0
189,-76,0,0,0,0,0,0,0,0,0,-1,1413,1100,0,0
196,-76,0,0,0,0,0,0,0,0,0,-1,1420,1100,0,0
203,-76,0,0,0,0,0,0,0,0,0,-1,1427,1100,0,0
210,-76,0,0,0,0,0,0,0,0,0,-1,1434,1100,0,0
217,-76,0,0,0,0,0,0,0,0,0,-1,1441,1100,0,0
224,-76,0,0,0,0,0,0,0,0,0,-1,1448,1100,0,0
231,-76,0,0,0,0,0,0,0,0,0,-1,1455,1100,0,0
238,-76,0,0,0,0,0,0,0,0,0,-1,1462,1100,0,0
245,-76,0,0,0,0,0,0,0,0,0,-1,1469,1100,0,0
252,-76,0,0,0,0,0,0,0,0,0,-1,1476,1100,0,0
259,-76,0,0,0,0,0,0,0,0,0,-1,1483,1100,0,0
266,-76,0,0,0,0,0,0,0,0,0,-1,1490,1100,0,0
273,-76,0,0,0,0,0,0,0,0,0,-1,1497,1100,0,0
280,-76,0,0,0,0,0,0,0,0,0,-1,1504,1100,0,0
287,-76,0,0,0,0,0,0,0,0,0,-1,1511,1100,0,0
294,-76,0,0,0,0,0,0,0,0,0,-1,1518,1100,0,0
301,-76,0,0,0,0,0,0,0,0,0,-1,1525,1100,0,0
308,-76,0,0,0,0,0,0,0,0,0,-1,1532,1100,0,0
315,-76,0,0,0,0,0,0,0,0,0,-1,1539,1100,0,0
322,-76,0,0,0,0,0,0,0,0,0,-1,1546,1100,0,0
329,-76,0,0,0,0,0,0,0,0,0,-1,1553,1100,0,0
336,-76,0,0,0,0,0,0,0,0,0,-1,1560,1100,0,0
343,-76,0,0,0,0,0,0,0,0,0,-1,1567,1100,0,0
350,-76,0,0,0,0,0,0,0,0,0,-1,1574,1100,0,0
357,-76,0,0,0,0,0,0,0,0,0,-1,1581,1100,0,0
364,-76,0,0,0,0,0,0,0,0,0,-1,1588,1100,0,0
371,-76,0,0,0,0,0,0,0,0,0,-1,1595,1100,0,0
378,-76,0,0,0,0,0,0,0,0,0,-1,1602,1100,0,0
385,-76,0,0,0,0,0,0,0,0,0,-1,1609,1100,0,0
392,-76,0,0,0,0,0,0,0,0,0,-1,1616,1100,0,0
399,-76,0,0,0,0,0,0,0,0,0,-1,1623,1100,0,0
406,-76,0,0,0,0,0,0,0,0,0,-1,1630,1100,0,0
413,-76,0,0,0,0,0,0,0,0,0,-1,1637,1100,0,0
420,-76,0,0,0,0,0,0,0,0,0,-1,1644,1100,0,0
427,-76,0,0,0,0,0,0,0,0,0,-1,1651,1100,0,0
434,-76,0,0,0,0,0,0,0,0,0,-1,1658,1100,0,0
441,-76,0,0,0,0,0,0,0,0,0,-1,1665,1100,0,0
448,-76,0,0,0,0,0,0,0,0,0,-1,1672,1100,0,0
455,-76,0,0,0,0,0,0,0,0,0,-1,1679,1100,0,0
462,-76,0,0,0,0,0,0,0,0,0,-1,1686,1100,0,0
469,-76,0,0,0,0,0,0,0,0,0,-1,1693,1100,0,0
476,-76,0,0,0,0,0,0,0,0,0,-1,1700,1100,0,0
483,-76,0,0,0,0,0,0,0,0,0,-1,1707,1100,0,0
490,-76,0,0,0,0,0,0,0,0,0,-1,1714,1100,0,0
497,-76,0,0,0,0,0,0,0,0,0,-1,1721,1100,0,0
504,-76,0,0,0,0,0,0,0,0,0,-1,1728,1100,0,0
511,-76,0,0,0,0,0,0,0,0,0,-1,1735,1100,0,0
518,-76,0,0,0,0,0,0,0,0,0,-1,1742,1100,0,0
525,-76,0,0,0,0,0,0,0,0,0,-1,1749,1100,0,0
532,-76,0,0,0,0,0,0,0,0,0,-1,1756,1100,0,0
539,-76,0,0,0,0,0,0,0,0,0,-1,1763,1100,0,0
546,-76,0,0,0,0,0,0,0,0,0,-1,1770,1100,0,0
553,-76,0,0,0,0,0,0,0,0,0,-1,1777,1100,0,0
560,-76,0,0,0,0,0,0,0,0,0,-1,1784,1100,0,0
567,-76,0,0,0,0,0,0,0,0,0,-1,1791,1100,0,0
574,-76,0,0,0,0,0,0,0,0,0,-1,1798,1100,0,0
581,-76,0,0,0,0,0,0,0,0,0,-1,1805,1100,0,0
588,-76,0,0,0,0,0,0,0,0,0,-1,1812,1100,0,0
595,-76,0,0,0,0,0,0,0,0,0,-1,1819,1100,0,0
602,-76,0,0,0,0,0,0,0,0,0,-1,1826,1100,0,0
609,-76,0,0,0,0,0,0,0,0,0,-1,1833,1100,0,0
616,-76,0,0,0,0,0,0,0,0,0,-1,1840,1100,0,0
623,-76,0,0,0,0,0,0,0,0,0,-1,1847,1100,0,0
630,-76,0,0,0,0,0,0,0,0,0,-1,1854,1100,0,0
637,-76,0,0,0,0,0,0,0,0,0,-1,1861,1100,0,0
644,-76,0,0,0,0,0,0,0,0,0,-1,1868,1100,0,0
651,-76,228.311,8.88843,0,0,0,0,0,0,0,-1,1875,1100,228.311,-8.88843
658,-76,228.196,8.8783,0,0,0,0,0,0,0,-1,1882,1100,228.196,-8.87835
665,-76,228.095,8.70654,0,0,0,0,0,0,0,-1,1889,1100,228.095,-8.70652
672,-76,227.995,8.82678,0,0,0,0,0,0,0,-1,1896,1100,227.995,-8.82673
679,-76,228.038,8.81775,0,0,0,0,0,0,0,-1,1903,1100,228.038,-8.81773
686,-76,228.13,8.79663,0,0,0,0,0,0,0,-1,1910,1100,228.13,-8.79661
693,-76,228.15,8.73792,0,0,0,0,0,0,0,-1,1917,1100,228.15,-8.73787
700,-76,228.088,8.56665,0,0,0,0,0,0,0,-1,1924,1100,228.088,-8.56665
707,-76,228.061,8.56506,0,0,0,0,0,0,0,-1,1931,1100,228.061,-8.56505
714,-76,228.106,8.52905,0,0,0,0,0,0,0,-1,1938,1100,228.106,-8.52903
721,-76,45.1713,3.04919,0,0,0,0,0,0,0,-1,1945,1100,45.1713,-3.04915
728,-76,156.902,25.9305,0,0,0,0,0,0,0,-1,1952,1100,156.902,-25.9305
735,-76,230.917,32.6951,0,0,0,0,0,0,0,-1,1959,1100,230.917,-32.6951
742,-76,231.065,32.2831,-0.0120329,0.00471148,0.0050551,0.00611925,-0.0134406,1.29919,0.0115536,0.0429331,1966,1100,231.065,-32.283
749,-76,230.864,31.8619,-0.0155813,0.0143395,0.00434628,0.014958,-0.0161998,1.42943,0.0179938,0.0370572,1973,1100,230.864,-31.8619
756,-76,230.906,31.4808,-0.0193355,0.0239571,0.00381097,0.02429,-0.0196684,1.48366,0.0254261,0.0226538,1980,1100,230.906,-31.4808
763,-76,230.71,31.1753,-0.0232162,0.0335731,0.00342274,0.0337786,-0.0234217,1.51081,0.0332046,0.0271716,1987,1100,230.71,-31.1753
770,-76,230.452,30.9329,-0.0271358,0.0432027,0.00315481,0.0433439,-0.027277,1.52606,0.0411232,0.0309917,1994,1100,230.452,-30.9329
777,-76,230.391,31.014,0,0,0,0,0,0,0,-1,2001,1100,230.391,-31.014
784,-76,229.077,30.312,0,0,0,0,0,0,0,-1,2008,1100,229.077,-30.312
791,-76,210.776,29.9143,0,0,0,0,0,0,0,-1,2015,1100,210.776,-29.9144
798,-76,154.434,19.4275,0,0,0,0,0,0,0,-1,2022,1100,154.434,-19.4275
805,-76,125.512,12.9398,0,0,0,0,0,0,0,-1,2029,1100,125.512,-12.9399
812,-76,140.617,18.4784,0,0,0,0,0,0,0,-1,2036,1100,140.617,-18.4783
-700,-83,0,0,0,0,0,0,0,0,0,-1,524,1107,0,0
-693,-83,-83.7391,1.26392,0,0,0,0,0,0,0,-1,531,1107,-83.7391,-1.26397
-686,-83,-83.9973,2.73779,0,0,0,0,0,0,0,-1,538,1107,-83.9973,-2.73779
-679,-83,-84.214,4.20288,0,0,0,0,0,0,0,-1,545,1107,-84.214,-4.20288
-672,-83,-84.4678,5.47815,0,0,0,0,0,0,0,-1,552,1107,-84.4678,-5.47815
-665,-83,-85.1248,6.91895,0,0,0,0,0,0,0,-1,559,1107,-85.1248,-6.91893
-658,-83,-85.575,8.10474,0,0,0,0,0,0,0,-1,566,1107,-85.575,-8.10475
-651,-83,-221.922,29.6943,0,0,0,0,0,0,0,-1,573,1107,-221.922,-29.6943
-644,-83,-222.626,29.7933,0,0,0,0,0,0,0,-1,580,1107,-222.626,-29.7933
-637,-83,-223.077,29.9712,-0.0150941,0.0423536,-0.00388221,0.0426148,-0.0153553,-1.50363,0.0346805,0.0243053,587,1107,-223.077,-29.9712
-630,-83,-223.147,30.2639,-0.0126089,0.0360533,-0.00244554,0.0361759,-0.0127315,-1.52071,0.0292981,0.0249082,594,1107,-223.147,-30.2639
-623,-83,-223.308,30.5483,0,0,0,0,0,0,0,-1,601,1107,-223.308,-30.5483
-616,-83,-223.485,30.9705,-0.00705991,0.0227623,2.97883e-05,0.0227623,-0.00705994,1.5698,0.0179959,0.0271187,608,1107,-223.485,-30.9705
-609,-83,-223.466,31.4028,-0.00405917,0.0158672,0.00105334,0.0159227,-0.0041147,1.51813,0.0122198,0.0323303,615,1107,-223.466,-31.4029
-602,-83,-223.475,31.8834,-0.00094635,0.00886646,0.00192557,0.00923079,-0.00131068,1.3838,0.00663405,0.0273984,622,1107,-223.475,-31.8835
-595,-83,-223.36,32.4021,0,0,0,0,0,0,0,-1,629,1107,-223.36,-32.4021
-588,-83,-220.203,32.1066,0,0,0,0,0,0,0,-1,636,1107,-220.203,-32.1065
-581,-83,-72.0923,0.283447,0,0,0,0,0,0,0,-1,643,1107,-72.0923,-0.283507
-574,-83,-72.0815,0.412354,0,0,0,0,0,0,0,-1,650,1107,-72.0815,-0.412369
-567,-83,-72.0112,0.552002,0,0,0,0,0,0,0,-1,657,1107,-72.0112,-0.551955
-560,-83,-72.1143,0.244629,0,0,0,0,0,0,0,-1,664,1107,-72.1142,-0.244629
-553,-83,-72.1241,0.0872803,0,0,0,0,0,0,0,-1,671,1107,-72.1241,-0.0872678
-546,-83,-72.0452,0.189331,0,0,0,0,0,0,0,-1,678,1107,-72.0452,-0.189338
-539,-83,-72.0553,0.273926,0,0,0,0,0,0,0,-1,685,1107,-72.0553,-0.273949
-532,-83,-72.0438,0.221191,0,0,0,0,0,0,0,-1,692,1107,-72.0438,-0.221206
-525,-83,0,0,0,0,0,0,0,0,0,-1,699,1107,0,0
-518,-83,0,0,0,0,0,0,0,0,0,-1,706,1107,0,0
-511,-83,0,0,0,0,0,0,0,0,0,-1,713,1107,0,0
-504,-83,0,0,0,0,0,0,0,0,0,-1,720,1107,0,0
-497,-83,0,0,0,0,0,0,0,0,0,-1,727,1107,0,0
-490,-83,0,0,0,0,0,0,0,0,0,-1,734,1107,0,0
-483,-83,0,0,0,0,0,0,0,0,0,-1,741,1107,0,0
-476,-83,0,0,0,0,0,0,0,0,0,-1,748,1107,0,0
-469,-83,0,0,0,0,0,0,0,0,0,-1,755,1107,0,0
-462,-83,0,0,0,0,0,0,0,0,0,-1,762,1107,0,0
-455,-83,0,0,0,0,0,0,0,0,0,-1,769,1107,0,0
-448,-83,0,0,0,0,0,0,0,0,0,-1,776,1107,0,0
-441,-83,0,0,0,0,0,0,0,0,0,-1,783,1107,0,0
-434,-83,0,0,0,0,0,0,0,0,0,-1,790,1107,0,0
-427,-83,0,0,0,0,0,0,0,0,0,-1,797,1107,0,0
-420,-83,0,0,0,0,0,0,0,0,0,-1,804,1107,0,0
-413,-83,0,0,0,0,0,0,0,0,0,-1,811,1107,0,0
-406,-83,0,0,0,0,0,0,0,0,0,-1,818,1107,0,0
-399,-83,0,0,0,0,0,0,0,0,0,-1,825,1107,0,0
-392,-83,0,0,0,0,0,0,0,0,0,-1,832,1107,0,0
-385,-83,0,0,0,0,0,0,0,0,0,-1,839,1107,0,0
-378,-83,0,0,0,0,0,0,0,0,0,-1,846,1107,0,0
-371,-83,0,0,0,0,0,0,0,0,0,-1,853,1107,0,0
-364,-83,0,0,0,0,0,0,0,0,0,-1,860,1107,0,0
-357,-83,0,0,0,0,0,0,0,0,0,-1,867,1107,0,0
-350,-83,0,0,0,0,0,0,0,0,0,-1,874,1107,0,0
-343,-83,0,0,0,0,0,0,0,0,0,-1,881,1107,0,0
-336,-83,0,0,0,0,0,0,0,0,0,-1,888,1107,0,0
-329,-83,0,0,0,0,0,0,0,0,0,-1,895,1107,0,0
-322,-83,0,0,0,0,0,0,0,0,0,-1,902,1107,0,0
-315,-83,0,0,0,0,0,0,0,0,0,-1,909,1107,0,0
-308,-83,0,0,0,0,0,0,0,0,0,-1,916,1107,0,0
-301,-83,0,0,0,0,0,0,0,0,0,-1,923,1107,0,0
-294,-83,0,0,0,0,0,0,0,0,0,-1,930,1107,0,0
-287,-83,0,0,0,0,0,0,0,0,0,-1,937,1107,0,0
-280,-83,0,0,0,0,0,0,0,0,0,-1,944,1107,0,0
-273,-83,0,0,0,0,0,0,0,0,0,-1,951,1107,0,0
-266,-83,0,0,0,0,0,0,0,0,0,-1,958,1107,0,0
-259,-83,0,0,0,0,0,0,0,0,0,-1,965,1107,0,0
-252,-83,0,0,0,0,0,0,0,0,0,-1,972,1107,0,0
-245,-83,0,0,0,0,0,0,0,0,0,-1,979,1107,0,0
-238,-83,0,0,0,0,0,0,0,0,0,-1,986,1107,0,0
-231,-83,0,0,0,0,0,0,0,0,0,-1,993,1107,0,0
-224,-83,0,0,0,0,0,0,0,0,0,-1,1000,1107,0,0
-217,-83,0,0,0,0,0,0,0,0,0,-1,1007,1107,0,0
-210,-83,0,0,0,0,0,0,0,0,0,-1,1014,1107,0,0
-203,-83,0,0,0,0,0,0,0,0,0,-1,1021,1107,0,0
-196,-83,0,0,0,0,0,0,0,0,0,-1,1028,1107,0,0
-189,-83,0,0,0,0,0,0,0,0,0,-1,1035,1107,0,0
-182,-83,0,0,0,0,0,0,0,0,0,-1,1042,1107,0,0
-175,-83,0,0,0,0,0,0,0,0,0,-1,1049,1107,0,0
-168,-83,0,0,0,0,0,0,0,0,0,-1,1056,1107,0,0
-161,-83,0,0,0,0,0,0,0,0,0,-1,1063,1107,0,0
-154,-83,0,0,0,0,0,0,0,0,0,-1,1070,1107,0,0
-147,-83,0,0,0,0,0,0,0,0,0,-1,1077,1107,0,0
-140,-83,0,0,0,0,0,0,0,0,0,-1,1084,1107,0,0
-133,-83,0,0,0,0,0,0,0,0,0,-1,1091,1107,0,0
-126,-83,0,0,0,0,0,0,0,0,0,-1,1098,1107,0,0
-119,-83,0,0,0,0,0,0,0,0,0,-1,1105,1107,0,0
-112,-83,0,0,0,0,0,0,0,0,0,-1,1112,1107,0,0
-105,-83,0,0,0,0,0,0,0,0,0,-1,1119,1107,0,0
-98,-83,0,0,0,0,0,0,0,0,0,-1,1126,1107,0,0
-91,-83,0,0,0,0,0,0,0,0,0,-1,1133,1107,0,0
-84,-83,0,0,0,0,0,0,0,0,0,-1,1140,1107,0,0
-77,-83,0,0,0,0,0,0,0,0,0,-1,1147,1107,0,0
-70,-83,0,0,0,0,0,0,0,0,0,-1,1154,1107,0,0
-63,-83,0,0,0,0,0,0,0,0,0,-1,1161,1107,0,0
-56,-83,0,0,0,0,0,0,0,0,0,-1,1168,1107,0,0
-49,-83,0,0,0,0,0,0,0,0,0,-1,1175,1107,0,0
-42,-83,0,0,0,0,0,0,0,0,0,-1,1182,1107,0,0
-35,-83,0,0,0,0,0,0,0,0,0,-1,1189,1107,0,0
-28,-83,0,0,0,0,0,0,0,0,0,-1,1196,1107,0,0
-21,-83,0,0,0,0,0,0,0,0,0,-1,1203,1107,0,0
-14,-83,0,0,0,0,0,0,0,0,0,-1,1210,1107,0,0
-7,-83,0,0,0,0,0,0,0,0,0,-1,1217,1107,0,0
0,-83,0,0,0,0,0,0,0,0,0,-1,1224,1107,0,0
7,-83,0,0,0,0,0,0,0,0,0,-1,1231,1107,0,0
14,-83,0,0,0,0,0,0,0,0,0,-1,1238,1107,0,0
21,-83,0,0,0,0,0,0,0,0,0,-1,1245,1107,0,0
28,-83,0,0,0,0,0,0,0,0,0,-1,1252,1107,0,0
35,-83,0,0,0,0,0,0,0,0,0,-1,1259,1107,0,0
42,-83,0,0,0,0,0,0,0,0,0,-1,1266,1107,0,0
49,-83,0,0,0,0,0,0,0,0,0,-1,1273,1107,0,0
56,-83,0,0,0,0,0,0,0,0,0,-1,1280,1107,0,0
63,-83,0,0,0,0,0,0,0,0,0,-1,1287,1107,0,0
70,-83,0,0,0,0,0,0,0,0,0,-1,1294,1107,0,0
77,-83,0,0,0,0,0,0,0,0,0,-1,1301,1107,0,0
84,-83,0,0,0,0,0,0,0,0,0,-1,1308,1107,0,0
91,-83,0,0,0,0,0,0,0,0,0,-1,1315,1107,0,0
98,-83,0,0,0,0,0,0,0,0,0,-1,1322,1107,0,0
105,-83,0,0,0,0,0,0,0,0,0,-1,1329,1107,0,0
112,-83,0,0,0,0,0,0,0,0,0,-1,1336,1107,0,0
119,-83,0,0,0,0,0,0,0,0,0,-1,1343,1107,0,0
126,-83,0,0,0,0,0,0,0,0,0,-1,1350,1107,0,0
133,-83,0,0,0,0,0,0,0,0,0,-1,1357,1107,0,0
140,-83,0,0,0,0,0,0,0,0,0,-1,1364,1107,0,0
147,-83,0,0,0,0,0,0,0,0,0,-1,1371,1107,0,0
154,-83,0,0,0,0,0,0,0,0,0,-1,1378,1107,0,0
161,-83,0,0,0,0,0,0,0,0,0,-1,1385,1107,0,0
168,-83,0,0,0,0,0,0,0,0,0,-1,1392,1107,0,0
175,-83,0,0,0,0,0,0,0,0,0,-1,1399,1107,0,0
182,-83,0,0,0,0,0,0,0,0,0,-1,1406,1107,0,0
189,-83,0,0,0,0,0,0,0,0,0,-1,1413,1107,0,0
196,-83,0,0,0,0,0,0,0,0,0,-1,1420,1107,0,0
203,-83,0,0,0,0,0,0,0,0,0,-1,1427,1107,0,0
210,-83,0,0,0,0,0,0,0,0,0,-1,1434,1107,0,0
217,-83,0,0,0,0,0,0,0,0,0,-1,1441,1107,0,0
224,-83,0,0,0,0,0,0,0,0,0,-1,1448,1107,0,0
231,-83,0,0,0,0,0,0,0,0,0,-1,1455,1107,0,0
238,-83,0,0,0,0,0,0,0,0,0,-1,1462,1107,0,0
245,-83,0,0,0,0,0,0,0,0,0,-1,1469,1107,0,0
252,-83,0,0,0,0,0,0,0,0,0,-1,1476,1107,0,0
259,-83,0,0,0,0,0,0,0,0,0,-1,1483,1107,0,0
266,-83,0,0,0,0,0,0,0,0,0,-1,1490,1107,0,0
273,-83,0,0,0,0,0,0,0,0,0,-1,1497,1107,0,0
280,-83,0,0,0,0,0,0,0,0,0,-1,1504,1107,0,0
287,-83,0,0,0,0,0,0,0,0,0,-1,1511,1107,0,0
294,-83,0,0,0,0,0,0,0,0,0,-1,1518,1107,0,0
301,-83,0,0,0,0,0,0,0,0,0,-1,1525,1107,0,0
308,-83,0,0,0,0,0,0,0,0,0,-1,1532,1107,0,0
315,-83,0,0,0,0,0,0,0,0,0,-1,1539,1107,0,0
322,-83,0,0,0,0,0,0,0,0,0,-1,1546,1107,0,0
329,-83,0,0,0,0,0,0,0,0,0,-1,1553,1107,0,0
336,-83,0,0,0,0,0,0,0,0,0,-1,1560,1107,0,0
343,-83,0,0,0,0,0,0,0,0,0,-1,1567,1107,0,0
350,-83,0,0,0,0,0,0,0,0,0,-1,1574,1107,0,0
357,-83,0,0,0,0,0,0,0,0,0,-1,1581,1107,0,0
364,-83,0,0,0,0,0,0,0,0,0,-1,1588,1107,0,0
371,-83,0,0,0,0,0,0,0,0,0,-1,1595,1107,0,0
378,-83,0,0,0,0,0,0,0,0,0,-1,1602,1107,0,0
385,-83,0,0,0,0,0,0,0,0,0,-1,1609,1107,0,0
392,-83,0,0,0,0,0,0,0,0,0,-1,1616,1107,0,0
399,-83,0,0,0,0,0,0,0,0,0,-1,1623,1107,0,0
406,-83,0,0,0,0,0,0,0,0,0,-1,1630,1107,0,0
413,-83,0,0,0,0,0,0,0,0,0,-1,1637,1107,0,0
420,-83,0,0,0,0,0,0,0,0,0,-1,1644,1107,0,0
427,-83,0,0,0,0,0,0,0,0,0,-1,1651,1107,0,0
434,-83,0,0,0,0,0,0,0,0,0,-1,1658,1107,0,0
441,-83,0,0,0,0,0,0,0,0,0,-1,1665,1107,0,0
448,-83,0,0,0,0,0,0,0,0,0,-1,1672,1107,0,0
455,-83,0,0,0,0,0,0,0,0,0,-1,1679,1107,0,0
462,-83,0,0,0,0,0,0,0,0,0,-1,1686,1107,0,0
469,-83,0,0,0,0,0,0,0,0,0,-1,1693,1107,0,0
476,-83,0,0,0,0,0,0,0,0,0,-1,1700,1107,0,0
483,-83,0,0,0,0,0,0,0,0,0,-1,1707,1107,0,0
490,-83,0,0,0,0,0,0,0,0,0,-1,1714,1107,0,0
497,-83,0,0,0,0,0,0,0,0,0,-1,1721,1107,0,0
504,-83,0,0,0,0,0,0,0,0,0,-1,1728,1107,0,0
511,-83,0,0,0,0,0,0,0,0,0,-1,1735,1107,0,0
518,-83,0,0,0,0,0,0,0,0,0,-1,1742,1107,0,0
525,-83,0,0,0,0,0,0,0,0,0,-1,1749,1107,0,0
532,-83,0,0,0,0,0,0,0,0,0,-1,1756,1107,0,0
539,-83,0,0,0,0,0,0,0,0,0,-1,1763,1107,0,0
546,-83,0,0,0,0,0,0,0,0,0,-1,1770,1107,0,0
553,-83,0,0,0,0,0,0,0,0,0,-1,1777,1107,0,0
560,-83,0,0,0,0,0,0,0,0,0,-1,1784,1107,0,0
567,-83,0,0,0,0,0,0,0,0,0,-1,1791,1107,0,0
574,-83,0,0,0,0,0,0,0,0,0,-1,1798,1107,0,0
581,-83,0,0,0,0,0,0,0,0,0,-1,1805,1107,0,0
588,-83,0,0,0,0,0,0,0,0,0,-1,1812,1107,0,0
595,-83,0,0,0,0,0,0,0,0,0,-1,1819,1107,0,0
602,-83,0,0,0,0,0,0,0,0,0,-1,1826,1107,0,0
609,-83,0,0,0,0,0,0,0,0,0,-1,1833,1107,0,0
616,-83,0,0,0,0,0,0,0,0,0,-1,1840,1107,0,0
623,-83,0,0,0,0,0,0,0,0,0,-1,1847,1107,0,0
630,-83,0,0,0,0,0,0,0,0,0,-1,1854,1107,0,0
637,-83,0,0,0,0,0,0,0,0,0,-1,1861,1107,0,0
644,-83,228.05,8.83557,0,0,0,0,0,0,0,-1,1868,1107,228.05,-8.8356
651,-83,228.178,8.7677,0,0,0,0,0,0,0,-1,1875,1107,228.178,-8.76766
658,-83,228.133,8.80481,0,0,0,0,0,0,0,-1,1882,1107,228.133,-8.80483
665,-83,228.036,8.64795,0,0,0,0,0,0,0,-1,1889,1107,228.036,-8.64796
672,-83,228.004,8.83606,0,0,0,0,0,0,0,-1,1896,1107,228.004,-8.836
679,-83,228.071,8.95154,0,0,0,0,0,0,0,-1,1903,1107,228.071,-8.95159
686,-83,228.187,8.92969,0,0,0,0,0,0,0,-1,1910,1107,228.187,-8.92971
693,-83,228.158,8.83923,0,0,0,0,0,0,0,-1,1917,1107,228.158,-8.83928
700,-83,228.071,8.69226,0,0,0,0,0,0,0,-1,1924,1107,228.071,-8.69226
707,-83,228.063,8.65063,0,0,0,0,0,0,0,-1,1931,1107,228.063,-8.6506
714,-83,228.171,8.56433,0,0,0,0,0,0,0,-1,1938,1107,228.171,-8.56434
721,-83,49.1162,7.36719,0,0,0,0,0,0,0,-1,1945,1107,49.1162,-7.36721
728,-83,66.6315,8.32141,0,0,0,0,0,0,0,-1,1952,1107,66.6314,-8.32147
735,-83,228.609,32.6943,0,0,0,0,0,0,0,-1,1959,1107,228.609,-32.6943
742,-83,230.731,32.1616,0,0,0,0,0,0,0,-1,1966,1107,230.731,-32.1616
749,-83,230.674,31.8672,0,0,0,0,0,0,0,-1,1973,1107,230.674,-31.8672
756,-83,230.565,31.2916,-0.0193788,0.0250011,0.00390044,0.0253413,-0.019719,1.4838,0.026083,0.0255612,1980,1107,230.565,-31.2916
763,-83,230.429,30.8444,-0.0237224,0.034841,0.00328969,0.0350252,-0.0239066,1.51486,0.0342256,0.0187594,1987,1107,230.429,-30.8443
770,-83,230.172,30.5837,-0.0281646,0.044688,0.00279925,0.0447954,-0.028272,1.53245,0.0425435,0.0253651,1994,1107,230.172,-30.5837
777,-83,229.67,30.2546,-0.0326186,0.0545638,0.00239976,0.0546298,-0.0326846,1.5433,0.050939,0.0372903,2001,1107,229.67,-30.2546
784,-83,229.176,29.9099,0,0,0,0,0,0,0,-1,2008,1107,229.176,-29.9099
791,-83,203.463,30.1829,0,0,0,0,0,0,0,-1,2015,1107,203.463,-30.1829
798,-83,131.871,16.2344,0,0,0,0,0,0,0,-1,2022,1107,131.871,-16.2344
805,-83,124.276,12.3838,0,0,0,0,0,0,0,-1,2029,1107,124.276,-12.3837
812,-83,124.219,11.7633,0,0,0,0,0,0,0,-1,2036,1107,124.219,-11.7633
-700,-90,0,0,0,0,0,0,0,0,0,-1,524,1114,0,0
-693,-90,-90.692,3.47388,0,0,0,0,0,0,0,-1,531,1114,-90.692,-3.4739
-686,-90,-90.7303,5.27307,0,0,0,0,0,0,0,-1,538,1114,-90.7303,-5.27313
-679,-90,-90.8391,6.87366,0,0,0,0,0,0,0,-1,545,1114,-90.8391,-6.8736
-672,-90,-90.992,7.98755,0,0,0,0,0,0,0,-1,552,1114,-90.9921,-7.98753
-665,-90,-90.9703,9.08142,0,0,0,0,0,0,0,-1,559,1114,-90.9703,-9.08142
-658,-90,-91.029,9.63928,0,0,0,0,0,0,0,-1,566,1114,-91.029,-9.63924
-651,-90,-221.663,28.2145,0,0,0,0,0,0,0,-1,573,1114,-221.663,-28.2145
-644,-90,-222.58,29.4099,0,0,0,0,0,0,0,-1,580,1114,-222.58,-29.4099
-637,-90,-222.613,29.6355,-0.0156121,0.0426007,-0.00526965,0.0430739,-0.0160853,-1.48124,0.0353204,0.0273027,587,1114,-222.613,-29.6356
-630,-90,-222.716,30.1079,-0.0133414,0.0367699,-0.00345088,0.0370064,-0.0135779,-1.50236,0.030231,0.0234563,594,1114,-222.716,-30.1079
-623,-90,-222.817,30.5515,-0.010863,0.0306357,-0.00177464,0.0307115,-0.0109387,-1.52814,0.0249336,0.0233517,601,1114,-222.817,-30.5516
-616,-90,-222.938,30.9784,-0.0082207,0.0242587,-0.000249427,0.0242606,-0.00822262,-1.56312,0.0195013,0.0200556,608,1114,-222.938,-30.9784
-609,-90,-222.959,31.3965,-0.00545744,0.0176952,0.00111726,0.017749,-0.00551123,1.52269,0.0140352,0.0325204,615,1114,-222.959,-31.3964
-602,-90,-223.07,31.8176,-0.00261501,0.0109986,0.00231864,0.0113827,-0.00299908,1.40664,0.00876096,0.0288542,622,1114,-223.07,-31.8177
-595,-90,-222.969,32.2759,0,0,0,0,0,0,0,-1,629,1114,-222.969,-32.2759
-588,-90,-220.053,32.2579,0,0,0,0,0,0,0,-1,636,1114,-220.053,-32.2579
-581,-90,-72.1534,0.511597,0,0,0,0,0,0,0,-1,643,1114,-72.1535,-0.511617
-574,-90,-72.1114,0.455933,0,0,0,0,0,0,0,-1,650,1114,-72.1114,-0.455892
-567,-90,-71.9807,0.329224,0,0,0,0,0,0,0,-1,657,1114,-71.9807,-0.329208
-560,-90,-71.8557,0.221558,0,0,0,0,0,0,0,-1,664,1114,-71.8556,-0.221563
-553,-90,-72.0052,0.168823,0,0,0,0,0,0,0,-1,671,1114,-72.0052,-0.16887
-546,-90,-72.0448,0.128662,0,0,0,0,0,0,0,-1,678,1114,-72.0448,-0.128629
-539,-90,-72.0883,0.242065,0,0,0,0,0,0,0,-1,685,1114,-72.0882,-0.242084
-532,-90,-72.1111,0.248169,0,0,0,0,0,0,0,-1,692,1114,-72.1112,-0.248142
-525,-90,0,0,0,0,0,0,0,0,0,-1,699,1114,0,0
-518,-90,0,0,0,0,0,0,0,0,0,-1,706,1114,0,0
-511,-90,0,0,0,0,0,0,0,0,0,-1,713,1114,0,0
-504,-90,0,0,0,0,0,0,0,0,0,-1,720,1114,0,0
-497,-90,0,0,0,0,0,0,0,0,0,-1,727,1114,0,0
-490,-90,0,0,0,0,0,0,0,0,0,-1,734,1114,0,0
-483,-90,0,0,0,0,0,0,0,0,0,-1,741,1114,0,0
-476,-90,0,0,0,0,0,0,0,0,0,-1,748,1114,0,0
-469,-90,0,0,0,0,0,0,0,0,0,-1,755,1114,0,0
-462,-90,0,0,0,0,0,0,0,0,0,-1,762,1114,0,0
-455,-90,0,0,0,0,0,0,0,0,0,-1,769,1114,0,0
-448,-90,0,0,0,0,0,0,0,0,0,-1,776,1114,0,0
-441,-90,0,0,0,0,0,0,0,0,0,-1,783,1114,0,0
-434,-90,0,0,0,0,0,0,0,0,0,-1,790,1114,0,0
-427,-90,0,0,0,0,0,0,0,0,0,-1,797,1114,0,0
-420,-90,0,0,0,0,0,0,0,0,0,-1,804,1114,0,0
-413,-90,0,0,0,0,0,0,0,0,0,-1,811,1114,0,0
-406,-90,0,0,0,0,0,0,0,0,0,-1,818,1114,0,0
-399,-90,0,0,0,0,0,0,0,0,0,-1,825,1114,0,0
-392,-90,0,0,0,0,0,0,0,0,0,-1,832,1114,0,0
-385,-90,0,0,0,0,0,0,0,0,0,-1,839,1114,0,0
-378,-90,0,0,0,0,0,0,0,0,0,-1,846,1114,0,0
-371,-90,0,0,0,0,0,0,0,0,0,-1,853,1114,0,0
-364,-90,0,0,0,0,0,0,0,0,0,-1,860,1114,0,0
-357,-90,0,0,0,0,0,0,0,0,0,-1,867,1114,0,0
-350,-90,0,0,0,0,0,0,0,0,0,-1,874,1114,0,0
-343,-90,0,0,0,0,0,0,0,0,0,-1,881,1114,0,0
-336,-90,0,0,0,0,0,0,0,0,0,-1,888,1114,0,0
-329,-90,0,0,0,0,0,0,0,0,0,-1,895,1114,0,0
-322,-90,0,0,0,0,0,0,0,0,0,-1,902,1114,0,0
-315,-90,0,0,0,0,0,0,0,0,0,-1,909,1114,0,0
-308,-90,0,0,0,0,0,0,0,0,0,-1,916,1114,0,0
-301,-90,0,0,0,0,0,0,0,0,0,-1,923,1114,0,0
-294,-90,0,0,0,0,0,0,0,0,0,-1,930,1114,0,0
-287,-90,0,0,0,0,0,0,0,0,0,-1,937,1114,0,0
-280,-90,0,0,0,0,0,0,0,0,0,-1,944,1114,0,0
-273,-90,0,0,0,0,0,0,0,0,0,-1,951,1114,0,0
-266,-90,0,0,0,0,0,0,0,0,0,-1,958,1114,0,0
-259,-90,0,0,0,0,0,0,0,0,0,-1,965,1114,0,0
-252,-90,0,0,0,0,0,0,0,0,0,-1,972,1114,0,0
-245,-90,0,0,0,0,0,0,0,0,0,-1,979,1114,0,0
-238,-90,0,0,0,0,0,0,0,0,0,-1,986,1114,0,0
-231,-90,0,0,0,0,0,0,0,0,0,-1,993,1114,0,0
-224,-90,0,0,0,0,0,0,0,0,0,-1,1000,1114,0,0
-217,-90,0,0,0,0,0,0,0,0,0,-1,1007,1114,0,0
-210,-90,0,0,0,0,0,0,0,0,0,-1,1014,1114,0,0
-203,-90,0,0,0,0,0,0,0,0,0,-1,1021,1114,0,0
-196,-90,0,0,0,0,0,0,0,0,0,-1,1028,1114,0,0
-189,-90,0,0,0,0,0,0,0,0,0,-1,1035,1114,0,0
-182,-90,0,0,0,0,0,0,0,0,0,-1,1042,1114,0,0
-175,-90,0,0,0,0,0,0,0,0,0,-1,1049,1114,0,0
-168,-90,0,0,0,0,0,0,0,0,0,-1,1056,1114,0,0
-161,-90,0,0,0,0,0,0,0,0,0,-1,1063,1114,0,0
-154,-90,0,0,0,0,0,0,0,0,0,-1,1070,1114,0,0
-147,-90,0,0,0,0,0,0,0,0,0,-1,1077,1114,0,0
-140,-90,0,0,0,0,0,0,0,0,0,-1,1084,1114,0,0
-133,-90,0,0,0,0,0,0,0,0,0,-1,1091,1114,0,0
-126,-90,0,0,0,0,0,0,0,0,0,-1,1098,1114,0,0
-119,-90,0,0,0,0,0,0,0,0,0,-1,1105,1114,0,0
-112,-90,0,0,0,0,0,0,0,0,0,-1,1112,1114,0,0
-105,-90,0,0,0,0,0,0,0,0,0,-1,1119,1114,0,0
-98,-90,0,0,0,0,0,0,0,0,0,-1,1126,1114,0,0
-91,-90,0,0,0,0,0,0,0,0,0,-1,1133,1114,0,0
-84,-90,0,0,0,0,0,0,0,0,0,-1,1140,1114,0,0
-77,-90,0,0,0,0,0,0,0,0,0,-1,1147,1114,0,0
-70,-90,0,0,0,0,0,0,0,0,0,-1,1154,1114,0,0
-63,-90,0,0,0,0,0,0,0,0,0,-1,1161,1114,0,0
-56,-90,0,0,0,0,0,0,0,0,0,-1,1168,1114,0,0
-49,-90,0,0,0,0,0,0,0,0,0,-1,1175,1114,0,0
-42,-90,0,0,0,0,0,0,0,0,0,-1,1182,1114,0,0
-35,-90,0,0,0,0,0,0,0,0,0,-1,1189,1114,0,0
-28,-90,0,0,0,0,0,0,0,0,0,-1,1196,1114,0,0
-21,-90,0,0,0,0,0,0,0,0,0,-1,1203,1114,0,0
-14,-90,0,0,0,0,0,0,0,0,0,-1,1210,1114,0,0
-7,-90,0,0,0,0,0,0,0,0,0,-1,1217,1114,0,0
0,-90,0,0,0,0,0,0,0,0,0,-1,1224,1114,0,0
7,-90,0,0,0,0,0,0,0,0,0,-1,1231,1114,0,0
14,-90,0,0,0,0,0,0,0,0,0,-1,1238,1114,0,0
21,-90,0,0,0,0,0,0,0,0,0,-1,1245,1114,0,0
28,-90,0,0,0,0,0,0,0,0,0,-1,1252,1114,0,0
35,-90,0,0,0,0,0,0,0,0,0,-1,1259,1114,0,0
42,-90,0,0,0,0,0,0,0,0,0,-1,1266,1114,0,0
49,-90,0,0,0,0,0,0,0,0,0,-1,1273,1114,0,0
56,-90,0,0,0,0,0,0,0,0,0,-1,1280,1114,0,0
63,-90,0,0,0,0,0,0,0,0,0,-1,1287,1114,0,0
70,-90,0,0,0,0,0,0,0,0,0,-1,1294,1114,0,0
77,-90,0,0,0,0,0,0,0,0,0,-1,1301,1114,0,0
84,-90,0,0,0,0,0,0,0,0,0,-1,1308,1114,0,0
91,-90,0,0,0,0,0,0,0,0,0,-1,1315,1114,0,0
98,-90,0,0,0,0,0,0,0,0,0,-1,1322,1114,0,0
105,-90,0,0,0,0,0,0,0,0,0,-1,1329,1114,0,0
112,-90,0,0,0,0,0,0,0,0,0,-1,1336,1114,0,0
119,-90,0,0,0,0,0,0,0,0,0,-1,1343,1114,0,0
126,-90,0,0,0,0,0,0,0,0,0,-1,1350,1114,0,0
133,-90,0,0,0,0,0,0,0,0,0,-1,1357,1114,0,0
140,-90,0,0,0,0,0,0,0,0,0,-1,1364,1114,0,0
147,-90,0,0,0,0,0,0,0,0,0,-1,1371,1114,0,0
154,-90,0,0,0,0,0,0,0,0,0,-1,1378,1114,0,0
161,-90,0,0,0,0,0,0,0,0,0,-1,1385,1114,0,0
168,-90,0,0,0,0,0,0,0,0,0,-1,1392,1114,0,0
175,-90,0,0,0,0,0,0,0,0,0,-1,1399,1114,0,0
182,-90,0,0,0,0,0,0,0,0,0,-1,1406,1114,0,0
189,-90,0,0,0,0,0,0,0,0,0,-1,1413,1114,0,0
196,-90,0,0,0,0,0,0,0,0,0,-1,1420,1114,0,0
203,-90,0,0,0,0,0,0,0,0,0,-1,1427,1114,0,0
210,-90,0,0,0,0,0,0,0,0,0,-1,1434,1114,0,0
217,-90,0,0,0,0,0,0,0,0,0,-1,1441,1114,0,0
224,-90,0,0,0,0,0,0,0,0,0,-1,1448,1114,0,0
231,-90,0,0,0,0,0,0,0,0,0,-1,1455,1114,0,0
238,-90,0,0,0,0,0,0,0,0,0,-1,1462,1114,0,0
245,-90,0,0,0,0,0,0,0,0,0,-1,1469,1114,0,0
252,-90,0,0,0,0,0,0,0,0,0,-1,1476,1114,0,0
259,-90,0,0,0,0,0,0,0,0,0,-1,1483,1114,0,0
266,-90,0,0,0,0,0,0,0,0,0,-1,1490,1114,0,0
273,-90,0,0,0,0,0,0,0,0,0,-1,1497,1114,0,0
280,-90,0,0,0,0,0,0,0,0,0,-1,1504,1114,0,0
287,-90,0,0,0,0,0,0,0,0,0,-1,1511,1114,0,0
294,-90,0,0,0,0,0,0,0,0,0,-1,1518,1114,0,0
301,-90,0,0,0,0,0,0,0,0,0,-1,1525,1114,0,0
308,-90,0,0,0,0,0,0,0,0,0,-1,1532,1114,0,0
315,-90,0,0,0,0,0,0,0,0,0,-1,1539,1114,0,0
322,-90,0,0,0,0,0,0,0,0,0,-1,1546,1114,0,0
329,-90,0,0,0,0,0,0,0,0,0,-1,1553,1114,0,0
336,-90,0,0,0,0,0,0,0,0,0,-1,1560,1114,0,0
343,-90,0,0,0,0,0,0,0,0,0,-1,1567,1114,0,0
350,-90,0,0,0,0,0,0,0,0,0,-1,1574,1114,0,0
357,-90,0,0,0,0,0,0,0,0,0,-1,1581,1114,0,0
364,-90,0,0,0,0,0,0,0,0,0,-1,1588,1114,0,0
371,-90,0,0,0,0,0,0,0,0,0,-1,1595,1114,0,0
378,-90,0,0,0,0,0,0,0,0,0,-1,1602,1114,0,0
385,-90,0,0,0,0,0,0,0,0,0,-1,1609,1114,0,0
392,-90,0,0,0,0,0,0,0,0,0,-1,1616,1114,0,0
399,-90,0,0,0,0,0,0,0,0,0,-1,1623,1114,0,0
406,-90,0,0,0,0,0,0,0,0,0,-1,1630,1114,0,0
413,-90,0,0,0,0,0,0,0,0,0,-1,1637,1114,0,0
420,-90,0,0,0,0,0,0,0,0,0,-1,1644,1114,0,0
427,-90,0,0,0,0,0,0,0,0,0,-1,1651,1114,0,0
434,-90,0,0,0,0,0,0,0,0,0,-1,1658,1114,0,0
441,-90,0,0,0,0,0,0,0,0,0,-1,1665,1114,0,0
448,-90,0,0,0,0,0,0,0,0,0,-1,1672,1114,0,0
455,-90,0,0,0,0,0,0,0,0,0,-1,1679,1114,0,0
462,-90,0,0,0,0,0,0,0,0,0,-1,1686,1114,0,0
469,-90,0,0,0,0,0,0,0,0,0,-1,1693,1114,0,0
476,-90,0,0,0,0,0,0,0,0,0,-1,1700,1114,0,0
483,-90,0,0,0,0,0,0,0,0,0,-1,1707,1114,0,0
490,-90,0,0,0,0,0,0,0,0,0,-1,1714,1114,0,0
497,-90,0,0,0,0,0,0,0,0,0,-1,1721,1114,0,0
504,-90,0,0,0,0,0,0,0,0,0,-1,1728,1114,0,0
511,-90,0,0,0,0,0,0,0,0,0,-1,1735,1114,0,0
518,-90,0,0,0,0,0,0,0,0,0,-1,1742,1114,0,0
525,-90,0,0,0,0,0,0,0,0,0,-1,1749,1114,0,0
532,-90,0,0,0,0,0,0,0,0,0,-1,1756,1114,0,0
539,-90,0,0,0,0,0,0,0,0,0,-1,1763,1114,0,0
546,-90,0,0,0,0,0,0,0,0,0,-1,1770,1114,0,0
553,-90,0,0,0,0,0,0,0,0,0,-1,1777,1114,0,0
560,-90,0,0,0,0,0,0,0,0,0,-1,1784,1114,0,0
567,-90,0,0,0,0,0,0,0,0,0,-1,1791,1114,0,0
574,-90,0,0,0,0,0,0,0,0,0,-1,1798,1114,0,0
581,-90,0,0,0,0,0,0,0,0,0,-1,1805,1114,0,0
588,-90,0,0,0,0,0,0,0,0,0,-1,1812,1114,0,0
595,-90,0,0,0,0,0,0,0,0,0,-1,1819,1114,0,0
602,-90,0,0,0,0,0,0,0,0,0,-1,1826,1114,0,0
609,-90,0,0,0,0,0,0,0,0,0,-1,1833,1114,0,0
616,-90,0,0,0,0,0,0,0,0,0,-1,1840,1114,0,0
623,-90,0,0,0,0,0,0,0,0,0,-1,1847,1114,0,0
630,-90,0,0,0,0,0,0,0,0,0,-1,1854,1114,0,0
637,-90,0,0,0,0,0,0,0,0,0,-1,1861,1114,0,0
644,-90,227.909,8.81287,0,0,0,0,0,0,0,-1,1868,1114,227.909,-8.81281
651,-90,227.934,8.61768,0,0,0,0,0,0,0,-1,1875,1114,227.934,-8.61769
658,-90,227.909,8.69434,0,0,0,0,0,0,0,-1,1882,1114,227.909,-8.69435
665,-90,227.969,8.72839,0,0,0,0,0,0,0,-1,1889,1114,227.969,-8.72838
672,-90,228.059,8.85413,0,0,0,0,0,0,0,-1,1896,1114,228.059,-8.85409
679,-90,228.034,9.01318,0,0,0,0,0,0,0,-1,1903,1114,228.034,-9.01321
686,-90,228.092,8.94031,0,0,0,0,0,0,0,-1,1910,1114,228.092,-8.94032
693,-90,228.039,8.80823,0,0,0,0,0,0,0,-1,1917,1114,228.039,-8.80823
700,-90,228.063,8.81409,0,0,0,0,0,0,0,-1,1924,1114,228.062,-8.81413
707,-90,228.11,8.703,0,0,0,0,0,0,0,-1,1931,1114,228.11,-8.70295
714,-90,209.027,8.35974,0,0,0,0,0,0,0,-1,1938,1114,209.027,-8.35976
721,-90,63.521,8.76965,0,0,0,0,0,0,0,-1,1945,1114,63.521,-8.7697
728,-90,135.37,21.8513,0,0,0,0,0,0,0,-1,1952,1114,135.37,-21.8513
735,-90,228.909,32.5873,0,0,0,0,0,0,0,-1,1959,1114,228.909,-32.5873
742,-90,230.04,31.5721,0,0,0,0,0,0,0,-1,1966,1114,230.04,-31.5721
749,-90,230.251,31.3298,-0.0151648,0.0162704,0.00473148,0.0169671,-0.0158616,1.4246,0.0189572,0.033699,1973,1114,230.251,-31.3298
756,-90,230.273,30.9752,-0.0195652,0.0263287,0.00386918,0.0266526,-0.0198892,1.48728,0.0269653,0.0261323,1980,1114,230.273,-30.9752
763,-90,230.067,30.578,-0.0241815,0.0363698,0.00316263,0.0365345,-0.0243462,1.51875,0.0353835,0.0208558,1987,1114,230.067,-30.578
770,-90,229.853,30.1106,-0.0289521,0.0464131,0.00257749,0.0465011,-0.0290401,1.53665,0.0440004,0.0315436,1994,1114,229.853,-30.1106
777,-90,229.416,29.8489,-0.033804,0.0564841,0.00208091,0.056532,-0.0338519,1.54777,0.052728,0.0370792,2001,1114,229.416,-29.8488
784,-90,229.116,29.416,0,0,0,0,0,0,0,-1,2008,1114,229.116,-29.4161
791,-90,187.555,29.4889,0,0,0,0,0,0,0,-1,2015,1114,187.555,-29.4889
798,-90,134.395,15.3065,0,0,0,0,0,0,0,-1,2022,1114,134.394,-15.3065
805,-90,131.621,15.2422,0,0,0,0,0,0,0,-1,2029,1114,131.621,-15.2421
812,-90,123.027,11.3015,0,0,0,0,0,0,0,-1,2036,1114,123.027,-11.3016
-700,-97,0,0,0,0,0,0,0,0,0,-1,524,1121,0,0
-693,-97,-89.9478,2.73914,0,0,0,0,0,0,0,-1,531,1121,-89.9478,-2.73918
-686,-97,-89.8224,4.55396,0,0,0,0,0,0,0,-1,538,1121,-89.8224,-4.55392
-679,-97,-89.7606,6.30127,0,0,0,0,0,0,0,-1,545,1121,-89.7606,-6.3013
-672,-97,-89.9535,7.65637,0,0,0,0,0,0,0,-1,552,1121,-89.9534,-7.65637
-665,-97,-90.0474,8.70679,0,0,0,0,0,0,0,-1,559,1121,-90.0474,-8.7068
-658,-97,-90.24,9.39502,0,0,0,0,0,0,0,-1,566,1121,-90.24,-9.39496
-651,-97,-222.062,28.21,0,0,0,0,0,0,0,-1,573,1121,-222.062,-28.21
-644,-97,-222.157,28.6893,-0.0176615,0.047477,-0.00886359,0.0486615,-0.018846,-1.43794,0.0402227,0.0258617,580,1121,-222.157,-28.6893
-637,-97,-222.136,29.3088,-0.0159476,0.0426967,-0.00662453,0.0434357,-0.0166866,-1.4597,0.0358385,0.0251927,587,1121,-222.136,-29.3088
-630,-97,-222.205,29.8873,-0.0139619,0.0374903,-0.00451532,0.0378836,-0.0143551,-1.48392,0.0311631,0.0207967,594,1121,-222.205,-29.8873
-623,-97,-222.385,30.2419,-0.0117578,0.0319336,-0.00254611,0.0320815,-0.0119057,-1.51278,0.0262714,0.0280243,601,1121,-222.385,-30.242
-616,-97,-222.51,30.801,-0.0093888,0.0260963,-0.000725682,0.0261111,-0.00940364,-1.55036,0.0212473,0.0252763,608,1121,-222.51,-30.801
-609,-97,-222.566,31.3539,-0.00690869,0.0200425,0.000938263,0.0200751,-0.00694131,1.53604,0.0162007,0.0358504,615,1121,-222.566,-31.3539
-602,-97,-222.729,31.7697,-0.0043717,0.0138324,0.0024388,0.0141534,-0.00469276,1.4399,0.0113286,0.0376109,622,1121,-222.729,-31.7697
-595,-97,-222.555,32.2153,0,0,0,0,0,0,0,-1,629,1121,-222.555,-32.2153
-588,-97,-219.92,32.4205,0,0,0,0,0,0,0,-1,636,1121,-219.92,-32.4205
-581,-97,-51.2355,3.23926,0,0,0,0,0,0,0,-1,643,1121,-51.2355,-3.23926
-574,-97,-72.1288,0.532715,0,0,0,0,0,0,0,-1,650,1121,-72.1289,-0.532768
-567,-97,-72.0277,0.395386,0,0,0,0,0,0,0,-1,657,1121,-72.0277,-0.395328
-560,-97,-71.9832,0.468018,0,0,0,0,0,0,0,-1,664,1121,-71.9832,-0.467976
-553,-97,-72.03,0.328735,0,0,0,0,0,0,0,-1,671,1121,-72.03,-0.328706
-546,-97,-72.0363,0.304321,0,0,0,0,0,0,0,-1,678,1121,-72.0362,-0.30431
-539,-97,-72.1473,0.396973,0,0,0,0,0,0,0,-1,685,1121,-72.1474,-0.396945
-532,-97,-72.1843,0.338135,0,0,0,0,0,0,0,-1,692,1121,-72.1843,-0.338076
-525,-97,0,0,0,0,0,0,0,0,0,-1,699,1121,0,0
-518,-97,0,0,0,0,0,0,0,0,0,-1,706,1121,0,0
-511,-97,0,0,0,0,0,0,0,0,0,-1,713,1121,0,0
-504,-97,0,0,0,0,0,0,0,0,0,-1,720,1121,0,0
-497,-97,0,0,0,0,0,0,0,0,0,-1,727,1121,0,0
-490,-97,0,0,0,0,0,0,0,0,0,-1,734,1121,0,0
-483,-97,0,0,0,0,0,0,0,0,0,-1,741,1121,0,0
-476,-97,0,0,0,0,0,0,0,0,0,-1,748,1121,0,0
-469,-97,0,0,0,0,0,0,0,0,0,-1,755,1121,0,0
-462,-97,0,0,0,0,0,0,0,0,0,-1,762,1121,0,0
-455,-97,0,0,0,0,0,0,0,0,0,-1,769,1121,0,0
-448,-97,0,0,0,0,0,0,0,0,0,-1,776,1121,0,0
-441,-97,0,0,0,0,0,0,0,0,0,-1,783,1121,0,0
-434,-97,0,0,0,0,0,0,0,0,0,-1,790,1121,0,0
-427,-97,0,0,0,0,0,0,0,0,0,-1,797,1121,0,0
-420,-97,0,0,0,0,0,0,0,0,0,-1,804,1121,0,0
-413,-97,0,0,0,0,0,0,0,0,0,-1,811,1121,0,0
-406,-97,0,0,0,0,0,0,0,0,0,-1,818,1121,0,0
-399,-97,0,0,0,0,0,0,0,0,0,-1,825,1121,0,0
-392,-97,0,0,0,0,0,0,0,0,0,-1,832,1121,0,0
-385,-97,0,0,0,0,0,0,0,0,0,-1,839,1121,0,0
-378,-97,0,0,0,0,0,0,0,0,0,-1,846,1121,0,0
-371,-97,0,0,0,0,0,0,0,0,0,-1,853,1121,0,0
-364,-97,0,0,0,0,0,0,0,0,0,-1,860,1121,0,0
-357,-97,0,0,0,0,0,0,0,0,0,-1,867,1121,0,0
-350,-97,0,0,0,0,0,0,0,0,0,-1,874,1121,0,0
-343,-97,0,0,0,0,0,0,0,0,0,-1,881,1121,0,0
-336,-97,0,0,0,0,0,0,0,0,0,-1,888,1121,0,0
-329,-97,0,0,0,0,0,0,0,0,0,-1,895,1121,0,0
-322,-97,0,0,0,0,0,0,0,0,0,-1,902,1121,0,0
-315,-97,0,0,0,0,0,0,0,0,0,-1,909,1121,0,0
-308,-97,0,0,0,0,0,0,0,0,0,-1,916,1121,0,0
-301,-97,0,0,0,0,0,0,0,0,0,-1,923,1121,0,0
-294,-97,0,0,0,0,0,0,0,0,0,-1,930,1121,0,0
-287,-97,0,0,0,0,0,0,0,0,0,-1,937,1121,0,0
-280,-97,0,0,0,0,0,0,0,0,0,-1,944,1121,0,0
-273,-97,0,0,0,0,0,0,0,0,0,-1,951,1121,0,0
-266,-97,0,0,0,0,0,0,0,0,0,-1,958,1121,0,0
-259,-97,0,0,0,0,0,0,0,0,0,-1,965,1121,0,0
-252,-97,0,0,0,0,0,0,0,0,0,-1,972,1121,0,0
-245,-97,0,0,0,0,0,0,0,0,0,-1,979,1121,0,0
-238,-97,0,0,0,0,0,0,0,0,0,-1,986,1121,0,0
-231,-97,0,0,0,0,0,0,0,0,0,-1,993,1121,0,0
-224,-97,0,0,0,0,0,0,0,0,0,-1,1000,1121,0,0
-217,-97,0,0,0,0,0,0,0,0,0,-1,1007,1121,0,0
-210,-97,0,0,0,0,0,0,0,0,0,-1,1014,1121,0,0
-203,-97,0,0,0,0,0,0,0,0,0,-1,1021,1121,0,0
-196,-97,0,0,0,0,0,0,0,0,0,-1,1028,1121,0,0
-189,-97,0,0,0,0,0,0,0,0,0,-1,1035,1121,0,0
-182,-97,0,0,0,0,0,0,0,0,0,-1,1042,1121,0,0
-175,-97,0,0,0,0,0,0,0,0,0,-1,1049,1121,0,0
-168,-97,0,0,0,0,0,0,0,0,0,-1,1056,1121,0,0
-161,-97,0,0,0,0,0,0,0,0,0,-1,1063,1121,0,0
-154,-97,0,0,0,0,0,0,0,0,0,-1,1070,1121,0,0
-147,-97,0,0,0,0,0,0,0,0,0,-1,1077,1121,0,0
-140,-97,0,0,0,0,0,0,0,0,0,-1,1084,1121,0,0
-133,-97,0,0,0,0,0,0,0,0,0,-1,1091,1121,0,0
-126,-97,0,0,0,0,0,0,0,0,0,-1,1098,1121,0,0
-119,-97,0,0,0,0,0,0,0,0,0,-1,1105,1121,0,0
-112,-97,0,0,0,0,0,0,0,0,0,-1,1112,1121,0,0
-105,-97,0,0,0,0,0,0,0,0,0,-1,1119,1121,0,0
-98,-97,0,0,0,0,0,0,0,0,0,-1,1126,1121,0,0
-91,-97,0,0,0,0,0,0,0,0,0,-1,1133,1121,0,0
-84,-97,0,0,0,0,0,0,0,0,0,-1,1140,1121,0,0
-77,-97,0,0,0,0,0,0,0,0,0,-1,1147,1121,0,0
-70,-97,0,0,0,0,0,0,0,0,0,-1,1154,1121,0,0
-63,-97,0,0,0,0,0,0,0,0,0,-1,1161,1121,0,0
-56,-97,0,0,0,0,0,0,0,0,0,-1,1168,1121,0,0
-49,-97,0,0,0,0,0,0,0,0,0,-1,1175,1121,0,0
-42,-97,0,0,0,0,0,0,0,0,0,-1,1182,1121,0,0
-35,-97,0,0,0,0,0,0,0,0,0,-1,1189,1121,0,0
-28,-97,0,0,0,0,0,0,0,0,0,-1,1196,1121,0,0
-21,-97,0,0,0,0,0,0,0,0,0,-1,1203,1121,0,0
-14,-97,0,0,0,0,0,0,0,0,0,-1,1210,1121,0,0
-7,-97,0,0,0,0,0,0,0,0,0,-1,1217,1121,0,0
0,-97,0,0,0,0,0,0,0,0,0,-1,1224,1121,0,0
7,-97,0,0,0,0,0,0,0,0,0,-1,1231,1121,0,0
14,-97,0,0,0,0,0,0,0,0,0,-1,1238,1121,0,0
21,-97,0,0,0,0,0,0,0,0,0,-1,1245,1121,0,0
28,-97,0,0,0,0,0,0,0,0,0,-1,1252,1121,0,0
35,-97,0,0,0,0,0,0,0,0,0,-1,1259,1121,0,0
42,-97,0,0,0,0,0,0,0,0,0,-1,1266,1121,0,0
49,-97,0,0,0,0,0,0,0,0,0,-1,1273,1121,0,0
56,-97,0,0,0,0,0,0,0,0,0,-1,1280,1121,0,0
63,-97,0,0,0,0,0,0,0,0,0,-1,1287,1121,0,0
70,-97,0,0,0,0,0,0,0,0,0,-1,1294,1121,0,0
77,-97,0,0,0,0,0,0,0,0,0,-1,1301,1121,0,0
84,-97,0,0,0,0,0,0,0,0,0,-1,1308,1121,0,0
91,-97,0,0,0,0,0,0,0,0,0,-1,1315,1121,0,0
98,-97,0,0,0,0,0,0,0,0,0,-1,1322,1121,0,0
105,-97,0,0,0,0,0,0,0,0,0,-1,1329,1121,0,0
112,-97,0,0,0,0,0,0,0,0,0,-1,1336,1121,0,0
119,-97,0,0,0,0,0,0,0,0,0,-1,1343,1121,0,0
126,-97,0,0,0,0,0,0,0,0,0,-1,1350,1121,0,0
133,-97,0,0,0,0,0,0,0,0,0,-1,1357,1121,0,0
140,-97,0,0,0,0,0,0,0,0,0,-1,1364,1121,0,0
147,-97,0,0,0,0,0,0,0,0,0,-1,1371,1121,0,0
154,-97,0,0,0,0,0,0,0,0,0,-1,1378,1121,0,0
161,-97,0,0,0,0,0,0,0,0,0,-1,1385,1121,0,0
168,-97,0,0,0,0,0,0,0,0,0,-1,1392,1121,0,0
175,-97,0,0,0,0,0,0,0,0,0,-1,1399,1121,0,0
182,-97,0,0,0,0,0,0,0,0,0,-1,1406,1121,0,0
189,-97,0,0,0,0,0,0,0,0,0,-1,1413,1121,0,0
196,-97,0,0,0,0,0,0,0,0,0,-1,1420,1121,0,0
203,-97,0,0,0,0,0,0,0,0,0,-1,1427,1121,0,0
210,-97,0,0,0,0,0,0,0,0,0,-1,1434,1121,0,0
217,-97,0,0,0,0,0,0,0,0,0,-1,1441,1121,0,0
224,-97,0,0,0,0,0,0,0,0,0,-1,1448,1121,0,0
231,-97,0,0,0,0,0,0,0,0,0,-1,1455,1121,0,0
238,-97,0,0,0,0,0,0,0,0,0,-1,1462,1121,0,0
245,-97,0,0,0,0,0,0,0,0,0,-1,1469,1121,0,0
252,-97,0,0,0,0,0,0,0,0,0,-1,1476,1121,0,0
259,-97,0,0,0,0,0,0,0,0,0,-1,1483,1121,0,0
266,-97,0,0,0,0,0,0,0,0,0,-1,1490,1121,0,0
273,-97,0,0,0,0,0,0,0,0,0,-1,1497,1121,0,0
280,-97,0,0,0,0,0,0,0,0,0,-1,1504,1121,0,0
287,-97,0,0,0,0,0,0,0,0,0,-1,1511,1121,0,0
294,-97,0,0,0,0,0,0,0,0,0,-1,1518,1121,0,0
301,-97,0,0,0,0,0,0,0,0,0,-1,1525,1121,0,0
308,-97,0,0,0,0,0,0,0,0,0,-1,1532,1121,0,0
315,-97,0,0,0,0,0,0,0,0,0,-1,1539,1121,0,0
322,-97,0,0,0,0,0,0,0,0,0,-1,1546,1121,0,0
329,-97,0,0,0,0,0,0,0,0,0,-1,1553,1121,0,0
336,-97,0,0,0,0,0,0,0,0,0,-1,1560,1121,0,0
343,-97,0,0,0,0,0,0,0,0,0,-1,1567,1121,0,0
350,-97,0,0,0,0,0,0,0,0,0,-1,1574,1121,0,0
357,-97,0,0,0,0,0,0,0,0,0,-1,1581,1121,0,0
364,-97,0,0,0,0,0,0,0,0,0,-1,1588,1121,0,0
371,-97,0,0,0,0,0,0,0,0,0,-1,1595,1121,0,0
378,-97,0,0,0,0,0,0,0,0,0,-1,1602,1121,0,0
385,-97,0,0,0,0,0,0,0,0,0,-1,1609,1121,0,0
392,-97,0,0,0,0,0,0,0,0,0,-1,1616,1121,0,0
399,-97,0,0,0,0,0,0,0,0,0,-1,1623,1121,0,0
406,-97,0,0,0,0,0,0,0,0,0,-1,1630,1121,0,0
413,-97,0,0,0,0,0,0,0,0,0,-1,1637,1121,0,0
420,-97,0,0,0,0,0,0,0,0,0,-1,1644,1121,0,0
427,-97,0,0,0,0,0,0,0,0,0,-1,1651,1121,0,0
434,-97,0,0,0,0,0,0,0,0,0,-1,1658,1121,0,0
441,-97,0,0,0,0,0,0,0,0,0,-1,1665,1121,0,0
448,-97,0,0,0,0,0,0,0,0,0,-1,1672,1121,0,0
455,-97,0,0,0,0,0,0,0,0,0,-1,1679,1121,0,0
462,-97,0,0,0,0,0,0,0,0,0,-1,1686,1121,0,0
469,-97,0,0,0,0,0,0,0,0,0,-1,1693,1121,0,0
476,-97,0,0,0,0,0,0,0,0,0,-1,1700,1121,0,0
483,-97,0,0,0,0,0,0,0,0,0,-1,1707,1121,0,0
490,-97,0,0,0,0,0,0,0,0,0,-1,1714,1121,0,0
497,-97,0,0,0,0,0,0,0,0,0,-1,1721,1121,0,0
504,-97,0,0,0,0,0,0,0,0,0,-1,1728,1121,0,0
511,-97,0,0,0,0,0,0,0,0,0,-1,1735,1121,0,0
518,-97,0,0,0,0,0,0,0,0,0,-1,1742,1121,0,0
525,-97,0,0,0,0,0,0,0,0,0,-1,1749,1121,0,0
532,-97,0,0,0,0,0,0,0,0,0,-1,1756,1121,0,0
539,-97,0,0,0,0,0,0,0,0,0,-1,1763,1121,0,0
546,-97,0,0,0,0,0,0,0,0,0,-1,1770,1121,0,0
553,-97,0,0,0,0,0,0,0,0,0,-1,1777,1121,0,0
560,-97,0,0,0,0,0,0,0,0,0,-1,1784,1121,0,0
567,-97,0,0,0,0,0,0,0,0,0,-1,1791,1121,0,0
574,-97,0,0,0,0,0,0,0,0,0,-1,1798,1121,0,0
581,-97,0,0,0,0,0,0,0,0,0,-1,1805,1121,0,0
588,-97,0,0,0,0,0,0,0,0,0,-1,1812,1121,0,0
595,-97,0,0,0,0,0,0,0,0,0,-1,1819,1121,0,0
602,-97,0,0,0,0,0,0,0,0,0,-1,1826,1121,0,0
609,-97,0,0,0,0,0,0,0,0,0,-1,1833,1121,0,0
616,-97,0,0,0,0,0,0,0,0,0,-1,1840,1121,0,0
623,-97,0,0,0,0,0,0,0,0,0,-1,1847,1121,0,0
630,-97,0,0,0,0,0,0,0,0,0,-1,1854,1121,0,0
637,-97,0,0,0,0,0,0,0,0,0,-1,1861,1121,0,0
644,-97,227.934,8.9353,0,0,0,0,0,0,0,-1,1868,1121,227.934,-8.93531
651,-97,227.964,8.79968,0,0,0,0,0,0,0,-1,1875,1121,227.964,-8.79968
658,-97,228.002,8.62988,0,0,0,0,0,0,0,-1,1882,1121,228.002,-8.62986
665,-97,228.015,8.60388,0,0,0,0,0,0,0,-1,1889,1121,228.015,-8.60392
672,-97,228.014,8.84985,0,0,0,0,0,0,0,-1,1896,1121,228.014,-8.84986
679,-97,228.085,9.11121,0,0,0,0,0,0,0,-1,1903,1121,228.085,-9.11117
686,-97,228.041,8.93616,0,0,0,0,0,0,0,-1,1910,1121,228.041,-8.93611
693,-97,227.971,8.66919,0,0,0,0,0,0,0,-1,1917,1121,227.971,-8.66924
700,-97,227.925,8.59583,0,0,0,0,0,0,0,-1,1924,1121,227.925,-8.59579
707,-97,228.058,8.61108,0,0,0,0,0,0,0,-1,1931,1121,228.058,-8.61106
714,-97,222.677,8.56311,0,0,0,0,0,0,0,-1,1938,1121,222.676,-8.56317
721,-97,134.605,22.2906,0,0,0,0,0,0,0,-1,1945,1121,134.605,-22.2907
728,-97,229.188,32.2366,0,0,0,0,0,0,0,-1,1952,1121,229.188,-32.2365
735,-97,229.25,32.603,0,0,0,0,0,0,0,-1,1959,1121,229.25,-32.6031
742,-97,229.487,31.7733,-0.011013,0.00757183,0.00596895,0.00932375,-0.0127649,1.28531,0.0128044,0.0369623,1966,1121,229.487,-31.7733
749,-97,229.654,31.2396,-0.0153455,0.0176361,0.00488927,0.0183457,-0.0160551,1.42668,0.0198759,0.0364565,1973,1121,229.654,-31.2396
756,-97,229.716,30.7762,-0.0199352,0.027687,0.00401804,0.0280237,-0.0202719,1.48721,0.0280029,0.0256737,1980,1121,229.716,-30.7762
763,-97,229.503,30.3357,-0.024753,0.0377457,0.00331472,0.037921,-0.0249283,1.51796,0.0365436,0.0340404,1987,1121,229.503,-30.3356
770,-97,229.306,29.8848,-0.0297569,0.0478371,0.00273992,0.0479337,-0.0298535,1.53554,0.045313,0.0326944,1994,1121,229.306,-29.8847
777,-97,229.081,29.4172,-0.0348916,0.0579905,0.00225585,0.0580452,-0.0349464,1.54653,0.054238,0.0378043,2001,1121,229.081,-29.4172
784,-97,228.9,28.8702,0,0,0,0,0,0,0,-1,2008,1121,228.9,-28.8703
791,-97,134.17,15.504,0,0,0,0,0,0,0,-1,2015,1121,134.17,-15.504
798,-97,131.522,15.1385,0,0,0,0,0,0,0,-1,2022,1121,131.522,-15.1386
805,-97,124.571,12.1506,0,0,0,0,0,0,0,-1,2029,1121,124.571,-12.1506
812,-97,126.348,9.70874,0,0,0,0,0,0,0,-1,2036,1121,126.348,-9.70871
-700,-104,0,0,0,0,0,0,0,0,0,-1,524,1128,0,0
-693,-104,-88.4984,2.96033,0,0,0,0,0,0,0,-1,531,1128,-88.4984,-2.96029
-686,-104,-88.6273,4.21045,0,0,0,0,0,0,0,-1,538,1128,-88.6273,-4.21046
-679,-104,-88.796,5.63074,0,0,0,0,0,0,0,-1,545,1128,-88.796,-5.63079
-672,-104,-88.9519,7.09509,0,0,0,0,0,0,0,-1,552,1128,-88.9519,-7.09509
-665,-104,-89.3686,8.08325,0,0,0,0,0,0,0,-1,559,1128,-89.3686,-8.0833
-658,-104,-89.5414,8.89392,0,0,0,0,0,0,0,-1,566,1128,-89.5414,-8.89391
-651,-104,-221.18,28.1085,0,0,0,0,0,0,0,-1,573,1128,-221.18,-28.1085
-644,-104,-221.421,28.652,-0.0171512,0.0468952,-0.0104713,0.0485637,-0.0188198,-1.41278,0.0401474,0.0335389,580,1128,-221.421,-28.652
-637,-104,-221.506,29.1163,-0.015888,0.0429173,-0.00795928,0.0439756,-0.0169462,-1.43861,0.0363088,0.0242554,587,1128,-221.506,-29.1163
-630,-104,-221.643,29.4861,-0.0143178,0.0384519,-0.00556236,0.0390318,-0.0148977,-1.46691,0.0321587,0.0294068,594,1128,-221.643,-29.4861
-623,-104,-221.96,30.046,-0.0124955,0.0335808,-0.00329166,0.0338147,-0.0127294,-1.49984,0.0277762,0.0362163,601,1128,-221.96,-30.046
-616,-104,-222.295,30.6665,-0.0104774,0.0283795,-0.00115701,0.0284139,-0.0105118,-1.54106,0.0232525,0.035969,608,1128,-222.295,-30.6665
-609,-104,-222.306,31.2386,-0.00832165,0.0229179,0.000832695,0.0229401,-0.00834383,1.54417,0.0187056,0.0495889,615,1128,-222.306,-31.2387
-602,-104,-222.252,31.9088,0,0,0,0,0,0,0,-1,622,1128,-222.252,-31.9088
-595,-104,-218.926,32.3644,0,0,0,0,0,0,0,-1,629,1128,-218.926,-32.3643
-588,-104,-213.716,33.4084,0,0,0,0,0,0,0,-1,636,1128,-213.716,-33.4084
-581,-104,-23.9373,2.85864,0,0,0,0,0,0,0,-1,643,1128,-23.9373,-2.85861
-574,-104,-72.0505,0.37915,0,0,0,0,0,0,0,-1,650,1128,-72.0505,-0.379201
-567,-104,-71.9956,0.300293,0,0,0,0,0,0,0,-1,657,1128,-71.9956,-0.300253
-560,-104,-72.1018,0.113281,0,0,0,0,0,0,0,-1,664,1128,-72.1018,-0.113305
-553,-104,-72.0447,0.12207,0,0,0,0,0,0,0,-1,671,1128,-72.0447,-0.122018
-546,-104,-72.1016,0.472168,0,0,0,0,0,0,0,-1,678,1128,-72.1016,-0.472146
-539,-104,-72.235,0.630371,0,0,0,0,0,0,0,-1,685,1128,-72.235,-0.630384
-532,-104,-72.246,0.490479,0,0,0,0,0,0,0,-1,692,1128,-72.246,-0.490481
-525,-104,-80.4556,2.05872,0,0,0,0,0,0,0,-1,699,1128,-80.4555,-2.05875
-518,-104,0,0,0,0,0,0,0,0,0,-1,706,1128,0,0
-511,-104,0,0,0,0,0,0,0,0,0,-1,713,1128,0,0
-504,-104,0,0,0,0,0,0,0,0,0,-1,720,1128,0,0
-497,-104,0,0,0,0,0,0,0,0,0,-1,727,1128,0,0
-490,-104,0,0,0,0,0,0,0,0,0,-1,734,1128,0,0
-483,-104,0,0,0,0,0,0,0,0,0,-1,741,1128,0,0
-476,-104,0,0,0,0,0,0,0,0,0,-1,748,1128,0,0
-469,-104,0,0,0,0,0,0,0,0,0,-1,755,1128,0,0
-462,-104,0,0,0,0,0,0,0,0,0,-1,762,1128,0,0
-455,-104,0,0,0,0,0,0,0,0,0,-1,769,1128,0,0
-448,-104,0,0,0,0,0,0,0,0,0,-1,776,1128,0,0
-441,-104,0,0,0,0,0,0,0,0,0,-1,783,1128,0,0
-434,-104,0,0,0,0,0,0,0,0,0,-1,790,1128,0,0
-427,-104,0,0,0,0,0,0,0,0,0,-1,797,1128,0,0
-420,-104,0,0,0,0,0,0,0,0,0,-1,804,1128,0,0
-413,-104,0,0,0,0,0,0,0,0,0,-1,811,1128,0,0
-406,-104,0,0,0,0,0,0,0,0,0,-1,818,1128,0,0
-399,-104,0,0,0,0,0,0,0,0,0,-1,825,1128,0,0
-392,-104,0,0,0,0,0,0,0,0,0,-1,832,1128,0,0
-385,-104,0,0,0,0,0,0,0,0,0,-1,839,1128,0,0
-378,-104,0,0,0,0,0,0,0,0,0,-1,846,1128,0,0
-371,-104,0,0,0,0,0,0,0,0,0,-1,853,1128,0,0
-364,-104,0,0,0,0,0,0,0,0,0,-1,860,1128,0,0
-357,-104,0,0,0,0,0,0,0,0,0,-1,867,1128,0,0
-350,-104,0,0,0,0,0,0,0,0,0,-1,874,1128,0,0
-343,-104,0,0,0,0,0,0,0,0,0,-1,881,1128,0,0
-336,-104,0,0,0,0,0,0,0,0,0,-1,888,1128,0,0
-329,-104,0,0,0,0,0,0,0,0,0,-1,895,1128,0,0
-322,-104,0,0,0,0,0,0,0,0,0,-1,902,1128,0,0
-315,-104,0,0,0,0,0,0,0,0,0,-1,909,1128,0,0
-308,-104,0,0,0,0,0,0,0,0,0,-1,916,1128,0,0
-301,-104,0,0,0,0,0,0,0,0,0,-1,923,1128,0,0
-294,-104,0,0,0,0,0,0,0,0,0,-1,930,1128,0,0
-287,-104,0,0,0,0,0,0,0,0,0,-1,937,1128,0,0
-280,-104,0,0,0,0,0,0,0,0,0,-1,944,1128,0,0
-273,-104,0,0,0,0,0,0,0,0,0,-1,951,1128,0,0
-266,-104,0,0,0,0,0,0,0,0,0,-1,958,1128,0,0
-259,-104,0,0,0,0,0,0,0,0,0,-1,965,1128,0,0
-252,-104,0,0,0,0,0,0,0,0,0,-1,972,1128,0,0
-245,-104,0,0,0,0,0,0,0,0,0,-1,979,1128,0,0
-238,-104,0,0,0,0,0,0,0,0,0,-1,986,1128,0,0
-231,-104,0,0,0,0,0,0,0,0,0,-1,993,1128,0,0
-224,-104,0,0,0,0,0,0,0,0,0,-1,1000,1128,0,0
-217,-104,0,0,0,0,0,0,0,0,0,-1,1007,1128,0,0
-210,-104,0,0,0,0,0,0,0,0,0,-1,1014,1128,0,0
-203,-104,0,0,0,0,0,0,0,0,0,-1,1021,1128,0,0
-196,-104,0,0,0,0,0,0,0,0,0,-1,1028,1128,0,0
-189,-104,0,0,0,0,0,0,0,0,0,-1,1035,1128,0,0
-182,-104,0,0,0,0,0,0,0,0,0,-1,1042,1128,0,0
-175,-104,0,0,0,0,0,0,0,0,0,-1,1049,1128,0,0
-168,-104,0,0,0,0,0,0,0,0,0,-1,1056,1128,0,0
-161,-104,0,0,0,0,0,0,0,0,0,-1,1063,1128,0,0
-154,-104,0,0,0,0,0,0,0,0,0,-1,1070,1128,0,0
-147,-104,0,0,0,0,0,0,0,0,0,-1,1077,1128,0,0
-140,-104,0,0,0,0,0,0,0,0,0,-1,1084,1128,0,0
-133,-104,0,0,0,0,0,0,0,0,0,-1,1091,1128,0,0
-126,-104,0,0,0,0,0,0,0,0,0,-1,1098,1128,0,0
-119,-104,0,0,0,0,0,0,0,0,0,-1,1105,1128,0,0
-112,-104,0,0,0,0,0,0,0,0,0,-1,1112,1128,0,0
-105,-104,0,0,0,0,0,0,0,0,0,-1,1119,1128,0,0
-98,-104,0,0,0,0,0,0,0,0,0,-1,1126,1128,0,0
-91,-104,0,0,0,0,0,0,0,0,0,-1,1133,1128,0,0
-84,-104,0,0,0,0,0,0,0,0,0,-1,1140,1128,0,0
-77,-104,0,0,0,0,0,0,0,0,0,-1,1147,1128,0,0
-70,-104,0,0,0,0,0,0,0,0,0,-1,1154,1128,0,0
-63,-104,0,0,0,0,0,0,0,0,0,-1,1161,1128,0,0
-56,-104,0,0,0,0,0,0,0,0,0,-1,1168,1128,0,0
-49,-104,0,0,0,0,0,0,0,0,0,-1,1175,1128,0,0
-42,-104,0,0,0,0,0,0,0,0,0,-1,1182,1128,0,0
-35,-104,0,0,0,0,0,0,0,0,0,-1,1189,1128,0,0
-28,-104,0,0,0,0,0,0,0,0,0,-1,1196,1128,0,0
-21,-104,0,0,0,0,0,0,0,0,0,-1,1203,1128,0,0
-14,-104,0,0,0,0,0,0,0,0,0,-1,1210,1128,0,0
-7,-104,0,0,0,0,0,0,0,0,0,-1,1217,1128,0,0
0,-104,0,0,0,0,0,0,0,0,0,-1,1224,1128,0,0
7,-104,0,0,0,0,0,0,0,0,0,-1,1231,1128,0,0
14,-104,0,0,0,0,0,0,0,0,0,-1,1238,1128,0,0
21,-104,0,0,0,0,0,0,0,0,0,-1,1245,1128,0,0
28,-104,0,0,0,0,0,0,0,0,0,-1,1252,1128,0,0
35,-104,0,0,0,0,0,0,0,0,0,-1,1259,1128,0,0
42,-104,0,0,0,0,0,0,0,0,0,-1,1266,1128,0,0
49,-104,0,0,0,0,0,0,0,0,0,-1,1273,1128,0,0
56,-104,0,0,0,0,0,0,0,0,0,-1,1280,1128,0,0
63,-104,0,0,0,0,0,0,0,0,0,-1,1287,1128,0,0
70,-104,0,0,0,0,0,0,0,0,0,-1,1294,1128,0,0
77,-104,0,0,0,0,0,0,0,0,0,-1,1301,1128,0,0
84,-104,0,0,0,0,0,0,0,0,0,-1,1308,1128,0,0
91,-104,0,0,0,0,0,0,0,0,0,-1,1315,1128,0,0
98,-104,0,0,0,0,0,0,0,0,0,-1,1322,1128,0,0
105,-104,0,0,0,0,0,0,0,0,0,-1,1329,1128,0,0
112,-104,0,0,0,0,0,0,0,0,0,-1,1336,1128,0,0
119,-104,0,0,0,0,0,0,0,0,0,-1,1343,1128,0,0
126,-104,0,0,0,0,0,0,0,0,0,-1,1350,1128,0,0
133,-104,0,0,0,0,0,0,0,0,0,-1,1357,1128,0,0
140,-104,0,0,0,0,0,0,0,0,0,-1,1364,1128,0,0
147,-104,0,0,0,0,0,0,0,0,0,-1,1371,1128,0,0
154,-104,0,0,0,0,0,0,0,0,0,-1,1378,1128,0,0
161,-104,0,0,0,0,0,0,0,0,0,-1,1385,1128,0,0
168,-104,0,0,0,0,0,0,0,0,0,-1,1392,1128,0,0
175,-104,0,0,0,0,0,0,0,0,0,-1,1399,1128,0,0
182,-104,0,0,0,0,0,0,0,0,0,-1,1406,1128,0,0
189,-104,0,0,0,0,0,0,0,0,0,-1,1413,1128,0,0
196,-104,0,0,0,0,0,0,0,0,0,-1,1420,1128,0,0
203,-104,0,0,0,0,0,0,0,0,0,-1,1427,1128,0,0
210,-104,0,0,0,0,0,0,0,0,0,-1,1434,1128,0,0
217,-104,0,0,0,0,0,0,0,0,0,-1,1441,1128,0,0
224,-104,0,0,0,0,0,0,0,0,0,-1,1448,1128,0,0
231,-104,0,0,0,0,0,0,0,0,0,-1,1455,1128,0,0
238,-104,0,0,0,0,0,0,0,0,0,-1,1462,1128,0,0
245,-104,0,0,0,0,0,0,0,0,0,-1,1469,1128,0,0
252,-104,0,0,0,0,0,0,0,0,0,-1,1476,1128,0,0
259,-104,0,0,0,0,0,0,0,0,0,-1,1483,1128,0,0
266,-104,0,0,0,0,0,0,0,0,0,-1,1490,1128,0,0
273,-104,0,0,0,0,0,0,0,0,0,-1,1497,1128,0,0
280,-104,0,0,0,0,0,0,0,0,0,-1,1504,1128,0,0
287,-104,0,0,0,0,0,0,0,0,0,-1,1511,1128,0,0
294,-104,0,0,0,0,0,0,0,0,0,-1,1518,1128,0,0
301,-104,0,0,0,0,0,0,0,0,0,-1,1525,1128,0,0
308,-104,0,0,0,0,0,0,0,0,0,-1,1532,1128,0,0
315,-104,0,0,0,0,0,0,0,0,0,-1,1539,1128,0,0
322,-104,0,0,0,0,0,0,0,0,0,-1,1546,1128,0,0
329,-104,0,0,0,0,0,0,0,0,0,-1,1553,1128,0,0
336,-104,0,0,0,0,0,0,0,0,0,-1,1560,1128,0,0
343,-104,0,0,0,0,0,0,0,0,0,-1,1567,1128,0,0
350,-104,0,0,0,0,0,0,0,0,0,-1,1574,1128,0,0
357,-104,0,0,0,0,0,0,0,0,0,-1,1581,1128,0,0
364,-104,0,0,0,0,0,0,0,0,0,-1,1588,1128,0,0
371,-104,0,0,0,0,0,0,0,0,0,-1,1595,1128,0,0
378,-104,0,0,0,0,0,0,0,0,0,-1,1602,1128,0,0
385,-104,0,0,0,0,0,0,0,0,0,-1,1609,1128,0,0
392,-104,0,0,0,0,0,0,0,0,0,-1,1616,1128,0,0
399,-104,0,0,0,0,0,0,0,0,0,-1,1623,1128,0,0
406,-104,0,0,0,0,0,0,0,0,0,-1,1630,1128,0,0
413,-104,0,0,0,0,0,0,0,0,0,-1,1637,1128,0,0
420,-104,0,0,0,0,0,0,0,0,0,-1,1644,1128,0,0
427,-104,0,0,0,0,0,0,0,0,0,-1,1651,1128,0,0
434,-104,0,0,0,0,0,0,0,0,0,-1,1658,1128,0,0
441,-104,0,0,0,0,0,0,0,0,0,-1,1665,1128,0,0
448,-104,0,0,0,0,0,0,0,0,0,-1,1672,1128,0,0
455,-104,0,0,0,0,0,0,0,0,0,-1,1679,1128,0,0
462,-104,0,0,0,0,0,0,0,0,0,-1,1686,1128,0,0
469,-104,0,0,0,0,0,0,0,0,0,-1,1693,1128,0,0
476,-104,0,0,0,0,0,0,0,0,0,-1,1700,1128,0,0
483,-104,0,0,0,0,0,0,0,0,0,-1,1707,1128,0,0
490,-104,0,0,0,0,0,0,0,0,0,-1,1714,1128,0,0
497,-104,0,0,0,0,0,0,0,0,0,-1,1721,1128,0,0
504,-104,0,0,0,0,0,0,0,0,0,-1,1728,1128,0,0
511,-104,0,0,0,0,0,0,0,0,0,-1,1735,1128,0,0
518,-104,0,0,0,0,0,0,0,0,0,-1,1742,1128,0,0
525,-104,0,0,0,0,0,0,0,0,0,-1,1749,1128,0,0
532,-104,0,0,0,0,0,0,0,0,0,-1,1756,1128,0,0
539,-104,0,0,0,0,0,0,0,0,0,-1,1763,1128,0,0
546,-104,0,0,0,0,0,0,0,0,0,-1,1770,1128,0,0
553,-104,0,0,0,0,0,0,0,0,0,-1,1777,1128,0,0
560,-104,0,0,0,0,0,0,0,0,0,-1,1784,1128,0,0
567,-104,0,0,0,0,0,0,0,0,0,-1,1791,1128,0,0
574,-104,0,0,0,0,0,0,0,0,0,-1,1798,1128,0,0
581,-104,0,0,0,0,0,0,0,0,0,-1,1805,1128,0,0
588,-104,0,0,0,0,0,0,0,0,0,-1,1812,1128,0,0
595,-104,0,0,0,0,0,0,0,0,0,-1,1819,1128,0,0
602,-104,0,0,0,0,0,0,0,0,0,-1,1826,1128,0,0
609,-104,0,0,0,0,0,0,0,0,0,-1,1833,1128,0,0
616,-104,0,0,0,0,0,0,0,0,0,-1,1840,1128,0,0
623,-104,0,0,0,0,0,0,0,0,0,-1,1847,1128,0,0
630,-104,0,0,0,0,0,0,0,0,0,-1,1854,1128,0,0
637,-104,0,0,0,0,0,0,0,0,0,-1,1861,1128,0,0
644,-104,227.934,9.02051,0,0,0,0,0,0,0,-1,1868,1128,227.934,-9.02055
651,-104,228.017,8.94666,0,0,0,0,0,0,0,-1,1875,1128,228.017,-8.94668
658,-104,228.069,8.67822,0,0,0,0,0,0,0,-1,1882,1128,228.069,-8.67826
665,-104,227.967,8.48792,0,0,0,0,0,0,0,-1,1889,1128,227.967,-8.48787
672,-104,227.937,8.75024,0,0,0,0,0,0,0,-1,1896,1128,227.937,-8.75023
679,-104,228.034,8.94702,0,0,0,0,0,0,0,-1,1903,1128,228.034,-8.94703
686,-104,228.039,8.87585,0,0,0,0,0,0,0,-1,1910,1128,228.039,-8.87591
693,-104,228.025,8.73743,0,0,0,0,0,0,0,-1,1917,1128,228.025,-8.73738
700,-104,227.986,8.68958,0,0,0,0,0,0,0,-1,1924,1128,227.986,-8.68956
707,-104,228.11,8.71411,0,0,0,0,0,0,0,-1,1931,1128,228.11,-8.71415
714,-104,211.875,8.83447,0,0,0,0,0,0,0,-1,1938,1128,211.875,-8.83449
721,-104,148.973,26.0243,0,0,0,0,0,0,0,-1,1945,1128,148.973,-26.0243
728,-104,229.514,32.8729,0,0,0,0,0,0,0,-1,1952,1128,229.514,-32.8729
735,-104,229.443,32.3181,0,0,0,0,0,0,0,-1,1959,1128,229.443,-32.3181
742,-104,229.179,31.6833,-0.0110925,0.00945301,0.00628917,0.0112253,-0.0128648,1.29612,0.0139192,0.037136,1966,1128,229.179,-31.6833
749,-104,229.064,31.2035,-0.0153968,0.0190891,0.00532965,0.019894,-0.0162017,1.42091,0.0208762,0.032343,1973,1128,229.064,-31.2035
756,-104,229.074,30.6271,-0.0199025,0.0286922,0.00464067,0.0291314,-0.0203417,1.47644,0.0287132,0.0273423,1980,1128,229.074,-30.627
763,-104,228.811,30.0455,0,0,0,0,0,0,0,-1,1987,1128,228.811,-30.0455
770,-104,228.703,29.5638,0,0,0,0,0,0,0,-1,1994,1128,228.703,-29.5638
777,-104,228.638,29.1666,0,0,0,0,0,0,0,-1,2001,1128,228.638,-29.1666
784,-104,198.008,29.3326,0,0,0,0,0,0,0,-1,2008,1128,198.008,-29.3327
791,-104,124.777,12.4595,0,0,0,0,0,0,0,-1,2015,1128,124.777,-12.4595
798,-104,117.724,5.89856,0,0,0,0,0,0,0,-1,2022,1128,117.724,-5.89853
805,-104,116.657,4.51953,0,0,0,0,0,0,0,-1,2029,1128,116.657,-4.51951
812,-104,115.406,3.27905,0,0,0,0,0,0,0,-1,2036,1128,115.406,-3.27907
-700,-111,0,0,0,0,0,0,0,0,0,-1,524,1135,0,0
-693,-111,-87.3786,2.87793,0,0,0,0,0,0,0,-1,531,1135,-87.3786,-2.87792
-686,-111,-87.7664,3.81384,0,0,0,0,0,0,0,-1,538,1135,-87.7664,-3.81379
-679,-111,-87.8987,5.0907,0,0,0,0,0,0,0,-1,545,1135,-87.8987,-5.09074
-672,-111,-87.9348,6.62744,0,0,0,0,0,0,0,-1,552,1135,-87.9348,-6.62745
-665,-111,-89.323,7.58716,0,0,0,0,0,0,0,-1,559,1135,-89.323,-7.58714
-658,-111,-88.7458,8.3031,0,0,0,0,0,0,0,-1,566,1135,-88.7457,-8.30306
-651,-111,-211.441,28.2211,0,0,0,0,0,0,0,-1,573,1135,-211.441,-28.2211
-644,-111,-220.648,28.6482,0,0,0,0,0,0,0,-1,580,1135,-220.648,-28.6482
-637,-111,-220.903,28.8617,-0.0166595,0.043264,-0.00974762,0.0448097,-0.0182053,-1.41353,0.037447,0.0247246,587,1135,-220.903,-28.8617
-630,-111,-221.132,29.181,-0.0155361,0.0395544,-0.00706215,0.0404453,-0.016427,-1.44531,0.0337972,0.0403815,594,1135,-221.132,-29.1811
-623,-111,-221.034,30.1829,0,0,0,0,0,0,0,-1,601,1135,-221.034,-30.1829
-616,-111,-221.63,30.5338,-0.0126103,0.0308217,-0.00203966,0.0309173,-0.0127059,-1.52397,0.0259071,0.0475216,608,1135,-221.63,-30.5338
-609,-111,-221.694,31.0573,-0.0109102,0.0259625,0.000277751,0.0259646,-0.0109123,1.56326,0.0218741,0.0459517,615,1135,-221.694,-31.0572
-602,-111,-221.256,31.8524,0,0,0,0,0,0,0,-1,622,1135,-221.256,-31.8524
-595,-111,-212.712,32.6184,0,0,0,0,0,0,0,-1,629,1135,-212.712,-32.6184
-588,-111,-212.471,33.4091,0,0,0,0,0,0,0,-1,636,1135,-212.471,-33.4091
-581,-111,-21.0555,3.14551,0,0,0,0,0,0,0,-1,643,1135,-21.0555,-3.14548
-574,-111,-72.0052,0.325439,0,0,0,0,0,0,0,-1,650,1135,-72.0053,-0.325442
-567,-111,-71.9791,0.25293,0,0,0,0,0,0,0,-1,657,1135,-71.979,-0.25289
-560,-111,-72.0156,-0.0426025,0,0,0,0,0,0,0,-1,664,1135,-72.0156,0.0426468
-553,-111,-71.9611,0.0412598,0,0,0,0,0,0,0,-1,671,1135,-71.9611,-0.0412414
-546,-111,-71.9863,0.294189,0,0,0,0,0,0,0,-1,678,1135,-71.9863,-0.294224
-539,-111,-72.1181,0.645142,0,0,0,0,0,0,0,-1,685,1135,-72.1181,-0.645102
-532,-111,-72.2086,0.617065,0,0,0,0,0,0,0,-1,692,1135,-72.2085,-0.617046
-525,-111,-72.1599,0.566895,0,0,0,0,0,0,0,-1,699,1135,-72.1599,-0.56687
-518,-111,0,0,0,0,0,0,0,0,0,-1,706,1135,0,0
-511,-111,0,0,0,0,0,0,0,0,0,-1,713,1135,0,0
-504,-111,0,0,0,0,0,0,0,0,0,-1,720,1135,0,0
-497,-111,0,0,0,0,0,0,0,0,0,-1,727,1135,0,0
-490,-111,0,0,0,0,0,0,0,0,0,-1,734,1135,0,0
-483,-111,0,0,0,0,0,0,0,0,0,-1,741,1135,0,0
-476,-111,0,0,0,0,0,0,0,0,0,-1,748,1135,0,0
-469,-111,0,0,0,0,0,0,0,0,0,-1,755,1135,0,0
-462,-111,0,0,0,0,0,0,0,0,0,-1,762,1135,0,0
-455,-111,0,0,0,0,0,0,0,0,0,-1,769,1135,0,0
-448,-111,0,0,0,0,0,0,0,0,0,-1,776,1135,0,0
-441,-111,0,0,0,0,0,0,0,0,0,-1,783,1135,0,0
-434,-111,0,0,0,0,0,0,0,0,0,-1,790,1135,0,0
-427,-111,0,0,0,0,0,0,0,0,0,-1,797,1135,0,0
-420,-111,0,0,0,0,0,0,0,0,0,-1,804,1135,0,0
-413,-111,0,0,0,0,0,0,0,0,0,-1,811,1135,0,0
-406,-111,0,0,0,0,0,0,0,0,0,-1,818,1135,0,0
-399,-111,0,0,0,0,0,0,0,0,0,-1,825,1135,0,0
-392,-111,0,0,0,0,0,0,0,0,0,-1,832,1135,0,0
-385,-111,0,0,0,0,0,0,0,0,0,-1,839,1135,0,0
-378,-111,0,0,0,0,0,0,0,0,0,-1,846,1135,0,0
-371,-111,0,0,0,0,0,0,0,0,0,-1,853,1135,0,0
-364,-111,0,0,0,0,0,0,0,0,0,-1,860,1135,0,0
-357,-111,0,0,0,0,0,0,0,0,0,-1,867,1135,0,0
-350,-111,0,0,0,0,0,0,0,0,0,-1,874,1135,0,0
-343,-111,0,0,0,0,0,0,0,0,0,-1,881,1135,0,0
-336,-111,0,0,0,0,0,0,0,0,0,-1,888,1135,0,0
-329,-111,0,0,0,0,0,0,0,0,0,-1,895,1135,0,0
-322,-111,0,0,0,0,0,0,0,0,0,-1,902,1135,0,0
-315,-111,0,0,0,0,0,0,0,0,0,-1,909,1135,0,0
-308,-111,0,0,0,0,0,0,0,0,0,-1,916,1135,0,0
-301,-111,0,0,0,0,0,0,0,0,0,-1,923,1135,0,0
-294,-111,0,0,0,0,0,0,0,0,0,-1,930,1135,0,0
-287,-111,0,0,0,0,0,0,0,0,0,-1,937,1135,0,0
-280,-111,0,0,0,0,0,0,0,0,0,-1,944,1135,0,0
-273,-111,0,0,0,0,0,0,0,0,0,-1,951,1135,0,0
-266,-111,0,0,0,0,0,0,0,0,0,-1,958,1135,0,0
-259,-111,0,0,0,0,0,0,0,0,0,-1,965,1135,0,0
-252,-111,0,0,0,0,0,0,0,0,0,-1,972,1135,0,0
-245,-111,0,0,0,0,0,0,0,0,0,-1,979,1135,0,0
-238,-111,0,0,0,0,0,0,0,0,0,-1,986,1135,0,0
-231,-111,0,0,0,0,0,0,0,0,0,-1,993,1135,0,0
-224,-111,0,0,0,0,0,0,0,0,0,-1,1000,1135,0,0
-217,-111,0,0,0,0,0,0,0,0,0,-1,1007,1135,0,0
-210,-111,0,0,0,0,0,0,0,0,0,-1,1014,1135,0,0
-203,-111,0,0,0,0,0,0,0,0,0,-1,1021,1135,0,0
-196,-111,0,0,0,0,0,0,0,0,0,-1,1028,1135,0,0
-189,-111,0,0,0,0,0,0,0,0,0,-1,1035,1135,0,0
-182,-111,0,0,0,0,0,0,0,0,0,-1,1042,1135,0,0
-175,-111,0,0,0,0,0,0,0,0,0,-1,1049,1135,0,0
-168,-111,0,0,0,0,0,0,0,0,0,-1,1056,1135,0,0
-161,-111,0,0,0,0,0,0,0,0,0,-1,1063,1135,0,0
-154,-111,0,0,0,0,0,0,0,0,0,-1,1070,1135,0,0
-147,-111,0,0,0,0,0,0,0,0,0,-1,1077,1135,0,0
-140,-111,0,0,0,0,0,0,0,0,0,-1,1084,1135,0,0
-133,-111,0,0,0,0,0,0,0,0,0,-1,1091,1135,0,0
-126,-111,0,0,0,0,0,0,0,0,0,-1,1098,1135,0,0
-119,-111,0,0,0,0,0,0,0,0,0,-1,1105,1135,0,0
-112,-111,0,0,0,0,0,0,0,0,0,-1,1112,1135,0,0
-105,-111,0,0,0,0,0,0,0,0,0,-1,1119,1135,0,0
-98,-111,0,0,0,0,0,0,0,0,0,-1,1126,1135,0,0
-91,-111,0,0,0,0,0,0,0,0,0,-1,1133,1135,0,0
-84,-111,0,0,0,0,0,0,0,0,0,-1,1140,1135,0,0
-77,-111,0,0,0,0,0,0,0,0,0,-1,1147,1135,0,0
-70,-111,0,0,0,0,0,0,0,0,0,-1,1154,1135,0,0
-63,-111,0,0,0,0,0,0,0,0,0,-1,1161,1135,0,0
-56,-111,0,0,0,0,0,0,0,0,0,-1,1168,1135,0,0
-49,-111,0,0,0,0,0,0,0,0,0,-1,1175,1135,0,0
-42,-111,0,0,0,0,0,0,0,0,0,-1,1182,1135,0,0
-35,-111,0,0,0,0,0,0,0,0,0,-1,1189,1135,0,0
-28,-111,0,0,0,0,0,0,0,0,0,-1,1196,1135,0,0
-21,-111,0,0,0,0,0,0,0,0,0,-1,1203,1135,0,0
-14,-111,0,0,0,0,0,0,0,0,0,-1,1210,1135,0,0
-7,-111,0,0,0,0,0,0,0,0,0,-1,1217,1135,0,0
0,-111,0,0,0,0,0,0,0,0,0,-1,1224,1135,0,0
7,-111,0,0,0,0,0,0,0,0,0,-1,1231,1135,0,0
14,-111,0,0,0,0,0,0,0,0,0,-1,1238,1135,0,0
21,-111,0,0,0,0,0,0,0,0,0,-1,1245,1135,0,0
28,-111,0,0,0,0,0,0,0,0,0,-1,1252,1135,0,0
35,-111,0,0,0,0,0,0,0,0,0,-1,1259,1135,0,0
42,-111,0,0,0,0,0,0,0,0,0,-1,1266,1135,0,0
49,-111,0,0,0,0,0,0,0,0,0,-1,1273,1135,0,0
56,-111,0,0,0,0,0,0,0,0,0,-1,1280,1135,0,0
63,-111,0,0,0,0,0,0,0,0,0,-1,1287,1135,0,0
70,-111,0,0,0,0,0,0,0,0,0,-1,1294,1135,0,0
77,-111,0,0,0,0,0,0,0,0,0,-1,1301,1135,0,0
84,-111,0,0,0,0,0,0,0,0,0,-1,1308,1135,0,0
91,-111,0,0,0,0,0,0,0,0,0,-1,1315,1135,0,0
98,-111,0,0,0,0,0,0,0,0,0,-1,1322,1135,0,0
105,-111,0,0,0,0,0,0,0,0,0,-1,1329,1135,0,0
112,-111,0,0,0,0,0,0,0,0,0,-1,1336,1135,0,0
119,-111,0,0,0,0,0,0,0,0,0,-1,1343,1135,0,0
126,-111,0,0,0,0,0,0,0,0,0,-1,1350,1135,0,0
133,-111,0,0,0,0,0,0,0,0,0,-1,1357,1135,0,0
140,-111,0,0,0,0,0,0,0,0,0,-1,1364,1135,0,0
147,-111,0,0,0,0,0,0,0,0,0,-1,1371,1135,0,0
154,-111,0,0,0,0,0,0,0,0,0,-1,1378,1135,0,0
161,-111,0,0,0,0,0,0,0,0,0,-1,1385,1135,0,0
168,-111,0,0,0,0,0,0,0,0,0,-1,1392,1135,0,0
175,-111,0,0,0,0,0,0,0,0,0,-1,1399,1135,0,0
182,-111,0,0,0,0,0,0,0,0,0,-1,1406,1135,0,0
189,-111,0,0,0,0,0,0,0,0,0,-1,1413,1135,0,0
196,-111,0,0,0,0,0,0,0,0,0,-1,1420,1135,0,0
203,-111,0,0,0,0,0,0,0,0,0,-1,1427,1135,0,0
210,-111,0,0,0,0,0,0,0,0,0,-1,1434,1135,0,0
217,-111,0,0,0,0,0,0,0,0,0,-1,1441,1135,0,0
224,-111,0,0,0,0,0,0,0,0,0,-1,1448,1135,0,0
231,-111,0,0,0,0,0,0,0,0,0,-1,1455,1135,0,0
238,-111,0,0,0,0,0,0,0,0,0,-1,1462,1135,0,0
245,-111,0,0,0,0,0,0,0,0,0,-1,1469,1135,0,0
252,-111,0,0,0,0,0,0,0,0,0,-1,1476,1135,0,0
259,-111,0,0,0,0,0,0,0,0,0,-1,1483,1135,0,0
266,-111,0,0,0,0,0,0,0,0,0,-1,1490,1135,0,0
273,-111,0,0,0,0,0,0,0,0,0,-1,1497,1135,0,0
280,-111,0,0,0,0,0,0,0,0,0,-1,1504,1135,0,0
287,-111,0,0,0,0,0,0,0,0,0,-1,1511,1135,0,0
294,-111,0,0,0,0,0,0,0,0,0,-1,1518,1135,0,0
301,-111,0,0,0,0,0,0,0,0,0,-1,1525,1135,0,0
308,-111,0,0,0,0,0,0,0,0,0,-1,1532,1135,0,0
315,-111,0,0,0,0,0,0,0,0,0,-1,1539,1135,0,0
322,-111,0,0,0,0,0,0,0,0,0,-1,1546,1135,0,0
329,-111,0,0,0,0,0,0,0,0,0,-1,1553,1135,0,0
336,-111,0,0,0,0,0,0,0,0,0,-1,1560,1135,0,0
343,-111,0,0,0,0,0,0,0,0,0,-1,1567,1135,0,0
350,-111,0,0,0,0,0,0,0,0,0,-1,1574,1135,0,0
357,-111,0,0,0,0,0,0,0,0,0,-1,1581,1135,0,0
364,-111,0,0,0,0,0,0,0,0,0,-1,1588,1135,0,0
371,-111,0,0,0,0,0,0,0,0,0,-1,1595,1135,0,0
378,-111,0,0,0,0,0,0,0,0,0,-1,1602,1135,0,0
385,-111,0,0,0,0,0,0,0,0,0,-1,1609,1135,0,0
392,-111,0,0,0,0,0,0,0,0,0,-1,1616,1135,0,0
399,-111,0,0,0,0,0,0,0,0,0,-1,1623,1135,0,0
406,-111,0,0,0,0,0,0,0,0,0,-1,1630,1135,0,0
413,-111,0,0,0,0,0,0,0,0,0,-1,1637,1135,0,0
420,-111,0,0,0,0,0,0,0,0,0,-1,1644,1135,0,0
427,-111,0,0,0,0,0,0,0,0,0,-1,1651,1135,0,0
434,-111,0,0,0,0,0,0,0,0,0,-1,1658,1135,0,0
441,-111,0,0,0,0,0,0,0,0,0,-1,1665,1135,0,0
448,-111,0,0,0,0,0,0,0,0,0,-1,1672,1135,0,0
455,-111,0,0,0,0,0,0,0,0,0,-1,1679,1135,0,0
462,-111,0,0,0,0,0,0,0,0,0,-1,1686,1135,0,0
469,-111,0,0,0,0,0,0,0,0,0,-1,1693,1135,0,0
476,-111,0,0,0,0,0,0,0,0,0,-1,1700,1135,0,0
483,-111,0,0,0,0,0,0,0,0,0,-1,1707,1135,0,0
490,-111,0,0,0,0,0,0,0,0,0,-1,1714,1135,0,0
497,-111,0,0,0,0,0,0,0,0,0,-1,1721,1135,0,0
504,-111,0,0,0,0,0,0,0,0,0,-1,1728,1135,0,0
511,-111,0,0,0,0,0,0,0,0,0,-1,1735,1135,0,0
518,-111,0,0,0,0,0,0,0,0,0,-1,1742,1135,0,0
525,-111,0,0,0,0,0,0,0,0,0,-1,1749,1135,0,0
532,-111,0,0,0,0,0,0,0,0,0,-1,1756,1135,0,0
539,-111,0,0,0,0,0,0,0,0,0,-1,1763,1135,0,0
546,-111,0,0,0,0,0,0,0,0,0,-1,1770,1135,0,0
553,-111,0,0,0,0,0,0,0,0,0,-1,1777,1135,0,0
560,-111,0,0,0,0,0,0,0,0,0,-1,1784,1135,0,0
567,-111,0,0,0,0,0,0,0,0,0,-1,1791,1135,0,0
574,-111,0,0,0,0,0,0,0,0,0,-1,1798,1135,0,0
581,-111,0,0,0,0,0,0,0,0,0,-1,1805,1135,0,0
588,-111,0,0,0,0,0,0,0,0,0,-1,1812,1135,0,0
595,-111,0,0,0,0,0,0,0,0,0,-1,1819,1135,0,0
602,-111,0,0,0,0,0,0,0,0,0,-1,1826,1135,0,0
609,-111,0,0,0,0,0,0,0,0,0,-1,1833,1135,0,0
616,-111,0,0,0,0,0,0,0,0,0,-1,1840,1135,0,0
623,-111,0,0,0,0,0,0,0,0,0,-1,1847,1135,0,0
630,-111,0,0,0,0,0,0,0,0,0,-1,1854,1135,0,0
637,-111,0,0,0,0,0,0,0,0,0,-1,1861,1135,0,0
644,-111,227.852,9.00574,0,0,0,0,0,0,0,-1,1868,1135,227.852,-9.00569
651,-111,227.937,9.06018,0,0,0,0,0,0,0,-1,1875,1135,227.937,-9.06016
658,-111,228.077,8.8158,0,0,0,0,0,0,0,-1,1882,1135,228.077,-8.81581
665,-111,228.03,8.44849,0,0,0,0,0,0,0,-1,1889,1135,228.029,-8.44843
672,-111,227.892,8.48584,0,0,0,0,0,0,0,-1,1896,1135,227.892,-8.48582
679,-111,228.014,8.71484,0,0,0,0,0,0,0,-1,1903,1135,228.014,-8.7148
686,-111,227.996,8.82703,0,0,0,0,0,0,0,-1,1910,1135,227.996,-8.82702
693,-111,227.964,8.77869,0,0,0,0,0,0,0,-1,1917,1135,227.964,-8.77864
700,-111,227.999,8.71863,0,0,0,0,0,0,0,-1,1924,1135,227.999,-8.71858
707,-111,228.134,8.72803,0,0,0,0,0,0,0,-1,1931,1135,228.134,-8.72801
714,-111,45.1654,7.39746,0,0,0,0,0,0,0,-1,1938,1135,45.1654,-7.39745
721,-111,229.086,33.4418,0,0,0,0,0,0,0,-1,1945,1135,229.086,-33.4417
728,-111,228.953,32.8401,-0.00383079,-0.00717718,0.00900569,0.00365582,-0.0146638,0.693549,0.0111952,0.0486704,1952,1135,228.953,-32.8401
735,-111,228.905,32.2791,-0.00771308,0.00207779,0.00755775,0.00618707,-0.0118224,1.07279,0.0105661,0.0413396,1959,1135,228.905,-32.279
742,-111,228.663,31.7815,-0.0116654,0.0113256,0.006513,0.0130424,-0.0133822,1.31306,0.0152567,0.027379,1966,1135,228.663,-31.7815
749,-111,228.442,31.1327,-0.0158212,0.0204445,0.00581583,0.0213544,-0.016731,1.41561,0.0220425,0.0282264,1973,1135,228.442,-31.1327
756,-111,228.317,30.4601,-0.0201898,0.0294586,0.00543255,0.030046,-0.0207772,1.46307,0.029505,0.0262549,1980,1135,228.317,-30.4601
763,-111,228.131,29.769,0,0,0,0,0,0,0,-1,1987,1135,228.131,-29.769
770,-111,228.141,29.4059,0,0,0,0,0,0,0,-1,1994,1135,228.141,-29.4058
777,-111,227.862,28.7189,0,0,0,0,0,0,0,-1,2001,1135,227.862,-28.7189
784,-111,196.202,28.8839,0,0,0,0,0,0,0,-1,2008,1135,196.202,-28.8839
791,-111,196.289,28.3062,0,0,0,0,0,0,0,-1,2015,1135,196.289,-28.3061
798,-111,117.362,5.41443,0,0,0,0,0,0,0,-1,2022,1135,117.362,-5.41445
805,-111,116.808,4.02344,0,0,0,0,0,0,0,-1,2029,1135,116.808,-4.02344
812,-111,115.569,2.60425,0,0,0,0,0,0,0,-1,2036,1135,115.569,-2.60429
-700,-118,0,0,0,0,0,0,0,0,0,-1,524,1142,0,0
-693,-118,-86.2747,2.6283,0,0,0,0,0,0,0,-1,531,1142,-86.2747,-2.62824
-686,-118,-86.7041,3.22351,0,0,0,0,0,0,0,-1,538,1142,-86.7041,-3.22351
-679,-118,-86.7281,4.65881,0,0,0,0,0,0,0,-1,545,1142,-86.7281,-4.65885
-672,-118,-86.7669,6.11426,0,0,0,0,0,0,0,-1,552,1142,-86.7669,-6.11421
-665,-118,-81.5959,6.78015,0,0,0,0,0,0,0,-1,559,1142,-81.5959,-6.78018
-658,-118,-83.8181,6.78662,0,0,0,0,0,0,0,-1,566,1142,-83.8181,-6.78663
-651,-118,-178.296,28.0144,0,0,0,0,0,0,0,-1,573,1142,-178.296,-28.0145
-644,-118,-219.762,28.2305,0,0,0,0,0,0,0,-1,580,1142,-219.762,-28.2305
-637,-118,-220.097,28.6655,-0.0177786,0.0435746,-0.011977,0.0458298,-0.0200338,-1.38468,0.0389864,0.0359657,587,1142,-220.097,-28.6655
-630,-118,-220.423,29.1461,-0.0170181,0.0405847,-0.00883521,0.0419094,-0.0183428,-1.42197,0.0356625,0.0388312,594,1142,-220.423,-29.1461
-623,-118,-220.415,29.8207,-0.0160708,0.0370611,-0.00586684,0.0377012,-0.0167109,-1.46212,0.0321845,0.035932,601,1142,-220.415,-29.8207
-616,-118,-220.673,30.578,0,0,0,0,0,0,0,-1,608,1142,-220.673,-30.578
-609,-118,-220.973,30.8925,0,0,0,0,0,0,0,-1,615,1142,-220.973,-30.8925
-602,-118,-220.374,31.8855,0,0,0,0,0,0,0,-1,622,1142,-220.374,-31.8855
-595,-118,-212.13,32.4901,0,0,0,0,0,0,0,-1,629,1142,-212.13,-32.4901
-588,-118,-211.506,33.5031,0,0,0,0,0,0,0,-1,636,1142,-211.506,-33.503
-581,-118,-24.6116,3.89648,0,0,0,0,0,0,0,-1,643,1142,-24.6116,-3.89645
-574,-118,-72.0256,0.515259,0,0,0,0,0,0,0,-1,650,1142,-72.0257,-0.515318
-567,-118,-72.0513,0.48877,0,0,0,0,0,0,0,-1,657,1142,-72.0513,-0.488796
-560,-118,-71.967,0.49707,0,0,0,0,0,0,0,-1,664,1142,-71.967,-0.497115
-553,-118,-71.8315,0.429077,0,0,0,0,0,0,0,-1,671,1142,-71.8316,-0.429054
-546,-118,-71.9034,0.514893,0,0,0,0,0,0,0,-1,678,1142,-71.9035,-0.514945
-539,-118,-72.0641,0.645264,0,0,0,0,0,0,0,-1,685,1142,-72.0641,-0.645291
-532,-118,-72.1383,0.627808,0,0,0,0,0,0,0,-1,692,1142,-72.1383,-0.627791
-525,-118,-72.0248,0.533691,0,0,0,0,0,0,0,-1,699,1142,-72.0248,-0.533746
-518,-118,0,0,0,0,0,0,0,0,0,-1,706,1142,0,0
-511,-118,0,0,0,0,0,0,0,0,0,-1,713,1142,0,0
-504,-118,0,0,0,0,0,0,0,0,0,-1,720,1142,0,0
-497,-118,0,0,0,0,0,0,0,0,0,-1,727,1142,0,0
-490,-118,0,0,0,0,0,0,0,0,0,-1,734,1142,0,0
-483,-118,0,0,0,0,0,0,0,0,0,-1,741,1142,0,0
-476,-118,0,0,0,0,0,0,0,0,0,-1,748,1142,0,0
-469,-118,0,0,0,0,0,0,0,0,0,-1,755,1142,0,0
-462,-118,0,0,0,0,0,0,0,0,0,-1,762,1142,0,0
-455,-118,0,0,0,0,0,0,0,0,0,-1,769,1142,0,0
-448,-118,0,0,0,0,0,0,0,0,0,-1,776,1142,0,0
-441,-118,0,0,0,0,0,0,0,0,0,-1,783,1142,0,0
-434,-118,0,0,0,0,0,0,0,0,0,-1,790,1142,0,0
-427,-118,0,0,0,0,0,0,0,0,0,-1,797,1142,0,0
-420,-118,0,0,0,0,0,0,0,0,0,-1,804,1142,0,0
-413,-118,0,0,0,0,0,0,0,0,0,-1,811,1142,0,0
-406,-118,0,0,0,0,0,0,0,0,0,-1,818,1142,0,0
-399,-118,0,0,0,0,0,0,0,0,0,-1,825,1142,0,0
-392,-118,0,0,0,0,0,0,0,0,0,-1,832,1142,0,0
-385,-118,0,0,0,0,0,0,0,0,0,-1,839,1142,0,0
-378,-118,0,0,0,0,0,0,0,0,0,-1,846,1142,0,0
-371,-118,0,0,0,0,0,0,0,0,0,-1,853,1142,0,0
-364,-118,0,0,0,0,0,0,0,0,0,-1,860,1142,0,0
-357,-118,0,0,0,0,0,0,0,0,0,-1,867,1142,0,0
-350,-118,0,0,0,0,0,0,0,0,0,-1,874,1142,0,0
-343,-118,0,0,0,0,0,0,0,0,0,-1,881,1142,0,0
-336,-118,0,0,0,0,0,0,0,0,0,-1,888,1142,0,0
-329,-118,0,0,0,0,0,0,0,0,0,-1,895,1142,0,0
-322,-118,0,0,0,0,0,0,0,0,0,-1,902,1142,0,0
-315,-118,0,0,0,0,0,0,0,0,0,-1,909,1142,0,0
-308,-118,0,0,0,0,0,0,0,0,0,-1,916,1142,0,0
-301,-118,0,0,0,0,0,0,0,0,0,-1,923,1142,0,0
-294,-118,0,0,0,0,0,0,0,0,0,-1,930,1142,0,0
-287,-118,0,0,0,0,0,0,0,0,0,-1,937,1142,0,0
-280,-118,0,0,0,0,0,0,0,0,0,-1,944,1142,0,0
-273,-118,0,0,0,0,0,0,0,0,0,-1,951,1142,0,0
-266,-118,0,0,0,0,0,0,0,0,0,-1,958,1142,0,0
-259,-118,0,0,0,0,0,0,0,0,0,-1,965,1142,0,0
-252,-118,0,0,0,0,0,0,0,0,0,-1,972,1142,0,0
-245,-118,0,0,0,0,0,0,0,0,0,-1,979,1142,0,0
-238,-118,0,0,0,0,0,0,0,0,0,-1,986,1142,0,0
-231,-118,0,0,0,0,0,0,0,0,0,-1,993,1142,0,0
-224,-118,0,0,0,0,0,0,0,0,0,-1,1000,1142,0,0
-217,-118,0,0,0,0,0,0,0,0,0,-1,1007,1142,0,0
-210,-118,0,0,0,0,0,0,0,0,0,-1,1014,1142,0,0
-203,-118,0,0,0,0,0,0,0,0,0,-1,1021,1142,0,0
-196,-118,0,0,0,0,0,0,0,0,0,-1,1028,1142,0,0
-189,-118,0,0,0,0,0,0,0,0,0,-1,1035,1142,0,0
-182,-118,0,0,0,0,0,0,0,0,0,-1,1042,1142,0,0
-175,-118,0,0,0,0,0,0,0,0,0,-1,1049,1142,0,0
-168,-118,0,0,0,0,0,0,0,0,0,-1,1056,1142,0,0
-161,-118,0,0,0,0,0,0,0,0,0,-1,1063,1142,0,0
-154,-118,0,0,0,0,0,0,0,0,0,-1,1070,1142,0,0
-147,-118,0,0,0,0,0,0,0,0,0,-1,1077,1142,0,0
-140,-118,0,0,0,0,0,0,0,0,0,-1,1084,1142,0,0
-133,-118,0,0,0,0,0,0,0,0,0,-1,1091,1142,0,0
-126,-118,0,0,0,0,0,0,0,0,0,-1,1098,1142,0,0
-119,-118,0,0,0,0,0,0,0,0,0,-1,1105,1142,0,0
-112,-118,0,0,0,0,0,0,0,0,0,-1,1112,1142,0,0
-105,-118,0,0,0,0,0,0,0,0,0,-1,1119,1142,0,0
-98,-118,0,0,0,0,0,0,0,0,0,-1,1126,1142,0,0
-91,-118,0,0,0,0,0,0,0,0,0,-1,1133,1142,0,0
-84,-118,0,0,0,0,0,0,0,0,0,-1,1140,1142,0,0
-77,-118,0,0,0,0,0,0,0,0,0,-1,1147,1142,0,0
-70,-118,0,0,0,0,0,0,0,0,0,-1,1154,1142,0,0
-63,-118,0,0,0,0,0,0,0,0,0,-1,1161,1142,0,0
-56,-118,0,0,0,0,0,0,0,0,0,-1,1168,1142,0,0
-49,-118,0,0,0,0,0,0,0,0,0,-1,1175,1142,0,0
-42,-118,0,0,0,0,0,0,0,0,0,-1,1182,1142,0,0
-35,-118,0,0,0,0,0,0,0,0,0,-1,1189,1142,0,0
-28,-118,0,0,0,0,0,0,0,0,0,-1,1196,1142,0,0
-21,-118,0,0,0,0,0,0,0,0,0,-1,1203,1142,0,0
-14,-118,0,0,0,0,0,0,0,0,0,-1,1210,1142,0,0
-7,-118,0,0,0,0,0,0,0,0,0,-1,1217,1142,0,0
0,-118,0,0,0,0,0,0,0,0,0,-1,1224,1142,0,0
7,-118,0,0,0,0,0,0,0,0,0,-1,1231,1142,0,0
14,-118,0,0,0,0,0,0,0,0,0,-1,1238,1142,0,0
21,-118,0,0,0,0,0,0,0,0,0,-1,1245,1142,0,0
28,-118,0,0,0,0,0,0,0,0,0,-1,1252,1142,0,0
35,-118,0,0,0,0,0,0,0,0,0,-1,1259,1142,0,0
42,-118,0,0,0,0,0,0,0,0,0,-1,1266,1142,0,0
49,-118,0,0,0,0,0,0,0,0,0,-1,1273,1142,0,0
56,-118,0,0,0,0,0,0,0,0,0,-1,1280,1142,0,0
63,-118,0,0,0,0,0,0,0,0,0,-1,1287,1142,0,0
70,-118,0,0,0,0,0,0,0,0,0,-1,1294,1142,0,0
77,-118,0,0,0,0,0,0,0,0,0,-1,1301,1142,0,0
84,-118,0,0,0,0,0,0,0,0,0,-1,1308,1142,0,0
91,-118,0,0,0,0,0,0,0,0,0,-1,1315,1142,0,0
98,-118,0,0,0,0,0,0,0,0,0,-1,1322,1142,0,0
105,-118,0,0,0,0,0,0,0,0,0,-1,1329,1142,0,0
112,-118,0,0,0,0,0,0,0,0,0,-1,1336,1142,0,0
119,-118,0,0,0,0,0,0,0,0,0,-1,1343,1142,0,0
126,-118,0,0,0,0,0,0,0,0,0,-1,1350,1142,0,0
133,-118,0,0,0,0,0,0,0,0,0,-1,1357,1142,0,0
140,-118,0,0,0,0,0,0,0,0,0,-1,1364,1142,0,0
147,-118,0,0,0,0,0,0,0,0,0,-1,1371,1142,0,0
154,-118,0,0,0,0,0,0,0,0,0,-1,1378,1142,0,0
161,-118,0,0,0,0,0,0,0,0,0,-1,1385,1142,0,0
168,-118,0,0,0,0,0,0,0,0,0,-1,1392,1142,0,0
175,-118,0,0,0,0,0,0,0,0,0,-1,1399,1142,0,0
182,-118,0,0,0,0,0,0,0,0,0,-1,1406,1142,0,0
189,-118,0,0,0,0,0,0,0,0,0,-1,1413,1142,0,0
196,-118,0,0,0,0,0,0,0,0,0,-1,1420,1142,0,0
203,-118,0,0,0,0,0,0,0,0,0,-1,1427,1142,0,0
210,-118,0,0,0,0,0,0,0,0,0,-1,1434,1142,0,0
217,-118,0,0,0,0,0,0,0,0,0,-1,1441,1142,0,0
224,-118,0,0,0,0,0,0,0,0,0,-1,1448,1142,0,0
231,-118,0,0,0,0,0,0,0,0,0,-1,1455,1142,0,0
238,-118,0,0,0,0,0,0,0,0,0,-1,1462,1142,0,0
245,-118,0,0,0,0,0,0,0,0,0,-1,1469,1142,0,0
252,-118,0,0,0,0,0,0,0,0,0,-1,1476,1142,0,0
259,-118,0,0,0,0,0,0,0,0,0,-1,1483,1142,0,0
266,-118,0,0,0,0,0,0,0,0,0,-1,1490,1142,0,0
273,-118,0,0,0,0,0,0,0,0,0,-1,1497,1142,0,0
280,-118,0,0,0,0,0,0,0,0,0,-1,1504,1142,0,0
287,-118,0,0,0,0,0,0,0,0,0,-1,1511,1142,0,0
294,-118,0,0,0,0,0,0,0,0,0,-1,1518,1142,0,0
301,-118,0,0,0,0,0,0,0,0,0,-1,1525,1142,0,0
308,-118,0,0,0,0,0,0,0,0,0,-1,1532,1142,0,0
315,-118,0,0,0,0,0,0,0,0,0,-1,1539,1142,0,0
322,-118,0,0,0,0,0,0,0,0,0,-1,1546,1142,0,0
329,-118,0,0,0,0,0,0,0,0,0,-1,1553,1142,0,0
336,-118,0,0,0,0,0,0,0,0,0,-1,1560,1142,0,0
343,-118,0,0,0,0,0,0,0,0,0,-1,1567,1142,0,0
350,-118,0,0,0,0,0,0,0,0,0,-1,1574,1142,0,0
357,-118,0,0,0,0,0,0,0,0,0,-1,1581,1142,0,0
364,-118,0,0,0,0,0,0,0,0,0,-1,1588,1142,0,0
371,-118,0,0,0,0,0,0,0,0,0,-1,1595,1142,0,0
378,-118,0,0,0,0,0,0,0,0,0,-1,1602,1142,0,0
385,-118,0,0,0,0,0,0,0,0,0,-1,1609,1142,0,0
392,-118,0,0,0,0,0,0,0,0,0,-1,1616,1142,0,0
399,-118,0,0,0,0,0,0,0,0,0,-1,1623,1142,0,0
406,-118,0,0,0,0,0,0,0,0,0,-1,1630,1142,0,0
413,-118,0,0,0,0,0,0,0,0,0,-1,1637,1142,0,0
420,-118,0,0,0,0,0,0,0,0,0,-1,1644,1142,0,0
427,-118,0,0,0,0,0,0,0,0,0,-1,1651,1142,0,0
434,-118,0,0,0,0,0,0,0,0,0,-1,1658,1142,0,0
441,-118,0,0,0,0,0,0,0,0,0,-1,1665,1142,0,0
448,-118,0,0,0,0,0,0,0,0,0,-1,1672,1142,0,0
455,-118,0,0,0,0,0,0,0,0,0,-1,1679,1142,0,0
462,-118,0,0,0,0,0,0,0,0,0,-1,1686,1142,0,0
469,-118,0,0,0,0,0,0,0,0,0,-1,1693,1142,0,0
476,-118,0,0,0,0,0,0,0,0,0,-1,1700,1142,0,0
483,-118,0,0,0,0,0,0,0,0,0,-1,1707,1142,0,0
490,-118,0,0,0,0,0,0,0,0,0,-1,1714,1142,0,0
497,-118,0,0,0,0,0,0,0,0,0,-1,1721,1142,0,0
504,-118,0,0,0,0,0,0,0,0,0,-1,1728,1142,0,0
511,-118,0,0,0,0,0,0,0,0,0,-1,1735,1142,0,0
518,-118,0,0,0,0,0,0,0,0,0,-1,1742,1142,0,0
525,-118,0,0,0,0,0,0,0,0,0,-1,1749,1142,0,0
532,-118,0,0,0,0,0,0,0,0,0,-1,1756,1142,0,0
539,-118,0,0,0,0,0,0,0,0,0,-1,1763,1142,0,0
546,-118,0,0,0,0,0,0,0,0,0,-1,1770,1142,0,0
553,-118,0,0,0,0,0,0,0,0,0,-1,1777,1142,0,0
560,-118,0,0,0,0,0,0,0,0,0,-1,1784,1142,0,0
567,-118,0,0,0,0,0,0,0,0,0,-1,1791,1142,0,0
574,-118,0,0,0,0,0,0,0,0,0,-1,1798,1142,0,0
581,-118,0,0,0,0,0,0,0,0,0,-1,1805,1142,0,0
588,-118,0,0,0,0,0,0,0,0,0,-1,1812,1142,0,0
595,-118,0,0,0,0,0,0,0,0,0,-1,1819,1142,0,0
602,-118,0,0,0,0,0,0,0,0,0,-1,1826,1142,0,0
609,-118,0,0,0,0,0,0,0,0,0,-1,1833,1142,0,0
616,-118,0,0,0,0,0,0,0,0,0,-1,1840,1142,0,0
623,-118,0,0,0,0,0,0,0,0,0,-1,1847,1142,0,0
630,-118,0,0,0,0,0,0,0,0,0,-1,1854,1142,0,0
637,-118,0,0,0,0,0,0,0,0,0,-1,1861,1142,0,0
644,-118,227.96,8.91614,0,0,0,0,0,0,0,-1,1868,1142,227.96,-8.91609
651,-118,228.007,9.09729,0,0,0,0,0,0,0,-1,1875,1142,228.007,-9.09728
658,-118,228.068,8.91272,0,0,0,0,0,0,0,-1,1882,1142,228.068,-8.91271
665,-118,228.002,8.54565,0,0,0,0,0,0,0,-1,1889,1142,228.002,-8.54564
672,-118,227.919,8.56616,0,0,0,0,0,0,0,-1,1896,1142,227.919,-8.56616
679,-118,227.974,8.75171,0,0,0,0,0,0,0,-1,1903,1142,227.974,-8.75176
686,-118,227.94,8.83252,0,0,0,0,0,0,0,-1,1910,1142,227.94,-8.83258
693,-118,227.775,8.77026,0,0,0,0,0,0,0,-1,1917,1142,227.775,-8.77027
700,-118,227.938,8.70081,0,0,0,0,0,0,0,-1,1924,1142,227.937,-8.70084
707,-118,228.152,8.64246,0,0,0,0,0,0,0,-1,1931,1142,228.152,-8.64243
714,-118,50.4819,8.53809,0,0,0,0,0,0,0,-1,1938,1142,50.4819,-8.53809
721,-118,228.57,33.5327,0,0,0,0,0,0,0,-1,1945,1142,228.57,-33.5328
728,-118,228.3,32.8894,-0.00455117,-0.00463744,0.00855833,0.00396414,-0.0131527,0.782878,0.0103462,0.0327823,1952,1142,228.3,-32.8894
735,-118,228.146,32.3661,-0.0082593,0.00436882,0.00732138,0.00772275,-0.0116132,1.14123,0.0112387,0.0310553,1959,1142,228.146,-32.3661
742,-118,228.041,31.8242,-0.0121276,0.0131971,0.00650176,0.0147688,-0.0136993,1.33361,0.0164399,0.0426306,1966,1142,228.041,-31.8242
749,-118,227.62,31.168,-0.0161838,0.0218639,0.00606846,0.0228084,-0.0171283,1.4164,0.023135,0.0337269,1973,1142,227.62,-31.168
756,-118,227.476,30.3829,-0.0204502,0.0303822,0.00599059,0.0310786,-0.0211466,1.45506,0.0303335,0.028195,1980,1142,227.476,-30.3829
763,-118,227.684,29.6885,0,0,0,0,0,0,0,-1,1987,1142,227.684,-29.6885
770,-118,227.247,29.1251,-0.0296726,0.0470034,0.0067845,0.0475991,-0.0302683,1.48322,0.0453264,0.0279506,1994,1142,227.247,-29.1251
777,-118,226.926,28.498,0,0,0,0,0,0,0,-1,2001,1142,226.926,-28.498
784,-118,226.693,27.8184,0,0,0,0,0,0,0,-1,2008,1142,226.693,-27.8184
791,-118,148.07,17.4791,0,0,0,0,0,0,0,-1,2015,1142,148.07,-17.4791
798,-118,133.874,10.8453,0,0,0,0,0,0,0,-1,2022,1142,133.874,-10.8454
805,-118,117.066,3.61499,0,0,0,0,0,0,0,-1,2029,1142,117.066,-3.61499
812,-118,115.738,2.09705,0,0,0,0,0,0,0,-1,2036,1142,115.738,-2.09702
-700,-125,0,0,0,0,0,0,0,0,0,-1,524,1149,0,0
-693,-125,-85.8903,0.790649,0,0,0,0,0,0,0,-1,531,1149,-85.8903,-0.790608
-686,-125,-85.7074,2.69226,0,0,0,0,0,0,0,-1,538,1149,-85.7074,-2.6923
-679,-125,-85.6257,4.22424,0,0,0,0,0,0,0,-1,545,1149,-85.6257,-4.22429
-672,-125,-85.823,5.55298,0,0,0,0,0,0,0,-1,552,1149,-85.823,-5.55295
-665,-125,-80.6827,9.34875,0,0,0,0,0,0,0,-1,559,1149,-80.6827,-9.34879
-658,-125,-81.5901,7.77625,0,0,0,0,0,0,0,-1,566,1149,-81.59,-7.77628
-651,-125,-92.6542,11.2368,0,0,0,0,0,0,0,-1,573,1149,-92.6542,-11.2368
-644,-125,-219.421,27.8022,0,0,0,0,0,0,0,-1,580,1149,-219.42,-27.8023
-637,-125,-219.299,28.3796,-0.0188713,0.0445469,-0.0136336,0.0473536,-0.021678,-1.36776,0.040764,0.0311652,587,1149,-219.299,-28.3797
-630,-125,-219.472,28.9775,-0.0181315,0.0418055,-0.0102127,0.0434979,-0.0198239,-1.40658,0.0374009,0.0302643,594,1149,-219.472,-28.9775
-623,-125,-219.591,29.6691,-0.0172507,0.0385209,-0.00698448,0.0393823,-0.0181121,-1.44809,0.0339431,0.0231703,601,1149,-219.591,-29.669
-616,-125,-220.433,29.7324,0,0,0,0,0,0,0,-1,608,1149,-220.433,-29.7324
-609,-125,-219.939,30.8989,0,0,0,0,0,0,0,-1,615,1149,-219.939,-30.8989
-602,-125,-219.445,32.0653,0,0,0,0,0,0,0,-1,622,1149,-219.445,-32.0654
-595,-125,-211.418,32.677,0,0,0,0,0,0,0,-1,629,1149,-211.418,-32.677
-588,-125,-210.46,33.5544,0,0,0,0,0,0,0,-1,636,1149,-210.46,-33.5545
-581,-125,-26.4055,4.83203,0,0,0,0,0,0,0,-1,643,1149,-26.4055,-4.83204
-574,-125,-37.674,0.655151,0,0,0,0,0,0,0,-1,650,1149,-37.674,-0.655195
-567,-125,-72.0776,0.557861,0,0,0,0,0,0,0,-1,657,1149,-72.0776,-0.557844
-560,-125,-72.0543,0.454834,0,0,0,0,0,0,0,-1,664,1149,-72.0543,-0.45488
-553,-125,-71.9824,0.501099,0,0,0,0,0,0,0,-1,671,1149,-71.9824,-0.501113
-546,-125,-72.0555,0.591553,0,0,0,0,0,0,0,-1,678,1149,-72.0555,-0.591532
-539,-125,-72.1036,0.750366,0,0,0,0,0,0,0,-1,685,1149,-72.1036,-0.750355
-532,-125,-72.1306,0.628418,0,0,0,0,0,0,0,-1,692,1149,-72.1305,-0.628371
-525,-125,-71.9377,0.417236,0,0,0,0,0,0,0,-1,699,1149,-71.9377,-0.417244
-518,-125,0,0,0,0,0,0,0,0,0,-1,706,1149,0,0
-511,-125,0,0,0,0,0,0,0,0,0,-1,713,1149,0,0
-504,-125,0,0,0,0,0,0,0,0,0,-1,720,1149,0,0
-497,-125,0,0,0,0,0,0,0,0,0,-1,727,1149,0,0
-490,-125,0,0,0,0,0,0,0,0,0,-1,734,1149,0,0
-483,-125,0,0,0,0,0,0,0,0,0,-1,741,1149,0,0
-476,-125,0,0,0,0,0,0,0,0,0,-1,748,1149,0,0
-469,-125,0,0,0,0,0,0,0,0,0,-1,755,1149,0,0
-462,-125,0,0,0,0,0,0,0,0,0,-1,762,1149,0,0
-455,-125,0,0,0,0,0,0,0,0,0,-1,769,1149,0,0
-448,-125,0,0,0,0,0,0,0,0,0,-1,776,1149,0,0
-441,-125,0,0,0,0,0,0,0,0,0,-1,783,1149,0,0
-434,-125,0,0,0,0,0,0,0,0,0,-1,790,1149,0,0
-427,-125,0,0,0,0,0,0,0,0,0,-1,797,1149,0,0
-420,-125,0,0,0,0,0,0,0,0,0,-1,804,1149,0,0
-413,-125,0,0,0,0,0,0,0,0,0,-1,811,1149,0,0
-406,-125,0,0,0,0,0,0,0,0,0,-1,818,1149,0,0
-399,-125,0,0,0,0,0,0,0,0,0,-1,825,1149,0,0
-392,-125,0,0,0,0,0,0,0,0,0,-1,832,1149,0,0
-385,-125,0,0,0,0,0,0,0,0,0,-1,839,1149,0,0
-378,-125,0,0,0,0,0,0,0,0,0,-1,846,1149,0,0
-371,-125,0,0,0,0,0,0,0,0,0,-1,853,1149,0,0
-364,-125,0,0,0,0,0,0,0,0,0,-1,860,1149,0,0
-357,-125,0,0,0,0,0,0,0,0,0,-1,867,1149,0,0
-350,-125,0,0,0,0,0,0,0,0,0,-1,874,1149,0,0
-343,-125,0,0,0,0,0,0,0,0,0,-1,881,1149,0,0
-336,-125,0,0,0,0,0,0,0,0,0,-1,888,1149,0,0
-329,-125,0,0,0,0,0,0,0,0,0,-1,895,1149,0,0
-322,-125,0,0,0,0,0,0,0,0,0,-1,902,1149,0,0
-315,-125,0,0,0,0,0,0,0,0,0,-1,909,1149,0,0
-308,-125,0,0,0,0,0,0,0,0,0,-1,916,1149,0,0
-301,-125,0,0,0,0,0,0,0,0,0,-1,923,1149,0,0
-294,-125,0,0,0,0,0,0,0,0,0,-1,930,1149,0,0
-287,-125,0,0,0,0,0,0,0,0,0,-1,937,1149,0,0
-280,-125,0,0,0,0,0,0,0,0,0,-1,944,1149,0,0
-273,-125,0,0,0,0,0,0,0,0,0,-1,951,1149,0,0
-266,-125,0,0,0,0,0,0,0,0,0,-1,958,1149,0,0
-259,-125,0,0,0,0,0,0,0,0,0,-1,965,1149,0,0
-252,-125,0,0,0,0,0,0,0,0,0,-1,972,1149,0,0
-245,-125,0,0,0,0,0,0,0,0,0,-1,979,1149,0,0
-238,-125,0,0,0,0,0,0,0,0,0,-1,986,1149,0,0
-231,-125,0,0,0,0,0,0,0,0,0,-1,993,1149,0,0
-224,-125,0,0,0,0,0,0,0,0,0,-1,1000,1149,0,0
-217,-125,0,0,0,0,0,0,0,0,0,-1,1007,1149,0,0
-210,-125,0,0,0,0,0,0,0,0,0,-1,1014,1149,0,0
-203,-125,0,0,0,0,0,0,0,0,0,-1,1021,1149,0,0
-196,-125,0,0,0,0,0,0,0,0,0,-1,1028,1149,0,0
-189,-125,0,0,0,0,0,0,0,0,0,-1,1035,1149,0,0
-182,-125,0,0,0,0,0,0,0,0,0,-1,1042,1149,0,0
-175,-125,0,0,0,0,0,0,0,0,0,-1,1049,1149,0,0
-168,-125,0,0,0,0,0,0,0,0,0,-1,1056,1149,0,0
-161,-125,0,0,0,0,0,0,0,0,0,-1,1063,1149,0,0
-154,-125,0,0,0,0,0,0,0,0,0,-1,1070,1149,0,0
-147,-125,0,0,0,0,0,0,0,0,0,-1,1077,1149,0,0
-140,-125,0,0,0,0,0,0,0,0,0,-1,1084,1149,0,0
-133,-125,0,0,0,0,0,0,0,0,0,-1,1091,1149,0,0
-126,-125,0,0,0,0,0,0,0,0,0,-1,1098,1149,0,0
-119,-125,0,0,0,0,0,0,0,0,0,-1,1105,1149,0,0
-112,-125,0,0,0,0,0,0,0,0,0,-1,1112,1149,0,0
-105,-125,0,0,0,0,0,0,0,0,0,-1,1119,1149,0,0
-98,-125,0,0,0,0,0,0,0,0,0,-1,1126,1149,0,0
-91,-125,0,0,0,0,0,0,0,0,0,-1,1133,1149,0,0
-84,-125,0,0,0,0,0,0,0,0,0,-1,1140,1149,0,0
-77,-125,0,0,0,0,0,0,0,0,0,-1,1147,1149,0,0
-70,-125,0,0,0,0,0,0,0,0,0,-1,1154,1149,0,0
-63,-125,0,0,0,0,0,0,0,0,0,-1,1161,1149,0,0
-56,-125,0,0,0,0,0,0,0,0,0,-1,1168,1149,0,0
-49,-125,0,0,0,0,0,0,0,0,0,-1,1175,1149,0,0
-42,-125,0,0,0,0,0,0,0,0,0,-1,1182,1149,0,0
-35,-125,0,0,0,0,0,0,0,0,0,-1,1189,1149,0,0
-28,-125,0,0,0,0,0,0,0,0,0,-1,1196,1149,0,0
-21,-125,0,0,0,0,0,0,0,0,0,-1,1203,1149,0,0
-14,-125,0,0,0,0,0,0,0,0,0,-1,1210,1149,0,0
-7,-125,0,0,0,0,0,0,0,0,0,-1,1217,1149,0,0
0,-125,0,0,0,0,0,0,0,0,0,-1,1224,1149,0,0
7,-125,0,0,0,0,0,0,0,0,0,-1,1231,1149,0,0
14,-125,0,0,0,0,0,0,0,0,0,-1,1238,1149,0,0
21,-125,0,0,0,0,0,0,0,0,0,-1,1245,1149,0,0
28,-125,0,0,0,0,0,0,0,0,0,-1,1252,1149,0,0
35,-125,0,0,0,0,0,0,0,0,0,-1,1259,1149,0,0
42,-125,0,0,0,0,0,0,0,0,0,-1,1266,1149,0,0
49,-125,0,0,0,0,0,0,0,0,0,-1,1273,1149,0,0
56,-125,0,0,0,0,0,0,0,0,0,-1,1280,1149,0,0
63,-125,0,0,0,0,0,0,0,0,0,-1,1287,1149,0,0
70,-125,0,0,0,0,0,0,0,0,0,-1,1294,1149,0,0
77,-125,0,0,0,0,0,0,0,0,0,-1,1301,1149,0,0
84,-125,0,0,0,0,0,0,0,0,0,-1,1308,1149,0,0
91,-125,0,0,0,0,0,0,0,0,0,-1,1315,1149,0,0
98,-125,0,0,0,0,0,0,0,0,0,-1,1322,1149,0,0
105,-125,0,0,0,0,0,0,0,0,0,-1,1329,1149,0,0
112,-125,0,0,0,0,0,0,0,0,0,-1,1336,1149,0,0
119,-125,0,0,0,0,0,0,0,0,0,-1,1343,1149,0,0
126,-125,0,0,0,0,0,0,0,0,0,-1,1350,1149,0,0
133,-125,0,0,0,0,0,0,0,0,0,-1,1357,1149,0,0
140,-125,0,0,0,0,0,0,0,0,0,-1,1364,1149,0,0
147,-125,0,0,0,0,0,0,0,0,0,-1,1371,1149,0,0
154,-125,0,0,0,0,0,0,0,0,0,-1,1378,1149,0,0
161,-125,0,0,0,0,0,0,0,0,0,-1,1385,1149,0,0
168,-125,0,0,0,0,0,0,0,0,0,-1,1392,1149,0,0
175,-125,0,0,0,0,0,0,0,0,0,-1,1399,1149,0,0
182,-125,0,0,0,0,0,0,0,0,0,-1,1406,1149,0,0
189,-125,0,0,0,0,0,0,0,0,0,-1,1413,1149,0,0
196,-125,0,0,0,0,0,0,0,0,0,-1,1420,1149,0,0
203,-125,0,0,0,0,0,0,0,0,0,-1,1427,1149,0,0
210,-125,0,0,0,0,0,0,0,0,0,-1,1434,1149,0,0
217,-125,0,0,0,0,0,0,0,0,0,-1,1441,1149,0,0
224,-125,0,0,0,0,0,0,0,0,0,-1,1448,1149,0,0
231,-125,0,0,0,0,0,0,0,0,0,-1,1455,1149,0,0
238,-125,0,0,0,0,0,0,0,0,0,-1,1462,1149,0,0
245,-125,0,0,0,0,0,0,0,0,0,-1,1469,1149,0,0
252,-125,0,0,0,0,0,0,0,0,0,-1,1476,1149,0,0
259,-125,0,0,0,0,0,0,0,0,0,-1,1483,1149,0,0
266,-125,0,0,0,0,0,0,0,0,0,-1,1490,1149,0,0
273,-125,0,0,0,0,0,0,0,0,0,-1,1497,1149,0,0
280,-125,0,0,0,0,0,0,0,0,0,-1,1504,1149,0,0
287,-125,0,0,0,0,0,0,0,0,0,-1,1511,1149,0,0
294,-125,0,0,0,0,0,0,0,0,0,-1,1518,1149,0,0
301,-125,0,0,0,0,0,0,0,0,0,-1,1525,1149,0,0
308,-125,0,0,0,0,0,0,0,0,0,-1,1532,1149,0,0
315,-125,0,0,0,0,0,0,0,0,0,-1,1539,1149,0,0
322,-125,0,0,0,0,0,0,0,0,0,-1,1546,1149,0,0
329,-125,0,0,0,0,0,0,0,0,0,-1,1553,1149,0,0
336,-125,0,0,0,0,0,0,0,0,0,-1,1560,1149,0,0
343,-125,0,0,0,0,0,0,0,0,0,-1,1567,1149,0,0
350,-125,0,0,0,0,0,0,0,0,0,-1,1574,1149,0,0
357,-125,0,0,0,0,0,0,0,0,0,-1,1581,1149,0,0
364,-125,0,0,0,0,0,0,0,0,0,-1,1588,1149,0,0
371,-125,0,0,0,0,0,0,0,0,0,-1,1595,1149,0,0
378,-125,0,0,0,0,0,0,0,0,0,-1,1602,1149,0,0
385,-125,0,0,0,0,0,0,0,0,0,-1,1609,1149,0,0
392,-125,0,0,0,0,0,0,0,0,0,-1,1616,1149,0,0
399,-125,0,0,0,0,0,0,0,0,0,-1,1623,1149,0,0
406,-125,0,0,0,0,0,0,0,0,0,-1,1630,1149,0,0
413,-125,0,0,0,0,0,0,0,0,0,-1,1637,1149,0,0
420,-125,0,0,0,0,0,0,0,0,0,-1,1644,1149,0,0
427,-125,0,0,0,0,0,0,0,0,0,-1,1651,1149,0,0
434,-125,0,0,0,0,0,0,0,0,0,-1,1658,1149,0,0
441,-125,0,0,0,0,0,0,0,0,0,-1,1665,1149,0,0
448,-125,0,0,0,0,0,0,0,0,0,-1,1672,1149,0,0
455,-125,0,0,0,0,0,0,0,0,0,-1,1679,1149,0,0
462,-125,0,0,0,0,0,0,0,0,0,-1,1686,1149,0,0
469,-125,0,0,0,0,0,0,0,0,0,-1,1693,1149,0,0
476,-125,0,0,0,0,0,0,0,0,0,-1,1700,1149,0,0
483,-125,0,0,0,0,0,0,0,0,0,-1,1707,1149,0,0
490,-125,0,0,0,0,0,0,0,0,0,-1,1714,1149,0,0
497,-125,0,0,0,0,0,0,0,0,0,-1,1721,1149,0,0
504,-125,0,0,0,0,0,0,0,0,0,-1,1728,1149,0,0
511,-125,0,0,0,0,0,0,0,0,0,-1,1735,1149,0,0
518,-125,0,0,0,0,0,0,0,0,0,-1,1742,1149,0,0
525,-125,0,0,0,0,0,0,0,0,0,-1,1749,1149,0,0
532,-125,0,0,0,0,0,0,0,0,0,-1,1756,1149,0,0
539,-125,0,0,0,0,0,0,0,0,0,-1,1763,1149,0,0
546,-125,0,0,0,0,0,0,0,0,0,-1,1770,1149,0,0
553,-125,0,0,0,0,0,0,0,0,0,-1,1777,1149,0,0
560,-125,0,0,0,0,0,0,0,0,0,-1,1784,1149,0,0
567,-125,0,0,0,0,0,0,0,0,0,-1,1791,1149,0,0
574,-125,0,0,0,0,0,0,0,0,0,-1,1798,1149,0,0
581,-125,0,0,0,0,0,0,0,0,0,-1,1805,1149,0,0
588,-125,0,0,0,0,0,0,0,0,0,-1,1812,1149,0,0
595,-125,0,0,0,0,0,0,0,0,0,-1,1819,1149,0,0
602,-125,0,0,0,0,0,0,0,0,0,-1,1826,1149,0,0
609,-125,0,0,0,0,0,0,0,0,0,-1,1833,1149,0,0
616,-125,0,0,0,0,0,0,0,0,0,-1,1840,1149,0,0
623,-125,0,0,0,0,0,0,0,0,0,-1,1847,1149,0,0
630,-125,0,0,0,0,0,0,0,0,0,-1,1854,1149,0,0
637,-125,0,0,0,0,0,0,0,0,0,-1,1861,1149,0,0
644,-125,228.057,8.87573,0,0,0,0,0,0,0,-1,1868,1149,228.057,-8.87578
651,-125,228.095,9.00549,0,0,0,0,0,0,0,-1,1875,1149,228.095,-9.0055
658,-125,228.051,8.87207,0,0,0,0,0,0,0,-1,1882,1149,228.051,-8.8721
665,-125,228.02,8.68347,0,0,0,0,0,0,0,-1,1889,1149,228.02,-8.68344
672,-125,228.034,8.68616,0,0,0,0,0,0,0,-1,1896,1149,228.034,-8.6861
679,-125,227.984,8.9696,0,0,0,0,0,0,0,-1,1903,1149,227.984,-8.96962
686,-125,227.961,8.89307,0,0,0,0,0,0,0,-1,1910,1149,227.961,-8.89311
693,-125,227.69,8.88232,0,0,0,0,0,0,0,-1,1917,1149,227.69,-8.88231
700,-125,227.929,8.65466,0,0,0,0,0,0,0,-1,1924,1149,227.929,-8.65467
707,-125,228.151,8.30481,0,0,0,0,0,0,0,-1,1931,1149,228.151,-8.30486
714,-125,54.8745,9.21375,0,0,0,0,0,0,0,-1,1938,1149,54.8746,-9.21371
721,-125,227.441,33.8074,0,0,0,0,0,0,0,-1,1945,1149,227.441,-33.8073
728,-125,227.288,33.115,-0.00376677,-0.001324,0.00794181,0.0054898,-0.0105806,0.861696,0.00943213,0.0351653,1952,1149,227.288,-33.115
735,-125,227.261,32.4841,-0.00773253,0.00710704,0.00694231,0.0098484,-0.0104739,1.19471,0.0117349,0.0387287,1959,1149,227.261,-32.4841
742,-125,227.056,31.7394,-0.0117795,0.0153898,0.00638141,0.016814,-0.0132037,1.35122,0.0173724,0.0442819,1966,1149,227.056,-31.7393
749,-125,226.761,31.0822,-0.0159297,0.0235414,0.00623522,0.0245029,-0.0168913,1.41779,0.0240333,0.0350078,1973,1149,226.761,-31.0821
756,-125,226.669,30.1863,0,0,0,0,0,0,0,-1,1980,1149,226.669,-30.1863
763,-125,226.761,29.5192,-0.024603,0.0394965,0.00709855,0.0402732,-0.0253797,1.46181,0.0382284,0.0189596,1987,1149,226.762,-29.5192
770,-125,226.403,28.6803,-0.0291437,0.0473098,0.00807032,0.0481524,-0.0299863,1.46677,0.0455179,0.0284607,1994,1149,226.403,-28.6804
777,-125,226.002,27.8687,0,0,0,0,0,0,0,-1,2001,1149,226.002,-27.8686
784,-125,147.026,18.6482,0,0,0,0,0,0,0,-1,2008,1149,147.026,-18.6482
791,-125,132.727,12.136,0,0,0,0,0,0,0,-1,2015,1149,132.727,-12.136
798,-125,113.704,2.52368,0,0,0,0,0,0,0,-1,2022,1149,113.704,-2.52367
805,-125,114.45,3.41956,0,0,0,0,0,0,0,-1,2029,1149,114.451,-3.41951
812,-125,115.883,3.97852,0,0,0,0,0,0,0,-1,2036,1149,115.883,-3.97857
-700,-132,0,0,0,0,0,0,0,0,0,-1,524,1156,0,0
-693,-132,-84.8775,-0.206787,0,0,0,0,0,0,0,-1,531,1156,-84.8775,0.20675
-686,-132,-84.7945,1.61938,0,0,0,0,0,0,0,-1,538,1156,-84.7945,-1.6194
-679,-132,-84.6419,3.61133,0,0,0,0,0,0,0,-1,545,1156,-84.6419,-3.61137
-672,-132,-81.5812,8.59778,0,0,0,0,0,0,0,-1,552,1156,-81.5813,-8.59783
-665,-132,-80.6072,9.95984,0,0,0,0,0,0,0,-1,559,1156,-80.6072,-9.95988
-658,-132,-91.9766,9.54736,0,0,0,0,0,0,0,-1,566,1156,-91.9766,-9.54732
-651,-132,-116.257,16.9509,0,0,0,0,0,0,0,-1,573,1156,-116.257,-16.9509
-644,-132,-218.788,27.4045,0,0,0,0,0,0,0,-1,580,1156,-218.788,-27.4045
-637,-132,-218.672,28.0146,-0.0203291,0.0454175,-0.0155736,0.0489199,-0.0238315,-1.34958,0.0428274,0.03084,587,1156,-218.672,-28.0147
-630,-132,-218.758,28.6432,-0.0195368,0.042804,-0.0116482,0.0449094,-0.0216421,-1.39198,0.0391985,0.0227239,594,1156,-218.758,-28.6432
-623,-132,-218.866,29.3799,-0.0186581,0.0396404,-0.00787058,0.0406843,-0.019702,-1.43894,0.0355587,0.0253084,601,1156,-218.866,-29.3799
-616,-132,-218.975,30.1573,0,0,0,0,0,0,0,-1,608,1156,-218.975,-30.1573
-609,-132,-218.875,30.9296,0,0,0,0,0,0,0,-1,615,1156,-218.875,-30.9296
-602,-132,-206.554,32.6582,0,0,0,0,0,0,0,-1,622,1156,-206.554,-32.6582
-595,-132,-210.693,32.932,0,0,0,0,0,0,0,-1,629,1156,-210.693,-32.932
-588,-132,-42.6534,6.92969,0,0,0,0,0,0,0,-1,636,1156,-42.6535,-6.92967
-581,-132,-35.9343,6.42957,0,0,0,0,0,0,0,-1,643,1156,-35.9342,-6.42957
-574,-132,-33.2071,2.86963,0,0,0,0,0,0,0,-1,650,1156,-33.2071,-2.86963
-567,-132,-72.0044,0.526489,0,0,0,0,0,0,0,-1,657,1156,-72.0044,-0.526461
-560,-132,-72.1078,0.445068,0,0,0,0,0,0,0,-1,664,1156,-72.1078,-0.445009
-553,-132,-72.0989,0.435669,0,0,0,0,0,0,0,-1,671,1156,-72.0989,-0.435641
-546,-132,-72.072,0.571045,0,0,0,0,0,0,0,-1,678,1156,-72.0721,-0.570985
-539,-132,-72.0065,0.603271,0,0,0,0,0,0,0,-1,685,1156,-72.0065,-0.603318
-532,-132,-71.9823,0.505493,0,0,0,0,0,0,0,-1,692,1156,-71.9823,-0.505447
-525,-132,-72.0096,0.454956,0,0,0,0,0,0,0,-1,699,1156,-72.0097,-0.455012
-518,-132,0,0,0,0,0,0,0,0,0,-1,706,1156,0,0
-511,-132,0,0,0,0,0,0,0,0,0,-1,713,1156,0,0
-504,-132,0,0,0,0,0,0,0,0,0,-1,720,1156,0,0
-497,-132,0,0,0,0,0,0,0,0,0,-1,727,1156,0,0
-490,-132,0,0,0,0,0,0,0,0,0,-1,734,1156,0,0
-483,-132,0,0,0,0,0,0,0,0,0,-1,741,1156,0,0
-476,-132,0,0,0,0,0,0,0,0,0,-1,748,1156,0,0
-469,-132,0,0,0,0,0,0,0,0,0,-1,755,1156,0,0
-462,-132,0,0,0,0,0,0,0,0,0,-1,762,1156,0,0
-455,-132,0,0,0,0,0,0,0,0,0,-1,769,1156,0,0
-448,-132,0,0,0,0,0,0,0,0,0,-1,776,1156,0,0
-441,-132,0,0,0,0,0,0,0,0,0,-1,783,1156,0,0
-434,-132,0,0,0,0,0,0,0,0,0,-1,790,1156,0,0
-427,-132,0,0,0,0,0,0,0,0,0,-1,797,1156,0,0
-420,-132,0,0,0,0,0,0,0,0,0,-1,804,1156,0,0
-413,-132,0,0,0,0,0,0,0,0,0,-1,811,1156,0,0
-406,-132,0,0,0,0,0,0,0,0,0,-1,818,1156,0,0
-399,-132,0,0,0,0,0,0,0,0,0,-1,825,1156,0,0
-392,-132,0,0,0,0,0,0,0,0,0,-1,832,1156,0,0
-385,-132,0,0,0,0,0,0,0,0,0,-1,839,1156,0,0
-378,-132,0,0,0,0,0,0,0,0,0,-1,846,1156,0,0
-371,-132,0,0,0,0,0,0,0,0,0,-1,853,1156,0,0
-364,-132,0,0,0,0,0,0,0,0,0,-1,860,1156,0,0
-357,-132,0,0,0,0,0,0,0,0,0,-1,867,1156,0,0
-350,-132,0,0,0,0,0,0,0,0,0,-1,874,1156,0,0
-343,-132,0,0,0,0,0,0,0,0,0,-1,881,1156,0,0
-336,-132,0,0,0,0,0,0,0,0,0,-1,888,1156,0,0
-329,-132,0,0,0,0,0,0,0,0,0,-1,895,1156,0,0
-322,-132,0,0,0,0,0,0,0,0,0,-1,902,1156,0,0
-315,-132,0,0,0,0,0,0,0,0,0,-1,909,1156,0,0
-308,-132,0,0,0,0,0,0,0,0,0,-1,916,1156,0,0
-301,-132,0,0,0,0,0,0,0,0,0,-1,923,1156,0,0
-294,-132,0,0,0,0,0,0,0,0,0,-1,930,1156,0,0
-287,-132,0,0,0,0,0,0,0,0,0,-1,937,1156,0,0
-280,-132,0,0,0,0,0,0,0,0,0,-1,944,1156,0,0
-273,-132,0,0,0,0,0,0,0,0,0,-1,951,1156,0,0
-266,-132,0,0,0,0,0,0,0,0,0,-1,958,1156,0,0
-259,-132,0,0,0,0,0,0,0,0,0,-1,965,1156,0,0
-252,-132,0,0,0,0,0,0,0,0,0,-1,972,1156,0,0
-245,-132,0,0,0,0,0,0,0,0,0,-1,979,1156,0,0
-238,-132,0,0,0,0,0,0,0,0,0,-1,986,1156,0,0
-231,-132,0,0,0,0,0,0,0,0,0,-1,993,1156,0,0
-224,-132,0,0,0,0,0,0,0,0,0,-1,1000,1156,0,0
-217,-132,0,0,0,0,0,0,0,0,0,-1,1007,1156,0,0
-210,-132,0,0,0,0,0,0,0,0,0,-1,1014,1156,0,0
-203,-132,0,0,0,0,0,0,0,0,0,-1,1021,1156,0,0
-196,-132,0,0,0,0,0,0,0,0,0,-1,1028,1156,0,0
-189,-132,0,0,0,0,0,0,0,0,0,-1,1035,1156,0,0
-182,-132,0,0,0,0,0,0,0,0,0,-1,1042,1156,0,0
-175,-132,0,0,0,0,0,0,0,0,0,-1,1049,1156,0,0
-168,-132,0,0,0,0,0,0,0,0,0,-1,1056,1156,0,0
-161,-132,0,0,0,0,0,0,0,0,0,-1,1063,1156,0,0
-154,-132,0,0,0,0,0,0,0,0,0,-1,1070,1156,0,0
-147,-132,0,0,0,0,0,0,0,0,0,-1,1077,1156,0,0
-140,-132,0,0,0,0,0,0,0,0,0,-1,1084,1156,0,0
-133,-132,0,0,0,0,0,0,0,0,0,-1,1091,1156,0,0
-126,-132,0,0,0,0,0,0,0,0,0,-1,1098,1156,0,0
-119,-132,0,0,0,0,0,0,0,0,0,-1,1105,1156,0,0
-112,-132,0,0,0,0,0,0,0,0,0,-1,1112,1156,0,0
-105,-132,0,0,0,0,0,0,0,0,0,-1,1119,1156,0,0
-98,-132,0,0,0,0,0,0,0,0,0,-1,1126,1156,0,0
-91,-132,0,0,0,0,0,0,0,0,0,-1,1133,1156,0,0
-84,-132,0,0,0,0,0,0,0,0,0,-1,1140,1156,0,0
-77,-132,0,0,0,0,0,0,0,0,0,-1,1147,1156,0,0
-70,-132,0,0,0,0,0,0,0,0,0,-1,1154,1156,0,0
-63,-132,0,0,0,0,0,0,0,0,0,-1,1161,1156,0,0
-56,-132,0,0,0,0,0,0,0,0,0,-1,1168,1156,0,0
-49,-132,0,0,0,0,0,0,0,0,0,-1,1175,1156,0,0
-42,-132,0,0,0,0,0,0,0,0,0,-1,1182,1156,0,0
-35,-132,0,0,0,0,0,0,0,0,0,-1,1189,1156,0,0
-28,-132,0,0,0,0,0,0,0,0,0,-1,1196,1156,0,0
-21,-132,0,0,0,0,0,0,0,0,0,-1,1203,1156,0,0
-14,-132,0,0,0,0,0,0,0,0,0,-1,1210,1156,0,0
-7,-132,0,0,0,0,0,0,0,0,0,-1,1217,1156,0,0
0,-132,0,0,0,0,0,0,0,0,0,-1,1224,1156,0,0
7,-132,0,0,0,0,0,0,0,0,0,-1,1231,1156,0,0
14,-132,0,0,0,0,0,0,0,0,0,-1,1238,1156,0,0
21,-132,0,0,0,0,0,0,0,0,0,-1,1245,1156,0,0
28,-132,0,0,0,0,0,0,0,0,0,-1,1252,1156,0,0
35,-132,0,0,0,0,0,0,0,0,0,-1,1259,1156,0,0
42,-132,0,0,0,0,0,0,0,0,0,-1,1266,1156,0,0
49,-132,0,0,0,0,0,0,0,0,0,-1,1273,1156,0,0
56,-132,0,0,0,0,0,0,0,0,0,-1,1280,1156,0,0
63,-132,0,0,0,0,0,0,0,0,0,-1,1287,1156,0,0
70,-132,0,0,0,0,0,0,0,0,0,-1,1294,1156,0,0
77,-132,0,0,0,0,0,0,0,0,0,-1,1301,1156,0,0
84,-132,0,0,0,0,0,0,0,0,0,-1,1308,1156,0,0
91,-132,0,0,0,0,0,0,0,0,0,-1,1315,1156,0,0
98,-132,0,0,0,0,0,0,0,0,0,-1,1322,1156,0,0
105,-132,0,0,0,0,0,0,0,0,0,-1,1329,1156,0,0
112,-132,0,0,0,0,0,0,0,0,0,-1,1336,1156,0,0
119,-132,0,0,0,0,0,0,0,0,0,-1,1343,1156,0,0
126,-132,0,0,0,0,0,0,0,0,0,-1,1350,1156,0,0
133,-132,0,0,0,0,0,0,0,0,0,-1,1357,1156,0,0
140,-132,0,0,0,0,0,0,0,0,0,-1,1364,1156,0,0
147,-132,0,0,0,0,0,0,0,0,0,-1,1371,1156,0,0
154,-132,0,0,0,0,0,0,0,0,0,-1,1378,1156,0,0
161,-132,0,0,0,0,0,0,0,0,0,-1,1385,1156,0,0
168,-132,0,0,0,0,0,0,0,0,0,-1,1392,1156,0,0
175,-132,0,0,0,0,0,0,0,0,0,-1,1399,1156,0,0
182,-132,0,0,0,0,0,0,0,0,0,-1,1406,1156,0,0
189,-132,0,0,0,0,0,0,0,0,0,-1,1413,1156,0,0
196,-132,0,0,0,0,0,0,0,0,0,-1,1420,1156,0,0
203,-132,0,0,0,0,0,0,0,0,0,-1,1427,1156,0,0
210,-132,0,0,0,0,0,0,0,0,0,-1,1434,1156,0,0
217,-132,0,0,0,0,0,0,0,0,0,-1,1441,1156,0,0
224,-132,0,0,0,0,0,0,0,0,0,-1,1448,1156,0,0
231,-132,0,0,0,0,0,0,0,0,0,-1,1455,1156,0,0
238,-132,0,0,0,0,0,0,0,0,0,-1,1462,1156,0,0
245,-132,0,0,0,0,0,0,0,0,0,-1,1469,1156,0,0
252,-132,0,0,0,0,0,0,0,0,0,-1,1476,1156,0,0
259,-132,0,0,0,0,0,0,0,0,0,-1,1483,1156,0,0
266,-132,0,0,0,0,0,0,0,0,0,-1,1490,1156,0,0
273,-132,0,0,0,0,0,0,0,0,0,-1,1497,1156,0,0
280,-132,0,0,0,0,0,0,0,0,0,-1,1504,1156,0,0
287,-132,0,0,0,0,0,0,0,0,0,-1,1511,1156,0,0
294,-132,0,0,0,0,0,0,0,0,0,-1,1518,1156,0,0
301,-132,0,0,0,0,0,0,0,0,0,-1,1525,1156,0,0
308,-132,0,0,0,0,0,0,0,0,0,-1,1532,1156,0,0
315,-132,0,0,0,0,0,0,0,0,0,-1,1539,1156,0,0
322,-132,0,0,0,0,0,0,0,0,0,-1,1546,1156,0,0
329,-132,0,0,0,0,0,0,0,0,0,-1,1553,1156,0,0
336,-132,0,0,0,0,0,0,0,0,0,-1,1560,1156,0,0
343,-132,0,0,0,0,0,0,0,0,0,-1,1567,1156,0,0
350,-132,0,0,0,0,0,0,0,0,0,-1,1574,1156,0,0
357,-132,0,0,0,0,0,0,0,0,0,-1,1581,1156,0,0
364,-132,0,0,0,0,0,0,0,0,0,-1,1588,1156,0,0
371,-132,0,0,0,0,0,0,0,0,0,-1,1595,1156,0,0
378,-132,0,0,0,0,0,0,0,0,0,-1,1602,1156,0,0
385,-132,0,0,0,0,0,0,0,0,0,-1,1609,1156,0,0
392,-132,0,0,0,0,0,0,0,0,0,-1,1616,1156,0,0
399,-132,0,0,0,0,0,0,0,0,0,-1,1623,1156,0,0
406,-132,0,0,0,0,0,0,0,0,0,-1,1630,1156,0,0
413,-132,0,0,0,0,0,0,0,0,0,-1,1637,1156,0,0
420,-132,0,0,0,0,0,0,0,0,0,-1,1644,1156,0,0
427,-132,0,0,0,0,0,0,0,0,0,-1,1651,1156,0,0
434,-132,0,0,0,0,0,0,0,0,0,-1,1658,1156,0,0
441,-132,0,0,0,0,0,0,0,0,0,-1,1665,1156,0,0
448,-132,0,0,0,0,0,0,0,0,0,-1,1672,1156,0,0
455,-132,0,0,0,0,0,0,0,0,0,-1,1679,1156,0,0
462,-132,0,0,0,0,0,0,0,0,0,-1,1686,1156,0,0
469,-132,0,0,0,0,0,0,0,0,0,-1,1693,1156,0,0
476,-132,0,0,0,0,0,0,0,0,0,-1,1700,1156,0,0
483,-132,0,0,0,0,0,0,0,0,0,-1,1707,1156,0,0
490,-132,0,0,0,0,0,0,0,0,0,-1,1714,1156,0,0
497,-132,0,0,0,0,0,0,0,0,0,-1,1721,1156,0,0
504,-132,0,0,0,0,0,0,0,0,0,-1,1728,1156,0,0
511,-132,0,0,0,0,0,0,0,0,0,-1,1735,1156,0,0
518,-132,0,0,0,0,0,0,0,0,0,-1,1742,1156,0,0
525,-132,0,0,0,0,0,0,0,0,0,-1,1749,1156,0,0
532,-132,0,0,0,0,0,0,0,0,0,-1,1756,1156,0,0
539,-132,0,0,0,0,0,0,0,0,0,-1,1763,1156,0,0
546,-132,0,0,0,0,0,0,0,0,0,-1,1770,1156,0,0
553,-132,0,0,0,0,0,0,0,0,0,-1,1777,1156,0,0
560,-132,0,0,0,0,0,0,0,0,0,-1,1784,1156,0,0
567,-132,0,0,0,0,0,0,0,0,0,-1,1791,1156,0,0
574,-132,0,0,0,0,0,0,0,0,0,-1,1798,1156,0,0
581,-132,0,0,0,0,0,0,0,0,0,-1,1805,1156,0,0
588,-132,0,0,0,0,0,0,0,0,0,-1,1812,1156,0,0
595,-132,0,0,0,0,0,0,0,0,0,-1,1819,1156,0,0
602,-132,0,0,0,0,0,0,0,0,0,-1,1826,1156,0,0
609,-132,0,0,0,0,0,0,0,0,0,-1,1833,1156,0,0
616,-132,0,0,0,0,0,0,0,0,0,-1,1840,1156,0,0
623,-132,0,0,0,0,0,0,0,0,0,-1,1847,1156,0,0
630,-132,0,0,0,0,0,0,0,0,0,-1,1854,1156,0,0
637,-132,0,0,0,0,0,0,0,0,0,-1,1861,1156,0,0
644,-132,228.063,8.84436,0,0,0,0,0,0,0,-1,1868,1156,228.063,-8.84436
651,-132,227.975,8.85828,0,0,0,0,0,0,0,-1,1875,1156,227.975,-8.85831
658,-132,227.964,8.74219,0,0,0,0,0,0,0,-1,1882,1156,227.964,-8.74223
665,-132,228.013,8.71619,0,0,0,0,0,0,0,-1,1889,1156,228.013,-8.71618
672,-132,227.942,8.98962,0,0,0,0,0,0,0,-1,1896,1156,227.942,-8.98964
679,-132,227.902,9.08752,0,0,0,0,0,0,0,-1,1903,1156,227.902,-9.08751
686,-132,227.959,8.96777,0,0,0,0,0,0,0,-1,1910,1156,227.959,-8.96782
693,-132,227.751,8.86243,0,0,0,0,0,0,0,-1,1917,1156,227.751,-8.86244
700,-132,227.979,8.59619,0,0,0,0,0,0,0,-1,1924,1156,227.979,-8.59614
707,-132,57.9275,3.01367,0,0,0,0,0,0,0,-1,1931,1156,57.9275,-3.01369
714,-132,57.8083,9.22156,0,0,0,0,0,0,0,-1,1938,1156,57.8084,-9.22151
721,-132,226.623,33.7573,0,0,0,0,0,0,0,-1,1945,1156,226.623,-33.7573
728,-132,226.31,33.2488,-0.00232911,0.001795,0.00749782,0.00750915,-0.00804325,0.919591,0.00898095,0.0456632,1952,1156,226.31,-33.2487
735,-132,226.321,32.4828,-0.00667875,0.009603,0.00682191,0.0120834,-0.00915919,1.22206,0.0123031,0.0478736,1959,1156,226.321,-32.4828
742,-132,226.214,31.5891,-0.0109991,0.0172735,0.00658292,0.0187311,-0.0124567,1.35289,0.0181274,0.0359441,1966,1156,226.214,-31.5891
749,-132,225.941,30.7927,-0.0153099,0.0248153,0.00676985,0.0259267,-0.0164213,1.40808,0.0246541,0.0334948,1973,1156,225.941,-30.7927
756,-132,225.741,29.9408,-0.0196254,0.0322313,0.00737465,0.0332597,-0.0206538,1.43224,0.0314093,0.0365561,1980,1156,225.741,-29.9409
763,-132,225.834,29.3317,-0.0239541,0.039518,0.00839301,0.0406091,-0.0250451,1.44152,0.0382589,0.0224072,1987,1156,225.834,-29.3317
770,-132,225.639,28.671,-0.0282981,0.0466656,0.00982514,0.0479319,-0.0295644,1.44261,0.0451595,0.0291379,1994,1156,225.639,-28.6711
777,-132,225.275,27.8256,0,0,0,0,0,0,0,-1,2001,1156,225.275,-27.8256
784,-132,109.483,2.9032,0,0,0,0,0,0,0,-1,2008,1156,109.483,-2.9032
791,-132,109.441,3.19641,0,0,0,0,0,0,0,-1,2015,1156,109.441,-3.19635
798,-132,114.092,2.5321,0,0,0,0,0,0,0,-1,2022,1156,114.092,-2.53215
805,-132,115.147,3.21765,0,0,0,0,0,0,0,-1,2029,1156,115.147,-3.21762
812,-132,116.501,3.68884,0,0,0,0,0,0,0,-1,2036,1156,116.501,-3.68888
-700,-139,0,0,0,0,0,0,0,0,0,-1,524,1163,0,0
-693,-139,-83.8602,-1.02612,0,0,0,0,0,0,0,-1,531,1163,-83.8602,1.02614
-686,-139,-84.5963,0.895996,0,0,0,0,0,0,0,-1,538,1163,-84.5963,-0.895989
-679,-139,-76.4769,6.57263,0,0,0,0,0,0,0,-1,545,1163,-76.4769,-6.5726
-672,-139,-81.4354,9.16565,0,0,0,0,0,0,0,-1,552,1163,-81.4354,-9.16571
-665,-139,-76.317,6.78796,0,0,0,0,0,0,0,-1,559,1163,-76.317,-6.78797
-658,-139,-77.2073,6.44202,0,0,0,0,0,0,0,-1,566,1163,-77.2073,-6.44196
-651,-139,-119.496,17.2479,0,0,0,0,0,0,0,-1,573,1163,-119.496,-17.2479
-644,-139,-217.705,26.8337,0,0,0,0,0,0,0,-1,580,1163,-217.705,-26.8338
-637,-139,-217.792,27.6029,-0.021852,0.0462838,-0.0173382,0.0504419,-0.0260102,-1.33541,0.0448847,0.0295314,587,1163,-217.792,-27.6029
-630,-139,-217.924,28.3029,-0.0208987,0.0437796,-0.0130975,0.0463312,-0.0234503,-1.37839,0.041004,0.016566,594,1163,-217.924,-28.3028
-623,-139,-217.929,29.0065,-0.0198978,0.0407323,-0.00900231,0.0420407,-0.0212062,-1.42646,0.0371702,0.0245304,601,1163,-217.929,-29.0065
-616,-139,-218.226,29.8966,-0.0188716,0.0371544,-0.00506928,0.0376093,-0.0193266,-1.48128,0.0334321,0.030241,608,1163,-218.226,-29.8967
-609,-139,-218.555,30.7893,0,0,0,0,0,0,0,-1,615,1163,-218.555,-30.7893
-602,-139,-205.641,32.4402,0,0,0,0,0,0,0,-1,622,1163,-205.641,-32.4402
-595,-139,-199.748,33.3462,0,0,0,0,0,0,0,-1,629,1163,-199.748,-33.3462
-588,-139,-51.0773,9.1781,0,0,0,0,0,0,0,-1,636,1163,-51.0773,-9.17806
-581,-139,-34.4892,6.72473,0,0,0,0,0,0,0,-1,643,1163,-34.4892,-6.72476
-574,-139,-23.0725,2.4043,0,0,0,0,0,0,0,-1,650,1163,-23.0725,-2.40433
-567,-139,-71.9699,0.449097,0,0,0,0,0,0,0,-1,657,1163,-71.9699,-0.449152
-560,-139,-72.0389,0.474487,0,0,0,0,0,0,0,-1,664,1163,-72.0389,-0.4745
-553,-139,-71.9187,0.398071,0,0,0,0,0,0,0,-1,671,1163,-71.9187,-0.39804
-546,-139,-72.0151,0.339478,0,0,0,0,0,0,0,-1,678,1163,-72.0151,-0.339479
-539,-139,-72.0318,0.385498,0,0,0,0,0,0,0,-1,685,1163,-72.0318,-0.385501
-532,-139,-71.9254,0.387329,0,0,0,0,0,0,0,-1,692,1163,-71.9254,-0.387287
-525,-139,-72.0009,0.424561,0,0,0,0,0,0,0,-1,699,1163,-72.0009,-0.424544
-518,-139,0,0,0,0,0,0,0,0,0,-1,706,1163,0,0
-511,-139,0,0,0,0,0,0,0,0,0,-1,713,1163,0,0
-504,-139,0,0,0,0,0,0,0,0,0,-1,720,1163,0,0
-497,-139,0,0,0,0,0,0,0,0,0,-1,727,1163,0,0
-490,-139,0,0,0,0,0,0,0,0,0,-1,734,1163,0,0
-483,-139,0,0,0,0,0,0,0,0,0,-1,741,1163,0,0
-476,-139,0,0,0,0,0,0,0,0,0,-1,748,1163,0,0
-469,-139,0,0,0,0,0,0,0,0,0,-1,755,1163,0,0
-462,-139,0,0,0,0,0,0,0,0,0,-1,762,1163,0,0
-455,-139,0,0,0,0,0,0,0,0,0,-1,769,1163,0,0
-448,-139,0,0,0,0,0,0,0,0,0,-1,776,1163,0,0
-441,-139,0,0,0,0,0,0,0,0,0,-1,783,1163,0,0
-434,-139,0,0,0,0,0,0,0,0,0,-1,790,1163,0,0
-427,-139,0,0,0,0,0,0,0,0,0,-1,797,1163,0,0
-420,-139,0,0,0,0,0,0,0,0,0,-1,804,1163,0,0
-413,-139,0,0,0,0,0,0,0,0,0,-1,811,1163,0,0
-406,-139,0,0,0,0,0,0,0,0,0,-1,818,1163,0,0
-399,-139,0,0,0,0,0,0,0,0,0,-1,825,1163,0,0
-392,-139,0,0,0,0,0,0,0,0,0,-1,832,1163,0,0
-385,-139,0,0,0,0,0,0,0,0,0,-1,839,1163,0,0
-378,-139,0,0,0,0,0,0,0,0,0,-1,846,1163,0,0
-371,-139,0,0,0,0,0,0,0,0,0,-1,853,1163,0,0
-364,-139,0,0,0,0,0,0,0,0,0,-1,860,1163,0,0
-357,-139,0,0,0,0,0,0,0,0,0,-1,867,1163,0,0
-350,-139,0,0,0,0,0,0,0,0,0,-1,874,1163,0,0
-343,-139,0,0,0,0,0,0,0,0,0,-1,881,1163,0,0
-336,-139,0,0,0,0,0,0,0,0,0,-1,888,1163,0,0
-329,-139,0,0,0,0,0,0,0,0,0,-1,895,1163,0,0
-322,-139,0,0,0,0,0,0,0,0,0,-1,902,1163,0,0
-315,-139,0,0,0,0,0,0,0,0,0,-1,909,1163,0,0
-308,-139,0,0,0,0,0,0,0,0,0,-1,916,1163,0,0
-301,-139,0,0,0,0,0,0,0,0,0,-1,923,1163,0,0
-294,-139,0,0,0,0,0,0,0,0,0,-1,930,1163,0,0
-287,-139,0,0,0,0,0,0,0,0,0,-1,937,1163,0,0
-280,-139,0,0,0,0,0,0,0,0,0,-1,944,1163,0,0
-273,-139,0,0,0,0,0,0,0,0,0,-1,951,1163,0,0
-266,-139,0,0,0,0,0,0,0,0,0,-1,958,1163,0,0
-259,-139,0,0,0,0,0,0,0,0,0,-1,965,1163,0,0
-252,-139,0,0,0,0,0,0,0,0,0,-1,972,1163,0,0
-245,-139,0,0,0,0,0,0,0,0,0,-1,979,1163,0,0
-238,-139,0,0,0,0,0,0,0,0,0,-1,986,1163,0,0
-231,-139,0,0,0,0,0,0,0,0,0,-1,993,1163,0,0
-224,-139,0,0,0,0,0,0,0,0,0,-1,1000,1163,0,0
-217,-139,0,0,0,0,0,0,0,0,0,-1,1007,1163,0,0
-210,-139,0,0,0,0,0,0,0,0,0,-1,1014,1163,0,0
-203,-139,0,0,0,0,0,0,0,0,0,-1,1021,1163,0,0
-196,-139,0,0,0,0,0,0,0,0,0,-1,1028,1163,0,0
-189,-139,0,0,0,0,0,0,0,0,0,-1,1035,1163,0,0
-182,-139,0,0,0,0,0,0,0,0,0,-1,1042,1163,0,0
-175,-139,0,0,0,0,0,0,0,0,0,-1,1049,1163,0,0
-168,-139,0,0,0,0,0,0,0,0,0,-1,1056,1163,0,0
-161,-139,0,0,0,0,0,0,0,0,0,-1,1063,1163,0,0
-154,-139,0,0,0,0,0,0,0,0,0,-1,1070,1163,0,0
-147,-139,0,0,0,0,0,0,0,0,0,-1,1077,1163,0,0
-140,-139,0,0,0,0,0,0,0,0,0,-1,1084,1163,0,0
-133,-139,0,0,0,0,0,0,0,0,0,-1,1091,1163,0,0
-126,-139,0,0,0,0,0,0,0,0,0,-1,1098,1163,0,0
-119,-139,0,0,0,0,0,0,0,0,0,-1,1105,1163,0,0
-112,-139,0,0,0,0,0,0,0,0,0,-1,1112,1163,0,0
-105,-139,0,0,0,0,0,0,0,0,0,-1,1119,1163,0,0
-98,-139,0,0,0,0,0,0,0,0,0,-1,1126,1163,0,0
-91,-139,0,0,0,0,0,0,0,0,0,-1,1133,1163,0,0
-84,-139,0,0,0,0,0,0,0,0,0,-1,1140,1163,0,0
-77,-139,0,0,0,0,0,0,0,0,0,-1,1147,1163,0,0
-70,-139,0,0,0,0,0,0,0,0,0,-1,1154,1163,0,0
-63,-139,0,0,0,0,0,0,0,0,0,-1,1161,1163,0,0
-56,-139,0,0,0,0,0,0,0,0,0,-1,1168,1163,0,0
-49,-139,0,0,0,0,0,0,0,0,0,-1,1175,1163,0,0
-42,-139,0,0,0,0,0,0,0,0,0,-1,1182,1163,0,0
-35,-139,0,0,0,0,0,0,0,0,0,-1,1189,1163,0,0
-28,-139,0,0,0,0,0,0,0,0,0,-1,1196,1163,0,0
-21,-139,0,0,0,0,0,0,0,0,0,-1,1203,1163,0,0
-14,-139,0,0,0,0,0,0,0,0,0,-1,1210,1163,0,0
-7,-139,0,0,0,0,0,0,0,0,0,-1,1217,1163,0,0
0,-139,0,0,0,0,0,0,0,0,0,-1,1224,1163,0,0
7,-139,0,0,0,0,0,0,0,0,0,-1,1231,1163,0,0
14,-139,0,0,0,0,0,0,0,0,0,-1,1238,1163,0,0
21,-139,0,0,0,0,0,0,0,0,0,-1,1245,1163,0,0
28,-139,0,0,0,0,0,0,0,0,0,-1,1252,1163,0,0
35,-139,0,0,0,0,0,0,0,0,0,-1,1259,1163,0,0
42,-139,0,0,0,0,0,0,0,0,0,-1,1266,1163,0,0
49,-139,0,0,0,0,0,0,0,0,0,-1,1273,1163,0,0
56,-139,0,0,0,0,0,0,0,0,0,-1,1280,1163,0,0
63,-139,0,0,0,0,0,0,0,0,0,-1,1287,1163,0,0
70,-139,0,0,0,0,0,0,0,0,0,-1,1294,1163,0,0
77,-139,0,0,0,0,0,0,0,0,0,-1,1301,1163,0,0
84,-139,0,0,0,0,0,0,0,0,0,-1,1308,1163,0,0
91,-139,0,0,0,0,0,0,0,0,0,-1,1315,1163,0,0
98,-139,0,0,0,0,0,0,0,0,0,-1,1322,1163,0,0
105,-139,0,0,0,0,0,0,0,0,0,-1,1329,1163,0,0
112,-139,0,0,0,0,0,0,0,0,0,-1,1336,1163,0,0
119,-139,0,0,0,0,0,0,0,0,0,-1,1343,1163,0,0
126,-139,0,0,0,0,0,0,0,0,0,-1,1350,1163,0,0
133,-139,0,0,0,0,0,0,0,0,0,-1,1357,1163,0,0
140,-139,0,0,0,0,0,0,0,0,0,-1,1364,1163,0,0
147,-139,0,0,0,0,0,0,0,0,0,-1,1371,1163,0,0
154,-139,0,0,0,0,0,0,0,0,0,-1,1378,1163,0,0
161,-139,0,0,0,0,0,0,0,0,0,-1,1385,1163,0,0
168,-139,0,0,0,0,0,0,0,0,0,-1,1392,1163,0,0
175,-139,0,0,0,0,0,0,0,0,0,-1,1399,1163,0,0
182,-139,0,0,0,0,0,0,0,0,0,-1,1406,1163,0,0
189,-139,0,0,0,0,0,0,0,0,0,-1,1413,1163,0,0
196,-139,0,0,0,0,0,0,0,0,0,-1,1420,1163,0,0
203,-139,0,0,0,0,0,0,0,0,0,-1,1427,1163,0,0
210,-139,0,0,0,0,0,0,0,0,0,-1,1434,1163,0,0
217,-139,0,0,0,0,0,0,0,0,0,-1,1441,1163,0,0
224,-139,0,0,0,0,0,0,0,0,0,-1,1448,1163,0,0
231,-139,0,0,0,0,0,0,0,0,0,-1,1455,1163,0,0
238,-139,0,0,0,0,0,0,0,0,0,-1,1462,1163,0,0
245,-139,0,0,0,0,0,0,0,0,0,-1,1469,1163,0,0
252,-139,0,0,0,0,0,0,0,0,0,-1,1476,1163,0,0
259,-139,0,0,0,0,0,0,0,0,0,-1,1483,1163,0,0
266,-139,0,0,0,0,0,0,0,0,0,-1,1490,1163,0,0
273,-139,0,0,0,0,0,0,0,0,0,-1,1497,1163,0,0
280,-139,0,0,0,0,0,0,0,0,0,-1,1504,1163,0,0
287,-139,0,0,0,0,0,0,0,0,0,-1,1511,1163,0,0
294,-139,0,0,0,0,0,0,0,0,0,-1,1518,1163,0,0
301,-139,0,0,0,0,0,0,0,0,0,-1,1525,1163,0,0
308,-139,0,0,0,0,0,0,0,0,0,-1,1532,1163,0,0
315,-139,0,0,0,0,0,0,0,0,0,-1,1539,1163,0,0
322,-139,0,0,0,0,0,0,0,0,0,-1,1546,1163,0,0
329,-139,0,0,0,0,0,0,0,0,0,-1,1553,1163,0,0
336,-139,0,0,0,0,0,0,0,0,0,-1,1560,1163,0,0
343,-139,0,0,0,0,0,0,0,0,0,-1,1567,1163,0,0
350,-139,0,0,0,0,0,0,0,0,0,-1,1574,1163,0,0
357,-139,0,0,0,0,0,0,0,0,0,-1,1581,1163,0,0
364,-139,0,0,0,0,0,0,0,0,0,-1,1588,1163,0,0
371,-139,0,0,0,0,0,0,0,0,0,-1,1595,1163,0,0
378,-139,0,0,0,0,0,0,0,0,0,-1,1602,1163,0,0
385,-139,0,0,0,0,0,0,0,0,0,-1,1609,1163,0,0
392,-139,0,0,0,0,0,0,0,0,0,-1,1616,1163,0,0
399,-139,0,0,0,0,0,0,0,0,0,-1,1623,1163,0,0
406,-139,0,0,0,0,0,0,0,0,0,-1,1630,1163,0,0
413,-139,0,0,0,0,0,0,0,0,0,-1,1637,1163,0,0
420,-139,0,0,0,0,0,0,0,0,0,-1,1644,1163,0,0
427,-139,0,0,0,0,0,0,0,0,0,-1,1651,1163,0,0
434,-139,0,0,0,0,0,0,0,0,0,-1,1658,1163,0,0
441,-139,0,0,0,0,0,0,0,0,0,-1,1665,1163,0,0
448,-139,0,0,0,0,0,0,0,0,0,-1,1672,1163,0,0
455,-139,0,0,0,0,0,0,0,0,0,-1,1679,1163,0,0
462,-139,0,0,0,0,0,0,0,0,0,-1,1686,1163,0,0
469,-139,0,0,0,0,0,0,0,0,0,-1,1693,1163,0,0
476,-139,0,0,0,0,0,0,0,0,0,-1,1700,1163,0,0
483,-139,0,0,0,0,0,0,0,0,0,-1,1707,1163,0,0
490,-139,0,0,0,0,0,0,0,0,0,-1,1714,1163,0,0
497,-139,0,0,0,0,0,0,0,0,0,-1,1721,1163,0,0
504,-139,0,0,0,0,0,0,0,0,0,-1,1728,1163,0,0
511,-139,0,0,0,0,0,0,0,0,0,-1,1735,1163,0,0
518,-139,0,0,0,0,0,0,0,0,0,-1,1742,1163,0,0
525,-139,0,0,0,0,0,0,0,0,0,-1,1749,1163,0,0
532,-139,0,0,0,0,0,0,0,0,0,-1,1756,1163,0,0
539,-139,0,0,0,0,0,0,0,0,0,-1,1763,1163,0,0
546,-139,0,0,0,0,0,0,0,0,0,-1,1770,1163,0,0
553,-139,0,0,0,0,0,0,0,0,0,-1,1777,1163,0,0
560,-139,0,0,0,0,0,0,0,0,0,-1,1784,1163,0,0
567,-139,0,0,0,0,0,0,0,0,0,-1,1791,1163,0,0
574,-139,0,0,0,0,0,0,0,0,0,-1,1798,1163,0,0
581,-139,0,0,0,0,0,0,0,0,0,-1,1805,1163,0,0
588,-139,0,0,0,0,0,0,0,0,0,-1,1812,1163,0,0
595,-139,0,0,0,0,0,0,0,0,0,-1,1819,1163,0,0
602,-139,0,0,0,0,0,0,0,0,0,-1,1826,1163,0,0
609,-139,0,0,0,0,0,0,0,0,0,-1,1833,1163,0,0
616,-139,0,0,0,0,0,0,0,0,0,-1,1840,1163,0,0
623,-139,0,0,0,0,0,0,0,0,0,-1,1847,1163,0,0
630,-139,0,0,0,0,0,0,0,0,0,-1,1854,1163,0,0
637,-139,0,0,0,0,0,0,0,0,0,-1,1861,1163,0,0
644,-139,227.967,8.9801,0,0,0,0,0,0,0,-1,1868,1163,227.967,-8.98006
651,-139,227.888,8.83398,0,0,0,0,0,0,0,-1,1875,1163,227.888,-8.83396
658,-139,227.952,8.66382,0,0,0,0,0,0,0,-1,1882,1163,227.952,-8.66386
665,-139,228.03,8.73657,0,0,0,0,0,0,0,-1,1889,1163,228.03,-8.73659
672,-139,228.016,8.98425,0,0,0,0,0,0,0,-1,1896,1163,228.016,-8.98424
679,-139,228.029,8.8949,0,0,0,0,0,0,0,-1,1903,1163,228.029,-8.89494
686,-139,227.892,8.66626,0,0,0,0,0,0,0,-1,1910,1163,227.892,-8.66628
693,-139,227.913,8.95776,0,0,0,0,0,0,0,-1,1917,1163,227.913,-8.95779
700,-139,228.028,8.70691,0,0,0,0,0,0,0,-1,1924,1163,228.028,-8.70694
707,-139,32.116,6.54346,0,0,0,0,0,0,0,-1,1931,1163,32.116,-6.54343
714,-139,62.1425,10.1428,0,0,0,0,0,0,0,-1,1938,1163,62.1424,-10.1428
721,-139,72.1608,11.011,0,0,0,0,0,0,0,-1,1945,1163,72.1608,-11.0109
728,-139,225.41,33.5128,0,0,0,0,0,0,0,-1,1952,1163,225.41,-33.5128
735,-139,225.527,32.3505,-0.00584971,0.0123163,0.006355,0.0143188,-0.00785215,1.26555,0.0129806,0.0476063,1959,1163,225.527,-32.3504
742,-139,225.435,31.3474,-0.0102823,0.0193076,0.00660471,0.0207149,-0.0116896,1.36086,0.0189491,0.0351753,1966,1163,225.435,-31.3475
749,-139,225.18,30.5315,-0.0145959,0.0261475,0.00729574,0.0274145,-0.0158629,1.39885,0.0252812,0.0272494,1973,1163,225.18,-30.5315
756,-139,225.028,29.8329,-0.0187969,0.0328362,0.00842955,0.0341775,-0.0201383,1.41299,0.0317065,0.0178018,1980,1163,225.028,-29.8328
763,-139,224.868,29.0853,-0.0228873,0.0393658,0.0100128,0.0409366,-0.0244581,1.41518,0.0381532,0.0202258,1987,1163,224.868,-29.0853
770,-139,224.706,28.3143,-0.0268638,0.0457213,0.0120579,0.0476719,-0.0288144,1.41041,0.0446045,0.029119,1994,1163,224.706,-28.3144
777,-139,224.552,27.463,0,0,0,0,0,0,0,-1,2001,1163,224.552,-27.463
784,-139,111.54,4.47424,0,0,0,0,0,0,0,-1,2008,1163,111.54,-4.47423
791,-139,113.788,9.25476,0,0,0,0,0,0,0,-1,2015,1163,113.788,-9.25476
798,-139,114.748,2.3186,0,0,0,0,0,0,0,-1,2022,1163,114.748,-2.31858
805,-139,115.784,2.98291,0,0,0,0,0,0,0,-1,2029,1163,115.784,-2.98296
812,-139,0,0,0,0,0,0,0,0,0,-1,2036,1163,0,0
-700,-146,0,0,0,0,0,0,0,0,0,-1,524,1170,0,0
-693,-146,-82.7482,-2.19629,0,0,0,0,0,0,0,-1,531,1170,-82.7482,2.19632
-686,-146,-140.813,8.43152,0,0,0,0,0,0,0,-1,538,1170,-140.813,-8.43151
-679,-146,-83.9792,1.00256,0,0,0,0,0,0,0,-1,545,1170,-83.9791,-1.00257
-672,-146,-74.9213,7.40356,0,0,0,0,0,0,0,-1,552,1170,-74.9213,-7.40356
-665,-146,-75.6855,5.98706,0,0,0,0,0,0,0,-1,559,1170,-75.6855,-5.98704
-658,-146,-76.8463,5.53369,0,0,0,0,0,0,0,-1,566,1170,-76.8463,-5.53366
-651,-146,-118.127,17.3252,0,0,0,0,0,0,0,-1,573,1170,-118.127,-17.3252
-644,-146,-216.776,26.7097,0,0,0,0,0,0,0,-1,580,1170,-216.777,-26.7097
-637,-146,-216.884,27.3281,-0.0236984,0.0465625,-0.0191602,0.0514478,-0.0285838,-1.32114,0.0468306,0.0343431,587,1170,-216.884,-27.3281
-630,-146,-217.035,27.9813,-0.0219226,0.0444729,-0.014515,0.0475074,-0.024957,-1.36471,0.0425072,0.0212327,594,1170,-217.035,-27.9813
-623,-146,-217.09,28.7478,-0.0200673,0.0420265,-0.00999883,0.0435969,-0.0216377,-1.41501,0.0383679,0.0246,601,1170,-217.09,-28.7478
-616,-146,-217.319,29.4387,-0.0181409,0.039245,-0.00563237,0.0397926,-0.0186885,-1.47388,0.0344891,0.0367433,608,1170,-217.319,-29.4387
-609,-146,-217.559,30.0079,0,0,0,0,0,0,0,-1,615,1170,-217.559,-30.0079
-602,-146,-199.416,32.1975,0,0,0,0,0,0,0,-1,622,1170,-199.416,-32.1975
-595,-146,-109.641,23.5803,0,0,0,0,0,0,0,-1,629,1170,-109.641,-23.5803
-588,-146,-45.0034,7.81934,0,0,0,0,0,0,0,-1,636,1170,-45.0034,-7.81931
-581,-146,-31.7815,6.30347,0,0,0,0,0,0,0,-1,643,1170,-31.7815,-6.3035
-574,-146,-17.9915,3.79114,0,0,0,0,0,0,0,-1,650,1170,-17.9915,-3.79118
-567,-146,-44.4572,0.6604,0,0,0,0,0,0,0,-1,657,1170,-44.4572,-0.660404
-560,-146,-71.9951,0.45874,0,0,0,0,0,0,0,-1,664,1170,-71.9951,-0.458771
-553,-146,-71.8871,0.505371,0,0,0,0,0,0,0,-1,671,1170,-71.8871,-0.505387
-546,-146,-71.9315,0.423218,0,0,0,0,0,0,0,-1,678,1170,-71.9315,-0.423264
-539,-146,-71.9998,0.394165,0,0,0,0,0,0,0,-1,685,1170,-71.9998,-0.394152
-532,-146,-71.8738,0.287109,0,0,0,0,0,0,0,-1,692,1170,-71.8738,-0.287159
-525,-146,-71.8591,0.315796,0,0,0,0,0,0,0,-1,699,1170,-71.8591,-0.315751
-518,-146,0,0,0,0,0,0,0,0,0,-1,706,1170,0,0
-511,-146,0,0,0,0,0,0,0,0,0,-1,713,1170,0,0
-504,-146,0,0,0,0,0,0,0,0,0,-1,720,1170,0,0
-497,-146,0,0,0,0,0,0,0,0,0,-1,727,1170,0,0
-490,-146,0,0,0,0,0,0,0,0,0,-1,734,1170,0,0
-483,-146,0,0,0,0,0,0,0,0,0,-1,741,1170,0,0
-476,-146,0,0,0,0,0,0,0,0,0,-1,748,1170,0,0
-469,-146,0,0,0,0,0,0,0,0,0,-1,755,1170,0,0
-462,-146,0,0,0,0,0,0,0,0,0,-1,762,1170,0,0
-455,-146,0,0,0,0,0,0,0,0,0,-1,769,1170,0,0
-448,-146,0,0,0,0,0,0,0,0,0,-1,776,1170,0,0
-441,-146,0,0,0,0,0,0,0,0,0,-1,783,1170,0,0
-434,-146,0,0,0,0,0,0,0,0,0,-1,790,1170,0,0
-427,-146,0,0,0,0,0,0,0,0,0,-1,797,1170,0,0
-420,-146,0,0,0,0,0,0,0,0,0,-1,804,1170,0,0
-413,-146,0,0,0,0,0,0,0,0,0,-1,811,1170,0,0
-406,-146,0,0,0,0,0,0,0,0,0,-1,818,1170,0,0
-399,-146,0,0,0,0,0,0,0,0,0,-1,825,1170,0,0
-392,-146,0,0,0,0,0,0,0,0,0,-1,832,1170,0,0
-385,-146,0,0,0,0,0,0,0,0,0,-1,839,1170,0,0
-378,-146,0,0,0,0,0,0,0,0,0,-1,846,1170,0,0
-371,-146,0,0,0,0,0,0,0,0,0,-1,853,1170,0,0
-364,-146,0,0,0,0,0,0,0,0,0,-1,860,1170,0,0
-357,-146,0,0,0,0,0,0,0,0,0,-1,867,1170,0,0
-350,-146,0,0,0,0,0,0,0,0,0,-1,874,1170,0,0
-343,-146,0,0,0,0,0,0,0,0,0,-1,881,1170,0,0
-336,-146,0,0,0,0,0,0,0,0,0,-1,888,1170,0,0
-329,-146,0,0,0,0,0,0,0,0,0,-1,895,1170,0,0
-322,-146,0,0,0,0,0,0,0,0,0,-1,902,1170,0,0
-315,-146,0,0,0,0,0,0,0,0,0,-1,909,1170,0,0
-308,-146,0,0,0,0,0,0,0,0,0,-1,916,1170,0,0
-301,-146,0,0,0,0,0,0,0,0,0,-1,923,1170,0,0
-294,-146,0,0,0,0,0,0,0,0,0,-1,930,1170,0,0
-287,-146,0,0,0,0,0,0,0,0,0,-1,937,1170,0,0
-280,-146,0,0,0,0,0,0,0,0,0,-1,944,1170,0,0
-273,-146,0,0,0,0,0,0,0,0,0,-1,951,1170,0,0
-266,-146,0,0,0,0,0,0,0,0,0,-1,958,1170,0,0
-259,-146,0,0,0,0,0,0,0,0,0,-1,965,1170,0,0
-252,-146,0,0,0,0,0,0,0,0,0,-1,972,1170,0,0
-245,-146,0,0,0,0,0,0,0,0,0,-1,979,1170,0,0
-238,-146,0,0,0,0,0,0,0,0,0,-1,986,1170,0,0
-231,-146,0,0,0,0,0,0,0,0,0,-1,993,1170,0,0
-224,-146,0,0,0,0,0,0,0,0,0,-1,1000,1170,0,0
-217,-146,0,0,0,0,0,0,0,0,0,-1,1007,1170,0,0
-210,-146,0,0,0,0,0,0,0,0,0,-1,1014,1170,0,0
-203,-146,0,0,0,0,0,0,0,0,0,-1,1021,1170,0,0
-196,-146,0,0,0,0,0,0,0,0,0,-1,1028,1170,0,0
-189,-146,0,0,0,0,0,0,0,0,0,-1,1035,1170,0,0
-182,-146,0,0,0,0,0,0,0,0,0,-1,1042,1170,0,0
-175,-146,0,0,0,0,0,0,0,0,0,-1,1049,1170,0,0
-168,-146,0,0,0,0,0,0,0,0,0,-1,1056,1170,0,0
-161,-146,0,0,0,0,0,0,0,0,0,-1,1063,1170,0,0
-154,-146,0,0,0,0,0,0,0,0,0,-1,1070,1170,0,0
-147,-146,0,0,0,0,0,0,0,0,0,-1,1077,1170,0,0
-140,-146,0,0,0,0,0,0,0,0,0,-1,1084,1170,0,0
-133,-146,0,0,0,0,0,0,0,0,0,-1,1091,1170,0,0
-126,-146,0,0,0,0,0,0,0,0,0,-1,1098,1170,0,0
-119,-146,0,0,0,0,0,0,0,0,0,-1,1105,1170,0,0
-112,-146,0,0,0,0,0,0,0,0,0,-1,1112,1170,0,0
-105,-146,0,0,0,0,0,0,0,0,0,-1,1119,1170,0,0
-98,-146,0,0,0,0,0,0,0,0,0,-1,1126,1170,0,0
-91,-146,0,0,0,0,0,0,0,0,0,-1,1133,1170,0,0
-84,-146,0,0,0,0,0,0,0,0,0,-1,1140,1170,0,0
-77,-146,0,0,0,0,0,0,0,0,0,-1,1147,1170,0,0
-70,-146,0,0,0,0,0,0,0,0,0,-1,1154,1170,0,0
-63,-146,0,0,0,0,0,0,0,0,0,-1,1161,1170,0,0
-56,-146,0,0,0,0,0,0,0,0,0,-1,1168,1170,0,0
-49,-146,0,0,0,0,0,0,0,0,0,-1,1175,1170,0,0
-42,-146,0,0,0,0,0,0,0,0,0,-1,1182,1170,0,0
-35,-146,0,0,0,0,0,0,0,0,0,-1,1189,1170,0,0
-28,-146,0,0,0,0,0,0,0,0,0,-1,1196,1170,0,0
-21,-146,0,0,0,0,0,0,0,0,0,-1,1203,1170,0,0
-14,-146,0,0,0,0,0,0,0,0,0,-1,1210,1170,0,0
-7,-146,0,0,0,0,0,0,0,0,0,-1,1217,1170,0,0
0,-146,0,0,0,0,0,0,0,0,0,-1,1224,1170,0,0
7,-146,0,0,0,0,0,0,0,0,0,-1,1231,1170,0,0
14,-146,0,0,0,0,0,0,0,0,0,-1,1238,1170,0,0
21,-146,0,0,0,0,0,0,0,0,0,-1,1245,1170,0,0
28,-146,0,0,0,0,0,0,0,0,0,-1,1252,1170,0,0
35,-146,0,0,0,0,0,0,0,0,0,-1,1259,1170,0,0
42,-146,0,0,0,0,0,0,0,0,0,-1,1266,1170,0,0
49,-146,0,0,0,0,0,0,0,0,0,-1,1273,1170,0,0
56,-146,0,0,0,0,0,0,0,0,0,-1,1280,1170,0,0
63,-146,0,0,0,0,0,0,0,0,0,-1,1287,1170,0,0
70,-146,0,0,0,0,0,0,0,0,0,-1,1294,1170,0,0
77,-146,0,0,0,0,0,0,0,0,0,-1,1301,1170,0,0
84,-146,0,0,0,0,0,0,0,0,0,-1,1308,1170,0,0
91,-146,0,0,0,0,0,0,0,0,0,-1,1315,1170,0,0
98,-146,0,0,0,0,0,0,0,0,0,-1,1322,1170,0,0
105,-146,0,0,0,0,0,0,0,0,0,-1,1329,1170,0,0
112,-146,0,0,0,0,0,0,0,0,0,-1,1336,1170,0,0
119,-146,0,0,0,0,0,0,0,0,0,-1,1343,1170,0,0
126,-146,0,0,0,0,0,0,0,0,0,-1,1350,1170,0,0
133,-146,0,0,0,0,0,0,0,0,0,-1,1357,1170,0,0
140,-146,0,0,0,0,0,0,0,0,0,-1,1364,1170,0,0
147,-146,0,0,0,0,0,0,0,0,0,-1,1371,1170,0,0
154,-146,0,0,0,0,0,0,0,0,0,-1,1378,1170,0,0
161,-146,0,0,0,0,0,0,0,0,0,-1,1385,1170,0,0
168,-146,0,0,0,0,0,0,0,0,0,-1,1392,1170,0,0
175,-146,0,0,0,0,0,0,0,0,0,-1,1399,1170,0,0
182,-146,0,0,0,0,0,0,0,0,0,-1,1406,1170,0,0
189,-146,0,0,0,0,0,0,0,0,0,-1,1413,1170,0,0
196,-146,0,0,0,0,0,0,0,0,0,-1,1420,1170,0,0
203,-146,0,0,0,0,0,0,0,0,0,-1,1427,1170,0,0
210,-146,0,0,0,0,0,0,0,0,0,-1,1434,1170,0,0
217,-146,0,0,0,0,0,0,0,0,0,-1,1441,1170,0,0
224,-146,0,0,0,0,0,0,0,0,0,-1,1448,1170,0,0
231,-146,0,0,0,0,0,0,0,0,0,-1,1455,1170,0,0
238,-146,0,0,0,0,0,0,0,0,0,-1,1462,1170,0,0
245,-146,0,0,0,0,0,0,0,0,0,-1,1469,1170,0,0
252,-146,0,0,0,0,0,0,0,0,0,-1,1476,1170,0,0
259,-146,0,0,0,0,0,0,0,0,0,-1,1483,1170,0,0
266,-146,0,0,0,0,0,0,0,0,0,-1,1490,1170,0,0
273,-146,0,0,0,0,0,0,0,0,0,-1,1497,1170,0,0
280,-146,0,0,0,0,0,0,0,0,0,-1,1504,1170,0,0
287,-146,0,0,0,0,0,0,0,0,0,-1,1511,1170,0,0
294,-146,0,0,0,0,0,0,0,0,0,-1,1518,1170,0,0
301,-146,0,0,0,0,0,0,0,0,0,-1,1525,1170,0,0
308,-146,0,0,0,0,0,0,0,0,0,-1,1532,1170,0,0
315,-146,0,0,0,0,0,0,0,0,0,-1,1539,1170,0,0
322,-146,0,0,0,0,0,0,0,0,0,-1,1546,1170,0,0
329,-146,0,0,0,0,0,0,0,0,0,-1,1553,1170,0,0
336,-146,0,0,0,0,0,0,0,0,0,-1,1560,1170,0,0
343,-146,0,0,0,0,0,0,0,0,0,-1,1567,1170,0,0
350,-146,0,0,0,0,0,0,0,0,0,-1,1574,1170,0,0
357,-146,0,0,0,0,0,0,0,0,0,-1,1581,1170,0,0
364,-146,0,0,0,0,0,0,0,0,0,-1,1588,1170,0,0
371,-146,0,0,0,0,0,0,0,0,0,-1,1595,1170,0,0
378,-146,0,0,0,0,0,0,0,0,0,-1,1602,1170,0,0
385,-146,0,0,0,0,0,0,0,0,0,-1,1609,1170,0,0
392,-146,0,0,0,0,0,0,0,0,0,-1,1616,1170,0,0
399,-146,0,0,0,0,0,0,0,0,0,-1,1623,1170,0,0
406,-146,0,0,0,0,0,0,0,0,0,-1,1630,1170,0,0
413,-146,0,0,0,0,0,0,0,0,0,-1,1637,1170,0,0
420,-146,0,0,0,0,0,0,0,0,0,-1,1644,1170,0,0
427,-146,0,0,0,0,0,0,0,0,0,-1,1651,1170,0,0
434,-146,0,0,0,0,0,0,0,0,0,-1,1658,1170,0,0
441,-146,0,0,0,0,0,0,0,0,0,-1,1665,1170,0,0
448,-146,0,0,0,0,0,0,0,0,0,-1,1672,1170,0,0
455,-146,0,0,0,0,0,0,0,0,0,-1,1679,1170,0,0
462,-146,0,0,0,0,0,0,0,0,0,-1,1686,1170,0,0
469,-146,0,0,0,0,0,0,0,0,0,-1,1693,1170,0,0
476,-146,0,0,0,0,0,0,0,0,0,-1,1700,1170,0,0
483,-146,0,0,0,0,0,0,0,0,0,-1,1707,1170,0,0
490,-146,0,0,0,0,0,0,0,0,0,-1,1714,1170,0,0
497,-146,0,0,0,0,0,0,0,0,0,-1,1721,1170,0,0
504,-146,0,0,0,0,0,0,0,0,0,-1,1728,1170,0,0
511,-146,0,0,0,0,0,0,0,0,0,-1,1735,1170,0,0
518,-146,0,0,0,0,0,0,0,0,0,-1,1742,1170,0,0
525,-146,0,0,0,0,0,0,0,0,0,-1,1749,1170,0,0
532,-146,0,0,0,0,0,0,0,0,0,-1,1756,1170,0,0
539,-146,0,0,0,0,0,0,0,0,0,-1,1763,1170,0,0
546,-146,0,0,0,0,0,0,0,0,0,-1,1770,1170,0,0
553,-146,0,0,0,0,0,0,0,0,0,-1,1777,1170,0,0
560,-146,0,0,0,0,0,0,0,0,0,-1,1784,1170,0,0
567,-146,0,0,0,0,0,0,0,0,0,-1,1791,1170,0,0
574,-146,0,0,0,0,0,0,0,0,0,-1,1798,1170,0,0
581,-146,0,0,0,0,0,0,0,0,0,-1,1805,1170,0,0
588,-146,0,0,0,0,0,0,0,0,0,-1,1812,1170,0,0
595,-146,0,0,0,0,0,0,0,0,0,-1,1819,1170,0,0
602,-146,0,0,0,0,0,0,0,0,0,-1,1826,1170,0,0
609,-146,0,0,0,0,0,0,0,0,0,-1,1833,1170,0,0
616,-146,0,0,0,0,0,0,0,0,0,-1,1840,1170,0,0
623,-146,0,0,0,0,0,0,0,0,0,-1,1847,1170,0,0
630,-146,0,0,0,0,0,0,0,0,0,-1,1854,1170,0,0
637,-146,227.892,8.92517,0,0,0,0,0,0,0,-1,1861,1170,227.892,-8.92513
644,-146,227.853,9.01013,0,0,0,0,0,0,0,-1,1868,1170,227.853,-9.01009
651,-146,227.919,8.84302,0,0,0,0,0,0,0,-1,1875,1170,227.919,-8.84297
658,-146,227.985,8.71106,0,0,0,0,0,0,0,-1,1882,1170,227.985,-8.71108
665,-146,227.94,8.74573,0,0,0,0,0,0,0,-1,1889,1170,227.94,-8.7457
672,-146,227.925,8.84338,0,0,0,0,0,0,0,-1,1896,1170,227.925,-8.84338
679,-146,227.956,8.71875,0,0,0,0,0,0,0,-1,1903,1170,227.956,-8.71876
686,-146,227.745,8.70874,0,0,0,0,0,0,0,-1,1910,1170,227.745,-8.70873
693,-146,227.882,8.70618,0,0,0,0,0,0,0,-1,1917,1170,227.882,-8.70621
700,-146,227.925,8.66785,0,0,0,0,0,0,0,-1,1924,1170,227.925,-8.66783
707,-146,29.9441,6.94653,0,0,0,0,0,0,0,-1,1931,1170,29.9441,-6.94652
714,-146,31.325,6.13245,0,0,0,0,0,0,0,-1,1938,1170,31.325,-6.1325
721,-146,61.3608,9.47766,0,0,0,0,0,0,0,-1,1945,1170,61.3608,-9.47767
728,-146,224.676,32.8401,0,0,0,0,0,0,0,-1,1952,1170,224.676,-32.8401
735,-146,224.657,32.0835,-0.00582586,0.0147563,0.00556714,0.0161656,-0.00723518,1.32285,0.0138345,0.0404696,1959,1170,224.657,-32.0835
742,-146,224.554,31.2559,-0.0101286,0.0212666,0.0063048,0.0224854,-0.0113474,1.37984,0.0198831,0.0283175,1966,1170,224.554,-31.2559
749,-146,224.284,30.4677,-0.0143048,0.0275876,0.00747961,0.028883,-0.0156002,1.39931,0.0260612,0.0222734,1973,1170,224.284,-30.4676
756,-146,224.133,29.6006,-0.0183356,0.0337145,0.00910831,0.0352623,-0.0198835,1.40247,0.0322485,0.018102,1980,1170,224.133,-29.6006
763,-146,223.858,28.7372,-0.0222014,0.039633,0.0112136,0.0416037,-0.0241722,1.39683,0.0384177,0.0186389,1987,1170,223.858,-28.7372
770,-146,223.667,27.8882,-0.0258806,0.0453201,0.0138246,0.0479102,-0.0284706,1.38559,0.044572,0.0275075,1994,1170,223.666,-27.8882
777,-146,223.676,27.1056,0,0,0,0,0,0,0,-1,2001,1170,223.676,-27.1056
784,-146,191.351,27.9769,0,0,0,0,0,0,0,-1,2008,1170,191.351,-27.977
791,-146,203.29,27.1288,0,0,0,0,0,0,0,-1,2015,1170,203.289,-27.1288
798,-146,202.691,24.5387,0,0,0,0,0,0,0,-1,2022,1170,202.691,-24.5388
805,-146,204.107,23.8569,0,0,0,0,0,0,0,-1,2029,1170,204.107,-23.8569
812,-146,0,0,0,0,0,0,0,0,0,-1,2036,1170,0,0
-700,-153,0,0,0,0,0,0,0,0,0,-1,524,1177,0,0
-693,-153,0,0,0,0,0,0,0,0,0,-1,531,1177,0,0
-686,-153,-168.385,19.0377,0,0,0,0,0,0,0,-1,538,1177,-168.385,-19.0377
-679,-153,-140.842,11.0273,0,0,0,0,0,0,0,-1,545,1177,-140.842,-11.0274
-672,-153,-177.624,20.2991,0,0,0,0,0,0,0,-1,552,1177,-177.624,-20.2991
-665,-153,-109.895,18.7006,0,0,0,0,0,0,0,-1,559,1177,-109.895,-18.7006
-658,-153,-76.2853,4.375,0,0,0,0,0,0,0,-1,566,1177,-76.2853,-4.375
-651,-153,-73.9761,7.67358,0,0,0,0,0,0,0,-1,573,1177,-73.9761,-7.67353
-644,-153,-215.804,26.4824,0,0,0,0,0,0,0,-1,580,1177,-215.804,-26.4824
-637,-153,-215.928,27.1193,-0.0260918,0.0467508,-0.0205825,0.0521643,-0.0315053,-1.31361,0.048795,0.0404205,587,1177,-215.928,-27.1192
-630,-153,-216.058,27.838,-0.0232006,0.0450501,-0.0160374,0.0486307,-0.0267812,-1.35113,0.044144,0.0239403,594,1177,-216.058,-27.838
-623,-153,-216.251,28.3064,-0.0203186,0.0433233,-0.011682,0.0453999,-0.0223951,-1.39488,0.0398856,0.0334194,601,1177,-216.251,-28.3064
-616,-153,-216.385,29.2307,-0.0174543,0.0416063,-0.00753699,0.042553,-0.018401,-1.44585,0.0361009,0.0495282,608,1177,-216.385,-29.2308
-609,-153,-216.497,30.354,0,0,0,0,0,0,0,-1,615,1177,-216.497,-30.354
-602,-153,-108.822,22.9852,0,0,0,0,0,0,0,-1,622,1177,-108.822,-22.9852
-595,-153,-43.9551,7.35718,0,0,0,0,0,0,0,-1,629,1177,-43.9551,-7.35722
-588,-153,-32.348,5.51038,0,0,0,0,0,0,0,-1,636,1177,-32.348,-5.51034
-581,-153,-33.4568,6.41492,0,0,0,0,0,0,0,-1,643,1177,-33.4568,-6.41497
-574,-153,-25.4814,5.16956,0,0,0,0,0,0,0,-1,650,1177,-25.4814,-5.16961
-567,-153,-35.3121,1.09485,0,0,0,0,0,0,0,-1,657,1177,-35.3121,-1.09482
-560,-153,-72.0881,0.687866,0,0,0,0,0,0,0,-1,664,1177,-72.0881,-0.687857
-553,-153,-71.9505,0.579346,0,0,0,0,0,0,0,-1,671,1177,-71.9505,-0.579368
-546,-153,-71.9724,0.468628,0,0,0,0,0,0,0,-1,678,1177,-71.9724,-0.468682
-539,-153,-72.1825,0.396606,0,0,0,0,0,0,0,-1,685,1177,-72.1825,-0.396654
-532,-153,-72.1336,0.405396,0,0,0,0,0,0,0,-1,692,1177,-72.1336,-0.405355
-525,-153,-71.8697,0.428833,0,0,0,0,0,0,0,-1,699,1177,-71.8697,-0.428859
-518,-153,0,0,0,0,0,0,0,0,0,-1,706,1177,0,0
-511,-153,0,0,0,0,0,0,0,0,0,-1,713,1177,0,0
-504,-153,0,0,0,0,0,0,0,0,0,-1,720,1177,0,0
-497,-153,0,0,0,0,0,0,0,0,0,-1,727,1177,0,0
-490,-153,0,0,0,0,0,0,0,0,0,-1,734,1177,0,0
-483,-153,0,0,0,0,0,0,0,0,0,-1,741,1177,0,0
-476,-153,0,0,0,0,0,0,0,0,0,-1,748,1177,0,0
-469,-153,0,0,0,0,0,0,0,0,0,-1,755,1177,0,0
-462,-153,0,0,0,0,0,0,0,0,0,-1,762,1177,0,0
-455,-153,0,0,0,0,0,0,0,0,0,-1,769,1177,0,0
-448,-153,0,0,0,0,0,0,0,0,0,-1,776,1177,0,0
-441,-153,0,0,0,0,0,0,0,0,0,-1,783,1177,0,0
-434,-153,0,0,0,0,0,0,0,0,0,-1,790,1177,0,0
-427,-153,0,0,0,0,0,0,0,0,0,-1,797,1177,0,0
-420,-153,0,0,0,0,0,0,0,0,0,-1,804,1177,0,0
-413,-153,0,0,0,0,0,0,0,0,0,-1,811,1177,0,0
-406,-153,0,0,0,0,0,0,0,0,0,-1,818,1177,0,0
-399,-153,0,0,0,0,0,0,0,0,0,-1,825,1177,0,0
-392,-153,0,0,0,0,0,0,0,0,0,-1,832,1177,0,0
-385,-153,0,0,0,0,0,0,0,0,0,-1,839,1177,0,0
-378,-153,0,0,0,0,0,0,0,0,0,-1,846,1177,0,0
-371,-153,0,0,0,0,0,0,0,0,0,-1,853,1177,0,0
-364,-153,0,0,0,0,0,0,0,0,0,-1,860,1177,0,0
-357,-153,0,0,0,0,0,0,0,0,0,-1,867,1177,0,0
-350,-153,0,0,0,0,0,0,0,0,0,-1,874,1177,0,0
-343,-153,0,0,0,0,0,0,0,0,0,-1,881,1177,0,0
-336,-153,0,0,0,0,0,0,0,0,0,-1,888,1177,0,0
-329,-153,0,0,0,0,0,0,0,0,0,-1,895,1177,0,0
-322,-153,0,0,0,0,0,0,0,0,0,-1,902,1177,0,0
-315,-153,0,0,0,0,0,0,0,0,0,-1,909,1177,0,0
-308,-153,0,0,0,0,0,0,0,0,0,-1,916,1177,0,0
-301,-153,0,0,0,0,0,0,0,0,0,-1,923,1177,0,0
-294,-153,0,0,0,0,0,0,0,0,0,-1,930,1177,0,0
-287,-153,0,0,0,0,0,0,0,0,0,-1,937,1177,0,0
-280,-153,0,0,0,0,0,0,0,0,0,-1,944,1177,0,0
-273,-153,0,0,0,0,0,0,0,0,0,-1,951,1177,0,0
-266,-153,0,0,0,0,0,0,0,0,0,-1,958,1177,0,0
-259,-153,0,0,0,0,0,0,0,0,0,-1,965,1177,0,0
-252,-153,0,0,0,0,0,0,0,0,0,-1,972,1177,0,0
-245,-153,0,0,0,0,0,0,0,0,0,-1,979,1177,0,0
-238,-153,0,0,0,0,0,0,0,0,0,-1,986,1177,0,0
-231,-153,0,0,0,0,0,0,0,0,0,-1,993,1177,0,0
-224,-153,0,0,0,0,0,0,0,0,0,-1,1000,1177,0,0
-217,-153,0,0,0,0,0,0,0,0,0,-1,1007,1177,0,0
-210,-153,0,0,0,0,0,0,0,0,0,-1,1014,1177,0,0
-203,-153,0,0,0,0,0,0,0,0,0,-1,1021,1177,0,0
-196,-153,0,0,0,0,0,0,0,0,0,-1,1028,1177,0,0
-189,-153,0,0,0,0,0,0,0,0,0,-1,1035,1177,0,0
-182,-153,0,0,0,0,0,0,0,0,0,-1,1042,1177,0,0
-175,-153,0,0,0,0,0,0,0,0,0,-1,1049,1177,0,0
-168,-153,0,0,0,0,0,0,0,0,0,-1,1056,1177,0,0
-161,-153,0,0,0,0,0,0,0,0,0,-1,1063,1177,0,0
-154,-153,0,0,0,0,0,0,0,0,0,-1,1070,1177,0,0
-147,-153,0,0,0,0,0,0,0,0,0,-1,1077,1177,0,0
-140,-153,0,0,0,0,0,0,0,0,0,-1,1084,1177,0,0
-133,-153,0,0,0,0,0,0,0,0,0,-1,1091,1177,0,0
-126,-153,0,0,0,0,0,0,0,0,0,-1,1098,1177,0,0
-119,-153,0,0,0,0,0,0,0,0,0,-1,1105,1177,0,0
-112,-153,0,0,0,0,0,0,0,0,0,-1,1112,1177,0,0
-105,-153,0,0,0,0,0,0,0,0,0,-1,1119,1177,0,0
-98,-153,0,0,0,0,0,0,0,0,0,-1,1126,1177,0,0
-91,-153,0,0,0,0,0,0,0,0,0,-1,1133,1177,0,0
-84,-153,0,0,0,0,0,0,0,0,0,-1,1140,1177,0,0
-77,-153,0,0,0,0,0,0,0,0,0,-1,1147,1177,0,0
-70,-153,0,0,0,0,0,0,0,0,0,-1,1154,1177,0,0
-63,-153,0,0,0,0,0,0,0,0,0,-1,1161,1177,0,0
-56,-153,0,0,0,0,0,0,0,0,0,-1,1168,1177,0,0
-49,-153,0,0,0,0,0,0,0,0,0,-1,1175,1177,0,0
-42,-153,0,0,0,0,0,0,0,0,0,-1,1182,1177,0,0
-35,-153,0,0,0,0,0,0,0,0,0,-1,1189,1177,0,0
-28,-153,0,0,0,0,0,0,0,0,0,-1,1196,1177,0,0
-21,-153,0,0,0,0,0,0,0,0,0,-1,1203,1177,0,0
-14,-153,0,0,0,0,0,0,0,0,0,-1,1210,1177,0,0
-7,-153,0,0,0,0,0,0,0,0,0,-1,1217,1177,0,0
0,-153,0,0,0,0,0,0,0,0,0,-1,1224,1177,0,0
7,-153,0,0,0,0,0,0,0,0,0,-1,1231,1177,0,0
14,-153,0,0,0,0,0,0,0,0,0,-1,1238,1177,0,0
21,-153,0,0,0,0,0,0,0,0,0,-1,1245,1177,0,0
28,-153,0,0,0,0,0,0,0,0,0,-1,1252,1177,0,0
35,-153,0,0,0,0,0,0,0,0,0,-1,1259,1177,0,0
42,-153,0,0,0,0,0,0,0,0,0,-1,1266,1177,0,0
49,-153,0,0,0,0,0,0,0,0,0,-1,1273,1177,0,0
56,-153,0,0,0,0,0,0,0,0,0,-1,1280,1177,0,0
63,-153,0,0,0,0,0,0,0,0,0,-1,1287,1177,0,0
70,-153,0,0,0,0,0,0,0,0,0,-1,1294,1177,0,0
77,-153,0,0,0,0,0,0,0,0,0,-1,1301,1177,0,0
84,-153,0,0,0,0,0,0,0,0,0,-1,1308,1177,0,0
91,-153,0,0,0,0,0,0,0,0,0,-1,1315,1177,0,0
98,-153,0,0,0,0,0,0,0,0,0,-1,1322,1177,0,0
105,-153,0,0,0,0,0,0,0,0,0,-1,1329,1177,0,0
112,-153,0,0,0,0,0,0,0,0,0,-1,1336,1177,0,0
119,-153,0,0,0,0,0,0,0,0,0,-1,1343,1177,0,0
126,-153,0,0,0,0,0,0,0,0,0,-1,1350,1177,0,0
133,-153,0,0,0,0,0,0,0,0,0,-1,1357,1177,0,0
140,-153,0,0,0,0,0,0,0,0,0,-1,1364,1177,0,0
147,-153,0,0,0,0,0,0,0,0,0,-1,1371,1177,0,0
154,-153,0,0,0,0,0,0,0,0,0,-1,1378,1177,0,0
161,-153,0,0,0,0,0,0,0,0,0,-1,1385,1177,0,0
168,-153,0,0,0,0,0,0,0,0,0,-1,1392,1177,0,0
175,-153,0,0,0,0,0,0,0,0,0,-1,1399,1177,0,0
182,-153,0,0,0,0,0,0,0,0,0,-1,1406,1177,0,0
189,-153,0,0,0,0,0,0,0,0,0,-1,1413,1177,0,0
196,-153,0,0,0,0,0,0,0,0,0,-1,1420,1177,0,0
203,-153,0,0,0,0,0,0,0,0,0,-1,1427,1177,0,0
210,-153,0,0,0,0,0,0,0,0,0,-1,1434,1177,0,0
217,-153,0,0,0,0,0,0,0,0,0,-1,1441,1177,0,0
224,-153,0,0,0,0,0,0,0,0,0,-1,1448,1177,0,0
231,-153,0,0,0,0,0,0,0,0,0,-1,1455,1177,0,0
238,-153,0,0,0,0,0,0,0,0,0,-1,1462,1177,0,0
245,-153,0,0,0,0,0,0,0,0,0,-1,1469,1177,0,0
252,-153,0,0,0,0,0,0,0,0,0,-1,1476,1177,0,0
259,-153,0,0,0,0,0,0,0,0,0,-1,1483,1177,0,0
266,-153,0,0,0,0,0,0,0,0,0,-1,1490,1177,0,0
273,-153,0,0,0,0,0,0,0,0,0,-1,1497,1177,0,0
280,-153,0,0,0,0,0,0,0,0,0,-1,1504,1177,0,0
287,-153,0,0,0,0,0,0,0,0,0,-1,1511,1177,0,0
294,-153,0,0,0,0,0,0,0,0,0,-1,1518,1177,0,0
301,-153,0,0,0,0,0,0,0,0,0,-1,1525,1177,0,0
308,-153,0,0,0,0,0,0,0,0,0,-1,1532,1177,0,0
315,-153,0,0,0,0,0,0,0,0,0,-1,1539,1177,0,0
322,-153,0,0,0,0,0,0,0,0,0,-1,1546,1177,0,0
329,-153,0,0,0,0,0,0,0,0,0,-1,1553,1177,0,0
336,-153,0,0,0,0,0,0,0,0,0,-1,1560,1177,0,0
343,-153,0,0,0,0,0,0,0,0,0,-1,1567,1177,0,0
350,-153,0,0,0,0,0,0,0,0,0,-1,1574,1177,0,0
357,-153,0,0,0,0,0,0,0,0,0,-1,1581,1177,0,0
364,-153,0,0,0,0,0,0,0,0,0,-1,1588,1177,0,0
371,-153,0,0,0,0,0,0,0,0,0,-1,1595,1177,0,0
378,-153,0,0,0,0,0,0,0,0,0,-1,1602,1177,0,0
385,-153,0,0,0,0,0,0,0,0,0,-1,1609,1177,0,0
392,-153,0,0,0,0,0,0,0,0,0,-1,1616,1177,0,0
399,-153,0,0,0,0,0,0,0,0,0,-1,1623,1177,0,0
406,-153,0,0,0,0,0,0,0,0,0,-1,1630,1177,0,0
413,-153,0,0,0,0,0,0,0,0,0,-1,1637,1177,0,0
420,-153,0,0,0,0,0,0,0,0,0,-1,1644,1177,0,0
427,-153,0,0,0,0,0,0,0,0,0,-1,1651,1177,0,0
434,-153,0,0,0,0,0,0,0,0,0,-1,1658,1177,0,0
441,-153,0,0,0,0,0,0,0,0,0,-1,1665,1177,0,0
448,-153,0,0,0,0,0,0,0,0,0,-1,1672,1177,0,0
455,-153,0,0,0,0,0,0,0,0,0,-1,1679,1177,0,0
462,-153,0,0,0,0,0,0,0,0,0,-1,1686,1177,0,0
469,-153,0,0,0,0,0,0,0,0,0,-1,1693,1177,0,0
476,-153,0,0,0,0,0,0,0,0,0,-1,1700,1177,0,0
483,-153,0,0,0,0,0,0,0,0,0,-1,1707,1177,0,0
490,-153,0,0,0,0,0,0,0,0,0,-1,1714,1177,0,0
497,-153,0,0,0,0,0,0,0,0,0,-1,1721,1177,0,0
504,-153,0,0,0,0,0,0,0,0,0,-1,1728,1177,0,0
511,-153,0,0,0,0,0,0,0,0,0,-1,1735,1177,0,0
518,-153,0,0,0,0,0,0,0,0,0,-1,1742,1177,0,0
525,-153,0,0,0,0,0,0,0,0,0,-1,1749,1177,0,0
532,-153,0,0,0,0,0,0,0,0,0,-1,1756,1177,0,0
539,-153,0,0,0,0,0,0,0,0,0,-1,1763,1177,0,0
546,-153,0,0,0,0,0,0,0,0,0,-1,1770,1177,0,0
553,-153,0,0,0,0,0,0,0,0,0,-1,1777,1177,0,0
560,-153,0,0,0,0,0,0,0,0,0,-1,1784,1177,0,0
567,-153,0,0,0,0,0,0,0,0,0,-1,1791,1177,0,0
574,-153,0,0,0,0,0,0,0,0,0,-1,1798,1177,0,0
581,-153,0,0,0,0,0,0,0,0,0,-1,1805,1177,0,0
588,-153,0,0,0,0,0,0,0,0,0,-1,1812,1177,0,0
595,-153,0,0,0,0,0,0,0,0,0,-1,1819,1177,0,0
602,-153,0,0,0,0,0,0,0,0,0,-1,1826,1177,0,0
609,-153,0,0,0,0,0,0,0,0,0,-1,1833,1177,0,0
616,-153,0,0,0,0,0,0,0,0,0,-1,1840,1177,0,0
623,-153,0,0,0,0,0,0,0,0,0,-1,1847,1177,0,0
630,-153,0,0,0,0,0,0,0,0,0,-1,1854,1177,0,0
637,-153,227.831,8.90308,0,0,0,0,0,0,0,-1,1861,1177,227.831,-8.90305
644,-153,227.808,8.90369,0,0,0,0,0,0,0,-1,1868,1177,227.808,-8.9037
651,-153,227.919,8.84326,0,0,0,0,0,0,0,-1,1875,1177,227.919,-8.84325
658,-153,227.965,8.73328,0,0,0,0,0,0,0,-1,1882,1177,227.965,-8.73332
665,-153,227.886,8.79553,0,0,0,0,0,0,0,-1,1889,1177,227.886,-8.79553
672,-153,227.854,8.74854,0,0,0,0,0,0,0,-1,1896,1177,227.854,-8.7485
679,-153,227.858,8.73792,0,0,0,0,0,0,0,-1,1903,1177,227.858,-8.73788
686,-153,227.822,8.73145,0,0,0,0,0,0,0,-1,1910,1177,227.822,-8.73144
693,-153,228.013,8.61755,0,0,0,0,0,0,0,-1,1917,1177,228.013,-8.61757
700,-153,79.9266,2.01807,0,0,0,0,0,0,0,-1,1924,1177,79.9267,-2.01805
707,-153,29.6483,6.6842,0,0,0,0,0,0,0,-1,1931,1177,29.6483,-6.68415
714,-153,36.0046,6.78418,0,0,0,0,0,0,0,-1,1938,1177,36.0046,-6.78418
721,-153,36.4866,6.47595,0,0,0,0,0,0,0,-1,1945,1177,36.4866,-6.47593
728,-153,47.7305,7.37024,0,0,0,0,0,0,0,-1,1952,1177,47.7304,-7.37022
735,-153,223.145,32.0532,0,0,0,0,0,0,0,-1,1959,1177,223.144,-32.0532
742,-153,223.275,31.2899,-0.0101015,0.0232166,0.00603393,0.0242757,-0.0111606,1.39705,0.020921,0.0280584,1966,1177,223.275,-31.2899
749,-153,223.263,30.4065,-0.0142554,0.0290704,0.00769777,0.0303974,-0.0155825,1.40008,0.0270019,0.0234164,1973,1177,223.264,-30.4065
756,-153,223.108,29.4741,-0.0182521,0.0347462,0.00979245,0.0364977,-0.0200035,1.39381,0.0330811,0.0175116,1980,1177,223.108,-29.4742
763,-153,222.905,28.5238,-0.0220645,0.0402049,0.0123684,0.0425717,-0.0244313,1.38173,0.0391539,0.019282,1987,1177,222.905,-28.5239
770,-153,222.64,27.7482,-0.0256644,0.0454006,0.0154816,0.0486268,-0.0288906,1.36535,0.0452357,0.0211072,1994,1177,222.64,-27.7481
777,-153,222.556,27.0151,-0.0289505,0.0504148,0.0191596,0.054798,-0.0333337,1.34589,0.0513835,0.0379215,2001,1177,222.556,-27.0151
784,-153,222.733,26.318,0,0,0,0,0,0,0,-1,2008,1177,222.733,-26.318
791,-153,202.403,26.4507,0,0,0,0,0,0,0,-1,2015,1177,202.403,-26.4507
798,-153,202.484,25.9869,0,0,0,0,0,0,0,-1,2022,1177,202.484,-25.9869
805,-153,202.37,25.3752,0,0,0,0,0,0,0,-1,2029,1177,202.37,-25.3752
812,-153,0,0,0,0,0,0,0,0,0,-1,2036,1177,0,0
-700,-160,0,0,0,0,0,0,0,0,0,-1,524,1184,0,0
-693,-160,0,0,0,0,0,0,0,0,0,-1,531,1184,0,0
-686,-160,-167.674,18.0548,0,0,0,0,0,0,0,-1,538,1184,-167.674,-18.0549
-679,-160,-181.141,19.9757,0,0,0,0,0,0,0,-1,545,1184,-181.141,-19.9757
-672,-160,-180.457,21.9385,0,0,0,0,0,0,0,-1,552,1184,-180.457,-21.9385
-665,-160,-180.104,23.5477,0,0,0,0,0,0,0,-1,559,1184,-180.104,-23.5477
-658,-160,-108.842,18.2297,0,0,0,0,0,0,0,-1,566,1184,-108.842,-18.2297
-651,-160,-73.1214,7.68677,0,0,0,0,0,0,0,-1,573,1184,-73.1214,-7.68675
-644,-160,-214.502,26.1096,0,0,0,0,0,0,0,-1,580,1184,-214.502,-26.1096
-637,-160,-214.74,26.8645,-0.0277363,0.0470756,-0.0211342,0.0526331,-0.0332938,-1.31366,0.050027,0.0452278,587,1184,-214.74,-26.8645
-630,-160,-215.058,27.5787,-0.023942,0.045443,-0.0171349,0.0494438,-0.0279429,-1.34142,0.0452504,0.0241393,594,1184,-215.058,-27.5787
-623,-160,-215.505,27.9667,-0.0202829,0.0439521,-0.0133848,0.0466295,-0.0229604,-1.37337,0.0409451,0.0469493,601,1184,-215.505,-27.9666
-616,-160,-215.737,28.4191,0,0,0,0,0,0,0,-1,608,1184,-215.737,-28.419
-609,-160,-172.537,31.3198,0,0,0,0,0,0,0,-1,615,1184,-172.537,-31.3198
-602,-160,-172.736,32.4874,0,0,0,0,0,0,0,-1,622,1184,-172.736,-32.4875
-595,-160,-33.0669,5.93445,0,0,0,0,0,0,0,-1,629,1184,-33.0669,-5.93446
-588,-160,-33.4845,5.66699,0,0,0,0,0,0,0,-1,636,1184,-33.4845,-5.66697
-581,-160,-33.1338,6.41174,0,0,0,0,0,0,0,-1,643,1184,-33.1338,-6.41176
-574,-160,-32.7831,7.15649,0,0,0,0,0,0,0,-1,650,1184,-32.7831,-7.15655
-567,-160,-29.5828,0.643921,0,0,0,0,0,0,0,-1,657,1184,-29.5828,-0.643968
-560,-160,-57.0784,0.200806,0,0,0,0,0,0,0,-1,664,1184,-57.0784,-0.200768
-553,-160,-71.9811,0.620483,0,0,0,0,0,0,0,-1,671,1184,-71.9811,-0.620473
-546,-160,-72.0035,0.388306,0,0,0,0,0,0,0,-1,678,1184,-72.0035,-0.388251
-539,-160,-72.1849,0.41272,0,0,0,0,0,0,0,-1,685,1184,-72.1849,-0.412664
-532,-160,-72.0911,0.559814,0,0,0,0,0,0,0,-1,692,1184,-72.091,-0.559809
-525,-160,-71.9916,0.556885,0,0,0,0,0,0,0,-1,699,1184,-71.9916,-0.556882
-518,-160,-71.9895,0.636475,0,0,0,0,0,0,0,-1,706,1184,-71.9895,-0.636494
-511,-160,0,0,0,0,0,0,0,0,0,-1,713,1184,0,0
-504,-160,0,0,0,0,0,0,0,0,0,-1,720,1184,0,0
-497,-160,0,0,0,0,0,0,0,0,0,-1,727,1184,0,0
-490,-160,0,0,0,0,0,0,0,0,0,-1,734,1184,0,0
-483,-160,0,0,0,0,0,0,0,0,0,-1,741,1184,0,0
-476,-160,0,0,0,0,0,0,0,0,0,-1,748,1184,0,0
-469,-160,0,0,0,0,0,0,0,0,0,-1,755,1184,0,0
-462,-160,0,0,0,0,0,0,0,0,0,-1,762,1184,0,0
-455,-160,0,0,0,0,0,0,0,0,0,-1,769,1184,0,0
-448,-160,0,0,0,0,0,0,0,0,0,-1,776,1184,0,0
-441,-160,0,0,0,0,0,0,0,0,0,-1,783,1184,0,0
-434,-160,0,0,0,0,0,0,0,0,0,-1,790,1184,0,0
-427,-160,0,0,0,0,0,0,0,0,0,-1,797,1184,0,0
-420,-160,0,0,0,0,0,0,0,0,0,-1,804,1184,0,0
-413,-160,0,0,0,0,0,0,0,0,0,-1,811,1184,0,0
-406,-160,0,0,0,0,0,0,0,0,0,-1,818,1184,0,0
-399,-160,0,0,0,0,0,0,0,0,0,-1,825,1184,0,0
-392,-160,0,0,0,0,0,0,0,0,0,-1,832,1184,0,0
-385,-160,0,0,0,0,0,0,0,0,0,-1,839,1184,0,0
-378,-160,0,0,0,0,0,0,0,0,0,-1,846,1184,0,0
-371,-160,0,0,0,0,0,0,0,0,0,-1,853,1184,0,0
-364,-160,0,0,0,0,0,0,0,0,0,-1,860,1184,0,0
-357,-160,0,0,0,0,0,0,0,0,0,-1,867,1184,0,0
-350,-160,0,0,0,0,0,0,0,0,0,-1,874,1184,0,0
-343,-160,0,0,0,0,0,0,0,0,0,-1,881,1184,0,0
-336,-160,0,0,0,0,0,0,0,0,0,-1,888,1184,0,0
-329,-160,0,0,0,0,0,0,0,0,0,-1,895,1184,0,0
-322,-160,0,0,0,0,0,0,0,0,0,-1,902,1184,0,0
-315,-160,0,0,0,0,0,0,0,0,0,-1,909,1184,0,0
-308,-160,0,0,0,0,0,0,0,0,0,-1,916,1184,0,0
-301,-160,0,0,0,0,0,0,0,0,0,-1,923,1184,0,0
-294,-160,0,0,0,0,0,0,0,0,0,-1,930,1184,0,0
-287,-160,0,0,0,0,0,0,0,0,0,-1,937,1184,0,0
-280,-160,0,0,0,0,0,0,0,0,0,-1,944,1184,0,0
-273,-160,0,0,0,0,0,0,0,0,0,-1,951,1184,0,0
-266,-160,0,0,0,0,0,0,0,0,0,-1,958,1184,0,0
-259,-160,0,0,0,0,0,0,0,0,0,-1,965,1184,0,0
-252,-160,0,0,0,0,0,0,0,0,0,-1,972,1184,0,0
-245,-160,0,0,0,0,0,0,0,0,0,-1,979,1184,0,0
-238,-160,0,0,0,0,0,0,0,0,0,-1,986,1184,0,0
-231,-160,0,0,0,0,0,0,0,0,0,-1,993,1184,0,0
-224,-160,0,0,0,0,0,0,0,0,0,-1,1000,1184,0,0
-217,-160,0,0,0,0,0,0,0,0,0,-1,1007,1184,0,0
-210,-160,0,0,0,0,0,0,0,0,0,-1,1014,1184,0,0
-203,-160,0,0,0,0,0,0,0,0,0,-1,1021,1184,0,0
-196,-160,0,0,0,0,0,0,0,0,0,-1,1028,1184,0,0
-189,-160,0,0,0,0,0,0,0,0,0,-1,1035,1184,0,0
-182,-160,0,0,0,0,0,0,0,0,0,-1,1042,1184,0,0
-175,-160,0,0,0,0,0,0,0,0,0,-1,1049,1184,0,0
-168,-160,0,0,0,0,0,0,0,0,0,-1,1056,1184,0,0
-161,-160,0,0,0,0,0,0,0,0,0,-1,1063,1184,0,0
-154,-160,0,0,0,0,0,0,0,0,0,-1,1070,1184,0,0
-147,-160,0,0,0,0,0,0,0,0,0,-1,1077,1184,0,0
-140,-160,0,0,0,0,0,0,0,0,0,-1,1084,1184,0,0
-133,-160,0,0,0,0,0,0,0,0,0,-1,1091,1184,0,0
-126,-160,0,0,0,0,0,0,0,0,0,-1,1098,1184,0,0
-119,-160,0,0,0,0,0,0,0,0,0,-1,1105,1184,0,0
-112,-160,0,0,0,0,0,0,0,0,0,-1,1112,1184,0,0
-105,-160,0,0,0,0,0,0,0,0,0,-1,1119,1184,0,0
-98,-160,0,0,0,0,0,0,0,0,0,-1,1126,1184,0,0
-91,-160,0,0,0,0,0,0,0,0,0,-1,1133,1184,0,0
-84,-160,0,0,0,0,0,0,0,0,0,-1,1140,1184,0,0
-77,-160,0,0,0,0,0,0,0,0,0,-1,1147,1184,0,0
-70,-160,0,0,0,0,0,0,0,0,0,-1,1154,1184,0,0
-63,-160,0,0,0,0,0,0,0,0,0,-1,1161,1184,0,0
-56,-160,0,0,0,0,0,0,0,0,0,-1,1168,1184,0,0
-49,-160,0,0,0,0,0,0,0,0,0,-1,1175,1184,0,0
-42,-160,0,0,0,0,0,0,0,0,0,-1,1182,1184,0,0
-35,-160,0,0,0,0,0,0,0,0,0,-1,1189,1184,0,0
-28,-160,0,0,0,0,0,0,0,0,0,-1,1196,1184,0,0
-21,-160,0,0,0,0,0,0,0,0,0,-1,1203,1184,0,0
-14,-160,0,0,0,0,0,0,0,0,0,-1,1210,1184,0,0
-7,-160,0,0,0,0,0,0,0,0,0,-1,1217,1184,0,0
0,-160,0,0,0,0,0,0,0,0,0,-1,1224,1184,0,0
7,-160,0,0,0,0,0,0,0,0,0,-1,1231,1184,0,0
14,-160,0,0,0,0,0,0,0,0,0,-1,1238,1184,0,0
21,-160,0,0,0,0,0,0,0,0,0,-1,1245,1184,0,0
28,-160,0,0,0,0,0,0,0,0,0,-1,1252,1184,0,0
35,-160,0,0,0,0,0,0,0,0,0,-1,1259,1184,0,0
42,-160,0,0,0,0,0,0,0,0,0,-1,1266,1184,0,0
49,-160,0,0,0,0,0,0,0,0,0,-1,1273,1184,0,0
56,-160,0,0,0,0,0,0,0,0,0,-1,1280,1184,0,0
63,-160,0,0,0,0,0,0,0,0,0,-1,1287,1184,0,0
70,-160,0,0,0,0,0,0,0,0,0,-1,1294,1184,0,0
77,-160,0,0,0,0,0,0,0,0,0,-1,1301,1184,0,0
84,-160,0,0,0,0,0,0,0,0,0,-1,1308,1184,0,0
91,-160,0,0,0,0,0,0,0,0,0,-1,1315,1184,0,0
98,-160,0,0,0,0,0,0,0,0,0,-1,1322,1184,0,0
105,-160,0,0,0,0,0,0,0,0,0,-1,1329,1184,0,0
112,-160,0,0,0,0,0,0,0,0,0,-1,1336,1184,0,0
119,-160,0,0,0,0,0,0,0,0,0,-1,1343,1184,0,0
126,-160,0,0,0,0,0,0,0,0,0,-1,1350,1184,0,0
133,-160,0,0,0,0,0,0,0,0,0,-1,1357,1184,0,0
140,-160,0,0,0,0,0,0,0,0,0,-1,1364,1184,0,0
147,-160,0,0,0,0,0,0,0,0,0,-1,1371,1184,0,0
154,-160,0,0,0,0,0,0,0,0,0,-1,1378,1184,0,0
161,-160,0,0,0,0,0,0,0,0,0,-1,1385,1184,0,0
168,-160,0,0,0,0,0,0,0,0,0,-1,1392,1184,0,0
175,-160,0,0,0,0,0,0,0,0,0,-1,1399,1184,0,0
182,-160,0,0,0,0,0,0,0,0,0,-1,1406,1184,0,0
189,-160,0,0,0,0,0,0,0,0,0,-1,1413,1184,0,0
196,-160,0,0,0,0,0,0,0,0,0,-1,1420,1184,0,0
203,-160,0,0,0,0,0,0,0,0,0,-1,1427,1184,0,0
210,-160,0,0,0,0,0,0,0,0,0,-1,1434,1184,0,0
217,-160,0,0,0,0,0,0,0,0,0,-1,1441,1184,0,0
224,-160,0,0,0,0,0,0,0,0,0,-1,1448,1184,0,0
231,-160,0,0,0,0,0,0,0,0,0,-1,1455,1184,0,0
238,-160,0,0,0,0,0,0,0,0,0,-1,1462,1184,0,0
245,-160,0,0,0,0,0,0,0,0,0,-1,1469,1184,0,0
252,-160,0,0,0,0,0,0,0,0,0,-1,1476,1184,0,0
259,-160,0,0,0,0,0,0,0,0,0,-1,1483,1184,0,0
266,-160,0,0,0,0,0,0,0,0,0,-1,1490,1184,0,0
273,-160,0,0,0,0,0,0,0,0,0,-1,1497,1184,0,0
280,-160,0,0,0,0,0,0,0,0,0,-1,1504,1184,0,0
287,-160,0,0,0,0,0,0,0,0,0,-1,1511,1184,0,0
294,-160,0,0,0,0,0,0,0,0,0,-1,1518,1184,0,0
301,-160,0,0,0,0,0,0,0,0,0,-1,1525,1184,0,0
308,-160,0,0,0,0,0,0,0,0,0,-1,1532,1184,0,0
315,-160,0,0,0,0,0,0,0,0,0,-1,1539,1184,0,0
322,-160,0,0,0,0,0,0,0,0,0,-1,1546,1184,0,0
329,-160,0,0,0,0,0,0,0,0,0,-1,1553,1184,0,0
336,-160,0,0,0,0,0,0,0,0,0,-1,1560,1184,0,0
343,-160,0,0,0,0,0,0,0,0,0,-1,1567,1184,0,0
350,-160,0,0,0,0,0,0,0,0,0,-1,1574,1184,0,0
357,-160,0,0,0,0,0,0,0,0,0,-1,1581,1184,0,0
364,-160,0,0,0,0,0,0,0,0,0,-1,1588,1184,0,0
371,-160,0,0,0,0,0,0,0,0,0,-1,1595,1184,0,0
378,-160,0,0,0,0,0,0,0,0,0,-1,1602,1184,0,0
385,-160,0,0,0,0,0,0,0,0,0,-1,1609,1184,0,0
392,-160,0,0,0,0,0,0,0,0,0,-1,1616,1184,0,0
399,-160,0,0,0,0,0,0,0,0,0,-1,1623,1184,0,0
406,-160,0,0,0,0,0,0,0,0,0,-1,1630,1184,0,0
413,-160,0,0,0,0,0,0,0,0,0,-1,1637,1184,0,0
420,-160,0,0,0,0,0,0,0,0,0,-1,1644,1184,0,0
427,-160,0,0,0,0,0,0,0,0,0,-1,1651,1184,0,0
434,-160,0,0,0,0,0,0,0,0,0,-1,1658,1184,0,0
441,-160,0,0,0,0,0,0,0,0,0,-1,1665,1184,0,0
448,-160,0,0,0,0,0,0,0,0,0,-1,1672,1184,0,0
455,-160,0,0,0,0,0,0,0,0,0,-1,1679,1184,0,0
462,-160,0,0,0,0,0,0,0,0,0,-1,1686,1184,0,0
469,-160,0,0,0,0,0,0,0,0,0,-1,1693,1184,0,0
476,-160,0,0,0,0,0,0,0,0,0,-1,1700,1184,0,0
483,-160,0,0,0,0,0,0,0,0,0,-1,1707,1184,0,0
490,-160,0,0,0,0,0,0,0,0,0,-1,1714,1184,0,0
497,-160,0,0,0,0,0,0,0,0,0,-1,1721,1184,0,0
504,-160,0,0,0,0,0,0,0,0,0,-1,1728,1184,0,0
511,-160,0,0,0,0,0,0,0,0,0,-1,1735,1184,0,0
518,-160,0,0,0,0,0,0,0,0,0,-1,1742,1184,0,0
525,-160,0,0,0,0,0,0,0,0,0,-1,1749,1184,0,0
532,-160,0,0,0,0,0,0,0,0,0,-1,1756,1184,0,0
539,-160,0,0,0,0,0,0,0,0,0,-1,1763,1184,0,0
546,-160,0,0,0,0,0,0,0,0,0,-1,1770,1184,0,0
553,-160,0,0,0,0,0,0,0,0,0,-1,1777,1184,0,0
560,-160,0,0,0,0,0,0,0,0,0,-1,1784,1184,0,0
567,-160,0,0,0,0,0,0,0,0,0,-1,1791,1184,0,0
574,-160,0,0,0,0,0,0,0,0,0,-1,1798,1184,0,0
581,-160,0,0,0,0,0,0,0,0,0,-1,1805,1184,0,0
588,-160,0,0,0,0,0,0,0,0,0,-1,1812,1184,0,0
595,-160,0,0,0,0,0,0,0,0,0,-1,1819,1184,0,0
602,-160,0,0,0,0,0,0,0,0,0,-1,1826,1184,0,0
609,-160,0,0,0,0,0,0,0,0,0,-1,1833,1184,0,0
616,-160,0,0,0,0,0,0,0,0,0,-1,1840,1184,0,0
623,-160,0,0,0,0,0,0,0,0,0,-1,1847,1184,0,0
630,-160,0,0,0,0,0,0,0,0,0,-1,1854,1184,0,0
637,-160,227.785,9.0979,0,0,0,0,0,0,0,-1,1861,1184,227.785,-9.09794
644,-160,227.753,8.85938,0,0,0,0,0,0,0,-1,1868,1184,227.753,-8.85938
651,-160,227.711,8.76953,0,0,0,0,0,0,0,-1,1875,1184,227.711,-8.76953
658,-160,227.798,8.70605,0,0,0,0,0,0,0,-1,1882,1184,227.798,-8.70607
665,-160,227.966,8.71509,0,0,0,0,0,0,0,-1,1889,1184,227.966,-8.71509
672,-160,227.947,8.82935,0,0,0,0,0,0,0,-1,1896,1184,227.947,-8.8294
679,-160,227.882,8.81909,0,0,0,0,0,0,0,-1,1903,1184,227.882,-8.81903
686,-160,227.846,8.67664,0,0,0,0,0,0,0,-1,1910,1184,227.846,-8.6766
693,-160,227.947,8.44409,0,0,0,0,0,0,0,-1,1917,1184,227.947,-8.44405
700,-160,42.8784,2.44617,0,0,0,0,0,0,0,-1,1924,1184,42.8785,-2.4462
707,-160,24.5115,6.27405,0,0,0,0,0,0,0,-1,1931,1184,24.5115,-6.27401
714,-160,35.6892,6.8905,0,0,0,0,0,0,0,-1,1938,1184,35.6892,-6.89048
721,-160,36.2388,6.37878,0,0,0,0,0,0,0,-1,1945,1184,36.2388,-6.37876
728,-160,52.2174,8.57385,0,0,0,0,0,0,0,-1,1952,1184,52.2174,-8.57381
735,-160,222.073,32.1744,0,0,0,0,0,0,0,-1,1959,1184,222.073,-32.1745
742,-160,222.209,31.1462,-0.00961336,0.0252523,0.00589643,0.0262225,-0.0105836,1.40772,0.0218801,0.0324427,1966,1184,222.209,-31.1463
749,-160,222.166,30.2057,-0.0138838,0.0307221,0.0077606,0.0320337,-0.0151954,1.40337,0.0278394,0.0255598,1973,1184,222.166,-30.2057
756,-160,222.022,29.2869,-0.0179931,0.0360646,0.0100328,0.0378666,-0.019795,1.39308,0.0338316,0.0184817,1980,1184,222.022,-29.2869
763,-160,221.766,28.5435,-0.021906,0.041222,0.0127742,0.043709,-0.024393,1.37852,0.0398424,0.0235416,1987,1184,221.766,-28.5435
770,-160,221.406,27.6844,-0.0255857,0.0461309,0.0160527,0.0495601,-0.0290149,1.36034,0.0458793,0.0390313,1994,1184,221.405,-27.6844
777,-160,221.147,26.9069,-0.0288717,0.050957,0.0199495,0.0556648,-0.0335795,1.33905,0.0520485,0.0492606,2001,1184,221.147,-26.9069
784,-160,221.08,26.0626,0,0,0,0,0,0,0,-1,2008,1184,221.08,-26.0626
791,-160,219.052,25.2825,0,0,0,0,0,0,0,-1,2015,1184,219.052,-25.2825
798,-160,201.334,25.6141,0,0,0,0,0,0,0,-1,2022,1184,201.335,-25.6141
805,-160,201.37,24.9214,0,0,0,0,0,0,0,-1,2029,1184,201.37,-24.9214
812,-160,0,0,0,0,0,0,0,0,0,-1,2036,1184,0,0
-700,-167,0,0,0,0,0,0,0,0,0,-1,524,1191,0,0
-693,-167,0,0,0,0,0,0,0,0,0,-1,531,1191,0,0
-686,-167,-181.577,17.9915,0,0,0,0,0,0,0,-1,538,1191,-181.577,-17.9914
-679,-167,-180.486,19.9419,0,0,0,0,0,0,0,-1,545,1191,-180.486,-19.9419
-672,-167,-183.377,20.8622,0,0,0,0,0,0,0,-1,552,1191,-183.377,-20.8622
-665,-167,-182.894,22.3654,0,0,0,0,0,0,0,-1,559,1191,-182.894,-22.3654
-658,-167,-183.22,23.9731,0,0,0,0,0,0,0,-1,566,1191,-183.22,-23.9731
-651,-167,-182.867,24.7874,0,0,0,0,0,0,0,-1,573,1191,-182.867,-24.7874
-644,-167,-213.307,26.0704,0,0,0,0,0,0,0,-1,580,1191,-213.307,-26.0705
-637,-167,-213.533,26.7133,-0.0282238,0.0467993,-0.0219991,0.0527743,-0.0341988,-1.30559,0.0505943,0.0470146,587,1191,-213.533,-26.7133
-630,-167,-213.908,27.3229,-0.0241528,0.0454131,-0.018028,0.0498075,-0.0285472,-1.33171,0.0457898,0.0241102,594,1191,-213.908,-27.3229
-623,-167,-214.265,28.1772,-0.0203217,0.0441968,-0.0142995,0.047224,-0.0233489,-1.36218,0.0415152,0.0402248,601,1191,-214.265,-28.1772
-616,-167,-214.576,28.9619,0,0,0,0,0,0,0,-1,608,1191,-214.576,-28.9619
-609,-167,-188.495,31.2517,0,0,0,0,0,0,0,-1,615,1191,-188.495,-31.2517
-602,-167,-171.534,32.4463,0,0,0,0,0,0,0,-1,622,1191,-171.534,-32.4463
-595,-167,-53.8502,10.2292,0,0,0,0,0,0,0,-1,629,1191,-53.8502,-10.2292
-588,-167,-42.7112,7.92004,0,0,0,0,0,0,0,-1,636,1191,-42.7112,-7.92007
-581,-167,-32.8646,6.30542,0,0,0,0,0,0,0,-1,643,1191,-32.8646,-6.30537
-574,-167,-32.4808,7.37524,0,0,0,0,0,0,0,-1,650,1191,-32.4808,-7.37525
-567,-167,-27.3643,2.55859,0,0,0,0,0,0,0,-1,657,1191,-27.3643,-2.55864
-560,-167,-48.2598,0.834839,0,0,0,0,0,0,0,-1,664,1191,-48.2598,-0.834822
-553,-167,-71.9608,0.495361,0,0,0,0,0,0,0,-1,671,1191,-71.9607,-0.495325
-546,-167,-71.9877,0.515503,0,0,0,0,0,0,0,-1,678,1191,-71.9877,-0.515464
-539,-167,-71.9675,0.487549,0,0,0,0,0,0,0,-1,685,1191,-71.9675,-0.487605
-532,-167,-71.9727,0.365723,0,0,0,0,0,0,0,-1,692,1191,-71.9727,-0.36578
-525,-167,-72.0439,0.532471,0,0,0,0,0,0,0,-1,699,1191,-72.0439,-0.532526
-518,-167,-72.0834,0.718506,0,0,0,0,0,0,0,-1,706,1191,-72.0834,-0.718521
-511,-167,0,0,0,0,0,0,0,0,0,-1,713,1191,0,0
-504,-167,0,0,0,0,0,0,0,0,0,-1,720,1191,0,0
-497,-167,0,0,0,0,0,0,0,0,0,-1,727,1191,0,0
-490,-167,0,0,0,0,0,0,0,0,0,-1,734,1191,0,0
-483,-167,0,0,0,0,0,0,0,0,0,-1,741,1191,0,0
-476,-167,0,0,0,0,0,0,0,0,0,-1,748,1191,0,0
-469,-167,0,0,0,0,0,0,0,0,0,-1,755,1191,0,0
-462,-167,0,0,0,0,0,0,0,0,0,-1,762,1191,0,0
-455,-167,0,0,0,0,0,0,0,0,0,-1,769,1191,0,0
-448,-167,0,0,0,0,0,0,0,0,0,-1,776,1191,0,0
-441,-167,0,0,0,0,0,0,0,0,0,-1,783,1191,0,0
-434,-167,0,0,0,0,0,0,0,0,0,-1,790,1191,0,0
-427,-167,0,0,0,0,0,0,0,0,0,-1,797,1191,0,0
-420,-167,0,0,0,0,0,0,0,0,0,-1,804,1191,0,0
-413,-167,0,0,0,0,0,0,0,0,0,-1,811,1191,0,0
-406,-167,0,0,0,0,0,0,0,0,0,-1,818,1191,0,0
-399,-167,0,0,0,0,0,0,0,0,0,-1,825,1191,0,0
-392,-167,0,0,0,0,0,0,0,0,0,-1,832,1191,0,0
-385,-167,0,0,0,0,0,0,0,0,0,-1,839,1191,0,0
-378,-167,0,0,0,0,0,0,0,0,0,-1,846,1191,0,0
-371,-167,0,0,0,0,0,0,0,0,0,-1,853,1191,0,0
-364,-167,0,0,0,0,0,0,0,0,0,-1,860,1191,0,0
-357,-167,0,0,0,0,0,0,0,0,0,-1,867,1191,0,0
-350,-167,0,0,0,0,0,0,0,0,0,-1,874,1191,0,0
-343,-167,0,0,0,0,0,0,0,0,0,-1,881,1191,0,0
-336,-167,0,0,0,0,0,0,0,0,0,-1,888,1191,0,0
-329,-167,0,0,0,0,0,0,0,0,0,-1,895,1191,0,0
-322,-167,0,0,0,0,0,0,0,0,0,-1,902,1191,0,0
-315,-167,0,0,0,0,0,0,0,0,0,-1,909,1191,0,0
-308,-167,0,0,0,0,0,0,0,0,0,-1,916,1191,0,0
-301,-167,0,0,0,0,0,0,0,0,0,-1,923,1191,0,0
-294,-167,0,0,0,0,0,0,0,0,0,-1,930,1191,0,0
-287,-167,0,0,0,0,0,0,0,0,0,-1,937,1191,0,0
-280,-167,0,0,0,0,0,0,0,0,0,-1,944,1191,0,0
-273,-167,0,0,0,0,0,0,0,0,0,-1,951,1191,0,0
-266,-167,0,0,0,0,0,0,0,0,0,-1,958,1191,0,0
-259,-167,0,0,0,0,0,0,0,0,0,-1,965,1191,0,0
-252,-167,0,0,0,0,0,0,0,0,0,-1,972,1191,0,0
-245,-167,0,0,0,0,0,0,0,0,0,-1,979,1191,0,0
-238,-167,0,0,0,0,0,0,0,0,0,-1,986,1191,0,0
-231,-167,0,0,0,0,0,0,0,0,0,-1,993,1191,0,0
-224,-167,0,0,0,0,0,0,0,0,0,-1,1000,1191,0,0
-217,-167,0,0,0,0,0,0,0,0,0,-1,1007,1191,0,0
-210,-167,0,0,0,0,0,0,0,0,0,-1,1014,1191,0,0
-203,-167,0,0,0,0,0,0,0,0,0,-1,1021,1191,0,0
-196,-167,0,0,0,0,0,0,0,0,0,-1,1028,1191,0,0
-189,-167,0,0,0,0,0,0,0,0,0,-1,1035,1191,0,0
-182,-167,0,0,0,0,0,0,0,0,0,-1,1042,1191,0,0
-175,-167,0,0,0,0,0,0,0,0,0,-1,1049,1191,0,0
-168,-167,0,0,0,0,0,0,0,0,0,-1,1056,1191,0,0
-161,-167,0,0,0,0,0,0,0,0,0,-1,1063,1191,0,0
-154,-167,0,0,0,0,0,0,0,0,0,-1,1070,1191,0,0
-147,-167,0,0,0,0,0,0,0,0,0,-1,1077,1191,0,0
-140,-167,0,0,0,0,0,0,0,0,0,-1,1084,1191,0,0
-133,-167,0,0,0,0,0,0,0,0,0,-1,1091,1191,0,0
-126,-167,0,0,0,0,0,0,0,0,0,-1,1098,1191,0,0
-119,-167,0,0,0,0,0,0,0,0,0,-1,1105,1191,0,0
-112,-167,0,0,0,0,0,0,0,0,0,-1,1112,1191,0,0
-105,-167,0,0,0,0,0,0,0,0,0,-1,1119,1191,0,0
-98,-167,0,0,0,0,0,0,0,0,0,-1,1126,1191,0,0
-91,-167,0,0,0,0,0,0,0,0,0,-1,1133,1191,0,0
-84,-167,0,0,0,0,0,0,0,0,0,-1,1140,1191,0,0
-77,-167,0,0,0,0,0,0,0,0,0,-1,1147,1191,0,0
-70,-167,0,0,0,0,0,0,0,0,0,-1,1154,1191,0,0
-63,-167,0,0,0,0,0,0,0,0,0,-1,1161,1191,0,0
-56,-167,0,0,0,0,0,0,0,0,0,-1,1168,1191,0,0
-49,-167,0,0,0,0,0,0,0,0,0,-1,1175,1191,0,0
-42,-167,0,0,0,0,0,0,0,0,0,-1,1182,1191,0,0
-35,-167,0,0,0,0,0,0,0,0,0,-1,1189,1191,0,0
-28,-167,0,0,0,0,0,0,0,0,0,-1,1196,1191,0,0
-21,-167,0,0,0,0,0,0,0,0,0,-1,1203,1191,0,0
-14,-167,0,0,0,0,0,0,0,0,0,-1,1210,1191,0,0
-7,-167,0,0,0,0,0,0,0,0,0,-1,1217,1191,0,0
0,-167,0,0,0,0,0,0,0,0,0,-1,1224,1191,0,0
7,-167,0,0,0,0,0,0,0,0,0,-1,1231,1191,0,0
14,-167,0,0,0,0,0,0,0,0,0,-1,1238,1191,0,0
21,-167,0,0,0,0,0,0,0,0,0,-1,1245,1191,0,0
28,-167,0,0,0,0,0,0,0,0,0,-1,1252,1191,0,0
35,-167,0,0,0,0,0,0,0,0,0,-1,1259,1191,0,0
42,-167,0,0,0,0,0,0,0,0,0,-1,1266,1191,0,0
49,-167,0,0,0,0,0,0,0,0,0,-1,1273,1191,0,0
56,-167,0,0,0,0,0,0,0,0,0,-1,1280,1191,0,0
63,-167,0,0,0,0,0,0,0,0,0,-1,1287,1191,0,0
70,-167,0,0,0,0,0,0,0,0,0,-1,1294,1191,0,0
77,-167,0,0,0,0,0,0,0,0,0,-1,1301,1191,0,0
84,-167,0,0,0,0,0,0,0,0,0,-1,1308,1191,0,0
91,-167,0,0,0,0,0,0,0,0,0,-1,1315,1191,0,0
98,-167,0,0,0,0,0,0,0,0,0,-1,1322,1191,0,0
105,-167,0,0,0,0,0,0,0,0,0,-1,1329,1191,0,0
112,-167,0,0,0,0,0,0,0,0,0,-1,1336,1191,0,0
119,-167,0,0,0,0,0,0,0,0,0,-1,1343,1191,0,0
126,-167,0,0,0,0,0,0,0,0,0,-1,1350,1191,0,0
133,-167,0,0,0,0,0,0,0,0,0,-1,1357,1191,0,0
140,-167,0,0,0,0,0,0,0,0,0,-1,1364,1191,0,0
147,-167,0,0,0,0,0,0,0,0,0,-1,1371,1191,0,0
154,-167,0,0,0,0,0,0,0,0,0,-1,1378,1191,0,0
161,-167,0,0,0,0,0,0,0,0,0,-1,1385,1191,0,0
168,-167,0,0,0,0,0,0,0,0,0,-1,1392,1191,0,0
175,-167,0,0,0,0,0,0,0,0,0,-1,1399,1191,0,0
182,-167,0,0,0,0,0,0,0,0,0,-1,1406,1191,0,0
189,-167,0,0,0,0,0,0,0,0,0,-1,1413,1191,0,0
196,-167,0,0,0,0,0,0,0,0,0,-1,1420,1191,0,0
203,-167,0,0,0,0,0,0,0,0,0,-1,1427,1191,0,0
210,-167,0,0,0,0,0,0,0,0,0,-1,1434,1191,0,0
217,-167,0,0,0,0,0,0,0,0,0,-1,1441,1191,0,0
224,-167,0,0,0,0,0,0,0,0,0,-1,1448,1191,0,0
231,-167,0,0,0,0,0,0,0,0,0,-1,1455,1191,0,0
238,-167,0,0,0,0,0,0,0,0,0,-1,1462,1191,0,0
245,-167,0,0,0,0,0,0,0,0,0,-1,1469,1191,0,0
252,-167,0,0,0,0,0,0,0,0,0,-1,1476,1191,0,0
259,-167,0,0,0,0,0,0,0,0,0,-1,1483,1191,0,0
266,-167,0,0,0,0,0,0,0,0,0,-1,1490,1191,0,0
273,-167,0,0,0,0,0,0,0,0,0,-1,1497,1191,0,0
280,-167,0,0,0,0,0,0,0,0,0,-1,1504,1191,0,0
287,-167,0,0,0,0,0,0,0,0,0,-1,1511,1191,0,0
294,-167,0,0,0,0,0,0,0,0,0,-1,1518,1191,0,0
301,-167,0,0,0,0,0,0,0,0,0,-1,1525,1191,0,0
308,-167,0,0,0,0,0,0,0,0,0,-1,1532,1191,0,0
315,-167,0,0,0,0,0,0,0,0,0,-1,1539,1191,0,0
322,-167,0,0,0,0,0,0,0,0,0,-1,1546,1191,0,0
329,-167,0,0,0,0,0,0,0,0,0,-1,1553,1191,0,0
336,-167,0,0,0,0,0,0,0,0,0,-1,1560,1191,0,0
343,-167,0,0,0,0,0,0,0,0,0,-1,1567,1191,0,0
350,-167,0,0,0,0,0,0,0,0,0,-1,1574,1191,0,0
357,-167,0,0,0,0,0,0,0,0,0,-1,1581,1191,0,0
364,-167,0,0,0,0,0,0,0,0,0,-1,1588,1191,0,0
371,-167,0,0,0,0,0,0,0,0,0,-1,1595,1191,0,0
378,-167,0,0,0,0,0,0,0,0,0,-1,1602,1191,0,0
385,-167,0,0,0,0,0,0,0,0,0,-1,1609,1191,0,0
392,-167,0,0,0,0,0,0,0,0,0,-1,1616,1191,0,0
399,-167,0,0,0,0,0,0,0,0,0,-1,1623,1191,0,0
406,-167,0,0,0,0,0,0,0,0,0,-1,1630,1191,0,0
413,-167,0,0,0,0,0,0,0,0,0,-1,1637,1191,0,0
420,-167,0,0,0,0,0,0,0,0,0,-1,1644,1191,0,0
427,-167,0,0,0,0,0,0,0,0,0,-1,1651,1191,0,0
434,-167,0,0,0,0,0,0,0,0,0,-1,1658,1191,0,0
441,-167,0,0,0,0,0,0,0,0,0,-1,1665,1191,0,0
448,-167,0,0,0,0,0,0,0,0,0,-1,1672,1191,0,0
455,-167,0,0,0,0,0,0,0,0,0,-1,1679,1191,0,0
462,-167,0,0,0,0,0,0,0,0,0,-1,1686,1191,0,0
469,-167,0,0,0,0,0,0,0,0,0,-1,1693,1191,0,0
476,-167,0,0,0,0,0,0,0,0,0,-1,1700,1191,0,0
483,-167,0,0,0,0,0,0,0,0,0,-1,1707,1191,0,0
490,-167,0,0,0,0,0,0,0,0,0,-1,1714,1191,0,0
497,-167,0,0,0,0,0,0,0,0,0,-1,1721,1191,0,0
504,-167,0,0,0,0,0,0,0,0,0,-1,1728,1191,0,0
511,-167,0,0,0,0,0,0,0,0,0,-1,1735,1191,0,0
518,-167,0,0,0,0,0,0,0,0,0,-1,1742,1191,0,0
525,-167,0,0,0,0,0,0,0,0,0,-1,1749,1191,0,0
532,-167,0,0,0,0,0,0,0,0,0,-1,1756,1191,0,0
539,-167,0,0,0,0,0,0,0,0,0,-1,1763,1191,0,0
546,-167,0,0,0,0,0,0,0,0,0,-1,1770,1191,0,0
553,-167,0,0,0,0,0,0,0,0,0,-1,1777,1191,0,0
560,-167,0,0,0,0,0,0,0,0,0,-1,1784,1191,0,0
567,-167,0,0,0,0,0,0,0,0,0,-1,1791,1191,0,0
574,-167,0,0,0,0,0,0,0,0,0,-1,1798,1191,0,0
581,-167,0,0,0,0,0,0,0,0,0,-1,1805,1191,0,0
588,-167,0,0,0,0,0,0,0,0,0,-1,1812,1191,0,0
595,-167,0,0,0,0,0,0,0,0,0,-1,1819,1191,0,0
602,-167,0,0,0,0,0,0,0,0,0,-1,1826,1191,0,0
609,-167,0,0,0,0,0,0,0,0,0,-1,1833,1191,0,0
616,-167,0,0,0,0,0,0,0,0,0,-1,1840,1191,0,0
623,-167,0,0,0,0,0,0,0,0,0,-1,1847,1191,0,0
630,-167,0,0,0,0,0,0,0,0,0,-1,1854,1191,0,0
637,-167,227.812,9.24658,0,0,0,0,0,0,0,-1,1861,1191,227.812,-9.24653
644,-167,227.914,8.7373,0,0,0,0,0,0,0,-1,1868,1191,227.914,-8.73727
651,-167,227.608,8.71472,0,0,0,0,0,0,0,-1,1875,1191,227.608,-8.71468
658,-167,227.609,8.82813,0,0,0,0,0,0,0,-1,1882,1191,227.609,-8.82809
665,-167,227.921,8.78345,0,0,0,0,0,0,0,-1,1889,1191,227.921,-8.78349
672,-167,227.894,8.85254,0,0,0,0,0,0,0,-1,1896,1191,227.894,-8.85254
679,-167,227.825,8.74951,0,0,0,0,0,0,0,-1,1903,1191,227.825,-8.74946
686,-167,227.817,8.4624,0,0,0,0,0,0,0,-1,1910,1191,227.817,-8.46237
693,-167,83.0426,2.22205,0,0,0,0,0,0,0,-1,1917,1191,83.0426,-2.22204
700,-167,28.0459,2.70508,0,0,0,0,0,0,0,-1,1924,1191,28.0459,-2.70513
707,-167,29.4708,7.10168,0,0,0,0,0,0,0,-1,1931,1191,29.4708,-7.10172
714,-167,35.9202,6.84668,0,0,0,0,0,0,0,-1,1938,1191,35.9202,-6.84664
721,-167,36.2072,6.38892,0,0,0,0,0,0,0,-1,1945,1191,36.2072,-6.38891
728,-167,217.173,33.8704,0,0,0,0,0,0,0,-1,1952,1191,217.173,-33.8704
735,-167,221.162,32.3379,0,0,0,0,0,0,0,-1,1959,1191,221.162,-32.3379
742,-167,221.165,31.2064,-0.00890581,0.0273415,0.0059363,0.0282889,-0.00985325,1.41253,0.0228628,0.0280926,1966,1191,221.165,-31.2065
749,-167,221.041,30.1184,-0.0134182,0.0323717,0.00793224,0.0337069,-0.0147533,1.40404,0.028683,0.021917,1973,1191,221.041,-30.1185
756,-167,220.906,29.1512,-0.0177643,0.0373383,0.010312,0.0392048,-0.0196309,1.39172,0.0345898,0.017501,1980,1191,220.906,-29.1512
763,-167,220.491,28.1517,-0.0219075,0.0421716,0.0131406,0.0447617,-0.0244976,1.37619,0.0405533,0.0233978,1987,1191,220.491,-28.1518
770,-167,220.079,27.6581,0,0,0,0,0,0,0,-1,1994,1191,220.079,-27.6581
777,-167,219.889,26.8201,0,0,0,0,0,0,0,-1,2001,1191,219.889,-26.8201
784,-167,217.762,25.9683,0,0,0,0,0,0,0,-1,2008,1191,217.762,-25.9682
791,-167,200.445,25.1343,0,0,0,0,0,0,0,-1,2015,1191,200.445,-25.1342
798,-167,200.385,24.8876,0,0,0,0,0,0,0,-1,2022,1191,200.385,-24.8875
805,-167,200.37,24.4675,0,0,0,0,0,0,0,-1,2029,1191,200.37,-24.4675
812,-167,0,0,0,0,0,0,0,0,0,-1,2036,1191,0,0
-700,-174,0,0,0,0,0,0,0,0,0,-1,524,1198,0,0
-693,-174,0,0,0,0,0,0,0,0,0,-1,531,1198,0,0
-686,-174,-181.3,18.2295,0,0,0,0,0,0,0,-1,538,1198,-181.3,-18.2295
-679,-174,-182.095,19.8165,0,0,0,0,0,0,0,-1,545,1198,-182.095,-19.8165
-672,-174,-181.861,21.2617,0,0,0,0,0,0,0,-1,552,1198,-181.861,-21.2617
-665,-174,-181.892,22.6538,0,0,0,0,0,0,0,-1,559,1198,-181.892,-22.6539
-658,-174,-181.998,24.1498,0,0,0,0,0,0,0,-1,566,1198,-181.998,-24.1497
-651,-174,-181.661,25.0159,0,0,0,0,0,0,0,-1,573,1198,-181.661,-25.0159
-644,-174,-194.594,26.0352,0,0,0,0,0,0,0,-1,580,1198,-194.594,-26.0351
-637,-174,-212.263,26.4514,0,0,0,0,0,0,0,-1,587,1198,-212.263,-26.4514
-630,-174,-212.628,27.1041,-0.023908,0.0457144,-0.0186092,0.0503762,-0.0285698,-1.32533,0.0461555,0.0296491,594,1198,-212.628,-27.1041
-623,-174,-212.86,28.0138,-0.0201989,0.0443737,-0.0152805,0.0478072,-0.0236324,-1.34977,0.0420254,0.0236195,601,1198,-212.86,-28.0138
-616,-174,-212.98,29.0327,-0.0167855,0.0431847,-0.0122011,0.045572,-0.0191728,-1.37757,0.0384022,0.029553,608,1198,-212.98,-29.0328
-609,-174,-213.103,30.1123,0,0,0,0,0,0,0,-1,615,1198,-213.103,-30.1123
-602,-174,-201.251,32.1483,0,0,0,0,0,0,0,-1,622,1198,-201.251,-32.1483
-595,-174,-52.4874,10.4403,0,0,0,0,0,0,0,-1,629,1198,-52.4874,-10.4403
-588,-174,-82.5152,19.7214,0,0,0,0,0,0,0,-1,636,1198,-82.5152,-19.7215
-581,-174,-51.1051,11.6198,0,0,0,0,0,0,0,-1,643,1198,-51.1051,-11.6197
-574,-174,-31.7448,7.09595,0,0,0,0,0,0,0,-1,650,1198,-31.7448,-7.09599
-567,-174,-26.6597,3.04041,0,0,0,0,0,0,0,-1,657,1198,-26.6597,-3.04039
-560,-174,-42.6953,1.07178,0,0,0,0,0,0,0,-1,664,1198,-42.6953,-1.07181
-553,-174,-71.9143,0.470703,0,0,0,0,0,0,0,-1,671,1198,-71.9143,-0.470669
-546,-174,-71.9802,0.492554,0,0,0,0,0,0,0,-1,678,1198,-71.9802,-0.492513
-539,-174,-71.983,0.482666,0,0,0,0,0,0,0,-1,685,1198,-71.983,-0.48269
-532,-174,-72.0311,0.235718,0,0,0,0,0,0,0,-1,692,1198,-72.0311,-0.235711
-525,-174,-72.1511,0.398926,0,0,0,0,0,0,0,-1,699,1198,-72.1511,-0.398868
-518,-174,-72.131,0.657959,0,0,0,0,0,0,0,-1,706,1198,-72.131,-0.657944
-511,-174,0,0,0,0,0,0,0,0,0,-1,713,1198,0,0
-504,-174,0,0,0,0,0,0,0,0,0,-1,720,1198,0,0
-497,-174,0,0,0,0,0,0,0,0,0,-1,727,1198,0,0
-490,-174,0,0,0,0,0,0,0,0,0,-1,734,1198,0,0
-483,-174,0,0,0,0,0,0,0,0,0,-1,741,1198,0,0
-476,-174,0,0,0,0,0,0,0,0,0,-1,748,1198,0,0
-469,-174,0,0,0,0,0,0,0,0,0,-1,755,1198,0,0
-462,-174,0,0,0,0,0,0,0,0,0,-1,762,1198,0,0
-455,-174,0,0,0,0,0,0,0,0,0,-1,769,1198,0,0
-448,-174,0,0,0,0,0,0,0,0,0,-1,776,1198,0,0
-441,-174,0,0,0,0,0,0,0,0,0,-1,783,1198,0,0
-434,-174,0,0,0,0,0,0,0,0,0,-1,790,1198,0,0
-427,-174,0,0,0,0,0,0,0,0,0,-1,797,1198,0,0
-420,-174,0,0,0,0,0,0,0,0,0,-1,804,1198,0,0
-413,-174,0,0,0,0,0,0,0,0,0,-1,811,1198,0,0
-406,-174,0,0,0,0,0,0,0,0,0,-1,818,1198,0,0
-399,-174,0,0,0,0,0,0,0,0,0,-1,825,1198,0,0
-392,-174,0,0,0,0,0,0,0,0,0,-1,832,1198,0,0
-385,-174,0,0,0,0,0,0,0,0,0,-1,839,1198,0,0
-378,-174,0,0,0,0,0,0,0,0,0,-1,846,1198,0,0
-371,-174,0,0,0,0,0,0,0,0,0,-1,853,1198,0,0
-364,-174,0,0,0,0,0,0,0,0,0,-1,860,1198,0,0
-357,-174,0,0,0,0,0,0,0,0,0,-1,867,1198,0,0
-350,-174,0,0,0,0,0,0,0,0,0,-1,874,1198,0,0
-343,-174,0,0,0,0,0,0,0,0,0,-1,881,1198,0,0
-336,-174,0,0,0,0,0,0,0,0,0,-1,888,1198,0,0
-329,-174,0,0,0,0,0,0,0,0,0,-1,895,1198,0,0
-322,-174,0,0,0,0,0,0,0,0,0,-1,902,1198,0,0
-315,-174,0,0,0,0,0,0,0,0,0,-1,909,1198,0,0
-308,-174,0,0,0,0,0,0,0,0,0,-1,916,1198,0,0
-301,-174,0,0,0,0,0,0,0,0,0,-1,923,1198,0,0
-294,-174,0,0,0,0,0,0,0,0,0,-1,930,1198,0,0
-287,-174,0,0,0,0,0,0,0,0,0,-1,937,1198,0,0
-280,-174,0,0,0,0,0,0,0,0,0,-1,944,1198,0,0
-273,-174,0,0,0,0,0,0,0,0,0,-1,951,1198,0,0
-266,-174,0,0,0,0,0,0,0,0,0,-1,958,1198,0,0
-259,-174,0,0,0,0,0,0,0,0,0,-1,965,1198,0,0
-252,-174,0,0,0,0,0,0,0,0,0,-1,972,1198,0,0
-245,-174,0,0,0,0,0,0,0,0,0,-1,979,1198,0,0
-238,-174,0,0,0,0,0,0,0,0,0,-1,986,1198,0,0
-231,-174,0,0,0,0,0,0,0,0,0,-1,993,1198,0,0
-224,-174,0,0,0,0,0,0,0,0,0,-1,1000,1198,0,0
-217,-174,0,0,0,0,0,0,0,0,0,-1,1007,1198,0,0
-210,-174,0,0,0,0,0,0,0,0,0,-1,1014,1198,0,0
-203,-174,0,0,0,0,0,0,0,0,0,-1,1021,1198,0,0
-196,-174,0,0,0,0,0,0,0,0,0,-1,1028,1198,0,0
-189,-174,0,0,0,0,0,0,0,0,0,-1,1035,1198,0,0
-182,-174,0,0,0,0,0,0,0,0,0,-1,1042,1198,0,0
-175,-174,0,0,0,0,0,0,0,0,0,-1,1049,1198,0,0
-168,-174,0,0,0,0,0,0,0,0,0,-1,1056,1198,0,0
-161,-174,0,0,0,0,0,0,0,0,0,-1,1063,1198,0,0
-154,-174,0,0,0,0,0,0,0,0,0,-1,1070,1198,0,0
-147,-174,0,0,0,0,0,0,0,0,0,-1,1077,1198,0,0
-140,-174,0,0,0,0,0,0,0,0,0,-1,1084,1198,0,0
-133,-174,0,0,0,0,0,0,0,0,0,-1,1091,1198,0,0
-126,-174,0,0,0,0,0,0,0,0,0,-1,1098,1198,0,0
-119,-174,0,0,0,0,0,0,0,0,0,-1,1105,1198,0,0
-112,-174,0,0,0,0,0,0,0,0,0,-1,1112,1198,0,0
-105,-174,0,0,0,0,0,0,0,0,0,-1,1119,1198,0,0
-98,-174,0,0,0,0,0,0,0,0,0,-1,1126,1198,0,0
-91,-174,0,0,0,0,0,0,0,0,0,-1,1133,1198,0,0
-84,-174,0,0,0,0,0,0,0,0,0,-1,1140,1198,0,0
-77,-174,0,0,0,0,0,0,0,0,0,-1,1147,1198,0,0
-70,-174,0,0,0,0,0,0,0,0,0,-1,1154,1198,0,0
-63,-174,0,0,0,0,0,0,0,0,0,-1,1161,1198,0,0
-56,-174,0,0,0,0,0,0,0,0,0,-1,1168,1198,0,0
-49,-174,0,0,0,0,0,0,0,0,0,-1,1175,1198,0,0
-42,-174,0,0,0,0,0,0,0,0,0,-1,1182,1198,0,0
-35,-174,0,0,0,0,0,0,0,0,0,-1,1189,1198,0,0
-28,-174,0,0,0,0,0,0,0,0,0,-1,1196,1198,0,0
-21,-174,0,0,0,0,0,0,0,0,0,-1,1203,1198,0,0
-14,-174,0,0,0,0,0,0,0,0,0,-1,1210,1198,0,0
-7,-174,0,0,0,0,0,0,0,0,0,-1,1217,1198,0,0
0,-174,0,0,0,0,0,0,0,0,0,-1,1224,1198,0,0
7,-174,0,0,0,0,0,0,0,0,0,-1,1231,1198,0,0
14,-174,0,0,0,0,0,0,0,0,0,-1,1238,1198,0,0
21,-174,0,0,0,0,0,0,0,0,0,-1,1245,1198,0,0
28,-174,0,0,0,0,0,0,0,0,0,-1,1252,1198,0,0
35,-174,0,0,0,0,0,0,0,0,0,-1,1259,1198,0,0
42,-174,0,0,0,0,0,0,0,0,0,-1,1266,1198,0,0
49,-174,0,0,0,0,0,0,0,0,0,-1,1273,1198,0,0
56,-174,0,0,0,0,0,0,0,0,0,-1,1280,1198,0,0
63,-174,0,0,0,0,0,0,0,0,0,-1,1287,1198,0,0
70,-174,0,0,0,0,0,0,0,0,0,-1,1294,1198,0,0
77,-174,0,0,0,0,0,0,0,0,0,-1,1301,1198,0,0
84,-174,0,0,0,0,0,0,0,0,0,-1,1308,1198,0,0
91,-174,0,0,0,0,0,0,0,0,0,-1,1315,1198,0,0
98,-174,0,0,0,0,0,0,0,0,0,-1,1322,1198,0,0
105,-174,0,0,0,0,0,0,0,0,0,-1,1329,1198,0,0
112,-174,0,0,0,0,0,0,0,0,0,-1,1336,1198,0,0
119,-174,0,0,0,0,0,0,0,0,0,-1,1343,1198,0,0
126,-174,0,0,0,0,0,0,0,0,0,-1,1350,1198,0,0
133,-174,0,0,0,0,0,0,0,0,0,-1,1357,1198,0,0
140,-174,0,0,0,0,0,0,0,0,0,-1,1364,1198,0,0
147,-174,0,0,0,0,0,0,0,0,0,-1,1371,1198,0,0
154,-174,0,0,0,0,0,0,0,0,0,-1,1378,1198,0,0
161,-174,0,0,0,0,0,0,0,0,0,-1,1385,1198,0,0
168,-174,0,0,0,0,0,0,0,0,0,-1,1392,1198,0,0
175,-174,0,0,0,0,0,0,0,0,0,-1,1399,1198,0,0
182,-174,0,0,0,0,0,0,0,0,0,-1,1406,1198,0,0
189,-174,0,0,0,0,0,0,0,0,0,-1,1413,1198,0,0
196,-174,0,0,0,0,0,0,0,0,0,-1,1420,1198,0,0
203,-174,0,0,0,0,0,0,0,0,0,-1,1427,1198,0,0
210,-174,0,0,0,0,0,0,0,0,0,-1,1434,1198,0,0
217,-174,0,0,0,0,0,0,0,0,0,-1,1441,1198,0,0
224,-174,0,0,0,0,0,0,0,0,0,-1,1448,1198,0,0
231,-174,0,0,0,0,0,0,0,0,0,-1,1455,1198,0,0
238,-174,0,0,0,0,0,0,0,0,0,-1,1462,1198,0,0
245,-174,0,0,0,0,0,0,0,0,0,-1,1469,1198,0,0
252,-174,0,0,0,0,0,0,0,0,0,-1,1476,1198,0,0
259,-174,0,0,0,0,0,0,0,0,0,-1,1483,1198,0,0
266,-174,0,0,0,0,0,0,0,0,0,-1,1490,1198,0,0
273,-174,0,0,0,0,0,0,0,0,0,-1,1497,1198,0,0
280,-174,0,0,0,0,0,0,0,0,0,-1,1504,1198,0,0
287,-174,0,0,0,0,0,0,0,0,0,-1,1511,1198,0,0
294,-174,0,0,0,0,0,0,0,0,0,-1,1518,1198,0,0
301,-174,0,0,0,0,0,0,0,0,0,-1,1525,1198,0,0
308,-174,0,0,0,0,0,0,0,0,0,-1,1532,1198,0,0
315,-174,0,0,0,0,0,0,0,0,0,-1,1539,1198,0,0
322,-174,0,0,0,0,0,0,0,0,0,-1,1546,1198,0,0
329,-174,0,0,0,0,0,0,0,0,0,-1,1553,1198,0,0
336,-174,0,0,0,0,0,0,0,0,0,-1,1560,1198,0,0
343,-174,0,0,0,0,0,0,0,0,0,-1,1567,1198,0,0
350,-174,0,0,0,0,0,0,0,0,0,-1,1574,1198,0,0
357,-174,0,0,0,0,0,0,0,0,0,-1,1581,1198,0,0
364,-174,0,0,0,0,0,0,0,0,0,-1,1588,1198,0,0
371,-174,0,0,0,0,0,0,0,0,0,-1,1595,1198,0,0
378,-174,0,0,0,0,0,0,0,0,0,-1,1602,1198,0,0
385,-174,0,0,0,0,0,0,0,0,0,-1,1609,1198,0,0
392,-174,0,0,0,0,0,0,0,0,0,-1,1616,1198,0,0
399,-174,0,0,0,0,0,0,0,0,0,-1,1623,1198,0,0
406,-174,0,0,0,0,0,0,0,0,0,-1,1630,1198,0,0
413,-174,0,0,0,0,0,0,0,0,0,-1,1637,1198,0,0
420,-174,0,0,0,0,0,0,0,0,0,-1,1644,1198,0,0
427,-174,0,0,0,0,0,0,0,0,0,-1,1651,1198,0,0
434,-174,0,0,0,0,0,0,0,0,0,-1,1658,1198,0,0
441,-174,0,0,0,0,0,0,0,0,0,-1,1665,1198,0,0
448,-174,0,0,0,0,0,0,0,0,0,-1,1672,1198,0,0
455,-174,0,0,0,0,0,0,0,0,0,-1,1679,1198,0,0
462,-174,0,0,0,0,0,0,0,0,0,-1,1686,1198,0,0
469,-174,0,0,0,0,0,0,0,0,0,-1,1693,1198,0,0
476,-174,0,0,0,0,0,0,0,0,0,-1,1700,1198,0,0
483,-174,0,0,0,0,0,0,0,0,0,-1,1707,1198,0,0
490,-174,0,0,0,0,0,0,0,0,0,-1,1714,1198,0,0
497,-174,0,0,0,0,0,0,0,0,0,-1,1721,1198,0,0
504,-174,0,0,0,0,0,0,0,0,0,-1,1728,1198,0,0
511,-174,0,0,0,0,0,0,0,0,0,-1,1735,1198,0,0
518,-174,0,0,0,0,0,0,0,0,0,-1,1742,1198,0,0
525,-174,0,0,0,0,0,0,0,0,0,-1,1749,1198,0,0
532,-174,0,0,0,0,0,0,0,0,0,-1,1756,1198,0,0
539,-174,0,0,0,0,0,0,0,0,0,-1,1763,1198,0,0
546,-174,0,0,0,0,0,0,0,0,0,-1,1770,1198,0,0
553,-174,0,0,0,0,0,0,0,0,0,-1,1777,1198,0,0
560,-174,0,0,0,0,0,0,0,0,0,-1,1784,1198,0,0
567,-174,0,0,0,0,0,0,0,0,0,-1,1791,1198,0,0
574,-174,0,0,0,0,0,0,0,0,0,-1,1798,1198,0,0
581,-174,0,0,0,0,0,0,0,0,0,-1,1805,1198,0,0
588,-174,0,0,0,0,0,0,0,0,0,-1,1812,1198,0,0
595,-174,0,0,0,0,0,0,0,0,0,-1,1819,1198,0,0
602,-174,0,0,0,0,0,0,0,0,0,-1,1826,1198,0,0
609,-174,0,0,0,0,0,0,0,0,0,-1,1833,1198,0,0
616,-174,0,0,0,0,0,0,0,0,0,-1,1840,1198,0,0
623,-174,0,0,0,0,0,0,0,0,0,-1,1847,1198,0,0
630,-174,0,0,0,0,0,0,0,0,0,-1,1854,1198,0,0
637,-174,227.789,8.95947,0,0,0,0,0,0,0,-1,1861,1198,227.789,-8.95953
644,-174,227.782,8.83643,0,0,0,0,0,0,0,-1,1868,1198,227.782,-8.83638
651,-174,227.673,8.76038,0,0,0,0,0,0,0,-1,1875,1198,227.673,-8.76043
658,-174,227.699,9.39819,0,0,0,0,0,0,0,-1,1882,1198,227.699,-9.39815
665,-174,227.787,8.97253,0,0,0,0,0,0,0,-1,1889,1198,227.787,-8.97252
672,-174,227.83,8.75378,0,0,0,0,0,0,0,-1,1896,1198,227.83,-8.75374
679,-174,227.823,8.65051,0,0,0,0,0,0,0,-1,1903,1198,227.822,-8.65051
686,-174,227.884,8.4032,0,0,0,0,0,0,0,-1,1910,1198,227.883,-8.40316
693,-174,51.1324,2.57349,0,0,0,0,0,0,0,-1,1917,1198,51.1325,-2.57343
700,-174,25.4004,6.11792,0,0,0,0,0,0,0,-1,1924,1198,25.4004,-6.11797
707,-174,34.7908,7.34473,0,0,0,0,0,0,0,-1,1931,1198,34.7908,-7.34475
714,-174,40.1135,7.79871,0,0,0,0,0,0,0,-1,1938,1198,40.1135,-7.79875
721,-174,40.8693,7.59863,0,0,0,0,0,0,0,-1,1945,1198,40.8693,-7.59859
728,-174,219.717,33.274,0,0,0,0,0,0,0,-1,1952,1198,219.717,-33.274
735,-174,219.837,32.2828,-0.00265299,0.0241938,0.00435005,0.024881,-0.00334025,1.4141,0.0178055,0.0418283,1959,1198,219.837,-32.2828
742,-174,220.032,31.101,-0.00801592,0.0289326,0.00631709,0.0299828,-0.00906611,1.40606,0.0235984,0.0324353,1966,1198,220.032,-31.1009
749,-174,219.95,29.9515,-0.0131526,0.0337328,0.00854887,0.0352429,-0.0146627,1.39595,0.0296184,0.0246818,1973,1198,219.95,-29.9515
756,-174,219.637,28.8831,-0.0180405,0.0385245,0.0111032,0.0406259,-0.0201419,1.38375,0.0357426,0.017871,1980,1198,219.637,-28.8831
763,-174,219.35,27.8267,-0.0226514,0.0432304,0.0140492,0.0461012,-0.0255223,1.36923,0.041917,0.0260638,1987,1198,219.35,-27.8267
770,-174,219.134,26.7308,0,0,0,0,0,0,0,-1,1994,1198,219.134,-26.7308
777,-174,112.049,4.95313,0,0,0,0,0,0,0,-1,2001,1198,112.049,-4.95312
784,-174,111.412,4.28589,0,0,0,0,0,0,0,-1,2008,1198,111.412,-4.28584
791,-174,202.178,23.3279,0,0,0,0,0,0,0,-1,2015,1198,202.178,-23.3279
798,-174,199.414,24.0172,0,0,0,0,0,0,0,-1,2022,1198,199.414,-24.0172
805,-174,110.032,10.519,0,0,0,0,0,0,0,-1,2029,1198,110.032,-10.5191
812,-174,0,0,0,0,0,0,0,0,0,-1,2036,1198,0,0
-700,-181,0,0,0,0,0,0,0,0,0,-1,524,1205,0,0
-693,-181,0,0,0,0,0,0,0,0,0,-1,531,1205,0,0
-686,-181,-181.035,18.4607,0,0,0,0,0,0,0,-1,538,1205,-181.035,-18.4607
-679,-181,-180.687,19.6251,0,0,0,0,0,0,0,-1,545,1205,-180.687,-19.6251
-672,-181,-181.005,21.6814,0,0,0,0,0,0,0,-1,552,1205,-181.005,-21.6814
-665,-181,-180.938,22.9178,0,0,0,0,0,0,0,-1,559,1205,-180.938,-22.9179
-658,-181,-180.849,24.1835,0,0,0,0,0,0,0,-1,566,1205,-180.849,-24.1834
-651,-181,-193.665,24.5267,0,0,0,0,0,0,0,-1,573,1205,-193.665,-24.5267
-644,-181,-195.325,25.5333,0,0,0,0,0,0,0,-1,580,1205,-195.325,-25.5334
-637,-181,-211.119,25.6705,0,0,0,0,0,0,0,-1,587,1205,-211.119,-25.6706
-630,-181,-211.359,26.8302,-0.0234684,0.0463305,-0.0190882,0.0512095,-0.0283474,-1.32055,0.0465601,0.0260138,594,1205,-211.359,-26.8303
-623,-181,-211.676,27.9186,-0.0197833,0.0445663,-0.0162408,0.0484329,-0.0236499,-1.33707,0.042429,0.0208236,601,1205,-211.676,-27.9185
-616,-181,-211.801,29.0121,-0.0163792,0.042932,-0.0136038,0.0459033,-0.0193506,-1.35575,0.0387001,0.0194741,608,1205,-211.801,-29.0121
-609,-181,-212.169,30.066,-0.0132613,0.0414608,-0.0111776,0.0436559,-0.0154564,-1.37688,0.0353993,0.0299272,615,1205,-212.169,-30.066
-602,-181,-212.661,31.1018,0,0,0,0,0,0,0,-1,622,1205,-212.661,-31.1017
-595,-181,-199.003,33.6729,0,0,0,0,0,0,0,-1,629,1205,-199.003,-33.6728
-588,-181,-81.3058,19.9136,0,0,0,0,0,0,0,-1,636,1205,-81.3058,-19.9135
-581,-181,-81.564,20.8275,0,0,0,0,0,0,0,-1,643,1205,-81.564,-20.8275
-574,-181,-49.6119,12.3185,0,0,0,0,0,0,0,-1,650,1205,-49.6119,-12.3185
-567,-181,-25.8839,3.34485,0,0,0,0,0,0,0,-1,657,1205,-25.8839,-3.3449
-560,-181,-31.7396,1.63306,0,0,0,0,0,0,0,-1,664,1205,-31.7396,-1.63303
-553,-181,-57.8761,0.527832,0,0,0,0,0,0,0,-1,671,1205,-57.8761,-0.527787
-546,-181,-71.9266,0.492798,0,0,0,0,0,0,0,-1,678,1205,-71.9266,-0.492781
-539,-181,-71.897,0.373657,0,0,0,0,0,0,0,-1,685,1205,-71.8971,-0.373697
-532,-181,-71.999,0.237061,0,0,0,0,0,0,0,-1,692,1205,-71.999,-0.237102
-525,-181,-72.1212,0.416626,0,0,0,0,0,0,0,-1,699,1205,-72.1212,-0.416618
-518,-181,-71.9969,0.632813,0,0,0,0,0,0,0,-1,706,1205,-71.997,-0.632783
-511,-181,0,0,0,0,0,0,0,0,0,-1,713,1205,0,0
-504,-181,0,0,0,0,0,0,0,0,0,-1,720,1205,0,0
-497,-181,0,0,0,0,0,0,0,0,0,-1,727,1205,0,0
-490,-181,0,0,0,0,0,0,0,0,0,-1,734,1205,0,0
-483,-181,0,0,0,0,0,0,0,0,0,-1,741,1205,0,0
-476,-181,0,0,0,0,0,0,0,0,0,-1,748,1205,0,0
-469,-181,0,0,0,0,0,0,0,0,0,-1,755,1205,0,0
-462,-181,0,0,0,0,0,0,0,0,0,-1,762,1205,0,0
-455,-181,0,0,0,0,0,0,0,0,0,-1,769,1205,0,0
-448,-181,0,0,0,0,0,0,0,0,0,-1,776,1205,0,0
-441,-181,0,0,0,0,0,0,0,0,0,-1,783,1205,0,0
-434,-181,0,0,0,0,0,0,0,0,0,-1,790,1205,0,0
-427,-181,0,0,0,0,0,0,0,0,0,-1,797,1205,0,0
-420,-181,0,0,0,0,0,0,0,0,0,-1,804,1205,0,0
-413,-181,0,0,0,0,0,0,0,0,0,-1,811,1205,0,0
-406,-181,0,0,0,0,0,0,0,0,0,-1,818,1205,0,0
-399,-181,0,0,0,0,0,0,0,0,0,-1,825,1205,0,0
-392,-181,0,0,0,0,0,0,0,0,0,-1,832,1205,0,0
-385,-181,0,0,0,0,0,0,0,0,0,-1,839,1205,0,0
-378,-181,0,0,0,0,0,0,0,0,0,-1,846,1205,0,0
-371,-181,0,0,0,0,0,0,0,0,0,-1,853,1205,0,0
-364,-181,0,0,0,0,0,0,0,0,0,-1,860,1205,0,0
-357,-181,0,0,0,0,0,0,0,0,0,-1,867,1205,0,0
-350,-181,0,0,0,0,0,0,0,0,0,-1,874,1205,0,0
-343,-181,0,0,0,0,0,0,0,0,0,-1,881,1205,0,0
-336,-181,0,0,0,0,0,0,0,0,0,-1,888,1205,0,0
-329,-181,0,0,0,0,0,0,0,0,0,-1,895,1205,0,0
-322,-181,0,0,0,0,0,0,0,0,0,-1,902,1205,0,0
-315,-181,0,0,0,0,0,0,0,0,0,-1,909,1205,0,0
-308,-181,0,0,0,0,0,0,0,0,0,-1,916,1205,0,0
-301,-181,0,0,0,0,0,0,0,0,0,-1,923,1205,0,0
-294,-181,0,0,0,0,0,0,0,0,0,-1,930,1205,0,0
-287,-181,0,0,0,0,0,0,0,0,0,-1,937,1205,0,0
-280,-181,0,0,0,0,0,0,0,0,0,-1,944,1205,0,0
-273,-181,0,0,0,0,0,0,0,0,0,-1,951,1205,0,0
-266,-181,0,0,0,0,0,0,0,0,0,-1,958,1205,0,0
-259,-181,0,0,0,0,0,0,0,0,0,-1,965,1205,0,0
-252,-181,0,0,0,0,0,0,0,0,0,-1,972,1205,0,0
-245,-181,0,0,0,0,0,0,0,0,0,-1,979,1205,0,0
-238,-181,0,0,0,0,0,0,0,0,0,-1,986,1205,0,0
-231,-181,0,0,0,0,0,0,0,0,0,-1,993,1205,0,0
-224,-181,0,0,0,0,0,0,0,0,0,-1,1000,1205,0,0
-217,-181,0,0,0,0,0,0,0,0,0,-1,1007,1205,0,0
-210,-181,0,0,0,0,0,0,0,0,0,-1,1014,1205,0,0
-203,-181,0,0,0,0,0,0,0,0,0,-1,1021,1205,0,0
-196,-181,0,0,0,0,0,0,0,0,0,-1,1028,1205,0,0
-189,-181,0,0,0,0,0,0,0,0,0,-1,1035,1205,0,0
-182,-181,0,0,0,0,0,0,0,0,0,-1,1042,1205,0,0
-175,-181,0,0,0,0,0,0,0,0,0,-1,1049,1205,0,0
-168,-181,0,0,0,0,0,0,0,0,0,-1,1056,1205,0,0
-161,-181,0,0,0,0,0,0,0,0,0,-1,1063,1205,0,0
-154,-181,0,0,0,0,0,0,0,0,0,-1,1070,1205,0,0
-147,-181,0,0,0,0,0,0,0,0,0,-1,1077,1205,0,0
-140,-181,0,0,0,0,0,0,0,0,0,-1,1084,1205,0,0
-133,-181,0,0,0,0,0,0,0,0,0,-1,1091,1205,0,0
-126,-181,0,0,0,0,0,0,0,0,0,-1,1098,1205,0,0
-119,-181,0,0,0,0,0,0,0,0,0,-1,1105,1205,0,0
-112,-181,0,0,0,0,0,0,0,0,0,-1,1112,1205,0,0
-105,-181,0,0,0,0,0,0,0,0,0,-1,1119,1205,0,0
-98,-181,0,0,0,0,0,0,0,0,0,-1,1126,1205,0,0
-91,-181,0,0,0,0,0,0,0,0,0,-1,1133,1205,0,0
-84,-181,0,0,0,0,0,0,0,0,0,-1,1140,1205,0,0
-77,-181,0,0,0,0,0,0,0,0,0,-1,1147,1205,0,0
-70,-181,0,0,0,0,0,0,0,0,0,-1,1154,1205,0,0
-63,-181,0,0,0,0,0,0,0,0,0,-1,1161,1205,0,0
-56,-181,0,0,0,0,0,0,0,0,0,-1,1168,1205,0,0
-49,-181,0,0,0,0,0,0,0,0,0,-1,1175,1205,0,0
-42,-181,0,0,0,0,0,0,0,0,0,-1,1182,1205,0,0
-35,-181,0,0,0,0,0,0,0,0,0,-1,1189,1205,0,0
-28,-181,0,0,0,0,0,0,0,0,0,-1,1196,1205,0,0
-21,-181,0,0,0,0,0,0,0,0,0,-1,1203,1205,0,0
-14,-181,0,0,0,0,0,0,0,0,0,-1,1210,1205,0,0
-7,-181,0,0,0,0,0,0,0,0,0,-1,1217,1205,0,0
0,-181,0,0,0,0,0,0,0,0,0,-1,1224,1205,0,0
7,-181,0,0,0,0,0,0,0,0,0,-1,1231,1205,0,0
14,-181,0,0,0,0,0,0,0,0,0,-1,1238,1205,0,0
21,-181,0,0,0,0,0,0,0,0,0,-1,1245,1205,0,0
28,-181,0,0,0,0,0,0,0,0,0,-1,1252,1205,0,0
35,-181,0,0,0,0,0,0,0,0,0,-1,1259,1205,0,0
42,-181,0,0,0,0,0,0,0,0,0,-1,1266,1205,0,0
49,-181,0,0,0,0,0,0,0,0,0,-1,1273,1205,0,0
56,-181,0,0,0,0,0,0,0,0,0,-1,1280,1205,0,0
63,-181,0,0,0,0,0,0,0,0,0,-1,1287,1205,0,0
70,-181,0,0,0,0,0,0,0,0,0,-1,1294,1205,0,0
77,-181,0,0,0,0,0,0,0,0,0,-1,1301,1205,0,0
84,-181,0,0,0,0,0,0,0,0,0,-1,1308,1205,0,0
91,-181,0,0,0,0,0,0,0,0,0,-1,1315,1205,0,0
98,-181,0,0,0,0,0,0,0,0,0,-1,1322,1205,0,0
105,-181,0,0,0,0,0,0,0,0,0,-1,1329,1205,0,0
112,-181,0,0,0,0,0,0,0,0,0,-1,1336,1205,0,0
119,-181,0,0,0,0,0,0,0,0,0,-1,1343,1205,0,0
126,-181,0,0,0,0,0,0,0,0,0,-1,1350,1205,0,0
133,-181,0,0,0,0,0,0,0,0,0,-1,1357,1205,0,0
140,-181,0,0,0,0,0,0,0,0,0,-1,1364,1205,0,0
147,-181,0,0,0,0,0,0,0,0,0,-1,1371,1205,0,0
154,-181,0,0,0,0,0,0,0,0,0,-1,1378,1205,0,0
161,-181,0,0,0,0,0,0,0,0,0,-1,1385,1205,0,0
168,-181,0,0,0,0,0,0,0,0,0,-1,1392,1205,0,0
175,-181,0,0,0,0,0,0,0,0,0,-1,1399,1205,0,0
182,-181,0,0,0,0,0,0,0,0,0,-1,1406,1205,0,0
189,-181,0,0,0,0,0,0,0,0,0,-1,1413,1205,0,0
196,-181,0,0,0,0,0,0,0,0,0,-1,1420,1205,0,0
203,-181,0,0,0,0,0,0,0,0,0,-1,1427,1205,0,0
210,-181,0,0,0,0,0,0,0,0,0,-1,1434,1205,0,0
217,-181,0,0,0,0,0,0,0,0,0,-1,1441,1205,0,0
224,-181,0,0,0,0,0,0,0,0,0,-1,1448,1205,0,0
231,-181,0,0,0,0,0,0,0,0,0,-1,1455,1205,0,0
238,-181,0,0,0,0,0,0,0,0,0,-1,1462,1205,0,0
245,-181,0,0,0,0,0,0,0,0,0,-1,1469,1205,0,0
252,-181,0,0,0,0,0,0,0,0,0,-1,1476,1205,0,0
259,-181,0,0,0,0,0,0,0,0,0,-1,1483,1205,0,0
266,-181,0,0,0,0,0,0,0,0,0,-1,1490,1205,0,0
273,-181,0,0,0,0,0,0,0,0,0,-1,1497,1205,0,0
280,-181,0,0,0,0,0,0,0,0,0,-1,1504,1205,0,0
287,-181,0,0,0,0,0,0,0,0,0,-1,1511,1205,0,0
294,-181,0,0,0,0,0,0,0,0,0,-1,1518,1205,0,0
301,-181,0,0,0,0,0,0,0,0,0,-1,1525,1205,0,0
308,-181,0,0,0,0,0,0,0,0,0,-1,1532,1205,0,0
315,-181,0,0,0,0,0,0,0,0,0,-1,1539,1205,0,0
322,-181,0,0,0,0,0,0,0,0,0,-1,1546,1205,0,0
329,-181,0,0,0,0,0,0,0,0,0,-1,1553,1205,0,0
336,-181,0,0,0,0,0,0,0,0,0,-1,1560,1205,0,0
343,-181,0,0,0,0,0,0,0,0,0,-1,1567,1205,0,0
350,-181,0,0,0,0,0,0,0,0,0,-1,1574,1205,0,0
357,-181,0,0,0,0,0,0,0,0,0,-1,1581,1205,0,0
364,-181,0,0,0,0,0,0,0,0,0,-1,1588,1205,0,0
371,-181,0,0,0,0,0,0,0,0,0,-1,1595,1205,0,0
378,-181,0,0,0,0,0,0,0,0,0,-1,1602,1205,0,0
385,-181,0,0,0,0,0,0,0,0,0,-1,1609,1205,0,0
392,-181,0,0,0,0,0,0,0,0,0,-1,1616,1205,0,0
399,-181,0,0,0,0,0,0,0,0,0,-1,1623,1205,0,0
406,-181,0,0,0,0,0,0,0,0,0,-1,1630,1205,0,0
413,-181,0,0,0,0,0,0,0,0,0,-1,1637,1205,0,0
420,-181,0,0,0,0,0,0,0,0,0,-1,1644,1205,0,0
427,-181,0,0,0,0,0,0,0,0,0,-1,1651,1205,0,0
434,-181,0,0,0,0,0,0,0,0,0,-1,1658,1205,0,0
441,-181,0,0,0,0,0,0,0,0,0,-1,1665,1205,0,0
448,-181,0,0,0,0,0,0,0,0,0,-1,1672,1205,0,0
455,-181,0,0,0,0,0,0,0,0,0,-1,1679,1205,0,0
462,-181,0,0,0,0,0,0,0,0,0,-1,1686,1205,0,0
469,-181,0,0,0,0,0,0,0,0,0,-1,1693,1205,0,0
476,-181,0,0,0,0,0,0,0,0,0,-1,1700,1205,0,0
483,-181,0,0,0,0,0,0,0,0,0,-1,1707,1205,0,0
490,-181,0,0,0,0,0,0,0,0,0,-1,1714,1205,0,0
497,-181,0,0,0,0,0,0,0,0,0,-1,1721,1205,0,0
504,-181,0,0,0,0,0,0,0,0,0,-1,1728,1205,0,0
511,-181,0,0,0,0,0,0,0,0,0,-1,1735,1205,0,0
518,-181,0,0,0,0,0,0,0,0,0,-1,1742,1205,0,0
525,-181,0,0,0,0,0,0,0,0,0,-1,1749,1205,0,0
532,-181,0,0,0,0,0,0,0,0,0,-1,1756,1205,0,0
539,-181,0,0,0,0,0,0,0,0,0,-1,1763,1205,0,0
546,-181,0,0,0,0,0,0,0,0,0,-1,1770,1205,0,0
553,-181,0,0,0,0,0,0,0,0,0,-1,1777,1205,0,0
560,-181,0,0,0,0,0,0,0,0,0,-1,1784,1205,0,0
567,-181,0,0,0,0,0,0,0,0,0,-1,1791,1205,0,0
574,-181,0,0,0,0,0,0,0,0,0,-1,1798,1205,0,0
581,-181,0,0,0,0,0,0,0,0,0,-1,1805,1205,0,0
588,-181,0,0,0,0,0,0,0,0,0,-1,1812,1205,0,0
595,-181,0,0,0,0,0,0,0,0,0,-1,1819,1205,0,0
602,-181,0,0,0,0,0,0,0,0,0,-1,1826,1205,0,0
609,-181,0,0,0,0,0,0,0,0,0,-1,1833,1205,0,0
616,-181,0,0,0,0,0,0,0,0,0,-1,1840,1205,0,0
623,-181,0,0,0,0,0,0,0,0,0,-1,1847,1205,0,0
630,-181,227.931,9.07532,0,0,0,0,0,0,0,-1,1854,1205,227.931,-9.07536
637,-181,227.868,8.92554,0,0,0,0,0,0,0,-1,1861,1205,227.868,-8.92552
644,-181,227.79,8.86853,0,0,0,0,0,0,0,-1,1868,1205,227.79,-8.86856
651,-181,227.814,8.85803,0,0,0,0,0,0,0,-1,1875,1205,227.814,-8.85801
658,-181,227.739,9.21375,0,0,0,0,0,0,0,-1,1882,1205,227.739,-9.21376
665,-181,227.7,9.02197,0,0,0,0,0,0,0,-1,1889,1205,227.7,-9.02191
672,-181,227.797,8.77234,0,0,0,0,0,0,0,-1,1896,1205,227.797,-8.77234
679,-181,227.918,8.56812,0,0,0,0,0,0,0,-1,1903,1205,227.918,-8.56814
686,-181,84.0454,1.91431,0,0,0,0,0,0,0,-1,1910,1205,84.0455,-1.91427
693,-181,36.1301,2.91016,0,0,0,0,0,0,0,-1,1917,1205,36.1302,-2.9102
700,-181,29.5845,6.58398,0,0,0,0,0,0,0,-1,1924,1205,29.5844,-6.58395
707,-181,55.4949,10.6722,0,0,0,0,0,0,0,-1,1931,1205,55.4949,-10.6722
714,-181,89.1893,18.8728,0,0,0,0,0,0,0,-1,1938,1205,89.1894,-18.8728
721,-181,218.644,34.3833,0,0,0,0,0,0,0,-1,1945,1205,218.644,-34.3833
728,-181,218.939,33.0598,0,0,0,0,0,0,0,-1,1952,1205,218.939,-33.0598
735,-181,218.783,32.0822,-0.00158327,0.0253189,0.00441515,0.026025,-0.00228935,1.41222,0.0181613,0.0347672,1959,1205,218.783,-32.0822
742,-181,218.795,31.1145,-0.00773591,0.0301374,0.00675316,0.0313055,-0.00890403,1.39952,0.0243864,0.027373,1966,1205,218.795,-31.1145
749,-181,218.677,29.9281,-0.0135863,0.0351268,0.00925537,0.036826,-0.0152856,1.38922,0.0309315,0.0213912,1973,1205,218.676,-29.9281
756,-181,218.465,28.8083,-0.0191169,0.0402045,0.0119881,0.0425355,-0.021448,1.37875,0.0376037,0.0199304,1980,1205,218.465,-28.8084
763,-181,218.283,27.6821,-0.0243074,0.0452804,0.0150281,0.0483872,-0.0274142,1.36694,0.0443188,0.0285375,1987,1205,218.283,-27.6821
770,-181,218.221,26.5546,0,0,0,0,0,0,0,-1,1994,1205,218.221,-26.5546
777,-181,112.389,5.52087,0,0,0,0,0,0,0,-1,2001,1205,112.389,-5.52082
784,-181,111.663,4.77502,0,0,0,0,0,0,0,-1,2008,1205,111.663,-4.77498
791,-181,110.522,4.12244,0,0,0,0,0,0,0,-1,2015,1205,110.522,-4.12243
798,-181,118.47,0.938965,0,0,0,0,0,0,0,-1,2022,1205,118.47,-0.938971
805,-181,0,0,0,0,0,0,0,0,0,-1,2029,1205,0,0
812,-181,0,0,0,0,0,0,0,0,0,-1,2036,1205,0,0
-700,-188,0,0,0,0,0,0,0,0,0,-1,524,1212,0,0
-693,-188,0,0,0,0,0,0,0,0,0,-1,531,1212,0,0
-686,-188,0,0,0,0,0,0,0,0,0,-1,538,1212,0,0
-679,-188,-180.175,20.2563,0,0,0,0,0,0,0,-1,545,1212,-180.175,-20.2563
-672,-188,-179.93,21.7358,0,0,0,0,0,0,0,-1,552,1212,-179.93,-21.7358
-665,-188,-179.946,23.1642,0,0,0,0,0,0,0,-1,559,1212,-179.946,-23.1642
-658,-188,-179.795,24.5853,0,0,0,0,0,0,0,-1,566,1212,-179.795,-24.5854
-651,-188,-179.422,25.6511,0,0,0,0,0,0,0,-1,573,1212,-179.422,-25.6511
-644,-188,-192.648,25.5492,0,0,0,0,0,0,0,-1,580,1212,-192.648,-25.5492
-637,-188,-209.909,25.459,0,0,0,0,0,0,0,-1,587,1212,-209.909,-25.459
-630,-188,-210.084,26.6418,-0.0232881,0.0474651,-0.0193188,0.0523963,-0.0282194,-1.32088,0.047236,0.0283978,594,1212,-210.084,-26.6418
-623,-188,-210.33,27.7667,-0.0196891,0.0451179,-0.0169094,0.0492645,-0.0238357,-1.33031,0.0430472,0.0184767,601,1212,-210.33,-27.7667
-616,-188,-210.52,28.7878,-0.0163286,0.0429221,-0.0146524,0.0463475,-0.019754,-1.34114,0.0391797,0.0172741,608,1212,-210.52,-28.7879
-609,-188,-210.755,29.985,-0.0132145,0.0409069,-0.0125518,0.0436762,-0.0159838,-1.35364,0.0356602,0.0224395,615,1212,-210.755,-29.985
-602,-188,-210.942,31.2952,0,0,0,0,0,0,0,-1,622,1212,-210.942,-31.2952
-595,-188,-207.35,33.3468,0,0,0,0,0,0,0,-1,629,1212,-207.35,-33.3468
-588,-188,-80.1454,20.0868,0,0,0,0,0,0,0,-1,636,1212,-80.1454,-20.0868
-581,-188,-80.2917,21.2421,0,0,0,0,0,0,0,-1,643,1212,-80.2917,-21.2421
-574,-188,-51.8871,13.5398,0,0,0,0,0,0,0,-1,650,1212,-51.8871,-13.5398
-567,-188,-19.5786,4.10388,0,0,0,0,0,0,0,-1,657,1212,-19.5785,-4.10383
-560,-188,-23.9507,0.416626,0,0,0,0,0,0,0,-1,664,1212,-23.9508,-0.416602
-553,-188,-49.2368,1.03101,0,0,0,0,0,0,0,-1,671,1212,-49.2367,-1.03099
-546,-188,-71.8369,0.494629,0,0,0,0,0,0,0,-1,678,1212,-71.8369,-0.494635
-539,-188,-71.8539,0.373535,0,0,0,0,0,0,0,-1,685,1212,-71.854,-0.373478
-532,-188,-72.0013,0.373047,0,0,0,0,0,0,0,-1,692,1212,-72.0014,-0.373048
-525,-188,-72.0408,0.373535,0,0,0,0,0,0,0,-1,699,1212,-72.0408,-0.373498
-518,-188,-71.9813,0.422363,0,0,0,0,0,0,0,-1,706,1212,-71.9813,-0.422411
-511,-188,-71.7823,0.477417,0,0,0,0,0,0,0,-1,713,1212,-71.7823,-0.477475
-504,-188,0,0,0,0,0,0,0,0,0,-1,720,1212,0,0
-497,-188,0,0,0,0,0,0,0,0,0,-1,727,1212,0,0
-490,-188,0,0,0,0,0,0,0,0,0,-1,734,1212,0,0
-483,-188,0,0,0,0,0,0,0,0,0,-1,741,1212,0,0
-476,-188,0,0,0,0,0,0,0,0,0,-1,748,1212,0,0
-469,-188,0,0,0,0,0,0,0,0,0,-1,755,1212,0,0
-462,-188,0,0,0,0,0,0,0,0,0,-1,762,1212,0,0
-455,-188,0,0,0,0,0,0,0,0,0,-1,769,1212,0,0
-448,-188,0,0,0,0,0,0,0,0,0,-1,776,1212,0,0
-441,-188,0,0,0,0,0,0,0,0,0,-1,783,1212,0,0
-434,-188,0,0,0,0,0,0,0,0,0,-1,790,1212,0,0
-427,-188,0,0,0,0,0,0,0,0,0,-1,797,1212,0,0
-420,-188,0,0,0,0,0,0,0,0,0,-1,804,1212,0,0
-413,-188,0,0,0,0,0,0,0,0,0,-1,811,1212,0,0
-406,-188,0,0,0,0,0,0,0,0,0,-1,818,1212,0,0
-399,-188,0,0,0,0,0,0,0,0,0,-1,825,1212,0,0
-392,-188,0,0,0,0,0,0,0,0,0,-1,832,1212,0,0
-385,-188,0,0,0,0,0,0,0,0,0,-1,839,1212,0,0
-378,-188,0,0,0,0,0,0,0,0,0,-1,846,1212,0,0
-371,-188,0,0,0,0,0,0,0,0,0,-1,853,1212,0,0
-364,-188,0,0,0,0,0,0,0,0,0,-1,860,1212,0,0
-357,-188,0,0,0,0,0,0,0,0,0,-1,867,1212,0,0
-350,-188,0,0,0,0,0,0,0,0,0,-1,874,1212,0,0
-343,-188,0,0,0,0,0,0,0,0,0,-1,881,1212,0,0
-336,-188,0,0,0,0,0,0,0,0,0,-1,888,1212,0,0
-329,-188,0,0,0,0,0,0,0,0,0,-1,895,1212,0,0
-322,-188,0,0,0,0,0,0,0,0,0,-1,902,1212,0,0
-315,-188,0,0,0,0,0,0,0,0,0,-1,909,1212,0,0
-308,-188,0,0,0,0,0,0,0,0,0,-1,916,1212,0,0
-301,-188,0,0,0,0,0,0,0,0,0,-1,923,1212,0,0
-294,-188,0,0,0,0,0,0,0,0,0,-1,930,1212,0,0
-287,-188,0,0,0,0,0,0,0,0,0,-1,937,1212,0,0
-280,-188,0,0,0,0,0,0,0,0,0,-1,944,1212,0,0
-273,-188,0,0,0,0,0,0,0,0,0,-1,951,1212,0,0
-266,-188,0,0,0,0,0,0,0,0,0,-1,958,1212,0,0
-259,-188,0,0,0,0,0,0,0,0,0,-1,965,1212,0,0
-252,-188,0,0,0,0,0,0,0,0,0,-1,972,1212,0,0
-245,-188,0,0,0,0,0,0,0,0,0,-1,979,1212,0,0
-238,-188,0,0,0,0,0,0,0,0,0,-1,986,1212,0,0
-231,-188,0,0,0,0,0,0,0,0,0,-1,993,1212,0,0
-224,-188,0,0,0,0,0,0,0,0,0,-1,1000,1212,0,0
-217,-188,0,0,0,0,0,0,0,0,0,-1,1007,1212,0,0
-210,-188,0,0,0,0,0,0,0,0,0,-1,1014,1212,0,0
-203,-188,0,0,0,0,0,0,0,0,0,-1,1021,1212,0,0
-196,-188,0,0,0,0,0,0,0,0,0,-1,1028,1212,0,0
-189,-188,0,0,0,0,0,0,0,0,0,-1,1035,1212,0,0
-182,-188,0,0,0,0,0,0,0,0,0,-1,1042,1212,0,0
-175,-188,0,0,0,0,0,0,0,0,0,-1,1049,1212,0,0
-168,-188,0,0,0,0,0,0,0,0,0,-1,1056,1212,0,0
-161,-188,0,0,0,0,0,0,0,0,0,-1,1063,1212,0,0
-154,-188,0,0,0,0,0,0,0,0,0,-1,1070,1212,0,0
-147,-188,0,0,0,0,0,0,0,0,0,-1,1077,1212,0,0
-140,-188,0,0,0,0,0,0,0,0,0,-1,1084,1212,0,0
-133,-188,0,0,0,0,0,0,0,0,0,-1,1091,1212,0,0
-126,-188,0,0,0,0,0,0,0,0,0,-1,1098,1212,0,0
-119,-188,0,0,0,0,0,0,0,0,0,-1,1105,1212,0,0
-112,-188,0,0,0,0,0,0,0,0,0,-1,1112,1212,0,0
-105,-188,0,0,0,0,0,0,0,0,0,-1,1119,1212,0,0
-98,-188,0,0,0,0,0,0,0,0,0,-1,1126,1212,0,0
-91,-188,0,0,0,0,0,0,0,0,0,-1,1133,1212,0,0
-84,-188,0,0,0,0,0,0,0,0,0,-1,1140,1212,0,0
-77,-188,0,0,0,0,0,0,0,0,0,-1,1147,1212,0,0
-70,-188,0,0,0,0,0,0,0,0,0,-1,1154,1212,0,0
-63,-188,0,0,0,0,0,0,0,0,0,-1,1161,1212,0,0
-56,-188,0,0,0,0,0,0,0,0,0,-1,1168,1212,0,0
-49,-188,0,0,0,0,0,0,0,0,0,-1,1175,1212,0,0
-42,-188,0,0,0,0,0,0,0,0,0,-1,1182,1212,0,0
-35,-188,0,0,0,0,0,0,0,0,0,-1,1189,1212,0,0
-28,-188,0,0,0,0,0,0,0,0,0,-1,1196,1212,0,0
-21,-188,0,0,0,0,0,0,0,0,0,-1,1203,1212,0,0
-14,-188,0,0,0,0,0,0,0,0,0,-1,1210,1212,0,0
-7,-188,0,0,0,0,0,0,0,0,0,-1,1217,1212,0,0
0,-188,0,0,0,0,0,0,0,0,0,-1,1224,1212,0,0
7,-188,0,0,0,0,0,0,0,0,0,-1,1231,1212,0,0
14,-188,0,0,0,0,0,0,0,0,0,-1,1238,1212,0,0
21,-188,0,0,0,0,0,0,0,0,0,-1,1245,1212,0,0
28,-188,0,0,0,0,0,0,0,0,0,-1,1252,1212,0,0
35,-188,0,0,0,0,0,0,0,0,0,-1,1259,1212,0,0
42,-188,0,0,0,0,0,0,0,0,0,-1,1266,1212,0,0
49,-188,0,0,0,0,0,0,0,0,0,-1,1273,1212,0,0
56,-188,0,0,0,0,0,0,0,0,0,-1,1280,1212,0,0
63,-188,0,0,0,0,0,0,0,0,0,-1,1287,1212,0,0
70,-188,0,0,0,0,0,0,0,0,0,-1,1294,1212,0,0
77,-188,0,0,0,0,0,0,0,0,0,-1,1301,1212,0,0
84,-188,0,0,0,0,0,0,0,0,0,-1,1308,1212,0,0
91,-188,0,0,0,0,0,0,0,0,0,-1,1315,1212,0,0
98,-188,0,0,0,0,0,0,0,0,0,-1,1322,1212,0,0
105,-188,0,0,0,0,0,0,0,0,0,-1,1329,1212,0,0
112,-188,0,0,0,0,0,0,0,0,0,-1,1336,1212,0,0
119,-188,0,0,0,0,0,0,0,0,0,-1,1343,1212,0,0
126,-188,0,0,0,0,0,0,0,0,0,-1,1350,1212,0,0
133,-188,0,0,0,0,0,0,0,0,0,-1,1357,1212,0,0
140,-188,0,0,0,0,0,0,0,0,0,-1,1364,1212,0,0
147,-188,0,0,0,0,0,0,0,0,0,-1,1371,1212,0,0
154,-188,0,0,0,0,0,0,0,0,0,-1,1378,1212,0,0
161,-188,0,0,0,0,0,0,0,0,0,-1,1385,1212,0,0
168,-188,0,0,0,0,0,0,0,0,0,-1,1392,1212,0,0
175,-188,0,0,0,0,0,0,0,0,0,-1,1399,1212,0,0
182,-188,0,0,0,0,0,0,0,0,0,-1,1406,1212,0,0
189,-188,0,0,0,0,0,0,0,0,0,-1,1413,1212,0,0
196,-188,0,0,0,0,0,0,0,0,0,-1,1420,1212,0,0
203,-188,0,0,0,0,0,0,0,0,0,-1,1427,1212,0,0
210,-188,0,0,0,0,0,0,0,0,0,-1,1434,1212,0,0
217,-188,0,0,0,0,0,0,0,0,0,-1,1441,1212,0,0
224,-188,0,0,0,0,0,0,0,0,0,-1,1448,1212,0,0
231,-188,0,0,0,0,0,0,0,0,0,-1,1455,1212,0,0
238,-188,0,0,0,0,0,0,0,0,0,-1,1462,1212,0,0
245,-188,0,0,0,0,0,0,0,0,0,-1,1469,1212,0,0
252,-188,0,0,0,0,0,0,0,0,0,-1,1476,1212,0,0
259,-188,0,0,0,0,0,0,0,0,0,-1,1483,1212,0,0
266,-188,0,0,0,0,0,0,0,0,0,-1,1490,1212,0,0
273,-188,0,0,0,0,0,0,0,0,0,-1,1497,1212,0,0
280,-188,0,0,0,0,0,0,0,0,0,-1,1504,1212,0,0
287,-188,0,0,0,0,0,0,0,0,0,-1,1511,1212,0,0
294,-188,0,0,0,0,0,0,0,0,0,-1,1518,1212,0,0
301,-188,0,0,0,0,0,0,0,0,0,-1,1525,1212,0,0
308,-188,0,0,0,0,0,0,0,0,0,-1,1532,1212,0,0
315,-188,0,0,0,0,0,0,0,0,0,-1,1539,1212,0,0
322,-188,0,0,0,0,0,0,0,0,0,-1,1546,1212,0,0
329,-188,0,0,0,0,0,0,0,0,0,-1,1553,1212,0,0
336,-188,0,0,0,0,0,0,0,0,0,-1,1560,1212,0,0
343,-188,0,0,0,0,0,0,0,0,0,-1,1567,1212,0,0
350,-188,0,0,0,0,0,0,0,0,0,-1,1574,1212,0,0
357,-188,0,0,0,0,0,0,0,0,0,-1,1581,1212,0,0
364,-188,0,0,0,0,0,0,0,0,0,-1,1588,1212,0,0
371,-188,0,0,0,0,0,0,0,0,0,-1,1595,1212,0,0
378,-188,0,0,0,0,0,0,0,0,0,-1,1602,1212,0,0
385,-188,0,0,0,0,0,0,0,0,0,-1,1609,1212,0,0
392,-188,0,0,0,0,0,0,0,0,0,-1,1616,1212,0,0
399,-188,0,0,0,0,0,0,0,0,0,-1,1623,1212,0,0
406,-188,0,0,0,0,0,0,0,0,0,-1,1630,1212,0,0
413,-188,0,0,0,0,0,0,0,0,0,-1,1637,1212,0,0
420,-188,0,0,0,0,0,0,0,0,0,-1,1644,1212,0,0
427,-188,0,0,0,0,0,0,0,0,0,-1,1651,1212,0,0
434,-188,0,0,0,0,0,0,0,0,0,-1,1658,1212,0,0
441,-188,0,0,0,0,0,0,0,0,0,-1,1665,1212,0,0
448,-188,0,0,0,0,0,0,0,0,0,-1,1672,1212,0,0
455,-188,0,0,0,0,0,0,0,0,0,-1,1679,1212,0,0
462,-188,0,0,0,0,0,0,0,0,0,-1,1686,1212,0,0
469,-188,0,0,0,0,0,0,0,0,0,-1,1693,1212,0,0
476,-188,0,0,0,0,0,0,0,0,0,-1,1700,1212,0,0
483,-188,0,0,0,0,0,0,0,0,0,-1,1707,1212,0,0
490,-188,0,0,0,0,0,0,0,0,0,-1,1714,1212,0,0
497,-188,0,0,0,0,0,0,0,0,0,-1,1721,1212,0,0
504,-188,0,0,0,0,0,0,0,0,0,-1,1728,1212,0,0
511,-188,0,0,0,0,0,0,0,0,0,-1,1735,1212,0,0
518,-188,0,0,0,0,0,0,0,0,0,-1,1742,1212,0,0
525,-188,0,0,0,0,0,0,0,0,0,-1,1749,1212,0,0
532,-188,0,0,0,0,0,0,0,0,0,-1,1756,1212,0,0
539,-188,0,0,0,0,0,0,0,0,0,-1,1763,1212,0,0
546,-188,0,0,0,0,0,0,0,0,0,-1,1770,1212,0,0
553,-188,0,0,0,0,0,0,0,0,0,-1,1777,1212,0,0
560,-188,0,0,0,0,0,0,0,0,0,-1,1784,1212,0,0
567,-188,0,0,0,0,0,0,0,0,0,-1,1791,1212,0,0
574,-188,0,0,0,0,0,0,0,0,0,-1,1798,1212,0,0
581,-188,0,0,0,0,0,0,0,0,0,-1,1805,1212,0,0
588,-188,0,0,0,0,0,0,0,0,0,-1,1812,1212,0,0
595,-188,0,0,0,0,0,0,0,0,0,-1,1819,1212,0,0
602,-188,0,0,0,0,0,0,0,0,0,-1,1826,1212,0,0
609,-188,0,0,0,0,0,0,0,0,0,-1,1833,1212,0,0
616,-188,0,0,0,0,0,0,0,0,0,-1,1840,1212,0,0
623,-188,0,0,0,0,0,0,0,0,0,-1,1847,1212,0,0
630,-188,227.918,9.01904,0,0,0,0,0,0,0,-1,1854,1212,227.918,-9.01901
637,-188,227.867,8.90894,0,0,0,0,0,0,0,-1,1861,1212,227.867,-8.90889
644,-188,227.802,8.90564,0,0,0,0,0,0,0,-1,1868,1212,227.802,-8.90564
651,-188,227.864,8.84143,0,0,0,0,0,0,0,-1,1875,1212,227.864,-8.84143
658,-188,227.882,8.8656,0,0,0,0,0,0,0,-1,1882,1212,227.882,-8.86561
665,-188,227.748,8.88818,0,0,0,0,0,0,0,-1,1889,1212,227.748,-8.88815
672,-188,227.762,8.66357,0,0,0,0,0,0,0,-1,1896,1212,227.762,-8.66358
679,-188,143.12,4.60071,0,0,0,0,0,0,0,-1,1903,1212,143.12,-4.60066
686,-188,60.1007,2.41321,0,0,0,0,0,0,0,-1,1910,1212,60.1007,-2.41325
693,-188,35.9054,2.18042,0,0,0,0,0,0,0,-1,1917,1212,35.9054,-2.18038
700,-188,54.452,11.2678,0,0,0,0,0,0,0,-1,1924,1212,54.452,-11.2678
707,-188,87.9962,19.8148,0,0,0,0,0,0,0,-1,1931,1212,87.9962,-19.8148
714,-188,217.726,36.1652,0,0,0,0,0,0,0,-1,1938,1212,217.726,-36.1652
721,-188,217.553,34.6002,0,0,0,0,0,0,0,-1,1945,1212,217.554,-34.6003
728,-188,217.786,33.054,0,0,0,0,0,0,0,-1,1952,1212,217.786,-33.054
735,-188,217.662,32.0773,-0.00164317,0.0262236,0.00538512,0.0272281,-0.00264762,1.38639,0.0190959,0.0353694,1959,1212,217.662,-32.0773
742,-188,217.381,31.011,-0.00825715,0.0312762,0.00780712,0.0327621,-0.00974306,1.38272,0.025712,0.0238463,1966,1212,217.381,-31.011
749,-188,217.271,29.8297,-0.0145487,0.0365903,0.0102808,0.0385797,-0.0165382,1.37965,0.0326595,0.0228811,1973,1212,217.271,-29.8297
756,-188,217.085,28.6895,-0.0204954,0.0420809,0.0128774,0.0446273,-0.0230418,1.37557,0.0397258,0.022095,1980,1212,217.086,-28.6895
763,-188,216.916,27.4652,-0.0260722,0.0476553,0.0156799,0.0508514,-0.0292684,1.36971,0.0468133,0.037014,1987,1212,216.915,-27.4653
770,-188,216.813,26.2162,0,0,0,0,0,0,0,-1,1994,1212,216.813,-26.2162
777,-188,112.896,6.17334,0,0,0,0,0,0,0,-1,2001,1212,112.896,-6.17339
784,-188,112.584,4.92078,0,0,0,0,0,0,0,-1,2008,1212,112.585,-4.92083
791,-188,110.442,4.34192,0,0,0,0,0,0,0,-1,2015,1212,110.442,-4.34196
798,-188,109.589,3.68896,0,0,0,0,0,0,0,-1,2022,1212,109.589,-3.68891
805,-188,0,0,0,0,0,0,0,0,0,-1,2029,1212,0,0
812,-188,0,0,0,0,0,0,0,0,0,-1,2036,1212,0,0
-700,-195,0,0,0,0,0,0,0,0,0,-1,524,1219,0,0
-693,-195,0,0,0,0,0,0,0,0,0,-1,531,1219,0,0
-686,-195,0,0,0,0,0,0,0,0,0,-1,538,1219,0,0
-679,-195,-179.567,20.6488,0,0,0,0,0,0,0,-1,545,1219,-179.567,-20.6488
-672,-195,-179.524,22.1337,0,0,0,0,0,0,0,-1,552,1219,-179.524,-22.1337
-665,-195,-179.025,23.479,0,0,0,0,0,0,0,-1,559,1219,-179.025,-23.479
-658,-195,-178.41,25.1653,0,0,0,0,0,0,0,-1,566,1219,-178.41,-25.1653
-651,-195,-172.918,25.9795,0,0,0,0,0,0,0,-1,573,1219,-172.918,-25.9794
-644,-195,-156.917,22.6722,0,0,0,0,0,0,0,-1,580,1219,-156.917,-22.6723
-637,-195,-208.332,25.4652,0,0,0,0,0,0,0,-1,587,1219,-208.332,-25.4652
-630,-195,-208.802,26.3695,-0.0240459,0.0495905,-0.0192489,0.0543186,-0.028774,-1.32993,0.0487233,0.0393844,594,1219,-208.802,-26.3695
-623,-195,-208.995,27.4927,-0.020036,0.0463775,-0.0173688,0.0506455,-0.0243041,-1.32984,0.044154,0.0210765,601,1219,-208.995,-27.4927
-616,-195,-209.21,28.6865,-0.0161817,0.0433623,-0.0155798,0.0471924,-0.0200118,-1.32974,0.0398441,0.0179373,608,1219,-209.21,-28.6865
-609,-195,-209.222,30.0673,-0.0125015,0.040567,-0.0138906,0.043983,-0.0159174,-1.32966,0.0358265,0.0262649,615,1219,-209.222,-30.0672
-602,-195,-209.394,31.1676,-0.00901762,0.0380117,-0.0123107,0.0410393,-0.0120453,-1.32965,0.0321361,0.0403453,622,1219,-209.394,-31.1676
-595,-195,-209.555,32.5348,0,0,0,0,0,0,0,-1,629,1219,-209.555,-32.5348
-588,-195,-79.0808,20.1426,0,0,0,0,0,0,0,-1,636,1219,-79.0808,-20.1426
-581,-195,-79.1722,21.3226,0,0,0,0,0,0,0,-1,643,1219,-79.1723,-21.3226
-574,-195,-50.9985,13.5392,0,0,0,0,0,0,0,-1,650,1219,-50.9985,-13.5392
-567,-195,-20.6388,3.78369,0,0,0,0,0,0,0,-1,657,1219,-20.6388,-3.78369
-560,-195,-20.878,2.10388,0,0,0,0,0,0,0,-1,664,1219,-20.878,-2.10385
-553,-195,-41.595,0.613281,0,0,0,0,0,0,0,-1,671,1219,-41.595,-0.61334
-546,-195,-63.8136,0.917603,0,0,0,0,0,0,0,-1,678,1219,-63.8136,-0.917637
-539,-195,-71.8246,0.420898,0,0,0,0,0,0,0,-1,685,1219,-71.8246,-0.420894
-532,-195,-71.9599,0.428955,0,0,0,0,0,0,0,-1,692,1219,-71.9599,-0.428942
-525,-195,-72.043,0.315674,0,0,0,0,0,0,0,-1,699,1219,-72.043,-0.315645
-518,-195,-72.0127,0.386719,0,0,0,0,0,0,0,-1,706,1219,-72.0127,-0.386762
-511,-195,-71.9944,0.641724,0,0,0,0,0,0,0,-1,713,1219,-71.9944,-0.64174
-504,-195,0,0,0,0,0,0,0,0,0,-1,720,1219,0,0
-497,-195,0,0,0,0,0,0,0,0,0,-1,727,1219,0,0
-490,-195,0,0,0,0,0,0,0,0,0,-1,734,1219,0,0
-483,-195,0,0,0,0,0,0,0,0,0,-1,741,1219,0,0
-476,-195,0,0,0,0,0,0,0,0,0,-1,748,1219,0,0
-469,-195,0,0,0,0,0,0,0,0,0,-1,755,1219,0,0
-462,-195,0,0,0,0,0,0,0,0,0,-1,762,1219,0,0
-455,-195,0,0,0,0,0,0,0,0,0,-1,769,1219,0,0
-448,-195,0,0,0,0,0,0,0,0,0,-1,776,1219,0,0
-441,-195,0,0,0,0,0,0,0,0,0,-1,783,1219,0,0
-434,-195,0,0,0,0,0,0,0,0,0,-1,790,1219,0,0
-427,-195,0,0,0,0,0,0,0,0,0,-1,797,1219,0,0
-420,-195,0,0,0,0,0,0,0,0,0,-1,804,1219,0,0
-413,-195,0,0,0,0,0,0,0,0,0,-1,811,1219,0,0
-406,-195,0,0,0,0,0,0,0,0,0,-1,818,1219,0,0
-399,-195,0,0,0,0,0,0,0,0,0,-1,825,1219,0,0
-392,-195,0,0,0,0,0,0,0,0,0,-1,832,1219,0,0
-385,-195,0,0,0,0,0,0,0,0,0,-1,839,1219,0,0
-378,-195,0,0,0,0,0,0,0,0,0,-1,846,1219,0,0
-371,-195,0,0,0,0,0,0,0,0,0,-1,853,1219,0,0
-364,-195,0,0,0,0,0,0,0,0,0,-1,860,1219,0,0
-357,-195,0,0,0,0,0,0,0,0,0,-1,867,1219,0,0
-350,-195,0,0,0,0,0,0,0,0,0,-1,874,1219,0,0
-343,-195,0,0,0,0,0,0,0,0,0,-1,881,1219,0,0
-336,-195,0,0,0,0,0,0,0,0,0,-1,888,1219,0,0
-329,-195,0,0,0,0,0,0,0,0,0,-1,895,1219,0,0
-322,-195,0,0,0,0,0,0,0,0,0,-1,902,1219,0,0
-315,-195,0,0,0,0,0,0,0,0,0,-1,909,1219,0,0
-308,-195,0,0,0,0,0,0,0,0,0,-1,916,1219,0,0
-301,-195,0,0,0,0,0,0,0,0,0,-1,923,1219,0,0
-294,-195,0,0,0,0,0,0,0,0,0,-1,930,1219,0,0
-287,-195,0,0,0,0,0,0,0,0,0,-1,937,1219,0,0
-280,-195,0,0,0,0,0,0,0,0,0,-1,944,1219,0,0
-273,-195,0,0,0,0,0,0,0,0,0,-1,951,1219,0,0
-266,-195,0,0,0,0,0,0,0,0,0,-1,958,1219,0,0
-259,-195,0,0,0,0,0,0,0,0,0,-1,965,1219,0,0
-252,-195,0,0,0,0,0,0,0,0,0,-1,972,1219,0,0
-245,-195,0,0,0,0,0,0,0,0,0,-1,979,1219,0,0
-238,-195,0,0,0,0,0,0,0,0,0,-1,986,1219,0,0
-231,-195,0,0,0,0,0,0,0,0,0,-1,993,1219,0,0
-224,-195,0,0,0,0,0,0,0,0,0,-1,1000,1219,0,0
-217,-195,0,0,0,0,0,0,0,0,0,-1,1007,1219,0,0
-210,-195,0,0,0,0,0,0,0,0,0,-1,1014,1219,0,0
-203,-195,0,0,0,0,0,0,0,0,0,-1,1021,1219,0,0
-196,-195,0,0,0,0,0,0,0,0,0,-1,1028,1219,0,0
-189,-195,0,0,0,0,0,0,0,0,0,-1,1035,1219,0,0
-182,-195,0,0,0,0,0,0,0,0,0,-1,1042,1219,0,0
-175,-195,0,0,0,0,0,0,0,0,0,-1,1049,1219,0,0
-168,-195,0,0,0,0,0,0,0,0,0,-1,1056,1219,0,0
-161,-195,0,0,0,0,0,0,0,0,0,-1,1063,1219,0,0
-154,-195,0,0,0,0,0,0,0,0,0,-1,1070,1219,0,0
-147,-195,0,0,0,0,0,0,0,0,0,-1,1077,1219,0,0
-140,-195,0,0,0,0,0,0,0,0,0,-1,1084,1219,0,0
-133,-195,0,0,0,0,0,0,0,0,0,-1,1091,1219,0,0
-126,-195,0,0,0,0,0,0,0,0,0,-1,1098,1219,0,0
-119,-195,0,0,0,0,0,0,0,0,0,-1,1105,1219,0,0
-112,-195,0,0,0,0,0,0,0,0,0,-1,1112,1219,0,0
-105,-195,0,0,0,0,0,0,0,0,0,-1,1119,1219,0,0
-98,-195,0,0,0,0,0,0,0,0,0,-1,1126,1219,0,0
-91,-195,0,0,0,0,0,0,0,0,0,-1,1133,1219,0,0
-84,-195,0,0,0,0,0,0,0,0,0,-1,1140,1219,0,0
-77,-195,0,0,0,0,0,0,0,0,0,-1,1147,1219,0,0
-70,-195,0,0,0,0,0,0,0,0,0,-1,1154,1219,0,0
-63,-195,0,0,0,0,0,0,0,0,0,-1,1161,1219,0,0
-56,-195,0,0,0,0,0,0,0,0,0,-1,1168,1219,0,0
-49,-195,0,0,0,0,0,0,0,0,0,-1,1175,1219,0,0
-42,-195,0,0,0,0,0,0,0,0,0,-1,1182,1219,0,0
-35,-195,0,0,0,0,0,0,0,0,0,-1,1189,1219,0,0
-28,-195,0,0,0,0,0,0,0,0,0,-1,1196,1219,0,0
-21,-195,0,0,0,0,0,0,0,0,0,-1,1203,1219,0,0
-14,-195,0,0,0,0,0,0,0,0,0,-1,1210,1219,0,0
-7,-195,0,0,0,0,0,0,0,0,0,-1,1217,1219,0,0
0,-195,0,0,0,0,0,0,0,0,0,-1,1224,1219,0,0
7,-195,0,0,0,0,0,0,0,0,0,-1,1231,1219,0,0
14,-195,0,0,0,0,0,0,0,0,0,-1,1238,1219,0,0
21,-195,0,0,0,0,0,0,0,0,0,-1,1245,1219,0,0
28,-195,0,0,0,0,0,0,0,0,0,-1,1252,1219,0,0
35,-195,0,0,0,0,0,0,0,0,0,-1,1259,1219,0,0
42,-195,0,0,0,0,0,0,0,0,0,-1,1266,1219,0,0
49,-195,0,0,0,0,0,0,0,0,0,-1,1273,1219,0,0
56,-195,0,0,0,0,0,0,0,0,0,-1,1280,1219,0,0
63,-195,0,0,0,0,0,0,0,0,0,-1,1287,1219,0,0
70,-195,0,0,0,0,0,0,0,0,0,-1,1294,1219,0,0
77,-195,0,0,0,0,0,0,0,0,0,-1,1301,1219,0,0
84,-195,0,0,0,0,0,0,0,0,0,-1,1308,1219,0,0
91,-195,0,0,0,0,0,0,0,0,0,-1,1315,1219,0,0
98,-195,0,0,0,0,0,0,0,0,0,-1,1322,1219,0,0
105,-195,0,0,0,0,0,0,0,0,0,-1,1329,1219,0,0
112,-195,0,0,0,0,0,0,0,0,0,-1,1336,1219,0,0
119,-195,0,0,0,0,0,0,0,0,0,-1,1343,1219,0,0
126,-195,0,0,0,0,0,0,0,0,0,-1,1350,1219,0,0
133,-195,0,0,0,0,0,0,0,0,0,-1,1357,1219,0,0
140,-195,0,0,0,0,0,0,0,0,0,-1,1364,1219,0,0
147,-195,0,0,0,0,0,0,0,0,0,-1,1371,1219,0,0
154,-195,0,0,0,0,0,0,0,0,0,-1,1378,1219,0,0
161,-195,0,0,0,0,0,0,0,0,0,-1,1385,1219,0,0
168,-195,0,0,0,0,0,0,0,0,0,-1,1392,1219,0,0
175,-195,0,0,0,0,0,0,0,0,0,-1,1399,1219,0,0
182,-195,0,0,0,0,0,0,0,0,0,-1,1406,1219,0,0
189,-195,0,0,0,0,0,0,0,0,0,-1,1413,1219,0,0
196,-195,0,0,0,0,0,0,0,0,0,-1,1420,1219,0,0
203,-195,0,0,0,0,0,0,0,0,0,-1,1427,1219,0,0
210,-195,0,0,0,0,0,0,0,0,0,-1,1434,1219,0,0
217,-195,0,0,0,0,0,0,0,0,0,-1,1441,1219,0,0
224,-195,0,0,0,0,0,0,0,0,0,-1,1448,1219,0,0
231,-195,0,0,0,0,0,0,0,0,0,-1,1455,1219,0,0
238,-195,0,0,0,0,0,0,0,0,0,-1,1462,1219,0,0
245,-195,0,0,0,0,0,0,0,0,0,-1,1469,1219,0,0
252,-195,0,0,0,0,0,0,0,0,0,-1,1476,1219,0,0
259,-195,0,0,0,0,0,0,0,0,0,-1,1483,1219,0,0
266,-195,0,0,0,0,0,0,0,0,0,-1,1490,1219,0,0
273,-195,0,0,0,0,0,0,0,0,0,-1,1497,1219,0,0
280,-195,0,0,0,0,0,0,0,0,0,-1,1504,1219,0,0
287,-195,0,0,0,0,0,0,0,0,0,-1,1511,1219,0,0
294,-195,0,0,0,0,0,0,0,0,0,-1,1518,1219,0,0
301,-195,0,0,0,0,0,0,0,0,0,-1,1525,1219,0,0
308,-195,0,0,0,0,0,0,0,0,0,-1,1532,1219,0,0
315,-195,0,0,0,0,0,0,0,0,0,-1,1539,1219,0,0
322,-195,0,0,0,0,0,0,0,0,0,-1,1546,1219,0,0
329,-195,0,0,0,0,0,0,0,0,0,-1,1553,1219,0,0
336,-195,0,0,0,0,0,0,0,0,0,-1,1560,1219,0,0
343,-195,0,0,0,0,0,0,0,0,0,-1,1567,1219,0,0
350,-195,0,0,0,0,0,0,0,0,0,-1,1574,1219,0,0
357,-195,0,0,0,0,0,0,0,0,0,-1,1581,1219,0,0
364,-195,0,0,0,0,0,0,0,0,0,-1,1588,1219,0,0
371,-195,0,0,0,0,0,0,0,0,0,-1,1595,1219,0,0
378,-195,0,0,0,0,0,0,0,0,0,-1,1602,1219,0,0
385,-195,0,0,0,0,0,0,0,0,0,-1,1609,1219,0,0
392,-195,0,0,0,0,0,0,0,0,0,-1,1616,1219,0,0
399,-195,0,0,0,0,0,0,0,0,0,-1,1623,1219,0,0
406,-195,0,0,0,0,0,0,0,0,0,-1,1630,1219,0,0
413,-195,0,0,0,0,0,0,0,0,0,-1,1637,1219,0,0
420,-195,0,0,0,0,0,0,0,0,0,-1,1644,1219,0,0
427,-195,0,0,0,0,0,0,0,0,0,-1,1651,1219,0,0
434,-195,0,0,0,0,0,0,0,0,0,-1,1658,1219,0,0
441,-195,0,0,0,0,0,0,0,0,0,-1,1665,1219,0,0
448,-195,0,0,0,0,0,0,0,0,0,-1,1672,1219,0,0
455,-195,0,0,0,0,0,0,0,0,0,-1,1679,1219,0,0
462,-195,0,0,0,0,0,0,0,0,0,-1,1686,1219,0,0
469,-195,0,0,0,0,0,0,0,0,0,-1,1693,1219,0,0
476,-195,0,0,0,0,0,0,0,0,0,-1,1700,1219,0,0
483,-195,0,0,0,0,0,0,0,0,0,-1,1707,1219,0,0
490,-195,0,0,0,0,0,0,0,0,0,-1,1714,1219,0,0
497,-195,0,0,0,0,0,0,0,0,0,-1,1721,1219,0,0
504,-195,0,0,0,0,0,0,0,0,0,-1,1728,1219,0,0
511,-195,0,0,0,0,0,0,0,0,0,-1,1735,1219,0,0
518,-195,0,0,0,0,0,0,0,0,0,-1,1742,1219,0,0
525,-195,0,0,0,0,0,0,0,0,0,-1,1749,1219,0,0
532,-195,0,0,0,0,0,0,0,0,0,-1,1756,1219,0,0
539,-195,0,0,0,0,0,0,0,0,0,-1,1763,1219,0,0
546,-195,0,0,0,0,0,0,0,0,0,-1,1770,1219,0,0
553,-195,0,0,0,0,0,0,0,0,0,-1,1777,1219,0,0
560,-195,0,0,0,0,0,0,0,0,0,-1,1784,1219,0,0
567,-195,0,0,0,0,0,0,0,0,0,-1,1791,1219,0,0
574,-195,0,0,0,0,0,0,0,0,0,-1,1798,1219,0,0
581,-195,0,0,0,0,0,0,0,0,0,-1,1805,1219,0,0
588,-195,0,0,0,0,0,0,0,0,0,-1,1812,1219,0,0
595,-195,0,0,0,0,0,0,0,0,0,-1,1819,1219,0,0
602,-195,0,0,0,0,0,0,0,0,0,-1,1826,1219,0,0
609,-195,0,0,0,0,0,0,0,0,0,-1,1833,1219,0,0
616,-195,0,0,0,0,0,0,0,0,0,-1,1840,1219,0,0
623,-195,0,0,0,0,0,0,0,0,0,-1,1847,1219,0,0
630,-195,227.826,8.83069,0,0,0,0,0,0,0,-1,1854,1219,227.826,-8.83073
637,-195,227.828,8.86877,0,0,0,0,0,0,0,-1,1861,1219,227.828,-8.8688
644,-195,227.765,8.93835,0,0,0,0,0,0,0,-1,1868,1219,227.765,-8.93832
651,-195,227.832,8.85486,0,0,0,0,0,0,0,-1,1875,1219,227.831,-8.85483
658,-195,227.895,8.82593,0,0,0,0,0,0,0,-1,1882,1219,227.895,-8.82594
665,-195,227.85,8.80359,0,0,0,0,0,0,0,-1,1889,1219,227.85,-8.80363
672,-195,227.815,8.66113,0,0,0,0,0,0,0,-1,1896,1219,227.815,-8.66107
679,-195,88.1234,1.78857,0,0,0,0,0,0,0,-1,1903,1219,88.1234,-1.78854
686,-195,51.2117,1.94312,0,0,0,0,0,0,0,-1,1910,1219,51.2117,-1.9431
693,-195,24.4368,5.68298,0,0,0,0,0,0,0,-1,1917,1219,24.4368,-5.68293
700,-195,68.4086,14.5306,0,0,0,0,0,0,0,-1,1924,1219,68.4086,-14.5306
707,-195,75.7532,15.8331,0,0,0,0,0,0,0,-1,1931,1219,75.7532,-15.8332
714,-195,216.404,36.069,0,0,0,0,0,0,0,-1,1938,1219,216.404,-36.069
721,-195,216.835,35.2996,0,0,0,0,0,0,0,-1,1945,1219,216.835,-35.2996
728,-195,216.729,33.4128,0.00457757,0.0214186,0.00419126,0.022404,0.00359214,1.33988,0.0138943,0.0330197,1952,1219,216.729,-33.4129
735,-195,216.378,32.0437,-0.00246908,0.0265499,0.00691604,0.0281139,-0.00403307,1.3484,0.0202215,0.0343438,1959,1219,216.378,-32.0437
742,-195,216.069,30.824,-0.00934399,0.0320144,0.00957238,0.0341225,-0.0114521,1.35403,0.0273761,0.0245402,1966,1219,216.069,-30.8239
749,-195,215.851,29.6393,-0.0159793,0.0377521,0.0122022,0.0403933,-0.0186206,1.35763,0.0348361,0.0247447,1973,1219,215.851,-29.6393
756,-195,215.646,28.5303,-0.0223662,0.0436953,0.0148606,0.0468843,-0.0255552,1.35941,0.0424229,0.0261257,1980,1219,215.646,-28.5302
763,-195,215.402,27.1807,-0.0283934,0.0497688,0.0176212,0.0535578,-0.0321823,1.359,0.0500122,0.0470817,1987,1219,215.402,-27.1806
770,-195,215.274,25.7162,0,0,0,0,0,0,0,-1,1994,1219,215.274,-25.7162
777,-195,67.0903,5.65259,0,0,0,0,0,0,0,-1,2001,1219,67.0904,-5.65253
784,-195,113.331,5.10986,0,0,0,0,0,0,0,-1,2008,1219,113.331,-5.10985
791,-195,68.9104,-1.24268,0,0,0,0,0,0,0,-1,2015,1219,68.9103,1.24264
798,-195,66.05,2.49902,0,0,0,0,0,0,0,-1,2022,1219,66.0501,-2.499
805,-195,0,0,0,0,0,0,0,0,0,-1,2029,1219,0,0
812,-195,0,0,0,0,0,0,0,0,0,-1,2036,1219,0,0
-700,-202,0,0,0,0,0,0,0,0,0,-1,524,1226,0,0
-693,-202,0,0,0,0,0,0,0,0,0,-1,531,1226,0,0
-686,-202,0,0,0,0,0,0,0,0,0,-1,538,1226,0,0
-679,-202,-179.012,21.0378,0,0,0,0,0,0,0,-1,545,1226,-179.012,-21.0378
-672,-202,-178.975,22.5787,0,0,0,0,0,0,0,-1,552,1226,-178.975,-22.5787
-665,-202,-178.984,24.1697,0,0,0,0,0,0,0,-1,559,1226,-178.984,-24.1697
-658,-202,-174.612,24.4117,0,0,0,0,0,0,0,-1,566,1226,-174.612,-24.4117
-651,-202,-156.909,20.6821,0,0,0,0,0,0,0,-1,573,1226,-156.909,-20.6821
-644,-202,-53.0106,6.29651,0,0,0,0,0,0,0,-1,580,1226,-53.0105,-6.29651
-637,-202,-89.9309,14.75,0,0,0,0,0,0,0,-1,587,1226,-89.9309,-14.75
-630,-202,-207.557,26.0242,0,0,0,0,0,0,0,-1,594,1226,-207.557,-26.0242
-623,-202,-207.651,27.3612,-0.0201182,0.0480118,-0.0179203,0.0524379,-0.0245443,-1.32866,0.0454078,0.0211089,601,1226,-207.651,-27.3612
-616,-202,-207.802,28.5248,-0.0162239,0.0446339,-0.0162974,0.0487234,-0.0203134,-1.32494,0.040968,0.0154369,608,1226,-207.802,-28.5248
-609,-202,-207.757,29.8123,-0.0126393,0.0411538,-0.0146615,0.0448903,-0.0163758,-1.32126,0.0366268,0.032824,615,1226,-207.757,-29.8123
-602,-202,-208.044,30.8542,-0.00934377,0.0376891,-0.0129845,0.0410357,-0.0126903,-1.31855,0.0324258,0.0496746,622,1226,-208.044,-30.8543
-595,-202,-208.11,31.8792,0,0,0,0,0,0,0,-1,629,1226,-208.11,-31.8792
-588,-202,-77.8618,20.3673,0,0,0,0,0,0,0,-1,636,1226,-77.8618,-20.3673
-581,-202,-77.893,21.4277,0,0,0,0,0,0,0,-1,643,1226,-77.893,-21.4278
-574,-202,-77.9501,22.582,0,0,0,0,0,0,0,-1,650,1226,-77.9501,-22.5821
-567,-202,-22.1768,4.56995,0,0,0,0,0,0,0,-1,657,1226,-22.1768,-4.56991
-560,-202,-10.929,2.73096,0,0,0,0,0,0,0,-1,664,1226,-10.929,-2.73092
-553,-202,-30.2701,1.474,0,0,0,0,0,0,0,-1,671,1226,-30.2701,-1.47395
-546,-202,-53.2803,0.580933,0,0,0,0,0,0,0,-1,678,1226,-53.2803,-0.580945
-539,-202,-71.7885,0.485962,0,0,0,0,0,0,0,-1,685,1226,-71.7885,-0.486007
-532,-202,-71.8226,0.46228,0,0,0,0,0,0,0,-1,692,1226,-71.8226,-0.462257
-525,-202,-71.8826,0.379639,0,0,0,0,0,0,0,-1,699,1226,-71.8826,-0.379652
-518,-202,-72.0466,0.453613,0,0,0,0,0,0,0,-1,706,1226,-72.0466,-0.453633
-511,-202,-72.2618,0.686035,0,0,0,0,0,0,0,-1,713,1226,-72.2618,-0.686083
-504,-202,0,0,0,0,0,0,0,0,0,-1,720,1226,0,0
-497,-202,0,0,0,0,0,0,0,0,0,-1,727,1226,0,0
-490,-202,0,0,0,0,0,0,0,0,0,-1,734,1226,0,0
-483,-202,0,0,0,0,0,0,0,0,0,-1,741,1226,0,0
-476,-202,0,0,0,0,0,0,0,0,0,-1,748,1226,0,0
-469,-202,0,0,0,0,0,0,0,0,0,-1,755,1226,0,0
-462,-202,0,0,0,0,0,0,0,0,0,-1,762,1226,0,0
-455,-202,0,0,0,0,0,0,0,0,0,-1,769,1226,0,0
-448,-202,0,0,0,0,0,0,0,0,0,-1,776,1226,0,0
-441,-202,0,0,0,0,0,0,0,0,0,-1,783,1226,0,0
-434,-202,0,0,0,0,0,0,0,0,0,-1,790,1226,0,0
-427,-202,0,0,0,0,0,0,0,0,0,-1,797,1226,0,0
-420,-202,0,0,0,0,0,0,0,0,0,-1,804,1226,0,0
-413,-202,0,0,0,0,0,0,0,0,0,-1,811,1226,0,0
-406,-202,0,0,0,0,0,0,0,0,0,-1,818,1226,0,0
-399,-202,0,0,0,0,0,0,0,0,0,-1,825,1226,0,0
-392,-202,0,0,0,0,0,0,0,0,0,-1,832,1226,0,0
-385,-202,0,0,0,0,0,0,0,0,0,-1,839,1226,0,0
-378,-202,0,0,0,0,0,0,0,0,0,-1,846,1226,0,0
-371,-202,0,0,0,0,0,0,0,0,0,-1,853,1226,0,0
-364,-202,0,0,0,0,0,0,0,0,0,-1,860,1226,0,0
-357,-202,0,0,0,0,0,0,0,0,0,-1,867,1226,0,0
-350,-202,0,0,0,0,0,0,0,0,0,-1,874,1226,0,0
-343,-202,0,0,0,0,0,0,0,0,0,-1,881,1226,0,0
-336,-202,0,0,0,0,0,0,0,0,0,-1,888,1226,0,0
-329,-202,0,0,0,0,0,0,0,0,0,-1,895,1226,0,0
-322,-202,0,0,0,0,0,0,0,0,0,-1,902,1226,0,0
-315,-202,0,0,0,0,0,0,0,0,0,-1,909,1226,0,0
-308,-202,0,0,0,0,0,0,0,0,0,-1,916,1226,0,0
-301,-202,0,0,0,0,0,0,0,0,0,-1,923,1226,0,0
-294,-202,0,0,0,0,0,0,0,0,0,-1,930,1226,0,0
-287,-202,0,0,0,0,0,0,0,0,0,-1,937,1226,0,0
-280,-202,0,0,0,0,0,0,0,0,0,-1,944,1226,0,0
-273,-202,0,0,0,0,0,0,0,0,0,-1,951,1226,0,0
-266,-202,0,0,0,0,0,0,0,0,0,-1,958,1226,0,0
-259,-202,0,0,0,0,0,0,0,0,0,-1,965,1226,0,0
-252,-202,0,0,0,0,0,0,0,0,0,-1,972,1226,0,0
-245,-202,0,0,0,0,0,0,0,0,0,-1,979,1226,0,0
-238,-202,0,0,0,0,0,0,0,0,0,-1,986,1226,0,0
-231,-202,0,0,0,0,0,0,0,0,0,-1,993,1226,0,0
-224,-202,0,0,0,0,0,0,0,0,0,-1,1000,1226,0,0
-217,-202,0,0,0,0,0,0,0,0,0,-1,1007,1226,0,0
-210,-202,0,0,0,0,0,0,0,0,0,-1,1014,1226,0,0
-203,-202,0,0,0,0,0,0,0,0,0,-1,1021,1226,0,0
-196,-202,0,0,0,0,0,0,0,0,0,-1,1028,1226,0,0
-189,-202,0,0,0,0,0,0,0,0,0,-1,1035,1226,0,0
-182,-202,0,0,0,0,0,0,0,0,0,-1,1042,1226,0,0
-175,-202,0,0,0,0,0,0,0,0,0,-1,1049,1226,0,0
-168,-202,0,0,0,0,0,0,0,0,0,-1,1056,1226,0,0
-161,-202,0,0,0,0,0,0,0,0,0,-1,1063,1226,0,0
-154,-202,0,0,0,0,0,0,0,0,0,-1,1070,1226,0,0
-147,-202,0,0,0,0,0,0,0,0,0,-1,1077,1226,0,0
-140,-202,0,0,0,0,0,0,0,0,0,-1,1084,1226,0,0
-133,-202,0,0,0,0,0,0,0,0,0,-1,1091,1226,0,0
-126,-202,0,0,0,0,0,0,0,0,0,-1,1098,1226,0,0
-119,-202,0,0,0,0,0,0,0,0,0,-1,1105,1226,0,0
-112,-202,0,0,0,0,0,0,0,0,0,-1,1112,1226,0,0
-105,-202,0,0,0,0,0,0,0,0,0,-1,1119,1226,0,0
-98,-202,0,0,0,0,0,0,0,0,0,-1,1126,1226,0,0
-91,-202,0,0,0,0,0,0,0,0,0,-1,1133,1226,0,0
-84,-202,0,0,0,0,0,0,0,0,0,-1,1140,1226,0,0
-77,-202,0,0,0,0,0,0,0,0,0,-1,1147,1226,0,0
-70,-202,0,0,0,0,0,0,0,0,0,-1,1154,1226,0,0
-63,-202,0,0,0,0,0,0,0,0,0,-1,1161,1226,0,0
-56,-202,0,0,0,0,0,0,0,0,0,-1,1168,1226,0,0
-49,-202,0,0,0,0,0,0,0,0,0,-1,1175,1226,0,0
-42,-202,0,0,0,0,0,0,0,0,0,-1,1182,1226,0,0
-35,-202,0,0,0,0,0,0,0,0,0,-1,1189,1226,0,0
-28,-202,0,0,0,0,0,0,0,0,0,-1,1196,1226,0,0
-21,-202,0,0,0,0,0,0,0,0,0,-1,1203,1226,0,0
-14,-202,0,0,0,0,0,0,0,0,0,-1,1210,1226,0,0
-7,-202,0,0,0,0,0,0,0,0,0,-1,1217,1226,0,0
0,-202,0,0,0,0,0,0,0,0,0,-1,1224,1226,0,0
7,-202,0,0,0,0,0,0,0,0,0,-1,1231,1226,0,0
14,-202,0,0,0,0,0,0,0,0,0,-1,1238,1226,0,0
21,-202,0,0,0,0,0,0,0,0,0,-1,1245,1226,0,0
28,-202,0,0,0,0,0,0,0,0,0,-1,1252,1226,0,0
35,-202,0,0,0,0,0,0,0,0,0,-1,1259,1226,0,0
42,-202,0,0,0,0,0,0,0,0,0,-1,1266,1226,0,0
49,-202,0,0,0,0,0,0,0,0,0,-1,1273,1226,0,0
56,-202,0,0,0,0,0,0,0,0,0,-1,1280,1226,0,0
63,-202,0,0,0,0,0,0,0,0,0,-1,1287,1226,0,0
70,-202,0,0,0,0,0,0,0,0,0,-1,1294,1226,0,0
77,-202,0,0,0,0,0,0,0,0,0,-1,1301,1226,0,0
84,-202,0,0,0,0,0,0,0,0,0,-1,1308,1226,0,0
91,-202,0,0,0,0,0,0,0,0,0,-1,1315,1226,0,0
98,-202,0,0,0,0,0,0,0,0,0,-1,1322,1226,0,0
105,-202,0,0,0,0,0,0,0,0,0,-1,1329,1226,0,0
112,-202,0,0,0,0,0,0,0,0,0,-1,1336,1226,0,0
119,-202,0,0,0,0,0,0,0,0,0,-1,1343,1226,0,0
126,-202,0,0,0,0,0,0,0,0,0,-1,1350,1226,0,0
133,-202,0,0,0,0,0,0,0,0,0,-1,1357,1226,0,0
140,-202,0,0,0,0,0,0,0,0,0,-1,1364,1226,0,0
147,-202,0,0,0,0,0,0,0,0,0,-1,1371,1226,0,0
154,-202,0,0,0,0,0,0,0,0,0,-1,1378,1226,0,0
161,-202,0,0,0,0,0,0,0,0,0,-1,1385,1226,0,0
168,-202,0,0,0,0,0,0,0,0,0,-1,1392,1226,0,0
175,-202,0,0,0,0,0,0,0,0,0,-1,1399,1226,0,0
182,-202,0,0,0,0,0,0,0,0,0,-1,1406,1226,0,0
189,-202,0,0,0,0,0,0,0,0,0,-1,1413,1226,0,0
196,-202,0,0,0,0,0,0,0,0,0,-1,1420,1226,0,0
203,-202,0,0,0,0,0,0,0,0,0,-1,1427,1226,0,0
210,-202,0,0,0,0,0,0,0,0,0,-1,1434,1226,0,0
217,-202,0,0,0,0,0,0,0,0,0,-1,1441,1226,0,0
224,-202,0,0,0,0,0,0,0,0,0,-1,1448,1226,0,0
231,-202,0,0,0,0,0,0,0,0,0,-1,1455,1226,0,0
238,-202,0,0,0,0,0,0,0,0,0,-1,1462,1226,0,0
245,-202,0,0,0,0,0,0,0,0,0,-1,1469,1226,0,0
252,-202,0,0,0,0,0,0,0,0,0,-1,1476,1226,0,0
259,-202,0,0,0,0,0,0,0,0,0,-1,1483,1226,0,0
266,-202,0,0,0,0,0,0,0,0,0,-1,1490,1226,0,0
273,-202,0,0,0,0,0,0,0,0,0,-1,1497,1226,0,0
280,-202,0,0,0,0,0,0,0,0,0,-1,1504,1226,0,0
287,-202,0,0,0,0,0,0,0,0,0,-1,1511,1226,0,0
294,-202,0,0,0,0,0,0,0,0,0,-1,1518,1226,0,0
301,-202,0,0,0,0,0,0,0,0,0,-1,1525,1226,0,0
308,-202,0,0,0,0,0,0,0,0,0,-1,1532,1226,0,0
315,-202,0,0,0,0,0,0,0,0,0,-1,1539,1226,0,0
322,-202,0,0,0,0,0,0,0,0,0,-1,1546,1226,0,0
329,-202,0,0,0,0,0,0,0,0,0,-1,1553,1226,0,0
336,-202,0,0,0,0,0,0,0,0,0,-1,1560,1226,0,0
343,-202,0,0,0,0,0,0,0,0,0,-1,1567,1226,0,0
350,-202,0,0,0,0,0,0,0,0,0,-1,1574,1226,0,0
357,-202,0,0,0,0,0,0,0,0,0,-1,1581,1226,0,0
364,-202,0,0,0,0,0,0,0,0,0,-1,1588,1226,0,0
371,-202,0,0,0,0,0,0,0,0,0,-1,1595,1226,0,0
378,-202,0,0,0,0,0,0,0,0,0,-1,1602,1226,0,0
385,-202,0,0,0,0,0,0,0,0,0,-1,1609,1226,0,0
392,-202,0,0,0,0,0,0,0,0,0,-1,1616,1226,0,0
399,-202,0,0,0,0,0,0,0,0,0,-1,1623,1226,0,0
406,-202,0,0,0,0,0,0,0,0,0,-1,1630,1226,0,0
413,-202,0,0,0,0,0,0,0,0,0,-1,1637,1226,0,0
420,-202,0,0,0,0,0,0,0,0,0,-1,1644,1226,0,0
427,-202,0,0,0,0,0,0,0,0,0,-1,1651,1226,0,0
434,-202,0,0,0,0,0,0,0,0,0,-1,1658,1226,0,0
441,-202,0,0,0,0,0,0,0,0,0,-1,1665,1226,0,0
448,-202,0,0,0,0,0,0,0,0,0,-1,1672,1226,0,0
455,-202,0,0,0,0,0,0,0,0,0,-1,1679,1226,0,0
462,-202,0,0,0,0,0,0,0,0,0,-1,1686,1226,0,0
469,-202,0,0,0,0,0,0,0,0,0,-1,1693,1226,0,0
476,-202,0,0,0,0,0,0,0,0,0,-1,1700,1226,0,0
483,-202,0,0,0,0,0,0,0,0,0,-1,1707,1226,0,0
490,-202,0,0,0,0,0,0,0,0,0,-1,1714,1226,0,0
497,-202,0,0,0,0,0,0,0,0,0,-1,1721,1226,0,0
504,-202,0,0,0,0,0,0,0,0,0,-1,1728,1226,0,0
511,-202,0,0,0,0,0,0,0,0,0,-1,1735,1226,0,0
518,-202,0,0,0,0,0,0,0,0,0,-1,1742,1226,0,0
525,-202,0,0,0,0,0,0,0,0,0,-1,1749,1226,0,0
532,-202,0,0,0,0,0,0,0,0,0,-1,1756,1226,0,0
539,-202,0,0,0,0,0,0,0,0,0,-1,1763,1226,0,0
546,-202,0,0,0,0,0,0,0,0,0,-1,1770,1226,0,0
553,-202,0,0,0,0,0,0,0,0,0,-1,1777,1226,0,0
560,-202,0,0,0,0,0,0,0,0,0,-1,1784,1226,0,0
567,-202,0,0,0,0,0,0,0,0,0,-1,1791,1226,0,0
574,-202,0,0,0,0,0,0,0,0,0,-1,1798,1226,0,0
581,-202,0,0,0,0,0,0,0,0,0,-1,1805,1226,0,0
588,-202,0,0,0,0,0,0,0,0,0,-1,1812,1226,0,0
595,-202,0,0,0,0,0,0,0,0,0,-1,1819,1226,0,0
602,-202,0,0,0,0,0,0,0,0,0,-1,1826,1226,0,0
609,-202,0,0,0,0,0,0,0,0,0,-1,1833,1226,0,0
616,-202,0,0,0,0,0,0,0,0,0,-1,1840,1226,0,0
623,-202,0,0,0,0,0,0,0,0,0,-1,1847,1226,0,0
630,-202,227.82,8.99438,0,0,0,0,0,0,0,-1,1854,1226,227.82,-8.99433
637,-202,227.895,9.02637,0,0,0,0,0,0,0,-1,1861,1226,227.895,-9.02643
644,-202,227.818,9.02063,0,0,0,0,0,0,0,-1,1868,1226,227.818,-9.0206
651,-202,227.855,8.89624,0,0,0,0,0,0,0,-1,1875,1226,227.855,-8.89627
658,-202,227.854,8.83948,0,0,0,0,0,0,0,-1,1882,1226,227.854,-8.83953
665,-202,227.887,8.81982,0,0,0,0,0,0,0,-1,1889,1226,227.887,-8.81979
672,-202,227.871,8.70752,0,0,0,0,0,0,0,-1,1896,1226,227.871,-8.70749
679,-202,72.3511,2.32935,0,0,0,0,0,0,0,-1,1903,1226,72.3511,-2.32932
686,-202,49.1708,2.15198,0,0,0,0,0,0,0,-1,1910,1226,49.1708,-2.15195
693,-202,52.1176,12.0886,0,0,0,0,0,0,0,-1,1917,1226,52.1176,-12.0886
700,-202,74.741,16.6233,0,0,0,0,0,0,0,-1,1924,1226,74.741,-16.6233
707,-202,92.8003,22.7876,0,0,0,0,0,0,0,-1,1931,1226,92.8003,-22.7876
714,-202,215.31,36.5414,0,0,0,0,0,0,0,-1,1938,1226,215.31,-36.5414
721,-202,215.346,35.0032,0.0119087,0.0170313,0.00167852,0.0175323,0.0114077,1.28074,0.0102743,0.03909,1945,1226,215.346,-35.0031
728,-202,215.308,33.4412,0.00413427,0.0220782,0.00485838,0.0233092,0.0029033,1.32265,0.0146678,0.0273787,1952,1226,215.308,-33.4411
735,-202,214.934,32.073,-0.0035048,0.0273873,0.00815263,0.0294068,-0.00552431,1.32797,0.0216818,0.0258771,1959,1226,214.934,-32.073
742,-202,214.624,30.8262,-0.0110085,0.033034,0.011382,0.0358016,-0.0137761,1.33227,0.0295503,0.0219814,1966,1226,214.624,-30.8262
749,-202,214.352,29.652,-0.0182978,0.0389801,0.0145604,0.042469,-0.0217866,1.33562,0.0377331,0.0246381,1973,1226,214.352,-29.652
756,-202,214.151,28.3517,-0.0254028,0.0451846,0.0177115,0.0493794,-0.0295976,1.33824,0.0460717,0.0245516,1980,1226,214.151,-28.3517
763,-202,214.046,26.9664,0,0,0,0,0,0,0,-1,1987,1226,214.046,-26.9664
770,-202,213.561,25.8784,0,0,0,0,0,0,0,-1,1994,1226,213.561,-25.8784
777,-202,67.5615,-0.236572,0,0,0,0,0,0,0,-1,2001,1226,67.5615,0.236573
784,-202,66.7117,0.754517,0,0,0,0,0,0,0,-1,2008,1226,66.7118,-0.754543
791,-202,66.512,1.74207,0,0,0,0,0,0,0,-1,2015,1226,66.512,-1.74201
798,-202,51.8999,3.58789,0,0,0,0,0,0,0,-1,2022,1226,51.9,-3.58791
805,-202,0,0,0,0,0,0,0,0,0,-1,2029,1226,0,0
812,-202,0,0,0,0,0,0,0,0,0,-1,2036,1226,0,0
-700,-209,0,0,0,0,0,0,0,0,0,-1,524,1233,0,0
-693,-209,0,0,0,0,0,0,0,0,0,-1,531,1233,0,0
-686,-209,0,0,0,0,0,0,0,0,0,-1,538,1233,0,0
-679,-209,-178.342,21.2993,0,0,0,0,0,0,0,-1,545,1233,-178.342,-21.2994
-672,-209,-178.497,22.929,0,0,0,0,0,0,0,-1,552,1233,-178.497,-22.929
-665,-209,-178.528,24.5173,0,0,0,0,0,0,0,-1,559,1233,-178.528,-24.5173
-658,-209,-172.306,23.4949,0,0,0,0,0,0,0,-1,566,1233,-172.306,-23.4948
-651,-209,-48.544,5.83411,0,0,0,0,0,0,0,-1,573,1233,-48.544,-5.83409
-644,-209,-64.1546,-2.03052,0,0,0,0,0,0,0,-1,580,1233,-64.1546,2.03054
-637,-209,-93.7946,16.2063,0,0,0,0,0,0,0,-1,587,1233,-93.7946,-16.2063
-630,-209,-205.932,25.858,0,0,0,0,0,0,0,-1,594,1233,-205.932,-25.858
-623,-209,-206.122,27.1827,-0.0205263,0.0496664,-0.0189315,0.0544468,-0.0253067,-1.32346,0.047059,0.0288354,601,1233,-206.122,-27.1828
-616,-209,-206.305,28.3235,-0.0164588,0.0462991,-0.0172207,0.0507139,-0.0208736,-1.31984,0.0425111,0.0186373,608,1233,-206.305,-28.3235
-609,-209,-206.467,29.5068,-0.0124621,0.0424672,-0.0149378,0.0462667,-0.0162616,-1.32173,0.0374606,0.0202073,615,1233,-206.467,-29.5068
-602,-209,-206.483,30.7534,-0.00849363,0.0385784,-0.0121405,0.0415251,-0.0114403,-1.33268,0.032182,0.0432122,622,1233,-206.483,-30.7534
-595,-209,-206.348,31.8435,0,0,0,0,0,0,0,-1,629,1233,-206.348,-31.8435
-588,-209,-76.5599,20.4441,0,0,0,0,0,0,0,-1,636,1233,-76.5598,-20.4441
-581,-209,-76.5614,21.6544,0,0,0,0,0,0,0,-1,643,1233,-76.5614,-21.6544
-574,-209,-76.64,22.7886,0,0,0,0,0,0,0,-1,650,1233,-76.6399,-22.7886
-567,-209,-76.9697,24.0137,0,0,0,0,0,0,0,-1,657,1233,-76.9698,-24.0137
-560,-209,-13.9294,4.16626,0,0,0,0,0,0,0,-1,664,1233,-13.9294,-4.16621
-553,-209,-22.7542,0.748779,0,0,0,0,0,0,0,-1,671,1233,-22.7541,-0.748796
-546,-209,-44.691,0.142822,0,0,0,0,0,0,0,-1,678,1233,-44.6911,-0.142844
-539,-209,-65.5246,0.622681,0,0,0,0,0,0,0,-1,685,1233,-65.5246,-0.622625
-532,-209,-71.7545,0.510864,0,0,0,0,0,0,0,-1,692,1233,-71.7545,-0.510841
-525,-209,-71.8335,0.54895,0,0,0,0,0,0,0,-1,699,1233,-71.8335,-0.548929
-518,-209,-72.0107,0.633545,0,0,0,0,0,0,0,-1,706,1233,-72.0108,-0.633602
-511,-209,-72.1729,0.666382,0,0,0,0,0,0,0,-1,713,1233,-72.1729,-0.666353
-504,-209,0,0,0,0,0,0,0,0,0,-1,720,1233,0,0
-497,-209,0,0,0,0,0,0,0,0,0,-1,727,1233,0,0
-490,-209,0,0,0,0,0,0,0,0,0,-1,734,1233,0,0
-483,-209,0,0,0,0,0,0,0,0,0,-1,741,1233,0,0
-476,-209,0,0,0,0,0,0,0,0,0,-1,748,1233,0,0
-469,-209,0,0,0,0,0,0,0,0,0,-1,755,1233,0,0
-462,-209,0,0,0,0,0,0,0,0,0,-1,762,1233,0,0
-455,-209,0,0,0,0,0,0,0,0,0,-1,769,1233,0,0
-448,-209,0,0,0,0,0,0,0,0,0,-1,776,1233,0,0
-441,-209,0,0,0,0,0,0,0,0,0,-1,783,1233,0,0
-434,-209,0,0,0,0,0,0,0,0,0,-1,790,1233,0,0
-427,-209,0,0,0,0,0,0,0,0,0,-1,797,1233,0,0
-420,-209,0,0,0,0,0,0,0,0,0,-1,804,1233,0,0
-413,-209,0,0,0,0,0,0,0,0,0,-1,811,1233,0,0
-406,-209,0,0,0,0,0,0,0,0,0,-1,818,1233,0,0
-399,-209,0,0,0,0,0,0,0,0,0,-1,825,1233,0,0
-392,-209,0,0,0,0,0,0,0,0,0,-1,832,1233,0,0
-385,-209,0,0,0,0,0,0,0,0,0,-1,839,1233,0,0
-378,-209,0,0,0,0,0,0,0,0,0,-1,846,1233,0,0
-371,-209,0,0,0,0,0,0,0,0,0,-1,853,1233,0,0
-364,-209,0,0,0,0,0,0,0,0,0,-1,860,1233,0,0
-357,-209,0,0,0,0,0,0,0,0,0,-1,867,1233,0,0
-350,-209,0,0,0,0,0,0,0,0,0,-1,874,1233,0,0
-343,-209,0,0,0,0,0,0,0,0,0,-1,881,1233,0,0
-336,-209,0,0,0,0,0,0,0,0,0,-1,888,1233,0,0
-329,-209,0,0,0,0,0,0,0,0,0,-1,895,1233,0,0
-322,-209,0,0,0,0,0,0,0,0,0,-1,902,1233,0,0
-315,-209,0,0,0,0,0,0,0,0,0,-1,909,1233,0,0
-308,-209,0,0,0,0,0,0,0,0,0,-1,916,1233,0,0
-301,-209,0,0,0,0,0,0,0,0,0,-1,923,1233,0,0
-294,-209,0,0,0,0,0,0,0,0,0,-1,930,1233,0,0
-287,-209,0,0,0,0,0,0,0,0,0,-1,937,1233,0,0
-280,-209,0,0,0,0,0,0,0,0,0,-1,944,1233,0,0
-273,-209,0,0,0,0,0,0,0,0,0,-1,951,1233,0,0
-266,-209,0,0,0,0,0,0,0,0,0,-1,958,1233,0,0
-259,-209,0,0,0,0,0,0,0,0,0,-1,965,1233,0,0
-252,-209,0,0,0,0,0,0,0,0,0,-1,972,1233,0,0
-245,-209,0,0,0,0,0,0,0,0,0,-1,979,1233,0,0
-238,-209,0,0,0,0,0,0,0,0,0,-1,986,1233,0,0
-231,-209,0,0,0,0,0,0,0,0,0,-1,993,1233,0,0
-224,-209,0,0,0,0,0,0,0,0,0,-1,1000,1233,0,0
-217,-209,0,0,0,0,0,0,0,0,0,-1,1007,1233,0,0
-210,-209,0,0,0,0,0,0,0,0,0,-1,1014,1233,0,0
-203,-209,0,0,0,0,0,0,0,0,0,-1,1021,1233,0,0
-196,-209,0,0,0,0,0,0,0,0,0,-1,1028,1233,0,0
-189,-209,0,0,0,0,0,0,0,0,0,-1,1035,1233,0,0
-182,-209,0,0,0,0,0,0,0,0,0,-1,1042,1233,0,0
-175,-209,0,0,0,0,0,0,0,0,0,-1,1049,1233,0,0
-168,-209,0,0,0,0,0,0,0,0,0,-1,1056,1233,0,0
-161,-209,0,0,0,0,0,0,0,0,0,-1,1063,1233,0,0
-154,-209,0,0,0,0,0,0,0,0,0,-1,1070,1233,0,0
-147,-209,0,0,0,0,0,0,0,0,0,-1,1077,1233,0,0
-140,-209,0,0,0,0,0,0,0,0,0,-1,1084,1233,0,0
-133,-209,0,0,0,0,0,0,0,0,0,-1,1091,1233,0,0
-126,-209,0,0,0,0,0,0,0,0,0,-1,1098,1233,0,0
-119,-209,0,0,0,0,0,0,0,0,0,-1,1105,1233,0,0
-112,-209,0,0,0,0,0,0,0,0,0,-1,1112,1233,0,0
-105,-209,0,0,0,0,0,0,0,0,0,-1,1119,1233,0,0
-98,-209,0,0,0,0,0,0,0,0,0,-1,1126,1233,0,0
-91,-209,0,0,0,0,0,0,0,0,0,-1,1133,1233,0,0
-84,-209,0,0,0,0,0,0,0,0,0,-1,1140,1233,0,0
-77,-209,0,0,0,0,0,0,0,0,0,-1,1147,1233,0,0
-70,-209,0,0,0,0,0,0,0,0,0,-1,1154,1233,0,0
-63,-209,0,0,0,0,0,0,0,0,0,-1,1161,1233,0,0
-56,-209,0,0,0,0,0,0,0,0,0,-1,1168,1233,0,0
-49,-209,0,0,0,0,0,0,0,0,0,-1,1175,1233,0,0
-42,-209,0,0,0,0,0,0,0,0,0,-1,1182,1233,0,0
-35,-209,0,0,0,0,0,0,0,0,0,-1,1189,1233,0,0
-28,-209,0,0,0,0,0,0,0,0,0,-1,1196,1233,0,0
-21,-209,0,0,0,0,0,0,0,0,0,-1,1203,1233,0,0
-14,-209,0,0,0,0,0,0,0,0,0,-1,1210,1233,0,0
-7,-209,0,0,0,0,0,0,0,0,0,-1,1217,1233,0,0
0,-209,0,0,0,0,0,0,0,0,0,-1,1224,1233,0,0
7,-209,0,0,0,0,0,0,0,0,0,-1,1231,1233,0,0
14,-209,0,0,0,0,0,0,0,0,0,-1,1238,1233,0,0
21,-209,0,0,0,0,0,0,0,0,0,-1,1245,1233,0,0
28,-209,0,0,0,0,0,0,0,0,0,-1,1252,1233,0,0
35,-209,0,0,0,0,0,0,0,0,0,-1,1259,1233,0,0
42,-209,0,0,0,0,0,0,0,0,0,-1,1266,1233,0,0
49,-209,0,0,0,0,0,0,0,0,0,-1,1273,1233,0,0
56,-209,0,0,0,0,0,0,0,0,0,-1,1280,1233,0,0
63,-209,0,0,0,0,0,0,0,0,0,-1,1287,1233,0,0
70,-209,0,0,0,0,0,0,0,0,0,-1,1294,1233,0,0
77,-209,0,0,0,0,0,0,0,0,0,-1,1301,1233,0,0
84,-209,0,0,0,0,0,0,0,0,0,-1,1308,1233,0,0
91,-209,0,0,0,0,0,0,0,0,0,-1,1315,1233,0,0
98,-209,0,0,0,0,0,0,0,0,0,-1,1322,1233,0,0
105,-209,0,0,0,0,0,0,0,0,0,-1,1329,1233,0,0
112,-209,0,0,0,0,0,0,0,0,0,-1,1336,1233,0,0
119,-209,0,0,0,0,0,0,0,0,0,-1,1343,1233,0,0
126,-209,0,0,0,0,0,0,0,0,0,-1,1350,1233,0,0
133,-209,0,0,0,0,0,0,0,0,0,-1,1357,1233,0,0
140,-209,0,0,0,0,0,0,0,0,0,-1,1364,1233,0,0
147,-209,0,0,0,0,0,0,0,0,0,-1,1371,1233,0,0
154,-209,0,0,0,0,0,0,0,0,0,-1,1378,1233,0,0
161,-209,0,0,0,0,0,0,0,0,0,-1,1385,1233,0,0
168,-209,0,0,0,0,0,0,0,0,0,-1,1392,1233,0,0
175,-209,0,0,0,0,0,0,0,0,0,-1,1399,1233,0,0
182,-209,0,0,0,0,0,0,0,0,0,-1,1406,1233,0,0
189,-209,0,0,0,0,0,0,0,0,0,-1,1413,1233,0,0
196,-209,0,0,0,0,0,0,0,0,0,-1,1420,1233,0,0
203,-209,0,0,0,0,0,0,0,0,0,-1,1427,1233,0,0
210,-209,0,0,0,0,0,0,0,0,0,-1,1434,1233,0,0
217,-209,0,0,0,0,0,0,0,0,0,-1,1441,1233,0,0
224,-209,0,0,0,0,0,0,0,0,0,-1,1448,1233,0,0
231,-209,0,0,0,0,0,0,0,0,0,-1,1455,1233,0,0
238,-209,0,0,0,0,0,0,0,0,0,-1,1462,1233,0,0
245,-209,0,0,0,0,0,0,0,0,0,-1,1469,1233,0,0
252,-209,0,0,0,0,0,0,0,0,0,-1,1476,1233,0,0
259,-209,0,0,0,0,0,0,0,0,0,-1,1483,1233,0,0
266,-209,0,0,0,0,0,0,0,0,0,-1,1490,1233,0,0
273,-209,0,0,0,0,0,0,0,0,0,-1,1497,1233,0,0
280,-209,0,0,0,0,0,0,0,0,0,-1,1504,1233,0,0
287,-209,0,0,0,0,0,0,0,0,0,-1,1511,1233,0,0
294,-209,0,0,0,0,0,0,0,0,0,-1,1518,1233,0,0
301,-209,0,0,0,0,0,0,0,0,0,-1,1525,1233,0,0
308,-209,0,0,0,0,0,0,0,0,0,-1,1532,1233,0,0
315,-209,0,0,0,0,0,0,0,0,0,-1,1539,1233,0,0
322,-209,0,0,0,0,0,0,0,0,0,-1,1546,1233,0,0
329,-209,0,0,0,0,0,0,0,0,0,-1,1553,1233,0,0
336,-209,0,0,0,0,0,0,0,0,0,-1,1560,1233,0,0
343,-209,0,0,0,0,0,0,0,0,0,-1,1567,1233,0,0
350,-209,0,0,0,0,0,0,0,0,0,-1,1574,1233,0,0
357,-209,0,0,0,0,0,0,0,0,0,-1,1581,1233,0,0
364,-209,0,0,0,0,0,0,0,0,0,-1,1588,1233,0,0
371,-209,0,0,0,0,0,0,0,0,0,-1,1595,1233,0,0
378,-209,0,0,0,0,0,0,0,0,0,-1,1602,1233,0,0
385,-209,0,0,0,0,0,0,0,0,0,-1,1609,1233,0,0
392,-209,0,0,0,0,0,0,0,0,0,-1,1616,1233,0,0
399,-209,0,0,0,0,0,0,0,0,0,-1,1623,1233,0,0
406,-209,0,0,0,0,0,0,0,0,0,-1,1630,1233,0,0
413,-209,0,0,0,0,0,0,0,0,0,-1,1637,1233,0,0
420,-209,0,0,0,0,0,0,0,0,0,-1,1644,1233,0,0
427,-209,0,0,0,0,0,0,0,0,0,-1,1651,1233,0,0
434,-209,0,0,0,0,0,0,0,0,0,-1,1658,1233,0,0
441,-209,0,0,0,0,0,0,0,0,0,-1,1665,1233,0,0
448,-209,0,0,0,0,0,0,0,0,0,-1,1672,1233,0,0
455,-209,0,0,0,0,0,0,0,0,0,-1,1679,1233,0,0
462,-209,0,0,0,0,0,0,0,0,0,-1,1686,1233,0,0
469,-209,0,0,0,0,0,0,0,0,0,-1,1693,1233,0,0
476,-209,0,0,0,0,0,0,0,0,0,-1,1700,1233,0,0
483,-209,0,0,0,0,0,0,0,0,0,-1,1707,1233,0,0
490,-209,0,0,0,0,0,0,0,0,0,-1,1714,1233,0,0
497,-209,0,0,0,0,0,0,0,0,0,-1,1721,1233,0,0
504,-209,0,0,0,0,0,0,0,0,0,-1,1728,1233,0,0
511,-209,0,0,0,0,0,0,0,0,0,-1,1735,1233,0,0
518,-209,0,0,0,0,0,0,0,0,0,-1,1742,1233,0,0
525,-209,0,0,0,0,0,0,0,0,0,-1,1749,1233,0,0
532,-209,0,0,0,0,0,0,0,0,0,-1,1756,1233,0,0
539,-209,0,0,0,0,0,0,0,0,0,-1,1763,1233,0,0
546,-209,0,0,0,0,0,0,0,0,0,-1,1770,1233,0,0
553,-209,0,0,0,0,0,0,0,0,0,-1,1777,1233,0,0
560,-209,0,0,0,0,0,0,0,0,0,-1,1784,1233,0,0
567,-209,0,0,0,0,0,0,0,0,0,-1,1791,1233,0,0
574,-209,0,0,0,0,0,0,0,0,0,-1,1798,1233,0,0
581,-209,0,0,0,0,0,0,0,0,0,-1,1805,1233,0,0
588,-209,0,0,0,0,0,0,0,0,0,-1,1812,1233,0,0
595,-209,0,0,0,0,0,0,0,0,0,-1,1819,1233,0,0
602,-209,0,0,0,0,0,0,0,0,0,-1,1826,1233,0,0
609,-209,0,0,0,0,0,0,0,0,0,-1,1833,1233,0,0
616,-209,0,0,0,0,0,0,0,0,0,-1,1840,1233,0,0
623,-209,227.755,8.87073,0,0,0,0,0,0,0,-1,1847,1233,227.755,-8.87075
630,-209,227.78,8.90076,0,0,0,0,0,0,0,-1,1854,1233,227.78,-8.90074
637,-209,227.822,8.95508,0,0,0,0,0,0,0,-1,1861,1233,227.822,-8.95507
644,-209,227.81,8.9325,0,0,0,0,0,0,0,-1,1868,1233,227.81,-8.93256
651,-209,227.849,8.82654,0,0,0,0,0,0,0,-1,1875,1233,227.849,-8.82651
658,-209,227.837,8.84326,0,0,0,0,0,0,0,-1,1882,1233,227.837,-8.84322
665,-209,227.907,8.78748,0,0,0,0,0,0,0,-1,1889,1233,227.907,-8.78749
672,-209,87.3463,1.96936,0,0,0,0,0,0,0,-1,1896,1233,87.3464,-1.96942
679,-209,55.2465,2.78674,0,0,0,0,0,0,0,-1,1903,1233,55.2464,-2.78678
686,-209,33.3711,3.89856,0,0,0,0,0,0,0,-1,1910,1233,33.3711,-3.89855
693,-209,60.7567,13.6616,0,0,0,0,0,0,0,-1,1917,1233,60.7567,-13.6616
700,-209,84.3783,20.4895,0,0,0,0,0,0,0,-1,1924,1233,84.3783,-20.4894
707,-209,213.802,37.5784,0,0,0,0,0,0,0,-1,1931,1233,213.802,-37.5784
714,-209,213.963,36.1951,0,0,0,0,0,0,0,-1,1938,1233,213.963,-36.1951
721,-209,213.873,34.8403,0.0101183,0.0179998,0.00280588,0.0188967,0.00922148,1.26142,0.010911,0.0321739,1945,1233,213.873,-34.8403
728,-209,213.797,33.4324,0.00231836,0.0231791,0.00626538,0.0249162,0.00058124,1.30033,0.0164205,0.0318719,1952,1233,213.797,-33.4324
735,-209,213.302,32.1068,0,0,0,0,0,0,0,-1,1959,1233,213.302,-32.1068
742,-209,213.078,30.8148,0,0,0,0,0,0,0,-1,1966,1233,213.078,-30.8148
749,-209,212.887,29.5837,-0.0209044,0.0406777,0.0165553,0.0448461,-0.0250728,1.32413,0.0409023,0.0488558,1973,1233,212.887,-29.5837
756,-209,212.551,28.1498,-0.0285053,0.0472079,0.0198397,0.0520916,-0.033389,1.32943,0.0497445,0.0279365,1980,1233,212.55,-28.1498
763,-209,212.358,26.4946,0,0,0,0,0,0,0,-1,1987,1233,212.358,-26.4946
770,-209,205.474,26.182,0,0,0,0,0,0,0,-1,1994,1233,205.474,-26.182
777,-209,68.0347,-0.36377,0,0,0,0,0,0,0,-1,2001,1233,68.0346,0.363742
784,-209,67.6289,0.771729,0,0,0,0,0,0,0,-1,2008,1233,67.6289,-0.771742
791,-209,67.1841,1.90906,0,0,0,0,0,0,0,-1,2015,1233,67.1841,-1.90909
798,-209,53.6404,3.71179,0,0,0,0,0,0,0,-1,2022,1233,53.6404,-3.71185
805,-209,0,0,0,0,0,0,0,0,0,-1,2029,1233,0,0
812,-209,0,0,0,0,0,0,0,0,0,-1,2036,1233,0,0
-700,-216,0,0,0,0,0,0,0,0,0,-1,524,1240,0,0
-693,-216,0,0,0,0,0,0,0,0,0,-1,531,1240,0,0
-686,-216,0,0,0,0,0,0,0,0,0,-1,538,1240,0,0
-679,-216,-177.594,21.6741,0,0,0,0,0,0,0,-1,545,1240,-177.594,-21.674
-672,-216,-178.041,23.2711,0,0,0,0,0,0,0,-1,552,1240,-178.041,-23.2711
-665,-216,-175.086,22.3207,0,0,0,0,0,0,0,-1,559,1240,-175.086,-22.3207
-658,-216,-78.3845,24.0464,0,0,0,0,0,0,0,-1,566,1240,-78.3845,-24.0463
-651,-216,-63.4149,-2.69446,0,0,0,0,0,0,0,-1,573,1240,-63.4149,2.69441
-644,-216,-63.9308,-2.41199,0,0,0,0,0,0,0,-1,580,1240,-63.9308,2.41198
-637,-216,-196.014,24.4456,0,0,0,0,0,0,0,-1,587,1240,-196.014,-24.4455
-630,-216,-204.184,25.5935,0,0,0,0,0,0,0,-1,594,1240,-204.184,-25.5936
-623,-216,-204.519,27.0411,-0.0212949,0.0518944,-0.019725,0.0568719,-0.0262724,-1.32361,0.0490751,0.031899,601,1240,-204.519,-27.0411
-616,-216,-204.735,28.1488,-0.0170761,0.0485763,-0.0180888,0.0532302,-0.0217301,-1.31897,0.0445339,0.0198291,608,1240,-204.735,-28.1488
-609,-216,-204.947,29.3881,-0.0127907,0.044346,-0.0156274,0.0483409,-0.0167857,-1.32052,0.0390443,0.0184481,615,1240,-204.947,-29.388
-602,-216,-204.99,30.8145,-0.00846631,0.0399705,-0.0125572,0.0430324,-0.0115282,-1.33163,0.0332049,0.0303162,622,1240,-204.99,-30.8145
-595,-216,-204.82,32.27,0,0,0,0,0,0,0,-1,629,1240,-204.82,-32.27
-588,-216,-76.3784,20.2157,0,0,0,0,0,0,0,-1,636,1240,-76.3784,-20.2156
-581,-216,-75.1554,21.9757,0,0,0,0,0,0,0,-1,643,1240,-75.1554,-21.9757
-574,-216,-75.3052,22.9486,0,0,0,0,0,0,0,-1,650,1240,-75.3051,-22.9486
-567,-216,-48.2406,14.5559,0,0,0,0,0,0,0,-1,657,1240,-48.2406,-14.5559
-560,-216,-16.5087,5.4574,0,0,0,0,0,0,0,-1,664,1240,-16.5087,-5.45746
-553,-216,-16.2355,1.22351,0,0,0,0,0,0,0,-1,671,1240,-16.2356,-1.22356
-546,-216,-37.1617,-0.25415,0,0,0,0,0,0,0,-1,678,1240,-37.1618,0.254161
-539,-216,-47.7817,1.47327,0,0,0,0,0,0,0,-1,685,1240,-47.7818,-1.4733
-532,-216,-68.0657,0.361084,0,0,0,0,0,0,0,-1,692,1240,-68.0657,-0.361113
-525,-216,-71.8069,0.608032,0,0,0,0,0,0,0,-1,699,1240,-71.8069,-0.608086
-518,-216,-71.9826,0.685303,0,0,0,0,0,0,0,-1,706,1240,-71.9826,-0.685246
-511,-216,-72.0073,0.585571,0,0,0,0,0,0,0,-1,713,1240,-72.0072,-0.585511
-504,-216,-71.8983,0.502075,0,0,0,0,0,0,0,-1,720,1240,-71.8983,-0.502107
-497,-216,0,0,0,0,0,0,0,0,0,-1,727,1240,0,0
-490,-216,0,0,0,0,0,0,0,0,0,-1,734,1240,0,0
-483,-216,0,0,0,0,0,0,0,0,0,-1,741,1240,0,0
-476,-216,0,0,0,0,0,0,0,0,0,-1,748,1240,0,0
-469,-216,0,0,0,0,0,0,0,0,0,-1,755,1240,0,0
-462,-216,0,0,0,0,0,0,0,0,0,-1,762,1240,0,0
-455,-216,0,0,0,0,0,0,0,0,0,-1,769,1240,0,0
-448,-216,0,0,0,0,0,0,0,0,0,-1,776,1240,0,0
-441,-216,0,0,0,0,0,0,0,0,0,-1,783,1240,0,0
-434,-216,0,0,0,0,0,0,0,0,0,-1,790,1240,0,0
-427,-216,0,0,0,0,0,0,0,0,0,-1,797,1240,0,0
-420,-216,0,0,0,0,0,0,0,0,0,-1,804,1240,0,0
-413,-216,0,0,0,0,0,0,0,0,0,-1,811,1240,0,0
-406,-216,0,0,0,0,0,0,0,0,0,-1,818,1240,0,0
-399,-216,0,0,0,0,0,0,0,0,0,-1,825,1240,0,0
-392,-216,0,0,0,0,0,0,0,0,0,-1,832,1240,0,0
-385,-216,0,0,0,0,0,0,0,0,0,-1,839,1240,0,0
-378,-216,0,0,0,0,0,0,0,0,0,-1,846,1240,0,0
-371,-216,0,0,0,0,0,0,0,0,0,-1,853,1240,0,0
-364,-216,0,0,0,0,0,0,0,0,0,-1,860,1240,0,0
-357,-216,0,0,0,0,0,0,0,0,0,-1,867,1240,0,0
-350,-216,0,0,0,0,0,0,0,0,0,-1,874,1240,0,0
-343,-216,0,0,0,0,0,0,0,0,0,-1,881,1240,0,0
-336,-216,0,0,0,0,0,0,0,0,0,-1,888,1240,0,0
-329,-216,0,0,0,0,0,0,0,0,0,-1,895,1240,0,0
-322,-216,0,0,0,0,0,0,0,0,0,-1,902,1240,0,0
-315,-216,0,0,0,0,0,0,0,0,0,-1,909,1240,0,0
-308,-216,0,0,0,0,0,0,0,0,0,-1,916,1240,0,0
-301,-216,0,0,0,0,0,0,0,0,0,-1,923,1240,0,0
-294,-216,0,0,0,0,0,0,0,0,0,-1,930,1240,0,0
-287,-216,0,0,0,0,0,0,0,0,0,-1,937,1240,0,0
-280,-216,0,0,0,0,0,0,0,0,0,-1,944,1240,0,0
-273,-216,0,0,0,0,0,0,0,0,0,-1,951,1240,0,0
-266,-216,0,0,0,0,0,0,0,0,0,-1,958,1240,0,0
-259,-216,0,0,0,0,0,0,0,0,0,-1,965,1240,0,0
-252,-216,0,0,0,0,0,0,0,0,0,-1,972,1240,0,0
-245,-216,0,0,0,0,0,0,0,0,0,-1,979,1240,0,0
-238,-216,0,0,0,0,0,0,0,0,0,-1,986,1240,0,0
-231,-216,0,0,0,0,0,0,0,0,0,-1,993,1240,0,0
-224,-216,0,0,0,0,0,0,0,0,0,-1,1000,1240,0,0
-217,-216,0,0,0,0,0,0,0,0,0,-1,1007,1240,0,0
-210,-216,0,0,0,0,0,0,0,0,0,-1,1014,1240,0,0
-203,-216,0,0,0,0,0,0,0,0,0,-1,1021,1240,0,0
-196,-216,0,0,0,0,0,0,0,0,0,-1,1028,1240,0,0
-189,-216,0,0,0,0,0,0,0,0,0,-1,1035,1240,0,0
-182,-216,0,0,0,0,0,0,0,0,0,-1,1042,1240,0,0
-175,-216,0,0,0,0,0,0,0,0,0,-1,1049,1240,0,0
-168,-216,0,0,0,0,0,0,0,0,0,-1,1056,1240,0,0
-161,-216,0,0,0,0,0,0,0,0,0,-1,1063,1240,0,0
-154,-216,0,0,0,0,0,0,0,0,0,-1,1070,1240,0,0
-147,-216,0,0,0,0,0,0,0,0,0,-1,1077,1240,0,0
-140,-216,0,0,0,0,0,0,0,0,0,-1,1084,1240,0,0
-133,-216,0,0,0,0,0,0,0,0,0,-1,1091,1240,0,0
-126,-216,0,0,0,0,0,0,0,0,0,-1,1098,1240,0,0
-119,-216,0,0,0,0,0,0,0,0,0,-1,1105,1240,0,0
-112,-216,0,0,0,0,0,0,0,0,0,-1,1112,1240,0,0
-105,-216,0,0,0,0,0,0,0,0,0,-1,1119,1240,0,0
-98,-216,0,0,0,0,0,0,0,0,0,-1,1126,1240,0,0
-91,-216,0,0,0,0,0,0,0,0,0,-1,1133,1240,0,0
-84,-216,0,0,0,0,0,0,0,0,0,-1,1140,1240,0,0
-77,-216,0,0,0,0,0,0,0,0,0,-1,1147,1240,0,0
-70,-216,0,0,0,0,0,0,0,0,0,-1,1154,1240,0,0
-63,-216,0,0,0,0,0,0,0,0,0,-1,1161,1240,0,0
-56,-216,0,0,0,0,0,0,0,0,0,-1,1168,1240,0,0
-49,-216,0,0,0,0,0,0,0,0,0,-1,1175,1240,0,0
-42,-216,0,0,0,0,0,0,0,0,0,-1,1182,1240,0,0
-35,-216,0,0,0,0,0,0,0,0,0,-1,1189,1240,0,0
-28,-216,0,0,0,0,0,0,0,0,0,-1,1196,1240,0,0
-21,-216,0,0,0,0,0,0,0,0,0,-1,1203,1240,0,0
-14,-216,0,0,0,0,0,0,0,0,0,-1,1210,1240,0,0
-7,-216,0,0,0,0,0,0,0,0,0,-1,1217,1240,0,0
0,-216,0,0,0,0,0,0,0,0,0,-1,1224,1240,0,0
7,-216,0,0,0,0,0,0,0,0,0,-1,1231,1240,0,0
14,-216,0,0,0,0,0,0,0,0,0,-1,1238,1240,0,0
21,-216,0,0,0,0,0,0,0,0,0,-1,1245,1240,0,0
28,-216,0,0,0,0,0,0,0,0,0,-1,1252,1240,0,0
35,-216,0,0,0,0,0,0,0,0,0,-1,1259,1240,0,0
42,-216,0,0,0,0,0,0,0,0,0,-1,1266,1240,0,0
49,-216,0,0,0,0,0,0,0,0,0,-1,1273,1240,0,0
56,-216,0,0,0,0,0,0,0,0,0,-1,1280,1240,0,0
63,-216,0,0,0,0,0,0,0,0,0,-1,1287,1240,0,0
70,-216,0,0,0,0,0,0,0,0,0,-1,1294,1240,0,0
77,-216,0,0,0,0,0,0,0,0,0,-1,1301,1240,0,0
84,-216,0,0,0,0,0,0,0,0,0,-1,1308,1240,0,0
91,-216,0,0,0,0,0,0,0,0,0,-1,1315,1240,0,0
98,-216,0,0,0,0,0,0,0,0,0,-1,1322,1240,0,0
105,-216,0,0,0,0,0,0,0,0,0,-1,1329,1240,0,0
112,-216,0,0,0,0,0,0,0,0,0,-1,1336,1240,0,0
119,-216,0,0,0,0,0,0,0,0,0,-1,1343,1240,0,0
126,-216,0,0,0,0,0,0,0,0,0,-1,1350,1240,0,0
133,-216,0,0,0,0,0,0,0,0,0,-1,1357,1240,0,0
140,-216,0,0,0,0,0,0,0,0,0,-1,1364,1240,0,0
147,-216,0,0,0,0,0,0,0,0,0,-1,1371,1240,0,0
154,-216,0,0,0,0,0,0,0,0,0,-1,1378,1240,0,0
161,-216,0,0,0,0,0,0,0,0,0,-1,1385,1240,0,0
168,-216,0,0,0,0,0,0,0,0,0,-1,1392,1240,0,0
175,-216,0,0,0,0,0,0,0,0,0,-1,1399,1240,0,0
182,-216,0,0,0,0,0,0,0,0,0,-1,1406,1240,0,0
189,-216,0,0,0,0,0,0,0,0,0,-1,1413,1240,0,0
196,-216,0,0,0,0,0,0,0,0,0,-1,1420,1240,0,0
203,-216,0,0,0,0,0,0,0,0,0,-1,1427,1240,0,0
210,-216,0,0,0,0,0,0,0,0,0,-1,1434,1240,0,0
217,-216,0,0,0,0,0,0,0,0,0,-1,1441,1240,0,0
224,-216,0,0,0,0,0,0,0,0,0,-1,1448,1240,0,0
231,-216,0,0,0,0,0,0,0,0,0,-1,1455,1240,0,0
238,-216,0,0,0,0,0,0,0,0,0,-1,1462,1240,0,0
245,-216,0,0,0,0,0,0,0,0,0,-1,1469,1240,0,0
252,-216,0,0,0,0,0,0,0,0,0,-1,1476,1240,0,0
259,-216,0,0,0,0,0,0,0,0,0,-1,1483,1240,0,0
266,-216,0,0,0,0,0,0,0,0,0,-1,1490,1240,0,0
273,-216,0,0,0,0,0,0,0,0,0,-1,1497,1240,0,0
280,-216,0,0,0,0,0,0,0,0,0,-1,1504,1240,0,0
287,-216,0,0,0,0,0,0,0,0,0,-1,1511,1240,0,0
294,-216,0,0,0,0,0,0,0,0,0,-1,1518,1240,0,0
301,-216,0,0,0,0,0,0,0,0,0,-1,1525,1240,0,0
308,-216,0,0,0,0,0,0,0,0,0,-1,1532,1240,0,0
315,-216,0,0,0,0,0,0,0,0,0,-1,1539,1240,0,0
322,-216,0,0,0,0,0,0,0,0,0,-1,1546,1240,0,0
329,-216,0,0,0,0,0,0,0,0,0,-1,1553,1240,0,0
336,-216,0,0,0,0,0,0,0,0,0,-1,1560,1240,0,0
343,-216,0,0,0,0,0,0,0,0,0,-1,1567,1240,0,0
350,-216,0,0,0,0,0,0,0,0,0,-1,1574,1240,0,0
357,-216,0,0,0,0,0,0,0,0,0,-1,1581,1240,0,0
364,-216,0,0,0,0,0,0,0,0,0,-1,1588,1240,0,0
371,-216,0,0,0,0,0,0,0,0,0,-1,1595,1240,0,0
378,-216,0,0,0,0,0,0,0,0,0,-1,1602,1240,0,0
385,-216,0,0,0,0,0,0,0,0,0,-1,1609,1240,0,0
392,-216,0,0,0,0,0,0,0,0,0,-1,1616,1240,0,0
399,-216,0,0,0,0,0,0,0,0,0,-1,1623,1240,0,0
406,-216,0,0,0,0,0,0,0,0,0,-1,1630,1240,0,0
413,-216,0,0,0,0,0,0,0,0,0,-1,1637,1240,0,0
420,-216,0,0,0,0,0,0,0,0,0,-1,1644,1240,0,0
427,-216,0,0,0,0,0,0,0,0,0,-1,1651,1240,0,0
434,-216,0,0,0,0,0,0,0,0,0,-1,1658,1240,0,0
441,-216,0,0,0,0,0,0,0,0,0,-1,1665,1240,0,0
448,-216,0,0,0,0,0,0,0,0,0,-1,1672,1240,0,0
455,-216,0,0,0,0,0,0,0,0,0,-1,1679,1240,0,0
462,-216,0,0,0,0,0,0,0,0,0,-1,1686,1240,0,0
469,-216,0,0,0,0,0,0,0,0,0,-1,1693,1240,0,0
476,-216,0,0,0,0,0,0,0,0,0,-1,1700,1240,0,0
483,-216,0,0,0,0,0,0,0,0,0,-1,1707,1240,0,0
490,-216,0,0,0,0,0,0,0,0,0,-1,1714,1240,0,0
497,-216,0,0,0,0,0,0,0,0,0,-1,1721,1240,0,0
504,-216,0,0,0,0,0,0,0,0,0,-1,1728,1240,0,0
511,-216,0,0,0,0,0,0,0,0,0,-1,1735,1240,0,0
518,-216,0,0,0,0,0,0,0,0,0,-1,1742,1240,0,0
525,-216,0,0,0,0,0,0,0,0,0,-1,1749,1240,0,0
532,-216,0,0,0,0,0,0,0,0,0,-1,1756,1240,0,0
539,-216,0,0,0,0,0,0,0,0,0,-1,1763,1240,0,0
546,-216,0,0,0,0,0,0,0,0,0,-1,1770,1240,0,0
553,-216,0,0,0,0,0,0,0,0,0,-1,1777,1240,0,0
560,-216,0,0,0,0,0,0,0,0,0,-1,1784,1240,0,0
567,-216,0,0,0,0,0,0,0,0,0,-1,1791,1240,0,0
574,-216,0,0,0,0,0,0,0,0,0,-1,1798,1240,0,0
581,-216,0,0,0,0,0,0,0,0,0,-1,1805,1240,0,0
588,-216,0,0,0,0,0,0,0,0,0,-1,1812,1240,0,0
595,-216,0,0,0,0,0,0,0,0,0,-1,1819,1240,0,0
602,-216,0,0,0,0,0,0,0,0,0,-1,1826,1240,0,0
609,-216,0,0,0,0,0,0,0,0,0,-1,1833,1240,0,0
616,-216,0,0,0,0,0,0,0,0,0,-1,1840,1240,0,0
623,-216,227.677,8.95898,0,0,0,0,0,0,0,-1,1847,1240,227.678,-8.95894
630,-216,227.661,8.96069,0,0,0,0,0,0,0,-1,1854,1240,227.661,-8.9607
637,-216,227.78,8.9408,0,0,0,0,0,0,0,-1,1861,1240,227.78,-8.94078
644,-216,227.743,8.94983,0,0,0,0,0,0,0,-1,1868,1240,227.743,-8.94983
651,-216,227.783,8.87354,0,0,0,0,0,0,0,-1,1875,1240,227.783,-8.87352
658,-216,227.881,8.92883,0,0,0,0,0,0,0,-1,1882,1240,227.881,-8.92881
665,-216,101.954,2.26392,0,0,0,0,0,0,0,-1,1889,1240,101.954,-2.26386
672,-216,68.6339,1.33826,0,0,0,0,0,0,0,-1,1896,1240,68.6339,-1.33828
679,-216,47.3159,3.82703,0,0,0,0,0,0,0,-1,1903,1240,47.316,-3.82708
686,-216,21.5172,6.19458,0,0,0,0,0,0,0,-1,1910,1240,21.5172,-6.19453
693,-216,56.1224,12.7039,0,0,0,0,0,0,0,-1,1917,1240,56.1224,-12.7038
700,-216,82.1761,20.2852,0,0,0,0,0,0,0,-1,1924,1240,82.1761,-20.2852
707,-216,170.891,39.0442,0,0,0,0,0,0,0,-1,1931,1240,170.891,-39.0442
714,-216,212.646,36.1207,0,0,0,0,0,0,0,-1,1938,1240,212.646,-36.1207
721,-216,212.286,34.8657,0.00792538,0.0189481,0.00408347,0.020296,0.00657745,1.25196,0.0119573,0.0295397,1945,1240,212.286,-34.8657
728,-216,212.218,33.3474,0.000278962,0.0242742,0.00791195,0.0266481,-0.00209498,1.2793,0.0185033,0.0272769,1952,1240,212.218,-33.3474
735,-216,211.943,31.9529,0,0,0,0,0,0,0,-1,1959,1240,211.943,-31.9529
742,-216,177.203,31.9943,0,0,0,0,0,0,0,-1,1966,1240,177.203,-31.9942
749,-216,211.317,29.1951,0,0,0,0,0,0,0,-1,1973,1240,211.317,-29.1951
756,-216,210.895,27.995,-0.0310047,0.0491564,0.0226306,0.0551041,-0.0369523,1.31379,0.0534921,0.0251359,1980,1240,210.895,-27.995
763,-216,210.548,26.5989,0,0,0,0,0,0,0,-1,1987,1240,210.548,-26.5989
770,-216,210.456,25.1119,0,0,0,0,0,0,0,-1,1994,1240,210.456,-25.112
777,-216,71.583,6.68445,0,0,0,0,0,0,0,-1,2001,1240,71.5829,-6.6844
784,-216,68.2205,0.660034,0,0,0,0,0,0,0,-1,2008,1240,68.2204,-0.660033
791,-216,67.71,1.8468,0,0,0,0,0,0,0,-1,2015,1240,67.7099,-1.84686
798,-216,0,0,0,0,0,0,0,0,0,-1,2022,1240,0,0
805,-216,0,0,0,0,0,0,0,0,0,-1,2029,1240,0,0
812,-216,0,0,0,0,0,0,0,0,0,-1,2036,1240,0,0
-700,-223,0,0,0,0,0,0,0,0,0,-1,524,1247,0,0
-693,-223,0,0,0,0,0,0,0,0,0,-1,531,1247,0,0
-686,-223,0,0,0,0,0,0,0,0,0,-1,538,1247,0,0
-679,-223,0,0,0,0,0,0,0,0,0,-1,545,1247,0,0
-672,-223,-149.914,11.8156,0,0,0,0,0,0,0,-1,552,1247,-149.914,-11.8155
-665,-223,-129.016,15.0405,0,0,0,0,0,0,0,-1,559,1247,-129.016,-15.0406
-658,-223,-81.3573,25.3363,0,0,0,0,0,0,0,-1,566,1247,-81.3573,-25.3363
-651,-223,-81.1982,27.5779,0,0,0,0,0,0,0,-1,573,1247,-81.1982,-27.5779
-644,-223,-63.6605,-3.14734,0,0,0,0,0,0,0,-1,580,1247,-63.6605,3.14729
-637,-223,-49.2922,0.294189,0,0,0,0,0,0,0,-1,587,1247,-49.2922,-0.294245
-630,-223,-194.692,25.8456,0,0,0,0,0,0,0,-1,594,1247,-194.692,-25.8455
-623,-223,-202.858,26.7374,0,0,0,0,0,0,0,-1,601,1247,-202.858,-26.7374
-616,-223,-203.085,27.9442,-0.0182444,0.0509581,-0.0192176,0.0559367,-0.0232229,-1.31731,0.0469857,0.0231983,608,1247,-203.085,-27.9442
-609,-223,-203.319,29.2198,-0.0138785,0.0463616,-0.0166309,0.050648,-0.0181649,-1.31855,0.0411782,0.016983,615,1247,-203.319,-29.2199
-602,-223,-203.48,30.6306,-0.00936897,0.0416026,-0.0133478,0.0448864,-0.0126528,-1.32957,0.0349146,0.026812,622,1247,-203.48,-30.6307
-595,-223,-203.557,32.0684,0,0,0,0,0,0,0,-1,629,1247,-203.557,-32.0684
-588,-223,-203.946,32.02,0,0,0,0,0,0,0,-1,636,1247,-203.946,-32.02
-581,-223,-73.8349,22.21,0,0,0,0,0,0,0,-1,643,1247,-73.8349,-22.21
-574,-223,-47.5632,13.7034,0,0,0,0,0,0,0,-1,650,1247,-47.5632,-13.7034
-567,-223,-57.4084,18.6537,0,0,0,0,0,0,0,-1,657,1247,-57.4084,-18.6536
-560,-223,-31.8748,9.50732,0,0,0,0,0,0,0,-1,664,1247,-31.8748,-9.50735
-553,-223,-11.4025,4.14722,0,0,0,0,0,0,0,-1,671,1247,-11.4025,-4.14719
-546,-223,-26.9034,-0.148682,0,0,0,0,0,0,0,-1,678,1247,-26.9034,0.14867
-539,-223,-36.7405,0.35376,0,0,0,0,0,0,0,-1,685,1247,-36.7405,-0.353807
-532,-223,-47.6184,1.39844,0,0,0,0,0,0,0,-1,692,1247,-47.6184,-1.3984
-525,-223,-68.3091,0.599243,0,0,0,0,0,0,0,-1,699,1247,-68.3091,-0.599261
-518,-223,-71.9418,0.685669,0,0,0,0,0,0,0,-1,706,1247,-71.9418,-0.685676
-511,-223,-71.9317,0.546631,0,0,0,0,0,0,0,-1,713,1247,-71.9317,-0.546598
-504,-223,-71.9573,0.504639,0,0,0,0,0,0,0,-1,720,1247,-71.9573,-0.504659
-497,-223,0,0,0,0,0,0,0,0,0,-1,727,1247,0,0
-490,-223,0,0,0,0,0,0,0,0,0,-1,734,1247,0,0
-483,-223,0,0,0,0,0,0,0,0,0,-1,741,1247,0,0
-476,-223,0,0,0,0,0,0,0,0,0,-1,748,1247,0,0
-469,-223,0,0,0,0,0,0,0,0,0,-1,755,1247,0,0
-462,-223,0,0,0,0,0,0,0,0,0,-1,762,1247,0,0
-455,-223,0,0,0,0,0,0,0,0,0,-1,769,1247,0,0
-448,-223,0,0,0,0,0,0,0,0,0,-1,776,1247,0,0
-441,-223,0,0,0,0,0,0,0,0,0,-1,783,1247,0,0
-434,-223,0,0,0,0,0,0,0,0,0,-1,790,1247,0,0
-427,-223,0,0,0,0,0,0,0,0,0,-1,797,1247,0,0
-420,-223,0,0,0,0,0,0,0,0,0,-1,804,1247,0,0
-413,-223,0,0,0,0,0,0,0,0,0,-1,811,1247,0,0
-406,-223,0,0,0,0,0,0,0,0,0,-1,818,1247,0,0
-399,-223,0,0,0,0,0,0,0,0,0,-1,825,1247,0,0
-392,-223,0,0,0,0,0,0,0,0,0,-1,832,1247,0,0
-385,-223,0,0,0,0,0,0,0,0,0,-1,839,1247,0,0
-378,-223,0,0,0,0,0,0,0,0,0,-1,846,1247,0,0
-371,-223,0,0,0,0,0,0,0,0,0,-1,853,1247,0,0
-364,-223,0,0,0,0,0,0,0,0,0,-1,860,1247,0,0
-357,-223,0,0,0,0,0,0,0,0,0,-1,867,1247,0,0
-350,-223,0,0,0,0,0,0,0,0,0,-1,874,1247,0,0
-343,-223,0,0,0,0,0,0,0,0,0,-1,881,1247,0,0
-336,-223,0,0,0,0,0,0,0,0,0,-1,888,1247,0,0
-329,-223,0,0,0,0,0,0,0,0,0,-1,895,1247,0,0
-322,-223,0,0,0,0,0,0,0,0,0,-1,902,1247,0,0
-315,-223,0,0,0,0,0,0,0,0,0,-1,909,1247,0,0
-308,-223,0,0,0,0,0,0,0,0,0,-1,916,1247,0,0
-301,-223,0,0,0,0,0,0,0,0,0,-1,923,1247,0,0
-294,-223,0,0,0,0,0,0,0,0,0,-1,930,1247,0,0
-287,-223,0,0,0,0,0,0,0,0,0,-1,937,1247,0,0
-280,-223,0,0,0,0,0,0,0,0,0,-1,944,1247,0,0
-273,-223,0,0,0,0,0,0,0,0,0,-1,951,1247,0,0
-266,-223,0,0,0,0,0,0,0,0,0,-1,958,1247,0,0
-259,-223,0,0,0,0,0,0,0,0,0,-1,965,1247,0,0
-252,-223,0,0,0,0,0,0,0,0,0,-1,972,1247,0,0
-245,-223,0,0,0,0,0,0,0,0,0,-1,979,1247,0,0
-238,-223,0,0,0,0,0,0,0,0,0,-1,986,1247,0,0
-231,-223,0,0,0,0,0,0,0,0,0,-1,993,1247,0,0
-224,-223,0,0,0,0,0,0,0,0,0,-1,1000,1247,0,0
-217,-223,0,0,0,0,0,0,0,0,0,-1,1007,1247,0,0
-210,-223,0,0,0,0,0,0,0,0,0,-1,1014,1247,0,0
-203,-223,0,0,0,0,0,0,0,0,0,-1,1021,1247,0,0
-196,-223,0,0,0,0,0,0,0,0,0,-1,1028,1247,0,0
-189,-223,0,0,0,0,0,0,0,0,0,-1,1035,1247,0,0
-182,-223,0,0,0,0,0,0,0,0,0,-1,1042,1247,0,0
-175,-223,0,0,0,0,0,0,0,0,0,-1,1049,1247,0,0
-168,-223,0,0,0,0,0,0,0,0,0,-1,1056,1247,0,0
-161,-223,0,0,0,0,0,0,0,0,0,-1,1063,1247,0,0
-154,-223,0,0,0,0,0,0,0,0,0,-1,1070,1247,0,0
-147,-223,0,0,0,0,0,0,0,0,0,-1,1077,1247,0,0
-140,-223,0,0,0,0,0,0,0,0,0,-1,1084,1247,0,0
-133,-223,0,0,0,0,0,0,0,0,0,-1,1091,1247,0,0
-126,-223,0,0,0,0,0,0,0,0,0,-1,1098,1247,0,0
-119,-223,0,0,0,0,0,0,0,0,0,-1,1105,1247,0,0
-112,-223,0,0,0,0,0,0,0,0,0,-1,1112,1247,0,0
-105,-223,0,0,0,0,0,0,0,0,0,-1,1119,1247,0,0
-98,-223,0,0,0,0,0,0,0,0,0,-1,1126,1247,0,0
-91,-223,0,0,0,0,0,0,0,0,0,-1,1133,1247,0,0
-84,-223,0,0,0,0,0,0,0,0,0,-1,1140,1247,0,0
-77,-223,0,0,0,0,0,0,0,0,0,-1,1147,1247,0,0
-70,-223,0,0,0,0,0,0,0,0,0,-1,1154,1247,0,0
-63,-223,0,0,0,0,0,0,0,0,0,-1,1161,1247,0,0
-56,-223,0,0,0,0,0,0,0,0,0,-1,1168,1247,0,0
-49,-223,0,0,0,0,0,0,0,0,0,-1,1175,1247,0,0
-42,-223,0,0,0,0,0,0,0,0,0,-1,1182,1247,0,0
-35,-223,0,0,0,0,0,0,0,0,0,-1,1189,1247,0,0
-28,-223,0,0,0,0,0,0,0,0,0,-1,1196,1247,0,0
-21,-223,0,0,0,0,0,0,0,0,0,-1,1203,1247,0,0
-14,-223,0,0,0,0,0,0,0,0,0,-1,1210,1247,0,0
-7,-223,0,0,0,0,0,0,0,0,0,-1,1217,1247,0,0
0,-223,0,0,0,0,0,0,0,0,0,-1,1224,1247,0,0
7,-223,0,0,0,0,0,0,0,0,0,-1,1231,1247,0,0
14,-223,0,0,0,0,0,0,0,0,0,-1,1238,1247,0,0
21,-223,0,0,0,0,0,0,0,0,0,-1,1245,1247,0,0
28,-223,0,0,0,0,0,0,0,0,0,-1,1252,1247,0,0
35,-223,0,0,0,0,0,0,0,0,0,-1,1259,1247,0,0
42,-223,0,0,0,0,0,0,0,0,0,-1,1266,1247,0,0
49,-223,0,0,0,0,0,0,0,0,0,-1,1273,1247,0,0
56,-223,0,0,0,0,0,0,0,0,0,-1,1280,1247,0,0
63,-223,0,0,0,0,0,0,0,0,0,-1,1287,1247,0,0
70,-223,0,0,0,0,0,0,0,0,0,-1,1294,1247,0,0
77,-223,0,0,0,0,0,0,0,0,0,-1,1301,1247,0,0
84,-223,0,0,0,0,0,0,0,0,0,-1,1308,1247,0,0
91,-223,0,0,0,0,0,0,0,0,0,-1,1315,1247,0,0
98,-223,0,0,0,0,0,0,0,0,0,-1,1322,1247,0,0
105,-223,0,0,0,0,0,0,0,0,0,-1,1329,1247,0,0
112,-223,0,0,0,0,0,0,0,0,0,-1,1336,1247,0,0
119,-223,0,0,0,0,0,0,0,0,0,-1,1343,1247,0,0
126,-223,0,0,0,0,0,0,0,0,0,-1,1350,1247,0,0
133,-223,0,0,0,0,0,0,0,0,0,-1,1357,1247,0,0
140,-223,0,0,0,0,0,0,0,0,0,-1,1364,1247,0,0
147,-223,0,0,0,0,0,0,0,0,0,-1,1371,1247,0,0
154,-223,0,0,0,0,0,0,0,0,0,-1,1378,1247,0,0
161,-223,0,0,0,0,0,0,0,0,0,-1,1385,1247,0,0
168,-223,0,0,0,0,0,0,0,0,0,-1,1392,1247,0,0
175,-223,0,0,0,0,0,0,0,0,0,-1,1399,1247,0,0
182,-223,0,0,0,0,0,0,0,0,0,-1,1406,1247,0,0
189,-223,0,0,0,0,0,0,0,0,0,-1,1413,1247,0,0
196,-223,0,0,0,0,0,0,0,0,0,-1,1420,1247,0,0
203,-223,0,0,0,0,0,0,0,0,0,-1,1427,1247,0,0
210,-223,0,0,0,0,0,0,0,0,0,-1,1434,1247,0,0
217,-223,0,0,0,0,0,0,0,0,0,-1,1441,1247,0,0
224,-223,0,0,0,0,0,0,0,0,0,-1,1448,1247,0,0
231,-223,0,0,0,0,0,0,0,0,0,-1,1455,1247,0,0
238,-223,0,0,0,0,0,0,0,0,0,-1,1462,1247,0,0
245,-223,0,0,0,0,0,0,0,0,0,-1,1469,1247,0,0
252,-223,0,0,0,0,0,0,0,0,0,-1,1476,1247,0,0
259,-223,0,0,0,0,0,0,0,0,0,-1,1483,1247,0,0
266,-223,0,0,0,0,0,0,0,0,0,-1,1490,1247,0,0
273,-223,0,0,0,0,0,0,0,0,0,-1,1497,1247,0,0
280,-223,0,0,0,0,0,0,0,0,0,-1,1504,1247,0,0
287,-223,0,0,0,0,0,0,0,0,0,-1,1511,1247,0,0
294,-223,0,0,0,0,0,0,0,0,0,-1,1518,1247,0,0
301,-223,0,0,0,0,0,0,0,0,0,-1,1525,1247,0,0
308,-223,0,0,0,0,0,0,0,0,0,-1,1532,1247,0,0
315,-223,0,0,0,0,0,0,0,0,0,-1,1539,1247,0,0
322,-223,0,0,0,0,0,0,0,0,0,-1,1546,1247,0,0
329,-223,0,0,0,0,0,0,0,0,0,-1,1553,1247,0,0
336,-223,0,0,0,0,0,0,0,0,0,-1,1560,1247,0,0
343,-223,0,0,0,0,0,0,0,0,0,-1,1567,1247,0,0
350,-223,0,0,0,0,0,0,0,0,0,-1,1574,1247,0,0
357,-223,0,0,0,0,0,0,0,0,0,-1,1581,1247,0,0
364,-223,0,0,0,0,0,0,0,0,0,-1,1588,1247,0,0
371,-223,0,0,0,0,0,0,0,0,0,-1,1595,1247,0,0
378,-223,0,0,0,0,0,0,0,0,0,-1,1602,1247,0,0
385,-223,0,0,0,0,0,0,0,0,0,-1,1609,1247,0,0
392,-223,0,0,0,0,0,0,0,0,0,-1,1616,1247,0,0
399,-223,0,0,0,0,0,0,0,0,0,-1,1623,1247,0,0
406,-223,0,0,0,0,0,0,0,0,0,-1,1630,1247,0,0
413,-223,0,0,0,0,0,0,0,0,0,-1,1637,1247,0,0
420,-223,0,0,0,0,0,0,0,0,0,-1,1644,1247,0,0
427,-223,0,0,0,0,0,0,0,0,0,-1,1651,1247,0,0
434,-223,0,0,0,0,0,0,0,0,0,-1,1658,1247,0,0
441,-223,0,0,0,0,0,0,0,0,0,-1,1665,1247,0,0
448,-223,0,0,0,0,0,0,0,0,0,-1,1672,1247,0,0
455,-223,0,0,0,0,0,0,0,0,0,-1,1679,1247,0,0
462,-223,0,0,0,0,0,0,0,0,0,-1,1686,1247,0,0
469,-223,0,0,0,0,0,0,0,0,0,-1,1693,1247,0,0
476,-223,0,0,0,0,0,0,0,0,0,-1,1700,1247,0,0
483,-223,0,0,0,0,0,0,0,0,0,-1,1707,1247,0,0
490,-223,0,0,0,0,0,0,0,0,0,-1,1714,1247,0,0
497,-223,0,0,0,0,0,0,0,0,0,-1,1721,1247,0,0
504,-223,0,0,0,0,0,0,0,0,0,-1,1728,1247,0,0
511,-223,0,0,0,0,0,0,0,0,0,-1,1735,1247,0,0
518,-223,0,0,0,0,0,0,0,0,0,-1,1742,1247,0,0
525,-223,0,0,0,0,0,0,0,0,0,-1,1749,1247,0,0
532,-223,0,0,0,0,0,0,0,0,0,-1,1756,1247,0,0
539,-223,0,0,0,0,0,0,0,0,0,-1,1763,1247,0,0
546,-223,0,0,0,0,0,0,0,0,0,-1,1770,1247,0,0
553,-223,0,0,0,0,0,0,0,0,0,-1,1777,1247,0,0
560,-223,0,0,0,0,0,0,0,0,0,-1,1784,1247,0,0
567,-223,0,0,0,0,0,0,0,0,0,-1,1791,1247,0,0
574,-223,0,0,0,0,0,0,0,0,0,-1,1798,1247,0,0
581,-223,0,0,0,0,0,0,0,0,0,-1,1805,1247,0,0
588,-223,0,0,0,0,0,0,0,0,0,-1,1812,1247,0,0
595,-223,0,0,0,0,0,0,0,0,0,-1,1819,1247,0,0
602,-223,0,0,0,0,0,0,0,0,0,-1,1826,1247,0,0
609,-223,0,0,0,0,0,0,0,0,0,-1,1833,1247,0,0
616,-223,0,0,0,0,0,0,0,0,0,-1,1840,1247,0,0
623,-223,227.755,9.2334,0,0,0,0,0,0,0,-1,1847,1247,227.755,-9.2334
630,-223,227.7,8.96826,0,0,0,0,0,0,0,-1,1854,1247,227.7,-8.96822
637,-223,227.743,8.83887,0,0,0,0,0,0,0,-1,1861,1247,227.743,-8.83885
644,-223,227.707,8.88135,0,0,0,0,0,0,0,-1,1868,1247,227.707,-8.88139
651,-223,227.793,8.68884,0,0,0,0,0,0,0,-1,1875,1247,227.793,-8.68882
658,-223,113.084,3.32898,0,0,0,0,0,0,0,-1,1882,1247,113.084,-3.32899
665,-223,68.7177,1.6427,0,0,0,0,0,0,0,-1,1889,1247,68.7176,-1.64275
672,-223,56.4625,2.72424,0,0,0,0,0,0,0,-1,1896,1247,56.4626,-2.72418
679,-223,43.2783,2.46973,0,0,0,0,0,0,0,-1,1903,1247,43.2784,-2.46978
686,-223,40.7926,10.0316,0,0,0,0,0,0,0,-1,1910,1247,40.7926,-10.0316
693,-223,81.1904,21.5211,0,0,0,0,0,0,0,-1,1917,1247,81.1904,-21.5211
700,-223,102.817,28.546,0,0,0,0,0,0,0,-1,1924,1247,102.817,-28.546
707,-223,211.005,38.1462,0,0,0,0,0,0,0,-1,1931,1247,211.005,-38.1463
714,-223,210.684,36.5121,0,0,0,0,0,0,0,-1,1938,1247,210.684,-36.512
721,-223,210.371,34.9187,0.00538994,0.0199291,0.00573137,0.0219167,0.00340235,1.23698,0.0136194,0.0354401,1945,1247,210.371,-34.9187
728,-223,210.424,33.3722,-0.00209404,0.0254136,0.00993621,0.0286272,-0.00530772,1.25798,0.021078,0.0351144,1952,1247,210.424,-33.3722
735,-223,210.204,32.2563,0,0,0,0,0,0,0,-1,1959,1247,210.204,-32.2563
742,-223,209.762,30.7263,0,0,0,0,0,0,0,-1,1966,1247,209.762,-30.7263
749,-223,209.521,29.1211,-0.0255908,0.0435668,0.0226228,0.0503098,-0.0323337,1.28112,0.048089,0.0411686,1973,1247,209.521,-29.1211
756,-223,209.17,27.9567,-0.0338879,0.0503388,0.0267841,0.0581346,-0.0416837,1.28756,0.0578904,0.0263831,1980,1247,209.17,-27.9567
763,-223,208.849,26.726,0,0,0,0,0,0,0,-1,1987,1247,208.849,-26.726
770,-223,208.197,25.4167,0,0,0,0,0,0,0,-1,1994,1247,208.197,-25.4167
777,-223,69.5923,7.03833,0,0,0,0,0,0,0,-1,2001,1247,69.5922,-7.03835
784,-223,68.8677,0.507813,0,0,0,0,0,0,0,-1,2008,1247,68.8676,-0.507816
791,-223,34.7136,2.92554,0,0,0,0,0,0,0,-1,2015,1247,34.7137,-2.92555
798,-223,0,0,0,0,0,0,0,0,0,-1,2022,1247,0,0
805,-223,0,0,0,0,0,0,0,0,0,-1,2029,1247,0,0
812,-223,0,0,0,0,0,0,0,0,0,-1,2036,1247,0,0
-700,-230,0,0,0,0,0,0,0,0,0,-1,524,1254,0,0
-693,-230,0,0,0,0,0,0,0,0,0,-1,531,1254,0,0
-686,-230,0,0,0,0,0,0,0,0,0,-1,538,1254,0,0
-679,-230,0,0,0,0,0,0,0,0,0,-1,545,1254,0,0
-672,-230,-127.6,12.7964,0,0,0,0,0,0,0,-1,552,1254,-127.6,-12.7964
-665,-230,-81.2452,24.4174,0,0,0,0,0,0,0,-1,559,1254,-81.2452,-24.4173
-658,-230,-81.4997,26.5293,0,0,0,0,0,0,0,-1,566,1254,-81.4997,-26.5293
-651,-230,-81.583,28.701,0,0,0,0,0,0,0,-1,573,1254,-81.583,-28.701
-644,-230,-62.1854,10.1193,0,0,0,0,0,0,0,-1,580,1254,-62.1854,-10.1193
-637,-230,-49.1636,-0.158325,0,0,0,0,0,0,0,-1,587,1254,-49.1636,0.158288
-630,-230,-41.3331,5.24744,0,0,0,0,0,0,0,-1,594,1254,-41.3331,-5.24744
-623,-230,-201.151,26.3459,0,0,0,0,0,0,0,-1,601,1254,-201.151,-26.346
-616,-230,-201.342,27.7809,-0.0201638,0.0531032,-0.0205767,0.0584866,-0.0255471,-1.31491,0.0497438,0.0257975,608,1254,-201.342,-27.7809
-609,-230,-201.623,29.1404,-0.0155021,0.0482557,-0.0178721,0.0529238,-0.0201701,-1.31531,0.0435902,0.0166399,615,1254,-201.623,-29.1404
-602,-230,-201.834,30.4783,-0.0106855,0.0432532,-0.0144791,0.0468941,-0.0143264,-1.32444,0.0369752,0.0211752,622,1254,-201.834,-30.4783
-595,-230,-202.012,31.8831,0,0,0,0,0,0,0,-1,629,1254,-202.012,-31.8831
-588,-230,-201.001,32.7799,0,0,0,0,0,0,0,-1,636,1254,-201.001,-32.7799
-581,-230,-58.0035,16.7986,0,0,0,0,0,0,0,-1,643,1254,-58.0036,-16.7985
-574,-230,-191.794,37.9409,0,0,0,0,0,0,0,-1,650,1254,-191.794,-37.9409
-567,-230,-56.2896,18.8512,0,0,0,0,0,0,0,-1,657,1254,-56.2896,-18.8512
-560,-230,-56.3123,19.355,0,0,0,0,0,0,0,-1,664,1254,-56.3123,-19.355
-553,-230,-13.1939,4.9718,0,0,0,0,0,0,0,-1,671,1254,-13.1939,-4.97175
-546,-230,-15.23,0.453979,0,0,0,0,0,0,0,-1,678,1254,-15.23,-0.453996
-539,-230,-25.8232,0.512817,0,0,0,0,0,0,0,-1,685,1254,-25.8232,-0.512878
-532,-230,-21.1644,1.52966,0,0,0,0,0,0,0,-1,692,1254,-21.1644,-1.52969
-525,-230,-29.4775,0.731445,0,0,0,0,0,0,0,-1,699,1254,-29.4775,-0.731432
-518,-230,-71.6359,0.529785,0,0,0,0,0,0,0,-1,706,1254,-71.6359,-0.529735
-511,-230,-71.8687,0.53125,0,0,0,0,0,0,0,-1,713,1254,-71.8687,-0.531259
-504,-230,-72.0195,0.526123,0,0,0,0,0,0,0,-1,720,1254,-72.0195,-0.526122
-497,-230,0,0,0,0,0,0,0,0,0,-1,727,1254,0,0
-490,-230,0,0,0,0,0,0,0,0,0,-1,734,1254,0,0
-483,-230,0,0,0,0,0,0,0,0,0,-1,741,1254,0,0
-476,-230,0,0,0,0,0,0,0,0,0,-1,748,1254,0,0
-469,-230,0,0,0,0,0,0,0,0,0,-1,755,1254,0,0
-462,-230,0,0,0,0,0,0,0,0,0,-1,762,1254,0,0
-455,-230,0,0,0,0,0,0,0,0,0,-1,769,1254,0,0
-448,-230,0,0,0,0,0,0,0,0,0,-1,776,1254,0,0
-441,-230,0,0,0,0,0,0,0,0,0,-1,783,1254,0,0
-434,-230,0,0,0,0,0,0,0,0,0,-1,790,1254,0,0
-427,-230,0,0,0,0,0,0,0,0,0,-1,797,1254,0,0
-420,-230,0,0,0,0,0,0,0,0,0,-1,804,1254,0,0
-413,-230,0,0,0,0,0,0,0,0,0,-1,811,1254,0,0
-406,-230,0,0,0,0,0,0,0,0,0,-1,818,1254,0,0
-399,-230,0,0,0,0,0,0,0,0,0,-1,825,1254,0,0
-392,-230,0,0,0,0,0,0,0,0,0,-1,832,1254,0,0
-385,-230,0,0,0,0,0,0,0,0,0,-1,839,1254,0,0
-378,-230,0,0,0,0,0,0,0,0,0,-1,846,1254,0,0
-371,-230,0,0,0,0,0,0,0,0,0,-1,853,1254,0,0
-364,-230,0,0,0,0,0,0,0,0,0,-1,860,1254,0,0
-357,-230,0,0,0,0,0,0,0,0,0,-1,867,1254,0,0
-350,-230,0,0,0,0,0,0,0,0,0,-1,874,1254,0,0
-343,-230,0,0,0,0,0,0,0,0,0,-1,881,1254,0,0
-336,-230,0,0,0,0,0,0,0,0,0,-1,888,1254,0,0
-329,-230,0,0,0,0,0,0,0,0,0,-1,895,1254,0,0
-322,-230,0,0,0,0,0,0,0,0,0,-1,902,1254,0,0
-315,-230,0,0,0,0,0,0,0,0,0,-1,909,1254,0,0
-308,-230,0,0,0,0,0,0,0,0,0,-1,916,1254,0,0
-301,-230,0,0,0,0,0,0,0,0,0,-1,923,1254,0,0
-294,-230,0,0,0,0,0,0,0,0,0,-1,930,1254,0,0
-287,-230,0,0,0,0,0,0,0,0,0,-1,937,1254,0,0
-280,-230,0,0,0,0,0,0,0,0,0,-1,944,1254,0,0
-273,-230,0,0,0,0,0,0,0,0,0,-1,951,1254,0,0
-266,-230,0,0,0,0,0,0,0,0,0,-1,958,1254,0,0
-259,-230,0,0,0,0,0,0,0,0,0,-1,965,1254,0,0
-252,-230,0,0,0,0,0,0,0,0,0,-1,972,1254,0,0
-245,-230,0,0,0,0,0,0,0,0,0,-1,979,1254,0,0
-238,-230,0,0,0,0,0,0,0,0,0,-1,986,1254,0,0
-231,-230,0,0,0,0,0,0,0,0,0,-1,993,1254,0,0
-224,-230,0,0,0,0,0,0,0,0,0,-1,1000,1254,0,0
-217,-230,0,0,0,0,0,0,0,0,0,-1,1007,1254,0,0
-210,-230,0,0,0,0,0,0,0,0,0,-1,1014,1254,0,0
-203,-230,0,0,0,0,0,0,0,0,0,-1,1021,1254,0,0
-196,-230,0,0,0,0,0,0,0,0,0,-1,1028,1254,0,0
-189,-230,0,0,0,0,0,0,0,0,0,-1,1035,1254,0,0
-182,-230,0,0,0,0,0,0,0,0,0,-1,1042,1254,0,0
-175,-230,0,0,0,0,0,0,0,0,0,-1,1049,1254,0,0
-168,-230,0,0,0,0,0,0,0,0,0,-1,1056,1254,0,0
-161,-230,0,0,0,0,0,0,0,0,0,-1,1063,1254,0,0
-154,-230,0,0,0,0,0,0,0,0,0,-1,1070,1254,0,0
-147,-230,0,0,0,0,0,0,0,0,0,-1,1077,1254,0,0
-140,-230,0,0,0,0,0,0,0,0,0,-1,1084,1254,0,0
-133,-230,0,0,0,0,0,0,0,0,0,-1,1091,1254,0,0
-126,-230,0,0,0,0,0,0,0,0,0,-1,1098,1254,0,0
-119,-230,0,0,0,0,0,0,0,0,0,-1,1105,1254,0,0
-112,-230,0,0,0,0,0,0,0,0,0,-1,1112,1254,0,0
-105,-230,0,0,0,0,0,0,0,0,0,-1,1119,1254,0,0
-98,-230,0,0,0,0,0,0,0,0,0,-1,1126,1254,0,0
-91,-230,0,0,0,0,0,0,0,0,0,-1,1133,1254,0,0
-84,-230,0,0,0,0,0,0,0,0,0,-1,1140,1254,0,0
-77,-230,0,0,0,0,0,0,0,0,0,-1,1147,1254,0,0
-70,-230,0,0,0,0,0,0,0,0,0,-1,1154,1254,0,0
-63,-230,0,0,0,0,0,0,0,0,0,-1,1161,1254,0,0
-56,-230,0,0,0,0,0,0,0,0,0,-1,1168,1254,0,0
-49,-230,0,0,0,0,0,0,0,0,0,-1,1175,1254,0,0
-42,-230,0,0,0,0,0,0,0,0,0,-1,1182,1254,0,0
-35,-230,0,0,0,0,0,0,0,0,0,-1,1189,1254,0,0
-28,-230,0,0,0,0,0,0,0,0,0,-1,1196,1254,0,0
-21,-230,0,0,0,0,0,0,0,0,0,-1,1203,1254,0,0
-14,-230,0,0,0,0,0,0,0,0,0,-1,1210,1254,0,0
-7,-230,0,0,0,0,0,0,0,0,0,-1,1217,1254,0,0
0,-230,0,0,0,0,0,0,0,0,0,-1,1224,1254,0,0
7,-230,0,0,0,0,0,0,0,0,0,-1,1231,1254,0,0
14,-230,0,0,0,0,0,0,0,0,0,-1,1238,1254,0,0
21,-230,0,0,0,0,0,0,0,0,0,-1,1245,1254,0,0
28,-230,0,0,0,0,0,0,0,0,0,-1,1252,1254,0,0
35,-230,0,0,0,0,0,0,0,0,0,-1,1259,1254,0,0
42,-230,0,0,0,0,0,0,0,0,0,-1,1266,1254,0,0
49,-230,0,0,0,0,0,0,0,0,0,-1,1273,1254,0,0
56,-230,0,0,0,0,0,0,0,0,0,-1,1280,1254,0,0
63,-230,0,0,0,0,0,0,0,0,0,-1,1287,1254,0,0
70,-230,0,0,0,0,0,0,0,0,0,-1,1294,1254,0,0
77,-230,0,0,0,0,0,0,0,0,0,-1,1301,1254,0,0
84,-230,0,0,0,0,0,0,0,0,0,-1,1308,1254,0,0
91,-230,0,0,0,0,0,0,0,0,0,-1,1315,1254,0,0
98,-230,0,0,0,0,0,0,0,0,0,-1,1322,1254,0,0
105,-230,0,0,0,0,0,0,0,0,0,-1,1329,1254,0,0
112,-230,0,0,0,0,0,0,0,0,0,-1,1336,1254,0,0
119,-230,0,0,0,0,0,0,0,0,0,-1,1343,1254,0,0
126,-230,0,0,0,0,0,0,0,0,0,-1,1350,1254,0,0
133,-230,0,0,0,0,0,0,0,0,0,-1,1357,1254,0,0
140,-230,0,0,0,0,0,0,0,0,0,-1,1364,1254,0,0
147,-230,0,0,0,0,0,0,0,0,0,-1,1371,1254,0,0
154,-230,0,0,0,0,0,0,0,0,0,-1,1378,1254,0,0
161,-230,0,0,0,0,0,0,0,0,0,-1,1385,1254,0,0
168,-230,0,0,0,0,0,0,0,0,0,-1,1392,1254,0,0
175,-230,0,0,0,0,0,0,0,0,0,-1,1399,1254,0,0
182,-230,0,0,0,0,0,0,0,0,0,-1,1406,1254,0,0
189,-230,0,0,0,0,0,0,0,0,0,-1,1413,1254,0,0
196,-230,0,0,0,0,0,0,0,0,0,-1,1420,1254,0,0
203,-230,0,0,0,0,0,0,0,0,0,-1,1427,1254,0,0
210,-230,0,0,0,0,0,0,0,0,0,-1,1434,1254,0,0
217,-230,0,0,0,0,0,0,0,0,0,-1,1441,1254,0,0
224,-230,0,0,0,0,0,0,0,0,0,-1,1448,1254,0,0
231,-230,0,0,0,0,0,0,0,0,0,-1,1455,1254,0,0
238,-230,0,0,0,0,0,0,0,0,0,-1,1462,1254,0,0
245,-230,0,0,0,0,0,0,0,0,0,-1,1469,1254,0,0
252,-230,0,0,0,0,0,0,0,0,0,-1,1476,1254,0,0
259,-230,0,0,0,0,0,0,0,0,0,-1,1483,1254,0,0
266,-230,0,0,0,0,0,0,0,0,0,-1,1490,1254,0,0
273,-230,0,0,0,0,0,0,0,0,0,-1,1497,1254,0,0
280,-230,0,0,0,0,0,0,0,0,0,-1,1504,1254,0,0
287,-230,0,0,0,0,0,0,0,0,0,-1,1511,1254,0,0
294,-230,0,0,0,0,0,0,0,0,0,-1,1518,1254,0,0
301,-230,0,0,0,0,0,0,0,0,0,-1,1525,1254,0,0
308,-230,0,0,0,0,0,0,0,0,0,-1,1532,1254,0,0
315,-230,0,0,0,0,0,0,0,0,0,-1,1539,1254,0,0
322,-230,0,0,0,0,0,0,0,0,0,-1,1546,1254,0,0
329,-230,0,0,0,0,0,0,0,0,0,-1,1553,1254,0,0
336,-230,0,0,0,0,0,0,0,0,0,-1,1560,1254,0,0
343,-230,0,0,0,0,0,0,0,0,0,-1,1567,1254,0,0
350,-230,0,0,0,0,0,0,0,0,0,-1,1574,1254,0,0
357,-230,0,0,0,0,0,0,0,0,0,-1,1581,1254,0,0
364,-230,0,0,0,0,0,0,0,0,0,-1,1588,1254,0,0
371,-230,0,0,0,0,0,0,0,0,0,-1,1595,1254,0,0
378,-230,0,0,0,0,0,0,0,0,0,-1,1602,1254,0,0
385,-230,0,0,0,0,0,0,0,0,0,-1,1609,1254,0,0
392,-230,0,0,0,0,0,0,0,0,0,-1,1616,1254,0,0
399,-230,0,0,0,0,0,0,0,0,0,-1,1623,1254,0,0
406,-230,0,0,0,0,0,0,0,0,0,-1,1630,1254,0,0
413,-230,0,0,0,0,0,0,0,0,0,-1,1637,1254,0,0
420,-230,0,0,0,0,0,0,0,0,0,-1,1644,1254,0,0
427,-230,0,0,0,0,0,0,0,0,0,-1,1651,1254,0,0
434,-230,0,0,0,0,0,0,0,0,0,-1,1658,1254,0,0
441,-230,0,0,0,0,0,0,0,0,0,-1,1665,1254,0,0
448,-230,0,0,0,0,0,0,0,0,0,-1,1672,1254,0,0
455,-230,0,0,0,0,0,0,0,0,0,-1,1679,1254,0,0
462,-230,0,0,0,0,0,0,0,0,0,-1,1686,1254,0,0
469,-230,0,0,0,0,0,0,0,0,0,-1,1693,1254,0,0
476,-230,0,0,0,0,0,0,0,0,0,-1,1700,1254,0,0
483,-230,0,0,0,0,0,0,0,0,0,-1,1707,1254,0,0
490,-230,0,0,0,0,0,0,0,0,0,-1,1714,1254,0,0
497,-230,0,0,0,0,0,0,0,0,0,-1,1721,1254,0,0
504,-230,0,0,0,0,0,0,0,0,0,-1,1728,1254,0,0
511,-230,0,0,0,0,0,0,0,0,0,-1,1735,1254,0,0
518,-230,0,0,0,0,0,0,0,0,0,-1,1742,1254,0,0
525,-230,0,0,0,0,0,0,0,0,0,-1,1749,1254,0,0
532,-230,0,0,0,0,0,0,0,0,0,-1,1756,1254,0,0
539,-230,0,0,0,0,0,0,0,0,0,-1,1763,1254,0,0
546,-230,0,0,0,0,0,0,0,0,0,-1,1770,1254,0,0
553,-230,0,0,0,0,0,0,0,0,0,-1,1777,1254,0,0
560,-230,0,0,0,0,0,0,0,0,0,-1,1784,1254,0,0
567,-230,0,0,0,0,0,0,0,0,0,-1,1791,1254,0,0
574,-230,0,0,0,0,0,0,0,0,0,-1,1798,1254,0,0
581,-230,0,0,0,0,0,0,0,0,0,-1,1805,1254,0,0
588,-230,0,0,0,0,0,0,0,0,0,-1,1812,1254,0,0
595,-230,0,0,0,0,0,0,0,0,0,-1,1819,1254,0,0
602,-230,0,0,0,0,0,0,0,0,0,-1,1826,1254,0,0
609,-230,0,0,0,0,0,0,0,0,0,-1,1833,1254,0,0
616,-230,227.934,9.09058,0,0,0,0,0,0,0,-1,1840,1254,227.934,-9.09059
623,-230,227.988,9.04382,0,0,0,0,0,0,0,-1,1847,1254,227.988,-9.04382
630,-230,227.828,8.95288,0,0,0,0,0,0,0,-1,1854,1254,227.828,-8.95286
637,-230,227.703,8.9093,0,0,0,0,0,0,0,-1,1861,1254,227.703,-8.90927
644,-230,227.711,8.81775,0,0,0,0,0,0,0,-1,1868,1254,227.711,-8.81772
651,-230,227.835,8.75574,0,0,0,0,0,0,0,-1,1875,1254,227.835,-8.75568
658,-230,92.1161,1.86768,0,0,0,0,0,0,0,-1,1882,1254,92.116,-1.86765
665,-230,56.2585,2.51587,0,0,0,0,0,0,0,-1,1889,1254,56.2586,-2.51586
672,-230,43.0962,2.78699,0,0,0,0,0,0,0,-1,1896,1254,43.0962,-2.78698
679,-230,27.9967,2.37708,0,0,0,0,0,0,0,-1,1903,1254,27.9967,-2.3771
686,-230,40.8854,10.1788,0,0,0,0,0,0,0,-1,1910,1254,40.8853,-10.1788
693,-230,84.3876,23.9386,0,0,0,0,0,0,0,-1,1917,1254,84.3876,-23.9386
700,-230,210.151,39.6305,0,0,0,0,0,0,0,-1,1924,1254,210.151,-39.6305
707,-230,209.447,38.2329,0,0,0,0,0,0,0,-1,1931,1254,209.447,-38.2329
714,-230,208.952,36.597,0,0,0,0,0,0,0,-1,1938,1254,208.952,-36.597
721,-230,208.575,35.323,0.00222322,0.0209595,0.00749963,0.0235917,-0.000408908,1.23326,0.0158658,0.0304149,1945,1254,208.575,-35.323
728,-230,208.6,33.6193,-0.00503421,0.0265331,0.0120906,0.0306318,-0.00913289,1.24396,0.0240506,0.0242156,1952,1254,208.6,-33.6193
735,-230,208.406,32.1086,-0.0126149,0.0323435,0.0167946,0.0379244,-0.0181959,1.24997,0.0330617,0.0248214,1959,1254,208.406,-32.1086
742,-230,208.077,30.5583,-0.0204112,0.0384169,0.0215847,0.0454869,-0.0274812,1.25426,0.0425536,0.0173429,1966,1254,208.077,-30.5583
749,-230,207.794,28.9791,-0.0283366,0.0447829,0.0264351,0.0533389,-0.0368926,1.25778,0.0523828,0.0233276,1973,1254,207.794,-28.9791
756,-230,207.25,27.6548,-0.0368991,0.0515558,0.0313864,0.0615609,-0.0469042,1.26221,0.0628127,0.043758,1980,1254,207.25,-27.6548
763,-230,206.706,26.3302,0,0,0,0,0,0,0,-1,1987,1254,206.706,-26.3302
770,-230,107.623,16.1041,0,0,0,0,0,0,0,-1,1994,1254,107.623,-16.1041
777,-230,41.8693,3.74707,0,0,0,0,0,0,0,-1,2001,1254,41.8692,-3.74713
784,-230,35.8896,1.80334,0,0,0,0,0,0,0,-1,2008,1254,35.8897,-1.80338
791,-230,35.6028,2.20642,0,0,0,0,0,0,0,-1,2015,1254,35.6027,-2.2064
798,-230,0,0,0,0,0,0,0,0,0,-1,2022,1254,0,0
805,-230,0,0,0,0,0,0,0,0,0,-1,2029,1254,0,0
812,-230,0,0,0,0,0,0,0,0,0,-1,2036,1254,0,0
-700,-237,0,0,0,0,0,0,0,0,0,-1,524,1261,0,0
-693,-237,0,0,0,0,0,0,0,0,0,-1,531,1261,0,0
-686,-237,0,0,0,0,0,0,0,0,0,-1,538,1261,0,0
-679,-237,0,0,0,0,0,0,0,0,0,-1,545,1261,0,0
-672,-237,-81.1678,23.7125,0,0,0,0,0,0,0,-1,552,1261,-81.1678,-23.7125
-665,-237,-81.6478,25.696,0,0,0,0,0,0,0,-1,559,1261,-81.6478,-25.6961
-658,-237,-81.9223,27.0465,0,0,0,0,0,0,0,-1,566,1261,-81.9223,-27.0465
-651,-237,-81.7989,29.6414,0,0,0,0,0,0,0,-1,573,1261,-81.7989,-29.6414
-644,-237,-62.5868,9.75488,0,0,0,0,0,0,0,-1,580,1261,-62.5868,-9.75482
-637,-237,-33.4961,2.71313,0,0,0,0,0,0,0,-1,587,1261,-33.4961,-2.71312
-630,-237,-45.178,6.85889,0,0,0,0,0,0,0,-1,594,1261,-45.1781,-6.85892
-623,-237,-199.289,26.0121,0,0,0,0,0,0,0,-1,601,1261,-199.289,-26.012
-616,-237,-199.436,27.6346,-0.0221926,0.0554164,-0.022338,0.0613866,-0.0281628,-1.30963,0.0528742,0.0286372,608,1261,-199.436,-27.6347
-609,-237,-199.906,29.0891,-0.0170785,0.0502306,-0.0195005,0.055472,-0.02232,-1.30822,0.0462527,0.023811,615,1261,-199.906,-29.0891
-602,-237,-200.123,30.4956,-0.0118749,0.0449493,-0.0159787,0.0491342,-0.0160598,-1.31464,0.0392212,0.0223806,622,1261,-200.123,-30.4956
-595,-237,-200.59,32.0397,-0.00651367,0.0395171,-0.0116868,0.0423143,-0.00931086,-1.33587,0.0317712,0.0414241,629,1261,-200.59,-32.0397
-588,-237,-201.056,33.717,0,0,0,0,0,0,0,-1,636,1261,-201.056,-33.7171
-581,-237,-189.68,36.1119,0,0,0,0,0,0,0,-1,643,1261,-189.68,-36.1119
-574,-237,-201.268,36.772,0,0,0,0,0,0,0,-1,650,1261,-201.268,-36.7719
-567,-237,-190.192,39.7859,0,0,0,0,0,0,0,-1,657,1261,-190.192,-39.7858
-560,-237,-55.2889,19.8724,0,0,0,0,0,0,0,-1,664,1261,-55.2889,-19.8725
-553,-237,-20.6102,6.92139,0,0,0,0,0,0,0,-1,671,1261,-20.6102,-6.92138
-546,-237,-11.192,1.14014,0,0,0,0,0,0,0,-1,678,1261,-11.192,-1.14011
-539,-237,-16.512,1.53455,0,0,0,0,0,0,0,-1,685,1261,-16.512,-1.53457
-532,-237,-29.7025,1.23621,0,0,0,0,0,0,0,-1,692,1261,-29.7025,-1.23618
-525,-237,-47.2925,0.590942,0,0,0,0,0,0,0,-1,699,1261,-47.2925,-0.590989
-518,-237,-48.2897,0.765869,0,0,0,0,0,0,0,-1,706,1261,-48.2897,-0.765854
-511,-237,-71.7244,0.621704,0,0,0,0,0,0,0,-1,713,1261,-71.7244,-0.621723
-504,-237,-72.0632,0.737671,0,0,0,0,0,0,0,-1,720,1261,-72.0632,-0.737635
-497,-237,-72.178,0.960449,0,0,0,0,0,0,0,-1,727,1261,-72.178,-0.960392
-490,-237,0,0,0,0,0,0,0,0,0,-1,734,1261,0,0
-483,-237,0,0,0,0,0,0,0,0,0,-1,741,1261,0,0
-476,-237,0,0,0,0,0,0,0,0,0,-1,748,1261,0,0
-469,-237,0,0,0,0,0,0,0,0,0,-1,755,1261,0,0
-462,-237,0,0,0,0,0,0,0,0,0,-1,762,1261,0,0
-455,-237,0,0,0,0,0,0,0,0,0,-1,769,1261,0,0
-448,-237,0,0,0,0,0,0,0,0,0,-1,776,1261,0,0
-441,-237,0,0,0,0,0,0,0,0,0,-1,783,1261,0,0
-434,-237,0,0,0,0,0,0,0,0,0,-1,790,1261,0,0
-427,-237,0,0,0,0,0,0,0,0,0,-1,797,1261,0,0
-420,-237,0,0,0,0,0,0,0,0,0,-1,804,1261,0,0
-413,-237,0,0,0,0,0,0,0,0,0,-1,811,1261,0,0
-406,-237,0,0,0,0,0,0,0,0,0,-1,818,1261,0,0
-399,-237,0,0,0,0,0,0,0,0,0,-1,825,1261,0,0
-392,-237,0,0,0,0,0,0,0,0,0,-1,832,1261,0,0
-385,-237,0,0,0,0,0,0,0,0,0,-1,839,1261,0,0
-378,-237,0,0,0,0,0,0,0,0,0,-1,846,1261,0,0
-371,-237,0,0,0,0,0,0,0,0,0,-1,853,1261,0,0
-364,-237,0,0,0,0,0,0,0,0,0,-1,860,1261,0,0
-357,-237,0,0,0,0,0,0,0,0,0,-1,867,1261,0,0
-350,-237,0,0,0,0,0,0,0,0,0,-1,874,1261,0,0
-343,-237,0,0,0,0,0,0,0,0,0,-1,881,1261,0,0
-336,-237,0,0,0,0,0,0,0,0,0,-1,888,1261,0,0
-329,-237,0,0,0,0,0,0,0,0,0,-1,895,1261,0,0
-322,-237,0,0,0,0,0,0,0,0,0,-1,902,1261,0,0
-315,-237,0,0,0,0,0,0,0,0,0,-1,909,1261,0,0
-308,-237,0,0,0,0,0,0,0,0,0,-1,916,1261,0,0
-301,-237,0,0,0,0,0,0,0,0,0,-1,923,1261,0,0
-294,-237,0,0,0,0,0,0,0,0,0,-1,930,1261,0,0
-287,-237,0,0,0,0,0,0,0,0,0,-1,937,1261,0,0
-280,-237,0,0,0,0,0,0,0,0,0,-1,944,1261,0,0
-273,-237,0,0,0,0,0,0,0,0,0,-1,951,1261,0,0
-266,-237,0,0,0,0,0,0,0,0,0,-1,958,1261,0,0
-259,-237,0,0,0,0,0,0,0,0,0,-1,965,1261,0,0
-252,-237,0,0,0,0,0,0,0,0,0,-1,972,1261,0,0
-245,-237,0,0,0,0,0,0,0,0,0,-1,979,1261,0,0
-238,-237,0,0,0,0,0,0,0,0,0,-1,986,1261,0,0
-231,-237,0,0,0,0,0,0,0,0,0,-1,993,1261,0,0
-224,-237,0,0,0,0,0,0,0,0,0,-1,1000,1261,0,0
-217,-237,0,0,0,0,0,0,0,0,0,-1,1007,1261,0,0
-210,-237,0,0,0,0,0,0,0,0,0,-1,1014,1261,0,0
-203,-237,0,0,0,0,0,0,0,0,0,-1,1021,1261,0,0
-196,-237,0,0,0,0,0,0,0,0,0,-1,1028,1261,0,0
-189,-237,0,0,0,0,0,0,0,0,0,-1,1035,1261,0,0
-182,-237,0,0,0,0,0,0,0,0,0,-1,1042,1261,0,0
-175,-237,0,0,0,0,0,0,0,0,0,-1,1049,1261,0,0
-168,-237,0,0,0,0,0,0,0,0,0,-1,1056,1261,0,0
-161,-237,0,0,0,0,0,0,0,0,0,-1,1063,1261,0,0
-154,-237,0,0,0,0,0,0,0,0,0,-1,1070,1261,0,0
-147,-237,0,0,0,0,0,0,0,0,0,-1,1077,1261,0,0
-140,-237,0,0,0,0,0,0,0,0,0,-1,1084,1261,0,0
-133,-237,0,0,0,0,0,0,0,0,0,-1,1091,1261,0,0
-126,-237,0,0,0,0,0,0,0,0,0,-1,1098,1261,0,0
-119,-237,0,0,0,0,0,0,0,0,0,-1,1105,1261,0,0
-112,-237,0,0,0,0,0,0,0,0,0,-1,1112,1261,0,0
-105,-237,0,0,0,0,0,0,0,0,0,-1,1119,1261,0,0
-98,-237,0,0,0,0,0,0,0,0,0,-1,1126,1261,0,0
-91,-237,0,0,0,0,0,0,0,0,0,-1,1133,1261,0,0
-84,-237,0,0,0,0,0,0,0,0,0,-1,1140,1261,0,0
-77,-237,0,0,0,0,0,0,0,0,0,-1,1147,1261,0,0
-70,-237,0,0,0,0,0,0,0,0,0,-1,1154,1261,0,0
-63,-237,0,0,0,0,0,0,0,0,0,-1,1161,1261,0,0
-56,-237,0,0,0,0,0,0,0,0,0,-1,1168,1261,0,0
-49,-237,0,0,0,0,0,0,0,0,0,-1,1175,1261,0,0
-42,-237,0,0,0,0,0,0,0,0,0,-1,1182,1261,0,0
-35,-237,0,0,0,0,0,0,0,0,0,-1,1189,1261,0,0
-28,-237,0,0,0,0,0,0,0,0,0,-1,1196,1261,0,0
-21,-237,0,0,0,0,0,0,0,0,0,-1,1203,1261,0,0
-14,-237,0,0,0,0,0,0,0,0,0,-1,1210,1261,0,0
-7,-237,0,0,0,0,0,0,0,0,0,-1,1217,1261,0,0
0,-237,0,0,0,0,0,0,0,0,0,-1,1224,1261,0,0
7,-237,0,0,0,0,0,0,0,0,0,-1,1231,1261,0,0
14,-237,0,0,0,0,0,0,0,0,0,-1,1238,1261,0,0
21,-237,0,0,0,0,0,0,0,0,0,-1,1245,1261,0,0
28,-237,0,0,0,0,0,0,0,0,0,-1,1252,1261,0,0
35,-237,0,0,0,0,0,0,0,0,0,-1,1259,1261,0,0
42,-237,0,0,0,0,0,0,0,0,0,-1,1266,1261,0,0
49,-237,0,0,0,0,0,0,0,0,0,-1,1273,1261,0,0
56,-237,0,0,0,0,0,0,0,0,0,-1,1280,1261,0,0
63,-237,0,0,0,0,0,0,0,0,0,-1,1287,1261,0,0
70,-237,0,0,0,0,0,0,0,0,0,-1,1294,1261,0,0
77,-237,0,0,0,0,0,0,0,0,0,-1,1301,1261,0,0
84,-237,0,0,0,0,0,0,0,0,0,-1,1308,1261,0,0
91,-237,0,0,0,0,0,0,0,0,0,-1,1315,1261,0,0
98,-237,0,0,0,0,0,0,0,0,0,-1,1322,1261,0,0
105,-237,0,0,0,0,0,0,0,0,0,-1,1329,1261,0,0
112,-237,0,0,0,0,0,0,0,0,0,-1,1336,1261,0,0
119,-237,0,0,0,0,0,0,0,0,0,-1,1343,1261,0,0
126,-237,0,0,0,0,0,0,0,0,0,-1,1350,1261,0,0
133,-237,0,0,0,0,0,0,0,0,0,-1,1357,1261,0,0
140,-237,0,0,0,0,0,0,0,0,0,-1,1364,1261,0,0
147,-237,0,0,0,0,0,0,0,0,0,-1,1371,1261,0,0
154,-237,0,0,0,0,0,0,0,0,0,-1,1378,1261,0,0
161,-237,0,0,0,0,0,0,0,0,0,-1,1385,1261,0,0
168,-237,0,0,0,0,0,0,0,0,0,-1,1392,1261,0,0
175,-237,0,0,0,0,0,0,0,0,0,-1,1399,1261,0,0
182,-237,0,0,0,0,0,0,0,0,0,-1,1406,1261,0,0
189,-237,0,0,0,0,0,0,0,0,0,-1,1413,1261,0,0
196,-237,0,0,0,0,0,0,0,0,0,-1,1420,1261,0,0
203,-237,0,0,0,0,0,0,0,0,0,-1,1427,1261,0,0
210,-237,0,0,0,0,0,0,0,0,0,-1,1434,1261,0,0
217,-237,0,0,0,0,0,0,0,0,0,-1,1441,1261,0,0
224,-237,0,0,0,0,0,0,0,0,0,-1,1448,1261,0,0
231,-237,0,0,0,0,0,0,0,0,0,-1,1455,1261,0,0
238,-237,0,0,0,0,0,0,0,0,0,-1,1462,1261,0,0
245,-237,0,0,0,0,0,0,0,0,0,-1,1469,1261,0,0
252,-237,0,0,0,0,0,0,0,0,0,-1,1476,1261,0,0
259,-237,0,0,0,0,0,0,0,0,0,-1,1483,1261,0,0
266,-237,0,0,0,0,0,0,0,0,0,-1,1490,1261,0,0
273,-237,0,0,0,0,0,0,0,0,0,-1,1497,1261,0,0
280,-237,0,0,0,0,0,0,0,0,0,-1,1504,1261,0,0
287,-237,0,0,0,0,0,0,0,0,0,-1,1511,1261,0,0
294,-237,0,0,0,0,0,0,0,0,0,-1,1518,1261,0,0
301,-237,0,0,0,0,0,0,0,0,0,-1,1525,1261,0,0
308,-237,0,0,0,0,0,0,0,0,0,-1,1532,1261,0,0
315,-237,0,0,0,0,0,0,0,0,0,-1,1539,1261,0,0
322,-237,0,0,0,0,0,0,0,0,0,-1,1546,1261,0,0
329,-237,0,0,0,0,0,0,0,0,0,-1,1553,1261,0,0
336,-237,0,0,0,0,0,0,0,0,0,-1,1560,1261,0,0
343,-237,0,0,0,0,0,0,0,0,0,-1,1567,1261,0,0
350,-237,0,0,0,0,0,0,0,0,0,-1,1574,1261,0,0
357,-237,0,0,0,0,0,0,0,0,0,-1,1581,1261,0,0
364,-237,0,0,0,0,0,0,0,0,0,-1,1588,1261,0,0
371,-237,0,0,0,0,0,0,0,0,0,-1,1595,1261,0,0
378,-237,0,0,0,0,0,0,0,0,0,-1,1602,1261,0,0
385,-237,0,0,0,0,0,0,0,0,0,-1,1609,1261,0,0
392,-237,0,0,0,0,0,0,0,0,0,-1,1616,1261,0,0
399,-237,0,0,0,0,0,0,0,0,0,-1,1623,1261,0,0
406,-237,0,0,0,0,0,0,0,0,0,-1,1630,1261,0,0
413,-237,0,0,0,0,0,0,0,0,0,-1,1637,1261,0,0
420,-237,0,0,0,0,0,0,0,0,0,-1,1644,1261,0,0
427,-237,0,0,0,0,0,0,0,0,0,-1,1651,1261,0,0
434,-237,0,0,0,0,0,0,0,0,0,-1,1658,1261,0,0
441,-237,0,0,0,0,0,0,0,0,0,-1,1665,1261,0,0
448,-237,0,0,0,0,0,0,0,0,0,-1,1672,1261,0,0
455,-237,0,0,0,0,0,0,0,0,0,-1,1679,1261,0,0
462,-237,0,0,0,0,0,0,0,0,0,-1,1686,1261,0,0
469,-237,0,0,0,0,0,0,0,0,0,-1,1693,1261,0,0
476,-237,0,0,0,0,0,0,0,0,0,-1,1700,1261,0,0
483,-237,0,0,0,0,0,0,0,0,0,-1,1707,1261,0,0
490,-237,0,0,0,0,0,0,0,0,0,-1,1714,1261,0,0
497,-237,0,0,0,0,0,0,0,0,0,-1,1721,1261,0,0
504,-237,0,0,0,0,0,0,0,0,0,-1,1728,1261,0,0
511,-237,0,0,0,0,0,0,0,0,0,-1,1735,1261,0,0
518,-237,0,0,0,0,0,0,0,0,0,-1,1742,1261,0,0
525,-237,0,0,0,0,0,0,0,0,0,-1,1749,1261,0,0
532,-237,0,0,0,0,0,0,0,0,0,-1,1756,1261,0,0
539,-237,0,0,0,0,0,0,0,0,0,-1,1763,1261,0,0
546,-237,0,0,0,0,0,0,0,0,0,-1,1770,1261,0,0
553,-237,0,0,0,0,0,0,0,0,0,-1,1777,1261,0,0
560,-237,0,0,0,0,0,0,0,0,0,-1,1784,1261,0,0
567,-237,0,0,0,0,0,0,0,0,0,-1,1791,1261,0,0
574,-237,0,0,0,0,0,0,0,0,0,-1,1798,1261,0,0
581,-237,0,0,0,0,0,0,0,0,0,-1,1805,1261,0,0
588,-237,0,0,0,0,0,0,0,0,0,-1,1812,1261,0,0
595,-237,0,0,0,0,0,0,0,0,0,-1,1819,1261,0,0
602,-237,0,0,0,0,0,0,0,0,0,-1,1826,1261,0,0
609,-237,0,0,0,0,0,0,0,0,0,-1,1833,1261,0,0
616,-237,227.896,8.94531,0,0,0,0,0,0,0,-1,1840,1261,227.896,-8.94529
623,-237,227.924,8.94092,0,0,0,0,0,0,0,-1,1847,1261,227.924,-8.9409
630,-237,227.806,8.86938,0,0,0,0,0,0,0,-1,1854,1261,227.806,-8.86941
637,-237,227.693,8.8219,0,0,0,0,0,0,0,-1,1861,1261,227.693,-8.82195
644,-237,227.704,8.81177,0,0,0,0,0,0,0,-1,1868,1261,227.704,-8.81171
651,-237,102.834,1.94067,0,0,0,0,0,0,0,-1,1875,1261,102.834,-1.94072
658,-237,76.8235,1.29675,0,0,0,0,0,0,0,-1,1882,1261,76.8235,-1.2968
665,-237,57.9302,3.30676,0,0,0,0,0,0,0,-1,1889,1261,57.9302,-3.30671
672,-237,45.3922,1.95618,0,0,0,0,0,0,0,-1,1896,1261,45.3922,-1.95623
679,-237,23.1501,7.37488,0,0,0,0,0,0,0,-1,1903,1261,23.1502,-7.37493
686,-237,67.415,18.053,0,0,0,0,0,0,0,-1,1910,1261,67.415,-18.053
693,-237,90.6783,27.291,0,0,0,0,0,0,0,-1,1917,1261,90.6784,-27.291
700,-237,208.215,40.1598,0,0,0,0,0,0,0,-1,1924,1261,208.215,-40.1598
707,-237,207.766,38.5015,0,0,0,0,0,0,0,-1,1931,1261,207.766,-38.5014
714,-237,207.123,36.8446,0,0,0,0,0,0,0,-1,1938,1261,207.123,-36.8446
721,-237,206.969,35.2574,-0.000686179,0.0222202,0.00910698,0.0253996,-0.00386557,1.23491,0.0183578,0.0341118,1945,1261,206.969,-35.2574
728,-237,206.786,33.6442,-0.00777115,0.0278426,0.0141162,0.0327591,-0.0126877,1.23565,0.0270783,0.0225146,1952,1261,206.786,-33.6441
735,-237,206.54,32.0632,-0.0152837,0.0336715,0.019335,0.0403867,-0.021999,1.23652,0.0365362,0.0284487,1959,1261,206.54,-32.0633
742,-237,206.341,30.5571,-0.0231278,0.039731,0.0247438,0.0483023,-0.0316992,1.23733,0.0465193,0.02559,1966,1261,206.341,-30.5572
749,-237,206.159,29.0325,0,0,0,0,0,0,0,-1,1973,1261,206.159,-29.0324
756,-237,205.063,27.2671,0,0,0,0,0,0,0,-1,1980,1261,205.063,-27.2671
763,-237,106.22,17.7108,0,0,0,0,0,0,0,-1,1987,1261,106.22,-17.7108
770,-237,105.618,16.0095,0,0,0,0,0,0,0,-1,1994,1261,105.618,-16.0095
777,-237,56.8215,4.47815,0,0,0,0,0,0,0,-1,2001,1261,56.8214,-4.47817
784,-237,36.3441,1.68591,0,0,0,0,0,0,0,-1,2008,1261,36.3441,-1.68592
791,-237,32.3025,6.03235,0,0,0,0,0,0,0,-1,2015,1261,32.3025,-6.03229
798,-237,0,0,0,0,0,0,0,0,0,-1,2022,1261,0,0
805,-237,0,0,0,0,0,0,0,0,0,-1,2029,1261,0,0
812,-237,0,0,0,0,0,0,0,0,0,-1,2036,1261,0,0
-700,-244,0,0,0,0,0,0,0,0,0,-1,524,1268,0,0
-693,-244,0,0,0,0,0,0,0,0,0,-1,531,1268,0,0
-686,-244,0,0,0,0,0,0,0,0,0,-1,538,1268,0,0
-679,-244,0,0,0,0,0,0,0,0,0,-1,545,1268,0,0
-672,-244,-74.9612,20.7479,0,0,0,0,0,0,0,-1,552,1268,-74.9612,-20.7479
-665,-244,-75.2466,22.6189,0,0,0,0,0,0,0,-1,559,1268,-75.2466,-22.6189
-658,-244,-82.4415,27.5525,0,0,0,0,0,0,0,-1,566,1268,-82.4415,-27.5525
-651,-244,-75.8113,25.9297,0,0,0,0,0,0,0,-1,573,1268,-75.8113,-25.9297
-644,-244,-62.6064,9.31079,0,0,0,0,0,0,0,-1,580,1268,-62.6065,-9.31082
-637,-244,-51.7188,8.54675,0,0,0,0,0,0,0,-1,587,1268,-51.7187,-8.54672
-630,-244,-51.6189,9.35242,0,0,0,0,0,0,0,-1,594,1268,-51.6189,-9.35244
-623,-244,-197.433,25.933,0,0,0,0,0,0,0,-1,601,1268,-197.433,-25.933
-616,-244,-197.581,27.5033,-0.0238639,0.0578408,-0.024036,0.0643872,-0.0304103,-1.30489,0.0558909,0.0383021,608,1268,-197.581,-27.5033
-609,-244,-198.103,28.9869,-0.0185796,0.0523582,-0.0212151,0.0582187,-0.0244401,-1.30127,0.0490334,0.0239549,615,1268,-198.103,-28.9869
-602,-244,-198.363,30.4285,-0.0132512,0.0468401,-0.0176941,0.0516631,-0.0180742,-1.30468,0.0417906,0.0244512,622,1268,-198.363,-30.4285
-595,-244,-198.7,32.0079,-0.00781112,0.0412294,-0.0133871,0.0446458,-0.0112275,-1.32093,0.0341277,0.0273081,629,1268,-198.7,-32.0079
-588,-244,-199.012,33.6216,0,0,0,0,0,0,0,-1,636,1268,-199.012,-33.6216
-581,-244,-199.657,35.4507,0,0,0,0,0,0,0,-1,643,1268,-199.657,-35.4507
-574,-244,-199.336,36.7775,0,0,0,0,0,0,0,-1,650,1268,-199.336,-36.7775
-567,-244,-199.629,38.5947,0,0,0,0,0,0,0,-1,657,1268,-199.629,-38.5947
-560,-244,-159.489,42.7916,0,0,0,0,0,0,0,-1,664,1268,-159.489,-42.7916
-553,-244,-54.347,20.9492,0,0,0,0,0,0,0,-1,671,1268,-54.347,-20.9492
-546,-244,-11.2686,4.41772,0,0,0,0,0,0,0,-1,678,1268,-11.2686,-4.41767
-539,-244,-12.8706,0.3302,0,0,0,0,0,0,0,-1,685,1268,-12.8706,-0.330156
-532,-244,-18.1502,0.816528,0,0,0,0,0,0,0,-1,692,1268,-18.1502,-0.816514
-525,-244,-33.0835,0.693604,0,0,0,0,0,0,0,-1,699,1268,-33.0835,-0.69365
-518,-244,-47.5015,0.609131,0,0,0,0,0,0,0,-1,706,1268,-47.5015,-0.60919
-511,-244,-48.6138,1.11877,0,0,0,0,0,0,0,-1,713,1268,-48.6138,-1.11872
-504,-244,-72.0964,0.876465,0,0,0,0,0,0,0,-1,720,1268,-72.0964,-0.876515
-497,-244,-72.4528,1.26904,0,0,0,0,0,0,0,-1,727,1268,-72.4529,-1.26907
-490,-244,0,0,0,0,0,0,0,0,0,-1,734,1268,0,0
-483,-244,0,0,0,0,0,0,0,0,0,-1,741,1268,0,0
-476,-244,0,0,0,0,0,0,0,0,0,-1,748,1268,0,0
-469,-244,0,0,0,0,0,0,0,0,0,-1,755,1268,0,0
-462,-244,0,0,0,0,0,0,0,0,0,-1,762,1268,0,0
-455,-244,0,0,0,0,0,0,0,0,0,-1,769,1268,0,0
-448,-244,0,0,0,0,0,0,0,0,0,-1,776,1268,0,0
-441,-244,0,0,0,0,0,0,0,0,0,-1,783,1268,0,0
-434,-244,0,0,0,0,0,0,0,0,0,-1,790,1268,0,0
-427,-244,0,0,0,0,0,0,0,0,0,-1,797,1268,0,0
-420,-244,0,0,0,0,0,0,0,0,0,-1,804,1268,0,0
-413,-244,0,0,0,0,0,0,0,0,0,-1,811,1268,0,0
-406,-244,0,0,0,0,0,0,0,0,0,-1,818,1268,0,0
-399,-244,0,0,0,0,0,0,0,0,0,-1,825,1268,0,0
-392,-244,0,0,0,0,0,0,0,0,0,-1,832,1268,0,0
-385,-244,0,0,0,0,0,0,0,0,0,-1,839,1268,0,0
-378,-244,0,0,0,0,0,0,0,0,0,-1,846,1268,0,0
-371,-244,0,0,0,0,0,0,0,0,0,-1,853,1268,0,0
-364,-244,0,0,0,0,0,0,0,0,0,-1,860,1268,0,0
-357,-244,0,0,0,0,0,0,0,0,0,-1,867,1268,0,0
-350,-244,0,0,0,0,0,0,0,0,0,-1,874,1268,0,0
-343,-244,0,0,0,0,0,0,0,0,0,-1,881,1268,0,0
-336,-244,0,0,0,0,0,0,0,0,0,-1,888,1268,0,0
-329,-244,0,0,0,0,0,0,0,0,0,-1,895,1268,0,0
-322,-244,0,0,0,0,0,0,0,0,0,-1,902,1268,0,0
-315,-244,0,0,0,0,0,0,0,0,0,-1,909,1268,0,0
-308,-244,0,0,0,0,0,0,0,0,0,-1,916,1268,0,0
-301,-244,0,0,0,0,0,0,0,0,0,-1,923,1268,0,0
-294,-244,0,0,0,0,0,0,0,0,0,-1,930,1268,0,0
-287,-244,0,0,0,0,0,0,0,0,0,-1,937,1268,0,0
-280,-244,0,0,0,0,0,0,0,0,0,-1,944,1268,0,0
-273,-244,0,0,0,0,0,0,0,0,0,-1,951,1268,0,0
-266,-244,0,0,0,0,0,0,0,0,0,-1,958,1268,0,0
-259,-244,0,0,0,0,0,0,0,0,0,-1,965,1268,0,0
-252,-244,0,0,0,0,0,0,0,0,0,-1,972,1268,0,0
-245,-244,0,0,0,0,0,0,0,0,0,-1,979,1268,0,0
-238,-244,0,0,0,0,0,0,0,0,0,-1,986,1268,0,0
-231,-244,0,0,0,0,0,0,0,0,0,-1,993,1268,0,0
-224,-244,0,0,0,0,0,0,0,0,0,-1,1000,1268,0,0
-217,-244,0,0,0,0,0,0,0,0,0,-1,1007,1268,0,0
-210,-244,0,0,0,0,0,0,0,0,0,-1,1014,1268,0,0
-203,-244,0,0,0,0,0,0,0,0,0,-1,1021,1268,0,0
-196,-244,0,0,0,0,0,0,0,0,0,-1,1028,1268,0,0
-189,-244,0,0,0,0,0,0,0,0,0,-1,1035,1268,0,0
-182,-244,0,0,0,0,0,0,0,0,0,-1,1042,1268,0,0
-175,-244,0,0,0,0,0,0,0,0,0,-1,1049,1268,0,0
-168,-244,0,0,0,0,0,0,0,0,0,-1,1056,1268,0,0
-161,-244,0,0,0,0,0,0,0,0,0,-1,1063,1268,0,0
-154,-244,0,0,0,0,0,0,0,0,0,-1,1070,1268,0,0
-147,-244,0,0,0,0,0,0,0,0,0,-1,1077,1268,0,0
-140,-244,0,0,0,0,0,0,0,0,0,-1,1084,1268,0,0
-133,-244,0,0,0,0,0,0,0,0,0,-1,1091,1268,0,0
-126,-244,0,0,0,0,0,0,0,0,0,-1,1098,1268,0,0
-119,-244,0,0,0,0,0,0,0,0,0,-1,1105,1268,0,0
-112,-244,0,0,0,0,0,0,0,0,0,-1,1112,1268,0,0
-105,-244,0,0,0,0,0,0,0,0,0,-1,1119,1268,0,0
-98,-244,0,0,0,0,0,0,0,0,0,-1,1126,1268,0,0
-91,-244,0,0,0,0,0,0,0,0,0,-1,1133,1268,0,0
-84,-244,0,0,0,0,0,0,0,0,0,-1,1140,1268,0,0
-77,-244,0,0,0,0,0,0,0,0,0,-1,1147,1268,0,0
-70,-244,0,0,0,0,0,0,0,0,0,-1,1154,1268,0,0
-63,-244,0,0,0,0,0,0,0,0,0,-1,1161,1268,0,0
-56,-244,0,0,0,0,0,0,0,0,0,-1,1168,1268,0,0
-49,-244,0,0,0,0,0,0,0,0,0,-1,1175,1268,0,0
-42,-244,0,0,0,0,0,0,0,0,0,-1,1182,1268,0,0
-35,-244,0,0,0,0,0,0,0,0,0,-1,1189,1268,0,0
-28,-244,0,0,0,0,0,0,0,0,0,-1,1196,1268,0,0
-21,-244,0,0,0,0,0,0,0,0,0,-1,1203,1268,0,0
-14,-244,0,0,0,0,0,0,0,0,0,-1,1210,1268,0,0
-7,-244,0,0,0,0,0,0,0,0,0,-1,1217,1268,0,0
0,-244,0,0,0,0,0,0,0,0,0,-1,1224,1268,0,0
7,-244,0,0,0,0,0,0,0,0,0,-1,1231,1268,0,0
14,-244,0,0,0,0,0,0,0,0,0,-1,1238,1268,0,0
21,-244,0,0,0,0,0,0,0,0,0,-1,1245,1268,0,0
28,-244,0,0,0,0,0,0,0,0,0,-1,1252,1268,0,0
35,-244,0,0,0,0,0,0,0,0,0,-1,1259,1268,0,0
42,-244,0,0,0,0,0,0,0,0,0,-1,1266,1268,0,0
49,-244,0,0,0,0,0,0,0,0,0,-1,1273,1268,0,0
56,-244,0,0,0,0,0,0,0,0,0,-1,1280,1268,0,0
63,-244,0,0,0,0,0,0,0,0,0,-1,1287,1268,0,0
70,-244,0,0,0,0,0,0,0,0,0,-1,1294,1268,0,0
77,-244,0,0,0,0,0,0,0,0,0,-1,1301,1268,0,0
84,-244,0,0,0,0,0,0,0,0,0,-1,1308,1268,0,0
91,-244,0,0,0,0,0,0,0,0,0,-1,1315,1268,0,0
98,-244,0,0,0,0,0,0,0,0,0,-1,1322,1268,0,0
105,-244,0,0,0,0,0,0,0,0,0,-1,1329,1268,0,0
112,-244,0,0,0,0,0,0,0,0,0,-1,1336,1268,0,0
119,-244,0,0,0,0,0,0,0,0,0,-1,1343,1268,0,0
126,-244,0,0,0,0,0,0,0,0,0,-1,1350,1268,0,0
133,-244,0,0,0,0,0,0,0,0,0,-1,1357,1268,0,0
140,-244,0,0,0,0,0,0,0,0,0,-1,1364,1268,0,0
147,-244,0,0,0,0,0,0,0,0,0,-1,1371,1268,0,0
154,-244,0,0,0,0,0,0,0,0,0,-1,1378,1268,0,0
161,-244,0,0,0,0,0,0,0,0,0,-1,1385,1268,0,0
168,-244,0,0,0,0,0,0,0,0,0,-1,1392,1268,0,0
175,-244,0,0,0,0,0,0,0,0,0,-1,1399,1268,0,0
182,-244,0,0,0,0,0,0,0,0,0,-1,1406,1268,0,0
189,-244,0,0,0,0,0,0,0,0,0,-1,1413,1268,0,0
196,-244,0,0,0,0,0,0,0,0,0,-1,1420,1268,0,0
203,-244,0,0,0,0,0,0,0,0,0,-1,1427,1268,0,0
210,-244,0,0,0,0,0,0,0,0,0,-1,1434,1268,0,0
217,-244,0,0,0,0,0,0,0,0,0,-1,1441,1268,0,0
224,-244,0,0,0,0,0,0,0,0,0,-1,1448,1268,0,0
231,-244,0,0,0,0,0,0,0,0,0,-1,1455,1268,0,0
238,-244,0,0,0,0,0,0,0,0,0,-1,1462,1268,0,0
245,-244,0,0,0,0,0,0,0,0,0,-1,1469,1268,0,0
252,-244,0,0,0,0,0,0,0,0,0,-1,1476,1268,0,0
259,-244,0,0,0,0,0,0,0,0,0,-1,1483,1268,0,0
266,-244,0,0,0,0,0,0,0,0,0,-1,1490,1268,0,0
273,-244,0,0,0,0,0,0,0,0,0,-1,1497,1268,0,0
280,-244,0,0,0,0,0,0,0,0,0,-1,1504,1268,0,0
287,-244,0,0,0,0,0,0,0,0,0,-1,1511,1268,0,0
294,-244,0,0,0,0,0,0,0,0,0,-1,1518,1268,0,0
301,-244,0,0,0,0,0,0,0,0,0,-1,1525,1268,0,0
308,-244,0,0,0,0,0,0,0,0,0,-1,1532,1268,0,0
315,-244,0,0,0,0,0,0,0,0,0,-1,1539,1268,0,0
322,-244,0,0,0,0,0,0,0,0,0,-1,1546,1268,0,0
329,-244,0,0,0,0,0,0,0,0,0,-1,1553,1268,0,0
336,-244,0,0,0,0,0,0,0,0,0,-1,1560,1268,0,0
343,-244,0,0,0,0,0,0,0,0,0,-1,1567,1268,0,0
350,-244,0,0,0,0,0,0,0,0,0,-1,1574,1268,0,0
357,-244,0,0,0,0,0,0,0,0,0,-1,1581,1268,0,0
364,-244,0,0,0,0,0,0,0,0,0,-1,1588,1268,0,0
371,-244,0,0,0,0,0,0,0,0,0,-1,1595,1268,0,0
378,-244,0,0,0,0,0,0,0,0,0,-1,1602,1268,0,0
385,-244,0,0,0,0,0,0,0,0,0,-1,1609,1268,0,0
392,-244,0,0,0,0,0,0,0,0,0,-1,1616,1268,0,0
399,-244,0,0,0,0,0,0,0,0,0,-1,1623,1268,0,0
406,-244,0,0,0,0,0,0,0,0,0,-1,1630,1268,0,0
413,-244,0,0,0,0,0,0,0,0,0,-1,1637,1268,0,0
420,-244,0,0,0,0,0,0,0,0,0,-1,1644,1268,0,0
427,-244,0,0,0,0,0,0,0,0,0,-1,1651,1268,0,0
434,-244,0,0,0,0,0,0,0,0,0,-1,1658,1268,0,0
441,-244,0,0,0,0,0,0,0,0,0,-1,1665,1268,0,0
448,-244,0,0,0,0,0,0,0,0,0,-1,1672,1268,0,0
455,-244,0,0,0,0,0,0,0,0,0,-1,1679,1268,0,0
462,-244,0,0,0,0,0,0,0,0,0,-1,1686,1268,0,0
469,-244,0,0,0,0,0,0,0,0,0,-1,1693,1268,0,0
476,-244,0,0,0,0,0,0,0,0,0,-1,1700,1268,0,0
483,-244,0,0,0,0,0,0,0,0,0,-1,1707,1268,0,0
490,-244,0,0,0,0,0,0,0,0,0,-1,1714,1268,0,0
497,-244,0,0,0,0,0,0,0,0,0,-1,1721,1268,0,0
504,-244,0,0,0,0,0,0,0,0,0,-1,1728,1268,0,0
511,-244,0,0,0,0,0,0,0,0,0,-1,1735,1268,0,0
518,-244,0,0,0,0,0,0,0,0,0,-1,1742,1268,0,0
525,-244,0,0,0,0,0,0,0,0,0,-1,1749,1268,0,0
532,-244,0,0,0,0,0,0,0,0,0,-1,1756,1268,0,0
539,-244,0,0,0,0,0,0,0,0,0,-1,1763,1268,0,0
546,-244,0,0,0,0,0,0,0,0,0,-1,1770,1268,0,0
553,-244,0,0,0,0,0,0,0,0,0,-1,1777,1268,0,0
560,-244,0,0,0,0,0,0,0,0,0,-1,1784,1268,0,0
567,-244,0,0,0,0,0,0,0,0,0,-1,1791,1268,0,0
574,-244,0,0,0,0,0,0,0,0,0,-1,1798,1268,0,0
581,-244,0,0,0,0,0,0,0,0,0,-1,1805,1268,0,0
588,-244,0,0,0,0,0,0,0,0,0,-1,1812,1268,0,0
595,-244,0,0,0,0,0,0,0,0,0,-1,1819,1268,0,0
602,-244,0,0,0,0,0,0,0,0,0,-1,1826,1268,0,0
609,-244,0,0,0,0,0,0,0,0,0,-1,1833,1268,0,0
616,-244,227.827,8.81042,0,0,0,0,0,0,0,-1,1840,1268,227.827,-8.81038
623,-244,227.853,8.95178,0,0,0,0,0,0,0,-1,1847,1268,227.853,-8.95177
630,-244,227.762,8.90601,0,0,0,0,0,0,0,-1,1854,1268,227.762,-8.90597
637,-244,227.687,8.76819,0,0,0,0,0,0,0,-1,1861,1268,227.687,-8.76824
644,-244,114.925,3.12561,0,0,0,0,0,0,0,-1,1868,1268,114.925,-3.12563
651,-244,90.5771,1.93823,0,0,0,0,0,0,0,-1,1875,1268,90.5771,-1.93817
658,-244,71.6105,1.55334,0,0,0,0,0,0,0,-1,1882,1268,71.6104,-1.55332
665,-244,50.7988,1.09888,0,0,0,0,0,0,0,-1,1889,1268,50.7989,-1.09893
672,-244,32.224,3.6123,0,0,0,0,0,0,0,-1,1896,1268,32.224,-3.6123
679,-244,27.2593,7.90649,0,0,0,0,0,0,0,-1,1903,1268,27.2592,-7.9065
686,-244,84.4209,27.0175,0,0,0,0,0,0,0,-1,1910,1268,84.4209,-27.0174
693,-244,206.654,42.4213,0,0,0,0,0,0,0,-1,1917,1268,206.654,-42.4213
700,-244,206.335,40.5974,0.0126964,0.00979246,-0.00442889,0.0159052,0.0065836,-0.626999,0.00922814,0.0488142,1924,1268,206.335,-40.5974
707,-244,205.944,38.7148,0,0,0,0,0,0,0,-1,1931,1268,205.944,-38.7149
714,-244,205.356,37.0084,0.00296766,0.0184302,0.00562729,0.0202613,0.00113656,1.25621,0.0131451,0.0493835,1938,1268,205.356,-37.0084
721,-244,205.277,35.3981,-0.00345992,0.0237074,0.0107545,0.0274493,-0.00720183,1.23596,0.0211136,0.0376423,1945,1268,205.277,-35.3981
728,-244,204.902,33.7585,-0.0104767,0.0291744,0.0161739,0.034935,-0.0162373,1.22864,0.0301945,0.041751,1952,1268,204.902,-33.7585
735,-244,204.552,31.8483,-0.0180032,0.0348439,0.0218773,0.0427251,-0.0258845,1.22502,0.0400076,0.0414528,1959,1268,204.552,-31.8483
742,-244,204.316,30.5625,-0.0259698,0.0407322,0.0278571,0.0508358,-0.0360734,1.22286,0.0504178,0.0306927,1966,1268,204.316,-30.5624
749,-244,204.021,29.3899,-0.0343176,0.0468605,0.0341071,0.0592881,-0.0467452,1.22138,0.061361,0.0419162,1973,1268,204.021,-29.3899
756,-244,203.441,28.0548,0,0,0,0,0,0,0,-1,1980,1268,203.441,-28.0548
763,-244,104.206,18.0935,0,0,0,0,0,0,0,-1,1987,1268,104.206,-18.0935
770,-244,56.2969,5.43298,0,0,0,0,0,0,0,-1,1994,1268,56.2969,-5.43297
777,-244,48.7119,2.7002,0,0,0,0,0,0,0,-1,2001,1268,48.712,-2.70019
784,-244,31.7908,5.20081,0,0,0,0,0,0,0,-1,2008,1268,31.7907,-5.20083
791,-244,0,0,0,0,0,0,0,0,0,-1,2015,1268,0,0
798,-244,0,0,0,0,0,0,0,0,0,-1,2022,1268,0,0
805,-244,0,0,0,0,0,0,0,0,0,-1,2029,1268,0,0
812,-244,0,0,0,0,0,0,0,0,0,-1,2036,1268,0,0
-700,-251,0,0,0,0,0,0,0,0,0,-1,524,1275,0,0
-693,-251,0,0,0,0,0,0,0,0,0,-1,531,1275,0,0
-686,-251,0,0,0,0,0,0,0,0,0,-1,538,1275,0,0
-679,-251,0,0,0,0,0,0,0,0,0,-1,545,1275,0,0
-672,-251,0,0,0,0,0,0,0,0,0,-1,552,1275,0,0
-665,-251,-75.6944,23.8195,0,0,0,0,0,0,0,-1,559,1275,-75.6944,-23.8195
-658,-251,-75.8995,25.6963,0,0,0,0,0,0,0,-1,566,1275,-75.8995,-25.6963
-651,-251,-76.1266,27.5671,0,0,0,0,0,0,0,-1,573,1275,-76.1266,-27.5671
-644,-251,-50.9809,8.08691,0,0,0,0,0,0,0,-1,580,1275,-50.9809,-8.08686
-637,-251,-50.8358,8.91528,0,0,0,0,0,0,0,-1,587,1275,-50.8358,-8.91532
-630,-251,-71.7939,14.9017,0,0,0,0,0,0,0,-1,594,1275,-71.7939,-14.9018
-623,-251,-196.073,26.005,0,0,0,0,0,0,0,-1,601,1275,-196.073,-26.005
-616,-251,-196.053,27.2762,0,0,0,0,0,0,0,-1,608,1275,-196.053,-27.2762
-609,-251,-196.178,28.8171,-0.0201338,0.0546689,-0.02299,0.0611697,-0.0266346,-1.29522,0.0519845,0.031769,615,1275,-196.178,-28.8171
-602,-251,-196.369,30.3983,-0.0147155,0.0486935,-0.0195262,0.054224,-0.020246,-1.29479,0.0444621,0.0221246,622,1275,-196.369,-30.3983
-595,-251,-196.643,32.0228,-0.00917333,0.0427458,-0.0152552,0.0468964,-0.0133239,-1.30515,0.0365248,0.0198143,629,1275,-196.643,-32.0229
-588,-251,-197.255,33.6223,-0.00345327,0.0367425,-0.0101411,0.0391561,-0.00586688,-1.33714,0.0282634,0.0264023,636,1275,-197.255,-33.6223
-581,-251,-197.171,35.3075,0,0,0,0,0,0,0,-1,643,1275,-197.171,-35.3075
-574,-251,-197.423,36.9194,0.00864077,0.0241701,0.00255091,0.0245784,0.00823248,1.41209,0.0144458,0.0378118,650,1275,-197.423,-36.9195
-567,-251,-197.662,38.671,0.0151949,0.017281,0.00998551,0.0262778,0.00619807,0.837438,0.0158614,0.0466902,657,1275,-197.662,-38.671
-560,-251,-197.826,40.3315,0,0,0,0,0,0,0,-1,664,1275,-197.826,-40.3316
-553,-251,-73.401,29.2515,0,0,0,0,0,0,0,-1,671,1275,-73.401,-29.2514
-546,-251,-12.995,4.5675,0,0,0,0,0,0,0,-1,678,1275,-12.995,-4.56745
-539,-251,-10.7916,0.366333,0,0,0,0,0,0,0,-1,685,1275,-10.7916,-0.366282
-532,-251,-10.7391,-0.00769043,0,0,0,0,0,0,0,-1,692,1275,-10.7391,0.00773227
-525,-251,-29.4286,-0.250244,0,0,0,0,0,0,0,-1,699,1275,-29.4286,0.250266
-518,-251,-32.6981,0.678833,0,0,0,0,0,0,0,-1,706,1275,-32.6981,-0.678787
-511,-251,-29.4731,0.637085,0,0,0,0,0,0,0,-1,713,1275,-29.4731,-0.637025
-504,-251,-30.6428,0.792358,0,0,0,0,0,0,0,-1,720,1275,-30.6427,-0.792335
-497,-251,-54.1249,0.753784,0,0,0,0,0,0,0,-1,727,1275,-54.1249,-0.753774
-490,-251,0,0,0,0,0,0,0,0,0,-1,734,1275,0,0
-483,-251,0,0,0,0,0,0,0,0,0,-1,741,1275,0,0
-476,-251,0,0,0,0,0,0,0,0,0,-1,748,1275,0,0
-469,-251,0,0,0,0,0,0,0,0,0,-1,755,1275,0,0
-462,-251,0,0,0,0,0,0,0,0,0,-1,762,1275,0,0
-455,-251,0,0,0,0,0,0,0,0,0,-1,769,1275,0,0
-448,-251,0,0,0,0,0,0,0,0,0,-1,776,1275,0,0
-441,-251,0,0,0,0,0,0,0,0,0,-1,783,1275,0,0
-434,-251,0,0,0,0,0,0,0,0,0,-1,790,1275,0,0
-427,-251,0,0,0,0,0,0,0,0,0,-1,797,1275,0,0
-420,-251,0,0,0,0,0,0,0,0,0,-1,804,1275,0,0
-413,-251,0,0,0,0,0,0,0,0,0,-1,811,1275,0,0
-406,-251,0,0,0,0,0,0,0,0,0,-1,818,1275,0,0
-399,-251,0,0,0,0,0,0,0,0,0,-1,825,1275,0,0
-392,-251,0,0,0,0,0,0,0,0,0,-1,832,1275,0,0
-385,-251,0,0,0,0,0,0,0,0,0,-1,839,1275,0,0
-378,-251,0,0,0,0,0,0,0,0,0,-1,846,1275,0,0
-371,-251,0,0,0,0,0,0,0,0,0,-1,853,1275,0,0
-364,-251,0,0,0,0,0,0,0,0,0,-1,860,1275,0,0
-357,-251,0,0,0,0,0,0,0,0,0,-1,867,1275,0,0
-350,-251,0,0,0,0,0,0,0,0,0,-1,874,1275,0,0
-343,-251,0,0,0,0,0,0,0,0,0,-1,881,1275,0,0
-336,-251,0,0,0,0,0,0,0,0,0,-1,888,1275,0,0
-329,-251,0,0,0,0,0,0,0,0,0,-1,895,1275,0,0
-322,-251,0,0,0,0,0,0,0,0,0,-1,902,1275,0,0
-315,-251,0,0,0,0,0,0,0,0,0,-1,909,1275,0,0
-308,-251,0,0,0,0,0,0,0,0,0,-1,916,1275,0,0
-301,-251,0,0,0,0,0,0,0,0,0,-1,923,1275,0,0
-294,-251,0,0,0,0,0,0,0,0,0,-1,930,1275,0,0
-287,-251,0,0,0,0,0,0,0,0,0,-1,937,1275,0,0
-280,-251,0,0,0,0,0,0,0,0,0,-1,944,1275,0,0
-273,-251,0,0,0,0,0,0,0,0,0,-1,951,1275,0,0
-266,-251,0,0,0,0,0,0,0,0,0,-1,958,1275,0,0
-259,-251,0,0,0,0,0,0,0,0,0,-1,965,1275,0,0
-252,-251,0,0,0,0,0,0,0,0,0,-1,972,1275,0,0
-245,-251,0,0,0,0,0,0,0,0,0,-1,979,1275,0,0
-238,-251,0,0,0,0,0,0,0,0,0,-1,986,1275,0,0
-231,-251,0,0,0,0,0,0,0,0,0,-1,993,1275,0,0
-224,-251,0,0,0,0,0,0,0,0,0,-1,1000,1275,0,0
-217,-251,0,0,0,0,0,0,0,0,0,-1,1007,1275,0,0
-210,-251,0,0,0,0,0,0,0,0,0,-1,1014,1275,0,0
-203,-251,0,0,0,0,0,0,0,0,0,-1,1021,1275,0,0
-196,-251,0,0,0,0,0,0,0,0,0,-1,1028,1275,0,0
-189,-251,0,0,0,0,0,0,0,0,0,-1,1035,1275,0,0
-182,-251,0,0,0,0,0,0,0,0,0,-1,1042,1275,0,0
-175,-251,0,0,0,0,0,0,0,0,0,-1,1049,1275,0,0
-168,-251,0,0,0,0,0,0,0,0,0,-1,1056,1275,0,0
-161,-251,0,0,0,0,0,0,0,0,0,-1,1063,1275,0,0
-154,-251,0,0,0,0,0,0,0,0,0,-1,1070,1275,0,0
-147,-251,0,0,0,0,0,0,0,0,0,-1,1077,1275,0,0
-140,-251,0,0,0,0,0,0,0,0,0,-1,1084,1275,0,0
-133,-251,0,0,0,0,0,0,0,0,0,-1,1091,1275,0,0
-126,-251,0,0,0,0,0,0,0,0,0,-1,1098,1275,0,0
-119,-251,0,0,0,0,0,0,0,0,0,-1,1105,1275,0,0
-112,-251,0,0,0,0,0,0,0,0,0,-1,1112,1275,0,0
-105,-251,0,0,0,0,0,0,0,0,0,-1,1119,1275,0,0
-98,-251,0,0,0,0,0,0,0,0,0,-1,1126,1275,0,0
-91,-251,0,0,0,0,0,0,0,0,0,-1,1133,1275,0,0
-84,-251,0,0,0,0,0,0,0,0,0,-1,1140,1275,0,0
-77,-251,0,0,0,0,0,0,0,0,0,-1,1147,1275,0,0
-70,-251,0,0,0,0,0,0,0,0,0,-1,1154,1275,0,0
-63,-251,0,0,0,0,0,0,0,0,0,-1,1161,1275,0,0
-56,-251,0,0,0,0,0,0,0,0,0,-1,1168,1275,0,0
-49,-251,0,0,0,0,0,0,0,0,0,-1,1175,1275,0,0
-42,-251,0,0,0,0,0,0,0,0,0,-1,1182,1275,0,0
-35,-251,0,0,0,0,0,0,0,0,0,-1,1189,1275,0,0
-28,-251,0,0,0,0,0,0,0,0,0,-1,1196,1275,0,0
-21,-251,0,0,0,0,0,0,0,0,0,-1,1203,1275,0,0
-14,-251,0,0,0,0,0,0,0,0,0,-1,1210,1275,0,0
-7,-251,0,0,0,0,0,0,0,0,0,-1,1217,1275,0,0
0,-251,0,0,0,0,0,0,0,0,0,-1,1224,1275,0,0
7,-251,0,0,0,0,0,0,0,0,0,-1,1231,1275,0,0
14,-251,0,0,0,0,0,0,0,0,0,-1,1238,1275,0,0
21,-251,0,0,0,0,0,0,0,0,0,-1,1245,1275,0,0
28,-251,0,0,0,0,0,0,0,0,0,-1,1252,1275,0,0
35,-251,0,0,0,0,0,0,0,0,0,-1,1259,1275,0,0
42,-251,0,0,0,0,0,0,0,0,0,-1,1266,1275,0,0
49,-251,0,0,0,0,0,0,0,0,0,-1,1273,1275,0,0
56,-251,0,0,0,0,0,0,0,0,0,-1,1280,1275,0,0
63,-251,0,0,0,0,0,0,0,0,0,-1,1287,1275,0,0
70,-251,0,0,0,0,0,0,0,0,0,-1,1294,1275,0,0
77,-251,0,0,0,0,0,0,0,0,0,-1,1301,1275,0,0
84,-251,0,0,0,0,0,0,0,0,0,-1,1308,1275,0,0
91,-251,0,0,0,0,0,0,0,0,0,-1,1315,1275,0,0
98,-251,0,0,0,0,0,0,0,0,0,-1,1322,1275,0,0
105,-251,0,0,0,0,0,0,0,0,0,-1,1329,1275,0,0
112,-251,0,0,0,0,0,0,0,0,0,-1,1336,1275,0,0
119,-251,0,0,0,0,0,0,0,0,0,-1,1343,1275,0,0
126,-251,0,0,0,0,0,0,0,0,0,-1,1350,1275,0,0
133,-251,0,0,0,0,0,0,0,0,0,-1,1357,1275,0,0
140,-251,0,0,0,0,0,0,0,0,0,-1,1364,1275,0,0
147,-251,0,0,0,0,0,0,0,0,0,-1,1371,1275,0,0
154,-251,0,0,0,0,0,0,0,0,0,-1,1378,1275,0,0
161,-251,0,0,0,0,0,0,0,0,0,-1,1385,1275,0,0
168,-251,0,0,0,0,0,0,0,0,0,-1,1392,1275,0,0
175,-251,0,0,0,0,0,0,0,0,0,-1,1399,1275,0,0
182,-251,0,0,0,0,0,0,0,0,0,-1,1406,1275,0,0
189,-251,0,0,0,0,0,0,0,0,0,-1,1413,1275,0,0
196,-251,0,0,0,0,0,0,0,0,0,-1,1420,1275,0,0
203,-251,0,0,0,0,0,0,0,0,0,-1,1427,1275,0,0
210,-251,0,0,0,0,0,0,0,0,0,-1,1434,1275,0,0
217,-251,0,0,0,0,0,0,0,0,0,-1,1441,1275,0,0
224,-251,0,0,0,0,0,0,0,0,0,-1,1448,1275,0,0
231,-251,0,0,0,0,0,0,0,0,0,-1,1455,1275,0,0
238,-251,0,0,0,0,0,0,0,0,0,-1,1462,1275,0,0
245,-251,0,0,0,0,0,0,0,0,0,-1,1469,1275,0,0
252,-251,0,0,0,0,0,0,0,0,0,-1,1476,1275,0,0
259,-251,0,0,0,0,0,0,0,0,0,-1,1483,1275,0,0
266,-251,0,0,0,0,0,0,0,0,0,-1,1490,1275,0,0
273,-251,0,0,0,0,0,0,0,0,0,-1,1497,1275,0,0
280,-251,0,0,0,0,0,0,0,0,0,-1,1504,1275,0,0
287,-251,0,0,0,0,0,0,0,0,0,-1,1511,1275,0,0
294,-251,0,0,0,0,0,0,0,0,0,-1,1518,1275,0,0
301,-251,0,0,0,0,0,0,0,0,0,-1,1525,1275,0,0
308,-251,0,0,0,0,0,0,0,0,0,-1,1532,1275,0,0
315,-251,0,0,0,0,0,0,0,0,0,-1,1539,1275,0,0
322,-251,0,0,0,0,0,0,0,0,0,-1,1546,1275,0,0
329,-251,0,0,0,0,0,0,0,0,0,-1,1553,1275,0,0
336,-251,0,0,0,0,0,0,0,0,0,-1,1560,1275,0,0
343,-251,0,0,0,0,0,0,0,0,0,-1,1567,1275,0,0
350,-251,0,0,0,0,0,0,0,0,0,-1,1574,1275,0,0
357,-251,0,0,0,0,0,0,0,0,0,-1,1581,1275,0,0
364,-251,0,0,0,0,0,0,0,0,0,-1,1588,1275,0,0
371,-251,0,0,0,0,0,0,0,0,0,-1,1595,1275,0,0
378,-251,0,0,0,0,0,0,0,0,0,-1,1602,1275,0,0
385,-251,0,0,0,0,0,0,0,0,0,-1,1609,1275,0,0
392,-251,0,0,0,0,0,0,0,0,0,-1,1616,1275,0,0
399,-251,0,0,0,0,0,0,0,0,0,-1,1623,1275,0,0
406,-251,0,0,0,0,0,0,0,0,0,-1,1630,1275,0,0
413,-251,0,0,0,0,0,0,0,0,0,-1,1637,1275,0,0
420,-251,0,0,0,0,0,0,0,0,0,-1,1644,1275,0,0
427,-251,0,0,0,0,0,0,0,0,0,-1,1651,1275,0,0
434,-251,0,0,0,0,0,0,0,0,0,-1,1658,1275,0,0
441,-251,0,0,0,0,0,0,0,0,0,-1,1665,1275,0,0
448,-251,0,0,0,0,0,0,0,0,0,-1,1672,1275,0,0
455,-251,0,0,0,0,0,0,0,0,0,-1,1679,1275,0,0
462,-251,0,0,0,0,0,0,0,0,0,-1,1686,1275,0,0
469,-251,0,0,0,0,0,0,0,0,0,-1,1693,1275,0,0
476,-251,0,0,0,0,0,0,0,0,0,-1,1700,1275,0,0
483,-251,0,0,0,0,0,0,0,0,0,-1,1707,1275,0,0
490,-251,0,0,0,0,0,0,0,0,0,-1,1714,1275,0,0
497,-251,0,0,0,0,0,0,0,0,0,-1,1721,1275,0,0
504,-251,0,0,0,0,0,0,0,0,0,-1,1728,1275,0,0
511,-251,0,0,0,0,0,0,0,0,0,-1,1735,1275,0,0
518,-251,0,0,0,0,0,0,0,0,0,-1,1742,1275,0,0
525,-251,0,0,0,0,0,0,0,0,0,-1,1749,1275,0,0
532,-251,0,0,0,0,0,0,0,0,0,-1,1756,1275,0,0
539,-251,0,0,0,0,0,0,0,0,0,-1,1763,1275,0,0
546,-251,0,0,0,0,0,0,0,0,0,-1,1770,1275,0,0
553,-251,0,0,0,0,0,0,0,0,0,-1,1777,1275,0,0
560,-251,0,0,0,0,0,0,0,0,0,-1,1784,1275,0,0
567,-251,0,0,0,0,0,0,0,0,0,-1,1791,1275,0,0
574,-251,0,0,0,0,0,0,0,0,0,-1,1798,1275,0,0
581,-251,0,0,0,0,0,0,0,0,0,-1,1805,1275,0,0
588,-251,0,0,0,0,0,0,0,0,0,-1,1812,1275,0,0
595,-251,0,0,0,0,0,0,0,0,0,-1,1819,1275,0,0
602,-251,0,0,0,0,0,0,0,0,0,-1,1826,1275,0,0
609,-251,227.798,8.91589,0,0,0,0,0,0,0,-1,1833,1275,227.798,-8.91585
616,-251,227.759,8.948,0,0,0,0,0,0,0,-1,1840,1275,227.759,-8.94799
623,-251,227.743,9.00366,0,0,0,0,0,0,0,-1,1847,1275,227.743,-9.00362
630,-251,227.683,8.88452,0,0,0,0,0,0,0,-1,1854,1275,227.683,-8.88447
637,-251,119.813,3.21826,0,0,0,0,0,0,0,-1,1861,1275,119.813,-3.21831
644,-251,103.02,2.53735,0,0,0,0,0,0,0,-1,1868,1275,103.02,-2.53738
651,-251,83.6721,2.65125,0,0,0,0,0,0,0,-1,1875,1275,83.6722,-2.65119
658,-251,64.3931,2.57288,0,0,0,0,0,0,0,-1,1882,1275,64.393,-2.57287
665,-251,32.9579,2.60229,0,0,0,0,0,0,0,-1,1889,1275,32.9579,-2.60231
672,-251,26.0721,4.53064,0,0,0,0,0,0,0,-1,1896,1275,26.0721,-4.53063
679,-251,66.3422,18.9362,0,0,0,0,0,0,0,-1,1903,1275,66.3421,-18.9362
686,-251,94.9014,31.4364,0,0,0,0,0,0,0,-1,1910,1275,94.9014,-31.4364
693,-251,204.573,42.5292,0,0,0,0,0,0,0,-1,1917,1275,204.573,-42.5292
700,-251,204.356,40.8232,0,0,0,0,0,0,0,-1,1924,1275,204.356,-40.8232
707,-251,203.74,39.0192,0,0,0,0,0,0,0,-1,1931,1275,203.74,-39.0191
714,-251,203.576,37.1853,0.00034314,0.0203947,0.00725992,0.0227472,-0.0020094,1.25743,0.015877,0.0426132,1938,1275,203.576,-37.1853
721,-251,203.396,35.51,-0.0059925,0.0253713,0.0126368,0.0298291,-0.0104504,1.23166,0.0241358,0.0396171,1945,1275,203.396,-35.51
728,-251,202.946,33.9583,-0.0129302,0.0305643,0.0183501,0.0372717,-0.0196376,1.22036,0.0333783,0.0455769,1952,1275,202.946,-33.9583
735,-251,202.665,32.002,-0.0204338,0.0359691,0.0244166,0.0450704,-0.0295351,1.214,0.0433837,0.0364331,1959,1275,202.665,-32.0019
742,-251,202.292,30.6421,-0.0284706,0.0415864,0.0308508,0.0532352,-0.0401194,1.20976,0.0540753,0.0309643,1966,1275,202.292,-30.642
749,-251,201.741,29.574,-0.0370168,0.0474726,0.0376414,0.0618096,-0.0513538,1.20688,0.0654278,0.0459588,1973,1275,201.741,-29.574
756,-251,201.089,28.5067,0,0,0,0,0,0,0,-1,1980,1275,201.089,-28.5067
763,-251,43.3652,5.7583,0,0,0,0,0,0,0,-1,1987,1275,43.3653,-5.75827
770,-251,49.4386,3.45508,0,0,0,0,0,0,0,-1,1994,1275,49.4386,-3.4551
777,-251,31.5731,4.33252,0,0,0,0,0,0,0,-1,2001,1275,31.5731,-4.33251
784,-251,32.0776,5.78247,0,0,0,0,0,0,0,-1,2008,1275,32.0776,-5.78247
791,-251,0,0,0,0,0,0,0,0,0,-1,2015,1275,0,0
798,-251,0,0,0,0,0,0,0,0,0,-1,2022,1275,0,0
805,-251,0,0,0,0,0,0,0,0,0,-1,2029,1275,0,0
812,-251,0,0,0,0,0,0,0,0,0,-1,2036,1275,0,0
-700,-258,0,0,0,0,0,0,0,0,0,-1,524,1282,0,0
-693,-258,0,0,0,0,0,0,0,0,0,-1,531,1282,0,0
-686,-258,0,0,0,0,0,0,0,0,0,-1,538,1282,0,0
-679,-258,0,0,0,0,0,0,0,0,0,-1,545,1282,0,0
-672,-258,0,0,0,0,0,0,0,0,0,-1,552,1282,0,0
-665,-258,-76.3329,25.1647,0,0,0,0,0,0,0,-1,559,1282,-76.3329,-25.1646
-658,-258,-76.3535,27.1967,0,0,0,0,0,0,0,-1,566,1282,-76.3535,-27.1966
-651,-258,-45.5418,0.0863037,0,0,0,0,0,0,0,-1,573,1282,-45.5418,-0.0863288
-644,-258,-62.455,9.17346,0,0,0,0,0,0,0,-1,580,1282,-62.455,-9.17347
-637,-258,-49.9528,9.28394,0,0,0,0,0,0,0,-1,587,1282,-49.9528,-9.28393
-630,-258,-69.9883,14.4841,0,0,0,0,0,0,0,-1,594,1282,-69.9883,-14.4841
-623,-258,-96.8689,21.0114,0,0,0,0,0,0,0,-1,601,1282,-96.8689,-21.0114
-616,-258,-194.097,27.1077,0,0,0,0,0,0,0,-1,608,1282,-194.097,-27.1077
-609,-258,-194.241,28.7493,-0.0212977,0.0568652,-0.024521,0.063921,-0.0283534,-1.29062,0.0545779,0.0283089,615,1282,-194.241,-28.7493
-602,-258,-194.414,30.3846,-0.0157677,0.050547,-0.0212058,0.0567482,-0.0219689,-1.2863,0.0469027,0.0205352,622,1282,-194.414,-30.3846
-595,-258,-194.646,32.0242,-0.0100785,0.0444015,-0.0170691,0.0493077,-0.0149847,-1.29091,0.0388424,0.0204737,629,1282,-194.646,-32.0242
-588,-258,-194.943,33.6531,-0.004175,0.0383268,-0.0120973,0.0415288,-0.00737704,-1.31204,0.0304443,0.0223078,636,1282,-194.943,-33.6531
-581,-258,-195.165,35.3545,0,0,0,0,0,0,0,-1,643,1282,-195.165,-35.3545
-574,-258,-195.707,36.7212,0.00840364,0.0259293,0.000228102,0.0259322,0.00840067,1.55778,0.0152782,0.0406356,650,1282,-195.707,-36.7212
-567,-258,-195.855,39.0544,0.0152203,0.0193042,0.00741916,0.0249573,0.00956719,0.919688,0.0145392,0.0391633,657,1282,-195.855,-39.0544
-560,-258,-195.837,41.0408,0,0,0,0,0,0,0,-1,664,1282,-195.837,-41.0408
-553,-258,-32.5081,11.6642,0,0,0,0,0,0,0,-1,671,1282,-32.5081,-11.6641
-546,-258,-14.2231,5.92029,0,0,0,0,0,0,0,-1,678,1282,-14.2231,-5.92028
-539,-258,-10.2228,4.05823,0,0,0,0,0,0,0,-1,685,1282,-10.2228,-4.05823
-532,-258,-10.2173,-0.353882,0,0,0,0,0,0,0,-1,692,1282,-10.2173,0.353836
-525,-258,-21.8661,-1.5929,0,0,0,0,0,0,0,-1,699,1282,-21.8661,1.59285
-518,-258,-29.2484,0.123169,0,0,0,0,0,0,0,-1,706,1282,-29.2484,-0.123186
-511,-258,-23.5061,1.16833,0,0,0,0,0,0,0,-1,713,1282,-23.5061,-1.16833
-504,-258,-22.9178,0.484131,0,0,0,0,0,0,0,-1,720,1282,-22.9178,-0.484106
-497,-258,-17.8047,0.730469,0,0,0,0,0,0,0,-1,727,1282,-17.8048,-0.730489
-490,-258,-15.4346,0.632935,0,0,0,0,0,0,0,-1,734,1282,-15.4346,-0.632917
-483,-258,0,0,0,0,0,0,0,0,0,-1,741,1282,0,0
-476,-258,0,0,0,0,0,0,0,0,0,-1,748,1282,0,0
-469,-258,0,0,0,0,0,0,0,0,0,-1,755,1282,0,0
-462,-258,0,0,0,0,0,0,0,0,0,-1,762,1282,0,0
-455,-258,0,0,0,0,0,0,0,0,0,-1,769,1282,0,0
-448,-258,0,0,0,0,0,0,0,0,0,-1,776,1282,0,0
-441,-258,0,0,0,0,0,0,0,0,0,-1,783,1282,0,0
-434,-258,0,0,0,0,0,0,0,0,0,-1,790,1282,0,0
-427,-258,0,0,0,0,0,0,0,0,0,-1,797,1282,0,0
-420,-258,0,0,0,0,0,0,0,0,0,-1,804,1282,0,0
-413,-258,0,0,0,0,0,0,0,0,0,-1,811,1282,0,0
-406,-258,0,0,0,0,0,0,0,0,0,-1,818,1282,0,0
-399,-258,0,0,0,0,0,0,0,0,0,-1,825,1282,0,0
-392,-258,0,0,0,0,0,0,0,0,0,-1,832,1282,0,0
-385,-258,0,0,0,0,0,0,0,0,0,-1,839,1282,0,0
-378,-258,0,0,0,0,0,0,0,0,0,-1,846,1282,0,0
-371,-258,0,0,0,0,0,0,0,0,0,-1,853,1282,0,0
-364,-258,0,0,0,0,0,0,0,0,0,-1,860,1282,0,0
-357,-258,0,0,0,0,0,0,0,0,0,-1,867,1282,0,0
-350,-258,0,0,0,0,0,0,0,0,0,-1,874,1282,0,0
-343,-258,0,0,0,0,0,0,0,0,0,-1,881,1282,0,0
-336,-258,0,0,0,0,0,0,0,0,0,-1,888,1282,0,0
-329,-258,0,0,0,0,0,0,0,0,0,-1,895,1282,0,0
-322,-258,0,0,0,0,0,0,0,0,0,-1,902,1282,0,0
-315,-258,0,0,0,0,0,0,0,0,0,-1,909,1282,0,0
-308,-258,0,0,0,0,0,0,0,0,0,-1,916,1282,0,0
-301,-258,0,0,0,0,0,0,0,0,0,-1,923,1282,0,0
-294,-258,0,0,0,0,0,0,0,0,0,-1,930,1282,0,0
-287,-258,0,0,0,0,0,0,0,0,0,-1,937,1282,0,0
-280,-258,0,0,0,0,0,0,0,0,0,-1,944,1282,0,0
-273,-258,0,0,0,0,0,0,0,0,0,-1,951,1282,0,0
-266,-258,0,0,0,0,0,0,0,0,0,-1,958,1282,0,0
-259,-258,0,0,0,0,0,0,0,0,0,-1,965,1282,0,0
-252,-258,0,0,0,0,0,0,0,0,0,-1,972,1282,0,0
-245,-258,0,0,0,0,0,0,0,0,0,-1,979,1282,0,0
-238,-258,0,0,0,0,0,0,0,0,0,-1,986,1282,0,0
-231,-258,0,0,0,0,0,0,0,0,0,-1,993,1282,0,0
-224,-258,0,0,0,0,0,0,0,0,0,-1,1000,1282,0,0
-217,-258,0,0,0,0,0,0,0,0,0,-1,1007,1282,0,0
-210,-258,0,0,0,0,0,0,0,0,0,-1,1014,1282,0,0
-203,-258,0,0,0,0,0,0,0,0,0,-1,1021,1282,0,0
-196,-258,0,0,0,0,0,0,0,0,0,-1,1028,1282,0,0
-189,-258,0,0,0,0,0,0,0,0,0,-1,1035,1282,0,0
-182,-258,0,0,0,0,0,0,0,0,0,-1,1042,1282,0,0
-175,-258,0,0,0,0,0,0,0,0,0,-1,1049,1282,0,0
-168,-258,0,0,0,0,0,0,0,0,0,-1,1056,1282,0,0
-161,-258,0,0,0,0,0,0,0,0,0,-1,1063,1282,0,0
-154,-258,0,0,0,0,0,0,0,0,0,-1,1070,1282,0,0
-147,-258,0,0,0,0,0,0,0,0,0,-1,1077,1282,0,0
-140,-258,0,0,0,0,0,0,0,0,0,-1,1084,1282,0,0
-133,-258,0,0,0,0,0,0,0,0,0,-1,1091,1282,0,0
-126,-258,0,0,0,0,0,0,0,0,0,-1,1098,1282,0,0
-119,-258,0,0,0,0,0,0,0,0,0,-1,1105,1282,0,0
-112,-258,0,0,0,0,0,0,0,0,0,-1,1112,1282,0,0
-105,-258,0,0,0,0,0,0,0,0,0,-1,1119,1282,0,0
-98,-258,0,0,0,0,0,0,0,0,0,-1,1126,1282,0,0
-91,-258,0,0,0,0,0,0,0,0,0,-1,1133,1282,0,0
-84,-258,0,0,0,0,0,0,0,0,0,-1,1140,1282,0,0
-77,-258,0,0,0,0,0,0,0,0,0,-1,1147,1282,0,0
-70,-258,0,0,0,0,0,0,0,0,0,-1,1154,1282,0,0
-63,-258,0,0,0,0,0,0,0,0,0,-1,1161,1282,0,0
-56,-258,0,0,0,0,0,0,0,0,0,-1,1168,1282,0,0
-49,-258,0,0,0,0,0,0,0,0,0,-1,1175,1282,0,0
-42,-258,0,0,0,0,0,0,0,0,0,-1,1182,1282,0,0
-35,-258,0,0,0,0,0,0,0,0,0,-1,1189,1282,0,0
-28,-258,0,0,0,0,0,0,0,0,0,-1,1196,1282,0,0
-21,-258,0,0,0,0,0,0,0,0,0,-1,1203,1282,0,0
-14,-258,0,0,0,0,0,0,0,0,0,-1,1210,1282,0,0
-7,-258,0,0,0,0,0,0,0,0,0,-1,1217,1282,0,0
0,-258,0,0,0,0,0,0,0,0,0,-1,1224,1282,0,0
7,-258,0,0,0,0,0,0,0,0,0,-1,1231,1282,0,0
14,-258,0,0,0,0,0,0,0,0,0,-1,1238,1282,0,0
21,-258,0,0,0,0,0,0,0,0,0,-1,1245,1282,0,0
28,-258,0,0,0,0,0,0,0,0,0,-1,1252,1282,0,0
35,-258,0,0,0,0,0,0,0,0,0,-1,1259,1282,0,0
42,-258,0,0,0,0,0,0,0,0,0,-1,1266,1282,0,0
49,-258,0,0,0,0,0,0,0,0,0,-1,1273,1282,0,0
56,-258,0,0,0,0,0,0,0,0,0,-1,1280,1282,0,0
63,-258,0,0,0,0,0,0,0,0,0,-1,1287,1282,0,0
70,-258,0,0,0,0,0,0,0,0,0,-1,1294,1282,0,0
77,-258,0,0,0,0,0,0,0,0,0,-1,1301,1282,0,0
84,-258,0,0,0,0,0,0,0,0,0,-1,1308,1282,0,0
91,-258,0,0,0,0,0,0,0,0,0,-1,1315,1282,0,0
98,-258,0,0,0,0,0,0,0,0,0,-1,1322,1282,0,0
105,-258,0,0,0,0,0,0,0,0,0,-1,1329,1282,0,0
112,-258,0,0,0,0,0,0,0,0,0,-1,1336,1282,0,0
119,-258,0,0,0,0,0,0,0,0,0,-1,1343,1282,0,0
126,-258,0,0,0,0,0,0,0,0,0,-1,1350,1282,0,0
133,-258,0,0,0,0,0,0,0,0,0,-1,1357,1282,0,0
140,-258,0,0,0,0,0,0,0,0,0,-1,1364,1282,0,0
147,-258,0,0,0,0,0,0,0,0,0,-1,1371,1282,0,0
154,-258,0,0,0,0,0,0,0,0,0,-1,1378,1282,0,0
161,-258,0,0,0,0,0,0,0,0,0,-1,1385,1282,0,0
168,-258,0,0,0,0,0,0,0,0,0,-1,1392,1282,0,0
175,-258,0,0,0,0,0,0,0,0,0,-1,1399,1282,0,0
182,-258,0,0,0,0,0,0,0,0,0,-1,1406,1282,0,0
189,-258,0,0,0,0,0,0,0,0,0,-1,1413,1282,0,0
196,-258,0,0,0,0,0,0,0,0,0,-1,1420,1282,0,0
203,-258,0,0,0,0,0,0,0,0,0,-1,1427,1282,0,0
210,-258,0,0,0,0,0,0,0,0,0,-1,1434,1282,0,0
217,-258,0,0,0,0,0,0,0,0,0,-1,1441,1282,0,0
224,-258,0,0,0,0,0,0,0,0,0,-1,1448,1282,0,0
231,-258,0,0,0,0,0,0,0,0,0,-1,1455,1282,0,0
238,-258,0,0,0,0,0,0,0,0,0,-1,1462,1282,0,0
245,-258,0,0,0,0,0,0,0,0,0,-1,1469,1282,0,0
252,-258,0,0,0,0,0,0,0,0,0,-1,1476,1282,0,0
259,-258,0,0,0,0,0,0,0,0,0,-1,1483,1282,0,0
266,-258,0,0,0,0,0,0,0,0,0,-1,1490,1282,0,0
273,-258,0,0,0,0,0,0,0,0,0,-1,1497,1282,0,0
280,-258,0,0,0,0,0,0,0,0,0,-1,1504,1282,0,0
287,-258,0,0,0,0,0,0,0,0,0,-1,1511,1282,0,0
294,-258,0,0,0,0,0,0,0,0,0,-1,1518,1282,0,0
301,-258,0,0,0,0,0,0,0,0,0,-1,1525,1282,0,0
308,-258,0,0,0,0,0,0,0,0,0,-1,1532,1282,0,0
315,-258,0,0,0,0,0,0,0,0,0,-1,1539,1282,0,0
322,-258,0,0,0,0,0,0,0,0,0,-1,1546,1282,0,0
329,-258,0,0,0,0,0,0,0,0,0,-1,1553,1282,0,0
336,-258,0,0,0,0,0,0,0,0,0,-1,1560,1282,0,0
343,-258,0,0,0,0,0,0,0,0,0,-1,1567,1282,0,0
350,-258,0,0,0,0,0,0,0,0,0,-1,1574,1282,0,0
357,-258,0,0,0,0,0,0,0,0,0,-1,1581,1282,0,0
364,-258,0,0,0,0,0,0,0,0,0,-1,1588,1282,0,0
371,-258,0,0,0,0,0,0,0,0,0,-1,1595,1282,0,0
378,-258,0,0,0,0,0,0,0,0,0,-1,1602,1282,0,0
385,-258,0,0,0,0,0,0,0,0,0,-1,1609,1282,0,0
392,-258,0,0,0,0,0,0,0,0,0,-1,1616,1282,0,0
399,-258,0,0,0,0,0,0,0,0,0,-1,1623,1282,0,0
406,-258,0,0,0,0,0,0,0,0,0,-1,1630,1282,0,0
413,-258,0,0,0,0,0,0,0,0,0,-1,1637,1282,0,0
420,-258,0,0,0,0,0,0,0,0,0,-1,1644,1282,0,0
427,-258,0,0,0,0,0,0,0,0,0,-1,1651,1282,0,0
434,-258,0,0,0,0,0,0,0,0,0,-1,1658,1282,0,0
441,-258,0,0,0,0,0,0,0,0,0,-1,1665,1282,0,0
448,-258,0,0,0,0,0,0,0,0,0,-1,1672,1282,0,0
455,-258,0,0,0,0,0,0,0,0,0,-1,1679,1282,0,0
462,-258,0,0,0,0,0,0,0,0,0,-1,1686,1282,0,0
469,-258,0,0,0,0,0,0,0,0,0,-1,1693,1282,0,0
476,-258,0,0,0,0,0,0,0,0,0,-1,1700,1282,0,0
483,-258,0,0,0,0,0,0,0,0,0,-1,1707,1282,0,0
490,-258,0,0,0,0,0,0,0,0,0,-1,1714,1282,0,0
497,-258,0,0,0,0,0,0,0,0,0,-1,1721,1282,0,0
504,-258,0,0,0,0,0,0,0,0,0,-1,1728,1282,0,0
511,-258,0,0,0,0,0,0,0,0,0,-1,1735,1282,0,0
518,-258,0,0,0,0,0,0,0,0,0,-1,1742,1282,0,0
525,-258,0,0,0,0,0,0,0,0,0,-1,1749,1282,0,0
532,-258,0,0,0,0,0,0,0,0,0,-1,1756,1282,0,0
539,-258,0,0,0,0,0,0,0,0,0,-1,1763,1282,0,0
546,-258,0,0,0,0,0,0,0,0,0,-1,1770,1282,0,0
553,-258,0,0,0,0,0,0,0,0,0,-1,1777,1282,0,0
560,-258,0,0,0,0,0,0,0,0,0,-1,1784,1282,0,0
567,-258,0,0,0,0,0,0,0,0,0,-1,1791,1282,0,0
574,-258,0,0,0,0,0,0,0,0,0,-1,1798,1282,0,0
581,-258,0,0,0,0,0,0,0,0,0,-1,1805,1282,0,0
588,-258,0,0,0,0,0,0,0,0,0,-1,1812,1282,0,0
595,-258,0,0,0,0,0,0,0,0,0,-1,1819,1282,0,0
602,-258,0,0,0,0,0,0,0,0,0,-1,1826,1282,0,0
609,-258,227.737,8.99304,0,0,0,0,0,0,0,-1,1833,1282,227.737,-8.99301
616,-258,227.725,8.94531,0,0,0,0,0,0,0,-1,1840,1282,227.724,-8.9453
623,-258,227.622,8.81592,0,0,0,0,0,0,0,-1,1847,1282,227.622,-8.81594
630,-258,123.931,3.52234,0,0,0,0,0,0,0,-1,1854,1282,123.931,-3.52233
637,-258,104.7,2.59534,0,0,0,0,0,0,0,-1,1861,1282,104.7,-2.59538
644,-258,88.6257,1.45276,0,0,0,0,0,0,0,-1,1868,1282,88.6257,-1.45271
651,-258,77.8041,3.65466,0,0,0,0,0,0,0,-1,1875,1282,77.8041,-3.65469
658,-258,45.4424,3.1405,0,0,0,0,0,0,0,-1,1882,1282,45.4423,-3.14046
665,-258,35.4747,1.1864,0,0,0,0,0,0,0,-1,1889,1282,35.4747,-1.18637
672,-258,22.703,2.80957,0,0,0,0,0,0,0,-1,1896,1282,22.703,-2.80962
679,-258,26.8693,8.19543,0,0,0,0,0,0,0,-1,1903,1282,26.8692,-8.19548
686,-258,177.352,44.9663,0,0,0,0,0,0,0,-1,1910,1282,177.351,-44.9663
693,-258,202.776,42.8163,0,0,0,0,0,0,0,-1,1917,1282,202.776,-42.8163
700,-258,202.323,41.0701,0,0,0,0,0,0,0,-1,1924,1282,202.323,-41.0701
707,-258,202.083,38.9822,0,0,0,0,0,0,0,-1,1931,1282,202.083,-38.9822
714,-258,201.797,37.2449,-0.00313735,0.0220726,0.00925274,0.0251041,-0.00616882,1.25419,0.0191268,0.0270842,1938,1282,201.797,-37.2448
721,-258,201.518,35.4899,-0.00903377,0.026934,0.0147321,0.0321979,-0.0142976,1.22763,0.0274993,0.0357715,1945,1282,201.518,-35.4898
728,-258,201.084,33.8275,-0.0155687,0.0320359,0.02057,0.0396926,-0.0232255,1.21446,0.0367382,0.0349443,1952,1282,201.084,-33.8275
735,-258,200.809,32.1123,-0.0227274,0.0373579,0.0268033,0.0475766,-0.0329461,1.20656,0.0467449,0.0301113,1959,1282,200.809,-32.1124
742,-258,200.433,30.5957,-0.0304962,0.0428838,0.0334651,0.0558534,-0.0434657,1.20107,0.0574904,0.0304669,1966,1282,200.433,-30.5957
749,-258,199.485,29.5996,0,0,0,0,0,0,0,-1,1973,1282,199.485,-29.5996
756,-258,146.302,29.0245,0,0,0,0,0,0,0,-1,1980,1282,146.302,-29.0245
763,-258,39.3638,5.09753,0,0,0,0,0,0,0,-1,1987,1282,39.3638,-5.09751
770,-258,40.3713,4.08325,0,0,0,0,0,0,0,-1,1994,1282,40.3713,-4.08323
777,-258,31.912,4.83093,0,0,0,0,0,0,0,-1,2001,1282,31.912,-4.8309
784,-258,32.6525,6.43091,0,0,0,0,0,0,0,-1,2008,1282,32.6525,-6.43091
791,-258,0,0,0,0,0,0,0,0,0,-1,2015,1282,0,0
798,-258,0,0,0,0,0,0,0,0,0,-1,2022,1282,0,0
805,-258,0,0,0,0,0,0,0,0,0,-1,2029,1282,0,0
812,-258,0,0,0,0,0,0,0,0,0,-1,2036,1282,0,0
-700,-265,0,0,0,0,0,0,0,0,0,-1,524,1289,0,0
-693,-265,0,0,0,0,0,0,0,0,0,-1,531,1289,0,0
-686,-265,0,0,0,0,0,0,0,0,0,-1,538,1289,0,0
-679,-265,0,0,0,0,0,0,0,0,0,-1,545,1289,0,0
-672,-265,0,0,0,0,0,0,0,0,0,-1,552,1289,0,0
-665,-265,-76.8365,26.342,0,0,0,0,0,0,0,-1,559,1289,-76.8365,-26.342
-658,-265,-65.901,0.884277,0,0,0,0,0,0,0,-1,566,1289,-65.901,-0.884263
-651,-265,-44.821,1.0614,0,0,0,0,0,0,0,-1,573,1289,-44.821,-1.06141
-644,-265,-44.4684,0.304932,0,0,0,0,0,0,0,-1,580,1289,-44.4684,-0.304991
-637,-265,-44.6157,0.250122,0,0,0,0,0,0,0,-1,587,1289,-44.6157,-0.250067
-630,-265,-44.5689,0.900269,0,0,0,0,0,0,0,-1,594,1289,-44.5689,-0.900302
-623,-265,-68.8688,15.7357,0,0,0,0,0,0,0,-1,601,1289,-68.8688,-15.7357
-616,-265,-191.788,26.4534,0,0,0,0,0,0,0,-1,608,1289,-191.788,-26.4533
-609,-265,-191.913,28.5288,-0.0218506,0.0588599,-0.0258606,0.066435,-0.0294257,-1.28585,0.0567034,0.0383704,615,1289,-191.913,-28.5288
-602,-265,-192.368,30.4309,-0.0165089,0.0524407,-0.0228666,0.0593349,-0.0234031,-1.27797,0.0492475,0.0232084,622,1289,-192.368,-30.4309
-595,-265,-192.67,32.0712,-0.0108897,0.0462623,-0.0190627,0.052037,-0.0166644,-1.27665,0.0413802,0.0219542,629,1289,-192.67,-32.0711
-588,-265,-192.926,33.6818,-0.00495257,0.0402152,-0.0144554,0.0444453,-0.00918267,-1.28611,0.0331182,0.0208619,636,1289,-192.926,-33.6817
-581,-265,-193.129,35.2803,0,0,0,0,0,0,0,-1,643,1289,-193.129,-35.2802
-574,-265,-193.934,36.3593,0,0,0,0,0,0,0,-1,650,1289,-193.934,-36.3592
-567,-265,-193.89,39.1378,0,0,0,0,0,0,0,-1,657,1289,-193.89,-39.1378
-560,-265,-194.132,41.4969,0,0,0,0,0,0,0,-1,664,1289,-194.132,-41.497
-553,-265,-68.6046,28.845,0,0,0,0,0,0,0,-1,671,1289,-68.6046,-28.8449
-546,-265,-24.2283,10.2581,0,0,0,0,0,0,0,-1,678,1289,-24.2283,-10.258
-539,-265,-13.7668,6.39917,0,0,0,0,0,0,0,-1,685,1289,-13.7668,-6.39915
-532,-265,-8.53998,3.41467,0,0,0,0,0,0,0,-1,692,1289,-8.53996,-3.41473
-525,-265,-12.1317,0.514648,0,0,0,0,0,0,0,-1,699,1289,-12.1317,-0.514634
-518,-265,-24.1604,0.712402,0,0,0,0,0,0,0,-1,706,1289,-24.1604,-0.712425
-511,-265,-23.233,0.791626,0,0,0,0,0,0,0,-1,713,1289,-23.233,-0.791617
-504,-265,-22.3056,0.87085,0,0,0,0,0,0,0,-1,720,1289,-22.3056,-0.87081
-497,-265,-18.689,-0.278442,0,0,0,0,0,0,0,-1,727,1289,-18.689,0.278423
-490,-265,-15.1696,0.492676,0,0,0,0,0,0,0,-1,734,1289,-15.1696,-0.492688
-483,-265,0,0,0,0,0,0,0,0,0,-1,741,1289,0,0
-476,-265,0,0,0,0,0,0,0,0,0,-1,748,1289,0,0
-469,-265,0,0,0,0,0,0,0,0,0,-1,755,1289,0,0
-462,-265,0,0,0,0,0,0,0,0,0,-1,762,1289,0,0
-455,-265,0,0,0,0,0,0,0,0,0,-1,769,1289,0,0
-448,-265,0,0,0,0,0,0,0,0,0,-1,776,1289,0,0
-441,-265,0,0,0,0,0,0,0,0,0,-1,783,1289,0,0
-434,-265,0,0,0,0,0,0,0,0,0,-1,790,1289,0,0
-427,-265,0,0,0,0,0,0,0,0,0,-1,797,1289,0,0
-420,-265,0,0,0,0,0,0,0,0,0,-1,804,1289,0,0
-413,-265,0,0,0,0,0,0,0,0,0,-1,811,1289,0,0
-406,-265,0,0,0,0,0,0,0,0,0,-1,818,1289,0,0
-399,-265,0,0,0,0,0,0,0,0,0,-1,825,1289,0,0
-392,-265,0,0,0,0,0,0,0,0,0,-1,832,1289,0,0
-385,-265,0,0,0,0,0,0,0,0,0,-1,839,1289,0,0
-378,-265,0,0,0,0,0,0,0,0,0,-1,846,1289,0,0
-371,-265,0,0,0,0,0,0,0,0,0,-1,853,1289,0,0
-364,-265,0,0,0,0,0,0,0,0,0,-1,860,1289,0,0
-357,-265,0,0,0,0,0,0,0,0,0,-1,867,1289,0,0
-350,-265,0,0,0,0,0,0,0,0,0,-1,874,1289,0,0
-343,-265,0,0,0,0,0,0,0,0,0,-1,881,1289,0,0
-336,-265,0,0,0,0,0,0,0,0,0,-1,888,1289,0,0
-329,-265,0,0,0,0,0,0,0,0,0,-1,895,1289,0,0
-322,-265,0,0,0,0,0,0,0,0,0,-1,902,1289,0,0
-315,-265,0,0,0,0,0,0,0,0,0,-1,909,1289,0,0
-308,-265,0,0,0,0,0,0,0,0,0,-1,916,1289,0,0
-301,-265,0,0,0,0,0,0,0,0,0,-1,923,1289,0,0
-294,-265,0,0,0,0,0,0,0,0,0,-1,930,1289,0,0
-287,-265,0,0,0,0,0,0,0,0,0,-1,937,1289,0,0
-280,-265,0,0,0,0,0,0,0,0,0,-1,944,1289,0,0
-273,-265,0,0,0,0,0,0,0,0,0,-1,951,1289,0,0
-266,-265,0,0,0,0,0,0,0,0,0,-1,958,1289,0,0
-259,-265,0,0,0,0,0,0,0,0,0,-1,965,1289,0,0
-252,-265,0,0,0,0,0,0,0,0,0,-1,972,1289,0,0
-245,-265,0,0,0,0,0,0,0,0,0,-1,979,1289,0,0
-238,-265,0,0,0,0,0,0,0,0,0,-1,986,1289,0,0
-231,-265,0,0,0,0,0,0,0,0,0,-1,993,1289,0,0
-224,-265,0,0,0,0,0,0,0,0,0,-1,1000,1289,0,0
-217,-265,0,0,0,0,0,0,0,0,0,-1,1007,1289,0,0
-210,-265,0,0,0,0,0,0,0,0,0,-1,1014,1289,0,0
-203,-265,0,0,0,0,0,0,0,0,0,-1,1021,1289,0,0
-196,-265,0,0,0,0,0,0,0,0,0,-1,1028,1289,0,0
-189,-265,0,0,0,0,0,0,0,0,0,-1,1035,1289,0,0
-182,-265,0,0,0,0,0,0,0,0,0,-1,1042,1289,0,0
-175,-265,0,0,0,0,0,0,0,0,0,-1,1049,1289,0,0
-168,-265,0,0,0,0,0,0,0,0,0,-1,1056,1289,0,0
-161,-265,0,0,0,0,0,0,0,0,0,-1,1063,1289,0,0
-154,-265,0,0,0,0,0,0,0,0,0,-1,1070,1289,0,0
-147,-265,0,0,0,0,0,0,0,0,0,-1,1077,1289,0,0
-140,-265,0,0,0,0,0,0,0,0,0,-1,1084,1289,0,0
-133,-265,0,0,0,0,0,0,0,0,0,-1,1091,1289,0,0
-126,-265,0,0,0,0,0,0,0,0,0,-1,1098,1289,0,0
-119,-265,0,0,0,0,0,0,0,0,0,-1,1105,1289,0,0
-112,-265,0,0,0,0,0,0,0,0,0,-1,1112,1289,0,0
-105,-265,0,0,0,0,0,0,0,0,0,-1,1119,1289,0,0
-98,-265,0,0,0,0,0,0,0,0,0,-1,1126,1289,0,0
-91,-265,0,0,0,0,0,0,0,0,0,-1,1133,1289,0,0
-84,-265,0,0,0,0,0,0,0,0,0,-1,1140,1289,0,0
-77,-265,0,0,0,0,0,0,0,0,0,-1,1147,1289,0,0
-70,-265,0,0,0,0,0,0,0,0,0,-1,1154,1289,0,0
-63,-265,0,0,0,0,0,0,0,0,0,-1,1161,1289,0,0
-56,-265,0,0,0,0,0,0,0,0,0,-1,1168,1289,0,0
-49,-265,0,0,0,0,0,0,0,0,0,-1,1175,1289,0,0
-42,-265,0,0,0,0,0,0,0,0,0,-1,1182,1289,0,0
-35,-265,0,0,0,0,0,0,0,0,0,-1,1189,1289,0,0
-28,-265,0,0,0,0,0,0,0,0,0,-1,1196,1289,0,0
-21,-265,0,0,0,0,0,0,0,0,0,-1,1203,1289,0,0
-14,-265,0,0,0,0,0,0,0,0,0,-1,1210,1289,0,0
-7,-265,0,0,0,0,0,0,0,0,0,-1,1217,1289,0,0
0,-265,0,0,0,0,0,0,0,0,0,-1,1224,1289,0,0
7,-265,0,0,0,0,0,0,0,0,0,-1,1231,1289,0,0
14,-265,0,0,0,0,0,0,0,0,0,-1,1238,1289,0,0
21,-265,0,0,0,0,0,0,0,0,0,-1,1245,1289,0,0
28,-265,0,0,0,0,0,0,0,0,0,-1,1252,1289,0,0
35,-265,0,0,0,0,0,0,0,0,0,-1,1259,1289,0,0
42,-265,0,0,0,0,0,0,0,0,0,-1,1266,1289,0,0
49,-265,0,0,0,0,0,0,0,0,0,-1,1273,1289,0,0
56,-265,0,0,0,0,0,0,0,0,0,-1,1280,1289,0,0
63,-265,0,0,0,0,0,0,0,0,0,-1,1287,1289,0,0
70,-265,0,0,0,0,0,0,0,0,0,-1,1294,1289,0,0
77,-265,0,0,0,0,0,0,0,0,0,-1,1301,1289,0,0
84,-265,0,0,0,0,0,0,0,0,0,-1,1308,1289,0,0
91,-265,0,0,0,0,0,0,0,0,0,-1,1315,1289,0,0
98,-265,0,0,0,0,0,0,0,0,0,-1,1322,1289,0,0
105,-265,0,0,0,0,0,0,0,0,0,-1,1329,1289,0,0
112,-265,0,0,0,0,0,0,0,0,0,-1,1336,1289,0,0
119,-265,0,0,0,0,0,0,0,0,0,-1,1343,1289,0,0
126,-265,0,0,0,0,0,0,0,0,0,-1,1350,1289,0,0
133,-265,0,0,0,0,0,0,0,0,0,-1,1357,1289,0,0
140,-265,0,0,0,0,0,0,0,0,0,-1,1364,1289,0,0
147,-265,0,0,0,0,0,0,0,0,0,-1,1371,1289,0,0
154,-265,0,0,0,0,0,0,0,0,0,-1,1378,1289,0,0
161,-265,0,0,0,0,0,0,0,0,0,-1,1385,1289,0,0
168,-265,0,0,0,0,0,0,0,0,0,-1,1392,1289,0,0
175,-265,0,0,0,0,0,0,0,0,0,-1,1399,1289,0,0
182,-265,0,0,0,0,0,0,0,0,0,-1,1406,1289,0,0
189,-265,0,0,0,0,0,0,0,0,0,-1,1413,1289,0,0
196,-265,0,0,0,0,0,0,0,0,0,-1,1420,1289,0,0
203,-265,0,0,0,0,0,0,0,0,0,-1,1427,1289,0,0
210,-265,0,0,0,0,0,0,0,0,0,-1,1434,1289,0,0
217,-265,0,0,0,0,0,0,0,0,0,-1,1441,1289,0,0
224,-265,0,0,0,0,0,0,0,0,0,-1,1448,1289,0,0
231,-265,0,0,0,0,0,0,0,0,0,-1,1455,1289,0,0
238,-265,0,0,0,0,0,0,0,0,0,-1,1462,1289,0,0
245,-265,0,0,0,0,0,0,0,0,0,-1,1469,1289,0,0
252,-265,0,0,0,0,0,0,0,0,0,-1,1476,1289,0,0
259,-265,0,0,0,0,0,0,0,0,0,-1,1483,1289,0,0
266,-265,0,0,0,0,0,0,0,0,0,-1,1490,1289,0,0
273,-265,0,0,0,0,0,0,0,0,0,-1,1497,1289,0,0
280,-265,0,0,0,0,0,0,0,0,0,-1,1504,1289,0,0
287,-265,0,0,0,0,0,0,0,0,0,-1,1511,1289,0,0
294,-265,0,0,0,0,0,0,0,0,0,-1,1518,1289,0,0
301,-265,0,0,0,0,0,0,0,0,0,-1,1525,1289,0,0
308,-265,0,0,0,0,0,0,0,0,0,-1,1532,1289,0,0
315,-265,0,0,0,0,0,0,0,0,0,-1,1539,1289,0,0
322,-265,0,0,0,0,0,0,0,0,0,-1,1546,1289,0,0
329,-265,0,0,0,0,0,0,0,0,0,-1,1553,1289,0,0
336,-265,0,0,0,0,0,0,0,0,0,-1,1560,1289,0,0
343,-265,0,0,0,0,0,0,0,0,0,-1,1567,1289,0,0
350,-265,0,0,0,0,0,0,0,0,0,-1,1574,1289,0,0
357,-265,0,0,0,0,0,0,0,0,0,-1,1581,1289,0,0
364,-265,0,0,0,0,0,0,0,0,0,-1,1588,1289,0,0
371,-265,0,0,0,0,0,0,0,0,0,-1,1595,1289,0,0
378,-265,0,0,0,0,0,0,0,0,0,-1,1602,1289,0,0
385,-265,0,0,0,0,0,0,0,0,0,-1,1609,1289,0,0
392,-265,0,0,0,0,0,0,0,0,0,-1,1616,1289,0,0
399,-265,0,0,0,0,0,0,0,0,0,-1,1623,1289,0,0
406,-265,0,0,0,0,0,0,0,0,0,-1,1630,1289,0,0
413,-265,0,0,0,0,0,0,0,0,0,-1,1637,1289,0,0
420,-265,0,0,0,0,0,0,0,0,0,-1,1644,1289,0,0
427,-265,0,0,0,0,0,0,0,0,0,-1,1651,1289,0,0
434,-265,0,0,0,0,0,0,0,0,0,-1,1658,1289,0,0
441,-265,0,0,0,0,0,0,0,0,0,-1,1665,1289,0,0
448,-265,0,0,0,0,0,0,0,0,0,-1,1672,1289,0,0
455,-265,0,0,0,0,0,0,0,0,0,-1,1679,1289,0,0
462,-265,0,0,0,0,0,0,0,0,0,-1,1686,1289,0,0
469,-265,0,0,0,0,0,0,0,0,0,-1,1693,1289,0,0
476,-265,0,0,0,0,0,0,0,0,0,-1,1700,1289,0,0
483,-265,0,0,0,0,0,0,0,0,0,-1,1707,1289,0,0
490,-265,0,0,0,0,0,0,0,0,0,-1,1714,1289,0,0
497,-265,0,0,0,0,0,0,0,0,0,-1,1721,1289,0,0
504,-265,0,0,0,0,0,0,0,0,0,-1,1728,1289,0,0
511,-265,0,0,0,0,0,0,0,0,0,-1,1735,1289,0,0
518,-265,0,0,0,0,0,0,0,0,0,-1,1742,1289,0,0
525,-265,0,0,0,0,0,0,0,0,0,-1,1749,1289,0,0
532,-265,0,0,0,0,0,0,0,0,0,-1,1756,1289,0,0
539,-265,0,0,0,0,0,0,0,0,0,-1,1763,1289,0,0
546,-265,0,0,0,0,0,0,0,0,0,-1,1770,1289,0,0
553,-265,0,0,0,0,0,0,0,0,0,-1,1777,1289,0,0
560,-265,0,0,0,0,0,0,0,0,0,-1,1784,1289,0,0
567,-265,0,0,0,0,0,0,0,0,0,-1,1791,1289,0,0
574,-265,0,0,0,0,0,0,0,0,0,-1,1798,1289,0,0
581,-265,0,0,0,0,0,0,0,0,0,-1,1805,1289,0,0
588,-265,0,0,0,0,0,0,0,0,0,-1,1812,1289,0,0
595,-265,0,0,0,0,0,0,0,0,0,-1,1819,1289,0,0
602,-265,227.703,8.97449,0,0,0,0,0,0,0,-1,1826,1289,227.703,-8.97447
609,-265,227.664,8.93567,0,0,0,0,0,0,0,-1,1833,1289,227.664,-8.93564
616,-265,227.748,8.9054,0,0,0,0,0,0,0,-1,1840,1289,227.748,-8.90538
623,-265,125.862,3.50574,0,0,0,0,0,0,0,-1,1847,1289,125.862,-3.5057
630,-265,107.643,2.78882,0,0,0,0,0,0,0,-1,1854,1289,107.643,-2.78883
637,-265,92.8903,1.12158,0,0,0,0,0,0,0,-1,1861,1289,92.8903,-1.12158
644,-265,77.3746,2.97742,0,0,0,0,0,0,0,-1,1868,1289,77.3746,-2.97738
651,-265,53.6781,1.57166,0,0,0,0,0,0,0,-1,1875,1289,53.6781,-1.57167
658,-265,41.7163,3.71619,0,0,0,0,0,0,0,-1,1882,1289,41.7163,-3.71624
665,-265,34.7902,1.43164,0,0,0,0,0,0,0,-1,1889,1289,34.7901,-1.43162
672,-265,20.0045,6.62671,0,0,0,0,0,0,0,-1,1896,1289,20.0045,-6.62668
679,-265,82.8594,29.2052,0,0,0,0,0,0,0,-1,1903,1289,82.8594,-29.2052
686,-265,200.489,44.5114,0,0,0,0,0,0,0,-1,1910,1289,200.489,-44.5113
693,-265,200.299,43.1448,0,0,0,0,0,0,0,-1,1917,1289,200.299,-43.1448
700,-265,200.145,41.5161,0,0,0,0,0,0,0,-1,1924,1289,200.145,-41.5161
707,-265,200.079,39.3453,-0.00198577,0.0183678,0.00626885,0.0201436,-0.00376163,1.29475,0.0148427,0.0281178,1931,1289,200.079,-39.3454
714,-265,199.875,37.3708,-0.00669187,0.0233505,0.0113316,0.0271453,-0.0104867,1.24765,0.0224252,0.0275249,1938,1289,199.874,-37.3708
721,-265,199.377,35.5701,-0.0120268,0.0284032,0.0167797,0.0344599,-0.0180836,1.22439,0.0308232,0.0373342,1945,1289,199.377,-35.5701
728,-265,198.97,33.9381,-0.0179861,0.0335742,0.0226598,0.0421173,-0.0265292,1.21026,0.0399722,0.0365707,1952,1289,198.97,-33.9381
735,-265,198.848,32.1949,-0.0245975,0.0388557,0.0290242,0.0501289,-0.0358707,1.20032,0.0498788,0.0273546,1959,1289,198.848,-32.195
742,-265,198.563,30.6056,-0.031836,0.0442536,0.035955,0.0585554,-0.0461378,1.19221,0.0605862,0.0341837,1966,1289,198.563,-30.6056
749,-265,198.304,28.9761,0,0,0,0,0,0,0,-1,1973,1289,198.304,-28.9761
756,-265,69.9429,10.3409,0,0,0,0,0,0,0,-1,1980,1289,69.9429,-10.341
763,-265,39.1299,4.9679,0,0,0,0,0,0,0,-1,1987,1289,39.1299,-4.96791
770,-265,35.1674,5.07715,0,0,0,0,0,0,0,-1,1994,1289,35.1673,-5.07718
777,-265,32.1664,5.3457,0,0,0,0,0,0,0,-1,2001,1289,32.1664,-5.34568
784,-265,0,0,0,0,0,0,0,0,0,-1,2008,1289,0,0
791,-265,0,0,0,0,0,0,0,0,0,-1,2015,1289,0,0
798,-265,0,0,0,0,0,0,0,0,0,-1,2022,1289,0,0
805,-265,0,0,0,0,0,0,0,0,0,-1,2029,1289,0,0
812,-265,0,0,0,0,0,0,0,0,0,-1,2036,1289,0,0
-700,-272,0,0,0,0,0,0,0,0,0,-1,524,1296,0,0
-693,-272,0,0,0,0,0,0,0,0,0,-1,531,1296,0,0
-686,-272,0,0,0,0,0,0,0,0,0,-1,538,1296,0,0
-679,-272,0,0,0,0,0,0,0,0,0,-1,545,1296,0,0
-672,-272,0,0,0,0,0,0,0,0,0,-1,552,1296,0,0
-665,-272,0,0,0,0,0,0,0,0,0,-1,559,1296,0,0
-658,-272,-44.6526,1.54443,0,0,0,0,0,0,0,-1,566,1296,-44.6526,-1.5444
-651,-272,-44.3723,1.53772,0,0,0,0,0,0,0,-1,573,1296,-44.3723,-1.53774
-644,-272,-44.1104,1.46021,0,0,0,0,0,0,0,-1,580,1296,-44.1104,-1.46022
-637,-272,-43.9348,1.25171,0,0,0,0,0,0,0,-1,587,1296,-43.9348,-1.25175
-630,-272,-43.5906,0.784912,0,0,0,0,0,0,0,-1,594,1296,-43.5906,-0.784935
-623,-272,-36.8673,6.23547,0,0,0,0,0,0,0,-1,601,1296,-36.8673,-6.23548
-616,-272,-161.404,29.9991,0,0,0,0,0,0,0,-1,608,1296,-161.404,-29.9991
-609,-272,-189.852,28.4695,0,0,0,0,0,0,0,-1,615,1296,-189.852,-28.4695
-602,-272,-190.162,30.2416,-0.0169436,0.0543328,-0.0243738,0.0618705,-0.0244814,-1.27087,0.0513895,0.0285741,622,1296,-190.162,-30.2416
-595,-272,-190.53,32.0284,-0.0112286,0.0480839,-0.0210176,0.0547765,-0.0179211,-1.26252,0.0437329,0.0216994,629,1296,-190.53,-32.0285
-588,-272,-190.897,33.7423,-0.00508305,0.0420109,-0.0168768,0.0474343,-0.0105065,-1.25986,0.035645,0.0220572,636,1296,-190.897,-33.7423
-581,-272,-191.174,35.5416,0.00149693,0.0360031,-0.0120011,0.0397665,-0.00226655,-1.26692,0.0272979,0.0305958,643,1296,-191.174,-35.5417
-574,-272,-191.358,37.6244,0,0,0,0,0,0,0,-1,650,1296,-191.358,-37.6244
-567,-272,-191.727,39.1904,0,0,0,0,0,0,0,-1,657,1296,-191.727,-39.1905
-560,-272,-76.906,31.7885,0,0,0,0,0,0,0,-1,664,1296,-76.906,-31.7884
-553,-272,-77.0592,33.2899,0,0,0,0,0,0,0,-1,671,1296,-77.0592,-33.2899
-546,-272,-66.9853,29.9088,0,0,0,0,0,0,0,-1,678,1296,-66.9853,-29.9089
-539,-272,-24.1416,11.0325,0,0,0,0,0,0,0,-1,685,1296,-24.1416,-11.0324
-532,-272,-10.5572,4.53943,0,0,0,0,0,0,0,-1,692,1296,-10.5572,-4.53943
-525,-272,-11.9599,0.0393066,0,0,0,0,0,0,0,-1,699,1296,-11.9599,-0.0393577
-518,-272,-21.1357,-1.41382,0,0,0,0,0,0,0,-1,706,1296,-21.1357,1.41379
-511,-272,-23.2565,0.226318,0,0,0,0,0,0,0,-1,713,1296,-23.2565,-0.22626
-504,-272,-19.7397,0.114746,0,0,0,0,0,0,0,-1,720,1296,-19.7397,-0.114701
-497,-272,-19.2225,1.71301,0,0,0,0,0,0,0,-1,727,1296,-19.2225,-1.71302
-490,-272,-20.1948,2.4032,0,0,0,0,0,0,0,-1,734,1296,-20.1948,-2.40322
-483,-272,-15.3736,0.792603,0,0,0,0,0,0,0,-1,741,1296,-15.3736,-0.79263
-476,-272,0,0,0,0,0,0,0,0,0,-1,748,1296,0,0
-469,-272,0,0,0,0,0,0,0,0,0,-1,755,1296,0,0
-462,-272,0,0,0,0,0,0,0,0,0,-1,762,1296,0,0
-455,-272,0,0,0,0,0,0,0,0,0,-1,769,1296,0,0
-448,-272,0,0,0,0,0,0,0,0,0,-1,776,1296,0,0
-441,-272,0,0,0,0,0,0,0,0,0,-1,783,1296,0,0
-434,-272,0,0,0,0,0,0,0,0,0,-1,790,1296,0,0
-427,-272,0,0,0,0,0,0,0,0,0,-1,797,1296,0,0
-420,-272,0,0,0,0,0,0,0,0,0,-1,804,1296,0,0
-413,-272,0,0,0,0,0,0,0,0,0,-1,811,1296,0,0
-406,-272,0,0,0,0,0,0,0,0,0,-1,818,1296,0,0
-399,-272,0,0,0,0,0,0,0,0,0,-1,825,1296,0,0
-392,-272,0,0,0,0,0,0,0,0,0,-1,832,1296,0,0
-385,-272,0,0,0,0,0,0,0,0,0,-1,839,1296,0,0
-378,-272,0,0,0,0,0,0,0,0,0,-1,846,1296,0,0
-371,-272,0,0,0,0,0,0,0,0,0,-1,853,1296,0,0
-364,-272,0,0,0,0,0,0,0,0,0,-1,860,1296,0,0
-357,-272,0,0,0,0,0,0,0,0,0,-1,867,1296,0,0
-350,-272,0,0,0,0,0,0,0,0,0,-1,874,1296,0,0
-343,-272,0,0,0,0,0,0,0,0,0,-1,881,1296,0,0
-336,-272,0,0,0,0,0,0,0,0,0,-1,888,1296,0,0
-329,-272,0,0,0,0,0,0,0,0,0,-1,895,1296,0,0
-322,-272,0,0,0,0,0,0,0,0,0,-1,902,1296,0,0
-315,-272,0,0,0,0,0,0,0,0,0,-1,909,1296,0,0
-308,-272,0,0,0,0,0,0,0,0,0,-1,916,1296,0,0
-301,-272,0,0,0,0,0,0,0,0,0,-1,923,1296,0,0
-294,-272,0,0,0,0,0,0,0,0,0,-1,930,1296,0,0
-287,-272,0,0,0,0,0,0,0,0,0,-1,937,1296,0,0
-280,-272,0,0,0,0,0,0,0,0,0,-1,944,1296,0,0
-273,-272,0,0,0,0,0,0,0,0,0,-1,951,1296,0,0
-266,-272,0,0,0,0,0,0,0,0,0,-1,958,1296,0,0
-259,-272,0,0,0,0,0,0,0,0,0,-1,965,1296,0,0
-252,-272,0,0,0,0,0,0,0,0,0,-1,972,1296,0,0
-245,-272,0,0,0,0,0,0,0,0,0,-1,979,1296,0,0
-238,-272,0,0,0,0,0,0,0,0,0,-1,986,1296,0,0
-231,-272,0,0,0,0,0,0,0,0,0,-1,993,1296,0,0
-224,-272,0,0,0,0,0,0,0,0,0,-1,1000,1296,0,0
-217,-272,0,0,0,0,0,0,0,0,0,-1,1007,1296,0,0
-210,-272,0,0,0,0,0,0,0,0,0,-1,1014,1296,0,0
-203,-272,0,0,0,0,0,0,0,0,0,-1,1021,1296,0,0
-196,-272,0,0,0,0,0,0,0,0,0,-1,1028,1296,0,0
-189,-272,0,0,0,0,0,0,0,0,0,-1,1035,1296,0,0
-182,-272,0,0,0,0,0,0,0,0,0,-1,1042,1296,0,0
-175,-272,0,0,0,0,0,0,0,0,0,-1,1049,1296,0,0
-168,-272,0,0,0,0,0,0,0,0,0,-1,1056,1296,0,0
-161,-272,0,0,0,0,0,0,0,0,0,-1,1063,1296,0,0
-154,-272,0,0,0,0,0,0,0,0,0,-1,1070,1296,0,0
-147,-272,0,0,0,0,0,0,0,0,0,-1,1077,1296,0,0
-140,-272,0,0,0,0,0,0,0,0,0,-1,1084,1296,0,0
-133,-272,0,0,0,0,0,0,0,0,0,-1,1091,1296,0,0
-126,-272,0,0,0,0,0,0,0,0,0,-1,1098,1296,0,0
-119,-272,0,0,0,0,0,0,0,0,0,-1,1105,1296,0,0
-112,-272,0,0,0,0,0,0,0,0,0,-1,1112,1296,0,0
-105,-272,0,0,0,0,0,0,0,0,0,-1,1119,1296,0,0
-98,-272,0,0,0,0,0,0,0,0,0,-1,1126,1296,0,0
-91,-272,0,0,0,0,0,0,0,0,0,-1,1133,1296,0,0
-84,-272,0,0,0,0,0,0,0,0,0,-1,1140,1296,0,0
-77,-272,0,0,0,0,0,0,0,0,0,-1,1147,1296,0,0
-70,-272,0,0,0,0,0,0,0,0,0,-1,1154,1296,0,0
-63,-272,0,0,0,0,0,0,0,0,0,-1,1161,1296,0,0
-56,-272,0,0,0,0,0,0,0,0,0,-1,1168,1296,0,0
-49,-272,0,0,0,0,0,0,0,0,0,-1,1175,1296,0,0
-42,-272,0,0,0,0,0,0,0,0,0,-1,1182,1296,0,0
-35,-272,0,0,0,0,0,0,0,0,0,-1,1189,1296,0,0
-28,-272,0,0,0,0,0,0,0,0,0,-1,1196,1296,0,0
-21,-272,0,0,0,0,0,0,0,0,0,-1,1203,1296,0,0
-14,-272,0,0,0,0,0,0,0,0,0,-1,1210,1296,0,0
-7,-272,0,0,0,0,0,0,0,0,0,-1,1217,1296,0,0
0,-272,0,0,0,0,0,0,0,0,0,-1,1224,1296,0,0
7,-272,0,0,0,0,0,0,0,0,0,-1,1231,1296,0,0
14,-272,0,0,0,0,0,0,0,0,0,-1,1238,1296,0,0
21,-272,0,0,0,0,0,0,0,0,0,-1,1245,1296,0,0
28,-272,0,0,0,0,0,0,0,0,0,-1,1252,1296,0,0
35,-272,0,0,0,0,0,0,0,0,0,-1,1259,1296,0,0
42,-272,0,0,0,0,0,0,0,0,0,-1,1266,1296,0,0
49,-272,0,0,0,0,0,0,0,0,0,-1,1273,1296,0,0
56,-272,0,0,0,0,0,0,0,0,0,-1,1280,1296,0,0
63,-272,0,0,0,0,0,0,0,0,0,-1,1287,1296,0,0
70,-272,0,0,0,0,0,0,0,0,0,-1,1294,1296,0,0
77,-272,0,0,0,0,0,0,0,0,0,-1,1301,1296,0,0
84,-272,0,0,0,0,0,0,0,0,0,-1,1308,1296,0,0
91,-272,0,0,0,0,0,0,0,0,0,-1,1315,1296,0,0
98,-272,0,0,0,0,0,0,0,0,0,-1,1322,1296,0,0
105,-272,0,0,0,0,0,0,0,0,0,-1,1329,1296,0,0
112,-272,0,0,0,0,0,0,0,0,0,-1,1336,1296,0,0
119,-272,0,0,0,0,0,0,0,0,0,-1,1343,1296,0,0
126,-272,0,0,0,0,0,0,0,0,0,-1,1350,1296,0,0
133,-272,0,0,0,0,0,0,0,0,0,-1,1357,1296,0,0
140,-272,0,0,0,0,0,0,0,0,0,-1,1364,1296,0,0
147,-272,0,0,0,0,0,0,0,0,0,-1,1371,1296,0,0
154,-272,0,0,0,0,0,0,0,0,0,-1,1378,1296,0,0
161,-272,0,0,0,0,0,0,0,0,0,-1,1385,1296,0,0
168,-272,0,0,0,0,0,0,0,0,0,-1,1392,1296,0,0
175,-272,0,0,0,0,0,0,0,0,0,-1,1399,1296,0,0
182,-272,0,0,0,0,0,0,0,0,0,-1,1406,1296,0,0
189,-272,0,0,0,0,0,0,0,0,0,-1,1413,1296,0,0
196,-272,0,0,0,0,0,0,0,0,0,-1,1420,1296,0,0
203,-272,0,0,0,0,0,0,0,0,0,-1,1427,1296,0,0
210,-272,0,0,0,0,0,0,0,0,0,-1,1434,1296,0,0
217,-272,0,0,0,0,0,0,0,0,0,-1,1441,1296,0,0
224,-272,0,0,0,0,0,0,0,0,0,-1,1448,1296,0,0
231,-272,0,0,0,0,0,0,0,0,0,-1,1455,1296,0,0
238,-272,0,0,0,0,0,0,0,0,0,-1,1462,1296,0,0
245,-272,0,0,0,0,0,0,0,0,0,-1,1469,1296,0,0
252,-272,0,0,0,0,0,0,0,0,0,-1,1476,1296,0,0
259,-272,0,0,0,0,0,0,0,0,0,-1,1483,1296,0,0
266,-272,0,0,0,0,0,0,0,0,0,-1,1490,1296,0,0
273,-272,0,0,0,0,0,0,0,0,0,-1,1497,1296,0,0
280,-272,0,0,0,0,0,0,0,0,0,-1,1504,1296,0,0
287,-272,0,0,0,0,0,0,0,0,0,-1,1511,1296,0,0
294,-272,0,0,0,0,0,0,0,0,0,-1,1518,1296,0,0
301,-272,0,0,0,0,0,0,0,0,0,-1,1525,1296,0,0
308,-272,0,0,0,0,0,0,0,0,0,-1,1532,1296,0,0
315,-272,0,0,0,0,0,0,0,0,0,-1,1539,1296,0,0
322,-272,0,0,0,0,0,0,0,0,0,-1,1546,1296,0,0
329,-272,0,0,0,0,0,0,0,0,0,-1,1553,1296,0,0
336,-272,0,0,0,0,0,0,0,0,0,-1,1560,1296,0,0
343,-272,0,0,0,0,0,0,0,0,0,-1,1567,1296,0,0
350,-272,0,0,0,0,0,0,0,0,0,-1,1574,1296,0,0
357,-272,0,0,0,0,0,0,0,0,0,-1,1581,1296,0,0
364,-272,0,0,0,0,0,0,0,0,0,-1,1588,1296,0,0
371,-272,0,0,0,0,0,0,0,0,0,-1,1595,1296,0,0
378,-272,0,0,0,0,0,0,0,0,0,-1,1602,1296,0,0
385,-272,0,0,0,0,0,0,0,0,0,-1,1609,1296,0,0
392,-272,0,0,0,0,0,0,0,0,0,-1,1616,1296,0,0
399,-272,0,0,0,0,0,0,0,0,0,-1,1623,1296,0,0
406,-272,0,0,0,0,0,0,0,0,0,-1,1630,1296,0,0
413,-272,0,0,0,0,0,0,0,0,0,-1,1637,1296,0,0
420,-272,0,0,0,0,0,0,0,0,0,-1,1644,1296,0,0
427,-272,0,0,0,0,0,0,0,0,0,-1,1651,1296,0,0
434,-272,0,0,0,0,0,0,0,0,0,-1,1658,1296,0,0
441,-272,0,0,0,0,0,0,0,0,0,-1,1665,1296,0,0
448,-272,0,0,0,0,0,0,0,0,0,-1,1672,1296,0,0
455,-272,0,0,0,0,0,0,0,0,0,-1,1679,1296,0,0
462,-272,0,0,0,0,0,0,0,0,0,-1,1686,1296,0,0
469,-272,0,0,0,0,0,0,0,0,0,-1,1693,1296,0,0
476,-272,0,0,0,0,0,0,0,0,0,-1,1700,1296,0,0
483,-272,0,0,0,0,0,0,0,0,0,-1,1707,1296,0,0
490,-272,0,0,0,0,0,0,0,0,0,-1,1714,1296,0,0
497,-272,0,0,0,0,0,0,0,0,0,-1,1721,1296,0,0
504,-272,0,0,0,0,0,0,0,0,0,-1,1728,1296,0,0
511,-272,0,0,0,0,0,0,0,0,0,-1,1735,1296,0,0
518,-272,0,0,0,0,0,0,0,0,0,-1,1742,1296,0,0
525,-272,0,0,0,0,0,0,0,0,0,-1,1749,1296,0,0
532,-272,0,0,0,0,0,0,0,0,0,-1,1756,1296,0,0
539,-272,0,0,0,0,0,0,0,0,0,-1,1763,1296,0,0
546,-272,0,0,0,0,0,0,0,0,0,-1,1770,1296,0,0
553,-272,0,0,0,0,0,0,0,0,0,-1,1777,1296,0,0
560,-272,0,0,0,0,0,0,0,0,0,-1,1784,1296,0,0
567,-272,0,0,0,0,0,0,0,0,0,-1,1791,1296,0,0
574,-272,0,0,0,0,0,0,0,0,0,-1,1798,1296,0,0
581,-272,0,0,0,0,0,0,0,0,0,-1,1805,1296,0,0
588,-272,0,0,0,0,0,0,0,0,0,-1,1812,1296,0,0
595,-272,0,0,0,0,0,0,0,0,0,-1,1819,1296,0,0
602,-272,227.709,8.87952,0,0,0,0,0,0,0,-1,1826,1296,227.709,-8.87948
609,-272,227.692,8.83533,0,0,0,0,0,0,0,-1,1833,1296,227.692,-8.8353
616,-272,126.119,3.40002,0,0,0,0,0,0,0,-1,1840,1296,126.119,-3.40006
623,-272,109.517,3.08215,0,0,0,0,0,0,0,-1,1847,1296,109.517,-3.08218
630,-272,97.5989,2.35938,0,0,0,0,0,0,0,-1,1854,1296,97.5989,-2.35936
637,-272,81.689,1.84167,0,0,0,0,0,0,0,-1,1861,1296,81.6889,-1.84169
644,-272,53.563,1.44336,0,0,0,0,0,0,0,-1,1868,1296,53.5629,-1.4433
651,-272,41.9225,4.27161,0,0,0,0,0,0,0,-1,1875,1296,41.9225,-4.27157
658,-272,35.1527,2.10571,0,0,0,0,0,0,0,-1,1882,1296,35.1527,-2.10573
665,-272,22.0238,4.14417,0,0,0,0,0,0,0,-1,1889,1296,22.0238,-4.14421
672,-272,22.661,7.21765,0,0,0,0,0,0,0,-1,1896,1296,22.661,-7.21761
679,-272,51.5885,15.1158,0,0,0,0,0,0,0,-1,1903,1296,51.5885,-15.1159
686,-272,198.7,45.4198,0,0,0,0,0,0,0,-1,1910,1296,198.7,-45.4198
693,-272,198.431,43.4519,0,0,0,0,0,0,0,-1,1917,1296,198.431,-43.4519
700,-272,198.29,41.2552,0,0,0,0,0,0,0,-1,1924,1296,198.289,-41.2553
707,-272,198.046,39.4509,-0.00593082,0.0197002,0.00803354,0.02201,-0.00824062,1.29083,0.0180582,0.0255696,1931,1296,198.046,-39.4509
714,-272,197.71,37.597,-0.00981854,0.0249492,0.0131371,0.0293548,-0.0142242,1.24722,0.0256609,0.0279251,1938,1296,197.71,-37.597
721,-272,197.263,35.7761,-0.0144074,0.030122,0.0185954,0.036866,-0.0211514,1.22288,0.0339035,0.0404832,1945,1296,197.263,-35.7761
728,-272,196.811,33.937,-0.0196679,0.035315,0.0244762,0.0446321,-0.0289849,1.20708,0.0428216,0.0430448,1952,1296,196.811,-33.937
735,-272,196.577,32.2828,-0.0257274,0.0404668,0.0308731,0.0526308,-0.0378914,1.19547,0.0524935,0.0333288,1959,1296,196.577,-32.2828
742,-272,196.086,30.5746,-0.0324163,0.0457007,0.037927,0.061085,-0.0478007,1.18545,0.063021,0.0412341,1966,1296,196.086,-30.5746
749,-272,195.61,28.6735,0,0,0,0,0,0,0,-1,1973,1296,195.61,-28.6735
756,-272,95.0237,19.6219,0,0,0,0,0,0,0,-1,1980,1296,95.0237,-19.622
763,-272,34.3995,5.88416,0,0,0,0,0,0,0,-1,1987,1296,34.3996,-5.88419
770,-272,25.9485,3.67749,0,0,0,0,0,0,0,-1,1994,1296,25.9485,-3.67744
777,-272,32.3619,6.13257,0,0,0,0,0,0,0,-1,2001,1296,32.362,-6.1326
784,-272,0,0,0,0,0,0,0,0,0,-1,2008,1296,0,0
791,-272,0,0,0,0,0,0,0,0,0,-1,2015,1296,0,0
798,-272,0,0,0,0,0,0,0,0,0,-1,2022,1296,0,0
805,-272,0,0,0,0,0,0,0,0,0,-1,2029,1296,0,0
812,-272,0,0,0,0,0,0,0,0,0,-1,2036,1296,0,0
-700,-279,0,0,0,0,0,0,0,0,0,-1,524,1303,0,0
-693,-279,0,0,0,0,0,0,0,0,0,-1,531,1303,0,0
-686,-279,0,0,0,0,0,0,0,0,0,-1,538,1303,0,0
-679,-279,0,0,0,0,0,0,0,0,0,-1,545,1303,0,0
-672,-279,0,0,0,0,0,0,0,0,0,-1,552,1303,0,0
-665,-279,0,0,0,0,0,0,0,0,0,-1,559,1303,0,0
-658,-279,-44.3733,1.65881,0,0,0,0,0,0,0,-1,566,1303,-44.3733,-1.65883
-651,-279,-44.1603,1.61462,0,0,0,0,0,0,0,-1,573,1303,-44.1604,-1.61462
-644,-279,-43.8069,1.50903,0,0,0,0,0,0,0,-1,580,1303,-43.8069,-1.50909
-637,-279,-43.2951,1.33704,0,0,0,0,0,0,0,-1,587,1303,-43.2951,-1.33703
-630,-279,-42.6152,1.22852,0,0,0,0,0,0,0,-1,594,1303,-42.6152,-1.22856
-623,-279,-41.8359,0.907715,0,0,0,0,0,0,0,-1,601,1303,-41.8358,-0.907688
-616,-279,-36.7089,8.0625,0,0,0,0,0,0,0,-1,608,1303,-36.7089,-8.06252
-609,-279,-188.04,28.2162,0,0,0,0,0,0,0,-1,615,1303,-188.04,-28.2162
-602,-279,-188.1,30.174,-0.017195,0.0563351,-0.0256582,0.0644032,-0.0252631,-1.26614,0.0533876,0.0327359,622,1303,-188.1,-30.174
-595,-279,-188.439,31.9954,-0.0114321,0.0499997,-0.0226803,0.0574657,-0.0188981,-1.25278,0.0459248,0.0216002,629,1303,-188.439,-31.9953
-588,-279,-188.777,33.774,-0.00519869,0.0438793,-0.0189604,0.0503509,-0.0116703,-1.24187,0.0380585,0.0239974,636,1303,-188.777,-33.7741
-581,-279,-189.095,35.5668,0.00149225,0.0378729,-0.0145477,0.0429748,-0.00360957,-1.2335,0.0299257,0.024468,643,1303,-189.095,-35.5668
-574,-279,-189.255,37.4614,0.00861477,0.031888,-0.00950827,0.0352787,0.00522415,-1.22826,0.0219856,0.0463446,650,1303,-189.255,-37.4615
-567,-279,-189.085,39.5183,0,0,0,0,0,0,0,-1,657,1303,-189.085,-39.5183
-560,-279,-75.499,31.936,0,0,0,0,0,0,0,-1,664,1303,-75.499,-31.936
-553,-279,-91.6979,38.8201,0,0,0,0,0,0,0,-1,671,1303,-91.6979,-38.82
-546,-279,-75.6956,34.5919,0,0,0,0,0,0,0,-1,678,1303,-75.6955,-34.5919
-539,-279,-43.8463,20.5084,0,0,0,0,0,0,0,-1,685,1303,-43.8463,-20.5085
-532,-279,-14.9813,7.89917,0,0,0,0,0,0,0,-1,692,1303,-14.9813,-7.89918
-525,-279,-11.7063,-0.539185,0,0,0,0,0,0,0,-1,699,1303,-11.7063,0.539166
-518,-279,-16.8138,1.11963,0,0,0,0,0,0,0,-1,706,1303,-16.8138,-1.11968
-511,-279,-20.1063,-1.37915,0,0,0,0,0,0,0,-1,713,1303,-20.1062,1.37918
-504,-279,-18.3766,1.04578,0,0,0,0,0,0,0,-1,720,1303,-18.3767,-1.04577
-497,-279,-19.0046,2.08911,0,0,0,0,0,0,0,-1,727,1303,-19.0046,-2.08905
-490,-279,-20.0176,2.55188,0,0,0,0,0,0,0,-1,734,1303,-20.0176,-2.55183
-483,-279,-20.8064,2.99792,0,0,0,0,0,0,0,-1,741,1303,-20.8064,-2.99797
-476,-279,0,0,0,0,0,0,0,0,0,-1,748,1303,0,0
-469,-279,0,0,0,0,0,0,0,0,0,-1,755,1303,0,0
-462,-279,0,0,0,0,0,0,0,0,0,-1,762,1303,0,0
-455,-279,0,0,0,0,0,0,0,0,0,-1,769,1303,0,0
-448,-279,0,0,0,0,0,0,0,0,0,-1,776,1303,0,0
-441,-279,0,0,0,0,0,0,0,0,0,-1,783,1303,0,0
-434,-279,0,0,0,0,0,0,0,0,0,-1,790,1303,0,0
-427,-279,0,0,0,0,0,0,0,0,0,-1,797,1303,0,0
-420,-279,0,0,0,0,0,0,0,0,0,-1,804,1303,0,0
-413,-279,0,0,0,0,0,0,0,0,0,-1,811,1303,0,0
-406,-279,0,0,0,0,0,0,0,0,0,-1,818,1303,0,0
-399,-279,0,0,0,0,0,0,0,0,0,-1,825,1303,0,0
-392,-279,0,0,0,0,0,0,0,0,0,-1,832,1303,0,0
-385,-279,0,0,0,0,0,0,0,0,0,-1,839,1303,0,0
-378,-279,0,0,0,0,0,0,0,0,0,-1,846,1303,0,0
-371,-279,0,0,0,0,0,0,0,0,0,-1,853,1303,0,0
-364,-279,0,0,0,0,0,0,0,0,0,-1,860,1303,0,0
-357,-279,0,0,0,0,0,0,0,0,0,-1,867,1303,0,0
-350,-279,0,0,0,0,0,0,0,0,0,-1,874,1303,0,0
-343,-279,0,0,0,0,0,0,0,0,0,-1,881,1303,0,0
-336,-279,0,0,0,0,0,0,0,0,0,-1,888,1303,0,0
-329,-279,0,0,0,0,0,0,0,0,0,-1,895,1303,0,0
-322,-279,0,0,0,0,0,0,0,0,0,-1,902,1303,0,0
-315,-279,0,0,0,0,0,0,0,0,0,-1,909,1303,0,0
-308,-279,0,0,0,0,0,0,0,0,0,-1,916,1303,0,0
-301,-279,0,0,0,0,0,0,0,0,0,-1,923,1303,0,0
-294,-279,0,0,0,0,0,0,0,0,0,-1,930,1303,0,0
-287,-279,0,0,0,0,0,0,0,0,0,-1,937,1303,0,0
-280,-279,0,0,0,0,0,0,0,0,0,-1,944,1303,0,0
-273,-279,0,0,0,0,0,0,0,0,0,-1,951,1303,0,0
-266,-279,0,0,0,0,0,0,0,0,0,-1,958,1303,0,0
-259,-279,0,0,0,0,0,0,0,0,0,-1,965,1303,0,0
-252,-279,0,0,0,0,0,0,0,0,0,-1,972,1303,0,0
-245,-279,0,0,0,0,0,0,0,0,0,-1,979,1303,0,0
-238,-279,0,0,0,0,0,0,0,0,0,-1,986,1303,0,0
-231,-279,0,0,0,0,0,0,0,0,0,-1,993,1303,0,0
-224,-279,0,0,0,0,0,0,0,0,0,-1,1000,1303,0,0
-217,-279,0,0,0,0,0,0,0,0,0,-1,1007,1303,0,0
-210,-279,0,0,0,0,0,0,0,0,0,-1,1014,1303,0,0
-203,-279,0,0,0,0,0,0,0,0,0,-1,1021,1303,0,0
-196,-279,0,0,0,0,0,0,0,0,0,-1,1028,1303,0,0
-189,-279,0,0,0,0,0,0,0,0,0,-1,1035,1303,0,0
-182,-279,0,0,0,0,0,0,0,0,0,-1,1042,1303,0,0
-175,-279,0,0,0,0,0,0,0,0,0,-1,1049,1303,0,0
-168,-279,0,0,0,0,0,0,0,0,0,-1,1056,1303,0,0
-161,-279,0,0,0,0,0,0,0,0,0,-1,1063,1303,0,0
-154,-279,0,0,0,0,0,0,0,0,0,-1,1070,1303,0,0
-147,-279,0,0,0,0,0,0,0,0,0,-1,1077,1303,0,0
-140,-279,0,0,0,0,0,0,0,0,0,-1,1084,1303,0,0
-133,-279,0,0,0,0,0,0,0,0,0,-1,1091,1303,0,0
-126,-279,0,0,0,0,0,0,0,0,0,-1,1098,1303,0,0
-119,-279,0,0,0,0,0,0,0,0,0,-1,1105,1303,0,0
-112,-279,0,0,0,0,0,0,0,0,0,-1,1112,1303,0,0
-105,-279,0,0,0,0,0,0,0,0,0,-1,1119,1303,0,0
-98,-279,0,0,0,0,0,0,0,0,0,-1,1126,1303,0,0
-91,-279,0,0,0,0,0,0,0,0,0,-1,1133,1303,0,0
-84,-279,0,0,0,0,0,0,0,0,0,-1,1140,1303,0,0
-77,-279,0,0,0,0,0,0,0,0,0,-1,1147,1303,0,0
-70,-279,0,0,0,0,0,0,0,0,0,-1,1154,1303,0,0
-63,-279,0,0,0,0,0,0,0,0,0,-1,1161,1303,0,0
-56,-279,0,0,0,0,0,0,0,0,0,-1,1168,1303,0,0
-49,-279,0,0,0,0,0,0,0,0,0,-1,1175,1303,0,0
-42,-279,0,0,0,0,0,0,0,0,0,-1,1182,1303,0,0
-35,-279,0,0,0,0,0,0,0,0,0,-1,1189,1303,0,0
-28,-279,0,0,0,0,0,0,0,0,0,-1,1196,1303,0,0
-21,-279,0,0,0,0,0,0,0,0,0,-1,1203,1303,0,0
-14,-279,0,0,0,0,0,0,0,0,0,-1,1210,1303,0,0
-7,-279,0,0,0,0,0,0,0,0,0,-1,1217,1303,0,0
0,-279,0,0,0,0,0,0,0,0,0,-1,1224,1303,0,0
7,-279,0,0,0,0,0,0,0,0,0,-1,1231,1303,0,0
14,-279,0,0,0,0,0,0,0,0,0,-1,1238,1303,0,0
21,-279,0,0,0,0,0,0,0,0,0,-1,1245,1303,0,0
28,-279,0,0,0,0,0,0,0,0,0,-1,1252,1303,0,0
35,-279,0,0,0,0,0,0,0,0,0,-1,1259,1303,0,0
42,-279,0,0,0,0,0,0,0,0,0,-1,1266,1303,0,0
49,-279,0,0,0,0,0,0,0,0,0,-1,1273,1303,0,0
56,-279,0,0,0,0,0,0,0,0,0,-1,1280,1303,0,0
63,-279,0,0,0,0,0,0,0,0,0,-1,1287,1303,0,0
70,-279,0,0,0,0,0,0,0,0,0,-1,1294,1303,0,0
77,-279,0,0,0,0,0,0,0,0,0,-1,1301,1303,0,0
84,-279,0,0,0,0,0,0,0,0,0,-1,1308,1303,0,0
91,-279,0,0,0,0,0,0,0,0,0,-1,1315,1303,0,0
98,-279,0,0,0,0,0,0,0,0,0,-1,1322,1303,0,0
105,-279,0,0,0,0,0,0,0,0,0,-1,1329,1303,0,0
112,-279,0,0,0,0,0,0,0,0,0,-1,1336,1303,0,0
119,-279,0,0,0,0,0,0,0,0,0,-1,1343,1303,0,0
126,-279,0,0,0,0,0,0,0,0,0,-1,1350,1303,0,0
133,-279,0,0,0,0,0,0,0,0,0,-1,1357,1303,0,0
140,-279,0,0,0,0,0,0,0,0,0,-1,1364,1303,0,0
147,-279,0,0,0,0,0,0,0,0,0,-1,1371,1303,0,0
154,-279,0,0,0,0,0,0,0,0,0,-1,1378,1303,0,0
161,-279,0,0,0,0,0,0,0,0,0,-1,1385,1303,0,0
168,-279,0,0,0,0,0,0,0,0,0,-1,1392,1303,0,0
175,-279,0,0,0,0,0,0,0,0,0,-1,1399,1303,0,0
182,-279,0,0,0,0,0,0,0,0,0,-1,1406,1303,0,0
189,-279,0,0,0,0,0,0,0,0,0,-1,1413,1303,0,0
196,-279,0,0,0,0,0,0,0,0,0,-1,1420,1303,0,0
203,-279,0,0,0,0,0,0,0,0,0,-1,1427,1303,0,0
210,-279,0,0,0,0,0,0,0,0,0,-1,1434,1303,0,0
217,-279,0,0,0,0,0,0,0,0,0,-1,1441,1303,0,0
224,-279,0,0,0,0,0,0,0,0,0,-1,1448,1303,0,0
231,-279,0,0,0,0,0,0,0,0,0,-1,1455,1303,0,0
238,-279,0,0,0,0,0,0,0,0,0,-1,1462,1303,0,0
245,-279,0,0,0,0,0,0,0,0,0,-1,1469,1303,0,0
252,-279,0,0,0,0,0,0,0,0,0,-1,1476,1303,0,0
259,-279,0,0,0,0,0,0,0,0,0,-1,1483,1303,0,0
266,-279,0,0,0,0,0,0,0,0,0,-1,1490,1303,0,0
273,-279,0,0,0,0,0,0,0,0,0,-1,1497,1303,0,0
280,-279,0,0,0,0,0,0,0,0,0,-1,1504,1303,0,0
287,-279,0,0,0,0,0,0,0,0,0,-1,1511,1303,0,0
294,-279,0,0,0,0,0,0,0,0,0,-1,1518,1303,0,0
301,-279,0,0,0,0,0,0,0,0,0,-1,1525,1303,0,0
308,-279,0,0,0,0,0,0,0,0,0,-1,1532,1303,0,0
315,-279,0,0,0,0,0,0,0,0,0,-1,1539,1303,0,0
322,-279,0,0,0,0,0,0,0,0,0,-1,1546,1303,0,0
329,-279,0,0,0,0,0,0,0,0,0,-1,1553,1303,0,0
336,-279,0,0,0,0,0,0,0,0,0,-1,1560,1303,0,0
343,-279,0,0,0,0,0,0,0,0,0,-1,1567,1303,0,0
350,-279,0,0,0,0,0,0,0,0,0,-1,1574,1303,0,0
357,-279,0,0,0,0,0,0,0,0,0,-1,1581,1303,0,0
364,-279,0,0,0,0,0,0,0,0,0,-1,1588,1303,0,0
371,-279,0,0,0,0,0,0,0,0,0,-1,1595,1303,0,0
378,-279,0,0,0,0,0,0,0,0,0,-1,1602,1303,0,0
385,-279,0,0,0,0,0,0,0,0,0,-1,1609,1303,0,0
392,-279,0,0,0,0,0,0,0,0,0,-1,1616,1303,0,0
399,-279,0,0,0,0,0,0,0,0,0,-1,1623,1303,0,0
406,-279,0,0,0,0,0,0,0,0,0,-1,1630,1303,0,0
413,-279,0,0,0,0,0,0,0,0,0,-1,1637,1303,0,0
420,-279,0,0,0,0,0,0,0,0,0,-1,1644,1303,0,0
427,-279,0,0,0,0,0,0,0,0,0,-1,1651,1303,0,0
434,-279,0,0,0,0,0,0,0,0,0,-1,1658,1303,0,0
441,-279,0,0,0,0,0,0,0,0,0,-1,1665,1303,0,0
448,-279,0,0,0,0,0,0,0,0,0,-1,1672,1303,0,0
455,-279,0,0,0,0,0,0,0,0,0,-1,1679,1303,0,0
462,-279,0,0,0,0,0,0,0,0,0,-1,1686,1303,0,0
469,-279,0,0,0,0,0,0,0,0,0,-1,1693,1303,0,0
476,-279,0,0,0,0,0,0,0,0,0,-1,1700,1303,0,0
483,-279,0,0,0,0,0,0,0,0,0,-1,1707,1303,0,0
490,-279,0,0,0,0,0,0,0,0,0,-1,1714,1303,0,0
497,-279,0,0,0,0,0,0,0,0,0,-1,1721,1303,0,0
504,-279,0,0,0,0,0,0,0,0,0,-1,1728,1303,0,0
511,-279,0,0,0,0,0,0,0,0,0,-1,1735,1303,0,0
518,-279,0,0,0,0,0,0,0,0,0,-1,1742,1303,0,0
525,-279,0,0,0,0,0,0,0,0,0,-1,1749,1303,0,0
532,-279,0,0,0,0,0,0,0,0,0,-1,1756,1303,0,0
539,-279,0,0,0,0,0,0,0,0,0,-1,1763,1303,0,0
546,-279,0,0,0,0,0,0,0,0,0,-1,1770,1303,0,0
553,-279,0,0,0,0,0,0,0,0,0,-1,1777,1303,0,0
560,-279,0,0,0,0,0,0,0,0,0,-1,1784,1303,0,0
567,-279,0,0,0,0,0,0,0,0,0,-1,1791,1303,0,0
574,-279,0,0,0,0,0,0,0,0,0,-1,1798,1303,0,0
581,-279,0,0,0,0,0,0,0,0,0,-1,1805,1303,0,0
588,-279,0,0,0,0,0,0,0,0,0,-1,1812,1303,0,0
595,-279,0,0,0,0,0,0,0,0,0,-1,1819,1303,0,0
602,-279,209.374,8.67725,0,0,0,0,0,0,0,-1,1826,1303,209.374,-8.67723
609,-279,126.095,3.35498,0,0,0,0,0,0,0,-1,1833,1303,126.095,-3.35493
616,-279,109.392,2.99854,0,0,0,0,0,0,0,-1,1840,1303,109.392,-2.99857
623,-279,99.0006,2.2428,0,0,0,0,0,0,0,-1,1847,1303,99.0006,-2.24284
630,-279,88.6062,2.73572,0,0,0,0,0,0,0,-1,1854,1303,88.6063,-2.73567
637,-279,73.1141,1.62744,0,0,0,0,0,0,0,-1,1861,1303,73.1142,-1.62742
644,-279,33.5021,3.40234,0,0,0,0,0,0,0,-1,1868,1303,33.5021,-3.40237
651,-279,29.8456,2.3562,0,0,0,0,0,0,0,-1,1875,1303,29.8455,-2.35615
658,-279,21.5076,7.65649,0,0,0,0,0,0,0,-1,1882,1303,21.5076,-7.65648
665,-279,18.9794,6.09607,0,0,0,0,0,0,0,-1,1889,1303,18.9793,-6.09601
672,-279,23.5206,8.32507,0,0,0,0,0,0,0,-1,1896,1303,23.5206,-8.32512
679,-279,63.2394,20.0441,0,0,0,0,0,0,0,-1,1903,1303,63.2394,-20.0441
686,-279,84.6371,29.4445,0,0,0,0,0,0,0,-1,1910,1303,84.6371,-29.4445
693,-279,196.57,43.6567,0,0,0,0,0,0,0,-1,1917,1303,196.57,-43.6567
700,-279,196.088,41.6232,0,0,0,0,0,0,0,-1,1924,1303,196.088,-41.6231
707,-279,195.849,39.6487,-0.00889513,0.0217631,0.00975884,0.0246058,-0.0117379,1.28734,0.021417,0.0239669,1931,1303,195.849,-39.6486
714,-279,195.472,37.7058,-0.0120144,0.0269706,0.0149414,0.0320382,-0.0170821,1.2438,0.0287945,0.0182731,1938,1303,195.472,-37.7059
721,-279,195.13,35.8102,-0.0158053,0.0319883,0.0204132,0.0395201,-0.0233371,1.21733,0.0366893,0.0277829,1945,1303,195.13,-35.8102
728,-279,194.71,34.0327,-0.0202378,0.0369331,0.0262556,0.0471611,-0.0304659,1.19933,0.0451622,0.0383235,1952,1303,194.71,-34.0327
735,-279,194.251,32.5081,0,0,0,0,0,0,0,-1,1959,1303,194.251,-32.508
742,-279,193.793,31.1979,0,0,0,0,0,0,0,-1,1966,1303,193.793,-31.1978
749,-279,186.392,28.7334,0,0,0,0,0,0,0,-1,1973,1303,186.392,-28.7334
756,-279,103.538,20.6768,0,0,0,0,0,0,0,-1,1980,1303,103.538,-20.6768
763,-279,27.1613,3.46265,0,0,0,0,0,0,0,-1,1987,1303,27.1613,-3.4627
770,-279,21.5828,3.54199,0,0,0,0,0,0,0,-1,1994,1303,21.5827,-3.54198
777,-279,32.5369,6.99609,0,0,0,0,0,0,0,-1,2001,1303,32.5369,-6.99608
784,-279,0,0,0,0,0,0,0,0,0,-1,2008,1303,0,0
791,-279,0,0,0,0,0,0,0,0,0,-1,2015,1303,0,0
798,-279,0,0,0,0,0,0,0,0,0,-1,2022,1303,0,0
805,-279,0,0,0,0,0,0,0,0,0,-1,2029,1303,0,0
812,-279,0,0,0,0,0,0,0,0,0,-1,2036,1303,0,0
-700,-286,0,0,0,0,0,0,0,0,0,-1,524,1310,0,0
-693,-286,0,0,0,0,0,0,0,0,0,-1,531,1310,0,0
-686,-286,0,0,0,0,0,0,0,0,0,-1,538,1310,0,0
-679,-286,0,0,0,0,0,0,0,0,0,-1,545,1310,0,0
-672,-286,0,0,0,0,0,0,0,0,0,-1,552,1310,0,0
-665,-286,0,0,0,0,0,0,0,0,0,-1,559,1310,0,0
-658,-286,-44.103,1.76782,0,0,0,0,0,0,0,-1,566,1310,-44.103,-1.76778
-651,-286,-43.6417,1.98254,0,0,0,0,0,0,0,-1,573,1310,-43.6416,-1.98254
-644,-286,-43.3175,1.59558,0,0,0,0,0,0,0,-1,580,1310,-43.3175,-1.59556
-637,-286,-42.8448,1.15039,0,0,0,0,0,0,0,-1,587,1310,-42.8448,-1.15043
-630,-286,-42.1176,0.443848,0,0,0,0,0,0,0,-1,594,1310,-42.1176,-0.443802
-623,-286,-41.3121,-0.468384,0,0,0,0,0,0,0,-1,601,1310,-41.3121,0.468376
-616,-286,-22.0634,2.37744,0,0,0,0,0,0,0,-1,608,1310,-22.0633,-2.37746
-609,-286,-174.147,29.3362,0,0,0,0,0,0,0,-1,615,1310,-174.147,-29.3361
-602,-286,-186.201,30.1515,0,0,0,0,0,0,0,-1,622,1310,-186.201,-30.1514
-595,-286,-186.358,32.0836,-0.0119338,0.0519525,-0.0241414,0.060049,-0.0200303,-1.24721,0.0481197,0.0242664,629,1310,-186.358,-32.0836
-588,-286,-186.662,33.8116,-0.00558913,0.0458892,-0.0208569,0.0532787,-0.0129787,-1.2303,0.0405438,0.0262815,636,1310,-186.662,-33.8117
-581,-286,-186.932,35.6641,0.00120567,0.0399847,-0.016949,0.0463482,-0.0051579,-1.21163,0.0327538,0.027226,643,1310,-186.932,-35.664
-574,-286,-187.151,37.5601,0.00841562,0.0341637,-0.0124808,0.0392204,0.00335891,-1.18585,0.0251023,0.0473654,650,1310,-187.151,-37.5601
-567,-286,-187.108,39.5817,0,0,0,0,0,0,0,-1,657,1310,-187.108,-39.5817
-560,-286,-89.4232,37.6656,0,0,0,0,0,0,0,-1,664,1310,-89.4232,-37.6656
-553,-286,-187.085,44.194,0,0,0,0,0,0,0,-1,671,1310,-187.085,-44.1939
-546,-286,-90.5775,40.3599,0,0,0,0,0,0,0,-1,678,1310,-90.5775,-40.3599
-539,-286,-60.7808,29.4718,0,0,0,0,0,0,0,-1,685,1310,-60.7808,-29.4718
-532,-286,-21.6771,10.4924,0,0,0,0,0,0,0,-1,692,1310,-21.6771,-10.4924
-525,-286,-11.4528,-1.11768,0,0,0,0,0,0,0,-1,699,1310,-11.4528,1.11769
-518,-286,-11.0701,1.37329,0,0,0,0,0,0,0,-1,706,1310,-11.0701,-1.37332
-511,-286,-17.7545,-0.0791016,0,0,0,0,0,0,0,-1,713,1310,-17.7544,0.0791606
-504,-286,-18.0455,1.29602,0,0,0,0,0,0,0,-1,720,1310,-18.0455,-1.29601
-497,-286,-18.3367,2.67114,0,0,0,0,0,0,0,-1,727,1310,-18.3366,-2.67118
-490,-286,-19.5795,2.47266,0,0,0,0,0,0,0,-1,734,1310,-19.5795,-2.4727
-483,-286,-19.7277,2.74744,0,0,0,0,0,0,0,-1,741,1310,-19.7277,-2.74747
-476,-286,-20.0391,3.06177,0,0,0,0,0,0,0,-1,748,1310,-20.0391,-3.06178
-469,-286,0,0,0,0,0,0,0,0,0,-1,755,1310,0,0
-462,-286,0,0,0,0,0,0,0,0,0,-1,762,1310,0,0
-455,-286,0,0,0,0,0,0,0,0,0,-1,769,1310,0,0
-448,-286,0,0,0,0,0,0,0,0,0,-1,776,1310,0,0
-441,-286,0,0,0,0,0,0,0,0,0,-1,783,1310,0,0
-434,-286,0,0,0,0,0,0,0,0,0,-1,790,1310,0,0
-427,-286,0,0,0,0,0,0,0,0,0,-1,797,1310,0,0
-420,-286,0,0,0,0,0,0,0,0,0,-1,804,1310,0,0
-413,-286,0,0,0,0,0,0,0,0,0,-1,811,1310,0,0
-406,-286,0,0,0,0,0,0,0,0,0,-1,818,1310,0,0
-399,-286,0,0,0,0,0,0,0,0,0,-1,825,1310,0,0
-392,-286,0,0,0,0,0,0,0,0,0,-1,832,1310,0,0
-385,-286,0,0,0,0,0,0,0,0,0,-1,839,1310,0,0
-378,-286,0,0,0,0,0,0,0,0,0,-1,846,1310,0,0
-371,-286,0,0,0,0,0,0,0,0,0,-1,853,1310,0,0
-364,-286,0,0,0,0,0,0,0,0,0,-1,860,1310,0,0
-357,-286,0,0,0,0,0,0,0,0,0,-1,867,1310,0,0
-350,-286,0,0,0,0,0,0,0,0,0,-1,874,1310,0,0
-343,-286,0,0,0,0,0,0,0,0,0,-1,881,1310,0,0
-336,-286,0,0,0,0,0,0,0,0,0,-1,888,1310,0,0
-329,-286,0,0,0,0,0,0,0,0,0,-1,895,1310,0,0
-322,-286,0,0,0,0,0,0,0,0,0,-1,902,1310,0,0
-315,-286,0,0,0,0,0,0,0,0,0,-1,909,1310,0,0
-308,-286,0,0,0,0,0,0,0,0,0,-1,916,1310,0,0
-301,-286,0,0,0,0,0,0,0,0,0,-1,923,1310,0,0
-294,-286,0,0,0,0,0,0,0,0,0,-1,930,1310,0,0
-287,-286,0,0,0,0,0,0,0,0,0,-1,937,1310,0,0
-280,-286,0,0,0,0,0,0,0,0,0,-1,944,1310,0,0
-273,-286,0,0,0,0,0,0,0,0,0,-1,951,1310,0,0
-266,-286,0,0,0,0,0,0,0,0,0,-1,958,1310,0,0
-259,-286,0,0,0,0,0,0,0,0,0,-1,965,1310,0,0
-252,-286,0,0,0,0,0,0,0,0,0,-1,972,1310,0,0
-245,-286,0,0,0,0,0,0,0,0,0,-1,979,1310,0,0
-238,-286,0,0,0,0,0,0,0,0,0,-1,986,1310,0,0
-231,-286,0,0,0,0,0,0,0,0,0,-1,993,1310,0,0
-224,-286,0,0,0,0,0,0,0,0,0,-1,1000,1310,0,0
-217,-286,0,0,0,0,0,0,0,0,0,-1,1007,1310,0,0
-210,-286,0,0,0,0,0,0,0,0,0,-1,1014,1310,0,0
-203,-286,0,0,0,0,0,0,0,0,0,-1,1021,1310,0,0
-196,-286,0,0,0,0,0,0,0,0,0,-1,1028,1310,0,0
-189,-286,0,0,0,0,0,0,0,0,0,-1,1035,1310,0,0
-182,-286,0,0,0,0,0,0,0,0,0,-1,1042,1310,0,0
-175,-286,0,0,0,0,0,0,0,0,0,-1,1049,1310,0,0
-168,-286,0,0,0,0,0,0,0,0,0,-1,1056,1310,0,0
-161,-286,0,0,0,0,0,0,0,0,0,-1,1063,1310,0,0
-154,-286,0,0,0,0,0,0,0,0,0,-1,1070,1310,0,0
-147,-286,0,0,0,0,0,0,0,0,0,-1,1077,1310,0,0
-140,-286,0,0,0,0,0,0,0,0,0,-1,1084,1310,0,0
-133,-286,0,0,0,0,0,0,0,0,0,-1,1091,1310,0,0
-126,-286,0,0,0,0,0,0,0,0,0,-1,1098,1310,0,0
-119,-286,0,0,0,0,0,0,0,0,0,-1,1105,1310,0,0
-112,-286,0,0,0,0,0,0,0,0,0,-1,1112,1310,0,0
-105,-286,0,0,0,0,0,0,0,0,0,-1,1119,1310,0,0
-98,-286,0,0,0,0,0,0,0,0,0,-1,1126,1310,0,0
-91,-286,0,0,0,0,0,0,0,0,0,-1,1133,1310,0,0
-84,-286,0,0,0,0,0,0,0,0,0,-1,1140,1310,0,0
-77,-286,0,0,0,0,0,0,0,0,0,-1,1147,1310,0,0
-70,-286,0,0,0,0,0,0,0,0,0,-1,1154,1310,0,0
-63,-286,0,0,0,0,0,0,0,0,0,-1,1161,1310,0,0
-56,-286,0,0,0,0,0,0,0,0,0,-1,1168,1310,0,0
-49,-286,0,0,0,0,0,0,0,0,0,-1,1175,1310,0,0
-42,-286,0,0,0,0,0,0,0,0,0,-1,1182,1310,0,0
-35,-286,0,0,0,0,0,0,0,0,0,-1,1189,1310,0,0
-28,-286,0,0,0,0,0,0,0,0,0,-1,1196,1310,0,0
-21,-286,0,0,0,0,0,0,0,0,0,-1,1203,1310,0,0
-14,-286,0,0,0,0,0,0,0,0,0,-1,1210,1310,0,0
-7,-286,0,0,0,0,0,0,0,0,0,-1,1217,1310,0,0
0,-286,0,0,0,0,0,0,0,0,0,-1,1224,1310,0,0
7,-286,0,0,0,0,0,0,0,0,0,-1,1231,1310,0,0
14,-286,0,0,0,0,0,0,0,0,0,-1,1238,1310,0,0
21,-286,0,0,0,0,0,0,0,0,0,-1,1245,1310,0,0
28,-286,0,0,0,0,0,0,0,0,0,-1,1252,1310,0,0
35,-286,0,0,0,0,0,0,0,0,0,-1,1259,1310,0,0
42,-286,0,0,0,0,0,0,0,0,0,-1,1266,1310,0,0
49,-286,0,0,0,0,0,0,0,0,0,-1,1273,1310,0,0
56,-286,0,0,0,0,0,0,0,0,0,-1,1280,1310,0,0
63,-286,0,0,0,0,0,0,0,0,0,-1,1287,1310,0,0
70,-286,0,0,0,0,0,0,0,0,0,-1,1294,1310,0,0
77,-286,0,0,0,0,0,0,0,0,0,-1,1301,1310,0,0
84,-286,0,0,0,0,0,0,0,0,0,-1,1308,1310,0,0
91,-286,0,0,0,0,0,0,0,0,0,-1,1315,1310,0,0
98,-286,0,0,0,0,0,0,0,0,0,-1,1322,1310,0,0
105,-286,0,0,0,0,0,0,0,0,0,-1,1329,1310,0,0
112,-286,0,0,0,0,0,0,0,0,0,-1,1336,1310,0,0
119,-286,0,0,0,0,0,0,0,0,0,-1,1343,1310,0,0
126,-286,0,0,0,0,0,0,0,0,0,-1,1350,1310,0,0
133,-286,0,0,0,0,0,0,0,0,0,-1,1357,1310,0,0
140,-286,0,0,0,0,0,0,0,0,0,-1,1364,1310,0,0
147,-286,0,0,0,0,0,0,0,0,0,-1,1371,1310,0,0
154,-286,0,0,0,0,0,0,0,0,0,-1,1378,1310,0,0
161,-286,0,0,0,0,0,0,0,0,0,-1,1385,1310,0,0
168,-286,0,0,0,0,0,0,0,0,0,-1,1392,1310,0,0
175,-286,0,0,0,0,0,0,0,0,0,-1,1399,1310,0,0
182,-286,0,0,0,0,0,0,0,0,0,-1,1406,1310,0,0
189,-286,0,0,0,0,0,0,0,0,0,-1,1413,1310,0,0
196,-286,0,0,0,0,0,0,0,0,0,-1,1420,1310,0,0
203,-286,0,0,0,0,0,0,0,0,0,-1,1427,1310,0,0
210,-286,0,0,0,0,0,0,0,0,0,-1,1434,1310,0,0
217,-286,0,0,0,0,0,0,0,0,0,-1,1441,1310,0,0
224,-286,0,0,0,0,0,0,0,0,0,-1,1448,1310,0,0
231,-286,0,0,0,0,0,0,0,0,0,-1,1455,1310,0,0
238,-286,0,0,0,0,0,0,0,0,0,-1,1462,1310,0,0
245,-286,0,0,0,0,0,0,0,0,0,-1,1469,1310,0,0
252,-286,0,0,0,0,0,0,0,0,0,-1,1476,1310,0,0
259,-286,0,0,0,0,0,0,0,0,0,-1,1483,1310,0,0
266,-286,0,0,0,0,0,0,0,0,0,-1,1490,1310,0,0
273,-286,0,0,0,0,0,0,0,0,0,-1,1497,1310,0,0
280,-286,0,0,0,0,0,0,0,0,0,-1,1504,1310,0,0
287,-286,0,0,0,0,0,0,0,0,0,-1,1511,1310,0,0
294,-286,0,0,0,0,0,0,0,0,0,-1,1518,1310,0,0
301,-286,0,0,0,0,0,0,0,0,0,-1,1525,1310,0,0
308,-286,0,0,0,0,0,0,0,0,0,-1,1532,1310,0,0
315,-286,0,0,0,0,0,0,0,0,0,-1,1539,1310,0,0
322,-286,0,0,0,0,0,0,0,0,0,-1,1546,1310,0,0
329,-286,0,0,0,0,0,0,0,0,0,-1,1553,1310,0,0
336,-286,0,0,0,0,0,0,0,0,0,-1,1560,1310,0,0
343,-286,0,0,0,0,0,0,0,0,0,-1,1567,1310,0,0
350,-286,0,0,0,0,0,0,0,0,0,-1,1574,1310,0,0
357,-286,0,0,0,0,0,0,0,0,0,-1,1581,1310,0,0
364,-286,0,0,0,0,0,0,0,0,0,-1,1588,1310,0,0
371,-286,0,0,0,0,0,0,0,0,0,-1,1595,1310,0,0
378,-286,0,0,0,0,0,0,0,0,0,-1,1602,1310,0,0
385,-286,0,0,0,0,0,0,0,0,0,-1,1609,1310,0,0
392,-286,0,0,0,0,0,0,0,0,0,-1,1616,1310,0,0
399,-286,0,0,0,0,0,0,0,0,0,-1,1623,1310,0,0
406,-286,0,0,0,0,0,0,0,0,0,-1,1630,1310,0,0
413,-286,0,0,0,0,0,0,0,0,0,-1,1637,1310,0,0
420,-286,0,0,0,0,0,0,0,0,0,-1,1644,1310,0,0
427,-286,0,0,0,0,0,0,0,0,0,-1,1651,1310,0,0
434,-286,0,0,0,0,0,0,0,0,0,-1,1658,1310,0,0
441,-286,0,0,0,0,0,0,0,0,0,-1,1665,1310,0,0
448,-286,0,0,0,0,0,0,0,0,0,-1,1672,1310,0,0
455,-286,0,0,0,0,0,0,0,0,0,-1,1679,1310,0,0
462,-286,0,0,0,0,0,0,0,0,0,-1,1686,1310,0,0
469,-286,0,0,0,0,0,0,0,0,0,-1,1693,1310,0,0
476,-286,0,0,0,0,0,0,0,0,0,-1,1700,1310,0,0
483,-286,0,0,0,0,0,0,0,0,0,-1,1707,1310,0,0
490,-286,0,0,0,0,0,0,0,0,0,-1,1714,1310,0,0
497,-286,0,0,0,0,0,0,0,0,0,-1,1721,1310,0,0
504,-286,0,0,0,0,0,0,0,0,0,-1,1728,1310,0,0
511,-286,0,0,0,0,0,0,0,0,0,-1,1735,1310,0,0
518,-286,0,0,0,0,0,0,0,0,0,-1,1742,1310,0,0
525,-286,0,0,0,0,0,0,0,0,0,-1,1749,1310,0,0
532,-286,0,0,0,0,0,0,0,0,0,-1,1756,1310,0,0
539,-286,0,0,0,0,0,0,0,0,0,-1,1763,1310,0,0
546,-286,0,0,0,0,0,0,0,0,0,-1,1770,1310,0,0
553,-286,0,0,0,0,0,0,0,0,0,-1,1777,1310,0,0
560,-286,0,0,0,0,0,0,0,0,0,-1,1784,1310,0,0
567,-286,0,0,0,0,0,0,0,0,0,-1,1791,1310,0,0
574,-286,0,0,0,0,0,0,0,0,0,-1,1798,1310,0,0
581,-286,0,0,0,0,0,0,0,0,0,-1,1805,1310,0,0
588,-286,0,0,0,0,0,0,0,0,0,-1,1812,1310,0,0
595,-286,85.6449,2.23169,0,0,0,0,0,0,0,-1,1819,1310,85.6449,-2.23175
602,-286,124.014,3.47412,0,0,0,0,0,0,0,-1,1826,1310,124.014,-3.4741
609,-286,92.1185,1.80212,0,0,0,0,0,0,0,-1,1833,1310,92.1185,-1.80215
616,-286,99.723,2.9939,0,0,0,0,0,0,0,-1,1840,1310,99.7231,-2.99387
623,-286,91.3973,1.46118,0,0,0,0,0,0,0,-1,1847,1310,91.3974,-1.46122
630,-286,73.3732,1.46594,0,0,0,0,0,0,0,-1,1854,1310,73.3731,-1.46595
637,-286,47.8409,3.69824,0,0,0,0,0,0,0,-1,1861,1310,47.841,-3.69823
644,-286,25.6433,1.33862,0,0,0,0,0,0,0,-1,1868,1310,25.6433,-1.33858
651,-286,25.2507,1.88245,0,0,0,0,0,0,0,-1,1875,1310,25.2508,-1.88245
658,-286,25.9475,9.43689,0,0,0,0,0,0,0,-1,1882,1310,25.9475,-9.43693
665,-286,24.9838,8.03101,0,0,0,0,0,0,0,-1,1889,1310,24.9837,-8.03104
672,-286,40.2175,12.9626,0,0,0,0,0,0,0,-1,1896,1310,40.2175,-12.9627
679,-286,95.2627,37.8113,0,0,0,0,0,0,0,-1,1903,1310,95.2627,-37.8113
686,-286,82.3354,29.6196,0,0,0,0,0,0,0,-1,1910,1310,82.3354,-29.6197
693,-286,183.931,45.243,0,0,0,0,0,0,0,-1,1917,1310,183.931,-45.2431
700,-286,194.235,42.3429,0,0,0,0,0,0,0,-1,1924,1310,194.235,-42.3428
707,-286,193.66,39.8549,-0.010919,0.0233576,0.0122557,0.0272888,-0.0148502,1.2604,0.0246797,0.0195686,1931,1310,193.66,-39.8549
714,-286,193.285,37.8385,-0.0132711,0.028636,0.0172728,0.0348376,-0.0194727,1.22609,0.0317716,0.0162554,1938,1310,193.285,-37.8385
721,-286,192.938,35.9474,-0.0162653,0.0335955,0.0225545,0.0422839,-0.0249538,1.20309,0.0392472,0.0205902,1945,1310,192.938,-35.9474
728,-286,192.529,34.1449,-0.0198648,0.0383556,0.0281819,0.0497624,-0.0312715,1.1862,0.0471892,0.0290257,1952,1310,192.529,-34.1449
735,-286,192.224,32.1639,0,0,0,0,0,0,0,-1,1959,1310,192.224,-32.1639
742,-286,192.193,29.9434,0,0,0,0,0,0,0,-1,1966,1310,192.193,-29.9434
749,-286,102.236,22.6971,0,0,0,0,0,0,0,-1,1973,1310,102.236,-22.6971
756,-286,24.8226,4.43481,0,0,0,0,0,0,0,-1,1980,1310,24.8227,-4.43479
763,-286,20.6671,3.99683,0,0,0,0,0,0,0,-1,1987,1310,20.6671,-3.99683
770,-286,23.9147,4.45679,0,0,0,0,0,0,0,-1,1994,1310,23.9146,-4.45675
777,-286,0,0,0,0,0,0,0,0,0,-1,2001,1310,0,0
784,-286,0,0,0,0,0,0,0,0,0,-1,2008,1310,0,0
791,-286,0,0,0,0,0,0,0,0,0,-1,2015,1310,0,0
798,-286,0,0,0,0,0,0,0,0,0,-1,2022,1310,0,0
805,-286,0,0,0,0,0,0,0,0,0,-1,2029,1310,0,0
812,-286,0,0,0,0,0,0,0,0,0,-1,2036,1310,0,0
-700,-293,0,0,0,0,0,0,0,0,0,-1,524,1317,0,0
-693,-293,0,0,0,0,0,0,0,0,0,-1,531,1317,0,0
-686,-293,0,0,0,0,0,0,0,0,0,-1,538,1317,0,0
-679,-293,0,0,0,0,0,0,0,0,0,-1,545,1317,0,0
-672,-293,0,0,0,0,0,0,0,0,0,-1,552,1317,0,0
-665,-293,0,0,0,0,0,0,0,0,0,-1,559,1317,0,0
-658,-293,0,0,0,0,0,0,0,0,0,-1,566,1317,0,0
-651,-293,-42.6636,2.1897,0,0,0,0,0,0,0,-1,573,1317,-42.6636,-2.18965
-644,-293,-42.6672,1.56262,0,0,0,0,0,0,0,-1,580,1317,-42.6672,-1.5626
-637,-293,-42.7898,0.963745,0,0,0,0,0,0,0,-1,587,1317,-42.7898,-0.963689
-630,-293,-42.7558,0.296021,0,0,0,0,0,0,0,-1,594,1317,-42.7558,-0.295997
-623,-293,-15.6058,0.229614,0,0,0,0,0,0,0,-1,601,1317,-15.6058,-0.229666
-616,-293,-15.5056,2.17737,0,0,0,0,0,0,0,-1,608,1317,-15.5055,-2.17742
-609,-293,-25.3796,5.07373,0,0,0,0,0,0,0,-1,615,1317,-25.3796,-5.07369
-602,-293,-183.978,30.2238,0,0,0,0,0,0,0,-1,622,1317,-183.977,-30.2238
-595,-293,-184.093,32.079,-0.0119104,0.0538865,-0.0254953,0.0626091,-0.0206331,-1.24115,0.0500553,0.04215,629,1317,-184.093,-32.079
-588,-293,-184.363,33.8889,-0.00566625,0.0478849,-0.0226764,0.0561971,-0.0139784,-1.21945,0.0428903,0.0259,636,1317,-184.363,-33.8889
-581,-293,-184.598,35.7535,0.000891347,0.0420752,-0.0193468,0.0497379,-0.00677139,-1.19368,0.0356308,0.0309458,643,1317,-184.598,-35.7536
-574,-293,-184.773,37.7433,0.00770657,0.0363903,-0.0155836,0.0432272,0.000869714,-1.15736,0.0285327,0.0394671,650,1317,-184.773,-37.7432
-567,-293,-184.785,39.7799,0,0,0,0,0,0,0,-1,657,1317,-184.785,-39.7798
-560,-293,-184.923,41.947,0,0,0,0,0,0,0,-1,664,1317,-184.923,-41.947
-553,-293,-185.497,44.0258,0,0,0,0,0,0,0,-1,671,1317,-185.497,-44.0258
-546,-293,-184.868,46.5587,0,0,0,0,0,0,0,-1,678,1317,-184.868,-46.5587
-539,-293,-75.0351,37.2535,0,0,0,0,0,0,0,-1,685,1317,-75.0351,-37.2536
-532,-293,-27.4858,13.6715,0,0,0,0,0,0,0,-1,692,1317,-27.4858,-13.6715
-525,-293,-8.20642,3.62256,0,0,0,0,0,0,0,-1,699,1317,-8.20639,-3.6226
-518,-293,-10.1053,0.314209,0,0,0,0,0,0,0,-1,706,1317,-10.1053,-0.314234
-511,-293,-11.6276,0.235352,0,0,0,0,0,0,0,-1,713,1317,-11.6276,-0.235372
-504,-293,-17.9086,1.25427,0,0,0,0,0,0,0,-1,720,1317,-17.9086,-1.25423
-497,-293,-18.8006,1.62122,0,0,0,0,0,0,0,-1,727,1317,-18.8006,-1.62119
-490,-293,-18.8961,1.99255,0,0,0,0,0,0,0,-1,734,1317,-18.8961,-1.99251
-483,-293,-19.0831,2.35498,0,0,0,0,0,0,0,-1,741,1317,-19.0831,-2.35497
-476,-293,-19.5228,2.61243,0,0,0,0,0,0,0,-1,748,1317,-19.5228,-2.61237
-469,-293,0,0,0,0,0,0,0,0,0,-1,755,1317,0,0
-462,-293,0,0,0,0,0,0,0,0,0,-1,762,1317,0,0
-455,-293,0,0,0,0,0,0,0,0,0,-1,769,1317,0,0
-448,-293,0,0,0,0,0,0,0,0,0,-1,776,1317,0,0
-441,-293,0,0,0,0,0,0,0,0,0,-1,783,1317,0,0
-434,-293,0,0,0,0,0,0,0,0,0,-1,790,1317,0,0
-427,-293,0,0,0,0,0,0,0,0,0,-1,797,1317,0,0
-420,-293,0,0,0,0,0,0,0,0,0,-1,804,1317,0,0
-413,-293,0,0,0,0,0,0,0,0,0,-1,811,1317,0,0
-406,-293,0,0,0,0,0,0,0,0,0,-1,818,1317,0,0
-399,-293,0,0,0,0,0,0,0,0,0,-1,825,1317,0,0
-392,-293,0,0,0,0,0,0,0,0,0,-1,832,1317,0,0
-385,-293,0,0,0,0,0,0,0,0,0,-1,839,1317,0,0
-378,-293,0,0,0,0,0,0,0,0,0,-1,846,1317,0,0
-371,-293,0,0,0,0,0,0,0,0,0,-1,853,1317,0,0
-364,-293,0,0,0,0,0,0,0,0,0,-1,860,1317,0,0
-357,-293,0,0,0,0,0,0,0,0,0,-1,867,1317,0,0
-350,-293,0,0,0,0,0,0,0,0,0,-1,874,1317,0,0
-343,-293,0,0,0,0,0,0,0,0,0,-1,881,1317,0,0
-336,-293,0,0,0,0,0,0,0,0,0,-1,888,1317,0,0
-329,-293,0,0,0,0,0,0,0,0,0,-1,895,1317,0,0
-322,-293,0,0,0,0,0,0,0,0,0,-1,902,1317,0,0
-315,-293,0,0,0,0,0,0,0,0,0,-1,909,1317,0,0
-308,-293,0,0,0,0,0,0,0,0,0,-1,916,1317,0,0
-301,-293,0,0,0,0,0,0,0,0,0,-1,923,1317,0,0
-294,-293,0,0,0,0,0,0,0,0,0,-1,930,1317,0,0
-287,-293,0,0,0,0,0,0,0,0,0,-1,937,1317,0,0
-280,-293,0,0,0,0,0,0,0,0,0,-1,944,1317,0,0
-273,-293,0,0,0,0,0,0,0,0,0,-1,951,1317,0,0
-266,-293,0,0,0,0,0,0,0,0,0,-1,958,1317,0,0
-259,-293,0,0,0,0,0,0,0,0,0,-1,965,1317,0,0
-252,-293,0,0,0,0,0,0,0,0,0,-1,972,1317,0,0
-245,-293,0,0,0,0,0,0,0,0,0,-1,979,1317,0,0
-238,-293,0,0,0,0,0,0,0,0,0,-1,986,1317,0,0
-231,-293,0,0,0,0,0,0,0,0,0,-1,993,1317,0,0
-224,-293,0,0,0,0,0,0,0,0,0,-1,1000,1317,0,0
-217,-293,0,0,0,0,0,0,0,0,0,-1,1007,1317,0,0
-210,-293,0,0,0,0,0,0,0,0,0,-1,1014,1317,0,0
-203,-293,0,0,0,0,0,0,0,0,0,-1,1021,1317,0,0
-196,-293,0,0,0,0,0,0,0,0,0,-1,1028,1317,0,0
-189,-293,0,0,0,0,0,0,0,0,0,-1,1035,1317,0,0
-182,-293,0,0,0,0,0,0,0,0,0,-1,1042,1317,0,0
-175,-293,0,0,0,0,0,0,0,0,0,-1,1049,1317,0,0
-168,-293,0,0,0,0,0,0,0,0,0,-1,1056,1317,0,0
-161,-293,0,0,0,0,0,0,0,0,0,-1,1063,1317,0,0
-154,-293,0,0,0,0,0,0,0,0,0,-1,1070,1317,0,0
-147,-293,0,0,0,0,0,0,0,0,0,-1,1077,1317,0,0
-140,-293,0,0,0,0,0,0,0,0,0,-1,1084,1317,0,0
-133,-293,0,0,0,0,0,0,0,0,0,-1,1091,1317,0,0
-126,-293,0,0,0,0,0,0,0,0,0,-1,1098,1317,0,0
-119,-293,0,0,0,0,0,0,0,0,0,-1,1105,1317,0,0
-112,-293,0,0,0,0,0,0,0,0,0,-1,1112,1317,0,0
-105,-293,0,0,0,0,0,0,0,0,0,-1,1119,1317,0,0
-98,-293,0,0,0,0,0,0,0,0,0,-1,1126,1317,0,0
-91,-293,0,0,0,0,0,0,0,0,0,-1,1133,1317,0,0
-84,-293,0,0,0,0,0,0,0,0,0,-1,1140,1317,0,0
-77,-293,0,0,0,0,0,0,0,0,0,-1,1147,1317,0,0
-70,-293,0,0,0,0,0,0,0,0,0,-1,1154,1317,0,0
-63,-293,0,0,0,0,0,0,0,0,0,-1,1161,1317,0,0
-56,-293,0,0,0,0,0,0,0,0,0,-1,1168,1317,0,0
-49,-293,0,0,0,0,0,0,0,0,0,-1,1175,1317,0,0
-42,-293,0,0,0,0,0,0,0,0,0,-1,1182,1317,0,0
-35,-293,0,0,0,0,0,0,0,0,0,-1,1189,1317,0,0
-28,-293,0,0,0,0,0,0,0,0,0,-1,1196,1317,0,0
-21,-293,0,0,0,0,0,0,0,0,0,-1,1203,1317,0,0
-14,-293,0,0,0,0,0,0,0,0,0,-1,1210,1317,0,0
-7,-293,0,0,0,0,0,0,0,0,0,-1,1217,1317,0,0
0,-293,0,0,0,0,0,0,0,0,0,-1,1224,1317,0,0
7,-293,0,0,0,0,0,0,0,0,0,-1,1231,1317,0,0
14,-293,0,0,0,0,0,0,0,0,0,-1,1238,1317,0,0
21,-293,0,0,0,0,0,0,0,0,0,-1,1245,1317,0,0
28,-293,0,0,0,0,0,0,0,0,0,-1,1252,1317,0,0
35,-293,0,0,0,0,0,0,0,0,0,-1,1259,1317,0,0
42,-293,0,0,0,0,0,0,0,0,0,-1,1266,1317,0,0
49,-293,0,0,0,0,0,0,0,0,0,-1,1273,1317,0,0
56,-293,0,0,0,0,0,0,0,0,0,-1,1280,1317,0,0
63,-293,0,0,0,0,0,0,0,0,0,-1,1287,1317,0,0
70,-293,0,0,0,0,0,0,0,0,0,-1,1294,1317,0,0
77,-293,0,0,0,0,0,0,0,0,0,-1,1301,1317,0,0
84,-293,0,0,0,0,0,0,0,0,0,-1,1308,1317,0,0
91,-293,0,0,0,0,0,0,0,0,0,-1,1315,1317,0,0
98,-293,0,0,0,0,0,0,0,0,0,-1,1322,1317,0,0
105,-293,0,0,0,0,0,0,0,0,0,-1,1329,1317,0,0
112,-293,0,0,0,0,0,0,0,0,0,-1,1336,1317,0,0
119,-293,0,0,0,0,0,0,0,0,0,-1,1343,1317,0,0
126,-293,0,0,0,0,0,0,0,0,0,-1,1350,1317,0,0
133,-293,0,0,0,0,0,0,0,0,0,-1,1357,1317,0,0
140,-293,0,0,0,0,0,0,0,0,0,-1,1364,1317,0,0
147,-293,0,0,0,0,0,0,0,0,0,-1,1371,1317,0,0
154,-293,0,0,0,0,0,0,0,0,0,-1,1378,1317,0,0
161,-293,0,0,0,0,0,0,0,0,0,-1,1385,1317,0,0
168,-293,0,0,0,0,0,0,0,0,0,-1,1392,1317,0,0
175,-293,0,0,0,0,0,0,0,0,0,-1,1399,1317,0,0
182,-293,0,0,0,0,0,0,0,0,0,-1,1406,1317,0,0
189,-293,0,0,0,0,0,0,0,0,0,-1,1413,1317,0,0
196,-293,0,0,0,0,0,0,0,0,0,-1,1420,1317,0,0
203,-293,0,0,0,0,0,0,0,0,0,-1,1427,1317,0,0
210,-293,0,0,0,0,0,0,0,0,0,-1,1434,1317,0,0
217,-293,0,0,0,0,0,0,0,0,0,-1,1441,1317,0,0
224,-293,0,0,0,0,0,0,0,0,0,-1,1448,1317,0,0
231,-293,0,0,0,0,0,0,0,0,0,-1,1455,1317,0,0
238,-293,0,0,0,0,0,0,0,0,0,-1,1462,1317,0,0
245,-293,0,0,0,0,0,0,0,0,0,-1,1469,1317,0,0
252,-293,0,0,0,0,0,0,0,0,0,-1,1476,1317,0,0
259,-293,0,0,0,0,0,0,0,0,0,-1,1483,1317,0,0
266,-293,0,0,0,0,0,0,0,0,0,-1,1490,1317,0,0
273,-293,0,0,0,0,0,0,0,0,0,-1,1497,1317,0,0
280,-293,0,0,0,0,0,0,0,0,0,-1,1504,1317,0,0
287,-293,0,0,0,0,0,0,0,0,0,-1,1511,1317,0,0
294,-293,0,0,0,0,0,0,0,0,0,-1,1518,1317,0,0
301,-293,0,0,0,0,0,0,0,0,0,-1,1525,1317,0,0
308,-293,0,0,0,0,0,0,0,0,0,-1,1532,1317,0,0
315,-293,0,0,0,0,0,0,0,0,0,-1,1539,1317,0,0
322,-293,0,0,0,0,0,0,0,0,0,-1,1546,1317,0,0
329,-293,0,0,0,0,0,0,0,0,0,-1,1553,1317,0,0
336,-293,0,0,0,0,0,0,0,0,0,-1,1560,1317,0,0
343,-293,0,0,0,0,0,0,0,0,0,-1,1567,1317,0,0
350,-293,0,0,0,0,0,0,0,0,0,-1,1574,1317,0,0
357,-293,0,0,0,0,0,0,0,0,0,-1,1581,1317,0,0
364,-293,0,0,0,0,0,0,0,0,0,-1,1588,1317,0,0
371,-293,0,0,0,0,0,0,0,0,0,-1,1595,1317,0,0
378,-293,0,0,0,0,0,0,0,0,0,-1,1602,1317,0,0
385,-293,0,0,0,0,0,0,0,0,0,-1,1609,1317,0,0
392,-293,0,0,0,0,0,0,0,0,0,-1,1616,1317,0,0
399,-293,0,0,0,0,0,0,0,0,0,-1,1623,1317,0,0
406,-293,0,0,0,0,0,0,0,0,0,-1,1630,1317,0,0
413,-293,0,0,0,0,0,0,0,0,0,-1,1637,1317,0,0
420,-293,0,0,0,0,0,0,0,0,0,-1,1644,1317,0,0
427,-293,0,0,0,0,0,0,0,0,0,-1,1651,1317,0,0
434,-293,0,0,0,0,0,0,0,0,0,-1,1658,1317,0,0
441,-293,0,0,0,0,0,0,0,0,0,-1,1665,1317,0,0
448,-293,0,0,0,0,0,0,0,0,0,-1,1672,1317,0,0
455,-293,0,0,0,0,0,0,0,0,0,-1,1679,1317,0,0
462,-293,0,0,0,0,0,0,0,0,0,-1,1686,1317,0,0
469,-293,0,0,0,0,0,0,0,0,0,-1,1693,1317,0,0
476,-293,0,0,0,0,0,0,0,0,0,-1,1700,1317,0,0
483,-293,0,0,0,0,0,0,0,0,0,-1,1707,1317,0,0
490,-293,0,0,0,0,0,0,0,0,0,-1,1714,1317,0,0
497,-293,0,0,0,0,0,0,0,0,0,-1,1721,1317,0,0
504,-293,0,0,0,0,0,0,0,0,0,-1,1728,1317,0,0
511,-293,0,0,0,0,0,0,0,0,0,-1,1735,1317,0,0
518,-293,0,0,0,0,0,0,0,0,0,-1,1742,1317,0,0
525,-293,0,0,0,0,0,0,0,0,0,-1,1749,1317,0,0
532,-293,0,0,0,0,0,0,0,0,0,-1,1756,1317,0,0
539,-293,0,0,0,0,0,0,0,0,0,-1,1763,1317,0,0
546,-293,0,0,0,0,0,0,0,0,0,-1,1770,1317,0,0
553,-293,0,0,0,0,0,0,0,0,0,-1,1777,1317,0,0
560,-293,0,0,0,0,0,0,0,0,0,-1,1784,1317,0,0
567,-293,0,0,0,0,0,0,0,0,0,-1,1791,1317,0,0
574,-293,0,0,0,0,0,0,0,0,0,-1,1798,1317,0,0
581,-293,0,0,0,0,0,0,0,0,0,-1,1805,1317,0,0
588,-293,0,0,0,0,0,0,0,0,0,-1,1812,1317,0,0
595,-293,85.9399,2.10144,0,0,0,0,0,0,0,-1,1819,1317,85.94,-2.1015
602,-293,85.9573,1.71106,0,0,0,0,0,0,0,-1,1826,1317,85.9573,-1.71108
609,-293,86.5338,0.772461,0,0,0,0,0,0,0,-1,1833,1317,86.5338,-0.772455
616,-293,91.9178,1.40967,0,0,0,0,0,0,0,-1,1840,1317,91.9178,-1.40968
623,-293,64.6224,0.448364,0,0,0,0,0,0,0,-1,1847,1317,64.6224,-0.448318
630,-293,46.6716,3.21558,0,0,0,0,0,0,0,-1,1854,1317,46.6716,-3.2156
637,-293,42.7729,4.95544,0,0,0,0,0,0,0,-1,1861,1317,42.773,-4.95546
644,-293,24.4565,0.520752,0,0,0,0,0,0,0,-1,1868,1317,24.4566,-0.520709
651,-293,25.8926,9.51245,0,0,0,0,0,0,0,-1,1875,1317,25.8926,-9.51246
658,-293,25.4904,9.10205,0,0,0,0,0,0,0,-1,1882,1317,25.4904,-9.10209
665,-293,39.7999,13.4221,0,0,0,0,0,0,0,-1,1889,1317,39.8,-13.4221
672,-293,93.4913,39.5636,0,0,0,0,0,0,0,-1,1896,1317,93.4913,-39.5636
679,-293,104.875,42.3218,0,0,0,0,0,0,0,-1,1903,1317,104.875,-42.3218
686,-293,94.0323,36.5354,0,0,0,0,0,0,0,-1,1910,1317,94.0324,-36.5354
693,-293,192.135,44.5758,0,0,0,0,0,0,0,-1,1917,1317,192.135,-44.5758
700,-293,191.798,42.347,-0.0105651,0.0190601,0.0100454,0.0221451,-0.0136501,1.27283,0.0208594,0.0326517,1924,1317,191.798,-42.3471
707,-293,191.395,40.0422,-0.0117401,0.0250583,0.0146196,0.0301594,-0.0168412,1.23508,0.0274965,0.0196575,1931,1317,191.395,-40.0423
714,-293,191.045,38.0446,-0.0135975,0.0305272,0.0193525,0.0378122,-0.0208825,1.21077,0.034354,0.0131458,1938,1317,191.045,-38.0445
721,-293,190.713,36.0696,-0.0161057,0.0356154,0.0243001,0.0452409,-0.0257312,1.19365,0.0414887,0.0171531,1945,1317,190.713,-36.0696
728,-293,190.129,34.2087,-0.0192324,0.0404618,0.029531,0.0526019,-0.0313725,1.18076,0.0489964,0.0335665,1952,1317,190.129,-34.2088
735,-293,189.501,32.4552,0,0,0,0,0,0,0,-1,1959,1317,189.501,-32.4552
742,-293,105.342,25.7426,0,0,0,0,0,0,0,-1,1966,1317,105.342,-25.7425
749,-293,74.3734,16.1273,0,0,0,0,0,0,0,-1,1973,1317,74.3734,-16.1274
756,-293,24.978,3.9718,0,0,0,0,0,0,0,-1,1980,1317,24.978,-3.97186
763,-293,26.6713,4.74097,0,0,0,0,0,0,0,-1,1987,1317,26.6713,-4.74098
770,-293,24.1349,4.69153,0,0,0,0,0,0,0,-1,1994,1317,24.1348,-4.69159
777,-293,0,0,0,0,0,0,0,0,0,-1,2001,1317,0,0
784,-293,0,0,0,0,0,0,0,0,0,-1,2008,1317,0,0
791,-293,0,0,0,0,0,0,0,0,0,-1,2015,1317,0,0
798,-293,0,0,0,0,0,0,0,0,0,-1,2022,1317,0,0
805,-293,0,0,0,0,0,0,0,0,0,-1,2029,1317,0,0
812,-293,0,0,0,0,0,0,0,0,0,-1,2036,1317,0,0
-700,-300,0,0,0,0,0,0,0,0,0,-1,524,1324,0,0
-693,-300,0,0,0,0,0,0,0,0,0,-1,531,1324,0,0
-686,-300,0,0,0,0,0,0,0,0,0,-1,538,1324,0,0
-679,-300,0,0,0,0,0,0,0,0,0,-1,545,1324,0,0
-672,-300,0,0,0,0,0,0,0,0,0,-1,552,1324,0,0
-665,-300,0,0,0,0,0,0,0,0,0,-1,559,1324,0,0
-658,-300,0,0,0,0,0,0,0,0,0,-1,566,1324,0,0
-651,-300,-41.7632,2.33789,0,0,0,0,0,0,0,-1,573,1324,-41.7632,-2.33789
-644,-300,-42.3084,1.3728,0,0,0,0,0,0,0,-1,580,1324,-42.3084,-1.37282
-637,-300,-42.6259,0.807251,0,0,0,0,0,0,0,-1,587,1324,-42.6259,-0.807209
-630,-300,-21.1108,2.26306,0,0,0,0,0,0,0,-1,594,1324,-21.1109,-2.2631
-623,-300,-12.7067,1.48462,0,0,0,0,0,0,0,-1,601,1324,-12.7067,-1.48462
-616,-300,-14.9988,1.68628,0,0,0,0,0,0,0,-1,608,1324,-14.9988,-1.68627
-609,-300,-15.5027,3.29907,0,0,0,0,0,0,0,-1,615,1324,-15.5027,-3.29902
-602,-300,-42.3108,13.1433,0,0,0,0,0,0,0,-1,622,1324,-42.3108,-13.1433
-595,-300,-181.841,31.9867,0,0,0,0,0,0,0,-1,629,1324,-181.841,-31.9867
-588,-300,-181.865,33.9302,-0.00600373,0.0500235,-0.0239768,0.0588834,-0.0148635,-1.21684,0.0450352,0.0268611,636,1324,-181.865,-33.9301
-581,-300,-182.223,35.8457,0.000284514,0.0442927,-0.0211909,0.0528375,-0.00826029,-1.18751,0.0382767,0.0320422,643,1324,-182.223,-35.8457
-574,-300,-182.386,37.8406,0.00675823,0.0387085,-0.0181085,0.0468813,-0.0014146,-1.14684,0.0317363,0.0394416,650,1324,-182.386,-37.8406
-567,-300,-182.723,40.0854,0,0,0,0,0,0,0,-1,657,1324,-182.723,-40.0855
-560,-300,-183.015,41.9556,0,0,0,0,0,0,0,-1,664,1324,-183.015,-41.9556
-553,-300,-183.042,44.1084,0,0,0,0,0,0,0,-1,671,1324,-183.042,-44.1084
-546,-300,-182.969,46.3745,0,0,0,0,0,0,0,-1,678,1324,-182.969,-46.3745
-539,-300,-84.1171,42.1063,0,0,0,0,0,0,0,-1,685,1324,-84.1171,-42.1063
-532,-300,-63.239,34.0382,0,0,0,0,0,0,0,-1,692,1324,-63.239,-34.0382
-525,-300,-13.5115,6.27783,0,0,0,0,0,0,0,-1,699,1324,-13.5115,-6.2778
-518,-300,-9.8349,-0.537109,0,0,0,0,0,0,0,-1,706,1324,-9.83487,0.537068
-511,-300,-12.8644,0.081665,0,0,0,0,0,0,0,-1,713,1324,-12.8644,-0.0817016
-504,-300,-13.4829,-0.165527,0,0,0,0,0,0,0,-1,720,1324,-13.4829,0.165544
-497,-300,-18.1063,0.956543,0,0,0,0,0,0,0,-1,727,1324,-18.1063,-0.9565
-490,-300,-18.2293,1.53625,0,0,0,0,0,0,0,-1,734,1324,-18.2293,-1.53626
-483,-300,-18.3522,1.61084,0,0,0,0,0,0,0,-1,741,1324,-18.3522,-1.6108
-476,-300,-18.7489,1.96387,0,0,0,0,0,0,0,-1,748,1324,-18.7489,-1.96387
-469,-300,0,0,0,0,0,0,0,0,0,-1,755,1324,0,0
-462,-300,0,0,0,0,0,0,0,0,0,-1,762,1324,0,0
-455,-300,0,0,0,0,0,0,0,0,0,-1,769,1324,0,0
-448,-300,0,0,0,0,0,0,0,0,0,-1,776,1324,0,0
-441,-300,0,0,0,0,0,0,0,0,0,-1,783,1324,0,0
-434,-300,0,0,0,0,0,0,0,0,0,-1,790,1324,0,0
-427,-300,0,0,0,0,0,0,0,0,0,-1,797,1324,0,0
-420,-300,0,0,0,0,0,0,0,0,0,-1,804,1324,0,0
-413,-300,0,0,0,0,0,0,0,0,0,-1,811,1324,0,0
-406,-300,0,0,0,0,0,0,0,0,0,-1,818,1324,0,0
-399,-300,0,0,0,0,0,0,0,0,0,-1,825,1324,0,0
-392,-300,0,0,0,0,0,0,0,0,0,-1,832,1324,0,0
-385,-300,0,0,0,0,0,0,0,0,0,-1,839,1324,0,0
-378,-300,0,0,0,0,0,0,0,0,0,-1,846,1324,0,0
-371,-300,0,0,0,0,0,0,0,0,0,-1,853,1324,0,0
-364,-300,0,0,0,0,0,0,0,0,0,-1,860,1324,0,0
-357,-300,0,0,0,0,0,0,0,0,0,-1,867,1324,0,0
-350,-300,0,0,0,0,0,0,0,0,0,-1,874,1324,0,0
-343,-300,0,0,0,0,0,0,0,0,0,-1,881,1324,0,0
-336,-300,0,0,0,0,0,0,0,0,0,-1,888,1324,0,0
-329,-300,0,0,0,0,0,0,0,0,0,-1,895,1324,0,0
-322,-300,0,0,0,0,0,0,0,0,0,-1,902,1324,0,0
-315,-300,0,0,0,0,0,0,0,0,0,-1,909,1324,0,0
-308,-300,0,0,0,0,0,0,0,0,0,-1,916,1324,0,0
-301,-300,0,0,0,0,0,0,0,0,0,-1,923,1324,0,0
-294,-300,0,0,0,0,0,0,0,0,0,-1,930,1324,0,0
-287,-300,0,0,0,0,0,0,0,0,0,-1,937,1324,0,0
-280,-300,0,0,0,0,0,0,0,0,0,-1,944,1324,0,0
-273,-300,0,0,0,0,0,0,0,0,0,-1,951,1324,0,0
-266,-300,0,0,0,0,0,0,0,0,0,-1,958,1324,0,0
-259,-300,0,0,0,0,0,0,0,0,0,-1,965,1324,0,0
-252,-300,0,0,0,0,0,0,0,0,0,-1,972,1324,0,0
-245,-300,0,0,0,0,0,0,0,0,0,-1,979,1324,0,0
-238,-300,0,0,0,0,0,0,0,0,0,-1,986,1324,0,0
-231,-300,0,0,0,0,0,0,0,0,0,-1,993,1324,0,0
-224,-300,0,0,0,0,0,0,0,0,0,-1,1000,1324,0,0
-217,-300,0,0,0,0,0,0,0,0,0,-1,1007,1324,0,0
-210,-300,0,0,0,0,0,0,0,0,0,-1,1014,1324,0,0
-203,-300,0,0,0,0,0,0,0,0,0,-1,1021,1324,0,0
-196,-300,0,0,0,0,0,0,0,0,0,-1,1028,1324,0,0
-189,-300,0,0,0,0,0,0,0,0,0,-1,1035,1324,0,0
-182,-300,0,0,0,0,0,0,0,0,0,-1,1042,1324,0,0
-175,-300,0,0,0,0,0,0,0,0,0,-1,1049,1324,0,0
-168,-300,0,0,0,0,0,0,0,0,0,-1,1056,1324,0,0
-161,-300,0,0,0,0,0,0,0,0,0,-1,1063,1324,0,0
-154,-300,0,0,0,0,0,0,0,0,0,-1,1070,1324,0,0
-147,-300,0,0,0,0,0,0,0,0,0,-1,1077,1324,0,0
-140,-300,0,0,0,0,0,0,0,0,0,-1,1084,1324,0,0
-133,-300,0,0,0,0,0,0,0,0,0,-1,1091,1324,0,0
-126,-300,0,0,0,0,0,0,0,0,0,-1,1098,1324,0,0
-119,-300,0,0,0,0,0,0,0,0,0,-1,1105,1324,0,0
-112,-300,0,0,0,0,0,0,0,0,0,-1,1112,1324,0,0
-105,-300,0,0,0,0,0,0,0,0,0,-1,1119,1324,0,0
-98,-300,0,0,0,0,0,0,0,0,0,-1,1126,1324,0,0
-91,-300,0,0,0,0,0,0,0,0,0,-1,1133,1324,0,0
-84,-300,0,0,0,0,0,0,0,0,0,-1,1140,1324,0,0
-77,-300,0,0,0,0,0,0,0,0,0,-1,1147,1324,0,0
-70,-300,0,0,0,0,0,0,0,0,0,-1,1154,1324,0,0
-63,-300,0,0,0,0,0,0,0,0,0,-1,1161,1324,0,0
-56,-300,0,0,0,0,0,0,0,0,0,-1,1168,1324,0,0
-49,-300,0,0,0,0,0,0,0,0,0,-1,1175,1324,0,0
-42,-300,0,0,0,0,0,0,0,0,0,-1,1182,1324,0,0
-35,-300,0,0,0,0,0,0,0,0,0,-1,1189,1324,0,0
-28,-300,0,0,0,0,0,0,0,0,0,-1,1196,1324,0,0
-21,-300,0,0,0,0,0,0,0,0,0,-1,1203,1324,0,0
-14,-300,0,0,0,0,0,0,0,0,0,-1,1210,1324,0,0
-7,-300,0,0,0,0,0,0,0,0,0,-1,1217,1324,0,0
0,-300,0,0,0,0,0,0,0,0,0,-1,1224,1324,0,0
7,-300,0,0,0,0,0,0,0,0,0,-1,1231,1324,0,0
14,-300,0,0,0,0,0,0,0,0,0,-1,1238,1324,0,0
21,-300,0,0,0,0,0,0,0,0,0,-1,1245,1324,0,0
28,-300,0,0,0,0,0,0,0,0,0,-1,1252,1324,0,0
35,-300,0,0,0,0,0,0,0,0,0,-1,1259,1324,0,0
42,-300,0,0,0,0,0,0,0,0,0,-1,1266,1324,0,0
49,-300,0,0,0,0,0,0,0,0,0,-1,1273,1324,0,0
56,-300,0,0,0,0,0,0,0,0,0,-1,1280,1324,0,0
63,-300,0,0,0,0,0,0,0,0,0,-1,1287,1324,0,0
70,-300,0,0,0,0,0,0,0,0,0,-1,1294,1324,0,0
77,-300,0,0,0,0,0,0,0,0,0,-1,1301,1324,0,0
84,-300,0,0,0,0,0,0,0,0,0,-1,1308,1324,0,0
91,-300,0,0,0,0,0,0,0,0,0,-1,1315,1324,0,0
98,-300,0,0,0,0,0,0,0,0,0,-1,1322,1324,0,0
105,-300,0,0,0,0,0,0,0,0,0,-1,1329,1324,0,0
112,-300,0,0,0,0,0,0,0,0,0,-1,1336,1324,0,0
119,-300,0,0,0,0,0,0,0,0,0,-1,1343,1324,0,0
126,-300,0,0,0,0,0,0,0,0,0,-1,1350,1324,0,0
133,-300,0,0,0,0,0,0,0,0,0,-1,1357,1324,0,0
140,-300,0,0,0,0,0,0,0,0,0,-1,1364,1324,0,0
147,-300,0,0,0,0,0,0,0,0,0,-1,1371,1324,0,0
154,-300,0,0,0,0,0,0,0,0,0,-1,1378,1324,0,0
161,-300,0,0,0,0,0,0,0,0,0,-1,1385,1324,0,0
168,-300,0,0,0,0,0,0,0,0,0,-1,1392,1324,0,0
175,-300,0,0,0,0,0,0,0,0,0,-1,1399,1324,0,0
182,-300,0,0,0,0,0,0,0,0,0,-1,1406,1324,0,0
189,-300,0,0,0,0,0,0,0,0,0,-1,1413,1324,0,0
196,-300,0,0,0,0,0,0,0,0,0,-1,1420,1324,0,0
203,-300,0,0,0,0,0,0,0,0,0,-1,1427,1324,0,0
210,-300,0,0,0,0,0,0,0,0,0,-1,1434,1324,0,0
217,-300,0,0,0,0,0,0,0,0,0,-1,1441,1324,0,0
224,-300,0,0,0,0,0,0,0,0,0,-1,1448,1324,0,0
231,-300,0,0,0,0,0,0,0,0,0,-1,1455,1324,0,0
238,-300,0,0,0,0,0,0,0,0,0,-1,1462,1324,0,0
245,-300,0,0,0,0,0,0,0,0,0,-1,1469,1324,0,0
252,-300,0,0,0,0,0,0,0,0,0,-1,1476,1324,0,0
259,-300,0,0,0,0,0,0,0,0,0,-1,1483,1324,0,0
266,-300,0,0,0,0,0,0,0,0,0,-1,1490,1324,0,0
273,-300,0,0,0,0,0,0,0,0,0,-1,1497,1324,0,0
280,-300,0,0,0,0,0,0,0,0,0,-1,1504,1324,0,0
287,-300,0,0,0,0,0,0,0,0,0,-1,1511,1324,0,0
294,-300,0,0,0,0,0,0,0,0,0,-1,1518,1324,0,0
301,-300,0,0,0,0,0,0,0,0,0,-1,1525,1324,0,0
308,-300,0,0,0,0,0,0,0,0,0,-1,1532,1324,0,0
315,-300,0,0,0,0,0,0,0,0,0,-1,1539,1324,0,0
322,-300,0,0,0,0,0,0,0,0,0,-1,1546,1324,0,0
329,-300,0,0,0,0,0,0,0,0,0,-1,1553,1324,0,0
336,-300,0,0,0,0,0,0,0,0,0,-1,1560,1324,0,0
343,-300,0,0,0,0,0,0,0,0,0,-1,1567,1324,0,0
350,-300,0,0,0,0,0,0,0,0,0,-1,1574,1324,0,0
357,-300,0,0,0,0,0,0,0,0,0,-1,1581,1324,0,0
364,-300,0,0,0,0,0,0,0,0,0,-1,1588,1324,0,0
371,-300,0,0,0,0,0,0,0,0,0,-1,1595,1324,0,0
378,-300,0,0,0,0,0,0,0,0,0,-1,1602,1324,0,0
385,-300,0,0,0,0,0,0,0,0,0,-1,1609,1324,0,0
392,-300,0,0,0,0,0,0,0,0,0,-1,1616,1324,0,0
399,-300,0,0,0,0,0,0,0,0,0,-1,1623,1324,0,0
406,-300,0,0,0,0,0,0,0,0,0,-1,1630,1324,0,0
413,-300,0,0,0,0,0,0,0,0,0,-1,1637,1324,0,0
420,-300,0,0,0,0,0,0,0,0,0,-1,1644,1324,0,0
427,-300,0,0,0,0,0,0,0,0,0,-1,1651,1324,0,0
434,-300,0,0,0,0,0,0,0,0,0,-1,1658,1324,0,0
441,-300,0,0,0,0,0,0,0,0,0,-1,1665,1324,0,0
448,-300,0,0,0,0,0,0,0,0,0,-1,1672,1324,0,0
455,-300,0,0,0,0,0,0,0,0,0,-1,1679,1324,0,0
462,-300,0,0,0,0,0,0,0,0,0,-1,1686,1324,0,0
469,-300,0,0,0,0,0,0,0,0,0,-1,1693,1324,0,0
476,-300,0,0,0,0,0,0,0,0,0,-1,1700,1324,0,0
483,-300,0,0,0,0,0,0,0,0,0,-1,1707,1324,0,0
490,-300,0,0,0,0,0,0,0,0,0,-1,1714,1324,0,0
497,-300,0,0,0,0,0,0,0,0,0,-1,1721,1324,0,0
504,-300,0,0,0,0,0,0,0,0,0,-1,1728,1324,0,0
511,-300,0,0,0,0,0,0,0,0,0,-1,1735,1324,0,0
518,-300,0,0,0,0,0,0,0,0,0,-1,1742,1324,0,0
525,-300,0,0,0,0,0,0,0,0,0,-1,1749,1324,0,0
532,-300,0,0,0,0,0,0,0,0,0,-1,1756,1324,0,0
539,-300,0,0,0,0,0,0,0,0,0,-1,1763,1324,0,0
546,-300,0,0,0,0,0,0,0,0,0,-1,1770,1324,0,0
553,-300,0,0,0,0,0,0,0,0,0,-1,1777,1324,0,0
560,-300,0,0,0,0,0,0,0,0,0,-1,1784,1324,0,0
567,-300,0,0,0,0,0,0,0,0,0,-1,1791,1324,0,0
574,-300,0,0,0,0,0,0,0,0,0,-1,1798,1324,0,0
581,-300,0,0,0,0,0,0,0,0,0,-1,1805,1324,0,0
588,-300,66.4561,1.99207,0,0,0,0,0,0,0,-1,1812,1324,66.456,-1.99202
595,-300,66.4685,1.95496,0,0,0,0,0,0,0,-1,1819,1324,66.4685,-1.95499
602,-300,66.5259,1.72363,0,0,0,0,0,0,0,-1,1826,1324,66.5259,-1.72367
609,-300,64.2576,2.90149,0,0,0,0,0,0,0,-1,1833,1324,64.2575,-2.90154
616,-300,65.1267,2.84033,0,0,0,0,0,0,0,-1,1840,1324,65.1267,-2.84037
623,-300,47.4474,2.43188,0,0,0,0,0,0,0,-1,1847,1324,47.4474,-2.43194
630,-300,42.4099,3.9165,0,0,0,0,0,0,0,-1,1854,1324,42.4099,-3.91649
637,-300,31.1719,4.6366,0,0,0,0,0,0,0,-1,1861,1324,31.1718,-4.63665
644,-300,22.9836,3.44934,0,0,0,0,0,0,0,-1,1868,1324,22.9836,-3.4493
651,-300,25.5004,9.11853,0,0,0,0,0,0,0,-1,1875,1324,25.5004,-9.11851
658,-300,25.4012,9.20032,0,0,0,0,0,0,0,-1,1882,1324,25.4012,-9.20036
665,-300,91.6304,40.3275,0,0,0,0,0,0,0,-1,1889,1324,91.6304,-40.3276
672,-300,105.809,45.0531,0,0,0,0,0,0,0,-1,1896,1324,105.809,-45.0531
679,-300,191.072,49.2544,0,0,0,0,0,0,0,-1,1903,1324,191.072,-49.2544
686,-300,189.968,47.0792,0,0,0,0,0,0,0,-1,1910,1324,189.968,-47.0792
693,-300,189.757,44.6935,-0.0114004,0.0139493,0.00795048,0.0162364,-0.0136876,1.29068,0.0172975,0.0398651,1917,1324,189.757,-44.6935
700,-300,189.419,42.4476,-0.0112825,0.0210068,0.0123095,0.0251643,-0.01544,1.24509,0.0236659,0.0258534,1924,1324,189.419,-42.4476
707,-300,189.036,40.3602,-0.0119094,0.0272542,0.0167723,0.0334553,-0.0181105,1.21666,0.0302077,0.0155659,1931,1324,189.036,-40.3602
714,-300,188.719,38.2874,-0.0132003,0.0328768,0.0212936,0.0412101,-0.0215336,1.19777,0.0368141,0.0191772,1938,1324,188.719,-38.2874
721,-300,188.333,36.2842,-0.015137,0.0380308,0.0259049,0.0485652,-0.0256714,1.18456,0.0435346,0.0215408,1945,1324,188.333,-36.2841
728,-300,187.884,34.3434,-0.0177019,0.0428696,0.0306507,0.0556732,-0.0305055,1.1751,0.0504576,0.0363945,1952,1324,187.884,-34.3434
735,-300,187.263,32.8472,0,0,0,0,0,0,0,-1,1959,1324,187.263,-32.8472
742,-300,101.949,26.0653,0,0,0,0,0,0,0,-1,1966,1324,101.949,-26.0653
749,-300,27.4065,5.9718,0,0,0,0,0,0,0,-1,1973,1324,27.4065,-5.97181
756,-300,22.1423,3.45642,0,0,0,0,0,0,0,-1,1980,1324,22.1423,-3.45638
763,-300,22.6136,5.1571,0,0,0,0,0,0,0,-1,1987,1324,22.6136,-5.15706
770,-300,24.859,4.77979,0,0,0,0,0,0,0,-1,1994,1324,24.859,-4.77972
777,-300,0,0,0,0,0,0,0,0,0,-1,2001,1324,0,0
784,-300,0,0,0,0,0,0,0,0,0,-1,2008,1324,0,0
791,-300,0,0,0,0,0,0,0,0,0,-1,2015,1324,0,0
798,-300,0,0,0,0,0,0,0,0,0,-1,2022,1324,0,0
805,-300,0,0,0,0,0,0,0,0,0,-1,2029,1324,0,0
812,-300,0,0,0,0,0,0,0,0,0,-1,2036,1324,0,0
-700,-307,0,0,0,0,0,0,0,0,0,-1,524,1331,0,0
-693,-307,0,0,0,0,0,0,0,0,0,-1,531,1331,0,0
-686,-307,0,0,0,0,0,0,0,0,0,-1,538,1331,0,0
-679,-307,0,0,0,0,0,0,0,0,0,-1,545,1331,0,0
-672,-307,0,0,0,0,0,0,0,0,0,-1,552,1331,0,0
-665,-307,0,0,0,0,0,0,0,0,0,-1,559,1331,0,0
-658,-307,0,0,0,0,0,0,0,0,0,-1,566,1331,0,0
-651,-307,-40.7436,1.98755,0,0,0,0,0,0,0,-1,573,1331,-40.7436,-1.98753
-644,-307,-41.7838,1.24817,0,0,0,0,0,0,0,-1,580,1331,-41.7838,-1.2482
-637,-307,-41.9006,0.477783,0,0,0,0,0,0,0,-1,587,1331,-41.9006,-0.477844
-630,-307,-12.0005,0.767212,0,0,0,0,0,0,0,-1,594,1331,-12.0005,-0.767266
-623,-307,-12.2128,2.93811,0,0,0,0,0,0,0,-1,601,1331,-12.2128,-2.93813
-616,-307,-12.6612,2.08289,0,0,0,0,0,0,0,-1,608,1331,-12.6612,-2.08293
-609,-307,-12.2767,1.83228,0,0,0,0,0,0,0,-1,615,1331,-12.2768,-1.83224
-602,-307,-27.5659,6.93335,0,0,0,0,0,0,0,-1,622,1331,-27.5658,-6.9333
-595,-307,-179.195,32.0459,0,0,0,0,0,0,0,-1,629,1331,-179.195,-32.0459
-588,-307,-179.471,34.048,-0.0068717,0.0525209,-0.0243419,0.0612225,-0.0155733,-1.22748,0.0468765,0.0352344,636,1331,-179.471,-34.048
-581,-307,-179.811,36.0201,-0.000377478,0.04674,-0.022346,0.0556521,-0.0092896,-1.1913,0.0405541,0.0243993,643,1331,-179.811,-36.0201
-574,-307,-180.112,38.0251,0.00614387,0.0411165,-0.0202646,0.0503963,-0.00313593,-1.14137,0.0346901,0.0253236,650,1331,-180.112,-38.0252
-567,-307,-180.364,40.2859,0.0126121,0.0355597,-0.0182003,0.045601,0.00257079,-1.06664,0.029581,0.0375537,657,1331,-180.364,-40.2858
-560,-307,-180.738,42.6552,0,0,0,0,0,0,0,-1,664,1331,-180.738,-42.6552
-553,-307,-180.628,44.2528,0,0,0,0,0,0,0,-1,671,1331,-180.628,-44.2528
-546,-307,-180.724,46.4229,0,0,0,0,0,0,0,-1,678,1331,-180.724,-46.4229
-539,-307,-165.706,50.8354,0,0,0,0,0,0,0,-1,685,1331,-165.706,-50.8355
-532,-307,-82.0417,43.2467,0,0,0,0,0,0,0,-1,692,1331,-82.0417,-43.2467
-525,-307,-13.2009,6.91309,0,0,0,0,0,0,0,-1,699,1331,-13.2009,-6.9131
-518,-307,-9.77777,-1.56653,0,0,0,0,0,0,0,-1,706,1331,-9.77777,1.56651
-511,-307,-12.5226,0.26709,0,0,0,0,0,0,0,-1,713,1331,-12.5226,-0.267038
-504,-307,-12.5913,-0.308105,0,0,0,0,0,0,0,-1,720,1331,-12.5913,0.308124
-497,-307,-13.8586,-0.115845,0,0,0,0,0,0,0,-1,727,1331,-13.8587,0.115861
-490,-307,-17.9429,0.982178,0,0,0,0,0,0,0,-1,734,1331,-17.9429,-0.982198
-483,-307,-18.1066,0.927612,0,0,0,0,0,0,0,-1,741,1331,-18.1066,-0.927609
-476,-307,-18.1288,1.1228,0,0,0,0,0,0,0,-1,748,1331,-18.1289,-1.12286
-469,-307,-18.2028,0.798584,0,0,0,0,0,0,0,-1,755,1331,-18.2027,-0.798546
-462,-307,0,0,0,0,0,0,0,0,0,-1,762,1331,0,0
-455,-307,0,0,0,0,0,0,0,0,0,-1,769,1331,0,0
-448,-307,0,0,0,0,0,0,0,0,0,-1,776,1331,0,0
-441,-307,0,0,0,0,0,0,0,0,0,-1,783,1331,0,0
-434,-307,0,0,0,0,0,0,0,0,0,-1,790,1331,0,0
-427,-307,0,0,0,0,0,0,0,0,0,-1,797,1331,0,0
-420,-307,0,0,0,0,0,0,0,0,0,-1,804,1331,0,0
-413,-307,0,0,0,0,0,0,0,0,0,-1,811,1331,0,0
-406,-307,0,0,0,0,0,0,0,0,0,-1,818,1331,0,0
-399,-307,0,0,0,0,0,0,0,0,0,-1,825,1331,0,0
-392,-307,0,0,0,0,0,0,0,0,0,-1,832,1331,0,0
-385,-307,0,0,0,0,0,0,0,0,0,-1,839,1331,0,0
-378,-307,0,0,0,0,0,0,0,0,0,-1,846,1331,0,0
-371,-307,0,0,0,0,0,0,0,0,0,-1,853,1331,0,0
-364,-307,0,0,0,0,0,0,0,0,0,-1,860,1331,0,0
-357,-307,0,0,0,0,0,0,0,0,0,-1,867,1331,0,0
-350,-307,0,0,0,0,0,0,0,0,0,-1,874,1331,0,0
-343,-307,0,0,0,0,0,0,0,0,0,-1,881,1331,0,0
-336,-307,0,0,0,0,0,0,0,0,0,-1,888,1331,0,0
-329,-307,0,0,0,0,0,0,0,0,0,-1,895,1331,0,0
-322,-307,0,0,0,0,0,0,0,0,0,-1,902,1331,0,0
-315,-307,0,0,0,0,0,0,0,0,0,-1,909,1331,0,0
-308,-307,0,0,0,0,0,0,0,0,0,-1,916,1331,0,0
-301,-307,0,0,0,0,0,0,0,0,0,-1,923,1331,0,0
-294,-307,0,0,0,0,0,0,0,0,0,-1,930,1331,0,0
-287,-307,0,0,0,0,0,0,0,0,0,-1,937,1331,0,0
-280,-307,0,0,0,0,0,0,0,0,0,-1,944,1331,0,0
-273,-307,0,0,0,0,0,0,0,0,0,-1,951,1331,0,0
-266,-307,0,0,0,0,0,0,0,0,0,-1,958,1331,0,0
-259,-307,0,0,0,0,0,0,0,0,0,-1,965,1331,0,0
-252,-307,0,0,0,0,0,0,0,0,0,-1,972,1331,0,0
-245,-307,0,0,0,0,0,0,0,0,0,-1,979,1331,0,0
-238,-307,0,0,0,0,0,0,0,0,0,-1,986,1331,0,0
-231,-307,0,0,0,0,0,0,0,0,0,-1,993,1331,0,0
-224,-307,0,0,0,0,0,0,0,0,0,-1,1000,1331,0,0
-217,-307,0,0,0,0,0,0,0,0,0,-1,1007,1331,0,0
-210,-307,0,0,0,0,0,0,0,0,0,-1,1014,1331,0,0
-203,-307,0,0,0,0,0,0,0,0,0,-1,1021,1331,0,0
-196,-307,0,0,0,0,0,0,0,0,0,-1,1028,1331,0,0
-189,-307,0,0,0,0,0,0,0,0,0,-1,1035,1331,0,0
-182,-307,0,0,0,0,0,0,0,0,0,-1,1042,1331,0,0
-175,-307,0,0,0,0,0,0,0,0,0,-1,1049,1331,0,0
-168,-307,0,0,0,0,0,0,0,0,0,-1,1056,1331,0,0
-161,-307,0,0,0,0,0,0,0,0,0,-1,1063,1331,0,0
-154,-307,0,0,0,0,0,0,0,0,0,-1,1070,1331,0,0
-147,-307,0,0,0,0,0,0,0,0,0,-1,1077,1331,0,0
-140,-307,0,0,0,0,0,0,0,0,0,-1,1084,1331,0,0
-133,-307,0,0,0,0,0,0,0,0,0,-1,1091,1331,0,0
-126,-307,0,0,0,0,0,0,0,0,0,-1,1098,1331,0,0
-119,-307,0,0,0,0,0,0,0,0,0,-1,1105,1331,0,0
-112,-307,0,0,0,0,0,0,0,0,0,-1,1112,1331,0,0
-105,-307,0,0,0,0,0,0,0,0,0,-1,1119,1331,0,0
-98,-307,0,0,0,0,0,0,0,0,0,-1,1126,1331,0,0
-91,-307,0,0,0,0,0,0,0,0,0,-1,1133,1331,0,0
-84,-307,0,0,0,0,0,0,0,0,0,-1,1140,1331,0,0
-77,-307,0,0,0,0,0,0,0,0,0,-1,1147,1331,0,0
-70,-307,0,0,0,0,0,0,0,0,0,-1,1154,1331,0,0
-63,-307,0,0,0,0,0,0,0,0,0,-1,1161,1331,0,0
-56,-307,0,0,0,0,0,0,0,0,0,-1,1168,1331,0,0
-49,-307,0,0,0,0,0,0,0,0,0,-1,1175,1331,0,0
-42,-307,0,0,0,0,0,0,0,0,0,-1,1182,1331,0,0
-35,-307,0,0,0,0,0,0,0,0,0,-1,1189,1331,0,0
-28,-307,0,0,0,0,0,0,0,0,0,-1,1196,1331,0,0
-21,-307,0,0,0,0,0,0,0,0,0,-1,1203,1331,0,0
-14,-307,0,0,0,0,0,0,0,0,0,-1,1210,1331,0,0
-7,-307,0,0,0,0,0,0,0,0,0,-1,1217,1331,0,0
0,-307,0,0,0,0,0,0,0,0,0,-1,1224,1331,0,0
7,-307,0,0,0,0,0,0,0,0,0,-1,1231,1331,0,0
14,-307,0,0,0,0,0,0,0,0,0,-1,1238,1331,0,0
21,-307,0,0,0,0,0,0,0,0,0,-1,1245,1331,0,0
28,-307,0,0,0,0,0,0,0,0,0,-1,1252,1331,0,0
35,-307,0,0,0,0,0,0,0,0,0,-1,1259,1331,0,0
42,-307,0,0,0,0,0,0,0,0,0,-1,1266,1331,0,0
49,-307,0,0,0,0,0,0,0,0,0,-1,1273,1331,0,0
56,-307,0,0,0,0,0,0,0,0,0,-1,1280,1331,0,0
63,-307,0,0,0,0,0,0,0,0,0,-1,1287,1331,0,0
70,-307,0,0,0,0,0,0,0,0,0,-1,1294,1331,0,0
77,-307,0,0,0,0,0,0,0,0,0,-1,1301,1331,0,0
84,-307,0,0,0,0,0,0,0,0,0,-1,1308,1331,0,0
91,-307,0,0,0,0,0,0,0,0,0,-1,1315,1331,0,0
98,-307,0,0,0,0,0,0,0,0,0,-1,1322,1331,0,0
105,-307,0,0,0,0,0,0,0,0,0,-1,1329,1331,0,0
112,-307,0,0,0,0,0,0,0,0,0,-1,1336,1331,0,0
119,-307,0,0,0,0,0,0,0,0,0,-1,1343,1331,0,0
126,-307,0,0,0,0,0,0,0,0,0,-1,1350,1331,0,0
133,-307,0,0,0,0,0,0,0,0,0,-1,1357,1331,0,0
140,-307,0,0,0,0,0,0,0,0,0,-1,1364,1331,0,0
147,-307,0,0,0,0,0,0,0,0,0,-1,1371,1331,0,0
154,-307,0,0,0,0,0,0,0,0,0,-1,1378,1331,0,0
161,-307,0,0,0,0,0,0,0,0,0,-1,1385,1331,0,0
168,-307,0,0,0,0,0,0,0,0,0,-1,1392,1331,0,0
175,-307,0,0,0,0,0,0,0,0,0,-1,1399,1331,0,0
182,-307,0,0,0,0,0,0,0,0,0,-1,1406,1331,0,0
189,-307,0,0,0,0,0,0,0,0,0,-1,1413,1331,0,0
196,-307,0,0,0,0,0,0,0,0,0,-1,1420,1331,0,0
203,-307,0,0,0,0,0,0,0,0,0,-1,1427,1331,0,0
210,-307,0,0,0,0,0,0,0,0,0,-1,1434,1331,0,0
217,-307,0,0,0,0,0,0,0,0,0,-1,1441,1331,0,0
224,-307,0,0,0,0,0,0,0,0,0,-1,1448,1331,0,0
231,-307,0,0,0,0,0,0,0,0,0,-1,1455,1331,0,0
238,-307,0,0,0,0,0,0,0,0,0,-1,1462,1331,0,0
245,-307,0,0,0,0,0,0,0,0,0,-1,1469,1331,0,0
252,-307,0,0,0,0,0,0,0,0,0,-1,1476,1331,0,0
259,-307,0,0,0,0,0,0,0,0,0,-1,1483,1331,0,0
266,-307,0,0,0,0,0,0,0,0,0,-1,1490,1331,0,0
273,-307,0,0,0,0,0,0,0,0,0,-1,1497,1331,0,0
280,-307,0,0,0,0,0,0,0,0,0,-1,1504,1331,0,0
287,-307,0,0,0,0,0,0,0,0,0,-1,1511,1331,0,0
294,-307,0,0,0,0,0,0,0,0,0,-1,1518,1331,0,0
301,-307,0,0,0,0,0,0,0,0,0,-1,1525,1331,0,0
308,-307,0,0,0,0,0,0,0,0,0,-1,1532,1331,0,0
315,-307,0,0,0,0,0,0,0,0,0,-1,1539,1331,0,0
322,-307,0,0,0,0,0,0,0,0,0,-1,1546,1331,0,0
329,-307,0,0,0,0,0,0,0,0,0,-1,1553,1331,0,0
336,-307,0,0,0,0,0,0,0,0,0,-1,1560,1331,0,0
343,-307,0,0,0,0,0,0,0,0,0,-1,1567,1331,0,0
350,-307,0,0,0,0,0,0,0,0,0,-1,1574,1331,0,0
357,-307,0,0,0,0,0,0,0,0,0,-1,1581,1331,0,0
364,-307,0,0,0,0,0,0,0,0,0,-1,1588,1331,0,0
371,-307,0,0,0,0,0,0,0,0,0,-1,1595,1331,0,0
378,-307,0,0,0,0,0,0,0,0,0,-1,1602,1331,0,0
385,-307,0,0,0,0,0,0,0,0,0,-1,1609,1331,0,0
392,-307,0,0,0,0,0,0,0,0,0,-1,1616,1331,0,0
399,-307,0,0,0,0,0,0,0,0,0,-1,1623,1331,0,0
406,-307,0,0,0,0,0,0,0,0,0,-1,1630,1331,0,0
413,-307,0,0,0,0,0,0,0,0,0,-1,1637,1331,0,0
420,-307,0,0,0,0,0,0,0,0,0,-1,1644,1331,0,0
427,-307,0,0,0,0,0,0,0,0,0,-1,1651,1331,0,0
434,-307,0,0,0,0,0,0,0,0,0,-1,1658,1331,0,0
441,-307,0,0,0,0,0,0,0,0,0,-1,1665,1331,0,0
448,-307,0,0,0,0,0,0,0,0,0,-1,1672,1331,0,0
455,-307,0,0,0,0,0,0,0,0,0,-1,1679,1331,0,0
462,-307,0,0,0,0,0,0,0,0,0,-1,1686,1331,0,0
469,-307,0,0,0,0,0,0,0,0,0,-1,1693,1331,0,0
476,-307,0,0,0,0,0,0,0,0,0,-1,1700,1331,0,0
483,-307,0,0,0,0,0,0,0,0,0,-1,1707,1331,0,0
490,-307,0,0,0,0,0,0,0,0,0,-1,1714,1331,0,0
497,-307,0,0,0,0,0,0,0,0,0,-1,1721,1331,0,0
504,-307,0,0,0,0,0,0,0,0,0,-1,1728,1331,0,0
511,-307,0,0,0,0,0,0,0,0,0,-1,1735,1331,0,0
518,-307,0,0,0,0,0,0,0,0,0,-1,1742,1331,0,0
525,-307,0,0,0,0,0,0,0,0,0,-1,1749,1331,0,0
532,-307,0,0,0,0,0,0,0,0,0,-1,1756,1331,0,0
539,-307,0,0,0,0,0,0,0,0,0,-1,1763,1331,0,0
546,-307,0,0,0,0,0,0,0,0,0,-1,1770,1331,0,0
553,-307,0,0,0,0,0,0,0,0,0,-1,1777,1331,0,0
560,-307,0,0,0,0,0,0,0,0,0,-1,1784,1331,0,0
567,-307,0,0,0,0,0,0,0,0,0,-1,1791,1331,0,0
574,-307,0,0,0,0,0,0,0,0,0,-1,1798,1331,0,0
581,-307,0,0,0,0,0,0,0,0,0,-1,1805,1331,0,0
588,-307,66.5917,1.60864,0,0,0,0,0,0,0,-1,1812,1331,66.5917,-1.60867
595,-307,66.708,1.85352,0,0,0,0,0,0,0,-1,1819,1331,66.708,-1.85351
602,-307,66.111,1.49976,0,0,0,0,0,0,0,-1,1826,1331,66.1109,-1.49974
609,-307,63.8848,2.78992,0,0,0,0,0,0,0,-1,1833,1331,63.8848,-2.78989
616,-307,53.2878,0.135498,0,0,0,0,0,0,0,-1,1840,1331,53.2878,-0.135477
623,-307,44.3966,2.84888,0,0,0,0,0,0,0,-1,1847,1331,44.3966,-2.84884
630,-307,29.8116,1.51184,0,0,0,0,0,0,0,-1,1854,1331,29.8116,-1.51188
637,-307,24.6407,4.09106,0,0,0,0,0,0,0,-1,1861,1331,24.6407,-4.09103
644,-307,22.6885,5.80408,0,0,0,0,0,0,0,-1,1868,1331,22.6884,-5.80408
651,-307,17.5013,5.80078,0,0,0,0,0,0,0,-1,1875,1331,17.5014,-5.80072
658,-307,37.4427,13.9775,0,0,0,0,0,0,0,-1,1882,1331,37.4427,-13.9776
665,-307,104.043,47.2717,0,0,0,0,0,0,0,-1,1889,1331,104.043,-47.2717
672,-307,188.893,51.6714,0,0,0,0,0,0,0,-1,1896,1331,188.893,-51.6714
679,-307,188.417,49.4336,0,0,0,0,0,0,0,-1,1903,1331,188.417,-49.4336
686,-307,187.663,47.3829,0,0,0,0,0,0,0,-1,1910,1331,187.663,-47.383
693,-307,187.555,44.8132,-0.0116848,0.0158491,0.0105653,0.019436,-0.0152716,1.24351,0.0200864,0.040702,1917,1331,187.555,-44.8132
700,-307,187.046,42.6892,-0.011027,0.0230379,0.0148545,0.0286054,-0.0165946,1.21219,0.0264016,0.0265657,1924,1331,187.046,-42.6892
707,-307,186.465,40.6665,-0.0109952,0.0294826,0.0191245,0.037089,-0.0186016,1.19225,0.0327382,0.0255659,1931,1331,186.465,-40.6665
714,-307,186.21,38.5151,-0.0115716,0.035314,0.0233687,0.044972,-0.0212296,1.17889,0.0390323,0.0204111,1938,1331,186.21,-38.5151
721,-307,185.883,36.5339,-0.0127371,0.0406708,0.0275852,0.0523601,-0.0244264,1.16998,0.0453,0.024197,1945,1331,185.883,-36.5339
728,-307,185.727,34.2738,0,0,0,0,0,0,0,-1,1952,1331,185.727,-34.2738
735,-307,100.371,27.8601,0,0,0,0,0,0,0,-1,1959,1331,100.371,-27.86
742,-307,26.677,6.09192,0,0,0,0,0,0,0,-1,1966,1331,26.677,-6.0919
749,-307,26.7727,5.9032,0,0,0,0,0,0,0,-1,1973,1331,26.7727,-5.90323
756,-307,27.1556,5.74756,0,0,0,0,0,0,0,-1,1980,1331,27.1557,-5.7475
763,-307,18.7522,3.55298,0,0,0,0,0,0,0,-1,1987,1331,18.7522,-3.55301
770,-307,0,0,0,0,0,0,0,0,0,-1,1994,1331,0,0
777,-307,0,0,0,0,0,0,0,0,0,-1,2001,1331,0,0
784,-307,0,0,0,0,0,0,0,0,0,-1,2008,1331,0,0
791,-307,0,0,0,0,0,0,0,0,0,-1,2015,1331,0,0
798,-307,0,0,0,0,0,0,0,0,0,-1,2022,1331,0,0
805,-307,0,0,0,0,0,0,0,0,0,-1,2029,1331,0,0
812,-307,0,0,0,0,0,0,0,0,0,-1,2036,1331,0,0
-700,-314,0,0,0,0,0,0,0,0,0,-1,524,1338,0,0
-693,-314,0,0,0,0,0,0,0,0,0,-1,531,1338,0,0
-686,-314,0,0,0,0,0,0,0,0,0,-1,538,1338,0,0
-679,-314,0,0,0,0,0,0,0,0,0,-1,545,1338,0,0
-672,-314,0,0,0,0,0,0,0,0,0,-1,552,1338,0,0
-665,-314,0,0,0,0,0,0,0,0,0,-1,559,1338,0,0
-658,-314,0,0,0,0,0,0,0,0,0,-1,566,1338,0,0
-651,-314,0,0,0,0,0,0,0,0,0,-1,573,1338,0,0
-644,-314,-41.2806,1.17566,0,0,0,0,0,0,0,-1,580,1338,-41.2806,-1.17565
-637,-314,-58.369,7.97375,0,0,0,0,0,0,0,-1,587,1338,-58.369,-7.97376
-630,-314,-59.7463,6.72742,0,0,0,0,0,0,0,-1,594,1338,-59.7463,-6.72739
-623,-314,-13.3542,3.00903,0,0,0,0,0,0,0,-1,601,1338,-13.3542,-3.00907
-616,-314,-9.93311,1.15088,0,0,0,0,0,0,0,-1,608,1338,-9.93308,-1.15093
-609,-314,-9.4361,2.86292,0,0,0,0,0,0,0,-1,615,1338,-9.43612,-2.86286
-602,-314,-11.8027,2.42798,0,0,0,0,0,0,0,-1,622,1338,-11.8027,-2.42802
-595,-314,-52.7681,19.3807,0,0,0,0,0,0,0,-1,629,1338,-52.7681,-19.3807
-588,-314,-177.063,34.1298,0,0,0,0,0,0,0,-1,636,1338,-177.063,-34.1297
-581,-314,-177.297,36.1588,-0.000533558,0.0496022,-0.0220273,0.0579049,-0.00883635,-1.21033,0.0418608,0.0193729,643,1338,-177.297,-36.1588
-574,-314,-177.683,38.2826,0.00484168,0.0435691,-0.0221317,0.0536123,-0.00520153,-1.14479,0.0375955,0.0205089,650,1338,-177.683,-38.2826
-567,-314,-177.963,40.3682,0.00997888,0.0375086,-0.0223743,0.0500132,-0.00252567,-1.06116,0.0342151,0.0207157,657,1338,-177.963,-40.3681
-560,-314,-178.238,42.6569,0.0148636,0.0313231,-0.0228099,0.0473425,-0.00115583,-0.958529,0.0319539,0.0421151,664,1338,-178.238,-42.6569
-553,-314,-178.245,44.936,0,0,0,0,0,0,0,-1,671,1338,-178.244,-44.936
-546,-314,-163.63,48.2896,0,0,0,0,0,0,0,-1,678,1338,-163.63,-48.2895
-539,-314,-79.5233,41.916,0,0,0,0,0,0,0,-1,685,1338,-79.5232,-41.916
-532,-314,-52.4742,29.8778,0,0,0,0,0,0,0,-1,692,1338,-52.4742,-29.8779
-525,-314,-13.3017,7.50671,0,0,0,0,0,0,0,-1,699,1338,-13.3017,-7.50669
-518,-314,-8.52753,4.70032,0,0,0,0,0,0,0,-1,706,1338,-8.52755,-4.70034
-511,-314,-11.8597,0.384888,0,0,0,0,0,0,0,-1,713,1338,-11.8597,-0.384927
-504,-314,-11.4322,-0.187378,0,0,0,0,0,0,0,-1,720,1338,-11.4322,0.187381
-497,-314,-11.0047,-0.759644,0,0,0,0,0,0,0,-1,727,1338,-11.0047,0.759689
-490,-314,-18.5143,0.471069,0,0,0,0,0,0,0,-1,734,1338,-18.5143,-0.47103
-483,-314,-17.8528,0.577271,0,0,0,0,0,0,0,-1,741,1338,-17.8528,-0.577327
-476,-314,-17.714,0.665405,0,0,0,0,0,0,0,-1,748,1338,-17.714,-0.665388
-469,-314,-17.7246,0.794678,0,0,0,0,0,0,0,-1,755,1338,-17.7246,-0.794645
-462,-314,0,0,0,0,0,0,0,0,0,-1,762,1338,0,0
-455,-314,0,0,0,0,0,0,0,0,0,-1,769,1338,0,0
-448,-314,0,0,0,0,0,0,0,0,0,-1,776,1338,0,0
-441,-314,0,0,0,0,0,0,0,0,0,-1,783,1338,0,0
-434,-314,0,0,0,0,0,0,0,0,0,-1,790,1338,0,0
-427,-314,0,0,0,0,0,0,0,0,0,-1,797,1338,0,0
-420,-314,0,0,0,0,0,0,0,0,0,-1,804,1338,0,0
-413,-314,0,0,0,0,0,0,0,0,0,-1,811,1338,0,0
-406,-314,0,0,0,0,0,0,0,0,0,-1,818,1338,0,0
-399,-314,0,0,0,0,0,0,0,0,0,-1,825,1338,0,0
-392,-314,0,0,0,0,0,0,0,0,0,-1,832,1338,0,0
-385,-314,0,0,0,0,0,0,0,0,0,-1,839,1338,0,0
-378,-314,0,0,0,0,0,0,0,0,0,-1,846,1338,0,0
-371,-314,0,0,0,0,0,0,0,0,0,-1,853,1338,0,0
-364,-314,0,0,0,0,0,0,0,0,0,-1,860,1338,0,0
-357,-314,0,0,0,0,0,0,0,0,0,-1,867,1338,0,0
-350,-314,0,0,0,0,0,0,0,0,0,-1,874,1338,0,0
-343,-314,0,0,0,0,0,0,0,0,0,-1,881,1338,0,0
-336,-314,0,0,0,0,0,0,0,0,0,-1,888,1338,0,0
-329,-314,0,0,0,0,0,0,0,0,0,-1,895,1338,0,0
-322,-314,0,0,0,0,0,0,0,0,0,-1,902,1338,0,0
-315,-314,0,0,0,0,0,0,0,0,0,-1,909,1338,0,0
-308,-314,0,0,0,0,0,0,0,0,0,-1,916,1338,0,0
-301,-314,0,0,0,0,0,0,0,0,0,-1,923,1338,0,0
-294,-314,0,0,0,0,0,0,0,0,0,-1,930,1338,0,0
-287,-314,0,0,0,0,0,0,0,0,0,-1,937,1338,0,0
-280,-314,0,0,0,0,0,0,0,0,0,-1,944,1338,0,0
-273,-314,0,0,0,0,0,0,0,0,0,-1,951,1338,0,0
-266,-314,0,0,0,0,0,0,0,0,0,-1,958,1338,0,0
-259,-314,0,0,0,0,0,0,0,0,0,-1,965,1338,0,0
-252,-314,0,0,0,0,0,0,0,0,0,-1,972,1338,0,0
-245,-314,0,0,0,0,0,0,0,0,0,-1,979,1338,0,0
-238,-314,0,0,0,0,0,0,0,0,0,-1,986,1338,0,0
-231,-314,0,0,0,0,0,0,0,0,0,-1,993,1338,0,0
-224,-314,0,0,0,0,0,0,0,0,0,-1,1000,1338,0,0
-217,-314,0,0,0,0,0,0,0,0,0,-1,1007,1338,0,0
-210,-314,0,0,0,0,0,0,0,0,0,-1,1014,1338,0,0
-203,-314,0,0,0,0,0,0,0,0,0,-1,1021,1338,0,0
-196,-314,0,0,0,0,0,0,0,0,0,-1,1028,1338,0,0
-189,-314,0,0,0,0,0,0,0,0,0,-1,1035,1338,0,0
-182,-314,0,0,0,0,0,0,0,0,0,-1,1042,1338,0,0
-175,-314,0,0,0,0,0,0,0,0,0,-1,1049,1338,0,0
-168,-314,0,0,0,0,0,0,0,0,0,-1,1056,1338,0,0
-161,-314,0,0,0,0,0,0,0,0,0,-1,1063,1338,0,0
-154,-314,0,0,0,0,0,0,0,0,0,-1,1070,1338,0,0
-147,-314,0,0,0,0,0,0,0,0,0,-1,1077,1338,0,0
-140,-314,0,0,0,0,0,0,0,0,0,-1,1084,1338,0,0
-133,-314,0,0,0,0,0,0,0,0,0,-1,1091,1338,0,0
-126,-314,0,0,0,0,0,0,0,0,0,-1,1098,1338,0,0
-119,-314,0,0,0,0,0,0,0,0,0,-1,1105,1338,0,0
-112,-314,0,0,0,0,0,0,0,0,0,-1,1112,1338,0,0
-105,-314,0,0,0,0,0,0,0,0,0,-1,1119,1338,0,0
-98,-314,0,0,0,0,0,0,0,0,0,-1,1126,1338,0,0
-91,-314,0,0,0,0,0,0,0,0,0,-1,1133,1338,0,0
-84,-314,0,0,0,0,0,0,0,0,0,-1,1140,1338,0,0
-77,-314,0,0,0,0,0,0,0,0,0,-1,1147,1338,0,0
-70,-314,0,0,0,0,0,0,0,0,0,-1,1154,1338,0,0
-63,-314,0,0,0,0,0,0,0,0,0,-1,1161,1338,0,0
-56,-314,0,0,0,0,0,0,0,0,0,-1,1168,1338,0,0
-49,-314,0,0,0,0,0,0,0,0,0,-1,1175,1338,0,0
-42,-314,0,0,0,0,0,0,0,0,0,-1,1182,1338,0,0
-35,-314,0,0,0,0,0,0,0,0,0,-1,1189,1338,0,0
-28,-314,0,0,0,0,0,0,0,0,0,-1,1196,1338,0,0
-21,-314,0,0,0,0,0,0,0,0,0,-1,1203,1338,0,0
-14,-314,0,0,0,0,0,0,0,0,0,-1,1210,1338,0,0
-7,-314,0,0,0,0,0,0,0,0,0,-1,1217,1338,0,0
0,-314,0,0,0,0,0,0,0,0,0,-1,1224,1338,0,0
7,-314,0,0,0,0,0,0,0,0,0,-1,1231,1338,0,0
14,-314,0,0,0,0,0,0,0,0,0,-1,1238,1338,0,0
21,-314,0,0,0,0,0,0,0,0,0,-1,1245,1338,0,0
28,-314,0,0,0,0,0,0,0,0,0,-1,1252,1338,0,0
35,-314,0,0,0,0,0,0,0,0,0,-1,1259,1338,0,0
42,-314,0,0,0,0,0,0,0,0,0,-1,1266,1338,0,0
49,-314,0,0,0,0,0,0,0,0,0,-1,1273,1338,0,0
56,-314,0,0,0,0,0,0,0,0,0,-1,1280,1338,0,0
63,-314,0,0,0,0,0,0,0,0,0,-1,1287,1338,0,0
70,-314,0,0,0,0,0,0,0,0,0,-1,1294,1338,0,0
77,-314,0,0,0,0,0,0,0,0,0,-1,1301,1338,0,0
84,-314,0,0,0,0,0,0,0,0,0,-1,1308,1338,0,0
91,-314,0,0,0,0,0,0,0,0,0,-1,1315,1338,0,0
98,-314,0,0,0,0,0,0,0,0,0,-1,1322,1338,0,0
105,-314,0,0,0,0,0,0,0,0,0,-1,1329,1338,0,0
112,-314,0,0,0,0,0,0,0,0,0,-1,1336,1338,0,0
119,-314,0,0,0,0,0,0,0,0,0,-1,1343,1338,0,0
126,-314,0,0,0,0,0,0,0,0,0,-1,1350,1338,0,0
133,-314,0,0,0,0,0,0,0,0,0,-1,1357,1338,0,0
140,-314,0,0,0,0,0,0,0,0,0,-1,1364,1338,0,0
147,-314,0,0,0,0,0,0,0,0,0,-1,1371,1338,0,0
154,-314,0,0,0,0,0,0,0,0,0,-1,1378,1338,0,0
161,-314,0,0,0,0,0,0,0,0,0,-1,1385,1338,0,0
168,-314,0,0,0,0,0,0,0,0,0,-1,1392,1338,0,0
175,-314,0,0,0,0,0,0,0,0,0,-1,1399,1338,0,0
182,-314,0,0,0,0,0,0,0,0,0,-1,1406,1338,0,0
189,-314,0,0,0,0,0,0,0,0,0,-1,1413,1338,0,0
196,-314,0,0,0,0,0,0,0,0,0,-1,1420,1338,0,0
203,-314,0,0,0,0,0,0,0,0,0,-1,1427,1338,0,0
210,-314,0,0,0,0,0,0,0,0,0,-1,1434,1338,0,0
217,-314,0,0,0,0,0,0,0,0,0,-1,1441,1338,0,0
224,-314,0,0,0,0,0,0,0,0,0,-1,1448,1338,0,0
231,-314,0,0,0,0,0,0,0,0,0,-1,1455,1338,0,0
238,-314,0,0,0,0,0,0,0,0,0,-1,1462,1338,0,0
245,-314,0,0,0,0,0,0,0,0,0,-1,1469,1338,0,0
252,-314,0,0,0,0,0,0,0,0,0,-1,1476,1338,0,0
259,-314,0,0,0,0,0,0,0,0,0,-1,1483,1338,0,0
266,-314,0,0,0,0,0,0,0,0,0,-1,1490,1338,0,0
273,-314,0,0,0,0,0,0,0,0,0,-1,1497,1338,0,0
280,-314,0,0,0,0,0,0,0,0,0,-1,1504,1338,0,0
287,-314,0,0,0,0,0,0,0,0,0,-1,1511,1338,0,0
294,-314,0,0,0,0,0,0,0,0,0,-1,1518,1338,0,0
301,-314,0,0,0,0,0,0,0,0,0,-1,1525,1338,0,0
308,-314,0,0,0,0,0,0,0,0,0,-1,1532,1338,0,0
315,-314,0,0,0,0,0,0,0,0,0,-1,1539,1338,0,0
322,-314,0,0,0,0,0,0,0,0,0,-1,1546,1338,0,0
329,-314,0,0,0,0,0,0,0,0,0,-1,1553,1338,0,0
336,-314,0,0,0,0,0,0,0,0,0,-1,1560,1338,0,0
343,-314,0,0,0,0,0,0,0,0,0,-1,1567,1338,0,0
350,-314,0,0,0,0,0,0,0,0,0,-1,1574,1338,0,0
357,-314,0,0,0,0,0,0,0,0,0,-1,1581,1338,0,0
364,-314,0,0,0,0,0,0,0,0,0,-1,1588,1338,0,0
371,-314,0,0,0,0,0,0,0,0,0,-1,1595,1338,0,0
378,-314,0,0,0,0,0,0,0,0,0,-1,1602,1338,0,0
385,-314,0,0,0,0,0,0,0,0,0,-1,1609,1338,0,0
392,-314,0,0,0,0,0,0,0,0,0,-1,1616,1338,0,0
399,-314,0,0,0,0,0,0,0,0,0,-1,1623,1338,0,0
406,-314,0,0,0,0,0,0,0,0,0,-1,1630,1338,0,0
413,-314,0,0,0,0,0,0,0,0,0,-1,1637,1338,0,0
420,-314,0,0,0,0,0,0,0,0,0,-1,1644,1338,0,0
427,-314,0,0,0,0,0,0,0,0,0,-1,1651,1338,0,0
434,-314,0,0,0,0,0,0,0,0,0,-1,1658,1338,0,0
441,-314,0,0,0,0,0,0,0,0,0,-1,1665,1338,0,0
448,-314,0,0,0,0,0,0,0,0,0,-1,1672,1338,0,0
455,-314,0,0,0,0,0,0,0,0,0,-1,1679,1338,0,0
462,-314,0,0,0,0,0,0,0,0,0,-1,1686,1338,0,0
469,-314,0,0,0,0,0,0,0,0,0,-1,1693,1338,0,0
476,-314,0,0,0,0,0,0,0,0,0,-1,1700,1338,0,0
483,-314,0,0,0,0,0,0,0,0,0,-1,1707,1338,0,0
490,-314,0,0,0,0,0,0,0,0,0,-1,1714,1338,0,0
497,-314,0,0,0,0,0,0,0,0,0,-1,1721,1338,0,0
504,-314,0,0,0,0,0,0,0,0,0,-1,1728,1338,0,0
511,-314,0,0,0,0,0,0,0,0,0,-1,1735,1338,0,0
518,-314,0,0,0,0,0,0,0,0,0,-1,1742,1338,0,0
525,-314,0,0,0,0,0,0,0,0,0,-1,1749,1338,0,0
532,-314,0,0,0,0,0,0,0,0,0,-1,1756,1338,0,0
539,-314,0,0,0,0,0,0,0,0,0,-1,1763,1338,0,0
546,-314,0,0,0,0,0,0,0,0,0,-1,1770,1338,0,0
553,-314,0,0,0,0,0,0,0,0,0,-1,1777,1338,0,0
560,-314,0,0,0,0,0,0,0,0,0,-1,1784,1338,0,0
567,-314,0,0,0,0,0,0,0,0,0,-1,1791,1338,0,0
574,-314,0,0,0,0,0,0,0,0,0,-1,1798,1338,0,0
581,-314,66.1637,1.86658,0,0,0,0,0,0,0,-1,1805,1338,66.1637,-1.86663
588,-314,66.4303,1.43481,0,0,0,0,0,0,0,-1,1812,1338,66.4303,-1.43487
595,-314,66.7465,0.982788,0,0,0,0,0,0,0,-1,1819,1338,66.7464,-0.982795
602,-314,66.322,1.38416,0,0,0,0,0,0,0,-1,1826,1338,66.322,-1.3842
609,-314,60.2225,1.27014,0,0,0,0,0,0,0,-1,1833,1338,60.2225,-1.27017
616,-314,48.1149,3.005,0,0,0,0,0,0,0,-1,1840,1338,48.1149,-3.00505
623,-314,38.7728,2.71741,0,0,0,0,0,0,0,-1,1847,1338,38.7728,-2.71737
630,-314,29.4308,6.23206,0,0,0,0,0,0,0,-1,1854,1338,29.4308,-6.23202
637,-314,22.1349,5.16418,0,0,0,0,0,0,0,-1,1861,1338,22.1349,-5.16414
644,-314,18.7517,6.2605,0,0,0,0,0,0,0,-1,1868,1338,18.7517,-6.26053
651,-314,23.1317,8.005,0,0,0,0,0,0,0,-1,1875,1338,23.1317,-8.00506
658,-314,49.9191,18.822,0,0,0,0,0,0,0,-1,1882,1338,49.9191,-18.8221
665,-314,102.126,47.7522,0,0,0,0,0,0,0,-1,1889,1338,102.126,-47.7522
672,-314,186.569,52.0811,0,0,0,0,0,0,0,-1,1896,1338,186.569,-52.081
679,-314,185.944,49.7255,-0.0149977,0.00115111,0.00522405,0.00269371,-0.0165403,1.28367,0.0120257,0.0406345,1903,1338,185.944,-49.7255
686,-314,185.398,47.3624,-0.0127972,0.0100516,0.00924525,0.0133238,-0.0160695,1.23062,0.0169949,0.0461996,1910,1338,185.398,-47.3625
693,-314,185.095,45.1152,-0.0111393,0.018042,0.0133118,0.0232021,-0.0162994,1.201,0.022922,0.0269558,1917,1338,185.095,-45.1153
700,-314,184.544,42.8556,-0.0101326,0.0253097,0.0174492,0.0324585,-0.0172814,1.18196,0.0291596,0.0264386,1924,1338,184.544,-42.8556
707,-314,183.985,40.8145,-0.00970342,0.0318975,0.021582,0.0410711,-0.018877,1.16888,0.0353928,0.0236532,1931,1338,183.985,-40.8145
714,-314,183.716,38.7971,-0.00985068,0.0379044,0.0256987,0.0491062,-0.0210525,1.15974,0.0415715,0.0182653,1938,1338,183.716,-38.7971
721,-314,183.286,36.71,-0.0105942,0.0434352,0.0298018,0.0566441,-0.0238031,1.15359,0.0477188,0.0354326,1945,1338,183.286,-36.71
728,-314,182.865,34.5895,0,0,0,0,0,0,0,-1,1952,1338,182.865,-34.5895
735,-314,26.3665,6.21582,0,0,0,0,0,0,0,-1,1959,1338,26.3664,-6.21581
742,-314,26.2235,6.0166,0,0,0,0,0,0,0,-1,1966,1338,26.2235,-6.01662
749,-314,26.2223,5.47046,0,0,0,0,0,0,0,-1,1973,1338,26.2223,-5.47041
756,-314,24.2521,5.93408,0,0,0,0,0,0,0,-1,1980,1338,24.252,-5.93413
763,-314,19.2207,4.07239,0,0,0,0,0,0,0,-1,1987,1338,19.2206,-4.07239
770,-314,0,0,0,0,0,0,0,0,0,-1,1994,1338,0,0
777,-314,0,0,0,0,0,0,0,0,0,-1,2001,1338,0,0
784,-314,0,0,0,0,0,0,0,0,0,-1,2008,1338,0,0
791,-314,0,0,0,0,0,0,0,0,0,-1,2015,1338,0,0
798,-314,0,0,0,0,0,0,0,0,0,-1,2022,1338,0,0
805,-314,0,0,0,0,0,0,0,0,0,-1,2029,1338,0,0
812,-314,0,0,0,0,0,0,0,0,0,-1,2036,1338,0,0
-700,-321,0,0,0,0,0,0,0,0,0,-1,524,1345,0,0
-693,-321,0,0,0,0,0,0,0,0,0,-1,531,1345,0,0
-686,-321,0,0,0,0,0,0,0,0,0,-1,538,1345,0,0
-679,-321,0,0,0,0,0,0,0,0,0,-1,545,1345,0,0
-672,-321,0,0,0,0,0,0,0,0,0,-1,552,1345,0,0
-665,-321,0,0,0,0,0,0,0,0,0,-1,559,1345,0,0
-658,-321,0,0,0,0,0,0,0,0,0,-1,566,1345,0,0
-651,-321,0,0,0,0,0,0,0,0,0,-1,573,1345,0,0
-644,-321,-58.7329,10.2313,0,0,0,0,0,0,0,-1,580,1345,-58.7329,-10.2313
-637,-321,-59.9981,9.06421,0,0,0,0,0,0,0,-1,587,1345,-59.9981,-9.06417
-630,-321,-61.377,8.07166,0,0,0,0,0,0,0,-1,594,1345,-61.3769,-8.07168
-623,-321,-13.2242,3.14148,0,0,0,0,0,0,0,-1,601,1345,-13.2243,-3.14146
-616,-321,-11.6754,3.13794,0,0,0,0,0,0,0,-1,608,1345,-11.6754,-3.13789
-609,-321,-7.95209,1.14758,0,0,0,0,0,0,0,-1,615,1345,-7.95208,-1.14757
-602,-321,-8.85791,2.50049,0,0,0,0,0,0,0,-1,622,1345,-8.85791,-2.50048
-595,-321,-19.8463,5.36584,0,0,0,0,0,0,0,-1,629,1345,-19.8462,-5.36589
-588,-321,-174.551,33.9946,0,0,0,0,0,0,0,-1,636,1345,-174.551,-33.9947
-581,-321,-174.804,36.2942,0.000213587,0.0523955,-0.022096,0.0604947,-0.00788569,-1.21946,0.043199,0.0213569,643,1345,-174.804,-36.2941
-574,-321,-175.181,38.4801,0.00455371,0.0465765,-0.0224559,0.0563181,-0.00518784,-1.16149,0.0393887,0.0244725,650,1345,-175.181,-38.4802
-567,-321,-175.484,40.6775,0.0084867,0.0405924,-0.0230007,0.0525881,-0.00350908,-1.09007,0.0362851,0.0271797,657,1345,-175.484,-40.6775
-560,-321,-175.481,42.9218,0.0120047,0.0343937,-0.0237449,0.0494507,-0.00305224,-1.00567,0.0340302,0.0491526,664,1345,-175.481,-42.9218
-553,-321,-175.514,45.2087,0,0,0,0,0,0,0,-1,671,1345,-175.514,-45.2088
-546,-321,-73.3562,38.6277,0,0,0,0,0,0,0,-1,678,1345,-73.3562,-38.6277
-539,-321,-62.9611,33.6246,0,0,0,0,0,0,0,-1,685,1345,-62.9611,-33.6247
-532,-321,-58.1584,32.4453,0,0,0,0,0,0,0,-1,692,1345,-58.1584,-32.4453
-525,-321,-60.7136,36.2605,0,0,0,0,0,0,0,-1,699,1345,-60.7136,-36.2605
-518,-321,-10.3564,6.75696,0,0,0,0,0,0,0,-1,706,1345,-10.3564,-6.75694
-511,-321,-9.3302,5.29297,0,0,0,0,0,0,0,-1,713,1345,-9.33023,-5.29294
-504,-321,-10.4713,0.0145264,0,0,0,0,0,0,0,-1,720,1345,-10.4713,-0.0145296
-497,-321,-9.96771,0.313599,0,0,0,0,0,0,0,-1,727,1345,-9.96769,-0.313618
-490,-321,-10.7631,0.973511,0,0,0,0,0,0,0,-1,734,1345,-10.7631,-0.97353
-483,-321,-17.5908,0.2323,0,0,0,0,0,0,0,-1,741,1345,-17.5908,-0.232355
-476,-321,-17.2915,0.297363,0,0,0,0,0,0,0,-1,748,1345,-17.2915,-0.297342
-469,-321,-17.2441,0.478027,0,0,0,0,0,0,0,-1,755,1345,-17.2441,-0.477994
-462,-321,-17.1672,0.526489,0,0,0,0,0,0,0,-1,762,1345,-17.1672,-0.526533
-455,-321,0,0,0,0,0,0,0,0,0,-1,769,1345,0,0
-448,-321,0,0,0,0,0,0,0,0,0,-1,776,1345,0,0
-441,-321,0,0,0,0,0,0,0,0,0,-1,783,1345,0,0
-434,-321,0,0,0,0,0,0,0,0,0,-1,790,1345,0,0
-427,-321,0,0,0,0,0,0,0,0,0,-1,797,1345,0,0
-420,-321,0,0,0,0,0,0,0,0,0,-1,804,1345,0,0
-413,-321,0,0,0,0,0,0,0,0,0,-1,811,1345,0,0
-406,-321,0,0,0,0,0,0,0,0,0,-1,818,1345,0,0
-399,-321,0,0,0,0,0,0,0,0,0,-1,825,1345,0,0
-392,-321,0,0,0,0,0,0,0,0,0,-1,832,1345,0,0
-385,-321,0,0,0,0,0,0,0,0,0,-1,839,1345,0,0
-378,-321,0,0,0,0,0,0,0,0,0,-1,846,1345,0,0
-371,-321,0,0,0,0,0,0,0,0,0,-1,853,1345,0,0
-364,-321,0,0,0,0,0,0,0,0,0,-1,860,1345,0,0
-357,-321,0,0,0,0,0,0,0,0,0,-1,867,1345,0,0
-350,-321,0,0,0,0,0,0,0,0,0,-1,874,1345,0,0
-343,-321,0,0,0,0,0,0,0,0,0,-1,881,1345,0,0
-336,-321,0,0,0,0,0,0,0,0,0,-1,888,1345,0,0
-329,-321,0,0,0,0,0,0,0,0,0,-1,895,1345,0,0
-322,-321,0,0,0,0,0,0,0,0,0,-1,902,1345,0,0
-315,-321,0,0,0,0,0,0,0,0,0,-1,909,1345,0,0
-308,-321,0,0,0,0,0,0,0,0,0,-1,916,1345,0,0
-301,-321,0,0,0,0,0,0,0,0,0,-1,923,1345,0,0
-294,-321,0,0,0,0,0,0,0,0,0,-1,930,1345,0,0
-287,-321,0,0,0,0,0,0,0,0,0,-1,937,1345,0,0
-280,-321,0,0,0,0,0,0,0,0,0,-1,944,1345,0,0
-273,-321,0,0,0,0,0,0,0,0,0,-1,951,1345,0,0
-266,-321,0,0,0,0,0,0,0,0,0,-1,958,1345,0,0
-259,-321,0,0,0,0,0,0,0,0,0,-1,965,1345,0,0
-252,-321,0,0,0,0,0,0,0,0,0,-1,972,1345,0,0
-245,-321,0,0,0,0,0,0,0,0,0,-1,979,1345,0,0
-238,-321,0,0,0,0,0,0,0,0,0,-1,986,1345,0,0
-231,-321,0,0,0,0,0,0,0,0,0,-1,993,1345,0,0
-224,-321,0,0,0,0,0,0,0,0,0,-1,1000,1345,0,0
-217,-321,0,0,0,0,0,0,0,0,0,-1,1007,1345,0,0
-210,-321,0,0,0,0,0,0,0,0,0,-1,1014,1345,0,0
-203,-321,0,0,0,0,0,0,0,0,0,-1,1021,1345,0,0
-196,-321,0,0,0,0,0,0,0,0,0,-1,1028,1345,0,0
-189,-321,0,0,0,0,0,0,0,0,0,-1,1035,1345,0,0
-182,-321,0,0,0,0,0,0,0,0,0,-1,1042,1345,0,0
-175,-321,0,0,0,0,0,0,0,0,0,-1,1049,1345,0,0
-168,-321,0,0,0,0,0,0,0,0,0,-1,1056,1345,0,0
-161,-321,0,0,0,0,0,0,0,0,0,-1,1063,1345,0,0
-154,-321,0,0,0,0,0,0,0,0,0,-1,1070,1345,0,0
-147,-321,0,0,0,0,0,0,0,0,0,-1,1077,1345,0,0
-140,-321,0,0,0,0,0,0,0,0,0,-1,1084,1345,0,0
-133,-321,0,0,0,0,0,0,0,0,0,-1,1091,1345,0,0
-126,-321,0,0,0,0,0,0,0,0,0,-1,1098,1345,0,0
-119,-321,0,0,0,0,0,0,0,0,0,-1,1105,1345,0,0
-112,-321,0,0,0,0,0,0,0,0,0,-1,1112,1345,0,0
-105,-321,0,0,0,0,0,0,0,0,0,-1,1119,1345,0,0
-98,-321,0,0,0,0,0,0,0,0,0,-1,1126,1345,0,0
-91,-321,0,0,0,0,0,0,0,0,0,-1,1133,1345,0,0
-84,-321,0,0,0,0,0,0,0,0,0,-1,1140,1345,0,0
-77,-321,0,0,0,0,0,0,0,0,0,-1,1147,1345,0,0
-70,-321,0,0,0,0,0,0,0,0,0,-1,1154,1345,0,0
-63,-321,0,0,0,0,0,0,0,0,0,-1,1161,1345,0,0
-56,-321,0,0,0,0,0,0,0,0,0,-1,1168,1345,0,0
-49,-321,0,0,0,0,0,0,0,0,0,-1,1175,1345,0,0
-42,-321,0,0,0,0,0,0,0,0,0,-1,1182,1345,0,0
-35,-321,0,0,0,0,0,0,0,0,0,-1,1189,1345,0,0
-28,-321,0,0,0,0,0,0,0,0,0,-1,1196,1345,0,0
-21,-321,0,0,0,0,0,0,0,0,0,-1,1203,1345,0,0
-14,-321,0,0,0,0,0,0,0,0,0,-1,1210,1345,0,0
-7,-321,0,0,0,0,0,0,0,0,0,-1,1217,1345,0,0
0,-321,0,0,0,0,0,0,0,0,0,-1,1224,1345,0,0
7,-321,0,0,0,0,0,0,0,0,0,-1,1231,1345,0,0
14,-321,0,0,0,0,0,0,0,0,0,-1,1238,1345,0,0
21,-321,0,0,0,0,0,0,0,0,0,-1,1245,1345,0,0
28,-321,0,0,0,0,0,0,0,0,0,-1,1252,1345,0,0
35,-321,0,0,0,0,0,0,0,0,0,-1,1259,1345,0,0
42,-321,0,0,0,0,0,0,0,0,0,-1,1266,1345,0,0
49,-321,0,0,0,0,0,0,0,0,0,-1,1273,1345,0,0
56,-321,0,0,0,0,0,0,0,0,0,-1,1280,1345,0,0
63,-321,0,0,0,0,0,0,0,0,0,-1,1287,1345,0,0
70,-321,0,0,0,0,0,0,0,0,0,-1,1294,1345,0,0
77,-321,0,0,0,0,0,0,0,0,0,-1,1301,1345,0,0
84,-321,0,0,0,0,0,0,0,0,0,-1,1308,1345,0,0
91,-321,0,0,0,0,0,0,0,0,0,-1,1315,1345,0,0
98,-321,0,0,0,0,0,0,0,0,0,-1,1322,1345,0,0
105,-321,0,0,0,0,0,0,0,0,0,-1,1329,1345,0,0
112,-321,0,0,0,0,0,0,0,0,0,-1,1336,1345,0,0
119,-321,0,0,0,0,0,0,0,0,0,-1,1343,1345,0,0
126,-321,0,0,0,0,0,0,0,0,0,-1,1350,1345,0,0
133,-321,0,0,0,0,0,0,0,0,0,-1,1357,1345,0,0
140,-321,0,0,0,0,0,0,0,0,0,-1,1364,1345,0,0
147,-321,0,0,0,0,0,0,0,0,0,-1,1371,1345,0,0
154,-321,0,0,0,0,0,0,0,0,0,-1,1378,1345,0,0
161,-321,0,0,0,0,0,0,0,0,0,-1,1385,1345,0,0
168,-321,0,0,0,0,0,0,0,0,0,-1,1392,1345,0,0
175,-321,0,0,0,0,0,0,0,0,0,-1,1399,1345,0,0
182,-321,0,0,0,0,0,0,0,0,0,-1,1406,1345,0,0
189,-321,0,0,0,0,0,0,0,0,0,-1,1413,1345,0,0
196,-321,0,0,0,0,0,0,0,0,0,-1,1420,1345,0,0
203,-321,0,0,0,0,0,0,0,0,0,-1,1427,1345,0,0
210,-321,0,0,0,0,0,0,0,0,0,-1,1434,1345,0,0
217,-321,0,0,0,0,0,0,0,0,0,-1,1441,1345,0,0
224,-321,0,0,0,0,0,0,0,0,0,-1,1448,1345,0,0
231,-321,0,0,0,0,0,0,0,0,0,-1,1455,1345,0,0
238,-321,0,0,0,0,0,0,0,0,0,-1,1462,1345,0,0
245,-321,0,0,0,0,0,0,0,0,0,-1,1469,1345,0,0
252,-321,0,0,0,0,0,0,0,0,0,-1,1476,1345,0,0
259,-321,0,0,0,0,0,0,0,0,0,-1,1483,1345,0,0
266,-321,0,0,0,0,0,0,0,0,0,-1,1490,1345,0,0
273,-321,0,0,0,0,0,0,0,0,0,-1,1497,1345,0,0
280,-321,0,0,0,0,0,0,0,0,0,-1,1504,1345,0,0
287,-321,0,0,0,0,0,0,0,0,0,-1,1511,1345,0,0
294,-321,0,0,0,0,0,0,0,0,0,-1,1518,1345,0,0
301,-321,0,0,0,0,0,0,0,0,0,-1,1525,1345,0,0
308,-321,0,0,0,0,0,0,0,0,0,-1,1532,1345,0,0
315,-321,0,0,0,0,0,0,0,0,0,-1,1539,1345,0,0
322,-321,0,0,0,0,0,0,0,0,0,-1,1546,1345,0,0
329,-321,0,0,0,0,0,0,0,0,0,-1,1553,1345,0,0
336,-321,0,0,0,0,0,0,0,0,0,-1,1560,1345,0,0
343,-321,0,0,0,0,0,0,0,0,0,-1,1567,1345,0,0
350,-321,0,0,0,0,0,0,0,0,0,-1,1574,1345,0,0
357,-321,0,0,0,0,0,0,0,0,0,-1,1581,1345,0,0
364,-321,0,0,0,0,0,0,0,0,0,-1,1588,1345,0,0
371,-321,0,0,0,0,0,0,0,0,0,-1,1595,1345,0,0
378,-321,0,0,0,0,0,0,0,0,0,-1,1602,1345,0,0
385,-321,0,0,0,0,0,0,0,0,0,-1,1609,1345,0,0
392,-321,0,0,0,0,0,0,0,0,0,-1,1616,1345,0,0
399,-321,0,0,0,0,0,0,0,0,0,-1,1623,1345,0,0
406,-321,0,0,0,0,0,0,0,0,0,-1,1630,1345,0,0
413,-321,0,0,0,0,0,0,0,0,0,-1,1637,1345,0,0
420,-321,0,0,0,0,0,0,0,0,0,-1,1644,1345,0,0
427,-321,0,0,0,0,0,0,0,0,0,-1,1651,1345,0,0
434,-321,0,0,0,0,0,0,0,0,0,-1,1658,1345,0,0
441,-321,0,0,0,0,0,0,0,0,0,-1,1665,1345,0,0
448,-321,0,0,0,0,0,0,0,0,0,-1,1672,1345,0,0
455,-321,0,0,0,0,0,0,0,0,0,-1,1679,1345,0,0
462,-321,0,0,0,0,0,0,0,0,0,-1,1686,1345,0,0
469,-321,0,0,0,0,0,0,0,0,0,-1,1693,1345,0,0
476,-321,0,0,0,0,0,0,0,0,0,-1,1700,1345,0,0
483,-321,0,0,0,0,0,0,0,0,0,-1,1707,1345,0,0
490,-321,0,0,0,0,0,0,0,0,0,-1,1714,1345,0,0
497,-321,0,0,0,0,0,0,0,0,0,-1,1721,1345,0,0
504,-321,0,0,0,0,0,0,0,0,0,-1,1728,1345,0,0
511,-321,0,0,0,0,0,0,0,0,0,-1,1735,1345,0,0
518,-321,0,0,0,0,0,0,0,0,0,-1,1742,1345,0,0
525,-321,0,0,0,0,0,0,0,0,0,-1,1749,1345,0,0
532,-321,0,0,0,0,0,0,0,0,0,-1,1756,1345,0,0
539,-321,0,0,0,0,0,0,0,0,0,-1,1763,1345,0,0
546,-321,0,0,0,0,0,0,0,0,0,-1,1770,1345,0,0
553,-321,0,0,0,0,0,0,0,0,0,-1,1777,1345,0,0
560,-321,0,0,0,0,0,0,0,0,0,-1,1784,1345,0,0
567,-321,0,0,0,0,0,0,0,0,0,-1,1791,1345,0,0
574,-321,0,0,0,0,0,0,0,0,0,-1,1798,1345,0,0
581,-321,66.1073,1.6543,0,0,0,0,0,0,0,-1,1805,1345,66.1073,-1.65427
588,-321,66.6576,0.7948,0,0,0,0,0,0,0,-1,1812,1345,66.6575,-0.794774
595,-321,67.2585,-0.216431,0,0,0,0,0,0,0,-1,1819,1345,67.2586,0.216484
602,-321,60.3523,1.24133,0,0,0,0,0,0,0,-1,1826,1345,60.3523,-1.2413
609,-321,48.311,3.39575,0,0,0,0,0,0,0,-1,1833,1345,48.311,-3.39571
616,-321,37.8107,2.58704,0,0,0,0,0,0,0,-1,1840,1345,37.8106,-2.58705
623,-321,37.6854,3.68933,0,0,0,0,0,0,0,-1,1847,1345,37.6854,-3.68931
630,-321,23.6674,4.34106,0,0,0,0,0,0,0,-1,1854,1345,23.6674,-4.34112
637,-321,21.7925,6.79224,0,0,0,0,0,0,0,-1,1861,1345,21.7925,-6.7922
644,-321,16.8844,6.71973,0,0,0,0,0,0,0,-1,1868,1345,16.8844,-6.71971
651,-321,27.4924,10.0319,0,0,0,0,0,0,0,-1,1875,1345,27.4924,-10.0319
658,-321,66.9578,30.2902,0,0,0,0,0,0,0,-1,1882,1345,66.9577,-30.2901
665,-321,90.8429,42.8761,0,0,0,0,0,0,0,-1,1889,1345,90.8429,-42.8761
672,-321,184.279,52.6077,0,0,0,0,0,0,0,-1,1896,1345,184.279,-52.6077
679,-321,183.579,50.3196,-0.0137683,0.00484581,0.00785654,0.00771852,-0.016641,1.22025,0.014375,0.0444327,1903,1345,183.579,-50.3196
686,-321,182.77,48.0331,-0.0117513,0.0131406,0.0118436,0.0178752,-0.0164859,1.19049,0.0198438,0.0385213,1910,1345,182.769,-48.0331
693,-321,182.442,45.4957,-0.0101113,0.0208497,0.0158186,0.0275023,-0.0167639,1.1727,0.0258066,0.0224678,1917,1345,182.442,-45.4957
700,-321,181.965,43.118,-0.00892579,0.0280066,0.0197923,0.0366095,-0.0175287,1.16077,0.0318972,0.0242131,1924,1345,181.965,-43.1181
707,-321,181.56,40.9536,-0.00819954,0.0346089,0.0237392,0.0451686,-0.0187592,1.15226,0.0379441,0.0235456,1931,1345,181.56,-40.9536
714,-321,181.228,38.8901,-0.00795106,0.040737,0.0276392,0.0532245,-0.0204385,1.14644,0.0439111,0.0220847,1938,1345,181.228,-38.8902
721,-321,180.709,36.8712,0,0,0,0,0,0,0,-1,1945,1345,180.709,-36.8712
728,-321,69.6017,20.2322,0,0,0,0,0,0,0,-1,1952,1345,69.6017,-20.2322
735,-321,22.0081,5.65479,0,0,0,0,0,0,0,-1,1959,1345,22.008,-5.65481
742,-321,24.5398,5.05725,0,0,0,0,0,0,0,-1,1966,1345,24.5398,-5.05729
749,-321,24.0675,5.4458,0,0,0,0,0,0,0,-1,1973,1345,24.0675,-5.44581
756,-321,19.6251,4.98315,0,0,0,0,0,0,0,-1,1980,1345,19.6251,-4.98311
763,-321,19.6747,4.61438,0,0,0,0,0,0,0,-1,1987,1345,19.6747,-4.61436
770,-321,0,0,0,0,0,0,0,0,0,-1,1994,1345,0,0
777,-321,0,0,0,0,0,0,0,0,0,-1,2001,1345,0,0
784,-321,0,0,0,0,0,0,0,0,0,-1,2008,1345,0,0
791,-321,0,0,0,0,0,0,0,0,0,-1,2015,1345,0,0
798,-321,0,0,0,0,0,0,0,0,0,-1,2022,1345,0,0
805,-321,0,0,0,0,0,0,0,0,0,-1,2029,1345,0,0
812,-321,0,0,0,0,0,0,0,0,0,-1,2036,1345,0,0
-700,-328,0,0,0,0,0,0,0,0,0,-1,524,1352,0,0
-693,-328,0,0,0,0,0,0,0,0,0,-1,531,1352,0,0
-686,-328,0,0,0,0,0,0,0,0,0,-1,538,1352,0,0
-679,-328,0,0,0,0,0,0,0,0,0,-1,545,1352,0,0
-672,-328,0,0,0,0,0,0,0,0,0,-1,552,1352,0,0
-665,-328,0,0,0,0,0,0,0,0,0,-1,559,1352,0,0
-658,-328,0,0,0,0,0,0,0,0,0,-1,566,1352,0,0
-651,-328,0,0,0,0,0,0,0,0,0,-1,573,1352,0,0
-644,-328,0,0,0,0,0,0,0,0,0,-1,580,1352,0,0
-637,-328,-61.3883,10.1125,0,0,0,0,0,0,0,-1,587,1352,-61.3883,-10.1126
-630,-328,-62.8012,9.14563,0,0,0,0,0,0,0,-1,594,1352,-62.8012,-9.14564
-623,-328,-10.7739,4.55042,0,0,0,0,0,0,0,-1,601,1352,-10.7739,-4.55041
-616,-328,-8.22198,-0.25708,0,0,0,0,0,0,0,-1,608,1352,-8.22201,0.257067
-609,-328,-7.87439,0.192871,0,0,0,0,0,0,0,-1,615,1352,-7.87441,-0.192822
-602,-328,-7.63062,1.31665,0,0,0,0,0,0,0,-1,622,1352,-7.63064,-1.3166
-595,-328,-9.42639,2.93494,0,0,0,0,0,0,0,-1,629,1352,-9.42638,-2.93499
-588,-328,-172.011,33.6893,0,0,0,0,0,0,0,-1,636,1352,-172.011,-33.6893
-581,-328,-172.233,36.3069,0.00142836,0.0560008,-0.0218927,0.0636979,-0.0062687,-1.23271,0.0447016,0.0450538,643,1352,-172.233,-36.3069
-574,-328,-172.559,38.5978,0.00486293,0.050061,-0.0225711,0.0594021,-0.00447816,-1.17841,0.0411753,0.0233849,650,1352,-172.559,-38.5978
-567,-328,-172.938,40.7926,0.00787247,0.0439271,-0.0233914,0.0554319,-0.00363226,-1.1137,0.0382229,0.0260973,657,1352,-172.938,-40.7926
-560,-328,-173.243,43.1464,0.0104968,0.0375762,-0.0243399,0.0518888,-0.00381581,-1.03922,0.0359321,0.0386784,664,1352,-173.243,-43.1463
-553,-328,-173.55,45.4863,0,0,0,0,0,0,0,-1,671,1352,-173.55,-45.4864
-546,-328,-74.9383,40.7139,0,0,0,0,0,0,0,-1,678,1352,-74.9383,-40.7139
-539,-328,-67.9141,38.4679,0,0,0,0,0,0,0,-1,685,1352,-67.9141,-38.468
-532,-328,-63.8609,37.8448,0,0,0,0,0,0,0,-1,692,1352,-63.8609,-37.8448
-525,-328,-58.8255,36.8346,0,0,0,0,0,0,0,-1,699,1352,-58.8255,-36.8346
-518,-328,-66.7287,42.3196,0,0,0,0,0,0,0,-1,706,1352,-66.7287,-42.3196
-511,-328,-9.39868,7.16113,0,0,0,0,0,0,0,-1,713,1352,-9.39869,-7.16113
-504,-328,-8.60626,-0.905762,0,0,0,0,0,0,0,-1,720,1352,-8.60623,0.905787
-497,-328,-9.29102,-0.0517578,0,0,0,0,0,0,0,-1,727,1352,-9.29104,0.0518175
-490,-328,-10.0663,0.882813,0,0,0,0,0,0,0,-1,734,1352,-10.0663,-0.882795
-483,-328,-10.8181,1.72375,0,0,0,0,0,0,0,-1,741,1352,-10.8181,-1.72374
-476,-328,-16.8951,-0.150757,0,0,0,0,0,0,0,-1,748,1352,-16.8951,0.150795
-469,-328,-16.8412,0.00158691,0,0,0,0,0,0,0,-1,755,1352,-16.8412,-0.00161515
-462,-328,-16.3546,-0.203491,0,0,0,0,0,0,0,-1,762,1352,-16.3545,0.203532
-455,-328,0,0,0,0,0,0,0,0,0,-1,769,1352,0,0
-448,-328,0,0,0,0,0,0,0,0,0,-1,776,1352,0,0
-441,-328,0,0,0,0,0,0,0,0,0,-1,783,1352,0,0
-434,-328,0,0,0,0,0,0,0,0,0,-1,790,1352,0,0
-427,-328,0,0,0,0,0,0,0,0,0,-1,797,1352,0,0
-420,-328,0,0,0,0,0,0,0,0,0,-1,804,1352,0,0
-413,-328,0,0,0,0,0,0,0,0,0,-1,811,1352,0,0
-406,-328,0,0,0,0,0,0,0,0,0,-1,818,1352,0,0
-399,-328,0,0,0,0,0,0,0,0,0,-1,825,1352,0,0
-392,-328,0,0,0,0,0,0,0,0,0,-1,832,1352,0,0
-385,-328,0,0,0,0,0,0,0,0,0,-1,839,1352,0,0
-378,-328,0,0,0,0,0,0,0,0,0,-1,846,1352,0,0
-371,-328,0,0,0,0,0,0,0,0,0,-1,853,1352,0,0
-364,-328,0,0,0,0,0,0,0,0,0,-1,860,1352,0,0
-357,-328,0,0,0,0,0,0,0,0,0,-1,867,1352,0,0
-350,-328,0,0,0,0,0,0,0,0,0,-1,874,1352,0,0
-343,-328,0,0,0,0,0,0,0,0,0,-1,881,1352,0,0
-336,-328,0,0,0,0,0,0,0,0,0,-1,888,1352,0,0
-329,-328,0,0,0,0,0,0,0,0,0,-1,895,1352,0,0
-322,-328,0,0,0,0,0,0,0,0,0,-1,902,1352,0,0
-315,-328,0,0,0,0,0,0,0,0,0,-1,909,1352,0,0
-308,-328,0,0,0,0,0,0,0,0,0,-1,916,1352,0,0
-301,-328,0,0,0,0,0,0,0,0,0,-1,923,1352,0,0
-294,-328,0,0,0,0,0,0,0,0,0,-1,930,1352,0,0
-287,-328,0,0,0,0,0,0,0,0,0,-1,937,1352,0,0
-280,-328,0,0,0,0,0,0,0,0,0,-1,944,1352,0,0
-273,-328,0,0,0,0,0,0,0,0,0,-1,951,1352,0,0
-266,-328,0,0,0,0,0,0,0,0,0,-1,958,1352,0,0
-259,-328,0,0,0,0,0,0,0,0,0,-1,965,1352,0,0
-252,-328,0,0,0,0,0,0,0,0,0,-1,972,1352,0,0
-245,-328,0,0,0,0,0,0,0,0,0,-1,979,1352,0,0
-238,-328,0,0,0,0,0,0,0,0,0,-1,986,1352,0,0
-231,-328,0,0,0,0,0,0,0,0,0,-1,993,1352,0,0
-224,-328,0,0,0,0,0,0,0,0,0,-1,1000,1352,0,0
-217,-328,0,0,0,0,0,0,0,0,0,-1,1007,1352,0,0
-210,-328,0,0,0,0,0,0,0,0,0,-1,1014,1352,0,0
-203,-328,0,0,0,0,0,0,0,0,0,-1,1021,1352,0,0
-196,-328,0,0,0,0,0,0,0,0,0,-1,1028,1352,0,0
-189,-328,0,0,0,0,0,0,0,0,0,-1,1035,1352,0,0
-182,-328,0,0,0,0,0,0,0,0,0,-1,1042,1352,0,0
-175,-328,0,0,0,0,0,0,0,0,0,-1,1049,1352,0,0
-168,-328,0,0,0,0,0,0,0,0,0,-1,1056,1352,0,0
-161,-328,0,0,0,0,0,0,0,0,0,-1,1063,1352,0,0
-154,-328,0,0,0,0,0,0,0,0,0,-1,1070,1352,0,0
-147,-328,0,0,0,0,0,0,0,0,0,-1,1077,1352,0,0
-140,-328,0,0,0,0,0,0,0,0,0,-1,1084,1352,0,0
-133,-328,0,0,0,0,0,0,0,0,0,-1,1091,1352,0,0
-126,-328,0,0,0,0,0,0,0,0,0,-1,1098,1352,0,0
-119,-328,0,0,0,0,0,0,0,0,0,-1,1105,1352,0,0
-112,-328,0,0,0,0,0,0,0,0,0,-1,1112,1352,0,0
-105,-328,0,0,0,0,0,0,0,0,0,-1,1119,1352,0,0
-98,-328,0,0,0,0,0,0,0,0,0,-1,1126,1352,0,0
-91,-328,0,0,0,0,0,0,0,0,0,-1,1133,1352,0,0
-84,-328,0,0,0,0,0,0,0,0,0,-1,1140,1352,0,0
-77,-328,0,0,0,0,0,0,0,0,0,-1,1147,1352,0,0
-70,-328,0,0,0,0,0,0,0,0,0,-1,1154,1352,0,0
-63,-328,0,0,0,0,0,0,0,0,0,-1,1161,1352,0,0
-56,-328,0,0,0,0,0,0,0,0,0,-1,1168,1352,0,0
-49,-328,0,0,0,0,0,0,0,0,0,-1,1175,1352,0,0
-42,-328,0,0,0,0,0,0,0,0,0,-1,1182,1352,0,0
-35,-328,0,0,0,0,0,0,0,0,0,-1,1189,1352,0,0
-28,-328,0,0,0,0,0,0,0,0,0,-1,1196,1352,0,0
-21,-328,0,0,0,0,0,0,0,0,0,-1,1203,1352,0,0
-14,-328,0,0,0,0,0,0,0,0,0,-1,1210,1352,0,0
-7,-328,0,0,0,0,0,0,0,0,0,-1,1217,1352,0,0
0,-328,0,0,0,0,0,0,0,0,0,-1,1224,1352,0,0
7,-328,0,0,0,0,0,0,0,0,0,-1,1231,1352,0,0
14,-328,0,0,0,0,0,0,0,0,0,-1,1238,1352,0,0
21,-328,0,0,0,0,0,0,0,0,0,-1,1245,1352,0,0
28,-328,0,0,0,0,0,0,0,0,0,-1,1252,1352,0,0
35,-328,0,0,0,0,0,0,0,0,0,-1,1259,1352,0,0
42,-328,0,0,0,0,0,0,0,0,0,-1,1266,1352,0,0
49,-328,0,0,0,0,0,0,0,0,0,-1,1273,1352,0,0
56,-328,0,0,0,0,0,0,0,0,0,-1,1280,1352,0,0
63,-328,0,0,0,0,0,0,0,0,0,-1,1287,1352,0,0
70,-328,0,0,0,0,0,0,0,0,0,-1,1294,1352,0,0
77,-328,0,0,0,0,0,0,0,0,0,-1,1301,1352,0,0
84,-328,0,0,0,0,0,0,0,0,0,-1,1308,1352,0,0
91,-328,0,0,0,0,0,0,0,0,0,-1,1315,1352,0,0
98,-328,0,0,0,0,0,0,0,0,0,-1,1322,1352,0,0
105,-328,0,0,0,0,0,0,0,0,0,-1,1329,1352,0,0
112,-328,0,0,0,0,0,0,0,0,0,-1,1336,1352,0,0
119,-328,0,0,0,0,0,0,0,0,0,-1,1343,1352,0,0
126,-328,0,0,0,0,0,0,0,0,0,-1,1350,1352,0,0
133,-328,0,0,0,0,0,0,0,0,0,-1,1357,1352,0,0
140,-328,0,0,0,0,0,0,0,0,0,-1,1364,1352,0,0
147,-328,0,0,0,0,0,0,0,0,0,-1,1371,1352,0,0
154,-328,0,0,0,0,0,0,0,0,0,-1,1378,1352,0,0
161,-328,0,0,0,0,0,0,0,0,0,-1,1385,1352,0,0
168,-328,0,0,0,0,0,0,0,0,0,-1,1392,1352,0,0
175,-328,0,0,0,0,0,0,0,0,0,-1,1399,1352,0,0
182,-328,0,0,0,0,0,0,0,0,0,-1,1406,1352,0,0
189,-328,0,0,0,0,0,0,0,0,0,-1,1413,1352,0,0
196,-328,0,0,0,0,0,0,0,0,0,-1,1420,1352,0,0
203,-328,0,0,0,0,0,0,0,0,0,-1,1427,1352,0,0
210,-328,0,0,0,0,0,0,0,0,0,-1,1434,1352,0,0
217,-328,0,0,0,0,0,0,0,0,0,-1,1441,1352,0,0
224,-328,0,0,0,0,0,0,0,0,0,-1,1448,1352,0,0
231,-328,0,0,0,0,0,0,0,0,0,-1,1455,1352,0,0
238,-328,0,0,0,0,0,0,0,0,0,-1,1462,1352,0,0
245,-328,0,0,0,0,0,0,0,0,0,-1,1469,1352,0,0
252,-328,0,0,0,0,0,0,0,0,0,-1,1476,1352,0,0
259,-328,0,0,0,0,0,0,0,0,0,-1,1483,1352,0,0
266,-328,0,0,0,0,0,0,0,0,0,-1,1490,1352,0,0
273,-328,0,0,0,0,0,0,0,0,0,-1,1497,1352,0,0
280,-328,0,0,0,0,0,0,0,0,0,-1,1504,1352,0,0
287,-328,0,0,0,0,0,0,0,0,0,-1,1511,1352,0,0
294,-328,0,0,0,0,0,0,0,0,0,-1,1518,1352,0,0
301,-328,0,0,0,0,0,0,0,0,0,-1,1525,1352,0,0
308,-328,0,0,0,0,0,0,0,0,0,-1,1532,1352,0,0
315,-328,0,0,0,0,0,0,0,0,0,-1,1539,1352,0,0
322,-328,0,0,0,0,0,0,0,0,0,-1,1546,1352,0,0
329,-328,0,0,0,0,0,0,0,0,0,-1,1553,1352,0,0
336,-328,0,0,0,0,0,0,0,0,0,-1,1560,1352,0,0
343,-328,0,0,0,0,0,0,0,0,0,-1,1567,1352,0,0
350,-328,0,0,0,0,0,0,0,0,0,-1,1574,1352,0,0
357,-328,0,0,0,0,0,0,0,0,0,-1,1581,1352,0,0
364,-328,0,0,0,0,0,0,0,0,0,-1,1588,1352,0,0
371,-328,0,0,0,0,0,0,0,0,0,-1,1595,1352,0,0
378,-328,0,0,0,0,0,0,0,0,0,-1,1602,1352,0,0
385,-328,0,0,0,0,0,0,0,0,0,-1,1609,1352,0,0
392,-328,0,0,0,0,0,0,0,0,0,-1,1616,1352,0,0
399,-328,0,0,0,0,0,0,0,0,0,-1,1623,1352,0,0
406,-328,0,0,0,0,0,0,0,0,0,-1,1630,1352,0,0
413,-328,0,0,0,0,0,0,0,0,0,-1,1637,1352,0,0
420,-328,0,0,0,0,0,0,0,0,0,-1,1644,1352,0,0
427,-328,0,0,0,0,0,0,0,0,0,-1,1651,1352,0,0
434,-328,0,0,0,0,0,0,0,0,0,-1,1658,1352,0,0
441,-328,0,0,0,0,0,0,0,0,0,-1,1665,1352,0,0
448,-328,0,0,0,0,0,0,0,0,0,-1,1672,1352,0,0
455,-328,0,0,0,0,0,0,0,0,0,-1,1679,1352,0,0
462,-328,0,0,0,0,0,0,0,0,0,-1,1686,1352,0,0
469,-328,0,0,0,0,0,0,0,0,0,-1,1693,1352,0,0
476,-328,0,0,0,0,0,0,0,0,0,-1,1700,1352,0,0
483,-328,0,0,0,0,0,0,0,0,0,-1,1707,1352,0,0
490,-328,0,0,0,0,0,0,0,0,0,-1,1714,1352,0,0
497,-328,0,0,0,0,0,0,0,0,0,-1,1721,1352,0,0
504,-328,0,0,0,0,0,0,0,0,0,-1,1728,1352,0,0
511,-328,0,0,0,0,0,0,0,0,0,-1,1735,1352,0,0
518,-328,0,0,0,0,0,0,0,0,0,-1,1742,1352,0,0
525,-328,0,0,0,0,0,0,0,0,0,-1,1749,1352,0,0
532,-328,0,0,0,0,0,0,0,0,0,-1,1756,1352,0,0
539,-328,0,0,0,0,0,0,0,0,0,-1,1763,1352,0,0
546,-328,0,0,0,0,0,0,0,0,0,-1,1770,1352,0,0
553,-328,0,0,0,0,0,0,0,0,0,-1,1777,1352,0,0
560,-328,0,0,0,0,0,0,0,0,0,-1,1784,1352,0,0
567,-328,0,0,0,0,0,0,0,0,0,-1,1791,1352,0,0
574,-328,65.0565,3.09021,0,0,0,0,0,0,0,-1,1798,1352,65.0565,-3.09019
581,-328,66.3988,1.74048,0,0,0,0,0,0,0,-1,1805,1352,66.3989,-1.74051
588,-328,67.0304,0.506714,0,0,0,0,0,0,0,-1,1812,1352,67.0304,-0.506669
595,-328,60.5831,1.52856,0,0,0,0,0,0,0,-1,1819,1352,60.5832,-1.52861
602,-328,48.7734,3.66785,0,0,0,0,0,0,0,-1,1826,1352,48.7734,-3.66782
609,-328,37.0468,1.17407,0,0,0,0,0,0,0,-1,1833,1352,37.0468,-1.17407
616,-328,36.999,2.42859,0,0,0,0,0,0,0,-1,1840,1352,36.999,-2.42862
623,-328,34.345,5.14722,0,0,0,0,0,0,0,-1,1847,1352,34.3449,-5.14718
630,-328,22.0211,5.026,0,0,0,0,0,0,0,-1,1854,1352,22.0212,-5.02603
637,-328,21.15,5.53699,0,0,0,0,0,0,0,-1,1861,1352,21.15,-5.53704
644,-328,16.9579,6.3396,0,0,0,0,0,0,0,-1,1868,1352,16.9579,-6.33959
651,-328,36.2629,14.6906,0,0,0,0,0,0,0,-1,1875,1352,36.263,-14.6905
658,-328,74.4406,36.167,0,0,0,0,0,0,0,-1,1882,1352,74.4405,-36.167
665,-328,86.4988,42.1331,0,0,0,0,0,0,0,-1,1889,1352,86.4988,-42.133
672,-328,179.874,52.842,0,0,0,0,0,0,0,-1,1896,1352,179.874,-52.842
679,-328,180.773,50.5503,0,0,0,0,0,0,0,-1,1903,1352,180.773,-50.5504
686,-328,180.311,48.1945,-0.0103034,0.0170237,0.0146322,0.02338,-0.0166597,1.16099,0.0232252,0.0302278,1910,1352,180.311,-48.1944
693,-328,179.862,45.7422,-0.00863969,0.0241471,0.0184093,0.0324042,-0.0168967,1.14917,0.0289294,0.0184363,1917,1352,179.862,-45.7422
700,-328,179.156,43.2437,0,0,0,0,0,0,0,-1,1924,1352,179.156,-43.2436
707,-328,179.004,41.1239,-0.00624966,0.0373637,0.0259441,0.0494484,-0.0183344,1.13488,0.0404854,0.0237994,1931,1352,179.004,-41.124
714,-328,178.7,39.0627,-0.00556667,0.0435054,0.0296348,0.0574432,-0.0195045,1.13117,0.0461907,0.0400009,1938,1352,178.7,-39.0627
721,-328,178.422,36.7825,0,0,0,0,0,0,0,-1,1945,1352,178.422,-36.7825
728,-328,29.2787,6.74695,0,0,0,0,0,0,0,-1,1952,1352,29.2787,-6.74693
735,-328,20.8927,5.23523,0,0,0,0,0,0,0,-1,1959,1352,20.8927,-5.23528
742,-328,20.3547,4.11316,0,0,0,0,0,0,0,-1,1966,1352,20.3547,-4.11321
749,-328,20.0669,5.66321,0,0,0,0,0,0,0,-1,1973,1352,20.0669,-5.66319
756,-328,19.9543,5.50464,0,0,0,0,0,0,0,-1,1980,1352,19.9543,-5.50463
763,-328,0,0,0,0,0,0,0,0,0,-1,1987,1352,0,0
770,-328,0,0,0,0,0,0,0,0,0,-1,1994,1352,0,0
777,-328,0,0,0,0,0,0,0,0,0,-1,2001,1352,0,0
784,-328,0,0,0,0,0,0,0,0,0,-1,2008,1352,0,0
791,-328,0,0,0,0,0,0,0,0,0,-1,2015,1352,0,0
798,-328,0,0,0,0,0,0,0,0,0,-1,2022,1352,0,0
805,-328,0,0,0,0,0,0,0,0,0,-1,2029,1352,0,0
812,-328,0,0,0,0,0,0,0,0,0,-1,2036,1352,0,0
-700,-335,0,0,0,0,0,0,0,0,0,-1,524,1359,0,0
-693,-335,0,0,0,0,0,0,0,0,0,-1,531,1359,0,0
-686,-335,0,0,0,0,0,0,0,0,0,-1,538,1359,0,0
-679,-335,0,0,0,0,0,0,0,0,0,-1,545,1359,0,0
-672,-335,0,0,0,0,0,0,0,0,0,-1,552,1359,0,0
-665,-335,0,0,0,0,0,0,0,0,0,-1,559,1359,0,0
-658,-335,0,0,0,0,0,0,0,0,0,-1,566,1359,0,0
-651,-335,0,0,0,0,0,0,0,0,0,-1,573,1359,0,0
-644,-335,0,0,0,0,0,0,0,0,0,-1,580,1359,0,0
-637,-335,-62.7114,11.0491,0,0,0,0,0,0,0,-1,587,1359,-62.7114,-11.0491
-630,-335,-64.2532,9.91284,0,0,0,0,0,0,0,-1,594,1359,-64.2532,-9.91285
-623,-335,-8.43304,1.09509,0,0,0,0,0,0,0,-1,601,1359,-8.43301,-1.09507
-616,-335,-7.80927,-0.485352,0,0,0,0,0,0,0,-1,608,1359,-7.80926,0.485291
-609,-335,-7.12256,-2.03601,0,0,0,0,0,0,0,-1,615,1359,-7.12253,2.03601
-602,-335,-9.39935,2.25146,0,0,0,0,0,0,0,-1,622,1359,-9.39935,-2.25145
-595,-335,-9.54767,3.01917,0,0,0,0,0,0,0,-1,629,1359,-9.54768,-3.01911
-588,-335,-34.9862,13.5168,0,0,0,0,0,0,0,-1,636,1359,-34.9862,-13.5169
-581,-335,-169.693,36.1897,0,0,0,0,0,0,0,-1,643,1359,-169.693,-36.1897
-574,-335,-169.855,38.6764,0.00614337,0.0540931,-0.022616,0.0630769,-0.00284051,-1.19268,0.0430294,0.0203416,650,1359,-169.855,-38.6764
-567,-335,-170.272,40.9896,0.00786583,0.0476342,-0.0237882,0.0587542,-0.00325413,-1.13352,0.040298,0.0242855,657,1359,-170.272,-40.9896
-560,-335,-170.668,43.3221,0.00920971,0.0409556,-0.024995,0.0546917,-0.00452646,-1.06829,0.0380598,0.0328987,664,1359,-170.668,-43.3221
-553,-335,-170.999,45.5726,0,0,0,0,0,0,0,-1,671,1359,-170.999,-45.5726
-546,-335,-141.761,51.2694,0,0,0,0,0,0,0,-1,678,1359,-141.761,-51.2694
-539,-335,-70.172,41.3423,0,0,0,0,0,0,0,-1,685,1359,-70.172,-41.3422
-532,-335,-66.527,40.0629,0,0,0,0,0,0,0,-1,692,1359,-66.527,-40.0629
-525,-335,-64.6355,40.8328,0,0,0,0,0,0,0,-1,699,1359,-64.6355,-40.8328
-518,-335,-64.9236,42.5958,0,0,0,0,0,0,0,-1,706,1359,-64.9236,-42.5958
-511,-335,-65.4062,44.1842,0,0,0,0,0,0,0,-1,713,1359,-65.4062,-44.1843
-504,-335,-9.35767,5.99695,0,0,0,0,0,0,0,-1,720,1359,-9.35767,-5.99694
-497,-335,-8.75024,-0.650513,0,0,0,0,0,0,0,-1,727,1359,-8.75024,0.650521
-490,-335,-9.51971,0.417603,0,0,0,0,0,0,0,-1,734,1359,-9.51974,-0.41765
-483,-335,-10.2883,1.29224,0,0,0,0,0,0,0,-1,741,1359,-10.2883,-1.2922
-476,-335,-11.9938,-0.173462,0,0,0,0,0,0,0,-1,748,1359,-11.9938,0.173429
-469,-335,-12.8704,-0.204102,0,0,0,0,0,0,0,-1,755,1359,-12.8704,0.204117
-462,-335,-13.486,0.0218506,0,0,0,0,0,0,0,-1,762,1359,-13.4859,-0.0217908
-455,-335,-14.1504,0.549561,0,0,0,0,0,0,0,-1,769,1359,-14.1504,-0.549583
-448,-335,0,0,0,0,0,0,0,0,0,-1,776,1359,0,0
-441,-335,0,0,0,0,0,0,0,0,0,-1,783,1359,0,0
-434,-335,0,0,0,0,0,0,0,0,0,-1,790,1359,0,0
-427,-335,0,0,0,0,0,0,0,0,0,-1,797,1359,0,0
-420,-335,0,0,0,0,0,0,0,0,0,-1,804,1359,0,0
-413,-335,0,0,0,0,0,0,0,0,0,-1,811,1359,0,0
-406,-335,0,0,0,0,0,0,0,0,0,-1,818,1359,0,0
-399,-335,0,0,0,0,0,0,0,0,0,-1,825,1359,0,0
-392,-335,0,0,0,0,0,0,0,0,0,-1,832,1359,0,0
-385,-335,0,0,0,0,0,0,0,0,0,-1,839,1359,0,0
-378,-335,0,0,0,0,0,0,0,0,0,-1,846,1359,0,0
-371,-335,0,0,0,0,0,0,0,0,0,-1,853,1359,0,0
-364,-335,0,0,0,0,0,0,0,0,0,-1,860,1359,0,0
-357,-335,0,0,0,0,0,0,0,0,0,-1,867,1359,0,0
-350,-335,0,0,0,0,0,0,0,0,0,-1,874,1359,0,0
-343,-335,0,0,0,0,0,0,0,0,0,-1,881,1359,0,0
-336,-335,0,0,0,0,0,0,0,0,0,-1,888,1359,0,0
-329,-335,0,0,0,0,0,0,0,0,0,-1,895,1359,0,0
-322,-335,0,0,0,0,0,0,0,0,0,-1,902,1359,0,0
-315,-335,0,0,0,0,0,0,0,0,0,-1,909,1359,0,0
-308,-335,0,0,0,0,0,0,0,0,0,-1,916,1359,0,0
-301,-335,0,0,0,0,0,0,0,0,0,-1,923,1359,0,0
-294,-335,0,0,0,0,0,0,0,0,0,-1,930,1359,0,0
-287,-335,0,0,0,0,0,0,0,0,0,-1,937,1359,0,0
-280,-335,0,0,0,0,0,0,0,0,0,-1,944,1359,0,0
-273,-335,0,0,0,0,0,0,0,0,0,-1,951,1359,0,0
-266,-335,0,0,0,0,0,0,0,0,0,-1,958,1359,0,0
-259,-335,0,0,0,0,0,0,0,0,0,-1,965,1359,0,0
-252,-335,0,0,0,0,0,0,0,0,0,-1,972,1359,0,0
-245,-335,0,0,0,0,0,0,0,0,0,-1,979,1359,0,0
-238,-335,0,0,0,0,0,0,0,0,0,-1,986,1359,0,0
-231,-335,0,0,0,0,0,0,0,0,0,-1,993,1359,0,0
-224,-335,0,0,0,0,0,0,0,0,0,-1,1000,1359,0,0
-217,-335,0,0,0,0,0,0,0,0,0,-1,1007,1359,0,0
-210,-335,0,0,0,0,0,0,0,0,0,-1,1014,1359,0,0
-203,-335,0,0,0,0,0,0,0,0,0,-1,1021,1359,0,0
-196,-335,0,0,0,0,0,0,0,0,0,-1,1028,1359,0,0
-189,-335,0,0,0,0,0,0,0,0,0,-1,1035,1359,0,0
-182,-335,0,0,0,0,0,0,0,0,0,-1,1042,1359,0,0
-175,-335,0,0,0,0,0,0,0,0,0,-1,1049,1359,0,0
-168,-335,0,0,0,0,0,0,0,0,0,-1,1056,1359,0,0
-161,-335,0,0,0,0,0,0,0,0,0,-1,1063,1359,0,0
-154,-335,0,0,0,0,0,0,0,0,0,-1,1070,1359,0,0
-147,-335,0,0,0,0,0,0,0,0,0,-1,1077,1359,0,0
-140,-335,0,0,0,0,0,0,0,0,0,-1,1084,1359,0,0
-133,-335,0,0,0,0,0,0,0,0,0,-1,1091,1359,0,0
-126,-335,0,0,0,0,0,0,0,0,0,-1,1098,1359,0,0
-119,-335,0,0,0,0,0,0,0,0,0,-1,1105,1359,0,0
-112,-335,0,0,0,0,0,0,0,0,0,-1,1112,1359,0,0
-105,-335,0,0,0,0,0,0,0,0,0,-1,1119,1359,0,0
-98,-335,0,0,0,0,0,0,0,0,0,-1,1126,1359,0,0
-91,-335,0,0,0,0,0,0,0,0,0,-1,1133,1359,0,0
-84,-335,0,0,0,0,0,0,0,0,0,-1,1140,1359,0,0
-77,-335,0,0,0,0,0,0,0,0,0,-1,1147,1359,0,0
-70,-335,0,0,0,0,0,0,0,0,0,-1,1154,1359,0,0
-63,-335,0,0,0,0,0,0,0,0,0,-1,1161,1359,0,0
-56,-335,0,0,0,0,0,0,0,0,0,-1,1168,1359,0,0
-49,-335,0,0,0,0,0,0,0,0,0,-1,1175,1359,0,0
-42,-335,0,0,0,0,0,0,0,0,0,-1,1182,1359,0,0
-35,-335,0,0,0,0,0,0,0,0,0,-1,1189,1359,0,0
-28,-335,0,0,0,0,0,0,0,0,0,-1,1196,1359,0,0
-21,-335,0,0,0,0,0,0,0,0,0,-1,1203,1359,0,0
-14,-335,0,0,0,0,0,0,0,0,0,-1,1210,1359,0,0
-7,-335,0,0,0,0,0,0,0,0,0,-1,1217,1359,0,0
0,-335,0,0,0,0,0,0,0,0,0,-1,1224,1359,0,0
7,-335,0,0,0,0,0,0,0,0,0,-1,1231,1359,0,0
14,-335,0,0,0,0,0,0,0,0,0,-1,1238,1359,0,0
21,-335,0,0,0,0,0,0,0,0,0,-1,1245,1359,0,0
28,-335,0,0,0,0,0,0,0,0,0,-1,1252,1359,0,0
35,-335,0,0,0,0,0,0,0,0,0,-1,1259,1359,0,0
42,-335,0,0,0,0,0,0,0,0,0,-1,1266,1359,0,0
49,-335,0,0,0,0,0,0,0,0,0,-1,1273,1359,0,0
56,-335,0,0,0,0,0,0,0,0,0,-1,1280,1359,0,0
63,-335,0,0,0,0,0,0,0,0,0,-1,1287,1359,0,0
70,-335,0,0,0,0,0,0,0,0,0,-1,1294,1359,0,0
77,-335,0,0,0,0,0,0,0,0,0,-1,1301,1359,0,0
84,-335,0,0,0,0,0,0,0,0,0,-1,1308,1359,0,0
91,-335,0,0,0,0,0,0,0,0,0,-1,1315,1359,0,0
98,-335,0,0,0,0,0,0,0,0,0,-1,1322,1359,0,0
105,-335,0,0,0,0,0,0,0,0,0,-1,1329,1359,0,0
112,-335,0,0,0,0,0,0,0,0,0,-1,1336,1359,0,0
119,-335,0,0,0,0,0,0,0,0,0,-1,1343,1359,0,0
126,-335,0,0,0,0,0,0,0,0,0,-1,1350,1359,0,0
133,-335,0,0,0,0,0,0,0,0,0,-1,1357,1359,0,0
140,-335,0,0,0,0,0,0,0,0,0,-1,1364,1359,0,0
147,-335,0,0,0,0,0,0,0,0,0,-1,1371,1359,0,0
154,-335,0,0,0,0,0,0,0,0,0,-1,1378,1359,0,0
161,-335,0,0,0,0,0,0,0,0,0,-1,1385,1359,0,0
168,-335,0,0,0,0,0,0,0,0,0,-1,1392,1359,0,0
175,-335,0,0,0,0,0,0,0,0,0,-1,1399,1359,0,0
182,-335,0,0,0,0,0,0,0,0,0,-1,1406,1359,0,0
189,-335,0,0,0,0,0,0,0,0,0,-1,1413,1359,0,0
196,-335,0,0,0,0,0,0,0,0,0,-1,1420,1359,0,0
203,-335,0,0,0,0,0,0,0,0,0,-1,1427,1359,0,0
210,-335,0,0,0,0,0,0,0,0,0,-1,1434,1359,0,0
217,-335,0,0,0,0,0,0,0,0,0,-1,1441,1359,0,0
224,-335,0,0,0,0,0,0,0,0,0,-1,1448,1359,0,0
231,-335,0,0,0,0,0,0,0,0,0,-1,1455,1359,0,0
238,-335,0,0,0,0,0,0,0,0,0,-1,1462,1359,0,0
245,-335,0,0,0,0,0,0,0,0,0,-1,1469,1359,0,0
252,-335,0,0,0,0,0,0,0,0,0,-1,1476,1359,0,0
259,-335,0,0,0,0,0,0,0,0,0,-1,1483,1359,0,0
266,-335,0,0,0,0,0,0,0,0,0,-1,1490,1359,0,0
273,-335,0,0,0,0,0,0,0,0,0,-1,1497,1359,0,0
280,-335,0,0,0,0,0,0,0,0,0,-1,1504,1359,0,0
287,-335,0,0,0,0,0,0,0,0,0,-1,1511,1359,0,0
294,-335,0,0,0,0,0,0,0,0,0,-1,1518,1359,0,0
301,-335,0,0,0,0,0,0,0,0,0,-1,1525,1359,0,0
308,-335,0,0,0,0,0,0,0,0,0,-1,1532,1359,0,0
315,-335,0,0,0,0,0,0,0,0,0,-1,1539,1359,0,0
322,-335,0,0,0,0,0,0,0,0,0,-1,1546,1359,0,0
329,-335,0,0,0,0,0,0,0,0,0,-1,1553,1359,0,0
336,-335,0,0,0,0,0,0,0,0,0,-1,1560,1359,0,0
343,-335,0,0,0,0,0,0,0,0,0,-1,1567,1359,0,0
350,-335,0,0,0,0,0,0,0,0,0,-1,1574,1359,0,0
357,-335,0,0,0,0,0,0,0,0,0,-1,1581,1359,0,0
364,-335,0,0,0,0,0,0,0,0,0,-1,1588,1359,0,0
371,-335,0,0,0,0,0,0,0,0,0,-1,1595,1359,0,0
378,-335,0,0,0,0,0,0,0,0,0,-1,1602,1359,0,0
385,-335,0,0,0,0,0,0,0,0,0,-1,1609,1359,0,0
392,-335,0,0,0,0,0,0,0,0,0,-1,1616,1359,0,0
399,-335,0,0,0,0,0,0,0,0,0,-1,1623,1359,0,0
406,-335,0,0,0,0,0,0,0,0,0,-1,1630,1359,0,0
413,-335,0,0,0,0,0,0,0,0,0,-1,1637,1359,0,0
420,-335,0,0,0,0,0,0,0,0,0,-1,1644,1359,0,0
427,-335,0,0,0,0,0,0,0,0,0,-1,1651,1359,0,0
434,-335,0,0,0,0,0,0,0,0,0,-1,1658,1359,0,0
441,-335,0,0,0,0,0,0,0,0,0,-1,1665,1359,0,0
448,-335,0,0,0,0,0,0,0,0,0,-1,1672,1359,0,0
455,-335,0,0,0,0,0,0,0,0,0,-1,1679,1359,0,0
462,-335,0,0,0,0,0,0,0,0,0,-1,1686,1359,0,0
469,-335,0,0,0,0,0,0,0,0,0,-1,1693,1359,0,0
476,-335,0,0,0,0,0,0,0,0,0,-1,1700,1359,0,0
483,-335,0,0,0,0,0,0,0,0,0,-1,1707,1359,0,0
490,-335,0,0,0,0,0,0,0,0,0,-1,1714,1359,0,0
497,-335,0,0,0,0,0,0,0,0,0,-1,1721,1359,0,0
504,-335,0,0,0,0,0,0,0,0,0,-1,1728,1359,0,0
511,-335,0,0,0,0,0,0,0,0,0,-1,1735,1359,0,0
518,-335,0,0,0,0,0,0,0,0,0,-1,1742,1359,0,0
525,-335,0,0,0,0,0,0,0,0,0,-1,1749,1359,0,0
532,-335,0,0,0,0,0,0,0,0,0,-1,1756,1359,0,0
539,-335,0,0,0,0,0,0,0,0,0,-1,1763,1359,0,0
546,-335,0,0,0,0,0,0,0,0,0,-1,1770,1359,0,0
553,-335,0,0,0,0,0,0,0,0,0,-1,1777,1359,0,0
560,-335,0,0,0,0,0,0,0,0,0,-1,1784,1359,0,0
567,-335,0,0,0,0,0,0,0,0,0,-1,1791,1359,0,0
574,-335,65.0712,2.80188,0,0,0,0,0,0,0,-1,1798,1359,65.0712,-2.80193
581,-335,66.5206,1.60327,0,0,0,0,0,0,0,-1,1805,1359,66.5206,-1.60333
588,-335,67.826,0.334961,0,0,0,0,0,0,0,-1,1812,1359,67.8261,-0.335018
595,-335,49.984,3.76465,0,0,0,0,0,0,0,-1,1819,1359,49.984,-3.76467
602,-335,36.5643,0.0861816,0,0,0,0,0,0,0,-1,1826,1359,36.5643,-0.0862283
609,-335,36.2933,0.993896,0,0,0,0,0,0,0,-1,1833,1359,36.2934,-0.993911
616,-335,34.6969,4.82666,0,0,0,0,0,0,0,-1,1840,1359,34.6969,-4.82667
623,-335,26.6051,6.54333,0,0,0,0,0,0,0,-1,1847,1359,26.6051,-6.54339
630,-335,19.1707,1.00952,0,0,0,0,0,0,0,-1,1854,1359,19.1707,-1.00953
637,-335,18.2009,6.65454,0,0,0,0,0,0,0,-1,1861,1359,18.2009,-6.6546
644,-335,28.1042,12.067,0,0,0,0,0,0,0,-1,1868,1359,28.1042,-12.067
651,-335,56.3635,25.3947,0,0,0,0,0,0,0,-1,1875,1359,56.3636,-25.3946
658,-335,82.4652,42.7295,0,0,0,0,0,0,0,-1,1882,1359,82.4652,-42.7295
665,-335,89.772,45.6466,0,0,0,0,0,0,0,-1,1889,1359,89.772,-45.6466
672,-335,178.53,53.3832,0,0,0,0,0,0,0,-1,1896,1359,178.53,-53.3832
679,-335,178.137,50.8818,-0.0105232,0.0140381,0.0138168,0.020243,-0.0167282,1.1487,0.0213775,0.0317658,1903,1359,178.138,-50.8819
686,-335,177.684,48.566,-0.00872083,0.0207333,0.0174584,0.0288466,-0.0168341,1.13577,0.026676,0.0252563,1910,1359,177.684,-48.5661
693,-335,177.2,46.1893,-0.00705125,0.0273797,0.0211008,0.0373969,-0.0170684,1.12757,0.0321674,0.0193525,1917,1359,177.2,-46.1893
700,-335,176.592,43.6858,-0.0055703,0.0338806,0.0247385,0.0457951,-0.0174848,1.12196,0.0377337,0.0187623,1924,1359,176.592,-43.6858
707,-335,176.236,41.3688,-0.00437348,0.0402096,0.028399,0.0540209,-0.0181848,1.11814,0.0433657,0.0235731,1931,1359,176.236,-41.3688
714,-335,176.083,39.1757,0,0,0,0,0,0,0,-1,1938,1359,176.083,-39.1756
721,-335,63.0804,18.417,0,0,0,0,0,0,0,-1,1945,1359,63.0804,-18.417
728,-335,20.8126,5.21167,0,0,0,0,0,0,0,-1,1952,1359,20.8127,-5.21172
735,-335,20.2725,5.34729,0,0,0,0,0,0,0,-1,1959,1359,20.2724,-5.34734
742,-335,19.8624,4.72229,0,0,0,0,0,0,0,-1,1966,1359,19.8624,-4.72225
749,-335,20.5887,6.05322,0,0,0,0,0,0,0,-1,1973,1359,20.5887,-6.05322
756,-335,20.7832,6.00452,0,0,0,0,0,0,0,-1,1980,1359,20.7832,-6.00447
763,-335,0,0,0,0,0,0,0,0,0,-1,1987,1359,0,0
770,-335,0,0,0,0,0,0,0,0,0,-1,1994,1359,0,0
777,-335,0,0,0,0,0,0,0,0,0,-1,2001,1359,0,0
784,-335,0,0,0,0,0,0,0,0,0,-1,2008,1359,0,0
791,-335,0,0,0,0,0,0,0,0,0,-1,2015,1359,0,0
798,-335,0,0,0,0,0,0,0,0,0,-1,2022,1359,0,0
805,-335,0,0,0,0,0,0,0,0,0,-1,2029,1359,0,0
812,-335,0,0,0,0,0,0,0,0,0,-1,2036,1359,0,0
-700,-342,0,0,0,0,0,0,0,0,0,-1,524,1366,0,0
-693,-342,0,0,0,0,0,0,0,0,0,-1,531,1366,0,0
-686,-342,0,0,0,0,0,0,0,0,0,-1,538,1366,0,0
-679,-342,0,0,0,0,0,0,0,0,0,-1,545,1366,0,0
-672,-342,0,0,0,0,0,0,0,0,0,-1,552,1366,0,0
-665,-342,0,0,0,0,0,0,0,0,0,-1,559,1366,0,0
-658,-342,0,0,0,0,0,0,0,0,0,-1,566,1366,0,0
-651,-342,0,0,0,0,0,0,0,0,0,-1,573,1366,0,0
-644,-342,0,0,0,0,0,0,0,0,0,-1,580,1366,0,0
-637,-342,-63.7546,12.2344,0,0,0,0,0,0,0,-1,587,1366,-63.7546,-12.2343
-630,-342,-8.60132,2.71777,0,0,0,0,0,0,0,-1,594,1366,-8.60135,-2.71779
-623,-342,-8.41168,0.662476,0,0,0,0,0,0,0,-1,601,1366,-8.41168,-0.662442
-616,-342,-6.625,-1.28015,0,0,0,0,0,0,0,-1,608,1366,-6.62499,1.28011
-609,-342,-7.83154,0.674561,0,0,0,0,0,0,0,-1,615,1366,-7.83155,-0.674598
-602,-342,-9.65765,2.25195,0,0,0,0,0,0,0,-1,622,1366,-9.65767,-2.25192
-595,-342,-9.47687,3.00671,0,0,0,0,0,0,0,-1,629,1366,-9.47686,-3.00668
-588,-342,-9.78467,3.57727,0,0,0,0,0,0,0,-1,636,1366,-9.78468,-3.57723
-581,-342,-167.121,36.6655,0,0,0,0,0,0,0,-1,643,1366,-167.121,-36.6655
-574,-342,-167.258,38.8807,0.00850209,0.0587057,-0.0224851,0.0673038,-9.59747e-05,-1.20556,0.0449012,0.0313645,650,1366,-167.258,-38.8807
-567,-342,-167.386,41.1473,0.00906404,0.0518744,-0.0238989,0.0625526,-0.0016141,-1.1506,0.04225,0.0239546,657,1366,-167.386,-41.1473
-560,-342,-167.779,43.5038,0.00905015,0.044802,-0.0252246,0.0578426,-0.00399045,-1.09366,0.0399584,0.0322001,664,1366,-167.779,-43.5038
-553,-342,-168.311,45.7896,0.00860646,0.0374853,-0.0264212,0.0531553,-0.00706354,-1.03548,0.0380108,0.0344283,671,1366,-168.311,-45.7896
-546,-342,-168.893,48.1974,0,0,0,0,0,0,0,-1,678,1366,-168.893,-48.1974
-539,-342,-81.4354,46.4868,0,0,0,0,0,0,0,-1,685,1366,-81.4353,-46.4869
-532,-342,-67.7392,42.2123,0,0,0,0,0,0,0,-1,692,1366,-67.7392,-42.2123
-525,-342,-65.3508,41.8672,0,0,0,0,0,0,0,-1,699,1366,-65.3508,-41.8671
-518,-342,-63.2446,42.9529,0,0,0,0,0,0,0,-1,706,1366,-63.2446,-42.9529
-511,-342,-63.2302,44.5254,0,0,0,0,0,0,0,-1,713,1366,-63.2302,-44.5253
-504,-342,-8.95709,6.5719,0,0,0,0,0,0,0,-1,720,1366,-8.95707,-6.57192
-497,-342,-8.26587,-0.943604,0,0,0,0,0,0,0,-1,727,1366,-8.26586,0.943543
-490,-342,-9.07153,-0.0227051,0,0,0,0,0,0,0,-1,734,1366,-9.07155,0.0227087
-483,-342,-9.87726,0.898071,0,0,0,0,0,0,0,-1,741,1366,-9.87724,-0.898125
-476,-342,-11.6371,-0.736328,0,0,0,0,0,0,0,-1,748,1366,-11.6371,0.736281
-469,-342,-12.6245,-0.987549,0,0,0,0,0,0,0,-1,755,1366,-12.6245,0.987553
-462,-342,-13.0912,-0.533203,0,0,0,0,0,0,0,-1,762,1366,-13.0912,0.533224
-455,-342,-13.7612,0.122925,0,0,0,0,0,0,0,-1,769,1366,-13.7612,-0.122896
-448,-342,-14.5278,0.826904,0,0,0,0,0,0,0,-1,776,1366,-14.5277,-0.826861
-441,-342,0,0,0,0,0,0,0,0,0,-1,783,1366,0,0
-434,-342,0,0,0,0,0,0,0,0,0,-1,790,1366,0,0
-427,-342,0,0,0,0,0,0,0,0,0,-1,797,1366,0,0
-420,-342,0,0,0,0,0,0,0,0,0,-1,804,1366,0,0
-413,-342,0,0,0,0,0,0,0,0,0,-1,811,1366,0,0
-406,-342,0,0,0,0,0,0,0,0,0,-1,818,1366,0,0
-399,-342,0,0,0,0,0,0,0,0,0,-1,825,1366,0,0
-392,-342,0,0,0,0,0,0,0,0,0,-1,832,1366,0,0
-385,-342,0,0,0,0,0,0,0,0,0,-1,839,1366,0,0
-378,-342,0,0,0,0,0,0,0,0,0,-1,846,1366,0,0
-371,-342,0,0,0,0,0,0,0,0,0,-1,853,1366,0,0
-364,-342,0,0,0,0,0,0,0,0,0,-1,860,1366,0,0
-357,-342,0,0,0,0,0,0,0,0,0,-1,867,1366,0,0
-350,-342,0,0,0,0,0,0,0,0,0,-1,874,1366,0,0
-343,-342,0,0,0,0,0,0,0,0,0,-1,881,1366,0,0
-336,-342,0,0,0,0,0,0,0,0,0,-1,888,1366,0,0
-329,-342,0,0,0,0,0,0,0,0,0,-1,895,1366,0,0
-322,-342,0,0,0,0,0,0,0,0,0,-1,902,1366,0,0
-315,-342,0,0,0,0,0,0,0,0,0,-1,909,1366,0,0
-308,-342,0,0,0,0,0,0,0,0,0,-1,916,1366,0,0
-301,-342,0,0,0,0,0,0,0,0,0,-1,923,1366,0,0
-294,-342,0,0,0,0,0,0,0,0,0,-1,930,1366,0,0
-287,-342,0,0,0,0,0,0,0,0,0,-1,937,1366,0,0
-280,-342,0,0,0,0,0,0,0,0,0,-1,944,1366,0,0
-273,-342,0,0,0,0,0,0,0,0,0,-1,951,1366,0,0
-266,-342,0,0,0,0,0,0,0,0,0,-1,958,1366,0,0
-259,-342,0,0,0,0,0,0,0,0,0,-1,965,1366,0,0
-252,-342,0,0,0,0,0,0,0,0,0,-1,972,1366,0,0
-245,-342,0,0,0,0,0,0,0,0,0,-1,979,1366,0,0
-238,-342,0,0,0,0,0,0,0,0,0,-1,986,1366,0,0
-231,-342,0,0,0,0,0,0,0,0,0,-1,993,1366,0,0
-224,-342,0,0,0,0,0,0,0,0,0,-1,1000,1366,0,0
-217,-342,0,0,0,0,0,0,0,0,0,-1,1007,1366,0,0
-210,-342,0,0,0,0,0,0,0,0,0,-1,1014,1366,0,0
-203,-342,0,0,0,0,0,0,0,0,0,-1,1021,1366,0,0
-196,-342,0,0,0,0,0,0,0,0,0,-1,1028,1366,0,0
-189,-342,0,0,0,0,0,0,0,0,0,-1,1035,1366,0,0
-182,-342,0,0,0,0,0,0,0,0,0,-1,1042,1366,0,0
-175,-342,0,0,0,0,0,0,0,0,0,-1,1049,1366,0,0
-168,-342,0,0,0,0,0,0,0,0,0,-1,1056,1366,0,0
-161,-342,0,0,0,0,0,0,0,0,0,-1,1063,1366,0,0
-154,-342,0,0,0,0,0,0,0,0,0,-1,1070,1366,0,0
-147,-342,0,0,0,0,0,0,0,0,0,-1,1077,1366,0,0
-140,-342,0,0,0,0,0,0,0,0,0,-1,1084,1366,0,0
-133,-342,0,0,0,0,0,0,0,0,0,-1,1091,1366,0,0
-126,-342,0,0,0,0,0,0,0,0,0,-1,1098,1366,0,0
-119,-342,0,0,0,0,0,0,0,0,0,-1,1105,1366,0,0
-112,-342,0,0,0,0,0,0,0,0,0,-1,1112,1366,0,0
-105,-342,0,0,0,0,0,0,0,0,0,-1,1119,1366,0,0
-98,-342,0,0,0,0,0,0,0,0,0,-1,1126,1366,0,0
-91,-342,0,0,0,0,0,0,0,0,0,-1,1133,1366,0,0
-84,-342,0,0,0,0,0,0,0,0,0,-1,1140,1366,0,0
-77,-342,0,0,0,0,0,0,0,0,0,-1,1147,1366,0,0
-70,-342,0,0,0,0,0,0,0,0,0,-1,1154,1366,0,0
-63,-342,0,0,0,0,0,0,0,0,0,-1,1161,1366,0,0
-56,-342,0,0,0,0,0,0,0,0,0,-1,1168,1366,0,0
-49,-342,0,0,0,0,0,0,0,0,0,-1,1175,1366,0,0
-42,-342,0,0,0,0,0,0,0,0,0,-1,1182,1366,0,0
-35,-342,0,0,0,0,0,0,0,0,0,-1,1189,1366,0,0
-28,-342,0,0,0,0,0,0,0,0,0,-1,1196,1366,0,0
-21,-342,0,0,0,0,0,0,0,0,0,-1,1203,1366,0,0
-14,-342,0,0,0,0,0,0,0,0,0,-1,1210,1366,0,0
-7,-342,0,0,0,0,0,0,0,0,0,-1,1217,1366,0,0
0,-342,0,0,0,0,0,0,0,0,0,-1,1224,1366,0,0
7,-342,0,0,0,0,0,0,0,0,0,-1,1231,1366,0,0
14,-342,0,0,0,0,0,0,0,0,0,-1,1238,1366,0,0
21,-342,0,0,0,0,0,0,0,0,0,-1,1245,1366,0,0
28,-342,0,0,0,0,0,0,0,0,0,-1,1252,1366,0,0
35,-342,0,0,0,0,0,0,0,0,0,-1,1259,1366,0,0
42,-342,0,0,0,0,0,0,0,0,0,-1,1266,1366,0,0
49,-342,0,0,0,0,0,0,0,0,0,-1,1273,1366,0,0
56,-342,0,0,0,0,0,0,0,0,0,-1,1280,1366,0,0
63,-342,0,0,0,0,0,0,0,0,0,-1,1287,1366,0,0
70,-342,0,0,0,0,0,0,0,0,0,-1,1294,1366,0,0
77,-342,0,0,0,0,0,0,0,0,0,-1,1301,1366,0,0
84,-342,0,0,0,0,0,0,0,0,0,-1,1308,1366,0,0
91,-342,0,0,0,0,0,0,0,0,0,-1,1315,1366,0,0
98,-342,0,0,0,0,0,0,0,0,0,-1,1322,1366,0,0
105,-342,0,0,0,0,0,0,0,0,0,-1,1329,1366,0,0
112,-342,0,0,0,0,0,0,0,0,0,-1,1336,1366,0,0
119,-342,0,0,0,0,0,0,0,0,0,-1,1343,1366,0,0
126,-342,0,0,0,0,0,0,0,0,0,-1,1350,1366,0,0
133,-342,0,0,0,0,0,0,0,0,0,-1,1357,1366,0,0
140,-342,0,0,0,0,0,0,0,0,0,-1,1364,1366,0,0
147,-342,0,0,0,0,0,0,0,0,0,-1,1371,1366,0,0
154,-342,0,0,0,0,0,0,0,0,0,-1,1378,1366,0,0
161,-342,0,0,0,0,0,0,0,0,0,-1,1385,1366,0,0
168,-342,0,0,0,0,0,0,0,0,0,-1,1392,1366,0,0
175,-342,0,0,0,0,0,0,0,0,0,-1,1399,1366,0,0
182,-342,0,0,0,0,0,0,0,0,0,-1,1406,1366,0,0
189,-342,0,0,0,0,0,0,0,0,0,-1,1413,1366,0,0
196,-342,0,0,0,0,0,0,0,0,0,-1,1420,1366,0,0
203,-342,0,0,0,0,0,0,0,0,0,-1,1427,1366,0,0
210,-342,0,0,0,0,0,0,0,0,0,-1,1434,1366,0,0
217,-342,0,0,0,0,0,0,0,0,0,-1,1441,1366,0,0
224,-342,0,0,0,0,0,0,0,0,0,-1,1448,1366,0,0
231,-342,0,0,0,0,0,0,0,0,0,-1,1455,1366,0,0
238,-342,0,0,0,0,0,0,0,0,0,-1,1462,1366,0,0
245,-342,0,0,0,0,0,0,0,0,0,-1,1469,1366,0,0
252,-342,0,0,0,0,0,0,0,0,0,-1,1476,1366,0,0
259,-342,0,0,0,0,0,0,0,0,0,-1,1483,1366,0,0
266,-342,0,0,0,0,0,0,0,0,0,-1,1490,1366,0,0
273,-342,0,0,0,0,0,0,0,0,0,-1,1497,1366,0,0
280,-342,0,0,0,0,0,0,0,0,0,-1,1504,1366,0,0
287,-342,0,0,0,0,0,0,0,0,0,-1,1511,1366,0,0
294,-342,0,0,0,0,0,0,0,0,0,-1,1518,1366,0,0
301,-342,0,0,0,0,0,0,0,0,0,-1,1525,1366,0,0
308,-342,0,0,0,0,0,0,0,0,0,-1,1532,1366,0,0
315,-342,0,0,0,0,0,0,0,0,0,-1,1539,1366,0,0
322,-342,0,0,0,0,0,0,0,0,0,-1,1546,1366,0,0
329,-342,0,0,0,0,0,0,0,0,0,-1,1553,1366,0,0
336,-342,0,0,0,0,0,0,0,0,0,-1,1560,1366,0,0
343,-342,0,0,0,0,0,0,0,0,0,-1,1567,1366,0,0
350,-342,0,0,0,0,0,0,0,0,0,-1,1574,1366,0,0
357,-342,0,0,0,0,0,0,0,0,0,-1,1581,1366,0,0
364,-342,0,0,0,0,0,0,0,0,0,-1,1588,1366,0,0
371,-342,0,0,0,0,0,0,0,0,0,-1,1595,1366,0,0
378,-342,0,0,0,0,0,0,0,0,0,-1,1602,1366,0,0
385,-342,0,0,0,0,0,0,0,0,0,-1,1609,1366,0,0
392,-342,0,0,0,0,0,0,0,0,0,-1,1616,1366,0,0
399,-342,0,0,0,0,0,0,0,0,0,-1,1623,1366,0,0
406,-342,0,0,0,0,0,0,0,0,0,-1,1630,1366,0,0
413,-342,0,0,0,0,0,0,0,0,0,-1,1637,1366,0,0
420,-342,0,0,0,0,0,0,0,0,0,-1,1644,1366,0,0
427,-342,0,0,0,0,0,0,0,0,0,-1,1651,1366,0,0
434,-342,0,0,0,0,0,0,0,0,0,-1,1658,1366,0,0
441,-342,0,0,0,0,0,0,0,0,0,-1,1665,1366,0,0
448,-342,0,0,0,0,0,0,0,0,0,-1,1672,1366,0,0
455,-342,0,0,0,0,0,0,0,0,0,-1,1679,1366,0,0
462,-342,0,0,0,0,0,0,0,0,0,-1,1686,1366,0,0
469,-342,0,0,0,0,0,0,0,0,0,-1,1693,1366,0,0
476,-342,0,0,0,0,0,0,0,0,0,-1,1700,1366,0,0
483,-342,0,0,0,0,0,0,0,0,0,-1,1707,1366,0,0
490,-342,0,0,0,0,0,0,0,0,0,-1,1714,1366,0,0
497,-342,0,0,0,0,0,0,0,0,0,-1,1721,1366,0,0
504,-342,0,0,0,0,0,0,0,0,0,-1,1728,1366,0,0
511,-342,0,0,0,0,0,0,0,0,0,-1,1735,1366,0,0
518,-342,0,0,0,0,0,0,0,0,0,-1,1742,1366,0,0
525,-342,0,0,0,0,0,0,0,0,0,-1,1749,1366,0,0
532,-342,0,0,0,0,0,0,0,0,0,-1,1756,1366,0,0
539,-342,0,0,0,0,0,0,0,0,0,-1,1763,1366,0,0
546,-342,0,0,0,0,0,0,0,0,0,-1,1770,1366,0,0
553,-342,0,0,0,0,0,0,0,0,0,-1,1777,1366,0,0
560,-342,0,0,0,0,0,0,0,0,0,-1,1784,1366,0,0
567,-342,64.6937,3.24878,0,0,0,0,0,0,0,-1,1791,1366,64.6938,-3.24881
574,-342,65.4669,2.18384,0,0,0,0,0,0,0,-1,1798,1366,65.4669,-2.18381
581,-342,66.542,1.36292,0,0,0,0,0,0,0,-1,1805,1366,66.542,-1.36295
588,-342,43.9108,7.22559,0,0,0,0,0,0,0,-1,1812,1366,43.9107,-7.22554
595,-342,35.7993,0.709961,0,0,0,0,0,0,0,-1,1819,1366,35.7993,-0.709913
602,-342,36.3618,3.28723,0,0,0,0,0,0,0,-1,1826,1366,36.3619,-3.28719
609,-342,35.3777,4.14978,0,0,0,0,0,0,0,-1,1833,1366,35.3777,-4.14976
616,-342,34.199,5.8158,0,0,0,0,0,0,0,-1,1840,1366,34.199,-5.81579
623,-342,26.0299,6.86865,0,0,0,0,0,0,0,-1,1847,1366,26.0299,-6.86863
630,-342,17.3431,0.773071,0,0,0,0,0,0,0,-1,1854,1366,17.3432,-0.773095
637,-342,16.196,6.76172,0,0,0,0,0,0,0,-1,1861,1366,16.1961,-6.76174
644,-342,31.8916,14.0614,0,0,0,0,0,0,0,-1,1868,1366,31.8916,-14.0613
651,-342,80.5938,43.9689,0,0,0,0,0,0,0,-1,1875,1366,80.5937,-43.9688
658,-342,87.5692,47.3271,0,0,0,0,0,0,0,-1,1882,1366,87.5692,-47.3271
665,-342,175.899,56.3611,0,0,0,0,0,0,0,-1,1889,1366,175.899,-56.3611
672,-342,175.558,53.9993,0,0,0,0,0,0,0,-1,1896,1366,175.558,-53.9993
679,-342,175.306,51.4558,-0.00863548,0.0176896,0.0166896,0.0257826,-0.0167284,1.11929,0.0247286,0.0221493,1903,1366,175.306,-51.4558
686,-342,174.85,48.9536,-0.00710782,0.0239332,0.0201753,0.0338671,-0.0170418,1.11326,0.0299226,0.0227262,1910,1366,174.85,-48.9536
693,-342,174.398,46.5349,-0.00557214,0.0302337,0.0236625,0.0420028,-0.0173412,1.10925,0.0352347,0.0215987,1917,1366,174.398,-46.5349
700,-342,173.871,44.1602,-0.00408774,0.0365011,0.0271484,0.0501021,-0.0176887,1.10636,0.040603,0.0220443,1924,1366,173.871,-44.1601
707,-342,173.346,41.603,-0.00280063,0.0427438,0.0306977,0.0581936,-0.0182505,1.10452,0.0460996,0.0216033,1931,1366,173.346,-41.603
714,-342,172.881,39.0419,0,0,0,0,0,0,0,-1,1938,1366,172.881,-39.0418
721,-342,22.4666,6.08679,0,0,0,0,0,0,0,-1,1945,1366,22.4666,-6.08678
728,-342,19.8912,5.26636,0,0,0,0,0,0,0,-1,1952,1366,19.8913,-5.26636
735,-342,19.481,4.41968,0,0,0,0,0,0,0,-1,1959,1366,19.4809,-4.41962
742,-342,19.309,2.66943,0,0,0,0,0,0,0,-1,1966,1366,19.3089,-2.66948
749,-342,21.0934,6.47729,0,0,0,0,0,0,0,-1,1973,1366,21.0934,-6.4773
756,-342,0,0,0,0,0,0,0,0,0,-1,1980,1366,0,0
763,-342,0,0,0,0,0,0,0,0,0,-1,1987,1366,0,0
770,-342,0,0,0,0,0,0,0,0,0,-1,1994,1366,0,0
777,-342,0,0,0,0,0,0,0,0,0,-1,2001,1366,0,0
784,-342,0,0,0,0,0,0,0,0,0,-1,2008,1366,0,0
791,-342,0,0,0,0,0,0,0,0,0,-1,2015,1366,0,0
798,-342,0,0,0,0,0,0,0,0,0,-1,2022,1366,0,0
805,-342,0,0,0,0,0,0,0,0,0,-1,2029,1366,0,0
812,-342,0,0,0,0,0,0,0,0,0,-1,2036,1366,0,0
-700,-349,0,0,0,0,0,0,0,0,0,-1,524,1373,0,0
-693,-349,0,0,0,0,0,0,0,0,0,-1,531,1373,0,0
-686,-349,0,0,0,0,0,0,0,0,0,-1,538,1373,0,0
-679,-349,0,0,0,0,0,0,0,0,0,-1,545,1373,0,0
-672,-349,0,0,0,0,0,0,0,0,0,-1,552,1373,0,0
-665,-349,0,0,0,0,0,0,0,0,0,-1,559,1373,0,0
-658,-349,0,0,0,0,0,0,0,0,0,-1,566,1373,0,0
-651,-349,0,0,0,0,0,0,0,0,0,-1,573,1373,0,0
-644,-349,0,0,0,0,0,0,0,0,0,-1,580,1373,0,0
-637,-349,0,0,0,0,0,0,0,0,0,-1,587,1373,0,0
-630,-349,-7.64117,-5.06177,0,0,0,0,0,0,0,-1,594,1373,-7.64118,5.0618
-623,-349,-8.63507,0.51123,0,0,0,0,0,0,0,-1,601,1373,-8.63505,-0.511275
-616,-349,-5.2066,-0.188232,0,0,0,0,0,0,0,-1,608,1373,-5.20659,0.188211
-609,-349,-7.12073,1.37048,0,0,0,0,0,0,0,-1,615,1373,-7.12072,-1.37044
-602,-349,-9.00623,3.39587,0,0,0,0,0,0,0,-1,622,1373,-9.0062,-3.39591
-595,-349,-9.50568,2.96912,0,0,0,0,0,0,0,-1,629,1373,-9.50569,-2.96906
-588,-349,-8.60046,3.56042,0,0,0,0,0,0,0,-1,636,1373,-8.60046,-3.56047
-581,-349,-31.1797,14.1667,0,0,0,0,0,0,0,-1,643,1373,-31.1798,-14.1667
-574,-349,-164.752,38.9536,0,0,0,0,0,0,0,-1,650,1373,-164.752,-38.9536
-567,-349,-164.534,41.345,0.0109305,0.0563385,-0.0238458,0.0665601,0.000708874,-1.16584,0.044139,0.0289331,657,1373,-164.534,-41.345
-560,-349,-164.912,43.788,0.00982933,0.0490494,-0.0252753,0.0614299,-0.00255115,-1.11532,0.0418296,0.0282762,664,1373,-164.912,-43.788
-553,-349,-165.372,46.2412,0.00844406,0.041563,-0.026534,0.0562809,-0.00627379,-1.06437,0.0397771,0.0348646,671,1373,-165.372,-46.2412
-546,-349,-165.807,48.6783,0,0,0,0,0,0,0,-1,678,1373,-165.807,-48.6783
-539,-349,-166.337,51.1755,0,0,0,0,0,0,0,-1,685,1373,-166.337,-51.1756
-532,-349,-80.009,48.7177,0,0,0,0,0,0,0,-1,692,1373,-80.0089,-48.7177
-525,-349,-69.8218,45.8181,0,0,0,0,0,0,0,-1,699,1373,-69.8218,-45.8181
-518,-349,-88.0445,55.7136,0,0,0,0,0,0,0,-1,706,1373,-88.0445,-55.7136
-511,-349,-58.4487,42.8572,0,0,0,0,0,0,0,-1,713,1373,-58.4487,-42.8572
-504,-349,-9.60516,7.88831,0,0,0,0,0,0,0,-1,720,1373,-9.60519,-7.88825
-497,-349,-7.9339,5.58789,0,0,0,0,0,0,0,-1,727,1373,-7.93388,-5.58785
-490,-349,-8.73969,-0.503784,0,0,0,0,0,0,0,-1,734,1373,-8.73966,0.503752
-483,-349,-5.66974,3.7395,0,0,0,0,0,0,0,-1,741,1373,-5.66975,-3.73949
-476,-349,-10.8496,1.15759,0,0,0,0,0,0,0,-1,748,1373,-10.8496,-1.15756
-469,-349,-12.3314,-1.74878,0,0,0,0,0,0,0,-1,755,1373,-12.3314,1.74882
-462,-349,-12.6559,-0.995361,0,0,0,0,0,0,0,-1,762,1373,-12.656,0.995351
-455,-349,-13.2897,-0.234253,0,0,0,0,0,0,0,-1,769,1373,-13.2897,0.234261
-448,-349,-14.045,0.712891,0,0,0,0,0,0,0,-1,776,1373,-14.045,-0.712838
-441,-349,0,0,0,0,0,0,0,0,0,-1,783,1373,0,0
-434,-349,0,0,0,0,0,0,0,0,0,-1,790,1373,0,0
-427,-349,0,0,0,0,0,0,0,0,0,-1,797,1373,0,0
-420,-349,0,0,0,0,0,0,0,0,0,-1,804,1373,0,0
-413,-349,0,0,0,0,0,0,0,0,0,-1,811,1373,0,0
-406,-349,0,0,0,0,0,0,0,0,0,-1,818,1373,0,0
-399,-349,0,0,0,0,0,0,0,0,0,-1,825,1373,0,0
-392,-349,0,0,0,0,0,0,0,0,0,-1,832,1373,0,0
-385,-349,0,0,0,0,0,0,0,0,0,-1,839,1373,0,0
-378,-349,0,0,0,0,0,0,0,0,0,-1,846,1373,0,0
-371,-349,0,0,0,0,0,0,0,0,0,-1,853,1373,0,0
-364,-349,0,0,0,0,0,0,0,0,0,-1,860,1373,0,0
-357,-349,0,0,0,0,0,0,0,0,0,-1,867,1373,0,0
-350,-349,0,0,0,0,0,0,0,0,0,-1,874,1373,0,0
-343,-349,0,0,0,0,0,0,0,0,0,-1,881,1373,0,0
-336,-349,0,0,0,0,0,0,0,0,0,-1,888,1373,0,0
-329,-349,0,0,0,0,0,0,0,0,0,-1,895,1373,0,0
-322,-349,0,0,0,0,0,0,0,0,0,-1,902,1373,0,0
-315,-349,0,0,0,0,0,0,0,0,0,-1,909,1373,0,0
-308,-349,0,0,0,0,0,0,0,0,0,-1,916,1373,0,0
-301,-349,0,0,0,0,0,0,0,0,0,-1,923,1373,0,0
-294,-349,0,0,0,0,0,0,0,0,0,-1,930,1373,0,0
-287,-349,0,0,0,0,0,0,0,0,0,-1,937,1373,0,0
-280,-349,0,0,0,0,0,0,0,0,0,-1,944,1373,0,0
-273,-349,0,0,0,0,0,0,0,0,0,-1,951,1373,0,0
-266,-349,0,0,0,0,0,0,0,0,0,-1,958,1373,0,0
-259,-349,0,0,0,0,0,0,0,0,0,-1,965,1373,0,0
-252,-349,0,0,0,0,0,0,0,0,0,-1,972,1373,0,0
-245,-349,0,0,0,0,0,0,0,0,0,-1,979,1373,0,0
-238,-349,0,0,0,0,0,0,0,0,0,-1,986,1373,0,0
-231,-349,0,0,0,0,0,0,0,0,0,-1,993,1373,0,0
-224,-349,0,0,0,0,0,0,0,0,0,-1,1000,1373,0,0
-217,-349,0,0,0,0,0,0,0,0,0,-1,1007,1373,0,0
-210,-349,0,0,0,0,0,0,0,0,0,-1,1014,1373,0,0
-203,-349,0,0,0,0,0,0,0,0,0,-1,1021,1373,0,0
-196,-349,0,0,0,0,0,0,0,0,0,-1,1028,1373,0,0
-189,-349,0,0,0,0,0,0,0,0,0,-1,1035,1373,0,0
-182,-349,0,0,0,0,0,0,0,0,0,-1,1042,1373,0,0
-175,-349,0,0,0,0,0,0,0,0,0,-1,1049,1373,0,0
-168,-349,0,0,0,0,0,0,0,0,0,-1,1056,1373,0,0
-161,-349,0,0,0,0,0,0,0,0,0,-1,1063,1373,0,0
-154,-349,0,0,0,0,0,0,0,0,0,-1,1070,1373,0,0
-147,-349,0,0,0,0,0,0,0,0,0,-1,1077,1373,0,0
-140,-349,0,0,0,0,0,0,0,0,0,-1,1084,1373,0,0
-133,-349,0,0,0,0,0,0,0,0,0,-1,1091,1373,0,0
-126,-349,0,0,0,0,0,0,0,0,0,-1,1098,1373,0,0
-119,-349,0,0,0,0,0,0,0,0,0,-1,1105,1373,0,0
-112,-349,0,0,0,0,0,0,0,0,0,-1,1112,1373,0,0
-105,-349,0,0,0,0,0,0,0,0,0,-1,1119,1373,0,0
-98,-349,0,0,0,0,0,0,0,0,0,-1,1126,1373,0,0
-91,-349,0,0,0,0,0,0,0,0,0,-1,1133,1373,0,0
-84,-349,0,0,0,0,0,0,0,0,0,-1,1140,1373,0,0
-77,-349,0,0,0,0,0,0,0,0,0,-1,1147,1373,0,0
-70,-349,0,0,0,0,0,0,0,0,0,-1,1154,1373,0,0
-63,-349,0,0,0,0,0,0,0,0,0,-1,1161,1373,0,0
-56,-349,0,0,0,0,0,0,0,0,0,-1,1168,1373,0,0
-49,-349,0,0,0,0,0,0,0,0,0,-1,1175,1373,0,0
-42,-349,0,0,0,0,0,0,0,0,0,-1,1182,1373,0,0
-35,-349,0,0,0,0,0,0,0,0,0,-1,1189,1373,0,0
-28,-349,0,0,0,0,0,0,0,0,0,-1,1196,1373,0,0
-21,-349,0,0,0,0,0,0,0,0,0,-1,1203,1373,0,0
-14,-349,0,0,0,0,0,0,0,0,0,-1,1210,1373,0,0
-7,-349,0,0,0,0,0,0,0,0,0,-1,1217,1373,0,0
0,-349,0,0,0,0,0,0,0,0,0,-1,1224,1373,0,0
7,-349,0,0,0,0,0,0,0,0,0,-1,1231,1373,0,0
14,-349,0,0,0,0,0,0,0,0,0,-1,1238,1373,0,0
21,-349,0,0,0,0,0,0,0,0,0,-1,1245,1373,0,0
28,-349,0,0,0,0,0,0,0,0,0,-1,1252,1373,0,0
35,-349,0,0,0,0,0,0,0,0,0,-1,1259,1373,0,0
42,-349,0,0,0,0,0,0,0,0,0,-1,1266,1373,0,0
49,-349,0,0,0,0,0,0,0,0,0,-1,1273,1373,0,0
56,-349,0,0,0,0,0,0,0,0,0,-1,1280,1373,0,0
63,-349,0,0,0,0,0,0,0,0,0,-1,1287,1373,0,0
70,-349,0,0,0,0,0,0,0,0,0,-1,1294,1373,0,0
77,-349,0,0,0,0,0,0,0,0,0,-1,1301,1373,0,0
84,-349,0,0,0,0,0,0,0,0,0,-1,1308,1373,0,0
91,-349,0,0,0,0,0,0,0,0,0,-1,1315,1373,0,0
98,-349,0,0,0,0,0,0,0,0,0,-1,1322,1373,0,0
105,-349,0,0,0,0,0,0,0,0,0,-1,1329,1373,0,0
112,-349,0,0,0,0,0,0,0,0,0,-1,1336,1373,0,0
119,-349,0,0,0,0,0,0,0,0,0,-1,1343,1373,0,0
126,-349,0,0,0,0,0,0,0,0,0,-1,1350,1373,0,0
133,-349,0,0,0,0,0,0,0,0,0,-1,1357,1373,0,0
140,-349,0,0,0,0,0,0,0,0,0,-1,1364,1373,0,0
147,-349,0,0,0,0,0,0,0,0,0,-1,1371,1373,0,0
154,-349,0,0,0,0,0,0,0,0,0,-1,1378,1373,0,0
161,-349,0,0,0,0,0,0,0,0,0,-1,1385,1373,0,0
168,-349,0,0,0,0,0,0,0,0,0,-1,1392,1373,0,0
175,-349,0,0,0,0,0,0,0,0,0,-1,1399,1373,0,0
182,-349,0,0,0,0,0,0,0,0,0,-1,1406,1373,0,0
189,-349,0,0,0,0,0,0,0,0,0,-1,1413,1373,0,0
196,-349,0,0,0,0,0,0,0,0,0,-1,1420,1373,0,0
203,-349,0,0,0,0,0,0,0,0,0,-1,1427,1373,0,0
210,-349,0,0,0,0,0,0,0,0,0,-1,1434,1373,0,0
217,-349,0,0,0,0,0,0,0,0,0,-1,1441,1373,0,0
224,-349,0,0,0,0,0,0,0,0,0,-1,1448,1373,0,0
231,-349,0,0,0,0,0,0,0,0,0,-1,1455,1373,0,0
238,-349,0,0,0,0,0,0,0,0,0,-1,1462,1373,0,0
245,-349,0,0,0,0,0,0,0,0,0,-1,1469,1373,0,0
252,-349,0,0,0,0,0,0,0,0,0,-1,1476,1373,0,0
259,-349,0,0,0,0,0,0,0,0,0,-1,1483,1373,0,0
266,-349,0,0,0,0,0,0,0,0,0,-1,1490,1373,0,0
273,-349,0,0,0,0,0,0,0,0,0,-1,1497,1373,0,0
280,-349,0,0,0,0,0,0,0,0,0,-1,1504,1373,0,0
287,-349,0,0,0,0,0,0,0,0,0,-1,1511,1373,0,0
294,-349,0,0,0,0,0,0,0,0,0,-1,1518,1373,0,0
301,-349,0,0,0,0,0,0,0,0,0,-1,1525,1373,0,0
308,-349,0,0,0,0,0,0,0,0,0,-1,1532,1373,0,0
315,-349,0,0,0,0,0,0,0,0,0,-1,1539,1373,0,0
322,-349,0,0,0,0,0,0,0,0,0,-1,1546,1373,0,0
329,-349,0,0,0,0,0,0,0,0,0,-1,1553,1373,0,0
336,-349,0,0,0,0,0,0,0,0,0,-1,1560,1373,0,0
343,-349,0,0,0,0,0,0,0,0,0,-1,1567,1373,0,0
350,-349,0,0,0,0,0,0,0,0,0,-1,1574,1373,0,0
357,-349,0,0,0,0,0,0,0,0,0,-1,1581,1373,0,0
364,-349,0,0,0,0,0,0,0,0,0,-1,1588,1373,0,0
371,-349,0,0,0,0,0,0,0,0,0,-1,1595,1373,0,0
378,-349,0,0,0,0,0,0,0,0,0,-1,1602,1373,0,0
385,-349,0,0,0,0,0,0,0,0,0,-1,1609,1373,0,0
392,-349,0,0,0,0,0,0,0,0,0,-1,1616,1373,0,0
399,-349,0,0,0,0,0,0,0,0,0,-1,1623,1373,0,0
406,-349,0,0,0,0,0,0,0,0,0,-1,1630,1373,0,0
413,-349,0,0,0,0,0,0,0,0,0,-1,1637,1373,0,0
420,-349,0,0,0,0,0,0,0,0,0,-1,1644,1373,0,0
427,-349,0,0,0,0,0,0,0,0,0,-1,1651,1373,0,0
434,-349,0,0,0,0,0,0,0,0,0,-1,1658,1373,0,0
441,-349,0,0,0,0,0,0,0,0,0,-1,1665,1373,0,0
448,-349,0,0,0,0,0,0,0,0,0,-1,1672,1373,0,0
455,-349,0,0,0,0,0,0,0,0,0,-1,1679,1373,0,0
462,-349,0,0,0,0,0,0,0,0,0,-1,1686,1373,0,0
469,-349,0,0,0,0,0,0,0,0,0,-1,1693,1373,0,0
476,-349,0,0,0,0,0,0,0,0,0,-1,1700,1373,0,0
483,-349,0,0,0,0,0,0,0,0,0,-1,1707,1373,0,0
490,-349,0,0,0,0,0,0,0,0,0,-1,1714,1373,0,0
497,-349,0,0,0,0,0,0,0,0,0,-1,1721,1373,0,0
504,-349,0,0,0,0,0,0,0,0,0,-1,1728,1373,0,0
511,-349,0,0,0,0,0,0,0,0,0,-1,1735,1373,0,0
518,-349,0,0,0,0,0,0,0,0,0,-1,1742,1373,0,0
525,-349,0,0,0,0,0,0,0,0,0,-1,1749,1373,0,0
532,-349,0,0,0,0,0,0,0,0,0,-1,1756,1373,0,0
539,-349,0,0,0,0,0,0,0,0,0,-1,1763,1373,0,0
546,-349,0,0,0,0,0,0,0,0,0,-1,1770,1373,0,0
553,-349,0,0,0,0,0,0,0,0,0,-1,1777,1373,0,0
560,-349,63.5519,3.94397,0,0,0,0,0,0,0,-1,1784,1373,63.5519,-3.94394
567,-349,64.7863,2.54688,0,0,0,0,0,0,0,-1,1791,1373,64.7863,-2.5469
574,-349,65.8214,1.63818,0,0,0,0,0,0,0,-1,1798,1373,65.8214,-1.63813
581,-349,42.8947,6.78381,0,0,0,0,0,0,0,-1,1805,1373,42.8946,-6.78376
588,-349,44.8121,5.06213,0,0,0,0,0,0,0,-1,1812,1373,44.8121,-5.06215
595,-349,44.4338,6.14099,0,0,0,0,0,0,0,-1,1819,1373,44.4338,-6.14095
602,-349,35.6641,3.26465,0,0,0,0,0,0,0,-1,1826,1373,35.6641,-3.26468
609,-349,34.7175,4.401,0,0,0,0,0,0,0,-1,1833,1373,34.7175,-4.40096
616,-349,27.1451,6.68274,0,0,0,0,0,0,0,-1,1840,1373,27.1451,-6.6828
623,-349,18.8478,2.75769,0,0,0,0,0,0,0,-1,1847,1373,18.8478,-2.75774
630,-349,15.4948,6.47644,0,0,0,0,0,0,0,-1,1854,1373,15.4947,-6.4765
637,-349,16.5161,6.92639,0,0,0,0,0,0,0,-1,1861,1373,16.5161,-6.92636
644,-349,44.2694,19.8312,0,0,0,0,0,0,0,-1,1868,1373,44.2695,-19.8311
651,-349,78.9188,43.9373,0,0,0,0,0,0,0,-1,1875,1373,78.9188,-43.9372
658,-349,87.4794,48.3646,0,0,0,0,0,0,0,-1,1882,1373,87.4794,-48.3647
665,-349,170.717,56.6558,0,0,0,0,0,0,0,-1,1889,1373,170.717,-56.6558
672,-349,172.876,54.3209,0,0,0,0,0,0,0,-1,1896,1373,172.876,-54.3209
679,-349,172.384,51.8003,-0.0072971,0.021047,0.019643,0.0310968,-0.0173468,1.0979,0.028342,0.0222281,1903,1373,172.384,-51.8002
686,-349,171.863,49.2234,-0.00571521,0.0268437,0.0228051,0.0385838,-0.0174553,1.09538,0.0331118,0.0248851,1910,1373,171.863,-49.2234
693,-349,171.52,46.785,-0.00408002,0.0328034,0.0260324,0.0462645,-0.017541,1.09357,0.038062,0.0262787,1917,1373,171.52,-46.7851
700,-349,171.011,44.4332,-0.00241921,0.0388551,0.0293284,0.0540794,-0.0176435,1.09199,0.0431536,0.0229683,1924,1373,171.011,-44.4332
707,-349,170.542,42.0712,0,0,0,0,0,0,0,-1,1931,1373,170.542,-42.0712
714,-349,65.1287,22.8026,0,0,0,0,0,0,0,-1,1938,1373,65.1287,-22.8026
721,-349,19.6688,5.93604,0,0,0,0,0,0,0,-1,1945,1373,19.6688,-5.93606
728,-349,18.6333,3.73218,0,0,0,0,0,0,0,-1,1952,1373,18.6333,-3.73214
735,-349,18.1918,3.39954,0,0,0,0,0,0,0,-1,1959,1373,18.1918,-3.3995
742,-349,20.7345,2.07483,0,0,0,0,0,0,0,-1,1966,1373,20.7345,-2.07485
749,-349,21.9037,1.45789,0,0,0,0,0,0,0,-1,1973,1373,21.9037,-1.45788
756,-349,0,0,0,0,0,0,0,0,0,-1,1980,1373,0,0
763,-349,0,0,0,0,0,0,0,0,0,-1,1987,1373,0,0
770,-349,0,0,0,0,0,0,0,0,0,-1,1994,1373,0,0
777,-349,0,0,0,0,0,0,0,0,0,-1,2001,1373,0,0
784,-349,0,0,0,0,0,0,0,0,0,-1,2008,1373,0,0
791,-349,0,0,0,0,0,0,0,0,0,-1,2015,1373,0,0
798,-349,0,0,0,0,0,0,0,0,0,-1,2022,1373,0,0
805,-349,0,0,0,0,0,0,0,0,0,-1,2029,1373,0,0
812,-349,0,0,0,0,0,0,0,0,0,-1,2036,1373,0,0
-700,-356,0,0,0,0,0,0,0,0,0,-1,524,1380,0,0
-693,-356,0,0,0,0,0,0,0,0,0,-1,531,1380,0,0
-686,-356,0,0,0,0,0,0,0,0,0,-1,538,1380,0,0
-679,-356,0,0,0,0,0,0,0,0,0,-1,545,1380,0,0
-672,-356,0,0,0,0,0,0,0,0,0,-1,552,1380,0,0
-665,-356,0,0,0,0,0,0,0,0,0,-1,559,1380,0,0
-658,-356,0,0,0,0,0,0,0,0,0,-1,566,1380,0,0
-651,-356,0,0,0,0,0,0,0,0,0,-1,573,1380,0,0
-644,-356,0,0,0,0,0,0,0,0,0,-1,580,1380,0,0
-637,-356,0,0,0,0,0,0,0,0,0,-1,587,1380,0,0
-630,-356,-8.23126,-5.01917,0,0,0,0,0,0,0,-1,594,1380,-8.23124,5.0192
-623,-356,-0.263855,-0.675781,0,0,0,0,0,0,0,-1,601,1380,-0.263835,0.675841
-616,-356,-8.26532,-3.43945,0,0,0,0,0,0,0,-1,608,1380,-8.2653,3.43948
-609,-356,-4.88483,0.734497,0,0,0,0,0,0,0,-1,615,1380,-4.88485,-0.734532
-602,-356,-9.06635,2.4021,0,0,0,0,0,0,0,-1,622,1380,-9.06634,-2.40206
-595,-356,-8.45703,3.61853,0,0,0,0,0,0,0,-1,629,1380,-8.45706,-3.61848
-588,-356,-9.31738,4.14258,0,0,0,0,0,0,0,-1,636,1380,-9.31736,-4.14255
-581,-356,-16.5185,7.32312,0,0,0,0,0,0,0,-1,643,1380,-16.5185,-7.32306
-574,-356,-161.551,38.9688,0,0,0,0,0,0,0,-1,650,1380,-161.551,-38.9688
-567,-356,-161.709,41.4547,0.0135262,0.0610522,-0.0237382,0.0708776,0.00370073,-1.17836,0.0460677,0.0468669,657,1380,-161.709,-41.4547
-560,-356,-161.979,44.0394,0.0115344,0.0536553,-0.025331,0.0655373,-0.000347584,-1.1322,0.0438079,0.0301561,664,1380,-161.979,-44.0394
-553,-356,-162.363,46.5469,0.00945706,0.0461548,-0.0266846,0.0601903,-0.00457845,-1.08658,0.0417368,0.0334332,671,1380,-162.363,-46.5469
-546,-356,-162.976,49.0254,0.0077051,0.0389651,-0.0276058,0.0550585,-0.00838833,-1.04299,0.0397975,0.0333384,678,1380,-162.976,-49.0255
-539,-356,-163.228,51.6395,0.00610815,0.0319836,-0.0282103,0.0500814,-0.0119897,-1.0004,0.0380197,0.0404064,685,1380,-163.228,-51.6395
-532,-356,-163.471,54.4799,0,0,0,0,0,0,0,-1,692,1380,-163.471,-54.4798
-525,-356,-93.0189,56.4785,0,0,0,0,0,0,0,-1,699,1380,-93.0188,-56.4785
-518,-356,-93.6779,58.5238,0,0,0,0,0,0,0,-1,706,1380,-93.6779,-58.5238
-511,-356,-86.5028,58.0922,0,0,0,0,0,0,0,-1,713,1380,-86.5028,-58.0921
-504,-356,-14.3925,12.3971,0,0,0,0,0,0,0,-1,720,1380,-14.3925,-12.3971
-497,-356,-5.68604,4.96387,0,0,0,0,0,0,0,-1,727,1380,-5.68605,-4.96385
-490,-356,-7.95288,5.5625,0,0,0,0,0,0,0,-1,734,1380,-7.95285,-5.56246
-483,-356,-7.2627,4.07446,0,0,0,0,0,0,0,-1,741,1380,-7.2627,-4.07441
-476,-356,-5.1936,4.16016,0,0,0,0,0,0,0,-1,748,1380,-5.1936,-4.16012
-469,-356,-10.0883,0.536011,0,0,0,0,0,0,0,-1,755,1380,-10.0883,-0.535989
-462,-356,-12.3481,-0.215698,0,0,0,0,0,0,0,-1,762,1380,-12.3481,0.215641
-455,-356,-13.1367,-0.264648,0,0,0,0,0,0,0,-1,769,1380,-13.1367,0.264647
-448,-356,-13.9116,-0.310181,0,0,0,0,0,0,0,-1,776,1380,-13.9115,0.310207
-441,-356,-13.1602,3.05603,0,0,0,0,0,0,0,-1,783,1380,-13.1602,-3.05609
-434,-356,0,0,0,0,0,0,0,0,0,-1,790,1380,0,0
-427,-356,0,0,0,0,0,0,0,0,0,-1,797,1380,0,0
-420,-356,0,0,0,0,0,0,0,0,0,-1,804,1380,0,0
-413,-356,0,0,0,0,0,0,0,0,0,-1,811,1380,0,0
-406,-356,0,0,0,0,0,0,0,0,0,-1,818,1380,0,0
-399,-356,0,0,0,0,0,0,0,0,0,-1,825,1380,0,0
-392,-356,0,0,0,0,0,0,0,0,0,-1,832,1380,0,0
-385,-356,0,0,0,0,0,0,0,0,0,-1,839,1380,0,0
-378,-356,0,0,0,0,0,0,0,0,0,-1,846,1380,0,0
-371,-356,0,0,0,0,0,0,0,0,0,-1,853,1380,0,0
-364,-356,0,0,0,0,0,0,0,0,0,-1,860,1380,0,0
-357,-356,0,0,0,0,0,0,0,0,0,-1,867,1380,0,0
-350,-356,0,0,0,0,0,0,0,0,0,-1,874,1380,0,0
-343,-356,0,0,0,0,0,0,0,0,0,-1,881,1380,0,0
-336,-356,0,0,0,0,0,0,0,0,0,-1,888,1380,0,0
-329,-356,0,0,0,0,0,0,0,0,0,-1,895,1380,0,0
-322,-356,0,0,0,0,0,0,0,0,0,-1,902,1380,0,0
-315,-356,0,0,0,0,0,0,0,0,0,-1,909,1380,0,0
-308,-356,0,0,0,0,0,0,0,0,0,-1,916,1380,0,0
-301,-356,0,0,0,0,0,0,0,0,0,-1,923,1380,0,0
-294,-356,0,0,0,0,0,0,0,0,0,-1,930,1380,0,0
-287,-356,0,0,0,0,0,0,0,0,0,-1,937,1380,0,0
-280,-356,0,0,0,0,0,0,0,0,0,-1,944,1380,0,0
-273,-356,0,0,0,0,0,0,0,0,0,-1,951,1380,0,0
-266,-356,0,0,0,0,0,0,0,0,0,-1,958,1380,0,0
-259,-356,0,0,0,0,0,0,0,0,0,-1,965,1380,0,0
-252,-356,0,0,0,0,0,0,0,0,0,-1,972,1380,0,0
-245,-356,0,0,0,0,0,0,0,0,0,-1,979,1380,0,0
-238,-356,0,0,0,0,0,0,0,0,0,-1,986,1380,0,0
-231,-356,0,0,0,0,0,0,0,0,0,-1,993,1380,0,0
-224,-356,0,0,0,0,0,0,0,0,0,-1,1000,1380,0,0
-217,-356,0,0,0,0,0,0,0,0,0,-1,1007,1380,0,0
-210,-356,0,0,0,0,0,0,0,0,0,-1,1014,1380,0,0
-203,-356,0,0,0,0,0,0,0,0,0,-1,1021,1380,0,0
-196,-356,0,0,0,0,0,0,0,0,0,-1,1028,1380,0,0
-189,-356,0,0,0,0,0,0,0,0,0,-1,1035,1380,0,0
-182,-356,0,0,0,0,0,0,0,0,0,-1,1042,1380,0,0
-175,-356,0,0,0,0,0,0,0,0,0,-1,1049,1380,0,0
-168,-356,0,0,0,0,0,0,0,0,0,-1,1056,1380,0,0
-161,-356,0,0,0,0,0,0,0,0,0,-1,1063,1380,0,0
-154,-356,0,0,0,0,0,0,0,0,0,-1,1070,1380,0,0
-147,-356,0,0,0,0,0,0,0,0,0,-1,1077,1380,0,0
-140,-356,0,0,0,0,0,0,0,0,0,-1,1084,1380,0,0
-133,-356,0,0,0,0,0,0,0,0,0,-1,1091,1380,0,0
-126,-356,0,0,0,0,0,0,0,0,0,-1,1098,1380,0,0
-119,-356,0,0,0,0,0,0,0,0,0,-1,1105,1380,0,0
-112,-356,0,0,0,0,0,0,0,0,0,-1,1112,1380,0,0
-105,-356,0,0,0,0,0,0,0,0,0,-1,1119,1380,0,0
-98,-356,0,0,0,0,0,0,0,0,0,-1,1126,1380,0,0
-91,-356,0,0,0,0,0,0,0,0,0,-1,1133,1380,0,0
-84,-356,0,0,0,0,0,0,0,0,0,-1,1140,1380,0,0
-77,-356,0,0,0,0,0,0,0,0,0,-1,1147,1380,0,0
-70,-356,0,0,0,0,0,0,0,0,0,-1,1154,1380,0,0
-63,-356,0,0,0,0,0,0,0,0,0,-1,1161,1380,0,0
-56,-356,0,0,0,0,0,0,0,0,0,-1,1168,1380,0,0
-49,-356,0,0,0,0,0,0,0,0,0,-1,1175,1380,0,0
-42,-356,0,0,0,0,0,0,0,0,0,-1,1182,1380,0,0
-35,-356,0,0,0,0,0,0,0,0,0,-1,1189,1380,0,0
-28,-356,0,0,0,0,0,0,0,0,0,-1,1196,1380,0,0
-21,-356,0,0,0,0,0,0,0,0,0,-1,1203,1380,0,0
-14,-356,0,0,0,0,0,0,0,0,0,-1,1210,1380,0,0
-7,-356,0,0,0,0,0,0,0,0,0,-1,1217,1380,0,0
0,-356,0,0,0,0,0,0,0,0,0,-1,1224,1380,0,0
7,-356,0,0,0,0,0,0,0,0,0,-1,1231,1380,0,0
14,-356,0,0,0,0,0,0,0,0,0,-1,1238,1380,0,0
21,-356,0,0,0,0,0,0,0,0,0,-1,1245,1380,0,0
28,-356,0,0,0,0,0,0,0,0,0,-1,1252,1380,0,0
35,-356,0,0,0,0,0,0,0,0,0,-1,1259,1380,0,0
42,-356,0,0,0,0,0,0,0,0,0,-1,1266,1380,0,0
49,-356,0,0,0,0,0,0,0,0,0,-1,1273,1380,0,0
56,-356,0,0,0,0,0,0,0,0,0,-1,1280,1380,0,0
63,-356,0,0,0,0,0,0,0,0,0,-1,1287,1380,0,0
70,-356,0,0,0,0,0,0,0,0,0,-1,1294,1380,0,0
77,-356,0,0,0,0,0,0,0,0,0,-1,1301,1380,0,0
84,-356,0,0,0,0,0,0,0,0,0,-1,1308,1380,0,0
91,-356,0,0,0,0,0,0,0,0,0,-1,1315,1380,0,0
98,-356,0,0,0,0,0,0,0,0,0,-1,1322,1380,0,0
105,-356,0,0,0,0,0,0,0,0,0,-1,1329,1380,0,0
112,-356,0,0,0,0,0,0,0,0,0,-1,1336,1380,0,0
119,-356,0,0,0,0,0,0,0,0,0,-1,1343,1380,0,0
126,-356,0,0,0,0,0,0,0,0,0,-1,1350,1380,0,0
133,-356,0,0,0,0,0,0,0,0,0,-1,1357,1380,0,0
140,-356,0,0,0,0,0,0,0,0,0,-1,1364,1380,0,0
147,-356,0,0,0,0,0,0,0,0,0,-1,1371,1380,0,0
154,-356,0,0,0,0,0,0,0,0,0,-1,1378,1380,0,0
161,-356,0,0,0,0,0,0,0,0,0,-1,1385,1380,0,0
168,-356,0,0,0,0,0,0,0,0,0,-1,1392,1380,0,0
175,-356,0,0,0,0,0,0,0,0,0,-1,1399,1380,0,0
182,-356,0,0,0,0,0,0,0,0,0,-1,1406,1380,0,0
189,-356,0,0,0,0,0,0,0,0,0,-1,1413,1380,0,0
196,-356,0,0,0,0,0,0,0,0,0,-1,1420,1380,0,0
203,-356,0,0,0,0,0,0,0,0,0,-1,1427,1380,0,0
210,-356,0,0,0,0,0,0,0,0,0,-1,1434,1380,0,0
217,-356,0,0,0,0,0,0,0,0,0,-1,1441,1380,0,0
224,-356,0,0,0,0,0,0,0,0,0,-1,1448,1380,0,0
231,-356,0,0,0,0,0,0,0,0,0,-1,1455,1380,0,0
238,-356,0,0,0,0,0,0,0,0,0,-1,1462,1380,0,0
245,-356,0,0,0,0,0,0,0,0,0,-1,1469,1380,0,0
252,-356,0,0,0,0,0,0,0,0,0,-1,1476,1380,0,0
259,-356,0,0,0,0,0,0,0,0,0,-1,1483,1380,0,0
266,-356,0,0,0,0,0,0,0,0,0,-1,1490,1380,0,0
273,-356,0,0,0,0,0,0,0,0,0,-1,1497,1380,0,0
280,-356,0,0,0,0,0,0,0,0,0,-1,1504,1380,0,0
287,-356,0,0,0,0,0,0,0,0,0,-1,1511,1380,0,0
294,-356,0,0,0,0,0,0,0,0,0,-1,1518,1380,0,0
301,-356,0,0,0,0,0,0,0,0,0,-1,1525,1380,0,0
308,-356,0,0,0,0,0,0,0,0,0,-1,1532,1380,0,0
315,-356,0,0,0,0,0,0,0,0,0,-1,1539,1380,0,0
322,-356,0,0,0,0,0,0,0,0,0,-1,1546,1380,0,0
329,-356,0,0,0,0,0,0,0,0,0,-1,1553,1380,0,0
336,-356,0,0,0,0,0,0,0,0,0,-1,1560,1380,0,0
343,-356,0,0,0,0,0,0,0,0,0,-1,1567,1380,0,0
350,-356,0,0,0,0,0,0,0,0,0,-1,1574,1380,0,0
357,-356,0,0,0,0,0,0,0,0,0,-1,1581,1380,0,0
364,-356,0,0,0,0,0,0,0,0,0,-1,1588,1380,0,0
371,-356,0,0,0,0,0,0,0,0,0,-1,1595,1380,0,0
378,-356,0,0,0,0,0,0,0,0,0,-1,1602,1380,0,0
385,-356,0,0,0,0,0,0,0,0,0,-1,1609,1380,0,0
392,-356,0,0,0,0,0,0,0,0,0,-1,1616,1380,0,0
399,-356,0,0,0,0,0,0,0,0,0,-1,1623,1380,0,0
406,-356,0,0,0,0,0,0,0,0,0,-1,1630,1380,0,0
413,-356,0,0,0,0,0,0,0,0,0,-1,1637,1380,0,0
420,-356,0,0,0,0,0,0,0,0,0,-1,1644,1380,0,0
427,-356,0,0,0,0,0,0,0,0,0,-1,1651,1380,0,0
434,-356,0,0,0,0,0,0,0,0,0,-1,1658,1380,0,0
441,-356,0,0,0,0,0,0,0,0,0,-1,1665,1380,0,0
448,-356,0,0,0,0,0,0,0,0,0,-1,1672,1380,0,0
455,-356,0,0,0,0,0,0,0,0,0,-1,1679,1380,0,0
462,-356,0,0,0,0,0,0,0,0,0,-1,1686,1380,0,0
469,-356,0,0,0,0,0,0,0,0,0,-1,1693,1380,0,0
476,-356,0,0,0,0,0,0,0,0,0,-1,1700,1380,0,0
483,-356,0,0,0,0,0,0,0,0,0,-1,1707,1380,0,0
490,-356,0,0,0,0,0,0,0,0,0,-1,1714,1380,0,0
497,-356,0,0,0,0,0,0,0,0,0,-1,1721,1380,0,0
504,-356,0,0,0,0,0,0,0,0,0,-1,1728,1380,0,0
511,-356,0,0,0,0,0,0,0,0,0,-1,1735,1380,0,0
518,-356,0,0,0,0,0,0,0,0,0,-1,1742,1380,0,0
525,-356,0,0,0,0,0,0,0,0,0,-1,1749,1380,0,0
532,-356,0,0,0,0,0,0,0,0,0,-1,1756,1380,0,0
539,-356,0,0,0,0,0,0,0,0,0,-1,1763,1380,0,0
546,-356,0,0,0,0,0,0,0,0,0,-1,1770,1380,0,0
553,-356,0,0,0,0,0,0,0,0,0,-1,1777,1380,0,0
560,-356,63.6171,3.12183,0,0,0,0,0,0,0,-1,1784,1380,63.617,-3.12183
567,-356,65.0425,1.89966,0,0,0,0,0,0,0,-1,1791,1380,65.0424,-1.8996
574,-356,45.5742,3.39575,0,0,0,0,0,0,0,-1,1798,1380,45.5742,-3.39574
581,-356,45.6708,3.64172,0,0,0,0,0,0,0,-1,1805,1380,45.6707,-3.64175
588,-356,44.4739,4.87085,0,0,0,0,0,0,0,-1,1812,1380,44.4739,-4.87086
595,-356,32.0834,5.86084,0,0,0,0,0,0,0,-1,1819,1380,32.0834,-5.86079
602,-356,30.1604,6.07104,0,0,0,0,0,0,0,-1,1826,1380,30.1604,-6.07104
609,-356,28.3435,6.48901,0,0,0,0,0,0,0,-1,1833,1380,28.3435,-6.48899
616,-356,26.9358,6.80872,0,0,0,0,0,0,0,-1,1840,1380,26.9358,-6.80877
623,-356,16.1803,1.07532,0,0,0,0,0,0,0,-1,1847,1380,16.1803,-1.07529
630,-356,16.4138,6.91553,0,0,0,0,0,0,0,-1,1854,1380,16.4138,-6.9155
637,-356,24.8021,12.0151,0,0,0,0,0,0,0,-1,1861,1380,24.8022,-12.0151
644,-356,80.338,48.7954,0,0,0,0,0,0,0,-1,1868,1380,80.338,-48.7954
651,-356,87.4346,51.2051,0,0,0,0,0,0,0,-1,1875,1380,87.4345,-51.205
658,-356,94.4417,53.7695,0,0,0,0,0,0,0,-1,1882,1380,94.4416,-53.7695
665,-356,170.501,57.6373,0,0,0,0,0,0,0,-1,1889,1380,170.501,-57.6373
672,-356,170.018,54.9047,-0.00750637,0.0190373,0.0196228,0.029455,-0.0179241,1.08274,0.027623,0.0353599,1896,1380,170.018,-54.9046
679,-356,169.501,52.2153,-0.00598963,0.024228,0.0223057,0.0360602,-0.0178219,1.08308,0.0316973,0.0267056,1903,1380,169.502,-52.2153
686,-356,168.816,49.6262,-0.00439819,0.0296448,0.0251487,0.0429909,-0.0177442,1.0829,0.0360611,0.0274549,1910,1380,168.816,-49.6262
693,-356,168.523,47.1653,-0.00272522,0.0352442,0.0281861,0.050243,-0.0177239,1.08177,0.0407103,0.022588,1917,1380,168.523,-47.1653
700,-356,168.216,44.7971,-0.000920833,0.0410984,0.0313161,0.0577996,-0.017622,1.08086,0.0455576,0.0335998,1924,1380,168.216,-44.7971
707,-356,167.929,42.417,0,0,0,0,0,0,0,-1,1931,1380,167.929,-42.4169
714,-356,19.6907,5.82129,0,0,0,0,0,0,0,-1,1938,1380,19.6907,-5.82132
721,-356,17.2948,4.1958,0,0,0,0,0,0,0,-1,1945,1380,17.2948,-4.19584
728,-356,19.1846,2.31519,0,0,0,0,0,0,0,-1,1952,1380,19.1846,-2.31514
735,-356,20.0731,2.50842,0,0,0,0,0,0,0,-1,1959,1380,20.0731,-2.50844
742,-356,21.0111,2.43762,0,0,0,0,0,0,0,-1,1966,1380,21.0112,-2.43762
749,-356,22.1411,1.83276,0,0,0,0,0,0,0,-1,1973,1380,22.1411,-1.83275
756,-356,0,0,0,0,0,0,0,0,0,-1,1980,1380,0,0
763,-356,0,0,0,0,0,0,0,0,0,-1,1987,1380,0,0
770,-356,0,0,0,0,0,0,0,0,0,-1,1994,1380,0,0
777,-356,0,0,0,0,0,0,0,0,0,-1,2001,1380,0,0
784,-356,0,0,0,0,0,0,0,0,0,-1,2008,1380,0,0
791,-356,0,0,0,0,0,0,0,0,0,-1,2015,1380,0,0
798,-356,0,0,0,0,0,0,0,0,0,-1,2022,1380,0,0
805,-356,0,0,0,0,0,0,0,0,0,-1,2029,1380,0,0
812,-356,0,0,0,0,0,0,0,0,0,-1,2036,1380,0,0
-700,-363,0,0,0,0,0,0,0,0,0,-1,524,1387,0,0
-693,-363,0,0,0,0,0,0,0,0,0,-1,531,1387,0,0
-686,-363,0,0,0,0,0,0,0,0,0,-1,538,1387,0,0
-679,-363,0,0,0,0,0,0,0,0,0,-1,545,1387,0,0
-672,-363,0,0,0,0,0,0,0,0,0,-1,552,1387,0,0
-665,-363,0,0,0,0,0,0,0,0,0,-1,559,1387,0,0
-658,-363,0,0,0,0,0,0,0,0,0,-1,566,1387,0,0
-651,-363,0,0,0,0,0,0,0,0,0,-1,573,1387,0,0
-644,-363,0,0,0,0,0,0,0,0,0,-1,580,1387,0,0
-637,-363,0,0,0,0,0,0,0,0,0,-1,587,1387,0,0
-630,-363,0,0,0,0,0,0,0,0,0,-1,594,1387,0,0
-623,-363,-9.67566,-5.91846,0,0,0,0,0,0,0,-1,601,1387,-9.67563,5.91847
-616,-363,-9.02985,-2.98083,0,0,0,0,0,0,0,-1,608,1387,-9.02987,2.98079
-609,-363,-4.90265,0.195679,0,0,0,0,0,0,0,-1,615,1387,-4.90263,-0.195721
-602,-363,-9.65009,3.5321,0,0,0,0,0,0,0,-1,622,1387,-9.65007,-3.53211
-595,-363,-8.00256,3.48853,0,0,0,0,0,0,0,-1,629,1387,-8.00256,-3.48855
-588,-363,-10.8846,4.49768,0,0,0,0,0,0,0,-1,636,1387,-10.8846,-4.49773
-581,-363,-11.7469,5.15161,0,0,0,0,0,0,0,-1,643,1387,-11.747,-5.15167
-574,-363,-17.8334,8.33801,0,0,0,0,0,0,0,-1,650,1387,-17.8334,-8.33804
-567,-363,-158.893,41.6809,0,0,0,0,0,0,0,-1,657,1387,-158.893,-41.6809
-560,-363,-159.043,44.3101,0.0139318,0.0584911,-0.0257081,0.0702304,0.00219249,-1.14244,0.0461068,0.0271705,664,1387,-159.043,-44.3101
-553,-363,-159.325,46.8728,0.0110769,0.0507255,-0.0272156,0.0645715,-0.00276917,-1.10017,0.0439998,0.0241485,671,1387,-159.325,-46.8728
-546,-363,-159.859,49.4363,0.00888955,0.0435233,-0.0280338,0.0591574,-0.00674456,-1.06207,0.0418679,0.0217183,678,1387,-159.859,-49.4363
-539,-363,-160.249,52.1915,0.00728136,0.0368494,-0.0282501,0.0539501,-0.00981935,-1.02647,0.0396473,0.02879,685,1387,-160.249,-52.1915
-532,-363,-160.77,55.0103,0,0,0,0,0,0,0,-1,692,1387,-160.77,-55.0102
-525,-363,-128.902,61.2649,0,0,0,0,0,0,0,-1,699,1387,-128.902,-61.2649
-518,-363,-91.1656,58.6323,0,0,0,0,0,0,0,-1,706,1387,-91.1656,-58.6323
-511,-363,-91.3474,60.9979,0,0,0,0,0,0,0,-1,713,1387,-91.3474,-60.998
-504,-363,-82.3174,59.6276,0,0,0,0,0,0,0,-1,720,1387,-82.3174,-59.6276
-497,-363,-7.18842,7.29944,0,0,0,0,0,0,0,-1,727,1387,-7.18839,-7.29945
-490,-363,-5.42413,4.6958,0,0,0,0,0,0,0,-1,734,1387,-5.42412,-4.69583
-483,-363,-6.28375,4.1394,0,0,0,0,0,0,0,-1,741,1387,-6.28374,-4.13944
-476,-363,-5.83807,4.31018,0,0,0,0,0,0,0,-1,748,1387,-5.8381,-4.31013
-469,-363,-10.7125,0.697754,0,0,0,0,0,0,0,-1,755,1387,-10.7125,-0.697811
-462,-363,-9.55951,-0.0830078,0,0,0,0,0,0,0,-1,762,1387,-9.55949,0.0830163
-455,-363,-13.1008,-0.290894,0,0,0,0,0,0,0,-1,769,1387,-13.1008,0.290921
-448,-363,-11.7324,2.46606,0,0,0,0,0,0,0,-1,776,1387,-11.7324,-2.46605
-441,-363,-12.4464,2.5354,0,0,0,0,0,0,0,-1,783,1387,-12.4463,-2.53537
-434,-363,-13.6918,2.14661,0,0,0,0,0,0,0,-1,790,1387,-13.6918,-2.14662
-427,-363,0,0,0,0,0,0,0,0,0,-1,797,1387,0,0
-420,-363,0,0,0,0,0,0,0,0,0,-1,804,1387,0,0
-413,-363,0,0,0,0,0,0,0,0,0,-1,811,1387,0,0
-406,-363,0,0,0,0,0,0,0,0,0,-1,818,1387,0,0
-399,-363,0,0,0,0,0,0,0,0,0,-1,825,1387,0,0
-392,-363,0,0,0,0,0,0,0,0,0,-1,832,1387,0,0
-385,-363,0,0,0,0,0,0,0,0,0,-1,839,1387,0,0
-378,-363,0,0,0,0,0,0,0,0,0,-1,846,1387,0,0
-371,-363,0,0,0,0,0,0,0,0,0,-1,853,1387,0,0
-364,-363,0,0,0,0,0,0,0,0,0,-1,860,1387,0,0
-357,-363,0,0,0,0,0,0,0,0,0,-1,867,1387,0,0
-350,-363,0,0,0,0,0,0,0,0,0,-1,874,1387,0,0
-343,-363,0,0,0,0,0,0,0,0,0,-1,881,1387,0,0
-336,-363,0,0,0,0,0,0,0,0,0,-1,888,1387,0,0
-329,-363,0,0,0,0,0,0,0,0,0,-1,895,1387,0,0
-322,-363,0,0,0,0,0,0,0,0,0,-1,902,1387,0,0
-315,-363,0,0,0,0,0,0,0,0,0,-1,909,1387,0,0
-308,-363,0,0,0,0,0,0,0,0,0,-1,916,1387,0,0
-301,-363,0,0,0,0,0,0,0,0,0,-1,923,1387,0,0
-294,-363,0,0,0,0,0,0,0,0,0,-1,930,1387,0,0
-287,-363,0,0,0,0,0,0,0,0,0,-1,937,1387,0,0
-280,-363,0,0,0,0,0,0,0,0,0,-1,944,1387,0,0
-273,-363,0,0,0,0,0,0,0,0,0,-1,951,1387,0,0
-266,-363,0,0,0,0,0,0,0,0,0,-1,958,1387,0,0
-259,-363,0,0,0,0,0,0,0,0,0,-1,965,1387,0,0
-252,-363,0,0,0,0,0,0,0,0,0,-1,972,1387,0,0
-245,-363,0,0,0,0,0,0,0,0,0,-1,979,1387,0,0
-238,-363,0,0,0,0,0,0,0,0,0,-1,986,1387,0,0
-231,-363,0,0,0,0,0,0,0,0,0,-1,993,1387,0,0
-224,-363,0,0,0,0,0,0,0,0,0,-1,1000,1387,0,0
-217,-363,0,0,0,0,0,0,0,0,0,-1,1007,1387,0,0
-210,-363,0,0,0,0,0,0,0,0,0,-1,1014,1387,0,0
-203,-363,0,0,0,0,0,0,0,0,0,-1,1021,1387,0,0
-196,-363,0,0,0,0,0,0,0,0,0,-1,1028,1387,0,0
-189,-363,0,0,0,0,0,0,0,0,0,-1,1035,1387,0,0
-182,-363,0,0,0,0,0,0,0,0,0,-1,1042,1387,0,0
-175,-363,0,0,0,0,0,0,0,0,0,-1,1049,1387,0,0
-168,-363,0,0,0,0,0,0,0,0,0,-1,1056,1387,0,0
-161,-363,0,0,0,0,0,0,0,0,0,-1,1063,1387,0,0
-154,-363,0,0,0,0,0,0,0,0,0,-1,1070,1387,0,0
-147,-363,0,0,0,0,0,0,0,0,0,-1,1077,1387,0,0
-140,-363,0,0,0,0,0,0,0,0,0,-1,1084,1387,0,0
-133,-363,0,0,0,0,0,0,0,0,0,-1,1091,1387,0,0
-126,-363,0,0,0,0,0,0,0,0,0,-1,1098,1387,0,0
-119,-363,0,0,0,0,0,0,0,0,0,-1,1105,1387,0,0
-112,-363,0,0,0,0,0,0,0,0,0,-1,1112,1387,0,0
-105,-363,0,0,0,0,0,0,0,0,0,-1,1119,1387,0,0
-98,-363,0,0,0,0,0,0,0,0,0,-1,1126,1387,0,0
-91,-363,0,0,0,0,0,0,0,0,0,-1,1133,1387,0,0
-84,-363,0,0,0,0,0,0,0,0,0,-1,1140,1387,0,0
-77,-363,0,0,0,0,0,0,0,0,0,-1,1147,1387,0,0
-70,-363,0,0,0,0,0,0,0,0,0,-1,1154,1387,0,0
-63,-363,0,0,0,0,0,0,0,0,0,-1,1161,1387,0,0
-56,-363,0,0,0,0,0,0,0,0,0,-1,1168,1387,0,0
-49,-363,0,0,0,0,0,0,0,0,0,-1,1175,1387,0,0
-42,-363,0,0,0,0,0,0,0,0,0,-1,1182,1387,0,0
-35,-363,0,0,0,0,0,0,0,0,0,-1,1189,1387,0,0
-28,-363,0,0,0,0,0,0,0,0,0,-1,1196,1387,0,0
-21,-363,0,0,0,0,0,0,0,0,0,-1,1203,1387,0,0
-14,-363,0,0,0,0,0,0,0,0,0,-1,1210,1387,0,0
-7,-363,0,0,0,0,0,0,0,0,0,-1,1217,1387,0,0
0,-363,0,0,0,0,0,0,0,0,0,-1,1224,1387,0,0
7,-363,0,0,0,0,0,0,0,0,0,-1,1231,1387,0,0
14,-363,0,0,0,0,0,0,0,0,0,-1,1238,1387,0,0
21,-363,0,0,0,0,0,0,0,0,0,-1,1245,1387,0,0
28,-363,0,0,0,0,0,0,0,0,0,-1,1252,1387,0,0
35,-363,0,0,0,0,0,0,0,0,0,-1,1259,1387,0,0
42,-363,0,0,0,0,0,0,0,0,0,-1,1266,1387,0,0
49,-363,0,0,0,0,0,0,0,0,0,-1,1273,1387,0,0
56,-363,0,0,0,0,0,0,0,0,0,-1,1280,1387,0,0
63,-363,0,0,0,0,0,0,0,0,0,-1,1287,1387,0,0
70,-363,0,0,0,0,0,0,0,0,0,-1,1294,1387,0,0
77,-363,0,0,0,0,0,0,0,0,0,-1,1301,1387,0,0
84,-363,0,0,0,0,0,0,0,0,0,-1,1308,1387,0,0
91,-363,0,0,0,0,0,0,0,0,0,-1,1315,1387,0,0
98,-363,0,0,0,0,0,0,0,0,0,-1,1322,1387,0,0
105,-363,0,0,0,0,0,0,0,0,0,-1,1329,1387,0,0
112,-363,0,0,0,0,0,0,0,0,0,-1,1336,1387,0,0
119,-363,0,0,0,0,0,0,0,0,0,-1,1343,1387,0,0
126,-363,0,0,0,0,0,0,0,0,0,-1,1350,1387,0,0
133,-363,0,0,0,0,0,0,0,0,0,-1,1357,1387,0,0
140,-363,0,0,0,0,0,0,0,0,0,-1,1364,1387,0,0
147,-363,0,0,0,0,0,0,0,0,0,-1,1371,1387,0,0
154,-363,0,0,0,0,0,0,0,0,0,-1,1378,1387,0,0
161,-363,0,0,0,0,0,0,0,0,0,-1,1385,1387,0,0
168,-363,0,0,0,0,0,0,0,0,0,-1,1392,1387,0,0
175,-363,0,0,0,0,0,0,0,0,0,-1,1399,1387,0,0
182,-363,0,0,0,0,0,0,0,0,0,-1,1406,1387,0,0
189,-363,0,0,0,0,0,0,0,0,0,-1,1413,1387,0,0
196,-363,0,0,0,0,0,0,0,0,0,-1,1420,1387,0,0
203,-363,0,0,0,0,0,0,0,0,0,-1,1427,1387,0,0
210,-363,0,0,0,0,0,0,0,0,0,-1,1434,1387,0,0
217,-363,0,0,0,0,0,0,0,0,0,-1,1441,1387,0,0
224,-363,0,0,0,0,0,0,0,0,0,-1,1448,1387,0,0
231,-363,0,0,0,0,0,0,0,0,0,-1,1455,1387,0,0
238,-363,0,0,0,0,0,0,0,0,0,-1,1462,1387,0,0
245,-363,0,0,0,0,0,0,0,0,0,-1,1469,1387,0,0
252,-363,0,0,0,0,0,0,0,0,0,-1,1476,1387,0,0
259,-363,0,0,0,0,0,0,0,0,0,-1,1483,1387,0,0
266,-363,0,0,0,0,0,0,0,0,0,-1,1490,1387,0,0
273,-363,0,0,0,0,0,0,0,0,0,-1,1497,1387,0,0
280,-363,0,0,0,0,0,0,0,0,0,-1,1504,1387,0,0
287,-363,0,0,0,0,0,0,0,0,0,-1,1511,1387,0,0
294,-363,0,0,0,0,0,0,0,0,0,-1,1518,1387,0,0
301,-363,0,0,0,0,0,0,0,0,0,-1,1525,1387,0,0
308,-363,0,0,0,0,0,0,0,0,0,-1,1532,1387,0,0
315,-363,0,0,0,0,0,0,0,0,0,-1,1539,1387,0,0
322,-363,0,0,0,0,0,0,0,0,0,-1,1546,1387,0,0
329,-363,0,0,0,0,0,0,0,0,0,-1,1553,1387,0,0
336,-363,0,0,0,0,0,0,0,0,0,-1,1560,1387,0,0
343,-363,0,0,0,0,0,0,0,0,0,-1,1567,1387,0,0
350,-363,0,0,0,0,0,0,0,0,0,-1,1574,1387,0,0
357,-363,0,0,0,0,0,0,0,0,0,-1,1581,1387,0,0
364,-363,0,0,0,0,0,0,0,0,0,-1,1588,1387,0,0
371,-363,0,0,0,0,0,0,0,0,0,-1,1595,1387,0,0
378,-363,0,0,0,0,0,0,0,0,0,-1,1602,1387,0,0
385,-363,0,0,0,0,0,0,0,0,0,-1,1609,1387,0,0
392,-363,0,0,0,0,0,0,0,0,0,-1,1616,1387,0,0
399,-363,0,0,0,0,0,0,0,0,0,-1,1623,1387,0,0
406,-363,0,0,0,0,0,0,0,0,0,-1,1630,1387,0,0
413,-363,0,0,0,0,0,0,0,0,0,-1,1637,1387,0,0
420,-363,0,0,0,0,0,0,0,0,0,-1,1644,1387,0,0
427,-363,0,0,0,0,0,0,0,0,0,-1,1651,1387,0,0
434,-363,0,0,0,0,0,0,0,0,0,-1,1658,1387,0,0
441,-363,0,0,0,0,0,0,0,0,0,-1,1665,1387,0,0
448,-363,0,0,0,0,0,0,0,0,0,-1,1672,1387,0,0
455,-363,0,0,0,0,0,0,0,0,0,-1,1679,1387,0,0
462,-363,0,0,0,0,0,0,0,0,0,-1,1686,1387,0,0
469,-363,0,0,0,0,0,0,0,0,0,-1,1693,1387,0,0
476,-363,0,0,0,0,0,0,0,0,0,-1,1700,1387,0,0
483,-363,0,0,0,0,0,0,0,0,0,-1,1707,1387,0,0
490,-363,0,0,0,0,0,0,0,0,0,-1,1714,1387,0,0
497,-363,0,0,0,0,0,0,0,0,0,-1,1721,1387,0,0
504,-363,0,0,0,0,0,0,0,0,0,-1,1728,1387,0,0
511,-363,0,0,0,0,0,0,0,0,0,-1,1735,1387,0,0
518,-363,0,0,0,0,0,0,0,0,0,-1,1742,1387,0,0
525,-363,0,0,0,0,0,0,0,0,0,-1,1749,1387,0,0
532,-363,0,0,0,0,0,0,0,0,0,-1,1756,1387,0,0
539,-363,0,0,0,0,0,0,0,0,0,-1,1763,1387,0,0
546,-363,0,0,0,0,0,0,0,0,0,-1,1770,1387,0,0
553,-363,62.1395,3.42249,0,0,0,0,0,0,0,-1,1777,1387,62.1395,-3.42245
560,-363,63.2896,2.40808,0,0,0,0,0,0,0,-1,1784,1387,63.2896,-2.40811
567,-363,64.4463,1.38135,0,0,0,0,0,0,0,-1,1791,1387,64.4463,-1.38131
574,-363,45.7261,2.8075,0,0,0,0,0,0,0,-1,1798,1387,45.7261,-2.80754
581,-363,39.2413,1.97632,0,0,0,0,0,0,0,-1,1805,1387,39.2413,-1.97636
588,-363,32.5608,6.72131,0,0,0,0,0,0,0,-1,1812,1387,32.5608,-6.72131
595,-363,31.4688,6.95435,0,0,0,0,0,0,0,-1,1819,1387,31.4688,-6.95431
602,-363,25.7437,5.33667,0,0,0,0,0,0,0,-1,1826,1387,25.7437,-5.33667
609,-363,27.7048,7.06885,0,0,0,0,0,0,0,-1,1833,1387,27.7048,-7.06882
616,-363,16.229,1.08704,0,0,0,0,0,0,0,-1,1840,1387,16.229,-1.08706
623,-363,15.7283,7.16663,0,0,0,0,0,0,0,-1,1847,1387,15.7282,-7.16665
630,-363,18.3192,9.27844,0,0,0,0,0,0,0,-1,1854,1387,18.3192,-9.27843
637,-363,78.6736,50.8374,0,0,0,0,0,0,0,-1,1861,1387,78.6736,-50.8373
644,-363,93.6857,58.8877,0,0,0,0,0,0,0,-1,1868,1387,93.6857,-58.8877
651,-363,129.548,66.186,0,0,0,0,0,0,0,-1,1875,1387,129.548,-66.186
658,-363,168.247,61.2168,0,0,0,0,0,0,0,-1,1882,1387,168.247,-61.2168
665,-363,167.733,58.0452,-0.00715192,0.0172123,0.0198054,0.0282823,-0.0182219,1.06112,0.0270578,0.0328667,1889,1387,167.733,-58.0451
672,-363,167.114,55.3922,-0.00576774,0.0220175,0.0220865,0.0342174,-0.0179676,1.06614,0.0306121,0.0223238,1896,1387,167.113,-55.3922
679,-363,166.583,52.7316,-0.00441547,0.0269189,0.0245952,0.0404131,-0.0179097,1.06899,0.034498,0.0248727,1903,1387,166.583,-52.7315
686,-363,165.945,50.1663,-0.00302508,0.031974,0.0272824,0.0468869,-0.0179379,1.07056,0.0386506,0.0271272,1910,1387,165.945,-50.1663
693,-363,165.486,47.6257,-0.00164157,0.0371577,0.030211,0.0536614,-0.0181453,1.07081,0.0431148,0.0241672,1917,1387,165.486,-47.6257
700,-363,165.101,45.1705,0,0,0,0,0,0,0,-1,1924,1387,165.101,-45.1705
707,-363,128.989,44.6556,0,0,0,0,0,0,0,-1,1931,1387,128.989,-44.6556
714,-363,16.5782,5.3147,0,0,0,0,0,0,0,-1,1938,1387,16.5783,-5.31472
721,-363,14.4045,4.51685,0,0,0,0,0,0,0,-1,1945,1387,14.4045,-4.51685
728,-363,19.9756,0.853027,0,0,0,0,0,0,0,-1,1952,1387,19.9756,-0.853059
735,-363,21.4297,1.2981,0,0,0,0,0,0,0,-1,1959,1387,21.4297,-1.29811
742,-363,21.3621,2.79663,0,0,0,0,0,0,0,-1,1966,1387,21.362,-2.7966
749,-363,0,0,0,0,0,0,0,0,0,-1,1973,1387,0,0
756,-363,0,0,0,0,0,0,0,0,0,-1,1980,1387,0,0
763,-363,0,0,0,0,0,0,0,0,0,-1,1987,1387,0,0
770,-363,0,0,0,0,0,0,0,0,0,-1,1994,1387,0,0
777,-363,0,0,0,0,0,0,0,0,0,-1,2001,1387,0,0
784,-363,0,0,0,0,0,0,0,0,0,-1,2008,1387,0,0
791,-363,0,0,0,0,0,0,0,0,0,-1,2015,1387,0,0
798,-363,0,0,0,0,0,0,0,0,0,-1,2022,1387,0,0
805,-363,0,0,0,0,0,0,0,0,0,-1,2029,1387,0,0
812,-363,0,0,0,0,0,0,0,0,0,-1,2036,1387,0,0
-700,-370,0,0,0,0,0,0,0,0,0,-1,524,1394,0,0
-693,-370,0,0,0,0,0,0,0,0,0,-1,531,1394,0,0
-686,-370,0,0,0,0,0,0,0,0,0,-1,538,1394,0,0
-679,-370,0,0,0,0,0,0,0,0,0,-1,545,1394,0,0
-672,-370,0,0,0,0,0,0,0,0,0,-1,552,1394,0,0
-665,-370,0,0,0,0,0,0,0,0,0,-1,559,1394,0,0
-658,-370,0,0,0,0,0,0,0,0,0,-1,566,1394,0,0
-651,-370,0,0,0,0,0,0,0,0,0,-1,573,1394,0,0
-644,-370,0,0,0,0,0,0,0,0,0,-1,580,1394,0,0
-637,-370,0,0,0,0,0,0,0,0,0,-1,587,1394,0,0
-630,-370,0,0,0,0,0,0,0,0,0,-1,594,1394,0,0
-623,-370,-10.1758,-7.10486,0,0,0,0,0,0,0,-1,601,1394,-10.1758,7.10483
-616,-370,-8.85925,-1.61475,0,0,0,0,0,0,0,-1,608,1394,-8.85925,1.61476
-609,-370,-5.39325,0.0421143,0,0,0,0,0,0,0,-1,615,1394,-5.39328,-0.0421372
-602,-370,-12.3151,3.44592,0,0,0,0,0,0,0,-1,622,1394,-12.3151,-3.44595
-595,-370,-7.53284,5.44214,0,0,0,0,0,0,0,-1,629,1394,-7.53284,-5.44216
-588,-370,-11.2422,4.50598,0,0,0,0,0,0,0,-1,636,1394,-11.2422,-4.50596
-581,-370,-13.1575,5.84888,0,0,0,0,0,0,0,-1,643,1394,-13.1575,-5.84887
-574,-370,-13.0107,6.69861,0,0,0,0,0,0,0,-1,650,1394,-13.0108,-6.69866
-567,-370,-39.5869,22.689,0,0,0,0,0,0,0,-1,657,1394,-39.5868,-22.689
-560,-370,-156.216,44.6857,0,0,0,0,0,0,0,-1,664,1394,-156.216,-44.6857
-553,-370,-156.299,47.2467,0.013074,0.0553477,-0.0277979,0.069132,-0.000710398,-1.11045,0.0463266,0.0185271,671,1394,-156.299,-47.2467
-546,-370,-156.669,49.9012,0.0101846,0.0478782,-0.0286187,0.0632984,-0.00523562,-1.07658,0.044048,0.0234783,678,1394,-156.669,-49.9012
-539,-370,-157.16,52.5989,0.0083821,0.0414362,-0.0285367,0.0578863,-0.00806794,-1.04787,0.0415421,0.0295154,685,1394,-157.16,-52.5989
-532,-370,-157.752,55.3062,0.0073856,0.0358247,-0.0277535,0.0527893,-0.00957906,-1.02214,0.0387823,0.0479039,692,1394,-157.752,-55.3062
-525,-370,-158.155,57.9735,0,0,0,0,0,0,0,-1,699,1394,-158.155,-57.9735
-518,-370,-156.753,60.8401,0,0,0,0,0,0,0,-1,706,1394,-156.753,-60.84
-511,-370,-129.568,67.5051,0,0,0,0,0,0,0,-1,713,1394,-129.568,-67.5051
-504,-370,-88.5164,63.4016,0,0,0,0,0,0,0,-1,720,1394,-88.5164,-63.4016
-497,-370,-73.6671,59.0852,0,0,0,0,0,0,0,-1,727,1394,-73.667,-59.0852
-490,-370,-5.30695,4.5271,0,0,0,0,0,0,0,-1,734,1394,-5.30698,-4.52704
-483,-370,-6.02997,4.59253,0,0,0,0,0,0,0,-1,741,1394,-6.02994,-4.5925
-476,-370,-6.75293,4.65796,0,0,0,0,0,0,0,-1,748,1394,-6.7529,-4.65795
-469,-370,-10.584,1.14294,0,0,0,0,0,0,0,-1,755,1394,-10.584,-1.14293
-462,-370,-9.54462,0.387207,0,0,0,0,0,0,0,-1,762,1394,-9.5446,-0.387176
-455,-370,-8.50525,-0.36853,0,0,0,0,0,0,0,-1,769,1394,-8.50523,0.368582
-448,-370,-10.9543,2.28833,0,0,0,0,0,0,0,-1,776,1394,-10.9543,-2.28835
-441,-370,-11.8699,1.8313,0,0,0,0,0,0,0,-1,783,1394,-11.8699,-1.83127
-434,-370,-12.7855,1.37415,0,0,0,0,0,0,0,-1,790,1394,-12.7855,-1.37419
-427,-370,0,0,0,0,0,0,0,0,0,-1,797,1394,0,0
-420,-370,0,0,0,0,0,0,0,0,0,-1,804,1394,0,0
-413,-370,0,0,0,0,0,0,0,0,0,-1,811,1394,0,0
-406,-370,0,0,0,0,0,0,0,0,0,-1,818,1394,0,0
-399,-370,0,0,0,0,0,0,0,0,0,-1,825,1394,0,0
-392,-370,0,0,0,0,0,0,0,0,0,-1,832,1394,0,0
-385,-370,0,0,0,0,0,0,0,0,0,-1,839,1394,0,0
-378,-370,0,0,0,0,0,0,0,0,0,-1,846,1394,0,0
-371,-370,0,0,0,0,0,0,0,0,0,-1,853,1394,0,0
-364,-370,0,0,0,0,0,0,0,0,0,-1,860,1394,0,0
-357,-370,0,0,0,0,0,0,0,0,0,-1,867,1394,0,0
-350,-370,0,0,0,0,0,0,0,0,0,-1,874,1394,0,0
-343,-370,0,0,0,0,0,0,0,0,0,-1,881,1394,0,0
-336,-370,0,0,0,0,0,0,0,0,0,-1,888,1394,0,0
-329,-370,0,0,0,0,0,0,0,0,0,-1,895,1394,0,0
-322,-370,0,0,0,0,0,0,0,0,0,-1,902,1394,0,0
-315,-370,0,0,0,0,0,0,0,0,0,-1,909,1394,0,0
-308,-370,0,0,0,0,0,0,0,0,0,-1,916,1394,0,0
-301,-370,0,0,0,0,0,0,0,0,0,-1,923,1394,0,0
-294,-370,0,0,0,0,0,0,0,0,0,-1,930,1394,0,0
-287,-370,0,0,0,0,0,0,0,0,0,-1,937,1394,0,0
-280,-370,0,0,0,0,0,0,0,0,0,-1,944,1394,0,0
-273,-370,0,0,0,0,0,0,0,0,0,-1,951,1394,0,0
-266,-370,0,0,0,0,0,0,0,0,0,-1,958,1394,0,0
-259,-370,0,0,0,0,0,0,0,0,0,-1,965,1394,0,0
-252,-370,0,0,0,0,0,0,0,0,0,-1,972,1394,0,0
-245,-370,0,0,0,0,0,0,0,0,0,-1,979,1394,0,0
-238,-370,0,0,0,0,0,0,0,0,0,-1,986,1394,0,0
-231,-370,0,0,0,0,0,0,0,0,0,-1,993,1394,0,0
-224,-370,0,0,0,0,0,0,0,0,0,-1,1000,1394,0,0
-217,-370,0,0,0,0,0,0,0,0,0,-1,1007,1394,0,0
-210,-370,0,0,0,0,0,0,0,0,0,-1,1014,1394,0,0
-203,-370,0,0,0,0,0,0,0,0,0,-1,1021,1394,0,0
-196,-370,0,0,0,0,0,0,0,0,0,-1,1028,1394,0,0
-189,-370,0,0,0,0,0,0,0,0,0,-1,1035,1394,0,0
-182,-370,0,0,0,0,0,0,0,0,0,-1,1042,1394,0,0
-175,-370,0,0,0,0,0,0,0,0,0,-1,1049,1394,0,0
-168,-370,0,0,0,0,0,0,0,0,0,-1,1056,1394,0,0
-161,-370,0,0,0,0,0,0,0,0,0,-1,1063,1394,0,0
-154,-370,0,0,0,0,0,0,0,0,0,-1,1070,1394,0,0
-147,-370,0,0,0,0,0,0,0,0,0,-1,1077,1394,0,0
-140,-370,0,0,0,0,0,0,0,0,0,-1,1084,1394,0,0
-133,-370,0,0,0,0,0,0,0,0,0,-1,1091,1394,0,0
-126,-370,0,0,0,0,0,0,0,0,0,-1,1098,1394,0,0
-119,-370,0,0,0,0,0,0,0,0,0,-1,1105,1394,0,0
-112,-370,0,0,0,0,0,0,0,0,0,-1,1112,1394,0,0
-105,-370,0,0,0,0,0,0,0,0,0,-1,1119,1394,0,0
-98,-370,0,0,0,0,0,0,0,0,0,-1,1126,1394,0,0
-91,-370,0,0,0,0,0,0,0,0,0,-1,1133,1394,0,0
-84,-370,0,0,0,0,0,0,0,0,0,-1,1140,1394,0,0
-77,-370,0,0,0,0,0,0,0,0,0,-1,1147,1394,0,0
-70,-370,0,0,0,0,0,0,0,0,0,-1,1154,1394,0,0
-63,-370,0,0,0,0,0,0,0,0,0,-1,1161,1394,0,0
-56,-370,0,0,0,0,0,0,0,0,0,-1,1168,1394,0,0
-49,-370,0,0,0,0,0,0,0,0,0,-1,1175,1394,0,0
-42,-370,0,0,0,0,0,0,0,0,0,-1,1182,1394,0,0
-35,-370,0,0,0,0,0,0,0,0,0,-1,1189,1394,0,0
-28,-370,0,0,0,0,0,0,0,0,0,-1,1196,1394,0,0
-21,-370,0,0,0,0,0,0,0,0,0,-1,1203,1394,0,0
-14,-370,0,0,0,0,0,0,0,0,0,-1,1210,1394,0,0
-7,-370,0,0,0,0,0,0,0,0,0,-1,1217,1394,0,0
0,-370,0,0,0,0,0,0,0,0,0,-1,1224,1394,0,0
7,-370,0,0,0,0,0,0,0,0,0,-1,1231,1394,0,0
14,-370,0,0,0,0,0,0,0,0,0,-1,1238,1394,0,0
21,-370,0,0,0,0,0,0,0,0,0,-1,1245,1394,0,0
28,-370,0,0,0,0,0,0,0,0,0,-1,1252,1394,0,0
35,-370,0,0,0,0,0,0,0,0,0,-1,1259,1394,0,0
42,-370,0,0,0,0,0,0,0,0,0,-1,1266,1394,0,0
49,-370,0,0,0,0,0,0,0,0,0,-1,1273,1394,0,0
56,-370,0,0,0,0,0,0,0,0,0,-1,1280,1394,0,0
63,-370,0,0,0,0,0,0,0,0,0,-1,1287,1394,0,0
70,-370,0,0,0,0,0,0,0,0,0,-1,1294,1394,0,0
77,-370,0,0,0,0,0,0,0,0,0,-1,1301,1394,0,0
84,-370,0,0,0,0,0,0,0,0,0,-1,1308,1394,0,0
91,-370,0,0,0,0,0,0,0,0,0,-1,1315,1394,0,0
98,-370,0,0,0,0,0,0,0,0,0,-1,1322,1394,0,0
105,-370,0,0,0,0,0,0,0,0,0,-1,1329,1394,0,0
112,-370,0,0,0,0,0,0,0,0,0,-1,1336,1394,0,0
119,-370,0,0,0,0,0,0,0,0,0,-1,1343,1394,0,0
126,-370,0,0,0,0,0,0,0,0,0,-1,1350,1394,0,0
133,-370,0,0,0,0,0,0,0,0,0,-1,1357,1394,0,0
140,-370,0,0,0,0,0,0,0,0,0,-1,1364,1394,0,0
147,-370,0,0,0,0,0,0,0,0,0,-1,1371,1394,0,0
154,-370,0,0,0,0,0,0,0,0,0,-1,1378,1394,0,0
161,-370,0,0,0,0,0,0,0,0,0,-1,1385,1394,0,0
168,-370,0,0,0,0,0,0,0,0,0,-1,1392,1394,0,0
175,-370,0,0,0,0,0,0,0,0,0,-1,1399,1394,0,0
182,-370,0,0,0,0,0,0,0,0,0,-1,1406,1394,0,0
189,-370,0,0,0,0,0,0,0,0,0,-1,1413,1394,0,0
196,-370,0,0,0,0,0,0,0,0,0,-1,1420,1394,0,0
203,-370,0,0,0,0,0,0,0,0,0,-1,1427,1394,0,0
210,-370,0,0,0,0,0,0,0,0,0,-1,1434,1394,0,0
217,-370,0,0,0,0,0,0,0,0,0,-1,1441,1394,0,0
224,-370,0,0,0,0,0,0,0,0,0,-1,1448,1394,0,0
231,-370,0,0,0,0,0,0,0,0,0,-1,1455,1394,0,0
238,-370,0,0,0,0,0,0,0,0,0,-1,1462,1394,0,0
245,-370,0,0,0,0,0,0,0,0,0,-1,1469,1394,0,0
252,-370,0,0,0,0,0,0,0,0,0,-1,1476,1394,0,0
259,-370,0,0,0,0,0,0,0,0,0,-1,1483,1394,0,0
266,-370,0,0,0,0,0,0,0,0,0,-1,1490,1394,0,0
273,-370,0,0,0,0,0,0,0,0,0,-1,1497,1394,0,0
280,-370,0,0,0,0,0,0,0,0,0,-1,1504,1394,0,0
287,-370,0,0,0,0,0,0,0,0,0,-1,1511,1394,0,0
294,-370,0,0,0,0,0,0,0,0,0,-1,1518,1394,0,0
301,-370,0,0,0,0,0,0,0,0,0,-1,1525,1394,0,0
308,-370,0,0,0,0,0,0,0,0,0,-1,1532,1394,0,0
315,-370,0,0,0,0,0,0,0,0,0,-1,1539,1394,0,0
322,-370,0,0,0,0,0,0,0,0,0,-1,1546,1394,0,0
329,-370,0,0,0,0,0,0,0,0,0,-1,1553,1394,0,0
336,-370,0,0,0,0,0,0,0,0,0,-1,1560,1394,0,0
343,-370,0,0,0,0,0,0,0,0,0,-1,1567,1394,0,0
350,-370,0,0,0,0,0,0,0,0,0,-1,1574,1394,0,0
357,-370,0,0,0,0,0,0,0,0,0,-1,1581,1394,0,0
364,-370,0,0,0,0,0,0,0,0,0,-1,1588,1394,0,0
371,-370,0,0,0,0,0,0,0,0,0,-1,1595,1394,0,0
378,-370,0,0,0,0,0,0,0,0,0,-1,1602,1394,0,0
385,-370,0,0,0,0,0,0,0,0,0,-1,1609,1394,0,0
392,-370,0,0,0,0,0,0,0,0,0,-1,1616,1394,0,0
399,-370,0,0,0,0,0,0,0,0,0,-1,1623,1394,0,0
406,-370,0,0,0,0,0,0,0,0,0,-1,1630,1394,0,0
413,-370,0,0,0,0,0,0,0,0,0,-1,1637,1394,0,0
420,-370,0,0,0,0,0,0,0,0,0,-1,1644,1394,0,0
427,-370,0,0,0,0,0,0,0,0,0,-1,1651,1394,0,0
434,-370,0,0,0,0,0,0,0,0,0,-1,1658,1394,0,0
441,-370,0,0,0,0,0,0,0,0,0,-1,1665,1394,0,0
448,-370,0,0,0,0,0,0,0,0,0,-1,1672,1394,0,0
455,-370,0,0,0,0,0,0,0,0,0,-1,1679,1394,0,0
462,-370,0,0,0,0,0,0,0,0,0,-1,1686,1394,0,0
469,-370,0,0,0,0,0,0,0,0,0,-1,1693,1394,0,0
476,-370,0,0,0,0,0,0,0,0,0,-1,1700,1394,0,0
483,-370,0,0,0,0,0,0,0,0,0,-1,1707,1394,0,0
490,-370,0,0,0,0,0,0,0,0,0,-1,1714,1394,0,0
497,-370,0,0,0,0,0,0,0,0,0,-1,1721,1394,0,0
504,-370,0,0,0,0,0,0,0,0,0,-1,1728,1394,0,0
511,-370,0,0,0,0,0,0,0,0,0,-1,1735,1394,0,0
518,-370,0,0,0,0,0,0,0,0,0,-1,1742,1394,0,0
525,-370,0,0,0,0,0,0,0,0,0,-1,1749,1394,0,0
532,-370,0,0,0,0,0,0,0,0,0,-1,1756,1394,0,0
539,-370,0,0,0,0,0,0,0,0,0,-1,1763,1394,0,0
546,-370,60.9257,3.80493,0,0,0,0,0,0,0,-1,1770,1394,60.9256,-3.80494
553,-370,61.9966,2.87524,0,0,0,0,0,0,0,-1,1777,1394,61.9966,-2.8753
560,-370,63.1577,1.82617,0,0,0,0,0,0,0,-1,1784,1394,63.1578,-1.82617
567,-370,46.1089,3.11719,0,0,0,0,0,0,0,-1,1791,1394,46.1089,-3.1172
574,-370,38.8953,1.49353,0,0,0,0,0,0,0,-1,1798,1394,38.8952,-1.49348
581,-370,39.178,2.86145,0,0,0,0,0,0,0,-1,1805,1394,39.1779,-2.86145
588,-370,39.2102,4.27661,0,0,0,0,0,0,0,-1,1812,1394,39.2102,-4.27657
595,-370,25.793,4.5271,0,0,0,0,0,0,0,-1,1819,1394,25.793,-4.52711
602,-370,25.1077,5.34937,0,0,0,0,0,0,0,-1,1826,1394,25.1077,-5.34932
609,-370,16.712,0.993286,0,0,0,0,0,0,0,-1,1833,1394,16.7121,-0.99323
616,-370,16.7764,7.23315,0,0,0,0,0,0,0,-1,1840,1394,16.7764,-7.23313
623,-370,17.6625,8.94263,0,0,0,0,0,0,0,-1,1847,1394,17.6624,-8.94258
630,-370,20.9681,11.1785,0,0,0,0,0,0,0,-1,1854,1394,20.9681,-11.1784
637,-370,91.8469,61.3878,0,0,0,0,0,0,0,-1,1861,1394,91.847,-61.3879
644,-370,166.742,67.0035,0,0,0,0,0,0,0,-1,1868,1394,166.742,-67.0035
651,-370,165.888,64.6442,0,0,0,0,0,0,0,-1,1875,1394,165.888,-64.6442
658,-370,165.309,61.5948,-0.00722894,0.0160793,0.0204299,0.0279454,-0.0190951,1.0446,0.0273186,0.0392188,1882,1394,165.309,-61.5948
665,-370,164.763,58.6416,-0.00576372,0.0205857,0.0222221,0.033245,-0.018423,1.05298,0.0302369,0.0231097,1889,1394,164.764,-58.6416
672,-370,164.135,55.8643,-0.00441576,0.0249669,0.0243309,0.0386979,-0.0181467,1.05701,0.0335266,0.0236945,1896,1394,164.135,-55.8643
679,-370,163.525,53.2791,-0.00313467,0.0293119,0.0266939,0.0443258,-0.0181486,1.05845,0.03711,0.021247,1903,1394,163.525,-53.279
686,-370,162.94,50.6755,-0.00180579,0.033639,0.0293094,0.0501676,-0.0183343,1.05732,0.0409483,0.0219667,1910,1394,162.94,-50.6756
693,-370,162.379,48.0187,-0.000613767,0.0379178,0.0322794,0.0562437,-0.0189396,1.05445,0.0451531,0.0236125,1917,1394,162.379,-48.0187
700,-370,162.015,45.3135,0,0,0,0,0,0,0,-1,1924,1394,162.015,-45.3135
707,-370,39.2391,11.5549,0,0,0,0,0,0,0,-1,1931,1394,39.2392,-11.555
714,-370,16.9116,5.93018,0,0,0,0,0,0,0,-1,1938,1394,16.9116,-5.93014
721,-370,17.2007,4.69153,0,0,0,0,0,0,0,-1,1945,1394,17.2007,-4.69158
728,-370,20.5315,-0.313354,0,0,0,0,0,0,0,-1,1952,1394,20.5315,0.313332
735,-370,22.3652,0.233398,0,0,0,0,0,0,0,-1,1959,1394,22.3652,-0.233355
742,-370,24.1989,0.780029,0,0,0,0,0,0,0,-1,1966,1394,24.1989,-0.780041
749,-370,0,0,0,0,0,0,0,0,0,-1,1973,1394,0,0
756,-370,0,0,0,0,0,0,0,0,0,-1,1980,1394,0,0
763,-370,0,0,0,0,0,0,0,0,0,-1,1987,1394,0,0
770,-370,0,0,0,0,0,0,0,0,0,-1,1994,1394,0,0
777,-370,0,0,0,0,0,0,0,0,0,-1,2001,1394,0,0
784,-370,0,0,0,0,0,0,0,0,0,-1,2008,1394,0,0
791,-370,0,0,0,0,0,0,0,0,0,-1,2015,1394,0,0
798,-370,0,0,0,0,0,0,0,0,0,-1,2022,1394,0,0
805,-370,0,0,0,0,0,0,0,0,0,-1,2029,1394,0,0
812,-370,0,0,0,0,0,0,0,0,0,-1,2036,1394,0,0
-700,-377,0,0,0,0,0,0,0,0,0,-1,524,1401,0,0
-693,-377,0,0,0,0,0,0,0,0,0,-1,531,1401,0,0
-686,-377,0,0,0,0,0,0,0,0,0,-1,538,1401,0,0
-679,-377,0,0,0,0,0,0,0,0,0,-1,545,1401,0,0
-672,-377,0,0,0,0,0,0,0,0,0,-1,552,1401,0,0
-665,-377,0,0,0,0,0,0,0,0,0,-1,559,1401,0,0
-658,-377,0,0,0,0,0,0,0,0,0,-1,566,1401,0,0
-651,-377,0,0,0,0,0,0,0,0,0,-1,573,1401,0,0
-644,-377,0,0,0,0,0,0,0,0,0,-1,580,1401,0,0
-637,-377,0,0,0,0,0,0,0,0,0,-1,587,1401,0,0
-630,-377,0,0,0,0,0,0,0,0,0,-1,594,1401,0,0
-623,-377,0,0,0,0,0,0,0,0,0,-1,601,1401,0,0
-616,-377,-9.43915,-2.4906,0,0,0,0,0,0,0,-1,608,1401,-9.43915,2.49062
-609,-377,-7.2821,-1.35278,0,0,0,0,0,0,0,-1,615,1401,-7.28208,1.35279
-602,-377,-14.9736,3.98279,0,0,0,0,0,0,0,-1,622,1401,-14.9737,-3.98276
-595,-377,-6.9082,1.18201,0,0,0,0,0,0,0,-1,629,1401,-6.90822,-1.18204
-588,-377,-12.8003,3.44751,0,0,0,0,0,0,0,-1,636,1401,-12.8003,-3.44754
-581,-377,-11.8243,6.21521,0,0,0,0,0,0,0,-1,643,1401,-11.8244,-6.21519
-574,-377,-12.2761,6.60547,0,0,0,0,0,0,0,-1,650,1401,-12.2761,-6.60552
-567,-377,-13.4844,7.41931,0,0,0,0,0,0,0,-1,657,1401,-13.4845,-7.41926
-560,-377,-152.564,44.5371,0,0,0,0,0,0,0,-1,664,1401,-152.564,-44.5371
-553,-377,-153.018,47.5166,0.0155345,0.059771,-0.0286582,0.0738537,0.00145177,-1.11405,0.0487591,0.0289767,671,1401,-153.018,-47.5166
-546,-377,-153.563,50.2809,0.0114988,0.0520455,-0.0296858,0.0677201,-0.0041758,-1.08499,0.0466011,0.0258847,678,1401,-153.563,-50.2809
-539,-377,-153.996,52.9127,0.0092365,0.04575,-0.029513,0.0621967,-0.00721016,-1.06239,0.0440649,0.0288671,685,1401,-153.996,-52.9127
-532,-377,-154.499,55.7947,0.00793303,0.0403623,-0.0285576,0.0569874,-0.00869206,-1.0436,0.0411958,0.0319031,692,1401,-154.499,-55.7947
-525,-377,-155.342,58.4026,0,0,0,0,0,0,0,-1,699,1401,-155.342,-58.4026
-518,-377,-153.614,61.5277,0,0,0,0,0,0,0,-1,706,1401,-153.614,-61.5277
-511,-377,-157.268,64.2716,0,0,0,0,0,0,0,-1,713,1401,-157.268,-64.2716
-504,-377,-127.546,70.9412,0,0,0,0,0,0,0,-1,720,1401,-127.546,-70.9412
-497,-377,-84.5035,65.3524,0,0,0,0,0,0,0,-1,727,1401,-84.5036,-65.3525
-490,-377,-8.88409,10.1245,0,0,0,0,0,0,0,-1,734,1401,-8.8841,-10.1245
-483,-377,-5.6524,5.07324,0,0,0,0,0,0,0,-1,741,1401,-5.6524,-5.07325
-476,-377,-6.11682,5.10535,0,0,0,0,0,0,0,-1,748,1401,-6.11681,-5.10537
-469,-377,-10.3211,1.9281,0,0,0,0,0,0,0,-1,755,1401,-10.3211,-1.92808
-462,-377,-9.2204,1.0022,0,0,0,0,0,0,0,-1,762,1401,-9.22039,-1.00218
-455,-377,-8.11969,0.0762939,0,0,0,0,0,0,0,-1,769,1401,-8.11968,-0.0762759
-448,-377,-9.05334,0.877319,0,0,0,0,0,0,0,-1,776,1401,-9.05332,-0.877324
-441,-377,-11.212,0.763428,0,0,0,0,0,0,0,-1,783,1401,-11.212,-0.763415
-434,-377,-11.0984,0.996216,0,0,0,0,0,0,0,-1,790,1401,-11.0984,-0.996265
-427,-377,-11.1733,1.25732,0,0,0,0,0,0,0,-1,797,1401,-11.1733,-1.25732
-420,-377,0,0,0,0,0,0,0,0,0,-1,804,1401,0,0
-413,-377,0,0,0,0,0,0,0,0,0,-1,811,1401,0,0
-406,-377,0,0,0,0,0,0,0,0,0,-1,818,1401,0,0
-399,-377,0,0,0,0,0,0,0,0,0,-1,825,1401,0,0
-392,-377,0,0,0,0,0,0,0,0,0,-1,832,1401,0,0
-385,-377,0,0,0,0,0,0,0,0,0,-1,839,1401,0,0
-378,-377,0,0,0,0,0,0,0,0,0,-1,846,1401,0,0
-371,-377,0,0,0,0,0,0,0,0,0,-1,853,1401,0,0
-364,-377,0,0,0,0,0,0,0,0,0,-1,860,1401,0,0
-357,-377,0,0,0,0,0,0,0,0,0,-1,867,1401,0,0
-350,-377,0,0,0,0,0,0,0,0,0,-1,874,1401,0,0
-343,-377,0,0,0,0,0,0,0,0,0,-1,881,1401,0,0
-336,-377,0,0,0,0,0,0,0,0,0,-1,888,1401,0,0
-329,-377,0,0,0,0,0,0,0,0,0,-1,895,1401,0,0
-322,-377,0,0,0,0,0,0,0,0,0,-1,902,1401,0,0
-315,-377,0,0,0,0,0,0,0,0,0,-1,909,1401,0,0
-308,-377,0,0,0,0,0,0,0,0,0,-1,916,1401,0,0
-301,-377,0,0,0,0,0,0,0,0,0,-1,923,1401,0,0
-294,-377,0,0,0,0,0,0,0,0,0,-1,930,1401,0,0
-287,-377,0,0,0,0,0,0,0,0,0,-1,937,1401,0,0
-280,-377,0,0,0,0,0,0,0,0,0,-1,944,1401,0,0
-273,-377,0,0,0,0,0,0,0,0,0,-1,951,1401,0,0
-266,-377,0,0,0,0,0,0,0,0,0,-1,958,1401,0,0
-259,-377,0,0,0,0,0,0,0,0,0,-1,965,1401,0,0
-252,-377,0,0,0,0,0,0,0,0,0,-1,972,1401,0,0
-245,-377,0,0,0,0,0,0,0,0,0,-1,979,1401,0,0
-238,-377,0,0,0,0,0,0,0,0,0,-1,986,1401,0,0
-231,-377,0,0,0,0,0,0,0,0,0,-1,993,1401,0,0
-224,-377,0,0,0,0,0,0,0,0,0,-1,1000,1401,0,0
-217,-377,0,0,0,0,0,0,0,0,0,-1,1007,1401,0,0
-210,-377,0,0,0,0,0,0,0,0,0,-1,1014,1401,0,0
-203,-377,0,0,0,0,0,0,0,0,0,-1,1021,1401,0,0
-196,-377,0,0,0,0,0,0,0,0,0,-1,1028,1401,0,0
-189,-377,0,0,0,0,0,0,0,0,0,-1,1035,1401,0,0
-182,-377,0,0,0,0,0,0,0,0,0,-1,1042,1401,0,0
-175,-377,0,0,0,0,0,0,0,0,0,-1,1049,1401,0,0
-168,-377,0,0,0,0,0,0,0,0,0,-1,1056,1401,0,0
-161,-377,0,0,0,0,0,0,0,0,0,-1,1063,1401,0,0
-154,-377,0,0,0,0,0,0,0,0,0,-1,1070,1401,0,0
-147,-377,0,0,0,0,0,0,0,0,0,-1,1077,1401,0,0
-140,-377,0,0,0,0,0,0,0,0,0,-1,1084,1401,0,0
-133,-377,0,0,0,0,0,0,0,0,0,-1,1091,1401,0,0
-126,-377,0,0,0,0,0,0,0,0,0,-1,1098,1401,0,0
-119,-377,0,0,0,0,0,0,0,0,0,-1,1105,1401,0,0
-112,-377,0,0,0,0,0,0,0,0,0,-1,1112,1401,0,0
-105,-377,0,0,0,0,0,0,0,0,0,-1,1119,1401,0,0
-98,-377,0,0,0,0,0,0,0,0,0,-1,1126,1401,0,0
-91,-377,0,0,0,0,0,0,0,0,0,-1,1133,1401,0,0
-84,-377,0,0,0,0,0,0,0,0,0,-1,1140,1401,0,0
-77,-377,0,0,0,0,0,0,0,0,0,-1,1147,1401,0,0
-70,-377,0,0,0,0,0,0,0,0,0,-1,1154,1401,0,0
-63,-377,0,0,0,0,0,0,0,0,0,-1,1161,1401,0,0
-56,-377,0,0,0,0,0,0,0,0,0,-1,1168,1401,0,0
-49,-377,0,0,0,0,0,0,0,0,0,-1,1175,1401,0,0
-42,-377,0,0,0,0,0,0,0,0,0,-1,1182,1401,0,0
-35,-377,0,0,0,0,0,0,0,0,0,-1,1189,1401,0,0
-28,-377,0,0,0,0,0,0,0,0,0,-1,1196,1401,0,0
-21,-377,0,0,0,0,0,0,0,0,0,-1,1203,1401,0,0
-14,-377,0,0,0,0,0,0,0,0,0,-1,1210,1401,0,0
-7,-377,0,0,0,0,0,0,0,0,0,-1,1217,1401,0,0
0,-377,0,0,0,0,0,0,0,0,0,-1,1224,1401,0,0
7,-377,0,0,0,0,0,0,0,0,0,-1,1231,1401,0,0
14,-377,0,0,0,0,0,0,0,0,0,-1,1238,1401,0,0
21,-377,0,0,0,0,0,0,0,0,0,-1,1245,1401,0,0
28,-377,0,0,0,0,0,0,0,0,0,-1,1252,1401,0,0
35,-377,0,0,0,0,0,0,0,0,0,-1,1259,1401,0,0
42,-377,0,0,0,0,0,0,0,0,0,-1,1266,1401,0,0
49,-377,0,0,0,0,0,0,0,0,0,-1,1273,1401,0,0
56,-377,0,0,0,0,0,0,0,0,0,-1,1280,1401,0,0
63,-377,0,0,0,0,0,0,0,0,0,-1,1287,1401,0,0
70,-377,0,0,0,0,0,0,0,0,0,-1,1294,1401,0,0
77,-377,0,0,0,0,0,0,0,0,0,-1,1301,1401,0,0
84,-377,0,0,0,0,0,0,0,0,0,-1,1308,1401,0,0
91,-377,0,0,0,0,0,0,0,0,0,-1,1315,1401,0,0
98,-377,0,0,0,0,0,0,0,0,0,-1,1322,1401,0,0
105,-377,0,0,0,0,0,0,0,0,0,-1,1329,1401,0,0
112,-377,0,0,0,0,0,0,0,0,0,-1,1336,1401,0,0
119,-377,0,0,0,0,0,0,0,0,0,-1,1343,1401,0,0
126,-377,0,0,0,0,0,0,0,0,0,-1,1350,1401,0,0
133,-377,0,0,0,0,0,0,0,0,0,-1,1357,1401,0,0
140,-377,0,0,0,0,0,0,0,0,0,-1,1364,1401,0,0
147,-377,0,0,0,0,0,0,0,0,0,-1,1371,1401,0,0
154,-377,0,0,0,0,0,0,0,0,0,-1,1378,1401,0,0
161,-377,0,0,0,0,0,0,0,0,0,-1,1385,1401,0,0
168,-377,0,0,0,0,0,0,0,0,0,-1,1392,1401,0,0
175,-377,0,0,0,0,0,0,0,0,0,-1,1399,1401,0,0
182,-377,0,0,0,0,0,0,0,0,0,-1,1406,1401,0,0
189,-377,0,0,0,0,0,0,0,0,0,-1,1413,1401,0,0
196,-377,0,0,0,0,0,0,0,0,0,-1,1420,1401,0,0
203,-377,0,0,0,0,0,0,0,0,0,-1,1427,1401,0,0
210,-377,0,0,0,0,0,0,0,0,0,-1,1434,1401,0,0
217,-377,0,0,0,0,0,0,0,0,0,-1,1441,1401,0,0
224,-377,0,0,0,0,0,0,0,0,0,-1,1448,1401,0,0
231,-377,0,0,0,0,0,0,0,0,0,-1,1455,1401,0,0
238,-377,0,0,0,0,0,0,0,0,0,-1,1462,1401,0,0
245,-377,0,0,0,0,0,0,0,0,0,-1,1469,1401,0,0
252,-377,0,0,0,0,0,0,0,0,0,-1,1476,1401,0,0
259,-377,0,0,0,0,0,0,0,0,0,-1,1483,1401,0,0
266,-377,0,0,0,0,0,0,0,0,0,-1,1490,1401,0,0
273,-377,0,0,0,0,0,0,0,0,0,-1,1497,1401,0,0
280,-377,0,0,0,0,0,0,0,0,0,-1,1504,1401,0,0
287,-377,0,0,0,0,0,0,0,0,0,-1,1511,1401,0,0
294,-377,0,0,0,0,0,0,0,0,0,-1,1518,1401,0,0
301,-377,0,0,0,0,0,0,0,0,0,-1,1525,1401,0,0
308,-377,0,0,0,0,0,0,0,0,0,-1,1532,1401,0,0
315,-377,0,0,0,0,0,0,0,0,0,-1,1539,1401,0,0
322,-377,0,0,0,0,0,0,0,0,0,-1,1546,1401,0,0
329,-377,0,0,0,0,0,0,0,0,0,-1,1553,1401,0,0
336,-377,0,0,0,0,0,0,0,0,0,-1,1560,1401,0,0
343,-377,0,0,0,0,0,0,0,0,0,-1,1567,1401,0,0
350,-377,0,0,0,0,0,0,0,0,0,-1,1574,1401,0,0
357,-377,0,0,0,0,0,0,0,0,0,-1,1581,1401,0,0
364,-377,0,0,0,0,0,0,0,0,0,-1,1588,1401,0,0
371,-377,0,0,0,0,0,0,0,0,0,-1,1595,1401,0,0
378,-377,0,0,0,0,0,0,0,0,0,-1,1602,1401,0,0
385,-377,0,0,0,0,0,0,0,0,0,-1,1609,1401,0,0
392,-377,0,0,0,0,0,0,0,0,0,-1,1616,1401,0,0
399,-377,0,0,0,0,0,0,0,0,0,-1,1623,1401,0,0
406,-377,0,0,0,0,0,0,0,0,0,-1,1630,1401,0,0
413,-377,0,0,0,0,0,0,0,0,0,-1,1637,1401,0,0
420,-377,0,0,0,0,0,0,0,0,0,-1,1644,1401,0,0
427,-377,0,0,0,0,0,0,0,0,0,-1,1651,1401,0,0
434,-377,0,0,0,0,0,0,0,0,0,-1,1658,1401,0,0
441,-377,0,0,0,0,0,0,0,0,0,-1,1665,1401,0,0
448,-377,0,0,0,0,0,0,0,0,0,-1,1672,1401,0,0
455,-377,0,0,0,0,0,0,0,0,0,-1,1679,1401,0,0
462,-377,0,0,0,0,0,0,0,0,0,-1,1686,1401,0,0
469,-377,0,0,0,0,0,0,0,0,0,-1,1693,1401,0,0
476,-377,0,0,0,0,0,0,0,0,0,-1,1700,1401,0,0
483,-377,0,0,0,0,0,0,0,0,0,-1,1707,1401,0,0
490,-377,0,0,0,0,0,0,0,0,0,-1,1714,1401,0,0
497,-377,0,0,0,0,0,0,0,0,0,-1,1721,1401,0,0
504,-377,0,0,0,0,0,0,0,0,0,-1,1728,1401,0,0
511,-377,0,0,0,0,0,0,0,0,0,-1,1735,1401,0,0
518,-377,0,0,0,0,0,0,0,0,0,-1,1742,1401,0,0
525,-377,0,0,0,0,0,0,0,0,0,-1,1749,1401,0,0
532,-377,0,0,0,0,0,0,0,0,0,-1,1756,1401,0,0
539,-377,0,0,0,0,0,0,0,0,0,-1,1763,1401,0,0
546,-377,27.8485,2.34094,0,0,0,0,0,0,0,-1,1770,1401,27.8486,-2.34091
553,-377,61.8907,2.39148,0,0,0,0,0,0,0,-1,1777,1401,61.8908,-2.39149
560,-377,38.3577,-2.15015,0,0,0,0,0,0,0,-1,1784,1401,38.3576,2.1501
567,-377,38.4889,-0.285645,0,0,0,0,0,0,0,-1,1791,1401,38.4889,0.2857
574,-377,38.6221,1.61694,0,0,0,0,0,0,0,-1,1798,1401,38.6221,-1.61689
581,-377,39.1818,3.76367,0,0,0,0,0,0,0,-1,1805,1401,39.1818,-3.76366
588,-377,25.882,4.35217,0,0,0,0,0,0,0,-1,1812,1401,25.8819,-4.3522
595,-377,25.5392,5.11804,0,0,0,0,0,0,0,-1,1819,1401,25.5392,-5.11808
602,-377,24.816,5.79126,0,0,0,0,0,0,0,-1,1826,1401,24.816,-5.79124
609,-377,15.0223,4.76135,0,0,0,0,0,0,0,-1,1833,1401,15.0224,-4.76129
616,-377,14.1842,5.78992,0,0,0,0,0,0,0,-1,1840,1401,14.1842,-5.78987
623,-377,15.8248,8.76721,0,0,0,0,0,0,0,-1,1847,1401,15.8248,-8.76725
630,-377,37.4343,20.0704,0,0,0,0,0,0,0,-1,1854,1401,37.4344,-20.0704
637,-377,164.07,70.7961,0,0,0,0,0,0,0,-1,1861,1401,164.07,-70.7962
644,-377,163.533,67.7174,0,0,0,0,0,0,0,-1,1868,1401,163.533,-67.7174
651,-377,162.936,64.746,-0.00710676,0.013487,0.0221498,0.0276163,-0.0212361,1.00298,0.028285,0.0275804,1875,1401,162.936,-64.7459
658,-377,162.238,61.9949,-0.00558284,0.0184511,0.0232824,0.0326348,-0.0197666,1.02364,0.0305565,0.0241312,1882,1401,162.238,-61.9949
665,-377,161.76,59.1512,-0.00425262,0.0230393,0.0247692,0.0376727,-0.0188861,1.03717,0.0332493,0.0284778,1889,1401,161.76,-59.1513
672,-377,161.155,56.4078,-0.0030975,0.0273325,0.0265697,0.0427352,-0.0185003,1.04543,0.0362655,0.030231,1896,1401,161.155,-56.4079
679,-377,160.462,53.7734,-0.00208017,0.0314253,0.0286268,0.047841,-0.0184959,1.05014,0.0395291,0.0257402,1903,1401,160.462,-53.7734
686,-377,159.913,51.1855,-0.00102771,0.0352603,0.0310021,0.0530375,-0.018805,1.05015,0.0430192,0.023589,1910,1401,159.913,-51.1856
693,-377,159.437,48.4846,0,0,0,0,0,0,0,-1,1917,1401,159.437,-48.4846
700,-377,69.8997,32.8438,0,0,0,0,0,0,0,-1,1924,1401,69.8996,-32.8438
707,-377,28.6234,9.18152,0,0,0,0,0,0,0,-1,1931,1401,28.6234,-9.18151
714,-377,16.5369,5.45959,0,0,0,0,0,0,0,-1,1938,1401,16.5369,-5.4596
721,-377,17.0913,5.42529,0,0,0,0,0,0,0,-1,1945,1401,17.0914,-5.42529
728,-377,14.5396,2.79724,0,0,0,0,0,0,0,-1,1952,1401,14.5396,-2.7972
735,-377,23.2977,-0.991089,0,0,0,0,0,0,0,-1,1959,1401,23.2978,0.991076
742,-377,0,0,0,0,0,0,0,0,0,-1,1966,1401,0,0
749,-377,0,0,0,0,0,0,0,0,0,-1,1973,1401,0,0
756,-377,0,0,0,0,0,0,0,0,0,-1,1980,1401,0,0
763,-377,0,0,0,0,0,0,0,0,0,-1,1987,1401,0,0
770,-377,0,0,0,0,0,0,0,0,0,-1,1994,1401,0,0
777,-377,0,0,0,0,0,0,0,0,0,-1,2001,1401,0,0
784,-377,0,0,0,0,0,0,0,0,0,-1,2008,1401,0,0
791,-377,0,0,0,0,0,0,0,0,0,-1,2015,1401,0,0
798,-377,0,0,0,0,0,0,0,0,0,-1,2022,1401,0,0
805,-377,0,0,0,0,0,0,0,0,0,-1,2029,1401,0,0
812,-377,0,0,0,0,0,0,0,0,0,-1,2036,1401,0,0
-700,-384,0,0,0,0,0,0,0,0,0,-1,524,1408,0,0
-693,-384,0,0,0,0,0,0,0,0,0,-1,531,1408,0,0
-686,-384,0,0,0,0,0,0,0,0,0,-1,538,1408,0,0
-679,-384,0,0,0,0,0,0,0,0,0,-1,545,1408,0,0
-672,-384,0,0,0,0,0,0,0,0,0,-1,552,1408,0,0
-665,-384,0,0,0,0,0,0,0,0,0,-1,559,1408,0,0
-658,-384,0,0,0,0,0,0,0,0,0,-1,566,1408,0,0
-651,-384,0,0,0,0,0,0,0,0,0,-1,573,1408,0,0
-644,-384,0,0,0,0,0,0,0,0,0,-1,580,1408,0,0
-637,-384,0,0,0,0,0,0,0,0,0,-1,587,1408,0,0
-630,-384,0,0,0,0,0,0,0,0,0,-1,594,1408,0,0
-623,-384,0,0,0,0,0,0,0,0,0,-1,601,1408,0,0
-616,-384,-10.019,-3.36646,0,0,0,0,0,0,0,-1,608,1408,-10.019,3.36648
-609,-384,-7.72357,-2.3418,0,0,0,0,0,0,0,-1,615,1408,-7.72358,2.34182
-602,-384,-11.7632,-2.85156,0,0,0,0,0,0,0,-1,622,1408,-11.7632,2.85157
-595,-384,-10.2217,2.8855,0,0,0,0,0,0,0,-1,629,1408,-10.2218,-2.88548
-588,-384,-12.1653,2.29041,0,0,0,0,0,0,0,-1,636,1408,-12.1654,-2.29038
-581,-384,-11.9297,3.60376,0,0,0,0,0,0,0,-1,643,1408,-11.9298,-3.6038
-574,-384,-11.8677,6.02722,0,0,0,0,0,0,0,-1,650,1408,-11.8677,-6.02722
-567,-384,-12.0743,7.04639,0,0,0,0,0,0,0,-1,657,1408,-12.0743,-7.04641
-560,-384,-19.9478,11.6345,0,0,0,0,0,0,0,-1,664,1408,-19.9478,-11.6345
-553,-384,-149.905,47.8424,0,0,0,0,0,0,0,-1,671,1408,-149.905,-47.8424
-546,-384,-150.45,50.6799,0.0129517,0.0557118,-0.0312278,0.0721772,-0.00351376,-1.08557,0.0493311,0.0238926,678,1408,-150.45,-50.6799
-539,-384,-150.868,53.3597,0.010595,0.0494317,-0.0310599,0.0666438,-0.00661705,-1.06477,0.0467911,0.0239335,685,1408,-150.868,-53.3597
-532,-384,-151.263,56.0009,0.00912431,0.0440907,-0.0300115,0.0613401,-0.00812512,-1.04914,0.0438534,0.0301299,692,1408,-151.263,-56.0008
-525,-384,-151.983,58.8311,0.00853775,0.0396654,-0.0281273,0.0562478,-0.00804463,-1.0381,0.0404476,0.0321042,699,1408,-151.983,-58.8311
-518,-384,-152.602,61.9059,0,0,0,0,0,0,0,-1,706,1408,-152.602,-61.9059
-511,-384,-153.721,64.7045,0,0,0,0,0,0,0,-1,713,1408,-153.721,-64.7045
-504,-384,-155.093,67.5378,0,0,0,0,0,0,0,-1,720,1408,-155.093,-67.5378
-497,-384,-95.1385,71.2412,0,0,0,0,0,0,0,-1,727,1408,-95.1386,-71.2413
-490,-384,-82.2095,67.7151,0,0,0,0,0,0,0,-1,734,1408,-82.2096,-67.7151
-483,-384,-6.26471,7.61194,0,0,0,0,0,0,0,-1,741,1408,-6.26469,-7.61191
-476,-384,-6.02734,5.67761,0,0,0,0,0,0,0,-1,748,1408,-6.02736,-5.6776
-469,-384,-10.206,2.63721,0,0,0,0,0,0,0,-1,755,1408,-10.206,-2.6372
-462,-384,-9.04291,1.43542,0,0,0,0,0,0,0,-1,762,1408,-9.04293,-1.43545
-455,-384,-7.87988,0.233765,0,0,0,0,0,0,0,-1,769,1408,-7.87986,-0.233709
-448,-384,-9.35529,7.19226,0,0,0,0,0,0,0,-1,776,1408,-9.35531,-7.19226
-441,-384,-10.4697,1.79004,0,0,0,0,0,0,0,-1,783,1408,-10.4697,-1.79003
-434,-384,-10.6449,0.552246,0,0,0,0,0,0,0,-1,790,1408,-10.6449,-0.552216
-427,-384,-10.968,1.10583,0,0,0,0,0,0,0,-1,797,1408,-10.968,-1.10588
-420,-384,-12.5607,4.54858,0,0,0,0,0,0,0,-1,804,1408,-12.5607,-4.54859
-413,-384,0,0,0,0,0,0,0,0,0,-1,811,1408,0,0
-406,-384,0,0,0,0,0,0,0,0,0,-1,818,1408,0,0
-399,-384,0,0,0,0,0,0,0,0,0,-1,825,1408,0,0
-392,-384,0,0,0,0,0,0,0,0,0,-1,832,1408,0,0
-385,-384,0,0,0,0,0,0,0,0,0,-1,839,1408,0,0
-378,-384,0,0,0,0,0,0,0,0,0,-1,846,1408,0,0
-371,-384,0,0,0,0,0,0,0,0,0,-1,853,1408,0,0
-364,-384,0,0,0,0,0,0,0,0,0,-1,860,1408,0,0
-357,-384,0,0,0,0,0,0,0,0,0,-1,867,1408,0,0
-350,-384,0,0,0,0,0,0,0,0,0,-1,874,1408,0,0
-343,-384,0,0,0,0,0,0,0,0,0,-1,881,1408,0,0
-336,-384,0,0,0,0,0,0,0,0,0,-1,888,1408,0,0
-329,-384,0,0,0,0,0,0,0,0,0,-1,895,1408,0,0
-322,-384,0,0,0,0,0,0,0,0,0,-1,902,1408,0,0
-315,-384,0,0,0,0,0,0,0,0,0,-1,909,1408,0,0
-308,-384,0,0,0,0,0,0,0,0,0,-1,916,1408,0,0
-301,-384,0,0,0,0,0,0,0,0,0,-1,923,1408,0,0
-294,-384,0,0,0,0,0,0,0,0,0,-1,930,1408,0,0
-287,-384,0,0,0,0,0,0,0,0,0,-1,937,1408,0,0
-280,-384,0,0,0,0,0,0,0,0,0,-1,944,1408,0,0
-273,-384,0,0,0,0,0,0,0,0,0,-1,951,1408,0,0
-266,-384,0,0,0,0,0,0,0,0,0,-1,958,1408,0,0
-259,-384,0,0,0,0,0,0,0,0,0,-1,965,1408,0,0
-252,-384,0,0,0,0,0,0,0,0,0,-1,972,1408,0,0
-245,-384,0,0,0,0,0,0,0,0,0,-1,979,1408,0,0
-238,-384,0,0,0,0,0,0,0,0,0,-1,986,1408,0,0
-231,-384,0,0,0,0,0,0,0,0,0,-1,993,1408,0,0
-224,-384,0,0,0,0,0,0,0,0,0,-1,1000,1408,0,0
-217,-384,0,0,0,0,0,0,0,0,0,-1,1007,1408,0,0
-210,-384,0,0,0,0,0,0,0,0,0,-1,1014,1408,0,0
-203,-384,0,0,0,0,0,0,0,0,0,-1,1021,1408,0,0
-196,-384,0,0,0,0,0,0,0,0,0,-1,1028,1408,0,0
-189,-384,0,0,0,0,0,0,0,0,0,-1,1035,1408,0,0
-182,-384,0,0,0,0,0,0,0,0,0,-1,1042,1408,0,0
-175,-384,0,0,0,0,0,0,0,0,0,-1,1049,1408,0,0
-168,-384,0,0,0,0,0,0,0,0,0,-1,1056,1408,0,0
-161,-384,0,0,0,0,0,0,0,0,0,-1,1063,1408,0,0
-154,-384,0,0,0,0,0,0,0,0,0,-1,1070,1408,0,0
-147,-384,0,0,0,0,0,0,0,0,0,-1,1077,1408,0,0
-140,-384,0,0,0,0,0,0,0,0,0,-1,1084,1408,0,0
-133,-384,0,0,0,0,0,0,0,0,0,-1,1091,1408,0,0
-126,-384,0,0,0,0,0,0,0,0,0,-1,1098,1408,0,0
-119,-384,0,0,0,0,0,0,0,0,0,-1,1105,1408,0,0
-112,-384,0,0,0,0,0,0,0,0,0,-1,1112,1408,0,0
-105,-384,0,0,0,0,0,0,0,0,0,-1,1119,1408,0,0
-98,-384,0,0,0,0,0,0,0,0,0,-1,1126,1408,0,0
-91,-384,0,0,0,0,0,0,0,0,0,-1,1133,1408,0,0
-84,-384,0,0,0,0,0,0,0,0,0,-1,1140,1408,0,0
-77,-384,0,0,0,0,0,0,0,0,0,-1,1147,1408,0,0
-70,-384,0,0,0,0,0,0,0,0,0,-1,1154,1408,0,0
-63,-384,0,0,0,0,0,0,0,0,0,-1,1161,1408,0,0
-56,-384,0,0,0,0,0,0,0,0,0,-1,1168,1408,0,0
-49,-384,0,0,0,0,0,0,0,0,0,-1,1175,1408,0,0
-42,-384,0,0,0,0,0,0,0,0,0,-1,1182,1408,0,0
-35,-384,0,0,0,0,0,0,0,0,0,-1,1189,1408,0,0
-28,-384,0,0,0,0,0,0,0,0,0,-1,1196,1408,0,0
-21,-384,0,0,0,0,0,0,0,0,0,-1,1203,1408,0,0
-14,-384,0,0,0,0,0,0,0,0,0,-1,1210,1408,0,0
-7,-384,0,0,0,0,0,0,0,0,0,-1,1217,1408,0,0
0,-384,0,0,0,0,0,0,0,0,0,-1,1224,1408,0,0
7,-384,0,0,0,0,0,0,0,0,0,-1,1231,1408,0,0
14,-384,0,0,0,0,0,0,0,0,0,-1,1238,1408,0,0
21,-384,0,0,0,0,0,0,0,0,0,-1,1245,1408,0,0
28,-384,0,0,0,0,0,0,0,0,0,-1,1252,1408,0,0
35,-384,0,0,0,0,0,0,0,0,0,-1,1259,1408,0,0
42,-384,0,0,0,0,0,0,0,0,0,-1,1266,1408,0,0
49,-384,0,0,0,0,0,0,0,0,0,-1,1273,1408,0,0
56,-384,0,0,0,0,0,0,0,0,0,-1,1280,1408,0,0
63,-384,0,0,0,0,0,0,0,0,0,-1,1287,1408,0,0
70,-384,0,0,0,0,0,0,0,0,0,-1,1294,1408,0,0
77,-384,0,0,0,0,0,0,0,0,0,-1,1301,1408,0,0
84,-384,0,0,0,0,0,0,0,0,0,-1,1308,1408,0,0
91,-384,0,0,0,0,0,0,0,0,0,-1,1315,1408,0,0
98,-384,0,0,0,0,0,0,0,0,0,-1,1322,1408,0,0
105,-384,0,0,0,0,0,0,0,0,0,-1,1329,1408,0,0
112,-384,0,0,0,0,0,0,0,0,0,-1,1336,1408,0,0
119,-384,0,0,0,0,0,0,0,0,0,-1,1343,1408,0,0
126,-384,0,0,0,0,0,0,0,0,0,-1,1350,1408,0,0
133,-384,0,0,0,0,0,0,0,0,0,-1,1357,1408,0,0
140,-384,0,0,0,0,0,0,0,0,0,-1,1364,1408,0,0
147,-384,0,0,0,0,0,0,0,0,0,-1,1371,1408,0,0
154,-384,0,0,0,0,0,0,0,0,0,-1,1378,1408,0,0
161,-384,0,0,0,0,0,0,0,0,0,-1,1385,1408,0,0
168,-384,0,0,0,0,0,0,0,0,0,-1,1392,1408,0,0
175,-384,0,0,0,0,0,0,0,0,0,-1,1399,1408,0,0
182,-384,0,0,0,0,0,0,0,0,0,-1,1406,1408,0,0
189,-384,0,0,0,0,0,0,0,0,0,-1,1413,1408,0,0
196,-384,0,0,0,0,0,0,0,0,0,-1,1420,1408,0,0
203,-384,0,0,0,0,0,0,0,0,0,-1,1427,1408,0,0
210,-384,0,0,0,0,0,0,0,0,0,-1,1434,1408,0,0
217,-384,0,0,0,0,0,0,0,0,0,-1,1441,1408,0,0
224,-384,0,0,0,0,0,0,0,0,0,-1,1448,1408,0,0
231,-384,0,0,0,0,0,0,0,0,0,-1,1455,1408,0,0
238,-384,0,0,0,0,0,0,0,0,0,-1,1462,1408,0,0
245,-384,0,0,0,0,0,0,0,0,0,-1,1469,1408,0,0
252,-384,0,0,0,0,0,0,0,0,0,-1,1476,1408,0,0
259,-384,0,0,0,0,0,0,0,0,0,-1,1483,1408,0,0
266,-384,0,0,0,0,0,0,0,0,0,-1,1490,1408,0,0
273,-384,0,0,0,0,0,0,0,0,0,-1,1497,1408,0,0
280,-384,0,0,0,0,0,0,0,0,0,-1,1504,1408,0,0
287,-384,0,0,0,0,0,0,0,0,0,-1,1511,1408,0,0
294,-384,0,0,0,0,0,0,0,0,0,-1,1518,1408,0,0
301,-384,0,0,0,0,0,0,0,0,0,-1,1525,1408,0,0
308,-384,0,0,0,0,0,0,0,0,0,-1,1532,1408,0,0
315,-384,0,0,0,0,0,0,0,0,0,-1,1539,1408,0,0
322,-384,0,0,0,0,0,0,0,0,0,-1,1546,1408,0,0
329,-384,0,0,0,0,0,0,0,0,0,-1,1553,1408,0,0
336,-384,0,0,0,0,0,0,0,0,0,-1,1560,1408,0,0
343,-384,0,0,0,0,0,0,0,0,0,-1,1567,1408,0,0
350,-384,0,0,0,0,0,0,0,0,0,-1,1574,1408,0,0
357,-384,0,0,0,0,0,0,0,0,0,-1,1581,1408,0,0
364,-384,0,0,0,0,0,0,0,0,0,-1,1588,1408,0,0
371,-384,0,0,0,0,0,0,0,0,0,-1,1595,1408,0,0
378,-384,0,0,0,0,0,0,0,0,0,-1,1602,1408,0,0
385,-384,0,0,0,0,0,0,0,0,0,-1,1609,1408,0,0
392,-384,0,0,0,0,0,0,0,0,0,-1,1616,1408,0,0
399,-384,0,0,0,0,0,0,0,0,0,-1,1623,1408,0,0
406,-384,0,0,0,0,0,0,0,0,0,-1,1630,1408,0,0
413,-384,0,0,0,0,0,0,0,0,0,-1,1637,1408,0,0
420,-384,0,0,0,0,0,0,0,0,0,-1,1644,1408,0,0
427,-384,0,0,0,0,0,0,0,0,0,-1,1651,1408,0,0
434,-384,0,0,0,0,0,0,0,0,0,-1,1658,1408,0,0
441,-384,0,0,0,0,0,0,0,0,0,-1,1665,1408,0,0
448,-384,0,0,0,0,0,0,0,0,0,-1,1672,1408,0,0
455,-384,0,0,0,0,0,0,0,0,0,-1,1679,1408,0,0
462,-384,0,0,0,0,0,0,0,0,0,-1,1686,1408,0,0
469,-384,0,0,0,0,0,0,0,0,0,-1,1693,1408,0,0
476,-384,0,0,0,0,0,0,0,0,0,-1,1700,1408,0,0
483,-384,0,0,0,0,0,0,0,0,0,-1,1707,1408,0,0
490,-384,0,0,0,0,0,0,0,0,0,-1,1714,1408,0,0
497,-384,0,0,0,0,0,0,0,0,0,-1,1721,1408,0,0
504,-384,0,0,0,0,0,0,0,0,0,-1,1728,1408,0,0
511,-384,0,0,0,0,0,0,0,0,0,-1,1735,1408,0,0
518,-384,0,0,0,0,0,0,0,0,0,-1,1742,1408,0,0
525,-384,0,0,0,0,0,0,0,0,0,-1,1749,1408,0,0
532,-384,0,0,0,0,0,0,0,0,0,-1,1756,1408,0,0
539,-384,27.6886,2.85803,0,0,0,0,0,0,0,-1,1763,1408,27.6886,-2.85807
546,-384,27.5044,2.9425,0,0,0,0,0,0,0,-1,1770,1408,27.5044,-2.94255
553,-384,27.3052,2.78394,0,0,0,0,0,0,0,-1,1777,1408,27.3051,-2.78394
560,-384,26.833,3.19812,0,0,0,0,0,0,0,-1,1784,1408,26.833,-3.19816
567,-384,38.2566,0.109985,0,0,0,0,0,0,0,-1,1791,1408,38.2566,-0.110044
574,-384,38.4003,2.05945,0,0,0,0,0,0,0,-1,1798,1408,38.4003,-2.05949
581,-384,25.819,3.91846,0,0,0,0,0,0,0,-1,1805,1408,25.8189,-3.91848
588,-384,23.3721,4.25439,0,0,0,0,0,0,0,-1,1812,1408,23.3721,-4.25442
595,-384,24.981,5.59595,0,0,0,0,0,0,0,-1,1819,1408,24.981,-5.59598
602,-384,20.6605,4.17261,0,0,0,0,0,0,0,-1,1826,1408,20.6606,-4.17265
609,-384,14.158,5.49475,0,0,0,0,0,0,0,-1,1833,1408,14.158,-5.49474
616,-384,14.7997,7.6908,0,0,0,0,0,0,0,-1,1840,1408,14.7996,-7.69079
623,-384,16.4293,9.58899,0,0,0,0,0,0,0,-1,1847,1408,16.4294,-9.58901
630,-384,81.8457,60.5172,0,0,0,0,0,0,0,-1,1854,1408,81.8457,-60.5173
637,-384,160.634,72.0553,0,0,0,0,0,0,0,-1,1861,1408,160.634,-72.0553
644,-384,160.482,68.2362,0,0,0,0,0,0,0,-1,1868,1408,160.482,-68.2363
651,-384,159.69,65.3254,-0.00795587,0.015052,0.0251865,0.0312374,-0.0241413,0.999625,0.0320603,0.0323588,1875,1408,159.69,-65.3255
658,-384,158.953,62.4431,-0.00549826,0.0203672,0.0258145,0.0363074,-0.0214384,1.01762,0.033706,0.0272784,1882,1408,158.953,-62.4431
665,-384,158.437,59.6221,-0.00340534,0.0252206,0.0268467,0.0413315,-0.0195162,1.0303,0.0358751,0.0268578,1889,1408,158.437,-59.6221
672,-384,157.861,56.894,-0.00199905,0.0296568,0.0284051,0.0463462,-0.0186884,1.03958,0.038663,0.0257774,1896,1408,157.861,-56.894
679,-384,157.237,54.2341,-0.000878084,0.0338152,0.0302498,0.0513391,-0.018402,1.04573,0.041735,0.0237568,1903,1408,157.237,-54.2341
686,-384,156.759,51.6388,0.000346468,0.0375203,0.0324604,0.0563386,-0.0184718,1.04541,0.0449984,0.034821,1910,1408,156.759,-51.6388
693,-384,156.458,48.829,0,0,0,0,0,0,0,-1,1917,1408,156.458,-48.829
700,-384,41.9762,14.4678,0,0,0,0,0,0,0,-1,1924,1408,41.9762,-14.4678
707,-384,17.0566,6.62842,0,0,0,0,0,0,0,-1,1931,1408,17.0567,-6.62848
714,-384,16.038,5.0282,0,0,0,0,0,0,0,-1,1938,1408,16.038,-5.02819
721,-384,13.8843,2.8717,0,0,0,0,0,0,0,-1,1945,1408,13.8843,-2.87171
728,-384,15.4409,6.25745,0,0,0,0,0,0,0,-1,1952,1408,15.4409,-6.2574
735,-384,16.7598,6.71289,0,0,0,0,0,0,0,-1,1959,1408,16.7598,-6.71287
742,-384,0,0,0,0,0,0,0,0,0,-1,1966,1408,0,0
749,-384,0,0,0,0,0,0,0,0,0,-1,1973,1408,0,0
756,-384,0,0,0,0,0,0,0,0,0,-1,1980,1408,0,0
763,-384,0,0,0,0,0,0,0,0,0,-1,1987,1408,0,0
770,-384,0,0,0,0,0,0,0,0,0,-1,1994,1408,0,0
777,-384,0,0,0,0,0,0,0,0,0,-1,2001,1408,0,0
784,-384,0,0,0,0,0,0,0,0,0,-1,2008,1408,0,0
791,-384,0,0,0,0,0,0,0,0,0,-1,2015,1408,0,0
798,-384,0,0,0,0,0,0,0,0,0,-1,2022,1408,0,0
805,-384,0,0,0,0,0,0,0,0,0,-1,2029,1408,0,0
812,-384,0,0,0,0,0,0,0,0,0,-1,2036,1408,0,0
-700,-391,0,0,0,0,0,0,0,0,0,-1,524,1415,0,0
-693,-391,0,0,0,0,0,0,0,0,0,-1,531,1415,0,0
-686,-391,0,0,0,0,0,0,0,0,0,-1,538,1415,0,0
-679,-391,0,0,0,0,0,0,0,0,0,-1,545,1415,0,0
-672,-391,0,0,0,0,0,0,0,0,0,-1,552,1415,0,0
-665,-391,0,0,0,0,0,0,0,0,0,-1,559,1415,0,0
-658,-391,0,0,0,0,0,0,0,0,0,-1,566,1415,0,0
-651,-391,0,0,0,0,0,0,0,0,0,-1,573,1415,0,0
-644,-391,0,0,0,0,0,0,0,0,0,-1,580,1415,0,0
-637,-391,0,0,0,0,0,0,0,0,0,-1,587,1415,0,0
-630,-391,0,0,0,0,0,0,0,0,0,-1,594,1415,0,0
-623,-391,0,0,0,0,0,0,0,0,0,-1,601,1415,0,0
-616,-391,0,0,0,0,0,0,0,0,0,-1,608,1415,0,0
-609,-391,-7.71753,-3.69763,0,0,0,0,0,0,0,-1,615,1415,-7.71751,3.69759
-602,-391,-13.9493,-4.12805,0,0,0,0,0,0,0,-1,622,1415,-13.9493,4.12803
-595,-391,-10.8315,1.76172,0,0,0,0,0,0,0,-1,629,1415,-10.8315,-1.76171
-588,-391,-10.265,2.16431,0,0,0,0,0,0,0,-1,636,1415,-10.265,-2.16431
-581,-391,-11.3325,2.44836,0,0,0,0,0,0,0,-1,643,1415,-11.3325,-2.44842
-574,-391,-11.1471,6.19983,0,0,0,0,0,0,0,-1,650,1415,-11.1471,-6.19981
-567,-391,-11.5172,6.82458,0,0,0,0,0,0,0,-1,657,1415,-11.5171,-6.82454
-560,-391,-11.2459,7.37195,0,0,0,0,0,0,0,-1,664,1415,-11.2459,-7.37191
-553,-391,-146.776,48.1827,0,0,0,0,0,0,0,-1,671,1415,-146.776,-48.1827
-546,-391,-147.081,50.9768,0.0138638,0.058767,-0.0329811,0.0762131,-0.00358231,-1.08424,0.052044,0.0397282,678,1415,-147.081,-50.9768
-539,-391,-147.433,53.8676,0.01159,0.0524023,-0.0328344,0.070655,-0.00666273,-1.06343,0.049474,0.0217587,685,1415,-147.433,-53.8676
-532,-391,-147.946,56.6628,0.0101796,0.0471965,-0.0317329,0.0654241,-0.00804803,-1.04941,0.0465313,0.0343682,692,1415,-147.946,-56.6628
-525,-391,-148.676,59.464,0.00949121,0.0429401,-0.0298375,0.0604207,-0.0079894,-1.04084,0.0431906,0.0291553,699,1415,-148.676,-59.464
-518,-391,-149.253,62.4083,0.00926279,0.0400648,-0.0270959,0.0558307,-0.00650313,-1.04382,0.0395667,0.0248333,706,1415,-149.253,-62.4083
-511,-391,-150.155,65.031,0,0,0,0,0,0,0,-1,713,1415,-150.155,-65.031
-504,-391,-151.324,67.4218,0,0,0,0,0,0,0,-1,720,1415,-151.324,-67.4218
-497,-391,-141.719,72.4164,0,0,0,0,0,0,0,-1,727,1415,-141.719,-72.4164
-490,-391,-93.2216,74.1921,0,0,0,0,0,0,0,-1,734,1415,-93.2216,-74.1922
-483,-391,-11.1018,12.9382,0,0,0,0,0,0,0,-1,741,1415,-11.1018,-12.9382
-476,-391,-6.05731,6.85303,0,0,0,0,0,0,0,-1,748,1415,-6.05728,-6.85304
-469,-391,-3.88953,5.0979,0,0,0,0,0,0,0,-1,755,1415,-3.88955,-5.09794
-462,-391,-8.67688,2.03125,0,0,0,0,0,0,0,-1,762,1415,-8.67685,-2.03121
-455,-391,-8.65576,6.46997,0,0,0,0,0,0,0,-1,769,1415,-8.65579,-6.46999
-448,-391,-8.39618,4.38403,0,0,0,0,0,0,0,-1,776,1415,-8.39617,-4.38405
-441,-391,-9.77704,2.5946,0,0,0,0,0,0,0,-1,783,1415,-9.77702,-2.5946
-434,-391,-11.5403,2.12878,0,0,0,0,0,0,0,-1,790,1415,-11.5403,-2.12881
-427,-391,-10.5311,2.50403,0,0,0,0,0,0,0,-1,797,1415,-10.5311,-2.504
-420,-391,-14.7087,1.24365,0,0,0,0,0,0,0,-1,804,1415,-14.7088,-1.24365
-413,-391,0,0,0,0,0,0,0,0,0,-1,811,1415,0,0
-406,-391,0,0,0,0,0,0,0,0,0,-1,818,1415,0,0
-399,-391,0,0,0,0,0,0,0,0,0,-1,825,1415,0,0
-392,-391,0,0,0,0,0,0,0,0,0,-1,832,1415,0,0
-385,-391,0,0,0,0,0,0,0,0,0,-1,839,1415,0,0
-378,-391,0,0,0,0,0,0,0,0,0,-1,846,1415,0,0
-371,-391,0,0,0,0,0,0,0,0,0,-1,853,1415,0,0
-364,-391,0,0,0,0,0,0,0,0,0,-1,860,1415,0,0
-357,-391,0,0,0,0,0,0,0,0,0,-1,867,1415,0,0
-350,-391,0,0,0,0,0,0,0,0,0,-1,874,1415,0,0
-343,-391,0,0,0,0,0,0,0,0,0,-1,881,1415,0,0
-336,-391,0,0,0,0,0,0,0,0,0,-1,888,1415,0,0
-329,-391,0,0,0,0,0,0,0,0,0,-1,895,1415,0,0
-322,-391,0,0,0,0,0,0,0,0,0,-1,902,1415,0,0
-315,-391,0,0,0,0,0,0,0,0,0,-1,909,1415,0,0
-308,-391,0,0,0,0,0,0,0,0,0,-1,916,1415,0,0
-301,-391,0,0,0,0,0,0,0,0,0,-1,923,1415,0,0
-294,-391,0,0,0,0,0,0,0,0,0,-1,930,1415,0,0
-287,-391,0,0,0,0,0,0,0,0,0,-1,937,1415,0,0
-280,-391,0,0,0,0,0,0,0,0,0,-1,944,1415,0,0
-273,-391,0,0,0,0,0,0,0,0,0,-1,951,1415,0,0
-266,-391,0,0,0,0,0,0,0,0,0,-1,958,1415,0,0
-259,-391,0,0,0,0,0,0,0,0,0,-1,965,1415,0,0
-252,-391,0,0,0,0,0,0,0,0,0,-1,972,1415,0,0
-245,-391,0,0,0,0,0,0,0,0,0,-1,979,1415,0,0
-238,-391,0,0,0,0,0,0,0,0,0,-1,986,1415,0,0
-231,-391,0,0,0,0,0,0,0,0,0,-1,993,1415,0,0
-224,-391,0,0,0,0,0,0,0,0,0,-1,1000,1415,0,0
-217,-391,0,0,0,0,0,0,0,0,0,-1,1007,1415,0,0
-210,-391,0,0,0,0,0,0,0,0,0,-1,1014,1415,0,0
-203,-391,0,0,0,0,0,0,0,0,0,-1,1021,1415,0,0
-196,-391,0,0,0,0,0,0,0,0,0,-1,1028,1415,0,0
-189,-391,0,0,0,0,0,0,0,0,0,-1,1035,1415,0,0
-182,-391,0,0,0,0,0,0,0,0,0,-1,1042,1415,0,0
-175,-391,0,0,0,0,0,0,0,0,0,-1,1049,1415,0,0
-168,-391,0,0,0,0,0,0,0,0,0,-1,1056,1415,0,0
-161,-391,0,0,0,0,0,0,0,0,0,-1,1063,1415,0,0
-154,-391,0,0,0,0,0,0,0,0,0,-1,1070,1415,0,0
-147,-391,0,0,0,0,0,0,0,0,0,-1,1077,1415,0,0
-140,-391,0,0,0,0,0,0,0,0,0,-1,1084,1415,0,0
-133,-391,0,0,0,0,0,0,0,0,0,-1,1091,1415,0,0
-126,-391,0,0,0,0,0,0,0,0,0,-1,1098,1415,0,0
-119,-391,0,0,0,0,0,0,0,0,0,-1,1105,1415,0,0
-112,-391,0,0,0,0,0,0,0,0,0,-1,1112,1415,0,0
-105,-391,0,0,0,0,0,0,0,0,0,-1,1119,1415,0,0
-98,-391,0,0,0,0,0,0,0,0,0,-1,1126,1415,0,0
-91,-391,0,0,0,0,0,0,0,0,0,-1,1133,1415,0,0
-84,-391,0,0,0,0,0,0,0,0,0,-1,1140,1415,0,0
-77,-391,0,0,0,0,0,0,0,0,0,-1,1147,1415,0,0
-70,-391,0,0,0,0,0,0,0,0,0,-1,1154,1415,0,0
-63,-391,0,0,0,0,0,0,0,0,0,-1,1161,1415,0,0
-56,-391,0,0,0,0,0,0,0,0,0,-1,1168,1415,0,0
-49,-391,0,0,0,0,0,0,0,0,0,-1,1175,1415,0,0
-42,-391,0,0,0,0,0,0,0,0,0,-1,1182,1415,0,0
-35,-391,0,0,0,0,0,0,0,0,0,-1,1189,1415,0,0
-28,-391,0,0,0,0,0,0,0,0,0,-1,1196,1415,0,0
-21,-391,0,0,0,0,0,0,0,0,0,-1,1203,1415,0,0
-14,-391,0,0,0,0,0,0,0,0,0,-1,1210,1415,0,0
-7,-391,0,0,0,0,0,0,0,0,0,-1,1217,1415,0,0
0,-391,0,0,0,0,0,0,0,0,0,-1,1224,1415,0,0
7,-391,0,0,0,0,0,0,0,0,0,-1,1231,1415,0,0
14,-391,0,0,0,0,0,0,0,0,0,-1,1238,1415,0,0
21,-391,0,0,0,0,0,0,0,0,0,-1,1245,1415,0,0
28,-391,0,0,0,0,0,0,0,0,0,-1,1252,1415,0,0
35,-391,0,0,0,0,0,0,0,0,0,-1,1259,1415,0,0
42,-391,0,0,0,0,0,0,0,0,0,-1,1266,1415,0,0
49,-391,0,0,0,0,0,0,0,0,0,-1,1273,1415,0,0
56,-391,0,0,0,0,0,0,0,0,0,-1,1280,1415,0,0
63,-391,0,0,0,0,0,0,0,0,0,-1,1287,1415,0,0
70,-391,0,0,0,0,0,0,0,0,0,-1,1294,1415,0,0
77,-391,0,0,0,0,0,0,0,0,0,-1,1301,1415,0,0
84,-391,0,0,0,0,0,0,0,0,0,-1,1308,1415,0,0
91,-391,0,0,0,0,0,0,0,0,0,-1,1315,1415,0,0
98,-391,0,0,0,0,0,0,0,0,0,-1,1322,1415,0,0
105,-391,0,0,0,0,0,0,0,0,0,-1,1329,1415,0,0
112,-391,0,0,0,0,0,0,0,0,0,-1,1336,1415,0,0
119,-391,0,0,0,0,0,0,0,0,0,-1,1343,1415,0,0
126,-391,0,0,0,0,0,0,0,0,0,-1,1350,1415,0,0
133,-391,0,0,0,0,0,0,0,0,0,-1,1357,1415,0,0
140,-391,0,0,0,0,0,0,0,0,0,-1,1364,1415,0,0
147,-391,0,0,0,0,0,0,0,0,0,-1,1371,1415,0,0
154,-391,0,0,0,0,0,0,0,0,0,-1,1378,1415,0,0
161,-391,0,0,0,0,0,0,0,0,0,-1,1385,1415,0,0
168,-391,0,0,0,0,0,0,0,0,0,-1,1392,1415,0,0
175,-391,0,0,0,0,0,0,0,0,0,-1,1399,1415,0,0
182,-391,0,0,0,0,0,0,0,0,0,-1,1406,1415,0,0
189,-391,0,0,0,0,0,0,0,0,0,-1,1413,1415,0,0
196,-391,0,0,0,0,0,0,0,0,0,-1,1420,1415,0,0
203,-391,0,0,0,0,0,0,0,0,0,-1,1427,1415,0,0
210,-391,0,0,0,0,0,0,0,0,0,-1,1434,1415,0,0
217,-391,0,0,0,0,0,0,0,0,0,-1,1441,1415,0,0
224,-391,0,0,0,0,0,0,0,0,0,-1,1448,1415,0,0
231,-391,0,0,0,0,0,0,0,0,0,-1,1455,1415,0,0
238,-391,0,0,0,0,0,0,0,0,0,-1,1462,1415,0,0
245,-391,0,0,0,0,0,0,0,0,0,-1,1469,1415,0,0
252,-391,0,0,0,0,0,0,0,0,0,-1,1476,1415,0,0
259,-391,0,0,0,0,0,0,0,0,0,-1,1483,1415,0,0
266,-391,0,0,0,0,0,0,0,0,0,-1,1490,1415,0,0
273,-391,0,0,0,0,0,0,0,0,0,-1,1497,1415,0,0
280,-391,0,0,0,0,0,0,0,0,0,-1,1504,1415,0,0
287,-391,0,0,0,0,0,0,0,0,0,-1,1511,1415,0,0
294,-391,0,0,0,0,0,0,0,0,0,-1,1518,1415,0,0
301,-391,0,0,0,0,0,0,0,0,0,-1,1525,1415,0,0
308,-391,0,0,0,0,0,0,0,0,0,-1,1532,1415,0,0
315,-391,0,0,0,0,0,0,0,0,0,-1,1539,1415,0,0
322,-391,0,0,0,0,0,0,0,0,0,-1,1546,1415,0,0
329,-391,0,0,0,0,0,0,0,0,0,-1,1553,1415,0,0
336,-391,0,0,0,0,0,0,0,0,0,-1,1560,1415,0,0
343,-391,0,0,0,0,0,0,0,0,0,-1,1567,1415,0,0
350,-391,0,0,0,0,0,0,0,0,0,-1,1574,1415,0,0
357,-391,0,0,0,0,0,0,0,0,0,-1,1581,1415,0,0
364,-391,0,0,0,0,0,0,0,0,0,-1,1588,1415,0,0
371,-391,0,0,0,0,0,0,0,0,0,-1,1595,1415,0,0
378,-391,0,0,0,0,0,0,0,0,0,-1,1602,1415,0,0
385,-391,0,0,0,0,0,0,0,0,0,-1,1609,1415,0,0
392,-391,0,0,0,0,0,0,0,0,0,-1,1616,1415,0,0
399,-391,0,0,0,0,0,0,0,0,0,-1,1623,1415,0,0
406,-391,0,0,0,0,0,0,0,0,0,-1,1630,1415,0,0
413,-391,0,0,0,0,0,0,0,0,0,-1,1637,1415,0,0
420,-391,0,0,0,0,0,0,0,0,0,-1,1644,1415,0,0
427,-391,0,0,0,0,0,0,0,0,0,-1,1651,1415,0,0
434,-391,0,0,0,0,0,0,0,0,0,-1,1658,1415,0,0
441,-391,0,0,0,0,0,0,0,0,0,-1,1665,1415,0,0
448,-391,0,0,0,0,0,0,0,0,0,-1,1672,1415,0,0
455,-391,0,0,0,0,0,0,0,0,0,-1,1679,1415,0,0
462,-391,0,0,0,0,0,0,0,0,0,-1,1686,1415,0,0
469,-391,0,0,0,0,0,0,0,0,0,-1,1693,1415,0,0
476,-391,0,0,0,0,0,0,0,0,0,-1,1700,1415,0,0
483,-391,0,0,0,0,0,0,0,0,0,-1,1707,1415,0,0
490,-391,0,0,0,0,0,0,0,0,0,-1,1714,1415,0,0
497,-391,0,0,0,0,0,0,0,0,0,-1,1721,1415,0,0
504,-391,0,0,0,0,0,0,0,0,0,-1,1728,1415,0,0
511,-391,0,0,0,0,0,0,0,0,0,-1,1735,1415,0,0
518,-391,0,0,0,0,0,0,0,0,0,-1,1742,1415,0,0
525,-391,0,0,0,0,0,0,0,0,0,-1,1749,1415,0,0
532,-391,28.5959,3.02356,0,0,0,0,0,0,0,-1,1756,1415,28.596,-3.02358
539,-391,27.5881,3.25012,0,0,0,0,0,0,0,-1,1763,1415,27.5882,-3.25016
546,-391,27.2837,3.28064,0,0,0,0,0,0,0,-1,1770,1415,27.2837,-3.28064
553,-391,32.5952,5.04553,0,0,0,0,0,0,0,-1,1777,1415,32.5952,-5.04551
560,-391,31.2947,5.67017,0,0,0,0,0,0,0,-1,1784,1415,31.2947,-5.67011
567,-391,30.1473,6.17603,0,0,0,0,0,0,0,-1,1791,1415,30.1473,-6.17602
574,-391,27.5656,5.6842,0,0,0,0,0,0,0,-1,1798,1415,27.5655,-5.68422
581,-391,25.8883,5.76123,0,0,0,0,0,0,0,-1,1805,1415,25.8883,-5.76124
588,-391,24.2717,5.47986,0,0,0,0,0,0,0,-1,1812,1415,24.2717,-5.47982
595,-391,22.8827,6.1991,0,0,0,0,0,0,0,-1,1819,1415,22.8827,-6.19909
602,-391,15.1635,5.69849,0,0,0,0,0,0,0,-1,1826,1415,15.1635,-5.69847
609,-391,14.8285,7.50476,0,0,0,0,0,0,0,-1,1833,1415,14.8285,-7.50479
616,-391,20.7952,12.0503,0,0,0,0,0,0,0,-1,1840,1415,20.7952,-12.0503
623,-391,36.6426,20.3677,0,0,0,0,0,0,0,-1,1847,1415,36.6426,-20.3676
630,-391,129.99,76.0531,0,0,0,0,0,0,0,-1,1854,1415,129.991,-76.0531
637,-391,157.935,72.0469,0,0,0,0,0,0,0,-1,1861,1415,157.935,-72.0469
644,-391,157.077,69.0505,-0.0114725,0.0117728,0.0279423,0.0304133,-0.030113,0.982488,0.034945,0.0350519,1868,1415,157.077,-69.0505
651,-391,156.443,66.1519,-0.00745999,0.0177076,0.0274696,0.0353386,-0.025091,1.00018,0.0350558,0.029218,1875,1415,156.444,-66.1518
658,-391,155.783,63.1718,-0.00430176,0.0230745,0.0276757,0.0402621,-0.0214894,1.01505,0.0361972,0.0249213,1882,1415,155.783,-63.1717
665,-391,155.182,60.2664,-0.00188911,0.0280022,0.0285308,0.0452649,-0.0191518,1.02667,0.0381961,0.0194323,1889,1415,155.182,-60.2663
672,-391,154.622,57.5127,-0.00037996,0.0324572,0.0300212,0.0502562,-0.018179,1.03563,0.0409323,0.0185846,1896,1415,154.622,-57.5126
679,-391,153.961,54.7756,0.000810136,0.0365641,0.0318316,0.0551952,-0.017821,1.04125,0.0439582,0.0203928,1903,1415,153.961,-54.7756
686,-391,153.337,52.1497,0,0,0,0,0,0,0,-1,1910,1415,153.337,-52.1497
693,-391,55.7168,25.5087,0,0,0,0,0,0,0,-1,1917,1415,55.7168,-25.5087
700,-391,39.8163,14.4929,0,0,0,0,0,0,0,-1,1924,1415,39.8163,-14.4929
707,-391,12.9524,5.96851,0,0,0,0,0,0,0,-1,1931,1415,12.9524,-5.96849
714,-391,15.6875,7.67896,0,0,0,0,0,0,0,-1,1938,1415,15.6875,-7.67893
721,-391,14.1808,8.08435,0,0,0,0,0,0,0,-1,1945,1415,14.1808,-8.08439
728,-391,13.8102,7.28174,0,0,0,0,0,0,0,-1,1952,1415,13.8102,-7.28174
735,-391,0,0,0,0,0,0,0,0,0,-1,1959,1415,0,0
742,-391,0,0,0,0,0,0,0,0,0,-1,1966,1415,0,0
749,-391,0,0,0,0,0,0,0,0,0,-1,1973,1415,0,0
756,-391,0,0,0,0,0,0,0,0,0,-1,1980,1415,0,0
763,-391,0,0,0,0,0,0,0,0,0,-1,1987,1415,0,0
770,-391,0,0,0,0,0,0,0,0,0,-1,1994,1415,0,0
777,-391,0,0,0,0,0,0,0,0,0,-1,2001,1415,0,0
784,-391,0,0,0,0,0,0,0,0,0,-1,2008,1415,0,0
791,-391,0,0,0,0,0,0,0,0,0,-1,2015,1415,0,0
798,-391,0,0,0,0,0,0,0,0,0,-1,2022,1415,0,0
805,-391,0,0,0,0,0,0,0,0,0,-1,2029,1415,0,0
812,-391,0,0,0,0,0,0,0,0,0,-1,2036,1415,0,0
-700,-398,0,0,0,0,0,0,0,0,0,-1,524,1422,0,0
-693,-398,0,0,0,0,0,0,0,0,0,-1,531,1422,0,0
-686,-398,0,0,0,0,0,0,0,0,0,-1,538,1422,0,0
-679,-398,0,0,0,0,0,0,0,0,0,-1,545,1422,0,0
-672,-398,0,0,0,0,0,0,0,0,0,-1,552,1422,0,0
-665,-398,0,0,0,0,0,0,0,0,0,-1,559,1422,0,0
-658,-398,0,0,0,0,0,0,0,0,0,-1,566,1422,0,0
-651,-398,0,0,0,0,0,0,0,0,0,-1,573,1422,0,0
-644,-398,0,0,0,0,0,0,0,0,0,-1,580,1422,0,0
-637,-398,0,0,0,0,0,0,0,0,0,-1,587,1422,0,0
-630,-398,0,0,0,0,0,0,0,0,0,-1,594,1422,0,0
-623,-398,0,0,0,0,0,0,0,0,0,-1,601,1422,0,0
-616,-398,0,0,0,0,0,0,0,0,0,-1,608,1422,0,0
-609,-398,-7.47125,-4.05322,0,0,0,0,0,0,0,-1,615,1422,-7.47128,4.05317
-602,-398,-4.58868,-2.77026,0,0,0,0,0,0,0,-1,622,1422,-4.58869,2.77023
-595,-398,-12.2224,-1.82007,0,0,0,0,0,0,0,-1,629,1422,-12.2224,1.82006
-588,-398,-10.6939,1.32336,0,0,0,0,0,0,0,-1,636,1422,-10.6939,-1.32337
-581,-398,-10.433,3.1123,0,0,0,0,0,0,0,-1,643,1422,-10.433,-3.11233
-574,-398,-10.4475,5.89807,0,0,0,0,0,0,0,-1,650,1422,-10.4475,-5.89802
-567,-398,-10.4904,6.80115,0,0,0,0,0,0,0,-1,657,1422,-10.4904,-6.80115
-560,-398,-10.5333,7.70435,0,0,0,0,0,0,0,-1,664,1422,-10.5333,-7.70429
-553,-398,-26.3343,18.9387,0,0,0,0,0,0,0,-1,671,1422,-26.3343,-18.9387
-546,-398,-143.647,51.1737,0,0,0,0,0,0,0,-1,678,1422,-143.647,-51.1737
-539,-398,-144.082,54.2957,0.0119661,0.0551145,-0.0351746,0.0748041,-0.00772348,-1.06049,0.0526331,0.0206533,685,1422,-144.082,-54.2957
-532,-398,-144.693,57.1967,0.0107939,0.0499871,-0.0339526,0.0695926,-0.00881161,-1.04713,0.0495939,0.0310897,692,1422,-144.693,-57.1966
-525,-398,-145.379,60.0573,0.0101782,0.0457298,-0.0320083,0.064567,-0.00865899,-1.03887,0.0462022,0.0270679,699,1422,-145.379,-60.0573
-518,-398,-145.897,63.0096,0.00978413,0.0428958,-0.0292933,0.0599881,-0.00730811,-1.04261,0.0426374,0.0262242,706,1422,-145.897,-63.0097
-511,-398,-146.302,65.8888,0,0,0,0,0,0,0,-1,713,1422,-146.302,-65.8888
-504,-398,-147.291,69.1659,0,0,0,0,0,0,0,-1,720,1422,-147.291,-69.166
-497,-398,-147.84,72.3032,0,0,0,0,0,0,0,-1,727,1422,-147.84,-72.3032
-490,-398,-115.703,78.3671,0,0,0,0,0,0,0,-1,734,1422,-115.703,-78.3671
-483,-398,-89.6431,76.8677,0,0,0,0,0,0,0,-1,741,1422,-89.6431,-76.8676
-476,-398,-8.64392,11.9448,0,0,0,0,0,0,0,-1,748,1422,-8.6439,-11.9448
-469,-398,-8.91699,10.6276,0,0,0,0,0,0,0,-1,755,1422,-8.91697,-10.6275
-462,-398,-9.59753,9.32532,0,0,0,0,0,0,0,-1,762,1422,-9.59753,-9.32531
-455,-398,-8.08331,6.75024,0,0,0,0,0,0,0,-1,769,1422,-8.08333,-6.75022
-448,-398,-7.4505,5.25293,0,0,0,0,0,0,0,-1,776,1422,-7.4505,-5.25291
-441,-398,-7.61639,3.32141,0,0,0,0,0,0,0,-1,783,1422,-7.61637,-3.32145
-434,-398,-10.7618,3.297,0,0,0,0,0,0,0,-1,790,1422,-10.7618,-3.29704
-427,-398,-11.9061,2.24939,0,0,0,0,0,0,0,-1,797,1422,-11.9061,-2.24941
-420,-398,-13.467,2.32788,0,0,0,0,0,0,0,-1,804,1422,-13.467,-2.32787
-413,-398,-14.7983,2.15515,0,0,0,0,0,0,0,-1,811,1422,-14.7983,-2.15516
-406,-398,0,0,0,0,0,0,0,0,0,-1,818,1422,0,0
-399,-398,0,0,0,0,0,0,0,0,0,-1,825,1422,0,0
-392,-398,0,0,0,0,0,0,0,0,0,-1,832,1422,0,0
-385,-398,0,0,0,0,0,0,0,0,0,-1,839,1422,0,0
-378,-398,0,0,0,0,0,0,0,0,0,-1,846,1422,0,0
-371,-398,0,0,0,0,0,0,0,0,0,-1,853,1422,0,0
-364,-398,0,0,0,0,0,0,0,0,0,-1,860,1422,0,0
-357,-398,0,0,0,0,0,0,0,0,0,-1,867,1422,0,0
-350,-398,0,0,0,0,0,0,0,0,0,-1,874,1422,0,0
-343,-398,0,0,0,0,0,0,0,0,0,-1,881,1422,0,0
-336,-398,0,0,0,0,0,0,0,0,0,-1,888,1422,0,0
-329,-398,0,0,0,0,0,0,0,0,0,-1,895,1422,0,0
-322,-398,0,0,0,0,0,0,0,0,0,-1,902,1422,0,0
-315,-398,0,0,0,0,0,0,0,0,0,-1,909,1422,0,0
-308,-398,0,0,0,0,0,0,0,0,0,-1,916,1422,0,0
-301,-398,0,0,0,0,0,0,0,0,0,-1,923,1422,0,0
-294,-398,0,0,0,0,0,0,0,0,0,-1,930,1422,0,0
-287,-398,0,0,0,0,0,0,0,0,0,-1,937,1422,0,0
-280,-398,0,0,0,0,0,0,0,0,0,-1,944,1422,0,0
-273,-398,0,0,0,0,0,0,0,0,0,-1,951,1422,0,0
-266,-398,0,0,0,0,0,0,0,0,0,-1,958,1422,0,0
-259,-398,0,0,0,0,0,0,0,0,0,-1,965,1422,0,0
-252,-398,0,0,0,0,0,0,0,0,0,-1,972,1422,0,0
-245,-398,0,0,0,0,0,0,0,0,0,-1,979,1422,0,0
-238,-398,0,0,0,0,0,0,0,0,0,-1,986,1422,0,0
-231,-398,0,0,0,0,0,0,0,0,0,-1,993,1422,0,0
-224,-398,0,0,0,0,0,0,0,0,0,-1,1000,1422,0,0
-217,-398,0,0,0,0,0,0,0,0,0,-1,1007,1422,0,0
-210,-398,0,0,0,0,0,0,0,0,0,-1,1014,1422,0,0
-203,-398,0,0,0,0,0,0,0,0,0,-1,1021,1422,0,0
-196,-398,0,0,0,0,0,0,0,0,0,-1,1028,1422,0,0
-189,-398,0,0,0,0,0,0,0,0,0,-1,1035,1422,0,0
-182,-398,0,0,0,0,0,0,0,0,0,-1,1042,1422,0,0
-175,-398,0,0,0,0,0,0,0,0,0,-1,1049,1422,0,0
-168,-398,0,0,0,0,0,0,0,0,0,-1,1056,1422,0,0
-161,-398,0,0,0,0,0,0,0,0,0,-1,1063,1422,0,0
-154,-398,0,0,0,0,0,0,0,0,0,-1,1070,1422,0,0
-147,-398,0,0,0,0,0,0,0,0,0,-1,1077,1422,0,0
-140,-398,0,0,0,0,0,0,0,0,0,-1,1084,1422,0,0
-133,-398,0,0,0,0,0,0,0,0,0,-1,1091,1422,0,0
-126,-398,0,0,0,0,0,0,0,0,0,-1,1098,1422,0,0
-119,-398,0,0,0,0,0,0,0,0,0,-1,1105,1422,0,0
-112,-398,0,0,0,0,0,0,0,0,0,-1,1112,1422,0,0
-105,-398,0,0,0,0,0,0,0,0,0,-1,1119,1422,0,0
-98,-398,0,0,0,0,0,0,0,0,0,-1,1126,1422,0,0
-91,-398,0,0,0,0,0,0,0,0,0,-1,1133,1422,0,0
-84,-398,0,0,0,0,0,0,0,0,0,-1,1140,1422,0,0
-77,-398,0,0,0,0,0,0,0,0,0,-1,1147,1422,0,0
-70,-398,0,0,0,0,0,0,0,0,0,-1,1154,1422,0,0
-63,-398,0,0,0,0,0,0,0,0,0,-1,1161,1422,0,0
-56,-398,0,0,0,0,0,0,0,0,0,-1,1168,1422,0,0
-49,-398,0,0,0,0,0,0,0,0,0,-1,1175,1422,0,0
-42,-398,0,0,0,0,0,0,0,0,0,-1,1182,1422,0,0
-35,-398,0,0,0,0,0,0,0,0,0,-1,1189,1422,0,0
-28,-398,0,0,0,0,0,0,0,0,0,-1,1196,1422,0,0
-21,-398,0,0,0,0,0,0,0,0,0,-1,1203,1422,0,0
-14,-398,0,0,0,0,0,0,0,0,0,-1,1210,1422,0,0
-7,-398,0,0,0,0,0,0,0,0,0,-1,1217,1422,0,0
0,-398,0,0,0,0,0,0,0,0,0,-1,1224,1422,0,0
7,-398,0,0,0,0,0,0,0,0,0,-1,1231,1422,0,0
14,-398,0,0,0,0,0,0,0,0,0,-1,1238,1422,0,0
21,-398,0,0,0,0,0,0,0,0,0,-1,1245,1422,0,0
28,-398,0,0,0,0,0,0,0,0,0,-1,1252,1422,0,0
35,-398,0,0,0,0,0,0,0,0,0,-1,1259,1422,0,0
42,-398,0,0,0,0,0,0,0,0,0,-1,1266,1422,0,0
49,-398,0,0,0,0,0,0,0,0,0,-1,1273,1422,0,0
56,-398,0,0,0,0,0,0,0,0,0,-1,1280,1422,0,0
63,-398,0,0,0,0,0,0,0,0,0,-1,1287,1422,0,0
70,-398,0,0,0,0,0,0,0,0,0,-1,1294,1422,0,0
77,-398,0,0,0,0,0,0,0,0,0,-1,1301,1422,0,0
84,-398,0,0,0,0,0,0,0,0,0,-1,1308,1422,0,0
91,-398,0,0,0,0,0,0,0,0,0,-1,1315,1422,0,0
98,-398,0,0,0,0,0,0,0,0,0,-1,1322,1422,0,0
105,-398,0,0,0,0,0,0,0,0,0,-1,1329,1422,0,0
112,-398,0,0,0,0,0,0,0,0,0,-1,1336,1422,0,0
119,-398,0,0,0,0,0,0,0,0,0,-1,1343,1422,0,0
126,-398,0,0,0,0,0,0,0,0,0,-1,1350,1422,0,0
133,-398,0,0,0,0,0,0,0,0,0,-1,1357,1422,0,0
140,-398,0,0,0,0,0,0,0,0,0,-1,1364,1422,0,0
147,-398,0,0,0,0,0,0,0,0,0,-1,1371,1422,0,0
154,-398,0,0,0,0,0,0,0,0,0,-1,1378,1422,0,0
161,-398,0,0,0,0,0,0,0,0,0,-1,1385,1422,0,0
168,-398,0,0,0,0,0,0,0,0,0,-1,1392,1422,0,0
175,-398,0,0,0,0,0,0,0,0,0,-1,1399,1422,0,0
182,-398,0,0,0,0,0,0,0,0,0,-1,1406,1422,0,0
189,-398,0,0,0,0,0,0,0,0,0,-1,1413,1422,0,0
196,-398,0,0,0,0,0,0,0,0,0,-1,1420,1422,0,0
203,-398,0,0,0,0,0,0,0,0,0,-1,1427,1422,0,0
210,-398,0,0,0,0,0,0,0,0,0,-1,1434,1422,0,0
217,-398,0,0,0,0,0,0,0,0,0,-1,1441,1422,0,0
224,-398,0,0,0,0,0,0,0,0,0,-1,1448,1422,0,0
231,-398,0,0,0,0,0,0,0,0,0,-1,1455,1422,0,0
238,-398,0,0,0,0,0,0,0,0,0,-1,1462,1422,0,0
245,-398,0,0,0,0,0,0,0,0,0,-1,1469,1422,0,0
252,-398,0,0,0,0,0,0,0,0,0,-1,1476,1422,0,0
259,-398,0,0,0,0,0,0,0,0,0,-1,1483,1422,0,0
266,-398,0,0,0,0,0,0,0,0,0,-1,1490,1422,0,0
273,-398,0,0,0,0,0,0,0,0,0,-1,1497,1422,0,0
280,-398,0,0,0,0,0,0,0,0,0,-1,1504,1422,0,0
287,-398,0,0,0,0,0,0,0,0,0,-1,1511,1422,0,0
294,-398,0,0,0,0,0,0,0,0,0,-1,1518,1422,0,0
301,-398,0,0,0,0,0,0,0,0,0,-1,1525,1422,0,0
308,-398,0,0,0,0,0,0,0,0,0,-1,1532,1422,0,0
315,-398,0,0,0,0,0,0,0,0,0,-1,1539,1422,0,0
322,-398,0,0,0,0,0,0,0,0,0,-1,1546,1422,0,0
329,-398,0,0,0,0,0,0,0,0,0,-1,1553,1422,0,0
336,-398,0,0,0,0,0,0,0,0,0,-1,1560,1422,0,0
343,-398,0,0,0,0,0,0,0,0,0,-1,1567,1422,0,0
350,-398,0,0,0,0,0,0,0,0,0,-1,1574,1422,0,0
357,-398,0,0,0,0,0,0,0,0,0,-1,1581,1422,0,0
364,-398,0,0,0,0,0,0,0,0,0,-1,1588,1422,0,0
371,-398,0,0,0,0,0,0,0,0,0,-1,1595,1422,0,0
378,-398,0,0,0,0,0,0,0,0,0,-1,1602,1422,0,0
385,-398,0,0,0,0,0,0,0,0,0,-1,1609,1422,0,0
392,-398,0,0,0,0,0,0,0,0,0,-1,1616,1422,0,0
399,-398,0,0,0,0,0,0,0,0,0,-1,1623,1422,0,0
406,-398,0,0,0,0,0,0,0,0,0,-1,1630,1422,0,0
413,-398,0,0,0,0,0,0,0,0,0,-1,1637,1422,0,0
420,-398,0,0,0,0,0,0,0,0,0,-1,1644,1422,0,0
427,-398,0,0,0,0,0,0,0,0,0,-1,1651,1422,0,0
434,-398,0,0,0,0,0,0,0,0,0,-1,1658,1422,0,0
441,-398,0,0,0,0,0,0,0,0,0,-1,1665,1422,0,0
448,-398,0,0,0,0,0,0,0,0,0,-1,1672,1422,0,0
455,-398,0,0,0,0,0,0,0,0,0,-1,1679,1422,0,0
462,-398,0,0,0,0,0,0,0,0,0,-1,1686,1422,0,0
469,-398,0,0,0,0,0,0,0,0,0,-1,1693,1422,0,0
476,-398,0,0,0,0,0,0,0,0,0,-1,1700,1422,0,0
483,-398,0,0,0,0,0,0,0,0,0,-1,1707,1422,0,0
490,-398,0,0,0,0,0,0,0,0,0,-1,1714,1422,0,0
497,-398,0,0,0,0,0,0,0,0,0,-1,1721,1422,0,0
504,-398,0,0,0,0,0,0,0,0,0,-1,1728,1422,0,0
511,-398,0,0,0,0,0,0,0,0,0,-1,1735,1422,0,0
518,-398,0,0,0,0,0,0,0,0,0,-1,1742,1422,0,0
525,-398,0,0,0,0,0,0,0,0,0,-1,1749,1422,0,0
532,-398,28.4558,3.84094,0,0,0,0,0,0,0,-1,1756,1422,28.4558,-3.8409
539,-398,27.0594,3.33887,0,0,0,0,0,0,0,-1,1763,1422,27.0595,-3.3389
546,-398,31.6873,5.58582,0,0,0,0,0,0,0,-1,1770,1422,31.6872,-5.58585
553,-398,30.4392,5.92383,0,0,0,0,0,0,0,-1,1777,1422,30.4392,-5.92386
560,-398,29.1621,6.30469,0,0,0,0,0,0,0,-1,1784,1422,29.1621,-6.30469
567,-398,27.8411,6.55029,0,0,0,0,0,0,0,-1,1791,1422,27.8411,-6.55033
574,-398,26.411,6.8916,0,0,0,0,0,0,0,-1,1798,1422,26.411,-6.8916
581,-398,24.75,7.11145,0,0,0,0,0,0,0,-1,1805,1422,24.7499,-7.11142
588,-398,23.1649,7.67969,0,0,0,0,0,0,0,-1,1812,1422,23.1649,-7.67975
595,-398,21.4253,7.86023,0,0,0,0,0,0,0,-1,1819,1422,21.4253,-7.86029
602,-398,19.6857,8.04077,0,0,0,0,0,0,0,-1,1826,1422,19.6856,-8.04083
609,-398,21.1835,13.2628,0,0,0,0,0,0,0,-1,1833,1422,21.1835,-13.2628
616,-398,35.7712,21.4,0,0,0,0,0,0,0,-1,1840,1422,35.7713,-21.4
623,-398,120.557,79.8324,0,0,0,0,0,0,0,-1,1847,1422,120.557,-79.8323
630,-398,155.458,74.9611,0,0,0,0,0,0,0,-1,1854,1422,155.458,-74.9611
637,-398,154.684,72.457,-0.0164402,0.00840862,0.0316253,0.0299625,-0.0379941,0.972567,0.039326,0.0409592,1861,1422,154.684,-72.4571
644,-398,153.847,69.8087,-0.0104796,0.0147919,0.0300081,0.0347161,-0.0304038,0.98467,0.0376245,0.0323697,1868,1422,153.847,-69.8087
651,-398,153.205,66.9362,-0.00594451,0.0207024,0.0293381,0.0396006,-0.0248427,0.998542,0.0375302,0.0366169,1875,1422,153.205,-66.9362
658,-398,152.57,64.0223,-0.0023986,0.0261036,0.0293593,0.0444878,-0.0207828,1.01135,0.0385035,0.0286166,1882,1422,152.57,-64.0224
665,-398,151.931,61.0306,0.000112072,0.0310982,0.0301755,0.0495256,-0.0183153,1.02257,0.0405261,0.0200294,1889,1422,151.931,-61.0307
672,-398,151.291,58.121,0.00167783,0.0356474,0.0316149,0.0545511,-0.0172259,1.0319,0.0432679,0.018738,1896,1422,151.291,-58.1209
679,-398,150.723,55.296,0.0030241,0.0398125,0.0333634,0.0595164,-0.0166798,1.03733,0.0462512,0.0469883,1903,1422,150.723,-55.296
686,-398,150.094,52.2303,0,0,0,0,0,0,0,-1,1910,1422,150.094,-52.2303
693,-398,43.5162,17.3228,0,0,0,0,0,0,0,-1,1917,1422,43.5162,-17.3228
700,-398,38.7251,14.4174,0,0,0,0,0,0,0,-1,1924,1422,38.725,-14.4174
707,-398,10.9731,5.479,0,0,0,0,0,0,0,-1,1931,1422,10.9732,-5.47896
714,-398,11.7313,6.17346,0,0,0,0,0,0,0,-1,1938,1422,11.7313,-6.17348
721,-398,13.9371,8.05103,0,0,0,0,0,0,0,-1,1945,1422,13.9372,-8.05102
728,-398,14.786,7.0282,0,0,0,0,0,0,0,-1,1952,1422,14.786,-7.0282
735,-398,0,0,0,0,0,0,0,0,0,-1,1959,1422,0,0
742,-398,0,0,0,0,0,0,0,0,0,-1,1966,1422,0,0
749,-398,0,0,0,0,0,0,0,0,0,-1,1973,1422,0,0
756,-398,0,0,0,0,0,0,0,0,0,-1,1980,1422,0,0
763,-398,0,0,0,0,0,0,0,0,0,-1,1987,1422,0,0
770,-398,0,0,0,0,0,0,0,0,0,-1,1994,1422,0,0
777,-398,0,0,0,0,0,0,0,0,0,-1,2001,1422,0,0
784,-398,0,0,0,0,0,0,0,0,0,-1,2008,1422,0,0
791,-398,0,0,0,0,0,0,0,0,0,-1,2015,1422,0,0
798,-398,0,0,0,0,0,0,0,0,0,-1,2022,1422,0,0
805,-398,0,0,0,0,0,0,0,0,0,-1,2029,1422,0,0
812,-398,0,0,0,0,0,0,0,0,0,-1,2036,1422,0,0
-700,-405,0,0,0,0,0,0,0,0,0,-1,524,1429,0,0
-693,-405,0,0,0,0,0,0,0,0,0,-1,531,1429,0,0
-686,-405,0,0,0,0,0,0,0,0,0,-1,538,1429,0,0
-679,-405,0,0,0,0,0,0,0,0,0,-1,545,1429,0,0
-672,-405,0,0,0,0,0,0,0,0,0,-1,552,1429,0,0
-665,-405,0,0,0,0,0,0,0,0,0,-1,559,1429,0,0
-658,-405,0,0,0,0,0,0,0,0,0,-1,566,1429,0,0
-651,-405,0,0,0,0,0,0,0,0,0,-1,573,1429,0,0
-644,-405,0,0,0,0,0,0,0,0,0,-1,580,1429,0,0
-637,-405,0,0,0,0,0,0,0,0,0,-1,587,1429,0,0
-630,-405,0,0,0,0,0,0,0,0,0,-1,594,1429,0,0
-623,-405,0,0,0,0,0,0,0,0,0,-1,601,1429,0,0
-616,-405,0,0,0,0,0,0,0,0,0,-1,608,1429,0,0
-609,-405,0,0,0,0,0,0,0,0,0,-1,615,1429,0,0
-602,-405,-5.80988,-3.46594,0,0,0,0,0,0,0,-1,622,1429,-5.80987,3.46592
-595,-405,-9.35413,2.01477,0,0,0,0,0,0,0,-1,629,1429,-9.35411,-2.01476
-588,-405,-7.35693,0.507202,0,0,0,0,0,0,0,-1,636,1429,-7.35696,-0.507187
-581,-405,-10.1284,1.62927,0,0,0,0,0,0,0,-1,643,1429,-10.1284,-1.62922
-574,-405,-9.32074,3.05896,0,0,0,0,0,0,0,-1,650,1429,-9.32077,-3.0589
-567,-405,-9.68781,6.92163,0,0,0,0,0,0,0,-1,657,1429,-9.68782,-6.92166
-560,-405,-9.28674,7.20886,0,0,0,0,0,0,0,-1,664,1429,-9.28675,-7.20885
-553,-405,-20.6244,15.8638,0,0,0,0,0,0,0,-1,671,1429,-20.6244,-15.8637
-546,-405,-140.183,51.6483,0,0,0,0,0,0,0,-1,678,1429,-140.183,-51.6483
-539,-405,-140.759,54.6609,0.0121345,0.0574953,-0.0380897,0.0791458,-0.009516,-1.05393,0.056205,0.0339061,685,1429,-140.759,-54.6609
-532,-405,-141.396,57.6115,0.0110172,0.0524669,-0.0368001,0.0739766,-0.0104926,-1.04185,0.0531616,0.0273562,692,1429,-141.396,-57.6115
-525,-405,-141.909,60.5725,0.0103993,0.0481014,-0.0348902,0.0689075,-0.0104068,-1.03308,0.0497712,0.026825,699,1429,-141.909,-60.5725
-518,-405,-142.363,63.5364,0.00991501,0.0449689,-0.032229,0.0641285,-0.00924458,-1.03444,0.0461436,0.0245534,706,1429,-142.363,-63.5364
-511,-405,-142.933,66.5758,0.00969851,0.0428404,-0.0289694,0.0596435,-0.00710454,-1.04519,0.0423297,0.0227598,713,1429,-142.933,-66.5758
-504,-405,-143.694,69.7406,0.009641,0.0417532,-0.0251469,0.0555327,-0.00413851,-1.06952,0.0384756,0.030318,720,1429,-143.694,-69.7406
-497,-405,-144.15,73.1293,0.00962463,0.041766,-0.0207977,0.0519786,-0.000587951,-1.11434,0.03485,0.0479736,727,1429,-144.15,-73.1292
-490,-405,-144.677,76.2115,0,0,0,0,0,0,0,-1,734,1429,-144.677,-76.2115
-483,-405,-95.8985,80.5236,0,0,0,0,0,0,0,-1,741,1429,-95.8985,-80.5236
-476,-405,-87.4611,80.198,0,0,0,0,0,0,0,-1,748,1429,-87.4612,-80.198
-469,-405,-9.65692,12.8171,0,0,0,0,0,0,0,-1,755,1429,-9.65691,-12.8172
-462,-405,-9.14862,11.3597,0,0,0,0,0,0,0,-1,762,1429,-9.14865,-11.3597
-455,-405,-9.021,9.51111,0,0,0,0,0,0,0,-1,769,1429,-9.021,-9.51109
-448,-405,-8.4649,6.82813,0,0,0,0,0,0,0,-1,776,1429,-8.46492,-6.82817
-441,-405,-6.6712,4.23767,0,0,0,0,0,0,0,-1,783,1429,-6.67121,-4.23764
-434,-405,-9.62549,3.94189,0,0,0,0,0,0,0,-1,790,1429,-9.62546,-3.94191
-427,-405,-10.9764,3.73926,0,0,0,0,0,0,0,-1,797,1429,-10.9764,-3.73923
-420,-405,-12.1187,3.68506,0,0,0,0,0,0,0,-1,804,1429,-12.1187,-3.68512
-413,-405,-13.5353,3.75659,0,0,0,0,0,0,0,-1,811,1429,-13.5353,-3.75655
-406,-405,-14.7374,3.99817,0,0,0,0,0,0,0,-1,818,1429,-14.7374,-3.99814
-399,-405,0,0,0,0,0,0,0,0,0,-1,825,1429,0,0
-392,-405,0,0,0,0,0,0,0,0,0,-1,832,1429,0,0
-385,-405,0,0,0,0,0,0,0,0,0,-1,839,1429,0,0
-378,-405,0,0,0,0,0,0,0,0,0,-1,846,1429,0,0
-371,-405,0,0,0,0,0,0,0,0,0,-1,853,1429,0,0
-364,-405,0,0,0,0,0,0,0,0,0,-1,860,1429,0,0
-357,-405,0,0,0,0,0,0,0,0,0,-1,867,1429,0,0
-350,-405,0,0,0,0,0,0,0,0,0,-1,874,1429,0,0
-343,-405,0,0,0,0,0,0,0,0,0,-1,881,1429,0,0
-336,-405,0,0,0,0,0,0,0,0,0,-1,888,1429,0,0
-329,-405,0,0,0,0,0,0,0,0,0,-1,895,1429,0,0
-322,-405,0,0,0,0,0,0,0,0,0,-1,902,1429,0,0
-315,-405,0,0,0,0,0,0,0,0,0,-1,909,1429,0,0
-308,-405,0,0,0,0,0,0,0,0,0,-1,916,1429,0,0
-301,-405,0,0,0,0,0,0,0,0,0,-1,923,1429,0,0
-294,-405,0,0,0,0,0,0,0,0,0,-1,930,1429,0,0
-287,-405,0,0,0,0,0,0,0,0,0,-1,937,1429,0,0
-280,-405,0,0,0,0,0,0,0,0,0,-1,944,1429,0,0
-273,-405,0,0,0,0,0,0,0,0,0,-1,951,1429,0,0
-266,-405,0,0,0,0,0,0,0,0,0,-1,958,1429,0,0
-259,-405,0,0,0,0,0,0,0,0,0,-1,965,1429,0,0
-252,-405,0,0,0,0,0,0,0,0,0,-1,972,1429,0,0
-245,-405,0,0,0,0,0,0,0,0,0,-1,979,1429,0,0
-238,-405,0,0,0,0,0,0,0,0,0,-1,986,1429,0,0
-231,-405,0,0,0,0,0,0,0,0,0,-1,993,1429,0,0
-224,-405,0,0,0,0,0,0,0,0,0,-1,1000,1429,0,0
-217,-405,0,0,0,0,0,0,0,0,0,-1,1007,1429,0,0
-210,-405,0,0,0,0,0,0,0,0,0,-1,1014,1429,0,0
-203,-405,0,0,0,0,0,0,0,0,0,-1,1021,1429,0,0
-196,-405,0,0,0,0,0,0,0,0,0,-1,1028,1429,0,0
-189,-405,0,0,0,0,0,0,0,0,0,-1,1035,1429,0,0
-182,-405,0,0,0,0,0,0,0,0,0,-1,1042,1429,0,0
-175,-405,0,0,0,0,0,0,0,0,0,-1,1049,1429,0,0
-168,-405,0,0,0,0,0,0,0,0,0,-1,1056,1429,0,0
-161,-405,0,0,0,0,0,0,0,0,0,-1,1063,1429,0,0
-154,-405,0,0,0,0,0,0,0,0,0,-1,1070,1429,0,0
-147,-405,0,0,0,0,0,0,0,0,0,-1,1077,1429,0,0
-140,-405,0,0,0,0,0,0,0,0,0,-1,1084,1429,0,0
-133,-405,0,0,0,0,0,0,0,0,0,-1,1091,1429,0,0
-126,-405,0,0,0,0,0,0,0,0,0,-1,1098,1429,0,0
-119,-405,0,0,0,0,0,0,0,0,0,-1,1105,1429,0,0
-112,-405,0,0,0,0,0,0,0,0,0,-1,1112,1429,0,0
-105,-405,0,0,0,0,0,0,0,0,0,-1,1119,1429,0,0
-98,-405,0,0,0,0,0,0,0,0,0,-1,1126,1429,0,0
-91,-405,0,0,0,0,0,0,0,0,0,-1,1133,1429,0,0
-84,-405,0,0,0,0,0,0,0,0,0,-1,1140,1429,0,0
-77,-405,0,0,0,0,0,0,0,0,0,-1,1147,1429,0,0
-70,-405,0,0,0,0,0,0,0,0,0,-1,1154,1429,0,0
-63,-405,0,0,0,0,0,0,0,0,0,-1,1161,1429,0,0
-56,-405,0,0,0,0,0,0,0,0,0,-1,1168,1429,0,0
-49,-405,0,0,0,0,0,0,0,0,0,-1,1175,1429,0,0
-42,-405,0,0,0,0,0,0,0,0,0,-1,1182,1429,0,0
-35,-405,0,0,0,0,0,0,0,0,0,-1,1189,1429,0,0
-28,-405,0,0,0,0,0,0,0,0,0,-1,1196,1429,0,0
-21,-405,0,0,0,0,0,0,0,0,0,-1,1203,1429,0,0
-14,-405,0,0,0,0,0,0,0,0,0,-1,1210,1429,0,0
-7,-405,0,0,0,0,0,0,0,0,0,-1,1217,1429,0,0
0,-405,0,0,0,0,0,0,0,0,0,-1,1224,1429,0,0
7,-405,0,0,0,0,0,0,0,0,0,-1,1231,1429,0,0
14,-405,0,0,0,0,0,0,0,0,0,-1,1238,1429,0,0
21,-405,0,0,0,0,0,0,0,0,0,-1,1245,1429,0,0
28,-405,0,0,0,0,0,0,0,0,0,-1,1252,1429,0,0
35,-405,0,0,0,0,0,0,0,0,0,-1,1259,1429,0,0
42,-405,0,0,0,0,0,0,0,0,0,-1,1266,1429,0,0
49,-405,0,0,0,0,0,0,0,0,0,-1,1273,1429,0,0
56,-405,0,0,0,0,0,0,0,0,0,-1,1280,1429,0,0
63,-405,0,0,0,0,0,0,0,0,0,-1,1287,1429,0,0
70,-405,0,0,0,0,0,0,0,0,0,-1,1294,1429,0,0
77,-405,0,0,0,0,0,0,0,0,0,-1,1301,1429,0,0
84,-405,0,0,0,0,0,0,0,0,0,-1,1308,1429,0,0
91,-405,0,0,0,0,0,0,0,0,0,-1,1315,1429,0,0
98,-405,0,0,0,0,0,0,0,0,0,-1,1322,1429,0,0
105,-405,0,0,0,0,0,0,0,0,0,-1,1329,1429,0,0
112,-405,0,0,0,0,0,0,0,0,0,-1,1336,1429,0,0
119,-405,0,0,0,0,0,0,0,0,0,-1,1343,1429,0,0
126,-405,0,0,0,0,0,0,0,0,0,-1,1350,1429,0,0
133,-405,0,0,0,0,0,0,0,0,0,-1,1357,1429,0,0
140,-405,0,0,0,0,0,0,0,0,0,-1,1364,1429,0,0
147,-405,0,0,0,0,0,0,0,0,0,-1,1371,1429,0,0
154,-405,0,0,0,0,0,0,0,0,0,-1,1378,1429,0,0
161,-405,0,0,0,0,0,0,0,0,0,-1,1385,1429,0,0
168,-405,0,0,0,0,0,0,0,0,0,-1,1392,1429,0,0
175,-405,0,0,0,0,0,0,0,0,0,-1,1399,1429,0,0
182,-405,0,0,0,0,0,0,0,0,0,-1,1406,1429,0,0
189,-405,0,0,0,0,0,0,0,0,0,-1,1413,1429,0,0
196,-405,0,0,0,0,0,0,0,0,0,-1,1420,1429,0,0
203,-405,0,0,0,0,0,0,0,0,0,-1,1427,1429,0,0
210,-405,0,0,0,0,0,0,0,0,0,-1,1434,1429,0,0
217,-405,0,0,0,0,0,0,0,0,0,-1,1441,1429,0,0
224,-405,0,0,0,0,0,0,0,0,0,-1,1448,1429,0,0
231,-405,0,0,0,0,0,0,0,0,0,-1,1455,1429,0,0
238,-405,0,0,0,0,0,0,0,0,0,-1,1462,1429,0,0
245,-405,0,0,0,0,0,0,0,0,0,-1,1469,1429,0,0
252,-405,0,0,0,0,0,0,0,0,0,-1,1476,1429,0,0
259,-405,0,0,0,0,0,0,0,0,0,-1,1483,1429,0,0
266,-405,0,0,0,0,0,0,0,0,0,-1,1490,1429,0,0
273,-405,0,0,0,0,0,0,0,0,0,-1,1497,1429,0,0
280,-405,0,0,0,0,0,0,0,0,0,-1,1504,1429,0,0
287,-405,0,0,0,0,0,0,0,0,0,-1,1511,1429,0,0
294,-405,0,0,0,0,0,0,0,0,0,-1,1518,1429,0,0
301,-405,0,0,0,0,0,0,0,0,0,-1,1525,1429,0,0
308,-405,0,0,0,0,0,0,0,0,0,-1,1532,1429,0,0
315,-405,0,0,0,0,0,0,0,0,0,-1,1539,1429,0,0
322,-405,0,0,0,0,0,0,0,0,0,-1,1546,1429,0,0
329,-405,0,0,0,0,0,0,0,0,0,-1,1553,1429,0,0
336,-405,0,0,0,0,0,0,0,0,0,-1,1560,1429,0,0
343,-405,0,0,0,0,0,0,0,0,0,-1,1567,1429,0,0
350,-405,0,0,0,0,0,0,0,0,0,-1,1574,1429,0,0
357,-405,0,0,0,0,0,0,0,0,0,-1,1581,1429,0,0
364,-405,0,0,0,0,0,0,0,0,0,-1,1588,1429,0,0
371,-405,0,0,0,0,0,0,0,0,0,-1,1595,1429,0,0
378,-405,0,0,0,0,0,0,0,0,0,-1,1602,1429,0,0
385,-405,0,0,0,0,0,0,0,0,0,-1,1609,1429,0,0
392,-405,0,0,0,0,0,0,0,0,0,-1,1616,1429,0,0
399,-405,0,0,0,0,0,0,0,0,0,-1,1623,1429,0,0
406,-405,0,0,0,0,0,0,0,0,0,-1,1630,1429,0,0
413,-405,0,0,0,0,0,0,0,0,0,-1,1637,1429,0,0
420,-405,0,0,0,0,0,0,0,0,0,-1,1644,1429,0,0
427,-405,0,0,0,0,0,0,0,0,0,-1,1651,1429,0,0
434,-405,0,0,0,0,0,0,0,0,0,-1,1658,1429,0,0
441,-405,0,0,0,0,0,0,0,0,0,-1,1665,1429,0,0
448,-405,0,0,0,0,0,0,0,0,0,-1,1672,1429,0,0
455,-405,0,0,0,0,0,0,0,0,0,-1,1679,1429,0,0
462,-405,0,0,0,0,0,0,0,0,0,-1,1686,1429,0,0
469,-405,0,0,0,0,0,0,0,0,0,-1,1693,1429,0,0
476,-405,0,0,0,0,0,0,0,0,0,-1,1700,1429,0,0
483,-405,0,0,0,0,0,0,0,0,0,-1,1707,1429,0,0
490,-405,0,0,0,0,0,0,0,0,0,-1,1714,1429,0,0
497,-405,0,0,0,0,0,0,0,0,0,-1,1721,1429,0,0
504,-405,0,0,0,0,0,0,0,0,0,-1,1728,1429,0,0
511,-405,0,0,0,0,0,0,0,0,0,-1,1735,1429,0,0
518,-405,0,0,0,0,0,0,0,0,0,-1,1742,1429,0,0
525,-405,31.1563,-1.40942,0,0,0,0,0,0,0,-1,1749,1429,31.1563,1.40937
532,-405,28.156,4.8783,0,0,0,0,0,0,0,-1,1756,1429,28.1561,-4.87833
539,-405,26.5133,3.02454,0,0,0,0,0,0,0,-1,1763,1429,26.5133,-3.0246
546,-405,29.5735,6.53052,0,0,0,0,0,0,0,-1,1770,1429,29.5735,-6.53049
553,-405,28.2911,6.70654,0,0,0,0,0,0,0,-1,1777,1429,28.2912,-6.70656
560,-405,26.9299,7.08472,0,0,0,0,0,0,0,-1,1784,1429,26.9299,-7.08469
567,-405,25.804,7.14661,0,0,0,0,0,0,0,-1,1791,1429,25.8039,-7.14665
574,-405,25.1151,8.07971,0,0,0,0,0,0,0,-1,1798,1429,25.1151,-8.07965
581,-405,23.5055,8.505,0,0,0,0,0,0,0,-1,1805,1429,23.5054,-8.50501
588,-405,21.7491,8.98254,0,0,0,0,0,0,0,-1,1812,1429,21.7491,-8.98254
595,-405,21.6327,10.7795,0,0,0,0,0,0,0,-1,1819,1429,21.6327,-10.7796
602,-405,21.6461,13.9199,0,0,0,0,0,0,0,-1,1826,1429,21.6461,-13.92
609,-405,37.801,24.062,0,0,0,0,0,0,0,-1,1833,1429,37.8011,-24.062
616,-405,118.387,84.005,0,0,0,0,0,0,0,-1,1840,1429,118.387,-84.0051
623,-405,152.676,79.4562,0,0,0,0,0,0,0,-1,1847,1429,152.676,-79.4562
630,-405,152.011,76.4036,-0.0227683,0.00570129,0.0361235,0.0302935,-0.0473605,0.973085,0.0451931,0.0295282,1854,1429,152.011,-76.4036
637,-405,151.317,73.3683,-0.0147276,0.0121763,0.0332794,0.0346197,-0.0371709,0.977465,0.041457,0.0240713,1861,1429,151.317,-73.3682
644,-405,150.562,70.4272,-0.00851663,0.0183532,0.0316036,0.039259,-0.0294224,0.986379,0.0397886,0.0454377,1868,1429,150.562,-70.4273
651,-405,149.818,67.499,-0.00370885,0.0241792,0.0308095,0.0440532,-0.0235828,0.997901,0.0396414,0.0459564,1875,1429,149.818,-67.4991
658,-405,149.1,64.6019,2.22311e-05,0.0296316,0.0307275,0.048935,-0.0192811,1.00989,0.040606,0.0358929,1882,1429,149.1,-64.602
665,-405,148.508,61.6703,0.0023669,0.0346848,0.0315635,0.0539852,-0.0169335,1.02198,0.0427671,0.0268312,1889,1429,148.508,-61.6703
672,-405,147.937,58.6973,0.00383862,0.0393775,0.0329043,0.0590039,-0.0157877,1.03298,0.0455204,0.035057,1896,1429,147.937,-58.6972
679,-405,147.665,55.536,0,0,0,0,0,0,0,-1,1903,1429,147.665,-55.536
686,-405,42.9835,18.502,0,0,0,0,0,0,0,-1,1910,1429,42.9835,-18.5019
693,-405,37.6653,14.9521,0,0,0,0,0,0,0,-1,1917,1429,37.6653,-14.9521
700,-405,9.1958,4.02026,0,0,0,0,0,0,0,-1,1924,1429,9.19579,-4.02025
707,-405,7.40308,3.83191,0,0,0,0,0,0,0,-1,1931,1429,7.40311,-3.83194
714,-405,7.33252,3.47388,0,0,0,0,0,0,0,-1,1938,1429,7.33255,-3.47383
721,-405,9.23523,0.993896,0,0,0,0,0,0,0,-1,1945,1429,9.23523,-0.993884
728,-405,0,0,0,0,0,0,0,0,0,-1,1952,1429,0,0
735,-405,0,0,0,0,0,0,0,0,0,-1,1959,1429,0,0
742,-405,0,0,0,0,0,0,0,0,0,-1,1966,1429,0,0
749,-405,0,0,0,0,0,0,0,0,0,-1,1973,1429,0,0
756,-405,0,0,0,0,0,0,0,0,0,-1,1980,1429,0,0
763,-405,0,0,0,0,0,0,0,0,0,-1,1987,1429,0,0
770,-405,0,0,0,0,0,0,0,0,0,-1,1994,1429,0,0
777,-405,0,0,0,0,0,0,0,0,0,-1,2001,1429,0,0
784,-405,0,0,0,0,0,0,0,0,0,-1,2008,1429,0,0
791,-405,0,0,0,0,0,0,0,0,0,-1,2015,1429,0,0
798,-405,0,0,0,0,0,0,0,0,0,-1,2022,1429,0,0
805,-405,0,0,0,0,0,0,0,0,0,-1,2029,1429,0,0
812,-405,0,0,0,0,0,0,0,0,0,-1,2036,1429,0,0
-700,-412,0,0,0,0,0,0,0,0,0,-1,524,1436,0,0
-693,-412,0,0,0,0,0,0,0,0,0,-1,531,1436,0,0
-686,-412,0,0,0,0,0,0,0,0,0,-1,538,1436,0,0
-679,-412,0,0,0,0,0,0,0,0,0,-1,545,1436,0,0
-672,-412,0,0,0,0,0,0,0,0,0,-1,552,1436,0,0
-665,-412,0,0,0,0,0,0,0,0,0,-1,559,1436,0,0
-658,-412,0,0,0,0,0,0,0,0,0,-1,566,1436,0,0
-651,-412,0,0,0,0,0,0,0,0,0,-1,573,1436,0,0
-644,-412,0,0,0,0,0,0,0,0,0,-1,580,1436,0,0
-637,-412,0,0,0,0,0,0,0,0,0,-1,587,1436,0,0
-630,-412,0,0,0,0,0,0,0,0,0,-1,594,1436,0,0
-623,-412,0,0,0,0,0,0,0,0,0,-1,601,1436,0,0
-616,-412,0,0,0,0,0,0,0,0,0,-1,608,1436,0,0
-609,-412,0,0,0,0,0,0,0,0,0,-1,615,1436,0,0
-602,-412,-3.72766,-3.50012,0,0,0,0,0,0,0,-1,622,1436,-3.72764,3.50017
-595,-412,-10.3706,0.65564,0,0,0,0,0,0,0,-1,629,1436,-10.3706,-0.655672
-588,-412,-8.17957,1.94934,0,0,0,0,0,0,0,-1,636,1436,-8.17956,-1.94939
-581,-412,-6.60065,-0.0554199,0,0,0,0,0,0,0,-1,643,1436,-6.60063,0.0554733
-574,-412,-8.34131,5.25012,0,0,0,0,0,0,0,-1,650,1436,-8.34129,-5.25012
-567,-412,-7.50354,3.65454,0,0,0,0,0,0,0,-1,657,1436,-7.50356,-3.65452
-560,-412,-8.52448,7.39014,0,0,0,0,0,0,0,-1,664,1436,-8.52447,-7.39019
-553,-412,-7.36761,6.54651,0,0,0,0,0,0,0,-1,671,1436,-7.36763,-6.54654
-546,-412,-30.9525,25.4158,0,0,0,0,0,0,0,-1,678,1436,-30.9525,-25.4157
-539,-412,-137.467,55.0435,0,0,0,0,0,0,0,-1,685,1436,-137.467,-55.0435
-532,-412,-137.76,58.2534,0.011223,0.0544904,-0.040131,0.0784475,-0.012734,-1.03261,0.057019,0.0305584,692,1436,-137.76,-58.2534
-525,-412,-138.315,61.1024,0.0105527,0.0501309,-0.038133,0.0733038,-0.0126202,-1.02474,0.0535737,0.0262473,699,1436,-138.315,-61.1025
-518,-412,-138.816,64.0928,0.0100041,0.0466864,-0.0355085,0.0683109,-0.0116204,-1.02379,0.0498675,0.0233385,706,1436,-138.816,-64.0928
-511,-412,-139.398,67.2834,0.00940086,0.0443882,-0.0323269,0.0636512,-0.00986215,-1.03341,0.0460747,0.0251039,713,1436,-139.398,-67.2834
-504,-412,-140.087,70.3195,0.00878022,0.0429887,-0.0286974,0.0592925,-0.0075236,-1.05414,0.04226,0.0244586,720,1436,-140.087,-70.3194
-497,-412,-140.61,73.5978,0.00796185,0.0425332,-0.0246529,0.0553567,-0.00486162,-1.09115,0.0386271,0.0416519,727,1436,-140.61,-73.5978
-490,-412,-141.22,76.9957,0,0,0,0,0,0,0,-1,734,1436,-141.22,-76.9957
-483,-412,-136.606,80.7655,0,0,0,0,0,0,0,-1,741,1436,-136.606,-80.7655
-476,-412,-93.595,83.6998,0,0,0,0,0,0,0,-1,748,1436,-93.5949,-83.6999
-469,-412,-12.7646,18.4785,0,0,0,0,0,0,0,-1,755,1436,-12.7647,-18.4785
-462,-412,-8.94659,13.3385,0,0,0,0,0,0,0,-1,762,1436,-8.94657,-13.3385
-455,-412,-8.25006,11.2572,0,0,0,0,0,0,0,-1,769,1436,-8.25007,-11.2572
-448,-412,-7.38086,8.78186,0,0,0,0,0,0,0,-1,776,1436,-7.38088,-8.78183
-441,-412,-8.79523,9.05286,0,0,0,0,0,0,0,-1,783,1436,-8.79521,-9.0529
-434,-412,-10.6305,8.03577,0,0,0,0,0,0,0,-1,790,1436,-10.6305,-8.0358
-427,-412,-10.0004,5.15271,0,0,0,0,0,0,0,-1,797,1436,-10.0004,-5.15266
-420,-412,-10.4468,4.9043,0,0,0,0,0,0,0,-1,804,1436,-10.4468,-4.90429
-413,-412,-11.5704,4.97766,0,0,0,0,0,0,0,-1,811,1436,-11.5704,-4.97771
-406,-412,-13.1968,5.70093,0,0,0,0,0,0,0,-1,818,1436,-13.1968,-5.70096
-399,-412,-10.5506,0.771973,0,0,0,0,0,0,0,-1,825,1436,-10.5506,-0.771954
-392,-412,0,0,0,0,0,0,0,0,0,-1,832,1436,0,0
-385,-412,0,0,0,0,0,0,0,0,0,-1,839,1436,0,0
-378,-412,0,0,0,0,0,0,0,0,0,-1,846,1436,0,0
-371,-412,0,0,0,0,0,0,0,0,0,-1,853,1436,0,0
-364,-412,0,0,0,0,0,0,0,0,0,-1,860,1436,0,0
-357,-412,0,0,0,0,0,0,0,0,0,-1,867,1436,0,0
-350,-412,0,0,0,0,0,0,0,0,0,-1,874,1436,0,0
-343,-412,0,0,0,0,0,0,0,0,0,-1,881,1436,0,0
-336,-412,0,0,0,0,0,0,0,0,0,-1,888,1436,0,0
-329,-412,0,0,0,0,0,0,0,0,0,-1,895,1436,0,0
-322,-412,0,0,0,0,0,0,0,0,0,-1,902,1436,0,0
-315,-412,0,0,0,0,0,0,0,0,0,-1,909,1436,0,0
-308,-412,0,0,0,0,0,0,0,0,0,-1,916,1436,0,0
-301,-412,0,0,0,0,0,0,0,0,0,-1,923,1436,0,0
-294,-412,0,0,0,0,0,0,0,0,0,-1,930,1436,0,0
-287,-412,0,0,0,0,0,0,0,0,0,-1,937,1436,0,0
-280,-412,0,0,0,0,0,0,0,0,0,-1,944,1436,0,0
-273,-412,0,0,0,0,0,0,0,0,0,-1,951,1436,0,0
-266,-412,0,0,0,0,0,0,0,0,0,-1,958,1436,0,0
-259,-412,0,0,0,0,0,0,0,0,0,-1,965,1436,0,0
-252,-412,0,0,0,0,0,0,0,0,0,-1,972,1436,0,0
-245,-412,0,0,0,0,0,0,0,0,0,-1,979,1436,0,0
-238,-412,0,0,0,0,0,0,0,0,0,-1,986,1436,0,0
-231,-412,0,0,0,0,0,0,0,0,0,-1,993,1436,0,0
-224,-412,0,0,0,0,0,0,0,0,0,-1,1000,1436,0,0
-217,-412,0,0,0,0,0,0,0,0,0,-1,1007,1436,0,0
-210,-412,0,0,0,0,0,0,0,0,0,-1,1014,1436,0,0
-203,-412,0,0,0,0,0,0,0,0,0,-1,1021,1436,0,0
-196,-412,0,0,0,0,0,0,0,0,0,-1,1028,1436,0,0
-189,-412,0,0,0,0,0,0,0,0,0,-1,1035,1436,0,0
-182,-412,0,0,0,0,0,0,0,0,0,-1,1042,1436,0,0
-175,-412,0,0,0,0,0,0,0,0,0,-1,1049,1436,0,0
-168,-412,0,0,0,0,0,0,0,0,0,-1,1056,1436,0,0
-161,-412,0,0,0,0,0,0,0,0,0,-1,1063,1436,0,0
-154,-412,0,0,0,0,0,0,0,0,0,-1,1070,1436,0,0
-147,-412,0,0,0,0,0,0,0,0,0,-1,1077,1436,0,0
-140,-412,0,0,0,0,0,0,0,0,0,-1,1084,1436,0,0
-133,-412,0,0,0,0,0,0,0,0,0,-1,1091,1436,0,0
-126,-412,0,0,0,0,0,0,0,0,0,-1,1098,1436,0,0
-119,-412,0,0,0,0,0,0,0,0,0,-1,1105,1436,0,0
-112,-412,0,0,0,0,0,0,0,0,0,-1,1112,1436,0,0
-105,-412,0,0,0,0,0,0,0,0,0,-1,1119,1436,0,0
-98,-412,0,0,0,0,0,0,0,0,0,-1,1126,1436,0,0
-91,-412,0,0,0,0,0,0,0,0,0,-1,1133,1436,0,0
-84,-412,0,0,0,0,0,0,0,0,0,-1,1140,1436,0,0
-77,-412,0,0,0,0,0,0,0,0,0,-1,1147,1436,0,0
-70,-412,0,0,0,0,0,0,0,0,0,-1,1154,1436,0,0
-63,-412,0,0,0,0,0,0,0,0,0,-1,1161,1436,0,0
-56,-412,0,0,0,0,0,0,0,0,0,-1,1168,1436,0,0
-49,-412,0,0,0,0,0,0,0,0,0,-1,1175,1436,0,0
-42,-412,0,0,0,0,0,0,0,0,0,-1,1182,1436,0,0
-35,-412,0,0,0,0,0,0,0,0,0,-1,1189,1436,0,0
-28,-412,0,0,0,0,0,0,0,0,0,-1,1196,1436,0,0
-21,-412,0,0,0,0,0,0,0,0,0,-1,1203,1436,0,0
-14,-412,0,0,0,0,0,0,0,0,0,-1,1210,1436,0,0
-7,-412,0,0,0,0,0,0,0,0,0,-1,1217,1436,0,0
0,-412,0,0,0,0,0,0,0,0,0,-1,1224,1436,0,0
7,-412,0,0,0,0,0,0,0,0,0,-1,1231,1436,0,0
14,-412,0,0,0,0,0,0,0,0,0,-1,1238,1436,0,0
21,-412,0,0,0,0,0,0,0,0,0,-1,1245,1436,0,0
28,-412,0,0,0,0,0,0,0,0,0,-1,1252,1436,0,0
35,-412,0,0,0,0,0,0,0,0,0,-1,1259,1436,0,0
42,-412,0,0,0,0,0,0,0,0,0,-1,1266,1436,0,0
49,-412,0,0,0,0,0,0,0,0,0,-1,1273,1436,0,0
56,-412,0,0,0,0,0,0,0,0,0,-1,1280,1436,0,0
63,-412,0,0,0,0,0,0,0,0,0,-1,1287,1436,0,0
70,-412,0,0,0,0,0,0,0,0,0,-1,1294,1436,0,0
77,-412,0,0,0,0,0,0,0,0,0,-1,1301,1436,0,0
84,-412,0,0,0,0,0,0,0,0,0,-1,1308,1436,0,0
91,-412,0,0,0,0,0,0,0,0,0,-1,1315,1436,0,0
98,-412,0,0,0,0,0,0,0,0,0,-1,1322,1436,0,0
105,-412,0,0,0,0,0,0,0,0,0,-1,1329,1436,0,0
112,-412,0,0,0,0,0,0,0,0,0,-1,1336,1436,0,0
119,-412,0,0,0,0,0,0,0,0,0,-1,1343,1436,0,0
126,-412,0,0,0,0,0,0,0,0,0,-1,1350,1436,0,0
133,-412,0,0,0,0,0,0,0,0,0,-1,1357,1436,0,0
140,-412,0,0,0,0,0,0,0,0,0,-1,1364,1436,0,0
147,-412,0,0,0,0,0,0,0,0,0,-1,1371,1436,0,0
154,-412,0,0,0,0,0,0,0,0,0,-1,1378,1436,0,0
161,-412,0,0,0,0,0,0,0,0,0,-1,1385,1436,0,0
168,-412,0,0,0,0,0,0,0,0,0,-1,1392,1436,0,0
175,-412,0,0,0,0,0,0,0,0,0,-1,1399,1436,0,0
182,-412,0,0,0,0,0,0,0,0,0,-1,1406,1436,0,0
189,-412,0,0,0,0,0,0,0,0,0,-1,1413,1436,0,0
196,-412,0,0,0,0,0,0,0,0,0,-1,1420,1436,0,0
203,-412,0,0,0,0,0,0,0,0,0,-1,1427,1436,0,0
210,-412,0,0,0,0,0,0,0,0,0,-1,1434,1436,0,0
217,-412,0,0,0,0,0,0,0,0,0,-1,1441,1436,0,0
224,-412,0,0,0,0,0,0,0,0,0,-1,1448,1436,0,0
231,-412,0,0,0,0,0,0,0,0,0,-1,1455,1436,0,0
238,-412,0,0,0,0,0,0,0,0,0,-1,1462,1436,0,0
245,-412,0,0,0,0,0,0,0,0,0,-1,1469,1436,0,0
252,-412,0,0,0,0,0,0,0,0,0,-1,1476,1436,0,0
259,-412,0,0,0,0,0,0,0,0,0,-1,1483,1436,0,0
266,-412,0,0,0,0,0,0,0,0,0,-1,1490,1436,0,0
273,-412,0,0,0,0,0,0,0,0,0,-1,1497,1436,0,0
280,-412,0,0,0,0,0,0,0,0,0,-1,1504,1436,0,0
287,-412,0,0,0,0,0,0,0,0,0,-1,1511,1436,0,0
294,-412,0,0,0,0,0,0,0,0,0,-1,1518,1436,0,0
301,-412,0,0,0,0,0,0,0,0,0,-1,1525,1436,0,0
308,-412,0,0,0,0,0,0,0,0,0,-1,1532,1436,0,0
315,-412,0,0,0,0,0,0,0,0,0,-1,1539,1436,0,0
322,-412,0,0,0,0,0,0,0,0,0,-1,1546,1436,0,0
329,-412,0,0,0,0,0,0,0,0,0,-1,1553,1436,0,0
336,-412,0,0,0,0,0,0,0,0,0,-1,1560,1436,0,0
343,-412,0,0,0,0,0,0,0,0,0,-1,1567,1436,0,0
350,-412,0,0,0,0,0,0,0,0,0,-1,1574,1436,0,0
357,-412,0,0,0,0,0,0,0,0,0,-1,1581,1436,0,0
364,-412,0,0,0,0,0,0,0,0,0,-1,1588,1436,0,0
371,-412,0,0,0,0,0,0,0,0,0,-1,1595,1436,0,0
378,-412,0,0,0,0,0,0,0,0,0,-1,1602,1436,0,0
385,-412,0,0,0,0,0,0,0,0,0,-1,1609,1436,0,0
392,-412,0,0,0,0,0,0,0,0,0,-1,1616,1436,0,0
399,-412,0,0,0,0,0,0,0,0,0,-1,1623,1436,0,0
406,-412,0,0,0,0,0,0,0,0,0,-1,1630,1436,0,0
413,-412,0,0,0,0,0,0,0,0,0,-1,1637,1436,0,0
420,-412,0,0,0,0,0,0,0,0,0,-1,1644,1436,0,0
427,-412,0,0,0,0,0,0,0,0,0,-1,1651,1436,0,0
434,-412,0,0,0,0,0,0,0,0,0,-1,1658,1436,0,0
441,-412,0,0,0,0,0,0,0,0,0,-1,1665,1436,0,0
448,-412,0,0,0,0,0,0,0,0,0,-1,1672,1436,0,0
455,-412,0,0,0,0,0,0,0,0,0,-1,1679,1436,0,0
462,-412,0,0,0,0,0,0,0,0,0,-1,1686,1436,0,0
469,-412,0,0,0,0,0,0,0,0,0,-1,1693,1436,0,0
476,-412,0,0,0,0,0,0,0,0,0,-1,1700,1436,0,0
483,-412,0,0,0,0,0,0,0,0,0,-1,1707,1436,0,0
490,-412,0,0,0,0,0,0,0,0,0,-1,1714,1436,0,0
497,-412,0,0,0,0,0,0,0,0,0,-1,1721,1436,0,0
504,-412,0,0,0,0,0,0,0,0,0,-1,1728,1436,0,0
511,-412,0,0,0,0,0,0,0,0,0,-1,1735,1436,0,0
518,-412,30.1038,-2.43384,0,0,0,0,0,0,0,-1,1742,1436,30.1038,2.43383
525,-412,29.5283,-1.42493,0,0,0,0,0,0,0,-1,1749,1436,29.5283,1.42495
532,-412,28.8533,-0.386597,0,0,0,0,0,0,0,-1,1756,1436,28.8533,0.386632
539,-412,25.8654,2.74683,0,0,0,0,0,0,0,-1,1763,1436,25.8654,-2.74685
546,-412,25.4265,2.4342,0,0,0,0,0,0,0,-1,1770,1436,25.4265,-2.4342
553,-412,26.3595,7.49255,0,0,0,0,0,0,0,-1,1777,1436,26.3595,-7.4925
560,-412,24.9116,7.94324,0,0,0,0,0,0,0,-1,1784,1436,24.9116,-7.94327
567,-412,23.668,7.94531,0,0,0,0,0,0,0,-1,1791,1436,23.6679,-7.94534
574,-412,23.0142,9.17236,0,0,0,0,0,0,0,-1,1798,1436,23.0141,-9.17235
581,-412,22.2615,10.0349,0,0,0,0,0,0,0,-1,1805,1436,22.2615,-10.0349
588,-412,21.6893,10.8069,0,0,0,0,0,0,0,-1,1812,1436,21.6893,-10.8069
595,-412,21.5137,14.3157,0,0,0,0,0,0,0,-1,1819,1436,21.5137,-14.3157
602,-412,37.0725,24.8387,0,0,0,0,0,0,0,-1,1826,1436,37.0725,-24.8388
609,-412,80.7455,73.8978,0,0,0,0,0,0,0,-1,1833,1436,80.7455,-73.8979
616,-412,115.253,85.759,0,0,0,0,0,0,0,-1,1840,1436,115.253,-85.759
623,-412,149.119,80.6957,0,0,0,0,0,0,0,-1,1847,1436,149.119,-80.6957
630,-412,148.482,77.4701,-0.020056,0.0103014,0.0373094,0.0354016,-0.0451562,0.978589,0.0466235,0.0249066,1854,1436,148.482,-77.4701
637,-412,147.837,74.2128,-0.0121381,0.0164216,0.0345777,0.0395521,-0.0352685,0.981221,0.0432213,0.0210355,1861,1436,147.837,-74.2128
644,-412,147.142,70.9874,-0.00587542,0.0224217,0.0328418,0.044033,-0.0274867,0.988789,0.0416586,0.0256598,1868,1436,147.142,-70.9874
651,-412,146.135,68.0232,-0.000975574,0.0281958,0.031918,0.0487028,-0.0214826,0.999717,0.041525,0.0497722,1875,1436,146.136,-68.0232
658,-412,145.608,65.1615,0.00276357,0.0337397,0.0317529,0.0535805,-0.0170772,1.01231,0.0425702,0.0308607,1882,1436,145.608,-65.1614
665,-412,145.154,62.2623,0.00457043,0.0388318,0.0326755,0.0585949,-0.0151926,1.02683,0.0449908,0.0327795,1889,1436,145.154,-62.2623
672,-412,144.631,59.2976,0,0,0,0,0,0,0,-1,1896,1436,144.631,-59.2976
679,-412,40.6736,18.6143,0,0,0,0,0,0,0,-1,1903,1436,40.6736,-18.6142
686,-412,35.3159,15.2073,0,0,0,0,0,0,0,-1,1910,1436,35.3159,-15.2072
693,-412,11.9346,6.02344,0,0,0,0,0,0,0,-1,1917,1436,11.9346,-6.02343
700,-412,8.82764,5.8844,0,0,0,0,0,0,0,-1,1924,1436,8.82761,-5.88444
707,-412,6.59998,1.68994,0,0,0,0,0,0,0,-1,1931,1436,6.60002,-1.68995
714,-412,4.77283,-2.39832,0,0,0,0,0,0,0,-1,1938,1436,4.77288,2.39835
721,-412,0,0,0,0,0,0,0,0,0,-1,1945,1436,0,0
728,-412,0,0,0,0,0,0,0,0,0,-1,1952,1436,0,0
735,-412,0,0,0,0,0,0,0,0,0,-1,1959,1436,0,0
742,-412,0,0,0,0,0,0,0,0,0,-1,1966,1436,0,0
749,-412,0,0,0,0,0,0,0,0,0,-1,1973,1436,0,0
756,-412,0,0,0,0,0,0,0,0,0,-1,1980,1436,0,0
763,-412,0,0,0,0,0,0,0,0,0,-1,1987,1436,0,0
770,-412,0,0,0,0,0,0,0,0,0,-1,1994,1436,0,0
777,-412,0,0,0,0,0,0,0,0,0,-1,2001,1436,0,0
784,-412,0,0,0,0,0,0,0,0,0,-1,2008,1436,0,0
791,-412,0,0,0,0,0,0,0,0,0,-1,2015,1436,0,0
798,-412,0,0,0,0,0,0,0,0,0,-1,2022,1436,0,0
805,-412,0,0,0,0,0,0,0,0,0,-1,2029,1436,0,0
812,-412,0,0,0,0,0,0,0,0,0,-1,2036,1436,0,0
-700,-419,0,0,0,0,0,0,0,0,0,-1,524,1443,0,0
-693,-419,0,0,0,0,0,0,0,0,0,-1,531,1443,0,0
-686,-419,0,0,0,0,0,0,0,0,0,-1,538,1443,0,0
-679,-419,0,0,0,0,0,0,0,0,0,-1,545,1443,0,0
-672,-419,0,0,0,0,0,0,0,0,0,-1,552,1443,0,0
-665,-419,0,0,0,0,0,0,0,0,0,-1,559,1443,0,0
-658,-419,0,0,0,0,0,0,0,0,0,-1,566,1443,0,0
-651,-419,0,0,0,0,0,0,0,0,0,-1,573,1443,0,0
-644,-419,0,0,0,0,0,0,0,0,0,-1,580,1443,0,0
-637,-419,0,0,0,0,0,0,0,0,0,-1,587,1443,0,0
-630,-419,0,0,0,0,0,0,0,0,0,-1,594,1443,0,0
-623,-419,0,0,0,0,0,0,0,0,0,-1,601,1443,0,0
-616,-419,0,0,0,0,0,0,0,0,0,-1,608,1443,0,0
-609,-419,0,0,0,0,0,0,0,0,0,-1,615,1443,0,0
-602,-419,0,0,0,0,0,0,0,0,0,-1,622,1443,0,0
-595,-419,-11.4904,-0.622681,0,0,0,0,0,0,0,-1,629,1443,-11.4903,0.622714
-588,-419,-9.09369,0.742432,0,0,0,0,0,0,0,-1,636,1443,-9.09366,-0.742482
-581,-419,-6.39172,2.14673,0,0,0,0,0,0,0,-1,643,1443,-6.39175,-2.14668
-574,-419,-4.09772,3.54773,0,0,0,0,0,0,0,-1,650,1443,-4.09772,-3.54767
-567,-419,-6.14038,3.22498,0,0,0,0,0,0,0,-1,657,1443,-6.14037,-3.22497
-560,-419,-4.52814,5.22253,0,0,0,0,0,0,0,-1,664,1443,-4.52816,-5.22251
-553,-419,-5.08331,6.11829,0,0,0,0,0,0,0,-1,671,1443,-5.08331,-6.1183
-546,-419,-10.3732,9.23279,0,0,0,0,0,0,0,-1,678,1443,-10.3732,-9.23275
-539,-419,-30.3044,27.1487,0,0,0,0,0,0,0,-1,685,1443,-30.3044,-27.1487
-532,-419,-134.127,58.6569,0,0,0,0,0,0,0,-1,692,1443,-134.127,-58.6569
-525,-419,-134.539,61.7316,0.010839,0.0521313,-0.0415303,0.0778643,-0.014894,-1.01607,0.0575206,0.0200136,699,1443,-134.539,-61.7316
-518,-419,-135.181,64.8666,0.0103956,0.048141,-0.0390624,0.0726509,-0.0141143,-1.01043,0.0537599,0.0226084,706,1443,-135.181,-64.8665
-511,-419,-135.818,68.0251,0.00946544,0.0456091,-0.0360129,0.0678302,-0.0127557,-1.01795,0.0500172,0.0260367,713,1443,-135.818,-68.0252
-504,-419,-136.516,71.0658,0.00837854,0.0438967,-0.0325672,0.0632321,-0.0109569,-1.03501,0.0462418,0.0261533,720,1443,-136.516,-71.0658
-497,-419,-137.209,74.163,0.00692539,0.0430417,-0.028773,0.0589538,-0.00898676,-1.06563,0.0426152,0.0255302,727,1443,-137.209,-74.163
-490,-419,-137.963,77.5525,0.00491802,0.0432498,-0.0246405,0.0553007,-0.00713282,-1.11593,0.0394602,0.0461709,734,1443,-137.963,-77.5525
-483,-419,-138.875,80.7916,0,0,0,0,0,0,0,-1,741,1443,-138.875,-80.7917
-476,-419,-134.165,84.8441,0,0,0,0,0,0,0,-1,748,1443,-134.165,-84.8441
-469,-419,-85.6953,85.1677,0,0,0,0,0,0,0,-1,755,1443,-85.6953,-85.1677
-462,-419,-11.5347,18.1563,0,0,0,0,0,0,0,-1,762,1443,-11.5347,-18.1562
-455,-419,-7.35645,11.9451,0,0,0,0,0,0,0,-1,769,1443,-7.35646,-11.9451
-448,-419,-7.49109,9.92444,0,0,0,0,0,0,0,-1,776,1443,-7.49109,-9.92442
-441,-419,-7.65527,8.75574,0,0,0,0,0,0,0,-1,783,1443,-7.65525,-8.75568
-434,-419,-11.3724,12.3643,0,0,0,0,0,0,0,-1,790,1443,-11.3724,-12.3643
-427,-419,-8.23193,7.89404,0,0,0,0,0,0,0,-1,797,1443,-8.23193,-7.89404
-420,-419,-8.74091,6.36597,0,0,0,0,0,0,0,-1,804,1443,-8.74089,-6.366
-413,-419,-9.88391,6.53955,0,0,0,0,0,0,0,-1,811,1443,-9.8839,-6.53955
-406,-419,-10.3372,2.75195,0,0,0,0,0,0,0,-1,818,1443,-10.3372,-2.75201
-399,-419,-11.5999,1.40002,0,0,0,0,0,0,0,-1,825,1443,-11.5999,-1.39998
-392,-419,0,0,0,0,0,0,0,0,0,-1,832,1443,0,0
-385,-419,0,0,0,0,0,0,0,0,0,-1,839,1443,0,0
-378,-419,0,0,0,0,0,0,0,0,0,-1,846,1443,0,0
-371,-419,0,0,0,0,0,0,0,0,0,-1,853,1443,0,0
-364,-419,0,0,0,0,0,0,0,0,0,-1,860,1443,0,0
-357,-419,0,0,0,0,0,0,0,0,0,-1,867,1443,0,0
-350,-419,0,0,0,0,0,0,0,0,0,-1,874,1443,0,0
-343,-419,0,0,0,0,0,0,0,0,0,-1,881,1443,0,0
-336,-419,0,0,0,0,0,0,0,0,0,-1,888,1443,0,0
-329,-419,0,0,0,0,0,0,0,0,0,-1,895,1443,0,0
-322,-419,0,0,0,0,0,0,0,0,0,-1,902,1443,0,0
-315,-419,0,0,0,0,0,0,0,0,0,-1,909,1443,0,0
-308,-419,0,0,0,0,0,0,0,0,0,-1,916,1443,0,0
-301,-419,0,0,0,0,0,0,0,0,0,-1,923,1443,0,0
-294,-419,0,0,0,0,0,0,0,0,0,-1,930,1443,0,0
-287,-419,0,0,0,0,0,0,0,0,0,-1,937,1443,0,0
-280,-419,0,0,0,0,0,0,0,0,0,-1,944,1443,0,0
-273,-419,0,0,0,0,0,0,0,0,0,-1,951,1443,0,0
-266,-419,0,0,0,0,0,0,0,0,0,-1,958,1443,0,0
-259,-419,0,0,0,0,0,0,0,0,0,-1,965,1443,0,0
-252,-419,0,0,0,0,0,0,0,0,0,-1,972,1443,0,0
-245,-419,0,0,0,0,0,0,0,0,0,-1,979,1443,0,0
-238,-419,0,0,0,0,0,0,0,0,0,-1,986,1443,0,0
-231,-419,0,0,0,0,0,0,0,0,0,-1,993,1443,0,0
-224,-419,0,0,0,0,0,0,0,0,0,-1,1000,1443,0,0
-217,-419,0,0,0,0,0,0,0,0,0,-1,1007,1443,0,0
-210,-419,0,0,0,0,0,0,0,0,0,-1,1014,1443,0,0
-203,-419,0,0,0,0,0,0,0,0,0,-1,1021,1443,0,0
-196,-419,0,0,0,0,0,0,0,0,0,-1,1028,1443,0,0
-189,-419,0,0,0,0,0,0,0,0,0,-1,1035,1443,0,0
-182,-419,0,0,0,0,0,0,0,0,0,-1,1042,1443,0,0
-175,-419,0,0,0,0,0,0,0,0,0,-1,1049,1443,0,0
-168,-419,0,0,0,0,0,0,0,0,0,-1,1056,1443,0,0
-161,-419,0,0,0,0,0,0,0,0,0,-1,1063,1443,0,0
-154,-419,0,0,0,0,0,0,0,0,0,-1,1070,1443,0,0
-147,-419,0,0,0,0,0,0,0,0,0,-1,1077,1443,0,0
-140,-419,0,0,0,0,0,0,0,0,0,-1,1084,1443,0,0
-133,-419,0,0,0,0,0,0,0,0,0,-1,1091,1443,0,0
-126,-419,0,0,0,0,0,0,0,0,0,-1,1098,1443,0,0
-119,-419,0,0,0,0,0,0,0,0,0,-1,1105,1443,0,0
-112,-419,0,0,0,0,0,0,0,0,0,-1,1112,1443,0,0
-105,-419,0,0,0,0,0,0,0,0,0,-1,1119,1443,0,0
-98,-419,0,0,0,0,0,0,0,0,0,-1,1126,1443,0,0
-91,-419,0,0,0,0,0,0,0,0,0,-1,1133,1443,0,0
-84,-419,0,0,0,0,0,0,0,0,0,-1,1140,1443,0,0
-77,-419,0,0,0,0,0,0,0,0,0,-1,1147,1443,0,0
-70,-419,0,0,0,0,0,0,0,0,0,-1,1154,1443,0,0
-63,-419,0,0,0,0,0,0,0,0,0,-1,1161,1443,0,0
-56,-419,0,0,0,0,0,0,0,0,0,-1,1168,1443,0,0
-49,-419,0,0,0,0,0,0,0,0,0,-1,1175,1443,0,0
-42,-419,0,0,0,0,0,0,0,0,0,-1,1182,1443,0,0
-35,-419,0,0,0,0,0,0,0,0,0,-1,1189,1443,0,0
-28,-419,0,0,0,0,0,0,0,0,0,-1,1196,1443,0,0
-21,-419,0,0,0,0,0,0,0,0,0,-1,1203,1443,0,0
-14,-419,0,0,0,0,0,0,0,0,0,-1,1210,1443,0,0
-7,-419,0,0,0,0,0,0,0,0,0,-1,1217,1443,0,0
0,-419,0,0,0,0,0,0,0,0,0,-1,1224,1443,0,0
7,-419,0,0,0,0,0,0,0,0,0,-1,1231,1443,0,0
14,-419,0,0,0,0,0,0,0,0,0,-1,1238,1443,0,0
21,-419,0,0,0,0,0,0,0,0,0,-1,1245,1443,0,0
28,-419,0,0,0,0,0,0,0,0,0,-1,1252,1443,0,0
35,-419,0,0,0,0,0,0,0,0,0,-1,1259,1443,0,0
42,-419,0,0,0,0,0,0,0,0,0,-1,1266,1443,0,0
49,-419,0,0,0,0,0,0,0,0,0,-1,1273,1443,0,0
56,-419,0,0,0,0,0,0,0,0,0,-1,1280,1443,0,0
63,-419,0,0,0,0,0,0,0,0,0,-1,1287,1443,0,0
70,-419,0,0,0,0,0,0,0,0,0,-1,1294,1443,0,0
77,-419,0,0,0,0,0,0,0,0,0,-1,1301,1443,0,0
84,-419,0,0,0,0,0,0,0,0,0,-1,1308,1443,0,0
91,-419,0,0,0,0,0,0,0,0,0,-1,1315,1443,0,0
98,-419,0,0,0,0,0,0,0,0,0,-1,1322,1443,0,0
105,-419,0,0,0,0,0,0,0,0,0,-1,1329,1443,0,0
112,-419,0,0,0,0,0,0,0,0,0,-1,1336,1443,0,0
119,-419,0,0,0,0,0,0,0,0,0,-1,1343,1443,0,0
126,-419,0,0,0,0,0,0,0,0,0,-1,1350,1443,0,0
133,-419,0,0,0,0,0,0,0,0,0,-1,1357,1443,0,0
140,-419,0,0,0,0,0,0,0,0,0,-1,1364,1443,0,0
147,-419,0,0,0,0,0,0,0,0,0,-1,1371,1443,0,0
154,-419,0,0,0,0,0,0,0,0,0,-1,1378,1443,0,0
161,-419,0,0,0,0,0,0,0,0,0,-1,1385,1443,0,0
168,-419,0,0,0,0,0,0,0,0,0,-1,1392,1443,0,0
175,-419,0,0,0,0,0,0,0,0,0,-1,1399,1443,0,0
182,-419,0,0,0,0,0,0,0,0,0,-1,1406,1443,0,0
189,-419,0,0,0,0,0,0,0,0,0,-1,1413,1443,0,0
196,-419,0,0,0,0,0,0,0,0,0,-1,1420,1443,0,0
203,-419,0,0,0,0,0,0,0,0,0,-1,1427,1443,0,0
210,-419,0,0,0,0,0,0,0,0,0,-1,1434,1443,0,0
217,-419,0,0,0,0,0,0,0,0,0,-1,1441,1443,0,0
224,-419,0,0,0,0,0,0,0,0,0,-1,1448,1443,0,0
231,-419,0,0,0,0,0,0,0,0,0,-1,1455,1443,0,0
238,-419,0,0,0,0,0,0,0,0,0,-1,1462,1443,0,0
245,-419,0,0,0,0,0,0,0,0,0,-1,1469,1443,0,0
252,-419,0,0,0,0,0,0,0,0,0,-1,1476,1443,0,0
259,-419,0,0,0,0,0,0,0,0,0,-1,1483,1443,0,0
266,-419,0,0,0,0,0,0,0,0,0,-1,1490,1443,0,0
273,-419,0,0,0,0,0,0,0,0,0,-1,1497,1443,0,0
280,-419,0,0,0,0,0,0,0,0,0,-1,1504,1443,0,0
287,-419,0,0,0,0,0,0,0,0,0,-1,1511,1443,0,0
294,-419,0,0,0,0,0,0,0,0,0,-1,1518,1443,0,0
301,-419,0,0,0,0,0,0,0,0,0,-1,1525,1443,0,0
308,-419,0,0,0,0,0,0,0,0,0,-1,1532,1443,0,0
315,-419,0,0,0,0,0,0,0,0,0,-1,1539,1443,0,0
322,-419,0,0,0,0,0,0,0,0,0,-1,1546,1443,0,0
329,-419,0,0,0,0,0,0,0,0,0,-1,1553,1443,0,0
336,-419,0,0,0,0,0,0,0,0,0,-1,1560,1443,0,0
343,-419,0,0,0,0,0,0,0,0,0,-1,1567,1443,0,0
350,-419,0,0,0,0,0,0,0,0,0,-1,1574,1443,0,0
357,-419,0,0,0,0,0,0,0,0,0,-1,1581,1443,0,0
364,-419,0,0,0,0,0,0,0,0,0,-1,1588,1443,0,0
371,-419,0,0,0,0,0,0,0,0,0,-1,1595,1443,0,0
378,-419,0,0,0,0,0,0,0,0,0,-1,1602,1443,0,0
385,-419,0,0,0,0,0,0,0,0,0,-1,1609,1443,0,0
392,-419,0,0,0,0,0,0,0,0,0,-1,1616,1443,0,0
399,-419,0,0,0,0,0,0,0,0,0,-1,1623,1443,0,0
406,-419,0,0,0,0,0,0,0,0,0,-1,1630,1443,0,0
413,-419,0,0,0,0,0,0,0,0,0,-1,1637,1443,0,0
420,-419,0,0,0,0,0,0,0,0,0,-1,1644,1443,0,0
427,-419,0,0,0,0,0,0,0,0,0,-1,1651,1443,0,0
434,-419,0,0,0,0,0,0,0,0,0,-1,1658,1443,0,0
441,-419,0,0,0,0,0,0,0,0,0,-1,1665,1443,0,0
448,-419,0,0,0,0,0,0,0,0,0,-1,1672,1443,0,0
455,-419,0,0,0,0,0,0,0,0,0,-1,1679,1443,0,0
462,-419,0,0,0,0,0,0,0,0,0,-1,1686,1443,0,0
469,-419,0,0,0,0,0,0,0,0,0,-1,1693,1443,0,0
476,-419,0,0,0,0,0,0,0,0,0,-1,1700,1443,0,0
483,-419,0,0,0,0,0,0,0,0,0,-1,1707,1443,0,0
490,-419,0,0,0,0,0,0,0,0,0,-1,1714,1443,0,0
497,-419,0,0,0,0,0,0,0,0,0,-1,1721,1443,0,0
504,-419,0,0,0,0,0,0,0,0,0,-1,1728,1443,0,0
511,-419,20.3005,3.7959,0,0,0,0,0,0,0,-1,1735,1443,20.3005,-3.79584
518,-419,21.3154,2.03027,0,0,0,0,0,0,0,-1,1742,1443,21.3155,-2.03029
525,-419,28.3439,-1.24475,0,0,0,0,0,0,0,-1,1749,1443,28.3438,1.24471
532,-419,27.5902,-0.272583,0,0,0,0,0,0,0,-1,1756,1443,27.5902,0.272526
539,-419,26.5278,1.60583,0,0,0,0,0,0,0,-1,1763,1443,26.5279,-1.60579
546,-419,24.9509,2.77539,0,0,0,0,0,0,0,-1,1770,1443,24.9509,-2.77537
553,-419,24.118,3.75525,0,0,0,0,0,0,0,-1,1777,1443,24.1181,-3.75526
560,-419,11.8199,8.26343,0,0,0,0,0,0,0,-1,1784,1443,11.82,-8.26341
567,-419,21.5143,8.74719,0,0,0,0,0,0,0,-1,1791,1443,21.5143,-8.74722
574,-419,19.5886,6.46155,0,0,0,0,0,0,0,-1,1798,1443,19.5886,-6.46157
581,-419,20.7926,11.4265,0,0,0,0,0,0,0,-1,1805,1443,20.7926,-11.4265
588,-419,19.4242,12.5363,0,0,0,0,0,0,0,-1,1812,1443,19.4242,-12.5362
595,-419,22.9375,16.0151,0,0,0,0,0,0,0,-1,1819,1443,22.9375,-16.0152
602,-419,69.4452,65.303,0,0,0,0,0,0,0,-1,1826,1443,69.4452,-65.3029
609,-419,142.998,85.5997,0,0,0,0,0,0,0,-1,1833,1443,142.998,-85.5997
616,-419,143.451,82.5579,0,0,0,0,0,0,0,-1,1840,1443,143.451,-82.5578
623,-419,145.757,81.2712,0,0,0,0,0,0,0,-1,1847,1443,145.757,-81.2713
630,-419,145.003,78.2489,-0.016554,0.015041,0.0378633,0.0402702,-0.0417832,0.983032,0.0473762,0.0199017,1854,1443,145.003,-78.2489
637,-419,144.31,75.136,-0.00875244,0.0208879,0.0353983,0.0444432,-0.0323077,0.983646,0.0444964,0.0201533,1861,1443,144.31,-75.136
644,-419,143.599,71.9869,-0.00245349,0.0267198,0.0337524,0.0489026,-0.0246363,0.98936,0.0432214,0.0236343,1868,1443,143.599,-71.9869
651,-419,142.85,68.8885,0.00259005,0.0324572,0.0327919,0.0535558,-0.0185086,0.999067,0.0432155,0.0258376,1875,1443,142.85,-68.8885
658,-419,142.2,65.8439,0.006326,0.0381261,0.0326673,0.0585573,-0.0141052,1.01188,0.0444916,0.0249649,1882,1443,142.2,-65.8439
665,-419,141.693,62.8878,0,0,0,0,0,0,0,-1,1889,1443,141.693,-62.8878
672,-419,139.838,59.8424,0,0,0,0,0,0,0,-1,1896,1443,139.838,-59.8424
679,-419,35.5436,15.4066,0,0,0,0,0,0,0,-1,1903,1443,35.5436,-15.4067
686,-419,17.4127,8.03076,0,0,0,0,0,0,0,-1,1910,1443,17.4127,-8.03071
693,-419,8.76086,5.60535,0,0,0,0,0,0,0,-1,1917,1443,8.76091,-5.6054
700,-419,11.0498,4.85156,0,0,0,0,0,0,0,-1,1924,1443,11.0498,-4.85153
707,-419,9.5752,1.80042,0,0,0,0,0,0,0,-1,1931,1443,9.57523,-1.80037
714,-419,5.77576,-1.25061,0,0,0,0,0,0,0,-1,1938,1443,5.7757,1.25056
721,-419,0,0,0,0,0,0,0,0,0,-1,1945,1443,0,0
728,-419,0,0,0,0,0,0,0,0,0,-1,1952,1443,0,0
735,-419,0,0,0,0,0,0,0,0,0,-1,1959,1443,0,0
742,-419,0,0,0,0,0,0,0,0,0,-1,1966,1443,0,0
749,-419,0,0,0,0,0,0,0,0,0,-1,1973,1443,0,0
756,-419,0,0,0,0,0,0,0,0,0,-1,1980,1443,0,0
763,-419,0,0,0,0,0,0,0,0,0,-1,1987,1443,0,0
770,-419,0,0,0,0,0,0,0,0,0,-1,1994,1443,0,0
777,-419,0,0,0,0,0,0,0,0,0,-1,2001,1443,0,0
784,-419,0,0,0,0,0,0,0,0,0,-1,2008,1443,0,0
791,-419,0,0,0,0,0,0,0,0,0,-1,2015,1443,0,0
798,-419,0,0,0,0,0,0,0,0,0,-1,2022,1443,0,0
805,-419,0,0,0,0,0,0,0,0,0,-1,2029,1443,0,0
812,-419,0,0,0,0,0,0,0,0,0,-1,2036,1443,0,0
-700,-426,0,0,0,0,0,0,0,0,0,-1,524,1450,0,0
-693,-426,0,0,0,0,0,0,0,0,0,-1,531,1450,0,0
-686,-426,0,0,0,0,0,0,0,0,0,-1,538,1450,0,0
-679,-426,0,0,0,0,0,0,0,0,0,-1,545,1450,0,0
-672,-426,0,0,0,0,0,0,0,0,0,-1,552,1450,0,0
-665,-426,0,0,0,0,0,0,0,0,0,-1,559,1450,0,0
-658,-426,0,0,0,0,0,0,0,0,0,-1,566,1450,0,0
-651,-426,0,0,0,0,0,0,0,0,0,-1,573,1450,0,0
-644,-426,0,0,0,0,0,0,0,0,0,-1,580,1450,0,0
-637,-426,0,0,0,0,0,0,0,0,0,-1,587,1450,0,0
-630,-426,0,0,0,0,0,0,0,0,0,-1,594,1450,0,0
-623,-426,0,0,0,0,0,0,0,0,0,-1,601,1450,0,0
-616,-426,0,0,0,0,0,0,0,0,0,-1,608,1450,0,0
-609,-426,0,0,0,0,0,0,0,0,0,-1,615,1450,0,0
-602,-426,0,0,0,0,0,0,0,0,0,-1,622,1450,0,0
-595,-426,0,0,0,0,0,0,0,0,0,-1,629,1450,0,0
-588,-426,-10.184,-0.554321,0,0,0,0,0,0,0,-1,636,1450,-10.184,0.554321
-581,-426,-7.3349,1.48157,0,0,0,0,0,0,0,-1,643,1450,-7.33491,-1.48152
-574,-426,-5.02856,2.89319,0,0,0,0,0,0,0,-1,650,1450,-5.02858,-2.89319
-567,-426,-3.04797,1.72644,0,0,0,0,0,0,0,-1,657,1450,-3.04797,-1.72639
-560,-426,-5.55682,3.44397,0,0,0,0,0,0,0,-1,664,1450,-5.55684,-3.44399
-553,-426,-4.67017,6.66614,0,0,0,0,0,0,0,-1,671,1450,-4.67015,-6.66619
-546,-426,-7.58752,8.28882,0,0,0,0,0,0,0,-1,678,1450,-7.58752,-8.28878
-539,-426,-10.436,10.7441,0,0,0,0,0,0,0,-1,685,1450,-10.436,-10.7441
-532,-426,-56.7146,50.4419,0,0,0,0,0,0,0,-1,692,1450,-56.7146,-50.4419
-525,-426,-130.825,62.5023,0,0,0,0,0,0,0,-1,699,1450,-130.825,-62.5024
-518,-426,-131.375,65.6259,0.0114263,0.049714,-0.0423905,0.0770829,-0.0159426,-0.997493,0.0574451,0.0297444,706,1450,-131.375,-65.6258
-511,-426,-131.974,68.7723,0.0102788,0.0468963,-0.0395181,0.0721409,-0.0149657,-1.00233,0.0537811,0.0238332,713,1450,-131.974,-68.7723
-504,-426,-132.654,71.8492,0.00882922,0.0448307,-0.036342,0.0673857,-0.0137258,-1.01534,0.0501294,0.0230249,720,1450,-132.653,-71.8492
-497,-426,-133.448,74.9399,0.00693558,0.0435042,-0.0329196,0.0628764,-0.0124366,-1.0389,0.0466194,0.0199809,727,1450,-133.448,-74.94
-490,-426,-134.244,78.189,0.00437855,0.0430758,-0.0292599,0.0588058,-0.0113514,-1.07753,0.0434844,0.0288842,734,1450,-134.244,-78.189
-483,-426,-134.933,81.3127,0,0,0,0,0,0,0,-1,741,1450,-134.933,-81.3127
-476,-426,-131.78,84.8632,0,0,0,0,0,0,0,-1,748,1450,-131.78,-84.8632
-469,-426,-80.6232,84.3521,0,0,0,0,0,0,0,-1,755,1450,-80.6232,-84.3521
-462,-426,-81.7856,86.6661,0,0,0,0,0,0,0,-1,762,1450,-81.7856,-86.6661
-455,-426,-10.215,17.7007,0,0,0,0,0,0,0,-1,769,1450,-10.215,-17.7007
-448,-426,-6.46545,10.1322,0,0,0,0,0,0,0,-1,776,1450,-6.46543,-10.1322
-441,-426,-10.9547,11.4747,0,0,0,0,0,0,0,-1,783,1450,-10.9546,-11.4748
-434,-426,-10.4998,13.6189,0,0,0,0,0,0,0,-1,790,1450,-10.4997,-13.6189
-427,-426,-9.36627,13.7396,0,0,0,0,0,0,0,-1,797,1450,-9.36628,-13.7396
-420,-426,-5.33765,7.95044,0,0,0,0,0,0,0,-1,804,1450,-5.33766,-7.95041
-413,-426,-10.1148,5.0415,0,0,0,0,0,0,0,-1,811,1450,-10.1148,-5.04152
-406,-426,-11.4199,3.6438,0,0,0,0,0,0,0,-1,818,1450,-11.4198,-3.64382
-399,-426,-12.7595,2.29004,0,0,0,0,0,0,0,-1,825,1450,-12.7595,-2.29003
-392,-426,-12.4147,0.537354,0,0,0,0,0,0,0,-1,832,1450,-12.4147,-0.53731
-385,-426,0,0,0,0,0,0,0,0,0,-1,839,1450,0,0
-378,-426,0,0,0,0,0,0,0,0,0,-1,846,1450,0,0
-371,-426,0,0,0,0,0,0,0,0,0,-1,853,1450,0,0
-364,-426,0,0,0,0,0,0,0,0,0,-1,860,1450,0,0
-357,-426,0,0,0,0,0,0,0,0,0,-1,867,1450,0,0
-350,-426,0,0,0,0,0,0,0,0,0,-1,874,1450,0,0
-343,-426,0,0,0,0,0,0,0,0,0,-1,881,1450,0,0
-336,-426,0,0,0,0,0,0,0,0,0,-1,888,1450,0,0
-329,-426,0,0,0,0,0,0,0,0,0,-1,895,1450,0,0
-322,-426,0,0,0,0,0,0,0,0,0,-1,902,1450,0,0
-315,-426,0,0,0,0,0,0,0,0,0,-1,909,1450,0,0
-308,-426,0,0,0,0,0,0,0,0,0,-1,916,1450,0,0
-301,-426,0,0,0,0,0,0,0,0,0,-1,923,1450,0,0
-294,-426,0,0,0,0,0,0,0,0,0,-1,930,1450,0,0
-287,-426,0,0,0,0,0,0,0,0,0,-1,937,1450,0,0
-280,-426,0,0,0,0,0,0,0,0,0,-1,944,1450,0,0
-273,-426,0,0,0,0,0,0,0,0,0,-1,951,1450,0,0
-266,-426,0,0,0,0,0,0,0,0,0,-1,958,1450,0,0
-259,-426,0,0,0,0,0,0,0,0,0,-1,965,1450,0,0
-252,-426,0,0,0,0,0,0,0,0,0,-1,972,1450,0,0
-245,-426,0,0,0,0,0,0,0,0,0,-1,979,1450,0,0
-238,-426,0,0,0,0,0,0,0,0,0,-1,986,1450,0,0
-231,-426,0,0,0,0,0,0,0,0,0,-1,993,1450,0,0
-224,-426,0,0,0,0,0,0,0,0,0,-1,1000,1450,0,0
-217,-426,0,0,0,0,0,0,0,0,0,-1,1007,1450,0,0
-210,-426,0,0,0,0,0,0,0,0,0,-1,1014,1450,0,0
-203,-426,0,0,0,0,0,0,0,0,0,-1,1021,1450,0,0
-196,-426,0,0,0,0,0,0,0,0,0,-1,1028,1450,0,0
-189,-426,0,0,0,0,0,0,0,0,0,-1,1035,1450,0,0
-182,-426,0,0,0,0,0,0,0,0,0,-1,1042,1450,0,0
-175,-426,0,0,0,0,0,0,0,0,0,-1,1049,1450,0,0
-168,-426,0,0,0,0,0,0,0,0,0,-1,1056,1450,0,0
-161,-426,0,0,0,0,0,0,0,0,0,-1,1063,1450,0,0
-154,-426,0,0,0,0,0,0,0,0,0,-1,1070,1450,0,0
-147,-426,0,0,0,0,0,0,0,0,0,-1,1077,1450,0,0
-140,-426,0,0,0,0,0,0,0,0,0,-1,1084,1450,0,0
-133,-426,0,0,0,0,0,0,0,0,0,-1,1091,1450,0,0
-126,-426,0,0,0,0,0,0,0,0,0,-1,1098,1450,0,0
-119,-426,0,0,0,0,0,0,0,0,0,-1,1105,1450,0,0
-112,-426,0,0,0,0,0,0,0,0,0,-1,1112,1450,0,0
-105,-426,0,0,0,0,0,0,0,0,0,-1,1119,1450,0,0
-98,-426,0,0,0,0,0,0,0,0,0,-1,1126,1450,0,0
-91,-426,0,0,0,0,0,0,0,0,0,-1,1133,1450,0,0
-84,-426,0,0,0,0,0,0,0,0,0,-1,1140,1450,0,0
-77,-426,0,0,0,0,0,0,0,0,0,-1,1147,1450,0,0
-70,-426,0,0,0,0,0,0,0,0,0,-1,1154,1450,0,0
-63,-426,0,0,0,0,0,0,0,0,0,-1,1161,1450,0,0
-56,-426,0,0,0,0,0,0,0,0,0,-1,1168,1450,0,0
-49,-426,0,0,0,0,0,0,0,0,0,-1,1175,1450,0,0
-42,-426,0,0,0,0,0,0,0,0,0,-1,1182,1450,0,0
-35,-426,0,0,0,0,0,0,0,0,0,-1,1189,1450,0,0
-28,-426,0,0,0,0,0,0,0,0,0,-1,1196,1450,0,0
-21,-426,0,0,0,0,0,0,0,0,0,-1,1203,1450,0,0
-14,-426,0,0,0,0,0,0,0,0,0,-1,1210,1450,0,0
-7,-426,0,0,0,0,0,0,0,0,0,-1,1217,1450,0,0
0,-426,0,0,0,0,0,0,0,0,0,-1,1224,1450,0,0
7,-426,0,0,0,0,0,0,0,0,0,-1,1231,1450,0,0
14,-426,0,0,0,0,0,0,0,0,0,-1,1238,1450,0,0
21,-426,0,0,0,0,0,0,0,0,0,-1,1245,1450,0,0
28,-426,0,0,0,0,0,0,0,0,0,-1,1252,1450,0,0
35,-426,0,0,0,0,0,0,0,0,0,-1,1259,1450,0,0
42,-426,0,0,0,0,0,0,0,0,0,-1,1266,1450,0,0
49,-426,0,0,0,0,0,0,0,0,0,-1,1273,1450,0,0
56,-426,0,0,0,0,0,0,0,0,0,-1,1280,1450,0,0
63,-426,0,0,0,0,0,0,0,0,0,-1,1287,1450,0,0
70,-426,0,0,0,0,0,0,0,0,0,-1,1294,1450,0,0
77,-426,0,0,0,0,0,0,0,0,0,-1,1301,1450,0,0
84,-426,0,0,0,0,0,0,0,0,0,-1,1308,1450,0,0
91,-426,0,0,0,0,0,0,0,0,0,-1,1315,1450,0,0
98,-426,0,0,0,0,0,0,0,0,0,-1,1322,1450,0,0
105,-426,0,0,0,0,0,0,0,0,0,-1,1329,1450,0,0
112,-426,0,0,0,0,0,0,0,0,0,-1,1336,1450,0,0
119,-426,0,0,0,0,0,0,0,0,0,-1,1343,1450,0,0
126,-426,0,0,0,0,0,0,0,0,0,-1,1350,1450,0,0
133,-426,0,0,0,0,0,0,0,0,0,-1,1357,1450,0,0
140,-426,0,0,0,0,0,0,0,0,0,-1,1364,1450,0,0
147,-426,0,0,0,0,0,0,0,0,0,-1,1371,1450,0,0
154,-426,0,0,0,0,0,0,0,0,0,-1,1378,1450,0,0
161,-426,0,0,0,0,0,0,0,0,0,-1,1385,1450,0,0
168,-426,0,0,0,0,0,0,0,0,0,-1,1392,1450,0,0
175,-426,0,0,0,0,0,0,0,0,0,-1,1399,1450,0,0
182,-426,0,0,0,0,0,0,0,0,0,-1,1406,1450,0,0
189,-426,0,0,0,0,0,0,0,0,0,-1,1413,1450,0,0
196,-426,0,0,0,0,0,0,0,0,0,-1,1420,1450,0,0
203,-426,0,0,0,0,0,0,0,0,0,-1,1427,1450,0,0
210,-426,0,0,0,0,0,0,0,0,0,-1,1434,1450,0,0
217,-426,0,0,0,0,0,0,0,0,0,-1,1441,1450,0,0
224,-426,0,0,0,0,0,0,0,0,0,-1,1448,1450,0,0
231,-426,0,0,0,0,0,0,0,0,0,-1,1455,1450,0,0
238,-426,0,0,0,0,0,0,0,0,0,-1,1462,1450,0,0
245,-426,0,0,0,0,0,0,0,0,0,-1,1469,1450,0,0
252,-426,0,0,0,0,0,0,0,0,0,-1,1476,1450,0,0
259,-426,0,0,0,0,0,0,0,0,0,-1,1483,1450,0,0
266,-426,0,0,0,0,0,0,0,0,0,-1,1490,1450,0,0
273,-426,0,0,0,0,0,0,0,0,0,-1,1497,1450,0,0
280,-426,0,0,0,0,0,0,0,0,0,-1,1504,1450,0,0
287,-426,0,0,0,0,0,0,0,0,0,-1,1511,1450,0,0
294,-426,0,0,0,0,0,0,0,0,0,-1,1518,1450,0,0
301,-426,0,0,0,0,0,0,0,0,0,-1,1525,1450,0,0
308,-426,0,0,0,0,0,0,0,0,0,-1,1532,1450,0,0
315,-426,0,0,0,0,0,0,0,0,0,-1,1539,1450,0,0
322,-426,0,0,0,0,0,0,0,0,0,-1,1546,1450,0,0
329,-426,0,0,0,0,0,0,0,0,0,-1,1553,1450,0,0
336,-426,0,0,0,0,0,0,0,0,0,-1,1560,1450,0,0
343,-426,0,0,0,0,0,0,0,0,0,-1,1567,1450,0,0
350,-426,0,0,0,0,0,0,0,0,0,-1,1574,1450,0,0
357,-426,0,0,0,0,0,0,0,0,0,-1,1581,1450,0,0
364,-426,0,0,0,0,0,0,0,0,0,-1,1588,1450,0,0
371,-426,0,0,0,0,0,0,0,0,0,-1,1595,1450,0,0
378,-426,0,0,0,0,0,0,0,0,0,-1,1602,1450,0,0
385,-426,0,0,0,0,0,0,0,0,0,-1,1609,1450,0,0
392,-426,0,0,0,0,0,0,0,0,0,-1,1616,1450,0,0
399,-426,0,0,0,0,0,0,0,0,0,-1,1623,1450,0,0
406,-426,0,0,0,0,0,0,0,0,0,-1,1630,1450,0,0
413,-426,0,0,0,0,0,0,0,0,0,-1,1637,1450,0,0
420,-426,0,0,0,0,0,0,0,0,0,-1,1644,1450,0,0
427,-426,0,0,0,0,0,0,0,0,0,-1,1651,1450,0,0
434,-426,0,0,0,0,0,0,0,0,0,-1,1658,1450,0,0
441,-426,0,0,0,0,0,0,0,0,0,-1,1665,1450,0,0
448,-426,0,0,0,0,0,0,0,0,0,-1,1672,1450,0,0
455,-426,0,0,0,0,0,0,0,0,0,-1,1679,1450,0,0
462,-426,0,0,0,0,0,0,0,0,0,-1,1686,1450,0,0
469,-426,0,0,0,0,0,0,0,0,0,-1,1693,1450,0,0
476,-426,0,0,0,0,0,0,0,0,0,-1,1700,1450,0,0
483,-426,0,0,0,0,0,0,0,0,0,-1,1707,1450,0,0
490,-426,0,0,0,0,0,0,0,0,0,-1,1714,1450,0,0
497,-426,0,0,0,0,0,0,0,0,0,-1,1721,1450,0,0
504,-426,20.6873,3.38367,0,0,0,0,0,0,0,-1,1728,1450,20.6873,-3.38361
511,-426,19.6676,3.53748,0,0,0,0,0,0,0,-1,1735,1450,19.6676,-3.53749
518,-426,18.6853,3.32288,0,0,0,0,0,0,0,-1,1742,1450,18.6853,-3.3229
525,-426,18.9552,2.71033,0,0,0,0,0,0,0,-1,1749,1450,18.9552,-2.71034
532,-426,19.4333,2.70764,0,0,0,0,0,0,0,-1,1756,1450,19.4334,-2.70764
539,-426,25.1482,2.56287,0,0,0,0,0,0,0,-1,1763,1450,25.1482,-2.56286
546,-426,24.1136,3.75659,0,0,0,0,0,0,0,-1,1770,1450,24.1136,-3.7566
553,-426,23.0791,4.95032,0,0,0,0,0,0,0,-1,1777,1450,23.0791,-4.95034
560,-426,12.9688,11.8289,0,0,0,0,0,0,0,-1,1784,1450,12.9688,-11.8288
567,-426,13.6388,11.5623,0,0,0,0,0,0,0,-1,1791,1450,13.6388,-11.5623
574,-426,14.3943,11.0286,0,0,0,0,0,0,0,-1,1798,1450,14.3942,-11.0285
581,-426,16.3879,11.4653,0,0,0,0,0,0,0,-1,1805,1450,16.3879,-11.4653
588,-426,18.1212,12.5547,0,0,0,0,0,0,0,-1,1812,1450,18.1212,-12.5547
595,-426,30.0474,21.0964,0,0,0,0,0,0,0,-1,1819,1450,30.0474,-21.0965
602,-426,140.833,90.2277,0,0,0,0,0,0,0,-1,1826,1450,140.833,-90.2277
609,-426,145.784,86.9988,0,0,0,0,0,0,0,-1,1833,1450,145.784,-86.9988
616,-426,142.923,85.3082,0,0,0,0,0,0,0,-1,1840,1450,142.924,-85.3082
623,-426,142.242,82.2117,-0.0215011,0.0139628,0.041339,0.0412123,-0.0487506,0.987999,0.0520009,0.0385364,1847,1450,142.242,-82.2117
630,-426,141.521,79.0736,-0.01238,0.0195168,0.0383221,0.0450767,-0.0379399,0.98258,0.0479886,0.0179202,1854,1450,141.521,-79.0736
637,-426,140.76,75.882,-0.00469006,0.0252245,0.0360325,0.0492808,-0.0287464,0.982128,0.0455661,0.0209699,1861,1450,140.76,-75.882
644,-426,140.001,72.7244,0.00168629,0.0310125,0.0344058,0.0537495,-0.0210507,0.986833,0.0445401,0.0232355,1868,1450,140.001,-72.7243
651,-426,139.307,69.6521,0.00697217,0.0368381,0.033326,0.0584239,-0.0146136,0.996029,0.0446253,0.0240774,1875,1450,139.307,-69.6521
658,-426,138.544,66.46,0.0108011,0.0428336,0.033216,0.0636931,-0.0100584,1.01004,0.0461815,0.0267353,1882,1450,138.544,-66.46
665,-426,137.753,63.1801,0,0,0,0,0,0,0,-1,1889,1450,137.753,-63.18
672,-426,36.2397,16.927,0,0,0,0,0,0,0,-1,1896,1450,36.2397,-16.9271
679,-426,17.1522,8.15784,0,0,0,0,0,0,0,-1,1903,1450,17.1522,-8.15784
686,-426,13.5326,8.03711,0,0,0,0,0,0,0,-1,1910,1450,13.5326,-8.03717
693,-426,11.8607,6.45215,0,0,0,0,0,0,0,-1,1917,1450,11.8607,-6.45215
700,-426,9.24304,2.95447,0,0,0,0,0,0,0,-1,1924,1450,9.24305,-2.95442
707,-426,8.44519,-1.21448,0,0,0,0,0,0,0,-1,1931,1450,8.44514,1.21454
714,-426,0,0,0,0,0,0,0,0,0,-1,1938,1450,0,0
721,-426,0,0,0,0,0,0,0,0,0,-1,1945,1450,0,0
728,-426,0,0,0,0,0,0,0,0,0,-1,1952,1450,0,0
735,-426,0,0,0,0,0,0,0,0,0,-1,1959,1450,0,0
742,-426,0,0,0,0,0,0,0,0,0,-1,1966,1450,0,0
749,-426,0,0,0,0,0,0,0,0,0,-1,1973,1450,0,0
756,-426,0,0,0,0,0,0,0,0,0,-1,1980,1450,0,0
763,-426,0,0,0,0,0,0,0,0,0,-1,1987,1450,0,0
770,-426,0,0,0,0,0,0,0,0,0,-1,1994,1450,0,0
777,-426,0,0,0,0,0,0,0,0,0,-1,2001,1450,0,0
784,-426,0,0,0,0,0,0,0,0,0,-1,2008,1450,0,0
791,-426,0,0,0,0,0,0,0,0,0,-1,2015,1450,0,0
798,-426,0,0,0,0,0,0,0,0,0,-1,2022,1450,0,0
805,-426,0,0,0,0,0,0,0,0,0,-1,2029,1450,0,0
812,-426,0,0,0,0,0,0,0,0,0,-1,2036,1450,0,0
-700,-433,0,0,0,0,0,0,0,0,0,-1,524,1457,0,0
-693,-433,0,0,0,0,0,0,0,0,0,-1,531,1457,0,0
-686,-433,0,0,0,0,0,0,0,0,0,-1,538,1457,0,0
-679,-433,0,0,0,0,0,0,0,0,0,-1,545,1457,0,0
-672,-433,0,0,0,0,0,0,0,0,0,-1,552,1457,0,0
-665,-433,0,0,0,0,0,0,0,0,0,-1,559,1457,0,0
-658,-433,0,0,0,0,0,0,0,0,0,-1,566,1457,0,0
-651,-433,0,0,0,0,0,0,0,0,0,-1,573,1457,0,0
-644,-433,0,0,0,0,0,0,0,0,0,-1,580,1457,0,0
-637,-433,0,0,0,0,0,0,0,0,0,-1,587,1457,0,0
-630,-433,0,0,0,0,0,0,0,0,0,-1,594,1457,0,0
-623,-433,0,0,0,0,0,0,0,0,0,-1,601,1457,0,0
-616,-433,0,0,0,0,0,0,0,0,0,-1,608,1457,0,0
-609,-433,0,0,0,0,0,0,0,0,0,-1,615,1457,0,0
-602,-433,0,0,0,0,0,0,0,0,0,-1,622,1457,0,0
-595,-433,0,0,0,0,0,0,0,0,0,-1,629,1457,0,0
-588,-433,-10.3756,-0.467041,0,0,0,0,0,0,0,-1,636,1457,-10.3756,0.467081
-581,-433,-8.12201,0.884033,0,0,0,0,0,0,0,-1,643,1457,-8.12204,-0.884056
-574,-433,-5.86847,2.23523,0,0,0,0,0,0,0,-1,650,1457,-5.86844,-2.23519
-567,-433,-5.42255,1.16833,0,0,0,0,0,0,0,-1,657,1457,-5.42254,-1.1683
-560,-433,-6.84027,1.86414,0,0,0,0,0,0,0,-1,664,1457,-6.84026,-1.86412
-553,-433,-5.74017,1.79163,0,0,0,0,0,0,0,-1,671,1457,-5.74015,-1.79166
-546,-433,-8.12451,7.35095,0,0,0,0,0,0,0,-1,678,1457,-8.12451,-7.35097
-539,-433,-7.3136,8.75659,0,0,0,0,0,0,0,-1,685,1457,-7.31362,-8.75659
-532,-433,-14.5645,14.8475,0,0,0,0,0,0,0,-1,692,1457,-14.5645,-14.8475
-525,-433,-127.545,63.1965,0,0,0,0,0,0,0,-1,699,1457,-127.545,-63.1965
-518,-433,-127.549,66.2419,0.013364,0.0512822,-0.0456813,0.0817825,-0.0171363,-0.982096,0.0610409,0.0479563,706,1457,-127.549,-66.2419
-511,-433,-128.051,69.3784,0.0119805,0.0481865,-0.0429593,0.0767014,-0.0165343,-0.984807,0.0574444,0.0270272,713,1457,-128.051,-69.3784
-504,-433,-128.813,72.6212,0.0101987,0.0457957,-0.0399843,0.071764,-0.0157695,-0.994799,0.053874,0.017271,720,1457,-128.813,-72.6212
-497,-433,-129.602,75.788,0.00793297,0.0440797,-0.0367857,0.0669921,-0.0149795,-1.01374,0.0504021,0.017035,727,1457,-129.602,-75.7879
-490,-433,-130.468,79.0538,0.00501985,0.0431367,-0.0334321,0.0625611,-0.0144046,-1.04446,0.0472466,0.0237767,734,1457,-130.468,-79.0538
-483,-433,-131.297,82.295,0.00127642,0.0430649,-0.0297791,0.0585487,-0.0142074,-1.09131,0.0445302,0.0464475,741,1457,-131.297,-82.295
-476,-433,-132.194,85.5325,0,0,0,0,0,0,0,-1,748,1457,-132.194,-85.5325
-469,-433,-133.845,89.3418,0,0,0,0,0,0,0,-1,755,1457,-133.845,-89.3417
-462,-433,-78.3253,87.6478,0,0,0,0,0,0,0,-1,762,1457,-78.3253,-87.6478
-455,-433,-43.1202,58.5039,0,0,0,0,0,0,0,-1,769,1457,-43.1202,-58.5039
-448,-433,-6.94812,14.5563,0,0,0,0,0,0,0,-1,776,1457,-6.94809,-14.5562
-441,-433,-9.97485,14.0258,0,0,0,0,0,0,0,-1,783,1457,-9.97488,-14.0257
-434,-433,-9.41205,14.2297,0,0,0,0,0,0,0,-1,790,1457,-9.41205,-14.2297
-427,-433,-8.67419,13.6827,0,0,0,0,0,0,0,-1,797,1457,-8.67422,-13.6827
-420,-433,-5.74658,9.49121,0,0,0,0,0,0,0,-1,804,1457,-5.7466,-9.49119
-413,-433,-3.63074,5.5813,0,0,0,0,0,0,0,-1,811,1457,-3.63072,-5.58129
-406,-433,-12.3472,4.69373,0,0,0,0,0,0,0,-1,818,1457,-12.3472,-4.69374
-399,-433,-12.055,2.83594,0,0,0,0,0,0,0,-1,825,1457,-12.055,-2.83594
-392,-433,-12.9772,1.6228,0,0,0,0,0,0,0,-1,832,1457,-12.9772,-1.62282
-385,-433,-13.7999,0.514771,0,0,0,0,0,0,0,-1,839,1457,-13.7999,-0.514788
-378,-433,0,0,0,0,0,0,0,0,0,-1,846,1457,0,0
-371,-433,0,0,0,0,0,0,0,0,0,-1,853,1457,0,0
-364,-433,0,0,0,0,0,0,0,0,0,-1,860,1457,0,0
-357,-433,0,0,0,0,0,0,0,0,0,-1,867,1457,0,0
-350,-433,0,0,0,0,0,0,0,0,0,-1,874,1457,0,0
-343,-433,0,0,0,0,0,0,0,0,0,-1,881,1457,0,0
-336,-433,0,0,0,0,0,0,0,0,0,-1,888,1457,0,0
-329,-433,0,0,0,0,0,0,0,0,0,-1,895,1457,0,0
-322,-433,0,0,0,0,0,0,0,0,0,-1,902,1457,0,0
-315,-433,0,0,0,0,0,0,0,0,0,-1,909,1457,0,0
-308,-433,0,0,0,0,0,0,0,0,0,-1,916,1457,0,0
-301,-433,0,0,0,0,0,0,0,0,0,-1,923,1457,0,0
-294,-433,0,0,0,0,0,0,0,0,0,-1,930,1457,0,0
-287,-433,0,0,0,0,0,0,0,0,0,-1,937,1457,0,0
-280,-433,0,0,0,0,0,0,0,0,0,-1,944,1457,0,0
-273,-433,0,0,0,0,0,0,0,0,0,-1,951,1457,0,0
-266,-433,0,0,0,0,0,0,0,0,0,-1,958,1457,0,0
-259,-433,0,0,0,0,0,0,0,0,0,-1,965,1457,0,0
-252,-433,0,0,0,0,0,0,0,0,0,-1,972,1457,0,0
-245,-433,0,0,0,0,0,0,0,0,0,-1,979,1457,0,0
-238,-433,0,0,0,0,0,0,0,0,0,-1,986,1457,0,0
-231,-433,0,0,0,0,0,0,0,0,0,-1,993,1457,0,0
-224,-433,0,0,0,0,0,0,0,0,0,-1,1000,1457,0,0
-217,-433,0,0,0,0,0,0,0,0,0,-1,1007,1457,0,0
-210,-433,0,0,0,0,0,0,0,0,0,-1,1014,1457,0,0
-203,-433,0,0,0,0,0,0,0,0,0,-1,1021,1457,0,0
-196,-433,0,0,0,0,0,0,0,0,0,-1,1028,1457,0,0
-189,-433,0,0,0,0,0,0,0,0,0,-1,1035,1457,0,0
-182,-433,0,0,0,0,0,0,0,0,0,-1,1042,1457,0,0
-175,-433,0,0,0,0,0,0,0,0,0,-1,1049,1457,0,0
-168,-433,0,0,0,0,0,0,0,0,0,-1,1056,1457,0,0
-161,-433,0,0,0,0,0,0,0,0,0,-1,1063,1457,0,0
-154,-433,0,0,0,0,0,0,0,0,0,-1,1070,1457,0,0
-147,-433,0,0,0,0,0,0,0,0,0,-1,1077,1457,0,0
-140,-433,0,0,0,0,0,0,0,0,0,-1,1084,1457,0,0
-133,-433,0,0,0,0,0,0,0,0,0,-1,1091,1457,0,0
-126,-433,0,0,0,0,0,0,0,0,0,-1,1098,1457,0,0
-119,-433,0,0,0,0,0,0,0,0,0,-1,1105,1457,0,0
-112,-433,0,0,0,0,0,0,0,0,0,-1,1112,1457,0,0
-105,-433,0,0,0,0,0,0,0,0,0,-1,1119,1457,0,0
-98,-433,0,0,0,0,0,0,0,0,0,-1,1126,1457,0,0
-91,-433,0,0,0,0,0,0,0,0,0,-1,1133,1457,0,0
-84,-433,0,0,0,0,0,0,0,0,0,-1,1140,1457,0,0
-77,-433,0,0,0,0,0,0,0,0,0,-1,1147,1457,0,0
-70,-433,0,0,0,0,0,0,0,0,0,-1,1154,1457,0,0
-63,-433,0,0,0,0,0,0,0,0,0,-1,1161,1457,0,0
-56,-433,0,0,0,0,0,0,0,0,0,-1,1168,1457,0,0
-49,-433,0,0,0,0,0,0,0,0,0,-1,1175,1457,0,0
-42,-433,0,0,0,0,0,0,0,0,0,-1,1182,1457,0,0
-35,-433,0,0,0,0,0,0,0,0,0,-1,1189,1457,0,0
-28,-433,0,0,0,0,0,0,0,0,0,-1,1196,1457,0,0
-21,-433,0,0,0,0,0,0,0,0,0,-1,1203,1457,0,0
-14,-433,0,0,0,0,0,0,0,0,0,-1,1210,1457,0,0
-7,-433,0,0,0,0,0,0,0,0,0,-1,1217,1457,0,0
0,-433,0,0,0,0,0,0,0,0,0,-1,1224,1457,0,0
7,-433,0,0,0,0,0,0,0,0,0,-1,1231,1457,0,0
14,-433,0,0,0,0,0,0,0,0,0,-1,1238,1457,0,0
21,-433,0,0,0,0,0,0,0,0,0,-1,1245,1457,0,0
28,-433,0,0,0,0,0,0,0,0,0,-1,1252,1457,0,0
35,-433,0,0,0,0,0,0,0,0,0,-1,1259,1457,0,0
42,-433,0,0,0,0,0,0,0,0,0,-1,1266,1457,0,0
49,-433,0,0,0,0,0,0,0,0,0,-1,1273,1457,0,0
56,-433,0,0,0,0,0,0,0,0,0,-1,1280,1457,0,0
63,-433,0,0,0,0,0,0,0,0,0,-1,1287,1457,0,0
70,-433,0,0,0,0,0,0,0,0,0,-1,1294,1457,0,0
77,-433,0,0,0,0,0,0,0,0,0,-1,1301,1457,0,0
84,-433,0,0,0,0,0,0,0,0,0,-1,1308,1457,0,0
91,-433,0,0,0,0,0,0,0,0,0,-1,1315,1457,0,0
98,-433,0,0,0,0,0,0,0,0,0,-1,1322,1457,0,0
105,-433,0,0,0,0,0,0,0,0,0,-1,1329,1457,0,0
112,-433,0,0,0,0,0,0,0,0,0,-1,1336,1457,0,0
119,-433,0,0,0,0,0,0,0,0,0,-1,1343,1457,0,0
126,-433,0,0,0,0,0,0,0,0,0,-1,1350,1457,0,0
133,-433,0,0,0,0,0,0,0,0,0,-1,1357,1457,0,0
140,-433,0,0,0,0,0,0,0,0,0,-1,1364,1457,0,0
147,-433,0,0,0,0,0,0,0,0,0,-1,1371,1457,0,0
154,-433,0,0,0,0,0,0,0,0,0,-1,1378,1457,0,0
161,-433,0,0,0,0,0,0,0,0,0,-1,1385,1457,0,0
168,-433,0,0,0,0,0,0,0,0,0,-1,1392,1457,0,0
175,-433,0,0,0,0,0,0,0,0,0,-1,1399,1457,0,0
182,-433,0,0,0,0,0,0,0,0,0,-1,1406,1457,0,0
189,-433,0,0,0,0,0,0,0,0,0,-1,1413,1457,0,0
196,-433,0,0,0,0,0,0,0,0,0,-1,1420,1457,0,0
203,-433,0,0,0,0,0,0,0,0,0,-1,1427,1457,0,0
210,-433,0,0,0,0,0,0,0,0,0,-1,1434,1457,0,0
217,-433,0,0,0,0,0,0,0,0,0,-1,1441,1457,0,0
224,-433,0,0,0,0,0,0,0,0,0,-1,1448,1457,0,0
231,-433,0,0,0,0,0,0,0,0,0,-1,1455,1457,0,0
238,-433,0,0,0,0,0,0,0,0,0,-1,1462,1457,0,0
245,-433,0,0,0,0,0,0,0,0,0,-1,1469,1457,0,0
252,-433,0,0,0,0,0,0,0,0,0,-1,1476,1457,0,0
259,-433,0,0,0,0,0,0,0,0,0,-1,1483,1457,0,0
266,-433,0,0,0,0,0,0,0,0,0,-1,1490,1457,0,0
273,-433,0,0,0,0,0,0,0,0,0,-1,1497,1457,0,0
280,-433,0,0,0,0,0,0,0,0,0,-1,1504,1457,0,0
287,-433,0,0,0,0,0,0,0,0,0,-1,1511,1457,0,0
294,-433,0,0,0,0,0,0,0,0,0,-1,1518,1457,0,0
301,-433,0,0,0,0,0,0,0,0,0,-1,1525,1457,0,0
308,-433,0,0,0,0,0,0,0,0,0,-1,1532,1457,0,0
315,-433,0,0,0,0,0,0,0,0,0,-1,1539,1457,0,0
322,-433,0,0,0,0,0,0,0,0,0,-1,1546,1457,0,0
329,-433,0,0,0,0,0,0,0,0,0,-1,1553,1457,0,0
336,-433,0,0,0,0,0,0,0,0,0,-1,1560,1457,0,0
343,-433,0,0,0,0,0,0,0,0,0,-1,1567,1457,0,0
350,-433,0,0,0,0,0,0,0,0,0,-1,1574,1457,0,0
357,-433,0,0,0,0,0,0,0,0,0,-1,1581,1457,0,0
364,-433,0,0,0,0,0,0,0,0,0,-1,1588,1457,0,0
371,-433,0,0,0,0,0,0,0,0,0,-1,1595,1457,0,0
378,-433,0,0,0,0,0,0,0,0,0,-1,1602,1457,0,0
385,-433,0,0,0,0,0,0,0,0,0,-1,1609,1457,0,0
392,-433,0,0,0,0,0,0,0,0,0,-1,1616,1457,0,0
399,-433,0,0,0,0,0,0,0,0,0,-1,1623,1457,0,0
406,-433,0,0,0,0,0,0,0,0,0,-1,1630,1457,0,0
413,-433,0,0,0,0,0,0,0,0,0,-1,1637,1457,0,0
420,-433,0,0,0,0,0,0,0,0,0,-1,1644,1457,0,0
427,-433,0,0,0,0,0,0,0,0,0,-1,1651,1457,0,0
434,-433,0,0,0,0,0,0,0,0,0,-1,1658,1457,0,0
441,-433,0,0,0,0,0,0,0,0,0,-1,1665,1457,0,0
448,-433,0,0,0,0,0,0,0,0,0,-1,1672,1457,0,0
455,-433,0,0,0,0,0,0,0,0,0,-1,1679,1457,0,0
462,-433,0,0,0,0,0,0,0,0,0,-1,1686,1457,0,0
469,-433,0,0,0,0,0,0,0,0,0,-1,1693,1457,0,0
476,-433,0,0,0,0,0,0,0,0,0,-1,1700,1457,0,0
483,-433,0,0,0,0,0,0,0,0,0,-1,1707,1457,0,0
490,-433,0,0,0,0,0,0,0,0,0,-1,1714,1457,0,0
497,-433,0,0,0,0,0,0,0,0,0,-1,1721,1457,0,0
504,-433,19.9058,3.03662,0,0,0,0,0,0,0,-1,1728,1457,19.9058,-3.03656
511,-433,19.0145,3.07837,0,0,0,0,0,0,0,-1,1735,1457,19.0146,-3.07834
518,-433,18.071,3.06433,0,0,0,0,0,0,0,-1,1742,1457,18.071,-3.06432
525,-433,17.2048,3.37085,0,0,0,0,0,0,0,-1,1749,1457,17.2049,-3.37083
532,-433,16.5637,3.36646,0,0,0,0,0,0,0,-1,1756,1457,16.5637,-3.36643
539,-433,15.9193,3.30396,0,0,0,0,0,0,0,-1,1763,1457,15.9193,-3.30394
546,-433,23.1903,4.81775,0,0,0,0,0,0,0,-1,1770,1457,23.1903,-4.81775
553,-433,13.9674,11.5781,0,0,0,0,0,0,0,-1,1777,1457,13.9674,-11.5781
560,-433,13.9855,11.7341,0,0,0,0,0,0,0,-1,1784,1457,13.9855,-11.7341
567,-433,13.9264,11.3364,0,0,0,0,0,0,0,-1,1791,1457,13.9263,-11.3364
574,-433,15.5305,12.3673,0,0,0,0,0,0,0,-1,1798,1457,15.5305,-12.3673
581,-433,16.6405,12.1898,0,0,0,0,0,0,0,-1,1805,1457,16.6405,-12.1898
588,-433,26.4386,19.7478,0,0,0,0,0,0,0,-1,1812,1457,26.4386,-19.7478
595,-433,87.7529,94.8977,0,0,0,0,0,0,0,-1,1819,1457,87.7529,-94.8977
602,-433,143.197,91.9198,0,0,0,0,0,0,0,-1,1826,1457,143.197,-91.9198
609,-433,141.479,88.7516,-0.0360858,0.00854576,0.0479381,0.0391077,-0.0666478,1.00324,0.0617442,0.0475045,1833,1457,141.479,-88.7515
616,-433,139.699,86.261,-0.0255661,0.0132834,0.0442291,0.0421653,-0.054448,0.99231,0.0559298,0.0381609,1840,1457,139.699,-86.2609
623,-433,138.66,83.1556,-0.015911,0.0183417,0.0410375,0.0456832,-0.0432525,0.983077,0.0513535,0.0225409,1847,1457,138.66,-83.1556
630,-433,137.814,79.8802,-0.00736447,0.0236918,0.0383972,0.0495818,-0.0332545,0.977549,0.0481343,0.0209398,1854,1457,137.814,-79.8802
637,-433,137.062,76.6316,5.00459e-05,0.0292921,0.0363272,0.0538303,-0.0244881,0.97672,0.0462629,0.0243594,1861,1457,137.062,-76.6316
644,-433,136.315,73.379,0.00634864,0.0350984,0.0347897,0.0583661,-0.0169191,0.981312,0.0456087,0.0285215,1868,1457,136.315,-73.3791
651,-433,135.595,70.306,0.0117734,0.041091,0.0336658,0.063151,-0.0102866,0.99073,0.0459152,0.0226946,1875,1457,135.595,-70.306
658,-433,134.872,67.0026,0,0,0,0,0,0,0,-1,1882,1457,134.872,-67.0025
665,-433,36.4893,18.9447,0,0,0,0,0,0,0,-1,1889,1457,36.4893,-18.9447
672,-433,18.115,8.7207,0,0,0,0,0,0,0,-1,1896,1457,18.115,-8.72074
679,-433,17.2969,9.6355,0,0,0,0,0,0,0,-1,1903,1457,17.2968,-9.63548
686,-433,13.6356,8.61694,0,0,0,0,0,0,0,-1,1910,1457,13.6356,-8.61694
693,-433,13.4081,8.39624,0,0,0,0,0,0,0,-1,1917,1457,13.4081,-8.39624
700,-433,7.16809,-1.5166,0,0,0,0,0,0,0,-1,1924,1457,7.16806,1.51656
707,-433,8.68359,-2.82202,0,0,0,0,0,0,0,-1,1931,1457,8.68359,2.82197
714,-433,0,0,0,0,0,0,0,0,0,-1,1938,1457,0,0
721,-433,0,0,0,0,0,0,0,0,0,-1,1945,1457,0,0
728,-433,0,0,0,0,0,0,0,0,0,-1,1952,1457,0,0
735,-433,0,0,0,0,0,0,0,0,0,-1,1959,1457,0,0
742,-433,0,0,0,0,0,0,0,0,0,-1,1966,1457,0,0
749,-433,0,0,0,0,0,0,0,0,0,-1,1973,1457,0,0
756,-433,0,0,0,0,0,0,0,0,0,-1,1980,1457,0,0
763,-433,0,0,0,0,0,0,0,0,0,-1,1987,1457,0,0
770,-433,0,0,0,0,0,0,0,0,0,-1,1994,1457,0,0
777,-433,0,0,0,0,0,0,0,0,0,-1,2001,1457,0,0
784,-433,0,0,0,0,0,0,0,0,0,-1,2008,1457,0,0
791,-433,0,0,0,0,0,0,0,0,0,-1,2015,1457,0,0
798,-433,0,0,0,0,0,0,0,0,0,-1,2022,1457,0,0
805,-433,0,0,0,0,0,0,0,0,0,-1,2029,1457,0,0
812,-433,0,0,0,0,0,0,0,0,0,-1,2036,1457,0,0
-700,-440,0,0,0,0,0,0,0,0,0,-1,524,1464,0,0
-693,-440,0,0,0,0,0,0,0,0,0,-1,531,1464,0,0
-686,-440,0,0,0,0,0,0,0,0,0,-1,538,1464,0,0
-679,-440,0,0,0,0,0,0,0,0,0,-1,545,1464,0,0
-672,-440,0,0,0,0,0,0,0,0,0,-1,552,1464,0,0
-665,-440,0,0,0,0,0,0,0,0,0,-1,559,1464,0,0
-658,-440,0,0,0,0,0,0,0,0,0,-1,566,1464,0,0
-651,-440,0,0,0,0,0,0,0,0,0,-1,573,1464,0,0
-644,-440,0,0,0,0,0,0,0,0,0,-1,580,1464,0,0
-637,-440,0,0,0,0,0,0,0,0,0,-1,587,1464,0,0
-630,-440,0,0,0,0,0,0,0,0,0,-1,594,1464,0,0
-623,-440,0,0,0,0,0,0,0,0,0,-1,601,1464,0,0
-616,-440,0,0,0,0,0,0,0,0,0,-1,608,1464,0,0
-609,-440,0,0,0,0,0,0,0,0,0,-1,615,1464,0,0
-602,-440,0,0,0,0,0,0,0,0,0,-1,622,1464,0,0
-595,-440,0,0,0,0,0,0,0,0,0,-1,629,1464,0,0
-588,-440,0,0,0,0,0,0,0,0,0,-1,636,1464,0,0
-581,-440,-8.97278,0.254517,0,0,0,0,0,0,0,-1,643,1464,-8.97276,-0.254526
-574,-440,-7.00818,-0.918579,0,0,0,0,0,0,0,-1,650,1464,-7.00817,0.918538
-567,-440,-6.12152,-0.0766602,0,0,0,0,0,0,0,-1,657,1464,-6.12151,0.0767097
-560,-440,-5.46747,0.82251,0,0,0,0,0,0,0,-1,664,1464,-5.46748,-0.822551
-553,-440,-6.84729,0.0831299,0,0,0,0,0,0,0,-1,671,1464,-6.84732,-0.083136
-546,-440,-5.63446,-0.153198,0,0,0,0,0,0,0,-1,678,1464,-5.63447,0.153147
-539,-440,-6.80017,8.58252,0,0,0,0,0,0,0,-1,685,1464,-6.80015,-8.58257
-532,-440,-9.69647,11.3262,0,0,0,0,0,0,0,-1,692,1464,-9.69649,-11.3262
-525,-440,-34.9579,37.0464,0,0,0,0,0,0,0,-1,699,1464,-34.9579,-37.0464
-518,-440,-123.587,66.7803,0,0,0,0,0,0,0,-1,706,1464,-123.587,-66.7803
-511,-440,-124.385,70.2145,0.0146434,0.0498956,-0.0460607,0.0815875,-0.0170485,-0.968137,0.0608755,0.0242049,713,1464,-124.385,-70.2144
-504,-440,-125.153,73.4883,0.0127498,0.0471538,-0.0433227,0.0765647,-0.0166612,-0.974386,0.0574085,0.0234998,720,1464,-125.153,-73.4883
-497,-440,-125.845,76.6458,0.0103107,0.0449966,-0.0403791,0.0715997,-0.0162923,-0.988237,0.0539897,0.0262051,727,1464,-125.845,-76.6457
-490,-440,-126.697,79.9392,0.00726273,0.0434635,-0.0373234,0.0668439,-0.0161177,-1.01117,0.0507948,0.0266106,734,1464,-126.697,-79.9392
-483,-440,-127.468,83.3324,0.00351839,0.0425209,-0.0341337,0.0623313,-0.0162921,-1.04493,0.0479172,0.0294072,741,1464,-127.468,-83.3324
-476,-440,-128.296,86.6777,-0.00101322,0.0422273,-0.0308306,0.0582629,-0.0170488,-1.09118,0.0455999,0.026482,748,1464,-128.296,-86.6777
-469,-440,-129.663,90.2469,-0.00622308,0.0426525,-0.0274919,0.054998,-0.0185686,-1.14873,0.0441754,0.0467353,755,1464,-129.663,-90.247
-462,-440,-131.337,93.83,0,0,0,0,0,0,0,-1,762,1464,-131.337,-93.8299
-455,-440,-70.0716,85.2322,0,0,0,0,0,0,0,-1,769,1464,-70.0716,-85.2322
-448,-440,-12.8837,23.5623,0,0,0,0,0,0,0,-1,776,1464,-12.8837,-23.5623
-441,-440,-7.28583,14.7465,0,0,0,0,0,0,0,-1,783,1464,-7.28584,-14.7464
-434,-440,-8.33636,14.5024,0,0,0,0,0,0,0,-1,790,1464,-8.33638,-14.5025
-427,-440,-8.28094,14.2512,0,0,0,0,0,0,0,-1,797,1464,-8.28094,-14.2512
-420,-440,-6.86603,8.09216,0,0,0,0,0,0,0,-1,804,1464,-6.86602,-8.09222
-413,-440,-3.46796,5.72278,0,0,0,0,0,0,0,-1,811,1464,-3.46797,-5.72276
-406,-440,-5.2887,5.20264,0,0,0,0,0,0,0,-1,818,1464,-5.2887,-5.20261
-399,-440,-12.7318,3.94421,0,0,0,0,0,0,0,-1,825,1464,-12.7318,-3.94419
-392,-440,-13.5565,2.51855,0,0,0,0,0,0,0,-1,832,1464,-13.5565,-2.51861
-385,-440,-14.6741,1.39795,0,0,0,0,0,0,0,-1,839,1464,-14.6741,-1.39801
-378,-440,-15.8063,0.293457,0,0,0,0,0,0,0,-1,846,1464,-15.8063,-0.293412
-371,-440,0,0,0,0,0,0,0,0,0,-1,853,1464,0,0
-364,-440,0,0,0,0,0,0,0,0,0,-1,860,1464,0,0
-357,-440,0,0,0,0,0,0,0,0,0,-1,867,1464,0,0
-350,-440,0,0,0,0,0,0,0,0,0,-1,874,1464,0,0
-343,-440,0,0,0,0,0,0,0,0,0,-1,881,1464,0,0
-336,-440,0,0,0,0,0,0,0,0,0,-1,888,1464,0,0
-329,-440,0,0,0,0,0,0,0,0,0,-1,895,1464,0,0
-322,-440,0,0,0,0,0,0,0,0,0,-1,902,1464,0,0
-315,-440,0,0,0,0,0,0,0,0,0,-1,909,1464,0,0
-308,-440,0,0,0,0,0,0,0,0,0,-1,916,1464,0,0
-301,-440,0,0,0,0,0,0,0,0,0,-1,923,1464,0,0
-294,-440,0,0,0,0,0,0,0,0,0,-1,930,1464,0,0
-287,-440,0,0,0,0,0,0,0,0,0,-1,937,1464,0,0
-280,-440,0,0,0,0,0,0,0,0,0,-1,944,1464,0,0
-273,-440,0,0,0,0,0,0,0,0,0,-1,951,1464,0,0
-266,-440,0,0,0,0,0,0,0,0,0,-1,958,1464,0,0
-259,-440,0,0,0,0,0,0,0,0,0,-1,965,1464,0,0
-252,-440,0,0,0,0,0,0,0,0,0,-1,972,1464,0,0
-245,-440,0,0,0,0,0,0,0,0,0,-1,979,1464,0,0
-238,-440,0,0,0,0,0,0,0,0,0,-1,986,1464,0,0
-231,-440,0,0,0,0,0,0,0,0,0,-1,993,1464,0,0
-224,-440,0,0,0,0,0,0,0,0,0,-1,1000,1464,0,0
-217,-440,0,0,0,0,0,0,0,0,0,-1,1007,1464,0,0
-210,-440,0,0,0,0,0,0,0,0,0,-1,1014,1464,0,0
-203,-440,0,0,0,0,0,0,0,0,0,-1,1021,1464,0,0
-196,-440,0,0,0,0,0,0,0,0,0,-1,1028,1464,0,0
-189,-440,0,0,0,0,0,0,0,0,0,-1,1035,1464,0,0
-182,-440,0,0,0,0,0,0,0,0,0,-1,1042,1464,0,0
-175,-440,0,0,0,0,0,0,0,0,0,-1,1049,1464,0,0
-168,-440,0,0,0,0,0,0,0,0,0,-1,1056,1464,0,0
-161,-440,0,0,0,0,0,0,0,0,0,-1,1063,1464,0,0
-154,-440,0,0,0,0,0,0,0,0,0,-1,1070,1464,0,0
-147,-440,0,0,0,0,0,0,0,0,0,-1,1077,1464,0,0
-140,-440,0,0,0,0,0,0,0,0,0,-1,1084,1464,0,0
-133,-440,0,0,0,0,0,0,0,0,0,-1,1091,1464,0,0
-126,-440,0,0,0,0,0,0,0,0,0,-1,1098,1464,0,0
-119,-440,0,0,0,0,0,0,0,0,0,-1,1105,1464,0,0
-112,-440,0,0,0,0,0,0,0,0,0,-1,1112,1464,0,0
-105,-440,0,0,0,0,0,0,0,0,0,-1,1119,1464,0,0
-98,-440,0,0,0,0,0,0,0,0,0,-1,1126,1464,0,0
-91,-440,0,0,0,0,0,0,0,0,0,-1,1133,1464,0,0
-84,-440,0,0,0,0,0,0,0,0,0,-1,1140,1464,0,0
-77,-440,0,0,0,0,0,0,0,0,0,-1,1147,1464,0,0
-70,-440,0,0,0,0,0,0,0,0,0,-1,1154,1464,0,0
-63,-440,0,0,0,0,0,0,0,0,0,-1,1161,1464,0,0
-56,-440,0,0,0,0,0,0,0,0,0,-1,1168,1464,0,0
-49,-440,0,0,0,0,0,0,0,0,0,-1,1175,1464,0,0
-42,-440,0,0,0,0,0,0,0,0,0,-1,1182,1464,0,0
-35,-440,0,0,0,0,0,0,0,0,0,-1,1189,1464,0,0
-28,-440,0,0,0,0,0,0,0,0,0,-1,1196,1464,0,0
-21,-440,0,0,0,0,0,0,0,0,0,-1,1203,1464,0,0
-14,-440,0,0,0,0,0,0,0,0,0,-1,1210,1464,0,0
-7,-440,0,0,0,0,0,0,0,0,0,-1,1217,1464,0,0
0,-440,0,0,0,0,0,0,0,0,0,-1,1224,1464,0,0
7,-440,0,0,0,0,0,0,0,0,0,-1,1231,1464,0,0
14,-440,0,0,0,0,0,0,0,0,0,-1,1238,1464,0,0
21,-440,0,0,0,0,0,0,0,0,0,-1,1245,1464,0,0
28,-440,0,0,0,0,0,0,0,0,0,-1,1252,1464,0,0
35,-440,0,0,0,0,0,0,0,0,0,-1,1259,1464,0,0
42,-440,0,0,0,0,0,0,0,0,0,-1,1266,1464,0,0
49,-440,0,0,0,0,0,0,0,0,0,-1,1273,1464,0,0
56,-440,0,0,0,0,0,0,0,0,0,-1,1280,1464,0,0
63,-440,0,0,0,0,0,0,0,0,0,-1,1287,1464,0,0
70,-440,0,0,0,0,0,0,0,0,0,-1,1294,1464,0,0
77,-440,0,0,0,0,0,0,0,0,0,-1,1301,1464,0,0
84,-440,0,0,0,0,0,0,0,0,0,-1,1308,1464,0,0
91,-440,0,0,0,0,0,0,0,0,0,-1,1315,1464,0,0
98,-440,0,0,0,0,0,0,0,0,0,-1,1322,1464,0,0
105,-440,0,0,0,0,0,0,0,0,0,-1,1329,1464,0,0
112,-440,0,0,0,0,0,0,0,0,0,-1,1336,1464,0,0
119,-440,0,0,0,0,0,0,0,0,0,-1,1343,1464,0,0
126,-440,0,0,0,0,0,0,0,0,0,-1,1350,1464,0,0
133,-440,0,0,0,0,0,0,0,0,0,-1,1357,1464,0,0
140,-440,0,0,0,0,0,0,0,0,0,-1,1364,1464,0,0
147,-440,0,0,0,0,0,0,0,0,0,-1,1371,1464,0,0
154,-440,0,0,0,0,0,0,0,0,0,-1,1378,1464,0,0
161,-440,0,0,0,0,0,0,0,0,0,-1,1385,1464,0,0
168,-440,0,0,0,0,0,0,0,0,0,-1,1392,1464,0,0
175,-440,0,0,0,0,0,0,0,0,0,-1,1399,1464,0,0
182,-440,0,0,0,0,0,0,0,0,0,-1,1406,1464,0,0
189,-440,0,0,0,0,0,0,0,0,0,-1,1413,1464,0,0
196,-440,0,0,0,0,0,0,0,0,0,-1,1420,1464,0,0
203,-440,0,0,0,0,0,0,0,0,0,-1,1427,1464,0,0
210,-440,0,0,0,0,0,0,0,0,0,-1,1434,1464,0,0
217,-440,0,0,0,0,0,0,0,0,0,-1,1441,1464,0,0
224,-440,0,0,0,0,0,0,0,0,0,-1,1448,1464,0,0
231,-440,0,0,0,0,0,0,0,0,0,-1,1455,1464,0,0
238,-440,0,0,0,0,0,0,0,0,0,-1,1462,1464,0,0
245,-440,0,0,0,0,0,0,0,0,0,-1,1469,1464,0,0
252,-440,0,0,0,0,0,0,0,0,0,-1,1476,1464,0,0
259,-440,0,0,0,0,0,0,0,0,0,-1,1483,1464,0,0
266,-440,0,0,0,0,0,0,0,0,0,-1,1490,1464,0,0
273,-440,0,0,0,0,0,0,0,0,0,-1,1497,1464,0,0
280,-440,0,0,0,0,0,0,0,0,0,-1,1504,1464,0,0
287,-440,0,0,0,0,0,0,0,0,0,-1,1511,1464,0,0
294,-440,0,0,0,0,0,0,0,0,0,-1,1518,1464,0,0
301,-440,0,0,0,0,0,0,0,0,0,-1,1525,1464,0,0
308,-440,0,0,0,0,0,0,0,0,0,-1,1532,1464,0,0
315,-440,0,0,0,0,0,0,0,0,0,-1,1539,1464,0,0
322,-440,0,0,0,0,0,0,0,0,0,-1,1546,1464,0,0
329,-440,0,0,0,0,0,0,0,0,0,-1,1553,1464,0,0
336,-440,0,0,0,0,0,0,0,0,0,-1,1560,1464,0,0
343,-440,0,0,0,0,0,0,0,0,0,-1,1567,1464,0,0
350,-440,0,0,0,0,0,0,0,0,0,-1,1574,1464,0,0
357,-440,0,0,0,0,0,0,0,0,0,-1,1581,1464,0,0
364,-440,0,0,0,0,0,0,0,0,0,-1,1588,1464,0,0
371,-440,0,0,0,0,0,0,0,0,0,-1,1595,1464,0,0
378,-440,0,0,0,0,0,0,0,0,0,-1,1602,1464,0,0
385,-440,0,0,0,0,0,0,0,0,0,-1,1609,1464,0,0
392,-440,0,0,0,0,0,0,0,0,0,-1,1616,1464,0,0
399,-440,0,0,0,0,0,0,0,0,0,-1,1623,1464,0,0
406,-440,0,0,0,0,0,0,0,0,0,-1,1630,1464,0,0
413,-440,0,0,0,0,0,0,0,0,0,-1,1637,1464,0,0
420,-440,0,0,0,0,0,0,0,0,0,-1,1644,1464,0,0
427,-440,0,0,0,0,0,0,0,0,0,-1,1651,1464,0,0
434,-440,0,0,0,0,0,0,0,0,0,-1,1658,1464,0,0
441,-440,0,0,0,0,0,0,0,0,0,-1,1665,1464,0,0
448,-440,0,0,0,0,0,0,0,0,0,-1,1672,1464,0,0
455,-440,0,0,0,0,0,0,0,0,0,-1,1679,1464,0,0
462,-440,0,0,0,0,0,0,0,0,0,-1,1686,1464,0,0
469,-440,0,0,0,0,0,0,0,0,0,-1,1693,1464,0,0
476,-440,0,0,0,0,0,0,0,0,0,-1,1700,1464,0,0
483,-440,0,0,0,0,0,0,0,0,0,-1,1707,1464,0,0
490,-440,0,0,0,0,0,0,0,0,0,-1,1714,1464,0,0
497,-440,16.965,-0.528442,0,0,0,0,0,0,0,-1,1721,1464,16.965,0.528492
504,-440,15.8052,0.670166,0,0,0,0,0,0,0,-1,1728,1464,15.8052,-0.670145
511,-440,17.5754,2.77832,0,0,0,0,0,0,0,-1,1735,1464,17.5754,-2.77826
518,-440,16.9017,3.07861,0,0,0,0,0,0,0,-1,1742,1464,16.9018,-3.07859
525,-440,18.4495,12.0867,0,0,0,0,0,0,0,-1,1749,1464,18.4495,-12.0867
532,-440,15.4319,3.64392,0,0,0,0,0,0,0,-1,1756,1464,15.4318,-3.64391
539,-440,14.8214,3.41321,0,0,0,0,0,0,0,-1,1763,1464,14.8214,-3.4132
546,-440,14.8651,10.7683,0,0,0,0,0,0,0,-1,1770,1464,14.8651,-10.7683
553,-440,15.1213,11.4121,0,0,0,0,0,0,0,-1,1777,1464,15.1213,-11.4121
560,-440,17.4325,12.5394,0,0,0,0,0,0,0,-1,1784,1464,17.4325,-12.5394
567,-440,16.9025,12.4249,0,0,0,0,0,0,0,-1,1791,1464,16.9025,-12.425
574,-440,19.2841,14.8679,0,0,0,0,0,0,0,-1,1798,1464,19.2841,-14.868
581,-440,26.4432,21.3477,0,0,0,0,0,0,0,-1,1805,1464,26.4432,-21.3476
588,-440,85.571,98.6345,0,0,0,0,0,0,0,-1,1812,1464,85.5711,-98.6345
595,-440,139.724,97.2062,0,0,0,0,0,0,0,-1,1819,1464,139.724,-97.2061
602,-440,138.403,93.6776,-0.0364702,0.00925958,0.0491483,0.0406014,-0.067812,1.00312,0.0632462,0.0453876,1826,1464,138.403,-93.6777
609,-440,137.032,90.4489,-0.0271396,0.0132125,0.0460579,0.0433197,-0.0572468,0.991838,0.0582474,0.0375648,1833,1464,137.032,-90.4489
616,-440,135.676,87.4042,-0.0181252,0.0177117,0.0431348,0.0465017,-0.0469152,0.982256,0.0539344,0.0371898,1840,1464,135.676,-87.4041
623,-440,134.819,84.0195,-0.00965135,0.0225542,0.0405414,0.0500737,-0.0371708,0.974441,0.0505539,0.0232083,1847,1464,134.819,-84.0196
630,-440,134.009,80.717,-0.00182525,0.0277234,0.0382832,0.0539843,-0.0280861,0.969554,0.0481633,0.0165446,1854,1464,134.009,-80.717
637,-440,133.279,77.4407,0.00517226,0.0331727,0.0364315,0.0582014,-0.0198564,0.968843,0.0468442,0.0256322,1861,1464,133.279,-77.4406
644,-440,132.585,74.1742,0.011317,0.0389023,0.0349361,0.0626698,-0.0124506,0.973405,0.0464892,0.0319425,1868,1464,132.585,-74.1742
651,-440,131.888,70.9005,0,0,0,0,0,0,0,-1,1875,1464,131.888,-70.9005
658,-440,82.9196,69.3716,0,0,0,0,0,0,0,-1,1882,1464,82.9195,-69.3716
665,-440,24.2067,12.5813,0,0,0,0,0,0,0,-1,1889,1464,24.2067,-12.5813
672,-440,18.9385,9.6394,0,0,0,0,0,0,0,-1,1896,1464,18.9384,-9.63939
679,-440,16.9508,10.2336,0,0,0,0,0,0,0,-1,1903,1464,16.9508,-10.2337
686,-440,15.2556,8.44177,0,0,0,0,0,0,0,-1,1910,1464,15.2556,-8.44177
693,-440,9.88635,2.89795,0,0,0,0,0,0,0,-1,1917,1464,9.88638,-2.89798
700,-440,7.07825,-2.62061,0,0,0,0,0,0,0,-1,1924,1464,7.07829,2.62057
707,-440,0,0,0,0,0,0,0,0,0,-1,1931,1464,0,0
714,-440,0,0,0,0,0,0,0,0,0,-1,1938,1464,0,0
721,-440,0,0,0,0,0,0,0,0,0,-1,1945,1464,0,0
728,-440,0,0,0,0,0,0,0,0,0,-1,1952,1464,0,0
735,-440,0,0,0,0,0,0,0,0,0,-1,1959,1464,0,0
742,-440,0,0,0,0,0,0,0,0,0,-1,1966,1464,0,0
749,-440,0,0,0,0,0,0,0,0,0,-1,1973,1464,0,0
756,-440,0,0,0,0,0,0,0,0,0,-1,1980,1464,0,0
763,-440,0,0,0,0,0,0,0,0,0,-1,1987,1464,0,0
770,-440,0,0,0,0,0,0,0,0,0,-1,1994,1464,0,0
777,-440,0,0,0,0,0,0,0,0,0,-1,2001,1464,0,0
784,-440,0,0,0,0,0,0,0,0,0,-1,2008,1464,0,0
791,-440,0,0,0,0,0,0,0,0,0,-1,2015,1464,0,0
798,-440,0,0,0,0,0,0,0,0,0,-1,2022,1464,0,0
805,-440,0,0,0,0,0,0,0,0,0,-1,2029,1464,0,0
812,-440,0,0,0,0,0,0,0,0,0,-1,2036,1464,0,0
-700,-447,0,0,0,0,0,0,0,0,0,-1,524,1471,0,0
-693,-447,0,0,0,0,0,0,0,0,0,-1,531,1471,0,0
-686,-447,0,0,0,0,0,0,0,0,0,-1,538,1471,0,0
-679,-447,0,0,0,0,0,0,0,0,0,-1,545,1471,0,0
-672,-447,0,0,0,0,0,0,0,0,0,-1,552,1471,0,0
-665,-447,0,0,0,0,0,0,0,0,0,-1,559,1471,0,0
-658,-447,0,0,0,0,0,0,0,0,0,-1,566,1471,0,0
-651,-447,0,0,0,0,0,0,0,0,0,-1,573,1471,0,0
-644,-447,0,0,0,0,0,0,0,0,0,-1,580,1471,0,0
-637,-447,0,0,0,0,0,0,0,0,0,-1,587,1471,0,0
-630,-447,0,0,0,0,0,0,0,0,0,-1,594,1471,0,0
-623,-447,0,0,0,0,0,0,0,0,0,-1,601,1471,0,0
-616,-447,0,0,0,0,0,0,0,0,0,-1,608,1471,0,0
-609,-447,0,0,0,0,0,0,0,0,0,-1,615,1471,0,0
-602,-447,0,0,0,0,0,0,0,0,0,-1,622,1471,0,0
-595,-447,0,0,0,0,0,0,0,0,0,-1,629,1471,0,0
-588,-447,0,0,0,0,0,0,0,0,0,-1,636,1471,0,0
-581,-447,-7.06482,-1.50476,0,0,0,0,0,0,0,-1,643,1471,-7.0648,1.50474
-574,-447,-6.88092,-0.00585938,0,0,0,0,0,0,0,-1,650,1471,-6.88095,0.00589852
-567,-447,-6.8205,-1.32178,0,0,0,0,0,0,0,-1,657,1471,-6.82047,1.32172
-560,-447,-8.85748,2.80774,0,0,0,0,0,0,0,-1,664,1471,-8.85748,-2.80775
-553,-447,-7.60486,3.26794,0,0,0,0,0,0,0,-1,671,1471,-7.60487,-3.26799
-546,-447,-3.94501,1.8656,0,0,0,0,0,0,0,-1,678,1471,-3.945,-1.86554
-539,-447,-5.35492,4.50024,0,0,0,0,0,0,0,-1,685,1471,-5.35492,-4.50018
-532,-447,-6.12781,8.81091,0,0,0,0,0,0,0,-1,692,1471,-6.12781,-8.81094
-525,-447,-9.44501,12.098,0,0,0,0,0,0,0,-1,699,1471,-9.44502,-12.098
-518,-447,-53.4653,56.6064,0,0,0,0,0,0,0,-1,706,1471,-53.4653,-56.6064
-511,-447,-120.677,71.0787,0,0,0,0,0,0,0,-1,713,1471,-120.677,-71.0787
-504,-447,-121.321,74.2627,0.0159792,0.0487235,-0.0463927,0.0815482,-0.0168455,-0.955028,0.060764,0.0253759,720,1471,-121.321,-74.2626
-497,-447,-122.031,77.4973,0.0135754,0.04619,-0.0437102,0.0765357,-0.0167704,-0.96394,0.0574359,0.0299687,727,1471,-122.031,-77.4973
-490,-447,-122.893,80.7738,0.010643,0.0441086,-0.0409364,0.0715999,-0.0168484,-0.979412,0.054229,0.030724,734,1471,-122.893,-80.7738
-483,-447,-123.655,84.1652,0.00707133,0.0424238,-0.0381224,0.0667686,-0.0172735,-1.00248,0.05125,0.0330886,741,1471,-123.655,-84.1652
-476,-447,-124.354,87.562,0.00279745,0.0411303,-0.0352027,0.0620461,-0.0181184,-1.03469,0.048544,0.027693,748,1471,-124.354,-87.562
-469,-447,-125.394,90.8777,-0.00209093,0.0402339,-0.0325511,0.057897,-0.019754,-1.07363,0.0465999,0.0342651,755,1471,-125.394,-90.8776
-462,-447,-126.611,94.2494,0,0,0,0,0,0,0,-1,762,1471,-126.611,-94.2495
-455,-447,-76.1613,92.892,0,0,0,0,0,0,0,-1,769,1471,-76.1613,-92.892
-448,-447,-64.4352,85.1656,0,0,0,0,0,0,0,-1,776,1471,-64.4352,-85.1656
-441,-447,-8.68506,19.0931,0,0,0,0,0,0,0,-1,783,1471,-8.68504,-19.0932
-434,-447,-7.43402,15.6273,0,0,0,0,0,0,0,-1,790,1471,-7.43404,-15.6274
-427,-447,-7.21832,14.691,0,0,0,0,0,0,0,-1,797,1471,-7.21834,-14.6911
-420,-447,-8.0545,12.8055,0,0,0,0,0,0,0,-1,804,1471,-8.05452,-12.8055
-413,-447,-4.27393,6.59705,0,0,0,0,0,0,0,-1,811,1471,-4.27392,-6.59707
-406,-447,-1.04279,6.18591,0,0,0,0,0,0,0,-1,818,1471,-1.04276,-6.18586
-399,-447,0.0134888,0.687622,0,0,0,0,0,0,0,-1,825,1471,0.0134841,-0.68767
-392,-447,-14.0646,3.76147,0,0,0,0,0,0,0,-1,832,1471,-14.0646,-3.7615
-385,-447,-15.1695,2.61865,0,0,0,0,0,0,0,-1,839,1471,-15.1695,-2.61871
-378,-447,-15.9424,1.49316,0,0,0,0,0,0,0,-1,846,1471,-15.9424,-1.49313
-371,-447,-17.3655,0.73291,0,0,0,0,0,0,0,-1,853,1471,-17.3655,-0.732946
-364,-447,0,0,0,0,0,0,0,0,0,-1,860,1471,0,0
-357,-447,0,0,0,0,0,0,0,0,0,-1,867,1471,0,0
-350,-447,0,0,0,0,0,0,0,0,0,-1,874,1471,0,0
-343,-447,0,0,0,0,0,0,0,0,0,-1,881,1471,0,0
-336,-447,0,0,0,0,0,0,0,0,0,-1,888,1471,0,0
-329,-447,0,0,0,0,0,0,0,0,0,-1,895,1471,0,0
-322,-447,0,0,0,0,0,0,0,0,0,-1,902,1471,0,0
-315,-447,0,0,0,0,0,0,0,0,0,-1,909,1471,0,0
-308,-447,0,0,0,0,0,0,0,0,0,-1,916,1471,0,0
-301,-447,0,0,0,0,0,0,0,0,0,-1,923,1471,0,0
-294,-447,0,0,0,0,0,0,0,0,0,-1,930,1471,0,0
-287,-447,0,0,0,0,0,0,0,0,0,-1,937,1471,0,0
-280,-447,0,0,0,0,0,0,0,0,0,-1,944,1471,0,0
-273,-447,0,0,0,0,0,0,0,0,0,-1,951,1471,0,0
-266,-447,0,0,0,0,0,0,0,0,0,-1,958,1471,0,0
-259,-447,0,0,0,0,0,0,0,0,0,-1,965,1471,0,0
-252,-447,0,0,0,0,0,0,0,0,0,-1,972,1471,0,0
-245,-447,0,0,0,0,0,0,0,0,0,-1,979,1471,0,0
-238,-447,0,0,0,0,0,0,0,0,0,-1,986,1471,0,0
-231,-447,0,0,0,0,0,0,0,0,0,-1,993,1471,0,0
-224,-447,0,0,0,0,0,0,0,0,0,-1,1000,1471,0,0
-217,-447,0,0,0,0,0,0,0,0,0,-1,1007,1471,0,0
-210,-447,0,0,0,0,0,0,0,0,0,-1,1014,1471,0,0
-203,-447,0,0,0,0,0,0,0,0,0,-1,1021,1471,0,0
-196,-447,0,0,0,0,0,0,0,0,0,-1,1028,1471,0,0
-189,-447,0,0,0,0,0,0,0,0,0,-1,1035,1471,0,0
-182,-447,0,0,0,0,0,0,0,0,0,-1,1042,1471,0,0
-175,-447,0,0,0,0,0,0,0,0,0,-1,1049,1471,0,0
-168,-447,0,0,0,0,0,0,0,0,0,-1,1056,1471,0,0
-161,-447,0,0,0,0,0,0,0,0,0,-1,1063,1471,0,0
-154,-447,0,0,0,0,0,0,0,0,0,-1,1070,1471,0,0
-147,-447,0,0,0,0,0,0,0,0,0,-1,1077,1471,0,0
-140,-447,0,0,0,0,0,0,0,0,0,-1,1084,1471,0,0
-133,-447,0,0,0,0,0,0,0,0,0,-1,1091,1471,0,0
-126,-447,0,0,0,0,0,0,0,0,0,-1,1098,1471,0,0
-119,-447,0,0,0,0,0,0,0,0,0,-1,1105,1471,0,0
-112,-447,0,0,0,0,0,0,0,0,0,-1,1112,1471,0,0
-105,-447,0,0,0,0,0,0,0,0,0,-1,1119,1471,0,0
-98,-447,0,0,0,0,0,0,0,0,0,-1,1126,1471,0,0
-91,-447,0,0,0,0,0,0,0,0,0,-1,1133,1471,0,0
-84,-447,0,0,0,0,0,0,0,0,0,-1,1140,1471,0,0
-77,-447,0,0,0,0,0,0,0,0,0,-1,1147,1471,0,0
-70,-447,0,0,0,0,0,0,0,0,0,-1,1154,1471,0,0
-63,-447,0,0,0,0,0,0,0,0,0,-1,1161,1471,0,0
-56,-447,0,0,0,0,0,0,0,0,0,-1,1168,1471,0,0
-49,-447,0,0,0,0,0,0,0,0,0,-1,1175,1471,0,0
-42,-447,0,0,0,0,0,0,0,0,0,-1,1182,1471,0,0
-35,-447,0,0,0,0,0,0,0,0,0,-1,1189,1471,0,0
-28,-447,0,0,0,0,0,0,0,0,0,-1,1196,1471,0,0
-21,-447,0,0,0,0,0,0,0,0,0,-1,1203,1471,0,0
-14,-447,0,0,0,0,0,0,0,0,0,-1,1210,1471,0,0
-7,-447,0,0,0,0,0,0,0,0,0,-1,1217,1471,0,0
0,-447,0,0,0,0,0,0,0,0,0,-1,1224,1471,0,0
7,-447,0,0,0,0,0,0,0,0,0,-1,1231,1471,0,0
14,-447,0,0,0,0,0,0,0,0,0,-1,1238,1471,0,0
21,-447,0,0,0,0,0,0,0,0,0,-1,1245,1471,0,0
28,-447,0,0,0,0,0,0,0,0,0,-1,1252,1471,0,0
35,-447,0,0,0,0,0,0,0,0,0,-1,1259,1471,0,0
42,-447,0,0,0,0,0,0,0,0,0,-1,1266,1471,0,0
49,-447,0,0,0,0,0,0,0,0,0,-1,1273,1471,0,0
56,-447,0,0,0,0,0,0,0,0,0,-1,1280,1471,0,0
63,-447,0,0,0,0,0,0,0,0,0,-1,1287,1471,0,0
70,-447,0,0,0,0,0,0,0,0,0,-1,1294,1471,0,0
77,-447,0,0,0,0,0,0,0,0,0,-1,1301,1471,0,0
84,-447,0,0,0,0,0,0,0,0,0,-1,1308,1471,0,0
91,-447,0,0,0,0,0,0,0,0,0,-1,1315,1471,0,0
98,-447,0,0,0,0,0,0,0,0,0,-1,1322,1471,0,0
105,-447,0,0,0,0,0,0,0,0,0,-1,1329,1471,0,0
112,-447,0,0,0,0,0,0,0,0,0,-1,1336,1471,0,0
119,-447,0,0,0,0,0,0,0,0,0,-1,1343,1471,0,0
126,-447,0,0,0,0,0,0,0,0,0,-1,1350,1471,0,0
133,-447,0,0,0,0,0,0,0,0,0,-1,1357,1471,0,0
140,-447,0,0,0,0,0,0,0,0,0,-1,1364,1471,0,0
147,-447,0,0,0,0,0,0,0,0,0,-1,1371,1471,0,0
154,-447,0,0,0,0,0,0,0,0,0,-1,1378,1471,0,0
161,-447,0,0,0,0,0,0,0,0,0,-1,1385,1471,0,0
168,-447,0,0,0,0,0,0,0,0,0,-1,1392,1471,0,0
175,-447,0,0,0,0,0,0,0,0,0,-1,1399,1471,0,0
182,-447,0,0,0,0,0,0,0,0,0,-1,1406,1471,0,0
189,-447,0,0,0,0,0,0,0,0,0,-1,1413,1471,0,0
196,-447,0,0,0,0,0,0,0,0,0,-1,1420,1471,0,0
203,-447,0,0,0,0,0,0,0,0,0,-1,1427,1471,0,0
210,-447,0,0,0,0,0,0,0,0,0,-1,1434,1471,0,0
217,-447,0,0,0,0,0,0,0,0,0,-1,1441,1471,0,0
224,-447,0,0,0,0,0,0,0,0,0,-1,1448,1471,0,0
231,-447,0,0,0,0,0,0,0,0,0,-1,1455,1471,0,0
238,-447,0,0,0,0,0,0,0,0,0,-1,1462,1471,0,0
245,-447,0,0,0,0,0,0,0,0,0,-1,1469,1471,0,0
252,-447,0,0,0,0,0,0,0,0,0,-1,1476,1471,0,0
259,-447,0,0,0,0,0,0,0,0,0,-1,1483,1471,0,0
266,-447,0,0,0,0,0,0,0,0,0,-1,1490,1471,0,0
273,-447,0,0,0,0,0,0,0,0,0,-1,1497,1471,0,0
280,-447,0,0,0,0,0,0,0,0,0,-1,1504,1471,0,0
287,-447,0,0,0,0,0,0,0,0,0,-1,1511,1471,0,0
294,-447,0,0,0,0,0,0,0,0,0,-1,1518,1471,0,0
301,-447,0,0,0,0,0,0,0,0,0,-1,1525,1471,0,0
308,-447,0,0,0,0,0,0,0,0,0,-1,1532,1471,0,0
315,-447,0,0,0,0,0,0,0,0,0,-1,1539,1471,0,0
322,-447,0,0,0,0,0,0,0,0,0,-1,1546,1471,0,0
329,-447,0,0,0,0,0,0,0,0,0,-1,1553,1471,0,0
336,-447,0,0,0,0,0,0,0,0,0,-1,1560,1471,0,0
343,-447,0,0,0,0,0,0,0,0,0,-1,1567,1471,0,0
350,-447,0,0,0,0,0,0,0,0,0,-1,1574,1471,0,0
357,-447,0,0,0,0,0,0,0,0,0,-1,1581,1471,0,0
364,-447,0,0,0,0,0,0,0,0,0,-1,1588,1471,0,0
371,-447,0,0,0,0,0,0,0,0,0,-1,1595,1471,0,0
378,-447,0,0,0,0,0,0,0,0,0,-1,1602,1471,0,0
385,-447,0,0,0,0,0,0,0,0,0,-1,1609,1471,0,0
392,-447,0,0,0,0,0,0,0,0,0,-1,1616,1471,0,0
399,-447,0,0,0,0,0,0,0,0,0,-1,1623,1471,0,0
406,-447,0,0,0,0,0,0,0,0,0,-1,1630,1471,0,0
413,-447,0,0,0,0,0,0,0,0,0,-1,1637,1471,0,0
420,-447,0,0,0,0,0,0,0,0,0,-1,1644,1471,0,0
427,-447,0,0,0,0,0,0,0,0,0,-1,1651,1471,0,0
434,-447,0,0,0,0,0,0,0,0,0,-1,1658,1471,0,0
441,-447,0,0,0,0,0,0,0,0,0,-1,1665,1471,0,0
448,-447,0,0,0,0,0,0,0,0,0,-1,1672,1471,0,0
455,-447,0,0,0,0,0,0,0,0,0,-1,1679,1471,0,0
462,-447,0,0,0,0,0,0,0,0,0,-1,1686,1471,0,0
469,-447,0,0,0,0,0,0,0,0,0,-1,1693,1471,0,0
476,-447,0,0,0,0,0,0,0,0,0,-1,1700,1471,0,0
483,-447,0,0,0,0,0,0,0,0,0,-1,1707,1471,0,0
490,-447,18.2214,-0.810303,0,0,0,0,0,0,0,-1,1714,1471,18.2215,0.810307
497,-447,17.0237,0.352417,0,0,0,0,0,0,0,-1,1721,1471,17.0237,-0.352442
504,-447,15.8998,1.53479,0,0,0,0,0,0,0,-1,1728,1471,15.8997,-1.53478
511,-447,14.7201,2.76111,0,0,0,0,0,0,0,-1,1735,1471,14.7201,-2.76107
518,-447,17.7618,13.2864,0,0,0,0,0,0,0,-1,1742,1471,17.7619,-13.2863
525,-447,17.1191,11.9014,0,0,0,0,0,0,0,-1,1749,1471,17.1191,-11.9013
532,-447,16.3959,10.0455,0,0,0,0,0,0,0,-1,1756,1471,16.3959,-10.0456
539,-447,14.1699,10.0204,0,0,0,0,0,0,0,-1,1763,1471,14.1699,-10.0204
546,-447,16.3715,11.8046,0,0,0,0,0,0,0,-1,1770,1471,16.3714,-11.8046
553,-447,17.5106,13.4012,0,0,0,0,0,0,0,-1,1777,1471,17.5107,-13.4012
560,-447,17.0187,13.168,0,0,0,0,0,0,0,-1,1784,1471,17.0187,-13.168
567,-447,18.9286,15.1703,0,0,0,0,0,0,0,-1,1791,1471,18.9286,-15.1703
574,-447,32.1848,27.6504,0,0,0,0,0,0,0,-1,1798,1471,32.1848,-27.6503
581,-447,48.0679,47.2927,0,0,0,0,0,0,0,-1,1805,1471,48.0679,-47.2927
588,-447,129.242,102.092,0,0,0,0,0,0,0,-1,1812,1471,129.242,-102.092
595,-447,135.089,98.6543,0,0,0,0,0,0,0,-1,1819,1471,135.089,-98.6543
602,-447,133.842,95.1661,-0.025893,0.0136048,0.0465953,0.0444636,-0.0567518,0.985842,0.0585801,0.0340255,1826,1471,133.842,-95.1661
609,-447,132.754,91.7312,-0.0183577,0.0174452,0.0443758,0.0473943,-0.0483068,0.977117,0.0552539,0.0260275,1833,1471,132.754,-91.7312
616,-447,131.749,88.2638,-0.0107286,0.0217309,0.0421627,0.0506797,-0.0396774,0.969123,0.0522964,0.0251705,1840,1471,131.749,-88.2637
623,-447,130.819,84.8848,-0.00322798,0.0263903,0.0400654,0.0542959,-0.0311336,0.962422,0.0499234,0.0268555,1847,1471,130.819,-84.8847
630,-447,130.134,81.5924,0.00398634,0.0314023,0.0381488,0.0582312,-0.0228425,0.957879,0.0482715,0.0159961,1854,1471,130.134,-81.5924
637,-447,129.455,78.2542,0.0106136,0.0367043,0.0365277,0.0624462,-0.0151283,0.956907,0.0474838,0.0189399,1861,1471,129.455,-78.2542
644,-447,128.732,75.009,0.0167295,0.0423349,0.0350671,0.0668632,-0.00779888,0.960426,0.0473895,0.0318347,1868,1471,128.732,-75.0091
651,-447,128.054,71.8317,0,0,0,0,0,0,0,-1,1875,1471,128.054,-71.8317
658,-447,30.2566,16.5862,0,0,0,0,0,0,0,-1,1882,1471,30.2566,-16.5862
665,-447,18.4946,9.79919,0,0,0,0,0,0,0,-1,1889,1471,18.4946,-9.79922
672,-447,18.9784,9.66077,0,0,0,0,0,0,0,-1,1896,1471,18.9784,-9.66081
679,-447,14.844,7.4248,0,0,0,0,0,0,0,-1,1903,1471,14.844,-7.42477
686,-447,9.81079,4.30859,0,0,0,0,0,0,0,-1,1910,1471,9.8108,-4.30864
693,-447,10.48,2.08643,0,0,0,0,0,0,0,-1,1917,1471,10.48,-2.08642
700,-447,0,0,0,0,0,0,0,0,0,-1,1924,1471,0,0
707,-447,0,0,0,0,0,0,0,0,0,-1,1931,1471,0,0
714,-447,0,0,0,0,0,0,0,0,0,-1,1938,1471,0,0
721,-447,0,0,0,0,0,0,0,0,0,-1,1945,1471,0,0
728,-447,0,0,0,0,0,0,0,0,0,-1,1952,1471,0,0
735,-447,0,0,0,0,0,0,0,0,0,-1,1959,1471,0,0
742,-447,0,0,0,0,0,0,0,0,0,-1,1966,1471,0,0
749,-447,0,0,0,0,0,0,0,0,0,-1,1973,1471,0,0
756,-447,0,0,0,0,0,0,0,0,0,-1,1980,1471,0,0
763,-447,0,0,0,0,0,0,0,0,0,-1,1987,1471,0,0
770,-447,0,0,0,0,0,0,0,0,0,-1,1994,1471,0,0
777,-447,0,0,0,0,0,0,0,0,0,-1,2001,1471,0,0
784,-447,0,0,0,0,0,0,0,0,0,-1,2008,1471,0,0
791,-447,0,0,0,0,0,0,0,0,0,-1,2015,1471,0,0
798,-447,0,0,0,0,0,0,0,0,0,-1,2022,1471,0,0
805,-447,0,0,0,0,0,0,0,0,0,-1,2029,1471,0,0
812,-447,0,0,0,0,0,0,0,0,0,-1,2036,1471,0,0
-700,-454,0,0,0,0,0,0,0,0,0,-1,524,1478,0,0
-693,-454,0,0,0,0,0,0,0,0,0,-1,531,1478,0,0
-686,-454,0,0,0,0,0,0,0,0,0,-1,538,1478,0,0
-679,-454,0,0,0,0,0,0,0,0,0,-1,545,1478,0,0
-672,-454,0,0,0,0,0,0,0,0,0,-1,552,1478,0,0
-665,-454,0,0,0,0,0,0,0,0,0,-1,559,1478,0,0
-658,-454,0,0,0,0,0,0,0,0,0,-1,566,1478,0,0
-651,-454,0,0,0,0,0,0,0,0,0,-1,573,1478,0,0
-644,-454,0,0,0,0,0,0,0,0,0,-1,580,1478,0,0
-637,-454,0,0,0,0,0,0,0,0,0,-1,587,1478,0,0
-630,-454,0,0,0,0,0,0,0,0,0,-1,594,1478,0,0
-623,-454,0,0,0,0,0,0,0,0,0,-1,601,1478,0,0
-616,-454,0,0,0,0,0,0,0,0,0,-1,608,1478,0,0
-609,-454,0,0,0,0,0,0,0,0,0,-1,615,1478,0,0
-602,-454,0,0,0,0,0,0,0,0,0,-1,622,1478,0,0
-595,-454,0,0,0,0,0,0,0,0,0,-1,629,1478,0,0
-588,-454,0,0,0,0,0,0,0,0,0,-1,636,1478,0,0
-581,-454,0,0,0,0,0,0,0,0,0,-1,643,1478,0,0
-574,-454,-8.4881,-0.465942,0,0,0,0,0,0,0,-1,650,1478,-8.4881,0.465885
-567,-454,-8.10046,0.922974,0,0,0,0,0,0,0,-1,657,1478,-8.10047,-0.923034
-560,-454,-10.656,3.51172,0,0,0,0,0,0,0,-1,664,1478,-10.656,-3.51176
-553,-454,-9.01129,3.95251,0,0,0,0,0,0,0,-1,671,1478,-9.0113,-3.95256
-546,-454,-9.61896,6.05237,0,0,0,0,0,0,0,-1,678,1478,-9.61897,-6.05239
-539,-454,-7.72589,4.96533,0,0,0,0,0,0,0,-1,685,1478,-7.72592,-4.96532
-532,-454,-7.03931,7.59985,0,0,0,0,0,0,0,-1,692,1478,-7.03929,-7.59981
-525,-454,-5.78723,9.677,0,0,0,0,0,0,0,-1,699,1478,-5.78722,-9.67703
-518,-454,-9.82098,13.8295,0,0,0,0,0,0,0,-1,706,1478,-9.82098,-13.8295
-511,-454,-116.487,71.5526,0,0,0,0,0,0,0,-1,713,1478,-116.487,-71.5526
-504,-454,-117.23,75.0073,0.0202553,0.0507777,-0.0493609,0.0871828,-0.0161498,-0.935325,0.064186,0.0355676,720,1478,-117.23,-75.0073
-497,-454,-118.054,78.3168,0.0177755,0.0478355,-0.0469064,0.082061,-0.0164501,-0.940443,0.0609354,0.0275481,727,1478,-118.054,-78.3167
-490,-454,-118.898,81.7322,0.014881,0.0451454,-0.0443388,0.0768631,-0.0168367,-0.949843,0.0576793,0.0268786,734,1478,-118.898,-81.7322
-483,-454,-119.616,85.0939,0.0114301,0.0427921,-0.0417693,0.0717269,-0.0175047,-0.964967,0.0545964,0.0303145,741,1478,-119.616,-85.0939
-476,-454,-120.453,88.188,0.00739493,0.0406884,-0.0391314,0.0665667,-0.0184833,-0.986506,0.0516533,0.0337861,748,1478,-120.453,-88.188
-469,-454,-121.404,91.6337,0.00299304,0.0388753,-0.0369333,0.0619945,-0.0201262,-1.0115,0.0494238,0.0304928,755,1478,-121.404,-91.6337
-462,-454,-122.86,95.7921,0,0,0,0,0,0,0,-1,762,1478,-122.86,-95.7922
-455,-454,-124.366,99.9053,0,0,0,0,0,0,0,-1,769,1478,-124.366,-99.9052
-448,-454,-73.93,96.1239,0,0,0,0,0,0,0,-1,776,1478,-73.93,-96.124
-441,-454,-59.8186,85.6444,0,0,0,0,0,0,0,-1,783,1478,-59.8186,-85.6444
-434,-454,-7.55743,19.4857,0,0,0,0,0,0,0,-1,790,1478,-7.55746,-19.4858
-427,-454,-6.00183,15.8636,0,0,0,0,0,0,0,-1,797,1478,-6.00184,-15.8637
-420,-454,-6.28088,15.2135,0,0,0,0,0,0,0,-1,804,1478,-6.28087,-15.2135
-413,-454,-5.4408,13.674,0,0,0,0,0,0,0,-1,811,1478,-5.44079,-13.6739
-406,-454,-2.38208,10.0308,0,0,0,0,0,0,0,-1,818,1478,-2.38209,-10.0308
-399,-454,-1.21033,6.95447,0,0,0,0,0,0,0,-1,825,1478,-1.21035,-6.95452
-392,-454,0.0967407,0.985474,0,0,0,0,0,0,0,-1,832,1478,0.0967364,-0.985529
-385,-454,2.38629,3.297,0,0,0,0,0,0,0,-1,839,1478,2.38629,-3.29702
-378,-454,-15.9756,2.83997,0,0,0,0,0,0,0,-1,846,1478,-15.9756,-2.83994
-371,-454,-17.2753,2.01453,0,0,0,0,0,0,0,-1,853,1478,-17.2753,-2.01455
-364,-454,1.08124,0.819458,0,0,0,0,0,0,0,-1,860,1478,1.08124,-0.819513
-357,-454,0,0,0,0,0,0,0,0,0,-1,867,1478,0,0
-350,-454,0,0,0,0,0,0,0,0,0,-1,874,1478,0,0
-343,-454,0,0,0,0,0,0,0,0,0,-1,881,1478,0,0
-336,-454,0,0,0,0,0,0,0,0,0,-1,888,1478,0,0
-329,-454,0,0,0,0,0,0,0,0,0,-1,895,1478,0,0
-322,-454,0,0,0,0,0,0,0,0,0,-1,902,1478,0,0
-315,-454,0,0,0,0,0,0,0,0,0,-1,909,1478,0,0
-308,-454,0,0,0,0,0,0,0,0,0,-1,916,1478,0,0
-301,-454,0,0,0,0,0,0,0,0,0,-1,923,1478,0,0
-294,-454,0,0,0,0,0,0,0,0,0,-1,930,1478,0,0
-287,-454,0,0,0,0,0,0,0,0,0,-1,937,1478,0,0
-280,-454,0,0,0,0,0,0,0,0,0,-1,944,1478,0,0
-273,-454,0,0,0,0,0,0,0,0,0,-1,951,1478,0,0
-266,-454,0,0,0,0,0,0,0,0,0,-1,958,1478,0,0
-259,-454,0,0,0,0,0,0,0,0,0,-1,965,1478,0,0
-252,-454,0,0,0,0,0,0,0,0,0,-1,972,1478,0,0
-245,-454,0,0,0,0,0,0,0,0,0,-1,979,1478,0,0
-238,-454,0,0,0,0,0,0,0,0,0,-1,986,1478,0,0
-231,-454,0,0,0,0,0,0,0,0,0,-1,993,1478,0,0
-224,-454,0,0,0,0,0,0,0,0,0,-1,1000,1478,0,0
-217,-454,0,0,0,0,0,0,0,0,0,-1,1007,1478,0,0
-210,-454,0,0,0,0,0,0,0,0,0,-1,1014,1478,0,0
-203,-454,0,0,0,0,0,0,0,0,0,-1,1021,1478,0,0
-196,-454,0,0,0,0,0,0,0,0,0,-1,1028,1478,0,0
-189,-454,0,0,0,0,0,0,0,0,0,-1,1035,1478,0,0
-182,-454,0,0,0,0,0,0,0,0,0,-1,1042,1478,0,0
-175,-454,0,0,0,0,0,0,0,0,0,-1,1049,1478,0,0
-168,-454,0,0,0,0,0,0,0,0,0,-1,1056,1478,0,0
-161,-454,0,0,0,0,0,0,0,0,0,-1,1063,1478,0,0
-154,-454,0,0,0,0,0,0,0,0,0,-1,1070,1478,0,0
-147,-454,0,0,0,0,0,0,0,0,0,-1,1077,1478,0,0
-140,-454,0,0,0,0,0,0,0,0,0,-1,1084,1478,0,0
-133,-454,0,0,0,0,0,0,0,0,0,-1,1091,1478,0,0
-126,-454,0,0,0,0,0,0,0,0,0,-1,1098,1478,0,0
-119,-454,0,0,0,0,0,0,0,0,0,-1,1105,1478,0,0
-112,-454,0,0,0,0,0,0,0,0,0,-1,1112,1478,0,0
-105,-454,0,0,0,0,0,0,0,0,0,-1,1119,1478,0,0
-98,-454,0,0,0,0,0,0,0,0,0,-1,1126,1478,0,0
-91,-454,0,0,0,0,0,0,0,0,0,-1,1133,1478,0,0
-84,-454,0,0,0,0,0,0,0,0,0,-1,1140,1478,0,0
-77,-454,0,0,0,0,0,0,0,0,0,-1,1147,1478,0,0
-70,-454,0,0,0,0,0,0,0,0,0,-1,1154,1478,0,0
-63,-454,0,0,0,0,0,0,0,0,0,-1,1161,1478,0,0
-56,-454,0,0,0,0,0,0,0,0,0,-1,1168,1478,0,0
-49,-454,0,0,0,0,0,0,0,0,0,-1,1175,1478,0,0
-42,-454,0,0,0,0,0,0,0,0,0,-1,1182,1478,0,0
-35,-454,0,0,0,0,0,0,0,0,0,-1,1189,1478,0,0
-28,-454,0,0,0,0,0,0,0,0,0,-1,1196,1478,0,0
-21,-454,0,0,0,0,0,0,0,0,0,-1,1203,1478,0,0
-14,-454,0,0,0,0,0,0,0,0,0,-1,1210,1478,0,0
-7,-454,0,0,0,0,0,0,0,0,0,-1,1217,1478,0,0
0,-454,0,0,0,0,0,0,0,0,0,-1,1224,1478,0,0
7,-454,0,0,0,0,0,0,0,0,0,-1,1231,1478,0,0
14,-454,0,0,0,0,0,0,0,0,0,-1,1238,1478,0,0
21,-454,0,0,0,0,0,0,0,0,0,-1,1245,1478,0,0
28,-454,0,0,0,0,0,0,0,0,0,-1,1252,1478,0,0
35,-454,0,0,0,0,0,0,0,0,0,-1,1259,1478,0,0
42,-454,0,0,0,0,0,0,0,0,0,-1,1266,1478,0,0
49,-454,0,0,0,0,0,0,0,0,0,-1,1273,1478,0,0
56,-454,0,0,0,0,0,0,0,0,0,-1,1280,1478,0,0
63,-454,0,0,0,0,0,0,0,0,0,-1,1287,1478,0,0
70,-454,0,0,0,0,0,0,0,0,0,-1,1294,1478,0,0
77,-454,0,0,0,0,0,0,0,0,0,-1,1301,1478,0,0
84,-454,0,0,0,0,0,0,0,0,0,-1,1308,1478,0,0
91,-454,0,0,0,0,0,0,0,0,0,-1,1315,1478,0,0
98,-454,0,0,0,0,0,0,0,0,0,-1,1322,1478,0,0
105,-454,0,0,0,0,0,0,0,0,0,-1,1329,1478,0,0
112,-454,0,0,0,0,0,0,0,0,0,-1,1336,1478,0,0
119,-454,0,0,0,0,0,0,0,0,0,-1,1343,1478,0,0
126,-454,0,0,0,0,0,0,0,0,0,-1,1350,1478,0,0
133,-454,0,0,0,0,0,0,0,0,0,-1,1357,1478,0,0
140,-454,0,0,0,0,0,0,0,0,0,-1,1364,1478,0,0
147,-454,0,0,0,0,0,0,0,0,0,-1,1371,1478,0,0
154,-454,0,0,0,0,0,0,0,0,0,-1,1378,1478,0,0
161,-454,0,0,0,0,0,0,0,0,0,-1,1385,1478,0,0
168,-454,0,0,0,0,0,0,0,0,0,-1,1392,1478,0,0
175,-454,0,0,0,0,0,0,0,0,0,-1,1399,1478,0,0
182,-454,0,0,0,0,0,0,0,0,0,-1,1406,1478,0,0
189,-454,0,0,0,0,0,0,0,0,0,-1,1413,1478,0,0
196,-454,0,0,0,0,0,0,0,0,0,-1,1420,1478,0,0
203,-454,0,0,0,0,0,0,0,0,0,-1,1427,1478,0,0
210,-454,0,0,0,0,0,0,0,0,0,-1,1434,1478,0,0
217,-454,0,0,0,0,0,0,0,0,0,-1,1441,1478,0,0
224,-454,0,0,0,0,0,0,0,0,0,-1,1448,1478,0,0
231,-454,0,0,0,0,0,0,0,0,0,-1,1455,1478,0,0
238,-454,0,0,0,0,0,0,0,0,0,-1,1462,1478,0,0
245,-454,0,0,0,0,0,0,0,0,0,-1,1469,1478,0,0
252,-454,0,0,0,0,0,0,0,0,0,-1,1476,1478,0,0
259,-454,0,0,0,0,0,0,0,0,0,-1,1483,1478,0,0
266,-454,0,0,0,0,0,0,0,0,0,-1,1490,1478,0,0
273,-454,0,0,0,0,0,0,0,0,0,-1,1497,1478,0,0
280,-454,0,0,0,0,0,0,0,0,0,-1,1504,1478,0,0
287,-454,0,0,0,0,0,0,0,0,0,-1,1511,1478,0,0
294,-454,0,0,0,0,0,0,0,0,0,-1,1518,1478,0,0
301,-454,0,0,0,0,0,0,0,0,0,-1,1525,1478,0,0
308,-454,0,0,0,0,0,0,0,0,0,-1,1532,1478,0,0
315,-454,0,0,0,0,0,0,0,0,0,-1,1539,1478,0,0
322,-454,0,0,0,0,0,0,0,0,0,-1,1546,1478,0,0
329,-454,0,0,0,0,0,0,0,0,0,-1,1553,1478,0,0
336,-454,0,0,0,0,0,0,0,0,0,-1,1560,1478,0,0
343,-454,0,0,0,0,0,0,0,0,0,-1,1567,1478,0,0
350,-454,0,0,0,0,0,0,0,0,0,-1,1574,1478,0,0
357,-454,0,0,0,0,0,0,0,0,0,-1,1581,1478,0,0
364,-454,0,0,0,0,0,0,0,0,0,-1,1588,1478,0,0
371,-454,0,0,0,0,0,0,0,0,0,-1,1595,1478,0,0
378,-454,0,0,0,0,0,0,0,0,0,-1,1602,1478,0,0
385,-454,0,0,0,0,0,0,0,0,0,-1,1609,1478,0,0
392,-454,0,0,0,0,0,0,0,0,0,-1,1616,1478,0,0
399,-454,0,0,0,0,0,0,0,0,0,-1,1623,1478,0,0
406,-454,0,0,0,0,0,0,0,0,0,-1,1630,1478,0,0
413,-454,0,0,0,0,0,0,0,0,0,-1,1637,1478,0,0
420,-454,0,0,0,0,0,0,0,0,0,-1,1644,1478,0,0
427,-454,0,0,0,0,0,0,0,0,0,-1,1651,1478,0,0
434,-454,0,0,0,0,0,0,0,0,0,-1,1658,1478,0,0
441,-454,0,0,0,0,0,0,0,0,0,-1,1665,1478,0,0
448,-454,0,0,0,0,0,0,0,0,0,-1,1672,1478,0,0
455,-454,0,0,0,0,0,0,0,0,0,-1,1679,1478,0,0
462,-454,0,0,0,0,0,0,0,0,0,-1,1686,1478,0,0
469,-454,0,0,0,0,0,0,0,0,0,-1,1693,1478,0,0
476,-454,0,0,0,0,0,0,0,0,0,-1,1700,1478,0,0
483,-454,14.2399,3.97498,0,0,0,0,0,0,0,-1,1707,1478,14.2399,-3.97502
490,-454,18.1821,-0.175781,0,0,0,0,0,0,0,-1,1714,1478,18.1821,0.175822
497,-454,16.8854,1.01208,0,0,0,0,0,0,0,-1,1721,1478,16.8854,-1.01209
504,-454,15.587,2.05994,0,0,0,0,0,0,0,-1,1728,1478,15.5871,-2.05998
511,-454,17.0273,14.5258,0,0,0,0,0,0,0,-1,1735,1478,17.0273,-14.5258
518,-454,16.4158,13.1039,0,0,0,0,0,0,0,-1,1742,1478,16.4157,-13.1038
525,-454,15.7842,11.6628,0,0,0,0,0,0,0,-1,1749,1478,15.7841,-11.6629
532,-454,15.1094,10.2476,0,0,0,0,0,0,0,-1,1756,1478,15.1094,-10.2475
539,-454,13.7905,10.9373,0,0,0,0,0,0,0,-1,1763,1478,13.7906,-10.9372
546,-454,16.2002,13.2458,0,0,0,0,0,0,0,-1,1770,1478,16.2002,-13.2459
553,-454,15.6747,12.1868,0,0,0,0,0,0,0,-1,1777,1478,15.6747,-12.1868
560,-454,16.3895,14.0527,0,0,0,0,0,0,0,-1,1784,1478,16.3895,-14.0528
567,-454,38.1984,36.0463,0,0,0,0,0,0,0,-1,1791,1478,38.1983,-36.0463
574,-454,47.4471,49.8385,0,0,0,0,0,0,0,-1,1798,1478,47.4471,-49.8385
581,-454,82.4148,104.029,0,0,0,0,0,0,0,-1,1805,1478,82.4147,-104.029
588,-454,131.597,103.399,0,0,0,0,0,0,0,-1,1812,1478,131.597,-103.399
595,-454,130.754,99.7711,-0.0217736,0.0138762,0.0457302,0.0451327,-0.05303,0.971233,0.0567353,0.0498157,1819,1478,130.754,-99.7711
602,-454,129.745,96.2793,-0.0160877,0.0171737,0.0444033,0.0479585,-0.0468725,0.964581,0.054752,0.0209325,1826,1478,129.746,-96.2793
609,-454,128.811,92.7969,-0.00985072,0.0209296,0.0428959,0.0511126,-0.0400337,0.957635,0.0527527,0.0179877,1833,1478,128.811,-92.7968
616,-454,127.904,89.3096,-0.00333479,0.0250794,0.0413037,0.0545511,-0.0328065,0.951043,0.0509541,0.0186243,1840,1478,127.904,-89.3096
623,-454,127.055,85.8881,0.00325554,0.0296172,0.0396974,0.0582648,-0.025392,0.945688,0.0495267,0.0202076,1847,1478,127.055,-85.8881
630,-454,126.318,82.5297,0.00974367,0.0345212,0.038192,0.0622836,-0.0180187,0.942234,0.0486538,0.021404,1854,1478,126.318,-82.5297
637,-454,125.452,79.2191,0.0157758,0.0397267,0.0369093,0.0665547,-0.0110522,0.942269,0.0484757,0.021105,1861,1478,125.452,-79.2191
644,-454,124.788,75.8868,0,0,0,0,0,0,0,-1,1868,1478,124.788,-75.8868
651,-454,54.428,47.5275,0,0,0,0,0,0,0,-1,1875,1478,54.428,-47.5275
658,-454,17.2583,10.0765,0,0,0,0,0,0,0,-1,1882,1478,17.2583,-10.0765
665,-454,17.683,9.67566,0,0,0,0,0,0,0,-1,1889,1478,17.683,-9.67572
672,-454,16.5476,6.41931,0,0,0,0,0,0,0,-1,1896,1478,16.5476,-6.41929
679,-454,14.2161,5.45007,0,0,0,0,0,0,0,-1,1903,1478,14.2161,-5.45013
686,-454,10.3767,2.12842,0,0,0,0,0,0,0,-1,1910,1478,10.3767,-2.12839
693,-454,11.1857,1.48486,0,0,0,0,0,0,0,-1,1917,1478,11.1857,-1.48487
700,-454,0,0,0,0,0,0,0,0,0,-1,1924,1478,0,0
707,-454,0,0,0,0,0,0,0,0,0,-1,1931,1478,0,0
714,-454,0,0,0,0,0,0,0,0,0,-1,1938,1478,0,0
721,-454,0,0,0,0,0,0,0,0,0,-1,1945,1478,0,0
728,-454,0,0,0,0,0,0,0,0,0,-1,1952,1478,0,0
735,-454,0,0,0,0,0,0,0,0,0,-1,1959,1478,0,0
742,-454,0,0,0,0,0,0,0,0,0,-1,1966,1478,0,0
749,-454,0,0,0,0,0,0,0,0,0,-1,1973,1478,0,0
756,-454,0,0,0,0,0,0,0,0,0,-1,1980,1478,0,0
763,-454,0,0,0,0,0,0,0,0,0,-1,1987,1478,0,0
770,-454,0,0,0,0,0,0,0,0,0,-1,1994,1478,0,0
777,-454,0,0,0,0,0,0,0,0,0,-1,2001,1478,0,0
784,-454,0,0,0,0,0,0,0,0,0,-1,2008,1478,0,0
791,-454,0,0,0,0,0,0,0,0,0,-1,2015,1478,0,0
798,-454,0,0,0,0,0,0,0,0,0,-1,2022,1478,0,0
805,-454,0,0,0,0,0,0,0,0,0,-1,2029,1478,0,0
812,-454,0,0,0,0,0,0,0,0,0,-1,2036,1478,0,0
-700,-461,0,0,0,0,0,0,0,0,0,-1,524,1485,0,0
-693,-461,0,0,0,0,0,0,0,0,0,-1,531,1485,0,0
-686,-461,0,0,0,0,0,0,0,0,0,-1,538,1485,0,0
-679,-461,0,0,0,0,0,0,0,0,0,-1,545,1485,0,0
-672,-461,0,0,0,0,0,0,0,0,0,-1,552,1485,0,0
-665,-461,0,0,0,0,0,0,0,0,0,-1,559,1485,0,0
-658,-461,0,0,0,0,0,0,0,0,0,-1,566,1485,0,0
-651,-461,0,0,0,0,0,0,0,0,0,-1,573,1485,0,0
-644,-461,0,0,0,0,0,0,0,0,0,-1,580,1485,0,0
-637,-461,0,0,0,0,0,0,0,0,0,-1,587,1485,0,0
-630,-461,0,0,0,0,0,0,0,0,0,-1,594,1485,0,0
-623,-461,0,0,0,0,0,0,0,0,0,-1,601,1485,0,0
-616,-461,0,0,0,0,0,0,0,0,0,-1,608,1485,0,0
-609,-461,0,0,0,0,0,0,0,0,0,-1,615,1485,0,0
-602,-461,0,0,0,0,0,0,0,0,0,-1,622,1485,0,0
-595,-461,0,0,0,0,0,0,0,0,0,-1,629,1485,0,0
-588,-461,0,0,0,0,0,0,0,0,0,-1,636,1485,0,0
-581,-461,0,0,0,0,0,0,0,0,0,-1,643,1485,0,0
-574,-461,0,0,0,0,0,0,0,0,0,-1,650,1485,0,0
-567,-461,-9.69031,0.513306,0,0,0,0,0,0,0,-1,657,1485,-9.69032,-0.513305
-560,-461,-7.28815,1.54004,0,0,0,0,0,0,0,-1,664,1485,-7.28817,-1.54005
-553,-461,-11.9607,5.27783,0,0,0,0,0,0,0,-1,671,1485,-11.9607,-5.27778
-546,-461,-11.4215,4.44666,0,0,0,0,0,0,0,-1,678,1485,-11.4215,-4.4467
-539,-461,-9.36493,5.23438,0,0,0,0,0,0,0,-1,685,1485,-9.3649,-5.23432
-532,-461,-7.82898,6.78357,0,0,0,0,0,0,0,-1,692,1485,-7.829,-6.78363
-525,-461,-6.37878,8.75659,0,0,0,0,0,0,0,-1,699,1485,-6.3788,-8.75659
-518,-461,-6.49695,10.886,0,0,0,0,0,0,0,-1,706,1485,-6.49696,-10.8859
-511,-461,-15.8618,21.5214,0,0,0,0,0,0,0,-1,713,1485,-15.8617,-21.5213
-504,-461,-113.127,75.7238,0,0,0,0,0,0,0,-1,720,1485,-113.127,-75.7237
-497,-461,-113.912,79.1904,0.0231371,0.0502098,-0.0497866,0.0882674,-0.0149205,-0.918133,0.0643972,0.0204846,727,1485,-113.912,-79.1904
-490,-461,-114.694,82.6589,0.0198454,0.0467563,-0.0474817,0.0826523,-0.0160506,-0.923469,0.0611579,0.0274973,734,1485,-114.694,-82.659
-483,-461,-115.455,86.0669,0.0161867,0.0437446,-0.0451978,0.0772171,-0.0172858,-0.933352,0.0581035,0.0253908,741,1485,-115.455,-86.0669
-476,-461,-116.309,89.3324,0.012156,0.0409398,-0.0429008,0.0717984,-0.0187026,-0.947234,0.0551668,0.0220282,748,1485,-116.309,-89.3324
-469,-461,-117.106,92.9269,0.00807437,0.0384112,-0.0410268,0.0669838,-0.0204982,-0.962465,0.0528312,0.0319764,755,1485,-117.106,-92.9269
-462,-461,-117.65,96.7573,0,0,0,0,0,0,0,-1,762,1485,-117.65,-96.7573
-455,-461,-114.91,101.288,0,0,0,0,0,0,0,-1,769,1485,-114.91,-101.288
-448,-461,-88.3078,106.635,0,0,0,0,0,0,0,-1,776,1485,-88.3078,-106.635
-441,-461,-73.679,102.054,0,0,0,0,0,0,0,-1,783,1485,-73.679,-102.054
-434,-461,-26.355,48.8398,0,0,0,0,0,0,0,-1,790,1485,-26.355,-48.8398
-427,-461,-8.26154,21.546,0,0,0,0,0,0,0,-1,797,1485,-8.26153,-21.5461
-420,-461,-5.70355,16.6116,0,0,0,0,0,0,0,-1,804,1485,-5.70353,-16.6115
-413,-461,-5.98798,16.0605,0,0,0,0,0,0,0,-1,811,1485,-5.98796,-16.0605
-406,-461,-5.52667,14.839,0,0,0,0,0,0,0,-1,818,1485,-5.52666,-14.839
-399,-461,-1.93439,9.82849,0,0,0,0,0,0,0,-1,825,1485,-1.9344,-9.82846
-392,-461,-0.357544,5.55225,0,0,0,0,0,0,0,-1,832,1485,-0.357536,-5.55228
-385,-461,1.71509,3.35254,0,0,0,0,0,0,0,-1,839,1485,1.71511,-3.35255
-378,-461,1.95996,3.01111,0,0,0,0,0,0,0,-1,846,1485,1.95993,-3.01111
-371,-461,0.702881,2.33459,0,0,0,0,0,0,0,-1,853,1485,0.702859,-2.33459
-364,-461,-1.93097,2.56458,0,0,0,0,0,0,0,-1,860,1485,-1.93095,-2.56456
-357,-461,-2.41516,3.49487,0,0,0,0,0,0,0,-1,867,1485,-2.41517,-3.49487
-350,-461,0,0,0,0,0,0,0,0,0,-1,874,1485,0,0
-343,-461,0,0,0,0,0,0,0,0,0,-1,881,1485,0,0
-336,-461,0,0,0,0,0,0,0,0,0,-1,888,1485,0,0
-329,-461,0,0,0,0,0,0,0,0,0,-1,895,1485,0,0
-322,-461,0,0,0,0,0,0,0,0,0,-1,902,1485,0,0
-315,-461,0,0,0,0,0,0,0,0,0,-1,909,1485,0,0
-308,-461,0,0,0,0,0,0,0,0,0,-1,916,1485,0,0
-301,-461,0,0,0,0,0,0,0,0,0,-1,923,1485,0,0
-294,-461,0,0,0,0,0,0,0,0,0,-1,930,1485,0,0
-287,-461,0,0,0,0,0,0,0,0,0,-1,937,1485,0,0
-280,-461,0,0,0,0,0,0,0,0,0,-1,944,1485,0,0
-273,-461,0,0,0,0,0,0,0,0,0,-1,951,1485,0,0
-266,-461,0,0,0,0,0,0,0,0,0,-1,958,1485,0,0
-259,-461,0,0,0,0,0,0,0,0,0,-1,965,1485,0,0
-252,-461,0,0,0,0,0,0,0,0,0,-1,972,1485,0,0
-245,-461,0,0,0,0,0,0,0,0,0,-1,979,1485,0,0
-238,-461,0,0,0,0,0,0,0,0,0,-1,986,1485,0,0
-231,-461,0,0,0,0,0,0,0,0,0,-1,993,1485,0,0
-224,-461,0,0,0,0,0,0,0,0,0,-1,1000,1485,0,0
-217,-461,0,0,0,0,0,0,0,0,0,-1,1007,1485,0,0
-210,-461,0,0,0,0,0,0,0,0,0,-1,1014,1485,0,0
-203,-461,0,0,0,0,0,0,0,0,0,-1,1021,1485,0,0
-196,-461,0,0,0,0,0,0,0,0,0,-1,1028,1485,0,0
-189,-461,0,0,0,0,0,0,0,0,0,-1,1035,1485,0,0
-182,-461,0,0,0,0,0,0,0,0,0,-1,1042,1485,0,0
-175,-461,0,0,0,0,0,0,0,0,0,-1,1049,1485,0,0
-168,-461,0,0,0,0,0,0,0,0,0,-1,1056,1485,0,0
-161,-461,0,0,0,0,0,0,0,0,0,-1,1063,1485,0,0
-154,-461,0,0,0,0,0,0,0,0,0,-1,1070,1485,0,0
-147,-461,0,0,0,0,0,0,0,0,0,-1,1077,1485,0,0
-140,-461,0,0,0,0,0,0,0,0,0,-1,1084,1485,0,0
-133,-461,0,0,0,0,0,0,0,0,0,-1,1091,1485,0,0
-126,-461,0,0,0,0,0,0,0,0,0,-1,1098,1485,0,0
-119,-461,0,0,0,0,0,0,0,0,0,-1,1105,1485,0,0
-112,-461,0,0,0,0,0,0,0,0,0,-1,1112,1485,0,0
-105,-461,0,0,0,0,0,0,0,0,0,-1,1119,1485,0,0
-98,-461,0,0,0,0,0,0,0,0,0,-1,1126,1485,0,0
-91,-461,0,0,0,0,0,0,0,0,0,-1,1133,1485,0,0
-84,-461,0,0,0,0,0,0,0,0,0,-1,1140,1485,0,0
-77,-461,0,0,0,0,0,0,0,0,0,-1,1147,1485,0,0
-70,-461,0,0,0,0,0,0,0,0,0,-1,1154,1485,0,0
-63,-461,0,0,0,0,0,0,0,0,0,-1,1161,1485,0,0
-56,-461,0,0,0,0,0,0,0,0,0,-1,1168,1485,0,0
-49,-461,0,0,0,0,0,0,0,0,0,-1,1175,1485,0,0
-42,-461,0,0,0,0,0,0,0,0,0,-1,1182,1485,0,0
-35,-461,0,0,0,0,0,0,0,0,0,-1,1189,1485,0,0
-28,-461,0,0,0,0,0,0,0,0,0,-1,1196,1485,0,0
-21,-461,0,0,0,0,0,0,0,0,0,-1,1203,1485,0,0
-14,-461,0,0,0,0,0,0,0,0,0,-1,1210,1485,0,0
-7,-461,0,0,0,0,0,0,0,0,0,-1,1217,1485,0,0
0,-461,0,0,0,0,0,0,0,0,0,-1,1224,1485,0,0
7,-461,0,0,0,0,0,0,0,0,0,-1,1231,1485,0,0
14,-461,0,0,0,0,0,0,0,0,0,-1,1238,1485,0,0
21,-461,0,0,0,0,0,0,0,0,0,-1,1245,1485,0,0
28,-461,0,0,0,0,0,0,0,0,0,-1,1252,1485,0,0
35,-461,0,0,0,0,0,0,0,0,0,-1,1259,1485,0,0
42,-461,0,0,0,0,0,0,0,0,0,-1,1266,1485,0,0
49,-461,0,0,0,0,0,0,0,0,0,-1,1273,1485,0,0
56,-461,0,0,0,0,0,0,0,0,0,-1,1280,1485,0,0
63,-461,0,0,0,0,0,0,0,0,0,-1,1287,1485,0,0
70,-461,0,0,0,0,0,0,0,0,0,-1,1294,1485,0,0
77,-461,0,0,0,0,0,0,0,0,0,-1,1301,1485,0,0
84,-461,0,0,0,0,0,0,0,0,0,-1,1308,1485,0,0
91,-461,0,0,0,0,0,0,0,0,0,-1,1315,1485,0,0
98,-461,0,0,0,0,0,0,0,0,0,-1,1322,1485,0,0
105,-461,0,0,0,0,0,0,0,0,0,-1,1329,1485,0,0
112,-461,0,0,0,0,0,0,0,0,0,-1,1336,1485,0,0
119,-461,0,0,0,0,0,0,0,0,0,-1,1343,1485,0,0
126,-461,0,0,0,0,0,0,0,0,0,-1,1350,1485,0,0
133,-461,0,0,0,0,0,0,0,0,0,-1,1357,1485,0,0
140,-461,0,0,0,0,0,0,0,0,0,-1,1364,1485,0,0
147,-461,0,0,0,0,0,0,0,0,0,-1,1371,1485,0,0
154,-461,0,0,0,0,0,0,0,0,0,-1,1378,1485,0,0
161,-461,0,0,0,0,0,0,0,0,0,-1,1385,1485,0,0
168,-461,0,0,0,0,0,0,0,0,0,-1,1392,1485,0,0
175,-461,0,0,0,0,0,0,0,0,0,-1,1399,1485,0,0
182,-461,0,0,0,0,0,0,0,0,0,-1,1406,1485,0,0
189,-461,0,0,0,0,0,0,0,0,0,-1,1413,1485,0,0
196,-461,0,0,0,0,0,0,0,0,0,-1,1420,1485,0,0
203,-461,0,0,0,0,0,0,0,0,0,-1,1427,1485,0,0
210,-461,0,0,0,0,0,0,0,0,0,-1,1434,1485,0,0
217,-461,0,0,0,0,0,0,0,0,0,-1,1441,1485,0,0
224,-461,0,0,0,0,0,0,0,0,0,-1,1448,1485,0,0
231,-461,0,0,0,0,0,0,0,0,0,-1,1455,1485,0,0
238,-461,0,0,0,0,0,0,0,0,0,-1,1462,1485,0,0
245,-461,0,0,0,0,0,0,0,0,0,-1,1469,1485,0,0
252,-461,0,0,0,0,0,0,0,0,0,-1,1476,1485,0,0
259,-461,0,0,0,0,0,0,0,0,0,-1,1483,1485,0,0
266,-461,0,0,0,0,0,0,0,0,0,-1,1490,1485,0,0
273,-461,0,0,0,0,0,0,0,0,0,-1,1497,1485,0,0
280,-461,0,0,0,0,0,0,0,0,0,-1,1504,1485,0,0
287,-461,0,0,0,0,0,0,0,0,0,-1,1511,1485,0,0
294,-461,0,0,0,0,0,0,0,0,0,-1,1518,1485,0,0
301,-461,0,0,0,0,0,0,0,0,0,-1,1525,1485,0,0
308,-461,0,0,0,0,0,0,0,0,0,-1,1532,1485,0,0
315,-461,0,0,0,0,0,0,0,0,0,-1,1539,1485,0,0
322,-461,0,0,0,0,0,0,0,0,0,-1,1546,1485,0,0
329,-461,0,0,0,0,0,0,0,0,0,-1,1553,1485,0,0
336,-461,0,0,0,0,0,0,0,0,0,-1,1560,1485,0,0
343,-461,0,0,0,0,0,0,0,0,0,-1,1567,1485,0,0
350,-461,0,0,0,0,0,0,0,0,0,-1,1574,1485,0,0
357,-461,0,0,0,0,0,0,0,0,0,-1,1581,1485,0,0
364,-461,0,0,0,0,0,0,0,0,0,-1,1588,1485,0,0
371,-461,0,0,0,0,0,0,0,0,0,-1,1595,1485,0,0
378,-461,0,0,0,0,0,0,0,0,0,-1,1602,1485,0,0
385,-461,0,0,0,0,0,0,0,0,0,-1,1609,1485,0,0
392,-461,0,0,0,0,0,0,0,0,0,-1,1616,1485,0,0
399,-461,0,0,0,0,0,0,0,0,0,-1,1623,1485,0,0
406,-461,0,0,0,0,0,0,0,0,0,-1,1630,1485,0,0
413,-461,0,0,0,0,0,0,0,0,0,-1,1637,1485,0,0
420,-461,0,0,0,0,0,0,0,0,0,-1,1644,1485,0,0
427,-461,0,0,0,0,0,0,0,0,0,-1,1651,1485,0,0
434,-461,0,0,0,0,0,0,0,0,0,-1,1658,1485,0,0
441,-461,0,0,0,0,0,0,0,0,0,-1,1665,1485,0,0
448,-461,0,0,0,0,0,0,0,0,0,-1,1672,1485,0,0
455,-461,0,0,0,0,0,0,0,0,0,-1,1679,1485,0,0
462,-461,0,0,0,0,0,0,0,0,0,-1,1686,1485,0,0
469,-461,0,0,0,0,0,0,0,0,0,-1,1693,1485,0,0
476,-461,14.1906,0.690552,0,0,0,0,0,0,0,-1,1700,1485,14.1906,-0.690525
483,-461,10.6361,3.09106,0,0,0,0,0,0,0,-1,1707,1485,10.6361,-3.091
490,-461,17.9972,0.665894,0,0,0,0,0,0,0,-1,1714,1485,17.9972,-0.665876
497,-461,16.6829,1.87732,0,0,0,0,0,0,0,-1,1721,1485,16.6828,-1.87736
504,-461,15.3884,3.09216,0,0,0,0,0,0,0,-1,1728,1485,15.3885,-3.09212
511,-461,15.4292,14.3512,0,0,0,0,0,0,0,-1,1735,1485,15.4292,-14.3512
518,-461,14.8081,10.0085,0,0,0,0,0,0,0,-1,1742,1485,14.8081,-10.0086
525,-461,14.0022,10.8033,0,0,0,0,0,0,0,-1,1749,1485,14.0022,-10.8033
532,-461,17.1704,14.077,0,0,0,0,0,0,0,-1,1756,1485,17.1704,-14.077
539,-461,17.0229,14.7386,0,0,0,0,0,0,0,-1,1763,1485,17.0229,-14.7387
546,-461,16.2106,14.1372,0,0,0,0,0,0,0,-1,1770,1485,16.2106,-14.1372
553,-461,25.9354,24.2889,0,0,0,0,0,0,0,-1,1777,1485,25.9354,-24.2889
560,-461,37.0342,37.0962,0,0,0,0,0,0,0,-1,1784,1485,37.0342,-37.0962
567,-461,46.5439,50.9802,0,0,0,0,0,0,0,-1,1791,1485,46.5439,-50.9803
574,-461,79.6387,107.946,0,0,0,0,0,0,0,-1,1798,1485,79.6387,-107.946
581,-461,122.884,109.024,0,0,0,0,0,0,0,-1,1805,1485,122.884,-109.024
588,-461,127.695,104.575,0,0,0,0,0,0,0,-1,1812,1485,127.695,-104.575
595,-461,126.686,100.936,-0.0123547,0.0169564,0.0435749,0.0482743,-0.0436726,0.947621,0.0531077,0.0245029,1819,1485,126.686,-100.936
602,-461,125.733,97.3533,-0.00754686,0.0201843,0.0428427,0.0513493,-0.0387118,0.941899,0.0521672,0.0156928,1826,1485,125.733,-97.3533
609,-461,124.854,93.8511,-0.00215815,0.0238331,0.0418669,0.0546749,-0.0329999,0.935885,0.0511321,0.0186896,1833,1485,124.854,-93.8511
616,-461,123.946,90.3759,0.00357904,0.0278202,0.0407442,0.0582084,-0.0268092,0.92997,0.0501884,0.0185847,1840,1485,123.946,-90.3758
623,-461,123.208,86.9133,0.00954289,0.0322072,0.0395227,0.0619903,-0.0202402,0.925015,0.0494735,0.0243486,1847,1485,123.208,-86.9133
630,-461,122.371,83.5382,0.0155247,0.0369275,0.0383429,0.0660344,-0.0135822,0.921484,0.0491795,0.0253918,1854,1485,122.371,-83.5382
637,-461,121.403,80.1305,0.0211524,0.0419595,0.0373173,0.0702963,-0.00718445,0.92134,0.0494334,0.0320178,1861,1485,121.403,-80.1305
644,-461,120.553,76.652,0,0,0,0,0,0,0,-1,1868,1485,120.553,-76.652
651,-461,35.6685,23.4559,0,0,0,0,0,0,0,-1,1875,1485,35.6684,-23.456
658,-461,16.8987,10.1084,0,0,0,0,0,0,0,-1,1882,1485,16.8986,-10.1084
665,-461,17.2638,9.81384,0,0,0,0,0,0,0,-1,1889,1485,17.2638,-9.81385
672,-461,14.4877,6.89429,0,0,0,0,0,0,0,-1,1896,1485,14.4876,-6.89431
679,-461,10.0535,2.16321,0,0,0,0,0,0,0,-1,1903,1485,10.0535,-2.16317
686,-461,10.8195,1.84192,0,0,0,0,0,0,0,-1,1910,1485,10.8194,-1.84195
693,-461,0,0,0,0,0,0,0,0,0,-1,1917,1485,0,0
700,-461,0,0,0,0,0,0,0,0,0,-1,1924,1485,0,0
707,-461,0,0,0,0,0,0,0,0,0,-1,1931,1485,0,0
714,-461,0,0,0,0,0,0,0,0,0,-1,1938,1485,0,0
721,-461,0,0,0,0,0,0,0,0,0,-1,1945,1485,0,0
728,-461,0,0,0,0,0,0,0,0,0,-1,1952,1485,0,0
735,-461,0,0,0,0,0,0,0,0,0,-1,1959,1485,0,0
742,-461,0,0,0,0,0,0,0,0,0,-1,1966,1485,0,0
749,-461,0,0,0,0,0,0,0,0,0,-1,1973,1485,0,0
756,-461,0,0,0,0,0,0,0,0,0,-1,1980,1485,0,0
763,-461,0,0,0,0,0,0,0,0,0,-1,1987,1485,0,0
770,-461,0,0,0,0,0,0,0,0,0,-1,1994,1485,0,0
777,-461,0,0,0,0,0,0,0,0,0,-1,2001,1485,0,0
784,-461,0,0,0,0,0,0,0,0,0,-1,2008,1485,0,0
791,-461,0,0,0,0,0,0,0,0,0,-1,2015,1485,0,0
798,-461,0,0,0,0,0,0,0,0,0,-1,2022,1485,0,0
805,-461,0,0,0,0,0,0,0,0,0,-1,2029,1485,0,0
812,-461,0,0,0,0,0,0,0,0,0,-1,2036,1485,0,0
-700,-468,0,0,0,0,0,0,0,0,0,-1,524,1492,0,0
-693,-468,0,0,0,0,0,0,0,0,0,-1,531,1492,0,0
-686,-468,0,0,0,0,0,0,0,0,0,-1,538,1492,0,0
-679,-468,0,0,0,0,0,0,0,0,0,-1,545,1492,0,0
-672,-468,0,0,0,0,0,0,0,0,0,-1,552,1492,0,0
-665,-468,0,0,0,0,0,0,0,0,0,-1,559,1492,0,0
-658,-468,0,0,0,0,0,0,0,0,0,-1,566,1492,0,0
-651,-468,0,0,0,0,0,0,0,0,0,-1,573,1492,0,0
-644,-468,0,0,0,0,0,0,0,0,0,-1,580,1492,0,0
-637,-468,0,0,0,0,0,0,0,0,0,-1,587,1492,0,0
-630,-468,0,0,0,0,0,0,0,0,0,-1,594,1492,0,0
-623,-468,0,0,0,0,0,0,0,0,0,-1,601,1492,0,0
-616,-468,0,0,0,0,0,0,0,0,0,-1,608,1492,0,0
-609,-468,0,0,0,0,0,0,0,0,0,-1,615,1492,0,0
-602,-468,0,0,0,0,0,0,0,0,0,-1,622,1492,0,0
-595,-468,0,0,0,0,0,0,0,0,0,-1,629,1492,0,0
-588,-468,0,0,0,0,0,0,0,0,0,-1,636,1492,0,0
-581,-468,0,0,0,0,0,0,0,0,0,-1,643,1492,0,0
-574,-468,0,0,0,0,0,0,0,0,0,-1,650,1492,0,0
-567,-468,-11.2603,1.8042,0,0,0,0,0,0,0,-1,657,1492,-11.2603,-1.80424
-560,-468,-8.77441,2.23694,0,0,0,0,0,0,0,-1,664,1492,-8.77443,-2.23692
-553,-468,-5.94061,9.26318,0,0,0,0,0,0,0,-1,671,1492,-5.94062,-9.26322
-546,-468,-10.47,5.43237,0,0,0,0,0,0,0,-1,678,1492,-10.47,-5.4324
-539,-468,-10.2468,5.45203,0,0,0,0,0,0,0,-1,685,1492,-10.2468,-5.45197
-532,-468,-8.39795,6.02783,0,0,0,0,0,0,0,-1,692,1492,-8.39793,-6.02789
-525,-468,-6.59332,7.15405,0,0,0,0,0,0,0,-1,699,1492,-6.59331,-7.15411
-518,-468,-6.33588,8.65393,0,0,0,0,0,0,0,-1,706,1492,-6.33588,-8.65397
-511,-468,-8.05835,13.8282,0,0,0,0,0,0,0,-1,713,1492,-8.05835,-13.8283
-504,-468,-33.1901,45.7253,0,0,0,0,0,0,0,-1,720,1492,-33.1901,-45.7253
-497,-468,-109.885,80.1957,0,0,0,0,0,0,0,-1,727,1492,-109.885,-80.1956
-490,-468,-110.614,83.5918,0.0257237,0.0488973,-0.050159,0.0887904,-0.0141693,-0.898908,0.0644381,0.0196358,734,1492,-110.614,-83.5918
-483,-468,-111.355,87.0082,0.0220133,0.0453225,-0.0483003,0.0833544,-0.0160186,-0.903782,0.0616073,0.0182787,741,1492,-111.355,-87.0081
-476,-468,-112.188,90.4894,0.0179817,0.0419373,-0.0463957,0.0778764,-0.0179574,-0.911723,0.0588242,0.0180346,748,1492,-112.188,-90.4894
-469,-468,-113.003,94.0642,0.013984,0.038831,-0.0447639,0.0728634,-0.0200484,-0.920758,0.0564577,0.0261309,755,1492,-113.003,-94.0642
-462,-468,-113.695,97.8308,0,0,0,0,0,0,0,-1,762,1492,-113.695,-97.8309
-455,-468,-114.378,101.582,0,0,0,0,0,0,0,-1,769,1492,-114.378,-101.582
-448,-468,-115.606,105.045,0,0,0,0,0,0,0,-1,776,1492,-115.606,-105.045
-441,-468,-113.377,108.627,0,0,0,0,0,0,0,-1,783,1492,-113.377,-108.627
-434,-468,-77.047,111.463,0,0,0,0,0,0,0,-1,790,1492,-77.047,-111.463
-427,-468,-25.4199,50.1571,0,0,0,0,0,0,0,-1,797,1492,-25.4199,-50.1571
-420,-468,-7.57581,22.0538,0,0,0,0,0,0,0,-1,804,1492,-7.57582,-22.0538
-413,-468,-5.30328,17.3519,0,0,0,0,0,0,0,-1,811,1492,-5.30329,-17.352
-406,-468,-2.2356,9.396,0,0,0,0,0,0,0,-1,818,1492,-2.2356,-9.396
-399,-468,-0.940369,8.1936,0,0,0,0,0,0,0,-1,825,1492,-0.940365,-8.19357
-392,-468,-0.35144,8.14673,0,0,0,0,0,0,0,-1,832,1492,-0.351449,-8.14674
-385,-468,0.465759,5.35864,0,0,0,0,0,0,0,-1,839,1492,0.465732,-5.35864
-378,-468,1.99835,3.25391,0,0,0,0,0,0,0,-1,846,1492,1.99837,-3.2539
-371,-468,-0.31842,3.1532,0,0,0,0,0,0,0,-1,853,1492,-0.318441,-3.15324
-364,-468,-0.966736,2.14563,0,0,0,0,0,0,0,-1,860,1492,-0.966735,-2.14557
-357,-468,-3.06787,3.22742,0,0,0,0,0,0,0,-1,867,1492,-3.06784,-3.2274
-350,-468,-3.18658,4.12659,0,0,0,0,0,0,0,-1,874,1492,-3.18659,-4.12658
-343,-468,0,0,0,0,0,0,0,0,0,-1,881,1492,0,0
-336,-468,0,0,0,0,0,0,0,0,0,-1,888,1492,0,0
-329,-468,0,0,0,0,0,0,0,0,0,-1,895,1492,0,0
-322,-468,0,0,0,0,0,0,0,0,0,-1,902,1492,0,0
-315,-468,0,0,0,0,0,0,0,0,0,-1,909,1492,0,0
-308,-468,0,0,0,0,0,0,0,0,0,-1,916,1492,0,0
-301,-468,0,0,0,0,0,0,0,0,0,-1,923,1492,0,0
-294,-468,0,0,0,0,0,0,0,0,0,-1,930,1492,0,0
-287,-468,0,0,0,0,0,0,0,0,0,-1,937,1492,0,0
-280,-468,0,0,0,0,0,0,0,0,0,-1,944,1492,0,0
-273,-468,0,0,0,0,0,0,0,0,0,-1,951,1492,0,0
-266,-468,0,0,0,0,0,0,0,0,0,-1,958,1492,0,0
-259,-468,0,0,0,0,0,0,0,0,0,-1,965,1492,0,0
-252,-468,0,0,0,0,0,0,0,0,0,-1,972,1492,0,0
-245,-468,0,0,0,0,0,0,0,0,0,-1,979,1492,0,0
-238,-468,0,0,0,0,0,0,0,0,0,-1,986,1492,0,0
-231,-468,0,0,0,0,0,0,0,0,0,-1,993,1492,0,0
-224,-468,0,0,0,0,0,0,0,0,0,-1,1000,1492,0,0
-217,-468,0,0,0,0,0,0,0,0,0,-1,1007,1492,0,0
-210,-468,0,0,0,0,0,0,0,0,0,-1,1014,1492,0,0
-203,-468,0,0,0,0,0,0,0,0,0,-1,1021,1492,0,0
-196,-468,0,0,0,0,0,0,0,0,0,-1,1028,1492,0,0
-189,-468,0,0,0,0,0,0,0,0,0,-1,1035,1492,0,0
-182,-468,0,0,0,0,0,0,0,0,0,-1,1042,1492,0,0
-175,-468,0,0,0,0,0,0,0,0,0,-1,1049,1492,0,0
-168,-468,0,0,0,0,0,0,0,0,0,-1,1056,1492,0,0
-161,-468,0,0,0,0,0,0,0,0,0,-1,1063,1492,0,0
-154,-468,0,0,0,0,0,0,0,0,0,-1,1070,1492,0,0
-147,-468,0,0,0,0,0,0,0,0,0,-1,1077,1492,0,0
-140,-468,0,0,0,0,0,0,0,0,0,-1,1084,1492,0,0
-133,-468,0,0,0,0,0,0,0,0,0,-1,1091,1492,0,0
-126,-468,0,0,0,0,0,0,0,0,0,-1,1098,1492,0,0
-119,-468,0,0,0,0,0,0,0,0,0,-1,1105,1492,0,0
-112,-468,0,0,0,0,0,0,0,0,0,-1,1112,1492,0,0
-105,-468,0,0,0,0,0,0,0,0,0,-1,1119,1492,0,0
-98,-468,0,0,0,0,0,0,0,0,0,-1,1126,1492,0,0
-91,-468,0,0,0,0,0,0,0,0,0,-1,1133,1492,0,0
-84,-468,0,0,0,0,0,0,0,0,0,-1,1140,1492,0,0
-77,-468,0,0,0,0,0,0,0,0,0,-1,1147,1492,0,0
-70,-468,0,0,0,0,0,0,0,0,0,-1,1154,1492,0,0
-63,-468,0,0,0,0,0,0,0,0,0,-1,1161,1492,0,0
-56,-468,0,0,0,0,0,0,0,0,0,-1,1168,1492,0,0
-49,-468,0,0,0,0,0,0,0,0,0,-1,1175,1492,0,0
-42,-468,0,0,0,0,0,0,0,0,0,-1,1182,1492,0,0
-35,-468,0,0,0,0,0,0,0,0,0,-1,1189,1492,0,0
-28,-468,0,0,0,0,0,0,0,0,0,-1,1196,1492,0,0
-21,-468,0,0,0,0,0,0,0,0,0,-1,1203,1492,0,0
-14,-468,0,0,0,0,0,0,0,0,0,-1,1210,1492,0,0
-7,-468,0,0,0,0,0,0,0,0,0,-1,1217,1492,0,0
0,-468,0,0,0,0,0,0,0,0,0,-1,1224,1492,0,0
7,-468,0,0,0,0,0,0,0,0,0,-1,1231,1492,0,0
14,-468,0,0,0,0,0,0,0,0,0,-1,1238,1492,0,0
21,-468,0,0,0,0,0,0,0,0,0,-1,1245,1492,0,0
28,-468,0,0,0,0,0,0,0,0,0,-1,1252,1492,0,0
35,-468,0,0,0,0,0,0,0,0,0,-1,1259,1492,0,0
42,-468,0,0,0,0,0,0,0,0,0,-1,1266,1492,0,0
49,-468,0,0,0,0,0,0,0,0,0,-1,1273,1492,0,0
56,-468,0,0,0,0,0,0,0,0,0,-1,1280,1492,0,0
63,-468,0,0,0,0,0,0,0,0,0,-1,1287,1492,0,0
70,-468,0,0,0,0,0,0,0,0,0,-1,1294,1492,0,0
77,-468,0,0,0,0,0,0,0,0,0,-1,1301,1492,0,0
84,-468,0,0,0,0,0,0,0,0,0,-1,1308,1492,0,0
91,-468,0,0,0,0,0,0,0,0,0,-1,1315,1492,0,0
98,-468,0,0,0,0,0,0,0,0,0,-1,1322,1492,0,0
105,-468,0,0,0,0,0,0,0,0,0,-1,1329,1492,0,0
112,-468,0,0,0,0,0,0,0,0,0,-1,1336,1492,0,0
119,-468,0,0,0,0,0,0,0,0,0,-1,1343,1492,0,0
126,-468,0,0,0,0,0,0,0,0,0,-1,1350,1492,0,0
133,-468,0,0,0,0,0,0,0,0,0,-1,1357,1492,0,0
140,-468,0,0,0,0,0,0,0,0,0,-1,1364,1492,0,0
147,-468,0,0,0,0,0,0,0,0,0,-1,1371,1492,0,0
154,-468,0,0,0,0,0,0,0,0,0,-1,1378,1492,0,0
161,-468,0,0,0,0,0,0,0,0,0,-1,1385,1492,0,0
168,-468,0,0,0,0,0,0,0,0,0,-1,1392,1492,0,0
175,-468,0,0,0,0,0,0,0,0,0,-1,1399,1492,0,0
182,-468,0,0,0,0,0,0,0,0,0,-1,1406,1492,0,0
189,-468,0,0,0,0,0,0,0,0,0,-1,1413,1492,0,0
196,-468,0,0,0,0,0,0,0,0,0,-1,1420,1492,0,0
203,-468,0,0,0,0,0,0,0,0,0,-1,1427,1492,0,0
210,-468,0,0,0,0,0,0,0,0,0,-1,1434,1492,0,0
217,-468,0,0,0,0,0,0,0,0,0,-1,1441,1492,0,0
224,-468,0,0,0,0,0,0,0,0,0,-1,1448,1492,0,0
231,-468,0,0,0,0,0,0,0,0,0,-1,1455,1492,0,0
238,-468,0,0,0,0,0,0,0,0,0,-1,1462,1492,0,0
245,-468,0,0,0,0,0,0,0,0,0,-1,1469,1492,0,0
252,-468,0,0,0,0,0,0,0,0,0,-1,1476,1492,0,0
259,-468,0,0,0,0,0,0,0,0,0,-1,1483,1492,0,0
266,-468,0,0,0,0,0,0,0,0,0,-1,1490,1492,0,0
273,-468,0,0,0,0,0,0,0,0,0,-1,1497,1492,0,0
280,-468,0,0,0,0,0,0,0,0,0,-1,1504,1492,0,0
287,-468,0,0,0,0,0,0,0,0,0,-1,1511,1492,0,0
294,-468,0,0,0,0,0,0,0,0,0,-1,1518,1492,0,0
301,-468,0,0,0,0,0,0,0,0,0,-1,1525,1492,0,0
308,-468,0,0,0,0,0,0,0,0,0,-1,1532,1492,0,0
315,-468,0,0,0,0,0,0,0,0,0,-1,1539,1492,0,0
322,-468,0,0,0,0,0,0,0,0,0,-1,1546,1492,0,0
329,-468,0,0,0,0,0,0,0,0,0,-1,1553,1492,0,0
336,-468,0,0,0,0,0,0,0,0,0,-1,1560,1492,0,0
343,-468,0,0,0,0,0,0,0,0,0,-1,1567,1492,0,0
350,-468,0,0,0,0,0,0,0,0,0,-1,1574,1492,0,0
357,-468,0,0,0,0,0,0,0,0,0,-1,1581,1492,0,0
364,-468,0,0,0,0,0,0,0,0,0,-1,1588,1492,0,0
371,-468,0,0,0,0,0,0,0,0,0,-1,1595,1492,0,0
378,-468,0,0,0,0,0,0,0,0,0,-1,1602,1492,0,0
385,-468,0,0,0,0,0,0,0,0,0,-1,1609,1492,0,0
392,-468,0,0,0,0,0,0,0,0,0,-1,1616,1492,0,0
399,-468,0,0,0,0,0,0,0,0,0,-1,1623,1492,0,0
406,-468,0,0,0,0,0,0,0,0,0,-1,1630,1492,0,0
413,-468,0,0,0,0,0,0,0,0,0,-1,1637,1492,0,0
420,-468,0,0,0,0,0,0,0,0,0,-1,1644,1492,0,0
427,-468,0,0,0,0,0,0,0,0,0,-1,1651,1492,0,0
434,-468,0,0,0,0,0,0,0,0,0,-1,1658,1492,0,0
441,-468,0,0,0,0,0,0,0,0,0,-1,1665,1492,0,0
448,-468,0,0,0,0,0,0,0,0,0,-1,1672,1492,0,0
455,-468,0,0,0,0,0,0,0,0,0,-1,1679,1492,0,0
462,-468,0,0,0,0,0,0,0,0,0,-1,1686,1492,0,0
469,-468,15.6879,1.2677,0,0,0,0,0,0,0,-1,1693,1492,15.6879,-1.26772
476,-468,14.9318,1.61865,0,0,0,0,0,0,0,-1,1700,1492,14.9318,-1.61869
483,-468,11.265,4.64795,0,0,0,0,0,0,0,-1,1707,1492,11.265,-4.64798
490,-468,12.1316,3.51624,0,0,0,0,0,0,0,-1,1714,1492,12.1316,-3.51628
497,-468,16.5355,3.14587,0,0,0,0,0,0,0,-1,1721,1492,16.5356,-3.14583
504,-468,15.0642,4.10437,0,0,0,0,0,0,0,-1,1728,1492,15.0643,-4.10431
511,-468,15.6877,9.4801,0,0,0,0,0,0,0,-1,1735,1492,15.6878,-9.48007
518,-468,13.759,11.0887,0,0,0,0,0,0,0,-1,1742,1492,13.759,-11.0887
525,-468,16.6531,14.2238,0,0,0,0,0,0,0,-1,1749,1492,16.653,-14.2237
532,-468,16.9696,15.9641,0,0,0,0,0,0,0,-1,1756,1492,16.9696,-15.9641
539,-468,21.5308,20.7551,0,0,0,0,0,0,0,-1,1763,1492,21.5308,-20.7551
546,-468,25.5796,25.0283,0,0,0,0,0,0,0,-1,1770,1492,25.5796,-25.0284
553,-468,31.8678,31.5677,0,0,0,0,0,0,0,-1,1777,1492,31.8678,-31.5678
560,-468,44.905,52.734,0,0,0,0,0,0,0,-1,1784,1492,44.905,-52.7341
567,-468,121.816,114.02,0,0,0,0,0,0,0,-1,1791,1492,121.816,-114.02
574,-468,110.437,114.191,0,0,0,0,0,0,0,-1,1798,1492,110.437,-114.191
581,-468,124.733,109.566,0,0,0,0,0,0,0,-1,1805,1492,124.733,-109.566
588,-468,123.694,105.836,-0.00726825,0.0162965,0.0420335,0.0481678,-0.0391395,0.922046,0.0504967,0.0211878,1812,1492,123.694,-105.836
595,-468,122.655,102.091,-0.00395561,0.0193446,0.0421601,0.0514346,-0.0360457,0.920199,0.0507666,0.0148266,1819,1492,122.655,-102.091
602,-468,121.706,98.4323,8.98588e-05,0.0226813,0.0418956,0.0547772,-0.032006,0.917075,0.050676,0.0151999,1826,1492,121.706,-98.4322
609,-468,120.788,94.8942,0.00473273,0.0263758,0.041323,0.0582707,-0.0271622,0.91346,0.0504029,0.0177449,1833,1492,120.788,-94.8942
616,-468,119.907,91.356,0.00979555,0.030327,0.0405364,0.0618773,-0.0217548,0.909414,0.050103,0.0169957,1840,1492,119.907,-91.3559
623,-468,119.121,87.9404,0.0152971,0.0346775,0.0395441,0.0657013,-0.0157268,0.905554,0.0498766,0.0207361,1847,1492,119.121,-87.9404
630,-468,118.339,84.5258,0.0208922,0.0393124,0.0385382,0.0697258,-0.00952117,0.902691,0.0499609,0.0256826,1854,1492,118.339,-84.5257
637,-468,117.517,81.0961,0,0,0,0,0,0,0,-1,1861,1492,117.517,-81.0961
644,-468,46.2697,41.3138,0,0,0,0,0,0,0,-1,1868,1492,46.2696,-41.3138
651,-468,33.613,23.1599,0,0,0,0,0,0,0,-1,1875,1492,33.613,-23.1599
658,-468,16.4969,10.0774,0,0,0,0,0,0,0,-1,1882,1492,16.497,-10.0774
665,-468,15.4673,8.59546,0,0,0,0,0,0,0,-1,1889,1492,15.4672,-8.59548
672,-468,9.96814,3.61133,0,0,0,0,0,0,0,-1,1896,1492,9.96817,-3.61139
679,-468,11.2191,1.91968,0,0,0,0,0,0,0,-1,1903,1492,11.2191,-1.91965
686,-468,11.9252,1.42285,0,0,0,0,0,0,0,-1,1910,1492,11.9252,-1.42291
693,-468,0,0,0,0,0,0,0,0,0,-1,1917,1492,0,0
700,-468,0,0,0,0,0,0,0,0,0,-1,1924,1492,0,0
707,-468,0,0,0,0,0,0,0,0,0,-1,1931,1492,0,0
714,-468,0,0,0,0,0,0,0,0,0,-1,1938,1492,0,0
721,-468,0,0,0,0,0,0,0,0,0,-1,1945,1492,0,0
728,-468,0,0,0,0,0,0,0,0,0,-1,1952,1492,0,0
735,-468,0,0,0,0,0,0,0,0,0,-1,1959,1492,0,0
742,-468,0,0,0,0,0,0,0,0,0,-1,1966,1492,0,0
749,-468,0,0,0,0,0,0,0,0,0,-1,1973,1492,0,0
756,-468,0,0,0,0,0,0,0,0,0,-1,1980,1492,0,0
763,-468,0,0,0,0,0,0,0,0,0,-1,1987,1492,0,0
770,-468,0,0,0,0,0,0,0,0,0,-1,1994,1492,0,0
777,-468,0,0,0,0,0,0,0,0,0,-1,2001,1492,0,0
784,-468,0,0,0,0,0,0,0,0,0,-1,2008,1492,0,0
791,-468,0,0,0,0,0,0,0,0,0,-1,2015,1492,0,0
798,-468,0,0,0,0,0,0,0,0,0,-1,2022,1492,0,0
805,-468,0,0,0,0,0,0,0,0,0,-1,2029,1492,0,0
812,-468,0,0,0,0,0,0,0,0,0,-1,2036,1492,0,0
-700,-475,0,0,0,0,0,0,0,0,0,-1,524,1499,0,0
-693,-475,0,0,0,0,0,0,0,0,0,-1,531,1499,0,0
-686,-475,0,0,0,0,0,0,0,0,0,-1,538,1499,0,0
-679,-475,0,0,0,0,0,0,0,0,0,-1,545,1499,0,0
-672,-475,0,0,0,0,0,0,0,0,0,-1,552,1499,0,0
-665,-475,0,0,0,0,0,0,0,0,0,-1,559,1499,0,0
-658,-475,0,0,0,0,0,0,0,0,0,-1,566,1499,0,0
-651,-475,0,0,0,0,0,0,0,0,0,-1,573,1499,0,0
-644,-475,0,0,0,0,0,0,0,0,0,-1,580,1499,0,0
-637,-475,0,0,0,0,0,0,0,0,0,-1,587,1499,0,0
-630,-475,0,0,0,0,0,0,0,0,0,-1,594,1499,0,0
-623,-475,0,0,0,0,0,0,0,0,0,-1,601,1499,0,0
-616,-475,0,0,0,0,0,0,0,0,0,-1,608,1499,0,0
-609,-475,0,0,0,0,0,0,0,0,0,-1,615,1499,0,0
-602,-475,0,0,0,0,0,0,0,0,0,-1,622,1499,0,0
-595,-475,0,0,0,0,0,0,0,0,0,-1,629,1499,0,0
-588,-475,0,0,0,0,0,0,0,0,0,-1,636,1499,0,0
-581,-475,0,0,0,0,0,0,0,0,0,-1,643,1499,0,0
-574,-475,0,0,0,0,0,0,0,0,0,-1,650,1499,0,0
-567,-475,0,0,0,0,0,0,0,0,0,-1,657,1499,0,0
-560,-475,-9.42731,9.29517,0,0,0,0,0,0,0,-1,664,1499,-9.42731,-9.29519
-553,-475,-8.15131,8.78369,0,0,0,0,0,0,0,-1,671,1499,-8.15131,-8.78367
-546,-475,-8.41254,8.20654,0,0,0,0,0,0,0,-1,678,1499,-8.41251,-8.20655
-539,-475,-4.7345,4.17419,0,0,0,0,0,0,0,-1,685,1499,-4.73449,-4.17418
-532,-475,-7.07379,4.25024,0,0,0,0,0,0,0,-1,692,1499,-7.07378,-4.2503
-525,-475,-6.13147,5.82166,0,0,0,0,0,0,0,-1,699,1499,-6.1315,-5.8216
-518,-475,-7.28784,9.31506,0,0,0,0,0,0,0,-1,706,1499,-7.28782,-9.315
-511,-475,-6.84851,12.4244,0,0,0,0,0,0,0,-1,713,1499,-6.84851,-12.4244
-504,-475,-8.80957,16.0863,0,0,0,0,0,0,0,-1,720,1499,-8.80954,-16.0862
-497,-475,-105.683,80.5685,0,0,0,0,0,0,0,-1,727,1499,-105.683,-80.5685
-490,-475,-106.379,84.3673,0.0323342,0.0516383,-0.0526515,0.0955152,-0.0115427,-0.876052,0.0678524,0.0430958,734,1499,-106.379,-84.3673
-483,-475,-107.188,88.0149,0.0285334,0.0474857,-0.0512005,0.0900796,-0.0140605,-0.876902,0.0652469,0.0177285,741,1499,-107.188,-88.0149
-476,-475,-108.095,91.5454,0.0243714,0.0435072,-0.0496242,0.0844775,-0.0165989,-0.880633,0.0625893,0.0211753,748,1499,-108.095,-91.5455
-469,-475,-108.65,95.2162,0.0202638,0.0397655,-0.0481253,0.0791178,-0.0190886,-0.885352,0.0601267,0.0398455,755,1499,-108.65,-95.2162
-462,-475,-109.74,98.9044,0,0,0,0,0,0,0,-1,762,1499,-109.74,-98.9044
-455,-475,-110.505,102.49,0.0131999,0.032697,-0.0452488,0.0692354,-0.0233386,-0.891498,0.0555941,0.0352535,769,1499,-110.505,-102.49
-448,-475,-111.457,106.253,0.0103826,0.0292755,-0.0440081,0.0648395,-0.0251814,-0.89112,0.0536285,0.0275765,776,1499,-111.457,-106.253
-441,-475,-112.574,109.99,0,0,0,0,0,0,0,-1,783,1499,-112.574,-109.99
-434,-475,-110.702,113.821,0,0,0,0,0,0,0,-1,790,1499,-110.702,-113.821
-427,-475,-74.6897,115.516,0,0,0,0,0,0,0,-1,797,1499,-74.6897,-115.516
-420,-475,-14.302,33.4558,0,0,0,0,0,0,0,-1,804,1499,-14.302,-33.4559
-413,-475,-6.46777,20.8481,0,0,0,0,0,0,0,-1,811,1499,-6.46776,-20.8481
-406,-475,-2.56116,12.4956,0,0,0,0,0,0,0,-1,818,1499,-2.56116,-12.4956
-399,-475,-1.39667,6.1615,0,0,0,0,0,0,0,-1,825,1499,-1.39664,-6.16155
-392,-475,0.217163,8.61389,0,0,0,0,0,0,0,-1,832,1499,0.217167,-8.6139
-385,-475,1.18372,2.73999,0,0,0,0,0,0,0,-1,839,1499,1.18372,-2.73995
-378,-475,1.31409,2.90149,0,0,0,0,0,0,0,-1,846,1499,1.31411,-2.90151
-371,-475,2.3476,3.31116,0,0,0,0,0,0,0,-1,853,1499,2.34761,-3.31121
-364,-475,1.04462,9.05823,0,0,0,0,0,0,0,-1,860,1499,1.04461,-9.05825
-357,-475,-0.262756,7.97205,0,0,0,0,0,0,0,-1,867,1499,-0.262784,-7.97205
-350,-475,-5.16473,-1.27881,0,0,0,0,0,0,0,-1,874,1499,-5.16474,1.27884
-343,-475,-5.76923,-0.530518,0,0,0,0,0,0,0,-1,881,1499,-5.76923,0.530526
-336,-475,0,0,0,0,0,0,0,0,0,-1,888,1499,0,0
-329,-475,0,0,0,0,0,0,0,0,0,-1,895,1499,0,0
-322,-475,0,0,0,0,0,0,0,0,0,-1,902,1499,0,0
-315,-475,0,0,0,0,0,0,0,0,0,-1,909,1499,0,0
-308,-475,0,0,0,0,0,0,0,0,0,-1,916,1499,0,0
-301,-475,0,0,0,0,0,0,0,0,0,-1,923,1499,0,0
-294,-475,0,0,0,0,0,0,0,0,0,-1,930,1499,0,0
-287,-475,0,0,0,0,0,0,0,0,0,-1,937,1499,0,0
-280,-475,0,0,0,0,0,0,0,0,0,-1,944,1499,0,0
-273,-475,0,0,0,0,0,0,0,0,0,-1,951,1499,0,0
-266,-475,0,0,0,0,0,0,0,0,0,-1,958,1499,0,0
-259,-475,0,0,0,0,0,0,0,0,0,-1,965,1499,0,0
-252,-475,0,0,0,0,0,0,0,0,0,-1,972,1499,0,0
-245,-475,0,0,0,0,0,0,0,0,0,-1,979,1499,0,0
-238,-475,0,0,0,0,0,0,0,0,0,-1,986,1499,0,0
-231,-475,0,0,0,0,0,0,0,0,0,-1,993,1499,0,0
-224,-475,0,0,0,0,0,0,0,0,0,-1,1000,1499,0,0
-217,-475,0,0,0,0,0,0,0,0,0,-1,1007,1499,0,0
-210,-475,0,0,0,0,0,0,0,0,0,-1,1014,1499,0,0
-203,-475,0,0,0,0,0,0,0,0,0,-1,1021,1499,0,0
-196,-475,0,0,0,0,0,0,0,0,0,-1,1028,1499,0,0
-189,-475,0,0,0,0,0,0,0,0,0,-1,1035,1499,0,0
-182,-475,0,0,0,0,0,0,0,0,0,-1,1042,1499,0,0
-175,-475,0,0,0,0,0,0,0,0,0,-1,1049,1499,0,0
-168,-475,0,0,0,0,0,0,0,0,0,-1,1056,1499,0,0
-161,-475,0,0,0,0,0,0,0,0,0,-1,1063,1499,0,0
-154,-475,0,0,0,0,0,0,0,0,0,-1,1070,1499,0,0
-147,-475,0,0,0,0,0,0,0,0,0,-1,1077,1499,0,0
-140,-475,0,0,0,0,0,0,0,0,0,-1,1084,1499,0,0
-133,-475,0,0,0,0,0,0,0,0,0,-1,1091,1499,0,0
-126,-475,0,0,0,0,0,0,0,0,0,-1,1098,1499,0,0
-119,-475,0,0,0,0,0,0,0,0,0,-1,1105,1499,0,0
-112,-475,0,0,0,0,0,0,0,0,0,-1,1112,1499,0,0
-105,-475,0,0,0,0,0,0,0,0,0,-1,1119,1499,0,0
-98,-475,0,0,0,0,0,0,0,0,0,-1,1126,1499,0,0
-91,-475,0,0,0,0,0,0,0,0,0,-1,1133,1499,0,0
-84,-475,0,0,0,0,0,0,0,0,0,-1,1140,1499,0,0
-77,-475,0,0,0,0,0,0,0,0,0,-1,1147,1499,0,0
-70,-475,0,0,0,0,0,0,0,0,0,-1,1154,1499,0,0
-63,-475,0,0,0,0,0,0,0,0,0,-1,1161,1499,0,0
-56,-475,0,0,0,0,0,0,0,0,0,-1,1168,1499,0,0
-49,-475,0,0,0,0,0,0,0,0,0,-1,1175,1499,0,0
-42,-475,0,0,0,0,0,0,0,0,0,-1,1182,1499,0,0
-35,-475,0,0,0,0,0,0,0,0,0,-1,1189,1499,0,0
-28,-475,0,0,0,0,0,0,0,0,0,-1,1196,1499,0,0
-21,-475,0,0,0,0,0,0,0,0,0,-1,1203,1499,0,0
-14,-475,0,0,0,0,0,0,0,0,0,-1,1210,1499,0,0
-7,-475,0,0,0,0,0,0,0,0,0,-1,1217,1499,0,0
0,-475,0,0,0,0,0,0,0,0,0,-1,1224,1499,0,0
7,-475,0,0,0,0,0,0,0,0,0,-1,1231,1499,0,0
14,-475,0,0,0,0,0,0,0,0,0,-1,1238,1499,0,0
21,-475,0,0,0,0,0,0,0,0,0,-1,1245,1499,0,0
28,-475,0,0,0,0,0,0,0,0,0,-1,1252,1499,0,0
35,-475,0,0,0,0,0,0,0,0,0,-1,1259,1499,0,0
42,-475,0,0,0,0,0,0,0,0,0,-1,1266,1499,0,0
49,-475,0,0,0,0,0,0,0,0,0,-1,1273,1499,0,0
56,-475,0,0,0,0,0,0,0,0,0,-1,1280,1499,0,0
63,-475,0,0,0,0,0,0,0,0,0,-1,1287,1499,0,0
70,-475,0,0,0,0,0,0,0,0,0,-1,1294,1499,0,0
77,-475,0,0,0,0,0,0,0,0,0,-1,1301,1499,0,0
84,-475,0,0,0,0,0,0,0,0,0,-1,1308,1499,0,0
91,-475,0,0,0,0,0,0,0,0,0,-1,1315,1499,0,0
98,-475,0,0,0,0,0,0,0,0,0,-1,1322,1499,0,0
105,-475,0,0,0,0,0,0,0,0,0,-1,1329,1499,0,0
112,-475,0,0,0,0,0,0,0,0,0,-1,1336,1499,0,0
119,-475,0,0,0,0,0,0,0,0,0,-1,1343,1499,0,0
126,-475,0,0,0,0,0,0,0,0,0,-1,1350,1499,0,0
133,-475,0,0,0,0,0,0,0,0,0,-1,1357,1499,0,0
140,-475,0,0,0,0,0,0,0,0,0,-1,1364,1499,0,0
147,-475,0,0,0,0,0,0,0,0,0,-1,1371,1499,0,0
154,-475,0,0,0,0,0,0,0,0,0,-1,1378,1499,0,0
161,-475,0,0,0,0,0,0,0,0,0,-1,1385,1499,0,0
168,-475,0,0,0,0,0,0,0,0,0,-1,1392,1499,0,0
175,-475,0,0,0,0,0,0,0,0,0,-1,1399,1499,0,0
182,-475,0,0,0,0,0,0,0,0,0,-1,1406,1499,0,0
189,-475,0,0,0,0,0,0,0,0,0,-1,1413,1499,0,0
196,-475,0,0,0,0,0,0,0,0,0,-1,1420,1499,0,0
203,-475,0,0,0,0,0,0,0,0,0,-1,1427,1499,0,0
210,-475,0,0,0,0,0,0,0,0,0,-1,1434,1499,0,0
217,-475,0,0,0,0,0,0,0,0,0,-1,1441,1499,0,0
224,-475,0,0,0,0,0,0,0,0,0,-1,1448,1499,0,0
231,-475,0,0,0,0,0,0,0,0,0,-1,1455,1499,0,0
238,-475,0,0,0,0,0,0,0,0,0,-1,1462,1499,0,0
245,-475,0,0,0,0,0,0,0,0,0,-1,1469,1499,0,0
252,-475,0,0,0,0,0,0,0,0,0,-1,1476,1499,0,0
259,-475,0,0,0,0,0,0,0,0,0,-1,1483,1499,0,0
266,-475,0,0,0,0,0,0,0,0,0,-1,1490,1499,0,0
273,-475,0,0,0,0,0,0,0,0,0,-1,1497,1499,0,0
280,-475,0,0,0,0,0,0,0,0,0,-1,1504,1499,0,0
287,-475,0,0,0,0,0,0,0,0,0,-1,1511,1499,0,0
294,-475,0,0,0,0,0,0,0,0,0,-1,1518,1499,0,0
301,-475,0,0,0,0,0,0,0,0,0,-1,1525,1499,0,0
308,-475,0,0,0,0,0,0,0,0,0,-1,1532,1499,0,0
315,-475,0,0,0,0,0,0,0,0,0,-1,1539,1499,0,0
322,-475,0,0,0,0,0,0,0,0,0,-1,1546,1499,0,0
329,-475,0,0,0,0,0,0,0,0,0,-1,1553,1499,0,0
336,-475,0,0,0,0,0,0,0,0,0,-1,1560,1499,0,0
343,-475,0,0,0,0,0,0,0,0,0,-1,1567,1499,0,0
350,-475,0,0,0,0,0,0,0,0,0,-1,1574,1499,0,0
357,-475,0,0,0,0,0,0,0,0,0,-1,1581,1499,0,0
364,-475,0,0,0,0,0,0,0,0,0,-1,1588,1499,0,0
371,-475,0,0,0,0,0,0,0,0,0,-1,1595,1499,0,0
378,-475,0,0,0,0,0,0,0,0,0,-1,1602,1499,0,0
385,-475,0,0,0,0,0,0,0,0,0,-1,1609,1499,0,0
392,-475,0,0,0,0,0,0,0,0,0,-1,1616,1499,0,0
399,-475,0,0,0,0,0,0,0,0,0,-1,1623,1499,0,0
406,-475,0,0,0,0,0,0,0,0,0,-1,1630,1499,0,0
413,-475,0,0,0,0,0,0,0,0,0,-1,1637,1499,0,0
420,-475,0,0,0,0,0,0,0,0,0,-1,1644,1499,0,0
427,-475,0,0,0,0,0,0,0,0,0,-1,1651,1499,0,0
434,-475,0,0,0,0,0,0,0,0,0,-1,1658,1499,0,0
441,-475,0,0,0,0,0,0,0,0,0,-1,1665,1499,0,0
448,-475,0,0,0,0,0,0,0,0,0,-1,1672,1499,0,0
455,-475,0,0,0,0,0,0,0,0,0,-1,1679,1499,0,0
462,-475,12.6372,0.275391,0,0,0,0,0,0,0,-1,1686,1499,12.6372,-0.27536
469,-475,15.6437,2.28296,0,0,0,0,0,0,0,-1,1693,1499,15.6437,-2.28293
476,-475,15.3302,2.71436,0,0,0,0,0,0,0,-1,1700,1499,15.3303,-2.7143
483,-475,10.7461,5.91479,0,0,0,0,0,0,0,-1,1707,1499,10.7461,-5.91476
490,-475,11.9305,4.4364,0,0,0,0,0,0,0,-1,1714,1499,11.9305,-4.43644
497,-475,15.3451,4.3479,0,0,0,0,0,0,0,-1,1721,1499,15.3451,-4.34789
504,-475,16.9646,7.71265,0,0,0,0,0,0,0,-1,1728,1499,16.9646,-7.71265
511,-475,18.941,12.7572,0,0,0,0,0,0,0,-1,1735,1499,18.941,-12.7572
518,-475,17.0021,13.8564,0,0,0,0,0,0,0,-1,1742,1499,17.0021,-13.8564
525,-475,17.5637,15.2103,0,0,0,0,0,0,0,-1,1749,1499,17.5637,-15.2103
532,-475,20.8623,20.8413,0,0,0,0,0,0,0,-1,1756,1499,20.8623,-20.8413
539,-475,20.5494,20.8519,0,0,0,0,0,0,0,-1,1763,1499,20.5494,-20.852
546,-475,20.4524,19.8799,0,0,0,0,0,0,0,-1,1770,1499,20.4524,-19.8798
553,-475,34.2676,37.0474,0,0,0,0,0,0,0,-1,1777,1499,34.2675,-37.0474
560,-475,118.788,121.08,0,0,0,0,0,0,0,-1,1784,1499,118.789,-121.08
567,-475,117.597,116.495,0,0,0,0,0,0,0,-1,1791,1499,117.597,-116.495
574,-475,121.834,113.077,0,0,0,0,0,0,0,-1,1798,1499,121.834,-113.077
581,-475,120.602,110.38,0,0,0,0,0,0,0,-1,1805,1499,120.602,-110.38
588,-475,119.551,106.971,0.000505454,0.018101,0.0411755,0.0514082,-0.0328017,0.890648,0.0490126,0.0260947,1812,1499,119.551,-106.971
595,-475,118.571,103.231,0.00329554,0.0214003,0.0415277,0.0548507,-0.0301549,0.892712,0.0497636,0.0185331,1819,1499,118.571,-103.231
602,-475,117.61,99.6108,0.00673933,0.024915,0.041511,0.0583213,-0.0266669,0.893161,0.0501896,0.0185088,1826,1499,117.61,-99.6108
609,-475,116.64,96.0405,0.0107711,0.0286827,0.0411912,0.0618805,-0.0224266,0.892443,0.0504201,0.0175745,1833,1499,116.64,-96.0405
616,-475,115.773,92.4491,0.0152928,0.0326552,0.0406187,0.06551,-0.017562,0.890676,0.0505546,0.0192385,1840,1499,115.773,-92.4491
623,-475,114.976,88.8348,0.0204484,0.0370551,0.0397932,0.0694021,-0.0118985,0.888254,0.0507018,0.0298408,1847,1499,114.976,-88.8349
630,-475,114.33,85.2081,0,0,0,0,0,0,0,-1,1854,1499,114.33,-85.2081
637,-475,47.9917,48.1105,0,0,0,0,0,0,0,-1,1861,1499,47.9917,-48.1105
644,-475,32.8739,24.0623,0,0,0,0,0,0,0,-1,1868,1499,32.8739,-24.0622
651,-475,29.886,19.2421,0,0,0,0,0,0,0,-1,1875,1499,29.886,-19.242
658,-475,14.6708,8.80322,0,0,0,0,0,0,0,-1,1882,1499,14.6708,-8.8032
665,-475,9.33435,5.43335,0,0,0,0,0,0,0,-1,1889,1499,9.33439,-5.43332
672,-475,9.38635,1.10474,0,0,0,0,0,0,0,-1,1896,1499,9.38629,-1.10475
679,-475,12.2594,1.31079,0,0,0,0,0,0,0,-1,1903,1499,12.2594,-1.31077
686,-475,0,0,0,0,0,0,0,0,0,-1,1910,1499,0,0
693,-475,0,0,0,0,0,0,0,0,0,-1,1917,1499,0,0
700,-475,0,0,0,0,0,0,0,0,0,-1,1924,1499,0,0
707,-475,0,0,0,0,0,0,0,0,0,-1,1931,1499,0,0
714,-475,0,0,0,0,0,0,0,0,0,-1,1938,1499,0,0
721,-475,0,0,0,0,0,0,0,0,0,-1,1945,1499,0,0
728,-475,0,0,0,0,0,0,0,0,0,-1,1952,1499,0,0
735,-475,0,0,0,0,0,0,0,0,0,-1,1959,1499,0,0
742,-475,0,0,0,0,0,0,0,0,0,-1,1966,1499,0,0
749,-475,0,0,0,0,0,0,0,0,0,-1,1973,1499,0,0
756,-475,0,0,0,0,0,0,0,0,0,-1,1980,1499,0,0
763,-475,0,0,0,0,0,0,0,0,0,-1,1987,1499,0,0
770,-475,0,0,0,0,0,0,0,0,0,-1,1994,1499,0,0
777,-475,0,0,0,0,0,0,0,0,0,-1,2001,1499,0,0
784,-475,0,0,0,0,0,0,0,0,0,-1,2008,1499,0,0
791,-475,0,0,0,0,0,0,0,0,0,-1,2015,1499,0,0
798,-475,0,0,0,0,0,0,0,0,0,-1,2022,1499,0,0
805,-475,0,0,0,0,0,0,0,0,0,-1,2029,1499,0,0
812,-475,0,0,0,0,0,0,0,0,0,-1,2036,1499,0,0
-700,-482,0,0,0,0,0,0,0,0,0,-1,524,1506,0,0
-693,-482,0,0,0,0,0,0,0,0,0,-1,531,1506,0,0
-686,-482,0,0,0,0,0,0,0,0,0,-1,538,1506,0,0
-679,-482,0,0,0,0,0,0,0,0,0,-1,545,1506,0,0
-672,-482,0,0,0,0,0,0,0,0,0,-1,552,1506,0,0
-665,-482,0,0,0,0,0,0,0,0,0,-1,559,1506,0,0
-658,-482,0,0,0,0,0,0,0,0,0,-1,566,1506,0,0
-651,-482,0,0,0,0,0,0,0,0,0,-1,573,1506,0,0
-644,-482,0,0,0,0,0,0,0,0,0,-1,580,1506,0,0
-637,-482,0,0,0,0,0,0,0,0,0,-1,587,1506,0,0
-630,-482,0,0,0,0,0,0,0,0,0,-1,594,1506,0,0
-623,-482,0,0,0,0,0,0,0,0,0,-1,601,1506,0,0
-616,-482,0,0,0,0,0,0,0,0,0,-1,608,1506,0,0
-609,-482,0,0,0,0,0,0,0,0,0,-1,615,1506,0,0
-602,-482,0,0,0,0,0,0,0,0,0,-1,622,1506,0,0
-595,-482,0,0,0,0,0,0,0,0,0,-1,629,1506,0,0
-588,-482,0,0,0,0,0,0,0,0,0,-1,636,1506,0,0
-581,-482,0,0,0,0,0,0,0,0,0,-1,643,1506,0,0
-574,-482,0,0,0,0,0,0,0,0,0,-1,650,1506,0,0
-567,-482,0,0,0,0,0,0,0,0,0,-1,657,1506,0,0
-560,-482,0,0,0,0,0,0,0,0,0,-1,664,1506,0,0
-553,-482,-9.06055,9.34314,0,0,0,0,0,0,0,-1,671,1506,-9.06056,-9.34312
-546,-482,-4.08624,8.34241,0,0,0,0,0,0,0,-1,678,1506,-4.08624,-8.3424
-539,-482,-4.29877,2.73499,0,0,0,0,0,0,0,-1,685,1506,-4.29879,-2.73494
-532,-482,-3.63611,4.23987,0,0,0,0,0,0,0,-1,692,1506,-3.63609,-4.23983
-525,-482,-6.19116,5.24927,0,0,0,0,0,0,0,-1,699,1506,-6.19117,-5.24927
-518,-482,-5.92957,6.39807,0,0,0,0,0,0,0,-1,706,1506,-5.92958,-6.39806
-511,-482,-7.74634,11.9137,0,0,0,0,0,0,0,-1,713,1506,-7.74633,-11.9137
-504,-482,-6.42358,13.4211,0,0,0,0,0,0,0,-1,720,1506,-6.42356,-13.4212
-497,-482,-8.86163,17.7108,0,0,0,0,0,0,0,-1,727,1506,-8.86163,-17.7109
-490,-482,-102.169,85.2622,0,0,0,0,0,0,0,-1,734,1506,-102.169,-85.2622
-483,-482,-103.022,89.0029,0.0351567,0.0500783,-0.0539846,0.0971152,-0.0118803,-0.854065,0.0690451,0.0254421,741,1506,-103.022,-89.0029
-476,-482,-103.834,92.6627,0.0308759,0.0456194,-0.0526082,0.0913699,-0.0148746,-0.855008,0.0664289,0.0200522,748,1506,-103.834,-92.6627
-469,-482,-104.243,96.2885,0.02659,0.0413165,-0.0511112,0.0855921,-0.0176857,-0.856938,0.0637793,0.0411363,755,1506,-104.243,-96.2885
-462,-482,-104.716,99.943,0.0228413,0.037237,-0.0498223,0.0803787,-0.0203004,-0.857137,0.0614801,0.046992,762,1506,-104.716,-99.943
-455,-482,-106.196,103.556,0.0196946,0.033294,-0.0486448,0.075612,-0.0226234,-0.85484,0.0594029,0.0242331,769,1506,-106.196,-103.556
-448,-482,-107.218,107.466,0.0170523,0.02934,-0.0475733,0.0711645,-0.0247722,-0.849615,0.0575073,0.0208481,776,1506,-107.218,-107.466
-441,-482,-108.272,111.305,0.0146189,0.025349,-0.0467011,0.0669922,-0.0270243,-0.842588,0.0558915,0.0278127,783,1506,-108.272,-111.305
-434,-482,-109.299,115.176,0,0,0,0,0,0,0,-1,790,1506,-109.299,-115.176
-427,-482,-105.281,118.589,0,0,0,0,0,0,0,-1,797,1506,-105.281,-118.589
-420,-482,-77.7971,122.158,0,0,0,0,0,0,0,-1,804,1506,-77.7971,-122.158
-413,-482,-6.56415,22.3163,0,0,0,0,0,0,0,-1,811,1506,-6.56417,-22.3163
-406,-482,-2.51373,12.7556,0,0,0,0,0,0,0,-1,818,1506,-2.51376,-12.7556
-399,-482,-1.3822,9.22595,0,0,0,0,0,0,0,-1,825,1506,-1.38221,-9.22598
-392,-482,-1.06836,9.22729,0,0,0,0,0,0,0,-1,832,1506,-1.06835,-9.2273
-385,-482,0.0647583,8.90649,0,0,0,0,0,0,0,-1,839,1506,0.0647778,-8.90644
-378,-482,0.215698,5.96948,0,0,0,0,0,0,0,-1,846,1506,0.215681,-5.9695
-371,-482,-0.10907,8.10437,0,0,0,0,0,0,0,-1,853,1506,-0.109063,-8.10433
-364,-482,-0.154968,10.5032,0,0,0,0,0,0,0,-1,860,1506,-0.154976,-10.5032
-357,-482,2.14807,4.60144,0,0,0,0,0,0,0,-1,867,1506,2.14807,-4.60144
-350,-482,-7.5813,-1.45935,0,0,0,0,0,0,0,-1,874,1506,-7.58133,1.45937
-343,-482,-5.80902,1.81226,0,0,0,0,0,0,0,-1,881,1506,-5.80903,-1.81221
-336,-482,2.52826,-0.390503,0,0,0,0,0,0,0,-1,888,1506,2.52826,0.390456
-329,-482,0,0,0,0,0,0,0,0,0,-1,895,1506,0,0
-322,-482,0,0,0,0,0,0,0,0,0,-1,902,1506,0,0
-315,-482,0,0,0,0,0,0,0,0,0,-1,909,1506,0,0
-308,-482,0,0,0,0,0,0,0,0,0,-1,916,1506,0,0
-301,-482,0,0,0,0,0,0,0,0,0,-1,923,1506,0,0
-294,-482,0,0,0,0,0,0,0,0,0,-1,930,1506,0,0
-287,-482,0,0,0,0,0,0,0,0,0,-1,937,1506,0,0
-280,-482,0,0,0,0,0,0,0,0,0,-1,944,1506,0,0
-273,-482,0,0,0,0,0,0,0,0,0,-1,951,1506,0,0
-266,-482,0,0,0,0,0,0,0,0,0,-1,958,1506,0,0
-259,-482,0,0,0,0,0,0,0,0,0,-1,965,1506,0,0
-252,-482,0,0,0,0,0,0,0,0,0,-1,972,1506,0,0
-245,-482,0,0,0,0,0,0,0,0,0,-1,979,1506,0,0
-238,-482,0,0,0,0,0,0,0,0,0,-1,986,1506,0,0
-231,-482,0,0,0,0,0,0,0,0,0,-1,993,1506,0,0
-224,-482,0,0,0,0,0,0,0,0,0,-1,1000,1506,0,0
-217,-482,0,0,0,0,0,0,0,0,0,-1,1007,1506,0,0
-210,-482,0,0,0,0,0,0,0,0,0,-1,1014,1506,0,0
-203,-482,0,0,0,0,0,0,0,0,0,-1,1021,1506,0,0
-196,-482,0,0,0,0,0,0,0,0,0,-1,1028,1506,0,0
-189,-482,0,0,0,0,0,0,0,0,0,-1,1035,1506,0,0
-182,-482,0,0,0,0,0,0,0,0,0,-1,1042,1506,0,0
-175,-482,0,0,0,0,0,0,0,0,0,-1,1049,1506,0,0
-168,-482,0,0,0,0,0,0,0,0,0,-1,1056,1506,0,0
-161,-482,0,0,0,0,0,0,0,0,0,-1,1063,1506,0,0
-154,-482,0,0,0,0,0,0,0,0,0,-1,1070,1506,0,0
-147,-482,0,0,0,0,0,0,0,0,0,-1,1077,1506,0,0
-140,-482,0,0,0,0,0,0,0,0,0,-1,1084,1506,0,0
-133,-482,0,0,0,0,0,0,0,0,0,-1,1091,1506,0,0
-126,-482,0,0,0,0,0,0,0,0,0,-1,1098,1506,0,0
-119,-482,0,0,0,0,0,0,0,0,0,-1,1105,1506,0,0
-112,-482,0,0,0,0,0,0,0,0,0,-1,1112,1506,0,0
-105,-482,0,0,0,0,0,0,0,0,0,-1,1119,1506,0,0
-98,-482,0,0,0,0,0,0,0,0,0,-1,1126,1506,0,0
-91,-482,0,0,0,0,0,0,0,0,0,-1,1133,1506,0,0
-84,-482,0,0,0,0,0,0,0,0,0,-1,1140,1506,0,0
-77,-482,0,0,0,0,0,0,0,0,0,-1,1147,1506,0,0
-70,-482,0,0,0,0,0,0,0,0,0,-1,1154,1506,0,0
-63,-482,0,0,0,0,0,0,0,0,0,-1,1161,1506,0,0
-56,-482,0,0,0,0,0,0,0,0,0,-1,1168,1506,0,0
-49,-482,0,0,0,0,0,0,0,0,0,-1,1175,1506,0,0
-42,-482,0,0,0,0,0,0,0,0,0,-1,1182,1506,0,0
-35,-482,0,0,0,0,0,0,0,0,0,-1,1189,1506,0,0
-28,-482,0,0,0,0,0,0,0,0,0,-1,1196,1506,0,0
-21,-482,0,0,0,0,0,0,0,0,0,-1,1203,1506,0,0
-14,-482,0,0,0,0,0,0,0,0,0,-1,1210,1506,0,0
-7,-482,0,0,0,0,0,0,0,0,0,-1,1217,1506,0,0
0,-482,0,0,0,0,0,0,0,0,0,-1,1224,1506,0,0
7,-482,0,0,0,0,0,0,0,0,0,-1,1231,1506,0,0
14,-482,0,0,0,0,0,0,0,0,0,-1,1238,1506,0,0
21,-482,0,0,0,0,0,0,0,0,0,-1,1245,1506,0,0
28,-482,0,0,0,0,0,0,0,0,0,-1,1252,1506,0,0
35,-482,0,0,0,0,0,0,0,0,0,-1,1259,1506,0,0
42,-482,0,0,0,0,0,0,0,0,0,-1,1266,1506,0,0
49,-482,0,0,0,0,0,0,0,0,0,-1,1273,1506,0,0
56,-482,0,0,0,0,0,0,0,0,0,-1,1280,1506,0,0
63,-482,0,0,0,0,0,0,0,0,0,-1,1287,1506,0,0
70,-482,0,0,0,0,0,0,0,0,0,-1,1294,1506,0,0
77,-482,0,0,0,0,0,0,0,0,0,-1,1301,1506,0,0
84,-482,0,0,0,0,0,0,0,0,0,-1,1308,1506,0,0
91,-482,0,0,0,0,0,0,0,0,0,-1,1315,1506,0,0
98,-482,0,0,0,0,0,0,0,0,0,-1,1322,1506,0,0
105,-482,0,0,0,0,0,0,0,0,0,-1,1329,1506,0,0
112,-482,0,0,0,0,0,0,0,0,0,-1,1336,1506,0,0
119,-482,0,0,0,0,0,0,0,0,0,-1,1343,1506,0,0
126,-482,0,0,0,0,0,0,0,0,0,-1,1350,1506,0,0
133,-482,0,0,0,0,0,0,0,0,0,-1,1357,1506,0,0
140,-482,0,0,0,0,0,0,0,0,0,-1,1364,1506,0,0
147,-482,0,0,0,0,0,0,0,0,0,-1,1371,1506,0,0
154,-482,0,0,0,0,0,0,0,0,0,-1,1378,1506,0,0
161,-482,0,0,0,0,0,0,0,0,0,-1,1385,1506,0,0
168,-482,0,0,0,0,0,0,0,0,0,-1,1392,1506,0,0
175,-482,0,0,0,0,0,0,0,0,0,-1,1399,1506,0,0
182,-482,0,0,0,0,0,0,0,0,0,-1,1406,1506,0,0
189,-482,0,0,0,0,0,0,0,0,0,-1,1413,1506,0,0
196,-482,0,0,0,0,0,0,0,0,0,-1,1420,1506,0,0
203,-482,0,0,0,0,0,0,0,0,0,-1,1427,1506,0,0
210,-482,0,0,0,0,0,0,0,0,0,-1,1434,1506,0,0
217,-482,0,0,0,0,0,0,0,0,0,-1,1441,1506,0,0
224,-482,0,0,0,0,0,0,0,0,0,-1,1448,1506,0,0
231,-482,0,0,0,0,0,0,0,0,0,-1,1455,1506,0,0
238,-482,0,0,0,0,0,0,0,0,0,-1,1462,1506,0,0
245,-482,0,0,0,0,0,0,0,0,0,-1,1469,1506,0,0
252,-482,0,0,0,0,0,0,0,0,0,-1,1476,1506,0,0
259,-482,0,0,0,0,0,0,0,0,0,-1,1483,1506,0,0
266,-482,0,0,0,0,0,0,0,0,0,-1,1490,1506,0,0
273,-482,0,0,0,0,0,0,0,0,0,-1,1497,1506,0,0
280,-482,0,0,0,0,0,0,0,0,0,-1,1504,1506,0,0
287,-482,0,0,0,0,0,0,0,0,0,-1,1511,1506,0,0
294,-482,0,0,0,0,0,0,0,0,0,-1,1518,1506,0,0
301,-482,0,0,0,0,0,0,0,0,0,-1,1525,1506,0,0
308,-482,0,0,0,0,0,0,0,0,0,-1,1532,1506,0,0
315,-482,0,0,0,0,0,0,0,0,0,-1,1539,1506,0,0
322,-482,0,0,0,0,0,0,0,0,0,-1,1546,1506,0,0
329,-482,0,0,0,0,0,0,0,0,0,-1,1553,1506,0,0
336,-482,0,0,0,0,0,0,0,0,0,-1,1560,1506,0,0
343,-482,0,0,0,0,0,0,0,0,0,-1,1567,1506,0,0
350,-482,0,0,0,0,0,0,0,0,0,-1,1574,1506,0,0
357,-482,0,0,0,0,0,0,0,0,0,-1,1581,1506,0,0
364,-482,0,0,0,0,0,0,0,0,0,-1,1588,1506,0,0
371,-482,0,0,0,0,0,0,0,0,0,-1,1595,1506,0,0
378,-482,0,0,0,0,0,0,0,0,0,-1,1602,1506,0,0
385,-482,0,0,0,0,0,0,0,0,0,-1,1609,1506,0,0
392,-482,0,0,0,0,0,0,0,0,0,-1,1616,1506,0,0
399,-482,0,0,0,0,0,0,0,0,0,-1,1623,1506,0,0
406,-482,0,0,0,0,0,0,0,0,0,-1,1630,1506,0,0
413,-482,0,0,0,0,0,0,0,0,0,-1,1637,1506,0,0
420,-482,0,0,0,0,0,0,0,0,0,-1,1644,1506,0,0
427,-482,0,0,0,0,0,0,0,0,0,-1,1651,1506,0,0
434,-482,0,0,0,0,0,0,0,0,0,-1,1658,1506,0,0
441,-482,0,0,0,0,0,0,0,0,0,-1,1665,1506,0,0
448,-482,4.85205,1.55896,0,0,0,0,0,0,0,-1,1672,1506,4.85201,-1.5589
455,-482,12.4122,1.09729,0,0,0,0,0,0,0,-1,1679,1506,12.4122,-1.09734
462,-482,15.0673,3.13135,0,0,0,0,0,0,0,-1,1686,1506,15.0672,-3.13134
469,-482,15.3793,3.46301,0,0,0,0,0,0,0,-1,1693,1506,15.3793,-3.46307
476,-482,8.69751,9.18738,0,0,0,0,0,0,0,-1,1700,1506,8.69753,-9.18739
483,-482,10.0902,7.17432,0,0,0,0,0,0,0,-1,1707,1506,10.0902,-7.1743
490,-482,11.6289,5.4928,0,0,0,0,0,0,0,-1,1714,1506,11.6289,-5.49283
497,-482,15.9539,7.40222,0,0,0,0,0,0,0,-1,1721,1506,15.9538,-7.40219
504,-482,20.4233,12.006,0,0,0,0,0,0,0,-1,1728,1506,20.4233,-12.006
511,-482,18.4937,12.9175,0,0,0,0,0,0,0,-1,1735,1506,18.4936,-12.9174
518,-482,16.6002,13.9679,0,0,0,0,0,0,0,-1,1742,1506,16.6003,-13.9679
525,-482,18.495,15.9618,0,0,0,0,0,0,0,-1,1749,1506,18.495,-15.9618
532,-482,19.9375,21.0775,0,0,0,0,0,0,0,-1,1756,1506,19.9375,-21.0775
539,-482,20.2291,20.5577,0,0,0,0,0,0,0,-1,1763,1506,20.2291,-20.5578
546,-482,50.8713,71.6311,0,0,0,0,0,0,0,-1,1770,1506,50.8714,-71.6312
553,-482,85.2159,128.813,0,0,0,0,0,0,0,-1,1777,1506,85.2159,-128.813
560,-482,120.326,123.543,0,0,0,0,0,0,0,-1,1784,1506,120.326,-123.543
567,-482,119.04,119.511,0,0,0,0,0,0,0,-1,1791,1506,119.04,-119.511
574,-482,117.606,115.177,0,0,0,0,0,0,0,-1,1798,1506,117.606,-115.177
581,-482,116.319,111.857,0,0,0,0,0,0,0,-1,1805,1506,116.319,-111.857
588,-482,115.394,108.17,0.00686863,0.0200835,0.041051,0.0550554,-0.0281033,0.865192,0.048845,0.0244826,1812,1506,115.394,-108.17
595,-482,114.414,104.391,0.00928858,0.0234868,0.0415483,0.0585381,-0.0257627,0.870013,0.0498822,0.0265147,1819,1506,114.414,-104.391
602,-482,113.448,100.753,0.0123109,0.0270498,0.0417098,0.0620362,-0.0226755,0.872838,0.0506376,0.0263528,1826,1506,113.448,-100.753
609,-482,112.463,97.1655,0.0159108,0.0307335,0.0415825,0.06556,-0.0189157,0.873588,0.0511904,0.020688,1833,1506,112.463,-97.1655
616,-482,111.548,93.5856,0.0200732,0.0346501,0.0411164,0.0691191,-0.0143958,0.873119,0.0515524,0.0202865,1840,1506,111.548,-93.5856
623,-482,110.691,89.9536,0,0,0,0,0,0,0,-1,1847,1506,110.691,-89.9536
630,-482,48.3544,54.5571,0,0,0,0,0,0,0,-1,1854,1506,48.3544,-54.5571
637,-482,32.1249,25.1031,0,0,0,0,0,0,0,-1,1861,1506,32.1249,-25.1031
644,-482,29.0146,20.1443,0,0,0,0,0,0,0,-1,1868,1506,29.0147,-20.1442
651,-482,4.03845,7.05273,0,0,0,0,0,0,0,-1,1875,1506,4.03843,-7.05279
658,-482,10.0278,5.87903,0,0,0,0,0,0,0,-1,1882,1506,10.0279,-5.87902
665,-482,8.15198,3.22229,0,0,0,0,0,0,0,-1,1889,1506,8.15199,-3.22232
672,-482,9.87415,1.3147,0,0,0,0,0,0,0,-1,1896,1506,9.87416,-1.31473
679,-482,0,0,0,0,0,0,0,0,0,-1,1903,1506,0,0
686,-482,0,0,0,0,0,0,0,0,0,-1,1910,1506,0,0
693,-482,0,0,0,0,0,0,0,0,0,-1,1917,1506,0,0
700,-482,0,0,0,0,0,0,0,0,0,-1,1924,1506,0,0
707,-482,0,0,0,0,0,0,0,0,0,-1,1931,1506,0,0
714,-482,0,0,0,0,0,0,0,0,0,-1,1938,1506,0,0
721,-482,0,0,0,0,0,0,0,0,0,-1,1945,1506,0,0
728,-482,0,0,0,0,0,0,0,0,0,-1,1952,1506,0,0
735,-482,0,0,0,0,0,0,0,0,0,-1,1959,1506,0,0
742,-482,0,0,0,0,0,0,0,0,0,-1,1966,1506,0,0
749,-482,0,0,0,0,0,0,0,0,0,-1,1973,1506,0,0
756,-482,0,0,0,0,0,0,0,0,0,-1,1980,1506,0,0
763,-482,0,0,0,0,0,0,0,0,0,-1,1987,1506,0,0
770,-482,0,0,0,0,0,0,0,0,0,-1,1994,1506,0,0
777,-482,0,0,0,0,0,0,0,0,0,-1,2001,1506,0,0
784,-482,0,0,0,0,0,0,0,0,0,-1,2008,1506,0,0
791,-482,0,0,0,0,0,0,0,0,0,-1,2015,1506,0,0
798,-482,0,0,0,0,0,0,0,0,0,-1,2022,1506,0,0
805,-482,0,0,0,0,0,0,0,0,0,-1,2029,1506,0,0
812,-482,0,0,0,0,0,0,0,0,0,-1,2036,1506,0,0
-700,-489,0,0,0,0,0,0,0,0,0,-1,524,1513,0,0
-693,-489,0,0,0,0,0,0,0,0,0,-1,531,1513,0,0
-686,-489,0,0,0,0,0,0,0,0,0,-1,538,1513,0,0
-679,-489,0,0,0,0,0,0,0,0,0,-1,545,1513,0,0
-672,-489,0,0,0,0,0,0,0,0,0,-1,552,1513,0,0
-665,-489,0,0,0,0,0,0,0,0,0,-1,559,1513,0,0
-658,-489,0,0,0,0,0,0,0,0,0,-1,566,1513,0,0
-651,-489,0,0,0,0,0,0,0,0,0,-1,573,1513,0,0
-644,-489,0,0,0,0,0,0,0,0,0,-1,580,1513,0,0
-637,-489,0,0,0,0,0,0,0,0,0,-1,587,1513,0,0
-630,-489,0,0,0,0,0,0,0,0,0,-1,594,1513,0,0
-623,-489,0,0,0,0,0,0,0,0,0,-1,601,1513,0,0
-616,-489,0,0,0,0,0,0,0,0,0,-1,608,1513,0,0
-609,-489,0,0,0,0,0,0,0,0,0,-1,615,1513,0,0
-602,-489,0,0,0,0,0,0,0,0,0,-1,622,1513,0,0
-595,-489,0,0,0,0,0,0,0,0,0,-1,629,1513,0,0
-588,-489,0,0,0,0,0,0,0,0,0,-1,636,1513,0,0
-581,-489,0,0,0,0,0,0,0,0,0,-1,643,1513,0,0
-574,-489,0,0,0,0,0,0,0,0,0,-1,650,1513,0,0
-567,-489,0,0,0,0,0,0,0,0,0,-1,657,1513,0,0
-560,-489,0,0,0,0,0,0,0,0,0,-1,664,1513,0,0
-553,-489,-9.42206,8.5116,0,0,0,0,0,0,0,-1,671,1513,-9.42205,-8.51158
-546,-489,-7.80951,8.18506,0,0,0,0,0,0,0,-1,678,1513,-7.8095,-8.18503
-539,-489,-3.06879,2.82349,0,0,0,0,0,0,0,-1,685,1513,-3.06881,-2.82354
-532,-489,-3.14215,2.5835,0,0,0,0,0,0,0,-1,692,1513,-3.14213,-2.58353
-525,-489,-2.604,4.06274,0,0,0,0,0,0,0,-1,699,1513,-2.60399,-4.06274
-518,-489,-5.43774,7.48059,0,0,0,0,0,0,0,-1,706,1513,-5.43777,-7.48058
-511,-489,-7.52856,10.951,0,0,0,0,0,0,0,-1,713,1513,-7.52857,-10.951
-504,-489,-7.17352,12.8508,0,0,0,0,0,0,0,-1,720,1513,-7.17352,-12.8508
-497,-489,-5.51678,14.9254,0,0,0,0,0,0,0,-1,727,1513,-5.51681,-14.9254
-490,-489,-15.6675,29.208,0,0,0,0,0,0,0,-1,734,1513,-15.6675,-29.208
-483,-489,-98.9882,89.9479,0,0,0,0,0,0,0,-1,741,1513,-98.9882,-89.9479
-476,-489,-99.4294,93.652,0.0369127,0.0482222,-0.0555165,0.0983712,-0.0132362,-0.836152,0.0704088,0.024561,748,1513,-99.4294,-93.652
-469,-489,-99.9637,97.3616,0.0323283,0.0435048,-0.0538612,0.0920669,-0.0162338,-0.83709,0.0674436,0.0310401,755,1513,-99.9637,-97.3616
-462,-489,-100.84,101.153,0.0285321,0.039129,-0.0527776,0.0868735,-0.0192124,-0.835427,0.0652692,0.0405459,762,1513,-100.84,-101.153
-455,-489,-101.904,104.887,0.0255234,0.0348049,-0.051768,0.0821397,-0.0218115,-0.830101,0.0632956,0.0318486,769,1513,-101.904,-104.887
-448,-489,-102.904,108.689,0.0230945,0.0304297,-0.0508964,0.0777905,-0.0242663,-0.821366,0.0615644,0.0273286,776,1513,-102.904,-108.689
-441,-489,-103.723,112.544,0.0207751,0.0260311,-0.0502864,0.0737581,-0.0269519,-0.811504,0.0602018,0.0235578,783,1513,-103.723,-112.544
-434,-489,-104.796,116.415,0.0189968,0.0217334,-0.0498698,0.0702536,-0.0295235,-0.799113,0.0591846,0.0375752,790,1513,-104.796,-116.415
-427,-489,-106.065,120.437,0,0,0,0,0,0,0,-1,797,1513,-106.065,-120.437
-420,-489,-107.368,123.91,0,0,0,0,0,0,0,-1,804,1513,-107.368,-123.91
-413,-489,-78.455,127.868,0,0,0,0,0,0,0,-1,811,1513,-78.455,-127.868
-406,-489,-3.10559,15.8143,0,0,0,0,0,0,0,-1,818,1513,-3.10556,-15.8143
-399,-489,-1.41241,9.10718,0,0,0,0,0,0,0,-1,825,1513,-1.41244,-9.10722
-392,-489,-1.0368,9.30469,0,0,0,0,0,0,0,-1,832,1513,-1.03682,-9.30466
-385,-489,-1.75165,10.6559,0,0,0,0,0,0,0,-1,839,1513,-1.75165,-10.6559
-378,-489,-0.401428,9.87048,0,0,0,0,0,0,0,-1,846,1513,-0.401415,-9.87047
-371,-489,-1.11633,10.6606,0,0,0,0,0,0,0,-1,853,1513,-1.11633,-10.6606
-364,-489,-0.503113,8.98486,0,0,0,0,0,0,0,-1,860,1513,-0.503097,-8.98482
-357,-489,-0.609924,10.9606,0,0,0,0,0,0,0,-1,867,1513,-0.609947,-10.9605
-350,-489,-7.94659,-0.358887,0,0,0,0,0,0,0,-1,874,1513,-7.94657,0.358912
-343,-489,-7.49323,-0.437866,0,0,0,0,0,0,0,-1,881,1513,-7.49322,0.437823
-336,-489,-7.02332,-0.53125,0,0,0,0,0,0,0,-1,888,1513,-7.0233,0.531295
-329,-489,-13.2786,4.96082,0,0,0,0,0,0,0,-1,895,1513,-13.2785,-4.96077
-322,-489,0,0,0,0,0,0,0,0,0,-1,902,1513,0,0
-315,-489,0,0,0,0,0,0,0,0,0,-1,909,1513,0,0
-308,-489,0,0,0,0,0,0,0,0,0,-1,916,1513,0,0
-301,-489,0,0,0,0,0,0,0,0,0,-1,923,1513,0,0
-294,-489,0,0,0,0,0,0,0,0,0,-1,930,1513,0,0
-287,-489,0,0,0,0,0,0,0,0,0,-1,937,1513,0,0
-280,-489,0,0,0,0,0,0,0,0,0,-1,944,1513,0,0
-273,-489,0,0,0,0,0,0,0,0,0,-1,951,1513,0,0
-266,-489,0,0,0,0,0,0,0,0,0,-1,958,1513,0,0
-259,-489,0,0,0,0,0,0,0,0,0,-1,965,1513,0,0
-252,-489,0,0,0,0,0,0,0,0,0,-1,972,1513,0,0
-245,-489,0,0,0,0,0,0,0,0,0,-1,979,1513,0,0
-238,-489,0,0,0,0,0,0,0,0,0,-1,986,1513,0,0
-231,-489,0,0,0,0,0,0,0,0,0,-1,993,1513,0,0
-224,-489,0,0,0,0,0,0,0,0,0,-1,1000,1513,0,0
-217,-489,0,0,0,0,0,0,0,0,0,-1,1007,1513,0,0
-210,-489,0,0,0,0,0,0,0,0,0,-1,1014,1513,0,0
-203,-489,0,0,0,0,0,0,0,0,0,-1,1021,1513,0,0
-196,-489,0,0,0,0,0,0,0,0,0,-1,1028,1513,0,0
-189,-489,0,0,0,0,0,0,0,0,0,-1,1035,1513,0,0
-182,-489,0,0,0,0,0,0,0,0,0,-1,1042,1513,0,0
-175,-489,0,0,0,0,0,0,0,0,0,-1,1049,1513,0,0
-168,-489,0,0,0,0,0,0,0,0,0,-1,1056,1513,0,0
-161,-489,0,0,0,0,0,0,0,0,0,-1,1063,1513,0,0
-154,-489,0,0,0,0,0,0,0,0,0,-1,1070,1513,0,0
-147,-489,0,0,0,0,0,0,0,0,0,-1,1077,1513,0,0
-140,-489,0,0,0,0,0,0,0,0,0,-1,1084,1513,0,0
-133,-489,0,0,0,0,0,0,0,0,0,-1,1091,1513,0,0
-126,-489,0,0,0,0,0,0,0,0,0,-1,1098,1513,0,0
-119,-489,0,0,0,0,0,0,0,0,0,-1,1105,1513,0,0
-112,-489,0,0,0,0,0,0,0,0,0,-1,1112,1513,0,0
-105,-489,0,0,0,0,0,0,0,0,0,-1,1119,1513,0,0
-98,-489,0,0,0,0,0,0,0,0,0,-1,1126,1513,0,0
-91,-489,0,0,0,0,0,0,0,0,0,-1,1133,1513,0,0
-84,-489,0,0,0,0,0,0,0,0,0,-1,1140,1513,0,0
-77,-489,0,0,0,0,0,0,0,0,0,-1,1147,1513,0,0
-70,-489,0,0,0,0,0,0,0,0,0,-1,1154,1513,0,0
-63,-489,0,0,0,0,0,0,0,0,0,-1,1161,1513,0,0
-56,-489,0,0,0,0,0,0,0,0,0,-1,1168,1513,0,0
-49,-489,0,0,0,0,0,0,0,0,0,-1,1175,1513,0,0
-42,-489,0,0,0,0,0,0,0,0,0,-1,1182,1513,0,0
-35,-489,0,0,0,0,0,0,0,0,0,-1,1189,1513,0,0
-28,-489,0,0,0,0,0,0,0,0,0,-1,1196,1513,0,0
-21,-489,0,0,0,0,0,0,0,0,0,-1,1203,1513,0,0
-14,-489,0,0,0,0,0,0,0,0,0,-1,1210,1513,0,0
-7,-489,0,0,0,0,0,0,0,0,0,-1,1217,1513,0,0
0,-489,0,0,0,0,0,0,0,0,0,-1,1224,1513,0,0
7,-489,0,0,0,0,0,0,0,0,0,-1,1231,1513,0,0
14,-489,0,0,0,0,0,0,0,0,0,-1,1238,1513,0,0
21,-489,0,0,0,0,0,0,0,0,0,-1,1245,1513,0,0
28,-489,0,0,0,0,0,0,0,0,0,-1,1252,1513,0,0
35,-489,0,0,0,0,0,0,0,0,0,-1,1259,1513,0,0
42,-489,0,0,0,0,0,0,0,0,0,-1,1266,1513,0,0
49,-489,0,0,0,0,0,0,0,0,0,-1,1273,1513,0,0
56,-489,0,0,0,0,0,0,0,0,0,-1,1280,1513,0,0
63,-489,0,0,0,0,0,0,0,0,0,-1,1287,1513,0,0
70,-489,0,0,0,0,0,0,0,0,0,-1,1294,1513,0,0
77,-489,0,0,0,0,0,0,0,0,0,-1,1301,1513,0,0
84,-489,0,0,0,0,0,0,0,0,0,-1,1308,1513,0,0
91,-489,0,0,0,0,0,0,0,0,0,-1,1315,1513,0,0
98,-489,0,0,0,0,0,0,0,0,0,-1,1322,1513,0,0
105,-489,0,0,0,0,0,0,0,0,0,-1,1329,1513,0,0
112,-489,0,0,0,0,0,0,0,0,0,-1,1336,1513,0,0
119,-489,0,0,0,0,0,0,0,0,0,-1,1343,1513,0,0
126,-489,0,0,0,0,0,0,0,0,0,-1,1350,1513,0,0
133,-489,0,0,0,0,0,0,0,0,0,-1,1357,1513,0,0
140,-489,0,0,0,0,0,0,0,0,0,-1,1364,1513,0,0
147,-489,0,0,0,0,0,0,0,0,0,-1,1371,1513,0,0
154,-489,0,0,0,0,0,0,0,0,0,-1,1378,1513,0,0
161,-489,0,0,0,0,0,0,0,0,0,-1,1385,1513,0,0
168,-489,0,0,0,0,0,0,0,0,0,-1,1392,1513,0,0
175,-489,0,0,0,0,0,0,0,0,0,-1,1399,1513,0,0
182,-489,0,0,0,0,0,0,0,0,0,-1,1406,1513,0,0
189,-489,0,0,0,0,0,0,0,0,0,-1,1413,1513,0,0
196,-489,0,0,0,0,0,0,0,0,0,-1,1420,1513,0,0
203,-489,0,0,0,0,0,0,0,0,0,-1,1427,1513,0,0
210,-489,0,0,0,0,0,0,0,0,0,-1,1434,1513,0,0
217,-489,0,0,0,0,0,0,0,0,0,-1,1441,1513,0,0
224,-489,0,0,0,0,0,0,0,0,0,-1,1448,1513,0,0
231,-489,0,0,0,0,0,0,0,0,0,-1,1455,1513,0,0
238,-489,0,0,0,0,0,0,0,0,0,-1,1462,1513,0,0
245,-489,0,0,0,0,0,0,0,0,0,-1,1469,1513,0,0
252,-489,0,0,0,0,0,0,0,0,0,-1,1476,1513,0,0
259,-489,0,0,0,0,0,0,0,0,0,-1,1483,1513,0,0
266,-489,0,0,0,0,0,0,0,0,0,-1,1490,1513,0,0
273,-489,0,0,0,0,0,0,0,0,0,-1,1497,1513,0,0
280,-489,0,0,0,0,0,0,0,0,0,-1,1504,1513,0,0
287,-489,0,0,0,0,0,0,0,0,0,-1,1511,1513,0,0
294,-489,0,0,0,0,0,0,0,0,0,-1,1518,1513,0,0
301,-489,0,0,0,0,0,0,0,0,0,-1,1525,1513,0,0
308,-489,0,0,0,0,0,0,0,0,0,-1,1532,1513,0,0
315,-489,0,0,0,0,0,0,0,0,0,-1,1539,1513,0,0
322,-489,0,0,0,0,0,0,0,0,0,-1,1546,1513,0,0
329,-489,0,0,0,0,0,0,0,0,0,-1,1553,1513,0,0
336,-489,0,0,0,0,0,0,0,0,0,-1,1560,1513,0,0
343,-489,0,0,0,0,0,0,0,0,0,-1,1567,1513,0,0
350,-489,0,0,0,0,0,0,0,0,0,-1,1574,1513,0,0
357,-489,0,0,0,0,0,0,0,0,0,-1,1581,1513,0,0
364,-489,0,0,0,0,0,0,0,0,0,-1,1588,1513,0,0
371,-489,0,0,0,0,0,0,0,0,0,-1,1595,1513,0,0
378,-489,0,0,0,0,0,0,0,0,0,-1,1602,1513,0,0
385,-489,0,0,0,0,0,0,0,0,0,-1,1609,1513,0,0
392,-489,0,0,0,0,0,0,0,0,0,-1,1616,1513,0,0
399,-489,0,0,0,0,0,0,0,0,0,-1,1623,1513,0,0
406,-489,0,0,0,0,0,0,0,0,0,-1,1630,1513,0,0
413,-489,0,0,0,0,0,0,0,0,0,-1,1637,1513,0,0
420,-489,0,0,0,0,0,0,0,0,0,-1,1644,1513,0,0
427,-489,0,0,0,0,0,0,0,0,0,-1,1651,1513,0,0
434,-489,0,0,0,0,0,0,0,0,0,-1,1658,1513,0,0
441,-489,11.4602,2.56787,0,0,0,0,0,0,0,-1,1665,1513,11.4602,-2.56786
448,-489,12.4425,1.72351,0,0,0,0,0,0,0,-1,1672,1513,12.4425,-1.72349
455,-489,12.5575,1.37463,0,0,0,0,0,0,0,-1,1679,1513,12.5575,-1.37469
462,-489,14.9784,3.84888,0,0,0,0,0,0,0,-1,1686,1513,14.9784,-3.84892
469,-489,15.1367,4.53101,0,0,0,0,0,0,0,-1,1693,1513,15.1368,-4.531
476,-489,15.5536,5.09338,0,0,0,0,0,0,0,-1,1700,1513,15.5536,-5.09339
483,-489,8.96912,8.37805,0,0,0,0,0,0,0,-1,1707,1513,8.96909,-8.37809
490,-489,10.5366,7.49561,0,0,0,0,0,0,0,-1,1714,1513,10.5367,-7.49558
497,-489,14.6051,11.8397,0,0,0,0,0,0,0,-1,1721,1513,14.6051,-11.8397
504,-489,16.7527,14.1735,0,0,0,0,0,0,0,-1,1728,1513,16.7527,-14.1735
511,-489,17.83,17.7993,0,0,0,0,0,0,0,-1,1735,1513,17.83,-17.7993
518,-489,16.4751,14.3682,0,0,0,0,0,0,0,-1,1742,1513,16.4751,-14.3682
525,-489,17.2606,17.4949,0,0,0,0,0,0,0,-1,1749,1513,17.2606,-17.4949
532,-489,19.397,21.0182,0,0,0,0,0,0,0,-1,1756,1513,19.397,-21.0182
539,-489,31.8036,37.8446,0,0,0,0,0,0,0,-1,1763,1513,31.8036,-37.8447
546,-489,64.7327,111.969,0,0,0,0,0,0,0,-1,1770,1513,64.7326,-111.969
553,-489,116.79,129.247,0,0,0,0,0,0,0,-1,1777,1513,116.79,-129.247
560,-489,115.667,125.131,0,0,0,0,0,0,0,-1,1784,1513,115.666,-125.131
567,-489,114.434,121.149,0.00995148,0.0111156,0.0374924,0.0480305,-0.0269634,0.79316,0.0438635,0.0417518,1791,1513,114.434,-121.149
574,-489,113.378,117.113,0.0104794,0.0147888,0.0389777,0.0516713,-0.0264031,0.81301,0.0458564,0.0273846,1798,1513,113.378,-117.113
581,-489,112.266,113.384,0.0114247,0.018474,0.0402697,0.055373,-0.0254743,0.82905,0.0477293,0.0218966,1805,1513,112.266,-113.384
588,-489,111.229,109.531,0.0127871,0.0220561,0.0412709,0.0589519,-0.0241087,0.841312,0.0493415,0.0240166,1812,1513,111.229,-109.531
595,-489,110.239,105.787,0.0145451,0.0255159,0.042019,0.062406,-0.0223451,0.850304,0.0507205,0.0284682,1819,1513,110.239,-105.787
602,-489,109.277,101.985,0.0166461,0.0290199,0.0425177,0.0657985,-0.0201325,0.857648,0.051895,0.0402239,1826,1513,109.277,-101.985
609,-489,108.261,98.276,0.0190382,0.032532,0.0427887,0.0691024,-0.0175323,0.863594,0.0528901,0.0302459,1833,1513,108.261,-98.2761
616,-489,107.312,94.6915,0,0,0,0,0,0,0,-1,1840,1513,107.312,-94.6916
623,-489,74.4036,92.3373,0,0,0,0,0,0,0,-1,1847,1513,74.4036,-92.3373
630,-489,30.3123,23.9675,0,0,0,0,0,0,0,-1,1854,1513,30.3123,-23.9676
637,-489,17.2048,11.8091,0,0,0,0,0,0,0,-1,1861,1513,17.2048,-11.8091
644,-489,9.67578,8.45874,0,0,0,0,0,0,0,-1,1868,1513,9.67576,-8.45879
651,-489,6.13818,6.85095,0,0,0,0,0,0,0,-1,1875,1513,6.13823,-6.85097
658,-489,5.43848,7.75513,0,0,0,0,0,0,0,-1,1882,1513,5.43844,-7.75509
665,-489,5.48438,8.59912,0,0,0,0,0,0,0,-1,1889,1513,5.48434,-8.59907
672,-489,0,0,0,0,0,0,0,0,0,-1,1896,1513,0,0
679,-489,0,0,0,0,0,0,0,0,0,-1,1903,1513,0,0
686,-489,0,0,0,0,0,0,0,0,0,-1,1910,1513,0,0
693,-489,0,0,0,0,0,0,0,0,0,-1,1917,1513,0,0
700,-489,0,0,0,0,0,0,0,0,0,-1,1924,1513,0,0
707,-489,0,0,0,0,0,0,0,0,0,-1,1931,1513,0,0
714,-489,0,0,0,0,0,0,0,0,0,-1,1938,1513,0,0
721,-489,0,0,0,0,0,0,0,0,0,-1,1945,1513,0,0
728,-489,0,0,0,0,0,0,0,0,0,-1,1952,1513,0,0
735,-489,0,0,0,0,0,0,0,0,0,-1,1959,1513,0,0
742,-489,0,0,0,0,0,0,0,0,0,-1,1966,1513,0,0
749,-489,0,0,0,0,0,0,0,0,0,-1,1973,1513,0,0
756,-489,0,0,0,0,0,0,0,0,0,-1,1980,1513,0,0
763,-489,0,0,0,0,0,0,0,0,0,-1,1987,1513,0,0
770,-489,0,0,0,0,0,0,0,0,0,-1,1994,1513,0,0
777,-489,0,0,0,0,0,0,0,0,0,-1,2001,1513,0,0
784,-489,0,0,0,0,0,0,0,0,0,-1,2008,1513,0,0
791,-489,0,0,0,0,0,0,0,0,0,-1,2015,1513,0,0
798,-489,0,0,0,0,0,0,0,0,0,-1,2022,1513,0,0
805,-489,0,0,0,0,0,0,0,0,0,-1,2029,1513,0,0
812,-489,0,0,0,0,0,0,0,0,0,-1,2036,1513,0,0
-700,-496,0,0,0,0,0,0,0,0,0,-1,524,1520,0,0
-693,-496,0,0,0,0,0,0,0,0,0,-1,531,1520,0,0
-686,-496,0,0,0,0,0,0,0,0,0,-1,538,1520,0,0
-679,-496,0,0,0,0,0,0,0,0,0,-1,545,1520,0,0
-672,-496,0,0,0,0,0,0,0,0,0,-1,552,1520,0,0
-665,-496,0,0,0,0,0,0,0,0,0,-1,559,1520,0,0
-658,-496,0,0,0,0,0,0,0,0,0,-1,566,1520,0,0
-651,-496,0,0,0,0,0,0,0,0,0,-1,573,1520,0,0
-644,-496,0,0,0,0,0,0,0,0,0,-1,580,1520,0,0
-637,-496,0,0,0,0,0,0,0,0,0,-1,587,1520,0,0
-630,-496,0,0,0,0,0,0,0,0,0,-1,594,1520,0,0
-623,-496,0,0,0,0,0,0,0,0,0,-1,601,1520,0,0
-616,-496,0,0,0,0,0,0,0,0,0,-1,608,1520,0,0
-609,-496,0,0,0,0,0,0,0,0,0,-1,615,1520,0,0
-602,-496,0,0,0,0,0,0,0,0,0,-1,622,1520,0,0
-595,-496,0,0,0,0,0,0,0,0,0,-1,629,1520,0,0
-588,-496,0,0,0,0,0,0,0,0,0,-1,636,1520,0,0
-581,-496,0,0,0,0,0,0,0,0,0,-1,643,1520,0,0
-574,-496,0,0,0,0,0,0,0,0,0,-1,650,1520,0,0
-567,-496,0,0,0,0,0,0,0,0,0,-1,657,1520,0,0
-560,-496,0,0,0,0,0,0,0,0,0,-1,664,1520,0,0
-553,-496,0,0,0,0,0,0,0,0,0,-1,671,1520,0,0
-546,-496,-8.09711,7.94836,0,0,0,0,0,0,0,-1,678,1520,-8.09712,-7.94842
-539,-496,-3.20129,1.16052,0,0,0,0,0,0,0,-1,685,1520,-3.20131,-1.16054
-532,-496,-2.98279,2.62146,0,0,0,0,0,0,0,-1,692,1520,-2.98278,-2.62151
-525,-496,-2.75201,4.08032,0,0,0,0,0,0,0,-1,699,1520,-2.75201,-4.08031
-518,-496,-2.6333,5.36072,0,0,0,0,0,0,0,-1,706,1520,-2.63328,-5.36077
-511,-496,-7.92126,9.68604,0,0,0,0,0,0,0,-1,713,1520,-7.92127,-9.68598
-504,-496,-7.51044,11.6274,0,0,0,0,0,0,0,-1,720,1520,-7.51042,-11.6275
-497,-496,-5.30933,14.4291,0,0,0,0,0,0,0,-1,727,1520,-5.30932,-14.4291
-490,-496,-8.21246,19.5051,0,0,0,0,0,0,0,-1,734,1520,-8.21243,-19.5051
-483,-496,-20.4368,40.3196,0,0,0,0,0,0,0,-1,741,1520,-20.4368,-40.3195
-476,-496,-95.0001,94.5521,0,0,0,0,0,0,0,-1,748,1520,-95.0001,-94.5522
-469,-496,-95.62,98.557,0.0372507,0.0468855,-0.0564396,0.098713,-0.0145767,-0.827972,0.0711669,0.0222021,755,1520,-95.62,-98.557
-462,-496,-96.4576,102.38,0.033461,0.0417499,-0.0556807,0.0934401,-0.0182292,-0.822546,0.0691752,0.0332369,762,1520,-96.4576,-102.38
-455,-496,-97.4373,106.352,0.0306351,0.0367288,-0.0548324,0.0885989,-0.021235,-0.813153,0.0672709,0.0419201,769,1520,-97.4373,-106.352
-448,-496,-98.5718,110.136,0.0284348,0.0318152,-0.0540694,0.0842208,-0.0239708,-0.801023,0.0656136,0.0358087,776,1520,-98.5718,-110.136
-441,-496,-99.2625,113.946,0.0262604,0.0270083,-0.0534976,0.0801333,-0.0268646,-0.788893,0.0642765,0.023216,783,1520,-99.2624,-113.946
-434,-496,-100.285,117.914,0.0244064,0.0223301,-0.0530796,0.0764581,-0.0297215,-0.77562,0.0632514,0.0227026,790,1520,-100.285,-117.914
-427,-496,-101.503,121.917,0.0226853,0.0178662,-0.0528113,0.073142,-0.0325904,-0.762601,0.0625233,0.0379538,797,1520,-101.503,-121.917
-420,-496,-102.642,125.797,0.0212391,0.0136615,-0.052906,0.0704917,-0.0355912,-0.749652,0.0623421,0.0467623,804,1520,-102.642,-125.797
-413,-496,-103.975,129.618,0,0,0,0,0,0,0,-1,811,1520,-103.975,-129.618
-406,-496,-74.7766,133.159,0,0,0,0,0,0,0,-1,818,1520,-74.7766,-133.159
-399,-496,-11.5063,36.5204,0,0,0,0,0,0,0,-1,825,1520,-11.5063,-36.5204
-392,-496,-1.49786,12.387,0,0,0,0,0,0,0,-1,832,1520,-1.49788,-12.387
-385,-496,-1.72437,11.4985,0,0,0,0,0,0,0,-1,839,1520,-1.72436,-11.4985
-378,-496,-1.45532,14.0719,0,0,0,0,0,0,0,-1,846,1520,-1.45533,-14.0719
-371,-496,0.0877075,12.5299,0,0,0,0,0,0,0,-1,853,1520,0.0876896,-12.5299
-364,-496,0.0881348,10.6422,0,0,0,0,0,0,0,-1,860,1520,0.0881368,-10.6423
-357,-496,0.323792,7.56812,0,0,0,0,0,0,0,-1,867,1520,0.323782,-7.56806
-350,-496,2.1535,7.18945,0,0,0,0,0,0,0,-1,874,1520,2.15348,-7.1894
-343,-496,-7.56244,0.335327,0,0,0,0,0,0,0,-1,881,1520,-7.56242,-0.335322
-336,-496,-3.99249,6.02222,0,0,0,0,0,0,0,-1,888,1520,-3.99246,-6.0222
-329,-496,-6.93689,-0.100342,0,0,0,0,0,0,0,-1,895,1520,-6.93686,0.1003
-322,-496,-6.17505,0.494385,0,0,0,0,0,0,0,-1,902,1520,-6.17507,-0.49437
-315,-496,-7.539,5.78638,0,0,0,0,0,0,0,-1,909,1520,-7.53898,-5.78633
-308,-496,0,0,0,0,0,0,0,0,0,-1,916,1520,0,0
-301,-496,0,0,0,0,0,0,0,0,0,-1,923,1520,0,0
-294,-496,0,0,0,0,0,0,0,0,0,-1,930,1520,0,0
-287,-496,0,0,0,0,0,0,0,0,0,-1,937,1520,0,0
-280,-496,0,0,0,0,0,0,0,0,0,-1,944,1520,0,0
-273,-496,0,0,0,0,0,0,0,0,0,-1,951,1520,0,0
-266,-496,0,0,0,0,0,0,0,0,0,-1,958,1520,0,0
-259,-496,0,0,0,0,0,0,0,0,0,-1,965,1520,0,0
-252,-496,0,0,0,0,0,0,0,0,0,-1,972,1520,0,0
-245,-496,0,0,0,0,0,0,0,0,0,-1,979,1520,0,0
-238,-496,0,0,0,0,0,0,0,0,0,-1,986,1520,0,0
-231,-496,0,0,0,0,0,0,0,0,0,-1,993,1520,0,0
-224,-496,0,0,0,0,0,0,0,0,0,-1,1000,1520,0,0
-217,-496,0,0,0,0,0,0,0,0,0,-1,1007,1520,0,0
-210,-496,0,0,0,0,0,0,0,0,0,-1,1014,1520,0,0
-203,-496,0,0,0,0,0,0,0,0,0,-1,1021,1520,0,0
-196,-496,0,0,0,0,0,0,0,0,0,-1,1028,1520,0,0
-189,-496,0,0,0,0,0,0,0,0,0,-1,1035,1520,0,0
-182,-496,0,0,0,0,0,0,0,0,0,-1,1042,1520,0,0
-175,-496,0,0,0,0,0,0,0,0,0,-1,1049,1520,0,0
-168,-496,0,0,0,0,0,0,0,0,0,-1,1056,1520,0,0
-161,-496,0,0,0,0,0,0,0,0,0,-1,1063,1520,0,0
-154,-496,0,0,0,0,0,0,0,0,0,-1,1070,1520,0,0
-147,-496,0,0,0,0,0,0,0,0,0,-1,1077,1520,0,0
-140,-496,0,0,0,0,0,0,0,0,0,-1,1084,1520,0,0
-133,-496,0,0,0,0,0,0,0,0,0,-1,1091,1520,0,0
-126,-496,0,0,0,0,0,0,0,0,0,-1,1098,1520,0,0
-119,-496,0,0,0,0,0,0,0,0,0,-1,1105,1520,0,0
-112,-496,0,0,0,0,0,0,0,0,0,-1,1112,1520,0,0
-105,-496,0,0,0,0,0,0,0,0,0,-1,1119,1520,0,0
-98,-496,0,0,0,0,0,0,0,0,0,-1,1126,1520,0,0
-91,-496,0,0,0,0,0,0,0,0,0,-1,1133,1520,0,0
-84,-496,0,0,0,0,0,0,0,0,0,-1,1140,1520,0,0
-77,-496,0,0,0,0,0,0,0,0,0,-1,1147,1520,0,0
-70,-496,0,0,0,0,0,0,0,0,0,-1,1154,1520,0,0
-63,-496,0,0,0,0,0,0,0,0,0,-1,1161,1520,0,0
-56,-496,0,0,0,0,0,0,0,0,0,-1,1168,1520,0,0
-49,-496,0,0,0,0,0,0,0,0,0,-1,1175,1520,0,0
-42,-496,0,0,0,0,0,0,0,0,0,-1,1182,1520,0,0
-35,-496,0,0,0,0,0,0,0,0,0,-1,1189,1520,0,0
-28,-496,0,0,0,0,0,0,0,0,0,-1,1196,1520,0,0
-21,-496,0,0,0,0,0,0,0,0,0,-1,1203,1520,0,0
-14,-496,0,0,0,0,0,0,0,0,0,-1,1210,1520,0,0
-7,-496,0,0,0,0,0,0,0,0,0,-1,1217,1520,0,0
0,-496,0,0,0,0,0,0,0,0,0,-1,1224,1520,0,0
7,-496,0,0,0,0,0,0,0,0,0,-1,1231,1520,0,0
14,-496,0,0,0,0,0,0,0,0,0,-1,1238,1520,0,0
21,-496,0,0,0,0,0,0,0,0,0,-1,1245,1520,0,0
28,-496,0,0,0,0,0,0,0,0,0,-1,1252,1520,0,0
35,-496,0,0,0,0,0,0,0,0,0,-1,1259,1520,0,0
42,-496,0,0,0,0,0,0,0,0,0,-1,1266,1520,0,0
49,-496,0,0,0,0,0,0,0,0,0,-1,1273,1520,0,0
56,-496,0,0,0,0,0,0,0,0,0,-1,1280,1520,0,0
63,-496,0,0,0,0,0,0,0,0,0,-1,1287,1520,0,0
70,-496,0,0,0,0,0,0,0,0,0,-1,1294,1520,0,0
77,-496,0,0,0,0,0,0,0,0,0,-1,1301,1520,0,0
84,-496,0,0,0,0,0,0,0,0,0,-1,1308,1520,0,0
91,-496,0,0,0,0,0,0,0,0,0,-1,1315,1520,0,0
98,-496,0,0,0,0,0,0,0,0,0,-1,1322,1520,0,0
105,-496,0,0,0,0,0,0,0,0,0,-1,1329,1520,0,0
112,-496,0,0,0,0,0,0,0,0,0,-1,1336,1520,0,0
119,-496,0,0,0,0,0,0,0,0,0,-1,1343,1520,0,0
126,-496,0,0,0,0,0,0,0,0,0,-1,1350,1520,0,0
133,-496,0,0,0,0,0,0,0,0,0,-1,1357,1520,0,0
140,-496,0,0,0,0,0,0,0,0,0,-1,1364,1520,0,0
147,-496,0,0,0,0,0,0,0,0,0,-1,1371,1520,0,0
154,-496,0,0,0,0,0,0,0,0,0,-1,1378,1520,0,0
161,-496,0,0,0,0,0,0,0,0,0,-1,1385,1520,0,0
168,-496,0,0,0,0,0,0,0,0,0,-1,1392,1520,0,0
175,-496,0,0,0,0,0,0,0,0,0,-1,1399,1520,0,0
182,-496,0,0,0,0,0,0,0,0,0,-1,1406,1520,0,0
189,-496,0,0,0,0,0,0,0,0,0,-1,1413,1520,0,0
196,-496,0,0,0,0,0,0,0,0,0,-1,1420,1520,0,0
203,-496,0,0,0,0,0,0,0,0,0,-1,1427,1520,0,0
210,-496,0,0,0,0,0,0,0,0,0,-1,1434,1520,0,0
217,-496,0,0,0,0,0,0,0,0,0,-1,1441,1520,0,0
224,-496,0,0,0,0,0,0,0,0,0,-1,1448,1520,0,0
231,-496,0,0,0,0,0,0,0,0,0,-1,1455,1520,0,0
238,-496,0,0,0,0,0,0,0,0,0,-1,1462,1520,0,0
245,-496,0,0,0,0,0,0,0,0,0,-1,1469,1520,0,0
252,-496,0,0,0,0,0,0,0,0,0,-1,1476,1520,0,0
259,-496,0,0,0,0,0,0,0,0,0,-1,1483,1520,0,0
266,-496,0,0,0,0,0,0,0,0,0,-1,1490,1520,0,0
273,-496,0,0,0,0,0,0,0,0,0,-1,1497,1520,0,0
280,-496,0,0,0,0,0,0,0,0,0,-1,1504,1520,0,0
287,-496,0,0,0,0,0,0,0,0,0,-1,1511,1520,0,0
294,-496,0,0,0,0,0,0,0,0,0,-1,1518,1520,0,0
301,-496,0,0,0,0,0,0,0,0,0,-1,1525,1520,0,0
308,-496,0,0,0,0,0,0,0,0,0,-1,1532,1520,0,0
315,-496,0,0,0,0,0,0,0,0,0,-1,1539,1520,0,0
322,-496,0,0,0,0,0,0,0,0,0,-1,1546,1520,0,0
329,-496,0,0,0,0,0,0,0,0,0,-1,1553,1520,0,0
336,-496,0,0,0,0,0,0,0,0,0,-1,1560,1520,0,0
343,-496,0,0,0,0,0,0,0,0,0,-1,1567,1520,0,0
350,-496,0,0,0,0,0,0,0,0,0,-1,1574,1520,0,0
357,-496,0,0,0,0,0,0,0,0,0,-1,1581,1520,0,0
364,-496,0,0,0,0,0,0,0,0,0,-1,1588,1520,0,0
371,-496,0,0,0,0,0,0,0,0,0,-1,1595,1520,0,0
378,-496,0,0,0,0,0,0,0,0,0,-1,1602,1520,0,0
385,-496,0,0,0,0,0,0,0,0,0,-1,1609,1520,0,0
392,-496,0,0,0,0,0,0,0,0,0,-1,1616,1520,0,0
399,-496,0,0,0,0,0,0,0,0,0,-1,1623,1520,0,0
406,-496,0,0,0,0,0,0,0,0,0,-1,1630,1520,0,0
413,-496,0,0,0,0,0,0,0,0,0,-1,1637,1520,0,0
420,-496,0,0,0,0,0,0,0,0,0,-1,1644,1520,0,0
427,-496,0,0,0,0,0,0,0,0,0,-1,1651,1520,0,0
434,-496,11.0457,3.37732,0,0,0,0,0,0,0,-1,1658,1520,11.0456,-3.37736
441,-496,11.788,2.75488,0,0,0,0,0,0,0,-1,1665,1520,11.7879,-2.75485
448,-496,12.2146,2.18494,0,0,0,0,0,0,0,-1,1672,1520,12.2146,-2.18489
455,-496,12.3489,1.65173,0,0,0,0,0,0,0,-1,1679,1520,12.3489,-1.65178
462,-496,12.1912,1.32361,0,0,0,0,0,0,0,-1,1686,1520,12.1911,-1.32357
469,-496,14.8138,5.77954,0,0,0,0,0,0,0,-1,1693,1520,14.8138,-5.77958
476,-496,15.2449,6.27942,0,0,0,0,0,0,0,-1,1700,1520,15.2449,-6.27936
483,-496,9.19812,6.88367,0,0,0,0,0,0,0,-1,1707,1520,9.19812,-6.88361
490,-496,10.2123,7.97144,0,0,0,0,0,0,0,-1,1714,1520,10.2122,-7.97145
497,-496,13.9297,12.2981,0,0,0,0,0,0,0,-1,1721,1520,13.9297,-12.2982
504,-496,16.3271,16.6501,0,0,0,0,0,0,0,-1,1728,1520,16.3272,-16.6502
511,-496,17.6753,18.0685,0,0,0,0,0,0,0,-1,1735,1520,17.6753,-18.0685
518,-496,17.0537,17.3118,0,0,0,0,0,0,0,-1,1742,1520,17.0538,-17.3118
525,-496,18.2721,19.3259,0,0,0,0,0,0,0,-1,1749,1520,18.2721,-19.3259
532,-496,31.3234,37.6648,0,0,0,0,0,0,0,-1,1756,1520,31.3234,-37.6648
539,-496,62.3975,115.274,0,0,0,0,0,0,0,-1,1763,1520,62.3974,-115.274
546,-496,107.092,134.185,0,0,0,0,0,0,0,-1,1770,1520,107.092,-134.185
553,-496,112.491,130.595,0,0,0,0,0,0,0,-1,1777,1520,112.491,-130.595
560,-496,111.173,126.612,0.0144569,0.00802363,0.0365557,0.0479372,-0.0254567,0.741515,0.0430315,0.03073,1784,1520,111.173,-126.612
567,-496,110.033,122.575,0.0146986,0.01215,0.0381432,0.0515888,-0.0247402,0.768701,0.0449681,0.0211899,1791,1520,110.033,-122.575
574,-496,109.007,118.533,0.0151265,0.0161158,0.0397156,0.0553398,-0.0240975,0.791626,0.0470306,0.0208173,1798,1520,109.007,-118.533
581,-496,107.98,114.624,0.0158166,0.0200426,0.0411474,0.0591313,-0.023272,0.811051,0.0490542,0.0249918,1805,1520,107.98,-114.624
588,-496,106.882,110.718,0.0167953,0.0238798,0.0423381,0.0628236,-0.0221485,0.827134,0.0508977,0.0238184,1812,1520,106.882,-110.718
595,-496,105.906,107.017,0.0180415,0.0275527,0.0433495,0.0664067,-0.0208125,0.840032,0.0525995,0.0262706,1819,1520,105.906,-107.017
602,-496,105.004,103.345,0.0194555,0.0311844,0.0441858,0.0698933,-0.0192534,0.851374,0.0541662,0.0356623,1826,1520,105.004,-103.345
609,-496,104.055,99.3851,0.0208456,0.0347184,0.0448694,0.0731844,-0.0176204,0.862087,0.0556017,0.0443968,1833,1520,104.055,-99.3852
616,-496,103.127,95.3069,0,0,0,0,0,0,0,-1,1840,1520,103.127,-95.3069
623,-496,28.9139,24.1847,0,0,0,0,0,0,0,-1,1847,1520,28.9139,-24.1846
630,-496,18.5656,13.8966,0,0,0,0,0,0,0,-1,1854,1520,18.5655,-13.8967
637,-496,14.6411,10.1016,0,0,0,0,0,0,0,-1,1861,1520,14.6411,-10.1016
644,-496,12.4537,10.087,0,0,0,0,0,0,0,-1,1868,1520,12.4537,-10.0871
651,-496,8.18506,5.47803,0,0,0,0,0,0,0,-1,1875,1520,8.18505,-5.47806
658,-496,7.79993,4.02563,0,0,0,0,0,0,0,-1,1882,1520,7.79997,-4.02568
665,-496,5.47583,7.90625,0,0,0,0,0,0,0,-1,1889,1520,5.47581,-7.90628
672,-496,0,0,0,0,0,0,0,0,0,-1,1896,1520,0,0
679,-496,0,0,0,0,0,0,0,0,0,-1,1903,1520,0,0
686,-496,0,0,0,0,0,0,0,0,0,-1,1910,1520,0,0
693,-496,0,0,0,0,0,0,0,0,0,-1,1917,1520,0,0
700,-496,0,0,0,0,0,0,0,0,0,-1,1924,1520,0,0
707,-496,0,0,0,0,0,0,0,0,0,-1,1931,1520,0,0
714,-496,0,0,0,0,0,0,0,0,0,-1,1938,1520,0,0
721,-496,0,0,0,0,0,0,0,0,0,-1,1945,1520,0,0
728,-496,0,0,0,0,0,0,0,0,0,-1,1952,1520,0,0
735,-496,0,0,0,0,0,0,0,0,0,-1,1959,1520,0,0
742,-496,0,0,0,0,0,0,0,0,0,-1,1966,1520,0,0
749,-496,0,0,0,0,0,0,0,0,0,-1,1973,1520,0,0
756,-496,0,0,0,0,0,0,0,0,0,-1,1980,1520,0,0
763,-496,0,0,0,0,0,0,0,0,0,-1,1987,1520,0,0
770,-496,0,0,0,0,0,0,0,0,0,-1,1994,1520,0,0
777,-496,0,0,0,0,0,0,0,0,0,-1,2001,1520,0,0
784,-496,0,0,0,0,0,0,0,0,0,-1,2008,1520,0,0
791,-496,0,0,0,0,0,0,0,0,0,-1,2015,1520,0,0
798,-496,0,0,0,0,0,0,0,0,0,-1,2022,1520,0,0
805,-496,0,0,0,0,0,0,0,0,0,-1,2029,1520,0,0
812,-496,0,0,0,0,0,0,0,0,0,-1,2036,1520,0,0
-700,-503,0,0,0,0,0,0,0,0,0,-1,524,1527,0,0
-693,-503,0,0,0,0,0,0,0,0,0,-1,531,1527,0,0
-686,-503,0,0,0,0,0,0,0,0,0,-1,538,1527,0,0
-679,-503,0,0,0,0,0,0,0,0,0,-1,545,1527,0,0
-672,-503,0,0,0,0,0,0,0,0,0,-1,552,1527,0,0
-665,-503,0,0,0,0,0,0,0,0,0,-1,559,1527,0,0
-658,-503,0,0,0,0,0,0,0,0,0,-1,566,1527,0,0
-651,-503,0,0,0,0,0,0,0,0,0,-1,573,1527,0,0
-644,-503,0,0,0,0,0,0,0,0,0,-1,580,1527,0,0
-637,-503,0,0,0,0,0,0,0,0,0,-1,587,1527,0,0
-630,-503,0,0,0,0,0,0,0,0,0,-1,594,1527,0,0
-623,-503,0,0,0,0,0,0,0,0,0,-1,601,1527,0,0
-616,-503,0,0,0,0,0,0,0,0,0,-1,608,1527,0,0
-609,-503,0,0,0,0,0,0,0,0,0,-1,615,1527,0,0
-602,-503,0,0,0,0,0,0,0,0,0,-1,622,1527,0,0
-595,-503,0,0,0,0,0,0,0,0,0,-1,629,1527,0,0
-588,-503,0,0,0,0,0,0,0,0,0,-1,636,1527,0,0
-581,-503,0,0,0,0,0,0,0,0,0,-1,643,1527,0,0
-574,-503,0,0,0,0,0,0,0,0,0,-1,650,1527,0,0
-567,-503,0,0,0,0,0,0,0,0,0,-1,657,1527,0,0
-560,-503,0,0,0,0,0,0,0,0,0,-1,664,1527,0,0
-553,-503,0,0,0,0,0,0,0,0,0,-1,671,1527,0,0
-546,-503,0,0,0,0,0,0,0,0,0,-1,678,1527,0,0
-539,-503,3.50177,4.26428,0,0,0,0,0,0,0,-1,685,1527,3.50177,-4.26424
-532,-503,-3.13196,1.05298,0,0,0,0,0,0,0,-1,692,1527,-3.13194,-1.05299
-525,-503,-2.94293,2.59314,0,0,0,0,0,0,0,-1,699,1527,-2.94296,-2.59314
-518,-503,-2.7395,4.05872,0,0,0,0,0,0,0,-1,706,1527,-2.73948,-4.05871
-511,-503,-1.60022,7.23877,0,0,0,0,0,0,0,-1,713,1527,-1.60023,-7.23872
-504,-503,-8.1402,10.1541,0,0,0,0,0,0,0,-1,720,1527,-8.14017,-10.1541
-497,-503,-4.51758,14.0781,0,0,0,0,0,0,0,-1,727,1527,-4.5176,-14.0782
-490,-503,-4.24194,16.1982,0,0,0,0,0,0,0,-1,734,1527,-4.24196,-16.1982
-483,-503,-9.55774,23.7681,0,0,0,0,0,0,0,-1,741,1527,-9.55776,-23.7681
-476,-503,-35.8533,66.9409,0,0,0,0,0,0,0,-1,748,1527,-35.8533,-66.9409
-469,-503,-91.1578,99.7888,0,0,0,0,0,0,0,-1,755,1527,-91.1578,-99.7889
-462,-503,-91.9835,103.697,0.0376141,0.0449571,-0.0582992,0.0997002,-0.0171291,-0.816845,0.0728509,0.0252707,762,1527,-91.9835,-103.697
-455,-503,-92.8413,107.649,0.0347673,0.0393601,-0.0574596,0.0945692,-0.0204418,-0.80537,0.0708499,0.0379973,769,1527,-92.8413,-107.649
-448,-503,-93.9146,111.53,0.0326735,0.0339922,-0.0567011,0.0900378,-0.0233721,-0.791212,0.0691454,0.030751,776,1527,-93.9146,-111.53
-441,-503,-94.848,115.381,0.0306647,0.0288316,-0.0560881,0.0858438,-0.0263475,-0.777229,0.0677417,0.0217377,783,1527,-94.848,-115.381
-434,-503,-95.9371,119.399,0.0288019,0.0238557,-0.0556492,0.0820329,-0.0293753,-0.763192,0.0666735,0.0180744,790,1527,-95.9371,-119.399
-427,-503,-97.0933,123.455,0.0270803,0.0193233,-0.0554547,0.078792,-0.0323884,-0.750485,0.0660274,0.0284666,797,1527,-97.0933,-123.455
-420,-503,-97.8741,127.492,0.0253522,0.0150144,-0.0554562,0.0758799,-0.0355133,-0.738929,0.0657054,0.041203,804,1527,-97.8742,-127.492
-413,-503,-98.8679,131.718,0,0,0,0,0,0,0,-1,811,1527,-98.8679,-131.718
-406,-503,-101.136,134.644,0,0,0,0,0,0,0,-1,818,1527,-101.136,-134.644
-399,-503,-72.1955,138.426,0,0,0,0,0,0,0,-1,825,1527,-72.1955,-138.426
-392,-503,-10.7637,37.4486,0,0,0,0,0,0,0,-1,832,1527,-10.7637,-37.4486
-385,-503,-2.00403,14.1218,0,0,0,0,0,0,0,-1,839,1527,-2.00403,-14.1218
-378,-503,-2.07043,13.8632,0,0,0,0,0,0,0,-1,846,1527,-2.07043,-13.8631
-371,-503,-1.67285,13.8081,0,0,0,0,0,0,0,-1,853,1527,-1.67285,-13.8081
-364,-503,0.181396,12.3768,0,0,0,0,0,0,0,-1,860,1527,0.18138,-12.3768
-357,-503,0.558533,9.25452,0,0,0,0,0,0,0,-1,867,1527,0.558542,-9.25446
-350,-503,0.219971,6.84827,0,0,0,0,0,0,0,-1,874,1527,0.21996,-6.84831
-343,-503,-3.5802,4.43274,0,0,0,0,0,0,0,-1,881,1527,-3.58018,-4.43276
-336,-503,-3.2384,6.40637,0,0,0,0,0,0,0,-1,888,1527,-3.2384,-6.40643
-329,-503,-1.70691,11.886,0,0,0,0,0,0,0,-1,895,1527,-1.70689,-11.886
-322,-503,-3.31317,8.81519,0,0,0,0,0,0,0,-1,902,1527,-3.31315,-8.81524
-315,-503,-3.90265,7.73853,0,0,0,0,0,0,0,-1,909,1527,-3.90264,-7.73854
-308,-503,-1.70264,7.35413,0,0,0,0,0,0,0,-1,916,1527,-1.70262,-7.35416
-301,-503,0,0,0,0,0,0,0,0,0,-1,923,1527,0,0
-294,-503,0,0,0,0,0,0,0,0,0,-1,930,1527,0,0
-287,-503,0,0,0,0,0,0,0,0,0,-1,937,1527,0,0
-280,-503,0,0,0,0,0,0,0,0,0,-1,944,1527,0,0
-273,-503,0,0,0,0,0,0,0,0,0,-1,951,1527,0,0
-266,-503,0,0,0,0,0,0,0,0,0,-1,958,1527,0,0
-259,-503,0,0,0,0,0,0,0,0,0,-1,965,1527,0,0
-252,-503,0,0,0,0,0,0,0,0,0,-1,972,1527,0,0
-245,-503,0,0,0,0,0,0,0,0,0,-1,979,1527,0,0
-238,-503,0,0,0,0,0,0,0,0,0,-1,986,1527,0,0
-231,-503,0,0,0,0,0,0,0,0,0,-1,993,1527,0,0
-224,-503,0,0,0,0,0,0,0,0,0,-1,1000,1527,0,0
-217,-503,0,0,0,0,0,0,0,0,0,-1,1007,1527,0,0
-210,-503,0,0,0,0,0,0,0,0,0,-1,1014,1527,0,0
-203,-503,0,0,0,0,0,0,0,0,0,-1,1021,1527,0,0
-196,-503,0,0,0,0,0,0,0,0,0,-1,1028,1527,0,0
-189,-503,0,0,0,0,0,0,0,0,0,-1,1035,1527,0,0
-182,-503,0,0,0,0,0,0,0,0,0,-1,1042,1527,0,0
-175,-503,0,0,0,0,0,0,0,0,0,-1,1049,1527,0,0
-168,-503,0,0,0,0,0,0,0,0,0,-1,1056,1527,0,0
-161,-503,0,0,0,0,0,0,0,0,0,-1,1063,1527,0,0
-154,-503,0,0,0,0,0,0,0,0,0,-1,1070,1527,0,0
-147,-503,0,0,0,0,0,0,0,0,0,-1,1077,1527,0,0
-140,-503,0,0,0,0,0,0,0,0,0,-1,1084,1527,0,0
-133,-503,0,0,0,0,0,0,0,0,0,-1,1091,1527,0,0
-126,-503,0,0,0,0,0,0,0,0,0,-1,1098,1527,0,0
-119,-503,0,0,0,0,0,0,0,0,0,-1,1105,1527,0,0
-112,-503,0,0,0,0,0,0,0,0,0,-1,1112,1527,0,0
-105,-503,0,0,0,0,0,0,0,0,0,-1,1119,1527,0,0
-98,-503,0,0,0,0,0,0,0,0,0,-1,1126,1527,0,0
-91,-503,0,0,0,0,0,0,0,0,0,-1,1133,1527,0,0
-84,-503,0,0,0,0,0,0,0,0,0,-1,1140,1527,0,0
-77,-503,0,0,0,0,0,0,0,0,0,-1,1147,1527,0,0
-70,-503,0,0,0,0,0,0,0,0,0,-1,1154,1527,0,0
-63,-503,0,0,0,0,0,0,0,0,0,-1,1161,1527,0,0
-56,-503,0,0,0,0,0,0,0,0,0,-1,1168,1527,0,0
-49,-503,0,0,0,0,0,0,0,0,0,-1,1175,1527,0,0
-42,-503,0,0,0,0,0,0,0,0,0,-1,1182,1527,0,0
-35,-503,0,0,0,0,0,0,0,0,0,-1,1189,1527,0,0
-28,-503,0,0,0,0,0,0,0,0,0,-1,1196,1527,0,0
-21,-503,0,0,0,0,0,0,0,0,0,-1,1203,1527,0,0
-14,-503,0,0,0,0,0,0,0,0,0,-1,1210,1527,0,0
-7,-503,0,0,0,0,0,0,0,0,0,-1,1217,1527,0,0
0,-503,0,0,0,0,0,0,0,0,0,-1,1224,1527,0,0
7,-503,0,0,0,0,0,0,0,0,0,-1,1231,1527,0,0
14,-503,0,0,0,0,0,0,0,0,0,-1,1238,1527,0,0
21,-503,0,0,0,0,0,0,0,0,0,-1,1245,1527,0,0
28,-503,0,0,0,0,0,0,0,0,0,-1,1252,1527,0,0
35,-503,0,0,0,0,0,0,0,0,0,-1,1259,1527,0,0
42,-503,0,0,0,0,0,0,0,0,0,-1,1266,1527,0,0
49,-503,0,0,0,0,0,0,0,0,0,-1,1273,1527,0,0
56,-503,0,0,0,0,0,0,0,0,0,-1,1280,1527,0,0
63,-503,0,0,0,0,0,0,0,0,0,-1,1287,1527,0,0
70,-503,0,0,0,0,0,0,0,0,0,-1,1294,1527,0,0
77,-503,0,0,0,0,0,0,0,0,0,-1,1301,1527,0,0
84,-503,0,0,0,0,0,0,0,0,0,-1,1308,1527,0,0
91,-503,0,0,0,0,0,0,0,0,0,-1,1315,1527,0,0
98,-503,0,0,0,0,0,0,0,0,0,-1,1322,1527,0,0
105,-503,0,0,0,0,0,0,0,0,0,-1,1329,1527,0,0
112,-503,0,0,0,0,0,0,0,0,0,-1,1336,1527,0,0
119,-503,0,0,0,0,0,0,0,0,0,-1,1343,1527,0,0
126,-503,0,0,0,0,0,0,0,0,0,-1,1350,1527,0,0
133,-503,0,0,0,0,0,0,0,0,0,-1,1357,1527,0,0
140,-503,0,0,0,0,0,0,0,0,0,-1,1364,1527,0,0
147,-503,0,0,0,0,0,0,0,0,0,-1,1371,1527,0,0
154,-503,0,0,0,0,0,0,0,0,0,-1,1378,1527,0,0
161,-503,0,0,0,0,0,0,0,0,0,-1,1385,1527,0,0
168,-503,0,0,0,0,0,0,0,0,0,-1,1392,1527,0,0
175,-503,0,0,0,0,0,0,0,0,0,-1,1399,1527,0,0
182,-503,0,0,0,0,0,0,0,0,0,-1,1406,1527,0,0
189,-503,0,0,0,0,0,0,0,0,0,-1,1413,1527,0,0
196,-503,0,0,0,0,0,0,0,0,0,-1,1420,1527,0,0
203,-503,0,0,0,0,0,0,0,0,0,-1,1427,1527,0,0
210,-503,0,0,0,0,0,0,0,0,0,-1,1434,1527,0,0
217,-503,0,0,0,0,0,0,0,0,0,-1,1441,1527,0,0
224,-503,0,0,0,0,0,0,0,0,0,-1,1448,1527,0,0
231,-503,0,0,0,0,0,0,0,0,0,-1,1455,1527,0,0
238,-503,0,0,0,0,0,0,0,0,0,-1,1462,1527,0,0
245,-503,0,0,0,0,0,0,0,0,0,-1,1469,1527,0,0
252,-503,0,0,0,0,0,0,0,0,0,-1,1476,1527,0,0
259,-503,0,0,0,0,0,0,0,0,0,-1,1483,1527,0,0
266,-503,0,0,0,0,0,0,0,0,0,-1,1490,1527,0,0
273,-503,0,0,0,0,0,0,0,0,0,-1,1497,1527,0,0
280,-503,0,0,0,0,0,0,0,0,0,-1,1504,1527,0,0
287,-503,0,0,0,0,0,0,0,0,0,-1,1511,1527,0,0
294,-503,0,0,0,0,0,0,0,0,0,-1,1518,1527,0,0
301,-503,0,0,0,0,0,0,0,0,0,-1,1525,1527,0,0
308,-503,0,0,0,0,0,0,0,0,0,-1,1532,1527,0,0
315,-503,0,0,0,0,0,0,0,0,0,-1,1539,1527,0,0
322,-503,0,0,0,0,0,0,0,0,0,-1,1546,1527,0,0
329,-503,0,0,0,0,0,0,0,0,0,-1,1553,1527,0,0
336,-503,0,0,0,0,0,0,0,0,0,-1,1560,1527,0,0
343,-503,0,0,0,0,0,0,0,0,0,-1,1567,1527,0,0
350,-503,0,0,0,0,0,0,0,0,0,-1,1574,1527,0,0
357,-503,0,0,0,0,0,0,0,0,0,-1,1581,1527,0,0
364,-503,0,0,0,0,0,0,0,0,0,-1,1588,1527,0,0
371,-503,0,0,0,0,0,0,0,0,0,-1,1595,1527,0,0
378,-503,0,0,0,0,0,0,0,0,0,-1,1602,1527,0,0
385,-503,0,0,0,0,0,0,0,0,0,-1,1609,1527,0,0
392,-503,0,0,0,0,0,0,0,0,0,-1,1616,1527,0,0
399,-503,0,0,0,0,0,0,0,0,0,-1,1623,1527,0,0
406,-503,0,0,0,0,0,0,0,0,0,-1,1630,1527,0,0
413,-503,0,0,0,0,0,0,0,0,0,-1,1637,1527,0,0
420,-503,0,0,0,0,0,0,0,0,0,-1,1644,1527,0,0
427,-503,10.5968,4.9856,0,0,0,0,0,0,0,-1,1651,1527,10.5969,-4.98563
434,-503,11.4329,3.97217,0,0,0,0,0,0,0,-1,1658,1527,11.4328,-3.97222
441,-503,12.0957,2.96509,0,0,0,0,0,0,0,-1,1665,1527,12.0957,-2.96512
448,-503,12.3259,2.53894,0,0,0,0,0,0,0,-1,1672,1527,12.326,-2.53895
455,-503,12.1669,2.18762,0,0,0,0,0,0,0,-1,1679,1527,12.1668,-2.18767
462,-503,11.59,2.60791,0,0,0,0,0,0,0,-1,1686,1527,11.5899,-2.60794
469,-503,11.1625,1.61853,0,0,0,0,0,0,0,-1,1693,1527,11.1625,-1.61856
476,-503,9.07703,5.81042,0,0,0,0,0,0,0,-1,1700,1527,9.07699,-5.81047
483,-503,9.74414,6.92432,0,0,0,0,0,0,0,-1,1707,1527,9.74417,-6.9243
490,-503,10.5033,10.1071,0,0,0,0,0,0,0,-1,1714,1527,10.5032,-10.107
497,-503,15.0057,17.9476,0,0,0,0,0,0,0,-1,1721,1527,15.0058,-17.9476
504,-503,16.4764,18.4486,0,0,0,0,0,0,0,-1,1728,1527,16.4764,-18.4486
511,-503,16.8276,18.3271,0,0,0,0,0,0,0,-1,1735,1527,16.8276,-18.3272
518,-503,17.2533,18.2738,0,0,0,0,0,0,0,-1,1742,1527,17.2533,-18.2738
525,-503,21.2887,26.5785,0,0,0,0,0,0,0,-1,1749,1527,21.2887,-26.5785
532,-503,50.0776,89.5392,0,0,0,0,0,0,0,-1,1756,1527,50.0776,-89.5392
539,-503,73.004,136.88,0,0,0,0,0,0,0,-1,1763,1527,73.004,-136.879
546,-503,109.076,135.925,0,0,0,0,0,0,0,-1,1770,1527,109.076,-135.925
553,-503,107.983,132.006,0.0175995,0.0046248,0.0360074,0.0476993,-0.025475,0.696271,0.0428918,0.0340566,1777,1527,107.983,-132.006
560,-503,106.744,128.043,0.0177062,0.00887951,0.0380475,0.0515954,-0.0250098,0.727659,0.0451071,0.0224258,1784,1527,106.743,-128.043
567,-503,105.557,123.925,0.0180083,0.0132166,0.0396617,0.0553464,-0.0241215,0.755231,0.0470466,0.0208947,1791,1527,105.557,-123.925
574,-503,104.519,119.95,0.0184645,0.0175118,0.0412044,0.0591953,-0.023219,0.779618,0.0490699,0.0224766,1798,1527,104.519,-119.95
581,-503,103.494,116.028,0.0191102,0.0217395,0.0426313,0.0630764,-0.0222267,0.800812,0.0510975,0.0223196,1805,1527,103.494,-116.028
588,-503,102.393,112.031,0.0200083,0.0258906,0.0438522,0.0669002,-0.0210013,0.818883,0.053006,0.0245593,1812,1527,102.393,-112.031
595,-503,101.461,108.28,0.0211571,0.0298763,0.0449268,0.0706545,-0.0196211,0.833766,0.0548264,0.0207698,1819,1527,101.461,-108.28
602,-503,100.508,104.5,0,0,0,0,0,0,0,-1,1826,1527,100.508,-104.5
609,-503,99.5952,99.9609,0,0,0,0,0,0,0,-1,1833,1527,99.5952,-99.9609
616,-503,27.9205,24.2308,0,0,0,0,0,0,0,-1,1840,1527,27.9206,-24.2309
623,-503,18.7351,15.5999,0,0,0,0,0,0,0,-1,1847,1527,18.7351,-15.5999
630,-503,20.6721,13.9077,0,0,0,0,0,0,0,-1,1854,1527,20.6721,-13.9077
637,-503,14.5564,9.20496,0,0,0,0,0,0,0,-1,1861,1527,14.5564,-9.2049
644,-503,11.4802,7.57214,0,0,0,0,0,0,0,-1,1868,1527,11.4802,-7.57215
651,-503,11.5718,6.5448,0,0,0,0,0,0,0,-1,1875,1527,11.5718,-6.54476
658,-503,8.25635,3.10498,0,0,0,0,0,0,0,-1,1882,1527,8.2563,-3.10493
665,-503,0,0,0,0,0,0,0,0,0,-1,1889,1527,0,0
672,-503,0,0,0,0,0,0,0,0,0,-1,1896,1527,0,0
679,-503,0,0,0,0,0,0,0,0,0,-1,1903,1527,0,0
686,-503,0,0,0,0,0,0,0,0,0,-1,1910,1527,0,0
693,-503,0,0,0,0,0,0,0,0,0,-1,1917,1527,0,0
700,-503,0,0,0,0,0,0,0,0,0,-1,1924,1527,0,0
707,-503,0,0,0,0,0,0,0,0,0,-1,1931,1527,0,0
714,-503,0,0,0,0,0,0,0,0,0,-1,1938,1527,0,0
721,-503,0,0,0,0,0,0,0,0,0,-1,1945,1527,0,0
728,-503,0,0,0,0,0,0,0,0,0,-1,1952,1527,0,0
735,-503,0,0,0,0,0,0,0,0,0,-1,1959,1527,0,0
742,-503,0,0,0,0,0,0,0,0,0,-1,1966,1527,0,0
749,-503,0,0,0,0,0,0,0,0,0,-1,1973,1527,0,0
756,-503,0,0,0,0,0,0,0,0,0,-1,1980,1527,0,0
763,-503,0,0,0,0,0,0,0,0,0,-1,1987,1527,0,0
770,-503,0,0,0,0,0,0,0,0,0,-1,1994,1527,0,0
777,-503,0,0,0,0,0,0,0,0,0,-1,2001,1527,0,0
784,-503,0,0,0,0,0,0,0,0,0,-1,2008,1527,0,0
791,-503,0,0,0,0,0,0,0,0,0,-1,2015,1527,0,0
798,-503,0,0,0,0,0,0,0,0,0,-1,2022,1527,0,0
805,-503,0,0,0,0,0,0,0,0,0,-1,2029,1527,0,0
812,-503,0,0,0,0,0,0,0,0,0,-1,2036,1527,0,0
-700,-510,0,0,0,0,0,0,0,0,0,-1,524,1534,0,0
-693,-510,0,0,0,0,0,0,0,0,0,-1,531,1534,0,0
-686,-510,0,0,0,0,0,0,0,0,0,-1,538,1534,0,0
-679,-510,0,0,0,0,0,0,0,0,0,-1,545,1534,0,0
-672,-510,0,0,0,0,0,0,0,0,0,-1,552,1534,0,0
-665,-510,0,0,0,0,0,0,0,0,0,-1,559,1534,0,0
-658,-510,0,0,0,0,0,0,0,0,0,-1,566,1534,0,0
-651,-510,0,0,0,0,0,0,0,0,0,-1,573,1534,0,0
-644,-510,0,0,0,0,0,0,0,0,0,-1,580,1534,0,0
-637,-510,0,0,0,0,0,0,0,0,0,-1,587,1534,0,0
-630,-510,0,0,0,0,0,0,0,0,0,-1,594,1534,0,0
-623,-510,0,0,0,0,0,0,0,0,0,-1,601,1534,0,0
-616,-510,0,0,0,0,0,0,0,0,0,-1,608,1534,0,0
-609,-510,0,0,0,0,0,0,0,0,0,-1,615,1534,0,0
-602,-510,0,0,0,0,0,0,0,0,0,-1,622,1534,0,0
-595,-510,0,0,0,0,0,0,0,0,0,-1,629,1534,0,0
-588,-510,0,0,0,0,0,0,0,0,0,-1,636,1534,0,0
-581,-510,0,0,0,0,0,0,0,0,0,-1,643,1534,0,0
-574,-510,0,0,0,0,0,0,0,0,0,-1,650,1534,0,0
-567,-510,0,0,0,0,0,0,0,0,0,-1,657,1534,0,0
-560,-510,0,0,0,0,0,0,0,0,0,-1,664,1534,0,0
-553,-510,0,0,0,0,0,0,0,0,0,-1,671,1534,0,0
-546,-510,0,0,0,0,0,0,0,0,0,-1,678,1534,0,0
-539,-510,0,0,0,0,0,0,0,0,0,-1,685,1534,0,0
-532,-510,-3.95129,4.52014,0,0,0,0,0,0,0,-1,692,1534,-3.95131,-4.5202
-525,-510,-2.77411,0.316772,0,0,0,0,0,0,0,-1,699,1534,-2.77409,-0.3168
-518,-510,-2.86847,2.71423,0,0,0,0,0,0,0,-1,706,1534,-2.86849,-2.71424
-511,-510,-2.28571,4.48083,0,0,0,0,0,0,0,-1,713,1534,-2.28571,-4.48086
-504,-510,-4.86731,10.8224,0,0,0,0,0,0,0,-1,720,1534,-4.8673,-10.8224
-497,-510,-3.42352,15.5178,0,0,0,0,0,0,0,-1,727,1534,-3.42352,-15.5178
-490,-510,-5.9472,18.5184,0,0,0,0,0,0,0,-1,734,1534,-5.94718,-18.5185
-483,-510,-6.79639,20.8453,0,0,0,0,0,0,0,-1,741,1534,-6.79638,-20.8454
-476,-510,-16.0211,37.6001,0,0,0,0,0,0,0,-1,748,1534,-16.021,-37.6001
-469,-510,-86.4154,101.082,0,0,0,0,0,0,0,-1,755,1534,-86.4154,-101.082
-462,-510,-87.2693,105.056,0.0413179,0.0482237,-0.0605274,0.105397,-0.015855,-0.813891,0.076102,0.0289809,762,1534,-87.2693,-105.056
-455,-510,-88.1465,108.957,0.0383211,0.0422657,-0.0597047,0.100031,-0.0194439,-0.801909,0.0740246,0.0221941,769,1534,-88.1465,-108.957
-448,-510,-89.2293,112.808,0.0362866,0.0365577,-0.0589438,0.0953661,-0.0225218,-0.786548,0.0722642,0.0203753,776,1534,-89.2293,-112.808
-441,-510,-90.3578,116.847,0.0345399,0.0310569,-0.0582641,0.0910885,-0.0254917,-0.770458,0.0707702,0.023874,783,1534,-90.3579,-116.847
-434,-510,-91.4454,120.868,0.0327075,0.0257736,-0.0577698,0.0871143,-0.0286332,-0.755428,0.069612,0.0249747,790,1534,-91.4454,-120.868
-427,-510,-92.3491,124.994,0.0309213,0.0210187,-0.0575486,0.0837312,-0.0317913,-0.742485,0.0689074,0.0384096,797,1534,-92.3491,-124.994
-420,-510,-93.0963,129.041,0.0289436,0.0164758,-0.0574282,0.0804752,-0.0350559,-0.731334,0.0683985,0.0350751,804,1534,-93.0963,-129.041
-413,-510,-94.0533,133.453,0.0263204,0.0122809,-0.0575097,0.0772372,-0.0386359,-0.724668,0.0681256,0.0390383,811,1534,-94.0533,-133.453
-406,-510,-95.1804,137.872,0,0,0,0,0,0,0,-1,818,1534,-95.1804,-137.872
-399,-510,-81.2313,142.038,0,0,0,0,0,0,0,-1,825,1534,-81.2313,-142.038
-392,-510,-73.9508,144.447,0,0,0,0,0,0,0,-1,832,1534,-73.9508,-144.447
-385,-510,-7.23199,31.704,0,0,0,0,0,0,0,-1,839,1534,-7.23198,-31.704
-378,-510,-1.78308,13.8044,0,0,0,0,0,0,0,-1,846,1534,-1.78309,-13.8044
-371,-510,-1.74982,13.8027,0,0,0,0,0,0,0,-1,853,1534,-1.74981,-13.8028
-364,-510,-1.3479,13.7771,0,0,0,0,0,0,0,-1,860,1534,-1.34791,-13.7771
-357,-510,-0.254395,8.89575,0,0,0,0,0,0,0,-1,867,1534,-0.254397,-8.89569
-350,-510,0.471191,6.06458,0,0,0,0,0,0,0,-1,874,1534,0.47118,-6.06453
-343,-510,-6.96869,26.3074,0,0,0,0,0,0,0,-1,881,1534,-6.9687,-26.3074
-336,-510,-5.60437,29.5996,0,0,0,0,0,0,0,-1,888,1534,-5.60435,-29.5996
-329,-510,-4.87781,20.6893,0,0,0,0,0,0,0,-1,895,1534,-4.87782,-20.6894
-322,-510,-0.251526,11.973,0,0,0,0,0,0,0,-1,902,1534,-0.251497,-11.9731
-315,-510,-1.73047,10.9796,0,0,0,0,0,0,0,-1,909,1534,-1.73049,-10.9796
-308,-510,-2.05328,9.72034,0,0,0,0,0,0,0,-1,916,1534,-2.05327,-9.72036
-301,-510,-1.85437,11.5869,0,0,0,0,0,0,0,-1,923,1534,-1.85437,-11.5869
-294,-510,0,0,0,0,0,0,0,0,0,-1,930,1534,0,0
-287,-510,0,0,0,0,0,0,0,0,0,-1,937,1534,0,0
-280,-510,0,0,0,0,0,0,0,0,0,-1,944,1534,0,0
-273,-510,0,0,0,0,0,0,0,0,0,-1,951,1534,0,0
-266,-510,0,0,0,0,0,0,0,0,0,-1,958,1534,0,0
-259,-510,0,0,0,0,0,0,0,0,0,-1,965,1534,0,0
-252,-510,0,0,0,0,0,0,0,0,0,-1,972,1534,0,0
-245,-510,0,0,0,0,0,0,0,0,0,-1,979,1534,0,0
-238,-510,0,0,0,0,0,0,0,0,0,-1,986,1534,0,0
-231,-510,0,0,0,0,0,0,0,0,0,-1,993,1534,0,0
-224,-510,0,0,0,0,0,0,0,0,0,-1,1000,1534,0,0
-217,-510,0,0,0,0,0,0,0,0,0,-1,1007,1534,0,0
-210,-510,0,0,0,0,0,0,0,0,0,-1,1014,1534,0,0
-203,-510,0,0,0,0,0,0,0,0,0,-1,1021,1534,0,0
-196,-510,0,0,0,0,0,0,0,0,0,-1,1028,1534,0,0
-189,-510,0,0,0,0,0,0,0,0,0,-1,1035,1534,0,0
-182,-510,0,0,0,0,0,0,0,0,0,-1,1042,1534,0,0
-175,-510,0,0,0,0,0,0,0,0,0,-1,1049,1534,0,0
-168,-510,0,0,0,0,0,0,0,0,0,-1,1056,1534,0,0
-161,-510,0,0,0,0,0,0,0,0,0,-1,1063,1534,0,0
-154,-510,0,0,0,0,0,0,0,0,0,-1,1070,1534,0,0
-147,-510,0,0,0,0,0,0,0,0,0,-1,1077,1534,0,0
-140,-510,0,0,0,0,0,0,0,0,0,-1,1084,1534,0,0
-133,-510,0,0,0,0,0,0,0,0,0,-1,1091,1534,0,0
-126,-510,0,0,0,0,0,0,0,0,0,-1,1098,1534,0,0
-119,-510,0,0,0,0,0,0,0,0,0,-1,1105,1534,0,0
-112,-510,0,0,0,0,0,0,0,0,0,-1,1112,1534,0,0
-105,-510,0,0,0,0,0,0,0,0,0,-1,1119,1534,0,0
-98,-510,0,0,0,0,0,0,0,0,0,-1,1126,1534,0,0
-91,-510,0,0,0,0,0,0,0,0,0,-1,1133,1534,0,0
-84,-510,0,0,0,0,0,0,0,0,0,-1,1140,1534,0,0
-77,-510,0,0,0,0,0,0,0,0,0,-1,1147,1534,0,0
-70,-510,0,0,0,0,0,0,0,0,0,-1,1154,1534,0,0
-63,-510,0,0,0,0,0,0,0,0,0,-1,1161,1534,0,0
-56,-510,0,0,0,0,0,0,0,0,0,-1,1168,1534,0,0
-49,-510,0,0,0,0,0,0,0,0,0,-1,1175,1534,0,0
-42,-510,0,0,0,0,0,0,0,0,0,-1,1182,1534,0,0
-35,-510,0,0,0,0,0,0,0,0,0,-1,1189,1534,0,0
-28,-510,0,0,0,0,0,0,0,0,0,-1,1196,1534,0,0
-21,-510,0,0,0,0,0,0,0,0,0,-1,1203,1534,0,0
-14,-510,0,0,0,0,0,0,0,0,0,-1,1210,1534,0,0
-7,-510,0,0,0,0,0,0,0,0,0,-1,1217,1534,0,0
0,-510,0,0,0,0,0,0,0,0,0,-1,1224,1534,0,0
7,-510,0,0,0,0,0,0,0,0,0,-1,1231,1534,0,0
14,-510,0,0,0,0,0,0,0,0,0,-1,1238,1534,0,0
21,-510,0,0,0,0,0,0,0,0,0,-1,1245,1534,0,0
28,-510,0,0,0,0,0,0,0,0,0,-1,1252,1534,0,0
35,-510,0,0,0,0,0,0,0,0,0,-1,1259,1534,0,0
42,-510,0,0,0,0,0,0,0,0,0,-1,1266,1534,0,0
49,-510,0,0,0,0,0,0,0,0,0,-1,1273,1534,0,0
56,-510,0,0,0,0,0,0,0,0,0,-1,1280,1534,0,0
63,-510,0,0,0,0,0,0,0,0,0,-1,1287,1534,0,0
70,-510,0,0,0,0,0,0,0,0,0,-1,1294,1534,0,0
77,-510,0,0,0,0,0,0,0,0,0,-1,1301,1534,0,0
84,-510,0,0,0,0,0,0,0,0,0,-1,1308,1534,0,0
91,-510,0,0,0,0,0,0,0,0,0,-1,1315,1534,0,0
98,-510,0,0,0,0,0,0,0,0,0,-1,1322,1534,0,0
105,-510,0,0,0,0,0,0,0,0,0,-1,1329,1534,0,0
112,-510,0,0,0,0,0,0,0,0,0,-1,1336,1534,0,0
119,-510,0,0,0,0,0,0,0,0,0,-1,1343,1534,0,0
126,-510,0,0,0,0,0,0,0,0,0,-1,1350,1534,0,0
133,-510,0,0,0,0,0,0,0,0,0,-1,1357,1534,0,0
140,-510,0,0,0,0,0,0,0,0,0,-1,1364,1534,0,0
147,-510,0,0,0,0,0,0,0,0,0,-1,1371,1534,0,0
154,-510,0,0,0,0,0,0,0,0,0,-1,1378,1534,0,0
161,-510,0,0,0,0,0,0,0,0,0,-1,1385,1534,0,0
168,-510,0,0,0,0,0,0,0,0,0,-1,1392,1534,0,0
175,-510,0,0,0,0,0,0,0,0,0,-1,1399,1534,0,0
182,-510,0,0,0,0,0,0,0,0,0,-1,1406,1534,0,0
189,-510,0,0,0,0,0,0,0,0,0,-1,1413,1534,0,0
196,-510,0,0,0,0,0,0,0,0,0,-1,1420,1534,0,0
203,-510,0,0,0,0,0,0,0,0,0,-1,1427,1534,0,0
210,-510,0,0,0,0,0,0,0,0,0,-1,1434,1534,0,0
217,-510,0,0,0,0,0,0,0,0,0,-1,1441,1534,0,0
224,-510,0,0,0,0,0,0,0,0,0,-1,1448,1534,0,0
231,-510,0,0,0,0,0,0,0,0,0,-1,1455,1534,0,0
238,-510,0,0,0,0,0,0,0,0,0,-1,1462,1534,0,0
245,-510,0,0,0,0,0,0,0,0,0,-1,1469,1534,0,0
252,-510,0,0,0,0,0,0,0,0,0,-1,1476,1534,0,0
259,-510,0,0,0,0,0,0,0,0,0,-1,1483,1534,0,0
266,-510,0,0,0,0,0,0,0,0,0,-1,1490,1534,0,0
273,-510,0,0,0,0,0,0,0,0,0,-1,1497,1534,0,0
280,-510,0,0,0,0,0,0,0,0,0,-1,1504,1534,0,0
287,-510,0,0,0,0,0,0,0,0,0,-1,1511,1534,0,0
294,-510,0,0,0,0,0,0,0,0,0,-1,1518,1534,0,0
301,-510,0,0,0,0,0,0,0,0,0,-1,1525,1534,0,0
308,-510,0,0,0,0,0,0,0,0,0,-1,1532,1534,0,0
315,-510,0,0,0,0,0,0,0,0,0,-1,1539,1534,0,0
322,-510,0,0,0,0,0,0,0,0,0,-1,1546,1534,0,0
329,-510,0,0,0,0,0,0,0,0,0,-1,1553,1534,0,0
336,-510,0,0,0,0,0,0,0,0,0,-1,1560,1534,0,0
343,-510,0,0,0,0,0,0,0,0,0,-1,1567,1534,0,0
350,-510,0,0,0,0,0,0,0,0,0,-1,1574,1534,0,0
357,-510,0,0,0,0,0,0,0,0,0,-1,1581,1534,0,0
364,-510,0,0,0,0,0,0,0,0,0,-1,1588,1534,0,0
371,-510,0,0,0,0,0,0,0,0,0,-1,1595,1534,0,0
378,-510,0,0,0,0,0,0,0,0,0,-1,1602,1534,0,0
385,-510,0,0,0,0,0,0,0,0,0,-1,1609,1534,0,0
392,-510,0,0,0,0,0,0,0,0,0,-1,1616,1534,0,0
399,-510,0,0,0,0,0,0,0,0,0,-1,1623,1534,0,0
406,-510,0,0,0,0,0,0,0,0,0,-1,1630,1534,0,0
413,-510,0,0,0,0,0,0,0,0,0,-1,1637,1534,0,0
420,-510,14.1888,6.71936,0,0,0,0,0,0,0,-1,1644,1534,14.1889,-6.71939
427,-510,10.2134,5.59485,0,0,0,0,0,0,0,-1,1651,1534,10.2134,-5.59485
434,-510,11.8219,4.07898,0,0,0,0,0,0,0,-1,1658,1534,11.8219,-4.07895
441,-510,12.6812,3.02991,0,0,0,0,0,0,0,-1,1665,1534,12.6811,-3.0299
448,-510,13.2379,2.2804,0,0,0,0,0,0,0,-1,1672,1534,13.2379,-2.28037
455,-510,9.76892,2.20642,0,0,0,0,0,0,0,-1,1679,1534,9.76894,-2.20647
462,-510,9.84692,2.49182,0,0,0,0,0,0,0,-1,1686,1534,9.84695,-2.49185
469,-510,16.6072,7.26941,0,0,0,0,0,0,0,-1,1693,1534,16.6072,-7.26945
476,-510,15.9199,7.8645,0,0,0,0,0,0,0,-1,1700,1534,15.9199,-7.86455
483,-510,13.0833,8.10938,0,0,0,0,0,0,0,-1,1707,1534,13.0833,-8.10932
490,-510,13.0841,15.3286,0,0,0,0,0,0,0,-1,1714,1534,13.0841,-15.3286
497,-510,15.5652,18.823,0,0,0,0,0,0,0,-1,1721,1534,15.5652,-18.823
504,-510,15.998,18.7478,0,0,0,0,0,0,0,-1,1728,1534,15.998,-18.7478
511,-510,15.9443,18.0476,0,0,0,0,0,0,0,-1,1735,1534,15.9443,-18.0476
518,-510,21.5343,27.1368,0,0,0,0,0,0,0,-1,1742,1534,21.5342,-27.1368
525,-510,48.0154,91.9933,0,0,0,0,0,0,0,-1,1749,1534,48.0153,-91.9933
532,-510,72.8895,143.45,0,0,0,0,0,0,0,-1,1756,1534,72.8895,-143.45
539,-510,101.856,141.73,0,0,0,0,0,0,0,-1,1763,1534,101.856,-141.73
546,-510,104.787,137.536,0,0,0,0,0,0,0,-1,1770,1534,104.787,-137.536
553,-510,103.521,133.524,0.0211295,0.00557631,0.0377016,0.0518482,-0.0251424,0.683691,0.0453331,0.0266048,1777,1534,103.521,-133.524
560,-510,102.267,129.478,0.0209852,0.00983639,0.0395027,0.0553049,-0.0244833,0.715304,0.0471975,0.0211364,1784,1534,102.267,-129.478
567,-510,101.053,125.419,0.0210827,0.0143612,0.04112,0.0589791,-0.0235352,0.744623,0.0490828,0.0212469,1791,1534,101.053,-125.419
574,-510,99.9714,121.327,0.0214195,0.0189781,0.0426599,0.0628762,-0.0224786,0.771095,0.0510863,0.0231815,1798,1534,99.9714,-121.327
581,-510,99.0243,117.442,0.0220005,0.0235473,0.0440796,0.0668603,-0.0213125,0.79417,0.0531224,0.0194041,1805,1534,99.0243,-117.442
588,-510,97.9844,113.585,0.0228962,0.0280455,0.0453257,0.0708696,-0.0199279,0.813769,0.0551036,0.0210551,1812,1534,97.9844,-113.585
595,-510,97.0912,109.527,0.0241361,0.0324165,0.0464618,0.0749222,-0.0183696,0.829836,0.0570655,0.0415327,1819,1534,97.0912,-109.527
602,-510,96.1653,105.521,0,0,0,0,0,0,0,-1,1826,1534,96.1653,-105.521
609,-510,21.259,19.222,0,0,0,0,0,0,0,-1,1833,1534,21.259,-19.222
616,-510,18.7024,16.2474,0,0,0,0,0,0,0,-1,1840,1534,18.7024,-16.2474
623,-510,19.6013,14.6211,0,0,0,0,0,0,0,-1,1847,1534,19.6013,-14.6211
630,-510,13.7461,9.30334,0,0,0,0,0,0,0,-1,1854,1534,13.7461,-9.30335
637,-510,11.0155,7.38464,0,0,0,0,0,0,0,-1,1861,1534,11.0155,-7.38463
644,-510,11.5809,7.17126,0,0,0,0,0,0,0,-1,1868,1534,11.5809,-7.17123
651,-510,8.70471,3.5061,0,0,0,0,0,0,0,-1,1875,1534,8.70475,-3.50611
658,-510,0,0,0,0,0,0,0,0,0,-1,1882,1534,0,0
665,-510,0,0,0,0,0,0,0,0,0,-1,1889,1534,0,0
672,-510,0,0,0,0,0,0,0,0,0,-1,1896,1534,0,0
679,-510,0,0,0,0,0,0,0,0,0,-1,1903,1534,0,0
686,-510,0,0,0,0,0,0,0,0,0,-1,1910,1534,0,0
693,-510,0,0,0,0,0,0,0,0,0,-1,1917,1534,0,0
700,-510,0,0,0,0,0,0,0,0,0,-1,1924,1534,0,0
707,-510,0,0,0,0,0,0,0,0,0,-1,1931,1534,0,0
714,-510,0,0,0,0,0,0,0,0,0,-1,1938,1534,0,0
721,-510,0,0,0,0,0,0,0,0,0,-1,1945,1534,0,0
728,-510,0,0,0,0,0,0,0,0,0,-1,1952,1534,0,0
735,-510,0,0,0,0,0,0,0,0,0,-1,1959,1534,0,0
742,-510,0,0,0,0,0,0,0,0,0,-1,1966,1534,0,0
749,-510,0,0,0,0,0,0,0,0,0,-1,1973,1534,0,0
756,-510,0,0,0,0,0,0,0,0,0,-1,1980,1534,0,0
763,-510,0,0,0,0,0,0,0,0,0,-1,1987,1534,0,0
770,-510,0,0,0,0,0,0,0,0,0,-1,1994,1534,0,0
777,-510,0,0,0,0,0,0,0,0,0,-1,2001,1534,0,0
784,-510,0,0,0,0,0,0,0,0,0,-1,2008,1534,0,0
791,-510,0,0,0,0,0,0,0,0,0,-1,2015,1534,0,0
798,-510,0,0,0,0,0,0,0,0,0,-1,2022,1534,0,0
805,-510,0,0,0,0,0,0,0,0,0,-1,2029,1534,0,0
812,-510,0,0,0,0,0,0,0,0,0,-1,2036,1534,0,0
-700,-517,0,0,0,0,0,0,0,0,0,-1,524,1541,0,0
-693,-517,0,0,0,0,0,0,0,0,0,-1,531,1541,0,0
-686,-517,0,0,0,0,0,0,0,0,0,-1,538,1541,0,0
-679,-517,0,0,0,0,0,0,0,0,0,-1,545,1541,0,0
-672,-517,0,0,0,0,0,0,0,0,0,-1,552,1541,0,0
-665,-517,0,0,0,0,0,0,0,0,0,-1,559,1541,0,0
-658,-517,0,0,0,0,0,0,0,0,0,-1,566,1541,0,0
-651,-517,0,0,0,0,0,0,0,0,0,-1,573,1541,0,0
-644,-517,0,0,0,0,0,0,0,0,0,-1,580,1541,0,0
-637,-517,0,0,0,0,0,0,0,0,0,-1,587,1541,0,0
-630,-517,0,0,0,0,0,0,0,0,0,-1,594,1541,0,0
-623,-517,0,0,0,0,0,0,0,0,0,-1,601,1541,0,0
-616,-517,0,0,0,0,0,0,0,0,0,-1,608,1541,0,0
-609,-517,0,0,0,0,0,0,0,0,0,-1,615,1541,0,0
-602,-517,0,0,0,0,0,0,0,0,0,-1,622,1541,0,0
-595,-517,0,0,0,0,0,0,0,0,0,-1,629,1541,0,0
-588,-517,0,0,0,0,0,0,0,0,0,-1,636,1541,0,0
-581,-517,0,0,0,0,0,0,0,0,0,-1,643,1541,0,0
-574,-517,0,0,0,0,0,0,0,0,0,-1,650,1541,0,0
-567,-517,0,0,0,0,0,0,0,0,0,-1,657,1541,0,0
-560,-517,0,0,0,0,0,0,0,0,0,-1,664,1541,0,0
-553,-517,0,0,0,0,0,0,0,0,0,-1,671,1541,0,0
-546,-517,0,0,0,0,0,0,0,0,0,-1,678,1541,0,0
-539,-517,0,0,0,0,0,0,0,0,0,-1,685,1541,0,0
-532,-517,0,0,0,0,0,0,0,0,0,-1,692,1541,0,0
-525,-517,-3.62903,4.3606,0,0,0,0,0,0,0,-1,699,1541,-3.62904,-4.36056
-518,-517,-1.664,2.27209,0,0,0,0,0,0,0,-1,706,1541,-1.66399,-2.27207
-511,-517,-0.999146,5.52063,0,0,0,0,0,0,0,-1,713,1541,-0.999126,-5.52059
-504,-517,-1.06946,8.67432,0,0,0,0,0,0,0,-1,720,1541,-1.06947,-8.6743
-497,-517,-5.43036,17.4033,0,0,0,0,0,0,0,-1,727,1541,-5.43033,-17.4034
-490,-517,-6.20526,19.4496,0,0,0,0,0,0,0,-1,734,1541,-6.20526,-19.4495
-483,-517,-6.2254,20.368,0,0,0,0,0,0,0,-1,741,1541,-6.22542,-20.368
-476,-517,-11.8129,32.7147,0,0,0,0,0,0,0,-1,748,1541,-11.8129,-32.7147
-469,-517,-14.6641,38.8503,0,0,0,0,0,0,0,-1,755,1541,-14.6641,-38.8503
-462,-517,-82.4346,106.275,0,0,0,0,0,0,0,-1,762,1541,-82.4345,-106.275
-455,-517,-83.3843,110.321,0,0,0,0,0,0,0,-1,769,1541,-83.3843,-110.321
-448,-517,-84.4807,114.38,0.0393824,0.0391479,-0.0607528,0.100018,-0.0214877,-0.784433,0.0748762,0.0195111,776,1541,-84.4807,-114.38
-441,-517,-85.4525,118.438,0.0380192,0.0332821,-0.0598726,0.0955701,-0.0242688,-0.765628,0.0731574,0.0210253,783,1541,-85.4525,-118.438
-434,-517,-86.4102,122.466,0.0362823,0.0276766,-0.0592479,0.0913835,-0.0274245,-0.749149,0.0718306,0.0261263,790,1541,-86.4102,-122.466
-427,-517,-87.377,126.536,0.0344754,0.022628,-0.0589272,0.0877759,-0.0306725,-0.735304,0.0709858,0.0222687,797,1541,-87.377,-126.535
-420,-517,-88.3323,130.575,0,0,0,0,0,0,0,-1,804,1541,-88.3323,-130.575
-413,-517,-89.5473,135.046,0,0,0,0,0,0,0,-1,811,1541,-89.5473,-135.046
-406,-517,-90.759,139.354,0,0,0,0,0,0,0,-1,818,1541,-90.759,-139.354
-399,-517,-91.9855,143.906,0,0,0,0,0,0,0,-1,825,1541,-91.9855,-143.906
-392,-517,-93.6506,147.792,0,0,0,0,0,0,0,-1,832,1541,-93.6507,-147.792
-385,-517,-71.1876,150.088,0,0,0,0,0,0,0,-1,839,1541,-71.1876,-150.088
-378,-517,-6.61444,32.6315,0,0,0,0,0,0,0,-1,846,1541,-6.61445,-32.6315
-371,-517,-1.37585,13.2646,0,0,0,0,0,0,0,-1,853,1541,-1.37586,-13.2647
-364,-517,-1.26245,12.6289,0,0,0,0,0,0,0,-1,860,1541,-1.26243,-12.6289
-357,-517,-1.23889,12.979,0,0,0,0,0,0,0,-1,867,1541,-1.23891,-12.979
-350,-517,-5.40198,23.8954,0,0,0,0,0,0,0,-1,874,1541,-5.40196,-23.8954
-343,-517,-5.45844,29.2598,0,0,0,0,0,0,0,-1,881,1541,-5.45842,-29.2598
-336,-517,-4.53223,29.6708,0,0,0,0,0,0,0,-1,888,1541,-4.53221,-29.6708
-329,-517,-3.60602,30.0817,0,0,0,0,0,0,0,-1,895,1541,-3.60601,-30.0817
-322,-517,-4.21246,19.5819,0,0,0,0,0,0,0,-1,902,1541,-4.21244,-19.5819
-315,-517,-0.987976,7.29749,0,0,0,0,0,0,0,-1,909,1541,-0.987993,-7.29743
-308,-517,3.27911,17.621,0,0,0,0,0,0,0,-1,916,1541,3.27913,-17.621
-301,-517,-1.69141,8.87488,0,0,0,0,0,0,0,-1,923,1541,-1.69141,-8.87485
-294,-517,-1.72583,9.92566,0,0,0,0,0,0,0,-1,930,1541,-1.72584,-9.92571
-287,-517,-3.09045,12.1472,0,0,0,0,0,0,0,-1,937,1541,-3.09043,-12.1472
-280,-517,0,0,0,0,0,0,0,0,0,-1,944,1541,0,0
-273,-517,0,0,0,0,0,0,0,0,0,-1,951,1541,0,0
-266,-517,0,0,0,0,0,0,0,0,0,-1,958,1541,0,0
-259,-517,0,0,0,0,0,0,0,0,0,-1,965,1541,0,0
-252,-517,0,0,0,0,0,0,0,0,0,-1,972,1541,0,0
-245,-517,0,0,0,0,0,0,0,0,0,-1,979,1541,0,0
-238,-517,0,0,0,0,0,0,0,0,0,-1,986,1541,0,0
-231,-517,0,0,0,0,0,0,0,0,0,-1,993,1541,0,0
-224,-517,0,0,0,0,0,0,0,0,0,-1,1000,1541,0,0
-217,-517,0,0,0,0,0,0,0,0,0,-1,1007,1541,0,0
-210,-517,0,0,0,0,0,0,0,0,0,-1,1014,1541,0,0
-203,-517,0,0,0,0,0,0,0,0,0,-1,1021,1541,0,0
-196,-517,0,0,0,0,0,0,0,0,0,-1,1028,1541,0,0
-189,-517,0,0,0,0,0,0,0,0,0,-1,1035,1541,0,0
-182,-517,0,0,0,0,0,0,0,0,0,-1,1042,1541,0,0
-175,-517,0,0,0,0,0,0,0,0,0,-1,1049,1541,0,0
-168,-517,0,0,0,0,0,0,0,0,0,-1,1056,1541,0,0
-161,-517,0,0,0,0,0,0,0,0,0,-1,1063,1541,0,0
-154,-517,0,0,0,0,0,0,0,0,0,-1,1070,1541,0,0
-147,-517,0,0,0,0,0,0,0,0,0,-1,1077,1541,0,0
-140,-517,0,0,0,0,0,0,0,0,0,-1,1084,1541,0,0
-133,-517,0,0,0,0,0,0,0,0,0,-1,1091,1541,0,0
-126,-517,0,0,0,0,0,0,0,0,0,-1,1098,1541,0,0
-119,-517,0,0,0,0,0,0,0,0,0,-1,1105,1541,0,0
-112,-517,0,0,0,0,0,0,0,0,0,-1,1112,1541,0,0
-105,-517,0,0,0,0,0,0,0,0,0,-1,1119,1541,0,0
-98,-517,0,0,0,0,0,0,0,0,0,-1,1126,1541,0,0
-91,-517,0,0,0,0,0,0,0,0,0,-1,1133,1541,0,0
-84,-517,0,0,0,0,0,0,0,0,0,-1,1140,1541,0,0
-77,-517,0,0,0,0,0,0,0,0,0,-1,1147,1541,0,0
-70,-517,0,0,0,0,0,0,0,0,0,-1,1154,1541,0,0
-63,-517,0,0,0,0,0,0,0,0,0,-1,1161,1541,0,0
-56,-517,0,0,0,0,0,0,0,0,0,-1,1168,1541,0,0
-49,-517,0,0,0,0,0,0,0,0,0,-1,1175,1541,0,0
-42,-517,0,0,0,0,0,0,0,0,0,-1,1182,1541,0,0
-35,-517,0,0,0,0,0,0,0,0,0,-1,1189,1541,0,0
-28,-517,0,0,0,0,0,0,0,0,0,-1,1196,1541,0,0
-21,-517,0,0,0,0,0,0,0,0,0,-1,1203,1541,0,0
-14,-517,0,0,0,0,0,0,0,0,0,-1,1210,1541,0,0
-7,-517,0,0,0,0,0,0,0,0,0,-1,1217,1541,0,0
0,-517,0,0,0,0,0,0,0,0,0,-1,1224,1541,0,0
7,-517,0,0,0,0,0,0,0,0,0,-1,1231,1541,0,0
14,-517,0,0,0,0,0,0,0,0,0,-1,1238,1541,0,0
21,-517,0,0,0,0,0,0,0,0,0,-1,1245,1541,0,0
28,-517,0,0,0,0,0,0,0,0,0,-1,1252,1541,0,0
35,-517,0,0,0,0,0,0,0,0,0,-1,1259,1541,0,0
42,-517,0,0,0,0,0,0,0,0,0,-1,1266,1541,0,0
49,-517,0,0,0,0,0,0,0,0,0,-1,1273,1541,0,0
56,-517,0,0,0,0,0,0,0,0,0,-1,1280,1541,0,0
63,-517,0,0,0,0,0,0,0,0,0,-1,1287,1541,0,0
70,-517,0,0,0,0,0,0,0,0,0,-1,1294,1541,0,0
77,-517,0,0,0,0,0,0,0,0,0,-1,1301,1541,0,0
84,-517,0,0,0,0,0,0,0,0,0,-1,1308,1541,0,0
91,-517,0,0,0,0,0,0,0,0,0,-1,1315,1541,0,0
98,-517,0,0,0,0,0,0,0,0,0,-1,1322,1541,0,0
105,-517,0,0,0,0,0,0,0,0,0,-1,1329,1541,0,0
112,-517,0,0,0,0,0,0,0,0,0,-1,1336,1541,0,0
119,-517,0,0,0,0,0,0,0,0,0,-1,1343,1541,0,0
126,-517,0,0,0,0,0,0,0,0,0,-1,1350,1541,0,0
133,-517,0,0,0,0,0,0,0,0,0,-1,1357,1541,0,0
140,-517,0,0,0,0,0,0,0,0,0,-1,1364,1541,0,0
147,-517,0,0,0,0,0,0,0,0,0,-1,1371,1541,0,0
154,-517,0,0,0,0,0,0,0,0,0,-1,1378,1541,0,0
161,-517,0,0,0,0,0,0,0,0,0,-1,1385,1541,0,0
168,-517,0,0,0,0,0,0,0,0,0,-1,1392,1541,0,0
175,-517,0,0,0,0,0,0,0,0,0,-1,1399,1541,0,0
182,-517,0,0,0,0,0,0,0,0,0,-1,1406,1541,0,0
189,-517,0,0,0,0,0,0,0,0,0,-1,1413,1541,0,0
196,-517,0,0,0,0,0,0,0,0,0,-1,1420,1541,0,0
203,-517,0,0,0,0,0,0,0,0,0,-1,1427,1541,0,0
210,-517,0,0,0,0,0,0,0,0,0,-1,1434,1541,0,0
217,-517,0,0,0,0,0,0,0,0,0,-1,1441,1541,0,0
224,-517,0,0,0,0,0,0,0,0,0,-1,1448,1541,0,0
231,-517,0,0,0,0,0,0,0,0,0,-1,1455,1541,0,0
238,-517,0,0,0,0,0,0,0,0,0,-1,1462,1541,0,0
245,-517,0,0,0,0,0,0,0,0,0,-1,1469,1541,0,0
252,-517,0,0,0,0,0,0,0,0,0,-1,1476,1541,0,0
259,-517,0,0,0,0,0,0,0,0,0,-1,1483,1541,0,0
266,-517,0,0,0,0,0,0,0,0,0,-1,1490,1541,0,0
273,-517,0,0,0,0,0,0,0,0,0,-1,1497,1541,0,0
280,-517,0,0,0,0,0,0,0,0,0,-1,1504,1541,0,0
287,-517,0,0,0,0,0,0,0,0,0,-1,1511,1541,0,0
294,-517,0,0,0,0,0,0,0,0,0,-1,1518,1541,0,0
301,-517,0,0,0,0,0,0,0,0,0,-1,1525,1541,0,0
308,-517,0,0,0,0,0,0,0,0,0,-1,1532,1541,0,0
315,-517,0,0,0,0,0,0,0,0,0,-1,1539,1541,0,0
322,-517,0,0,0,0,0,0,0,0,0,-1,1546,1541,0,0
329,-517,0,0,0,0,0,0,0,0,0,-1,1553,1541,0,0
336,-517,0,0,0,0,0,0,0,0,0,-1,1560,1541,0,0
343,-517,0,0,0,0,0,0,0,0,0,-1,1567,1541,0,0
350,-517,0,0,0,0,0,0,0,0,0,-1,1574,1541,0,0
357,-517,0,0,0,0,0,0,0,0,0,-1,1581,1541,0,0
364,-517,0,0,0,0,0,0,0,0,0,-1,1588,1541,0,0
371,-517,0,0,0,0,0,0,0,0,0,-1,1595,1541,0,0
378,-517,0,0,0,0,0,0,0,0,0,-1,1602,1541,0,0
385,-517,0,0,0,0,0,0,0,0,0,-1,1609,1541,0,0
392,-517,0,0,0,0,0,0,0,0,0,-1,1616,1541,0,0
399,-517,0,0,0,0,0,0,0,0,0,-1,1623,1541,0,0
406,-517,13.1395,7.01978,0,0,0,0,0,0,0,-1,1630,1541,13.1396,-7.01981
413,-517,12.8859,6.31592,0,0,0,0,0,0,0,-1,1637,1541,12.8858,-6.31588
420,-517,12.4789,6.20337,0,0,0,0,0,0,0,-1,1644,1541,12.4789,-6.20333
427,-517,11.647,4.66516,0,0,0,0,0,0,0,-1,1651,1541,11.647,-4.66519
434,-517,12.3719,3.92773,0,0,0,0,0,0,0,-1,1658,1541,12.3719,-3.92776
441,-517,13.146,3.14124,0,0,0,0,0,0,0,-1,1665,1541,13.146,-3.14121
448,-517,13.8861,2.36682,0,0,0,0,0,0,0,-1,1672,1541,13.8861,-2.36684
455,-517,13.6012,4.06335,0,0,0,0,0,0,0,-1,1679,1541,13.6012,-4.06335
462,-517,14.8956,7.0752,0,0,0,0,0,0,0,-1,1686,1541,14.8956,-7.07525
469,-517,13.6292,6.87744,0,0,0,0,0,0,0,-1,1693,1541,13.6292,-6.87739
476,-517,17.1632,14.1487,0,0,0,0,0,0,0,-1,1700,1541,17.1632,-14.1487
483,-517,16.5157,15.0776,0,0,0,0,0,0,0,-1,1707,1541,16.5157,-15.0777
490,-517,15.5439,18.0258,0,0,0,0,0,0,0,-1,1714,1541,15.5439,-18.0258
497,-517,16.0292,18.7786,0,0,0,0,0,0,0,-1,1721,1541,16.0291,-18.7786
504,-517,31.0431,47.8639,0,0,0,0,0,0,0,-1,1728,1541,31.0431,-47.8639
511,-517,30.7837,46.1383,0,0,0,0,0,0,0,-1,1735,1541,30.7837,-46.1384
518,-517,58.7113,131.302,0,0,0,0,0,0,0,-1,1742,1541,58.7113,-131.302
525,-517,88.8242,150.176,0,0,0,0,0,0,0,-1,1749,1541,88.8242,-150.176
532,-517,92.3234,146.603,0,0,0,0,0,0,0,-1,1756,1541,92.3234,-146.603
539,-517,98.5999,143.599,0,0,0,0,0,0,0,-1,1763,1541,98.5999,-143.599
546,-517,100.184,139.401,0,0,0,0,0,0,0,-1,1770,1541,100.184,-139.401
553,-517,99.0458,135.119,0.0241949,0.00645331,0.0390619,0.0553806,-0.0247324,0.673744,0.0473681,0.0314883,1777,1541,99.0458,-135.119
560,-517,97.8411,130.876,0.0240767,0.0108403,0.0405839,0.0585785,-0.0236615,0.704572,0.048887,0.0241493,1784,1541,97.841,-130.876
567,-517,96.7244,126.838,0.0241311,0.0156114,0.0421328,0.0622188,-0.0224763,0.735017,0.0506615,0.0199433,1791,1541,96.7244,-126.838
574,-517,95.4993,122.807,0.0244583,0.0205663,0.0436393,0.0661949,-0.0211704,0.763116,0.0526258,0.0255017,1798,1541,95.4993,-122.807
581,-517,94.4176,118.856,0.0251032,0.0255187,0.0450518,0.0703632,-0.0197413,0.787704,0.0546901,0.0320699,1805,1541,94.4176,-118.856
588,-517,93.3796,114.893,0.0260911,0.0303757,0.046416,0.0746988,-0.018232,0.808459,0.0568594,0.0346982,1812,1541,93.3796,-114.893
595,-517,92.657,110.747,0,0,0,0,0,0,0,-1,1819,1541,92.657,-110.747
602,-517,28.1732,28.2633,0,0,0,0,0,0,0,-1,1826,1541,28.1733,-28.2633
609,-517,12.6417,10.8751,0,0,0,0,0,0,0,-1,1833,1541,12.6417,-10.8751
616,-517,14.205,10.3193,0,0,0,0,0,0,0,-1,1840,1541,14.205,-10.3194
623,-517,12.578,10.0779,0,0,0,0,0,0,0,-1,1847,1541,12.578,-10.0779
630,-517,11.7035,7.47815,0,0,0,0,0,0,0,-1,1854,1541,11.7035,-7.47812
637,-517,11.5172,5.79822,0,0,0,0,0,0,0,-1,1861,1541,11.5173,-5.79825
644,-517,11.4232,3.30579,0,0,0,0,0,0,0,-1,1868,1541,11.4232,-3.30574
651,-517,0,0,0,0,0,0,0,0,0,-1,1875,1541,0,0
658,-517,0,0,0,0,0,0,0,0,0,-1,1882,1541,0,0
665,-517,0,0,0,0,0,0,0,0,0,-1,1889,1541,0,0
672,-517,0,0,0,0,0,0,0,0,0,-1,1896,1541,0,0
679,-517,0,0,0,0,0,0,0,0,0,-1,1903,1541,0,0
686,-517,0,0,0,0,0,0,0,0,0,-1,1910,1541,0,0
693,-517,0,0,0,0,0,0,0,0,0,-1,1917,1541,0,0
700,-517,0,0,0,0,0,0,0,0,0,-1,1924,1541,0,0
707,-517,0,0,0,0,0,0,0,0,0,-1,1931,1541,0,0
714,-517,0,0,0,0,0,0,0,0,0,-1,1938,1541,0,0
721,-517,0,0,0,0,0,0,0,0,0,-1,1945,1541,0,0
728,-517,0,0,0,0,0,0,0,0,0,-1,1952,1541,0,0
735,-517,0,0,0,0,0,0,0,0,0,-1,1959,1541,0,0
742,-517,0,0,0,0,0,0,0,0,0,-1,1966,1541,0,0
749,-517,0,0,0,0,0,0,0,0,0,-1,1973,1541,0,0
756,-517,0,0,0,0,0,0,0,0,0,-1,1980,1541,0,0
763,-517,0,0,0,0,0,0,0,0,0,-1,1987,1541,0,0
770,-517,0,0,0,0,0,0,0,0,0,-1,1994,1541,0,0
777,-517,0,0,0,0,0,0,0,0,0,-1,2001,1541,0,0
784,-517,0,0,0,0,0,0,0,0,0,-1,2008,1541,0,0
791,-517,0,0,0,0,0,0,0,0,0,-1,2015,1541,0,0
798,-517,0,0,0,0,0,0,0,0,0,-1,2022,1541,0,0
805,-517,0,0,0,0,0,0,0,0,0,-1,2029,1541,0,0
812,-517,0,0,0,0,0,0,0,0,0,-1,2036,1541,0,0
-700,-524,0,0,0,0,0,0,0,0,0,-1,524,1548,0,0
-693,-524,0,0,0,0,0,0,0,0,0,-1,531,1548,0,0
-686,-524,0,0,0,0,0,0,0,0,0,-1,538,1548,0,0
-679,-524,0,0,0,0,0,0,0,0,0,-1,545,1548,0,0
-672,-524,0,0,0,0,0,0,0,0,0,-1,552,1548,0,0
-665,-524,0,0,0,0,0,0,0,0,0,-1,559,1548,0,0
-658,-524,0,0,0,0,0,0,0,0,0,-1,566,1548,0,0
-651,-524,0,0,0,0,0,0,0,0,0,-1,573,1548,0,0
-644,-524,0,0,0,0,0,0,0,0,0,-1,580,1548,0,0
-637,-524,0,0,0,0,0,0,0,0,0,-1,587,1548,0,0
-630,-524,0,0,0,0,0,0,0,0,0,-1,594,1548,0,0
-623,-524,0,0,0,0,0,0,0,0,0,-1,601,1548,0,0
-616,-524,0,0,0,0,0,0,0,0,0,-1,608,1548,0,0
-609,-524,0,0,0,0,0,0,0,0,0,-1,615,1548,0,0
-602,-524,0,0,0,0,0,0,0,0,0,-1,622,1548,0,0
-595,-524,0,0,0,0,0,0,0,0,0,-1,629,1548,0,0
-588,-524,0,0,0,0,0,0,0,0,0,-1,636,1548,0,0
-581,-524,0,0,0,0,0,0,0,0,0,-1,643,1548,0,0
-574,-524,0,0,0,0,0,0,0,0,0,-1,650,1548,0,0
-567,-524,0,0,0,0,0,0,0,0,0,-1,657,1548,0,0
-560,-524,0,0,0,0,0,0,0,0,0,-1,664,1548,0,0
-553,-524,0,0,0,0,0,0,0,0,0,-1,671,1548,0,0
-546,-524,0,0,0,0,0,0,0,0,0,-1,678,1548,0,0
-539,-524,0,0,0,0,0,0,0,0,0,-1,685,1548,0,0
-532,-524,0,0,0,0,0,0,0,0,0,-1,692,1548,0,0
-525,-524,-0.215515,3.97131,0,0,0,0,0,0,0,-1,699,1548,-0.215501,-3.97136
-518,-524,-0.806274,4.35632,0,0,0,0,0,0,0,-1,706,1548,-0.806259,-4.35633
-511,-524,-1.08301,4.29004,0,0,0,0,0,0,0,-1,713,1548,-1.08301,-4.29006
-504,-524,-1.28821,3.98145,0,0,0,0,0,0,0,-1,720,1548,-1.28822,-3.98151
-497,-524,-0.328491,8.63416,0,0,0,0,0,0,0,-1,727,1548,-0.328487,-8.63411
-490,-524,-6.65582,19.3033,0,0,0,0,0,0,0,-1,734,1548,-6.65583,-19.3034
-483,-524,-7.57153,22.1989,0,0,0,0,0,0,0,-1,741,1548,-7.57151,-22.1988
-476,-524,-8.51898,26.7598,0,0,0,0,0,0,0,-1,748,1548,-8.51897,-26.7597
-469,-524,-11.4355,33.9093,0,0,0,0,0,0,0,-1,755,1548,-11.4355,-33.9093
-462,-524,-12.2963,37.6239,0,0,0,0,0,0,0,-1,762,1548,-12.2963,-37.6238
-455,-524,-47.2639,103.062,0,0,0,0,0,0,0,-1,769,1548,-47.2639,-103.062
-448,-524,-79.7001,116.007,0,0,0,0,0,0,0,-1,776,1548,-79.7002,-116.007
-441,-524,-80.566,120.008,0.0413913,0.0354359,-0.0610501,0.0995362,-0.0227091,-0.76103,0.0750808,0.0210518,783,1548,-80.566,-120.008
-434,-524,-81.4139,124.157,0.0398595,0.029481,-0.0602535,0.0951468,-0.0258063,-0.742443,0.0735581,0.0271693,790,1548,-81.4139,-124.157
-427,-524,-82.3768,128.274,0.0380714,0.0240529,-0.0597427,0.0912146,-0.0290902,-0.727003,0.0724793,0.0254709,797,1548,-82.3768,-128.274
-420,-524,-83.6302,132.447,0.0359502,0.0189911,-0.0594294,0.0875019,-0.0325606,-0.714535,0.0716966,0.0416012,804,1548,-83.6302,-132.447
-413,-524,-84.9537,136.759,0.0334093,0.0145204,-0.0594628,0.084173,-0.0362432,-0.706641,0.0713345,0.0403918,811,1548,-84.9538,-136.759
-406,-524,-85.9592,141.204,0.0303308,0.0108098,-0.0599629,0.0813223,-0.0401818,-0.704718,0.0714783,0.0225538,818,1548,-85.9592,-141.204
-399,-524,-87.0347,145.59,0.0265715,0.00765383,-0.0609301,0.0787726,-0.0445473,-0.708392,0.072107,0.0271617,825,1548,-87.0347,-145.59
-392,-524,-88.4603,149.63,0.021849,0.00527438,-0.0624743,0.0765833,-0.0494598,-0.719457,0.0733305,0.0329455,832,1548,-88.4603,-149.63
-385,-524,-90.0475,153.592,0,0,0,0,0,0,0,-1,839,1548,-90.0475,-153.592
-378,-524,-66.5356,155.954,0,0,0,0,0,0,0,-1,846,1548,-66.5356,-155.954
-371,-524,-4.20789,29.1592,0,0,0,0,0,0,0,-1,853,1548,-4.2079,-29.1592
-364,-524,-0.712097,14.9871,0,0,0,0,0,0,0,-1,860,1548,-0.712116,-14.9871
-357,-524,-1.34052,14.7448,0,0,0,0,0,0,0,-1,867,1548,-1.34054,-14.7447
-350,-524,-4.31909,25.032,0,0,0,0,0,0,0,-1,874,1548,-4.31906,-25.0319
-343,-524,-3.69696,28.6923,0,0,0,0,0,0,0,-1,881,1548,-3.69694,-28.6922
-336,-524,-3.4873,29.655,0,0,0,0,0,0,0,-1,888,1548,-3.48728,-29.6551
-329,-524,-3.21936,30.5509,0,0,0,0,0,0,0,-1,895,1548,-3.21933,-30.5509
-322,-524,-4.31378,25.6389,0,0,0,0,0,0,0,-1,902,1548,-4.31379,-25.639
-315,-524,-1.90839,19.4824,0,0,0,0,0,0,0,-1,909,1548,-1.90838,-19.4824
-308,-524,-2.36938,19.3059,0,0,0,0,0,0,0,-1,916,1548,-2.3694,-19.3058
-301,-524,2.72394,17.7618,0,0,0,0,0,0,0,-1,923,1548,2.72396,-17.7619
-294,-524,-1.52515,9.05408,0,0,0,0,0,0,0,-1,930,1548,-1.52512,-9.05411
-287,-524,-0.962219,10.3199,0,0,0,0,0,0,0,-1,937,1548,-0.962241,-10.32
-280,-524,-1.36255,10.3859,0,0,0,0,0,0,0,-1,944,1548,-1.36253,-10.3859
-273,-524,0,0,0,0,0,0,0,0,0,-1,951,1548,0,0
-266,-524,0,0,0,0,0,0,0,0,0,-1,958,1548,0,0
-259,-524,0,0,0,0,0,0,0,0,0,-1,965,1548,0,0
-252,-524,0,0,0,0,0,0,0,0,0,-1,972,1548,0,0
-245,-524,0,0,0,0,0,0,0,0,0,-1,979,1548,0,0
-238,-524,0,0,0,0,0,0,0,0,0,-1,986,1548,0,0
-231,-524,0,0,0,0,0,0,0,0,0,-1,993,1548,0,0
-224,-524,0,0,0,0,0,0,0,0,0,-1,1000,1548,0,0
-217,-524,0,0,0,0,0,0,0,0,0,-1,1007,1548,0,0
-210,-524,0,0,0,0,0,0,0,0,0,-1,1014,1548,0,0
-203,-524,0,0,0,0,0,0,0,0,0,-1,1021,1548,0,0
-196,-524,0,0,0,0,0,0,0,0,0,-1,1028,1548,0,0
-189,-524,0,0,0,0,0,0,0,0,0,-1,1035,1548,0,0
-182,-524,0,0,0,0,0,0,0,0,0,-1,1042,1548,0,0
-175,-524,0,0,0,0,0,0,0,0,0,-1,1049,1548,0,0
-168,-524,0,0,0,0,0,0,0,0,0,-1,1056,1548,0,0
-161,-524,0,0,0,0,0,0,0,0,0,-1,1063,1548,0,0
-154,-524,0,0,0,0,0,0,0,0,0,-1,1070,1548,0,0
-147,-524,0,0,0,0,0,0,0,0,0,-1,1077,1548,0,0
-140,-524,0,0,0,0,0,0,0,0,0,-1,1084,1548,0,0
-133,-524,0,0,0,0,0,0,0,0,0,-1,1091,1548,0,0
-126,-524,0,0,0,0,0,0,0,0,0,-1,1098,1548,0,0
-119,-524,0,0,0,0,0,0,0,0,0,-1,1105,1548,0,0
-112,-524,0,0,0,0,0,0,0,0,0,-1,1112,1548,0,0
-105,-524,0,0,0,0,0,0,0,0,0,-1,1119,1548,0,0
-98,-524,0,0,0,0,0,0,0,0,0,-1,1126,1548,0,0
-91,-524,0,0,0,0,0,0,0,0,0,-1,1133,1548,0,0
-84,-524,0,0,0,0,0,0,0,0,0,-1,1140,1548,0,0
-77,-524,0,0,0,0,0,0,0,0,0,-1,1147,1548,0,0
-70,-524,0,0,0,0,0,0,0,0,0,-1,1154,1548,0,0
-63,-524,0,0,0,0,0,0,0,0,0,-1,1161,1548,0,0
-56,-524,0,0,0,0,0,0,0,0,0,-1,1168,1548,0,0
-49,-524,0,0,0,0,0,0,0,0,0,-1,1175,1548,0,0
-42,-524,0,0,0,0,0,0,0,0,0,-1,1182,1548,0,0
-35,-524,0,0,0,0,0,0,0,0,0,-1,1189,1548,0,0
-28,-524,0,0,0,0,0,0,0,0,0,-1,1196,1548,0,0
-21,-524,0,0,0,0,0,0,0,0,0,-1,1203,1548,0,0
-14,-524,0,0,0,0,0,0,0,0,0,-1,1210,1548,0,0
-7,-524,0,0,0,0,0,0,0,0,0,-1,1217,1548,0,0
0,-524,0,0,0,0,0,0,0,0,0,-1,1224,1548,0,0
7,-524,0,0,0,0,0,0,0,0,0,-1,1231,1548,0,0
14,-524,0,0,0,0,0,0,0,0,0,-1,1238,1548,0,0
21,-524,0,0,0,0,0,0,0,0,0,-1,1245,1548,0,0
28,-524,0,0,0,0,0,0,0,0,0,-1,1252,1548,0,0
35,-524,0,0,0,0,0,0,0,0,0,-1,1259,1548,0,0
42,-524,0,0,0,0,0,0,0,0,0,-1,1266,1548,0,0
49,-524,0,0,0,0,0,0,0,0,0,-1,1273,1548,0,0
56,-524,0,0,0,0,0,0,0,0,0,-1,1280,1548,0,0
63,-524,0,0,0,0,0,0,0,0,0,-1,1287,1548,0,0
70,-524,0,0,0,0,0,0,0,0,0,-1,1294,1548,0,0
77,-524,0,0,0,0,0,0,0,0,0,-1,1301,1548,0,0
84,-524,0,0,0,0,0,0,0,0,0,-1,1308,1548,0,0
91,-524,0,0,0,0,0,0,0,0,0,-1,1315,1548,0,0
98,-524,0,0,0,0,0,0,0,0,0,-1,1322,1548,0,0
105,-524,0,0,0,0,0,0,0,0,0,-1,1329,1548,0,0
112,-524,0,0,0,0,0,0,0,0,0,-1,1336,1548,0,0
119,-524,0,0,0,0,0,0,0,0,0,-1,1343,1548,0,0
126,-524,0,0,0,0,0,0,0,0,0,-1,1350,1548,0,0
133,-524,0,0,0,0,0,0,0,0,0,-1,1357,1548,0,0
140,-524,0,0,0,0,0,0,0,0,0,-1,1364,1548,0,0
147,-524,0,0,0,0,0,0,0,0,0,-1,1371,1548,0,0
154,-524,0,0,0,0,0,0,0,0,0,-1,1378,1548,0,0
161,-524,0,0,0,0,0,0,0,0,0,-1,1385,1548,0,0
168,-524,0,0,0,0,0,0,0,0,0,-1,1392,1548,0,0
175,-524,0,0,0,0,0,0,0,0,0,-1,1399,1548,0,0
182,-524,0,0,0,0,0,0,0,0,0,-1,1406,1548,0,0
189,-524,0,0,0,0,0,0,0,0,0,-1,1413,1548,0,0
196,-524,0,0,0,0,0,0,0,0,0,-1,1420,1548,0,0
203,-524,0,0,0,0,0,0,0,0,0,-1,1427,1548,0,0
210,-524,0,0,0,0,0,0,0,0,0,-1,1434,1548,0,0
217,-524,0,0,0,0,0,0,0,0,0,-1,1441,1548,0,0
224,-524,0,0,0,0,0,0,0,0,0,-1,1448,1548,0,0
231,-524,0,0,0,0,0,0,0,0,0,-1,1455,1548,0,0
238,-524,0,0,0,0,0,0,0,0,0,-1,1462,1548,0,0
245,-524,0,0,0,0,0,0,0,0,0,-1,1469,1548,0,0
252,-524,0,0,0,0,0,0,0,0,0,-1,1476,1548,0,0
259,-524,0,0,0,0,0,0,0,0,0,-1,1483,1548,0,0
266,-524,0,0,0,0,0,0,0,0,0,-1,1490,1548,0,0
273,-524,0,0,0,0,0,0,0,0,0,-1,1497,1548,0,0
280,-524,0,0,0,0,0,0,0,0,0,-1,1504,1548,0,0
287,-524,0,0,0,0,0,0,0,0,0,-1,1511,1548,0,0
294,-524,0,0,0,0,0,0,0,0,0,-1,1518,1548,0,0
301,-524,0,0,0,0,0,0,0,0,0,-1,1525,1548,0,0
308,-524,0,0,0,0,0,0,0,0,0,-1,1532,1548,0,0
315,-524,0,0,0,0,0,0,0,0,0,-1,1539,1548,0,0
322,-524,0,0,0,0,0,0,0,0,0,-1,1546,1548,0,0
329,-524,0,0,0,0,0,0,0,0,0,-1,1553,1548,0,0
336,-524,0,0,0,0,0,0,0,0,0,-1,1560,1548,0,0
343,-524,0,0,0,0,0,0,0,0,0,-1,1567,1548,0,0
350,-524,0,0,0,0,0,0,0,0,0,-1,1574,1548,0,0
357,-524,0,0,0,0,0,0,0,0,0,-1,1581,1548,0,0
364,-524,0,0,0,0,0,0,0,0,0,-1,1588,1548,0,0
371,-524,0,0,0,0,0,0,0,0,0,-1,1595,1548,0,0
378,-524,0,0,0,0,0,0,0,0,0,-1,1602,1548,0,0
385,-524,0,0,0,0,0,0,0,0,0,-1,1609,1548,0,0
392,-524,0,0,0,0,0,0,0,0,0,-1,1616,1548,0,0
399,-524,8.81848,5.05774,0,0,0,0,0,0,0,-1,1623,1548,8.81843,-5.05769
406,-524,8.64294,6.06799,0,0,0,0,0,0,0,-1,1630,1548,8.6429,-6.06805
413,-524,11.677,6.41858,0,0,0,0,0,0,0,-1,1637,1548,11.677,-6.41864
420,-524,11.4913,6.36401,0,0,0,0,0,0,0,-1,1644,1548,11.4913,-6.36402
427,-524,7.68335,6.17249,0,0,0,0,0,0,0,-1,1651,1548,7.68341,-6.17245
434,-524,10.432,11.6801,0,0,0,0,0,0,0,-1,1658,1548,10.432,-11.68
441,-524,8.78552,4.12305,0,0,0,0,0,0,0,-1,1665,1548,8.78553,-4.12301
448,-524,14.1854,4.78674,0,0,0,0,0,0,0,-1,1672,1548,14.1854,-4.78674
455,-524,12.4784,3.65576,0,0,0,0,0,0,0,-1,1679,1548,12.4784,-3.65572
462,-524,14.7551,9.29395,0,0,0,0,0,0,0,-1,1686,1548,14.7552,-9.29397
469,-524,16.3314,14.3779,0,0,0,0,0,0,0,-1,1693,1548,16.3314,-14.3779
476,-524,15.9106,15.1875,0,0,0,0,0,0,0,-1,1700,1548,15.9107,-15.1876
483,-524,15.2776,16.2268,0,0,0,0,0,0,0,-1,1707,1548,15.2776,-16.2269
490,-524,15.2563,18.5848,0,0,0,0,0,0,0,-1,1714,1548,15.2564,-18.5848
497,-524,30.566,48.7196,0,0,0,0,0,0,0,-1,1721,1548,30.566,-48.7196
504,-524,33.686,57.3251,0,0,0,0,0,0,0,-1,1728,1548,33.686,-57.3251
511,-524,70.3597,158.365,0,0,0,0,0,0,0,-1,1735,1548,70.3598,-158.365
518,-524,85.4141,156.708,0,0,0,0,0,0,0,-1,1742,1548,85.414,-156.708
525,-524,88.5038,153.383,0,0,0,0,0,0,0,-1,1749,1548,88.5037,-153.383
532,-524,98.106,149.386,0,0,0,0,0,0,0,-1,1756,1548,98.106,-149.386
539,-524,96.7823,145.57,0,0,0,0,0,0,0,-1,1763,1548,96.7823,-145.57
546,-524,95.7124,141.195,0.0271856,0.0039401,0.0386156,0.0558897,-0.024764,0.639218,0.0477073,0.0223256,1770,1548,95.7123,-141.195
553,-524,94.5873,137.025,0.0271114,0.0074697,0.039786,0.0582707,-0.0236896,0.664396,0.0487036,0.0348779,1777,1548,94.5873,-137.025
560,-524,93.4551,132.866,0,0,0,0,0,0,0,-1,1784,1548,93.455,-132.866
567,-524,92.1879,128.396,0.0270636,0.017085,0.0425845,0.0649501,-0.0208015,0.727083,0.0516496,0.0316374,1791,1548,92.1878,-128.396
574,-524,90.9946,124.335,0.0274471,0.0223687,0.0440202,0.0690013,-0.0191855,0.756589,0.0535541,0.0287069,1798,1548,90.9946,-124.335
581,-524,89.8173,120.199,0.0282242,0.0277468,0.0453717,0.0733579,-0.0173868,0.782768,0.0556143,0.0328384,1805,1548,89.8173,-120.199
588,-524,88.6355,116.106,0,0,0,0,0,0,0,-1,1812,1548,88.6355,-116.106
595,-524,36.1853,49.8848,0,0,0,0,0,0,0,-1,1819,1548,36.1853,-49.8847
602,-524,13.837,12.0682,0,0,0,0,0,0,0,-1,1826,1548,13.837,-12.0683
609,-524,13.0056,10.5138,0,0,0,0,0,0,0,-1,1833,1548,13.0056,-10.5138
616,-524,11.6941,8.65515,0,0,0,0,0,0,0,-1,1840,1548,11.6941,-8.65514
623,-524,9.38452,5.15356,0,0,0,0,0,0,0,-1,1847,1548,9.38456,-5.15359
630,-524,11.0541,3.57434,0,0,0,0,0,0,0,-1,1854,1548,11.0541,-3.57438
637,-524,11.6067,3.20728,0,0,0,0,0,0,0,-1,1861,1548,11.6067,-3.20724
644,-524,12.2134,0.727173,0,0,0,0,0,0,0,-1,1868,1548,12.2134,-0.727222
651,-524,0,0,0,0,0,0,0,0,0,-1,1875,1548,0,0
658,-524,0,0,0,0,0,0,0,0,0,-1,1882,1548,0,0
665,-524,0,0,0,0,0,0,0,0,0,-1,1889,1548,0,0
672,-524,0,0,0,0,0,0,0,0,0,-1,1896,1548,0,0
679,-524,0,0,0,0,0,0,0,0,0,-1,1903,1548,0,0
686,-524,0,0,0,0,0,0,0,0,0,-1,1910,1548,0,0
693,-524,0,0,0,0,0,0,0,0,0,-1,1917,1548,0,0
700,-524,0,0,0,0,0,0,0,0,0,-1,1924,1548,0,0
707,-524,0,0,0,0,0,0,0,0,0,-1,1931,1548,0,0
714,-524,0,0,0,0,0,0,0,0,0,-1,1938,1548,0,0
721,-524,0,0,0,0,0,0,0,0,0,-1,1945,1548,0,0
728,-524,0,0,0,0,0,0,0,0,0,-1,1952,1548,0,0
735,-524,0,0,0,0,0,0,0,0,0,-1,1959,1548,0,0
742,-524,0,0,0,0,0,0,0,0,0,-1,1966,1548,0,0
749,-524,0,0,0,0,0,0,0,0,0,-1,1973,1548,0,0
756,-524,0,0,0,0,0,0,0,0,0,-1,1980,1548,0,0
763,-524,0,0,0,0,0,0,0,0,0,-1,1987,1548,0,0
770,-524,0,0,0,0,0,0,0,0,0,-1,1994,1548,0,0
777,-524,0,0,0,0,0,0,0,0,0,-1,2001,1548,0,0
784,-524,0,0,0,0,0,0,0,0,0,-1,2008,1548,0,0
791,-524,0,0,0,0,0,0,0,0,0,-1,2015,1548,0,0
798,-524,0,0,0,0,0,0,0,0,0,-1,2022,1548,0,0
805,-524,0,0,0,0,0,0,0,0,0,-1,2029,1548,0,0
812,-524,0,0,0,0,0,0,0,0,0,-1,2036,1548,0,0
-700,-531,0,0,0,0,0,0,0,0,0,-1,524,1555,0,0
-693,-531,0,0,0,0,0,0,0,0,0,-1,531,1555,0,0
-686,-531,0,0,0,0,0,0,0,0,0,-1,538,1555,0,0
-679,-531,0,0,0,0,0,0,0,0,0,-1,545,1555,0,0
-672,-531,0,0,0,0,0,0,0,0,0,-1,552,1555,0,0
-665,-531,0,0,0,0,0,0,0,0,0,-1,559,1555,0,0
-658,-531,0,0,0,0,0,0,0,0,0,-1,566,1555,0,0
-651,-531,0,0,0,0,0,0,0,0,0,-1,573,1555,0,0
-644,-531,0,0,0,0,0,0,0,0,0,-1,580,1555,0,0
-637,-531,0,0,0,0,0,0,0,0,0,-1,587,1555,0,0
-630,-531,0,0,0,0,0,0,0,0,0,-1,594,1555,0,0
-623,-531,0,0,0,0,0,0,0,0,0,-1,601,1555,0,0
-616,-531,0,0,0,0,0,0,0,0,0,-1,608,1555,0,0
-609,-531,0,0,0,0,0,0,0,0,0,-1,615,1555,0,0
-602,-531,0,0,0,0,0,0,0,0,0,-1,622,1555,0,0
-595,-531,0,0,0,0,0,0,0,0,0,-1,629,1555,0,0
-588,-531,0,0,0,0,0,0,0,0,0,-1,636,1555,0,0
-581,-531,0,0,0,0,0,0,0,0,0,-1,643,1555,0,0
-574,-531,0,0,0,0,0,0,0,0,0,-1,650,1555,0,0
-567,-531,0,0,0,0,0,0,0,0,0,-1,657,1555,0,0
-560,-531,0,0,0,0,0,0,0,0,0,-1,664,1555,0,0
-553,-531,0,0,0,0,0,0,0,0,0,-1,671,1555,0,0
-546,-531,0,0,0,0,0,0,0,0,0,-1,678,1555,0,0
-539,-531,0,0,0,0,0,0,0,0,0,-1,685,1555,0,0
-532,-531,0,0,0,0,0,0,0,0,0,-1,692,1555,0,0
-525,-531,0,0,0,0,0,0,0,0,0,-1,699,1555,0,0
-518,-531,-1.63983,4.03821,0,0,0,0,0,0,0,-1,706,1555,-1.63982,-4.03821
-511,-531,-2.9682,8.07483,0,0,0,0,0,0,0,-1,713,1555,-2.9682,-8.07479
-504,-531,-2.95978,0.557861,0,0,0,0,0,0,0,-1,720,1555,-2.95978,-0.557917
-497,-531,-2.46039,8.07422,0,0,0,0,0,0,0,-1,727,1555,-2.46039,-8.07423
-490,-531,-0.423462,7.92065,0,0,0,0,0,0,0,-1,734,1555,-0.42344,-7.92066
-483,-531,-7.50745,20.1915,0,0,0,0,0,0,0,-1,741,1555,-7.50744,-20.1915
-476,-531,-7.69647,23.6229,0,0,0,0,0,0,0,-1,748,1555,-7.6965,-23.6229
-469,-531,-8.2475,27.6931,0,0,0,0,0,0,0,-1,755,1555,-8.2475,-27.6931
-462,-531,-7.27551,28.5044,0,0,0,0,0,0,0,-1,762,1555,-7.27551,-28.5044
-455,-531,-11.3782,37.1852,0,0,0,0,0,0,0,-1,769,1555,-11.3782,-37.1852
-448,-531,-74.8673,117.204,0,0,0,0,0,0,0,-1,776,1555,-74.8673,-117.204
-441,-531,-75.7175,121.52,0.044579,0.0374915,-0.061572,0.102709,-0.0206387,-0.756652,0.0762886,0.0379034,783,1555,-75.7175,-121.52
-434,-531,-76.6343,125.834,0.0434182,0.0311107,-0.0606359,0.0982119,-0.0236829,-0.734828,0.0746321,0.0245851,790,1555,-76.6342,-125.834
-427,-531,-77.6534,130.073,0.0416973,0.0252142,-0.0599041,0.0939241,-0.0270126,-0.717037,0.0732986,0.0245301,797,1555,-77.6535,-130.073
-420,-531,-78.9927,134.24,0.0396165,0.0199322,-0.0595223,0.0901048,-0.0305562,-0.703463,0.0724364,0.0382646,804,1555,-78.9927,-134.24
-413,-531,-80.2118,138.582,0.037245,0.0153224,-0.0595349,0.0868192,-0.0342519,-0.69436,0.0720632,0.0369053,811,1555,-80.2118,-138.582
-406,-531,-81.166,142.97,0.0344226,0.011486,-0.0599692,0.0840102,-0.0381017,-0.690921,0.072143,0.0202034,818,1555,-81.166,-142.97
-399,-531,-82.243,147.374,0.0310885,0.00826092,-0.0608286,0.0815648,-0.0422154,-0.692657,0.0726583,0.023199,825,1555,-82.243,-147.374
-392,-531,-83.6556,151.503,0.0270955,0.00586689,-0.0621921,0.0795725,-0.0466101,-0.700878,0.0736755,0.0288359,832,1555,-83.6556,-151.503
-385,-531,-85.3615,155.553,0,0,0,0,0,0,0,-1,839,1555,-85.3615,-155.553
-378,-531,-67.2928,159.884,0,0,0,0,0,0,0,-1,846,1555,-67.2929,-159.884
-371,-531,-68.6048,163.48,0,0,0,0,0,0,0,-1,853,1555,-68.6048,-163.48
-364,-531,-56.2264,150.687,0,0,0,0,0,0,0,-1,860,1555,-56.2264,-150.687
-357,-531,-4.29193,31.5354,0,0,0,0,0,0,0,-1,867,1555,-4.29191,-31.5354
-350,-531,-3.16101,27.5791,0,0,0,0,0,0,0,-1,874,1555,-3.16099,-27.5791
-343,-531,-2.90552,28.561,0,0,0,0,0,0,0,-1,881,1555,-2.90549,-28.5611
-336,-531,-2.6698,29.5398,0,0,0,0,0,0,0,-1,888,1555,-2.66983,-29.5398
-329,-531,-2.45148,30.4781,0,0,0,0,0,0,0,-1,895,1555,-2.45148,-30.4781
-322,-531,-3.25092,28.4921,0,0,0,0,0,0,0,-1,902,1555,-3.25092,-28.4921
-315,-531,-5.51929,31.7814,0,0,0,0,0,0,0,-1,909,1555,-5.51928,-31.7813
-308,-531,-1.66455,19.0624,0,0,0,0,0,0,0,-1,916,1555,-1.66455,-19.0623
-301,-531,-2.02405,18.8912,0,0,0,0,0,0,0,-1,923,1555,-2.02407,-18.8913
-294,-531,-1.3244,8.1825,0,0,0,0,0,0,0,-1,930,1555,-1.3244,-8.18251
-287,-531,-1.78192,10.1661,0,0,0,0,0,0,0,-1,937,1555,-1.78192,-10.1661
-280,-531,-2.14508,10.3945,0,0,0,0,0,0,0,-1,944,1555,-2.14506,-10.3945
-273,-531,-2.50818,10.6229,0,0,0,0,0,0,0,-1,951,1555,-2.5082,-10.6229
-266,-531,-4.97742,17.9215,0,0,0,0,0,0,0,-1,958,1555,-4.97744,-17.9215
-259,-531,0,0,0,0,0,0,0,0,0,-1,965,1555,0,0
-252,-531,0,0,0,0,0,0,0,0,0,-1,972,1555,0,0
-245,-531,0,0,0,0,0,0,0,0,0,-1,979,1555,0,0
-238,-531,0,0,0,0,0,0,0,0,0,-1,986,1555,0,0
-231,-531,0,0,0,0,0,0,0,0,0,-1,993,1555,0,0
-224,-531,0,0,0,0,0,0,0,0,0,-1,1000,1555,0,0
-217,-531,0,0,0,0,0,0,0,0,0,-1,1007,1555,0,0
-210,-531,0,0,0,0,0,0,0,0,0,-1,1014,1555,0,0
-203,-531,0,0,0,0,0,0,0,0,0,-1,1021,1555,0,0
-196,-531,0,0,0,0,0,0,0,0,0,-1,1028,1555,0,0
-189,-531,0,0,0,0,0,0,0,0,0,-1,1035,1555,0,0
-182,-531,0,0,0,0,0,0,0,0,0,-1,1042,1555,0,0
-175,-531,0,0,0,0,0,0,0,0,0,-1,1049,1555,0,0
-168,-531,0,0,0,0,0,0,0,0,0,-1,1056,1555,0,0
-161,-531,0,0,0,0,0,0,0,0,0,-1,1063,1555,0,0
-154,-531,0,0,0,0,0,0,0,0,0,-1,1070,1555,0,0
-147,-531,0,0,0,0,0,0,0,0,0,-1,1077,1555,0,0
-140,-531,0,0,0,0,0,0,0,0,0,-1,1084,1555,0,0
-133,-531,0,0,0,0,0,0,0,0,0,-1,1091,1555,0,0
-126,-531,0,0,0,0,0,0,0,0,0,-1,1098,1555,0,0
-119,-531,0,0,0,0,0,0,0,0,0,-1,1105,1555,0,0
-112,-531,0,0,0,0,0,0,0,0,0,-1,1112,1555,0,0
-105,-531,0,0,0,0,0,0,0,0,0,-1,1119,1555,0,0
-98,-531,0,0,0,0,0,0,0,0,0,-1,1126,1555,0,0
-91,-531,0,0,0,0,0,0,0,0,0,-1,1133,1555,0,0
-84,-531,0,0,0,0,0,0,0,0,0,-1,1140,1555,0,0
-77,-531,0,0,0,0,0,0,0,0,0,-1,1147,1555,0,0
-70,-531,0,0,0,0,0,0,0,0,0,-1,1154,1555,0,0
-63,-531,0,0,0,0,0,0,0,0,0,-1,1161,1555,0,0
-56,-531,0,0,0,0,0,0,0,0,0,-1,1168,1555,0,0
-49,-531,0,0,0,0,0,0,0,0,0,-1,1175,1555,0,0
-42,-531,0,0,0,0,0,0,0,0,0,-1,1182,1555,0,0
-35,-531,0,0,0,0,0,0,0,0,0,-1,1189,1555,0,0
-28,-531,0,0,0,0,0,0,0,0,0,-1,1196,1555,0,0
-21,-531,0,0,0,0,0,0,0,0,0,-1,1203,1555,0,0
-14,-531,0,0,0,0,0,0,0,0,0,-1,1210,1555,0,0
-7,-531,0,0,0,0,0,0,0,0,0,-1,1217,1555,0,0
0,-531,0,0,0,0,0,0,0,0,0,-1,1224,1555,0,0
7,-531,0,0,0,0,0,0,0,0,0,-1,1231,1555,0,0
14,-531,0,0,0,0,0,0,0,0,0,-1,1238,1555,0,0
21,-531,0,0,0,0,0,0,0,0,0,-1,1245,1555,0,0
28,-531,0,0,0,0,0,0,0,0,0,-1,1252,1555,0,0
35,-531,0,0,0,0,0,0,0,0,0,-1,1259,1555,0,0
42,-531,0,0,0,0,0,0,0,0,0,-1,1266,1555,0,0
49,-531,0,0,0,0,0,0,0,0,0,-1,1273,1555,0,0
56,-531,0,0,0,0,0,0,0,0,0,-1,1280,1555,0,0
63,-531,0,0,0,0,0,0,0,0,0,-1,1287,1555,0,0
70,-531,0,0,0,0,0,0,0,0,0,-1,1294,1555,0,0
77,-531,0,0,0,0,0,0,0,0,0,-1,1301,1555,0,0
84,-531,0,0,0,0,0,0,0,0,0,-1,1308,1555,0,0
91,-531,0,0,0,0,0,0,0,0,0,-1,1315,1555,0,0
98,-531,0,0,0,0,0,0,0,0,0,-1,1322,1555,0,0
105,-531,0,0,0,0,0,0,0,0,0,-1,1329,1555,0,0
112,-531,0,0,0,0,0,0,0,0,0,-1,1336,1555,0,0
119,-531,0,0,0,0,0,0,0,0,0,-1,1343,1555,0,0
126,-531,0,0,0,0,0,0,0,0,0,-1,1350,1555,0,0
133,-531,0,0,0,0,0,0,0,0,0,-1,1357,1555,0,0
140,-531,0,0,0,0,0,0,0,0,0,-1,1364,1555,0,0
147,-531,0,0,0,0,0,0,0,0,0,-1,1371,1555,0,0
154,-531,0,0,0,0,0,0,0,0,0,-1,1378,1555,0,0
161,-531,0,0,0,0,0,0,0,0,0,-1,1385,1555,0,0
168,-531,0,0,0,0,0,0,0,0,0,-1,1392,1555,0,0
175,-531,0,0,0,0,0,0,0,0,0,-1,1399,1555,0,0
182,-531,0,0,0,0,0,0,0,0,0,-1,1406,1555,0,0
189,-531,0,0,0,0,0,0,0,0,0,-1,1413,1555,0,0
196,-531,0,0,0,0,0,0,0,0,0,-1,1420,1555,0,0
203,-531,0,0,0,0,0,0,0,0,0,-1,1427,1555,0,0
210,-531,0,0,0,0,0,0,0,0,0,-1,1434,1555,0,0
217,-531,0,0,0,0,0,0,0,0,0,-1,1441,1555,0,0
224,-531,0,0,0,0,0,0,0,0,0,-1,1448,1555,0,0
231,-531,0,0,0,0,0,0,0,0,0,-1,1455,1555,0,0
238,-531,0,0,0,0,0,0,0,0,0,-1,1462,1555,0,0
245,-531,0,0,0,0,0,0,0,0,0,-1,1469,1555,0,0
252,-531,0,0,0,0,0,0,0,0,0,-1,1476,1555,0,0
259,-531,0,0,0,0,0,0,0,0,0,-1,1483,1555,0,0
266,-531,0,0,0,0,0,0,0,0,0,-1,1490,1555,0,0
273,-531,0,0,0,0,0,0,0,0,0,-1,1497,1555,0,0
280,-531,0,0,0,0,0,0,0,0,0,-1,1504,1555,0,0
287,-531,0,0,0,0,0,0,0,0,0,-1,1511,1555,0,0
294,-531,0,0,0,0,0,0,0,0,0,-1,1518,1555,0,0
301,-531,0,0,0,0,0,0,0,0,0,-1,1525,1555,0,0
308,-531,0,0,0,0,0,0,0,0,0,-1,1532,1555,0,0
315,-531,0,0,0,0,0,0,0,0,0,-1,1539,1555,0,0
322,-531,0,0,0,0,0,0,0,0,0,-1,1546,1555,0,0
329,-531,0,0,0,0,0,0,0,0,0,-1,1553,1555,0,0
336,-531,0,0,0,0,0,0,0,0,0,-1,1560,1555,0,0
343,-531,0,0,0,0,0,0,0,0,0,-1,1567,1555,0,0
350,-531,0,0,0,0,0,0,0,0,0,-1,1574,1555,0,0
357,-531,0,0,0,0,0,0,0,0,0,-1,1581,1555,0,0
364,-531,0,0,0,0,0,0,0,0,0,-1,1588,1555,0,0
371,-531,0,0,0,0,0,0,0,0,0,-1,1595,1555,0,0
378,-531,0,0,0,0,0,0,0,0,0,-1,1602,1555,0,0
385,-531,3.48169,1.78625,0,0,0,0,0,0,0,-1,1609,1555,3.48165,-1.78624
392,-531,10.8781,9.09204,0,0,0,0,0,0,0,-1,1616,1555,10.8781,-9.09205
399,-531,8.26306,5.29602,0,0,0,0,0,0,0,-1,1623,1555,8.26302,-5.29607
406,-531,8.26147,5.42712,0,0,0,0,0,0,0,-1,1630,1555,8.26145,-5.42716
413,-531,8.20618,5.75012,0,0,0,0,0,0,0,-1,1637,1555,8.20619,-5.75017
420,-531,7.64868,7.09558,0,0,0,0,0,0,0,-1,1644,1555,7.64867,-7.09564
427,-531,9.93054,11.8412,0,0,0,0,0,0,0,-1,1651,1555,9.93059,-11.8412
434,-531,10.244,11.7072,0,0,0,0,0,0,0,-1,1658,1555,10.244,-11.7071
441,-531,11.4528,12.9397,0,0,0,0,0,0,0,-1,1665,1555,11.4528,-12.9397
448,-531,11.928,18.8029,0,0,0,0,0,0,0,-1,1672,1555,11.928,-18.8028
455,-531,14.4877,9.67065,0,0,0,0,0,0,0,-1,1679,1555,14.4876,-9.67066
462,-531,13.5253,12.2002,0,0,0,0,0,0,0,-1,1686,1555,13.5252,-12.2002
469,-531,15.5087,15.7894,0,0,0,0,0,0,0,-1,1693,1555,15.5086,-15.7895
476,-531,14.6582,16.2264,0,0,0,0,0,0,0,-1,1700,1555,14.6582,-16.2264
483,-531,14.755,18.5994,0,0,0,0,0,0,0,-1,1707,1555,14.7551,-18.5994
490,-531,16.9362,25.4943,0,0,0,0,0,0,0,-1,1714,1555,16.9362,-25.4942
497,-531,32.8171,58.4194,0,0,0,0,0,0,0,-1,1721,1555,32.8171,-58.4195
504,-531,72.2789,166.055,0,0,0,0,0,0,0,-1,1728,1555,72.279,-166.055
511,-531,72.0184,162.966,0,0,0,0,0,0,0,-1,1735,1555,72.0184,-162.966
518,-531,95.5131,160.779,0,0,0,0,0,0,0,-1,1742,1555,95.513,-160.779
525,-531,94.9402,155.885,0,0,0,0,0,0,0,-1,1749,1555,94.9402,-155.885
532,-531,93.4923,151.563,0.0310249,0.000858846,0.0381902,0.0570027,-0.0251189,0.597328,0.0485895,0.0327187,1756,1555,93.4923,-151.563
539,-531,92.2794,147.32,0.0302265,0.00200907,0.0379604,0.0566153,-0.0243797,0.607475,0.0479811,0.0328677,1763,1555,92.2795,-147.32
546,-531,91.1868,142.973,0.0298751,0.00477493,0.0386318,0.0579442,-0.0232942,0.628344,0.0483042,0.0244628,1770,1555,91.1867,-142.973
553,-531,89.8691,138.441,0,0,0,0,0,0,0,-1,1777,1555,89.8691,-138.441
560,-531,88.6018,134.873,0,0,0,0,0,0,0,-1,1784,1555,88.6018,-134.873
567,-531,87.3877,130.108,0.0297963,0.0187138,0.0424296,0.067045,-0.0185349,0.720466,0.0519882,0.034558,1791,1555,87.3877,-130.108
574,-531,86.1797,125.89,0.0303464,0.0243371,0.0438945,0.071339,-0.0166554,0.751225,0.0539746,0.0349169,1798,1555,86.1797,-125.89
581,-531,85.0728,121.697,0,0,0,0,0,0,0,-1,1805,1555,85.0727,-121.697
588,-531,35.8337,54.0994,0,0,0,0,0,0,0,-1,1812,1555,35.8337,-54.0994
595,-531,25.4437,28.0334,0,0,0,0,0,0,0,-1,1819,1555,25.4438,-28.0335
602,-531,13.701,11.8346,0,0,0,0,0,0,0,-1,1826,1555,13.701,-11.8347
609,-531,10.9072,8.50903,0,0,0,0,0,0,0,-1,1833,1555,10.9073,-8.50902
616,-531,10.5723,7.17859,0,0,0,0,0,0,0,-1,1840,1555,10.5723,-7.17855
623,-531,10.0674,5.08984,0,0,0,0,0,0,0,-1,1847,1555,10.0674,-5.08981
630,-531,11.672,3.18909,0,0,0,0,0,0,0,-1,1854,1555,11.672,-3.18904
637,-531,13.2546,1.38965,0,0,0,0,0,0,0,-1,1861,1555,13.2547,-1.3896
644,-531,0,0,0,0,0,0,0,0,0,-1,1868,1555,0,0
651,-531,0,0,0,0,0,0,0,0,0,-1,1875,1555,0,0
658,-531,0,0,0,0,0,0,0,0,0,-1,1882,1555,0,0
665,-531,0,0,0,0,0,0,0,0,0,-1,1889,1555,0,0
672,-531,0,0,0,0,0,0,0,0,0,-1,1896,1555,0,0
679,-531,0,0,0,0,0,0,0,0,0,-1,1903,1555,0,0
686,-531,0,0,0,0,0,0,0,0,0,-1,1910,1555,0,0
693,-531,0,0,0,0,0,0,0,0,0,-1,1917,1555,0,0
700,-531,0,0,0,0,0,0,0,0,0,-1,1924,1555,0,0
707,-531,0,0,0,0,0,0,0,0,0,-1,1931,1555,0,0
714,-531,0,0,0,0,0,0,0,0,0,-1,1938,1555,0,0
721,-531,0,0,0,0,0,0,0,0,0,-1,1945,1555,0,0
728,-531,0,0,0,0,0,0,0,0,0,-1,1952,1555,0,0
735,-531,0,0,0,0,0,0,0,0,0,-1,1959,1555,0,0
742,-531,0,0,0,0,0,0,0,0,0,-1,1966,1555,0,0
749,-531,0,0,0,0,0,0,0,0,0,-1,1973,1555,0,0
756,-531,0,0,0,0,0,0,0,0,0,-1,1980,1555,0,0
763,-531,0,0,0,0,0,0,0,0,0,-1,1987,1555,0,0
770,-531,0,0,0,0,0,0,0,0,0,-1,1994,1555,0,0
777,-531,0,0,0,0,0,0,0,0,0,-1,2001,1555,0,0
784,-531,0,0,0,0,0,0,0,0,0,-1,2008,1555,0,0
791,-531,0,0,0,0,0,0,0,0,0,-1,2015,1555,0,0
798,-531,0,0,0,0,0,0,0,0,0,-1,2022,1555,0,0
805,-531,0,0,0,0,0,0,0,0,0,-1,2029,1555,0,0
812,-531,0,0,0,0,0,0,0,0,0,-1,2036,1555,0,0
-700,-538,0,0,0,0,0,0,0,0,0,-1,524,1562,0,0
-693,-538,0,0,0,0,0,0,0,0,0,-1,531,1562,0,0
-686,-538,0,0,0,0,0,0,0,0,0,-1,538,1562,0,0
-679,-538,0,0,0,0,0,0,0,0,0,-1,545,1562,0,0
-672,-538,0,0,0,0,0,0,0,0,0,-1,552,1562,0,0
-665,-538,0,0,0,0,0,0,0,0,0,-1,559,1562,0,0
-658,-538,0,0,0,0,0,0,0,0,0,-1,566,1562,0,0
-651,-538,0,0,0,0,0,0,0,0,0,-1,573,1562,0,0
-644,-538,0,0,0,0,0,0,0,0,0,-1,580,1562,0,0
-637,-538,0,0,0,0,0,0,0,0,0,-1,587,1562,0,0
-630,-538,0,0,0,0,0,0,0,0,0,-1,594,1562,0,0
-623,-538,0,0,0,0,0,0,0,0,0,-1,601,1562,0,0
-616,-538,0,0,0,0,0,0,0,0,0,-1,608,1562,0,0
-609,-538,0,0,0,0,0,0,0,0,0,-1,615,1562,0,0
-602,-538,0,0,0,0,0,0,0,0,0,-1,622,1562,0,0
-595,-538,0,0,0,0,0,0,0,0,0,-1,629,1562,0,0
-588,-538,0,0,0,0,0,0,0,0,0,-1,636,1562,0,0
-581,-538,0,0,0,0,0,0,0,0,0,-1,643,1562,0,0
-574,-538,0,0,0,0,0,0,0,0,0,-1,650,1562,0,0
-567,-538,0,0,0,0,0,0,0,0,0,-1,657,1562,0,0
-560,-538,0,0,0,0,0,0,0,0,0,-1,664,1562,0,0
-553,-538,0,0,0,0,0,0,0,0,0,-1,671,1562,0,0
-546,-538,0,0,0,0,0,0,0,0,0,-1,678,1562,0,0
-539,-538,0,0,0,0,0,0,0,0,0,-1,685,1562,0,0
-532,-538,0,0,0,0,0,0,0,0,0,-1,692,1562,0,0
-525,-538,0,0,0,0,0,0,0,0,0,-1,699,1562,0,0
-518,-538,0,0,0,0,0,0,0,0,0,-1,706,1562,0,0
-511,-538,-2.6582,-1.54321,0,0,0,0,0,0,0,-1,713,1562,-2.65821,1.54327
-504,-538,-2.66455,-0.71167,0,0,0,0,0,0,0,-1,720,1562,-2.66456,0.711667
-497,-538,-0.763855,6.77747,0,0,0,0,0,0,0,-1,727,1562,-0.76385,-6.77743
-490,-538,-2.70453,8.01465,0,0,0,0,0,0,0,-1,734,1562,-2.70451,-8.0147
-483,-538,-0.933533,7.84644,0,0,0,0,0,0,0,-1,741,1562,-0.933548,-7.84638
-476,-538,-3.29962,15.8307,0,0,0,0,0,0,0,-1,748,1562,-3.29962,-15.8306
-469,-538,-6.44983,24.5707,0,0,0,0,0,0,0,-1,755,1562,-6.4498,-24.5707
-462,-538,-5.75458,25.4069,0,0,0,0,0,0,0,-1,762,1562,-5.7546,-25.4068
-455,-538,-11.161,39.4834,0,0,0,0,0,0,0,-1,769,1562,-11.161,-39.4833
-448,-538,-13.2156,47.0696,0,0,0,0,0,0,0,-1,776,1562,-13.2156,-47.0695
-441,-538,-70.9037,123.01,0,0,0,0,0,0,0,-1,783,1562,-70.9038,-123.01
-434,-538,-71.6542,127.342,0.0468646,0.0327685,-0.0602086,0.100436,-0.0208032,-0.727133,0.0748617,0.0432588,790,1562,-71.6542,-127.342
-427,-538,-72.9451,131.822,0.0454605,0.0262917,-0.0591838,0.0958309,-0.0240787,-0.705124,0.0732449,0.0198018,797,1562,-72.9451,-131.822
-420,-538,-74.2087,136.15,0.0435539,0.0208047,-0.0587924,0.092062,-0.0277033,-0.689843,0.072398,0.0243928,804,1562,-74.2087,-136.15
-413,-538,-75.3301,140.46,0.0413966,0.0160384,-0.0588043,0.0888732,-0.0314382,-0.679217,0.0720519,0.02597,811,1562,-75.3301,-140.46
-406,-538,-76.4073,144.869,0.0388106,0.0119806,-0.0591873,0.0860841,-0.0352929,-0.673954,0.0720932,0.027102,818,1562,-76.4073,-144.868
-399,-538,-77.4055,149.311,0.035753,0.00861435,-0.0599877,0.0836869,-0.0393196,-0.674169,0.0725414,0.0235823,825,1562,-77.4055,-149.311
-392,-538,-78.7327,153.508,0.0322592,0.00615561,-0.0612515,0.081834,-0.0434192,-0.680425,0.07344,0.0207559,832,1562,-78.7327,-153.508
-385,-538,-80.3109,157.769,0.0288877,0.00447331,-0.0630385,0.0808901,-0.0475291,-0.689758,0.0749721,0.0267669,839,1562,-80.3109,-157.769
-378,-538,-81.9928,162.284,0,0,0,0,0,0,0,-1,846,1562,-81.9928,-162.284
-371,-538,-64.7714,165.522,0,0,0,0,0,0,0,-1,853,1562,-64.7714,-165.522
-364,-538,-71.8551,170.528,0,0,0,0,0,0,0,-1,860,1562,-71.8551,-170.528
-357,-538,-53.7414,154.693,0,0,0,0,0,0,0,-1,867,1562,-53.7414,-154.693
-350,-538,-6.37695,40.0256,0,0,0,0,0,0,0,-1,874,1562,-6.37696,-40.0257
-343,-538,-2.47339,28.3082,0,0,0,0,0,0,0,-1,881,1562,-2.47341,-28.3083
-336,-538,-2.40161,28.5409,0,0,0,0,0,0,0,-1,888,1562,-2.40163,-28.541
-329,-538,-2.57159,28.4905,0,0,0,0,0,0,0,-1,895,1562,-2.57161,-28.4905
-322,-538,-2.83783,28.2308,0,0,0,0,0,0,0,-1,902,1562,-2.83783,-28.2308
-315,-538,-2.91827,27.7609,0,0,0,0,0,0,0,-1,909,1562,-2.91829,-27.7608
-308,-538,-4.37433,31.7996,0,0,0,0,0,0,0,-1,916,1562,-4.3743,-31.7995
-301,-538,-0.452393,18.5101,0,0,0,0,0,0,0,-1,923,1562,-0.452367,-18.5102
-294,-538,1.23138,14.0757,0,0,0,0,0,0,0,-1,930,1562,1.23137,-14.0757
-287,-538,-2.60419,10.2361,0,0,0,0,0,0,0,-1,937,1562,-2.6042,-10.2361
-280,-538,-2.93475,10.5106,0,0,0,0,0,0,0,-1,944,1562,-2.93475,-10.5106
-273,-538,-3.26532,10.785,0,0,0,0,0,0,0,-1,951,1562,-3.26531,-10.785
-266,-538,-5.03412,15.9951,0,0,0,0,0,0,0,-1,958,1562,-5.03409,-15.9951
-259,-538,-5.89642,16.5184,0,0,0,0,0,0,0,-1,965,1562,-5.89644,-16.5184
-252,-538,0,0,0,0,0,0,0,0,0,-1,972,1562,0,0
-245,-538,0,0,0,0,0,0,0,0,0,-1,979,1562,0,0
-238,-538,0,0,0,0,0,0,0,0,0,-1,986,1562,0,0
-231,-538,0,0,0,0,0,0,0,0,0,-1,993,1562,0,0
-224,-538,0,0,0,0,0,0,0,0,0,-1,1000,1562,0,0
-217,-538,0,0,0,0,0,0,0,0,0,-1,1007,1562,0,0
-210,-538,0,0,0,0,0,0,0,0,0,-1,1014,1562,0,0
-203,-538,0,0,0,0,0,0,0,0,0,-1,1021,1562,0,0
-196,-538,0,0,0,0,0,0,0,0,0,-1,1028,1562,0,0
-189,-538,0,0,0,0,0,0,0,0,0,-1,1035,1562,0,0
-182,-538,0,0,0,0,0,0,0,0,0,-1,1042,1562,0,0
-175,-538,0,0,0,0,0,0,0,0,0,-1,1049,1562,0,0
-168,-538,0,0,0,0,0,0,0,0,0,-1,1056,1562,0,0
-161,-538,0,0,0,0,0,0,0,0,0,-1,1063,1562,0,0
-154,-538,0,0,0,0,0,0,0,0,0,-1,1070,1562,0,0
-147,-538,0,0,0,0,0,0,0,0,0,-1,1077,1562,0,0
-140,-538,0,0,0,0,0,0,0,0,0,-1,1084,1562,0,0
-133,-538,0,0,0,0,0,0,0,0,0,-1,1091,1562,0,0
-126,-538,0,0,0,0,0,0,0,0,0,-1,1098,1562,0,0
-119,-538,0,0,0,0,0,0,0,0,0,-1,1105,1562,0,0
-112,-538,0,0,0,0,0,0,0,0,0,-1,1112,1562,0,0
-105,-538,0,0,0,0,0,0,0,0,0,-1,1119,1562,0,0
-98,-538,0,0,0,0,0,0,0,0,0,-1,1126,1562,0,0
-91,-538,0,0,0,0,0,0,0,0,0,-1,1133,1562,0,0
-84,-538,0,0,0,0,0,0,0,0,0,-1,1140,1562,0,0
-77,-538,0,0,0,0,0,0,0,0,0,-1,1147,1562,0,0
-70,-538,0,0,0,0,0,0,0,0,0,-1,1154,1562,0,0
-63,-538,0,0,0,0,0,0,0,0,0,-1,1161,1562,0,0
-56,-538,0,0,0,0,0,0,0,0,0,-1,1168,1562,0,0
-49,-538,0,0,0,0,0,0,0,0,0,-1,1175,1562,0,0
-42,-538,0,0,0,0,0,0,0,0,0,-1,1182,1562,0,0
-35,-538,0,0,0,0,0,0,0,0,0,-1,1189,1562,0,0
-28,-538,0,0,0,0,0,0,0,0,0,-1,1196,1562,0,0
-21,-538,0,0,0,0,0,0,0,0,0,-1,1203,1562,0,0
-14,-538,0,0,0,0,0,0,0,0,0,-1,1210,1562,0,0
-7,-538,0,0,0,0,0,0,0,0,0,-1,1217,1562,0,0
0,-538,0,0,0,0,0,0,0,0,0,-1,1224,1562,0,0
7,-538,0,0,0,0,0,0,0,0,0,-1,1231,1562,0,0
14,-538,0,0,0,0,0,0,0,0,0,-1,1238,1562,0,0
21,-538,0,0,0,0,0,0,0,0,0,-1,1245,1562,0,0
28,-538,0,0,0,0,0,0,0,0,0,-1,1252,1562,0,0
35,-538,0,0,0,0,0,0,0,0,0,-1,1259,1562,0,0
42,-538,0,0,0,0,0,0,0,0,0,-1,1266,1562,0,0
49,-538,0,0,0,0,0,0,0,0,0,-1,1273,1562,0,0
56,-538,0,0,0,0,0,0,0,0,0,-1,1280,1562,0,0
63,-538,0,0,0,0,0,0,0,0,0,-1,1287,1562,0,0
70,-538,0,0,0,0,0,0,0,0,0,-1,1294,1562,0,0
77,-538,0,0,0,0,0,0,0,0,0,-1,1301,1562,0,0
84,-538,0,0,0,0,0,0,0,0,0,-1,1308,1562,0,0
91,-538,0,0,0,0,0,0,0,0,0,-1,1315,1562,0,0
98,-538,0,0,0,0,0,0,0,0,0,-1,1322,1562,0,0
105,-538,0,0,0,0,0,0,0,0,0,-1,1329,1562,0,0
112,-538,0,0,0,0,0,0,0,0,0,-1,1336,1562,0,0
119,-538,0,0,0,0,0,0,0,0,0,-1,1343,1562,0,0
126,-538,0,0,0,0,0,0,0,0,0,-1,1350,1562,0,0
133,-538,0,0,0,0,0,0,0,0,0,-1,1357,1562,0,0
140,-538,0,0,0,0,0,0,0,0,0,-1,1364,1562,0,0
147,-538,0,0,0,0,0,0,0,0,0,-1,1371,1562,0,0
154,-538,0,0,0,0,0,0,0,0,0,-1,1378,1562,0,0
161,-538,0,0,0,0,0,0,0,0,0,-1,1385,1562,0,0
168,-538,0,0,0,0,0,0,0,0,0,-1,1392,1562,0,0
175,-538,0,0,0,0,0,0,0,0,0,-1,1399,1562,0,0
182,-538,0,0,0,0,0,0,0,0,0,-1,1406,1562,0,0
189,-538,0,0,0,0,0,0,0,0,0,-1,1413,1562,0,0
196,-538,0,0,0,0,0,0,0,0,0,-1,1420,1562,0,0
203,-538,0,0,0,0,0,0,0,0,0,-1,1427,1562,0,0
210,-538,0,0,0,0,0,0,0,0,0,-1,1434,1562,0,0
217,-538,0,0,0,0,0,0,0,0,0,-1,1441,1562,0,0
224,-538,0,0,0,0,0,0,0,0,0,-1,1448,1562,0,0
231,-538,0,0,0,0,0,0,0,0,0,-1,1455,1562,0,0
238,-538,0,0,0,0,0,0,0,0,0,-1,1462,1562,0,0
245,-538,0,0,0,0,0,0,0,0,0,-1,1469,1562,0,0
252,-538,0,0,0,0,0,0,0,0,0,-1,1476,1562,0,0
259,-538,0,0,0,0,0,0,0,0,0,-1,1483,1562,0,0
266,-538,0,0,0,0,0,0,0,0,0,-1,1490,1562,0,0
273,-538,0,0,0,0,0,0,0,0,0,-1,1497,1562,0,0
280,-538,0,0,0,0,0,0,0,0,0,-1,1504,1562,0,0
287,-538,0,0,0,0,0,0,0,0,0,-1,1511,1562,0,0
294,-538,0,0,0,0,0,0,0,0,0,-1,1518,1562,0,0
301,-538,0,0,0,0,0,0,0,0,0,-1,1525,1562,0,0
308,-538,0,0,0,0,0,0,0,0,0,-1,1532,1562,0,0
315,-538,0,0,0,0,0,0,0,0,0,-1,1539,1562,0,0
322,-538,0,0,0,0,0,0,0,0,0,-1,1546,1562,0,0
329,-538,0,0,0,0,0,0,0,0,0,-1,1553,1562,0,0
336,-538,0,0,0,0,0,0,0,0,0,-1,1560,1562,0,0
343,-538,0,0,0,0,0,0,0,0,0,-1,1567,1562,0,0
350,-538,0,0,0,0,0,0,0,0,0,-1,1574,1562,0,0
357,-538,0,0,0,0,0,0,0,0,0,-1,1581,1562,0,0
364,-538,0,0,0,0,0,0,0,0,0,-1,1588,1562,0,0
371,-538,0,0,0,0,0,0,0,0,0,-1,1595,1562,0,0
378,-538,9.65479,5.82434,0,0,0,0,0,0,0,-1,1602,1562,9.6548,-5.82439
385,-538,10.5449,7.9502,0,0,0,0,0,0,0,-1,1609,1562,10.5449,-7.95014
392,-538,8.20361,7.07214,0,0,0,0,0,0,0,-1,1616,1562,8.20362,-7.07211
399,-538,7.85425,4.70508,0,0,0,0,0,0,0,-1,1623,1562,7.85425,-4.70512
406,-538,7.77734,4.96094,0,0,0,0,0,0,0,-1,1630,1562,7.77729,-4.96097
413,-538,13.0446,13.1765,0,0,0,0,0,0,0,-1,1637,1562,13.0446,-13.1765
420,-538,9.96216,12.7653,0,0,0,0,0,0,0,-1,1644,1562,9.96221,-12.7653
427,-538,10.1732,14.5863,0,0,0,0,0,0,0,-1,1651,1562,10.1732,-14.5863
434,-538,9.64331,14.7745,0,0,0,0,0,0,0,-1,1658,1562,9.64326,-14.7746
441,-538,11.5039,20.5195,0,0,0,0,0,0,0,-1,1665,1562,11.5039,-20.5195
448,-538,12.8766,22.4932,0,0,0,0,0,0,0,-1,1672,1562,12.8766,-22.4932
455,-538,12.5693,17.4128,0,0,0,0,0,0,0,-1,1679,1562,12.5694,-17.4128
462,-538,12.1389,17.017,0,0,0,0,0,0,0,-1,1686,1562,12.1389,-17.017
469,-538,14.3802,16.6945,0,0,0,0,0,0,0,-1,1693,1562,14.3803,-16.6945
476,-538,13.724,19.0608,0,0,0,0,0,0,0,-1,1700,1562,13.724,-19.0608
483,-538,17.088,25.2936,0,0,0,0,0,0,0,-1,1707,1562,17.088,-25.2936
490,-538,38.6315,88.9027,0,0,0,0,0,0,0,-1,1714,1562,38.6315,-88.9028
497,-538,69.8599,171.032,0,0,0,0,0,0,0,-1,1721,1562,69.8598,-171.032
504,-538,71.4562,168.192,0,0,0,0,0,0,0,-1,1728,1562,71.4562,-168.192
511,-538,91.5985,167.339,0,0,0,0,0,0,0,-1,1735,1562,91.5985,-167.339
518,-538,91.4209,162.63,0,0,0,0,0,0,0,-1,1742,1562,91.4209,-162.63
525,-538,90.0708,158.041,0.0350274,4.11772e-05,0.038012,0.0593783,-0.0243097,0.569746,0.0497112,0.0277515,1749,1562,90.0708,-158.041
532,-538,88.8246,153.425,0.0334212,0.000809898,0.0373597,0.0578785,-0.0236475,0.579634,0.0484323,0.0296291,1756,1562,88.8246,-153.425
539,-538,87.5233,149.032,0.032481,0.00246052,0.0372359,0.0576182,-0.0226767,0.593805,0.0477991,0.034174,1763,1562,87.5233,-149.032
546,-538,86.3962,144.785,0.0320923,0.00555506,0.0378752,0.0589558,-0.0213085,0.616916,0.0480097,0.0239928,1770,1562,86.3962,-144.785
553,-538,85.1375,140.249,0.0318406,0.00975091,0.0390007,0.0613303,-0.0197388,0.647413,0.0488153,0.0430129,1777,1562,85.1375,-140.249
560,-538,83.8636,136.085,0,0,0,0,0,0,0,-1,1784,1562,83.8637,-136.085
567,-538,82.7119,131.727,0,0,0,0,0,0,0,-1,1791,1562,82.7119,-131.727
574,-538,81.457,127.411,0,0,0,0,0,0,0,-1,1798,1562,81.457,-127.411
581,-538,34.416,55.7428,0,0,0,0,0,0,0,-1,1805,1562,34.4161,-55.7428
588,-538,25.8256,30.7411,0,0,0,0,0,0,0,-1,1812,1562,25.8255,-30.7411
595,-538,15.9808,16.0894,0,0,0,0,0,0,0,-1,1819,1562,15.9808,-16.0893
602,-538,10.314,8.94238,0,0,0,0,0,0,0,-1,1826,1562,10.314,-8.94238
609,-538,10.1046,7.05713,0,0,0,0,0,0,0,-1,1833,1562,10.1046,-7.05719
616,-538,9.92249,5.43506,0,0,0,0,0,0,0,-1,1840,1562,9.92254,-5.43507
623,-538,11.1711,4.31604,0,0,0,0,0,0,0,-1,1847,1562,11.1711,-4.316
630,-538,12.6112,2.61633,0,0,0,0,0,0,0,-1,1854,1562,12.6112,-2.61637
637,-538,0,0,0,0,0,0,0,0,0,-1,1861,1562,0,0
644,-538,0,0,0,0,0,0,0,0,0,-1,1868,1562,0,0
651,-538,0,0,0,0,0,0,0,0,0,-1,1875,1562,0,0
658,-538,0,0,0,0,0,0,0,0,0,-1,1882,1562,0,0
665,-538,0,0,0,0,0,0,0,0,0,-1,1889,1562,0,0
672,-538,0,0,0,0,0,0,0,0,0,-1,1896,1562,0,0
679,-538,0,0,0,0,0,0,0,0,0,-1,1903,1562,0,0
686,-538,0,0,0,0,0,0,0,0,0,-1,1910,1562,0,0
693,-538,0,0,0,0,0,0,0,0,0,-1,1917,1562,0,0
700,-538,0,0,0,0,0,0,0,0,0,-1,1924,1562,0,0
707,-538,0,0,0,0,0,0,0,0,0,-1,1931,1562,0,0
714,-538,0,0,0,0,0,0,0,0,0,-1,1938,1562,0,0
721,-538,0,0,0,0,0,0,0,0,0,-1,1945,1562,0,0
728,-538,0,0,0,0,0,0,0,0,0,-1,1952,1562,0,0
735,-538,0,0,0,0,0,0,0,0,0,-1,1959,1562,0,0
742,-538,0,0,0,0,0,0,0,0,0,-1,1966,1562,0,0
749,-538,0,0,0,0,0,0,0,0,0,-1,1973,1562,0,0
756,-538,0,0,0,0,0,0,0,0,0,-1,1980,1562,0,0
763,-538,0,0,0,0,0,0,0,0,0,-1,1987,1562,0,0
770,-538,0,0,0,0,0,0,0,0,0,-1,1994,1562,0,0
777,-538,0,0,0,0,0,0,0,0,0,-1,2001,1562,0,0
784,-538,0,0,0,0,0,0,0,0,0,-1,2008,1562,0,0
791,-538,0,0,0,0,0,0,0,0,0,-1,2015,1562,0,0
798,-538,0,0,0,0,0,0,0,0,0,-1,2022,1562,0,0
805,-538,0,0,0,0,0,0,0,0,0,-1,2029,1562,0,0
812,-538,0,0,0,0,0,0,0,0,0,-1,2036,1562,0,0
-700,-545,0,0,0,0,0,0,0,0,0,-1,524,1569,0,0
-693,-545,0,0,0,0,0,0,0,0,0,-1,531,1569,0,0
-686,-545,0,0,0,0,0,0,0,0,0,-1,538,1569,0,0
-679,-545,0,0,0,0,0,0,0,0,0,-1,545,1569,0,0
-672,-545,0,0,0,0,0,0,0,0,0,-1,552,1569,0,0
-665,-545,0,0,0,0,0,0,0,0,0,-1,559,1569,0,0
-658,-545,0,0,0,0,0,0,0,0,0,-1,566,1569,0,0
-651,-545,0,0,0,0,0,0,0,0,0,-1,573,1569,0,0
-644,-545,0,0,0,0,0,0,0,0,0,-1,580,1569,0,0
-637,-545,0,0,0,0,0,0,0,0,0,-1,587,1569,0,0
-630,-545,0,0,0,0,0,0,0,0,0,-1,594,1569,0,0
-623,-545,0,0,0,0,0,0,0,0,0,-1,601,1569,0,0
-616,-545,0,0,0,0,0,0,0,0,0,-1,608,1569,0,0
-609,-545,0,0,0,0,0,0,0,0,0,-1,615,1569,0,0
-602,-545,0,0,0,0,0,0,0,0,0,-1,622,1569,0,0
-595,-545,0,0,0,0,0,0,0,0,0,-1,629,1569,0,0
-588,-545,0,0,0,0,0,0,0,0,0,-1,636,1569,0,0
-581,-545,0,0,0,0,0,0,0,0,0,-1,643,1569,0,0
-574,-545,0,0,0,0,0,0,0,0,0,-1,650,1569,0,0
-567,-545,0,0,0,0,0,0,0,0,0,-1,657,1569,0,0
-560,-545,0,0,0,0,0,0,0,0,0,-1,664,1569,0,0
-553,-545,0,0,0,0,0,0,0,0,0,-1,671,1569,0,0
-546,-545,0,0,0,0,0,0,0,0,0,-1,678,1569,0,0
-539,-545,0,0,0,0,0,0,0,0,0,-1,685,1569,0,0
-532,-545,0,0,0,0,0,0,0,0,0,-1,692,1569,0,0
-525,-545,0,0,0,0,0,0,0,0,0,-1,699,1569,0,0
-518,-545,0,0,0,0,0,0,0,0,0,-1,706,1569,0,0
-511,-545,0,0,0,0,0,0,0,0,0,-1,713,1569,0,0
-504,-545,-3.55237,-2.5354,0,0,0,0,0,0,0,-1,720,1569,-3.55236,2.53545
-497,-545,2.26575,5.69214,0,0,0,0,0,0,0,-1,727,1569,2.26573,-5.6922
-490,-545,-2.17334,7.81396,0,0,0,0,0,0,0,-1,734,1569,-2.17334,-7.81399
-483,-545,-1.88336,5.8446,0,0,0,0,0,0,0,-1,741,1569,-1.88334,-5.84466
-476,-545,-1.13147,6.5741,0,0,0,0,0,0,0,-1,748,1569,-1.13149,-6.57405
-469,-545,-1.03412,15.8353,0,0,0,0,0,0,0,-1,755,1569,-1.03414,-15.8353
-462,-545,-4.09772,21.0458,0,0,0,0,0,0,0,-1,762,1569,-4.0977,-21.0458
-455,-545,-8.5816,34.5475,0,0,0,0,0,0,0,-1,769,1569,-8.58159,-34.5475
-448,-545,-9.96466,40.7007,0,0,0,0,0,0,0,-1,776,1569,-9.96466,-40.7007
-441,-545,-11.8745,47.3488,0,0,0,0,0,0,0,-1,783,1569,-11.8745,-47.3487
-434,-545,-66.8428,128.926,0,0,0,0,0,0,0,-1,790,1569,-66.8428,-128.926
-427,-545,-68.1404,133.663,0,0,0,0,0,0,0,-1,797,1569,-68.1404,-133.663
-420,-545,-69.1979,137.978,0.0476408,0.0214365,-0.0573005,0.093318,-0.0242407,-0.673002,0.0716719,0.0301257,804,1569,-69.1979,-137.978
-413,-545,-70.3766,142.332,0.0456004,0.0166556,-0.0572411,0.0901703,-0.0279143,-0.661577,0.0712646,0.0310278,811,1569,-70.3766,-142.332
-406,-545,-71.5503,146.751,0.0432287,0.0124891,-0.0575409,0.0874172,-0.0316994,-0.65489,0.0712357,0.0309823,818,1569,-71.5503,-146.751
-399,-545,-72.6148,151.175,0.0404543,0.00904456,-0.058284,0.0851122,-0.0356134,-0.653797,0.0716272,0.02252,825,1569,-72.6148,-151.175
-392,-545,-73.86,155.532,0.0374039,0.00654619,-0.0594749,0.0834186,-0.0394686,-0.658487,0.0724457,0.0198594,832,1569,-73.86,-155.532
-385,-545,-75.3008,159.831,0.0345481,0.0047655,-0.0611009,0.0825461,-0.0432325,-0.66587,0.0737913,0.017331,839,1569,-75.3008,-159.831
-378,-545,-76.7581,164.197,0.0329414,0.00387178,-0.0633174,0.0833708,-0.0465576,-0.672575,0.0760113,0.032478,846,1569,-76.7581,-164.197
-371,-545,-78.1223,168.606,0,0,0,0,0,0,0,-1,853,1569,-78.1223,-168.606
-364,-545,-78.1102,173.097,0,0,0,0,0,0,0,-1,860,1569,-78.1102,-173.097
-357,-545,-77.6259,176.671,0,0,0,0,0,0,0,-1,867,1569,-77.6259,-176.671
-350,-545,-62.8481,177.965,0,0,0,0,0,0,0,-1,874,1569,-62.8481,-177.965
-343,-545,-9.54028,53.48,0,0,0,0,0,0,0,-1,881,1569,-9.54026,-53.48
-336,-545,-4.2146,36.9165,0,0,0,0,0,0,0,-1,888,1569,-4.21457,-36.9165
-329,-545,-2.03595,27.8694,0,0,0,0,0,0,0,-1,895,1569,-2.03592,-27.8694
-322,-545,-2.42474,27.9695,0,0,0,0,0,0,0,-1,902,1569,-2.42474,-27.9695
-315,-545,-2.52954,30.1711,0,0,0,0,0,0,0,-1,909,1569,-2.52951,-30.1712
-308,-545,-1.54358,21.4457,0,0,0,0,0,0,0,-1,916,1569,-1.54357,-21.4457
-301,-545,1.52191,17.5009,0,0,0,0,0,0,0,-1,923,1569,1.52192,-17.5008
-294,-545,-2.69287,8.42102,0,0,0,0,0,0,0,-1,930,1569,-2.69287,-8.42097
-287,-545,-3.47784,9.96021,0,0,0,0,0,0,0,-1,937,1569,-3.47785,-9.96021
-280,-545,-3.7879,10.5448,0,0,0,0,0,0,0,-1,944,1569,-3.78793,-10.5448
-273,-545,-5.10333,12.864,0,0,0,0,0,0,0,-1,951,1569,-5.10331,-12.864
-266,-545,-5.78955,13.3704,0,0,0,0,0,0,0,-1,958,1569,-5.78952,-13.3703
-259,-545,-6.32184,13.8101,0,0,0,0,0,0,0,-1,965,1569,-6.32182,-13.81
-252,-545,0.369263,7.54053,0,0,0,0,0,0,0,-1,972,1569,0.369276,-7.54056
-245,-545,-0.236633,6.65564,0,0,0,0,0,0,0,-1,979,1569,-0.236605,-6.65566
-238,-545,0,0,0,0,0,0,0,0,0,-1,986,1569,0,0
-231,-545,0,0,0,0,0,0,0,0,0,-1,993,1569,0,0
-224,-545,0,0,0,0,0,0,0,0,0,-1,1000,1569,0,0
-217,-545,0,0,0,0,0,0,0,0,0,-1,1007,1569,0,0
-210,-545,0,0,0,0,0,0,0,0,0,-1,1014,1569,0,0
-203,-545,0,0,0,0,0,0,0,0,0,-1,1021,1569,0,0
-196,-545,0,0,0,0,0,0,0,0,0,-1,1028,1569,0,0
-189,-545,0,0,0,0,0,0,0,0,0,-1,1035,1569,0,0
-182,-545,0,0,0,0,0,0,0,0,0,-1,1042,1569,0,0
-175,-545,0,0,0,0,0,0,0,0,0,-1,1049,1569,0,0
-168,-545,0,0,0,0,0,0,0,0,0,-1,1056,1569,0,0
-161,-545,0,0,0,0,0,0,0,0,0,-1,1063,1569,0,0
-154,-545,0,0,0,0,0,0,0,0,0,-1,1070,1569,0,0
-147,-545,0,0,0,0,0,0,0,0,0,-1,1077,1569,0,0
-140,-545,0,0,0,0,0,0,0,0,0,-1,1084,1569,0,0
-133,-545,0,0,0,0,0,0,0,0,0,-1,1091,1569,0,0
-126,-545,0,0,0,0,0,0,0,0,0,-1,1098,1569,0,0
-119,-545,0,0,0,0,0,0,0,0,0,-1,1105,1569,0,0
-112,-545,0,0,0,0,0,0,0,0,0,-1,1112,1569,0,0
-105,-545,0,0,0,0,0,0,0,0,0,-1,1119,1569,0,0
-98,-545,0,0,0,0,0,0,0,0,0,-1,1126,1569,0,0
-91,-545,0,0,0,0,0,0,0,0,0,-1,1133,1569,0,0
-84,-545,0,0,0,0,0,0,0,0,0,-1,1140,1569,0,0
-77,-545,0,0,0,0,0,0,0,0,0,-1,1147,1569,0,0
-70,-545,0,0,0,0,0,0,0,0,0,-1,1154,1569,0,0
-63,-545,0,0,0,0,0,0,0,0,0,-1,1161,1569,0,0
-56,-545,0,0,0,0,0,0,0,0,0,-1,1168,1569,0,0
-49,-545,0,0,0,0,0,0,0,0,0,-1,1175,1569,0,0
-42,-545,0,0,0,0,0,0,0,0,0,-1,1182,1569,0,0
-35,-545,0,0,0,0,0,0,0,0,0,-1,1189,1569,0,0
-28,-545,0,0,0,0,0,0,0,0,0,-1,1196,1569,0,0
-21,-545,0,0,0,0,0,0,0,0,0,-1,1203,1569,0,0
-14,-545,0,0,0,0,0,0,0,0,0,-1,1210,1569,0,0
-7,-545,0,0,0,0,0,0,0,0,0,-1,1217,1569,0,0
0,-545,0,0,0,0,0,0,0,0,0,-1,1224,1569,0,0
7,-545,0,0,0,0,0,0,0,0,0,-1,1231,1569,0,0
14,-545,0,0,0,0,0,0,0,0,0,-1,1238,1569,0,0
21,-545,0,0,0,0,0,0,0,0,0,-1,1245,1569,0,0
28,-545,0,0,0,0,0,0,0,0,0,-1,1252,1569,0,0
35,-545,0,0,0,0,0,0,0,0,0,-1,1259,1569,0,0
42,-545,0,0,0,0,0,0,0,0,0,-1,1266,1569,0,0
49,-545,0,0,0,0,0,0,0,0,0,-1,1273,1569,0,0
56,-545,0,0,0,0,0,0,0,0,0,-1,1280,1569,0,0
63,-545,0,0,0,0,0,0,0,0,0,-1,1287,1569,0,0
70,-545,0,0,0,0,0,0,0,0,0,-1,1294,1569,0,0
77,-545,0,0,0,0,0,0,0,0,0,-1,1301,1569,0,0
84,-545,0,0,0,0,0,0,0,0,0,-1,1308,1569,0,0
91,-545,0,0,0,0,0,0,0,0,0,-1,1315,1569,0,0
98,-545,0,0,0,0,0,0,0,0,0,-1,1322,1569,0,0
105,-545,0,0,0,0,0,0,0,0,0,-1,1329,1569,0,0
112,-545,0,0,0,0,0,0,0,0,0,-1,1336,1569,0,0
119,-545,0,0,0,0,0,0,0,0,0,-1,1343,1569,0,0
126,-545,0,0,0,0,0,0,0,0,0,-1,1350,1569,0,0
133,-545,0,0,0,0,0,0,0,0,0,-1,1357,1569,0,0
140,-545,0,0,0,0,0,0,0,0,0,-1,1364,1569,0,0
147,-545,0,0,0,0,0,0,0,0,0,-1,1371,1569,0,0
154,-545,0,0,0,0,0,0,0,0,0,-1,1378,1569,0,0
161,-545,0,0,0,0,0,0,0,0,0,-1,1385,1569,0,0
168,-545,0,0,0,0,0,0,0,0,0,-1,1392,1569,0,0
175,-545,0,0,0,0,0,0,0,0,0,-1,1399,1569,0,0
182,-545,0,0,0,0,0,0,0,0,0,-1,1406,1569,0,0
189,-545,0,0,0,0,0,0,0,0,0,-1,1413,1569,0,0
196,-545,0,0,0,0,0,0,0,0,0,-1,1420,1569,0,0
203,-545,0,0,0,0,0,0,0,0,0,-1,1427,1569,0,0
210,-545,0,0,0,0,0,0,0,0,0,-1,1434,1569,0,0
217,-545,0,0,0,0,0,0,0,0,0,-1,1441,1569,0,0
224,-545,0,0,0,0,0,0,0,0,0,-1,1448,1569,0,0
231,-545,0,0,0,0,0,0,0,0,0,-1,1455,1569,0,0
238,-545,0,0,0,0,0,0,0,0,0,-1,1462,1569,0,0
245,-545,0,0,0,0,0,0,0,0,0,-1,1469,1569,0,0
252,-545,0,0,0,0,0,0,0,0,0,-1,1476,1569,0,0
259,-545,0,0,0,0,0,0,0,0,0,-1,1483,1569,0,0
266,-545,0,0,0,0,0,0,0,0,0,-1,1490,1569,0,0
273,-545,0,0,0,0,0,0,0,0,0,-1,1497,1569,0,0
280,-545,0,0,0,0,0,0,0,0,0,-1,1504,1569,0,0
287,-545,0,0,0,0,0,0,0,0,0,-1,1511,1569,0,0
294,-545,0,0,0,0,0,0,0,0,0,-1,1518,1569,0,0
301,-545,0,0,0,0,0,0,0,0,0,-1,1525,1569,0,0
308,-545,0,0,0,0,0,0,0,0,0,-1,1532,1569,0,0
315,-545,0,0,0,0,0,0,0,0,0,-1,1539,1569,0,0
322,-545,0,0,0,0,0,0,0,0,0,-1,1546,1569,0,0
329,-545,0,0,0,0,0,0,0,0,0,-1,1553,1569,0,0
336,-545,0,0,0,0,0,0,0,0,0,-1,1560,1569,0,0
343,-545,0,0,0,0,0,0,0,0,0,-1,1567,1569,0,0
350,-545,0,0,0,0,0,0,0,0,0,-1,1574,1569,0,0
357,-545,0,0,0,0,0,0,0,0,0,-1,1581,1569,0,0
364,-545,7.19495,4.88098,0,0,0,0,0,0,0,-1,1588,1569,7.19497,-4.88095
371,-545,7.82324,3.84302,0,0,0,0,0,0,0,-1,1595,1569,7.82324,-3.84307
378,-545,7.65674,5.52673,0,0,0,0,0,0,0,-1,1602,1569,7.6567,-5.52667
385,-545,8.58447,1.16125,0,0,0,0,0,0,0,-1,1609,1569,8.5845,-1.1612
392,-545,12.5654,3.89526,0,0,0,0,0,0,0,-1,1616,1569,12.5655,-3.89532
399,-545,11.5869,5.6333,0,0,0,0,0,0,0,-1,1623,1569,11.5869,-5.63326
406,-545,11.234,6.36414,0,0,0,0,0,0,0,-1,1630,1569,11.234,-6.3641
413,-545,12.1521,13.4817,0,0,0,0,0,0,0,-1,1637,1569,12.1521,-13.4817
420,-545,11.1954,13.6047,0,0,0,0,0,0,0,-1,1644,1569,11.1954,-13.6047
427,-545,9.61072,14.9135,0,0,0,0,0,0,0,-1,1651,1569,9.61076,-14.9134
434,-545,13.1598,23.9921,0,0,0,0,0,0,0,-1,1658,1569,13.1598,-23.992
441,-545,12.2833,22.2238,0,0,0,0,0,0,0,-1,1665,1569,12.2833,-22.2237
448,-545,13.0082,21.941,0,0,0,0,0,0,0,-1,1672,1569,13.0082,-21.941
455,-545,13.733,21.6583,0,0,0,0,0,0,0,-1,1679,1569,13.733,-21.6583
462,-545,12.449,20.7413,0,0,0,0,0,0,0,-1,1686,1569,12.4489,-20.7413
469,-545,12.7837,17.7919,0,0,0,0,0,0,0,-1,1693,1569,12.7837,-17.7919
476,-545,15.7562,24.8708,0,0,0,0,0,0,0,-1,1700,1569,15.7563,-24.8709
483,-545,37.3098,90.5648,0,0,0,0,0,0,0,-1,1707,1569,37.3098,-90.5648
490,-545,67.9878,179.796,0,0,0,0,0,0,0,-1,1714,1569,67.9878,-179.796
497,-545,90.6367,178.005,0,0,0,0,0,0,0,-1,1721,1569,90.6368,-178.005
504,-545,89.1584,173.586,0,0,0,0,0,0,0,-1,1728,1569,89.1584,-173.586
511,-545,87.905,169.134,0,0,0,0,0,0,0,-1,1735,1569,87.9051,-169.134
518,-545,86.7162,164.457,0.0381286,-0.000919593,0.0373122,0.0607161,-0.0235071,0.544356,0.0501832,0.0231365,1742,1569,86.7162,-164.457
525,-545,85.439,159.854,0.0364812,-0.000374071,0.0362935,0.0587573,-0.0226502,0.550488,0.0485172,0.0243317,1749,1569,85.439,-159.854
532,-545,84.1521,155.223,0.034987,0.000735529,0.0357965,0.0575436,-0.021821,0.562281,0.0473431,0.0280003,1756,1569,84.1521,-155.223
539,-545,82.8518,150.88,0.0341621,0.00280639,0.0358425,0.0576055,-0.0206371,0.579231,0.046824,0.0298172,1763,1569,82.8517,-150.88
546,-545,81.605,146.54,0.0338736,0.00622352,0.0364992,0.0590783,-0.0189812,0.60436,0.0470079,0.02405,1770,1569,81.6049,-146.54
553,-545,80.4675,142.05,0.0336112,0.0109418,0.0376033,0.061551,-0.016998,0.639014,0.04772,0.0373411,1777,1569,80.4675,-142.05
560,-545,79.2263,137.47,0,0,0,0,0,0,0,-1,1784,1569,79.2263,-137.47
567,-545,77.9457,132.924,0,0,0,0,0,0,0,-1,1791,1569,77.9456,-132.924
574,-545,27.1798,38.2062,0,0,0,0,0,0,0,-1,1798,1569,27.1798,-38.2062
581,-545,24.7096,31.5568,0,0,0,0,0,0,0,-1,1805,1569,24.7096,-31.5568
588,-545,15.4786,16.7035,0,0,0,0,0,0,0,-1,1812,1569,15.4786,-16.7035
595,-545,10.2859,9.11218,0,0,0,0,0,0,0,-1,1819,1569,10.2858,-9.11215
602,-545,8.82117,6.32214,0,0,0,0,0,0,0,-1,1826,1569,8.82121,-6.32217
609,-545,10.2406,5.22351,0,0,0,0,0,0,0,-1,1833,1569,10.2406,-5.22353
616,-545,11.701,3.93188,0,0,0,0,0,0,0,-1,1840,1569,11.701,-3.93191
623,-545,13.2139,2.32043,0,0,0,0,0,0,0,-1,1847,1569,13.2139,-2.32042
630,-545,0,0,0,0,0,0,0,0,0,-1,1854,1569,0,0
637,-545,0,0,0,0,0,0,0,0,0,-1,1861,1569,0,0
644,-545,0,0,0,0,0,0,0,0,0,-1,1868,1569,0,0
651,-545,0,0,0,0,0,0,0,0,0,-1,1875,1569,0,0
658,-545,0,0,0,0,0,0,0,0,0,-1,1882,1569,0,0
665,-545,0,0,0,0,0,0,0,0,0,-1,1889,1569,0,0
672,-545,0,0,0,0,0,0,0,0,0,-1,1896,1569,0,0
679,-545,0,0,0,0,0,0,0,0,0,-1,1903,1569,0,0
686,-545,0,0,0,0,0,0,0,0,0,-1,1910,1569,0,0
693,-545,0,0,0,0,0,0,0,0,0,-1,1917,1569,0,0
700,-545,0,0,0,0,0,0,0,0,0,-1,1924,1569,0,0
707,-545,0,0,0,0,0,0,0,0,0,-1,1931,1569,0,0
714,-545,0,0,0,0,0,0,0,0,0,-1,1938,1569,0,0
721,-545,0,0,0,0,0,0,0,0,0,-1,1945,1569,0,0
728,-545,0,0,0,0,0,0,0,0,0,-1,1952,1569,0,0
735,-545,0,0,0,0,0,0,0,0,0,-1,1959,1569,0,0
742,-545,0,0,0,0,0,0,0,0,0,-1,1966,1569,0,0
749,-545,0,0,0,0,0,0,0,0,0,-1,1973,1569,0,0
756,-545,0,0,0,0,0,0,0,0,0,-1,1980,1569,0,0
763,-545,0,0,0,0,0,0,0,0,0,-1,1987,1569,0,0
770,-545,0,0,0,0,0,0,0,0,0,-1,1994,1569,0,0
777,-545,0,0,0,0,0,0,0,0,0,-1,2001,1569,0,0
784,-545,0,0,0,0,0,0,0,0,0,-1,2008,1569,0,0
791,-545,0,0,0,0,0,0,0,0,0,-1,2015,1569,0,0
798,-545,0,0,0,0,0,0,0,0,0,-1,2022,1569,0,0
805,-545,0,0,0,0,0,0,0,0,0,-1,2029,1569,0,0
812,-545,0,0,0,0,0,0,0,0,0,-1,2036,1569,0,0
-700,-552,0,0,0,0,0,0,0,0,0,-1,524,1576,0,0
-693,-552,0,0,0,0,0,0,0,0,0,-1,531,1576,0,0
-686,-552,0,0,0,0,0,0,0,0,0,-1,538,1576,0,0
-679,-552,0,0,0,0,0,0,0,0,0,-1,545,1576,0,0
-672,-552,0,0,0,0,0,0,0,0,0,-1,552,1576,0,0
-665,-552,0,0,0,0,0,0,0,0,0,-1,559,1576,0,0
-658,-552,0,0,0,0,0,0,0,0,0,-1,566,1576,0,0
-651,-552,0,0,0,0,0,0,0,0,0,-1,573,1576,0,0
-644,-552,0,0,0,0,0,0,0,0,0,-1,580,1576,0,0
-637,-552,0,0,0,0,0,0,0,0,0,-1,587,1576,0,0
-630,-552,0,0,0,0,0,0,0,0,0,-1,594,1576,0,0
-623,-552,0,0,0,0,0,0,0,0,0,-1,601,1576,0,0
-616,-552,0,0,0,0,0,0,0,0,0,-1,608,1576,0,0
-609,-552,0,0,0,0,0,0,0,0,0,-1,615,1576,0,0
-602,-552,0,0,0,0,0,0,0,0,0,-1,622,1576,0,0
-595,-552,0,0,0,0,0,0,0,0,0,-1,629,1576,0,0
-588,-552,0,0,0,0,0,0,0,0,0,-1,636,1576,0,0
-581,-552,0,0,0,0,0,0,0,0,0,-1,643,1576,0,0
-574,-552,0,0,0,0,0,0,0,0,0,-1,650,1576,0,0
-567,-552,0,0,0,0,0,0,0,0,0,-1,657,1576,0,0
-560,-552,0,0,0,0,0,0,0,0,0,-1,664,1576,0,0
-553,-552,0,0,0,0,0,0,0,0,0,-1,671,1576,0,0
-546,-552,0,0,0,0,0,0,0,0,0,-1,678,1576,0,0
-539,-552,0,0,0,0,0,0,0,0,0,-1,685,1576,0,0
-532,-552,0,0,0,0,0,0,0,0,0,-1,692,1576,0,0
-525,-552,0,0,0,0,0,0,0,0,0,-1,699,1576,0,0
-518,-552,0,0,0,0,0,0,0,0,0,-1,706,1576,0,0
-511,-552,0,0,0,0,0,0,0,0,0,-1,713,1576,0,0
-504,-552,0,0,0,0,0,0,0,0,0,-1,720,1576,0,0
-497,-552,1.51282,3.96924,0,0,0,0,0,0,0,-1,727,1576,1.5128,-3.96924
-490,-552,-3.82312,6.32104,0,0,0,0,0,0,0,-1,734,1576,-3.82314,-6.3211
-483,-552,-3.50586,6.47986,0,0,0,0,0,0,0,-1,741,1576,-3.50587,-6.47983
-476,-552,-1.95129,4.43054,0,0,0,0,0,0,0,-1,748,1576,-1.95128,-4.43054
-469,-552,-1.40491,7.9895,0,0,0,0,0,0,0,-1,755,1576,-1.40491,-7.98947
-462,-552,0.0459595,16.3469,0,0,0,0,0,0,0,-1,762,1576,0.0459611,-16.3469
-455,-552,-3.21484,22.3766,0,0,0,0,0,0,0,-1,769,1576,-3.21487,-22.3766
-448,-552,-7.5672,35.5388,0,0,0,0,0,0,0,-1,776,1576,-7.56718,-35.5388
-441,-552,-6.46014,37.4419,0,0,0,0,0,0,0,-1,783,1576,-6.46013,-37.4419
-434,-552,-10.2953,45.2994,0,0,0,0,0,0,0,-1,790,1576,-10.2954,-45.2994
-427,-552,-38.4799,117.692,0,0,0,0,0,0,0,-1,797,1576,-38.4799,-117.691
-420,-552,-64.2504,139.867,0,0,0,0,0,0,0,-1,804,1576,-64.2504,-139.867
-413,-552,-65.5443,144.209,0.0497498,0.0170076,-0.0547918,0.0905639,-0.0238065,-0.640226,0.0696805,0.0258245,811,1576,-65.5443,-144.209
-406,-552,-66.7679,148.588,0.0475998,0.012882,-0.0551185,0.0880282,-0.0275464,-0.632846,0.0697062,0.0220635,818,1576,-66.7679,-148.588
-399,-552,-67.8331,152.967,0.0450582,0.00947889,-0.0558699,0.0859023,-0.0313652,-0.631267,0.0701026,0.0233234,825,1576,-67.8331,-152.967
-392,-552,-69.0458,157.363,0.0423269,0.00694709,-0.05705,0.0843667,-0.0350927,-0.63506,0.0708987,0.0269078,832,1576,-69.0458,-157.363
-385,-552,-70.332,161.879,0.0397924,0.00509023,-0.0585663,0.0835238,-0.0386412,-0.641385,0.0721013,0.0260567,839,1576,-70.332,-161.879
-378,-552,-71.4667,166.257,0.0386062,0.00396996,-0.0605889,0.0843033,-0.0417272,-0.646195,0.0741349,0.0270519,846,1576,-71.4667,-166.258
-371,-552,-72.3343,170.764,0.0393269,0.00286697,-0.0625283,0.0862285,-0.0440346,-0.643556,0.0765112,0.0387016,853,1576,-72.3343,-170.764
-364,-552,-73.4947,175.129,0.0407604,0.002222,-0.0649557,0.0892447,-0.0462623,-0.641207,0.0795361,0.0327353,860,1576,-73.4947,-175.129
-357,-552,-74.6891,179.42,0,0,0,0,0,0,0,-1,867,1576,-74.6891,-179.42
-350,-552,-74.5317,182.299,0,0,0,0,0,0,0,-1,874,1576,-74.5317,-182.299
-343,-552,-59.9205,182.345,0,0,0,0,0,0,0,-1,881,1576,-59.9205,-182.345
-336,-552,-12.1249,66.1841,0,0,0,0,0,0,0,-1,888,1576,-12.1249,-66.184
-329,-552,-3.68982,37.6417,0,0,0,0,0,0,0,-1,895,1576,-3.68984,-37.6417
-322,-552,-1.23962,28.5371,0,0,0,0,0,0,0,-1,902,1576,-1.23964,-28.5371
-315,-552,-0.605347,28.994,0,0,0,0,0,0,0,-1,909,1576,-0.605331,-28.9941
-308,-552,-1.01624,30.3169,0,0,0,0,0,0,0,-1,916,1576,-1.01624,-30.3169
-301,-552,1.39453,18.4995,0,0,0,0,0,0,0,-1,923,1576,1.3945,-18.4995
-294,-552,0.842163,13.7863,0,0,0,0,0,0,0,-1,930,1576,0.842149,-13.7863
-287,-552,-0.663757,13.3474,0,0,0,0,0,0,0,-1,937,1576,-0.663744,-13.3474
-280,-552,-5.47241,8.96765,0,0,0,0,0,0,0,-1,944,1576,-5.47239,-8.96766
-273,-552,1.64587,10.6685,0,0,0,0,0,0,0,-1,951,1576,1.6459,-10.6685
-266,-552,-1.32678,8.05688,0,0,0,0,0,0,0,-1,958,1576,-1.32677,-8.05683
-259,-552,-5.54321,8.31213,0,0,0,0,0,0,0,-1,965,1576,-5.54324,-8.31214
-252,-552,-1.93445,7.81543,0,0,0,0,0,0,0,-1,972,1576,-1.93445,-7.81546
-245,-552,-2.53613,6.92212,0,0,0,0,0,0,0,-1,979,1576,-2.53614,-6.92216
-238,-552,-6.5365,2.81885,0,0,0,0,0,0,0,-1,986,1576,-6.53649,-2.8188
-231,-552,-4.32239,4.34583,0,0,0,0,0,0,0,-1,993,1576,-4.32239,-4.34587
-224,-552,0,0,0,0,0,0,0,0,0,-1,1000,1576,0,0
-217,-552,0,0,0,0,0,0,0,0,0,-1,1007,1576,0,0
-210,-552,0,0,0,0,0,0,0,0,0,-1,1014,1576,0,0
-203,-552,0,0,0,0,0,0,0,0,0,-1,1021,1576,0,0
-196,-552,0,0,0,0,0,0,0,0,0,-1,1028,1576,0,0
-189,-552,0,0,0,0,0,0,0,0,0,-1,1035,1576,0,0
-182,-552,0,0,0,0,0,0,0,0,0,-1,1042,1576,0,0
-175,-552,0,0,0,0,0,0,0,0,0,-1,1049,1576,0,0
-168,-552,0,0,0,0,0,0,0,0,0,-1,1056,1576,0,0
-161,-552,0,0,0,0,0,0,0,0,0,-1,1063,1576,0,0
-154,-552,0,0,0,0,0,0,0,0,0,-1,1070,1576,0,0
-147,-552,0,0,0,0,0,0,0,0,0,-1,1077,1576,0,0
-140,-552,0,0,0,0,0,0,0,0,0,-1,1084,1576,0,0
-133,-552,0,0,0,0,0,0,0,0,0,-1,1091,1576,0,0
-126,-552,0,0,0,0,0,0,0,0,0,-1,1098,1576,0,0
-119,-552,0,0,0,0,0,0,0,0,0,-1,1105,1576,0,0
-112,-552,0,0,0,0,0,0,0,0,0,-1,1112,1576,0,0
-105,-552,0,0,0,0,0,0,0,0,0,-1,1119,1576,0,0
-98,-552,0,0,0,0,0,0,0,0,0,-1,1126,1576,0,0
-91,-552,0,0,0,0,0,0,0,0,0,-1,1133,1576,0,0
-84,-552,0,0,0,0,0,0,0,0,0,-1,1140,1576,0,0
-77,-552,0,0,0,0,0,0,0,0,0,-1,1147,1576,0,0
-70,-552,0,0,0,0,0,0,0,0,0,-1,1154,1576,0,0
-63,-552,0,0,0,0,0,0,0,0,0,-1,1161,1576,0,0
-56,-552,0,0,0,0,0,0,0,0,0,-1,1168,1576,0,0
-49,-552,0,0,0,0,0,0,0,0,0,-1,1175,1576,0,0
-42,-552,0,0,0,0,0,0,0,0,0,-1,1182,1576,0,0
-35,-552,0,0,0,0,0,0,0,0,0,-1,1189,1576,0,0
-28,-552,0,0,0,0,0,0,0,0,0,-1,1196,1576,0,0
-21,-552,0,0,0,0,0,0,0,0,0,-1,1203,1576,0,0
-14,-552,0,0,0,0,0,0,0,0,0,-1,1210,1576,0,0
-7,-552,0,0,0,0,0,0,0,0,0,-1,1217,1576,0,0
0,-552,0,0,0,0,0,0,0,0,0,-1,1224,1576,0,0
7,-552,0,0,0,0,0,0,0,0,0,-1,1231,1576,0,0
14,-552,0,0,0,0,0,0,0,0,0,-1,1238,1576,0,0
21,-552,0,0,0,0,0,0,0,0,0,-1,1245,1576,0,0
28,-552,0,0,0,0,0,0,0,0,0,-1,1252,1576,0,0
35,-552,0,0,0,0,0,0,0,0,0,-1,1259,1576,0,0
42,-552,0,0,0,0,0,0,0,0,0,-1,1266,1576,0,0
49,-552,0,0,0,0,0,0,0,0,0,-1,1273,1576,0,0
56,-552,0,0,0,0,0,0,0,0,0,-1,1280,1576,0,0
63,-552,0,0,0,0,0,0,0,0,0,-1,1287,1576,0,0
70,-552,0,0,0,0,0,0,0,0,0,-1,1294,1576,0,0
77,-552,0,0,0,0,0,0,0,0,0,-1,1301,1576,0,0
84,-552,0,0,0,0,0,0,0,0,0,-1,1308,1576,0,0
91,-552,0,0,0,0,0,0,0,0,0,-1,1315,1576,0,0
98,-552,0,0,0,0,0,0,0,0,0,-1,1322,1576,0,0
105,-552,0,0,0,0,0,0,0,0,0,-1,1329,1576,0,0
112,-552,0,0,0,0,0,0,0,0,0,-1,1336,1576,0,0
119,-552,0,0,0,0,0,0,0,0,0,-1,1343,1576,0,0
126,-552,0,0,0,0,0,0,0,0,0,-1,1350,1576,0,0
133,-552,0,0,0,0,0,0,0,0,0,-1,1357,1576,0,0
140,-552,0,0,0,0,0,0,0,0,0,-1,1364,1576,0,0
147,-552,0,0,0,0,0,0,0,0,0,-1,1371,1576,0,0
154,-552,0,0,0,0,0,0,0,0,0,-1,1378,1576,0,0
161,-552,0,0,0,0,0,0,0,0,0,-1,1385,1576,0,0
168,-552,0,0,0,0,0,0,0,0,0,-1,1392,1576,0,0
175,-552,0,0,0,0,0,0,0,0,0,-1,1399,1576,0,0
182,-552,0,0,0,0,0,0,0,0,0,-1,1406,1576,0,0
189,-552,0,0,0,0,0,0,0,0,0,-1,1413,1576,0,0
196,-552,0,0,0,0,0,0,0,0,0,-1,1420,1576,0,0
203,-552,0,0,0,0,0,0,0,0,0,-1,1427,1576,0,0
210,-552,0,0,0,0,0,0,0,0,0,-1,1434,1576,0,0
217,-552,0,0,0,0,0,0,0,0,0,-1,1441,1576,0,0
224,-552,0,0,0,0,0,0,0,0,0,-1,1448,1576,0,0
231,-552,0,0,0,0,0,0,0,0,0,-1,1455,1576,0,0
238,-552,0,0,0,0,0,0,0,0,0,-1,1462,1576,0,0
245,-552,0,0,0,0,0,0,0,0,0,-1,1469,1576,0,0
252,-552,0,0,0,0,0,0,0,0,0,-1,1476,1576,0,0
259,-552,0,0,0,0,0,0,0,0,0,-1,1483,1576,0,0
266,-552,0,0,0,0,0,0,0,0,0,-1,1490,1576,0,0
273,-552,0,0,0,0,0,0,0,0,0,-1,1497,1576,0,0
280,-552,0,0,0,0,0,0,0,0,0,-1,1504,1576,0,0
287,-552,0,0,0,0,0,0,0,0,0,-1,1511,1576,0,0
294,-552,0,0,0,0,0,0,0,0,0,-1,1518,1576,0,0
301,-552,0,0,0,0,0,0,0,0,0,-1,1525,1576,0,0
308,-552,0,0,0,0,0,0,0,0,0,-1,1532,1576,0,0
315,-552,0,0,0,0,0,0,0,0,0,-1,1539,1576,0,0
322,-552,0,0,0,0,0,0,0,0,0,-1,1546,1576,0,0
329,-552,0,0,0,0,0,0,0,0,0,-1,1553,1576,0,0
336,-552,0,0,0,0,0,0,0,0,0,-1,1560,1576,0,0
343,-552,0,0,0,0,0,0,0,0,0,-1,1567,1576,0,0
350,-552,4.97876,4.09888,0,0,0,0,0,0,0,-1,1574,1576,4.97875,-4.09883
357,-552,5.18469,4.10706,0,0,0,0,0,0,0,-1,1581,1576,5.1847,-4.10702
364,-552,5.80872,5.07031,0,0,0,0,0,0,0,-1,1588,1576,5.80874,-5.07037
371,-552,7.10657,5.64783,0,0,0,0,0,0,0,-1,1595,1576,7.10651,-5.64786
378,-552,6.44446,4.91492,0,0,0,0,0,0,0,-1,1602,1576,6.44448,-4.91496
385,-552,12.8276,3.16504,0,0,0,0,0,0,0,-1,1609,1576,12.8276,-3.16503
392,-552,12.1301,4.3363,0,0,0,0,0,0,0,-1,1616,1576,12.1302,-4.33631
399,-552,11.3486,5.6012,0,0,0,0,0,0,0,-1,1623,1576,11.3486,-5.60115
406,-552,10.7863,6.42542,0,0,0,0,0,0,0,-1,1630,1576,10.7863,-6.42536
413,-552,8.39307,10.365,0,0,0,0,0,0,0,-1,1637,1576,8.3931,-10.365
420,-552,10.2306,12.7225,0,0,0,0,0,0,0,-1,1644,1576,10.2305,-12.7226
427,-552,9.73267,14.783,0,0,0,0,0,0,0,-1,1651,1576,9.73269,-14.783
434,-552,12.0377,20.1364,0,0,0,0,0,0,0,-1,1658,1576,12.0377,-20.1364
441,-552,12.4963,21.5277,0,0,0,0,0,0,0,-1,1665,1576,12.4964,-21.5277
448,-552,12.9141,21.5482,0,0,0,0,0,0,0,-1,1672,1576,12.9141,-21.5482
455,-552,13.3318,21.5687,0,0,0,0,0,0,0,-1,1679,1576,13.3317,-21.5687
462,-552,12.745,20.5947,0,0,0,0,0,0,0,-1,1686,1576,12.745,-20.5947
469,-552,17.7067,29.6902,0,0,0,0,0,0,0,-1,1693,1576,17.7067,-29.6902
476,-552,42.0524,124.612,0,0,0,0,0,0,0,-1,1700,1576,42.0523,-124.612
483,-552,88.5424,188.416,0,0,0,0,0,0,0,-1,1707,1576,88.5423,-188.416
490,-552,87.2489,184.218,0,0,0,0,0,0,0,-1,1714,1576,87.2489,-184.218
497,-552,86.0151,179.767,0.0456276,0.000413915,0.040017,0.068982,-0.0229405,0.528281,0.055246,0.0446858,1721,1576,86.0151,-179.767
504,-552,84.6609,175.365,0.0427054,-0.000600648,0.0381031,0.0648782,-0.0227734,0.527016,0.0525159,0.0349502,1728,1576,84.6609,-175.365
511,-552,83.3745,170.879,0.040515,-0.00112545,0.0361962,0.0614518,-0.0220622,0.524404,0.0499726,0.0248765,1735,1576,83.3746,-170.879
518,-552,82.0283,166.234,0.0385261,-0.0011988,0.0348571,0.0587827,-0.0214554,0.52643,0.0479673,0.0238051,1742,1576,82.0283,-166.234
525,-552,80.7401,161.642,0.0369509,-0.000555862,0.0339703,0.0570005,-0.0206055,0.53319,0.0464192,0.0241502,1749,1576,80.7401,-161.642
532,-552,79.5168,157.19,0.0356956,0.000764728,0.0335491,0.0560533,-0.0195929,0.545405,0.0453338,0.0211265,1756,1576,79.5168,-157.19
539,-552,78.2067,152.805,0.0351309,0.00317061,0.0337147,0.0564609,-0.0181594,0.56409,0.044934,0.0238573,1763,1576,78.2067,-152.805
546,-552,76.8733,148.384,0.0350454,0.00686436,0.0343433,0.0580763,-0.0161666,0.590728,0.0450832,0.0289345,1770,1576,76.8733,-148.384
553,-552,75.7017,143.713,0.0348436,0.0122284,0.0353085,0.0606109,-0.013539,0.630432,0.0455953,0.0376269,1777,1576,75.7017,-143.713
560,-552,74.6414,138.864,0,0,0,0,0,0,0,-1,1784,1576,74.6414,-138.864
567,-552,26.8342,55.0354,0,0,0,0,0,0,0,-1,1791,1576,26.8342,-55.0354
574,-552,12.8835,14.8463,0,0,0,0,0,0,0,-1,1798,1576,12.8836,-14.8463
581,-552,9.74841,9.98645,0,0,0,0,0,0,0,-1,1805,1576,9.74847,-9.9864
588,-552,10.5619,9.34924,0,0,0,0,0,0,0,-1,1812,1576,10.5619,-9.34921
595,-552,5.36194,6.62744,0,0,0,0,0,0,0,-1,1819,1576,5.36193,-6.62742
602,-552,10.6863,4.31616,0,0,0,0,0,0,0,-1,1826,1576,10.6862,-4.31619
609,-552,12.146,3.18286,0,0,0,0,0,0,0,-1,1833,1576,12.1459,-3.18281
616,-552,13.8762,2.08167,0,0,0,0,0,0,0,-1,1840,1576,13.8763,-2.08167
623,-552,0,0,0,0,0,0,0,0,0,-1,1847,1576,0,0
630,-552,0,0,0,0,0,0,0,0,0,-1,1854,1576,0,0
637,-552,0,0,0,0,0,0,0,0,0,-1,1861,1576,0,0
644,-552,0,0,0,0,0,0,0,0,0,-1,1868,1576,0,0
651,-552,0,0,0,0,0,0,0,0,0,-1,1875,1576,0,0
658,-552,0,0,0,0,0,0,0,0,0,-1,1882,1576,0,0
665,-552,0,0,0,0,0,0,0,0,0,-1,1889,1576,0,0
672,-552,0,0,0,0,0,0,0,0,0,-1,1896,1576,0,0
679,-552,0,0,0,0,0,0,0,0,0,-1,1903,1576,0,0
686,-552,0,0,0,0,0,0,0,0,0,-1,1910,1576,0,0
693,-552,0,0,0,0,0,0,0,0,0,-1,1917,1576,0,0
700,-552,0,0,0,0,0,0,0,0,0,-1,1924,1576,0,0
707,-552,0,0,0,0,0,0,0,0,0,-1,1931,1576,0,0
714,-552,0,0,0,0,0,0,0,0,0,-1,1938,1576,0,0
721,-552,0,0,0,0,0,0,0,0,0,-1,1945,1576,0,0
728,-552,0,0,0,0,0,0,0,0,0,-1,1952,1576,0,0
735,-552,0,0,0,0,0,0,0,0,0,-1,1959,1576,0,0
742,-552,0,0,0,0,0,0,0,0,0,-1,1966,1576,0,0
749,-552,0,0,0,0,0,0,0,0,0,-1,1973,1576,0,0
756,-552,0,0,0,0,0,0,0,0,0,-1,1980,1576,0,0
763,-552,0,0,0,0,0,0,0,0,0,-1,1987,1576,0,0
770,-552,0,0,0,0,0,0,0,0,0,-1,1994,1576,0,0
777,-552,0,0,0,0,0,0,0,0,0,-1,2001,1576,0,0
784,-552,0,0,0,0,0,0,0,0,0,-1,2008,1576,0,0
791,-552,0,0,0,0,0,0,0,0,0,-1,2015,1576,0,0
798,-552,0,0,0,0,0,0,0,0,0,-1,2022,1576,0,0
805,-552,0,0,0,0,0,0,0,0,0,-1,2029,1576,0,0
812,-552,0,0,0,0,0,0,0,0,0,-1,2036,1576,0,0
-700,-559,0,0,0,0,0,0,0,0,0,-1,524,1583,0,0
-693,-559,0,0,0,0,0,0,0,0,0,-1,531,1583,0,0
-686,-559,0,0,0,0,0,0,0,0,0,-1,538,1583,0,0
-679,-559,0,0,0,0,0,0,0,0,0,-1,545,1583,0,0
-672,-559,0,0,0,0,0,0,0,0,0,-1,552,1583,0,0
-665,-559,0,0,0,0,0,0,0,0,0,-1,559,1583,0,0
-658,-559,0,0,0,0,0,0,0,0,0,-1,566,1583,0,0
-651,-559,0,0,0,0,0,0,0,0,0,-1,573,1583,0,0
-644,-559,0,0,0,0,0,0,0,0,0,-1,580,1583,0,0
-637,-559,0,0,0,0,0,0,0,0,0,-1,587,1583,0,0
-630,-559,0,0,0,0,0,0,0,0,0,-1,594,1583,0,0
-623,-559,0,0,0,0,0,0,0,0,0,-1,601,1583,0,0
-616,-559,0,0,0,0,0,0,0,0,0,-1,608,1583,0,0
-609,-559,0,0,0,0,0,0,0,0,0,-1,615,1583,0,0
-602,-559,0,0,0,0,0,0,0,0,0,-1,622,1583,0,0
-595,-559,0,0,0,0,0,0,0,0,0,-1,629,1583,0,0
-588,-559,0,0,0,0,0,0,0,0,0,-1,636,1583,0,0
-581,-559,0,0,0,0,0,0,0,0,0,-1,643,1583,0,0
-574,-559,0,0,0,0,0,0,0,0,0,-1,650,1583,0,0
-567,-559,0,0,0,0,0,0,0,0,0,-1,657,1583,0,0
-560,-559,0,0,0,0,0,0,0,0,0,-1,664,1583,0,0
-553,-559,0,0,0,0,0,0,0,0,0,-1,671,1583,0,0
-546,-559,0,0,0,0,0,0,0,0,0,-1,678,1583,0,0
-539,-559,0,0,0,0,0,0,0,0,0,-1,685,1583,0,0
-532,-559,0,0,0,0,0,0,0,0,0,-1,692,1583,0,0
-525,-559,0,0,0,0,0,0,0,0,0,-1,699,1583,0,0
-518,-559,0,0,0,0,0,0,0,0,0,-1,706,1583,0,0
-511,-559,0,0,0,0,0,0,0,0,0,-1,713,1583,0,0
-504,-559,0,0,0,0,0,0,0,0,0,-1,720,1583,0,0
-497,-559,0,0,0,0,0,0,0,0,0,-1,727,1583,0,0
-490,-559,-5.49835,4.47424,0,0,0,0,0,0,0,-1,734,1583,-5.49833,-4.4743
-483,-559,-5.24078,4.74561,0,0,0,0,0,0,0,-1,741,1583,-5.24079,-4.74563
-476,-559,-4.98022,4.99316,0,0,0,0,0,0,0,-1,748,1583,-4.98024,-4.99321
-469,-559,-4.6424,5.38062,0,0,0,0,0,0,0,-1,755,1583,-4.64237,-5.38058
-462,-559,-0.161865,6.49438,0,0,0,0,0,0,0,-1,762,1583,-0.161835,-6.49444
-455,-559,1.08826,7.02527,0,0,0,0,0,0,0,-1,769,1583,1.08823,-7.02529
-448,-559,-2.86023,20.0852,0,0,0,0,0,0,0,-1,776,1583,-2.86025,-20.0852
-441,-559,-4.58539,35.9545,0,0,0,0,0,0,0,-1,783,1583,-4.58539,-35.9545
-434,-559,-5.80078,38.0879,0,0,0,0,0,0,0,-1,790,1583,-5.80078,-38.0879
-427,-559,-8.86206,45.5948,0,0,0,0,0,0,0,-1,797,1583,-8.86204,-45.5949
-420,-559,-35.1311,118.731,0,0,0,0,0,0,0,-1,804,1583,-35.1311,-118.731
-413,-559,-60.7111,146.042,0,0,0,0,0,0,0,-1,811,1583,-60.7111,-146.042
-406,-559,-61.903,150.447,0.0522379,0.0133071,-0.0520162,0.0883115,-0.0227665,-0.606355,0.0677505,0.0185677,818,1583,-61.903,-150.447
-399,-559,-63.0441,154.826,0.0495396,0.00990476,-0.0527305,0.0860537,-0.0266093,-0.605652,0.0679971,0.0242924,825,1583,-63.0441,-154.826
-392,-559,-64.2129,159.306,0.0467712,0.00725437,-0.0539327,0.0844508,-0.0304253,-0.609814,0.0687251,0.025585,832,1583,-64.2129,-159.306
-385,-559,-65.379,163.827,0.0442262,0.00533055,-0.0553961,0.0834891,-0.0339323,-0.616585,0.0697768,0.0247258,839,1583,-65.379,-163.827
-378,-559,-66.4955,168.361,0.0430339,0.00408035,-0.0572911,0.0840684,-0.0369541,-0.621546,0.0716156,0.0212482,846,1583,-66.4955,-168.361
-371,-559,-67.6092,172.82,0.043789,0.00324321,-0.0591749,0.0860673,-0.0390351,-0.620368,0.0739098,0.0327324,853,1583,-67.6092,-172.82
-364,-559,-68.7407,177.186,0.0455307,0.0028716,-0.0613715,0.0891735,-0.0407712,-0.618154,0.0767389,0.0321574,860,1583,-68.7407,-177.186
-357,-559,-69.9001,181.572,0,0,0,0,0,0,0,-1,867,1583,-69.9001,-181.572
-350,-559,-59.7941,183.534,0,0,0,0,0,0,0,-1,874,1583,-59.7941,-183.534
-343,-559,-56.7291,184.945,0,0,0,0,0,0,0,-1,881,1583,-56.729,-184.945
-336,-559,-56.8704,188.49,0,0,0,0,0,0,0,-1,888,1583,-56.8704,-188.489
-329,-559,-12.5913,70.7823,0,0,0,0,0,0,0,-1,895,1583,-12.5913,-70.7824
-322,-559,-6.67694,51.8236,0,0,0,0,0,0,0,-1,902,1583,-6.67692,-51.8236
-315,-559,-0.659607,29.1698,0,0,0,0,0,0,0,-1,909,1583,-0.659577,-29.1698
-308,-559,-0.755493,30.4624,0,0,0,0,0,0,0,-1,916,1583,-0.755509,-30.4625
-301,-559,-1.22174,31.0372,0,0,0,0,0,0,0,-1,923,1583,-1.22176,-31.0372
-294,-559,0.945129,18.5165,0,0,0,0,0,0,0,-1,930,1583,0.945117,-18.5165
-287,-559,-0.11792,15.4912,0,0,0,0,0,0,0,-1,937,1583,-0.117939,-15.4912
-280,-559,0.191467,13.5093,0,0,0,0,0,0,0,-1,944,1583,0.191441,-13.5093
-273,-559,2.12836,10.3059,0,0,0,0,0,0,0,-1,951,1583,2.12839,-10.3059
-266,-559,-0.597046,6.68933,0,0,0,0,0,0,0,-1,958,1583,-0.597031,-6.68937
-259,-559,-7.00311,8.62756,0,0,0,0,0,0,0,-1,965,1583,-7.00312,-8.6275
-252,-559,-9.4483,2.87805,0,0,0,0,0,0,0,-1,972,1583,-9.44829,-2.87805
-245,-559,-4.80804,7.1803,0,0,0,0,0,0,0,-1,979,1583,-4.80804,-7.18027
-238,-559,-8.45764,2.54858,0,0,0,0,0,0,0,-1,986,1583,-8.45763,-2.54862
-231,-559,-5.86914,4.34021,0,0,0,0,0,0,0,-1,993,1583,-5.86914,-4.34019
-224,-559,-3.30505,6.22864,0,0,0,0,0,0,0,-1,1000,1583,-3.30505,-6.22859
-217,-559,0,0,0,0,0,0,0,0,0,-1,1007,1583,0,0
-210,-559,0,0,0,0,0,0,0,0,0,-1,1014,1583,0,0
-203,-559,0,0,0,0,0,0,0,0,0,-1,1021,1583,0,0
-196,-559,0,0,0,0,0,0,0,0,0,-1,1028,1583,0,0
-189,-559,0,0,0,0,0,0,0,0,0,-1,1035,1583,0,0
-182,-559,0,0,0,0,0,0,0,0,0,-1,1042,1583,0,0
-175,-559,0,0,0,0,0,0,0,0,0,-1,1049,1583,0,0
-168,-559,0,0,0,0,0,0,0,0,0,-1,1056,1583,0,0
-161,-559,0,0,0,0,0,0,0,0,0,-1,1063,1583,0,0
-154,-559,0,0,0,0,0,0,0,0,0,-1,1070,1583,0,0
-147,-559,0,0,0,0,0,0,0,0,0,-1,1077,1583,0,0
-140,-559,0,0,0,0,0,0,0,0,0,-1,1084,1583,0,0
-133,-559,0,0,0,0,0,0,0,0,0,-1,1091,1583,0,0
-126,-559,0,0,0,0,0,0,0,0,0,-1,1098,1583,0,0
-119,-559,0,0,0,0,0,0,0,0,0,-1,1105,1583,0,0
-112,-559,0,0,0,0,0,0,0,0,0,-1,1112,1583,0,0
-105,-559,0,0,0,0,0,0,0,0,0,-1,1119,1583,0,0
-98,-559,0,0,0,0,0,0,0,0,0,-1,1126,1583,0,0
-91,-559,0,0,0,0,0,0,0,0,0,-1,1133,1583,0,0
-84,-559,0,0,0,0,0,0,0,0,0,-1,1140,1583,0,0
-77,-559,0,0,0,0,0,0,0,0,0,-1,1147,1583,0,0
-70,-559,0,0,0,0,0,0,0,0,0,-1,1154,1583,0,0
-63,-559,0,0,0,0,0,0,0,0,0,-1,1161,1583,0,0
-56,-559,0,0,0,0,0,0,0,0,0,-1,1168,1583,0,0
-49,-559,0,0,0,0,0,0,0,0,0,-1,1175,1583,0,0
-42,-559,0,0,0,0,0,0,0,0,0,-1,1182,1583,0,0
-35,-559,0,0,0,0,0,0,0,0,0,-1,1189,1583,0,0
-28,-559,0,0,0,0,0,0,0,0,0,-1,1196,1583,0,0
-21,-559,0,0,0,0,0,0,0,0,0,-1,1203,1583,0,0
-14,-559,0,0,0,0,0,0,0,0,0,-1,1210,1583,0,0
-7,-559,0,0,0,0,0,0,0,0,0,-1,1217,1583,0,0
0,-559,0,0,0,0,0,0,0,0,0,-1,1224,1583,0,0
7,-559,0,0,0,0,0,0,0,0,0,-1,1231,1583,0,0
14,-559,0,0,0,0,0,0,0,0,0,-1,1238,1583,0,0
21,-559,0,0,0,0,0,0,0,0,0,-1,1245,1583,0,0
28,-559,0,0,0,0,0,0,0,0,0,-1,1252,1583,0,0
35,-559,0,0,0,0,0,0,0,0,0,-1,1259,1583,0,0
42,-559,0,0,0,0,0,0,0,0,0,-1,1266,1583,0,0
49,-559,0,0,0,0,0,0,0,0,0,-1,1273,1583,0,0
56,-559,0,0,0,0,0,0,0,0,0,-1,1280,1583,0,0
63,-559,0,0,0,0,0,0,0,0,0,-1,1287,1583,0,0
70,-559,0,0,0,0,0,0,0,0,0,-1,1294,1583,0,0
77,-559,0,0,0,0,0,0,0,0,0,-1,1301,1583,0,0
84,-559,0,0,0,0,0,0,0,0,0,-1,1308,1583,0,0
91,-559,0,0,0,0,0,0,0,0,0,-1,1315,1583,0,0
98,-559,0,0,0,0,0,0,0,0,0,-1,1322,1583,0,0
105,-559,0,0,0,0,0,0,0,0,0,-1,1329,1583,0,0
112,-559,0,0,0,0,0,0,0,0,0,-1,1336,1583,0,0
119,-559,0,0,0,0,0,0,0,0,0,-1,1343,1583,0,0
126,-559,0,0,0,0,0,0,0,0,0,-1,1350,1583,0,0
133,-559,0,0,0,0,0,0,0,0,0,-1,1357,1583,0,0
140,-559,0,0,0,0,0,0,0,0,0,-1,1364,1583,0,0
147,-559,0,0,0,0,0,0,0,0,0,-1,1371,1583,0,0
154,-559,0,0,0,0,0,0,0,0,0,-1,1378,1583,0,0
161,-559,0,0,0,0,0,0,0,0,0,-1,1385,1583,0,0
168,-559,0,0,0,0,0,0,0,0,0,-1,1392,1583,0,0
175,-559,0,0,0,0,0,0,0,0,0,-1,1399,1583,0,0
182,-559,0,0,0,0,0,0,0,0,0,-1,1406,1583,0,0
189,-559,0,0,0,0,0,0,0,0,0,-1,1413,1583,0,0
196,-559,0,0,0,0,0,0,0,0,0,-1,1420,1583,0,0
203,-559,0,0,0,0,0,0,0,0,0,-1,1427,1583,0,0
210,-559,0,0,0,0,0,0,0,0,0,-1,1434,1583,0,0
217,-559,0,0,0,0,0,0,0,0,0,-1,1441,1583,0,0
224,-559,0,0,0,0,0,0,0,0,0,-1,1448,1583,0,0
231,-559,0,0,0,0,0,0,0,0,0,-1,1455,1583,0,0
238,-559,0,0,0,0,0,0,0,0,0,-1,1462,1583,0,0
245,-559,0,0,0,0,0,0,0,0,0,-1,1469,1583,0,0
252,-559,0,0,0,0,0,0,0,0,0,-1,1476,1583,0,0
259,-559,0,0,0,0,0,0,0,0,0,-1,1483,1583,0,0
266,-559,0,0,0,0,0,0,0,0,0,-1,1490,1583,0,0
273,-559,0,0,0,0,0,0,0,0,0,-1,1497,1583,0,0
280,-559,0,0,0,0,0,0,0,0,0,-1,1504,1583,0,0
287,-559,0,0,0,0,0,0,0,0,0,-1,1511,1583,0,0
294,-559,0,0,0,0,0,0,0,0,0,-1,1518,1583,0,0
301,-559,0,0,0,0,0,0,0,0,0,-1,1525,1583,0,0
308,-559,0,0,0,0,0,0,0,0,0,-1,1532,1583,0,0
315,-559,0,0,0,0,0,0,0,0,0,-1,1539,1583,0,0
322,-559,0,0,0,0,0,0,0,0,0,-1,1546,1583,0,0
329,-559,0,0,0,0,0,0,0,0,0,-1,1553,1583,0,0
336,-559,5.97668,3.09827,0,0,0,0,0,0,0,-1,1560,1583,5.97667,-3.09824
343,-559,5.44824,2.88696,0,0,0,0,0,0,0,-1,1567,1583,5.44819,-2.88693
350,-559,4.69775,3.27051,0,0,0,0,0,0,0,-1,1574,1583,4.69771,-3.27048
357,-559,3.88025,3.60999,0,0,0,0,0,0,0,-1,1581,1583,3.88027,-3.60998
364,-559,5.00928,5.32605,0,0,0,0,0,0,0,-1,1588,1583,5.00928,-5.32607
371,-559,21.0801,52.1865,0,0,0,0,0,0,0,-1,1595,1583,21.0801,-52.1865
378,-559,6.34753,1.53137,0,0,0,0,0,0,0,-1,1602,1583,6.34752,-1.53139
385,-559,6.95911,1.48181,0,0,0,0,0,0,0,-1,1609,1583,6.95916,-1.48175
392,-559,11.6949,4.77734,0,0,0,0,0,0,0,-1,1616,1583,11.6949,-4.77731
399,-559,11.1104,5.56909,0,0,0,0,0,0,0,-1,1623,1583,11.1103,-5.56905
406,-559,10.3385,6.48657,0,0,0,0,0,0,0,-1,1630,1583,10.3385,-6.48661
413,-559,9.76147,6.97571,0,0,0,0,0,0,0,-1,1637,1583,9.76143,-6.97574
420,-559,7.77124,10.5851,0,0,0,0,0,0,0,-1,1644,1583,7.77128,-10.585
427,-559,10.1022,12.5565,0,0,0,0,0,0,0,-1,1651,1583,10.1021,-12.5565
434,-559,9.62769,14.6309,0,0,0,0,0,0,0,-1,1658,1583,9.62771,-14.6309
441,-559,12.6149,21.3678,0,0,0,0,0,0,0,-1,1665,1583,12.6149,-21.3678
448,-559,13.7046,22.6677,0,0,0,0,0,0,0,-1,1672,1583,13.7046,-22.6677
455,-559,13.9427,23.0509,0,0,0,0,0,0,0,-1,1679,1583,13.9427,-23.0509
462,-559,21.9476,42.0568,0,0,0,0,0,0,0,-1,1686,1583,21.9477,-42.0568
469,-559,59.7739,192.254,0,0,0,0,0,0,0,-1,1693,1583,59.7739,-192.254
476,-559,84.5145,194.816,0,0,0,0,0,0,0,-1,1700,1583,84.5146,-194.816
483,-559,83.759,190.162,0.0484343,0.00242922,0.0416407,0.0730034,-0.0221399,0.533054,0.057488,0.0411388,1707,1583,83.759,-190.162
490,-559,82.5751,185.789,0.0458912,0.00145859,0.0393073,0.0688261,-0.0214762,0.528181,0.0544728,0.0271179,1714,1583,82.575,-185.789
497,-559,81.3245,181.491,0.0436511,0.000572829,0.0371989,0.0650967,-0.0208728,0.52297,0.0517773,0.0268364,1721,1583,81.3245,-181.491
504,-559,80.0841,177.113,0.041387,-0.000283417,0.0352233,0.061476,-0.0203724,0.518319,0.0492013,0.030985,1728,1583,80.0841,-177.113
511,-559,78.8259,172.616,0.0395722,-0.000934116,0.0333515,0.0583384,-0.0197003,0.512526,0.0468603,0.0266946,1735,1583,78.8259,-172.616
518,-559,77.4376,168.032,0.0378577,-0.0010327,0.0320038,0.0558605,-0.0190356,0.512407,0.0449498,0.0209893,1742,1583,77.4376,-168.032
525,-559,76.1301,163.438,0.0364592,-0.000376027,0.0311117,0.0541961,-0.0181129,0.518146,0.0434457,0.0221704,1749,1583,76.1301,-163.439
532,-559,74.9343,159.002,0.0355281,0.00106644,0.0306529,0.0534612,-0.0168667,0.529345,0.0423965,0.0233583,1756,1583,74.9343,-159.002
539,-559,73.6127,154.599,0.0352374,0.00378578,0.0308607,0.054148,-0.0151248,0.549759,0.0420569,0.0280454,1763,1583,73.6127,-154.599
546,-559,72.2007,150.208,0.0352462,0.00772104,0.0314243,0.0557896,-0.0128223,0.579,0.0421228,0.0284152,1770,1583,72.2007,-150.208
553,-559,70.8132,145.584,0,0,0,0,0,0,0,-1,1777,1583,70.8132,-145.584
560,-559,35.3595,88.3951,0,0,0,0,0,0,0,-1,1784,1583,35.3595,-88.3951
567,-559,21.7423,29.5544,0,0,0,0,0,0,0,-1,1791,1583,21.7423,-29.5544
574,-559,10.5109,10.7317,0,0,0,0,0,0,0,-1,1798,1583,10.5108,-10.7317
581,-559,5.97095,5.96179,0,0,0,0,0,0,0,-1,1805,1583,5.97093,-5.96181
588,-559,5.79102,5.89954,0,0,0,0,0,0,0,-1,1812,1583,5.79098,-5.89949
595,-559,5.79089,6.24231,0,0,0,0,0,0,0,-1,1819,1583,5.7909,-6.24227
602,-559,12.478,2.35669,0,0,0,0,0,0,0,-1,1826,1583,12.4781,-2.35675
609,-559,14.0479,1.22681,0,0,0,0,0,0,0,-1,1833,1583,14.0479,-1.22681
616,-559,0,0,0,0,0,0,0,0,0,-1,1840,1583,0,0
623,-559,0,0,0,0,0,0,0,0,0,-1,1847,1583,0,0
630,-559,0,0,0,0,0,0,0,0,0,-1,1854,1583,0,0
637,-559,0,0,0,0,0,0,0,0,0,-1,1861,1583,0,0
644,-559,0,0,0,0,0,0,0,0,0,-1,1868,1583,0,0
651,-559,0,0,0,0,0,0,0,0,0,-1,1875,1583,0,0
658,-559,0,0,0,0,0,0,0,0,0,-1,1882,1583,0,0
665,-559,0,0,0,0,0,0,0,0,0,-1,1889,1583,0,0
672,-559,0,0,0,0,0,0,0,0,0,-1,1896,1583,0,0
679,-559,0,0,0,0,0,0,0,0,0,-1,1903,1583,0,0
686,-559,0,0,0,0,0,0,0,0,0,-1,1910,1583,0,0
693,-559,0,0,0,0,0,0,0,0,0,-1,1917,1583,0,0
700,-559,0,0,0,0,0,0,0,0,0,-1,1924,1583,0,0
707,-559,0,0,0,0,0,0,0,0,0,-1,1931,1583,0,0
714,-559,0,0,0,0,0,0,0,0,0,-1,1938,1583,0,0
721,-559,0,0,0,0,0,0,0,0,0,-1,1945,1583,0,0
728,-559,0,0,0,0,0,0,0,0,0,-1,1952,1583,0,0
735,-559,0,0,0,0,0,0,0,0,0,-1,1959,1583,0,0
742,-559,0,0,0,0,0,0,0,0,0,-1,1966,1583,0,0
749,-559,0,0,0,0,0,0,0,0,0,-1,1973,1583,0,0
756,-559,0,0,0,0,0,0,0,0,0,-1,1980,1583,0,0
763,-559,0,0,0,0,0,0,0,0,0,-1,1987,1583,0,0
770,-559,0,0,0,0,0,0,0,0,0,-1,1994,1583,0,0
777,-559,0,0,0,0,0,0,0,0,0,-1,2001,1583,0,0
784,-559,0,0,0,0,0,0,0,0,0,-1,2008,1583,0,0
791,-559,0,0,0,0,0,0,0,0,0,-1,2015,1583,0,0
798,-559,0,0,0,0,0,0,0,0,0,-1,2022,1583,0,0
805,-559,0,0,0,0,0,0,0,0,0,-1,2029,1583,0,0
812,-559,0,0,0,0,0,0,0,0,0,-1,2036,1583,0,0
-700,-566,0,0,0,0,0,0,0,0,0,-1,524,1590,0,0
-693,-566,0,0,0,0,0,0,0,0,0,-1,531,1590,0,0
-686,-566,0,0,0,0,0,0,0,0,0,-1,538,1590,0,0
-679,-566,0,0,0,0,0,0,0,0,0,-1,545,1590,0,0
-672,-566,0,0,0,0,0,0,0,0,0,-1,552,1590,0,0
-665,-566,0,0,0,0,0,0,0,0,0,-1,559,1590,0,0
-658,-566,0,0,0,0,0,0,0,0,0,-1,566,1590,0,0
-651,-566,0,0,0,0,0,0,0,0,0,-1,573,1590,0,0
-644,-566,0,0,0,0,0,0,0,0,0,-1,580,1590,0,0
-637,-566,0,0,0,0,0,0,0,0,0,-1,587,1590,0,0
-630,-566,0,0,0,0,0,0,0,0,0,-1,594,1590,0,0
-623,-566,0,0,0,0,0,0,0,0,0,-1,601,1590,0,0
-616,-566,0,0,0,0,0,0,0,0,0,-1,608,1590,0,0
-609,-566,0,0,0,0,0,0,0,0,0,-1,615,1590,0,0
-602,-566,0,0,0,0,0,0,0,0,0,-1,622,1590,0,0
-595,-566,0,0,0,0,0,0,0,0,0,-1,629,1590,0,0
-588,-566,0,0,0,0,0,0,0,0,0,-1,636,1590,0,0
-581,-566,0,0,0,0,0,0,0,0,0,-1,643,1590,0,0
-574,-566,0,0,0,0,0,0,0,0,0,-1,650,1590,0,0
-567,-566,0,0,0,0,0,0,0,0,0,-1,657,1590,0,0
-560,-566,0,0,0,0,0,0,0,0,0,-1,664,1590,0,0
-553,-566,0,0,0,0,0,0,0,0,0,-1,671,1590,0,0
-546,-566,0,0,0,0,0,0,0,0,0,-1,678,1590,0,0
-539,-566,0,0,0,0,0,0,0,0,0,-1,685,1590,0,0
-532,-566,0,0,0,0,0,0,0,0,0,-1,692,1590,0,0
-525,-566,0,0,0,0,0,0,0,0,0,-1,699,1590,0,0
-518,-566,0,0,0,0,0,0,0,0,0,-1,706,1590,0,0
-511,-566,0,0,0,0,0,0,0,0,0,-1,713,1590,0,0
-504,-566,0,0,0,0,0,0,0,0,0,-1,720,1590,0,0
-497,-566,0,0,0,0,0,0,0,0,0,-1,727,1590,0,0
-490,-566,0,0,0,0,0,0,0,0,0,-1,734,1590,0,0
-483,-566,-7.17084,2.78613,0,0,0,0,0,0,0,-1,741,1590,-7.17083,-2.78618
-476,-566,-7.13971,2.87183,0,0,0,0,0,0,0,-1,748,1590,-7.13971,-2.87184
-469,-566,-6.43829,3.2998,0,0,0,0,0,0,0,-1,755,1590,-6.43829,-3.2998
-462,-566,-0.459106,3.89343,0,0,0,0,0,0,0,-1,762,1590,-0.459095,-3.89341
-455,-566,0.280212,4.74023,0,0,0,0,0,0,0,-1,769,1590,0.280207,-4.74023
-448,-566,0.436951,5.51306,0,0,0,0,0,0,0,-1,776,1590,0.436971,-5.51301
-441,-566,-0.440735,12.4063,0,0,0,0,0,0,0,-1,783,1590,-0.440753,-12.4062
-434,-566,-4.50739,36.9485,0,0,0,0,0,0,0,-1,790,1590,-4.50737,-36.9485
-427,-566,-5.04791,38.1658,0,0,0,0,0,0,0,-1,797,1590,-5.04793,-38.1658
-420,-566,-7.9455,47.2288,0,0,0,0,0,0,0,-1,804,1590,-7.94552,-47.2288
-413,-566,-33.1661,122.841,0,0,0,0,0,0,0,-1,811,1590,-33.1661,-122.841
-406,-566,-56.9514,152.243,0,0,0,0,0,0,0,-1,818,1590,-56.9514,-152.243
-399,-566,-58.2621,156.712,0.0540813,0.0104763,-0.0487149,0.0856501,-0.0210925,-0.574989,0.0652768,0.0203354,825,1590,-58.2621,-156.712
-392,-566,-59.5011,161.224,0.0508822,0.00757572,-0.0501033,0.0838111,-0.0253531,-0.581433,0.0659695,0.0231516,832,1590,-59.5011,-161.224
-385,-566,-60.5801,165.761,0.0479868,0.00552428,-0.0517035,0.0826485,-0.0291374,-0.590578,0.0669591,0.0249312,839,1590,-60.5801,-165.761
-378,-566,-61.7012,170.308,0.0464057,0.00418183,-0.0536314,0.0829309,-0.0323434,-0.597889,0.0686566,0.022243,846,1590,-61.7012,-170.308
-371,-566,-62.8127,174.684,0.046745,0.00354382,-0.0556385,0.0848288,-0.03454,-0.600239,0.070927,0.0276735,853,1590,-62.8127,-174.684
-364,-566,-63.9183,179.105,0.0483391,0.00327972,-0.0577506,0.0877991,-0.0361803,-0.599418,0.0736185,0.0287765,860,1590,-63.9183,-179.105
-357,-566,-65.1531,183.399,0.0513957,0.00330054,-0.0599631,0.0919535,-0.0372573,-0.594697,0.0767955,0.0360751,867,1590,-65.1531,-183.399
-350,-566,-66.1936,187.678,0,0,0,0,0,0,0,-1,874,1590,-66.1936,-187.678
-343,-566,-67.2799,192.125,0,0,0,0,0,0,0,-1,881,1590,-67.2799,-192.125
-336,-566,-52.5401,191.728,0,0,0,0,0,0,0,-1,888,1590,-52.5401,-191.728
-329,-566,-52.4686,193.77,0,0,0,0,0,0,0,-1,895,1590,-52.4686,-193.77
-322,-566,-50.5175,191.926,0,0,0,0,0,0,0,-1,902,1590,-50.5175,-191.926
-315,-566,-5.8877,52.3676,0,0,0,0,0,0,0,-1,909,1590,-5.88771,-52.3675
-308,-566,-0.127258,29.7607,0,0,0,0,0,0,0,-1,916,1590,-0.12725,-29.7608
-301,-566,0.424011,30.6545,0,0,0,0,0,0,0,-1,923,1590,0.424036,-30.6546
-294,-566,-2.54523,43.1459,0,0,0,0,0,0,0,-1,930,1590,-2.54522,-43.1458
-287,-566,1.25391,23.4589,0,0,0,0,0,0,0,-1,937,1590,1.2539,-23.4589
-280,-566,1.59406,17.8762,0,0,0,0,0,0,0,-1,944,1590,1.59405,-17.8762
-273,-566,0.49762,11.2427,0,0,0,0,0,0,0,-1,951,1590,0.497591,-11.2426
-266,-566,0.392151,6.90295,0,0,0,0,0,0,0,-1,958,1590,0.392151,-6.90294
-259,-566,0.343628,6.47437,0,0,0,0,0,0,0,-1,965,1590,0.34363,-6.47438
-252,-566,-7.68311,1.01343,0,0,0,0,0,0,0,-1,972,1590,-7.68308,-1.01348
-245,-566,-11.1835,1.97522,0,0,0,0,0,0,0,-1,979,1590,-11.1835,-1.97527
-238,-566,-10.4883,2.40491,0,0,0,0,0,0,0,-1,986,1590,-10.4883,-2.40487
-231,-566,-7.41827,4.22803,0,0,0,0,0,0,0,-1,993,1590,-7.41827,-4.22803
-224,-566,-4.67188,6.30859,0,0,0,0,0,0,0,-1,1000,1590,-4.67185,-6.30853
-217,-566,-2.82867,7.52527,0,0,0,0,0,0,0,-1,1007,1590,-2.82869,-7.52531
-210,-566,-1.03436,8.67737,0,0,0,0,0,0,0,-1,1014,1590,-1.03439,-8.67733
-203,-566,0,0,0,0,0,0,0,0,0,-1,1021,1590,0,0
-196,-566,0,0,0,0,0,0,0,0,0,-1,1028,1590,0,0
-189,-566,0,0,0,0,0,0,0,0,0,-1,1035,1590,0,0
-182,-566,0,0,0,0,0,0,0,0,0,-1,1042,1590,0,0
-175,-566,0,0,0,0,0,0,0,0,0,-1,1049,1590,0,0
-168,-566,0,0,0,0,0,0,0,0,0,-1,1056,1590,0,0
-161,-566,0,0,0,0,0,0,0,0,0,-1,1063,1590,0,0
-154,-566,0,0,0,0,0,0,0,0,0,-1,1070,1590,0,0
-147,-566,0,0,0,0,0,0,0,0,0,-1,1077,1590,0,0
-140,-566,0,0,0,0,0,0,0,0,0,-1,1084,1590,0,0
-133,-566,0,0,0,0,0,0,0,0,0,-1,1091,1590,0,0
-126,-566,0,0,0,0,0,0,0,0,0,-1,1098,1590,0,0
-119,-566,0,0,0,0,0,0,0,0,0,-1,1105,1590,0,0
-112,-566,0,0,0,0,0,0,0,0,0,-1,1112,1590,0,0
-105,-566,0,0,0,0,0,0,0,0,0,-1,1119,1590,0,0
-98,-566,0,0,0,0,0,0,0,0,0,-1,1126,1590,0,0
-91,-566,0,0,0,0,0,0,0,0,0,-1,1133,1590,0,0
-84,-566,0,0,0,0,0,0,0,0,0,-1,1140,1590,0,0
-77,-566,0,0,0,0,0,0,0,0,0,-1,1147,1590,0,0
-70,-566,0,0,0,0,0,0,0,0,0,-1,1154,1590,0,0
-63,-566,0,0,0,0,0,0,0,0,0,-1,1161,1590,0,0
-56,-566,0,0,0,0,0,0,0,0,0,-1,1168,1590,0,0
-49,-566,0,0,0,0,0,0,0,0,0,-1,1175,1590,0,0
-42,-566,0,0,0,0,0,0,0,0,0,-1,1182,1590,0,0
-35,-566,0,0,0,0,0,0,0,0,0,-1,1189,1590,0,0
-28,-566,0,0,0,0,0,0,0,0,0,-1,1196,1590,0,0
-21,-566,0,0,0,0,0,0,0,0,0,-1,1203,1590,0,0
-14,-566,0,0,0,0,0,0,0,0,0,-1,1210,1590,0,0
-7,-566,0,0,0,0,0,0,0,0,0,-1,1217,1590,0,0
0,-566,0,0,0,0,0,0,0,0,0,-1,1224,1590,0,0
7,-566,0,0,0,0,0,0,0,0,0,-1,1231,1590,0,0
14,-566,0,0,0,0,0,0,0,0,0,-1,1238,1590,0,0
21,-566,0,0,0,0,0,0,0,0,0,-1,1245,1590,0,0
28,-566,0,0,0,0,0,0,0,0,0,-1,1252,1590,0,0
35,-566,0,0,0,0,0,0,0,0,0,-1,1259,1590,0,0
42,-566,0,0,0,0,0,0,0,0,0,-1,1266,1590,0,0
49,-566,0,0,0,0,0,0,0,0,0,-1,1273,1590,0,0
56,-566,0,0,0,0,0,0,0,0,0,-1,1280,1590,0,0
63,-566,0,0,0,0,0,0,0,0,0,-1,1287,1590,0,0
70,-566,0,0,0,0,0,0,0,0,0,-1,1294,1590,0,0
77,-566,0,0,0,0,0,0,0,0,0,-1,1301,1590,0,0
84,-566,0,0,0,0,0,0,0,0,0,-1,1308,1590,0,0
91,-566,0,0,0,0,0,0,0,0,0,-1,1315,1590,0,0
98,-566,0,0,0,0,0,0,0,0,0,-1,1322,1590,0,0
105,-566,0,0,0,0,0,0,0,0,0,-1,1329,1590,0,0
112,-566,0,0,0,0,0,0,0,0,0,-1,1336,1590,0,0
119,-566,0,0,0,0,0,0,0,0,0,-1,1343,1590,0,0
126,-566,0,0,0,0,0,0,0,0,0,-1,1350,1590,0,0
133,-566,0,0,0,0,0,0,0,0,0,-1,1357,1590,0,0
140,-566,0,0,0,0,0,0,0,0,0,-1,1364,1590,0,0
147,-566,0,0,0,0,0,0,0,0,0,-1,1371,1590,0,0
154,-566,0,0,0,0,0,0,0,0,0,-1,1378,1590,0,0
161,-566,0,0,0,0,0,0,0,0,0,-1,1385,1590,0,0
168,-566,0,0,0,0,0,0,0,0,0,-1,1392,1590,0,0
175,-566,0,0,0,0,0,0,0,0,0,-1,1399,1590,0,0
182,-566,0,0,0,0,0,0,0,0,0,-1,1406,1590,0,0
189,-566,0,0,0,0,0,0,0,0,0,-1,1413,1590,0,0
196,-566,0,0,0,0,0,0,0,0,0,-1,1420,1590,0,0
203,-566,0,0,0,0,0,0,0,0,0,-1,1427,1590,0,0
210,-566,0,0,0,0,0,0,0,0,0,-1,1434,1590,0,0
217,-566,0,0,0,0,0,0,0,0,0,-1,1441,1590,0,0
224,-566,0,0,0,0,0,0,0,0,0,-1,1448,1590,0,0
231,-566,0,0,0,0,0,0,0,0,0,-1,1455,1590,0,0
238,-566,0,0,0,0,0,0,0,0,0,-1,1462,1590,0,0
245,-566,0,0,0,0,0,0,0,0,0,-1,1469,1590,0,0
252,-566,0,0,0,0,0,0,0,0,0,-1,1476,1590,0,0
259,-566,0,0,0,0,0,0,0,0,0,-1,1483,1590,0,0
266,-566,0,0,0,0,0,0,0,0,0,-1,1490,1590,0,0
273,-566,0,0,0,0,0,0,0,0,0,-1,1497,1590,0,0
280,-566,0,0,0,0,0,0,0,0,0,-1,1504,1590,0,0
287,-566,0,0,0,0,0,0,0,0,0,-1,1511,1590,0,0
294,-566,0,0,0,0,0,0,0,0,0,-1,1518,1590,0,0
301,-566,0,0,0,0,0,0,0,0,0,-1,1525,1590,0,0
308,-566,0,0,0,0,0,0,0,0,0,-1,1532,1590,0,0
315,-566,0,0,0,0,0,0,0,0,0,-1,1539,1590,0,0
322,-566,6.07983,4.44873,0,0,0,0,0,0,0,-1,1546,1590,6.07983,-4.44873
329,-566,5.77026,3.47534,0,0,0,0,0,0,0,-1,1553,1590,5.77026,-3.47535
336,-566,5.41138,2.62915,0,0,0,0,0,0,0,-1,1560,1590,5.41138,-2.62909
343,-566,4.81873,1.79089,0,0,0,0,0,0,0,-1,1567,1590,4.81878,-1.79095
350,-566,24.2104,52.894,0,0,0,0,0,0,0,-1,1574,1590,24.2105,-52.8941
357,-566,25.1531,51.6272,0,0,0,0,0,0,0,-1,1581,1590,25.153,-51.6272
364,-566,24.3885,51.1313,0,0,0,0,0,0,0,-1,1588,1590,24.3886,-51.1314
371,-566,21.1536,52.8204,0,0,0,0,0,0,0,-1,1595,1590,21.1535,-52.8205
378,-566,22.0442,54.6259,0,0,0,0,0,0,0,-1,1602,1590,22.0442,-54.6259
385,-566,5.67615,-0.573975,0,0,0,0,0,0,0,-1,1609,1590,5.67612,0.573956
392,-566,5.78638,1.82434,0,0,0,0,0,0,0,-1,1616,1590,5.78637,-1.82439
399,-566,18.6853,38.6455,0,0,0,0,0,0,0,-1,1623,1590,18.6853,-38.6456
406,-566,4.30359,5.26868,0,0,0,0,0,0,0,-1,1630,1590,4.30364,-5.26867
413,-566,4.27124,5.79492,0,0,0,0,0,0,0,-1,1637,1590,4.27123,-5.7949
420,-566,18.0121,32.5314,0,0,0,0,0,0,0,-1,1644,1590,18.0121,-32.5313
427,-566,19.4491,36.9315,0,0,0,0,0,0,0,-1,1651,1590,19.4491,-36.9315
434,-566,19.338,36.7385,0,0,0,0,0,0,0,-1,1658,1590,19.338,-36.7386
441,-566,15.5841,27.5869,0,0,0,0,0,0,0,-1,1665,1590,15.5842,-27.587
448,-566,21.8796,45.052,0,0,0,0,0,0,0,-1,1672,1590,21.8797,-45.052
455,-566,24.4391,53.7858,0,0,0,0,0,0,0,-1,1679,1590,24.4391,-53.7858
462,-566,68.9885,203.06,0,0,0,0,0,0,0,-1,1686,1590,68.9886,-203.06
469,-566,80.6459,200.437,0,0,0,0,0,0,0,-1,1693,1590,80.6459,-200.437
476,-566,79.8907,196.349,0.0488642,0.00346468,0.0416708,0.0736169,-0.021288,0.536,0.0575028,0.0246186,1700,1590,79.8908,-196.349
483,-566,78.9794,191.921,0.0460312,0.00254028,0.0389233,0.0688715,-0.0203001,0.530659,0.053969,0.0187745,1707,1590,78.9794,-191.921
490,-566,77.9026,187.503,0.0435234,0.00168926,0.0364449,0.0646272,-0.0194145,0.52488,0.0508082,0.0205035,1714,1590,77.9026,-187.503
497,-566,76.746,183.159,0.0412394,0.000909749,0.0342299,0.0608025,-0.0186533,0.519215,0.0479771,0.0235729,1721,1590,76.7459,-183.159
504,-566,75.499,178.841,0.039257,0.000240204,0.0321757,0.0573764,-0.0178792,0.512875,0.0453998,0.0275788,1728,1590,75.4991,-178.841
511,-566,74.2013,174.389,0.0376099,-0.000388165,0.0302652,0.0543452,-0.0171235,0.50511,0.0430875,0.0249642,1735,1590,74.2013,-174.389
518,-566,72.925,169.858,0.0360845,-0.000437,0.0288367,0.051956,-0.0163085,0.503144,0.0411648,0.0170098,1742,1590,72.925,-169.858
525,-566,71.6091,165.355,0.0348523,0.00020051,0.0278758,0.0503479,-0.015295,0.507345,0.0396592,0.0181591,1749,1590,71.6091,-165.355
532,-566,70.3367,160.832,0.034337,0.00165659,0.0273017,0.0498147,-0.0138212,0.515739,0.0386496,0.0242565,1756,1590,70.3367,-160.832
539,-566,69.0306,156.198,0.0344103,0.00458369,0.0275003,0.0507807,-0.0117867,0.536943,0.0383907,0.043875,1763,1590,69.0306,-156.198
546,-566,67.5381,151.565,0,0,0,0,0,0,0,-1,1770,1590,67.5381,-151.565
553,-566,31.3649,70.2271,0,0,0,0,0,0,0,-1,1777,1590,31.3648,-70.2271
560,-566,28.2495,53.7024,0,0,0,0,0,0,0,-1,1784,1590,28.2495,-53.7024
567,-566,22.297,34.7642,0,0,0,0,0,0,0,-1,1791,1590,22.2969,-34.7641
574,-566,7.99548,3.14514,0,0,0,0,0,0,0,-1,1798,1590,7.99543,-3.14511
581,-566,2.54102,5.1311,0,0,0,0,0,0,0,-1,1805,1590,2.54099,-5.13111
588,-566,-1.91321,8.39197,0,0,0,0,0,0,0,-1,1812,1590,-1.91316,-8.39199
595,-566,9.0271,4.66467,0,0,0,0,0,0,0,-1,1819,1590,9.02705,-4.66468
602,-566,9.953,3.54895,0,0,0,0,0,0,0,-1,1826,1590,9.953,-3.54898
609,-566,0,0,0,0,0,0,0,0,0,-1,1833,1590,0,0
616,-566,0,0,0,0,0,0,0,0,0,-1,1840,1590,0,0
623,-566,0,0,0,0,0,0,0,0,0,-1,1847,1590,0,0
630,-566,0,0,0,0,0,0,0,0,0,-1,1854,1590,0,0
637,-566,0,0,0,0,0,0,0,0,0,-1,1861,1590,0,0
644,-566,0,0,0,0,0,0,0,0,0,-1,1868,1590,0,0
651,-566,0,0,0,0,0,0,0,0,0,-1,1875,1590,0,0
658,-566,0,0,0,0,0,0,0,0,0,-1,1882,1590,0,0
665,-566,0,0,0,0,0,0,0,0,0,-1,1889,1590,0,0
672,-566,0,0,0,0,0,0,0,0,0,-1,1896,1590,0,0
679,-566,0,0,0,0,0,0,0,0,0,-1,1903,1590,0,0
686,-566,0,0,0,0,0,0,0,0,0,-1,1910,1590,0,0
693,-566,0,0,0,0,0,0,0,0,0,-1,1917,1590,0,0
700,-566,0,0,0,0,0,0,0,0,0,-1,1924,1590,0,0
707,-566,0,0,0,0,0,0,0,0,0,-1,1931,1590,0,0
714,-566,0,0,0,0,0,0,0,0,0,-1,1938,1590,0,0
721,-566,0,0,0,0,0,0,0,0,0,-1,1945,1590,0,0
728,-566,0,0,0,0,0,0,0,0,0,-1,1952,1590,0,0
735,-566,0,0,0,0,0,0,0,0,0,-1,1959,1590,0,0
742,-566,0,0,0,0,0,0,0,0,0,-1,1966,1590,0,0
749,-566,0,0,0,0,0,0,0,0,0,-1,1973,1590,0,0
756,-566,0,0,0,0,0,0,0,0,0,-1,1980,1590,0,0
763,-566,0,0,0,0,0,0,0,0,0,-1,1987,1590,0,0
770,-566,0,0,0,0,0,0,0,0,0,-1,1994,1590,0,0
777,-566,0,0,0,0,0,0,0,0,0,-1,2001,1590,0,0
784,-566,0,0,0,0,0,0,0,0,0,-1,2008,1590,0,0
791,-566,0,0,0,0,0,0,0,0,0,-1,2015,1590,0,0
798,-566,0,0,0,0,0,0,0,0,0,-1,2022,1590,0,0
805,-566,0,0,0,0,0,0,0,0,0,-1,2029,1590,0,0
812,-566,0,0,0,0,0,0,0,0,0,-1,2036,1590,0,0
-700,-573,0,0,0,0,0,0,0,0,0,-1,524,1597,0,0
-693,-573,0,0,0,0,0,0,0,0,0,-1,531,1597,0,0
-686,-573,0,0,0,0,0,0,0,0,0,-1,538,1597,0,0
-679,-573,0,0,0,0,0,0,0,0,0,-1,545,1597,0,0
-672,-573,0,0,0,0,0,0,0,0,0,-1,552,1597,0,0
-665,-573,0,0,0,0,0,0,0,0,0,-1,559,1597,0,0
-658,-573,0,0,0,0,0,0,0,0,0,-1,566,1597,0,0
-651,-573,0,0,0,0,0,0,0,0,0,-1,573,1597,0,0
-644,-573,0,0,0,0,0,0,0,0,0,-1,580,1597,0,0
-637,-573,0,0,0,0,0,0,0,0,0,-1,587,1597,0,0
-630,-573,0,0,0,0,0,0,0,0,0,-1,594,1597,0,0
-623,-573,0,0,0,0,0,0,0,0,0,-1,601,1597,0,0
-616,-573,0,0,0,0,0,0,0,0,0,-1,608,1597,0,0
-609,-573,0,0,0,0,0,0,0,0,0,-1,615,1597,0,0
-602,-573,0,0,0,0,0,0,0,0,0,-1,622,1597,0,0
-595,-573,0,0,0,0,0,0,0,0,0,-1,629,1597,0,0
-588,-573,0,0,0,0,0,0,0,0,0,-1,636,1597,0,0
-581,-573,0,0,0,0,0,0,0,0,0,-1,643,1597,0,0
-574,-573,0,0,0,0,0,0,0,0,0,-1,650,1597,0,0
-567,-573,0,0,0,0,0,0,0,0,0,-1,657,1597,0,0
-560,-573,0,0,0,0,0,0,0,0,0,-1,664,1597,0,0
-553,-573,0,0,0,0,0,0,0,0,0,-1,671,1597,0,0
-546,-573,0,0,0,0,0,0,0,0,0,-1,678,1597,0,0
-539,-573,0,0,0,0,0,0,0,0,0,-1,685,1597,0,0
-532,-573,0,0,0,0,0,0,0,0,0,-1,692,1597,0,0
-525,-573,0,0,0,0,0,0,0,0,0,-1,699,1597,0,0
-518,-573,0,0,0,0,0,0,0,0,0,-1,706,1597,0,0
-511,-573,0,0,0,0,0,0,0,0,0,-1,713,1597,0,0
-504,-573,0,0,0,0,0,0,0,0,0,-1,720,1597,0,0
-497,-573,0,0,0,0,0,0,0,0,0,-1,727,1597,0,0
-490,-573,0,0,0,0,0,0,0,0,0,-1,734,1597,0,0
-483,-573,0,0,0,0,0,0,0,0,0,-1,741,1597,0,0
-476,-573,-9.3327,0.972778,0,0,0,0,0,0,0,-1,748,1597,-9.33268,-0.972776
-469,-573,-1.41681,1.13379,0,0,0,0,0,0,0,-1,755,1597,-1.41681,-1.13382
-462,-573,-0.748535,2.02588,0,0,0,0,0,0,0,-1,762,1597,-0.748533,-2.02584
-455,-573,-0.112976,2.70703,0,0,0,0,0,0,0,-1,769,1597,-0.112988,-2.70697
-448,-573,-1.26172,3.33252,0,0,0,0,0,0,0,-1,776,1597,-1.26173,-3.33248
-441,-573,0.108582,5.06726,0,0,0,0,0,0,0,-1,783,1597,0.108584,-5.06721
-434,-573,1.61768,7.05444,0,0,0,0,0,0,0,-1,790,1597,1.61767,-7.05446
-427,-573,-1.37927,24.4124,0,0,0,0,0,0,0,-1,797,1597,-1.37928,-24.4124
-420,-573,-1.15186,28.0936,0,0,0,0,0,0,0,-1,804,1597,-1.15185,-28.0936
-413,-573,-6.24719,44.6611,0,0,0,0,0,0,0,-1,811,1597,-6.24719,-44.6612
-406,-573,-31.0344,126.064,0,0,0,0,0,0,0,-1,818,1597,-31.0344,-126.064
-399,-573,-53.622,158.526,0,0,0,0,0,0,0,-1,825,1597,-53.622,-158.526
-392,-573,-54.6268,163.053,0.0540568,0.0077909,-0.0458617,0.0822894,-0.0204418,-0.551815,0.0627926,0.023859,832,1597,-54.6268,-163.053
-385,-573,-55.6928,167.616,0.050879,0.00563807,-0.0476005,0.0809604,-0.0244433,-0.563586,0.0637042,0.0245091,839,1597,-55.6928,-167.616
-378,-573,-56.9569,172.146,0.0487209,0.00425764,-0.0495637,0.0808106,-0.027832,-0.574575,0.0651633,0.0251934,846,1597,-56.9569,-172.146
-371,-573,-58.1352,176.542,0.0483046,0.00378548,-0.0517386,0.0823689,-0.0302788,-0.582252,0.0673151,0.02475,853,1597,-58.1352,-176.542
-364,-573,-59.2659,180.823,0.0494914,0.00351742,-0.05389,0.0850922,-0.0320834,-0.583805,0.0699208,0.0246895,860,1597,-59.2659,-180.823
-357,-573,-60.3652,185.22,0.0521326,0.00356544,-0.0561493,0.0890245,-0.0333264,-0.581302,0.0730384,0.0313504,867,1597,-60.3652,-185.22
-350,-573,-61.3481,189.587,0.055818,0.00407687,-0.0584773,0.0938919,-0.0339969,-0.577139,0.0764882,0.0291863,874,1597,-61.3481,-189.587
-343,-573,-62.4176,193.845,0.0609836,0.00439673,-0.0604745,0.0994561,-0.0340758,-0.566596,0.0801158,0.0377147,881,1597,-62.4176,-193.845
-336,-573,-63.4904,198.203,0,0,0,0,0,0,0,-1,888,1597,-63.4904,-198.203
-329,-573,-63.7214,202.392,0,0,0,0,0,0,0,-1,895,1597,-63.7214,-202.392
-322,-573,-63.7777,206.561,0,0,0,0,0,0,0,-1,902,1597,-63.7777,-206.561
-315,-573,-47.4592,197.085,0,0,0,0,0,0,0,-1,909,1597,-47.4593,-197.085
-308,-573,-5.80212,56.1248,0,0,0,0,0,0,0,-1,916,1597,-5.80211,-56.1248
-301,-573,-5.52454,56.47,0,0,0,0,0,0,0,-1,923,1597,-5.52453,-56.47
-294,-573,-3.89948,50.4868,0,0,0,0,0,0,0,-1,930,1597,-3.89947,-50.4868
-287,-573,-2.00739,43.4723,0,0,0,0,0,0,0,-1,937,1597,-2.00739,-43.4723
-280,-573,1.19684,26.4906,0,0,0,0,0,0,0,-1,944,1597,1.19685,-26.4906
-273,-573,2.24805,25.4375,0,0,0,0,0,0,0,-1,951,1597,2.24803,-25.4374
-266,-573,1.31116,7.1814,0,0,0,0,0,0,0,-1,958,1597,1.31118,-7.18142
-259,-573,1.2514,6.70959,0,0,0,0,0,0,0,-1,965,1597,1.25137,-6.70965
-252,-573,2.07874,5.27161,0,0,0,0,0,0,0,-1,972,1597,2.07875,-5.27157
-245,-573,-10.2592,1.09827,0,0,0,0,0,0,0,-1,979,1597,-10.2592,-1.09823
-238,-573,-11.5463,4.44141,0,0,0,0,0,0,0,-1,986,1597,-11.5463,-4.44146
-231,-573,-9.23431,4.14539,0,0,0,0,0,0,0,-1,993,1597,-9.23431,-4.14534
-224,-573,-6.70044,7.40857,0,0,0,0,0,0,0,-1,1000,1597,-6.70045,-7.40851
-217,-573,-4.25824,8.59119,0,0,0,0,0,0,0,-1,1007,1597,-4.25824,-8.59122
-210,-573,-2.39661,9.73914,0,0,0,0,0,0,0,-1,1014,1597,-2.39658,-9.73915
-203,-573,-0.557373,10.9005,0,0,0,0,0,0,0,-1,1021,1597,-0.557387,-10.9006
-196,-573,-1.65344,9.02246,0,0,0,0,0,0,0,-1,1028,1597,-1.65349,-9.02241
-189,-573,-6.12915,6.66882,0,0,0,0,0,0,0,-1,1035,1597,-6.12913,-6.66884
-182,-573,0,0,0,0,0,0,0,0,0,-1,1042,1597,0,0
-175,-573,0,0,0,0,0,0,0,0,0,-1,1049,1597,0,0
-168,-573,0,0,0,0,0,0,0,0,0,-1,1056,1597,0,0
-161,-573,0,0,0,0,0,0,0,0,0,-1,1063,1597,0,0
-154,-573,0,0,0,0,0,0,0,0,0,-1,1070,1597,0,0
-147,-573,0,0,0,0,0,0,0,0,0,-1,1077,1597,0,0
-140,-573,0,0,0,0,0,0,0,0,0,-1,1084,1597,0,0
-133,-573,0,0,0,0,0,0,0,0,0,-1,1091,1597,0,0
-126,-573,0,0,0,0,0,0,0,0,0,-1,1098,1597,0,0
-119,-573,0,0,0,0,0,0,0,0,0,-1,1105,1597,0,0
-112,-573,0,0,0,0,0,0,0,0,0,-1,1112,1597,0,0
-105,-573,0,0,0,0,0,0,0,0,0,-1,1119,1597,0,0
-98,-573,0,0,0,0,0,0,0,0,0,-1,1126,1597,0,0
-91,-573,0,0,0,0,0,0,0,0,0,-1,1133,1597,0,0
-84,-573,0,0,0,0,0,0,0,0,0,-1,1140,1597,0,0
-77,-573,0,0,0,0,0,0,0,0,0,-1,1147,1597,0,0
-70,-573,0,0,0,0,0,0,0,0,0,-1,1154,1597,0,0
-63,-573,0,0,0,0,0,0,0,0,0,-1,1161,1597,0,0
-56,-573,0,0,0,0,0,0,0,0,0,-1,1168,1597,0,0
-49,-573,0,0,0,0,0,0,0,0,0,-1,1175,1597,0,0
-42,-573,0,0,0,0,0,0,0,0,0,-1,1182,1597,0,0
-35,-573,0,0,0,0,0,0,0,0,0,-1,1189,1597,0,0
-28,-573,0,0,0,0,0,0,0,0,0,-1,1196,1597,0,0
-21,-573,0,0,0,0,0,0,0,0,0,-1,1203,1597,0,0
-14,-573,0,0,0,0,0,0,0,0,0,-1,1210,1597,0,0
-7,-573,0,0,0,0,0,0,0,0,0,-1,1217,1597,0,0
0,-573,0,0,0,0,0,0,0,0,0,-1,1224,1597,0,0
7,-573,0,0,0,0,0,0,0,0,0,-1,1231,1597,0,0
14,-573,0,0,0,0,0,0,0,0,0,-1,1238,1597,0,0
21,-573,0,0,0,0,0,0,0,0,0,-1,1245,1597,0,0
28,-573,0,0,0,0,0,0,0,0,0,-1,1252,1597,0,0
35,-573,0,0,0,0,0,0,0,0,0,-1,1259,1597,0,0
42,-573,0,0,0,0,0,0,0,0,0,-1,1266,1597,0,0
49,-573,0,0,0,0,0,0,0,0,0,-1,1273,1597,0,0
56,-573,0,0,0,0,0,0,0,0,0,-1,1280,1597,0,0
63,-573,0,0,0,0,0,0,0,0,0,-1,1287,1597,0,0
70,-573,0,0,0,0,0,0,0,0,0,-1,1294,1597,0,0
77,-573,0,0,0,0,0,0,0,0,0,-1,1301,1597,0,0
84,-573,0,0,0,0,0,0,0,0,0,-1,1308,1597,0,0
91,-573,0,0,0,0,0,0,0,0,0,-1,1315,1597,0,0
98,-573,0,0,0,0,0,0,0,0,0,-1,1322,1597,0,0
105,-573,0,0,0,0,0,0,0,0,0,-1,1329,1597,0,0
112,-573,0,0,0,0,0,0,0,0,0,-1,1336,1597,0,0
119,-573,0,0,0,0,0,0,0,0,0,-1,1343,1597,0,0
126,-573,0,0,0,0,0,0,0,0,0,-1,1350,1597,0,0
133,-573,0,0,0,0,0,0,0,0,0,-1,1357,1597,0,0
140,-573,0,0,0,0,0,0,0,0,0,-1,1364,1597,0,0
147,-573,0,0,0,0,0,0,0,0,0,-1,1371,1597,0,0
154,-573,0,0,0,0,0,0,0,0,0,-1,1378,1597,0,0
161,-573,0,0,0,0,0,0,0,0,0,-1,1385,1597,0,0
168,-573,0,0,0,0,0,0,0,0,0,-1,1392,1597,0,0
175,-573,0,0,0,0,0,0,0,0,0,-1,1399,1597,0,0
182,-573,0,0,0,0,0,0,0,0,0,-1,1406,1597,0,0
189,-573,0,0,0,0,0,0,0,0,0,-1,1413,1597,0,0
196,-573,0,0,0,0,0,0,0,0,0,-1,1420,1597,0,0
203,-573,0,0,0,0,0,0,0,0,0,-1,1427,1597,0,0
210,-573,0,0,0,0,0,0,0,0,0,-1,1434,1597,0,0
217,-573,0,0,0,0,0,0,0,0,0,-1,1441,1597,0,0
224,-573,0,0,0,0,0,0,0,0,0,-1,1448,1597,0,0
231,-573,0,0,0,0,0,0,0,0,0,-1,1455,1597,0,0
238,-573,0,0,0,0,0,0,0,0,0,-1,1462,1597,0,0
245,-573,0,0,0,0,0,0,0,0,0,-1,1469,1597,0,0
252,-573,0,0,0,0,0,0,0,0,0,-1,1476,1597,0,0
259,-573,0,0,0,0,0,0,0,0,0,-1,1483,1597,0,0
266,-573,0,0,0,0,0,0,0,0,0,-1,1490,1597,0,0
273,-573,0,0,0,0,0,0,0,0,0,-1,1497,1597,0,0
280,-573,0,0,0,0,0,0,0,0,0,-1,1504,1597,0,0
287,-573,0,0,0,0,0,0,0,0,0,-1,1511,1597,0,0
294,-573,0,0,0,0,0,0,0,0,0,-1,1518,1597,0,0
301,-573,0,0,0,0,0,0,0,0,0,-1,1525,1597,0,0
308,-573,5.93042,9.71143,0,0,0,0,0,0,0,-1,1532,1597,5.93046,-9.71144
315,-573,4.34204,11.719,0,0,0,0,0,0,0,-1,1539,1597,4.34205,-11.719
322,-573,10.3269,7.77563,0,0,0,0,0,0,0,-1,1546,1597,10.327,-7.77565
329,-573,4.99573,3.80273,0,0,0,0,0,0,0,-1,1553,1597,4.9957,-3.80273
336,-573,4.85693,2.53455,0,0,0,0,0,0,0,-1,1560,1597,4.8569,-2.53459
343,-573,21.4159,52.1832,0,0,0,0,0,0,0,-1,1567,1597,21.4159,-52.1833
350,-573,24.5242,53.5112,0,0,0,0,0,0,0,-1,1574,1597,24.5242,-53.5112
357,-573,23.7375,52.9818,0,0,0,0,0,0,0,-1,1581,1597,23.7376,-52.9818
364,-573,22.9738,52.4512,0,0,0,0,0,0,0,-1,1588,1597,22.9738,-52.4511
371,-573,22.2067,51.9435,0,0,0,0,0,0,0,-1,1595,1597,22.2066,-51.9435
378,-573,22.1105,55.1304,0,0,0,0,0,0,0,-1,1602,1597,22.1104,-55.1304
385,-573,6.54346,-0.951904,0,0,0,0,0,0,0,-1,1609,1597,6.54349,0.951901
392,-573,17.5164,38.3645,0,0,0,0,0,0,0,-1,1616,1597,17.5164,-38.3645
399,-573,20.5255,42.9893,0,0,0,0,0,0,0,-1,1623,1597,20.5255,-42.9893
406,-573,22.5132,48.6315,0,0,0,0,0,0,0,-1,1630,1597,22.5132,-48.6315
413,-573,27.5349,77.4857,0,0,0,0,0,0,0,-1,1637,1597,27.5349,-77.4857
420,-573,28.8744,81.4833,0,0,0,0,0,0,0,-1,1644,1597,28.8743,-81.4833
427,-573,20.4286,42.2079,0,0,0,0,0,0,0,-1,1651,1597,20.4285,-42.2079
434,-573,22.8055,51.4678,0,0,0,0,0,0,0,-1,1658,1597,22.8056,-51.4678
441,-573,22.8397,52.2052,0,0,0,0,0,0,0,-1,1665,1597,22.8397,-52.2051
448,-573,59.6241,210.824,0,0,0,0,0,0,0,-1,1672,1597,59.6242,-210.824
455,-573,78.3125,210.315,0,0,0,0,0,0,0,-1,1679,1597,78.3126,-210.315
462,-573,77.3361,206.281,0,0,0,0,0,0,0,-1,1686,1597,77.3361,-206.281
469,-573,76.3843,202.118,0.0491419,0.0039088,0.0416089,0.0738837,-0.020833,0.536459,0.0574728,0.0273848,1693,1597,76.3842,-202.118
476,-573,75.3337,197.982,0.0460903,0.00346358,0.0386804,0.0689406,-0.0193868,0.533588,0.0536043,0.021369,1700,1597,75.3337,-197.982
483,-573,74.4307,193.584,0.0432724,0.00277909,0.0359553,0.0642897,-0.0182381,0.528973,0.0500591,0.0225432,1707,1597,74.4307,-193.584
490,-573,73.3772,189.251,0.0407617,0.00206226,0.0334137,0.060024,-0.0172,0.522944,0.0468147,0.0259087,1714,1597,73.3772,-189.251
497,-573,72.2186,184.842,0.0384288,0.00138388,0.0311407,0.0561392,-0.0163266,0.517105,0.0438925,0.0372937,1721,1597,72.2187,-184.842
504,-573,70.9155,180.535,0.0365322,0.000887045,0.0290186,0.0527643,-0.0153451,0.510009,0.0412538,0.0255555,1728,1597,70.9155,-180.535
511,-573,69.6676,176.174,0.0349023,0.000370909,0.0270503,0.0497275,-0.0144542,0.501352,0.038876,0.0245669,1735,1597,69.6675,-176.174
518,-573,68.2969,171.638,0.0334853,0.000418243,0.0254984,0.0473413,-0.0134378,0.497768,0.0368657,0.0190154,1742,1597,68.2969,-171.638
525,-573,66.9777,167.125,0.0324254,0.00100688,0.0244219,0.0457542,-0.0123219,0.499592,0.0353337,0.0237452,1749,1597,66.9776,-167.125
532,-573,65.6185,162.508,0.0324288,0.00238638,0.0237085,0.045474,-0.0106589,0.503026,0.0344235,0.0367791,1756,1597,65.6185,-162.508
539,-573,64.2181,157.927,0,0,0,0,0,0,0,-1,1763,1597,64.2182,-157.927
546,-573,29.525,73.3749,0,0,0,0,0,0,0,-1,1770,1597,29.525,-73.3749
553,-573,28.2662,57.49,0,0,0,0,0,0,0,-1,1777,1597,28.2663,-57.49
560,-573,25.194,47.3386,0,0,0,0,0,0,0,-1,1784,1597,25.194,-47.3386
567,-573,23.1487,41.1044,0,0,0,0,0,0,0,-1,1791,1597,23.1486,-41.1043
574,-573,0.83374,5.7041,0,0,0,0,0,0,0,-1,1798,1597,0.833718,-5.70405
581,-573,-0.224854,7.41602,0,0,0,0,0,0,0,-1,1805,1597,-0.224904,-7.41596
588,-573,-0.134033,7.67065,0,0,0,0,0,0,0,-1,1812,1597,-0.134037,-7.67063
595,-573,-0.0825195,8.35083,0,0,0,0,0,0,0,-1,1819,1597,-0.0824684,-8.35088
602,-573,0,0,0,0,0,0,0,0,0,-1,1826,1597,0,0
609,-573,0,0,0,0,0,0,0,0,0,-1,1833,1597,0,0
616,-573,0,0,0,0,0,0,0,0,0,-1,1840,1597,0,0
623,-573,0,0,0,0,0,0,0,0,0,-1,1847,1597,0,0
630,-573,0,0,0,0,0,0,0,0,0,-1,1854,1597,0,0
637,-573,0,0,0,0,0,0,0,0,0,-1,1861,1597,0,0
644,-573,0,0,0,0,0,0,0,0,0,-1,1868,1597,0,0
651,-573,0,0,0,0,0,0,0,0,0,-1,1875,1597,0,0
658,-573,0,0,0,0,0,0,0,0,0,-1,1882,1597,0,0
665,-573,0,0,0,0,0,0,0,0,0,-1,1889,1597,0,0
672,-573,0,0,0,0,0,0,0,0,0,-1,1896,1597,0,0
679,-573,0,0,0,0,0,0,0,0,0,-1,1903,1597,0,0
686,-573,0,0,0,0,0,0,0,0,0,-1,1910,1597,0,0
693,-573,0,0,0,0,0,0,0,0,0,-1,1917,1597,0,0
700,-573,0,0,0,0,0,0,0,0,0,-1,1924,1597,0,0
707,-573,0,0,0,0,0,0,0,0,0,-1,1931,1597,0,0
714,-573,0,0,0,0,0,0,0,0,0,-1,1938,1597,0,0
721,-573,0,0,0,0,0,0,0,0,0,-1,1945,1597,0,0
728,-573,0,0,0,0,0,0,0,0,0,-1,1952,1597,0,0
735,-573,0,0,0,0,0,0,0,0,0,-1,1959,1597,0,0
742,-573,0,0,0,0,0,0,0,0,0,-1,1966,1597,0,0
749,-573,0,0,0,0,0,0,0,0,0,-1,1973,1597,0,0
756,-573,0,0,0,0,0,0,0,0,0,-1,1980,1597,0,0
763,-573,0,0,0,0,0,0,0,0,0,-1,1987,1597,0,0
770,-573,0,0,0,0,0,0,0,0,0,-1,1994,1597,0,0
777,-573,0,0,0,0,0,0,0,0,0,-1,2001,1597,0,0
784,-573,0,0,0,0,0,0,0,0,0,-1,2008,1597,0,0
791,-573,0,0,0,0,0,0,0,0,0,-1,2015,1597,0,0
798,-573,0,0,0,0,0,0,0,0,0,-1,2022,1597,0,0
805,-573,0,0,0,0,0,0,0,0,0,-1,2029,1597,0,0
812,-573,0,0,0,0,0,0,0,0,0,-1,2036,1597,0,0
-700,-580,0,0,0,0,0,0,0,0,0,-1,524,1604,0,0
-693,-580,0,0,0,0,0,0,0,0,0,-1,531,1604,0,0
-686,-580,0,0,0,0,0,0,0,0,0,-1,538,1604,0,0
-679,-580,0,0,0,0,0,0,0,0,0,-1,545,1604,0,0
-672,-580,0,0,0,0,0,0,0,0,0,-1,552,1604,0,0
-665,-580,0,0,0,0,0,0,0,0,0,-1,559,1604,0,0
-658,-580,0,0,0,0,0,0,0,0,0,-1,566,1604,0,0
-651,-580,0,0,0,0,0,0,0,0,0,-1,573,1604,0,0
-644,-580,0,0,0,0,0,0,0,0,0,-1,580,1604,0,0
-637,-580,0,0,0,0,0,0,0,0,0,-1,587,1604,0,0
-630,-580,0,0,0,0,0,0,0,0,0,-1,594,1604,0,0
-623,-580,0,0,0,0,0,0,0,0,0,-1,601,1604,0,0
-616,-580,0,0,0,0,0,0,0,0,0,-1,608,1604,0,0
-609,-580,0,0,0,0,0,0,0,0,0,-1,615,1604,0,0
-602,-580,0,0,0,0,0,0,0,0,0,-1,622,1604,0,0
-595,-580,0,0,0,0,0,0,0,0,0,-1,629,1604,0,0
-588,-580,0,0,0,0,0,0,0,0,0,-1,636,1604,0,0
-581,-580,0,0,0,0,0,0,0,0,0,-1,643,1604,0,0
-574,-580,0,0,0,0,0,0,0,0,0,-1,650,1604,0,0
-567,-580,0,0,0,0,0,0,0,0,0,-1,657,1604,0,0
-560,-580,0,0,0,0,0,0,0,0,0,-1,664,1604,0,0
-553,-580,0,0,0,0,0,0,0,0,0,-1,671,1604,0,0
-546,-580,0,0,0,0,0,0,0,0,0,-1,678,1604,0,0
-539,-580,0,0,0,0,0,0,0,0,0,-1,685,1604,0,0
-532,-580,0,0,0,0,0,0,0,0,0,-1,692,1604,0,0
-525,-580,0,0,0,0,0,0,0,0,0,-1,699,1604,0,0
-518,-580,0,0,0,0,0,0,0,0,0,-1,706,1604,0,0
-511,-580,0,0,0,0,0,0,0,0,0,-1,713,1604,0,0
-504,-580,0,0,0,0,0,0,0,0,0,-1,720,1604,0,0
-497,-580,0,0,0,0,0,0,0,0,0,-1,727,1604,0,0
-490,-580,0,0,0,0,0,0,0,0,0,-1,734,1604,0,0
-483,-580,0,0,0,0,0,0,0,0,0,-1,741,1604,0,0
-476,-580,0,0,0,0,0,0,0,0,0,-1,748,1604,0,0
-469,-580,-1.69189,-0.38916,0,0,0,0,0,0,0,-1,755,1604,-1.69192,0.389188
-462,-580,-0.859863,0.675293,0,0,0,0,0,0,0,-1,762,1604,-0.859834,-0.675245
-455,-580,-0.730164,0.651978,0,0,0,0,0,0,0,-1,769,1604,-0.730153,-0.651957
-448,-580,-3.31891,2.07544,0,0,0,0,0,0,0,-1,776,1604,-3.3189,-2.07539
-441,-580,-1.63843,3.9469,0,0,0,0,0,0,0,-1,783,1604,-1.63842,-3.94695
-434,-580,0.23291,5.97876,0,0,0,0,0,0,0,-1,790,1604,0.232901,-5.97878
-427,-580,1.62756,8.05493,0,0,0,0,0,0,0,-1,797,1604,1.62758,-8.05488
-420,-580,0.986572,11.2383,0,0,0,0,0,0,0,-1,804,1604,0.986544,-11.2382
-413,-580,0.922913,21.5701,0,0,0,0,0,0,0,-1,811,1604,0.922905,-21.5701
-406,-580,-3.00854,38.0941,0,0,0,0,0,0,0,-1,818,1604,-3.00852,-38.0941
-399,-580,-26.7425,119.551,0,0,0,0,0,0,0,-1,825,1604,-26.7425,-119.551
-392,-580,-49.6456,164.898,0,0,0,0,0,0,0,-1,832,1604,-49.6456,-164.898
-385,-580,-50.8203,169.434,0,0,0,0,0,0,0,-1,839,1604,-50.8203,-169.434
-378,-580,-52.3179,173.919,0.0492695,0.00414183,-0.0452032,0.0772275,-0.0238162,-0.553909,0.0609939,0.0233985,846,1604,-52.3179,-173.919
-371,-580,-53.5333,178.33,0.0480214,0.00386951,-0.0477302,0.0785337,-0.0266427,-0.568792,0.0631391,0.0218224,853,1604,-53.5333,-178.33
-364,-580,-54.6829,182.631,0.0489277,0.00363488,-0.0500506,0.0812169,-0.0286543,-0.572945,0.0658094,0.0291073,860,1604,-54.6829,-182.631
-357,-580,-55.6113,186.926,0.0512852,0.00367634,-0.0524226,0.0850549,-0.0300933,-0.572274,0.068959,0.0239612,867,1604,-55.6112,-186.926
-350,-580,-56.5165,191.345,0.0546584,0.00413368,-0.0548728,0.0898048,-0.0310127,-0.569672,0.0724546,0.0202411,874,1604,-56.5166,-191.345
-343,-580,-57.5759,195.558,0.0590878,0.00451858,-0.0570997,0.0950869,-0.0314805,-0.562516,0.0760875,0.0204848,881,1604,-57.5759,-195.558
-336,-580,-58.4333,199.762,0.0644777,0.00501762,-0.0592881,0.101072,-0.0315769,-0.552994,0.0800118,0.040067,888,1604,-58.4334,-199.762
-329,-580,-59.037,203.717,0.0700621,0.00534908,-0.0614403,0.107145,-0.031734,-0.543035,0.0840298,0.0448263,895,1604,-59.037,-203.717
-322,-580,-59.3421,207.933,0.075264,0.00514587,-0.0632309,0.112505,-0.032095,-0.532267,0.0876819,0.0482975,902,1604,-59.3421,-207.933
-315,-580,-60.1732,211.947,0,0,0,0,0,0,0,-1,909,1604,-60.1732,-211.947
-308,-580,-60.9548,215.978,0,0,0,0,0,0,0,-1,916,1604,-60.9548,-215.978
-301,-580,-49.9667,215.782,0,0,0,0,0,0,0,-1,923,1604,-49.9667,-215.783
-294,-580,-6.49896,66.3197,0,0,0,0,0,0,0,-1,930,1604,-6.49896,-66.3196
-287,-580,-3.76239,54.9144,0,0,0,0,0,0,0,-1,937,1604,-3.76236,-54.9144
-280,-580,-2.74774,52.328,0,0,0,0,0,0,0,-1,944,1604,-2.74776,-52.328
-273,-580,-2.96637,52.8284,0,0,0,0,0,0,0,-1,951,1604,-2.96637,-52.8283
-266,-580,-1.22644,48.4485,0,0,0,0,0,0,0,-1,958,1604,-1.22644,-48.4485
-259,-580,1.31091,9.11536,0,0,0,0,0,0,0,-1,965,1604,1.31092,-9.11539
-252,-580,1.07629,7.74097,0,0,0,0,0,0,0,-1,972,1604,1.07627,-7.74101
-245,-580,3.80304,9.16028,0,0,0,0,0,0,0,-1,979,1604,3.80306,-9.16034
-238,-580,-10.3588,1.57556,0,0,0,0,0,0,0,-1,986,1604,-10.3588,-1.5755
-231,-580,-10.576,6.43787,0,0,0,0,0,0,0,-1,993,1604,-10.576,-6.43783
-224,-580,-8.27435,7.58972,0,0,0,0,0,0,0,-1,1000,1604,-8.27435,-7.5897
-217,-580,-5.85632,9.51221,0,0,0,0,0,0,0,-1,1007,1604,-5.85632,-9.5122
-210,-580,-3.6684,11.1569,0,0,0,0,0,0,0,-1,1014,1604,-3.66839,-11.1569
-203,-580,-1.92474,12.7845,0,0,0,0,0,0,0,-1,1021,1604,-1.92477,-12.7845
-196,-580,-2.28552,10.3289,0,0,0,0,0,0,0,-1,1028,1604,-2.28552,-10.3288
-189,-580,-4.58252,7.59058,0,0,0,0,0,0,0,-1,1035,1604,-4.58256,-7.59057
-182,-580,-5.45874,7.65942,0,0,0,0,0,0,0,-1,1042,1604,-5.45876,-7.65939
-175,-580,-6.38977,7.55005,0,0,0,0,0,0,0,-1,1049,1604,-6.38981,-7.5501
-168,-580,0,0,0,0,0,0,0,0,0,-1,1056,1604,0,0
-161,-580,0,0,0,0,0,0,0,0,0,-1,1063,1604,0,0
-154,-580,0,0,0,0,0,0,0,0,0,-1,1070,1604,0,0
-147,-580,0,0,0,0,0,0,0,0,0,-1,1077,1604,0,0
-140,-580,0,0,0,0,0,0,0,0,0,-1,1084,1604,0,0
-133,-580,0,0,0,0,0,0,0,0,0,-1,1091,1604,0,0
-126,-580,0,0,0,0,0,0,0,0,0,-1,1098,1604,0,0
-119,-580,0,0,0,0,0,0,0,0,0,-1,1105,1604,0,0
-112,-580,0,0,0,0,0,0,0,0,0,-1,1112,1604,0,0
-105,-580,0,0,0,0,0,0,0,0,0,-1,1119,1604,0,0
-98,-580,0,0,0,0,0,0,0,0,0,-1,1126,1604,0,0
-91,-580,0,0,0,0,0,0,0,0,0,-1,1133,1604,0,0
-84,-580,0,0,0,0,0,0,0,0,0,-1,1140,1604,0,0
-77,-580,0,0,0,0,0,0,0,0,0,-1,1147,1604,0,0
-70,-580,0,0,0,0,0,0,0,0,0,-1,1154,1604,0,0
-63,-580,0,0,0,0,0,0,0,0,0,-1,1161,1604,0,0
-56,-580,0,0,0,0,0,0,0,0,0,-1,1168,1604,0,0
-49,-580,0,0,0,0,0,0,0,0,0,-1,1175,1604,0,0
-42,-580,0,0,0,0,0,0,0,0,0,-1,1182,1604,0,0
-35,-580,0,0,0,0,0,0,0,0,0,-1,1189,1604,0,0
-28,-580,0,0,0,0,0,0,0,0,0,-1,1196,1604,0,0
-21,-580,0,0,0,0,0,0,0,0,0,-1,1203,1604,0,0
-14,-580,0,0,0,0,0,0,0,0,0,-1,1210,1604,0,0
-7,-580,0,0,0,0,0,0,0,0,0,-1,1217,1604,0,0
0,-580,0,0,0,0,0,0,0,0,0,-1,1224,1604,0,0
7,-580,0,0,0,0,0,0,0,0,0,-1,1231,1604,0,0
14,-580,0,0,0,0,0,0,0,0,0,-1,1238,1604,0,0
21,-580,0,0,0,0,0,0,0,0,0,-1,1245,1604,0,0
28,-580,0,0,0,0,0,0,0,0,0,-1,1252,1604,0,0
35,-580,0,0,0,0,0,0,0,0,0,-1,1259,1604,0,0
42,-580,0,0,0,0,0,0,0,0,0,-1,1266,1604,0,0
49,-580,0,0,0,0,0,0,0,0,0,-1,1273,1604,0,0
56,-580,0,0,0,0,0,0,0,0,0,-1,1280,1604,0,0
63,-580,0,0,0,0,0,0,0,0,0,-1,1287,1604,0,0
70,-580,0,0,0,0,0,0,0,0,0,-1,1294,1604,0,0
77,-580,0,0,0,0,0,0,0,0,0,-1,1301,1604,0,0
84,-580,0,0,0,0,0,0,0,0,0,-1,1308,1604,0,0
91,-580,0,0,0,0,0,0,0,0,0,-1,1315,1604,0,0
98,-580,0,0,0,0,0,0,0,0,0,-1,1322,1604,0,0
105,-580,0,0,0,0,0,0,0,0,0,-1,1329,1604,0,0
112,-580,0,0,0,0,0,0,0,0,0,-1,1336,1604,0,0
119,-580,0,0,0,0,0,0,0,0,0,-1,1343,1604,0,0
126,-580,0,0,0,0,0,0,0,0,0,-1,1350,1604,0,0
133,-580,0,0,0,0,0,0,0,0,0,-1,1357,1604,0,0
140,-580,0,0,0,0,0,0,0,0,0,-1,1364,1604,0,0
147,-580,0,0,0,0,0,0,0,0,0,-1,1371,1604,0,0
154,-580,0,0,0,0,0,0,0,0,0,-1,1378,1604,0,0
161,-580,0,0,0,0,0,0,0,0,0,-1,1385,1604,0,0
168,-580,0,0,0,0,0,0,0,0,0,-1,1392,1604,0,0
175,-580,0,0,0,0,0,0,0,0,0,-1,1399,1604,0,0
182,-580,0,0,0,0,0,0,0,0,0,-1,1406,1604,0,0
189,-580,0,0,0,0,0,0,0,0,0,-1,1413,1604,0,0
196,-580,0,0,0,0,0,0,0,0,0,-1,1420,1604,0,0
203,-580,0,0,0,0,0,0,0,0,0,-1,1427,1604,0,0
210,-580,0,0,0,0,0,0,0,0,0,-1,1434,1604,0,0
217,-580,0,0,0,0,0,0,0,0,0,-1,1441,1604,0,0
224,-580,0,0,0,0,0,0,0,0,0,-1,1448,1604,0,0
231,-580,0,0,0,0,0,0,0,0,0,-1,1455,1604,0,0
238,-580,0,0,0,0,0,0,0,0,0,-1,1462,1604,0,0
245,-580,0,0,0,0,0,0,0,0,0,-1,1469,1604,0,0
252,-580,0,0,0,0,0,0,0,0,0,-1,1476,1604,0,0
259,-580,0,0,0,0,0,0,0,0,0,-1,1483,1604,0,0
266,-580,0,0,0,0,0,0,0,0,0,-1,1490,1604,0,0
273,-580,0,0,0,0,0,0,0,0,0,-1,1497,1604,0,0
280,-580,0,0,0,0,0,0,0,0,0,-1,1504,1604,0,0
287,-580,0,0,0,0,0,0,0,0,0,-1,1511,1604,0,0
294,-580,4.0437,0.177368,0,0,0,0,0,0,0,-1,1518,1604,4.04369,-0.177371
301,-580,7.55164,8.05798,0,0,0,0,0,0,0,-1,1525,1604,7.55158,-8.05802
308,-580,5.9126,9.99341,0,0,0,0,0,0,0,-1,1532,1604,5.91255,-9.99337
315,-580,4.27356,11.9287,0,0,0,0,0,0,0,-1,1539,1604,4.27352,-11.9287
322,-580,10.2366,7.50281,0,0,0,0,0,0,0,-1,1546,1604,10.2366,-7.50282
329,-580,10.5962,8.69641,0,0,0,0,0,0,0,-1,1553,1604,10.5962,-8.69642
336,-580,3.66431,1.58862,0,0,0,0,0,0,0,-1,1560,1604,3.6643,-1.58864
343,-580,19.0659,51.8346,0,0,0,0,0,0,0,-1,1567,1604,19.0659,-51.8346
350,-580,22.8734,54.9255,0,0,0,0,0,0,0,-1,1574,1604,22.8734,-54.9255
357,-580,22.1614,54.3809,0,0,0,0,0,0,0,-1,1581,1604,22.1614,-54.3809
364,-580,21.4701,53.8442,0,0,0,0,0,0,0,-1,1588,1604,21.4701,-53.8442
371,-580,22.0861,57.5294,0,0,0,0,0,0,0,-1,1595,1604,22.0861,-57.5294
378,-580,23.1404,53.2659,0,0,0,0,0,0,0,-1,1602,1604,23.1404,-53.2659
385,-580,23.9454,66.333,0,0,0,0,0,0,0,-1,1609,1604,23.9455,-66.3331
392,-580,19.1388,46.7451,0,0,0,0,0,0,0,-1,1616,1604,19.1388,-46.7452
399,-580,21.1744,50.241,0,0,0,0,0,0,0,-1,1623,1604,21.1744,-50.241
406,-580,29.3561,99.2605,0,0,0,0,0,0,0,-1,1630,1604,29.3561,-99.2605
413,-580,29.0001,93.5648,0,0,0,0,0,0,0,-1,1637,1604,29.0001,-93.5648
420,-580,27.9183,81.3159,0,0,0,0,0,0,0,-1,1644,1604,27.9184,-81.3159
427,-580,28.2332,86.6798,0,0,0,0,0,0,0,-1,1651,1604,28.2332,-86.6798
434,-580,27.2424,77.8894,0,0,0,0,0,0,0,-1,1658,1604,27.2424,-77.8894
441,-580,55.8358,216.058,0,0,0,0,0,0,0,-1,1665,1604,55.8359,-216.058
448,-580,74.9276,215.974,0,0,0,0,0,0,0,-1,1672,1604,74.9276,-215.974
455,-580,73.9141,211.921,0.0528599,0.00388789,0.0442136,0.078915,-0.0221673,0.532516,0.0613489,0.0374332,1679,1604,73.9141,-211.921
462,-580,72.9271,207.924,0.0493171,0.00399569,0.0414638,0.0739084,-0.0205956,0.535315,0.057383,0.0329323,1686,1604,72.9271,-207.924
469,-580,71.9583,203.828,0.0461307,0.00392104,0.0385158,0.0689449,-0.0188932,0.534763,0.0533872,0.0269452,1693,1604,71.9582,-203.828
476,-580,70.9253,199.556,0.0430048,0.00357748,0.0355972,0.0639826,-0.0174002,0.532521,0.0494856,0.0196323,1700,1604,70.9253,-199.556
483,-580,69.8831,195.234,0.0401981,0.00309528,0.0328712,0.0593915,-0.0160981,0.528495,0.045911,0.0223817,1707,1604,69.8831,-195.234
490,-580,68.809,190.999,0.0376757,0.00252213,0.030274,0.0551054,-0.0149076,0.522385,0.042585,0.0328245,1714,1604,68.809,-190.999
497,-580,67.6426,186.546,0.0353093,0.00195161,0.0279351,0.0511658,-0.013905,0.516272,0.0395685,0.0249708,1721,1604,67.6425,-186.545
504,-580,66.4253,182.127,0.033423,0.00157751,0.0257439,0.0477704,-0.0127699,0.50844,0.0368487,0.0233888,1728,1604,66.4253,-182.127
511,-580,65.0876,177.794,0.0317074,0.00125347,0.0237038,0.0446536,-0.0116928,0.499897,0.0343368,0.021304,1735,1604,65.0876,-177.794
518,-580,63.6472,173.328,0.0303043,0.00142111,0.0220173,0.0421937,-0.0104683,0.495135,0.032191,0.0208981,1742,1604,63.6472,-173.328
525,-580,62.1356,168.869,0,0,0,0,0,0,0,-1,1749,1604,62.1356,-168.869
532,-580,60.8314,164.07,0,0,0,0,0,0,0,-1,1756,1604,60.8315,-164.07
539,-580,26.9873,63.3041,0,0,0,0,0,0,0,-1,1763,1604,26.9873,-63.3041
546,-580,26.3485,55.9186,0,0,0,0,0,0,0,-1,1770,1604,26.3486,-55.9186
553,-580,24.7284,48.406,0,0,0,0,0,0,0,-1,1777,1604,24.7284,-48.406
560,-580,22.035,41.963,0,0,0,0,0,0,0,-1,1784,1604,22.035,-41.963
567,-580,21.5164,41.0686,0,0,0,0,0,0,0,-1,1791,1604,21.5163,-41.0687
574,-580,2.31653,5.62952,0,0,0,0,0,0,0,-1,1798,1604,2.31654,-5.62947
581,-580,1.60876,6.67664,0,0,0,0,0,0,0,-1,1805,1604,1.60873,-6.67667
588,-580,1.38684,7.14441,0,0,0,0,0,0,0,-1,1812,1604,1.38689,-7.14443
595,-580,0,0,0,0,0,0,0,0,0,-1,1819,1604,0,0
602,-580,0,0,0,0,0,0,0,0,0,-1,1826,1604,0,0
609,-580,0,0,0,0,0,0,0,0,0,-1,1833,1604,0,0
616,-580,0,0,0,0,0,0,0,0,0,-1,1840,1604,0,0
623,-580,0,0,0,0,0,0,0,0,0,-1,1847,1604,0,0
630,-580,0,0,0,0,0,0,0,0,0,-1,1854,1604,0,0
637,-580,0,0,0,0,0,0,0,0,0,-1,1861,1604,0,0
644,-580,0,0,0,0,0,0,0,0,0,-1,1868,1604,0,0
651,-580,0,0,0,0,0,0,0,0,0,-1,1875,1604,0,0
658,-580,0,0,0,0,0,0,0,0,0,-1,1882,1604,0,0
665,-580,0,0,0,0,0,0,0,0,0,-1,1889,1604,0,0
672,-580,0,0,0,0,0,0,0,0,0,-1,1896,1604,0,0
679,-580,0,0,0,0,0,0,0,0,0,-1,1903,1604,0,0
686,-580,0,0,0,0,0,0,0,0,0,-1,1910,1604,0,0
693,-580,0,0,0,0,0,0,0,0,0,-1,1917,1604,0,0
700,-580,0,0,0,0,0,0,0,0,0,-1,1924,1604,0,0
707,-580,0,0,0,0,0,0,0,0,0,-1,1931,1604,0,0
714,-580,0,0,0,0,0,0,0,0,0,-1,1938,1604,0,0
721,-580,0,0,0,0,0,0,0,0,0,-1,1945,1604,0,0
728,-580,0,0,0,0,0,0,0,0,0,-1,1952,1604,0,0
735,-580,0,0,0,0,0,0,0,0,0,-1,1959,1604,0,0
742,-580,0,0,0,0,0,0,0,0,0,-1,1966,1604,0,0
749,-580,0,0,0,0,0,0,0,0,0,-1,1973,1604,0,0
756,-580,0,0,0,0,0,0,0,0,0,-1,1980,1604,0,0
763,-580,0,0,0,0,0,0,0,0,0,-1,1987,1604,0,0
770,-580,0,0,0,0,0,0,0,0,0,-1,1994,1604,0,0
777,-580,0,0,0,0,0,0,0,0,0,-1,2001,1604,0,0
784,-580,0,0,0,0,0,0,0,0,0,-1,2008,1604,0,0
791,-580,0,0,0,0,0,0,0,0,0,-1,2015,1604,0,0
798,-580,0,0,0,0,0,0,0,0,0,-1,2022,1604,0,0
805,-580,0,0,0,0,0,0,0,0,0,-1,2029,1604,0,0
812,-580,0,0,0,0,0,0,0,0,0,-1,2036,1604,0,0
-700,-587,0,0,0,0,0,0,0,0,0,-1,524,1611,0,0
-693,-587,0,0,0,0,0,0,0,0,0,-1,531,1611,0,0
-686,-587,0,0,0,0,0,0,0,0,0,-1,538,1611,0,0
-679,-587,0,0,0,0,0,0,0,0,0,-1,545,1611,0,0
-672,-587,0,0,0,0,0,0,0,0,0,-1,552,1611,0,0
-665,-587,0,0,0,0,0,0,0,0,0,-1,559,1611,0,0
-658,-587,0,0,0,0,0,0,0,0,0,-1,566,1611,0,0
-651,-587,0,0,0,0,0,0,0,0,0,-1,573,1611,0,0
-644,-587,0,0,0,0,0,0,0,0,0,-1,580,1611,0,0
-637,-587,0,0,0,0,0,0,0,0,0,-1,587,1611,0,0
-630,-587,0,0,0,0,0,0,0,0,0,-1,594,1611,0,0
-623,-587,0,0,0,0,0,0,0,0,0,-1,601,1611,0,0
-616,-587,0,0,0,0,0,0,0,0,0,-1,608,1611,0,0
-609,-587,0,0,0,0,0,0,0,0,0,-1,615,1611,0,0
-602,-587,0,0,0,0,0,0,0,0,0,-1,622,1611,0,0
-595,-587,0,0,0,0,0,0,0,0,0,-1,629,1611,0,0
-588,-587,0,0,0,0,0,0,0,0,0,-1,636,1611,0,0
-581,-587,0,0,0,0,0,0,0,0,0,-1,643,1611,0,0
-574,-587,0,0,0,0,0,0,0,0,0,-1,650,1611,0,0
-567,-587,0,0,0,0,0,0,0,0,0,-1,657,1611,0,0
-560,-587,0,0,0,0,0,0,0,0,0,-1,664,1611,0,0
-553,-587,0,0,0,0,0,0,0,0,0,-1,671,1611,0,0
-546,-587,0,0,0,0,0,0,0,0,0,-1,678,1611,0,0
-539,-587,0,0,0,0,0,0,0,0,0,-1,685,1611,0,0
-532,-587,0,0,0,0,0,0,0,0,0,-1,692,1611,0,0
-525,-587,0,0,0,0,0,0,0,0,0,-1,699,1611,0,0
-518,-587,0,0,0,0,0,0,0,0,0,-1,706,1611,0,0
-511,-587,0,0,0,0,0,0,0,0,0,-1,713,1611,0,0
-504,-587,0,0,0,0,0,0,0,0,0,-1,720,1611,0,0
-497,-587,0,0,0,0,0,0,0,0,0,-1,727,1611,0,0
-490,-587,0,0,0,0,0,0,0,0,0,-1,734,1611,0,0
-483,-587,0,0,0,0,0,0,0,0,0,-1,741,1611,0,0
-476,-587,0,0,0,0,0,0,0,0,0,-1,748,1611,0,0
-469,-587,0,0,0,0,0,0,0,0,0,-1,755,1611,0,0
-462,-587,-0.714355,-0.418457,0,0,0,0,0,0,0,-1,762,1611,-0.714359,0.418483
-455,-587,-0.619812,-0.522461,0,0,0,0,0,0,0,-1,769,1611,-0.619802,0.522515
-448,-587,-0.461731,-0.686523,0,0,0,0,0,0,0,-1,776,1611,-0.461739,0.686559
-441,-587,-3.56555,2.72253,0,0,0,0,0,0,0,-1,783,1611,-3.56555,-2.72259
-434,-587,-1.77319,4.76318,0,0,0,0,0,0,0,-1,790,1611,-1.77318,-4.76323
-427,-587,0.0346069,6.92944,0,0,0,0,0,0,0,-1,797,1611,0.034587,-6.92941
-420,-587,-0.647156,10.1157,0,0,0,0,0,0,0,-1,804,1611,-0.647128,-10.1158
-413,-587,2.13971,10.3901,0,0,0,0,0,0,0,-1,811,1611,2.13971,-10.3902
-406,-587,2.2525,19.7814,0,0,0,0,0,0,0,-1,818,1611,2.25253,-19.7814
-399,-587,-1.7851,36.6587,0,0,0,0,0,0,0,-1,825,1611,-1.78511,-36.6587
-392,-587,-17.8898,94.8955,0,0,0,0,0,0,0,-1,832,1611,-17.8898,-94.8955
-385,-587,-46.4705,170.884,0,0,0,0,0,0,0,-1,839,1611,-46.4705,-170.884
-378,-587,-47.7133,175.555,0.0481737,0.00363115,-0.040797,0.0723826,-0.0205777,-0.535551,0.0563803,0.0330822,846,1611,-47.7133,-175.555
-371,-587,-48.8549,180.094,0.0459921,0.00363934,-0.0437188,0.0733932,-0.0237618,-0.559862,0.0584813,0.0201249,853,1611,-48.8549,-180.093
-364,-587,-49.9638,184.443,0.0466783,0.00349634,-0.0462564,0.0761346,-0.02596,-0.567043,0.0612712,0.0294589,860,1611,-49.9638,-184.443
-357,-587,-50.9479,188.898,0,0,0,0,0,0,0,-1,867,1611,-50.9479,-188.898
-350,-587,-52.0248,192.945,0.0519372,0.00401199,-0.051318,0.0846116,-0.0286623,-0.566971,0.0680059,0.0181995,874,1611,-52.0248,-192.945
-343,-587,-53.1312,197.073,0.0558213,0.00454993,-0.0537308,0.0897187,-0.0293474,-0.562812,0.0716278,0.0263098,881,1611,-53.1312,-197.073
-336,-587,-54.1055,201.218,0.0602678,0.00518509,-0.0561051,0.0952269,-0.0297741,-0.557232,0.0753951,0.0248649,888,1611,-54.1055,-201.218
-329,-587,-54.6232,205.268,0.0650452,0.00570812,-0.058531,0.100998,-0.0302442,-0.550828,0.079358,0.0251391,895,1611,-54.6232,-205.268
-322,-587,-55.1269,209.475,0.0696337,0.00578897,-0.0608483,0.106425,-0.0310022,-0.543823,0.0832314,0.0244812,902,1611,-55.1269,-209.475
-315,-587,-56.0039,213.437,0.0738382,0.00583579,-0.0636063,0.111961,-0.0322868,-0.539943,0.0874135,0.020703,909,1611,-56.0039,-213.437
-308,-587,-56.6553,217.319,0.078161,0.00598005,-0.0665046,0.117737,-0.0335958,-0.536797,0.0917632,0.034917,916,1611,-56.6553,-217.319
-301,-587,-57.279,221.222,0,0,0,0,0,0,0,-1,923,1611,-57.279,-221.222
-294,-587,-56.7121,225.344,0,0,0,0,0,0,0,-1,930,1611,-56.7121,-225.344
-287,-587,-6.83337,72.7224,0,0,0,0,0,0,0,-1,937,1611,-6.83338,-72.7224
-280,-587,-5.36652,67.5034,0,0,0,0,0,0,0,-1,944,1611,-5.36649,-67.5034
-273,-587,-5.27942,66.161,0,0,0,0,0,0,0,-1,951,1611,-5.27943,-66.161
-266,-587,-4.93909,64.3071,0,0,0,0,0,0,0,-1,958,1611,-4.93907,-64.3071
-259,-587,-4.64594,61.301,0,0,0,0,0,0,0,-1,965,1611,-4.64594,-61.301
-252,-587,1.30188,10.3103,0,0,0,0,0,0,0,-1,972,1611,1.30188,-10.3104
-245,-587,1.52075,27.4791,0,0,0,0,0,0,0,-1,979,1611,1.52076,-27.4791
-238,-587,-1.50494,61.2449,0,0,0,0,0,0,0,-1,986,1611,-1.50494,-61.2449
-231,-587,-2.15942,62.5487,0,0,0,0,0,0,0,-1,993,1611,-2.1594,-62.5488
-224,-587,-3.16583,63.6151,0,0,0,0,0,0,0,-1,1000,1611,-3.16585,-63.6151
-217,-587,-7.07495,10.7847,0,0,0,0,0,0,0,-1,1007,1611,-7.07495,-10.7847
-210,-587,-4.72308,12.5889,0,0,0,0,0,0,0,-1,1014,1611,-4.72307,-12.5888
-203,-587,-3.2583,13.7289,0,0,0,0,0,0,0,-1,1021,1611,-3.25828,-13.7289
-196,-587,-1.953,14.8145,0,0,0,0,0,0,0,-1,1028,1611,-1.95302,-14.8144
-189,-587,-3.04138,8.66638,0,0,0,0,0,0,0,-1,1035,1611,-3.04136,-8.66635
-182,-587,-3.97095,9.7146,0,0,0,0,0,0,0,-1,1042,1611,-3.97093,-9.71461
-175,-587,-4.80969,8.37878,0,0,0,0,0,0,0,-1,1049,1611,-4.80964,-8.37883
-168,-587,-5.91394,8.72546,0,0,0,0,0,0,0,-1,1056,1611,-5.91398,-8.72542
-161,-587,-7.06946,8.88501,0,0,0,0,0,0,0,-1,1063,1611,-7.06947,-8.885
-154,-587,-2.24731,6.56519,0,0,0,0,0,0,0,-1,1070,1611,-2.24728,-6.56517
-147,-587,0,0,0,0,0,0,0,0,0,-1,1077,1611,0,0
-140,-587,0,0,0,0,0,0,0,0,0,-1,1084,1611,0,0
-133,-587,0,0,0,0,0,0,0,0,0,-1,1091,1611,0,0
-126,-587,0,0,0,0,0,0,0,0,0,-1,1098,1611,0,0
-119,-587,0,0,0,0,0,0,0,0,0,-1,1105,1611,0,0
-112,-587,0,0,0,0,0,0,0,0,0,-1,1112,1611,0,0
-105,-587,0,0,0,0,0,0,0,0,0,-1,1119,1611,0,0
-98,-587,0,0,0,0,0,0,0,0,0,-1,1126,1611,0,0
-91,-587,0,0,0,0,0,0,0,0,0,-1,1133,1611,0,0
-84,-587,0,0,0,0,0,0,0,0,0,-1,1140,1611,0,0
-77,-587,0,0,0,0,0,0,0,0,0,-1,1147,1611,0,0
-70,-587,0,0,0,0,0,0,0,0,0,-1,1154,1611,0,0
-63,-587,0,0,0,0,0,0,0,0,0,-1,1161,1611,0,0
-56,-587,0,0,0,0,0,0,0,0,0,-1,1168,1611,0,0
-49,-587,0,0,0,0,0,0,0,0,0,-1,1175,1611,0,0
-42,-587,0,0,0,0,0,0,0,0,0,-1,1182,1611,0,0
-35,-587,0,0,0,0,0,0,0,0,0,-1,1189,1611,0,0
-28,-587,0,0,0,0,0,0,0,0,0,-1,1196,1611,0,0
-21,-587,0,0,0,0,0,0,0,0,0,-1,1203,1611,0,0
-14,-587,0,0,0,0,0,0,0,0,0,-1,1210,1611,0,0
-7,-587,0,0,0,0,0,0,0,0,0,-1,1217,1611,0,0
0,-587,0,0,0,0,0,0,0,0,0,-1,1224,1611,0,0
7,-587,0,0,0,0,0,0,0,0,0,-1,1231,1611,0,0
14,-587,0,0,0,0,0,0,0,0,0,-1,1238,1611,0,0
21,-587,0,0,0,0,0,0,0,0,0,-1,1245,1611,0,0
28,-587,0,0,0,0,0,0,0,0,0,-1,1252,1611,0,0
35,-587,0,0,0,0,0,0,0,0,0,-1,1259,1611,0,0
42,-587,0,0,0,0,0,0,0,0,0,-1,1266,1611,0,0
49,-587,0,0,0,0,0,0,0,0,0,-1,1273,1611,0,0
56,-587,0,0,0,0,0,0,0,0,0,-1,1280,1611,0,0
63,-587,0,0,0,0,0,0,0,0,0,-1,1287,1611,0,0
70,-587,0,0,0,0,0,0,0,0,0,-1,1294,1611,0,0
77,-587,0,0,0,0,0,0,0,0,0,-1,1301,1611,0,0
84,-587,0,0,0,0,0,0,0,0,0,-1,1308,1611,0,0
91,-587,0,0,0,0,0,0,0,0,0,-1,1315,1611,0,0
98,-587,0,0,0,0,0,0,0,0,0,-1,1322,1611,0,0
105,-587,0,0,0,0,0,0,0,0,0,-1,1329,1611,0,0
112,-587,0,0,0,0,0,0,0,0,0,-1,1336,1611,0,0
119,-587,0,0,0,0,0,0,0,0,0,-1,1343,1611,0,0
126,-587,0,0,0,0,0,0,0,0,0,-1,1350,1611,0,0
133,-587,0,0,0,0,0,0,0,0,0,-1,1357,1611,0,0
140,-587,0,0,0,0,0,0,0,0,0,-1,1364,1611,0,0
147,-587,0,0,0,0,0,0,0,0,0,-1,1371,1611,0,0
154,-587,0,0,0,0,0,0,0,0,0,-1,1378,1611,0,0
161,-587,0,0,0,0,0,0,0,0,0,-1,1385,1611,0,0
168,-587,0,0,0,0,0,0,0,0,0,-1,1392,1611,0,0
175,-587,0,0,0,0,0,0,0,0,0,-1,1399,1611,0,0
182,-587,0,0,0,0,0,0,0,0,0,-1,1406,1611,0,0
189,-587,0,0,0,0,0,0,0,0,0,-1,1413,1611,0,0
196,-587,0,0,0,0,0,0,0,0,0,-1,1420,1611,0,0
203,-587,0,0,0,0,0,0,0,0,0,-1,1427,1611,0,0
210,-587,0,0,0,0,0,0,0,0,0,-1,1434,1611,0,0
217,-587,0,0,0,0,0,0,0,0,0,-1,1441,1611,0,0
224,-587,0,0,0,0,0,0,0,0,0,-1,1448,1611,0,0
231,-587,0,0,0,0,0,0,0,0,0,-1,1455,1611,0,0
238,-587,0,0,0,0,0,0,0,0,0,-1,1462,1611,0,0
245,-587,0,0,0,0,0,0,0,0,0,-1,1469,1611,0,0
252,-587,0,0,0,0,0,0,0,0,0,-1,1476,1611,0,0
259,-587,0,0,0,0,0,0,0,0,0,-1,1483,1611,0,0
266,-587,0,0,0,0,0,0,0,0,0,-1,1490,1611,0,0
273,-587,10.2936,6.35083,0,0,0,0,0,0,0,-1,1497,1611,10.2936,-6.35087
280,-587,2.09204,1.1217,0,0,0,0,0,0,0,-1,1504,1611,2.092,-1.12176
287,-587,3.2865,0.671509,0,0,0,0,0,0,0,-1,1511,1611,3.28656,-0.671538
294,-587,4.24646,1.58765,0,0,0,0,0,0,0,-1,1518,1611,4.24648,-1.58761
301,-587,7.60474,8.37085,0,0,0,0,0,0,0,-1,1525,1611,7.60478,-8.37084
308,-587,5.99316,10.2291,0,0,0,0,0,0,0,-1,1532,1611,5.99315,-10.2291
315,-587,4.34558,12.3289,0,0,0,0,0,0,0,-1,1539,1611,4.34556,-12.3288
322,-587,10.4526,6.38245,0,0,0,0,0,0,0,-1,1546,1611,10.4526,-6.38245
329,-587,10.7738,8.42444,0,0,0,0,0,0,0,-1,1553,1611,10.7738,-8.42438
336,-587,7.5531,5.96619,0,0,0,0,0,0,0,-1,1560,1611,7.55311,-5.96617
343,-587,20.0991,54.4835,0,0,0,0,0,0,0,-1,1567,1611,20.0991,-54.4835
350,-587,21.0448,56.5502,0,0,0,0,0,0,0,-1,1574,1611,21.0448,-56.5501
357,-587,26.1832,62.3915,0,0,0,0,0,0,0,-1,1581,1611,26.1832,-62.3915
364,-587,20.2296,58.4607,0,0,0,0,0,0,0,-1,1588,1611,20.2296,-58.4607
371,-587,22.5784,60.5015,0,0,0,0,0,0,0,-1,1595,1611,22.5784,-60.5014
378,-587,22.5558,66.4056,0,0,0,0,0,0,0,-1,1602,1611,22.5558,-66.4056
385,-587,22.582,66.9934,0,0,0,0,0,0,0,-1,1609,1611,22.582,-66.9934
392,-587,25.6912,75.1815,0,0,0,0,0,0,0,-1,1616,1611,25.6912,-75.1815
399,-587,28.3593,100.695,0,0,0,0,0,0,0,-1,1623,1611,28.3593,-100.695
406,-587,28.3816,99.4526,0,0,0,0,0,0,0,-1,1630,1611,28.3816,-99.4527
413,-587,28.9996,101.258,0,0,0,0,0,0,0,-1,1637,1611,28.9997,-101.258
420,-587,34.3275,147.889,0,0,0,0,0,0,0,-1,1644,1611,34.3275,-147.889
427,-587,42.4089,200.49,0,0,0,0,0,0,0,-1,1651,1611,42.4089,-200.49
434,-587,41.6301,197.067,0,0,0,0,0,0,0,-1,1658,1611,41.6301,-197.067
441,-587,70.4031,221.461,0,0,0,0,0,0,0,-1,1665,1611,70.4031,-221.461
448,-587,70.4502,217.496,0,0,0,0,0,0,0,-1,1672,1611,70.4501,-217.496
455,-587,69.6262,213.381,0.0497714,0.0037769,0.0412493,0.074001,-0.0204527,0.5311,0.0573798,0.0398012,1679,1611,69.6262,-213.381
462,-587,68.6101,209.346,0.0461587,0.00404388,0.0383331,0.0688373,-0.0186348,0.534235,0.0532023,0.029575,1686,1611,68.6101,-209.346
469,-587,67.6161,205.262,0.0429044,0.00409037,0.0352931,0.0637744,-0.0167796,0.534022,0.0490752,0.024497,1693,1611,67.6161,-205.262
476,-587,66.5203,201.112,0.039745,0.00384846,0.0323543,0.058796,-0.0152025,0.53216,0.0451266,0.0160565,1700,1611,66.5203,-201.112
483,-587,65.4174,196.823,0.0369383,0.00352314,0.0296032,0.0542233,-0.0137619,0.528489,0.0415038,0.0209773,1707,1611,65.4173,-196.823
490,-587,64.2413,192.56,0.0343614,0.00305876,0.0269531,0.0498779,-0.0124577,0.522349,0.0380897,0.0241974,1714,1611,64.2413,-192.56
497,-587,63.116,188.159,0.0319116,0.00257083,0.0245767,0.0458634,-0.0113811,0.516321,0.0349918,0.0194638,1721,1611,63.116,-188.159
504,-587,61.9222,183.815,0.0299446,0.00223288,0.0223934,0.0424222,-0.0102446,0.508352,0.0322435,0.017573,1728,1611,61.9222,-183.815
511,-587,60.5758,179.422,0.0280363,0.00215485,0.0203432,0.0392059,-0.00901478,0.50212,0.0296033,0.0212514,1735,1611,60.5758,-179.422
518,-587,59.1588,174.964,0.026499,0.00251576,0.0185941,0.0366329,-0.00761812,0.499001,0.0273177,0.0478902,1742,1611,59.1588,-174.964
525,-587,57.5674,170.414,0,0,0,0,0,0,0,-1,1749,1611,57.5673,-170.414
532,-587,25.6605,64.9603,0,0,0,0,0,0,0,-1,1756,1611,25.6606,-64.9604
539,-587,24.8812,57.923,0,0,0,0,0,0,0,-1,1763,1611,24.8812,-57.923
546,-587,24.2523,48.2316,0,0,0,0,0,0,0,-1,1770,1611,24.2523,-48.2315
553,-587,20.7854,42.3828,0,0,0,0,0,0,0,-1,1777,1611,20.7854,-42.3828
560,-587,20.7347,41.9242,0,0,0,0,0,0,0,-1,1784,1611,20.7347,-41.9241
567,-587,4.03711,5.46387,0,0,0,0,0,0,0,-1,1791,1611,4.03715,-5.46382
574,-587,3.83142,5.68884,0,0,0,0,0,0,0,-1,1798,1611,3.83141,-5.68881
581,-587,3.47168,6.00977,0,0,0,0,0,0,0,-1,1805,1611,3.47167,-6.00983
588,-587,0,0,0,0,0,0,0,0,0,-1,1812,1611,0,0
595,-587,0,0,0,0,0,0,0,0,0,-1,1819,1611,0,0
602,-587,0,0,0,0,0,0,0,0,0,-1,1826,1611,0,0
609,-587,0,0,0,0,0,0,0,0,0,-1,1833,1611,0,0
616,-587,0,0,0,0,0,0,0,0,0,-1,1840,1611,0,0
623,-587,0,0,0,0,0,0,0,0,0,-1,1847,1611,0,0
630,-587,0,0,0,0,0,0,0,0,0,-1,1854,1611,0,0
637,-587,0,0,0,0,0,0,0,0,0,-1,1861,1611,0,0
644,-587,0,0,0,0,0,0,0,0,0,-1,1868,1611,0,0
651,-587,0,0,0,0,0,0,0,0,0,-1,1875,1611,0,0
658,-587,0,0,0,0,0,0,0,0,0,-1,1882,1611,0,0
665,-587,0,0,0,0,0,0,0,0,0,-1,1889,1611,0,0
672,-587,0,0,0,0,0,0,0,0,0,-1,1896,1611,0,0
679,-587,0,0,0,0,0,0,0,0,0,-1,1903,1611,0,0
686,-587,0,0,0,0,0,0,0,0,0,-1,1910,1611,0,0
693,-587,0,0,0,0,0,0,0,0,0,-1,1917,1611,0,0
700,-587,0,0,0,0,0,0,0,0,0,-1,1924,1611,0,0
707,-587,0,0,0,0,0,0,0,0,0,-1,1931,1611,0,0
714,-587,0,0,0,0,0,0,0,0,0,-1,1938,1611,0,0
721,-587,0,0,0,0,0,0,0,0,0,-1,1945,1611,0,0
728,-587,0,0,0,0,0,0,0,0,0,-1,1952,1611,0,0
735,-587,0,0,0,0,0,0,0,0,0,-1,1959,1611,0,0
742,-587,0,0,0,0,0,0,0,0,0,-1,1966,1611,0,0
749,-587,0,0,0,0,0,0,0,0,0,-1,1973,1611,0,0
756,-587,0,0,0,0,0,0,0,0,0,-1,1980,1611,0,0
763,-587,0,0,0,0,0,0,0,0,0,-1,1987,1611,0,0
770,-587,0,0,0,0,0,0,0,0,0,-1,1994,1611,0,0
777,-587,0,0,0,0,0,0,0,0,0,-1,2001,1611,0,0
784,-587,0,0,0,0,0,0,0,0,0,-1,2008,1611,0,0
791,-587,0,0,0,0,0,0,0,0,0,-1,2015,1611,0,0
798,-587,0,0,0,0,0,0,0,0,0,-1,2022,1611,0,0
805,-587,0,0,0,0,0,0,0,0,0,-1,2029,1611,0,0
812,-587,0,0,0,0,0,0,0,0,0,-1,2036,1611,0,0
-700,-594,0,0,0,0,0,0,0,0,0,-1,524,1618,0,0
-693,-594,0,0,0,0,0,0,0,0,0,-1,531,1618,0,0
-686,-594,0,0,0,0,0,0,0,0,0,-1,538,1618,0,0
-679,-594,0,0,0,0,0,0,0,0,0,-1,545,1618,0,0
-672,-594,0,0,0,0,0,0,0,0,0,-1,552,1618,0,0
-665,-594,0,0,0,0,0,0,0,0,0,-1,559,1618,0,0
-658,-594,0,0,0,0,0,0,0,0,0,-1,566,1618,0,0
-651,-594,0,0,0,0,0,0,0,0,0,-1,573,1618,0,0
-644,-594,0,0,0,0,0,0,0,0,0,-1,580,1618,0,0
-637,-594,0,0,0,0,0,0,0,0,0,-1,587,1618,0,0
-630,-594,0,0,0,0,0,0,0,0,0,-1,594,1618,0,0
-623,-594,0,0,0,0,0,0,0,0,0,-1,601,1618,0,0
-616,-594,0,0,0,0,0,0,0,0,0,-1,608,1618,0,0
-609,-594,0,0,0,0,0,0,0,0,0,-1,615,1618,0,0
-602,-594,0,0,0,0,0,0,0,0,0,-1,622,1618,0,0
-595,-594,0,0,0,0,0,0,0,0,0,-1,629,1618,0,0
-588,-594,0,0,0,0,0,0,0,0,0,-1,636,1618,0,0
-581,-594,0,0,0,0,0,0,0,0,0,-1,643,1618,0,0
-574,-594,0,0,0,0,0,0,0,0,0,-1,650,1618,0,0
-567,-594,0,0,0,0,0,0,0,0,0,-1,657,1618,0,0
-560,-594,0,0,0,0,0,0,0,0,0,-1,664,1618,0,0
-553,-594,0,0,0,0,0,0,0,0,0,-1,671,1618,0,0
-546,-594,0,0,0,0,0,0,0,0,0,-1,678,1618,0,0
-539,-594,0,0,0,0,0,0,0,0,0,-1,685,1618,0,0
-532,-594,0,0,0,0,0,0,0,0,0,-1,692,1618,0,0
-525,-594,0,0,0,0,0,0,0,0,0,-1,699,1618,0,0
-518,-594,0,0,0,0,0,0,0,0,0,-1,706,1618,0,0
-511,-594,0,0,0,0,0,0,0,0,0,-1,713,1618,0,0
-504,-594,0,0,0,0,0,0,0,0,0,-1,720,1618,0,0
-497,-594,0,0,0,0,0,0,0,0,0,-1,727,1618,0,0
-490,-594,0,0,0,0,0,0,0,0,0,-1,734,1618,0,0
-483,-594,0,0,0,0,0,0,0,0,0,-1,741,1618,0,0
-476,-594,0,0,0,0,0,0,0,0,0,-1,748,1618,0,0
-469,-594,0,0,0,0,0,0,0,0,0,-1,755,1618,0,0
-462,-594,0,0,0,0,0,0,0,0,0,-1,762,1618,0,0
-455,-594,-0.509216,-1.58411,0,0,0,0,0,0,0,-1,769,1618,-0.509245,1.58415
-448,-594,-7.71887,-0.0559082,0,0,0,0,0,0,0,-1,776,1618,-7.71885,0.055939
-441,-594,-5.78473,1.18298,0,0,0,0,0,0,0,-1,783,1618,-5.78474,-1.18295
-434,-594,-3.93628,3.06213,0,0,0,0,0,0,0,-1,790,1618,-3.93631,-3.06208
-427,-594,-3.97693,6.77759,0,0,0,0,0,0,0,-1,797,1618,-3.97695,-6.77764
-420,-594,-2.53046,7.71606,0,0,0,0,0,0,0,-1,804,1618,-2.53047,-7.71609
-413,-594,-0.860413,8.00391,0,0,0,0,0,0,0,-1,811,1618,-0.860423,-8.00389
-406,-594,2.45746,13.6218,0,0,0,0,0,0,0,-1,818,1618,2.45747,-13.6218
-399,-594,1.30414,24.9963,0,0,0,0,0,0,0,-1,825,1618,1.30415,-24.9963
-392,-594,-0.504883,35.921,0,0,0,0,0,0,0,-1,832,1618,-0.50491,-35.921
-385,-594,-10.3674,76.0038,0,0,0,0,0,0,0,-1,839,1618,-10.3675,-76.0038
-378,-594,-43.0231,176.969,0,0,0,0,0,0,0,-1,846,1618,-43.0232,-176.968
-371,-594,-44.1212,181.722,0,0,0,0,0,0,0,-1,853,1618,-44.1212,-181.722
-364,-594,-45.2921,186.109,0.0428132,0.00306568,-0.0426225,0.0699675,-0.0240886,-0.567245,0.0564157,0.0188069,860,1618,-45.2921,-186.109
-357,-594,-46.5388,190.481,0.0450959,0.00324907,-0.0452187,0.0739974,-0.0256524,-0.568709,0.0597472,0.0171462,867,1618,-46.5388,-190.481
-350,-594,-47.6641,194.606,0.0482102,0.00364285,-0.0478415,0.0787031,-0.0268501,-0.567448,0.0633449,0.029439,874,1618,-47.6642,-194.606
-343,-594,-48.5277,198.593,0.0518337,0.0043683,-0.0504105,0.0838187,-0.0276167,-0.565395,0.0670093,0.0371502,881,1618,-48.5277,-198.593
-336,-594,-49.5286,202.747,0.0557514,0.0051473,-0.0528954,0.0890848,-0.0281861,-0.562313,0.070684,0.0302932,888,1618,-49.5286,-202.747
-329,-594,-50.261,206.847,0.0599141,0.00589087,-0.0554942,0.0946215,-0.0288165,-0.558904,0.0745663,0.0254514,895,1618,-50.261,-206.847
-322,-594,-50.8756,210.992,0.0640959,0.00624129,-0.0581543,0.10012,-0.029783,-0.554606,0.0785789,0.0221575,902,1618,-50.8756,-210.992
-315,-594,-51.6955,214.956,0.0681401,0.00639637,-0.0610729,0.1057,-0.031164,-0.551382,0.0828327,0.0218488,909,1618,-51.6955,-214.956
-308,-594,-52.3116,218.756,0.0722096,0.00658109,-0.0641565,0.111457,-0.032666,-0.549007,0.0872557,0.0216076,916,1618,-52.3116,-218.756
-301,-594,-52.9968,222.57,0.0758328,0.00600928,-0.0672604,0.116702,-0.0348602,-0.546011,0.0916586,0.0250359,923,1618,-52.9968,-222.57
-294,-594,-53.8039,226.491,0,0,0,0,0,0,0,-1,930,1618,-53.8039,-226.491
-287,-594,-54.1611,230.307,0,0,0,0,0,0,0,-1,937,1618,-54.1612,-230.307
-280,-594,-26.5746,151.363,0,0,0,0,0,0,0,-1,944,1618,-26.5747,-151.363
-273,-594,-7.12677,80.9253,0,0,0,0,0,0,0,-1,951,1618,-7.12675,-80.9253
-266,-594,-6.24011,77.041,0,0,0,0,0,0,0,-1,958,1618,-6.24012,-77.041
-259,-594,-5.43719,73.2439,0,0,0,0,0,0,0,-1,965,1618,-5.43718,-73.2438
-252,-594,-3.87189,67.4364,0,0,0,0,0,0,0,-1,972,1618,-3.87187,-67.4365
-245,-594,-4.10248,71.0682,0,0,0,0,0,0,0,-1,979,1618,-4.10248,-71.0683
-238,-594,-3.80469,71.3663,0,0,0,0,0,0,0,-1,986,1618,-3.80466,-71.3663
-231,-594,-2.14069,63.0621,0,0,0,0,0,0,0,-1,993,1618,-2.14071,-63.0621
-224,-594,-3.09943,64.4106,0,0,0,0,0,0,0,-1,1000,1618,-3.09942,-64.4107
-217,-594,-3.96979,66.0715,0,0,0,0,0,0,0,-1,1007,1618,-3.96979,-66.0715
-210,-594,-5.61438,14.2119,0,0,0,0,0,0,0,-1,1014,1618,-5.6144,-14.212
-203,-594,-3.94507,15.5768,0,0,0,0,0,0,0,-1,1021,1618,-3.94506,-15.5768
-196,-594,2.78613,10.5815,0,0,0,0,0,0,0,-1,1028,1618,2.78612,-10.5815
-189,-594,2.60913,9.48865,0,0,0,0,0,0,0,-1,1035,1618,2.6091,-9.48871
-182,-594,1.2395,9.38806,0,0,0,0,0,0,0,-1,1042,1618,1.23951,-9.38804
-175,-594,0.234863,8.73792,0,0,0,0,0,0,0,-1,1049,1618,0.234812,-8.73786
-168,-594,-0.495483,8.46289,0,0,0,0,0,0,0,-1,1056,1618,-0.495513,-8.46285
-161,-594,-1.39734,8.28699,0,0,0,0,0,0,0,-1,1063,1618,-1.39729,-8.28699
-154,-594,-0.000854492,7.68445,0,0,0,0,0,0,0,-1,1070,1618,-0.000805755,-7.6845
-147,-594,0.348267,9.3385,0,0,0,0,0,0,0,-1,1077,1618,0.348237,-9.33849
-140,-594,0.675171,11.5884,0,0,0,0,0,0,0,-1,1084,1618,0.675204,-11.5884
-133,-594,0,0,0,0,0,0,0,0,0,-1,1091,1618,0,0
-126,-594,0,0,0,0,0,0,0,0,0,-1,1098,1618,0,0
-119,-594,0,0,0,0,0,0,0,0,0,-1,1105,1618,0,0
-112,-594,0,0,0,0,0,0,0,0,0,-1,1112,1618,0,0
-105,-594,0,0,0,0,0,0,0,0,0,-1,1119,1618,0,0
-98,-594,0,0,0,0,0,0,0,0,0,-1,1126,1618,0,0
-91,-594,0,0,0,0,0,0,0,0,0,-1,1133,1618,0,0
-84,-594,0,0,0,0,0,0,0,0,0,-1,1140,1618,0,0
-77,-594,0,0,0,0,0,0,0,0,0,-1,1147,1618,0,0
-70,-594,0,0,0,0,0,0,0,0,0,-1,1154,1618,0,0
-63,-594,0,0,0,0,0,0,0,0,0,-1,1161,1618,0,0
-56,-594,0,0,0,0,0,0,0,0,0,-1,1168,1618,0,0
-49,-594,0,0,0,0,0,0,0,0,0,-1,1175,1618,0,0
-42,-594,0,0,0,0,0,0,0,0,0,-1,1182,1618,0,0
-35,-594,0,0,0,0,0,0,0,0,0,-1,1189,1618,0,0
-28,-594,0,0,0,0,0,0,0,0,0,-1,1196,1618,0,0
-21,-594,0,0,0,0,0,0,0,0,0,-1,1203,1618,0,0
-14,-594,0,0,0,0,0,0,0,0,0,-1,1210,1618,0,0
-7,-594,0,0,0,0,0,0,0,0,0,-1,1217,1618,0,0
0,-594,0,0,0,0,0,0,0,0,0,-1,1224,1618,0,0
7,-594,0,0,0,0,0,0,0,0,0,-1,1231,1618,0,0
14,-594,0,0,0,0,0,0,0,0,0,-1,1238,1618,0,0
21,-594,0,0,0,0,0,0,0,0,0,-1,1245,1618,0,0
28,-594,0,0,0,0,0,0,0,0,0,-1,1252,1618,0,0
35,-594,0,0,0,0,0,0,0,0,0,-1,1259,1618,0,0
42,-594,0,0,0,0,0,0,0,0,0,-1,1266,1618,0,0
49,-594,0,0,0,0,0,0,0,0,0,-1,1273,1618,0,0
56,-594,0,0,0,0,0,0,0,0,0,-1,1280,1618,0,0
63,-594,0,0,0,0,0,0,0,0,0,-1,1287,1618,0,0
70,-594,0,0,0,0,0,0,0,0,0,-1,1294,1618,0,0
77,-594,0,0,0,0,0,0,0,0,0,-1,1301,1618,0,0
84,-594,0,0,0,0,0,0,0,0,0,-1,1308,1618,0,0
91,-594,0,0,0,0,0,0,0,0,0,-1,1315,1618,0,0
98,-594,0,0,0,0,0,0,0,0,0,-1,1322,1618,0,0
105,-594,0,0,0,0,0,0,0,0,0,-1,1329,1618,0,0
112,-594,0,0,0,0,0,0,0,0,0,-1,1336,1618,0,0
119,-594,0,0,0,0,0,0,0,0,0,-1,1343,1618,0,0
126,-594,0,0,0,0,0,0,0,0,0,-1,1350,1618,0,0
133,-594,0,0,0,0,0,0,0,0,0,-1,1357,1618,0,0
140,-594,0,0,0,0,0,0,0,0,0,-1,1364,1618,0,0
147,-594,0,0,0,0,0,0,0,0,0,-1,1371,1618,0,0
154,-594,0,0,0,0,0,0,0,0,0,-1,1378,1618,0,0
161,-594,0,0,0,0,0,0,0,0,0,-1,1385,1618,0,0
168,-594,0,0,0,0,0,0,0,0,0,-1,1392,1618,0,0
175,-594,0,0,0,0,0,0,0,0,0,-1,1399,1618,0,0
182,-594,0,0,0,0,0,0,0,0,0,-1,1406,1618,0,0
189,-594,0,0,0,0,0,0,0,0,0,-1,1413,1618,0,0
196,-594,0,0,0,0,0,0,0,0,0,-1,1420,1618,0,0
203,-594,0,0,0,0,0,0,0,0,0,-1,1427,1618,0,0
210,-594,0,0,0,0,0,0,0,0,0,-1,1434,1618,0,0
217,-594,0,0,0,0,0,0,0,0,0,-1,1441,1618,0,0
224,-594,0,0,0,0,0,0,0,0,0,-1,1448,1618,0,0
231,-594,0,0,0,0,0,0,0,0,0,-1,1455,1618,0,0
238,-594,0,0,0,0,0,0,0,0,0,-1,1462,1618,0,0
245,-594,0,0,0,0,0,0,0,0,0,-1,1469,1618,0,0
252,-594,3.03674,1.20996,0,0,0,0,0,0,0,-1,1476,1618,3.0368,-1.20999
259,-594,4.79834,1.53113,0,0,0,0,0,0,0,-1,1483,1618,4.79837,-1.53118
266,-594,3.71606,2.68152,0,0,0,0,0,0,0,-1,1490,1618,3.71609,-2.68149
273,-594,9.7655,6.33557,0,0,0,0,0,0,0,-1,1497,1618,9.76555,-6.33554
280,-594,3.13281,0.911255,0,0,0,0,0,0,0,-1,1504,1618,3.13277,-0.911207
287,-594,4.42749,1.51563,0,0,0,0,0,0,0,-1,1511,1618,4.42747,-1.51564
294,-594,5.36475,3.34937,0,0,0,0,0,0,0,-1,1518,1618,5.36475,-3.3494
301,-594,7.97144,9.04333,0,0,0,0,0,0,0,-1,1525,1618,7.9714,-9.04328
308,-594,6.30347,10.4633,0,0,0,0,0,0,0,-1,1532,1618,6.30351,-10.4633
315,-594,4.62012,11.934,0,0,0,0,0,0,0,-1,1539,1618,4.62006,-11.934
322,-594,2.91528,13.3134,0,0,0,0,0,0,0,-1,1546,1618,2.91523,-13.3133
329,-594,4.19861,9.77258,0,0,0,0,0,0,0,-1,1553,1618,4.19865,-9.77264
336,-594,10.1353,4.66528,0,0,0,0,0,0,0,-1,1560,1618,10.1353,-4.66533
343,-594,18.0483,57.3796,0,0,0,0,0,0,0,-1,1567,1618,18.0484,-57.3796
350,-594,24.8807,64.2565,0,0,0,0,0,0,0,-1,1574,1618,24.8807,-64.2565
357,-594,24.1903,62.9299,0,0,0,0,0,0,0,-1,1581,1618,24.1903,-62.93
364,-594,20.7518,62.6091,0,0,0,0,0,0,0,-1,1588,1618,20.7519,-62.6092
371,-594,22.4775,64.7457,0,0,0,0,0,0,0,-1,1595,1618,22.4775,-64.7457
378,-594,22.6462,69.2249,0,0,0,0,0,0,0,-1,1602,1618,22.6462,-69.2248
385,-594,25.8207,82.2562,0,0,0,0,0,0,0,-1,1609,1618,25.8207,-82.2562
392,-594,26.0084,90.6113,0,0,0,0,0,0,0,-1,1616,1618,26.0085,-90.6113
399,-594,29.077,116.162,0,0,0,0,0,0,0,-1,1623,1618,29.077,-116.162
406,-594,32.7993,154.188,0,0,0,0,0,0,0,-1,1630,1618,32.7993,-154.188
413,-594,50.204,233.488,0,0,0,0,0,0,0,-1,1637,1618,50.204,-233.488
420,-594,68.061,234.188,0,0,0,0,0,0,0,-1,1644,1618,68.061,-234.188
427,-594,67.6061,230.112,0,0,0,0,0,0,0,-1,1651,1618,67.6061,-230.112
434,-594,66.8903,226.458,0,0,0,0,0,0,0,-1,1658,1618,66.8903,-226.458
441,-594,66.1879,222.749,0,0,0,0,0,0,0,-1,1665,1618,66.1878,-222.749
448,-594,65.5338,218.64,0,0,0,0,0,0,0,-1,1672,1618,65.5338,-218.64
455,-594,65.1182,214.51,0.0464516,0.00398911,0.0379102,0.0686709,-0.0182302,0.530138,0.0529146,0.0495078,1679,1618,65.1182,-214.51
462,-594,64.2681,210.619,0.0427668,0.00432799,0.0349334,0.0634188,-0.016324,0.53391,0.0486423,0.0279307,1686,1618,64.2681,-210.619
469,-594,63.2321,206.67,0.0394506,0.00443552,0.0318802,0.0583142,-0.0144281,0.534297,0.0444726,0.0206538,1693,1618,63.2321,-206.67
476,-594,62.2074,202.552,0.0362827,0.00427284,0.0289652,0.0533706,-0.0128151,0.532996,0.0405331,0.0219261,1700,1618,62.2074,-202.551
483,-594,61.0432,198.34,0.0334455,0.00403981,0.0262342,0.0488161,-0.0113307,0.529984,0.0369054,0.0243246,1707,1618,61.0433,-198.34
490,-594,59.892,194.069,0.0307885,0.00366175,0.023559,0.0444095,-0.0099593,0.524211,0.0334244,0.0208295,1714,1618,59.8919,-194.069
497,-594,58.6726,189.791,0.0282712,0.00322526,0.0211229,0.0403044,-0.0088079,0.517821,0.0302362,0.0163201,1721,1618,58.6726,-189.791
504,-594,57.3802,185.444,0.0262358,0.00285563,0.0189089,0.0367765,-0.00768502,0.508539,0.0274404,0.025497,1728,1618,57.3802,-185.444
511,-594,56.0942,180.818,0,0,0,0,0,0,0,-1,1735,1618,56.0942,-180.818
518,-594,54.3795,176.3,0,0,0,0,0,0,0,-1,1742,1618,54.3795,-176.3
525,-594,22.6301,74.267,0,0,0,0,0,0,0,-1,1749,1618,22.6301,-74.267
532,-594,23.9922,59.0367,0,0,0,0,0,0,0,-1,1756,1618,23.9921,-59.0367
539,-594,22.6456,47.21,0,0,0,0,0,0,0,-1,1763,1618,22.6457,-47.2099
546,-594,7.48645,8.54785,0,0,0,0,0,0,0,-1,1770,1618,7.48639,-8.54789
553,-594,3.69714,5.68762,0,0,0,0,0,0,0,-1,1777,1618,3.69715,-5.68764
560,-594,6.06616,4.44482,0,0,0,0,0,0,0,-1,1784,1618,6.06621,-4.44477
567,-594,5.97266,4.73303,0,0,0,0,0,0,0,-1,1791,1618,5.97271,-4.73309
574,-594,5.9906,4.96326,0,0,0,0,0,0,0,-1,1798,1618,5.99065,-4.96326
581,-594,0,0,0,0,0,0,0,0,0,-1,1805,1618,0,0
588,-594,0,0,0,0,0,0,0,0,0,-1,1812,1618,0,0
595,-594,0,0,0,0,0,0,0,0,0,-1,1819,1618,0,0
602,-594,0,0,0,0,0,0,0,0,0,-1,1826,1618,0,0
609,-594,0,0,0,0,0,0,0,0,0,-1,1833,1618,0,0
616,-594,0,0,0,0,0,0,0,0,0,-1,1840,1618,0,0
623,-594,0,0,0,0,0,0,0,0,0,-1,1847,1618,0,0
630,-594,0,0,0,0,0,0,0,0,0,-1,1854,1618,0,0
637,-594,0,0,0,0,0,0,0,0,0,-1,1861,1618,0,0
644,-594,0,0,0,0,0,0,0,0,0,-1,1868,1618,0,0
651,-594,0,0,0,0,0,0,0,0,0,-1,1875,1618,0,0
658,-594,0,0,0,0,0,0,0,0,0,-1,1882,1618,0,0
665,-594,0,0,0,0,0,0,0,0,0,-1,1889,1618,0,0
672,-594,0,0,0,0,0,0,0,0,0,-1,1896,1618,0,0
679,-594,0,0,0,0,0,0,0,0,0,-1,1903,1618,0,0
686,-594,0,0,0,0,0,0,0,0,0,-1,1910,1618,0,0
693,-594,0,0,0,0,0,0,0,0,0,-1,1917,1618,0,0
700,-594,0,0,0,0,0,0,0,0,0,-1,1924,1618,0,0
707,-594,0,0,0,0,0,0,0,0,0,-1,1931,1618,0,0
714,-594,0,0,0,0,0,0,0,0,0,-1,1938,1618,0,0
721,-594,0,0,0,0,0,0,0,0,0,-1,1945,1618,0,0
728,-594,0,0,0,0,0,0,0,0,0,-1,1952,1618,0,0
735,-594,0,0,0,0,0,0,0,0,0,-1,1959,1618,0,0
742,-594,0,0,0,0,0,0,0,0,0,-1,1966,1618,0,0
749,-594,0,0,0,0,0,0,0,0,0,-1,1973,1618,0,0
756,-594,0,0,0,0,0,0,0,0,0,-1,1980,1618,0,0
763,-594,0,0,0,0,0,0,0,0,0,-1,1987,1618,0,0
770,-594,0,0,0,0,0,0,0,0,0,-1,1994,1618,0,0
777,-594,0,0,0,0,0,0,0,0,0,-1,2001,1618,0,0
784,-594,0,0,0,0,0,0,0,0,0,-1,2008,1618,0,0
791,-594,0,0,0,0,0,0,0,0,0,-1,2015,1618,0,0
798,-594,0,0,0,0,0,0,0,0,0,-1,2022,1618,0,0
805,-594,0,0,0,0,0,0,0,0,0,-1,2029,1618,0,0
812,-594,0,0,0,0,0,0,0,0,0,-1,2036,1618,0,0
-700,-601,0,0,0,0,0,0,0,0,0,-1,524,1625,0,0
-693,-601,0,0,0,0,0,0,0,0,0,-1,531,1625,0,0
-686,-601,0,0,0,0,0,0,0,0,0,-1,538,1625,0,0
-679,-601,0,0,0,0,0,0,0,0,0,-1,545,1625,0,0
-672,-601,0,0,0,0,0,0,0,0,0,-1,552,1625,0,0
-665,-601,0,0,0,0,0,0,0,0,0,-1,559,1625,0,0
-658,-601,0,0,0,0,0,0,0,0,0,-1,566,1625,0,0
-651,-601,0,0,0,0,0,0,0,0,0,-1,573,1625,0,0
-644,-601,0,0,0,0,0,0,0,0,0,-1,580,1625,0,0
-637,-601,0,0,0,0,0,0,0,0,0,-1,587,1625,0,0
-630,-601,0,0,0,0,0,0,0,0,0,-1,594,1625,0,0
-623,-601,0,0,0,0,0,0,0,0,0,-1,601,1625,0,0
-616,-601,0,0,0,0,0,0,0,0,0,-1,608,1625,0,0
-609,-601,0,0,0,0,0,0,0,0,0,-1,615,1625,0,0
-602,-601,0,0,0,0,0,0,0,0,0,-1,622,1625,0,0
-595,-601,0,0,0,0,0,0,0,0,0,-1,629,1625,0,0
-588,-601,0,0,0,0,0,0,0,0,0,-1,636,1625,0,0
-581,-601,0,0,0,0,0,0,0,0,0,-1,643,1625,0,0
-574,-601,0,0,0,0,0,0,0,0,0,-1,650,1625,0,0
-567,-601,0,0,0,0,0,0,0,0,0,-1,657,1625,0,0
-560,-601,0,0,0,0,0,0,0,0,0,-1,664,1625,0,0
-553,-601,0,0,0,0,0,0,0,0,0,-1,671,1625,0,0
-546,-601,0,0,0,0,0,0,0,0,0,-1,678,1625,0,0
-539,-601,0,0,0,0,0,0,0,0,0,-1,685,1625,0,0
-532,-601,0,0,0,0,0,0,0,0,0,-1,692,1625,0,0
-525,-601,0,0,0,0,0,0,0,0,0,-1,699,1625,0,0
-518,-601,0,0,0,0,0,0,0,0,0,-1,706,1625,0,0
-511,-601,0,0,0,0,0,0,0,0,0,-1,713,1625,0,0
-504,-601,0,0,0,0,0,0,0,0,0,-1,720,1625,0,0
-497,-601,0,0,0,0,0,0,0,0,0,-1,727,1625,0,0
-490,-601,0,0,0,0,0,0,0,0,0,-1,734,1625,0,0
-483,-601,0,0,0,0,0,0,0,0,0,-1,741,1625,0,0
-476,-601,0,0,0,0,0,0,0,0,0,-1,748,1625,0,0
-469,-601,0,0,0,0,0,0,0,0,0,-1,755,1625,0,0
-462,-601,0,0,0,0,0,0,0,0,0,-1,762,1625,0,0
-455,-601,0,0,0,0,0,0,0,0,0,-1,769,1625,0,0
-448,-601,-7.07623,2.7616,0,0,0,0,0,0,0,-1,776,1625,-7.07626,-2.76161
-441,-601,-6.06689,3.33447,0,0,0,0,0,0,0,-1,783,1625,-6.06691,-3.33448
-434,-601,-5.02655,3.8468,0,0,0,0,0,0,0,-1,790,1625,-5.02657,-3.84674
-427,-601,-5.78601,4.2406,0,0,0,0,0,0,0,-1,797,1625,-5.786,-4.24058
-420,-601,-5.5191,5.60364,0,0,0,0,0,0,0,-1,804,1625,-5.51907,-5.60368
-413,-601,-4.30756,5.86047,0,0,0,0,0,0,0,-1,811,1625,-4.30757,-5.86046
-406,-601,-1.67493,7.20422,0,0,0,0,0,0,0,-1,818,1625,-1.67493,-7.20428
-399,-601,1.40094,15.3108,0,0,0,0,0,0,0,-1,825,1625,1.40096,-15.3107
-392,-601,0.678833,30.98,0,0,0,0,0,0,0,-1,832,1625,0.678827,-30.98
-385,-601,-0.0147095,37.3687,0,0,0,0,0,0,0,-1,839,1625,-0.0147267,-37.3687
-378,-601,-9.49316,77.9558,0,0,0,0,0,0,0,-1,846,1625,-9.49313,-77.9558
-371,-601,-24.0523,163.544,0,0,0,0,0,0,0,-1,853,1625,-24.0523,-163.544
-364,-601,-40.7197,187.682,0,0,0,0,0,0,0,-1,860,1625,-40.7196,-187.682
-357,-601,-42.1365,192.074,0.0403134,0.00284621,-0.0418533,0.0674344,-0.0242748,-0.574969,0.054868,0.0189673,867,1625,-42.1365,-192.074
-350,-601,-43.2274,196.136,0.043672,0.0031207,-0.044385,0.0721932,-0.0254005,-0.571145,0.0584647,0.0397353,874,1625,-43.2274,-196.136
-343,-601,-43.988,200.165,0.0472699,0.0040451,-0.0470228,0.0774092,-0.0260943,-0.569988,0.0621576,0.0491832,881,1625,-43.988,-200.165
-336,-601,-44.9346,204.225,0.0509658,0.00492763,-0.0495286,0.0825631,-0.0266697,-0.567867,0.0657601,0.0407282,888,1625,-44.9347,-204.225
-329,-601,-45.7725,208.423,0.0548356,0.00588099,-0.0521676,0.0879828,-0.0272663,-0.566043,0.069549,0.0308658,895,1625,-45.7725,-208.423
-322,-601,-46.608,212.53,0.0586956,0.00649602,-0.0549901,0.0934655,-0.0282738,-0.563826,0.0735688,0.0194438,902,1625,-46.608,-212.53
-315,-601,-47.3892,216.452,0.0626094,0.00679289,-0.0579316,0.0990047,-0.0296024,-0.56093,0.0777717,0.0188494,909,1625,-47.3891,-216.452
-308,-601,-48.0375,220.231,0.0665455,0.00701958,-0.0610489,0.1047,-0.0311351,-0.558589,0.0821689,0.0178353,916,1625,-48.0375,-220.231
-301,-601,-48.6617,223.931,0.0703067,0.00674457,-0.0642377,0.110195,-0.0331438,-0.555682,0.0866507,0.0251994,923,1625,-48.6617,-223.931
-294,-601,-49.2943,227.825,0,0,0,0,0,0,0,-1,930,1625,-49.2943,-227.825
-287,-601,-49.5657,231.562,0,0,0,0,0,0,0,-1,937,1625,-49.5657,-231.562
-280,-601,-49.3836,235.148,0,0,0,0,0,0,0,-1,944,1625,-49.3836,-235.148
-273,-601,-49.1201,239.14,0,0,0,0,0,0,0,-1,951,1625,-49.1201,-239.14
-266,-601,-40.8055,236.129,0,0,0,0,0,0,0,-1,958,1625,-40.8055,-236.129
-259,-601,-18.8072,134.813,0,0,0,0,0,0,0,-1,965,1625,-18.8072,-134.813
-252,-601,-5.5199,84.9717,0,0,0,0,0,0,0,-1,972,1625,-5.51992,-84.9717
-245,-601,-5.19122,85.542,0,0,0,0,0,0,0,-1,979,1625,-5.19122,-85.542
-238,-601,-4.50085,79.6481,0,0,0,0,0,0,0,-1,986,1625,-4.50088,-79.648
-231,-601,-3.33917,71.8477,0,0,0,0,0,0,0,-1,993,1625,-3.33918,-71.8476
-224,-601,-3.03302,65.2062,0,0,0,0,0,0,0,-1,1000,1625,-3.033,-65.2062
-217,-601,3.39429,10.3898,0,0,0,0,0,0,0,-1,1007,1625,3.39431,-10.3898
-210,-601,-6.53699,15.7931,0,0,0,0,0,0,0,-1,1014,1625,-6.53697,-15.7931
-203,-601,2.69348,15.9099,0,0,0,0,0,0,0,-1,1021,1625,2.69351,-15.91
-196,-601,2.66992,16.1815,0,0,0,0,0,0,0,-1,1028,1625,2.66995,-16.1815
-189,-601,2.849,16.6105,0,0,0,0,0,0,0,-1,1035,1625,2.84902,-16.6104
-182,-601,1.82153,13.9752,0,0,0,0,0,0,0,-1,1042,1625,1.82155,-13.9752
-175,-601,0.544922,9.28687,0,0,0,0,0,0,0,-1,1049,1625,0.544879,-9.28685
-168,-601,-0.247559,8.97461,0,0,0,0,0,0,0,-1,1056,1625,-0.247598,-8.97466
-161,-601,-1.16833,8.80078,0,0,0,0,0,0,0,-1,1063,1625,-1.16837,-8.80081
-154,-601,1.12756,7.94861,0,0,0,0,0,0,0,-1,1070,1625,1.12762,-7.94855
-147,-601,1.35352,9.55432,0,0,0,0,0,0,0,-1,1077,1625,1.35351,-9.55429
-140,-601,1.72437,11.1498,0,0,0,0,0,0,0,-1,1084,1625,1.72432,-11.1498
-133,-601,2.13281,12.8347,0,0,0,0,0,0,0,-1,1091,1625,2.13287,-12.8348
-126,-601,3.09534,15.427,0,0,0,0,0,0,0,-1,1098,1625,3.0953,-15.4271
-119,-601,1.22485,9.43457,0,0,0,0,0,0,0,-1,1105,1625,1.22489,-9.43456
-112,-601,0,0,0,0,0,0,0,0,0,-1,1112,1625,0,0
-105,-601,0,0,0,0,0,0,0,0,0,-1,1119,1625,0,0
-98,-601,0,0,0,0,0,0,0,0,0,-1,1126,1625,0,0
-91,-601,0,0,0,0,0,0,0,0,0,-1,1133,1625,0,0
-84,-601,0,0,0,0,0,0,0,0,0,-1,1140,1625,0,0
-77,-601,0,0,0,0,0,0,0,0,0,-1,1147,1625,0,0
-70,-601,0,0,0,0,0,0,0,0,0,-1,1154,1625,0,0
-63,-601,0,0,0,0,0,0,0,0,0,-1,1161,1625,0,0
-56,-601,0,0,0,0,0,0,0,0,0,-1,1168,1625,0,0
-49,-601,0,0,0,0,0,0,0,0,0,-1,1175,1625,0,0
-42,-601,0,0,0,0,0,0,0,0,0,-1,1182,1625,0,0
-35,-601,0,0,0,0,0,0,0,0,0,-1,1189,1625,0,0
-28,-601,0,0,0,0,0,0,0,0,0,-1,1196,1625,0,0
-21,-601,0,0,0,0,0,0,0,0,0,-1,1203,1625,0,0
-14,-601,0,0,0,0,0,0,0,0,0,-1,1210,1625,0,0
-7,-601,0,0,0,0,0,0,0,0,0,-1,1217,1625,0,0
0,-601,0,0,0,0,0,0,0,0,0,-1,1224,1625,0,0
7,-601,0,0,0,0,0,0,0,0,0,-1,1231,1625,0,0
14,-601,0,0,0,0,0,0,0,0,0,-1,1238,1625,0,0
21,-601,0,0,0,0,0,0,0,0,0,-1,1245,1625,0,0
28,-601,0,0,0,0,0,0,0,0,0,-1,1252,1625,0,0
35,-601,0,0,0,0,0,0,0,0,0,-1,1259,1625,0,0
42,-601,0,0,0,0,0,0,0,0,0,-1,1266,1625,0,0
49,-601,0,0,0,0,0,0,0,0,0,-1,1273,1625,0,0
56,-601,0,0,0,0,0,0,0,0,0,-1,1280,1625,0,0
63,-601,0,0,0,0,0,0,0,0,0,-1,1287,1625,0,0
70,-601,0,0,0,0,0,0,0,0,0,-1,1294,1625,0,0
77,-601,0,0,0,0,0,0,0,0,0,-1,1301,1625,0,0
84,-601,0,0,0,0,0,0,0,0,0,-1,1308,1625,0,0
91,-601,0,0,0,0,0,0,0,0,0,-1,1315,1625,0,0
98,-601,0,0,0,0,0,0,0,0,0,-1,1322,1625,0,0
105,-601,0,0,0,0,0,0,0,0,0,-1,1329,1625,0,0
112,-601,0,0,0,0,0,0,0,0,0,-1,1336,1625,0,0
119,-601,0,0,0,0,0,0,0,0,0,-1,1343,1625,0,0
126,-601,0,0,0,0,0,0,0,0,0,-1,1350,1625,0,0
133,-601,0,0,0,0,0,0,0,0,0,-1,1357,1625,0,0
140,-601,0,0,0,0,0,0,0,0,0,-1,1364,1625,0,0
147,-601,0,0,0,0,0,0,0,0,0,-1,1371,1625,0,0
154,-601,0,0,0,0,0,0,0,0,0,-1,1378,1625,0,0
161,-601,0,0,0,0,0,0,0,0,0,-1,1385,1625,0,0
168,-601,0,0,0,0,0,0,0,0,0,-1,1392,1625,0,0
175,-601,0,0,0,0,0,0,0,0,0,-1,1399,1625,0,0
182,-601,0,0,0,0,0,0,0,0,0,-1,1406,1625,0,0
189,-601,0,0,0,0,0,0,0,0,0,-1,1413,1625,0,0
196,-601,0,0,0,0,0,0,0,0,0,-1,1420,1625,0,0
203,-601,0,0,0,0,0,0,0,0,0,-1,1427,1625,0,0
210,-601,0,0,0,0,0,0,0,0,0,-1,1434,1625,0,0
217,-601,0,0,0,0,0,0,0,0,0,-1,1441,1625,0,0
224,-601,0,0,0,0,0,0,0,0,0,-1,1448,1625,0,0
231,-601,-0.0371094,0.525879,0,0,0,0,0,0,0,-1,1455,1625,-0.0371518,-0.525824
238,-601,2.03369,-1.32861,0,0,0,0,0,0,0,-1,1462,1625,2.03364,1.32858
245,-601,2.71375,2.44983,0,0,0,0,0,0,0,-1,1469,1625,2.71371,-2.44979
252,-601,4.66943,2.28381,0,0,0,0,0,0,0,-1,1476,1625,4.66947,-2.28376
259,-601,6.42712,2.61987,0,0,0,0,0,0,0,-1,1483,1625,6.42711,-2.61985
266,-601,6.75317,1.68701,0,0,0,0,0,0,0,-1,1490,1625,6.75323,-1.687
273,-601,5.4314,2.92053,0,0,0,0,0,0,0,-1,1497,1625,5.43144,-2.92051
280,-601,4.64722,1.17786,0,0,0,0,0,0,0,-1,1504,1625,4.64722,-1.1779
287,-601,5.32532,2.6217,0,0,0,0,0,0,0,-1,1511,1625,5.32535,-2.62171
294,-601,5.97693,4.22693,0,0,0,0,0,0,0,-1,1518,1625,5.97697,-4.22694
301,-601,7.28162,9.50024,0,0,0,0,0,0,0,-1,1525,1625,7.28162,-9.50025
308,-601,6.53528,10.3927,0,0,0,0,0,0,0,-1,1532,1625,6.53529,-10.3927
315,-601,4.88013,11.7184,0,0,0,0,0,0,0,-1,1539,1625,4.88015,-11.7184
322,-601,3.38098,12.7864,0,0,0,0,0,0,0,-1,1546,1625,3.38104,-12.7864
329,-601,1.8772,13.8768,0,0,0,0,0,0,0,-1,1553,1625,1.87716,-13.8768
336,-601,4.67847,9.53308,0,0,0,0,0,0,0,-1,1560,1625,4.67848,-9.53309
343,-601,11.1404,3.14575,0,0,0,0,0,0,0,-1,1567,1625,11.1404,-3.1458
350,-601,22.2609,65.0352,0,0,0,0,0,0,0,-1,1574,1625,22.2608,-65.0352
357,-601,22.0867,63.3602,0,0,0,0,0,0,0,-1,1581,1625,22.0867,-63.3603
364,-601,20.9148,63.1563,0,0,0,0,0,0,0,-1,1588,1625,20.9148,-63.1563
371,-601,25.7045,110.517,0,0,0,0,0,0,0,-1,1595,1625,25.7044,-110.517
378,-601,26.113,103.917,0,0,0,0,0,0,0,-1,1602,1625,26.113,-103.918
385,-601,25.7329,93.0115,0,0,0,0,0,0,0,-1,1609,1625,25.7329,-93.0114
392,-601,27.6798,117.651,0,0,0,0,0,0,0,-1,1616,1625,27.6798,-117.651
399,-601,30.7197,156.291,0,0,0,0,0,0,0,-1,1623,1625,30.7197,-156.291
406,-601,64.4818,242.613,0,0,0,0,0,0,0,-1,1630,1625,64.4819,-242.613
413,-601,64.4976,239.222,0,0,0,0,0,0,0,-1,1637,1625,64.4976,-239.222
420,-601,64.0935,235.296,0.0650667,0.000603176,0.0483289,0.0909259,-0.0252561,0.491307,0.0705591,0.0263113,1644,1625,64.0936,-235.296
427,-601,63.5769,231.475,0.0601491,0.00145266,0.0455223,0.0849635,-0.0233618,0.499078,0.0658263,0.0231086,1651,1625,63.5769,-231.475
434,-601,62.8512,227.771,0.0555952,0.00238809,0.0429687,0.0795293,-0.021546,0.508212,0.0614733,0.0210016,1658,1625,62.8512,-227.771
441,-601,62.0977,223.952,0.0510813,0.00324807,0.0402934,0.0740215,-0.0196921,0.517562,0.0570559,0.024223,1665,1625,62.0976,-223.952
448,-601,61.4324,219.805,0.0467458,0.00390239,0.037324,0.0683586,-0.0177104,0.52488,0.0524816,0.0471863,1672,1625,61.4324,-219.805
455,-601,60.62,215.888,0.0427732,0.00441938,0.0343262,0.0629161,-0.0157235,0.530662,0.0480505,0.0416847,1679,1625,60.62,-215.888
462,-601,59.8245,212.039,0.0390862,0.00479769,0.0313259,0.0576524,-0.0137685,0.535019,0.0437526,0.0225465,1686,1625,59.8244,-212.039
469,-601,58.9373,208.063,0.0357479,0.00494624,0.0282982,0.0525647,-0.0118705,0.536195,0.0395976,0.0203148,1693,1625,58.9372,-208.063
476,-601,57.8658,203.923,0.0326441,0.00485451,0.0254168,0.0477162,-0.0102176,0.535254,0.0357073,0.022822,1700,1625,57.8658,-203.923
483,-601,56.6993,199.764,0.0298091,0.00466383,0.0227047,0.0431898,-0.00871685,0.532541,0.0320959,0.0233921,1707,1625,56.6994,-199.764
490,-601,55.5078,195.529,0.027052,0.00435016,0.0199994,0.0386971,-0.00729498,0.527285,0.0285422,0.0201573,1714,1625,55.5079,-195.529
497,-601,54.228,191.356,0.0244769,0.00393998,0.0174811,0.0344823,-0.00606539,0.519844,0.025254,0.0332132,1721,1625,54.228,-191.357
504,-601,52.9095,187.031,0,0,0,0,0,0,0,-1,1728,1625,52.9096,-187.031
511,-601,24.7172,89.2206,0,0,0,0,0,0,0,-1,1735,1625,24.7171,-89.2206
518,-601,22.5652,60.4095,0,0,0,0,0,0,0,-1,1742,1625,22.5652,-60.4096
525,-601,21.0905,50.1962,0,0,0,0,0,0,0,-1,1749,1625,21.0905,-50.1961
532,-601,15.9053,24.3068,0,0,0,0,0,0,0,-1,1756,1625,15.9053,-24.3067
539,-601,7.77112,11.4299,0,0,0,0,0,0,0,-1,1763,1625,7.77116,-11.4299
546,-601,6.56873,3.62354,0,0,0,0,0,0,0,-1,1770,1625,6.56867,-3.62352
553,-601,7.03015,4.25049,0,0,0,0,0,0,0,-1,1777,1625,7.03011,-4.25048
560,-601,7.50745,4.83374,0,0,0,0,0,0,0,-1,1784,1625,7.50744,-4.83376
567,-601,7.82043,3.83301,0,0,0,0,0,0,0,-1,1791,1625,7.82041,-3.83303
574,-601,0,0,0,0,0,0,0,0,0,-1,1798,1625,0,0
581,-601,0,0,0,0,0,0,0,0,0,-1,1805,1625,0,0
588,-601,0,0,0,0,0,0,0,0,0,-1,1812,1625,0,0
595,-601,0,0,0,0,0,0,0,0,0,-1,1819,1625,0,0
602,-601,0,0,0,0,0,0,0,0,0,-1,1826,1625,0,0
609,-601,0,0,0,0,0,0,0,0,0,-1,1833,1625,0,0
616,-601,0,0,0,0,0,0,0,0,0,-1,1840,1625,0,0
623,-601,0,0,0,0,0,0,0,0,0,-1,1847,1625,0,0
630,-601,0,0,0,0,0,0,0,0,0,-1,1854,1625,0,0
637,-601,0,0,0,0,0,0,0,0,0,-1,1861,1625,0,0
644,-601,0,0,0,0,0,0,0,0,0,-1,1868,1625,0,0
651,-601,0,0,0,0,0,0,0,0,0,-1,1875,1625,0,0
658,-601,0,0,0,0,0,0,0,0,0,-1,1882,1625,0,0
665,-601,0,0,0,0,0,0,0,0,0,-1,1889,1625,0,0
672,-601,0,0,0,0,0,0,0,0,0,-1,1896,1625,0,0
679,-601,0,0,0,0,0,0,0,0,0,-1,1903,1625,0,0
686,-601,0,0,0,0,0,0,0,0,0,-1,1910,1625,0,0
693,-601,0,0,0,0,0,0,0,0,0,-1,1917,1625,0,0
700,-601,0,0,0,0,0,0,0,0,0,-1,1924,1625,0,0
707,-601,0,0,0,0,0,0,0,0,0,-1,1931,1625,0,0
714,-601,0,0,0,0,0,0,0,0,0,-1,1938,1625,0,0
721,-601,0,0,0,0,0,0,0,0,0,-1,1945,1625,0,0
728,-601,0,0,0,0,0,0,0,0,0,-1,1952,1625,0,0
735,-601,0,0,0,0,0,0,0,0,0,-1,1959,1625,0,0
742,-601,0,0,0,0,0,0,0,0,0,-1,1966,1625,0,0
749,-601,0,0,0,0,0,0,0,0,0,-1,1973,1625,0,0
756,-601,0,0,0,0,0,0,0,0,0,-1,1980,1625,0,0
763,-601,0,0,0,0,0,0,0,0,0,-1,1987,1625,0,0
770,-601,0,0,0,0,0,0,0,0,0,-1,1994,1625,0,0
777,-601,0,0,0,0,0,0,0,0,0,-1,2001,1625,0,0
784,-601,0,0,0,0,0,0,0,0,0,-1,2008,1625,0,0
791,-601,0,0,0,0,0,0,0,0,0,-1,2015,1625,0,0
798,-601,0,0,0,0,0,0,0,0,0,-1,2022,1625,0,0
805,-601,0,0,0,0,0,0,0,0,0,-1,2029,1625,0,0
812,-601,0,0,0,0,0,0,0,0,0,-1,2036,1625,0,0
-700,-608,0,0,0,0,0,0,0,0,0,-1,524,1632,0,0
-693,-608,0,0,0,0,0,0,0,0,0,-1,531,1632,0,0
-686,-608,0,0,0,0,0,0,0,0,0,-1,538,1632,0,0
-679,-608,0,0,0,0,0,0,0,0,0,-1,545,1632,0,0
-672,-608,0,0,0,0,0,0,0,0,0,-1,552,1632,0,0
-665,-608,0,0,0,0,0,0,0,0,0,-1,559,1632,0,0
-658,-608,0,0,0,0,0,0,0,0,0,-1,566,1632,0,0
-651,-608,0,0,0,0,0,0,0,0,0,-1,573,1632,0,0
-644,-608,0,0,0,0,0,0,0,0,0,-1,580,1632,0,0
-637,-608,0,0,0,0,0,0,0,0,0,-1,587,1632,0,0
-630,-608,0,0,0,0,0,0,0,0,0,-1,594,1632,0,0
-623,-608,0,0,0,0,0,0,0,0,0,-1,601,1632,0,0
-616,-608,0,0,0,0,0,0,0,0,0,-1,608,1632,0,0
-609,-608,0,0,0,0,0,0,0,0,0,-1,615,1632,0,0
-602,-608,0,0,0,0,0,0,0,0,0,-1,622,1632,0,0
-595,-608,0,0,0,0,0,0,0,0,0,-1,629,1632,0,0
-588,-608,0,0,0,0,0,0,0,0,0,-1,636,1632,0,0
-581,-608,0,0,0,0,0,0,0,0,0,-1,643,1632,0,0
-574,-608,0,0,0,0,0,0,0,0,0,-1,650,1632,0,0
-567,-608,0,0,0,0,0,0,0,0,0,-1,657,1632,0,0
-560,-608,0,0,0,0,0,0,0,0,0,-1,664,1632,0,0
-553,-608,0,0,0,0,0,0,0,0,0,-1,671,1632,0,0
-546,-608,0,0,0,0,0,0,0,0,0,-1,678,1632,0,0
-539,-608,0,0,0,0,0,0,0,0,0,-1,685,1632,0,0
-532,-608,0,0,0,0,0,0,0,0,0,-1,692,1632,0,0
-525,-608,0,0,0,0,0,0,0,0,0,-1,699,1632,0,0
-518,-608,0,0,0,0,0,0,0,0,0,-1,706,1632,0,0
-511,-608,0,0,0,0,0,0,0,0,0,-1,713,1632,0,0
-504,-608,0,0,0,0,0,0,0,0,0,-1,720,1632,0,0
-497,-608,0,0,0,0,0,0,0,0,0,-1,727,1632,0,0
-490,-608,0,0,0,0,0,0,0,0,0,-1,734,1632,0,0
-483,-608,0,0,0,0,0,0,0,0,0,-1,741,1632,0,0
-476,-608,0,0,0,0,0,0,0,0,0,-1,748,1632,0,0
-469,-608,0,0,0,0,0,0,0,0,0,-1,755,1632,0,0
-462,-608,0,0,0,0,0,0,0,0,0,-1,762,1632,0,0
-455,-608,0,0,0,0,0,0,0,0,0,-1,769,1632,0,0
-448,-608,0,0,0,0,0,0,0,0,0,-1,776,1632,0,0
-441,-608,-7.34601,2.78052,0,0,0,0,0,0,0,-1,783,1632,-7.346,-2.78056
-434,-608,-6.34558,3.27405,0,0,0,0,0,0,0,-1,790,1632,-6.34555,-3.27406
-427,-608,-7.74335,4.17688,0,0,0,0,0,0,0,-1,797,1632,-7.74334,-4.17693
-420,-608,-6.82794,4.34839,0,0,0,0,0,0,0,-1,804,1632,-6.82794,-4.34838
-413,-608,-5.41919,5.66138,0,0,0,0,0,0,0,-1,811,1632,-5.41917,-5.66133
-406,-608,-4.79681,4.98999,0,0,0,0,0,0,0,-1,818,1632,-4.79684,-4.98997
-399,-608,-2.60645,6.34167,0,0,0,0,0,0,0,-1,825,1632,-2.60643,-6.34169
-392,-608,2.08356,15.437,0,0,0,0,0,0,0,-1,832,1632,2.08354,-15.437
-385,-608,1.51526,31.5153,0,0,0,0,0,0,0,-1,839,1632,1.51527,-31.5153
-378,-608,0.340515,38.2742,0,0,0,0,0,0,0,-1,846,1632,0.340526,-38.2742
-371,-608,-2.89227,60.2308,0,0,0,0,0,0,0,-1,853,1632,-2.89227,-60.2308
-364,-608,-21.5961,167.835,0,0,0,0,0,0,0,-1,860,1632,-21.5962,-167.835
-357,-608,-37.6595,193.592,0,0,0,0,0,0,0,-1,867,1632,-37.6595,-193.592
-350,-608,-38.8975,197.611,0,0,0,0,0,0,0,-1,874,1632,-38.8975,-197.611
-343,-608,-39.6144,201.929,0.042418,0.00350851,-0.0434836,0.0706006,-0.024674,-0.575052,0.0570974,0.0446982,881,1632,-39.6144,-201.929
-336,-608,-40.4007,205.784,0.0460477,0.00460901,-0.0459118,0.0756988,-0.0250421,-0.573437,0.0605643,0.0313736,888,1632,-40.4007,-205.784
-329,-608,-41.3505,209.931,0.0498407,0.00583723,-0.0484,0.0810051,-0.0253272,-0.57207,0.064135,0.0274245,895,1632,-41.3505,-209.931
-322,-608,-42.1746,214.022,0.0535649,0.00666168,-0.0511922,0.0864215,-0.0261949,-0.57061,0.0680479,0.0340791,902,1632,-42.1745,-214.022
-315,-608,-42.9779,217.787,0.0573565,0.00708312,-0.0540615,0.0918394,-0.0273998,-0.567784,0.072116,0.0335437,909,1632,-42.9779,-217.787
-308,-608,-43.5107,221.716,0.0611645,0.00729283,-0.057149,0.0974073,-0.02895,-0.565175,0.076438,0.0356763,916,1632,-43.5107,-221.716
-301,-608,-43.955,225.38,0.0649788,0.00714571,-0.060399,0.103026,-0.0309019,-0.562143,0.0809749,0.0301445,923,1632,-43.9549,-225.38
-294,-608,-44.438,228.985,0,0,0,0,0,0,0,-1,930,1632,-44.438,-228.985
-287,-608,-45.3198,232.794,0,0,0,0,0,0,0,-1,937,1632,-45.3198,-232.794
-280,-608,-45.4548,236.348,0,0,0,0,0,0,0,-1,944,1632,-45.4548,-236.348
-273,-608,-45.5898,239.901,0,0,0,0,0,0,0,-1,951,1632,-45.5898,-239.901
-266,-608,-45.9879,243.236,0,0,0,0,0,0,0,-1,958,1632,-45.9879,-243.236
-259,-608,-45.9523,246.387,0,0,0,0,0,0,0,-1,965,1632,-45.9523,-246.387
-252,-608,-19.696,147.72,0,0,0,0,0,0,0,-1,972,1632,-19.6961,-147.72
-245,-608,-6.69507,93.6216,0,0,0,0,0,0,0,-1,979,1632,-6.69507,-93.6216
-238,-608,-4.35168,86.9574,0,0,0,0,0,0,0,-1,986,1632,-4.35168,-86.9574
-231,-608,-3.63574,80.2905,0,0,0,0,0,0,0,-1,993,1632,-3.63575,-80.2905
-224,-608,-5.05853,91.6997,0,0,0,0,0,0,0,-1,1000,1632,-5.0585,-91.6998
-217,-608,1.04419,12.8451,0,0,0,0,0,0,0,-1,1007,1632,1.04418,-12.8451
-210,-608,2.75903,15.9414,0,0,0,0,0,0,0,-1,1014,1632,2.75903,-15.9414
-203,-608,2.76776,16.217,0,0,0,0,0,0,0,-1,1021,1632,2.76773,-16.217
-196,-608,1.53955,18.6058,0,0,0,0,0,0,0,-1,1028,1632,1.53959,-18.6058
-189,-608,1.37634,19.119,0,0,0,0,0,0,0,-1,1035,1632,1.37634,-19.1191
-182,-608,2.89221,16.7092,0,0,0,0,0,0,0,-1,1042,1632,2.89224,-16.7093
-175,-608,0.219116,15.1643,0,0,0,0,0,0,0,-1,1049,1632,0.219173,-15.1644
-168,-608,0.000366211,9.48645,0,0,0,0,0,0,0,-1,1056,1632,0.000317105,-9.48648
-161,-608,2.27832,15.4423,0,0,0,0,0,0,0,-1,1063,1632,2.27826,-15.4423
-154,-608,1.3999,16.4037,0,0,0,0,0,0,0,-1,1070,1632,1.39987,-16.4037
-147,-608,2.4386,9.50317,0,0,0,0,0,0,0,-1,1077,1632,2.43858,-9.50313
-140,-608,2.60132,10.8401,0,0,0,0,0,0,0,-1,1084,1632,2.60134,-10.8401
-133,-608,3.2312,12.4738,0,0,0,0,0,0,0,-1,1091,1632,3.23116,-12.4738
-126,-608,3.76465,13.9644,0,0,0,0,0,0,0,-1,1098,1632,3.76466,-13.9644
-119,-608,4.28906,15.4196,0,0,0,0,0,0,0,-1,1105,1632,4.28911,-15.4195
-112,-608,0.745117,10.5587,0,0,0,0,0,0,0,-1,1112,1632,0.745145,-10.5587
-105,-608,-0.252319,1.42419,0,0,0,0,0,0,0,-1,1119,1632,-0.252331,-1.42418
-98,-608,-2.8595,3.0863,0,0,0,0,0,0,0,-1,1126,1632,-2.85948,-3.08625
-91,-608,-3.71948,1.73608,0,0,0,0,0,0,0,-1,1133,1632,-3.7195,-1.73607
-84,-608,0,0,0,0,0,0,0,0,0,-1,1140,1632,0,0
-77,-608,0,0,0,0,0,0,0,0,0,-1,1147,1632,0,0
-70,-608,0,0,0,0,0,0,0,0,0,-1,1154,1632,0,0
-63,-608,0,0,0,0,0,0,0,0,0,-1,1161,1632,0,0
-56,-608,0,0,0,0,0,0,0,0,0,-1,1168,1632,0,0
-49,-608,0,0,0,0,0,0,0,0,0,-1,1175,1632,0,0
-42,-608,0,0,0,0,0,0,0,0,0,-1,1182,1632,0,0
-35,-608,0,0,0,0,0,0,0,0,0,-1,1189,1632,0,0
-28,-608,0,0,0,0,0,0,0,0,0,-1,1196,1632,0,0
-21,-608,0,0,0,0,0,0,0,0,0,-1,1203,1632,0,0
-14,-608,0,0,0,0,0,0,0,0,0,-1,1210,1632,0,0
-7,-608,0,0,0,0,0,0,0,0,0,-1,1217,1632,0,0
0,-608,0,0,0,0,0,0,0,0,0,-1,1224,1632,0,0
7,-608,0,0,0,0,0,0,0,0,0,-1,1231,1632,0,0
14,-608,0,0,0,0,0,0,0,0,0,-1,1238,1632,0,0
21,-608,0,0,0,0,0,0,0,0,0,-1,1245,1632,0,0
28,-608,0,0,0,0,0,0,0,0,0,-1,1252,1632,0,0
35,-608,0,0,0,0,0,0,0,0,0,-1,1259,1632,0,0
42,-608,0,0,0,0,0,0,0,0,0,-1,1266,1632,0,0
49,-608,0,0,0,0,0,0,0,0,0,-1,1273,1632,0,0
56,-608,0,0,0,0,0,0,0,0,0,-1,1280,1632,0,0
63,-608,0,0,0,0,0,0,0,0,0,-1,1287,1632,0,0
70,-608,0,0,0,0,0,0,0,0,0,-1,1294,1632,0,0
77,-608,0,0,0,0,0,0,0,0,0,-1,1301,1632,0,0
84,-608,0,0,0,0,0,0,0,0,0,-1,1308,1632,0,0
91,-608,0,0,0,0,0,0,0,0,0,-1,1315,1632,0,0
98,-608,0,0,0,0,0,0,0,0,0,-1,1322,1632,0,0
105,-608,0,0,0,0,0,0,0,0,0,-1,1329,1632,0,0
112,-608,0,0,0,0,0,0,0,0,0,-1,1336,1632,0,0
119,-608,0,0,0,0,0,0,0,0,0,-1,1343,1632,0,0
126,-608,0,0,0,0,0,0,0,0,0,-1,1350,1632,0,0
133,-608,0,0,0,0,0,0,0,0,0,-1,1357,1632,0,0
140,-608,0,0,0,0,0,0,0,0,0,-1,1364,1632,0,0
147,-608,0,0,0,0,0,0,0,0,0,-1,1371,1632,0,0
154,-608,0,0,0,0,0,0,0,0,0,-1,1378,1632,0,0
161,-608,0,0,0,0,0,0,0,0,0,-1,1385,1632,0,0
168,-608,0,0,0,0,0,0,0,0,0,-1,1392,1632,0,0
175,-608,0,0,0,0,0,0,0,0,0,-1,1399,1632,0,0
182,-608,0,0,0,0,0,0,0,0,0,-1,1406,1632,0,0
189,-608,0,0,0,0,0,0,0,0,0,-1,1413,1632,0,0
196,-608,0,0,0,0,0,0,0,0,0,-1,1420,1632,0,0
203,-608,0,0,0,0,0,0,0,0,0,-1,1427,1632,0,0
210,-608,5.7157,-0.333008,0,0,0,0,0,0,0,-1,1434,1632,5.71566,0.333004
217,-608,4.49402,-0.831787,0,0,0,0,0,0,0,-1,1441,1632,4.49396,0.831738
224,-608,4.18018,-1.11792,0,0,0,0,0,0,0,-1,1448,1632,4.1802,1.11796
231,-608,0.361816,0.825195,0,0,0,0,0,0,0,-1,1455,1632,0.36185,-0.825226
238,-608,2.85388,-0.28833,0,0,0,0,0,0,0,-1,1462,1632,2.85391,0.288282
245,-608,3.87537,4.02173,0,0,0,0,0,0,0,-1,1469,1632,3.87538,-4.02168
252,-608,5.66956,3.5282,0,0,0,0,0,0,0,-1,1476,1632,5.6696,-3.52815
259,-608,7.47437,3.07178,0,0,0,0,0,0,0,-1,1483,1632,7.4744,-3.07172
266,-608,9.46936,2.34766,0,0,0,0,0,0,0,-1,1490,1632,9.46932,-2.34764
273,-608,6.03003,3.34241,0,0,0,0,0,0,0,-1,1497,1632,6.02997,-3.34245
280,-608,5.72461,2.0769,0,0,0,0,0,0,0,-1,1504,1632,5.72457,-2.07688
287,-608,6.20581,3.59338,0,0,0,0,0,0,0,-1,1511,1632,6.20585,-3.59341
294,-608,6.94922,5.17151,0,0,0,0,0,0,0,-1,1518,1632,6.94925,-5.17151
301,-608,7.60083,6.68018,0,0,0,0,0,0,0,-1,1525,1632,7.60086,-6.68013
308,-608,7.64746,9.93848,0,0,0,0,0,0,0,-1,1532,1632,7.64745,-9.93842
315,-608,5.30688,11.2054,0,0,0,0,0,0,0,-1,1539,1632,5.30694,-11.2054
322,-608,5.32617,13.7581,0,0,0,0,0,0,0,-1,1546,1632,5.32613,-13.758
329,-608,7.12231,13.9607,0,0,0,0,0,0,0,-1,1553,1632,7.12231,-13.9607
336,-608,5.48633,7.82446,0,0,0,0,0,0,0,-1,1560,1632,5.48634,-7.82446
343,-608,5.47192,5.61047,0,0,0,0,0,0,0,-1,1567,1632,5.47192,-5.61045
350,-608,20.215,64.3408,0,0,0,0,0,0,0,-1,1574,1632,20.2149,-64.3408
357,-608,20.1851,63.2336,0,0,0,0,0,0,0,-1,1581,1632,20.1851,-63.2337
364,-608,24.6505,112.798,0,0,0,0,0,0,0,-1,1588,1632,24.6505,-112.798
371,-608,24.809,112.369,0,0,0,0,0,0,0,-1,1595,1632,24.809,-112.369
378,-608,29.3972,162.128,0,0,0,0,0,0,0,-1,1602,1632,29.3973,-162.128
385,-608,30.738,173.629,0,0,0,0,0,0,0,-1,1609,1632,30.738,-173.629
392,-608,32.4698,196.609,0,0,0,0,0,0,0,-1,1616,1632,32.4698,-196.609
399,-608,61.1984,247.217,0,0,0,0,0,0,0,-1,1623,1632,61.1984,-247.217
406,-608,60.8618,243.581,0.0701568,3.80721e-05,0.0489361,0.0952963,-0.0251014,0.474564,0.0733441,0.035095,1630,1632,60.8619,-243.581
413,-608,60.4851,240.06,0.0653521,0.000569833,0.0469211,0.0899766,-0.0240546,0.483294,0.0694062,0.0203874,1637,1632,60.4851,-240.06
420,-608,60.0165,236.526,0.0601523,0.00140225,0.0445266,0.0841207,-0.0225661,0.49381,0.0649231,0.0348273,1644,1632,60.0165,-236.526
427,-608,59.5402,232.778,0.0554343,0.00220991,0.0417874,0.0783639,-0.0207198,0.501862,0.0603468,0.0288554,1651,1632,59.5402,-232.778
434,-608,58.8357,229.046,0.0510481,0.00304045,0.0391697,0.0729839,-0.0188954,0.510503,0.0560267,0.0193983,1658,1632,58.8357,-229.046
441,-608,58.1234,225.271,0.0467547,0.00388653,0.0364066,0.0675682,-0.016927,0.519348,0.0516213,0.0188531,1665,1632,58.1234,-225.271
448,-608,57.3936,221.398,0.0426565,0.00451879,0.0334663,0.0621054,-0.0149301,0.526442,0.0471745,0.0201955,1672,1632,57.3935,-221.398
455,-608,56.5066,217.441,0.0388265,0.00506979,0.0304971,0.0568044,-0.0129081,0.532658,0.0428257,0.0157643,1679,1632,56.5065,-217.441
462,-608,55.6184,213.457,0.0351867,0.00549507,0.0274981,0.0515906,-0.0109088,0.537876,0.038548,0.0172721,1686,1632,55.6184,-213.457
469,-608,54.6406,209.45,0.031831,0.0056849,0.0245071,0.0465339,-0.00901801,0.540378,0.0344246,0.0151275,1693,1632,54.6406,-209.45
476,-608,53.5564,205.372,0.0287836,0.00565764,0.0216406,0.0417567,-0.0073154,0.540035,0.0305694,0.0135573,1700,1632,53.5564,-205.372
483,-608,52.4071,201.216,0.0258808,0.00546295,0.0188922,0.037146,-0.00580223,0.537685,0.0269074,0.0122782,1707,1632,52.4071,-201.216
490,-608,51.1997,196.939,0.0228659,0.00516817,0.0160749,0.0323665,-0.00433247,0.533793,0.0231573,0.0287184,1714,1632,51.1997,-196.939
497,-608,49.8323,192.832,0,0,0,0,0,0,0,-1,1721,1632,49.8322,-192.832
504,-608,23.4728,87.6309,0,0,0,0,0,0,0,-1,1728,1632,23.4728,-87.6308
511,-608,19.2942,47.2458,0,0,0,0,0,0,0,-1,1735,1632,19.2942,-47.2458
518,-608,18.8019,37.4651,0,0,0,0,0,0,0,-1,1742,1632,18.8019,-37.4651
525,-608,11.2109,16.2579,0,0,0,0,0,0,0,-1,1749,1632,11.2109,-16.2579
532,-608,8.27917,11.6693,0,0,0,0,0,0,0,-1,1756,1632,8.27919,-11.6694
539,-608,9.40796,1.43457,0,0,0,0,0,0,0,-1,1763,1632,9.40801,-1.43463
546,-608,9.94031,2.1134,0,0,0,0,0,0,0,-1,1770,1632,9.94031,-2.11346
553,-608,10.363,2.81335,0,0,0,0,0,0,0,-1,1777,1632,10.3631,-2.81333
560,-608,9.23999,4.5636,0,0,0,0,0,0,0,-1,1784,1632,9.24,-4.56354
567,-608,0,0,0,0,0,0,0,0,0,-1,1791,1632,0,0
574,-608,0,0,0,0,0,0,0,0,0,-1,1798,1632,0,0
581,-608,0,0,0,0,0,0,0,0,0,-1,1805,1632,0,0
588,-608,0,0,0,0,0,0,0,0,0,-1,1812,1632,0,0
595,-608,0,0,0,0,0,0,0,0,0,-1,1819,1632,0,0
602,-608,0,0,0,0,0,0,0,0,0,-1,1826,1632,0,0
609,-608,0,0,0,0,0,0,0,0,0,-1,1833,1632,0,0
616,-608,0,0,0,0,0,0,0,0,0,-1,1840,1632,0,0
623,-608,0,0,0,0,0,0,0,0,0,-1,1847,1632,0,0
630,-608,0,0,0,0,0,0,0,0,0,-1,1854,1632,0,0
637,-608,0,0,0,0,0,0,0,0,0,-1,1861,1632,0,0
644,-608,0,0,0,0,0,0,0,0,0,-1,1868,1632,0,0
651,-608,0,0,0,0,0,0,0,0,0,-1,1875,1632,0,0
658,-608,0,0,0,0,0,0,0,0,0,-1,1882,1632,0,0
665,-608,0,0,0,0,0,0,0,0,0,-1,1889,1632,0,0
672,-608,0,0,0,0,0,0,0,0,0,-1,1896,1632,0,0
679,-608,0,0,0,0,0,0,0,0,0,-1,1903,1632,0,0
686,-608,0,0,0,0,0,0,0,0,0,-1,1910,1632,0,0
693,-608,0,0,0,0,0,0,0,0,0,-1,1917,1632,0,0
700,-608,0,0,0,0,0,0,0,0,0,-1,1924,1632,0,0
707,-608,0,0,0,0,0,0,0,0,0,-1,1931,1632,0,0
714,-608,0,0,0,0,0,0,0,0,0,-1,1938,1632,0,0
721,-608,0,0,0,0,0,0,0,0,0,-1,1945,1632,0,0
728,-608,0,0,0,0,0,0,0,0,0,-1,1952,1632,0,0
735,-608,0,0,0,0,0,0,0,0,0,-1,1959,1632,0,0
742,-608,0,0,0,0,0,0,0,0,0,-1,1966,1632,0,0
749,-608,0,0,0,0,0,0,0,0,0,-1,1973,1632,0,0
756,-608,0,0,0,0,0,0,0,0,0,-1,1980,1632,0,0
763,-608,0,0,0,0,0,0,0,0,0,-1,1987,1632,0,0
770,-608,0,0,0,0,0,0,0,0,0,-1,1994,1632,0,0
777,-608,0,0,0,0,0,0,0,0,0,-1,2001,1632,0,0
784,-608,0,0,0,0,0,0,0,0,0,-1,2008,1632,0,0
791,-608,0,0,0,0,0,0,0,0,0,-1,2015,1632,0,0
798,-608,0,0,0,0,0,0,0,0,0,-1,2022,1632,0,0
805,-608,0,0,0,0,0,0,0,0,0,-1,2029,1632,0,0
812,-608,0,0,0,0,0,0,0,0,0,-1,2036,1632,0,0
-700,-615,0,0,0,0,0,0,0,0,0,-1,524,1639,0,0
-693,-615,0,0,0,0,0,0,0,0,0,-1,531,1639,0,0
-686,-615,0,0,0,0,0,0,0,0,0,-1,538,1639,0,0
-679,-615,0,0,0,0,0,0,0,0,0,-1,545,1639,0,0
-672,-615,0,0,0,0,0,0,0,0,0,-1,552,1639,0,0
-665,-615,0,0,0,0,0,0,0,0,0,-1,559,1639,0,0
-658,-615,0,0,0,0,0,0,0,0,0,-1,566,1639,0,0
-651,-615,0,0,0,0,0,0,0,0,0,-1,573,1639,0,0
-644,-615,0,0,0,0,0,0,0,0,0,-1,580,1639,0,0
-637,-615,0,0,0,0,0,0,0,0,0,-1,587,1639,0,0
-630,-615,0,0,0,0,0,0,0,0,0,-1,594,1639,0,0
-623,-615,0,0,0,0,0,0,0,0,0,-1,601,1639,0,0
-616,-615,0,0,0,0,0,0,0,0,0,-1,608,1639,0,0
-609,-615,0,0,0,0,0,0,0,0,0,-1,615,1639,0,0
-602,-615,0,0,0,0,0,0,0,0,0,-1,622,1639,0,0
-595,-615,0,0,0,0,0,0,0,0,0,-1,629,1639,0,0
-588,-615,0,0,0,0,0,0,0,0,0,-1,636,1639,0,0
-581,-615,0,0,0,0,0,0,0,0,0,-1,643,1639,0,0
-574,-615,0,0,0,0,0,0,0,0,0,-1,650,1639,0,0
-567,-615,0,0,0,0,0,0,0,0,0,-1,657,1639,0,0
-560,-615,0,0,0,0,0,0,0,0,0,-1,664,1639,0,0
-553,-615,0,0,0,0,0,0,0,0,0,-1,671,1639,0,0
-546,-615,0,0,0,0,0,0,0,0,0,-1,678,1639,0,0
-539,-615,0,0,0,0,0,0,0,0,0,-1,685,1639,0,0
-532,-615,0,0,0,0,0,0,0,0,0,-1,692,1639,0,0
-525,-615,0,0,0,0,0,0,0,0,0,-1,699,1639,0,0
-518,-615,0,0,0,0,0,0,0,0,0,-1,706,1639,0,0
-511,-615,0,0,0,0,0,0,0,0,0,-1,713,1639,0,0
-504,-615,0,0,0,0,0,0,0,0,0,-1,720,1639,0,0
-497,-615,0,0,0,0,0,0,0,0,0,-1,727,1639,0,0
-490,-615,0,0,0,0,0,0,0,0,0,-1,734,1639,0,0
-483,-615,0,0,0,0,0,0,0,0,0,-1,741,1639,0,0
-476,-615,0,0,0,0,0,0,0,0,0,-1,748,1639,0,0
-469,-615,0,0,0,0,0,0,0,0,0,-1,755,1639,0,0
-462,-615,0,0,0,0,0,0,0,0,0,-1,762,1639,0,0
-455,-615,0,0,0,0,0,0,0,0,0,-1,769,1639,0,0
-448,-615,0,0,0,0,0,0,0,0,0,-1,776,1639,0,0
-441,-615,0,0,0,0,0,0,0,0,0,-1,783,1639,0,0
-434,-615,-7.64508,2.98596,0,0,0,0,0,0,0,-1,790,1639,-7.64505,-2.98594
-427,-615,-9.0011,2.89404,0,0,0,0,0,0,0,-1,797,1639,-9.00107,-2.89399
-420,-615,-8.07568,3.0752,0,0,0,0,0,0,0,-1,804,1639,-8.07569,-3.07514
-413,-615,-7.09149,3.396,0,0,0,0,0,0,0,-1,811,1639,-7.09147,-3.39599
-406,-615,-6.21368,3.7312,0,0,0,0,0,0,0,-1,818,1639,-6.21366,-3.73114
-399,-615,-4.84875,3.91907,0,0,0,0,0,0,0,-1,825,1639,-4.84877,-3.91901
-392,-615,1.7395,13.3127,0,0,0,0,0,0,0,-1,832,1639,1.73953,-13.3128
-385,-615,3.42297,14.9401,0,0,0,0,0,0,0,-1,839,1639,3.42296,-14.94
-378,-615,1.50134,37.1793,0,0,0,0,0,0,0,-1,846,1639,1.50132,-37.1793
-371,-615,-0.743164,48.5927,0,0,0,0,0,0,0,-1,853,1639,-0.743134,-48.5926
-364,-615,-2.22162,61.8123,0,0,0,0,0,0,0,-1,860,1639,-2.22161,-61.8122
-357,-615,-14.6611,120.546,0,0,0,0,0,0,0,-1,867,1639,-14.661,-120.546
-350,-615,-19.8453,174.03,0,0,0,0,0,0,0,-1,874,1639,-19.8453,-174.03
-343,-615,-35.2136,203.571,0,0,0,0,0,0,0,-1,881,1639,-35.2136,-203.571
-336,-615,-36.16,207.411,0.0412384,0.00419328,-0.0419054,0.0685323,-0.0231006,-0.577304,0.0550291,0.0185195,888,1639,-36.16,-207.411
-329,-615,-37.0291,211.471,0.0450071,0.00568501,-0.0441727,0.0736967,-0.0230046,-0.576014,0.0583315,0.0223241,895,1639,-37.029,-211.471
-322,-615,-37.7728,215.434,0.0486099,0.00674019,-0.0468389,0.0789796,-0.0236295,-0.575239,0.0620479,0.0297042,902,1639,-37.7728,-215.434
-315,-615,-38.5564,219.19,0.0522654,0.00733056,-0.0495591,0.0842121,-0.0246161,-0.572582,0.0658975,0.0350516,909,1639,-38.5564,-219.19
-308,-615,-39.3167,223,0,0,0,0,0,0,0,-1,916,1639,-39.3167,-223
-301,-615,-39.1641,226.801,0,0,0,0,0,0,0,-1,923,1639,-39.1641,-226.801
-294,-615,-40.3533,230.373,0.0638809,0.00737524,-0.0587572,0.100825,-0.0295688,-0.561297,0.0789409,0.0202095,930,1639,-40.3534,-230.373
-287,-615,-41.0631,234.026,0.0679647,0.00695188,-0.0618998,0.106467,-0.0315506,-0.556449,0.0835059,0.0217358,937,1639,-41.0631,-234.026
-280,-615,-41.5605,237.563,0.0723297,0.00637946,-0.0649416,0.112188,-0.0334793,-0.550478,0.0880987,0.0260451,944,1639,-41.5606,-237.563
-273,-615,-41.8217,240.98,0.0766181,0.00623758,-0.0679899,0.117985,-0.0351292,-0.546592,0.0926144,0.0270856,951,1639,-41.8216,-240.98
-266,-615,-42.1407,244.432,0.0810886,0.00663135,-0.0708423,0.123889,-0.0361688,-0.543473,0.0969249,0.0298075,958,1639,-42.1408,-244.432
-259,-615,-42.2787,247.784,0,0,0,0,0,0,0,-1,965,1639,-42.2788,-247.784
-252,-615,-42.3926,251.221,0,0,0,0,0,0,0,-1,972,1639,-42.3926,-251.221
-245,-615,-25.5729,191.425,0,0,0,0,0,0,0,-1,979,1639,-25.5729,-191.425
-238,-615,-19.7418,158.524,0,0,0,0,0,0,0,-1,986,1639,-19.7418,-158.524
-231,-615,-11.2592,120.892,0,0,0,0,0,0,0,-1,993,1639,-11.2592,-120.892
-224,-615,-14.0591,136.41,0,0,0,0,0,0,0,-1,1000,1639,-14.0591,-136.41
-217,-615,-4.28967,93.3335,0,0,0,0,0,0,0,-1,1007,1639,-4.28968,-93.3335
-210,-615,2.48901,18.9324,0,0,0,0,0,0,0,-1,1014,1639,2.48902,-18.9323
-203,-615,2.13684,18.6173,0,0,0,0,0,0,0,-1,1021,1639,2.13683,-18.6173
-196,-615,4.27161,21.3264,0,0,0,0,0,0,0,-1,1028,1639,4.27165,-21.3264
-189,-615,0.55249,62.4188,0,0,0,0,0,0,0,-1,1035,1639,0.55247,-62.4188
-182,-615,2.98364,52.7119,0,0,0,0,0,0,0,-1,1042,1639,2.9836,-52.7119
-175,-615,2.25159,49.2682,0,0,0,0,0,0,0,-1,1049,1639,2.25158,-49.2682
-168,-615,3.85754,15.472,0,0,0,0,0,0,0,-1,1056,1639,3.85757,-15.472
-161,-615,2.14307,46.5156,0,0,0,0,0,0,0,-1,1063,1639,2.14303,-46.5156
-154,-615,1.37329,47.9545,0,0,0,0,0,0,0,-1,1070,1639,1.37327,-47.9545
-147,-615,0.0180664,48.1396,0,0,0,0,0,0,0,-1,1077,1639,0.0180157,-48.1397
-140,-615,3.73401,10.2349,0,0,0,0,0,0,0,-1,1084,1639,3.73402,-10.2348
-133,-615,2.6178,17.45,0,0,0,0,0,0,0,-1,1091,1639,2.61776,-17.4499
-126,-615,4.43408,12.5017,0,0,0,0,0,0,0,-1,1098,1639,4.43403,-12.5018
-119,-615,4.82983,13.9279,0,0,0,0,0,0,0,-1,1105,1639,4.82986,-13.9278
-112,-615,3.65698,14.4874,0,0,0,0,0,0,0,-1,1112,1639,3.65695,-14.4875
-105,-615,0.958496,2.45398,0,0,0,0,0,0,0,-1,1119,1639,0.958452,-2.45398
-98,-615,-0.647705,2.12109,0,0,0,0,0,0,0,-1,1126,1639,-0.647756,-2.12105
-91,-615,-3.07983,2.97375,0,0,0,0,0,0,0,-1,1133,1639,-3.07989,-2.97376
-84,-615,-2.46509,0.703247,0,0,0,0,0,0,0,-1,1140,1639,-2.46505,-0.703273
-77,-615,-3.17859,1.23755,0,0,0,0,0,0,0,-1,1147,1639,-3.17865,-1.23752
-70,-615,-4.03943,1.43335,0,0,0,0,0,0,0,-1,1154,1639,-4.03942,-1.43339
-63,-615,-4.8877,1.45544,0,0,0,0,0,0,0,-1,1161,1639,-4.88766,-1.45549
-56,-615,0,0,0,0,0,0,0,0,0,-1,1168,1639,0,0
-49,-615,0,0,0,0,0,0,0,0,0,-1,1175,1639,0,0
-42,-615,0,0,0,0,0,0,0,0,0,-1,1182,1639,0,0
-35,-615,0,0,0,0,0,0,0,0,0,-1,1189,1639,0,0
-28,-615,0,0,0,0,0,0,0,0,0,-1,1196,1639,0,0
-21,-615,0,0,0,0,0,0,0,0,0,-1,1203,1639,0,0
-14,-615,0,0,0,0,0,0,0,0,0,-1,1210,1639,0,0
-7,-615,0,0,0,0,0,0,0,0,0,-1,1217,1639,0,0
0,-615,0,0,0,0,0,0,0,0,0,-1,1224,1639,0,0
7,-615,0,0,0,0,0,0,0,0,0,-1,1231,1639,0,0
14,-615,0,0,0,0,0,0,0,0,0,-1,1238,1639,0,0
21,-615,0,0,0,0,0,0,0,0,0,-1,1245,1639,0,0
28,-615,0,0,0,0,0,0,0,0,0,-1,1252,1639,0,0
35,-615,0,0,0,0,0,0,0,0,0,-1,1259,1639,0,0
42,-615,0,0,0,0,0,0,0,0,0,-1,1266,1639,0,0
49,-615,0,0,0,0,0,0,0,0,0,-1,1273,1639,0,0
56,-615,0,0,0,0,0,0,0,0,0,-1,1280,1639,0,0
63,-615,0,0,0,0,0,0,0,0,0,-1,1287,1639,0,0
70,-615,0,0,0,0,0,0,0,0,0,-1,1294,1639,0,0
77,-615,0,0,0,0,0,0,0,0,0,-1,1301,1639,0,0
84,-615,0,0,0,0,0,0,0,0,0,-1,1308,1639,0,0
91,-615,0,0,0,0,0,0,0,0,0,-1,1315,1639,0,0
98,-615,0,0,0,0,0,0,0,0,0,-1,1322,1639,0,0
105,-615,0,0,0,0,0,0,0,0,0,-1,1329,1639,0,0
112,-615,0,0,0,0,0,0,0,0,0,-1,1336,1639,0,0
119,-615,0,0,0,0,0,0,0,0,0,-1,1343,1639,0,0
126,-615,0,0,0,0,0,0,0,0,0,-1,1350,1639,0,0
133,-615,0,0,0,0,0,0,0,0,0,-1,1357,1639,0,0
140,-615,0,0,0,0,0,0,0,0,0,-1,1364,1639,0,0
147,-615,0,0,0,0,0,0,0,0,0,-1,1371,1639,0,0
154,-615,0,0,0,0,0,0,0,0,0,-1,1378,1639,0,0
161,-615,0,0,0,0,0,0,0,0,0,-1,1385,1639,0,0
168,-615,0,0,0,0,0,0,0,0,0,-1,1392,1639,0,0
175,-615,5.39648,-2.00879,0,0,0,0,0,0,0,-1,1399,1639,5.3965,2.00881
182,-615,5.65393,-1.51025,0,0,0,0,0,0,0,-1,1406,1639,5.65388,1.51028
189,-615,5.58972,-1.35608,0,0,0,0,0,0,0,-1,1413,1639,5.58967,1.35607
196,-615,5.49915,-0.693604,0,0,0,0,0,0,0,-1,1420,1639,5.4991,0.693602
203,-615,5.33411,-0.226685,0,0,0,0,0,0,0,-1,1427,1639,5.33414,0.226689
210,-615,5.60278,0.108276,0,0,0,0,0,0,0,-1,1434,1639,5.60284,-0.10831
217,-615,6.26331,-0.307373,0,0,0,0,0,0,0,-1,1441,1639,6.26331,0.307372
224,-615,5.45422,-0.333984,0,0,0,0,0,0,0,-1,1448,1639,5.45422,0.333992
231,-615,4.92542,1.80298,0,0,0,0,0,0,0,-1,1455,1639,4.92537,-1.80297
238,-615,4.76355,1.96729,0,0,0,0,0,0,0,-1,1462,1639,4.76357,-1.96734
245,-615,4.08643,3.15906,0,0,0,0,0,0,0,-1,1469,1639,4.08638,-3.159
252,-615,6.37805,3.73889,0,0,0,0,0,0,0,-1,1476,1639,6.37806,-3.73891
259,-615,8.35974,3.16443,0,0,0,0,0,0,0,-1,1483,1639,8.35975,-3.16444
266,-615,10.3414,2.58997,0,0,0,0,0,0,0,-1,1490,1639,10.3414,-2.58996
273,-615,6.57043,1.84766,0,0,0,0,0,0,0,-1,1497,1639,6.5704,-1.84771
280,-615,7.10449,3.23438,0,0,0,0,0,0,0,-1,1504,1639,7.10447,-3.23435
287,-615,7.35779,4.68542,0,0,0,0,0,0,0,-1,1511,1639,7.35776,-4.68546
294,-615,7.63733,6.29114,0,0,0,0,0,0,0,-1,1518,1639,7.63735,-6.29109
301,-615,8.47925,11.452,0,0,0,0,0,0,0,-1,1525,1639,8.47922,-11.452
308,-615,6.8114,10.9059,0,0,0,0,0,0,0,-1,1532,1639,6.81137,-10.9058
315,-615,5.1427,14.7251,0,0,0,0,0,0,0,-1,1539,1639,5.14269,-14.7251
322,-615,7.17981,17.6864,0,0,0,0,0,0,0,-1,1546,1639,7.17985,-17.6864
329,-615,7.62134,20.4354,0,0,0,0,0,0,0,-1,1553,1639,7.62139,-20.4354
336,-615,6.45007,14.1138,0,0,0,0,0,0,0,-1,1560,1639,6.45011,-14.1138
343,-615,2.40491,6.50134,0,0,0,0,0,0,0,-1,1567,1639,2.40489,-6.50137
350,-615,22.3712,92.9357,0,0,0,0,0,0,0,-1,1574,1639,22.3712,-92.9357
357,-615,24.0944,105.165,0,0,0,0,0,0,0,-1,1581,1639,24.0943,-105.165
364,-615,23.6659,113.769,0,0,0,0,0,0,0,-1,1588,1639,23.666,-113.769
371,-615,27.1198,170.181,0,0,0,0,0,0,0,-1,1595,1639,27.1197,-170.181
378,-615,33.9603,228.618,0,0,0,0,0,0,0,-1,1602,1639,33.9604,-228.618
385,-615,57.4563,255.165,0,0,0,0,0,0,0,-1,1609,1639,57.4564,-255.165
392,-615,57.6299,251.661,0,0,0,0,0,0,0,-1,1616,1639,57.6299,-251.661
399,-615,57.5533,248.199,0,0,0,0,0,0,0,-1,1623,1639,57.5534,-248.199
406,-615,57.0594,244.73,0.0640618,0.000933528,0.0447749,0.0872798,-0.0222845,0.478377,0.0668642,0.0181055,1630,1639,57.0594,-244.73
413,-615,56.5848,241.235,0.0596367,0.00135339,0.0427846,0.0822614,-0.0212714,0.486426,0.0631373,0.0204948,1637,1639,56.5848,-241.235
420,-615,56.0203,237.763,0.0548355,0.00221507,0.0404225,0.076756,-0.0197055,0.496901,0.0588493,0.0226446,1644,1639,56.0202,-237.763
427,-615,55.4943,234.049,0.0503319,0.00306343,0.037726,0.0712154,-0.01782,0.50557,0.0543987,0.0230086,1651,1639,55.4942,-234.049
434,-615,54.7931,230.278,0.0461524,0.00386686,0.0350642,0.065955,-0.0159357,0.514097,0.0501333,0.0190406,1658,1639,54.7931,-230.278
441,-615,54.104,226.542,0.0421091,0.00471675,0.0322373,0.0606794,-0.0138536,0.522624,0.045775,0.020751,1665,1639,54.104,-226.541
448,-615,53.319,222.688,0.0382228,0.00538863,0.0293092,0.0553996,-0.0117882,0.530103,0.0414254,0.0199245,1672,1639,53.319,-222.688
455,-615,52.3831,218.804,0.0345263,0.00599388,0.0263604,0.0502333,-0.00971313,0.537367,0.0371523,0.0183021,1679,1639,52.3831,-218.804
462,-615,51.4575,214.873,0.0309219,0.0064926,0.0233564,0.0450647,-0.00765027,0.544472,0.0328912,0.0197217,1686,1639,51.4575,-214.873
469,-615,50.4663,210.862,0.0275163,0.006765,0.0204359,0.0400596,-0.0057783,0.550497,0.0288262,0.0172087,1693,1639,50.4663,-210.862
476,-615,49.278,206.687,0.0245175,0.00687347,0.0176426,0.0354209,-0.00402989,0.553559,0.0250654,0.0220419,1700,1639,49.278,-206.687
483,-615,48.1631,202.5,0,0,0,0,0,0,0,-1,1707,1639,48.1631,-202.5
490,-615,46.9677,198.3,0,0,0,0,0,0,0,-1,1714,1639,46.9677,-198.3
497,-615,21.8047,89.4543,0,0,0,0,0,0,0,-1,1721,1639,21.8047,-89.4543
504,-615,16.4989,34.738,0,0,0,0,0,0,0,-1,1728,1639,16.4989,-34.738
511,-615,15.2349,30.2052,0,0,0,0,0,0,0,-1,1735,1639,15.2348,-30.2052
518,-615,13.2416,9.81812,0,0,0,0,0,0,0,-1,1742,1639,13.2416,-9.81813
525,-615,4.37524,3.90491,0,0,0,0,0,0,0,-1,1749,1639,4.37518,-3.90495
532,-615,7.3645,0.848145,0,0,0,0,0,0,0,-1,1756,1639,7.36451,-0.848093
539,-615,12.8112,-0.0476074,0,0,0,0,0,0,0,-1,1763,1639,12.8111,0.0475553
546,-615,8.33813,2.94556,0,0,0,0,0,0,0,-1,1770,1639,8.33813,-2.9455
553,-615,5.82532,-2.04199,0,0,0,0,0,0,0,-1,1777,1639,5.82534,2.04195
560,-615,0,0,0,0,0,0,0,0,0,-1,1784,1639,0,0
567,-615,0,0,0,0,0,0,0,0,0,-1,1791,1639,0,0
574,-615,0,0,0,0,0,0,0,0,0,-1,1798,1639,0,0
581,-615,0,0,0,0,0,0,0,0,0,-1,1805,1639,0,0
588,-615,0,0,0,0,0,0,0,0,0,-1,1812,1639,0,0
595,-615,0,0,0,0,0,0,0,0,0,-1,1819,1639,0,0
602,-615,0,0,0,0,0,0,0,0,0,-1,1826,1639,0,0
609,-615,0,0,0,0,0,0,0,0,0,-1,1833,1639,0,0
616,-615,0,0,0,0,0,0,0,0,0,-1,1840,1639,0,0
623,-615,0,0,0,0,0,0,0,0,0,-1,1847,1639,0,0
630,-615,0,0,0,0,0,0,0,0,0,-1,1854,1639,0,0
637,-615,0,0,0,0,0,0,0,0,0,-1,1861,1639,0,0
644,-615,0,0,0,0,0,0,0,0,0,-1,1868,1639,0,0
651,-615,0,0,0,0,0,0,0,0,0,-1,1875,1639,0,0
658,-615,0,0,0,0,0,0,0,0,0,-1,1882,1639,0,0
665,-615,0,0,0,0,0,0,0,0,0,-1,1889,1639,0,0
672,-615,0,0,0,0,0,0,0,0,0,-1,1896,1639,0,0
679,-615,0,0,0,0,0,0,0,0,0,-1,1903,1639,0,0
686,-615,0,0,0,0,0,0,0,0,0,-1,1910,1639,0,0
693,-615,0,0,0,0,0,0,0,0,0,-1,1917,1639,0,0
700,-615,0,0,0,0,0,0,0,0,0,-1,1924,1639,0,0
707,-615,0,0,0,0,0,0,0,0,0,-1,1931,1639,0,0
714,-615,0,0,0,0,0,0,0,0,0,-1,1938,1639,0,0
721,-615,0,0,0,0,0,0,0,0,0,-1,1945,1639,0,0
728,-615,0,0,0,0,0,0,0,0,0,-1,1952,1639,0,0
735,-615,0,0,0,0,0,0,0,0,0,-1,1959,1639,0,0
742,-615,0,0,0,0,0,0,0,0,0,-1,1966,1639,0,0
749,-615,0,0,0,0,0,0,0,0,0,-1,1973,1639,0,0
756,-615,0,0,0,0,0,0,0,0,0,-1,1980,1639,0,0
763,-615,0,0,0,0,0,0,0,0,0,-1,1987,1639,0,0
770,-615,0,0,0,0,0,0,0,0,0,-1,1994,1639,0,0
777,-615,0,0,0,0,0,0,0,0,0,-1,2001,1639,0,0
784,-615,0,0,0,0,0,0,0,0,0,-1,2008,1639,0,0
791,-615,0,0,0,0,0,0,0,0,0,-1,2015,1639,0,0
798,-615,0,0,0,0,0,0,0,0,0,-1,2022,1639,0,0
805,-615,0,0,0,0,0,0,0,0,0,-1,2029,1639,0,0
812,-615,0,0,0,0,0,0,0,0,0,-1,2036,1639,0,0
-700,-622,0,0,0,0,0,0,0,0,0,-1,524,1646,0,0
-693,-622,0,0,0,0,0,0,0,0,0,-1,531,1646,0,0
-686,-622,0,0,0,0,0,0,0,0,0,-1,538,1646,0,0
-679,-622,0,0,0,0,0,0,0,0,0,-1,545,1646,0,0
-672,-622,0,0,0,0,0,0,0,0,0,-1,552,1646,0,0
-665,-622,0,0,0,0,0,0,0,0,0,-1,559,1646,0,0
-658,-622,0,0,0,0,0,0,0,0,0,-1,566,1646,0,0
-651,-622,0,0,0,0,0,0,0,0,0,-1,573,1646,0,0
-644,-622,0,0,0,0,0,0,0,0,0,-1,580,1646,0,0
-637,-622,0,0,0,0,0,0,0,0,0,-1,587,1646,0,0
-630,-622,0,0,0,0,0,0,0,0,0,-1,594,1646,0,0
-623,-622,0,0,0,0,0,0,0,0,0,-1,601,1646,0,0
-616,-622,0,0,0,0,0,0,0,0,0,-1,608,1646,0,0
-609,-622,0,0,0,0,0,0,0,0,0,-1,615,1646,0,0
-602,-622,0,0,0,0,0,0,0,0,0,-1,622,1646,0,0
-595,-622,0,0,0,0,0,0,0,0,0,-1,629,1646,0,0
-588,-622,0,0,0,0,0,0,0,0,0,-1,636,1646,0,0
-581,-622,0,0,0,0,0,0,0,0,0,-1,643,1646,0,0
-574,-622,0,0,0,0,0,0,0,0,0,-1,650,1646,0,0
-567,-622,0,0,0,0,0,0,0,0,0,-1,657,1646,0,0
-560,-622,0,0,0,0,0,0,0,0,0,-1,664,1646,0,0
-553,-622,0,0,0,0,0,0,0,0,0,-1,671,1646,0,0
-546,-622,0,0,0,0,0,0,0,0,0,-1,678,1646,0,0
-539,-622,0,0,0,0,0,0,0,0,0,-1,685,1646,0,0
-532,-622,0,0,0,0,0,0,0,0,0,-1,692,1646,0,0
-525,-622,0,0,0,0,0,0,0,0,0,-1,699,1646,0,0
-518,-622,0,0,0,0,0,0,0,0,0,-1,706,1646,0,0
-511,-622,0,0,0,0,0,0,0,0,0,-1,713,1646,0,0
-504,-622,0,0,0,0,0,0,0,0,0,-1,720,1646,0,0
-497,-622,0,0,0,0,0,0,0,0,0,-1,727,1646,0,0
-490,-622,0,0,0,0,0,0,0,0,0,-1,734,1646,0,0
-483,-622,0,0,0,0,0,0,0,0,0,-1,741,1646,0,0
-476,-622,0,0,0,0,0,0,0,0,0,-1,748,1646,0,0
-469,-622,0,0,0,0,0,0,0,0,0,-1,755,1646,0,0
-462,-622,0,0,0,0,0,0,0,0,0,-1,762,1646,0,0
-455,-622,0,0,0,0,0,0,0,0,0,-1,769,1646,0,0
-448,-622,0,0,0,0,0,0,0,0,0,-1,776,1646,0,0
-441,-622,0,0,0,0,0,0,0,0,0,-1,783,1646,0,0
-434,-622,0,0,0,0,0,0,0,0,0,-1,790,1646,0,0
-427,-622,-7.62891,3.48096,0,0,0,0,0,0,0,-1,797,1646,-7.62892,-3.48092
-420,-622,-9.35791,1.77185,0,0,0,0,0,0,0,-1,804,1646,-9.35789,-1.77183
-413,-622,-8.46075,1.96777,0,0,0,0,0,0,0,-1,811,1646,-8.46074,-1.96774
-406,-622,-4.44318,2.16858,0,0,0,0,0,0,0,-1,818,1646,-4.44315,-2.16859
-399,-622,-7.06976,1.51001,0,0,0,0,0,0,0,-1,825,1646,-7.06976,-1.51005
-392,-622,3.89551,5.85376,0,0,0,0,0,0,0,-1,832,1646,3.8955,-5.85379
-385,-622,2.00543,14.0448,0,0,0,0,0,0,0,-1,839,1646,2.00544,-14.0448
-378,-622,1.49036,15.3436,0,0,0,0,0,0,0,-1,846,1646,1.49033,-15.3436
-371,-622,1.5274,38.0657,0,0,0,0,0,0,0,-1,853,1646,1.5274,-38.0657
-364,-622,-0.301086,49.736,0,0,0,0,0,0,0,-1,860,1646,-0.301086,-49.736
-357,-622,0.0578003,53.6583,0,0,0,0,0,0,0,-1,867,1646,0.0578109,-53.6584
-350,-622,-10.2404,105.288,0,0,0,0,0,0,0,-1,874,1646,-10.2404,-105.288
-343,-622,-20.3385,199.722,0,0,0,0,0,0,0,-1,881,1646,-20.3385,-199.722
-336,-622,-32.0526,208.984,0,0,0,0,0,0,0,-1,888,1646,-32.0526,-208.984
-329,-622,-32.7848,212.859,0.0403084,0.00554858,-0.0393025,0.0659022,-0.0200453,-0.57722,0.0519228,0.0237089,895,1646,-32.7848,-212.859
-322,-622,-33.5472,216.9,0.0438306,0.00682836,-0.0418071,0.0710474,-0.0203884,-0.577083,0.0554255,0.02068,902,1646,-33.5472,-216.899
-315,-622,-34.4948,220.635,0.0473206,0.00757472,-0.0443535,0.0760497,-0.0211545,-0.574779,0.0590287,0.0253323,909,1646,-34.4948,-220.635
-308,-622,-35.1789,224.365,0.0510416,0.007856,-0.0470931,0.0812562,-0.0223586,-0.570443,0.0629612,0.0277826,916,1646,-35.1789,-224.365
-301,-622,-35.7668,228.007,0.0548684,0.00771642,-0.0501442,0.0867024,-0.0241176,-0.56565,0.0672971,0.0234255,923,1646,-35.7668,-228.007
-294,-622,-36.4425,231.665,0.0587812,0.00746498,-0.0531962,0.0921838,-0.0259377,-0.560692,0.0716834,0.0166649,930,1646,-36.4425,-231.665
-287,-622,-36.9639,235.203,0.0627289,0.00703684,-0.0561648,0.0975716,-0.0278059,-0.55526,0.0760306,0.0180403,937,1646,-36.9639,-235.203
-280,-622,-37.4542,238.742,0.0669507,0.00642465,-0.0591115,0.103096,-0.0297203,-0.548811,0.0804875,0.0201705,944,1646,-37.4543,-238.742
-273,-622,-37.9033,242.252,0.0712316,0.00601615,-0.0620813,0.108748,-0.0315,-0.54358,0.0849676,0.0296154,951,1646,-37.9033,-242.252
-266,-622,-38.1805,245.741,0.0759281,0.00576075,-0.0647515,0.11449,-0.0328009,-0.537128,0.0892914,0.0306309,958,1646,-38.1805,-245.741
-259,-622,-38.3795,249.218,0.0811683,0.00563957,-0.0668555,0.120188,-0.0333802,-0.528306,0.093265,0.0259519,965,1646,-38.3795,-249.218
-252,-622,-38.5554,252.475,0.0859381,0.00504199,-0.0680099,0.124619,-0.0336389,-0.517128,0.0962717,0.0354338,972,1646,-38.5554,-252.475
-245,-622,-38.6758,255.83,0,0,0,0,0,0,0,-1,979,1646,-38.6758,-255.83
-238,-622,-22.9348,195.524,0,0,0,0,0,0,0,-1,986,1646,-22.9348,-195.524
-231,-622,-24.0745,197.491,0,0,0,0,0,0,0,-1,993,1646,-24.0745,-197.491
-224,-622,-24.2548,200.049,0,0,0,0,0,0,0,-1,1000,1646,-24.2548,-200.049
-217,-622,-22.9724,193.496,0,0,0,0,0,0,0,-1,1007,1646,-22.9723,-193.496
-210,-622,0.891846,61.1121,0,0,0,0,0,0,0,-1,1014,1646,0.89187,-61.112
-203,-622,4.21375,20.9574,0,0,0,0,0,0,0,-1,1021,1646,4.21375,-20.9574
-196,-622,1.65784,62.3484,0,0,0,0,0,0,0,-1,1028,1646,1.65785,-62.3484
-189,-622,-7.52905,121.878,0,0,0,0,0,0,0,-1,1035,1646,-7.52904,-121.878
-182,-622,0.0473633,63.868,0,0,0,0,0,0,0,-1,1042,1646,0.0473535,-63.8681
-175,-622,3.61438,53.5428,0,0,0,0,0,0,0,-1,1049,1646,3.61438,-53.5428
-168,-622,3.44849,53.4453,0,0,0,0,0,0,0,-1,1056,1646,3.44848,-53.4453
-161,-622,2.79761,52.5291,0,0,0,0,0,0,0,-1,1063,1646,2.79756,-52.529
-154,-622,2.00879,52.2384,0,0,0,0,0,0,0,-1,1070,1646,2.00874,-52.2384
-147,-622,0.939453,52.2694,0,0,0,0,0,0,0,-1,1077,1646,0.939511,-52.2694
-140,-622,0.546997,48.6783,0,0,0,0,0,0,0,-1,1084,1646,0.547022,-48.6784
-133,-622,3.09644,17.677,0,0,0,0,0,0,0,-1,1091,1646,3.09638,-17.677
-126,-622,3.5061,19.5251,0,0,0,0,0,0,0,-1,1098,1646,3.50616,-19.5252
-119,-622,4.06384,13.1715,0,0,0,0,0,0,0,-1,1105,1646,4.06379,-13.1716
-112,-622,4.33276,14.6605,0,0,0,0,0,0,0,-1,1112,1646,4.33281,-14.6605
-105,-622,0.306519,4.38159,0,0,0,0,0,0,0,-1,1119,1646,0.306536,-4.38159
-98,-622,-0.510376,3.5033,0,0,0,0,0,0,0,-1,1126,1646,-0.510393,-3.50324
-91,-622,-1.146,0.975952,0,0,0,0,0,0,0,-1,1133,1646,-1.14599,-0.97597
-84,-622,-2.04895,1.31787,0,0,0,0,0,0,0,-1,1140,1646,-2.0489,-1.31781
-77,-622,-1.80627,0.332275,0,0,0,0,0,0,0,-1,1147,1646,-1.80622,-0.33223
-70,-622,-3.65588,2.28149,0,0,0,0,0,0,0,-1,1154,1646,-3.65589,-2.28155
-63,-622,-2.49683,1.27087,0,0,0,0,0,0,0,-1,1161,1646,-2.49679,-1.27093
-56,-622,-2.44238,-0.575562,0,0,0,0,0,0,0,-1,1168,1646,-2.44242,0.575508
-49,-622,-2.41089,1.38818,0,0,0,0,0,0,0,-1,1175,1646,-2.41088,-1.38815
-42,-622,-2.71497,2.85242,0,0,0,0,0,0,0,-1,1182,1646,-2.71491,-2.85247
-35,-622,-3.0177,4.25842,0,0,0,0,0,0,0,-1,1189,1646,-3.01773,-4.25838
-28,-622,-0.896606,0.678833,0,0,0,0,0,0,0,-1,1196,1646,-0.89661,-0.678835
-21,-622,-6.8219,165.735,0,0,0,0,0,0,0,-1,1203,1646,-6.82187,-165.735
-14,-622,25.6946,320.219,0,0,0,0,0,0,0,-1,1210,1646,25.6945,-320.219
-7,-622,30.2234,309.167,0,0,0,0,0,0,0,-1,1217,1646,30.2234,-309.167
0,-622,0,0,0,0,0,0,0,0,0,-1,1224,1646,0,0
7,-622,0,0,0,0,0,0,0,0,0,-1,1231,1646,0,0
14,-622,0,0,0,0,0,0,0,0,0,-1,1238,1646,0,0
21,-622,0,0,0,0,0,0,0,0,0,-1,1245,1646,0,0
28,-622,0,0,0,0,0,0,0,0,0,-1,1252,1646,0,0
35,-622,0,0,0,0,0,0,0,0,0,-1,1259,1646,0,0
42,-622,0,0,0,0,0,0,0,0,0,-1,1266,1646,0,0
49,-622,0,0,0,0,0,0,0,0,0,-1,1273,1646,0,0
56,-622,0,0,0,0,0,0,0,0,0,-1,1280,1646,0,0
63,-622,0,0,0,0,0,0,0,0,0,-1,1287,1646,0,0
70,-622,0,0,0,0,0,0,0,0,0,-1,1294,1646,0,0
77,-622,0,0,0,0,0,0,0,0,0,-1,1301,1646,0,0
84,-622,0,0,0,0,0,0,0,0,0,-1,1308,1646,0,0
91,-622,0,0,0,0,0,0,0,0,0,-1,1315,1646,0,0
98,-622,0,0,0,0,0,0,0,0,0,-1,1322,1646,0,0
105,-622,0,0,0,0,0,0,0,0,0,-1,1329,1646,0,0
112,-622,0,0,0,0,0,0,0,0,0,-1,1336,1646,0,0
119,-622,0,0,0,0,0,0,0,0,0,-1,1343,1646,0,0
126,-622,10.3264,333.236,0,0,0,0,0,0,0,-1,1350,1646,10.3264,-333.237
133,-622,8.85278,332.385,0,0,0,0,0,0,0,-1,1357,1646,8.85278,-332.385
140,-622,7.17712,328.932,0,0,0,0,0,0,0,-1,1364,1646,7.17717,-328.933
147,-622,8.70105,328.868,0,0,0,0,0,0,0,-1,1371,1646,8.70101,-328.868
154,-622,0.763794,327.536,0,0,0,0,0,0,0,-1,1378,1646,0.763756,-327.536
161,-622,10.6884,6.46448,0,0,0,0,0,0,0,-1,1385,1646,10.6883,-6.46442
168,-622,12.2402,5.18091,0,0,0,0,0,0,0,-1,1392,1646,12.2403,-5.1809
175,-622,5.64355,-1.77075,0,0,0,0,0,0,0,-1,1399,1646,5.64351,1.77077
182,-622,5.88586,-1.32251,0,0,0,0,0,0,0,-1,1406,1646,5.88587,1.32256
189,-622,5.97986,-1.18005,0,0,0,0,0,0,0,-1,1413,1646,5.97986,1.18003
196,-622,5.85022,-0.244507,0,0,0,0,0,0,0,-1,1420,1646,5.85026,0.244478
203,-622,5.25159,0.138794,0,0,0,0,0,0,0,-1,1427,1646,5.25162,-0.138822
210,-622,6.66833,0.0397949,0,0,0,0,0,0,0,-1,1434,1646,6.6684,-0.0398278
217,-622,6.12061,0.0506592,0,0,0,0,0,0,0,-1,1441,1646,6.12058,-0.0507181
224,-622,5.57275,0.0616455,0,0,0,0,0,0,0,-1,1448,1646,5.57276,-0.0616084
231,-622,5.31348,1.3949,0,0,0,0,0,0,0,-1,1455,1646,5.31342,-1.39495
238,-622,3.76477,2.90686,0,0,0,0,0,0,0,-1,1462,1646,3.7648,-2.90686
245,-622,5.13794,2.67993,0,0,0,0,0,0,0,-1,1469,1646,5.13796,-2.67992
252,-622,6.66528,2.53992,0,0,0,0,0,0,0,-1,1476,1646,6.66522,-2.53991
259,-622,8.93787,3.31458,0,0,0,0,0,0,0,-1,1483,1646,8.93791,-3.31454
266,-622,5.72644,3.11926,0,0,0,0,0,0,0,-1,1490,1646,5.72647,-3.1192
273,-622,7.28076,3.61218,0,0,0,0,0,0,0,-1,1497,1646,7.28071,-3.61212
280,-622,8.43127,4.4447,0,0,0,0,0,0,0,-1,1504,1646,8.43123,-4.44467
287,-622,8.60315,5.94617,0,0,0,0,0,0,0,-1,1511,1646,8.60319,-5.94622
294,-622,7.62756,11.5143,0,0,0,0,0,0,0,-1,1518,1646,7.62762,-11.5143
301,-622,7.36548,11.6569,0,0,0,0,0,0,0,-1,1525,1646,7.36549,-11.6569
308,-622,7.10339,11.7994,0,0,0,0,0,0,0,-1,1532,1646,7.10335,-11.7995
315,-622,8.28687,16.5842,0,0,0,0,0,0,0,-1,1539,1646,8.28689,-16.5843
322,-622,7.43689,20.5786,0,0,0,0,0,0,0,-1,1546,1646,7.43685,-20.5786
329,-622,9.76477,26.4202,0,0,0,0,0,0,0,-1,1553,1646,9.7648,-26.4202
336,-622,21.3851,107.279,0,0,0,0,0,0,0,-1,1560,1646,21.3852,-107.279
343,-622,22.0696,109.882,0,0,0,0,0,0,0,-1,1567,1646,22.0696,-109.882
350,-622,26.6602,170.982,0,0,0,0,0,0,0,-1,1574,1646,26.6602,-170.982
357,-622,26.6694,174.602,0,0,0,0,0,0,0,-1,1581,1646,26.6695,-174.602
364,-622,26.9443,184.704,0,0,0,0,0,0,0,-1,1588,1646,26.9443,-184.704
371,-622,48.1653,262.201,0,0,0,0,0,0,0,-1,1595,1646,48.1653,-262.201
378,-622,54.3738,259.529,0,0,0,0,0,0,0,-1,1602,1646,54.3738,-259.529
385,-622,54.0205,256.083,0.0692636,0.00211939,0.0460792,0.0927036,-0.0213206,0.470575,0.0700001,0.0269381,1609,1646,54.0205,-256.082
392,-622,53.7939,252.801,0.0655504,0.00167555,0.0442583,0.0881913,-0.0209654,0.472855,0.066887,0.0261824,1616,1646,53.7939,-252.801
399,-622,53.7032,249.473,0,0,0,0,0,0,0,-1,1623,1646,53.7033,-249.473
406,-622,53.1899,245.802,0.0577493,0.00175952,0.0405426,0.0790232,-0.0195144,0.483235,0.0602497,0.0227874,1630,1646,53.1899,-245.802
413,-622,52.6588,242.306,0.0536075,0.00223053,0.0384853,0.0741902,-0.0183521,0.491112,0.0565785,0.0232825,1637,1646,52.6588,-242.306
420,-622,52.0942,238.937,0.0491544,0.00315084,0.0360986,0.0689567,-0.0166514,0.501738,0.0524109,0.0218322,1644,1646,52.0942,-238.936
427,-622,51.4642,235.309,0.0448858,0.00406414,0.0334183,0.0636334,-0.0146835,0.511249,0.0480702,0.0192939,1651,1646,51.4642,-235.309
434,-622,50.7677,231.511,0.0408782,0.00491693,0.0307005,0.058476,-0.0126808,0.520487,0.0438268,0.0190259,1658,1646,50.7677,-231.511
441,-622,50.0627,227.77,0.0370605,0.00578835,0.0278083,0.0533272,-0.0104783,0.529286,0.0395101,0.0201078,1665,1646,50.0627,-227.77
448,-622,49.2371,223.936,0.0334245,0.00655387,0.0248617,0.0482489,-0.00827051,0.537676,0.0352477,0.0194921,1672,1646,49.237,-223.936
455,-622,48.2852,220.043,0.0299611,0.00724208,0.0219104,0.0432816,-0.00607841,0.546248,0.0310793,0.0213246,1679,1646,48.2851,-220.044
462,-622,47.3486,216.194,0.0265539,0.00784727,0.018886,0.0382759,-0.00387468,0.555478,0.026902,0.0221224,1686,1646,47.3486,-216.194
469,-622,46.264,212.191,0.0233279,0.00820775,0.0160434,0.0335032,-0.00196764,0.565216,0.0230194,0.0327261,1693,1646,46.264,-212.191
476,-622,44.9918,208.05,0,0,0,0,0,0,0,-1,1700,1646,44.9918,-208.05
483,-622,20.1239,187.51,0,0,0,0,0,0,0,-1,1707,1646,20.1239,-187.509
490,-622,20.0802,71.223,0,0,0,0,0,0,0,-1,1714,1646,20.0802,-71.223
497,-622,20.1091,60.8011,0,0,0,0,0,0,0,-1,1721,1646,20.1091,-60.8012
504,-622,10.8306,19.8021,0,0,0,0,0,0,0,-1,1728,1646,10.8306,-19.8022
511,-622,5.29004,4.14587,0,0,0,0,0,0,0,-1,1735,1646,5.29008,-4.14589
518,-622,5.6001,1.55359,0,0,0,0,0,0,0,-1,1742,1646,5.60015,-1.5536
525,-622,5.83093,2.01807,0,0,0,0,0,0,0,-1,1749,1646,5.83097,-2.01802
532,-622,5.44202,0.57373,0,0,0,0,0,0,0,-1,1756,1646,5.44196,-0.573705
539,-622,9.32129,1.06116,0,0,0,0,0,0,0,-1,1763,1646,9.32131,-1.0612
546,-622,6.50977,-3.45618,0,0,0,0,0,0,0,-1,1770,1646,6.50981,3.4562
553,-622,0,0,0,0,0,0,0,0,0,-1,1777,1646,0,0
560,-622,0,0,0,0,0,0,0,0,0,-1,1784,1646,0,0
567,-622,0,0,0,0,0,0,0,0,0,-1,1791,1646,0,0
574,-622,0,0,0,0,0,0,0,0,0,-1,1798,1646,0,0
581,-622,0,0,0,0,0,0,0,0,0,-1,1805,1646,0,0
588,-622,0,0,0,0,0,0,0,0,0,-1,1812,1646,0,0
595,-622,0,0,0,0,0,0,0,0,0,-1,1819,1646,0,0
602,-622,0,0,0,0,0,0,0,0,0,-1,1826,1646,0,0
609,-622,0,0,0,0,0,0,0,0,0,-1,1833,1646,0,0
616,-622,0,0,0,0,0,0,0,0,0,-1,1840,1646,0,0
623,-622,0,0,0,0,0,0,0,0,0,-1,1847,1646,0,0
630,-622,0,0,0,0,0,0,0,0,0,-1,1854,1646,0,0
637,-622,0,0,0,0,0,0,0,0,0,-1,1861,1646,0,0
644,-622,0,0,0,0,0,0,0,0,0,-1,1868,1646,0,0
651,-622,0,0,0,0,0,0,0,0,0,-1,1875,1646,0,0
658,-622,0,0,0,0,0,0,0,0,0,-1,1882,1646,0,0
665,-622,0,0,0,0,0,0,0,0,0,-1,1889,1646,0,0
672,-622,0,0,0,0,0,0,0,0,0,-1,1896,1646,0,0
679,-622,0,0,0,0,0,0,0,0,0,-1,1903,1646,0,0
686,-622,0,0,0,0,0,0,0,0,0,-1,1910,1646,0,0
693,-622,0,0,0,0,0,0,0,0,0,-1,1917,1646,0,0
700,-622,0,0,0,0,0,0,0,0,0,-1,1924,1646,0,0
707,-622,0,0,0,0,0,0,0,0,0,-1,1931,1646,0,0
714,-622,0,0,0,0,0,0,0,0,0,-1,1938,1646,0,0
721,-622,0,0,0,0,0,0,0,0,0,-1,1945,1646,0,0
728,-622,0,0,0,0,0,0,0,0,0,-1,1952,1646,0,0
735,-622,0,0,0,0,0,0,0,0,0,-1,1959,1646,0,0
742,-622,0,0,0,0,0,0,0,0,0,-1,1966,1646,0,0
749,-622,0,0,0,0,0,0,0,0,0,-1,1973,1646,0,0
756,-622,0,0,0,0,0,0,0,0,0,-1,1980,1646,0,0
763,-622,0,0,0,0,0,0,0,0,0,-1,1987,1646,0,0
770,-622,0,0,0,0,0,0,0,0,0,-1,1994,1646,0,0
777,-622,0,0,0,0,0,0,0,0,0,-1,2001,1646,0,0
784,-622,0,0,0,0,0,0,0,0,0,-1,2008,1646,0,0
791,-622,0,0,0,0,0,0,0,0,0,-1,2015,1646,0,0
798,-622,0,0,0,0,0,0,0,0,0,-1,2022,1646,0,0
805,-622,0,0,0,0,0,0,0,0,0,-1,2029,1646,0,0
812,-622,0,0,0,0,0,0,0,0,0,-1,2036,1646,0,0
-700,-629,0,0,0,0,0,0,0,0,0,-1,524,1653,0,0
-693,-629,0,0,0,0,0,0,0,0,0,-1,531,1653,0,0
-686,-629,0,0,0,0,0,0,0,0,0,-1,538,1653,0,0
-679,-629,0,0,0,0,0,0,0,0,0,-1,545,1653,0,0
-672,-629,0,0,0,0,0,0,0,0,0,-1,552,1653,0,0
-665,-629,0,0,0,0,0,0,0,0,0,-1,559,1653,0,0
-658,-629,0,0,0,0,0,0,0,0,0,-1,566,1653,0,0
-651,-629,0,0,0,0,0,0,0,0,0,-1,573,1653,0,0
-644,-629,0,0,0,0,0,0,0,0,0,-1,580,1653,0,0
-637,-629,0,0,0,0,0,0,0,0,0,-1,587,1653,0,0
-630,-629,0,0,0,0,0,0,0,0,0,-1,594,1653,0,0
-623,-629,0,0,0,0,0,0,0,0,0,-1,601,1653,0,0
-616,-629,0,0,0,0,0,0,0,0,0,-1,608,1653,0,0
-609,-629,0,0,0,0,0,0,0,0,0,-1,615,1653,0,0
-602,-629,0,0,0,0,0,0,0,0,0,-1,622,1653,0,0
-595,-629,0,0,0,0,0,0,0,0,0,-1,629,1653,0,0
-588,-629,0,0,0,0,0,0,0,0,0,-1,636,1653,0,0
-581,-629,0,0,0,0,0,0,0,0,0,-1,643,1653,0,0
-574,-629,0,0,0,0,0,0,0,0,0,-1,650,1653,0,0
-567,-629,0,0,0,0,0,0,0,0,0,-1,657,1653,0,0
-560,-629,0,0,0,0,0,0,0,0,0,-1,664,1653,0,0
-553,-629,0,0,0,0,0,0,0,0,0,-1,671,1653,0,0
-546,-629,0,0,0,0,0,0,0,0,0,-1,678,1653,0,0
-539,-629,0,0,0,0,0,0,0,0,0,-1,685,1653,0,0
-532,-629,0,0,0,0,0,0,0,0,0,-1,692,1653,0,0
-525,-629,0,0,0,0,0,0,0,0,0,-1,699,1653,0,0
-518,-629,0,0,0,0,0,0,0,0,0,-1,706,1653,0,0
-511,-629,0,0,0,0,0,0,0,0,0,-1,713,1653,0,0
-504,-629,0,0,0,0,0,0,0,0,0,-1,720,1653,0,0
-497,-629,0,0,0,0,0,0,0,0,0,-1,727,1653,0,0
-490,-629,0,0,0,0,0,0,0,0,0,-1,734,1653,0,0
-483,-629,0,0,0,0,0,0,0,0,0,-1,741,1653,0,0
-476,-629,0,0,0,0,0,0,0,0,0,-1,748,1653,0,0
-469,-629,0,0,0,0,0,0,0,0,0,-1,755,1653,0,0
-462,-629,0,0,0,0,0,0,0,0,0,-1,762,1653,0,0
-455,-629,0,0,0,0,0,0,0,0,0,-1,769,1653,0,0
-448,-629,0,0,0,0,0,0,0,0,0,-1,776,1653,0,0
-441,-629,0,0,0,0,0,0,0,0,0,-1,783,1653,0,0
-434,-629,0,0,0,0,0,0,0,0,0,-1,790,1653,0,0
-427,-629,0,0,0,0,0,0,0,0,0,-1,797,1653,0,0
-420,-629,-3.87103,3.37634,0,0,0,0,0,0,0,-1,804,1653,-3.87101,-3.37633
-413,-629,-5.69751,1.33582,0,0,0,0,0,0,0,-1,811,1653,-5.69754,-1.3358
-406,-629,2.85406,6.01501,0,0,0,0,0,0,0,-1,818,1653,2.85405,-6.01507
-399,-629,-0.455627,10.8687,0,0,0,0,0,0,0,-1,825,1653,-0.455625,-10.8687
-392,-629,1.15369,11.1295,0,0,0,0,0,0,0,-1,832,1653,1.1537,-11.1295
-385,-629,1.81976,11.6935,0,0,0,0,0,0,0,-1,839,1653,1.81975,-11.6935
-378,-629,2.19452,14.7941,0,0,0,0,0,0,0,-1,846,1653,2.19451,-14.7941
-371,-629,3.60114,14.7299,0,0,0,0,0,0,0,-1,853,1653,3.60113,-14.7299
-364,-629,3.26898,21.0801,0,0,0,0,0,0,0,-1,860,1653,3.26895,-21.08
-357,-629,4.38782,16.3444,0,0,0,0,0,0,0,-1,867,1653,4.38783,-16.3443
-350,-629,-0.262939,58.4408,0,0,0,0,0,0,0,-1,874,1653,-0.26293,-58.4408
-343,-629,-9.90247,117.128,0,0,0,0,0,0,0,-1,881,1653,-9.9025,-117.128
-336,-629,-17.2164,204.846,0,0,0,0,0,0,0,-1,888,1653,-17.2164,-204.846
-329,-629,-28.668,214.077,0,0,0,0,0,0,0,-1,895,1653,-28.668,-214.077
-322,-629,-29.524,217.935,0.0391238,0.00713559,-0.0360616,0.062579,-0.0163197,-0.576672,0.0480913,0.0308103,902,1653,-29.524,-217.935
-315,-629,-30.3696,221.737,0.0423904,0.00791559,-0.0384157,0.0672587,-0.0169527,-0.574509,0.05143,0.03226,909,1653,-30.3696,-221.737
-308,-629,-31.0952,225.575,0.0460644,0.00815579,-0.040976,0.0722576,-0.0180375,-0.568769,0.0551759,0.0268234,916,1653,-31.0952,-225.575
-301,-629,-31.6946,229.256,0.0498685,0.00790023,-0.043965,0.0776004,-0.0198317,-0.56274,0.059457,0.0343244,923,1653,-31.6946,-229.257
-294,-629,-32.2778,232.726,0.0536614,0.00741489,-0.0470095,0.0829269,-0.0218506,-0.556831,0.0638272,0.0423499,930,1653,-32.2779,-232.726
-287,-629,-32.9535,236.418,0.0574542,0.00691696,-0.0498876,0.0881076,-0.0237365,-0.550977,0.0680449,0.0273319,937,1653,-32.9535,-236.418
-280,-629,-33.4731,240.046,0.0614622,0.00626207,-0.0528202,0.0934586,-0.0257343,-0.544644,0.0724242,0.0173383,944,1653,-33.4731,-240.046
-273,-629,-33.9367,243.57,0.0656251,0.00562574,-0.055745,0.0989302,-0.0276793,-0.538545,0.0768596,0.026139,951,1653,-33.9367,-243.57
-266,-629,-34.2207,246.966,0.0703037,0.00490874,-0.0583453,0.104489,-0.0292765,-0.529997,0.0811969,0.0270067,958,1653,-34.2207,-246.966
-259,-629,-34.4402,250.296,0.0752534,0.0043257,-0.0603503,0.109788,-0.0302093,-0.51976,0.0850692,0.0261509,965,1653,-34.4402,-250.296
-252,-629,-34.6766,253.566,0.0796546,0.00334291,-0.0614034,0.113792,-0.030794,-0.507396,0.0879416,0.0242782,972,1653,-34.6766,-253.566
-245,-629,-34.8444,256.946,0.0834573,0.0020241,-0.0616664,0.116636,-0.031155,-0.493617,0.0899593,0.0354934,979,1653,-34.8444,-256.946
-238,-629,-35.1183,260.707,0,0,0,0,0,0,0,-1,986,1653,-35.1183,-260.707
-231,-629,-35.0592,263.268,0,0,0,0,0,0,0,-1,993,1653,-35.0592,-263.268
-224,-629,-34.679,266.676,0,0,0,0,0,0,0,-1,1000,1653,-34.6789,-266.676
-217,-629,-25.8033,228.033,0,0,0,0,0,0,0,-1,1007,1653,-25.8033,-228.033
-210,-629,-21.9907,197.991,0,0,0,0,0,0,0,-1,1014,1653,-21.9907,-197.991
-203,-629,-21.242,189.528,0,0,0,0,0,0,0,-1,1021,1653,-21.242,-189.528
-196,-629,-18.1288,182.756,0,0,0,0,0,0,0,-1,1028,1653,-18.1288,-182.756
-189,-629,-8.75793,131.552,0,0,0,0,0,0,0,-1,1035,1653,-8.75788,-131.552
-182,-629,-7.33752,126.11,0,0,0,0,0,0,0,-1,1042,1653,-7.33758,-126.11
-175,-629,-0.0251465,65.663,0,0,0,0,0,0,0,-1,1049,1653,-0.025117,-65.663
-168,-629,3.94775,55.7037,0,0,0,0,0,0,0,-1,1056,1653,3.94774,-55.7038
-161,-629,3.2146,53.0543,0,0,0,0,0,0,0,-1,1063,1653,3.21462,-53.0543
-154,-629,2.30042,52.7101,0,0,0,0,0,0,0,-1,1070,1653,2.30043,-52.7101
-147,-629,1.22363,52.6086,0,0,0,0,0,0,0,-1,1077,1653,1.22368,-52.6087
-140,-629,3.68201,55.7941,0,0,0,0,0,0,0,-1,1084,1653,3.68206,-55.7941
-133,-629,1.99792,57.769,0,0,0,0,0,0,0,-1,1091,1653,1.99792,-57.769
-126,-629,4.01025,19.5328,0,0,0,0,0,0,0,-1,1098,1653,4.01022,-19.5328
-119,-629,4.94177,13.5525,0,0,0,0,0,0,0,-1,1105,1653,4.94172,-13.5525
-112,-629,5.63123,15.9187,0,0,0,0,0,0,0,-1,1112,1653,5.63118,-15.9187
-105,-629,2.15881,4.38342,0,0,0,0,0,0,0,-1,1119,1653,2.15878,-4.38347
-98,-629,0.825806,4.19385,0,0,0,0,0,0,0,-1,1126,1653,0.825779,-4.1939
-91,-629,-0.452271,3.64465,0,0,0,0,0,0,0,-1,1133,1653,-0.452278,-3.6446
-84,-629,-2.6084,0.466797,0,0,0,0,0,0,0,-1,1140,1653,-2.6084,-0.466786
-77,-629,-3.50903,2.10706,0,0,0,0,0,0,0,-1,1147,1653,-3.509,-2.10707
-70,-629,-1.20886,2.52502,0,0,0,0,0,0,0,-1,1154,1653,-1.20886,-2.525
-63,-629,-0.960693,4.30212,0,0,0,0,0,0,0,-1,1161,1653,-0.960691,-4.30215
-56,-629,-1.31934,5.64343,0,0,0,0,0,0,0,-1,1168,1653,-1.31928,-5.6434
-49,-629,-2.15662,2.57458,0,0,0,0,0,0,0,-1,1175,1653,-2.15656,-2.57459
-42,-629,-2.46326,3.91467,0,0,0,0,0,0,0,-1,1182,1653,-2.4633,-3.91466
-35,-629,-2.67261,5.24292,0,0,0,0,0,0,0,-1,1189,1653,-2.67257,-5.24298
-28,-629,-0.402954,-0.866577,0,0,0,0,0,0,0,-1,1196,1653,-0.402943,0.866612
-21,-629,26.6219,233.525,0,0,0,0,0,0,0,-1,1203,1653,26.6219,-233.525
-14,-629,30.4332,310.639,0,0,0,0,0,0,0,-1,1210,1653,30.4332,-310.639
-7,-629,32.8364,329.989,0,0,0,0,0,0,0,-1,1217,1653,32.8364,-329.989
0,-629,31.9784,330.876,0,0,0,0,0,0,0,-1,1224,1653,31.9784,-330.876
7,-629,30.7393,331.555,0,0,0,0,0,0,0,-1,1231,1653,30.7392,-331.555
14,-629,30.4708,332.374,0,0,0,0,0,0,0,-1,1238,1653,30.4708,-332.374
21,-629,30.1775,334.302,0,0,0,0,0,0,0,-1,1245,1653,30.1775,-334.302
28,-629,29.3606,334.391,0,0,0,0,0,0,0,-1,1252,1653,29.3607,-334.391
35,-629,28.5144,334.411,0,0,0,0,0,0,0,-1,1259,1653,28.5144,-334.411
42,-629,27.8737,334.135,0,0,0,0,0,0,0,-1,1266,1653,27.8737,-334.135
49,-629,27.2135,333.812,0,0,0,0,0,0,0,-1,1273,1653,27.2135,-333.812
56,-629,26.1272,333.046,0,0,0,0,0,0,0,-1,1280,1653,26.1272,-333.046
63,-629,25.1444,332.562,0,0,0,0,0,0,0,-1,1287,1653,25.1444,-332.562
70,-629,24.1814,332.009,0,0,0,0,0,0,0,-1,1294,1653,24.1814,-332.009
77,-629,23.0222,331.575,0,0,0,0,0,0,0,-1,1301,1653,23.0222,-331.575
84,-629,21.9,330.897,0,0,0,0,0,0,0,-1,1308,1653,21.9,-330.897
91,-629,21.745,330.215,0,0,0,0,0,0,0,-1,1315,1653,21.745,-330.215
98,-629,20.0138,330.05,0,0,0,0,0,0,0,-1,1322,1653,20.0138,-330.05
105,-629,18.2223,330.119,0,0,0,0,0,0,0,-1,1329,1653,18.2223,-330.119
112,-629,13.3081,334.136,0,0,0,0,0,0,0,-1,1336,1653,13.308,-334.136
119,-629,11.8951,333.336,0,0,0,0,0,0,0,-1,1343,1653,11.8951,-333.336
126,-629,10.4296,332.691,0,0,0,0,0,0,0,-1,1350,1653,10.4296,-332.691
133,-629,8.63428,332.578,0,0,0,0,0,0,0,-1,1357,1653,8.63432,-332.578
140,-629,7.24512,329.318,0,0,0,0,0,0,0,-1,1364,1653,7.24515,-329.318
147,-629,6.17395,329.096,0,0,0,0,0,0,0,-1,1371,1653,6.17395,-329.096
154,-629,10.6215,333.891,0,0,0,0,0,0,0,-1,1378,1653,10.6215,-333.891
161,-629,10.5461,6.83752,0,0,0,0,0,0,0,-1,1385,1653,10.5461,-6.83758
168,-629,12.0059,5.56348,0,0,0,0,0,0,0,-1,1392,1653,12.0059,-5.56352
175,-629,5.84485,-1.78845,0,0,0,0,0,0,0,-1,1399,1653,5.84479,1.7884
182,-629,5.99036,-1.27783,0,0,0,0,0,0,0,-1,1406,1653,5.99041,1.27778
189,-629,5.97668,-0.748535,0,0,0,0,0,0,0,-1,1413,1653,5.97671,0.748544
196,-629,4.52869,9.24695,0,0,0,0,0,0,0,-1,1420,1653,4.52869,-9.2469
203,-629,3.75085,6.88037,0,0,0,0,0,0,0,-1,1427,1653,3.75087,-6.88032
210,-629,3.5907,6.52637,0,0,0,0,0,0,0,-1,1434,1653,3.59067,-6.52642
217,-629,2.4585,4.84448,0,0,0,0,0,0,0,-1,1441,1653,2.45855,-4.84448
224,-629,1.31982,3.68481,0,0,0,0,0,0,0,-1,1448,1653,1.31986,-3.68487
231,-629,3.63025,1.73499,0,0,0,0,0,0,0,-1,1455,1653,3.6303,-1.735
238,-629,4.26428,2.11255,0,0,0,0,0,0,0,-1,1462,1653,4.26429,-2.11253
245,-629,5.61816,1.95361,0,0,0,0,0,0,0,-1,1469,1653,5.61815,-1.95359
252,-629,7.27136,2.18982,0,0,0,0,0,0,0,-1,1476,1653,7.27131,-2.18985
259,-629,8.67334,2.18628,0,0,0,0,0,0,0,-1,1483,1653,8.6733,-2.18633
266,-629,6.86475,3.72058,0,0,0,0,0,0,0,-1,1490,1653,6.86479,-3.72063
273,-629,7.9021,3.8717,0,0,0,0,0,0,0,-1,1497,1653,7.90205,-3.87171
280,-629,9.70837,4.39087,0,0,0,0,0,0,0,-1,1504,1653,9.7084,-4.39082
287,-629,9.82947,7.19348,0,0,0,0,0,0,0,-1,1511,1653,9.8295,-7.19347
294,-629,6.56555,11.6359,0,0,0,0,0,0,0,-1,1518,1653,6.5656,-11.6358
301,-629,13.903,44.4862,0,0,0,0,0,0,0,-1,1525,1653,13.903,-44.4862
308,-629,6.08264,12.1423,0,0,0,0,0,0,0,-1,1532,1653,6.08263,-12.1423
315,-629,6.82043,18.2764,0,0,0,0,0,0,0,-1,1539,1653,6.82049,-18.2764
322,-629,20.8529,106.778,0,0,0,0,0,0,0,-1,1546,1653,20.8529,-106.778
329,-629,24.0797,173.373,0,0,0,0,0,0,0,-1,1553,1653,24.0797,-173.373
336,-629,26.7036,213.631,0,0,0,0,0,0,0,-1,1560,1653,26.7036,-213.631
343,-629,26.4363,210.164,0,0,0,0,0,0,0,-1,1567,1653,26.4363,-210.164
350,-629,28.7261,235.718,0,0,0,0,0,0,0,-1,1574,1653,28.7261,-235.718
357,-629,51.8589,270.145,0,0,0,0,0,0,0,-1,1581,1653,51.8589,-270.145
364,-629,51.1343,266.522,0,0,0,0,0,0,0,-1,1588,1653,51.1342,-266.522
371,-629,50.973,263.423,0,0,0,0,0,0,0,-1,1595,1653,50.9731,-263.423
378,-629,50.8977,260.366,0.0666159,0.00244734,0.0437281,0.0887677,-0.0197044,0.468898,0.0667236,0.0216164,1602,1653,50.8977,-260.366
385,-629,50.541,257.098,0.0628046,0.00238884,0.0421427,0.0844477,-0.0192542,0.474442,0.0636941,0.0202698,1609,1653,50.5411,-257.098
392,-629,50.1752,253.804,0.0590715,0.0021825,0.0401802,0.0798565,-0.0186025,0.477386,0.060401,0.0190815,1616,1653,50.1752,-253.804
399,-629,49.8481,250.327,0.0553354,0.00215331,0.0382177,0.0753027,-0.017814,0.481455,0.0570741,0.0183443,1623,1653,49.8482,-250.327
406,-629,49.4407,246.844,0.0514294,0.00263745,0.0361665,0.0706589,-0.016592,0.488679,0.0535012,0.0216033,1630,1653,49.4407,-246.844
413,-629,48.8572,243.429,0.0474278,0.00321633,0.034029,0.0659008,-0.0152567,0.497346,0.0498046,0.0305205,1637,1653,48.8572,-243.429
420,-629,48.2108,240.047,0.0432601,0.00419706,0.0316126,0.0608882,-0.013431,0.508681,0.0457314,0.0273986,1644,1653,48.2108,-240.047
427,-629,47.6077,236.466,0.0392454,0.00517343,0.0289223,0.0557761,-0.0113573,0.519243,0.0414912,0.0197709,1651,1653,47.6077,-236.466
434,-629,46.8468,232.729,0.0353917,0.00612016,0.0261184,0.0506955,-0.00918359,0.530016,0.0372376,0.0169806,1658,1653,46.8468,-232.729
441,-629,46.0552,229.007,0.0317649,0.00701994,0.0231242,0.0456185,-0.00683365,0.539754,0.0329274,0.0207569,1665,1653,46.0552,-229.007
448,-629,45.1602,225.129,0.0283519,0.00790639,0.0201173,0.0406949,-0.00443654,0.550322,0.0287232,0.0199685,1672,1653,45.1601,-225.129
455,-629,44.2289,221.256,0.0250731,0.00866267,0.0171427,0.0358731,-0.00213735,0.562191,0.0246587,0.0221825,1679,1653,44.2289,-221.256
462,-629,43.1577,217.392,0,0,0,0,0,0,0,-1,1686,1653,43.1577,-217.392
469,-629,42.0334,213.394,0,0,0,0,0,0,0,-1,1693,1653,42.0334,-213.394
476,-629,18.8602,112.477,0,0,0,0,0,0,0,-1,1700,1653,18.8602,-112.477
483,-629,18.7847,67.8679,0,0,0,0,0,0,0,-1,1707,1653,18.7847,-67.8679
490,-629,19.1938,61.9336,0,0,0,0,0,0,0,-1,1714,1653,19.1938,-61.9336
497,-629,10.3662,19.8605,0,0,0,0,0,0,0,-1,1721,1653,10.3662,-19.8605
504,-629,7.89453,15.5316,0,0,0,0,0,0,0,-1,1728,1653,7.89447,-15.5316
511,-629,6.29138,3.40295,0,0,0,0,0,0,0,-1,1735,1653,6.29137,-3.403
518,-629,5.84387,1.41858,0,0,0,0,0,0,0,-1,1742,1653,5.84391,-1.4186
525,-629,6.4729,1.02319,0,0,0,0,0,0,0,-1,1749,1653,6.47284,-1.02316
532,-629,6.86511,0.903687,0,0,0,0,0,0,0,-1,1756,1653,6.86514,-0.903691
539,-629,6.60803,0.746704,0,0,0,0,0,0,0,-1,1763,1653,6.60809,-0.746691
546,-629,0,0,0,0,0,0,0,0,0,-1,1770,1653,0,0
553,-629,0,0,0,0,0,0,0,0,0,-1,1777,1653,0,0
560,-629,0,0,0,0,0,0,0,0,0,-1,1784,1653,0,0
567,-629,0,0,0,0,0,0,0,0,0,-1,1791,1653,0,0
574,-629,0,0,0,0,0,0,0,0,0,-1,1798,1653,0,0
581,-629,0,0,0,0,0,0,0,0,0,-1,1805,1653,0,0
588,-629,0,0,0,0,0,0,0,0,0,-1,1812,1653,0,0
595,-629,0,0,0,0,0,0,0,0,0,-1,1819,1653,0,0
602,-629,0,0,0,0,0,0,0,0,0,-1,1826,1653,0,0
609,-629,0,0,0,0,0,0,0,0,0,-1,1833,1653,0,0
616,-629,0,0,0,0,0,0,0,0,0,-1,1840,1653,0,0
623,-629,0,0,0,0,0,0,0,0,0,-1,1847,1653,0,0
630,-629,0,0,0,0,0,0,0,0,0,-1,1854,1653,0,0
637,-629,0,0,0,0,0,0,0,0,0,-1,1861,1653,0,0
644,-629,0,0,0,0,0,0,0,0,0,-1,1868,1653,0,0
651,-629,0,0,0,0,0,0,0,0,0,-1,1875,1653,0,0
658,-629,0,0,0,0,0,0,0,0,0,-1,1882,1653,0,0
665,-629,0,0,0,0,0,0,0,0,0,-1,1889,1653,0,0
672,-629,0,0,0,0,0,0,0,0,0,-1,1896,1653,0,0
679,-629,0,0,0,0,0,0,0,0,0,-1,1903,1653,0,0
686,-629,0,0,0,0,0,0,0,0,0,-1,1910,1653,0,0
693,-629,0,0,0,0,0,0,0,0,0,-1,1917,1653,0,0
700,-629,0,0,0,0,0,0,0,0,0,-1,1924,1653,0,0
707,-629,0,0,0,0,0,0,0,0,0,-1,1931,1653,0,0
714,-629,0,0,0,0,0,0,0,0,0,-1,1938,1653,0,0
721,-629,0,0,0,0,0,0,0,0,0,-1,1945,1653,0,0
728,-629,0,0,0,0,0,0,0,0,0,-1,1952,1653,0,0
735,-629,0,0,0,0,0,0,0,0,0,-1,1959,1653,0,0
742,-629,0,0,0,0,0,0,0,0,0,-1,1966,1653,0,0
749,-629,0,0,0,0,0,0,0,0,0,-1,1973,1653,0,0
756,-629,0,0,0,0,0,0,0,0,0,-1,1980,1653,0,0
763,-629,0,0,0,0,0,0,0,0,0,-1,1987,1653,0,0
770,-629,0,0,0,0,0,0,0,0,0,-1,1994,1653,0,0
777,-629,0,0,0,0,0,0,0,0,0,-1,2001,1653,0,0
784,-629,0,0,0,0,0,0,0,0,0,-1,2008,1653,0,0
791,-629,0,0,0,0,0,0,0,0,0,-1,2015,1653,0,0
798,-629,0,0,0,0,0,0,0,0,0,-1,2022,1653,0,0
805,-629,0,0,0,0,0,0,0,0,0,-1,2029,1653,0,0
812,-629,0,0,0,0,0,0,0,0,0,-1,2036,1653,0,0
-700,-636,0,0,0,0,0,0,0,0,0,-1,524,1660,0,0
-693,-636,0,0,0,0,0,0,0,0,0,-1,531,1660,0,0
-686,-636,0,0,0,0,0,0,0,0,0,-1,538,1660,0,0
-679,-636,0,0,0,0,0,0,0,0,0,-1,545,1660,0,0
-672,-636,0,0,0,0,0,0,0,0,0,-1,552,1660,0,0
-665,-636,0,0,0,0,0,0,0,0,0,-1,559,1660,0,0
-658,-636,0,0,0,0,0,0,0,0,0,-1,566,1660,0,0
-651,-636,0,0,0,0,0,0,0,0,0,-1,573,1660,0,0
-644,-636,0,0,0,0,0,0,0,0,0,-1,580,1660,0,0
-637,-636,0,0,0,0,0,0,0,0,0,-1,587,1660,0,0
-630,-636,0,0,0,0,0,0,0,0,0,-1,594,1660,0,0
-623,-636,0,0,0,0,0,0,0,0,0,-1,601,1660,0,0
-616,-636,0,0,0,0,0,0,0,0,0,-1,608,1660,0,0
-609,-636,0,0,0,0,0,0,0,0,0,-1,615,1660,0,0
-602,-636,0,0,0,0,0,0,0,0,0,-1,622,1660,0,0
-595,-636,0,0,0,0,0,0,0,0,0,-1,629,1660,0,0
-588,-636,0,0,0,0,0,0,0,0,0,-1,636,1660,0,0
-581,-636,0,0,0,0,0,0,0,0,0,-1,643,1660,0,0
-574,-636,0,0,0,0,0,0,0,0,0,-1,650,1660,0,0
-567,-636,0,0,0,0,0,0,0,0,0,-1,657,1660,0,0
-560,-636,0,0,0,0,0,0,0,0,0,-1,664,1660,0,0
-553,-636,0,0,0,0,0,0,0,0,0,-1,671,1660,0,0
-546,-636,0,0,0,0,0,0,0,0,0,-1,678,1660,0,0
-539,-636,0,0,0,0,0,0,0,0,0,-1,685,1660,0,0
-532,-636,0,0,0,0,0,0,0,0,0,-1,692,1660,0,0
-525,-636,0,0,0,0,0,0,0,0,0,-1,699,1660,0,0
-518,-636,0,0,0,0,0,0,0,0,0,-1,706,1660,0,0
-511,-636,0,0,0,0,0,0,0,0,0,-1,713,1660,0,0
-504,-636,0,0,0,0,0,0,0,0,0,-1,720,1660,0,0
-497,-636,0,0,0,0,0,0,0,0,0,-1,727,1660,0,0
-490,-636,0,0,0,0,0,0,0,0,0,-1,734,1660,0,0
-483,-636,0,0,0,0,0,0,0,0,0,-1,741,1660,0,0
-476,-636,0,0,0,0,0,0,0,0,0,-1,748,1660,0,0
-469,-636,0,0,0,0,0,0,0,0,0,-1,755,1660,0,0
-462,-636,0,0,0,0,0,0,0,0,0,-1,762,1660,0,0
-455,-636,0,0,0,0,0,0,0,0,0,-1,769,1660,0,0
-448,-636,0,0,0,0,0,0,0,0,0,-1,776,1660,0,0
-441,-636,0,0,0,0,0,0,0,0,0,-1,783,1660,0,0
-434,-636,0,0,0,0,0,0,0,0,0,-1,790,1660,0,0
-427,-636,0,0,0,0,0,0,0,0,0,-1,797,1660,0,0
-420,-636,0,0,0,0,0,0,0,0,0,-1,804,1660,0,0
-413,-636,0,0,0,0,0,0,0,0,0,-1,811,1660,0,0
-406,-636,-0.591125,10.6943,0,0,0,0,0,0,0,-1,818,1660,-0.59115,-10.6943
-399,-636,0.0766602,11.2408,0,0,0,0,0,0,0,-1,825,1660,0.076685,-11.2409
-392,-636,0.75946,11.9233,0,0,0,0,0,0,0,-1,832,1660,0.759481,-11.9233
-385,-636,1.68878,12.517,0,0,0,0,0,0,0,-1,839,1660,1.6888,-12.5169
-378,-636,2.22107,13.0013,0,0,0,0,0,0,0,-1,846,1660,2.22107,-13.0014
-371,-636,2.52185,11.9684,0,0,0,0,0,0,0,-1,853,1660,2.52184,-11.9684
-364,-636,4.51947,14.8503,0,0,0,0,0,0,0,-1,860,1660,4.51949,-14.8504
-357,-636,4.55682,15.8809,0,0,0,0,0,0,0,-1,867,1660,4.55681,-15.8808
-350,-636,2.57788,36.7095,0,0,0,0,0,0,0,-1,874,1660,2.57785,-36.7094
-343,-636,-5.8728,103.424,0,0,0,0,0,0,0,-1,881,1660,-5.87281,-103.424
-336,-636,-8.47229,124.221,0,0,0,0,0,0,0,-1,888,1660,-8.4723,-124.221
-329,-636,-14.2931,209.027,0,0,0,0,0,0,0,-1,895,1660,-14.2931,-209.027
-322,-636,-25.4948,218.822,0,0,0,0,0,0,0,-1,902,1660,-25.4948,-218.822
-315,-636,-26.1428,222.805,0,0,0,0,0,0,0,-1,909,1660,-26.1427,-222.805
-308,-636,-27.1161,226.788,0,0,0,0,0,0,0,-1,916,1660,-27.1162,-226.788
-301,-636,-27.5101,230.404,0,0,0,0,0,0,0,-1,923,1660,-27.5101,-230.404
-294,-636,-27.998,233.671,0,0,0,0,0,0,0,-1,930,1660,-27.9981,-233.671
-287,-636,-28.8434,237.246,0,0,0,0,0,0,0,-1,937,1660,-28.8434,-237.246
-280,-636,-29.9882,241.694,0,0,0,0,0,0,0,-1,944,1660,-29.9881,-241.694
-273,-636,-30.0549,244.781,0.0598379,0.00520331,-0.0491542,0.0887556,-0.0237143,-0.531776,0.0684583,0.0215112,951,1660,-30.0549,-244.781
-266,-636,-30.3079,248.136,0.0644211,0.00416023,-0.051779,0.0941982,-0.0256168,-0.521894,0.0728547,0.0261755,958,1660,-30.3078,-248.136
-259,-636,-30.5254,251.382,0.0690546,0.0032775,-0.0538164,0.0992363,-0.0269042,-0.511118,0.0767147,0.0373379,965,1660,-30.5254,-251.382
-252,-636,-30.8444,254.595,0.0731482,0.00214177,-0.054982,0.103093,-0.0278034,-0.498716,0.0796315,0.0334863,972,1660,-30.8444,-254.595
-245,-636,-31.0643,257.784,0.0767565,0.000802669,-0.0554429,0.105982,-0.0284228,-0.485113,0.081792,0.027083,979,1660,-31.0643,-257.784
-238,-636,-31.2662,260.96,0.0808296,-0.000362154,-0.0560179,0.109415,-0.0289474,-0.471844,0.0842664,0.0224928,986,1660,-31.2662,-260.96
-231,-636,-31.3807,264.155,0.0849722,-0.00209408,-0.0559127,0.112301,-0.0294225,-0.454623,0.0863617,0.0298247,993,1660,-31.3807,-264.155
-224,-636,-31.1402,267.379,0,0,0,0,0,0,0,-1,1000,1660,-31.1402,-267.379
-217,-636,-30.7708,270.531,0,0,0,0,0,0,0,-1,1007,1660,-30.7708,-270.531
-210,-636,-31.4447,273.285,0,0,0,0,0,0,0,-1,1014,1660,-31.4447,-273.285
-203,-636,-24.7884,239.89,0,0,0,0,0,0,0,-1,1021,1660,-24.7884,-239.89
-196,-636,-21.7733,219.773,0,0,0,0,0,0,0,-1,1028,1660,-21.7733,-219.773
-189,-636,-17.9448,192.633,0,0,0,0,0,0,0,-1,1035,1660,-17.9448,-192.633
-182,-636,-7.71545,133.33,0,0,0,0,0,0,0,-1,1042,1660,-7.71542,-133.33
-175,-636,-6.10059,127.683,0,0,0,0,0,0,0,-1,1049,1660,-6.10056,-127.683
-168,-636,-1.64722,104.298,0,0,0,0,0,0,0,-1,1056,1660,-1.64726,-104.298
-161,-636,4.54553,56.2565,0,0,0,0,0,0,0,-1,1063,1660,4.5455,-56.2564
-154,-636,2.33289,62.5505,0,0,0,0,0,0,0,-1,1070,1660,2.33283,-62.5505
-147,-636,4.22656,55.8413,0,0,0,0,0,0,0,-1,1077,1660,4.22662,-55.8413
-140,-636,3.20886,57.1307,0,0,0,0,0,0,0,-1,1084,1660,3.20882,-57.1307
-133,-636,2.82764,57.9807,0,0,0,0,0,0,0,-1,1091,1660,2.82766,-57.9807
-126,-636,2.44653,58.8307,0,0,0,0,0,0,0,-1,1098,1660,2.44649,-58.8307
-119,-636,1.8667,13.8916,0,0,0,0,0,0,0,-1,1105,1660,1.86668,-13.8916
-112,-636,-1.24963,9.7998,0,0,0,0,0,0,0,-1,1112,1660,-1.24968,-9.79978
-105,-636,3.51624,4.72791,0,0,0,0,0,0,0,-1,1119,1660,3.51618,-4.7279
-98,-636,1.54504,5.11914,0,0,0,0,0,0,0,-1,1126,1660,1.54503,-5.11912
-91,-636,-1.87964,-2.25012,0,0,0,0,0,0,0,-1,1133,1660,-1.87966,2.25016
-84,-636,-2.84143,0.133667,0,0,0,0,0,0,0,-1,1140,1660,-2.84144,-0.133701
-77,-636,-3.57349,2.45935,0,0,0,0,0,0,0,-1,1147,1660,-3.57345,-2.45939
-70,-636,-4.23682,4.82312,0,0,0,0,0,0,0,-1,1154,1660,-4.23681,-4.82307
-63,-636,-2.21033,6.97168,0,0,0,0,0,0,0,-1,1161,1660,-2.21034,-6.97165
-56,-636,-2.51917,8.80359,0,0,0,0,0,0,0,-1,1168,1660,-2.51916,-8.80361
-49,-636,-3.13,10.4113,0,0,0,0,0,0,0,-1,1175,1660,-3.12996,-10.4112
-42,-636,-2.27771,4.90173,0,0,0,0,0,0,0,-1,1182,1660,-2.27775,-4.90173
-35,-636,-2.27698,5.89685,0,0,0,0,0,0,0,-1,1189,1660,-2.27695,-5.89686
-28,-636,-1.70654,4.83936,0,0,0,0,0,0,0,-1,1196,1660,-1.70656,-4.8393
-21,-636,12.8972,207.317,0,0,0,0,0,0,0,-1,1203,1660,12.8972,-207.317
-14,-636,28.9121,312.769,0,0,0,0,0,0,0,-1,1210,1660,28.9121,-312.769
-7,-636,32.0542,329.742,0,0,0,0,0,0,0,-1,1217,1660,32.0541,-329.742
0,-636,31.2363,330.593,0,0,0,0,0,0,0,-1,1224,1660,31.2363,-330.593
7,-636,30.5189,331.398,0,0,0,0,0,0,0,-1,1231,1660,30.5189,-331.398
14,-636,29.736,332.27,0,0,0,0,0,0,0,-1,1238,1660,29.736,-332.27
21,-636,28.9563,333.166,0,0,0,0,0,0,0,-1,1245,1660,28.9563,-333.166
28,-636,28.3823,334.072,0,0,0,0,0,0,0,-1,1252,1660,28.3824,-334.072
35,-636,27.8179,334.675,0,0,0,0,0,0,0,-1,1259,1660,27.8179,-334.675
42,-636,26.698,334.996,0,0,0,0,0,0,0,-1,1266,1660,26.698,-334.996
49,-636,25.8402,334.504,0,0,0,0,0,0,0,-1,1273,1660,25.8402,-334.504
56,-636,24.9753,333.637,0,0,0,0,0,0,0,-1,1280,1660,24.9753,-333.637
63,-636,23.9594,333.089,0,0,0,0,0,0,0,-1,1287,1660,23.9593,-333.09
70,-636,22.2,332.914,0,0,0,0,0,0,0,-1,1294,1660,22.2,-332.914
77,-636,21.3481,332.391,0,0,0,0,0,0,0,-1,1301,1660,21.3481,-332.391
84,-636,20.4905,331.719,0,0,0,0,0,0,0,-1,1308,1660,20.4904,-331.719
91,-636,19.7024,331.084,0,0,0,0,0,0,0,-1,1315,1660,19.7024,-331.084
98,-636,18.252,330.293,0,0,0,0,0,0,0,-1,1322,1660,18.252,-330.293
105,-636,14.9082,334.157,0,0,0,0,0,0,0,-1,1329,1660,14.9082,-334.157
112,-636,13.4335,333.492,0,0,0,0,0,0,0,-1,1336,1660,13.4335,-333.492
119,-636,11.8594,332.755,0,0,0,0,0,0,0,-1,1343,1660,11.8594,-332.755
126,-636,10.348,332.176,0,0,0,0,0,0,0,-1,1350,1660,10.3481,-332.176
133,-636,8.74048,331.605,0,0,0,0,0,0,0,-1,1357,1660,8.74046,-331.605
140,-636,7.20825,329.824,0,0,0,0,0,0,0,-1,1364,1660,7.20822,-329.824
147,-636,6.03357,329.584,0,0,0,0,0,0,0,-1,1371,1660,6.03354,-329.584
154,-636,4.85388,329.451,0,0,0,0,0,0,0,-1,1378,1660,4.85387,-329.451
161,-636,10.2961,7.13025,0,0,0,0,0,0,0,-1,1385,1660,10.2961,-7.13021
168,-636,11.7659,5.83899,0,0,0,0,0,0,0,-1,1392,1660,11.7658,-5.83899
175,-636,5.94592,-1.72888,0,0,0,0,0,0,0,-1,1399,1660,5.94598,1.72886
182,-636,5.93994,-1.11938,0,0,0,0,0,0,0,-1,1406,1660,5.93998,1.11936
189,-636,5.32544,11.9595,0,0,0,0,0,0,0,-1,1413,1660,5.32542,-11.9595
196,-636,5.3623,9.38025,0,0,0,0,0,0,0,-1,1420,1660,5.36225,-9.38027
203,-636,5.18542,9.02429,0,0,0,0,0,0,0,-1,1427,1660,5.18547,-9.0243
210,-636,4.09167,7.17041,0,0,0,0,0,0,0,-1,1434,1660,4.09173,-7.17041
217,-636,2.94897,5.28992,0,0,0,0,0,0,0,-1,1441,1660,2.94899,-5.28991
224,-636,1.49194,3.63916,0,0,0,0,0,0,0,-1,1448,1660,1.49197,-3.63918
231,-636,0.17749,2.24854,0,0,0,0,0,0,0,-1,1455,1660,0.177501,-2.24855
238,-636,-0.764648,1.00598,0,0,0,0,0,0,0,-1,1462,1660,-0.764704,-1.00595
245,-636,6.21204,1.18005,0,0,0,0,0,0,0,-1,1469,1660,6.21206,-1.18001
252,-636,7.70251,0.865723,0,0,0,0,0,0,0,-1,1476,1660,7.7025,-0.865692
259,-636,9.03601,0.787231,0,0,0,0,0,0,0,-1,1483,1660,9.03598,-0.787243
266,-636,10.1071,3.24109,0,0,0,0,0,0,0,-1,1490,1660,10.1071,-3.24103
273,-636,8.48535,5.02466,0,0,0,0,0,0,0,-1,1497,1660,8.48533,-5.02472
280,-636,11.908,32.0698,0,0,0,0,0,0,0,-1,1504,1660,11.9079,-32.0698
287,-636,12.1218,36.4158,0,0,0,0,0,0,0,-1,1511,1660,12.1218,-36.4158
294,-636,13.3706,44.9711,0,0,0,0,0,0,0,-1,1518,1660,13.3706,-44.9711
301,-636,19.6848,107.288,0,0,0,0,0,0,0,-1,1525,1660,19.6848,-107.288
308,-636,20.512,112.991,0,0,0,0,0,0,0,-1,1532,1660,20.512,-112.991
315,-636,19.869,115.303,0,0,0,0,0,0,0,-1,1539,1660,19.869,-115.303
322,-636,22.5635,175.394,0,0,0,0,0,0,0,-1,1546,1660,22.5634,-175.394
329,-636,24.3379,216.24,0,0,0,0,0,0,0,-1,1553,1660,24.3379,-216.24
336,-636,24.4642,224.183,0,0,0,0,0,0,0,-1,1560,1660,24.4642,-224.183
343,-636,32.3832,272.048,0,0,0,0,0,0,0,-1,1567,1660,32.3832,-272.048
350,-636,48.8621,273.675,0,0,0,0,0,0,0,-1,1574,1660,48.8621,-273.675
357,-636,48.2139,270.658,0.0705861,0.00406792,0.0447209,0.0930597,-0.0184056,0.465668,0.0689982,0.0484259,1581,1660,48.2139,-270.658
364,-636,47.7881,267.429,0.066596,0.00366879,0.0432232,0.0885946,-0.0183298,0.470784,0.0660266,0.0197007,1588,1660,47.7881,-267.429
371,-636,47.7312,264.409,0.063327,0.00285983,0.0415137,0.0844496,-0.0182628,0.470671,0.063272,0.0162223,1595,1660,47.7311,-264.409
378,-636,47.4492,261.293,0.0601392,0.00257324,0.0397025,0.0803944,-0.017682,0.471755,0.0603599,0.0151763,1602,1660,47.4492,-261.293
385,-636,47.0474,258.025,0.0563898,0.00271035,0.0379891,0.0760639,-0.0169638,0.477856,0.0572085,0.0238065,1609,1660,47.0474,-258.025
392,-636,46.6802,254.716,0.0526586,0.00270092,0.0359558,0.0714606,-0.0161011,0.481815,0.0538164,0.0246864,1616,1660,46.6802,-254.716
399,-636,46.182,251.318,0.0489218,0.00293037,0.0338577,0.0668546,-0.0150025,0.487088,0.0503216,0.0186231,1623,1660,46.182,-251.318
406,-636,45.7551,247.923,0.0451187,0.00350757,0.0317313,0.0622571,-0.0136308,0.495219,0.046716,0.0220165,1630,1660,45.7552,-247.923
413,-636,45.1979,244.519,0.0411857,0.00423035,0.0295024,0.0575192,-0.0121031,0.505627,0.0429527,0.0299817,1637,1660,45.1979,-244.519
420,-636,44.4384,241.061,0.0372037,0.00525081,0.0270234,0.0526201,-0.0101656,0.518434,0.0389138,0.0282729,1644,1660,44.4384,-241.061
427,-636,43.7157,237.527,0.0333714,0.00630101,0.0242791,0.0476332,-0.00796083,0.531113,0.0347147,0.0190881,1651,1660,43.7157,-237.527
434,-636,42.9414,233.842,0.0295705,0.00739718,0.0213101,0.0425054,-0.00553771,0.545539,0.0303517,0.0180349,1658,1660,42.9414,-233.842
441,-636,42.1887,230.086,0.025991,0.00835632,0.018107,0.0373134,-0.00296609,0.558819,0.0259209,0.0181134,1665,1660,42.1887,-230.086
448,-636,41.2241,226.158,0.0226583,0.00948152,0.0148783,0.0323417,-0.00020186,0.576965,0.0216287,0.0335908,1672,1660,41.2241,-226.158
455,-636,40.1177,222.048,0,0,0,0,0,0,0,-1,1679,1660,40.1176,-222.048
462,-636,19.5168,211.472,0,0,0,0,0,0,0,-1,1686,1660,19.5168,-211.472
469,-636,16.0038,141.557,0,0,0,0,0,0,0,-1,1693,1660,16.0038,-141.557
476,-636,17.6901,99.8433,0,0,0,0,0,0,0,-1,1700,1660,17.69,-99.8432
483,-636,11.3833,24.3958,0,0,0,0,0,0,0,-1,1707,1660,11.3833,-24.3957
490,-636,10.8951,23.9569,0,0,0,0,0,0,0,-1,1714,1660,10.8951,-23.9569
497,-636,9.55579,18.0111,0,0,0,0,0,0,0,-1,1721,1660,9.55574,-18.0111
504,-636,6.26428,19.4268,0,0,0,0,0,0,0,-1,1728,1660,6.26433,-19.4268
511,-636,5.65466,9.23218,0,0,0,0,0,0,0,-1,1735,1660,5.65461,-9.23216
518,-636,6.72791,1.07605,0,0,0,0,0,0,0,-1,1742,1660,6.7279,-1.0761
525,-636,7.04309,0.93335,0,0,0,0,0,0,0,-1,1749,1660,7.04308,-0.933298
532,-636,0,0,0,0,0,0,0,0,0,-1,1756,1660,0,0
539,-636,0,0,0,0,0,0,0,0,0,-1,1763,1660,0,0
546,-636,0,0,0,0,0,0,0,0,0,-1,1770,1660,0,0
553,-636,0,0,0,0,0,0,0,0,0,-1,1777,1660,0,0
560,-636,0,0,0,0,0,0,0,0,0,-1,1784,1660,0,0
567,-636,0,0,0,0,0,0,0,0,0,-1,1791,1660,0,0
574,-636,0,0,0,0,0,0,0,0,0,-1,1798,1660,0,0
581,-636,0,0,0,0,0,0,0,0,0,-1,1805,1660,0,0
588,-636,0,0,0,0,0,0,0,0,0,-1,1812,1660,0,0
595,-636,0,0,0,0,0,0,0,0,0,-1,1819,1660,0,0
602,-636,0,0,0,0,0,0,0,0,0,-1,1826,1660,0,0
609,-636,0,0,0,0,0,0,0,0,0,-1,1833,1660,0,0
616,-636,0,0,0,0,0,0,0,0,0,-1,1840,1660,0,0
623,-636,0,0,0,0,0,0,0,0,0,-1,1847,1660,0,0
630,-636,0,0,0,0,0,0,0,0,0,-1,1854,1660,0,0
637,-636,0,0,0,0,0,0,0,0,0,-1,1861,1660,0,0
644,-636,0,0,0,0,0,0,0,0,0,-1,1868,1660,0,0
651,-636,0,0,0,0,0,0,0,0,0,-1,1875,1660,0,0
658,-636,0,0,0,0,0,0,0,0,0,-1,1882,1660,0,0
665,-636,0,0,0,0,0,0,0,0,0,-1,1889,1660,0,0
672,-636,0,0,0,0,0,0,0,0,0,-1,1896,1660,0,0
679,-636,0,0,0,0,0,0,0,0,0,-1,1903,1660,0,0
686,-636,0,0,0,0,0,0,0,0,0,-1,1910,1660,0,0
693,-636,0,0,0,0,0,0,0,0,0,-1,1917,1660,0,0
700,-636,0,0,0,0,0,0,0,0,0,-1,1924,1660,0,0
707,-636,0,0,0,0,0,0,0,0,0,-1,1931,1660,0,0
714,-636,0,0,0,0,0,0,0,0,0,-1,1938,1660,0,0
721,-636,0,0,0,0,0,0,0,0,0,-1,1945,1660,0,0
728,-636,0,0,0,0,0,0,0,0,0,-1,1952,1660,0,0
735,-636,0,0,0,0,0,0,0,0,0,-1,1959,1660,0,0
742,-636,0,0,0,0,0,0,0,0,0,-1,1966,1660,0,0
749,-636,0,0,0,0,0,0,0,0,0,-1,1973,1660,0,0
756,-636,0,0,0,0,0,0,0,0,0,-1,1980,1660,0,0
763,-636,0,0,0,0,0,0,0,0,0,-1,1987,1660,0,0
770,-636,0,0,0,0,0,0,0,0,0,-1,1994,1660,0,0
777,-636,0,0,0,0,0,0,0,0,0,-1,2001,1660,0,0
784,-636,0,0,0,0,0,0,0,0,0,-1,2008,1660,0,0
791,-636,0,0,0,0,0,0,0,0,0,-1,2015,1660,0,0
798,-636,0,0,0,0,0,0,0,0,0,-1,2022,1660,0,0
805,-636,0,0,0,0,0,0,0,0,0,-1,2029,1660,0,0
812,-636,0,0,0,0,0,0,0,0,0,-1,2036,1660,0,0
-700,-643,0,0,0,0,0,0,0,0,0,-1,524,1667,0,0
-693,-643,0,0,0,0,0,0,0,0,0,-1,531,1667,0,0
-686,-643,0,0,0,0,0,0,0,0,0,-1,538,1667,0,0
-679,-643,0,0,0,0,0,0,0,0,0,-1,545,1667,0,0
-672,-643,0,0,0,0,0,0,0,0,0,-1,552,1667,0,0
-665,-643,0,0,0,0,0,0,0,0,0,-1,559,1667,0,0
-658,-643,0,0,0,0,0,0,0,0,0,-1,566,1667,0,0
-651,-643,0,0,0,0,0,0,0,0,0,-1,573,1667,0,0
-644,-643,0,0,0,0,0,0,0,0,0,-1,580,1667,0,0
-637,-643,0,0,0,0,0,0,0,0,0,-1,587,1667,0,0
-630,-643,0,0,0,0,0,0,0,0,0,-1,594,1667,0,0
-623,-643,0,0,0,0,0,0,0,0,0,-1,601,1667,0,0
-616,-643,0,0,0,0,0,0,0,0,0,-1,608,1667,0,0
-609,-643,0,0,0,0,0,0,0,0,0,-1,615,1667,0,0
-602,-643,0,0,0,0,0,0,0,0,0,-1,622,1667,0,0
-595,-643,0,0,0,0,0,0,0,0,0,-1,629,1667,0,0
-588,-643,0,0,0,0,0,0,0,0,0,-1,636,1667,0,0
-581,-643,0,0,0,0,0,0,0,0,0,-1,643,1667,0,0
-574,-643,0,0,0,0,0,0,0,0,0,-1,650,1667,0,0
-567,-643,0,0,0,0,0,0,0,0,0,-1,657,1667,0,0
-560,-643,0,0,0,0,0,0,0,0,0,-1,664,1667,0,0
-553,-643,0,0,0,0,0,0,0,0,0,-1,671,1667,0,0
-546,-643,0,0,0,0,0,0,0,0,0,-1,678,1667,0,0
-539,-643,0,0,0,0,0,0,0,0,0,-1,685,1667,0,0
-532,-643,0,0,0,0,0,0,0,0,0,-1,692,1667,0,0
-525,-643,0,0,0,0,0,0,0,0,0,-1,699,1667,0,0
-518,-643,0,0,0,0,0,0,0,0,0,-1,706,1667,0,0
-511,-643,0,0,0,0,0,0,0,0,0,-1,713,1667,0,0
-504,-643,0,0,0,0,0,0,0,0,0,-1,720,1667,0,0
-497,-643,0,0,0,0,0,0,0,0,0,-1,727,1667,0,0
-490,-643,0,0,0,0,0,0,0,0,0,-1,734,1667,0,0
-483,-643,0,0,0,0,0,0,0,0,0,-1,741,1667,0,0
-476,-643,0,0,0,0,0,0,0,0,0,-1,748,1667,0,0
-469,-643,0,0,0,0,0,0,0,0,0,-1,755,1667,0,0
-462,-643,0,0,0,0,0,0,0,0,0,-1,762,1667,0,0
-455,-643,0,0,0,0,0,0,0,0,0,-1,769,1667,0,0
-448,-643,0,0,0,0,0,0,0,0,0,-1,776,1667,0,0
-441,-643,0,0,0,0,0,0,0,0,0,-1,783,1667,0,0
-434,-643,0,0,0,0,0,0,0,0,0,-1,790,1667,0,0
-427,-643,0,0,0,0,0,0,0,0,0,-1,797,1667,0,0
-420,-643,0,0,0,0,0,0,0,0,0,-1,804,1667,0,0
-413,-643,0,0,0,0,0,0,0,0,0,-1,811,1667,0,0
-406,-643,0,0,0,0,0,0,0,0,0,-1,818,1667,0,0
-399,-643,0.589417,11.6465,0,0,0,0,0,0,0,-1,825,1667,0.58939,-11.6465
-392,-643,0.865295,12.6523,0,0,0,0,0,0,0,-1,832,1667,0.865315,-12.6523
-385,-643,1.72968,13.2692,0,0,0,0,0,0,0,-1,839,1667,1.72967,-13.2692
-378,-643,2.66522,13.8193,0,0,0,0,0,0,0,-1,846,1667,2.66524,-13.8193
-371,-643,0.466125,3.35095,0,0,0,0,0,0,0,-1,853,1667,0.466148,-3.351
-364,-643,1.69513,9.922,0,0,0,0,0,0,0,-1,860,1667,1.69511,-9.92205
-357,-643,1.14227,10.8429,0,0,0,0,0,0,0,-1,867,1667,1.14228,-10.8429
-350,-643,4.48804,36.1799,0,0,0,0,0,0,0,-1,874,1667,4.48801,-36.1799
-343,-643,2.32159,48.7034,0,0,0,0,0,0,0,-1,881,1667,2.3216,-48.7034
-336,-643,-4.51129,105.569,0,0,0,0,0,0,0,-1,888,1667,-4.51131,-105.569
-329,-643,-6.68561,126.295,0,0,0,0,0,0,0,-1,895,1667,-6.68564,-126.295
-322,-643,-9.97827,200.169,0,0,0,0,0,0,0,-1,902,1667,-9.97827,-200.169
-315,-643,-21.9915,223.786,0,0,0,0,0,0,0,-1,909,1667,-21.9914,-223.786
-308,-643,-23.0897,227.979,0,0,0,0,0,0,0,-1,916,1667,-23.0897,-227.979
-301,-643,-16.4598,228.431,0,0,0,0,0,0,0,-1,923,1667,-16.4598,-228.431
-294,-643,-23.9824,234.802,0,0,0,0,0,0,0,-1,930,1667,-23.9824,-234.801
-287,-643,-25.1213,238.858,0.0468111,0.00626833,-0.0358785,0.0677489,-0.0146694,-0.528254,0.0507672,0.0304762,937,1667,-25.1213,-238.858
-280,-643,-25.7897,242.395,0.0502651,0.00568143,-0.0392509,0.0731126,-0.017166,-0.527145,0.0553581,0.0251644,944,1667,-25.7897,-242.395
-273,-643,-26.2988,245.806,0.0540861,0.00480683,-0.0423475,0.0784406,-0.0195476,-0.521917,0.0598827,0.0232988,951,1667,-26.2987,-245.806
-266,-643,-26.589,249.16,0.0584033,0.00360596,-0.0451439,0.0838124,-0.0218032,-0.512653,0.0643852,0.0252621,958,1667,-26.589,-249.16
-259,-643,-26.8274,252.335,0.0627003,0.00249686,-0.0472897,0.088656,-0.0234588,-0.501971,0.0682803,0.0324991,965,1667,-26.8274,-252.335
-252,-643,-27.1777,255.49,0.0665334,0.00131573,-0.0486999,0.0925336,-0.0246845,-0.490387,0.0713549,0.0428695,972,1667,-27.1777,-255.49
-245,-643,-27.35,258.708,0.0699994,2.11193e-05,-0.0495139,0.0956392,-0.0256187,-0.47781,0.0737965,0.0356138,979,1667,-27.35,-258.708
-238,-643,-27.6437,261.908,0.0738522,-0.00124144,-0.0503162,0.0990866,-0.0264758,-0.46486,0.0764272,0.0241199,986,1667,-27.6437,-261.908
-231,-643,-27.8555,265.13,0.0778354,-0.00287149,-0.0505467,0.102161,-0.027197,-0.448534,0.0787542,0.0231054,993,1667,-27.8555,-265.13
-224,-643,-27.6014,268.083,0,0,0,0,0,0,0,-1,1000,1667,-27.6015,-268.083
-217,-643,-27.8433,271.118,0.0847035,-0.00629495,-0.0496448,0.106545,-0.0281366,-0.414471,0.0820334,0.0231045,1007,1667,-27.8433,-271.118
-210,-643,-27.9468,274.078,0.0881355,-0.00832264,-0.0489336,0.108613,-0.0287997,-0.396324,0.083677,0.0371468,1014,1667,-27.9468,-274.078
-203,-643,-27.2918,276.95,0,0,0,0,0,0,0,-1,1021,1667,-27.2918,-276.95
-196,-643,-27.647,279.788,0,0,0,0,0,0,0,-1,1028,1667,-27.647,-279.788
-189,-643,-25.3441,281.526,0,0,0,0,0,0,0,-1,1035,1667,-25.3441,-281.526
-182,-643,-16.009,195.212,0,0,0,0,0,0,0,-1,1042,1667,-16.009,-195.212
-175,-643,-7.11316,138.679,0,0,0,0,0,0,0,-1,1049,1667,-7.11322,-138.679
-168,-643,-5.92041,131.39,0,0,0,0,0,0,0,-1,1056,1667,-5.92042,-131.39
-161,-643,-2.19751,109.358,0,0,0,0,0,0,0,-1,1063,1667,-2.19756,-109.358
-154,-643,-0.143555,99.9445,0,0,0,0,0,0,0,-1,1070,1667,-0.143534,-99.9445
-147,-643,2.29285,74.679,0,0,0,0,0,0,0,-1,1077,1667,2.2928,-74.6789
-140,-643,2.17468,70.4902,0,0,0,0,0,0,0,-1,1084,1667,2.17471,-70.4902
-133,-643,2.32495,61.5938,0,0,0,0,0,0,0,-1,1091,1667,2.32497,-61.5937
-126,-643,3.28662,58.6659,0,0,0,0,0,0,0,-1,1098,1667,3.28657,-58.6658
-119,-643,3.76282,14.1458,0,0,0,0,0,0,0,-1,1105,1667,3.76283,-14.1458
-112,-643,3.81458,16.2069,0,0,0,0,0,0,0,-1,1112,1667,3.81463,-16.2069
-105,-643,-2.23413,10.0996,0,0,0,0,0,0,0,-1,1119,1667,-2.23415,-10.0996
-98,-643,3.11035,4.68066,0,0,0,0,0,0,0,-1,1126,1667,3.11041,-4.68071
-91,-643,-1.74146,-2.5885,0,0,0,0,0,0,0,-1,1133,1667,-1.74146,2.58856
-84,-643,-3.07446,-0.199341,0,0,0,0,0,0,0,-1,1140,1667,-3.07449,0.199383
-77,-643,-3.63794,2.81165,0,0,0,0,0,0,0,-1,1147,1667,-3.63791,-2.8117
-70,-643,-3.36938,4.45203,0,0,0,0,0,0,0,-1,1154,1667,-3.36941,-4.452
-63,-643,-3.67822,6.26855,0,0,0,0,0,0,0,-1,1161,1667,-3.67823,-6.26856
-56,-643,-3.95142,8.1073,0,0,0,0,0,0,0,-1,1168,1667,-3.95139,-8.10732
-49,-643,-4.23535,9.90552,0,0,0,0,0,0,0,-1,1175,1667,-4.23537,-9.90557
-42,-643,-4.25195,10.7059,0,0,0,0,0,0,0,-1,1182,1667,-4.25192,-10.706
-35,-643,-4.10986,11.6588,0,0,0,0,0,0,0,-1,1189,1667,-4.10982,-11.6589
-28,-643,-1.38513,5.604,0,0,0,0,0,0,0,-1,1196,1667,-1.3851,-5.60403
-21,-643,24.1896,250.931,0,0,0,0,0,0,0,-1,1203,1667,24.1896,-250.931
-14,-643,27.6713,314.846,0,0,0,0,0,0,0,-1,1210,1667,27.6712,-314.846
-7,-643,31.553,329.6,0,0,0,0,0,0,0,-1,1217,1667,31.553,-329.6
0,-643,30.5648,330.343,0,0,0,0,0,0,0,-1,1224,1667,30.5649,-330.343
7,-643,29.9698,331.009,0,0,0,0,0,0,0,-1,1231,1667,29.9698,-331.009
14,-643,28.9807,332.119,0,0,0,0,0,0,0,-1,1238,1667,28.9807,-332.119
21,-643,28.1199,333.1,0,0,0,0,0,0,0,-1,1245,1667,28.1199,-333.1
28,-643,27.504,334.082,0,0,0,0,0,0,0,-1,1252,1667,27.504,-334.082
35,-643,26.3365,336.044,0,0,0,0,0,0,0,-1,1259,1667,26.3366,-336.044
42,-643,25.3668,335.569,0,0,0,0,0,0,0,-1,1266,1667,25.3668,-335.569
49,-643,24.4456,335.211,0,0,0,0,0,0,0,-1,1273,1667,24.4455,-335.211
56,-643,23.7715,334.339,0,0,0,0,0,0,0,-1,1280,1667,23.7715,-334.339
63,-643,22.6274,333.621,0,0,0,0,0,0,0,-1,1287,1667,22.6274,-333.621
70,-643,20.6847,333.894,0,0,0,0,0,0,0,-1,1294,1667,20.6847,-333.894
77,-643,19.7024,333.026,0,0,0,0,0,0,0,-1,1301,1667,19.7024,-333.026
84,-643,19.0364,332.529,0,0,0,0,0,0,0,-1,1308,1667,19.0363,-332.529
91,-643,18.0005,332.035,0,0,0,0,0,0,0,-1,1315,1667,18.0005,-332.035
98,-643,17.1029,331.734,0,0,0,0,0,0,0,-1,1322,1667,17.1029,-331.734
105,-643,10.4432,331.041,0,0,0,0,0,0,0,-1,1329,1667,10.4432,-331.041
112,-643,13.2594,331.58,0,0,0,0,0,0,0,-1,1336,1667,13.2594,-331.58
119,-643,12.0474,331.99,0,0,0,0,0,0,0,-1,1343,1667,12.0473,-331.989
126,-643,10.5284,331.385,0,0,0,0,0,0,0,-1,1350,1667,10.5284,-331.385
133,-643,8.80664,330.868,0,0,0,0,0,0,0,-1,1357,1667,8.80661,-330.868
140,-643,7.18835,330.234,0,0,0,0,0,0,0,-1,1364,1667,7.18838,-330.234
147,-643,5.74023,329.934,0,0,0,0,0,0,0,-1,1371,1667,5.74021,-329.934
154,-643,4.29321,329.624,0,0,0,0,0,0,0,-1,1378,1667,4.29325,-329.624
161,-643,5.57935,26.2754,0,0,0,0,0,0,0,-1,1385,1667,5.57931,-26.2754
168,-643,10.5563,10.9818,0,0,0,0,0,0,0,-1,1392,1667,10.5562,-10.9819
175,-643,5.88525,-1.1698,0,0,0,0,0,0,0,-1,1399,1667,5.88526,1.16977
182,-643,5.80945,-0.418701,0,0,0,0,0,0,0,-1,1406,1667,5.80949,0.418712
189,-643,5.42297,12.9208,0,0,0,0,0,0,0,-1,1413,1667,5.42298,-12.9208
196,-643,5.51953,11.2415,0,0,0,0,0,0,0,-1,1420,1667,5.51948,-11.2414
203,-643,5.60828,9.82153,0,0,0,0,0,0,0,-1,1427,1667,5.60833,-9.82148
210,-643,4.73218,7.58728,0,0,0,0,0,0,0,-1,1434,1667,4.73222,-7.58728
217,-643,3.8031,5.28955,0,0,0,0,0,0,0,-1,1441,1667,3.80305,-5.28955
224,-643,2.96436,2.97095,0,0,0,0,0,0,0,-1,1448,1667,2.96432,-2.97095
231,-643,2.13403,1.08472,0,0,0,0,0,0,0,-1,1455,1667,2.13403,-1.08467
238,-643,1.18152,-0.261963,0,0,0,0,0,0,0,-1,1462,1667,1.18152,0.26192
245,-643,-0.157471,-1.79016,0,0,0,0,0,0,0,-1,1469,1667,-0.157517,1.7901
252,-643,8.08789,0.0202637,0,0,0,0,0,0,0,-1,1476,1667,8.08791,-0.0203056
259,-643,9.02979,-0.46936,0,0,0,0,0,0,0,-1,1483,1667,9.02974,0.46933
266,-643,4.55066,5.17554,0,0,0,0,0,0,0,-1,1490,1667,4.55063,-5.17556
273,-643,10.74,31.432,0,0,0,0,0,0,0,-1,1497,1667,10.7399,-31.4319
280,-643,12.1675,42.5023,0,0,0,0,0,0,0,-1,1504,1667,12.1675,-42.5023
287,-643,12.9725,46.299,0,0,0,0,0,0,0,-1,1511,1667,12.9725,-46.299
294,-643,18.1219,108.518,0,0,0,0,0,0,0,-1,1518,1667,18.122,-108.518
301,-643,18.713,120.823,0,0,0,0,0,0,0,-1,1525,1667,18.713,-120.823
308,-643,19.4183,137.233,0,0,0,0,0,0,0,-1,1532,1667,19.4183,-137.233
315,-643,20.1995,171.383,0,0,0,0,0,0,0,-1,1539,1667,20.1995,-171.383
322,-643,22.1925,213.886,0,0,0,0,0,0,0,-1,1546,1667,22.1925,-213.886
329,-643,44.1776,283.181,0,0,0,0,0,0,0,-1,1553,1667,44.1776,-283.181
336,-643,44.7825,280.186,0,0,0,0,0,0,0,-1,1560,1667,44.7825,-280.186
343,-643,45.0371,277.364,0,0,0,0,0,0,0,-1,1567,1667,45.0371,-277.364
350,-643,45.0066,274.363,0.0685969,0.00348734,0.0421588,0.0893072,-0.017223,0.456621,0.0660322,0.0252143,1574,1667,45.0066,-274.363
357,-643,44.6226,271.357,0.0643994,0.00366519,0.0407759,0.0848736,-0.016809,0.465338,0.0629381,0.0213234,1581,1667,44.6226,-271.357
364,-643,44.4011,268.355,0.0604811,0.00349689,0.0391764,0.0804306,-0.0164527,0.470999,0.0598631,0.0177644,1588,1667,44.4011,-268.355
371,-643,44.343,265.353,0.0570589,0.00290859,0.0373691,0.0761303,-0.0161629,0.471897,0.0569114,0.0153254,1595,1667,44.343,-265.353
378,-643,44.0361,262.232,0.0537614,0.00282056,0.0354767,0.071964,-0.0153821,0.474063,0.0538409,0.0157126,1602,1667,44.0362,-262.232
385,-643,43.5989,258.927,0.0500593,0.00307006,0.0336725,0.0676236,-0.0144943,0.480795,0.0506104,0.0211485,1609,1667,43.5989,-258.927
392,-643,43.1005,255.632,0.0463371,0.00321644,0.0316092,0.0630389,-0.0134853,0.486096,0.047168,0.0216373,1616,1667,43.1004,-255.632
399,-643,42.5176,252.354,0.0426006,0.00365445,0.0294201,0.0584084,-0.0121534,0.493052,0.043559,0.0203588,1623,1667,42.5175,-252.354
406,-643,42.0204,248.911,0.0387848,0.00433829,0.0272153,0.0537689,-0.0106458,0.503285,0.0398711,0.0210443,1630,1667,42.0203,-248.911
413,-643,41.5162,245.453,0.0348194,0.00525204,0.0248714,0.0489692,-0.00889774,0.517251,0.0359807,0.0262874,1637,1667,41.5162,-245.453
420,-643,40.7312,242.003,0.0309804,0.00632874,0.0223116,0.0441444,-0.00683527,0.53304,0.0319527,0.0230406,1644,1667,40.7313,-242.003
427,-643,39.9612,238.531,0.0273073,0.00748991,0.019493,0.0392655,-0.00446828,0.550258,0.0277864,0.0207141,1651,1667,39.9612,-238.531
434,-643,39.0974,234.848,0.0234955,0.00886328,0.0163116,0.0340566,-0.00169775,0.574585,0.0232909,0.0343849,1658,1667,39.0974,-234.848
441,-643,38.2137,231.036,0,0,0,0,0,0,0,-1,1665,1667,38.2137,-231.036
448,-643,37.3926,227.031,0,0,0,0,0,0,0,-1,1672,1667,37.3925,-227.031
455,-643,15.6519,213.655,0,0,0,0,0,0,0,-1,1679,1667,15.6519,-213.655
462,-643,14.2635,144.444,0,0,0,0,0,0,0,-1,1686,1667,14.2636,-144.444
469,-643,15.6941,107.608,0,0,0,0,0,0,0,-1,1693,1667,15.6941,-107.608
476,-643,16.5469,79.5991,0,0,0,0,0,0,0,-1,1700,1667,16.5469,-79.5992
483,-643,16.2855,58.1313,0,0,0,0,0,0,0,-1,1707,1667,16.2855,-58.1313
490,-643,10.6885,24.1522,0,0,0,0,0,0,0,-1,1714,1667,10.6884,-24.1522
497,-643,10.9073,23.9465,0,0,0,0,0,0,0,-1,1721,1667,10.9074,-23.9465
504,-643,8.05591,19.0656,0,0,0,0,0,0,0,-1,1728,1667,8.0559,-19.0655
511,-643,7.74719,18.1564,0,0,0,0,0,0,0,-1,1735,1667,7.74724,-18.1563
518,-643,7.40564,0.922607,0,0,0,0,0,0,0,-1,1742,1667,7.4057,-0.922598
525,-643,0,0,0,0,0,0,0,0,0,-1,1749,1667,0,0
532,-643,0,0,0,0,0,0,0,0,0,-1,1756,1667,0,0
539,-643,0,0,0,0,0,0,0,0,0,-1,1763,1667,0,0
546,-643,0,0,0,0,0,0,0,0,0,-1,1770,1667,0,0
553,-643,0,0,0,0,0,0,0,0,0,-1,1777,1667,0,0
560,-643,0,0,0,0,0,0,0,0,0,-1,1784,1667,0,0
567,-643,0,0,0,0,0,0,0,0,0,-1,1791,1667,0,0
574,-643,0,0,0,0,0,0,0,0,0,-1,1798,1667,0,0
581,-643,0,0,0,0,0,0,0,0,0,-1,1805,1667,0,0
588,-643,0,0,0,0,0,0,0,0,0,-1,1812,1667,0,0
595,-643,0,0,0,0,0,0,0,0,0,-1,1819,1667,0,0
602,-643,0,0,0,0,0,0,0,0,0,-1,1826,1667,0,0
609,-643,0,0,0,0,0,0,0,0,0,-1,1833,1667,0,0
616,-643,0,0,0,0,0,0,0,0,0,-1,1840,1667,0,0
623,-643,0,0,0,0,0,0,0,0,0,-1,1847,1667,0,0
630,-643,0,0,0,0,0,0,0,0,0,-1,1854,1667,0,0
637,-643,0,0,0,0,0,0,0,0,0,-1,1861,1667,0,0
644,-643,0,0,0,0,0,0,0,0,0,-1,1868,1667,0,0
651,-643,0,0,0,0,0,0,0,0,0,-1,1875,1667,0,0
658,-643,0,0,0,0,0,0,0,0,0,-1,1882,1667,0,0
665,-643,0,0,0,0,0,0,0,0,0,-1,1889,1667,0,0
672,-643,0,0,0,0,0,0,0,0,0,-1,1896,1667,0,0
679,-643,0,0,0,0,0,0,0,0,0,-1,1903,1667,0,0
686,-643,0,0,0,0,0,0,0,0,0,-1,1910,1667,0,0
693,-643,0,0,0,0,0,0,0,0,0,-1,1917,1667,0,0
700,-643,0,0,0,0,0,0,0,0,0,-1,1924,1667,0,0
707,-643,0,0,0,0,0,0,0,0,0,-1,1931,1667,0,0
714,-643,0,0,0,0,0,0,0,0,0,-1,1938,1667,0,0
721,-643,0,0,0,0,0,0,0,0,0,-1,1945,1667,0,0
728,-643,0,0,0,0,0,0,0,0,0,-1,1952,1667,0,0
735,-643,0,0,0,0,0,0,0,0,0,-1,1959,1667,0,0
742,-643,0,0,0,0,0,0,0,0,0,-1,1966,1667,0,0
749,-643,0,0,0,0,0,0,0,0,0,-1,1973,1667,0,0
756,-643,0,0,0,0,0,0,0,0,0,-1,1980,1667,0,0
763,-643,0,0,0,0,0,0,0,0,0,-1,1987,1667,0,0
770,-643,0,0,0,0,0,0,0,0,0,-1,1994,1667,0,0
777,-643,0,0,0,0,0,0,0,0,0,-1,2001,1667,0,0
784,-643,0,0,0,0,0,0,0,0,0,-1,2008,1667,0,0
791,-643,0,0,0,0,0,0,0,0,0,-1,2015,1667,0,0
798,-643,0,0,0,0,0,0,0,0,0,-1,2022,1667,0,0
805,-643,0,0,0,0,0,0,0,0,0,-1,2029,1667,0,0
812,-643,0,0,0,0,0,0,0,0,0,-1,2036,1667,0,0
-700,-650,0,0,0,0,0,0,0,0,0,-1,524,1674,0,0
-693,-650,0,0,0,0,0,0,0,0,0,-1,531,1674,0,0
-686,-650,0,0,0,0,0,0,0,0,0,-1,538,1674,0,0
-679,-650,0,0,0,0,0,0,0,0,0,-1,545,1674,0,0
-672,-650,0,0,0,0,0,0,0,0,0,-1,552,1674,0,0
-665,-650,0,0,0,0,0,0,0,0,0,-1,559,1674,0,0
-658,-650,0,0,0,0,0,0,0,0,0,-1,566,1674,0,0
-651,-650,0,0,0,0,0,0,0,0,0,-1,573,1674,0,0
-644,-650,0,0,0,0,0,0,0,0,0,-1,580,1674,0,0
-637,-650,0,0,0,0,0,0,0,0,0,-1,587,1674,0,0
-630,-650,0,0,0,0,0,0,0,0,0,-1,594,1674,0,0
-623,-650,0,0,0,0,0,0,0,0,0,-1,601,1674,0,0
-616,-650,0,0,0,0,0,0,0,0,0,-1,608,1674,0,0
-609,-650,0,0,0,0,0,0,0,0,0,-1,615,1674,0,0
-602,-650,0,0,0,0,0,0,0,0,0,-1,622,1674,0,0
-595,-650,0,0,0,0,0,0,0,0,0,-1,629,1674,0,0
-588,-650,0,0,0,0,0,0,0,0,0,-1,636,1674,0,0
-581,-650,0,0,0,0,0,0,0,0,0,-1,643,1674,0,0
-574,-650,0,0,0,0,0,0,0,0,0,-1,650,1674,0,0
-567,-650,0,0,0,0,0,0,0,0,0,-1,657,1674,0,0
-560,-650,0,0,0,0,0,0,0,0,0,-1,664,1674,0,0
-553,-650,0,0,0,0,0,0,0,0,0,-1,671,1674,0,0
-546,-650,0,0,0,0,0,0,0,0,0,-1,678,1674,0,0
-539,-650,0,0,0,0,0,0,0,0,0,-1,685,1674,0,0
-532,-650,0,0,0,0,0,0,0,0,0,-1,692,1674,0,0
-525,-650,0,0,0,0,0,0,0,0,0,-1,699,1674,0,0
-518,-650,0,0,0,0,0,0,0,0,0,-1,706,1674,0,0
-511,-650,0,0,0,0,0,0,0,0,0,-1,713,1674,0,0
-504,-650,0,0,0,0,0,0,0,0,0,-1,720,1674,0,0
-497,-650,0,0,0,0,0,0,0,0,0,-1,727,1674,0,0
-490,-650,0,0,0,0,0,0,0,0,0,-1,734,1674,0,0
-483,-650,0,0,0,0,0,0,0,0,0,-1,741,1674,0,0
-476,-650,0,0,0,0,0,0,0,0,0,-1,748,1674,0,0
-469,-650,0,0,0,0,0,0,0,0,0,-1,755,1674,0,0
-462,-650,0,0,0,0,0,0,0,0,0,-1,762,1674,0,0
-455,-650,0,0,0,0,0,0,0,0,0,-1,769,1674,0,0
-448,-650,0,0,0,0,0,0,0,0,0,-1,776,1674,0,0
-441,-650,0,0,0,0,0,0,0,0,0,-1,783,1674,0,0
-434,-650,0,0,0,0,0,0,0,0,0,-1,790,1674,0,0
-427,-650,0,0,0,0,0,0,0,0,0,-1,797,1674,0,0
-420,-650,0,0,0,0,0,0,0,0,0,-1,804,1674,0,0
-413,-650,0,0,0,0,0,0,0,0,0,-1,811,1674,0,0
-406,-650,0,0,0,0,0,0,0,0,0,-1,818,1674,0,0
-399,-650,0,0,0,0,0,0,0,0,0,-1,825,1674,0,0
-392,-650,5.44415,6.85669,0,0,0,0,0,0,0,-1,832,1674,5.44414,-6.85674
-385,-650,1.74451,14.0183,0,0,0,0,0,0,0,-1,839,1674,1.74453,-14.0183
-378,-650,0.997986,4.11108,0,0,0,0,0,0,0,-1,846,1674,0.998006,-4.11113
-371,-650,-1.80096,3.78625,0,0,0,0,0,0,0,-1,853,1674,-1.80094,-3.78625
-364,-650,-2.95679,2.57507,0,0,0,0,0,0,0,-1,860,1674,-2.95681,-2.57506
-357,-650,5.76074,34.531,0,0,0,0,0,0,0,-1,867,1674,5.76077,-34.531
-350,-650,5.11011,35.4972,0,0,0,0,0,0,0,-1,874,1674,5.1101,-35.4971
-343,-650,5.20538,37.4165,0,0,0,0,0,0,0,-1,881,1674,5.20538,-37.4166
-336,-650,-1.81726,96.24,0,0,0,0,0,0,0,-1,888,1674,-1.81727,-96.24
-329,-650,-3.37445,103.583,0,0,0,0,0,0,0,-1,895,1674,-3.37446,-103.583
-322,-650,-4.90698,122.366,0,0,0,0,0,0,0,-1,902,1674,-4.90696,-122.366
-315,-650,-6.50775,137.28,0,0,0,0,0,0,0,-1,909,1674,-6.50778,-137.28
-308,-650,-8.39423,205.689,0,0,0,0,0,0,0,-1,916,1674,-8.39424,-205.689
-301,-650,-19.9496,232.264,0,0,0,0,0,0,0,-1,923,1674,-19.9496,-232.264
-294,-650,-20.7021,236.309,0,0,0,0,0,0,0,-1,930,1674,-20.7022,-236.309
-287,-650,-21.3888,240.029,0.041241,0.00587957,-0.0280705,0.056735,-0.00961437,-0.504351,0.0414019,0.0293878,937,1674,-21.3888,-240.029
-280,-650,-21.9537,243.42,0.0445179,0.00542207,-0.031937,0.0624145,-0.0124745,-0.510772,0.0463311,0.0282758,944,1674,-21.9537,-243.42
-273,-650,-22.4304,246.825,0.0481786,0.00455,-0.0352886,0.067851,-0.0151224,-0.508563,0.0510273,0.0256835,951,1674,-22.4304,-246.825
-266,-650,-23.0681,250.136,0.0522089,0.00330494,-0.038376,0.0732609,-0.0177471,-0.501747,0.0557067,0.0196529,958,1674,-23.0681,-250.136
-259,-650,-23.4489,253.378,0.0561999,0.00206776,-0.0407622,0.0780637,-0.019796,-0.492321,0.0597445,0.0286163,965,1674,-23.4489,-253.378
-252,-650,-23.707,256.59,0.0598703,0.000938153,-0.0425731,0.0821798,-0.0213714,-0.482686,0.063128,0.0309572,972,1674,-23.707,-256.59
-245,-650,-23.9404,259.767,0.0631988,-0.00027167,-0.0438052,0.0855563,-0.0226292,-0.47192,0.0658889,0.02307,979,1674,-23.9404,-259.767
-238,-650,-24.292,262.934,0.066731,-0.00149309,-0.044884,0.0889945,-0.0237566,-0.460461,0.068633,0.0172565,986,1674,-24.292,-262.934
-231,-650,-24.6628,266.125,0.0704633,-0.00295983,-0.045476,0.0921966,-0.0246931,-0.445818,0.0711387,0.0272643,993,1674,-24.6628,-266.125
-224,-650,-24.7105,269.149,0.0738578,-0.00468571,-0.0456536,0.0948066,-0.0256346,-0.430202,0.0732598,0.0303945,1000,1674,-24.7105,-269.149
-217,-650,-24.6392,271.952,0.0772688,-0.00638976,-0.0455348,0.0972708,-0.0263918,-0.413894,0.0752043,0.0263968,1007,1674,-24.6392,-271.952
-210,-650,-24.4554,274.872,0.0808055,-0.00834297,-0.0453392,0.0998119,-0.0273494,-0.396953,0.0772879,0.0269243,1014,1674,-24.4554,-274.872
-203,-650,-24.4302,277.726,0.0848679,-0.0107741,-0.0450163,0.102723,-0.0286289,-0.377598,0.0797564,0.0221649,1021,1674,-24.4302,-277.726
-196,-650,-24.7634,280.527,0.0892873,-0.0137784,-0.0447942,0.106034,-0.0305255,-0.357778,0.082763,0.0245597,1028,1674,-24.7634,-280.527
-189,-650,-24.8188,283.349,0,0,0,0,0,0,0,-1,1035,1674,-24.8188,-283.349
-182,-650,-24.1799,286.119,0,0,0,0,0,0,0,-1,1042,1674,-24.1799,-286.119
-175,-650,-23.6339,288.861,0,0,0,0,0,0,0,-1,1049,1674,-23.6339,-288.861
-168,-650,-7.99158,155.667,0,0,0,0,0,0,0,-1,1056,1674,-7.99163,-155.667
-161,-650,-5.98145,140.817,0,0,0,0,0,0,0,-1,1063,1674,-5.98139,-140.817
-154,-650,-2.67444,122.398,0,0,0,0,0,0,0,-1,1070,1674,-2.67445,-122.398
-147,-650,1.06372,101.053,0,0,0,0,0,0,0,-1,1077,1674,1.06373,-101.053
-140,-650,3.01062,75.6625,0,0,0,0,0,0,0,-1,1084,1674,3.01057,-75.6625
-133,-650,3.06543,72.1895,0,0,0,0,0,0,0,-1,1091,1674,3.06545,-72.1895
-126,-650,3.67334,62.924,0,0,0,0,0,0,0,-1,1098,1674,3.67329,-62.924
-119,-650,5.16663,20.6232,0,0,0,0,0,0,0,-1,1105,1674,5.16665,-20.6232
-112,-650,3.86292,14.4513,0,0,0,0,0,0,0,-1,1112,1674,3.8629,-14.4513
-105,-650,7.92102,38.1313,0,0,0,0,0,0,0,-1,1119,1674,7.92104,-38.1314
-98,-650,3.3761,6.78003,0,0,0,0,0,0,0,-1,1126,1674,3.37611,-6.78009
-91,-650,3.66809,7.04443,0,0,0,0,0,0,0,-1,1133,1674,3.66806,-7.04439
-84,-650,-3.82666,-1.59521,0,0,0,0,0,0,0,-1,1140,1674,-3.82661,1.59517
-77,-650,-4.70557,1.90198,0,0,0,0,0,0,0,-1,1147,1674,-4.7056,-1.90194
-70,-650,-4.88171,3.81653,0,0,0,0,0,0,0,-1,1154,1674,-4.88176,-3.81651
-63,-650,-5.14612,5.56543,0,0,0,0,0,0,0,-1,1161,1674,-5.14612,-5.56547
-56,-650,-5.38367,7.41101,0,0,0,0,0,0,0,-1,1168,1674,-5.38361,-7.41102
-49,-650,-5.11316,8.23706,0,0,0,0,0,0,0,-1,1175,1674,-5.11317,-8.23708
-42,-650,-4.99487,9.6792,0,0,0,0,0,0,0,-1,1182,1674,-4.99484,-9.67921
-35,-650,-4.77771,11.3369,0,0,0,0,0,0,0,-1,1189,1674,-4.77769,-11.3369
-28,-650,-4.1936,13.1501,0,0,0,0,0,0,0,-1,1196,1674,-4.19358,-13.1501
-21,-650,16.578,325.926,0,0,0,0,0,0,0,-1,1203,1674,16.578,-325.926
-14,-650,32.115,328.405,0,0,0,0,0,0,0,-1,1210,1674,32.115,-328.405
-7,-650,30.8815,329.263,0,0,0,0,0,0,0,-1,1217,1674,30.8815,-329.263
0,-650,29.7673,330.286,0,0,0,0,0,0,0,-1,1224,1674,29.7674,-330.285
7,-650,28.9713,331.306,0,0,0,0,0,0,0,-1,1231,1674,28.9713,-331.306
14,-650,28.1511,332.315,0,0,0,0,0,0,0,-1,1238,1674,28.1511,-332.315
21,-650,27.2935,333.303,0,0,0,0,0,0,0,-1,1245,1674,27.2935,-333.303
28,-650,26.567,334.372,0,0,0,0,0,0,0,-1,1252,1674,26.567,-334.372
35,-650,25.9053,335.35,0,0,0,0,0,0,0,-1,1259,1674,25.9053,-335.351
42,-650,23.9772,336.395,0,0,0,0,0,0,0,-1,1266,1674,23.9771,-336.395
49,-650,23.0786,335.944,0,0,0,0,0,0,0,-1,1273,1674,23.0786,-335.944
56,-650,22.7273,335.14,0,0,0,0,0,0,0,-1,1280,1674,22.7273,-335.14
63,-650,20.2919,334.865,0,0,0,0,0,0,0,-1,1287,1674,20.2919,-334.865
70,-650,19.6133,334.546,0,0,0,0,0,0,0,-1,1294,1674,19.6132,-334.546
77,-650,18.6733,333.99,0,0,0,0,0,0,0,-1,1301,1674,18.6734,-333.99
84,-650,17.7489,333.437,0,0,0,0,0,0,0,-1,1308,1674,17.7489,-333.437
91,-650,16.9553,332.982,0,0,0,0,0,0,0,-1,1315,1674,16.9553,-332.982
98,-650,16.2789,332.4,0,0,0,0,0,0,0,-1,1322,1674,16.279,-332.4
105,-650,15.6807,331.703,0,0,0,0,0,0,0,-1,1329,1674,15.6807,-331.703
112,-650,13.4139,331.895,0,0,0,0,0,0,0,-1,1336,1674,13.4139,-331.895
119,-650,12.1801,331.557,0,0,0,0,0,0,0,-1,1343,1674,12.18,-331.557
126,-650,10.6083,331.542,0,0,0,0,0,0,0,-1,1350,1674,10.6083,-331.542
133,-650,9.16895,331.589,0,0,0,0,0,0,0,-1,1357,1674,9.16898,-331.589
140,-650,7.22437,330.424,0,0,0,0,0,0,0,-1,1364,1674,7.22431,-330.424
147,-650,5.75293,330.092,0,0,0,0,0,0,0,-1,1371,1674,5.75297,-330.092
154,-650,4.27832,329.766,0,0,0,0,0,0,0,-1,1378,1674,4.2783,-329.765
161,-650,-1.18494,102.822,0,0,0,0,0,0,0,-1,1385,1674,-1.18498,-102.822
168,-650,11.2113,7.87231,0,0,0,0,0,0,0,-1,1392,1674,11.2113,-7.87236
175,-650,5.62537,-0.230713,0,0,0,0,0,0,0,-1,1399,1674,5.62538,0.230745
182,-650,5.56006,0.421631,0,0,0,0,0,0,0,-1,1406,1674,5.56,-0.421652
189,-650,4.81543,11.0654,0,0,0,0,0,0,0,-1,1413,1674,4.81542,-11.0654
196,-650,5.39575,11.9077,0,0,0,0,0,0,0,-1,1420,1674,5.39575,-11.9078
203,-650,3.93628,11.8215,0,0,0,0,0,0,0,-1,1427,1674,3.93624,-11.8216
210,-650,5.40955,8.08594,0,0,0,0,0,0,0,-1,1434,1674,5.40958,-8.086
217,-650,5.12451,4.69739,0,0,0,0,0,0,0,-1,1441,1674,5.12451,-4.69738
224,-650,4.79041,1.45813,0,0,0,0,0,0,0,-1,1448,1674,4.79046,-1.45816
231,-650,4.04102,-0.642212,0,0,0,0,0,0,0,-1,1455,1674,4.04101,0.642209
238,-650,3.23022,-1.43396,0,0,0,0,0,0,0,-1,1462,1674,3.23023,1.43394
245,-650,1.65894,-2.55042,0,0,0,0,0,0,0,-1,1469,1674,1.65889,2.55036
252,-650,8.75342,0.355103,0,0,0,0,0,0,0,-1,1476,1674,8.75337,-0.355147
259,-650,5.61255,3.17566,0,0,0,0,0,0,0,-1,1483,1674,5.61257,-3.17572
266,-650,4.00403,6.10229,0,0,0,0,0,0,0,-1,1490,1674,4.00401,-6.10225
273,-650,11.9524,42.7109,0,0,0,0,0,0,0,-1,1497,1674,11.9524,-42.7109
280,-650,12.3011,46.7283,0,0,0,0,0,0,0,-1,1504,1674,12.3011,-46.7283
287,-650,14.0593,62.3341,0,0,0,0,0,0,0,-1,1511,1674,14.0593,-62.334
294,-650,17.2339,122.499,0,0,0,0,0,0,0,-1,1518,1674,17.2339,-122.499
301,-650,17.9724,139.27,0,0,0,0,0,0,0,-1,1525,1674,17.9724,-139.27
308,-650,18.6383,183.018,0,0,0,0,0,0,0,-1,1532,1674,18.6382,-183.018
315,-650,42.1965,289.459,0,0,0,0,0,0,0,-1,1539,1674,42.1966,-289.459
322,-650,41.8409,286.356,0,0,0,0,0,0,0,-1,1546,1674,41.841,-286.356
329,-650,41.4786,283.632,0.074099,0.00350118,0.0398451,0.0920321,-0.0144319,0.422912,0.066688,0.0475213,1553,1674,41.4786,-283.632
336,-650,41.7048,280.906,0.0702155,0.00335026,0.0394775,0.088515,-0.0149492,0.434059,0.0645725,0.0320596,1560,1674,41.7048,-280.906
343,-650,41.7157,278.068,0.0662451,0.0031915,0.0389202,0.0848054,-0.0153688,0.444982,0.0622951,0.0228491,1567,1674,41.7157,-278.068
350,-650,41.5074,275.104,0.0621171,0.00318666,0.037946,0.0806945,-0.0153908,0.455274,0.0595928,0.0217534,1574,1674,41.5075,-275.104
357,-650,41.2207,272.186,0.0580656,0.00348581,0.0365067,0.0763551,-0.0148037,0.464438,0.0564883,0.0207023,1581,1674,41.2208,-272.186
364,-650,41.0609,269.229,0.0542874,0.00348274,0.0348428,0.0720046,-0.0142345,0.470417,0.0533843,0.0160824,1588,1674,41.0609,-269.229
371,-650,40.7986,266.21,0.050812,0.00311382,0.0329881,0.0676691,-0.0137433,0.472414,0.0503233,0.0198662,1595,1674,40.7985,-266.21
378,-650,40.4834,263.048,0.0474434,0.00317852,0.0310567,0.0634471,-0.0128252,0.475817,0.047158,0.0220833,1602,1674,40.4834,-263.048
385,-650,40.1332,259.86,0.0437954,0.00348912,0.0291771,0.0591028,-0.0118183,0.483163,0.0438751,0.0214258,1609,1674,40.1331,-259.86
392,-650,39.5873,256.597,0.0401002,0.00376629,0.0271171,0.0545733,-0.0107068,0.490264,0.0404265,0.0243746,1616,1674,39.5873,-256.597
399,-650,39.0337,253.333,0.0363754,0.00436786,0.0248817,0.0499557,-0.0092125,0.49961,0.0367615,0.0251003,1623,1674,39.0337,-253.333
406,-650,38.3667,249.969,0.0324863,0.0051843,0.0226214,0.0452565,-0.00758586,0.51392,0.0329916,0.0284677,1630,1674,38.3667,-249.969
413,-650,37.8361,246.458,0.0284312,0.00631371,0.0201748,0.0403794,-0.00563448,0.534689,0.0289809,0.0243177,1637,1674,37.8361,-246.458
420,-650,37.0627,243.031,0.0247298,0.0074559,0.0175648,0.0356663,-0.00348064,0.556899,0.0250186,0.0238715,1644,1674,37.0627,-243.031
427,-650,36.2391,239.503,0.0212318,0.00873759,0.0147315,0.0309861,-0.0010167,0.58486,0.0210045,0.031682,1651,1674,36.2391,-239.503
434,-650,35.2111,235.793,0,0,0,0,0,0,0,-1,1658,1674,35.2111,-235.793
441,-650,12.1941,215.891,0,0,0,0,0,0,0,-1,1665,1674,12.194,-215.891
448,-650,10.5579,177.179,0,0,0,0,0,0,0,-1,1672,1674,10.5579,-177.179
455,-650,12.1978,141.432,0,0,0,0,0,0,0,-1,1679,1674,12.1977,-141.432
462,-650,13.7844,109.635,0,0,0,0,0,0,0,-1,1686,1674,13.7845,-109.635
469,-650,16.0024,83.395,0,0,0,0,0,0,0,-1,1693,1674,16.0025,-83.395
476,-650,15.3911,81.0083,0,0,0,0,0,0,0,-1,1700,1674,15.3911,-81.0082
483,-650,14.676,57.1664,0,0,0,0,0,0,0,-1,1707,1674,14.676,-57.1664
490,-650,14.6292,56.9932,0,0,0,0,0,0,0,-1,1714,1674,14.6292,-56.9932
497,-650,10.4985,20.1362,0,0,0,0,0,0,0,-1,1721,1674,10.4986,-20.1362
504,-650,9.69458,18.7721,0,0,0,0,0,0,0,-1,1728,1674,9.6946,-18.772
511,-650,9.37158,17.7506,0,0,0,0,0,0,0,-1,1735,1674,9.37159,-17.7506
518,-650,0,0,0,0,0,0,0,0,0,-1,1742,1674,0,0
525,-650,0,0,0,0,0,0,0,0,0,-1,1749,1674,0,0
532,-650,0,0,0,0,0,0,0,0,0,-1,1756,1674,0,0
539,-650,0,0,0,0,0,0,0,0,0,-1,1763,1674,0,0
546,-650,0,0,0,0,0,0,0,0,0,-1,1770,1674,0,0
553,-650,0,0,0,0,0,0,0,0,0,-1,1777,1674,0,0
560,-650,0,0,0,0,0,0,0,0,0,-1,1784,1674,0,0
567,-650,0,0,0,0,0,0,0,0,0,-1,1791,1674,0,0
574,-650,0,0,0,0,0,0,0,0,0,-1,1798,1674,0,0
581,-650,0,0,0,0,0,0,0,0,0,-1,1805,1674,0,0
588,-650,0,0,0,0,0,0,0,0,0,-1,1812,1674,0,0
595,-650,0,0,0,0,0,0,0,0,0,-1,1819,1674,0,0
602,-650,0,0,0,0,0,0,0,0,0,-1,1826,1674,0,0
609,-650,0,0,0,0,0,0,0,0,0,-1,1833,1674,0,0
616,-650,0,0,0,0,0,0,0,0,0,-1,1840,1674,0,0
623,-650,0,0,0,0,0,0,0,0,0,-1,1847,1674,0,0
630,-650,0,0,0,0,0,0,0,0,0,-1,1854,1674,0,0
637,-650,0,0,0,0,0,0,0,0,0,-1,1861,1674,0,0
644,-650,0,0,0,0,0,0,0,0,0,-1,1868,1674,0,0
651,-650,0,0,0,0,0,0,0,0,0,-1,1875,1674,0,0
658,-650,0,0,0,0,0,0,0,0,0,-1,1882,1674,0,0
665,-650,0,0,0,0,0,0,0,0,0,-1,1889,1674,0,0
672,-650,0,0,0,0,0,0,0,0,0,-1,1896,1674,0,0
679,-650,0,0,0,0,0,0,0,0,0,-1,1903,1674,0,0
686,-650,0,0,0,0,0,0,0,0,0,-1,1910,1674,0,0
693,-650,0,0,0,0,0,0,0,0,0,-1,1917,1674,0,0
700,-650,0,0,0,0,0,0,0,0,0,-1,1924,1674,0,0
707,-650,0,0,0,0,0,0,0,0,0,-1,1931,1674,0,0
714,-650,0,0,0,0,0,0,0,0,0,-1,1938,1674,0,0
721,-650,0,0,0,0,0,0,0,0,0,-1,1945,1674,0,0
728,-650,0,0,0,0,0,0,0,0,0,-1,1952,1674,0,0
735,-650,0,0,0,0,0,0,0,0,0,-1,1959,1674,0,0
742,-650,0,0,0,0,0,0,0,0,0,-1,1966,1674,0,0
749,-650,0,0,0,0,0,0,0,0,0,-1,1973,1674,0,0
756,-650,0,0,0,0,0,0,0,0,0,-1,1980,1674,0,0
763,-650,0,0,0,0,0,0,0,0,0,-1,1987,1674,0,0
770,-650,0,0,0,0,0,0,0,0,0,-1,1994,1674,0,0
777,-650,0,0,0,0,0,0,0,0,0,-1,2001,1674,0,0
784,-650,0,0,0,0,0,0,0,0,0,-1,2008,1674,0,0
791,-650,0,0,0,0,0,0,0,0,0,-1,2015,1674,0,0
798,-650,0,0,0,0,0,0,0,0,0,-1,2022,1674,0,0
805,-650,0,0,0,0,0,0,0,0,0,-1,2029,1674,0,0
812,-650,0,0,0,0,0,0,0,0,0,-1,2036,1674,0,0
-700,-657,0,0,0,0,0,0,0,0,0,-1,524,1681,0,0
-693,-657,0,0,0,0,0,0,0,0,0,-1,531,1681,0,0
-686,-657,0,0,0,0,0,0,0,0,0,-1,538,1681,0,0
-679,-657,0,0,0,0,0,0,0,0,0,-1,545,1681,0,0
-672,-657,0,0,0,0,0,0,0,0,0,-1,552,1681,0,0
-665,-657,0,0,0,0,0,0,0,0,0,-1,559,1681,0,0
-658,-657,0,0,0,0,0,0,0,0,0,-1,566,1681,0,0
-651,-657,0,0,0,0,0,0,0,0,0,-1,573,1681,0,0
-644,-657,0,0,0,0,0,0,0,0,0,-1,580,1681,0,0
-637,-657,0,0,0,0,0,0,0,0,0,-1,587,1681,0,0
-630,-657,0,0,0,0,0,0,0,0,0,-1,594,1681,0,0
-623,-657,0,0,0,0,0,0,0,0,0,-1,601,1681,0,0
-616,-657,0,0,0,0,0,0,0,0,0,-1,608,1681,0,0
-609,-657,0,0,0,0,0,0,0,0,0,-1,615,1681,0,0
-602,-657,0,0,0,0,0,0,0,0,0,-1,622,1681,0,0
-595,-657,0,0,0,0,0,0,0,0,0,-1,629,1681,0,0
-588,-657,0,0,0,0,0,0,0,0,0,-1,636,1681,0,0
-581,-657,0,0,0,0,0,0,0,0,0,-1,643,1681,0,0
-574,-657,0,0,0,0,0,0,0,0,0,-1,650,1681,0,0
-567,-657,0,0,0,0,0,0,0,0,0,-1,657,1681,0,0
-560,-657,0,0,0,0,0,0,0,0,0,-1,664,1681,0,0
-553,-657,0,0,0,0,0,0,0,0,0,-1,671,1681,0,0
-546,-657,0,0,0,0,0,0,0,0,0,-1,678,1681,0,0
-539,-657,0,0,0,0,0,0,0,0,0,-1,685,1681,0,0
-532,-657,0,0,0,0,0,0,0,0,0,-1,692,1681,0,0
-525,-657,0,0,0,0,0,0,0,0,0,-1,699,1681,0,0
-518,-657,0,0,0,0,0,0,0,0,0,-1,706,1681,0,0
-511,-657,0,0,0,0,0,0,0,0,0,-1,713,1681,0,0
-504,-657,0,0,0,0,0,0,0,0,0,-1,720,1681,0,0
-497,-657,0,0,0,0,0,0,0,0,0,-1,727,1681,0,0
-490,-657,0,0,0,0,0,0,0,0,0,-1,734,1681,0,0
-483,-657,0,0,0,0,0,0,0,0,0,-1,741,1681,0,0
-476,-657,0,0,0,0,0,0,0,0,0,-1,748,1681,0,0
-469,-657,0,0,0,0,0,0,0,0,0,-1,755,1681,0,0
-462,-657,0,0,0,0,0,0,0,0,0,-1,762,1681,0,0
-455,-657,0,0,0,0,0,0,0,0,0,-1,769,1681,0,0
-448,-657,0,0,0,0,0,0,0,0,0,-1,776,1681,0,0
-441,-657,0,0,0,0,0,0,0,0,0,-1,783,1681,0,0
-434,-657,0,0,0,0,0,0,0,0,0,-1,790,1681,0,0
-427,-657,0,0,0,0,0,0,0,0,0,-1,797,1681,0,0
-420,-657,0,0,0,0,0,0,0,0,0,-1,804,1681,0,0
-413,-657,0,0,0,0,0,0,0,0,0,-1,811,1681,0,0
-406,-657,0,0,0,0,0,0,0,0,0,-1,818,1681,0,0
-399,-657,0,0,0,0,0,0,0,0,0,-1,825,1681,0,0
-392,-657,0,0,0,0,0,0,0,0,0,-1,832,1681,0,0
-385,-657,1.09814,6.18896,0,0,0,0,0,0,0,-1,839,1681,1.09814,-6.18894
-378,-657,0.31488,4.46753,0,0,0,0,0,0,0,-1,846,1681,0.31487,-4.46755
-371,-657,-0.519043,2.69421,0,0,0,0,0,0,0,-1,853,1681,-0.519064,-2.69422
-364,-657,-3.42017,4.18323,0,0,0,0,0,0,0,-1,860,1681,-3.42019,-4.18319
-357,-657,5.03418,34.7598,0,0,0,0,0,0,0,-1,867,1681,5.03417,-34.7597
-350,-657,4.23431,35.8203,0,0,0,0,0,0,0,-1,874,1681,4.23429,-35.8203
-343,-657,3.60156,36.754,0,0,0,0,0,0,0,-1,881,1681,3.60154,-36.754
-336,-657,-0.500366,95.6331,0,0,0,0,0,0,0,-1,888,1681,-0.500383,-95.633
-329,-657,-0.586609,97.8975,0,0,0,0,0,0,0,-1,895,1681,-0.586639,-97.8975
-322,-657,-0.0598145,99.087,0,0,0,0,0,0,0,-1,902,1681,-0.0598425,-99.087
-315,-657,-2.04041,116.249,0,0,0,0,0,0,0,-1,909,1681,-2.04041,-116.249
-308,-657,-4.58478,139.846,0,0,0,0,0,0,0,-1,916,1681,-4.5848,-139.846
-301,-657,-6.65668,198.948,0,0,0,0,0,0,0,-1,923,1681,-6.65668,-198.948
-294,-657,-16.9097,237.143,0,0,0,0,0,0,0,-1,930,1681,-16.9098,-237.143
-287,-657,-17.7561,240.932,0,0,0,0,0,0,0,-1,937,1681,-17.7561,-240.932
-280,-657,-18.3659,244.261,0.0387697,0.00552205,-0.0246543,0.0518812,-0.00758941,-0.488772,0.037375,0.0450334,944,1681,-18.3659,-244.261
-273,-657,-18.8909,247.812,0.0422251,0.00465176,-0.0282128,0.0573339,-0.0104571,-0.491665,0.042143,0.0201225,951,1681,-18.8909,-247.812
-266,-657,-19.5507,251.142,0.0458863,0.0034055,-0.0316008,0.0627217,-0.0134299,-0.489504,0.0469359,0.0219955,958,1681,-19.5507,-251.142
-259,-657,-19.9932,254.488,0.0495504,0.00209706,-0.0342958,0.0675269,-0.0158795,-0.482789,0.0511396,0.0291598,965,1681,-19.9932,-254.488
-252,-657,-20.3079,257.657,0.0531271,0.00109245,-0.0366176,0.0720291,-0.0178096,-0.476524,0.0549269,0.020025,972,1681,-20.3079,-257.657
-245,-657,-20.5532,260.795,0.0563681,-1.60845e-05,-0.0383539,0.0757766,-0.0194246,-0.468466,0.0580855,0.0198912,979,1681,-20.5532,-260.795
-238,-657,-20.8141,263.877,0.0595018,-0.00110106,-0.0397382,0.0791733,-0.0207726,-0.459663,0.060899,0.023516,986,1681,-20.8142,-263.877
-231,-657,-21.2823,266.994,0.0628989,-0.00236083,-0.0406931,0.0824287,-0.0218907,-0.447464,0.0635195,0.0249388,993,1681,-21.2824,-266.994
-224,-657,-21.5037,270.02,0.0661215,-0.00400703,-0.0413462,0.0852699,-0.0231554,-0.433713,0.0659346,0.0268369,1000,1681,-21.5038,-270.02
-217,-657,-21.4237,272.96,0.0694696,-0.00556592,-0.04162,0.0879858,-0.0240821,-0.418594,0.0681186,0.0199655,1007,1681,-21.4237,-272.96
-210,-657,-21.4197,275.796,0.0729182,-0.00731343,-0.0417995,0.0907375,-0.0251328,-0.402975,0.0703813,0.0206743,1014,1681,-21.4197,-275.796
-203,-657,-21.5482,278.527,0.0766841,-0.00952424,-0.0418624,0.0936667,-0.0265069,-0.385392,0.0729045,0.019987,1021,1681,-21.5482,-278.527
-196,-657,-21.8596,281.244,0.080798,-0.0120707,-0.0419228,0.096923,-0.0281957,-0.367191,0.0757829,0.0221681,1028,1681,-21.8596,-281.244
-189,-657,-21.6685,284.032,0.0849511,-0.0149741,-0.042264,0.100429,-0.0304524,-0.351058,0.0790829,0.0285867,1035,1681,-21.6684,-284.032
-182,-657,-21.2265,286.761,0.0890317,-0.0171728,-0.0429186,0.104207,-0.0323484,-0.339868,0.0823988,0.0261041,1042,1681,-21.2265,-286.761
-175,-657,-20.702,289.54,0,0,0,0,0,0,0,-1,1049,1681,-20.702,-289.54
-168,-657,-21.0115,291.964,0,0,0,0,0,0,0,-1,1056,1681,-21.0115,-291.964
-161,-657,-21.5322,294.516,0,0,0,0,0,0,0,-1,1063,1681,-21.5322,-294.516
-154,-657,-19.636,296.851,0,0,0,0,0,0,0,-1,1070,1681,-19.636,-296.851
-147,-657,-1.66064,123.423,0,0,0,0,0,0,0,-1,1077,1681,-1.6607,-123.423
-140,-657,1.80237,101.693,0,0,0,0,0,0,0,-1,1084,1681,1.80231,-101.693
-133,-657,2.60046,87.6388,0,0,0,0,0,0,0,-1,1091,1681,2.60048,-87.6388
-126,-657,3.6051,70.6309,0,0,0,0,0,0,0,-1,1098,1681,3.60516,-70.6309
-119,-657,5.64758,54.4952,0,0,0,0,0,0,0,-1,1105,1681,5.64753,-54.4952
-112,-657,6.24219,42.9092,0,0,0,0,0,0,0,-1,1112,1681,6.24217,-42.9092
-105,-657,7.37256,41.0361,0,0,0,0,0,0,0,-1,1119,1681,7.37254,-41.0362
-98,-657,8.14404,38.4435,0,0,0,0,0,0,0,-1,1126,1681,8.14405,-38.4435
-91,-657,3.6521,16.6017,0,0,0,0,0,0,0,-1,1133,1681,3.65215,-16.6017
-84,-657,4.08008,10.4579,0,0,0,0,0,0,0,-1,1140,1681,4.08006,-10.4579
-77,-657,-5.29846,0.396606,0,0,0,0,0,0,0,-1,1147,1681,-5.29842,-0.396573
-70,-657,-4.14893,2.14575,0,0,0,0,0,0,0,-1,1154,1681,-4.14893,-2.1458
-63,-657,-4.1239,3.177,0,0,0,0,0,0,0,-1,1161,1681,-4.12391,-3.17698
-56,-657,-6.40576,5.73987,0,0,0,0,0,0,0,-1,1168,1681,-6.40577,-5.7399
-49,-657,-5.98462,7.54053,0,0,0,0,0,0,0,-1,1175,1681,-5.98466,-7.5405
-42,-657,-5.71948,9.28955,0,0,0,0,0,0,0,-1,1182,1681,-5.71951,-9.2895
-35,-657,-5.44556,11.015,0,0,0,0,0,0,0,-1,1189,1681,-5.44555,-11.015
-28,-657,-1.3446,8.92847,0,0,0,0,0,0,0,-1,1196,1681,-1.34459,-8.92848
-21,-657,24.6289,334.576,0,0,0,0,0,0,0,-1,1203,1681,24.6289,-334.576
-14,-657,30.1118,328.136,0,0,0,0,0,0,0,-1,1210,1681,30.1118,-328.136
-7,-657,29.3539,329.338,0,0,0,0,0,0,0,-1,1217,1681,29.3539,-329.338
0,-657,28.6395,330.567,0,0,0,0,0,0,0,-1,1224,1681,28.6395,-330.567
7,-657,28.3191,332.303,0,0,0,0,0,0,0,-1,1231,1681,28.3191,-332.303
14,-657,26.777,332.269,0,0,0,0,0,0,0,-1,1238,1681,26.777,-332.269
21,-657,26.1372,333.457,0,0,0,0,0,0,0,-1,1245,1681,26.1372,-333.457
28,-657,25.5211,334.75,0,0,0,0,0,0,0,-1,1252,1681,25.5211,-334.749
35,-657,22.9852,337.825,0,0,0,0,0,0,0,-1,1259,1681,22.9852,-337.825
42,-657,22.6017,337.367,0,0,0,0,0,0,0,-1,1266,1681,22.6017,-337.367
49,-657,21.6891,336.599,0,0,0,0,0,0,0,-1,1273,1681,21.6891,-336.599
56,-657,21.4855,335.849,0,0,0,0,0,0,0,-1,1280,1681,21.4855,-335.849
63,-657,21.215,334.728,0,0,0,0,0,0,0,-1,1287,1681,21.215,-334.728
70,-657,18.6698,334.961,0,0,0,0,0,0,0,-1,1294,1681,18.6698,-334.961
77,-657,18.0544,334.569,0,0,0,0,0,0,0,-1,1301,1681,18.0545,-334.569
84,-657,16.6056,334.473,0,0,0,0,0,0,0,-1,1308,1681,16.6056,-334.473
91,-657,16.0503,333.783,0,0,0,0,0,0,0,-1,1315,1681,16.0503,-333.783
98,-657,15.4752,333.075,0,0,0,0,0,0,0,-1,1322,1681,15.4752,-333.075
105,-657,14.592,332.422,0,0,0,0,0,0,0,-1,1329,1681,14.592,-332.422
112,-657,13.5062,332.203,0,0,0,0,0,0,0,-1,1336,1681,13.5062,-332.203
119,-657,12.7549,331.611,0,0,0,0,0,0,0,-1,1343,1681,12.7549,-331.611
126,-657,10.7549,332.21,0,0,0,0,0,0,0,-1,1350,1681,10.7549,-332.21
133,-657,9.23511,332.606,0,0,0,0,0,0,0,-1,1357,1681,9.23506,-332.606
140,-657,7.24817,330.587,0,0,0,0,0,0,0,-1,1364,1681,7.24822,-330.587
147,-657,5.75452,330.205,0,0,0,0,0,0,0,-1,1371,1681,5.75449,-330.205
154,-657,8.29797,326.473,0,0,0,0,0,0,0,-1,1378,1681,8.29801,-326.473
161,-657,4.2926,24.9226,0,0,0,0,0,0,0,-1,1385,1681,4.29264,-24.9226
168,-657,5.21643,0.70105,0,0,0,0,0,0,0,-1,1392,1681,5.21648,-0.7011
175,-657,5.52771,0.649048,0,0,0,0,0,0,0,-1,1399,1681,5.52774,-0.649019
182,-657,5.73999,1.02612,0,0,0,0,0,0,0,-1,1406,1681,5.73995,-1.02611
189,-657,5.92126,1.44116,0,0,0,0,0,0,0,-1,1413,1681,5.92126,-1.44115
196,-657,4.92834,9.59021,0,0,0,0,0,0,0,-1,1420,1681,4.9284,-9.59018
203,-657,6.26343,5.16492,0,0,0,0,0,0,0,-1,1427,1681,6.26345,-5.16488
210,-657,3.9856,5.28088,0,0,0,0,0,0,0,-1,1434,1681,3.98555,-5.28084
217,-657,3.95178,5.2843,0,0,0,0,0,0,0,-1,1441,1681,3.95174,-5.28431
224,-657,6.66736,-0.250244,0,0,0,0,0,0,0,-1,1448,1681,6.66737,0.250229
231,-657,6.85498,-1.70752,0,0,0,0,0,0,0,-1,1455,1681,6.855,1.70758
238,-657,5.34143,-2.89819,0,0,0,0,0,0,0,-1,1462,1681,5.34143,2.89813
245,-657,8.66003,-0.102783,0,0,0,0,0,0,0,-1,1469,1681,8.66,0.102824
252,-657,4.78955,0.623779,0,0,0,0,0,0,0,-1,1476,1681,4.7895,-0.623826
259,-657,2.61523,4.31909,0,0,0,0,0,0,0,-1,1483,1681,2.61523,-4.31908
266,-657,5.35437,11.4742,0,0,0,0,0,0,0,-1,1490,1681,5.35441,-11.4742
273,-657,14.0199,72.9027,0,0,0,0,0,0,0,-1,1497,1681,14.0199,-72.9028
280,-657,14.3578,78.1829,0,0,0,0,0,0,0,-1,1504,1681,14.3578,-78.1828
287,-657,14.3231,79.979,0,0,0,0,0,0,0,-1,1511,1681,14.3232,-79.979
294,-657,16.139,139.461,0,0,0,0,0,0,0,-1,1518,1681,16.1391,-139.461
301,-657,37.7549,294.575,0,0,0,0,0,0,0,-1,1525,1681,37.7549,-294.575
308,-657,37.8971,292.339,0,0,0,0,0,0,0,-1,1532,1681,37.8971,-292.339
315,-657,39.0005,289.775,0.0750899,0.00158166,0.0347542,0.0889195,-0.012248,0.378719,0.0637557,0.0341953,1539,1681,39.0005,-289.775
322,-657,38.9282,287.014,0.0708952,0.00219768,0.0355542,0.0859827,-0.0128898,0.401321,0.0620662,0.0248453,1546,1681,38.9282,-287.014
329,-657,38.6904,284.35,0.0667499,0.00278974,0.0356367,0.0826519,-0.0131123,0.419712,0.059952,0.0267659,1553,1681,38.6904,-284.35
336,-657,38.5031,281.532,0.0631445,0.00298023,0.0351492,0.0793268,-0.0132021,0.431461,0.0577901,0.0290455,1560,1681,38.5031,-281.532
343,-657,38.421,278.779,0.0593557,0.00300616,0.0344655,0.0756971,-0.0133353,0.442745,0.055447,0.0242054,1567,1681,38.421,-278.779
350,-657,38.3094,275.873,0.055429,0.0031809,0.0334062,0.071713,-0.013103,0.45356,0.0527219,0.023389,1574,1681,38.3095,-275.873
357,-657,38.0437,272.978,0.0516053,0.0035438,0.0319249,0.067533,-0.0123839,0.462776,0.0496673,0.0275479,1581,1681,38.0437,-272.978
364,-657,37.8687,270.045,0.0480306,0.0036581,0.0302303,0.0633423,-0.0116537,0.468837,0.0466011,0.0205572,1588,1681,37.8687,-270.045
371,-657,37.4678,267.006,0.0445802,0.00351984,0.0283719,0.0590708,-0.0109707,0.4722,0.043501,0.0235088,1595,1681,37.4678,-267.006
378,-657,37.0587,263.866,0.0411698,0.00370515,0.0264297,0.0548324,-0.00995746,0.477108,0.0402864,0.0291671,1602,1681,37.0587,-263.866
385,-657,36.6665,260.803,0.0375874,0.00403158,0.0244766,0.0504844,-0.00886545,0.484945,0.0369675,0.0237142,1609,1681,36.6665,-260.803
392,-657,36.058,257.563,0.0339452,0.00441527,0.0224337,0.0460368,-0.00767637,0.494353,0.0335441,0.0202681,1616,1681,36.058,-257.563
399,-657,35.5104,254.287,0.030253,0.00512902,0.0201654,0.0414491,-0.00606711,0.506837,0.0298613,0.0226626,1623,1681,35.5104,-254.287
406,-657,34.8938,250.94,0.0262684,0.00605352,0.0178468,0.0366712,-0.00434925,0.527746,0.0260186,0.027668,1630,1681,34.8938,-250.94
413,-657,34.2362,247.434,0.0220844,0.00733603,0.0152406,0.0316411,-0.00222066,0.560075,0.0218719,0.0362796,1637,1681,34.2362,-247.434
420,-657,33.5117,243.787,0,0,0,0,0,0,0,-1,1644,1681,33.5117,-243.787
427,-657,32.5916,240.429,0,0,0,0,0,0,0,-1,1651,1681,32.5915,-240.429
434,-657,9.1781,208.291,0,0,0,0,0,0,0,-1,1658,1681,9.17815,-208.291
441,-657,10.9042,153.156,0,0,0,0,0,0,0,-1,1665,1681,10.9042,-153.156
448,-657,12.9525,108.331,0,0,0,0,0,0,0,-1,1672,1681,12.9525,-108.331
455,-657,12.2253,107.353,0,0,0,0,0,0,0,-1,1679,1681,12.2253,-107.353
462,-657,14.8794,84.5696,0,0,0,0,0,0,0,-1,1686,1681,14.8794,-84.5695
469,-657,16.2104,82.9287,0,0,0,0,0,0,0,-1,1693,1681,16.2105,-82.9287
476,-657,13.2048,56.4302,0,0,0,0,0,0,0,-1,1700,1681,13.2048,-56.4302
483,-657,13.0665,56.2015,0,0,0,0,0,0,0,-1,1707,1681,13.0666,-56.2016
490,-657,11.6039,21.2185,0,0,0,0,0,0,0,-1,1714,1681,11.6038,-21.2185
497,-657,9.20862,17.8127,0,0,0,0,0,0,0,-1,1721,1681,9.2086,-17.8127
504,-657,0,0,0,0,0,0,0,0,0,-1,1728,1681,0,0
511,-657,0,0,0,0,0,0,0,0,0,-1,1735,1681,0,0
518,-657,0,0,0,0,0,0,0,0,0,-1,1742,1681,0,0
525,-657,0,0,0,0,0,0,0,0,0,-1,1749,1681,0,0
532,-657,0,0,0,0,0,0,0,0,0,-1,1756,1681,0,0
539,-657,0,0,0,0,0,0,0,0,0,-1,1763,1681,0,0
546,-657,0,0,0,0,0,0,0,0,0,-1,1770,1681,0,0
553,-657,0,0,0,0,0,0,0,0,0,-1,1777,1681,0,0
560,-657,0,0,0,0,0,0,0,0,0,-1,1784,1681,0,0
567,-657,0,0,0,0,0,0,0,0,0,-1,1791,1681,0,0
574,-657,0,0,0,0,0,0,0,0,0,-1,1798,1681,0,0
581,-657,0,0,0,0,0,0,0,0,0,-1,1805,1681,0,0
588,-657,0,0,0,0,0,0,0,0,0,-1,1812,1681,0,0
595,-657,0,0,0,0,0,0,0,0,0,-1,1819,1681,0,0
602,-657,0,0,0,0,0,0,0,0,0,-1,1826,1681,0,0
609,-657,0,0,0,0,0,0,0,0,0,-1,1833,1681,0,0
616,-657,0,0,0,0,0,0,0,0,0,-1,1840,1681,0,0
623,-657,0,0,0,0,0,0,0,0,0,-1,1847,1681,0,0
630,-657,0,0,0,0,0,0,0,0,0,-1,1854,1681,0,0
637,-657,0,0,0,0,0,0,0,0,0,-1,1861,1681,0,0
644,-657,0,0,0,0,0,0,0,0,0,-1,1868,1681,0,0
651,-657,0,0,0,0,0,0,0,0,0,-1,1875,1681,0,0
658,-657,0,0,0,0,0,0,0,0,0,-1,1882,1681,0,0
665,-657,0,0,0,0,0,0,0,0,0,-1,1889,1681,0,0
672,-657,0,0,0,0,0,0,0,0,0,-1,1896,1681,0,0
679,-657,0,0,0,0,0,0,0,0,0,-1,1903,1681,0,0
686,-657,0,0,0,0,0,0,0,0,0,-1,1910,1681,0,0
693,-657,0,0,0,0,0,0,0,0,0,-1,1917,1681,0,0
700,-657,0,0,0,0,0,0,0,0,0,-1,1924,1681,0,0
707,-657,0,0,0,0,0,0,0,0,0,-1,1931,1681,0,0
714,-657,0,0,0,0,0,0,0,0,0,-1,1938,1681,0,0
721,-657,0,0,0,0,0,0,0,0,0,-1,1945,1681,0,0
728,-657,0,0,0,0,0,0,0,0,0,-1,1952,1681,0,0
735,-657,0,0,0,0,0,0,0,0,0,-1,1959,1681,0,0
742,-657,0,0,0,0,0,0,0,0,0,-1,1966,1681,0,0
749,-657,0,0,0,0,0,0,0,0,0,-1,1973,1681,0,0
756,-657,0,0,0,0,0,0,0,0,0,-1,1980,1681,0,0
763,-657,0,0,0,0,0,0,0,0,0,-1,1987,1681,0,0
770,-657,0,0,0,0,0,0,0,0,0,-1,1994,1681,0,0
777,-657,0,0,0,0,0,0,0,0,0,-1,2001,1681,0,0
784,-657,0,0,0,0,0,0,0,0,0,-1,2008,1681,0,0
791,-657,0,0,0,0,0,0,0,0,0,-1,2015,1681,0,0
798,-657,0,0,0,0,0,0,0,0,0,-1,2022,1681,0,0
805,-657,0,0,0,0,0,0,0,0,0,-1,2029,1681,0,0
812,-657,0,0,0,0,0,0,0,0,0,-1,2036,1681,0,0
-700,-664,0,0,0,0,0,0,0,0,0,-1,524,1688,0,0
-693,-664,0,0,0,0,0,0,0,0,0,-1,531,1688,0,0
-686,-664,0,0,0,0,0,0,0,0,0,-1,538,1688,0,0
-679,-664,0,0,0,0,0,0,0,0,0,-1,545,1688,0,0
-672,-664,0,0,0,0,0,0,0,0,0,-1,552,1688,0,0
-665,-664,0,0,0,0,0,0,0,0,0,-1,559,1688,0,0
-658,-664,0,0,0,0,0,0,0,0,0,-1,566,1688,0,0
-651,-664,0,0,0,0,0,0,0,0,0,-1,573,1688,0,0
-644,-664,0,0,0,0,0,0,0,0,0,-1,580,1688,0,0
-637,-664,0,0,0,0,0,0,0,0,0,-1,587,1688,0,0
-630,-664,0,0,0,0,0,0,0,0,0,-1,594,1688,0,0
-623,-664,0,0,0,0,0,0,0,0,0,-1,601,1688,0,0
-616,-664,0,0,0,0,0,0,0,0,0,-1,608,1688,0,0
-609,-664,0,0,0,0,0,0,0,0,0,-1,615,1688,0,0
-602,-664,0,0,0,0,0,0,0,0,0,-1,622,1688,0,0
-595,-664,0,0,0,0,0,0,0,0,0,-1,629,1688,0,0
-588,-664,0,0,0,0,0,0,0,0,0,-1,636,1688,0,0
-581,-664,0,0,0,0,0,0,0,0,0,-1,643,1688,0,0
-574,-664,0,0,0,0,0,0,0,0,0,-1,650,1688,0,0
-567,-664,0,0,0,0,0,0,0,0,0,-1,657,1688,0,0
-560,-664,0,0,0,0,0,0,0,0,0,-1,664,1688,0,0
-553,-664,0,0,0,0,0,0,0,0,0,-1,671,1688,0,0
-546,-664,0,0,0,0,0,0,0,0,0,-1,678,1688,0,0
-539,-664,0,0,0,0,0,0,0,0,0,-1,685,1688,0,0
-532,-664,0,0,0,0,0,0,0,0,0,-1,692,1688,0,0
-525,-664,0,0,0,0,0,0,0,0,0,-1,699,1688,0,0
-518,-664,0,0,0,0,0,0,0,0,0,-1,706,1688,0,0
-511,-664,0,0,0,0,0,0,0,0,0,-1,713,1688,0,0
-504,-664,0,0,0,0,0,0,0,0,0,-1,720,1688,0,0
-497,-664,0,0,0,0,0,0,0,0,0,-1,727,1688,0,0
-490,-664,0,0,0,0,0,0,0,0,0,-1,734,1688,0,0
-483,-664,0,0,0,0,0,0,0,0,0,-1,741,1688,0,0
-476,-664,0,0,0,0,0,0,0,0,0,-1,748,1688,0,0
-469,-664,0,0,0,0,0,0,0,0,0,-1,755,1688,0,0
-462,-664,0,0,0,0,0,0,0,0,0,-1,762,1688,0,0
-455,-664,0,0,0,0,0,0,0,0,0,-1,769,1688,0,0
-448,-664,0,0,0,0,0,0,0,0,0,-1,776,1688,0,0
-441,-664,0,0,0,0,0,0,0,0,0,-1,783,1688,0,0
-434,-664,0,0,0,0,0,0,0,0,0,-1,790,1688,0,0
-427,-664,0,0,0,0,0,0,0,0,0,-1,797,1688,0,0
-420,-664,0,0,0,0,0,0,0,0,0,-1,804,1688,0,0
-413,-664,0,0,0,0,0,0,0,0,0,-1,811,1688,0,0
-406,-664,0,0,0,0,0,0,0,0,0,-1,818,1688,0,0
-399,-664,0,0,0,0,0,0,0,0,0,-1,825,1688,0,0
-392,-664,0,0,0,0,0,0,0,0,0,-1,832,1688,0,0
-385,-664,0,0,0,0,0,0,0,0,0,-1,839,1688,0,0
-378,-664,0,0,0,0,0,0,0,0,0,-1,846,1688,0,0
-371,-664,-1.61676,5.92737,0,0,0,0,0,0,0,-1,853,1688,-1.61675,-5.92735
-364,-664,-3.901,5.87024,0,0,0,0,0,0,0,-1,860,1688,-3.90097,-5.87027
-357,-664,-4.81012,4.53479,0,0,0,0,0,0,0,-1,867,1688,-4.81012,-4.5348
-350,-664,3.26105,36.0225,0,0,0,0,0,0,0,-1,874,1688,3.26104,-36.0224
-343,-664,3.36761,61.1754,0,0,0,0,0,0,0,-1,881,1688,3.36762,-61.1755
-336,-664,3.50519,61.7698,0,0,0,0,0,0,0,-1,888,1688,3.50521,-61.7698
-329,-664,0.881653,98.2546,0,0,0,0,0,0,0,-1,895,1688,0.881656,-98.2546
-322,-664,4.09424,63.087,0,0,0,0,0,0,0,-1,902,1688,4.09425,-63.087
-315,-664,5.4184,55.4478,0,0,0,0,0,0,0,-1,909,1688,5.41837,-55.4477
-308,-664,-0.557312,118.209,0,0,0,0,0,0,0,-1,916,1688,-0.557291,-118.209
-301,-664,-1.91498,130.912,0,0,0,0,0,0,0,-1,923,1688,-1.91496,-130.912
-294,-664,-3.83344,202.808,0,0,0,0,0,0,0,-1,930,1688,-3.83344,-202.808
-287,-664,-4.513,218.413,0,0,0,0,0,0,0,-1,937,1688,-4.51303,-218.413
-280,-664,-14.7103,245.014,0,0,0,0,0,0,0,-1,944,1688,-14.7103,-245.014
-273,-664,-15.4044,248.778,0,0,0,0,0,0,0,-1,951,1688,-15.4044,-248.778
-266,-664,-15.9993,252.195,0,0,0,0,0,0,0,-1,958,1688,-15.9993,-252.195
-259,-664,-16.3851,255.143,0.0428462,0.00268893,-0.0280304,0.0572473,-0.0117122,-0.474602,0.042609,0.0370142,965,1688,-16.3851,-255.143
-252,-664,-16.7898,258.606,0.0463678,0.0018481,-0.0309334,0.0622181,-0.0140021,-0.473517,0.0468488,0.0241313,972,1688,-16.7898,-258.606
-245,-664,-17.1503,261.715,0.0495061,0.000824247,-0.0331929,0.0663265,-0.0159961,-0.469029,0.050403,0.0261856,979,1688,-17.1503,-261.715
-238,-664,-17.4476,264.813,0.0521501,-5.08539e-05,-0.0348947,0.0696256,-0.0175264,-0.464295,0.0532299,0.0279689,986,1688,-17.4476,-264.814
-231,-664,-17.8878,267.855,0.0551463,-0.00111726,-0.0361938,0.0728555,-0.0188264,-0.45504,0.0559125,0.0249986,993,1688,-17.8878,-267.855
-224,-664,-18.2628,270.871,0.0581742,-0.00266715,-0.0372698,0.0758623,-0.0203553,-0.443119,0.0585515,0.0242971,1000,1688,-18.2628,-270.871
-217,-664,-18.3696,273.777,0.0614427,-0.0040585,-0.0378669,0.0787571,-0.0213729,-0.428861,0.0608924,0.0188023,1007,1688,-18.3696,-273.777
-210,-664,-18.4285,276.533,0.0647881,-0.00560748,-0.0383096,0.0816145,-0.0224338,-0.413853,0.0632284,0.0198841,1014,1688,-18.4285,-276.533
-203,-664,-18.5726,279.376,0.0682633,-0.00762161,-0.0386591,0.0844887,-0.023847,-0.397377,0.0657328,0.0210631,1021,1688,-18.5726,-279.376
-196,-664,-18.6366,282.159,0.0721252,-0.00977575,-0.038901,0.0876568,-0.0253074,-0.379869,0.0684513,0.0263006,1028,1688,-18.6366,-282.159
-189,-664,-18.5571,284.785,0.0761258,-0.0122577,-0.0393138,0.091082,-0.027214,-0.363525,0.0715394,0.0235798,1035,1688,-18.5571,-284.785
-182,-664,-18.3533,287.473,0.0801326,-0.014272,-0.0400029,0.0948035,-0.0289429,-0.351514,0.0747418,0.0231909,1042,1688,-18.3533,-287.473
-175,-664,-18.3542,289.952,0.0835907,-0.0155903,-0.0410513,0.0983775,-0.0303771,-0.345734,0.0777155,0.026166,1049,1688,-18.3543,-289.952
-168,-664,-18.4077,292.463,0,0,0,0,0,0,0,-1,1056,1688,-18.4078,-292.463
-161,-664,-18.4906,295.009,0,0,0,0,0,0,0,-1,1063,1688,-18.4906,-295.009
-154,-664,-17.5139,297.302,0,0,0,0,0,0,0,-1,1070,1688,-17.5139,-297.302
-147,-664,-16.9854,299.375,0,0,0,0,0,0,0,-1,1077,1688,-16.9853,-299.376
-140,-664,-16.7068,301.746,0,0,0,0,0,0,0,-1,1084,1688,-16.7068,-301.746
-133,-664,-7.02014,177.951,0,0,0,0,0,0,0,-1,1091,1688,-7.0202,-177.951
-126,-664,3.53955,87.8251,0,0,0,0,0,0,0,-1,1098,1688,3.53951,-87.8251
-119,-664,5.36035,67.1663,0,0,0,0,0,0,0,-1,1105,1688,5.36031,-67.1663
-112,-664,6.3916,51.1235,0,0,0,0,0,0,0,-1,1112,1688,6.39161,-51.1236
-105,-664,6.87256,43.2527,0,0,0,0,0,0,0,-1,1119,1688,6.87258,-43.2527
-98,-664,7.69324,41.3359,0,0,0,0,0,0,0,-1,1126,1688,7.69321,-41.3359
-91,-664,5.41931,25.6302,0,0,0,0,0,0,0,-1,1133,1688,5.41932,-25.6302
-84,-664,3.48389,16.6913,0,0,0,0,0,0,0,-1,1140,1688,3.4839,-16.6913
-77,-664,4.52014,11.2122,0,0,0,0,0,0,0,-1,1147,1688,4.5202,-11.2122
-70,-664,4.20374,8.24524,0,0,0,0,0,0,0,-1,1154,1688,4.20379,-8.24519
-63,-664,-4.677,2.40503,0,0,0,0,0,0,0,-1,1161,1688,-4.67702,-2.40498
-56,-664,-4.66504,3.32727,0,0,0,0,0,0,0,-1,1168,1688,-4.6651,-3.32724
-49,-664,-2.54297,3.31848,0,0,0,0,0,0,0,-1,1175,1688,-2.54297,-3.31852
-42,-664,-0.359253,4.38684,0,0,0,0,0,0,0,-1,1182,1688,-0.359261,-4.38685
-35,-664,-0.705566,3.55017,0,0,0,0,0,0,0,-1,1189,1688,-0.705567,-3.55023
-28,-664,-1.54236,10.2538,0,0,0,0,0,0,0,-1,1196,1688,-1.54236,-10.2538
-21,-664,24.5096,322.563,0,0,0,0,0,0,0,-1,1203,1688,24.5096,-322.563
-14,-664,28.9545,328.37,0,0,0,0,0,0,0,-1,1210,1688,28.9544,-328.37
-7,-664,28.2441,329.554,0,0,0,0,0,0,0,-1,1217,1688,28.2441,-329.554
0,-664,27.5103,330.832,0,0,0,0,0,0,0,-1,1224,1688,27.5103,-330.832
7,-664,27.168,332.437,0,0,0,0,0,0,0,-1,1231,1688,27.168,-332.437
14,-664,25.4106,332.086,0,0,0,0,0,0,0,-1,1238,1688,25.4107,-332.086
21,-664,25.0485,333.186,0,0,0,0,0,0,0,-1,1245,1688,25.0484,-333.186
28,-664,21.1844,338.303,0,0,0,0,0,0,0,-1,1252,1688,21.1844,-338.303
35,-664,20.8668,337.773,0,0,0,0,0,0,0,-1,1259,1688,20.8668,-337.773
42,-664,20.5238,337.327,0,0,0,0,0,0,0,-1,1266,1688,20.5238,-337.327
49,-664,20.1111,336.948,0,0,0,0,0,0,0,-1,1273,1688,20.111,-336.948
56,-664,19.6545,336.423,0,0,0,0,0,0,0,-1,1280,1688,19.6546,-336.423
63,-664,19.1886,335.772,0,0,0,0,0,0,0,-1,1287,1688,19.1886,-335.772
70,-664,18.7861,335.181,0,0,0,0,0,0,0,-1,1294,1688,18.7862,-335.181
77,-664,16.0408,335.83,0,0,0,0,0,0,0,-1,1301,1688,16.0408,-335.83
84,-664,15.5638,335.119,0,0,0,0,0,0,0,-1,1308,1688,15.5638,-335.119
91,-664,15.0958,334.419,0,0,0,0,0,0,0,-1,1315,1688,15.0959,-334.419
98,-664,14.5872,333.713,0,0,0,0,0,0,0,-1,1322,1688,14.5872,-333.713
105,-664,13.9536,333.064,0,0,0,0,0,0,0,-1,1329,1688,13.9536,-333.064
112,-664,13.3247,332.459,0,0,0,0,0,0,0,-1,1336,1688,13.3247,-332.459
119,-664,12.6162,331.877,0,0,0,0,0,0,0,-1,1343,1688,12.6162,-331.877
126,-664,11.1117,332.839,0,0,0,0,0,0,0,-1,1350,1688,11.1117,-332.838
133,-664,11.1147,329.397,0,0,0,0,0,0,0,-1,1357,1688,11.1147,-329.397
140,-664,11.1398,327.852,0,0,0,0,0,0,0,-1,1364,1688,11.1397,-327.852
147,-664,11.5885,327.061,0,0,0,0,0,0,0,-1,1371,1688,11.5885,-327.061
154,-664,0.946533,335.315,0,0,0,0,0,0,0,-1,1378,1688,0.946588,-335.315
161,-664,4.60132,1.56238,0,0,0,0,0,0,0,-1,1385,1688,4.60134,-1.56233
168,-664,5.172,1.25488,0,0,0,0,0,0,0,-1,1392,1688,5.17203,-1.25484
175,-664,5.58313,1.16467,0,0,0,0,0,0,0,-1,1399,1688,5.58317,-1.16466
182,-664,5.74268,1.41113,0,0,0,0,0,0,0,-1,1406,1688,5.74263,-1.41115
189,-664,5.87744,1.87061,0,0,0,0,0,0,0,-1,1413,1688,5.87745,-1.87065
196,-664,6.7594,5.97473,0,0,0,0,0,0,0,-1,1420,1688,6.75943,-5.97478
203,-664,5.38452,5.22034,0,0,0,0,0,0,0,-1,1427,1688,5.38453,-5.2203
210,-664,5.25549,6.45715,0,0,0,0,0,0,0,-1,1434,1688,5.25549,-6.45721
217,-664,5.72009,6.73975,0,0,0,0,0,0,0,-1,1441,1688,5.72014,-6.73972
224,-664,5.05725,7.42908,0,0,0,0,0,0,0,-1,1448,1688,5.05723,-7.42912
231,-664,5.13318,7.60864,0,0,0,0,0,0,0,-1,1455,1688,5.13313,-7.60862
238,-664,4.23193,6.45471,0,0,0,0,0,0,0,-1,1462,1688,4.23197,-6.45476
245,-664,4.42004,6.80896,0,0,0,0,0,0,0,-1,1469,1688,4.4201,-6.80901
252,-664,3.67346,6.85461,0,0,0,0,0,0,0,-1,1476,1688,3.6734,-6.85462
259,-664,4.55823,11.7435,0,0,0,0,0,0,0,-1,1483,1688,4.55826,-11.7435
266,-664,13.2228,73.7821,0,0,0,0,0,0,0,-1,1490,1688,13.2228,-73.7821
273,-664,15.088,112.14,0,0,0,0,0,0,0,-1,1497,1688,15.088,-112.14
280,-664,34.9227,302.66,0,0,0,0,0,0,0,-1,1504,1688,34.9228,-302.66
287,-664,34.4907,300.703,0,0,0,0,0,0,0,-1,1511,1688,34.4908,-300.703
294,-664,34.6906,298.092,0,0,0,0,0,0,0,-1,1518,1688,34.6905,-298.092
301,-664,35.3407,295.086,0.0755543,-0.000967722,0.0295669,0.0856473,-0.0110607,0.328957,0.0611196,0.0418217,1525,1688,35.3407,-295.086
308,-664,35.5687,292.649,0.0710624,0.000249022,0.0303023,0.0822589,-0.0109475,0.353936,0.058829,0.039606,1532,1688,35.5687,-292.649
315,-664,35.908,290.161,0.0670315,0.00130253,0.0311726,0.0794638,-0.0111298,0.379492,0.0570489,0.0327501,1539,1688,35.9079,-290.161
322,-664,35.9211,287.679,0.0630683,0.00202436,0.0315476,0.0764421,-0.0113495,0.40096,0.0551353,0.0263196,1546,1688,35.9212,-287.679
329,-664,35.7357,285.005,0.0592652,0.0026738,0.0313932,0.0732327,-0.0112938,0.418623,0.0529891,0.0239371,1553,1688,35.7357,-285.005
336,-664,35.5436,282.316,0.0558759,0.00305786,0.0307073,0.0699684,-0.0110347,0.430256,0.0507255,0.0218088,1560,1688,35.5436,-282.316
343,-664,35.3285,279.497,0.0522861,0.00322408,0.0298343,0.0663796,-0.0108695,0.44132,0.0482858,0.0230178,1567,1688,35.3285,-279.497
350,-664,35.1802,276.669,0.0486059,0.00352625,0.0286413,0.0625129,-0.0103807,0.452026,0.0455317,0.0267211,1574,1688,35.1802,-276.669
357,-664,34.9286,273.791,0.0450534,0.0038836,0.027087,0.0584897,-0.00955269,0.460477,0.0425364,0.0274598,1581,1688,34.9286,-273.791
364,-664,34.6316,270.835,0.0417215,0.0040665,0.0253576,0.0544769,-0.00868893,0.466063,0.0395338,0.0210145,1588,1688,34.6316,-270.835
371,-664,34.228,267.839,0.0383667,0.00418971,0.0235077,0.0503407,-0.00778433,0.471112,0.0364335,0.0210533,1595,1688,34.2281,-267.839
378,-664,33.7528,264.766,0.0349428,0.00447052,0.0215699,0.0461151,-0.00670171,0.477907,0.0332035,0.0229611,1602,1688,33.7528,-264.766
385,-664,33.2716,261.647,0.0314433,0.00476234,0.0195394,0.041762,-0.00555631,0.485871,0.0298662,0.0253641,1609,1688,33.2716,-261.647
392,-664,32.6578,258.475,0.0279175,0.00521175,0.0175455,0.0374628,-0.00433356,0.498249,0.0265379,0.0252946,1616,1688,32.6579,-258.475
399,-664,32.0304,255.151,0.0243283,0.00596278,0.0153214,0.033008,-0.00271696,0.515431,0.0229646,0.0288021,1623,1688,32.0304,-255.151
406,-664,31.3708,251.732,0,0,0,0,0,0,0,-1,1630,1688,31.3709,-251.732
413,-664,30.7126,248.258,0,0,0,0,0,0,0,-1,1637,1688,30.7126,-248.258
420,-664,9.7854,231.423,0,0,0,0,0,0,0,-1,1644,1688,9.78542,-231.423
427,-664,6.96497,211.559,0,0,0,0,0,0,0,-1,1651,1688,6.96493,-211.559
434,-664,8.73584,155.847,0,0,0,0,0,0,0,-1,1658,1688,8.73585,-155.847
441,-664,11.7097,109.925,0,0,0,0,0,0,0,-1,1665,1688,11.7097,-109.925
448,-664,14.7797,87.4095,0,0,0,0,0,0,0,-1,1672,1688,14.7797,-87.4095
455,-664,12.8,86.4729,0,0,0,0,0,0,0,-1,1679,1688,12.8,-86.4729
462,-664,14.3168,84.5027,0,0,0,0,0,0,0,-1,1686,1688,14.3168,-84.5026
469,-664,6.05469,7.49341,0,0,0,0,0,0,0,-1,1693,1688,6.05474,-7.49339
476,-664,10.2377,22.7128,0,0,0,0,0,0,0,-1,1700,1688,10.2377,-22.7128
483,-664,8.41895,10.9768,0,0,0,0,0,0,0,-1,1707,1688,8.41897,-10.9769
490,-664,3.90771,13.2842,0,0,0,0,0,0,0,-1,1714,1688,3.90776,-13.2841
497,-664,0,0,0,0,0,0,0,0,0,-1,1721,1688,0,0
504,-664,0,0,0,0,0,0,0,0,0,-1,1728,1688,0,0
511,-664,0,0,0,0,0,0,0,0,0,-1,1735,1688,0,0
518,-664,0,0,0,0,0,0,0,0,0,-1,1742,1688,0,0
525,-664,0,0,0,0,0,0,0,0,0,-1,1749,1688,0,0
532,-664,0,0,0,0,0,0,0,0,0,-1,1756,1688,0,0
539,-664,0,0,0,0,0,0,0,0,0,-1,1763,1688,0,0
546,-664,0,0,0,0,0,0,0,0,0,-1,1770,1688,0,0
553,-664,0,0,0,0,0,0,0,0,0,-1,1777,1688,0,0
560,-664,0,0,0,0,0,0,0,0,0,-1,1784,1688,0,0
567,-664,0,0,0,0,0,0,0,0,0,-1,1791,1688,0,0
574,-664,0,0,0,0,0,0,0,0,0,-1,1798,1688,0,0
581,-664,0,0,0,0,0,0,0,0,0,-1,1805,1688,0,0
588,-664,0,0,0,0,0,0,0,0,0,-1,1812,1688,0,0
595,-664,0,0,0,0,0,0,0,0,0,-1,1819,1688,0,0
602,-664,0,0,0,0,0,0,0,0,0,-1,1826,1688,0,0
609,-664,0,0,0,0,0,0,0,0,0,-1,1833,1688,0,0
616,-664,0,0,0,0,0,0,0,0,0,-1,1840,1688,0,0
623,-664,0,0,0,0,0,0,0,0,0,-1,1847,1688,0,0
630,-664,0,0,0,0,0,0,0,0,0,-1,1854,1688,0,0
637,-664,0,0,0,0,0,0,0,0,0,-1,1861,1688,0,0
644,-664,0,0,0,0,0,0,0,0,0,-1,1868,1688,0,0
651,-664,0,0,0,0,0,0,0,0,0,-1,1875,1688,0,0
658,-664,0,0,0,0,0,0,0,0,0,-1,1882,1688,0,0
665,-664,0,0,0,0,0,0,0,0,0,-1,1889,1688,0,0
672,-664,0,0,0,0,0,0,0,0,0,-1,1896,1688,0,0
679,-664,0,0,0,0,0,0,0,0,0,-1,1903,1688,0,0
686,-664,0,0,0,0,0,0,0,0,0,-1,1910,1688,0,0
693,-664,0,0,0,0,0,0,0,0,0,-1,1917,1688,0,0
700,-664,0,0,0,0,0,0,0,0,0,-1,1924,1688,0,0
707,-664,0,0,0,0,0,0,0,0,0,-1,1931,1688,0,0
714,-664,0,0,0,0,0,0,0,0,0,-1,1938,1688,0,0
721,-664,0,0,0,0,0,0,0,0,0,-1,1945,1688,0,0
728,-664,0,0,0,0,0,0,0,0,0,-1,1952,1688,0,0
735,-664,0,0,0,0,0,0,0,0,0,-1,1959,1688,0,0
742,-664,0,0,0,0,0,0,0,0,0,-1,1966,1688,0,0
749,-664,0,0,0,0,0,0,0,0,0,-1,1973,1688,0,0
756,-664,0,0,0,0,0,0,0,0,0,-1,1980,1688,0,0
763,-664,0,0,0,0,0,0,0,0,0,-1,1987,1688,0,0
770,-664,0,0,0,0,0,0,0,0,0,-1,1994,1688,0,0
777,-664,0,0,0,0,0,0,0,0,0,-1,2001,1688,0,0
784,-664,0,0,0,0,0,0,0,0,0,-1,2008,1688,0,0
791,-664,0,0,0,0,0,0,0,0,0,-1,2015,1688,0,0
798,-664,0,0,0,0,0,0,0,0,0,-1,2022,1688,0,0
805,-664,0,0,0,0,0,0,0,0,0,-1,2029,1688,0,0
812,-664,0,0,0,0,0,0,0,0,0,-1,2036,1688,0,0
-700,-671,0,0,0,0,0,0,0,0,0,-1,524,1695,0,0
-693,-671,0,0,0,0,0,0,0,0,0,-1,531,1695,0,0
-686,-671,0,0,0,0,0,0,0,0,0,-1,538,1695,0,0
-679,-671,0,0,0,0,0,0,0,0,0,-1,545,1695,0,0
-672,-671,0,0,0,0,0,0,0,0,0,-1,552,1695,0,0
-665,-671,0,0,0,0,0,0,0,0,0,-1,559,1695,0,0
-658,-671,0,0,0,0,0,0,0,0,0,-1,566,1695,0,0
-651,-671,0,0,0,0,0,0,0,0,0,-1,573,1695,0,0
-644,-671,0,0,0,0,0,0,0,0,0,-1,580,1695,0,0
-637,-671,0,0,0,0,0,0,0,0,0,-1,587,1695,0,0
-630,-671,0,0,0,0,0,0,0,0,0,-1,594,1695,0,0
-623,-671,0,0,0,0,0,0,0,0,0,-1,601,1695,0,0
-616,-671,0,0,0,0,0,0,0,0,0,-1,608,1695,0,0
-609,-671,0,0,0,0,0,0,0,0,0,-1,615,1695,0,0
-602,-671,0,0,0,0,0,0,0,0,0,-1,622,1695,0,0
-595,-671,0,0,0,0,0,0,0,0,0,-1,629,1695,0,0
-588,-671,0,0,0,0,0,0,0,0,0,-1,636,1695,0,0
-581,-671,0,0,0,0,0,0,0,0,0,-1,643,1695,0,0
-574,-671,0,0,0,0,0,0,0,0,0,-1,650,1695,0,0
-567,-671,0,0,0,0,0,0,0,0,0,-1,657,1695,0,0
-560,-671,0,0,0,0,0,0,0,0,0,-1,664,1695,0,0
-553,-671,0,0,0,0,0,0,0,0,0,-1,671,1695,0,0
-546,-671,0,0,0,0,0,0,0,0,0,-1,678,1695,0,0
-539,-671,0,0,0,0,0,0,0,0,0,-1,685,1695,0,0
-532,-671,0,0,0,0,0,0,0,0,0,-1,692,1695,0,0
-525,-671,0,0,0,0,0,0,0,0,0,-1,699,1695,0,0
-518,-671,0,0,0,0,0,0,0,0,0,-1,706,1695,0,0
-511,-671,0,0,0,0,0,0,0,0,0,-1,713,1695,0,0
-504,-671,0,0,0,0,0,0,0,0,0,-1,720,1695,0,0
-497,-671,0,0,0,0,0,0,0,0,0,-1,727,1695,0,0
-490,-671,0,0,0,0,0,0,0,0,0,-1,734,1695,0,0
-483,-671,0,0,0,0,0,0,0,0,0,-1,741,1695,0,0
-476,-671,0,0,0,0,0,0,0,0,0,-1,748,1695,0,0
-469,-671,0,0,0,0,0,0,0,0,0,-1,755,1695,0,0
-462,-671,0,0,0,0,0,0,0,0,0,-1,762,1695,0,0
-455,-671,0,0,0,0,0,0,0,0,0,-1,769,1695,0,0
-448,-671,0,0,0,0,0,0,0,0,0,-1,776,1695,0,0
-441,-671,0,0,0,0,0,0,0,0,0,-1,783,1695,0,0
-434,-671,0,0,0,0,0,0,0,0,0,-1,790,1695,0,0
-427,-671,0,0,0,0,0,0,0,0,0,-1,797,1695,0,0
-420,-671,0,0,0,0,0,0,0,0,0,-1,804,1695,0,0
-413,-671,0,0,0,0,0,0,0,0,0,-1,811,1695,0,0
-406,-671,0,0,0,0,0,0,0,0,0,-1,818,1695,0,0
-399,-671,0,0,0,0,0,0,0,0,0,-1,825,1695,0,0
-392,-671,0,0,0,0,0,0,0,0,0,-1,832,1695,0,0
-385,-671,0,0,0,0,0,0,0,0,0,-1,839,1695,0,0
-378,-671,0,0,0,0,0,0,0,0,0,-1,846,1695,0,0
-371,-671,0,0,0,0,0,0,0,0,0,-1,853,1695,0,0
-364,-671,-4.18738,7.51416,0,0,0,0,0,0,0,-1,860,1695,-4.18739,-7.51419
-357,-671,-5.02393,6.07129,0,0,0,0,0,0,0,-1,867,1695,-5.0239,-6.07135
-350,-671,8.03021,46.2139,0,0,0,0,0,0,0,-1,874,1695,8.03024,-46.2139
-343,-671,7.2002,45.9105,0,0,0,0,0,0,0,-1,881,1695,7.20021,-45.9105
-336,-671,3.61957,62.0797,0,0,0,0,0,0,0,-1,888,1695,3.61955,-62.0797
-329,-671,3.79718,62.5812,0,0,0,0,0,0,0,-1,895,1695,3.79718,-62.5812
-322,-671,5.74951,47.1416,0,0,0,0,0,0,0,-1,902,1695,5.74954,-47.1416
-315,-671,6.55444,54.9858,0,0,0,0,0,0,0,-1,909,1695,6.55444,-54.9858
-308,-671,5.88354,55.9731,0,0,0,0,0,0,0,-1,916,1695,5.88355,-55.9731
-301,-671,4.41486,57.2842,0,0,0,0,0,0,0,-1,923,1695,4.41487,-57.2842
-294,-671,1.25769,113.784,0,0,0,0,0,0,0,-1,930,1695,1.25769,-113.784
-287,-671,-1.98596,183.505,0,0,0,0,0,0,0,-1,937,1695,-1.98599,-183.505
-280,-671,-2.64355,204.505,0,0,0,0,0,0,0,-1,944,1695,-2.64353,-204.505
-273,-671,-2.99951,219.975,0,0,0,0,0,0,0,-1,951,1695,-2.99951,-219.975
-266,-671,-4.0329,228.571,0,0,0,0,0,0,0,-1,958,1695,-4.03289,-228.571
-259,-671,-12.8644,255.655,0,0,0,0,0,0,0,-1,965,1695,-12.8644,-255.655
-252,-671,-13.3696,259.43,0,0,0,0,0,0,0,-1,972,1695,-13.3696,-259.43
-245,-671,-13.8147,262.514,0.0424097,0.00221281,-0.0283831,0.0570898,-0.0124673,-0.477323,0.0428249,0.0346469,979,1695,-13.8147,-262.514
-238,-671,-14.2091,265.647,0.0445363,0.00164516,-0.0303956,0.0602903,-0.0141088,-0.478178,0.0456294,0.0273356,986,1695,-14.2091,-265.647
-231,-671,-14.6711,268.694,0.0471251,0.000731045,-0.0319838,0.0634384,-0.0155823,-0.471655,0.0483311,0.0209463,993,1695,-14.6711,-268.694
-224,-671,-14.9224,271.571,0.0499684,-0.000725173,-0.0334,0.0665503,-0.0173071,-0.460816,0.051122,0.0217509,1000,1695,-14.9223,-271.571
-217,-671,-15.1161,274.463,0.053155,-0.00194997,-0.0342309,0.0695444,-0.0183395,-0.446538,0.0535337,0.0228448,1007,1695,-15.1161,-274.463
-210,-671,-15.4025,277.257,0.0563693,-0.00333996,-0.0348281,0.0723873,-0.0193579,-0.431068,0.0558407,0.0199288,1014,1695,-15.4025,-277.257
-203,-671,-15.5512,280.123,0.0595387,-0.0051977,-0.0353815,0.0751241,-0.0207831,-0.414923,0.0582595,0.0295508,1021,1695,-15.5512,-280.123
-196,-671,-15.5673,282.824,0.06315,-0.00704516,-0.0357298,0.078137,-0.0220321,-0.397162,0.0607813,0.0290749,1028,1695,-15.5673,-282.824
-189,-671,-15.5513,285.672,0.0670052,-0.00922933,-0.0361698,0.0814349,-0.023659,-0.379594,0.063659,0.0257287,1035,1695,-15.5512,-285.672
-182,-671,-15.6316,288.175,0.0709636,-0.0111483,-0.0368473,0.0850739,-0.0252586,-0.365713,0.066748,0.0201729,1042,1695,-15.6316,-288.175
-175,-671,-15.626,290.67,0.0744977,-0.012595,-0.0377732,0.0885977,-0.0266949,-0.357262,0.0696891,0.0258483,1049,1695,-15.626,-290.67
-168,-671,-15.5096,293.179,0.0774562,-0.0140733,-0.0383694,0.0914127,-0.0280298,-0.348862,0.072124,0.031981,1056,1695,-15.5096,-293.179
-161,-671,-15.4799,295.579,0.0796064,-0.0152797,-0.0389756,0.0935632,-0.0292365,-0.343864,0.0740699,0.0246657,1063,1695,-15.4798,-295.579
-154,-671,-15.0929,297.905,0.0819376,-0.016107,-0.0398576,0.0960961,-0.0302655,-0.341324,0.0761836,0.0238226,1070,1695,-15.0928,-297.905
-147,-671,-14.8507,300.181,0.0842579,-0.0160877,-0.0411018,0.098944,-0.0307737,-0.343171,0.078264,0.0213753,1077,1695,-14.8507,-300.181
-140,-671,-14.5848,302.413,0.0858794,-0.0159412,-0.0420159,0.100978,-0.0310399,-0.344987,0.0797062,0.040218,1084,1695,-14.5848,-302.413
-133,-671,-14.3871,304.718,0,0,0,0,0,0,0,-1,1091,1695,-14.3871,-304.718
-126,-671,-14.8219,307.292,0,0,0,0,0,0,0,-1,1098,1695,-14.8219,-307.292
-119,-671,5.2262,74.2942,0,0,0,0,0,0,0,-1,1105,1695,5.22624,-74.2942
-112,-671,6.58704,44.6255,0,0,0,0,0,0,0,-1,1112,1695,6.58701,-44.6255
-105,-671,7.33252,41.3418,0,0,0,0,0,0,0,-1,1119,1695,7.33247,-41.3418
-98,-671,6.34534,45.6299,0,0,0,0,0,0,0,-1,1126,1695,6.34533,-45.6299
-91,-671,6.40063,38.2443,0,0,0,0,0,0,0,-1,1133,1695,6.40059,-38.2442
-84,-671,5.4209,26.2415,0,0,0,0,0,0,0,-1,1140,1695,5.42096,-26.2414
-77,-671,4.31763,16.489,0,0,0,0,0,0,0,-1,1147,1695,4.31757,-16.489
-70,-671,3.06067,10.7737,0,0,0,0,0,0,0,-1,1154,1695,3.0607,-10.7737
-63,-671,2.94592,6.90198,0,0,0,0,0,0,0,-1,1161,1695,2.94594,-6.90198
-56,-671,-3.07678,2.87976,0,0,0,0,0,0,0,-1,1168,1695,-3.07675,-2.87979
-49,-671,-1.05957,4.76917,0,0,0,0,0,0,0,-1,1175,1695,-1.05958,-4.76921
-42,-671,0.539307,3.7865,0,0,0,0,0,0,0,-1,1182,1695,0.539266,-3.78648
-35,-671,-0.272461,0.347534,0,0,0,0,0,0,0,-1,1189,1695,-0.272434,-0.347569
-28,-671,-10.4878,17.2009,0,0,0,0,0,0,0,-1,1196,1695,-10.4878,-17.2009
-21,-671,29.2339,326.879,0,0,0,0,0,0,0,-1,1203,1695,29.2339,-326.879
-14,-671,28.4269,328.35,0,0,0,0,0,0,0,-1,1210,1695,28.4269,-328.35
-7,-671,27.338,329.608,0,0,0,0,0,0,0,-1,1217,1695,27.338,-329.607
0,-671,26.4543,330.919,0,0,0,0,0,0,0,-1,1224,1695,26.4544,-330.919
7,-671,25.6425,332.293,0,0,0,0,0,0,0,-1,1231,1695,25.6425,-332.293
14,-671,24.5366,331.661,0,0,0,0,0,0,0,-1,1238,1695,24.5366,-331.661
21,-671,23.9567,332.896,0,0,0,0,0,0,0,-1,1245,1695,23.9566,-332.896
28,-671,20.1838,337.835,0,0,0,0,0,0,0,-1,1252,1695,20.1838,-337.835
35,-671,19.6691,337.515,0,0,0,0,0,0,0,-1,1259,1695,19.6691,-337.514
42,-671,18.84,337.304,0,0,0,0,0,0,0,-1,1266,1695,18.84,-337.304
49,-671,18.2986,337.257,0,0,0,0,0,0,0,-1,1273,1695,18.2985,-337.257
56,-671,17.9324,336.901,0,0,0,0,0,0,0,-1,1280,1695,17.9324,-336.901
63,-671,17.502,336.161,0,0,0,0,0,0,0,-1,1287,1695,17.502,-336.161
70,-671,14.5599,337.412,0,0,0,0,0,0,0,-1,1294,1695,14.5599,-337.412
77,-671,14.3328,336.52,0,0,0,0,0,0,0,-1,1301,1695,14.3327,-336.52
84,-671,14.2477,335.686,0,0,0,0,0,0,0,-1,1308,1695,14.2476,-335.686
91,-671,14.0361,335.072,0,0,0,0,0,0,0,-1,1315,1695,14.0361,-335.072
98,-671,13.7009,334.392,0,0,0,0,0,0,0,-1,1322,1695,13.701,-334.392
105,-671,13.354,333.586,0,0,0,0,0,0,0,-1,1329,1695,13.354,-333.586
112,-671,13.0005,332.703,0,0,0,0,0,0,0,-1,1336,1695,13.0005,-332.703
119,-671,12.1652,331.652,0,0,0,0,0,0,0,-1,1343,1695,12.1651,-331.652
126,-671,11.463,330.741,0,0,0,0,0,0,0,-1,1350,1695,11.463,-330.741
133,-671,10.9218,330.029,0,0,0,0,0,0,0,-1,1357,1695,10.9217,-330.029
140,-671,10.8734,328.871,0,0,0,0,0,0,0,-1,1364,1695,10.8734,-328.871
147,-671,11.0322,327.677,0,0,0,0,0,0,0,-1,1371,1695,11.0323,-327.677
154,-671,11.1614,326.636,0,0,0,0,0,0,0,-1,1378,1695,11.1614,-326.636
161,-671,4.49292,4.91272,0,0,0,0,0,0,0,-1,1385,1695,4.49297,-4.91273
168,-671,5.17639,6.1416,0,0,0,0,0,0,0,-1,1392,1695,5.1764,-6.14164
175,-671,5.6731,1.64685,0,0,0,0,0,0,0,-1,1399,1695,5.67313,-1.64691
182,-671,5.56812,1.71692,0,0,0,0,0,0,0,-1,1406,1695,5.56809,-1.71686
189,-671,6.98315,6.36169,0,0,0,0,0,0,0,-1,1413,1695,6.98312,-6.36175
196,-671,5.38123,5.69775,0,0,0,0,0,0,0,-1,1420,1695,5.38125,-5.69769
203,-671,5.95117,8.11658,0,0,0,0,0,0,0,-1,1427,1695,5.9512,-8.11662
210,-671,4.73596,8.39624,0,0,0,0,0,0,0,-1,1434,1695,4.736,-8.39618
217,-671,5.37097,11.863,0,0,0,0,0,0,0,-1,1441,1695,5.37094,-11.863
224,-671,5.08167,13.6694,0,0,0,0,0,0,0,-1,1448,1695,5.08165,-13.6695
231,-671,5.66663,15.3348,0,0,0,0,0,0,0,-1,1455,1695,5.66667,-15.3349
238,-671,6.32959,16.2036,0,0,0,0,0,0,0,-1,1462,1695,6.32961,-16.2037
245,-671,11.9244,57.5367,0,0,0,0,0,0,0,-1,1469,1695,11.9245,-57.5367
252,-671,14.2122,112.518,0,0,0,0,0,0,0,-1,1476,1695,14.2122,-112.518
259,-671,31.3942,309.335,0,0,0,0,0,0,0,-1,1483,1695,31.3942,-309.335
266,-671,31.7997,307.132,0,0,0,0,0,0,0,-1,1490,1695,31.7997,-307.132
273,-671,32.2657,304.913,0,0,0,0,0,0,0,-1,1497,1695,32.2657,-304.913
280,-671,32.5869,302.794,0.0781971,-0.005397,0.0262716,0.085768,-0.0129678,0.280574,0.0619553,0.0429505,1504,1695,32.587,-302.794
287,-671,32.5198,300.906,0.0744067,-0.00357487,0.0265404,0.0825824,-0.0117505,0.298822,0.0593607,0.0379975,1511,1695,32.5198,-300.906
294,-671,32.5905,298.462,0.0707593,-0.00201183,0.0267296,0.0795221,-0.0107747,0.316793,0.0569471,0.0370967,1518,1695,32.5905,-298.462
301,-671,32.8953,295.767,0.066698,-0.000602067,0.0268001,0.0760662,-0.00997029,0.336282,0.05434,0.0298401,1525,1695,32.8953,-295.767
308,-671,33.0942,293.295,0.06269,0.000465079,0.0271062,0.0728418,-0.00968664,0.358346,0.0520911,0.0256926,1532,1695,33.0943,-293.295
315,-671,33.0612,290.773,0.0589477,0.00147738,0.0275217,0.0700014,-0.00957634,0.381916,0.0501653,0.0239478,1539,1695,33.0612,-290.773
322,-671,32.9321,288.268,0.0552089,0.00224235,0.0274972,0.0669024,-0.0094511,0.40209,0.0480627,0.022471,1546,1695,32.9321,-288.268
329,-671,32.7466,285.708,0.051684,0.0029363,0.027075,0.0637401,-0.00911976,0.418926,0.0458367,0.0213818,1553,1695,32.7466,-285.708
336,-671,32.5769,282.992,0.0484578,0.00347418,0.0261598,0.0604655,-0.00853354,0.430325,0.0434352,0.0194381,1560,1695,32.577,-282.992
343,-671,32.3397,280.257,0.0450645,0.00380491,0.0250528,0.0568882,-0.00801878,0.440958,0.0408615,0.0328717,1567,1695,32.3397,-280.257
350,-671,31.9667,277.396,0.0416607,0.0042247,0.0236804,0.0531275,-0.00724218,0.450956,0.0380628,0.034611,1574,1695,31.9666,-277.396
357,-671,31.8536,274.464,0.0384203,0.0045243,0.0220087,0.0492503,-0.00630571,0.45729,0.0351246,0.0247562,1581,1695,31.8536,-274.464
364,-671,31.4669,271.512,0.035358,0.00474037,0.0202327,0.0454208,-0.00532248,0.46153,0.0322017,0.020051,1588,1695,31.4669,-271.512
371,-671,31.0006,268.587,0.0321395,0.00517105,0.0184177,0.0414814,-0.00417093,0.469414,0.0291443,0.0201463,1595,1695,31.0006,-268.587
378,-671,30.5228,265.542,0.0287032,0.00556155,0.0165043,0.0372886,-0.00302387,0.479672,0.0259259,0.0188716,1602,1695,30.5229,-265.542
385,-671,30.0179,262.274,0.0252656,0.00581372,0.0143939,0.0329114,-0.00183211,0.488284,0.0225764,0.0310954,1609,1695,30.0179,-262.274
392,-671,29.2803,259.363,0,0,0,0,0,0,0,-1,1616,1695,29.2803,-259.363
399,-671,28.6292,255.918,0,0,0,0,0,0,0,-1,1623,1695,28.6292,-255.918
406,-671,10.4132,246.211,0,0,0,0,0,0,0,-1,1630,1695,10.4132,-246.211
413,-671,7.39368,235.727,0,0,0,0,0,0,0,-1,1637,1695,7.39365,-235.727
420,-671,7.49219,164.415,0,0,0,0,0,0,0,-1,1644,1695,7.49214,-164.415
427,-671,12.4595,89.1311,0,0,0,0,0,0,0,-1,1651,1695,12.4595,-89.1311
434,-671,12.6877,85.8525,0,0,0,0,0,0,0,-1,1658,1695,12.6877,-85.8525
441,-671,12.4281,77.4683,0,0,0,0,0,0,0,-1,1665,1695,12.4281,-77.4682
448,-671,11.6979,39.1995,0,0,0,0,0,0,0,-1,1672,1695,11.6979,-39.1994
455,-671,11.5221,39.0929,0,0,0,0,0,0,0,-1,1679,1695,11.5221,-39.0929
462,-671,5.86255,4.47961,0,0,0,0,0,0,0,-1,1686,1695,5.8625,-4.4796
469,-671,3.71301,3.76978,0,0,0,0,0,0,0,-1,1693,1695,3.71297,-3.76974
476,-671,3.75574,3.18848,0,0,0,0,0,0,0,-1,1700,1695,3.7558,-3.18847
483,-671,7.81824,12.1041,0,0,0,0,0,0,0,-1,1707,1695,7.81826,-12.1041
490,-671,0,0,0,0,0,0,0,0,0,-1,1714,1695,0,0
497,-671,0,0,0,0,0,0,0,0,0,-1,1721,1695,0,0
504,-671,0,0,0,0,0,0,0,0,0,-1,1728,1695,0,0
511,-671,0,0,0,0,0,0,0,0,0,-1,1735,1695,0,0
518,-671,0,0,0,0,0,0,0,0,0,-1,1742,1695,0,0
525,-671,0,0,0,0,0,0,0,0,0,-1,1749,1695,0,0
532,-671,0,0,0,0,0,0,0,0,0,-1,1756,1695,0,0
539,-671,0,0,0,0,0,0,0,0,0,-1,1763,1695,0,0
546,-671,0,0,0,0,0,0,0,0,0,-1,1770,1695,0,0
553,-671,0,0,0,0,0,0,0,0,0,-1,1777,1695,0,0
560,-671,0,0,0,0,0,0,0,0,0,-1,1784,1695,0,0
567,-671,0,0,0,0,0,0,0,0,0,-1,1791,1695,0,0
574,-671,0,0,0,0,0,0,0,0,0,-1,1798,1695,0,0
581,-671,0,0,0,0,0,0,0,0,0,-1,1805,1695,0,0
588,-671,0,0,0,0,0,0,0,0,0,-1,1812,1695,0,0
595,-671,0,0,0,0,0,0,0,0,0,-1,1819,1695,0,0
602,-671,0,0,0,0,0,0,0,0,0,-1,1826,1695,0,0
609,-671,0,0,0,0,0,0,0,0,0,-1,1833,1695,0,0
616,-671,0,0,0,0,0,0,0,0,0,-1,1840,1695,0,0
623,-671,0,0,0,0,0,0,0,0,0,-1,1847,1695,0,0
630,-671,0,0,0,0,0,0,0,0,0,-1,1854,1695,0,0
637,-671,0,0,0,0,0,0,0,0,0,-1,1861,1695,0,0
644,-671,0,0,0,0,0,0,0,0,0,-1,1868,1695,0,0
651,-671,0,0,0,0,0,0,0,0,0,-1,1875,1695,0,0
658,-671,0,0,0,0,0,0,0,0,0,-1,1882,1695,0,0
665,-671,0,0,0,0,0,0,0,0,0,-1,1889,1695,0,0
672,-671,0,0,0,0,0,0,0,0,0,-1,1896,1695,0,0
679,-671,0,0,0,0,0,0,0,0,0,-1,1903,1695,0,0
686,-671,0,0,0,0,0,0,0,0,0,-1,1910,1695,0,0
693,-671,0,0,0,0,0,0,0,0,0,-1,1917,1695,0,0
700,-671,0,0,0,0,0,0,0,0,0,-1,1924,1695,0,0
707,-671,0,0,0,0,0,0,0,0,0,-1,1931,1695,0,0
714,-671,0,0,0,0,0,0,0,0,0,-1,1938,1695,0,0
721,-671,0,0,0,0,0,0,0,0,0,-1,1945,1695,0,0
728,-671,0,0,0,0,0,0,0,0,0,-1,1952,1695,0,0
735,-671,0,0,0,0,0,0,0,0,0,-1,1959,1695,0,0
742,-671,0,0,0,0,0,0,0,0,0,-1,1966,1695,0,0
749,-671,0,0,0,0,0,0,0,0,0,-1,1973,1695,0,0
756,-671,0,0,0,0,0,0,0,0,0,-1,1980,1695,0,0
763,-671,0,0,0,0,0,0,0,0,0,-1,1987,1695,0,0
770,-671,0,0,0,0,0,0,0,0,0,-1,1994,1695,0,0
777,-671,0,0,0,0,0,0,0,0,0,-1,2001,1695,0,0
784,-671,0,0,0,0,0,0,0,0,0,-1,2008,1695,0,0
791,-671,0,0,0,0,0,0,0,0,0,-1,2015,1695,0,0
798,-671,0,0,0,0,0,0,0,0,0,-1,2022,1695,0,0
805,-671,0,0,0,0,0,0,0,0,0,-1,2029,1695,0,0
812,-671,0,0,0,0,0,0,0,0,0,-1,2036,1695,0,0
-700,-678,0,0,0,0,0,0,0,0,0,-1,524,1702,0,0
-693,-678,0,0,0,0,0,0,0,0,0,-1,531,1702,0,0
-686,-678,0,0,0,0,0,0,0,0,0,-1,538,1702,0,0
-679,-678,0,0,0,0,0,0,0,0,0,-1,545,1702,0,0
-672,-678,0,0,0,0,0,0,0,0,0,-1,552,1702,0,0
-665,-678,0,0,0,0,0,0,0,0,0,-1,559,1702,0,0
-658,-678,0,0,0,0,0,0,0,0,0,-1,566,1702,0,0
-651,-678,0,0,0,0,0,0,0,0,0,-1,573,1702,0,0
-644,-678,0,0,0,0,0,0,0,0,0,-1,580,1702,0,0
-637,-678,0,0,0,0,0,0,0,0,0,-1,587,1702,0,0
-630,-678,0,0,0,0,0,0,0,0,0,-1,594,1702,0,0
-623,-678,0,0,0,0,0,0,0,0,0,-1,601,1702,0,0
-616,-678,0,0,0,0,0,0,0,0,0,-1,608,1702,0,0
-609,-678,0,0,0,0,0,0,0,0,0,-1,615,1702,0,0
-602,-678,0,0,0,0,0,0,0,0,0,-1,622,1702,0,0
-595,-678,0,0,0,0,0,0,0,0,0,-1,629,1702,0,0
-588,-678,0,0,0,0,0,0,0,0,0,-1,636,1702,0,0
-581,-678,0,0,0,0,0,0,0,0,0,-1,643,1702,0,0
-574,-678,0,0,0,0,0,0,0,0,0,-1,650,1702,0,0
-567,-678,0,0,0,0,0,0,0,0,0,-1,657,1702,0,0
-560,-678,0,0,0,0,0,0,0,0,0,-1,664,1702,0,0
-553,-678,0,0,0,0,0,0,0,0,0,-1,671,1702,0,0
-546,-678,0,0,0,0,0,0,0,0,0,-1,678,1702,0,0
-539,-678,0,0,0,0,0,0,0,0,0,-1,685,1702,0,0
-532,-678,0,0,0,0,0,0,0,0,0,-1,692,1702,0,0
-525,-678,0,0,0,0,0,0,0,0,0,-1,699,1702,0,0
-518,-678,0,0,0,0,0,0,0,0,0,-1,706,1702,0,0
-511,-678,0,0,0,0,0,0,0,0,0,-1,713,1702,0,0
-504,-678,0,0,0,0,0,0,0,0,0,-1,720,1702,0,0
-497,-678,0,0,0,0,0,0,0,0,0,-1,727,1702,0,0
-490,-678,0,0,0,0,0,0,0,0,0,-1,734,1702,0,0
-483,-678,0,0,0,0,0,0,0,0,0,-1,741,1702,0,0
-476,-678,0,0,0,0,0,0,0,0,0,-1,748,1702,0,0
-469,-678,0,0,0,0,0,0,0,0,0,-1,755,1702,0,0
-462,-678,0,0,0,0,0,0,0,0,0,-1,762,1702,0,0
-455,-678,0,0,0,0,0,0,0,0,0,-1,769,1702,0,0
-448,-678,0,0,0,0,0,0,0,0,0,-1,776,1702,0,0
-441,-678,0,0,0,0,0,0,0,0,0,-1,783,1702,0,0
-434,-678,0,0,0,0,0,0,0,0,0,-1,790,1702,0,0
-427,-678,0,0,0,0,0,0,0,0,0,-1,797,1702,0,0
-420,-678,0,0,0,0,0,0,0,0,0,-1,804,1702,0,0
-413,-678,0,0,0,0,0,0,0,0,0,-1,811,1702,0,0
-406,-678,0,0,0,0,0,0,0,0,0,-1,818,1702,0,0
-399,-678,0,0,0,0,0,0,0,0,0,-1,825,1702,0,0
-392,-678,0,0,0,0,0,0,0,0,0,-1,832,1702,0,0
-385,-678,0,0,0,0,0,0,0,0,0,-1,839,1702,0,0
-378,-678,0,0,0,0,0,0,0,0,0,-1,846,1702,0,0
-371,-678,0,0,0,0,0,0,0,0,0,-1,853,1702,0,0
-364,-678,0,0,0,0,0,0,0,0,0,-1,860,1702,0,0
-357,-678,0,0,0,0,0,0,0,0,0,-1,867,1702,0,0
-350,-678,-5.79944,6.11865,0,0,0,0,0,0,0,-1,874,1702,-5.79942,-6.11864
-343,-678,8.83331,46.1378,0,0,0,0,0,0,0,-1,881,1702,8.83334,-46.1378
-336,-678,7.73517,46.2286,0,0,0,0,0,0,0,-1,888,1702,7.73516,-46.2286
-329,-678,6.11768,46.3923,0,0,0,0,0,0,0,-1,895,1702,6.11768,-46.3923
-322,-678,8.50494,35.5048,0,0,0,0,0,0,0,-1,902,1702,8.50495,-35.5047
-315,-678,6.45313,55.4424,0,0,0,0,0,0,0,-1,909,1702,6.45314,-55.4424
-308,-678,6.78906,55.7052,0,0,0,0,0,0,0,-1,916,1702,6.78906,-55.7052
-301,-678,4.56702,57.2437,0,0,0,0,0,0,0,-1,923,1702,4.56702,-57.2436
-294,-678,4.51898,57.8069,0,0,0,0,0,0,0,-1,930,1702,4.51898,-57.8069
-287,-678,3.15588,110.075,0,0,0,0,0,0,0,-1,937,1702,3.15587,-110.075
-280,-678,2.88605,111.566,0,0,0,0,0,0,0,-1,944,1702,2.88607,-111.566
-273,-678,2.45282,112.753,0,0,0,0,0,0,0,-1,951,1702,2.45283,-112.753
-266,-678,-1.01245,201.942,0,0,0,0,0,0,0,-1,958,1702,-1.01246,-201.942
-259,-678,-1.6123,227.005,0,0,0,0,0,0,0,-1,965,1702,-1.61228,-227.005
-252,-678,-9.54163,259.736,0,0,0,0,0,0,0,-1,972,1702,-9.54163,-259.736
-245,-678,-10.5372,263.072,0,0,0,0,0,0,0,-1,979,1702,-10.5372,-263.072
-238,-678,-10.86,266.232,0,0,0,0,0,0,0,-1,986,1702,-10.86,-266.232
-231,-678,-11.4111,269.382,0.0387584,0.00336583,-0.0282203,0.054372,-0.0122477,-0.505352,0.0409457,0.0225084,993,1702,-11.4111,-269.382
-224,-678,-11.7177,272.31,0.0414196,0.00188448,-0.0298103,0.0574209,-0.0141168,-0.492629,0.043752,0.019521,1000,1702,-11.7176,-272.31
-217,-678,-11.9603,275.184,0.0445456,0.000749577,-0.0307219,0.060375,-0.0150798,-0.475772,0.0461061,0.0234703,1007,1702,-11.9603,-275.184
-210,-678,-12.3646,278.087,0.0476407,-0.000565664,-0.0313285,0.0630652,-0.0159902,-0.457507,0.0482647,0.0253593,1014,1702,-12.3645,-278.087
-203,-678,-12.5309,280.782,0.0505192,-0.00231655,-0.0320021,0.0655988,-0.0173961,-0.440348,0.0505393,0.0334621,1021,1702,-12.5309,-280.782
-196,-678,-12.5251,283.614,0.0538974,-0.00393931,-0.0324021,0.068409,-0.018451,-0.421075,0.0528413,0.0320268,1028,1702,-12.5251,-283.614
-189,-678,-12.6462,286.248,0.0576351,-0.00592797,-0.0328474,0.0715594,-0.0198522,-0.400944,0.0555196,0.0185443,1035,1702,-12.6462,-286.248
-182,-678,-12.8156,288.828,0.0615852,-0.00782488,-0.0334951,0.0751125,-0.0213522,-0.383829,0.0585059,0.0177112,1042,1702,-12.8155,-288.828
-175,-678,-12.8525,291.38,0.0652313,-0.00950388,-0.034292,0.0785814,-0.0228539,-0.371252,0.0614391,0.0194244,1049,1702,-12.8526,-291.38
-168,-678,-12.7839,293.825,0.0683094,-0.0111656,-0.0348259,0.0814104,-0.0242666,-0.359811,0.0639169,0.0186018,1056,1702,-12.7839,-293.825
-161,-678,-12.7344,296.197,0.070706,-0.0124928,-0.0354128,0.0837379,-0.0255247,-0.352619,0.0659998,0.0178259,1063,1702,-12.7344,-296.197
-154,-678,-12.5913,298.548,0.0731539,-0.0134652,-0.0362556,0.0863261,-0.0266374,-0.348487,0.0681868,0.0198026,1070,1702,-12.5913,-298.548
-147,-678,-12.4663,300.903,0.0754594,-0.0138714,-0.0372453,0.0889508,-0.0273628,-0.347529,0.0702216,0.0236287,1077,1702,-12.4664,-300.903
-140,-678,-12.1777,303.137,0.0772322,-0.0140748,-0.0380172,0.0909887,-0.0278313,-0.347192,0.0717584,0.0232548,1084,1702,-12.1777,-303.137
-133,-678,-12.0463,305.263,0.0775236,-0.0135459,-0.0384117,0.0915613,-0.0275836,-0.350374,0.0720183,0.0276845,1091,1702,-12.0463,-305.263
-126,-678,-11.9077,307.417,0.0777702,-0.0130328,-0.0390877,0.0922781,-0.0275407,-0.355404,0.072465,0.03356,1098,1702,-11.9078,-307.417
-119,-678,-11.7791,309.976,0,0,0,0,0,0,0,-1,1105,1702,-11.7791,-309.976
-112,-678,-10.8381,311.161,0,0,0,0,0,0,0,-1,1112,1702,-10.8381,-311.161
-105,-678,-10.8545,313.264,0,0,0,0,0,0,0,-1,1119,1702,-10.8545,-313.264
-98,-678,-9.78491,315.327,0,0,0,0,0,0,0,-1,1126,1702,-9.7849,-315.327
-91,-678,1.9314,131.293,0,0,0,0,0,0,0,-1,1133,1702,1.93142,-131.293
-84,-678,6.58545,36.5073,0,0,0,0,0,0,0,-1,1140,1702,6.58544,-36.5073
-77,-678,5.95154,29.1879,0,0,0,0,0,0,0,-1,1147,1702,5.95156,-29.1878
-70,-678,4.75891,19.6552,0,0,0,0,0,0,0,-1,1154,1702,4.75895,-19.6551
-63,-678,3.41687,11.0365,0,0,0,0,0,0,0,-1,1161,1702,3.41682,-11.0365
-56,-678,1.72388,6.13159,0,0,0,0,0,0,0,-1,1168,1702,1.72388,-6.13157
-49,-678,-0.241699,5.29895,0,0,0,0,0,0,0,-1,1175,1702,-0.241682,-5.29897
-42,-678,0.297119,3.90649,0,0,0,0,0,0,0,-1,1182,1702,0.297139,-3.90655
-35,-678,0.498413,3.64038,0,0,0,0,0,0,0,-1,1189,1702,0.498471,-3.64038
-28,-678,0.132446,3.55994,0,0,0,0,0,0,0,-1,1196,1702,0.132432,-3.55993
-21,-678,5.26782,127.536,0,0,0,0,0,0,0,-1,1203,1702,5.26788,-127.536
-14,-678,27.4043,327.703,0,0,0,0,0,0,0,-1,1210,1702,27.4043,-327.703
-7,-678,26.5499,329.65,0,0,0,0,0,0,0,-1,1217,1702,26.5499,-329.65
0,-678,25.447,331.007,0,0,0,0,0,0,0,-1,1224,1702,25.447,-331.007
7,-678,24.6249,332.335,0,0,0,0,0,0,0,-1,1231,1702,24.6248,-332.335
14,-678,23.455,331.386,0,0,0,0,0,0,0,-1,1238,1702,23.4549,-331.386
21,-678,22.8636,332.639,0,0,0,0,0,0,0,-1,1245,1702,22.8637,-332.639
28,-678,19.2118,337.345,0,0,0,0,0,0,0,-1,1252,1702,19.2118,-337.345
35,-678,18.1494,338.138,0,0,0,0,0,0,0,-1,1259,1702,18.1494,-338.138
42,-678,17.2599,338.082,0,0,0,0,0,0,0,-1,1266,1702,17.2599,-338.082
49,-678,16.7312,338.038,0,0,0,0,0,0,0,-1,1273,1702,16.7312,-338.038
56,-678,16.2491,337.411,0,0,0,0,0,0,0,-1,1280,1702,16.2492,-337.411
63,-678,13.8401,338.442,0,0,0,0,0,0,0,-1,1287,1702,13.8401,-338.441
70,-678,13.6344,337.747,0,0,0,0,0,0,0,-1,1294,1702,13.6345,-337.747
77,-678,13.5601,337.06,0,0,0,0,0,0,0,-1,1301,1702,13.5601,-337.06
84,-678,13.473,336.113,0,0,0,0,0,0,0,-1,1308,1702,13.473,-336.113
91,-678,13.4696,335.424,0,0,0,0,0,0,0,-1,1315,1702,13.4695,-335.424
98,-678,13.5469,335.062,0,0,0,0,0,0,0,-1,1322,1702,13.5469,-335.062
105,-678,12.422,334.187,0,0,0,0,0,0,0,-1,1329,1702,12.422,-334.187
112,-678,12.0111,333.084,0,0,0,0,0,0,0,-1,1336,1702,12.0111,-333.084
119,-678,11.642,332.104,0,0,0,0,0,0,0,-1,1343,1702,11.642,-332.104
126,-678,11.0203,331.317,0,0,0,0,0,0,0,-1,1350,1702,11.0203,-331.317
133,-678,10.6044,330.553,0,0,0,0,0,0,0,-1,1357,1702,10.6044,-330.553
140,-678,10.22,329.718,0,0,0,0,0,0,0,-1,1364,1702,10.22,-329.717
147,-678,10.4761,328.292,0,0,0,0,0,0,0,-1,1371,1702,10.476,-328.292
154,-678,6.94861,332.981,0,0,0,0,0,0,0,-1,1378,1702,6.94862,-332.982
161,-678,8.81226,34.8624,0,0,0,0,0,0,0,-1,1385,1702,8.81229,-34.8624
168,-678,4.21863,5.25781,0,0,0,0,0,0,0,-1,1392,1702,4.21865,-5.25781
175,-678,5.21899,5.9635,0,0,0,0,0,0,0,-1,1399,1702,5.21894,-5.96346
182,-678,7.31262,6.75122,0,0,0,0,0,0,0,-1,1406,1702,7.3126,-6.75123
189,-678,5.96021,6.36853,0,0,0,0,0,0,0,-1,1413,1702,5.96018,-6.36851
196,-678,5.01599,8.15771,0,0,0,0,0,0,0,-1,1420,1702,5.01596,-8.15767
203,-678,4.64771,13.0559,0,0,0,0,0,0,0,-1,1427,1702,4.64766,-13.0559
210,-678,5.6532,18.5957,0,0,0,0,0,0,0,-1,1434,1702,5.65318,-18.5958
217,-678,6.88049,23.4835,0,0,0,0,0,0,0,-1,1441,1702,6.88047,-23.4835
224,-678,8.521,32.0977,0,0,0,0,0,0,0,-1,1448,1702,8.52098,-32.0977
231,-678,9.96838,42.3734,0,0,0,0,0,0,0,-1,1455,1702,9.96844,-42.3734
238,-678,27.2413,315.461,0,0,0,0,0,0,0,-1,1462,1702,27.2413,-315.461
245,-678,28.6379,313.502,0,0,0,0,0,0,0,-1,1469,1702,28.638,-313.502
252,-678,28.9943,311.831,0,0,0,0,0,0,0,-1,1476,1702,28.9943,-311.831
259,-678,29.2833,309.585,0.0795222,-0.0123508,0.0250128,0.0858905,-0.0187192,0.249309,0.0644132,0.0494549,1483,1702,29.2834,-309.585
266,-678,29.6798,307.53,0.076427,-0.00882154,0.0247737,0.0831035,-0.015498,0.263245,0.0612257,0.045951,1490,1702,29.6798,-307.53
273,-678,30.0985,305.502,0,0,0,0,0,0,0,-1,1497,1702,30.0985,-305.502
280,-678,30.3824,303.212,0.0693194,-0.00420591,0.0242723,0.0766094,-0.0114959,0.291771,0.0553046,0.037602,1504,1702,30.3824,-303.212
287,-678,30.3628,301.066,0.0655752,-0.00252353,0.0242099,0.0733048,-0.0102531,0.309043,0.0526216,0.0333027,1511,1702,30.3628,-301.066
294,-678,30.3145,298.739,0.0619573,-0.00108141,0.0240908,0.0701096,-0.00923369,0.326301,0.050102,0.0373003,1518,1702,30.3145,-298.738
301,-678,30.3274,296.32,0.0581227,0.000182304,0.0238513,0.0666779,-0.00837295,0.344396,0.0474896,0.0271276,1525,1702,30.3274,-296.32
308,-678,30.3782,293.879,0.0544304,0.00110465,0.0237931,0.0635029,-0.00796793,0.364292,0.0452258,0.0216891,1532,1702,30.3782,-293.879
315,-678,30.2928,291.34,0.05091,0.00202325,0.0237832,0.0605712,-0.00763792,0.385855,0.0431527,0.0217474,1539,1702,30.2928,-291.34
322,-678,30.0809,288.908,0.0473683,0.00278806,0.023404,0.0573985,-0.00724206,0.404885,0.040894,0.0242177,1546,1702,30.0809,-288.908
329,-678,29.8563,286.333,0.0440603,0.00353524,0.0226982,0.0542243,-0.0066288,0.421016,0.0385496,0.0226247,1553,1702,29.8563,-286.333
336,-678,29.636,283.635,0.0409358,0.00421131,0.021535,0.0508743,-0.00572716,0.432378,0.0359775,0.0211958,1560,1702,29.636,-283.635
343,-678,29.3862,280.767,0.0377213,0.00474109,0.0201477,0.0472668,-0.00480441,0.44245,0.0332286,0.0447361,1567,1702,29.3863,-280.767
350,-678,29.0079,278.083,0.0346205,0.00527046,0.01854,0.0435905,-0.00369955,0.45062,0.0303687,0.0410335,1574,1702,29.0079,-278.083
357,-678,28.7783,275.234,0.031745,0.00545969,0.0166955,0.0398502,-0.00264547,0.451956,0.0274911,0.0248318,1581,1702,28.7784,-275.234
364,-678,28.3885,272.206,0.0290078,0.00565789,0.0148334,0.0362097,-0.001544,0.451995,0.0246706,0.0211442,1588,1702,28.3886,-272.206
371,-678,27.8253,269.181,0.0260158,0.00643775,0.0130517,0.0325415,-8.79709e-05,0.463641,0.0217237,0.0332719,1595,1702,27.8253,-269.181
378,-678,27.3667,265.973,0,0,0,0,0,0,0,-1,1602,1702,27.3668,-265.973
385,-678,26.7292,263.048,0,0,0,0,0,0,0,-1,1609,1702,26.7293,-263.048
392,-678,5.26355,239.621,0,0,0,0,0,0,0,-1,1616,1702,5.26353,-239.621
399,-678,4.25818,230.565,0,0,0,0,0,0,0,-1,1623,1702,4.25819,-230.565
406,-678,3.48706,226.056,0,0,0,0,0,0,0,-1,1630,1702,3.48708,-226.056
413,-678,8.50085,130.524,0,0,0,0,0,0,0,-1,1637,1702,8.50083,-130.524
420,-678,11.8315,90.0081,0,0,0,0,0,0,0,-1,1644,1702,11.8316,-90.008
427,-678,10.0541,38.9548,0,0,0,0,0,0,0,-1,1651,1702,10.0541,-38.9548
434,-678,10.1094,38.722,0,0,0,0,0,0,0,-1,1658,1702,10.1094,-38.7221
441,-678,11.6007,39.4658,0,0,0,0,0,0,0,-1,1665,1702,11.6007,-39.4658
448,-678,11.344,38.9084,0,0,0,0,0,0,0,-1,1672,1702,11.344,-38.9084
455,-678,5.44678,5.54297,0,0,0,0,0,0,0,-1,1679,1702,5.44676,-5.54294
462,-678,3.86792,2.87402,0,0,0,0,0,0,0,-1,1686,1702,3.86796,-2.87406
469,-678,2.26587,1.98755,0,0,0,0,0,0,0,-1,1693,1702,2.26592,-1.98755
476,-678,0,0,0,0,0,0,0,0,0,-1,1700,1702,0,0
483,-678,0,0,0,0,0,0,0,0,0,-1,1707,1702,0,0
490,-678,0,0,0,0,0,0,0,0,0,-1,1714,1702,0,0
497,-678,0,0,0,0,0,0,0,0,0,-1,1721,1702,0,0
504,-678,0,0,0,0,0,0,0,0,0,-1,1728,1702,0,0
511,-678,0,0,0,0,0,0,0,0,0,-1,1735,1702,0,0
518,-678,0,0,0,0,0,0,0,0,0,-1,1742,1702,0,0
525,-678,0,0,0,0,0,0,0,0,0,-1,1749,1702,0,0
532,-678,0,0,0,0,0,0,0,0,0,-1,1756,1702,0,0
539,-678,0,0,0,0,0,0,0,0,0,-1,1763,1702,0,0
546,-678,0,0,0,0,0,0,0,0,0,-1,1770,1702,0,0
553,-678,0,0,0,0,0,0,0,0,0,-1,1777,1702,0,0
560,-678,0,0,0,0,0,0,0,0,0,-1,1784,1702,0,0
567,-678,0,0,0,0,0,0,0,0,0,-1,1791,1702,0,0
574,-678,0,0,0,0,0,0,0,0,0,-1,1798,1702,0,0
581,-678,0,0,0,0,0,0,0,0,0,-1,1805,1702,0,0
588,-678,0,0,0,0,0,0,0,0,0,-1,1812,1702,0,0
595,-678,0,0,0,0,0,0,0,0,0,-1,1819,1702,0,0
602,-678,0,0,0,0,0,0,0,0,0,-1,1826,1702,0,0
609,-678,0,0,0,0,0,0,0,0,0,-1,1833,1702,0,0
616,-678,0,0,0,0,0,0,0,0,0,-1,1840,1702,0,0
623,-678,0,0,0,0,0,0,0,0,0,-1,1847,1702,0,0
630,-678,0,0,0,0,0,0,0,0,0,-1,1854,1702,0,0
637,-678,0,0,0,0,0,0,0,0,0,-1,1861,1702,0,0
644,-678,0,0,0,0,0,0,0,0,0,-1,1868,1702,0,0
651,-678,0,0,0,0,0,0,0,0,0,-1,1875,1702,0,0
658,-678,0,0,0,0,0,0,0,0,0,-1,1882,1702,0,0
665,-678,0,0,0,0,0,0,0,0,0,-1,1889,1702,0,0
672,-678,0,0,0,0,0,0,0,0,0,-1,1896,1702,0,0
679,-678,0,0,0,0,0,0,0,0,0,-1,1903,1702,0,0
686,-678,0,0,0,0,0,0,0,0,0,-1,1910,1702,0,0
693,-678,0,0,0,0,0,0,0,0,0,-1,1917,1702,0,0
700,-678,0,0,0,0,0,0,0,0,0,-1,1924,1702,0,0
707,-678,0,0,0,0,0,0,0,0,0,-1,1931,1702,0,0
714,-678,0,0,0,0,0,0,0,0,0,-1,1938,1702,0,0
721,-678,0,0,0,0,0,0,0,0,0,-1,1945,1702,0,0
728,-678,0,0,0,0,0,0,0,0,0,-1,1952,1702,0,0
735,-678,0,0,0,0,0,0,0,0,0,-1,1959,1702,0,0
742,-678,0,0,0,0,0,0,0,0,0,-1,1966,1702,0,0
749,-678,0,0,0,0,0,0,0,0,0,-1,1973,1702,0,0
756,-678,0,0,0,0,0,0,0,0,0,-1,1980,1702,0,0
763,-678,0,0,0,0,0,0,0,0,0,-1,1987,1702,0,0
770,-678,0,0,0,0,0,0,0,0,0,-1,1994,1702,0,0
777,-678,0,0,0,0,0,0,0,0,0,-1,2001,1702,0,0
784,-678,0,0,0,0,0,0,0,0,0,-1,2008,1702,0,0
791,-678,0,0,0,0,0,0,0,0,0,-1,2015,1702,0,0
798,-678,0,0,0,0,0,0,0,0,0,-1,2022,1702,0,0
805,-678,0,0,0,0,0,0,0,0,0,-1,2029,1702,0,0
812,-678,0,0,0,0,0,0,0,0,0,-1,2036,1702,0,0
-700,-685,0,0,0,0,0,0,0,0,0,-1,524,1709,0,0
-693,-685,0,0,0,0,0,0,0,0,0,-1,531,1709,0,0
-686,-685,0,0,0,0,0,0,0,0,0,-1,538,1709,0,0
-679,-685,0,0,0,0,0,0,0,0,0,-1,545,1709,0,0
-672,-685,0,0,0,0,0,0,0,0,0,-1,552,1709,0,0
-665,-685,0,0,0,0,0,0,0,0,0,-1,559,1709,0,0
-658,-685,0,0,0,0,0,0,0,0,0,-1,566,1709,0,0
-651,-685,0,0,0,0,0,0,0,0,0,-1,573,1709,0,0
-644,-685,0,0,0,0,0,0,0,0,0,-1,580,1709,0,0
-637,-685,0,0,0,0,0,0,0,0,0,-1,587,1709,0,0
-630,-685,0,0,0,0,0,0,0,0,0,-1,594,1709,0,0
-623,-685,0,0,0,0,0,0,0,0,0,-1,601,1709,0,0
-616,-685,0,0,0,0,0,0,0,0,0,-1,608,1709,0,0
-609,-685,0,0,0,0,0,0,0,0,0,-1,615,1709,0,0
-602,-685,0,0,0,0,0,0,0,0,0,-1,622,1709,0,0
-595,-685,0,0,0,0,0,0,0,0,0,-1,629,1709,0,0
-588,-685,0,0,0,0,0,0,0,0,0,-1,636,1709,0,0
-581,-685,0,0,0,0,0,0,0,0,0,-1,643,1709,0,0
-574,-685,0,0,0,0,0,0,0,0,0,-1,650,1709,0,0
-567,-685,0,0,0,0,0,0,0,0,0,-1,657,1709,0,0
-560,-685,0,0,0,0,0,0,0,0,0,-1,664,1709,0,0
-553,-685,0,0,0,0,0,0,0,0,0,-1,671,1709,0,0
-546,-685,0,0,0,0,0,0,0,0,0,-1,678,1709,0,0
-539,-685,0,0,0,0,0,0,0,0,0,-1,685,1709,0,0
-532,-685,0,0,0,0,0,0,0,0,0,-1,692,1709,0,0
-525,-685,0,0,0,0,0,0,0,0,0,-1,699,1709,0,0
-518,-685,0,0,0,0,0,0,0,0,0,-1,706,1709,0,0
-511,-685,0,0,0,0,0,0,0,0,0,-1,713,1709,0,0
-504,-685,0,0,0,0,0,0,0,0,0,-1,720,1709,0,0
-497,-685,0,0,0,0,0,0,0,0,0,-1,727,1709,0,0
-490,-685,0,0,0,0,0,0,0,0,0,-1,734,1709,0,0
-483,-685,0,0,0,0,0,0,0,0,0,-1,741,1709,0,0
-476,-685,0,0,0,0,0,0,0,0,0,-1,748,1709,0,0
-469,-685,0,0,0,0,0,0,0,0,0,-1,755,1709,0,0
-462,-685,0,0,0,0,0,0,0,0,0,-1,762,1709,0,0
-455,-685,0,0,0,0,0,0,0,0,0,-1,769,1709,0,0
-448,-685,0,0,0,0,0,0,0,0,0,-1,776,1709,0,0
-441,-685,0,0,0,0,0,0,0,0,0,-1,783,1709,0,0
-434,-685,0,0,0,0,0,0,0,0,0,-1,790,1709,0,0
-427,-685,0,0,0,0,0,0,0,0,0,-1,797,1709,0,0
-420,-685,0,0,0,0,0,0,0,0,0,-1,804,1709,0,0
-413,-685,0,0,0,0,0,0,0,0,0,-1,811,1709,0,0
-406,-685,0,0,0,0,0,0,0,0,0,-1,818,1709,0,0
-399,-685,0,0,0,0,0,0,0,0,0,-1,825,1709,0,0
-392,-685,0,0,0,0,0,0,0,0,0,-1,832,1709,0,0
-385,-685,0,0,0,0,0,0,0,0,0,-1,839,1709,0,0
-378,-685,0,0,0,0,0,0,0,0,0,-1,846,1709,0,0
-371,-685,0,0,0,0,0,0,0,0,0,-1,853,1709,0,0
-364,-685,0,0,0,0,0,0,0,0,0,-1,860,1709,0,0
-357,-685,0,0,0,0,0,0,0,0,0,-1,867,1709,0,0
-350,-685,0,0,0,0,0,0,0,0,0,-1,874,1709,0,0
-343,-685,-5.98505,6.56335,0,0,0,0,0,0,0,-1,881,1709,-5.98505,-6.56329
-336,-685,-6.51312,5.10571,0,0,0,0,0,0,0,-1,888,1709,-6.51311,-5.10575
-329,-685,9.98907,36.2474,0,0,0,0,0,0,0,-1,895,1709,9.98909,-36.2475
-322,-685,3.83191,16.7219,0,0,0,0,0,0,0,-1,902,1709,3.8319,-16.7219
-315,-685,5.15784,21.4388,0,0,0,0,0,0,0,-1,909,1709,5.15783,-21.4389
-308,-685,6.64496,56.2472,0,0,0,0,0,0,0,-1,916,1709,6.64498,-56.2472
-301,-685,4.73218,57.2266,0,0,0,0,0,0,0,-1,923,1709,4.73221,-57.2266
-294,-685,4.73169,57.9741,0,0,0,0,0,0,0,-1,930,1709,4.7317,-57.9741
-287,-685,4.45001,58.1342,0,0,0,0,0,0,0,-1,937,1709,4.45004,-58.1341
-280,-685,5.01813,109.848,0,0,0,0,0,0,0,-1,944,1709,5.01814,-109.848
-273,-685,3.51721,109.913,0,0,0,0,0,0,0,-1,951,1709,3.51719,-109.913
-266,-685,4.68628,111.404,0,0,0,0,0,0,0,-1,958,1709,4.68625,-111.404
-259,-685,1.22443,205.263,0,0,0,0,0,0,0,-1,965,1709,1.22445,-205.263
-252,-685,0.608032,230.387,0,0,0,0,0,0,0,-1,972,1709,0.608013,-230.387
-245,-685,-0.362732,238.152,0,0,0,0,0,0,0,-1,979,1709,-0.362705,-238.152
-238,-685,-4.53711,264.765,0,0,0,0,0,0,0,-1,986,1709,-4.53711,-264.765
-231,-685,-8.23889,270.031,0,0,0,0,0,0,0,-1,993,1709,-8.23886,-270.031
-224,-685,-8.64648,273.091,0,0,0,0,0,0,0,-1,1000,1709,-8.64649,-273.091
-217,-685,-8.97424,275.976,0.0356247,0.00419695,-0.02728,0.051393,-0.0115713,-0.524098,0.0387001,0.025871,1007,1709,-8.97426,-275.976
-210,-685,-9.25269,278.766,0.0385982,0.00279066,-0.0277793,0.0537434,-0.0123546,-0.499149,0.0405789,0.03429,1014,1709,-9.25267,-278.766
-203,-685,-9.38184,281.493,0.0412155,0.00104423,-0.0285066,0.0560019,-0.0137421,-0.478496,0.0426596,0.0388114,1021,1709,-9.38182,-281.493
-196,-685,-9.56927,284.246,0.0443965,-0.000484218,-0.0289085,0.0585523,-0.0146399,-0.455352,0.0447208,0.0252066,1028,1709,-9.56929,-284.246
-189,-685,-9.94495,286.862,0.0480581,-0.00239436,-0.0293524,0.0615349,-0.0158712,-0.430427,0.0472115,0.0159742,1035,1709,-9.94495,-286.862
-182,-685,-10.025,289.482,0.0520519,-0.00434583,-0.0299657,0.0650005,-0.0172945,-0.407883,0.0501035,0.0244222,1042,1709,-10.025,-289.482
-175,-685,-10.0988,292.017,0.055861,-0.00635676,-0.0306431,0.0684186,-0.0189144,-0.388928,0.0530533,0.0231599,1049,1709,-10.0987,-292.017
-168,-685,-10.1046,294.462,0.059147,-0.0082947,-0.0311461,0.0713302,-0.0204778,-0.372863,0.0556498,0.0178287,1056,1709,-10.1047,-294.462
-161,-685,-10.0681,296.9,0.0618673,-0.0098399,-0.0317327,0.0738932,-0.0218658,-0.362251,0.0579427,0.0217673,1063,1709,-10.0681,-296.9
-154,-685,-10.0313,299.221,0.0644846,-0.0111049,-0.0325228,0.0765514,-0.0231717,-0.355282,0.0602619,0.023988,1070,1709,-10.0313,-299.221
-147,-685,-9.8031,301.448,0.0668699,-0.0119736,-0.033313,0.0790605,-0.0241642,-0.350804,0.0623428,0.023111,1077,1709,-9.80304,-301.448
-140,-685,-9.54089,303.633,0.0688949,-0.0125576,-0.0339662,0.0812,-0.0248627,-0.347569,0.0640502,0.0263257,1084,1709,-9.54087,-303.633
-133,-685,-9.44946,305.781,0.0699337,-0.0125779,-0.0343582,0.082367,-0.0250112,-0.347214,0.0648759,0.0283487,1091,1709,-9.44952,-305.781
-126,-685,-9.21985,307.85,0.0707745,-0.0124022,-0.0349187,0.08349,-0.0251177,-0.349221,0.0656541,0.0230768,1098,1709,-9.2199,-307.85
-119,-685,-9.0426,309.811,0.0720628,-0.0126526,-0.0352556,0.0848152,-0.0254051,-0.347073,0.0666459,0.0285765,1105,1709,-9.04261,-309.811
-112,-685,-8.93323,311.614,0.073398,-0.0134438,-0.0351887,0.0858665,-0.0259122,-0.340528,0.067559,0.0265276,1112,1709,-8.93319,-311.614
-105,-685,-8.96655,313.493,0.0750552,-0.0148228,-0.034845,0.0869817,-0.0267493,-0.329775,0.0686636,0.0282806,1119,1709,-8.96661,-313.493
-98,-685,-8.11792,315.254,0,0,0,0,0,0,0,-1,1126,1709,-8.11792,-315.254
-91,-685,-7.12561,316.881,0,0,0,0,0,0,0,-1,1133,1709,-7.12559,-316.881
-84,-685,-7.74854,318.169,0,0,0,0,0,0,0,-1,1140,1709,-7.74848,-318.169
-77,-685,-6.74817,320.818,0,0,0,0,0,0,0,-1,1147,1709,-6.74815,-320.818
-70,-685,-8.31042,298.491,0,0,0,0,0,0,0,-1,1154,1709,-8.31037,-298.491
-63,-685,6.03015,29.7728,0,0,0,0,0,0,0,-1,1161,1709,6.0302,-29.7728
-56,-685,3.93909,15.8704,0,0,0,0,0,0,0,-1,1168,1709,3.93905,-15.8704
-49,-685,3.07471,9.86011,0,0,0,0,0,0,0,-1,1175,1709,3.07467,-9.86009
-42,-685,2.70618,7.54504,0,0,0,0,0,0,0,-1,1182,1709,2.7062,-7.54504
-35,-685,2.95264,7.91516,0,0,0,0,0,0,0,-1,1189,1709,2.95262,-7.91517
-28,-685,8.11353,52.4509,0,0,0,0,0,0,0,-1,1196,1709,8.1135,-52.451
-21,-685,-5.25513,292.447,0,0,0,0,0,0,0,-1,1203,1709,-5.2551,-292.447
-14,-685,-3.75427,328.212,0,0,0,0,0,0,0,-1,1210,1709,-3.75424,-328.212
-7,-685,-1.65625,224.8,0,0,0,0,0,0,0,-1,1217,1709,-1.65629,-224.8
0,-685,-3.12146,330.119,0,0,0,0,0,0,0,-1,1224,1709,-3.12149,-330.119
7,-685,-5.18311,340.308,0,0,0,0,0,0,0,-1,1231,1709,-5.18314,-340.308
14,-685,-2.70935,262.626,0,0,0,0,0,0,0,-1,1238,1709,-2.7094,-262.626
21,-685,-1.57166,262.929,0,0,0,0,0,0,0,-1,1245,1709,-1.57164,-262.929
28,-685,3.16797,186.33,0,0,0,0,0,0,0,-1,1252,1709,3.16803,-186.33
35,-685,2.40808,332.328,0,0,0,0,0,0,0,-1,1259,1709,2.40807,-332.328
42,-685,18.7697,337.112,0,0,0,0,0,0,0,-1,1266,1709,18.7696,-337.112
49,-685,17.8705,337.538,0,0,0,0,0,0,0,-1,1273,1709,17.8705,-337.538
56,-685,14.5781,337.93,0,0,0,0,0,0,0,-1,1280,1709,14.5781,-337.93
63,-685,12.9354,335.189,0,0,0,0,0,0,0,-1,1287,1709,12.9354,-335.189
70,-685,12.7723,337.932,0,0,0,0,0,0,0,-1,1294,1709,12.7724,-337.932
77,-685,12.8494,337.344,0,0,0,0,0,0,0,-1,1301,1709,12.8494,-337.344
84,-685,13.0962,336.567,0,0,0,0,0,0,0,-1,1308,1709,13.0962,-336.567
91,-685,14.088,336.745,0,0,0,0,0,0,0,-1,1315,1709,14.088,-336.745
98,-685,13.2495,335.866,0,0,0,0,0,0,0,-1,1322,1709,13.2495,-335.866
105,-685,12.411,334.987,0,0,0,0,0,0,0,-1,1329,1709,12.411,-334.987
112,-685,11.1085,333.804,0,0,0,0,0,0,0,-1,1336,1709,11.1085,-333.804
119,-685,11.061,332.613,0,0,0,0,0,0,0,-1,1343,1709,11.0611,-332.613
126,-685,10.7981,331.704,0,0,0,0,0,0,0,-1,1350,1709,10.7981,-331.704
133,-685,10.3922,330.981,0,0,0,0,0,0,0,-1,1357,1709,10.3922,-330.981
140,-685,7.64905,333.86,0,0,0,0,0,0,0,-1,1364,1709,7.64909,-333.86
147,-685,7.58813,333.487,0,0,0,0,0,0,0,-1,1371,1709,7.58813,-333.487
154,-685,10.0796,56.0078,0,0,0,0,0,0,0,-1,1378,1709,10.0796,-56.0079
161,-685,10.4932,55.8827,0,0,0,0,0,0,0,-1,1385,1709,10.4932,-55.8827
168,-685,4.37524,10.8778,0,0,0,0,0,0,0,-1,1392,1709,4.37525,-10.8778
175,-685,3.97522,8.94324,0,0,0,0,0,0,0,-1,1399,1709,3.97519,-8.94328
182,-685,3.98218,9.19739,0,0,0,0,0,0,0,-1,1406,1709,3.98221,-9.1974
189,-685,4.53479,15.2343,0,0,0,0,0,0,0,-1,1413,1709,4.53474,-15.2343
196,-685,9.96204,198.586,0,0,0,0,0,0,0,-1,1420,1709,9.96199,-198.586
203,-685,10.2123,197.143,0,0,0,0,0,0,0,-1,1427,1709,10.2123,-197.143
210,-685,25.1447,322.042,0,0,0,0,0,0,0,-1,1434,1709,25.1446,-322.042
217,-685,25.0674,320.339,0,0,0,0,0,0,0,-1,1441,1709,25.0674,-320.339
224,-685,24.9686,318.868,0,0,0,0,0,0,0,-1,1448,1709,24.9687,-318.868
231,-685,25.5306,317.3,0,0,0,0,0,0,0,-1,1455,1709,25.5306,-317.3
238,-685,26.3004,315.381,0,0,0,0,0,0,0,-1,1462,1709,26.3004,-315.381
245,-685,26.6791,313.735,0.0754937,-0.013831,0.0245519,0.0817973,-0.0201345,0.251315,0.0623365,0.0410618,1469,1709,26.6791,-313.735
252,-685,27.0907,312.143,0.0731301,-0.0115077,0.0238131,0.07937,-0.0177475,0.256273,0.0597149,0.0324638,1476,1709,27.0907,-312.143
259,-685,27.2843,310.026,0.070423,-0.00935244,0.0230638,0.076611,-0.0155404,0.262125,0.0569652,0.0254181,1483,1709,27.2844,-310.026
266,-685,27.5948,307.94,0.0673754,-0.00654023,0.0226598,0.073769,-0.0129339,0.275008,0.0540094,0.0485227,1490,1709,27.5948,-307.94
273,-685,27.7417,305.953,0,0,0,0,0,0,0,-1,1497,1709,27.7418,-305.953
280,-685,27.8024,303.636,0.0605538,-0.00255219,0.0218591,0.0673859,-0.00938426,0.30293,0.0483565,0.0489777,1504,1709,27.8024,-303.636
287,-685,27.8491,301.395,0.0569306,-0.0010968,0.021562,0.0640654,-0.00823159,0.319556,0.0457019,0.0243241,1511,1709,27.8491,-301.395
294,-685,27.7073,299.196,0.0533946,0.000142131,0.021218,0.0608148,-0.00727808,0.336419,0.0431742,0.0187921,1518,1709,27.7073,-299.196
301,-685,27.6859,296.844,0.0497508,0.00127025,0.0207422,0.057414,-0.0063929,0.353894,0.0405752,0.022159,1525,1709,27.6859,-296.844
308,-685,27.6187,294.403,0.0462839,0.00210061,0.0203684,0.0542408,-0.00585626,0.372418,0.0382623,0.022807,1532,1709,27.6187,-294.403
315,-685,27.5137,291.891,0.0429458,0.0029088,0.019956,0.0511936,-0.00533899,0.391918,0.0360408,0.0183041,1539,1709,27.5136,-291.891
322,-685,27.2504,289.405,0.039584,0.00363502,0.0192682,0.0479599,-0.00474092,0.410061,0.033665,0.0280084,1546,1709,27.2504,-289.405
329,-685,27.0717,286.844,0.036436,0.00444007,0.0182666,0.0447198,-0.00384372,0.425756,0.0311735,0.026801,1553,1709,27.0716,-286.844
336,-685,26.8163,284.186,0.033337,0.00523476,0.0168261,0.0412074,-0.00263556,0.437514,0.0283909,0.01853,1560,1709,26.8163,-284.186
343,-685,26.4552,281.383,0.0302524,0.00601392,0.0150942,0.0374907,-0.0012243,0.447143,0.0254117,0.0266933,1567,1709,26.4552,-281.383
350,-685,26.1504,278.609,0.0274426,0.00666718,0.0131552,0.0338169,0.000292888,0.451207,0.0224476,0.029951,1574,1709,26.1504,-278.609
357,-685,25.7822,275.774,0.0249473,0.00670737,0.0110227,0.0301337,0.00152095,0.43979,0.0196018,0.0277622,1581,1709,25.7822,-275.774
364,-685,25.3447,273.141,0,0,0,0,0,0,0,-1,1588,1709,25.3447,-273.141
371,-685,24.7533,269.761,0,0,0,0,0,0,0,-1,1595,1709,24.7533,-269.761
378,-685,10.4257,263.164,0,0,0,0,0,0,0,-1,1602,1709,10.4257,-263.164
385,-685,2.73474,237.233,0,0,0,0,0,0,0,-1,1609,1709,2.73471,-237.233
392,-685,1.42883,224.293,0,0,0,0,0,0,0,-1,1616,1709,1.42881,-224.293
399,-685,10.0272,109.278,0,0,0,0,0,0,0,-1,1623,1709,10.0272,-109.278
406,-685,9.95215,102.469,0,0,0,0,0,0,0,-1,1630,1709,9.95218,-102.469
413,-685,10.7178,91.3489,0,0,0,0,0,0,0,-1,1637,1709,10.7178,-91.3488
420,-685,10.3047,40.3569,0,0,0,0,0,0,0,-1,1644,1709,10.3047,-40.3569
427,-685,10.7286,38.6702,0,0,0,0,0,0,0,-1,1651,1709,10.7286,-38.6702
434,-685,4.87769,8.91418,0,0,0,0,0,0,0,-1,1658,1709,4.87768,-8.91413
441,-685,5.62,8.75549,0,0,0,0,0,0,0,-1,1665,1709,5.61996,-8.75545
448,-685,6.4043,8.58972,0,0,0,0,0,0,0,-1,1672,1709,6.40435,-8.58971
455,-685,2.31958,4.09802,0,0,0,0,0,0,0,-1,1679,1709,2.31957,-4.09803
462,-685,0,0,0,0,0,0,0,0,0,-1,1686,1709,0,0
469,-685,0,0,0,0,0,0,0,0,0,-1,1693,1709,0,0
476,-685,0,0,0,0,0,0,0,0,0,-1,1700,1709,0,0
483,-685,0,0,0,0,0,0,0,0,0,-1,1707,1709,0,0
490,-685,0,0,0,0,0,0,0,0,0,-1,1714,1709,0,0
497,-685,0,0,0,0,0,0,0,0,0,-1,1721,1709,0,0
504,-685,0,0,0,0,0,0,0,0,0,-1,1728,1709,0,0
511,-685,0,0,0,0,0,0,0,0,0,-1,1735,1709,0,0
518,-685,0,0,0,0,0,0,0,0,0,-1,1742,1709,0,0
525,-685,0,0,0,0,0,0,0,0,0,-1,1749,1709,0,0
532,-685,0,0,0,0,0,0,0,0,0,-1,1756,1709,0,0
539,-685,0,0,0,0,0,0,0,0,0,-1,1763,1709,0,0
546,-685,0,0,0,0,0,0,0,0,0,-1,1770,1709,0,0
553,-685,0,0,0,0,0,0,0,0,0,-1,1777,1709,0,0
560,-685,0,0,0,0,0,0,0,0,0,-1,1784,1709,0,0
567,-685,0,0,0,0,0,0,0,0,0,-1,1791,1709,0,0
574,-685,0,0,0,0,0,0,0,0,0,-1,1798,1709,0,0
581,-685,0,0,0,0,0,0,0,0,0,-1,1805,1709,0,0
588,-685,0,0,0,0,0,0,0,0,0,-1,1812,1709,0,0
595,-685,0,0,0,0,0,0,0,0,0,-1,1819,1709,0,0
602,-685,0,0,0,0,0,0,0,0,0,-1,1826,1709,0,0
609,-685,0,0,0,0,0,0,0,0,0,-1,1833,1709,0,0
616,-685,0,0,0,0,0,0,0,0,0,-1,1840,1709,0,0
623,-685,0,0,0,0,0,0,0,0,0,-1,1847,1709,0,0
630,-685,0,0,0,0,0,0,0,0,0,-1,1854,1709,0,0
637,-685,0,0,0,0,0,0,0,0,0,-1,1861,1709,0,0
644,-685,0,0,0,0,0,0,0,0,0,-1,1868,1709,0,0
651,-685,0,0,0,0,0,0,0,0,0,-1,1875,1709,0,0
658,-685,0,0,0,0,0,0,0,0,0,-1,1882,1709,0,0
665,-685,0,0,0,0,0,0,0,0,0,-1,1889,1709,0,0
672,-685,0,0,0,0,0,0,0,0,0,-1,1896,1709,0,0
679,-685,0,0,0,0,0,0,0,0,0,-1,1903,1709,0,0
686,-685,0,0,0,0,0,0,0,0,0,-1,1910,1709,0,0
693,-685,0,0,0,0,0,0,0,0,0,-1,1917,1709,0,0
700,-685,0,0,0,0,0,0,0,0,0,-1,1924,1709,0,0
707,-685,0,0,0,0,0,0,0,0,0,-1,1931,1709,0,0
714,-685,0,0,0,0,0,0,0,0,0,-1,1938,1709,0,0
721,-685,0,0,0,0,0,0,0,0,0,-1,1945,1709,0,0
728,-685,0,0,0,0,0,0,0,0,0,-1,1952,1709,0,0
735,-685,0,0,0,0,0,0,0,0,0,-1,1959,1709,0,0
742,-685,0,0,0,0,0,0,0,0,0,-1,1966,1709,0,0
749,-685,0,0,0,0,0,0,0,0,0,-1,1973,1709,0,0
756,-685,0,0,0,0,0,0,0,0,0,-1,1980,1709,0,0
763,-685,0,0,0,0,0,0,0,0,0,-1,1987,1709,0,0
770,-685,0,0,0,0,0,0,0,0,0,-1,1994,1709,0,0
777,-685,0,0,0,0,0,0,0,0,0,-1,2001,1709,0,0
784,-685,0,0,0,0,0,0,0,0,0,-1,2008,1709,0,0
791,-685,0,0,0,0,0,0,0,0,0,-1,2015,1709,0,0
798,-685,0,0,0,0,0,0,0,0,0,-1,2022,1709,0,0
805,-685,0,0,0,0,0,0,0,0,0,-1,2029,1709,0,0
812,-685,0,0,0,0,0,0,0,0,0,-1,2036,1709,0,0
-700,-692,0,0,0,0,0,0,0,0,0,-1,524,1716,0,0
-693,-692,0,0,0,0,0,0,0,0,0,-1,531,1716,0,0
-686,-692,0,0,0,0,0,0,0,0,0,-1,538,1716,0,0
-679,-692,0,0,0,0,0,0,0,0,0,-1,545,1716,0,0
-672,-692,0,0,0,0,0,0,0,0,0,-1,552,1716,0,0
-665,-692,0,0,0,0,0,0,0,0,0,-1,559,1716,0,0
-658,-692,0,0,0,0,0,0,0,0,0,-1,566,1716,0,0
-651,-692,0,0,0,0,0,0,0,0,0,-1,573,1716,0,0
-644,-692,0,0,0,0,0,0,0,0,0,-1,580,1716,0,0
-637,-692,0,0,0,0,0,0,0,0,0,-1,587,1716,0,0
-630,-692,0,0,0,0,0,0,0,0,0,-1,594,1716,0,0
-623,-692,0,0,0,0,0,0,0,0,0,-1,601,1716,0,0
-616,-692,0,0,0,0,0,0,0,0,0,-1,608,1716,0,0
-609,-692,0,0,0,0,0,0,0,0,0,-1,615,1716,0,0
-602,-692,0,0,0,0,0,0,0,0,0,-1,622,1716,0,0
-595,-692,0,0,0,0,0,0,0,0,0,-1,629,1716,0,0
-588,-692,0,0,0,0,0,0,0,0,0,-1,636,1716,0,0
-581,-692,0,0,0,0,0,0,0,0,0,-1,643,1716,0,0
-574,-692,0,0,0,0,0,0,0,0,0,-1,650,1716,0,0
-567,-692,0,0,0,0,0,0,0,0,0,-1,657,1716,0,0
-560,-692,0,0,0,0,0,0,0,0,0,-1,664,1716,0,0
-553,-692,0,0,0,0,0,0,0,0,0,-1,671,1716,0,0
-546,-692,0,0,0,0,0,0,0,0,0,-1,678,1716,0,0
-539,-692,0,0,0,0,0,0,0,0,0,-1,685,1716,0,0
-532,-692,0,0,0,0,0,0,0,0,0,-1,692,1716,0,0
-525,-692,0,0,0,0,0,0,0,0,0,-1,699,1716,0,0
-518,-692,0,0,0,0,0,0,0,0,0,-1,706,1716,0,0
-511,-692,0,0,0,0,0,0,0,0,0,-1,713,1716,0,0
-504,-692,0,0,0,0,0,0,0,0,0,-1,720,1716,0,0
-497,-692,0,0,0,0,0,0,0,0,0,-1,727,1716,0,0
-490,-692,0,0,0,0,0,0,0,0,0,-1,734,1716,0,0
-483,-692,0,0,0,0,0,0,0,0,0,-1,741,1716,0,0
-476,-692,0,0,0,0,0,0,0,0,0,-1,748,1716,0,0
-469,-692,0,0,0,0,0,0,0,0,0,-1,755,1716,0,0
-462,-692,0,0,0,0,0,0,0,0,0,-1,762,1716,0,0
-455,-692,0,0,0,0,0,0,0,0,0,-1,769,1716,0,0
-448,-692,0,0,0,0,0,0,0,0,0,-1,776,1716,0,0
-441,-692,0,0,0,0,0,0,0,0,0,-1,783,1716,0,0
-434,-692,0,0,0,0,0,0,0,0,0,-1,790,1716,0,0
-427,-692,0,0,0,0,0,0,0,0,0,-1,797,1716,0,0
-420,-692,0,0,0,0,0,0,0,0,0,-1,804,1716,0,0
-413,-692,0,0,0,0,0,0,0,0,0,-1,811,1716,0,0
-406,-692,0,0,0,0,0,0,0,0,0,-1,818,1716,0,0
-399,-692,0,0,0,0,0,0,0,0,0,-1,825,1716,0,0
-392,-692,0,0,0,0,0,0,0,0,0,-1,832,1716,0,0
-385,-692,0,0,0,0,0,0,0,0,0,-1,839,1716,0,0
-378,-692,0,0,0,0,0,0,0,0,0,-1,846,1716,0,0
-371,-692,0,0,0,0,0,0,0,0,0,-1,853,1716,0,0
-364,-692,0,0,0,0,0,0,0,0,0,-1,860,1716,0,0
-357,-692,0,0,0,0,0,0,0,0,0,-1,867,1716,0,0
-350,-692,0,0,0,0,0,0,0,0,0,-1,874,1716,0,0
-343,-692,0,0,0,0,0,0,0,0,0,-1,881,1716,0,0
-336,-692,0,0,0,0,0,0,0,0,0,-1,888,1716,0,0
-329,-692,3.03107,4.10266,0,0,0,0,0,0,0,-1,895,1716,3.03105,-4.10267
-322,-692,4.43713,18.5242,0,0,0,0,0,0,0,-1,902,1716,4.43711,-18.5241
-315,-692,5.38965,17.975,0,0,0,0,0,0,0,-1,909,1716,5.38963,-17.975
-308,-692,5.86938,17.4392,0,0,0,0,0,0,0,-1,916,1716,5.86937,-17.4392
-301,-692,12.015,41.2892,0,0,0,0,0,0,0,-1,923,1716,12.015,-41.2892
-294,-692,7.742,56.2694,0,0,0,0,0,0,0,-1,930,1716,7.74201,-56.2694
-287,-692,7.85974,56.4567,0,0,0,0,0,0,0,-1,937,1716,7.85974,-56.4566
-280,-692,7.31812,56.6891,0,0,0,0,0,0,0,-1,944,1716,7.3181,-56.689
-273,-692,9.02203,54.5182,0,0,0,0,0,0,0,-1,951,1716,9.02205,-54.5182
-266,-692,7.52716,51.7593,0,0,0,0,0,0,0,-1,958,1716,7.52717,-51.7593
-259,-692,7.95398,56.1954,0,0,0,0,0,0,0,-1,965,1716,7.954,-56.1954
-252,-692,7.40607,71.83,0,0,0,0,0,0,0,-1,972,1716,7.40609,-71.8299
-245,-692,2.81268,159.774,0,0,0,0,0,0,0,-1,979,1716,2.81271,-159.774
-238,-692,1.57861,229.509,0,0,0,0,0,0,0,-1,986,1716,1.57864,-229.509
-231,-692,0.823975,246.298,0,0,0,0,0,0,0,-1,993,1716,0.823964,-246.298
-224,-692,0.0288086,258.48,0,0,0,0,0,0,0,-1,1000,1716,0.0288177,-258.48
-217,-692,-6.02563,276.735,0,0,0,0,0,0,0,-1,1007,1716,-6.02564,-276.735
-210,-692,-6.22845,279.417,0,0,0,0,0,0,0,-1,1014,1716,-6.22846,-279.417
-203,-692,-6.36597,282.015,0,0,0,0,0,0,0,-1,1021,1716,-6.36595,-282.014
-196,-692,-6.73419,284.86,0.034725,0.0033597,-0.0252794,0.0487912,-0.0107065,-0.507766,0.0366217,0.0324271,1028,1716,-6.7342,-284.86
-189,-692,-7.16394,287.469,0.0383469,0.00136817,-0.0257054,0.0515217,-0.0118067,-0.473624,0.0388855,0.0154577,1035,1716,-7.16393,-287.469
-182,-692,-7.28333,290.087,0.0424307,-0.000742611,-0.0262834,0.0548558,-0.0131677,-0.4416,0.0416593,0.025713,1042,1716,-7.28336,-290.087
-175,-692,-7.40759,292.667,0.0464476,-0.00320455,-0.0268563,0.0581947,-0.0149517,-0.412331,0.0446233,0.0259902,1049,1716,-7.40764,-292.667
-168,-692,-7.44922,295.005,0.0500185,-0.00552352,-0.0273604,0.0612324,-0.0167374,-0.388975,0.0473963,0.0203144,1056,1716,-7.44925,-295.005
-161,-692,-7.44812,297.506,0.0531228,-0.00738052,-0.0279622,0.0640664,-0.0183241,-0.373046,0.0499521,0.0309177,1063,1716,-7.44814,-297.506
-154,-692,-7.63953,299.828,0.0559441,-0.00905867,-0.0286895,0.066795,-0.0199096,-0.361592,0.0524419,0.0387929,1070,1716,-7.63949,-299.828
-147,-692,-7.61353,301.859,0.0584651,-0.0104175,-0.0293247,0.0692581,-0.0212105,-0.352665,0.0546324,0.0375415,1077,1716,-7.61354,-301.86
-140,-692,-7.38062,304.076,0.0607704,-0.0114043,-0.029879,0.0715344,-0.0221683,-0.34578,0.0565466,0.0243333,1084,1716,-7.38064,-304.076
-133,-692,-7.16125,306.176,0.0624133,-0.0119514,-0.0302383,0.0731567,-0.0226949,-0.341382,0.0578398,0.0196162,1091,1716,-7.16125,-306.176
-126,-692,-6.88025,308.221,0.0637098,-0.0120525,-0.0306845,0.0745782,-0.0229209,-0.34041,0.0588659,0.0181479,1098,1716,-6.88022,-308.221
-119,-692,-6.95129,310.197,0.0651445,-0.0124338,-0.0308801,0.0759353,-0.0232247,-0.336179,0.0598856,0.021323,1105,1716,-6.95133,-310.197
-112,-692,-6.91248,311.984,0.0665342,-0.0132286,-0.0308068,0.0770471,-0.0237415,-0.328861,0.0608427,0.0206482,1112,1716,-6.91252,-311.984
-105,-692,-6.80286,313.859,0.0682661,-0.0143953,-0.0305441,0.0783277,-0.024457,-0.318218,0.0620001,0.0299768,1119,1716,-6.8029,-313.859
-98,-692,-6.45093,315.182,0,0,0,0,0,0,0,-1,1126,1716,-6.45093,-315.182
-91,-692,-5.49402,317.445,0,0,0,0,0,0,0,-1,1133,1716,-5.49401,-317.445
-84,-692,-5.13635,319.26,0,0,0,0,0,0,0,-1,1140,1716,-5.1363,-319.26
-77,-692,-4.84058,320.993,0,0,0,0,0,0,0,-1,1147,1716,-4.84059,-320.993
-70,-692,-4.64221,322.354,0,0,0,0,0,0,0,-1,1154,1716,-4.6422,-322.354
-63,-692,-3.57837,323.738,0,0,0,0,0,0,0,-1,1161,1716,-3.57838,-323.738
-56,-692,-3.2655,325.216,0,0,0,0,0,0,0,-1,1168,1716,-3.26546,-325.216
-49,-692,-5.05493,325.587,0,0,0,0,0,0,0,-1,1175,1716,-5.05492,-325.587
-42,-692,-4.74829,326.782,0,0,0,0,0,0,0,-1,1182,1716,-4.7483,-326.782
-35,-692,-3.3916,328.287,0,0,0,0,0,0,0,-1,1189,1716,-3.39165,-328.287
-28,-692,-0.214966,329.912,0,0,0,0,0,0,0,-1,1196,1716,-0.214982,-329.912
-21,-692,0.0567627,330.756,0,0,0,0,0,0,0,-1,1203,1716,0.0567901,-330.756
-14,-692,0.489014,331.843,0,0,0,0,0,0,0,-1,1210,1716,0.48903,-331.843
-7,-692,1.23608,332.793,0,0,0,0,0,0,0,-1,1217,1716,1.23606,-332.793
0,-692,1.93884,333.603,0,0,0,0,0,0,0,-1,1224,1716,1.93886,-333.603
7,-692,3.10327,334.308,0,0,0,0,0,0,0,-1,1231,1716,3.10326,-334.308
14,-692,3.85352,334.778,0,0,0,0,0,0,0,-1,1238,1716,3.85357,-334.778
21,-692,4.29089,335.038,0,0,0,0,0,0,0,-1,1245,1716,4.29084,-335.038
28,-692,5.00195,335.369,0,0,0,0,0,0,0,-1,1252,1716,5.002,-335.369
35,-692,5.67688,335.82,0,0,0,0,0,0,0,-1,1259,1716,5.67691,-335.82
42,-692,6.43799,335.874,0,0,0,0,0,0,0,-1,1266,1716,6.43798,-335.874
49,-692,7.48682,336.198,0,0,0,0,0,0,0,-1,1273,1716,7.4868,-336.198
56,-692,8.37061,336.645,0,0,0,0,0,0,0,-1,1280,1716,8.37064,-336.645
63,-692,9.61023,336.579,0,0,0,0,0,0,0,-1,1287,1716,9.6102,-336.579
70,-692,9.67676,336.434,0,0,0,0,0,0,0,-1,1294,1716,9.6768,-336.434
77,-692,10.1195,336.796,0,0,0,0,0,0,0,-1,1301,1716,10.1195,-336.796
84,-692,10.4696,337.03,0,0,0,0,0,0,0,-1,1308,1716,10.4696,-337.03
91,-692,11.827,337.069,0,0,0,0,0,0,0,-1,1315,1716,11.827,-337.069
98,-692,12.9321,336.829,0,0,0,0,0,0,0,-1,1322,1716,12.9321,-336.829
105,-692,12.8439,336.927,0,0,0,0,0,0,0,-1,1329,1716,12.8439,-336.927
112,-692,7.79163,332.673,0,0,0,0,0,0,0,-1,1336,1716,7.79163,-332.673
119,-692,6.20337,330.886,0,0,0,0,0,0,0,-1,1343,1716,6.20336,-330.886
126,-692,6.69409,242.54,0,0,0,0,0,0,0,-1,1350,1716,6.69404,-242.54
133,-692,6.73096,324.392,0,0,0,0,0,0,0,-1,1357,1716,6.7309,-324.392
140,-692,16.8595,333.318,0,0,0,0,0,0,0,-1,1364,1716,16.8595,-333.318
147,-692,17.4279,332.01,0,0,0,0,0,0,0,-1,1371,1716,17.4279,-332.01
154,-692,9.92883,56.0276,0,0,0,0,0,0,0,-1,1378,1716,9.92887,-56.0276
161,-692,19.1373,331.068,0,0,0,0,0,0,0,-1,1385,1716,19.1373,-331.068
168,-692,20.547,330.45,0,0,0,0,0,0,0,-1,1392,1716,20.547,-330.45
175,-692,21.7133,329.544,0,0,0,0,0,0,0,-1,1399,1716,21.7133,-329.544
182,-692,21.6554,328.022,0,0,0,0,0,0,0,-1,1406,1716,21.6554,-328.022
189,-692,21.4939,326.518,0,0,0,0,0,0,0,-1,1413,1716,21.4939,-326.518
196,-692,8.89429,198.411,0,0,0,0,0,0,0,-1,1420,1716,8.89427,-198.411
203,-692,22.6783,324.088,0,0,0,0,0,0,0,-1,1427,1716,22.6784,-324.088
210,-692,23.26,322.447,0.0774689,-0.012855,0.0267938,0.0848189,-0.020205,0.267733,0.0643472,0.0432188,1434,1716,23.26,-322.447
217,-692,23.4323,320.813,0.0752705,-0.0136176,0.0257399,0.0821862,-0.0205332,0.262475,0.0627649,0.0241429,1441,1716,23.4322,-320.813
224,-692,23.5323,319.307,0.071899,-0.0145144,0.0239789,0.0781069,-0.0207224,0.25333,0.06018,0.0218774,1448,1716,23.5323,-319.307
231,-692,23.9163,317.72,0.0693448,-0.0146911,0.0229166,0.0751879,-0.0205342,0.249652,0.0581905,0.0254804,1455,1716,23.9163,-317.72
238,-692,24.3345,315.852,0.0680055,-0.0125339,0.0226209,0.073924,-0.0184525,0.255905,0.0564479,0.0335688,1462,1716,24.3345,-315.852
245,-692,24.6528,314.138,0.0663901,-0.00993895,0.022081,0.0723175,-0.0158664,0.262258,0.054279,0.0352916,1469,1716,24.6529,-314.138
252,-692,25.0168,312.422,0.0640553,-0.00784504,0.0214017,0.0699435,-0.0137332,0.268484,0.051817,0.0344475,1476,1716,25.0168,-312.422
259,-692,25.2136,310.5,0.0614032,-0.0059156,0.0206743,0.0672455,-0.0117579,0.275405,0.04922,0.0177659,1483,1716,25.2136,-310.5
266,-692,25.1465,308.391,0.0584441,-0.0037285,0.0201333,0.0643944,-0.00967879,0.287364,0.0464929,0.0242672,1490,1716,25.1465,-308.391
273,-692,25.196,306.196,0.0552554,-0.00190766,0.0196153,0.0613389,-0.00799116,0.300734,0.0438,0.037333,1497,1716,25.196,-306.196
280,-692,25.2422,303.878,0.0519286,-0.000461293,0.019058,0.0581279,-0.00666052,0.314487,0.0411522,0.0325843,1504,1716,25.2421,-303.878
287,-692,25.3097,301.831,0.0484735,0.000734783,0.0185856,0.0548559,-0.00564762,0.330789,0.0385912,0.0182592,1511,1716,25.3096,-301.831
294,-692,25.24,299.706,0.0450619,0.00171105,0.0180864,0.0516167,-0.0048437,0.34769,0.0361341,0.0168133,1518,1716,25.24,-299.706
301,-692,25.186,297.362,0.0415894,0.00269873,0.0174503,0.0482713,-0.00398318,0.365689,0.0335874,0.0199996,1525,1716,25.186,-297.362
308,-692,25.0275,294.958,0.0382692,0.00347736,0.0168129,0.0450661,-0.00331951,0.384178,0.0312095,0.0211639,1532,1716,25.0274,-294.958
315,-692,24.7692,292.434,0.0350512,0.00416916,0.0160151,0.0418567,-0.00263639,0.401824,0.0288235,0.0195127,1539,1716,24.7691,-292.434
322,-692,24.549,289.87,0.0318154,0.00482188,0.0150567,0.0385391,-0.00190178,0.419988,0.0263495,0.0266932,1546,1716,24.5489,-289.87
329,-692,24.3364,287.342,0.0287242,0.00572192,0.0137243,0.0351293,-0.000683147,0.436651,0.0236505,0.0255847,1553,1716,24.3364,-287.342
336,-692,24.0111,284.704,0.0255059,0.00669122,0.0119609,0.0313157,0.000881466,0.452167,0.0205896,0.0228963,1560,1716,24.0111,-284.704
343,-692,23.7529,281.981,0,0,0,0,0,0,0,-1,1567,1716,23.753,-281.981
350,-692,23.3032,279.143,0,0,0,0,0,0,0,-1,1574,1716,23.3032,-279.143
357,-692,22.7877,276.286,0,0,0,0,0,0,0,-1,1581,1716,22.7877,-276.286
364,-692,3.35181,258.277,0,0,0,0,0,0,0,-1,1588,1716,3.35179,-258.277
371,-692,0.813965,235.919,0,0,0,0,0,0,0,-1,1595,1716,0.813994,-235.919
378,-692,-0.036499,231.754,0,0,0,0,0,0,0,-1,1602,1716,-0.0365284,-231.754
385,-692,5.94177,139.693,0,0,0,0,0,0,0,-1,1609,1716,5.94181,-139.693
392,-692,9.34058,106.317,0,0,0,0,0,0,0,-1,1616,1716,9.34055,-106.317
399,-692,9.19458,104.242,0,0,0,0,0,0,0,-1,1623,1716,9.19457,-104.242
406,-692,11.3221,42.7773,0,0,0,0,0,0,0,-1,1630,1716,11.3222,-42.7773
413,-692,11.4845,42.9004,0,0,0,0,0,0,0,-1,1637,1716,11.4845,-42.9004
420,-692,9.65894,40.2512,0,0,0,0,0,0,0,-1,1644,1716,9.65889,-40.2513
427,-692,3.79578,8.60339,0,0,0,0,0,0,0,-1,1651,1716,3.79577,-8.6034
434,-692,4.78516,8.64636,0,0,0,0,0,0,0,-1,1658,1716,4.78512,-8.64634
441,-692,5.8208,8.74036,0,0,0,0,0,0,0,-1,1665,1716,5.82084,-8.7404
448,-692,6.73792,8.51013,0,0,0,0,0,0,0,-1,1672,1716,6.73793,-8.5101
455,-692,0,0,0,0,0,0,0,0,0,-1,1679,1716,0,0
462,-692,0,0,0,0,0,0,0,0,0,-1,1686,1716,0,0
469,-692,0,0,0,0,0,0,0,0,0,-1,1693,1716,0,0
476,-692,0,0,0,0,0,0,0,0,0,-1,1700,1716,0,0
483,-692,0,0,0,0,0,0,0,0,0,-1,1707,1716,0,0
490,-692,0,0,0,0,0,0,0,0,0,-1,1714,1716,0,0
497,-692,0,0,0,0,0,0,0,0,0,-1,1721,1716,0,0
504,-692,0,0,0,0,0,0,0,0,0,-1,1728,1716,0,0
511,-692,0,0,0,0,0,0,0,0,0,-1,1735,1716,0,0
518,-692,0,0,0,0,0,0,0,0,0,-1,1742,1716,0,0
525,-692,0,0,0,0,0,0,0,0,0,-1,1749,1716,0,0
532,-692,0,0,0,0,0,0,0,0,0,-1,1756,1716,0,0
539,-692,0,0,0,0,0,0,0,0,0,-1,1763,1716,0,0
546,-692,0,0,0,0,0,0,0,0,0,-1,1770,1716,0,0
553,-692,0,0,0,0,0,0,0,0,0,-1,1777,1716,0,0
560,-692,0,0,0,0,0,0,0,0,0,-1,1784,1716,0,0
567,-692,0,0,0,0,0,0,0,0,0,-1,1791,1716,0,0
574,-692,0,0,0,0,0,0,0,0,0,-1,1798,1716,0,0
581,-692,0,0,0,0,0,0,0,0,0,-1,1805,1716,0,0
588,-692,0,0,0,0,0,0,0,0,0,-1,1812,1716,0,0
595,-692,0,0,0,0,0,0,0,0,0,-1,1819,1716,0,0
602,-692,0,0,0,0,0,0,0,0,0,-1,1826,1716,0,0
609,-692,0,0,0,0,0,0,0,0,0,-1,1833,1716,0,0
616,-692,0,0,0,0,0,0,0,0,0,-1,1840,1716,0,0
623,-692,0,0,0,0,0,0,0,0,0,-1,1847,1716,0,0
630,-692,0,0,0,0,0,0,0,0,0,-1,1854,1716,0,0
637,-692,0,0,0,0,0,0,0,0,0,-1,1861,1716,0,0
644,-692,0,0,0,0,0,0,0,0,0,-1,1868,1716,0,0
651,-692,0,0,0,0,0,0,0,0,0,-1,1875,1716,0,0
658,-692,0,0,0,0,0,0,0,0,0,-1,1882,1716,0,0
665,-692,0,0,0,0,0,0,0,0,0,-1,1889,1716,0,0
672,-692,0,0,0,0,0,0,0,0,0,-1,1896,1716,0,0
679,-692,0,0,0,0,0,0,0,0,0,-1,1903,1716,0,0
686,-692,0,0,0,0,0,0,0,0,0,-1,1910,1716,0,0
693,-692,0,0,0,0,0,0,0,0,0,-1,1917,1716,0,0
700,-692,0,0,0,0,0,0,0,0,0,-1,1924,1716,0,0
707,-692,0,0,0,0,0,0,0,0,0,-1,1931,1716,0,0
714,-692,0,0,0,0,0,0,0,0,0,-1,1938,1716,0,0
721,-692,0,0,0,0,0,0,0,0,0,-1,1945,1716,0,0
728,-692,0,0,0,0,0,0,0,0,0,-1,1952,1716,0,0
735,-692,0,0,0,0,0,0,0,0,0,-1,1959,1716,0,0
742,-692,0,0,0,0,0,0,0,0,0,-1,1966,1716,0,0
749,-692,0,0,0,0,0,0,0,0,0,-1,1973,1716,0,0
756,-692,0,0,0,0,0,0,0,0,0,-1,1980,1716,0,0
763,-692,0,0,0,0,0,0,0,0,0,-1,1987,1716,0,0
770,-692,0,0,0,0,0,0,0,0,0,-1,1994,1716,0,0
777,-692,0,0,0,0,0,0,0,0,0,-1,2001,1716,0,0
784,-692,0,0,0,0,0,0,0,0,0,-1,2008,1716,0,0
791,-692,0,0,0,0,0,0,0,0,0,-1,2015,1716,0,0
798,-692,0,0,0,0,0,0,0,0,0,-1,2022,1716,0,0
805,-692,0,0,0,0,0,0,0,0,0,-1,2029,1716,0,0
812,-692,0,0,0,0,0,0,0,0,0,-1,2036,1716,0,0
-700,-699,0,0,0,0,0,0,0,0,0,-1,524,1723,0,0
-693,-699,0,0,0,0,0,0,0,0,0,-1,531,1723,0,0
-686,-699,0,0,0,0,0,0,0,0,0,-1,538,1723,0,0
-679,-699,0,0,0,0,0,0,0,0,0,-1,545,1723,0,0
-672,-699,0,0,0,0,0,0,0,0,0,-1,552,1723,0,0
-665,-699,0,0,0,0,0,0,0,0,0,-1,559,1723,0,0
-658,-699,0,0,0,0,0,0,0,0,0,-1,566,1723,0,0
-651,-699,0,0,0,0,0,0,0,0,0,-1,573,1723,0,0
-644,-699,0,0,0,0,0,0,0,0,0,-1,580,1723,0,0
-637,-699,0,0,0,0,0,0,0,0,0,-1,587,1723,0,0
-630,-699,0,0,0,0,0,0,0,0,0,-1,594,1723,0,0
-623,-699,0,0,0,0,0,0,0,0,0,-1,601,1723,0,0
-616,-699,0,0,0,0,0,0,0,0,0,-1,608,1723,0,0
-609,-699,0,0,0,0,0,0,0,0,0,-1,615,1723,0,0
-602,-699,0,0,0,0,0,0,0,0,0,-1,622,1723,0,0
-595,-699,0,0,0,0,0,0,0,0,0,-1,629,1723,0,0
-588,-699,0,0,0,0,0,0,0,0,0,-1,636,1723,0,0
-581,-699,0,0,0,0,0,0,0,0,0,-1,643,1723,0,0
-574,-699,0,0,0,0,0,0,0,0,0,-1,650,1723,0,0
-567,-699,0,0,0,0,0,0,0,0,0,-1,657,1723,0,0
-560,-699,0,0,0,0,0,0,0,0,0,-1,664,1723,0,0
-553,-699,0,0,0,0,0,0,0,0,0,-1,671,1723,0,0
-546,-699,0,0,0,0,0,0,0,0,0,-1,678,1723,0,0
-539,-699,0,0,0,0,0,0,0,0,0,-1,685,1723,0,0
-532,-699,0,0,0,0,0,0,0,0,0,-1,692,1723,0,0
-525,-699,0,0,0,0,0,0,0,0,0,-1,699,1723,0,0
-518,-699,0,0,0,0,0,0,0,0,0,-1,706,1723,0,0
-511,-699,0,0,0,0,0,0,0,0,0,-1,713,1723,0,0
-504,-699,0,0,0,0,0,0,0,0,0,-1,720,1723,0,0
-497,-699,0,0,0,0,0,0,0,0,0,-1,727,1723,0,0
-490,-699,0,0,0,0,0,0,0,0,0,-1,734,1723,0,0
-483,-699,0,0,0,0,0,0,0,0,0,-1,741,1723,0,0
-476,-699,0,0,0,0,0,0,0,0,0,-1,748,1723,0,0
-469,-699,0,0,0,0,0,0,0,0,0,-1,755,1723,0,0
-462,-699,0,0,0,0,0,0,0,0,0,-1,762,1723,0,0
-455,-699,0,0,0,0,0,0,0,0,0,-1,769,1723,0,0
-448,-699,0,0,0,0,0,0,0,0,0,-1,776,1723,0,0
-441,-699,0,0,0,0,0,0,0,0,0,-1,783,1723,0,0
-434,-699,0,0,0,0,0,0,0,0,0,-1,790,1723,0,0
-427,-699,0,0,0,0,0,0,0,0,0,-1,797,1723,0,0
-420,-699,0,0,0,0,0,0,0,0,0,-1,804,1723,0,0
-413,-699,0,0,0,0,0,0,0,0,0,-1,811,1723,0,0
-406,-699,0,0,0,0,0,0,0,0,0,-1,818,1723,0,0
-399,-699,0,0,0,0,0,0,0,0,0,-1,825,1723,0,0
-392,-699,0,0,0,0,0,0,0,0,0,-1,832,1723,0,0
-385,-699,0,0,0,0,0,0,0,0,0,-1,839,1723,0,0
-378,-699,0,0,0,0,0,0,0,0,0,-1,846,1723,0,0
-371,-699,0,0,0,0,0,0,0,0,0,-1,853,1723,0,0
-364,-699,0,0,0,0,0,0,0,0,0,-1,860,1723,0,0
-357,-699,0,0,0,0,0,0,0,0,0,-1,867,1723,0,0
-350,-699,0,0,0,0,0,0,0,0,0,-1,874,1723,0,0
-343,-699,0,0,0,0,0,0,0,0,0,-1,881,1723,0,0
-336,-699,0,0,0,0,0,0,0,0,0,-1,888,1723,0,0
-329,-699,0,0,0,0,0,0,0,0,0,-1,895,1723,0,0
-322,-699,0,0,0,0,0,0,0,0,0,-1,902,1723,0,0
-315,-699,6.20001,19.5193,0,0,0,0,0,0,0,-1,909,1723,6.20001,-19.5193
-308,-699,6.98151,18.9218,0,0,0,0,0,0,0,-1,916,1723,6.98151,-18.9217
-301,-699,4.72729,12.8752,0,0,0,0,0,0,0,-1,923,1723,4.72732,-12.8752
-294,-699,6.90332,19.8601,0,0,0,0,0,0,0,-1,930,1723,6.90332,-19.8601
-287,-699,9.0968,36.3315,0,0,0,0,0,0,0,-1,937,1723,9.09678,-36.3315
-280,-699,9.53729,45.2391,0,0,0,0,0,0,0,-1,944,1723,9.53728,-45.2391
-273,-699,8.216,48.0923,0,0,0,0,0,0,0,-1,951,1723,8.21601,-48.0923
-266,-699,6.81915,20.8951,0,0,0,0,0,0,0,-1,958,1723,6.81914,-20.8952
-259,-699,5.39758,14.5466,0,0,0,0,0,0,0,-1,965,1723,5.39759,-14.5466
-252,-699,8.3866,31.6284,0,0,0,0,0,0,0,-1,972,1723,8.38657,-31.6284
-245,-699,7.94281,50.88,0,0,0,0,0,0,0,-1,979,1723,7.9428,-50.88
-238,-699,8.49646,67.9598,0,0,0,0,0,0,0,-1,986,1723,8.49646,-67.9598
-231,-699,4.8941,142.621,0,0,0,0,0,0,0,-1,993,1723,4.89409,-142.621
-224,-699,2.16638,228.467,0,0,0,0,0,0,0,-1,1000,1723,2.16636,-228.467
-217,-699,1.97803,240.932,0,0,0,0,0,0,0,-1,1007,1723,1.97804,-240.932
-210,-699,1.34998,249.174,0,0,0,0,0,0,0,-1,1014,1723,1.34999,-249.174
-203,-699,-2.3299,281.371,0,0,0,0,0,0,0,-1,1021,1723,-2.32988,-281.371
-196,-699,-3.87671,285.465,0,0,0,0,0,0,0,-1,1028,1723,-3.87676,-285.465
-189,-699,-4.07239,287.927,0.0282432,0.00560554,-0.0218817,0.0415602,-0.00771146,-0.546712,0.0306029,0.047287,1035,1723,-4.07239,-287.927
-182,-699,-4.58789,290.692,0.032602,0.00313513,-0.0224617,0.0447312,-0.00899407,-0.49513,0.0332271,0.0259735,1042,1723,-4.5879,-290.692
-175,-699,-4.78784,293.238,0.0369647,1.25192e-05,-0.0229658,0.0479639,-0.0109867,-0.446657,0.0361983,0.028148,1049,1723,-4.78779,-293.238
-168,-699,-4.88611,295.583,0.0409227,-0.00285662,-0.0234983,0.0511473,-0.0130813,-0.410413,0.0391932,0.0283958,1056,1723,-4.88607,-295.583
-161,-699,-4.94226,297.861,0.0444819,-0.00514364,-0.0241281,0.0542789,-0.0149406,-0.385704,0.0420602,0.0295471,1063,1723,-4.94228,-297.861
-154,-699,-5.13171,300.151,0.0475378,-0.00735241,-0.0247761,0.0570668,-0.0168815,-0.367167,0.0447461,0.0334544,1070,1723,-5.13172,-300.151
-147,-699,-5.21912,302.22,0.05022,-0.00921458,-0.0252872,0.0595227,-0.0185173,-0.352516,0.0470841,0.0375735,1077,1723,-5.21909,-302.22
-140,-699,-5.09229,304.508,0.052793,-0.0106026,-0.0257488,0.0619333,-0.0197429,-0.341105,0.0492082,0.0228375,1084,1723,-5.09225,-304.508
-133,-699,-4.91846,306.706,0.0549082,-0.0116327,-0.0260563,0.0638971,-0.0206216,-0.332196,0.0508844,0.0177892,1091,1723,-4.91847,-306.706
-126,-699,-4.68652,308.655,0.0565439,-0.0119357,-0.0263898,0.0655335,-0.0209254,-0.32832,0.0520847,0.0253959,1098,1723,-4.6865,-308.655
-119,-699,-4.56873,310.552,0,0,0,0,0,0,0,-1,1105,1723,-4.56868,-310.552
-112,-699,-4.5863,312.609,0.0594783,-0.0129986,-0.0263878,0.0680678,-0.0215881,-0.314692,0.0540318,0.0227449,1112,1723,-4.58636,-312.609
-105,-699,-4.45203,314.514,0.061225,-0.013815,-0.0261992,0.0694668,-0.0220569,-0.304783,0.0551538,0.0232512,1119,1723,-4.45199,-314.514
-98,-699,-4.06628,316.263,0.0633981,-0.0148826,-0.0261742,0.0713434,-0.0228279,-0.294713,0.0567239,0.0294682,1126,1723,-4.06627,-316.263
-91,-699,-3.7522,317.962,0.0656256,-0.0165621,-0.0258652,0.073088,-0.0240245,-0.280885,0.0584045,0.0439513,1133,1723,-3.75215,-317.962
-84,-699,-3.57666,319.818,0,0,0,0,0,0,0,-1,1140,1723,-3.57664,-319.818
-77,-699,-2.98059,321.272,0.0705404,-0.0219886,-0.0233764,0.0761108,-0.027559,-0.233931,0.0620032,0.0432157,1147,1723,-2.98065,-321.272
-70,-699,-2.60999,322.584,0.0727656,-0.0257459,-0.0213893,0.0772093,-0.0301896,-0.20484,0.063957,0.0361735,1154,1723,-2.61004,-322.584
-63,-699,-2.23804,324.073,0.0757311,-0.0278189,-0.0198734,0.0794143,-0.031502,-0.18325,0.065999,0.0302227,1161,1723,-2.23809,-324.074
-56,-699,-1.87793,325.476,0.0793589,-0.0290277,-0.0181131,0.0823057,-0.0319746,-0.161279,0.0680793,0.0226998,1168,1723,-1.87795,-325.476
-49,-699,-1.66248,326.853,0,0,0,0,0,0,0,-1,1175,1723,-1.66248,-326.853
-42,-699,-0.745728,327.818,0,0,0,0,0,0,0,-1,1182,1723,-0.745788,-327.818
-35,-699,-0.204102,328.822,0,0,0,0,0,0,0,-1,1189,1723,-0.204154,-328.822
-28,-699,0.568604,330.135,0.0878816,-0.0320501,-0.010913,0.0888666,-0.033035,-0.0900081,0.0727989,0.0336942,1196,1723,0.568647,-330.135
-21,-699,0.895386,331.055,0.0901942,-0.0329907,-0.00928158,0.0908896,-0.0336861,-0.074784,0.0744084,0.0205918,1203,1723,0.895342,-331.055
-14,-699,1.35266,332.069,0.0922667,-0.03354,-0.00799961,0.0927733,-0.0340466,-0.063247,0.0757912,0.0353989,1210,1723,1.35266,-332.069
-7,-699,1.98511,333.007,0.0946346,-0.0346158,-0.00682783,0.0949943,-0.0349755,-0.0526311,0.0776593,0.0333141,1217,1723,1.98505,-333.007
0,-699,2.72803,333.799,0.0970164,-0.0359891,-0.00518132,0.0972179,-0.0361906,-0.0388771,0.0796645,0.0281818,1224,1723,2.72798,-333.799
7,-699,3.50977,334.434,0.0988262,-0.0371417,-0.00345543,0.098914,-0.0372295,-0.0253917,0.0812473,0.032687,1231,1723,3.5098,-334.434
14,-699,4.15222,335.032,0.0995526,-0.0386087,-0.00189713,0.0995786,-0.0386347,-0.0137278,0.0823427,0.038781,1238,1723,4.15226,-335.032
21,-699,4.71033,335.494,0.0998324,-0.0408683,-0.000674852,0.0998356,-0.0408715,-0.00479622,0.0835811,0.0339005,1245,1723,4.7103,-335.494
28,-699,5.37891,335.929,0.100565,-0.0430985,0.00068672,0.100568,-0.0431018,0.00477991,0.0851311,0.0331896,1252,1723,5.37895,-335.929
35,-699,6.00452,336.404,0.101239,-0.0446923,0.001691,0.101259,-0.0447119,0.0115855,0.0863584,0.0321159,1259,1723,6.0045,-336.404
42,-699,6.71301,336.567,0.101094,-0.0458336,0.00286718,0.10115,-0.0458895,0.0195043,0.0868686,0.0325445,1266,1723,6.71297,-336.567
49,-699,7.62305,336.889,0.0992284,-0.0468049,0.00371526,0.0993229,-0.0468994,0.0254192,0.086211,0.0423554,1273,1723,7.62306,-336.889
56,-699,8.59375,337.433,0,0,0,0,0,0,0,-1,1280,1723,8.59373,-337.433
63,-699,9.12598,337.162,0.0929908,-0.0462463,0.00433572,0.0931257,-0.0463812,0.031099,0.0820377,0.0330641,1287,1723,9.12601,-337.162
70,-699,9.34058,336.961,0.0895353,-0.0446284,0.00405623,0.0896578,-0.044751,0.0301967,0.0790315,0.02666,1294,1723,9.34059,-336.961
77,-699,9.91113,337.131,0.0851768,-0.0421063,0.00377563,0.0852887,-0.0422182,0.0296285,0.075003,0.0267633,1301,1723,9.91112,-337.131
84,-699,10.5527,337.27,0.0804951,-0.0385241,0.00337428,0.0805907,-0.0386197,0.0283204,0.0702337,0.0357351,1308,1723,10.5527,-337.27
91,-699,11.5227,337.243,0.0768926,-0.0347767,0.00338051,0.0769948,-0.034879,0.0302356,0.0660984,0.0352119,1315,1723,11.5228,-337.243
98,-699,12.2156,337.165,0,0,0,0,0,0,0,-1,1322,1723,12.2156,-337.165
105,-699,12.1589,337.083,0,0,0,0,0,0,0,-1,1329,1723,12.1589,-337.083
112,-699,11.526,337.031,0,0,0,0,0,0,0,-1,1336,1723,11.526,-337.032
119,-699,5.63745,334.407,0,0,0,0,0,0,0,-1,1343,1723,5.63739,-334.407
126,-699,5.05969,331.137,0,0,0,0,0,0,0,-1,1350,1723,5.05974,-331.137
133,-699,15.5602,334.577,0,0,0,0,0,0,0,-1,1357,1723,15.5601,-334.577
140,-699,16.1666,333.728,0,0,0,0,0,0,0,-1,1364,1723,16.1666,-333.728
147,-699,16.7312,333.033,0,0,0,0,0,0,0,-1,1371,1723,16.7312,-333.033
154,-699,17.6715,332.166,0,0,0,0,0,0,0,-1,1378,1723,17.6715,-332.166
161,-699,17.968,331.235,0,0,0,0,0,0,0,-1,1385,1723,17.968,-331.235
168,-699,18.942,330.377,0.0899852,-0.00635164,0.0293883,0.0982425,-0.014609,0.273912,0.0708684,0.0257688,1392,1723,18.9421,-330.377
175,-699,19.9979,329.59,0.0855602,-0.00697738,0.0293354,0.0940761,-0.0154933,0.28253,0.0684687,0.0270422,1399,1723,19.9979,-329.59
182,-699,20.0719,328.139,0.0811175,-0.00710615,0.0280992,0.0893069,-0.0152955,0.28359,0.0652369,0.026553,1406,1723,20.072,-328.139
189,-699,20.1975,326.711,0.0769261,-0.00790835,0.026764,0.084664,-0.0156462,0.28144,0.0623163,0.0260386,1413,1723,20.1976,-326.711
196,-699,20.3958,325.39,0,0,0,0,0,0,0,-1,1420,1723,20.3958,-325.39
203,-699,20.7494,324.321,0,0,0,0,0,0,0,-1,1427,1723,20.7494,-324.321
210,-699,21.4003,322.788,0.0680536,-0.00946646,0.0235135,0.0746281,-0.016041,0.272645,0.055872,0.036819,1434,1723,21.4002,-322.788
217,-699,21.7837,321.239,0.0656914,-0.00948766,0.0226075,0.0719661,-0.0157624,0.270735,0.0540038,0.0230437,1441,1723,21.7837,-321.239
224,-699,21.9564,319.679,0.0625152,-0.00977106,0.0211425,0.0682449,-0.0155007,0.264646,0.0514478,0.0270869,1448,1723,21.9564,-319.68
231,-699,22.2256,318.062,0.0602703,-0.00959258,0.0201086,0.0656447,-0.014967,0.261165,0.049512,0.0219958,1455,1723,22.2255,-318.062
238,-699,22.3881,316.24,0.0589313,-0.00774926,0.0197897,0.0643623,-0.0131802,0.267838,0.0479098,0.0192997,1462,1723,22.3881,-316.24
245,-699,22.5894,314.487,0.0572917,-0.00554143,0.0192646,0.0627279,-0.0109776,0.275034,0.0459173,0.0232007,1469,1723,22.5894,-314.487
252,-699,22.9199,312.76,0.0550352,-0.00368195,0.0185941,0.0604282,-0.00907487,0.282289,0.0436262,0.0203512,1476,1723,22.9199,-312.76
259,-699,22.9352,310.892,0.0524865,-0.0019868,0.0178606,0.0578203,-0.00732062,0.290205,0.0412044,0.019808,1483,1723,22.9351,-310.892
266,-699,22.9047,308.832,0.0496581,-0.000339035,0.0171954,0.0550011,-0.00568204,0.301265,0.0387007,0.0231128,1490,1723,22.9046,-308.832
273,-699,23.0146,306.769,0.0466276,0.0010315,0.016517,0.051982,-0.00432293,0.313487,0.0361818,0.0233247,1497,1723,23.0147,-306.769
280,-699,23.0675,304.539,0.0434546,0.00214748,0.0158578,0.0488402,-0.00323813,0.327397,0.0336914,0.0220545,1504,1723,23.0675,-304.539
287,-699,22.9078,302.267,0.0402046,0.00304826,0.0152587,0.0456675,-0.00241471,0.343805,0.031281,0.0174299,1511,1723,22.9079,-302.267
294,-699,22.837,300.059,0.0369553,0.00368792,0.0146719,0.0425014,-0.00185823,0.361408,0.0289736,0.0166476,1518,1723,22.837,-300.059
301,-699,22.7573,297.808,0.0336221,0.00453737,0.0139565,0.0392357,-0.00107627,0.382422,0.0265232,0.0181421,1525,1723,22.7574,-297.808
308,-699,22.6174,295.44,0.0303464,0.00531853,0.0131225,0.0359652,-0.000300318,0.404565,0.0240776,0.0230697,1532,1723,22.6174,-295.44
315,-699,22.3064,292.886,0.0271634,0.00589307,0.01199,0.0325553,0.00050116,0.422605,0.0215384,0.0276154,1539,1723,22.3065,-292.886
322,-699,21.9857,290.353,0.023978,0.00643216,0.0108712,0.0291745,0.0012356,0.445904,0.0190512,0.0332343,1546,1723,21.9857,-290.353
329,-699,21.6244,287.831,0,0,0,0,0,0,0,-1,1553,1723,21.6244,-287.831
336,-699,21.3029,285.207,0,0,0,0,0,0,0,-1,1560,1723,21.3028,-285.207
343,-699,19.955,281.991,0,0,0,0,0,0,0,-1,1567,1723,19.9549,-281.991
350,-699,0.331909,223.11,0,0,0,0,0,0,0,-1,1574,1723,0.331862,-223.11
357,-699,0.303711,217.913,0,0,0,0,0,0,0,-1,1581,1723,0.303652,-217.913
364,-699,0.180664,204.805,0,0,0,0,0,0,0,-1,1588,1723,0.180709,-204.805
371,-699,6.60791,123.792,0,0,0,0,0,0,0,-1,1595,1723,6.6079,-123.792
378,-699,9.63354,70.7234,0,0,0,0,0,0,0,-1,1602,1723,9.63356,-70.7234
385,-699,8.04944,42.8464,0,0,0,0,0,0,0,-1,1609,1723,8.04943,-42.8464
392,-699,8.04492,42.0624,0,0,0,0,0,0,0,-1,1616,1723,8.04492,-42.0623
399,-699,8.49963,41.4828,0,0,0,0,0,0,0,-1,1623,1723,8.49961,-41.4828
406,-699,11.7264,44.1525,0,0,0,0,0,0,0,-1,1630,1723,11.7264,-44.1525
413,-699,12.3215,44.3011,0,0,0,0,0,0,0,-1,1637,1723,12.3215,-44.3011
420,-699,8.41907,38.2246,0,0,0,0,0,0,0,-1,1644,1723,8.41902,-38.2247
427,-699,2.98743,11.8593,0,0,0,0,0,0,0,-1,1651,1723,2.98746,-11.8592
434,-699,4.66455,8.90222,0,0,0,0,0,0,0,-1,1658,1723,4.66456,-8.90223
441,-699,0,0,0,0,0,0,0,0,0,-1,1665,1723,0,0
448,-699,0,0,0,0,0,0,0,0,0,-1,1672,1723,0,0
455,-699,0,0,0,0,0,0,0,0,0,-1,1679,1723,0,0
462,-699,0,0,0,0,0,0,0,0,0,-1,1686,1723,0,0
469,-699,0,0,0,0,0,0,0,0,0,-1,1693,1723,0,0
476,-699,0,0,0,0,0,0,0,0,0,-1,1700,1723,0,0
483,-699,0,0,0,0,0,0,0,0,0,-1,1707,1723,0,0
490,-699,0,0,0,0,0,0,0,0,0,-1,1714,1723,0,0
497,-699,0,0,0,0,0,0,0,0,0,-1,1721,1723,0,0
504,-699,0,0,0,0,0,0,0,0,0,-1,1728,1723,0,0
511,-699,0,0,0,0,0,0,0,0,0,-1,1735,1723,0,0
518,-699,0,0,0,0,0,0,0,0,0,-1,1742,1723,0,0
525,-699,0,0,0,0,0,0,0,0,0,-1,1749,1723,0,0
532,-699,0,0,0,0,0,0,0,0,0,-1,1756,1723,0,0
539,-699,0,0,0,0,0,0,0,0,0,-1,1763,1723,0,0
546,-699,0,0,0,0,0,0,0,0,0,-1,1770,1723,0,0
553,-699,0,0,0,0,0,0,0,0,0,-1,1777,1723,0,0
560,-699,0,0,0,0,0,0,0,0,0,-1,1784,1723,0,0
567,-699,0,0,0,0,0,0,0,0,0,-1,1791,1723,0,0
574,-699,0,0,0,0,0,0,0,0,0,-1,1798,1723,0,0
581,-699,0,0,0,0,0,0,0,0,0,-1,1805,1723,0,0
588,-699,0,0,0,0,0,0,0,0,0,-1,1812,1723,0,0
595,-699,0,0,0,0,0,0,0,0,0,-1,1819,1723,0,0
602,-699,0,0,0,0,0,0,0,0,0,-1,1826,1723,0,0
609,-699,0,0,0,0,0,0,0,0,0,-1,1833,1723,0,0
616,-699,0,0,0,0,0,0,0,0,0,-1,1840,1723,0,0
623,-699,0,0,0,0,0,0,0,0,0,-1,1847,1723,0,0
630,-699,0,0,0,0,0,0,0,0,0,-1,1854,1723,0,0
637,-699,0,0,0,0,0,0,0,0,0,-1,1861,1723,0,0
644,-699,0,0,0,0,0,0,0,0,0,-1,1868,1723,0,0
651,-699,0,0,0,0,0,0,0,0,0,-1,1875,1723,0,0
658,-699,0,0,0,0,0,0,0,0,0,-1,1882,1723,0,0
665,-699,0,0,0,0,0,0,0,0,0,-1,1889,1723,0,0
672,-699,0,0,0,0,0,0,0,0,0,-1,1896,1723,0,0
679,-699,0,0,0,0,0,0,0,0,0,-1,1903,1723,0,0
686,-699,0,0,0,0,0,0,0,0,0,-1,1910,1723,0,0
693,-699,0,0,0,0,0,0,0,0,0,-1,1917,1723,0,0
700,-699,0,0,0,0,0,0,0,0,0,-1,1924,1723,0,0
707,-699,0,0,0,0,0,0,0,0,0,-1,1931,1723,0,0
714,-699,0,0,0,0,0,0,0,0,0,-1,1938,1723,0,0
721,-699,0,0,0,0,0,0,0,0,0,-1,1945,1723,0,0
728,-699,0,0,0,0,0,0,0,0,0,-1,1952,1723,0,0
735,-699,0,0,0,0,0,0,0,0,0,-1,1959,1723,0,0
742,-699,0,0,0,0,0,0,0,0,0,-1,1966,1723,0,0
749,-699,0,0,0,0,0,0,0,0,0,-1,1973,1723,0,0
756,-699,0,0,0,0,0,0,0,0,0,-1,1980,1723,0,0
763,-699,0,0,0,0,0,0,0,0,0,-1,1987,1723,0,0
770,-699,0,0,0,0,0,0,0,0,0,-1,1994,1723,0,0
777,-699,0,0,0,0,0,0,0,0,0,-1,2001,1723,0,0
784,-699,0,0,0,0,0,0,0,0,0,-1,2008,1723,0,0
791,-699,0,0,0,0,0,0,0,0,0,-1,2015,1723,0,0
798,-699,0,0,0,0,0,0,0,0,0,-1,2022,1723,0,0
805,-699,0,0,0,0,0,0,0,0,0,-1,2029,1723,0,0
812,-699,0,0,0,0,0,0,0,0,0,-1,2036,1723,0,0
-700,-706,0,0,0,0,0,0,0,0,0,-1,524,1730,0,0
-693,-706,0,0,0,0,0,0,0,0,0,-1,531,1730,0,0
-686,-706,0,0,0,0,0,0,0,0,0,-1,538,1730,0,0
-679,-706,0,0,0,0,0,0,0,0,0,-1,545,1730,0,0
-672,-706,0,0,0,0,0,0,0,0,0,-1,552,1730,0,0
-665,-706,0,0,0,0,0,0,0,0,0,-1,559,1730,0,0
-658,-706,0,0,0,0,0,0,0,0,0,-1,566,1730,0,0
-651,-706,0,0,0,0,0,0,0,0,0,-1,573,1730,0,0
-644,-706,0,0,0,0,0,0,0,0,0,-1,580,1730,0,0
-637,-706,0,0,0,0,0,0,0,0,0,-1,587,1730,0,0
-630,-706,0,0,0,0,0,0,0,0,0,-1,594,1730,0,0
-623,-706,0,0,0,0,0,0,0,0,0,-1,601,1730,0,0
-616,-706,0,0,0,0,0,0,0,0,0,-1,608,1730,0,0
-609,-706,0,0,0,0,0,0,0,0,0,-1,615,1730,0,0
-602,-706,0,0,0,0,0,0,0,0,0,-1,622,1730,0,0
-595,-706,0,0,0,0,0,0,0,0,0,-1,629,1730,0,0
-588,-706,0,0,0,0,0,0,0,0,0,-1,636,1730,0,0
-581,-706,0,0,0,0,0,0,0,0,0,-1,643,1730,0,0
-574,-706,0,0,0,0,0,0,0,0,0,-1,650,1730,0,0
-567,-706,0,0,0,0,0,0,0,0,0,-1,657,1730,0,0
-560,-706,0,0,0,0,0,0,0,0,0,-1,664,1730,0,0
-553,-706,0,0,0,0,0,0,0,0,0,-1,671,1730,0,0
-546,-706,0,0,0,0,0,0,0,0,0,-1,678,1730,0,0
-539,-706,0,0,0,0,0,0,0,0,0,-1,685,1730,0,0
-532,-706,0,0,0,0,0,0,0,0,0,-1,692,1730,0,0
-525,-706,0,0,0,0,0,0,0,0,0,-1,699,1730,0,0
-518,-706,0,0,0,0,0,0,0,0,0,-1,706,1730,0,0
-511,-706,0,0,0,0,0,0,0,0,0,-1,713,1730,0,0
-504,-706,0,0,0,0,0,0,0,0,0,-1,720,1730,0,0
-497,-706,0,0,0,0,0,0,0,0,0,-1,727,1730,0,0
-490,-706,0,0,0,0,0,0,0,0,0,-1,734,1730,0,0
-483,-706,0,0,0,0,0,0,0,0,0,-1,741,1730,0,0
-476,-706,0,0,0,0,0,0,0,0,0,-1,748,1730,0,0
-469,-706,0,0,0,0,0,0,0,0,0,-1,755,1730,0,0
-462,-706,0,0,0,0,0,0,0,0,0,-1,762,1730,0,0
-455,-706,0,0,0,0,0,0,0,0,0,-1,769,1730,0,0
-448,-706,0,0,0,0,0,0,0,0,0,-1,776,1730,0,0
-441,-706,0,0,0,0,0,0,0,0,0,-1,783,1730,0,0
-434,-706,0,0,0,0,0,0,0,0,0,-1,790,1730,0,0
-427,-706,0,0,0,0,0,0,0,0,0,-1,797,1730,0,0
-420,-706,0,0,0,0,0,0,0,0,0,-1,804,1730,0,0
-413,-706,0,0,0,0,0,0,0,0,0,-1,811,1730,0,0
-406,-706,0,0,0,0,0,0,0,0,0,-1,818,1730,0,0
-399,-706,0,0,0,0,0,0,0,0,0,-1,825,1730,0,0
-392,-706,0,0,0,0,0,0,0,0,0,-1,832,1730,0,0
-385,-706,0,0,0,0,0,0,0,0,0,-1,839,1730,0,0
-378,-706,0,0,0,0,0,0,0,0,0,-1,846,1730,0,0
-371,-706,0,0,0,0,0,0,0,0,0,-1,853,1730,0,0
-364,-706,0,0,0,0,0,0,0,0,0,-1,860,1730,0,0
-357,-706,0,0,0,0,0,0,0,0,0,-1,867,1730,0,0
-350,-706,0,0,0,0,0,0,0,0,0,-1,874,1730,0,0
-343,-706,0,0,0,0,0,0,0,0,0,-1,881,1730,0,0
-336,-706,0,0,0,0,0,0,0,0,0,-1,888,1730,0,0
-329,-706,0,0,0,0,0,0,0,0,0,-1,895,1730,0,0
-322,-706,0,0,0,0,0,0,0,0,0,-1,902,1730,0,0
-315,-706,0,0,0,0,0,0,0,0,0,-1,909,1730,0,0
-308,-706,5.08191,14.6245,0,0,0,0,0,0,0,-1,916,1730,5.08188,-14.6245
-301,-706,7.45007,21.1975,0,0,0,0,0,0,0,-1,923,1730,7.45005,-21.1976
-294,-706,11.8603,21.026,0,0,0,0,0,0,0,-1,930,1730,11.8603,-21.026
-287,-706,10.3292,20.8425,0,0,0,0,0,0,0,-1,937,1730,10.3292,-20.8425
-280,-706,7.9162,21.8951,0,0,0,0,0,0,0,-1,944,1730,7.9162,-21.8952
-273,-706,7.38953,20.6355,0,0,0,0,0,0,0,-1,951,1730,7.38955,-20.6355
-266,-706,9.66724,22.8231,0,0,0,0,0,0,0,-1,958,1730,9.66722,-22.8231
-259,-706,3.47852,20.7363,0,0,0,0,0,0,0,-1,965,1730,3.47851,-20.7364
-252,-706,3.84259,20.1979,0,0,0,0,0,0,0,-1,972,1730,3.84256,-20.1979
-245,-706,4.698,19.2992,0,0,0,0,0,0,0,-1,979,1730,4.69799,-19.2991
-238,-706,8.26819,61.1252,0,0,0,0,0,0,0,-1,986,1730,8.26817,-61.1253
-231,-706,6.17877,146.635,0,0,0,0,0,0,0,-1,993,1730,6.17878,-146.635
-224,-706,5.86743,147.823,0,0,0,0,0,0,0,-1,1000,1730,5.86742,-147.822
-217,-706,4.07013,186.369,0,0,0,0,0,0,0,-1,1007,1730,4.07013,-186.369
-210,-706,3.89636,188.171,0,0,0,0,0,0,0,-1,1014,1730,3.89636,-188.171
-203,-706,4.05615,187.254,0,0,0,0,0,0,0,-1,1021,1730,4.05613,-187.254
-196,-706,3.61365,188.147,0,0,0,0,0,0,0,-1,1028,1730,3.6136,-188.147
-189,-706,-1.19214,288.349,0,0,0,0,0,0,0,-1,1035,1730,-1.19209,-288.349
-182,-706,-1.91077,291.286,0,0,0,0,0,0,0,-1,1042,1730,-1.91077,-291.286
-175,-706,-2.29395,293.298,0,0,0,0,0,0,0,-1,1049,1730,-2.29394,-293.298
-168,-706,-2.40063,295.937,0.0315902,-0.000455917,-0.0193441,0.0406855,-0.00955122,-0.439513,0.030805,0.0414644,1056,1730,-2.40063,-295.937
-161,-706,-2.42957,298.358,0.0357377,-0.00322358,-0.0200904,0.0442413,-0.0117272,-0.400404,0.0340826,0.0253821,1063,1730,-2.42961,-298.358
-154,-706,-2.45288,300.729,0.0391135,-0.00602803,-0.0207039,0.047171,-0.0140855,-0.371142,0.0370461,0.0230257,1070,1730,-2.45291,-300.729
-147,-706,-2.6344,302.939,0.0420456,-0.0083729,-0.0211683,0.0497545,-0.0160818,-0.349243,0.0396332,0.0175261,1077,1730,-2.63445,-302.939
-140,-706,-2.71362,305.038,0.0449053,-0.0101351,-0.0215675,0.0523496,-0.0175794,-0.332361,0.0420042,0.0193582,1084,1730,-2.71366,-305.038
-133,-706,-2.63782,307.121,0.0473718,-0.0115872,-0.0218146,0.0545655,-0.0187809,-0.318533,0.0439944,0.0150898,1091,1730,-2.63783,-307.121
-126,-706,-2.52881,309.021,0.0492478,-0.0120056,-0.0220385,0.056353,-0.0191108,-0.311875,0.0453031,0.0225672,1098,1730,-2.52885,-309.021
-119,-706,-2.40344,310.965,0.0508557,-0.0123036,-0.0219882,0.0577567,-0.0192045,-0.304111,0.0462545,0.0339092,1105,1730,-2.40338,-310.965
-112,-706,-2.34839,313.115,0.0522116,-0.0126953,-0.0219409,0.0589325,-0.0194162,-0.297244,0.0471135,0.0243882,1112,1730,-2.34843,-313.115
-105,-706,-2.30664,314.948,0.0539212,-0.013021,-0.0218256,0.0604085,-0.0195083,-0.288916,0.048112,0.0175969,1119,1730,-2.3066,-314.948
-98,-706,-2.13086,316.636,0.0560245,-0.0135403,-0.0216976,0.0622372,-0.019753,-0.278871,0.04941,0.0209087,1126,1730,-2.13082,-316.636
-91,-706,-1.86768,318.356,0.0580889,-0.0145698,-0.0214755,0.0639617,-0.0204426,-0.266937,0.0508442,0.0304101,1133,1730,-1.86766,-318.356
-84,-706,-1.5459,320.132,0.0603405,-0.0160957,-0.020941,0.0657016,-0.0214569,-0.250628,0.0524377,0.0438799,1140,1730,-1.54593,-320.132
-77,-706,-1.2854,321.623,0.0624839,-0.0181807,-0.0198247,0.0670928,-0.0227896,-0.228426,0.053954,0.0350683,1147,1730,-1.28537,-321.623
-70,-706,-1.0675,323.12,0.0645408,-0.020704,-0.0185268,0.0683932,-0.0245564,-0.205018,0.0556183,0.0337369,1154,1730,-1.06755,-323.12
-63,-706,-0.794434,324.558,0.0671126,-0.0223232,-0.0174922,0.070412,-0.0256227,-0.186435,0.0574206,0.0310635,1161,1730,-0.794492,-324.558
-56,-706,-0.504272,325.822,0.0701055,-0.0235142,-0.0161885,0.0728258,-0.0262344,-0.16648,0.0592636,0.0315883,1168,1730,-0.504255,-325.822
-49,-706,0.0214844,327.041,0.0723343,-0.024767,-0.014493,0.0744513,-0.026884,-0.145046,0.0606164,0.0343084,1175,1730,0.0214252,-327.041
-42,-706,0.59314,328.178,0.0739405,-0.025548,-0.0131966,0.0756612,-0.0272687,-0.129658,0.061577,0.0449132,1182,1730,0.593165,-328.178
-35,-706,1.08521,329.323,0.0755713,-0.0262782,-0.0118342,0.0769283,-0.0276351,-0.114166,0.0625658,0.036215,1189,1730,1.08524,-329.323
-28,-706,1.50342,330.433,0.0775141,-0.0270831,-0.0106961,0.0785967,-0.0281657,-0.100869,0.0638904,0.0201192,1196,1730,1.50346,-330.433
-21,-706,1.92395,331.424,0.0794882,-0.0279943,-0.00932559,0.0802913,-0.0287975,-0.0859083,0.0652795,0.0201456,1203,1730,1.92392,-331.424
-14,-706,2.36768,332.36,0.081266,-0.0285963,-0.00819906,0.0818745,-0.0292048,-0.0740834,0.0664914,0.0203791,1210,1730,2.36762,-332.36
-7,-706,2.90552,333.222,0.08326,-0.02954,-0.00717481,0.0837146,-0.0299946,-0.0632666,0.0680483,0.0180253,1217,1730,2.90548,-333.222
0,-706,3.53662,333.977,0.0851476,-0.0306895,-0.00576871,0.0854342,-0.0309761,-0.0496365,0.0696178,0.0211699,1224,1730,3.53666,-333.977
7,-706,3.94849,334.647,0.0866315,-0.031637,-0.00428846,0.0867868,-0.0317923,-0.036197,0.0708734,0.019731,1231,1730,3.94848,-334.647
14,-706,4.45728,335.238,0.0874408,-0.032796,-0.00290462,0.087511,-0.0328661,-0.0241387,0.071847,0.026432,1238,1730,4.45725,-335.238
21,-706,5.13599,335.79,0.0878617,-0.0345785,-0.00178505,0.0878877,-0.0346045,-0.0145748,0.0729171,0.0224139,1245,1730,5.13595,-335.79
28,-706,5.75549,336.324,0.0885984,-0.0364212,-0.000567241,0.088601,-0.0364238,-0.00453709,0.0742489,0.0194978,1252,1730,5.75551,-336.324
35,-706,6.29431,336.728,0.0893256,-0.0377254,0.00036427,0.0893266,-0.0377265,0.00286709,0.0753437,0.0258133,1259,1730,6.29432,-336.728
42,-706,6.9375,336.977,0.0892854,-0.0385496,0.00136909,0.0893001,-0.0385643,0.0107082,0.0757349,0.0222151,1266,1730,6.9375,-336.977
49,-706,7.58472,337.236,0.0877064,-0.03919,0.00211323,0.0877416,-0.0392252,0.016647,0.075067,0.0326887,1273,1730,7.58476,-337.236
56,-706,8.30518,337.464,0.0852834,-0.0391061,0.00266867,0.0853407,-0.0391633,0.021441,0.0735119,0.0342522,1280,1730,8.3052,-337.464
63,-706,8.90137,337.486,0.0822934,-0.0381523,0.00272603,0.082355,-0.038214,0.0226175,0.0711486,0.0278552,1287,1730,8.90134,-337.486
70,-706,9.29346,337.553,0.0794296,-0.0364046,0.00248339,0.0794828,-0.0364579,0.0214261,0.0684575,0.0240216,1294,1730,9.29347,-337.553
77,-706,9.82898,337.547,0.0758932,-0.0341212,0.00225427,0.0759393,-0.0341674,0.0204792,0.0650772,0.0227472,1301,1730,9.82893,-337.547
84,-706,10.6014,337.52,0.0721527,-0.0310839,0.00191053,0.0721881,-0.0311192,0.0184979,0.0611954,0.0183602,1308,1730,10.6015,-337.52
91,-706,11.2512,337.419,0.0692004,-0.0278417,0.00192996,0.0692388,-0.0278801,0.0198774,0.0577415,0.0177779,1315,1730,11.2513,-337.419
98,-706,11.4775,337.27,0.0663923,-0.0245545,0.0022748,0.0664492,-0.0246113,0.0249916,0.054392,0.0231027,1322,1730,11.4775,-337.27
105,-706,11.5712,337.204,0.0640844,-0.0220343,0.0027174,0.0641701,-0.0221199,0.0315123,0.0517538,0.0244955,1329,1730,11.5712,-337.204
112,-706,11.5682,337.14,0.0635612,-0.0204246,0.0034536,0.063703,-0.0205663,0.0410289,0.0507332,0.0232262,1336,1730,11.5682,-337.14
119,-706,11.5656,337.078,0,0,0,0,0,0,0,-1,1343,1730,11.5655,-337.078
126,-706,5.89673,334.557,0,0,0,0,0,0,0,-1,1350,1730,5.89674,-334.557
133,-706,14.5212,334.793,0,0,0,0,0,0,0,-1,1357,1730,14.5213,-334.793
140,-706,15.4293,334.035,0.0689275,-0.00826655,0.014788,0.0716634,-0.0110025,0.182943,0.0518338,0.0227709,1364,1730,15.4293,-334.035
147,-706,15.959,333.265,0.0709401,-0.00704404,0.0174439,0.0746642,-0.0107681,0.210332,0.0537264,0.0389199,1371,1730,15.9589,-333.265
154,-706,16.4688,332.385,0.0753892,-0.00626242,0.0203379,0.0801745,-0.0110477,0.231088,0.0574872,0.0379406,1378,1730,16.4687,-332.385
161,-706,16.8418,331.377,0.0779637,-0.00591771,0.0224277,0.0835837,-0.0115377,0.245529,0.0599397,0.0211733,1385,1730,16.8418,-331.377
168,-706,17.4846,330.462,0.077887,-0.0060217,0.0239478,0.0842406,-0.0123754,0.259338,0.0607075,0.0238357,1392,1730,17.4846,-330.462
175,-706,18.2507,329.513,0.0740564,-0.00649296,0.0240823,0.0807073,-0.0131438,0.269456,0.0586789,0.0178687,1399,1730,18.2507,-329.513
182,-706,18.5144,328.302,0.0702096,-0.00636067,0.0232023,0.0766916,-0.0128427,0.272424,0.0559026,0.0201682,1406,1730,18.5144,-328.302
189,-706,18.7406,326.932,0.0665689,-0.0064894,0.0222471,0.0728102,-0.0127307,0.273514,0.053293,0.0242744,1413,1730,18.7406,-326.933
196,-706,19.0343,325.87,0,0,0,0,0,0,0,-1,1420,1730,19.0344,-325.87
203,-706,19.3256,324.749,0,0,0,0,0,0,0,-1,1427,1730,19.3255,-324.749
210,-706,19.7557,323.088,0.0585728,-0.00609629,0.0199654,0.0642401,-0.0117636,0.276581,0.0472387,0.0347639,1434,1730,19.7557,-323.088
217,-706,20.0831,321.444,0.0561747,-0.00536891,0.0192324,0.0616905,-0.0108847,0.279301,0.0451943,0.0352462,1441,1730,20.0831,-321.444
224,-706,20.2231,319.932,0.0532819,-0.00498041,0.0180785,0.0584357,-0.0101342,0.27771,0.0427376,0.0355159,1448,1730,20.2231,-319.932
231,-706,20.4486,318.296,0.0512601,-0.00429293,0.0171041,0.0561039,-0.00913672,0.275969,0.0407907,0.0202865,1455,1730,20.4486,-318.296
238,-706,20.5319,316.575,0.049883,-0.00258238,0.0167058,0.0547508,-0.00745016,0.283532,0.0392205,0.0144317,1462,1730,20.5318,-316.575
245,-706,20.585,314.864,0.0482378,-0.000645905,0.0161258,0.0530781,-0.00548621,0.291603,0.0373487,0.02417,1469,1730,20.5849,-314.864
252,-706,20.7878,313.074,0.0461019,0.00100013,0.0154116,0.0508651,-0.00376308,0.299754,0.0352315,0.0303722,1476,1730,20.7878,-313.074
259,-706,20.8567,311.133,0.0436974,0.0024747,0.0146399,0.0483676,-0.00219545,0.308797,0.0330012,0.0267099,1483,1730,20.8567,-311.133
266,-706,20.8192,309.188,0.0410434,0.00366929,0.0138498,0.0456162,-0.000903551,0.318905,0.0307164,0.0210869,1490,1730,20.8192,-309.188
273,-706,20.8135,307.174,0.0381636,0.00461185,0.0130137,0.0426194,0.000155997,0.329886,0.0283611,0.0241766,1497,1730,20.8135,-307.174
280,-706,20.7512,305.049,0.0351736,0.00534794,0.0122452,0.0395569,0.000964688,0.343744,0.0260556,0.0181819,1504,1730,20.7512,-305.049
287,-706,20.5752,302.775,0.0322091,0.0059358,0.0115708,0.0365783,0.00156662,0.361053,0.0238804,0.0177827,1511,1730,20.5752,-302.775
294,-706,20.4895,300.475,0.0292316,0.00617129,0.010982,0.0336247,0.00177826,0.380526,0.0218478,0.0184794,1518,1730,20.4895,-300.475
301,-706,20.2592,298.121,0.0261401,0.00688862,0.0102877,0.0306031,0.00242562,0.409315,0.0196435,0.0190059,1525,1730,20.2592,-298.121
308,-706,20.0675,295.741,0.0230315,0.00767892,0.00934989,0.0274525,0.00325786,0.44169,0.0173182,0.0392403,1532,1730,20.0675,-295.741
315,-706,19.8868,293.261,0,0,0,0,0,0,0,-1,1539,1730,19.8868,-293.261
322,-706,19.5696,290.784,0,0,0,0,0,0,0,-1,1546,1730,19.5696,-290.784
329,-706,0.559692,212.981,0,0,0,0,0,0,0,-1,1553,1730,0.559734,-212.981
336,-706,1.07117,189.828,0,0,0,0,0,0,0,-1,1560,1730,1.07116,-189.828
343,-706,7.05652,116.713,0,0,0,0,0,0,0,-1,1567,1730,7.05648,-116.713
350,-706,7.62781,110.214,0,0,0,0,0,0,0,-1,1574,1730,7.62775,-110.214
357,-706,9.70593,74.0184,0,0,0,0,0,0,0,-1,1581,1730,9.70594,-74.0184
364,-706,8.48877,66.5104,0,0,0,0,0,0,0,-1,1588,1730,8.48882,-66.5104
371,-706,8.6084,48.7302,0,0,0,0,0,0,0,-1,1595,1730,8.60844,-48.7303
378,-706,7.63867,44.0519,0,0,0,0,0,0,0,-1,1602,1730,7.63863,-44.0519
385,-706,7.3186,43.2451,0,0,0,0,0,0,0,-1,1609,1730,7.31862,-43.2451
392,-706,7.33728,42.4652,0,0,0,0,0,0,0,-1,1616,1730,7.3373,-42.4651
399,-706,7.51855,41.7692,0,0,0,0,0,0,0,-1,1623,1730,7.51855,-41.7691
406,-706,7.46301,40.9797,0,0,0,0,0,0,0,-1,1630,1730,7.46301,-40.9797
413,-706,8.43433,40.3345,0,0,0,0,0,0,0,-1,1637,1730,8.43428,-40.3344
420,-706,8.0636,39.6101,0,0,0,0,0,0,0,-1,1644,1730,8.06362,-39.6101
427,-706,0,0,0,0,0,0,0,0,0,-1,1651,1730,0,0
434,-706,0,0,0,0,0,0,0,0,0,-1,1658,1730,0,0
441,-706,0,0,0,0,0,0,0,0,0,-1,1665,1730,0,0
448,-706,0,0,0,0,0,0,0,0,0,-1,1672,1730,0,0
455,-706,0,0,0,0,0,0,0,0,0,-1,1679,1730,0,0
462,-706,0,0,0,0,0,0,0,0,0,-1,1686,1730,0,0
469,-706,0,0,0,0,0,0,0,0,0,-1,1693,1730,0,0
476,-706,0,0,0,0,0,0,0,0,0,-1,1700,1730,0,0
483,-706,0,0,0,0,0,0,0,0,0,-1,1707,1730,0,0
490,-706,0,0,0,0,0,0,0,0,0,-1,1714,1730,0,0
497,-706,0,0,0,0,0,0,0,0,0,-1,1721,1730,0,0
504,-706,0,0,0,0,0,0,0,0,0,-1,1728,1730,0,0
511,-706,0,0,0,0,0,0,0,0,0,-1,1735,1730,0,0
518,-706,0,0,0,0,0,0,0,0,0,-1,1742,1730,0,0
525,-706,0,0,0,0,0,0,0,0,0,-1,1749,1730,0,0
532,-706,0,0,0,0,0,0,0,0,0,-1,1756,1730,0,0
539,-706,0,0,0,0,0,0,0,0,0,-1,1763,1730,0,0
546,-706,0,0,0,0,0,0,0,0,0,-1,1770,1730,0,0
553,-706,0,0,0,0,0,0,0,0,0,-1,1777,1730,0,0
560,-706,0,0,0,0,0,0,0,0,0,-1,1784,1730,0,0
567,-706,0,0,0,0,0,0,0,0,0,-1,1791,1730,0,0
574,-706,0,0,0,0,0,0,0,0,0,-1,1798,1730,0,0
581,-706,0,0,0,0,0,0,0,0,0,-1,1805,1730,0,0
588,-706,0,0,0,0,0,0,0,0,0,-1,1812,1730,0,0
595,-706,0,0,0,0,0,0,0,0,0,-1,1819,1730,0,0
602,-706,0,0,0,0,0,0,0,0,0,-1,1826,1730,0,0
609,-706,0,0,0,0,0,0,0,0,0,-1,1833,1730,0,0
616,-706,0,0,0,0,0,0,0,0,0,-1,1840,1730,0,0
623,-706,0,0,0,0,0,0,0,0,0,-1,1847,1730,0,0
630,-706,0,0,0,0,0,0,0,0,0,-1,1854,1730,0,0
637,-706,0,0,0,0,0,0,0,0,0,-1,1861,1730,0,0
644,-706,0,0,0,0,0,0,0,0,0,-1,1868,1730,0,0
651,-706,0,0,0,0,0,0,0,0,0,-1,1875,1730,0,0
658,-706,0,0,0,0,0,0,0,0,0,-1,1882,1730,0,0
665,-706,0,0,0,0,0,0,0,0,0,-1,1889,1730,0,0
672,-706,0,0,0,0,0,0,0,0,0,-1,1896,1730,0,0
679,-706,0,0,0,0,0,0,0,0,0,-1,1903,1730,0,0
686,-706,0,0,0,0,0,0,0,0,0,-1,1910,1730,0,0
693,-706,0,0,0,0,0,0,0,0,0,-1,1917,1730,0,0
700,-706,0,0,0,0,0,0,0,0,0,-1,1924,1730,0,0
707,-706,0,0,0,0,0,0,0,0,0,-1,1931,1730,0,0
714,-706,0,0,0,0,0,0,0,0,0,-1,1938,1730,0,0
721,-706,0,0,0,0,0,0,0,0,0,-1,1945,1730,0,0
728,-706,0,0,0,0,0,0,0,0,0,-1,1952,1730,0,0
735,-706,0,0,0,0,0,0,0,0,0,-1,1959,1730,0,0
742,-706,0,0,0,0,0,0,0,0,0,-1,1966,1730,0,0
749,-706,0,0,0,0,0,0,0,0,0,-1,1973,1730,0,0
756,-706,0,0,0,0,0,0,0,0,0,-1,1980,1730,0,0
763,-706,0,0,0,0,0,0,0,0,0,-1,1987,1730,0,0
770,-706,0,0,0,0,0,0,0,0,0,-1,1994,1730,0,0
777,-706,0,0,0,0,0,0,0,0,0,-1,2001,1730,0,0
784,-706,0,0,0,0,0,0,0,0,0,-1,2008,1730,0,0
791,-706,0,0,0,0,0,0,0,0,0,-1,2015,1730,0,0
798,-706,0,0,0,0,0,0,0,0,0,-1,2022,1730,0,0
805,-706,0,0,0,0,0,0,0,0,0,-1,2029,1730,0,0
812,-706,0,0,0,0,0,0,0,0,0,-1,2036,1730,0,0
-700,-713,0,0,0,0,0,0,0,0,0,-1,524,1737,0,0
-693,-713,0,0,0,0,0,0,0,0,0,-1,531,1737,0,0
-686,-713,0,0,0,0,0,0,0,0,0,-1,538,1737,0,0
-679,-713,0,0,0,0,0,0,0,0,0,-1,545,1737,0,0
-672,-713,0,0,0,0,0,0,0,0,0,-1,552,1737,0,0
-665,-713,0,0,0,0,0,0,0,0,0,-1,559,1737,0,0
-658,-713,0,0,0,0,0,0,0,0,0,-1,566,1737,0,0
-651,-713,0,0,0,0,0,0,0,0,0,-1,573,1737,0,0
-644,-713,0,0,0,0,0,0,0,0,0,-1,580,1737,0,0
-637,-713,0,0,0,0,0,0,0,0,0,-1,587,1737,0,0
-630,-713,0,0,0,0,0,0,0,0,0,-1,594,1737,0,0
-623,-713,0,0,0,0,0,0,0,0,0,-1,601,1737,0,0
-616,-713,0,0,0,0,0,0,0,0,0,-1,608,1737,0,0
-609,-713,0,0,0,0,0,0,0,0,0,-1,615,1737,0,0
-602,-713,0,0,0,0,0,0,0,0,0,-1,622,1737,0,0
-595,-713,0,0,0,0,0,0,0,0,0,-1,629,1737,0,0
-588,-713,0,0,0,0,0,0,0,0,0,-1,636,1737,0,0
-581,-713,0,0,0,0,0,0,0,0,0,-1,643,1737,0,0
-574,-713,0,0,0,0,0,0,0,0,0,-1,650,1737,0,0
-567,-713,0,0,0,0,0,0,0,0,0,-1,657,1737,0,0
-560,-713,0,0,0,0,0,0,0,0,0,-1,664,1737,0,0
-553,-713,0,0,0,0,0,0,0,0,0,-1,671,1737,0,0
-546,-713,0,0,0,0,0,0,0,0,0,-1,678,1737,0,0
-539,-713,0,0,0,0,0,0,0,0,0,-1,685,1737,0,0
-532,-713,0,0,0,0,0,0,0,0,0,-1,692,1737,0,0
-525,-713,0,0,0,0,0,0,0,0,0,-1,699,1737,0,0
-518,-713,0,0,0,0,0,0,0,0,0,-1,706,1737,0,0
-511,-713,0,0,0,0,0,0,0,0,0,-1,713,1737,0,0
-504,-713,0,0,0,0,0,0,0,0,0,-1,720,1737,0,0
-497,-713,0,0,0,0,0,0,0,0,0,-1,727,1737,0,0
-490,-713,0,0,0,0,0,0,0,0,0,-1,734,1737,0,0
-483,-713,0,0,0,0,0,0,0,0,0,-1,741,1737,0,0
-476,-713,0,0,0,0,0,0,0,0,0,-1,748,1737,0,0
-469,-713,0,0,0,0,0,0,0,0,0,-1,755,1737,0,0
-462,-713,0,0,0,0,0,0,0,0,0,-1,762,1737,0,0
-455,-713,0,0,0,0,0,0,0,0,0,-1,769,1737,0,0
-448,-713,0,0,0,0,0,0,0,0,0,-1,776,1737,0,0
-441,-713,0,0,0,0,0,0,0,0,0,-1,783,1737,0,0
-434,-713,0,0,0,0,0,0,0,0,0,-1,790,1737,0,0
-427,-713,0,0,0,0,0,0,0,0,0,-1,797,1737,0,0
-420,-713,0,0,0,0,0,0,0,0,0,-1,804,1737,0,0
-413,-713,0,0,0,0,0,0,0,0,0,-1,811,1737,0,0
-406,-713,0,0,0,0,0,0,0,0,0,-1,818,1737,0,0
-399,-713,0,0,0,0,0,0,0,0,0,-1,825,1737,0,0
-392,-713,0,0,0,0,0,0,0,0,0,-1,832,1737,0,0
-385,-713,0,0,0,0,0,0,0,0,0,-1,839,1737,0,0
-378,-713,0,0,0,0,0,0,0,0,0,-1,846,1737,0,0
-371,-713,0,0,0,0,0,0,0,0,0,-1,853,1737,0,0
-364,-713,0,0,0,0,0,0,0,0,0,-1,860,1737,0,0
-357,-713,0,0,0,0,0,0,0,0,0,-1,867,1737,0,0
-350,-713,0,0,0,0,0,0,0,0,0,-1,874,1737,0,0
-343,-713,0,0,0,0,0,0,0,0,0,-1,881,1737,0,0
-336,-713,0,0,0,0,0,0,0,0,0,-1,888,1737,0,0
-329,-713,0,0,0,0,0,0,0,0,0,-1,895,1737,0,0
-322,-713,0,0,0,0,0,0,0,0,0,-1,902,1737,0,0
-315,-713,0,0,0,0,0,0,0,0,0,-1,909,1737,0,0
-308,-713,0,0,0,0,0,0,0,0,0,-1,916,1737,0,0
-301,-713,0,0,0,0,0,0,0,0,0,-1,923,1737,0,0
-294,-713,7.17883,22.0453,0,0,0,0,0,0,0,-1,930,1737,7.17881,-22.0453
-287,-713,11.8916,21.5834,0,0,0,0,0,0,0,-1,937,1737,11.8916,-21.5833
-280,-713,10.2786,21.3551,0,0,0,0,0,0,0,-1,944,1737,10.2787,-21.3551
-273,-713,11.1981,23.8683,0,0,0,0,0,0,0,-1,951,1737,11.198,-23.8683
-266,-713,3.17981,19.8851,0,0,0,0,0,0,0,-1,958,1737,3.17983,-19.8851
-259,-713,3.5921,19.6868,0,0,0,0,0,0,0,-1,965,1737,3.59207,-19.6868
-252,-713,4.55469,20.5758,0,0,0,0,0,0,0,-1,972,1737,4.55466,-20.5758
-245,-713,3.89014,25.9825,0,0,0,0,0,0,0,-1,979,1737,3.89013,-25.9826
-238,-713,6.62506,30.5463,0,0,0,0,0,0,0,-1,986,1737,6.62509,-30.5462
-231,-713,7.21271,66.0579,0,0,0,0,0,0,0,-1,993,1737,7.21272,-66.0579
-224,-713,7.43347,148.356,0,0,0,0,0,0,0,-1,1000,1737,7.43345,-148.356
-217,-713,6.81628,149.384,0,0,0,0,0,0,0,-1,1007,1737,6.81631,-149.384
-210,-713,7.06372,144.959,0,0,0,0,0,0,0,-1,1014,1737,7.06371,-144.959
-203,-713,6.74292,153.564,0,0,0,0,0,0,0,-1,1021,1737,6.74291,-153.564
-196,-713,6.07056,163.059,0,0,0,0,0,0,0,-1,1028,1737,6.0706,-163.059
-189,-713,5.66797,170.009,0,0,0,0,0,0,0,-1,1035,1737,5.66795,-170.009
-182,-713,5.18567,174.156,0,0,0,0,0,0,0,-1,1042,1737,5.18571,-174.156
-175,-713,4.99878,173.626,0,0,0,0,0,0,0,-1,1049,1737,4.99883,-173.626
-168,-713,0.0821533,296.071,0,0,0,0,0,0,0,-1,1056,1737,0.0821587,-296.071
-161,-713,0.045166,298.82,0,0,0,0,0,0,0,-1,1063,1737,0.0451392,-298.82
-154,-713,-0.110718,301.172,0,0,0,0,0,0,0,-1,1070,1737,-0.110693,-301.172
-147,-713,-0.35022,303.34,0.0343204,-0.00791493,-0.0170227,0.0403271,-0.0139216,-0.339221,0.0325337,0.0447947,1077,1737,-0.350169,-303.34
-140,-713,-0.475342,305.547,0.037249,-0.00999229,-0.0173263,0.0429223,-0.0156656,-0.316437,0.0350247,0.031298,1084,1737,-0.47533,-305.547
-133,-713,-0.440063,307.556,0.0398372,-0.0117874,-0.0175054,0.0452133,-0.0171634,-0.297965,0.0372071,0.0207942,1091,1737,-0.44001,-307.556
-126,-713,-0.402954,309.54,0.0417969,-0.0122169,-0.017635,0.0470447,-0.0174647,-0.289235,0.0385275,0.0286844,1098,1737,-0.40294,-309.54
-119,-713,-0.303101,311.43,0.0434362,-0.0122878,-0.0174827,0.048467,-0.0173186,-0.280188,0.0393749,0.0432535,1105,1737,-0.303106,-311.43
-112,-713,-0.434326,313.53,0.0447215,-0.0122614,-0.0174787,0.0496556,-0.0171955,-0.275134,0.0400844,0.0231343,1112,1737,-0.434352,-313.53
-105,-713,-0.38269,315.282,0.0463509,-0.0119573,-0.0174437,0.051171,-0.0167774,-0.269595,0.0408709,0.0216911,1119,1737,-0.382682,-315.282
-98,-713,-0.294067,316.994,0.0483195,-0.0118025,-0.0172521,0.0529182,-0.0164012,-0.260505,0.0418318,0.0195951,1126,1737,-0.294035,-316.994
-91,-713,-0.0771484,318.672,0.0501976,-0.0121114,-0.0171653,0.0546135,-0.0165273,-0.251795,0.0429904,0.020663,1133,1737,-0.0771016,-318.672
-84,-713,0.117554,320.342,0.0521018,-0.0128499,-0.0169816,0.0562736,-0.0170218,-0.240899,0.0442937,0.0201406,1140,1737,0.117537,-320.342
-77,-713,0.277344,321.899,0.0540924,-0.0140293,-0.0164475,0.0578556,-0.0177925,-0.224932,0.0456715,0.0279253,1147,1737,0.277345,-321.899
-70,-713,0.508301,323.43,0.0560025,-0.0155425,-0.0158271,0.0593474,-0.0188873,-0.208273,0.0471393,0.0313098,1154,1737,0.508309,-323.43
-63,-713,0.729858,324.917,0.0582207,-0.0168372,-0.0152869,0.0612147,-0.0198312,-0.193407,0.0487829,0.0298659,1161,1737,0.729828,-324.917
-56,-713,0.945068,326.146,0.0606845,-0.0180846,-0.01444,0.0632482,-0.0206483,-0.175711,0.0504762,0.0284221,1168,1737,0.945059,-326.146
-49,-713,1.40515,327.296,0.0625806,-0.0193097,-0.013286,0.0646822,-0.0214113,-0.156882,0.0517565,0.0281271,1175,1737,1.40519,-327.296
-42,-713,1.76868,328.408,0.0639945,-0.0202796,-0.012367,0.0657718,-0.022057,-0.142739,0.0527601,0.0344307,1182,1737,1.76865,-328.408
-35,-713,2.15393,329.615,0.0653966,-0.0211384,-0.0114133,0.0668766,-0.0226184,-0.128955,0.0537348,0.0286911,1189,1737,2.15395,-329.615
-28,-713,2.64832,330.76,0.0670147,-0.0219991,-0.0105161,0.0682402,-0.0232246,-0.116013,0.0548977,0.0228666,1196,1737,2.64826,-330.76
-21,-713,2.99646,331.722,0.068661,-0.022828,-0.00936819,0.0696104,-0.0237774,-0.101,0.0560402,0.0160704,1203,1737,2.99642,-331.722
-14,-713,3.30945,332.578,0.0702035,-0.0232956,-0.00838335,0.0709492,-0.0240413,-0.0887195,0.0570282,0.018744,1210,1737,3.30941,-332.578
-7,-713,3.7915,333.441,0.0718833,-0.0239658,-0.00743633,0.0724568,-0.0245393,-0.0769699,0.058234,0.0164128,1217,1737,3.79151,-333.441
0,-713,4.25977,334.185,0.0733671,-0.0248036,-0.00619789,0.0737568,-0.0251933,-0.0628015,0.0593781,0.0208142,1224,1737,4.25977,-334.185
7,-713,4.63354,334.852,0.0745843,-0.025488,-0.00490503,0.0748241,-0.0257279,-0.0488587,0.0603163,0.0246806,1231,1737,4.63354,-334.852
14,-713,4.99194,335.463,0.0754724,-0.0263428,-0.00365353,0.0756033,-0.0264737,-0.0358225,0.0611672,0.0208935,1238,1737,4.992,-335.463
21,-713,5.51819,336.003,0.0760599,-0.0276512,-0.00260883,0.0761255,-0.0277168,-0.0251336,0.0620869,0.0232427,1245,1737,5.51815,-336.003
28,-713,6.15613,336.544,0.0768363,-0.0291159,-0.00149117,0.0768573,-0.0291369,-0.0140703,0.0632293,0.0211233,1252,1737,6.15613,-336.544
35,-713,6.71094,336.918,0.0776225,-0.030184,-0.000566792,0.0776255,-0.030187,-0.0052573,0.0642227,0.0206555,1259,1737,6.71097,-336.918
42,-713,7.29016,337.21,0.0777196,-0.0308269,0.000352165,0.0777208,-0.0308281,0.00324433,0.0645906,0.0163828,1266,1737,7.29019,-337.21
49,-713,7.75208,337.382,0.0764752,-0.0313349,0.00104023,0.0764852,-0.0313449,0.00964749,0.0640483,0.0326271,1273,1737,7.75213,-337.382
56,-713,8.16199,337.519,0.0744713,-0.0311743,0.00154716,0.074494,-0.0311969,0.0146406,0.0627042,0.04387,1280,1737,8.16199,-337.519
63,-713,8.85437,337.714,0.0719634,-0.0302083,0.00165034,0.07199,-0.030235,0.016147,0.0606386,0.0360228,1287,1737,8.85434,-337.714
70,-713,9.44885,337.874,0.0695964,-0.0284972,0.00144096,0.0696176,-0.0285184,0.0146854,0.0582915,0.0286652,1294,1737,9.44888,-337.874
77,-713,9.91797,337.967,0.0667164,-0.0264395,0.00123828,0.0667329,-0.026456,0.0132894,0.0554524,0.0320647,1301,1737,9.918,-337.967
84,-713,10.5518,337.844,0.0636903,-0.0238053,0.000913484,0.0636999,-0.0238149,0.0104388,0.0522465,0.023431,1308,1737,10.5517,-337.844
91,-713,11.0853,337.621,0.0612775,-0.0210277,0.000915551,0.0612876,-0.0210379,0.011122,0.0493879,0.0170058,1315,1737,11.0853,-337.621
98,-713,11.3582,337.418,0.0590178,-0.0182048,0.00119395,0.0590363,-0.0182233,0.0154562,0.0466343,0.0169435,1322,1737,11.3582,-337.418
105,-713,11.4644,337.27,0.0572025,-0.0159476,0.00154421,0.0572351,-0.0159802,0.0210976,0.0444515,0.0189101,1329,1737,11.4644,-337.27
112,-713,11.5715,337.18,0.05669,-0.0144353,0.00214291,0.0567545,-0.0144999,0.0300922,0.0434831,0.0187855,1336,1737,11.5715,-337.18
119,-713,11.4927,337.44,0,0,0,0,0,0,0,-1,1343,1737,11.4926,-337.44
126,-713,12.0773,336.705,0,0,0,0,0,0,0,-1,1350,1737,12.0773,-336.705
133,-713,14.0326,335.098,0,0,0,0,0,0,0,-1,1357,1737,14.0326,-335.098
140,-713,14.5742,334.223,0.0608458,-0.00596951,0.011349,0.0627208,-0.00784459,0.16374,0.044659,0.0261147,1364,1737,14.5743,-334.223
147,-713,15.0566,333.443,0.0625445,-0.00540052,0.0136145,0.065171,-0.00802699,0.190576,0.0463552,0.0238808,1371,1737,15.0566,-333.443
154,-713,15.3167,332.675,0.0656126,-0.00508754,0.0159791,0.0690564,-0.00853127,0.212268,0.0491289,0.0235195,1378,1737,15.3167,-332.675
161,-713,15.7288,331.654,0.0669148,-0.00506184,0.0176612,0.0710148,-0.00916187,0.228109,0.050674,0.0199777,1385,1737,15.7288,-331.654
168,-713,16.2036,330.609,0.0660012,-0.00523268,0.0188288,0.0706718,-0.00990334,0.243151,0.0507389,0.0205412,1392,1737,16.2036,-330.609
175,-713,16.5977,329.588,0.0626253,-0.0055479,0.0190205,0.067573,-0.0104956,0.254484,0.048924,0.0227944,1399,1737,16.5977,-329.588
182,-713,16.9587,328.47,0.059273,-0.00525368,0.0183732,0.0641378,-0.0101185,0.258837,0.0464998,0.0208107,1406,1737,16.9587,-328.47
189,-713,17.269,327.289,0.0561025,-0.00483475,0.0176727,0.0608569,-0.00958915,0.262803,0.0441164,0.0216739,1413,1737,17.269,-327.289
196,-713,17.5535,326.123,0,0,0,0,0,0,0,-1,1420,1737,17.5535,-326.123
203,-713,17.9016,325.177,0,0,0,0,0,0,0,-1,1427,1737,17.9016,-325.177
210,-713,18.2294,323.35,0,0,0,0,0,0,0,-1,1434,1737,18.2293,-323.35
217,-713,18.3932,321.608,0.0467057,-0.00126198,0.0156064,0.0513362,-0.00589253,0.288435,0.0363479,0.0329891,1441,1737,18.3932,-321.608
224,-713,18.5588,320.192,0.0441781,-0.000155141,0.0147777,0.0486524,-0.00462948,0.294001,0.0340831,0.0254719,1448,1737,18.5588,-320.192
231,-713,18.5962,318.594,0.0423328,0.0011901,0.0138964,0.0465867,-0.00306375,0.297054,0.0321278,0.0156774,1455,1737,18.5962,-318.594
238,-713,18.6506,316.91,0.0408951,0.00294719,0.0133771,0.0451366,-0.0012943,0.307045,0.0305316,0.012403,1462,1737,18.6506,-316.91
245,-713,18.6208,315.193,0.0392642,0.00473519,0.0126833,0.0434224,0.000577042,0.316802,0.0287578,0.0244965,1469,1737,18.6209,-315.193
252,-713,18.7509,313.322,0.0372865,0.00621009,0.0118737,0.0413039,0.00219275,0.32625,0.0268349,0.0332603,1476,1737,18.7509,-313.322
259,-713,18.8551,311.373,0.0350616,0.00749796,0.011029,0.0389314,0.00362822,0.337449,0.0248333,0.0269549,1483,1737,18.8551,-311.373
266,-713,18.7708,309.508,0.0326092,0.00840458,0.0101011,0.0362707,0.00474308,0.347755,0.0227648,0.0183253,1490,1737,18.7708,-309.508
273,-713,18.6205,307.498,0.029838,0.00904048,0.00910442,0.0332604,0.00561807,0.359565,0.0205584,0.0161653,1497,1737,18.6205,-307.498
280,-713,18.4634,305.279,0.0269533,0.00947813,0.00819896,0.0301977,0.00623371,0.376804,0.0184091,0.0242777,1504,1737,18.4634,-305.279
287,-713,18.2412,302.977,0,0,0,0,0,0,0,-1,1511,1737,18.2412,-302.977
294,-713,18.1749,300.957,0,0,0,0,0,0,0,-1,1518,1737,18.1749,-300.957
301,-713,17.7965,298.426,0,0,0,0,0,0,0,-1,1525,1737,17.7965,-298.426
308,-713,17.4713,295.732,0,0,0,0,0,0,0,-1,1532,1737,17.4713,-295.732
315,-713,4.76782,141.305,0,0,0,0,0,0,0,-1,1539,1737,4.76787,-141.305
322,-713,4.67871,138.236,0,0,0,0,0,0,0,-1,1546,1737,4.67868,-138.236
329,-713,7.14905,111.23,0,0,0,0,0,0,0,-1,1553,1737,7.14908,-111.23
336,-713,8.6969,74.4496,0,0,0,0,0,0,0,-1,1560,1737,8.69687,-74.4496
343,-713,7.68018,74.9004,0,0,0,0,0,0,0,-1,1567,1737,7.68017,-74.9004
350,-713,7.80676,74.0605,0,0,0,0,0,0,0,-1,1574,1737,7.8068,-74.0605
357,-713,8.38928,70.3881,0,0,0,0,0,0,0,-1,1581,1737,8.38932,-70.3881
364,-713,7.52661,46.5348,0,0,0,0,0,0,0,-1,1588,1737,7.52664,-46.5347
371,-713,7.3302,45.0861,0,0,0,0,0,0,0,-1,1595,1737,7.33021,-45.0861
378,-713,6.73975,44.3853,0,0,0,0,0,0,0,-1,1602,1737,6.7397,-44.3853
385,-713,6.58777,43.6438,0,0,0,0,0,0,0,-1,1609,1737,6.58781,-43.6438
392,-713,6.62964,42.8679,0,0,0,0,0,0,0,-1,1616,1737,6.62968,-42.868
399,-713,6.53748,42.0555,0,0,0,0,0,0,0,-1,1623,1737,6.53749,-42.0555
406,-713,2.49878,27.8931,0,0,0,0,0,0,0,-1,1630,1737,2.49884,-27.893
413,-713,1.36597,29.459,0,0,0,0,0,0,0,-1,1637,1737,1.36593,-29.459
420,-713,0,0,0,0,0,0,0,0,0,-1,1644,1737,0,0
427,-713,0,0,0,0,0,0,0,0,0,-1,1651,1737,0,0
434,-713,0,0,0,0,0,0,0,0,0,-1,1658,1737,0,0
441,-713,0,0,0,0,0,0,0,0,0,-1,1665,1737,0,0
448,-713,0,0,0,0,0,0,0,0,0,-1,1672,1737,0,0
455,-713,0,0,0,0,0,0,0,0,0,-1,1679,1737,0,0
462,-713,0,0,0,0,0,0,0,0,0,-1,1686,1737,0,0
469,-713,0,0,0,0,0,0,0,0,0,-1,1693,1737,0,0
476,-713,0,0,0,0,0,0,0,0,0,-1,1700,1737,0,0
483,-713,0,0,0,0,0,0,0,0,0,-1,1707,1737,0,0
490,-713,0,0,0,0,0,0,0,0,0,-1,1714,1737,0,0
497,-713,0,0,0,0,0,0,0,0,0,-1,1721,1737,0,0
504,-713,0,0,0,0,0,0,0,0,0,-1,1728,1737,0,0
511,-713,0,0,0,0,0,0,0,0,0,-1,1735,1737,0,0
518,-713,0,0,0,0,0,0,0,0,0,-1,1742,1737,0,0
525,-713,0,0,0,0,0,0,0,0,0,-1,1749,1737,0,0
532,-713,0,0,0,0,0,0,0,0,0,-1,1756,1737,0,0
539,-713,0,0,0,0,0,0,0,0,0,-1,1763,1737,0,0
546,-713,0,0,0,0,0,0,0,0,0,-1,1770,1737,0,0
553,-713,0,0,0,0,0,0,0,0,0,-1,1777,1737,0,0
560,-713,0,0,0,0,0,0,0,0,0,-1,1784,1737,0,0
567,-713,0,0,0,0,0,0,0,0,0,-1,1791,1737,0,0
574,-713,0,0,0,0,0,0,0,0,0,-1,1798,1737,0,0
581,-713,0,0,0,0,0,0,0,0,0,-1,1805,1737,0,0
588,-713,0,0,0,0,0,0,0,0,0,-1,1812,1737,0,0
595,-713,0,0,0,0,0,0,0,0,0,-1,1819,1737,0,0
602,-713,0,0,0,0,0,0,0,0,0,-1,1826,1737,0,0
609,-713,0,0,0,0,0,0,0,0,0,-1,1833,1737,0,0
616,-713,0,0,0,0,0,0,0,0,0,-1,1840,1737,0,0
623,-713,0,0,0,0,0,0,0,0,0,-1,1847,1737,0,0
630,-713,0,0,0,0,0,0,0,0,0,-1,1854,1737,0,0
637,-713,0,0,0,0,0,0,0,0,0,-1,1861,1737,0,0
644,-713,0,0,0,0,0,0,0,0,0,-1,1868,1737,0,0
651,-713,0,0,0,0,0,0,0,0,0,-1,1875,1737,0,0
658,-713,0,0,0,0,0,0,0,0,0,-1,1882,1737,0,0
665,-713,0,0,0,0,0,0,0,0,0,-1,1889,1737,0,0
672,-713,0,0,0,0,0,0,0,0,0,-1,1896,1737,0,0
679,-713,0,0,0,0,0,0,0,0,0,-1,1903,1737,0,0
686,-713,0,0,0,0,0,0,0,0,0,-1,1910,1737,0,0
693,-713,0,0,0,0,0,0,0,0,0,-1,1917,1737,0,0
700,-713,0,0,0,0,0,0,0,0,0,-1,1924,1737,0,0
707,-713,0,0,0,0,0,0,0,0,0,-1,1931,1737,0,0
714,-713,0,0,0,0,0,0,0,0,0,-1,1938,1737,0,0
721,-713,0,0,0,0,0,0,0,0,0,-1,1945,1737,0,0
728,-713,0,0,0,0,0,0,0,0,0,-1,1952,1737,0,0
735,-713,0,0,0,0,0,0,0,0,0,-1,1959,1737,0,0
742,-713,0,0,0,0,0,0,0,0,0,-1,1966,1737,0,0
749,-713,0,0,0,0,0,0,0,0,0,-1,1973,1737,0,0
756,-713,0,0,0,0,0,0,0,0,0,-1,1980,1737,0,0
763,-713,0,0,0,0,0,0,0,0,0,-1,1987,1737,0,0
770,-713,0,0,0,0,0,0,0,0,0,-1,1994,1737,0,0
777,-713,0,0,0,0,0,0,0,0,0,-1,2001,1737,0,0
784,-713,0,0,0,0,0,0,0,0,0,-1,2008,1737,0,0
791,-713,0,0,0,0,0,0,0,0,0,-1,2015,1737,0,0
798,-713,0,0,0,0,0,0,0,0,0,-1,2022,1737,0,0
805,-713,0,0,0,0,0,0,0,0,0,-1,2029,1737,0,0
812,-713,0,0,0,0,0,0,0,0,0,-1,2036,1737,0,0
-700,-720,0,0,0,0,0,0,0,0,0,-1,524,1744,0,0
-693,-720,0,0,0,0,0,0,0,0,0,-1,531,1744,0,0
-686,-720,0,0,0,0,0,0,0,0,0,-1,538,1744,0,0
-679,-720,0,0,0,0,0,0,0,0,0,-1,545,1744,0,0
-672,-720,0,0,0,0,0,0,0,0,0,-1,552,1744,0,0
-665,-720,0,0,0,0,0,0,0,0,0,-1,559,1744,0,0
-658,-720,0,0,0,0,0,0,0,0,0,-1,566,1744,0,0
-651,-720,0,0,0,0,0,0,0,0,0,-1,573,1744,0,0
-644,-720,0,0,0,0,0,0,0,0,0,-1,580,1744,0,0
-637,-720,0,0,0,0,0,0,0,0,0,-1,587,1744,0,0
-630,-720,0,0,0,0,0,0,0,0,0,-1,594,1744,0,0
-623,-720,0,0,0,0,0,0,0,0,0,-1,601,1744,0,0
-616,-720,0,0,0,0,0,0,0,0,0,-1,608,1744,0,0
-609,-720,0,0,0,0,0,0,0,0,0,-1,615,1744,0,0
-602,-720,0,0,0,0,0,0,0,0,0,-1,622,1744,0,0
-595,-720,0,0,0,0,0,0,0,0,0,-1,629,1744,0,0
-588,-720,0,0,0,0,0,0,0,0,0,-1,636,1744,0,0
-581,-720,0,0,0,0,0,0,0,0,0,-1,643,1744,0,0
-574,-720,0,0,0,0,0,0,0,0,0,-1,650,1744,0,0
-567,-720,0,0,0,0,0,0,0,0,0,-1,657,1744,0,0
-560,-720,0,0,0,0,0,0,0,0,0,-1,664,1744,0,0
-553,-720,0,0,0,0,0,0,0,0,0,-1,671,1744,0,0
-546,-720,0,0,0,0,0,0,0,0,0,-1,678,1744,0,0
-539,-720,0,0,0,0,0,0,0,0,0,-1,685,1744,0,0
-532,-720,0,0,0,0,0,0,0,0,0,-1,692,1744,0,0
-525,-720,0,0,0,0,0,0,0,0,0,-1,699,1744,0,0
-518,-720,0,0,0,0,0,0,0,0,0,-1,706,1744,0,0
-511,-720,0,0,0,0,0,0,0,0,0,-1,713,1744,0,0
-504,-720,0,0,0,0,0,0,0,0,0,-1,720,1744,0,0
-497,-720,0,0,0,0,0,0,0,0,0,-1,727,1744,0,0
-490,-720,0,0,0,0,0,0,0,0,0,-1,734,1744,0,0
-483,-720,0,0,0,0,0,0,0,0,0,-1,741,1744,0,0
-476,-720,0,0,0,0,0,0,0,0,0,-1,748,1744,0,0
-469,-720,0,0,0,0,0,0,0,0,0,-1,755,1744,0,0
-462,-720,0,0,0,0,0,0,0,0,0,-1,762,1744,0,0
-455,-720,0,0,0,0,0,0,0,0,0,-1,769,1744,0,0
-448,-720,0,0,0,0,0,0,0,0,0,-1,776,1744,0,0
-441,-720,0,0,0,0,0,0,0,0,0,-1,783,1744,0,0
-434,-720,0,0,0,0,0,0,0,0,0,-1,790,1744,0,0
-427,-720,0,0,0,0,0,0,0,0,0,-1,797,1744,0,0
-420,-720,0,0,0,0,0,0,0,0,0,-1,804,1744,0,0
-413,-720,0,0,0,0,0,0,0,0,0,-1,811,1744,0,0
-406,-720,0,0,0,0,0,0,0,0,0,-1,818,1744,0,0
-399,-720,0,0,0,0,0,0,0,0,0,-1,825,1744,0,0
-392,-720,0,0,0,0,0,0,0,0,0,-1,832,1744,0,0
-385,-720,0,0,0,0,0,0,0,0,0,-1,839,1744,0,0
-378,-720,0,0,0,0,0,0,0,0,0,-1,846,1744,0,0
-371,-720,0,0,0,0,0,0,0,0,0,-1,853,1744,0,0
-364,-720,0,0,0,0,0,0,0,0,0,-1,860,1744,0,0
-357,-720,0,0,0,0,0,0,0,0,0,-1,867,1744,0,0
-350,-720,0,0,0,0,0,0,0,0,0,-1,874,1744,0,0
-343,-720,0,0,0,0,0,0,0,0,0,-1,881,1744,0,0
-336,-720,0,0,0,0,0,0,0,0,0,-1,888,1744,0,0
-329,-720,0,0,0,0,0,0,0,0,0,-1,895,1744,0,0
-322,-720,0,0,0,0,0,0,0,0,0,-1,902,1744,0,0
-315,-720,0,0,0,0,0,0,0,0,0,-1,909,1744,0,0
-308,-720,0,0,0,0,0,0,0,0,0,-1,916,1744,0,0
-301,-720,0,0,0,0,0,0,0,0,0,-1,923,1744,0,0
-294,-720,0,0,0,0,0,0,0,0,0,-1,930,1744,0,0
-287,-720,0,0,0,0,0,0,0,0,0,-1,937,1744,0,0
-280,-720,6.46796,22.6417,0,0,0,0,0,0,0,-1,944,1744,6.46793,-22.6417
-273,-720,8.54633,13.262,0,0,0,0,0,0,0,-1,951,1744,8.54636,-13.2619
-266,-720,7.28027,13.3165,0,0,0,0,0,0,0,-1,958,1744,7.28026,-13.3166
-259,-720,3.70563,18.6372,0,0,0,0,0,0,0,-1,965,1744,3.70564,-18.6372
-252,-720,4.00989,18.5059,0,0,0,0,0,0,0,-1,972,1744,4.00988,-18.5058
-245,-720,7.05634,33.8489,0,0,0,0,0,0,0,-1,979,1744,7.05634,-33.8489
-238,-720,5.02216,24.1455,0,0,0,0,0,0,0,-1,986,1744,5.02217,-24.1455
-231,-720,6.70276,67.9242,0,0,0,0,0,0,0,-1,993,1744,6.70275,-67.9241
-224,-720,6.97144,68.5684,0,0,0,0,0,0,0,-1,1000,1744,6.97145,-68.5683
-217,-720,7.24011,69.2125,0,0,0,0,0,0,0,-1,1007,1744,7.24014,-69.2125
-210,-720,10.3088,111.446,0,0,0,0,0,0,0,-1,1014,1744,10.3088,-111.446
-203,-720,9.59778,112.807,0,0,0,0,0,0,0,-1,1021,1744,9.59784,-112.807
-196,-720,8.09326,115.036,0,0,0,0,0,0,0,-1,1028,1744,8.0932,-115.036
-189,-720,8.34021,119.394,0,0,0,0,0,0,0,-1,1035,1744,8.34021,-119.394
-182,-720,7.50964,146.051,0,0,0,0,0,0,0,-1,1042,1744,7.50961,-146.051
-175,-720,7.68542,137.635,0,0,0,0,0,0,0,-1,1049,1744,7.68541,-137.635
-168,-720,7.77344,132.664,0,0,0,0,0,0,0,-1,1056,1744,7.77339,-132.664
-161,-720,7.3114,137.663,0,0,0,0,0,0,0,-1,1063,1744,7.31145,-137.663
-154,-720,7.31335,137.407,0,0,0,0,0,0,0,-1,1070,1744,7.31335,-137.407
-147,-720,1.88989,303.557,0,0,0,0,0,0,0,-1,1077,1744,1.88992,-303.558
-140,-720,1.70471,306.019,0,0,0,0,0,0,0,-1,1084,1744,1.70474,-306.019
-133,-720,1.70203,308.01,0,0,0,0,0,0,0,-1,1091,1744,1.702,-308.01
-126,-720,1.62732,310.012,0.0341295,-0.0125481,-0.0131598,0.037584,-0.0160026,-0.25671,0.0317636,0.0300157,1098,1744,1.62727,-310.012
-119,-720,1.60681,311.967,0.0358109,-0.0122351,-0.0129483,0.0390782,-0.0155024,-0.247177,0.0324773,0.0265354,1105,1744,1.6068,-311.967
-112,-720,1.51709,313.882,0.0370019,-0.0116415,-0.0130181,0.0402668,-0.0149063,-0.245723,0.0329568,0.0222272,1112,1744,1.51703,-313.882
-105,-720,1.48315,315.652,0.038517,-0.0105752,-0.0130786,0.0417838,-0.013842,-0.244777,0.0334389,0.0231003,1119,1744,1.48313,-315.652
-98,-720,1.52502,317.392,0.0402988,-0.00963939,-0.0128665,0.0434189,-0.0127595,-0.237906,0.0340066,0.0203448,1126,1744,1.52505,-317.392
-91,-720,1.64941,319.014,0.0419762,-0.00919601,-0.0129603,0.0450714,-0.0122912,-0.234432,0.0348743,0.0190143,1133,1744,1.64936,-319.014
-84,-720,1.64441,320.669,0.0435386,-0.00921009,-0.013191,0.0466534,-0.0123249,-0.231882,0.0359224,0.0245618,1140,1744,1.64437,-320.669
-77,-720,1.78906,322.216,0.0454058,-0.00960989,-0.0132701,0.0484394,-0.0126435,-0.224739,0.0372301,0.0347262,1147,1744,1.78904,-322.216
-70,-720,2.099,323.601,0.0471995,-0.0103226,-0.0133138,0.0501316,-0.0132547,-0.216769,0.0386054,0.0251,1154,1744,2.09895,-323.601
-63,-720,2.20508,325.055,0.0491012,-0.0114079,-0.0132694,0.0518832,-0.0141899,-0.206663,0.0401632,0.0192718,1161,1744,2.20506,-325.055
-56,-720,2.41003,326.316,0.051123,-0.012765,-0.0128712,0.0536186,-0.0152606,-0.191515,0.0417723,0.0244196,1168,1744,2.41007,-326.316
-49,-720,2.7113,327.614,0.0526918,-0.0139433,-0.0122054,0.0548571,-0.0161086,-0.175577,0.0429597,0.0291492,1175,1744,2.71133,-327.614
-42,-720,2.96448,328.645,0.0539242,-0.015031,-0.0116294,0.0558327,-0.0169395,-0.162659,0.0439698,0.0317083,1182,1744,2.96443,-328.645
-35,-720,3.20764,329.776,0.0551138,-0.0159282,-0.0110555,0.0567945,-0.0176089,-0.150867,0.0448988,0.0337465,1189,1744,3.20767,-329.776
-28,-720,3.65344,331,0.0564049,-0.0167792,-0.0103819,0.0578492,-0.0182234,-0.138228,0.0458637,0.0207873,1196,1744,3.65346,-331
-21,-720,3.94629,331.957,0.0577262,-0.0174746,-0.00941874,0.058888,-0.0186363,-0.122722,0.0467265,0.0148038,1203,1744,3.94623,-331.957
-14,-720,4.26147,332.799,0.0590704,-0.0177172,-0.00854715,0.0600102,-0.0186571,-0.109523,0.0474643,0.0197474,1210,1744,4.26153,-332.799
-7,-720,4.67981,333.705,0.0604806,-0.018057,-0.00764392,0.0612177,-0.0187941,-0.0961261,0.0483108,0.0220896,1217,1744,4.67978,-333.705
0,-720,4.97815,334.494,0.0616251,-0.0185584,-0.00653535,0.0621543,-0.0190876,-0.0807943,0.0490527,0.0205674,1224,1744,4.97816,-334.494
7,-720,5.33472,335.077,0.0626211,-0.0189712,-0.0054006,0.062977,-0.0193271,-0.0658074,0.049696,0.024326,1231,1744,5.33466,-335.077
14,-720,5.69019,335.68,0.063568,-0.0195389,-0.00426329,0.0637861,-0.019757,-0.05112,0.050417,0.0229557,1238,1744,5.69024,-335.68
21,-720,6.10278,336.228,0.0643057,-0.0204171,-0.00327521,0.0644321,-0.0205435,-0.0385812,0.0511954,0.0221858,1245,1744,6.10284,-336.228
28,-720,6.63672,336.719,0.0651163,-0.0216098,-0.00222409,0.0651733,-0.0216668,-0.0256226,0.0521924,0.0212877,1252,1744,6.63666,-336.719
35,-720,7.09656,337.096,0.0659556,-0.0225132,-0.00128184,0.0659742,-0.0225318,-0.0144852,0.0531112,0.018561,1259,1744,7.09653,-337.096
42,-720,7.54651,337.446,0.0662102,-0.0230809,-0.00041123,0.066212,-0.0230828,-0.00460536,0.0535214,0.0157662,1266,1744,7.54657,-337.446
49,-720,8.01257,337.681,0.0653284,-0.0235869,0.00024958,0.0653291,-0.0235876,0.00280691,0.0531882,0.0337811,1273,1744,8.01254,-337.681
56,-720,8.26929,337.858,0.0637867,-0.0234918,0.000733273,0.0637929,-0.023498,0.00840074,0.0521565,0.0365604,1280,1744,8.26933,-337.858
63,-720,8.85486,337.99,0.0617841,-0.0226478,0.0008981,0.0617937,-0.0226574,0.0106354,0.0504729,0.0392954,1287,1744,8.85492,-337.99
70,-720,9.61597,338.097,0,0,0,0,0,0,0,-1,1294,1744,9.61602,-338.097
77,-720,9.974,338.374,0,0,0,0,0,0,0,-1,1301,1744,9.97406,-338.374
84,-720,10.5187,337.921,0.0552373,-0.0170976,0.000287937,0.0552384,-0.0170988,0.00398053,0.043656,0.0487919,1308,1744,10.5186,-337.921
91,-720,10.9364,337.592,0.0533112,-0.0147802,0.000276987,0.0533123,-0.0147814,0.00406778,0.0413587,0.0254165,1315,1744,10.9364,-337.592
98,-720,11.2443,337.429,0.0515829,-0.0124157,0.000499172,0.0515868,-0.0124195,0.00779911,0.0391926,0.024543,1322,1744,11.2443,-337.43
105,-720,11.3687,337.284,0.0502778,-0.0104528,0.000786326,0.050288,-0.010463,0.0129449,0.0375027,0.0202688,1329,1744,11.3686,-337.284
112,-720,11.4419,337.13,0.0498905,-0.0090786,0.00127161,0.0499179,-0.009106,0.0215506,0.0366925,0.020071,1336,1744,11.4419,-337.13
119,-720,11.6848,337.005,0.0509263,-0.00743409,0.00261199,0.051043,-0.00755076,0.0446372,0.0368047,0.0330613,1343,1744,11.6848,-337.005
126,-720,12.0712,336.908,0,0,0,0,0,0,0,-1,1350,1744,12.0711,-336.908
133,-720,13.3418,335.039,0.0526284,-0.00401331,0.00639991,0.0533426,-0.00472743,0.111123,0.0372377,0.0280585,1357,1744,13.3418,-335.039
140,-720,13.801,334.394,0.052904,-0.00351445,0.00831019,0.0541026,-0.00471304,0.143244,0.0377376,0.0313581,1364,1744,13.801,-334.394
147,-720,14.132,333.591,0.0541578,-0.00346512,0.0101477,0.0558926,-0.00519996,0.169322,0.0391105,0.0266696,1371,1744,14.1319,-333.591
154,-720,14.3678,332.766,0.0559386,-0.00353012,0.011998,0.058268,-0.00585951,0.191763,0.0409385,0.0187606,1378,1744,14.3678,-332.766
161,-720,14.772,331.833,0.0560394,-0.00377958,0.0132627,0.058848,-0.00658824,0.208688,0.0416024,0.0167364,1385,1744,14.772,-331.833
168,-720,15.1289,330.841,0.0543235,-0.00400183,0.0140379,0.0575263,-0.00720464,0.224315,0.0409641,0.018403,1392,1744,15.1289,-330.841
175,-720,15.3152,329.759,0.0512882,-0.00413971,0.014169,0.0547002,-0.00755171,0.236308,0.0392271,0.0254697,1399,1744,15.3152,-329.759
182,-720,15.5929,328.628,0.0483454,-0.00375988,0.0136426,0.0517013,-0.00711576,0.241196,0.0370678,0.0235156,1406,1744,15.5929,-328.628
189,-720,15.8376,327.443,0.0455699,-0.00290518,0.0130757,0.048872,-0.00620728,0.247366,0.0348353,0.0300618,1413,1744,15.8376,-327.443
196,-720,15.9476,326.276,0,0,0,0,0,0,0,-1,1420,1744,15.9476,-326.276
203,-720,16.616,324.753,0,0,0,0,0,0,0,-1,1427,1744,16.6159,-324.753
210,-720,16.646,323.285,0.0393921,0.00065364,0.0121078,0.0428651,-0.00281932,0.279337,0.0295613,0.0468226,1434,1744,16.646,-323.285
217,-720,16.6486,321.795,0.0372745,0.00283828,0.0117205,0.0408851,-0.000772253,0.298829,0.0275177,0.0307572,1441,1744,16.6486,-321.795
224,-720,16.7916,320.357,0.0351863,0.00469567,0.0112293,0.0388755,0.00100643,0.317427,0.0255881,0.0166059,1448,1744,16.7916,-320.357
231,-720,16.8693,318.789,0.0335013,0.00684014,0.0104754,0.0371248,0.00321671,0.333016,0.0237503,0.0139855,1455,1744,16.8692,-318.789
238,-720,16.8647,317.123,0.0319968,0.00881941,0.00980604,0.0355889,0.00522732,0.351134,0.0221897,0.0136553,1462,1744,16.8647,-317.123
245,-720,16.7816,315.417,0.0304039,0.0105868,0.00895106,0.0338483,0.00714246,0.367337,0.0206016,0.0204977,1469,1744,16.7816,-315.416
252,-720,16.7982,313.546,0.0286387,0.0119254,0.00798068,0.0318374,0.00872677,0.381195,0.0189963,0.0260792,1476,1744,16.7982,-313.546
259,-720,16.8069,311.63,0.0266897,0.0130448,0.00700638,0.0296465,0.0100879,0.39935,0.0174051,0.0298021,1483,1744,16.8069,-311.63
266,-720,16.7958,309.471,0.0246051,0.0137442,0.00593769,0.0272212,0.0111282,0.414993,0.015803,0.0493298,1490,1744,16.7957,-309.471
273,-720,16.6356,307.407,0,0,0,0,0,0,0,-1,1497,1744,16.6356,-307.407
280,-720,16.2399,305.401,0,0,0,0,0,0,0,-1,1504,1744,16.2399,-305.402
287,-720,5.17542,134.649,0,0,0,0,0,0,0,-1,1511,1744,5.17542,-134.649
294,-720,6.99695,110.857,0,0,0,0,0,0,0,-1,1518,1744,6.99699,-110.857
301,-720,6.64636,110.967,0,0,0,0,0,0,0,-1,1525,1744,6.64634,-110.967
308,-720,6.44629,112.353,0,0,0,0,0,0,0,-1,1532,1744,6.44625,-112.353
315,-720,8.33508,80.2484,0,0,0,0,0,0,0,-1,1539,1744,8.33509,-80.2484
322,-720,8.98181,43.5223,0,0,0,0,0,0,0,-1,1546,1744,8.98176,-43.5223
329,-720,9.15906,34.7668,0,0,0,0,0,0,0,-1,1553,1744,9.1591,-34.7669
336,-720,6.14148,26.5682,0,0,0,0,0,0,0,-1,1560,1744,6.14151,-26.5683
343,-720,6.78552,21.3625,0,0,0,0,0,0,0,-1,1567,1744,6.78551,-21.3625
350,-720,7.53918,71.5569,0,0,0,0,0,0,0,-1,1574,1744,7.53914,-71.5568
357,-720,6.90833,21.4504,0,0,0,0,0,0,0,-1,1581,1744,6.90827,-21.4505
364,-720,6.59497,44.1384,0,0,0,0,0,0,0,-1,1588,1744,6.59492,-44.1385
371,-720,6.67773,45.2386,0,0,0,0,0,0,0,-1,1595,1744,6.67779,-45.2386
378,-720,3.88257,25.5404,0,0,0,0,0,0,0,-1,1602,1744,3.88262,-25.5404
385,-720,4.672,37.3854,0,0,0,0,0,0,0,-1,1609,1744,4.67202,-37.3854
392,-720,4.89319,36.2684,0,0,0,0,0,0,0,-1,1616,1744,4.89323,-36.2684
399,-720,2.37317,24.7166,0,0,0,0,0,0,0,-1,1623,1744,2.37317,-24.7166
406,-720,0,0,0,0,0,0,0,0,0,-1,1630,1744,0,0
413,-720,0,0,0,0,0,0,0,0,0,-1,1637,1744,0,0
420,-720,0,0,0,0,0,0,0,0,0,-1,1644,1744,0,0
427,-720,0,0,0,0,0,0,0,0,0,-1,1651,1744,0,0
434,-720,0,0,0,0,0,0,0,0,0,-1,1658,1744,0,0
441,-720,0,0,0,0,0,0,0,0,0,-1,1665,1744,0,0
448,-720,0,0,0,0,0,0,0,0,0,-1,1672,1744,0,0
455,-720,0,0,0,0,0,0,0,0,0,-1,1679,1744,0,0
462,-720,0,0,0,0,0,0,0,0,0,-1,1686,1744,0,0
469,-720,0,0,0,0,0,0,0,0,0,-1,1693,1744,0,0
476,-720,0,0,0,0,0,0,0,0,0,-1,1700,1744,0,0
483,-720,0,0,0,0,0,0,0,0,0,-1,1707,1744,0,0
490,-720,0,0,0,0,0,0,0,0,0,-1,1714,1744,0,0
497,-720,0,0,0,0,0,0,0,0,0,-1,1721,1744,0,0
504,-720,0,0,0,0,0,0,0,0,0,-1,1728,1744,0,0
511,-720,0,0,0,0,0,0,0,0,0,-1,1735,1744,0,0
518,-720,0,0,0,0,0,0,0,0,0,-1,1742,1744,0,0
525,-720,0,0,0,0,0,0,0,0,0,-1,1749,1744,0,0
532,-720,0,0,0,0,0,0,0,0,0,-1,1756,1744,0,0
539,-720,0,0,0,0,0,0,0,0,0,-1,1763,1744,0,0
546,-720,0,0,0,0,0,0,0,0,0,-1,1770,1744,0,0
553,-720,0,0,0,0,0,0,0,0,0,-1,1777,1744,0,0
560,-720,0,0,0,0,0,0,0,0,0,-1,1784,1744,0,0
567,-720,0,0,0,0,0,0,0,0,0,-1,1791,1744,0,0
574,-720,0,0,0,0,0,0,0,0,0,-1,1798,1744,0,0
581,-720,0,0,0,0,0,0,0,0,0,-1,1805,1744,0,0
588,-720,0,0,0,0,0,0,0,0,0,-1,1812,1744,0,0
595,-720,0,0,0,0,0,0,0,0,0,-1,1819,1744,0,0
602,-720,0,0,0,0,0,0,0,0,0,-1,1826,1744,0,0
609,-720,0,0,0,0,0,0,0,0,0,-1,1833,1744,0,0
616,-720,0,0,0,0,0,0,0,0,0,-1,1840,1744,0,0
623,-720,0,0,0,0,0,0,0,0,0,-1,1847,1744,0,0
630,-720,0,0,0,0,0,0,0,0,0,-1,1854,1744,0,0
637,-720,0,0,0,0,0,0,0,0,0,-1,1861,1744,0,0
644,-720,0,0,0,0,0,0,0,0,0,-1,1868,1744,0,0
651,-720,0,0,0,0,0,0,0,0,0,-1,1875,1744,0,0
658,-720,0,0,0,0,0,0,0,0,0,-1,1882,1744,0,0
665,-720,0,0,0,0,0,0,0,0,0,-1,1889,1744,0,0
672,-720,0,0,0,0,0,0,0,0,0,-1,1896,1744,0,0
679,-720,0,0,0,0,0,0,0,0,0,-1,1903,1744,0,0
686,-720,0,0,0,0,0,0,0,0,0,-1,1910,1744,0,0
693,-720,0,0,0,0,0,0,0,0,0,-1,1917,1744,0,0
700,-720,0,0,0,0,0,0,0,0,0,-1,1924,1744,0,0
707,-720,0,0,0,0,0,0,0,0,0,-1,1931,1744,0,0
714,-720,0,0,0,0,0,0,0,0,0,-1,1938,1744,0,0
721,-720,0,0,0,0,0,0,0,0,0,-1,1945,1744,0,0
728,-720,0,0,0,0,0,0,0,0,0,-1,1952,1744,0,0
735,-720,0,0,0,0,0,0,0,0,0,-1,1959,1744,0,0
742,-720,0,0,0,0,0,0,0,0,0,-1,1966,1744,0,0
749,-720,0,0,0,0,0,0,0,0,0,-1,1973,1744,0,0
756,-720,0,0,0,0,0,0,0,0,0,-1,1980,1744,0,0
763,-720,0,0,0,0,0,0,0,0,0,-1,1987,1744,0,0
770,-720,0,0,0,0,0,0,0,0,0,-1,1994,1744,0,0
777,-720,0,0,0,0,0,0,0,0,0,-1,2001,1744,0,0
784,-720,0,0,0,0,0,0,0,0,0,-1,2008,1744,0,0
791,-720,0,0,0,0,0,0,0,0,0,-1,2015,1744,0,0
798,-720,0,0,0,0,0,0,0,0,0,-1,2022,1744,0,0
805,-720,0,0,0,0,0,0,0,0,0,-1,2029,1744,0,0
812,-720,0,0,0,0,0,0,0,0,0,-1,2036,1744,0,0
-700,-727,0,0,0,0,0,0,0,0,0,-1,524,1751,0,0
-693,-727,0,0,0,0,0,0,0,0,0,-1,531,1751,0,0
-686,-727,0,0,0,0,0,0,0,0,0,-1,538,1751,0,0
-679,-727,0,0,0,0,0,0,0,0,0,-1,545,1751,0,0
-672,-727,0,0,0,0,0,0,0,0,0,-1,552,1751,0,0
-665,-727,0,0,0,0,0,0,0,0,0,-1,559,1751,0,0
-658,-727,0,0,0,0,0,0,0,0,0,-1,566,1751,0,0
-651,-727,0,0,0,0,0,0,0,0,0,-1,573,1751,0,0
-644,-727,0,0,0,0,0,0,0,0,0,-1,580,1751,0,0
-637,-727,0,0,0,0,0,0,0,0,0,-1,587,1751,0,0
-630,-727,0,0,0,0,0,0,0,0,0,-1,594,1751,0,0
-623,-727,0,0,0,0,0,0,0,0,0,-1,601,1751,0,0
-616,-727,0,0,0,0,0,0,0,0,0,-1,608,1751,0,0
-609,-727,0,0,0,0,0,0,0,0,0,-1,615,1751,0,0
-602,-727,0,0,0,0,0,0,0,0,0,-1,622,1751,0,0
-595,-727,0,0,0,0,0,0,0,0,0,-1,629,1751,0,0
-588,-727,0,0,0,0,0,0,0,0,0,-1,636,1751,0,0
-581,-727,0,0,0,0,0,0,0,0,0,-1,643,1751,0,0
-574,-727,0,0,0,0,0,0,0,0,0,-1,650,1751,0,0
-567,-727,0,0,0,0,0,0,0,0,0,-1,657,1751,0,0
-560,-727,0,0,0,0,0,0,0,0,0,-1,664,1751,0,0
-553,-727,0,0,0,0,0,0,0,0,0,-1,671,1751,0,0
-546,-727,0,0,0,0,0,0,0,0,0,-1,678,1751,0,0
-539,-727,0,0,0,0,0,0,0,0,0,-1,685,1751,0,0
-532,-727,0,0,0,0,0,0,0,0,0,-1,692,1751,0,0
-525,-727,0,0,0,0,0,0,0,0,0,-1,699,1751,0,0
-518,-727,0,0,0,0,0,0,0,0,0,-1,706,1751,0,0
-511,-727,0,0,0,0,0,0,0,0,0,-1,713,1751,0,0
-504,-727,0,0,0,0,0,0,0,0,0,-1,720,1751,0,0
-497,-727,0,0,0,0,0,0,0,0,0,-1,727,1751,0,0
-490,-727,0,0,0,0,0,0,0,0,0,-1,734,1751,0,0
-483,-727,0,0,0,0,0,0,0,0,0,-1,741,1751,0,0
-476,-727,0,0,0,0,0,0,0,0,0,-1,748,1751,0,0
-469,-727,0,0,0,0,0,0,0,0,0,-1,755,1751,0,0
-462,-727,0,0,0,0,0,0,0,0,0,-1,762,1751,0,0
-455,-727,0,0,0,0,0,0,0,0,0,-1,769,1751,0,0
-448,-727,0,0,0,0,0,0,0,0,0,-1,776,1751,0,0
-441,-727,0,0,0,0,0,0,0,0,0,-1,783,1751,0,0
-434,-727,0,0,0,0,0,0,0,0,0,-1,790,1751,0,0
-427,-727,0,0,0,0,0,0,0,0,0,-1,797,1751,0,0
-420,-727,0,0,0,0,0,0,0,0,0,-1,804,1751,0,0
-413,-727,0,0,0,0,0,0,0,0,0,-1,811,1751,0,0
-406,-727,0,0,0,0,0,0,0,0,0,-1,818,1751,0,0
-399,-727,0,0,0,0,0,0,0,0,0,-1,825,1751,0,0
-392,-727,0,0,0,0,0,0,0,0,0,-1,832,1751,0,0
-385,-727,0,0,0,0,0,0,0,0,0,-1,839,1751,0,0
-378,-727,0,0,0,0,0,0,0,0,0,-1,846,1751,0,0
-371,-727,0,0,0,0,0,0,0,0,0,-1,853,1751,0,0
-364,-727,0,0,0,0,0,0,0,0,0,-1,860,1751,0,0
-357,-727,0,0,0,0,0,0,0,0,0,-1,867,1751,0,0
-350,-727,0,0,0,0,0,0,0,0,0,-1,874,1751,0,0
-343,-727,0,0,0,0,0,0,0,0,0,-1,881,1751,0,0
-336,-727,0,0,0,0,0,0,0,0,0,-1,888,1751,0,0
-329,-727,0,0,0,0,0,0,0,0,0,-1,895,1751,0,0
-322,-727,0,0,0,0,0,0,0,0,0,-1,902,1751,0,0
-315,-727,0,0,0,0,0,0,0,0,0,-1,909,1751,0,0
-308,-727,0,0,0,0,0,0,0,0,0,-1,916,1751,0,0
-301,-727,0,0,0,0,0,0,0,0,0,-1,923,1751,0,0
-294,-727,0,0,0,0,0,0,0,0,0,-1,930,1751,0,0
-287,-727,0,0,0,0,0,0,0,0,0,-1,937,1751,0,0
-280,-727,0,0,0,0,0,0,0,0,0,-1,944,1751,0,0
-273,-727,0,0,0,0,0,0,0,0,0,-1,951,1751,0,0
-266,-727,4.24805,7.61145,0,0,0,0,0,0,0,-1,958,1751,4.24802,-7.6115
-259,-727,3.65228,5.4082,0,0,0,0,0,0,0,-1,965,1751,3.65229,-5.40818
-252,-727,5.8797,32.9292,0,0,0,0,0,0,0,-1,972,1751,5.87972,-32.9292
-245,-727,6.59198,32.2588,0,0,0,0,0,0,0,-1,979,1751,6.59195,-32.2587
-238,-727,6.6189,30.4597,0,0,0,0,0,0,0,-1,986,1751,6.61889,-30.4598
-231,-727,10.3705,65.6537,0,0,0,0,0,0,0,-1,993,1751,10.3706,-65.6537
-224,-727,6.64417,70.2582,0,0,0,0,0,0,0,-1,1000,1751,6.64418,-70.2582
-217,-727,11.5642,66.4852,0,0,0,0,0,0,0,-1,1007,1751,11.5642,-66.4853
-210,-727,11.9247,66.7097,0,0,0,0,0,0,0,-1,1014,1751,11.9246,-66.7097
-203,-727,10.2913,113.322,0,0,0,0,0,0,0,-1,1021,1751,10.2912,-113.322
-196,-727,9.95496,113.302,0,0,0,0,0,0,0,-1,1028,1751,9.95494,-113.302
-189,-727,9.26709,79.3872,0,0,0,0,0,0,0,-1,1035,1751,9.26713,-79.3872
-182,-727,9.896,114.416,0,0,0,0,0,0,0,-1,1042,1751,9.89605,-114.416
-175,-727,9.45593,123.651,0,0,0,0,0,0,0,-1,1049,1751,9.45591,-123.651
-168,-727,8.81592,119.119,0,0,0,0,0,0,0,-1,1056,1751,8.81591,-119.119
-161,-727,9.19238,116.507,0,0,0,0,0,0,0,-1,1063,1751,9.19233,-116.507
-154,-727,9.53088,111.789,0,0,0,0,0,0,0,-1,1070,1751,9.53087,-111.789
-147,-727,9.88684,103.831,0,0,0,0,0,0,0,-1,1077,1751,9.88688,-103.831
-140,-727,9.77563,100.047,0,0,0,0,0,0,0,-1,1084,1751,9.77561,-100.047
-133,-727,9.11511,111.783,0,0,0,0,0,0,0,-1,1091,1751,9.11513,-111.783
-126,-727,3.56616,310.308,0,0,0,0,0,0,0,-1,1098,1751,3.56616,-310.308
-119,-727,3.50818,312.505,0,0,0,0,0,0,0,-1,1105,1751,3.50814,-312.505
-112,-727,3.44202,314.361,0,0,0,0,0,0,0,-1,1112,1751,3.44205,-314.361
-105,-727,3.19226,316.122,0,0,0,0,0,0,0,-1,1119,1751,3.19227,-316.122
-98,-727,3.17725,317.629,0.0320242,-0.00714868,-0.00849425,0.0337868,-0.00891127,-0.2046,0.0260089,0.0293821,1126,1751,3.17727,-317.629
-91,-727,3.23865,319.192,0.0334686,-0.00587914,-0.0088628,0.0353728,-0.00778327,-0.211629,0.0265592,0.02099,1133,1751,3.2387,-319.192
-84,-727,3.33923,320.79,0.0346904,-0.00524103,-0.00959302,0.0368755,-0.00742607,-0.223953,0.0273966,0.0243067,1140,1751,3.33928,-320.79
-77,-727,3.44092,322.25,0.0364693,-0.00499654,-0.0103137,0.038893,-0.00742017,-0.230804,0.0287233,0.0335672,1147,1751,3.44086,-322.251
-70,-727,3.61096,323.79,0.0381818,-0.00509901,-0.0110062,0.0408198,-0.00773707,-0.23525,0.0301253,0.0272146,1154,1751,3.61101,-323.79
-63,-727,3.66858,325.259,0.0397987,-0.00607298,-0.0114498,0.0424978,-0.0087721,-0.231508,0.0316636,0.0183532,1161,1751,3.66854,-325.259
-56,-727,3.78162,326.53,0.0414506,-0.00757446,-0.0114877,0.044009,-0.0101328,-0.219126,0.0332358,0.0194012,1168,1751,3.78157,-326.53
-49,-727,4.01526,327.786,0.0426964,-0.00865457,-0.0112658,0.0450592,-0.0110174,-0.20674,0.0343068,0.0201749,1175,1751,4.01532,-327.786
-42,-727,4.22717,328.909,0.0437556,-0.0097844,-0.0109955,0.0459258,-0.0119546,-0.194865,0.0352837,0.0230914,1182,1751,4.22723,-328.909
-35,-727,4.38733,330.038,0.0447469,-0.0106258,-0.0107711,0.0467684,-0.0126473,-0.185511,0.03614,0.0223811,1189,1751,4.3873,-330.038
-28,-727,4.64514,331.154,0.045704,-0.0114051,-0.0103024,0.0475057,-0.0132068,-0.173131,0.0368698,0.0169526,1196,1751,4.6451,-331.154
-21,-727,4.90479,332.141,0.0466951,-0.0119174,-0.00948719,0.0481924,-0.0134147,-0.15654,0.0374104,0.0173526,1203,1751,4.90479,-332.142
-14,-727,5.18689,332.987,0.0478747,-0.011844,-0.00870183,0.0491169,-0.0130861,-0.141787,0.037868,0.0193696,1210,1751,5.18688,-332.987
-7,-727,5.51819,333.883,0.0490581,-0.0117988,-0.00780641,0.0500435,-0.0127842,-0.125567,0.0383409,0.0240594,1217,1751,5.51816,-333.883
0,-727,5.72546,334.71,0.049874,-0.0120242,-0.00671191,0.0505934,-0.0127437,-0.106781,0.038683,0.0220456,1224,1751,5.72543,-334.71
7,-727,6.04846,335.266,0.0506115,-0.0122233,-0.00562701,0.0511114,-0.0127232,-0.0886129,0.0390132,0.0241427,1231,1751,6.04843,-335.265
14,-727,6.39917,335.807,0.0515649,-0.0125645,-0.0045421,0.051885,-0.0128846,-0.0703589,0.0395901,0.0262693,1238,1751,6.39913,-335.807
21,-727,6.74915,336.383,0.0523568,-0.0131811,-0.00354736,0.0525482,-0.0133725,-0.053917,0.0402373,0.0240801,1245,1751,6.74913,-336.383
28,-727,7.16809,336.882,0.0531047,-0.0143243,-0.00249471,0.0531969,-0.0144164,-0.0369302,0.0411212,0.0237108,1252,1751,7.16804,-336.882
35,-727,7.56775,337.273,0.0538805,-0.0152657,-0.00145188,0.053911,-0.0152962,-0.020985,0.0419789,0.0207647,1259,1751,7.56777,-337.273
42,-727,7.80896,337.606,0.0542386,-0.0159367,-0.000571076,0.0542432,-0.0159414,-0.00813713,0.0424848,0.0172775,1266,1751,7.80902,-337.606
49,-727,8.17419,337.931,0.0536837,-0.0165947,9.06909e-05,0.0536839,-0.0165948,0.00129045,0.0424171,0.024285,1273,1751,8.17422,-337.931
56,-727,8.40295,338.167,0.0525863,-0.0166987,0.000562309,0.0525908,-0.0167033,0.00811516,0.0417572,0.02412,1280,1751,8.40297,-338.167
63,-727,8.75012,338.237,0.0510606,-0.0160765,0.00077613,0.0510696,-0.0160854,0.0115583,0.0404877,0.0294359,1287,1751,8.75011,-338.237
70,-727,9.27832,338.194,0,0,0,0,0,0,0,-1,1294,1751,9.27837,-338.194
77,-727,9.94934,338.039,0,0,0,0,0,0,0,-1,1301,1751,9.94937,-338.039
84,-727,10.3253,337.967,0,0,0,0,0,0,0,-1,1308,1751,10.3254,-337.967
91,-727,10.8284,337.619,0.0448814,-0.00923925,6.74947e-05,0.0448814,-0.00923933,0.00124711,0.0334291,0.0472366,1315,1751,10.8283,-337.619
98,-727,11.0974,337.377,0.0437724,-0.00722599,0.000187831,0.0437731,-0.00722668,0.00368302,0.0318653,0.03807,1322,1751,11.0974,-337.377
105,-727,11.0898,337.26,0.0430747,-0.00550425,0.000380679,0.0430777,-0.00550723,0.00783566,0.0307192,0.0228535,1329,1751,11.0898,-337.26
112,-727,11.3281,337.01,0.0429533,-0.00426452,0.000740395,0.0429649,-0.00427612,0.0156753,0.0301699,0.0214947,1336,1751,11.3281,-337.01
119,-727,11.7295,336.577,0.0435417,-0.00293715,0.00167088,0.0436017,-0.00299714,0.0358874,0.0301166,0.0224583,1343,1751,11.7295,-336.577
126,-727,12.3604,335.841,0.0443331,-0.00164094,0.00309991,0.0445412,-0.00184901,0.0670232,0.0303292,0.0256741,1350,1751,12.3604,-335.841
133,-727,12.7379,335.14,0.0447929,-0.000927191,0.0043347,0.0452003,-0.00133453,0.093697,0.0305881,0.0240036,1357,1751,12.7379,-335.14
140,-727,12.9758,334.415,0.0450263,-0.00091582,0.00563934,0.0457084,-0.00159792,0.120368,0.0310186,0.0338888,1364,1751,12.9758,-334.415
147,-727,13.2906,333.677,0.0457457,-0.00126136,0.00702277,0.0467724,-0.00228812,0.145176,0.0319716,0.0266668,1371,1751,13.2907,-333.677
154,-727,13.5673,332.843,0.0463354,-0.00161698,0.00838063,0.0477579,-0.00303946,0.168132,0.0328986,0.0178817,1378,1751,13.5673,-332.843
161,-727,13.8173,331.932,0.045319,-0.00209553,0.00922877,0.047052,-0.00382848,0.185615,0.0327189,0.0147806,1385,1751,13.8173,-331.932
168,-727,14.0265,331.022,0.0428499,-0.00234452,0.00957987,0.0447967,-0.0042913,0.200486,0.0313928,0.0174685,1392,1751,14.0265,-331.022
175,-727,14.1835,330.004,0.0400647,-0.00226772,0.00954513,0.0421174,-0.00432042,0.211826,0.0296236,0.0253986,1399,1751,14.1835,-330.004
182,-727,14.426,328.859,0.0374632,-0.00185659,0.00904081,0.0394423,-0.00383573,0.215512,0.0276623,0.0268979,1406,1751,14.4261,-328.859
189,-727,14.5676,327.662,0.0350129,-0.000662015,0.00849334,0.0369318,-0.00258086,0.222194,0.025525,0.0270811,1413,1751,14.5677,-327.662
196,-727,14.6744,326.406,0,0,0,0,0,0,0,-1,1420,1751,14.6745,-326.406
203,-727,14.9178,324.797,0,0,0,0,0,0,0,-1,1427,1751,14.9178,-324.797
210,-727,15.0481,323.446,0.0297154,0.00409976,0.00779875,0.031903,0.00191222,0.27347,0.0206608,0.0476233,1434,1751,15.0481,-323.446
217,-727,15.0563,322.006,0.0278762,0.0069434,0.00756636,0.0303247,0.00449487,0.312971,0.0188972,0.02396,1441,1751,15.0563,-322.006
224,-727,15.1,320.501,0.0262926,0.00956686,0.0074209,0.0291104,0.00674906,0.362895,0.0175942,0.0189824,1448,1751,15.1,-320.501
231,-727,15.1323,318.917,0.0245766,0.0126785,0.00682301,0.0276799,0.00957522,0.42686,0.0162319,0.0156923,1455,1751,15.1323,-318.917
238,-727,15.0493,317.051,0.0228103,0.0152143,0.0058951,0.0260249,0.0119996,0.499231,0.0150407,0.0406924,1462,1751,15.0493,-317.05
245,-727,15.0242,315.56,0,0,0,0,0,0,0,-1,1469,1751,15.0241,-315.56
252,-727,14.9073,313.691,0,0,0,0,0,0,0,-1,1476,1751,14.9073,-313.691
259,-727,14.7391,311.68,0,0,0,0,0,0,0,-1,1483,1751,14.7392,-311.68
266,-727,14.7756,309.182,0,0,0,0,0,0,0,-1,1490,1751,14.7756,-309.182
273,-727,8.31946,82.3387,0,0,0,0,0,0,0,-1,1497,1751,8.31948,-82.3387
280,-727,8.28369,85.8636,0,0,0,0,0,0,0,-1,1504,1751,8.28373,-85.8636
287,-727,7.65161,81.5585,0,0,0,0,0,0,0,-1,1511,1751,7.65165,-81.5585
294,-727,7.47607,71.4724,0,0,0,0,0,0,0,-1,1518,1751,7.47602,-71.4724
301,-727,8.44385,46.1619,0,0,0,0,0,0,0,-1,1525,1751,8.4439,-46.1619
308,-727,8.77002,44.8007,0,0,0,0,0,0,0,-1,1532,1751,8.76996,-44.8006
315,-727,8.10571,41.24,0,0,0,0,0,0,0,-1,1539,1751,8.10567,-41.2399
322,-727,8.24133,40.2081,0,0,0,0,0,0,0,-1,1546,1751,8.24136,-40.2082
329,-727,5.54419,31.0325,0,0,0,0,0,0,0,-1,1553,1751,5.54425,-31.0325
336,-727,5.55823,20.2439,0,0,0,0,0,0,0,-1,1560,1751,5.55829,-20.2438
343,-727,2.41699,8.72095,0,0,0,0,0,0,0,-1,1567,1751,2.41702,-8.72098
350,-727,3.89783,7.50195,0,0,0,0,0,0,0,-1,1574,1751,3.89782,-7.50193
357,-727,4.48462,10.2948,0,0,0,0,0,0,0,-1,1581,1751,4.48464,-10.2948
364,-727,6.96729,17.2365,0,0,0,0,0,0,0,-1,1588,1751,6.96732,-17.2365
371,-727,5.04565,23.2227,0,0,0,0,0,0,0,-1,1595,1751,5.04564,-23.2227
378,-727,4.56726,23.0574,0,0,0,0,0,0,0,-1,1602,1751,4.56727,-23.0574
385,-727,3.52307,22.6431,0,0,0,0,0,0,0,-1,1609,1751,3.52303,-22.643
392,-727,0,0,0,0,0,0,0,0,0,-1,1616,1751,0,0
399,-727,0,0,0,0,0,0,0,0,0,-1,1623,1751,0,0
406,-727,0,0,0,0,0,0,0,0,0,-1,1630,1751,0,0
413,-727,0,0,0,0,0,0,0,0,0,-1,1637,1751,0,0
420,-727,0,0,0,0,0,0,0,0,0,-1,1644,1751,0,0
427,-727,0,0,0,0,0,0,0,0,0,-1,1651,1751,0,0
434,-727,0,0,0,0,0,0,0,0,0,-1,1658,1751,0,0
441,-727,0,0,0,0,0,0,0,0,0,-1,1665,1751,0,0
448,-727,0,0,0,0,0,0,0,0,0,-1,1672,1751,0,0
455,-727,0,0,0,0,0,0,0,0,0,-1,1679,1751,0,0
462,-727,0,0,0,0,0,0,0,0,0,-1,1686,1751,0,0
469,-727,0,0,0,0,0,0,0,0,0,-1,1693,1751,0,0
476,-727,0,0,0,0,0,0,0,0,0,-1,1700,1751,0,0
483,-727,0,0,0,0,0,0,0,0,0,-1,1707,1751,0,0
490,-727,0,0,0,0,0,0,0,0,0,-1,1714,1751,0,0
497,-727,0,0,0,0,0,0,0,0,0,-1,1721,1751,0,0
504,-727,0,0,0,0,0,0,0,0,0,-1,1728,1751,0,0
511,-727,0,0,0,0,0,0,0,0,0,-1,1735,1751,0,0
518,-727,0,0,0,0,0,0,0,0,0,-1,1742,1751,0,0
525,-727,0,0,0,0,0,0,0,0,0,-1,1749,1751,0,0
532,-727,0,0,0,0,0,0,0,0,0,-1,1756,1751,0,0
539,-727,0,0,0,0,0,0,0,0,0,-1,1763,1751,0,0
546,-727,0,0,0,0,0,0,0,0,0,-1,1770,1751,0,0
553,-727,0,0,0,0,0,0,0,0,0,-1,1777,1751,0,0
560,-727,0,0,0,0,0,0,0,0,0,-1,1784,1751,0,0
567,-727,0,0,0,0,0,0,0,0,0,-1,1791,1751,0,0
574,-727,0,0,0,0,0,0,0,0,0,-1,1798,1751,0,0
581,-727,0,0,0,0,0,0,0,0,0,-1,1805,1751,0,0
588,-727,0,0,0,0,0,0,0,0,0,-1,1812,1751,0,0
595,-727,0,0,0,0,0,0,0,0,0,-1,1819,1751,0,0
602,-727,0,0,0,0,0,0,0,0,0,-1,1826,1751,0,0
609,-727,0,0,0,0,0,0,0,0,0,-1,1833,1751,0,0
616,-727,0,0,0,0,0,0,0,0,0,-1,1840,1751,0,0
623,-727,0,0,0,0,0,0,0,0,0,-1,1847,1751,0,0
630,-727,0,0,0,0,0,0,0,0,0,-1,1854,1751,0,0
637,-727,0,0,0,0,0,0,0,0,0,-1,1861,1751,0,0
644,-727,0,0,0,0,0,0,0,0,0,-1,1868,1751,0,0
651,-727,0,0,0,0,0,0,0,0,0,-1,1875,1751,0,0
658,-727,0,0,0,0,0,0,0,0,0,-1,1882,1751,0,0
665,-727,0,0,0,0,0,0,0,0,0,-1,1889,1751,0,0
672,-727,0,0,0,0,0,0,0,0,0,-1,1896,1751,0,0
679,-727,0,0,0,0,0,0,0,0,0,-1,1903,1751,0,0
686,-727,0,0,0,0,0,0,0,0,0,-1,1910,1751,0,0
693,-727,0,0,0,0,0,0,0,0,0,-1,1917,1751,0,0
700,-727,0,0,0,0,0,0,0,0,0,-1,1924,1751,0,0
707,-727,0,0,0,0,0,0,0,0,0,-1,1931,1751,0,0
714,-727,0,0,0,0,0,0,0,0,0,-1,1938,1751,0,0
721,-727,0,0,0,0,0,0,0,0,0,-1,1945,1751,0,0
728,-727,0,0,0,0,0,0,0,0,0,-1,1952,1751,0,0
735,-727,0,0,0,0,0,0,0,0,0,-1,1959,1751,0,0
742,-727,0,0,0,0,0,0,0,0,0,-1,1966,1751,0,0
749,-727,0,0,0,0,0,0,0,0,0,-1,1973,1751,0,0
756,-727,0,0,0,0,0,0,0,0,0,-1,1980,1751,0,0
763,-727,0,0,0,0,0,0,0,0,0,-1,1987,1751,0,0
770,-727,0,0,0,0,0,0,0,0,0,-1,1994,1751,0,0
777,-727,0,0,0,0,0,0,0,0,0,-1,2001,1751,0,0
784,-727,0,0,0,0,0,0,0,0,0,-1,2008,1751,0,0
791,-727,0,0,0,0,0,0,0,0,0,-1,2015,1751,0,0
798,-727,0,0,0,0,0,0,0,0,0,-1,2022,1751,0,0
805,-727,0,0,0,0,0,0,0,0,0,-1,2029,1751,0,0
812,-727,0,0,0,0,0,0,0,0,0,-1,2036,1751,0,0
-700,-734,0,0,0,0,0,0,0,0,0,-1,524,1758,0,0
-693,-734,0,0,0,0,0,0,0,0,0,-1,531,1758,0,0
-686,-734,0,0,0,0,0,0,0,0,0,-1,538,1758,0,0
-679,-734,0,0,0,0,0,0,0,0,0,-1,545,1758,0,0
-672,-734,0,0,0,0,0,0,0,0,0,-1,552,1758,0,0
-665,-734,0,0,0,0,0,0,0,0,0,-1,559,1758,0,0
-658,-734,0,0,0,0,0,0,0,0,0,-1,566,1758,0,0
-651,-734,0,0,0,0,0,0,0,0,0,-1,573,1758,0,0
-644,-734,0,0,0,0,0,0,0,0,0,-1,580,1758,0,0
-637,-734,0,0,0,0,0,0,0,0,0,-1,587,1758,0,0
-630,-734,0,0,0,0,0,0,0,0,0,-1,594,1758,0,0
-623,-734,0,0,0,0,0,0,0,0,0,-1,601,1758,0,0
-616,-734,0,0,0,0,0,0,0,0,0,-1,608,1758,0,0
-609,-734,0,0,0,0,0,0,0,0,0,-1,615,1758,0,0
-602,-734,0,0,0,0,0,0,0,0,0,-1,622,1758,0,0
-595,-734,0,0,0,0,0,0,0,0,0,-1,629,1758,0,0
-588,-734,0,0,0,0,0,0,0,0,0,-1,636,1758,0,0
-581,-734,0,0,0,0,0,0,0,0,0,-1,643,1758,0,0
-574,-734,0,0,0,0,0,0,0,0,0,-1,650,1758,0,0
-567,-734,0,0,0,0,0,0,0,0,0,-1,657,1758,0,0
-560,-734,0,0,0,0,0,0,0,0,0,-1,664,1758,0,0
-553,-734,0,0,0,0,0,0,0,0,0,-1,671,1758,0,0
-546,-734,0,0,0,0,0,0,0,0,0,-1,678,1758,0,0
-539,-734,0,0,0,0,0,0,0,0,0,-1,685,1758,0,0
-532,-734,0,0,0,0,0,0,0,0,0,-1,692,1758,0,0
-525,-734,0,0,0,0,0,0,0,0,0,-1,699,1758,0,0
-518,-734,0,0,0,0,0,0,0,0,0,-1,706,1758,0,0
-511,-734,0,0,0,0,0,0,0,0,0,-1,713,1758,0,0
-504,-734,0,0,0,0,0,0,0,0,0,-1,720,1758,0,0
-497,-734,0,0,0,0,0,0,0,0,0,-1,727,1758,0,0
-490,-734,0,0,0,0,0,0,0,0,0,-1,734,1758,0,0
-483,-734,0,0,0,0,0,0,0,0,0,-1,741,1758,0,0
-476,-734,0,0,0,0,0,0,0,0,0,-1,748,1758,0,0
-469,-734,0,0,0,0,0,0,0,0,0,-1,755,1758,0,0
-462,-734,0,0,0,0,0,0,0,0,0,-1,762,1758,0,0
-455,-734,0,0,0,0,0,0,0,0,0,-1,769,1758,0,0
-448,-734,0,0,0,0,0,0,0,0,0,-1,776,1758,0,0
-441,-734,0,0,0,0,0,0,0,0,0,-1,783,1758,0,0
-434,-734,0,0,0,0,0,0,0,0,0,-1,790,1758,0,0
-427,-734,0,0,0,0,0,0,0,0,0,-1,797,1758,0,0
-420,-734,0,0,0,0,0,0,0,0,0,-1,804,1758,0,0
-413,-734,0,0,0,0,0,0,0,0,0,-1,811,1758,0,0
-406,-734,0,0,0,0,0,0,0,0,0,-1,818,1758,0,0
-399,-734,0,0,0,0,0,0,0,0,0,-1,825,1758,0,0
-392,-734,0,0,0,0,0,0,0,0,0,-1,832,1758,0,0
-385,-734,0,0,0,0,0,0,0,0,0,-1,839,1758,0,0
-378,-734,0,0,0,0,0,0,0,0,0,-1,846,1758,0,0
-371,-734,0,0,0,0,0,0,0,0,0,-1,853,1758,0,0
-364,-734,0,0,0,0,0,0,0,0,0,-1,860,1758,0,0
-357,-734,0,0,0,0,0,0,0,0,0,-1,867,1758,0,0
-350,-734,0,0,0,0,0,0,0,0,0,-1,874,1758,0,0
-343,-734,0,0,0,0,0,0,0,0,0,-1,881,1758,0,0
-336,-734,0,0,0,0,0,0,0,0,0,-1,888,1758,0,0
-329,-734,0,0,0,0,0,0,0,0,0,-1,895,1758,0,0
-322,-734,0,0,0,0,0,0,0,0,0,-1,902,1758,0,0
-315,-734,0,0,0,0,0,0,0,0,0,-1,909,1758,0,0
-308,-734,0,0,0,0,0,0,0,0,0,-1,916,1758,0,0
-301,-734,0,0,0,0,0,0,0,0,0,-1,923,1758,0,0
-294,-734,0,0,0,0,0,0,0,0,0,-1,930,1758,0,0
-287,-734,0,0,0,0,0,0,0,0,0,-1,937,1758,0,0
-280,-734,0,0,0,0,0,0,0,0,0,-1,944,1758,0,0
-273,-734,0,0,0,0,0,0,0,0,0,-1,951,1758,0,0
-266,-734,0,0,0,0,0,0,0,0,0,-1,958,1758,0,0
-259,-734,0,0,0,0,0,0,0,0,0,-1,965,1758,0,0
-252,-734,5.73883,31.5245,0,0,0,0,0,0,0,-1,972,1758,5.73884,-31.5246
-245,-734,6.32513,30.9761,0,0,0,0,0,0,0,-1,979,1758,6.32511,-30.9761
-238,-734,6.82385,30.0449,0,0,0,0,0,0,0,-1,986,1758,6.82387,-30.0449
-231,-734,7.1958,29.1666,0,0,0,0,0,0,0,-1,993,1758,7.19578,-29.1666
-224,-734,11.9083,67.6753,0,0,0,0,0,0,0,-1,1000,1758,11.9083,-67.6753
-217,-734,12.5489,68.1686,0,0,0,0,0,0,0,-1,1007,1758,12.5489,-68.1685
-210,-734,12.8944,68.743,0,0,0,0,0,0,0,-1,1014,1758,12.8944,-68.7431
-203,-734,13.1958,69.3351,0,0,0,0,0,0,0,-1,1021,1758,13.1958,-69.3351
-196,-734,13.0366,49.6821,0,0,0,0,0,0,0,-1,1028,1758,13.0366,-49.6822
-189,-734,12.1746,77.9988,0,0,0,0,0,0,0,-1,1035,1758,12.1746,-77.9987
-182,-734,10.0289,81.2341,0,0,0,0,0,0,0,-1,1042,1758,10.0289,-81.2341
-175,-734,10.8186,80.3762,0,0,0,0,0,0,0,-1,1049,1758,10.8186,-80.3762
-168,-734,10.7595,63.7695,0,0,0,0,0,0,0,-1,1056,1758,10.7595,-63.7695
-161,-734,10.8724,64.5072,0,0,0,0,0,0,0,-1,1063,1758,10.8724,-64.5072
-154,-734,10.3014,52.4893,0,0,0,0,0,0,0,-1,1070,1758,10.3014,-52.4893
-147,-734,10.325,56.6101,0,0,0,0,0,0,0,-1,1077,1758,10.3249,-56.6101
-140,-734,9.97607,77.6641,0,0,0,0,0,0,0,-1,1084,1758,9.97611,-77.6641
-133,-734,9.90125,75.2577,0,0,0,0,0,0,0,-1,1091,1758,9.90126,-75.2577
-126,-734,9.74487,71.7767,0,0,0,0,0,0,0,-1,1098,1758,9.74489,-71.7767
-119,-734,9.82996,66.3767,0,0,0,0,0,0,0,-1,1105,1758,9.82997,-66.3767
-112,-734,9.52307,61.2794,0,0,0,0,0,0,0,-1,1112,1758,9.52313,-61.2794
-105,-734,9.39783,63.9799,0,0,0,0,0,0,0,-1,1119,1758,9.39786,-63.9798
-98,-734,4.70374,317.791,0,0,0,0,0,0,0,-1,1126,1758,4.70377,-317.791
-91,-734,4.78857,319.354,0,0,0,0,0,0,0,-1,1133,1758,4.78855,-319.354
-84,-734,5.05505,320.889,0,0,0,0,0,0,0,-1,1140,1758,5.05504,-320.889
-77,-734,5.05847,322.471,0,0,0,0,0,0,0,-1,1147,1758,5.0585,-322.471
-70,-734,5.05957,324.07,0,0,0,0,0,0,0,-1,1154,1758,5.0596,-324.07
-63,-734,5.06543,325.427,0.0303569,-0.000861481,-0.00983764,0.0331984,-0.00370293,-0.281182,0.0234641,0.0311901,1161,1758,5.06539,-325.427
-56,-734,5.12708,326.666,0.0316992,-0.00252713,-0.0102976,0.0345585,-0.00538649,-0.270848,0.0250285,0.0237432,1168,1758,5.12706,-326.666
-49,-734,5.27087,327.943,0.0326222,-0.00343023,-0.0104825,0.0354485,-0.00625654,-0.263359,0.0259703,0.0201648,1175,1758,5.2709,-327.943
-42,-734,5.4259,329.206,0.0335129,-0.00452294,-0.0104777,0.0362082,-0.00721823,-0.251781,0.02687,0.0199139,1182,1758,5.42587,-329.206
-35,-734,5.60608,330.379,0.0343183,-0.0052102,-0.010571,0.0369677,-0.00785961,-0.245571,0.0276401,0.0195185,1189,1758,5.60608,-330.379
-28,-734,5.69055,331.277,0.0349293,-0.00585902,-0.0102871,0.0373769,-0.00830663,-0.233587,0.0280991,0.0155546,1196,1758,5.69053,-331.277
-21,-734,5.94165,332.217,0.0355762,-0.00613917,-0.00958449,0.0376729,-0.00823591,-0.215371,0.0282634,0.0227299,1203,1758,5.9417,-332.217
-14,-734,6.10193,333.158,0.0366227,-0.0056569,-0.00886063,0.0384046,-0.00743875,-0.19845,0.0284091,0.0222864,1210,1758,6.10196,-333.158
-7,-734,6.31384,333.945,0.0376202,-0.0051744,-0.00793439,0.0390439,-0.00659813,-0.177547,0.0284845,0.0250574,1217,1758,6.3139,-333.945
0,-734,6.52185,334.762,0.0380309,-0.0053774,-0.00665995,0.0390298,-0.00637623,-0.148865,0.028385,0.0256031,1224,1758,6.52187,-334.762
7,-734,6.73413,335.463,0.0384055,-0.00560247,-0.00543642,0.0390671,-0.0062641,-0.121107,0.0283643,0.020622,1231,1758,6.73415,-335.463
14,-734,7.00256,335.941,0.0392871,-0.00586276,-0.00430862,0.0396946,-0.00627026,-0.0942953,0.0287817,0.0217287,1238,1758,7.00257,-335.941
21,-734,7.19983,336.429,0.040017,-0.00654733,-0.00320782,0.0402369,-0.00676728,-0.068459,0.0293417,0.0211919,1245,1758,7.19986,-336.429
28,-734,7.5708,336.95,0.0405814,-0.00799288,-0.00205337,0.0406681,-0.00807953,-0.0421725,0.030168,0.0232662,1252,1758,7.57082,-336.95
35,-734,7.9425,337.438,0.0411506,-0.00927472,-0.000838441,0.0411645,-0.00928865,-0.0166213,0.0310065,0.0253721,1259,1758,7.94254,-337.438
42,-734,8.1925,337.768,0.0415439,-0.010269,0.00010843,0.0415441,-0.0102692,0.00209271,0.0316789,0.0172674,1266,1758,8.19253,-337.768
49,-734,8.39551,338.056,0.0412403,-0.0112561,0.000804197,0.0412526,-0.0112684,0.0153143,0.0319277,0.0204857,1273,1758,8.39546,-338.056
56,-734,8.6239,338.249,0.0405047,-0.0117117,0.00128302,0.0405362,-0.0117432,0.0245515,0.0316727,0.0203455,1280,1758,8.62395,-338.249
63,-734,8.88989,338.258,0.0393498,-0.0114228,0.00153325,0.0393961,-0.0114691,0.0301617,0.0308071,0.0228912,1287,1758,8.88986,-338.258
70,-734,9.3551,338.281,0.0382435,-0.010395,0.00143332,0.0382857,-0.0104372,0.0294348,0.0296223,0.0211824,1294,1758,9.35508,-338.281
77,-734,9.67505,338.191,0.0370534,-0.0090123,0.0012249,0.037086,-0.00904485,0.0265652,0.0282262,0.0342277,1301,1758,9.67507,-338.191
84,-734,10.025,338.076,0.0358892,-0.00722386,0.000815735,0.0359046,-0.00723929,0.0189118,0.0266789,0.0355757,1308,1758,10.025,-338.076
91,-734,10.3046,337.961,0,0,0,0,0,0,0,-1,1315,1758,10.3045,-337.961
98,-734,10.6813,337.738,0.0345079,-0.0036577,0.000632894,0.0345183,-0.00366819,0.0165768,0.0243273,0.0380874,1322,1758,10.6812,-337.738
105,-734,10.8484,337.36,0.0345149,-0.00204118,0.000666005,0.034527,-0.00205331,0.0182107,0.0237321,0.0230114,1329,1758,10.8484,-337.36
112,-734,11.0745,336.964,0.03492,-0.000827756,0.000824679,0.034939,-0.000846772,0.023053,0.02358,0.0189087,1336,1758,11.0745,-336.964
119,-734,11.382,336.487,0.0354623,0.000364233,0.00141084,0.0355189,0.000307612,0.0401109,0.0235774,0.0222138,1343,1758,11.382,-336.487
126,-734,11.7169,335.875,0.0361902,0.00130421,0.00220633,0.0363292,0.00116522,0.0629099,0.0238405,0.0250947,1350,1758,11.717,-335.875
133,-734,11.9773,335.205,0.0367785,0.00193838,0.0027848,0.0369997,0.0017172,0.07926,0.0241145,0.0256482,1357,1758,11.9772,-335.205
140,-734,12.2032,334.414,0.037147,0.00181917,0.00330308,0.0374531,0.001513,0.0924306,0.02448,0.038759,1364,1758,12.2032,-334.414
147,-734,12.4286,333.722,0.0372791,0.00119354,0.00421722,0.0377654,0.000707235,0.114806,0.0249446,0.028117,1371,1758,12.4285,-333.722
154,-734,12.679,332.988,0.0367763,0.000630717,0.00511173,0.0374853,-7.82777e-05,0.13782,0.0250164,0.0169759,1378,1758,12.6789,-332.988
161,-734,12.8263,332.093,0.0347379,-3.06015e-05,0.00555408,0.0356035,-0.000896282,0.15462,0.02404,0.0146904,1385,1758,12.8262,-332.093
168,-734,12.9779,331.085,0.0315768,-0.000274279,0.00545756,0.032486,-0.00118346,0.165075,0.0220624,0.0227699,1392,1758,12.9779,-331.085
175,-734,13.1364,330.092,0.0289734,6.70011e-05,0.00516368,0.0298681,-0.000827716,0.171568,0.0201936,0.0285933,1399,1758,13.1363,-330.092
182,-734,13.3076,329,0.026661,0.000475767,0.00459666,0.0274444,-0.000307706,0.168822,0.0183997,0.0248524,1406,1758,13.3076,-329
189,-734,13.3489,327.808,0.0244723,0.0019319,0.00396379,0.025149,0.00125517,0.169096,0.0163637,0.0197859,1413,1758,13.3489,-327.808
196,-734,13.4573,326.469,0,0,0,0,0,0,0,-1,1420,1758,13.4573,-326.469
203,-734,13.5117,325.05,0,0,0,0,0,0,0,-1,1427,1758,13.5117,-325.05
210,-734,13.6152,323.578,0,0,0,0,0,0,0,-1,1434,1758,13.6152,-323.578
217,-734,13.5465,322.254,0,0,0,0,0,0,0,-1,1441,1758,13.5465,-322.254
224,-734,13.5093,320.798,0,0,0,0,0,0,0,-1,1448,1758,13.5092,-320.798
231,-734,13.3186,319.059,0,0,0,0,0,0,0,-1,1455,1758,13.3187,-319.059
238,-734,13.2097,316.741,0,0,0,0,0,0,0,-1,1462,1758,13.2097,-316.741
245,-734,8.29065,60.4988,0,0,0,0,0,0,0,-1,1469,1758,8.29062,-60.4987
252,-734,8.17517,58.5679,0,0,0,0,0,0,0,-1,1476,1758,8.1752,-58.5678
259,-734,8.07666,59.5597,0,0,0,0,0,0,0,-1,1483,1758,8.07667,-59.5597
266,-734,7.97253,63.3893,0,0,0,0,0,0,0,-1,1490,1758,7.97259,-63.3893
273,-734,8.22437,62.0486,0,0,0,0,0,0,0,-1,1497,1758,8.22438,-62.0485
280,-734,7.90149,52.7294,0,0,0,0,0,0,0,-1,1504,1758,7.90153,-52.7294
287,-734,7.56177,50.5933,0,0,0,0,0,0,0,-1,1511,1758,7.56172,-50.5933
294,-734,7.42676,47.7545,0,0,0,0,0,0,0,-1,1518,1758,7.4268,-47.7545
301,-734,7.21814,42.6078,0,0,0,0,0,0,0,-1,1525,1758,7.21809,-42.6078
308,-734,8.0509,41.5156,0,0,0,0,0,0,0,-1,1532,1758,8.05087,-41.5157
315,-734,7.93787,40.8274,0,0,0,0,0,0,0,-1,1539,1758,7.93784,-40.8273
322,-734,7.82483,40.139,0,0,0,0,0,0,0,-1,1546,1758,7.82481,-40.139
329,-734,5.73267,19.656,0,0,0,0,0,0,0,-1,1553,1758,5.73262,-19.656
336,-734,6.71375,23.7469,0,0,0,0,0,0,0,-1,1560,1758,6.71372,-23.7469
343,-734,5.54968,5.14221,0,0,0,0,0,0,0,-1,1567,1758,5.54973,-5.14225
350,-734,5.07397,6.73242,0,0,0,0,0,0,0,-1,1574,1758,5.07402,-6.73243
357,-734,5.05542,7.19189,0,0,0,0,0,0,0,-1,1581,1758,5.05541,-7.19184
364,-734,4.43896,10.4904,0,0,0,0,0,0,0,-1,1588,1758,4.43893,-10.4904
371,-734,7.36975,17.4751,0,0,0,0,0,0,0,-1,1595,1758,7.36972,-17.4752
378,-734,0,0,0,0,0,0,0,0,0,-1,1602,1758,0,0
385,-734,0,0,0,0,0,0,0,0,0,-1,1609,1758,0,0
392,-734,0,0,0,0,0,0,0,0,0,-1,1616,1758,0,0
399,-734,0,0,0,0,0,0,0,0,0,-1,1623,1758,0,0
406,-734,0,0,0,0,0,0,0,0,0,-1,1630,1758,0,0
413,-734,0,0,0,0,0,0,0,0,0,-1,1637,1758,0,0
420,-734,0,0,0,0,0,0,0,0,0,-1,1644,1758,0,0
427,-734,0,0,0,0,0,0,0,0,0,-1,1651,1758,0,0
434,-734,0,0,0,0,0,0,0,0,0,-1,1658,1758,0,0
441,-734,0,0,0,0,0,0,0,0,0,-1,1665,1758,0,0
448,-734,0,0,0,0,0,0,0,0,0,-1,1672,1758,0,0
455,-734,0,0,0,0,0,0,0,0,0,-1,1679,1758,0,0
462,-734,0,0,0,0,0,0,0,0,0,-1,1686,1758,0,0
469,-734,0,0,0,0,0,0,0,0,0,-1,1693,1758,0,0
476,-734,0,0,0,0,0,0,0,0,0,-1,1700,1758,0,0
483,-734,0,0,0,0,0,0,0,0,0,-1,1707,1758,0,0
490,-734,0,0,0,0,0,0,0,0,0,-1,1714,1758,0,0
497,-734,0,0,0,0,0,0,0,0,0,-1,1721,1758,0,0
504,-734,0,0,0,0,0,0,0,0,0,-1,1728,1758,0,0
511,-734,0,0,0,0,0,0,0,0,0,-1,1735,1758,0,0
518,-734,0,0,0,0,0,0,0,0,0,-1,1742,1758,0,0
525,-734,0,0,0,0,0,0,0,0,0,-1,1749,1758,0,0
532,-734,0,0,0,0,0,0,0,0,0,-1,1756,1758,0,0
539,-734,0,0,0,0,0,0,0,0,0,-1,1763,1758,0,0
546,-734,0,0,0,0,0,0,0,0,0,-1,1770,1758,0,0
553,-734,0,0,0,0,0,0,0,0,0,-1,1777,1758,0,0
560,-734,0,0,0,0,0,0,0,0,0,-1,1784,1758,0,0
567,-734,0,0,0,0,0,0,0,0,0,-1,1791,1758,0,0
574,-734,0,0,0,0,0,0,0,0,0,-1,1798,1758,0,0
581,-734,0,0,0,0,0,0,0,0,0,-1,1805,1758,0,0
588,-734,0,0,0,0,0,0,0,0,0,-1,1812,1758,0,0
595,-734,0,0,0,0,0,0,0,0,0,-1,1819,1758,0,0
602,-734,0,0,0,0,0,0,0,0,0,-1,1826,1758,0,0
609,-734,0,0,0,0,0,0,0,0,0,-1,1833,1758,0,0
616,-734,0,0,0,0,0,0,0,0,0,-1,1840,1758,0,0
623,-734,0,0,0,0,0,0,0,0,0,-1,1847,1758,0,0
630,-734,0,0,0,0,0,0,0,0,0,-1,1854,1758,0,0
637,-734,0,0,0,0,0,0,0,0,0,-1,1861,1758,0,0
644,-734,0,0,0,0,0,0,0,0,0,-1,1868,1758,0,0
651,-734,0,0,0,0,0,0,0,0,0,-1,1875,1758,0,0
658,-734,0,0,0,0,0,0,0,0,0,-1,1882,1758,0,0
665,-734,0,0,0,0,0,0,0,0,0,-1,1889,1758,0,0
672,-734,0,0,0,0,0,0,0,0,0,-1,1896,1758,0,0
679,-734,0,0,0,0,0,0,0,0,0,-1,1903,1758,0,0
686,-734,0,0,0,0,0,0,0,0,0,-1,1910,1758,0,0
693,-734,0,0,0,0,0,0,0,0,0,-1,1917,1758,0,0
700,-734,0,0,0,0,0,0,0,0,0,-1,1924,1758,0,0
707,-734,0,0,0,0,0,0,0,0,0,-1,1931,1758,0,0
714,-734,0,0,0,0,0,0,0,0,0,-1,1938,1758,0,0
721,-734,0,0,0,0,0,0,0,0,0,-1,1945,1758,0,0
728,-734,0,0,0,0,0,0,0,0,0,-1,1952,1758,0,0
735,-734,0,0,0,0,0,0,0,0,0,-1,1959,1758,0,0
742,-734,0,0,0,0,0,0,0,0,0,-1,1966,1758,0,0
749,-734,0,0,0,0,0,0,0,0,0,-1,1973,1758,0,0
756,-734,0,0,0,0,0,0,0,0,0,-1,1980,1758,0,0
763,-734,0,0,0,0,0,0,0,0,0,-1,1987,1758,0,0
770,-734,0,0,0,0,0,0,0,0,0,-1,1994,1758,0,0
777,-734,0,0,0,0,0,0,0,0,0,-1,2001,1758,0,0
784,-734,0,0,0,0,0,0,0,0,0,-1,2008,1758,0,0
791,-734,0,0,0,0,0,0,0,0,0,-1,2015,1758,0,0
798,-734,0,0,0,0,0,0,0,0,0,-1,2022,1758,0,0
805,-734,0,0,0,0,0,0,0,0,0,-1,2029,1758,0,0
812,-734,0,0,0,0,0,0,0,0,0,-1,2036,1758,0,0
-700,-741,0,0,0,0,0,0,0,0,0,-1,524,1765,0,0
-693,-741,0,0,0,0,0,0,0,0,0,-1,531,1765,0,0
-686,-741,0,0,0,0,0,0,0,0,0,-1,538,1765,0,0
-679,-741,0,0,0,0,0,0,0,0,0,-1,545,1765,0,0
-672,-741,0,0,0,0,0,0,0,0,0,-1,552,1765,0,0
-665,-741,0,0,0,0,0,0,0,0,0,-1,559,1765,0,0
-658,-741,0,0,0,0,0,0,0,0,0,-1,566,1765,0,0
-651,-741,0,0,0,0,0,0,0,0,0,-1,573,1765,0,0
-644,-741,0,0,0,0,0,0,0,0,0,-1,580,1765,0,0
-637,-741,0,0,0,0,0,0,0,0,0,-1,587,1765,0,0
-630,-741,0,0,0,0,0,0,0,0,0,-1,594,1765,0,0
-623,-741,0,0,0,0,0,0,0,0,0,-1,601,1765,0,0
-616,-741,0,0,0,0,0,0,0,0,0,-1,608,1765,0,0
-609,-741,0,0,0,0,0,0,0,0,0,-1,615,1765,0,0
-602,-741,0,0,0,0,0,0,0,0,0,-1,622,1765,0,0
-595,-741,0,0,0,0,0,0,0,0,0,-1,629,1765,0,0
-588,-741,0,0,0,0,0,0,0,0,0,-1,636,1765,0,0
-581,-741,0,0,0,0,0,0,0,0,0,-1,643,1765,0,0
-574,-741,0,0,0,0,0,0,0,0,0,-1,650,1765,0,0
-567,-741,0,0,0,0,0,0,0,0,0,-1,657,1765,0,0
-560,-741,0,0,0,0,0,0,0,0,0,-1,664,1765,0,0
-553,-741,0,0,0,0,0,0,0,0,0,-1,671,1765,0,0
-546,-741,0,0,0,0,0,0,0,0,0,-1,678,1765,0,0
-539,-741,0,0,0,0,0,0,0,0,0,-1,685,1765,0,0
-532,-741,0,0,0,0,0,0,0,0,0,-1,692,1765,0,0
-525,-741,0,0,0,0,0,0,0,0,0,-1,699,1765,0,0
-518,-741,0,0,0,0,0,0,0,0,0,-1,706,1765,0,0
-511,-741,0,0,0,0,0,0,0,0,0,-1,713,1765,0,0
-504,-741,0,0,0,0,0,0,0,0,0,-1,720,1765,0,0
-497,-741,0,0,0,0,0,0,0,0,0,-1,727,1765,0,0
-490,-741,0,0,0,0,0,0,0,0,0,-1,734,1765,0,0
-483,-741,0,0,0,0,0,0,0,0,0,-1,741,1765,0,0
-476,-741,0,0,0,0,0,0,0,0,0,-1,748,1765,0,0
-469,-741,0,0,0,0,0,0,0,0,0,-1,755,1765,0,0
-462,-741,0,0,0,0,0,0,0,0,0,-1,762,1765,0,0
-455,-741,0,0,0,0,0,0,0,0,0,-1,769,1765,0,0
-448,-741,0,0,0,0,0,0,0,0,0,-1,776,1765,0,0
-441,-741,0,0,0,0,0,0,0,0,0,-1,783,1765,0,0
-434,-741,0,0,0,0,0,0,0,0,0,-1,790,1765,0,0
-427,-741,0,0,0,0,0,0,0,0,0,-1,797,1765,0,0
-420,-741,0,0,0,0,0,0,0,0,0,-1,804,1765,0,0
-413,-741,0,0,0,0,0,0,0,0,0,-1,811,1765,0,0
-406,-741,0,0,0,0,0,0,0,0,0,-1,818,1765,0,0
-399,-741,0,0,0,0,0,0,0,0,0,-1,825,1765,0,0
-392,-741,0,0,0,0,0,0,0,0,0,-1,832,1765,0,0
-385,-741,0,0,0,0,0,0,0,0,0,-1,839,1765,0,0
-378,-741,0,0,0,0,0,0,0,0,0,-1,846,1765,0,0
-371,-741,0,0,0,0,0,0,0,0,0,-1,853,1765,0,0
-364,-741,0,0,0,0,0,0,0,0,0,-1,860,1765,0,0
-357,-741,0,0,0,0,0,0,0,0,0,-1,867,1765,0,0
-350,-741,0,0,0,0,0,0,0,0,0,-1,874,1765,0,0
-343,-741,0,0,0,0,0,0,0,0,0,-1,881,1765,0,0
-336,-741,0,0,0,0,0,0,0,0,0,-1,888,1765,0,0
-329,-741,0,0,0,0,0,0,0,0,0,-1,895,1765,0,0
-322,-741,0,0,0,0,0,0,0,0,0,-1,902,1765,0,0
-315,-741,0,0,0,0,0,0,0,0,0,-1,909,1765,0,0
-308,-741,0,0,0,0,0,0,0,0,0,-1,916,1765,0,0
-301,-741,0,0,0,0,0,0,0,0,0,-1,923,1765,0,0
-294,-741,0,0,0,0,0,0,0,0,0,-1,930,1765,0,0
-287,-741,0,0,0,0,0,0,0,0,0,-1,937,1765,0,0
-280,-741,0,0,0,0,0,0,0,0,0,-1,944,1765,0,0
-273,-741,0,0,0,0,0,0,0,0,0,-1,951,1765,0,0
-266,-741,0,0,0,0,0,0,0,0,0,-1,958,1765,0,0
-259,-741,0,0,0,0,0,0,0,0,0,-1,965,1765,0,0
-252,-741,0,0,0,0,0,0,0,0,0,-1,972,1765,0,0
-245,-741,0,0,0,0,0,0,0,0,0,-1,979,1765,0,0
-238,-741,7.13855,29.8348,0,0,0,0,0,0,0,-1,986,1765,7.13856,-29.8348
-231,-741,7.74182,29.3066,0,0,0,0,0,0,0,-1,993,1765,7.74183,-29.3066
-224,-741,7.80078,29.0964,0,0,0,0,0,0,0,-1,1000,1765,7.80079,-29.0964
-217,-741,8.15863,29.113,0,0,0,0,0,0,0,-1,1007,1765,8.15863,-29.1131
-210,-741,8.37024,29.3896,0,0,0,0,0,0,0,-1,1014,1765,8.37022,-29.3896
-203,-741,7.703,44.0701,0,0,0,0,0,0,0,-1,1021,1765,7.70306,-44.0701
-196,-741,13.1698,50.7012,0,0,0,0,0,0,0,-1,1028,1765,13.1698,-50.7012
-189,-741,13.6135,77.9425,0,0,0,0,0,0,0,-1,1035,1765,13.6135,-77.9425
-182,-741,12.7972,79.3372,0,0,0,0,0,0,0,-1,1042,1765,12.7972,-79.3372
-175,-741,11.981,80.7318,0,0,0,0,0,0,0,-1,1049,1765,11.981,-80.7318
-168,-741,11.5565,64.798,0,0,0,0,0,0,0,-1,1056,1765,11.5566,-64.798
-161,-741,11.5831,65.5651,0,0,0,0,0,0,0,-1,1063,1765,11.5832,-65.5651
-154,-741,7.93201,50.9395,0,0,0,0,0,0,0,-1,1070,1765,7.93195,-50.9395
-147,-741,10.9515,48.8568,0,0,0,0,0,0,0,-1,1077,1765,10.9515,-48.8569
-140,-741,10.5068,51.2876,0,0,0,0,0,0,0,-1,1084,1765,10.5068,-51.2876
-133,-741,10.6208,54.5072,0,0,0,0,0,0,0,-1,1091,1765,10.6208,-54.5072
-126,-741,9.89746,52.7167,0,0,0,0,0,0,0,-1,1098,1765,9.8975,-52.7167
-119,-741,9.33801,50.1482,0,0,0,0,0,0,0,-1,1105,1765,9.33802,-50.1482
-112,-741,9.6283,47.2815,0,0,0,0,0,0,0,-1,1112,1765,9.62827,-47.2815
-105,-741,9.61792,45.9158,0,0,0,0,0,0,0,-1,1119,1765,9.61797,-45.9158
-98,-741,9.19971,40.25,0,0,0,0,0,0,0,-1,1126,1765,9.19971,-40.25
-91,-741,8.40002,36.3687,0,0,0,0,0,0,0,-1,1133,1765,8.40002,-36.3687
-84,-741,7.8877,35.0892,0,0,0,0,0,0,0,-1,1140,1765,7.88776,-35.0892
-77,-741,7.73303,34.1174,0,0,0,0,0,0,0,-1,1147,1765,7.73304,-34.1174
-70,-741,7.5437,32.0275,0,0,0,0,0,0,0,-1,1154,1765,7.5437,-32.0275
-63,-741,6.41187,325.542,0,0,0,0,0,0,0,-1,1161,1765,6.41187,-325.542
-56,-741,6.41309,326.707,0,0,0,0,0,0,0,-1,1168,1765,6.41303,-326.707
-49,-741,6.42957,328.218,0,0,0,0,0,0,0,-1,1175,1765,6.42952,-328.218
-42,-741,6.54578,329.613,0,0,0,0,0,0,0,-1,1182,1765,6.54579,-329.613
-35,-741,6.60156,330.56,0.0238483,0.000339059,-0.0104668,0.027833,-0.0036456,-0.363754,0.0198822,0.0252267,1189,1765,6.60158,-330.56
-28,-741,6.776,331.354,0.0240959,-0.000122995,-0.0103464,0.027914,-0.0039411,-0.353524,0.0200526,0.02543,1196,1765,6.77604,-331.354
-21,-741,7.11499,332.33,0.0243759,-0.000122049,-0.00972289,0.0277657,-0.00351187,-0.335466,0.0197853,0.0304753,1203,1765,7.11502,-332.33
-14,-741,7.03113,333.255,0.0253182,0.000865266,-0.00903895,0.0282967,-0.00211317,-0.318306,0.0196068,0.0271431,1210,1765,7.03118,-333.255
-7,-741,7.14661,333.987,0.0261351,0.00141867,-0.0079487,0.0284707,-0.000916901,-0.285787,0.0192933,0.0227018,1217,1765,7.14655,-333.987
0,-741,7.32507,334.749,0.0261114,0.0006853,-0.00623323,0.0275572,-0.000760563,-0.22793,0.0186302,0.0222699,1224,1765,7.32501,-334.749
7,-741,7.44409,335.491,0.0260996,-5.87483e-05,-0.00467975,0.0269116,-0.000870752,-0.171804,0.0182382,0.0257745,1231,1765,7.44404,-335.491
14,-741,7.58447,336.036,0.0269183,-0.000823042,-0.00340663,0.0273305,-0.00123525,-0.120416,0.0186458,0.0289746,1238,1765,7.58448,-336.035
21,-741,7.7384,336.474,0.0275468,-0.00206833,-0.00217063,0.027705,-0.00222658,-0.0727763,0.0192552,0.0263376,1245,1765,7.73836,-336.474
28,-741,7.91235,337.039,0.027877,-0.00407141,-0.000871635,0.0279008,-0.00409517,-0.0272555,0.0201051,0.0242714,1252,1765,7.91241,-337.039
35,-741,8.22925,337.448,0.0282646,-0.00578402,0.000496448,0.0282718,-0.00579126,0.0145764,0.0210456,0.0229238,1259,1765,8.22923,-337.448
42,-741,8.49695,337.814,0.0286722,-0.00717131,0.00150171,0.028735,-0.00723412,0.0417987,0.0219687,0.0260534,1266,1765,8.49691,-337.814
49,-741,8.60144,338.041,0.028542,-0.00848366,0.00221898,0.0286745,-0.00861617,0.0596462,0.0225441,0.0165945,1273,1765,8.60142,-338.041
56,-741,8.81274,338.182,0.0280499,-0.0092554,0.00269241,0.0282432,-0.00944872,0.0716772,0.0226453,0.015366,1280,1765,8.8128,-338.182
63,-741,9.04602,338.306,0.0271233,-0.00922964,0.00294144,0.0273598,-0.0094661,0.080218,0.0220822,0.0201901,1287,1765,9.046,-338.306
70,-741,9.27954,338.372,0.0261994,-0.0084,0.00282959,0.0264293,-0.00862988,0.0810636,0.021093,0.0246098,1294,1765,9.27953,-338.372
77,-741,9.51514,338.214,0.0253073,-0.00708345,0.00256244,0.0255088,-0.00728491,0.0784596,0.0198841,0.0193458,1301,1765,9.51513,-338.214
84,-741,9.81836,338.128,0.0245352,-0.00532694,0.00207988,0.0246794,-0.00547111,0.0692042,0.0185476,0.0229801,1308,1765,9.81834,-338.128
91,-741,10.109,337.994,0.0240624,-0.00360111,0.0017985,0.0241788,-0.00371754,0.0646509,0.0174906,0.0249008,1315,1765,10.1091,-337.994
98,-741,10.2925,337.741,0.0240787,-0.00184336,0.00167706,0.0241868,-0.00195141,0.0643387,0.0168128,0.0190942,1322,1765,10.2925,-337.741
105,-741,10.4973,337.382,0.0247308,-0.000217363,0.00153638,0.024825,-0.000311622,0.0612744,0.0166549,0.0169249,1329,1765,10.4973,-337.382
112,-741,10.6777,337,0.0257659,0.00109649,0.00145456,0.0258513,0.00101102,0.0586912,0.0169073,0.015349,1336,1765,10.6777,-336.999
119,-741,10.7932,336.47,0.0265476,0.00245738,0.00173977,0.0266726,0.00233238,0.0717229,0.0170575,0.0185564,1343,1765,10.7932,-336.47
126,-741,11.0098,335.872,0.0274965,0.00354951,0.00192321,0.0276499,0.00339604,0.0796309,0.017412,0.0271986,1350,1765,11.0098,-335.872
133,-741,11.2939,335.272,0.0285491,0.00465032,0.00165285,0.0286628,0.00453655,0.0687245,0.0177902,0.0268281,1357,1765,11.294,-335.272
140,-741,11.4427,334.553,0.0292102,0.00468941,0.00126684,0.0292755,0.00462414,0.051481,0.0181728,0.0267086,1364,1765,11.4428,-334.553
147,-741,11.5927,333.803,0.0287341,0.00388743,0.00170692,0.0288508,0.00377072,0.0682706,0.0181083,0.026909,1371,1765,11.5926,-333.803
154,-741,11.7421,333.057,0.0272397,0.00319637,0.00217422,0.0274347,0.00300134,0.0894624,0.017376,0.0181417,1378,1765,11.7421,-333.058
161,-741,11.8416,332.103,0.0242825,0.00239721,0.00223125,0.0245077,0.00217204,0.100573,0.0156647,0.0193267,1385,1765,11.8415,-332.103
168,-741,11.9395,331.043,0.0205008,0.00219683,0.00167157,0.0206522,0.00204543,0.090327,0.0131395,0.0312731,1392,1765,11.9394,-331.043
175,-741,12.0042,330.005,0,0,0,0,0,0,0,-1,1399,1765,12.0042,-330.005
182,-741,12.1343,329.011,0,0,0,0,0,0,0,-1,1406,1765,12.1343,-329.011
189,-741,12.0804,327.846,0,0,0,0,0,0,0,-1,1413,1765,12.0805,-327.846
196,-741,12.1151,326.634,0,0,0,0,0,0,0,-1,1420,1765,12.1152,-326.634
203,-741,12.1034,325.347,0,0,0,0,0,0,0,-1,1427,1765,12.1034,-325.347
210,-741,11.9453,323.644,0,0,0,0,0,0,0,-1,1434,1765,11.9453,-323.644
217,-741,8.4032,40.1213,0,0,0,0,0,0,0,-1,1441,1765,8.40325,-40.1214
224,-741,8.0719,38.4249,0,0,0,0,0,0,0,-1,1448,1765,8.07187,-38.4249
231,-741,7.95923,39.0671,0,0,0,0,0,0,0,-1,1455,1765,7.9592,-39.0671
238,-741,7.96619,42.4865,0,0,0,0,0,0,0,-1,1462,1765,7.96621,-42.4864
245,-741,8.53577,45.7744,0,0,0,0,0,0,0,-1,1469,1765,8.53581,-45.7744
252,-741,8.59167,47.473,0,0,0,0,0,0,0,-1,1476,1765,8.59162,-47.473
259,-741,8.47412,48.5269,0,0,0,0,0,0,0,-1,1483,1765,8.47412,-48.5269
266,-741,8.50134,48.3838,0,0,0,0,0,0,0,-1,1490,1765,8.50132,-48.3838
273,-741,8.81421,49.1227,0,0,0,0,0,0,0,-1,1497,1765,8.81426,-49.1227
280,-741,7.33093,51.4729,0,0,0,0,0,0,0,-1,1504,1765,7.33092,-51.4729
287,-741,7.52783,49.7068,0,0,0,0,0,0,0,-1,1511,1765,7.52783,-49.7068
294,-741,5.91187,43.7742,0,0,0,0,0,0,0,-1,1518,1765,5.91188,-43.7742
301,-741,6.20667,38.5165,0,0,0,0,0,0,0,-1,1525,1765,6.20667,-38.5165
308,-741,7.99036,42.5969,0,0,0,0,0,0,0,-1,1532,1765,7.99037,-42.5969
315,-741,7.83838,41.6693,0,0,0,0,0,0,0,-1,1539,1765,7.83835,-41.6694
322,-741,7.68628,40.7418,0,0,0,0,0,0,0,-1,1546,1765,7.68633,-40.7418
329,-741,4.74414,17.928,0,0,0,0,0,0,0,-1,1553,1765,4.74414,-17.928
336,-741,5.74304,22.0945,0,0,0,0,0,0,0,-1,1560,1765,5.74306,-22.0945
343,-741,7.09888,26.501,0,0,0,0,0,0,0,-1,1567,1765,7.09885,-26.501
350,-741,4.90369,5.44666,0,0,0,0,0,0,0,-1,1574,1765,4.90368,-5.44664
357,-741,4.02063,5.16626,0,0,0,0,0,0,0,-1,1581,1765,4.02058,-5.1662
364,-741,0,0,0,0,0,0,0,0,0,-1,1588,1765,0,0
371,-741,0,0,0,0,0,0,0,0,0,-1,1595,1765,0,0
378,-741,0,0,0,0,0,0,0,0,0,-1,1602,1765,0,0
385,-741,0,0,0,0,0,0,0,0,0,-1,1609,1765,0,0
392,-741,0,0,0,0,0,0,0,0,0,-1,1616,1765,0,0
399,-741,0,0,0,0,0,0,0,0,0,-1,1623,1765,0,0
406,-741,0,0,0,0,0,0,0,0,0,-1,1630,1765,0,0
413,-741,0,0,0,0,0,0,0,0,0,-1,1637,1765,0,0
420,-741,0,0,0,0,0,0,0,0,0,-1,1644,1765,0,0
427,-741,0,0,0,0,0,0,0,0,0,-1,1651,1765,0,0
434,-741,0,0,0,0,0,0,0,0,0,-1,1658,1765,0,0
441,-741,0,0,0,0,0,0,0,0,0,-1,1665,1765,0,0
448,-741,0,0,0,0,0,0,0,0,0,-1,1672,1765,0,0
455,-741,0,0,0,0,0,0,0,0,0,-1,1679,1765,0,0
462,-741,0,0,0,0,0,0,0,0,0,-1,1686,1765,0,0
469,-741,0,0,0,0,0,0,0,0,0,-1,1693,1765,0,0
476,-741,0,0,0,0,0,0,0,0,0,-1,1700,1765,0,0
483,-741,0,0,0,0,0,0,0,0,0,-1,1707,1765,0,0
490,-741,0,0,0,0,0,0,0,0,0,-1,1714,1765,0,0
497,-741,0,0,0,0,0,0,0,0,0,-1,1721,1765,0,0
504,-741,0,0,0,0,0,0,0,0,0,-1,1728,1765,0,0
511,-741,0,0,0,0,0,0,0,0,0,-1,1735,1765,0,0
518,-741,0,0,0,0,0,0,0,0,0,-1,1742,1765,0,0
525,-741,0,0,0,0,0,0,0,0,0,-1,1749,1765,0,0
532,-741,0,0,0,0,0,0,0,0,0,-1,1756,1765,0,0
539,-741,0,0,0,0,0,0,0,0,0,-1,1763,1765,0,0
546,-741,0,0,0,0,0,0,0,0,0,-1,1770,1765,0,0
553,-741,0,0,0,0,0,0,0,0,0,-1,1777,1765,0,0
560,-741,0,0,0,0,0,0,0,0,0,-1,1784,1765,0,0
567,-741,0,0,0,0,0,0,0,0,0,-1,1791,1765,0,0
574,-741,0,0,0,0,0,0,0,0,0,-1,1798,1765,0,0
581,-741,0,0,0,0,0,0,0,0,0,-1,1805,1765,0,0
588,-741,0,0,0,0,0,0,0,0,0,-1,1812,1765,0,0
595,-741,0,0,0,0,0,0,0,0,0,-1,1819,1765,0,0
602,-741,0,0,0,0,0,0,0,0,0,-1,1826,1765,0,0
609,-741,0,0,0,0,0,0,0,0,0,-1,1833,1765,0,0
616,-741,0,0,0,0,0,0,0,0,0,-1,1840,1765,0,0
623,-741,0,0,0,0,0,0,0,0,0,-1,1847,1765,0,0
630,-741,0,0,0,0,0,0,0,0,0,-1,1854,1765,0,0
637,-741,0,0,0,0,0,0,0,0,0,-1,1861,1765,0,0
644,-741,0,0,0,0,0,0,0,0,0,-1,1868,1765,0,0
651,-741,0,0,0,0,0,0,0,0,0,-1,1875,1765,0,0
658,-741,0,0,0,0,0,0,0,0,0,-1,1882,1765,0,0
665,-741,0,0,0,0,0,0,0,0,0,-1,1889,1765,0,0
672,-741,0,0,0,0,0,0,0,0,0,-1,1896,1765,0,0
679,-741,0,0,0,0,0,0,0,0,0,-1,1903,1765,0,0
686,-741,0,0,0,0,0,0,0,0,0,-1,1910,1765,0,0
693,-741,0,0,0,0,0,0,0,0,0,-1,1917,1765,0,0
700,-741,0,0,0,0,0,0,0,0,0,-1,1924,1765,0,0
707,-741,0,0,0,0,0,0,0,0,0,-1,1931,1765,0,0
714,-741,0,0,0,0,0,0,0,0,0,-1,1938,1765,0,0
721,-741,0,0,0,0,0,0,0,0,0,-1,1945,1765,0,0
728,-741,0,0,0,0,0,0,0,0,0,-1,1952,1765,0,0
735,-741,0,0,0,0,0,0,0,0,0,-1,1959,1765,0,0
742,-741,0,0,0,0,0,0,0,0,0,-1,1966,1765,0,0
749,-741,0,0,0,0,0,0,0,0,0,-1,1973,1765,0,0
756,-741,0,0,0,0,0,0,0,0,0,-1,1980,1765,0,0
763,-741,0,0,0,0,0,0,0,0,0,-1,1987,1765,0,0
770,-741,0,0,0,0,0,0,0,0,0,-1,1994,1765,0,0
777,-741,0,0,0,0,0,0,0,0,0,-1,2001,1765,0,0
784,-741,0,0,0,0,0,0,0,0,0,-1,2008,1765,0,0
791,-741,0,0,0,0,0,0,0,0,0,-1,2015,1765,0,0
798,-741,0,0,0,0,0,0,0,0,0,-1,2022,1765,0,0
805,-741,0,0,0,0,0,0,0,0,0,-1,2029,1765,0,0
812,-741,0,0,0,0,0,0,0,0,0,-1,2036,1765,0,0
-700,-748,0,0,0,0,0,0,0,0,0,-1,524,1772,0,0
-693,-748,0,0,0,0,0,0,0,0,0,-1,531,1772,0,0
-686,-748,0,0,0,0,0,0,0,0,0,-1,538,1772,0,0
-679,-748,0,0,0,0,0,0,0,0,0,-1,545,1772,0,0
-672,-748,0,0,0,0,0,0,0,0,0,-1,552,1772,0,0
-665,-748,0,0,0,0,0,0,0,0,0,-1,559,1772,0,0
-658,-748,0,0,0,0,0,0,0,0,0,-1,566,1772,0,0
-651,-748,0,0,0,0,0,0,0,0,0,-1,573,1772,0,0
-644,-748,0,0,0,0,0,0,0,0,0,-1,580,1772,0,0
-637,-748,0,0,0,0,0,0,0,0,0,-1,587,1772,0,0
-630,-748,0,0,0,0,0,0,0,0,0,-1,594,1772,0,0
-623,-748,0,0,0,0,0,0,0,0,0,-1,601,1772,0,0
-616,-748,0,0,0,0,0,0,0,0,0,-1,608,1772,0,0
-609,-748,0,0,0,0,0,0,0,0,0,-1,615,1772,0,0
-602,-748,0,0,0,0,0,0,0,0,0,-1,622,1772,0,0
-595,-748,0,0,0,0,0,0,0,0,0,-1,629,1772,0,0
-588,-748,0,0,0,0,0,0,0,0,0,-1,636,1772,0,0
-581,-748,0,0,0,0,0,0,0,0,0,-1,643,1772,0,0
-574,-748,0,0,0,0,0,0,0,0,0,-1,650,1772,0,0
-567,-748,0,0,0,0,0,0,0,0,0,-1,657,1772,0,0
-560,-748,0,0,0,0,0,0,0,0,0,-1,664,1772,0,0
-553,-748,0,0,0,0,0,0,0,0,0,-1,671,1772,0,0
-546,-748,0,0,0,0,0,0,0,0,0,-1,678,1772,0,0
-539,-748,0,0,0,0,0,0,0,0,0,-1,685,1772,0,0
-532,-748,0,0,0,0,0,0,0,0,0,-1,692,1772,0,0
-525,-748,0,0,0,0,0,0,0,0,0,-1,699,1772,0,0
-518,-748,0,0,0,0,0,0,0,0,0,-1,706,1772,0,0
-511,-748,0,0,0,0,0,0,0,0,0,-1,713,1772,0,0
-504,-748,0,0,0,0,0,0,0,0,0,-1,720,1772,0,0
-497,-748,0,0,0,0,0,0,0,0,0,-1,727,1772,0,0
-490,-748,0,0,0,0,0,0,0,0,0,-1,734,1772,0,0
-483,-748,0,0,0,0,0,0,0,0,0,-1,741,1772,0,0
-476,-748,0,0,0,0,0,0,0,0,0,-1,748,1772,0,0
-469,-748,0,0,0,0,0,0,0,0,0,-1,755,1772,0,0
-462,-748,0,0,0,0,0,0,0,0,0,-1,762,1772,0,0
-455,-748,0,0,0,0,0,0,0,0,0,-1,769,1772,0,0
-448,-748,0,0,0,0,0,0,0,0,0,-1,776,1772,0,0
-441,-748,0,0,0,0,0,0,0,0,0,-1,783,1772,0,0
-434,-748,0,0,0,0,0,0,0,0,0,-1,790,1772,0,0
-427,-748,0,0,0,0,0,0,0,0,0,-1,797,1772,0,0
-420,-748,0,0,0,0,0,0,0,0,0,-1,804,1772,0,0
-413,-748,0,0,0,0,0,0,0,0,0,-1,811,1772,0,0
-406,-748,0,0,0,0,0,0,0,0,0,-1,818,1772,0,0
-399,-748,0,0,0,0,0,0,0,0,0,-1,825,1772,0,0
-392,-748,0,0,0,0,0,0,0,0,0,-1,832,1772,0,0
-385,-748,0,0,0,0,0,0,0,0,0,-1,839,1772,0,0
-378,-748,0,0,0,0,0,0,0,0,0,-1,846,1772,0,0
-371,-748,0,0,0,0,0,0,0,0,0,-1,853,1772,0,0
-364,-748,0,0,0,0,0,0,0,0,0,-1,860,1772,0,0
-357,-748,0,0,0,0,0,0,0,0,0,-1,867,1772,0,0
-350,-748,0,0,0,0,0,0,0,0,0,-1,874,1772,0,0
-343,-748,0,0,0,0,0,0,0,0,0,-1,881,1772,0,0
-336,-748,0,0,0,0,0,0,0,0,0,-1,888,1772,0,0
-329,-748,0,0,0,0,0,0,0,0,0,-1,895,1772,0,0
-322,-748,0,0,0,0,0,0,0,0,0,-1,902,1772,0,0
-315,-748,0,0,0,0,0,0,0,0,0,-1,909,1772,0,0
-308,-748,0,0,0,0,0,0,0,0,0,-1,916,1772,0,0
-301,-748,0,0,0,0,0,0,0,0,0,-1,923,1772,0,0
-294,-748,0,0,0,0,0,0,0,0,0,-1,930,1772,0,0
-287,-748,0,0,0,0,0,0,0,0,0,-1,937,1772,0,0
-280,-748,0,0,0,0,0,0,0,0,0,-1,944,1772,0,0
-273,-748,0,0,0,0,0,0,0,0,0,-1,951,1772,0,0
-266,-748,0,0,0,0,0,0,0,0,0,-1,958,1772,0,0
-259,-748,0,0,0,0,0,0,0,0,0,-1,965,1772,0,0
-252,-748,0,0,0,0,0,0,0,0,0,-1,972,1772,0,0
-245,-748,0,0,0,0,0,0,0,0,0,-1,979,1772,0,0
-238,-748,0,0,0,0,0,0,0,0,0,-1,986,1772,0,0
-231,-748,0,0,0,0,0,0,0,0,0,-1,993,1772,0,0
-224,-748,0,0,0,0,0,0,0,0,0,-1,1000,1772,0,0
-217,-748,8.97742,29.9884,0,0,0,0,0,0,0,-1,1007,1772,8.97744,-29.9884
-210,-748,8.8941,30.14,0,0,0,0,0,0,0,-1,1014,1772,8.8941,-30.14
-203,-748,7.88,43.3942,0,0,0,0,0,0,0,-1,1021,1772,7.87999,-43.3941
-196,-748,7.95483,43.9952,0,0,0,0,0,0,0,-1,1028,1772,7.95478,-43.9953
-189,-748,14.6794,78.3651,0,0,0,0,0,0,0,-1,1035,1772,14.6794,-78.3652
-182,-748,13.9248,79.833,0,0,0,0,0,0,0,-1,1042,1772,13.9248,-79.833
-175,-748,13.17,81.3008,0,0,0,0,0,0,0,-1,1049,1772,13.1701,-81.3008
-168,-748,12.4545,65.7625,0,0,0,0,0,0,0,-1,1056,1772,12.4545,-65.7625
-161,-748,12.5651,66.1248,0,0,0,0,0,0,0,-1,1063,1772,12.565,-66.1247
-154,-748,11.4552,48.7113,0,0,0,0,0,0,0,-1,1070,1772,11.4552,-48.7113
-147,-748,11.7789,49.4792,0,0,0,0,0,0,0,-1,1077,1772,11.7789,-49.4793
-140,-748,10.4108,44.9001,0,0,0,0,0,0,0,-1,1084,1772,10.4107,-44.9001
-133,-748,7.44727,22.0308,0,0,0,0,0,0,0,-1,1091,1772,7.44728,-22.0308
-126,-748,5.98035,22.6067,0,0,0,0,0,0,0,-1,1098,1772,5.9803,-22.6067
-119,-748,6.63342,26.309,0,0,0,0,0,0,0,-1,1105,1772,6.6334,-26.3089
-112,-748,6.91333,24.923,0,0,0,0,0,0,0,-1,1112,1772,6.91339,-24.923
-105,-748,6.83313,25.0537,0,0,0,0,0,0,0,-1,1119,1772,6.83311,-25.0537
-98,-748,8.13623,30.8743,0,0,0,0,0,0,0,-1,1126,1772,8.13628,-30.8742
-91,-748,4.85352,15.3033,0,0,0,0,0,0,0,-1,1133,1772,4.85351,-15.3033
-84,-748,-0.192017,7.26196,0,0,0,0,0,0,0,-1,1140,1772,-0.192047,-7.26201
-77,-748,4.42615,13.5537,0,0,0,0,0,0,0,-1,1147,1772,4.4261,-13.5538
-70,-748,4.46191,13.7446,0,0,0,0,0,0,0,-1,1154,1772,4.4619,-13.7446
-63,-748,4.49768,13.9355,0,0,0,0,0,0,0,-1,1161,1772,4.49769,-13.9355
-56,-748,3.05762,7.87817,0,0,0,0,0,0,0,-1,1168,1772,3.05768,-7.87822
-49,-748,3.04102,7.82471,0,0,0,0,0,0,0,-1,1175,1772,3.04096,-7.82468
-42,-748,0.793457,14.9474,0,0,0,0,0,0,0,-1,1182,1772,0.793413,-14.9474
-35,-748,7.66846,330.609,0,0,0,0,0,0,0,-1,1189,1772,7.66841,-330.609
-28,-748,7.89563,331.429,0,0,0,0,0,0,0,-1,1196,1772,7.89567,-331.429
-21,-748,8.3219,332.437,0,0,0,0,0,0,0,-1,1203,1772,8.3219,-332.437
-14,-748,7.88745,333.394,0,0,0,0,0,0,0,-1,1210,1772,7.88739,-333.394
-7,-748,7.92297,334.05,0,0,0,0,0,0,0,-1,1217,1772,7.92293,-334.05
0,-748,8.10144,334.761,0.0140699,0.00577711,-0.00548344,0.0167981,0.00304885,-0.461681,0.0103335,0.0355843,1224,1772,8.10149,-334.761
7,-748,8.07568,335.469,0.0136997,0.0041065,-0.00333753,0.0147466,0.0030596,-0.303954,0.00898655,0.0301576,1231,1772,8.07574,-335.469
14,-748,8.2251,336.041,0.0146502,0.00244076,-0.00181577,0.0149145,0.00217644,-0.144552,0.00930277,0.0401053,1238,1772,8.22513,-336.041
21,-748,8.35681,336.525,0.0152335,0.000441078,-0.000521397,0.0152518,0.000422723,-0.0351895,0.0100299,0.0269561,1245,1772,8.35684,-336.525
28,-748,8.29834,336.995,0.0152833,-0.00203692,0.000682213,0.0153102,-0.00206375,0.039307,0.0109597,0.0269811,1252,1772,8.29832,-336.996
35,-748,8.44446,337.35,0.0153907,-0.00396864,0.00164397,0.0155293,-0.00410725,0.0841163,0.0119594,0.0279045,1259,1772,8.4445,-337.35
42,-748,8.89185,337.655,0.0157501,-0.00564425,0.00249074,0.0160363,-0.0059304,0.114382,0.0131222,0.0272062,1266,1772,8.89181,-337.655
49,-748,8.93372,338.001,0.0156573,-0.00717373,0.0029988,0.0160446,-0.00756104,0.128445,0.013919,0.0201448,1273,1772,8.93376,-338.001
56,-748,9.0177,338.195,0.0152258,-0.0081764,0.00322753,0.0156628,-0.00861336,0.13457,0.0142115,0.0191503,1280,1772,9.01774,-338.195
63,-748,9.11096,338.324,0.0143181,-0.00833363,0.00319563,0.0147603,-0.00877582,0.137502,0.0137342,0.0184074,1287,1772,9.11097,-338.324
70,-748,9.30396,338.329,0.0133541,-0.00764554,0.00279672,0.0137202,-0.00801163,0.130158,0.0126903,0.024848,1294,1772,9.304,-338.329
77,-748,9.49548,338.186,0.012491,-0.00635761,0.00222017,0.012749,-0.0066156,0.11568,0.0113656,0.0236804,1301,1772,9.49549,-338.186
84,-748,9.6377,338.064,0.0118349,-0.00458335,0.0014658,0.0119648,-0.00471319,0.0883476,0.00992779,0.0288428,1308,1772,9.63769,-338.064
91,-748,9.83838,337.991,0.0115365,-0.00278968,0.000926682,0.0115962,-0.00284937,0.0643273,0.00883509,0.0268121,1315,1772,9.83842,-337.991
98,-748,9.97034,337.725,0.011801,-0.000994619,0.000624751,0.0118314,-0.00102505,0.0486711,0.00825055,0.0226791,1322,1772,9.97032,-337.725
105,-748,10.1591,337.269,0.0128187,0.000628921,0.000275266,0.0128249,0.000622707,0.0225663,0.00835012,0.022115,1329,1772,10.159,-337.269
112,-748,10.1569,336.883,0.0143447,0.00202897,-6.63203e-05,0.0143451,0.00202862,-0.00538478,0.00896403,0.0325627,1336,1772,10.1568,-336.883
119,-748,10.3918,336.379,0.0154389,0.00374249,0.000131754,0.0154404,0.003741,0.0112626,0.00930087,0.0359651,1343,1772,10.3919,-336.379
126,-748,10.5109,335.857,0.0168432,0.00542245,5.23195e-05,0.0168434,0.00542221,0.00458097,0.00992802,0.0294577,1350,1772,10.5108,-335.857
133,-748,10.6027,335.257,0.0190948,0.00745873,-0.000529174,0.0191188,0.00743471,-0.0453523,0.0111288,0.0185877,1357,1772,10.6026,-335.257
140,-748,10.7104,334.546,0.0211694,0.00769856,-0.000505359,0.0211883,0.00767963,-0.0374449,0.0123864,0.0275683,1364,1772,10.7105,-334.546
147,-748,10.7509,333.829,0.0200909,0.00681204,-0.000534472,0.0201123,0.00679056,-0.0401633,0.0118142,0.0314408,1371,1772,10.7509,-333.829
154,-748,10.8005,333.058,0.0177075,0.00606687,-0.00045128,0.0177249,0.0060494,-0.0386904,0.0104039,0.0247439,1378,1772,10.8006,-333.058
161,-748,10.8868,332.067,0.0138807,0.00518324,-0.00076261,0.0139471,0.00511688,-0.0867994,0.00814691,0.0293279,1385,1772,10.8869,-332.067
168,-748,10.9385,330.937,0,0,0,0,0,0,0,-1,1392,1772,10.9385,-330.937
175,-748,11.6235,16.8242,0,0,0,0,0,0,0,-1,1399,1772,11.6236,-16.8242
182,-748,7.62476,10.3058,0,0,0,0,0,0,0,-1,1406,1772,7.62476,-10.3058
189,-748,6.15857,6.95898,0,0,0,0,0,0,0,-1,1413,1772,6.15862,-6.95896
196,-748,3.9425,8.46021,0,0,0,0,0,0,0,-1,1420,1772,3.9425,-8.46026
203,-748,3.9668,12.9835,0,0,0,0,0,0,0,-1,1427,1772,3.96678,-12.9836
210,-748,4.71472,16.8318,0,0,0,0,0,0,0,-1,1434,1772,4.71471,-16.8317
217,-748,5.38452,21.5551,0,0,0,0,0,0,0,-1,1441,1772,5.38455,-21.555
224,-748,6.14258,25.2345,0,0,0,0,0,0,0,-1,1448,1772,6.14263,-25.2345
231,-748,6.46045,29.7867,0,0,0,0,0,0,0,-1,1455,1772,6.46049,-29.7867
238,-748,7.41565,32.8574,0,0,0,0,0,0,0,-1,1462,1772,7.41562,-32.8574
245,-748,7.84912,32.0914,0,0,0,0,0,0,0,-1,1469,1772,7.84914,-32.0914
252,-748,7.57336,29.4369,0,0,0,0,0,0,0,-1,1476,1772,7.57337,-29.4369
259,-748,9.47351,46.1896,0,0,0,0,0,0,0,-1,1483,1772,9.4735,-46.1895
266,-748,8.36536,48.6908,0,0,0,0,0,0,0,-1,1490,1772,8.36541,-48.6909
273,-748,7.31421,46.6743,0,0,0,0,0,0,0,-1,1497,1772,7.31415,-46.6743
280,-748,8.76538,40.4501,0,0,0,0,0,0,0,-1,1504,1772,8.76537,-40.45
287,-748,14.161,8.32813,0,0,0,0,0,0,0,-1,1511,1772,14.161,-8.32808
294,-748,6.38525,32.4724,0,0,0,0,0,0,0,-1,1518,1772,6.38521,-32.4725
301,-748,5.40393,38.9807,0,0,0,0,0,0,0,-1,1525,1772,5.40397,-38.9807
308,-748,5.95227,37.1827,0,0,0,0,0,0,0,-1,1532,1772,5.95229,-37.1827
315,-748,7.71741,42.637,0,0,0,0,0,0,0,-1,1539,1772,7.71738,-42.637
322,-748,4.26538,29.0557,0,0,0,0,0,0,0,-1,1546,1772,4.26537,-29.0556
329,-748,3.87256,16.1473,0,0,0,0,0,0,0,-1,1553,1772,3.87259,-16.1474
336,-748,4.81006,19.6141,0,0,0,0,0,0,0,-1,1560,1772,4.81011,-19.6141
343,-748,0,0,0,0,0,0,0,0,0,-1,1567,1772,0,0
350,-748,0,0,0,0,0,0,0,0,0,-1,1574,1772,0,0
357,-748,0,0,0,0,0,0,0,0,0,-1,1581,1772,0,0
364,-748,0,0,0,0,0,0,0,0,0,-1,1588,1772,0,0
371,-748,0,0,0,0,0,0,0,0,0,-1,1595,1772,0,0
378,-748,0,0,0,0,0,0,0,0,0,-1,1602,1772,0,0
385,-748,0,0,0,0,0,0,0,0,0,-1,1609,1772,0,0
392,-748,0,0,0,0,0,0,0,0,0,-1,1616,1772,0,0
399,-748,0,0,0,0,0,0,0,0,0,-1,1623,1772,0,0
406,-748,0,0,0,0,0,0,0,0,0,-1,1630,1772,0,0
413,-748,0,0,0,0,0,0,0,0,0,-1,1637,1772,0,0
420,-748,0,0,0,0,0,0,0,0,0,-1,1644,1772,0,0
427,-748,0,0,0,0,0,0,0,0,0,-1,1651,1772,0,0
434,-748,0,0,0,0,0,0,0,0,0,-1,1658,1772,0,0
441,-748,0,0,0,0,0,0,0,0,0,-1,1665,1772,0,0
448,-748,0,0,0,0,0,0,0,0,0,-1,1672,1772,0,0
455,-748,0,0,0,0,0,0,0,0,0,-1,1679,1772,0,0
462,-748,0,0,0,0,0,0,0,0,0,-1,1686,1772,0,0
469,-748,0,0,0,0,0,0,0,0,0,-1,1693,1772,0,0
476,-748,0,0,0,0,0,0,0,0,0,-1,1700,1772,0,0
483,-748,0,0,0,0,0,0,0,0,0,-1,1707,1772,0,0
490,-748,0,0,0,0,0,0,0,0,0,-1,1714,1772,0,0
497,-748,0,0,0,0,0,0,0,0,0,-1,1721,1772,0,0
504,-748,0,0,0,0,0,0,0,0,0,-1,1728,1772,0,0
511,-748,0,0,0,0,0,0,0,0,0,-1,1735,1772,0,0
518,-748,0,0,0,0,0,0,0,0,0,-1,1742,1772,0,0
525,-748,0,0,0,0,0,0,0,0,0,-1,1749,1772,0,0
532,-748,0,0,0,0,0,0,0,0,0,-1,1756,1772,0,0
539,-748,0,0,0,0,0,0,0,0,0,-1,1763,1772,0,0
546,-748,0,0,0,0,0,0,0,0,0,-1,1770,1772,0,0
553,-748,0,0,0,0,0,0,0,0,0,-1,1777,1772,0,0
560,-748,0,0,0,0,0,0,0,0,0,-1,1784,1772,0,0
567,-748,0,0,0,0,0,0,0,0,0,-1,1791,1772,0,0
574,-748,0,0,0,0,0,0,0,0,0,-1,1798,1772,0,0
581,-748,0,0,0,0,0,0,0,0,0,-1,1805,1772,0,0
588,-748,0,0,0,0,0,0,0,0,0,-1,1812,1772,0,0
595,-748,0,0,0,0,0,0,0,0,0,-1,1819,1772,0,0
602,-748,0,0,0,0,0,0,0,0,0,-1,1826,1772,0,0
609,-748,0,0,0,0,0,0,0,0,0,-1,1833,1772,0,0
616,-748,0,0,0,0,0,0,0,0,0,-1,1840,1772,0,0
623,-748,0,0,0,0,0,0,0,0,0,-1,1847,1772,0,0
630,-748,0,0,0,0,0,0,0,0,0,-1,1854,1772,0,0
637,-748,0,0,0,0,0,0,0,0,0,-1,1861,1772,0,0
644,-748,0,0,0,0,0,0,0,0,0,-1,1868,1772,0,0
651,-748,0,0,0,0,0,0,0,0,0,-1,1875,1772,0,0
658,-748,0,0,0,0,0,0,0,0,0,-1,1882,1772,0,0
665,-748,0,0,0,0,0,0,0,0,0,-1,1889,1772,0,0
672,-748,0,0,0,0,0,0,0,0,0,-1,1896,1772,0,0
679,-748,0,0,0,0,0,0,0,0,0,-1,1903,1772,0,0
686,-748,0,0,0,0,0,0,0,0,0,-1,1910,1772,0,0
693,-748,0,0,0,0,0,0,0,0,0,-1,1917,1772,0,0
700,-748,0,0,0,0,0,0,0,0,0,-1,1924,1772,0,0
707,-748,0,0,0,0,0,0,0,0,0,-1,1931,1772,0,0
714,-748,0,0,0,0,0,0,0,0,0,-1,1938,1772,0,0
721,-748,0,0,0,0,0,0,0,0,0,-1,1945,1772,0,0
728,-748,0,0,0,0,0,0,0,0,0,-1,1952,1772,0,0
735,-748,0,0,0,0,0,0,0,0,0,-1,1959,1772,0,0
742,-748,0,0,0,0,0,0,0,0,0,-1,1966,1772,0,0
749,-748,0,0,0,0,0,0,0,0,0,-1,1973,1772,0,0
756,-748,0,0,0,0,0,0,0,0,0,-1,1980,1772,0,0
763,-748,0,0,0,0,0,0,0,0,0,-1,1987,1772,0,0
770,-748,0,0,0,0,0,0,0,0,0,-1,1994,1772,0,0
777,-748,0,0,0,0,0,0,0,0,0,-1,2001,1772,0,0
784,-748,0,0,0,0,0,0,0,0,0,-1,2008,1772,0,0
791,-748,0,0,0,0,0,0,0,0,0,-1,2015,1772,0,0
798,-748,0,0,0,0,0,0,0,0,0,-1,2022,1772,0,0
805,-748,0,0,0,0,0,0,0,0,0,-1,2029,1772,0,0
812,-748,0,0,0,0,0,0,0,0,0,-1,2036,1772,0,0
-700,-755,0,0,0,0,0,0,0,0,0,-1,524,1779,0,0
-693,-755,0,0,0,0,0,0,0,0,0,-1,531,1779,0,0
-686,-755,0,0,0,0,0,0,0,0,0,-1,538,1779,0,0
-679,-755,0,0,0,0,0,0,0,0,0,-1,545,1779,0,0
-672,-755,0,0,0,0,0,0,0,0,0,-1,552,1779,0,0
-665,-755,0,0,0,0,0,0,0,0,0,-1,559,1779,0,0
-658,-755,0,0,0,0,0,0,0,0,0,-1,566,1779,0,0
-651,-755,0,0,0,0,0,0,0,0,0,-1,573,1779,0,0
-644,-755,0,0,0,0,0,0,0,0,0,-1,580,1779,0,0
-637,-755,0,0,0,0,0,0,0,0,0,-1,587,1779,0,0
-630,-755,0,0,0,0,0,0,0,0,0,-1,594,1779,0,0
-623,-755,0,0,0,0,0,0,0,0,0,-1,601,1779,0,0
-616,-755,0,0,0,0,0,0,0,0,0,-1,608,1779,0,0
-609,-755,0,0,0,0,0,0,0,0,0,-1,615,1779,0,0
-602,-755,0,0,0,0,0,0,0,0,0,-1,622,1779,0,0
-595,-755,0,0,0,0,0,0,0,0,0,-1,629,1779,0,0
-588,-755,0,0,0,0,0,0,0,0,0,-1,636,1779,0,0
-581,-755,0,0,0,0,0,0,0,0,0,-1,643,1779,0,0
-574,-755,0,0,0,0,0,0,0,0,0,-1,650,1779,0,0
-567,-755,0,0,0,0,0,0,0,0,0,-1,657,1779,0,0
-560,-755,0,0,0,0,0,0,0,0,0,-1,664,1779,0,0
-553,-755,0,0,0,0,0,0,0,0,0,-1,671,1779,0,0
-546,-755,0,0,0,0,0,0,0,0,0,-1,678,1779,0,0
-539,-755,0,0,0,0,0,0,0,0,0,-1,685,1779,0,0
-532,-755,0,0,0,0,0,0,0,0,0,-1,692,1779,0,0
-525,-755,0,0,0,0,0,0,0,0,0,-1,699,1779,0,0
-518,-755,0,0,0,0,0,0,0,0,0,-1,706,1779,0,0
-511,-755,0,0,0,0,0,0,0,0,0,-1,713,1779,0,0
-504,-755,0,0,0,0,0,0,0,0,0,-1,720,1779,0,0
-497,-755,0,0,0,0,0,0,0,0,0,-1,727,1779,0,0
-490,-755,0,0,0,0,0,0,0,0,0,-1,734,1779,0,0
-483,-755,0,0,0,0,0,0,0,0,0,-1,741,1779,0,0
-476,-755,0,0,0,0,0,0,0,0,0,-1,748,1779,0,0
-469,-755,0,0,0,0,0,0,0,0,0,-1,755,1779,0,0
-462,-755,0,0,0,0,0,0,0,0,0,-1,762,1779,0,0
-455,-755,0,0,0,0,0,0,0,0,0,-1,769,1779,0,0
-448,-755,0,0,0,0,0,0,0,0,0,-1,776,1779,0,0
-441,-755,0,0,0,0,0,0,0,0,0,-1,783,1779,0,0
-434,-755,0,0,0,0,0,0,0,0,0,-1,790,1779,0,0
-427,-755,0,0,0,0,0,0,0,0,0,-1,797,1779,0,0
-420,-755,0,0,0,0,0,0,0,0,0,-1,804,1779,0,0
-413,-755,0,0,0,0,0,0,0,0,0,-1,811,1779,0,0
-406,-755,0,0,0,0,0,0,0,0,0,-1,818,1779,0,0
-399,-755,0,0,0,0,0,0,0,0,0,-1,825,1779,0,0
-392,-755,0,0,0,0,0,0,0,0,0,-1,832,1779,0,0
-385,-755,0,0,0,0,0,0,0,0,0,-1,839,1779,0,0
-378,-755,0,0,0,0,0,0,0,0,0,-1,846,1779,0,0
-371,-755,0,0,0,0,0,0,0,0,0,-1,853,1779,0,0
-364,-755,0,0,0,0,0,0,0,0,0,-1,860,1779,0,0
-357,-755,0,0,0,0,0,0,0,0,0,-1,867,1779,0,0
-350,-755,0,0,0,0,0,0,0,0,0,-1,874,1779,0,0
-343,-755,0,0,0,0,0,0,0,0,0,-1,881,1779,0,0
-336,-755,0,0,0,0,0,0,0,0,0,-1,888,1779,0,0
-329,-755,0,0,0,0,0,0,0,0,0,-1,895,1779,0,0
-322,-755,0,0,0,0,0,0,0,0,0,-1,902,1779,0,0
-315,-755,0,0,0,0,0,0,0,0,0,-1,909,1779,0,0
-308,-755,0,0,0,0,0,0,0,0,0,-1,916,1779,0,0
-301,-755,0,0,0,0,0,0,0,0,0,-1,923,1779,0,0
-294,-755,0,0,0,0,0,0,0,0,0,-1,930,1779,0,0
-287,-755,0,0,0,0,0,0,0,0,0,-1,937,1779,0,0
-280,-755,0,0,0,0,0,0,0,0,0,-1,944,1779,0,0
-273,-755,0,0,0,0,0,0,0,0,0,-1,951,1779,0,0
-266,-755,0,0,0,0,0,0,0,0,0,-1,958,1779,0,0
-259,-755,0,0,0,0,0,0,0,0,0,-1,965,1779,0,0
-252,-755,0,0,0,0,0,0,0,0,0,-1,972,1779,0,0
-245,-755,0,0,0,0,0,0,0,0,0,-1,979,1779,0,0
-238,-755,0,0,0,0,0,0,0,0,0,-1,986,1779,0,0
-231,-755,0,0,0,0,0,0,0,0,0,-1,993,1779,0,0
-224,-755,0,0,0,0,0,0,0,0,0,-1,1000,1779,0,0
-217,-755,0,0,0,0,0,0,0,0,0,-1,1007,1779,0,0
-210,-755,0,0,0,0,0,0,0,0,0,-1,1014,1779,0,0
-203,-755,8.97363,30.5414,0,0,0,0,0,0,0,-1,1021,1779,8.97362,-30.5414
-196,-755,8.08667,43.2203,0,0,0,0,0,0,0,-1,1028,1779,8.08666,-43.2204
-189,-755,0.725098,39.8892,0,0,0,0,0,0,0,-1,1035,1779,0.725055,-39.8891
-182,-755,14.9128,80.5583,0,0,0,0,0,0,0,-1,1042,1779,14.9128,-80.5583
-175,-755,13.1752,66.5742,0,0,0,0,0,0,0,-1,1049,1779,13.1752,-66.5742
-168,-755,13.4839,66.8397,0,0,0,0,0,0,0,-1,1056,1779,13.4839,-66.8397
-161,-755,13.7926,67.1051,0,0,0,0,0,0,0,-1,1063,1779,13.7926,-67.1051
-154,-755,7.71094,44.9023,0,0,0,0,0,0,0,-1,1070,1779,7.71089,-44.9023
-147,-755,-6.45593,10.2422,0,0,0,0,0,0,0,-1,1077,1779,-6.45594,-10.2422
-140,-755,1.33521,21.3856,0,0,0,0,0,0,0,-1,1084,1779,1.33522,-21.3857
-133,-755,2.89417,21.0964,0,0,0,0,0,0,0,-1,1091,1779,2.89422,-21.0964
-126,-755,3.26404,20.9304,0,0,0,0,0,0,0,-1,1098,1779,3.26399,-20.9305
-119,-755,5.17761,21.9325,0,0,0,0,0,0,0,-1,1105,1779,5.17761,-21.9325
-112,-755,5.40247,24.5646,0,0,0,0,0,0,0,-1,1112,1779,5.40244,-24.5646
-105,-755,7.01294,20.1539,0,0,0,0,0,0,0,-1,1119,1779,7.01295,-20.154
-98,-755,5.50708,16.9628,0,0,0,0,0,0,0,-1,1126,1779,5.5071,-16.9628
-91,-755,5.51025,12.0438,0,0,0,0,0,0,0,-1,1133,1779,5.51022,-12.0439
-84,-755,0.169312,8.66443,0,0,0,0,0,0,0,-1,1140,1779,0.16932,-8.66446
-77,-755,-0.0491943,6.87439,0,0,0,0,0,0,0,-1,1147,1779,-0.0491385,-6.87443
-70,-755,4.5686,13.2169,0,0,0,0,0,0,0,-1,1154,1779,4.56865,-13.2169
-63,-755,-1.36316,7.3147,0,0,0,0,0,0,0,-1,1161,1779,-1.36312,-7.31473
-56,-755,0.0483398,5.06079,0,0,0,0,0,0,0,-1,1168,1779,0.0483138,-5.06084
-49,-755,-1.32263,5.33716,0,0,0,0,0,0,0,-1,1175,1779,-1.32264,-5.33718
-42,-755,-2.03613,4.01672,0,0,0,0,0,0,0,-1,1182,1779,-2.0361,-4.01671
-35,-755,-2.72498,2.37476,0,0,0,0,0,0,0,-1,1189,1779,-2.72502,-2.37473
-28,-755,7.69934,180.947,0,0,0,0,0,0,0,-1,1196,1779,7.69932,-180.947
-21,-755,5.64893,256.527,0,0,0,0,0,0,0,-1,1203,1779,5.64887,-256.527
-14,-755,6.30249,331.987,0,0,0,0,0,0,0,-1,1210,1779,6.30248,-331.987
-7,-755,9.37939,333.851,0,0,0,0,0,0,0,-1,1217,1779,9.37937,-333.851
0,-755,9.04382,334.349,0,0,0,0,0,0,0,-1,1224,1779,9.04376,-334.349
7,-755,8.70813,334.847,0,0,0,0,0,0,0,-1,1231,1779,8.70816,-334.847
14,-755,9.02734,335.67,0,0,0,0,0,0,0,-1,1238,1779,9.02728,-335.67
21,-755,9.12305,336.528,0,0,0,0,0,0,0,-1,1245,1779,9.123,-336.528
28,-755,8.74658,337.057,0,0,0,0,0,0,0,-1,1252,1779,8.74653,-337.057
35,-755,8.96643,337.07,0.00327604,-0.00305787,0.00234251,0.00404824,-0.00383007,0.31843,0.00454912,0.0397494,1259,1779,8.96641,-337.07
42,-755,9.09741,337.469,0.00396252,-0.00469761,0.00279235,0.0047848,-0.00551989,0.286382,0.00595446,0.0238071,1266,1779,9.09737,-337.469
49,-755,9.12244,337.901,0.00425499,-0.00618735,0.00282914,0.00497223,-0.00690458,0.248286,0.00688727,0.0169513,1273,1779,9.12241,-337.901
56,-755,9.2395,338.101,0.00421607,-0.007256,0.0025411,0.00475373,-0.00779366,0.208512,0.00731477,0.0241709,1280,1779,9.23945,-338.101
63,-755,9.17151,338.384,0.00366829,-0.00751483,0.00191532,0.00398723,-0.00783377,0.165006,0.00694425,0.0215514,1287,1779,9.17147,-338.384
70,-755,9.33167,338.216,0.00300971,-0.00698005,0.000878441,0.00308637,-0.00705671,0.087044,0.00600379,0.0276121,1294,1779,9.33161,-338.216
77,-755,9.46204,338.022,0.00247295,-0.00582974,-0.000383612,0.00249064,-0.00584742,-0.0460724,0.00494231,0.0241127,1301,1779,9.46201,-338.022
84,-755,9.47998,337.946,0.00217508,-0.0041864,-0.0017884,0.00264338,-0.0046547,-0.256104,0.00426655,0.025454,1308,1779,9.47998,-337.946
91,-755,9.59753,337.879,0.00227072,-0.00243471,-0.00294545,0.00368775,-0.00385174,-0.448405,0.00435327,0.0277735,1315,1779,9.59751,-337.879
98,-755,9.67212,337.74,0.0029313,-0.000718421,-0.00374463,0.00527206,-0.00305918,-0.558669,0.00486627,0.0268867,1322,1779,9.67216,-337.74
105,-755,9.72668,337.115,0.00435546,0.000755157,-0.00461413,0.00750816,-0.00239754,-0.59941,0.00596738,0.0279111,1329,1779,9.72671,-337.115
112,-755,9.72119,336.374,0,0,0,0,0,0,0,-1,1336,1779,9.72125,-336.374
119,-755,10.2341,336.178,0,0,0,0,0,0,0,-1,1343,1779,10.2341,-336.178
126,-755,9.98035,335.853,0,0,0,0,0,0,0,-1,1350,1779,9.98031,-335.853
133,-755,10.1936,335.117,0,0,0,0,0,0,0,-1,1357,1779,10.1936,-335.117
140,-755,9.98853,334.382,0,0,0,0,0,0,0,-1,1364,1779,9.98847,-334.382
147,-755,9.92395,333.691,0,0,0,0,0,0,0,-1,1371,1779,9.92394,-333.691
154,-755,9.84595,332.944,0,0,0,0,0,0,0,-1,1378,1779,9.84596,-332.944
161,-755,9.948,331.946,0,0,0,0,0,0,0,-1,1385,1779,9.94803,-331.946
168,-755,3.98181,7.35901,0,0,0,0,0,0,0,-1,1392,1779,3.98184,-7.35904
175,-755,8.17065,1.34363,0,0,0,0,0,0,0,-1,1399,1779,8.1706,-1.34368
182,-755,8.09216,2.96924,0,0,0,0,0,0,0,-1,1406,1779,8.09213,-2.9693
189,-755,8.04419,4.68042,0,0,0,0,0,0,0,-1,1413,1779,8.04419,-4.68046
196,-755,7.74841,7.4541,0,0,0,0,0,0,0,-1,1420,1779,7.74842,-7.45405
203,-755,4.80554,6.88696,0,0,0,0,0,0,0,-1,1427,1779,4.80554,-6.88697
210,-755,25.1694,7.35693,0,0,0,0,0,0,0,-1,1434,1779,25.1694,-7.35688
217,-755,5.01648,16.411,0,0,0,0,0,0,0,-1,1441,1779,5.01646,-16.411
224,-755,5.18103,22.6283,0,0,0,0,0,0,0,-1,1448,1779,5.18101,-22.6283
231,-755,5.7489,30.15,0,0,0,0,0,0,0,-1,1455,1779,5.74885,-30.15
238,-755,6.56323,29.2726,0,0,0,0,0,0,0,-1,1462,1779,6.56327,-29.2726
245,-755,8.29639,28.2113,0,0,0,0,0,0,0,-1,1469,1779,8.29639,-28.2113
252,-755,6.8877,28.8699,0,0,0,0,0,0,0,-1,1476,1779,6.88774,-28.8698
259,-755,6.42676,30.8574,0,0,0,0,0,0,0,-1,1483,1779,6.42677,-30.8575
266,-755,17.255,7.86096,0,0,0,0,0,0,0,-1,1490,1779,17.255,-7.86092
273,-755,15.7932,7.59778,0,0,0,0,0,0,0,-1,1497,1779,15.7932,-7.59777
280,-755,14.6255,7.34802,0,0,0,0,0,0,0,-1,1504,1779,14.6254,-7.34806
287,-755,13.8279,7.83105,0,0,0,0,0,0,0,-1,1511,1779,13.8279,-7.83104
294,-755,12.5695,7.96814,0,0,0,0,0,0,0,-1,1518,1779,12.5694,-7.9682
301,-755,11.2659,8.27087,0,0,0,0,0,0,0,-1,1525,1779,11.2658,-8.27087
308,-755,5.17737,37.2896,0,0,0,0,0,0,0,-1,1532,1779,5.17742,-37.2896
315,-755,0.828613,31.032,0,0,0,0,0,0,0,-1,1539,1779,0.828668,-31.032
322,-755,0,0,0,0,0,0,0,0,0,-1,1546,1779,0,0
329,-755,0,0,0,0,0,0,0,0,0,-1,1553,1779,0,0
336,-755,0,0,0,0,0,0,0,0,0,-1,1560,1779,0,0
343,-755,0,0,0,0,0,0,0,0,0,-1,1567,1779,0,0
350,-755,0,0,0,0,0,0,0,0,0,-1,1574,1779,0,0
357,-755,0,0,0,0,0,0,0,0,0,-1,1581,1779,0,0
364,-755,0,0,0,0,0,0,0,0,0,-1,1588,1779,0,0
371,-755,0,0,0,0,0,0,0,0,0,-1,1595,1779,0,0
378,-755,0,0,0,0,0,0,0,0,0,-1,1602,1779,0,0
385,-755,0,0,0,0,0,0,0,0,0,-1,1609,1779,0,0
392,-755,0,0,0,0,0,0,0,0,0,-1,1616,1779,0,0
399,-755,0,0,0,0,0,0,0,0,0,-1,1623,1779,0,0
406,-755,0,0,0,0,0,0,0,0,0,-1,1630,1779,0,0
413,-755,0,0,0,0,0,0,0,0,0,-1,1637,1779,0,0
420,-755,0,0,0,0,0,0,0,0,0,-1,1644,1779,0,0
427,-755,0,0,0,0,0,0,0,0,0,-1,1651,1779,0,0
434,-755,0,0,0,0,0,0,0,0,0,-1,1658,1779,0,0
441,-755,0,0,0,0,0,0,0,0,0,-1,1665,1779,0,0
448,-755,0,0,0,0,0,0,0,0,0,-1,1672,1779,0,0
455,-755,0,0,0,0,0,0,0,0,0,-1,1679,1779,0,0
462,-755,0,0,0,0,0,0,0,0,0,-1,1686,1779,0,0
469,-755,0,0,0,0,0,0,0,0,0,-1,1693,1779,0,0
476,-755,0,0,0,0,0,0,0,0,0,-1,1700,1779,0,0
483,-755,0,0,0,0,0,0,0,0,0,-1,1707,1779,0,0
490,-755,0,0,0,0,0,0,0,0,0,-1,1714,1779,0,0
497,-755,0,0,0,0,0,0,0,0,0,-1,1721,1779,0,0
504,-755,0,0,0,0,0,0,0,0,0,-1,1728,1779,0,0
511,-755,0,0,0,0,0,0,0,0,0,-1,1735,1779,0,0
518,-755,0,0,0,0,0,0,0,0,0,-1,1742,1779,0,0
525,-755,0,0,0,0,0,0,0,0,0,-1,1749,1779,0,0
532,-755,0,0,0,0,0,0,0,0,0,-1,1756,1779,0,0
539,-755,0,0,0,0,0,0,0,0,0,-1,1763,1779,0,0
546,-755,0,0,0,0,0,0,0,0,0,-1,1770,1779,0,0
553,-755,0,0,0,0,0,0,0,0,0,-1,1777,1779,0,0
560,-755,0,0,0,0,0,0,0,0,0,-1,1784,1779,0,0
567,-755,0,0,0,0,0,0,0,0,0,-1,1791,1779,0,0
574,-755,0,0,0,0,0,0,0,0,0,-1,1798,1779,0,0
581,-755,0,0,0,0,0,0,0,0,0,-1,1805,1779,0,0
588,-755,0,0,0,0,0,0,0,0,0,-1,1812,1779,0,0
595,-755,0,0,0,0,0,0,0,0,0,-1,1819,1779,0,0
602,-755,0,0,0,0,0,0,0,0,0,-1,1826,1779,0,0
609,-755,0,0,0,0,0,0,0,0,0,-1,1833,1779,0,0
616,-755,0,0,0,0,0,0,0,0,0,-1,1840,1779,0,0
623,-755,0,0,0,0,0,0,0,0,0,-1,1847,1779,0,0
630,-755,0,0,0,0,0,0,0,0,0,-1,1854,1779,0,0
637,-755,0,0,0,0,0,0,0,0,0,-1,1861,1779,0,0
644,-755,0,0,0,0,0,0,0,0,0,-1,1868,1779,0,0
651,-755,0,0,0,0,0,0,0,0,0,-1,1875,1779,0,0
658,-755,0,0,0,0,0,0,0,0,0,-1,1882,1779,0,0
665,-755,0,0,0,0,0,0,0,0,0,-1,1889,1779,0,0
672,-755,0,0,0,0,0,0,0,0,0,-1,1896,1779,0,0
679,-755,0,0,0,0,0,0,0,0,0,-1,1903,1779,0,0
686,-755,0,0,0,0,0,0,0,0,0,-1,1910,1779,0,0
693,-755,0,0,0,0,0,0,0,0,0,-1,1917,1779,0,0
700,-755,0,0,0,0,0,0,0,0,0,-1,1924,1779,0,0
707,-755,0,0,0,0,0,0,0,0,0,-1,1931,1779,0,0
714,-755,0,0,0,0,0,0,0,0,0,-1,1938,1779,0,0
721,-755,0,0,0,0,0,0,0,0,0,-1,1945,1779,0,0
728,-755,0,0,0,0,0,0,0,0,0,-1,1952,1779,0,0
735,-755,0,0,0,0,0,0,0,0,0,-1,1959,1779,0,0
742,-755,0,0,0,0,0,0,0,0,0,-1,1966,1779,0,0
749,-755,0,0,0,0,0,0,0,0,0,-1,1973,1779,0,0
756,-755,0,0,0,0,0,0,0,0,0,-1,1980,1779,0,0
763,-755,0,0,0,0,0,0,0,0,0,-1,1987,1779,0,0
770,-755,0,0,0,0,0,0,0,0,0,-1,1994,1779,0,0
777,-755,0,0,0,0,0,0,0,0,0,-1,2001,1779,0,0
784,-755,0,0,0,0,0,0,0,0,0,-1,2008,1779,0,0
791,-755,0,0,0,0,0,0,0,0,0,-1,2015,1779,0,0
798,-755,0,0,0,0,0,0,0,0,0,-1,2022,1779,0,0
805,-755,0,0,0,0,0,0,0,0,0,-1,2029,1779,0,0
812,-755,0,0,0,0,0,0,0,0,0,-1,2036,1779,0,0
-700,-762,0,0,0,0,0,0,0,0,0,-1,524,1786,0,0
-693,-762,0,0,0,0,0,0,0,0,0,-1,531,1786,0,0
-686,-762,0,0,0,0,0,0,0,0,0,-1,538,1786,0,0
-679,-762,0,0,0,0,0,0,0,0,0,-1,545,1786,0,0
-672,-762,0,0,0,0,0,0,0,0,0,-1,552,1786,0,0
-665,-762,0,0,0,0,0,0,0,0,0,-1,559,1786,0,0
-658,-762,0,0,0,0,0,0,0,0,0,-1,566,1786,0,0
-651,-762,0,0,0,0,0,0,0,0,0,-1,573,1786,0,0
-644,-762,0,0,0,0,0,0,0,0,0,-1,580,1786,0,0
-637,-762,0,0,0,0,0,0,0,0,0,-1,587,1786,0,0
-630,-762,0,0,0,0,0,0,0,0,0,-1,594,1786,0,0
-623,-762,0,0,0,0,0,0,0,0,0,-1,601,1786,0,0
-616,-762,0,0,0,0,0,0,0,0,0,-1,608,1786,0,0
-609,-762,0,0,0,0,0,0,0,0,0,-1,615,1786,0,0
-602,-762,0,0,0,0,0,0,0,0,0,-1,622,1786,0,0
-595,-762,0,0,0,0,0,0,0,0,0,-1,629,1786,0,0
-588,-762,0,0,0,0,0,0,0,0,0,-1,636,1786,0,0
-581,-762,0,0,0,0,0,0,0,0,0,-1,643,1786,0,0
-574,-762,0,0,0,0,0,0,0,0,0,-1,650,1786,0,0
-567,-762,0,0,0,0,0,0,0,0,0,-1,657,1786,0,0
-560,-762,0,0,0,0,0,0,0,0,0,-1,664,1786,0,0
-553,-762,0,0,0,0,0,0,0,0,0,-1,671,1786,0,0
-546,-762,0,0,0,0,0,0,0,0,0,-1,678,1786,0,0
-539,-762,0,0,0,0,0,0,0,0,0,-1,685,1786,0,0
-532,-762,0,0,0,0,0,0,0,0,0,-1,692,1786,0,0
-525,-762,0,0,0,0,0,0,0,0,0,-1,699,1786,0,0
-518,-762,0,0,0,0,0,0,0,0,0,-1,706,1786,0,0
-511,-762,0,0,0,0,0,0,0,0,0,-1,713,1786,0,0
-504,-762,0,0,0,0,0,0,0,0,0,-1,720,1786,0,0
-497,-762,0,0,0,0,0,0,0,0,0,-1,727,1786,0,0
-490,-762,0,0,0,0,0,0,0,0,0,-1,734,1786,0,0
-483,-762,0,0,0,0,0,0,0,0,0,-1,741,1786,0,0
-476,-762,0,0,0,0,0,0,0,0,0,-1,748,1786,0,0
-469,-762,0,0,0,0,0,0,0,0,0,-1,755,1786,0,0
-462,-762,0,0,0,0,0,0,0,0,0,-1,762,1786,0,0
-455,-762,0,0,0,0,0,0,0,0,0,-1,769,1786,0,0
-448,-762,0,0,0,0,0,0,0,0,0,-1,776,1786,0,0
-441,-762,0,0,0,0,0,0,0,0,0,-1,783,1786,0,0
-434,-762,0,0,0,0,0,0,0,0,0,-1,790,1786,0,0
-427,-762,0,0,0,0,0,0,0,0,0,-1,797,1786,0,0
-420,-762,0,0,0,0,0,0,0,0,0,-1,804,1786,0,0
-413,-762,0,0,0,0,0,0,0,0,0,-1,811,1786,0,0
-406,-762,0,0,0,0,0,0,0,0,0,-1,818,1786,0,0
-399,-762,0,0,0,0,0,0,0,0,0,-1,825,1786,0,0
-392,-762,0,0,0,0,0,0,0,0,0,-1,832,1786,0,0
-385,-762,0,0,0,0,0,0,0,0,0,-1,839,1786,0,0
-378,-762,0,0,0,0,0,0,0,0,0,-1,846,1786,0,0
-371,-762,0,0,0,0,0,0,0,0,0,-1,853,1786,0,0
-364,-762,0,0,0,0,0,0,0,0,0,-1,860,1786,0,0
-357,-762,0,0,0,0,0,0,0,0,0,-1,867,1786,0,0
-350,-762,0,0,0,0,0,0,0,0,0,-1,874,1786,0,0
-343,-762,0,0,0,0,0,0,0,0,0,-1,881,1786,0,0
-336,-762,0,0,0,0,0,0,0,0,0,-1,888,1786,0,0
-329,-762,0,0,0,0,0,0,0,0,0,-1,895,1786,0,0
-322,-762,0,0,0,0,0,0,0,0,0,-1,902,1786,0,0
-315,-762,0,0,0,0,0,0,0,0,0,-1,909,1786,0,0
-308,-762,0,0,0,0,0,0,0,0,0,-1,916,1786,0,0
-301,-762,0,0,0,0,0,0,0,0,0,-1,923,1786,0,0
-294,-762,0,0,0,0,0,0,0,0,0,-1,930,1786,0,0
-287,-762,0,0,0,0,0,0,0,0,0,-1,937,1786,0,0
-280,-762,0,0,0,0,0,0,0,0,0,-1,944,1786,0,0
-273,-762,0,0,0,0,0,0,0,0,0,-1,951,1786,0,0
-266,-762,0,0,0,0,0,0,0,0,0,-1,958,1786,0,0
-259,-762,0,0,0,0,0,0,0,0,0,-1,965,1786,0,0
-252,-762,0,0,0,0,0,0,0,0,0,-1,972,1786,0,0
-245,-762,0,0,0,0,0,0,0,0,0,-1,979,1786,0,0
-238,-762,0,0,0,0,0,0,0,0,0,-1,986,1786,0,0
-231,-762,0,0,0,0,0,0,0,0,0,-1,993,1786,0,0
-224,-762,0,0,0,0,0,0,0,0,0,-1,1000,1786,0,0
-217,-762,0,0,0,0,0,0,0,0,0,-1,1007,1786,0,0
-210,-762,0,0,0,0,0,0,0,0,0,-1,1014,1786,0,0
-203,-762,0,0,0,0,0,0,0,0,0,-1,1021,1786,0,0
-196,-762,0,0,0,0,0,0,0,0,0,-1,1028,1786,0,0
-189,-762,0,0,0,0,0,0,0,0,0,-1,1035,1786,0,0
-182,-762,4.44226,13.2462,0,0,0,0,0,0,0,-1,1042,1786,4.44227,-13.2462
-175,-762,2.39929,44.7904,0,0,0,0,0,0,0,-1,1049,1786,2.39932,-44.7903
-168,-762,14.4796,67.9244,0,0,0,0,0,0,0,-1,1056,1786,14.4797,-67.9245
-161,-762,-3.29077,11.9508,0,0,0,0,0,0,0,-1,1063,1786,-3.29076,-11.9508
-154,-762,-4.55823,11.1176,0,0,0,0,0,0,0,-1,1070,1786,-4.55828,-11.1175
-147,-762,-6.52454,9.41418,0,0,0,0,0,0,0,-1,1077,1786,-6.52458,-9.41419
-140,-762,4.99792,5.28589,0,0,0,0,0,0,0,-1,1084,1786,4.99793,-5.28587
-133,-762,0.689819,19.2172,0,0,0,0,0,0,0,-1,1091,1786,0.689867,-19.2171
-126,-762,1.48743,19.9288,0,0,0,0,0,0,0,-1,1098,1786,1.48738,-19.9289
-119,-762,2.65637,20.208,0,0,0,0,0,0,0,-1,1105,1786,2.65632,-20.208
-112,-762,6.84705,25.5554,0,0,0,0,0,0,0,-1,1112,1786,6.84706,-25.5554
-105,-762,5.57947,21.618,0,0,0,0,0,0,0,-1,1119,1786,5.57948,-21.618
-98,-762,5.0636,17.9901,0,0,0,0,0,0,0,-1,1126,1786,5.06361,-17.9901
-91,-762,4.54773,14.3622,0,0,0,0,0,0,0,-1,1133,1786,4.54774,-14.3622
-84,-762,3.96375,10.4547,0,0,0,0,0,0,0,-1,1140,1786,3.96371,-10.4548
-77,-762,0.305054,8.49365,0,0,0,0,0,0,0,-1,1147,1786,0.305008,-8.49362
-70,-762,0.183716,6.74622,0,0,0,0,0,0,0,-1,1154,1786,0.183696,-6.74621
-63,-762,-0.883057,9.08813,0,0,0,0,0,0,0,-1,1161,1786,-0.88311,-9.08808
-56,-762,-0.578979,5.10254,0,0,0,0,0,0,0,-1,1168,1786,-0.578951,-5.10249
-49,-762,-2.04541,3.66321,0,0,0,0,0,0,0,-1,1175,1786,-2.0454,-3.66319
-42,-762,-2.23462,3.474,0,0,0,0,0,0,0,-1,1182,1786,-2.23459,-3.47399
-35,-762,-3.28992,1.68164,0,0,0,0,0,0,0,-1,1189,1786,-3.28998,-1.68164
-28,-762,-3.75378,1.37769,0,0,0,0,0,0,0,-1,1196,1786,-3.75373,-1.37767
-21,-762,9.78528,125.281,0,0,0,0,0,0,0,-1,1203,1786,9.78533,-125.281
-14,-762,0.928345,331.674,0,0,0,0,0,0,0,-1,1210,1786,0.92833,-331.674
-7,-762,8.85144,333.42,0,0,0,0,0,0,0,-1,1217,1786,8.85147,-333.42
0,-762,10.139,333.806,0,0,0,0,0,0,0,-1,1224,1786,10.1391,-333.806
7,-762,9.729,334.195,0,0,0,0,0,0,0,-1,1231,1786,9.729,-334.195
14,-762,9.57397,335.112,0,0,0,0,0,0,0,-1,1238,1786,9.57394,-335.112
21,-762,9.36621,335.966,0,0,0,0,0,0,0,-1,1245,1786,9.36623,-335.966
28,-762,9.4126,336.358,0,0,0,0,0,0,0,-1,1252,1786,9.41254,-336.358
35,-762,9.34778,336.727,0,0,0,0,0,0,0,-1,1259,1786,9.34774,-336.727
42,-762,9.08508,337.167,0,0,0,0,0,0,0,-1,1266,1786,9.08507,-337.167
49,-762,9.17847,337.632,0,0,0,0,0,0,0,-1,1273,1786,9.17848,-337.632
56,-762,9.43127,338.022,0,0,0,0,0,0,0,-1,1280,1786,9.43133,-338.022
63,-762,9.21289,338.396,0,0,0,0,0,0,0,-1,1287,1786,9.21289,-338.396
70,-762,9.23999,338.151,-0.00879623,-0.00753053,2.93589e-05,-0.00752985,-0.00879691,1.54762,0.0054912,0.0439041,1294,1786,9.23996,-338.151
77,-762,9.22937,338.124,-0.00903887,-0.00656733,-0.00202476,-0.00543101,-0.0101752,-1.05939,0.0058791,0.0429465,1301,1786,9.22934,-338.124
84,-762,9.34607,338.062,0,0,0,0,0,0,0,-1,1308,1786,9.3461,-338.062
91,-762,9.49792,337.708,0,0,0,0,0,0,0,-1,1315,1786,9.49791,-337.708
98,-762,9.18799,337.651,0,0,0,0,0,0,0,-1,1322,1786,9.18801,-337.651
105,-762,9.28186,336.961,0,0,0,0,0,0,0,-1,1329,1786,9.28181,-336.961
112,-762,7.63147,335.861,0,0,0,0,0,0,0,-1,1336,1786,7.63148,-335.861
119,-762,7.44238,334.622,0,0,0,0,0,0,0,-1,1343,1786,7.44238,-334.622
126,-762,4.48389,336.676,0,0,0,0,0,0,0,-1,1350,1786,4.48393,-336.676
133,-762,9.89514,334.86,0,0,0,0,0,0,0,-1,1357,1786,9.89519,-334.86
140,-762,2.66199,335.619,0,0,0,0,0,0,0,-1,1364,1786,2.662,-335.619
147,-762,4.67322,332.827,0,0,0,0,0,0,0,-1,1371,1786,4.67316,-332.827
154,-762,8.92639,333.266,0,0,0,0,0,0,0,-1,1378,1786,8.92643,-333.266
161,-762,8.65051,34.8102,0,0,0,0,0,0,0,-1,1385,1786,8.65054,-34.8101
168,-762,8.19287,0.880615,0,0,0,0,0,0,0,-1,1392,1786,8.19291,-0.880603
175,-762,8.33997,1.95947,0,0,0,0,0,0,0,-1,1399,1786,8.33997,-1.95942
182,-762,8.28418,3.56482,0,0,0,0,0,0,0,-1,1406,1786,8.28415,-3.56485
189,-762,8.21179,5.23389,0,0,0,0,0,0,0,-1,1413,1786,8.21183,-5.23383
196,-762,8.05969,6.95483,0,0,0,0,0,0,0,-1,1420,1786,8.05972,-6.9548
203,-762,24.0077,7.10425,0,0,0,0,0,0,0,-1,1427,1786,24.0077,-7.10426
210,-762,23.8073,7.6499,0,0,0,0,0,0,0,-1,1434,1786,23.8073,-7.64987
217,-762,23.3193,8.24426,0,0,0,0,0,0,0,-1,1441,1786,23.3194,-8.2442
224,-762,2.65149,20.6106,0,0,0,0,0,0,0,-1,1448,1786,2.65153,-20.6106
231,-762,5.46655,23.521,0,0,0,0,0,0,0,-1,1455,1786,5.46653,-23.521
238,-762,5.35632,29.7203,0,0,0,0,0,0,0,-1,1462,1786,5.35629,-29.7203
245,-762,6.93054,27.8312,0,0,0,0,0,0,0,-1,1469,1786,6.93058,-27.8312
252,-762,6.20215,28.3027,0,0,0,0,0,0,0,-1,1476,1786,6.20211,-28.3027
259,-762,5.46472,28.8762,0,0,0,0,0,0,0,-1,1483,1786,5.46476,-28.8762
266,-762,16.451,7.67773,0,0,0,0,0,0,0,-1,1490,1786,16.4511,-7.67773
273,-762,15.287,7.5304,0,0,0,0,0,0,0,-1,1497,1786,15.2869,-7.53044
280,-762,14.1501,7.38379,0,0,0,0,0,0,0,-1,1504,1786,14.1502,-7.38376
287,-762,12.6891,7.99133,0,0,0,0,0,0,0,-1,1511,1786,12.6891,-7.99135
294,-762,12.6959,8.30371,0,0,0,0,0,0,0,-1,1518,1786,12.6959,-8.30368
301,-762,11.4222,8.84143,0,0,0,0,0,0,0,-1,1525,1786,11.4223,-8.84149
308,-762,0,0,0,0,0,0,0,0,0,-1,1532,1786,0,0
315,-762,0,0,0,0,0,0,0,0,0,-1,1539,1786,0,0
322,-762,0,0,0,0,0,0,0,0,0,-1,1546,1786,0,0
329,-762,0,0,0,0,0,0,0,0,0,-1,1553,1786,0,0
336,-762,0,0,0,0,0,0,0,0,0,-1,1560,1786,0,0
343,-762,0,0,0,0,0,0,0,0,0,-1,1567,1786,0,0
350,-762,0,0,0,0,0,0,0,0,0,-1,1574,1786,0,0
357,-762,0,0,0,0,0,0,0,0,0,-1,1581,1786,0,0
364,-762,0,0,0,0,0,0,0,0,0,-1,1588,1786,0,0
371,-762,0,0,0,0,0,0,0,0,0,-1,1595,1786,0,0
378,-762,0,0,0,0,0,0,0,0,0,-1,1602,1786,0,0
385,-762,0,0,0,0,0,0,0,0,0,-1,1609,1786,0,0
392,-762,0,0,0,0,0,0,0,0,0,-1,1616,1786,0,0
399,-762,0,0,0,0,0,0,0,0,0,-1,1623,1786,0,0
406,-762,0,0,0,0,0,0,0,0,0,-1,1630,1786,0,0
413,-762,0,0,0,0,0,0,0,0,0,-1,1637,1786,0,0
420,-762,0,0,0,0,0,0,0,0,0,-1,1644,1786,0,0
427,-762,0,0,0,0,0,0,0,0,0,-1,1651,1786,0,0
434,-762,0,0,0,0,0,0,0,0,0,-1,1658,1786,0,0
441,-762,0,0,0,0,0,0,0,0,0,-1,1665,1786,0,0
448,-762,0,0,0,0,0,0,0,0,0,-1,1672,1786,0,0
455,-762,0,0,0,0,0,0,0,0,0,-1,1679,1786,0,0
462,-762,0,0,0,0,0,0,0,0,0,-1,1686,1786,0,0
469,-762,0,0,0,0,0,0,0,0,0,-1,1693,1786,0,0
476,-762,0,0,0,0,0,0,0,0,0,-1,1700,1786,0,0
483,-762,0,0,0,0,0,0,0,0,0,-1,1707,1786,0,0
490,-762,0,0,0,0,0,0,0,0,0,-1,1714,1786,0,0
497,-762,0,0,0,0,0,0,0,0,0,-1,1721,1786,0,0
504,-762,0,0,0,0,0,0,0,0,0,-1,1728,1786,0,0
511,-762,0,0,0,0,0,0,0,0,0,-1,1735,1786,0,0
518,-762,0,0,0,0,0,0,0,0,0,-1,1742,1786,0,0
525,-762,0,0,0,0,0,0,0,0,0,-1,1749,1786,0,0
532,-762,0,0,0,0,0,0,0,0,0,-1,1756,1786,0,0
539,-762,0,0,0,0,0,0,0,0,0,-1,1763,1786,0,0
546,-762,0,0,0,0,0,0,0,0,0,-1,1770,1786,0,0
553,-762,0,0,0,0,0,0,0,0,0,-1,1777,1786,0,0
560,-762,0,0,0,0,0,0,0,0,0,-1,1784,1786,0,0
567,-762,0,0,0,0,0,0,0,0,0,-1,1791,1786,0,0
574,-762,0,0,0,0,0,0,0,0,0,-1,1798,1786,0,0
581,-762,0,0,0,0,0,0,0,0,0,-1,1805,1786,0,0
588,-762,0,0,0,0,0,0,0,0,0,-1,1812,1786,0,0
595,-762,0,0,0,0,0,0,0,0,0,-1,1819,1786,0,0
602,-762,0,0,0,0,0,0,0,0,0,-1,1826,1786,0,0
609,-762,0,0,0,0,0,0,0,0,0,-1,1833,1786,0,0
616,-762,0,0,0,0,0,0,0,0,0,-1,1840,1786,0,0
623,-762,0,0,0,0,0,0,0,0,0,-1,1847,1786,0,0
630,-762,0,0,0,0,0,0,0,0,0,-1,1854,1786,0,0
637,-762,0,0,0,0,0,0,0,0,0,-1,1861,1786,0,0
644,-762,0,0,0,0,0,0,0,0,0,-1,1868,1786,0,0
651,-762,0,0,0,0,0,0,0,0,0,-1,1875,1786,0,0
658,-762,0,0,0,0,0,0,0,0,0,-1,1882,1786,0,0
665,-762,0,0,0,0,0,0,0,0,0,-1,1889,1786,0,0
672,-762,0,0,0,0,0,0,0,0,0,-1,1896,1786,0,0
679,-762,0,0,0,0,0,0,0,0,0,-1,1903,1786,0,0
686,-762,0,0,0,0,0,0,0,0,0,-1,1910,1786,0,0
693,-762,0,0,0,0,0,0,0,0,0,-1,1917,1786,0,0
700,-762,0,0,0,0,0,0,0,0,0,-1,1924,1786,0,0
707,-762,0,0,0,0,0,0,0,0,0,-1,1931,1786,0,0
714,-762,0,0,0,0,0,0,0,0,0,-1,1938,1786,0,0
721,-762,0,0,0,0,0,0,0,0,0,-1,1945,1786,0,0
728,-762,0,0,0,0,0,0,0,0,0,-1,1952,1786,0,0
735,-762,0,0,0,0,0,0,0,0,0,-1,1959,1786,0,0
742,-762,0,0,0,0,0,0,0,0,0,-1,1966,1786,0,0
749,-762,0,0,0,0,0,0,0,0,0,-1,1973,1786,0,0
756,-762,0,0,0,0,0,0,0,0,0,-1,1980,1786,0,0
763,-762,0,0,0,0,0,0,0,0,0,-1,1987,1786,0,0
770,-762,0,0,0,0,0,0,0,0,0,-1,1994,1786,0,0
777,-762,0,0,0,0,0,0,0,0,0,-1,2001,1786,0,0
784,-762,0,0,0,0,0,0,0,0,0,-1,2008,1786,0,0
791,-762,0,0,0,0,0,0,0,0,0,-1,2015,1786,0,0
798,-762,0,0,0,0,0,0,0,0,0,-1,2022,1786,0,0
805,-762,0,0,0,0,0,0,0,0,0,-1,2029,1786,0,0
812,-762,0,0,0,0,0,0,0,0,0,-1,2036,1786,0,0
-700,-769,0,0,0,0,0,0,0,0,0,-1,524,1793,0,0
-693,-769,0,0,0,0,0,0,0,0,0,-1,531,1793,0,0
-686,-769,0,0,0,0,0,0,0,0,0,-1,538,1793,0,0
-679,-769,0,0,0,0,0,0,0,0,0,-1,545,1793,0,0
-672,-769,0,0,0,0,0,0,0,0,0,-1,552,1793,0,0
-665,-769,0,0,0,0,0,0,0,0,0,-1,559,1793,0,0
-658,-769,0,0,0,0,0,0,0,0,0,-1,566,1793,0,0
-651,-769,0,0,0,0,0,0,0,0,0,-1,573,1793,0,0
-644,-769,0,0,0,0,0,0,0,0,0,-1,580,1793,0,0
-637,-769,0,0,0,0,0,0,0,0,0,-1,587,1793,0,0
-630,-769,0,0,0,0,0,0,0,0,0,-1,594,1793,0,0
-623,-769,0,0,0,0,0,0,0,0,0,-1,601,1793,0,0
-616,-769,0,0,0,0,0,0,0,0,0,-1,608,1793,0,0
-609,-769,0,0,0,0,0,0,0,0,0,-1,615,1793,0,0
-602,-769,0,0,0,0,0,0,0,0,0,-1,622,1793,0,0
-595,-769,0,0,0,0,0,0,0,0,0,-1,629,1793,0,0
-588,-769,0,0,0,0,0,0,0,0,0,-1,636,1793,0,0
-581,-769,0,0,0,0,0,0,0,0,0,-1,643,1793,0,0
-574,-769,0,0,0,0,0,0,0,0,0,-1,650,1793,0,0
-567,-769,0,0,0,0,0,0,0,0,0,-1,657,1793,0,0
-560,-769,0,0,0,0,0,0,0,0,0,-1,664,1793,0,0
-553,-769,0,0,0,0,0,0,0,0,0,-1,671,1793,0,0
-546,-769,0,0,0,0,0,0,0,0,0,-1,678,1793,0,0
-539,-769,0,0,0,0,0,0,0,0,0,-1,685,1793,0,0
-532,-769,0,0,0,0,0,0,0,0,0,-1,692,1793,0,0
-525,-769,0,0,0,0,0,0,0,0,0,-1,699,1793,0,0
-518,-769,0,0,0,0,0,0,0,0,0,-1,706,1793,0,0
-511,-769,0,0,0,0,0,0,0,0,0,-1,713,1793,0,0
-504,-769,0,0,0,0,0,0,0,0,0,-1,720,1793,0,0
-497,-769,0,0,0,0,0,0,0,0,0,-1,727,1793,0,0
-490,-769,0,0,0,0,0,0,0,0,0,-1,734,1793,0,0
-483,-769,0,0,0,0,0,0,0,0,0,-1,741,1793,0,0
-476,-769,0,0,0,0,0,0,0,0,0,-1,748,1793,0,0
-469,-769,0,0,0,0,0,0,0,0,0,-1,755,1793,0,0
-462,-769,0,0,0,0,0,0,0,0,0,-1,762,1793,0,0
-455,-769,0,0,0,0,0,0,0,0,0,-1,769,1793,0,0
-448,-769,0,0,0,0,0,0,0,0,0,-1,776,1793,0,0
-441,-769,0,0,0,0,0,0,0,0,0,-1,783,1793,0,0
-434,-769,0,0,0,0,0,0,0,0,0,-1,790,1793,0,0
-427,-769,0,0,0,0,0,0,0,0,0,-1,797,1793,0,0
-420,-769,0,0,0,0,0,0,0,0,0,-1,804,1793,0,0
-413,-769,0,0,0,0,0,0,0,0,0,-1,811,1793,0,0
-406,-769,0,0,0,0,0,0,0,0,0,-1,818,1793,0,0
-399,-769,0,0,0,0,0,0,0,0,0,-1,825,1793,0,0
-392,-769,0,0,0,0,0,0,0,0,0,-1,832,1793,0,0
-385,-769,0,0,0,0,0,0,0,0,0,-1,839,1793,0,0
-378,-769,0,0,0,0,0,0,0,0,0,-1,846,1793,0,0
-371,-769,0,0,0,0,0,0,0,0,0,-1,853,1793,0,0
-364,-769,0,0,0,0,0,0,0,0,0,-1,860,1793,0,0
-357,-769,0,0,0,0,0,0,0,0,0,-1,867,1793,0,0
-350,-769,0,0,0,0,0,0,0,0,0,-1,874,1793,0,0
-343,-769,0,0,0,0,0,0,0,0,0,-1,881,1793,0,0
-336,-769,0,0,0,0,0,0,0,0,0,-1,888,1793,0,0
-329,-769,0,0,0,0,0,0,0,0,0,-1,895,1793,0,0
-322,-769,0,0,0,0,0,0,0,0,0,-1,902,1793,0,0
-315,-769,0,0,0,0,0,0,0,0,0,-1,909,1793,0,0
-308,-769,0,0,0,0,0,0,0,0,0,-1,916,1793,0,0
-301,-769,0,0,0,0,0,0,0,0,0,-1,923,1793,0,0
-294,-769,0,0,0,0,0,0,0,0,0,-1,930,1793,0,0
-287,-769,0,0,0,0,0,0,0,0,0,-1,937,1793,0,0
-280,-769,0,0,0,0,0,0,0,0,0,-1,944,1793,0,0
-273,-769,0,0,0,0,0,0,0,0,0,-1,951,1793,0,0
-266,-769,0,0,0,0,0,0,0,0,0,-1,958,1793,0,0
-259,-769,0,0,0,0,0,0,0,0,0,-1,965,1793,0,0
-252,-769,0,0,0,0,0,0,0,0,0,-1,972,1793,0,0
-245,-769,0,0,0,0,0,0,0,0,0,-1,979,1793,0,0
-238,-769,0,0,0,0,0,0,0,0,0,-1,986,1793,0,0
-231,-769,0,0,0,0,0,0,0,0,0,-1,993,1793,0,0
-224,-769,0,0,0,0,0,0,0,0,0,-1,1000,1793,0,0
-217,-769,0,0,0,0,0,0,0,0,0,-1,1007,1793,0,0
-210,-769,0,0,0,0,0,0,0,0,0,-1,1014,1793,0,0
-203,-769,0,0,0,0,0,0,0,0,0,-1,1021,1793,0,0
-196,-769,0,0,0,0,0,0,0,0,0,-1,1028,1793,0,0
-189,-769,0,0,0,0,0,0,0,0,0,-1,1035,1793,0,0
-182,-769,0,0,0,0,0,0,0,0,0,-1,1042,1793,0,0
-175,-769,0,0,0,0,0,0,0,0,0,-1,1049,1793,0,0
-168,-769,0,0,0,0,0,0,0,0,0,-1,1056,1793,0,0
-161,-769,-3.61145,12.4761,0,0,0,0,0,0,0,-1,1063,1793,-3.6114,-12.476
-154,-769,-0.813232,5.32874,0,0,0,0,0,0,0,-1,1070,1793,-0.813269,-5.32872
-147,-769,4.26587,4.7002,0,0,0,0,0,0,0,-1,1077,1793,4.26593,-4.70022
-140,-769,4.10376,5.28589,0,0,0,0,0,0,0,-1,1084,1793,4.10371,-5.28584
-133,-769,6.422,8.21777,0,0,0,0,0,0,0,-1,1091,1793,6.42198,-8.21773
-126,-769,-0.352295,19.326,0,0,0,0,0,0,0,-1,1098,1793,-0.352235,-19.326
-119,-769,6.01685,16.2577,0,0,0,0,0,0,0,-1,1105,1793,6.01689,-16.2576
-112,-769,5.76416,27.2615,0,0,0,0,0,0,0,-1,1112,1793,5.7642,-27.2615
-105,-769,4.97009,22.8479,0,0,0,0,0,0,0,-1,1119,1793,4.97006,-22.8479
-98,-769,4.69373,18.9142,0,0,0,0,0,0,0,-1,1126,1793,4.69376,-18.9142
-91,-769,4.41748,14.9805,0,0,0,0,0,0,0,-1,1133,1793,4.41746,-14.9805
-84,-769,3.2207,12.4565,0,0,0,0,0,0,0,-1,1140,1793,3.22066,-12.4565
-77,-769,2.48816,8.98486,0,0,0,0,0,0,0,-1,1147,1793,2.48815,-8.98489
-70,-769,1.04944,11.9852,0,0,0,0,0,0,0,-1,1154,1793,1.04947,-11.9852
-63,-769,-2.39709,9.60339,0,0,0,0,0,0,0,-1,1161,1793,-2.39706,-9.6034
-56,-769,-5.84363,7.22156,0,0,0,0,0,0,0,-1,1168,1793,-5.84359,-7.22157
-49,-769,-2.41443,3.95471,0,0,0,0,0,0,0,-1,1175,1793,-2.41446,-3.95471
-42,-769,-3.1991,2.64941,0,0,0,0,0,0,0,-1,1182,1793,-3.19914,-2.64944
-35,-769,-3.50183,1.73389,0,0,0,0,0,0,0,-1,1189,1793,-3.50189,-1.7339
-28,-769,-3.96985,1.14075,0,0,0,0,0,0,0,-1,1196,1793,-3.96985,-1.14078
-21,-769,0.525635,330.234,0,0,0,0,0,0,0,-1,1203,1793,0.525654,-330.234
-14,-769,12.6311,338.804,0,0,0,0,0,0,0,-1,1210,1793,12.6312,-338.804
-7,-769,10.7988,331.468,0,0,0,0,0,0,0,-1,1217,1793,10.7988,-331.468
0,-769,10.6395,332.692,0,0,0,0,0,0,0,-1,1224,1793,10.6395,-332.692
7,-769,10.5865,333.939,0,0,0,0,0,0,0,-1,1231,1793,10.5866,-333.939
14,-769,10.5298,335.431,0,0,0,0,0,0,0,-1,1238,1793,10.5298,-335.431
21,-769,10.632,336.826,0,0,0,0,0,0,0,-1,1245,1793,10.632,-336.826
28,-769,10.7422,338.136,0,0,0,0,0,0,0,-1,1252,1793,10.7422,-338.136
35,-769,11.2866,338.294,0,0,0,0,0,0,0,-1,1259,1793,11.2866,-338.294
42,-769,11.542,337.43,0,0,0,0,0,0,0,-1,1266,1793,11.542,-337.43
49,-769,11.0133,338.198,0,0,0,0,0,0,0,-1,1273,1793,11.0133,-338.198
56,-769,10.3253,338.407,0,0,0,0,0,0,0,-1,1280,1793,10.3253,-338.407
63,-769,9.84021,338.486,0,0,0,0,0,0,0,-1,1287,1793,9.84021,-338.486
70,-769,9.02637,338.665,0,0,0,0,0,0,0,-1,1294,1793,9.02635,-338.665
77,-769,8.9353,338.606,0,0,0,0,0,0,0,-1,1301,1793,8.93531,-338.606
84,-769,8.84424,338.547,0,0,0,0,0,0,0,-1,1308,1793,8.84427,-338.547
91,-769,7.08557,340.385,0,0,0,0,0,0,0,-1,1315,1793,7.08555,-340.385
98,-769,7.77429,338.117,0,0,0,0,0,0,0,-1,1322,1793,7.7743,-338.117
105,-769,7.11841,337.506,0,0,0,0,0,0,0,-1,1329,1793,7.11836,-337.506
112,-769,6.96606,336.732,0,0,0,0,0,0,0,-1,1336,1793,6.96603,-336.732
119,-769,6.94897,335.698,0,0,0,0,0,0,0,-1,1343,1793,6.94899,-335.698
126,-769,7.77271,336.682,0,0,0,0,0,0,0,-1,1350,1793,7.7727,-336.682
133,-769,3.14539,336.819,0,0,0,0,0,0,0,-1,1357,1793,3.14545,-336.819
140,-769,2.41296,336.049,0,0,0,0,0,0,0,-1,1364,1793,2.41291,-336.049
147,-769,1.39905,335.285,0,0,0,0,0,0,0,-1,1371,1793,1.39904,-335.285
154,-769,0.304077,329.875,0,0,0,0,0,0,0,-1,1378,1793,0.304114,-329.875
161,-769,6.57019,1.53223,0,0,0,0,0,0,0,-1,1385,1793,6.57019,-1.53226
168,-769,8.27637,0.756958,0,0,0,0,0,0,0,-1,1392,1793,8.27639,-0.756944
175,-769,8.47144,2.41174,0,0,0,0,0,0,0,-1,1399,1793,8.47147,-2.4118
182,-769,8.41479,4.05994,0,0,0,0,0,0,0,-1,1406,1793,8.41479,-4.05997
189,-769,8.25049,5.68433,0,0,0,0,0,0,0,-1,1413,1793,8.25054,-5.68428
196,-769,7.97729,7.42847,0,0,0,0,0,0,0,-1,1420,1793,7.9773,-7.42848
203,-769,22.0977,6.73889,0,0,0,0,0,0,0,-1,1427,1793,22.0977,-6.7389
210,-769,22.1115,7.77246,0,0,0,0,0,0,0,-1,1434,1793,22.1115,-7.77248
217,-769,22.4723,8.79102,0,0,0,0,0,0,0,-1,1441,1793,22.4723,-8.79099
224,-769,22.1348,9.35278,0,0,0,0,0,0,0,-1,1448,1793,22.1348,-9.35283
231,-769,3.13318,19.7184,0,0,0,0,0,0,0,-1,1455,1793,3.13323,-19.7184
238,-769,5.74512,18.6597,0,0,0,0,0,0,0,-1,1462,1793,5.74512,-18.6596
245,-769,5.80798,22.87,0,0,0,0,0,0,0,-1,1469,1793,5.80796,-22.87
252,-769,6.20837,28.394,0,0,0,0,0,0,0,-1,1476,1793,6.20833,-28.3941
259,-769,10.974,17.7698,0,0,0,0,0,0,0,-1,1483,1793,10.974,-17.7698
266,-769,15.8488,7.3905,0,0,0,0,0,0,0,-1,1490,1793,15.8488,-7.39046
273,-769,14.8075,7.56152,0,0,0,0,0,0,0,-1,1497,1793,14.8075,-7.56152
280,-769,13.6519,7.43054,0,0,0,0,0,0,0,-1,1504,1793,13.6518,-7.43058
287,-769,0,0,0,0,0,0,0,0,0,-1,1511,1793,0,0
294,-769,0,0,0,0,0,0,0,0,0,-1,1518,1793,0,0
301,-769,0,0,0,0,0,0,0,0,0,-1,1525,1793,0,0
308,-769,0,0,0,0,0,0,0,0,0,-1,1532,1793,0,0
315,-769,0,0,0,0,0,0,0,0,0,-1,1539,1793,0,0
322,-769,0,0,0,0,0,0,0,0,0,-1,1546,1793,0,0
329,-769,0,0,0,0,0,0,0,0,0,-1,1553,1793,0,0
336,-769,0,0,0,0,0,0,0,0,0,-1,1560,1793,0,0
343,-769,0,0,0,0,0,0,0,0,0,-1,1567,1793,0,0
350,-769,0,0,0,0,0,0,0,0,0,-1,1574,1793,0,0
357,-769,0,0,0,0,0,0,0,0,0,-1,1581,1793,0,0
364,-769,0,0,0,0,0,0,0,0,0,-1,1588,1793,0,0
371,-769,0,0,0,0,0,0,0,0,0,-1,1595,1793,0,0
378,-769,0,0,0,0,0,0,0,0,0,-1,1602,1793,0,0
385,-769,0,0,0,0,0,0,0,0,0,-1,1609,1793,0,0
392,-769,0,0,0,0,0,0,0,0,0,-1,1616,1793,0,0
399,-769,0,0,0,0,0,0,0,0,0,-1,1623,1793,0,0
406,-769,0,0,0,0,0,0,0,0,0,-1,1630,1793,0,0
413,-769,0,0,0,0,0,0,0,0,0,-1,1637,1793,0,0
420,-769,0,0,0,0,0,0,0,0,0,-1,1644,1793,0,0
427,-769,0,0,0,0,0,0,0,0,0,-1,1651,1793,0,0
434,-769,0,0,0,0,0,0,0,0,0,-1,1658,1793,0,0
441,-769,0,0,0,0,0,0,0,0,0,-1,1665,1793,0,0
448,-769,0,0,0,0,0,0,0,0,0,-1,1672,1793,0,0
455,-769,0,0,0,0,0,0,0,0,0,-1,1679,1793,0,0
462,-769,0,0,0,0,0,0,0,0,0,-1,1686,1793,0,0
469,-769,0,0,0,0,0,0,0,0,0,-1,1693,1793,0,0
476,-769,0,0,0,0,0,0,0,0,0,-1,1700,1793,0,0
483,-769,0,0,0,0,0,0,0,0,0,-1,1707,1793,0,0
490,-769,0,0,0,0,0,0,0,0,0,-1,1714,1793,0,0
497,-769,0,0,0,0,0,0,0,0,0,-1,1721,1793,0,0
504,-769,0,0,0,0,0,0,0,0,0,-1,1728,1793,0,0
511,-769,0,0,0,0,0,0,0,0,0,-1,1735,1793,0,0
518,-769,0,0,0,0,0,0,0,0,0,-1,1742,1793,0,0
525,-769,0,0,0,0,0,0,0,0,0,-1,1749,1793,0,0
532,-769,0,0,0,0,0,0,0,0,0,-1,1756,1793,0,0
539,-769,0,0,0,0,0,0,0,0,0,-1,1763,1793,0,0
546,-769,0,0,0,0,0,0,0,0,0,-1,1770,1793,0,0
553,-769,0,0,0,0,0,0,0,0,0,-1,1777,1793,0,0
560,-769,0,0,0,0,0,0,0,0,0,-1,1784,1793,0,0
567,-769,0,0,0,0,0,0,0,0,0,-1,1791,1793,0,0
574,-769,0,0,0,0,0,0,0,0,0,-1,1798,1793,0,0
581,-769,0,0,0,0,0,0,0,0,0,-1,1805,1793,0,0
588,-769,0,0,0,0,0,0,0,0,0,-1,1812,1793,0,0
595,-769,0,0,0,0,0,0,0,0,0,-1,1819,1793,0,0
602,-769,0,0,0,0,0,0,0,0,0,-1,1826,1793,0,0
609,-769,0,0,0,0,0,0,0,0,0,-1,1833,1793,0,0
616,-769,0,0,0,0,0,0,0,0,0,-1,1840,1793,0,0
623,-769,0,0,0,0,0,0,0,0,0,-1,1847,1793,0,0
630,-769,0,0,0,0,0,0,0,0,0,-1,1854,1793,0,0
637,-769,0,0,0,0,0,0,0,0,0,-1,1861,1793,0,0
644,-769,0,0,0,0,0,0,0,0,0,-1,1868,1793,0,0
651,-769,0,0,0,0,0,0,0,0,0,-1,1875,1793,0,0
658,-769,0,0,0,0,0,0,0,0,0,-1,1882,1793,0,0
665,-769,0,0,0,0,0,0,0,0,0,-1,1889,1793,0,0
672,-769,0,0,0,0,0,0,0,0,0,-1,1896,1793,0,0
679,-769,0,0,0,0,0,0,0,0,0,-1,1903,1793,0,0
686,-769,0,0,0,0,0,0,0,0,0,-1,1910,1793,0,0
693,-769,0,0,0,0,0,0,0,0,0,-1,1917,1793,0,0
700,-769,0,0,0,0,0,0,0,0,0,-1,1924,1793,0,0
707,-769,0,0,0,0,0,0,0,0,0,-1,1931,1793,0,0
714,-769,0,0,0,0,0,0,0,0,0,-1,1938,1793,0,0
721,-769,0,0,0,0,0,0,0,0,0,-1,1945,1793,0,0
728,-769,0,0,0,0,0,0,0,0,0,-1,1952,1793,0,0
735,-769,0,0,0,0,0,0,0,0,0,-1,1959,1793,0,0
742,-769,0,0,0,0,0,0,0,0,0,-1,1966,1793,0,0
749,-769,0,0,0,0,0,0,0,0,0,-1,1973,1793,0,0
756,-769,0,0,0,0,0,0,0,0,0,-1,1980,1793,0,0
763,-769,0,0,0,0,0,0,0,0,0,-1,1987,1793,0,0
770,-769,0,0,0,0,0,0,0,0,0,-1,1994,1793,0,0
777,-769,0,0,0,0,0,0,0,0,0,-1,2001,1793,0,0
784,-769,0,0,0,0,0,0,0,0,0,-1,2008,1793,0,0
791,-769,0,0,0,0,0,0,0,0,0,-1,2015,1793,0,0
798,-769,0,0,0,0,0,0,0,0,0,-1,2022,1793,0,0
805,-769,0,0,0,0,0,0,0,0,0,-1,2029,1793,0,0
812,-769,0,0,0,0,0,0,0,0,0,-1,2036,1793,0,0
-700,-776,0,0,0,0,0,0,0,0,0,-1,524,1800,0,0
-693,-776,0,0,0,0,0,0,0,0,0,-1,531,1800,0,0
-686,-776,0,0,0,0,0,0,0,0,0,-1,538,1800,0,0
-679,-776,0,0,0,0,0,0,0,0,0,-1,545,1800,0,0
-672,-776,0,0,0,0,0,0,0,0,0,-1,552,1800,0,0
-665,-776,0,0,0,0,0,0,0,0,0,-1,559,1800,0,0
-658,-776,0,0,0,0,0,0,0,0,0,-1,566,1800,0,0
-651,-776,0,0,0,0,0,0,0,0,0,-1,573,1800,0,0
-644,-776,0,0,0,0,0,0,0,0,0,-1,580,1800,0,0
-637,-776,0,0,0,0,0,0,0,0,0,-1,587,1800,0,0
-630,-776,0,0,0,0,0,0,0,0,0,-1,594,1800,0,0
-623,-776,0,0,0,0,0,0,0,0,0,-1,601,1800,0,0
-616,-776,0,0,0,0,0,0,0,0,0,-1,608,1800,0,0
-609,-776,0,0,0,0,0,0,0,0,0,-1,615,1800,0,0
-602,-776,0,0,0,0,0,0,0,0,0,-1,622,1800,0,0
-595,-776,0,0,0,0,0,0,0,0,0,-1,629,1800,0,0
-588,-776,0,0,0,0,0,0,0,0,0,-1,636,1800,0,0
-581,-776,0,0,0,0,0,0,0,0,0,-1,643,1800,0,0
-574,-776,0,0,0,0,0,0,0,0,0,-1,650,1800,0,0
-567,-776,0,0,0,0,0,0,0,0,0,-1,657,1800,0,0
-560,-776,0,0,0,0,0,0,0,0,0,-1,664,1800,0,0
-553,-776,0,0,0,0,0,0,0,0,0,-1,671,1800,0,0
-546,-776,0,0,0,0,0,0,0,0,0,-1,678,1800,0,0
-539,-776,0,0,0,0,0,0,0,0,0,-1,685,1800,0,0
-532,-776,0,0,0,0,0,0,0,0,0,-1,692,1800,0,0
-525,-776,0,0,0,0,0,0,0,0,0,-1,699,1800,0,0
-518,-776,0,0,0,0,0,0,0,0,0,-1,706,1800,0,0
-511,-776,0,0,0,0,0,0,0,0,0,-1,713,1800,0,0
-504,-776,0,0,0,0,0,0,0,0,0,-1,720,1800,0,0
-497,-776,0,0,0,0,0,0,0,0,0,-1,727,1800,0,0
-490,-776,0,0,0,0,0,0,0,0,0,-1,734,1800,0,0
-483,-776,0,0,0,0,0,0,0,0,0,-1,741,1800,0,0
-476,-776,0,0,0,0,0,0,0,0,0,-1,748,1800,0,0
-469,-776,0,0,0,0,0,0,0,0,0,-1,755,1800,0,0
-462,-776,0,0,0,0,0,0,0,0,0,-1,762,1800,0,0
-455,-776,0,0,0,0,0,0,0,0,0,-1,769,1800,0,0
-448,-776,0,0,0,0,0,0,0,0,0,-1,776,1800,0,0
-441,-776,0,0,0,0,0,0,0,0,0,-1,783,1800,0,0
-434,-776,0,0,0,0,0,0,0,0,0,-1,790,1800,0,0
-427,-776,0,0,0,0,0,0,0,0,0,-1,797,1800,0,0
-420,-776,0,0,0,0,0,0,0,0,0,-1,804,1800,0,0
-413,-776,0,0,0,0,0,0,0,0,0,-1,811,1800,0,0
-406,-776,0,0,0,0,0,0,0,0,0,-1,818,1800,0,0
-399,-776,0,0,0,0,0,0,0,0,0,-1,825,1800,0,0
-392,-776,0,0,0,0,0,0,0,0,0,-1,832,1800,0,0
-385,-776,0,0,0,0,0,0,0,0,0,-1,839,1800,0,0
-378,-776,0,0,0,0,0,0,0,0,0,-1,846,1800,0,0
-371,-776,0,0,0,0,0,0,0,0,0,-1,853,1800,0,0
-364,-776,0,0,0,0,0,0,0,0,0,-1,860,1800,0,0
-357,-776,0,0,0,0,0,0,0,0,0,-1,867,1800,0,0
-350,-776,0,0,0,0,0,0,0,0,0,-1,874,1800,0,0
-343,-776,0,0,0,0,0,0,0,0,0,-1,881,1800,0,0
-336,-776,0,0,0,0,0,0,0,0,0,-1,888,1800,0,0
-329,-776,0,0,0,0,0,0,0,0,0,-1,895,1800,0,0
-322,-776,0,0,0,0,0,0,0,0,0,-1,902,1800,0,0
-315,-776,0,0,0,0,0,0,0,0,0,-1,909,1800,0,0
-308,-776,0,0,0,0,0,0,0,0,0,-1,916,1800,0,0
-301,-776,0,0,0,0,0,0,0,0,0,-1,923,1800,0,0
-294,-776,0,0,0,0,0,0,0,0,0,-1,930,1800,0,0
-287,-776,0,0,0,0,0,0,0,0,0,-1,937,1800,0,0
-280,-776,0,0,0,0,0,0,0,0,0,-1,944,1800,0,0
-273,-776,0,0,0,0,0,0,0,0,0,-1,951,1800,0,0
-266,-776,0,0,0,0,0,0,0,0,0,-1,958,1800,0,0
-259,-776,0,0,0,0,0,0,0,0,0,-1,965,1800,0,0
-252,-776,0,0,0,0,0,0,0,0,0,-1,972,1800,0,0
-245,-776,0,0,0,0,0,0,0,0,0,-1,979,1800,0,0
-238,-776,0,0,0,0,0,0,0,0,0,-1,986,1800,0,0
-231,-776,0,0,0,0,0,0,0,0,0,-1,993,1800,0,0
-224,-776,0,0,0,0,0,0,0,0,0,-1,1000,1800,0,0
-217,-776,0,0,0,0,0,0,0,0,0,-1,1007,1800,0,0
-210,-776,0,0,0,0,0,0,0,0,0,-1,1014,1800,0,0
-203,-776,0,0,0,0,0,0,0,0,0,-1,1021,1800,0,0
-196,-776,0,0,0,0,0,0,0,0,0,-1,1028,1800,0,0
-189,-776,0,0,0,0,0,0,0,0,0,-1,1035,1800,0,0
-182,-776,0,0,0,0,0,0,0,0,0,-1,1042,1800,0,0
-175,-776,0,0,0,0,0,0,0,0,0,-1,1049,1800,0,0
-168,-776,0,0,0,0,0,0,0,0,0,-1,1056,1800,0,0
-161,-776,0,0,0,0,0,0,0,0,0,-1,1063,1800,0,0
-154,-776,0,0,0,0,0,0,0,0,0,-1,1070,1800,0,0
-147,-776,0,0,0,0,0,0,0,0,0,-1,1077,1800,0,0
-140,-776,2.98499,5.20911,0,0,0,0,0,0,0,-1,1084,1800,2.98493,-5.2091
-133,-776,6.72363,9.35828,0,0,0,0,0,0,0,-1,1091,1800,6.72358,-9.35824
-126,-776,6.55029,13.7832,0,0,0,0,0,0,0,-1,1098,1800,6.55029,-13.7832
-119,-776,5.72107,13.7787,0,0,0,0,0,0,0,-1,1105,1800,5.72106,-13.7787
-112,-776,6.84998,20.4421,0,0,0,0,0,0,0,-1,1112,1800,6.84993,-20.4421
-105,-776,4.46863,24.6742,0,0,0,0,0,0,0,-1,1119,1800,4.46868,-24.6742
-98,-776,4.31616,19.7659,0,0,0,0,0,0,0,-1,1126,1800,4.31619,-19.7659
-91,-776,3.30225,18.134,0,0,0,0,0,0,0,-1,1133,1800,3.30222,-18.134
-84,-776,2.67932,14.3162,0,0,0,0,0,0,0,-1,1140,1800,2.67926,-14.3161
-77,-776,0.580078,11.1272,0,0,0,0,0,0,0,-1,1147,1800,0.58002,-11.1272
-70,-776,-0.562866,12.3163,0,0,0,0,0,0,0,-1,1154,1800,-0.562897,-12.3163
-63,-776,-3.96106,9.97656,0,0,0,0,0,0,0,-1,1161,1800,-3.961,-9.97654
-56,-776,-7.35913,7.63672,0,0,0,0,0,0,0,-1,1168,1800,-7.3591,-7.63676
-49,-776,-7.62952,3.1908,0,0,0,0,0,0,0,-1,1175,1800,-7.62955,-3.19076
-42,-776,-3.41272,3.0249,0,0,0,0,0,0,0,-1,1182,1800,-3.41269,-3.02488
-35,-776,-3.71753,1.63635,0,0,0,0,0,0,0,-1,1189,1800,-3.71755,-1.63631
-28,-776,-4.03979,0.716064,0,0,0,0,0,0,0,-1,1196,1800,-4.03977,-0.716055
-21,-776,12.6561,338.696,0,0,0,0,0,0,0,-1,1203,1800,12.6561,-338.696
-14,-776,12.7963,333.22,0,0,0,0,0,0,0,-1,1210,1800,12.7963,-333.22
-7,-776,11.4039,331.128,0,0,0,0,0,0,0,-1,1217,1800,11.4039,-331.128
0,-776,11.3622,332.323,0,0,0,0,0,0,0,-1,1224,1800,11.3621,-332.323
7,-776,11.3683,333.576,0,0,0,0,0,0,0,-1,1231,1800,11.3682,-333.576
14,-776,11.494,335.122,0,0,0,0,0,0,0,-1,1238,1800,11.494,-335.122
21,-776,11.7535,335.853,0,0,0,0,0,0,0,-1,1245,1800,11.7535,-335.853
28,-776,11.5133,336.395,0,0,0,0,0,0,0,-1,1252,1800,11.5133,-336.395
35,-776,11.9178,336.317,0,0,0,0,0,0,0,-1,1259,1800,11.9178,-336.317
42,-776,11.4862,337.108,0,0,0,0,0,0,0,-1,1266,1800,11.4861,-337.108
49,-776,11.0331,337.969,-0.0321879,-0.00779331,0.00579615,-0.00648618,-0.033495,1.34899,0.0205127,0.0450946,1273,1800,11.0331,-337.969
56,-776,10.5988,338.636,-0.0318716,-0.00950761,0.00334399,-0.0090183,-0.0323609,1.4255,0.0192841,0.0480505,1280,1800,10.5988,-338.636
63,-776,9.95398,338.819,0,0,0,0,0,0,0,-1,1287,1800,9.95397,-338.819
70,-776,9.57178,339.041,-0.0313493,-0.010599,-0.00479015,-0.00954656,-0.0324017,-1.35453,0.0192259,0.0464734,1294,1800,9.57181,-339.041
77,-776,9.09277,339.27,-0.0306842,-0.00995304,-0.0101378,-0.00581968,-0.0348176,-1.18365,0.0215355,0.047366,1301,1800,9.09282,-339.27
84,-776,8.42908,339.843,-0.0297097,-0.00851687,-0.0158952,-9.86643e-06,-0.0382167,-1.07939,0.0254745,0.0474966,1308,1800,8.42908,-339.843
91,-776,7.70557,340.771,0,0,0,0,0,0,0,-1,1315,1800,7.70552,-340.771
98,-776,7.01453,341.653,0,0,0,0,0,0,0,-1,1322,1800,7.0145,-341.653
105,-776,6.37866,337.976,0,0,0,0,0,0,0,-1,1329,1800,6.37868,-337.976
112,-776,6.02625,337.455,0,0,0,0,0,0,0,-1,1336,1800,6.02627,-337.455
119,-776,5.90967,337.201,0,0,0,0,0,0,0,-1,1343,1800,5.90967,-337.201
126,-776,5.76062,337.049,0,0,0,0,0,0,0,-1,1350,1800,5.7606,-337.049
133,-776,5.67029,336.779,0,0,0,0,0,0,0,-1,1357,1800,5.67024,-336.779
140,-776,2.16382,336.48,0,0,0,0,0,0,0,-1,1364,1800,2.16381,-336.48
147,-776,4.79407,332.249,0,0,0,0,0,0,0,-1,1371,1800,4.7941,-332.249
154,-776,38.4338,21.854,0,0,0,0,0,0,0,-1,1378,1800,38.4339,-21.854
161,-776,6.50293,1.1731,0,0,0,0,0,0,0,-1,1385,1800,6.5029,-1.17313
168,-776,8.44971,1.22913,0,0,0,0,0,0,0,-1,1392,1800,8.44974,-1.22915
175,-776,8.61523,2.87061,0,0,0,0,0,0,0,-1,1399,1800,8.6152,-2.87063
182,-776,8.54065,4.60645,0,0,0,0,0,0,0,-1,1406,1800,8.5407,-4.60643
189,-776,8.35303,6.28223,0,0,0,0,0,0,0,-1,1413,1800,8.35297,-6.28225
196,-776,8.0387,8.21704,0,0,0,0,0,0,0,-1,1420,1800,8.03865,-8.217
203,-776,7.91736,9.79919,0,0,0,0,0,0,0,-1,1427,1800,7.91735,-9.79922
210,-776,20.2479,7.85718,0,0,0,0,0,0,0,-1,1434,1800,20.248,-7.85719
217,-776,21.5171,9.3418,0,0,0,0,0,0,0,-1,1441,1800,21.5171,-9.34182
224,-776,3.09253,14.9313,0,0,0,0,0,0,0,-1,1448,1800,3.09254,-14.9313
231,-776,20.8671,9.21057,0,0,0,0,0,0,0,-1,1455,1800,20.867,-9.21054
238,-776,20.7511,9.05847,0,0,0,0,0,0,0,-1,1462,1800,20.7511,-9.05848
245,-776,3.80823,15.4108,0,0,0,0,0,0,0,-1,1469,1800,3.80826,-15.4108
252,-776,8.57837,20.2009,0,0,0,0,0,0,0,-1,1476,1800,8.57841,-20.2009
259,-776,14.1882,7.69055,0,0,0,0,0,0,0,-1,1483,1800,14.1882,-7.69061
266,-776,0,0,0,0,0,0,0,0,0,-1,1490,1800,0,0
273,-776,0,0,0,0,0,0,0,0,0,-1,1497,1800,0,0
280,-776,0,0,0,0,0,0,0,0,0,-1,1504,1800,0,0
287,-776,0,0,0,0,0,0,0,0,0,-1,1511,1800,0,0
294,-776,0,0,0,0,0,0,0,0,0,-1,1518,1800,0,0
301,-776,0,0,0,0,0,0,0,0,0,-1,1525,1800,0,0
308,-776,0,0,0,0,0,0,0,0,0,-1,1532,1800,0,0
315,-776,0,0,0,0,0,0,0,0,0,-1,1539,1800,0,0
322,-776,0,0,0,0,0,0,0,0,0,-1,1546,1800,0,0
329,-776,0,0,0,0,0,0,0,0,0,-1,1553,1800,0,0
336,-776,0,0,0,0,0,0,0,0,0,-1,1560,1800,0,0
343,-776,0,0,0,0,0,0,0,0,0,-1,1567,1800,0,0
350,-776,0,0,0,0,0,0,0,0,0,-1,1574,1800,0,0
357,-776,0,0,0,0,0,0,0,0,0,-1,1581,1800,0,0
364,-776,0,0,0,0,0,0,0,0,0,-1,1588,1800,0,0
371,-776,0,0,0,0,0,0,0,0,0,-1,1595,1800,0,0
378,-776,0,0,0,0,0,0,0,0,0,-1,1602,1800,0,0
385,-776,0,0,0,0,0,0,0,0,0,-1,1609,1800,0,0
392,-776,0,0,0,0,0,0,0,0,0,-1,1616,1800,0,0
399,-776,0,0,0,0,0,0,0,0,0,-1,1623,1800,0,0
406,-776,0,0,0,0,0,0,0,0,0,-1,1630,1800,0,0
413,-776,0,0,0,0,0,0,0,0,0,-1,1637,1800,0,0
420,-776,0,0,0,0,0,0,0,0,0,-1,1644,1800,0,0
427,-776,0,0,0,0,0,0,0,0,0,-1,1651,1800,0,0
434,-776,0,0,0,0,0,0,0,0,0,-1,1658,1800,0,0
441,-776,0,0,0,0,0,0,0,0,0,-1,1665,1800,0,0
448,-776,0,0,0,0,0,0,0,0,0,-1,1672,1800,0,0
455,-776,0,0,0,0,0,0,0,0,0,-1,1679,1800,0,0
462,-776,0,0,0,0,0,0,0,0,0,-1,1686,1800,0,0
469,-776,0,0,0,0,0,0,0,0,0,-1,1693,1800,0,0
476,-776,0,0,0,0,0,0,0,0,0,-1,1700,1800,0,0
483,-776,0,0,0,0,0,0,0,0,0,-1,1707,1800,0,0
490,-776,0,0,0,0,0,0,0,0,0,-1,1714,1800,0,0
497,-776,0,0,0,0,0,0,0,0,0,-1,1721,1800,0,0
504,-776,0,0,0,0,0,0,0,0,0,-1,1728,1800,0,0
511,-776,0,0,0,0,0,0,0,0,0,-1,1735,1800,0,0
518,-776,0,0,0,0,0,0,0,0,0,-1,1742,1800,0,0
525,-776,0,0,0,0,0,0,0,0,0,-1,1749,1800,0,0
532,-776,0,0,0,0,0,0,0,0,0,-1,1756,1800,0,0
539,-776,0,0,0,0,0,0,0,0,0,-1,1763,1800,0,0
546,-776,0,0,0,0,0,0,0,0,0,-1,1770,1800,0,0
553,-776,0,0,0,0,0,0,0,0,0,-1,1777,1800,0,0
560,-776,0,0,0,0,0,0,0,0,0,-1,1784,1800,0,0
567,-776,0,0,0,0,0,0,0,0,0,-1,1791,1800,0,0
574,-776,0,0,0,0,0,0,0,0,0,-1,1798,1800,0,0
581,-776,0,0,0,0,0,0,0,0,0,-1,1805,1800,0,0
588,-776,0,0,0,0,0,0,0,0,0,-1,1812,1800,0,0
595,-776,0,0,0,0,0,0,0,0,0,-1,1819,1800,0,0
602,-776,0,0,0,0,0,0,0,0,0,-1,1826,1800,0,0
609,-776,0,0,0,0,0,0,0,0,0,-1,1833,1800,0,0
616,-776,0,0,0,0,0,0,0,0,0,-1,1840,1800,0,0
623,-776,0,0,0,0,0,0,0,0,0,-1,1847,1800,0,0
630,-776,0,0,0,0,0,0,0,0,0,-1,1854,1800,0,0
637,-776,0,0,0,0,0,0,0,0,0,-1,1861,1800,0,0
644,-776,0,0,0,0,0,0,0,0,0,-1,1868,1800,0,0
651,-776,0,0,0,0,0,0,0,0,0,-1,1875,1800,0,0
658,-776,0,0,0,0,0,0,0,0,0,-1,1882,1800,0,0
665,-776,0,0,0,0,0,0,0,0,0,-1,1889,1800,0,0
672,-776,0,0,0,0,0,0,0,0,0,-1,1896,1800,0,0
679,-776,0,0,0,0,0,0,0,0,0,-1,1903,1800,0,0
686,-776,0,0,0,0,0,0,0,0,0,-1,1910,1800,0,0
693,-776,0,0,0,0,0,0,0,0,0,-1,1917,1800,0,0
700,-776,0,0,0,0,0,0,0,0,0,-1,1924,1800,0,0
707,-776,0,0,0,0,0,0,0,0,0,-1,1931,1800,0,0
714,-776,0,0,0,0,0,0,0,0,0,-1,1938,1800,0,0
721,-776,0,0,0,0,0,0,0,0,0,-1,1945,1800,0,0
728,-776,0,0,0,0,0,0,0,0,0,-1,1952,1800,0,0
735,-776,0,0,0,0,0,0,0,0,0,-1,1959,1800,0,0
742,-776,0,0,0,0,0,0,0,0,0,-1,1966,1800,0,0
749,-776,0,0,0,0,0,0,0,0,0,-1,1973,1800,0,0
756,-776,0,0,0,0,0,0,0,0,0,-1,1980,1800,0,0
763,-776,0,0,0,0,0,0,0,0,0,-1,1987,1800,0,0
770,-776,0,0,0,0,0,0,0,0,0,-1,1994,1800,0,0
777,-776,0,0,0,0,0,0,0,0,0,-1,2001,1800,0,0
784,-776,0,0,0,0,0,0,0,0,0,-1,2008,1800,0,0
791,-776,0,0,0,0,0,0,0,0,0,-1,2015,1800,0,0
798,-776,0,0,0,0,0,0,0,0,0,-1,2022,1800,0,0
805,-776,0,0,0,0,0,0,0,0,0,-1,2029,1800,0,0
812,-776,0,0,0,0,0,0,0,0,0,-1,2036,1800,0,0
-700,-783,0,0,0,0,0,0,0,0,0,-1,524,1807,0,0
-693,-783,0,0,0,0,0,0,0,0,0,-1,531,1807,0,0
-686,-783,0,0,0,0,0,0,0,0,0,-1,538,1807,0,0
-679,-783,0,0,0,0,0,0,0,0,0,-1,545,1807,0,0
-672,-783,0,0,0,0,0,0,0,0,0,-1,552,1807,0,0
-665,-783,0,0,0,0,0,0,0,0,0,-1,559,1807,0,0
-658,-783,0,0,0,0,0,0,0,0,0,-1,566,1807,0,0
-651,-783,0,0,0,0,0,0,0,0,0,-1,573,1807,0,0
-644,-783,0,0,0,0,0,0,0,0,0,-1,580,1807,0,0
-637,-783,0,0,0,0,0,0,0,0,0,-1,587,1807,0,0
-630,-783,0,0,0,0,0,0,0,0,0,-1,594,1807,0,0
-623,-783,0,0,0,0,0,0,0,0,0,-1,601,1807,0,0
-616,-783,0,0,0,0,0,0,0,0,0,-1,608,1807,0,0
-609,-783,0,0,0,0,0,0,0,0,0,-1,615,1807,0,0
-602,-783,0,0,0,0,0,0,0,0,0,-1,622,1807,0,0
-595,-783,0,0,0,0,0,0,0,0,0,-1,629,1807,0,0
-588,-783,0,0,0,0,0,0,0,0,0,-1,636,1807,0,0
-581,-783,0,0,0,0,0,0,0,0,0,-1,643,1807,0,0
-574,-783,0,0,0,0,0,0,0,0,0,-1,650,1807,0,0
-567,-783,0,0,0,0,0,0,0,0,0,-1,657,1807,0,0
-560,-783,0,0,0,0,0,0,0,0,0,-1,664,1807,0,0
-553,-783,0,0,0,0,0,0,0,0,0,-1,671,1807,0,0
-546,-783,0,0,0,0,0,0,0,0,0,-1,678,1807,0,0
-539,-783,0,0,0,0,0,0,0,0,0,-1,685,1807,0,0
-532,-783,0,0,0,0,0,0,0,0,0,-1,692,1807,0,0
-525,-783,0,0,0,0,0,0,0,0,0,-1,699,1807,0,0
-518,-783,0,0,0,0,0,0,0,0,0,-1,706,1807,0,0
-511,-783,0,0,0,0,0,0,0,0,0,-1,713,1807,0,0
-504,-783,0,0,0,0,0,0,0,0,0,-1,720,1807,0,0
-497,-783,0,0,0,0,0,0,0,0,0,-1,727,1807,0,0
-490,-783,0,0,0,0,0,0,0,0,0,-1,734,1807,0,0
-483,-783,0,0,0,0,0,0,0,0,0,-1,741,1807,0,0
-476,-783,0,0,0,0,0,0,0,0,0,-1,748,1807,0,0
-469,-783,0,0,0,0,0,0,0,0,0,-1,755,1807,0,0
-462,-783,0,0,0,0,0,0,0,0,0,-1,762,1807,0,0
-455,-783,0,0,0,0,0,0,0,0,0,-1,769,1807,0,0
-448,-783,0,0,0,0,0,0,0,0,0,-1,776,1807,0,0
-441,-783,0,0,0,0,0,0,0,0,0,-1,783,1807,0,0
-434,-783,0,0,0,0,0,0,0,0,0,-1,790,1807,0,0
-427,-783,0,0,0,0,0,0,0,0,0,-1,797,1807,0,0
-420,-783,0,0,0,0,0,0,0,0,0,-1,804,1807,0,0
-413,-783,0,0,0,0,0,0,0,0,0,-1,811,1807,0,0
-406,-783,0,0,0,0,0,0,0,0,0,-1,818,1807,0,0
-399,-783,0,0,0,0,0,0,0,0,0,-1,825,1807,0,0
-392,-783,0,0,0,0,0,0,0,0,0,-1,832,1807,0,0
-385,-783,0,0,0,0,0,0,0,0,0,-1,839,1807,0,0
-378,-783,0,0,0,0,0,0,0,0,0,-1,846,1807,0,0
-371,-783,0,0,0,0,0,0,0,0,0,-1,853,1807,0,0
-364,-783,0,0,0,0,0,0,0,0,0,-1,860,1807,0,0
-357,-783,0,0,0,0,0,0,0,0,0,-1,867,1807,0,0
-350,-783,0,0,0,0,0,0,0,0,0,-1,874,1807,0,0
-343,-783,0,0,0,0,0,0,0,0,0,-1,881,1807,0,0
-336,-783,0,0,0,0,0,0,0,0,0,-1,888,1807,0,0
-329,-783,0,0,0,0,0,0,0,0,0,-1,895,1807,0,0
-322,-783,0,0,0,0,0,0,0,0,0,-1,902,1807,0,0
-315,-783,0,0,0,0,0,0,0,0,0,-1,909,1807,0,0
-308,-783,0,0,0,0,0,0,0,0,0,-1,916,1807,0,0
-301,-783,0,0,0,0,0,0,0,0,0,-1,923,1807,0,0
-294,-783,0,0,0,0,0,0,0,0,0,-1,930,1807,0,0
-287,-783,0,0,0,0,0,0,0,0,0,-1,937,1807,0,0
-280,-783,0,0,0,0,0,0,0,0,0,-1,944,1807,0,0
-273,-783,0,0,0,0,0,0,0,0,0,-1,951,1807,0,0
-266,-783,0,0,0,0,0,0,0,0,0,-1,958,1807,0,0
-259,-783,0,0,0,0,0,0,0,0,0,-1,965,1807,0,0
-252,-783,0,0,0,0,0,0,0,0,0,-1,972,1807,0,0
-245,-783,0,0,0,0,0,0,0,0,0,-1,979,1807,0,0
-238,-783,0,0,0,0,0,0,0,0,0,-1,986,1807,0,0
-231,-783,0,0,0,0,0,0,0,0,0,-1,993,1807,0,0
-224,-783,0,0,0,0,0,0,0,0,0,-1,1000,1807,0,0
-217,-783,0,0,0,0,0,0,0,0,0,-1,1007,1807,0,0
-210,-783,0,0,0,0,0,0,0,0,0,-1,1014,1807,0,0
-203,-783,0,0,0,0,0,0,0,0,0,-1,1021,1807,0,0
-196,-783,0,0,0,0,0,0,0,0,0,-1,1028,1807,0,0
-189,-783,0,0,0,0,0,0,0,0,0,-1,1035,1807,0,0
-182,-783,0,0,0,0,0,0,0,0,0,-1,1042,1807,0,0
-175,-783,0,0,0,0,0,0,0,0,0,-1,1049,1807,0,0
-168,-783,0,0,0,0,0,0,0,0,0,-1,1056,1807,0,0
-161,-783,0,0,0,0,0,0,0,0,0,-1,1063,1807,0,0
-154,-783,0,0,0,0,0,0,0,0,0,-1,1070,1807,0,0
-147,-783,0,0,0,0,0,0,0,0,0,-1,1077,1807,0,0
-140,-783,0,0,0,0,0,0,0,0,0,-1,1084,1807,0,0
-133,-783,0,0,0,0,0,0,0,0,0,-1,1091,1807,0,0
-126,-783,0,0,0,0,0,0,0,0,0,-1,1098,1807,0,0
-119,-783,0,0,0,0,0,0,0,0,0,-1,1105,1807,0,0
-112,-783,5.33936,14.7699,0,0,0,0,0,0,0,-1,1112,1807,5.33931,-14.7699
-105,-783,6.44263,21.2224,0,0,0,0,0,0,0,-1,1119,1807,6.44263,-21.2224
-98,-783,5.54773,20.5695,0,0,0,0,0,0,0,-1,1126,1807,5.54772,-20.5695
-91,-783,2.6106,20.2491,0,0,0,0,0,0,0,-1,1133,1807,2.61056,-20.2492
-84,-783,-0.0491943,14.5743,0,0,0,0,0,0,0,-1,1140,1807,-0.0491562,-14.5743
-77,-783,0.332764,12.7788,0,0,0,0,0,0,0,-1,1147,1807,0.332743,-12.7788
-70,-783,-1.93176,5.12817,0,0,0,0,0,0,0,-1,1154,1807,-1.93171,-5.12813
-63,-783,-5.31702,10.54,0,0,0,0,0,0,0,-1,1161,1807,-5.31703,-10.54
-56,-783,-6.26135,6.9679,0,0,0,0,0,0,0,-1,1168,1807,-6.26136,-6.96785
-49,-783,-3.17688,4.59705,0,0,0,0,0,0,0,-1,1175,1807,-3.17685,-4.5971
-42,-783,-3.72876,3.1405,0,0,0,0,0,0,0,-1,1182,1807,-3.72874,-3.14055
-35,-783,-3.97046,1.59399,0,0,0,0,0,0,0,-1,1189,1807,-3.97041,-1.59401
-28,-783,-4.12195,0.270386,0,0,0,0,0,0,0,-1,1196,1807,-4.12197,-0.270408
-21,-783,13.6185,331.794,0,0,0,0,0,0,0,-1,1203,1807,13.6185,-331.794
-14,-783,13.7941,332.618,0,0,0,0,0,0,0,-1,1210,1807,13.7941,-332.618
-7,-783,13.1582,333.783,0,0,0,0,0,0,0,-1,1217,1807,13.1582,-333.783
0,-783,13.0708,334.14,0,0,0,0,0,0,0,-1,1224,1807,13.0708,-334.139
7,-783,13.0671,334.44,0,0,0,0,0,0,0,-1,1231,1807,13.0671,-334.44
14,-783,13.0845,334.74,0,0,0,0,0,0,0,-1,1238,1807,13.0844,-334.74
21,-783,12.9631,335.103,0,0,0,0,0,0,0,-1,1245,1807,12.9631,-335.103
28,-783,11.3805,334.92,0,0,0,0,0,0,0,-1,1252,1807,11.3805,-334.92
35,-783,11.6631,335.426,0,0,0,0,0,0,0,-1,1259,1807,11.6631,-335.426
42,-783,11.1183,337.699,0,0,0,0,0,0,0,-1,1266,1807,11.1183,-337.699
49,-783,11.0404,338.095,-0.0436006,-0.0087537,0.00702876,-0.00738939,-0.0449649,1.37908,0.0278423,0.0448893,1273,1807,11.0404,-338.095
56,-783,10.5061,338.591,-0.0429797,-0.0108886,0.00301371,-0.0106081,-0.0432602,1.47797,0.0260348,0.0470626,1280,1807,10.5061,-338.591
63,-783,10.0677,339.152,0,0,0,0,0,0,0,-1,1287,1807,10.0677,-339.152
70,-783,9.66296,339.316,-0.041319,-0.0123319,-0.00990004,-0.0092734,-0.0443774,-1.27116,0.0270294,0.0451336,1294,1807,9.663,-339.316
77,-783,9.23926,339.751,-0.0399931,-0.0114913,-0.0182024,-0.0026248,-0.0488596,-1.11752,0.0317344,0.0480549,1301,1807,9.23925,-339.751
84,-783,8.53467,340.107,-0.0382793,-0.00951888,-0.0269811,0.00667494,-0.0544731,-1.03024,0.0387326,0.0495127,1308,1807,8.53464,-340.107
91,-783,7.98596,340.446,0,0,0,0,0,0,0,-1,1315,1807,7.98593,-340.446
98,-783,8.04773,339.813,0,0,0,0,0,0,0,-1,1322,1807,8.04773,-339.813
105,-783,7.95337,340.394,0,0,0,0,0,0,0,-1,1329,1807,7.95333,-340.394
112,-783,7.97009,341.053,0,0,0,0,0,0,0,-1,1336,1807,7.97014,-341.053
119,-783,3.92188,337.587,0,0,0,0,0,0,0,-1,1343,1807,3.92193,-337.587
126,-783,3.8053,337.312,0,0,0,0,0,0,0,-1,1350,1807,3.80527,-337.312
133,-783,3.91101,336.954,0,0,0,0,0,0,0,-1,1357,1807,3.91097,-336.954
140,-783,4.2616,336.603,0,0,0,0,0,0,0,-1,1364,1807,4.26157,-336.603
147,-783,6.69824,331.623,0,0,0,0,0,0,0,-1,1371,1807,6.69822,-331.623
154,-783,38.2109,17.545,0,0,0,0,0,0,0,-1,1378,1807,38.2109,-17.545
161,-783,39.5087,17.5449,0,0,0,0,0,0,0,-1,1385,1807,39.5087,-17.545
168,-783,8.62561,1.79944,0,0,0,0,0,0,0,-1,1392,1807,8.62561,-1.79946
175,-783,8.78699,3.40857,0,0,0,0,0,0,0,-1,1399,1807,8.78697,-3.40854
182,-783,8.70984,5.14661,0,0,0,0,0,0,0,-1,1406,1807,8.70989,-5.14666
189,-783,8.55762,6.79871,0,0,0,0,0,0,0,-1,1413,1807,8.55766,-6.79872
196,-783,8.25488,8.66626,0,0,0,0,0,0,0,-1,1420,1807,8.25492,-8.66628
203,-783,7.86755,10.5735,0,0,0,0,0,0,0,-1,1427,1807,7.8676,-10.5734
210,-783,5.6969,8.99231,0,0,0,0,0,0,0,-1,1434,1807,5.69693,-8.99234
217,-783,5.28503,3.80872,0,0,0,0,0,0,0,-1,1441,1807,5.285,-3.80868
224,-783,3.22571,6.62903,0,0,0,0,0,0,0,-1,1448,1807,3.2257,-6.62907
231,-783,4.27942,4.56262,0,0,0,0,0,0,0,-1,1455,1807,4.27948,-4.56267
238,-783,0,0,0,0,0,0,0,0,0,-1,1462,1807,0,0
245,-783,0,0,0,0,0,0,0,0,0,-1,1469,1807,0,0
252,-783,0,0,0,0,0,0,0,0,0,-1,1476,1807,0,0
259,-783,0,0,0,0,0,0,0,0,0,-1,1483,1807,0,0
266,-783,0,0,0,0,0,0,0,0,0,-1,1490,1807,0,0
273,-783,0,0,0,0,0,0,0,0,0,-1,1497,1807,0,0
280,-783,0,0,0,0,0,0,0,0,0,-1,1504,1807,0,0
287,-783,0,0,0,0,0,0,0,0,0,-1,1511,1807,0,0
294,-783,0,0,0,0,0,0,0,0,0,-1,1518,1807,0,0
301,-783,0,0,0,0,0,0,0,0,0,-1,1525,1807,0,0
308,-783,0,0,0,0,0,0,0,0,0,-1,1532,1807,0,0
315,-783,0,0,0,0,0,0,0,0,0,-1,1539,1807,0,0
322,-783,0,0,0,0,0,0,0,0,0,-1,1546,1807,0,0
329,-783,0,0,0,0,0,0,0,0,0,-1,1553,1807,0,0
336,-783,0,0,0,0,0,0,0,0,0,-1,1560,1807,0,0
343,-783,0,0,0,0,0,0,0,0,0,-1,1567,1807,0,0
350,-783,0,0,0,0,0,0,0,0,0,-1,1574,1807,0,0
357,-783,0,0,0,0,0,0,0,0,0,-1,1581,1807,0,0
364,-783,0,0,0,0,0,0,0,0,0,-1,1588,1807,0,0
371,-783,0,0,0,0,0,0,0,0,0,-1,1595,1807,0,0
378,-783,0,0,0,0,0,0,0,0,0,-1,1602,1807,0,0
385,-783,0,0,0,0,0,0,0,0,0,-1,1609,1807,0,0
392,-783,0,0,0,0,0,0,0,0,0,-1,1616,1807,0,0
399,-783,0,0,0,0,0,0,0,0,0,-1,1623,1807,0,0
406,-783,0,0,0,0,0,0,0,0,0,-1,1630,1807,0,0
413,-783,0,0,0,0,0,0,0,0,0,-1,1637,1807,0,0
420,-783,0,0,0,0,0,0,0,0,0,-1,1644,1807,0,0
427,-783,0,0,0,0,0,0,0,0,0,-1,1651,1807,0,0
434,-783,0,0,0,0,0,0,0,0,0,-1,1658,1807,0,0
441,-783,0,0,0,0,0,0,0,0,0,-1,1665,1807,0,0
448,-783,0,0,0,0,0,0,0,0,0,-1,1672,1807,0,0
455,-783,0,0,0,0,0,0,0,0,0,-1,1679,1807,0,0
462,-783,0,0,0,0,0,0,0,0,0,-1,1686,1807,0,0
469,-783,0,0,0,0,0,0,0,0,0,-1,1693,1807,0,0
476,-783,0,0,0,0,0,0,0,0,0,-1,1700,1807,0,0
483,-783,0,0,0,0,0,0,0,0,0,-1,1707,1807,0,0
490,-783,0,0,0,0,0,0,0,0,0,-1,1714,1807,0,0
497,-783,0,0,0,0,0,0,0,0,0,-1,1721,1807,0,0
504,-783,0,0,0,0,0,0,0,0,0,-1,1728,1807,0,0
511,-783,0,0,0,0,0,0,0,0,0,-1,1735,1807,0,0
518,-783,0,0,0,0,0,0,0,0,0,-1,1742,1807,0,0
525,-783,0,0,0,0,0,0,0,0,0,-1,1749,1807,0,0
532,-783,0,0,0,0,0,0,0,0,0,-1,1756,1807,0,0
539,-783,0,0,0,0,0,0,0,0,0,-1,1763,1807,0,0
546,-783,0,0,0,0,0,0,0,0,0,-1,1770,1807,0,0
553,-783,0,0,0,0,0,0,0,0,0,-1,1777,1807,0,0
560,-783,0,0,0,0,0,0,0,0,0,-1,1784,1807,0,0
567,-783,0,0,0,0,0,0,0,0,0,-1,1791,1807,0,0
574,-783,0,0,0,0,0,0,0,0,0,-1,1798,1807,0,0
581,-783,0,0,0,0,0,0,0,0,0,-1,1805,1807,0,0
588,-783,0,0,0,0,0,0,0,0,0,-1,1812,1807,0,0
595,-783,0,0,0,0,0,0,0,0,0,-1,1819,1807,0,0
602,-783,0,0,0,0,0,0,0,0,0,-1,1826,1807,0,0
609,-783,0,0,0,0,0,0,0,0,0,-1,1833,1807,0,0
616,-783,0,0,0,0,0,0,0,0,0,-1,1840,1807,0,0
623,-783,0,0,0,0,0,0,0,0,0,-1,1847,1807,0,0
630,-783,0,0,0,0,0,0,0,0,0,-1,1854,1807,0,0
637,-783,0,0,0,0,0,0,0,0,0,-1,1861,1807,0,0
644,-783,0,0,0,0,0,0,0,0,0,-1,1868,1807,0,0
651,-783,0,0,0,0,0,0,0,0,0,-1,1875,1807,0,0
658,-783,0,0,0,0,0,0,0,0,0,-1,1882,1807,0,0
665,-783,0,0,0,0,0,0,0,0,0,-1,1889,1807,0,0
672,-783,0,0,0,0,0,0,0,0,0,-1,1896,1807,0,0
679,-783,0,0,0,0,0,0,0,0,0,-1,1903,1807,0,0
686,-783,0,0,0,0,0,0,0,0,0,-1,1910,1807,0,0
693,-783,0,0,0,0,0,0,0,0,0,-1,1917,1807,0,0
700,-783,0,0,0,0,0,0,0,0,0,-1,1924,1807,0,0
707,-783,0,0,0,0,0,0,0,0,0,-1,1931,1807,0,0
714,-783,0,0,0,0,0,0,0,0,0,-1,1938,1807,0,0
721,-783,0,0,0,0,0,0,0,0,0,-1,1945,1807,0,0
728,-783,0,0,0,0,0,0,0,0,0,-1,1952,1807,0,0
735,-783,0,0,0,0,0,0,0,0,0,-1,1959,1807,0,0
742,-783,0,0,0,0,0,0,0,0,0,-1,1966,1807,0,0
749,-783,0,0,0,0,0,0,0,0,0,-1,1973,1807,0,0
756,-783,0,0,0,0,0,0,0,0,0,-1,1980,1807,0,0
763,-783,0,0,0,0,0,0,0,0,0,-1,1987,1807,0,0
770,-783,0,0,0,0,0,0,0,0,0,-1,1994,1807,0,0
777,-783,0,0,0,0,0,0,0,0,0,-1,2001,1807,0,0
784,-783,0,0,0,0,0,0,0,0,0,-1,2008,1807,0,0
791,-783,0,0,0,0,0,0,0,0,0,-1,2015,1807,0,0
798,-783,0,0,0,0,0,0,0,0,0,-1,2022,1807,0,0
805,-783,0,0,0,0,0,0,0,0,0,-1,2029,1807,0,0
812,-783,0,0,0,0,0,0,0,0,0,-1,2036,1807,0,0
-700,-790,0,0,0,0,0,0,0,0,0,-1,524,1814,0,0
-693,-790,0,0,0,0,0,0,0,0,0,-1,531,1814,0,0
-686,-790,0,0,0,0,0,0,0,0,0,-1,538,1814,0,0
-679,-790,0,0,0,0,0,0,0,0,0,-1,545,1814,0,0
-672,-790,0,0,0,0,0,0,0,0,0,-1,552,1814,0,0
-665,-790,0,0,0,0,0,0,0,0,0,-1,559,1814,0,0
-658,-790,0,0,0,0,0,0,0,0,0,-1,566,1814,0,0
-651,-790,0,0,0,0,0,0,0,0,0,-1,573,1814,0,0
-644,-790,0,0,0,0,0,0,0,0,0,-1,580,1814,0,0
-637,-790,0,0,0,0,0,0,0,0,0,-1,587,1814,0,0
-630,-790,0,0,0,0,0,0,0,0,0,-1,594,1814,0,0
-623,-790,0,0,0,0,0,0,0,0,0,-1,601,1814,0,0
-616,-790,0,0,0,0,0,0,0,0,0,-1,608,1814,0,0
-609,-790,0,0,0,0,0,0,0,0,0,-1,615,1814,0,0
-602,-790,0,0,0,0,0,0,0,0,0,-1,622,1814,0,0
-595,-790,0,0,0,0,0,0,0,0,0,-1,629,1814,0,0
-588,-790,0,0,0,0,0,0,0,0,0,-1,636,1814,0,0
-581,-790,0,0,0,0,0,0,0,0,0,-1,643,1814,0,0
-574,-790,0,0,0,0,0,0,0,0,0,-1,650,1814,0,0
-567,-790,0,0,0,0,0,0,0,0,0,-1,657,1814,0,0
-560,-790,0,0,0,0,0,0,0,0,0,-1,664,1814,0,0
-553,-790,0,0,0,0,0,0,0,0,0,-1,671,1814,0,0
-546,-790,0,0,0,0,0,0,0,0,0,-1,678,1814,0,0
-539,-790,0,0,0,0,0,0,0,0,0,-1,685,1814,0,0
-532,-790,0,0,0,0,0,0,0,0,0,-1,692,1814,0,0
-525,-790,0,0,0,0,0,0,0,0,0,-1,699,1814,0,0
-518,-790,0,0,0,0,0,0,0,0,0,-1,706,1814,0,0
-511,-790,0,0,0,0,0,0,0,0,0,-1,713,1814,0,0
-504,-790,0,0,0,0,0,0,0,0,0,-1,720,1814,0,0
-497,-790,0,0,0,0,0,0,0,0,0,-1,727,1814,0,0
-490,-790,0,0,0,0,0,0,0,0,0,-1,734,1814,0,0
-483,-790,0,0,0,0,0,0,0,0,0,-1,741,1814,0,0
-476,-790,0,0,0,0,0,0,0,0,0,-1,748,1814,0,0
-469,-790,0,0,0,0,0,0,0,0,0,-1,755,1814,0,0
-462,-790,0,0,0,0,0,0,0,0,0,-1,762,1814,0,0
-455,-790,0,0,0,0,0,0,0,0,0,-1,769,1814,0,0
-448,-790,0,0,0,0,0,0,0,0,0,-1,776,1814,0,0
-441,-790,0,0,0,0,0,0,0,0,0,-1,783,1814,0,0
-434,-790,0,0,0,0,0,0,0,0,0,-1,790,1814,0,0
-427,-790,0,0,0,0,0,0,0,0,0,-1,797,1814,0,0
-420,-790,0,0,0,0,0,0,0,0,0,-1,804,1814,0,0
-413,-790,0,0,0,0,0,0,0,0,0,-1,811,1814,0,0
-406,-790,0,0,0,0,0,0,0,0,0,-1,818,1814,0,0
-399,-790,0,0,0,0,0,0,0,0,0,-1,825,1814,0,0
-392,-790,0,0,0,0,0,0,0,0,0,-1,832,1814,0,0
-385,-790,0,0,0,0,0,0,0,0,0,-1,839,1814,0,0
-378,-790,0,0,0,0,0,0,0,0,0,-1,846,1814,0,0
-371,-790,0,0,0,0,0,0,0,0,0,-1,853,1814,0,0
-364,-790,0,0,0,0,0,0,0,0,0,-1,860,1814,0,0
-357,-790,0,0,0,0,0,0,0,0,0,-1,867,1814,0,0
-350,-790,0,0,0,0,0,0,0,0,0,-1,874,1814,0,0
-343,-790,0,0,0,0,0,0,0,0,0,-1,881,1814,0,0
-336,-790,0,0,0,0,0,0,0,0,0,-1,888,1814,0,0
-329,-790,0,0,0,0,0,0,0,0,0,-1,895,1814,0,0
-322,-790,0,0,0,0,0,0,0,0,0,-1,902,1814,0,0
-315,-790,0,0,0,0,0,0,0,0,0,-1,909,1814,0,0
-308,-790,0,0,0,0,0,0,0,0,0,-1,916,1814,0,0
-301,-790,0,0,0,0,0,0,0,0,0,-1,923,1814,0,0
-294,-790,0,0,0,0,0,0,0,0,0,-1,930,1814,0,0
-287,-790,0,0,0,0,0,0,0,0,0,-1,937,1814,0,0
-280,-790,0,0,0,0,0,0,0,0,0,-1,944,1814,0,0
-273,-790,0,0,0,0,0,0,0,0,0,-1,951,1814,0,0
-266,-790,0,0,0,0,0,0,0,0,0,-1,958,1814,0,0
-259,-790,0,0,0,0,0,0,0,0,0,-1,965,1814,0,0
-252,-790,0,0,0,0,0,0,0,0,0,-1,972,1814,0,0
-245,-790,0,0,0,0,0,0,0,0,0,-1,979,1814,0,0
-238,-790,0,0,0,0,0,0,0,0,0,-1,986,1814,0,0
-231,-790,0,0,0,0,0,0,0,0,0,-1,993,1814,0,0
-224,-790,0,0,0,0,0,0,0,0,0,-1,1000,1814,0,0
-217,-790,0,0,0,0,0,0,0,0,0,-1,1007,1814,0,0
-210,-790,0,0,0,0,0,0,0,0,0,-1,1014,1814,0,0
-203,-790,0,0,0,0,0,0,0,0,0,-1,1021,1814,0,0
-196,-790,0,0,0,0,0,0,0,0,0,-1,1028,1814,0,0
-189,-790,0,0,0,0,0,0,0,0,0,-1,1035,1814,0,0
-182,-790,0,0,0,0,0,0,0,0,0,-1,1042,1814,0,0
-175,-790,0,0,0,0,0,0,0,0,0,-1,1049,1814,0,0
-168,-790,0,0,0,0,0,0,0,0,0,-1,1056,1814,0,0
-161,-790,0,0,0,0,0,0,0,0,0,-1,1063,1814,0,0
-154,-790,0,0,0,0,0,0,0,0,0,-1,1070,1814,0,0
-147,-790,0,0,0,0,0,0,0,0,0,-1,1077,1814,0,0
-140,-790,0,0,0,0,0,0,0,0,0,-1,1084,1814,0,0
-133,-790,0,0,0,0,0,0,0,0,0,-1,1091,1814,0,0
-126,-790,0,0,0,0,0,0,0,0,0,-1,1098,1814,0,0
-119,-790,0,0,0,0,0,0,0,0,0,-1,1105,1814,0,0
-112,-790,0,0,0,0,0,0,0,0,0,-1,1112,1814,0,0
-105,-790,0,0,0,0,0,0,0,0,0,-1,1119,1814,0,0
-98,-790,0,0,0,0,0,0,0,0,0,-1,1126,1814,0,0
-91,-790,0,0,0,0,0,0,0,0,0,-1,1133,1814,0,0
-84,-790,0,0,0,0,0,0,0,0,0,-1,1140,1814,0,0
-77,-790,-0.969238,5.30847,0,0,0,0,0,0,0,-1,1147,1814,-0.969277,-5.3085
-70,-790,-1.23169,4.98914,0,0,0,0,0,0,0,-1,1154,1814,-1.23163,-4.98916
-63,-790,-1.69128,4.32263,0,0,0,0,0,0,0,-1,1161,1814,-1.69128,-4.32258
-56,-790,-2.24756,3.75305,0,0,0,0,0,0,0,-1,1168,1814,-2.24758,-3.75302
-49,-790,-3.11011,3.35779,0,0,0,0,0,0,0,-1,1175,1814,-3.11006,-3.35781
-42,-790,0.593262,1.19165,0,0,0,0,0,0,0,-1,1182,1814,0.593225,-1.19165
-35,-790,0.307129,-0.20105,0,0,0,0,0,0,0,-1,1189,1814,0.307178,0.201006
-28,-790,-2.78467,0.785156,0,0,0,0,0,0,0,-1,1196,1814,-2.78471,-0.785183
-21,-790,14.4747,331.402,0,0,0,0,0,0,0,-1,1203,1814,14.4747,-331.402
-14,-790,14.6992,332.085,0,0,0,0,0,0,0,-1,1210,1814,14.6993,-332.085
-7,-790,14.5757,332.811,0,0,0,0,0,0,0,-1,1217,1814,14.5757,-332.811
0,-790,14.5632,333.306,0,0,0,0,0,0,0,-1,1224,1814,14.5632,-333.306
7,-790,14.5757,333.974,0,0,0,0,0,0,0,-1,1231,1814,14.5757,-333.974
14,-790,14.5356,334.609,0,0,0,0,0,0,0,-1,1238,1814,14.5357,-334.608
21,-790,14.4333,335.115,0,0,0,0,0,0,0,-1,1245,1814,14.4333,-335.115
28,-790,11.4723,333.021,0,0,0,0,0,0,0,-1,1252,1814,11.4723,-333.021
35,-790,11.7673,337.456,0,0,0,0,0,0,0,-1,1259,1814,11.7673,-337.456
42,-790,11.3763,337.919,-0.0551508,-0.00682343,0.0128556,-0.0036165,-0.0583577,1.32633,0.0377574,0.045666,1266,1814,11.3763,-337.919
49,-790,10.9875,338.37,-0.054302,-0.009729,0.00840531,-0.00819666,-0.0558343,1.39047,0.0348138,0.0443418,1273,1814,10.9875,-338.37
56,-790,10.5306,338.849,-0.0531274,-0.0122842,0.00192683,-0.0121935,-0.0532181,1.52376,0.0321934,0.0461132,1280,1814,10.5307,-338.849
63,-790,10.1174,339.21,-0.0515866,-0.0135614,-0.0069775,-0.0123215,-0.0528265,-1.39493,0.0319135,0.0466175,1287,1814,10.1175,-339.21
70,-790,9.896,339.58,-0.0495434,-0.0134897,-0.0180098,-0.00603481,-0.0569983,-1.17833,0.0361555,0.0425116,1294,1814,9.89603,-339.58
77,-790,9.22437,340.024,-0.0469771,-0.0119807,-0.0306684,0.00583025,-0.064788,-1.04464,0.0452608,0.0426951,1301,1814,9.22438,-340.024
84,-790,8.36963,340.295,0,0,0,0,0,0,0,-1,1308,1814,8.36964,-340.295
91,-790,6.55945,339.538,0,0,0,0,0,0,0,-1,1315,1814,6.55939,-339.538
98,-790,5.46008,339.152,0,0,0,0,0,0,0,-1,1322,1814,5.46003,-339.153
105,-790,7.35059,340.388,0,0,0,0,0,0,0,-1,1329,1814,7.35062,-340.388
112,-790,2.14868,338.205,0,0,0,0,0,0,0,-1,1336,1814,2.14868,-338.205
119,-790,2.06177,337.951,0,0,0,0,0,0,0,-1,1343,1814,2.06172,-337.951
126,-790,1.88147,337.3,0,0,0,0,0,0,0,-1,1350,1814,1.88144,-337.3
133,-790,1.90906,336.745,0,0,0,0,0,0,0,-1,1357,1814,1.90901,-336.745
140,-790,1.99084,336.208,0,0,0,0,0,0,0,-1,1364,1814,1.99085,-336.208
147,-790,-1.50757,338.456,0,0,0,0,0,0,0,-1,1371,1814,-1.50758,-338.456
154,-790,40.215,13.2396,0,0,0,0,0,0,0,-1,1378,1814,40.2149,-13.2396
161,-790,39.3429,13.0336,0,0,0,0,0,0,0,-1,1385,1814,39.3429,-13.0336
168,-790,7.04077,2.23279,0,0,0,0,0,0,0,-1,1392,1814,7.04082,-2.23275
175,-790,9.03918,3.98535,0,0,0,0,0,0,0,-1,1399,1814,9.0392,-3.98535
182,-790,8.96997,5.67896,0,0,0,0,0,0,0,-1,1406,1814,8.97001,-5.6789
189,-790,8.59729,6.86975,0,0,0,0,0,0,0,-1,1413,1814,8.59728,-6.86972
196,-790,8.21924,9.29053,0,0,0,0,0,0,0,-1,1420,1814,8.21924,-9.29048
203,-790,0,0,0,0,0,0,0,0,0,-1,1427,1814,0,0
210,-790,0,0,0,0,0,0,0,0,0,-1,1434,1814,0,0
217,-790,0,0,0,0,0,0,0,0,0,-1,1441,1814,0,0
224,-790,0,0,0,0,0,0,0,0,0,-1,1448,1814,0,0
231,-790,0,0,0,0,0,0,0,0,0,-1,1455,1814,0,0
238,-790,0,0,0,0,0,0,0,0,0,-1,1462,1814,0,0
245,-790,0,0,0,0,0,0,0,0,0,-1,1469,1814,0,0
252,-790,0,0,0,0,0,0,0,0,0,-1,1476,1814,0,0
259,-790,0,0,0,0,0,0,0,0,0,-1,1483,1814,0,0
266,-790,0,0,0,0,0,0,0,0,0,-1,1490,1814,0,0
273,-790,0,0,0,0,0,0,0,0,0,-1,1497,1814,0,0
280,-790,0,0,0,0,0,0,0,0,0,-1,1504,1814,0,0
287,-790,0,0,0,0,0,0,0,0,0,-1,1511,1814,0,0
294,-790,0,0,0,0,0,0,0,0,0,-1,1518,1814,0,0
301,-790,0,0,0,0,0,0,0,0,0,-1,1525,1814,0,0
308,-790,0,0,0,0,0,0,0,0,0,-1,1532,1814,0,0
315,-790,0,0,0,0,0,0,0,0,0,-1,1539,1814,0,0
322,-790,0,0,0,0,0,0,0,0,0,-1,1546,1814,0,0
329,-790,0,0,0,0,0,0,0,0,0,-1,1553,1814,0,0
336,-790,0,0,0,0,0,0,0,0,0,-1,1560,1814,0,0
343,-790,0,0,0,0,0,0,0,0,0,-1,1567,1814,0,0
350,-790,0,0,0,0,0,0,0,0,0,-1,1574,1814,0,0
357,-790,0,0,0,0,0,0,0,0,0,-1,1581,1814,0,0
364,-790,0,0,0,0,0,0,0,0,0,-1,1588,1814,0,0
371,-790,0,0,0,0,0,0,0,0,0,-1,1595,1814,0,0
378,-790,0,0,0,0,0,0,0,0,0,-1,1602,1814,0,0
385,-790,0,0,0,0,0,0,0,0,0,-1,1609,1814,0,0
392,-790,0,0,0,0,0,0,0,0,0,-1,1616,1814,0,0
399,-790,0,0,0,0,0,0,0,0,0,-1,1623,1814,0,0
406,-790,0,0,0,0,0,0,0,0,0,-1,1630,1814,0,0
413,-790,0,0,0,0,0,0,0,0,0,-1,1637,1814,0,0
420,-790,0,0,0,0,0,0,0,0,0,-1,1644,1814,0,0
427,-790,0,0,0,0,0,0,0,0,0,-1,1651,1814,0,0
434,-790,0,0,0,0,0,0,0,0,0,-1,1658,1814,0,0
441,-790,0,0,0,0,0,0,0,0,0,-1,1665,1814,0,0
448,-790,0,0,0,0,0,0,0,0,0,-1,1672,1814,0,0
455,-790,0,0,0,0,0,0,0,0,0,-1,1679,1814,0,0
462,-790,0,0,0,0,0,0,0,0,0,-1,1686,1814,0,0
469,-790,0,0,0,0,0,0,0,0,0,-1,1693,1814,0,0
476,-790,0,0,0,0,0,0,0,0,0,-1,1700,1814,0,0
483,-790,0,0,0,0,0,0,0,0,0,-1,1707,1814,0,0
490,-790,0,0,0,0,0,0,0,0,0,-1,1714,1814,0,0
497,-790,0,0,0,0,0,0,0,0,0,-1,1721,1814,0,0
504,-790,0,0,0,0,0,0,0,0,0,-1,1728,1814,0,0
511,-790,0,0,0,0,0,0,0,0,0,-1,1735,1814,0,0
518,-790,0,0,0,0,0,0,0,0,0,-1,1742,1814,0,0
525,-790,0,0,0,0,0,0,0,0,0,-1,1749,1814,0,0
532,-790,0,0,0,0,0,0,0,0,0,-1,1756,1814,0,0
539,-790,0,0,0,0,0,0,0,0,0,-1,1763,1814,0,0
546,-790,0,0,0,0,0,0,0,0,0,-1,1770,1814,0,0
553,-790,0,0,0,0,0,0,0,0,0,-1,1777,1814,0,0
560,-790,0,0,0,0,0,0,0,0,0,-1,1784,1814,0,0
567,-790,0,0,0,0,0,0,0,0,0,-1,1791,1814,0,0
574,-790,0,0,0,0,0,0,0,0,0,-1,1798,1814,0,0
581,-790,0,0,0,0,0,0,0,0,0,-1,1805,1814,0,0
588,-790,0,0,0,0,0,0,0,0,0,-1,1812,1814,0,0
595,-790,0,0,0,0,0,0,0,0,0,-1,1819,1814,0,0
602,-790,0,0,0,0,0,0,0,0,0,-1,1826,1814,0,0
609,-790,0,0,0,0,0,0,0,0,0,-1,1833,1814,0,0
616,-790,0,0,0,0,0,0,0,0,0,-1,1840,1814,0,0
623,-790,0,0,0,0,0,0,0,0,0,-1,1847,1814,0,0
630,-790,0,0,0,0,0,0,0,0,0,-1,1854,1814,0,0
637,-790,0,0,0,0,0,0,0,0,0,-1,1861,1814,0,0
644,-790,0,0,0,0,0,0,0,0,0,-1,1868,1814,0,0
651,-790,0,0,0,0,0,0,0,0,0,-1,1875,1814,0,0
658,-790,0,0,0,0,0,0,0,0,0,-1,1882,1814,0,0
665,-790,0,0,0,0,0,0,0,0,0,-1,1889,1814,0,0
672,-790,0,0,0,0,0,0,0,0,0,-1,1896,1814,0,0
679,-790,0,0,0,0,0,0,0,0,0,-1,1903,1814,0,0
686,-790,0,0,0,0,0,0,0,0,0,-1,1910,1814,0,0
693,-790,0,0,0,0,0,0,0,0,0,-1,1917,1814,0,0
700,-790,0,0,0,0,0,0,0,0,0,-1,1924,1814,0,0
707,-790,0,0,0,0,0,0,0,0,0,-1,1931,1814,0,0
714,-790,0,0,0,0,0,0,0,0,0,-1,1938,1814,0,0
721,-790,0,0,0,0,0,0,0,0,0,-1,1945,1814,0,0
728,-790,0,0,0,0,0,0,0,0,0,-1,1952,1814,0,0
735,-790,0,0,0,0,0,0,0,0,0,-1,1959,1814,0,0
742,-790,0,0,0,0,0,0,0,0,0,-1,1966,1814,0,0
749,-790,0,0,0,0,0,0,0,0,0,-1,1973,1814,0,0
756,-790,0,0,0,0,0,0,0,0,0,-1,1980,1814,0,0
763,-790,0,0,0,0,0,0,0,0,0,-1,1987,1814,0,0
770,-790,0,0,0,0,0,0,0,0,0,-1,1994,1814,0,0
777,-790,0,0,0,0,0,0,0,0,0,-1,2001,1814,0,0
784,-790,0,0,0,0,0,0,0,0,0,-1,2008,1814,0,0
791,-790,0,0,0,0,0,0,0,0,0,-1,2015,1814,0,0
798,-790,0,0,0,0,0,0,0,0,0,-1,2022,1814,0,0
805,-790,0,0,0,0,0,0,0,0,0,-1,2029,1814,0,0
812,-790,0,0,0,0,0,0,0,0,0,-1,2036,1814,0,0
-700,-797,0,0,0,0,0,0,0,0,0,-1,524,1821,0,0
-693,-797,0,0,0,0,0,0,0,0,0,-1,531,1821,0,0
-686,-797,0,0,0,0,0,0,0,0,0,-1,538,1821,0,0
-679,-797,0,0,0,0,0,0,0,0,0,-1,545,1821,0,0
-672,-797,0,0,0,0,0,0,0,0,0,-1,552,1821,0,0
-665,-797,0,0,0,0,0,0,0,0,0,-1,559,1821,0,0
-658,-797,0,0,0,0,0,0,0,0,0,-1,566,1821,0,0
-651,-797,0,0,0,0,0,0,0,0,0,-1,573,1821,0,0
-644,-797,0,0,0,0,0,0,0,0,0,-1,580,1821,0,0
-637,-797,0,0,0,0,0,0,0,0,0,-1,587,1821,0,0
-630,-797,0,0,0,0,0,0,0,0,0,-1,594,1821,0,0
-623,-797,0,0,0,0,0,0,0,0,0,-1,601,1821,0,0
-616,-797,0,0,0,0,0,0,0,0,0,-1,608,1821,0,0
-609,-797,0,0,0,0,0,0,0,0,0,-1,615,1821,0,0
-602,-797,0,0,0,0,0,0,0,0,0,-1,622,1821,0,0
-595,-797,0,0,0,0,0,0,0,0,0,-1,629,1821,0,0
-588,-797,0,0,0,0,0,0,0,0,0,-1,636,1821,0,0
-581,-797,0,0,0,0,0,0,0,0,0,-1,643,1821,0,0
-574,-797,0,0,0,0,0,0,0,0,0,-1,650,1821,0,0
-567,-797,0,0,0,0,0,0,0,0,0,-1,657,1821,0,0
-560,-797,0,0,0,0,0,0,0,0,0,-1,664,1821,0,0
-553,-797,0,0,0,0,0,0,0,0,0,-1,671,1821,0,0
-546,-797,0,0,0,0,0,0,0,0,0,-1,678,1821,0,0
-539,-797,0,0,0,0,0,0,0,0,0,-1,685,1821,0,0
-532,-797,0,0,0,0,0,0,0,0,0,-1,692,1821,0,0
-525,-797,0,0,0,0,0,0,0,0,0,-1,699,1821,0,0
-518,-797,0,0,0,0,0,0,0,0,0,-1,706,1821,0,0
-511,-797,0,0,0,0,0,0,0,0,0,-1,713,1821,0,0
-504,-797,0,0,0,0,0,0,0,0,0,-1,720,1821,0,0
-497,-797,0,0,0,0,0,0,0,0,0,-1,727,1821,0,0
-490,-797,0,0,0,0,0,0,0,0,0,-1,734,1821,0,0
-483,-797,0,0,0,0,0,0,0,0,0,-1,741,1821,0,0
-476,-797,0,0,0,0,0,0,0,0,0,-1,748,1821,0,0
-469,-797,0,0,0,0,0,0,0,0,0,-1,755,1821,0,0
-462,-797,0,0,0,0,0,0,0,0,0,-1,762,1821,0,0
-455,-797,0,0,0,0,0,0,0,0,0,-1,769,1821,0,0
-448,-797,0,0,0,0,0,0,0,0,0,-1,776,1821,0,0
-441,-797,0,0,0,0,0,0,0,0,0,-1,783,1821,0,0
-434,-797,0,0,0,0,0,0,0,0,0,-1,790,1821,0,0
-427,-797,0,0,0,0,0,0,0,0,0,-1,797,1821,0,0
-420,-797,0,0,0,0,0,0,0,0,0,-1,804,1821,0,0
-413,-797,0,0,0,0,0,0,0,0,0,-1,811,1821,0,0
-406,-797,0,0,0,0,0,0,0,0,0,-1,818,1821,0,0
-399,-797,0,0,0,0,0,0,0,0,0,-1,825,1821,0,0
-392,-797,0,0,0,0,0,0,0,0,0,-1,832,1821,0,0
-385,-797,0,0,0,0,0,0,0,0,0,-1,839,1821,0,0
-378,-797,0,0,0,0,0,0,0,0,0,-1,846,1821,0,0
-371,-797,0,0,0,0,0,0,0,0,0,-1,853,1821,0,0
-364,-797,0,0,0,0,0,0,0,0,0,-1,860,1821,0,0
-357,-797,0,0,0,0,0,0,0,0,0,-1,867,1821,0,0
-350,-797,0,0,0,0,0,0,0,0,0,-1,874,1821,0,0
-343,-797,0,0,0,0,0,0,0,0,0,-1,881,1821,0,0
-336,-797,0,0,0,0,0,0,0,0,0,-1,888,1821,0,0
-329,-797,0,0,0,0,0,0,0,0,0,-1,895,1821,0,0
-322,-797,0,0,0,0,0,0,0,0,0,-1,902,1821,0,0
-315,-797,0,0,0,0,0,0,0,0,0,-1,909,1821,0,0
-308,-797,0,0,0,0,0,0,0,0,0,-1,916,1821,0,0
-301,-797,0,0,0,0,0,0,0,0,0,-1,923,1821,0,0
-294,-797,0,0,0,0,0,0,0,0,0,-1,930,1821,0,0
-287,-797,0,0,0,0,0,0,0,0,0,-1,937,1821,0,0
-280,-797,0,0,0,0,0,0,0,0,0,-1,944,1821,0,0
-273,-797,0,0,0,0,0,0,0,0,0,-1,951,1821,0,0
-266,-797,0,0,0,0,0,0,0,0,0,-1,958,1821,0,0
-259,-797,0,0,0,0,0,0,0,0,0,-1,965,1821,0,0
-252,-797,0,0,0,0,0,0,0,0,0,-1,972,1821,0,0
-245,-797,0,0,0,0,0,0,0,0,0,-1,979,1821,0,0
-238,-797,0,0,0,0,0,0,0,0,0,-1,986,1821,0,0
-231,-797,0,0,0,0,0,0,0,0,0,-1,993,1821,0,0
-224,-797,0,0,0,0,0,0,0,0,0,-1,1000,1821,0,0
-217,-797,0,0,0,0,0,0,0,0,0,-1,1007,1821,0,0
-210,-797,0,0,0,0,0,0,0,0,0,-1,1014,1821,0,0
-203,-797,0,0,0,0,0,0,0,0,0,-1,1021,1821,0,0
-196,-797,0,0,0,0,0,0,0,0,0,-1,1028,1821,0,0
-189,-797,0,0,0,0,0,0,0,0,0,-1,1035,1821,0,0
-182,-797,0,0,0,0,0,0,0,0,0,-1,1042,1821,0,0
-175,-797,0,0,0,0,0,0,0,0,0,-1,1049,1821,0,0
-168,-797,0,0,0,0,0,0,0,0,0,-1,1056,1821,0,0
-161,-797,0,0,0,0,0,0,0,0,0,-1,1063,1821,0,0
-154,-797,0,0,0,0,0,0,0,0,0,-1,1070,1821,0,0
-147,-797,0,0,0,0,0,0,0,0,0,-1,1077,1821,0,0
-140,-797,0,0,0,0,0,0,0,0,0,-1,1084,1821,0,0
-133,-797,0,0,0,0,0,0,0,0,0,-1,1091,1821,0,0
-126,-797,0,0,0,0,0,0,0,0,0,-1,1098,1821,0,0
-119,-797,0,0,0,0,0,0,0,0,0,-1,1105,1821,0,0
-112,-797,0,0,0,0,0,0,0,0,0,-1,1112,1821,0,0
-105,-797,0,0,0,0,0,0,0,0,0,-1,1119,1821,0,0
-98,-797,0,0,0,0,0,0,0,0,0,-1,1126,1821,0,0
-91,-797,0,0,0,0,0,0,0,0,0,-1,1133,1821,0,0
-84,-797,0,0,0,0,0,0,0,0,0,-1,1140,1821,0,0
-77,-797,0,0,0,0,0,0,0,0,0,-1,1147,1821,0,0
-70,-797,0,0,0,0,0,0,0,0,0,-1,1154,1821,0,0
-63,-797,0,0,0,0,0,0,0,0,0,-1,1161,1821,0,0
-56,-797,0,0,0,0,0,0,0,0,0,-1,1168,1821,0,0
-49,-797,0,0,0,0,0,0,0,0,0,-1,1175,1821,0,0
-42,-797,0.579834,0.692871,0,0,0,0,0,0,0,-1,1182,1821,0.579856,-0.692816
-35,-797,-0.185425,5.55396,0,0,0,0,0,0,0,-1,1189,1821,-0.18542,-5.55396
-28,-797,-0.310181,4.71509,0,0,0,0,0,0,0,-1,1196,1821,-0.310228,-4.71503
-21,-797,15.3926,330.882,0,0,0,0,0,0,0,-1,1203,1821,15.3925,-330.882
-14,-797,15.6698,331.549,0,0,0,0,0,0,0,-1,1210,1821,15.6698,-331.549
-7,-797,15.6783,332.239,0,0,0,0,0,0,0,-1,1217,1821,15.6783,-332.239
0,-797,15.751,332.448,0,0,0,0,0,0,0,-1,1224,1821,15.7509,-332.448
7,-797,16.1401,333.516,0,0,0,0,0,0,0,-1,1231,1821,16.1401,-333.516
14,-797,15.9882,334.445,0,0,0,0,0,0,0,-1,1238,1821,15.9881,-334.445
21,-797,11.6646,330.338,0,0,0,0,0,0,0,-1,1245,1821,11.6645,-330.338
28,-797,11.4565,331.436,0,0,0,0,0,0,0,-1,1252,1821,11.4566,-331.436
35,-797,12.0464,337.556,0,0,0,0,0,0,0,-1,1259,1821,12.0464,-337.556
42,-797,11.6641,338.041,-0.0657431,-0.00649173,0.0174748,-0.00172194,-0.0705128,1.30433,0.0464452,0.0442842,1266,1821,11.6641,-338.041
49,-797,11.228,338.356,-0.0637468,-0.0102083,0.00954199,-0.00855846,-0.0653965,1.39959,0.0410434,0.0410477,1273,1821,11.2281,-338.356
56,-797,10.6367,338.946,-0.0612163,-0.0129783,-0.00105296,-0.0129553,-0.0612393,-1.54898,0.0372661,0.0455233,1280,1821,10.6367,-338.946
63,-797,10.3022,339.64,-0.0580606,-0.0139616,-0.0147478,-0.00948412,-0.062538,-1.27604,0.0389178,0.0457947,1287,1821,10.3023,-339.64
70,-797,10.2739,340.177,-0.0542343,-0.0131297,-0.0312006,0.00367939,-0.0710434,-1.07664,0.0486351,0.0417469,1294,1821,10.2739,-340.177
77,-797,9.46228,340.032,-0.0498229,-0.0104792,-0.0498396,0.0234303,-0.0837324,-0.973364,0.0650538,0.0408773,1301,1821,9.46225,-340.032
84,-797,8.41309,339.676,-0.0448116,-0.00576744,-0.0698022,0.0471912,-0.0977702,-0.921753,0.0853748,0.0459088,1308,1821,8.4131,-339.676
91,-797,7.32837,339.462,0,0,0,0,0,0,0,-1,1315,1821,7.32842,-339.462
98,-797,6.23657,339.132,0,0,0,0,0,0,0,-1,1322,1821,6.23662,-339.132
105,-797,5.14038,338.822,0,0,0,0,0,0,0,-1,1329,1821,5.14044,-338.822
112,-797,0.400635,338.941,0,0,0,0,0,0,0,-1,1336,1821,0.400677,-338.941
119,-797,0.38916,337.99,0,0,0,0,0,0,0,-1,1343,1821,0.38918,-337.99
126,-797,0.163696,337.467,0,0,0,0,0,0,0,-1,1350,1821,0.163658,-337.467
133,-797,-0.125122,337.378,0,0,0,0,0,0,0,-1,1357,1821,-0.125129,-337.378
140,-797,-0.204956,337.023,0,0,0,0,0,0,0,-1,1364,1821,-0.204991,-337.023
147,-797,-0.253662,336.583,0,0,0,0,0,0,0,-1,1371,1821,-0.253658,-336.583
154,-797,40.2623,8.88733,0,0,0,0,0,0,0,-1,1378,1821,40.2623,-8.88731
161,-797,42.2798,8.17371,0,0,0,0,0,0,0,-1,1385,1821,42.2798,-8.17367
168,-797,0,0,0,0,0,0,0,0,0,-1,1392,1821,0,0
175,-797,0,0,0,0,0,0,0,0,0,-1,1399,1821,0,0
182,-797,0,0,0,0,0,0,0,0,0,-1,1406,1821,0,0
189,-797,0,0,0,0,0,0,0,0,0,-1,1413,1821,0,0
196,-797,0,0,0,0,0,0,0,0,0,-1,1420,1821,0,0
203,-797,0,0,0,0,0,0,0,0,0,-1,1427,1821,0,0
210,-797,0,0,0,0,0,0,0,0,0,-1,1434,1821,0,0
217,-797,0,0,0,0,0,0,0,0,0,-1,1441,1821,0,0
224,-797,0,0,0,0,0,0,0,0,0,-1,1448,1821,0,0
231,-797,0,0,0,0,0,0,0,0,0,-1,1455,1821,0,0
238,-797,0,0,0,0,0,0,0,0,0,-1,1462,1821,0,0
245,-797,0,0,0,0,0,0,0,0,0,-1,1469,1821,0,0
252,-797,0,0,0,0,0,0,0,0,0,-1,1476,1821,0,0
259,-797,0,0,0,0,0,0,0,0,0,-1,1483,1821,0,0
266,-797,0,0,0,0,0,0,0,0,0,-1,1490,1821,0,0
273,-797,0,0,0,0,0,0,0,0,0,-1,1497,1821,0,0
280,-797,0,0,0,0,0,0,0,0,0,-1,1504,1821,0,0
287,-797,0,0,0,0,0,0,0,0,0,-1,1511,1821,0,0
294,-797,0,0,0,0,0,0,0,0,0,-1,1518,1821,0,0
301,-797,0,0,0,0,0,0,0,0,0,-1,1525,1821,0,0
308,-797,0,0,0,0,0,0,0,0,0,-1,1532,1821,0,0
315,-797,0,0,0,0,0,0,0,0,0,-1,1539,1821,0,0
322,-797,0,0,0,0,0,0,0,0,0,-1,1546,1821,0,0
329,-797,0,0,0,0,0,0,0,0,0,-1,1553,1821,0,0
336,-797,0,0,0,0,0,0,0,0,0,-1,1560,1821,0,0
343,-797,0,0,0,0,0,0,0,0,0,-1,1567,1821,0,0
350,-797,0,0,0,0,0,0,0,0,0,-1,1574,1821,0,0
357,-797,0,0,0,0,0,0,0,0,0,-1,1581,1821,0,0
364,-797,0,0,0,0,0,0,0,0,0,-1,1588,1821,0,0
371,-797,0,0,0,0,0,0,0,0,0,-1,1595,1821,0,0
378,-797,0,0,0,0,0,0,0,0,0,-1,1602,1821,0,0
385,-797,0,0,0,0,0,0,0,0,0,-1,1609,1821,0,0
392,-797,0,0,0,0,0,0,0,0,0,-1,1616,1821,0,0
399,-797,0,0,0,0,0,0,0,0,0,-1,1623,1821,0,0
406,-797,0,0,0,0,0,0,0,0,0,-1,1630,1821,0,0
413,-797,0,0,0,0,0,0,0,0,0,-1,1637,1821,0,0
420,-797,0,0,0,0,0,0,0,0,0,-1,1644,1821,0,0
427,-797,0,0,0,0,0,0,0,0,0,-1,1651,1821,0,0
434,-797,0,0,0,0,0,0,0,0,0,-1,1658,1821,0,0
441,-797,0,0,0,0,0,0,0,0,0,-1,1665,1821,0,0
448,-797,0,0,0,0,0,0,0,0,0,-1,1672,1821,0,0
455,-797,0,0,0,0,0,0,0,0,0,-1,1679,1821,0,0
462,-797,0,0,0,0,0,0,0,0,0,-1,1686,1821,0,0
469,-797,0,0,0,0,0,0,0,0,0,-1,1693,1821,0,0
476,-797,0,0,0,0,0,0,0,0,0,-1,1700,1821,0,0
483,-797,0,0,0,0,0,0,0,0,0,-1,1707,1821,0,0
490,-797,0,0,0,0,0,0,0,0,0,-1,1714,1821,0,0
497,-797,0,0,0,0,0,0,0,0,0,-1,1721,1821,0,0
504,-797,0,0,0,0,0,0,0,0,0,-1,1728,1821,0,0
511,-797,0,0,0,0,0,0,0,0,0,-1,1735,1821,0,0
518,-797,0,0,0,0,0,0,0,0,0,-1,1742,1821,0,0
525,-797,0,0,0,0,0,0,0,0,0,-1,1749,1821,0,0
532,-797,0,0,0,0,0,0,0,0,0,-1,1756,1821,0,0
539,-797,0,0,0,0,0,0,0,0,0,-1,1763,1821,0,0
546,-797,0,0,0,0,0,0,0,0,0,-1,1770,1821,0,0
553,-797,0,0,0,0,0,0,0,0,0,-1,1777,1821,0,0
560,-797,0,0,0,0,0,0,0,0,0,-1,1784,1821,0,0
567,-797,0,0,0,0,0,0,0,0,0,-1,1791,1821,0,0
574,-797,0,0,0,0,0,0,0,0,0,-1,1798,1821,0,0
581,-797,0,0,0,0,0,0,0,0,0,-1,1805,1821,0,0
588,-797,0,0,0,0,0,0,0,0,0,-1,1812,1821,0,0
595,-797,0,0,0,0,0,0,0,0,0,-1,1819,1821,0,0
602,-797,0,0,0,0,0,0,0,0,0,-1,1826,1821,0,0
609,-797,0,0,0,0,0,0,0,0,0,-1,1833,1821,0,0
616,-797,0,0,0,0,0,0,0,0,0,-1,1840,1821,0,0
623,-797,0,0,0,0,0,0,0,0,0,-1,1847,1821,0,0
630,-797,0,0,0,0,0,0,0,0,0,-1,1854,1821,0,0
637,-797,0,0,0,0,0,0,0,0,0,-1,1861,1821,0,0
644,-797,0,0,0,0,0,0,0,0,0,-1,1868,1821,0,0
651,-797,0,0,0,0,0,0,0,0,0,-1,1875,1821,0,0
658,-797,0,0,0,0,0,0,0,0,0,-1,1882,1821,0,0
665,-797,0,0,0,0,0,0,0,0,0,-1,1889,1821,0,0
672,-797,0,0,0,0,0,0,0,0,0,-1,1896,1821,0,0
679,-797,0,0,0,0,0,0,0,0,0,-1,1903,1821,0,0
686,-797,0,0,0,0,0,0,0,0,0,-1,1910,1821,0,0
693,-797,0,0,0,0,0,0,0,0,0,-1,1917,1821,0,0
700,-797,0,0,0,0,0,0,0,0,0,-1,1924,1821,0,0
707,-797,0,0,0,0,0,0,0,0,0,-1,1931,1821,0,0
714,-797,0,0,0,0,0,0,0,0,0,-1,1938,1821,0,0
721,-797,0,0,0,0,0,0,0,0,0,-1,1945,1821,0,0
728,-797,0,0,0,0,0,0,0,0,0,-1,1952,1821,0,0
735,-797,0,0,0,0,0,0,0,0,0,-1,1959,1821,0,0
742,-797,0,0,0,0,0,0,0,0,0,-1,1966,1821,0,0
749,-797,0,0,0,0,0,0,0,0,0,-1,1973,1821,0,0
756,-797,0,0,0,0,0,0,0,0,0,-1,1980,1821,0,0
763,-797,0,0,0,0,0,0,0,0,0,-1,1987,1821,0,0
770,-797,0,0,0,0,0,0,0,0,0,-1,1994,1821,0,0
777,-797,0,0,0,0,0,0,0,0,0,-1,2001,1821,0,0
784,-797,0,0,0,0,0,0,0,0,0,-1,2008,1821,0,0
791,-797,0,0,0,0,0,0,0,0,0,-1,2015,1821,0,0
798,-797,0,0,0,0,0,0,0,0,0,-1,2022,1821,0,0
805,-797,0,0,0,0,0,0,0,0,0,-1,2029,1821,0,0
812,-797,0,0,0,0,0,0,0,0,0,-1,2036,1821,0,0
-700,-804,0,0,0,0,0,0,0,0,0,-1,524,1828,0,0
-693,-804,0,0,0,0,0,0,0,0,0,-1,531,1828,0,0
-686,-804,0,0,0,0,0,0,0,0,0,-1,538,1828,0,0
-679,-804,0,0,0,0,0,0,0,0,0,-1,545,1828,0,0
-672,-804,0,0,0,0,0,0,0,0,0,-1,552,1828,0,0
-665,-804,0,0,0,0,0,0,0,0,0,-1,559,1828,0,0
-658,-804,0,0,0,0,0,0,0,0,0,-1,566,1828,0,0
-651,-804,0,0,0,0,0,0,0,0,0,-1,573,1828,0,0
-644,-804,0,0,0,0,0,0,0,0,0,-1,580,1828,0,0
-637,-804,0,0,0,0,0,0,0,0,0,-1,587,1828,0,0
-630,-804,0,0,0,0,0,0,0,0,0,-1,594,1828,0,0
-623,-804,0,0,0,0,0,0,0,0,0,-1,601,1828,0,0
-616,-804,0,0,0,0,0,0,0,0,0,-1,608,1828,0,0
-609,-804,0,0,0,0,0,0,0,0,0,-1,615,1828,0,0
-602,-804,0,0,0,0,0,0,0,0,0,-1,622,1828,0,0
-595,-804,0,0,0,0,0,0,0,0,0,-1,629,1828,0,0
-588,-804,0,0,0,0,0,0,0,0,0,-1,636,1828,0,0
-581,-804,0,0,0,0,0,0,0,0,0,-1,643,1828,0,0
-574,-804,0,0,0,0,0,0,0,0,0,-1,650,1828,0,0
-567,-804,0,0,0,0,0,0,0,0,0,-1,657,1828,0,0
-560,-804,0,0,0,0,0,0,0,0,0,-1,664,1828,0,0
-553,-804,0,0,0,0,0,0,0,0,0,-1,671,1828,0,0
-546,-804,0,0,0,0,0,0,0,0,0,-1,678,1828,0,0
-539,-804,0,0,0,0,0,0,0,0,0,-1,685,1828,0,0
-532,-804,0,0,0,0,0,0,0,0,0,-1,692,1828,0,0
-525,-804,0,0,0,0,0,0,0,0,0,-1,699,1828,0,0
-518,-804,0,0,0,0,0,0,0,0,0,-1,706,1828,0,0
-511,-804,0,0,0,0,0,0,0,0,0,-1,713,1828,0,0
-504,-804,0,0,0,0,0,0,0,0,0,-1,720,1828,0,0
-497,-804,0,0,0,0,0,0,0,0,0,-1,727,1828,0,0
-490,-804,0,0,0,0,0,0,0,0,0,-1,734,1828,0,0
-483,-804,0,0,0,0,0,0,0,0,0,-1,741,1828,0,0
-476,-804,0,0,0,0,0,0,0,0,0,-1,748,1828,0,0
-469,-804,0,0,0,0,0,0,0,0,0,-1,755,1828,0,0
-462,-804,0,0,0,0,0,0,0,0,0,-1,762,1828,0,0
-455,-804,0,0,0,0,0,0,0,0,0,-1,769,1828,0,0
-448,-804,0,0,0,0,0,0,0,0,0,-1,776,1828,0,0
-441,-804,0,0,0,0,0,0,0,0,0,-1,783,1828,0,0
-434,-804,0,0,0,0,0,0,0,0,0,-1,790,1828,0,0
-427,-804,0,0,0,0,0,0,0,0,0,-1,797,1828,0,0
-420,-804,0,0,0,0,0,0,0,0,0,-1,804,1828,0,0
-413,-804,0,0,0,0,0,0,0,0,0,-1,811,1828,0,0
-406,-804,0,0,0,0,0,0,0,0,0,-1,818,1828,0,0
-399,-804,0,0,0,0,0,0,0,0,0,-1,825,1828,0,0
-392,-804,0,0,0,0,0,0,0,0,0,-1,832,1828,0,0
-385,-804,0,0,0,0,0,0,0,0,0,-1,839,1828,0,0
-378,-804,0,0,0,0,0,0,0,0,0,-1,846,1828,0,0
-371,-804,0,0,0,0,0,0,0,0,0,-1,853,1828,0,0
-364,-804,0,0,0,0,0,0,0,0,0,-1,860,1828,0,0
-357,-804,0,0,0,0,0,0,0,0,0,-1,867,1828,0,0
-350,-804,0,0,0,0,0,0,0,0,0,-1,874,1828,0,0
-343,-804,0,0,0,0,0,0,0,0,0,-1,881,1828,0,0
-336,-804,0,0,0,0,0,0,0,0,0,-1,888,1828,0,0
-329,-804,0,0,0,0,0,0,0,0,0,-1,895,1828,0,0
-322,-804,0,0,0,0,0,0,0,0,0,-1,902,1828,0,0
-315,-804,0,0,0,0,0,0,0,0,0,-1,909,1828,0,0
-308,-804,0,0,0,0,0,0,0,0,0,-1,916,1828,0,0
-301,-804,0,0,0,0,0,0,0,0,0,-1,923,1828,0,0
-294,-804,0,0,0,0,0,0,0,0,0,-1,930,1828,0,0
-287,-804,0,0,0,0,0,0,0,0,0,-1,937,1828,0,0
-280,-804,0,0,0,0,0,0,0,0,0,-1,944,1828,0,0
-273,-804,0,0,0,0,0,0,0,0,0,-1,951,1828,0,0
-266,-804,0,0,0,0,0,0,0,0,0,-1,958,1828,0,0
-259,-804,0,0,0,0,0,0,0,0,0,-1,965,1828,0,0
-252,-804,0,0,0,0,0,0,0,0,0,-1,972,1828,0,0
-245,-804,0,0,0,0,0,0,0,0,0,-1,979,1828,0,0
-238,-804,0,0,0,0,0,0,0,0,0,-1,986,1828,0,0
-231,-804,0,0,0,0,0,0,0,0,0,-1,993,1828,0,0
-224,-804,0,0,0,0,0,0,0,0,0,-1,1000,1828,0,0
-217,-804,0,0,0,0,0,0,0,0,0,-1,1007,1828,0,0
-210,-804,0,0,0,0,0,0,0,0,0,-1,1014,1828,0,0
-203,-804,0,0,0,0,0,0,0,0,0,-1,1021,1828,0,0
-196,-804,0,0,0,0,0,0,0,0,0,-1,1028,1828,0,0
-189,-804,0,0,0,0,0,0,0,0,0,-1,1035,1828,0,0
-182,-804,0,0,0,0,0,0,0,0,0,-1,1042,1828,0,0
-175,-804,0,0,0,0,0,0,0,0,0,-1,1049,1828,0,0
-168,-804,0,0,0,0,0,0,0,0,0,-1,1056,1828,0,0
-161,-804,0,0,0,0,0,0,0,0,0,-1,1063,1828,0,0
-154,-804,0,0,0,0,0,0,0,0,0,-1,1070,1828,0,0
-147,-804,0,0,0,0,0,0,0,0,0,-1,1077,1828,0,0
-140,-804,0,0,0,0,0,0,0,0,0,-1,1084,1828,0,0
-133,-804,0,0,0,0,0,0,0,0,0,-1,1091,1828,0,0
-126,-804,0,0,0,0,0,0,0,0,0,-1,1098,1828,0,0
-119,-804,0,0,0,0,0,0,0,0,0,-1,1105,1828,0,0
-112,-804,0,0,0,0,0,0,0,0,0,-1,1112,1828,0,0
-105,-804,0,0,0,0,0,0,0,0,0,-1,1119,1828,0,0
-98,-804,0,0,0,0,0,0,0,0,0,-1,1126,1828,0,0
-91,-804,0,0,0,0,0,0,0,0,0,-1,1133,1828,0,0
-84,-804,0,0,0,0,0,0,0,0,0,-1,1140,1828,0,0
-77,-804,0,0,0,0,0,0,0,0,0,-1,1147,1828,0,0
-70,-804,0,0,0,0,0,0,0,0,0,-1,1154,1828,0,0
-63,-804,0,0,0,0,0,0,0,0,0,-1,1161,1828,0,0
-56,-804,0,0,0,0,0,0,0,0,0,-1,1168,1828,0,0
-49,-804,0,0,0,0,0,0,0,0,0,-1,1175,1828,0,0
-42,-804,0,0,0,0,0,0,0,0,0,-1,1182,1828,0,0
-35,-804,0,0,0,0,0,0,0,0,0,-1,1189,1828,0,0
-28,-804,0,0,0,0,0,0,0,0,0,-1,1196,1828,0,0
-21,-804,0,0,0,0,0,0,0,0,0,-1,1203,1828,0,0
-14,-804,0,0,0,0,0,0,0,0,0,-1,1210,1828,0,0
-7,-804,0,0,0,0,0,0,0,0,0,-1,1217,1828,0,0
0,-804,0,0,0,0,0,0,0,0,0,-1,1224,1828,0,0
7,-804,0,0,0,0,0,0,0,0,0,-1,1231,1828,0,0
14,-804,0,0,0,0,0,0,0,0,0,-1,1238,1828,0,0
21,-804,0,0,0,0,0,0,0,0,0,-1,1245,1828,0,0
28,-804,0,0,0,0,0,0,0,0,0,-1,1252,1828,0,0
35,-804,12.1447,337.653,0,0,0,0,0,0,0,-1,1259,1828,12.1446,-337.653
42,-804,12.0315,338.023,-0.0747163,-0.00526955,0.021747,0.000978351,-0.0809642,1.29103,0.0543052,0.0458374,1266,1828,12.0315,-338.023
49,-804,11.3881,338.228,-0.0693007,-0.00833833,0.00667343,-0.00761635,-0.0700227,1.46303,0.0443615,0.0439822,1273,1828,11.3881,-338.228
56,-804,10.5746,338.943,-0.0634643,-0.0100037,-0.0112249,-0.00774246,-0.0657255,-1.37201,0.0414777,0.0475625,1280,1828,10.5746,-338.943
63,-804,10.4807,340.05,0,0,0,0,0,0,0,-1,1287,1828,10.4807,-340.05
70,-804,10.6664,340.356,-0.0507541,-0.00755489,-0.0547191,0.0296734,-0.0879824,-0.973378,0.0706546,0.0462235,1294,1828,10.6664,-340.356
77,-804,10.8246,340.15,-0.0440697,-0.00347454,-0.0804209,0.0591708,-0.106715,-0.909012,0.0970765,0.0446022,1301,1828,10.8246,-340.15
84,-804,11.5189,339.824,-0.0371395,0.00275425,-0.108666,0.0932887,-0.127674,-0.876169,0.128087,0.0476185,1308,1828,11.5189,-339.824
91,-804,0,0,0,0,0,0,0,0,0,-1,1315,1828,0,0
98,-804,0,0,0,0,0,0,0,0,0,-1,1322,1828,0,0
105,-804,0,0,0,0,0,0,0,0,0,-1,1329,1828,0,0
112,-804,0,0,0,0,0,0,0,0,0,-1,1336,1828,0,0
119,-804,0,0,0,0,0,0,0,0,0,-1,1343,1828,0,0
126,-804,0,0,0,0,0,0,0,0,0,-1,1350,1828,0,0
133,-804,0,0,0,0,0,0,0,0,0,-1,1357,1828,0,0
140,-804,0,0,0,0,0,0,0,0,0,-1,1364,1828,0,0
147,-804,0,0,0,0,0,0,0,0,0,-1,1371,1828,0,0
154,-804,0,0,0,0,0,0,0,0,0,-1,1378,1828,0,0
161,-804,0,0,0,0,0,0,0,0,0,-1,1385,1828,0,0
168,-804,0,0,0,0,0,0,0,0,0,-1,1392,1828,0,0
175,-804,0,0,0,0,0,0,0,0,0,-1,1399,1828,0,0
182,-804,0,0,0,0,0,0,0,0,0,-1,1406,1828,0,0
189,-804,0,0,0,0,0,0,0,0,0,-1,1413,1828,0,0
196,-804,0,0,0,0,0,0,0,0,0,-1,1420,1828,0,0
203,-804,0,0,0,0,0,0,0,0,0,-1,1427,1828,0,0
210,-804,0,0,0,0,0,0,0,0,0,-1,1434,1828,0,0
217,-804,0,0,0,0,0,0,0,0,0,-1,1441,1828,0,0
224,-804,0,0,0,0,0,0,0,0,0,-1,1448,1828,0,0
231,-804,0,0,0,0,0,0,0,0,0,-1,1455,1828,0,0
238,-804,0,0,0,0,0,0,0,0,0,-1,1462,1828,0,0
245,-804,0,0,0,0,0,0,0,0,0,-1,1469,1828,0,0
252,-804,0,0,0,0,0,0,0,0,0,-1,1476,1828,0,0
259,-804,0,0,0,0,0,0,0,0,0,-1,1483,1828,0,0
266,-804,0,0,0,0,0,0,0,0,0,-1,1490,1828,0,0
273,-804,0,0,0,0,0,0,0,0,0,-1,1497,1828,0,0
280,-804,0,0,0,0,0,0,0,0,0,-1,1504,1828,0,0
287,-804,0,0,0,0,0,0,0,0,0,-1,1511,1828,0,0
294,-804,0,0,0,0,0,0,0,0,0,-1,1518,1828,0,0
301,-804,0,0,0,0,0,0,0,0,0,-1,1525,1828,0,0
308,-804,0,0,0,0,0,0,0,0,0,-1,1532,1828,0,0
315,-804,0,0,0,0,0,0,0,0,0,-1,1539,1828,0,0
322,-804,0,0,0,0,0,0,0,0,0,-1,1546,1828,0,0
329,-804,0,0,0,0,0,0,0,0,0,-1,1553,1828,0,0
336,-804,0,0,0,0,0,0,0,0,0,-1,1560,1828,0,0
343,-804,0,0,0,0,0,0,0,0,0,-1,1567,1828,0,0
350,-804,0,0,0,0,0,0,0,0,0,-1,1574,1828,0,0
357,-804,0,0,0,0,0,0,0,0,0,-1,1581,1828,0,0
364,-804,0,0,0,0,0,0,0,0,0,-1,1588,1828,0,0
371,-804,0,0,0,0,0,0,0,0,0,-1,1595,1828,0,0
378,-804,0,0,0,0,0,0,0,0,0,-1,1602,1828,0,0
385,-804,0,0,0,0,0,0,0,0,0,-1,1609,1828,0,0
392,-804,0,0,0,0,0,0,0,0,0,-1,1616,1828,0,0
399,-804,0,0,0,0,0,0,0,0,0,-1,1623,1828,0,0
406,-804,0,0,0,0,0,0,0,0,0,-1,1630,1828,0,0
413,-804,0,0,0,0,0,0,0,0,0,-1,1637,1828,0,0
420,-804,0,0,0,0,0,0,0,0,0,-1,1644,1828,0,0
427,-804,0,0,0,0,0,0,0,0,0,-1,1651,1828,0,0
434,-804,0,0,0,0,0,0,0,0,0,-1,1658,1828,0,0
441,-804,0,0,0,0,0,0,0,0,0,-1,1665,1828,0,0
448,-804,0,0,0,0,0,0,0,0,0,-1,1672,1828,0,0
455,-804,0,0,0,0,0,0,0,0,0,-1,1679,1828,0,0
462,-804,0,0,0,0,0,0,0,0,0,-1,1686,1828,0,0
469,-804,0,0,0,0,0,0,0,0,0,-1,1693,1828,0,0
476,-804,0,0,0,0,0,0,0,0,0,-1,1700,1828,0,0
483,-804,0,0,0,0,0,0,0,0,0,-1,1707,1828,0,0
490,-804,0,0,0,0,0,0,0,0,0,-1,1714,1828,0,0
497,-804,0,0,0,0,0,0,0,0,0,-1,1721,1828,0,0
504,-804,0,0,0,0,0,0,0,0,0,-1,1728,1828,0,0
511,-804,0,0,0,0,0,0,0,0,0,-1,1735,1828,0,0
518,-804,0,0,0,0,0,0,0,0,0,-1,1742,1828,0,0
525,-804,0,0,0,0,0,0,0,0,0,-1,1749,1828,0,0
532,-804,0,0,0,0,0,0,0,0,0,-1,1756,1828,0,0
539,-804,0,0,0,0,0,0,0,0,0,-1,1763,1828,0,0
546,-804,0,0,0,0,0,0,0,0,0,-1,1770,1828,0,0
553,-804,0,0,0,0,0,0,0,0,0,-1,1777,1828,0,0
560,-804,0,0,0,0,0,0,0,0,0,-1,1784,1828,0,0
567,-804,0,0,0,0,0,0,0,0,0,-1,1791,1828,0,0
574,-804,0,0,0,0,0,0,0,0,0,-1,1798,1828,0,0
581,-804,0,0,0,0,0,0,0,0,0,-1,1805,1828,0,0
588,-804,0,0,0,0,0,0,0,0,0,-1,1812,1828,0,0
595,-804,0,0,0,0,0,0,0,0,0,-1,1819,1828,0,0
602,-804,0,0,0,0,0,0,0,0,0,-1,1826,1828,0,0
609,-804,0,0,0,0,0,0,0,0,0,-1,1833,1828,0,0
616,-804,0,0,0,0,0,0,0,0,0,-1,1840,1828,0,0
623,-804,0,0,0,0,0,0,0,0,0,-1,1847,1828,0,0
630,-804,0,0,0,0,0,0,0,0,0,-1,1854,1828,0,0
637,-804,0,0,0,0,0,0,0,0,0,-1,1861,1828,0,0
644,-804,0,0,0,0,0,0,0,0,0,-1,1868,1828,0,0
651,-804,0,0,0,0,0,0,0,0,0,-1,1875,1828,0,0
658,-804,0,0,0,0,0,0,0,0,0,-1,1882,1828,0,0
665,-804,0,0,0,0,0,0,0,0,0,-1,1889,1828,0,0
672,-804,0,0,0,0,0,0,0,0,0,-1,1896,1828,0,0
679,-804,0,0,0,0,0,0,0,0,0,-1,1903,1828,0,0
686,-804,0,0,0,0,0,0,0,0,0,-1,1910,1828,0,0
693,-804,0,0,0,0,0,0,0,0,0,-1,1917,1828,0,0
700,-804,0,0,0,0,0,0,0,0,0,-1,1924,1828,0,0
707,-804,0,0,0,0,0,0,0,0,0,-1,1931,1828,0,0
714,-804,0,0,0,0,0,0,0,0,0,-1,1938,1828,0,0
721,-804,0,0,0,0,0,0,0,0,0,-1,1945,1828,0,0
728,-804,0,0,0,0,0,0,0,0,0,-1,1952,1828,0,0
735,-804,0,0,0,0,0,0,0,0,0,-1,1959,1828,0,0
742,-804,0,0,0,0,0,0,0,0,0,-1,1966,1828,0,0
749,-804,0,0,0,0,0,0,0,0,0,-1,1973,1828,0,0
756,-804,0,0,0,0,0,0,0,0,0,-1,1980,1828,0,0
763,-804,0,0,0,0,0,0,0,0,0,-1,1987,1828,0,0
770,-804,0,0,0,0,0,0,0,0,0,-1,1994,1828,0,0
777,-804,0,0,0,0,0,0,0,0,0,-1,2001,1828,0,0
784,-804,0,0,0,0,0,0,0,0,0,-1,2008,1828,0,0
791,-804,0,0,0,0,0,0,0,0,0,-1,2015,1828,0,0
798,-804,0,0,0,0,0,0,0,0,0,-1,2022,1828,0,0
805,-804,0,0,0,0,0,0,0,0,0,-1,2029,1828,0,0
812,-804,0,0,0,0,0,0,0,0,0,-1,2036,1828,0,0

