 "x_c",  "y_c",  "u_c",  "v_c",  "exx",  "eyy",  "exy",  "e1",  "e2",  "gamma",  "e_vonmises",  "sigma",  "x",  "y",  "u",  "v"
-700,715,0,0,0,0,0,0,0,0,0,-1,524,309,0,0
-693,715,0,0,0,0,0,0,0,0,0,-1,531,309,0,0
-686,715,0,0,0,0,0,0,0,0,0,-1,538,309,0,0
-679,715,0,0,0,0,0,0,0,0,0,-1,545,309,0,0
-672,715,0,0,0,0,0,0,0,0,0,-1,552,309,0,0
-665,715,0,0,0,0,0,0,0,0,0,-1,559,309,0,0
-658,715,0,0,0,0,0,0,0,0,0,-1,566,309,0,0
-651,715,0,0,0,0,0,0,0,0,0,-1,573,309,0,0
-644,715,0,0,0,0,0,0,0,0,0,-1,580,309,0,0
-637,715,0,0,0,0,0,0,0,0,0,-1,587,309,0,0
-630,715,0,0,0,0,0,0,0,0,0,-1,594,309,0,0
-623,715,0,0,0,0,0,0,0,0,0,-1,601,309,0,0
-616,715,0,0,0,0,0,0,0,0,0,-1,608,309,0,0
-609,715,0,0,0,0,0,0,0,0,0,-1,615,309,0,0
-602,715,0,0,0,0,0,0,0,0,0,-1,622,309,0,0
-595,715,0,0,0,0,0,0,0,0,0,-1,629,309,0,0
-588,715,0,0,0,0,0,0,0,0,0,-1,636,309,0,0
-581,715,0,0,0,0,0,0,0,0,0,-1,643,309,0,0
-574,715,0,0,0,0,0,0,0,0,0,-1,650,309,0,0
-567,715,0,0,0,0,0,0,0,0,0,-1,657,309,0,0
-560,715,0,0,0,0,0,0,0,0,0,-1,664,309,0,0
-553,715,0,0,0,0,0,0,0,0,0,-1,671,309,0,0
-546,715,0,0,0,0,0,0,0,0,0,-1,678,309,0,0
-539,715,0,0,0,0,0,0,0,0,0,-1,685,309,0,0
-532,715,0,0,0,0,0,0,0,0,0,-1,692,309,0,0
-525,715,0,0,0,0,0,0,0,0,0,-1,699,309,0,0
-518,715,0,0,0,0,0,0,0,0,0,-1,706,309,0,0
-511,715,0,0,0,0,0,0,0,0,0,-1,713,309,0,0
-504,715,0,0,0,0,0,0,0,0,0,-1,720,309,0,0
-497,715,0,0,0,0,0,0,0,0,0,-1,727,309,0,0
-490,715,0,0,0,0,0,0,0,0,0,-1,734,309,0,0
-483,715,0,0,0,0,0,0,0,0,0,-1,741,309,0,0
-476,715,0,0,0,0,0,0,0,0,0,-1,748,309,0,0
-469,715,0,0,0,0,0,0,0,0,0,-1,755,309,0,0
-462,715,0,0,0,0,0,0,0,0,0,-1,762,309,0,0
-455,715,0,0,0,0,0,0,0,0,0,-1,769,309,0,0
-448,715,0,0,0,0,0,0,0,0,0,-1,776,309,0,0
-441,715,0,0,0,0,0,0,0,0,0,-1,783,309,0,0
-434,715,0,0,0,0,0,0,0,0,0,-1,790,309,0,0
-427,715,0,0,0,0,0,0,0,0,0,-1,797,309,0,0
-420,715,0,0,0,0,0,0,0,0,0,-1,804,309,0,0
-413,715,0,0,0,0,0,0,0,0,0,-1,811,309,0,0
-406,715,0,0,0,0,0,0,0,0,0,-1,818,309,0,0
-399,715,0,0,0,0,0,0,0,0,0,-1,825,309,0,0
-392,715,0,0,0,0,0,0,0,0,0,-1,832,309,0,0
-385,715,0,0,0,0,0,0,0,0,0,-1,839,309,0,0
-378,715,0,0,0,0,0,0,0,0,0,-1,846,309,0,0
-371,715,0,0,0,0,0,0,0,0,0,-1,853,309,0,0
-364,715,0,0,0,0,0,0,0,0,0,-1,860,309,0,0
-357,715,0,0,0,0,0,0,0,0,0,-1,867,309,0,0
-350,715,0,0,0,0,0,0,0,0,0,-1,874,309,0,0
-343,715,0,0,0,0,0,0,0,0,0,-1,881,309,0,0
-336,715,0,0,0,0,0,0,0,0,0,-1,888,309,0,0
-329,715,0,0,0,0,0,0,0,0,0,-1,895,309,0,0
-322,715,0,0,0,0,0,0,0,0,0,-1,902,309,0,0
-315,715,0,0,0,0,0,0,0,0,0,-1,909,309,0,0
-308,715,0,0,0,0,0,0,0,0,0,-1,916,309,0,0
-301,715,0,0,0,0,0,0,0,0,0,-1,923,309,0,0
-294,715,0,0,0,0,0,0,0,0,0,-1,930,309,0,0
-287,715,0,0,0,0,0,0,0,0,0,-1,937,309,0,0
-280,715,0,0,0,0,0,0,0,0,0,-1,944,309,0,0
-273,715,0,0,0,0,0,0,0,0,0,-1,951,309,0,0
-266,715,0,0,0,0,0,0,0,0,0,-1,958,309,0,0
-259,715,0,0,0,0,0,0,0,0,0,-1,965,309,0,0
-252,715,0,0,0,0,0,0,0,0,0,-1,972,309,0,0
-245,715,0,0,0,0,0,0,0,0,0,-1,979,309,0,0
-238,715,0,0,0,0,0,0,0,0,0,-1,986,309,0,0
-231,715,0,0,0,0,0,0,0,0,0,-1,993,309,0,0
-224,715,0,0,0,0,0,0,0,0,0,-1,1000,309,0,0
-217,715,0,0,0,0,0,0,0,0,0,-1,1007,309,0,0
-210,715,0,0,0,0,0,0,0,0,0,-1,1014,309,0,0
-203,715,0,0,0,0,0,0,0,0,0,-1,1021,309,0,0
-196,715,0,0,0,0,0,0,0,0,0,-1,1028,309,0,0
-189,715,0,0,0,0,0,0,0,0,0,-1,1035,309,0,0
-182,715,0,0,0,0,0,0,0,0,0,-1,1042,309,0,0
-175,715,0,0,0,0,0,0,0,0,0,-1,1049,309,0,0
-168,715,0,0,0,0,0,0,0,0,0,-1,1056,309,0,0
-161,715,0,0,0,0,0,0,0,0,0,-1,1063,309,0,0
-154,715,0,0,0,0,0,0,0,0,0,-1,1070,309,0,0
-147,715,0,0,0,0,0,0,0,0,0,-1,1077,309,0,0
-140,715,0,0,0,0,0,0,0,0,0,-1,1084,309,0,0
-133,715,0,0,0,0,0,0,0,0,0,-1,1091,309,0,0
-126,715,0,0,0,0,0,0,0,0,0,-1,1098,309,0,0
-119,715,0,0,0,0,0,0,0,0,0,-1,1105,309,0,0
-112,715,0,0,0,0,0,0,0,0,0,-1,1112,309,0,0
-105,715,0,0,0,0,0,0,0,0,0,-1,1119,309,0,0
-98,715,0,0,0,0,0,0,0,0,0,-1,1126,309,0,0
-91,715,0,0,0,0,0,0,0,0,0,-1,1133,309,0,0
-84,715,0,0,0,0,0,0,0,0,0,-1,1140,309,0,0
-77,715,0,0,0,0,0,0,0,0,0,-1,1147,309,0,0
-70,715,0,0,0,0,0,0,0,0,0,-1,1154,309,0,0
-63,715,0,0,0,0,0,0,0,0,0,-1,1161,309,0,0
-56,715,0,0,0,0,0,0,0,0,0,-1,1168,309,0,0
-49,715,0,0,0,0,0,0,0,0,0,-1,1175,309,0,0
-42,715,0,0,0,0,0,0,0,0,0,-1,1182,309,0,0
-35,715,0,0,0,0,0,0,0,0,0,-1,1189,309,0,0
-28,715,0,0,0,0,0,0,0,0,0,-1,1196,309,0,0
-21,715,0,0,0,0,0,0,0,0,0,-1,1203,309,0,0
-14,715,0,0,0,0,0,0,0,0,0,-1,1210,309,0,0
-7,715,0,0,0,0,0,0,0,0,0,-1,1217,309,0,0
0,715,0,0,0,0,0,0,0,0,0,-1,1224,309,0,0
7,715,0,0,0,0,0,0,0,0,0,-1,1231,309,0,0
14,715,0,0,0,0,0,0,0,0,0,-1,1238,309,0,0
21,715,0,0,0,0,0,0,0,0,0,-1,1245,309,0,0
28,715,0,0,0,0,0,0,0,0,0,-1,1252,309,0,0
35,715,0,0,0,0,0,0,0,0,0,-1,1259,309,0,0
42,715,0,0,0,0,0,0,0,0,0,-1,1266,309,0,0
49,715,0,0,0,0,0,0,0,0,0,-1,1273,309,0,0
56,715,0,0,0,0,0,0,0,0,0,-1,1280,309,0,0
63,715,8.14136,-119.246,0,0,0,0,0,0,0,-1,1287,309,8.14141,119.246
70,715,8.20374,-119.453,0,0,0,0,0,0,0,-1,1294,309,8.20378,119.453
77,715,0,0,0,0,0,0,0,0,0,-1,1301,309,0,0
84,715,0,0,0,0,0,0,0,0,0,-1,1308,309,0,0
91,715,0,0,0,0,0,0,0,0,0,-1,1315,309,0,0
98,715,0,0,0,0,0,0,0,0,0,-1,1322,309,0,0
105,715,0,0,0,0,0,0,0,0,0,-1,1329,309,0,0
112,715,0,0,0,0,0,0,0,0,0,-1,1336,309,0,0
119,715,0,0,0,0,0,0,0,0,0,-1,1343,309,0,0
126,715,0,0,0,0,0,0,0,0,0,-1,1350,309,0,0
133,715,0,0,0,0,0,0,0,0,0,-1,1357,309,0,0
140,715,0,0,0,0,0,0,0,0,0,-1,1364,309,0,0
147,715,0,0,0,0,0,0,0,0,0,-1,1371,309,0,0
154,715,0,0,0,0,0,0,0,0,0,-1,1378,309,0,0
161,715,0,0,0,0,0,0,0,0,0,-1,1385,309,0,0
168,715,0,0,0,0,0,0,0,0,0,-1,1392,309,0,0
175,715,0,0,0,0,0,0,0,0,0,-1,1399,309,0,0
182,715,0,0,0,0,0,0,0,0,0,-1,1406,309,0,0
189,715,0,0,0,0,0,0,0,0,0,-1,1413,309,0,0
196,715,0,0,0,0,0,0,0,0,0,-1,1420,309,0,0
203,715,0,0,0,0,0,0,0,0,0,-1,1427,309,0,0
210,715,0,0,0,0,0,0,0,0,0,-1,1434,309,0,0
217,715,0,0,0,0,0,0,0,0,0,-1,1441,309,0,0
224,715,0,0,0,0,0,0,0,0,0,-1,1448,309,0,0
231,715,0,0,0,0,0,0,0,0,0,-1,1455,309,0,0
238,715,0,0,0,0,0,0,0,0,0,-1,1462,309,0,0
245,715,0,0,0,0,0,0,0,0,0,-1,1469,309,0,0
252,715,0,0,0,0,0,0,0,0,0,-1,1476,309,0,0
259,715,0,0,0,0,0,0,0,0,0,-1,1483,309,0,0
266,715,0,0,0,0,0,0,0,0,0,-1,1490,309,0,0
273,715,0,0,0,0,0,0,0,0,0,-1,1497,309,0,0
280,715,0,0,0,0,0,0,0,0,0,-1,1504,309,0,0
287,715,0,0,0,0,0,0,0,0,0,-1,1511,309,0,0
294,715,0,0,0,0,0,0,0,0,0,-1,1518,309,0,0
301,715,0,0,0,0,0,0,0,0,0,-1,1525,309,0,0
308,715,0,0,0,0,0,0,0,0,0,-1,1532,309,0,0
315,715,0,0,0,0,0,0,0,0,0,-1,1539,309,0,0
322,715,0,0,0,0,0,0,0,0,0,-1,1546,309,0,0
329,715,0,0,0,0,0,0,0,0,0,-1,1553,309,0,0
336,715,0,0,0,0,0,0,0,0,0,-1,1560,309,0,0
343,715,0,0,0,0,0,0,0,0,0,-1,1567,309,0,0
350,715,0,0,0,0,0,0,0,0,0,-1,1574,309,0,0
357,715,0,0,0,0,0,0,0,0,0,-1,1581,309,0,0
364,715,0,0,0,0,0,0,0,0,0,-1,1588,309,0,0
371,715,0,0,0,0,0,0,0,0,0,-1,1595,309,0,0
378,715,0,0,0,0,0,0,0,0,0,-1,1602,309,0,0
385,715,0,0,0,0,0,0,0,0,0,-1,1609,309,0,0
392,715,0,0,0,0,0,0,0,0,0,-1,1616,309,0,0
399,715,0,0,0,0,0,0,0,0,0,-1,1623,309,0,0
406,715,0,0,0,0,0,0,0,0,0,-1,1630,309,0,0
413,715,0,0,0,0,0,0,0,0,0,-1,1637,309,0,0
420,715,0,0,0,0,0,0,0,0,0,-1,1644,309,0,0
427,715,0,0,0,0,0,0,0,0,0,-1,1651,309,0,0
434,715,0,0,0,0,0,0,0,0,0,-1,1658,309,0,0
441,715,0,0,0,0,0,0,0,0,0,-1,1665,309,0,0
448,715,0,0,0,0,0,0,0,0,0,-1,1672,309,0,0
455,715,0,0,0,0,0,0,0,0,0,-1,1679,309,0,0
462,715,0,0,0,0,0,0,0,0,0,-1,1686,309,0,0
469,715,0,0,0,0,0,0,0,0,0,-1,1693,309,0,0
476,715,0,0,0,0,0,0,0,0,0,-1,1700,309,0,0
483,715,0,0,0,0,0,0,0,0,0,-1,1707,309,0,0
490,715,0,0,0,0,0,0,0,0,0,-1,1714,309,0,0
497,715,0,0,0,0,0,0,0,0,0,-1,1721,309,0,0
504,715,0,0,0,0,0,0,0,0,0,-1,1728,309,0,0
511,715,0,0,0,0,0,0,0,0,0,-1,1735,309,0,0
518,715,0,0,0,0,0,0,0,0,0,-1,1742,309,0,0
525,715,0,0,0,0,0,0,0,0,0,-1,1749,309,0,0
532,715,0,0,0,0,0,0,0,0,0,-1,1756,309,0,0
539,715,0,0,0,0,0,0,0,0,0,-1,1763,309,0,0
546,715,0,0,0,0,0,0,0,0,0,-1,1770,309,0,0
553,715,0,0,0,0,0,0,0,0,0,-1,1777,309,0,0
560,715,0,0,0,0,0,0,0,0,0,-1,1784,309,0,0
567,715,0,0,0,0,0,0,0,0,0,-1,1791,309,0,0
574,715,0,0,0,0,0,0,0,0,0,-1,1798,309,0,0
581,715,0,0,0,0,0,0,0,0,0,-1,1805,309,0,0
588,715,0,0,0,0,0,0,0,0,0,-1,1812,309,0,0
595,715,0,0,0,0,0,0,0,0,0,-1,1819,309,0,0
602,715,0,0,0,0,0,0,0,0,0,-1,1826,309,0,0
609,715,0,0,0,0,0,0,0,0,0,-1,1833,309,0,0
616,715,0,0,0,0,0,0,0,0,0,-1,1840,309,0,0
623,715,0,0,0,0,0,0,0,0,0,-1,1847,309,0,0
630,715,0,0,0,0,0,0,0,0,0,-1,1854,309,0,0
637,715,0,0,0,0,0,0,0,0,0,-1,1861,309,0,0
644,715,0,0,0,0,0,0,0,0,0,-1,1868,309,0,0
651,715,0,0,0,0,0,0,0,0,0,-1,1875,309,0,0
658,715,0,0,0,0,0,0,0,0,0,-1,1882,309,0,0
665,715,0,0,0,0,0,0,0,0,0,-1,1889,309,0,0
672,715,0,0,0,0,0,0,0,0,0,-1,1896,309,0,0
679,715,0,0,0,0,0,0,0,0,0,-1,1903,309,0,0
686,715,0,0,0,0,0,0,0,0,0,-1,1910,309,0,0
693,715,0,0,0,0,0,0,0,0,0,-1,1917,309,0,0
700,715,0,0,0,0,0,0,0,0,0,-1,1924,309,0,0
707,715,0,0,0,0,0,0,0,0,0,-1,1931,309,0,0
714,715,0,0,0,0,0,0,0,0,0,-1,1938,309,0,0
721,715,0,0,0,0,0,0,0,0,0,-1,1945,309,0,0
728,715,0,0,0,0,0,0,0,0,0,-1,1952,309,0,0
735,715,0,0,0,0,0,0,0,0,0,-1,1959,309,0,0
742,715,0,0,0,0,0,0,0,0,0,-1,1966,309,0,0
749,715,0,0,0,0,0,0,0,0,0,-1,1973,309,0,0
756,715,0,0,0,0,0,0,0,0,0,-1,1980,309,0,0
763,715,0,0,0,0,0,0,0,0,0,-1,1987,309,0,0
770,715,0,0,0,0,0,0,0,0,0,-1,1994,309,0,0
777,715,0,0,0,0,0,0,0,0,0,-1,2001,309,0,0
784,715,0,0,0,0,0,0,0,0,0,-1,2008,309,0,0
791,715,0,0,0,0,0,0,0,0,0,-1,2015,309,0,0
798,715,0,0,0,0,0,0,0,0,0,-1,2022,309,0,0
805,715,0,0,0,0,0,0,0,0,0,-1,2029,309,0,0
812,715,0,0,0,0,0,0,0,0,0,-1,2036,309,0,0
-700,708,0,0,0,0,0,0,0,0,0,-1,524,316,0,0
-693,708,0,0,0,0,0,0,0,0,0,-1,531,316,0,0
-686,708,0,0,0,0,0,0,0,0,0,-1,538,316,0,0
-679,708,0,0,0,0,0,0,0,0,0,-1,545,316,0,0
-672,708,0,0,0,0,0,0,0,0,0,-1,552,316,0,0
-665,708,0,0,0,0,0,0,0,0,0,-1,559,316,0,0
-658,708,0,0,0,0,0,0,0,0,0,-1,566,316,0,0
-651,708,0,0,0,0,0,0,0,0,0,-1,573,316,0,0
-644,708,0,0,0,0,0,0,0,0,0,-1,580,316,0,0
-637,708,0,0,0,0,0,0,0,0,0,-1,587,316,0,0
-630,708,0,0,0,0,0,0,0,0,0,-1,594,316,0,0
-623,708,0,0,0,0,0,0,0,0,0,-1,601,316,0,0
-616,708,0,0,0,0,0,0,0,0,0,-1,608,316,0,0
-609,708,0,0,0,0,0,0,0,0,0,-1,615,316,0,0
-602,708,0,0,0,0,0,0,0,0,0,-1,622,316,0,0
-595,708,0,0,0,0,0,0,0,0,0,-1,629,316,0,0
-588,708,0,0,0,0,0,0,0,0,0,-1,636,316,0,0
-581,708,0,0,0,0,0,0,0,0,0,-1,643,316,0,0
-574,708,0,0,0,0,0,0,0,0,0,-1,650,316,0,0
-567,708,0,0,0,0,0,0,0,0,0,-1,657,316,0,0
-560,708,0,0,0,0,0,0,0,0,0,-1,664,316,0,0
-553,708,0,0,0,0,0,0,0,0,0,-1,671,316,0,0
-546,708,0,0,0,0,0,0,0,0,0,-1,678,316,0,0
-539,708,0,0,0,0,0,0,0,0,0,-1,685,316,0,0
-532,708,0,0,0,0,0,0,0,0,0,-1,692,316,0,0
-525,708,0,0,0,0,0,0,0,0,0,-1,699,316,0,0
-518,708,0,0,0,0,0,0,0,0,0,-1,706,316,0,0
-511,708,0,0,0,0,0,0,0,0,0,-1,713,316,0,0
-504,708,0,0,0,0,0,0,0,0,0,-1,720,316,0,0
-497,708,0,0,0,0,0,0,0,0,0,-1,727,316,0,0
-490,708,0,0,0,0,0,0,0,0,0,-1,734,316,0,0
-483,708,0,0,0,0,0,0,0,0,0,-1,741,316,0,0
-476,708,0,0,0,0,0,0,0,0,0,-1,748,316,0,0
-469,708,0,0,0,0,0,0,0,0,0,-1,755,316,0,0
-462,708,0,0,0,0,0,0,0,0,0,-1,762,316,0,0
-455,708,0,0,0,0,0,0,0,0,0,-1,769,316,0,0
-448,708,0,0,0,0,0,0,0,0,0,-1,776,316,0,0
-441,708,0,0,0,0,0,0,0,0,0,-1,783,316,0,0
-434,708,0,0,0,0,0,0,0,0,0,-1,790,316,0,0
-427,708,0,0,0,0,0,0,0,0,0,-1,797,316,0,0
-420,708,0,0,0,0,0,0,0,0,0,-1,804,316,0,0
-413,708,0,0,0,0,0,0,0,0,0,-1,811,316,0,0
-406,708,0,0,0,0,0,0,0,0,0,-1,818,316,0,0
-399,708,0,0,0,0,0,0,0,0,0,-1,825,316,0,0
-392,708,0,0,0,0,0,0,0,0,0,-1,832,316,0,0
-385,708,0,0,0,0,0,0,0,0,0,-1,839,316,0,0
-378,708,0,0,0,0,0,0,0,0,0,-1,846,316,0,0
-371,708,0,0,0,0,0,0,0,0,0,-1,853,316,0,0
-364,708,0,0,0,0,0,0,0,0,0,-1,860,316,0,0
-357,708,0,0,0,0,0,0,0,0,0,-1,867,316,0,0
-350,708,0,0,0,0,0,0,0,0,0,-1,874,316,0,0
-343,708,0,0,0,0,0,0,0,0,0,-1,881,316,0,0
-336,708,0,0,0,0,0,0,0,0,0,-1,888,316,0,0
-329,708,0,0,0,0,0,0,0,0,0,-1,895,316,0,0
-322,708,0,0,0,0,0,0,0,0,0,-1,902,316,0,0
-315,708,0,0,0,0,0,0,0,0,0,-1,909,316,0,0
-308,708,0,0,0,0,0,0,0,0,0,-1,916,316,0,0
-301,708,0,0,0,0,0,0,0,0,0,-1,923,316,0,0
-294,708,0,0,0,0,0,0,0,0,0,-1,930,316,0,0
-287,708,0,0,0,0,0,0,0,0,0,-1,937,316,0,0
-280,708,0,0,0,0,0,0,0,0,0,-1,944,316,0,0
-273,708,0,0,0,0,0,0,0,0,0,-1,951,316,0,0
-266,708,0,0,0,0,0,0,0,0,0,-1,958,316,0,0
-259,708,0,0,0,0,0,0,0,0,0,-1,965,316,0,0
-252,708,0,0,0,0,0,0,0,0,0,-1,972,316,0,0
-245,708,0,0,0,0,0,0,0,0,0,-1,979,316,0,0
-238,708,0,0,0,0,0,0,0,0,0,-1,986,316,0,0
-231,708,0,0,0,0,0,0,0,0,0,-1,993,316,0,0
-224,708,0,0,0,0,0,0,0,0,0,-1,1000,316,0,0
-217,708,0,0,0,0,0,0,0,0,0,-1,1007,316,0,0
-210,708,0,0,0,0,0,0,0,0,0,-1,1014,316,0,0
-203,708,0,0,0,0,0,0,0,0,0,-1,1021,316,0,0
-196,708,0,0,0,0,0,0,0,0,0,-1,1028,316,0,0
-189,708,0,0,0,0,0,0,0,0,0,-1,1035,316,0,0
-182,708,0,0,0,0,0,0,0,0,0,-1,1042,316,0,0
-175,708,0,0,0,0,0,0,0,0,0,-1,1049,316,0,0
-168,708,0,0,0,0,0,0,0,0,0,-1,1056,316,0,0
-161,708,0,0,0,0,0,0,0,0,0,-1,1063,316,0,0
-154,708,0,0,0,0,0,0,0,0,0,-1,1070,316,0,0
-147,708,0,0,0,0,0,0,0,0,0,-1,1077,316,0,0
-140,708,0,0,0,0,0,0,0,0,0,-1,1084,316,0,0
-133,708,0,0,0,0,0,0,0,0,0,-1,1091,316,0,0
-126,708,0,0,0,0,0,0,0,0,0,-1,1098,316,0,0
-119,708,0,0,0,0,0,0,0,0,0,-1,1105,316,0,0
-112,708,0,0,0,0,0,0,0,0,0,-1,1112,316,0,0
-105,708,0,0,0,0,0,0,0,0,0,-1,1119,316,0,0
-98,708,0,0,0,0,0,0,0,0,0,-1,1126,316,0,0
-91,708,0,0,0,0,0,0,0,0,0,-1,1133,316,0,0
-84,708,0,0,0,0,0,0,0,0,0,-1,1140,316,0,0
-77,708,0,0,0,0,0,0,0,0,0,-1,1147,316,0,0
-70,708,0,0,0,0,0,0,0,0,0,-1,1154,316,0,0
-63,708,0,0,0,0,0,0,0,0,0,-1,1161,316,0,0
-56,708,0,0,0,0,0,0,0,0,0,-1,1168,316,0,0
-49,708,0,0,0,0,0,0,0,0,0,-1,1175,316,0,0
-42,708,0,0,0,0,0,0,0,0,0,-1,1182,316,0,0
-35,708,-2.71204,-6.31558,0,0,0,0,0,0,0,-1,1189,316,-2.712,6.3156
-28,708,-2.92371,-5.53253,0,0,0,0,0,0,0,-1,1196,316,-2.92375,5.53254
-21,708,-0.417969,-24.5911,0,0,0,0,0,0,0,-1,1203,316,-0.418022,24.5911
-14,708,8.77576,-122.585,0,0,0,0,0,0,0,-1,1210,316,8.77573,122.585
-7,708,8.87292,-123.217,0,0,0,0,0,0,0,-1,1217,316,8.87295,123.217
0,708,8.97021,-123.85,0,0,0,0,0,0,0,-1,1224,316,8.97017,123.85
7,708,6.96973,-121.466,0,0,0,0,0,0,0,-1,1231,316,6.96978,121.466
14,708,7.20691,-119.157,0,0,0,0,0,0,0,-1,1238,316,7.20695,119.157
21,708,6.48389,-119.371,0,0,0,0,0,0,0,-1,1245,316,6.48383,119.371
28,708,6.71021,-119.555,0,0,0,0,0,0,0,-1,1252,316,6.71017,119.555
35,708,7.31689,-119.452,0,0,0,0,0,0,0,-1,1259,316,7.31695,119.452
42,708,8.72363,-120.018,0,0,0,0,0,0,0,-1,1266,316,8.72361,120.018
49,708,8.57825,-119.912,0,0,0,0,0,0,0,-1,1273,316,8.57829,119.912
56,708,8.43506,-119.826,0,0,0,0,0,0,0,-1,1280,316,8.43504,119.826
63,708,8.29907,-119.774,0,0,0,0,0,0,0,-1,1287,316,8.29904,119.774
70,708,8.32617,-119.677,0,0,0,0,0,0,0,-1,1294,316,8.32615,119.677
77,708,8.13086,-119.211,0,0,0,0,0,0,0,-1,1301,316,8.13092,119.211
84,708,7.92749,-118.728,0,0,0,0,0,0,0,-1,1308,316,7.92745,118.728
91,708,8.04431,-118.231,0,0,0,0,0,0,0,-1,1315,316,8.04436,118.231
98,708,7.88989,-117.94,0,0,0,0,0,0,0,-1,1322,316,7.88989,117.94
105,708,7.70032,-117.698,0,0,0,0,0,0,0,-1,1329,316,7.70037,117.698
112,708,8.05212,-116.462,0,0,0,0,0,0,0,-1,1336,316,8.05209,116.462
119,708,4.22241,-117.54,0,0,0,0,0,0,0,-1,1343,316,4.22246,117.54
126,708,3.62878,-116.281,0,0,0,0,0,0,0,-1,1350,316,3.62874,116.281
133,708,7.8053,-117.805,0,0,0,0,0,0,0,-1,1357,316,7.80527,117.805
140,708,7.15955,-118.207,0,0,0,0,0,0,0,-1,1364,316,7.15953,118.207
147,708,-7.81604,-108.593,0,0,0,0,0,0,0,-1,1371,316,-7.81607,108.593
154,708,0,0,0,0,0,0,0,0,0,-1,1378,316,0,0
161,708,0,0,0,0,0,0,0,0,0,-1,1385,316,0,0
168,708,0,0,0,0,0,0,0,0,0,-1,1392,316,0,0
175,708,0,0,0,0,0,0,0,0,0,-1,1399,316,0,0
182,708,0,0,0,0,0,0,0,0,0,-1,1406,316,0,0
189,708,0,0,0,0,0,0,0,0,0,-1,1413,316,0,0
196,708,0,0,0,0,0,0,0,0,0,-1,1420,316,0,0
203,708,0,0,0,0,0,0,0,0,0,-1,1427,316,0,0
210,708,0,0,0,0,0,0,0,0,0,-1,1434,316,0,0
217,708,0,0,0,0,0,0,0,0,0,-1,1441,316,0,0
224,708,0,0,0,0,0,0,0,0,0,-1,1448,316,0,0
231,708,0,0,0,0,0,0,0,0,0,-1,1455,316,0,0
238,708,0,0,0,0,0,0,0,0,0,-1,1462,316,0,0
245,708,0,0,0,0,0,0,0,0,0,-1,1469,316,0,0
252,708,0,0,0,0,0,0,0,0,0,-1,1476,316,0,0
259,708,0,0,0,0,0,0,0,0,0,-1,1483,316,0,0
266,708,0,0,0,0,0,0,0,0,0,-1,1490,316,0,0
273,708,0,0,0,0,0,0,0,0,0,-1,1497,316,0,0
280,708,0,0,0,0,0,0,0,0,0,-1,1504,316,0,0
287,708,0,0,0,0,0,0,0,0,0,-1,1511,316,0,0
294,708,0,0,0,0,0,0,0,0,0,-1,1518,316,0,0
301,708,0,0,0,0,0,0,0,0,0,-1,1525,316,0,0
308,708,0,0,0,0,0,0,0,0,0,-1,1532,316,0,0
315,708,0,0,0,0,0,0,0,0,0,-1,1539,316,0,0
322,708,0,0,0,0,0,0,0,0,0,-1,1546,316,0,0
329,708,0,0,0,0,0,0,0,0,0,-1,1553,316,0,0
336,708,0,0,0,0,0,0,0,0,0,-1,1560,316,0,0
343,708,0,0,0,0,0,0,0,0,0,-1,1567,316,0,0
350,708,0,0,0,0,0,0,0,0,0,-1,1574,316,0,0
357,708,0,0,0,0,0,0,0,0,0,-1,1581,316,0,0
364,708,0,0,0,0,0,0,0,0,0,-1,1588,316,0,0
371,708,0,0,0,0,0,0,0,0,0,-1,1595,316,0,0
378,708,0,0,0,0,0,0,0,0,0,-1,1602,316,0,0
385,708,0,0,0,0,0,0,0,0,0,-1,1609,316,0,0
392,708,0,0,0,0,0,0,0,0,0,-1,1616,316,0,0
399,708,0,0,0,0,0,0,0,0,0,-1,1623,316,0,0
406,708,0,0,0,0,0,0,0,0,0,-1,1630,316,0,0
413,708,0,0,0,0,0,0,0,0,0,-1,1637,316,0,0
420,708,0,0,0,0,0,0,0,0,0,-1,1644,316,0,0
427,708,0,0,0,0,0,0,0,0,0,-1,1651,316,0,0
434,708,0,0,0,0,0,0,0,0,0,-1,1658,316,0,0
441,708,0,0,0,0,0,0,0,0,0,-1,1665,316,0,0
448,708,0,0,0,0,0,0,0,0,0,-1,1672,316,0,0
455,708,0,0,0,0,0,0,0,0,0,-1,1679,316,0,0
462,708,0,0,0,0,0,0,0,0,0,-1,1686,316,0,0
469,708,0,0,0,0,0,0,0,0,0,-1,1693,316,0,0
476,708,0,0,0,0,0,0,0,0,0,-1,1700,316,0,0
483,708,0,0,0,0,0,0,0,0,0,-1,1707,316,0,0
490,708,0,0,0,0,0,0,0,0,0,-1,1714,316,0,0
497,708,0,0,0,0,0,0,0,0,0,-1,1721,316,0,0
504,708,0,0,0,0,0,0,0,0,0,-1,1728,316,0,0
511,708,0,0,0,0,0,0,0,0,0,-1,1735,316,0,0
518,708,0,0,0,0,0,0,0,0,0,-1,1742,316,0,0
525,708,0,0,0,0,0,0,0,0,0,-1,1749,316,0,0
532,708,0,0,0,0,0,0,0,0,0,-1,1756,316,0,0
539,708,0,0,0,0,0,0,0,0,0,-1,1763,316,0,0
546,708,0,0,0,0,0,0,0,0,0,-1,1770,316,0,0
553,708,0,0,0,0,0,0,0,0,0,-1,1777,316,0,0
560,708,0,0,0,0,0,0,0,0,0,-1,1784,316,0,0
567,708,0,0,0,0,0,0,0,0,0,-1,1791,316,0,0
574,708,0,0,0,0,0,0,0,0,0,-1,1798,316,0,0
581,708,0,0,0,0,0,0,0,0,0,-1,1805,316,0,0
588,708,0,0,0,0,0,0,0,0,0,-1,1812,316,0,0
595,708,0,0,0,0,0,0,0,0,0,-1,1819,316,0,0
602,708,0,0,0,0,0,0,0,0,0,-1,1826,316,0,0
609,708,0,0,0,0,0,0,0,0,0,-1,1833,316,0,0
616,708,0,0,0,0,0,0,0,0,0,-1,1840,316,0,0
623,708,0,0,0,0,0,0,0,0,0,-1,1847,316,0,0
630,708,0,0,0,0,0,0,0,0,0,-1,1854,316,0,0
637,708,0,0,0,0,0,0,0,0,0,-1,1861,316,0,0
644,708,0,0,0,0,0,0,0,0,0,-1,1868,316,0,0
651,708,0,0,0,0,0,0,0,0,0,-1,1875,316,0,0
658,708,0,0,0,0,0,0,0,0,0,-1,1882,316,0,0
665,708,0,0,0,0,0,0,0,0,0,-1,1889,316,0,0
672,708,0,0,0,0,0,0,0,0,0,-1,1896,316,0,0
679,708,0,0,0,0,0,0,0,0,0,-1,1903,316,0,0
686,708,0,0,0,0,0,0,0,0,0,-1,1910,316,0,0
693,708,0,0,0,0,0,0,0,0,0,-1,1917,316,0,0
700,708,0,0,0,0,0,0,0,0,0,-1,1924,316,0,0
707,708,0,0,0,0,0,0,0,0,0,-1,1931,316,0,0
714,708,0,0,0,0,0,0,0,0,0,-1,1938,316,0,0
721,708,0,0,0,0,0,0,0,0,0,-1,1945,316,0,0
728,708,0,0,0,0,0,0,0,0,0,-1,1952,316,0,0
735,708,0,0,0,0,0,0,0,0,0,-1,1959,316,0,0
742,708,0,0,0,0,0,0,0,0,0,-1,1966,316,0,0
749,708,0,0,0,0,0,0,0,0,0,-1,1973,316,0,0
756,708,0,0,0,0,0,0,0,0,0,-1,1980,316,0,0
763,708,0,0,0,0,0,0,0,0,0,-1,1987,316,0,0
770,708,0,0,0,0,0,0,0,0,0,-1,1994,316,0,0
777,708,0,0,0,0,0,0,0,0,0,-1,2001,316,0,0
784,708,0,0,0,0,0,0,0,0,0,-1,2008,316,0,0
791,708,0,0,0,0,0,0,0,0,0,-1,2015,316,0,0
798,708,0,0,0,0,0,0,0,0,0,-1,2022,316,0,0
805,708,0,0,0,0,0,0,0,0,0,-1,2029,316,0,0
812,708,0,0,0,0,0,0,0,0,0,-1,2036,316,0,0
-700,701,0,0,0,0,0,0,0,0,0,-1,524,323,0,0
-693,701,0,0,0,0,0,0,0,0,0,-1,531,323,0,0
-686,701,0,0,0,0,0,0,0,0,0,-1,538,323,0,0
-679,701,0,0,0,0,0,0,0,0,0,-1,545,323,0,0
-672,701,0,0,0,0,0,0,0,0,0,-1,552,323,0,0
-665,701,0,0,0,0,0,0,0,0,0,-1,559,323,0,0
-658,701,0,0,0,0,0,0,0,0,0,-1,566,323,0,0
-651,701,0,0,0,0,0,0,0,0,0,-1,573,323,0,0
-644,701,0,0,0,0,0,0,0,0,0,-1,580,323,0,0
-637,701,0,0,0,0,0,0,0,0,0,-1,587,323,0,0
-630,701,0,0,0,0,0,0,0,0,0,-1,594,323,0,0
-623,701,0,0,0,0,0,0,0,0,0,-1,601,323,0,0
-616,701,0,0,0,0,0,0,0,0,0,-1,608,323,0,0
-609,701,0,0,0,0,0,0,0,0,0,-1,615,323,0,0
-602,701,0,0,0,0,0,0,0,0,0,-1,622,323,0,0
-595,701,0,0,0,0,0,0,0,0,0,-1,629,323,0,0
-588,701,0,0,0,0,0,0,0,0,0,-1,636,323,0,0
-581,701,0,0,0,0,0,0,0,0,0,-1,643,323,0,0
-574,701,0,0,0,0,0,0,0,0,0,-1,650,323,0,0
-567,701,0,0,0,0,0,0,0,0,0,-1,657,323,0,0
-560,701,0,0,0,0,0,0,0,0,0,-1,664,323,0,0
-553,701,0,0,0,0,0,0,0,0,0,-1,671,323,0,0
-546,701,0,0,0,0,0,0,0,0,0,-1,678,323,0,0
-539,701,0,0,0,0,0,0,0,0,0,-1,685,323,0,0
-532,701,0,0,0,0,0,0,0,0,0,-1,692,323,0,0
-525,701,0,0,0,0,0,0,0,0,0,-1,699,323,0,0
-518,701,0,0,0,0,0,0,0,0,0,-1,706,323,0,0
-511,701,0,0,0,0,0,0,0,0,0,-1,713,323,0,0
-504,701,0,0,0,0,0,0,0,0,0,-1,720,323,0,0
-497,701,0,0,0,0,0,0,0,0,0,-1,727,323,0,0
-490,701,0,0,0,0,0,0,0,0,0,-1,734,323,0,0
-483,701,0,0,0,0,0,0,0,0,0,-1,741,323,0,0
-476,701,0,0,0,0,0,0,0,0,0,-1,748,323,0,0
-469,701,0,0,0,0,0,0,0,0,0,-1,755,323,0,0
-462,701,0,0,0,0,0,0,0,0,0,-1,762,323,0,0
-455,701,0,0,0,0,0,0,0,0,0,-1,769,323,0,0
-448,701,0,0,0,0,0,0,0,0,0,-1,776,323,0,0
-441,701,0,0,0,0,0,0,0,0,0,-1,783,323,0,0
-434,701,0,0,0,0,0,0,0,0,0,-1,790,323,0,0
-427,701,0,0,0,0,0,0,0,0,0,-1,797,323,0,0
-420,701,0,0,0,0,0,0,0,0,0,-1,804,323,0,0
-413,701,0,0,0,0,0,0,0,0,0,-1,811,323,0,0
-406,701,0,0,0,0,0,0,0,0,0,-1,818,323,0,0
-399,701,0,0,0,0,0,0,0,0,0,-1,825,323,0,0
-392,701,0,0,0,0,0,0,0,0,0,-1,832,323,0,0
-385,701,0,0,0,0,0,0,0,0,0,-1,839,323,0,0
-378,701,0,0,0,0,0,0,0,0,0,-1,846,323,0,0
-371,701,0,0,0,0,0,0,0,0,0,-1,853,323,0,0
-364,701,0,0,0,0,0,0,0,0,0,-1,860,323,0,0
-357,701,0,0,0,0,0,0,0,0,0,-1,867,323,0,0
-350,701,0,0,0,0,0,0,0,0,0,-1,874,323,0,0
-343,701,0,0,0,0,0,0,0,0,0,-1,881,323,0,0
-336,701,0,0,0,0,0,0,0,0,0,-1,888,323,0,0
-329,701,0,0,0,0,0,0,0,0,0,-1,895,323,0,0
-322,701,0,0,0,0,0,0,0,0,0,-1,902,323,0,0
-315,701,0,0,0,0,0,0,0,0,0,-1,909,323,0,0
-308,701,0,0,0,0,0,0,0,0,0,-1,916,323,0,0
-301,701,0,0,0,0,0,0,0,0,0,-1,923,323,0,0
-294,701,0,0,0,0,0,0,0,0,0,-1,930,323,0,0
-287,701,0,0,0,0,0,0,0,0,0,-1,937,323,0,0
-280,701,0,0,0,0,0,0,0,0,0,-1,944,323,0,0
-273,701,0,0,0,0,0,0,0,0,0,-1,951,323,0,0
-266,701,0,0,0,0,0,0,0,0,0,-1,958,323,0,0
-259,701,0,0,0,0,0,0,0,0,0,-1,965,323,0,0
-252,701,0,0,0,0,0,0,0,0,0,-1,972,323,0,0
-245,701,0,0,0,0,0,0,0,0,0,-1,979,323,0,0
-238,701,0,0,0,0,0,0,0,0,0,-1,986,323,0,0
-231,701,0,0,0,0,0,0,0,0,0,-1,993,323,0,0
-224,701,0,0,0,0,0,0,0,0,0,-1,1000,323,0,0
-217,701,0,0,0,0,0,0,0,0,0,-1,1007,323,0,0
-210,701,0,0,0,0,0,0,0,0,0,-1,1014,323,0,0
-203,701,0,0,0,0,0,0,0,0,0,-1,1021,323,0,0
-196,701,0,0,0,0,0,0,0,0,0,-1,1028,323,0,0
-189,701,0,0,0,0,0,0,0,0,0,-1,1035,323,0,0
-182,701,0,0,0,0,0,0,0,0,0,-1,1042,323,0,0
-175,701,0,0,0,0,0,0,0,0,0,-1,1049,323,0,0
-168,701,0,0,0,0,0,0,0,0,0,-1,1056,323,0,0
-161,701,0,0,0,0,0,0,0,0,0,-1,1063,323,0,0
-154,701,0,0,0,0,0,0,0,0,0,-1,1070,323,0,0
-147,701,0,0,0,0,0,0,0,0,0,-1,1077,323,0,0
-140,701,0,0,0,0,0,0,0,0,0,-1,1084,323,0,0
-133,701,0,0,0,0,0,0,0,0,0,-1,1091,323,0,0
-126,701,0,0,0,0,0,0,0,0,0,-1,1098,323,0,0
-119,701,0,0,0,0,0,0,0,0,0,-1,1105,323,0,0
-112,701,0,0,0,0,0,0,0,0,0,-1,1112,323,0,0
-105,701,0,0,0,0,0,0,0,0,0,-1,1119,323,0,0
-98,701,0,0,0,0,0,0,0,0,0,-1,1126,323,0,0
-91,701,0,0,0,0,0,0,0,0,0,-1,1133,323,0,0
-84,701,0,0,0,0,0,0,0,0,0,-1,1140,323,0,0
-77,701,0,0,0,0,0,0,0,0,0,-1,1147,323,0,0
-70,701,-12.7566,-30.413,0,0,0,0,0,0,0,-1,1154,323,-12.7566,30.413
-63,701,-18.3169,-21.2322,0,0,0,0,0,0,0,-1,1161,323,-18.3169,21.2322
-56,701,-0.420166,-0.101776,0,0,0,0,0,0,0,-1,1168,323,-0.420119,0.101777
-49,701,-1.09021,-0.155762,0,0,0,0,0,0,0,-1,1175,323,-1.09024,0.155768
-42,701,-0.210327,-0.299133,0,0,0,0,0,0,0,-1,1182,323,-0.210379,0.29914
-35,701,-2.9635,-7.98676,0,0,0,0,0,0,0,-1,1189,323,-2.9635,7.98676
-28,701,-6.64417,-5.4917,0,0,0,0,0,0,0,-1,1196,323,-6.64411,5.4917
-21,701,11.4597,-104.853,0,0,0,0,0,0,0,-1,1203,323,11.4598,104.853
-14,701,8.23767,-122.245,0,0,0,0,0,0,0,-1,1210,323,8.23766,122.245
-7,701,8.22827,-122.938,0,0,0,0,0,0,0,-1,1217,323,8.22828,122.938
0,701,6.92151,-122.302,0,0,0,0,0,0,0,-1,1224,323,6.92149,122.302
7,701,7.1615,-122.1,0,0,0,0,0,0,0,-1,1231,323,7.16154,122.1
14,701,6.77295,-119.995,0,0,0,0,0,0,0,-1,1238,323,6.7729,119.995
21,701,6.71692,-119.996,0,0,0,0,0,0,0,-1,1245,323,6.71696,119.996
28,701,6.89722,-119.941,0,0,0,0,0,0,0,-1,1252,323,6.89723,119.941
35,701,7.3717,-120.095,0,0,0,0,0,0,0,-1,1259,323,7.37167,120.095
42,701,8.30591,-120.407,0,0,0,0,0,0,0,-1,1266,323,8.30597,120.407
49,701,8.6593,-120.547,0,0,0,0,0,0,0,-1,1273,323,8.65936,120.547
56,701,8.55237,-120.438,0,0,0,0,0,0,0,-1,1280,323,8.55231,120.438
63,701,8.40564,-120.269,0,0,0,0,0,0,0,-1,1287,323,8.40569,120.269
70,701,8.45422,-119.942,0,0,0,0,0,0,0,-1,1294,323,8.45419,119.942
77,701,8.73608,-119.57,0,0,0,0,0,0,0,-1,1301,323,8.73604,119.57
84,701,8.10242,-119.028,0,0,0,0,0,0,0,-1,1308,323,8.10246,119.028
91,701,8.16809,-118.168,0,0,0,0,0,0,0,-1,1315,323,8.16813,118.168
98,701,7.99939,-117.882,0,0,0,0,0,0,0,-1,1322,323,7.99942,117.882
105,701,8.37439,-117.677,0,0,0,0,0,0,0,-1,1329,323,8.37439,117.677
112,701,9.55273,-117.327,0,0,0,0,0,0,0,-1,1336,323,9.55277,117.327
119,701,10.7312,-116.978,0,0,0,0,0,0,0,-1,1343,323,10.7311,116.978
126,701,4.05469,-113.035,0,0,0,0,0,0,0,-1,1350,323,4.05473,113.035
133,701,8.98853,-119.089,0,0,0,0,0,0,0,-1,1357,323,8.98847,119.089
140,701,8.26868,-119.367,0,0,0,0,0,0,0,-1,1364,323,8.26871,119.367
147,701,-6.5968,-110.041,0,0,0,0,0,0,0,-1,1371,323,-6.5968,110.041
154,701,-9.04028,-110.465,0,0,0,0,0,0,0,-1,1378,323,-9.04028,110.465
161,701,-4.83057,-59.3711,0,0,0,0,0,0,0,-1,1385,323,-4.83061,59.3711
168,701,30.7272,1.76184,0,0,0,0,0,0,0,-1,1392,323,30.7272,-1.76184
175,701,31.5035,2.25711,0,0,0,0,0,0,0,-1,1399,323,31.5036,-2.25712
182,701,8.80652,5.42807,0,0,0,0,0,0,0,-1,1406,323,8.8065,-5.42808
189,701,8.58081,4.24493,0,0,0,0,0,0,0,-1,1413,323,8.58082,-4.24494
196,701,0,0,0,0,0,0,0,0,0,-1,1420,323,0,0
203,701,0,0,0,0,0,0,0,0,0,-1,1427,323,0,0
210,701,0,0,0,0,0,0,0,0,0,-1,1434,323,0,0
217,701,0,0,0,0,0,0,0,0,0,-1,1441,323,0,0
224,701,0,0,0,0,0,0,0,0,0,-1,1448,323,0,0
231,701,0,0,0,0,0,0,0,0,0,-1,1455,323,0,0
238,701,0,0,0,0,0,0,0,0,0,-1,1462,323,0,0
245,701,0,0,0,0,0,0,0,0,0,-1,1469,323,0,0
252,701,0,0,0,0,0,0,0,0,0,-1,1476,323,0,0
259,701,0,0,0,0,0,0,0,0,0,-1,1483,323,0,0
266,701,0,0,0,0,0,0,0,0,0,-1,1490,323,0,0
273,701,0,0,0,0,0,0,0,0,0,-1,1497,323,0,0
280,701,0,0,0,0,0,0,0,0,0,-1,1504,323,0,0
287,701,0,0,0,0,0,0,0,0,0,-1,1511,323,0,0
294,701,0,0,0,0,0,0,0,0,0,-1,1518,323,0,0
301,701,0,0,0,0,0,0,0,0,0,-1,1525,323,0,0
308,701,0,0,0,0,0,0,0,0,0,-1,1532,323,0,0
315,701,0,0,0,0,0,0,0,0,0,-1,1539,323,0,0
322,701,0,0,0,0,0,0,0,0,0,-1,1546,323,0,0
329,701,0,0,0,0,0,0,0,0,0,-1,1553,323,0,0
336,701,0,0,0,0,0,0,0,0,0,-1,1560,323,0,0
343,701,0,0,0,0,0,0,0,0,0,-1,1567,323,0,0
350,701,0,0,0,0,0,0,0,0,0,-1,1574,323,0,0
357,701,0,0,0,0,0,0,0,0,0,-1,1581,323,0,0
364,701,0,0,0,0,0,0,0,0,0,-1,1588,323,0,0
371,701,0,0,0,0,0,0,0,0,0,-1,1595,323,0,0
378,701,0,0,0,0,0,0,0,0,0,-1,1602,323,0,0
385,701,0,0,0,0,0,0,0,0,0,-1,1609,323,0,0
392,701,0,0,0,0,0,0,0,0,0,-1,1616,323,0,0
399,701,0,0,0,0,0,0,0,0,0,-1,1623,323,0,0
406,701,0,0,0,0,0,0,0,0,0,-1,1630,323,0,0
413,701,0,0,0,0,0,0,0,0,0,-1,1637,323,0,0
420,701,0,0,0,0,0,0,0,0,0,-1,1644,323,0,0
427,701,0,0,0,0,0,0,0,0,0,-1,1651,323,0,0
434,701,0,0,0,0,0,0,0,0,0,-1,1658,323,0,0
441,701,0,0,0,0,0,0,0,0,0,-1,1665,323,0,0
448,701,0,0,0,0,0,0,0,0,0,-1,1672,323,0,0
455,701,0,0,0,0,0,0,0,0,0,-1,1679,323,0,0
462,701,0,0,0,0,0,0,0,0,0,-1,1686,323,0,0
469,701,0,0,0,0,0,0,0,0,0,-1,1693,323,0,0
476,701,0,0,0,0,0,0,0,0,0,-1,1700,323,0,0
483,701,0,0,0,0,0,0,0,0,0,-1,1707,323,0,0
490,701,0,0,0,0,0,0,0,0,0,-1,1714,323,0,0
497,701,0,0,0,0,0,0,0,0,0,-1,1721,323,0,0
504,701,0,0,0,0,0,0,0,0,0,-1,1728,323,0,0
511,701,0,0,0,0,0,0,0,0,0,-1,1735,323,0,0
518,701,0,0,0,0,0,0,0,0,0,-1,1742,323,0,0
525,701,0,0,0,0,0,0,0,0,0,-1,1749,323,0,0
532,701,0,0,0,0,0,0,0,0,0,-1,1756,323,0,0
539,701,0,0,0,0,0,0,0,0,0,-1,1763,323,0,0
546,701,0,0,0,0,0,0,0,0,0,-1,1770,323,0,0
553,701,0,0,0,0,0,0,0,0,0,-1,1777,323,0,0
560,701,0,0,0,0,0,0,0,0,0,-1,1784,323,0,0
567,701,0,0,0,0,0,0,0,0,0,-1,1791,323,0,0
574,701,0,0,0,0,0,0,0,0,0,-1,1798,323,0,0
581,701,0,0,0,0,0,0,0,0,0,-1,1805,323,0,0
588,701,0,0,0,0,0,0,0,0,0,-1,1812,323,0,0
595,701,0,0,0,0,0,0,0,0,0,-1,1819,323,0,0
602,701,0,0,0,0,0,0,0,0,0,-1,1826,323,0,0
609,701,0,0,0,0,0,0,0,0,0,-1,1833,323,0,0
616,701,0,0,0,0,0,0,0,0,0,-1,1840,323,0,0
623,701,0,0,0,0,0,0,0,0,0,-1,1847,323,0,0
630,701,0,0,0,0,0,0,0,0,0,-1,1854,323,0,0
637,701,0,0,0,0,0,0,0,0,0,-1,1861,323,0,0
644,701,0,0,0,0,0,0,0,0,0,-1,1868,323,0,0
651,701,0,0,0,0,0,0,0,0,0,-1,1875,323,0,0
658,701,0,0,0,0,0,0,0,0,0,-1,1882,323,0,0
665,701,0,0,0,0,0,0,0,0,0,-1,1889,323,0,0
672,701,0,0,0,0,0,0,0,0,0,-1,1896,323,0,0
679,701,0,0,0,0,0,0,0,0,0,-1,1903,323,0,0
686,701,0,0,0,0,0,0,0,0,0,-1,1910,323,0,0
693,701,0,0,0,0,0,0,0,0,0,-1,1917,323,0,0
700,701,0,0,0,0,0,0,0,0,0,-1,1924,323,0,0
707,701,0,0,0,0,0,0,0,0,0,-1,1931,323,0,0
714,701,0,0,0,0,0,0,0,0,0,-1,1938,323,0,0
721,701,0,0,0,0,0,0,0,0,0,-1,1945,323,0,0
728,701,0,0,0,0,0,0,0,0,0,-1,1952,323,0,0
735,701,0,0,0,0,0,0,0,0,0,-1,1959,323,0,0
742,701,0,0,0,0,0,0,0,0,0,-1,1966,323,0,0
749,701,0,0,0,0,0,0,0,0,0,-1,1973,323,0,0
756,701,0,0,0,0,0,0,0,0,0,-1,1980,323,0,0
763,701,0,0,0,0,0,0,0,0,0,-1,1987,323,0,0
770,701,0,0,0,0,0,0,0,0,0,-1,1994,323,0,0
777,701,0,0,0,0,0,0,0,0,0,-1,2001,323,0,0
784,701,0,0,0,0,0,0,0,0,0,-1,2008,323,0,0
791,701,0,0,0,0,0,0,0,0,0,-1,2015,323,0,0
798,701,0,0,0,0,0,0,0,0,0,-1,2022,323,0,0
805,701,0,0,0,0,0,0,0,0,0,-1,2029,323,0,0
812,701,0,0,0,0,0,0,0,0,0,-1,2036,323,0,0
-700,694,0,0,0,0,0,0,0,0,0,-1,524,330,0,0
-693,694,0,0,0,0,0,0,0,0,0,-1,531,330,0,0
-686,694,0,0,0,0,0,0,0,0,0,-1,538,330,0,0
-679,694,0,0,0,0,0,0,0,0,0,-1,545,330,0,0
-672,694,0,0,0,0,0,0,0,0,0,-1,552,330,0,0
-665,694,0,0,0,0,0,0,0,0,0,-1,559,330,0,0
-658,694,0,0,0,0,0,0,0,0,0,-1,566,330,0,0
-651,694,0,0,0,0,0,0,0,0,0,-1,573,330,0,0
-644,694,0,0,0,0,0,0,0,0,0,-1,580,330,0,0
-637,694,0,0,0,0,0,0,0,0,0,-1,587,330,0,0
-630,694,0,0,0,0,0,0,0,0,0,-1,594,330,0,0
-623,694,0,0,0,0,0,0,0,0,0,-1,601,330,0,0
-616,694,0,0,0,0,0,0,0,0,0,-1,608,330,0,0
-609,694,0,0,0,0,0,0,0,0,0,-1,615,330,0,0
-602,694,0,0,0,0,0,0,0,0,0,-1,622,330,0,0
-595,694,0,0,0,0,0,0,0,0,0,-1,629,330,0,0
-588,694,0,0,0,0,0,0,0,0,0,-1,636,330,0,0
-581,694,0,0,0,0,0,0,0,0,0,-1,643,330,0,0
-574,694,0,0,0,0,0,0,0,0,0,-1,650,330,0,0
-567,694,0,0,0,0,0,0,0,0,0,-1,657,330,0,0
-560,694,0,0,0,0,0,0,0,0,0,-1,664,330,0,0
-553,694,0,0,0,0,0,0,0,0,0,-1,671,330,0,0
-546,694,0,0,0,0,0,0,0,0,0,-1,678,330,0,0
-539,694,0,0,0,0,0,0,0,0,0,-1,685,330,0,0
-532,694,0,0,0,0,0,0,0,0,0,-1,692,330,0,0
-525,694,0,0,0,0,0,0,0,0,0,-1,699,330,0,0
-518,694,0,0,0,0,0,0,0,0,0,-1,706,330,0,0
-511,694,0,0,0,0,0,0,0,0,0,-1,713,330,0,0
-504,694,0,0,0,0,0,0,0,0,0,-1,720,330,0,0
-497,694,0,0,0,0,0,0,0,0,0,-1,727,330,0,0
-490,694,0,0,0,0,0,0,0,0,0,-1,734,330,0,0
-483,694,0,0,0,0,0,0,0,0,0,-1,741,330,0,0
-476,694,0,0,0,0,0,0,0,0,0,-1,748,330,0,0
-469,694,0,0,0,0,0,0,0,0,0,-1,755,330,0,0
-462,694,0,0,0,0,0,0,0,0,0,-1,762,330,0,0
-455,694,0,0,0,0,0,0,0,0,0,-1,769,330,0,0
-448,694,0,0,0,0,0,0,0,0,0,-1,776,330,0,0
-441,694,0,0,0,0,0,0,0,0,0,-1,783,330,0,0
-434,694,0,0,0,0,0,0,0,0,0,-1,790,330,0,0
-427,694,0,0,0,0,0,0,0,0,0,-1,797,330,0,0
-420,694,0,0,0,0,0,0,0,0,0,-1,804,330,0,0
-413,694,0,0,0,0,0,0,0,0,0,-1,811,330,0,0
-406,694,0,0,0,0,0,0,0,0,0,-1,818,330,0,0
-399,694,0,0,0,0,0,0,0,0,0,-1,825,330,0,0
-392,694,0,0,0,0,0,0,0,0,0,-1,832,330,0,0
-385,694,0,0,0,0,0,0,0,0,0,-1,839,330,0,0
-378,694,0,0,0,0,0,0,0,0,0,-1,846,330,0,0
-371,694,0,0,0,0,0,0,0,0,0,-1,853,330,0,0
-364,694,0,0,0,0,0,0,0,0,0,-1,860,330,0,0
-357,694,0,0,0,0,0,0,0,0,0,-1,867,330,0,0
-350,694,0,0,0,0,0,0,0,0,0,-1,874,330,0,0
-343,694,0,0,0,0,0,0,0,0,0,-1,881,330,0,0
-336,694,0,0,0,0,0,0,0,0,0,-1,888,330,0,0
-329,694,0,0,0,0,0,0,0,0,0,-1,895,330,0,0
-322,694,0,0,0,0,0,0,0,0,0,-1,902,330,0,0
-315,694,0,0,0,0,0,0,0,0,0,-1,909,330,0,0
-308,694,0,0,0,0,0,0,0,0,0,-1,916,330,0,0
-301,694,0,0,0,0,0,0,0,0,0,-1,923,330,0,0
-294,694,0,0,0,0,0,0,0,0,0,-1,930,330,0,0
-287,694,0,0,0,0,0,0,0,0,0,-1,937,330,0,0
-280,694,0,0,0,0,0,0,0,0,0,-1,944,330,0,0
-273,694,0,0,0,0,0,0,0,0,0,-1,951,330,0,0
-266,694,0,0,0,0,0,0,0,0,0,-1,958,330,0,0
-259,694,0,0,0,0,0,0,0,0,0,-1,965,330,0,0
-252,694,0,0,0,0,0,0,0,0,0,-1,972,330,0,0
-245,694,0,0,0,0,0,0,0,0,0,-1,979,330,0,0
-238,694,0,0,0,0,0,0,0,0,0,-1,986,330,0,0
-231,694,0,0,0,0,0,0,0,0,0,-1,993,330,0,0
-224,694,0,0,0,0,0,0,0,0,0,-1,1000,330,0,0
-217,694,0,0,0,0,0,0,0,0,0,-1,1007,330,0,0
-210,694,0,0,0,0,0,0,0,0,0,-1,1014,330,0,0
-203,694,0,0,0,0,0,0,0,0,0,-1,1021,330,0,0
-196,694,0,0,0,0,0,0,0,0,0,-1,1028,330,0,0
-189,694,0,0,0,0,0,0,0,0,0,-1,1035,330,0,0
-182,694,0,0,0,0,0,0,0,0,0,-1,1042,330,0,0
-175,694,0,0,0,0,0,0,0,0,0,-1,1049,330,0,0
-168,694,0,0,0,0,0,0,0,0,0,-1,1056,330,0,0
-161,694,0,0,0,0,0,0,0,0,0,-1,1063,330,0,0
-154,694,0,0,0,0,0,0,0,0,0,-1,1070,330,0,0
-147,694,0,0,0,0,0,0,0,0,0,-1,1077,330,0,0
-140,694,0,0,0,0,0,0,0,0,0,-1,1084,330,0,0
-133,694,0,0,0,0,0,0,0,0,0,-1,1091,330,0,0
-126,694,0,0,0,0,0,0,0,0,0,-1,1098,330,0,0
-119,694,0,0,0,0,0,0,0,0,0,-1,1105,330,0,0
-112,694,0,0,0,0,0,0,0,0,0,-1,1112,330,0,0
-105,694,2.5188,-19.3963,0,0,0,0,0,0,0,-1,1119,330,2.51882,19.3963
-98,694,1.34875,-10.1051,0,0,0,0,0,0,0,-1,1126,330,1.34874,10.1051
-91,694,6.62366,-46.8039,0,0,0,0,0,0,0,-1,1133,330,6.62363,46.8039
-84,694,0.0577393,-40.8823,0,0,0,0,0,0,0,-1,1140,330,0.0577026,40.8823
-77,694,-5.51379,-31.2714,0,0,0,0,0,0,0,-1,1147,330,-5.51383,31.2714
-70,694,-11.9945,-25.5143,0,0,0,0,0,0,0,-1,1154,330,-11.9945,25.5143
-63,694,-18.4752,-19.7572,0,0,0,0,0,0,0,-1,1161,330,-18.4752,19.7572
-56,694,-6.50623,-0.649139,0,0,0,0,0,0,0,-1,1168,330,-6.5062,0.649126
-49,694,-1.11426,0.0341797,0,0,0,0,0,0,0,-1,1175,330,-1.11424,-0.0341846
-42,694,-0.346313,-0.709595,0,0,0,0,0,0,0,-1,1182,330,-0.346298,0.709581
-35,694,-0.459106,-1.24713,0,0,0,0,0,0,0,-1,1189,330,-0.459142,1.24714
-28,694,-6.48413,-3.95972,0,0,0,0,0,0,0,-1,1196,330,-6.48414,3.9597
-21,694,31.5182,-74.39,0,0,0,0,0,0,0,-1,1203,330,31.5181,74.39
-14,694,7.92517,-122.674,0,0,0,0,0,0,0,-1,1210,330,7.92511,122.674
-7,694,7.75134,-122.815,0,0,0,0,0,0,0,-1,1217,330,7.75129,122.815
0,694,7.14978,-122.909,0,0,0,0,0,0,0,-1,1224,330,7.14975,122.909
7,694,7.41846,-122.763,0,0,0,0,0,0,0,-1,1231,330,7.41849,122.763
14,694,7.78088,-122.135,0,0,0,0,0,0,0,-1,1238,330,7.78094,122.135
21,694,6.76892,-120.556,0,0,0,0,0,0,0,-1,1245,330,6.76892,120.556
28,694,7.16833,-120.65,0,0,0,0,0,0,0,-1,1252,330,7.16829,120.65
35,694,7.62793,-120.881,0,0,0,0,0,0,0,-1,1259,330,7.62788,120.881
42,694,8.2395,-121.018,0,0,0,0,0,0,0,-1,1266,330,8.23955,121.018
49,694,8.58594,-121.055,0,0,0,0,0,0,0,-1,1273,330,8.58592,121.055
56,694,8.64148,-121.065,0,0,0,0,0,0,0,-1,1280,330,8.64148,121.065
63,694,8.6106,-120.929,0,0,0,0,0,0,0,-1,1287,330,8.6106,120.929
70,694,8.56128,-120.253,0,0,0,0,0,0,0,-1,1294,330,8.5613,120.253
77,694,8.91516,-119.88,0,0,0,0,0,0,0,-1,1301,330,8.91519,119.88
84,694,9.26904,-119.493,0,0,0,0,0,0,0,-1,1308,330,9.26907,119.493
91,694,9.6322,-119.327,0,0,0,0,0,0,0,-1,1315,330,9.63225,119.327
98,694,9.97595,-118.849,0,0,0,0,0,0,0,-1,1322,330,9.97595,118.849
105,694,10.3336,-118.418,0,0,0,0,0,0,0,-1,1329,330,10.3337,118.418
112,694,10.949,-118.03,0,0,0,0,0,0,0,-1,1336,330,10.949,118.03
119,694,11.6011,-117.631,0,0,0,0,0,0,0,-1,1343,330,11.601,117.631
126,694,12.0504,-117.05,0,0,0,0,0,0,0,-1,1350,330,12.0504,117.05
133,694,4.19275,-116.184,0,0,0,0,0,0,0,-1,1357,330,4.19273,116.184
140,694,9.5199,-117.237,0,0,0,0,0,0,0,-1,1364,330,9.51991,117.237
147,694,-6.99646,-112.223,0,0,0,0,0,0,0,-1,1371,330,-6.99642,112.223
154,694,-8.39124,-113.068,0,0,0,0,0,0,0,-1,1378,330,-8.39119,113.068
161,694,0.0187988,-38.6779,0,0,0,0,0,0,0,-1,1385,330,0.0187579,38.6779
168,694,30.451,0.196686,0,0,0,0,0,0,0,-1,1392,330,30.4511,-0.196674
175,694,31.0701,0.869873,0,0,0,0,0,0,0,-1,1399,330,31.07,-0.869874
182,694,8.29028,5.75238,0,0,0,0,0,0,0,-1,1406,330,8.29034,-5.75237
189,694,7.9801,4.46118,0,0,0,0,0,0,0,-1,1413,330,7.9801,-4.46118
196,694,7.39331,3.32632,0,0,0,0,0,0,0,-1,1420,330,7.39329,-3.32633
203,694,7.04492,2.20529,0,0,0,0,0,0,0,-1,1427,330,7.04496,-2.20529
210,694,6.44714,0.646912,0,0,0,0,0,0,0,-1,1434,330,6.44717,-0.646903
217,694,7.12061,-0.644958,0,0,0,0,0,0,0,-1,1441,330,7.12059,0.644961
224,694,6.74011,-1.70544,0,0,0,0,0,0,0,-1,1448,330,6.74013,1.70546
231,694,0,0,0,0,0,0,0,0,0,-1,1455,330,0,0
238,694,0,0,0,0,0,0,0,0,0,-1,1462,330,0,0
245,694,0,0,0,0,0,0,0,0,0,-1,1469,330,0,0
252,694,0,0,0,0,0,0,0,0,0,-1,1476,330,0,0
259,694,0,0,0,0,0,0,0,0,0,-1,1483,330,0,0
266,694,0,0,0,0,0,0,0,0,0,-1,1490,330,0,0
273,694,0,0,0,0,0,0,0,0,0,-1,1497,330,0,0
280,694,0,0,0,0,0,0,0,0,0,-1,1504,330,0,0
287,694,0,0,0,0,0,0,0,0,0,-1,1511,330,0,0
294,694,0,0,0,0,0,0,0,0,0,-1,1518,330,0,0
301,694,0,0,0,0,0,0,0,0,0,-1,1525,330,0,0
308,694,0,0,0,0,0,0,0,0,0,-1,1532,330,0,0
315,694,0,0,0,0,0,0,0,0,0,-1,1539,330,0,0
322,694,0,0,0,0,0,0,0,0,0,-1,1546,330,0,0
329,694,0,0,0,0,0,0,0,0,0,-1,1553,330,0,0
336,694,0,0,0,0,0,0,0,0,0,-1,1560,330,0,0
343,694,0,0,0,0,0,0,0,0,0,-1,1567,330,0,0
350,694,0,0,0,0,0,0,0,0,0,-1,1574,330,0,0
357,694,0,0,0,0,0,0,0,0,0,-1,1581,330,0,0
364,694,0,0,0,0,0,0,0,0,0,-1,1588,330,0,0
371,694,0,0,0,0,0,0,0,0,0,-1,1595,330,0,0
378,694,0,0,0,0,0,0,0,0,0,-1,1602,330,0,0
385,694,0,0,0,0,0,0,0,0,0,-1,1609,330,0,0
392,694,0,0,0,0,0,0,0,0,0,-1,1616,330,0,0
399,694,0,0,0,0,0,0,0,0,0,-1,1623,330,0,0
406,694,0,0,0,0,0,0,0,0,0,-1,1630,330,0,0
413,694,0,0,0,0,0,0,0,0,0,-1,1637,330,0,0
420,694,0,0,0,0,0,0,0,0,0,-1,1644,330,0,0
427,694,0,0,0,0,0,0,0,0,0,-1,1651,330,0,0
434,694,0,0,0,0,0,0,0,0,0,-1,1658,330,0,0
441,694,0,0,0,0,0,0,0,0,0,-1,1665,330,0,0
448,694,0,0,0,0,0,0,0,0,0,-1,1672,330,0,0
455,694,0,0,0,0,0,0,0,0,0,-1,1679,330,0,0
462,694,0,0,0,0,0,0,0,0,0,-1,1686,330,0,0
469,694,0,0,0,0,0,0,0,0,0,-1,1693,330,0,0
476,694,0,0,0,0,0,0,0,0,0,-1,1700,330,0,0
483,694,0,0,0,0,0,0,0,0,0,-1,1707,330,0,0
490,694,0,0,0,0,0,0,0,0,0,-1,1714,330,0,0
497,694,0,0,0,0,0,0,0,0,0,-1,1721,330,0,0
504,694,0,0,0,0,0,0,0,0,0,-1,1728,330,0,0
511,694,0,0,0,0,0,0,0,0,0,-1,1735,330,0,0
518,694,0,0,0,0,0,0,0,0,0,-1,1742,330,0,0
525,694,0,0,0,0,0,0,0,0,0,-1,1749,330,0,0
532,694,0,0,0,0,0,0,0,0,0,-1,1756,330,0,0
539,694,0,0,0,0,0,0,0,0,0,-1,1763,330,0,0
546,694,0,0,0,0,0,0,0,0,0,-1,1770,330,0,0
553,694,0,0,0,0,0,0,0,0,0,-1,1777,330,0,0
560,694,0,0,0,0,0,0,0,0,0,-1,1784,330,0,0
567,694,0,0,0,0,0,0,0,0,0,-1,1791,330,0,0
574,694,0,0,0,0,0,0,0,0,0,-1,1798,330,0,0
581,694,0,0,0,0,0,0,0,0,0,-1,1805,330,0,0
588,694,0,0,0,0,0,0,0,0,0,-1,1812,330,0,0
595,694,0,0,0,0,0,0,0,0,0,-1,1819,330,0,0
602,694,0,0,0,0,0,0,0,0,0,-1,1826,330,0,0
609,694,0,0,0,0,0,0,0,0,0,-1,1833,330,0,0
616,694,0,0,0,0,0,0,0,0,0,-1,1840,330,0,0
623,694,0,0,0,0,0,0,0,0,0,-1,1847,330,0,0
630,694,0,0,0,0,0,0,0,0,0,-1,1854,330,0,0
637,694,0,0,0,0,0,0,0,0,0,-1,1861,330,0,0
644,694,0,0,0,0,0,0,0,0,0,-1,1868,330,0,0
651,694,0,0,0,0,0,0,0,0,0,-1,1875,330,0,0
658,694,0,0,0,0,0,0,0,0,0,-1,1882,330,0,0
665,694,0,0,0,0,0,0,0,0,0,-1,1889,330,0,0
672,694,0,0,0,0,0,0,0,0,0,-1,1896,330,0,0
679,694,0,0,0,0,0,0,0,0,0,-1,1903,330,0,0
686,694,0,0,0,0,0,0,0,0,0,-1,1910,330,0,0
693,694,0,0,0,0,0,0,0,0,0,-1,1917,330,0,0
700,694,0,0,0,0,0,0,0,0,0,-1,1924,330,0,0
707,694,0,0,0,0,0,0,0,0,0,-1,1931,330,0,0
714,694,0,0,0,0,0,0,0,0,0,-1,1938,330,0,0
721,694,0,0,0,0,0,0,0,0,0,-1,1945,330,0,0
728,694,0,0,0,0,0,0,0,0,0,-1,1952,330,0,0
735,694,0,0,0,0,0,0,0,0,0,-1,1959,330,0,0
742,694,0,0,0,0,0,0,0,0,0,-1,1966,330,0,0
749,694,0,0,0,0,0,0,0,0,0,-1,1973,330,0,0
756,694,0,0,0,0,0,0,0,0,0,-1,1980,330,0,0
763,694,0,0,0,0,0,0,0,0,0,-1,1987,330,0,0
770,694,0,0,0,0,0,0,0,0,0,-1,1994,330,0,0
777,694,0,0,0,0,0,0,0,0,0,-1,2001,330,0,0
784,694,0,0,0,0,0,0,0,0,0,-1,2008,330,0,0
791,694,0,0,0,0,0,0,0,0,0,-1,2015,330,0,0
798,694,0,0,0,0,0,0,0,0,0,-1,2022,330,0,0
805,694,0,0,0,0,0,0,0,0,0,-1,2029,330,0,0
812,694,0,0,0,0,0,0,0,0,0,-1,2036,330,0,0
-700,687,0,0,0,0,0,0,0,0,0,-1,524,337,0,0
-693,687,0,0,0,0,0,0,0,0,0,-1,531,337,0,0
-686,687,0,0,0,0,0,0,0,0,0,-1,538,337,0,0
-679,687,0,0,0,0,0,0,0,0,0,-1,545,337,0,0
-672,687,0,0,0,0,0,0,0,0,0,-1,552,337,0,0
-665,687,0,0,0,0,0,0,0,0,0,-1,559,337,0,0
-658,687,0,0,0,0,0,0,0,0,0,-1,566,337,0,0
-651,687,0,0,0,0,0,0,0,0,0,-1,573,337,0,0
-644,687,0,0,0,0,0,0,0,0,0,-1,580,337,0,0
-637,687,0,0,0,0,0,0,0,0,0,-1,587,337,0,0
-630,687,0,0,0,0,0,0,0,0,0,-1,594,337,0,0
-623,687,0,0,0,0,0,0,0,0,0,-1,601,337,0,0
-616,687,0,0,0,0,0,0,0,0,0,-1,608,337,0,0
-609,687,0,0,0,0,0,0,0,0,0,-1,615,337,0,0
-602,687,0,0,0,0,0,0,0,0,0,-1,622,337,0,0
-595,687,0,0,0,0,0,0,0,0,0,-1,629,337,0,0
-588,687,0,0,0,0,0,0,0,0,0,-1,636,337,0,0
-581,687,0,0,0,0,0,0,0,0,0,-1,643,337,0,0
-574,687,0,0,0,0,0,0,0,0,0,-1,650,337,0,0
-567,687,0,0,0,0,0,0,0,0,0,-1,657,337,0,0
-560,687,0,0,0,0,0,0,0,0,0,-1,664,337,0,0
-553,687,0,0,0,0,0,0,0,0,0,-1,671,337,0,0
-546,687,0,0,0,0,0,0,0,0,0,-1,678,337,0,0
-539,687,0,0,0,0,0,0,0,0,0,-1,685,337,0,0
-532,687,0,0,0,0,0,0,0,0,0,-1,692,337,0,0
-525,687,0,0,0,0,0,0,0,0,0,-1,699,337,0,0
-518,687,0,0,0,0,0,0,0,0,0,-1,706,337,0,0
-511,687,0,0,0,0,0,0,0,0,0,-1,713,337,0,0
-504,687,0,0,0,0,0,0,0,0,0,-1,720,337,0,0
-497,687,0,0,0,0,0,0,0,0,0,-1,727,337,0,0
-490,687,0,0,0,0,0,0,0,0,0,-1,734,337,0,0
-483,687,0,0,0,0,0,0,0,0,0,-1,741,337,0,0
-476,687,0,0,0,0,0,0,0,0,0,-1,748,337,0,0
-469,687,0,0,0,0,0,0,0,0,0,-1,755,337,0,0
-462,687,0,0,0,0,0,0,0,0,0,-1,762,337,0,0
-455,687,0,0,0,0,0,0,0,0,0,-1,769,337,0,0
-448,687,0,0,0,0,0,0,0,0,0,-1,776,337,0,0
-441,687,0,0,0,0,0,0,0,0,0,-1,783,337,0,0
-434,687,0,0,0,0,0,0,0,0,0,-1,790,337,0,0
-427,687,0,0,0,0,0,0,0,0,0,-1,797,337,0,0
-420,687,0,0,0,0,0,0,0,0,0,-1,804,337,0,0
-413,687,0,0,0,0,0,0,0,0,0,-1,811,337,0,0
-406,687,0,0,0,0,0,0,0,0,0,-1,818,337,0,0
-399,687,0,0,0,0,0,0,0,0,0,-1,825,337,0,0
-392,687,0,0,0,0,0,0,0,0,0,-1,832,337,0,0
-385,687,0,0,0,0,0,0,0,0,0,-1,839,337,0,0
-378,687,0,0,0,0,0,0,0,0,0,-1,846,337,0,0
-371,687,0,0,0,0,0,0,0,0,0,-1,853,337,0,0
-364,687,0,0,0,0,0,0,0,0,0,-1,860,337,0,0
-357,687,0,0,0,0,0,0,0,0,0,-1,867,337,0,0
-350,687,0,0,0,0,0,0,0,0,0,-1,874,337,0,0
-343,687,0,0,0,0,0,0,0,0,0,-1,881,337,0,0
-336,687,0,0,0,0,0,0,0,0,0,-1,888,337,0,0
-329,687,0,0,0,0,0,0,0,0,0,-1,895,337,0,0
-322,687,0,0,0,0,0,0,0,0,0,-1,902,337,0,0
-315,687,0,0,0,0,0,0,0,0,0,-1,909,337,0,0
-308,687,0,0,0,0,0,0,0,0,0,-1,916,337,0,0
-301,687,0,0,0,0,0,0,0,0,0,-1,923,337,0,0
-294,687,0,0,0,0,0,0,0,0,0,-1,930,337,0,0
-287,687,0,0,0,0,0,0,0,0,0,-1,937,337,0,0
-280,687,0,0,0,0,0,0,0,0,0,-1,944,337,0,0
-273,687,0,0,0,0,0,0,0,0,0,-1,951,337,0,0
-266,687,0,0,0,0,0,0,0,0,0,-1,958,337,0,0
-259,687,0,0,0,0,0,0,0,0,0,-1,965,337,0,0
-252,687,0,0,0,0,0,0,0,0,0,-1,972,337,0,0
-245,687,0,0,0,0,0,0,0,0,0,-1,979,337,0,0
-238,687,0,0,0,0,0,0,0,0,0,-1,986,337,0,0
-231,687,0,0,0,0,0,0,0,0,0,-1,993,337,0,0
-224,687,0,0,0,0,0,0,0,0,0,-1,1000,337,0,0
-217,687,0,0,0,0,0,0,0,0,0,-1,1007,337,0,0
-210,687,0,0,0,0,0,0,0,0,0,-1,1014,337,0,0
-203,687,0,0,0,0,0,0,0,0,0,-1,1021,337,0,0
-196,687,0,0,0,0,0,0,0,0,0,-1,1028,337,0,0
-189,687,0,0,0,0,0,0,0,0,0,-1,1035,337,0,0
-182,687,0,0,0,0,0,0,0,0,0,-1,1042,337,0,0
-175,687,0,0,0,0,0,0,0,0,0,-1,1049,337,0,0
-168,687,0,0,0,0,0,0,0,0,0,-1,1056,337,0,0
-161,687,0,0,0,0,0,0,0,0,0,-1,1063,337,0,0
-154,687,0,0,0,0,0,0,0,0,0,-1,1070,337,0,0
-147,687,0,0,0,0,0,0,0,0,0,-1,1077,337,0,0
-140,687,0,0,0,0,0,0,0,0,0,-1,1084,337,0,0
-133,687,7.93958,-37.548,0,0,0,0,0,0,0,-1,1091,337,7.93957,37.548
-126,687,0.688477,-38.7298,0,0,0,0,0,0,0,-1,1098,337,0.688509,38.7298
-119,687,7.70825,-33.9236,0,0,0,0,0,0,0,-1,1105,337,7.70826,33.9236
-112,687,7.99866,-32.2983,0,0,0,0,0,0,0,-1,1112,337,7.99866,32.2983
-105,687,1.3208,-29.8313,0,0,0,0,0,0,0,-1,1119,337,1.3208,29.8313
-98,687,13.7111,-47.5645,0,0,0,0,0,0,0,-1,1126,337,13.711,47.5645
-91,687,7.22083,-41.1667,0,0,0,0,0,0,0,-1,1133,337,7.22079,41.1666
-84,687,0.745117,-35.0345,0,0,0,0,0,0,0,-1,1140,337,0.745155,35.0345
-77,687,-5.74353,-28.9553,0,0,0,0,0,0,0,-1,1147,337,-5.74357,28.9553
-70,687,-11.6842,-19.8473,0,0,0,0,0,0,0,-1,1154,337,-11.6842,19.8473
-63,687,-17.6757,-14.8966,0,0,0,0,0,0,0,-1,1161,337,-17.6756,14.8966
-56,687,-18.104,7.81931,0,0,0,0,0,0,0,-1,1168,337,-18.104,-7.81931
-49,687,-15.6449,-9.94391,0,0,0,0,0,0,0,-1,1175,337,-15.6449,9.94392
-42,687,-4.2019,-0.405609,0,0,0,0,0,0,0,-1,1182,337,-4.20192,0.405614
-35,687,-4.42273,-0.688171,0,0,0,0,0,0,0,-1,1189,337,-4.42276,0.688178
-28,687,-1.14038,-1.39072,0,0,0,0,0,0,0,-1,1196,337,-1.14035,1.3907
-21,687,16.6345,-105.042,0,0,0,0,0,0,0,-1,1203,337,16.6345,105.042
-14,687,7.59106,-123.259,0,0,0,0,0,0,0,-1,1210,337,7.59103,123.259
-7,687,7.42224,-123.35,0,0,0,0,0,0,0,-1,1217,337,7.42229,123.35
0,687,7.39587,-123.522,0,0,0,0,0,0,0,-1,1224,337,7.39589,123.522
7,687,7.6853,-123.321,0,0,0,0,0,0,0,-1,1231,337,7.68532,123.321
14,687,7.70288,-122.894,0,0,0,0,0,0,0,-1,1238,337,7.70289,122.894
21,687,7.54065,-122.255,0,0,0,0,0,0,0,-1,1245,337,7.54062,122.255
28,687,7.47327,-121.694,0,0,0,0,0,0,0,-1,1252,337,7.47321,121.694
35,687,7.8136,-121.703,0,0,0,0,0,0,0,-1,1259,337,7.81359,121.703
42,687,8.28809,-121.786,0,0,0,0,0,0,0,-1,1266,337,8.28803,121.786
49,687,8.6958,-121.88,0,0,0,0,0,0,0,-1,1273,337,8.69581,121.88
56,687,8.67859,-121.752,0,0,0,0,0,0,0,-1,1280,337,8.6786,121.752
63,687,8.66138,-121.624,0,0,0,0,0,0,0,-1,1287,337,8.66139,121.624
70,687,8.69922,-120.527,0,0,0,0,0,0,0,-1,1294,337,8.69924,120.527
77,687,8.96631,-120.172,0,0,0,0,0,0,0,-1,1301,337,8.96626,120.172
84,687,9.16711,-119.717,0,0,0,0,0,0,0,-1,1308,337,9.16708,119.717
91,687,10.5623,-120.067,0,0,0,0,0,0,0,-1,1315,337,10.5623,120.067
98,687,11.1895,-119.641,0,0,0,0,0,0,0,-1,1322,337,11.1895,119.641
105,687,11.7587,-119.117,0,0,0,0,0,0,0,-1,1329,337,11.7587,119.117
112,687,12.2915,-118.735,0,0,0,0,0,0,0,-1,1336,337,12.2914,118.735
119,687,12.8386,-118.392,0,0,0,0,0,0,0,-1,1343,337,12.8386,118.392
126,687,13.3451,-117.901,0,0,0,0,0,0,0,-1,1350,337,13.3451,117.901
133,687,13.8284,-117.484,0,0,0,0,0,0,0,-1,1357,337,13.8283,117.484
140,687,3.97791,-118.856,0,0,0,0,0,0,0,-1,1364,337,3.97789,118.856
147,687,-6.0741,-114.711,0,0,0,0,0,0,0,-1,1371,337,-6.07408,114.711
154,687,3.3324,-99.3925,0,0,0,0,0,0,0,-1,1378,337,3.33246,99.3925
161,687,29.3895,-1.90628,0,0,0,0,0,0,0,-1,1385,337,29.3895,1.90628
168,687,29.8564,-1.19434,0,0,0,0,0,0,0,-1,1392,337,29.8564,1.19434
175,687,30.3419,-0.453583,0,0,0,0,0,0,0,-1,1399,337,30.3419,0.45357
182,687,6.67249,0.289917,0,0,0,0,0,0,0,-1,1406,337,6.67247,-0.289916
189,687,7.76062,4.53635,0,0,0,0,0,0,0,-1,1413,337,7.76064,-4.53636
196,687,6.99048,3.2966,0,0,0,0,0,0,0,-1,1420,337,6.99046,-3.2966
203,687,6.36499,2.1445,0,0,0,0,0,0,0,-1,1427,337,6.36499,-2.14451
210,687,6.68066,0.674652,0,0,0,0,0,0,0,-1,1434,337,6.68062,-0.674655
217,687,5.99683,-0.630493,0,0,0,0,0,0,0,-1,1441,337,5.99684,0.630497
224,687,5.52917,0.524902,0,0,0,0,0,0,0,-1,1448,337,5.5292,-0.524915
231,687,5.85583,-1.73651,0,0,0,0,0,0,0,-1,1455,337,5.85577,1.73651
238,687,5.96582,-2.96774,0,0,0,0,0,0,0,-1,1462,337,5.96577,2.96773
245,687,1.28259,2.32211,0,0,0,0,0,0,0,-1,1469,337,1.28258,-2.32211
252,687,1.97278,3.88422,0,0,0,0,0,0,0,-1,1476,337,1.97281,-3.88421
259,687,0,0,0,0,0,0,0,0,0,-1,1483,337,0,0
266,687,0,0,0,0,0,0,0,0,0,-1,1490,337,0,0
273,687,0,0,0,0,0,0,0,0,0,-1,1497,337,0,0
280,687,0,0,0,0,0,0,0,0,0,-1,1504,337,0,0
287,687,0,0,0,0,0,0,0,0,0,-1,1511,337,0,0
294,687,0,0,0,0,0,0,0,0,0,-1,1518,337,0,0
301,687,0,0,0,0,0,0,0,0,0,-1,1525,337,0,0
308,687,0,0,0,0,0,0,0,0,0,-1,1532,337,0,0
315,687,0,0,0,0,0,0,0,0,0,-1,1539,337,0,0
322,687,0,0,0,0,0,0,0,0,0,-1,1546,337,0,0
329,687,0,0,0,0,0,0,0,0,0,-1,1553,337,0,0
336,687,0,0,0,0,0,0,0,0,0,-1,1560,337,0,0
343,687,0,0,0,0,0,0,0,0,0,-1,1567,337,0,0
350,687,0,0,0,0,0,0,0,0,0,-1,1574,337,0,0
357,687,0,0,0,0,0,0,0,0,0,-1,1581,337,0,0
364,687,0,0,0,0,0,0,0,0,0,-1,1588,337,0,0
371,687,0,0,0,0,0,0,0,0,0,-1,1595,337,0,0
378,687,0,0,0,0,0,0,0,0,0,-1,1602,337,0,0
385,687,0,0,0,0,0,0,0,0,0,-1,1609,337,0,0
392,687,0,0,0,0,0,0,0,0,0,-1,1616,337,0,0
399,687,0,0,0,0,0,0,0,0,0,-1,1623,337,0,0
406,687,0,0,0,0,0,0,0,0,0,-1,1630,337,0,0
413,687,0,0,0,0,0,0,0,0,0,-1,1637,337,0,0
420,687,0,0,0,0,0,0,0,0,0,-1,1644,337,0,0
427,687,0,0,0,0,0,0,0,0,0,-1,1651,337,0,0
434,687,0,0,0,0,0,0,0,0,0,-1,1658,337,0,0
441,687,0,0,0,0,0,0,0,0,0,-1,1665,337,0,0
448,687,0,0,0,0,0,0,0,0,0,-1,1672,337,0,0
455,687,0,0,0,0,0,0,0,0,0,-1,1679,337,0,0
462,687,0,0,0,0,0,0,0,0,0,-1,1686,337,0,0
469,687,0,0,0,0,0,0,0,0,0,-1,1693,337,0,0
476,687,0,0,0,0,0,0,0,0,0,-1,1700,337,0,0
483,687,0,0,0,0,0,0,0,0,0,-1,1707,337,0,0
490,687,0,0,0,0,0,0,0,0,0,-1,1714,337,0,0
497,687,0,0,0,0,0,0,0,0,0,-1,1721,337,0,0
504,687,0,0,0,0,0,0,0,0,0,-1,1728,337,0,0
511,687,0,0,0,0,0,0,0,0,0,-1,1735,337,0,0
518,687,0,0,0,0,0,0,0,0,0,-1,1742,337,0,0
525,687,0,0,0,0,0,0,0,0,0,-1,1749,337,0,0
532,687,0,0,0,0,0,0,0,0,0,-1,1756,337,0,0
539,687,0,0,0,0,0,0,0,0,0,-1,1763,337,0,0
546,687,0,0,0,0,0,0,0,0,0,-1,1770,337,0,0
553,687,0,0,0,0,0,0,0,0,0,-1,1777,337,0,0
560,687,0,0,0,0,0,0,0,0,0,-1,1784,337,0,0
567,687,0,0,0,0,0,0,0,0,0,-1,1791,337,0,0
574,687,0,0,0,0,0,0,0,0,0,-1,1798,337,0,0
581,687,0,0,0,0,0,0,0,0,0,-1,1805,337,0,0
588,687,0,0,0,0,0,0,0,0,0,-1,1812,337,0,0
595,687,0,0,0,0,0,0,0,0,0,-1,1819,337,0,0
602,687,0,0,0,0,0,0,0,0,0,-1,1826,337,0,0
609,687,0,0,0,0,0,0,0,0,0,-1,1833,337,0,0
616,687,0,0,0,0,0,0,0,0,0,-1,1840,337,0,0
623,687,0,0,0,0,0,0,0,0,0,-1,1847,337,0,0
630,687,0,0,0,0,0,0,0,0,0,-1,1854,337,0,0
637,687,0,0,0,0,0,0,0,0,0,-1,1861,337,0,0
644,687,0,0,0,0,0,0,0,0,0,-1,1868,337,0,0
651,687,0,0,0,0,0,0,0,0,0,-1,1875,337,0,0
658,687,0,0,0,0,0,0,0,0,0,-1,1882,337,0,0
665,687,0,0,0,0,0,0,0,0,0,-1,1889,337,0,0
672,687,0,0,0,0,0,0,0,0,0,-1,1896,337,0,0
679,687,0,0,0,0,0,0,0,0,0,-1,1903,337,0,0
686,687,0,0,0,0,0,0,0,0,0,-1,1910,337,0,0
693,687,0,0,0,0,0,0,0,0,0,-1,1917,337,0,0
700,687,0,0,0,0,0,0,0,0,0,-1,1924,337,0,0
707,687,0,0,0,0,0,0,0,0,0,-1,1931,337,0,0
714,687,0,0,0,0,0,0,0,0,0,-1,1938,337,0,0
721,687,0,0,0,0,0,0,0,0,0,-1,1945,337,0,0
728,687,0,0,0,0,0,0,0,0,0,-1,1952,337,0,0
735,687,0,0,0,0,0,0,0,0,0,-1,1959,337,0,0
742,687,0,0,0,0,0,0,0,0,0,-1,1966,337,0,0
749,687,0,0,0,0,0,0,0,0,0,-1,1973,337,0,0
756,687,0,0,0,0,0,0,0,0,0,-1,1980,337,0,0
763,687,0,0,0,0,0,0,0,0,0,-1,1987,337,0,0
770,687,0,0,0,0,0,0,0,0,0,-1,1994,337,0,0
777,687,0,0,0,0,0,0,0,0,0,-1,2001,337,0,0
784,687,0,0,0,0,0,0,0,0,0,-1,2008,337,0,0
791,687,0,0,0,0,0,0,0,0,0,-1,2015,337,0,0
798,687,0,0,0,0,0,0,0,0,0,-1,2022,337,0,0
805,687,0,0,0,0,0,0,0,0,0,-1,2029,337,0,0
812,687,0,0,0,0,0,0,0,0,0,-1,2036,337,0,0
-700,680,0,0,0,0,0,0,0,0,0,-1,524,344,0,0
-693,680,0,0,0,0,0,0,0,0,0,-1,531,344,0,0
-686,680,0,0,0,0,0,0,0,0,0,-1,538,344,0,0
-679,680,0,0,0,0,0,0,0,0,0,-1,545,344,0,0
-672,680,0,0,0,0,0,0,0,0,0,-1,552,344,0,0
-665,680,0,0,0,0,0,0,0,0,0,-1,559,344,0,0
-658,680,0,0,0,0,0,0,0,0,0,-1,566,344,0,0
-651,680,0,0,0,0,0,0,0,0,0,-1,573,344,0,0
-644,680,0,0,0,0,0,0,0,0,0,-1,580,344,0,0
-637,680,0,0,0,0,0,0,0,0,0,-1,587,344,0,0
-630,680,0,0,0,0,0,0,0,0,0,-1,594,344,0,0
-623,680,0,0,0,0,0,0,0,0,0,-1,601,344,0,0
-616,680,0,0,0,0,0,0,0,0,0,-1,608,344,0,0
-609,680,0,0,0,0,0,0,0,0,0,-1,615,344,0,0
-602,680,0,0,0,0,0,0,0,0,0,-1,622,344,0,0
-595,680,0,0,0,0,0,0,0,0,0,-1,629,344,0,0
-588,680,0,0,0,0,0,0,0,0,0,-1,636,344,0,0
-581,680,0,0,0,0,0,0,0,0,0,-1,643,344,0,0
-574,680,0,0,0,0,0,0,0,0,0,-1,650,344,0,0
-567,680,0,0,0,0,0,0,0,0,0,-1,657,344,0,0
-560,680,0,0,0,0,0,0,0,0,0,-1,664,344,0,0
-553,680,0,0,0,0,0,0,0,0,0,-1,671,344,0,0
-546,680,0,0,0,0,0,0,0,0,0,-1,678,344,0,0
-539,680,0,0,0,0,0,0,0,0,0,-1,685,344,0,0
-532,680,0,0,0,0,0,0,0,0,0,-1,692,344,0,0
-525,680,0,0,0,0,0,0,0,0,0,-1,699,344,0,0
-518,680,0,0,0,0,0,0,0,0,0,-1,706,344,0,0
-511,680,0,0,0,0,0,0,0,0,0,-1,713,344,0,0
-504,680,0,0,0,0,0,0,0,0,0,-1,720,344,0,0
-497,680,0,0,0,0,0,0,0,0,0,-1,727,344,0,0
-490,680,0,0,0,0,0,0,0,0,0,-1,734,344,0,0
-483,680,0,0,0,0,0,0,0,0,0,-1,741,344,0,0
-476,680,0,0,0,0,0,0,0,0,0,-1,748,344,0,0
-469,680,0,0,0,0,0,0,0,0,0,-1,755,344,0,0
-462,680,0,0,0,0,0,0,0,0,0,-1,762,344,0,0
-455,680,0,0,0,0,0,0,0,0,0,-1,769,344,0,0
-448,680,0,0,0,0,0,0,0,0,0,-1,776,344,0,0
-441,680,0,0,0,0,0,0,0,0,0,-1,783,344,0,0
-434,680,0,0,0,0,0,0,0,0,0,-1,790,344,0,0
-427,680,0,0,0,0,0,0,0,0,0,-1,797,344,0,0
-420,680,0,0,0,0,0,0,0,0,0,-1,804,344,0,0
-413,680,0,0,0,0,0,0,0,0,0,-1,811,344,0,0
-406,680,0,0,0,0,0,0,0,0,0,-1,818,344,0,0
-399,680,0,0,0,0,0,0,0,0,0,-1,825,344,0,0
-392,680,0,0,0,0,0,0,0,0,0,-1,832,344,0,0
-385,680,0,0,0,0,0,0,0,0,0,-1,839,344,0,0
-378,680,0,0,0,0,0,0,0,0,0,-1,846,344,0,0
-371,680,0,0,0,0,0,0,0,0,0,-1,853,344,0,0
-364,680,0,0,0,0,0,0,0,0,0,-1,860,344,0,0
-357,680,0,0,0,0,0,0,0,0,0,-1,867,344,0,0
-350,680,0,0,0,0,0,0,0,0,0,-1,874,344,0,0
-343,680,0,0,0,0,0,0,0,0,0,-1,881,344,0,0
-336,680,0,0,0,0,0,0,0,0,0,-1,888,344,0,0
-329,680,0,0,0,0,0,0,0,0,0,-1,895,344,0,0
-322,680,0,0,0,0,0,0,0,0,0,-1,902,344,0,0
-315,680,0,0,0,0,0,0,0,0,0,-1,909,344,0,0
-308,680,0,0,0,0,0,0,0,0,0,-1,916,344,0,0
-301,680,0,0,0,0,0,0,0,0,0,-1,923,344,0,0
-294,680,0,0,0,0,0,0,0,0,0,-1,930,344,0,0
-287,680,0,0,0,0,0,0,0,0,0,-1,937,344,0,0
-280,680,0,0,0,0,0,0,0,0,0,-1,944,344,0,0
-273,680,0,0,0,0,0,0,0,0,0,-1,951,344,0,0
-266,680,0,0,0,0,0,0,0,0,0,-1,958,344,0,0
-259,680,0,0,0,0,0,0,0,0,0,-1,965,344,0,0
-252,680,0,0,0,0,0,0,0,0,0,-1,972,344,0,0
-245,680,0,0,0,0,0,0,0,0,0,-1,979,344,0,0
-238,680,0,0,0,0,0,0,0,0,0,-1,986,344,0,0
-231,680,0,0,0,0,0,0,0,0,0,-1,993,344,0,0
-224,680,0,0,0,0,0,0,0,0,0,-1,1000,344,0,0
-217,680,0,0,0,0,0,0,0,0,0,-1,1007,344,0,0
-210,680,0,0,0,0,0,0,0,0,0,-1,1014,344,0,0
-203,680,0,0,0,0,0,0,0,0,0,-1,1021,344,0,0
-196,680,0,0,0,0,0,0,0,0,0,-1,1028,344,0,0
-189,680,0,0,0,0,0,0,0,0,0,-1,1035,344,0,0
-182,680,0,0,0,0,0,0,0,0,0,-1,1042,344,0,0
-175,680,0,0,0,0,0,0,0,0,0,-1,1049,344,0,0
-168,680,0,0,0,0,0,0,0,0,0,-1,1056,344,0,0
-161,680,0,0,0,0,0,0,0,0,0,-1,1063,344,0,0
-154,680,2.25244,-29.1442,0,0,0,0,0,0,0,-1,1070,344,2.25241,29.1442
-147,680,9.29614,-33.0369,0,0,0,0,0,0,0,-1,1077,344,9.29612,33.0369
-140,680,6.98022,-36.6899,0,0,0,0,0,0,0,-1,1084,344,6.98023,36.6899
-133,680,1.85693,-39.7233,0,0,0,0,0,0,0,-1,1091,344,1.85699,39.7233
-126,680,2.30017,-38.3751,0,0,0,0,0,0,0,-1,1098,344,2.30011,38.3751
-119,680,2.74329,-37.0269,0,0,0,0,0,0,0,-1,1105,344,2.74323,37.0269
-112,680,7.7467,-32.4407,0,0,0,0,0,0,0,-1,1112,344,7.74668,32.4407
-105,680,20.6371,-48.461,0,0,0,0,0,0,0,-1,1119,344,20.6371,48.461
-98,680,14.2684,-41.9997,0,0,0,0,0,0,0,-1,1126,344,14.2685,41.9997
-91,680,7.89648,-35.5147,0,0,0,0,0,0,0,-1,1133,344,7.8965,35.5147
-84,680,1.47168,-29.471,0,0,0,0,0,0,0,-1,1140,344,1.47163,29.471
-77,680,-4.95337,-23.3355,0,0,0,0,0,0,0,-1,1147,344,-4.9534,23.3356
-70,680,-11.5099,-17.4337,0,0,0,0,0,0,0,-1,1154,344,-11.5098,17.4338
-63,680,-17.2391,-1.43134,0,0,0,0,0,0,0,-1,1161,344,-17.2392,1.43133
-56,680,-6.96912,-8.83356,0,0,0,0,0,0,0,-1,1168,344,-6.96907,8.83354
-49,680,-6.7677,-2.24063,0,0,0,0,0,0,0,-1,1175,344,-6.76772,2.24063
-42,680,-1.02368,0.618805,0,0,0,0,0,0,0,-1,1182,344,-1.0237,-0.618797
-35,680,-0.947876,-0.942719,0,0,0,0,0,0,0,-1,1189,344,-0.947842,0.942731
-28,680,-1.46118,-1.10574,0,0,0,0,0,0,0,-1,1196,344,-1.4612,1.10575
-21,680,15.6656,-104.844,0,0,0,0,0,0,0,-1,1203,344,15.6656,104.844
-14,680,6.229,-123.017,0,0,0,0,0,0,0,-1,1210,344,6.22897,123.017
-7,680,6.86194,-123.248,0,0,0,0,0,0,0,-1,1217,344,6.86191,123.248
0,680,7.4541,-124.166,0,0,0,0,0,0,0,-1,1224,344,7.45405,124.166
7,680,7.77734,-123.949,0,0,0,0,0,0,0,-1,1231,344,7.77733,123.949
14,680,7.62488,-123.653,0,0,0,0,0,0,0,-1,1238,344,7.62484,123.653
21,680,11.2233,-121.43,0,0,0,0,0,0,0,-1,1245,344,11.2232,121.43
28,680,7.43188,-122.852,0,0,0,0,0,0,0,-1,1252,344,7.43194,122.852
35,680,7.92969,-122.551,0,0,0,0,0,0,0,-1,1259,344,7.92966,122.551
42,680,8.40479,-122.638,0,0,0,0,0,0,0,-1,1266,344,8.40477,122.638
49,680,7.47424,-160.77,0,0,0,0,0,0,0,-1,1273,344,7.47421,160.77
56,680,5.9436,-190.367,0,0,0,0,0,0,0,-1,1280,344,5.94364,190.367
63,680,8.76953,-122.134,0,0,0,0,0,0,0,-1,1287,344,8.76958,122.134
70,680,8.71704,-121.625,0,0,0,0,0,0,0,-1,1294,344,8.71704,121.625
77,680,8.31482,-121.182,0,0,0,0,0,0,0,-1,1301,344,8.31482,121.182
84,680,11.0287,-121.975,0,0,0,0,0,0,0,-1,1308,344,11.0287,121.975
91,680,11.4004,-121.108,0,0,0,0,0,0,0,-1,1315,344,11.4004,121.108
98,680,11.7721,-120.242,0,0,0,0,0,0,0,-1,1322,344,11.7721,120.242
105,680,12.9456,-119.966,0,0,0,0,0,0,0,-1,1329,344,12.9456,119.966
112,680,13.5817,-119.494,0,0,0,0,0,0,0,-1,1336,344,13.5817,119.494
119,680,14.1455,-119.18,0,0,0,0,0,0,0,-1,1343,344,14.1456,119.18
126,680,14.6399,-118.752,0,0,0,0,0,0,0,-1,1350,344,14.6398,118.752
133,680,5.18445,-120.769,0,0,0,0,0,0,0,-1,1357,344,5.18441,120.769
140,680,4.07813,-102.08,0,0,0,0,0,0,0,-1,1364,344,4.0781,102.08
147,680,4.32385,-99.3212,0,0,0,0,0,0,0,-1,1371,344,4.32389,99.3212
154,680,0.195801,-86.2149,0,0,0,0,0,0,0,-1,1378,344,0.19576,86.2149
161,680,-2.63489,-88.0134,0,0,0,0,0,0,0,-1,1385,344,-2.63486,88.0134
168,680,29.4142,-2.51651,0,0,0,0,0,0,0,-1,1392,344,29.4142,2.51652
175,680,6.66541,0.942078,0,0,0,0,0,0,0,-1,1399,344,6.66538,-0.942088
182,680,6.52917,0.532379,0,0,0,0,0,0,0,-1,1406,344,6.52922,-0.532385
189,680,7.55884,4.77695,0,0,0,0,0,0,0,-1,1413,344,7.55886,-4.77694
196,680,6.55627,3.35254,0,0,0,0,0,0,0,-1,1420,344,6.55622,-3.35255
203,680,5.7334,1.90753,0,0,0,0,0,0,0,-1,1427,344,5.73341,-1.90754
210,680,5.27515,0.493622,0,0,0,0,0,0,0,-1,1434,344,5.27514,-0.493632
217,680,6.56384,-0.374176,0,0,0,0,0,0,0,-1,1441,344,6.56379,0.374176
224,680,3.9491,-0.640228,0,0,0,0,0,0,0,-1,1448,344,3.94908,0.64024
231,680,4.24866,-1.96881,0,0,0,0,0,0,0,-1,1455,344,4.2486,1.96882
238,680,4.29333,-3.23984,0,0,0,0,0,0,0,-1,1462,344,4.29332,3.23984
245,680,2.44397,0.985382,0,0,0,0,0,0,0,-1,1469,344,2.44402,-0.985394
252,680,3.07349,2.18951,0,0,0,0,0,0,0,-1,1476,344,3.0735,-2.18952
259,680,2.82971,1.30682,0,0,0,0,0,0,0,-1,1483,344,2.82972,-1.30684
266,680,2.67554,1.44067,0,0,0,0,0,0,0,-1,1490,344,2.67551,-1.44066
273,680,2.46411,1.54666,0,0,0,0,0,0,0,-1,1497,344,2.46407,-1.54666
280,680,0,0,0,0,0,0,0,0,0,-1,1504,344,0,0
287,680,0,0,0,0,0,0,0,0,0,-1,1511,344,0,0
294,680,0,0,0,0,0,0,0,0,0,-1,1518,344,0,0
301,680,0,0,0,0,0,0,0,0,0,-1,1525,344,0,0
308,680,0,0,0,0,0,0,0,0,0,-1,1532,344,0,0
315,680,0,0,0,0,0,0,0,0,0,-1,1539,344,0,0
322,680,0,0,0,0,0,0,0,0,0,-1,1546,344,0,0
329,680,0,0,0,0,0,0,0,0,0,-1,1553,344,0,0
336,680,0,0,0,0,0,0,0,0,0,-1,1560,344,0,0
343,680,0,0,0,0,0,0,0,0,0,-1,1567,344,0,0
350,680,0,0,0,0,0,0,0,0,0,-1,1574,344,0,0
357,680,0,0,0,0,0,0,0,0,0,-1,1581,344,0,0
364,680,0,0,0,0,0,0,0,0,0,-1,1588,344,0,0
371,680,0,0,0,0,0,0,0,0,0,-1,1595,344,0,0
378,680,0,0,0,0,0,0,0,0,0,-1,1602,344,0,0
385,680,0,0,0,0,0,0,0,0,0,-1,1609,344,0,0
392,680,0,0,0,0,0,0,0,0,0,-1,1616,344,0,0
399,680,0,0,0,0,0,0,0,0,0,-1,1623,344,0,0
406,680,0,0,0,0,0,0,0,0,0,-1,1630,344,0,0
413,680,0,0,0,0,0,0,0,0,0,-1,1637,344,0,0
420,680,0,0,0,0,0,0,0,0,0,-1,1644,344,0,0
427,680,0,0,0,0,0,0,0,0,0,-1,1651,344,0,0
434,680,0,0,0,0,0,0,0,0,0,-1,1658,344,0,0
441,680,0,0,0,0,0,0,0,0,0,-1,1665,344,0,0
448,680,0,0,0,0,0,0,0,0,0,-1,1672,344,0,0
455,680,0,0,0,0,0,0,0,0,0,-1,1679,344,0,0
462,680,0,0,0,0,0,0,0,0,0,-1,1686,344,0,0
469,680,0,0,0,0,0,0,0,0,0,-1,1693,344,0,0
476,680,0,0,0,0,0,0,0,0,0,-1,1700,344,0,0
483,680,0,0,0,0,0,0,0,0,0,-1,1707,344,0,0
490,680,0,0,0,0,0,0,0,0,0,-1,1714,344,0,0
497,680,0,0,0,0,0,0,0,0,0,-1,1721,344,0,0
504,680,0,0,0,0,0,0,0,0,0,-1,1728,344,0,0
511,680,0,0,0,0,0,0,0,0,0,-1,1735,344,0,0
518,680,0,0,0,0,0,0,0,0,0,-1,1742,344,0,0
525,680,0,0,0,0,0,0,0,0,0,-1,1749,344,0,0
532,680,0,0,0,0,0,0,0,0,0,-1,1756,344,0,0
539,680,0,0,0,0,0,0,0,0,0,-1,1763,344,0,0
546,680,0,0,0,0,0,0,0,0,0,-1,1770,344,0,0
553,680,0,0,0,0,0,0,0,0,0,-1,1777,344,0,0
560,680,0,0,0,0,0,0,0,0,0,-1,1784,344,0,0
567,680,0,0,0,0,0,0,0,0,0,-1,1791,344,0,0
574,680,0,0,0,0,0,0,0,0,0,-1,1798,344,0,0
581,680,0,0,0,0,0,0,0,0,0,-1,1805,344,0,0
588,680,0,0,0,0,0,0,0,0,0,-1,1812,344,0,0
595,680,0,0,0,0,0,0,0,0,0,-1,1819,344,0,0
602,680,0,0,0,0,0,0,0,0,0,-1,1826,344,0,0
609,680,0,0,0,0,0,0,0,0,0,-1,1833,344,0,0
616,680,0,0,0,0,0,0,0,0,0,-1,1840,344,0,0
623,680,0,0,0,0,0,0,0,0,0,-1,1847,344,0,0
630,680,0,0,0,0,0,0,0,0,0,-1,1854,344,0,0
637,680,0,0,0,0,0,0,0,0,0,-1,1861,344,0,0
644,680,0,0,0,0,0,0,0,0,0,-1,1868,344,0,0
651,680,0,0,0,0,0,0,0,0,0,-1,1875,344,0,0
658,680,0,0,0,0,0,0,0,0,0,-1,1882,344,0,0
665,680,0,0,0,0,0,0,0,0,0,-1,1889,344,0,0
672,680,0,0,0,0,0,0,0,0,0,-1,1896,344,0,0
679,680,0,0,0,0,0,0,0,0,0,-1,1903,344,0,0
686,680,0,0,0,0,0,0,0,0,0,-1,1910,344,0,0
693,680,0,0,0,0,0,0,0,0,0,-1,1917,344,0,0
700,680,0,0,0,0,0,0,0,0,0,-1,1924,344,0,0
707,680,0,0,0,0,0,0,0,0,0,-1,1931,344,0,0
714,680,0,0,0,0,0,0,0,0,0,-1,1938,344,0,0
721,680,0,0,0,0,0,0,0,0,0,-1,1945,344,0,0
728,680,0,0,0,0,0,0,0,0,0,-1,1952,344,0,0
735,680,0,0,0,0,0,0,0,0,0,-1,1959,344,0,0
742,680,0,0,0,0,0,0,0,0,0,-1,1966,344,0,0
749,680,0,0,0,0,0,0,0,0,0,-1,1973,344,0,0
756,680,0,0,0,0,0,0,0,0,0,-1,1980,344,0,0
763,680,0,0,0,0,0,0,0,0,0,-1,1987,344,0,0
770,680,0,0,0,0,0,0,0,0,0,-1,1994,344,0,0
777,680,0,0,0,0,0,0,0,0,0,-1,2001,344,0,0
784,680,0,0,0,0,0,0,0,0,0,-1,2008,344,0,0
791,680,0,0,0,0,0,0,0,0,0,-1,2015,344,0,0
798,680,0,0,0,0,0,0,0,0,0,-1,2022,344,0,0
805,680,0,0,0,0,0,0,0,0,0,-1,2029,344,0,0
812,680,0,0,0,0,0,0,0,0,0,-1,2036,344,0,0
-700,673,0,0,0,0,0,0,0,0,0,-1,524,351,0,0
-693,673,0,0,0,0,0,0,0,0,0,-1,531,351,0,0
-686,673,0,0,0,0,0,0,0,0,0,-1,538,351,0,0
-679,673,0,0,0,0,0,0,0,0,0,-1,545,351,0,0
-672,673,0,0,0,0,0,0,0,0,0,-1,552,351,0,0
-665,673,0,0,0,0,0,0,0,0,0,-1,559,351,0,0
-658,673,0,0,0,0,0,0,0,0,0,-1,566,351,0,0
-651,673,0,0,0,0,0,0,0,0,0,-1,573,351,0,0
-644,673,0,0,0,0,0,0,0,0,0,-1,580,351,0,0
-637,673,0,0,0,0,0,0,0,0,0,-1,587,351,0,0
-630,673,0,0,0,0,0,0,0,0,0,-1,594,351,0,0
-623,673,0,0,0,0,0,0,0,0,0,-1,601,351,0,0
-616,673,0,0,0,0,0,0,0,0,0,-1,608,351,0,0
-609,673,0,0,0,0,0,0,0,0,0,-1,615,351,0,0
-602,673,0,0,0,0,0,0,0,0,0,-1,622,351,0,0
-595,673,0,0,0,0,0,0,0,0,0,-1,629,351,0,0
-588,673,0,0,0,0,0,0,0,0,0,-1,636,351,0,0
-581,673,0,0,0,0,0,0,0,0,0,-1,643,351,0,0
-574,673,0,0,0,0,0,0,0,0,0,-1,650,351,0,0
-567,673,0,0,0,0,0,0,0,0,0,-1,657,351,0,0
-560,673,0,0,0,0,0,0,0,0,0,-1,664,351,0,0
-553,673,0,0,0,0,0,0,0,0,0,-1,671,351,0,0
-546,673,0,0,0,0,0,0,0,0,0,-1,678,351,0,0
-539,673,0,0,0,0,0,0,0,0,0,-1,685,351,0,0
-532,673,0,0,0,0,0,0,0,0,0,-1,692,351,0,0
-525,673,0,0,0,0,0,0,0,0,0,-1,699,351,0,0
-518,673,0,0,0,0,0,0,0,0,0,-1,706,351,0,0
-511,673,0,0,0,0,0,0,0,0,0,-1,713,351,0,0
-504,673,0,0,0,0,0,0,0,0,0,-1,720,351,0,0
-497,673,0,0,0,0,0,0,0,0,0,-1,727,351,0,0
-490,673,0,0,0,0,0,0,0,0,0,-1,734,351,0,0
-483,673,0,0,0,0,0,0,0,0,0,-1,741,351,0,0
-476,673,0,0,0,0,0,0,0,0,0,-1,748,351,0,0
-469,673,0,0,0,0,0,0,0,0,0,-1,755,351,0,0
-462,673,0,0,0,0,0,0,0,0,0,-1,762,351,0,0
-455,673,0,0,0,0,0,0,0,0,0,-1,769,351,0,0
-448,673,0,0,0,0,0,0,0,0,0,-1,776,351,0,0
-441,673,0,0,0,0,0,0,0,0,0,-1,783,351,0,0
-434,673,0,0,0,0,0,0,0,0,0,-1,790,351,0,0
-427,673,0,0,0,0,0,0,0,0,0,-1,797,351,0,0
-420,673,0,0,0,0,0,0,0,0,0,-1,804,351,0,0
-413,673,0,0,0,0,0,0,0,0,0,-1,811,351,0,0
-406,673,0,0,0,0,0,0,0,0,0,-1,818,351,0,0
-399,673,0,0,0,0,0,0,0,0,0,-1,825,351,0,0
-392,673,0,0,0,0,0,0,0,0,0,-1,832,351,0,0
-385,673,0,0,0,0,0,0,0,0,0,-1,839,351,0,0
-378,673,0,0,0,0,0,0,0,0,0,-1,846,351,0,0
-371,673,0,0,0,0,0,0,0,0,0,-1,853,351,0,0
-364,673,0,0,0,0,0,0,0,0,0,-1,860,351,0,0
-357,673,0,0,0,0,0,0,0,0,0,-1,867,351,0,0
-350,673,0,0,0,0,0,0,0,0,0,-1,874,351,0,0
-343,673,0,0,0,0,0,0,0,0,0,-1,881,351,0,0
-336,673,0,0,0,0,0,0,0,0,0,-1,888,351,0,0
-329,673,0,0,0,0,0,0,0,0,0,-1,895,351,0,0
-322,673,0,0,0,0,0,0,0,0,0,-1,902,351,0,0
-315,673,0,0,0,0,0,0,0,0,0,-1,909,351,0,0
-308,673,0,0,0,0,0,0,0,0,0,-1,916,351,0,0
-301,673,0,0,0,0,0,0,0,0,0,-1,923,351,0,0
-294,673,0,0,0,0,0,0,0,0,0,-1,930,351,0,0
-287,673,0,0,0,0,0,0,0,0,0,-1,937,351,0,0
-280,673,0,0,0,0,0,0,0,0,0,-1,944,351,0,0
-273,673,0,0,0,0,0,0,0,0,0,-1,951,351,0,0
-266,673,0,0,0,0,0,0,0,0,0,-1,958,351,0,0
-259,673,0,0,0,0,0,0,0,0,0,-1,965,351,0,0
-252,673,0,0,0,0,0,0,0,0,0,-1,972,351,0,0
-245,673,0,0,0,0,0,0,0,0,0,-1,979,351,0,0
-238,673,0,0,0,0,0,0,0,0,0,-1,986,351,0,0
-231,673,0,0,0,0,0,0,0,0,0,-1,993,351,0,0
-224,673,0,0,0,0,0,0,0,0,0,-1,1000,351,0,0
-217,673,0,0,0,0,0,0,0,0,0,-1,1007,351,0,0
-210,673,0,0,0,0,0,0,0,0,0,-1,1014,351,0,0
-203,673,0,0,0,0,0,0,0,0,0,-1,1021,351,0,0
-196,673,0,0,0,0,0,0,0,0,0,-1,1028,351,0,0
-189,673,0,0,0,0,0,0,0,0,0,-1,1035,351,0,0
-182,673,0,0,0,0,0,0,0,0,0,-1,1042,351,0,0
-175,673,7.10449,-31.8279,0,0,0,0,0,0,0,-1,1049,351,7.10448,31.8279
-168,673,7.33081,-32.7122,0,0,0,0,0,0,0,-1,1056,351,7.33085,32.7122
-161,673,7.8938,-33.5352,0,0,0,0,0,0,0,-1,1063,351,7.89385,33.5352
-154,673,8.80566,-35.3518,0,0,0,0,0,0,0,-1,1070,351,8.80563,35.3518
-147,673,2.89221,-37.7351,0,0,0,0,0,0,0,-1,1077,351,2.89224,37.7351
-140,673,3.35046,-37.7151,0,0,0,0,0,0,0,-1,1084,351,3.35046,37.715
-133,673,3.35339,-39.0288,0,0,0,0,0,0,0,-1,1091,351,3.35342,39.0288
-126,673,3.7533,-38.0453,0,0,0,0,0,0,0,-1,1098,351,3.7533,38.0453
-119,673,4.1532,-37.0618,0,0,0,0,0,0,0,-1,1105,351,4.15318,37.0618
-112,673,7.27234,-32.5801,0,0,0,0,0,0,0,-1,1112,351,7.27231,32.5801
-105,673,21.1144,-43.3143,0,0,0,0,0,0,0,-1,1119,351,21.1143,43.3143
-98,673,14.8014,-36.7519,0,0,0,0,0,0,0,-1,1126,351,14.8014,36.7519
-91,673,8.54944,-29.9639,0,0,0,0,0,0,0,-1,1133,351,8.54949,29.9639
-84,673,2.17102,-24.3204,0,0,0,0,0,0,0,-1,1140,351,2.17107,24.3204
-77,673,-4.25378,-18.8346,0,0,0,0,0,0,0,-1,1147,351,-4.25381,18.8346
-70,673,-10.7933,-13.6681,0,0,0,0,0,0,0,-1,1154,351,-10.7934,13.6681
-63,673,-17.3896,-8.24469,0,0,0,0,0,0,0,-1,1161,351,-17.3896,8.2447
-56,673,-18.0282,2.79053,0,0,0,0,0,0,0,-1,1168,351,-18.0283,-2.79052
-49,673,-0.926758,-0.115448,0,0,0,0,0,0,0,-1,1175,351,-0.926732,0.115444
-42,673,-1.15015,0.289917,0,0,0,0,0,0,0,-1,1182,351,-1.15017,-0.289932
-35,673,-0.919556,-1.00711,0,0,0,0,0,0,0,-1,1189,351,-0.919514,1.00711
-28,673,5.28918,-39.2331,0,0,0,0,0,0,0,-1,1196,351,5.28924,39.2331
-21,673,11.2444,-92.9249,0,0,0,0,0,0,0,-1,1203,351,11.2444,92.9249
-14,673,14.4708,-104.129,0,0,0,0,0,0,0,-1,1210,351,14.4709,104.129
-7,673,11.002,-135.851,0,0,0,0,0,0,0,-1,1217,351,11.0019,135.851
0,673,8.30591,-196.914,0,0,0,0,0,0,0,-1,1224,351,8.30591,196.914
7,673,7.70471,-196.83,0,0,0,0,0,0,0,-1,1231,351,7.70474,196.83
14,673,7.61658,-196.922,0,0,0,0,0,0,0,-1,1238,351,7.61661,196.922
21,673,7.45081,-197.601,0,0,0,0,0,0,0,-1,1245,351,7.45083,197.601
28,673,10.4435,-123.673,0,0,0,0,0,0,0,-1,1252,351,10.4435,123.673
35,673,8.65234,-174.636,0,0,0,0,0,0,0,-1,1259,351,8.65234,174.636
42,673,7.62903,-175.005,0,0,0,0,0,0,0,-1,1266,351,7.62904,175.005
49,673,6.23169,-191.585,0,0,0,0,0,0,0,-1,1273,351,6.23166,191.585
56,673,6.14856,-191.704,0,0,0,0,0,0,0,-1,1280,351,6.1485,191.704
63,673,6.27625,-191.965,0,0,0,0,0,0,0,-1,1287,351,6.27629,191.965
70,673,8.58582,-122.182,0,0,0,0,0,0,0,-1,1294,351,8.5858,122.182
77,673,8.04187,-120.089,0,0,0,0,0,0,0,-1,1301,351,8.04189,120.089
84,673,7.37463,-119.7,0,0,0,0,0,0,0,-1,1308,351,7.37469,119.7
91,673,4.51355,-200.093,0,0,0,0,0,0,0,-1,1315,351,4.51352,200.093
98,673,3.9845,-199.969,0,0,0,0,0,0,0,-1,1322,351,3.98453,199.969
105,673,6.79333,-132.248,0,0,0,0,0,0,0,-1,1329,351,6.79335,132.248
112,673,7.85938,-111.635,0,0,0,0,0,0,0,-1,1336,351,7.85934,111.635
119,673,4.15515,-103.79,0,0,0,0,0,0,0,-1,1343,351,4.15521,103.79
126,673,4.59888,-103.542,0,0,0,0,0,0,0,-1,1350,351,4.59885,103.542
133,673,4.44226,-103.25,0,0,0,0,0,0,0,-1,1357,351,4.4423,103.25
140,673,4.12817,-99.7395,0,0,0,0,0,0,0,-1,1364,351,4.12818,99.7395
147,673,5.25964,-114.259,0,0,0,0,0,0,0,-1,1371,351,5.25959,114.259
154,673,5.15833,-114.149,0,0,0,0,0,0,0,-1,1378,351,5.15829,114.149
161,673,6.22559,-90.9402,0,0,0,0,0,0,0,-1,1385,351,6.22559,90.9402
168,673,6.87061,1.83954,0,0,0,0,0,0,0,-1,1392,351,6.87063,-1.83953
175,673,6.6228,1.1459,0,0,0,0,0,0,0,-1,1399,351,6.62276,-1.14591
182,673,6.37244,0.796112,0,0,0,0,0,0,0,-1,1406,351,6.3724,-0.796102
189,673,6.12097,0.265472,0,0,0,0,0,0,0,-1,1413,351,6.121,-0.265482
196,673,6.02173,3.12717,0,0,0,0,0,0,0,-1,1420,351,6.02176,-3.12717
203,673,5.04456,1.6351,0,0,0,0,0,0,0,-1,1427,351,5.04455,-1.63509
210,673,4.79224,0.447479,0,0,0,0,0,0,0,-1,1434,351,4.79229,-0.447469
217,673,2.01648,0.972687,0,0,0,0,0,0,0,-1,1441,351,2.01644,-0.972691
224,673,2.3689,-1.80539,0,0,0,0,0,0,0,-1,1448,351,2.36896,1.80539
231,673,2.65857,-2.18497,0,0,0,0,0,0,0,-1,1455,351,2.65852,2.18496
238,673,3.77844,-2.06088,0,0,0,0,0,0,0,-1,1462,351,3.77839,2.06088
245,673,3.5376,-0.190399,0,0,0,0,0,0,0,-1,1469,351,3.53759,0.1904
252,673,3.80518,0.55603,0,0,0,0,0,0,0,-1,1476,351,3.80519,-0.556022
259,673,3.88562,1.29617,0,0,0,0,0,0,0,-1,1483,351,3.88562,-1.29618
266,673,4.22424,2.04834,0,0,0,0,0,0,0,-1,1490,351,4.22429,-2.04834
273,673,6.07886,0.385895,0,0,0,0,0,0,0,-1,1497,351,6.0789,-0.385906
280,673,6.97534,-0.0820007,0,0,0,0,0,0,0,-1,1504,351,6.97536,0.0820122
287,673,7.66968,-0.348541,0,0,0,0,0,0,0,-1,1511,351,7.66969,0.348534
294,673,8.20996,0.28537,0,0,0,0,0,0,0,-1,1518,351,8.20993,-0.28536
301,673,0,0,0,0,0,0,0,0,0,-1,1525,351,0,0
308,673,0,0,0,0,0,0,0,0,0,-1,1532,351,0,0
315,673,0,0,0,0,0,0,0,0,0,-1,1539,351,0,0
322,673,0,0,0,0,0,0,0,0,0,-1,1546,351,0,0
329,673,0,0,0,0,0,0,0,0,0,-1,1553,351,0,0
336,673,0,0,0,0,0,0,0,0,0,-1,1560,351,0,0
343,673,0,0,0,0,0,0,0,0,0,-1,1567,351,0,0
350,673,0,0,0,0,0,0,0,0,0,-1,1574,351,0,0
357,673,0,0,0,0,0,0,0,0,0,-1,1581,351,0,0
364,673,0,0,0,0,0,0,0,0,0,-1,1588,351,0,0
371,673,0,0,0,0,0,0,0,0,0,-1,1595,351,0,0
378,673,0,0,0,0,0,0,0,0,0,-1,1602,351,0,0
385,673,0,0,0,0,0,0,0,0,0,-1,1609,351,0,0
392,673,0,0,0,0,0,0,0,0,0,-1,1616,351,0,0
399,673,0,0,0,0,0,0,0,0,0,-1,1623,351,0,0
406,673,0,0,0,0,0,0,0,0,0,-1,1630,351,0,0
413,673,0,0,0,0,0,0,0,0,0,-1,1637,351,0,0
420,673,0,0,0,0,0,0,0,0,0,-1,1644,351,0,0
427,673,0,0,0,0,0,0,0,0,0,-1,1651,351,0,0
434,673,0,0,0,0,0,0,0,0,0,-1,1658,351,0,0
441,673,0,0,0,0,0,0,0,0,0,-1,1665,351,0,0
448,673,0,0,0,0,0,0,0,0,0,-1,1672,351,0,0
455,673,0,0,0,0,0,0,0,0,0,-1,1679,351,0,0
462,673,0,0,0,0,0,0,0,0,0,-1,1686,351,0,0
469,673,0,0,0,0,0,0,0,0,0,-1,1693,351,0,0
476,673,0,0,0,0,0,0,0,0,0,-1,1700,351,0,0
483,673,0,0,0,0,0,0,0,0,0,-1,1707,351,0,0
490,673,0,0,0,0,0,0,0,0,0,-1,1714,351,0,0
497,673,0,0,0,0,0,0,0,0,0,-1,1721,351,0,0
504,673,0,0,0,0,0,0,0,0,0,-1,1728,351,0,0
511,673,0,0,0,0,0,0,0,0,0,-1,1735,351,0,0
518,673,0,0,0,0,0,0,0,0,0,-1,1742,351,0,0
525,673,0,0,0,0,0,0,0,0,0,-1,1749,351,0,0
532,673,0,0,0,0,0,0,0,0,0,-1,1756,351,0,0
539,673,0,0,0,0,0,0,0,0,0,-1,1763,351,0,0
546,673,0,0,0,0,0,0,0,0,0,-1,1770,351,0,0
553,673,0,0,0,0,0,0,0,0,0,-1,1777,351,0,0
560,673,0,0,0,0,0,0,0,0,0,-1,1784,351,0,0
567,673,0,0,0,0,0,0,0,0,0,-1,1791,351,0,0
574,673,0,0,0,0,0,0,0,0,0,-1,1798,351,0,0
581,673,0,0,0,0,0,0,0,0,0,-1,1805,351,0,0
588,673,0,0,0,0,0,0,0,0,0,-1,1812,351,0,0
595,673,0,0,0,0,0,0,0,0,0,-1,1819,351,0,0
602,673,0,0,0,0,0,0,0,0,0,-1,1826,351,0,0
609,673,0,0,0,0,0,0,0,0,0,-1,1833,351,0,0
616,673,0,0,0,0,0,0,0,0,0,-1,1840,351,0,0
623,673,0,0,0,0,0,0,0,0,0,-1,1847,351,0,0
630,673,0,0,0,0,0,0,0,0,0,-1,1854,351,0,0
637,673,0,0,0,0,0,0,0,0,0,-1,1861,351,0,0
644,673,0,0,0,0,0,0,0,0,0,-1,1868,351,0,0
651,673,0,0,0,0,0,0,0,0,0,-1,1875,351,0,0
658,673,0,0,0,0,0,0,0,0,0,-1,1882,351,0,0
665,673,0,0,0,0,0,0,0,0,0,-1,1889,351,0,0
672,673,0,0,0,0,0,0,0,0,0,-1,1896,351,0,0
679,673,0,0,0,0,0,0,0,0,0,-1,1903,351,0,0
686,673,0,0,0,0,0,0,0,0,0,-1,1910,351,0,0
693,673,0,0,0,0,0,0,0,0,0,-1,1917,351,0,0
700,673,0,0,0,0,0,0,0,0,0,-1,1924,351,0,0
707,673,0,0,0,0,0,0,0,0,0,-1,1931,351,0,0
714,673,0,0,0,0,0,0,0,0,0,-1,1938,351,0,0
721,673,0,0,0,0,0,0,0,0,0,-1,1945,351,0,0
728,673,0,0,0,0,0,0,0,0,0,-1,1952,351,0,0
735,673,0,0,0,0,0,0,0,0,0,-1,1959,351,0,0
742,673,0,0,0,0,0,0,0,0,0,-1,1966,351,0,0
749,673,0,0,0,0,0,0,0,0,0,-1,1973,351,0,0
756,673,0,0,0,0,0,0,0,0,0,-1,1980,351,0,0
763,673,0,0,0,0,0,0,0,0,0,-1,1987,351,0,0
770,673,0,0,0,0,0,0,0,0,0,-1,1994,351,0,0
777,673,0,0,0,0,0,0,0,0,0,-1,2001,351,0,0
784,673,0,0,0,0,0,0,0,0,0,-1,2008,351,0,0
791,673,0,0,0,0,0,0,0,0,0,-1,2015,351,0,0
798,673,0,0,0,0,0,0,0,0,0,-1,2022,351,0,0
805,673,0,0,0,0,0,0,0,0,0,-1,2029,351,0,0
812,673,0,0,0,0,0,0,0,0,0,-1,2036,351,0,0
-700,666,0,0,0,0,0,0,0,0,0,-1,524,358,0,0
-693,666,0,0,0,0,0,0,0,0,0,-1,531,358,0,0
-686,666,0,0,0,0,0,0,0,0,0,-1,538,358,0,0
-679,666,0,0,0,0,0,0,0,0,0,-1,545,358,0,0
-672,666,0,0,0,0,0,0,0,0,0,-1,552,358,0,0
-665,666,0,0,0,0,0,0,0,0,0,-1,559,358,0,0
-658,666,0,0,0,0,0,0,0,0,0,-1,566,358,0,0
-651,666,0,0,0,0,0,0,0,0,0,-1,573,358,0,0
-644,666,0,0,0,0,0,0,0,0,0,-1,580,358,0,0
-637,666,0,0,0,0,0,0,0,0,0,-1,587,358,0,0
-630,666,0,0,0,0,0,0,0,0,0,-1,594,358,0,0
-623,666,0,0,0,0,0,0,0,0,0,-1,601,358,0,0
-616,666,0,0,0,0,0,0,0,0,0,-1,608,358,0,0
-609,666,0,0,0,0,0,0,0,0,0,-1,615,358,0,0
-602,666,0,0,0,0,0,0,0,0,0,-1,622,358,0,0
-595,666,0,0,0,0,0,0,0,0,0,-1,629,358,0,0
-588,666,0,0,0,0,0,0,0,0,0,-1,636,358,0,0
-581,666,0,0,0,0,0,0,0,0,0,-1,643,358,0,0
-574,666,0,0,0,0,0,0,0,0,0,-1,650,358,0,0
-567,666,0,0,0,0,0,0,0,0,0,-1,657,358,0,0
-560,666,0,0,0,0,0,0,0,0,0,-1,664,358,0,0
-553,666,0,0,0,0,0,0,0,0,0,-1,671,358,0,0
-546,666,0,0,0,0,0,0,0,0,0,-1,678,358,0,0
-539,666,0,0,0,0,0,0,0,0,0,-1,685,358,0,0
-532,666,0,0,0,0,0,0,0,0,0,-1,692,358,0,0
-525,666,0,0,0,0,0,0,0,0,0,-1,699,358,0,0
-518,666,0,0,0,0,0,0,0,0,0,-1,706,358,0,0
-511,666,0,0,0,0,0,0,0,0,0,-1,713,358,0,0
-504,666,0,0,0,0,0,0,0,0,0,-1,720,358,0,0
-497,666,0,0,0,0,0,0,0,0,0,-1,727,358,0,0
-490,666,0,0,0,0,0,0,0,0,0,-1,734,358,0,0
-483,666,0,0,0,0,0,0,0,0,0,-1,741,358,0,0
-476,666,0,0,0,0,0,0,0,0,0,-1,748,358,0,0
-469,666,0,0,0,0,0,0,0,0,0,-1,755,358,0,0
-462,666,0,0,0,0,0,0,0,0,0,-1,762,358,0,0
-455,666,0,0,0,0,0,0,0,0,0,-1,769,358,0,0
-448,666,0,0,0,0,0,0,0,0,0,-1,776,358,0,0
-441,666,0,0,0,0,0,0,0,0,0,-1,783,358,0,0
-434,666,0,0,0,0,0,0,0,0,0,-1,790,358,0,0
-427,666,0,0,0,0,0,0,0,0,0,-1,797,358,0,0
-420,666,0,0,0,0,0,0,0,0,0,-1,804,358,0,0
-413,666,0,0,0,0,0,0,0,0,0,-1,811,358,0,0
-406,666,0,0,0,0,0,0,0,0,0,-1,818,358,0,0
-399,666,0,0,0,0,0,0,0,0,0,-1,825,358,0,0
-392,666,0,0,0,0,0,0,0,0,0,-1,832,358,0,0
-385,666,0,0,0,0,0,0,0,0,0,-1,839,358,0,0
-378,666,0,0,0,0,0,0,0,0,0,-1,846,358,0,0
-371,666,0,0,0,0,0,0,0,0,0,-1,853,358,0,0
-364,666,0,0,0,0,0,0,0,0,0,-1,860,358,0,0
-357,666,0,0,0,0,0,0,0,0,0,-1,867,358,0,0
-350,666,0,0,0,0,0,0,0,0,0,-1,874,358,0,0
-343,666,0,0,0,0,0,0,0,0,0,-1,881,358,0,0
-336,666,0,0,0,0,0,0,0,0,0,-1,888,358,0,0
-329,666,0,0,0,0,0,0,0,0,0,-1,895,358,0,0
-322,666,0,0,0,0,0,0,0,0,0,-1,902,358,0,0
-315,666,0,0,0,0,0,0,0,0,0,-1,909,358,0,0
-308,666,0,0,0,0,0,0,0,0,0,-1,916,358,0,0
-301,666,0,0,0,0,0,0,0,0,0,-1,923,358,0,0
-294,666,0,0,0,0,0,0,0,0,0,-1,930,358,0,0
-287,666,0,0,0,0,0,0,0,0,0,-1,937,358,0,0
-280,666,0,0,0,0,0,0,0,0,0,-1,944,358,0,0
-273,666,0,0,0,0,0,0,0,0,0,-1,951,358,0,0
-266,666,0,0,0,0,0,0,0,0,0,-1,958,358,0,0
-259,666,0,0,0,0,0,0,0,0,0,-1,965,358,0,0
-252,666,0,0,0,0,0,0,0,0,0,-1,972,358,0,0
-245,666,0,0,0,0,0,0,0,0,0,-1,979,358,0,0
-238,666,0,0,0,0,0,0,0,0,0,-1,986,358,0,0
-231,666,0,0,0,0,0,0,0,0,0,-1,993,358,0,0
-224,666,0,0,0,0,0,0,0,0,0,-1,1000,358,0,0
-217,666,0,0,0,0,0,0,0,0,0,-1,1007,358,0,0
-210,666,0,0,0,0,0,0,0,0,0,-1,1014,358,0,0
-203,666,0,0,0,0,0,0,0,0,0,-1,1021,358,0,0
-196,666,4.03418,-28.8724,0,0,0,0,0,0,0,-1,1028,358,4.03422,28.8724
-189,666,5.00366,-29.597,0,0,0,0,0,0,0,-1,1035,358,5.00363,29.597
-182,666,6.83252,-30.9843,0,0,0,0,0,0,0,-1,1042,358,6.83247,30.9844
-175,666,7.01611,-31.8763,0,0,0,0,0,0,0,-1,1049,358,7.01617,31.8762
-168,666,7.21545,-32.7414,0,0,0,0,0,0,0,-1,1056,358,7.2154,32.7414
-161,666,7.69116,-33.6269,0,0,0,0,0,0,0,-1,1063,358,7.69121,33.6269
-154,666,3.79041,-37.9204,0,0,0,0,0,0,0,-1,1070,358,3.79034,37.9204
-147,666,4.17908,-37.7466,0,0,0,0,0,0,0,-1,1077,358,4.17912,37.7466
-140,666,4.54309,-37.735,0,0,0,0,0,0,0,-1,1084,358,4.54304,37.735
-133,666,4.65723,-39.0643,0,0,0,0,0,0,0,-1,1091,358,4.65727,39.0643
-126,666,5.02368,-38.0699,0,0,0,0,0,0,0,-1,1098,358,5.02363,38.0698
-119,666,5.39001,-37.0754,0,0,0,0,0,0,0,-1,1105,358,5.38999,37.0754
-112,666,6.77014,-32.8165,0,0,0,0,0,0,0,-1,1112,358,6.77013,32.8165
-105,666,6.30908,-29.0855,0,0,0,0,0,0,0,-1,1119,358,6.30905,29.0855
-98,666,15.4427,-31.5168,0,0,0,0,0,0,0,-1,1126,358,15.4428,31.5168
-91,666,9.5127,-25.1347,0,0,0,0,0,0,0,-1,1133,358,9.51269,25.1347
-84,666,2.91589,-19.4071,0,0,0,0,0,0,0,-1,1140,358,2.91592,19.4071
-77,666,-3.48083,-14.0782,0,0,0,0,0,0,0,-1,1147,358,-3.48081,14.0782
-70,666,-9.99438,-8.90146,0,0,0,0,0,0,0,-1,1154,358,-9.99433,8.90146
-63,666,-11.7778,-0.975189,0,0,0,0,0,0,0,-1,1161,358,-11.7778,0.97519
-56,666,0.424683,-2.04132,0,0,0,0,0,0,0,-1,1168,358,0.424665,2.04132
-49,666,0.754395,-2.23169,0,0,0,0,0,0,0,-1,1175,358,0.754383,2.23169
-42,666,1.34473,-3.53897,0,0,0,0,0,0,0,-1,1182,358,1.34476,3.53896
-35,666,9.46692,-193.94,0,0,0,0,0,0,0,-1,1189,358,9.46694,193.94
-28,666,9.33472,-194.671,0,0,0,0,0,0,0,-1,1196,358,9.33472,194.671
-21,666,8.91858,-195.887,0,0,0,0,0,0,0,-1,1203,358,8.91862,195.887
-14,666,8.38599,-196.904,0,0,0,0,0,0,0,-1,1210,358,8.38602,196.904
-7,666,8.09668,-197.47,0,0,0,0,0,0,0,-1,1217,358,8.09667,197.47
0,666,7.80017,-197.891,-0.0379583,0.0775667,-0.0062754,0.0779066,-0.0382982,-1.51669,0.0683776,0.0373771,1224,358,7.80022,197.891
7,666,7.40906,-198.165,-0.0375007,0.0799067,-0.00637213,0.0802515,-0.0378456,-1.51673,0.0696332,0.0487609,1231,358,7.40908,198.165
14,666,7.20789,-198.395,-0.0371924,0.0801835,-0.00647073,0.0805391,-0.0375481,-1.51589,0.0696675,0.042692,1238,358,7.20792,198.395
21,666,6.96765,-199.24,-0.0373369,0.0785574,-0.0064972,0.0789205,-0.0377,-1.51497,0.0687185,0.0382154,1245,358,6.96768,199.24
28,666,6.88196,-200.181,0,0,0,0,0,0,0,-1,1252,358,6.8819,200.181
35,666,6.50574,-200.442,0,0,0,0,0,0,0,-1,1259,358,6.50575,200.442
42,666,6.44788,-200.802,0,0,0,0,0,0,0,-1,1266,358,6.44783,200.802
49,666,6.14636,-201.194,0,0,0,0,0,0,0,-1,1273,358,6.14636,201.194
56,666,5.82983,-201.315,0,0,0,0,0,0,0,-1,1280,358,5.82984,201.315
63,666,5.41418,-201.535,0,0,0,0,0,0,0,-1,1287,358,5.41417,201.535
70,666,5.1416,-201.682,0,0,0,0,0,0,0,-1,1294,358,5.14156,201.682
77,666,4.81885,-201.512,0,0,0,0,0,0,0,-1,1301,358,4.81884,201.512
84,666,4.75146,-201.299,0,0,0,0,0,0,0,-1,1308,358,4.75142,201.299
91,666,4.60986,-200.827,-0.0404517,0.0508944,0.00541311,0.051214,-0.0407713,1.51181,0.0532217,0.0497228,1315,358,4.60982,200.827
98,666,4.21411,-200.525,-0.040464,0.0522865,0.0065676,0.0527492,-0.0409268,1.50045,0.0542272,0.0471693,1322,358,4.21417,200.525
105,666,3.86584,-200.079,0,0,0,0,0,0,0,-1,1329,358,3.86585,200.079
112,666,3.57959,-199.616,0,0,0,0,0,0,0,-1,1336,358,3.57962,199.616
119,666,3.4314,-199.235,0,0,0,0,0,0,0,-1,1343,358,3.43145,199.235
126,666,3.09656,-198.446,0,0,0,0,0,0,0,-1,1350,358,3.09659,198.446
133,666,2.78528,-197.429,0,0,0,0,0,0,0,-1,1357,358,2.78525,197.429
140,666,2.52063,-197.021,0,0,0,0,0,0,0,-1,1364,358,2.52063,197.021
147,666,2.19238,-196.426,0,0,0,0,0,0,0,-1,1371,358,2.19243,196.426
154,666,1.67285,-195.195,0,0,0,0,0,0,0,-1,1378,358,1.67281,195.195
161,666,1.24402,-194.058,0,0,0,0,0,0,0,-1,1385,358,1.24404,194.058
168,666,1.10352,-192.583,0,0,0,0,0,0,0,-1,1392,358,1.10347,192.583
175,666,4.89124,-132.772,0,0,0,0,0,0,0,-1,1399,358,4.89125,132.772
182,666,2.60876,-5.17068,0,0,0,0,0,0,0,-1,1406,358,2.6088,5.17068
189,666,2.46973,-5.49979,0,0,0,0,0,0,0,-1,1413,358,2.46975,5.49979
196,666,2.32458,-5.23651,0,0,0,0,0,0,0,-1,1420,358,2.32461,5.23653
203,666,2.28064,-3.88004,0,0,0,0,0,0,0,-1,1427,358,2.28059,3.88003
210,666,3.02576,-5.83548,0,0,0,0,0,0,0,-1,1434,358,3.02581,5.83547
217,666,2.30444,-5.36011,0,0,0,0,0,0,0,-1,1441,358,2.30447,5.3601
224,666,1.82324,-6.03101,0,0,0,0,0,0,0,-1,1448,358,1.82322,6.031
231,666,2.29797,-10.1093,0,0,0,0,0,0,0,-1,1455,358,2.29801,10.1093
238,666,2.52429,-6.10568,0,0,0,0,0,0,0,-1,1462,358,2.52423,6.10567
245,666,4.53345,-1.38205,0,0,0,0,0,0,0,-1,1469,358,4.53349,1.38204
252,666,4.77405,-0.246979,0,0,0,0,0,0,0,-1,1476,358,4.77405,0.246993
259,666,4.83655,1.14087,0,0,0,0,0,0,0,-1,1483,358,4.83652,-1.14087
266,666,6.14148,0.749512,0,0,0,0,0,0,0,-1,1490,358,6.14144,-0.749519
273,666,3.17737,-33.7881,0,0,0,0,0,0,0,-1,1497,358,3.17735,33.7881
280,666,3.37268,-35.2123,0,0,0,0,0,0,0,-1,1504,358,3.37266,35.2123
287,666,-7.06934,-20.3464,0,0,0,0,0,0,0,-1,1511,358,-7.06933,20.3464
294,666,-2.11157,-23.2753,0,0,0,0,0,0,0,-1,1518,358,-2.11162,23.2753
301,666,-3.16162,-22.2271,0,0,0,0,0,0,0,-1,1525,358,-3.16161,22.2271
308,666,-4.24951,-20.9112,0,0,0,0,0,0,0,-1,1532,358,-4.24948,20.9112
315,666,-5.64954,-19.5784,0,0,0,0,0,0,0,-1,1539,358,-5.64959,19.5784
322,666,0,0,0,0,0,0,0,0,0,-1,1546,358,0,0
329,666,0,0,0,0,0,0,0,0,0,-1,1553,358,0,0
336,666,0,0,0,0,0,0,0,0,0,-1,1560,358,0,0
343,666,0,0,0,0,0,0,0,0,0,-1,1567,358,0,0
350,666,0,0,0,0,0,0,0,0,0,-1,1574,358,0,0
357,666,0,0,0,0,0,0,0,0,0,-1,1581,358,0,0
364,666,0,0,0,0,0,0,0,0,0,-1,1588,358,0,0
371,666,0,0,0,0,0,0,0,0,0,-1,1595,358,0,0
378,666,0,0,0,0,0,0,0,0,0,-1,1602,358,0,0
385,666,0,0,0,0,0,0,0,0,0,-1,1609,358,0,0
392,666,0,0,0,0,0,0,0,0,0,-1,1616,358,0,0
399,666,0,0,0,0,0,0,0,0,0,-1,1623,358,0,0
406,666,0,0,0,0,0,0,0,0,0,-1,1630,358,0,0
413,666,0,0,0,0,0,0,0,0,0,-1,1637,358,0,0
420,666,0,0,0,0,0,0,0,0,0,-1,1644,358,0,0
427,666,0,0,0,0,0,0,0,0,0,-1,1651,358,0,0
434,666,0,0,0,0,0,0,0,0,0,-1,1658,358,0,0
441,666,0,0,0,0,0,0,0,0,0,-1,1665,358,0,0
448,666,0,0,0,0,0,0,0,0,0,-1,1672,358,0,0
455,666,0,0,0,0,0,0,0,0,0,-1,1679,358,0,0
462,666,0,0,0,0,0,0,0,0,0,-1,1686,358,0,0
469,666,0,0,0,0,0,0,0,0,0,-1,1693,358,0,0
476,666,0,0,0,0,0,0,0,0,0,-1,1700,358,0,0
483,666,0,0,0,0,0,0,0,0,0,-1,1707,358,0,0
490,666,0,0,0,0,0,0,0,0,0,-1,1714,358,0,0
497,666,0,0,0,0,0,0,0,0,0,-1,1721,358,0,0
504,666,0,0,0,0,0,0,0,0,0,-1,1728,358,0,0
511,666,0,0,0,0,0,0,0,0,0,-1,1735,358,0,0
518,666,0,0,0,0,0,0,0,0,0,-1,1742,358,0,0
525,666,0,0,0,0,0,0,0,0,0,-1,1749,358,0,0
532,666,0,0,0,0,0,0,0,0,0,-1,1756,358,0,0
539,666,0,0,0,0,0,0,0,0,0,-1,1763,358,0,0
546,666,0,0,0,0,0,0,0,0,0,-1,1770,358,0,0
553,666,0,0,0,0,0,0,0,0,0,-1,1777,358,0,0
560,666,0,0,0,0,0,0,0,0,0,-1,1784,358,0,0
567,666,0,0,0,0,0,0,0,0,0,-1,1791,358,0,0
574,666,0,0,0,0,0,0,0,0,0,-1,1798,358,0,0
581,666,0,0,0,0,0,0,0,0,0,-1,1805,358,0,0
588,666,0,0,0,0,0,0,0,0,0,-1,1812,358,0,0
595,666,0,0,0,0,0,0,0,0,0,-1,1819,358,0,0
602,666,0,0,0,0,0,0,0,0,0,-1,1826,358,0,0
609,666,0,0,0,0,0,0,0,0,0,-1,1833,358,0,0
616,666,0,0,0,0,0,0,0,0,0,-1,1840,358,0,0
623,666,0,0,0,0,0,0,0,0,0,-1,1847,358,0,0
630,666,0,0,0,0,0,0,0,0,0,-1,1854,358,0,0
637,666,0,0,0,0,0,0,0,0,0,-1,1861,358,0,0
644,666,0,0,0,0,0,0,0,0,0,-1,1868,358,0,0
651,666,0,0,0,0,0,0,0,0,0,-1,1875,358,0,0
658,666,0,0,0,0,0,0,0,0,0,-1,1882,358,0,0
665,666,0,0,0,0,0,0,0,0,0,-1,1889,358,0,0
672,666,0,0,0,0,0,0,0,0,0,-1,1896,358,0,0
679,666,0,0,0,0,0,0,0,0,0,-1,1903,358,0,0
686,666,0,0,0,0,0,0,0,0,0,-1,1910,358,0,0
693,666,0,0,0,0,0,0,0,0,0,-1,1917,358,0,0
700,666,0,0,0,0,0,0,0,0,0,-1,1924,358,0,0
707,666,0,0,0,0,0,0,0,0,0,-1,1931,358,0,0
714,666,0,0,0,0,0,0,0,0,0,-1,1938,358,0,0
721,666,0,0,0,0,0,0,0,0,0,-1,1945,358,0,0
728,666,0,0,0,0,0,0,0,0,0,-1,1952,358,0,0
735,666,0,0,0,0,0,0,0,0,0,-1,1959,358,0,0
742,666,0,0,0,0,0,0,0,0,0,-1,1966,358,0,0
749,666,0,0,0,0,0,0,0,0,0,-1,1973,358,0,0
756,666,0,0,0,0,0,0,0,0,0,-1,1980,358,0,0
763,666,0,0,0,0,0,0,0,0,0,-1,1987,358,0,0
770,666,0,0,0,0,0,0,0,0,0,-1,1994,358,0,0
777,666,0,0,0,0,0,0,0,0,0,-1,2001,358,0,0
784,666,0,0,0,0,0,0,0,0,0,-1,2008,358,0,0
791,666,0,0,0,0,0,0,0,0,0,-1,2015,358,0,0
798,666,0,0,0,0,0,0,0,0,0,-1,2022,358,0,0
805,666,0,0,0,0,0,0,0,0,0,-1,2029,358,0,0
812,666,0,0,0,0,0,0,0,0,0,-1,2036,358,0,0
-700,659,0,0,0,0,0,0,0,0,0,-1,524,365,0,0
-693,659,0,0,0,0,0,0,0,0,0,-1,531,365,0,0
-686,659,0,0,0,0,0,0,0,0,0,-1,538,365,0,0
-679,659,0,0,0,0,0,0,0,0,0,-1,545,365,0,0
-672,659,0,0,0,0,0,0,0,0,0,-1,552,365,0,0
-665,659,0,0,0,0,0,0,0,0,0,-1,559,365,0,0
-658,659,0,0,0,0,0,0,0,0,0,-1,566,365,0,0
-651,659,0,0,0,0,0,0,0,0,0,-1,573,365,0,0
-644,659,0,0,0,0,0,0,0,0,0,-1,580,365,0,0
-637,659,0,0,0,0,0,0,0,0,0,-1,587,365,0,0
-630,659,0,0,0,0,0,0,0,0,0,-1,594,365,0,0
-623,659,0,0,0,0,0,0,0,0,0,-1,601,365,0,0
-616,659,0,0,0,0,0,0,0,0,0,-1,608,365,0,0
-609,659,0,0,0,0,0,0,0,0,0,-1,615,365,0,0
-602,659,0,0,0,0,0,0,0,0,0,-1,622,365,0,0
-595,659,0,0,0,0,0,0,0,0,0,-1,629,365,0,0
-588,659,0,0,0,0,0,0,0,0,0,-1,636,365,0,0
-581,659,0,0,0,0,0,0,0,0,0,-1,643,365,0,0
-574,659,0,0,0,0,0,0,0,0,0,-1,650,365,0,0
-567,659,0,0,0,0,0,0,0,0,0,-1,657,365,0,0
-560,659,0,0,0,0,0,0,0,0,0,-1,664,365,0,0
-553,659,0,0,0,0,0,0,0,0,0,-1,671,365,0,0
-546,659,0,0,0,0,0,0,0,0,0,-1,678,365,0,0
-539,659,0,0,0,0,0,0,0,0,0,-1,685,365,0,0
-532,659,0,0,0,0,0,0,0,0,0,-1,692,365,0,0
-525,659,0,0,0,0,0,0,0,0,0,-1,699,365,0,0
-518,659,0,0,0,0,0,0,0,0,0,-1,706,365,0,0
-511,659,0,0,0,0,0,0,0,0,0,-1,713,365,0,0
-504,659,0,0,0,0,0,0,0,0,0,-1,720,365,0,0
-497,659,0,0,0,0,0,0,0,0,0,-1,727,365,0,0
-490,659,0,0,0,0,0,0,0,0,0,-1,734,365,0,0
-483,659,0,0,0,0,0,0,0,0,0,-1,741,365,0,0
-476,659,0,0,0,0,0,0,0,0,0,-1,748,365,0,0
-469,659,0,0,0,0,0,0,0,0,0,-1,755,365,0,0
-462,659,0,0,0,0,0,0,0,0,0,-1,762,365,0,0
-455,659,0,0,0,0,0,0,0,0,0,-1,769,365,0,0
-448,659,0,0,0,0,0,0,0,0,0,-1,776,365,0,0
-441,659,0,0,0,0,0,0,0,0,0,-1,783,365,0,0
-434,659,0,0,0,0,0,0,0,0,0,-1,790,365,0,0
-427,659,0,0,0,0,0,0,0,0,0,-1,797,365,0,0
-420,659,0,0,0,0,0,0,0,0,0,-1,804,365,0,0
-413,659,0,0,0,0,0,0,0,0,0,-1,811,365,0,0
-406,659,0,0,0,0,0,0,0,0,0,-1,818,365,0,0
-399,659,0,0,0,0,0,0,0,0,0,-1,825,365,0,0
-392,659,0,0,0,0,0,0,0,0,0,-1,832,365,0,0
-385,659,0,0,0,0,0,0,0,0,0,-1,839,365,0,0
-378,659,0,0,0,0,0,0,0,0,0,-1,846,365,0,0
-371,659,0,0,0,0,0,0,0,0,0,-1,853,365,0,0
-364,659,0,0,0,0,0,0,0,0,0,-1,860,365,0,0
-357,659,0,0,0,0,0,0,0,0,0,-1,867,365,0,0
-350,659,0,0,0,0,0,0,0,0,0,-1,874,365,0,0
-343,659,0,0,0,0,0,0,0,0,0,-1,881,365,0,0
-336,659,0,0,0,0,0,0,0,0,0,-1,888,365,0,0
-329,659,0,0,0,0,0,0,0,0,0,-1,895,365,0,0
-322,659,0,0,0,0,0,0,0,0,0,-1,902,365,0,0
-315,659,0,0,0,0,0,0,0,0,0,-1,909,365,0,0
-308,659,0,0,0,0,0,0,0,0,0,-1,916,365,0,0
-301,659,0,0,0,0,0,0,0,0,0,-1,923,365,0,0
-294,659,0,0,0,0,0,0,0,0,0,-1,930,365,0,0
-287,659,0,0,0,0,0,0,0,0,0,-1,937,365,0,0
-280,659,0,0,0,0,0,0,0,0,0,-1,944,365,0,0
-273,659,0,0,0,0,0,0,0,0,0,-1,951,365,0,0
-266,659,0,0,0,0,0,0,0,0,0,-1,958,365,0,0
-259,659,0,0,0,0,0,0,0,0,0,-1,965,365,0,0
-252,659,0,0,0,0,0,0,0,0,0,-1,972,365,0,0
-245,659,0,0,0,0,0,0,0,0,0,-1,979,365,0,0
-238,659,0,0,0,0,0,0,0,0,0,-1,986,365,0,0
-231,659,0,0,0,0,0,0,0,0,0,-1,993,365,0,0
-224,659,0,0,0,0,0,0,0,0,0,-1,1000,365,0,0
-217,659,10.1305,-25.2622,0,0,0,0,0,0,0,-1,1007,365,10.1305,25.2622
-210,659,9.65643,-25.515,0,0,0,0,0,0,0,-1,1014,365,9.65642,25.515
-203,659,8.58911,-25.7432,0,0,0,0,0,0,0,-1,1021,365,8.58916,25.7432
-196,659,2.68323,-27.8121,0,0,0,0,0,0,0,-1,1028,365,2.6832,27.8121
-189,659,6.88049,-28.9412,0,0,0,0,0,0,0,-1,1035,365,6.88045,28.9412
-182,659,6.94189,-30.6316,0,0,0,0,0,0,0,-1,1042,365,6.94189,30.6316
-175,659,6.948,-32.0092,0,0,0,0,0,0,0,-1,1049,365,6.94798,32.0093
-168,659,7.1416,-32.7405,0,0,0,0,0,0,0,-1,1056,365,7.14157,32.7405
-161,659,7.57361,-33.7099,0,0,0,0,0,0,0,-1,1063,365,7.57355,33.7099
-154,659,7.71448,-34.8995,0,0,0,0,0,0,0,-1,1070,365,7.7145,34.8995
-147,659,5.46606,-37.758,0,0,0,0,0,0,0,-1,1077,365,5.46601,37.758
-140,659,5.7356,-37.755,0,0,0,0,0,0,0,-1,1084,365,5.73562,37.755
-133,659,5.91455,-37.9017,0,0,0,0,0,0,0,-1,1091,365,5.9146,37.9017
-126,659,6.31226,-37.9904,0,0,0,0,0,0,0,-1,1098,365,6.3122,37.9904
-119,659,6.26941,-35.0837,0,0,0,0,0,0,0,-1,1105,365,6.26943,35.0837
-112,659,6.24353,-35.0562,0,0,0,0,0,0,0,-1,1112,365,6.24349,35.0562
-105,659,5.38696,-30.5854,0,0,0,0,0,0,0,-1,1119,365,5.387,30.5854
-98,659,4.68042,-26.2438,0,0,0,0,0,0,0,-1,1126,365,4.68041,26.2438
-91,659,4.20776,-20.8654,0,0,0,0,0,0,0,-1,1133,365,4.20777,20.8654
-84,659,2.8584,-17.8303,0,0,0,0,0,0,0,-1,1140,365,2.85836,17.8303
-77,659,2.80139,-15.3457,0,0,0,0,0,0,0,-1,1147,365,2.80139,15.3457
-70,659,2.9353,-12.7028,0,0,0,0,0,0,0,-1,1154,365,2.93533,12.7028
-63,659,2.11267,-9.7796,0,0,0,0,0,0,0,-1,1161,365,2.11266,9.7796
-56,659,2.11182,-9.91541,0,0,0,0,0,0,0,-1,1168,365,2.11178,9.91541
-49,659,8.84509,-192.237,0,0,0,0,0,0,0,-1,1175,365,8.84507,192.237
-42,659,8.74756,-193.177,0,0,0,0,0,0,0,-1,1182,365,8.74758,193.177
-35,659,8.57385,-194.052,-0.0306234,0.0415993,-0.00565328,0.0420391,-0.0310632,-1.49315,0.0423639,0.0414991,1189,365,8.57385,194.052
-28,659,8.35986,-194.979,-0.0301613,0.0457189,-0.0056637,0.0461393,-0.0305817,-1.4967,0.0445974,0.0241066,1196,365,8.35987,194.979
-21,659,8.05273,-196.159,-0.0296878,0.0491779,-0.00542902,0.0495499,-0.0300597,-1.50239,0.0464195,0.0339921,1203,365,8.05277,196.159
-14,659,7.6814,-197.125,-0.0292138,0.0528699,-0.0051759,0.053195,-0.0295389,-1.50807,0.0484129,0.0324455,1210,365,7.68145,197.125
-7,659,7.40833,-197.856,-0.0286287,0.0562619,-0.00485791,0.056539,-0.0289058,-1.51382,0.0501842,0.0312903,1217,365,7.40836,197.856
0,659,7.21375,-198.579,-0.0279171,0.0587801,-0.00463307,0.059027,-0.028164,-1.51756,0.0513802,0.0219075,1224,365,7.21373,198.579
7,659,7.04773,-199.149,-0.027322,0.0606114,-0.0045722,0.0608485,-0.0275591,-1.51899,0.0522344,0.0208945,1231,365,7.04777,199.149
14,659,6.85034,-199.532,-0.0269269,0.0609362,-0.00453564,0.0611697,-0.0271604,-1.51936,0.0522423,0.0228865,1238,365,6.85034,199.532
21,659,6.63037,-200.027,-0.0268957,0.0599388,-0.00447181,0.0601685,-0.0271254,-1.51948,0.0515887,0.0196638,1245,365,6.63032,200.027
28,659,6.35986,-200.528,-0.0267267,0.0572947,-0.00429338,0.0575135,-0.0269455,-1.51987,0.0498157,0.0206221,1252,365,6.3598,200.528
35,659,6.21008,-200.876,-0.0264374,0.0538707,-0.0040719,0.0540767,-0.0266433,-1.52027,0.0474924,0.0233266,1259,365,6.21005,200.876
42,659,6.09363,-201.194,-0.0267064,0.050625,-0.00341879,0.0507759,-0.0268572,-1.5267,0.0455251,0.0251351,1266,365,6.09365,201.194
49,659,5.90271,-201.57,-0.027235,0.0473554,-0.00257325,0.047444,-0.0273236,-1.53635,0.043685,0.0287112,1273,365,5.90277,201.57
56,659,5.62976,-201.72,-0.0276113,0.0438243,-0.00188971,0.0438742,-0.0276613,-1.54437,0.0416531,0.0343465,1280,365,5.62971,201.72
63,659,5.43066,-201.811,-0.0280712,0.0405624,-0.000931977,0.040575,-0.0280839,-1.55722,0.0398583,0.0267143,1287,365,5.43061,201.811
70,659,5.20129,-201.811,-0.0284669,0.0376674,0.000511224,0.0376713,-0.0284708,1.56307,0.0383101,0.0268631,1294,365,5.20135,201.811
77,659,4.94348,-201.787,-0.0288608,0.0368711,0.00226826,0.0369493,-0.028939,1.53634,0.0381342,0.0254997,1301,365,4.94347,201.787
84,659,4.87488,-201.577,-0.0291588,0.0382976,0.00326335,0.0384551,-0.0293163,1.52257,0.0392462,0.0181139,1308,365,4.87483,201.577
91,659,4.71729,-201.394,-0.0293286,0.0397156,0.00413643,0.0399625,-0.0295755,1.51117,0.0402968,0.0186257,1315,365,4.71731,201.394
98,659,4.47461,-200.999,-0.0294738,0.0407708,0.00511462,0.0411412,-0.0298443,1.49849,0.0411561,0.0156417,1322,365,4.47459,200.999
105,659,4.29089,-200.484,-0.0296829,0.0419288,0.0060619,0.0424383,-0.0301924,1.48694,0.0421315,0.0177894,1329,365,4.2909,200.484
112,659,4.08423,-199.997,-0.0297046,0.0430807,0.00706554,0.0437603,-0.0303842,1.47492,0.0430389,0.0210206,1336,365,4.08428,199.997
119,659,3.92798,-199.53,-0.02943,0.0444411,0.00813201,0.0453257,-0.0303146,1.46244,0.0439567,0.0250047,1343,365,3.92797,199.53
126,659,3.64734,-198.81,-0.0293543,0.045503,0.00894314,0.0465566,-0.0304079,1.45353,0.0447603,0.0267115,1350,365,3.64728,198.811
133,659,3.38696,-197.973,-0.0295357,0.0464184,0.00976962,0.0476549,-0.0307722,1.4449,0.0456283,0.0248635,1357,365,3.38702,197.973
140,659,3.16699,-197.416,-0.0297515,0.0470674,0.0106,0.0485033,-0.0311873,1.43616,0.04637,0.0279645,1364,365,3.16693,197.416
147,659,2.94836,-196.699,-0.0296845,0.0470768,0.0112723,0.0486979,-0.0313056,1.42796,0.0465524,0.0272228,1371,365,2.94842,196.699
154,659,2.58618,-195.702,-0.0296719,0.0475339,0.0120116,0.0493595,-0.0314975,1.41997,0.0470609,0.0303229,1378,365,2.58613,195.702
161,659,2.26294,-194.577,-0.0301637,0.0479661,0.012627,0.0499561,-0.0321538,1.41448,0.0477761,0.0324868,1385,365,2.263,194.577
168,659,2.07935,-193.28,-0.0310636,0.0482349,0.0132286,0.0503835,-0.0332122,1.40978,0.0486022,0.0392246,1392,365,2.07936,193.28
175,659,1.8761,-192.017,0,0,0,0,0,0,0,-1,1399,365,1.87608,192.017
182,659,1.43701,-191.005,0,0,0,0,0,0,0,-1,1406,365,1.43699,191.005
189,659,5.07507,-133.501,0,0,0,0,0,0,0,-1,1413,365,5.07502,133.501
196,659,2.41248,-13.4371,0,0,0,0,0,0,0,-1,1420,365,2.41243,13.4371
203,659,2.38623,-12.2163,0,0,0,0,0,0,0,-1,1427,365,2.38617,12.2163
210,659,2.20789,-13.9792,0,0,0,0,0,0,0,-1,1434,365,2.20794,13.9792
217,659,2.24121,-13.487,0,0,0,0,0,0,0,-1,1441,365,2.24116,13.487
224,659,2.3479,-15.2926,0,0,0,0,0,0,0,-1,1448,365,2.34793,15.2926
231,659,2.47974,-17.8629,0,0,0,0,0,0,0,-1,1455,365,2.47976,17.8628
238,659,3.57886,-21.1258,0,0,0,0,0,0,0,-1,1462,365,3.57889,21.1258
245,659,3.29883,-25.0283,0,0,0,0,0,0,0,-1,1469,365,3.29889,25.0283
252,659,2.81909,-24.1604,0,0,0,0,0,0,0,-1,1476,365,2.81905,24.1604
259,659,2.33069,-3.36703,0,0,0,0,0,0,0,-1,1483,365,2.33073,3.36702
266,659,3.40918,-35.2544,0,0,0,0,0,0,0,-1,1490,365,3.40913,35.2544
273,659,4.45557,-42.3683,0,0,0,0,0,0,0,-1,1497,365,4.45554,42.3683
280,659,4.87903,-41.4995,0,0,0,0,0,0,0,-1,1504,365,4.87898,41.4995
287,659,1.09851,-23.7787,0,0,0,0,0,0,0,-1,1511,365,1.09847,23.7787
294,659,0.115601,-24.0352,0,0,0,0,0,0,0,-1,1518,365,0.115612,24.0352
301,659,-1.21362,-22.6162,0,0,0,0,0,0,0,-1,1525,365,-1.21358,22.6162
308,659,-2.32605,-21.2737,0,0,0,0,0,0,0,-1,1532,365,-2.32606,21.2737
315,659,-3.69629,-19.8803,0,0,0,0,0,0,0,-1,1539,365,-3.69631,19.8803
322,659,-4.9646,-18.5258,0,0,0,0,0,0,0,-1,1546,365,-4.96464,18.5257
329,659,-7.67749,-23.0449,0,0,0,0,0,0,0,-1,1553,365,-7.67745,23.0449
336,659,-7.71436,-22.4188,0,0,0,0,0,0,0,-1,1560,365,-7.71432,22.4188
343,659,0,0,0,0,0,0,0,0,0,-1,1567,365,0,0
350,659,0,0,0,0,0,0,0,0,0,-1,1574,365,0,0
357,659,0,0,0,0,0,0,0,0,0,-1,1581,365,0,0
364,659,0,0,0,0,0,0,0,0,0,-1,1588,365,0,0
371,659,0,0,0,0,0,0,0,0,0,-1,1595,365,0,0
378,659,0,0,0,0,0,0,0,0,0,-1,1602,365,0,0
385,659,0,0,0,0,0,0,0,0,0,-1,1609,365,0,0
392,659,0,0,0,0,0,0,0,0,0,-1,1616,365,0,0
399,659,0,0,0,0,0,0,0,0,0,-1,1623,365,0,0
406,659,0,0,0,0,0,0,0,0,0,-1,1630,365,0,0
413,659,0,0,0,0,0,0,0,0,0,-1,1637,365,0,0
420,659,0,0,0,0,0,0,0,0,0,-1,1644,365,0,0
427,659,0,0,0,0,0,0,0,0,0,-1,1651,365,0,0
434,659,0,0,0,0,0,0,0,0,0,-1,1658,365,0,0
441,659,0,0,0,0,0,0,0,0,0,-1,1665,365,0,0
448,659,0,0,0,0,0,0,0,0,0,-1,1672,365,0,0
455,659,0,0,0,0,0,0,0,0,0,-1,1679,365,0,0
462,659,0,0,0,0,0,0,0,0,0,-1,1686,365,0,0
469,659,0,0,0,0,0,0,0,0,0,-1,1693,365,0,0
476,659,0,0,0,0,0,0,0,0,0,-1,1700,365,0,0
483,659,0,0,0,0,0,0,0,0,0,-1,1707,365,0,0
490,659,0,0,0,0,0,0,0,0,0,-1,1714,365,0,0
497,659,0,0,0,0,0,0,0,0,0,-1,1721,365,0,0
504,659,0,0,0,0,0,0,0,0,0,-1,1728,365,0,0
511,659,0,0,0,0,0,0,0,0,0,-1,1735,365,0,0
518,659,0,0,0,0,0,0,0,0,0,-1,1742,365,0,0
525,659,0,0,0,0,0,0,0,0,0,-1,1749,365,0,0
532,659,0,0,0,0,0,0,0,0,0,-1,1756,365,0,0
539,659,0,0,0,0,0,0,0,0,0,-1,1763,365,0,0
546,659,0,0,0,0,0,0,0,0,0,-1,1770,365,0,0
553,659,0,0,0,0,0,0,0,0,0,-1,1777,365,0,0
560,659,0,0,0,0,0,0,0,0,0,-1,1784,365,0,0
567,659,0,0,0,0,0,0,0,0,0,-1,1791,365,0,0
574,659,0,0,0,0,0,0,0,0,0,-1,1798,365,0,0
581,659,0,0,0,0,0,0,0,0,0,-1,1805,365,0,0
588,659,0,0,0,0,0,0,0,0,0,-1,1812,365,0,0
595,659,0,0,0,0,0,0,0,0,0,-1,1819,365,0,0
602,659,0,0,0,0,0,0,0,0,0,-1,1826,365,0,0
609,659,0,0,0,0,0,0,0,0,0,-1,1833,365,0,0
616,659,0,0,0,0,0,0,0,0,0,-1,1840,365,0,0
623,659,0,0,0,0,0,0,0,0,0,-1,1847,365,0,0
630,659,0,0,0,0,0,0,0,0,0,-1,1854,365,0,0
637,659,0,0,0,0,0,0,0,0,0,-1,1861,365,0,0
644,659,0,0,0,0,0,0,0,0,0,-1,1868,365,0,0
651,659,0,0,0,0,0,0,0,0,0,-1,1875,365,0,0
658,659,0,0,0,0,0,0,0,0,0,-1,1882,365,0,0
665,659,0,0,0,0,0,0,0,0,0,-1,1889,365,0,0
672,659,0,0,0,0,0,0,0,0,0,-1,1896,365,0,0
679,659,0,0,0,0,0,0,0,0,0,-1,1903,365,0,0
686,659,0,0,0,0,0,0,0,0,0,-1,1910,365,0,0
693,659,0,0,0,0,0,0,0,0,0,-1,1917,365,0,0
700,659,0,0,0,0,0,0,0,0,0,-1,1924,365,0,0
707,659,0,0,0,0,0,0,0,0,0,-1,1931,365,0,0
714,659,0,0,0,0,0,0,0,0,0,-1,1938,365,0,0
721,659,0,0,0,0,0,0,0,0,0,-1,1945,365,0,0
728,659,0,0,0,0,0,0,0,0,0,-1,1952,365,0,0
735,659,0,0,0,0,0,0,0,0,0,-1,1959,365,0,0
742,659,0,0,0,0,0,0,0,0,0,-1,1966,365,0,0
749,659,0,0,0,0,0,0,0,0,0,-1,1973,365,0,0
756,659,0,0,0,0,0,0,0,0,0,-1,1980,365,0,0
763,659,0,0,0,0,0,0,0,0,0,-1,1987,365,0,0
770,659,0,0,0,0,0,0,0,0,0,-1,1994,365,0,0
777,659,0,0,0,0,0,0,0,0,0,-1,2001,365,0,0
784,659,0,0,0,0,0,0,0,0,0,-1,2008,365,0,0
791,659,0,0,0,0,0,0,0,0,0,-1,2015,365,0,0
798,659,0,0,0,0,0,0,0,0,0,-1,2022,365,0,0
805,659,0,0,0,0,0,0,0,0,0,-1,2029,365,0,0
812,659,0,0,0,0,0,0,0,0,0,-1,2036,365,0,0
-700,652,0,0,0,0,0,0,0,0,0,-1,524,372,0,0
-693,652,0,0,0,0,0,0,0,0,0,-1,531,372,0,0
-686,652,0,0,0,0,0,0,0,0,0,-1,538,372,0,0
-679,652,0,0,0,0,0,0,0,0,0,-1,545,372,0,0
-672,652,0,0,0,0,0,0,0,0,0,-1,552,372,0,0
-665,652,0,0,0,0,0,0,0,0,0,-1,559,372,0,0
-658,652,0,0,0,0,0,0,0,0,0,-1,566,372,0,0
-651,652,0,0,0,0,0,0,0,0,0,-1,573,372,0,0
-644,652,0,0,0,0,0,0,0,0,0,-1,580,372,0,0
-637,652,0,0,0,0,0,0,0,0,0,-1,587,372,0,0
-630,652,0,0,0,0,0,0,0,0,0,-1,594,372,0,0
-623,652,0,0,0,0,0,0,0,0,0,-1,601,372,0,0
-616,652,0,0,0,0,0,0,0,0,0,-1,608,372,0,0
-609,652,0,0,0,0,0,0,0,0,0,-1,615,372,0,0
-602,652,0,0,0,0,0,0,0,0,0,-1,622,372,0,0
-595,652,0,0,0,0,0,0,0,0,0,-1,629,372,0,0
-588,652,0,0,0,0,0,0,0,0,0,-1,636,372,0,0
-581,652,0,0,0,0,0,0,0,0,0,-1,643,372,0,0
-574,652,0,0,0,0,0,0,0,0,0,-1,650,372,0,0
-567,652,0,0,0,0,0,0,0,0,0,-1,657,372,0,0
-560,652,0,0,0,0,0,0,0,0,0,-1,664,372,0,0
-553,652,0,0,0,0,0,0,0,0,0,-1,671,372,0,0
-546,652,0,0,0,0,0,0,0,0,0,-1,678,372,0,0
-539,652,0,0,0,0,0,0,0,0,0,-1,685,372,0,0
-532,652,0,0,0,0,0,0,0,0,0,-1,692,372,0,0
-525,652,0,0,0,0,0,0,0,0,0,-1,699,372,0,0
-518,652,0,0,0,0,0,0,0,0,0,-1,706,372,0,0
-511,652,0,0,0,0,0,0,0,0,0,-1,713,372,0,0
-504,652,0,0,0,0,0,0,0,0,0,-1,720,372,0,0
-497,652,0,0,0,0,0,0,0,0,0,-1,727,372,0,0
-490,652,0,0,0,0,0,0,0,0,0,-1,734,372,0,0
-483,652,0,0,0,0,0,0,0,0,0,-1,741,372,0,0
-476,652,0,0,0,0,0,0,0,0,0,-1,748,372,0,0
-469,652,0,0,0,0,0,0,0,0,0,-1,755,372,0,0
-462,652,0,0,0,0,0,0,0,0,0,-1,762,372,0,0
-455,652,0,0,0,0,0,0,0,0,0,-1,769,372,0,0
-448,652,0,0,0,0,0,0,0,0,0,-1,776,372,0,0
-441,652,0,0,0,0,0,0,0,0,0,-1,783,372,0,0
-434,652,0,0,0,0,0,0,0,0,0,-1,790,372,0,0
-427,652,0,0,0,0,0,0,0,0,0,-1,797,372,0,0
-420,652,0,0,0,0,0,0,0,0,0,-1,804,372,0,0
-413,652,0,0,0,0,0,0,0,0,0,-1,811,372,0,0
-406,652,0,0,0,0,0,0,0,0,0,-1,818,372,0,0
-399,652,0,0,0,0,0,0,0,0,0,-1,825,372,0,0
-392,652,0,0,0,0,0,0,0,0,0,-1,832,372,0,0
-385,652,0,0,0,0,0,0,0,0,0,-1,839,372,0,0
-378,652,0,0,0,0,0,0,0,0,0,-1,846,372,0,0
-371,652,0,0,0,0,0,0,0,0,0,-1,853,372,0,0
-364,652,0,0,0,0,0,0,0,0,0,-1,860,372,0,0
-357,652,0,0,0,0,0,0,0,0,0,-1,867,372,0,0
-350,652,0,0,0,0,0,0,0,0,0,-1,874,372,0,0
-343,652,0,0,0,0,0,0,0,0,0,-1,881,372,0,0
-336,652,0,0,0,0,0,0,0,0,0,-1,888,372,0,0
-329,652,0,0,0,0,0,0,0,0,0,-1,895,372,0,0
-322,652,0,0,0,0,0,0,0,0,0,-1,902,372,0,0
-315,652,0,0,0,0,0,0,0,0,0,-1,909,372,0,0
-308,652,0,0,0,0,0,0,0,0,0,-1,916,372,0,0
-301,652,0,0,0,0,0,0,0,0,0,-1,923,372,0,0
-294,652,0,0,0,0,0,0,0,0,0,-1,930,372,0,0
-287,652,0,0,0,0,0,0,0,0,0,-1,937,372,0,0
-280,652,0,0,0,0,0,0,0,0,0,-1,944,372,0,0
-273,652,0,0,0,0,0,0,0,0,0,-1,951,372,0,0
-266,652,0,0,0,0,0,0,0,0,0,-1,958,372,0,0
-259,652,0,0,0,0,0,0,0,0,0,-1,965,372,0,0
-252,652,0,0,0,0,0,0,0,0,0,-1,972,372,0,0
-245,652,0,0,0,0,0,0,0,0,0,-1,979,372,0,0
-238,652,0,0,0,0,0,0,0,0,0,-1,986,372,0,0
-231,652,8.79358,-27.1656,0,0,0,0,0,0,0,-1,993,372,8.79357,27.1656
-224,652,8.84552,-27.675,0,0,0,0,0,0,0,-1,1000,372,8.84555,27.675
-217,652,9.03113,-27.7474,0,0,0,0,0,0,0,-1,1007,372,9.0311,27.7474
-210,652,9.72803,-30.4624,0,0,0,0,0,0,0,-1,1014,372,9.72805,30.4624
-203,652,7.2677,-26.0732,0,0,0,0,0,0,0,-1,1021,372,7.26775,26.0732
-196,652,5.90686,-26.957,0,0,0,0,0,0,0,-1,1028,372,5.9068,26.957
-189,652,6.21326,-28.3035,0,0,0,0,0,0,0,-1,1035,372,6.21331,28.3035
-182,652,6.45068,-29.9377,0,0,0,0,0,0,0,-1,1042,372,6.45074,29.9377
-175,652,6.72559,-31.6948,0,0,0,0,0,0,0,-1,1049,372,6.72563,31.6948
-168,652,7.08533,-32.8669,0,0,0,0,0,0,0,-1,1056,372,7.08532,32.8669
-161,652,7.85291,-37.3545,0,0,0,0,0,0,0,-1,1063,372,7.85294,37.3545
-154,652,7.54639,-37.9586,0,0,0,0,0,0,0,-1,1070,372,7.54642,37.9586
-147,652,7.85571,-42.3712,0,0,0,0,0,0,0,-1,1077,372,7.8557,42.3712
-140,652,5.6842,-33.9781,0,0,0,0,0,0,0,-1,1084,372,5.68421,33.9781
-133,652,6.3009,-35.2887,0,0,0,0,0,0,0,-1,1091,372,6.30093,35.2887
-126,652,5.86841,-37.0981,0,0,0,0,0,0,0,-1,1098,372,5.86845,37.0981
-119,652,8.18018,-49.52,0,0,0,0,0,0,0,-1,1105,372,8.18015,49.52
-112,652,7.81982,-48.4793,0,0,0,0,0,0,0,-1,1112,372,7.81981,48.4793
-105,652,6.63855,-39.9965,0,0,0,0,0,0,0,-1,1119,372,6.63852,39.9965
-98,652,5.84302,-35.2455,0,0,0,0,0,0,0,-1,1126,372,5.84307,35.2455
-91,652,5.66296,-32.9003,0,0,0,0,0,0,0,-1,1133,372,5.66297,32.9003
-84,652,5.46057,-34.9186,0,0,0,0,0,0,0,-1,1140,372,5.46057,34.9186
-77,652,9.14978,-186.442,0,0,0,0,0,0,0,-1,1147,372,9.14981,186.442
-70,652,8.8877,-188.035,0,0,0,0,0,0,0,-1,1154,372,8.88766,188.035
-63,652,8.63147,-189.441,0,0,0,0,0,0,0,-1,1161,372,8.6315,189.441
-56,652,8.19763,-190.852,0,0,0,0,0,0,0,-1,1168,372,8.19766,190.852
-49,652,7.896,-192.145,-0.0230578,0.0273127,-0.00565319,0.0279394,-0.0236845,-1.46039,0.0298388,0.0369406,1175,372,7.89603,192.145
-42,652,7.72302,-193.144,-0.0224449,0.0291352,-0.00497609,0.0296108,-0.0229206,-1.47549,0.0304109,0.0195352,1182,372,7.72298,193.144
-35,652,7.57959,-194.186,-0.0217319,0.0319326,-0.00451834,0.0323104,-0.0221096,-1.48738,0.0316029,0.0141597,1189,372,7.57956,194.186
-28,652,7.35461,-195.259,-0.0209939,0.0345657,-0.00437124,0.0349075,-0.0213358,-1.49276,0.0327857,0.0116456,1196,372,7.35466,195.259
-21,652,7.10181,-196.318,-0.0202703,0.0367422,-0.00407987,0.0370326,-0.0205608,-1.49972,0.0337018,0.016002,1203,372,7.10186,196.318
-14,652,6.92175,-197.173,-0.0196143,0.039176,-0.00375555,0.0394149,-0.0198533,-1.50726,0.0348342,0.0199288,1210,372,6.9217,197.173
-7,652,6.7135,-197.985,-0.0188297,0.0414441,-0.00337702,0.0416327,-0.0190183,-1.515,0.0358191,0.0235731,1217,372,6.71354,197.985
0,652,6.49451,-198.693,-0.0179281,0.043119,-0.00307994,0.0432739,-0.0180831,-1.52051,0.0364061,0.0236513,1224,372,6.49453,198.693
7,652,6.36133,-199.214,-0.0172179,0.0444077,-0.00295413,0.044549,-0.0173592,-1.52301,0.0368739,0.0241613,1231,372,6.36135,199.214
14,652,6.29883,-199.867,-0.0167385,0.0446571,-0.00287669,0.0447916,-0.016873,-1.52408,0.0367982,0.0166647,1238,372,6.29878,199.867
21,652,6.12598,-200.422,-0.0165271,0.0440147,-0.00277841,0.044142,-0.0166543,-1.52503,0.0362769,0.0147894,1245,372,6.12592,200.422
28,652,6.00879,-200.883,-0.0161836,0.0421983,-0.00263929,0.0423174,-0.0163027,-1.52571,0.0349376,0.0145353,1252,372,6.00881,200.883
35,652,5.88855,-201.204,-0.0157967,0.0398644,-0.0024996,0.0399764,-0.0159087,-1.52601,0.0332477,0.0152696,1259,372,5.88852,201.204
42,652,5.74365,-201.462,-0.015873,0.0375917,-0.00210759,0.0376746,-0.0159559,-1.53146,0.0317987,0.0166625,1266,372,5.74362,201.462
49,652,5.68188,-201.734,-0.0161627,0.0352662,-0.00160765,0.0353164,-0.0162129,-1.53958,0.0304243,0.0205527,1273,372,5.68193,201.734
56,652,5.55884,-201.871,-0.0163615,0.0327348,-0.00120635,0.0327644,-0.0163911,-1.54624,0.0289,0.021499,1280,372,5.55889,201.871
63,652,5.41492,-201.98,-0.0166712,0.0304113,-0.000600597,0.030419,-0.0166789,-1.55804,0.027575,0.0242126,1287,372,5.41492,201.98
70,652,5.24182,-201.918,-0.0169807,0.028388,0.000380614,0.0283912,-0.0169839,1.56241,0.0264718,0.0229039,1294,372,5.24185,201.918
77,652,5.0498,-201.91,-0.0173207,0.027875,0.00159403,0.0279311,-0.0173768,1.53559,0.0263941,0.0212114,1301,372,5.04979,201.91
84,652,5.04736,-201.788,-0.0176006,0.0289548,0.00228837,0.0290671,-0.0177128,1.5218,0.0272723,0.0176503,1308,372,5.04734,201.788
91,652,4.96252,-201.675,-0.0178288,0.0300412,0.00291695,0.0302183,-0.0180059,1.51016,0.0281383,0.0232979,1315,372,4.96253,201.675
98,652,4.88123,-201.302,-0.0180979,0.0309202,0.00367514,0.0311942,-0.0183719,1.49638,0.0289344,0.0201101,1322,372,4.88123,201.302
105,652,4.71399,-200.815,-0.0184066,0.0319331,0.00441311,0.0323171,-0.0187906,1.48401,0.0298495,0.0185404,1329,372,4.71401,200.815
112,652,4.55542,-200.31,-0.0185426,0.0329694,0.00520183,0.0334895,-0.0190626,1.47115,0.0307197,0.0160478,1336,372,4.55539,200.31
119,652,4.42725,-199.778,-0.0184838,0.0341917,0.00603583,0.0348744,-0.0191666,1.45816,0.0316369,0.0163346,1343,372,4.42719,199.778
126,652,4.23413,-199.109,-0.0186722,0.035213,0.00669592,0.0360326,-0.0194918,1.449,0.0325277,0.0176121,1350,372,4.23414,199.109
133,652,4.02271,-198.375,-0.0191044,0.0361525,0.00740889,0.0371287,-0.0200806,1.4398,0.0335151,0.0165572,1357,372,4.02274,198.375
140,652,3.8595,-197.655,-0.0195515,0.0368807,0.00813624,0.0380304,-0.0207011,1.43043,0.0343971,0.0120845,1364,372,3.8595,197.655
147,652,3.70923,-196.823,-0.0197955,0.0371262,0.0087359,0.0384368,-0.021106,1.42189,0.0348591,0.012518,1371,372,3.70925,196.823
154,652,3.53162,-195.921,-0.0200966,0.0376627,0.00940442,0.0391554,-0.0215892,1.41339,0.0355564,0.0136043,1378,372,3.53167,195.921
161,652,3.28601,-194.902,-0.0208118,0.0380983,0.00999386,0.0397476,-0.0224611,1.40724,0.0363755,0.0166701,1385,372,3.28606,194.902
168,652,3.09302,-193.753,-0.0218831,0.0383776,0.0105733,0.0401789,-0.0236845,1.40205,0.0372792,0.0196825,1392,372,3.09299,193.753
175,652,2.83691,-192.576,-0.0232319,0.0385632,0.0111706,0.0405205,-0.0251892,1.39734,0.0382802,0.0200856,1399,372,2.83695,192.576
182,652,2.52307,-191.419,-0.0244131,0.0384606,0.0116427,0.0405472,-0.0264998,1.39345,0.0389918,0.0326613,1406,372,2.52307,191.419
189,652,2.28601,-190.256,0,0,0,0,0,0,0,-1,1413,372,2.28604,190.256
196,652,1.99756,-188.999,0,0,0,0,0,0,0,-1,1420,372,1.99751,188.999
203,652,1.67664,-187.421,0,0,0,0,0,0,0,-1,1427,372,1.67659,187.421
210,652,1.30432,-184.181,0,0,0,0,0,0,0,-1,1434,372,1.30438,184.181
217,652,0.885376,-184.183,0,0,0,0,0,0,0,-1,1441,372,0.885414,184.183
224,652,3.63794,-31.2791,0,0,0,0,0,0,0,-1,1448,372,3.63799,31.2791
231,652,3.83936,-30.4812,0,0,0,0,0,0,0,-1,1455,372,3.8393,30.4812
238,652,4.42358,-36.4103,0,0,0,0,0,0,0,-1,1462,372,4.4236,36.4103
245,652,4.53296,-41.8512,0,0,0,0,0,0,0,-1,1469,372,4.5329,41.8512
252,652,5.00793,-47.7065,0,0,0,0,0,0,0,-1,1476,372,5.00791,47.7064
259,652,3.44922,-31.2655,0,0,0,0,0,0,0,-1,1483,372,3.44921,31.2655
266,652,5.5387,-50.3915,0,0,0,0,0,0,0,-1,1490,372,5.53875,50.3915
273,652,5.76855,-57.8665,0,0,0,0,0,0,0,-1,1497,372,5.76858,57.8665
280,652,4.05066,-24.6993,0,0,0,0,0,0,0,-1,1504,372,4.05066,24.6993
287,652,3.0979,-23.6951,0,0,0,0,0,0,0,-1,1511,372,3.09796,23.6951
294,652,2.06946,-24.1711,0,0,0,0,0,0,0,-1,1518,372,2.0694,24.1711
301,652,1.78735,-24.3724,0,0,0,0,0,0,0,-1,1525,372,1.78732,24.3724
308,652,-0.706299,-22.1083,0,0,0,0,0,0,0,-1,1532,372,-0.706291,22.1083
315,652,-1.65198,-21.8662,0,0,0,0,0,0,0,-1,1539,372,-1.65204,21.8662
322,652,-2.66101,-21.728,0,0,0,0,0,0,0,-1,1546,372,-2.66097,21.728
329,652,-7.12329,-21.7065,0,0,0,0,0,0,0,-1,1553,372,-7.12334,21.7065
336,652,-3.56519,-22.3688,0,0,0,0,0,0,0,-1,1560,372,-3.56517,22.3688
343,652,-3.58069,-21.9185,0,0,0,0,0,0,0,-1,1567,372,-3.58069,21.9185
350,652,5.28394,-25.6715,0,0,0,0,0,0,0,-1,1574,372,5.28393,25.6715
357,652,0,0,0,0,0,0,0,0,0,-1,1581,372,0,0
364,652,0,0,0,0,0,0,0,0,0,-1,1588,372,0,0
371,652,0,0,0,0,0,0,0,0,0,-1,1595,372,0,0
378,652,0,0,0,0,0,0,0,0,0,-1,1602,372,0,0
385,652,0,0,0,0,0,0,0,0,0,-1,1609,372,0,0
392,652,0,0,0,0,0,0,0,0,0,-1,1616,372,0,0
399,652,0,0,0,0,0,0,0,0,0,-1,1623,372,0,0
406,652,0,0,0,0,0,0,0,0,0,-1,1630,372,0,0
413,652,0,0,0,0,0,0,0,0,0,-1,1637,372,0,0
420,652,0,0,0,0,0,0,0,0,0,-1,1644,372,0,0
427,652,0,0,0,0,0,0,0,0,0,-1,1651,372,0,0
434,652,0,0,0,0,0,0,0,0,0,-1,1658,372,0,0
441,652,0,0,0,0,0,0,0,0,0,-1,1665,372,0,0
448,652,0,0,0,0,0,0,0,0,0,-1,1672,372,0,0
455,652,0,0,0,0,0,0,0,0,0,-1,1679,372,0,0
462,652,0,0,0,0,0,0,0,0,0,-1,1686,372,0,0
469,652,0,0,0,0,0,0,0,0,0,-1,1693,372,0,0
476,652,0,0,0,0,0,0,0,0,0,-1,1700,372,0,0
483,652,0,0,0,0,0,0,0,0,0,-1,1707,372,0,0
490,652,0,0,0,0,0,0,0,0,0,-1,1714,372,0,0
497,652,0,0,0,0,0,0,0,0,0,-1,1721,372,0,0
504,652,0,0,0,0,0,0,0,0,0,-1,1728,372,0,0
511,652,0,0,0,0,0,0,0,0,0,-1,1735,372,0,0
518,652,0,0,0,0,0,0,0,0,0,-1,1742,372,0,0
525,652,0,0,0,0,0,0,0,0,0,-1,1749,372,0,0
532,652,0,0,0,0,0,0,0,0,0,-1,1756,372,0,0
539,652,0,0,0,0,0,0,0,0,0,-1,1763,372,0,0
546,652,0,0,0,0,0,0,0,0,0,-1,1770,372,0,0
553,652,0,0,0,0,0,0,0,0,0,-1,1777,372,0,0
560,652,0,0,0,0,0,0,0,0,0,-1,1784,372,0,0
567,652,0,0,0,0,0,0,0,0,0,-1,1791,372,0,0
574,652,0,0,0,0,0,0,0,0,0,-1,1798,372,0,0
581,652,0,0,0,0,0,0,0,0,0,-1,1805,372,0,0
588,652,0,0,0,0,0,0,0,0,0,-1,1812,372,0,0
595,652,0,0,0,0,0,0,0,0,0,-1,1819,372,0,0
602,652,0,0,0,0,0,0,0,0,0,-1,1826,372,0,0
609,652,0,0,0,0,0,0,0,0,0,-1,1833,372,0,0
616,652,0,0,0,0,0,0,0,0,0,-1,1840,372,0,0
623,652,0,0,0,0,0,0,0,0,0,-1,1847,372,0,0
630,652,0,0,0,0,0,0,0,0,0,-1,1854,372,0,0
637,652,0,0,0,0,0,0,0,0,0,-1,1861,372,0,0
644,652,0,0,0,0,0,0,0,0,0,-1,1868,372,0,0
651,652,0,0,0,0,0,0,0,0,0,-1,1875,372,0,0
658,652,0,0,0,0,0,0,0,0,0,-1,1882,372,0,0
665,652,0,0,0,0,0,0,0,0,0,-1,1889,372,0,0
672,652,0,0,0,0,0,0,0,0,0,-1,1896,372,0,0
679,652,0,0,0,0,0,0,0,0,0,-1,1903,372,0,0
686,652,0,0,0,0,0,0,0,0,0,-1,1910,372,0,0
693,652,0,0,0,0,0,0,0,0,0,-1,1917,372,0,0
700,652,0,0,0,0,0,0,0,0,0,-1,1924,372,0,0
707,652,0,0,0,0,0,0,0,0,0,-1,1931,372,0,0
714,652,0,0,0,0,0,0,0,0,0,-1,1938,372,0,0
721,652,0,0,0,0,0,0,0,0,0,-1,1945,372,0,0
728,652,0,0,0,0,0,0,0,0,0,-1,1952,372,0,0
735,652,0,0,0,0,0,0,0,0,0,-1,1959,372,0,0
742,652,0,0,0,0,0,0,0,0,0,-1,1966,372,0,0
749,652,0,0,0,0,0,0,0,0,0,-1,1973,372,0,0
756,652,0,0,0,0,0,0,0,0,0,-1,1980,372,0,0
763,652,0,0,0,0,0,0,0,0,0,-1,1987,372,0,0
770,652,0,0,0,0,0,0,0,0,0,-1,1994,372,0,0
777,652,0,0,0,0,0,0,0,0,0,-1,2001,372,0,0
784,652,0,0,0,0,0,0,0,0,0,-1,2008,372,0,0
791,652,0,0,0,0,0,0,0,0,0,-1,2015,372,0,0
798,652,0,0,0,0,0,0,0,0,0,-1,2022,372,0,0
805,652,0,0,0,0,0,0,0,0,0,-1,2029,372,0,0
812,652,0,0,0,0,0,0,0,0,0,-1,2036,372,0,0
-700,645,0,0,0,0,0,0,0,0,0,-1,524,379,0,0
-693,645,0,0,0,0,0,0,0,0,0,-1,531,379,0,0
-686,645,0,0,0,0,0,0,0,0,0,-1,538,379,0,0
-679,645,0,0,0,0,0,0,0,0,0,-1,545,379,0,0
-672,645,0,0,0,0,0,0,0,0,0,-1,552,379,0,0
-665,645,0,0,0,0,0,0,0,0,0,-1,559,379,0,0
-658,645,0,0,0,0,0,0,0,0,0,-1,566,379,0,0
-651,645,0,0,0,0,0,0,0,0,0,-1,573,379,0,0
-644,645,0,0,0,0,0,0,0,0,0,-1,580,379,0,0
-637,645,0,0,0,0,0,0,0,0,0,-1,587,379,0,0
-630,645,0,0,0,0,0,0,0,0,0,-1,594,379,0,0
-623,645,0,0,0,0,0,0,0,0,0,-1,601,379,0,0
-616,645,0,0,0,0,0,0,0,0,0,-1,608,379,0,0
-609,645,0,0,0,0,0,0,0,0,0,-1,615,379,0,0
-602,645,0,0,0,0,0,0,0,0,0,-1,622,379,0,0
-595,645,0,0,0,0,0,0,0,0,0,-1,629,379,0,0
-588,645,0,0,0,0,0,0,0,0,0,-1,636,379,0,0
-581,645,0,0,0,0,0,0,0,0,0,-1,643,379,0,0
-574,645,0,0,0,0,0,0,0,0,0,-1,650,379,0,0
-567,645,0,0,0,0,0,0,0,0,0,-1,657,379,0,0
-560,645,0,0,0,0,0,0,0,0,0,-1,664,379,0,0
-553,645,0,0,0,0,0,0,0,0,0,-1,671,379,0,0
-546,645,0,0,0,0,0,0,0,0,0,-1,678,379,0,0
-539,645,0,0,0,0,0,0,0,0,0,-1,685,379,0,0
-532,645,0,0,0,0,0,0,0,0,0,-1,692,379,0,0
-525,645,0,0,0,0,0,0,0,0,0,-1,699,379,0,0
-518,645,0,0,0,0,0,0,0,0,0,-1,706,379,0,0
-511,645,0,0,0,0,0,0,0,0,0,-1,713,379,0,0
-504,645,0,0,0,0,0,0,0,0,0,-1,720,379,0,0
-497,645,0,0,0,0,0,0,0,0,0,-1,727,379,0,0
-490,645,0,0,0,0,0,0,0,0,0,-1,734,379,0,0
-483,645,0,0,0,0,0,0,0,0,0,-1,741,379,0,0
-476,645,0,0,0,0,0,0,0,0,0,-1,748,379,0,0
-469,645,0,0,0,0,0,0,0,0,0,-1,755,379,0,0
-462,645,0,0,0,0,0,0,0,0,0,-1,762,379,0,0
-455,645,0,0,0,0,0,0,0,0,0,-1,769,379,0,0
-448,645,0,0,0,0,0,0,0,0,0,-1,776,379,0,0
-441,645,0,0,0,0,0,0,0,0,0,-1,783,379,0,0
-434,645,0,0,0,0,0,0,0,0,0,-1,790,379,0,0
-427,645,0,0,0,0,0,0,0,0,0,-1,797,379,0,0
-420,645,0,0,0,0,0,0,0,0,0,-1,804,379,0,0
-413,645,0,0,0,0,0,0,0,0,0,-1,811,379,0,0
-406,645,0,0,0,0,0,0,0,0,0,-1,818,379,0,0
-399,645,0,0,0,0,0,0,0,0,0,-1,825,379,0,0
-392,645,0,0,0,0,0,0,0,0,0,-1,832,379,0,0
-385,645,0,0,0,0,0,0,0,0,0,-1,839,379,0,0
-378,645,0,0,0,0,0,0,0,0,0,-1,846,379,0,0
-371,645,0,0,0,0,0,0,0,0,0,-1,853,379,0,0
-364,645,0,0,0,0,0,0,0,0,0,-1,860,379,0,0
-357,645,0,0,0,0,0,0,0,0,0,-1,867,379,0,0
-350,645,0,0,0,0,0,0,0,0,0,-1,874,379,0,0
-343,645,0,0,0,0,0,0,0,0,0,-1,881,379,0,0
-336,645,0,0,0,0,0,0,0,0,0,-1,888,379,0,0
-329,645,0,0,0,0,0,0,0,0,0,-1,895,379,0,0
-322,645,0,0,0,0,0,0,0,0,0,-1,902,379,0,0
-315,645,0,0,0,0,0,0,0,0,0,-1,909,379,0,0
-308,645,0,0,0,0,0,0,0,0,0,-1,916,379,0,0
-301,645,0,0,0,0,0,0,0,0,0,-1,923,379,0,0
-294,645,0,0,0,0,0,0,0,0,0,-1,930,379,0,0
-287,645,0,0,0,0,0,0,0,0,0,-1,937,379,0,0
-280,645,0,0,0,0,0,0,0,0,0,-1,944,379,0,0
-273,645,0,0,0,0,0,0,0,0,0,-1,951,379,0,0
-266,645,0,0,0,0,0,0,0,0,0,-1,958,379,0,0
-259,645,0,0,0,0,0,0,0,0,0,-1,965,379,0,0
-252,645,2.95691,-26.9133,0,0,0,0,0,0,0,-1,972,379,2.9569,26.9133
-245,645,2.73169,-27.0215,0,0,0,0,0,0,0,-1,979,379,2.73172,27.0215
-238,645,2.6665,-26.9464,0,0,0,0,0,0,0,-1,986,379,2.66649,26.9464
-231,645,7.26807,-29.1054,0,0,0,0,0,0,0,-1,993,379,7.26806,29.1054
-224,645,7.69073,-29.5737,0,0,0,0,0,0,0,-1,1000,379,7.69071,29.5737
-217,645,8.65485,-33.4136,0,0,0,0,0,0,0,-1,1007,379,8.65487,33.4136
-210,645,9.21594,-32.5157,0,0,0,0,0,0,0,-1,1014,379,9.21591,32.5156
-203,645,9.77698,-31.6176,0,0,0,0,0,0,0,-1,1021,379,9.77696,31.6177
-196,645,10.2664,-29.7741,0,0,0,0,0,0,0,-1,1028,379,10.2664,29.7741
-189,645,5.88062,-28.2191,0,0,0,0,0,0,0,-1,1035,379,5.88062,28.2191
-182,645,6.34167,-29.2525,0,0,0,0,0,0,0,-1,1042,379,6.3417,29.2525
-175,645,6.36462,-35.5586,0,0,0,0,0,0,0,-1,1049,379,6.3646,35.5586
-168,645,7.19116,-39.5785,0,0,0,0,0,0,0,-1,1056,379,7.19115,39.5785
-161,645,7.22083,-37.6093,0,0,0,0,0,0,0,-1,1063,379,7.22085,37.6094
-154,645,7.42102,-41.6806,0,0,0,0,0,0,0,-1,1070,379,7.42105,41.6806
-147,645,8.89526,-50.6488,0,0,0,0,0,0,0,-1,1077,379,8.89521,50.6488
-140,645,10.4504,-64.9295,0,0,0,0,0,0,0,-1,1084,379,10.4504,64.9295
-133,645,10.6296,-65.2849,0,0,0,0,0,0,0,-1,1091,379,10.6297,65.2849
-126,645,10.2167,-62.2486,0,0,0,0,0,0,0,-1,1098,379,10.2167,62.2486
-119,645,10.1696,-65.1252,0,0,0,0,0,0,0,-1,1105,379,10.1695,65.1252
-112,645,9.59546,-178.646,0,0,0,0,0,0,0,-1,1112,379,9.59551,178.646
-105,645,9.19092,-180.458,0,0,0,0,0,0,0,-1,1119,379,9.19095,180.458
-98,645,8.8075,-182.12,0,0,0,0,0,0,0,-1,1126,379,8.80745,182.12
-91,645,8.4209,-183.811,0,0,0,0,0,0,0,-1,1133,379,8.42091,183.811
-84,645,8.18872,-185.097,0,0,0,0,0,0,0,-1,1140,379,8.18877,185.097
-77,645,7.85901,-186.773,-0.0185573,0.0193619,-0.00644881,0.0204287,-0.019624,-1.40687,0.023126,0.0401337,1147,379,7.85902,186.773
-70,645,7.59412,-188.201,-0.0175044,0.0196423,-0.00594621,0.020571,-0.0184331,-1.41588,0.0225303,0.0194997,1154,379,7.59416,188.201
-63,645,7.40881,-189.497,-0.0164533,0.0196881,-0.00544612,0.020491,-0.0172561,-1.42444,0.0218199,0.0192516,1161,379,7.40887,189.497
-56,645,7.16553,-190.753,-0.015307,0.0195824,-0.00495917,0.0202736,-0.0159982,-1.43231,0.02099,0.0214979,1168,379,7.16552,190.753
-49,645,6.84583,-192.049,-0.0144555,0.0200312,-0.00422803,0.0205419,-0.0149663,-1.45057,0.0205848,0.0186055,1175,379,6.84579,192.049
-42,645,6.62622,-193.148,-0.0135971,0.0209384,-0.00362607,0.021315,-0.0139737,-1.4673,0.0205204,0.0180863,1182,379,6.6262,193.148
-35,645,6.5011,-194.27,-0.0126901,0.0225387,-0.00317486,0.0228225,-0.0129739,-1.48163,0.0209262,0.0147735,1189,379,6.50109,194.27
-28,645,6.34888,-195.358,-0.0117413,0.0240745,-0.00295711,0.024317,-0.0119838,-1.48897,0.0213577,0.0119445,1196,379,6.34893,195.358
-21,645,6.17236,-196.368,-0.0108273,0.0253157,-0.00265653,0.0255099,-0.0110215,-1.49782,0.0216373,0.0172231,1203,379,6.17231,196.368
-14,645,6.04785,-197.354,-0.0100158,0.0268431,-0.00232258,0.0269889,-0.0101616,-1.50811,0.0221701,0.0154357,1210,379,6.04785,197.354
-7,645,5.98462,-198.158,-0.00905239,0.0282708,-0.0019434,0.0283717,-0.00915331,-1.51891,0.0225923,0.0192584,1217,379,5.98465,198.158
0,645,5.77673,-198.796,-0.00798495,0.0292965,-0.00163292,0.0293678,-0.00805633,-1.52711,0.0227447,0.03827,1224,379,5.77669,198.796
7,645,5.80212,-199.325,-0.00716909,0.0300951,-0.00149234,0.0301548,-0.00722876,-1.53083,0.0228964,0.0264768,1231,379,5.80214,199.325
14,645,5.69177,-199.936,-0.00660158,0.0302096,-0.00141497,0.030264,-0.00665588,-1.53243,0.0227219,0.0236532,1238,379,5.69179,199.936
21,645,5.58472,-200.551,-0.00618937,0.0297494,-0.00133438,0.0297989,-0.00623884,-1.53374,0.0222392,0.0158846,1245,379,5.58467,200.551
28,645,5.58899,-201.001,-0.00566002,0.0285493,-0.00125794,0.0285955,-0.00570622,-1.53409,0.021223,0.0134624,1252,379,5.58903,201.001
35,645,5.52759,-201.347,-0.00517714,0.0270697,-0.00119622,0.027114,-0.00522146,-1.53377,0.0200444,0.0124875,1259,379,5.52762,201.347
42,645,5.45728,-201.667,-0.00505596,0.0256508,-0.000979774,0.025682,-0.00508719,-1.53893,0.0190449,0.0134756,1266,379,5.45723,201.667
49,645,5.48486,-201.875,-0.00507872,0.0241723,-0.000743443,0.0241912,-0.0050976,-1.5454,0.018068,0.018586,1273,379,5.48492,201.875
56,645,5.44495,-201.992,-0.00508568,0.0225155,-0.000597673,0.0225284,-0.00509861,-1.54916,0.0169757,0.0175876,1280,379,5.445,201.992
63,645,5.41663,-202.125,-0.00525089,0.0209676,-0.000309382,0.0209713,-0.00525454,-1.559,0.0160222,0.0155095,1287,379,5.41667,202.125
70,645,5.32373,-202.1,-0.00549808,0.0196477,0.000258902,0.0196503,-0.00550075,1.5605,0.0152678,0.0188136,1294,379,5.32375,202.1
77,645,5.26465,-202.043,-0.00579555,0.0193439,0.000988533,0.0193827,-0.00583436,1.53156,0.0152434,0.0231395,1301,379,5.26467,202.043
84,645,5.26282,-201.895,-0.00604875,0.0201094,0.00139586,0.0201837,-0.00612302,1.51764,0.0158949,0.0187889,1308,379,5.26287,201.895
91,645,5.22339,-201.754,-0.00633679,0.0208883,0.00177382,0.0210034,-0.00645187,1.50601,0.0165768,0.0224025,1315,379,5.22342,201.754
98,645,5.18018,-201.424,-0.00673338,0.0216063,0.00229727,0.0217913,-0.00691839,1.49043,0.0173011,0.0194102,1322,379,5.18017,201.424
105,645,5.10718,-200.958,-0.00713435,0.0224642,0.00281384,0.0227293,-0.00739948,1.47685,0.0181299,0.0149306,1329,379,5.10715,200.958
112,645,5.01392,-200.493,-0.00737275,0.0233554,0.00337441,0.0237216,-0.00773895,1.4627,0.0189289,0.0138463,1336,379,5.01397,200.493
119,645,4.96021,-199.93,-0.00752023,0.0243984,0.00397484,0.0248859,-0.00800777,1.44875,0.019807,0.0130917,1343,379,4.96024,199.93
126,645,4.84521,-199.28,-0.00796265,0.0253253,0.00448547,0.0259191,-0.00855646,1.43918,0.0207288,0.0150345,1350,379,4.84517,199.28
133,645,4.7489,-198.567,-0.00862642,0.026235,0.00508204,0.0269607,-0.00935216,1.42895,0.0217714,0.0155794,1357,379,4.74895,198.567
140,645,4.67517,-197.831,-0.00928521,0.026995,0.00570698,0.0278715,-0.0101618,1.4184,0.0227382,0.0144908,1364,379,4.67519,197.831
147,645,4.58582,-196.909,-0.00982319,0.0274051,0.00620971,0.0284136,-0.0108317,1.4098,0.0234039,0.0157597,1371,379,4.58588,196.909
154,645,4.47815,-195.973,-0.0104479,0.0280309,0.00678727,0.029193,-0.01161,1.40122,0.0242758,0.0152855,1378,379,4.47816,195.973
161,645,4.25562,-195.011,-0.0114291,0.0285949,0.00735089,0.0299023,-0.0127365,1.39478,0.0252737,0.0198569,1385,379,4.25563,195.011
168,645,4.10034,-193.96,-0.0126703,0.0290493,0.00792591,0.0305043,-0.0141253,1.38924,0.026339,0.0242229,1392,379,4.10035,193.96
175,645,3.96375,-192.856,-0.0140987,0.0294327,0.0084978,0.0310327,-0.0156988,1.38469,0.0274604,0.0234428,1399,379,3.96374,192.856
182,645,3.69788,-191.616,-0.0154196,0.0296013,0.00897204,0.0313234,-0.0171417,1.38116,0.0283779,0.0173984,1406,379,3.6979,191.616
189,645,3.49207,-190.266,-0.016421,0.0294162,0.00958606,0.0313402,-0.018345,1.37272,0.0290109,0.0160099,1413,379,3.49204,190.266
196,645,3.23926,-189.039,-0.0173994,0.0298354,0.0104262,0.0320344,-0.0195984,1.36293,0.0300971,0.0149822,1420,379,3.23928,189.039
203,645,2.94763,-187.589,0,0,0,0,0,0,0,-1,1427,379,2.94768,187.589
210,645,2.81641,-185.412,0,0,0,0,0,0,0,-1,1434,379,2.81641,185.412
217,645,2.38904,-184.404,0,0,0,0,0,0,0,-1,1441,379,2.3891,184.404
224,645,1.96179,-183.395,0,0,0,0,0,0,0,-1,1448,379,1.96179,183.395
231,645,1.63586,-181.186,0,0,0,0,0,0,0,-1,1455,379,1.63589,181.186
238,645,1.23608,-179.385,0,0,0,0,0,0,0,-1,1462,379,1.23603,179.385
245,645,0.950806,-177.419,0,0,0,0,0,0,0,-1,1469,379,0.950751,177.419
252,645,6.27942,-52.6305,0,0,0,0,0,0,0,-1,1476,379,6.27947,52.6305
259,645,6.5321,-54.0518,0,0,0,0,0,0,0,-1,1483,379,6.53211,54.0518
266,645,6.84973,-61.1459,0,0,0,0,0,0,0,-1,1490,379,6.84972,61.146
273,645,6.9054,-70.7075,0,0,0,0,0,0,0,-1,1497,379,6.90542,70.7075
280,645,6.67688,-72.5746,0,0,0,0,0,0,0,-1,1504,379,6.67691,72.5746
287,645,7.4104,-62.5272,0,0,0,0,0,0,0,-1,1511,379,7.41036,62.5271
294,645,3.76428,-22.9539,0,0,0,0,0,0,0,-1,1518,379,3.7643,22.9539
301,645,2.74219,-23.503,0,0,0,0,0,0,0,-1,1525,379,2.74222,23.503
308,645,1.82227,-23.9479,0,0,0,0,0,0,0,-1,1532,379,1.82227,23.9479
315,645,0.990356,-24.8735,0,0,0,0,0,0,0,-1,1539,379,0.990376,24.8735
322,645,-0.256714,-24.7577,0,0,0,0,0,0,0,-1,1546,379,-0.256653,24.7577
329,645,-4.45581,-22.707,0,0,0,0,0,0,0,-1,1553,379,-4.45579,22.707
336,645,-5.83154,-22.8404,0,0,0,0,0,0,0,-1,1560,379,-5.83149,22.8404
343,645,4.03186,-38.0623,0,0,0,0,0,0,0,-1,1567,379,4.03187,38.0623
350,645,4.76404,-22.1987,0,0,0,0,0,0,0,-1,1574,379,4.76399,22.1987
357,645,4.61316,-21.967,0,0,0,0,0,0,0,-1,1581,379,4.61316,21.967
364,645,-0.0794678,-3.22021,0,0,0,0,0,0,0,-1,1588,379,-0.0794987,3.22021
371,645,0,0,0,0,0,0,0,0,0,-1,1595,379,0,0
378,645,0,0,0,0,0,0,0,0,0,-1,1602,379,0,0
385,645,0,0,0,0,0,0,0,0,0,-1,1609,379,0,0
392,645,0,0,0,0,0,0,0,0,0,-1,1616,379,0,0
399,645,0,0,0,0,0,0,0,0,0,-1,1623,379,0,0
406,645,0,0,0,0,0,0,0,0,0,-1,1630,379,0,0
413,645,0,0,0,0,0,0,0,0,0,-1,1637,379,0,0
420,645,0,0,0,0,0,0,0,0,0,-1,1644,379,0,0
427,645,0,0,0,0,0,0,0,0,0,-1,1651,379,0,0
434,645,0,0,0,0,0,0,0,0,0,-1,1658,379,0,0
441,645,0,0,0,0,0,0,0,0,0,-1,1665,379,0,0
448,645,0,0,0,0,0,0,0,0,0,-1,1672,379,0,0
455,645,0,0,0,0,0,0,0,0,0,-1,1679,379,0,0
462,645,0,0,0,0,0,0,0,0,0,-1,1686,379,0,0
469,645,0,0,0,0,0,0,0,0,0,-1,1693,379,0,0
476,645,0,0,0,0,0,0,0,0,0,-1,1700,379,0,0
483,645,0,0,0,0,0,0,0,0,0,-1,1707,379,0,0
490,645,0,0,0,0,0,0,0,0,0,-1,1714,379,0,0
497,645,0,0,0,0,0,0,0,0,0,-1,1721,379,0,0
504,645,0,0,0,0,0,0,0,0,0,-1,1728,379,0,0
511,645,0,0,0,0,0,0,0,0,0,-1,1735,379,0,0
518,645,0,0,0,0,0,0,0,0,0,-1,1742,379,0,0
525,645,0,0,0,0,0,0,0,0,0,-1,1749,379,0,0
532,645,0,0,0,0,0,0,0,0,0,-1,1756,379,0,0
539,645,0,0,0,0,0,0,0,0,0,-1,1763,379,0,0
546,645,0,0,0,0,0,0,0,0,0,-1,1770,379,0,0
553,645,0,0,0,0,0,0,0,0,0,-1,1777,379,0,0
560,645,0,0,0,0,0,0,0,0,0,-1,1784,379,0,0
567,645,0,0,0,0,0,0,0,0,0,-1,1791,379,0,0
574,645,0,0,0,0,0,0,0,0,0,-1,1798,379,0,0
581,645,0,0,0,0,0,0,0,0,0,-1,1805,379,0,0
588,645,0,0,0,0,0,0,0,0,0,-1,1812,379,0,0
595,645,0,0,0,0,0,0,0,0,0,-1,1819,379,0,0
602,645,0,0,0,0,0,0,0,0,0,-1,1826,379,0,0
609,645,0,0,0,0,0,0,0,0,0,-1,1833,379,0,0
616,645,0,0,0,0,0,0,0,0,0,-1,1840,379,0,0
623,645,0,0,0,0,0,0,0,0,0,-1,1847,379,0,0
630,645,0,0,0,0,0,0,0,0,0,-1,1854,379,0,0
637,645,0,0,0,0,0,0,0,0,0,-1,1861,379,0,0
644,645,0,0,0,0,0,0,0,0,0,-1,1868,379,0,0
651,645,0,0,0,0,0,0,0,0,0,-1,1875,379,0,0
658,645,0,0,0,0,0,0,0,0,0,-1,1882,379,0,0
665,645,0,0,0,0,0,0,0,0,0,-1,1889,379,0,0
672,645,0,0,0,0,0,0,0,0,0,-1,1896,379,0,0
679,645,0,0,0,0,0,0,0,0,0,-1,1903,379,0,0
686,645,0,0,0,0,0,0,0,0,0,-1,1910,379,0,0
693,645,0,0,0,0,0,0,0,0,0,-1,1917,379,0,0
700,645,0,0,0,0,0,0,0,0,0,-1,1924,379,0,0
707,645,0,0,0,0,0,0,0,0,0,-1,1931,379,0,0
714,645,0,0,0,0,0,0,0,0,0,-1,1938,379,0,0
721,645,0,0,0,0,0,0,0,0,0,-1,1945,379,0,0
728,645,0,0,0,0,0,0,0,0,0,-1,1952,379,0,0
735,645,0,0,0,0,0,0,0,0,0,-1,1959,379,0,0
742,645,0,0,0,0,0,0,0,0,0,-1,1966,379,0,0
749,645,0,0,0,0,0,0,0,0,0,-1,1973,379,0,0
756,645,0,0,0,0,0,0,0,0,0,-1,1980,379,0,0
763,645,0,0,0,0,0,0,0,0,0,-1,1987,379,0,0
770,645,0,0,0,0,0,0,0,0,0,-1,1994,379,0,0
777,645,0,0,0,0,0,0,0,0,0,-1,2001,379,0,0
784,645,0,0,0,0,0,0,0,0,0,-1,2008,379,0,0
791,645,0,0,0,0,0,0,0,0,0,-1,2015,379,0,0
798,645,0,0,0,0,0,0,0,0,0,-1,2022,379,0,0
805,645,0,0,0,0,0,0,0,0,0,-1,2029,379,0,0
812,645,0,0,0,0,0,0,0,0,0,-1,2036,379,0,0
-700,638,0,0,0,0,0,0,0,0,0,-1,524,386,0,0
-693,638,0,0,0,0,0,0,0,0,0,-1,531,386,0,0
-686,638,0,0,0,0,0,0,0,0,0,-1,538,386,0,0
-679,638,0,0,0,0,0,0,0,0,0,-1,545,386,0,0
-672,638,0,0,0,0,0,0,0,0,0,-1,552,386,0,0
-665,638,0,0,0,0,0,0,0,0,0,-1,559,386,0,0
-658,638,0,0,0,0,0,0,0,0,0,-1,566,386,0,0
-651,638,0,0,0,0,0,0,0,0,0,-1,573,386,0,0
-644,638,0,0,0,0,0,0,0,0,0,-1,580,386,0,0
-637,638,0,0,0,0,0,0,0,0,0,-1,587,386,0,0
-630,638,0,0,0,0,0,0,0,0,0,-1,594,386,0,0
-623,638,0,0,0,0,0,0,0,0,0,-1,601,386,0,0
-616,638,0,0,0,0,0,0,0,0,0,-1,608,386,0,0
-609,638,0,0,0,0,0,0,0,0,0,-1,615,386,0,0
-602,638,0,0,0,0,0,0,0,0,0,-1,622,386,0,0
-595,638,0,0,0,0,0,0,0,0,0,-1,629,386,0,0
-588,638,0,0,0,0,0,0,0,0,0,-1,636,386,0,0
-581,638,0,0,0,0,0,0,0,0,0,-1,643,386,0,0
-574,638,0,0,0,0,0,0,0,0,0,-1,650,386,0,0
-567,638,0,0,0,0,0,0,0,0,0,-1,657,386,0,0
-560,638,0,0,0,0,0,0,0,0,0,-1,664,386,0,0
-553,638,0,0,0,0,0,0,0,0,0,-1,671,386,0,0
-546,638,0,0,0,0,0,0,0,0,0,-1,678,386,0,0
-539,638,0,0,0,0,0,0,0,0,0,-1,685,386,0,0
-532,638,0,0,0,0,0,0,0,0,0,-1,692,386,0,0
-525,638,0,0,0,0,0,0,0,0,0,-1,699,386,0,0
-518,638,0,0,0,0,0,0,0,0,0,-1,706,386,0,0
-511,638,0,0,0,0,0,0,0,0,0,-1,713,386,0,0
-504,638,0,0,0,0,0,0,0,0,0,-1,720,386,0,0
-497,638,0,0,0,0,0,0,0,0,0,-1,727,386,0,0
-490,638,0,0,0,0,0,0,0,0,0,-1,734,386,0,0
-483,638,0,0,0,0,0,0,0,0,0,-1,741,386,0,0
-476,638,0,0,0,0,0,0,0,0,0,-1,748,386,0,0
-469,638,0,0,0,0,0,0,0,0,0,-1,755,386,0,0
-462,638,0,0,0,0,0,0,0,0,0,-1,762,386,0,0
-455,638,0,0,0,0,0,0,0,0,0,-1,769,386,0,0
-448,638,0,0,0,0,0,0,0,0,0,-1,776,386,0,0
-441,638,0,0,0,0,0,0,0,0,0,-1,783,386,0,0
-434,638,0,0,0,0,0,0,0,0,0,-1,790,386,0,0
-427,638,0,0,0,0,0,0,0,0,0,-1,797,386,0,0
-420,638,0,0,0,0,0,0,0,0,0,-1,804,386,0,0
-413,638,0,0,0,0,0,0,0,0,0,-1,811,386,0,0
-406,638,0,0,0,0,0,0,0,0,0,-1,818,386,0,0
-399,638,0,0,0,0,0,0,0,0,0,-1,825,386,0,0
-392,638,0,0,0,0,0,0,0,0,0,-1,832,386,0,0
-385,638,0,0,0,0,0,0,0,0,0,-1,839,386,0,0
-378,638,0,0,0,0,0,0,0,0,0,-1,846,386,0,0
-371,638,0,0,0,0,0,0,0,0,0,-1,853,386,0,0
-364,638,0,0,0,0,0,0,0,0,0,-1,860,386,0,0
-357,638,0,0,0,0,0,0,0,0,0,-1,867,386,0,0
-350,638,0,0,0,0,0,0,0,0,0,-1,874,386,0,0
-343,638,0,0,0,0,0,0,0,0,0,-1,881,386,0,0
-336,638,0,0,0,0,0,0,0,0,0,-1,888,386,0,0
-329,638,0,0,0,0,0,0,0,0,0,-1,895,386,0,0
-322,638,0,0,0,0,0,0,0,0,0,-1,902,386,0,0
-315,638,0,0,0,0,0,0,0,0,0,-1,909,386,0,0
-308,638,0,0,0,0,0,0,0,0,0,-1,916,386,0,0
-301,638,0,0,0,0,0,0,0,0,0,-1,923,386,0,0
-294,638,0,0,0,0,0,0,0,0,0,-1,930,386,0,0
-287,638,0,0,0,0,0,0,0,0,0,-1,937,386,0,0
-280,638,0,0,0,0,0,0,0,0,0,-1,944,386,0,0
-273,638,0,0,0,0,0,0,0,0,0,-1,951,386,0,0
-266,638,10.1613,-36.3326,0,0,0,0,0,0,0,-1,958,386,10.1612,36.3326
-259,638,9.95282,-34.6103,0,0,0,0,0,0,0,-1,965,386,9.9528,34.6103
-252,638,9.95746,-33.6964,0,0,0,0,0,0,0,-1,972,386,9.95744,33.6965
-245,638,9.84143,-32.9009,0,0,0,0,0,0,0,-1,979,386,9.84145,32.9009
-238,638,2.93518,-26.3649,0,0,0,0,0,0,0,-1,986,386,2.93516,26.3649
-231,638,2.36829,-26.0088,0,0,0,0,0,0,0,-1,993,386,2.3683,26.0088
-224,638,6.3465,-30.9124,0,0,0,0,0,0,0,-1,1000,386,6.34648,30.9124
-217,638,7.41205,-32.7263,0,0,0,0,0,0,0,-1,1007,386,7.41204,32.7262
-210,638,8.7038,-34.5688,0,0,0,0,0,0,0,-1,1014,386,8.70378,34.5689
-203,638,4.32593,-27.5803,0,0,0,0,0,0,0,-1,1021,386,4.32594,27.5803
-196,638,6.0614,-28.4651,0,0,0,0,0,0,0,-1,1028,386,6.06143,28.4651
-189,638,11.4561,-30.1556,0,0,0,0,0,0,0,-1,1035,386,11.456,30.1556
-182,638,6.45471,-33.4271,0,0,0,0,0,0,0,-1,1042,386,6.45473,33.427
-175,638,8.39648,-48.7238,0,0,0,0,0,0,0,-1,1049,386,8.39643,48.7238
-168,638,10.3712,-61.8581,0,0,0,0,0,0,0,-1,1056,386,10.3712,61.8581
-161,638,11.0891,-91.2155,0,0,0,0,0,0,0,-1,1063,386,11.0892,91.2155
-154,638,10.7274,-91.6196,0,0,0,0,0,0,0,-1,1070,386,10.7275,91.6196
-147,638,10.2598,-87.4278,0,0,0,0,0,0,0,-1,1077,386,10.2598,87.4278
-140,638,9.45752,-169.816,0,0,0,0,0,0,0,-1,1084,386,9.45758,169.816
-133,638,9.02673,-173.085,0,0,0,0,0,0,0,-1,1091,386,9.02671,173.085
-126,638,8.62756,-175.185,0,0,0,0,0,0,0,-1,1098,386,8.62755,175.185
-119,638,8.21008,-177.135,0,0,0,0,0,0,0,-1,1105,386,8.21003,177.135
-112,638,7.90613,-178.804,-0.0177887,0.0160231,-0.00892353,0.0182336,-0.0199993,-1.32796,0.0220816,0.0385077,1112,386,7.90609,178.804
-105,638,7.53406,-180.471,-0.0165893,0.0156233,-0.00806371,0.0175291,-0.0184952,-1.33871,0.0208011,0.0249923,1119,386,7.53404,180.471
-98,638,7.25256,-182.125,-0.0152958,0.0147887,-0.00712253,0.0163897,-0.0168968,-1.34968,0.0192188,0.0213206,1126,386,7.25255,182.125
-91,638,6.93372,-183.766,-0.0137619,0.0141774,-0.00616889,0.0154788,-0.0150633,-1.36288,0.0176341,0.0160952,1133,386,6.93368,183.766
-84,638,6.70667,-185.377,-0.0121076,0.0138621,-0.00534886,0.0149207,-0.0131661,-1.37542,0.0162265,0.0176355,1140,386,6.70661,185.377
-77,638,6.42175,-186.822,-0.0106696,0.0139372,-0.00473277,0.0148161,-0.0115485,-1.38718,0.0152605,0.0183099,1147,386,6.42173,186.822
-70,638,6.21851,-188.083,-0.00944568,0.0138215,-0.00423272,0.0145676,-0.0101918,-1.39632,0.014369,0.0237093,1154,386,6.21854,188.083
-63,638,6.12976,-189.483,-0.00819811,0.0134672,-0.00375644,0.0141,-0.00883094,-1.4039,0.0133552,0.0231245,1161,386,6.12981,189.483
-56,638,5.95813,-190.841,-0.00688941,0.0129602,-0.00327688,0.0134872,-0.00741639,-1.41135,0.0122371,0.0210263,1168,386,5.95816,190.841
-49,638,5.68713,-192.078,-0.00577738,0.0127482,-0.00265058,0.0131199,-0.00614916,-1.43144,0.0113651,0.0164234,1175,386,5.68717,192.078
-42,638,5.54211,-193.218,-0.00469473,0.0128342,-0.00213008,0.0130893,-0.00494986,-1.45159,0.0107625,0.0162303,1182,386,5.54216,193.218
-35,638,5.44177,-194.309,-0.00360493,0.0134232,-0.00171119,0.0135934,-0.00377519,-1.47163,0.0105483,0.0149483,1189,386,5.44173,194.309
-28,638,5.35535,-195.361,-0.00245825,0.0140348,-0.00146841,0.0141645,-0.00258796,-1.48269,0.0104134,0.013864,1196,386,5.3553,195.361
-21,638,5.26758,-196.399,-0.00137173,0.0145091,-0.00118837,0.0145976,-0.00146017,-1.49652,0.0102531,0.0167159,1203,386,5.26757,196.399
-14,638,5.15454,-197.462,-0.000409811,0.0153231,-0.000880379,0.0153722,-0.000458921,-1.51507,0.0104045,0.0161562,1210,386,5.1546,197.462
-7,638,5.19397,-198.261,0.000730252,0.0160971,-0.000538944,0.0161159,0.000711374,-1.53578,0.0105149,0.0232248,1217,386,5.19393,198.261
0,638,5.22864,-198.826,0.00195506,0.0166406,-0.000253172,0.016645,0.0019507,-1.55356,0.0105069,0.0469672,1224,386,5.22865,198.826
7,638,5.14722,-199.448,0.0028698,0.0170487,-0.000133193,0.01705,0.00286855,-1.5614,0.0105414,0.0337477,1231,386,5.14728,199.448
14,638,5.09253,-200.059,0.00352853,0.0170638,-9.0079e-05,0.0170644,0.00352793,-1.56414,0.0104017,0.0194416,1238,386,5.09253,200.059
21,638,5.08533,-200.65,0.00415358,0.0167583,-6.45418e-05,0.0167586,0.00415325,-1.56568,0.0100774,0.0179353,1245,386,5.0853,200.65
28,638,5.13818,-201.084,0.00487274,0.0160838,-7.44052e-05,0.0160843,0.00487225,-1.56416,0.00952367,0.0135412,1252,386,5.13815,201.084
35,638,5.16284,-201.404,0.00544765,0.015323,-9.64968e-05,0.0153239,0.00544671,-1.56103,0.00896968,0.0160069,1259,386,5.16289,201.404
42,638,5.19861,-201.76,0.00576531,0.0146752,-3.84058e-06,0.0146752,0.00576531,-1.57037,0.0085373,0.015148,1266,386,5.19856,201.76
49,638,5.29651,-201.993,0.00601875,0.013967,2.72604e-05,0.0139671,0.00601865,1.56737,0.00808952,0.0131164,1273,386,5.29645,201.993
56,638,5.34167,-202.13,0.00622172,0.0130687,-5.58088e-05,0.0130692,0.00622127,-1.56265,0.00754838,0.0168827,1280,386,5.34167,202.13
63,638,5.35999,-202.254,0.00620078,0.0121551,-5.25213e-05,0.0121556,0.00620032,-1.56198,0.00701851,0.0178953,1287,386,5.36003,202.254
70,638,5.35205,-202.234,0.00600273,0.011399,0.000145355,0.0114029,0.00599881,1.54389,0.00658647,0.0217876,1294,386,5.35207,202.234
77,638,5.40723,-202.096,0.0057446,0.0112448,0.000439383,0.0112797,0.00570972,1.49158,0.00651251,0.0218829,1301,386,5.40719,202.096
84,638,5.49268,-201.93,0.00553037,0.0117258,0.000571875,0.0117781,0.00547802,1.47952,0.00680561,0.0168869,1308,386,5.49269,201.93
91,638,5.50867,-201.737,0.00518454,0.0122191,0.000691158,0.0122864,0.00511728,1.47378,0.00712643,0.0191677,1315,386,5.50872,201.737
98,638,5.52234,-201.419,0.00465787,0.0127894,0.000964081,0.0129022,0.00454513,1.45439,0.00755666,0.0165373,1322,386,5.52233,201.419
105,638,5.54419,-201.05,0.00416975,0.013482,0.00124698,0.0136461,0.00400567,1.43996,0.00809934,0.0129814,1329,386,5.54421,201.05
112,638,5.53271,-200.556,0.00383647,0.0142019,0.00156676,0.0144336,0.00360483,1.42401,0.00867415,0.0126683,1336,386,5.53266,200.556
119,638,5.5498,-199.961,0.00348642,0.0150267,0.00193349,0.015342,0.0031711,1.40913,0.00935195,0.0157068,1343,386,5.54977,199.961
126,638,5.53796,-199.33,0.0027945,0.0158088,0.0022967,0.0162022,0.00240109,1.40115,0.0100967,0.0191622,1350,386,5.53791,199.33
133,638,5.50391,-198.724,0.00191135,0.0166387,0.00277495,0.0171442,0.00140584,1.3906,0.0109909,0.0194797,1357,386,5.50395,198.724
140,638,5.48596,-198.015,0.00105207,0.0173851,0.00329882,0.0180262,0.00041097,1.37885,0.0118829,0.019774,1364,386,5.48602,198.015
147,638,5.42651,-197.061,0.000235829,0.0178923,0.00369689,0.0186351,-0.000506972,1.37251,0.0125958,0.021325,1371,386,5.42655,197.061
154,638,5.37463,-196.032,-0.000707532,0.01859,0.00419103,0.0194609,-0.00157843,1.36591,0.0135308,0.0201636,1378,386,5.37469,196.032
161,638,5.26086,-195.076,-0.00196506,0.0193302,0.00474827,0.020341,-0.00297582,1.36106,0.0146537,0.0235405,1385,386,5.26089,195.076
168,638,5.19202,-193.971,-0.00336549,0.0200181,0.00534112,0.0211803,-0.00452771,1.35654,0.0158466,0.0300462,1392,386,5.19201,193.971
175,638,5.10583,-192.866,-0.00486641,0.0206536,0.00589635,0.0219501,-0.00616288,1.35436,0.0170628,0.0285471,1399,386,5.10582,192.866
182,638,4.85034,-191.675,-0.00638323,0.0211844,0.00637565,0.0225875,-0.00778633,1.35418,0.0182172,0.020569,1406,386,4.85029,191.675
189,638,4.7301,-190.253,-0.00769971,0.0214535,0.00694978,0.0230255,-0.0092717,1.34835,0.0192021,0.0179504,1413,386,4.73014,190.253
196,638,4.55505,-188.945,-0.00894322,0.022139,0.00769314,0.0239389,-0.0107431,1.34097,0.0205011,0.0211135,1420,386,4.555,188.945
203,638,4.3269,-187.632,0,0,0,0,0,0,0,-1,1427,386,4.32695,187.632
210,638,4.10901,-186.158,-0.0108649,0.0229211,0.00912681,0.025229,-0.0131727,1.32312,0.0225325,0.0403963,1434,386,4.10905,186.158
217,638,3.84045,-184.601,-0.0117056,0.0229352,0.0098126,0.0255217,-0.0142921,1.31307,0.0232893,0.0271973,1441,386,3.84041,184.601
224,638,3.59485,-182.949,-0.0127849,0.0227279,0.0105185,0.0256096,-0.0156666,1.3034,0.0240602,0.0146757,1448,386,3.59488,182.949
231,638,3.22485,-181.249,-0.0133476,0.0234355,0.0114386,0.0267024,-0.0166145,1.2926,0.0252341,0.0147073,1455,386,3.22482,181.249
238,638,2.89978,-179.536,-0.0138366,0.0242376,0.0122102,0.0278169,-0.0174158,1.28565,0.0263442,0.021075,1462,386,2.89983,179.536
245,638,2.61255,-177.659,-0.01471,0.0250912,0.0128067,0.0288559,-0.0184747,1.28489,0.0275446,0.0455634,1469,386,2.61255,177.659
252,638,2.35156,-175.708,0,0,0,0,0,0,0,-1,1476,386,2.35155,175.708
259,638,1.81494,-174.135,0,0,0,0,0,0,0,-1,1483,386,1.81496,174.135
266,638,1.44446,-172.205,0,0,0,0,0,0,0,-1,1490,386,1.44447,172.205
273,638,1.11182,-170.159,0,0,0,0,0,0,0,-1,1497,386,1.11181,170.159
280,638,6.75476,-82.5267,0,0,0,0,0,0,0,-1,1504,386,6.7548,82.5267
287,638,6.52307,-79.9485,0,0,0,0,0,0,0,-1,1511,386,6.5231,79.9485
294,638,6.37231,-79.665,0,0,0,0,0,0,0,-1,1518,386,6.37237,79.665
301,638,5.67981,-80.2637,0,0,0,0,0,0,0,-1,1525,386,5.67976,80.2637
308,638,7.54175,-66.9734,0,0,0,0,0,0,0,-1,1532,386,7.54171,66.9734
315,638,3.3927,-28.2032,0,0,0,0,0,0,0,-1,1539,386,3.39269,28.2032
322,638,6.1698,-44.6835,0,0,0,0,0,0,0,-1,1546,386,6.16984,44.6835
329,638,6.06885,-44.2856,0,0,0,0,0,0,0,-1,1553,386,6.06881,44.2855
336,638,5.15234,-38.1966,0,0,0,0,0,0,0,-1,1560,386,5.15238,38.1966
343,638,4.8208,-37.2159,0,0,0,0,0,0,0,-1,1567,386,4.82078,37.2159
350,638,4.35254,-37.1565,0,0,0,0,0,0,0,-1,1574,386,4.35259,37.1565
357,638,0.387329,-3.01077,0,0,0,0,0,0,0,-1,1581,386,0.387332,3.01077
364,638,3.78149,-6.45215,0,0,0,0,0,0,0,-1,1588,386,3.78155,6.45216
371,638,4.18604,-6.71164,0,0,0,0,0,0,0,-1,1595,386,4.18598,6.71164
378,638,4.59045,-6.97113,0,0,0,0,0,0,0,-1,1602,386,4.5904,6.97112
385,638,0,0,0,0,0,0,0,0,0,-1,1609,386,0,0
392,638,0,0,0,0,0,0,0,0,0,-1,1616,386,0,0
399,638,0,0,0,0,0,0,0,0,0,-1,1623,386,0,0
406,638,0,0,0,0,0,0,0,0,0,-1,1630,386,0,0
413,638,0,0,0,0,0,0,0,0,0,-1,1637,386,0,0
420,638,0,0,0,0,0,0,0,0,0,-1,1644,386,0,0
427,638,0,0,0,0,0,0,0,0,0,-1,1651,386,0,0
434,638,0,0,0,0,0,0,0,0,0,-1,1658,386,0,0
441,638,0,0,0,0,0,0,0,0,0,-1,1665,386,0,0
448,638,0,0,0,0,0,0,0,0,0,-1,1672,386,0,0
455,638,0,0,0,0,0,0,0,0,0,-1,1679,386,0,0
462,638,0,0,0,0,0,0,0,0,0,-1,1686,386,0,0
469,638,0,0,0,0,0,0,0,0,0,-1,1693,386,0,0
476,638,0,0,0,0,0,0,0,0,0,-1,1700,386,0,0
483,638,0,0,0,0,0,0,0,0,0,-1,1707,386,0,0
490,638,0,0,0,0,0,0,0,0,0,-1,1714,386,0,0
497,638,0,0,0,0,0,0,0,0,0,-1,1721,386,0,0
504,638,0,0,0,0,0,0,0,0,0,-1,1728,386,0,0
511,638,0,0,0,0,0,0,0,0,0,-1,1735,386,0,0
518,638,0,0,0,0,0,0,0,0,0,-1,1742,386,0,0
525,638,0,0,0,0,0,0,0,0,0,-1,1749,386,0,0
532,638,0,0,0,0,0,0,0,0,0,-1,1756,386,0,0
539,638,0,0,0,0,0,0,0,0,0,-1,1763,386,0,0
546,638,0,0,0,0,0,0,0,0,0,-1,1770,386,0,0
553,638,0,0,0,0,0,0,0,0,0,-1,1777,386,0,0
560,638,0,0,0,0,0,0,0,0,0,-1,1784,386,0,0
567,638,0,0,0,0,0,0,0,0,0,-1,1791,386,0,0
574,638,0,0,0,0,0,0,0,0,0,-1,1798,386,0,0
581,638,0,0,0,0,0,0,0,0,0,-1,1805,386,0,0
588,638,0,0,0,0,0,0,0,0,0,-1,1812,386,0,0
595,638,0,0,0,0,0,0,0,0,0,-1,1819,386,0,0
602,638,0,0,0,0,0,0,0,0,0,-1,1826,386,0,0
609,638,0,0,0,0,0,0,0,0,0,-1,1833,386,0,0
616,638,0,0,0,0,0,0,0,0,0,-1,1840,386,0,0
623,638,0,0,0,0,0,0,0,0,0,-1,1847,386,0,0
630,638,0,0,0,0,0,0,0,0,0,-1,1854,386,0,0
637,638,0,0,0,0,0,0,0,0,0,-1,1861,386,0,0
644,638,0,0,0,0,0,0,0,0,0,-1,1868,386,0,0
651,638,0,0,0,0,0,0,0,0,0,-1,1875,386,0,0
658,638,0,0,0,0,0,0,0,0,0,-1,1882,386,0,0
665,638,0,0,0,0,0,0,0,0,0,-1,1889,386,0,0
672,638,0,0,0,0,0,0,0,0,0,-1,1896,386,0,0
679,638,0,0,0,0,0,0,0,0,0,-1,1903,386,0,0
686,638,0,0,0,0,0,0,0,0,0,-1,1910,386,0,0
693,638,0,0,0,0,0,0,0,0,0,-1,1917,386,0,0
700,638,0,0,0,0,0,0,0,0,0,-1,1924,386,0,0
707,638,0,0,0,0,0,0,0,0,0,-1,1931,386,0,0
714,638,0,0,0,0,0,0,0,0,0,-1,1938,386,0,0
721,638,0,0,0,0,0,0,0,0,0,-1,1945,386,0,0
728,638,0,0,0,0,0,0,0,0,0,-1,1952,386,0,0
735,638,0,0,0,0,0,0,0,0,0,-1,1959,386,0,0
742,638,0,0,0,0,0,0,0,0,0,-1,1966,386,0,0
749,638,0,0,0,0,0,0,0,0,0,-1,1973,386,0,0
756,638,0,0,0,0,0,0,0,0,0,-1,1980,386,0,0
763,638,0,0,0,0,0,0,0,0,0,-1,1987,386,0,0
770,638,0,0,0,0,0,0,0,0,0,-1,1994,386,0,0
777,638,0,0,0,0,0,0,0,0,0,-1,2001,386,0,0
784,638,0,0,0,0,0,0,0,0,0,-1,2008,386,0,0
791,638,0,0,0,0,0,0,0,0,0,-1,2015,386,0,0
798,638,0,0,0,0,0,0,0,0,0,-1,2022,386,0,0
805,638,0,0,0,0,0,0,0,0,0,-1,2029,386,0,0
812,638,0,0,0,0,0,0,0,0,0,-1,2036,386,0,0
-700,631,0,0,0,0,0,0,0,0,0,-1,524,393,0,0
-693,631,0,0,0,0,0,0,0,0,0,-1,531,393,0,0
-686,631,0,0,0,0,0,0,0,0,0,-1,538,393,0,0
-679,631,0,0,0,0,0,0,0,0,0,-1,545,393,0,0
-672,631,0,0,0,0,0,0,0,0,0,-1,552,393,0,0
-665,631,0,0,0,0,0,0,0,0,0,-1,559,393,0,0
-658,631,0,0,0,0,0,0,0,0,0,-1,566,393,0,0
-651,631,0,0,0,0,0,0,0,0,0,-1,573,393,0,0
-644,631,0,0,0,0,0,0,0,0,0,-1,580,393,0,0
-637,631,0,0,0,0,0,0,0,0,0,-1,587,393,0,0
-630,631,0,0,0,0,0,0,0,0,0,-1,594,393,0,0
-623,631,0,0,0,0,0,0,0,0,0,-1,601,393,0,0
-616,631,0,0,0,0,0,0,0,0,0,-1,608,393,0,0
-609,631,0,0,0,0,0,0,0,0,0,-1,615,393,0,0
-602,631,0,0,0,0,0,0,0,0,0,-1,622,393,0,0
-595,631,0,0,0,0,0,0,0,0,0,-1,629,393,0,0
-588,631,0,0,0,0,0,0,0,0,0,-1,636,393,0,0
-581,631,0,0,0,0,0,0,0,0,0,-1,643,393,0,0
-574,631,0,0,0,0,0,0,0,0,0,-1,650,393,0,0
-567,631,0,0,0,0,0,0,0,0,0,-1,657,393,0,0
-560,631,0,0,0,0,0,0,0,0,0,-1,664,393,0,0
-553,631,0,0,0,0,0,0,0,0,0,-1,671,393,0,0
-546,631,0,0,0,0,0,0,0,0,0,-1,678,393,0,0
-539,631,0,0,0,0,0,0,0,0,0,-1,685,393,0,0
-532,631,0,0,0,0,0,0,0,0,0,-1,692,393,0,0
-525,631,0,0,0,0,0,0,0,0,0,-1,699,393,0,0
-518,631,0,0,0,0,0,0,0,0,0,-1,706,393,0,0
-511,631,0,0,0,0,0,0,0,0,0,-1,713,393,0,0
-504,631,0,0,0,0,0,0,0,0,0,-1,720,393,0,0
-497,631,0,0,0,0,0,0,0,0,0,-1,727,393,0,0
-490,631,0,0,0,0,0,0,0,0,0,-1,734,393,0,0
-483,631,0,0,0,0,0,0,0,0,0,-1,741,393,0,0
-476,631,0,0,0,0,0,0,0,0,0,-1,748,393,0,0
-469,631,0,0,0,0,0,0,0,0,0,-1,755,393,0,0
-462,631,0,0,0,0,0,0,0,0,0,-1,762,393,0,0
-455,631,0,0,0,0,0,0,0,0,0,-1,769,393,0,0
-448,631,0,0,0,0,0,0,0,0,0,-1,776,393,0,0
-441,631,0,0,0,0,0,0,0,0,0,-1,783,393,0,0
-434,631,0,0,0,0,0,0,0,0,0,-1,790,393,0,0
-427,631,0,0,0,0,0,0,0,0,0,-1,797,393,0,0
-420,631,0,0,0,0,0,0,0,0,0,-1,804,393,0,0
-413,631,0,0,0,0,0,0,0,0,0,-1,811,393,0,0
-406,631,0,0,0,0,0,0,0,0,0,-1,818,393,0,0
-399,631,0,0,0,0,0,0,0,0,0,-1,825,393,0,0
-392,631,0,0,0,0,0,0,0,0,0,-1,832,393,0,0
-385,631,0,0,0,0,0,0,0,0,0,-1,839,393,0,0
-378,631,0,0,0,0,0,0,0,0,0,-1,846,393,0,0
-371,631,0,0,0,0,0,0,0,0,0,-1,853,393,0,0
-364,631,0,0,0,0,0,0,0,0,0,-1,860,393,0,0
-357,631,0,0,0,0,0,0,0,0,0,-1,867,393,0,0
-350,631,0,0,0,0,0,0,0,0,0,-1,874,393,0,0
-343,631,0,0,0,0,0,0,0,0,0,-1,881,393,0,0
-336,631,0,0,0,0,0,0,0,0,0,-1,888,393,0,0
-329,631,0,0,0,0,0,0,0,0,0,-1,895,393,0,0
-322,631,0,0,0,0,0,0,0,0,0,-1,902,393,0,0
-315,631,0,0,0,0,0,0,0,0,0,-1,909,393,0,0
-308,631,0,0,0,0,0,0,0,0,0,-1,916,393,0,0
-301,631,0,0,0,0,0,0,0,0,0,-1,923,393,0,0
-294,631,0,0,0,0,0,0,0,0,0,-1,930,393,0,0
-287,631,0,0,0,0,0,0,0,0,0,-1,937,393,0,0
-280,631,7.71283,-34.969,0,0,0,0,0,0,0,-1,944,393,7.71282,34.969
-273,631,8.04437,-34.934,0,0,0,0,0,0,0,-1,951,393,8.04436,34.9339
-266,631,8.40277,-34.7584,0,0,0,0,0,0,0,-1,958,393,8.40275,34.7584
-259,631,8.56659,-34.037,0,0,0,0,0,0,0,-1,965,393,8.56662,34.037
-252,631,8.44446,-33.2643,0,0,0,0,0,0,0,-1,972,393,8.44445,33.2644
-245,631,8.34705,-32.527,0,0,0,0,0,0,0,-1,979,393,8.34704,32.527
-238,631,8.41888,-31.8855,0,0,0,0,0,0,0,-1,986,393,8.41887,31.8855
-231,631,2.14966,-25.2306,0,0,0,0,0,0,0,-1,993,393,2.14968,25.2306
-224,631,6.83575,-19.7909,0,0,0,0,0,0,0,-1,1000,393,6.83575,19.7909
-217,631,5.05188,-18.3867,0,0,0,0,0,0,0,-1,1007,393,5.0519,18.3866
-210,631,3.37842,-26.3769,0,0,0,0,0,0,0,-1,1014,393,3.37839,26.3769
-203,631,8.59509,-47.1953,0,0,0,0,0,0,0,-1,1021,393,8.5951,47.1954
-196,631,8.51001,-47.9163,0,0,0,0,0,0,0,-1,1028,393,8.50997,47.9163
-189,631,6.57983,-42.4494,0,0,0,0,0,0,0,-1,1035,393,6.57983,42.4494
-182,631,8.0531,-47.8031,0,0,0,0,0,0,0,-1,1042,393,8.05311,47.8031
-175,631,9.61975,-74.9516,0,0,0,0,0,0,0,-1,1049,393,9.61973,74.9516
-168,631,10.1567,-101.718,0,0,0,0,0,0,0,-1,1056,393,10.1567,101.718
-161,631,8.71558,-165.078,0,0,0,0,0,0,0,-1,1063,393,8.71557,165.078
-154,631,8.38452,-167.286,0,0,0,0,0,0,0,-1,1070,393,8.38447,167.286
-147,631,7.98035,-169.306,0,0,0,0,0,0,0,-1,1077,393,7.98036,169.306
-140,631,7.59888,-171.13,0,0,0,0,0,0,0,-1,1084,393,7.59884,171.13
-133,631,7.20117,-173.176,-0.0146031,0.0143105,-0.00959145,0.0172029,-0.0174955,-1.27791,0.0200334,0.0230617,1091,393,7.20117,173.176
-126,631,6.8241,-175.112,-0.0134772,0.0134983,-0.00849666,0.0159514,-0.0159304,-1.28972,0.018407,0.0166835,1098,393,6.82413,175.112
-119,631,6.51416,-176.941,-0.0120144,0.0123962,-0.00748022,0.0145061,-0.0141243,-1.29588,0.0165302,0.0196249,1105,393,6.51415,176.941
-112,631,6.18738,-178.679,-0.0104737,0.0115297,-0.00661751,0.0133665,-0.0123105,-1.30004,0.0148288,0.0187034,1112,393,6.18739,178.679
-105,631,5.84827,-180.413,-0.00911036,0.0109536,-0.00581463,0.0125169,-0.0106737,-1.30815,0.0134032,0.0246734,1119,393,5.84825,180.413
-98,631,5.62329,-182.097,-0.00763026,0.0101175,-0.0049959,0.0114272,-0.00893994,-1.31442,0.0117881,0.0209503,1126,393,5.62325,182.097
-91,631,5.4679,-183.683,-0.00596585,0.00944601,-0.00415998,0.0104972,-0.00701702,-1.32329,0.0101782,0.0219791,1133,393,5.46786,183.683
-84,631,5.23706,-185.312,-0.00425511,0.00891972,-0.00341924,0.00975425,-0.00508963,-1.33141,0.00871002,0.0215683,1140,393,5.23702,185.312
-77,631,4.95093,-186.774,-0.00272596,0.00853304,-0.00282912,0.00920395,-0.00339688,-1.33795,0.0075282,0.0205464,1147,393,4.95087,186.774
-70,631,4.85657,-188.024,-0.00130948,0.00797347,-0.00233672,0.00852849,-0.00186449,-1.3376,0.00639836,0.0264311,1154,393,4.85656,188.024
-63,631,4.79382,-189.445,0.000141936,0.00716403,-0.00188791,0.00763942,-0.000333452,-1.32412,0.00520766,0.0222057,1161,393,4.79383,189.445
-56,631,4.62231,-190.866,0.00161531,0.00622855,-0.00144613,0.00664439,0.00119947,-1.2908,0.00408884,0.0197264,1168,393,4.62233,190.866
-49,631,4.50879,-192.08,0.00297291,0.00541915,-0.000929206,0.00573208,0.00265998,-1.24596,0.00331227,0.0154312,1175,393,4.50878,192.08
-42,631,4.46448,-193.22,0.00426328,0.00479057,-0.000496855,0.0050894,0.00396445,-1.02932,0.00308705,0.011835,1182,393,4.46445,193.22
-35,631,4.40759,-194.308,0.00552635,0.00452818,-0.000132998,0.00554376,0.00451076,-0.130216,0.00340416,0.0137664,1189,393,4.40754,194.308
-28,631,4.37585,-195.37,0.006859,0.0043655,9.41686e-05,0.00686255,0.00436195,0.0376941,0.00401038,0.0176322,1196,393,4.37586,195.37
-21,631,4.30847,-196.395,0.00810252,0.00421289,0.000326519,0.00812974,0.00418567,0.0831704,0.0046944,0.01604,1203,393,4.30845,196.395
-14,631,4.24341,-197.357,0.00921092,0.00447905,0.000573856,0.00927951,0.00441045,0.118977,0.00535971,0.0186843,1210,393,4.24337,197.357
-7,631,4.32129,-198.21,0.0105242,0.0047652,0.000841229,0.0106446,0.00464484,0.142117,0.00616222,0.0310187,1217,393,4.32125,198.21
0,631,4.33167,-198.846,0.0118951,0.00497863,0.00106725,0.012056,0.00481769,0.14967,0.00700715,0.0404774,1224,393,4.33161,198.846
7,631,4.36133,-199.551,0.0128974,0.00509436,0.00113413,0.0130589,0.00493286,0.141446,0.00761434,0.0318947,1231,393,4.36132,199.551
14,631,4.53894,-200.145,0.0136448,0.00505261,0.00111109,0.0137862,0.00491126,0.126541,0.00806835,0.0164686,1238,393,4.5389,200.145
21,631,4.56287,-200.646,0.0144902,0.00488922,0.0010446,0.0146025,0.00477688,0.107131,0.00859712,0.0212521,1245,393,4.56287,200.646
28,631,4.68701,-201.046,0.0154003,0.00466959,0.000924586,0.0154794,0.00459051,0.0853247,0.0091803,0.0227111,1252,393,4.68697,201.046
35,631,4.83447,-201.38,0.0160606,0.00451418,0.000811405,0.0161174,0.00445744,0.069816,0.00961008,0.0208466,1259,393,4.83453,201.38
42,631,4.9845,-201.738,0.0165797,0.00456677,0.000828213,0.0166365,0.00450994,0.0685116,0.00993497,0.0216202,1266,393,4.98456,201.738
49,631,5.09863,-201.985,0.0171302,0.00455861,0.000711343,0.0171703,0.00451848,0.0563438,0.0102773,0.0196965,1273,393,5.09858,201.985
56,631,5.25867,-202.212,0.017565,0.00431302,0.00042594,0.0175787,0.00429934,0.0320975,0.0105813,0.0219721,1280,393,5.25863,202.212
63,631,5.27124,-202.315,0.0176934,0.00391124,0.00017489,0.0176956,0.00390902,0.0126869,0.010734,0.0211209,1287,393,5.27121,202.315
70,631,5.31433,-202.299,0.0175414,0.0036036,3.9515e-05,0.0175415,0.00360349,0.00283507,0.0106974,0.0203996,1294,393,5.3143,202.299
77,631,5.48132,-202.132,0.0173269,0.00355061,-6.36693e-05,0.0173272,0.00355032,-0.00462152,0.0105687,0.0190557,1301,393,5.48129,202.132
84,631,5.68604,-201.949,0.0171671,0.00377476,-0.000195577,0.0171699,0.0037719,-0.0145995,0.0104194,0.0151455,1308,393,5.68608,201.949
91,631,5.77612,-201.705,0.0167691,0.00400336,-0.00034494,0.0167785,0.00399404,-0.0269944,0.0101205,0.0193441,1315,393,5.77613,201.705
98,631,5.90283,-201.39,0.0161107,0.00443745,-0.000339512,0.0161206,0.00442758,-0.0290518,0.00961715,0.0175312,1322,393,5.90289,201.39
105,631,5.9563,-201.022,0.0155382,0.00495367,-0.000303043,0.0155469,0.004945,-0.0285994,0.00917193,0.0150892,1329,393,5.9563,201.022
112,631,6.08997,-200.582,0.0151135,0.00547815,-0.000236504,0.0151193,0.00547235,-0.0245257,0.00883938,0.0153997,1336,393,6.08997,200.582
119,631,6.13513,-200.036,0.014559,0.00604694,-0.000103095,0.0145603,0.00604569,-0.0121093,0.00844655,0.0161938,1343,393,6.13515,200.036
126,631,6.18945,-199.419,0.0136165,0.00663523,0.000114826,0.0136184,0.00663334,0.0164417,0.00786348,0.0208589,1350,393,6.1895,199.419
133,631,6.21875,-198.771,0.0125198,0.00733815,0.000473807,0.0125628,0.00729518,0.0904403,0.00728453,0.0222004,1357,393,6.21873,198.771
140,631,6.2804,-197.965,0.0114637,0.00802618,0.00089898,0.0116846,0.00780527,0.240957,0.00687185,0.0234882,1364,393,6.28036,197.965
147,631,6.2406,-197.014,0.0103749,0.00856164,0.00118318,0.0109589,0.00797767,0.458482,0.00654265,0.0280227,1371,393,6.24064,197.014
154,631,6.21875,-196.039,0.0091077,0.00931179,0.00159585,0.0108088,0.00761064,0.817327,0.00641148,0.026432,1378,393,6.21873,196.039
161,631,6.32178,-195.098,0.00755776,0.0102699,0.00216258,0.0114664,0.00636125,1.06544,0.00663337,0.0269819,1385,393,6.3218,195.098
168,631,6.34656,-193.964,0.00600631,0.0112439,0.0027938,0.0124544,0.00479582,1.16194,0.00725358,0.0321404,1392,393,6.34653,193.964
175,631,6.19702,-192.872,0.0044375,0.0121814,0.00333892,0.0134223,0.00319669,1.21499,0.00809579,0.0276263,1399,393,6.19698,192.872
182,631,6.07678,-191.669,0.00269514,0.0131318,0.00382683,0.0143846,0.00144233,1.25442,0.00914693,0.0165062,1406,393,6.07683,191.67
189,631,5.9729,-190.258,0.00103092,0.0138978,0.00435162,0.0152314,-0.000302601,1.27344,0.0102566,0.0184684,1413,393,5.97284,190.258
196,631,5.83313,-188.892,-0.000498518,0.0148894,0.00500163,0.0163722,-0.00198134,1.28258,0.0116317,0.0194422,1420,393,5.83312,188.892
203,631,5.77625,-187.523,-0.00195565,0.0157083,0.00563566,0.0173532,-0.00360052,1.28682,0.0129371,0.0232009,1427,393,5.77627,187.523
210,631,5.57983,-186.04,-0.00311991,0.0163792,0.00633677,0.0182576,-0.00499828,1.28262,0.0141355,0.029128,1434,393,5.57986,186.04
217,631,5.39429,-184.608,-0.00429323,0.0168421,0.00700909,0.0189553,-0.00640637,1.27798,0.0152283,0.0264595,1441,393,5.39433,184.608
224,631,5.14282,-182.993,-0.00552642,0.0171409,0.00770364,0.0195112,-0.00789669,1.27231,0.0162907,0.0160167,1448,393,5.14279,182.993
231,631,4.82446,-181.316,-0.00640884,0.0179135,0.00848268,0.0205797,-0.00907501,1.26627,0.0175453,0.0127068,1455,393,4.82441,181.316
238,631,4.57556,-179.57,-0.00727576,0.0186531,0.0091523,0.0215582,-0.0101808,1.26344,0.0187129,0.0197087,1462,393,4.57562,179.57
245,631,4.32544,-177.821,-0.00840988,0.0193232,0.0096912,0.0223741,-0.0114608,1.26581,0.0198704,0.0221497,1469,393,4.32539,177.821
252,631,3.9707,-175.976,-0.00947469,0.0198949,0.0102955,0.0231445,-0.0127242,1.26506,0.0209981,0.0243103,1476,393,3.97074,175.976
259,631,3.66077,-174.051,-0.0107739,0.0199882,0.010753,0.0233743,-0.0141599,1.26573,0.021887,0.017844,1483,393,3.66074,174.051
266,631,3.31482,-172.157,-0.0120501,0.0199131,0.0112074,0.0234512,-0.0155881,1.26501,0.0226913,0.0157997,1490,393,3.31482,172.157
273,631,2.95935,-170.185,-0.0131955,0.0193446,0.0116921,0.0231101,-0.0169609,1.25924,0.0232256,0.0312251,1497,393,2.95939,170.185
280,631,2.41223,-168.197,0,0,0,0,0,0,0,-1,1504,393,2.41217,168.197
287,631,2.09583,-165.961,0,0,0,0,0,0,0,-1,1511,393,2.09588,165.961
294,631,1.65698,-163.864,0,0,0,0,0,0,0,-1,1518,393,1.65704,163.864
301,631,6.50122,-101.507,0,0,0,0,0,0,0,-1,1525,393,6.50127,101.507
308,631,6.3407,-98.7534,0,0,0,0,0,0,0,-1,1532,393,6.34066,98.7534
315,631,6.22485,-99.3872,0,0,0,0,0,0,0,-1,1539,393,6.2248,99.3872
322,631,7.49646,-74.1723,0,0,0,0,0,0,0,-1,1546,393,7.4965,74.1723
329,631,5.70972,-38.2651,0,0,0,0,0,0,0,-1,1553,393,5.70967,38.2651
336,631,5.38281,-39.6306,0,0,0,0,0,0,0,-1,1560,393,5.38277,39.6306
343,631,6.21558,-38.7278,0,0,0,0,0,0,0,-1,1567,393,6.21558,38.7278
350,631,5.18359,-35.9677,0,0,0,0,0,0,0,-1,1574,393,5.18355,35.9677
357,631,2.6449,-9.60303,0,0,0,0,0,0,0,-1,1581,393,2.64491,9.60304
364,631,3.39136,-5.7594,0,0,0,0,0,0,0,-1,1588,393,3.39137,5.75939
371,631,3.72839,-6.0574,0,0,0,0,0,0,0,-1,1595,393,3.72845,6.05742
378,631,4.06555,-6.35544,0,0,0,0,0,0,0,-1,1602,393,4.06553,6.35544
385,631,3.90442,-3.58298,0,0,0,0,0,0,0,-1,1609,393,3.90437,3.58299
392,631,0.352295,-2.21301,0,0,0,0,0,0,0,-1,1616,393,0.352345,2.213
399,631,0,0,0,0,0,0,0,0,0,-1,1623,393,0,0
406,631,0,0,0,0,0,0,0,0,0,-1,1630,393,0,0
413,631,0,0,0,0,0,0,0,0,0,-1,1637,393,0,0
420,631,0,0,0,0,0,0,0,0,0,-1,1644,393,0,0
427,631,0,0,0,0,0,0,0,0,0,-1,1651,393,0,0
434,631,0,0,0,0,0,0,0,0,0,-1,1658,393,0,0
441,631,0,0,0,0,0,0,0,0,0,-1,1665,393,0,0
448,631,0,0,0,0,0,0,0,0,0,-1,1672,393,0,0
455,631,0,0,0,0,0,0,0,0,0,-1,1679,393,0,0
462,631,0,0,0,0,0,0,0,0,0,-1,1686,393,0,0
469,631,0,0,0,0,0,0,0,0,0,-1,1693,393,0,0
476,631,0,0,0,0,0,0,0,0,0,-1,1700,393,0,0
483,631,0,0,0,0,0,0,0,0,0,-1,1707,393,0,0
490,631,0,0,0,0,0,0,0,0,0,-1,1714,393,0,0
497,631,0,0,0,0,0,0,0,0,0,-1,1721,393,0,0
504,631,0,0,0,0,0,0,0,0,0,-1,1728,393,0,0
511,631,0,0,0,0,0,0,0,0,0,-1,1735,393,0,0
518,631,0,0,0,0,0,0,0,0,0,-1,1742,393,0,0
525,631,0,0,0,0,0,0,0,0,0,-1,1749,393,0,0
532,631,0,0,0,0,0,0,0,0,0,-1,1756,393,0,0
539,631,0,0,0,0,0,0,0,0,0,-1,1763,393,0,0
546,631,0,0,0,0,0,0,0,0,0,-1,1770,393,0,0
553,631,0,0,0,0,0,0,0,0,0,-1,1777,393,0,0
560,631,0,0,0,0,0,0,0,0,0,-1,1784,393,0,0
567,631,0,0,0,0,0,0,0,0,0,-1,1791,393,0,0
574,631,0,0,0,0,0,0,0,0,0,-1,1798,393,0,0
581,631,0,0,0,0,0,0,0,0,0,-1,1805,393,0,0
588,631,0,0,0,0,0,0,0,0,0,-1,1812,393,0,0
595,631,0,0,0,0,0,0,0,0,0,-1,1819,393,0,0
602,631,0,0,0,0,0,0,0,0,0,-1,1826,393,0,0
609,631,0,0,0,0,0,0,0,0,0,-1,1833,393,0,0
616,631,0,0,0,0,0,0,0,0,0,-1,1840,393,0,0
623,631,0,0,0,0,0,0,0,0,0,-1,1847,393,0,0
630,631,0,0,0,0,0,0,0,0,0,-1,1854,393,0,0
637,631,0,0,0,0,0,0,0,0,0,-1,1861,393,0,0
644,631,0,0,0,0,0,0,0,0,0,-1,1868,393,0,0
651,631,0,0,0,0,0,0,0,0,0,-1,1875,393,0,0
658,631,0,0,0,0,0,0,0,0,0,-1,1882,393,0,0
665,631,0,0,0,0,0,0,0,0,0,-1,1889,393,0,0
672,631,0,0,0,0,0,0,0,0,0,-1,1896,393,0,0
679,631,0,0,0,0,0,0,0,0,0,-1,1903,393,0,0
686,631,0,0,0,0,0,0,0,0,0,-1,1910,393,0,0
693,631,0,0,0,0,0,0,0,0,0,-1,1917,393,0,0
700,631,0,0,0,0,0,0,0,0,0,-1,1924,393,0,0
707,631,0,0,0,0,0,0,0,0,0,-1,1931,393,0,0
714,631,0,0,0,0,0,0,0,0,0,-1,1938,393,0,0
721,631,0,0,0,0,0,0,0,0,0,-1,1945,393,0,0
728,631,0,0,0,0,0,0,0,0,0,-1,1952,393,0,0
735,631,0,0,0,0,0,0,0,0,0,-1,1959,393,0,0
742,631,0,0,0,0,0,0,0,0,0,-1,1966,393,0,0
749,631,0,0,0,0,0,0,0,0,0,-1,1973,393,0,0
756,631,0,0,0,0,0,0,0,0,0,-1,1980,393,0,0
763,631,0,0,0,0,0,0,0,0,0,-1,1987,393,0,0
770,631,0,0,0,0,0,0,0,0,0,-1,1994,393,0,0
777,631,0,0,0,0,0,0,0,0,0,-1,2001,393,0,0
784,631,0,0,0,0,0,0,0,0,0,-1,2008,393,0,0
791,631,0,0,0,0,0,0,0,0,0,-1,2015,393,0,0
798,631,0,0,0,0,0,0,0,0,0,-1,2022,393,0,0
805,631,0,0,0,0,0,0,0,0,0,-1,2029,393,0,0
812,631,0,0,0,0,0,0,0,0,0,-1,2036,393,0,0
-700,624,0,0,0,0,0,0,0,0,0,-1,524,400,0,0
-693,624,0,0,0,0,0,0,0,0,0,-1,531,400,0,0
-686,624,0,0,0,0,0,0,0,0,0,-1,538,400,0,0
-679,624,0,0,0,0,0,0,0,0,0,-1,545,400,0,0
-672,624,0,0,0,0,0,0,0,0,0,-1,552,400,0,0
-665,624,0,0,0,0,0,0,0,0,0,-1,559,400,0,0
-658,624,0,0,0,0,0,0,0,0,0,-1,566,400,0,0
-651,624,0,0,0,0,0,0,0,0,0,-1,573,400,0,0
-644,624,0,0,0,0,0,0,0,0,0,-1,580,400,0,0
-637,624,0,0,0,0,0,0,0,0,0,-1,587,400,0,0
-630,624,0,0,0,0,0,0,0,0,0,-1,594,400,0,0
-623,624,0,0,0,0,0,0,0,0,0,-1,601,400,0,0
-616,624,0,0,0,0,0,0,0,0,0,-1,608,400,0,0
-609,624,0,0,0,0,0,0,0,0,0,-1,615,400,0,0
-602,624,0,0,0,0,0,0,0,0,0,-1,622,400,0,0
-595,624,0,0,0,0,0,0,0,0,0,-1,629,400,0,0
-588,624,0,0,0,0,0,0,0,0,0,-1,636,400,0,0
-581,624,0,0,0,0,0,0,0,0,0,-1,643,400,0,0
-574,624,0,0,0,0,0,0,0,0,0,-1,650,400,0,0
-567,624,0,0,0,0,0,0,0,0,0,-1,657,400,0,0
-560,624,0,0,0,0,0,0,0,0,0,-1,664,400,0,0
-553,624,0,0,0,0,0,0,0,0,0,-1,671,400,0,0
-546,624,0,0,0,0,0,0,0,0,0,-1,678,400,0,0
-539,624,0,0,0,0,0,0,0,0,0,-1,685,400,0,0
-532,624,0,0,0,0,0,0,0,0,0,-1,692,400,0,0
-525,624,0,0,0,0,0,0,0,0,0,-1,699,400,0,0
-518,624,0,0,0,0,0,0,0,0,0,-1,706,400,0,0
-511,624,0,0,0,0,0,0,0,0,0,-1,713,400,0,0
-504,624,0,0,0,0,0,0,0,0,0,-1,720,400,0,0
-497,624,0,0,0,0,0,0,0,0,0,-1,727,400,0,0
-490,624,0,0,0,0,0,0,0,0,0,-1,734,400,0,0
-483,624,0,0,0,0,0,0,0,0,0,-1,741,400,0,0
-476,624,0,0,0,0,0,0,0,0,0,-1,748,400,0,0
-469,624,0,0,0,0,0,0,0,0,0,-1,755,400,0,0
-462,624,0,0,0,0,0,0,0,0,0,-1,762,400,0,0
-455,624,0,0,0,0,0,0,0,0,0,-1,769,400,0,0
-448,624,0,0,0,0,0,0,0,0,0,-1,776,400,0,0
-441,624,0,0,0,0,0,0,0,0,0,-1,783,400,0,0
-434,624,0,0,0,0,0,0,0,0,0,-1,790,400,0,0
-427,624,0,0,0,0,0,0,0,0,0,-1,797,400,0,0
-420,624,0,0,0,0,0,0,0,0,0,-1,804,400,0,0
-413,624,0,0,0,0,0,0,0,0,0,-1,811,400,0,0
-406,624,0,0,0,0,0,0,0,0,0,-1,818,400,0,0
-399,624,0,0,0,0,0,0,0,0,0,-1,825,400,0,0
-392,624,0,0,0,0,0,0,0,0,0,-1,832,400,0,0
-385,624,0,0,0,0,0,0,0,0,0,-1,839,400,0,0
-378,624,0,0,0,0,0,0,0,0,0,-1,846,400,0,0
-371,624,0,0,0,0,0,0,0,0,0,-1,853,400,0,0
-364,624,0,0,0,0,0,0,0,0,0,-1,860,400,0,0
-357,624,0,0,0,0,0,0,0,0,0,-1,867,400,0,0
-350,624,0,0,0,0,0,0,0,0,0,-1,874,400,0,0
-343,624,0,0,0,0,0,0,0,0,0,-1,881,400,0,0
-336,624,0,0,0,0,0,0,0,0,0,-1,888,400,0,0
-329,624,0,0,0,0,0,0,0,0,0,-1,895,400,0,0
-322,624,0,0,0,0,0,0,0,0,0,-1,902,400,0,0
-315,624,0,0,0,0,0,0,0,0,0,-1,909,400,0,0
-308,624,0,0,0,0,0,0,0,0,0,-1,916,400,0,0
-301,624,0,0,0,0,0,0,0,0,0,-1,923,400,0,0
-294,624,5.08527,-28.5311,0,0,0,0,0,0,0,-1,930,400,5.08525,28.5311
-287,624,6.70825,-33.8,0,0,0,0,0,0,0,-1,937,400,6.70827,33.8
-280,624,6.92474,-33.8738,0,0,0,0,0,0,0,-1,944,400,6.92477,33.8739
-273,624,8.617,-37.3463,0,0,0,0,0,0,0,-1,951,400,8.61697,37.3463
-266,624,7.71747,-37.0599,0,0,0,0,0,0,0,-1,958,400,7.7175,37.0599
-259,624,7.33569,-33.1199,0,0,0,0,0,0,0,-1,965,400,7.33567,33.1199
-252,624,7.5528,-32.8158,0,0,0,0,0,0,0,-1,972,400,7.5528,32.8158
-245,624,6.8396,-32.02,0,0,0,0,0,0,0,-1,979,400,6.83963,32.02
-238,624,6.99402,-31.5278,0,0,0,0,0,0,0,-1,986,400,6.99404,31.5278
-231,624,3.86121,-29.6032,0,0,0,0,0,0,0,-1,993,400,3.86122,29.6032
-224,624,4.59351,-27.4048,0,0,0,0,0,0,0,-1,1000,400,4.59353,27.4048
-217,624,9.39142,-50.7224,0,0,0,0,0,0,0,-1,1007,400,9.39142,50.7224
-210,624,9.65839,-57.4372,0,0,0,0,0,0,0,-1,1014,400,9.65841,57.4372
-203,624,9.56946,-68.5125,0,0,0,0,0,0,0,-1,1021,400,9.56951,68.5125
-196,624,9.81567,-88.2332,0,0,0,0,0,0,0,-1,1028,400,9.8157,88.2333
-189,624,9.90796,-108.95,0,0,0,0,0,0,0,-1,1035,400,9.90798,108.95
-182,624,9.73926,-107.138,0,0,0,0,0,0,0,-1,1042,400,9.73923,107.138
-175,624,9.60266,-111.051,0,0,0,0,0,0,0,-1,1049,400,9.60261,111.051
-168,624,7.25854,-162.819,0,0,0,0,0,0,0,-1,1056,400,7.2586,162.819
-161,624,6.81641,-165.07,-0.0121613,0.0145566,-0.0109712,0.0184843,-0.016089,-1.22701,0.0199769,0.0484974,1063,400,6.81635,165.07
-154,624,6.44885,-167.133,-0.0115287,0.0132818,-0.00980159,0.0166867,-0.0149336,-1.23645,0.0182654,0.0132847,1070,400,6.44889,167.133
-147,624,6.06213,-169.148,-0.0105525,0.0121557,-0.00876295,0.015144,-0.0135408,-1.24215,0.0165698,0.0143081,1077,400,6.06214,169.148
-140,624,5.70471,-171.128,-0.00937056,0.010868,-0.00784604,0.0135535,-0.012056,-1.24103,0.014794,0.0133835,1084,400,5.70476,171.128
-133,624,5.34912,-173.032,-0.00804956,0.00985227,-0.00700212,0.0122657,-0.010463,-1.23888,0.0131362,0.0153588,1091,400,5.34918,173.032
-126,624,5.07727,-174.906,-0.00667072,0.00897259,-0.00601942,0.0110207,-0.00871881,-1.24284,0.0114224,0.0165422,1098,400,5.07724,174.906
-119,624,4.82092,-176.744,-0.00499615,0.00795706,-0.0050534,0.00969527,-0.00673437,-1.2395,0.00953687,0.0185536,1105,400,4.82097,176.744
-112,624,4.58472,-178.528,-0.00326499,0.00709108,-0.0042116,0.00858759,-0.00476151,-1.22938,0.00781192,0.0221454,1112,400,4.58474,178.528
-105,624,4.28296,-180.3,-0.0016859,0.00640714,-0.00347192,0.00769246,-0.00297122,-1.21624,0.00635464,0.0173214,1119,400,4.28293,180.3
-98,624,4.07141,-181.996,8.71026e-06,0.00556609,-0.00275735,0.006702,-0.0011272,-1.18003,0.00488726,0.0177752,1126,400,4.07141,181.996
-91,624,3.94446,-183.6,0.00182992,0.00481979,-0.00202268,0.00584002,0.000809685,-1.10364,0.00365348,0.0250785,1133,400,3.94443,183.6
-84,624,3.70251,-185.154,0.00361969,0.00405226,-0.00133663,0.00518999,0.00248196,-0.86561,0.00299739,0.0228923,1140,400,3.70246,185.154
-77,624,3.58826,-186.593,0.00526114,0.00317947,-0.000764372,0.00551166,0.00292895,-0.316715,0.00318425,0.0208842,1147,400,3.5883,186.593
-70,624,3.55481,-187.96,0.00689126,0.00212981,-0.000276776,0.00690729,0.00211378,-0.0578688,0.00408674,0.0254573,1154,400,3.55478,187.96
-63,624,3.55176,-189.354,0.0085582,0.000806699,0.000142951,0.00856084,0.000804063,0.0184333,0.00545898,0.0270691,1161,400,3.55182,189.354
-56,624,3.40002,-190.71,0.0102,-0.000585617,0.000518983,0.010225,-0.000610532,0.0479702,0.007029,0.0226106,1168,400,3.39997,190.71
-49,624,3.34924,-192.022,0.0117926,-0.0019524,0.000922851,0.0118543,-0.00201408,0.0667418,0.00865269,0.0170639,1175,400,3.34928,192.022
-42,624,3.34216,-193.163,0.0132774,-0.00321907,0.00126553,0.0133739,-0.0033156,0.0761218,0.0102023,0.0126467,1182,400,3.34221,193.163
-35,624,3.36511,-194.217,0.0147055,-0.00419741,0.00155511,0.0148326,-0.00432449,0.081538,0.0116017,0.0189695,1189,400,3.36516,194.217
-28,624,3.36987,-195.322,0.0162129,-0.00500638,0.00173142,0.0163533,-0.00514673,0.0808835,0.0129629,0.0243863,1196,400,3.3699,195.322
-21,624,3.36438,-196.293,0.0176001,-0.00567078,0.00189181,0.0177529,-0.00582357,0.0805899,0.0141808,0.0180169,1203,400,3.3644,196.293
-14,624,3.4353,-197.189,0.0188522,-0.00581032,0.00204363,0.0190204,-0.00597851,0.0821174,0.0150737,0.0209894,1210,400,3.43534,197.189
-7,624,3.54797,-198.071,0.0203342,-0.0058636,0.00220177,0.020518,-0.00604736,0.0832655,0.0160781,0.0291848,1217,400,3.54799,198.071
0,624,3.65161,-198.825,0.0218375,-0.00584045,0.00233506,0.0220331,-0.00603606,0.0835782,0.0170605,0.0321697,1224,400,3.65162,198.825
7,624,3.79895,-199.445,0.0229123,-0.00591983,0.00231854,0.0230976,-0.00610508,0.0797321,0.0177862,0.0219734,1231,400,3.79891,199.445
14,624,3.96301,-200.053,0.0237401,-0.00596958,0.00219924,0.023902,-0.0061315,0.0734904,0.0183237,0.0176686,1238,400,3.96299,200.053
21,624,4.08569,-200.566,0.0248087,-0.00599151,0.00200372,0.0249385,-0.00612132,0.0646921,0.0189977,0.0253494,1245,400,4.08568,200.566
28,624,4.23755,-201.039,0.0259075,-0.00581002,0.00174909,0.0260037,-0.00590618,0.0549238,0.0196034,0.0238579,1252,400,4.23756,201.039
35,624,4.42676,-201.371,0.0266434,-0.00545491,0.00153575,0.0267167,-0.00552822,0.0476999,0.0199114,0.0222325,1259,400,4.42681,201.371
42,624,4.64526,-201.706,0.0273741,-0.00476026,0.00152232,0.027446,-0.00483221,0.0472326,0.0201026,0.0250505,1266,400,4.64525,201.706
49,624,4.90381,-201.87,0.0282546,-0.00413117,0.00131482,0.0283079,-0.00418447,0.0405099,0.0204102,0.0283602,1273,400,4.90377,201.87
56,624,5.11316,-202.134,0.0289473,-0.00381946,0.000853285,0.0289695,-0.00384167,0.0260177,0.0207127,0.0281491,1280,400,5.11311,202.134
63,624,5.1925,-202.252,0.0292351,-0.00381524,0.00037706,0.0292394,-0.00381954,0.0114067,0.0208829,0.0218878,1287,400,5.19247,202.252
70,624,5.32312,-202.279,0.029136,-0.00376974,-5.86903e-05,0.0291361,-0.00376984,-0.00178358,0.0207949,0.0198823,1294,400,5.32313,202.279
77,624,5.60718,-202.182,0.0289766,-0.00376096,-0.000528905,0.0289851,-0.0037695,-0.0161503,0.0206947,0.0215705,1301,400,5.6072,202.182
84,624,5.89404,-201.938,0.0288895,-0.00376703,-0.000916668,0.0289153,-0.00379274,-0.0280405,0.0206575,0.0205826,1308,400,5.89403,201.938
91,624,6.0907,-201.63,0.0284488,-0.00378287,-0.00134658,0.0285049,-0.00383903,-0.0416813,0.0204037,0.0201639,1315,400,6.09073,201.63
98,624,6.25012,-201.345,0.027658,-0.00347488,-0.00162681,0.0277428,-0.00355965,-0.0520648,0.0197888,0.0184272,1322,400,6.25017,201.345
105,624,6.40735,-201.023,0.0270015,-0.00314711,-0.00185028,0.0271146,-0.00326024,-0.0610665,0.0192554,0.0184093,1329,400,6.4074,201.023
112,624,6.61707,-200.577,0.0264849,-0.00284114,-0.00204969,0.0266274,-0.00298371,-0.0694432,0.0188252,0.018648,1336,400,6.61701,200.577
119,624,6.70691,-200.088,0.0257185,-0.00256635,-0.00214902,0.0258808,-0.00272869,-0.075401,0.0182316,0.0201415,1343,400,6.70685,200.088
126,624,6.66858,-199.493,0.0245188,-0.00222084,-0.00207455,0.0246788,-0.00238084,-0.0769696,0.0173009,0.024702,1350,400,6.66857,199.493
133,624,6.92944,-198.701,0.0232081,-0.00169097,-0.00183484,0.0233426,-0.00182545,-0.0731645,0.0162045,0.0225608,1357,400,6.92944,198.701
140,624,7.08228,-197.819,0.0219517,-0.00110647,-0.00150455,0.0220495,-0.00120423,-0.0648836,0.0151171,0.0215859,1364,400,7.08232,197.819
147,624,7.12439,-196.902,0.0205872,-0.000613547,-0.00134497,0.0206722,-0.00069853,-0.0631026,0.0140201,0.0282093,1371,400,7.12437,196.902
154,624,7.229,-196.042,0.0189814,0.000167588,-0.00101749,0.0190363,0.000112721,-0.0538723,0.0126535,0.029458,1378,400,7.22904,196.042
161,624,7.36316,-195.055,0.0171173,0.00138094,-0.000428772,0.0171289,0.00136927,-0.0272203,0.0109913,0.0262771,1385,400,7.36311,195.055
168,624,7.4541,-194.008,0.0154216,0.00268961,0.000260151,0.0154269,0.0026843,0.0204215,0.00951687,0.0273112,1392,400,7.45415,194.008
175,624,7.45776,-192.907,0.013788,0.00397609,0.000799814,0.0138527,0.00391132,0.080804,0.0082466,0.0217931,1399,400,7.45772,192.907
182,624,7.3584,-191.624,0.0117879,0.00540153,0.00129882,0.0120419,0.00514749,0.193156,0.00697674,0.0139935,1406,400,7.35839,191.624
189,624,7.26331,-190.241,0.00974373,0.00670004,0.00176623,0.0105533,0.00589046,0.429793,0.00610669,0.0158917,1413,400,7.26336,190.241
196,624,7.16394,-188.818,0.00790803,0.00803144,0.00232762,0.0102982,0.0056413,0.79865,0.0059547,0.0177501,1420,400,7.1639,188.818
203,624,7.15295,-187.328,0.00617031,0.0092204,0.0028988,0.0109708,0.00441987,1.02755,0.00637373,0.0189613,1427,400,7.15294,187.328
210,624,7.0437,-185.836,0.00455991,0.0103014,0.00355857,0.0120028,0.00285851,1.12481,0.00723968,0.0236807,1434,400,7.04366,185.836
217,624,6.85205,-184.39,0.00304009,0.0111875,0.00420447,0.0129681,0.00125951,1.1702,0.00825763,0.0251149,1441,400,6.85211,184.39
224,624,6.64514,-182.845,0.00162155,0.0118887,0.00486477,0.0138276,-0.000317327,1.19154,0.00932598,0.0192952,1448,400,6.64516,182.845
231,624,6.49072,-181.199,0.000442223,0.0127978,0.00559424,0.0149544,-0.00171429,1.20286,0.0105874,0.0153522,1455,400,6.49075,181.199
238,624,6.30115,-179.489,-0.000751219,0.0135714,0.00625866,0.0159209,-0.00310071,1.21168,0.0117843,0.0213041,1462,400,6.30112,179.489
245,624,6.06299,-177.75,-0.00211576,0.0142374,0.00683097,0.0167153,-0.0045937,1.22281,0.0129493,0.0215515,1469,400,6.06297,177.75
252,624,5.7218,-175.893,-0.00345694,0.0148557,0.0074918,0.0175301,-0.00613131,1.22792,0.0141795,0.0168107,1476,400,5.72179,175.893
259,624,5.4906,-173.948,-0.00491609,0.0151147,0.00806626,0.017959,-0.00776044,1.23179,0.0152333,0.0121524,1483,400,5.49062,173.948
266,624,5.24182,-172.028,-0.00629288,0.0151605,0.00858317,0.0181718,-0.00930419,1.23337,0.0161363,0.0160554,1490,400,5.24176,172.028
273,624,4.85669,-170.074,-0.00758589,0.0149073,0.00910773,0.0181326,-0.0108112,1.23045,0.016888,0.0195115,1497,400,4.85672,170.074
280,624,4.39758,-167.999,-0.00882016,0.014395,0.0093924,0.017719,-0.0121442,1.23064,0.0173414,0.0206331,1504,400,4.39759,167.999
287,624,4.09314,-165.964,-0.0101539,0.0137287,0.00966918,0.0171526,-0.0135777,1.23047,0.0177821,0.0206407,1511,400,4.09319,165.964
294,624,3.69043,-163.919,-0.0114274,0.0131219,0.0101277,0.0167607,-0.0150662,1.22587,0.0183839,0.0498206,1518,400,3.69049,163.919
301,624,3.20374,-161.378,0,0,0,0,0,0,0,-1,1525,400,3.20369,161.378
308,624,2.82703,-159.128,0,0,0,0,0,0,0,-1,1532,400,2.82707,159.128
315,624,2.30786,-156.903,0,0,0,0,0,0,0,-1,1539,400,2.30787,156.903
322,624,4.60291,-127.623,0,0,0,0,0,0,0,-1,1546,400,4.60288,127.623
329,624,4.22205,-125.324,0,0,0,0,0,0,0,-1,1553,400,4.22199,125.324
336,624,7.32373,-84.7607,0,0,0,0,0,0,0,-1,1560,400,7.32378,84.7607
343,624,6.53369,-39.5615,0,0,0,0,0,0,0,-1,1567,400,6.53364,39.5615
350,624,1.99194,-7.29742,0,0,0,0,0,0,0,-1,1574,400,1.99198,7.29741
357,624,2.64075,-3.13092,0,0,0,0,0,0,0,-1,1581,400,2.64076,3.13091
364,624,3.16565,-4.9458,0,0,0,0,0,0,0,-1,1588,400,3.16564,4.94579
371,624,3.37561,-5.23529,0,0,0,0,0,0,0,-1,1595,400,3.37563,5.23529
378,624,1.50439,-5.22165,0,0,0,0,0,0,0,-1,1602,400,1.50438,5.22164
385,624,1.2301,-10.5866,0,0,0,0,0,0,0,-1,1609,400,1.2301,10.5866
392,624,4.26819,-5.14236,0,0,0,0,0,0,0,-1,1616,400,4.26818,5.14236
399,624,2.22168,-9.19293,0,0,0,0,0,0,0,-1,1623,400,2.22173,9.19294
406,624,2.68213,-9.91171,0,0,0,0,0,0,0,-1,1630,400,2.68213,9.91171
413,624,0,0,0,0,0,0,0,0,0,-1,1637,400,0,0
420,624,0,0,0,0,0,0,0,0,0,-1,1644,400,0,0
427,624,0,0,0,0,0,0,0,0,0,-1,1651,400,0,0
434,624,0,0,0,0,0,0,0,0,0,-1,1658,400,0,0
441,624,0,0,0,0,0,0,0,0,0,-1,1665,400,0,0
448,624,0,0,0,0,0,0,0,0,0,-1,1672,400,0,0
455,624,0,0,0,0,0,0,0,0,0,-1,1679,400,0,0
462,624,0,0,0,0,0,0,0,0,0,-1,1686,400,0,0
469,624,0,0,0,0,0,0,0,0,0,-1,1693,400,0,0
476,624,0,0,0,0,0,0,0,0,0,-1,1700,400,0,0
483,624,0,0,0,0,0,0,0,0,0,-1,1707,400,0,0
490,624,0,0,0,0,0,0,0,0,0,-1,1714,400,0,0
497,624,0,0,0,0,0,0,0,0,0,-1,1721,400,0,0
504,624,0,0,0,0,0,0,0,0,0,-1,1728,400,0,0
511,624,0,0,0,0,0,0,0,0,0,-1,1735,400,0,0
518,624,0,0,0,0,0,0,0,0,0,-1,1742,400,0,0
525,624,0,0,0,0,0,0,0,0,0,-1,1749,400,0,0
532,624,0,0,0,0,0,0,0,0,0,-1,1756,400,0,0
539,624,0,0,0,0,0,0,0,0,0,-1,1763,400,0,0
546,624,0,0,0,0,0,0,0,0,0,-1,1770,400,0,0
553,624,0,0,0,0,0,0,0,0,0,-1,1777,400,0,0
560,624,0,0,0,0,0,0,0,0,0,-1,1784,400,0,0
567,624,0,0,0,0,0,0,0,0,0,-1,1791,400,0,0
574,624,0,0,0,0,0,0,0,0,0,-1,1798,400,0,0
581,624,0,0,0,0,0,0,0,0,0,-1,1805,400,0,0
588,624,0,0,0,0,0,0,0,0,0,-1,1812,400,0,0
595,624,0,0,0,0,0,0,0,0,0,-1,1819,400,0,0
602,624,0,0,0,0,0,0,0,0,0,-1,1826,400,0,0
609,624,0,0,0,0,0,0,0,0,0,-1,1833,400,0,0
616,624,0,0,0,0,0,0,0,0,0,-1,1840,400,0,0
623,624,0,0,0,0,0,0,0,0,0,-1,1847,400,0,0
630,624,0,0,0,0,0,0,0,0,0,-1,1854,400,0,0
637,624,0,0,0,0,0,0,0,0,0,-1,1861,400,0,0
644,624,0,0,0,0,0,0,0,0,0,-1,1868,400,0,0
651,624,0,0,0,0,0,0,0,0,0,-1,1875,400,0,0
658,624,0,0,0,0,0,0,0,0,0,-1,1882,400,0,0
665,624,0,0,0,0,0,0,0,0,0,-1,1889,400,0,0
672,624,0,0,0,0,0,0,0,0,0,-1,1896,400,0,0
679,624,0,0,0,0,0,0,0,0,0,-1,1903,400,0,0
686,624,0,0,0,0,0,0,0,0,0,-1,1910,400,0,0
693,624,0,0,0,0,0,0,0,0,0,-1,1917,400,0,0
700,624,0,0,0,0,0,0,0,0,0,-1,1924,400,0,0
707,624,0,0,0,0,0,0,0,0,0,-1,1931,400,0,0
714,624,0,0,0,0,0,0,0,0,0,-1,1938,400,0,0
721,624,0,0,0,0,0,0,0,0,0,-1,1945,400,0,0
728,624,0,0,0,0,0,0,0,0,0,-1,1952,400,0,0
735,624,0,0,0,0,0,0,0,0,0,-1,1959,400,0,0
742,624,0,0,0,0,0,0,0,0,0,-1,1966,400,0,0
749,624,0,0,0,0,0,0,0,0,0,-1,1973,400,0,0
756,624,0,0,0,0,0,0,0,0,0,-1,1980,400,0,0
763,624,0,0,0,0,0,0,0,0,0,-1,1987,400,0,0
770,624,0,0,0,0,0,0,0,0,0,-1,1994,400,0,0
777,624,0,0,0,0,0,0,0,0,0,-1,2001,400,0,0
784,624,0,0,0,0,0,0,0,0,0,-1,2008,400,0,0
791,624,0,0,0,0,0,0,0,0,0,-1,2015,400,0,0
798,624,0,0,0,0,0,0,0,0,0,-1,2022,400,0,0
805,624,0,0,0,0,0,0,0,0,0,-1,2029,400,0,0
812,624,0,0,0,0,0,0,0,0,0,-1,2036,400,0,0
-700,617,0,0,0,0,0,0,0,0,0,-1,524,407,0,0
-693,617,0,0,0,0,0,0,0,0,0,-1,531,407,0,0
-686,617,0,0,0,0,0,0,0,0,0,-1,538,407,0,0
-679,617,0,0,0,0,0,0,0,0,0,-1,545,407,0,0
-672,617,0,0,0,0,0,0,0,0,0,-1,552,407,0,0
-665,617,0,0,0,0,0,0,0,0,0,-1,559,407,0,0
-658,617,0,0,0,0,0,0,0,0,0,-1,566,407,0,0
-651,617,0,0,0,0,0,0,0,0,0,-1,573,407,0,0
-644,617,0,0,0,0,0,0,0,0,0,-1,580,407,0,0
-637,617,0,0,0,0,0,0,0,0,0,-1,587,407,0,0
-630,617,0,0,0,0,0,0,0,0,0,-1,594,407,0,0
-623,617,0,0,0,0,0,0,0,0,0,-1,601,407,0,0
-616,617,0,0,0,0,0,0,0,0,0,-1,608,407,0,0
-609,617,0,0,0,0,0,0,0,0,0,-1,615,407,0,0
-602,617,0,0,0,0,0,0,0,0,0,-1,622,407,0,0
-595,617,0,0,0,0,0,0,0,0,0,-1,629,407,0,0
-588,617,0,0,0,0,0,0,0,0,0,-1,636,407,0,0
-581,617,0,0,0,0,0,0,0,0,0,-1,643,407,0,0
-574,617,0,0,0,0,0,0,0,0,0,-1,650,407,0,0
-567,617,0,0,0,0,0,0,0,0,0,-1,657,407,0,0
-560,617,0,0,0,0,0,0,0,0,0,-1,664,407,0,0
-553,617,0,0,0,0,0,0,0,0,0,-1,671,407,0,0
-546,617,0,0,0,0,0,0,0,0,0,-1,678,407,0,0
-539,617,0,0,0,0,0,0,0,0,0,-1,685,407,0,0
-532,617,0,0,0,0,0,0,0,0,0,-1,692,407,0,0
-525,617,0,0,0,0,0,0,0,0,0,-1,699,407,0,0
-518,617,0,0,0,0,0,0,0,0,0,-1,706,407,0,0
-511,617,0,0,0,0,0,0,0,0,0,-1,713,407,0,0
-504,617,0,0,0,0,0,0,0,0,0,-1,720,407,0,0
-497,617,0,0,0,0,0,0,0,0,0,-1,727,407,0,0
-490,617,0,0,0,0,0,0,0,0,0,-1,734,407,0,0
-483,617,0,0,0,0,0,0,0,0,0,-1,741,407,0,0
-476,617,0,0,0,0,0,0,0,0,0,-1,748,407,0,0
-469,617,0,0,0,0,0,0,0,0,0,-1,755,407,0,0
-462,617,0,0,0,0,0,0,0,0,0,-1,762,407,0,0
-455,617,0,0,0,0,0,0,0,0,0,-1,769,407,0,0
-448,617,0,0,0,0,0,0,0,0,0,-1,776,407,0,0
-441,617,0,0,0,0,0,0,0,0,0,-1,783,407,0,0
-434,617,0,0,0,0,0,0,0,0,0,-1,790,407,0,0
-427,617,0,0,0,0,0,0,0,0,0,-1,797,407,0,0
-420,617,0,0,0,0,0,0,0,0,0,-1,804,407,0,0
-413,617,0,0,0,0,0,0,0,0,0,-1,811,407,0,0
-406,617,0,0,0,0,0,0,0,0,0,-1,818,407,0,0
-399,617,0,0,0,0,0,0,0,0,0,-1,825,407,0,0
-392,617,0,0,0,0,0,0,0,0,0,-1,832,407,0,0
-385,617,0,0,0,0,0,0,0,0,0,-1,839,407,0,0
-378,617,0,0,0,0,0,0,0,0,0,-1,846,407,0,0
-371,617,0,0,0,0,0,0,0,0,0,-1,853,407,0,0
-364,617,0,0,0,0,0,0,0,0,0,-1,860,407,0,0
-357,617,0,0,0,0,0,0,0,0,0,-1,867,407,0,0
-350,617,0,0,0,0,0,0,0,0,0,-1,874,407,0,0
-343,617,0,0,0,0,0,0,0,0,0,-1,881,407,0,0
-336,617,0,0,0,0,0,0,0,0,0,-1,888,407,0,0
-329,617,0,0,0,0,0,0,0,0,0,-1,895,407,0,0
-322,617,0,0,0,0,0,0,0,0,0,-1,902,407,0,0
-315,617,0,0,0,0,0,0,0,0,0,-1,909,407,0,0
-308,617,0,0,0,0,0,0,0,0,0,-1,916,407,0,0
-301,617,6.81897,-24.525,0,0,0,0,0,0,0,-1,923,407,6.81899,24.525
-294,617,6.19263,-26.917,0,0,0,0,0,0,0,-1,930,407,6.19261,26.917
-287,617,7.00409,-31.9773,0,0,0,0,0,0,0,-1,937,407,7.00406,31.9773
-280,617,9.1106,-36.5021,0,0,0,0,0,0,0,-1,944,407,9.11059,36.5021
-273,617,8.35004,-36.2751,0,0,0,0,0,0,0,-1,951,407,8.35003,36.2751
-266,617,7.61749,-36.1671,0,0,0,0,0,0,0,-1,958,407,7.61746,36.1671
-259,617,6.83643,-36.3605,0,0,0,0,0,0,0,-1,965,407,6.83643,36.3605
-252,617,6.02264,-36.5001,0,0,0,0,0,0,0,-1,972,407,6.02265,36.5001
-245,617,6.72626,-34.4465,0,0,0,0,0,0,0,-1,979,407,6.72627,34.4465
-238,617,5.6474,-34.6842,0,0,0,0,0,0,0,-1,986,407,5.64741,34.6842
-231,617,8.70416,-54.2625,0,0,0,0,0,0,0,-1,993,407,8.70417,54.2624
-224,617,8.59882,-64.002,0,0,0,0,0,0,0,-1,1000,407,8.59879,64.002
-217,617,8.79517,-79.8425,0,0,0,0,0,0,0,-1,1007,407,8.79519,79.8425
-210,617,7.62677,-149.03,0,0,0,0,0,0,0,-1,1014,407,7.62679,149.03
-203,617,7.49023,-144.245,0,0,0,0,0,0,0,-1,1021,407,7.49021,144.245
-196,617,6.86108,-153.556,0,0,0,0,0,0,0,-1,1028,407,6.86106,153.556
-189,617,6.46399,-156.122,0,0,0,0,0,0,0,-1,1035,407,6.46402,156.122
-182,617,5.99792,-158.351,0,0,0,0,0,0,0,-1,1042,407,5.99795,158.351
-175,617,5.59302,-160.331,0,0,0,0,0,0,0,-1,1049,407,5.59298,160.331
-168,617,5.20605,-162.689,-0.00757327,0.0116125,-0.00955205,0.0155572,-0.0115179,-1.17916,0.0156897,0.0284649,1056,407,5.20604,162.689
-161,617,4.82788,-164.857,-0.00682916,0.0100152,-0.0082713,0.0133976,-0.0102115,-1.18262,0.013672,0.0159757,1063,407,4.82793,164.857
-154,617,4.45496,-166.915,-0.00590799,0.00876995,-0.00712102,0.0116569,-0.00879494,-1.18563,0.0118464,0.0171612,1070,407,4.45501,166.915
-147,617,4.11133,-168.985,-0.00464972,0.00769467,-0.00611804,0.0102131,-0.00716812,-1.1803,0.0100862,0.0232356,1077,407,4.11138,168.985
-140,617,3.77478,-171,-0.00319122,0.00646199,-0.00520326,0.00873257,-0.0054618,-1.15933,0.00826733,0.0178092,1084,407,3.7748,171
-133,617,3.50403,-172.913,-0.00160348,0.00544464,-0.00437035,0.00753476,-0.0036936,-1.1247,0.00660793,0.0215459,1091,407,3.504,172.913
-126,617,3.27087,-174.758,4.52482e-05,0.0045358,-0.00348661,0.00643754,-0.00185649,-1.07146,0.00502614,0.0189275,1098,407,3.27083,174.758
-119,617,3.00635,-176.576,0.0019403,0.00360987,-0.00255886,0.00546667,8.34996e-05,-0.943071,0.00361694,0.0181021,1105,407,3.00638,176.576
-112,617,2.78564,-178.352,0.0038889,0.00277332,-0.00172566,0.00514467,0.00151754,-0.629082,0.00305238,0.0217556,1112,407,2.7857,178.352
-105,617,2.62744,-180.127,0.00570592,0.0020277,-0.00104701,0.00598307,0.00175055,-0.258771,0.00355202,0.0226128,1119,407,2.62742,180.127
-98,617,2.44324,-181.821,0.0076294,0.0011777,-0.000423168,0.00765703,0.00115006,-0.0652178,0.0047678,0.0178577,1126,407,2.44319,181.821
-91,617,2.31433,-183.462,0.00962373,0.000344131,0.000220789,0.00962898,0.000338881,0.023775,0.00630939,0.0232889,1133,407,2.31431,183.462
-84,617,2.2179,-184.992,0.0115096,-0.000694514,0.000875151,0.011572,-0.000756951,0.0712241,0.00797895,0.0225136,1140,407,2.21789,184.992
-77,617,2.14124,-186.433,0.0132815,-0.00208565,0.00144073,0.0134154,-0.00221956,0.0926778,0.00976789,0.0188124,1147,407,2.14118,186.433
-70,617,2.13953,-187.84,0.0151454,-0.00367461,0.00192813,0.0153409,-0.00387012,0.101053,0.011732,0.0246905,1154,407,2.13952,187.84
-63,617,2.24341,-189.203,0.0170435,-0.00557382,0.00231868,0.0172788,-0.00580908,0.101116,0.0138672,0.0353288,1161,407,2.24342,189.203
-56,617,2.13196,-190.515,0.0188596,-0.00745307,0.00260282,0.0191146,-0.00770807,0.0976581,0.015946,0.0284229,1168,407,2.132,190.515
-49,617,2.14685,-191.94,0.0206796,-0.0093593,0.00289129,0.0209553,-0.00963506,0.0950885,0.01806,0.0192739,1175,407,2.14685,191.94
-42,617,2.2262,-193.095,0.022348,-0.0112178,0.00314903,0.0226409,-0.0115107,0.0927383,0.0200634,0.0148456,1182,407,2.22618,193.095
-35,617,2.29944,-194.115,0.0239336,-0.0127997,0.00334902,0.0242364,-0.0131026,0.0901804,0.0218748,0.0218833,1189,407,2.29939,194.115
-28,617,2.2865,-195.153,0.0256049,-0.0141477,0.00344494,0.0259012,-0.014444,0.0858073,0.0236043,0.0241134,1196,407,2.28652,195.153
-21,617,2.42175,-196.086,0.0271243,-0.0152302,0.0035122,0.0274136,-0.0155195,0.0821757,0.0251025,0.0164553,1203,407,2.42171,196.086
-14,617,2.6217,-197.017,0.0285189,-0.0156532,0.00353256,0.0287996,-0.0159339,0.0793009,0.0261806,0.020203,1210,407,2.62175,197.017
-7,617,2.74255,-197.82,0.0301637,-0.0159114,0.00354652,0.0304351,-0.0161828,0.0763729,0.027331,0.0285889,1217,407,2.74252,197.82
0,617,2.95691,-198.637,0.0317839,-0.0159483,0.0035552,0.0320473,-0.0162117,0.0739386,0.0283579,0.0240215,1224,407,2.95694,198.637
7,617,3.2052,-199.343,0.0329126,-0.0161262,0.00342671,0.0331509,-0.0163645,0.0694279,0.0291302,0.0155878,1231,407,3.20524,199.343
14,617,3.36816,-199.966,0.0338069,-0.0161303,0.00318257,0.0340089,-0.0163323,0.0633898,0.0296557,0.0187057,1238,407,3.36813,199.966
21,617,3.6178,-200.502,0.0350964,-0.0160025,0.00282081,0.0352516,-0.0161577,0.0549804,0.0303559,0.0220131,1245,407,3.61785,200.502
28,617,3.92395,-201.121,0.0363782,-0.0154599,0.00240621,0.0364897,-0.0155713,0.0462851,0.0308556,0.0216379,1252,407,3.92391,201.121
35,617,3.97412,-201.492,0.037176,-0.0146736,0.00208148,0.0372594,-0.014757,0.0400587,0.0309543,0.0241345,1259,407,3.97406,201.492
42,617,4.3374,-201.645,0.0381333,-0.0133823,0.00208249,0.0382174,-0.0134663,0.0403366,0.0309592,0.0290609,1266,407,4.3374,201.645
49,617,4.66858,-201.864,0.0393897,-0.0121701,0.00184301,0.0394555,-0.0122359,0.0356844,0.0311928,0.0272137,1273,407,4.66861,201.864
56,617,4.92932,-202.082,0.0403709,-0.0113856,0.00123116,0.0404002,-0.0114148,0.0237696,0.031437,0.0215768,1280,407,4.92926,202.082
63,617,5.14307,-202.172,0.0408331,-0.0110666,0.000557712,0.0408391,-0.0110726,0.0107443,0.0315709,0.0180964,1287,407,5.14307,202.172
70,617,5.50598,-202.204,0.0408037,-0.0107466,-0.000148855,0.0408042,-0.010747,-0.00288755,0.0314042,0.0268423,1294,407,5.50603,202.204
77,617,5.8783,-202.078,0.0407174,-0.0107083,-0.000962829,0.0407354,-0.0107263,-0.018714,0.0313501,0.024427,1301,407,5.87835,202.078
84,617,6.11462,-201.909,0.0407246,-0.0109186,-0.00159991,0.0407741,-0.0109681,-0.0309406,0.0314822,0.0219661,1308,407,6.11467,201.909
91,617,6.30249,-201.592,0.0402539,-0.0111583,-0.00232416,0.0403588,-0.0112631,-0.0450838,0.0313422,0.0181977,1315,407,6.30243,201.592
98,617,6.55457,-201.33,0.0393315,-0.0109671,-0.00290946,0.0394992,-0.0111349,-0.0575877,0.0307245,0.0167938,1322,407,6.55452,201.33
105,617,6.85803,-200.931,0.0385886,-0.0108413,-0.00340735,0.0388224,-0.0110751,-0.0685011,0.0302567,0.0166643,1329,407,6.85807,200.931
112,617,7.17297,-200.456,0.0379757,-0.0107764,-0.00388601,0.0382835,-0.0110842,-0.0790446,0.0299097,0.020109,1336,407,7.17301,200.456
119,617,7.23303,-199.971,0.0369847,-0.0108347,-0.00421767,0.0373539,-0.0112039,-0.0873019,0.0293587,0.0265206,1343,407,7.23298,199.971
126,617,7.25476,-199.369,0.0355154,-0.0107825,-0.00428545,0.0359088,-0.0111758,-0.0915263,0.0284069,0.0333307,1350,407,7.25473,199.369
133,617,7.64063,-198.595,0.0339845,-0.0104719,-0.00416405,0.0343712,-0.0108585,-0.0925929,0.0272642,0.0247634,1357,407,7.64058,198.595
140,617,7.89209,-197.732,0.0325176,-0.0100375,-0.00392304,0.0328762,-0.0103961,-0.0911635,0.0260829,0.0203444,1364,407,7.89203,197.732
147,617,8.00574,-196.848,0.0308659,-0.00966088,-0.00390058,0.0312379,-0.0100329,-0.095084,0.024854,0.0251744,1371,407,8.00572,196.848
154,617,8.26733,-196.028,0.0288974,-0.00887171,-0.00366786,0.0292503,-0.00922461,-0.0959183,0.0231948,0.0276397,1378,407,8.26728,196.028
161,617,8.48206,-195.082,0.0266916,-0.00736858,-0.00304807,0.0269622,-0.00763921,-0.0885533,0.0209898,0.0276862,1385,407,8.48205,195.082
168,617,8.63464,-193.993,0.0248581,-0.00567875,-0.00228288,0.0250278,-0.00584847,-0.0742085,0.0189382,0.0251364,1392,407,8.63467,193.993
175,617,8.64978,-192.837,0.0231626,-0.00399863,-0.00174577,0.0232743,-0.00411038,-0.0639237,0.0170523,0.0214865,1399,407,8.64981,192.837
182,617,8.62756,-191.524,0.0208691,-0.00204386,-0.00123392,0.0209354,-0.00211011,-0.0536455,0.0147108,0.014523,1406,407,8.62759,191.524
189,617,8.5835,-190.164,0.0184128,-0.000184318,-0.000829978,0.0184497,-0.000221286,-0.0445115,0.0123742,0.0145286,1413,407,8.58351,190.164
196,617,8.53052,-188.783,0.0162513,0.00151436,-0.000350856,0.0162596,0.00150601,-0.02379,0.0103742,0.0207674,1420,407,8.53056,188.783
203,617,8.52954,-187.329,0.0142192,0.00310796,0.000156498,0.0142214,0.00310575,0.0140808,0.00863396,0.0211375,1427,407,8.52955,187.329
210,617,8.5033,-185.766,0.01215,0.0046279,0.000778034,0.0122296,0.00454827,0.101995,0.00713758,0.0200576,1434,407,8.50331,185.766
217,617,8.35925,-184.219,0.0102734,0.0059149,0.00139352,0.0106809,0.00550744,0.284461,0.0061676,0.0247306,1441,407,8.35923,184.219
224,617,8.22546,-182.678,0.00864948,0.00694257,0.00200943,0.00997919,0.00561286,0.58458,0.00577645,0.0229409,1448,407,8.22552,182.678
231,617,8.13354,-181.075,0.00719315,0.00800954,0.00273667,0.0103683,0.0048344,0.859431,0.00599068,0.0189644,1455,407,8.13355,181.075
238,617,8.02795,-179.367,0.00570643,0.00885019,0.0034358,0.0110566,0.00350002,0.999935,0.00652518,0.0201589,1462,407,8.02796,179.367
245,617,7.86499,-177.627,0.0041285,0.00957533,0.00407047,0.0117494,0.00195439,1.08023,0.0072696,0.0162746,1469,407,7.86505,177.627
252,617,7.53882,-175.722,0.00251864,0.0103785,0.00483004,0.0126754,0.000221723,1.1269,0.00837734,0.0174758,1476,407,7.53876,175.722
259,617,7.31519,-173.791,0.00088775,0.0108718,0.0055305,0.0133301,-0.0015705,1.15253,0.0094538,0.015164,1483,407,7.31524,173.791
266,617,7.09192,-171.833,-0.000628665,0.0111407,0.00611624,0.0137435,-0.0032315,1.16845,0.0104081,0.0180405,1490,407,7.09192,171.833
273,617,6.77271,-169.823,-0.0021176,0.0112721,0.00668585,0.0140389,-0.00488433,1.17843,0.0113435,0.0182688,1497,407,6.77272,169.824
280,617,6.38867,-167.792,-0.00357507,0.0112208,0.00712965,0.0140972,-0.00645144,1.18733,0.0121344,0.0165888,1504,407,6.38867,167.792
287,617,6.06287,-165.713,-0.00503832,0.0109949,0.00754972,0.0139903,-0.00803372,1.19309,0.0128696,0.0144563,1511,407,6.06292,165.713
294,617,5.70056,-163.629,-0.0064123,0.0107716,0.00806606,0.0139645,-0.00960521,1.19388,0.0136853,0.0116569,1518,407,5.70054,163.629
301,617,5.3291,-161.502,-0.00753254,0.0104682,0.00864233,0.0139457,-0.01101,1.18824,0.0144413,0.0136564,1525,407,5.32914,161.502
308,617,4.94885,-159.258,-0.00829368,0.0110419,0.00958135,0.0149855,-0.0122372,1.18034,0.0157437,0.0339137,1532,407,4.94887,159.258
315,617,4.49231,-157.099,-0.00861517,0.0128123,0.0112761,0.0176528,-0.0134557,1.16531,0.0180149,0.0484167,1539,407,4.49234,157.099
322,617,4.07751,-154.968,0,0,0,0,0,0,0,-1,1546,407,4.07757,154.968
329,617,3.66504,-152.299,0,0,0,0,0,0,0,-1,1553,407,3.66507,152.299
336,617,3.7113,-147.346,0,0,0,0,0,0,0,-1,1560,407,3.7113,147.346
343,617,4.15369,-139.098,0,0,0,0,0,0,0,-1,1567,407,4.15371,139.098
350,617,2.8457,-140.993,0,0,0,0,0,0,0,-1,1574,407,2.84567,140.993
357,617,2.63464,-139.438,0,0,0,0,0,0,0,-1,1581,407,2.63469,139.438
364,617,1.60095,-138.383,0,0,0,0,0,0,0,-1,1588,407,1.60098,138.383
371,617,2.60266,-6.20667,0,0,0,0,0,0,0,-1,1595,407,2.60261,6.20668
378,617,8.75098,-47.4916,0,0,0,0,0,0,0,-1,1602,407,8.75093,47.4916
385,617,1.74146,-10.3561,0,0,0,0,0,0,0,-1,1609,407,1.7414,10.3561
392,617,1.96936,-5.10449,0,0,0,0,0,0,0,-1,1616,407,1.96931,5.10451
399,617,2.48889,-5.81256,0,0,0,0,0,0,0,-1,1623,407,2.48888,5.81255
406,617,3.01465,-6.51642,0,0,0,0,0,0,0,-1,1630,407,3.01461,6.51643
413,617,5.66919,-50.9252,0,0,0,0,0,0,0,-1,1637,407,5.66925,50.9252
420,617,5.401,-51.0232,0,0,0,0,0,0,0,-1,1644,407,5.40098,51.0232
427,617,0,0,0,0,0,0,0,0,0,-1,1651,407,0,0
434,617,0,0,0,0,0,0,0,0,0,-1,1658,407,0,0
441,617,0,0,0,0,0,0,0,0,0,-1,1665,407,0,0
448,617,0,0,0,0,0,0,0,0,0,-1,1672,407,0,0
455,617,0,0,0,0,0,0,0,0,0,-1,1679,407,0,0
462,617,0,0,0,0,0,0,0,0,0,-1,1686,407,0,0
469,617,0,0,0,0,0,0,0,0,0,-1,1693,407,0,0
476,617,0,0,0,0,0,0,0,0,0,-1,1700,407,0,0
483,617,0,0,0,0,0,0,0,0,0,-1,1707,407,0,0
490,617,0,0,0,0,0,0,0,0,0,-1,1714,407,0,0
497,617,0,0,0,0,0,0,0,0,0,-1,1721,407,0,0
504,617,0,0,0,0,0,0,0,0,0,-1,1728,407,0,0
511,617,0,0,0,0,0,0,0,0,0,-1,1735,407,0,0
518,617,0,0,0,0,0,0,0,0,0,-1,1742,407,0,0
525,617,0,0,0,0,0,0,0,0,0,-1,1749,407,0,0
532,617,0,0,0,0,0,0,0,0,0,-1,1756,407,0,0
539,617,0,0,0,0,0,0,0,0,0,-1,1763,407,0,0
546,617,0,0,0,0,0,0,0,0,0,-1,1770,407,0,0
553,617,0,0,0,0,0,0,0,0,0,-1,1777,407,0,0
560,617,0,0,0,0,0,0,0,0,0,-1,1784,407,0,0
567,617,0,0,0,0,0,0,0,0,0,-1,1791,407,0,0
574,617,0,0,0,0,0,0,0,0,0,-1,1798,407,0,0
581,617,0,0,0,0,0,0,0,0,0,-1,1805,407,0,0
588,617,0,0,0,0,0,0,0,0,0,-1,1812,407,0,0
595,617,0,0,0,0,0,0,0,0,0,-1,1819,407,0,0
602,617,0,0,0,0,0,0,0,0,0,-1,1826,407,0,0
609,617,0,0,0,0,0,0,0,0,0,-1,1833,407,0,0
616,617,0,0,0,0,0,0,0,0,0,-1,1840,407,0,0
623,617,0,0,0,0,0,0,0,0,0,-1,1847,407,0,0
630,617,0,0,0,0,0,0,0,0,0,-1,1854,407,0,0
637,617,0,0,0,0,0,0,0,0,0,-1,1861,407,0,0
644,617,0,0,0,0,0,0,0,0,0,-1,1868,407,0,0
651,617,0,0,0,0,0,0,0,0,0,-1,1875,407,0,0
658,617,0,0,0,0,0,0,0,0,0,-1,1882,407,0,0
665,617,0,0,0,0,0,0,0,0,0,-1,1889,407,0,0
672,617,0,0,0,0,0,0,0,0,0,-1,1896,407,0,0
679,617,0,0,0,0,0,0,0,0,0,-1,1903,407,0,0
686,617,0,0,0,0,0,0,0,0,0,-1,1910,407,0,0
693,617,0,0,0,0,0,0,0,0,0,-1,1917,407,0,0
700,617,0,0,0,0,0,0,0,0,0,-1,1924,407,0,0
707,617,0,0,0,0,0,0,0,0,0,-1,1931,407,0,0
714,617,0,0,0,0,0,0,0,0,0,-1,1938,407,0,0
721,617,0,0,0,0,0,0,0,0,0,-1,1945,407,0,0
728,617,0,0,0,0,0,0,0,0,0,-1,1952,407,0,0
735,617,0,0,0,0,0,0,0,0,0,-1,1959,407,0,0
742,617,0,0,0,0,0,0,0,0,0,-1,1966,407,0,0
749,617,0,0,0,0,0,0,0,0,0,-1,1973,407,0,0
756,617,0,0,0,0,0,0,0,0,0,-1,1980,407,0,0
763,617,0,0,0,0,0,0,0,0,0,-1,1987,407,0,0
770,617,0,0,0,0,0,0,0,0,0,-1,1994,407,0,0
777,617,0,0,0,0,0,0,0,0,0,-1,2001,407,0,0
784,617,0,0,0,0,0,0,0,0,0,-1,2008,407,0,0
791,617,0,0,0,0,0,0,0,0,0,-1,2015,407,0,0
798,617,0,0,0,0,0,0,0,0,0,-1,2022,407,0,0
805,617,0,0,0,0,0,0,0,0,0,-1,2029,407,0,0
812,617,0,0,0,0,0,0,0,0,0,-1,2036,407,0,0
-700,610,0,0,0,0,0,0,0,0,0,-1,524,414,0,0
-693,610,0,0,0,0,0,0,0,0,0,-1,531,414,0,0
-686,610,0,0,0,0,0,0,0,0,0,-1,538,414,0,0
-679,610,0,0,0,0,0,0,0,0,0,-1,545,414,0,0
-672,610,0,0,0,0,0,0,0,0,0,-1,552,414,0,0
-665,610,0,0,0,0,0,0,0,0,0,-1,559,414,0,0
-658,610,0,0,0,0,0,0,0,0,0,-1,566,414,0,0
-651,610,0,0,0,0,0,0,0,0,0,-1,573,414,0,0
-644,610,0,0,0,0,0,0,0,0,0,-1,580,414,0,0
-637,610,0,0,0,0,0,0,0,0,0,-1,587,414,0,0
-630,610,0,0,0,0,0,0,0,0,0,-1,594,414,0,0
-623,610,0,0,0,0,0,0,0,0,0,-1,601,414,0,0
-616,610,0,0,0,0,0,0,0,0,0,-1,608,414,0,0
-609,610,0,0,0,0,0,0,0,0,0,-1,615,414,0,0
-602,610,0,0,0,0,0,0,0,0,0,-1,622,414,0,0
-595,610,0,0,0,0,0,0,0,0,0,-1,629,414,0,0
-588,610,0,0,0,0,0,0,0,0,0,-1,636,414,0,0
-581,610,0,0,0,0,0,0,0,0,0,-1,643,414,0,0
-574,610,0,0,0,0,0,0,0,0,0,-1,650,414,0,0
-567,610,0,0,0,0,0,0,0,0,0,-1,657,414,0,0
-560,610,0,0,0,0,0,0,0,0,0,-1,664,414,0,0
-553,610,0,0,0,0,0,0,0,0,0,-1,671,414,0,0
-546,610,0,0,0,0,0,0,0,0,0,-1,678,414,0,0
-539,610,0,0,0,0,0,0,0,0,0,-1,685,414,0,0
-532,610,0,0,0,0,0,0,0,0,0,-1,692,414,0,0
-525,610,0,0,0,0,0,0,0,0,0,-1,699,414,0,0
-518,610,0,0,0,0,0,0,0,0,0,-1,706,414,0,0
-511,610,0,0,0,0,0,0,0,0,0,-1,713,414,0,0
-504,610,0,0,0,0,0,0,0,0,0,-1,720,414,0,0
-497,610,0,0,0,0,0,0,0,0,0,-1,727,414,0,0
-490,610,0,0,0,0,0,0,0,0,0,-1,734,414,0,0
-483,610,0,0,0,0,0,0,0,0,0,-1,741,414,0,0
-476,610,0,0,0,0,0,0,0,0,0,-1,748,414,0,0
-469,610,0,0,0,0,0,0,0,0,0,-1,755,414,0,0
-462,610,0,0,0,0,0,0,0,0,0,-1,762,414,0,0
-455,610,0,0,0,0,0,0,0,0,0,-1,769,414,0,0
-448,610,0,0,0,0,0,0,0,0,0,-1,776,414,0,0
-441,610,0,0,0,0,0,0,0,0,0,-1,783,414,0,0
-434,610,0,0,0,0,0,0,0,0,0,-1,790,414,0,0
-427,610,0,0,0,0,0,0,0,0,0,-1,797,414,0,0
-420,610,0,0,0,0,0,0,0,0,0,-1,804,414,0,0
-413,610,0,0,0,0,0,0,0,0,0,-1,811,414,0,0
-406,610,0,0,0,0,0,0,0,0,0,-1,818,414,0,0
-399,610,0,0,0,0,0,0,0,0,0,-1,825,414,0,0
-392,610,0,0,0,0,0,0,0,0,0,-1,832,414,0,0
-385,610,0,0,0,0,0,0,0,0,0,-1,839,414,0,0
-378,610,0,0,0,0,0,0,0,0,0,-1,846,414,0,0
-371,610,0,0,0,0,0,0,0,0,0,-1,853,414,0,0
-364,610,0,0,0,0,0,0,0,0,0,-1,860,414,0,0
-357,610,0,0,0,0,0,0,0,0,0,-1,867,414,0,0
-350,610,0,0,0,0,0,0,0,0,0,-1,874,414,0,0
-343,610,0,0,0,0,0,0,0,0,0,-1,881,414,0,0
-336,610,0,0,0,0,0,0,0,0,0,-1,888,414,0,0
-329,610,0,0,0,0,0,0,0,0,0,-1,895,414,0,0
-322,610,0,0,0,0,0,0,0,0,0,-1,902,414,0,0
-315,610,7.68475,-21.5402,0,0,0,0,0,0,0,-1,909,414,7.68475,21.5402
-308,610,3.97211,-23.4133,0,0,0,0,0,0,0,-1,916,414,3.9721,23.4133
-301,610,7.38513,-22.4166,0,0,0,0,0,0,0,-1,923,414,7.38516,22.4166
-294,610,6.77832,-24.1945,0,0,0,0,0,0,0,-1,930,414,6.77829,24.1946
-287,610,3.39276,-28.5804,0,0,0,0,0,0,0,-1,937,414,3.39276,28.5803
-280,610,8.8728,-35.4336,0,0,0,0,0,0,0,-1,944,414,8.87283,35.4336
-273,610,8.14722,-35.5264,0,0,0,0,0,0,0,-1,951,414,8.14723,35.5264
-266,610,7.38361,-35.6366,0,0,0,0,0,0,0,-1,958,414,7.38359,35.6366
-259,610,6.47375,-35.762,0,0,0,0,0,0,0,-1,965,414,6.47373,35.762
-252,610,5.65308,-35.8931,0,0,0,0,0,0,0,-1,972,414,5.65305,35.8931
-245,610,8.48608,-60.1828,0,0,0,0,0,0,0,-1,979,414,8.4861,60.1828
-238,610,7.21301,-70.1616,0,0,0,0,0,0,0,-1,986,414,7.21304,70.1615
-231,610,7.96533,-98.6728,0,0,0,0,0,0,0,-1,993,414,7.96532,98.6728
-224,610,6.55908,-143.452,0,0,0,0,0,0,0,-1,1000,414,6.55911,143.452
-217,610,6.03717,-146.108,0,0,0,0,0,0,0,-1,1007,414,6.03714,146.108
-210,610,5.53802,-148.824,0,0,0,0,0,0,0,-1,1014,414,5.538,148.824
-203,610,5.19836,-151.358,0,0,0,0,0,0,0,-1,1021,414,5.19842,151.358
-196,610,4.71179,-153.524,-0.0049346,0.0148165,-0.0128085,0.0211145,-0.0112326,-1.11381,0.0189639,0.0315475,1028,414,4.71184,153.524
-189,610,4.30176,-155.875,-0.00487931,0.0121582,-0.0108682,0.0174484,-0.0101695,-1.1178,0.0161288,0.0168413,1035,414,4.30181,155.874
-182,610,3.90063,-158.049,-0.00445075,0.01041,-0.00929803,0.0148819,-0.00892264,-1.1225,0.0138864,0.0191426,1042,414,3.90069,158.049
-175,610,3.52771,-160.247,-0.00373645,0.00884713,-0.00792628,0.0126752,-0.00756457,-1.12087,0.011809,0.0193671,1049,414,3.52774,160.247
-168,610,3.12659,-162.451,-0.00276177,0.0069892,-0.00663611,0.0103483,-0.00612087,-1.10221,0.00961232,0.016069,1056,414,3.12654,162.451
-161,610,2.77222,-164.626,-0.00167509,0.00549207,-0.00545617,0.00843627,-0.00461928,-1.07597,0.00764425,0.0154546,1063,414,2.77223,164.626
-154,610,2.46338,-166.73,-0.000428612,0.00427121,-0.00435464,0.00686953,-0.00302693,-1.03282,0.00585553,0.024068,1070,414,2.46338,166.73
-147,610,2.16992,-168.753,0.00114969,0.00324035,-0.00340394,0.00575584,-0.00136581,-0.934374,0.00436433,0.0261283,1077,414,2.16997,168.753
-140,610,1.849,-170.754,0.00291037,0.00207907,-0.00251741,0.00504621,-5.67732e-05,-0.703581,0.00338322,0.0189445,1084,414,1.849,170.754
-133,610,1.62195,-172.662,0.00477898,0.00107748,-0.00169558,0.00543827,0.000418201,-0.370835,0.00349446,0.0204583,1091,414,1.62198,172.662
-126,610,1.4259,-174.512,0.00669785,0.000179903,-0.000903029,0.00682065,5.71059e-05,-0.135154,0.00452818,0.0173954,1098,414,1.42586,174.512
-119,610,1.22156,-176.298,0.00881221,-0.000641749,-8.70546e-06,0.00881222,-0.000641757,-0.000920826,0.0061,0.0146439,1105,414,1.22162,176.298
-112,610,1.17944,-178.221,0.0109959,-0.00141375,0.000821048,0.01105,-0.00146784,0.06578,0.0079015,0.0249655,1112,414,1.17945,178.221
-105,610,0.964111,-179.945,0.0130724,-0.00217005,0.00143941,0.0132071,-0.00230479,0.0933352,0.00966503,0.0269802,1119,414,0.964109,179.945
-98,610,0.853882,-181.553,0.0152368,-0.00301637,0.00198527,0.0154502,-0.0032298,0.107095,0.0115286,0.0201417,1126,414,0.85383,181.553
-91,610,0.806641,-183.159,0.0174172,-0.00393753,0.00254858,0.0177171,-0.00423747,0.117153,0.0134483,0.0227842,1133,414,0.806666,183.159
-84,610,0.769287,-184.736,0.0194106,-0.00527644,0.00319254,0.0198168,-0.00568262,0.126547,0.0154576,0.0212942,1140,414,0.769292,184.736
-77,610,0.658325,-186.295,0.0213277,-0.00722354,0.00376528,0.0218159,-0.00771175,0.128941,0.0176842,0.0160047,1147,414,0.65827,186.295
-70,610,0.66333,-187.703,0.0234437,-0.00940191,0.00425863,0.0239868,-0.00994509,0.126862,0.020142,0.0205444,1154,414,0.663363,187.703
-63,610,0.738281,-189.015,0.0255922,-0.0119439,0.00462072,0.0261527,-0.0125043,0.1207,0.0227776,0.0259441,1161,414,0.738246,189.015
-56,610,0.774658,-190.308,0.0275906,-0.0143425,0.00478787,0.0281304,-0.0148822,0.112254,0.0252229,0.0250279,1168,414,0.774686,190.308
-49,610,0.867432,-191.663,0.0296006,-0.0166819,0.00499954,0.0301345,-0.0172158,0.106387,0.0276748,0.022208,1175,414,0.867438,191.663
-42,610,1.04346,-192.847,0.0314163,-0.018906,0.00522026,0.0319521,-0.0194418,0.102285,0.0299639,0.0183273,1182,414,1.04348,192.847
-35,610,1.20813,-193.969,0.0331437,-0.0207256,0.00532476,0.033665,-0.0212469,0.0975875,0.0319725,0.0208937,1189,414,1.20813,193.969
-28,610,1.28967,-194.999,0.034966,-0.022286,0.00528579,0.03545,-0.0227699,0.0912967,0.0338779,0.0203152,1196,414,1.2897,194.999
-21,610,1.49255,-195.893,0.0366053,-0.0235325,0.00523798,0.0370581,-0.0239854,0.0862344,0.0355118,0.0158978,1203,414,1.49255,195.893
-14,610,1.70728,-196.776,0.0381425,-0.023943,0.00507021,0.0385538,-0.0243544,0.0809503,0.0366271,0.0171823,1210,414,1.70729,196.776
-7,610,1.92688,-197.624,0.0399476,-0.0240131,0.00487705,0.0403173,-0.0243828,0.0756677,0.0377304,0.0228266,1217,414,1.92686,197.624
0,610,2.15479,-198.474,0.0416783,-0.0236272,0.00468879,0.0420132,-0.0239621,0.0713103,0.0385632,0.0193551,1224,414,2.15483,198.474
7,610,2.42419,-199.24,0.0428624,-0.0234401,0.00435987,0.0431479,-0.0237256,0.0653819,0.0391485,0.0241095,1231,414,2.42422,199.24
14,610,2.76917,-199.918,0,0,0,0,0,0,0,-1,1238,414,2.76919,199.918
21,610,3.13,-200.52,0,0,0,0,0,0,0,-1,1245,414,3.12994,200.52
28,610,3.35852,-200.814,0,0,0,0,0,0,0,-1,1252,414,3.35856,200.814
35,610,3.49878,-201.382,0,0,0,0,0,0,0,-1,1259,414,3.49882,201.382
42,610,4.03503,-201.592,0,0,0,0,0,0,0,-1,1266,414,4.03505,201.592
49,610,4.32202,-201.869,0,0,0,0,0,0,0,-1,1273,414,4.32204,201.869
56,610,4.76892,-201.891,0.0518072,-0.016938,0.00142452,0.0518367,-0.0169675,0.0207099,0.0413896,0.0335044,1280,414,4.76892,201.891
63,610,5.06689,-202.056,0.0523934,-0.0167979,0.000681291,0.0524001,-0.0168046,0.00984521,0.0416799,0.0468086,1287,414,5.06689,202.056
70,610,5.28162,-202.05,0,0,0,0,0,0,0,-1,1294,414,5.28158,202.05
77,610,6.12439,-201.862,0,0,0,0,0,0,0,-1,1301,414,6.12433,201.862
84,610,6.28394,-201.729,0,0,0,0,0,0,0,-1,1308,414,6.28389,201.729
91,610,6.38135,-201.618,0.0520132,-0.0175108,-0.00317849,0.0521582,-0.0176558,-0.0455911,0.0419158,0.0424383,1315,414,6.38131,201.618
98,610,6.86243,-201.329,0.0509626,-0.017474,-0.00412413,0.0512102,-0.0177216,-0.0599727,0.0413337,0.0363883,1322,414,6.86245,201.329
105,610,7.4458,-200.8,0.0501405,-0.0176405,-0.00494256,0.050499,-0.017999,-0.0724091,0.0410043,0.0278274,1329,414,7.44586,200.8
112,610,7.76465,-200.259,0.0494366,-0.017928,-0.00574062,0.0499223,-0.0184137,-0.0844062,0.0408278,0.0197425,1336,414,7.76466,200.259
119,610,7.94812,-199.774,0.0482164,-0.0184542,-0.00632006,0.0488102,-0.0190481,-0.0936833,0.0404145,0.032489,1343,414,7.94817,199.774
126,610,8.27087,-199.129,0.0464794,-0.0188291,-0.00653548,0.0471269,-0.0194767,-0.098766,0.0395427,0.0496287,1350,414,8.2709,199.129
133,610,8.47437,-198.438,0.0447421,-0.0188507,-0.00653161,0.045406,-0.0195146,-0.101301,0.0384627,0.0376187,1357,414,8.47434,198.438
140,610,8.83325,-197.666,0.0430712,-0.0186661,-0.00636986,0.0437216,-0.0193164,-0.101749,0.0372931,0.0370157,1364,414,8.83321,197.666
147,610,8.95105,-196.738,0.0411644,-0.0185699,-0.00650506,0.0418646,-0.0192701,-0.107225,0.0360907,0.0386904,1371,414,8.95107,196.738
154,610,9.19458,-195.807,0.0388395,-0.0178356,-0.00637426,0.0395476,-0.0185436,-0.110629,0.0342619,0.0369025,1378,414,9.19454,195.807
161,610,9.50757,-194.77,0.0362588,-0.0160094,-0.00571783,0.036877,-0.0166276,-0.107697,0.0316197,0.0351028,1385,414,9.5076,194.77
168,610,9.67053,-193.65,0.034295,-0.0138926,-0.00485827,0.0347799,-0.0143775,-0.0994858,0.0291845,0.0309465,1392,414,9.67049,193.65
175,610,9.74963,-192.547,0.0325415,-0.0117759,-0.00432233,0.0329591,-0.0121935,-0.0963219,0.0269722,0.0253984,1399,414,9.74968,192.547
182,610,9.88538,-191.361,0.0299147,-0.00923855,-0.00379617,0.0302794,-0.00960321,-0.0957681,0.0240356,0.019558,1406,414,9.88542,191.361
189,610,9.91748,-189.995,0.0270127,-0.00679633,-0.00345918,0.027363,-0.00714663,-0.100922,0.0210329,0.0178068,1413,414,9.91746,189.995
196,610,10.0004,-188.635,0.0245069,-0.00470883,-0.00305376,0.0248227,-0.00502462,-0.103041,0.0184528,0.0190554,1420,414,10.0004,188.635
203,610,10.053,-187.229,0.022168,-0.00268138,-0.00260911,0.022439,-0.00295238,-0.103493,0.0160343,0.0225346,1427,414,10.0529,187.229
210,610,9.94617,-185.796,0.0196267,-0.000694477,-0.00201482,0.0198245,-0.000892318,-0.0978794,0.0135236,0.0158743,1434,414,9.94616,185.796
217,610,9.90247,-184.084,0.0173863,0.000976394,-0.00142563,0.0175093,0.000853463,-0.0860173,0.011399,0.0203914,1441,414,9.90248,184.084
224,610,9.86475,-182.482,0.015546,0.00227746,-0.000854459,0.0156008,0.00222266,-0.0640448,0.00974451,0.0238027,1448,414,9.86479,182.482
231,610,9.82825,-180.881,0.0138355,0.00353651,-7.73704e-05,0.0138361,0.00353593,-0.00751183,0.0083004,0.0197797,1455,414,9.82819,180.881
238,610,9.70801,-179.138,0.0120893,0.00447929,0.00069481,0.0121522,0.00441638,0.090307,0.00710281,0.0154548,1462,414,9.70801,179.138
245,610,9.6123,-177.344,0.0103177,0.00531574,0.00141985,0.0106927,0.00494081,0.25817,0.00617934,0.0155584,1469,414,9.61233,177.344
252,610,9.34448,-175.478,0.00846069,0.0063731,0.00230321,0.00994559,0.0048882,0.572646,0.00574237,0.0155324,1476,414,9.3445,175.478
259,610,9.15662,-173.561,0.00667117,0.00710448,0.00312806,0.0100234,0.00375227,0.819974,0.00584759,0.0139241,1483,414,9.15659,173.561
266,610,8.93433,-171.622,0.00499066,0.00762695,0.00378717,0.0103188,0.0022988,0.952869,0.00625536,0.015305,1490,414,8.93437,171.622
273,610,8.68652,-169.636,0.00327348,0.00812465,0.00440339,0.0107263,0.00067181,1.03714,0.00693779,0.0131738,1497,414,8.68655,169.636
280,610,8.39221,-167.576,0.00156336,0.00849452,0.00499591,0.0111092,-0.0010513,1.08864,0.00778027,0.012808,1504,414,8.39219,167.576
287,610,8.04553,-165.431,-6.81624e-05,0.00865214,0.00555452,0.0113534,-0.00276943,1.11815,0.0086413,0.0154015,1511,414,8.04553,165.431
294,610,7.73633,-163.345,-0.00161182,0.00874803,0.00612712,0.0115914,-0.00445519,1.13631,0.00956501,0.0123668,1518,414,7.73629,163.345
301,610,7.43274,-161.293,-0.00293255,0.00873861,0.00672117,0.011804,-0.00599798,1.14289,0.0104586,0.0123157,1525,414,7.43279,161.293
308,610,7.02905,-159.099,-0.00395306,0.00927883,0.00758915,0.0127309,-0.00740518,1.1439,0.0117604,0.0153748,1532,414,7.02911,159.099
315,610,6.62292,-156.902,-0.00459943,0.0107324,0.00905268,0.0149289,-0.00879595,1.13672,0.0138493,0.0181795,1539,414,6.62286,156.902
322,610,6.21375,-154.523,-0.0051014,0.0120069,0.0104572,0.016963,-0.0100575,1.12821,0.0157692,0.0186522,1546,414,6.21374,154.523
329,610,5.79419,-152.226,-0.00525111,0.0137112,0.0121052,0.0196062,-0.0111461,1.11761,0.0179775,0.0363443,1553,414,5.79421,152.226
336,610,5.37659,-149.949,0,0,0,0,0,0,0,-1,1560,414,5.37665,149.949
343,610,4.9187,-147.546,0,0,0,0,0,0,0,-1,1567,414,4.91874,147.546
350,610,4.35962,-145.097,0,0,0,0,0,0,0,-1,1574,414,4.35956,145.097
357,610,3.99524,-142.438,0,0,0,0,0,0,0,-1,1581,414,3.99525,142.438
364,610,3.75024,-138.973,0,0,0,0,0,0,0,-1,1588,414,3.75029,138.973
371,610,3.67285,-135.939,0,0,0,0,0,0,0,-1,1595,414,3.67285,135.939
378,610,10.524,-62.0682,0,0,0,0,0,0,0,-1,1602,414,10.524,62.0682
385,610,9.28003,-47.0623,0,0,0,0,0,0,0,-1,1609,414,9.28002,47.0623
392,610,1.99744,-1.83582,0,0,0,0,0,0,0,-1,1616,414,1.99741,1.8358
399,610,2.77136,-2.60333,0,0,0,0,0,0,0,-1,1623,414,2.77133,2.60332
406,610,7.03125,-48.9078,0,0,0,0,0,0,0,-1,1630,414,7.03126,48.9078
413,610,7.7926,-49.6027,0,0,0,0,0,0,0,-1,1637,414,7.79259,49.6027
420,610,7.58374,-49.1523,0,0,0,0,0,0,0,-1,1644,414,7.58375,49.1523
427,610,7.52539,-48.6574,0,0,0,0,0,0,0,-1,1651,414,7.52544,48.6574
434,610,8.73706,-22.6227,0,0,0,0,0,0,0,-1,1658,414,8.73703,22.6227
441,610,0,0,0,0,0,0,0,0,0,-1,1665,414,0,0
448,610,0,0,0,0,0,0,0,0,0,-1,1672,414,0,0
455,610,0,0,0,0,0,0,0,0,0,-1,1679,414,0,0
462,610,0,0,0,0,0,0,0,0,0,-1,1686,414,0,0
469,610,0,0,0,0,0,0,0,0,0,-1,1693,414,0,0
476,610,0,0,0,0,0,0,0,0,0,-1,1700,414,0,0
483,610,0,0,0,0,0,0,0,0,0,-1,1707,414,0,0
490,610,0,0,0,0,0,0,0,0,0,-1,1714,414,0,0
497,610,0,0,0,0,0,0,0,0,0,-1,1721,414,0,0
504,610,0,0,0,0,0,0,0,0,0,-1,1728,414,0,0
511,610,0,0,0,0,0,0,0,0,0,-1,1735,414,0,0
518,610,0,0,0,0,0,0,0,0,0,-1,1742,414,0,0
525,610,0,0,0,0,0,0,0,0,0,-1,1749,414,0,0
532,610,0,0,0,0,0,0,0,0,0,-1,1756,414,0,0
539,610,0,0,0,0,0,0,0,0,0,-1,1763,414,0,0
546,610,0,0,0,0,0,0,0,0,0,-1,1770,414,0,0
553,610,0,0,0,0,0,0,0,0,0,-1,1777,414,0,0
560,610,0,0,0,0,0,0,0,0,0,-1,1784,414,0,0
567,610,0,0,0,0,0,0,0,0,0,-1,1791,414,0,0
574,610,0,0,0,0,0,0,0,0,0,-1,1798,414,0,0
581,610,0,0,0,0,0,0,0,0,0,-1,1805,414,0,0
588,610,0,0,0,0,0,0,0,0,0,-1,1812,414,0,0
595,610,0,0,0,0,0,0,0,0,0,-1,1819,414,0,0
602,610,0,0,0,0,0,0,0,0,0,-1,1826,414,0,0
609,610,0,0,0,0,0,0,0,0,0,-1,1833,414,0,0
616,610,0,0,0,0,0,0,0,0,0,-1,1840,414,0,0
623,610,0,0,0,0,0,0,0,0,0,-1,1847,414,0,0
630,610,0,0,0,0,0,0,0,0,0,-1,1854,414,0,0
637,610,0,0,0,0,0,0,0,0,0,-1,1861,414,0,0
644,610,0,0,0,0,0,0,0,0,0,-1,1868,414,0,0
651,610,0,0,0,0,0,0,0,0,0,-1,1875,414,0,0
658,610,0,0,0,0,0,0,0,0,0,-1,1882,414,0,0
665,610,0,0,0,0,0,0,0,0,0,-1,1889,414,0,0
672,610,0,0,0,0,0,0,0,0,0,-1,1896,414,0,0
679,610,0,0,0,0,0,0,0,0,0,-1,1903,414,0,0
686,610,0,0,0,0,0,0,0,0,0,-1,1910,414,0,0
693,610,0,0,0,0,0,0,0,0,0,-1,1917,414,0,0
700,610,0,0,0,0,0,0,0,0,0,-1,1924,414,0,0
707,610,0,0,0,0,0,0,0,0,0,-1,1931,414,0,0
714,610,0,0,0,0,0,0,0,0,0,-1,1938,414,0,0
721,610,0,0,0,0,0,0,0,0,0,-1,1945,414,0,0
728,610,0,0,0,0,0,0,0,0,0,-1,1952,414,0,0
735,610,0,0,0,0,0,0,0,0,0,-1,1959,414,0,0
742,610,0,0,0,0,0,0,0,0,0,-1,1966,414,0,0
749,610,0,0,0,0,0,0,0,0,0,-1,1973,414,0,0
756,610,0,0,0,0,0,0,0,0,0,-1,1980,414,0,0
763,610,0,0,0,0,0,0,0,0,0,-1,1987,414,0,0
770,610,0,0,0,0,0,0,0,0,0,-1,1994,414,0,0
777,610,0,0,0,0,0,0,0,0,0,-1,2001,414,0,0
784,610,0,0,0,0,0,0,0,0,0,-1,2008,414,0,0
791,610,0,0,0,0,0,0,0,0,0,-1,2015,414,0,0
798,610,0,0,0,0,0,0,0,0,0,-1,2022,414,0,0
805,610,0,0,0,0,0,0,0,0,0,-1,2029,414,0,0
812,610,0,0,0,0,0,0,0,0,0,-1,2036,414,0,0
-700,603,0,0,0,0,0,0,0,0,0,-1,524,421,0,0
-693,603,0,0,0,0,0,0,0,0,0,-1,531,421,0,0
-686,603,0,0,0,0,0,0,0,0,0,-1,538,421,0,0
-679,603,0,0,0,0,0,0,0,0,0,-1,545,421,0,0
-672,603,0,0,0,0,0,0,0,0,0,-1,552,421,0,0
-665,603,0,0,0,0,0,0,0,0,0,-1,559,421,0,0
-658,603,0,0,0,0,0,0,0,0,0,-1,566,421,0,0
-651,603,0,0,0,0,0,0,0,0,0,-1,573,421,0,0
-644,603,0,0,0,0,0,0,0,0,0,-1,580,421,0,0
-637,603,0,0,0,0,0,0,0,0,0,-1,587,421,0,0
-630,603,0,0,0,0,0,0,0,0,0,-1,594,421,0,0
-623,603,0,0,0,0,0,0,0,0,0,-1,601,421,0,0
-616,603,0,0,0,0,0,0,0,0,0,-1,608,421,0,0
-609,603,0,0,0,0,0,0,0,0,0,-1,615,421,0,0
-602,603,0,0,0,0,0,0,0,0,0,-1,622,421,0,0
-595,603,0,0,0,0,0,0,0,0,0,-1,629,421,0,0
-588,603,0,0,0,0,0,0,0,0,0,-1,636,421,0,0
-581,603,0,0,0,0,0,0,0,0,0,-1,643,421,0,0
-574,603,0,0,0,0,0,0,0,0,0,-1,650,421,0,0
-567,603,0,0,0,0,0,0,0,0,0,-1,657,421,0,0
-560,603,0,0,0,0,0,0,0,0,0,-1,664,421,0,0
-553,603,0,0,0,0,0,0,0,0,0,-1,671,421,0,0
-546,603,0,0,0,0,0,0,0,0,0,-1,678,421,0,0
-539,603,0,0,0,0,0,0,0,0,0,-1,685,421,0,0
-532,603,0,0,0,0,0,0,0,0,0,-1,692,421,0,0
-525,603,0,0,0,0,0,0,0,0,0,-1,699,421,0,0
-518,603,0,0,0,0,0,0,0,0,0,-1,706,421,0,0
-511,603,0,0,0,0,0,0,0,0,0,-1,713,421,0,0
-504,603,0,0,0,0,0,0,0,0,0,-1,720,421,0,0
-497,603,0,0,0,0,0,0,0,0,0,-1,727,421,0,0
-490,603,0,0,0,0,0,0,0,0,0,-1,734,421,0,0
-483,603,0,0,0,0,0,0,0,0,0,-1,741,421,0,0
-476,603,0,0,0,0,0,0,0,0,0,-1,748,421,0,0
-469,603,0,0,0,0,0,0,0,0,0,-1,755,421,0,0
-462,603,0,0,0,0,0,0,0,0,0,-1,762,421,0,0
-455,603,0,0,0,0,0,0,0,0,0,-1,769,421,0,0
-448,603,0,0,0,0,0,0,0,0,0,-1,776,421,0,0
-441,603,0,0,0,0,0,0,0,0,0,-1,783,421,0,0
-434,603,0,0,0,0,0,0,0,0,0,-1,790,421,0,0
-427,603,0,0,0,0,0,0,0,0,0,-1,797,421,0,0
-420,603,0,0,0,0,0,0,0,0,0,-1,804,421,0,0
-413,603,0,0,0,0,0,0,0,0,0,-1,811,421,0,0
-406,603,0,0,0,0,0,0,0,0,0,-1,818,421,0,0
-399,603,0,0,0,0,0,0,0,0,0,-1,825,421,0,0
-392,603,0,0,0,0,0,0,0,0,0,-1,832,421,0,0
-385,603,0,0,0,0,0,0,0,0,0,-1,839,421,0,0
-378,603,0,0,0,0,0,0,0,0,0,-1,846,421,0,0
-371,603,0,0,0,0,0,0,0,0,0,-1,853,421,0,0
-364,603,0,0,0,0,0,0,0,0,0,-1,860,421,0,0
-357,603,0,0,0,0,0,0,0,0,0,-1,867,421,0,0
-350,603,0,0,0,0,0,0,0,0,0,-1,874,421,0,0
-343,603,0,0,0,0,0,0,0,0,0,-1,881,421,0,0
-336,603,0,0,0,0,0,0,0,0,0,-1,888,421,0,0
-329,603,4.09686,-17.9702,0,0,0,0,0,0,0,-1,895,421,4.09687,17.9702
-322,603,8.83179,-28.7376,0,0,0,0,0,0,0,-1,902,421,8.83179,28.7376
-315,603,5.99744,-20.4501,0,0,0,0,0,0,0,-1,909,421,5.99745,20.4501
-308,603,5.92249,-20.778,0,0,0,0,0,0,0,-1,916,421,5.92248,20.778
-301,603,2.72424,-20.9059,0,0,0,0,0,0,0,-1,923,421,2.72424,20.9059
-294,603,2.41553,-20.6767,0,0,0,0,0,0,0,-1,930,421,2.41554,20.6767
-287,603,1.91766,-21.2242,0,0,0,0,0,0,0,-1,937,421,1.91767,21.2242
-280,603,2.36121,-27.3314,0,0,0,0,0,0,0,-1,944,421,2.36119,27.3314
-273,603,7.96613,-34.8225,0,0,0,0,0,0,0,-1,951,421,7.96613,34.8225
-266,603,7.18787,-34.9736,0,0,0,0,0,0,0,-1,958,421,7.18788,34.9736
-259,603,5.44666,-36.8901,0,0,0,0,0,0,0,-1,965,421,5.44664,36.8901
-252,603,7.27246,-79.9079,0,0,0,0,0,0,0,-1,972,421,7.27246,79.9079
-245,603,5.7829,-135.403,0,0,0,0,0,0,0,-1,979,421,5.78292,135.403
-238,603,5.30121,-138.574,0,0,0,0,0,0,0,-1,986,421,5.30118,138.574
-231,603,4.75714,-141.324,0,0,0,0,0,0,0,-1,993,421,4.75715,141.324
-224,603,4.26276,-143.67,-0.0018862,0.0211139,-0.0173519,0.0304307,-0.011203,-1.07804,0.024877,0.0386514,1000,421,4.26276,143.67
-217,603,3.80121,-146.111,-0.0021217,0.0175476,-0.0149598,0.025616,-0.01019,-1.07618,0.0213025,0.0289636,1007,421,3.80118,146.111
-210,603,3.33911,-148.574,-0.00198318,0.0145424,-0.0128905,0.021591,-0.00903178,-1.07041,0.018169,0.0200154,1014,421,3.33911,148.574
-203,603,2.96271,-151.088,-0.00195482,0.0116659,-0.0107259,0.0175609,-0.00784981,-1.06826,0.0150237,0.0217743,1021,421,2.96272,151.088
-196,603,2.55566,-153.381,-0.001678,0.00967001,-0.00906598,0.0146912,-0.00669915,-1.06501,0.0126338,0.0260809,1028,421,2.55569,153.381
-189,603,2.17822,-155.573,-0.00122128,0.0073503,-0.00744786,0.0116575,-0.00552843,-1.04648,0.0101304,0.0218487,1035,421,2.17824,155.573
-182,603,1.76477,-157.759,-0.00042917,0.00572426,-0.00610227,0.00948157,-0.00418647,-1.0189,0.00808623,0.0167827,1042,421,1.76481,157.759
-175,603,1.41162,-159.982,0.000647179,0.00421552,-0.00487236,0.0076201,-0.0027574,-0.960907,0.00620684,0.0159638,1049,421,1.41158,159.982
-168,603,1.0459,-162.162,0.00192978,0.00250581,-0.00372132,0.00595025,-0.00151466,-0.824019,0.00455642,0.0173957,1056,421,1.04595,162.162
-161,603,0.695313,-164.321,0.00336063,0.00105331,-0.00262217,0.00507171,-0.000657765,-0.57816,0.00362037,0.01835,1063,421,0.695372,164.321
-154,603,0.440674,-166.401,0.0049622,-0.000203178,-0.00155104,0.00539215,-0.000633128,-0.270412,0.00382332,0.0187854,1070,421,0.440671,166.401
-147,603,0.165649,-168.419,0.00688218,-0.00120696,-0.000647496,0.00693368,-0.00125846,-0.0793716,0.00509403,0.0201761,1077,421,0.165662,168.419
-140,603,-0.0294189,-170.436,0.00895295,-0.00227948,0.000196805,0.0089564,-0.00228293,0.017514,0.00685972,0.0177087,1084,421,-0.0294137,170.436
-133,603,-0.286499,-172.401,0.011108,-0.00324495,0.00100764,0.0111783,-0.00331535,0.0697489,0.00876881,0.0175379,1091,421,-0.28649,172.401
-126,603,-0.438599,-174.257,0.0132962,-0.00409456,0.00171667,0.013464,-0.0042624,0.0974585,0.0106841,0.0146451,1098,421,-0.438557,174.257
-119,603,-0.564087,-176.044,0.0156291,-0.004794,0.00258071,0.0159502,-0.00511506,0.123771,0.012687,0.0140635,1105,421,-0.564129,176.044
-112,603,-0.675415,-177.856,0.018065,-0.00546205,0.00341,0.0185493,-0.00594632,0.141073,0.0147533,0.0213286,1112,421,-0.675399,177.856
-105,603,-0.756592,-179.576,0.0204221,-0.00617308,0.00396674,0.0210011,-0.00675212,0.144951,0.0167125,0.0226688,1119,421,-0.756646,179.576
-98,603,-0.849976,-181.209,0.0228383,-0.00698714,0.0044467,0.0234872,-0.00763599,0.144894,0.0187297,0.0197517,1126,421,-0.849915,181.209
-91,603,-0.839966,-182.88,0.025215,-0.00798345,0.00493922,0.0259343,-0.00870272,0.144607,0.0208062,0.0165296,1133,421,-0.83998,182.88
-84,603,-0.822144,-184.459,0.0273242,-0.00963509,0.00560861,0.0281565,-0.0104675,0.147333,0.0230659,0.0182484,1140,421,-0.822144,184.459
-77,603,-0.742432,-186.073,0.0293988,-0.012115,0.00621615,0.0303096,-0.0130258,0.145487,0.0256745,0.026178,1147,421,-0.742438,186.073
-70,603,-0.779541,-187.701,0,0,0,0,0,0,0,-1,1154,421,-0.779577,187.701
-63,603,-0.790894,-188.756,0,0,0,0,0,0,0,-1,1161,421,-0.790839,188.756
-56,603,-0.650635,-190.033,0,0,0,0,0,0,0,-1,1168,421,-0.650577,190.033
-49,603,-0.41687,-191.35,0,0,0,0,0,0,0,-1,1175,421,-0.416812,191.35
-42,603,-0.168213,-192.537,0,0,0,0,0,0,0,-1,1182,421,-0.168213,192.537
-35,603,0.0479736,-193.62,0.0424477,-0.0286371,0.00741811,0.0432135,-0.029403,0.102879,0.0421772,0.0484595,1189,421,0.0479584,193.62
-28,603,0.231079,-194.58,0.0444078,-0.0303595,0.00722798,0.0451001,-0.0310518,0.0954948,0.044215,0.0448087,1196,421,0.231094,194.58
-21,603,0.503174,-195.555,0.0461608,-0.0317216,0.00702318,0.0467891,-0.0323498,0.0892176,0.0459437,0.039685,1203,421,0.503171,195.555
-14,603,0.874023,-196.456,0.0478773,-0.0320121,0.00656848,0.0484138,-0.0325485,0.0814904,0.0470418,0.0345011,1210,421,0.874072,196.456
-7,603,1.10962,-197.402,0.0498624,-0.0317217,0.00606538,0.0503108,-0.0321702,0.0738044,0.0480028,0.0433851,1217,421,1.10963,197.402
0,603,1.31934,-198.351,0,0,0,0,0,0,0,-1,1224,421,1.3193,198.351
7,603,1.60608,-198.968,0,0,0,0,0,0,0,-1,1231,421,1.60607,198.968
14,603,2.56946,-197.505,0,0,0,0,0,0,0,-1,1238,421,2.56948,197.505
21,603,5.52307,-163.137,0,0,0,0,0,0,0,-1,1245,421,5.52303,163.137
28,603,3.05383,-200.311,0,0,0,0,0,0,0,-1,1252,421,3.05389,200.311
35,603,5.85022,-174.212,0,0,0,0,0,0,0,-1,1259,421,5.85019,174.212
42,603,4.79321,-192.323,0,0,0,0,0,0,0,-1,1266,421,4.79323,192.323
49,603,4.88855,-192.749,0,0,0,0,0,0,0,-1,1273,421,4.88858,192.749
56,603,4.48206,-201.178,0,0,0,0,0,0,0,-1,1280,421,4.48201,201.178
63,603,4.91846,-201.845,0,0,0,0,0,0,0,-1,1287,421,4.91845,201.845
70,603,4.71472,-114.113,0,0,0,0,0,0,0,-1,1294,421,4.71472,114.113
77,603,5.66687,-94.825,0,0,0,0,0,0,0,-1,1301,421,5.66683,94.825
84,603,9.05786,-106.929,0,0,0,0,0,0,0,-1,1308,421,9.05781,106.929
91,603,6.39722,-201.76,0,0,0,0,0,0,0,-1,1315,421,6.39717,201.76
98,603,7.14709,-201.564,0,0,0,0,0,0,0,-1,1322,421,7.14712,201.564
105,603,8.09753,-200.76,0,0,0,0,0,0,0,-1,1329,421,8.09751,200.76
112,603,8.40222,-199.92,0,0,0,0,0,0,0,-1,1336,421,8.40228,199.92
119,603,8.70215,-199.409,0,0,0,0,0,0,0,-1,1343,421,8.70209,199.409
126,603,9.62488,-198.509,0,0,0,0,0,0,0,-1,1350,421,9.62493,198.509
133,603,9.47461,-198.097,0,0,0,0,0,0,0,-1,1357,421,9.47463,198.097
140,603,10.1425,-197.367,0,0,0,0,0,0,0,-1,1364,421,10.1424,197.367
147,603,10.1693,-196.354,0,0,0,0,0,0,0,-1,1371,421,10.1693,196.354
154,603,10.1354,-195.458,0,0,0,0,0,0,0,-1,1378,421,10.1354,195.458
161,603,10.5115,-194.332,0,0,0,0,0,0,0,-1,1385,421,10.5114,194.332
168,603,10.6938,-193.292,0,0,0,0,0,0,0,-1,1392,421,10.6939,193.292
175,603,10.8804,-192.247,0,0,0,0,0,0,0,-1,1399,421,10.8804,192.247
182,603,11.1599,-191.165,0,0,0,0,0,0,0,-1,1406,421,11.16,191.165
189,603,11.2543,-189.77,0,0,0,0,0,0,0,-1,1413,421,11.2543,189.77
196,603,11.3995,-188.291,0.0326991,-0.0101994,-0.00566923,0.0334357,-0.0109359,-0.1292,0.0266932,0.0365188,1420,421,11.3995,188.291
203,603,11.5575,-187.022,0.0300369,-0.00784091,-0.00532163,0.0307704,-0.00857437,-0.136963,0.0238902,0.0222363,1427,421,11.5575,187.022
210,603,11.5056,-185.743,0.0270071,-0.00550203,-0.00477169,0.027693,-0.00618795,-0.142769,0.0208333,0.020474,1434,421,11.5056,185.743
217,603,11.4171,-184.039,0.0243795,-0.00357987,-0.00422807,0.0250049,-0.00420526,-0.146848,0.0182341,0.017994,1441,421,11.4171,184.039
224,603,11.5781,-182.294,0.0222978,-0.00212829,-0.00371842,0.0228513,-0.00268181,-0.147773,0.0162023,0.0223646,1448,421,11.5781,182.294
231,603,11.5879,-180.628,0.0203605,-0.000629825,-0.00283321,0.0207362,-0.00100552,-0.131834,0.0141712,0.0185579,1455,421,11.5879,180.628
238,603,11.4985,-178.904,0.0183914,0.000450125,-0.00195002,0.0186009,0.000240625,-0.107024,0.0123212,0.0156205,1462,421,11.4985,178.904
245,603,11.408,-177.117,0.0164499,0.00143987,-0.00110701,0.0165311,0.00135866,-0.0732239,0.0105969,0.0149286,1469,421,11.408,177.117
252,603,11.2739,-175.231,0.014366,0.00281895,-7.46044e-05,0.0143665,0.00281847,-0.00646054,0.0087901,0.0114921,1476,421,11.2739,175.231
259,603,11.0808,-173.322,0.0124294,0.00379591,0.000872741,0.0125168,0.00370857,0.099743,0.0074238,0.0120689,1483,421,11.0808,173.322
266,603,10.8662,-171.395,0.0105713,0.00458857,0.00160377,0.0109741,0.00418577,0.246068,0.00639502,0.0145044,1490,421,10.8662,171.395
273,603,10.6879,-169.407,0.008613,0.0054194,0.00226109,0.00978428,0.00424811,0.477957,0.00566525,0.013172,1497,421,10.6878,169.407
280,603,10.4609,-167.35,0.00664774,0.00615774,0.00298219,0.00939498,0.0034105,0.744412,0.00549163,0.0145132,1504,421,10.461,167.35
287,603,10.1372,-165.188,0.004838,0.00663989,0.00365985,0.00950805,0.00196983,0.906084,0.00579479,0.0138156,1511,421,10.1372,165.188
294,603,9.82947,-163.086,0.00309534,0.00700972,0.0042688,0.00974862,0.00035644,1.00034,0.00638359,0.0115162,1518,421,9.82946,163.086
301,603,9.5376,-160.992,0.00153174,0.00722296,0.00485779,0.0100072,-0.00125254,1.05035,0.0071258,0.0138189,1525,421,9.53758,160.992
308,603,9.18152,-158.765,0.000217553,0.00770607,0.0056314,0.0107244,-0.00280074,1.07878,0.00824331,0.0193611,1532,421,9.18151,158.765
315,603,8.81592,-156.541,-0.000788958,0.00882534,0.0068433,0.0123812,-0.00434479,1.09159,0.0100214,0.0188215,1539,421,8.81594,156.541
322,603,8.41626,-154.26,-0.00163222,0.00983884,0.0080558,0.0139923,-0.00578568,1.09476,0.0117419,0.0192312,1546,421,8.4163,154.26
329,603,7.99365,-151.944,-0.0021632,0.0111708,0.00949013,0.0161017,-0.00709412,1.0916,0.0137246,0.0147908,1553,421,7.99364,151.944
336,603,7.61401,-149.689,-0.00251617,0.0130795,0.0112898,0.0190026,-0.0084393,1.08763,0.0162302,0.0129085,1560,421,7.61403,149.689
343,603,7.17065,-147.306,-0.00263549,0.0162632,0.0133232,0.0231478,-0.00952005,1.09385,0.0194001,0.0164256,1567,421,7.17071,147.306
350,603,6.6991,-144.875,-0.00239666,0.0207869,0.015828,0.0288139,-0.0104236,1.10146,0.0234685,0.0245102,1574,421,6.69909,144.875
357,603,6.22778,-142.362,-0.00227158,0.0252772,0.0182654,0.0343799,-0.0113742,1.10847,0.0275067,0.0274194,1581,421,6.22779,142.362
364,603,5.81152,-139.617,-0.00192628,0.0302147,0.0206995,0.0403498,-0.0120613,1.11548,0.0316947,0.0300483,1588,421,5.81152,139.617
371,603,5.37073,-136.831,0,0,0,0,0,0,0,-1,1595,421,5.37072,136.831
378,603,4.72986,-134.92,0,0,0,0,0,0,0,-1,1602,421,4.72984,134.92
385,603,10.1917,-79.6275,0,0,0,0,0,0,0,-1,1609,421,10.1917,79.6275
392,603,9.09521,-64.8771,0,0,0,0,0,0,0,-1,1616,421,9.09525,64.8771
399,603,8.90503,-65.8219,0,0,0,0,0,0,0,-1,1623,421,8.905,65.8219
406,603,10.679,-50.994,0,0,0,0,0,0,0,-1,1630,421,10.6789,50.994
413,603,7.74963,-48.7354,0,0,0,0,0,0,0,-1,1637,421,7.74968,48.7354
420,603,10.0659,-47.2677,0,0,0,0,0,0,0,-1,1644,421,10.0659,47.2677
427,603,10.1735,-46.1418,0,0,0,0,0,0,0,-1,1651,421,10.1735,46.1418
434,603,8.01489,-22.5655,0,0,0,0,0,0,0,-1,1658,421,8.01493,22.5655
441,603,8.00122,-22.3072,0,0,0,0,0,0,0,-1,1665,421,8.00116,22.3071
448,603,1.14355,-4.59842,0,0,0,0,0,0,0,-1,1672,421,1.14355,4.59841
455,603,0,0,0,0,0,0,0,0,0,-1,1679,421,0,0
462,603,0,0,0,0,0,0,0,0,0,-1,1686,421,0,0
469,603,0,0,0,0,0,0,0,0,0,-1,1693,421,0,0
476,603,0,0,0,0,0,0,0,0,0,-1,1700,421,0,0
483,603,0,0,0,0,0,0,0,0,0,-1,1707,421,0,0
490,603,0,0,0,0,0,0,0,0,0,-1,1714,421,0,0
497,603,0,0,0,0,0,0,0,0,0,-1,1721,421,0,0
504,603,0,0,0,0,0,0,0,0,0,-1,1728,421,0,0
511,603,0,0,0,0,0,0,0,0,0,-1,1735,421,0,0
518,603,0,0,0,0,0,0,0,0,0,-1,1742,421,0,0
525,603,0,0,0,0,0,0,0,0,0,-1,1749,421,0,0
532,603,0,0,0,0,0,0,0,0,0,-1,1756,421,0,0
539,603,0,0,0,0,0,0,0,0,0,-1,1763,421,0,0
546,603,0,0,0,0,0,0,0,0,0,-1,1770,421,0,0
553,603,0,0,0,0,0,0,0,0,0,-1,1777,421,0,0
560,603,0,0,0,0,0,0,0,0,0,-1,1784,421,0,0
567,603,0,0,0,0,0,0,0,0,0,-1,1791,421,0,0
574,603,0,0,0,0,0,0,0,0,0,-1,1798,421,0,0
581,603,0,0,0,0,0,0,0,0,0,-1,1805,421,0,0
588,603,0,0,0,0,0,0,0,0,0,-1,1812,421,0,0
595,603,0,0,0,0,0,0,0,0,0,-1,1819,421,0,0
602,603,0,0,0,0,0,0,0,0,0,-1,1826,421,0,0
609,603,0,0,0,0,0,0,0,0,0,-1,1833,421,0,0
616,603,0,0,0,0,0,0,0,0,0,-1,1840,421,0,0
623,603,0,0,0,0,0,0,0,0,0,-1,1847,421,0,0
630,603,0,0,0,0,0,0,0,0,0,-1,1854,421,0,0
637,603,0,0,0,0,0,0,0,0,0,-1,1861,421,0,0
644,603,0,0,0,0,0,0,0,0,0,-1,1868,421,0,0
651,603,0,0,0,0,0,0,0,0,0,-1,1875,421,0,0
658,603,0,0,0,0,0,0,0,0,0,-1,1882,421,0,0
665,603,0,0,0,0,0,0,0,0,0,-1,1889,421,0,0
672,603,0,0,0,0,0,0,0,0,0,-1,1896,421,0,0
679,603,0,0,0,0,0,0,0,0,0,-1,1903,421,0,0
686,603,0,0,0,0,0,0,0,0,0,-1,1910,421,0,0
693,603,0,0,0,0,0,0,0,0,0,-1,1917,421,0,0
700,603,0,0,0,0,0,0,0,0,0,-1,1924,421,0,0
707,603,0,0,0,0,0,0,0,0,0,-1,1931,421,0,0
714,603,0,0,0,0,0,0,0,0,0,-1,1938,421,0,0
721,603,0,0,0,0,0,0,0,0,0,-1,1945,421,0,0
728,603,0,0,0,0,0,0,0,0,0,-1,1952,421,0,0
735,603,0,0,0,0,0,0,0,0,0,-1,1959,421,0,0
742,603,0,0,0,0,0,0,0,0,0,-1,1966,421,0,0
749,603,0,0,0,0,0,0,0,0,0,-1,1973,421,0,0
756,603,0,0,0,0,0,0,0,0,0,-1,1980,421,0,0
763,603,0,0,0,0,0,0,0,0,0,-1,1987,421,0,0
770,603,0,0,0,0,0,0,0,0,0,-1,1994,421,0,0
777,603,0,0,0,0,0,0,0,0,0,-1,2001,421,0,0
784,603,0,0,0,0,0,0,0,0,0,-1,2008,421,0,0
791,603,0,0,0,0,0,0,0,0,0,-1,2015,421,0,0
798,603,0,0,0,0,0,0,0,0,0,-1,2022,421,0,0
805,603,0,0,0,0,0,0,0,0,0,-1,2029,421,0,0
812,603,0,0,0,0,0,0,0,0,0,-1,2036,421,0,0
-700,596,0,0,0,0,0,0,0,0,0,-1,524,428,0,0
-693,596,0,0,0,0,0,0,0,0,0,-1,531,428,0,0
-686,596,0,0,0,0,0,0,0,0,0,-1,538,428,0,0
-679,596,0,0,0,0,0,0,0,0,0,-1,545,428,0,0
-672,596,0,0,0,0,0,0,0,0,0,-1,552,428,0,0
-665,596,0,0,0,0,0,0,0,0,0,-1,559,428,0,0
-658,596,0,0,0,0,0,0,0,0,0,-1,566,428,0,0
-651,596,0,0,0,0,0,0,0,0,0,-1,573,428,0,0
-644,596,0,0,0,0,0,0,0,0,0,-1,580,428,0,0
-637,596,0,0,0,0,0,0,0,0,0,-1,587,428,0,0
-630,596,0,0,0,0,0,0,0,0,0,-1,594,428,0,0
-623,596,0,0,0,0,0,0,0,0,0,-1,601,428,0,0
-616,596,0,0,0,0,0,0,0,0,0,-1,608,428,0,0
-609,596,0,0,0,0,0,0,0,0,0,-1,615,428,0,0
-602,596,0,0,0,0,0,0,0,0,0,-1,622,428,0,0
-595,596,0,0,0,0,0,0,0,0,0,-1,629,428,0,0
-588,596,0,0,0,0,0,0,0,0,0,-1,636,428,0,0
-581,596,0,0,0,0,0,0,0,0,0,-1,643,428,0,0
-574,596,0,0,0,0,0,0,0,0,0,-1,650,428,0,0
-567,596,0,0,0,0,0,0,0,0,0,-1,657,428,0,0
-560,596,0,0,0,0,0,0,0,0,0,-1,664,428,0,0
-553,596,0,0,0,0,0,0,0,0,0,-1,671,428,0,0
-546,596,0,0,0,0,0,0,0,0,0,-1,678,428,0,0
-539,596,0,0,0,0,0,0,0,0,0,-1,685,428,0,0
-532,596,0,0,0,0,0,0,0,0,0,-1,692,428,0,0
-525,596,0,0,0,0,0,0,0,0,0,-1,699,428,0,0
-518,596,0,0,0,0,0,0,0,0,0,-1,706,428,0,0
-511,596,0,0,0,0,0,0,0,0,0,-1,713,428,0,0
-504,596,0,0,0,0,0,0,0,0,0,-1,720,428,0,0
-497,596,0,0,0,0,0,0,0,0,0,-1,727,428,0,0
-490,596,0,0,0,0,0,0,0,0,0,-1,734,428,0,0
-483,596,0,0,0,0,0,0,0,0,0,-1,741,428,0,0
-476,596,0,0,0,0,0,0,0,0,0,-1,748,428,0,0
-469,596,0,0,0,0,0,0,0,0,0,-1,755,428,0,0
-462,596,0,0,0,0,0,0,0,0,0,-1,762,428,0,0
-455,596,0,0,0,0,0,0,0,0,0,-1,769,428,0,0
-448,596,0,0,0,0,0,0,0,0,0,-1,776,428,0,0
-441,596,0,0,0,0,0,0,0,0,0,-1,783,428,0,0
-434,596,0,0,0,0,0,0,0,0,0,-1,790,428,0,0
-427,596,0,0,0,0,0,0,0,0,0,-1,797,428,0,0
-420,596,0,0,0,0,0,0,0,0,0,-1,804,428,0,0
-413,596,0,0,0,0,0,0,0,0,0,-1,811,428,0,0
-406,596,0,0,0,0,0,0,0,0,0,-1,818,428,0,0
-399,596,0,0,0,0,0,0,0,0,0,-1,825,428,0,0
-392,596,0,0,0,0,0,0,0,0,0,-1,832,428,0,0
-385,596,0,0,0,0,0,0,0,0,0,-1,839,428,0,0
-378,596,0,0,0,0,0,0,0,0,0,-1,846,428,0,0
-371,596,0,0,0,0,0,0,0,0,0,-1,853,428,0,0
-364,596,0,0,0,0,0,0,0,0,0,-1,860,428,0,0
-357,596,0,0,0,0,0,0,0,0,0,-1,867,428,0,0
-350,596,0,0,0,0,0,0,0,0,0,-1,874,428,0,0
-343,596,0,0,0,0,0,0,0,0,0,-1,881,428,0,0
-336,596,6.81445,-30.5258,0,0,0,0,0,0,0,-1,888,428,6.81446,30.5258
-329,596,6.84772,-28.9253,0,0,0,0,0,0,0,-1,895,428,6.84773,28.9253
-322,596,6.97449,-27.9047,0,0,0,0,0,0,0,-1,902,428,6.97451,27.9047
-315,596,7.10132,-26.8841,0,0,0,0,0,0,0,-1,909,428,7.10129,26.8841
-308,596,0.254761,-20.841,0,0,0,0,0,0,0,-1,916,428,0.254731,20.841
-301,596,3.43213,-26.756,0,0,0,0,0,0,0,-1,923,428,3.43214,26.756
-294,596,4.1767,-27.6454,0,0,0,0,0,0,0,-1,930,428,4.17667,27.6454
-287,596,4.36041,-27.6119,0,0,0,0,0,0,0,-1,937,428,4.3604,27.6119
-280,596,5.96619,-42.5634,0,0,0,0,0,0,0,-1,944,428,5.96616,42.5634
-273,596,6.43732,-79.1028,0,0,0,0,0,0,0,-1,951,428,6.43729,79.1027
-266,596,5.98578,-80.1731,0,0,0,0,0,0,0,-1,958,428,5.98578,80.1731
-259,596,4.32721,-130.346,0,0,0,0,0,0,0,-1,965,428,4.32718,130.346
-252,596,3.95233,-133.431,0,0,0,0,0,0,0,-1,972,428,3.95232,133.431
-245,596,3.35071,-135.854,0.00117447,0.0273861,-0.0212203,0.0392215,-0.0106609,-1.06203,0.0303323,0.0390116,979,428,3.35068,135.854
-238,596,2.92212,-138.56,0.000511539,0.0228507,-0.018288,0.0331103,-0.00974808,-1.05954,0.0259408,0.0318723,986,428,2.9221,138.559
-231,596,2.39465,-141.129,0.00010456,0.0188142,-0.0155315,0.0275906,-0.00867182,-1.05646,0.0218653,0.0235966,993,428,2.39466,141.129
-224,596,1.95813,-143.578,-0.000168192,0.0150067,-0.0130121,0.0224819,-0.00764341,-1.04935,0.0180825,0.0184403,1000,428,1.95813,143.578
-217,596,1.49707,-145.934,-2.47006e-05,0.012044,-0.0109602,0.0185212,-0.00650195,-1.03704,0.0149924,0.0189172,1007,428,1.49707,145.934
-210,596,1.10394,-148.301,0.000423693,0.00948852,-0.00914545,0.0151631,-0.00525085,-1.01546,0.0122404,0.0169033,1014,428,1.10396,148.301
-203,596,0.706299,-150.694,0.000825951,0.00697837,-0.00724853,0.0117764,-0.00397211,-0.986076,0.00945726,0.0220581,1021,428,0.706326,150.694
-196,596,0.354004,-152.944,0.00149258,0.00513244,-0.00574614,0.00933997,-0.00271495,-0.938762,0.00730185,0.0222048,1028,428,0.35398,152.944
-189,596,-0.0560303,-155.227,0.00232134,0.00302195,-0.00430587,0.00699174,-0.00164845,-0.825987,0.00529685,0.0179381,1035,428,-0.0560167,155.227
-182,596,-0.433228,-157.396,0.00346864,0.00139527,-0.00306667,0.00566911,-0.000805199,-0.622404,0.00407441,0.0164501,1042,428,-0.433272,157.396
-175,596,-0.71521,-159.645,0.0049197,-0.000184182,-0.00190306,0.00555115,-0.00081564,-0.320381,0.00400046,0.0184579,1049,428,-0.715175,159.645
-168,596,-1.07227,-161.862,0.0065312,-0.00183844,-0.0008357,0.00661383,-0.00192106,-0.0985526,0.00516995,0.0220418,1056,428,-1.07232,161.862
-161,596,-1.38452,-164.001,0.00830338,-0.00330429,0.000220792,0.00830758,-0.00330849,0.019012,0.00691046,0.021429,1063,428,-1.38452,164.001
-154,596,-1.66187,-166.117,0.0102785,-0.00465176,0.0012831,0.010388,-0.00476123,0.085108,0.00894523,0.0203839,1070,428,-1.66183,166.117
-147,596,-1.79382,-168.045,0.012557,-0.00564263,0.00214107,0.0128055,-0.00589112,0.115542,0.0110378,0.0231627,1077,428,-1.79381,168.045
-140,596,-1.92676,-170.045,0.0149483,-0.00660999,0.00292698,0.0153386,-0.00700032,0.132574,0.0131935,0.0260025,1084,428,-1.92671,170.045
-133,596,-2.16821,-172.099,0.0173943,-0.00752124,0.00372617,0.0179396,-0.00806656,0.145317,0.0153711,0.0213618,1091,428,-2.16818,172.099
-126,596,-2.26233,-173.962,0.0198507,-0.00828893,0.00435876,0.0205104,-0.00894863,0.150209,0.0174394,0.0152014,1098,428,-2.26232,173.962
-119,596,-2.37659,-175.809,0.0224021,-0.00884528,0.00519363,0.0232427,-0.0096859,0.160464,0.019541,0.0186643,1105,428,-2.37662,175.809
-112,596,-2.56604,-177.578,0.0251068,-0.00936567,0.00602345,0.026129,-0.0103878,0.168099,0.0217261,0.0213188,1112,428,-2.56601,177.578
-105,596,-2.60828,-179.345,0.0277654,-0.0099704,0.00651449,0.0288584,-0.0110634,0.166227,0.0237998,0.0338443,1119,428,-2.60831,179.345
-98,596,-2.55151,-181.087,0.0304462,-0.010739,0.00695919,0.0315903,-0.0118831,0.162948,0.0259448,0.0441041,1126,428,-2.55145,181.087
-91,596,-2.59424,-182.73,0,0,0,0,0,0,0,-1,1133,428,-2.59418,182.73
-84,596,-2.40845,-184.146,0,0,0,0,0,0,0,-1,1140,428,-2.4084,184.146
-77,596,-2.0929,-185.897,0,0,0,0,0,0,0,-1,1147,428,-2.09287,185.897
-70,596,3.50696,-32.137,0,0,0,0,0,0,0,-1,1154,428,3.50696,32.137
-63,596,1.95569,-12.2758,0,0,0,0,0,0,0,-1,1161,428,1.95563,12.2759
-56,596,1.60107,-10.5827,0,0,0,0,0,0,0,-1,1168,428,1.60108,10.5827
-49,596,1.59473,-10.0393,0,0,0,0,0,0,0,-1,1175,428,1.59472,10.0393
-42,596,1.99585,-6.6246,0,0,0,0,0,0,0,-1,1182,428,1.99586,6.62459
-35,596,-1.15955,-192.987,0,0,0,0,0,0,0,-1,1189,428,-1.1596,192.987
-28,596,-0.831909,-194.069,0,0,0,0,0,0,0,-1,1196,428,-0.831941,194.069
-21,596,-0.525269,-195.094,0,0,0,0,0,0,0,-1,1203,428,-0.525265,195.094
-14,596,0.0531006,-196.074,0,0,0,0,0,0,0,-1,1210,428,0.0531506,196.074
-7,596,0.298584,-197.13,0,0,0,0,0,0,0,-1,1217,428,0.298563,197.13
0,596,4.94812,-137.228,0,0,0,0,0,0,0,-1,1224,428,4.94809,137.228
7,596,16.2372,-110.811,0,0,0,0,0,0,0,-1,1231,428,16.2371,110.811
14,596,15.9218,-111.105,0,0,0,0,0,0,0,-1,1238,428,15.9218,111.105
21,596,9.53357,-104.719,0,0,0,0,0,0,0,-1,1245,428,9.53354,104.719
28,596,7.12244,-103.211,0,0,0,0,0,0,0,-1,1252,428,7.12247,103.211
35,596,10.887,-113.712,0,0,0,0,0,0,0,-1,1259,428,10.887,113.712
42,596,9.40198,-114.092,0,0,0,0,0,0,0,-1,1266,428,9.40201,114.092
49,596,4.83154,-191.583,0,0,0,0,0,0,0,-1,1273,428,4.83153,191.583
56,596,7.07568,-114.423,0,0,0,0,0,0,0,-1,1280,428,7.07565,114.423
63,596,6.10706,-114.603,0,0,0,0,0,0,0,-1,1287,428,6.10701,114.603
70,596,4.93799,-114.536,0,0,0,0,0,0,0,-1,1294,428,4.93803,114.536
77,596,3.7356,-114.595,0,0,0,0,0,0,0,-1,1301,428,3.73557,114.595
84,596,1.77319,-111.164,0,0,0,0,0,0,0,-1,1308,428,1.77315,111.164
91,596,0.043457,-110.488,0,0,0,0,0,0,0,-1,1315,428,0.043504,110.488
98,596,-1.64661,-109.713,0,0,0,0,0,0,0,-1,1322,428,-1.64663,109.713
105,596,-4.9458,-115.477,0,0,0,0,0,0,0,-1,1329,428,-4.94585,115.477
112,596,3.37952,-99.9267,0,0,0,0,0,0,0,-1,1336,428,3.3795,99.9267
119,596,-1.34705,-127.626,0,0,0,0,0,0,0,-1,1343,428,-1.34705,127.626
126,596,-2.12634,-128.843,0,0,0,0,0,0,0,-1,1350,428,-2.12635,128.843
133,596,-13.7607,-114.368,0,0,0,0,0,0,0,-1,1357,428,-13.7607,114.368
140,596,-2.68896,-133.173,0,0,0,0,0,0,0,-1,1364,428,-2.68897,133.173
147,596,-4.47974,-92.1547,0,0,0,0,0,0,0,-1,1371,428,-4.4797,92.1547
154,596,-4.78699,-135.457,0,0,0,0,0,0,0,-1,1378,428,-4.78705,135.457
161,596,11.4926,-193.55,0,0,0,0,0,0,0,-1,1385,428,11.4925,193.55
168,596,12.5786,-183.263,0,0,0,0,0,0,0,-1,1392,428,12.5786,183.263
175,596,13.1626,-108.734,0,0,0,0,0,0,0,-1,1399,428,13.1625,108.734
182,596,12.1792,-74.929,0,0,0,0,0,0,0,-1,1406,428,12.1791,74.929
189,596,13.0991,-186.9,0,0,0,0,0,0,0,-1,1413,428,13.0992,186.9
196,596,12.8657,-187.724,0,0,0,0,0,0,0,-1,1420,428,12.8657,187.724
203,596,12.9702,-186.743,0,0,0,0,0,0,0,-1,1427,428,12.9703,186.743
210,596,13.0099,-185.689,0,0,0,0,0,0,0,-1,1434,428,13.0099,185.689
217,596,12.9451,-184.011,0,0,0,0,0,0,0,-1,1441,428,12.9451,184.011
224,596,13.2479,-182.088,0,0,0,0,0,0,0,-1,1448,428,13.2479,182.088
231,596,13.4474,-180.395,0.0267268,-0.0044566,-0.00552575,0.027677,-0.00540682,-0.170296,0.0204928,0.03431,1455,428,13.4474,180.395
238,596,13.2842,-178.619,0.0246087,-0.00324376,-0.00448081,0.0253118,-0.00394687,-0.155646,0.0183323,0.0213845,1462,428,13.2842,178.619
245,596,13.2142,-176.822,0.0225259,-0.00206822,-0.00349224,0.0230122,-0.00255449,-0.138352,0.01626,0.0187684,1469,428,13.2142,176.822
252,596,13.1472,-174.927,0.0202348,-0.00029816,-0.00228503,0.020486,-0.000549378,-0.109501,0.0138441,0.0136313,1476,428,13.1472,174.927
259,596,13.0403,-173.026,0.0181611,0.000936219,-0.00121806,0.0182468,0.000850511,-0.0702493,0.0118912,0.0125786,1483,428,13.0403,173.026
266,596,12.8644,-171.109,0.0161063,0.0020185,-0.000416472,0.0161186,0.0020062,-0.0295283,0.0101433,0.0134583,1490,428,12.8643,171.109
273,596,12.7098,-169.129,0.0138926,0.0031506,0.00027725,0.0138997,0.00314345,0.0257871,0.00841666,0.0140987,1497,428,12.7098,169.129
280,596,12.5369,-167.094,0.0116696,0.00420515,0.00110724,0.0118303,0.00404437,0.1442,0.00694319,0.01518,1504,428,12.5369,167.094
287,596,12.2678,-164.959,0.00967396,0.00495151,0.00188401,0.0103335,0.00429199,0.336728,0.00599447,0.0146082,1511,428,12.2678,164.959
294,596,11.9391,-162.845,0.00771199,0.00554544,0.00250806,0.00936072,0.00389671,0.58154,0.00542961,0.0122182,1518,428,11.9391,162.845
301,596,11.6508,-160.718,0.00588022,0.00591174,0.00307249,0.00896852,0.00282345,0.787963,0.00529503,0.0132601,1525,428,11.6508,160.718
308,596,11.3529,-158.454,0.00425386,0.00629992,0.00373658,0.00915098,0.0014028,0.919017,0.00569098,0.0182394,1532,428,11.3529,158.454
315,596,10.9696,-156.186,0.00286424,0.00706813,0.00469949,0.0101143,-0.000181952,0.995689,0.00680434,0.0199063,1539,428,10.9696,156.186
322,596,10.6522,-153.91,0.0016735,0.00781294,0.00573565,0.0112487,-0.00176223,1.0311,0.00815027,0.0176139,1546,428,10.6523,153.91
329,596,10.2744,-151.655,0.000781125,0.00878763,0.00696187,0.0128152,-0.00324642,1.04632,0.00980637,0.0136637,1553,428,10.2744,151.655
336,596,9.8418,-149.402,6.45829e-05,0.0101655,0.00840829,0.0149235,-0.00469346,1.05585,0.0118281,0.0121654,1560,428,9.84183,149.402
343,596,9.44495,-147.038,-0.000413444,0.0126548,0.0100744,0.0181285,-0.00588714,1.07309,0.0144534,0.0147127,1567,428,9.44491,147.038
350,596,9.02539,-144.586,-0.000567993,0.0162817,0.0121491,0.0226412,-0.00692751,1.08856,0.017857,0.0145448,1574,428,9.02539,144.586
357,596,8.52771,-142.163,-0.00076106,0.0199013,0.0141568,0.0270957,-0.0079555,1.10061,0.0212187,0.0129558,1581,428,8.52773,142.163
364,596,8.0376,-139.682,-0.000765618,0.0238909,0.0161537,0.0318833,-0.00875797,1.11134,0.024698,0.0181213,1588,428,8.03763,139.682
371,596,7.57129,-137.239,-0.000735854,0.0286618,0.0182883,0.0374261,-0.00950015,1.1239,0.0286474,0.0214253,1595,428,7.57124,137.239
378,596,7.05798,-134.688,-0.000721239,0.0338482,0.0203215,0.0432416,-0.0101147,1.13781,0.0327246,0.0401323,1602,428,7.05796,134.687
385,596,6.54468,-132.16,0,0,0,0,0,0,0,-1,1609,428,6.54471,132.16
392,596,5.69812,-128.52,0,0,0,0,0,0,0,-1,1616,428,5.69815,128.52
399,596,5.47839,-125.734,0,0,0,0,0,0,0,-1,1623,428,5.47836,125.734
406,596,10.4819,-65.187,0,0,0,0,0,0,0,-1,1630,428,10.482,65.187
413,596,12.1365,-50.3984,0,0,0,0,0,0,0,-1,1637,428,12.1364,50.3984
420,596,14.0704,-45.0912,0,0,0,0,0,0,0,-1,1644,428,14.0704,45.0912
427,596,8.40686,-23.8744,0,0,0,0,0,0,0,-1,1651,428,8.40683,23.8744
434,596,5.09753,-22.5213,0,0,0,0,0,0,0,-1,1658,428,5.09755,22.5213
441,596,7.19043,-22.087,0,0,0,0,0,0,0,-1,1665,428,7.19046,22.087
448,596,1.0769,0.0083313,0,0,0,0,0,0,0,-1,1672,428,1.07684,-0.00832231
455,596,2.00769,-1.43329,0,0,0,0,0,0,0,-1,1679,428,2.00765,1.4333
462,596,0,0,0,0,0,0,0,0,0,-1,1686,428,0,0
469,596,0,0,0,0,0,0,0,0,0,-1,1693,428,0,0
476,596,0,0,0,0,0,0,0,0,0,-1,1700,428,0,0
483,596,0,0,0,0,0,0,0,0,0,-1,1707,428,0,0
490,596,0,0,0,0,0,0,0,0,0,-1,1714,428,0,0
497,596,0,0,0,0,0,0,0,0,0,-1,1721,428,0,0
504,596,0,0,0,0,0,0,0,0,0,-1,1728,428,0,0
511,596,0,0,0,0,0,0,0,0,0,-1,1735,428,0,0
518,596,0,0,0,0,0,0,0,0,0,-1,1742,428,0,0
525,596,0,0,0,0,0,0,0,0,0,-1,1749,428,0,0
532,596,0,0,0,0,0,0,0,0,0,-1,1756,428,0,0
539,596,0,0,0,0,0,0,0,0,0,-1,1763,428,0,0
546,596,0,0,0,0,0,0,0,0,0,-1,1770,428,0,0
553,596,0,0,0,0,0,0,0,0,0,-1,1777,428,0,0
560,596,0,0,0,0,0,0,0,0,0,-1,1784,428,0,0
567,596,0,0,0,0,0,0,0,0,0,-1,1791,428,0,0
574,596,0,0,0,0,0,0,0,0,0,-1,1798,428,0,0
581,596,0,0,0,0,0,0,0,0,0,-1,1805,428,0,0
588,596,0,0,0,0,0,0,0,0,0,-1,1812,428,0,0
595,596,0,0,0,0,0,0,0,0,0,-1,1819,428,0,0
602,596,0,0,0,0,0,0,0,0,0,-1,1826,428,0,0
609,596,0,0,0,0,0,0,0,0,0,-1,1833,428,0,0
616,596,0,0,0,0,0,0,0,0,0,-1,1840,428,0,0
623,596,0,0,0,0,0,0,0,0,0,-1,1847,428,0,0
630,596,0,0,0,0,0,0,0,0,0,-1,1854,428,0,0
637,596,0,0,0,0,0,0,0,0,0,-1,1861,428,0,0
644,596,0,0,0,0,0,0,0,0,0,-1,1868,428,0,0
651,596,0,0,0,0,0,0,0,0,0,-1,1875,428,0,0
658,596,0,0,0,0,0,0,0,0,0,-1,1882,428,0,0
665,596,0,0,0,0,0,0,0,0,0,-1,1889,428,0,0
672,596,0,0,0,0,0,0,0,0,0,-1,1896,428,0,0
679,596,0,0,0,0,0,0,0,0,0,-1,1903,428,0,0
686,596,0,0,0,0,0,0,0,0,0,-1,1910,428,0,0
693,596,0,0,0,0,0,0,0,0,0,-1,1917,428,0,0
700,596,0,0,0,0,0,0,0,0,0,-1,1924,428,0,0
707,596,0,0,0,0,0,0,0,0,0,-1,1931,428,0,0
714,596,0,0,0,0,0,0,0,0,0,-1,1938,428,0,0
721,596,0,0,0,0,0,0,0,0,0,-1,1945,428,0,0
728,596,0,0,0,0,0,0,0,0,0,-1,1952,428,0,0
735,596,0,0,0,0,0,0,0,0,0,-1,1959,428,0,0
742,596,0,0,0,0,0,0,0,0,0,-1,1966,428,0,0
749,596,0,0,0,0,0,0,0,0,0,-1,1973,428,0,0
756,596,0,0,0,0,0,0,0,0,0,-1,1980,428,0,0
763,596,0,0,0,0,0,0,0,0,0,-1,1987,428,0,0
770,596,0,0,0,0,0,0,0,0,0,-1,1994,428,0,0
777,596,0,0,0,0,0,0,0,0,0,-1,2001,428,0,0
784,596,0,0,0,0,0,0,0,0,0,-1,2008,428,0,0
791,596,0,0,0,0,0,0,0,0,0,-1,2015,428,0,0
798,596,0,0,0,0,0,0,0,0,0,-1,2022,428,0,0
805,596,0,0,0,0,0,0,0,0,0,-1,2029,428,0,0
812,596,0,0,0,0,0,0,0,0,0,-1,2036,428,0,0
-700,589,0,0,0,0,0,0,0,0,0,-1,524,435,0,0
-693,589,0,0,0,0,0,0,0,0,0,-1,531,435,0,0
-686,589,0,0,0,0,0,0,0,0,0,-1,538,435,0,0
-679,589,0,0,0,0,0,0,0,0,0,-1,545,435,0,0
-672,589,0,0,0,0,0,0,0,0,0,-1,552,435,0,0
-665,589,0,0,0,0,0,0,0,0,0,-1,559,435,0,0
-658,589,0,0,0,0,0,0,0,0,0,-1,566,435,0,0
-651,589,0,0,0,0,0,0,0,0,0,-1,573,435,0,0
-644,589,0,0,0,0,0,0,0,0,0,-1,580,435,0,0
-637,589,0,0,0,0,0,0,0,0,0,-1,587,435,0,0
-630,589,0,0,0,0,0,0,0,0,0,-1,594,435,0,0
-623,589,0,0,0,0,0,0,0,0,0,-1,601,435,0,0
-616,589,0,0,0,0,0,0,0,0,0,-1,608,435,0,0
-609,589,0,0,0,0,0,0,0,0,0,-1,615,435,0,0
-602,589,0,0,0,0,0,0,0,0,0,-1,622,435,0,0
-595,589,0,0,0,0,0,0,0,0,0,-1,629,435,0,0
-588,589,0,0,0,0,0,0,0,0,0,-1,636,435,0,0
-581,589,0,0,0,0,0,0,0,0,0,-1,643,435,0,0
-574,589,0,0,0,0,0,0,0,0,0,-1,650,435,0,0
-567,589,0,0,0,0,0,0,0,0,0,-1,657,435,0,0
-560,589,0,0,0,0,0,0,0,0,0,-1,664,435,0,0
-553,589,0,0,0,0,0,0,0,0,0,-1,671,435,0,0
-546,589,0,0,0,0,0,0,0,0,0,-1,678,435,0,0
-539,589,0,0,0,0,0,0,0,0,0,-1,685,435,0,0
-532,589,0,0,0,0,0,0,0,0,0,-1,692,435,0,0
-525,589,0,0,0,0,0,0,0,0,0,-1,699,435,0,0
-518,589,0,0,0,0,0,0,0,0,0,-1,706,435,0,0
-511,589,0,0,0,0,0,0,0,0,0,-1,713,435,0,0
-504,589,0,0,0,0,0,0,0,0,0,-1,720,435,0,0
-497,589,0,0,0,0,0,0,0,0,0,-1,727,435,0,0
-490,589,0,0,0,0,0,0,0,0,0,-1,734,435,0,0
-483,589,0,0,0,0,0,0,0,0,0,-1,741,435,0,0
-476,589,0,0,0,0,0,0,0,0,0,-1,748,435,0,0
-469,589,0,0,0,0,0,0,0,0,0,-1,755,435,0,0
-462,589,0,0,0,0,0,0,0,0,0,-1,762,435,0,0
-455,589,0,0,0,0,0,0,0,0,0,-1,769,435,0,0
-448,589,0,0,0,0,0,0,0,0,0,-1,776,435,0,0
-441,589,0,0,0,0,0,0,0,0,0,-1,783,435,0,0
-434,589,0,0,0,0,0,0,0,0,0,-1,790,435,0,0
-427,589,0,0,0,0,0,0,0,0,0,-1,797,435,0,0
-420,589,0,0,0,0,0,0,0,0,0,-1,804,435,0,0
-413,589,0,0,0,0,0,0,0,0,0,-1,811,435,0,0
-406,589,0,0,0,0,0,0,0,0,0,-1,818,435,0,0
-399,589,0,0,0,0,0,0,0,0,0,-1,825,435,0,0
-392,589,0,0,0,0,0,0,0,0,0,-1,832,435,0,0
-385,589,0,0,0,0,0,0,0,0,0,-1,839,435,0,0
-378,589,0,0,0,0,0,0,0,0,0,-1,846,435,0,0
-371,589,0,0,0,0,0,0,0,0,0,-1,853,435,0,0
-364,589,0,0,0,0,0,0,0,0,0,-1,860,435,0,0
-357,589,0,0,0,0,0,0,0,0,0,-1,867,435,0,0
-350,589,-0.799927,-20.664,0,0,0,0,0,0,0,-1,874,435,-0.799952,20.664
-343,589,5.15289,-30.4847,0,0,0,0,0,0,0,-1,881,435,5.15291,30.4847
-336,589,5.07684,-29.2368,0,0,0,0,0,0,0,-1,888,435,5.07687,29.2368
-329,589,4.9624,-28.1366,0,0,0,0,0,0,0,-1,895,435,4.96242,28.1366
-322,589,5.10156,-27.065,0,0,0,0,0,0,0,-1,902,435,5.10155,27.065
-315,589,4.22705,-27.9655,0,0,0,0,0,0,0,-1,909,435,4.22705,27.9655
-308,589,4.46698,-29.037,0,0,0,0,0,0,0,-1,916,435,4.46696,29.037
-301,589,4.94867,-33.7458,0,0,0,0,0,0,0,-1,923,435,4.94869,33.7458
-294,589,4.1037,-31.2976,0,0,0,0,0,0,0,-1,930,435,4.10371,31.2976
-287,589,5.97778,-51.672,0,0,0,0,0,0,0,-1,937,435,5.97776,51.672
-280,589,3.93988,-122.283,0,0,0,0,0,0,0,-1,944,435,3.93989,122.283
-273,589,3.35065,-125.239,0,0,0,0,0,0,0,-1,951,435,3.35064,125.239
-266,589,2.4823,-127.458,0,0,0,0,0,0,0,-1,958,435,2.48228,127.458
-259,589,1.96832,-130.393,0.00279734,0.0288254,-0.021686,0.0411027,-0.0094799,-1.05565,0.031048,0.0488209,965,435,1.96833,130.393
-252,589,1.47852,-133.35,0.00223161,0.0241669,-0.0188363,0.0349959,-0.00859743,-1.04904,0.0266626,0.0236359,972,435,1.47853,133.35
-245,589,1.03583,-135.943,0.00184545,0.0201962,-0.0162503,0.0296826,-0.00764089,-1.0424,0.0227668,0.0168988,979,435,1.03586,135.943
-238,589,0.540161,-138.358,0.00158977,0.0164199,-0.0137792,0.0246524,-0.00664282,-1.03224,0.0190395,0.0212229,986,435,0.540155,138.358
-231,589,0.0814209,-140.808,0.00153915,0.0130041,-0.0113953,0.0200276,-0.00548427,-1.01844,0.0155065,0.0200945,993,435,0.0814373,140.808
-224,589,-0.352661,-143.164,0.00163618,0.00976962,-0.00919322,0.0157554,-0.00434963,-0.99364,0.0122144,0.0180989,1000,435,-0.352642,143.164
-217,589,-0.796753,-145.561,0.00208383,0.00722268,-0.00737489,0.0124629,-0.00315641,-0.953023,0.00953649,0.0193178,1007,435,-0.796771,145.561
-210,589,-1.19476,-147.946,0.00278187,0.00496784,-0.00572541,0.00970366,-0.00195394,-0.879713,0.00720923,0.0197445,1014,435,-1.19475,147.946
-203,589,-1.5965,-150.307,0.00351759,0.00272356,-0.00402901,0.0071691,-0.000927955,-0.736287,0.00511684,0.0162004,1021,435,-1.59647,150.307
-196,589,-1.94824,-152.609,0.00454549,0.000933667,-0.00262157,0.00592297,-0.000443811,-0.483791,0.00410459,0.0191233,1028,435,-1.94824,152.609
-189,589,-2.29285,-154.886,0.00574794,-0.00101338,-0.00129677,0.00598812,-0.00125356,-0.183138,0.00446893,0.0215229,1035,435,-2.29286,154.886
-182,589,-2.63428,-157.031,0.00727264,-0.00268593,-0.000113757,0.00727394,-0.00268723,-0.011421,0.00595084,0.0165608,1042,435,-2.63422,157.031
-175,589,-2.86829,-159.277,0.00910383,-0.00440257,0.00101392,0.00917952,-0.00447826,0.0745133,0.00803953,0.0218999,1049,435,-2.86833,159.277
-168,589,-3.17737,-161.515,0.0110512,-0.00605299,0.00202661,0.011288,-0.00628983,0.116341,0.0102844,0.0190299,1056,435,-3.17736,161.515
-161,589,-3.43433,-163.608,0.0131572,-0.00756696,0.00306323,0.0136005,-0.00801026,0.143717,0.0126153,0.0178107,1063,435,-3.43437,163.608
-154,589,-3.70984,-165.696,0.0155241,-0.0090636,0.00413792,0.0162018,-0.0097413,0.162337,0.0151323,0.0186945,1070,435,-3.70986,165.696
-147,589,-3.86365,-167.744,0.0181838,-0.0100644,0.00495276,0.019027,-0.0109076,0.168631,0.0174934,0.0202829,1077,435,-3.86364,167.744
-140,589,-3.96143,-169.705,0.0209089,-0.0109113,0.00566181,0.0218863,-0.0118887,0.170944,0.0197827,0.0228518,1084,435,-3.96144,169.705
-133,589,-4.11877,-171.753,0.0236499,-0.0117529,0.00644791,0.0247877,-0.0128907,0.174661,0.0221121,0.0236491,1091,435,-4.11874,171.753
-126,589,-4.12585,-173.598,0.0263661,-0.0123888,0.00701657,0.0275973,-0.01362,0.173707,0.0242487,0.0239484,1098,435,-4.12591,173.598
-119,589,-4.31763,-175.443,0,0,0,0,0,0,0,-1,1105,435,-4.31765,175.443
-112,589,-4.44836,-177.299,0,0,0,0,0,0,0,-1,1112,435,-4.44835,177.299
-105,589,-4.48645,-179.236,0,0,0,0,0,0,0,-1,1119,435,-4.48641,179.236
-98,589,-4.4209,-181.15,0,0,0,0,0,0,0,-1,1126,435,-4.42087,181.15
-91,589,3.39563,-37.8231,0,0,0,0,0,0,0,-1,1133,435,3.39565,37.8231
-84,589,2.76538,-22.6013,0,0,0,0,0,0,0,-1,1140,435,2.76539,22.6014
-77,589,2.18152,-14.8023,0,0,0,0,0,0,0,-1,1147,435,2.18155,14.8023
-70,589,1.48267,-9.90961,0,0,0,0,0,0,0,-1,1154,435,1.48264,9.9096
-63,589,0.880127,-5.50586,0,0,0,0,0,0,0,-1,1161,435,0.880186,5.50587
-56,589,-2.78052,-7.28082,0,0,0,0,0,0,0,-1,1168,435,-2.78053,7.28082
-49,589,-0.525757,-2.76703,0,0,0,0,0,0,0,-1,1175,435,-0.525771,2.76702
-42,589,-2.7738,-2.87921,0,0,0,0,0,0,0,-1,1182,435,-2.77383,2.87922
-35,589,-2.55225,-3.27551,0,0,0,0,0,0,0,-1,1189,435,-2.55223,3.27552
-28,589,-0.0632324,-3.42938,0,0,0,0,0,0,0,-1,1196,435,-0.063241,3.42938
-21,589,15.5778,-99.7729,0,0,0,0,0,0,0,-1,1203,435,15.5778,99.7729
-14,589,14.9618,-100.803,0,0,0,0,0,0,0,-1,1210,435,14.9618,100.803
-7,589,14.3303,-101.778,0,0,0,0,0,0,0,-1,1217,435,14.3303,101.778
0,589,17.1877,-111.409,0,0,0,0,0,0,0,-1,1224,435,17.1877,111.409
7,589,16.363,-111.618,0,0,0,0,0,0,0,-1,1231,435,16.363,111.618
14,589,15.6997,-111.695,0,0,0,0,0,0,0,-1,1238,435,15.6997,111.695
21,589,13.1064,-112.612,0,0,0,0,0,0,0,-1,1245,435,13.1065,112.612
28,589,12.0957,-113.304,0,0,0,0,0,0,0,-1,1252,435,12.0957,113.304
35,589,11.0186,-113.676,0,0,0,0,0,0,0,-1,1259,435,11.0186,113.676
42,589,9.72021,-113.985,0,0,0,0,0,0,0,-1,1266,435,9.72016,113.985
49,589,8.46631,-114.221,0,0,0,0,0,0,0,-1,1273,435,8.46635,114.221
56,589,7.44238,-113.94,0,0,0,0,0,0,0,-1,1280,435,7.44242,113.94
63,589,6.17566,-113.036,0,0,0,0,0,0,0,-1,1287,435,6.17565,113.036
70,589,4.76013,-112.026,0,0,0,0,0,0,0,-1,1294,435,4.7601,112.027
77,589,3.39417,-111.1,0,0,0,0,0,0,0,-1,1301,435,3.39422,111.1
84,589,1.68945,-110.425,0,0,0,0,0,0,0,-1,1308,435,1.68949,110.425
91,589,-0.0352783,-109.718,0,0,0,0,0,0,0,-1,1315,435,-0.0352847,109.718
98,589,-1.72131,-108.985,0,0,0,0,0,0,0,-1,1322,435,-1.72126,108.985
105,589,-0.284424,-123.939,0,0,0,0,0,0,0,-1,1329,435,-0.28442,123.939
112,589,-0.942871,-125.034,0,0,0,0,0,0,0,-1,1336,435,-0.942885,125.034
119,589,-1.61108,-127.002,0,0,0,0,0,0,0,-1,1343,435,-1.61105,127.002
126,589,-2.33337,-128.551,0,0,0,0,0,0,0,-1,1350,435,-2.33342,128.551
133,589,-3.10193,-130.161,0,0,0,0,0,0,0,-1,1357,435,-3.1019,130.161
140,589,-3.05334,-132.754,0,0,0,0,0,0,0,-1,1364,435,-3.05333,132.754
147,589,-3.672,-133.969,0,0,0,0,0,0,0,-1,1371,435,-3.67202,133.969
154,589,-4.3866,-135.404,0,0,0,0,0,0,0,-1,1378,435,-4.38657,135.404
161,589,-4.89026,-137.749,0,0,0,0,0,0,0,-1,1385,435,-4.89027,137.749
168,589,13.689,-82.1438,0,0,0,0,0,0,0,-1,1392,435,13.689,82.1438
175,589,8.66992,-7.65527,0,0,0,0,0,0,0,-1,1399,435,8.66994,7.65528
182,589,3.8136,-2.45389,0,0,0,0,0,0,0,-1,1406,435,3.81363,2.4539
189,589,3.69983,-3.68149,0,0,0,0,0,0,0,-1,1413,435,3.69987,3.68147
196,589,3.31055,-5.31677,0,0,0,0,0,0,0,-1,1420,435,3.31059,5.31678
203,589,2.72559,-8.84338,0,0,0,0,0,0,0,-1,1427,435,2.72558,8.84338
210,589,3.62378,-14.4032,0,0,0,0,0,0,0,-1,1434,435,3.62378,14.4032
217,589,4.65601,-22.3745,0,0,0,0,0,0,0,-1,1441,435,4.65607,22.3745
224,589,6.79028,-33.9412,0,0,0,0,0,0,0,-1,1448,435,6.79028,33.9412
231,589,15.2705,-180.222,0,0,0,0,0,0,0,-1,1455,435,15.2706,180.222
238,589,15.0621,-178.367,0,0,0,0,0,0,0,-1,1462,435,15.0622,178.367
245,589,15.0265,-176.506,0,0,0,0,0,0,0,-1,1469,435,15.0265,176.506
252,589,14.9943,-174.576,0,0,0,0,0,0,0,-1,1476,435,14.9943,174.576
259,589,14.9745,-172.771,0.023868,-0.0014771,-0.00312344,0.0242473,-0.00185634,-0.120828,0.0168178,0.0293508,1483,435,14.9745,172.771
266,589,14.8505,-170.756,0.0215898,-8.43744e-05,-0.00225365,0.0218217,-0.000316225,-0.102517,0.0146543,0.0155583,1490,435,14.8504,170.756
273,589,14.7325,-168.795,0.0191043,0.00131666,-0.00152853,0.0192347,0.00118627,-0.0851004,0.0124466,0.0146929,1497,435,14.7326,168.795
280,589,14.5557,-166.79,0.0166206,0.00263443,-0.000609757,0.0166472,0.0026079,-0.0434871,0.010339,0.0153032,1504,435,14.5557,166.79
287,589,14.3369,-164.707,0.0144293,0.0035856,0.000245427,0.0144348,0.00358005,0.0226178,0.00867956,0.0143477,1511,435,14.3369,164.707
294,589,14.0824,-162.514,0.0122279,0.00436104,0.000861,0.012321,0.00426791,0.107747,0.00722459,0.0137764,1518,435,14.0823,162.514
301,589,13.8282,-160.335,0.01011,0.00481915,0.00137879,0.0104477,0.0044814,0.240231,0.00605228,0.0146443,1525,435,13.8282,160.335
308,589,13.5276,-158.09,0.008164,0.00507474,0.00191431,0.00907914,0.0041596,0.445935,0.00524796,0.0131765,1532,435,13.5276,158.09
315,589,13.2157,-155.854,0.00638648,0.00548058,0.0026319,0.00860412,0.00326294,0.700183,0.00501566,0.0137308,1539,435,13.2157,155.854
322,589,12.95,-153.616,0.0048551,0.00595658,0.00350995,0.00895873,0.00185294,0.863218,0.00546066,0.0163047,1546,435,12.95,153.616
329,589,12.5729,-151.341,0.0036109,0.00660579,0.00454479,0.00989348,0.000323217,0.94454,0.0064906,0.0139513,1553,435,12.5729,151.342
336,589,12.1639,-149.063,0.00254305,0.00751332,0.00569037,0.0112376,-0.00118119,0.991279,0.00791486,0.0123235,1560,435,12.1639,149.063
343,589,11.7675,-146.731,0.00172996,0.00935853,0.00706624,0.0135742,-0.00248573,1.03288,0.00998177,0.0133593,1567,435,11.7674,146.731
350,589,11.3256,-144.282,0.00123969,0.0121596,0.00880654,0.0170614,-0.00366213,1.06289,0.0127712,0.0195928,1574,435,11.3256,144.282
357,589,10.8862,-141.826,0.00079491,0.0150274,0.0105066,0.0206009,-0.0047786,1.08307,0.0155731,0.0168419,1581,435,10.8863,141.826
364,589,10.4463,-139.391,0.000534769,0.0182558,0.0122173,0.0244874,-0.00569682,1.09913,0.0185183,0.0135141,1588,435,10.4463,139.391
371,589,9.97705,-136.927,0.000311931,0.0220395,0.0140015,0.0288976,-0.00654613,1.11533,0.0217776,0.0141857,1595,435,9.97699,136.927
378,589,9.48206,-134.382,0.00013822,0.0261675,0.0157051,0.0335496,-0.00724396,1.13139,0.0251315,0.0162329,1602,435,9.48211,134.382
385,589,8.91406,-131.706,0.000254595,0.0305401,0.0174836,0.0385269,-0.00773225,1.14229,0.0286124,0.0280223,1609,435,8.91412,131.706
392,589,8.33984,-128.805,0.000394659,0.0350081,0.0191824,0.0435371,-0.00813437,1.15242,0.0320818,0.0370662,1616,435,8.3399,128.805
399,589,7.9668,-126.091,0.000504574,0.0395793,0.0208079,0.0485845,-0.00850064,1.16236,0.0355635,0.0415962,1623,435,7.96684,126.091
406,589,7.61108,-123.49,0,0,0,0,0,0,0,-1,1630,435,7.6111,123.49
413,589,5.61377,-19.0606,0,0,0,0,0,0,0,-1,1637,435,5.61372,19.0606
420,589,2.79724,-5.79956,0,0,0,0,0,0,0,-1,1644,435,2.7973,5.79955
427,589,10.9475,-45.1117,0,0,0,0,0,0,0,-1,1651,435,10.9475,45.1117
434,589,9.14709,-34.4435,0,0,0,0,0,0,0,-1,1658,435,9.1471,34.4435
441,589,7.85901,-29.8665,0,0,0,0,0,0,0,-1,1665,435,7.85898,29.8666
448,589,0.453735,-3.2868,0,0,0,0,0,0,0,-1,1672,435,0.453701,3.28681
455,589,0.664307,-3.46848,0,0,0,0,0,0,0,-1,1679,435,0.66425,3.46846
462,589,3.46716,-4.41891,0,0,0,0,0,0,0,-1,1686,435,3.4672,4.41891
469,589,0.0238037,-3.81497,0,0,0,0,0,0,0,-1,1693,435,0.0237965,3.81498
476,589,0,0,0,0,0,0,0,0,0,-1,1700,435,0,0
483,589,0,0,0,0,0,0,0,0,0,-1,1707,435,0,0
490,589,0,0,0,0,0,0,0,0,0,-1,1714,435,0,0
497,589,0,0,0,0,0,0,0,0,0,-1,1721,435,0,0
504,589,0,0,0,0,0,0,0,0,0,-1,1728,435,0,0
511,589,0,0,0,0,0,0,0,0,0,-1,1735,435,0,0
518,589,0,0,0,0,0,0,0,0,0,-1,1742,435,0,0
525,589,0,0,0,0,0,0,0,0,0,-1,1749,435,0,0
532,589,0,0,0,0,0,0,0,0,0,-1,1756,435,0,0
539,589,0,0,0,0,0,0,0,0,0,-1,1763,435,0,0
546,589,0,0,0,0,0,0,0,0,0,-1,1770,435,0,0
553,589,0,0,0,0,0,0,0,0,0,-1,1777,435,0,0
560,589,0,0,0,0,0,0,0,0,0,-1,1784,435,0,0
567,589,0,0,0,0,0,0,0,0,0,-1,1791,435,0,0
574,589,0,0,0,0,0,0,0,0,0,-1,1798,435,0,0
581,589,0,0,0,0,0,0,0,0,0,-1,1805,435,0,0
588,589,0,0,0,0,0,0,0,0,0,-1,1812,435,0,0
595,589,0,0,0,0,0,0,0,0,0,-1,1819,435,0,0
602,589,0,0,0,0,0,0,0,0,0,-1,1826,435,0,0
609,589,0,0,0,0,0,0,0,0,0,-1,1833,435,0,0
616,589,0,0,0,0,0,0,0,0,0,-1,1840,435,0,0
623,589,0,0,0,0,0,0,0,0,0,-1,1847,435,0,0
630,589,0,0,0,0,0,0,0,0,0,-1,1854,435,0,0
637,589,0,0,0,0,0,0,0,0,0,-1,1861,435,0,0
644,589,0,0,0,0,0,0,0,0,0,-1,1868,435,0,0
651,589,0,0,0,0,0,0,0,0,0,-1,1875,435,0,0
658,589,0,0,0,0,0,0,0,0,0,-1,1882,435,0,0
665,589,0,0,0,0,0,0,0,0,0,-1,1889,435,0,0
672,589,0,0,0,0,0,0,0,0,0,-1,1896,435,0,0
679,589,0,0,0,0,0,0,0,0,0,-1,1903,435,0,0
686,589,0,0,0,0,0,0,0,0,0,-1,1910,435,0,0
693,589,0,0,0,0,0,0,0,0,0,-1,1917,435,0,0
700,589,0,0,0,0,0,0,0,0,0,-1,1924,435,0,0
707,589,0,0,0,0,0,0,0,0,0,-1,1931,435,0,0
714,589,0,0,0,0,0,0,0,0,0,-1,1938,435,0,0
721,589,0,0,0,0,0,0,0,0,0,-1,1945,435,0,0
728,589,0,0,0,0,0,0,0,0,0,-1,1952,435,0,0
735,589,0,0,0,0,0,0,0,0,0,-1,1959,435,0,0
742,589,0,0,0,0,0,0,0,0,0,-1,1966,435,0,0
749,589,0,0,0,0,0,0,0,0,0,-1,1973,435,0,0
756,589,0,0,0,0,0,0,0,0,0,-1,1980,435,0,0
763,589,0,0,0,0,0,0,0,0,0,-1,1987,435,0,0
770,589,0,0,0,0,0,0,0,0,0,-1,1994,435,0,0
777,589,0,0,0,0,0,0,0,0,0,-1,2001,435,0,0
784,589,0,0,0,0,0,0,0,0,0,-1,2008,435,0,0
791,589,0,0,0,0,0,0,0,0,0,-1,2015,435,0,0
798,589,0,0,0,0,0,0,0,0,0,-1,2022,435,0,0
805,589,0,0,0,0,0,0,0,0,0,-1,2029,435,0,0
812,589,0,0,0,0,0,0,0,0,0,-1,2036,435,0,0
-700,582,0,0,0,0,0,0,0,0,0,-1,524,442,0,0
-693,582,0,0,0,0,0,0,0,0,0,-1,531,442,0,0
-686,582,0,0,0,0,0,0,0,0,0,-1,538,442,0,0
-679,582,0,0,0,0,0,0,0,0,0,-1,545,442,0,0
-672,582,0,0,0,0,0,0,0,0,0,-1,552,442,0,0
-665,582,0,0,0,0,0,0,0,0,0,-1,559,442,0,0
-658,582,0,0,0,0,0,0,0,0,0,-1,566,442,0,0
-651,582,0,0,0,0,0,0,0,0,0,-1,573,442,0,0
-644,582,0,0,0,0,0,0,0,0,0,-1,580,442,0,0
-637,582,0,0,0,0,0,0,0,0,0,-1,587,442,0,0
-630,582,0,0,0,0,0,0,0,0,0,-1,594,442,0,0
-623,582,0,0,0,0,0,0,0,0,0,-1,601,442,0,0
-616,582,0,0,0,0,0,0,0,0,0,-1,608,442,0,0
-609,582,0,0,0,0,0,0,0,0,0,-1,615,442,0,0
-602,582,0,0,0,0,0,0,0,0,0,-1,622,442,0,0
-595,582,0,0,0,0,0,0,0,0,0,-1,629,442,0,0
-588,582,0,0,0,0,0,0,0,0,0,-1,636,442,0,0
-581,582,0,0,0,0,0,0,0,0,0,-1,643,442,0,0
-574,582,0,0,0,0,0,0,0,0,0,-1,650,442,0,0
-567,582,0,0,0,0,0,0,0,0,0,-1,657,442,0,0
-560,582,0,0,0,0,0,0,0,0,0,-1,664,442,0,0
-553,582,0,0,0,0,0,0,0,0,0,-1,671,442,0,0
-546,582,0,0,0,0,0,0,0,0,0,-1,678,442,0,0
-539,582,0,0,0,0,0,0,0,0,0,-1,685,442,0,0
-532,582,0,0,0,0,0,0,0,0,0,-1,692,442,0,0
-525,582,0,0,0,0,0,0,0,0,0,-1,699,442,0,0
-518,582,0,0,0,0,0,0,0,0,0,-1,706,442,0,0
-511,582,0,0,0,0,0,0,0,0,0,-1,713,442,0,0
-504,582,0,0,0,0,0,0,0,0,0,-1,720,442,0,0
-497,582,0,0,0,0,0,0,0,0,0,-1,727,442,0,0
-490,582,0,0,0,0,0,0,0,0,0,-1,734,442,0,0
-483,582,0,0,0,0,0,0,0,0,0,-1,741,442,0,0
-476,582,0,0,0,0,0,0,0,0,0,-1,748,442,0,0
-469,582,0,0,0,0,0,0,0,0,0,-1,755,442,0,0
-462,582,0,0,0,0,0,0,0,0,0,-1,762,442,0,0
-455,582,0,0,0,0,0,0,0,0,0,-1,769,442,0,0
-448,582,0,0,0,0,0,0,0,0,0,-1,776,442,0,0
-441,582,0,0,0,0,0,0,0,0,0,-1,783,442,0,0
-434,582,0,0,0,0,0,0,0,0,0,-1,790,442,0,0
-427,582,0,0,0,0,0,0,0,0,0,-1,797,442,0,0
-420,582,0,0,0,0,0,0,0,0,0,-1,804,442,0,0
-413,582,0,0,0,0,0,0,0,0,0,-1,811,442,0,0
-406,582,0,0,0,0,0,0,0,0,0,-1,818,442,0,0
-399,582,0,0,0,0,0,0,0,0,0,-1,825,442,0,0
-392,582,0,0,0,0,0,0,0,0,0,-1,832,442,0,0
-385,582,0,0,0,0,0,0,0,0,0,-1,839,442,0,0
-378,582,0,0,0,0,0,0,0,0,0,-1,846,442,0,0
-371,582,0,0,0,0,0,0,0,0,0,-1,853,442,0,0
-364,582,0,0,0,0,0,0,0,0,0,-1,860,442,0,0
-357,582,-1.4903,-21.5295,0,0,0,0,0,0,0,-1,867,442,-1.49031,21.5295
-350,582,-0.880859,-19.7966,0,0,0,0,0,0,0,-1,874,442,-0.880885,19.7966
-343,582,0.939941,-19.1705,0,0,0,0,0,0,0,-1,881,442,0.939935,19.1705
-336,582,3.33929,-27.9479,0,0,0,0,0,0,0,-1,888,442,3.33928,27.9479
-329,582,3.63544,-26.4736,0,0,0,0,0,0,0,-1,895,442,3.63546,26.4736
-322,582,3.67145,-27.1796,0,0,0,0,0,0,0,-1,902,442,3.67143,27.1796
-315,582,3.90686,-27.6446,0,0,0,0,0,0,0,-1,909,442,3.90689,27.6446
-308,582,4.07587,-33.1895,0,0,0,0,0,0,0,-1,916,442,4.07588,33.1895
-301,582,4.28662,-65.2938,0,0,0,0,0,0,0,-1,923,442,4.28664,65.2938
-294,582,3.77667,-81.41,0,0,0,0,0,0,0,-1,930,442,3.77669,81.41
-287,582,1.49335,-119.202,0,0,0,0,0,0,0,-1,937,442,1.49333,119.202
-280,582,1.17334,-122.066,0.00466069,0.0336415,-0.0242118,0.0473678,-0.00906563,-1.05505,0.034994,0.0454693,944,442,1.17337,122.066
-273,582,0.708496,-125.041,0.00401921,0.0292259,-0.0216082,0.0416377,-0.00839259,-1.04941,0.0309378,0.0200107,951,442,0.708488,125.041
-266,582,0.11084,-127.739,0.00323905,0.025194,-0.0190043,0.0361635,-0.00773043,-1.0473,0.0270565,0.0202454,958,442,0.110832,127.739
-259,582,-0.468384,-130.392,0.0027466,0.0210597,-0.0165384,0.0308072,-0.00700081,-1.03822,0.0232261,0.017496,965,442,-0.468407,130.392
-252,582,-0.94043,-132.993,0.002585,0.017253,-0.0141734,0.0258775,-0.00603948,-1.02415,0.0195778,0.0121475,972,442,-0.940426,132.993
-245,582,-1.39014,-135.471,0.00255891,0.0139055,-0.0119425,0.0214537,-0.00498936,-1.00714,0.0162234,0.0144266,979,442,-1.39014,135.471
-238,582,-1.85657,-137.911,0.00264465,0.0107031,-0.0097978,0.0172679,-0.00392005,-0.980477,0.0130168,0.0195213,986,442,-1.85657,137.911
-231,582,-2.27478,-140.33,0.00291855,0.0077865,-0.0076968,0.013425,-0.00271996,-0.938539,0.00998097,0.0159198,993,442,-2.2748,140.33
-224,582,-2.70667,-142.758,0.0033772,0.00504951,-0.0057515,0.0100253,-0.00159861,-0.857583,0.0072752,0.0138631,1000,442,-2.70668,142.758
-217,582,-3.13409,-145.13,0.00412581,0.00285007,-0.00411082,0.00764795,-0.000672068,-0.708428,0.00533678,0.0163457,1007,442,-3.13407,145.13
-210,582,-3.54797,-147.548,0.00507063,0.000837667,-0.00257712,0.00628897,-0.000380675,-0.441613,0.00432513,0.0181332,1014,442,-3.54797,147.548
-203,582,-3.88611,-149.927,0.00614212,-0.00118439,-0.00104141,0.00628728,-0.00132954,-0.138488,0.00469784,0.0152125,1021,442,-3.88612,149.927
-196,582,-4.18378,-152.202,0.00751956,-0.00295745,0.000308861,0.00752866,-0.00296655,0.0294458,0.00624732,0.0222608,1028,442,-4.18375,152.202
-189,582,-4.50745,-154.444,0.00909106,-0.00476034,0.00156206,0.00926503,-0.00493432,0.110917,0.00832413,0.0291929,1035,442,-4.50749,154.444
-182,582,-4.81555,-156.706,0.0109928,-0.00650362,0.00272722,0.011408,-0.00691886,0.151099,0.0106863,0.0182257,1042,442,-4.81558,156.706
-175,582,-5.08826,-158.926,0.0131999,-0.00841066,0.00384831,0.0138647,-0.0090755,0.171072,0.0133404,0.0181144,1049,442,-5.08827,158.926
-168,582,-5.32715,-161.131,0.0154883,-0.0101079,0.00483948,0.0163728,-0.0109923,0.18076,0.0159007,0.0153936,1056,442,-5.32715,161.131
-161,582,-5.58911,-163.154,0.0179081,-0.0117049,0.00589235,0.0190374,-0.0128343,0.189372,0.018517,0.0179256,1063,442,-5.58917,163.154
-154,582,-5.76526,-165.227,0.0206617,-0.0134246,0.00703056,0.0220549,-0.0148178,0.195624,0.0214247,0.0240817,1070,442,-5.76524,165.227
-147,582,-5.86292,-167.293,0.0236918,-0.0144573,0.00783378,0.0252378,-0.0160033,0.194845,0.0240087,0.0468374,1077,442,-5.86288,167.293
-140,582,-6.11145,-169.363,0,0,0,0,0,0,0,-1,1084,442,-6.11141,169.363
-133,582,-5.98291,-171.368,0,0,0,0,0,0,0,-1,1091,442,-5.9829,171.368
-126,582,-5.97424,-173.232,0,0,0,0,0,0,0,-1,1098,442,-5.97424,173.232
-119,582,4.06213,-72.0599,0,0,0,0,0,0,0,-1,1105,442,4.06213,72.0599
-112,582,3.47888,-53.7394,0,0,0,0,0,0,0,-1,1112,442,3.47883,53.7394
-105,582,2.87219,-43.073,0,0,0,0,0,0,0,-1,1119,442,2.87217,43.073
-98,582,2.61938,-32.8673,0,0,0,0,0,0,0,-1,1126,442,2.61944,32.8673
-91,582,2.16492,-24.1119,0,0,0,0,0,0,0,-1,1133,442,2.16496,24.1119
-84,582,2.10278,-16.7533,0,0,0,0,0,0,0,-1,1140,442,2.10279,16.7533
-77,582,2.30212,-11.4907,0,0,0,0,0,0,0,-1,1147,442,2.30207,11.4907
-70,582,1.49255,-6.36548,0,0,0,0,0,0,0,-1,1154,442,1.49251,6.36549
-63,582,-4.62915,-4.0347,0,0,0,0,0,0,0,-1,1161,442,-4.6292,4.03471
-56,582,-5.81714,-5.24149,0,0,0,0,0,0,0,-1,1168,442,-5.81718,5.24149
-49,582,-3.88672,-10.1064,0,0,0,0,0,0,0,-1,1175,442,-3.88678,10.1064
-42,582,-0.948975,1.13968,0,0,0,0,0,0,0,-1,1182,442,-0.949003,-1.13969
-35,582,-2.58435,-3.86911,0,0,0,0,0,0,0,-1,1189,442,-2.58437,3.86912
-28,582,-0.825317,-3.45941,0,0,0,0,0,0,0,-1,1196,442,-0.825377,3.45942
-21,582,13.0271,-98.4075,0,0,0,0,0,0,0,-1,1203,442,13.0271,98.4075
-14,582,12.4244,-99.4351,0,0,0,0,0,0,0,-1,1210,442,12.4244,99.4351
-7,582,12.249,-100.237,0,0,0,0,0,0,0,-1,1217,442,12.2491,100.237
0,582,17.4753,-112.157,0,0,0,0,0,0,0,-1,1224,442,17.4754,112.157
7,582,16.4022,-112.184,0,0,0,0,0,0,0,-1,1231,442,16.4022,112.184
14,582,15.0261,-112.419,0,0,0,0,0,0,0,-1,1238,442,15.0261,112.419
21,582,13.6755,-112.745,0,0,0,0,0,0,0,-1,1245,442,13.6756,112.745
28,582,12.3351,-113.101,0,0,0,0,0,0,0,-1,1252,442,12.3351,113.101
35,582,11.172,-113.629,0,0,0,0,0,0,0,-1,1259,442,11.172,113.629
42,582,9.81628,-113.952,0,0,0,0,0,0,0,-1,1266,442,9.81629,113.952
49,582,8.65308,-114.163,0,0,0,0,0,0,0,-1,1273,442,8.65306,114.163
56,582,7.48987,-114.375,0,0,0,0,0,0,0,-1,1280,442,7.48983,114.375
63,582,6.04761,-112.882,0,0,0,0,0,0,0,-1,1287,442,6.04765,112.882
70,582,4.90051,-111.912,0,0,0,0,0,0,0,-1,1294,442,4.90047,111.912
77,582,0.309692,-116.687,0,0,0,0,0,0,0,-1,1301,442,0.309676,116.687
84,582,-0.994141,-117.92,0,0,0,0,0,0,0,-1,1308,442,-0.994174,117.92
91,582,-0.00683594,-108.74,0,0,0,0,0,0,0,-1,1315,442,-0.00679383,108.74
98,582,0.664063,-122.425,0,0,0,0,0,0,0,-1,1322,442,0.664089,122.425
105,582,-0.212158,-123.521,0,0,0,0,0,0,0,-1,1329,442,-0.212145,123.521
112,582,-0.888672,-124.615,0,0,0,0,0,0,0,-1,1336,442,-0.888725,124.615
119,582,-1.75159,-126.18,0,0,0,0,0,0,0,-1,1343,442,-1.75154,126.18
126,582,-2.3335,-128.074,0,0,0,0,0,0,0,-1,1350,442,-2.33344,128.074
133,582,-2.76953,-130.204,0,0,0,0,0,0,0,-1,1357,442,-2.76951,130.204
140,582,-3.38879,-132.162,0,0,0,0,0,0,0,-1,1364,442,-3.3888,132.162
147,582,-4.03101,-133.844,0,0,0,0,0,0,0,-1,1371,442,-4.03104,133.844
154,582,-3.93127,-135.147,0,0,0,0,0,0,0,-1,1378,442,-3.93131,135.147
161,582,-4.41931,-137.539,0,0,0,0,0,0,0,-1,1385,442,-4.41927,137.539
168,582,0.081665,-40.4535,0,0,0,0,0,0,0,-1,1392,442,0.0816215,40.4535
175,582,6.50549,-2.00424,0,0,0,0,0,0,0,-1,1399,442,6.50546,2.00425
182,582,5.18958,-2.18652,0,0,0,0,0,0,0,-1,1406,442,5.1896,2.18652
189,582,6.19751,-0.880951,0,0,0,0,0,0,0,-1,1413,442,6.19754,0.88096
196,582,4.87354,-2.22327,0,0,0,0,0,0,0,-1,1420,442,4.87348,2.22325
203,582,3.11401,-4.48257,0,0,0,0,0,0,0,-1,1427,442,3.11404,4.48259
210,582,2.93115,-11.0731,0,0,0,0,0,0,0,-1,1434,442,2.93113,11.0731
217,582,4.94092,-16.5476,0,0,0,0,0,0,0,-1,1441,442,4.94087,16.5476
224,582,5.21008,-20.9908,0,0,0,0,0,0,0,-1,1448,442,5.21006,20.9908
231,582,5.70032,-25.622,0,0,0,0,0,0,0,-1,1455,442,5.70026,25.6221
238,582,6.44189,-30.7028,0,0,0,0,0,0,0,-1,1462,442,6.44195,30.7028
245,582,10.0378,-45.1569,0,0,0,0,0,0,0,-1,1469,442,10.0379,45.1568
252,582,13.8408,-67.8125,0,0,0,0,0,0,0,-1,1476,442,13.8408,67.8125
259,582,16.8613,-172.597,0,0,0,0,0,0,0,-1,1483,442,16.8614,172.597
266,582,16.7811,-170.413,0,0,0,0,0,0,0,-1,1490,442,16.7812,170.413
273,582,16.6886,-168.804,0,0,0,0,0,0,0,-1,1497,442,16.6886,168.804
280,582,16.5697,-166.637,0.0214808,0.00165635,-0.0020937,0.0216995,0.00143764,-0.104082,0.0140117,0.0455671,1504,442,16.5697,166.637
287,582,16.4469,-164.391,0.0190928,0.00263317,-0.00121549,0.0191821,0.0025439,-0.0733166,0.0120301,0.0182176,1511,442,16.4469,164.391
294,582,16.2749,-162.166,0.0166346,0.00349565,-0.00065061,0.0166668,0.00346351,-0.0493567,0.0101555,0.0120112,1518,442,16.2749,162.166
301,582,16.0282,-159.938,0.0142169,0.00396027,-0.00020989,0.0142212,0.00395597,-0.0204525,0.00847568,0.0135169,1525,442,16.0281,159.938
308,582,15.7539,-157.717,0.0119497,0.00404463,0.000177264,0.0119537,0.00404066,0.022409,0.00702114,0.0173476,1532,442,15.7539,157.717
315,582,15.4617,-155.524,0.00978713,0.0040818,0.000655123,0.00986139,0.00400754,0.112869,0.00572664,0.0168401,1539,442,15.4616,155.524
322,582,15.1614,-153.269,0.00793216,0.00428561,0.0013849,0.00839849,0.00381929,0.324797,0.00485548,0.0140952,1546,442,15.1614,153.269
329,582,14.8258,-150.989,0.0063593,0.00462853,0.00223262,0.00788838,0.00309945,0.600508,0.00458905,0.0137731,1553,442,14.8258,150.989
336,582,14.4567,-148.666,0.00495642,0.00510286,0.00310962,0.00814012,0.00191916,0.797169,0.00491359,0.0135419,1560,442,14.4567,148.666
343,582,14.0724,-146.27,0.0038225,0.0063388,0.00423547,0.00949904,0.000662271,0.929773,0.00612388,0.0156304,1567,442,14.0724,146.27
350,582,13.6755,-143.886,0.00302628,0.00835802,0.00568219,0.0119686,-0.00058433,1.00474,0.00818082,0.0199422,1574,442,13.6756,143.886
357,582,13.2753,-141.442,0.002349,0.0105448,0.00713191,0.0146723,-0.00177849,1.04616,0.010425,0.0167905,1581,442,13.2753,141.442
364,582,12.8219,-139.027,0.00184845,0.0131284,0.00863033,0.0177982,-0.00282138,1.07482,0.0129091,0.0126968,1588,442,12.8219,139.027
371,582,12.3707,-136.546,0.0014061,0.0161224,0.0101749,0.0213209,-0.00379242,1.09845,0.0156322,0.018667,1595,442,12.3708,136.546
378,582,11.9117,-134.035,0.00105541,0.0194421,0.011662,0.0250987,-0.00460115,1.11919,0.0184583,0.0194127,1602,442,11.9117,134.035
385,582,11.4224,-131.472,0.000980212,0.0229369,0.0132041,0.0291304,-0.00521327,1.13221,0.021371,0.0162476,1609,442,11.4223,131.472
392,582,10.8981,-128.918,0.000944014,0.0264289,0.0146817,0.0331267,-0.00575377,1.1428,0.0242312,0.0184818,1616,442,10.898,128.918
399,582,10.3955,-126.405,0.000890762,0.0299634,0.0161068,0.0371234,-0.00626929,1.15249,0.0270817,0.0198793,1623,442,10.3955,126.405
406,582,9.7926,-123.736,0.000911733,0.0333755,0.0174381,0.0409672,-0.00667995,1.16019,0.0297888,0.0404311,1630,442,9.79261,123.736
413,582,9.3457,-121.074,0,0,0,0,0,0,0,-1,1637,442,9.34574,121.074
420,582,8.76099,-118.293,0,0,0,0,0,0,0,-1,1644,442,8.76094,118.293
427,582,7.99304,-115.54,0,0,0,0,0,0,0,-1,1651,442,7.99305,115.54
434,582,12.3431,-48.7588,0,0,0,0,0,0,0,-1,1658,442,12.3432,48.7588
441,582,10.8484,-36.2891,0,0,0,0,0,0,0,-1,1665,442,10.8484,36.2891
448,582,11.2651,-32.8669,0,0,0,0,0,0,0,-1,1672,442,11.2651,32.8668
455,582,6.4585,-19.4734,0,0,0,0,0,0,0,-1,1679,442,6.45854,19.4734
462,582,5.35022,-19.2616,0,0,0,0,0,0,0,-1,1686,442,5.35025,19.2616
469,582,6.28601,-21.5695,0,0,0,0,0,0,0,-1,1693,442,6.28597,21.5695
476,582,1.93579,-8.53891,0,0,0,0,0,0,0,-1,1700,442,1.93579,8.53892
483,582,0,0,0,0,0,0,0,0,0,-1,1707,442,0,0
490,582,0,0,0,0,0,0,0,0,0,-1,1714,442,0,0
497,582,0,0,0,0,0,0,0,0,0,-1,1721,442,0,0
504,582,0,0,0,0,0,0,0,0,0,-1,1728,442,0,0
511,582,0,0,0,0,0,0,0,0,0,-1,1735,442,0,0
518,582,0,0,0,0,0,0,0,0,0,-1,1742,442,0,0
525,582,0,0,0,0,0,0,0,0,0,-1,1749,442,0,0
532,582,0,0,0,0,0,0,0,0,0,-1,1756,442,0,0
539,582,0,0,0,0,0,0,0,0,0,-1,1763,442,0,0
546,582,0,0,0,0,0,0,0,0,0,-1,1770,442,0,0
553,582,0,0,0,0,0,0,0,0,0,-1,1777,442,0,0
560,582,0,0,0,0,0,0,0,0,0,-1,1784,442,0,0
567,582,0,0,0,0,0,0,0,0,0,-1,1791,442,0,0
574,582,0,0,0,0,0,0,0,0,0,-1,1798,442,0,0
581,582,0,0,0,0,0,0,0,0,0,-1,1805,442,0,0
588,582,0,0,0,0,0,0,0,0,0,-1,1812,442,0,0
595,582,0,0,0,0,0,0,0,0,0,-1,1819,442,0,0
602,582,0,0,0,0,0,0,0,0,0,-1,1826,442,0,0
609,582,0,0,0,0,0,0,0,0,0,-1,1833,442,0,0
616,582,0,0,0,0,0,0,0,0,0,-1,1840,442,0,0
623,582,0,0,0,0,0,0,0,0,0,-1,1847,442,0,0
630,582,0,0,0,0,0,0,0,0,0,-1,1854,442,0,0
637,582,0,0,0,0,0,0,0,0,0,-1,1861,442,0,0
644,582,0,0,0,0,0,0,0,0,0,-1,1868,442,0,0
651,582,0,0,0,0,0,0,0,0,0,-1,1875,442,0,0
658,582,0,0,0,0,0,0,0,0,0,-1,1882,442,0,0
665,582,0,0,0,0,0,0,0,0,0,-1,1889,442,0,0
672,582,0,0,0,0,0,0,0,0,0,-1,1896,442,0,0
679,582,0,0,0,0,0,0,0,0,0,-1,1903,442,0,0
686,582,0,0,0,0,0,0,0,0,0,-1,1910,442,0,0
693,582,0,0,0,0,0,0,0,0,0,-1,1917,442,0,0
700,582,0,0,0,0,0,0,0,0,0,-1,1924,442,0,0
707,582,0,0,0,0,0,0,0,0,0,-1,1931,442,0,0
714,582,0,0,0,0,0,0,0,0,0,-1,1938,442,0,0
721,582,0,0,0,0,0,0,0,0,0,-1,1945,442,0,0
728,582,0,0,0,0,0,0,0,0,0,-1,1952,442,0,0
735,582,0,0,0,0,0,0,0,0,0,-1,1959,442,0,0
742,582,0,0,0,0,0,0,0,0,0,-1,1966,442,0,0
749,582,0,0,0,0,0,0,0,0,0,-1,1973,442,0,0
756,582,0,0,0,0,0,0,0,0,0,-1,1980,442,0,0
763,582,0,0,0,0,0,0,0,0,0,-1,1987,442,0,0
770,582,0,0,0,0,0,0,0,0,0,-1,1994,442,0,0
777,582,0,0,0,0,0,0,0,0,0,-1,2001,442,0,0
784,582,0,0,0,0,0,0,0,0,0,-1,2008,442,0,0
791,582,0,0,0,0,0,0,0,0,0,-1,2015,442,0,0
798,582,0,0,0,0,0,0,0,0,0,-1,2022,442,0,0
805,582,0,0,0,0,0,0,0,0,0,-1,2029,442,0,0
812,582,0,0,0,0,0,0,0,0,0,-1,2036,442,0,0
-700,575,0,0,0,0,0,0,0,0,0,-1,524,449,0,0
-693,575,0,0,0,0,0,0,0,0,0,-1,531,449,0,0
-686,575,0,0,0,0,0,0,0,0,0,-1,538,449,0,0
-679,575,0,0,0,0,0,0,0,0,0,-1,545,449,0,0
-672,575,0,0,0,0,0,0,0,0,0,-1,552,449,0,0
-665,575,0,0,0,0,0,0,0,0,0,-1,559,449,0,0
-658,575,0,0,0,0,0,0,0,0,0,-1,566,449,0,0
-651,575,0,0,0,0,0,0,0,0,0,-1,573,449,0,0
-644,575,0,0,0,0,0,0,0,0,0,-1,580,449,0,0
-637,575,0,0,0,0,0,0,0,0,0,-1,587,449,0,0
-630,575,0,0,0,0,0,0,0,0,0,-1,594,449,0,0
-623,575,0,0,0,0,0,0,0,0,0,-1,601,449,0,0
-616,575,0,0,0,0,0,0,0,0,0,-1,608,449,0,0
-609,575,0,0,0,0,0,0,0,0,0,-1,615,449,0,0
-602,575,0,0,0,0,0,0,0,0,0,-1,622,449,0,0
-595,575,0,0,0,0,0,0,0,0,0,-1,629,449,0,0
-588,575,0,0,0,0,0,0,0,0,0,-1,636,449,0,0
-581,575,0,0,0,0,0,0,0,0,0,-1,643,449,0,0
-574,575,0,0,0,0,0,0,0,0,0,-1,650,449,0,0
-567,575,0,0,0,0,0,0,0,0,0,-1,657,449,0,0
-560,575,0,0,0,0,0,0,0,0,0,-1,664,449,0,0
-553,575,0,0,0,0,0,0,0,0,0,-1,671,449,0,0
-546,575,0,0,0,0,0,0,0,0,0,-1,678,449,0,0
-539,575,0,0,0,0,0,0,0,0,0,-1,685,449,0,0
-532,575,0,0,0,0,0,0,0,0,0,-1,692,449,0,0
-525,575,0,0,0,0,0,0,0,0,0,-1,699,449,0,0
-518,575,0,0,0,0,0,0,0,0,0,-1,706,449,0,0
-511,575,0,0,0,0,0,0,0,0,0,-1,713,449,0,0
-504,575,0,0,0,0,0,0,0,0,0,-1,720,449,0,0
-497,575,0,0,0,0,0,0,0,0,0,-1,727,449,0,0
-490,575,0,0,0,0,0,0,0,0,0,-1,734,449,0,0
-483,575,0,0,0,0,0,0,0,0,0,-1,741,449,0,0
-476,575,0,0,0,0,0,0,0,0,0,-1,748,449,0,0
-469,575,0,0,0,0,0,0,0,0,0,-1,755,449,0,0
-462,575,0,0,0,0,0,0,0,0,0,-1,762,449,0,0
-455,575,0,0,0,0,0,0,0,0,0,-1,769,449,0,0
-448,575,0,0,0,0,0,0,0,0,0,-1,776,449,0,0
-441,575,0,0,0,0,0,0,0,0,0,-1,783,449,0,0
-434,575,0,0,0,0,0,0,0,0,0,-1,790,449,0,0
-427,575,0,0,0,0,0,0,0,0,0,-1,797,449,0,0
-420,575,0,0,0,0,0,0,0,0,0,-1,804,449,0,0
-413,575,0,0,0,0,0,0,0,0,0,-1,811,449,0,0
-406,575,0,0,0,0,0,0,0,0,0,-1,818,449,0,0
-399,575,0,0,0,0,0,0,0,0,0,-1,825,449,0,0
-392,575,0,0,0,0,0,0,0,0,0,-1,832,449,0,0
-385,575,0,0,0,0,0,0,0,0,0,-1,839,449,0,0
-378,575,0,0,0,0,0,0,0,0,0,-1,846,449,0,0
-371,575,0.56897,-3.52304,0,0,0,0,0,0,0,-1,853,449,0.568955,3.52306
-364,575,1.49805,-4.67191,0,0,0,0,0,0,0,-1,860,449,1.49803,4.6719
-357,575,3.15521,-8.29892,0,0,0,0,0,0,0,-1,867,449,3.15521,8.29891
-350,575,-0.825928,-18.5347,0,0,0,0,0,0,0,-1,874,449,-0.825948,18.5347
-343,575,0.465393,-16.3569,0,0,0,0,0,0,0,-1,881,449,0.465397,16.3569
-336,575,3.1994,-17.5725,0,0,0,0,0,0,0,-1,888,449,3.19941,17.5725
-329,575,2.81946,-29.1576,0,0,0,0,0,0,0,-1,895,449,2.81945,29.1576
-322,575,4.28943,-27.9487,0,0,0,0,0,0,0,-1,902,449,4.28944,27.9487
-315,575,6.13507,-35.9424,0,0,0,0,0,0,0,-1,909,449,6.13508,35.9424
-308,575,2.17755,-78.9857,0,0,0,0,0,0,0,-1,916,449,2.17756,78.9857
-301,575,0.314148,-113.814,0,0,0,0,0,0,0,-1,923,449,0.31413,113.814
-294,575,-0.524536,-116.476,0,0,0,0,0,0,0,-1,930,449,-0.524557,116.476
-287,575,-0.932617,-119.317,0.00328639,0.0285459,-0.0199306,0.0395115,-0.00767915,-1.06781,0.0292388,0.0414234,937,449,-0.932638,119.317
-280,575,-1.37817,-122.07,0.00358449,0.0246925,-0.0182666,0.0352348,-0.00695783,-1.04736,0.0261199,0.0302711,944,449,-1.3782,122.07
-273,575,-1.87701,-124.856,0.0034268,0.0211374,-0.0161968,0.0307415,-0.00617735,-1.03556,0.0228337,0.02172,951,449,-1.87702,124.856
-266,575,-2.39008,-127.484,0.00308901,0.0178352,-0.0140621,0.0263399,-0.00541568,-1.02686,0.019616,0.0231852,958,449,-2.39008,127.484
-259,575,-2.89221,-129.989,0.00297311,0.0144492,-0.0120311,0.0220405,-0.00461823,-1.00791,0.0164506,0.0197791,965,449,-2.89221,129.989
-252,575,-3.38434,-132.476,0.0031302,0.0112745,-0.0100377,0.0180346,-0.00362989,-0.978098,0.013398,0.0170789,972,449,-3.38434,132.476
-245,575,-3.88159,-134.948,0.00340152,0.00840556,-0.00809137,0.0143729,-0.00256584,-0.935346,0.0105418,0.0195765,979,449,-3.88159,134.948
-238,575,-4.29816,-137.414,0.00377739,0.00565877,-0.00621003,0.010999,-0.00156279,-0.860566,0.00790522,0.0184348,986,449,-4.29813,137.414
-231,575,-4.69788,-139.888,0.00434395,0.00315531,-0.00435416,0.00814417,-0.000644905,-0.71757,0.00565668,0.0160594,993,449,-4.69789,139.888
-224,575,-5.11865,-142.385,0.00514032,0.000851992,-0.00264059,0.00639765,-0.000405334,-0.444389,0.00440643,0.017065,1000,449,-5.11866,142.385
-217,575,-5.48267,-144.769,0.00616712,-0.00106264,-0.00114253,0.00634338,-0.0012389,-0.153064,0.00469667,0.013963,1007,449,-5.48268,144.769
-210,575,-5.84778,-147.152,0.00734412,-0.00289448,0.000308819,0.00735343,-0.00290379,0.0301257,0.00610492,0.0117048,1014,449,-5.84777,147.152
-203,575,-6.15869,-149.508,0.00872593,-0.00472644,0.00170642,0.00893902,-0.00493953,0.124228,0.00812293,0.0152364,1021,449,-6.15868,149.508
-196,575,-6.47821,-151.806,0.0104237,-0.00651828,0.00302517,0.0109476,-0.00704225,0.171503,0.0104677,0.0229187,1028,449,-6.47818,151.806
-189,575,-6.81531,-153.989,0.0123486,-0.00819715,0.00424189,0.0131899,-0.00903848,0.195798,0.012908,0.0252085,1035,449,-6.8153,153.989
-182,575,-7.11035,-156.229,0.0146245,-0.0100241,0.00542136,0.0157642,-0.0111638,0.207209,0.0156223,0.0170358,1042,449,-7.1104,156.229
-175,575,-7.29956,-158.485,0.017188,-0.01217,0.00656106,0.0185876,-0.0135696,0.210166,0.0186411,0.0169666,1049,449,-7.2995,158.485
-168,575,-7.479,-160.681,0.0197949,-0.013973,0.0075632,0.0214115,-0.0155896,0.210574,0.0214506,0.0260075,1056,449,-7.47906,160.681
-161,575,-7.82349,-162.687,0,0,0,0,0,0,0,-1,1063,449,-7.8235,162.687
-154,575,-7.78687,-164.824,0,0,0,0,0,0,0,-1,1070,449,-7.78692,164.824
-147,575,-7.94751,-167.046,0,0,0,0,0,0,0,-1,1077,449,-7.94749,167.046
-140,575,1.74573,-82.2679,0,0,0,0,0,0,0,-1,1084,449,1.74574,82.268
-133,575,3.1123,-72.4413,0,0,0,0,0,0,0,-1,1091,449,3.11224,72.4413
-126,575,3.56506,-62.5804,0,0,0,0,0,0,0,-1,1098,449,3.56505,62.5804
-119,575,3.00208,-52.3971,0,0,0,0,0,0,0,-1,1105,449,3.00204,52.3971
-112,575,2.70337,-43.3701,0,0,0,0,0,0,0,-1,1112,449,2.70333,43.3701
-105,575,2.18347,-36.5414,0,0,0,0,0,0,0,-1,1119,449,2.18351,36.5414
-98,575,1.521,-25.6961,0,0,0,0,0,0,0,-1,1126,449,1.52105,25.6961
-91,575,1.60803,-16.4247,0,0,0,0,0,0,0,-1,1133,449,1.60802,16.4247
-84,575,1.16553,-11.9056,0,0,0,0,0,0,0,-1,1140,449,1.16558,11.9056
-77,575,0.205078,-11.2584,0,0,0,0,0,0,0,-1,1147,449,0.205117,11.2584
-70,575,-4.2467,-1.78738,0,0,0,0,0,0,0,-1,1154,449,-4.24674,1.78739
-63,575,-4.52209,-3.48798,0,0,0,0,0,0,0,-1,1161,449,-4.5221,3.48796
-56,575,-5.5968,-5.4928,0,0,0,0,0,0,0,-1,1168,449,-5.59683,5.49281
-49,575,-5.96863,-7.17612,0,0,0,0,0,0,0,-1,1175,449,-5.96868,7.1761
-42,575,-0.830322,0.773499,0,0,0,0,0,0,0,-1,1182,449,-0.83038,-0.77351
-35,575,-0.62085,0.205139,0,0,0,0,0,0,0,-1,1189,449,-0.620855,-0.205126
-28,575,0.49292,-3.87988,0,0,0,0,0,0,0,-1,1196,449,0.492941,3.87989
-21,575,10.9773,-107.191,0,0,0,0,0,0,0,-1,1203,449,10.9773,107.191
-14,575,13.3673,-99.3749,0,0,0,0,0,0,0,-1,1210,449,13.3673,99.3749
-7,575,12.8215,-99.8812,0,0,0,0,0,0,0,-1,1217,449,12.8215,99.8812
0,575,17.7313,-112.885,0,0,0,0,0,0,0,-1,1224,449,17.7313,112.885
7,575,16.6273,-112.921,0,0,0,0,0,0,0,-1,1231,449,16.6273,112.921
14,575,15.5314,-112.947,0,0,0,0,0,0,0,-1,1238,449,15.5314,112.947
21,575,14.2655,-112.903,0,0,0,0,0,0,0,-1,1245,449,14.2654,112.903
28,575,12.9507,-113.199,0,0,0,0,0,0,0,-1,1252,449,12.9507,113.199
35,575,11.4309,-113.676,0,0,0,0,0,0,0,-1,1259,449,11.4309,113.676
42,575,10.0674,-114.167,0,0,0,0,0,0,0,-1,1266,449,10.0674,114.167
49,575,8.76477,-114.055,0,0,0,0,0,0,0,-1,1273,449,8.76476,114.055
56,575,6.71106,-115.165,0,0,0,0,0,0,0,-1,1280,449,6.7111,115.165
63,575,6.00159,-113.017,0,0,0,0,0,0,0,-1,1287,449,6.0016,113.017
70,575,3.03333,-116.096,0,0,0,0,0,0,0,-1,1294,449,3.03338,116.096
77,575,1.5437,-117.172,0,0,0,0,0,0,0,-1,1301,449,1.54368,117.172
84,575,0.0450439,-118.207,0,0,0,0,0,0,0,-1,1308,449,0.0451016,118.207
91,575,1.51672,-120.91,0,0,0,0,0,0,0,-1,1315,449,1.51676,120.91
98,575,0.718384,-121.981,0,0,0,0,0,0,0,-1,1322,449,0.718352,121.981
105,575,-0.0986328,-123.075,0,0,0,0,0,0,0,-1,1329,449,-0.0985735,123.075
112,575,-0.727417,-124.457,0,0,0,0,0,0,0,-1,1336,449,-0.72742,124.457
119,575,-1.57654,-125.68,0,0,0,0,0,0,0,-1,1343,449,-1.57648,125.68
126,575,-2.14478,-127.231,0,0,0,0,0,0,0,-1,1350,449,-2.14472,127.231
133,575,-2.78406,-129.103,0,0,0,0,0,0,0,-1,1357,449,-2.78408,129.103
140,575,-3.95972,-130.925,0,0,0,0,0,0,0,-1,1364,449,-3.95976,130.925
147,575,-5.11475,-132.78,0,0,0,0,0,0,0,-1,1371,449,-5.11472,132.78
154,575,-3.46606,-134.702,0,0,0,0,0,0,0,-1,1378,449,-3.46604,134.702
161,575,-3.96082,-137.119,0,0,0,0,0,0,0,-1,1385,449,-3.96078,137.119
168,575,-4.97888,-77.9566,0,0,0,0,0,0,0,-1,1392,449,-4.97891,77.9566
175,575,4.32617,1.93634,0,0,0,0,0,0,0,-1,1399,449,4.32612,-1.93634
182,575,6.3147,-2.88345,0,0,0,0,0,0,0,-1,1406,449,6.31466,2.88346
189,575,6.10449,-1.30817,0,0,0,0,0,0,0,-1,1413,449,6.10455,1.30817
196,575,5.79895,0.818359,0,0,0,0,0,0,0,-1,1420,449,5.79895,-0.81837
203,575,3.29724,-1.46378,0,0,0,0,0,0,0,-1,1427,449,3.29722,1.46377
210,575,2.32739,-7.74503,0,0,0,0,0,0,0,-1,1434,449,2.32741,7.74502
217,575,3.33618,-11.5521,0,0,0,0,0,0,0,-1,1441,449,3.3362,11.5521
224,575,5.51709,-16.3903,0,0,0,0,0,0,0,-1,1448,449,5.51713,16.3903
231,575,5.48572,-20.4595,0,0,0,0,0,0,0,-1,1455,449,5.48571,20.4595
238,575,5.33484,-22.3575,0,0,0,0,0,0,0,-1,1462,449,5.33478,22.3575
245,575,5.59741,-23.513,0,0,0,0,0,0,0,-1,1469,449,5.5974,23.513
252,575,10.5602,-44.9309,0,0,0,0,0,0,0,-1,1476,449,10.5602,44.9309
259,575,12.6493,-57.551,0,0,0,0,0,0,0,-1,1483,449,12.6493,57.551
266,575,14.9243,-69.1833,0,0,0,0,0,0,0,-1,1490,449,14.9243,69.1833
273,575,15.9393,-82.0017,0,0,0,0,0,0,0,-1,1497,449,15.9394,82.0017
280,575,18.6589,-166.487,0,0,0,0,0,0,0,-1,1504,449,18.6589,166.487
287,575,18.6522,-164.117,0,0,0,0,0,0,0,-1,1511,449,18.6522,164.117
294,575,18.5313,-161.885,0,0,0,0,0,0,0,-1,1518,449,18.5312,161.885
301,575,18.3303,-159.749,0.0181539,0.00344699,-0.00167851,0.018343,0.00325785,-0.112208,0.0113004,0.0295982,1525,449,18.3304,159.749
308,575,18.0592,-157.41,0.0155914,0.00326334,-0.00146589,0.0157633,0.00309143,-0.116738,0.00964497,0.0164842,1532,449,18.0591,157.41
315,575,17.7405,-155.222,0.013065,0.00290887,-0.00121487,0.0132083,0.00276557,-0.117413,0.00804376,0.0138554,1539,449,17.7405,155.222
322,575,17.4202,-152.933,0.0109139,0.00282953,-0.00062176,0.0109615,0.002782,-0.0763104,0.00657939,0.0128963,1546,449,17.4201,152.933
329,575,17.1125,-150.636,0.00903591,0.00288635,4.27783e-05,0.00903621,0.00288606,0.00695587,0.00532931,0.01369,1553,449,17.1125,150.636
336,575,16.7794,-148.274,0.00731827,0.00295783,0.000682168,0.0074225,0.0028536,0.15162,0.00432336,0.0151223,1560,449,16.7794,148.274
343,575,16.3831,-145.783,0.00589235,0.00360299,0.00159289,0.0067092,0.00278615,0.473842,0.00389205,0.0188831,1567,449,16.383,145.783
350,575,16.0067,-143.397,0.00483087,0.00487455,0.00277237,0.00762517,0.00208026,0.789337,0.00455135,0.0174562,1574,449,16.0068,143.397
357,575,15.6267,-141.049,0.00394405,0.00645012,0.0040161,0.00940413,0.000990051,0.936614,0.00596684,0.0141921,1581,449,15.6267,141.049
364,575,15.1823,-138.649,0.00322503,0.00850436,0.005348,0.0118287,-9.92739e-05,1.01465,0.00791907,0.0138929,1588,449,15.1822,138.649
371,575,14.7837,-136.211,0.00260597,0.0108629,0.00671667,0.0146185,-0.00114959,1.06096,0.0101506,0.0253564,1595,449,14.7837,136.211
378,575,14.3358,-133.688,0.00211296,0.0135602,0.00805065,0.0177145,-0.00204132,1.09442,0.0125456,0.0232045,1602,449,14.3358,133.688
385,575,13.8593,-131.13,0.00188059,0.0164142,0.00943199,0.0210541,-0.00275928,1.11363,0.0150404,0.0176555,1609,449,13.8592,131.13
392,575,13.3967,-128.674,0.00171413,0.0192274,0.0107709,0.0243521,-0.00341056,1.1267,0.0174828,0.0165857,1616,449,13.3968,128.674
399,575,12.8645,-126.253,0.00155797,0.0220601,0.0120806,0.0276528,-0.00403474,1.13723,0.0199168,0.0164478,1623,449,12.8645,126.253
406,575,12.3878,-123.557,0.00146926,0.0247359,0.0132984,0.0307712,-0.0045661,1.14475,0.0221933,0.0237064,1630,449,12.3878,123.557
413,575,11.9004,-120.903,0.00139854,0.0268722,0.0143972,0.0333579,-0.00508719,1.14754,0.0241139,0.032485,1637,449,11.9004,120.903
420,575,11.3344,-118.218,0.00120322,0.0287279,0.0153476,0.0355799,-0.00564874,1.1509,0.0258097,0.0311598,1644,449,11.3343,118.218
427,575,10.7162,-115.482,0.00117385,0.0306453,0.0165317,0.0380555,-0.00623629,1.14941,0.0276842,0.0374374,1651,449,10.7162,115.482
434,575,10.1227,-112.742,0,0,0,0,0,0,0,-1,1658,449,10.1227,112.742
441,575,14.0811,-51.3901,0,0,0,0,0,0,0,-1,1665,449,14.081,51.3901
448,575,13.4385,-39.1208,0,0,0,0,0,0,0,-1,1672,449,13.4385,39.1208
455,575,11.7931,-31.6917,0,0,0,0,0,0,0,-1,1679,449,11.793,31.6917
462,575,7.12781,-21.7179,0,0,0,0,0,0,0,-1,1686,449,7.12778,21.7178
469,575,13.3328,-39.946,0,0,0,0,0,0,0,-1,1693,449,13.3328,39.946
476,575,12.8243,-36.3585,0,0,0,0,0,0,0,-1,1700,449,12.8244,36.3585
483,575,7.80994,-33.4096,0,0,0,0,0,0,0,-1,1707,449,7.80991,33.4096
490,575,7.42871,-25.5027,0,0,0,0,0,0,0,-1,1714,449,7.42869,25.5027
497,575,0,0,0,0,0,0,0,0,0,-1,1721,449,0,0
504,575,0,0,0,0,0,0,0,0,0,-1,1728,449,0,0
511,575,0,0,0,0,0,0,0,0,0,-1,1735,449,0,0
518,575,0,0,0,0,0,0,0,0,0,-1,1742,449,0,0
525,575,0,0,0,0,0,0,0,0,0,-1,1749,449,0,0
532,575,0,0,0,0,0,0,0,0,0,-1,1756,449,0,0
539,575,0,0,0,0,0,0,0,0,0,-1,1763,449,0,0
546,575,0,0,0,0,0,0,0,0,0,-1,1770,449,0,0
553,575,0,0,0,0,0,0,0,0,0,-1,1777,449,0,0
560,575,0,0,0,0,0,0,0,0,0,-1,1784,449,0,0
567,575,0,0,0,0,0,0,0,0,0,-1,1791,449,0,0
574,575,0,0,0,0,0,0,0,0,0,-1,1798,449,0,0
581,575,0,0,0,0,0,0,0,0,0,-1,1805,449,0,0
588,575,0,0,0,0,0,0,0,0,0,-1,1812,449,0,0
595,575,0,0,0,0,0,0,0,0,0,-1,1819,449,0,0
602,575,0,0,0,0,0,0,0,0,0,-1,1826,449,0,0
609,575,0,0,0,0,0,0,0,0,0,-1,1833,449,0,0
616,575,0,0,0,0,0,0,0,0,0,-1,1840,449,0,0
623,575,0,0,0,0,0,0,0,0,0,-1,1847,449,0,0
630,575,0,0,0,0,0,0,0,0,0,-1,1854,449,0,0
637,575,0,0,0,0,0,0,0,0,0,-1,1861,449,0,0
644,575,0,0,0,0,0,0,0,0,0,-1,1868,449,0,0
651,575,0,0,0,0,0,0,0,0,0,-1,1875,449,0,0
658,575,0,0,0,0,0,0,0,0,0,-1,1882,449,0,0
665,575,0,0,0,0,0,0,0,0,0,-1,1889,449,0,0
672,575,0,0,0,0,0,0,0,0,0,-1,1896,449,0,0
679,575,0,0,0,0,0,0,0,0,0,-1,1903,449,0,0
686,575,0,0,0,0,0,0,0,0,0,-1,1910,449,0,0
693,575,0,0,0,0,0,0,0,0,0,-1,1917,449,0,0
700,575,0,0,0,0,0,0,0,0,0,-1,1924,449,0,0
707,575,0,0,0,0,0,0,0,0,0,-1,1931,449,0,0
714,575,0,0,0,0,0,0,0,0,0,-1,1938,449,0,0
721,575,0,0,0,0,0,0,0,0,0,-1,1945,449,0,0
728,575,0,0,0,0,0,0,0,0,0,-1,1952,449,0,0
735,575,0,0,0,0,0,0,0,0,0,-1,1959,449,0,0
742,575,0,0,0,0,0,0,0,0,0,-1,1966,449,0,0
749,575,0,0,0,0,0,0,0,0,0,-1,1973,449,0,0
756,575,0,0,0,0,0,0,0,0,0,-1,1980,449,0,0
763,575,0,0,0,0,0,0,0,0,0,-1,1987,449,0,0
770,575,0,0,0,0,0,0,0,0,0,-1,1994,449,0,0
777,575,0,0,0,0,0,0,0,0,0,-1,2001,449,0,0
784,575,0,0,0,0,0,0,0,0,0,-1,2008,449,0,0
791,575,0,0,0,0,0,0,0,0,0,-1,2015,449,0,0
798,575,0,0,0,0,0,0,0,0,0,-1,2022,449,0,0
805,575,0,0,0,0,0,0,0,0,0,-1,2029,449,0,0
812,575,0,0,0,0,0,0,0,0,0,-1,2036,449,0,0
-700,568,0,0,0,0,0,0,0,0,0,-1,524,456,0,0
-693,568,0,0,0,0,0,0,0,0,0,-1,531,456,0,0
-686,568,0,0,0,0,0,0,0,0,0,-1,538,456,0,0
-679,568,0,0,0,0,0,0,0,0,0,-1,545,456,0,0
-672,568,0,0,0,0,0,0,0,0,0,-1,552,456,0,0
-665,568,0,0,0,0,0,0,0,0,0,-1,559,456,0,0
-658,568,0,0,0,0,0,0,0,0,0,-1,566,456,0,0
-651,568,0,0,0,0,0,0,0,0,0,-1,573,456,0,0
-644,568,0,0,0,0,0,0,0,0,0,-1,580,456,0,0
-637,568,0,0,0,0,0,0,0,0,0,-1,587,456,0,0
-630,568,0,0,0,0,0,0,0,0,0,-1,594,456,0,0
-623,568,0,0,0,0,0,0,0,0,0,-1,601,456,0,0
-616,568,0,0,0,0,0,0,0,0,0,-1,608,456,0,0
-609,568,0,0,0,0,0,0,0,0,0,-1,615,456,0,0
-602,568,0,0,0,0,0,0,0,0,0,-1,622,456,0,0
-595,568,0,0,0,0,0,0,0,0,0,-1,629,456,0,0
-588,568,0,0,0,0,0,0,0,0,0,-1,636,456,0,0
-581,568,0,0,0,0,0,0,0,0,0,-1,643,456,0,0
-574,568,0,0,0,0,0,0,0,0,0,-1,650,456,0,0
-567,568,0,0,0,0,0,0,0,0,0,-1,657,456,0,0
-560,568,0,0,0,0,0,0,0,0,0,-1,664,456,0,0
-553,568,0,0,0,0,0,0,0,0,0,-1,671,456,0,0
-546,568,0,0,0,0,0,0,0,0,0,-1,678,456,0,0
-539,568,0,0,0,0,0,0,0,0,0,-1,685,456,0,0
-532,568,0,0,0,0,0,0,0,0,0,-1,692,456,0,0
-525,568,0,0,0,0,0,0,0,0,0,-1,699,456,0,0
-518,568,0,0,0,0,0,0,0,0,0,-1,706,456,0,0
-511,568,0,0,0,0,0,0,0,0,0,-1,713,456,0,0
-504,568,0,0,0,0,0,0,0,0,0,-1,720,456,0,0
-497,568,0,0,0,0,0,0,0,0,0,-1,727,456,0,0
-490,568,0,0,0,0,0,0,0,0,0,-1,734,456,0,0
-483,568,0,0,0,0,0,0,0,0,0,-1,741,456,0,0
-476,568,0,0,0,0,0,0,0,0,0,-1,748,456,0,0
-469,568,0,0,0,0,0,0,0,0,0,-1,755,456,0,0
-462,568,0,0,0,0,0,0,0,0,0,-1,762,456,0,0
-455,568,0,0,0,0,0,0,0,0,0,-1,769,456,0,0
-448,568,0,0,0,0,0,0,0,0,0,-1,776,456,0,0
-441,568,0,0,0,0,0,0,0,0,0,-1,783,456,0,0
-434,568,0,0,0,0,0,0,0,0,0,-1,790,456,0,0
-427,568,0,0,0,0,0,0,0,0,0,-1,797,456,0,0
-420,568,0,0,0,0,0,0,0,0,0,-1,804,456,0,0
-413,568,0,0,0,0,0,0,0,0,0,-1,811,456,0,0
-406,568,0,0,0,0,0,0,0,0,0,-1,818,456,0,0
-399,568,0,0,0,0,0,0,0,0,0,-1,825,456,0,0
-392,568,0,0,0,0,0,0,0,0,0,-1,832,456,0,0
-385,568,0,0,0,0,0,0,0,0,0,-1,839,456,0,0
-378,568,0.321777,-7.29929,0,0,0,0,0,0,0,-1,846,456,0.321806,7.29927
-371,568,1.09595,-7.46707,0,0,0,0,0,0,0,-1,853,456,1.09597,7.46707
-364,568,2.70746,-23.4782,0,0,0,0,0,0,0,-1,860,456,2.70746,23.4782
-357,568,2.14166,-7.67645,0,0,0,0,0,0,0,-1,867,456,2.14167,7.67646
-350,568,2.7467,-11.2507,0,0,0,0,0,0,0,-1,874,456,2.7467,11.2507
-343,568,2.16516,-11.3762,0,0,0,0,0,0,0,-1,881,456,2.16514,11.3762
-336,568,1.14984,-29.3232,0,0,0,0,0,0,0,-1,888,456,1.14984,29.3231
-329,568,2.80359,-32.459,0,0,0,0,0,0,0,-1,895,456,2.80357,32.4591
-322,568,0.987793,-58.3259,0,0,0,0,0,0,0,-1,902,456,0.98779,58.3259
-315,568,0.755188,-84.5458,0,0,0,0,0,0,0,-1,909,456,0.755164,84.5458
-308,568,-1.82416,-111.001,0,0,0,0,0,0,0,-1,916,456,-1.82414,111.001
-301,568,-2.27185,-113.716,0,0,0,0,0,0,0,-1,923,456,-2.27186,113.716
-294,568,-2.83453,-116.449,0.00218631,0.0235138,-0.0161285,0.0321851,-0.00648499,-1.07749,0.0239134,0.0264681,930,456,-2.83451,116.449
-287,568,-3.36432,-119.19,0.00269952,0.0206188,-0.0147478,0.0289152,-0.00559691,-1.05837,0.0213879,0.0207816,937,456,-3.36434,119.19
-280,568,-3.85657,-121.888,0.00316513,0.0174505,-0.0133915,0.0254851,-0.00486948,-1.03039,0.0188243,0.0180413,944,456,-3.85659,121.888
-273,568,-4.34796,-124.547,0.00327273,0.0144421,-0.011641,0.0217687,-0.00405389,-1.00905,0.0160355,0.023755,951,456,-4.34793,124.547
-266,568,-4.87061,-127.094,0.00322913,0.0116149,-0.00981569,0.0180957,-0.0032517,-0.987248,0.0132811,0.0223955,958,456,-4.87063,127.094
-259,568,-5.34802,-129.558,0.00339055,0.00876717,-0.00809035,0.0146042,-0.00244644,-0.945802,0.0106457,0.0190315,965,456,-5.34799,129.558
-252,568,-5.82721,-132.016,0.00379869,0.00605947,-0.00637324,0.0114018,-0.00154363,-0.873168,0.00816452,0.0186653,972,456,-5.82721,132.016
-245,568,-6.27716,-134.479,0.00431996,0.00356125,-0.00465462,0.00861065,-0.000729448,-0.744738,0.00599839,0.0209182,979,456,-6.27718,134.479
-238,568,-6.71667,-136.965,0.00495359,0.00118881,-0.0029859,0.00660093,-0.000458531,-0.504152,0.00456115,0.0176462,986,456,-6.71669,136.965
-231,568,-7.16309,-139.42,0.0058004,-0.000958764,-0.00134252,0.00605729,-0.00121565,-0.189064,0.0044985,0.016085,993,456,-7.16306,139.42
-224,568,-7.57092,-141.869,0.00692837,-0.00288146,0.000161611,0.00693103,-0.00288412,0.0164684,0.00582513,0.0187796,1000,456,-7.57094,141.869
-217,568,-7.88141,-144.305,0.00821242,-0.00454558,0.00153702,0.00839498,-0.00472814,0.118222,0.00767459,0.01577,1007,456,-7.88139,144.305
-210,568,-8.20044,-146.678,0.00959807,-0.00622941,0.00292446,0.0101211,-0.00675247,0.176988,0.00980648,0.0140926,1014,456,-8.20041,146.678
-203,568,-8.5202,-149.037,0.0112614,-0.00789852,0.00420258,0.0121427,-0.00877979,0.206702,0.0121315,0.0123085,1021,456,-8.52021,149.037
-196,568,-8.88049,-151.247,0.0132399,-0.00972902,0.00551012,0.0144933,-0.0109825,0.223675,0.0147549,0.0190655,1028,456,-8.88051,151.247
-189,568,-9.10901,-153.506,0.0154786,-0.0112767,0.00672311,0.017073,-0.0128711,0.232848,0.0173449,0.0265456,1035,456,-9.10896,153.506
-182,568,-9.32947,-155.719,0,0,0,0,0,0,0,-1,1042,456,-9.32949,155.719
-175,568,-9.45203,-158.032,0,0,0,0,0,0,0,-1,1049,456,-9.45204,158.032
-168,568,-9.58606,-160.325,0,0,0,0,0,0,0,-1,1056,456,-9.58602,160.325
-161,568,-2.68726,-108.88,0,0,0,0,0,0,0,-1,1063,456,-2.68729,108.88
-154,568,-0.830933,-89.7711,0,0,0,0,0,0,0,-1,1070,456,-0.830932,89.771
-147,568,2.48108,-65.0201,0,0,0,0,0,0,0,-1,1077,456,2.48114,65.0201
-140,568,2.39624,-65.523,0,0,0,0,0,0,0,-1,1084,456,2.39621,65.523
-133,568,2.48999,-60.2435,0,0,0,0,0,0,0,-1,1091,456,2.49001,60.2435
-126,568,2.47339,-55.9059,0,0,0,0,0,0,0,-1,1098,456,2.47343,55.9059
-119,568,1.89978,-50.8443,0,0,0,0,0,0,0,-1,1105,456,1.89978,50.8443
-112,568,1.98242,-35.0942,0,0,0,0,0,0,0,-1,1112,456,1.98247,35.0942
-105,568,2.02454,-25.038,0,0,0,0,0,0,0,-1,1119,456,2.02459,25.038
-98,568,1.58618,-14.7874,0,0,0,0,0,0,0,-1,1126,456,1.58617,14.7874
-91,568,1.11621,-11.1853,0,0,0,0,0,0,0,-1,1133,456,1.11626,11.1853
-84,568,0.461792,-9.7959,0,0,0,0,0,0,0,-1,1140,456,0.461793,9.7959
-77,568,-1.13806,-8.57822,0,0,0,0,0,0,0,-1,1147,456,-1.13807,8.57821
-70,568,-4.09766,-1.42911,0,0,0,0,0,0,0,-1,1154,456,-4.09767,1.4291
-63,568,-5.92273,-3.70752,0,0,0,0,0,0,0,-1,1161,456,-5.92272,3.70751
-56,568,-5.24158,-6.01385,0,0,0,0,0,0,0,-1,1168,456,-5.24161,6.01386
-49,568,-5.24365,-8.33557,0,0,0,0,0,0,0,-1,1175,456,-5.24371,8.33557
-42,568,-0.664795,0.521973,0,0,0,0,0,0,0,-1,1182,456,-0.664829,-0.521984
-35,568,-0.153076,-1.67731,0,0,0,0,0,0,0,-1,1189,456,-0.153068,1.67731
-28,568,1.25439,-4.48798,0,0,0,0,0,0,0,-1,1196,456,1.2544,4.48797
-21,568,14.3225,-95.7751,0,0,0,0,0,0,0,-1,1203,456,14.3225,95.7751
-14,568,13.5939,-95.7115,0,0,0,0,0,0,0,-1,1210,456,13.5939,95.7116
-7,568,13.3939,-99.5256,0,0,0,0,0,0,0,-1,1217,456,13.3939,99.5256
0,568,17.8994,-113.639,0,0,0,0,0,0,0,-1,1224,456,17.8994,113.639
7,568,16.8177,-113.667,0,0,0,0,0,0,0,-1,1231,456,16.8177,113.667
14,568,15.7687,-113.705,0,0,0,0,0,0,0,-1,1238,456,15.7686,113.705
21,568,15.0255,-112.98,0,0,0,0,0,0,0,-1,1245,456,15.0256,112.98
28,568,13.5841,-113.334,0,0,0,0,0,0,0,-1,1252,456,13.5841,113.334
35,568,11.7145,-113.957,0,0,0,0,0,0,0,-1,1259,456,11.7144,113.957
42,568,10.209,-114.158,0,0,0,0,0,0,0,-1,1266,456,10.209,114.158
49,568,8.45886,-114.416,0,0,0,0,0,0,0,-1,1273,456,8.45885,114.416
56,568,6.81494,-115.114,0,0,0,0,0,0,0,-1,1280,456,6.81498,115.114
63,568,5.26221,-116.012,0,0,0,0,0,0,0,-1,1287,456,5.2622,116.012
70,568,3.58411,-116.663,0,0,0,0,0,0,0,-1,1294,456,3.58412,116.663
77,568,2.32214,-117.264,0,0,0,0,0,0,0,-1,1301,456,2.32212,117.264
84,568,0.873535,-118.339,0,0,0,0,0,0,0,-1,1308,456,0.873582,118.339
91,568,1.56677,-120.416,0,0,0,0,0,0,0,-1,1315,456,1.56682,120.416
98,568,0.795044,-121.52,0,0,0,0,0,0,0,-1,1322,456,0.795036,121.52
105,568,0.0231934,-122.624,0,0,0,0,0,0,0,-1,1329,456,0.0232517,122.624
112,568,-0.352661,-124.198,0,0,0,0,0,0,0,-1,1336,456,-0.352687,124.198
119,568,-1.5033,-124.309,0,0,0,0,0,0,0,-1,1343,456,-1.50334,124.309
126,568,-1.93481,-126.266,0,0,0,0,0,0,0,-1,1350,456,-1.93478,126.266
133,568,-2.40845,-128.176,0,0,0,0,0,0,0,-1,1357,456,-2.4084,128.176
140,568,-4.05957,-129.439,0,0,0,0,0,0,0,-1,1364,456,-4.05962,129.439
147,568,-2.74841,-131.46,0,0,0,0,0,0,0,-1,1371,456,-2.74844,131.46
154,568,-3.05994,-134.051,0,0,0,0,0,0,0,-1,1378,456,-3.05996,134.051
161,568,-3.37146,-136.641,0,0,0,0,0,0,0,-1,1385,456,-3.37148,136.641
168,568,-11.53,-55.4321,0,0,0,0,0,0,0,-1,1392,456,-11.53,55.4321
175,568,10.5151,0.747498,0,0,0,0,0,0,0,-1,1399,456,10.5152,-0.747501
182,568,6.35095,-3.63361,0,0,0,0,0,0,0,-1,1406,456,6.35093,3.63359
189,568,6.17493,-1.70911,0,0,0,0,0,0,0,-1,1413,456,6.17497,1.70911
196,568,6.04724,0.200836,0,0,0,0,0,0,0,-1,1420,456,6.04724,-0.200835
203,568,5.9281,2.08649,0,0,0,0,0,0,0,-1,1427,456,5.92812,-2.08648
210,568,1.46216,-2.50446,0,0,0,0,0,0,0,-1,1434,456,1.46219,2.50446
217,568,2.62366,-7.86703,0,0,0,0,0,0,0,-1,1441,456,2.62365,7.86704
224,568,3.43494,-12.1555,0,0,0,0,0,0,0,-1,1448,456,3.43492,12.1555
231,568,4.38245,-9.3205,0,0,0,0,0,0,0,-1,1455,456,4.38244,9.32048
238,568,5.88879,-20.7448,0,0,0,0,0,0,0,-1,1462,456,5.88876,20.7449
245,568,3.34387,-10.6774,0,0,0,0,0,0,0,-1,1469,456,3.34389,10.6774
252,568,3.56946,-9.28928,0,0,0,0,0,0,0,-1,1476,456,3.56948,9.28928
259,568,3.38843,-8.73068,0,0,0,0,0,0,0,-1,1483,456,3.38842,8.73068
266,568,14.0127,-59.903,0,0,0,0,0,0,0,-1,1490,456,14.0127,59.9029
273,568,15.7317,-67.1277,0,0,0,0,0,0,0,-1,1497,456,15.7317,67.1278
280,568,16.2292,-72.0379,0,0,0,0,0,0,0,-1,1504,456,16.2293,72.0379
287,568,16.8087,-82.9175,0,0,0,0,0,0,0,-1,1511,456,16.8087,82.9175
294,568,19.5126,-106.497,0,0,0,0,0,0,0,-1,1518,456,19.5125,106.497
301,568,20.6304,-159.664,0,0,0,0,0,0,0,-1,1525,456,20.6304,159.664
308,568,20.3477,-157.096,0,0,0,0,0,0,0,-1,1532,456,20.3476,157.096
315,568,20.0613,-154.879,0.0161293,0.00189013,-0.00299052,0.0167319,0.00128756,-0.198832,0.0107511,0.0274468,1539,456,20.0612,154.879
322,568,19.7334,-152.53,0.0137529,0.00155914,-0.00251217,0.0142502,0.00106186,-0.195421,0.00916672,0.0137503,1546,456,19.7333,152.53
329,568,19.452,-150.2,0.0116219,0.00138301,-0.00201811,0.0120053,0.000999595,-0.18775,0.00769203,0.0128485,1553,456,19.452,150.2
336,568,19.1189,-147.82,0.00962117,0.00109542,-0.00157662,0.00990338,0.000813205,-0.177124,0.00634857,0.0134068,1560,456,19.1188,147.82
343,568,18.7583,-145.363,0.00793832,0.00118051,-0.00084497,0.00804237,0.00107646,-0.122523,0.00504121,0.0193739,1567,456,18.7583,145.363
350,568,18.4214,-142.989,0.0066494,0.0017455,9.05096e-05,0.00665107,0.00174383,0.0184483,0.00398215,0.0171304,1574,456,18.4214,142.989
357,568,18.0701,-140.615,0.00557076,0.00276877,0.00115773,0.00598721,0.00235232,0.345304,0.00348306,0.012639,1581,456,18.0701,140.615
364,568,17.6632,-138.209,0.00461461,0.00443827,0.00238604,0.0069141,0.00213877,0.766931,0.00408746,0.0155924,1588,456,17.6631,138.209
371,568,17.1898,-135.747,0.00382548,0.00629054,0.00363964,0.00890068,0.00121534,0.948658,0.00557302,0.0266274,1595,456,17.1898,135.747
378,568,16.6937,-133.252,0.00318827,0.00850772,0.00486676,0.0113941,0.000301871,1.03548,0.00749749,0.0234203,1602,456,16.6937,133.252
385,568,16.3206,-130.75,0.00278653,0.0108848,0.00613632,0.0141875,-0.000516198,1.07704,0.00963504,0.0162386,1609,456,16.3206,130.75
392,568,15.86,-128.377,0.00248815,0.0132155,0.00738273,0.0169773,-0.00127361,1.09955,0.0117657,0.0185897,1616,456,15.86,128.377
399,568,15.3624,-125.949,0.00224127,0.0155547,0.00861526,0.0197853,-0.00198938,1.11432,0.0139009,0.0271574,1623,456,15.3625,125.949
406,568,14.9019,-123.246,0.00206646,0.0177441,0.00976002,0.0224235,-0.00261291,1.12373,0.0158917,0.0222282,1630,456,14.9019,123.246
413,568,14.4589,-120.486,0.00195412,0.019471,0.0108199,0.024633,-0.00320793,1.12564,0.0175891,0.0171005,1637,456,14.4589,120.486
420,568,13.9385,-117.871,0.00177803,0.0209659,0.011736,0.0265304,-0.00378647,1.12805,0.0190748,0.022506,1644,456,13.9384,117.871
427,568,13.4017,-115.212,0.00172461,0.0224975,0.0127842,0.0285827,-0.00436056,1.12654,0.0206626,0.0313421,1651,456,13.4017,115.212
434,568,12.9298,-112.415,0.00165519,0.0239741,0.0137236,0.0305028,-0.0048735,1.12675,0.0221392,0.0426311,1658,456,12.9298,112.415
441,568,12.563,-109.698,0,0,0,0,0,0,0,-1,1665,456,12.563,109.698
448,568,15.3542,-50.0354,0,0,0,0,0,0,0,-1,1672,456,15.3542,50.0354
455,568,15.1589,-41.3369,0,0,0,0,0,0,0,-1,1679,456,15.1589,41.3369
462,568,14.3977,-40.8195,0,0,0,0,0,0,0,-1,1686,456,14.3977,40.8194
469,568,13.8547,-74.0195,0,0,0,0,0,0,0,-1,1693,456,13.8547,74.0195
476,568,14.7294,-42.0833,0,0,0,0,0,0,0,-1,1700,456,14.7293,42.0833
483,568,13.5175,-35.9629,0,0,0,0,0,0,0,-1,1707,456,13.5174,35.9629
490,568,9.21021,-25.4427,0,0,0,0,0,0,0,-1,1714,456,9.21025,25.4427
497,568,9.19275,-22.8114,0,0,0,0,0,0,0,-1,1721,456,9.19273,22.8114
504,568,0,0,0,0,0,0,0,0,0,-1,1728,456,0,0
511,568,0,0,0,0,0,0,0,0,0,-1,1735,456,0,0
518,568,0,0,0,0,0,0,0,0,0,-1,1742,456,0,0
525,568,0,0,0,0,0,0,0,0,0,-1,1749,456,0,0
532,568,0,0,0,0,0,0,0,0,0,-1,1756,456,0,0
539,568,0,0,0,0,0,0,0,0,0,-1,1763,456,0,0
546,568,0,0,0,0,0,0,0,0,0,-1,1770,456,0,0
553,568,0,0,0,0,0,0,0,0,0,-1,1777,456,0,0
560,568,0,0,0,0,0,0,0,0,0,-1,1784,456,0,0
567,568,0,0,0,0,0,0,0,0,0,-1,1791,456,0,0
574,568,0,0,0,0,0,0,0,0,0,-1,1798,456,0,0
581,568,0,0,0,0,0,0,0,0,0,-1,1805,456,0,0
588,568,0,0,0,0,0,0,0,0,0,-1,1812,456,0,0
595,568,0,0,0,0,0,0,0,0,0,-1,1819,456,0,0
602,568,0,0,0,0,0,0,0,0,0,-1,1826,456,0,0
609,568,0,0,0,0,0,0,0,0,0,-1,1833,456,0,0
616,568,0,0,0,0,0,0,0,0,0,-1,1840,456,0,0
623,568,0,0,0,0,0,0,0,0,0,-1,1847,456,0,0
630,568,0,0,0,0,0,0,0,0,0,-1,1854,456,0,0
637,568,0,0,0,0,0,0,0,0,0,-1,1861,456,0,0
644,568,0,0,0,0,0,0,0,0,0,-1,1868,456,0,0
651,568,0,0,0,0,0,0,0,0,0,-1,1875,456,0,0
658,568,0,0,0,0,0,0,0,0,0,-1,1882,456,0,0
665,568,0,0,0,0,0,0,0,0,0,-1,1889,456,0,0
672,568,0,0,0,0,0,0,0,0,0,-1,1896,456,0,0
679,568,0,0,0,0,0,0,0,0,0,-1,1903,456,0,0
686,568,0,0,0,0,0,0,0,0,0,-1,1910,456,0,0
693,568,0,0,0,0,0,0,0,0,0,-1,1917,456,0,0
700,568,0,0,0,0,0,0,0,0,0,-1,1924,456,0,0
707,568,0,0,0,0,0,0,0,0,0,-1,1931,456,0,0
714,568,0,0,0,0,0,0,0,0,0,-1,1938,456,0,0
721,568,0,0,0,0,0,0,0,0,0,-1,1945,456,0,0
728,568,0,0,0,0,0,0,0,0,0,-1,1952,456,0,0
735,568,0,0,0,0,0,0,0,0,0,-1,1959,456,0,0
742,568,0,0,0,0,0,0,0,0,0,-1,1966,456,0,0
749,568,0,0,0,0,0,0,0,0,0,-1,1973,456,0,0
756,568,0,0,0,0,0,0,0,0,0,-1,1980,456,0,0
763,568,0,0,0,0,0,0,0,0,0,-1,1987,456,0,0
770,568,0,0,0,0,0,0,0,0,0,-1,1994,456,0,0
777,568,0,0,0,0,0,0,0,0,0,-1,2001,456,0,0
784,568,0,0,0,0,0,0,0,0,0,-1,2008,456,0,0
791,568,0,0,0,0,0,0,0,0,0,-1,2015,456,0,0
798,568,0,0,0,0,0,0,0,0,0,-1,2022,456,0,0
805,568,0,0,0,0,0,0,0,0,0,-1,2029,456,0,0
812,568,0,0,0,0,0,0,0,0,0,-1,2036,456,0,0
-700,561,0,0,0,0,0,0,0,0,0,-1,524,463,0,0
-693,561,0,0,0,0,0,0,0,0,0,-1,531,463,0,0
-686,561,0,0,0,0,0,0,0,0,0,-1,538,463,0,0
-679,561,0,0,0,0,0,0,0,0,0,-1,545,463,0,0
-672,561,0,0,0,0,0,0,0,0,0,-1,552,463,0,0
-665,561,0,0,0,0,0,0,0,0,0,-1,559,463,0,0
-658,561,0,0,0,0,0,0,0,0,0,-1,566,463,0,0
-651,561,0,0,0,0,0,0,0,0,0,-1,573,463,0,0
-644,561,0,0,0,0,0,0,0,0,0,-1,580,463,0,0
-637,561,0,0,0,0,0,0,0,0,0,-1,587,463,0,0
-630,561,0,0,0,0,0,0,0,0,0,-1,594,463,0,0
-623,561,0,0,0,0,0,0,0,0,0,-1,601,463,0,0
-616,561,0,0,0,0,0,0,0,0,0,-1,608,463,0,0
-609,561,0,0,0,0,0,0,0,0,0,-1,615,463,0,0
-602,561,0,0,0,0,0,0,0,0,0,-1,622,463,0,0
-595,561,0,0,0,0,0,0,0,0,0,-1,629,463,0,0
-588,561,0,0,0,0,0,0,0,0,0,-1,636,463,0,0
-581,561,0,0,0,0,0,0,0,0,0,-1,643,463,0,0
-574,561,0,0,0,0,0,0,0,0,0,-1,650,463,0,0
-567,561,0,0,0,0,0,0,0,0,0,-1,657,463,0,0
-560,561,0,0,0,0,0,0,0,0,0,-1,664,463,0,0
-553,561,0,0,0,0,0,0,0,0,0,-1,671,463,0,0
-546,561,0,0,0,0,0,0,0,0,0,-1,678,463,0,0
-539,561,0,0,0,0,0,0,0,0,0,-1,685,463,0,0
-532,561,0,0,0,0,0,0,0,0,0,-1,692,463,0,0
-525,561,0,0,0,0,0,0,0,0,0,-1,699,463,0,0
-518,561,0,0,0,0,0,0,0,0,0,-1,706,463,0,0
-511,561,0,0,0,0,0,0,0,0,0,-1,713,463,0,0
-504,561,0,0,0,0,0,0,0,0,0,-1,720,463,0,0
-497,561,0,0,0,0,0,0,0,0,0,-1,727,463,0,0
-490,561,0,0,0,0,0,0,0,0,0,-1,734,463,0,0
-483,561,0,0,0,0,0,0,0,0,0,-1,741,463,0,0
-476,561,0,0,0,0,0,0,0,0,0,-1,748,463,0,0
-469,561,0,0,0,0,0,0,0,0,0,-1,755,463,0,0
-462,561,0,0,0,0,0,0,0,0,0,-1,762,463,0,0
-455,561,0,0,0,0,0,0,0,0,0,-1,769,463,0,0
-448,561,0,0,0,0,0,0,0,0,0,-1,776,463,0,0
-441,561,0,0,0,0,0,0,0,0,0,-1,783,463,0,0
-434,561,0,0,0,0,0,0,0,0,0,-1,790,463,0,0
-427,561,0,0,0,0,0,0,0,0,0,-1,797,463,0,0
-420,561,0,0,0,0,0,0,0,0,0,-1,804,463,0,0
-413,561,0,0,0,0,0,0,0,0,0,-1,811,463,0,0
-406,561,0,0,0,0,0,0,0,0,0,-1,818,463,0,0
-399,561,0,0,0,0,0,0,0,0,0,-1,825,463,0,0
-392,561,4.92407,-2.54578,0,0,0,0,0,0,0,-1,832,463,4.92408,2.54576
-385,561,5.55634,-1.02338,0,0,0,0,0,0,0,-1,839,463,5.55634,1.02338
-378,561,0.160522,-4.51785,0,0,0,0,0,0,0,-1,846,463,0.160542,4.51785
-371,561,2.62524,-27.795,0,0,0,0,0,0,0,-1,853,463,2.62525,27.7949
-364,561,3.72833,-30.5013,0,0,0,0,0,0,0,-1,860,463,3.72835,30.5013
-357,561,2.16742,-23.5582,0,0,0,0,0,0,0,-1,867,463,2.1674,23.5582
-350,561,1.33124,-11.9406,0,0,0,0,0,0,0,-1,874,463,1.33127,11.9406
-343,561,1.13214,-14.1837,0,0,0,0,0,0,0,-1,881,463,1.13217,14.1837
-336,561,2.91016,-36.595,0,0,0,0,0,0,0,-1,888,463,2.91014,36.595
-329,561,-2.71533,-102.493,0,0,0,0,0,0,0,-1,895,463,-2.71536,102.493
-322,561,-3.53857,-105.255,0,0,0,0,0,0,0,-1,902,463,-3.53856,105.255
-315,561,-3.47241,-107.122,0,0,0,0,0,0,0,-1,909,463,-3.47242,107.122
-308,561,-4.10303,-110.487,0,0,0,0,0,0,0,-1,916,463,-4.10301,110.487
-301,561,-4.85785,-113.618,0,0,0,0,0,0,0,-1,923,463,-4.85786,113.618
-294,561,-5.38397,-116.2,0.0018126,0.0165558,-0.0117001,0.0230129,-0.00464447,-1.06651,0.0171016,0.0174097,930,463,-5.38395,116.199
-287,561,-5.8866,-118.791,0.00242209,0.0140929,-0.0104851,0.020257,-0.00374202,-1.03933,0.0149094,0.0136462,937,463,-5.88658,118.791
-280,561,-6.41406,-121.354,0.00300272,0.0114007,-0.00927536,0.0173833,-0.00297983,-0.997949,0.0126992,0.0167332,944,463,-6.41403,121.354
-273,561,-6.91339,-123.968,0.00332235,0.00877949,-0.00771381,0.0142331,-0.00213126,-0.955393,0.0102731,0.0229084,951,463,-6.91336,123.968
-266,561,-7.36261,-126.521,0.0035397,0.00628106,-0.00609822,0.0111607,-0.00133998,-0.895944,0.00792501,0.0139263,958,463,-7.3626,126.521
-259,561,-7.84619,-129.057,0.00394874,0.00384433,-0.00459605,0.00849288,-0.00069981,-0.779719,0.00590902,0.0116962,965,463,-7.84619,129.057
-252,561,-8.26721,-131.573,0.004579,0.00149766,-0.0030952,0.00649577,-0.000419116,-0.55447,0.00447676,0.0175327,972,463,-8.26721,131.573
-245,561,-8.68127,-134.051,0.00532198,-0.000713034,-0.00157022,0.00570608,-0.00109714,-0.239905,0.00421761,0.0207362,979,463,-8.68129,134.051
-238,561,-9.13013,-136.519,0.00618483,-0.00277487,-8.75056e-05,0.00618569,-0.00277572,-0.00976533,0.00529726,0.0159822,986,463,-9.13011,136.519
-231,561,-9.59186,-138.957,0.00729187,-0.00459972,0.00135873,0.00744514,-0.00475299,0.112331,0.00709954,0.0155946,993,463,-9.59187,138.957
-224,561,-9.98743,-141.39,0.00872897,-0.00616901,0.00266041,0.00918979,-0.00662984,0.171515,0.00917325,0.016808,1000,463,-9.98744,141.39
-217,561,-10.2747,-143.83,0.0102482,-0.00760827,0.00392784,0.011074,-0.00843407,0.207226,0.0112973,0.016358,1007,463,-10.2747,143.83
-210,561,-10.5878,-146.199,0.011818,-0.00917233,0.00526521,0.0130646,-0.010419,0.232495,0.0135869,0.0151758,1014,463,-10.5877,146.199
-203,561,-10.9096,-148.581,0.0137278,-0.0106953,0.00643353,0.0153188,-0.0122864,0.242444,0.0159699,0.0207259,1021,463,-10.9096,148.581
-196,561,-11.2794,-150.693,0,0,0,0,0,0,0,-1,1028,463,-11.2794,150.693
-189,561,-11.3931,-153.148,0,0,0,0,0,0,0,-1,1035,463,-11.3931,153.148
-182,561,-7.18176,-128.216,0,0,0,0,0,0,0,-1,1042,463,-7.18178,128.216
-175,561,-4.55042,-111.222,0,0,0,0,0,0,0,-1,1049,463,-4.55046,111.222
-168,561,-2.89514,-98.4026,0,0,0,0,0,0,0,-1,1056,463,-2.89508,98.4026
-161,561,-2.00903,-88.1659,0,0,0,0,0,0,0,-1,1063,463,-2.00904,88.1659
-154,561,1.63977,-64.6129,0,0,0,0,0,0,0,-1,1070,463,1.63981,64.6129
-147,561,1.70703,-65.0358,0,0,0,0,0,0,0,-1,1077,463,1.70703,65.0359
-140,561,2.1239,-59.8181,0,0,0,0,0,0,0,-1,1084,463,2.12391,59.818
-133,561,1.37939,-55.0099,0,0,0,0,0,0,0,-1,1091,463,1.37945,55.01
-126,561,1.77014,-49.4318,0,0,0,0,0,0,0,-1,1098,463,1.7702,49.4318
-119,561,-0.336304,-35.422,0,0,0,0,0,0,0,-1,1105,463,-0.336245,35.422
-112,561,1.24365,-29.1982,0,0,0,0,0,0,0,-1,1112,463,1.2437,29.1981
-105,561,0.530518,-13.5379,0,0,0,0,0,0,0,-1,1119,463,0.530477,13.5379
-98,561,1.5387,-7.54352,0,0,0,0,0,0,0,-1,1126,463,1.53871,7.54351
-91,561,1.29553,-6.57968,0,0,0,0,0,0,0,-1,1133,463,1.29549,6.5797
-84,561,1.23364,-5.84555,0,0,0,0,0,0,0,-1,1140,463,1.23363,5.84556
-77,561,-2.36023,1.00204,0,0,0,0,0,0,0,-1,1147,463,-2.3602,-1.00205
-70,561,-3.90015,-1.41541,0,0,0,0,0,0,0,-1,1154,463,-3.90009,1.4154
-63,561,-6.95691,-4.02756,0,0,0,0,0,0,0,-1,1161,463,-6.95696,4.02756
-56,561,-5.37988,-6.66855,0,0,0,0,0,0,0,-1,1168,463,-5.37988,6.66854
-49,561,-5.7439,-9.11029,0,0,0,0,0,0,0,-1,1175,463,-5.74387,9.1103
-42,561,-1.72644,-5.63065,0,0,0,0,0,0,0,-1,1182,463,-1.72648,5.63064
-35,561,-1.65674,-4.87994,0,0,0,0,0,0,0,-1,1189,463,-1.6567,4.87993
-28,561,-1.91418,-3.86896,0,0,0,0,0,0,0,-1,1196,463,-1.91414,3.86895
-21,561,13.6385,-94.8162,0,0,0,0,0,0,0,-1,1203,463,13.6386,94.8162
-14,561,12.9348,-94.9626,0,0,0,0,0,0,0,-1,1210,463,12.9349,94.9626
-7,561,12.6293,-95.1317,0,0,0,0,0,0,0,-1,1217,463,12.6292,95.1317
0,561,18.3727,-114.232,0,0,0,0,0,0,0,-1,1224,463,18.3727,114.232
7,561,17.2173,-114.349,0,0,0,0,0,0,0,-1,1231,463,17.2173,114.349
14,561,16.04,-114.46,0,0,0,0,0,0,0,-1,1238,463,16.04,114.46
21,561,14.8844,-114.577,0,0,0,0,0,0,0,-1,1245,463,14.8844,114.577
28,561,14.1654,-113.476,0,0,0,0,0,0,0,-1,1252,463,14.1654,113.476
35,561,12.1637,-114.096,0,0,0,0,0,0,0,-1,1259,463,12.1637,114.096
42,561,11.4609,-114.841,0,0,0,0,0,0,0,-1,1266,463,11.4609,114.841
49,561,8.63818,-114.113,0,0,0,0,0,0,0,-1,1273,463,8.63813,114.113
56,561,7.17151,-114.944,0,0,0,0,0,0,0,-1,1280,463,7.1715,114.944
63,561,5.77832,-115.798,0,0,0,0,0,0,0,-1,1287,463,5.7783,115.798
70,561,4.37695,-116.486,0,0,0,0,0,0,0,-1,1294,463,4.37692,116.486
77,561,3.15332,-117.339,0,0,0,0,0,0,0,-1,1301,463,3.15337,117.339
84,561,1.78345,-118.402,0,0,0,0,0,0,0,-1,1308,463,1.78339,118.402
91,561,0.390381,-119.454,0,0,0,0,0,0,0,-1,1315,463,0.390441,119.454
98,561,0.870972,-121.088,0,0,0,0,0,0,0,-1,1322,463,0.870966,121.088
105,561,0.0830078,-122.174,0,0,0,0,0,0,0,-1,1329,463,0.0830072,122.174
112,561,-0.773071,-121.599,0,0,0,0,0,0,0,-1,1336,463,-0.773053,121.599
119,561,-1.01599,-123.678,0,0,0,0,0,0,0,-1,1343,463,-1.01601,123.678
126,561,-1.76428,-125.515,0,0,0,0,0,0,0,-1,1350,463,-1.76432,125.515
133,561,-2.16479,-127.649,0,0,0,0,0,0,0,-1,1357,463,-2.16484,127.649
140,561,-4.05115,-110.527,0,0,0,0,0,0,0,-1,1364,463,-4.05112,110.527
147,561,-2.58398,-131.144,0,0,0,0,0,0,0,-1,1371,463,-2.58397,131.144
154,561,-2.86121,-133.788,0,0,0,0,0,0,0,-1,1378,463,-2.86126,133.788
161,561,-3.13855,-136.432,0,0,0,0,0,0,0,-1,1385,463,-3.13855,136.432
168,561,8.16626,-105.984,0,0,0,0,0,0,0,-1,1392,463,8.16627,105.984
175,561,10.4185,0.276398,0,0,0,0,0,0,0,-1,1399,463,10.4185,-0.276394
182,561,6.45703,-4.02127,0,0,0,0,0,0,0,-1,1406,463,6.45704,4.02127
189,561,6.50854,-2.08685,0,0,0,0,0,0,0,-1,1413,463,6.50851,2.08686
196,561,6.44775,-0.27182,0,0,0,0,0,0,0,-1,1420,463,6.44773,0.271814
203,561,6.18591,1.1301,0,0,0,0,0,0,0,-1,1427,463,6.18592,-1.13009
210,561,5.68713,2.68427,0,0,0,0,0,0,0,-1,1434,463,5.6871,-2.68425
217,561,3.61743,-7.33582,0,0,0,0,0,0,0,-1,1441,463,3.61738,7.33581
224,561,4.27466,-8.59171,0,0,0,0,0,0,0,-1,1448,463,4.27466,8.59171
231,561,4.93188,-9.8476,0,0,0,0,0,0,0,-1,1455,463,4.93193,9.84761
238,561,2.18018,-5.18359,0,0,0,0,0,0,0,-1,1462,463,2.18023,5.18359
245,561,3.07568,-3.50238,0,0,0,0,0,0,0,-1,1469,463,3.0757,3.50238
252,561,3.47412,-3.71109,0,0,0,0,0,0,0,-1,1476,463,3.47413,3.71109
259,561,3.42212,-3.2334,0,0,0,0,0,0,0,-1,1483,463,3.42214,3.2334
266,561,4.44373,-5.90027,0,0,0,0,0,0,0,-1,1490,463,4.44372,5.90026
273,561,16.3015,-62.0638,0,0,0,0,0,0,0,-1,1497,463,16.3016,62.0639
280,561,16.6068,-65.9482,0,0,0,0,0,0,0,-1,1504,463,16.6068,65.9482
287,561,17.3195,-70.585,0,0,0,0,0,0,0,-1,1511,463,17.3194,70.585
294,561,17.6993,-75.0805,0,0,0,0,0,0,0,-1,1518,463,17.6994,75.0805
301,561,20.2274,-97.1867,0,0,0,0,0,0,0,-1,1525,463,20.2275,97.1867
308,561,21.4679,-112.982,0,0,0,0,0,0,0,-1,1532,463,21.4678,112.982
315,561,22.4565,-154.697,0,0,0,0,0,0,0,-1,1539,463,22.4566,154.697
322,561,22.0203,-152.115,0,0,0,0,0,0,0,-1,1546,463,22.0203,152.115
329,561,21.7633,-149.749,0,0,0,0,0,0,0,-1,1553,463,21.7633,149.749
336,561,21.5145,-147.404,0.0117771,-0.000400266,-0.00364658,0.0127856,-0.00140874,-0.269809,0.00902999,0.0225079,1560,463,21.5145,147.404
343,561,21.2034,-145.016,0.00990748,-0.000877053,-0.00306734,0.0107188,-0.00168842,-0.258597,0.0077701,0.014495,1567,463,21.2034,145.016
350,561,20.8549,-142.595,0.00845706,-0.000977613,-0.00235482,0.00901214,-0.0015327,-0.231497,0.00657878,0.0139037,1574,463,20.8549,142.595
357,561,20.5028,-140.148,0.00720892,-0.00044454,-0.00143279,0.00746836,-0.000703976,-0.179129,0.00522938,0.0135001,1581,463,20.5028,140.148
364,561,20.1296,-137.743,0.00602147,0.000934072,-0.000279353,0.00603676,0.000918779,-0.0546916,0.0037559,0.0120818,1588,463,20.1296,137.743
371,561,19.6584,-135.25,0.0050701,0.00238299,0.000891051,0.00533872,0.00211437,0.292801,0.00310444,0.0183186,1595,463,19.6585,135.25
378,561,19.2188,-132.774,0.00427312,0.00424011,0.00204969,0.00630637,0.00220686,0.781372,0.00369524,0.0151004,1602,463,19.2188,132.774
385,561,18.813,-130.298,0.00367429,0.00629419,0.00325395,0.00849196,0.00147652,0.976759,0.00523896,0.0160584,1609,463,18.813,130.298
392,561,18.3647,-127.829,0.00321573,0.00830576,0.00444981,0.0108869,0.000634545,1.04516,0.00705597,0.0221187,1616,463,18.3647,127.829
399,561,17.9318,-125.244,0.00285225,0.0103249,0.00565057,0.0133627,-0.000185565,1.07751,0.00897099,0.0262116,1623,463,17.9318,125.244
406,561,17.4424,-122.671,0.00256478,0.0122322,0.00678059,0.0157256,-0.000928651,1.09505,0.0108066,0.0220868,1630,463,17.4424,122.671
413,561,17.0215,-120.031,0.0023709,0.0137681,0.00785237,0.0177718,-0.00163275,1.09929,0.0124279,0.0207091,1637,463,17.0215,120.031
420,561,16.483,-117.477,0.00215811,0.0150946,0.0087811,0.0195326,-0.00227988,1.10284,0.0138444,0.0173386,1644,463,16.483,117.477
427,561,15.9788,-114.807,0.00205184,0.0164417,0.00978485,0.0213921,-0.00289861,1.10242,0.0153193,0.0165865,1651,463,15.9788,114.807
434,561,15.5166,-112.096,0.00192507,0.0176807,0.0107104,0.0230985,-0.00349269,1.10249,0.0166855,0.0235322,1658,463,15.5166,112.096
441,561,15.089,-109.454,0.00172006,0.0186448,0.0115587,0.0245077,-0.0041429,1.10138,0.0178802,0.0311395,1665,463,15.089,109.454
448,561,14.5911,-106.658,0,0,0,0,0,0,0,-1,1672,463,14.5911,106.658
455,561,14.0409,-103.723,0,0,0,0,0,0,0,-1,1679,463,14.0409,103.723
462,561,16.1986,-76.7032,0,0,0,0,0,0,0,-1,1686,463,16.1986,76.7032
469,561,15.9751,-73.8943,0,0,0,0,0,0,0,-1,1693,463,15.9751,73.8943
476,561,15.6277,-72.0689,0,0,0,0,0,0,0,-1,1700,463,15.6277,72.0689
483,561,15.0601,-41.4633,0,0,0,0,0,0,0,-1,1707,463,15.0601,41.4632
490,561,13.1162,-34.5897,0,0,0,0,0,0,0,-1,1714,463,13.1162,34.5897
497,561,11.7618,-20.3894,0,0,0,0,0,0,0,-1,1721,463,11.7618,20.3894
504,561,12.9351,-20.1285,0,0,0,0,0,0,0,-1,1728,463,12.935,20.1285
511,561,0,0,0,0,0,0,0,0,0,-1,1735,463,0,0
518,561,0,0,0,0,0,0,0,0,0,-1,1742,463,0,0
525,561,0,0,0,0,0,0,0,0,0,-1,1749,463,0,0
532,561,0,0,0,0,0,0,0,0,0,-1,1756,463,0,0
539,561,0,0,0,0,0,0,0,0,0,-1,1763,463,0,0
546,561,0,0,0,0,0,0,0,0,0,-1,1770,463,0,0
553,561,0,0,0,0,0,0,0,0,0,-1,1777,463,0,0
560,561,0,0,0,0,0,0,0,0,0,-1,1784,463,0,0
567,561,0,0,0,0,0,0,0,0,0,-1,1791,463,0,0
574,561,0,0,0,0,0,0,0,0,0,-1,1798,463,0,0
581,561,0,0,0,0,0,0,0,0,0,-1,1805,463,0,0
588,561,0,0,0,0,0,0,0,0,0,-1,1812,463,0,0
595,561,0,0,0,0,0,0,0,0,0,-1,1819,463,0,0
602,561,0,0,0,0,0,0,0,0,0,-1,1826,463,0,0
609,561,0,0,0,0,0,0,0,0,0,-1,1833,463,0,0
616,561,0,0,0,0,0,0,0,0,0,-1,1840,463,0,0
623,561,0,0,0,0,0,0,0,0,0,-1,1847,463,0,0
630,561,0,0,0,0,0,0,0,0,0,-1,1854,463,0,0
637,561,0,0,0,0,0,0,0,0,0,-1,1861,463,0,0
644,561,0,0,0,0,0,0,0,0,0,-1,1868,463,0,0
651,561,0,0,0,0,0,0,0,0,0,-1,1875,463,0,0
658,561,0,0,0,0,0,0,0,0,0,-1,1882,463,0,0
665,561,0,0,0,0,0,0,0,0,0,-1,1889,463,0,0
672,561,0,0,0,0,0,0,0,0,0,-1,1896,463,0,0
679,561,0,0,0,0,0,0,0,0,0,-1,1903,463,0,0
686,561,0,0,0,0,0,0,0,0,0,-1,1910,463,0,0
693,561,0,0,0,0,0,0,0,0,0,-1,1917,463,0,0
700,561,0,0,0,0,0,0,0,0,0,-1,1924,463,0,0
707,561,0,0,0,0,0,0,0,0,0,-1,1931,463,0,0
714,561,0,0,0,0,0,0,0,0,0,-1,1938,463,0,0
721,561,0,0,0,0,0,0,0,0,0,-1,1945,463,0,0
728,561,0,0,0,0,0,0,0,0,0,-1,1952,463,0,0
735,561,0,0,0,0,0,0,0,0,0,-1,1959,463,0,0
742,561,0,0,0,0,0,0,0,0,0,-1,1966,463,0,0
749,561,0,0,0,0,0,0,0,0,0,-1,1973,463,0,0
756,561,0,0,0,0,0,0,0,0,0,-1,1980,463,0,0
763,561,0,0,0,0,0,0,0,0,0,-1,1987,463,0,0
770,561,0,0,0,0,0,0,0,0,0,-1,1994,463,0,0
777,561,0,0,0,0,0,0,0,0,0,-1,2001,463,0,0
784,561,0,0,0,0,0,0,0,0,0,-1,2008,463,0,0
791,561,0,0,0,0,0,0,0,0,0,-1,2015,463,0,0
798,561,0,0,0,0,0,0,0,0,0,-1,2022,463,0,0
805,561,0,0,0,0,0,0,0,0,0,-1,2029,463,0,0
812,561,0,0,0,0,0,0,0,0,0,-1,2036,463,0,0
-700,554,0,0,0,0,0,0,0,0,0,-1,524,470,0,0
-693,554,0,0,0,0,0,0,0,0,0,-1,531,470,0,0
-686,554,0,0,0,0,0,0,0,0,0,-1,538,470,0,0
-679,554,0,0,0,0,0,0,0,0,0,-1,545,470,0,0
-672,554,0,0,0,0,0,0,0,0,0,-1,552,470,0,0
-665,554,0,0,0,0,0,0,0,0,0,-1,559,470,0,0
-658,554,0,0,0,0,0,0,0,0,0,-1,566,470,0,0
-651,554,0,0,0,0,0,0,0,0,0,-1,573,470,0,0
-644,554,0,0,0,0,0,0,0,0,0,-1,580,470,0,0
-637,554,0,0,0,0,0,0,0,0,0,-1,587,470,0,0
-630,554,0,0,0,0,0,0,0,0,0,-1,594,470,0,0
-623,554,0,0,0,0,0,0,0,0,0,-1,601,470,0,0
-616,554,0,0,0,0,0,0,0,0,0,-1,608,470,0,0
-609,554,0,0,0,0,0,0,0,0,0,-1,615,470,0,0
-602,554,0,0,0,0,0,0,0,0,0,-1,622,470,0,0
-595,554,0,0,0,0,0,0,0,0,0,-1,629,470,0,0
-588,554,0,0,0,0,0,0,0,0,0,-1,636,470,0,0
-581,554,0,0,0,0,0,0,0,0,0,-1,643,470,0,0
-574,554,0,0,0,0,0,0,0,0,0,-1,650,470,0,0
-567,554,0,0,0,0,0,0,0,0,0,-1,657,470,0,0
-560,554,0,0,0,0,0,0,0,0,0,-1,664,470,0,0
-553,554,0,0,0,0,0,0,0,0,0,-1,671,470,0,0
-546,554,0,0,0,0,0,0,0,0,0,-1,678,470,0,0
-539,554,0,0,0,0,0,0,0,0,0,-1,685,470,0,0
-532,554,0,0,0,0,0,0,0,0,0,-1,692,470,0,0
-525,554,0,0,0,0,0,0,0,0,0,-1,699,470,0,0
-518,554,0,0,0,0,0,0,0,0,0,-1,706,470,0,0
-511,554,0,0,0,0,0,0,0,0,0,-1,713,470,0,0
-504,554,0,0,0,0,0,0,0,0,0,-1,720,470,0,0
-497,554,0,0,0,0,0,0,0,0,0,-1,727,470,0,0
-490,554,0,0,0,0,0,0,0,0,0,-1,734,470,0,0
-483,554,0,0,0,0,0,0,0,0,0,-1,741,470,0,0
-476,554,0,0,0,0,0,0,0,0,0,-1,748,470,0,0
-469,554,0,0,0,0,0,0,0,0,0,-1,755,470,0,0
-462,554,0,0,0,0,0,0,0,0,0,-1,762,470,0,0
-455,554,0,0,0,0,0,0,0,0,0,-1,769,470,0,0
-448,554,0,0,0,0,0,0,0,0,0,-1,776,470,0,0
-441,554,0,0,0,0,0,0,0,0,0,-1,783,470,0,0
-434,554,0,0,0,0,0,0,0,0,0,-1,790,470,0,0
-427,554,0,0,0,0,0,0,0,0,0,-1,797,470,0,0
-420,554,0,0,0,0,0,0,0,0,0,-1,804,470,0,0
-413,554,0,0,0,0,0,0,0,0,0,-1,811,470,0,0
-406,554,0,0,0,0,0,0,0,0,0,-1,818,470,0,0
-399,554,-1.32275,-3.95142,0,0,0,0,0,0,0,-1,825,470,-1.32275,3.95141
-392,554,-1.35632,-3.7406,0,0,0,0,0,0,0,-1,832,470,-1.35632,3.7406
-385,554,1.54614,-28.7236,0,0,0,0,0,0,0,-1,839,470,1.54616,28.7236
-378,554,1.92175,-29.1808,0,0,0,0,0,0,0,-1,846,470,1.92174,29.1808
-371,554,2.90704,-29.4795,0,0,0,0,0,0,0,-1,853,470,2.90703,29.4795
-364,554,2.69928,-30.6884,0,0,0,0,0,0,0,-1,860,470,2.69926,30.6884
-357,554,2.43024,-31.9178,0,0,0,0,0,0,0,-1,867,470,2.43024,31.9178
-350,554,1.17157,-18.1341,0,0,0,0,0,0,0,-1,874,470,1.17156,18.1341
-343,554,2.02539,-41.0046,0,0,0,0,0,0,0,-1,881,470,2.02541,41.0046
-336,554,-4.18597,-99.4654,0,0,0,0,0,0,0,-1,888,470,-4.186,99.4654
-329,554,-5.31403,-102.177,-0.00511244,0.0247805,-0.0110579,0.0284263,-0.00875825,-1.25232,0.0224472,0.0373765,895,470,-5.31406,102.177
-322,554,-5.97107,-104.981,-0.00310399,0.0215134,-0.0107624,0.025555,-0.00714559,-1.21156,0.0198519,0.0255067,902,470,-5.97108,104.981
-315,554,-6.42084,-107.723,-0.00158901,0.0183798,-0.0101916,0.0226627,-0.00587192,-1.17296,0.0173992,0.0267283,909,470,-6.42083,107.723
-308,554,-6.9751,-110.438,-0.000275252,0.0158383,-0.00962025,0.0203298,-0.00476682,-1.13399,0.0153902,0.026111,916,470,-6.97511,110.438
-301,554,-7.51648,-113.108,0.000865718,0.0131813,-0.00894322,0.0178817,-0.00383464,-1.0869,0.0133837,0.0207584,923,470,-7.51647,113.108
-294,554,-7.97864,-115.697,0.00183923,0.0108917,-0.00797308,0.0155337,-0.00280279,-1.04356,0.0114054,0.0153789,930,470,-7.97865,115.697
-287,554,-8.46252,-118.281,0.00248188,0.00871096,-0.00687689,0.0131457,-0.00195289,-0.99803,0.00948205,0.0149542,937,470,-8.46253,118.281
-280,554,-8.9635,-120.847,0.00310502,0.00636006,-0.00575499,0.0107132,-0.00124815,-0.9232,0.00759248,0.0151643,944,470,-8.96353,120.847
-273,554,-9.45514,-123.479,0.00356448,0.0040236,-0.00432929,0.00812941,-0.00054133,-0.811886,0.00560877,0.0186818,951,470,-9.45511,123.479
-266,554,-9.9361,-126.034,0.00399898,0.00175141,-0.00287286,0.00596003,-0.000209642,-0.598961,0.00404505,0.0142306,958,470,-9.93612,126.034
-259,554,-10.3994,-128.484,0.00462883,-0.000375498,-0.00154026,0.0050649,-0.000811571,-0.275896,0.0036771,0.0139467,965,470,-10.3994,128.484
-252,554,-10.8255,-131.015,0.00544864,-0.00245187,-0.000203543,0.00545388,-0.00245711,-0.0257405,0.00467537,0.0161377,972,470,-10.8255,131.015
-245,554,-11.2276,-133.536,0.00637825,-0.00447323,0.00117893,0.00650485,-0.00459984,0.106979,0.00644267,0.018357,979,470,-11.2276,133.537
-238,554,-11.6217,-136.062,0.00744433,-0.00625619,0.00249801,0.00788558,-0.00669744,0.174837,0.00842882,0.0139528,986,470,-11.6217,136.062
-231,554,-11.9953,-138.542,0.0087949,-0.00777988,0.00375659,0.00960657,-0.00859155,0.212793,0.0105121,0.0134841,993,470,-11.9953,138.542
-224,554,-12.3438,-140.937,0.0105174,-0.00901731,0.00485025,0.0116553,-0.0101553,0.230453,0.0126023,0.0152797,1000,470,-12.3438,140.937
-217,554,-12.6472,-143.335,0.0122317,-0.0102266,0.00599716,0.0137328,-0.0117278,0.245266,0.0147148,0.0175442,1007,470,-12.6472,143.335
-210,554,-12.9829,-145.855,0.0139491,-0.0116544,0.00725363,0.0158613,-0.0135665,0.257755,0.0170074,0.0405366,1014,470,-12.9829,145.855
-203,554,-13.3594,-148.484,0,0,0,0,0,0,0,-1,1021,470,-13.3594,148.484
-196,554,-9.70605,-128.487,0,0,0,0,0,0,0,-1,1028,470,-9.70603,128.487
-189,554,-4.25269,-93.2308,0,0,0,0,0,0,0,-1,1035,470,-4.25265,93.2308
-182,554,-3.94775,-89.1434,0,0,0,0,0,0,0,-1,1042,470,-3.94776,89.1434
-175,554,-3.32971,-84.2911,0,0,0,0,0,0,0,-1,1049,470,-3.3297,84.2911
-168,554,-2.08459,-77.5436,0,0,0,0,0,0,0,-1,1056,470,-2.08462,77.5436
-161,554,1.09583,-42.015,0,0,0,0,0,0,0,-1,1063,470,1.09577,42.015
-154,554,1.03186,-42.7216,0,0,0,0,0,0,0,-1,1070,470,1.03187,42.7216
-147,554,1.4552,-41.5187,0,0,0,0,0,0,0,-1,1077,470,1.45525,41.5187
-140,554,0.428101,-38.9893,0,0,0,0,0,0,0,-1,1084,470,0.428152,38.9893
-133,554,2.67163,-32.8187,0,0,0,0,0,0,0,-1,1091,470,2.67161,32.8187
-126,554,0.851929,-33.5393,0,0,0,0,0,0,0,-1,1098,470,0.851942,33.5393
-119,554,-1.03479,-32.1628,0,0,0,0,0,0,0,-1,1105,470,-1.03476,32.1628
-112,554,1.03162,-24.5784,0,0,0,0,0,0,0,-1,1112,470,1.03156,24.5784
-105,554,0.608765,-21.0475,0,0,0,0,0,0,0,-1,1119,470,0.608728,21.0475
-98,554,1.51929,-7.3624,0,0,0,0,0,0,0,-1,1126,470,1.51928,7.36241
-91,554,1.41089,-6.5864,0,0,0,0,0,0,0,-1,1133,470,1.41093,6.58638
-84,554,1.62305,-5.87186,0,0,0,0,0,0,0,-1,1140,470,1.62299,5.87186
-77,554,-2.56958,1.33258,0,0,0,0,0,0,0,-1,1147,470,-2.56959,-1.33257
-70,554,-3.68164,-1.18332,0,0,0,0,0,0,0,-1,1154,470,-3.68158,1.18331
-63,554,-4.86853,-3.88708,0,0,0,0,0,0,0,-1,1161,470,-4.86853,3.88708
-56,554,-5.69958,-6.45422,0,0,0,0,0,0,0,-1,1168,470,-5.69955,6.45422
-49,554,-6.23645,-8.8569,0,0,0,0,0,0,0,-1,1175,470,-6.23643,8.85689
-42,554,-6.62524,-11.5382,0,0,0,0,0,0,0,-1,1182,470,-6.62522,11.5382
-35,554,-2.40173,-4.59482,0,0,0,0,0,0,0,-1,1189,470,-2.40169,4.59481
-28,554,-0.760132,-1.65555,0,0,0,0,0,0,0,-1,1196,470,-0.760095,1.65556
-21,554,7.18884,-69.2834,0,0,0,0,0,0,0,-1,1203,470,7.18885,69.2834
-14,554,12.4838,-94.3013,0,0,0,0,0,0,0,-1,1210,470,12.4837,94.3013
-7,554,12.4888,-94.5919,0,0,0,0,0,0,0,-1,1217,470,12.4888,94.5919
0,554,12.5432,-94.6878,0,0,0,0,0,0,0,-1,1224,470,12.5432,94.6878
7,554,17.5618,-115.07,0,0,0,0,0,0,0,-1,1231,470,17.5618,115.07
14,554,16.3373,-115.225,0,0,0,0,0,0,0,-1,1238,470,16.3372,115.225
21,554,15.1688,-115.41,0,0,0,0,0,0,0,-1,1245,470,15.1689,115.41
28,554,13.5374,-113.555,0,0,0,0,0,0,0,-1,1252,470,13.5374,113.555
35,554,12.8353,-114.118,0,0,0,0,0,0,0,-1,1259,470,12.8353,114.118
42,554,12.0941,-114.706,0,0,0,0,0,0,0,-1,1266,470,12.0941,114.706
49,554,11.1235,-115.352,0,0,0,0,0,0,0,-1,1273,470,11.1235,115.352
56,554,7.80872,-114.623,0,0,0,0,0,0,0,-1,1280,470,7.80868,114.623
63,554,6.70337,-115.645,0,0,0,0,0,0,0,-1,1287,470,6.70332,115.645
70,554,5.177,-116.368,0,0,0,0,0,0,0,-1,1294,470,5.17705,116.368
77,554,3.80872,-117.326,0,0,0,0,0,0,0,-1,1301,470,3.80876,117.326
84,554,2.56433,-118.331,0,0,0,0,0,0,0,-1,1308,470,2.56434,118.331
91,554,1.64038,-119.604,0,0,0,0,0,0,0,-1,1315,470,1.64035,119.604
98,554,0.86853,-120.664,0,0,0,0,0,0,0,-1,1322,470,0.868482,120.664
105,554,0.0633545,-121.716,0,0,0,0,0,0,0,-1,1329,470,0.063325,121.716
112,554,0.323975,-120.867,0,0,0,0,0,0,0,-1,1336,470,0.323954,120.867
119,554,-0.718872,-122.819,0,0,0,0,0,0,0,-1,1343,470,-0.718826,122.819
126,554,-1.7218,-124.761,0,0,0,0,0,0,0,-1,1350,470,-1.72179,124.761
133,554,-2.22705,-126.965,0,0,0,0,0,0,0,-1,1357,470,-2.2271,126.965
140,554,-2.72156,-129.139,0,0,0,0,0,0,0,-1,1364,470,-2.72152,129.139
147,554,-2.91565,-130.956,0,0,0,0,0,0,0,-1,1371,470,-2.91559,130.956
154,554,-2.70081,-133.561,0,0,0,0,0,0,0,-1,1378,470,-2.70081,133.561
161,554,-2.94727,-136.208,0,0,0,0,0,0,0,-1,1385,470,-2.9473,136.208
168,554,-3.10144,-138.907,0,0,0,0,0,0,0,-1,1392,470,-3.10145,138.907
175,554,10.663,0.286957,0,0,0,0,0,0,0,-1,1399,470,10.663,-0.286966
182,554,6.71106,-4.50217,0,0,0,0,0,0,0,-1,1406,470,6.71107,4.50215
189,554,6.90479,-2.50348,0,0,0,0,0,0,0,-1,1413,470,6.90477,2.50348
196,554,6.96216,-0.740906,0,0,0,0,0,0,0,-1,1420,470,6.96214,0.740912
203,554,6.43518,0.414154,0,0,0,0,0,0,0,-1,1427,470,6.43523,-0.414141
210,554,6.21167,1.96707,0,0,0,0,0,0,0,-1,1434,470,6.21165,-1.96706
217,554,5.64551,3.4989,0,0,0,0,0,0,0,-1,1441,470,5.64555,-3.49891
224,554,4.85144,-8.85172,0,0,0,0,0,0,0,-1,1448,470,4.85146,8.85173
231,554,3.25073,-5.29642,0,0,0,0,0,0,0,-1,1455,470,3.25078,5.29642
238,554,4.28625,-3.25253,0,0,0,0,0,0,0,-1,1462,470,4.28622,3.25252
245,554,4.0752,-2.90033,0,0,0,0,0,0,0,-1,1469,470,4.07515,2.90032
252,554,3.52112,-0.934998,0,0,0,0,0,0,0,-1,1476,470,3.52113,0.934996
259,554,3.96448,-2.16425,0,0,0,0,0,0,0,-1,1483,470,3.96446,2.16424
266,554,3.0592,-2.71716,0,0,0,0,0,0,0,-1,1490,470,3.05923,2.71718
273,554,2.58521,-3.06876,0,0,0,0,0,0,0,-1,1497,470,2.58524,3.06874
280,554,17.1266,-60.7137,0,0,0,0,0,0,0,-1,1504,470,17.1266,60.7137
287,554,15.8918,-56.7317,0,0,0,0,0,0,0,-1,1511,470,15.8918,56.7317
294,554,18.4086,-63.1683,0,0,0,0,0,0,0,-1,1518,470,18.4085,63.1683
301,554,18.8044,-71.5027,0,0,0,0,0,0,0,-1,1525,470,18.8045,71.5028
308,554,21.7498,-95.5919,0,0,0,0,0,0,0,-1,1532,470,21.7498,95.5919
315,554,22.215,-100.177,0,0,0,0,0,0,0,-1,1539,470,22.215,100.177
322,554,22.08,-98.105,0,0,0,0,0,0,0,-1,1546,470,22.08,98.105
329,554,23.7661,-126.615,0,0,0,0,0,0,0,-1,1553,470,23.7661,126.615
336,554,23.9337,-147.073,0,0,0,0,0,0,0,-1,1560,470,23.9337,147.073
343,554,23.6409,-144.651,0,0,0,0,0,0,0,-1,1567,470,23.6409,144.651
350,554,23.2828,-142.169,0.010235,-0.00328207,-0.00454924,0.0116235,-0.00467052,-0.296225,0.00968863,0.0232848,1574,470,23.2829,142.169
357,554,22.9409,-139.684,0.00882727,-0.00315051,-0.00374918,0.00990401,-0.00422725,-0.279667,0.00837525,0.0143781,1581,470,22.9409,139.684
364,554,22.5836,-137.3,0.00739196,-0.0019277,-0.0026343,0.00808503,-0.00262077,-0.257265,0.00644378,0.0111329,1588,470,22.5836,137.3
371,554,22.1526,-134.828,0.00628763,-0.000785731,-0.00151481,0.00659838,-0.00109649,-0.202337,0.00480629,0.0100979,1595,470,22.1526,134.828
378,554,21.7235,-132.306,0.00533009,0.000789668,-0.000410841,0.00536697,0.000752792,-0.0895163,0.00335532,0.0128602,1602,470,21.7235,132.306
385,554,21.3226,-129.801,0.00454797,0.00267958,0.000809611,0.00484998,0.00237757,0.357037,0.00280031,0.0132294,1609,470,21.3226,129.801
392,554,20.869,-127.29,0.0039326,0.00447923,0.00199159,0.00621617,0.00219566,0.85359,0.00364009,0.0181656,1616,470,20.8691,127.29
399,554,20.4293,-124.669,0.00345152,0.00626494,0.00317369,0.00832971,0.00138675,0.994008,0.00515346,0.0225148,1623,470,20.4293,124.669
406,554,19.9789,-122.072,0.0030518,0.00797292,0.0042988,0.0104656,0.000559177,1.04533,0.00679831,0.0196816,1630,470,19.9789,122.072
413,554,19.5251,-119.567,0.0027596,0.00939494,0.00537104,0.0123903,-0.000235806,1.06206,0.00833994,0.0183386,1637,470,19.5251,119.567
420,554,19.0302,-116.996,0.00247442,0.0105934,0.00628012,0.0140118,-0.00094402,1.07232,0.00967126,0.0196846,1644,470,19.0301,116.996
427,554,18.5621,-114.366,0.00227725,0.0117988,0.0072108,0.0156787,-0.00160261,1.07716,0.0110255,0.0168206,1651,470,18.5622,114.366
434,554,18.0636,-111.752,0.00205217,0.0128621,0.00806805,0.0171683,-0.00225404,1.08053,0.0122661,0.0182355,1658,470,18.0636,111.752
441,554,17.6007,-109.112,0.00178265,0.0137303,0.00883259,0.0184196,-0.0029066,1.08273,0.0133544,0.023935,1665,470,17.6007,109.112
448,554,17.0271,-106.344,0.00155717,0.0142889,0.00948698,0.0193479,-0.00350181,1.0809,0.0142104,0.0416906,1672,470,17.0271,106.344
455,554,16.4618,-103.726,0.00142805,0.0147182,0.00994622,0.0200349,-0.00388867,1.0799,0.0148238,0.0485625,1679,470,16.4618,103.726
462,554,16.1132,-101.174,0,0,0,0,0,0,0,-1,1686,470,16.1131,101.174
469,554,16.9983,-83.4775,0,0,0,0,0,0,0,-1,1693,470,16.9982,83.4776
476,554,17.3702,-71.8294,0,0,0,0,0,0,0,-1,1700,470,17.3703,71.8294
483,554,16.5232,-37.438,0,0,0,0,0,0,0,-1,1707,470,16.5232,37.438
490,554,12.5504,-17.9805,0,0,0,0,0,0,0,-1,1714,470,12.5505,17.9805
497,554,14.3204,-17.9055,0,0,0,0,0,0,0,-1,1721,470,14.3204,17.9055
504,554,2.13257,-3.81628,0,0,0,0,0,0,0,-1,1728,470,2.1326,3.8163
511,554,1.31396,-4.02713,0,0,0,0,0,0,0,-1,1735,470,1.31398,4.02712
518,554,5.04236,-5.9472,0,0,0,0,0,0,0,-1,1742,470,5.04231,5.94721
525,554,0,0,0,0,0,0,0,0,0,-1,1749,470,0,0
532,554,0,0,0,0,0,0,0,0,0,-1,1756,470,0,0
539,554,0,0,0,0,0,0,0,0,0,-1,1763,470,0,0
546,554,0,0,0,0,0,0,0,0,0,-1,1770,470,0,0
553,554,0,0,0,0,0,0,0,0,0,-1,1777,470,0,0
560,554,0,0,0,0,0,0,0,0,0,-1,1784,470,0,0
567,554,0,0,0,0,0,0,0,0,0,-1,1791,470,0,0
574,554,0,0,0,0,0,0,0,0,0,-1,1798,470,0,0
581,554,0,0,0,0,0,0,0,0,0,-1,1805,470,0,0
588,554,0,0,0,0,0,0,0,0,0,-1,1812,470,0,0
595,554,0,0,0,0,0,0,0,0,0,-1,1819,470,0,0
602,554,0,0,0,0,0,0,0,0,0,-1,1826,470,0,0
609,554,0,0,0,0,0,0,0,0,0,-1,1833,470,0,0
616,554,0,0,0,0,0,0,0,0,0,-1,1840,470,0,0
623,554,0,0,0,0,0,0,0,0,0,-1,1847,470,0,0
630,554,0,0,0,0,0,0,0,0,0,-1,1854,470,0,0
637,554,0,0,0,0,0,0,0,0,0,-1,1861,470,0,0
644,554,0,0,0,0,0,0,0,0,0,-1,1868,470,0,0
651,554,0,0,0,0,0,0,0,0,0,-1,1875,470,0,0
658,554,0,0,0,0,0,0,0,0,0,-1,1882,470,0,0
665,554,0,0,0,0,0,0,0,0,0,-1,1889,470,0,0
672,554,0,0,0,0,0,0,0,0,0,-1,1896,470,0,0
679,554,0,0,0,0,0,0,0,0,0,-1,1903,470,0,0
686,554,0,0,0,0,0,0,0,0,0,-1,1910,470,0,0
693,554,0,0,0,0,0,0,0,0,0,-1,1917,470,0,0
700,554,0,0,0,0,0,0,0,0,0,-1,1924,470,0,0
707,554,0,0,0,0,0,0,0,0,0,-1,1931,470,0,0
714,554,0,0,0,0,0,0,0,0,0,-1,1938,470,0,0
721,554,0,0,0,0,0,0,0,0,0,-1,1945,470,0,0
728,554,0,0,0,0,0,0,0,0,0,-1,1952,470,0,0
735,554,0,0,0,0,0,0,0,0,0,-1,1959,470,0,0
742,554,0,0,0,0,0,0,0,0,0,-1,1966,470,0,0
749,554,0,0,0,0,0,0,0,0,0,-1,1973,470,0,0
756,554,0,0,0,0,0,0,0,0,0,-1,1980,470,0,0
763,554,0,0,0,0,0,0,0,0,0,-1,1987,470,0,0
770,554,0,0,0,0,0,0,0,0,0,-1,1994,470,0,0
777,554,0,0,0,0,0,0,0,0,0,-1,2001,470,0,0
784,554,0,0,0,0,0,0,0,0,0,-1,2008,470,0,0
791,554,0,0,0,0,0,0,0,0,0,-1,2015,470,0,0
798,554,0,0,0,0,0,0,0,0,0,-1,2022,470,0,0
805,554,0,0,0,0,0,0,0,0,0,-1,2029,470,0,0
812,554,0,0,0,0,0,0,0,0,0,-1,2036,470,0,0
-700,547,0,0,0,0,0,0,0,0,0,-1,524,477,0,0
-693,547,0,0,0,0,0,0,0,0,0,-1,531,477,0,0
-686,547,0,0,0,0,0,0,0,0,0,-1,538,477,0,0
-679,547,0,0,0,0,0,0,0,0,0,-1,545,477,0,0
-672,547,0,0,0,0,0,0,0,0,0,-1,552,477,0,0
-665,547,0,0,0,0,0,0,0,0,0,-1,559,477,0,0
-658,547,0,0,0,0,0,0,0,0,0,-1,566,477,0,0
-651,547,0,0,0,0,0,0,0,0,0,-1,573,477,0,0
-644,547,0,0,0,0,0,0,0,0,0,-1,580,477,0,0
-637,547,0,0,0,0,0,0,0,0,0,-1,587,477,0,0
-630,547,0,0,0,0,0,0,0,0,0,-1,594,477,0,0
-623,547,0,0,0,0,0,0,0,0,0,-1,601,477,0,0
-616,547,0,0,0,0,0,0,0,0,0,-1,608,477,0,0
-609,547,0,0,0,0,0,0,0,0,0,-1,615,477,0,0
-602,547,0,0,0,0,0,0,0,0,0,-1,622,477,0,0
-595,547,0,0,0,0,0,0,0,0,0,-1,629,477,0,0
-588,547,0,0,0,0,0,0,0,0,0,-1,636,477,0,0
-581,547,0,0,0,0,0,0,0,0,0,-1,643,477,0,0
-574,547,0,0,0,0,0,0,0,0,0,-1,650,477,0,0
-567,547,0,0,0,0,0,0,0,0,0,-1,657,477,0,0
-560,547,0,0,0,0,0,0,0,0,0,-1,664,477,0,0
-553,547,0,0,0,0,0,0,0,0,0,-1,671,477,0,0
-546,547,0,0,0,0,0,0,0,0,0,-1,678,477,0,0
-539,547,0,0,0,0,0,0,0,0,0,-1,685,477,0,0
-532,547,0,0,0,0,0,0,0,0,0,-1,692,477,0,0
-525,547,0,0,0,0,0,0,0,0,0,-1,699,477,0,0
-518,547,0,0,0,0,0,0,0,0,0,-1,706,477,0,0
-511,547,0,0,0,0,0,0,0,0,0,-1,713,477,0,0
-504,547,0,0,0,0,0,0,0,0,0,-1,720,477,0,0
-497,547,0,0,0,0,0,0,0,0,0,-1,727,477,0,0
-490,547,0,0,0,0,0,0,0,0,0,-1,734,477,0,0
-483,547,0,0,0,0,0,0,0,0,0,-1,741,477,0,0
-476,547,0,0,0,0,0,0,0,0,0,-1,748,477,0,0
-469,547,0,0,0,0,0,0,0,0,0,-1,755,477,0,0
-462,547,0,0,0,0,0,0,0,0,0,-1,762,477,0,0
-455,547,0,0,0,0,0,0,0,0,0,-1,769,477,0,0
-448,547,0,0,0,0,0,0,0,0,0,-1,776,477,0,0
-441,547,0,0,0,0,0,0,0,0,0,-1,783,477,0,0
-434,547,0,0,0,0,0,0,0,0,0,-1,790,477,0,0
-427,547,0,0,0,0,0,0,0,0,0,-1,797,477,0,0
-420,547,0,0,0,0,0,0,0,0,0,-1,804,477,0,0
-413,547,0,0,0,0,0,0,0,0,0,-1,811,477,0,0
-406,547,0.144592,-11.0292,0,0,0,0,0,0,0,-1,818,477,0.144583,11.0292
-399,547,0.775513,-10.0294,0,0,0,0,0,0,0,-1,825,477,0.775482,10.0295
-392,547,0.219055,-28.7913,0,0,0,0,0,0,0,-1,832,477,0.219056,28.7913
-385,547,0.564331,-29.2501,0,0,0,0,0,0,0,-1,839,477,0.564342,29.2501
-378,547,0.934631,-29.7303,0,0,0,0,0,0,0,-1,846,477,0.934644,29.7303
-371,547,1.85028,-29.6768,0,0,0,0,0,0,0,-1,853,477,1.85026,29.6768
-364,547,1.65063,-30.9048,0,0,0,0,0,0,0,-1,860,477,1.65062,30.9048
-357,547,1.38422,-32.116,0,0,0,0,0,0,0,-1,867,477,1.3842,32.116
-350,547,-2.25751,-57.7035,0,0,0,0,0,0,0,-1,874,477,-2.25754,57.7035
-343,547,-6.34717,-96.6823,0,0,0,0,0,0,0,-1,881,477,-6.34719,96.6822
-336,547,-7.17511,-99.2794,-0.00523459,0.0224839,-0.00889938,0.0250952,-0.00784585,-1.28539,0.0198687,0.0375901,888,477,-7.17509,99.2793
-329,547,-7.99872,-101.928,-0.00344463,0.0191407,-0.00856568,0.0220218,-0.00632571,-1.24633,0.0171824,0.0226778,895,477,-7.99872,101.928
-322,547,-8.51343,-104.62,-0.00198948,0.0160951,-0.00803505,0.0191493,-0.00504368,-1.20755,0.014738,0.0188956,902,477,-8.51345,104.621
-315,547,-9.03387,-107.387,-0.000828643,0.0132338,-0.0073253,0.0163563,-0.00395114,-1.16786,0.0124323,0.0116482,909,477,-9.03388,107.387
-308,547,-9.55688,-110.031,0.000223203,0.0108546,-0.0066032,0.0140159,-0.00293806,-1.12429,0.0104617,0.0152422,916,477,-9.55686,110.031
-301,547,-10.0743,-112.622,0.00120858,0.00844667,-0.00588256,0.0117343,-0.00207904,-1.06116,0.00860005,0.0171607,923,477,-10.0743,112.622
-294,547,-10.597,-115.203,0.00209938,0.00629821,-0.00492061,0.00954856,-0.00115097,-0.987035,0.00678199,0.0137322,930,477,-10.597,115.203
-287,547,-11.0589,-117.823,0.00273049,0.00428122,-0.0038575,0.00744051,-0.000428795,-0.884578,0.00510927,0.0144744,937,477,-11.0589,117.823
-280,547,-11.498,-120.401,0.00334285,0.00216689,-0.00274409,0.00556125,-5.15105e-05,-0.679858,0.00372479,0.0168096,944,477,-11.498,120.401
-273,547,-11.9896,-122.998,0.00389908,3.3338e-05,-0.00139913,0.00435233,-0.000419908,-0.31328,0.00305117,0.0157203,951,477,-11.9895,122.998
-266,547,-12.4745,-125.51,0.00453584,-0.0020854,-5.89294e-05,0.00453637,-0.00208592,-0.00889912,0.00390966,0.015348,958,477,-12.4745,125.51
-259,547,-12.8911,-127.975,0.00537788,-0.00397761,0.00114889,0.0055169,-0.00411663,0.120421,0.00558147,0.0142639,965,477,-12.8911,127.975
-252,547,-13.2838,-130.541,0.00637421,-0.00584037,0.00235507,0.00681256,-0.00627871,0.184023,0.00756034,0.0140931,972,477,-13.2837,130.541
-245,547,-13.6707,-133.084,0.00745033,-0.00768348,0.00359563,0.00826117,-0.00849432,0.221797,0.0096741,0.0170683,979,477,-13.6707,133.084
-238,547,-14.0743,-135.619,0.0086833,-0.00916884,0.00474075,0.00986413,-0.0103497,0.244113,0.0116716,0.0118664,986,477,-14.0743,135.619
-231,547,-14.4615,-138.067,0.0102572,-0.0103307,0.00578191,0.0117699,-0.0118434,0.255883,0.0136331,0.0117227,993,477,-14.4615,138.067
-224,547,-14.7754,-140.449,0.0122495,-0.0111489,0.00659834,0.013982,-0.0128814,0.256764,0.0155139,0.0370185,1000,477,-14.7754,140.449
-217,547,-15.0184,-142.817,0,0,0,0,0,0,0,-1,1007,477,-15.0184,142.817
-210,547,-15.324,-145.624,0,0,0,0,0,0,0,-1,1014,477,-15.324,145.624
-203,547,-3.7373,-74.9356,0,0,0,0,0,0,0,-1,1021,477,-3.73728,74.9356
-196,547,-3.4635,-72.0665,0,0,0,0,0,0,0,-1,1028,477,-3.46345,72.0665
-189,547,-3.04053,-72.5745,0,0,0,0,0,0,0,-1,1035,477,-3.04049,72.5745
-182,547,-1.53381,-67.4076,0,0,0,0,0,0,0,-1,1042,477,-1.53385,67.4076
-175,547,1.37634,-47.526,0,0,0,0,0,0,0,-1,1049,477,1.3763,47.526
-168,547,0.761719,-32.9387,0,0,0,0,0,0,0,-1,1056,477,0.761738,32.9387
-161,547,0.0430908,-34.6016,0,0,0,0,0,0,0,-1,1063,477,0.0431231,34.6016
-154,547,-0.284424,-31.1176,0,0,0,0,0,0,0,-1,1070,477,-0.284395,31.1176
-147,547,3.69434,-26.413,0,0,0,0,0,0,0,-1,1077,477,3.69437,26.413
-140,547,1.55676,-22.5229,0,0,0,0,0,0,0,-1,1084,477,1.5568,22.5229
-133,547,2.31665,-17.9421,0,0,0,0,0,0,0,-1,1091,477,2.31667,17.9421
-126,547,-1.15271,-30.6984,0,0,0,0,0,0,0,-1,1098,477,-1.15267,30.6984
-119,547,0.967651,-24.9351,0,0,0,0,0,0,0,-1,1105,477,0.967657,24.9351
-112,547,1.15674,-22.2276,0,0,0,0,0,0,0,-1,1112,477,1.15677,22.2276
-105,547,0.966797,-20.5777,0,0,0,0,0,0,0,-1,1119,477,0.966804,20.5777
-98,547,0.70166,-18.9755,0,0,0,0,0,0,0,-1,1126,477,0.701713,18.9755
-91,547,1.37805,-7.12024,0,0,0,0,0,0,0,-1,1133,477,1.37804,7.12025
-84,547,1.94202,-6.66241,0,0,0,0,0,0,0,-1,1140,477,1.94201,6.66241
-77,547,-2.28357,1.8588,0,0,0,0,0,0,0,-1,1147,477,-2.28356,-1.85879
-70,547,-3.70178,-0.874908,0,0,0,0,0,0,0,-1,1154,477,-3.70182,0.874918
-63,547,-5.12012,-3.60861,0,0,0,0,0,0,0,-1,1161,477,-5.12009,3.60862
-56,547,-6.01917,-6.2399,0,0,0,0,0,0,0,-1,1168,477,-6.01921,6.23991
-49,547,-6.729,-8.60349,0,0,0,0,0,0,0,-1,1175,477,-6.72899,8.60348
-42,547,-2.41736,-5.53012,0,0,0,0,0,0,0,-1,1182,477,-2.41734,5.53011
-35,547,-2.96838,-4.45734,0,0,0,0,0,0,0,-1,1189,477,-2.96839,4.45734
-28,547,-0.869141,-1.29901,0,0,0,0,0,0,0,-1,1196,477,-0.869135,1.29901
-21,547,0.401978,-72.9637,0,0,0,0,0,0,0,-1,1203,477,0.401971,72.9637
-14,547,12.2518,-93.9367,0,0,0,0,0,0,0,-1,1210,477,12.2518,93.9367
-7,547,12.3153,-94.0395,0,0,0,0,0,0,0,-1,1217,477,12.3153,94.0395
0,547,12.3788,-94.1422,0,0,0,0,0,0,0,-1,1224,477,12.3788,94.1422
7,547,6.43262,-90.8511,0,0,0,0,0,0,0,-1,1231,477,6.4326,90.8511
14,547,0,0,0,0,0,0,0,0,0,-1,1238,477,0,0
21,547,0,0,0,0,0,0,0,0,0,-1,1245,477,0,0
28,547,0,0,0,0,0,0,0,0,0,-1,1252,477,0,0
35,547,0,0,0,0,0,0,0,0,0,-1,1259,477,0,0
42,547,0,0,0,0,0,0,0,0,0,-1,1266,477,0,0
49,547,0,0,0,0,0,0,0,0,0,-1,1273,477,0,0
56,547,0,0,0,0,0,0,0,0,0,-1,1280,477,0,0
63,547,0,0,0,0,0,0,0,0,0,-1,1287,477,0,0
70,547,0,0,0,0,0,0,0,0,0,-1,1294,477,0,0
77,547,0,0,0,0,0,0,0,0,0,-1,1301,477,0,0
84,547,0,0,0,0,0,0,0,0,0,-1,1308,477,0,0
91,547,0,0,0,0,0,0,0,0,0,-1,1315,477,0,0
98,547,0,0,0,0,0,0,0,0,0,-1,1322,477,0,0
105,547,0.934814,-119.067,0,0,0,0,0,0,0,-1,1329,477,0.934764,119.067
112,547,0.317993,-120.917,0,0,0,0,0,0,0,-1,1336,477,0.317986,120.917
119,547,-0.626221,-122.337,0,0,0,0,0,0,0,-1,1343,477,-0.626257,122.337
126,547,-1.45447,-124.086,0,0,0,0,0,0,0,-1,1350,477,-1.45442,124.086
133,547,-2.01843,-126.185,0,0,0,0,0,0,0,-1,1357,477,-2.01839,126.185
140,547,-2.60132,-128.37,0,0,0,0,0,0,0,-1,1364,477,-2.60127,128.37
147,547,-2.68701,-130.647,0,0,0,0,0,0,0,-1,1371,477,-2.68696,130.647
154,547,-2.62231,-133.242,0,0,0,0,0,0,0,-1,1378,477,-2.62227,133.242
161,547,-2.80945,-135.777,0,0,0,0,0,0,0,-1,1385,477,-2.80944,135.777
168,547,-4.8114,-85.34,0,0,0,0,0,0,0,-1,1392,477,-4.81144,85.3399
175,547,3.35034,-0.26532,0,0,0,0,0,0,0,-1,1399,477,3.3503,0.265306
182,547,4.26038,3.72672,0,0,0,0,0,0,0,-1,1406,477,4.26039,-3.7267
189,547,3.40454,1.28671,0,0,0,0,0,0,0,-1,1413,477,3.40457,-1.28673
196,547,3.53931,1.87793,0,0,0,0,0,0,0,-1,1420,477,3.53928,-1.87794
203,547,6.49414,-0.425842,0,0,0,0,0,0,0,-1,1427,477,6.4941,0.425844
210,547,4.82092,0.53595,0,0,0,0,0,0,0,-1,1434,477,4.82096,-0.535942
217,547,4.68579,0.480072,0,0,0,0,0,0,0,-1,1441,477,4.68577,-0.480069
224,547,4.55615,0.739807,0,0,0,0,0,0,0,-1,1448,477,4.55613,-0.73981
231,547,5.90869,-3.57721,0,0,0,0,0,0,0,-1,1455,477,5.90871,3.57722
238,547,5.50049,-3.15356,0,0,0,0,0,0,0,-1,1462,477,5.50045,3.15356
245,547,5.13708,-2.65213,0,0,0,0,0,0,0,-1,1469,477,5.13708,2.65212
252,547,3.73511,-0.645233,0,0,0,0,0,0,0,-1,1476,477,3.73515,0.645237
259,547,5.86816,-3.20816,0,0,0,0,0,0,0,-1,1483,477,5.86815,3.20816
266,547,5.40222,-2.45731,0,0,0,0,0,0,0,-1,1490,477,5.40221,2.45732
273,547,3.05737,0.495789,0,0,0,0,0,0,0,-1,1497,477,3.05742,-0.49578
280,547,2.0885,1.47797,0,0,0,0,0,0,0,-1,1504,477,2.08848,-1.47795
287,547,16.7034,-52.6257,0,0,0,0,0,0,0,-1,1511,477,16.7033,52.6258
294,547,16.8954,-51.6904,0,0,0,0,0,0,0,-1,1518,477,16.8954,51.6904
301,547,16.5122,-48.5859,0,0,0,0,0,0,0,-1,1525,477,16.5122,48.5859
308,547,14.5352,-46.2472,0,0,0,0,0,0,0,-1,1532,477,14.5351,46.2472
315,547,16.3188,-48.3778,0,0,0,0,0,0,0,-1,1539,477,16.3188,48.3778
322,547,17.0029,-52.4161,0,0,0,0,0,0,0,-1,1546,477,17.0029,52.4161
329,547,21.0952,-81.7401,0,0,0,0,0,0,0,-1,1553,477,21.0952,81.7401
336,547,22.9993,-90.8107,0,0,0,0,0,0,0,-1,1560,477,22.9993,90.8107
343,547,25.0878,-120.782,0,0,0,0,0,0,0,-1,1567,477,25.0877,120.782
350,547,25.7075,-141.771,0,0,0,0,0,0,0,-1,1574,477,25.7075,141.771
357,547,25.4813,-139.624,0,0,0,0,0,0,0,-1,1581,477,25.4813,139.624
364,547,25.0739,-136.935,0.00888415,-0.00374223,-0.0043053,0.0102124,-0.00507051,-0.299255,0.00898853,0.0250599,1588,477,25.0739,136.935
371,547,24.6429,-134.348,0.0075493,-0.0029597,-0.00334792,0.00852524,-0.00393564,-0.283645,0.00735515,0.0120764,1595,477,24.6429,134.348
378,547,24.2601,-131.864,0.00636953,-0.00169688,-0.00239622,0.00702766,-0.00235501,-0.268044,0.00563656,0.0130136,1602,477,24.2601,131.864
385,547,23.8163,-129.325,0.00536073,1.78276e-05,-0.00122847,0.00562965,-0.000251093,-0.215508,0.00383954,0.0132404,1609,477,23.8162,129.325
392,547,23.3392,-126.794,0.00456798,0.00160976,-0.000110221,0.00457208,0.00160566,-0.0371905,0.00267838,0.0155616,1616,477,23.3393,126.794
399,547,22.9076,-124.248,0.00395314,0.00317895,0.0010292,0.00466563,0.00246646,0.605525,0.00269517,0.0183108,1623,477,22.9075,124.248
406,547,22.5509,-121.707,0.00344838,0.00472615,0.00215119,0.00633132,0.00184321,0.929745,0.00376021,0.0187989,1630,477,22.5509,121.707
413,547,22.078,-119.129,0.0030823,0.00608716,0.00324863,0.00816396,0.0010055,1.00199,0.00514036,0.0196464,1637,477,22.0779,119.129
420,547,21.6254,-116.51,0.00276475,0.00722076,0.00419,0.00973829,0.000247216,1.02976,0.00641138,0.0222948,1644,477,21.6253,116.51
427,547,21.1752,-113.908,0.00252076,0.00834932,0.0051088,0.0113166,-0.000446531,1.0446,0.00769757,0.0283691,1651,477,21.1752,113.908
434,547,20.5996,-111.375,0.00226365,0.00933223,0.00597764,0.0127423,-0.00114637,1.05238,0.0089016,0.0235795,1658,477,20.5996,111.375
441,547,20.0836,-108.786,0.00200277,0.0101872,0.00675677,0.0139944,-0.00180439,1.05768,0.00998554,0.0263157,1665,477,20.0837,108.786
448,547,19.5143,-106.133,0.00178394,0.0108348,0.00744965,0.0150258,-0.0024071,1.05834,0.0109085,0.023801,1672,477,19.5142,106.133
455,547,19.0496,-103.482,0.00161002,0.0114356,0.00801403,0.0159228,-0.0028772,1.06037,0.0116929,0.0188615,1679,477,19.0496,103.482
462,547,18.5751,-100.83,0.00146829,0.0123887,0.00869216,0.0171934,-0.00333637,1.06584,0.0127211,0.0242958,1686,477,18.575,100.83
469,547,18.1426,-98.0834,0,0,0,0,0,0,0,-1,1693,477,18.1425,98.0834
476,547,18.7277,-80.9745,0,0,0,0,0,0,0,-1,1700,477,18.7277,80.9745
483,547,17.813,-45.9664,0,0,0,0,0,0,0,-1,1707,477,17.813,45.9664
490,547,3.65271,-3.71707,0,0,0,0,0,0,0,-1,1714,477,3.65277,3.71708
497,547,2.55481,-3.81421,0,0,0,0,0,0,0,-1,1721,477,2.55476,3.8142
504,547,4.01953,-2.22714,0,0,0,0,0,0,0,-1,1728,477,4.0195,2.22713
511,547,5.2146,-6.9552,0,0,0,0,0,0,0,-1,1735,477,5.21464,6.95521
518,547,5.24243,-6.56122,0,0,0,0,0,0,0,-1,1742,477,5.24241,6.56121
525,547,5.89368,-5.49866,0,0,0,0,0,0,0,-1,1749,477,5.89372,5.49866
532,547,0,0,0,0,0,0,0,0,0,-1,1756,477,0,0
539,547,0,0,0,0,0,0,0,0,0,-1,1763,477,0,0
546,547,0,0,0,0,0,0,0,0,0,-1,1770,477,0,0
553,547,0,0,0,0,0,0,0,0,0,-1,1777,477,0,0
560,547,0,0,0,0,0,0,0,0,0,-1,1784,477,0,0
567,547,0,0,0,0,0,0,0,0,0,-1,1791,477,0,0
574,547,0,0,0,0,0,0,0,0,0,-1,1798,477,0,0
581,547,0,0,0,0,0,0,0,0,0,-1,1805,477,0,0
588,547,0,0,0,0,0,0,0,0,0,-1,1812,477,0,0
595,547,0,0,0,0,0,0,0,0,0,-1,1819,477,0,0
602,547,0,0,0,0,0,0,0,0,0,-1,1826,477,0,0
609,547,0,0,0,0,0,0,0,0,0,-1,1833,477,0,0
616,547,0,0,0,0,0,0,0,0,0,-1,1840,477,0,0
623,547,0,0,0,0,0,0,0,0,0,-1,1847,477,0,0
630,547,0,0,0,0,0,0,0,0,0,-1,1854,477,0,0
637,547,0,0,0,0,0,0,0,0,0,-1,1861,477,0,0
644,547,0,0,0,0,0,0,0,0,0,-1,1868,477,0,0
651,547,0,0,0,0,0,0,0,0,0,-1,1875,477,0,0
658,547,0,0,0,0,0,0,0,0,0,-1,1882,477,0,0
665,547,0,0,0,0,0,0,0,0,0,-1,1889,477,0,0
672,547,0,0,0,0,0,0,0,0,0,-1,1896,477,0,0
679,547,0,0,0,0,0,0,0,0,0,-1,1903,477,0,0
686,547,0,0,0,0,0,0,0,0,0,-1,1910,477,0,0
693,547,0,0,0,0,0,0,0,0,0,-1,1917,477,0,0
700,547,0,0,0,0,0,0,0,0,0,-1,1924,477,0,0
707,547,0,0,0,0,0,0,0,0,0,-1,1931,477,0,0
714,547,0,0,0,0,0,0,0,0,0,-1,1938,477,0,0
721,547,0,0,0,0,0,0,0,0,0,-1,1945,477,0,0
728,547,0,0,0,0,0,0,0,0,0,-1,1952,477,0,0
735,547,0,0,0,0,0,0,0,0,0,-1,1959,477,0,0
742,547,0,0,0,0,0,0,0,0,0,-1,1966,477,0,0
749,547,0,0,0,0,0,0,0,0,0,-1,1973,477,0,0
756,547,0,0,0,0,0,0,0,0,0,-1,1980,477,0,0
763,547,0,0,0,0,0,0,0,0,0,-1,1987,477,0,0
770,547,0,0,0,0,0,0,0,0,0,-1,1994,477,0,0
777,547,0,0,0,0,0,0,0,0,0,-1,2001,477,0,0
784,547,0,0,0,0,0,0,0,0,0,-1,2008,477,0,0
791,547,0,0,0,0,0,0,0,0,0,-1,2015,477,0,0
798,547,0,0,0,0,0,0,0,0,0,-1,2022,477,0,0
805,547,0,0,0,0,0,0,0,0,0,-1,2029,477,0,0
812,547,0,0,0,0,0,0,0,0,0,-1,2036,477,0,0
-700,540,0,0,0,0,0,0,0,0,0,-1,524,484,0,0
-693,540,0,0,0,0,0,0,0,0,0,-1,531,484,0,0
-686,540,0,0,0,0,0,0,0,0,0,-1,538,484,0,0
-679,540,0,0,0,0,0,0,0,0,0,-1,545,484,0,0
-672,540,0,0,0,0,0,0,0,0,0,-1,552,484,0,0
-665,540,0,0,0,0,0,0,0,0,0,-1,559,484,0,0
-658,540,0,0,0,0,0,0,0,0,0,-1,566,484,0,0
-651,540,0,0,0,0,0,0,0,0,0,-1,573,484,0,0
-644,540,0,0,0,0,0,0,0,0,0,-1,580,484,0,0
-637,540,0,0,0,0,0,0,0,0,0,-1,587,484,0,0
-630,540,0,0,0,0,0,0,0,0,0,-1,594,484,0,0
-623,540,0,0,0,0,0,0,0,0,0,-1,601,484,0,0
-616,540,0,0,0,0,0,0,0,0,0,-1,608,484,0,0
-609,540,0,0,0,0,0,0,0,0,0,-1,615,484,0,0
-602,540,0,0,0,0,0,0,0,0,0,-1,622,484,0,0
-595,540,0,0,0,0,0,0,0,0,0,-1,629,484,0,0
-588,540,0,0,0,0,0,0,0,0,0,-1,636,484,0,0
-581,540,0,0,0,0,0,0,0,0,0,-1,643,484,0,0
-574,540,0,0,0,0,0,0,0,0,0,-1,650,484,0,0
-567,540,0,0,0,0,0,0,0,0,0,-1,657,484,0,0
-560,540,0,0,0,0,0,0,0,0,0,-1,664,484,0,0
-553,540,0,0,0,0,0,0,0,0,0,-1,671,484,0,0
-546,540,0,0,0,0,0,0,0,0,0,-1,678,484,0,0
-539,540,0,0,0,0,0,0,0,0,0,-1,685,484,0,0
-532,540,0,0,0,0,0,0,0,0,0,-1,692,484,0,0
-525,540,0,0,0,0,0,0,0,0,0,-1,699,484,0,0
-518,540,0,0,0,0,0,0,0,0,0,-1,706,484,0,0
-511,540,0,0,0,0,0,0,0,0,0,-1,713,484,0,0
-504,540,0,0,0,0,0,0,0,0,0,-1,720,484,0,0
-497,540,0,0,0,0,0,0,0,0,0,-1,727,484,0,0
-490,540,0,0,0,0,0,0,0,0,0,-1,734,484,0,0
-483,540,0,0,0,0,0,0,0,0,0,-1,741,484,0,0
-476,540,0,0,0,0,0,0,0,0,0,-1,748,484,0,0
-469,540,0,0,0,0,0,0,0,0,0,-1,755,484,0,0
-462,540,0,0,0,0,0,0,0,0,0,-1,762,484,0,0
-455,540,0,0,0,0,0,0,0,0,0,-1,769,484,0,0
-448,540,0,0,0,0,0,0,0,0,0,-1,776,484,0,0
-441,540,0,0,0,0,0,0,0,0,0,-1,783,484,0,0
-434,540,0,0,0,0,0,0,0,0,0,-1,790,484,0,0
-427,540,0,0,0,0,0,0,0,0,0,-1,797,484,0,0
-420,540,0.227051,-10.0402,0,0,0,0,0,0,0,-1,804,484,0.227063,10.0402
-413,540,-0.0393677,-10.3862,0,0,0,0,0,0,0,-1,811,484,-0.0393683,10.3862
-406,540,-0.518372,-11.5288,0,0,0,0,0,0,0,-1,818,484,-0.518402,11.5288
-399,540,0.0863037,-11.3801,0,0,0,0,0,0,0,-1,825,484,0.0863201,11.3801
-392,540,-0.517395,-10.6735,0,0,0,0,0,0,0,-1,832,484,-0.517377,10.6735
-385,540,-0.41748,-29.7767,0,0,0,0,0,0,0,-1,839,484,-0.417475,29.7767
-378,540,-0.0524292,-30.2798,0,0,0,0,0,0,0,-1,846,484,-0.0524504,30.2798
-371,540,0.825806,-28.765,0,0,0,0,0,0,0,-1,853,484,0.8258,28.765
-364,540,0.631714,-31.1377,0,0,0,0,0,0,0,-1,860,484,0.631715,31.1377
-357,540,-7.66089,-90.4605,0,0,0,0,0,0,0,-1,867,484,-7.66091,90.4605
-350,540,-8.90283,-92.4792,0,0,0,0,0,0,0,-1,874,484,-8.90285,92.4792
-343,540,-9.42334,-95.8617,0,0,0,0,0,0,0,-1,881,484,-9.42336,95.8617
-336,540,-10.1367,-98.9595,-0.00329901,0.0177763,-0.00727896,0.0200459,-0.0055686,-1.26855,0.015556,0.0282105,888,484,-10.1366,98.9595
-329,540,-10.6748,-101.552,-0.00209295,0.0145313,-0.00657068,0.0168147,-0.00437635,-1.23634,0.0129181,0.0155793,895,484,-10.6748,101.552
-322,540,-11.1567,-104.2,-0.000994662,0.0116254,-0.00582861,0.0139054,-0.0032747,-1.19792,0.0105329,0.0158824,902,484,-11.1567,104.2
-315,540,-11.6651,-106.881,-7.00596e-05,0.00894711,-0.00497581,0.0111531,-0.00227609,-1.15349,0.00829883,0.0139844,909,484,-11.6651,106.881
-308,540,-12.1112,-109.511,0.000811549,0.00669908,-0.00411867,0.00881784,-0.00130721,-1.09567,0.00635924,0.0162101,916,484,-12.1112,109.511
-301,540,-12.6583,-112.044,0.00168848,0.00449082,-0.00332491,0.00669774,-0.000518434,-0.984814,0.00464762,0.0190319,923,484,-12.6583,112.044
-294,540,-13.1747,-114.689,0.00250466,0.00244244,-0.00233313,0.00480688,0.000140216,-0.778731,0.00315889,0.0162718,930,484,-13.1747,114.689
-287,540,-13.6232,-117.335,0.00312471,0.000534408,-0.00126338,0.00363886,2.02621e-05,-0.386491,0.00241918,0.0107025,937,484,-13.6232,117.335
-280,540,-14.0999,-119.91,0.0037103,-0.00137645,-0.000124095,0.00371332,-0.00137948,-0.0243764,0.0030415,0.0121691,944,484,-14.0999,119.91
-273,540,-14.5623,-122.503,0.0043328,-0.00328515,0.00114269,0.00450051,-0.00345286,0.145728,0.00460514,0.0147721,951,484,-14.5622,122.502
-266,540,-14.952,-125.031,0.00515376,-0.00521702,0.00235782,0.00566465,-0.00572791,0.21338,0.00657753,0.0173838,958,484,-14.952,125.031
-259,540,-15.3627,-127.531,0.00620366,-0.00684192,0.00341335,0.00704279,-0.00768105,0.241055,0.00850347,0.0169735,965,484,-15.3627,127.531
-252,540,-15.7508,-130.013,0.00737079,-0.00842816,0.00444462,0.00853533,-0.0095927,0.256251,0.0104722,0.0171154,972,484,-15.7508,130.013
-245,540,-16.1442,-132.487,0.00858487,-0.010034,0.00548311,0.0100796,-0.0115288,0.26614,0.0124849,0.022289,979,484,-16.1441,132.486
-238,540,-16.6078,-134.983,0.0099916,-0.0110826,0.00635381,0.011759,-0.0128501,0.271308,0.0142127,0.0248125,986,484,-16.6078,134.983
-231,540,-17.0037,-137.457,0,0,0,0,0,0,0,-1,993,484,-17.0037,137.457
-224,540,-17.2219,-140.089,0,0,0,0,0,0,0,-1,1000,484,-17.2219,140.089
-217,540,-11.2583,-111.761,0,0,0,0,0,0,0,-1,1007,484,-11.2583,111.761
-210,540,-2.77222,-65.5617,0,0,0,0,0,0,0,-1,1014,484,-2.77221,65.5617
-203,540,-2.54187,-61.2912,0,0,0,0,0,0,0,-1,1021,484,-2.54189,61.2912
-196,540,-1.87683,-60.7388,0,0,0,0,0,0,0,-1,1028,484,-1.87686,60.7388
-189,540,-2.04358,-57.9892,0,0,0,0,0,0,0,-1,1035,484,-2.04359,57.9892
-182,540,-0.826782,-43.3494,0,0,0,0,0,0,0,-1,1042,484,-0.826777,43.3494
-175,540,1.73413,-10.728,0,0,0,0,0,0,0,-1,1049,484,1.73414,10.728
-168,540,1.18164,-7.65347,0,0,0,0,0,0,0,-1,1056,484,1.18163,7.65347
-161,540,-0.405884,-9.86481,0,0,0,0,0,0,0,-1,1063,484,-0.405886,9.8648
-154,540,1.96863,-22.0727,0,0,0,0,0,0,0,-1,1070,484,1.96859,22.0727
-147,540,1.32764,-21.9952,0,0,0,0,0,0,0,-1,1077,484,1.32762,21.9952
-140,540,1.40735,-15.6289,0,0,0,0,0,0,0,-1,1084,484,1.4073,15.6289
-133,540,2.28345,-17.6413,0,0,0,0,0,0,0,-1,1091,484,2.2835,17.6413
-126,540,1.25293,-23.9108,0,0,0,0,0,0,0,-1,1098,484,1.25288,23.9108
-119,540,1.55969,-23.0125,0,0,0,0,0,0,0,-1,1105,484,1.55968,23.0125
-112,540,1.4801,-21.6515,0,0,0,0,0,0,0,-1,1112,484,1.4801,21.6515
-105,540,1.30078,-19.8938,0,0,0,0,0,0,0,-1,1119,484,1.30077,19.8938
-98,540,1.08105,-18.1304,0,0,0,0,0,0,0,-1,1126,484,1.08101,18.1304
-91,540,1.56519,-7.48666,0,0,0,0,0,0,0,-1,1133,484,1.56514,7.48667
-84,540,-0.945923,4.43073,0,0,0,0,0,0,0,-1,1140,484,-0.945891,-4.43074
-77,540,-2.28894,2.14368,0,0,0,0,0,0,0,-1,1147,484,-2.28894,-2.14368
-70,540,-3.75244,-0.452576,0,0,0,0,0,0,0,-1,1154,484,-3.75244,0.452576
-63,540,-5.26257,-3.04767,0,0,0,0,0,0,0,-1,1161,484,-5.26262,3.04766
-56,540,-5.19055,-6.12595,0,0,0,0,0,0,0,-1,1168,484,-5.19057,6.12595
-49,540,-5.63867,-8.52298,0,0,0,0,0,0,0,-1,1175,484,-5.63871,8.52298
-42,540,0,0,0,0,0,0,0,0,0,-1,1182,484,0,0
-35,540,0,0,0,0,0,0,0,0,0,-1,1189,484,0,0
-28,540,0,0,0,0,0,0,0,0,0,-1,1196,484,0,0
-21,540,0,0,0,0,0,0,0,0,0,-1,1203,484,0,0
-14,540,0,0,0,0,0,0,0,0,0,-1,1210,484,0,0
-7,540,0,0,0,0,0,0,0,0,0,-1,1217,484,0,0
0,540,0,0,0,0,0,0,0,0,0,-1,1224,484,0,0
7,540,0,0,0,0,0,0,0,0,0,-1,1231,484,0,0
14,540,0,0,0,0,0,0,0,0,0,-1,1238,484,0,0
21,540,0,0,0,0,0,0,0,0,0,-1,1245,484,0,0
28,540,0,0,0,0,0,0,0,0,0,-1,1252,484,0,0
35,540,0,0,0,0,0,0,0,0,0,-1,1259,484,0,0
42,540,0,0,0,0,0,0,0,0,0,-1,1266,484,0,0
49,540,0,0,0,0,0,0,0,0,0,-1,1273,484,0,0
56,540,0,0,0,0,0,0,0,0,0,-1,1280,484,0,0
63,540,0,0,0,0,0,0,0,0,0,-1,1287,484,0,0
70,540,0,0,0,0,0,0,0,0,0,-1,1294,484,0,0
77,540,0,0,0,0,0,0,0,0,0,-1,1301,484,0,0
84,540,0,0,0,0,0,0,0,0,0,-1,1308,484,0,0
91,540,0,0,0,0,0,0,0,0,0,-1,1315,484,0,0
98,540,0,0,0,0,0,0,0,0,0,-1,1322,484,0,0
105,540,0,0,0,0,0,0,0,0,0,-1,1329,484,0,0
112,540,0,0,0,0,0,0,0,0,0,-1,1336,484,0,0
119,540,0,0,0,0,0,0,0,0,0,-1,1343,484,0,0
126,540,0,0,0,0,0,0,0,0,0,-1,1350,484,0,0
133,540,0,0,0,0,0,0,0,0,0,-1,1357,484,0,0
140,540,0,0,0,0,0,0,0,0,0,-1,1364,484,0,0
147,540,0,0,0,0,0,0,0,0,0,-1,1371,484,0,0
154,540,0,0,0,0,0,0,0,0,0,-1,1378,484,0,0
161,540,0,0,0,0,0,0,0,0,0,-1,1385,484,0,0
168,540,3.05078,-0.0010376,0,0,0,0,0,0,0,-1,1392,484,3.05084,0.00102554
175,540,3.37708,0.617035,0,0,0,0,0,0,0,-1,1399,484,3.37707,-0.617046
182,540,3.32678,1.23267,0,0,0,0,0,0,0,-1,1406,484,3.32678,-1.23266
189,540,3.5813,2.15619,0,0,0,0,0,0,0,-1,1413,484,3.58129,-2.1562
196,540,1.84448,-0.801483,0,0,0,0,0,0,0,-1,1420,484,1.84446,0.80148
203,540,4.14648,0.702087,0,0,0,0,0,0,0,-1,1427,484,4.14645,-0.702089
210,540,4.50671,-0.56076,0,0,0,0,0,0,0,-1,1434,484,4.50667,0.560771
217,540,5.00452,-0.278717,0,0,0,0,0,0,0,-1,1441,484,5.00452,0.278709
224,540,6.44458,-2.83527,0,0,0,0,0,0,0,-1,1448,484,6.44457,2.83525
231,540,6.9231,-3.10504,0,0,0,0,0,0,0,-1,1455,484,6.92307,3.10505
238,540,6.4823,-2.58365,0,0,0,0,0,0,0,-1,1462,484,6.48225,2.58363
245,540,6.02087,-1.97916,0,0,0,0,0,0,0,-1,1469,484,6.02088,1.97915
252,540,6.50647,-3.56006,0,0,0,0,0,0,0,-1,1476,484,6.50649,3.56006
259,540,6.01941,-2.798,0,0,0,0,0,0,0,-1,1483,484,6.01941,2.79801
266,540,5.5332,-2.02853,0,0,0,0,0,0,0,-1,1490,484,5.53323,2.02855
273,540,5.06787,-1.28137,0,0,0,0,0,0,0,-1,1497,484,5.06786,1.28136
280,540,1.62903,-2.14609,0,0,0,0,0,0,0,-1,1504,484,1.62906,2.1461
287,540,1.97156,-2.45053,0,0,0,0,0,0,0,-1,1511,484,1.97159,2.45053
294,540,2.44165,-2.6185,0,0,0,0,0,0,0,-1,1518,484,2.44167,2.6185
301,540,4.36169,-2.54272,0,0,0,0,0,0,0,-1,1525,484,4.36165,2.54272
308,540,4.2019,-4.30469,0,0,0,0,0,0,0,-1,1532,484,4.20193,4.3047
315,540,4.45923,-5.32101,0,0,0,0,0,0,0,-1,1539,484,4.45923,5.32103
322,540,4.71655,-6.33737,0,0,0,0,0,0,0,-1,1546,484,4.71653,6.33736
329,540,15.0289,-44.3801,0,0,0,0,0,0,0,-1,1553,484,15.0289,44.3801
336,540,17.1764,-48.0145,0,0,0,0,0,0,0,-1,1560,484,17.1764,48.0145
343,540,17.5421,-50.0817,0,0,0,0,0,0,0,-1,1567,484,17.5421,50.0817
350,540,23.2103,-81.6647,0,0,0,0,0,0,0,-1,1574,484,23.2104,81.6648
357,540,26.0358,-101.872,0,0,0,0,0,0,0,-1,1581,484,26.0358,101.872
364,540,27.4821,-136.485,0,0,0,0,0,0,0,-1,1588,484,27.4821,136.485
371,540,27.1062,-133.838,0,0,0,0,0,0,0,-1,1595,484,27.1062,133.838
378,540,26.8519,-131.395,0.00712902,-0.00325059,-0.00404206,0.00851739,-0.00463896,-0.330854,0.00770505,0.032786,1602,484,26.852,131.395
385,540,26.3785,-128.836,0.00598374,-0.00163375,-0.00284927,0.00693155,-0.00258156,-0.321138,0.00568058,0.0203165,1609,484,26.3785,128.836
392,540,25.854,-126.292,0.00507835,-0.000227229,-0.00177783,0.00561898,-0.000767867,-0.295214,0.00402643,0.0165482,1616,484,25.8539,126.292
399,540,25.4595,-123.8,0.0043822,0.00111762,-0.00068989,0.004522,0.000977818,-0.19994,0.00274736,0.0232308,1623,484,25.4594,123.8
406,540,25.1371,-121.226,0.00379434,0.00251817,0.000428606,0.00392492,0.00238759,0.295743,0.00228371,0.0270654,1630,484,25.1371,121.226
413,540,24.7032,-118.662,0.00335748,0.0037981,0.00153178,0.00512533,0.00203025,0.856823,0.00298032,0.0248693,1637,484,24.7032,118.662
420,540,24.1849,-116.031,0.00300201,0.00481794,0.00246282,0.00653483,0.00128512,0.962003,0.00399764,0.0213388,1644,484,24.1849,116.031
427,540,23.6937,-113.425,0.00271536,0.00583113,0.00336202,0.00797867,0.000567813,1.00236,0.00514031,0.024752,1651,484,23.6938,113.425
434,540,23.214,-110.922,0.00243795,0.00669372,0.00422596,0.00929729,-0.000165617,1.01863,0.00625413,0.0371582,1658,484,23.2139,110.922
441,540,22.6639,-108.271,0.00220003,0.00747759,0.00499417,0.0104872,-0.000809636,1.02844,0.00727641,0.0478889,1665,484,22.664,108.271
448,540,22.1533,-105.635,0.00200247,0.00812523,0.00569329,0.011528,-0.00140033,1.03208,0.00819212,0.0225536,1672,484,22.1533,105.635
455,540,21.6697,-103.003,0.00181935,0.00877391,0.00630477,0.0124967,-0.00190348,1.03741,0.00903276,0.0139526,1679,484,21.6697,103.003
462,540,21.1182,-100.326,0.00167713,0.00963262,0.00697308,0.0136827,-0.00237297,1.0446,0.010007,0.0148636,1686,484,21.1181,100.326
469,540,20.4891,-97.6348,0.00136864,0.0110079,0.00778393,0.0153435,-0.00296696,1.0626,0.011348,0.0474598,1693,484,20.4891,97.6348
476,540,19.9342,-94.9818,0,0,0,0,0,0,0,-1,1700,484,19.9342,94.9817
483,540,20.5968,-86.2985,0,0,0,0,0,0,0,-1,1707,484,20.5968,86.2985
490,540,19.4117,-44.4761,0,0,0,0,0,0,0,-1,1714,484,19.4117,44.4761
497,540,10.3452,-16.9359,0,0,0,0,0,0,0,-1,1721,484,10.3453,16.9359
504,540,12.519,-18.0764,0,0,0,0,0,0,0,-1,1728,484,12.519,18.0765
511,540,5.82471,-6.83521,0,0,0,0,0,0,0,-1,1735,484,5.82465,6.83522
518,540,9.98181,-12.4608,0,0,0,0,0,0,0,-1,1742,484,9.98187,12.4608
525,540,12.4843,-16.3481,0,0,0,0,0,0,0,-1,1749,484,12.4842,16.3481
532,540,2.84265,-1.07925,0,0,0,0,0,0,0,-1,1756,484,2.84269,1.07927
539,540,0,0,0,0,0,0,0,0,0,-1,1763,484,0,0
546,540,0,0,0,0,0,0,0,0,0,-1,1770,484,0,0
553,540,0,0,0,0,0,0,0,0,0,-1,1777,484,0,0
560,540,0,0,0,0,0,0,0,0,0,-1,1784,484,0,0
567,540,0,0,0,0,0,0,0,0,0,-1,1791,484,0,0
574,540,0,0,0,0,0,0,0,0,0,-1,1798,484,0,0
581,540,0,0,0,0,0,0,0,0,0,-1,1805,484,0,0
588,540,0,0,0,0,0,0,0,0,0,-1,1812,484,0,0
595,540,0,0,0,0,0,0,0,0,0,-1,1819,484,0,0
602,540,0,0,0,0,0,0,0,0,0,-1,1826,484,0,0
609,540,0,0,0,0,0,0,0,0,0,-1,1833,484,0,0
616,540,0,0,0,0,0,0,0,0,0,-1,1840,484,0,0
623,540,0,0,0,0,0,0,0,0,0,-1,1847,484,0,0
630,540,0,0,0,0,0,0,0,0,0,-1,1854,484,0,0
637,540,0,0,0,0,0,0,0,0,0,-1,1861,484,0,0
644,540,0,0,0,0,0,0,0,0,0,-1,1868,484,0,0
651,540,0,0,0,0,0,0,0,0,0,-1,1875,484,0,0
658,540,0,0,0,0,0,0,0,0,0,-1,1882,484,0,0
665,540,0,0,0,0,0,0,0,0,0,-1,1889,484,0,0
672,540,0,0,0,0,0,0,0,0,0,-1,1896,484,0,0
679,540,0,0,0,0,0,0,0,0,0,-1,1903,484,0,0
686,540,0,0,0,0,0,0,0,0,0,-1,1910,484,0,0
693,540,0,0,0,0,0,0,0,0,0,-1,1917,484,0,0
700,540,0,0,0,0,0,0,0,0,0,-1,1924,484,0,0
707,540,0,0,0,0,0,0,0,0,0,-1,1931,484,0,0
714,540,0,0,0,0,0,0,0,0,0,-1,1938,484,0,0
721,540,0,0,0,0,0,0,0,0,0,-1,1945,484,0,0
728,540,0,0,0,0,0,0,0,0,0,-1,1952,484,0,0
735,540,0,0,0,0,0,0,0,0,0,-1,1959,484,0,0
742,540,0,0,0,0,0,0,0,0,0,-1,1966,484,0,0
749,540,0,0,0,0,0,0,0,0,0,-1,1973,484,0,0
756,540,0,0,0,0,0,0,0,0,0,-1,1980,484,0,0
763,540,0,0,0,0,0,0,0,0,0,-1,1987,484,0,0
770,540,0,0,0,0,0,0,0,0,0,-1,1994,484,0,0
777,540,0,0,0,0,0,0,0,0,0,-1,2001,484,0,0
784,540,0,0,0,0,0,0,0,0,0,-1,2008,484,0,0
791,540,0,0,0,0,0,0,0,0,0,-1,2015,484,0,0
798,540,0,0,0,0,0,0,0,0,0,-1,2022,484,0,0
805,540,0,0,0,0,0,0,0,0,0,-1,2029,484,0,0
812,540,0,0,0,0,0,0,0,0,0,-1,2036,484,0,0
-700,533,0,0,0,0,0,0,0,0,0,-1,524,491,0,0
-693,533,0,0,0,0,0,0,0,0,0,-1,531,491,0,0
-686,533,0,0,0,0,0,0,0,0,0,-1,538,491,0,0
-679,533,0,0,0,0,0,0,0,0,0,-1,545,491,0,0
-672,533,0,0,0,0,0,0,0,0,0,-1,552,491,0,0
-665,533,0,0,0,0,0,0,0,0,0,-1,559,491,0,0
-658,533,0,0,0,0,0,0,0,0,0,-1,566,491,0,0
-651,533,0,0,0,0,0,0,0,0,0,-1,573,491,0,0
-644,533,0,0,0,0,0,0,0,0,0,-1,580,491,0,0
-637,533,0,0,0,0,0,0,0,0,0,-1,587,491,0,0
-630,533,0,0,0,0,0,0,0,0,0,-1,594,491,0,0
-623,533,0,0,0,0,0,0,0,0,0,-1,601,491,0,0
-616,533,0,0,0,0,0,0,0,0,0,-1,608,491,0,0
-609,533,0,0,0,0,0,0,0,0,0,-1,615,491,0,0
-602,533,0,0,0,0,0,0,0,0,0,-1,622,491,0,0
-595,533,0,0,0,0,0,0,0,0,0,-1,629,491,0,0
-588,533,0,0,0,0,0,0,0,0,0,-1,636,491,0,0
-581,533,0,0,0,0,0,0,0,0,0,-1,643,491,0,0
-574,533,0,0,0,0,0,0,0,0,0,-1,650,491,0,0
-567,533,0,0,0,0,0,0,0,0,0,-1,657,491,0,0
-560,533,0,0,0,0,0,0,0,0,0,-1,664,491,0,0
-553,533,0,0,0,0,0,0,0,0,0,-1,671,491,0,0
-546,533,0,0,0,0,0,0,0,0,0,-1,678,491,0,0
-539,533,0,0,0,0,0,0,0,0,0,-1,685,491,0,0
-532,533,0,0,0,0,0,0,0,0,0,-1,692,491,0,0
-525,533,0,0,0,0,0,0,0,0,0,-1,699,491,0,0
-518,533,0,0,0,0,0,0,0,0,0,-1,706,491,0,0
-511,533,0,0,0,0,0,0,0,0,0,-1,713,491,0,0
-504,533,0,0,0,0,0,0,0,0,0,-1,720,491,0,0
-497,533,0,0,0,0,0,0,0,0,0,-1,727,491,0,0
-490,533,0,0,0,0,0,0,0,0,0,-1,734,491,0,0
-483,533,0,0,0,0,0,0,0,0,0,-1,741,491,0,0
-476,533,0,0,0,0,0,0,0,0,0,-1,748,491,0,0
-469,533,0,0,0,0,0,0,0,0,0,-1,755,491,0,0
-462,533,0,0,0,0,0,0,0,0,0,-1,762,491,0,0
-455,533,0,0,0,0,0,0,0,0,0,-1,769,491,0,0
-448,533,0,0,0,0,0,0,0,0,0,-1,776,491,0,0
-441,533,0,0,0,0,0,0,0,0,0,-1,783,491,0,0
-434,533,0,0,0,0,0,0,0,0,0,-1,790,491,0,0
-427,533,0.559814,-4.40222,0,0,0,0,0,0,0,-1,797,491,0.559816,4.40222
-420,533,-1.11127,-10.9054,0,0,0,0,0,0,0,-1,804,491,-1.11124,10.9054
-413,533,-0.704773,-11.0942,0,0,0,0,0,0,0,-1,811,491,-0.704742,11.0942
-406,533,-0.670898,-12.0899,0,0,0,0,0,0,0,-1,818,491,-0.670908,12.0899
-399,533,-0.455017,-12.4423,0,0,0,0,0,0,0,-1,825,491,-0.455032,12.4423
-392,533,-1.89661,-10.3905,0,0,0,0,0,0,0,-1,832,491,-1.89661,10.3905
-385,533,0.797729,-17.0485,0,0,0,0,0,0,0,-1,839,491,0.797746,17.0485
-378,533,-1.89435,-19.6771,0,0,0,0,0,0,0,-1,846,491,-1.89433,19.6771
-371,533,-1.10254,-31.3197,0,0,0,0,0,0,0,-1,853,491,-1.10254,31.3197
-364,533,-10.0352,-87.407,0,0,0,0,0,0,0,-1,860,491,-10.0352,87.407
-357,533,-10.788,-90.0533,-0.00248038,0.0262657,-0.00996483,0.0293822,-0.00559682,-1.26769,0.0216957,0.0473926,867,491,-10.788,90.0534
-350,533,-11.5483,-92.7138,-0.00255603,0.0211384,-0.0081893,0.0236933,-0.00511094,-1.26838,0.0177462,0.0302238,874,491,-11.5483,92.7138
-343,533,-12.0598,-95.6978,0,0,0,0,0,0,0,-1,881,491,-12.0598,95.6978
-336,533,-12.7333,-98.4078,-0.00159723,0.0133459,-0.00572154,0.015285,-0.00353631,-1.24404,0.0115507,0.0248747,888,491,-12.7334,98.4078
-329,533,-13.2502,-101.035,-0.000798579,0.0103258,-0.00479497,0.0121073,-0.00258008,-1.21507,0.0090549,0.0181368,895,491,-13.2503,101.035
-322,533,-13.7539,-103.691,2.65856e-05,0.00763045,-0.00391843,0.00928826,-0.00163122,-1.17055,0.00680143,0.0143676,902,491,-13.7539,103.691
-315,533,-14.275,-106.352,0.000752895,0.00518281,-0.00297274,0.00667504,-0.000739332,-1.10557,0.00471583,0.0160079,909,491,-14.275,106.352
-308,533,-14.7445,-108.983,0.00147583,0.00309557,-0.00200125,0.00444461,0.000126788,-0.977666,0.00292173,0.0159341,916,491,-14.7445,108.983
-301,533,-15.28,-111.565,0.00224311,0.00111804,-0.00112413,0.0029376,0.000423551,-0.553409,0.0018336,0.0172489,923,491,-15.28,111.565
-294,533,-15.7758,-114.213,0.00298827,-0.000742909,-0.000131258,0.00299288,-0.000747521,-0.0351209,0.00228554,0.0155095,930,491,-15.7758,114.213
-287,533,-16.2052,-116.829,0.00359571,-0.00252,0.00093212,0.00373462,-0.00265892,0.14794,0.00370868,0.0116116,937,491,-16.2052,116.829
-280,533,-16.6624,-119.41,0.00414561,-0.00419867,0.00207928,0.00463503,-0.00468809,0.231172,0.00538273,0.010578,944,491,-16.6624,119.41
-273,533,-17.0976,-121.978,0.00483372,-0.00583119,0.0032198,0.00573041,-0.00672787,0.271609,0.00720047,0.0152522,951,491,-17.0976,121.978
-266,533,-17.5122,-124.53,0.00585985,-0.00752846,0.00424922,0.0070946,-0.00876321,0.282796,0.00917239,0.0166081,958,491,-17.5122,124.53
-259,533,-17.9308,-127.07,0.00715588,-0.008875,0.00509874,0.00864015,-0.0103593,0.283276,0.0109843,0.0208985,965,491,-17.9308,127.07
-252,533,-18.3041,-129.502,0,0,0,0,0,0,0,-1,972,491,-18.3041,129.502
-245,533,-18.7877,-131.888,0,0,0,0,0,0,0,-1,979,491,-18.7877,131.888
-238,533,-19.2241,-134.454,0,0,0,0,0,0,0,-1,986,491,-19.2241,134.454
-231,533,-17.5344,-129.234,0,0,0,0,0,0,0,-1,993,491,-17.5344,129.234
-224,533,-5.08032,-67.3872,0,0,0,0,0,0,0,-1,1000,491,-5.08035,67.3872
-217,533,-3.58942,-61.3351,0,0,0,0,0,0,0,-1,1007,491,-3.58944,61.3351
-210,533,-2.8175,-58.3744,0,0,0,0,0,0,0,-1,1014,491,-2.81753,58.3744
-203,533,-2.78027,-57.4929,0,0,0,0,0,0,0,-1,1021,491,-2.78027,57.4928
-196,533,-2.47253,-52.2668,0,0,0,0,0,0,0,-1,1028,491,-2.47251,52.2669
-189,533,-1.75317,-43.4744,0,0,0,0,0,0,0,-1,1035,491,-1.75312,43.4744
-182,533,1.26123,-11.4969,0,0,0,0,0,0,0,-1,1042,491,1.26128,11.4969
-175,533,0.937744,-7.36966,0,0,0,0,0,0,0,-1,1049,491,0.937769,7.36965
-168,533,2.64807,-2.7543,0,0,0,0,0,0,0,-1,1056,491,2.64812,2.7543
-161,533,1.91833,-1.76553,0,0,0,0,0,0,0,-1,1063,491,1.91836,1.76554
-154,533,0.376709,-11.0633,0,0,0,0,0,0,0,-1,1070,491,0.376715,11.0632
-147,533,0.383789,-12.1586,0,0,0,0,0,0,0,-1,1077,491,0.383829,12.1586
-140,533,1.14001,-15.4608,0,0,0,0,0,0,0,-1,1084,491,1.14005,15.4608
-133,533,0.189941,-16.0795,0,0,0,0,0,0,0,-1,1091,491,0.18994,16.0795
-126,533,2.89612,-2.59003,0,0,0,0,0,0,0,-1,1098,491,2.89608,2.59003
-119,533,1.78284,-22.5394,0,0,0,0,0,0,0,-1,1105,491,1.78279,22.5394
-112,533,1.83862,-21.2401,0,0,0,0,0,0,0,-1,1112,491,1.83859,21.24
-105,533,1.67554,-19.4018,0,0,0,0,0,0,0,-1,1119,491,1.6755,19.4018
-98,533,-1.39392,-5.16367,0,0,0,0,0,0,0,-1,1126,491,-1.39394,5.16367
-91,533,0.367432,4.49753,0,0,0,0,0,0,0,-1,1133,491,0.367468,-4.49754
-84,533,-0.88623,3.03604,0,0,0,0,0,0,0,-1,1140,491,-0.886288,-3.03605
-77,533,0,0,0,0,0,0,0,0,0,-1,1147,491,0,0
-70,533,0,0,0,0,0,0,0,0,0,-1,1154,491,0,0
-63,533,0,0,0,0,0,0,0,0,0,-1,1161,491,0,0
-56,533,0,0,0,0,0,0,0,0,0,-1,1168,491,0,0
-49,533,0,0,0,0,0,0,0,0,0,-1,1175,491,0,0
-42,533,0,0,0,0,0,0,0,0,0,-1,1182,491,0,0
-35,533,0,0,0,0,0,0,0,0,0,-1,1189,491,0,0
-28,533,0,0,0,0,0,0,0,0,0,-1,1196,491,0,0
-21,533,0,0,0,0,0,0,0,0,0,-1,1203,491,0,0
-14,533,0,0,0,0,0,0,0,0,0,-1,1210,491,0,0
-7,533,0,0,0,0,0,0,0,0,0,-1,1217,491,0,0
0,533,0,0,0,0,0,0,0,0,0,-1,1224,491,0,0
7,533,0,0,0,0,0,0,0,0,0,-1,1231,491,0,0
14,533,0,0,0,0,0,0,0,0,0,-1,1238,491,0,0
21,533,0,0,0,0,0,0,0,0,0,-1,1245,491,0,0
28,533,0,0,0,0,0,0,0,0,0,-1,1252,491,0,0
35,533,0,0,0,0,0,0,0,0,0,-1,1259,491,0,0
42,533,0,0,0,0,0,0,0,0,0,-1,1266,491,0,0
49,533,0,0,0,0,0,0,0,0,0,-1,1273,491,0,0
56,533,0,0,0,0,0,0,0,0,0,-1,1280,491,0,0
63,533,0,0,0,0,0,0,0,0,0,-1,1287,491,0,0
70,533,0,0,0,0,0,0,0,0,0,-1,1294,491,0,0
77,533,0,0,0,0,0,0,0,0,0,-1,1301,491,0,0
84,533,0,0,0,0,0,0,0,0,0,-1,1308,491,0,0
91,533,0,0,0,0,0,0,0,0,0,-1,1315,491,0,0
98,533,0,0,0,0,0,0,0,0,0,-1,1322,491,0,0
105,533,0,0,0,0,0,0,0,0,0,-1,1329,491,0,0
112,533,0,0,0,0,0,0,0,0,0,-1,1336,491,0,0
119,533,0,0,0,0,0,0,0,0,0,-1,1343,491,0,0
126,533,0,0,0,0,0,0,0,0,0,-1,1350,491,0,0
133,533,0,0,0,0,0,0,0,0,0,-1,1357,491,0,0
140,533,0,0,0,0,0,0,0,0,0,-1,1364,491,0,0
147,533,0,0,0,0,0,0,0,0,0,-1,1371,491,0,0
154,533,0,0,0,0,0,0,0,0,0,-1,1378,491,0,0
161,533,0,0,0,0,0,0,0,0,0,-1,1385,491,0,0
168,533,0,0,0,0,0,0,0,0,0,-1,1392,491,0,0
175,533,0,0,0,0,0,0,0,0,0,-1,1399,491,0,0
182,533,0,0,0,0,0,0,0,0,0,-1,1406,491,0,0
189,533,0,0,0,0,0,0,0,0,0,-1,1413,491,0,0
196,533,0,0,0,0,0,0,0,0,0,-1,1420,491,0,0
203,533,3.7887,1.16193,0,0,0,0,0,0,0,-1,1427,491,3.78872,-1.16193
210,533,5.09558,-0.216034,0,0,0,0,0,0,0,-1,1434,491,5.09559,0.216028
217,533,6.91614,-2.46814,0,0,0,0,0,0,0,-1,1441,491,6.91618,2.46814
224,533,7.23621,-2.1857,0,0,0,0,0,0,0,-1,1448,491,7.23621,2.1857
231,533,7.23474,-1.92282,0,0,0,0,0,0,0,-1,1455,491,7.2347,1.92282
238,533,7.23535,-1.67258,0,0,0,0,0,0,0,-1,1462,491,7.23539,1.67258
245,533,6.86682,-1.2301,0,0,0,0,0,0,0,-1,1469,491,6.86686,1.23011
252,533,6.63354,-3.07825,0,0,0,0,0,0,0,-1,1476,491,6.6335,3.07824
259,533,6.16431,-2.35037,0,0,0,0,0,0,0,-1,1483,491,6.1643,2.35037
266,533,5.68884,-1.6214,0,0,0,0,0,0,0,-1,1490,491,5.68885,1.6214
273,533,5.21399,-0.864227,0,0,0,0,0,0,0,-1,1497,491,5.21403,0.864227
280,533,1.41089,-1.97946,0,0,0,0,0,0,0,-1,1504,491,1.41087,1.97946
287,533,1.6814,-2.44443,0,0,0,0,0,0,0,-1,1511,491,1.6814,2.44444
294,533,2.2384,-2.57626,0,0,0,0,0,0,0,-1,1518,491,2.23839,2.57625
301,533,3.39941,-4.0817,0,0,0,0,0,0,0,-1,1525,491,3.3994,4.08171
308,533,4.13733,-4.14752,0,0,0,0,0,0,0,-1,1532,491,4.13727,4.14752
315,533,4.80762,-5.29349,0,0,0,0,0,0,0,-1,1539,491,4.80762,5.29347
322,533,5.47803,-6.43942,0,0,0,0,0,0,0,-1,1546,491,5.47798,6.43943
329,533,3.88477,-3.86301,0,0,0,0,0,0,0,-1,1553,491,3.88475,3.86299
336,533,14.5214,-40.908,0,0,0,0,0,0,0,-1,1560,491,14.5214,40.908
343,533,16.3387,-44.9998,0,0,0,0,0,0,0,-1,1567,491,16.3387,44.9998
350,533,17.6749,-47.6289,0,0,0,0,0,0,0,-1,1574,491,17.6749,47.6289
357,533,20.983,-56.1171,0,0,0,0,0,0,0,-1,1581,491,20.983,56.1171
364,533,25.2891,-83.5117,0,0,0,0,0,0,0,-1,1588,491,25.289,83.5117
371,533,27.5264,-99.8054,0,0,0,0,0,0,0,-1,1595,491,27.5263,99.8054
378,533,29.4216,-130.873,0,0,0,0,0,0,0,-1,1602,491,29.4216,130.873
385,533,28.9606,-128.332,0,0,0,0,0,0,0,-1,1609,491,28.9605,128.332
392,533,28.4727,-125.844,0.00565538,0.000124451,-0.0025793,0.00667152,-0.000891697,-0.375291,0.00477276,0.0288592,1616,491,28.4726,125.844
399,533,28.0928,-123.324,0.00481158,0.000771343,-0.00174587,0.00546147,0.000121455,-0.356352,0.00360118,0.0188857,1623,491,28.0928,123.324
406,533,27.7335,-120.705,0.00411019,0.00162224,-0.000793081,0.00434149,0.00139093,-0.283782,0.00255991,0.0215302,1630,491,27.7336,120.705
413,533,27.2297,-118.122,0.00358944,0.00252568,0.000200304,0.00362591,0.00248921,0.180085,0.00214141,0.0217244,1637,491,27.2297,118.122
420,533,26.6768,-115.551,0.00316203,0.00322695,0.00104975,0.00424474,0.00214424,0.800855,0.00245074,0.0207752,1644,491,26.6768,115.551
427,533,26.2343,-112.918,0.00281146,0.0039805,0.0018953,0.00537937,0.00141259,0.934973,0.00322037,0.0188391,1651,491,26.2342,112.918
434,533,25.7688,-110.347,0.00251422,0.00464869,0.00272955,0.00651223,0.000650678,0.971757,0.00414166,0.0169868,1658,491,25.7688,110.347
441,533,25.3091,-107.698,0.00229915,0.00532642,0.00348351,0.00761093,1.46381e-05,0.990349,0.00506908,0.0199512,1665,491,25.3091,107.698
448,533,24.8083,-105.075,0.00213194,0.00596587,0.00419741,0.00866334,-0.000565528,0.999604,0.005973,0.0197619,1672,491,24.8084,105.075
455,533,24.264,-102.468,0.0019754,0.00666278,0.00485788,0.00971278,-0.0010746,1.01015,0.00686149,0.0195666,1679,491,24.264,102.468
462,533,23.7245,-99.7816,0.00186688,0.0074382,0.00551155,0.0108281,-0.00152298,1.01939,0.00777624,0.0188559,1686,491,23.7245,99.7816
469,533,23.2125,-97.1552,0.00171964,0.00859669,0.00626607,0.0123057,-0.00198936,1.03634,0.00894099,0.0128794,1693,491,23.2125,97.1551
476,533,22.7352,-94.3992,0.00166319,0.00961957,0.00710205,0.0137817,-0.00249896,1.0407,0.0101241,0.0293536,1700,491,22.7353,94.3992
483,533,22.2783,-91.4749,0,0,0,0,0,0,0,-1,1707,491,22.2783,91.4749
490,533,22.6746,-83.02,0,0,0,0,0,0,0,-1,1714,491,22.6745,83.02
497,533,20.9993,-43.9825,0,0,0,0,0,0,0,-1,1721,491,20.9992,43.9825
504,533,20.9569,-42.8138,0,0,0,0,0,0,0,-1,1728,491,20.9569,42.8139
511,533,13.6221,-19.2798,0,0,0,0,0,0,0,-1,1735,491,13.6221,19.2798
518,533,14.1954,-19.4995,0,0,0,0,0,0,0,-1,1742,491,14.1955,19.4995
525,533,13.7935,-19.6901,0,0,0,0,0,0,0,-1,1749,491,13.7934,19.6901
532,533,15.4377,-17.9016,0,0,0,0,0,0,0,-1,1756,491,15.4377,17.9015
539,533,12.8733,-18.2556,0,0,0,0,0,0,0,-1,1763,491,12.8733,18.2556
546,533,3.59607,1.65799,0,0,0,0,0,0,0,-1,1770,491,3.59605,-1.658
553,533,0,0,0,0,0,0,0,0,0,-1,1777,491,0,0
560,533,0,0,0,0,0,0,0,0,0,-1,1784,491,0,0
567,533,0,0,0,0,0,0,0,0,0,-1,1791,491,0,0
574,533,0,0,0,0,0,0,0,0,0,-1,1798,491,0,0
581,533,0,0,0,0,0,0,0,0,0,-1,1805,491,0,0
588,533,0,0,0,0,0,0,0,0,0,-1,1812,491,0,0
595,533,0,0,0,0,0,0,0,0,0,-1,1819,491,0,0
602,533,0,0,0,0,0,0,0,0,0,-1,1826,491,0,0
609,533,0,0,0,0,0,0,0,0,0,-1,1833,491,0,0
616,533,0,0,0,0,0,0,0,0,0,-1,1840,491,0,0
623,533,0,0,0,0,0,0,0,0,0,-1,1847,491,0,0
630,533,0,0,0,0,0,0,0,0,0,-1,1854,491,0,0
637,533,0,0,0,0,0,0,0,0,0,-1,1861,491,0,0
644,533,0,0,0,0,0,0,0,0,0,-1,1868,491,0,0
651,533,0,0,0,0,0,0,0,0,0,-1,1875,491,0,0
658,533,0,0,0,0,0,0,0,0,0,-1,1882,491,0,0
665,533,0,0,0,0,0,0,0,0,0,-1,1889,491,0,0
672,533,0,0,0,0,0,0,0,0,0,-1,1896,491,0,0
679,533,0,0,0,0,0,0,0,0,0,-1,1903,491,0,0
686,533,0,0,0,0,0,0,0,0,0,-1,1910,491,0,0
693,533,0,0,0,0,0,0,0,0,0,-1,1917,491,0,0
700,533,0,0,0,0,0,0,0,0,0,-1,1924,491,0,0
707,533,0,0,0,0,0,0,0,0,0,-1,1931,491,0,0
714,533,0,0,0,0,0,0,0,0,0,-1,1938,491,0,0
721,533,0,0,0,0,0,0,0,0,0,-1,1945,491,0,0
728,533,0,0,0,0,0,0,0,0,0,-1,1952,491,0,0
735,533,0,0,0,0,0,0,0,0,0,-1,1959,491,0,0
742,533,0,0,0,0,0,0,0,0,0,-1,1966,491,0,0
749,533,0,0,0,0,0,0,0,0,0,-1,1973,491,0,0
756,533,0,0,0,0,0,0,0,0,0,-1,1980,491,0,0
763,533,0,0,0,0,0,0,0,0,0,-1,1987,491,0,0
770,533,0,0,0,0,0,0,0,0,0,-1,1994,491,0,0
777,533,0,0,0,0,0,0,0,0,0,-1,2001,491,0,0
784,533,0,0,0,0,0,0,0,0,0,-1,2008,491,0,0
791,533,0,0,0,0,0,0,0,0,0,-1,2015,491,0,0
798,533,0,0,0,0,0,0,0,0,0,-1,2022,491,0,0
805,533,0,0,0,0,0,0,0,0,0,-1,2029,491,0,0
812,533,0,0,0,0,0,0,0,0,0,-1,2036,491,0,0
-700,526,0,0,0,0,0,0,0,0,0,-1,524,498,0,0
-693,526,0,0,0,0,0,0,0,0,0,-1,531,498,0,0
-686,526,0,0,0,0,0,0,0,0,0,-1,538,498,0,0
-679,526,0,0,0,0,0,0,0,0,0,-1,545,498,0,0
-672,526,0,0,0,0,0,0,0,0,0,-1,552,498,0,0
-665,526,0,0,0,0,0,0,0,0,0,-1,559,498,0,0
-658,526,0,0,0,0,0,0,0,0,0,-1,566,498,0,0
-651,526,0,0,0,0,0,0,0,0,0,-1,573,498,0,0
-644,526,0,0,0,0,0,0,0,0,0,-1,580,498,0,0
-637,526,0,0,0,0,0,0,0,0,0,-1,587,498,0,0
-630,526,0,0,0,0,0,0,0,0,0,-1,594,498,0,0
-623,526,0,0,0,0,0,0,0,0,0,-1,601,498,0,0
-616,526,0,0,0,0,0,0,0,0,0,-1,608,498,0,0
-609,526,0,0,0,0,0,0,0,0,0,-1,615,498,0,0
-602,526,0,0,0,0,0,0,0,0,0,-1,622,498,0,0
-595,526,0,0,0,0,0,0,0,0,0,-1,629,498,0,0
-588,526,0,0,0,0,0,0,0,0,0,-1,636,498,0,0
-581,526,0,0,0,0,0,0,0,0,0,-1,643,498,0,0
-574,526,0,0,0,0,0,0,0,0,0,-1,650,498,0,0
-567,526,0,0,0,0,0,0,0,0,0,-1,657,498,0,0
-560,526,0,0,0,0,0,0,0,0,0,-1,664,498,0,0
-553,526,0,0,0,0,0,0,0,0,0,-1,671,498,0,0
-546,526,0,0,0,0,0,0,0,0,0,-1,678,498,0,0
-539,526,0,0,0,0,0,0,0,0,0,-1,685,498,0,0
-532,526,0,0,0,0,0,0,0,0,0,-1,692,498,0,0
-525,526,0,0,0,0,0,0,0,0,0,-1,699,498,0,0
-518,526,0,0,0,0,0,0,0,0,0,-1,706,498,0,0
-511,526,0,0,0,0,0,0,0,0,0,-1,713,498,0,0
-504,526,0,0,0,0,0,0,0,0,0,-1,720,498,0,0
-497,526,0,0,0,0,0,0,0,0,0,-1,727,498,0,0
-490,526,0,0,0,0,0,0,0,0,0,-1,734,498,0,0
-483,526,0,0,0,0,0,0,0,0,0,-1,741,498,0,0
-476,526,0,0,0,0,0,0,0,0,0,-1,748,498,0,0
-469,526,0,0,0,0,0,0,0,0,0,-1,755,498,0,0
-462,526,0,0,0,0,0,0,0,0,0,-1,762,498,0,0
-455,526,0,0,0,0,0,0,0,0,0,-1,769,498,0,0
-448,526,0,0,0,0,0,0,0,0,0,-1,776,498,0,0
-441,526,0,0,0,0,0,0,0,0,0,-1,783,498,0,0
-434,526,-0.153564,-5.96649,0,0,0,0,0,0,0,-1,790,498,-0.153589,5.9665
-427,526,1.23206,-4.59808,0,0,0,0,0,0,0,-1,797,498,1.23208,4.59809
-420,526,-1.76373,-11.6241,0,0,0,0,0,0,0,-1,804,498,-1.76373,11.6241
-413,526,-1.38965,-11.7916,0,0,0,0,0,0,0,-1,811,498,-1.38963,11.7916
-406,526,-1.35187,-12.5182,0,0,0,0,0,0,0,-1,818,498,-1.35185,12.5181
-399,526,-1.32715,-13.2116,0,0,0,0,0,0,0,-1,825,498,-1.32713,13.2116
-392,526,0.197571,-15.303,0,0,0,0,0,0,0,-1,832,498,0.197598,15.303
-385,526,-2.69397,-19.6176,0,0,0,0,0,0,0,-1,839,498,-2.69399,19.6176
-378,526,-2.67041,-33.2585,0,0,0,0,0,0,0,-1,846,498,-2.67042,33.2585
-371,526,-12.8555,-82.679,0,0,0,0,0,0,0,-1,853,498,-12.8555,82.6789
-364,526,-13.2661,-86.595,0,0,0,0,0,0,0,-1,860,498,-13.2661,86.595
-357,526,-13.7667,-89.6668,-0.000543102,0.0204436,-0.00852139,0.0234678,-0.00356731,-1.22977,0.0169598,0.0329936,867,498,-13.7667,89.6668
-350,526,-14.1887,-92.5095,-0.000710831,0.0161554,-0.00679749,0.0185538,-0.00310931,-1.23159,0.0135253,0.0225957,874,498,-14.1887,92.5095
-343,526,-14.7827,-95.1682,-0.000535534,0.0125821,-0.00544961,0.0145506,-0.00250411,-1.22415,0.0106339,0.0239987,881,498,-14.7827,95.1682
-336,526,-15.3195,-97.8332,-0.000167681,0.00927289,-0.00425542,0.0109079,-0.00180269,-1.20397,0.00794133,0.0224733,888,498,-15.3195,97.8332
-329,526,-15.8317,-100.49,0.000344569,0.00649005,-0.00318489,0.00784284,-0.00100821,-1.16914,0.00559499,0.0211933,895,498,-15.8317,100.49
-322,526,-16.3413,-103.141,0.000972463,0.00400825,-0.0022123,0.00517332,-0.000192607,-1.08607,0.00351484,0.0152977,902,498,-16.3413,103.141
-315,526,-16.8577,-105.828,0.00155771,0.00179754,-0.00120595,0.00288952,0.000465719,-0.834953,0.0017914,0.014918,909,498,-16.8577,105.828
-308,526,-17.3668,-108.509,0.00218603,-5.05586e-05,-0.000204995,0.00220466,-6.91924e-05,-0.0906488,0.00149337,0.0131515,916,498,-17.3668,108.509
-301,526,-17.8918,-111.104,0.00288456,-0.00173484,0.000710315,0.00299132,-0.00184159,0.149178,0.00281648,0.0134269,923,498,-17.8918,111.104
-294,526,-18.3415,-113.705,0.00356431,-0.00329013,0.00165877,0.00394463,-0.00367045,0.225383,0.00439752,0.0126111,930,498,-18.3415,113.705
-287,526,-18.7974,-116.295,0.00414725,-0.00483008,0.0026825,0.00488772,-0.00557056,0.269333,0.00604238,0.0123807,937,498,-18.7974,116.295
-280,526,-19.2894,-118.861,0.00466072,-0.00611506,0.00376627,0.00584657,-0.00730092,0.305035,0.00760617,0.0156512,944,498,-19.2895,118.861
-273,526,-19.6351,-121.457,0.00539355,-0.00727693,0.00469824,0.00694556,-0.00882894,0.319053,0.00912902,0.0179429,951,498,-19.6351,121.457
-266,526,-20.0955,-124.025,0.00661959,-0.00855334,0.00547068,0.00838635,-0.0103201,0.312377,0.0108194,0.0298008,958,498,-20.0954,124.025
-259,526,-20.5897,-126.639,0,0,0,0,0,0,0,-1,965,498,-20.5896,126.639
-252,526,-20.0807,-125.473,0,0,0,0,0,0,0,-1,972,498,-20.0808,125.473
-245,526,-12.1247,-91.3829,0,0,0,0,0,0,0,-1,979,498,-12.1247,91.3829
-238,526,-5.37366,-62.8764,0,0,0,0,0,0,0,-1,986,498,-5.37368,62.8764
-231,526,-3.13611,-55.2932,0,0,0,0,0,0,0,-1,993,498,-3.13609,55.2932
-224,526,-2.755,-53.1861,0,0,0,0,0,0,0,-1,1000,498,-2.75499,53.1861
-217,526,-2.39459,-50.3551,0,0,0,0,0,0,0,-1,1007,498,-2.39458,50.3551
-210,526,-1.77289,-44.7313,0,0,0,0,0,0,0,-1,1014,498,-1.77289,44.7313
-203,526,-0.659302,-18.8818,0,0,0,0,0,0,0,-1,1021,498,-0.659273,18.8818
-196,526,-0.328247,-12.179,0,0,0,0,0,0,0,-1,1028,498,-0.328238,12.179
-189,526,0.401245,-5.96826,0,0,0,0,0,0,0,-1,1035,498,0.401197,5.96826
-182,526,1.7323,-2.99405,0,0,0,0,0,0,0,-1,1042,498,1.73226,2.99404
-175,526,2.27637,-2.07983,0,0,0,0,0,0,0,-1,1049,498,2.27639,2.07984
-168,526,2.12036,-1.66049,0,0,0,0,0,0,0,-1,1056,498,2.12035,1.66048
-161,526,2.09082,-1.20572,0,0,0,0,0,0,0,-1,1063,498,2.09086,1.2057
-154,526,-1.3446,-5.37799,0,0,0,0,0,0,0,-1,1070,498,-1.34457,5.37799
-147,526,-0.472656,-6.64996,0,0,0,0,0,0,0,-1,1077,498,-0.472659,6.64997
-140,526,0.422852,-8.03339,0,0,0,0,0,0,0,-1,1084,498,0.422844,8.0334
-133,526,1.09583,-9.2215,0,0,0,0,0,0,0,-1,1091,498,1.09581,9.2215
-126,526,3.42529,-2.36053,0,0,0,0,0,0,0,-1,1098,498,3.42523,2.36052
-119,526,2.7771,-0.764099,0,0,0,0,0,0,0,-1,1105,498,2.7771,0.764107
-112,526,2.57715,-1.1893,0,0,0,0,0,0,0,-1,1112,498,2.57718,1.1893
-105,526,0,0,0,0,0,0,0,0,0,-1,1119,498,0,0
-98,526,0,0,0,0,0,0,0,0,0,-1,1126,498,0,0
-91,526,0,0,0,0,0,0,0,0,0,-1,1133,498,0,0
-84,526,0,0,0,0,0,0,0,0,0,-1,1140,498,0,0
-77,526,0,0,0,0,0,0,0,0,0,-1,1147,498,0,0
-70,526,0,0,0,0,0,0,0,0,0,-1,1154,498,0,0
-63,526,0,0,0,0,0,0,0,0,0,-1,1161,498,0,0
-56,526,0,0,0,0,0,0,0,0,0,-1,1168,498,0,0
-49,526,0,0,0,0,0,0,0,0,0,-1,1175,498,0,0
-42,526,0,0,0,0,0,0,0,0,0,-1,1182,498,0,0
-35,526,0,0,0,0,0,0,0,0,0,-1,1189,498,0,0
-28,526,0,0,0,0,0,0,0,0,0,-1,1196,498,0,0
-21,526,0,0,0,0,0,0,0,0,0,-1,1203,498,0,0
-14,526,0,0,0,0,0,0,0,0,0,-1,1210,498,0,0
-7,526,0,0,0,0,0,0,0,0,0,-1,1217,498,0,0
0,526,0,0,0,0,0,0,0,0,0,-1,1224,498,0,0
7,526,0,0,0,0,0,0,0,0,0,-1,1231,498,0,0
14,526,0,0,0,0,0,0,0,0,0,-1,1238,498,0,0
21,526,0,0,0,0,0,0,0,0,0,-1,1245,498,0,0
28,526,0,0,0,0,0,0,0,0,0,-1,1252,498,0,0
35,526,0,0,0,0,0,0,0,0,0,-1,1259,498,0,0
42,526,0,0,0,0,0,0,0,0,0,-1,1266,498,0,0
49,526,0,0,0,0,0,0,0,0,0,-1,1273,498,0,0
56,526,0,0,0,0,0,0,0,0,0,-1,1280,498,0,0
63,526,0,0,0,0,0,0,0,0,0,-1,1287,498,0,0
70,526,0,0,0,0,0,0,0,0,0,-1,1294,498,0,0
77,526,0,0,0,0,0,0,0,0,0,-1,1301,498,0,0
84,526,0,0,0,0,0,0,0,0,0,-1,1308,498,0,0
91,526,0,0,0,0,0,0,0,0,0,-1,1315,498,0,0
98,526,0,0,0,0,0,0,0,0,0,-1,1322,498,0,0
105,526,0,0,0,0,0,0,0,0,0,-1,1329,498,0,0
112,526,0,0,0,0,0,0,0,0,0,-1,1336,498,0,0
119,526,0,0,0,0,0,0,0,0,0,-1,1343,498,0,0
126,526,0,0,0,0,0,0,0,0,0,-1,1350,498,0,0
133,526,0,0,0,0,0,0,0,0,0,-1,1357,498,0,0
140,526,0,0,0,0,0,0,0,0,0,-1,1364,498,0,0
147,526,0,0,0,0,0,0,0,0,0,-1,1371,498,0,0
154,526,0,0,0,0,0,0,0,0,0,-1,1378,498,0,0
161,526,0,0,0,0,0,0,0,0,0,-1,1385,498,0,0
168,526,0,0,0,0,0,0,0,0,0,-1,1392,498,0,0
175,526,0,0,0,0,0,0,0,0,0,-1,1399,498,0,0
182,526,0,0,0,0,0,0,0,0,0,-1,1406,498,0,0
189,526,0,0,0,0,0,0,0,0,0,-1,1413,498,0,0
196,526,0,0,0,0,0,0,0,0,0,-1,1420,498,0,0
203,526,0,0,0,0,0,0,0,0,0,-1,1427,498,0,0
210,526,0,0,0,0,0,0,0,0,0,-1,1434,498,0,0
217,526,0,0,0,0,0,0,0,0,0,-1,1441,498,0,0
224,526,0,0,0,0,0,0,0,0,0,-1,1448,498,0,0
231,526,7.93237,-1.30618,0,0,0,0,0,0,0,-1,1455,498,7.93238,1.30618
238,526,7.97717,-1.08197,0,0,0,0,0,0,0,-1,1462,498,7.97723,1.08196
245,526,7.2793,-0.792938,0,0,0,0,0,0,0,-1,1469,498,7.27931,0.792926
252,526,6.73523,-2.23608,0,0,0,0,0,0,0,-1,1476,498,6.73525,2.23608
259,526,6.22949,-1.84967,0,0,0,0,0,0,0,-1,1483,498,6.22953,1.84968
266,526,5.72375,-1.46329,0,0,0,0,0,0,0,-1,1490,498,5.72381,1.46328
273,526,4.33984,0.49173,0,0,0,0,0,0,0,-1,1497,498,4.33979,-0.491727
280,526,1.4585,-1.59897,0,0,0,0,0,0,0,-1,1504,498,1.45846,1.59895
287,526,1.46411,-2.40134,0,0,0,0,0,0,0,-1,1511,498,1.46406,2.40133
294,526,5.57471,-4.59085,0,0,0,0,0,0,0,-1,1518,498,5.57466,4.59084
301,526,4.42786,-3.99677,0,0,0,0,0,0,0,-1,1525,498,4.42788,3.99676
308,526,5.79529,-4.19366,0,0,0,0,0,0,0,-1,1532,498,5.79528,4.19368
315,526,5.09851,-5.20068,0,0,0,0,0,0,0,-1,1539,498,5.09851,5.20068
322,526,5.50708,-4.72348,0,0,0,0,0,0,0,-1,1546,498,5.50713,4.72347
329,526,3.88672,-4.345,0,0,0,0,0,0,0,-1,1553,498,3.88674,4.34501
336,526,4.97876,-2.23828,0,0,0,0,0,0,0,-1,1560,498,4.97877,2.23828
343,526,3.31665,-2.69696,0,0,0,0,0,0,0,-1,1567,498,3.31667,2.69696
350,526,6.06287,-6.12015,0,0,0,0,0,0,0,-1,1574,498,6.06286,6.12014
357,526,18.325,-47.38,0,0,0,0,0,0,0,-1,1581,498,18.325,47.38
364,526,21.9415,-54.9628,0,0,0,0,0,0,0,-1,1588,498,21.9416,54.9628
371,526,21.4055,-54.6006,0,0,0,0,0,0,0,-1,1595,498,21.4055,54.6007
378,526,24.0167,-70.1567,0,0,0,0,0,0,0,-1,1602,498,24.0167,70.1567
385,526,26.2645,-77.2075,0,0,0,0,0,0,0,-1,1609,498,26.2645,77.2074
392,526,31.0037,-125.464,0,0,0,0,0,0,0,-1,1616,498,31.0037,125.464
399,526,30.7411,-122.835,0,0,0,0,0,0,0,-1,1623,498,30.7411,122.835
406,526,30.2749,-120.258,0.00412395,0.0020491,-0.00156625,0.00496519,0.00120786,-0.49289,0.00298996,0.0199506,1630,498,30.2749,120.258
413,526,29.8025,-117.681,0.00366558,0.00242641,-0.000683936,0.00396885,0.00212315,-0.417364,0.00229328,0.0161705,1637,498,29.8025,117.681
420,526,29.2684,-115.079,0.00327209,0.00267794,7.0482e-05,0.00328033,0.0026697,0.116474,0.00201443,0.0190468,1644,498,29.2684,115.079
427,526,28.8303,-112.46,0.00291452,0.0030545,0.000827999,0.00381546,0.00215356,0.82756,0.00220895,0.0182515,1651,498,28.8303,112.46
434,526,28.3687,-109.868,0.00262988,0.00342844,0.00157299,0.00465204,0.00140628,0.909691,0.00275496,0.0148144,1658,498,28.3686,109.868
441,526,27.8588,-107.224,0.00244082,0.00389451,0.00225706,0.00553887,0.00079645,0.94117,0.00345781,0.0140711,1665,498,27.8588,107.224
448,526,27.3892,-104.594,0.00227685,0.00438398,0.00293308,0.00644697,0.000213853,0.957822,0.0042285,0.0128742,1672,498,27.3892,104.594
455,526,26.8662,-101.924,0.00210287,0.0049707,0.00358504,0.00739795,-0.000324388,0.975639,0.00504358,0.0169037,1679,498,26.8663,101.924
462,526,26.386,-99.3111,0.00199445,0.00565448,0.00421602,0.00842052,-0.000771596,0.990159,0.00588776,0.0137552,1686,498,26.3859,99.3111
469,526,25.9111,-96.6907,0.00192333,0.00658423,0.00492213,0.00969973,-0.00119217,1.0065,0.0068983,0.0108185,1693,498,25.9112,96.6907
476,526,25.3976,-94.0112,0.00185755,0.0075495,0.00574562,0.0111154,-0.00170832,1.01535,0.0080404,0.0132618,1700,498,25.3976,94.0112
483,526,24.8794,-91.2288,0.00176142,0.0086509,0.00663957,0.0126861,-0.00227382,1.02469,0.0093084,0.026903,1707,498,24.8794,91.2288
490,526,24.2476,-88.6038,0,0,0,0,0,0,0,-1,1714,498,24.2475,88.6038
497,526,25.0912,-69.6101,0,0,0,0,0,0,0,-1,1721,498,25.0911,69.6101
504,526,22.2432,-43.0208,0,0,0,0,0,0,0,-1,1728,498,22.2432,43.0208
511,526,22.3535,-41.4437,0,0,0,0,0,0,0,-1,1735,498,22.3535,41.4437
518,526,14.7889,-20.4046,0,0,0,0,0,0,0,-1,1742,498,14.7889,20.4046
525,526,14.7009,-19.7487,0,0,0,0,0,0,0,-1,1749,498,14.7009,19.7486
532,526,15.7457,-17.9624,0,0,0,0,0,0,0,-1,1756,498,15.7458,17.9624
539,526,16.1064,-16.42,0,0,0,0,0,0,0,-1,1763,498,16.1065,16.42
546,526,12.4675,-17.1617,0,0,0,0,0,0,0,-1,1770,498,12.4675,17.1617
553,526,3.40796,1.37137,0,0,0,0,0,0,0,-1,1777,498,3.40792,-1.37138
560,526,0,0,0,0,0,0,0,0,0,-1,1784,498,0,0
567,526,0,0,0,0,0,0,0,0,0,-1,1791,498,0,0
574,526,0,0,0,0,0,0,0,0,0,-1,1798,498,0,0
581,526,0,0,0,0,0,0,0,0,0,-1,1805,498,0,0
588,526,0,0,0,0,0,0,0,0,0,-1,1812,498,0,0
595,526,0,0,0,0,0,0,0,0,0,-1,1819,498,0,0
602,526,0,0,0,0,0,0,0,0,0,-1,1826,498,0,0
609,526,0,0,0,0,0,0,0,0,0,-1,1833,498,0,0
616,526,0,0,0,0,0,0,0,0,0,-1,1840,498,0,0
623,526,0,0,0,0,0,0,0,0,0,-1,1847,498,0,0
630,526,0,0,0,0,0,0,0,0,0,-1,1854,498,0,0
637,526,0,0,0,0,0,0,0,0,0,-1,1861,498,0,0
644,526,0,0,0,0,0,0,0,0,0,-1,1868,498,0,0
651,526,0,0,0,0,0,0,0,0,0,-1,1875,498,0,0
658,526,0,0,0,0,0,0,0,0,0,-1,1882,498,0,0
665,526,0,0,0,0,0,0,0,0,0,-1,1889,498,0,0
672,526,0,0,0,0,0,0,0,0,0,-1,1896,498,0,0
679,526,0,0,0,0,0,0,0,0,0,-1,1903,498,0,0
686,526,0,0,0,0,0,0,0,0,0,-1,1910,498,0,0
693,526,0,0,0,0,0,0,0,0,0,-1,1917,498,0,0
700,526,0,0,0,0,0,0,0,0,0,-1,1924,498,0,0
707,526,0,0,0,0,0,0,0,0,0,-1,1931,498,0,0
714,526,0,0,0,0,0,0,0,0,0,-1,1938,498,0,0
721,526,0,0,0,0,0,0,0,0,0,-1,1945,498,0,0
728,526,0,0,0,0,0,0,0,0,0,-1,1952,498,0,0
735,526,0,0,0,0,0,0,0,0,0,-1,1959,498,0,0
742,526,0,0,0,0,0,0,0,0,0,-1,1966,498,0,0
749,526,0,0,0,0,0,0,0,0,0,-1,1973,498,0,0
756,526,0,0,0,0,0,0,0,0,0,-1,1980,498,0,0
763,526,0,0,0,0,0,0,0,0,0,-1,1987,498,0,0
770,526,0,0,0,0,0,0,0,0,0,-1,1994,498,0,0
777,526,0,0,0,0,0,0,0,0,0,-1,2001,498,0,0
784,526,0,0,0,0,0,0,0,0,0,-1,2008,498,0,0
791,526,0,0,0,0,0,0,0,0,0,-1,2015,498,0,0
798,526,0,0,0,0,0,0,0,0,0,-1,2022,498,0,0
805,526,0,0,0,0,0,0,0,0,0,-1,2029,498,0,0
812,526,0,0,0,0,0,0,0,0,0,-1,2036,498,0,0
-700,519,0,0,0,0,0,0,0,0,0,-1,524,505,0,0
-693,519,0,0,0,0,0,0,0,0,0,-1,531,505,0,0
-686,519,0,0,0,0,0,0,0,0,0,-1,538,505,0,0
-679,519,0,0,0,0,0,0,0,0,0,-1,545,505,0,0
-672,519,0,0,0,0,0,0,0,0,0,-1,552,505,0,0
-665,519,0,0,0,0,0,0,0,0,0,-1,559,505,0,0
-658,519,0,0,0,0,0,0,0,0,0,-1,566,505,0,0
-651,519,0,0,0,0,0,0,0,0,0,-1,573,505,0,0
-644,519,0,0,0,0,0,0,0,0,0,-1,580,505,0,0
-637,519,0,0,0,0,0,0,0,0,0,-1,587,505,0,0
-630,519,0,0,0,0,0,0,0,0,0,-1,594,505,0,0
-623,519,0,0,0,0,0,0,0,0,0,-1,601,505,0,0
-616,519,0,0,0,0,0,0,0,0,0,-1,608,505,0,0
-609,519,0,0,0,0,0,0,0,0,0,-1,615,505,0,0
-602,519,0,0,0,0,0,0,0,0,0,-1,622,505,0,0
-595,519,0,0,0,0,0,0,0,0,0,-1,629,505,0,0
-588,519,0,0,0,0,0,0,0,0,0,-1,636,505,0,0
-581,519,0,0,0,0,0,0,0,0,0,-1,643,505,0,0
-574,519,0,0,0,0,0,0,0,0,0,-1,650,505,0,0
-567,519,0,0,0,0,0,0,0,0,0,-1,657,505,0,0
-560,519,0,0,0,0,0,0,0,0,0,-1,664,505,0,0
-553,519,0,0,0,0,0,0,0,0,0,-1,671,505,0,0
-546,519,0,0,0,0,0,0,0,0,0,-1,678,505,0,0
-539,519,0,0,0,0,0,0,0,0,0,-1,685,505,0,0
-532,519,0,0,0,0,0,0,0,0,0,-1,692,505,0,0
-525,519,0,0,0,0,0,0,0,0,0,-1,699,505,0,0
-518,519,0,0,0,0,0,0,0,0,0,-1,706,505,0,0
-511,519,0,0,0,0,0,0,0,0,0,-1,713,505,0,0
-504,519,0,0,0,0,0,0,0,0,0,-1,720,505,0,0
-497,519,0,0,0,0,0,0,0,0,0,-1,727,505,0,0
-490,519,0,0,0,0,0,0,0,0,0,-1,734,505,0,0
-483,519,0,0,0,0,0,0,0,0,0,-1,741,505,0,0
-476,519,0,0,0,0,0,0,0,0,0,-1,748,505,0,0
-469,519,0,0,0,0,0,0,0,0,0,-1,755,505,0,0
-462,519,0,0,0,0,0,0,0,0,0,-1,762,505,0,0
-455,519,0,0,0,0,0,0,0,0,0,-1,769,505,0,0
-448,519,0,0,0,0,0,0,0,0,0,-1,776,505,0,0
-441,519,1.34839,-5.29346,0,0,0,0,0,0,0,-1,783,505,1.3484,5.29347
-434,519,0.949585,-5.77313,0,0,0,0,0,0,0,-1,790,505,0.949598,5.77315
-427,519,-0.0523682,-9.31567,0,0,0,0,0,0,0,-1,797,505,-0.0523854,9.31568
-420,519,-2.38867,-12.1938,0,0,0,0,0,0,0,-1,804,505,-2.38867,12.1938
-413,519,-2.2298,-12.4998,0,0,0,0,0,0,0,-1,811,505,-2.22979,12.4998
-406,519,-1.44373,-12.3475,0,0,0,0,0,0,0,-1,818,505,-1.44376,12.3475
-399,519,-1.60516,-15.0849,0,0,0,0,0,0,0,-1,825,505,-1.60518,15.0849
-392,519,-1.94183,-24.8959,0,0,0,0,0,0,0,-1,832,505,-1.94183,24.8958
-385,519,-14.3254,-78.0954,0,0,0,0,0,0,0,-1,839,505,-14.3254,78.0954
-378,519,-14.6688,-79.4247,0,0,0,0,0,0,0,-1,846,505,-14.6688,79.4248
-371,519,-15.4977,-83.259,0,0,0,0,0,0,0,-1,853,505,-15.4977,83.259
-364,519,-15.8807,-86.3581,0.00119441,0.0192786,-0.00892458,0.0229411,-0.00246812,-1.18137,0.0161797,0.0330905,860,505,-15.8808,86.3581
-357,519,-16.4114,-89.3452,0.000902459,0.0152884,-0.00706709,0.0181792,-0.00198835,-1.18251,0.0128337,0.019367,867,505,-16.4114,89.3451
-350,519,-16.883,-92.0411,0.000710121,0.0116883,-0.00543736,0.0139254,-0.00152704,-1.18046,0.00983225,0.0205486,874,505,-16.883,92.0411
-343,519,-17.4344,-94.6084,0.000805667,0.00857615,-0.00410891,0.0103458,-0.000964021,-1.16411,0.00723999,0.0235515,881,505,-17.4344,94.6084
-336,519,-17.9877,-97.2217,0.000999849,0.00557816,-0.00286831,0.0069588,-0.000380793,-1.12218,0.0047712,0.0250496,888,505,-17.9877,97.2217
-329,519,-18.4859,-99.9598,0.00134879,0.00306598,-0.00173883,0.00414664,0.000268127,-1.01473,0.00267953,0.0237714,895,505,-18.4859,99.9598
-322,519,-18.9849,-102.612,0.00185129,0.000819696,-0.000721479,0.00222238,0.0004486,-0.475066,0.001357,0.0186208,902,505,-18.9849,102.612
-315,519,-19.4808,-105.307,0.00234169,-0.0011254,0.00029235,0.00236617,-0.00114988,0.0835354,0.00207008,0.0141611,909,505,-19.4808,105.307
-308,519,-20.0077,-108.01,0.00291129,-0.00268564,0.00126442,0.00318368,-0.00295803,0.212185,0.00354671,0.0119906,916,505,-20.0077,108.01
-301,519,-20.4955,-110.573,0.00356281,-0.00401428,0.00218877,0.00414963,-0.0046011,0.261943,0.00505448,0.0169921,923,505,-20.4955,110.572
-294,519,-20.8885,-113.062,0.0041691,-0.00519851,0.00308618,0.00509444,-0.00612385,0.291304,0.00648597,0.0188416,930,505,-20.8885,113.062
-287,519,-21.4261,-115.691,0.00471333,-0.00643058,0.00405095,0.00603027,-0.00774752,0.314317,0.00797518,0.0152387,937,505,-21.4261,115.691
-280,519,-21.96,-118.325,0.00515805,-0.00722555,0.00505343,0.00695847,-0.00902596,0.342255,0.00925431,0.048138,944,505,-21.96,118.325
-273,519,-22.4792,-121.252,0,0,0,0,0,0,0,-1,951,505,-22.4792,121.252
-266,519,-22.6913,-123.611,0,0,0,0,0,0,0,-1,958,505,-22.6913,123.611
-259,519,-14.0467,-90.6321,0,0,0,0,0,0,0,-1,965,505,-14.0467,90.6322
-252,519,-1.84009,-26.8372,0,0,0,0,0,0,0,-1,972,505,-1.8401,26.8372
-245,519,-1.23254,-23.2696,0,0,0,0,0,0,0,-1,979,505,-1.23256,23.2696
-238,519,-3.37726,-48.8871,0,0,0,0,0,0,0,-1,986,505,-3.37723,48.8871
-231,519,-2.22742,-51.4121,0,0,0,0,0,0,0,-1,993,505,-2.22742,51.4121
-224,519,-3.33752,-42.7635,0,0,0,0,0,0,0,-1,1000,505,-3.33753,42.7635
-217,519,-2.87396,-38.149,0,0,0,0,0,0,0,-1,1007,505,-2.87394,38.149
-210,519,-0.883362,-34.799,0,0,0,0,0,0,0,-1,1014,505,-0.883379,34.799
-203,519,-0.513611,-5.39017,0,0,0,0,0,0,0,-1,1021,505,-0.513585,5.39017
-196,519,-0.374023,-5.41635,0,0,0,0,0,0,0,-1,1028,505,-0.374047,5.41635
-189,519,-0.234497,-5.44254,0,0,0,0,0,0,0,-1,1035,505,-0.234508,5.44253
-182,519,2.76697,-1.19659,0,0,0,0,0,0,0,-1,1042,505,2.76696,1.19661
-175,519,2.31323,-0.960938,0,0,0,0,0,0,0,-1,1049,505,2.31319,0.960941
-168,519,2.01074,-0.721405,0,0,0,0,0,0,0,-1,1056,505,2.01072,0.721407
-161,519,2.32056,-0.522339,0,0,0,0,0,0,0,-1,1063,505,2.32057,0.522328
-154,519,2.55566,0.116669,0,0,0,0,0,0,0,-1,1070,505,2.55563,-0.116661
-147,519,-0.55127,-6.14001,0,0,0,0,0,0,0,-1,1077,505,-0.551252,6.14001
-140,519,0.240601,-7.53503,0,0,0,0,0,0,0,-1,1084,505,0.240653,7.53501
-133,519,2.70911,-4.4516,0,0,0,0,0,0,0,-1,1091,505,2.70915,4.45161
-126,519,0,0,0,0,0,0,0,0,0,-1,1098,505,0,0
-119,519,0,0,0,0,0,0,0,0,0,-1,1105,505,0,0
-112,519,0,0,0,0,0,0,0,0,0,-1,1112,505,0,0
-105,519,0,0,0,0,0,0,0,0,0,-1,1119,505,0,0
-98,519,0,0,0,0,0,0,0,0,0,-1,1126,505,0,0
-91,519,0,0,0,0,0,0,0,0,0,-1,1133,505,0,0
-84,519,0,0,0,0,0,0,0,0,0,-1,1140,505,0,0
-77,519,0,0,0,0,0,0,0,0,0,-1,1147,505,0,0
-70,519,0,0,0,0,0,0,0,0,0,-1,1154,505,0,0
-63,519,0,0,0,0,0,0,0,0,0,-1,1161,505,0,0
-56,519,0,0,0,0,0,0,0,0,0,-1,1168,505,0,0
-49,519,0,0,0,0,0,0,0,0,0,-1,1175,505,0,0
-42,519,0,0,0,0,0,0,0,0,0,-1,1182,505,0,0
-35,519,0,0,0,0,0,0,0,0,0,-1,1189,505,0,0
-28,519,0,0,0,0,0,0,0,0,0,-1,1196,505,0,0
-21,519,0,0,0,0,0,0,0,0,0,-1,1203,505,0,0
-14,519,0,0,0,0,0,0,0,0,0,-1,1210,505,0,0
-7,519,0,0,0,0,0,0,0,0,0,-1,1217,505,0,0
0,519,0,0,0,0,0,0,0,0,0,-1,1224,505,0,0
7,519,0,0,0,0,0,0,0,0,0,-1,1231,505,0,0
14,519,0,0,0,0,0,0,0,0,0,-1,1238,505,0,0
21,519,0,0,0,0,0,0,0,0,0,-1,1245,505,0,0
28,519,0,0,0,0,0,0,0,0,0,-1,1252,505,0,0
35,519,0,0,0,0,0,0,0,0,0,-1,1259,505,0,0
42,519,0,0,0,0,0,0,0,0,0,-1,1266,505,0,0
49,519,0,0,0,0,0,0,0,0,0,-1,1273,505,0,0
56,519,0,0,0,0,0,0,0,0,0,-1,1280,505,0,0
63,519,0,0,0,0,0,0,0,0,0,-1,1287,505,0,0
70,519,0,0,0,0,0,0,0,0,0,-1,1294,505,0,0
77,519,0,0,0,0,0,0,0,0,0,-1,1301,505,0,0
84,519,0,0,0,0,0,0,0,0,0,-1,1308,505,0,0
91,519,0,0,0,0,0,0,0,0,0,-1,1315,505,0,0
98,519,0,0,0,0,0,0,0,0,0,-1,1322,505,0,0
105,519,0,0,0,0,0,0,0,0,0,-1,1329,505,0,0
112,519,0,0,0,0,0,0,0,0,0,-1,1336,505,0,0
119,519,0,0,0,0,0,0,0,0,0,-1,1343,505,0,0
126,519,0,0,0,0,0,0,0,0,0,-1,1350,505,0,0
133,519,0,0,0,0,0,0,0,0,0,-1,1357,505,0,0
140,519,0,0,0,0,0,0,0,0,0,-1,1364,505,0,0
147,519,0,0,0,0,0,0,0,0,0,-1,1371,505,0,0
154,519,0,0,0,0,0,0,0,0,0,-1,1378,505,0,0
161,519,0,0,0,0,0,0,0,0,0,-1,1385,505,0,0
168,519,0,0,0,0,0,0,0,0,0,-1,1392,505,0,0
175,519,0,0,0,0,0,0,0,0,0,-1,1399,505,0,0
182,519,0,0,0,0,0,0,0,0,0,-1,1406,505,0,0
189,519,0,0,0,0,0,0,0,0,0,-1,1413,505,0,0
196,519,0,0,0,0,0,0,0,0,0,-1,1420,505,0,0
203,519,0,0,0,0,0,0,0,0,0,-1,1427,505,0,0
210,519,0,0,0,0,0,0,0,0,0,-1,1434,505,0,0
217,519,0,0,0,0,0,0,0,0,0,-1,1441,505,0,0
224,519,0,0,0,0,0,0,0,0,0,-1,1448,505,0,0
231,519,0,0,0,0,0,0,0,0,0,-1,1455,505,0,0
238,519,0,0,0,0,0,0,0,0,0,-1,1462,505,0,0
245,519,0,0,0,0,0,0,0,0,0,-1,1469,505,0,0
252,519,5.26208,0.0938416,0,0,0,0,0,0,0,-1,1476,505,5.26207,-0.0938493
259,519,6.14246,-1.36441,0,0,0,0,0,0,0,-1,1483,505,6.14241,1.36441
266,519,5.31909,-0.400787,0,0,0,0,0,0,0,-1,1490,505,5.31912,0.400773
273,519,4.02393,0.325531,0,0,0,0,0,0,0,-1,1497,505,4.0239,-0.325522
280,519,4.68848,0.53006,0,0,0,0,0,0,0,-1,1504,505,4.68842,-0.530073
287,519,7.9519,-3.80801,0,0,0,0,0,0,0,-1,1511,505,7.95193,3.808
294,519,6.92273,-3.38889,0,0,0,0,0,0,0,-1,1518,505,6.92268,3.38888
301,519,5.35669,-2.92661,0,0,0,0,0,0,0,-1,1525,505,5.35675,2.9266
308,519,7.37549,-5.64529,0,0,0,0,0,0,0,-1,1532,505,7.3755,5.64529
315,519,6.30029,-4.53754,0,0,0,0,0,0,0,-1,1539,505,6.30024,4.53753
322,519,5.84302,-5.45117,0,0,0,0,0,0,0,-1,1546,505,5.84303,5.45116
329,519,4.92407,0.62384,0,0,0,0,0,0,0,-1,1553,505,4.92403,-0.623832
336,519,3.10095,-0.329285,0,0,0,0,0,0,0,-1,1560,505,3.1009,0.329283
343,519,2.49146,-2.31119,0,0,0,0,0,0,0,-1,1567,505,2.49145,2.31119
350,519,3.47729,-2.22516,0,0,0,0,0,0,0,-1,1574,505,3.47726,2.22515
357,519,13.271,-29.6344,0,0,0,0,0,0,0,-1,1581,505,13.271,29.6344
364,519,12.8292,-28.3627,0,0,0,0,0,0,0,-1,1588,505,12.8292,28.3627
371,519,12.3875,-27.0911,0,0,0,0,0,0,0,-1,1595,505,12.3874,27.091
378,519,6.36597,-10.0967,0,0,0,0,0,0,0,-1,1602,505,6.36597,10.0967
385,519,6.24756,-9.72186,0,0,0,0,0,0,0,-1,1609,505,6.24752,9.72183
392,519,16.8391,-37.6736,0,0,0,0,0,0,0,-1,1616,505,16.8391,37.6737
399,519,31.8569,-108.321,0,0,0,0,0,0,0,-1,1623,505,31.8569,108.321
406,519,32.8329,-119.812,0,0,0,0,0,0,0,-1,1630,505,32.8329,119.812
413,519,32.5892,-117.333,0.00348413,0.00346953,-0.00109997,0.00457682,0.00237684,-0.782081,0.00264309,0.0488233,1637,505,32.5893,117.333
420,519,31.9146,-114.52,0.00316745,0.00312911,-0.000497716,0.00364636,0.00265019,-0.766149,0.00217623,0.0208076,1644,505,31.9146,114.52
427,519,31.5057,-111.936,0.00283566,0.00296638,0.000114644,0.00303299,0.00276906,1.04446,0.00194001,0.0182877,1651,505,31.5057,111.936
434,519,30.98,-109.363,0.0025903,0.00291613,0.000691883,0.00346402,0.00204241,0.901024,0.00201063,0.0169097,1658,505,30.98,109.363
441,519,30.4362,-106.762,0.00245509,0.00305855,0.00124878,0.00404154,0.0014721,0.903936,0.00236188,0.0164061,1665,505,30.4361,106.762
448,519,29.9934,-104.117,0.00232073,0.00328401,0.00184063,0.00470497,0.000899766,0.913363,0.0028839,0.01234,1672,505,29.9934,104.117
455,519,29.4937,-101.44,0.0021694,0.00365441,0.00242644,0.00544942,0.000374402,0.933877,0.0035148,0.0138747,1679,505,29.4936,101.44
462,519,29.0299,-98.8194,0.00210378,0.00418491,0.0030003,0.00631997,-3.12803e-05,0.952318,0.00422378,0.0136468,1686,505,29.03,98.8194
469,519,28.5713,-96.1699,0.00211065,0.00486782,0.00365022,0.00739111,-0.000412635,0.965954,0.00507055,0.0150209,1693,505,28.5713,96.1699
476,519,28.0682,-93.4923,0.00205052,0.00573602,0.00446369,0.00872237,-0.00093584,0.981157,0.00615064,0.0178502,1700,505,28.0682,93.4923
483,519,27.5173,-90.8295,0.00195196,0.00673667,0.00540069,0.0102512,-0.00156252,0.993895,0.00741006,0.017843,1707,505,27.5173,90.8295
490,519,26.9336,-88.0817,0.00184063,0.00814483,0.00662071,0.0123255,-0.00234004,1.00757,0.00909788,0.0157101,1714,505,26.9335,88.0817
497,519,26.3774,-85.3279,0,0,0,0,0,0,0,-1,1721,505,26.3774,85.3279
504,519,25.9977,-82.4938,0,0,0,0,0,0,0,-1,1728,505,25.9977,82.4938
511,519,26.5901,-66.6717,0,0,0,0,0,0,0,-1,1735,505,26.5901,66.6717
518,519,20.183,-28.4342,0,0,0,0,0,0,0,-1,1742,505,20.183,28.4342
525,519,15.9647,-20.5714,0,0,0,0,0,0,0,-1,1749,505,15.9648,20.5714
532,519,15.825,-19.0025,0,0,0,0,0,0,0,-1,1756,505,15.8249,19.0025
539,519,16.5902,-16.8075,0,0,0,0,0,0,0,-1,1763,505,16.5903,16.8075
546,519,12.4001,-16.5616,0,0,0,0,0,0,0,-1,1770,505,12.4002,16.5616
553,519,4.14136,0.0667419,0,0,0,0,0,0,0,-1,1777,505,4.14141,-0.0667503
560,519,3.77856,0.279724,0,0,0,0,0,0,0,-1,1784,505,3.77861,-0.279731
567,519,0,0,0,0,0,0,0,0,0,-1,1791,505,0,0
574,519,0,0,0,0,0,0,0,0,0,-1,1798,505,0,0
581,519,0,0,0,0,0,0,0,0,0,-1,1805,505,0,0
588,519,0,0,0,0,0,0,0,0,0,-1,1812,505,0,0
595,519,0,0,0,0,0,0,0,0,0,-1,1819,505,0,0
602,519,0,0,0,0,0,0,0,0,0,-1,1826,505,0,0
609,519,0,0,0,0,0,0,0,0,0,-1,1833,505,0,0
616,519,0,0,0,0,0,0,0,0,0,-1,1840,505,0,0
623,519,0,0,0,0,0,0,0,0,0,-1,1847,505,0,0
630,519,0,0,0,0,0,0,0,0,0,-1,1854,505,0,0
637,519,0,0,0,0,0,0,0,0,0,-1,1861,505,0,0
644,519,0,0,0,0,0,0,0,0,0,-1,1868,505,0,0
651,519,0,0,0,0,0,0,0,0,0,-1,1875,505,0,0
658,519,0,0,0,0,0,0,0,0,0,-1,1882,505,0,0
665,519,0,0,0,0,0,0,0,0,0,-1,1889,505,0,0
672,519,0,0,0,0,0,0,0,0,0,-1,1896,505,0,0
679,519,0,0,0,0,0,0,0,0,0,-1,1903,505,0,0
686,519,0,0,0,0,0,0,0,0,0,-1,1910,505,0,0
693,519,0,0,0,0,0,0,0,0,0,-1,1917,505,0,0
700,519,0,0,0,0,0,0,0,0,0,-1,1924,505,0,0
707,519,0,0,0,0,0,0,0,0,0,-1,1931,505,0,0
714,519,0,0,0,0,0,0,0,0,0,-1,1938,505,0,0
721,519,0,0,0,0,0,0,0,0,0,-1,1945,505,0,0
728,519,0,0,0,0,0,0,0,0,0,-1,1952,505,0,0
735,519,0,0,0,0,0,0,0,0,0,-1,1959,505,0,0
742,519,0,0,0,0,0,0,0,0,0,-1,1966,505,0,0
749,519,0,0,0,0,0,0,0,0,0,-1,1973,505,0,0
756,519,0,0,0,0,0,0,0,0,0,-1,1980,505,0,0
763,519,0,0,0,0,0,0,0,0,0,-1,1987,505,0,0
770,519,0,0,0,0,0,0,0,0,0,-1,1994,505,0,0
777,519,0,0,0,0,0,0,0,0,0,-1,2001,505,0,0
784,519,0,0,0,0,0,0,0,0,0,-1,2008,505,0,0
791,519,0,0,0,0,0,0,0,0,0,-1,2015,505,0,0
798,519,0,0,0,0,0,0,0,0,0,-1,2022,505,0,0
805,519,0,0,0,0,0,0,0,0,0,-1,2029,505,0,0
812,519,0,0,0,0,0,0,0,0,0,-1,2036,505,0,0
-700,512,0,0,0,0,0,0,0,0,0,-1,524,512,0,0
-693,512,0,0,0,0,0,0,0,0,0,-1,531,512,0,0
-686,512,0,0,0,0,0,0,0,0,0,-1,538,512,0,0
-679,512,0,0,0,0,0,0,0,0,0,-1,545,512,0,0
-672,512,0,0,0,0,0,0,0,0,0,-1,552,512,0,0
-665,512,0,0,0,0,0,0,0,0,0,-1,559,512,0,0
-658,512,0,0,0,0,0,0,0,0,0,-1,566,512,0,0
-651,512,0,0,0,0,0,0,0,0,0,-1,573,512,0,0
-644,512,0,0,0,0,0,0,0,0,0,-1,580,512,0,0
-637,512,0,0,0,0,0,0,0,0,0,-1,587,512,0,0
-630,512,0,0,0,0,0,0,0,0,0,-1,594,512,0,0
-623,512,0,0,0,0,0,0,0,0,0,-1,601,512,0,0
-616,512,0,0,0,0,0,0,0,0,0,-1,608,512,0,0
-609,512,0,0,0,0,0,0,0,0,0,-1,615,512,0,0
-602,512,0,0,0,0,0,0,0,0,0,-1,622,512,0,0
-595,512,0,0,0,0,0,0,0,0,0,-1,629,512,0,0
-588,512,0,0,0,0,0,0,0,0,0,-1,636,512,0,0
-581,512,0,0,0,0,0,0,0,0,0,-1,643,512,0,0
-574,512,0,0,0,0,0,0,0,0,0,-1,650,512,0,0
-567,512,0,0,0,0,0,0,0,0,0,-1,657,512,0,0
-560,512,0,0,0,0,0,0,0,0,0,-1,664,512,0,0
-553,512,0,0,0,0,0,0,0,0,0,-1,671,512,0,0
-546,512,0,0,0,0,0,0,0,0,0,-1,678,512,0,0
-539,512,0,0,0,0,0,0,0,0,0,-1,685,512,0,0
-532,512,0,0,0,0,0,0,0,0,0,-1,692,512,0,0
-525,512,0,0,0,0,0,0,0,0,0,-1,699,512,0,0
-518,512,0,0,0,0,0,0,0,0,0,-1,706,512,0,0
-511,512,0,0,0,0,0,0,0,0,0,-1,713,512,0,0
-504,512,0,0,0,0,0,0,0,0,0,-1,720,512,0,0
-497,512,0,0,0,0,0,0,0,0,0,-1,727,512,0,0
-490,512,0,0,0,0,0,0,0,0,0,-1,734,512,0,0
-483,512,0,0,0,0,0,0,0,0,0,-1,741,512,0,0
-476,512,0,0,0,0,0,0,0,0,0,-1,748,512,0,0
-469,512,0,0,0,0,0,0,0,0,0,-1,755,512,0,0
-462,512,0,0,0,0,0,0,0,0,0,-1,762,512,0,0
-455,512,0,0,0,0,0,0,0,0,0,-1,769,512,0,0
-448,512,1.96283,-4.15674,0,0,0,0,0,0,0,-1,776,512,1.96285,4.15677
-441,512,1.78198,-4.88824,0,0,0,0,0,0,0,-1,783,512,1.78201,4.88826
-434,512,0.0726929,-9.85822,0,0,0,0,0,0,0,-1,790,512,0.0727008,9.85819
-427,512,-0.384583,-9.94824,0,0,0,0,0,0,0,-1,797,512,-0.384552,9.94823
-420,512,-2.93219,-12.4855,0,0,0,0,0,0,0,-1,804,512,-2.93219,12.4855
-413,512,-2.22711,-11.4485,0,0,0,0,0,0,0,-1,811,512,-2.22712,11.4485
-406,512,-2.38037,-13.5743,0,0,0,0,0,0,0,-1,818,512,-2.38034,13.5743
-399,512,-3.13367,-23.934,0,0,0,0,0,0,0,-1,825,512,-3.13368,23.934
-392,512,-16.3075,-75.1193,0,0,0,0,0,0,0,-1,832,512,-16.3075,75.1193
-385,512,-16.9749,-77.7754,0,0,0,0,0,0,0,-1,839,512,-16.9749,77.7754
-378,512,-17.4631,-80.3517,0,0,0,0,0,0,0,-1,846,512,-17.4631,80.3517
-371,512,-18.002,-83.0858,0.00260272,0.0177403,-0.0091864,0.0220743,-0.00173129,-1.12997,0.0153259,0.0376536,853,512,-18.002,83.0858
-364,512,-18.5125,-86.056,0.00215568,0.0141846,-0.00728343,0.0176158,-0.00127561,-1.13053,0.0121914,0.0163265,860,512,-18.5124,86.056
-357,512,-19.0748,-88.8083,0.00186877,0.0107448,-0.00556646,0.0134259,-0.000812306,-1.12194,0.00923327,0.0144154,867,512,-19.0748,88.8083
-350,512,-19.601,-91.4884,0.00170061,0.0076699,-0.00403938,0.00970768,-0.000337168,-1.10357,0.00658705,0.016933,874,512,-19.601,91.4884
-343,512,-20.1274,-94.0964,0.0017616,0.00490551,-0.0027335,0.00648682,0.000180296,-1.04634,0.00426572,0.0201683,881,512,-20.1274,94.0964
-336,512,-20.6396,-96.7758,0.00187417,0.00220128,-0.00149809,0.00354471,0.000530734,-0.839771,0.0022076,0.0222558,888,512,-20.6397,96.7758
-329,512,-21.1222,-99.5004,0.00214148,-3.8443e-05,-0.000365226,0.00220104,-9.80058e-05,-0.161662,0.0015011,0.0269514,895,512,-21.1222,99.5004
-322,512,-21.6614,-102.115,0.00257973,-0.00203927,0.000650262,0.00266953,-0.00212907,0.137227,0.00277632,0.0221718,902,512,-21.6614,102.115
-315,512,-22.1501,-104.766,0.00302933,-0.00369848,0.00162151,0.00339975,-0.0040689,0.224585,0.00431779,0.014956,909,512,-22.1501,104.766
-308,512,-22.663,-107.436,0.00358033,-0.00496522,0.00251404,0.00426507,-0.00564996,0.265918,0.00574303,0.0142682,916,512,-22.663,107.436
-301,512,-23.1482,-109.989,0.00420918,-0.00593577,0.00341343,0.00525075,-0.00697734,0.296164,0.00708331,0.0201419,923,512,-23.1482,109.989
-294,512,-23.5522,-112.528,0.00468794,-0.00675126,0.00425759,0.00609862,-0.00816194,0.319949,0.00826201,0.0264162,930,512,-23.5522,112.528
-287,512,-24.0336,-115.092,0,0,0,0,0,0,0,-1,937,512,-24.0337,115.092
-280,512,-24.5956,-117.825,0,0,0,0,0,0,0,-1,944,512,-24.5956,117.825
-273,512,-15.7443,-87.9698,0,0,0,0,0,0,0,-1,951,512,-15.7443,87.9698
-266,512,-2.33594,-25.9839,0,0,0,0,0,0,0,-1,958,512,-2.33592,25.9839
-259,512,-0.525452,-14.0815,0,0,0,0,0,0,0,-1,965,512,-0.525475,14.0815
-252,512,1.45941,-3.43475,0,0,0,0,0,0,0,-1,972,512,1.45938,3.43475
-245,512,-1.6731,-22.8959,0,0,0,0,0,0,0,-1,979,512,-1.67312,22.8959
-238,512,0.227051,-8.92969,0,0,0,0,0,0,0,-1,986,512,0.227073,8.92968
-231,512,-1.90576,-38.0918,0,0,0,0,0,0,0,-1,993,512,-1.90575,38.0918
-224,512,-1.29974,-33.6304,0,0,0,0,0,0,0,-1,1000,512,-1.29974,33.6304
-217,512,-0.963196,-34.1697,0,0,0,0,0,0,0,-1,1007,512,-0.963226,34.1697
-210,512,-3.76642,-1.94702,0,0,0,0,0,0,0,-1,1014,512,-3.76641,1.94702
-203,512,-2.48328,-5.19061,0,0,0,0,0,0,0,-1,1021,512,-2.48328,5.19059
-196,512,-1.14929,-4.63202,0,0,0,0,0,0,0,-1,1028,512,-1.14934,4.632
-189,512,0.197998,4.55505,0,0,0,0,0,0,0,-1,1035,512,0.197996,-4.55506
-182,512,2.73938,0.0778503,0,0,0,0,0,0,0,-1,1042,512,2.73944,-0.077852
-175,512,2.29565,0.209808,0,0,0,0,0,0,0,-1,1049,512,2.29565,-0.209813
-168,512,2.09399,-0.302856,0,0,0,0,0,0,0,-1,1056,512,2.09403,0.302826
-161,512,2.76636,0.0921021,0,0,0,0,0,0,0,-1,1063,512,2.76633,-0.0921104
-154,512,3.41382,0.466187,0,0,0,0,0,0,0,-1,1070,512,3.41382,-0.466178
-147,512,0,0,0,0,0,0,0,0,0,-1,1077,512,0,0
-140,512,0,0,0,0,0,0,0,0,0,-1,1084,512,0,0
-133,512,0,0,0,0,0,0,0,0,0,-1,1091,512,0,0
-126,512,0,0,0,0,0,0,0,0,0,-1,1098,512,0,0
-119,512,0,0,0,0,0,0,0,0,0,-1,1105,512,0,0
-112,512,0,0,0,0,0,0,0,0,0,-1,1112,512,0,0
-105,512,0,0,0,0,0,0,0,0,0,-1,1119,512,0,0
-98,512,0,0,0,0,0,0,0,0,0,-1,1126,512,0,0
-91,512,0,0,0,0,0,0,0,0,0,-1,1133,512,0,0
-84,512,0,0,0,0,0,0,0,0,0,-1,1140,512,0,0
-77,512,0,0,0,0,0,0,0,0,0,-1,1147,512,0,0
-70,512,0,0,0,0,0,0,0,0,0,-1,1154,512,0,0
-63,512,0,0,0,0,0,0,0,0,0,-1,1161,512,0,0
-56,512,0,0,0,0,0,0,0,0,0,-1,1168,512,0,0
-49,512,0,0,0,0,0,0,0,0,0,-1,1175,512,0,0
-42,512,0,0,0,0,0,0,0,0,0,-1,1182,512,0,0
-35,512,0,0,0,0,0,0,0,0,0,-1,1189,512,0,0
-28,512,0,0,0,0,0,0,0,0,0,-1,1196,512,0,0
-21,512,0,0,0,0,0,0,0,0,0,-1,1203,512,0,0
-14,512,0,0,0,0,0,0,0,0,0,-1,1210,512,0,0
-7,512,0,0,0,0,0,0,0,0,0,-1,1217,512,0,0
0,512,0,0,0,0,0,0,0,0,0,-1,1224,512,0,0
7,512,0,0,0,0,0,0,0,0,0,-1,1231,512,0,0
14,512,0,0,0,0,0,0,0,0,0,-1,1238,512,0,0
21,512,0,0,0,0,0,0,0,0,0,-1,1245,512,0,0
28,512,0,0,0,0,0,0,0,0,0,-1,1252,512,0,0
35,512,0,0,0,0,0,0,0,0,0,-1,1259,512,0,0
42,512,0,0,0,0,0,0,0,0,0,-1,1266,512,0,0
49,512,0,0,0,0,0,0,0,0,0,-1,1273,512,0,0
56,512,0,0,0,0,0,0,0,0,0,-1,1280,512,0,0
63,512,0,0,0,0,0,0,0,0,0,-1,1287,512,0,0
70,512,0,0,0,0,0,0,0,0,0,-1,1294,512,0,0
77,512,0,0,0,0,0,0,0,0,0,-1,1301,512,0,0
84,512,0,0,0,0,0,0,0,0,0,-1,1308,512,0,0
91,512,0,0,0,0,0,0,0,0,0,-1,1315,512,0,0
98,512,0,0,0,0,0,0,0,0,0,-1,1322,512,0,0
105,512,0,0,0,0,0,0,0,0,0,-1,1329,512,0,0
112,512,0,0,0,0,0,0,0,0,0,-1,1336,512,0,0
119,512,0,0,0,0,0,0,0,0,0,-1,1343,512,0,0
126,512,0,0,0,0,0,0,0,0,0,-1,1350,512,0,0
133,512,0,0,0,0,0,0,0,0,0,-1,1357,512,0,0
140,512,0,0,0,0,0,0,0,0,0,-1,1364,512,0,0
147,512,0,0,0,0,0,0,0,0,0,-1,1371,512,0,0
154,512,0,0,0,0,0,0,0,0,0,-1,1378,512,0,0
161,512,0,0,0,0,0,0,0,0,0,-1,1385,512,0,0
168,512,0,0,0,0,0,0,0,0,0,-1,1392,512,0,0
175,512,0,0,0,0,0,0,0,0,0,-1,1399,512,0,0
182,512,0,0,0,0,0,0,0,0,0,-1,1406,512,0,0
189,512,0,0,0,0,0,0,0,0,0,-1,1413,512,0,0
196,512,0,0,0,0,0,0,0,0,0,-1,1420,512,0,0
203,512,0,0,0,0,0,0,0,0,0,-1,1427,512,0,0
210,512,0,0,0,0,0,0,0,0,0,-1,1434,512,0,0
217,512,0,0,0,0,0,0,0,0,0,-1,1441,512,0,0
224,512,0,0,0,0,0,0,0,0,0,-1,1448,512,0,0
231,512,0,0,0,0,0,0,0,0,0,-1,1455,512,0,0
238,512,0,0,0,0,0,0,0,0,0,-1,1462,512,0,0
245,512,0,0,0,0,0,0,0,0,0,-1,1469,512,0,0
252,512,0,0,0,0,0,0,0,0,0,-1,1476,512,0,0
259,512,0,0,0,0,0,0,0,0,0,-1,1483,512,0,0
266,512,0,0,0,0,0,0,0,0,0,-1,1490,512,0,0
273,512,4.00745,0.618622,0,0,0,0,0,0,0,-1,1497,512,4.00747,-0.618611
280,512,4.49609,0.649841,0,0,0,0,0,0,0,-1,1504,512,4.49612,-0.649834
287,512,4.77234,0.458069,0,0,0,0,0,0,0,-1,1511,512,4.77233,-0.458083
294,512,8.54956,-2.36273,0,0,0,0,0,0,0,-1,1518,512,8.54952,2.36274
301,512,6.302,-1.69092,0,0,0,0,0,0,0,-1,1525,512,6.30196,1.69093
308,512,8.2439,-6.22754,0,0,0,0,0,0,0,-1,1532,512,8.24394,6.22757
315,512,7.53687,-6.04211,0,0,0,0,0,0,0,-1,1539,512,7.53691,6.04211
322,512,6.82983,-5.85663,0,0,0,0,0,0,0,-1,1546,512,6.82988,5.85666
329,512,4.38147,-0.329651,0,0,0,0,0,0,0,-1,1553,512,4.38144,0.329662
336,512,4.41467,-0.741455,0,0,0,0,0,0,0,-1,1560,512,4.41467,0.741442
343,512,4.44727,-1.21667,0,0,0,0,0,0,0,-1,1567,512,4.44732,1.21666
350,512,4.55469,-1.65082,0,0,0,0,0,0,0,-1,1574,512,4.5547,1.65083
357,512,5.79993,-2.67456,0,0,0,0,0,0,0,-1,1581,512,5.79991,2.67454
364,512,13.118,-28.5485,0,0,0,0,0,0,0,-1,1588,512,13.1181,28.5485
371,512,5.28467,-7.69269,0,0,0,0,0,0,0,-1,1595,512,5.28464,7.69269
378,512,6.29407,-9.88055,0,0,0,0,0,0,0,-1,1602,512,6.29412,9.88057
385,512,6.45569,-9.32233,0,0,0,0,0,0,0,-1,1609,512,6.45565,9.3223
392,512,6.35522,-8.98425,0,0,0,0,0,0,0,-1,1616,512,6.35526,8.98422
399,512,16.9089,-33.7311,0,0,0,0,0,0,0,-1,1623,512,16.9089,33.7311
406,512,21.3325,-43.5074,0,0,0,0,0,0,0,-1,1630,512,21.3325,43.5074
413,512,35.3458,-117.086,0,0,0,0,0,0,0,-1,1637,512,35.3458,117.086
420,512,34.5795,-114.021,0,0,0,0,0,0,0,-1,1644,512,34.5795,114.021
427,512,34.1394,-111.441,0.00281373,0.00350899,-0.000204839,0.00356485,0.00275787,-1.30456,0.00215846,0.0340695,1651,512,34.1394,111.441
434,512,33.6366,-108.848,0.00252332,0.00295542,0.000115038,0.00298414,0.00249461,1.32616,0.00184799,0.0156226,1658,512,33.6366,108.848
441,512,33.0947,-106.241,0.00236052,0.00272825,0.000487213,0.00306514,0.00202363,0.965825,0.00179968,0.0163972,1665,512,33.0948,106.241
448,512,32.6069,-103.647,0.00221351,0.00262336,0.000954484,0.00339467,0.0014422,0.891141,0.00196728,0.0124641,1672,512,32.6069,103.647
455,512,32.1096,-100.988,0.00208594,0.00270835,0.00142405,0.0038548,0.000939489,0.892974,0.00232097,0.0121898,1679,512,32.1096,100.988
462,512,31.6455,-98.3196,0.00207252,0.00302464,0.0019041,0.00451129,0.000585868,0.907896,0.00283251,0.0125831,1686,512,31.6456,98.3196
469,512,31.1377,-95.6667,0.00214835,0.00345153,0.00247208,0.00535645,0.000243434,0.914257,0.00349265,0.0147884,1693,512,31.1377,95.6668
476,512,30.6129,-92.997,0.0021185,0.00419964,0.00322118,0.00654415,-0.000226014,0.941627,0.00444002,0.0193103,1700,512,30.6129,92.997
483,512,30.0966,-90.2953,0.00207337,0.00507053,0.0041097,0.00794635,-0.000802449,0.960229,0.0055843,0.0172057,1707,512,30.0965,90.2954
490,512,29.6133,-87.6365,0.00200769,0.00621776,0.00516116,0.00968665,-0.00146121,0.97903,0.00699589,0.0139047,1714,512,29.6133,87.6365
497,512,29.0934,-84.929,0.00179665,0.00739138,0.0061842,0.0113815,-0.00219344,0.997798,0.00841463,0.0150934,1721,512,29.0933,84.929
504,512,28.5352,-82.199,0.00152155,0.00835318,0.00729665,0.012994,-0.00311924,1.00431,0.00986811,0.027654,1728,512,28.5352,82.199
511,512,28.0026,-79.4166,0,0,0,0,0,0,0,-1,1735,512,28.0025,79.4166
518,512,28.3206,-64.3033,0,0,0,0,0,0,0,-1,1742,512,28.3206,64.3033
525,512,21.4387,-27.6805,0,0,0,0,0,0,0,-1,1749,512,21.4388,27.6805
532,512,16.6807,-19.0635,0,0,0,0,0,0,0,-1,1756,512,16.6807,19.0635
539,512,12.6367,-16.4022,0,0,0,0,0,0,0,-1,1763,512,12.6367,16.4021
546,512,2.77551,-0.66449,0,0,0,0,0,0,0,-1,1770,512,2.77548,0.664503
553,512,3.927,-0.448853,0,0,0,0,0,0,0,-1,1777,512,3.92704,0.448843
560,512,3.55762,-0.201233,0,0,0,0,0,0,0,-1,1784,512,3.55768,0.201259
567,512,3.09045,0.191193,0,0,0,0,0,0,0,-1,1791,512,3.09045,-0.191203
574,512,0,0,0,0,0,0,0,0,0,-1,1798,512,0,0
581,512,0,0,0,0,0,0,0,0,0,-1,1805,512,0,0
588,512,0,0,0,0,0,0,0,0,0,-1,1812,512,0,0
595,512,0,0,0,0,0,0,0,0,0,-1,1819,512,0,0
602,512,0,0,0,0,0,0,0,0,0,-1,1826,512,0,0
609,512,0,0,0,0,0,0,0,0,0,-1,1833,512,0,0
616,512,0,0,0,0,0,0,0,0,0,-1,1840,512,0,0
623,512,0,0,0,0,0,0,0,0,0,-1,1847,512,0,0
630,512,0,0,0,0,0,0,0,0,0,-1,1854,512,0,0
637,512,0,0,0,0,0,0,0,0,0,-1,1861,512,0,0
644,512,0,0,0,0,0,0,0,0,0,-1,1868,512,0,0
651,512,0,0,0,0,0,0,0,0,0,-1,1875,512,0,0
658,512,0,0,0,0,0,0,0,0,0,-1,1882,512,0,0
665,512,0,0,0,0,0,0,0,0,0,-1,1889,512,0,0
672,512,0,0,0,0,0,0,0,0,0,-1,1896,512,0,0
679,512,0,0,0,0,0,0,0,0,0,-1,1903,512,0,0
686,512,0,0,0,0,0,0,0,0,0,-1,1910,512,0,0
693,512,0,0,0,0,0,0,0,0,0,-1,1917,512,0,0
700,512,0,0,0,0,0,0,0,0,0,-1,1924,512,0,0
707,512,0,0,0,0,0,0,0,0,0,-1,1931,512,0,0
714,512,0,0,0,0,0,0,0,0,0,-1,1938,512,0,0
721,512,0,0,0,0,0,0,0,0,0,-1,1945,512,0,0
728,512,0,0,0,0,0,0,0,0,0,-1,1952,512,0,0
735,512,0,0,0,0,0,0,0,0,0,-1,1959,512,0,0
742,512,0,0,0,0,0,0,0,0,0,-1,1966,512,0,0
749,512,0,0,0,0,0,0,0,0,0,-1,1973,512,0,0
756,512,0,0,0,0,0,0,0,0,0,-1,1980,512,0,0
763,512,0,0,0,0,0,0,0,0,0,-1,1987,512,0,0
770,512,0,0,0,0,0,0,0,0,0,-1,1994,512,0,0
777,512,0,0,0,0,0,0,0,0,0,-1,2001,512,0,0
784,512,0,0,0,0,0,0,0,0,0,-1,2008,512,0,0
791,512,0,0,0,0,0,0,0,0,0,-1,2015,512,0,0
798,512,0,0,0,0,0,0,0,0,0,-1,2022,512,0,0
805,512,0,0,0,0,0,0,0,0,0,-1,2029,512,0,0
812,512,0,0,0,0,0,0,0,0,0,-1,2036,512,0,0
-700,505,0,0,0,0,0,0,0,0,0,-1,524,519,0,0
-693,505,0,0,0,0,0,0,0,0,0,-1,531,519,0,0
-686,505,0,0,0,0,0,0,0,0,0,-1,538,519,0,0
-679,505,0,0,0,0,0,0,0,0,0,-1,545,519,0,0
-672,505,0,0,0,0,0,0,0,0,0,-1,552,519,0,0
-665,505,0,0,0,0,0,0,0,0,0,-1,559,519,0,0
-658,505,0,0,0,0,0,0,0,0,0,-1,566,519,0,0
-651,505,0,0,0,0,0,0,0,0,0,-1,573,519,0,0
-644,505,0,0,0,0,0,0,0,0,0,-1,580,519,0,0
-637,505,0,0,0,0,0,0,0,0,0,-1,587,519,0,0
-630,505,0,0,0,0,0,0,0,0,0,-1,594,519,0,0
-623,505,0,0,0,0,0,0,0,0,0,-1,601,519,0,0
-616,505,0,0,0,0,0,0,0,0,0,-1,608,519,0,0
-609,505,0,0,0,0,0,0,0,0,0,-1,615,519,0,0
-602,505,0,0,0,0,0,0,0,0,0,-1,622,519,0,0
-595,505,0,0,0,0,0,0,0,0,0,-1,629,519,0,0
-588,505,0,0,0,0,0,0,0,0,0,-1,636,519,0,0
-581,505,0,0,0,0,0,0,0,0,0,-1,643,519,0,0
-574,505,0,0,0,0,0,0,0,0,0,-1,650,519,0,0
-567,505,0,0,0,0,0,0,0,0,0,-1,657,519,0,0
-560,505,0,0,0,0,0,0,0,0,0,-1,664,519,0,0
-553,505,0,0,0,0,0,0,0,0,0,-1,671,519,0,0
-546,505,0,0,0,0,0,0,0,0,0,-1,678,519,0,0
-539,505,0,0,0,0,0,0,0,0,0,-1,685,519,0,0
-532,505,0,0,0,0,0,0,0,0,0,-1,692,519,0,0
-525,505,0,0,0,0,0,0,0,0,0,-1,699,519,0,0
-518,505,0,0,0,0,0,0,0,0,0,-1,706,519,0,0
-511,505,0,0,0,0,0,0,0,0,0,-1,713,519,0,0
-504,505,0,0,0,0,0,0,0,0,0,-1,720,519,0,0
-497,505,0,0,0,0,0,0,0,0,0,-1,727,519,0,0
-490,505,0,0,0,0,0,0,0,0,0,-1,734,519,0,0
-483,505,0,0,0,0,0,0,0,0,0,-1,741,519,0,0
-476,505,0,0,0,0,0,0,0,0,0,-1,748,519,0,0
-469,505,0,0,0,0,0,0,0,0,0,-1,755,519,0,0
-462,505,0,0,0,0,0,0,0,0,0,-1,762,519,0,0
-455,505,2.72137,-3.26379,0,0,0,0,0,0,0,-1,769,519,2.72135,3.26377
-448,505,2.51111,-3.94989,0,0,0,0,0,0,0,-1,776,519,2.51112,3.94986
-441,505,2.80212,-6.8902,0,0,0,0,0,0,0,-1,783,519,2.80209,6.89019
-434,505,-0.155212,-10.6374,0,0,0,0,0,0,0,-1,790,519,-0.155194,10.6374
-427,505,-0.474426,-10.4702,0,0,0,0,0,0,0,-1,797,519,-0.474433,10.4702
-420,505,-0.922546,-10.1928,0,0,0,0,0,0,0,-1,804,519,-0.92257,10.1928
-413,505,-3.33948,-13.6183,0,0,0,0,0,0,0,-1,811,519,-3.33949,13.6184
-406,505,-3.2439,-18.3408,0,0,0,0,0,0,0,-1,818,519,-3.24389,18.3408
-399,505,-13.6014,-52.9089,0,0,0,0,0,0,0,-1,825,519,-13.6014,52.9089
-392,505,-19.067,-73.9063,0,0,0,0,0,0,0,-1,832,519,-19.0669,73.9063
-385,505,-19.6409,-77.1835,0.00445472,0.0192558,-0.0110184,0.0251283,-0.00141775,-1.08112,0.0172442,0.0251048,839,519,-19.6409,77.1835
-378,505,-20.1738,-79.9925,0.00348102,0.016021,-0.00906663,0.0207745,-0.00127244,-1.08791,0.0142927,0.0192384,846,519,-20.1738,79.9925
-371,505,-20.6783,-82.8296,0.00288909,0.0127784,-0.00721507,0.0165806,-0.000913063,-1.0858,0.0113703,0.0163806,853,519,-20.6783,82.8296
-364,505,-21.1936,-85.5759,0.00256364,0.00971378,-0.00553648,0.0127291,-0.000451722,-1.07208,0.0086406,0.0175155,860,519,-21.1936,85.5759
-357,505,-21.7519,-88.2958,0.00237608,0.00669169,-0.00397937,0.00906064,7.13067e-06,-1.03383,0.00603805,0.0144219,867,519,-21.7519,88.2958
-350,505,-22.2927,-90.9712,0.00230748,0.00401909,-0.00257892,0.0058805,0.000446079,-0.945604,0.00378042,0.0159592,874,519,-22.2926,90.9712
-343,505,-22.8017,-93.6208,0.00240848,0.00154074,-0.00133935,0.00338248,0.000566742,-0.628762,0.00209182,0.016711,881,519,-22.8017,93.6208
-336,505,-23.3033,-96.2892,0.00251774,-0.00088455,-0.000160531,0.0025253,-0.000892107,-0.0470439,0.00204677,0.0191608,888,519,-23.3033,96.2892
-329,505,-23.7551,-98.9963,0.00276801,-0.00288476,0.000934116,0.00291838,-0.00303512,0.159598,0.00343748,0.0273353,895,519,-23.755,98.9962
-322,505,-24.2132,-101.683,0.00318089,-0.00467637,0.0019245,0.00362695,-0.00512242,0.227754,0.00507599,0.0323509,902,519,-24.2132,101.683
-315,505,-24.7581,-104.262,0.00361554,-0.00609242,0.00283868,0.00438465,-0.00686154,0.264589,0.00654527,0.0226309,909,519,-24.7581,104.262
-308,505,-25.3002,-106.845,0.0041457,-0.00712181,0.00366078,0.00523062,-0.00820673,0.288115,0.00782122,0.0175438,916,519,-25.3002,106.845
-301,505,-25.7769,-109.544,0.00471439,-0.00781793,0.00460204,0.00622277,-0.00932631,0.31673,0.00903668,0.0479904,923,519,-25.7769,109.544
-294,505,-26.2109,-111.988,0,0,0,0,0,0,0,-1,930,519,-26.2109,111.988
-287,505,-18.8856,-88.2983,0,0,0,0,0,0,0,-1,937,519,-18.8856,88.2983
-280,505,-16.3037,-81.0037,0,0,0,0,0,0,0,-1,944,519,-16.3037,81.0037
-273,505,-0.0680542,-9.44867,0,0,0,0,0,0,0,-1,951,519,-0.0680462,9.44866
-266,505,-0.036377,-9.07922,0,0,0,0,0,0,0,-1,958,519,-0.0364055,9.0792
-259,505,0.10321,-6.69824,0,0,0,0,0,0,0,-1,965,519,0.103235,6.69826
-252,505,6.82312,-15.6972,0,0,0,0,0,0,0,-1,972,519,6.82314,15.6972
-245,505,4.26727,-12.9861,0,0,0,0,0,0,0,-1,979,519,4.2673,12.9861
-238,505,1.67432,-11.2307,0,0,0,0,0,0,0,-1,986,519,1.67429,11.2307
-231,505,-0.958435,-8.3075,0,0,0,0,0,0,0,-1,993,519,-0.958421,8.30751
-224,505,-1.46399,-33.4399,0,0,0,0,0,0,0,-1,1000,519,-1.46397,33.4399
-217,505,-6.34302,-1.65533,0,0,0,0,0,0,0,-1,1007,519,-6.34299,1.65535
-210,505,-3.06128,-0.396301,0,0,0,0,0,0,0,-1,1014,519,-3.06129,0.396294
-203,505,-4.26465,2.03607,0,0,0,0,0,0,0,-1,1021,519,-4.26462,-2.03606
-196,505,-5.47595,4.27295,0,0,0,0,0,0,0,-1,1028,519,-5.47597,-4.27292
-189,505,1.51526,5.56207,0,0,0,0,0,0,0,-1,1035,519,1.51523,-5.56209
-182,505,2.97815,7.5097,0,0,0,0,0,0,0,-1,1042,519,2.97812,-7.5097
-175,505,-2.38416,-2.17548,0,0,0,0,0,0,0,-1,1049,519,-2.38411,2.1755
-168,505,0,0,0,0,0,0,0,0,0,-1,1056,519,0,0
-161,505,0,0,0,0,0,0,0,0,0,-1,1063,519,0,0
-154,505,0,0,0,0,0,0,0,0,0,-1,1070,519,0,0
-147,505,0,0,0,0,0,0,0,0,0,-1,1077,519,0,0
-140,505,0,0,0,0,0,0,0,0,0,-1,1084,519,0,0
-133,505,0,0,0,0,0,0,0,0,0,-1,1091,519,0,0
-126,505,0,0,0,0,0,0,0,0,0,-1,1098,519,0,0
-119,505,0,0,0,0,0,0,0,0,0,-1,1105,519,0,0
-112,505,0,0,0,0,0,0,0,0,0,-1,1112,519,0,0
-105,505,0,0,0,0,0,0,0,0,0,-1,1119,519,0,0
-98,505,0,0,0,0,0,0,0,0,0,-1,1126,519,0,0
-91,505,0,0,0,0,0,0,0,0,0,-1,1133,519,0,0
-84,505,0,0,0,0,0,0,0,0,0,-1,1140,519,0,0
-77,505,0,0,0,0,0,0,0,0,0,-1,1147,519,0,0
-70,505,0,0,0,0,0,0,0,0,0,-1,1154,519,0,0
-63,505,0,0,0,0,0,0,0,0,0,-1,1161,519,0,0
-56,505,0,0,0,0,0,0,0,0,0,-1,1168,519,0,0
-49,505,0,0,0,0,0,0,0,0,0,-1,1175,519,0,0
-42,505,0,0,0,0,0,0,0,0,0,-1,1182,519,0,0
-35,505,0,0,0,0,0,0,0,0,0,-1,1189,519,0,0
-28,505,0,0,0,0,0,0,0,0,0,-1,1196,519,0,0
-21,505,0,0,0,0,0,0,0,0,0,-1,1203,519,0,0
-14,505,0,0,0,0,0,0,0,0,0,-1,1210,519,0,0
-7,505,0,0,0,0,0,0,0,0,0,-1,1217,519,0,0
0,505,0,0,0,0,0,0,0,0,0,-1,1224,519,0,0
7,505,0,0,0,0,0,0,0,0,0,-1,1231,519,0,0
14,505,0,0,0,0,0,0,0,0,0,-1,1238,519,0,0
21,505,0,0,0,0,0,0,0,0,0,-1,1245,519,0,0
28,505,0,0,0,0,0,0,0,0,0,-1,1252,519,0,0
35,505,0,0,0,0,0,0,0,0,0,-1,1259,519,0,0
42,505,0,0,0,0,0,0,0,0,0,-1,1266,519,0,0
49,505,0,0,0,0,0,0,0,0,0,-1,1273,519,0,0
56,505,0,0,0,0,0,0,0,0,0,-1,1280,519,0,0
63,505,0,0,0,0,0,0,0,0,0,-1,1287,519,0,0
70,505,0,0,0,0,0,0,0,0,0,-1,1294,519,0,0
77,505,0,0,0,0,0,0,0,0,0,-1,1301,519,0,0
84,505,0,0,0,0,0,0,0,0,0,-1,1308,519,0,0
91,505,0,0,0,0,0,0,0,0,0,-1,1315,519,0,0
98,505,0,0,0,0,0,0,0,0,0,-1,1322,519,0,0
105,505,0,0,0,0,0,0,0,0,0,-1,1329,519,0,0
112,505,0,0,0,0,0,0,0,0,0,-1,1336,519,0,0
119,505,0,0,0,0,0,0,0,0,0,-1,1343,519,0,0
126,505,0,0,0,0,0,0,0,0,0,-1,1350,519,0,0
133,505,0,0,0,0,0,0,0,0,0,-1,1357,519,0,0
140,505,0,0,0,0,0,0,0,0,0,-1,1364,519,0,0
147,505,0,0,0,0,0,0,0,0,0,-1,1371,519,0,0
154,505,0,0,0,0,0,0,0,0,0,-1,1378,519,0,0
161,505,0,0,0,0,0,0,0,0,0,-1,1385,519,0,0
168,505,0,0,0,0,0,0,0,0,0,-1,1392,519,0,0
175,505,0,0,0,0,0,0,0,0,0,-1,1399,519,0,0
182,505,0,0,0,0,0,0,0,0,0,-1,1406,519,0,0
189,505,0,0,0,0,0,0,0,0,0,-1,1413,519,0,0
196,505,0,0,0,0,0,0,0,0,0,-1,1420,519,0,0
203,505,0,0,0,0,0,0,0,0,0,-1,1427,519,0,0
210,505,0,0,0,0,0,0,0,0,0,-1,1434,519,0,0
217,505,0,0,0,0,0,0,0,0,0,-1,1441,519,0,0
224,505,0,0,0,0,0,0,0,0,0,-1,1448,519,0,0
231,505,0,0,0,0,0,0,0,0,0,-1,1455,519,0,0
238,505,0,0,0,0,0,0,0,0,0,-1,1462,519,0,0
245,505,0,0,0,0,0,0,0,0,0,-1,1469,519,0,0
252,505,0,0,0,0,0,0,0,0,0,-1,1476,519,0,0
259,505,0,0,0,0,0,0,0,0,0,-1,1483,519,0,0
266,505,0,0,0,0,0,0,0,0,0,-1,1490,519,0,0
273,505,0,0,0,0,0,0,0,0,0,-1,1497,519,0,0
280,505,0,0,0,0,0,0,0,0,0,-1,1504,519,0,0
287,505,4.39478,0.499512,0,0,0,0,0,0,0,-1,1511,519,4.39476,-0.499506
294,505,4.88867,0.0822754,0,0,0,0,0,0,0,-1,1518,519,4.88871,-0.0822748
301,505,4.82153,-0.0704346,0,0,0,0,0,0,0,-1,1525,519,4.82156,0.0704312
308,505,4.67761,-0.29187,0,0,0,0,0,0,0,-1,1532,519,4.67762,0.291845
315,505,8.44055,-6.54352,0,0,0,0,0,0,0,-1,1539,519,8.44059,6.54349
322,505,4.78955,-0.594116,0,0,0,0,0,0,0,-1,1546,519,4.78957,0.594096
329,505,5.16321,0.434631,0,0,0,0,0,0,0,-1,1553,519,5.16316,-0.434614
336,505,4.94495,-0.920471,0,0,0,0,0,0,0,-1,1560,519,4.945,0.920495
343,505,5.01855,-1.4823,0,0,0,0,0,0,0,-1,1567,519,5.01851,1.48227
350,505,5.33154,-1.77838,0,0,0,0,0,0,0,-1,1574,519,5.33152,1.77838
357,505,5.56567,-1.9425,0,0,0,0,0,0,0,-1,1581,519,5.56562,1.94248
364,505,5.85205,-2.6579,0,0,0,0,0,0,0,-1,1588,519,5.85211,2.65788
371,505,5.88477,-7.00922,0,0,0,0,0,0,0,-1,1595,519,5.88473,7.00924
378,505,5.44104,-7.10162,0,0,0,0,0,0,0,-1,1602,519,5.44099,7.10162
385,505,6.64661,-8.65015,0,0,0,0,0,0,0,-1,1609,519,6.64662,8.65014
392,505,6.34558,-8.3429,0,0,0,0,0,0,0,-1,1616,519,6.34554,8.34288
399,505,7.45898,-9.70386,0,0,0,0,0,0,0,-1,1623,519,7.45899,9.70388
406,505,7.08679,-9.4928,0,0,0,0,0,0,0,-1,1630,519,7.08678,9.49278
413,505,8.4032,-14.0308,0,0,0,0,0,0,0,-1,1637,519,8.4032,14.0308
420,505,24.9926,-49.3197,0,0,0,0,0,0,0,-1,1644,519,24.9925,49.3197
427,505,36.6947,-111.022,0,0,0,0,0,0,0,-1,1651,519,36.6947,111.022
434,505,36.2517,-108.624,0.00243661,0.00335061,-0.000260362,0.00341957,0.00236765,-1.31187,0.00202242,0.0489587,1658,519,36.2517,108.624
441,505,35.7583,-105.702,0.00222571,0.00272081,-0.000121118,0.00274885,0.00219767,-1.34328,0.00167927,0.0156603,1665,519,35.7583,105.702
448,505,35.2319,-103.12,0.00206085,0.00224597,0.000186152,0.0023613,0.00194551,1.01611,0.00145554,0.0145744,1672,519,35.2319,103.12
455,505,34.7625,-100.49,0.0019907,0.00199973,0.000514356,0.00250959,0.00148084,0.789788,0.00145673,0.0155726,1679,519,34.7624,100.49
462,505,34.2823,-97.8094,0.00203876,0.00206946,0.000883832,0.00293807,0.00117014,0.794082,0.00170796,0.0144743,1686,519,34.2824,97.8094
469,505,33.7551,-95.1595,0.00216641,0.00224427,0.00136746,0.00357335,0.000837329,0.79963,0.00215797,0.0152417,1693,519,33.7552,95.1595
476,505,33.2512,-92.508,0.00216482,0.00286246,0.00204708,0.00459022,0.000437056,0.869787,0.00292537,0.0184131,1700,519,33.2513,92.508
483,505,32.7749,-89.8334,0.00214859,0.00360466,0.0028852,0.00585227,-9.90159e-05,0.908986,0.00393493,0.0185951,1707,519,32.7749,89.8335
490,505,32.2655,-87.1653,0.0020607,0.00452843,0.00379148,0.00728176,-0.000692628,0.942709,0.00510108,0.0154429,1714,519,32.2655,87.1654
497,505,31.7451,-84.4863,0.00182729,0.00562051,0.00475463,0.00884285,-0.00139505,0.975176,0.00641104,0.0152992,1721,519,31.7451,84.4863
504,505,31.171,-81.7784,0.001539,0.00654479,0.0058248,0.0103817,-0.00229788,0.988319,0.00780072,0.0157298,1728,519,31.171,81.7784
511,505,30.6289,-79.0468,0.00117837,0.00768116,0.00694858,0.0121014,-0.0032419,1.00423,0.00933776,0.0222434,1735,519,30.6289,79.0468
518,505,30.1033,-76.2819,0,0,0,0,0,0,0,-1,1742,519,30.1033,76.2819
525,505,22.7377,-30.1271,0,0,0,0,0,0,0,-1,1749,519,22.7376,30.1271
532,505,20.189,-24.8809,0,0,0,0,0,0,0,-1,1756,519,20.189,24.8808
539,505,13.9879,-13.9018,0,0,0,0,0,0,0,-1,1763,519,13.988,13.9018
546,505,7.94946,-6.64539,0,0,0,0,0,0,0,-1,1770,519,7.94947,6.64539
553,505,2.82837,0.162659,0,0,0,0,0,0,0,-1,1777,519,2.82841,-0.162672
560,505,3.66223,-0.479797,0,0,0,0,0,0,0,-1,1784,519,3.66219,0.47982
567,505,4.65271,-0.950256,0,0,0,0,0,0,0,-1,1791,519,4.65274,0.95028
574,505,5.54443,-1.19977,0,0,0,0,0,0,0,-1,1798,519,5.54443,1.19974
581,505,0,0,0,0,0,0,0,0,0,-1,1805,519,0,0
588,505,0,0,0,0,0,0,0,0,0,-1,1812,519,0,0
595,505,0,0,0,0,0,0,0,0,0,-1,1819,519,0,0
602,505,0,0,0,0,0,0,0,0,0,-1,1826,519,0,0
609,505,0,0,0,0,0,0,0,0,0,-1,1833,519,0,0
616,505,0,0,0,0,0,0,0,0,0,-1,1840,519,0,0
623,505,0,0,0,0,0,0,0,0,0,-1,1847,519,0,0
630,505,0,0,0,0,0,0,0,0,0,-1,1854,519,0,0
637,505,0,0,0,0,0,0,0,0,0,-1,1861,519,0,0
644,505,0,0,0,0,0,0,0,0,0,-1,1868,519,0,0
651,505,0,0,0,0,0,0,0,0,0,-1,1875,519,0,0
658,505,0,0,0,0,0,0,0,0,0,-1,1882,519,0,0
665,505,0,0,0,0,0,0,0,0,0,-1,1889,519,0,0
672,505,0,0,0,0,0,0,0,0,0,-1,1896,519,0,0
679,505,0,0,0,0,0,0,0,0,0,-1,1903,519,0,0
686,505,0,0,0,0,0,0,0,0,0,-1,1910,519,0,0
693,505,0,0,0,0,0,0,0,0,0,-1,1917,519,0,0
700,505,0,0,0,0,0,0,0,0,0,-1,1924,519,0,0
707,505,0,0,0,0,0,0,0,0,0,-1,1931,519,0,0
714,505,0,0,0,0,0,0,0,0,0,-1,1938,519,0,0
721,505,0,0,0,0,0,0,0,0,0,-1,1945,519,0,0
728,505,0,0,0,0,0,0,0,0,0,-1,1952,519,0,0
735,505,0,0,0,0,0,0,0,0,0,-1,1959,519,0,0
742,505,0,0,0,0,0,0,0,0,0,-1,1966,519,0,0
749,505,0,0,0,0,0,0,0,0,0,-1,1973,519,0,0
756,505,0,0,0,0,0,0,0,0,0,-1,1980,519,0,0
763,505,0,0,0,0,0,0,0,0,0,-1,1987,519,0,0
770,505,0,0,0,0,0,0,0,0,0,-1,1994,519,0,0
777,505,0,0,0,0,0,0,0,0,0,-1,2001,519,0,0
784,505,0,0,0,0,0,0,0,0,0,-1,2008,519,0,0
791,505,0,0,0,0,0,0,0,0,0,-1,2015,519,0,0
798,505,0,0,0,0,0,0,0,0,0,-1,2022,519,0,0
805,505,0,0,0,0,0,0,0,0,0,-1,2029,519,0,0
812,505,0,0,0,0,0,0,0,0,0,-1,2036,519,0,0
-700,498,0,0,0,0,0,0,0,0,0,-1,524,526,0,0
-693,498,0,0,0,0,0,0,0,0,0,-1,531,526,0,0
-686,498,0,0,0,0,0,0,0,0,0,-1,538,526,0,0
-679,498,0,0,0,0,0,0,0,0,0,-1,545,526,0,0
-672,498,0,0,0,0,0,0,0,0,0,-1,552,526,0,0
-665,498,0,0,0,0,0,0,0,0,0,-1,559,526,0,0
-658,498,0,0,0,0,0,0,0,0,0,-1,566,526,0,0
-651,498,0,0,0,0,0,0,0,0,0,-1,573,526,0,0
-644,498,0,0,0,0,0,0,0,0,0,-1,580,526,0,0
-637,498,0,0,0,0,0,0,0,0,0,-1,587,526,0,0
-630,498,0,0,0,0,0,0,0,0,0,-1,594,526,0,0
-623,498,0,0,0,0,0,0,0,0,0,-1,601,526,0,0
-616,498,0,0,0,0,0,0,0,0,0,-1,608,526,0,0
-609,498,0,0,0,0,0,0,0,0,0,-1,615,526,0,0
-602,498,0,0,0,0,0,0,0,0,0,-1,622,526,0,0
-595,498,0,0,0,0,0,0,0,0,0,-1,629,526,0,0
-588,498,0,0,0,0,0,0,0,0,0,-1,636,526,0,0
-581,498,0,0,0,0,0,0,0,0,0,-1,643,526,0,0
-574,498,0,0,0,0,0,0,0,0,0,-1,650,526,0,0
-567,498,0,0,0,0,0,0,0,0,0,-1,657,526,0,0
-560,498,0,0,0,0,0,0,0,0,0,-1,664,526,0,0
-553,498,0,0,0,0,0,0,0,0,0,-1,671,526,0,0
-546,498,0,0,0,0,0,0,0,0,0,-1,678,526,0,0
-539,498,0,0,0,0,0,0,0,0,0,-1,685,526,0,0
-532,498,0,0,0,0,0,0,0,0,0,-1,692,526,0,0
-525,498,0,0,0,0,0,0,0,0,0,-1,699,526,0,0
-518,498,0,0,0,0,0,0,0,0,0,-1,706,526,0,0
-511,498,0,0,0,0,0,0,0,0,0,-1,713,526,0,0
-504,498,0,0,0,0,0,0,0,0,0,-1,720,526,0,0
-497,498,0,0,0,0,0,0,0,0,0,-1,727,526,0,0
-490,498,0,0,0,0,0,0,0,0,0,-1,734,526,0,0
-483,498,0,0,0,0,0,0,0,0,0,-1,741,526,0,0
-476,498,0,0,0,0,0,0,0,0,0,-1,748,526,0,0
-469,498,0,0,0,0,0,0,0,0,0,-1,755,526,0,0
-462,498,6.81024,1.15515,0,0,0,0,0,0,0,-1,762,526,6.81026,-1.15514
-455,498,3.25757,-3.0592,0,0,0,0,0,0,0,-1,769,526,3.25754,3.05921
-448,498,3.05939,-3.74298,0,0,0,0,0,0,0,-1,776,526,3.05939,3.74296
-441,498,2.77191,-6.08209,0,0,0,0,0,0,0,-1,783,526,2.77189,6.08207
-434,498,2.10681,-6.95929,0,0,0,0,0,0,0,-1,790,526,2.10682,6.9593
-427,498,-0.368042,-10.7726,0,0,0,0,0,0,0,-1,797,526,-0.36807,10.7726
-420,498,-1.05035,-10.5142,0,0,0,0,0,0,0,-1,804,526,-1.05034,10.5142
-413,498,-4.52112,-18.8354,0,0,0,0,0,0,0,-1,811,526,-4.52111,18.8354
-406,498,-11.5986,-39.3751,0,0,0,0,0,0,0,-1,818,526,-11.5986,39.3751
-399,498,-21.2539,-71.103,0,0,0,0,0,0,0,-1,825,526,-21.2539,71.103
-392,498,-21.7919,-73.9197,0.00477344,0.0168943,-0.0103289,0.0228095,-0.00114168,-1.05071,0.0156008,0.0440393,832,526,-21.7919,73.9197
-385,498,-22.2886,-76.7877,0.00389379,0.0139843,-0.0084618,0.0187908,-0.000912693,-1.05422,0.0128422,0.0171572,839,526,-22.2887,76.7877
-378,498,-22.8347,-79.5925,0.00329071,0.0112198,-0.00683123,0.0151535,-0.000643066,-1.04832,0.0103234,0.0119352,846,526,-22.8347,79.5925
-371,498,-23.3477,-82.3411,0.00288869,0.00843274,-0.00522803,0.0115782,-0.000256755,-1.02916,0.00780578,0.0182888,853,526,-23.3476,82.341
-364,498,-23.9067,-85.0834,0.00268598,0.00576712,-0.00374986,0.00828054,0.000172567,-0.980303,0.00546374,0.0187674,860,526,-23.9067,85.0834
-357,498,-24.4348,-87.7795,0.00260413,0.00309301,-0.00234411,0.00520539,0.000491746,-0.83735,0.00331851,0.0140649,867,526,-24.4348,87.7795
-350,498,-24.9283,-90.4265,0.00263843,0.000746289,-0.00107636,0.0031254,0.000259319,-0.424866,0.00200276,0.0160934,874,526,-24.9283,90.4265
-343,498,-25.4637,-93.1381,0.00278781,-0.00149725,7.61847e-05,0.00278916,-0.00149861,0.0177717,0.00251264,0.0198132,881,526,-25.4637,93.1381
-336,498,-25.9498,-95.8264,0.00292633,-0.00365191,0.00115317,0.00312262,-0.0038482,0.168605,0.00403187,0.0243051,888,526,-25.9498,95.8264
-329,498,-26.3561,-98.4835,0.00319688,-0.00543379,0.00214618,0.00370111,-0.00593801,0.230758,0.00561488,0.0334651,895,526,-26.3561,98.4835
-322,498,-26.8543,-101.096,0.00361922,-0.00702628,0.00304474,0.00442853,-0.00783559,0.259797,0.00717119,0.0352038,902,526,-26.8543,101.096
-315,498,-27.4334,-103.688,0.00408681,-0.00818543,0.00380397,0.00517026,-0.00926888,0.277473,0.00844764,0.0278182,909,526,-27.4334,103.688
-308,498,-27.9698,-106.265,0.00465197,-0.00891334,0.0044197,0.00596488,-0.0102263,0.288756,0.00945526,0.0451699,916,526,-27.9699,106.265
-301,498,-28.4587,-108.921,0,0,0,0,0,0,0,-1,923,526,-28.4587,108.921
-294,498,-17.9421,-77.6995,0,0,0,0,0,0,0,-1,930,526,-17.9421,77.6995
-287,498,-0.91394,-13.4327,0,0,0,0,0,0,0,-1,937,526,-0.913935,13.4327
-280,498,-0.341614,-8.66608,0,0,0,0,0,0,0,-1,944,526,-0.341589,8.66606
-273,498,-0.988892,-8.62921,0,0,0,0,0,0,0,-1,951,526,-0.988906,8.62922
-266,498,0.362488,-6.33545,0,0,0,0,0,0,0,-1,958,526,0.362478,6.33547
-259,498,10.9454,-17.3615,0,0,0,0,0,0,0,-1,965,526,10.9454,17.3614
-252,498,8.56586,-14.6886,0,0,0,0,0,0,0,-1,972,526,8.56584,14.6886
-245,498,5.97382,-11.928,0,0,0,0,0,0,0,-1,979,526,5.97381,11.928
-238,498,2.24841,-13.8145,0,0,0,0,0,0,0,-1,986,526,2.24838,13.8145
-231,498,0.665894,-10.4898,0,0,0,0,0,0,0,-1,993,526,0.665863,10.4898
-224,498,-2.11243,-4.76312,0,0,0,0,0,0,0,-1,1000,526,-2.11245,4.76314
-217,498,-3.82239,-1.42841,0,0,0,0,0,0,0,-1,1007,526,-3.82241,1.42843
-210,498,-1.80591,-0.358215,0,0,0,0,0,0,0,-1,1014,526,-1.8059,0.3582
-203,498,-3.17316,1.06641,0,0,0,0,0,0,0,-1,1021,526,-3.17313,-1.0664
-196,498,-0.103271,5.40527,0,0,0,0,0,0,0,-1,1028,526,-0.103285,-5.40528
-189,498,3.00256,6.47137,0,0,0,0,0,0,0,-1,1035,526,3.00256,-6.47139
-182,498,0,0,0,0,0,0,0,0,0,-1,1042,526,0,0
-175,498,0,0,0,0,0,0,0,0,0,-1,1049,526,0,0
-168,498,0,0,0,0,0,0,0,0,0,-1,1056,526,0,0
-161,498,0,0,0,0,0,0,0,0,0,-1,1063,526,0,0
-154,498,0,0,0,0,0,0,0,0,0,-1,1070,526,0,0
-147,498,0,0,0,0,0,0,0,0,0,-1,1077,526,0,0
-140,498,0,0,0,0,0,0,0,0,0,-1,1084,526,0,0
-133,498,0,0,0,0,0,0,0,0,0,-1,1091,526,0,0
-126,498,0,0,0,0,0,0,0,0,0,-1,1098,526,0,0
-119,498,0,0,0,0,0,0,0,0,0,-1,1105,526,0,0
-112,498,0,0,0,0,0,0,0,0,0,-1,1112,526,0,0
-105,498,0,0,0,0,0,0,0,0,0,-1,1119,526,0,0
-98,498,0,0,0,0,0,0,0,0,0,-1,1126,526,0,0
-91,498,0,0,0,0,0,0,0,0,0,-1,1133,526,0,0
-84,498,0,0,0,0,0,0,0,0,0,-1,1140,526,0,0
-77,498,0,0,0,0,0,0,0,0,0,-1,1147,526,0,0
-70,498,0,0,0,0,0,0,0,0,0,-1,1154,526,0,0
-63,498,0,0,0,0,0,0,0,0,0,-1,1161,526,0,0
-56,498,0,0,0,0,0,0,0,0,0,-1,1168,526,0,0
-49,498,0,0,0,0,0,0,0,0,0,-1,1175,526,0,0
-42,498,0,0,0,0,0,0,0,0,0,-1,1182,526,0,0
-35,498,0,0,0,0,0,0,0,0,0,-1,1189,526,0,0
-28,498,0,0,0,0,0,0,0,0,0,-1,1196,526,0,0
-21,498,0,0,0,0,0,0,0,0,0,-1,1203,526,0,0
-14,498,0,0,0,0,0,0,0,0,0,-1,1210,526,0,0
-7,498,0,0,0,0,0,0,0,0,0,-1,1217,526,0,0
0,498,0,0,0,0,0,0,0,0,0,-1,1224,526,0,0
7,498,0,0,0,0,0,0,0,0,0,-1,1231,526,0,0
14,498,0,0,0,0,0,0,0,0,0,-1,1238,526,0,0
21,498,0,0,0,0,0,0,0,0,0,-1,1245,526,0,0
28,498,0,0,0,0,0,0,0,0,0,-1,1252,526,0,0
35,498,0,0,0,0,0,0,0,0,0,-1,1259,526,0,0
42,498,0,0,0,0,0,0,0,0,0,-1,1266,526,0,0
49,498,0,0,0,0,0,0,0,0,0,-1,1273,526,0,0
56,498,0,0,0,0,0,0,0,0,0,-1,1280,526,0,0
63,498,0,0,0,0,0,0,0,0,0,-1,1287,526,0,0
70,498,0,0,0,0,0,0,0,0,0,-1,1294,526,0,0
77,498,0,0,0,0,0,0,0,0,0,-1,1301,526,0,0
84,498,0,0,0,0,0,0,0,0,0,-1,1308,526,0,0
91,498,0,0,0,0,0,0,0,0,0,-1,1315,526,0,0
98,498,0,0,0,0,0,0,0,0,0,-1,1322,526,0,0
105,498,0,0,0,0,0,0,0,0,0,-1,1329,526,0,0
112,498,0,0,0,0,0,0,0,0,0,-1,1336,526,0,0
119,498,0,0,0,0,0,0,0,0,0,-1,1343,526,0,0
126,498,0,0,0,0,0,0,0,0,0,-1,1350,526,0,0
133,498,0,0,0,0,0,0,0,0,0,-1,1357,526,0,0
140,498,0,0,0,0,0,0,0,0,0,-1,1364,526,0,0
147,498,0,0,0,0,0,0,0,0,0,-1,1371,526,0,0
154,498,0,0,0,0,0,0,0,0,0,-1,1378,526,0,0
161,498,0,0,0,0,0,0,0,0,0,-1,1385,526,0,0
168,498,0,0,0,0,0,0,0,0,0,-1,1392,526,0,0
175,498,0,0,0,0,0,0,0,0,0,-1,1399,526,0,0
182,498,0,0,0,0,0,0,0,0,0,-1,1406,526,0,0
189,498,0,0,0,0,0,0,0,0,0,-1,1413,526,0,0
196,498,0,0,0,0,0,0,0,0,0,-1,1420,526,0,0
203,498,0,0,0,0,0,0,0,0,0,-1,1427,526,0,0
210,498,0,0,0,0,0,0,0,0,0,-1,1434,526,0,0
217,498,0,0,0,0,0,0,0,0,0,-1,1441,526,0,0
224,498,0,0,0,0,0,0,0,0,0,-1,1448,526,0,0
231,498,0,0,0,0,0,0,0,0,0,-1,1455,526,0,0
238,498,0,0,0,0,0,0,0,0,0,-1,1462,526,0,0
245,498,0,0,0,0,0,0,0,0,0,-1,1469,526,0,0
252,498,0,0,0,0,0,0,0,0,0,-1,1476,526,0,0
259,498,0,0,0,0,0,0,0,0,0,-1,1483,526,0,0
266,498,0,0,0,0,0,0,0,0,0,-1,1490,526,0,0
273,498,0,0,0,0,0,0,0,0,0,-1,1497,526,0,0
280,498,0,0,0,0,0,0,0,0,0,-1,1504,526,0,0
287,498,0,0,0,0,0,0,0,0,0,-1,1511,526,0,0
294,498,0,0,0,0,0,0,0,0,0,-1,1518,526,0,0
301,498,0,0,0,0,0,0,0,0,0,-1,1525,526,0,0
308,498,4.77942,-0.293884,0,0,0,0,0,0,0,-1,1532,526,4.77939,0.293899
315,498,4.56091,-0.564148,0,0,0,0,0,0,0,-1,1539,526,4.56097,0.564142
322,498,4.52344,-0.447266,0,0,0,0,0,0,0,-1,1546,526,4.52341,0.447295
329,498,4.63232,-0.156982,0,0,0,0,0,0,0,-1,1553,526,4.63238,0.156991
336,498,5.22644,0.0925903,0,0,0,0,0,0,0,-1,1560,526,5.22648,-0.0926188
343,498,6.22607,-1.67615,0,0,0,0,0,0,0,-1,1567,526,6.22605,1.67617
350,498,6.19373,-1.59906,0,0,0,0,0,0,0,-1,1574,526,6.19367,1.59906
357,498,6.21472,-1.58929,0,0,0,0,0,0,0,-1,1581,526,6.21476,1.58927
364,498,5.73547,-1.2019,0,0,0,0,0,0,0,-1,1588,526,5.73547,1.20192
371,498,3.27087,-4.55334,0,0,0,0,0,0,0,-1,1595,526,3.27089,4.55332
378,498,8.42944,-4.70624,0,0,0,0,0,0,0,-1,1602,526,8.42942,4.70624
385,498,4.7793,-5.15314,0,0,0,0,0,0,0,-1,1609,526,4.77935,5.15311
392,498,9.12439,-8.57953,0,0,0,0,0,0,0,-1,1616,526,9.12443,8.57955
399,498,7.98938,-9.46021,0,0,0,0,0,0,0,-1,1623,526,7.98936,9.4602
406,498,7.58081,-9.26819,0,0,0,0,0,0,0,-1,1630,526,7.58085,9.26817
413,498,7.17236,-9.07611,0,0,0,0,0,0,0,-1,1637,526,7.17234,9.07614
420,498,11.4314,-16.1147,0,0,0,0,0,0,0,-1,1644,526,11.4313,16.1147
427,498,24.2933,-44.8103,0,0,0,0,0,0,0,-1,1651,526,24.2933,44.8103
434,498,38.8114,-108.394,0,0,0,0,0,0,0,-1,1658,526,38.8114,108.394
441,498,38.363,-105.203,0,0,0,0,0,0,0,-1,1665,526,38.3631,105.203
448,498,37.9047,-102.555,0.00158068,0.00244335,-0.000359252,0.00257337,0.00145066,-1.22356,0.00148975,0.0215132,1672,526,37.9047,102.555
455,498,37.3779,-99.9619,0.00167981,0.00168946,-0.000282184,0.00196686,0.00140241,-0.793947,0.00116941,0.0186808,1679,526,37.3779,99.9619
462,498,36.9027,-97.3021,0.00190276,0.00139872,-7.20468e-05,0.00191285,0.00138862,-0.139225,0.00114135,0.0195584,1686,526,36.9027,97.3021
469,498,36.4004,-94.6422,0.00214142,0.00124522,0.000301368,0.00223333,0.0011533,0.296031,0.00128965,0.0188758,1693,526,36.4004,94.6422
476,498,35.9553,-92.0042,0.0022147,0.00166674,0.000894351,0.00287609,0.00100534,0.636765,0.00168538,0.016228,1700,526,35.9553,92.0042
483,498,35.438,-89.4006,0.00224673,0.00224217,0.00167022,0.00391468,0.000574226,0.784716,0.00244099,0.0121282,1707,526,35.438,89.4006
490,498,34.8866,-86.6978,0.00214719,0.00292922,0.00245547,0.00502462,5.1795e-05,0.864357,0.00333261,0.0136269,1714,526,34.8865,86.6978
497,498,34.3669,-83.9766,0.00192129,0.00393142,0.00337742,0.00645015,-0.000597435,0.930018,0.00451245,0.0150221,1721,526,34.3669,83.9766
504,498,33.8469,-81.2802,0.00169259,0.00482904,0.00441471,0.00794579,-0.00142416,0.95606,0.00583018,0.0173324,1728,526,33.8469,81.2802
511,498,33.2787,-78.5554,0.00138612,0.00586279,0.00539746,0.00946763,-0.00221872,0.981956,0.00716673,0.0198911,1735,526,33.2787,78.5553
518,498,32.8434,-75.9687,0,0,0,0,0,0,0,-1,1742,526,32.8434,75.9687
525,498,32.2467,-73.0319,0,0,0,0,0,0,0,-1,1749,526,32.2468,73.0319
532,498,26.9988,-39.1529,0,0,0,0,0,0,0,-1,1756,526,26.9987,39.1529
539,498,21.764,-25.5663,0,0,0,0,0,0,0,-1,1763,526,21.764,25.5663
546,498,10.2014,-8.47589,0,0,0,0,0,0,0,-1,1770,526,10.2014,8.47589
553,498,5.93958,-1.71448,0,0,0,0,0,0,0,-1,1777,526,5.93956,1.71447
560,498,3.69385,-0.615112,0,0,0,0,0,0,0,-1,1784,526,3.69381,0.615118
567,498,5.12695,-0.581604,0,0,0,0,0,0,0,-1,1791,526,5.12699,0.58159
574,498,3.88,0.0286255,0,0,0,0,0,0,0,-1,1798,526,3.87999,-0.0286535
581,498,10.8722,2.58551,0,0,0,0,0,0,0,-1,1805,526,10.8723,-2.58551
588,498,0,0,0,0,0,0,0,0,0,-1,1812,526,0,0
595,498,0,0,0,0,0,0,0,0,0,-1,1819,526,0,0
602,498,0,0,0,0,0,0,0,0,0,-1,1826,526,0,0
609,498,0,0,0,0,0,0,0,0,0,-1,1833,526,0,0
616,498,0,0,0,0,0,0,0,0,0,-1,1840,526,0,0
623,498,0,0,0,0,0,0,0,0,0,-1,1847,526,0,0
630,498,0,0,0,0,0,0,0,0,0,-1,1854,526,0,0
637,498,0,0,0,0,0,0,0,0,0,-1,1861,526,0,0
644,498,0,0,0,0,0,0,0,0,0,-1,1868,526,0,0
651,498,0,0,0,0,0,0,0,0,0,-1,1875,526,0,0
658,498,0,0,0,0,0,0,0,0,0,-1,1882,526,0,0
665,498,0,0,0,0,0,0,0,0,0,-1,1889,526,0,0
672,498,0,0,0,0,0,0,0,0,0,-1,1896,526,0,0
679,498,0,0,0,0,0,0,0,0,0,-1,1903,526,0,0
686,498,0,0,0,0,0,0,0,0,0,-1,1910,526,0,0
693,498,0,0,0,0,0,0,0,0,0,-1,1917,526,0,0
700,498,0,0,0,0,0,0,0,0,0,-1,1924,526,0,0
707,498,0,0,0,0,0,0,0,0,0,-1,1931,526,0,0
714,498,0,0,0,0,0,0,0,0,0,-1,1938,526,0,0
721,498,0,0,0,0,0,0,0,0,0,-1,1945,526,0,0
728,498,0,0,0,0,0,0,0,0,0,-1,1952,526,0,0
735,498,0,0,0,0,0,0,0,0,0,-1,1959,526,0,0
742,498,0,0,0,0,0,0,0,0,0,-1,1966,526,0,0
749,498,0,0,0,0,0,0,0,0,0,-1,1973,526,0,0
756,498,0,0,0,0,0,0,0,0,0,-1,1980,526,0,0
763,498,0,0,0,0,0,0,0,0,0,-1,1987,526,0,0
770,498,0,0,0,0,0,0,0,0,0,-1,1994,526,0,0
777,498,0,0,0,0,0,0,0,0,0,-1,2001,526,0,0
784,498,0,0,0,0,0,0,0,0,0,-1,2008,526,0,0
791,498,0,0,0,0,0,0,0,0,0,-1,2015,526,0,0
798,498,0,0,0,0,0,0,0,0,0,-1,2022,526,0,0
805,498,0,0,0,0,0,0,0,0,0,-1,2029,526,0,0
812,498,0,0,0,0,0,0,0,0,0,-1,2036,526,0,0
-700,491,0,0,0,0,0,0,0,0,0,-1,524,533,0,0
-693,491,0,0,0,0,0,0,0,0,0,-1,531,533,0,0
-686,491,0,0,0,0,0,0,0,0,0,-1,538,533,0,0
-679,491,0,0,0,0,0,0,0,0,0,-1,545,533,0,0
-672,491,0,0,0,0,0,0,0,0,0,-1,552,533,0,0
-665,491,0,0,0,0,0,0,0,0,0,-1,559,533,0,0
-658,491,0,0,0,0,0,0,0,0,0,-1,566,533,0,0
-651,491,0,0,0,0,0,0,0,0,0,-1,573,533,0,0
-644,491,0,0,0,0,0,0,0,0,0,-1,580,533,0,0
-637,491,0,0,0,0,0,0,0,0,0,-1,587,533,0,0
-630,491,0,0,0,0,0,0,0,0,0,-1,594,533,0,0
-623,491,0,0,0,0,0,0,0,0,0,-1,601,533,0,0
-616,491,0,0,0,0,0,0,0,0,0,-1,608,533,0,0
-609,491,0,0,0,0,0,0,0,0,0,-1,615,533,0,0
-602,491,0,0,0,0,0,0,0,0,0,-1,622,533,0,0
-595,491,0,0,0,0,0,0,0,0,0,-1,629,533,0,0
-588,491,0,0,0,0,0,0,0,0,0,-1,636,533,0,0
-581,491,0,0,0,0,0,0,0,0,0,-1,643,533,0,0
-574,491,0,0,0,0,0,0,0,0,0,-1,650,533,0,0
-567,491,0,0,0,0,0,0,0,0,0,-1,657,533,0,0
-560,491,0,0,0,0,0,0,0,0,0,-1,664,533,0,0
-553,491,0,0,0,0,0,0,0,0,0,-1,671,533,0,0
-546,491,0,0,0,0,0,0,0,0,0,-1,678,533,0,0
-539,491,0,0,0,0,0,0,0,0,0,-1,685,533,0,0
-532,491,0,0,0,0,0,0,0,0,0,-1,692,533,0,0
-525,491,0,0,0,0,0,0,0,0,0,-1,699,533,0,0
-518,491,0,0,0,0,0,0,0,0,0,-1,706,533,0,0
-511,491,0,0,0,0,0,0,0,0,0,-1,713,533,0,0
-504,491,0,0,0,0,0,0,0,0,0,-1,720,533,0,0
-497,491,0,0,0,0,0,0,0,0,0,-1,727,533,0,0
-490,491,0,0,0,0,0,0,0,0,0,-1,734,533,0,0
-483,491,0,0,0,0,0,0,0,0,0,-1,741,533,0,0
-476,491,0,0,0,0,0,0,0,0,0,-1,748,533,0,0
-469,491,-5.85913,4.55011,0,0,0,0,0,0,0,-1,755,533,-5.8591,-4.55009
-462,491,-9.93713,4.90381,0,0,0,0,0,0,0,-1,762,533,-9.93716,-4.9038
-455,491,1.9494,-0.27887,0,0,0,0,0,0,0,-1,769,533,1.94941,0.27885
-448,491,2.68909,-1.8999,0,0,0,0,0,0,0,-1,776,533,2.6891,1.89988
-441,491,3.46069,-3.51855,0,0,0,0,0,0,0,-1,783,533,3.46071,3.51854
-434,491,2.67145,-7.44061,0,0,0,0,0,0,0,-1,790,533,2.67146,7.44061
-427,491,2.27136,-8.34546,0,0,0,0,0,0,0,-1,797,533,2.27136,8.34546
-420,491,-6.41321,-22.5922,0,0,0,0,0,0,0,-1,804,533,-6.41323,22.5922
-413,491,-12.8848,-37.5042,0,0,0,0,0,0,0,-1,811,533,-12.8847,37.5042
-406,491,-23.1039,-67.1771,0,0,0,0,0,0,0,-1,818,533,-23.1039,67.1771
-399,491,-23.8859,-71.0352,0,0,0,0,0,0,0,-1,825,533,-23.8859,71.0352
-392,491,-24.4621,-73.7742,0.00373148,0.0120582,-0.0076416,0.016597,-0.000807337,-1.03483,0.0113433,0.0240151,832,533,-24.4621,73.7742
-385,491,-24.9315,-76.403,0.00332339,0.00959514,-0.00618343,0.0133924,-0.00047388,-1.02007,0.00909035,0.011101,839,533,-24.9315,76.403
-378,491,-25.4798,-79.0889,0.00303937,0.00720556,-0.00482614,0.010379,-0.000134046,-0.989134,0.00696443,0.0148536,846,533,-25.4798,79.0889
-371,491,-26.0265,-81.799,0.0028287,0.00475158,-0.0034504,0.00737198,0.000208297,-0.921275,0.00484672,0.0171727,853,533,-26.0265,81.799
-364,491,-26.5981,-84.5404,0.00275139,0.0024031,-0.00214988,0.00473417,0.000420327,-0.744985,0.00302575,0.016936,860,533,-26.5981,84.5404
-357,491,-27.0981,-87.2007,0.00274959,2.55787e-05,-0.000878733,0.00300846,-0.000233289,-0.286488,0.00208775,0.0158164,867,533,-27.0981,87.2008
-350,491,-27.5826,-89.8286,0.00284233,-0.00205295,0.00028275,0.00285861,-0.00206923,0.0575048,0.00285723,0.0191444,874,533,-27.5826,89.8286
-343,491,-28.106,-92.5584,0.00297461,-0.00410203,0.00139334,0.00323907,-0.00436648,0.187569,0.00440712,0.0300229,881,533,-28.106,92.5584
-336,491,-28.6033,-95.2231,0.00306664,-0.00597722,0.00241381,0.00367056,-0.00658114,0.24516,0.00599781,0.0318681,888,533,-28.6033,95.2231
-329,491,-29.0299,-97.8153,0.00323731,-0.00754856,0.00336138,0.00419911,-0.00851036,0.278685,0.00747722,0.0340111,895,533,-29.0299,97.8153
-322,491,-29.4936,-100.424,0.00350548,-0.00896011,0.00425812,0.00482115,-0.0102758,0.299674,0.00890384,0.0335713,902,533,-29.4936,100.424
-315,491,-30.1127,-103.073,0,0,0,0,0,0,0,-1,909,533,-30.1126,103.073
-308,491,-30.6677,-105.816,0,0,0,0,0,0,0,-1,916,533,-30.6677,105.816
-301,491,-6.54926,-39.0012,0,0,0,0,0,0,0,-1,923,533,-6.54927,39.0012
-294,491,-0.777283,-8.60913,0,0,0,0,0,0,0,-1,930,533,-0.777288,8.6091
-287,491,-0.26123,-8.69055,0,0,0,0,0,0,0,-1,937,533,-0.261204,8.69053
-280,491,0.2948,-5.99219,0,0,0,0,0,0,0,-1,944,533,0.294811,5.99221
-273,491,0.369995,-5.33691,0,0,0,0,0,0,0,-1,951,533,0.369985,5.33693
-266,491,1.1167,-5.0321,0,0,0,0,0,0,0,-1,958,533,1.11668,5.0321
-259,491,12.0862,-16.9615,0,0,0,0,0,0,0,-1,965,533,12.0862,16.9615
-252,491,9.72443,-13.8417,0,0,0,0,0,0,0,-1,972,533,9.72444,13.8418
-245,491,5.27258,-14.3619,0,0,0,0,0,0,0,-1,979,533,5.27255,14.3619
-238,491,3.65381,-11.1472,0,0,0,0,0,0,0,-1,986,533,3.6538,11.1472
-231,491,2.17719,-7.86835,0,0,0,0,0,0,0,-1,993,533,2.17719,7.86832
-224,491,0.554626,-4.61725,0,0,0,0,0,0,0,-1,1000,533,0.554608,4.61727
-217,491,-2.92743,-1.0766,0,0,0,0,0,0,0,-1,1007,533,-2.92743,1.07659
-210,491,-0.92395,0.374512,0,0,0,0,0,0,0,-1,1014,533,-0.923959,-0.374531
-203,491,0.417419,4.77161,0,0,0,0,0,0,0,-1,1021,533,0.417446,-4.77162
-196,491,0,0,0,0,0,0,0,0,0,-1,1028,533,0,0
-189,491,0,0,0,0,0,0,0,0,0,-1,1035,533,0,0
-182,491,0,0,0,0,0,0,0,0,0,-1,1042,533,0,0
-175,491,0,0,0,0,0,0,0,0,0,-1,1049,533,0,0
-168,491,0,0,0,0,0,0,0,0,0,-1,1056,533,0,0
-161,491,0,0,0,0,0,0,0,0,0,-1,1063,533,0,0
-154,491,0,0,0,0,0,0,0,0,0,-1,1070,533,0,0
-147,491,0,0,0,0,0,0,0,0,0,-1,1077,533,0,0
-140,491,0,0,0,0,0,0,0,0,0,-1,1084,533,0,0
-133,491,0,0,0,0,0,0,0,0,0,-1,1091,533,0,0
-126,491,0,0,0,0,0,0,0,0,0,-1,1098,533,0,0
-119,491,0,0,0,0,0,0,0,0,0,-1,1105,533,0,0
-112,491,0,0,0,0,0,0,0,0,0,-1,1112,533,0,0
-105,491,0,0,0,0,0,0,0,0,0,-1,1119,533,0,0
-98,491,0,0,0,0,0,0,0,0,0,-1,1126,533,0,0
-91,491,0,0,0,0,0,0,0,0,0,-1,1133,533,0,0
-84,491,0,0,0,0,0,0,0,0,0,-1,1140,533,0,0
-77,491,0,0,0,0,0,0,0,0,0,-1,1147,533,0,0
-70,491,0,0,0,0,0,0,0,0,0,-1,1154,533,0,0
-63,491,0,0,0,0,0,0,0,0,0,-1,1161,533,0,0
-56,491,0,0,0,0,0,0,0,0,0,-1,1168,533,0,0
-49,491,0,0,0,0,0,0,0,0,0,-1,1175,533,0,0
-42,491,0,0,0,0,0,0,0,0,0,-1,1182,533,0,0
-35,491,0,0,0,0,0,0,0,0,0,-1,1189,533,0,0
-28,491,0,0,0,0,0,0,0,0,0,-1,1196,533,0,0
-21,491,0,0,0,0,0,0,0,0,0,-1,1203,533,0,0
-14,491,0,0,0,0,0,0,0,0,0,-1,1210,533,0,0
-7,491,0,0,0,0,0,0,0,0,0,-1,1217,533,0,0
0,491,0,0,0,0,0,0,0,0,0,-1,1224,533,0,0
7,491,0,0,0,0,0,0,0,0,0,-1,1231,533,0,0
14,491,0,0,0,0,0,0,0,0,0,-1,1238,533,0,0
21,491,0,0,0,0,0,0,0,0,0,-1,1245,533,0,0
28,491,0,0,0,0,0,0,0,0,0,-1,1252,533,0,0
35,491,0,0,0,0,0,0,0,0,0,-1,1259,533,0,0
42,491,0,0,0,0,0,0,0,0,0,-1,1266,533,0,0
49,491,0,0,0,0,0,0,0,0,0,-1,1273,533,0,0
56,491,0,0,0,0,0,0,0,0,0,-1,1280,533,0,0
63,491,0,0,0,0,0,0,0,0,0,-1,1287,533,0,0
70,491,0,0,0,0,0,0,0,0,0,-1,1294,533,0,0
77,491,0,0,0,0,0,0,0,0,0,-1,1301,533,0,0
84,491,0,0,0,0,0,0,0,0,0,-1,1308,533,0,0
91,491,0,0,0,0,0,0,0,0,0,-1,1315,533,0,0
98,491,0,0,0,0,0,0,0,0,0,-1,1322,533,0,0
105,491,0,0,0,0,0,0,0,0,0,-1,1329,533,0,0
112,491,0,0,0,0,0,0,0,0,0,-1,1336,533,0,0
119,491,0,0,0,0,0,0,0,0,0,-1,1343,533,0,0
126,491,0,0,0,0,0,0,0,0,0,-1,1350,533,0,0
133,491,0,0,0,0,0,0,0,0,0,-1,1357,533,0,0
140,491,0,0,0,0,0,0,0,0,0,-1,1364,533,0,0
147,491,0,0,0,0,0,0,0,0,0,-1,1371,533,0,0
154,491,0,0,0,0,0,0,0,0,0,-1,1378,533,0,0
161,491,0,0,0,0,0,0,0,0,0,-1,1385,533,0,0
168,491,0,0,0,0,0,0,0,0,0,-1,1392,533,0,0
175,491,0,0,0,0,0,0,0,0,0,-1,1399,533,0,0
182,491,0,0,0,0,0,0,0,0,0,-1,1406,533,0,0
189,491,0,0,0,0,0,0,0,0,0,-1,1413,533,0,0
196,491,0,0,0,0,0,0,0,0,0,-1,1420,533,0,0
203,491,0,0,0,0,0,0,0,0,0,-1,1427,533,0,0
210,491,0,0,0,0,0,0,0,0,0,-1,1434,533,0,0
217,491,0,0,0,0,0,0,0,0,0,-1,1441,533,0,0
224,491,0,0,0,0,0,0,0,0,0,-1,1448,533,0,0
231,491,0,0,0,0,0,0,0,0,0,-1,1455,533,0,0
238,491,0,0,0,0,0,0,0,0,0,-1,1462,533,0,0
245,491,0,0,0,0,0,0,0,0,0,-1,1469,533,0,0
252,491,0,0,0,0,0,0,0,0,0,-1,1476,533,0,0
259,491,0,0,0,0,0,0,0,0,0,-1,1483,533,0,0
266,491,0,0,0,0,0,0,0,0,0,-1,1490,533,0,0
273,491,0,0,0,0,0,0,0,0,0,-1,1497,533,0,0
280,491,0,0,0,0,0,0,0,0,0,-1,1504,533,0,0
287,491,0,0,0,0,0,0,0,0,0,-1,1511,533,0,0
294,491,0,0,0,0,0,0,0,0,0,-1,1518,533,0,0
301,491,0,0,0,0,0,0,0,0,0,-1,1525,533,0,0
308,491,0,0,0,0,0,0,0,0,0,-1,1532,533,0,0
315,491,0,0,0,0,0,0,0,0,0,-1,1539,533,0,0
322,491,4.26331,-0.734314,0,0,0,0,0,0,0,-1,1546,533,4.26326,0.734324
329,491,4.25354,-0.783752,0,0,0,0,0,0,0,-1,1553,533,4.25359,0.783734
336,491,4.81604,-0.722107,0,0,0,0,0,0,0,-1,1560,533,4.81605,0.722115
343,491,6.14478,-1.44281,0,0,0,0,0,0,0,-1,1567,533,6.14474,1.44281
350,491,6.36353,-1.30792,0,0,0,0,0,0,0,-1,1574,533,6.36352,1.3079
357,491,6.69482,-1.06018,0,0,0,0,0,0,0,-1,1581,533,6.69489,1.06018
364,491,8.01086,-1.69604,0,0,0,0,0,0,0,-1,1588,533,8.01087,1.69607
371,491,8.2135,-0.539307,0,0,0,0,0,0,0,-1,1595,533,8.21348,0.53929
378,491,13.3589,2.17267,0,0,0,0,0,0,0,-1,1602,533,13.3589,-2.17264
385,491,8.08228,-4.95471,0,0,0,0,0,0,0,-1,1609,533,8.08227,4.95474
392,491,2.88721,-4.30988,0,0,0,0,0,0,0,-1,1616,533,2.88716,4.30986
399,491,8.95862,-8.55518,0,0,0,0,0,0,0,-1,1623,533,8.95864,8.55516
406,491,8.16541,-9.00806,0,0,0,0,0,0,0,-1,1630,533,8.16535,9.00807
413,491,5.31848,-3.7124,0,0,0,0,0,0,0,-1,1637,533,5.31849,3.7124
420,491,4.86389,-3.95892,0,0,0,0,0,0,0,-1,1644,533,4.86387,3.95893
427,491,11.5096,-15.2742,0,0,0,0,0,0,0,-1,1651,533,11.5096,15.2742
434,491,24.1083,-39.8145,0,0,0,0,0,0,0,-1,1658,533,24.1083,39.8145
441,491,39.3768,-91.9856,0,0,0,0,0,0,0,-1,1665,533,39.3769,91.9856
448,491,40.5579,-102.096,0,0,0,0,0,0,0,-1,1672,533,40.5579,102.096
455,491,40.1301,-99.4676,0.00122225,0.0014034,-0.00116314,0.00247948,0.000146164,-0.824255,0.00160648,0.0418276,1679,533,40.1301,99.4676
462,491,39.5413,-96.7326,0.00167476,0.000818678,-0.001059,0.00238895,0.000104487,-0.59334,0.00155897,0.01889,1686,533,39.5412,96.7326
469,491,39.0392,-94.1073,0.00201877,0.000418495,-0.000737001,0.00230647,0.000130795,-0.372173,0.00149596,0.0187192,1693,533,39.0392,94.1073
476,491,38.5753,-91.524,0.00217254,0.0006996,-0.000196378,0.00219827,0.000673868,-0.130293,0.00130045,0.0159452,1700,533,38.5753,91.524
483,491,38.0598,-88.8903,0.00225765,0.00114268,0.000534024,0.00247216,0.000928175,0.381954,0.00144199,0.0180448,1707,533,38.0599,88.8902
490,491,37.5303,-86.1849,0.00217149,0.0016277,0.0012279,0.00315723,0.000641955,0.676441,0.00192682,0.0148547,1714,533,37.5303,86.1849
497,491,37.0398,-83.4573,0.00198444,0.00252902,0.0021193,0.00439345,0.00012001,0.849288,0.00288979,0.0150414,1721,533,37.0398,83.4573
504,491,36.5466,-80.7498,0.0018278,0.00336552,0.00311396,0.00580414,-0.000610822,0.906431,0.00408827,0.0165323,1728,533,36.5466,80.7498
511,491,35.9836,-78.0557,0.00161373,0.00426891,0.00400937,0.00716477,-0.00128213,0.945278,0.00525627,0.0164749,1735,533,35.9836,78.0557
518,491,35.4547,-75.4008,0.00134313,0.00514379,0.00492446,0.00852186,-0.00203495,0.969543,0.00646717,0.0137257,1742,533,35.4547,75.4008
525,491,34.9369,-72.6705,0.001106,0.00606005,0.00579919,0.00988908,-0.00272303,0.987236,0.00766339,0.0205424,1749,533,34.9369,72.6705
532,491,34.3807,-69.8923,0,0,0,0,0,0,0,-1,1756,533,34.3808,69.8922
539,491,27.2163,-35.1343,0,0,0,0,0,0,0,-1,1763,533,27.2163,35.1343
546,491,22.9856,-26.3007,0,0,0,0,0,0,0,-1,1770,533,22.9856,26.3007
553,491,10.5021,-7.77869,0,0,0,0,0,0,0,-1,1777,533,10.502,7.77871
560,491,6.28455,-1.43585,0,0,0,0,0,0,0,-1,1784,533,6.28458,1.43586
567,491,5.67651,-1.3562,0,0,0,0,0,0,0,-1,1791,533,5.67649,1.3562
574,491,8.0719,1.58325,0,0,0,0,0,0,0,-1,1798,533,8.07195,-1.58326
581,491,9.44812,1.60931,0,0,0,0,0,0,0,-1,1805,533,9.44808,-1.60933
588,491,11.0497,1.54962,0,0,0,0,0,0,0,-1,1812,533,11.0496,-1.54963
595,491,0,0,0,0,0,0,0,0,0,-1,1819,533,0,0
602,491,0,0,0,0,0,0,0,0,0,-1,1826,533,0,0
609,491,0,0,0,0,0,0,0,0,0,-1,1833,533,0,0
616,491,0,0,0,0,0,0,0,0,0,-1,1840,533,0,0
623,491,0,0,0,0,0,0,0,0,0,-1,1847,533,0,0
630,491,0,0,0,0,0,0,0,0,0,-1,1854,533,0,0
637,491,0,0,0,0,0,0,0,0,0,-1,1861,533,0,0
644,491,0,0,0,0,0,0,0,0,0,-1,1868,533,0,0
651,491,0,0,0,0,0,0,0,0,0,-1,1875,533,0,0
658,491,0,0,0,0,0,0,0,0,0,-1,1882,533,0,0
665,491,0,0,0,0,0,0,0,0,0,-1,1889,533,0,0
672,491,0,0,0,0,0,0,0,0,0,-1,1896,533,0,0
679,491,0,0,0,0,0,0,0,0,0,-1,1903,533,0,0
686,491,0,0,0,0,0,0,0,0,0,-1,1910,533,0,0
693,491,0,0,0,0,0,0,0,0,0,-1,1917,533,0,0
700,491,0,0,0,0,0,0,0,0,0,-1,1924,533,0,0
707,491,0,0,0,0,0,0,0,0,0,-1,1931,533,0,0
714,491,0,0,0,0,0,0,0,0,0,-1,1938,533,0,0
721,491,0,0,0,0,0,0,0,0,0,-1,1945,533,0,0
728,491,0,0,0,0,0,0,0,0,0,-1,1952,533,0,0
735,491,0,0,0,0,0,0,0,0,0,-1,1959,533,0,0
742,491,0,0,0,0,0,0,0,0,0,-1,1966,533,0,0
749,491,0,0,0,0,0,0,0,0,0,-1,1973,533,0,0
756,491,0,0,0,0,0,0,0,0,0,-1,1980,533,0,0
763,491,0,0,0,0,0,0,0,0,0,-1,1987,533,0,0
770,491,0,0,0,0,0,0,0,0,0,-1,1994,533,0,0
777,491,0,0,0,0,0,0,0,0,0,-1,2001,533,0,0
784,491,0,0,0,0,0,0,0,0,0,-1,2008,533,0,0
791,491,0,0,0,0,0,0,0,0,0,-1,2015,533,0,0
798,491,0,0,0,0,0,0,0,0,0,-1,2022,533,0,0
805,491,0,0,0,0,0,0,0,0,0,-1,2029,533,0,0
812,491,0,0,0,0,0,0,0,0,0,-1,2036,533,0,0
-700,484,0,0,0,0,0,0,0,0,0,-1,524,540,0,0
-693,484,0,0,0,0,0,0,0,0,0,-1,531,540,0,0
-686,484,0,0,0,0,0,0,0,0,0,-1,538,540,0,0
-679,484,0,0,0,0,0,0,0,0,0,-1,545,540,0,0
-672,484,0,0,0,0,0,0,0,0,0,-1,552,540,0,0
-665,484,0,0,0,0,0,0,0,0,0,-1,559,540,0,0
-658,484,0,0,0,0,0,0,0,0,0,-1,566,540,0,0
-651,484,0,0,0,0,0,0,0,0,0,-1,573,540,0,0
-644,484,0,0,0,0,0,0,0,0,0,-1,580,540,0,0
-637,484,0,0,0,0,0,0,0,0,0,-1,587,540,0,0
-630,484,0,0,0,0,0,0,0,0,0,-1,594,540,0,0
-623,484,0,0,0,0,0,0,0,0,0,-1,601,540,0,0
-616,484,0,0,0,0,0,0,0,0,0,-1,608,540,0,0
-609,484,0,0,0,0,0,0,0,0,0,-1,615,540,0,0
-602,484,0,0,0,0,0,0,0,0,0,-1,622,540,0,0
-595,484,0,0,0,0,0,0,0,0,0,-1,629,540,0,0
-588,484,0,0,0,0,0,0,0,0,0,-1,636,540,0,0
-581,484,0,0,0,0,0,0,0,0,0,-1,643,540,0,0
-574,484,0,0,0,0,0,0,0,0,0,-1,650,540,0,0
-567,484,0,0,0,0,0,0,0,0,0,-1,657,540,0,0
-560,484,0,0,0,0,0,0,0,0,0,-1,664,540,0,0
-553,484,0,0,0,0,0,0,0,0,0,-1,671,540,0,0
-546,484,0,0,0,0,0,0,0,0,0,-1,678,540,0,0
-539,484,0,0,0,0,0,0,0,0,0,-1,685,540,0,0
-532,484,0,0,0,0,0,0,0,0,0,-1,692,540,0,0
-525,484,0,0,0,0,0,0,0,0,0,-1,699,540,0,0
-518,484,0,0,0,0,0,0,0,0,0,-1,706,540,0,0
-511,484,0,0,0,0,0,0,0,0,0,-1,713,540,0,0
-504,484,0,0,0,0,0,0,0,0,0,-1,720,540,0,0
-497,484,0,0,0,0,0,0,0,0,0,-1,727,540,0,0
-490,484,0,0,0,0,0,0,0,0,0,-1,734,540,0,0
-483,484,0,0,0,0,0,0,0,0,0,-1,741,540,0,0
-476,484,-8.46552,1.44702,0,0,0,0,0,0,0,-1,748,540,-8.46554,-1.44702
-469,484,-7.82343,1.70355,0,0,0,0,0,0,0,-1,755,540,-7.82345,-1.70355
-462,484,-8.36987,3.08612,0,0,0,0,0,0,0,-1,762,540,-8.36988,-3.0861
-455,484,-6.77197,2.07092,0,0,0,0,0,0,0,-1,769,540,-6.77197,-2.07094
-448,484,3.54895,-1.40106,0,0,0,0,0,0,0,-1,776,540,3.54897,1.40106
-441,484,4.28906,-3.05884,0,0,0,0,0,0,0,-1,783,540,4.28905,3.05883
-434,484,-2.17548,-5.07245,0,0,0,0,0,0,0,-1,790,540,-2.17546,5.07243
-427,484,-6.97125,-22.7925,0,0,0,0,0,0,0,-1,797,540,-6.97126,22.7925
-420,484,-13.9194,-35.0834,0,0,0,0,0,0,0,-1,804,540,-13.9194,35.0834
-413,484,-25.1063,-64.4969,0,0,0,0,0,0,0,-1,811,540,-25.1062,64.4969
-406,484,-25.9622,-67.5795,0,0,0,0,0,0,0,-1,818,540,-25.9622,67.5795
-399,484,-26.5841,-70.5169,0.00339536,0.0103587,-0.00669202,0.0144206,-0.000666512,-1.02527,0.00984344,0.0259675,825,540,-26.5841,70.5169
-392,484,-27.122,-73.1553,0.00298637,0.0082022,-0.00540539,0.0115959,-0.000407337,-1.01016,0.0078699,0.0275108,832,540,-27.122,73.1553
-385,484,-27.5958,-75.8772,0.00277972,0.0061125,-0.00421206,0.00897583,-8.35997e-05,-0.973762,0.00601195,0.0170015,839,540,-27.5958,75.8772
-378,484,-28.178,-78.5747,0.00265834,0.00403243,-0.00304948,0.0064713,0.000219467,-0.896198,0.00424294,0.0163547,846,540,-28.1781,78.5747
-371,484,-28.708,-81.2433,0.0025751,0.00184483,-0.00184646,0.00409219,0.000327746,-0.687784,0.0026257,0.018306,853,540,-28.708,81.2434
-364,484,-29.2189,-83.9205,0.00258584,-0.000255866,-0.000682534,0.00274128,-0.000411299,-0.22391,0.00197892,0.0140732,860,540,-29.2189,83.9205
-357,484,-29.7369,-86.5901,0.00264508,-0.00239741,0.000483351,0.002691,-0.00244332,0.0947066,0.00296545,0.0156721,867,540,-29.7369,86.5901
-350,484,-30.2872,-89.2249,0.00280328,-0.00431951,0.00157282,0.00313512,-0.00465136,0.207936,0.00452385,0.0189619,874,540,-30.2872,89.2249
-343,484,-30.7876,-91.9311,0.00296267,-0.00630856,0.0026987,0.003691,-0.00703689,0.263602,0.00629336,0.0247967,881,540,-30.7876,91.9311
-336,484,-31.2623,-94.5912,0.00310855,-0.00803395,0.00372083,0.0042368,-0.00916221,0.294415,0.00790823,0.0285888,888,540,-31.2622,94.5912
-329,484,-31.6215,-97.1023,0,0,0,0,0,0,0,-1,895,540,-31.6215,97.1023
-322,484,-32.0695,-99.8065,0,0,0,0,0,0,0,-1,902,540,-32.0695,99.8065
-315,484,-32.0875,-101.346,0,0,0,0,0,0,0,-1,909,540,-32.0874,101.346
-308,484,-1.32623,-8.9317,0,0,0,0,0,0,0,-1,916,540,-1.32626,8.93173
-301,484,-1.33453,-6.52667,0,0,0,0,0,0,0,-1,923,540,-1.33454,6.5267
-294,484,-1.61224,-8.17059,0,0,0,0,0,0,0,-1,930,540,-1.61227,8.17058
-287,484,-0.715759,-5.62103,0,0,0,0,0,0,0,-1,937,540,-0.715772,5.62105
-280,484,2.66742,-1.6795,0,0,0,0,0,0,0,-1,944,540,2.6674,1.67949
-273,484,2.53125,-2.22296,0,0,0,0,0,0,0,-1,951,540,2.53128,2.22295
-266,484,2.6778,-2.72058,0,0,0,0,0,0,0,-1,958,540,2.6778,2.72061
-259,484,2.41718,-2.59894,0,0,0,0,0,0,0,-1,965,540,2.41717,2.59892
-252,484,10.6069,-11.696,0,0,0,0,0,0,0,-1,972,540,10.6069,11.696
-245,484,6.34106,-11.6107,0,0,0,0,0,0,0,-1,979,540,6.34104,11.6107
-238,484,4.89319,-8.54059,0,0,0,0,0,0,0,-1,986,540,4.89321,8.5406
-231,484,3.47675,-5.22064,0,0,0,0,0,0,0,-1,993,540,3.47676,5.22067
-224,484,1.71344,-2.03473,0,0,0,0,0,0,0,-1,1000,540,1.71342,2.03472
-217,484,-0.745056,1.17358,0,0,0,0,0,0,0,-1,1007,540,-0.745043,-1.17359
-210,484,0,0,0,0,0,0,0,0,0,-1,1014,540,0,0
-203,484,0,0,0,0,0,0,0,0,0,-1,1021,540,0,0
-196,484,0,0,0,0,0,0,0,0,0,-1,1028,540,0,0
-189,484,0,0,0,0,0,0,0,0,0,-1,1035,540,0,0
-182,484,0,0,0,0,0,0,0,0,0,-1,1042,540,0,0
-175,484,0,0,0,0,0,0,0,0,0,-1,1049,540,0,0
-168,484,0,0,0,0,0,0,0,0,0,-1,1056,540,0,0
-161,484,0,0,0,0,0,0,0,0,0,-1,1063,540,0,0
-154,484,0,0,0,0,0,0,0,0,0,-1,1070,540,0,0
-147,484,0,0,0,0,0,0,0,0,0,-1,1077,540,0,0
-140,484,0,0,0,0,0,0,0,0,0,-1,1084,540,0,0
-133,484,0,0,0,0,0,0,0,0,0,-1,1091,540,0,0
-126,484,0,0,0,0,0,0,0,0,0,-1,1098,540,0,0
-119,484,0,0,0,0,0,0,0,0,0,-1,1105,540,0,0
-112,484,0,0,0,0,0,0,0,0,0,-1,1112,540,0,0
-105,484,0,0,0,0,0,0,0,0,0,-1,1119,540,0,0
-98,484,0,0,0,0,0,0,0,0,0,-1,1126,540,0,0
-91,484,0,0,0,0,0,0,0,0,0,-1,1133,540,0,0
-84,484,0,0,0,0,0,0,0,0,0,-1,1140,540,0,0
-77,484,0,0,0,0,0,0,0,0,0,-1,1147,540,0,0
-70,484,0,0,0,0,0,0,0,0,0,-1,1154,540,0,0
-63,484,0,0,0,0,0,0,0,0,0,-1,1161,540,0,0
-56,484,0,0,0,0,0,0,0,0,0,-1,1168,540,0,0
-49,484,0,0,0,0,0,0,0,0,0,-1,1175,540,0,0
-42,484,0,0,0,0,0,0,0,0,0,-1,1182,540,0,0
-35,484,0,0,0,0,0,0,0,0,0,-1,1189,540,0,0
-28,484,0,0,0,0,0,0,0,0,0,-1,1196,540,0,0
-21,484,0,0,0,0,0,0,0,0,0,-1,1203,540,0,0
-14,484,0,0,0,0,0,0,0,0,0,-1,1210,540,0,0
-7,484,0,0,0,0,0,0,0,0,0,-1,1217,540,0,0
0,484,0,0,0,0,0,0,0,0,0,-1,1224,540,0,0
7,484,0,0,0,0,0,0,0,0,0,-1,1231,540,0,0
14,484,0,0,0,0,0,0,0,0,0,-1,1238,540,0,0
21,484,0,0,0,0,0,0,0,0,0,-1,1245,540,0,0
28,484,0,0,0,0,0,0,0,0,0,-1,1252,540,0,0
35,484,0,0,0,0,0,0,0,0,0,-1,1259,540,0,0
42,484,0,0,0,0,0,0,0,0,0,-1,1266,540,0,0
49,484,0,0,0,0,0,0,0,0,0,-1,1273,540,0,0
56,484,0,0,0,0,0,0,0,0,0,-1,1280,540,0,0
63,484,0,0,0,0,0,0,0,0,0,-1,1287,540,0,0
70,484,0,0,0,0,0,0,0,0,0,-1,1294,540,0,0
77,484,0,0,0,0,0,0,0,0,0,-1,1301,540,0,0
84,484,0,0,0,0,0,0,0,0,0,-1,1308,540,0,0
91,484,0,0,0,0,0,0,0,0,0,-1,1315,540,0,0
98,484,0,0,0,0,0,0,0,0,0,-1,1322,540,0,0
105,484,0,0,0,0,0,0,0,0,0,-1,1329,540,0,0
112,484,0,0,0,0,0,0,0,0,0,-1,1336,540,0,0
119,484,0,0,0,0,0,0,0,0,0,-1,1343,540,0,0
126,484,0,0,0,0,0,0,0,0,0,-1,1350,540,0,0
133,484,0,0,0,0,0,0,0,0,0,-1,1357,540,0,0
140,484,0,0,0,0,0,0,0,0,0,-1,1364,540,0,0
147,484,0,0,0,0,0,0,0,0,0,-1,1371,540,0,0
154,484,0,0,0,0,0,0,0,0,0,-1,1378,540,0,0
161,484,0,0,0,0,0,0,0,0,0,-1,1385,540,0,0
168,484,0,0,0,0,0,0,0,0,0,-1,1392,540,0,0
175,484,0,0,0,0,0,0,0,0,0,-1,1399,540,0,0
182,484,0,0,0,0,0,0,0,0,0,-1,1406,540,0,0
189,484,0,0,0,0,0,0,0,0,0,-1,1413,540,0,0
196,484,0,0,0,0,0,0,0,0,0,-1,1420,540,0,0
203,484,0,0,0,0,0,0,0,0,0,-1,1427,540,0,0
210,484,0,0,0,0,0,0,0,0,0,-1,1434,540,0,0
217,484,0,0,0,0,0,0,0,0,0,-1,1441,540,0,0
224,484,0,0,0,0,0,0,0,0,0,-1,1448,540,0,0
231,484,0,0,0,0,0,0,0,0,0,-1,1455,540,0,0
238,484,0,0,0,0,0,0,0,0,0,-1,1462,540,0,0
245,484,0,0,0,0,0,0,0,0,0,-1,1469,540,0,0
252,484,0,0,0,0,0,0,0,0,0,-1,1476,540,0,0
259,484,0,0,0,0,0,0,0,0,0,-1,1483,540,0,0
266,484,0,0,0,0,0,0,0,0,0,-1,1490,540,0,0
273,484,0,0,0,0,0,0,0,0,0,-1,1497,540,0,0
280,484,0,0,0,0,0,0,0,0,0,-1,1504,540,0,0
287,484,0,0,0,0,0,0,0,0,0,-1,1511,540,0,0
294,484,0,0,0,0,0,0,0,0,0,-1,1518,540,0,0
301,484,0,0,0,0,0,0,0,0,0,-1,1525,540,0,0
308,484,0,0,0,0,0,0,0,0,0,-1,1532,540,0,0
315,484,0,0,0,0,0,0,0,0,0,-1,1539,540,0,0
322,484,0,0,0,0,0,0,0,0,0,-1,1546,540,0,0
329,484,0,0,0,0,0,0,0,0,0,-1,1553,540,0,0
336,484,4.38708,-1.64136,0,0,0,0,0,0,0,-1,1560,540,4.38704,1.64138
343,484,7.57996,-1.05457,0,0,0,0,0,0,0,-1,1567,540,7.57995,1.05454
350,484,8.10425,-1.18878,0,0,0,0,0,0,0,-1,1574,540,8.1043,1.18877
357,484,7.74902,-3.80286,0,0,0,0,0,0,0,-1,1581,540,7.74901,3.80287
364,484,6.31262,-3.87213,0,0,0,0,0,0,0,-1,1588,540,6.31263,3.87215
371,484,7.21008,0.973511,0,0,0,0,0,0,0,-1,1595,540,7.21014,-0.973541
378,484,11.0563,1.5014,0,0,0,0,0,0,0,-1,1602,540,11.0563,-1.5014
385,484,14.3469,2.5545,0,0,0,0,0,0,0,-1,1609,540,14.3469,-2.55453
392,484,7.39453,-4.95026,0,0,0,0,0,0,0,-1,1616,540,7.39448,4.95023
399,484,7.14417,-2.5639,0,0,0,0,0,0,0,-1,1623,540,7.14417,2.56391
406,484,7.88953,-2.47321,0,0,0,0,0,0,0,-1,1630,540,7.88954,2.47323
413,484,4.4895,-1.08673,0,0,0,0,0,0,0,-1,1637,540,4.48952,1.08674
420,484,4.50012,-2.11255,0,0,0,0,0,0,0,-1,1644,540,4.50012,2.11256
427,484,5.28601,-3.54053,0,0,0,0,0,0,0,-1,1651,540,5.28599,3.54051
434,484,11.1488,-13.5359,0,0,0,0,0,0,0,-1,1658,540,11.1489,13.5359
441,484,24.9087,-38.5439,0,0,0,0,0,0,0,-1,1665,540,24.9087,38.5439
448,484,34.1501,-61.0443,0,0,0,0,0,0,0,-1,1672,540,34.1502,61.0443
455,484,42.8901,-99.1378,0,0,0,0,0,0,0,-1,1679,540,42.8901,99.1378
462,484,42.2867,-96.176,0,0,0,0,0,0,0,-1,1686,540,42.2868,96.176
469,484,41.806,-93.5839,0.00163983,-0.00034423,-0.00180987,0.00271172,-0.00141612,-0.534698,0.00242202,0.0283502,1693,540,41.806,93.5838
476,484,41.1644,-90.9121,0.00198711,-0.000106001,-0.00126263,0.00258053,-0.00069942,-0.43935,0.00199479,0.0276618,1700,540,41.1644,90.9121
483,484,40.6387,-88.2646,0.00220645,0.000270215,-0.000535368,0.00234462,0.000132045,-0.252571,0.00152098,0.0233439,1707,540,40.6387,88.2646
490,484,40.1571,-85.6323,0.00219561,0.000601458,0.000117158,0.00220417,0.000592893,0.0729702,0.00131708,0.0201234,1714,540,40.1571,85.6323
497,484,39.6974,-82.9725,0.00208821,0.00138867,0.000993317,0.00279154,0.000685339,0.616115,0.00167984,0.0189117,1721,540,39.6974,82.9725
504,484,39.1848,-80.2366,0.00199732,0.00213623,0.00193941,0.00400744,0.000126123,0.803297,0.00263059,0.02024,1728,540,39.1849,80.2366
511,484,38.6744,-77.5657,0.00184587,0.00286524,0.00277109,0.00517313,-0.000462023,0.876346,0.00361262,0.0240173,1735,540,38.6744,77.5657
518,484,38.1245,-74.9283,0.00161831,0.00358745,0.00359231,0.00632767,-0.00112191,0.919152,0.00463787,0.0208895,1742,540,38.1245,74.9283
525,484,37.5775,-72.1587,0.00147233,0.00427864,0.00436437,0.00745987,-0.00170889,0.940931,0.00563,0.0169638,1749,540,37.5775,72.1587
532,484,37.054,-69.3754,0.00157915,0.00480464,0.00509926,0.00854012,-0.00215632,0.938556,0.00653192,0.0195605,1756,540,37.054,69.3754
539,484,36.4055,-66.4483,0,0,0,0,0,0,0,-1,1763,540,36.4055,66.4483
546,484,28.965,-33.8799,0,0,0,0,0,0,0,-1,1770,540,28.965,33.8799
553,484,12.4246,-8.96423,0,0,0,0,0,0,0,-1,1777,540,12.4246,8.96422
560,484,10.0549,-5.47931,0,0,0,0,0,0,0,-1,1784,540,10.055,5.47928
567,484,7.78223,-1.38312,0,0,0,0,0,0,0,-1,1791,540,7.78224,1.38311
574,484,5.74463,1.50922,0,0,0,0,0,0,0,-1,1798,540,5.74463,-1.50924
581,484,10.34,2.9491,0,0,0,0,0,0,0,-1,1805,540,10.34,-2.94912
588,484,10.6669,2.88568,0,0,0,0,0,0,0,-1,1812,540,10.6669,-2.88567
595,484,10.7233,1.04767,0,0,0,0,0,0,0,-1,1819,540,10.7233,-1.04766
602,484,0,0,0,0,0,0,0,0,0,-1,1826,540,0,0
609,484,0,0,0,0,0,0,0,0,0,-1,1833,540,0,0
616,484,0,0,0,0,0,0,0,0,0,-1,1840,540,0,0
623,484,0,0,0,0,0,0,0,0,0,-1,1847,540,0,0
630,484,0,0,0,0,0,0,0,0,0,-1,1854,540,0,0
637,484,0,0,0,0,0,0,0,0,0,-1,1861,540,0,0
644,484,0,0,0,0,0,0,0,0,0,-1,1868,540,0,0
651,484,0,0,0,0,0,0,0,0,0,-1,1875,540,0,0
658,484,0,0,0,0,0,0,0,0,0,-1,1882,540,0,0
665,484,0,0,0,0,0,0,0,0,0,-1,1889,540,0,0
672,484,0,0,0,0,0,0,0,0,0,-1,1896,540,0,0
679,484,0,0,0,0,0,0,0,0,0,-1,1903,540,0,0
686,484,0,0,0,0,0,0,0,0,0,-1,1910,540,0,0
693,484,0,0,0,0,0,0,0,0,0,-1,1917,540,0,0
700,484,0,0,0,0,0,0,0,0,0,-1,1924,540,0,0
707,484,0,0,0,0,0,0,0,0,0,-1,1931,540,0,0
714,484,0,0,0,0,0,0,0,0,0,-1,1938,540,0,0
721,484,0,0,0,0,0,0,0,0,0,-1,1945,540,0,0
728,484,0,0,0,0,0,0,0,0,0,-1,1952,540,0,0
735,484,0,0,0,0,0,0,0,0,0,-1,1959,540,0,0
742,484,0,0,0,0,0,0,0,0,0,-1,1966,540,0,0
749,484,0,0,0,0,0,0,0,0,0,-1,1973,540,0,0
756,484,0,0,0,0,0,0,0,0,0,-1,1980,540,0,0
763,484,0,0,0,0,0,0,0,0,0,-1,1987,540,0,0
770,484,0,0,0,0,0,0,0,0,0,-1,1994,540,0,0
777,484,0,0,0,0,0,0,0,0,0,-1,2001,540,0,0
784,484,0,0,0,0,0,0,0,0,0,-1,2008,540,0,0
791,484,0,0,0,0,0,0,0,0,0,-1,2015,540,0,0
798,484,0,0,0,0,0,0,0,0,0,-1,2022,540,0,0
805,484,0,0,0,0,0,0,0,0,0,-1,2029,540,0,0
812,484,0,0,0,0,0,0,0,0,0,-1,2036,540,0,0
-700,477,0,0,0,0,0,0,0,0,0,-1,524,547,0,0
-693,477,0,0,0,0,0,0,0,0,0,-1,531,547,0,0
-686,477,0,0,0,0,0,0,0,0,0,-1,538,547,0,0
-679,477,0,0,0,0,0,0,0,0,0,-1,545,547,0,0
-672,477,0,0,0,0,0,0,0,0,0,-1,552,547,0,0
-665,477,0,0,0,0,0,0,0,0,0,-1,559,547,0,0
-658,477,0,0,0,0,0,0,0,0,0,-1,566,547,0,0
-651,477,0,0,0,0,0,0,0,0,0,-1,573,547,0,0
-644,477,0,0,0,0,0,0,0,0,0,-1,580,547,0,0
-637,477,0,0,0,0,0,0,0,0,0,-1,587,547,0,0
-630,477,0,0,0,0,0,0,0,0,0,-1,594,547,0,0
-623,477,0,0,0,0,0,0,0,0,0,-1,601,547,0,0
-616,477,0,0,0,0,0,0,0,0,0,-1,608,547,0,0
-609,477,0,0,0,0,0,0,0,0,0,-1,615,547,0,0
-602,477,0,0,0,0,0,0,0,0,0,-1,622,547,0,0
-595,477,0,0,0,0,0,0,0,0,0,-1,629,547,0,0
-588,477,0,0,0,0,0,0,0,0,0,-1,636,547,0,0
-581,477,0,0,0,0,0,0,0,0,0,-1,643,547,0,0
-574,477,0,0,0,0,0,0,0,0,0,-1,650,547,0,0
-567,477,0,0,0,0,0,0,0,0,0,-1,657,547,0,0
-560,477,0,0,0,0,0,0,0,0,0,-1,664,547,0,0
-553,477,0,0,0,0,0,0,0,0,0,-1,671,547,0,0
-546,477,0,0,0,0,0,0,0,0,0,-1,678,547,0,0
-539,477,0,0,0,0,0,0,0,0,0,-1,685,547,0,0
-532,477,0,0,0,0,0,0,0,0,0,-1,692,547,0,0
-525,477,0,0,0,0,0,0,0,0,0,-1,699,547,0,0
-518,477,0,0,0,0,0,0,0,0,0,-1,706,547,0,0
-511,477,0,0,0,0,0,0,0,0,0,-1,713,547,0,0
-504,477,0,0,0,0,0,0,0,0,0,-1,720,547,0,0
-497,477,0,0,0,0,0,0,0,0,0,-1,727,547,0,0
-490,477,0,0,0,0,0,0,0,0,0,-1,734,547,0,0
-483,477,-7.73151,-0.224182,0,0,0,0,0,0,0,-1,741,547,-7.73152,0.224176
-476,477,-6.25806,-0.310547,0,0,0,0,0,0,0,-1,748,547,-6.25804,0.310549
-469,477,-7.26617,0.525085,0,0,0,0,0,0,0,-1,755,547,-7.2662,-0.525111
-462,477,-6.65143,1.06042,0,0,0,0,0,0,0,-1,762,547,-6.65143,-1.06043
-455,477,-5.31757,0.429016,0,0,0,0,0,0,0,-1,769,547,-5.31756,-0.42902
-448,477,-4.0697,0.273376,0,0,0,0,0,0,0,-1,776,547,-4.06971,-0.273363
-441,477,-2.47504,-4.76971,0,0,0,0,0,0,0,-1,783,547,-2.47505,4.76973
-434,477,-7.66589,-22.4534,0,0,0,0,0,0,0,-1,790,547,-7.66591,22.4534
-427,477,-27.0758,-58.4016,0,0,0,0,0,0,0,-1,797,547,-27.0758,58.4015
-420,477,-27.2037,-61.166,0,0,0,0,0,0,0,-1,804,547,-27.2037,61.166
-413,477,-27.966,-64.2913,0.00362275,0.0108981,-0.00691972,0.015078,-0.000557196,-1.02739,0.0102428,0.038542,811,547,-27.966,64.2913
-406,477,-28.6943,-67.2145,0.00322574,0.00888002,-0.00584432,0.0125451,-0.000439331,-1.01068,0.00851362,0.0168792,818,547,-28.6943,67.2145
-399,477,-29.2849,-69.8674,0.00283001,0.00688972,-0.00467899,0.00996018,-0.000240455,-0.990059,0.00672171,0.0273672,825,547,-29.2849,69.8673
-392,477,-29.8224,-72.618,0.00259172,0.00505891,-0.00359601,0.00762704,2.35934e-05,-0.950631,0.00507684,0.0258764,832,547,-29.8224,72.618
-385,477,-30.298,-75.3427,0.00251405,0.00324729,-0.00254885,0.00545576,0.000305586,-0.856827,0.00353971,0.0212387,839,547,-30.298,75.3427
-378,477,-30.8538,-78.0292,0.00249177,0.0014107,-0.00150214,0.00354767,0.0003548,-0.612691,0.00225617,0.0160156,846,547,-30.8538,78.0292
-371,477,-31.4211,-80.6734,0.00248166,-0.000528837,-0.000412583,0.00253718,-0.000584356,-0.133763,0.00191617,0.0156158,853,547,-31.4211,80.6734
-364,477,-31.8915,-83.3049,0.00249921,-0.00239063,0.000665618,0.00258819,-0.00247962,0.132902,0.00292612,0.0159403,860,547,-31.8915,83.305
-357,477,-32.4014,-85.9984,0.00249061,-0.00426689,0.00176532,0.00292398,-0.00470026,0.240733,0.0044415,0.0139346,867,547,-32.4015,85.9983
-350,477,-32.9551,-88.6687,0.00253572,-0.00604515,0.00281582,0.00337721,-0.00688664,0.290397,0.0060402,0.0142871,874,547,-32.9551,88.6687
-343,477,-33.4046,-91.4435,0.00251366,-0.00798615,0.00399464,0.00386062,-0.00933311,0.325219,0.00783278,0.0274899,881,547,-33.4046,91.4435
-336,477,-33.9043,-94.0141,0,0,0,0,0,0,0,-1,888,547,-33.9043,94.0141
-329,477,-15.676,-52.1498,0,0,0,0,0,0,0,-1,895,547,-15.676,52.1498
-322,477,-5.91638,-27.4468,0,0,0,0,0,0,0,-1,902,547,-5.91639,27.4468
-315,477,-1.67358,-9.15253,0,0,0,0,0,0,0,-1,909,547,-1.67356,9.15253
-308,477,-1.30127,-6.55188,0,0,0,0,0,0,0,-1,916,547,-1.30128,6.55185
-301,477,-1.21185,-6.28351,0,0,0,0,0,0,0,-1,923,547,-1.21184,6.28352
-294,477,-0.352905,3.27142,0,0,0,0,0,0,0,-1,930,547,-0.35292,-3.27144
-287,477,3.54364,2.15399,0,0,0,0,0,0,0,-1,937,547,3.54362,-2.15396
-280,477,1.97308,-0.954163,0,0,0,0,0,0,0,-1,944,547,1.9731,0.954178
-273,477,2.11621,-3.76709,0,0,0,0,0,0,0,-1,951,547,2.11619,3.76706
-266,477,2.04669,-3.42389,0,0,0,0,0,0,0,-1,958,547,2.04671,3.42391
-259,477,-1.33478,-3.41205,0,0,0,0,0,0,0,-1,965,547,-1.3348,3.41206
-252,477,0.597168,-5.32922,0,0,0,0,0,0,0,-1,972,547,0.597144,5.32924
-245,477,8.2309,-8.48492,0,0,0,0,0,0,0,-1,979,547,8.23091,8.48494
-238,477,6.60938,-5.64063,0,0,0,0,0,0,0,-1,986,547,6.60938,5.64063
-231,477,4.71716,-2.52484,0,0,0,0,0,0,0,-1,993,547,4.71716,2.52483
-224,477,0,0,0,0,0,0,0,0,0,-1,1000,547,0,0
-217,477,0,0,0,0,0,0,0,0,0,-1,1007,547,0,0
-210,477,0,0,0,0,0,0,0,0,0,-1,1014,547,0,0
-203,477,0,0,0,0,0,0,0,0,0,-1,1021,547,0,0
-196,477,0,0,0,0,0,0,0,0,0,-1,1028,547,0,0
-189,477,0,0,0,0,0,0,0,0,0,-1,1035,547,0,0
-182,477,0,0,0,0,0,0,0,0,0,-1,1042,547,0,0
-175,477,0,0,0,0,0,0,0,0,0,-1,1049,547,0,0
-168,477,0,0,0,0,0,0,0,0,0,-1,1056,547,0,0
-161,477,0,0,0,0,0,0,0,0,0,-1,1063,547,0,0
-154,477,0,0,0,0,0,0,0,0,0,-1,1070,547,0,0
-147,477,0,0,0,0,0,0,0,0,0,-1,1077,547,0,0
-140,477,0,0,0,0,0,0,0,0,0,-1,1084,547,0,0
-133,477,0,0,0,0,0,0,0,0,0,-1,1091,547,0,0
-126,477,0,0,0,0,0,0,0,0,0,-1,1098,547,0,0
-119,477,0,0,0,0,0,0,0,0,0,-1,1105,547,0,0
-112,477,0,0,0,0,0,0,0,0,0,-1,1112,547,0,0
-105,477,0,0,0,0,0,0,0,0,0,-1,1119,547,0,0
-98,477,0,0,0,0,0,0,0,0,0,-1,1126,547,0,0
-91,477,0,0,0,0,0,0,0,0,0,-1,1133,547,0,0
-84,477,0,0,0,0,0,0,0,0,0,-1,1140,547,0,0
-77,477,0,0,0,0,0,0,0,0,0,-1,1147,547,0,0
-70,477,0,0,0,0,0,0,0,0,0,-1,1154,547,0,0
-63,477,0,0,0,0,0,0,0,0,0,-1,1161,547,0,0
-56,477,0,0,0,0,0,0,0,0,0,-1,1168,547,0,0
-49,477,0,0,0,0,0,0,0,0,0,-1,1175,547,0,0
-42,477,0,0,0,0,0,0,0,0,0,-1,1182,547,0,0
-35,477,0,0,0,0,0,0,0,0,0,-1,1189,547,0,0
-28,477,0,0,0,0,0,0,0,0,0,-1,1196,547,0,0
-21,477,0,0,0,0,0,0,0,0,0,-1,1203,547,0,0
-14,477,0,0,0,0,0,0,0,0,0,-1,1210,547,0,0
-7,477,0,0,0,0,0,0,0,0,0,-1,1217,547,0,0
0,477,0,0,0,0,0,0,0,0,0,-1,1224,547,0,0
7,477,0,0,0,0,0,0,0,0,0,-1,1231,547,0,0
14,477,0,0,0,0,0,0,0,0,0,-1,1238,547,0,0
21,477,0,0,0,0,0,0,0,0,0,-1,1245,547,0,0
28,477,0,0,0,0,0,0,0,0,0,-1,1252,547,0,0
35,477,0,0,0,0,0,0,0,0,0,-1,1259,547,0,0
42,477,0,0,0,0,0,0,0,0,0,-1,1266,547,0,0
49,477,0,0,0,0,0,0,0,0,0,-1,1273,547,0,0
56,477,0,0,0,0,0,0,0,0,0,-1,1280,547,0,0
63,477,0,0,0,0,0,0,0,0,0,-1,1287,547,0,0
70,477,0,0,0,0,0,0,0,0,0,-1,1294,547,0,0
77,477,0,0,0,0,0,0,0,0,0,-1,1301,547,0,0
84,477,0,0,0,0,0,0,0,0,0,-1,1308,547,0,0
91,477,0,0,0,0,0,0,0,0,0,-1,1315,547,0,0
98,477,0,0,0,0,0,0,0,0,0,-1,1322,547,0,0
105,477,0,0,0,0,0,0,0,0,0,-1,1329,547,0,0
112,477,0,0,0,0,0,0,0,0,0,-1,1336,547,0,0
119,477,0,0,0,0,0,0,0,0,0,-1,1343,547,0,0
126,477,0,0,0,0,0,0,0,0,0,-1,1350,547,0,0
133,477,0,0,0,0,0,0,0,0,0,-1,1357,547,0,0
140,477,0,0,0,0,0,0,0,0,0,-1,1364,547,0,0
147,477,0,0,0,0,0,0,0,0,0,-1,1371,547,0,0
154,477,0,0,0,0,0,0,0,0,0,-1,1378,547,0,0
161,477,0,0,0,0,0,0,0,0,0,-1,1385,547,0,0
168,477,0,0,0,0,0,0,0,0,0,-1,1392,547,0,0
175,477,0,0,0,0,0,0,0,0,0,-1,1399,547,0,0
182,477,0,0,0,0,0,0,0,0,0,-1,1406,547,0,0
189,477,0,0,0,0,0,0,0,0,0,-1,1413,547,0,0
196,477,0,0,0,0,0,0,0,0,0,-1,1420,547,0,0
203,477,0,0,0,0,0,0,0,0,0,-1,1427,547,0,0
210,477,0,0,0,0,0,0,0,0,0,-1,1434,547,0,0
217,477,0,0,0,0,0,0,0,0,0,-1,1441,547,0,0
224,477,0,0,0,0,0,0,0,0,0,-1,1448,547,0,0
231,477,0,0,0,0,0,0,0,0,0,-1,1455,547,0,0
238,477,0,0,0,0,0,0,0,0,0,-1,1462,547,0,0
245,477,0,0,0,0,0,0,0,0,0,-1,1469,547,0,0
252,477,0,0,0,0,0,0,0,0,0,-1,1476,547,0,0
259,477,0,0,0,0,0,0,0,0,0,-1,1483,547,0,0
266,477,0,0,0,0,0,0,0,0,0,-1,1490,547,0,0
273,477,0,0,0,0,0,0,0,0,0,-1,1497,547,0,0
280,477,0,0,0,0,0,0,0,0,0,-1,1504,547,0,0
287,477,0,0,0,0,0,0,0,0,0,-1,1511,547,0,0
294,477,0,0,0,0,0,0,0,0,0,-1,1518,547,0,0
301,477,0,0,0,0,0,0,0,0,0,-1,1525,547,0,0
308,477,0,0,0,0,0,0,0,0,0,-1,1532,547,0,0
315,477,0,0,0,0,0,0,0,0,0,-1,1539,547,0,0
322,477,0,0,0,0,0,0,0,0,0,-1,1546,547,0,0
329,477,0,0,0,0,0,0,0,0,0,-1,1553,547,0,0
336,477,0,0,0,0,0,0,0,0,0,-1,1560,547,0,0
343,477,0,0,0,0,0,0,0,0,0,-1,1567,547,0,0
350,477,1.7699,-3.32275,0,0,0,0,0,0,0,-1,1574,547,1.7699,3.32272
357,477,3.073,-4.83313,0,0,0,0,0,0,0,-1,1581,547,3.07303,4.83316
364,477,4.30127,-4.22864,0,0,0,0,0,0,0,-1,1588,547,4.30125,4.22865
371,477,4.57703,0.283264,0,0,0,0,0,0,0,-1,1595,547,4.57706,-0.283262
378,477,8.57947,1.05969,0,0,0,0,0,0,0,-1,1602,547,8.5795,-1.05972
385,477,12.3726,2.02356,0,0,0,0,0,0,0,-1,1609,547,12.3725,-2.02355
392,477,16.4678,2.76843,0,0,0,0,0,0,0,-1,1616,547,16.4678,-2.76845
399,477,8.00037,-2.29523,0,0,0,0,0,0,0,-1,1623,547,8.00031,2.2952
406,477,4.82495,2.7475,0,0,0,0,0,0,0,-1,1630,547,4.825,-2.74752
413,477,4.88171,-0.336426,0,0,0,0,0,0,0,-1,1637,547,4.88169,0.336398
420,477,3.34875,0.102722,0,0,0,0,0,0,0,-1,1644,547,3.34871,-0.1027
427,477,1.66772,-0.373108,0,0,0,0,0,0,0,-1,1651,547,1.66768,0.373104
434,477,3.76978,-2.30798,0,0,0,0,0,0,0,-1,1658,547,3.76974,2.30801
441,477,4.05444,-2.80402,0,0,0,0,0,0,0,-1,1665,547,4.05444,2.804
448,477,10.4247,-11.7421,0,0,0,0,0,0,0,-1,1672,547,10.4247,11.7421
455,477,13.3054,-16.8109,0,0,0,0,0,0,0,-1,1679,547,13.3054,16.8109
462,477,41.8641,-79.7932,0,0,0,0,0,0,0,-1,1686,547,41.8641,79.7932
469,477,44.5198,-93.0679,0,0,0,0,0,0,0,-1,1693,547,44.5198,93.0679
476,477,43.8751,-90.3109,0,0,0,0,0,0,0,-1,1700,547,43.8751,90.3109
483,477,43.2861,-87.7112,0.00220739,-0.000423749,-0.00151559,0.00289874,-0.0011151,-0.427966,0.00239245,0.0241775,1707,547,43.2861,87.7112
490,477,42.8173,-85.1147,0.00226913,-0.000237643,-0.000841776,0.00252556,-0.000494079,-0.295706,0.00187028,0.0205101,1714,547,42.8173,85.1147
497,477,42.3379,-82.4185,0.00222789,0.000429649,4.67064e-05,0.0022291,0.000428437,0.0259501,0.00136584,0.0188091,1721,547,42.3379,82.4185
504,477,41.8297,-79.6804,0.00213984,0.00110787,0.000953476,0.00270799,0.000539713,0.537382,0.00165502,0.0220853,1728,547,41.8297,79.6803
511,477,41.3612,-77.0614,0.00199345,0.00171059,0.00174421,0.00360196,0.000102084,0.744943,0.00236801,0.0278044,1735,547,41.3612,77.0614
518,477,40.89,-74.4037,0.00176921,0.0023439,0.00247745,0.00455061,-0.000437504,0.843132,0.00318959,0.0245467,1742,547,40.89,74.4037
525,477,40.2483,-71.6259,0.00164759,0.00289481,0.00314672,0.00547912,-0.000936714,0.88322,0.0040017,0.0206251,1749,547,40.2483,71.6259
532,477,39.6569,-68.9135,0.00175238,0.00335314,0.00375256,0.00638973,-0.00128421,0.890468,0.00474616,0.0264665,1756,547,39.6569,68.9135
539,477,39.1467,-66.1302,0.00222148,0.00377634,0.0041782,0.00724882,-0.001251,0.877381,0.005299,0.0260282,1763,547,39.1468,66.1302
546,477,38.5942,-63.514,0,0,0,0,0,0,0,-1,1770,547,38.5942,63.5141
553,477,33.2839,-37.685,0,0,0,0,0,0,0,-1,1777,547,33.284,37.685
560,477,19.4597,-16.1135,0,0,0,0,0,0,0,-1,1784,547,19.4597,16.1135
567,477,29.3896,-26.2586,0,0,0,0,0,0,0,-1,1791,547,29.3897,26.2586
574,477,6.82593,-0.916992,0,0,0,0,0,0,0,-1,1798,547,6.82598,0.916977
581,477,9.29321,-0.557007,0,0,0,0,0,0,0,-1,1805,547,9.29324,0.55703
588,477,9.75195,0.422729,0,0,0,0,0,0,0,-1,1812,547,9.75198,-0.42273
595,477,9.89172,1.21326,0,0,0,0,0,0,0,-1,1819,547,9.89174,-1.21328
602,477,6.5271,-0.964417,0,0,0,0,0,0,0,-1,1826,547,6.52706,0.964427
609,477,0,0,0,0,0,0,0,0,0,-1,1833,547,0,0
616,477,0,0,0,0,0,0,0,0,0,-1,1840,547,0,0
623,477,0,0,0,0,0,0,0,0,0,-1,1847,547,0,0
630,477,0,0,0,0,0,0,0,0,0,-1,1854,547,0,0
637,477,0,0,0,0,0,0,0,0,0,-1,1861,547,0,0
644,477,0,0,0,0,0,0,0,0,0,-1,1868,547,0,0
651,477,0,0,0,0,0,0,0,0,0,-1,1875,547,0,0
658,477,0,0,0,0,0,0,0,0,0,-1,1882,547,0,0
665,477,0,0,0,0,0,0,0,0,0,-1,1889,547,0,0
672,477,0,0,0,0,0,0,0,0,0,-1,1896,547,0,0
679,477,0,0,0,0,0,0,0,0,0,-1,1903,547,0,0
686,477,0,0,0,0,0,0,0,0,0,-1,1910,547,0,0
693,477,0,0,0,0,0,0,0,0,0,-1,1917,547,0,0
700,477,0,0,0,0,0,0,0,0,0,-1,1924,547,0,0
707,477,0,0,0,0,0,0,0,0,0,-1,1931,547,0,0
714,477,0,0,0,0,0,0,0,0,0,-1,1938,547,0,0
721,477,0,0,0,0,0,0,0,0,0,-1,1945,547,0,0
728,477,0,0,0,0,0,0,0,0,0,-1,1952,547,0,0
735,477,0,0,0,0,0,0,0,0,0,-1,1959,547,0,0
742,477,0,0,0,0,0,0,0,0,0,-1,1966,547,0,0
749,477,0,0,0,0,0,0,0,0,0,-1,1973,547,0,0
756,477,0,0,0,0,0,0,0,0,0,-1,1980,547,0,0
763,477,0,0,0,0,0,0,0,0,0,-1,1987,547,0,0
770,477,0,0,0,0,0,0,0,0,0,-1,1994,547,0,0
777,477,0,0,0,0,0,0,0,0,0,-1,2001,547,0,0
784,477,0,0,0,0,0,0,0,0,0,-1,2008,547,0,0
791,477,0,0,0,0,0,0,0,0,0,-1,2015,547,0,0
798,477,0,0,0,0,0,0,0,0,0,-1,2022,547,0,0
805,477,0,0,0,0,0,0,0,0,0,-1,2029,547,0,0
812,477,0,0,0,0,0,0,0,0,0,-1,2036,547,0,0
-700,470,0,0,0,0,0,0,0,0,0,-1,524,554,0,0
-693,470,0,0,0,0,0,0,0,0,0,-1,531,554,0,0
-686,470,0,0,0,0,0,0,0,0,0,-1,538,554,0,0
-679,470,0,0,0,0,0,0,0,0,0,-1,545,554,0,0
-672,470,0,0,0,0,0,0,0,0,0,-1,552,554,0,0
-665,470,0,0,0,0,0,0,0,0,0,-1,559,554,0,0
-658,470,0,0,0,0,0,0,0,0,0,-1,566,554,0,0
-651,470,0,0,0,0,0,0,0,0,0,-1,573,554,0,0
-644,470,0,0,0,0,0,0,0,0,0,-1,580,554,0,0
-637,470,0,0,0,0,0,0,0,0,0,-1,587,554,0,0
-630,470,0,0,0,0,0,0,0,0,0,-1,594,554,0,0
-623,470,0,0,0,0,0,0,0,0,0,-1,601,554,0,0
-616,470,0,0,0,0,0,0,0,0,0,-1,608,554,0,0
-609,470,0,0,0,0,0,0,0,0,0,-1,615,554,0,0
-602,470,0,0,0,0,0,0,0,0,0,-1,622,554,0,0
-595,470,0,0,0,0,0,0,0,0,0,-1,629,554,0,0
-588,470,0,0,0,0,0,0,0,0,0,-1,636,554,0,0
-581,470,0,0,0,0,0,0,0,0,0,-1,643,554,0,0
-574,470,0,0,0,0,0,0,0,0,0,-1,650,554,0,0
-567,470,0,0,0,0,0,0,0,0,0,-1,657,554,0,0
-560,470,0,0,0,0,0,0,0,0,0,-1,664,554,0,0
-553,470,0,0,0,0,0,0,0,0,0,-1,671,554,0,0
-546,470,0,0,0,0,0,0,0,0,0,-1,678,554,0,0
-539,470,0,0,0,0,0,0,0,0,0,-1,685,554,0,0
-532,470,0,0,0,0,0,0,0,0,0,-1,692,554,0,0
-525,470,0,0,0,0,0,0,0,0,0,-1,699,554,0,0
-518,470,0,0,0,0,0,0,0,0,0,-1,706,554,0,0
-511,470,0,0,0,0,0,0,0,0,0,-1,713,554,0,0
-504,470,0,0,0,0,0,0,0,0,0,-1,720,554,0,0
-497,470,0,0,0,0,0,0,0,0,0,-1,727,554,0,0
-490,470,-9.13263,-1.03125,0,0,0,0,0,0,0,-1,734,554,-9.1326,1.03127
-483,470,-7.68677,-1.03955,0,0,0,0,0,0,0,-1,741,554,-7.68678,1.03958
-476,470,-6.17969,-1.03394,0,0,0,0,0,0,0,-1,748,554,-6.17971,1.03395
-469,470,-6.23016,-0.651855,0,0,0,0,0,0,0,-1,755,554,-6.23014,0.651829
-462,470,-4.87915,-1.03705,0,0,0,0,0,0,0,-1,762,554,-4.87914,1.03702
-455,470,-4.14777,-1.37079,0,0,0,0,0,0,0,-1,769,554,-4.14779,1.37078
-448,470,-2.9314,-5.74518,0,0,0,0,0,0,0,-1,776,554,-2.93137,5.74518
-441,470,-8.03943,-19.0135,0,0,0,0,0,0,0,-1,783,554,-8.03942,19.0135
-434,470,-29.2204,-55.3925,0,0,0,0,0,0,0,-1,790,554,-29.2204,55.3925
-427,470,-29.7763,-58.2236,0.00450249,0.0112981,-0.00666524,0.0153816,0.000418939,-1.02112,0.0101176,0.0450049,797,554,-29.7763,58.2236
-420,470,-30.2693,-61.1207,0.00360369,0.00942348,-0.00572239,0.0129333,9.38321e-05,-1.02061,0.00859112,0.0276239,804,554,-30.2693,61.1207
-413,470,-30.8289,-63.9724,0.00299462,0.00770115,-0.00486953,0.0107562,-6.0454e-05,-1.01048,0.00719105,0.018079,811,554,-30.8288,63.9723
-406,470,-31.335,-66.7255,0.00256175,0.00595698,-0.00394169,0.00855108,-3.23574e-05,-0.988735,0.00571154,0.0203999,818,554,-31.335,66.7254
-399,470,-31.9112,-69.3633,0.00222248,0.00423618,-0.00295619,0.00635227,0.000106383,-0.949532,0.00419984,0.025078,825,554,-31.9112,69.3633
-392,470,-32.4694,-72.0515,0.00208844,0.00268879,-0.00204804,0.00445854,0.000318695,-0.858164,0.00287203,0.0180158,832,554,-32.4694,72.0514
-385,470,-33.0127,-74.7675,0.00209351,0.00111241,-0.00112347,0.00282886,0.000377065,-0.579554,0.00177363,0.0143161,839,554,-33.0127,74.7675
-378,470,-33.5632,-77.4909,0.00216954,-0.000510984,-0.00017938,0.00218149,-0.000522934,-0.0665243,0.00165639,0.0199255,846,554,-33.5633,77.4909
-371,470,-34.1091,-80.1504,0.00229356,-0.00222073,0.000798939,0.00243078,-0.00235795,0.170099,0.00276488,0.018118,853,554,-34.1091,80.1504
-364,470,-34.5884,-82.7788,0.00243064,-0.00389493,0.00179295,0.00290349,-0.00436778,0.257859,0.00422635,0.0193193,860,554,-34.5884,82.7788
-357,470,-35.1091,-85.4352,0.00249984,-0.00554822,0.00282733,0.0033938,-0.00644218,0.306238,0.005769,0.0194676,867,554,-35.1092,85.4352
-350,470,-35.6209,-88.1657,0.00260083,-0.00729347,0.00385203,0.00392365,-0.00861629,0.330789,0.00740699,0.0202147,874,554,-35.6209,88.1657
-343,470,-36.0412,-91.0536,0,0,0,0,0,0,0,-1,881,554,-36.0412,91.0536
-336,470,-14.7072,-46.67,0,0,0,0,0,0,0,-1,888,554,-14.7072,46.67
-329,470,-2.78516,-12.3594,0,0,0,0,0,0,0,-1,895,554,-2.78517,12.3594
-322,470,-2.30829,-11.4527,0,0,0,0,0,0,0,-1,902,554,-2.30827,11.4527
-315,470,-1.04797,-8.29529,0,0,0,0,0,0,0,-1,909,554,-1.04797,8.29526
-308,470,-1.39368,-6.68152,0,0,0,0,0,0,0,-1,916,554,-1.39369,6.68149
-301,470,-0.0340576,3.34888,0,0,0,0,0,0,0,-1,923,554,-0.0340496,-3.3489
-294,470,-1.18378,3.22266,0,0,0,0,0,0,0,-1,930,554,-1.18376,-3.22268
-287,470,-2.15454,3.2204,0,0,0,0,0,0,0,-1,937,554,-2.15452,-3.22037
-280,470,-3.00537,3.099,0,0,0,0,0,0,0,-1,944,554,-3.00536,-3.09898
-273,470,-12.3932,3.65009,0,0,0,0,0,0,0,-1,951,554,-12.3932,-3.65011
-266,470,-11.5706,1.16028,0,0,0,0,0,0,0,-1,958,554,-11.5706,-1.16031
-259,470,-7.50415,-2.77167,0,0,0,0,0,0,0,-1,965,554,-7.50413,2.7717
-252,470,-0.371155,-5.87823,0,0,0,0,0,0,0,-1,972,554,-0.37114,5.87821
-245,470,1.33221,-6.81122,0,0,0,0,0,0,0,-1,979,554,1.33223,6.8112
-238,470,0,0,0,0,0,0,0,0,0,-1,986,554,0,0
-231,470,0,0,0,0,0,0,0,0,0,-1,993,554,0,0
-224,470,0,0,0,0,0,0,0,0,0,-1,1000,554,0,0
-217,470,0,0,0,0,0,0,0,0,0,-1,1007,554,0,0
-210,470,0,0,0,0,0,0,0,0,0,-1,1014,554,0,0
-203,470,0,0,0,0,0,0,0,0,0,-1,1021,554,0,0
-196,470,0,0,0,0,0,0,0,0,0,-1,1028,554,0,0
-189,470,0,0,0,0,0,0,0,0,0,-1,1035,554,0,0
-182,470,0,0,0,0,0,0,0,0,0,-1,1042,554,0,0
-175,470,0,0,0,0,0,0,0,0,0,-1,1049,554,0,0
-168,470,0,0,0,0,0,0,0,0,0,-1,1056,554,0,0
-161,470,0,0,0,0,0,0,0,0,0,-1,1063,554,0,0
-154,470,0,0,0,0,0,0,0,0,0,-1,1070,554,0,0
-147,470,0,0,0,0,0,0,0,0,0,-1,1077,554,0,0
-140,470,0,0,0,0,0,0,0,0,0,-1,1084,554,0,0
-133,470,0,0,0,0,0,0,0,0,0,-1,1091,554,0,0
-126,470,0,0,0,0,0,0,0,0,0,-1,1098,554,0,0
-119,470,0,0,0,0,0,0,0,0,0,-1,1105,554,0,0
-112,470,0,0,0,0,0,0,0,0,0,-1,1112,554,0,0
-105,470,0,0,0,0,0,0,0,0,0,-1,1119,554,0,0
-98,470,0,0,0,0,0,0,0,0,0,-1,1126,554,0,0
-91,470,0,0,0,0,0,0,0,0,0,-1,1133,554,0,0
-84,470,0,0,0,0,0,0,0,0,0,-1,1140,554,0,0
-77,470,0,0,0,0,0,0,0,0,0,-1,1147,554,0,0
-70,470,0,0,0,0,0,0,0,0,0,-1,1154,554,0,0
-63,470,0,0,0,0,0,0,0,0,0,-1,1161,554,0,0
-56,470,0,0,0,0,0,0,0,0,0,-1,1168,554,0,0
-49,470,0,0,0,0,0,0,0,0,0,-1,1175,554,0,0
-42,470,0,0,0,0,0,0,0,0,0,-1,1182,554,0,0
-35,470,0,0,0,0,0,0,0,0,0,-1,1189,554,0,0
-28,470,0,0,0,0,0,0,0,0,0,-1,1196,554,0,0
-21,470,0,0,0,0,0,0,0,0,0,-1,1203,554,0,0
-14,470,0,0,0,0,0,0,0,0,0,-1,1210,554,0,0
-7,470,0,0,0,0,0,0,0,0,0,-1,1217,554,0,0
0,470,0,0,0,0,0,0,0,0,0,-1,1224,554,0,0
7,470,0,0,0,0,0,0,0,0,0,-1,1231,554,0,0
14,470,0,0,0,0,0,0,0,0,0,-1,1238,554,0,0
21,470,0,0,0,0,0,0,0,0,0,-1,1245,554,0,0
28,470,0,0,0,0,0,0,0,0,0,-1,1252,554,0,0
35,470,0,0,0,0,0,0,0,0,0,-1,1259,554,0,0
42,470,0,0,0,0,0,0,0,0,0,-1,1266,554,0,0
49,470,0,0,0,0,0,0,0,0,0,-1,1273,554,0,0
56,470,0,0,0,0,0,0,0,0,0,-1,1280,554,0,0
63,470,0,0,0,0,0,0,0,0,0,-1,1287,554,0,0
70,470,0,0,0,0,0,0,0,0,0,-1,1294,554,0,0
77,470,0,0,0,0,0,0,0,0,0,-1,1301,554,0,0
84,470,0,0,0,0,0,0,0,0,0,-1,1308,554,0,0
91,470,0,0,0,0,0,0,0,0,0,-1,1315,554,0,0
98,470,0,0,0,0,0,0,0,0,0,-1,1322,554,0,0
105,470,0,0,0,0,0,0,0,0,0,-1,1329,554,0,0
112,470,0,0,0,0,0,0,0,0,0,-1,1336,554,0,0
119,470,0,0,0,0,0,0,0,0,0,-1,1343,554,0,0
126,470,0,0,0,0,0,0,0,0,0,-1,1350,554,0,0
133,470,0,0,0,0,0,0,0,0,0,-1,1357,554,0,0
140,470,0,0,0,0,0,0,0,0,0,-1,1364,554,0,0
147,470,0,0,0,0,0,0,0,0,0,-1,1371,554,0,0
154,470,0,0,0,0,0,0,0,0,0,-1,1378,554,0,0
161,470,0,0,0,0,0,0,0,0,0,-1,1385,554,0,0
168,470,0,0,0,0,0,0,0,0,0,-1,1392,554,0,0
175,470,0,0,0,0,0,0,0,0,0,-1,1399,554,0,0
182,470,0,0,0,0,0,0,0,0,0,-1,1406,554,0,0
189,470,0,0,0,0,0,0,0,0,0,-1,1413,554,0,0
196,470,0,0,0,0,0,0,0,0,0,-1,1420,554,0,0
203,470,0,0,0,0,0,0,0,0,0,-1,1427,554,0,0
210,470,0,0,0,0,0,0,0,0,0,-1,1434,554,0,0
217,470,0,0,0,0,0,0,0,0,0,-1,1441,554,0,0
224,470,0,0,0,0,0,0,0,0,0,-1,1448,554,0,0
231,470,0,0,0,0,0,0,0,0,0,-1,1455,554,0,0
238,470,0,0,0,0,0,0,0,0,0,-1,1462,554,0,0
245,470,0,0,0,0,0,0,0,0,0,-1,1469,554,0,0
252,470,0,0,0,0,0,0,0,0,0,-1,1476,554,0,0
259,470,0,0,0,0,0,0,0,0,0,-1,1483,554,0,0
266,470,0,0,0,0,0,0,0,0,0,-1,1490,554,0,0
273,470,0,0,0,0,0,0,0,0,0,-1,1497,554,0,0
280,470,0,0,0,0,0,0,0,0,0,-1,1504,554,0,0
287,470,0,0,0,0,0,0,0,0,0,-1,1511,554,0,0
294,470,0,0,0,0,0,0,0,0,0,-1,1518,554,0,0
301,470,0,0,0,0,0,0,0,0,0,-1,1525,554,0,0
308,470,0,0,0,0,0,0,0,0,0,-1,1532,554,0,0
315,470,0,0,0,0,0,0,0,0,0,-1,1539,554,0,0
322,470,0,0,0,0,0,0,0,0,0,-1,1546,554,0,0
329,470,0,0,0,0,0,0,0,0,0,-1,1553,554,0,0
336,470,0,0,0,0,0,0,0,0,0,-1,1560,554,0,0
343,470,0,0,0,0,0,0,0,0,0,-1,1567,554,0,0
350,470,0,0,0,0,0,0,0,0,0,-1,1574,554,0,0
357,470,0,0,0,0,0,0,0,0,0,-1,1581,554,0,0
364,470,1.33423,0.293335,0,0,0,0,0,0,0,-1,1588,554,1.33422,-0.293348
371,470,2.22498,-0.0305176,0,0,0,0,0,0,0,-1,1595,554,2.22494,0.0305046
378,470,6.27051,0.710083,0,0,0,0,0,0,0,-1,1602,554,6.27054,-0.710093
385,470,10.3657,1.47296,0,0,0,0,0,0,0,-1,1609,554,10.3657,-1.47299
392,470,15.3881,3.01935,0,0,0,0,0,0,0,-1,1616,554,15.388,-3.01937
399,470,18.4479,2.93793,0,0,0,0,0,0,0,-1,1623,554,18.4479,-2.93792
406,470,15.1896,1.36676,0,0,0,0,0,0,0,-1,1630,554,15.1896,-1.36679
413,470,6.55383,1.99207,0,0,0,0,0,0,0,-1,1637,554,6.5538,-1.99208
420,470,4.47095,0.845703,0,0,0,0,0,0,0,-1,1644,554,4.47098,-0.845718
427,470,3.51038,1.19684,0,0,0,0,0,0,0,-1,1651,554,3.51039,-1.19684
434,470,3.31775,-1.37427,0,0,0,0,0,0,0,-1,1658,554,3.31781,1.37426
441,470,2.55457,-2.05902,0,0,0,0,0,0,0,-1,1665,554,2.55461,2.05904
448,470,3.27258,-2.64032,0,0,0,0,0,0,0,-1,1672,554,3.27257,2.64029
455,470,10.3658,-9.82233,0,0,0,0,0,0,0,-1,1679,554,10.3659,9.82233
462,470,11.0651,-11.9958,0,0,0,0,0,0,0,-1,1686,554,11.0651,11.9958
469,470,15.4242,-19.0521,0,0,0,0,0,0,0,-1,1693,554,15.4242,19.0521
476,470,46.6334,-90.0107,0,0,0,0,0,0,0,-1,1700,554,46.6335,90.0108
483,470,46.068,-87.1808,0.00225626,-0.000884167,-0.00236589,0.00352559,-0.0021535,-0.49243,0.00331057,0.0324495,1707,554,46.068,87.1808
490,470,45.5394,-84.567,0.00244582,-0.000841937,-0.00164432,0.00312705,-0.00152317,-0.392767,0.00273752,0.0163628,1714,554,45.5394,84.567
497,470,45.0438,-81.8688,0.00248669,-0.000310599,-0.00072722,0.00266445,-0.000488361,-0.239739,0.00195948,0.0172335,1721,554,45.0438,81.8688
504,470,44.5431,-79.2018,0.00236146,0.000308058,0.000131959,0.0023699,0.000299613,0.0639131,0.00149014,0.0234836,1728,554,44.543,79.2018
511,470,44.1292,-76.5901,0.00218896,0.000819655,0.000898168,0.00263367,0.000374947,0.459742,0.0016451,0.0329294,1735,554,44.1291,76.5901
518,470,43.6656,-73.854,0.00195487,0.00139125,0.00157217,0.00327029,7.58348e-05,0.696715,0.00215536,0.0317469,1742,554,43.6657,73.854
525,470,42.9993,-71.0803,0.0018232,0.00184608,0.00217875,0.00401342,-0.000344136,0.788023,0.00279739,0.0200268,1749,554,42.9993,71.0803
532,470,42.3792,-68.3387,0.00187525,0.0022593,0.00269023,0.00476435,-0.000629793,0.821027,0.00340563,0.0219848,1756,554,42.3792,68.3387
539,470,41.8152,-65.6375,0.00226706,0.00264658,0.00308232,0.00554498,-0.00063134,0.816142,0.00392407,0.0275562,1763,554,41.8151,65.6375
546,470,41.2471,-62.9848,0.00302602,0.00296932,0.00343128,0.00642907,-0.000433727,0.781267,0.00443769,0.0236685,1770,554,41.2471,62.9848
553,470,40.7806,-60.3472,0,0,0,0,0,0,0,-1,1777,554,40.7806,60.3472
560,470,39.2303,-47.1494,0,0,0,0,0,0,0,-1,1784,554,39.2304,47.1493
567,470,30.5542,-27.1653,0,0,0,0,0,0,0,-1,1791,554,30.5542,27.1653
574,470,30.1276,-24.6316,0,0,0,0,0,0,0,-1,1798,554,30.1275,24.6316
581,470,8.24646,-4.06317,0,0,0,0,0,0,0,-1,1805,554,8.24648,4.06318
588,470,11.1803,1.74927,0,0,0,0,0,0,0,-1,1812,554,11.1803,-1.74926
595,470,4.72192,3.44116,0,0,0,0,0,0,0,-1,1819,554,4.72191,-3.44116
602,470,14.4307,2.76141,0,0,0,0,0,0,0,-1,1826,554,14.4306,-2.76139
609,470,20.9181,4.41058,0,0,0,0,0,0,0,-1,1833,554,20.9181,-4.4106
616,470,0,0,0,0,0,0,0,0,0,-1,1840,554,0,0
623,470,0,0,0,0,0,0,0,0,0,-1,1847,554,0,0
630,470,0,0,0,0,0,0,0,0,0,-1,1854,554,0,0
637,470,0,0,0,0,0,0,0,0,0,-1,1861,554,0,0
644,470,0,0,0,0,0,0,0,0,0,-1,1868,554,0,0
651,470,0,0,0,0,0,0,0,0,0,-1,1875,554,0,0
658,470,0,0,0,0,0,0,0,0,0,-1,1882,554,0,0
665,470,0,0,0,0,0,0,0,0,0,-1,1889,554,0,0
672,470,0,0,0,0,0,0,0,0,0,-1,1896,554,0,0
679,470,0,0,0,0,0,0,0,0,0,-1,1903,554,0,0
686,470,0,0,0,0,0,0,0,0,0,-1,1910,554,0,0
693,470,0,0,0,0,0,0,0,0,0,-1,1917,554,0,0
700,470,0,0,0,0,0,0,0,0,0,-1,1924,554,0,0
707,470,0,0,0,0,0,0,0,0,0,-1,1931,554,0,0
714,470,0,0,0,0,0,0,0,0,0,-1,1938,554,0,0
721,470,0,0,0,0,0,0,0,0,0,-1,1945,554,0,0
728,470,0,0,0,0,0,0,0,0,0,-1,1952,554,0,0
735,470,0,0,0,0,0,0,0,0,0,-1,1959,554,0,0
742,470,0,0,0,0,0,0,0,0,0,-1,1966,554,0,0
749,470,0,0,0,0,0,0,0,0,0,-1,1973,554,0,0
756,470,0,0,0,0,0,0,0,0,0,-1,1980,554,0,0
763,470,0,0,0,0,0,0,0,0,0,-1,1987,554,0,0
770,470,0,0,0,0,0,0,0,0,0,-1,1994,554,0,0
777,470,0,0,0,0,0,0,0,0,0,-1,2001,554,0,0
784,470,0,0,0,0,0,0,0,0,0,-1,2008,554,0,0
791,470,0,0,0,0,0,0,0,0,0,-1,2015,554,0,0
798,470,0,0,0,0,0,0,0,0,0,-1,2022,554,0,0
805,470,0,0,0,0,0,0,0,0,0,-1,2029,554,0,0
812,470,0,0,0,0,0,0,0,0,0,-1,2036,554,0,0
-700,463,0,0,0,0,0,0,0,0,0,-1,524,561,0,0
-693,463,0,0,0,0,0,0,0,0,0,-1,531,561,0,0
-686,463,0,0,0,0,0,0,0,0,0,-1,538,561,0,0
-679,463,0,0,0,0,0,0,0,0,0,-1,545,561,0,0
-672,463,0,0,0,0,0,0,0,0,0,-1,552,561,0,0
-665,463,0,0,0,0,0,0,0,0,0,-1,559,561,0,0
-658,463,0,0,0,0,0,0,0,0,0,-1,566,561,0,0
-651,463,0,0,0,0,0,0,0,0,0,-1,573,561,0,0
-644,463,0,0,0,0,0,0,0,0,0,-1,580,561,0,0
-637,463,0,0,0,0,0,0,0,0,0,-1,587,561,0,0
-630,463,0,0,0,0,0,0,0,0,0,-1,594,561,0,0
-623,463,0,0,0,0,0,0,0,0,0,-1,601,561,0,0
-616,463,0,0,0,0,0,0,0,0,0,-1,608,561,0,0
-609,463,0,0,0,0,0,0,0,0,0,-1,615,561,0,0
-602,463,0,0,0,0,0,0,0,0,0,-1,622,561,0,0
-595,463,0,0,0,0,0,0,0,0,0,-1,629,561,0,0
-588,463,0,0,0,0,0,0,0,0,0,-1,636,561,0,0
-581,463,0,0,0,0,0,0,0,0,0,-1,643,561,0,0
-574,463,0,0,0,0,0,0,0,0,0,-1,650,561,0,0
-567,463,0,0,0,0,0,0,0,0,0,-1,657,561,0,0
-560,463,0,0,0,0,0,0,0,0,0,-1,664,561,0,0
-553,463,0,0,0,0,0,0,0,0,0,-1,671,561,0,0
-546,463,0,0,0,0,0,0,0,0,0,-1,678,561,0,0
-539,463,0,0,0,0,0,0,0,0,0,-1,685,561,0,0
-532,463,0,0,0,0,0,0,0,0,0,-1,692,561,0,0
-525,463,0,0,0,0,0,0,0,0,0,-1,699,561,0,0
-518,463,0,0,0,0,0,0,0,0,0,-1,706,561,0,0
-511,463,0,0,0,0,0,0,0,0,0,-1,713,561,0,0
-504,463,0,0,0,0,0,0,0,0,0,-1,720,561,0,0
-497,463,-9.81451,-1.67126,0,0,0,0,0,0,0,-1,727,561,-9.81452,1.67127
-490,463,-8.57043,-1.58942,0,0,0,0,0,0,0,-1,734,561,-8.57045,1.58944
-483,463,-7.29224,-1.7226,0,0,0,0,0,0,0,-1,741,561,-7.29226,1.72261
-476,463,-5.77704,-1.7312,0,0,0,0,0,0,0,-1,748,561,-5.77703,1.73121
-469,463,-5.14545,-2.138,0,0,0,0,0,0,0,-1,755,561,-5.14546,2.13799
-462,463,-3.13672,-3.07977,0,0,0,0,0,0,0,-1,762,561,-3.13672,3.07974
-455,463,-2.91406,-5.61798,0,0,0,0,0,0,0,-1,769,561,-2.91406,5.61801
-448,463,-4.00177,-8.54681,0,0,0,0,0,0,0,-1,776,561,-4.00175,8.54683
-441,463,-14.0842,-26.1147,0,0,0,0,0,0,0,-1,783,561,-14.0842,26.1147
-434,463,-31.9426,-54.9643,0,0,0,0,0,0,0,-1,790,561,-31.9426,54.9643
-427,463,-32.4605,-57.9228,0.00377682,0.00816936,-0.00478791,0.0112407,0.000705482,-1.00044,0.00727006,0.0176307,797,561,-32.4605,57.9228
-420,463,-32.9752,-60.6797,0.00305933,0.00667514,-0.00399506,0.00925232,0.000482148,-0.997878,0.00601395,0.0131468,804,561,-32.9752,60.6797
-413,463,-33.4952,-63.44,0.00250891,0.00519318,-0.00320736,0.0073279,0.00037419,-0.983555,0.00476543,0.0139665,811,561,-33.4952,63.44
-406,463,-34.0519,-66.1348,0.00209858,0.00368718,-0.0023732,0.00539548,0.00039028,-0.946886,0.00347421,0.0164955,818,561,-34.0519,66.1348
-399,463,-34.6619,-68.7816,0.0018319,0.00221303,-0.00153964,0.00357385,0.000471073,-0.846972,0.0022421,0.017749,825,561,-34.6619,68.7816
-392,463,-35.1985,-71.4799,0.00179381,0.000891419,-0.000774596,0.00223904,0.00044619,-0.521675,0.00136843,0.0142937,832,561,-35.1985,71.4799
-385,463,-35.7277,-74.2163,0.00188138,-0.000484009,3.43368e-05,0.00188188,-0.000484508,0.0145122,0.00144345,0.0143363,839,561,-35.7277,74.2163
-378,463,-36.255,-76.9242,0.00206243,-0.00191053,0.000870167,0.00224465,-0.00209276,0.206434,0.00250472,0.0167563,846,561,-36.255,76.9242
-371,463,-36.7666,-79.6309,0.00234247,-0.00338353,0.00170686,0.00281265,-0.00385372,0.268803,0.00386444,0.0166581,853,561,-36.7666,79.6309
-364,463,-37.278,-82.2614,0.0026191,-0.00487949,0.00257446,0.00341789,-0.00567828,0.300856,0.00530545,0.0203964,860,561,-37.2779,82.2614
-357,463,-37.8427,-84.8393,0.00276615,-0.00628186,0.00348642,0.00395369,-0.0074694,0.328293,0.00669843,0.0326344,867,561,-37.8426,84.8393
-350,463,-38.3458,-87.5894,0,0,0,0,0,0,0,-1,874,561,-38.3458,87.5893
-343,463,-21.5904,-55.3489,0,0,0,0,0,0,0,-1,881,561,-21.5904,55.3489
-336,463,-2.94928,-12.2127,0,0,0,0,0,0,0,-1,888,561,-2.94925,12.2127
-329,463,-2.64307,-12.7037,0,0,0,0,0,0,0,-1,895,561,-2.64307,12.7038
-322,463,-1.82898,-9.11957,0,0,0,0,0,0,0,-1,902,561,-1.829,9.11957
-315,463,-0.944763,-5.96234,0,0,0,0,0,0,0,-1,909,561,-0.94479,5.96237
-308,463,-1.1535,-3.17889,0,0,0,0,0,0,0,-1,916,561,-1.15352,3.17889
-301,463,-1.50366,-3.15338,0,0,0,0,0,0,0,-1,923,561,-1.50364,3.15341
-294,463,-2.35889,-3.93463,0,0,0,0,0,0,0,-1,930,561,-2.35886,3.93465
-287,463,-2.80322,2.73999,0,0,0,0,0,0,0,-1,937,561,-2.80322,-2.74
-280,463,-12.864,5.25146,0,0,0,0,0,0,0,-1,944,561,-12.864,-5.25149
-273,463,-12.4598,3.39178,0,0,0,0,0,0,0,-1,951,561,-12.4598,-3.3918
-266,463,-8.78101,-3.7356,0,0,0,0,0,0,0,-1,958,561,-8.78098,3.73562
-259,463,-6.23285,-5.68842,0,0,0,0,0,0,0,-1,965,561,-6.23288,5.68843
-252,463,0,0,0,0,0,0,0,0,0,-1,972,561,0,0
-245,463,0,0,0,0,0,0,0,0,0,-1,979,561,0,0
-238,463,0,0,0,0,0,0,0,0,0,-1,986,561,0,0
-231,463,0,0,0,0,0,0,0,0,0,-1,993,561,0,0
-224,463,0,0,0,0,0,0,0,0,0,-1,1000,561,0,0
-217,463,0,0,0,0,0,0,0,0,0,-1,1007,561,0,0
-210,463,0,0,0,0,0,0,0,0,0,-1,1014,561,0,0
-203,463,0,0,0,0,0,0,0,0,0,-1,1021,561,0,0
-196,463,0,0,0,0,0,0,0,0,0,-1,1028,561,0,0
-189,463,0,0,0,0,0,0,0,0,0,-1,1035,561,0,0
-182,463,0,0,0,0,0,0,0,0,0,-1,1042,561,0,0
-175,463,0,0,0,0,0,0,0,0,0,-1,1049,561,0,0
-168,463,0,0,0,0,0,0,0,0,0,-1,1056,561,0,0
-161,463,0,0,0,0,0,0,0,0,0,-1,1063,561,0,0
-154,463,0,0,0,0,0,0,0,0,0,-1,1070,561,0,0
-147,463,0,0,0,0,0,0,0,0,0,-1,1077,561,0,0
-140,463,0,0,0,0,0,0,0,0,0,-1,1084,561,0,0
-133,463,0,0,0,0,0,0,0,0,0,-1,1091,561,0,0
-126,463,0,0,0,0,0,0,0,0,0,-1,1098,561,0,0
-119,463,0,0,0,0,0,0,0,0,0,-1,1105,561,0,0
-112,463,0,0,0,0,0,0,0,0,0,-1,1112,561,0,0
-105,463,0,0,0,0,0,0,0,0,0,-1,1119,561,0,0
-98,463,0,0,0,0,0,0,0,0,0,-1,1126,561,0,0
-91,463,0,0,0,0,0,0,0,0,0,-1,1133,561,0,0
-84,463,0,0,0,0,0,0,0,0,0,-1,1140,561,0,0
-77,463,0,0,0,0,0,0,0,0,0,-1,1147,561,0,0
-70,463,0,0,0,0,0,0,0,0,0,-1,1154,561,0,0
-63,463,0,0,0,0,0,0,0,0,0,-1,1161,561,0,0
-56,463,0,0,0,0,0,0,0,0,0,-1,1168,561,0,0
-49,463,0,0,0,0,0,0,0,0,0,-1,1175,561,0,0
-42,463,0,0,0,0,0,0,0,0,0,-1,1182,561,0,0
-35,463,0,0,0,0,0,0,0,0,0,-1,1189,561,0,0
-28,463,0,0,0,0,0,0,0,0,0,-1,1196,561,0,0
-21,463,0,0,0,0,0,0,0,0,0,-1,1203,561,0,0
-14,463,0,0,0,0,0,0,0,0,0,-1,1210,561,0,0
-7,463,0,0,0,0,0,0,0,0,0,-1,1217,561,0,0
0,463,0,0,0,0,0,0,0,0,0,-1,1224,561,0,0
7,463,0,0,0,0,0,0,0,0,0,-1,1231,561,0,0
14,463,0,0,0,0,0,0,0,0,0,-1,1238,561,0,0
21,463,0,0,0,0,0,0,0,0,0,-1,1245,561,0,0
28,463,0,0,0,0,0,0,0,0,0,-1,1252,561,0,0
35,463,0,0,0,0,0,0,0,0,0,-1,1259,561,0,0
42,463,0,0,0,0,0,0,0,0,0,-1,1266,561,0,0
49,463,0,0,0,0,0,0,0,0,0,-1,1273,561,0,0
56,463,0,0,0,0,0,0,0,0,0,-1,1280,561,0,0
63,463,0,0,0,0,0,0,0,0,0,-1,1287,561,0,0
70,463,0,0,0,0,0,0,0,0,0,-1,1294,561,0,0
77,463,0,0,0,0,0,0,0,0,0,-1,1301,561,0,0
84,463,0,0,0,0,0,0,0,0,0,-1,1308,561,0,0
91,463,0,0,0,0,0,0,0,0,0,-1,1315,561,0,0
98,463,0,0,0,0,0,0,0,0,0,-1,1322,561,0,0
105,463,0,0,0,0,0,0,0,0,0,-1,1329,561,0,0
112,463,0,0,0,0,0,0,0,0,0,-1,1336,561,0,0
119,463,0,0,0,0,0,0,0,0,0,-1,1343,561,0,0
126,463,0,0,0,0,0,0,0,0,0,-1,1350,561,0,0
133,463,0,0,0,0,0,0,0,0,0,-1,1357,561,0,0
140,463,0,0,0,0,0,0,0,0,0,-1,1364,561,0,0
147,463,0,0,0,0,0,0,0,0,0,-1,1371,561,0,0
154,463,0,0,0,0,0,0,0,0,0,-1,1378,561,0,0
161,463,0,0,0,0,0,0,0,0,0,-1,1385,561,0,0
168,463,0,0,0,0,0,0,0,0,0,-1,1392,561,0,0
175,463,0,0,0,0,0,0,0,0,0,-1,1399,561,0,0
182,463,0,0,0,0,0,0,0,0,0,-1,1406,561,0,0
189,463,0,0,0,0,0,0,0,0,0,-1,1413,561,0,0
196,463,0,0,0,0,0,0,0,0,0,-1,1420,561,0,0
203,463,0,0,0,0,0,0,0,0,0,-1,1427,561,0,0
210,463,0,0,0,0,0,0,0,0,0,-1,1434,561,0,0
217,463,0,0,0,0,0,0,0,0,0,-1,1441,561,0,0
224,463,0,0,0,0,0,0,0,0,0,-1,1448,561,0,0
231,463,0,0,0,0,0,0,0,0,0,-1,1455,561,0,0
238,463,0,0,0,0,0,0,0,0,0,-1,1462,561,0,0
245,463,0,0,0,0,0,0,0,0,0,-1,1469,561,0,0
252,463,0,0,0,0,0,0,0,0,0,-1,1476,561,0,0
259,463,0,0,0,0,0,0,0,0,0,-1,1483,561,0,0
266,463,0,0,0,0,0,0,0,0,0,-1,1490,561,0,0
273,463,0,0,0,0,0,0,0,0,0,-1,1497,561,0,0
280,463,0,0,0,0,0,0,0,0,0,-1,1504,561,0,0
287,463,0,0,0,0,0,0,0,0,0,-1,1511,561,0,0
294,463,0,0,0,0,0,0,0,0,0,-1,1518,561,0,0
301,463,0,0,0,0,0,0,0,0,0,-1,1525,561,0,0
308,463,0,0,0,0,0,0,0,0,0,-1,1532,561,0,0
315,463,0,0,0,0,0,0,0,0,0,-1,1539,561,0,0
322,463,0,0,0,0,0,0,0,0,0,-1,1546,561,0,0
329,463,0,0,0,0,0,0,0,0,0,-1,1553,561,0,0
336,463,0,0,0,0,0,0,0,0,0,-1,1560,561,0,0
343,463,0,0,0,0,0,0,0,0,0,-1,1567,561,0,0
350,463,0,0,0,0,0,0,0,0,0,-1,1574,561,0,0
357,463,0,0,0,0,0,0,0,0,0,-1,1581,561,0,0
364,463,0,0,0,0,0,0,0,0,0,-1,1588,561,0,0
371,463,1.75842,0.152588,0,0,0,0,0,0,0,-1,1595,561,1.75844,-0.152558
378,463,4.58813,-0.0444336,0,0,0,0,0,0,0,-1,1602,561,4.58809,0.0444505
385,463,8.88574,1.65057,0,0,0,0,0,0,0,-1,1609,561,8.88575,-1.65055
392,463,14.0912,2.50513,0,0,0,0,0,0,0,-1,1616,561,14.0912,-2.5051
399,463,21.4769,2.7002,0,0,0,0,0,0,0,-1,1623,561,21.477,-2.70017
406,463,26.2987,4.32318,0,0,0,0,0,0,0,-1,1630,561,26.2987,-4.3232
413,463,26.5011,2.65222,0,0,0,0,0,0,0,-1,1637,561,26.5011,-2.65224
420,463,8.849,2.26611,0,0,0,0,0,0,0,-1,1644,561,8.84899,-2.26613
427,463,5.12207,1.69183,0,0,0,0,0,0,0,-1,1651,561,5.12206,-1.69184
434,463,4.59814,1.81995,0,0,0,0,0,0,0,-1,1658,561,4.59812,-1.81994
441,463,1.76392,-5.99225,0,0,0,0,0,0,0,-1,1665,561,1.7639,5.99225
448,463,2.49939,-4.30536,0,0,0,0,0,0,0,-1,1672,561,2.49941,4.30536
455,463,4.40295,-3.02557,0,0,0,0,0,0,0,-1,1679,561,4.40299,3.02558
462,463,5.38293,-4.06445,0,0,0,0,0,0,0,-1,1686,561,5.38289,4.06444
469,463,5.94373,-4.50647,0,0,0,0,0,0,0,-1,1693,561,5.94368,4.50646
476,463,15.2559,-17.3189,0,0,0,0,0,0,0,-1,1700,561,15.2558,17.3189
483,463,48.9008,-86.8239,0,0,0,0,0,0,0,-1,1707,561,48.9008,86.8239
490,463,48.3325,-84.0765,0.00259591,-0.00119232,-0.00220651,0.00360978,-0.00220618,-0.430717,0.00339028,0.0423764,1714,561,48.3325,84.0766
497,463,47.7124,-81.332,0.00280317,-0.000769447,-0.00128398,0.00321675,-0.00118303,-0.311613,0.00262911,0.0200166,1721,561,47.7125,81.3321
504,463,47.2346,-78.6494,0.00263785,-0.000172406,-0.000503433,0.00272531,-0.000259869,-0.172017,0.0019094,0.0206079,1728,561,47.2347,78.6494
511,463,46.8225,-76.0235,0.00242478,0.000275057,0.000245752,0.00245252,0.000247321,0.112386,0.00155913,0.0300924,1735,561,46.8225,76.0235
518,463,46.3578,-73.2418,0.00217961,0.000780367,0.000874181,0.00259966,0.000360319,0.44793,0.00162636,0.0301119,1742,561,46.3578,73.2418
525,463,45.647,-70.5738,0.00202371,0.00115047,0.00142485,0.00307734,9.684e-05,0.636724,0.00202005,0.0235756,1749,561,45.647,70.5738
532,463,45.21,-67.8506,0.00201079,0.00149254,0.00185259,0.00362229,-0.000118957,0.715913,0.00245547,0.0270823,1756,561,45.21,67.8506
539,463,44.6342,-65.204,0.00229215,0.00179701,0.00221186,0.00427025,-0.000181092,0.729666,0.00290908,0.0335672,1763,561,44.6342,65.204
546,463,44.0452,-62.6175,0.00286942,0.00197779,0.00250896,0.00497186,-0.000124659,0.697471,0.0033569,0.0264786,1770,561,44.0451,62.6175
553,463,43.5317,-59.7142,0.00374121,0.00203787,0.00277267,0.00579006,-1.09836e-05,0.636389,0.00386371,0.0157654,1777,561,43.5318,59.7142
560,463,43.0503,-56.7498,0,0,0,0,0,0,0,-1,1784,561,43.0503,56.7498
567,463,41.8932,-47.9838,0,0,0,0,0,0,0,-1,1791,561,41.8932,47.9838
574,463,32.9689,-27.5378,0,0,0,0,0,0,0,-1,1798,561,32.9689,27.5379
581,463,9.4939,-3.88245,0,0,0,0,0,0,0,-1,1805,561,9.49392,3.88245
588,463,1.97424,2.16016,0,0,0,0,0,0,0,-1,1812,561,1.97422,-2.16013
595,463,9.98657,2.99854,0,0,0,0,0,0,0,-1,1819,561,9.98662,-2.99856
602,463,17.2202,4.91302,0,0,0,0,0,0,0,-1,1826,561,17.2202,-4.91305
609,463,17.96,4.03131,0,0,0,0,0,0,0,-1,1833,561,17.96,-4.03132
616,463,20.8352,3.15131,0,0,0,0,0,0,0,-1,1840,561,20.8352,-3.1513
623,463,0,0,0,0,0,0,0,0,0,-1,1847,561,0,0
630,463,0,0,0,0,0,0,0,0,0,-1,1854,561,0,0
637,463,0,0,0,0,0,0,0,0,0,-1,1861,561,0,0
644,463,0,0,0,0,0,0,0,0,0,-1,1868,561,0,0
651,463,0,0,0,0,0,0,0,0,0,-1,1875,561,0,0
658,463,0,0,0,0,0,0,0,0,0,-1,1882,561,0,0
665,463,0,0,0,0,0,0,0,0,0,-1,1889,561,0,0
672,463,0,0,0,0,0,0,0,0,0,-1,1896,561,0,0
679,463,0,0,0,0,0,0,0,0,0,-1,1903,561,0,0
686,463,0,0,0,0,0,0,0,0,0,-1,1910,561,0,0
693,463,0,0,0,0,0,0,0,0,0,-1,1917,561,0,0
700,463,0,0,0,0,0,0,0,0,0,-1,1924,561,0,0
707,463,0,0,0,0,0,0,0,0,0,-1,1931,561,0,0
714,463,0,0,0,0,0,0,0,0,0,-1,1938,561,0,0
721,463,0,0,0,0,0,0,0,0,0,-1,1945,561,0,0
728,463,0,0,0,0,0,0,0,0,0,-1,1952,561,0,0
735,463,0,0,0,0,0,0,0,0,0,-1,1959,561,0,0
742,463,0,0,0,0,0,0,0,0,0,-1,1966,561,0,0
749,463,0,0,0,0,0,0,0,0,0,-1,1973,561,0,0
756,463,0,0,0,0,0,0,0,0,0,-1,1980,561,0,0
763,463,0,0,0,0,0,0,0,0,0,-1,1987,561,0,0
770,463,0,0,0,0,0,0,0,0,0,-1,1994,561,0,0
777,463,0,0,0,0,0,0,0,0,0,-1,2001,561,0,0
784,463,0,0,0,0,0,0,0,0,0,-1,2008,561,0,0
791,463,0,0,0,0,0,0,0,0,0,-1,2015,561,0,0
798,463,0,0,0,0,0,0,0,0,0,-1,2022,561,0,0
805,463,0,0,0,0,0,0,0,0,0,-1,2029,561,0,0
812,463,0,0,0,0,0,0,0,0,0,-1,2036,561,0,0
-700,456,0,0,0,0,0,0,0,0,0,-1,524,568,0,0
-693,456,0,0,0,0,0,0,0,0,0,-1,531,568,0,0
-686,456,0,0,0,0,0,0,0,0,0,-1,538,568,0,0
-679,456,0,0,0,0,0,0,0,0,0,-1,545,568,0,0
-672,456,0,0,0,0,0,0,0,0,0,-1,552,568,0,0
-665,456,0,0,0,0,0,0,0,0,0,-1,559,568,0,0
-658,456,0,0,0,0,0,0,0,0,0,-1,566,568,0,0
-651,456,0,0,0,0,0,0,0,0,0,-1,573,568,0,0
-644,456,0,0,0,0,0,0,0,0,0,-1,580,568,0,0
-637,456,0,0,0,0,0,0,0,0,0,-1,587,568,0,0
-630,456,0,0,0,0,0,0,0,0,0,-1,594,568,0,0
-623,456,0,0,0,0,0,0,0,0,0,-1,601,568,0,0
-616,456,0,0,0,0,0,0,0,0,0,-1,608,568,0,0
-609,456,0,0,0,0,0,0,0,0,0,-1,615,568,0,0
-602,456,0,0,0,0,0,0,0,0,0,-1,622,568,0,0
-595,456,0,0,0,0,0,0,0,0,0,-1,629,568,0,0
-588,456,0,0,0,0,0,0,0,0,0,-1,636,568,0,0
-581,456,0,0,0,0,0,0,0,0,0,-1,643,568,0,0
-574,456,0,0,0,0,0,0,0,0,0,-1,650,568,0,0
-567,456,0,0,0,0,0,0,0,0,0,-1,657,568,0,0
-560,456,0,0,0,0,0,0,0,0,0,-1,664,568,0,0
-553,456,0,0,0,0,0,0,0,0,0,-1,671,568,0,0
-546,456,0,0,0,0,0,0,0,0,0,-1,678,568,0,0
-539,456,0,0,0,0,0,0,0,0,0,-1,685,568,0,0
-532,456,0,0,0,0,0,0,0,0,0,-1,692,568,0,0
-525,456,0,0,0,0,0,0,0,0,0,-1,699,568,0,0
-518,456,0,0,0,0,0,0,0,0,0,-1,706,568,0,0
-511,456,0,0,0,0,0,0,0,0,0,-1,713,568,0,0
-504,456,-10.3994,-2.34839,0,0,0,0,0,0,0,-1,720,568,-10.3994,2.3484
-497,456,-9.21375,-2.38068,0,0,0,0,0,0,0,-1,727,568,-9.21372,2.38069
-490,456,-8.09058,-2.31824,0,0,0,0,0,0,0,-1,734,568,-8.09057,2.31821
-483,456,-6.66119,-2.24329,0,0,0,0,0,0,0,-1,741,568,-6.66121,2.24331
-476,456,-5.1499,-2.21185,0,0,0,0,0,0,0,-1,748,568,-5.14992,2.21184
-469,456,-2.81238,-3.51501,0,0,0,0,0,0,0,-1,755,568,-2.81237,3.51501
-462,456,-4.2431,-5.27478,0,0,0,0,0,0,0,-1,762,568,-4.24312,5.27476
-455,456,-5.98364,-8.72119,0,0,0,0,0,0,0,-1,769,568,-5.98364,8.72122
-448,456,-10.723,-19.1761,0,0,0,0,0,0,0,-1,776,568,-10.723,19.1761
-441,456,-34.3082,-51.5574,0,0,0,0,0,0,0,-1,783,568,-34.3082,51.5574
-434,456,-34.6884,-54.6104,0.00370295,0.00700427,-0.00403807,0.00971603,0.000991189,-0.979422,0.00617354,0.0359789,790,568,-34.6883,54.6104
-427,456,-35.1756,-57.406,0.00302254,0.00565855,-0.00324796,0.00784574,0.00083535,-0.978144,0.00497548,0.0131379,797,568,-35.1756,57.406
-420,456,-35.691,-60.1359,0.00253837,0.00443191,-0.00258351,0.00623667,0.000733612,-0.961032,0.0039361,0.0148692,804,568,-35.691,60.1359
-413,456,-36.2267,-62.853,0.0021357,0.00317897,-0.0019084,0.00463574,0.000678926,-0.918808,0.00289088,0.0136081,811,568,-36.2267,62.8529
-406,456,-36.815,-65.5265,0.00182467,0.00190214,-0.00119412,0.00305815,0.000668659,-0.801613,0.00185647,0.0135226,818,568,-36.815,65.5265
-399,456,-37.4124,-68.2054,0.00166528,0.000668168,-0.000510162,0.00188004,0.000453406,-0.398451,0.00113289,0.0159168,825,568,-37.4123,68.2054
-392,456,-37.8955,-70.9128,0.00172839,-0.000434494,0.000114653,0.00173445,-0.000440555,0.0528122,0.00132774,0.0143695,832,568,-37.8955,70.9128
-385,456,-38.3921,-73.6299,0.00190966,-0.00159346,0.000799881,0.00208366,-0.00176746,0.214192,0.00222594,0.0133305,839,568,-38.3921,73.63
-378,456,-38.9409,-76.3527,0.00222183,-0.00279076,0.00152227,0.00264791,-0.00321684,0.272913,0.00339132,0.0149295,846,568,-38.9409,76.3527
-371,456,-39.4574,-79.037,0.00269778,-0.00396118,0.00220408,0.00336122,-0.00462462,0.292378,0.00462982,0.0160917,853,568,-39.4574,79.0371
-364,456,-39.9449,-81.6475,0.0031399,-0.00521642,0.00293325,0.00406674,-0.00614326,0.306048,0.00593524,0.0391071,860,568,-39.9449,81.6475
-357,456,-40.4747,-84.4653,0,0,0,0,0,0,0,-1,867,568,-40.4747,84.4653
-350,456,-24.6786,-56.8698,0,0,0,0,0,0,0,-1,874,568,-24.6786,56.8698
-343,456,-3.39081,-12.0217,0,0,0,0,0,0,0,-1,881,568,-3.39078,12.0217
-336,456,-3.04517,-12.4623,0,0,0,0,0,0,0,-1,888,568,-3.04519,12.4624
-329,456,-1.06183,-10.7184,0,0,0,0,0,0,0,-1,895,568,-1.06184,10.7184
-322,456,-0.662537,-7.66632,0,0,0,0,0,0,0,-1,902,568,-0.662564,7.66633
-315,456,-0.675476,-3.38397,0,0,0,0,0,0,0,-1,909,568,-0.675473,3.38399
-308,456,-1.1618,-3.15314,0,0,0,0,0,0,0,-1,916,568,-1.16178,3.15314
-301,456,-1.83551,-3.26447,0,0,0,0,0,0,0,-1,923,568,-1.8355,3.26449
-294,456,-2.93414,-3.35449,0,0,0,0,0,0,0,-1,930,568,-2.93413,3.35451
-287,456,-3.7569,-3.53101,0,0,0,0,0,0,0,-1,937,568,-3.75692,3.53101
-280,456,-13.072,4.52856,0,0,0,0,0,0,0,-1,944,568,-13.072,-4.52855
-273,456,-8.26538,-6.66748,0,0,0,0,0,0,0,-1,951,568,-8.26536,6.66745
-266,456,-5.71527,-9.36884,0,0,0,0,0,0,0,-1,958,568,-5.71529,9.36885
-259,456,0,0,0,0,0,0,0,0,0,-1,965,568,0,0
-252,456,0,0,0,0,0,0,0,0,0,-1,972,568,0,0
-245,456,0,0,0,0,0,0,0,0,0,-1,979,568,0,0
-238,456,0,0,0,0,0,0,0,0,0,-1,986,568,0,0
-231,456,0,0,0,0,0,0,0,0,0,-1,993,568,0,0
-224,456,0,0,0,0,0,0,0,0,0,-1,1000,568,0,0
-217,456,0,0,0,0,0,0,0,0,0,-1,1007,568,0,0
-210,456,0,0,0,0,0,0,0,0,0,-1,1014,568,0,0
-203,456,0,0,0,0,0,0,0,0,0,-1,1021,568,0,0
-196,456,0,0,0,0,0,0,0,0,0,-1,1028,568,0,0
-189,456,0,0,0,0,0,0,0,0,0,-1,1035,568,0,0
-182,456,0,0,0,0,0,0,0,0,0,-1,1042,568,0,0
-175,456,0,0,0,0,0,0,0,0,0,-1,1049,568,0,0
-168,456,0,0,0,0,0,0,0,0,0,-1,1056,568,0,0
-161,456,0,0,0,0,0,0,0,0,0,-1,1063,568,0,0
-154,456,0,0,0,0,0,0,0,0,0,-1,1070,568,0,0
-147,456,0,0,0,0,0,0,0,0,0,-1,1077,568,0,0
-140,456,0,0,0,0,0,0,0,0,0,-1,1084,568,0,0
-133,456,0,0,0,0,0,0,0,0,0,-1,1091,568,0,0
-126,456,0,0,0,0,0,0,0,0,0,-1,1098,568,0,0
-119,456,0,0,0,0,0,0,0,0,0,-1,1105,568,0,0
-112,456,0,0,0,0,0,0,0,0,0,-1,1112,568,0,0
-105,456,0,0,0,0,0,0,0,0,0,-1,1119,568,0,0
-98,456,0,0,0,0,0,0,0,0,0,-1,1126,568,0,0
-91,456,0,0,0,0,0,0,0,0,0,-1,1133,568,0,0
-84,456,0,0,0,0,0,0,0,0,0,-1,1140,568,0,0
-77,456,0,0,0,0,0,0,0,0,0,-1,1147,568,0,0
-70,456,0,0,0,0,0,0,0,0,0,-1,1154,568,0,0
-63,456,0,0,0,0,0,0,0,0,0,-1,1161,568,0,0
-56,456,0,0,0,0,0,0,0,0,0,-1,1168,568,0,0
-49,456,0,0,0,0,0,0,0,0,0,-1,1175,568,0,0
-42,456,0,0,0,0,0,0,0,0,0,-1,1182,568,0,0
-35,456,0,0,0,0,0,0,0,0,0,-1,1189,568,0,0
-28,456,0,0,0,0,0,0,0,0,0,-1,1196,568,0,0
-21,456,0,0,0,0,0,0,0,0,0,-1,1203,568,0,0
-14,456,0,0,0,0,0,0,0,0,0,-1,1210,568,0,0
-7,456,0,0,0,0,0,0,0,0,0,-1,1217,568,0,0
0,456,0,0,0,0,0,0,0,0,0,-1,1224,568,0,0
7,456,0,0,0,0,0,0,0,0,0,-1,1231,568,0,0
14,456,0,0,0,0,0,0,0,0,0,-1,1238,568,0,0
21,456,0,0,0,0,0,0,0,0,0,-1,1245,568,0,0
28,456,0,0,0,0,0,0,0,0,0,-1,1252,568,0,0
35,456,0,0,0,0,0,0,0,0,0,-1,1259,568,0,0
42,456,0,0,0,0,0,0,0,0,0,-1,1266,568,0,0
49,456,0,0,0,0,0,0,0,0,0,-1,1273,568,0,0
56,456,0,0,0,0,0,0,0,0,0,-1,1280,568,0,0
63,456,0,0,0,0,0,0,0,0,0,-1,1287,568,0,0
70,456,0,0,0,0,0,0,0,0,0,-1,1294,568,0,0
77,456,0,0,0,0,0,0,0,0,0,-1,1301,568,0,0
84,456,0,0,0,0,0,0,0,0,0,-1,1308,568,0,0
91,456,0,0,0,0,0,0,0,0,0,-1,1315,568,0,0
98,456,0,0,0,0,0,0,0,0,0,-1,1322,568,0,0
105,456,0,0,0,0,0,0,0,0,0,-1,1329,568,0,0
112,456,0,0,0,0,0,0,0,0,0,-1,1336,568,0,0
119,456,0,0,0,0,0,0,0,0,0,-1,1343,568,0,0
126,456,0,0,0,0,0,0,0,0,0,-1,1350,568,0,0
133,456,0,0,0,0,0,0,0,0,0,-1,1357,568,0,0
140,456,0,0,0,0,0,0,0,0,0,-1,1364,568,0,0
147,456,0,0,0,0,0,0,0,0,0,-1,1371,568,0,0
154,456,0,0,0,0,0,0,0,0,0,-1,1378,568,0,0
161,456,0,0,0,0,0,0,0,0,0,-1,1385,568,0,0
168,456,0,0,0,0,0,0,0,0,0,-1,1392,568,0,0
175,456,0,0,0,0,0,0,0,0,0,-1,1399,568,0,0
182,456,0,0,0,0,0,0,0,0,0,-1,1406,568,0,0
189,456,0,0,0,0,0,0,0,0,0,-1,1413,568,0,0
196,456,0,0,0,0,0,0,0,0,0,-1,1420,568,0,0
203,456,0,0,0,0,0,0,0,0,0,-1,1427,568,0,0
210,456,0,0,0,0,0,0,0,0,0,-1,1434,568,0,0
217,456,0,0,0,0,0,0,0,0,0,-1,1441,568,0,0
224,456,0,0,0,0,0,0,0,0,0,-1,1448,568,0,0
231,456,0,0,0,0,0,0,0,0,0,-1,1455,568,0,0
238,456,0,0,0,0,0,0,0,0,0,-1,1462,568,0,0
245,456,0,0,0,0,0,0,0,0,0,-1,1469,568,0,0
252,456,0,0,0,0,0,0,0,0,0,-1,1476,568,0,0
259,456,0,0,0,0,0,0,0,0,0,-1,1483,568,0,0
266,456,0,0,0,0,0,0,0,0,0,-1,1490,568,0,0
273,456,0,0,0,0,0,0,0,0,0,-1,1497,568,0,0
280,456,0,0,0,0,0,0,0,0,0,-1,1504,568,0,0
287,456,0,0,0,0,0,0,0,0,0,-1,1511,568,0,0
294,456,0,0,0,0,0,0,0,0,0,-1,1518,568,0,0
301,456,0,0,0,0,0,0,0,0,0,-1,1525,568,0,0
308,456,0,0,0,0,0,0,0,0,0,-1,1532,568,0,0
315,456,0,0,0,0,0,0,0,0,0,-1,1539,568,0,0
322,456,0,0,0,0,0,0,0,0,0,-1,1546,568,0,0
329,456,0,0,0,0,0,0,0,0,0,-1,1553,568,0,0
336,456,0,0,0,0,0,0,0,0,0,-1,1560,568,0,0
343,456,0,0,0,0,0,0,0,0,0,-1,1567,568,0,0
350,456,0,0,0,0,0,0,0,0,0,-1,1574,568,0,0
357,456,0,0,0,0,0,0,0,0,0,-1,1581,568,0,0
364,456,0,0,0,0,0,0,0,0,0,-1,1588,568,0,0
371,456,0,0,0,0,0,0,0,0,0,-1,1595,568,0,0
378,456,0,0,0,0,0,0,0,0,0,-1,1602,568,0,0
385,456,5.66284,0.660645,0,0,0,0,0,0,0,-1,1609,568,5.66285,-0.660615
392,456,17.5027,4.32971,0,0,0,0,0,0,0,-1,1616,568,17.5026,-4.32971
399,456,24.1917,5.99652,0,0,0,0,0,0,0,-1,1623,568,24.1916,-5.99651
406,456,24.446,4.53003,0,0,0,0,0,0,0,-1,1630,568,24.446,-4.53005
413,456,24.9418,2.90521,0,0,0,0,0,0,0,-1,1637,568,24.9418,-2.90524
420,456,25.3048,1.04712,0,0,0,0,0,0,0,-1,1644,568,25.3048,-1.04713
427,456,6.21375,2.02905,0,0,0,0,0,0,0,-1,1651,568,6.21372,-2.02904
434,456,3.0719,-4.86285,0,0,0,0,0,0,0,-1,1658,568,3.07184,4.86287
441,456,2.90344,-4.70459,0,0,0,0,0,0,0,-1,1665,568,2.90346,4.7046
448,456,3.06995,-4.93689,0,0,0,0,0,0,0,-1,1672,568,3.06991,4.93687
455,456,3.46582,-3.43701,0,0,0,0,0,0,0,-1,1679,568,3.46585,3.43698
462,456,4.68445,-4.45831,0,0,0,0,0,0,0,-1,1686,568,4.68439,4.45833
469,456,4.93201,-2.289,0,0,0,0,0,0,0,-1,1693,568,4.93197,2.28903
476,456,4.8363,-2.79364,0,0,0,0,0,0,0,-1,1700,568,4.83636,2.79363
483,456,12.8522,-13.692,0,0,0,0,0,0,0,-1,1707,568,12.8522,13.6919
490,456,50.9431,-83.9097,0,0,0,0,0,0,0,-1,1714,568,50.9431,83.9098
497,456,50.3495,-80.7856,0,0,0,0,0,0,0,-1,1721,568,50.3495,80.7856
504,456,49.8467,-78.0961,0.0029371,-0.000222171,-0.000908856,0.0031799,-0.00046497,-0.261052,0.00229071,0.0186675,1728,568,49.8467,78.0961
511,456,49.4229,-75.3807,0.00262017,0.000124058,-0.000168949,0.00263155,0.000112675,-0.0672761,0.00171804,0.0198186,1735,568,49.4228,75.3807
518,456,48.9064,-72.6616,0.00235085,0.00054123,0.000415494,0.00244168,0.000450391,0.215242,0.00150036,0.0226045,1742,568,48.9064,72.6616
525,456,48.3718,-70.0279,0.0021585,0.000823146,0.00090491,0.00261539,0.000366254,0.467562,0.00163524,0.0207255,1749,568,48.3718,70.0279
532,456,47.8805,-67.2763,0.00208939,0.00107767,0.00124897,0.00293105,0.000236001,0.592984,0.00188031,0.0256306,1756,568,47.8805,67.2763
539,456,47.2732,-64.5908,0.0022985,0.00126876,0.00154469,0.00341187,0.000155387,0.624531,0.00222459,0.0422896,1763,568,47.2733,64.5908
546,456,46.5988,-61.9462,0.00276996,0.00130259,0.00176277,0.00394564,0.000126913,0.588197,0.00258916,0.0468653,1770,568,46.5988,61.9462
553,456,46.0458,-59.1565,0.00338776,0.00127079,0.00191696,0.00451905,0.000139497,0.533145,0.0029673,0.0230944,1777,568,46.0458,59.1565
560,456,45.6943,-56.4772,0.00424775,0.00110372,0.00211332,0.00530962,4.18485e-05,0.465618,0.00352588,0.0138336,1784,568,45.6943,56.4772
567,456,45.16,-53.7839,0,0,0,0,0,0,0,-1,1791,568,45.1601,53.7839
574,456,43.7949,-45.4116,0,0,0,0,0,0,0,-1,1798,568,43.7949,45.4116
581,456,16.2228,-9.08563,0,0,0,0,0,0,0,-1,1805,568,16.2228,9.08562
588,456,5.23901,-0.0901489,0,0,0,0,0,0,0,-1,1812,568,5.23906,0.0901656
595,456,6.90063,3.14886,0,0,0,0,0,0,0,-1,1819,568,6.90066,-3.14887
602,456,16.894,4.10938,0,0,0,0,0,0,0,-1,1826,568,16.8941,-4.1094
609,456,14.9966,3.5708,0,0,0,0,0,0,0,-1,1833,568,14.9966,-3.57083
616,456,17.7407,2.6579,0,0,0,0,0,0,0,-1,1840,568,17.7408,-2.6579
623,456,20.6838,1.7121,0,0,0,0,0,0,0,-1,1847,568,20.6838,-1.71208
630,456,0,0,0,0,0,0,0,0,0,-1,1854,568,0,0
637,456,0,0,0,0,0,0,0,0,0,-1,1861,568,0,0
644,456,0,0,0,0,0,0,0,0,0,-1,1868,568,0,0
651,456,0,0,0,0,0,0,0,0,0,-1,1875,568,0,0
658,456,0,0,0,0,0,0,0,0,0,-1,1882,568,0,0
665,456,0,0,0,0,0,0,0,0,0,-1,1889,568,0,0
672,456,0,0,0,0,0,0,0,0,0,-1,1896,568,0,0
679,456,0,0,0,0,0,0,0,0,0,-1,1903,568,0,0
686,456,0,0,0,0,0,0,0,0,0,-1,1910,568,0,0
693,456,0,0,0,0,0,0,0,0,0,-1,1917,568,0,0
700,456,0,0,0,0,0,0,0,0,0,-1,1924,568,0,0
707,456,0,0,0,0,0,0,0,0,0,-1,1931,568,0,0
714,456,0,0,0,0,0,0,0,0,0,-1,1938,568,0,0
721,456,0,0,0,0,0,0,0,0,0,-1,1945,568,0,0
728,456,0,0,0,0,0,0,0,0,0,-1,1952,568,0,0
735,456,0,0,0,0,0,0,0,0,0,-1,1959,568,0,0
742,456,0,0,0,0,0,0,0,0,0,-1,1966,568,0,0
749,456,0,0,0,0,0,0,0,0,0,-1,1973,568,0,0
756,456,0,0,0,0,0,0,0,0,0,-1,1980,568,0,0
763,456,0,0,0,0,0,0,0,0,0,-1,1987,568,0,0
770,456,0,0,0,0,0,0,0,0,0,-1,1994,568,0,0
777,456,0,0,0,0,0,0,0,0,0,-1,2001,568,0,0
784,456,0,0,0,0,0,0,0,0,0,-1,2008,568,0,0
791,456,0,0,0,0,0,0,0,0,0,-1,2015,568,0,0
798,456,0,0,0,0,0,0,0,0,0,-1,2022,568,0,0
805,456,0,0,0,0,0,0,0,0,0,-1,2029,568,0,0
812,456,0,0,0,0,0,0,0,0,0,-1,2036,568,0,0
-700,449,0,0,0,0,0,0,0,0,0,-1,524,575,0,0
-693,449,0,0,0,0,0,0,0,0,0,-1,531,575,0,0
-686,449,0,0,0,0,0,0,0,0,0,-1,538,575,0,0
-679,449,0,0,0,0,0,0,0,0,0,-1,545,575,0,0
-672,449,0,0,0,0,0,0,0,0,0,-1,552,575,0,0
-665,449,0,0,0,0,0,0,0,0,0,-1,559,575,0,0
-658,449,0,0,0,0,0,0,0,0,0,-1,566,575,0,0
-651,449,0,0,0,0,0,0,0,0,0,-1,573,575,0,0
-644,449,0,0,0,0,0,0,0,0,0,-1,580,575,0,0
-637,449,0,0,0,0,0,0,0,0,0,-1,587,575,0,0
-630,449,0,0,0,0,0,0,0,0,0,-1,594,575,0,0
-623,449,0,0,0,0,0,0,0,0,0,-1,601,575,0,0
-616,449,0,0,0,0,0,0,0,0,0,-1,608,575,0,0
-609,449,0,0,0,0,0,0,0,0,0,-1,615,575,0,0
-602,449,0,0,0,0,0,0,0,0,0,-1,622,575,0,0
-595,449,0,0,0,0,0,0,0,0,0,-1,629,575,0,0
-588,449,0,0,0,0,0,0,0,0,0,-1,636,575,0,0
-581,449,0,0,0,0,0,0,0,0,0,-1,643,575,0,0
-574,449,0,0,0,0,0,0,0,0,0,-1,650,575,0,0
-567,449,0,0,0,0,0,0,0,0,0,-1,657,575,0,0
-560,449,0,0,0,0,0,0,0,0,0,-1,664,575,0,0
-553,449,0,0,0,0,0,0,0,0,0,-1,671,575,0,0
-546,449,0,0,0,0,0,0,0,0,0,-1,678,575,0,0
-539,449,0,0,0,0,0,0,0,0,0,-1,685,575,0,0
-532,449,0,0,0,0,0,0,0,0,0,-1,692,575,0,0
-525,449,0,0,0,0,0,0,0,0,0,-1,699,575,0,0
-518,449,0,0,0,0,0,0,0,0,0,-1,706,575,0,0
-511,449,-0.941345,-4.4519,0,0,0,0,0,0,0,-1,713,575,-0.941356,4.45191
-504,449,-14.1078,0.318237,0,0,0,0,0,0,0,-1,720,575,-14.1078,-0.318231
-497,449,-8.61292,-3.09009,0,0,0,0,0,0,0,-1,727,575,-8.61291,3.09011
-490,449,-7.50995,-2.96252,0,0,0,0,0,0,0,-1,734,575,-7.50995,2.96251
-483,449,-5.77789,-2.50061,0,0,0,0,0,0,0,-1,741,575,-5.77792,2.50059
-476,449,-4.1723,-2.07739,0,0,0,0,0,0,0,-1,748,575,-4.17228,2.0774
-469,449,-5.0976,-5.78448,0,0,0,0,0,0,0,-1,755,575,-5.09758,5.78451
-462,449,-6.54181,-9.54535,0,0,0,0,0,0,0,-1,762,575,-6.54178,9.54536
-455,449,-18.7641,-24.19,0,0,0,0,0,0,0,-1,769,575,-18.7641,24.19
-448,449,-36.2358,-48.5768,0,0,0,0,0,0,0,-1,776,575,-36.2358,48.5768
-441,449,-36.9523,-51.3732,0,0,0,0,0,0,0,-1,783,575,-36.9523,51.3732
-434,449,-37.4354,-54.1121,0.00285349,0.00476778,-0.00267813,0.00665466,0.000966606,-0.957021,0.00415192,0.0202792,790,575,-37.4354,54.1121
-427,449,-37.8893,-56.8105,0.00245458,0.00367392,-0.00207319,0.00522523,0.000903274,-0.928403,0.00322484,0.0179989,797,575,-37.8893,56.8105
-420,449,-38.3828,-59.5345,0.00218268,0.00268761,-0.00153627,0.00399202,0.000878272,-0.866838,0.00242226,0.019345,804,575,-38.3828,59.5345
-413,449,-38.9283,-62.2721,0.00193033,0.00164718,-0.000972539,0.00277154,0.000805965,-0.713119,0.00164618,0.0163682,811,575,-38.9283,62.2721
-406,449,-39.5516,-64.9995,0.00173081,0.000583038,-0.000375586,0.00184279,0.00047106,-0.289753,0.00110548,0.0149828,818,575,-39.5516,64.9994
-399,449,-40.1106,-67.6888,0.00169187,-0.000413261,0.000166314,0.00170493,-0.000426319,0.0783563,0.0013022,0.0128039,825,575,-40.1106,67.6889
-392,449,-40.578,-70.375,0.0018582,-0.00129821,0.000653187,0.00198803,-0.00142804,0.196207,0.00198109,0.0129209,832,575,-40.578,70.375
-385,449,-41.0938,-73.0653,0.00213656,-0.00222189,0.00120388,0.00244698,-0.00253231,0.252354,0.00287494,0.012977,839,575,-41.0938,73.0653
-378,449,-41.6561,-75.7759,0.00259857,-0.00314469,0.00180636,0.00311946,-0.00366558,0.280748,0.00392157,0.0125564,846,575,-41.6561,75.776
-371,449,-42.1577,-78.4884,0.00330901,-0.00390758,0.00231778,0.0039893,-0.00458786,0.285488,0.00495604,0.02855,853,575,-42.1577,78.4884
-364,449,-42.5173,-81.2567,0,0,0,0,0,0,0,-1,860,575,-42.5173,81.2567
-357,449,-26.1739,-54.8464,0,0,0,0,0,0,0,-1,867,575,-26.1739,54.8464
-350,449,-2.8764,-9.90204,0,0,0,0,0,0,0,-1,874,575,-2.87638,9.90203
-343,449,-2.98492,-9.2254,0,0,0,0,0,0,0,-1,881,575,-2.98491,9.22541
-336,449,-1.29523,-9.54626,0,0,0,0,0,0,0,-1,888,575,-1.29525,9.54626
-329,449,-0.733398,-7.78937,0,0,0,0,0,0,0,-1,895,575,-0.733398,7.78937
-322,449,-0.628845,-3.16669,0,0,0,0,0,0,0,-1,902,575,-0.628861,3.16667
-315,449,-0.540344,-3.21918,0,0,0,0,0,0,0,-1,909,575,-0.540336,3.21917
-308,449,-1.04413,-2.99341,0,0,0,0,0,0,0,-1,916,575,-1.04415,2.99338
-301,449,-1.58691,-2.80725,0,0,0,0,0,0,0,-1,923,575,-1.58692,2.80728
-294,449,-3.71118,-2.76086,0,0,0,0,0,0,0,-1,930,575,-3.71119,2.76087
-287,449,-4.4082,-2.69525,0,0,0,0,0,0,0,-1,937,575,-4.40822,2.69526
-280,449,0.723999,-14.2697,0,0,0,0,0,0,0,-1,944,575,0.723977,14.2696
-273,449,0,0,0,0,0,0,0,0,0,-1,951,575,0,0
-266,449,0,0,0,0,0,0,0,0,0,-1,958,575,0,0
-259,449,0,0,0,0,0,0,0,0,0,-1,965,575,0,0
-252,449,0,0,0,0,0,0,0,0,0,-1,972,575,0,0
-245,449,0,0,0,0,0,0,0,0,0,-1,979,575,0,0
-238,449,0,0,0,0,0,0,0,0,0,-1,986,575,0,0
-231,449,0,0,0,0,0,0,0,0,0,-1,993,575,0,0
-224,449,0,0,0,0,0,0,0,0,0,-1,1000,575,0,0
-217,449,0,0,0,0,0,0,0,0,0,-1,1007,575,0,0
-210,449,0,0,0,0,0,0,0,0,0,-1,1014,575,0,0
-203,449,0,0,0,0,0,0,0,0,0,-1,1021,575,0,0
-196,449,0,0,0,0,0,0,0,0,0,-1,1028,575,0,0
-189,449,0,0,0,0,0,0,0,0,0,-1,1035,575,0,0
-182,449,0,0,0,0,0,0,0,0,0,-1,1042,575,0,0
-175,449,0,0,0,0,0,0,0,0,0,-1,1049,575,0,0
-168,449,0,0,0,0,0,0,0,0,0,-1,1056,575,0,0
-161,449,0,0,0,0,0,0,0,0,0,-1,1063,575,0,0
-154,449,0,0,0,0,0,0,0,0,0,-1,1070,575,0,0
-147,449,0,0,0,0,0,0,0,0,0,-1,1077,575,0,0
-140,449,0,0,0,0,0,0,0,0,0,-1,1084,575,0,0
-133,449,0,0,0,0,0,0,0,0,0,-1,1091,575,0,0
-126,449,0,0,0,0,0,0,0,0,0,-1,1098,575,0,0
-119,449,0,0,0,0,0,0,0,0,0,-1,1105,575,0,0
-112,449,0,0,0,0,0,0,0,0,0,-1,1112,575,0,0
-105,449,0,0,0,0,0,0,0,0,0,-1,1119,575,0,0
-98,449,0,0,0,0,0,0,0,0,0,-1,1126,575,0,0
-91,449,0,0,0,0,0,0,0,0,0,-1,1133,575,0,0
-84,449,0,0,0,0,0,0,0,0,0,-1,1140,575,0,0
-77,449,0,0,0,0,0,0,0,0,0,-1,1147,575,0,0
-70,449,0,0,0,0,0,0,0,0,0,-1,1154,575,0,0
-63,449,0,0,0,0,0,0,0,0,0,-1,1161,575,0,0
-56,449,0,0,0,0,0,0,0,0,0,-1,1168,575,0,0
-49,449,0,0,0,0,0,0,0,0,0,-1,1175,575,0,0
-42,449,0,0,0,0,0,0,0,0,0,-1,1182,575,0,0
-35,449,0,0,0,0,0,0,0,0,0,-1,1189,575,0,0
-28,449,0,0,0,0,0,0,0,0,0,-1,1196,575,0,0
-21,449,0,0,0,0,0,0,0,0,0,-1,1203,575,0,0
-14,449,0,0,0,0,0,0,0,0,0,-1,1210,575,0,0
-7,449,0,0,0,0,0,0,0,0,0,-1,1217,575,0,0
0,449,0,0,0,0,0,0,0,0,0,-1,1224,575,0,0
7,449,0,0,0,0,0,0,0,0,0,-1,1231,575,0,0
14,449,0,0,0,0,0,0,0,0,0,-1,1238,575,0,0
21,449,0,0,0,0,0,0,0,0,0,-1,1245,575,0,0
28,449,0,0,0,0,0,0,0,0,0,-1,1252,575,0,0
35,449,0,0,0,0,0,0,0,0,0,-1,1259,575,0,0
42,449,0,0,0,0,0,0,0,0,0,-1,1266,575,0,0
49,449,0,0,0,0,0,0,0,0,0,-1,1273,575,0,0
56,449,0,0,0,0,0,0,0,0,0,-1,1280,575,0,0
63,449,0,0,0,0,0,0,0,0,0,-1,1287,575,0,0
70,449,0,0,0,0,0,0,0,0,0,-1,1294,575,0,0
77,449,0,0,0,0,0,0,0,0,0,-1,1301,575,0,0
84,449,0,0,0,0,0,0,0,0,0,-1,1308,575,0,0
91,449,0,0,0,0,0,0,0,0,0,-1,1315,575,0,0
98,449,0,0,0,0,0,0,0,0,0,-1,1322,575,0,0
105,449,0,0,0,0,0,0,0,0,0,-1,1329,575,0,0
112,449,0,0,0,0,0,0,0,0,0,-1,1336,575,0,0
119,449,0,0,0,0,0,0,0,0,0,-1,1343,575,0,0
126,449,0,0,0,0,0,0,0,0,0,-1,1350,575,0,0
133,449,0,0,0,0,0,0,0,0,0,-1,1357,575,0,0
140,449,0,0,0,0,0,0,0,0,0,-1,1364,575,0,0
147,449,0,0,0,0,0,0,0,0,0,-1,1371,575,0,0
154,449,0,0,0,0,0,0,0,0,0,-1,1378,575,0,0
161,449,0,0,0,0,0,0,0,0,0,-1,1385,575,0,0
168,449,0,0,0,0,0,0,0,0,0,-1,1392,575,0,0
175,449,0,0,0,0,0,0,0,0,0,-1,1399,575,0,0
182,449,0,0,0,0,0,0,0,0,0,-1,1406,575,0,0
189,449,0,0,0,0,0,0,0,0,0,-1,1413,575,0,0
196,449,0,0,0,0,0,0,0,0,0,-1,1420,575,0,0
203,449,0,0,0,0,0,0,0,0,0,-1,1427,575,0,0
210,449,0,0,0,0,0,0,0,0,0,-1,1434,575,0,0
217,449,0,0,0,0,0,0,0,0,0,-1,1441,575,0,0
224,449,0,0,0,0,0,0,0,0,0,-1,1448,575,0,0
231,449,0,0,0,0,0,0,0,0,0,-1,1455,575,0,0
238,449,0,0,0,0,0,0,0,0,0,-1,1462,575,0,0
245,449,0,0,0,0,0,0,0,0,0,-1,1469,575,0,0
252,449,0,0,0,0,0,0,0,0,0,-1,1476,575,0,0
259,449,0,0,0,0,0,0,0,0,0,-1,1483,575,0,0
266,449,0,0,0,0,0,0,0,0,0,-1,1490,575,0,0
273,449,0,0,0,0,0,0,0,0,0,-1,1497,575,0,0
280,449,0,0,0,0,0,0,0,0,0,-1,1504,575,0,0
287,449,0,0,0,0,0,0,0,0,0,-1,1511,575,0,0
294,449,0,0,0,0,0,0,0,0,0,-1,1518,575,0,0
301,449,0,0,0,0,0,0,0,0,0,-1,1525,575,0,0
308,449,0,0,0,0,0,0,0,0,0,-1,1532,575,0,0
315,449,0,0,0,0,0,0,0,0,0,-1,1539,575,0,0
322,449,0,0,0,0,0,0,0,0,0,-1,1546,575,0,0
329,449,0,0,0,0,0,0,0,0,0,-1,1553,575,0,0
336,449,0,0,0,0,0,0,0,0,0,-1,1560,575,0,0
343,449,0,0,0,0,0,0,0,0,0,-1,1567,575,0,0
350,449,0,0,0,0,0,0,0,0,0,-1,1574,575,0,0
357,449,0,0,0,0,0,0,0,0,0,-1,1581,575,0,0
364,449,0,0,0,0,0,0,0,0,0,-1,1588,575,0,0
371,449,0,0,0,0,0,0,0,0,0,-1,1595,575,0,0
378,449,0,0,0,0,0,0,0,0,0,-1,1602,575,0,0
385,449,0,0,0,0,0,0,0,0,0,-1,1609,575,0,0
392,449,7.95471,3.66217,0,0,0,0,0,0,0,-1,1616,575,7.95471,-3.66218
399,449,19.9791,5.565,0,0,0,0,0,0,0,-1,1623,575,19.9791,-5.56499
406,449,24.9847,4.55969,0,0,0,0,0,0,0,-1,1630,575,24.9848,-4.55968
413,449,30.4159,3.15027,0,0,0,0,0,0,0,-1,1637,575,30.4159,-3.15028
420,449,23.9675,1.29718,0,0,0,0,0,0,0,-1,1644,575,23.9675,-1.29721
427,449,24.4276,-0.596558,0,0,0,0,0,0,0,-1,1651,575,24.4277,0.596569
434,449,25.61,-2.96594,0,0,0,0,0,0,0,-1,1658,575,25.61,2.96595
441,449,3.89856,-6.06458,0,0,0,0,0,0,0,-1,1665,575,3.89855,6.06459
448,449,4.03198,-5.18207,0,0,0,0,0,0,0,-1,1672,575,4.03197,5.18207
455,449,4.21948,-4.09467,0,0,0,0,0,0,0,-1,1679,575,4.21952,4.09465
462,449,4.23181,-2.96924,0,0,0,0,0,0,0,-1,1686,575,4.23185,2.96926
469,449,4.51672,-2.95135,0,0,0,0,0,0,0,-1,1693,575,4.51672,2.95135
476,449,4.71838,-1.86688,0,0,0,0,0,0,0,-1,1700,575,4.71842,1.86689
483,449,4.87878,-1.73126,0,0,0,0,0,0,0,-1,1707,575,4.87875,1.73128
490,449,5.73279,-2.74573,0,0,0,0,0,0,0,-1,1714,575,5.73282,2.74575
497,449,17.2095,-16.4381,0,0,0,0,0,0,0,-1,1721,575,17.2094,16.4381
504,449,52.5194,-77.6659,0,0,0,0,0,0,0,-1,1728,575,52.5194,77.6659
511,449,52.0645,-74.8906,0.00294006,0.000317446,-0.000276898,0.00296898,0.000288529,-0.104052,0.00189049,0.0190941,1735,575,52.0644,74.8906
518,449,51.603,-72.152,0.00264247,0.000656988,0.000267638,0.00267791,0.000621543,0.131667,0.00161838,0.0189101,1742,575,51.6031,72.152
525,449,51.0846,-69.4436,0.00239691,0.000869259,0.000688828,0.00266164,0.000604536,0.366907,0.00161117,0.0196944,1749,575,51.0846,69.4436
532,449,50.5193,-66.7752,0.00225709,0.00104164,0.000938047,0.00276707,0.00053166,0.497962,0.00169551,0.0190211,1756,575,50.5193,66.7752
539,449,49.8561,-64.1061,0.00236122,0.00111402,0.00114681,0.00304302,0.000432226,0.536376,0.00190105,0.0309592,1763,575,49.8561,64.1061
546,449,49.0297,-61.3842,0,0,0,0,0,0,0,-1,1770,575,49.0296,61.3841
553,449,48.6904,-58.685,0.00302053,0.00087645,0.00129739,0.00363149,0.000265489,0.44011,0.00233753,0.0340859,1777,575,48.6905,58.685
560,449,48.3757,-55.942,0.00344309,0.000642996,0.00136098,0.00399558,9.05053e-05,0.385625,0.00263407,0.0194509,1784,575,48.3758,55.942
567,449,47.8578,-53.2659,0.00405983,0.000361867,0.00148369,0.00458152,-0.000159823,0.338113,0.00310899,0.0148594,1791,575,47.8577,53.2659
574,449,47.329,-50.5622,0,0,0,0,0,0,0,-1,1798,575,47.3289,50.5622
581,449,40.2885,-30.4276,0,0,0,0,0,0,0,-1,1805,575,40.2884,30.4275
588,449,12.3274,-4.5672,0,0,0,0,0,0,0,-1,1812,575,12.3274,4.5672
595,449,15.9352,-5.65479,0,0,0,0,0,0,0,-1,1819,575,15.9352,5.65478
602,449,9.46167,4.17444,0,0,0,0,0,0,0,-1,1826,575,9.46164,-4.17442
609,449,12.2028,3.18652,0,0,0,0,0,0,0,-1,1833,575,12.2027,-3.18655
616,449,14.9438,2.19867,0,0,0,0,0,0,0,-1,1840,575,14.9438,-2.19867
623,449,9.83789,-0.0820313,0,0,0,0,0,0,0,-1,1847,575,9.83794,0.0820443
630,449,8.90686,4.99329,0,0,0,0,0,0,0,-1,1854,575,8.90685,-4.99327
637,449,0,0,0,0,0,0,0,0,0,-1,1861,575,0,0
644,449,0,0,0,0,0,0,0,0,0,-1,1868,575,0,0
651,449,0,0,0,0,0,0,0,0,0,-1,1875,575,0,0
658,449,0,0,0,0,0,0,0,0,0,-1,1882,575,0,0
665,449,0,0,0,0,0,0,0,0,0,-1,1889,575,0,0
672,449,0,0,0,0,0,0,0,0,0,-1,1896,575,0,0
679,449,0,0,0,0,0,0,0,0,0,-1,1903,575,0,0
686,449,0,0,0,0,0,0,0,0,0,-1,1910,575,0,0
693,449,0,0,0,0,0,0,0,0,0,-1,1917,575,0,0
700,449,0,0,0,0,0,0,0,0,0,-1,1924,575,0,0
707,449,0,0,0,0,0,0,0,0,0,-1,1931,575,0,0
714,449,0,0,0,0,0,0,0,0,0,-1,1938,575,0,0
721,449,0,0,0,0,0,0,0,0,0,-1,1945,575,0,0
728,449,0,0,0,0,0,0,0,0,0,-1,1952,575,0,0
735,449,0,0,0,0,0,0,0,0,0,-1,1959,575,0,0
742,449,0,0,0,0,0,0,0,0,0,-1,1966,575,0,0
749,449,0,0,0,0,0,0,0,0,0,-1,1973,575,0,0
756,449,0,0,0,0,0,0,0,0,0,-1,1980,575,0,0
763,449,0,0,0,0,0,0,0,0,0,-1,1987,575,0,0
770,449,0,0,0,0,0,0,0,0,0,-1,1994,575,0,0
777,449,0,0,0,0,0,0,0,0,0,-1,2001,575,0,0
784,449,0,0,0,0,0,0,0,0,0,-1,2008,575,0,0
791,449,0,0,0,0,0,0,0,0,0,-1,2015,575,0,0
798,449,0,0,0,0,0,0,0,0,0,-1,2022,575,0,0
805,449,0,0,0,0,0,0,0,0,0,-1,2029,575,0,0
812,449,0,0,0,0,0,0,0,0,0,-1,2036,575,0,0
-700,442,0,0,0,0,0,0,0,0,0,-1,524,582,0,0
-693,442,0,0,0,0,0,0,0,0,0,-1,531,582,0,0
-686,442,0,0,0,0,0,0,0,0,0,-1,538,582,0,0
-679,442,0,0,0,0,0,0,0,0,0,-1,545,582,0,0
-672,442,0,0,0,0,0,0,0,0,0,-1,552,582,0,0
-665,442,0,0,0,0,0,0,0,0,0,-1,559,582,0,0
-658,442,0,0,0,0,0,0,0,0,0,-1,566,582,0,0
-651,442,0,0,0,0,0,0,0,0,0,-1,573,582,0,0
-644,442,0,0,0,0,0,0,0,0,0,-1,580,582,0,0
-637,442,0,0,0,0,0,0,0,0,0,-1,587,582,0,0
-630,442,0,0,0,0,0,0,0,0,0,-1,594,582,0,0
-623,442,0,0,0,0,0,0,0,0,0,-1,601,582,0,0
-616,442,0,0,0,0,0,0,0,0,0,-1,608,582,0,0
-609,442,0,0,0,0,0,0,0,0,0,-1,615,582,0,0
-602,442,0,0,0,0,0,0,0,0,0,-1,622,582,0,0
-595,442,0,0,0,0,0,0,0,0,0,-1,629,582,0,0
-588,442,0,0,0,0,0,0,0,0,0,-1,636,582,0,0
-581,442,0,0,0,0,0,0,0,0,0,-1,643,582,0,0
-574,442,0,0,0,0,0,0,0,0,0,-1,650,582,0,0
-567,442,0,0,0,0,0,0,0,0,0,-1,657,582,0,0
-560,442,0,0,0,0,0,0,0,0,0,-1,664,582,0,0
-553,442,0,0,0,0,0,0,0,0,0,-1,671,582,0,0
-546,442,0,0,0,0,0,0,0,0,0,-1,678,582,0,0
-539,442,0,0,0,0,0,0,0,0,0,-1,685,582,0,0
-532,442,0,0,0,0,0,0,0,0,0,-1,692,582,0,0
-525,442,0,0,0,0,0,0,0,0,0,-1,699,582,0,0
-518,442,-0.493774,-5.72943,0,0,0,0,0,0,0,-1,706,582,-0.493791,5.72946
-511,442,-1.33008,-6.18512,0,0,0,0,0,0,0,-1,713,582,-1.33006,6.18511
-504,442,-3.20807,-6.34082,0,0,0,0,0,0,0,-1,720,582,-3.2081,6.34083
-497,442,-13.6886,-0.250122,0,0,0,0,0,0,0,-1,727,582,-13.6886,0.250143
-490,442,-9.09039,-3.64862,0,0,0,0,0,0,0,-1,734,582,-9.09037,3.64861
-483,442,-7.36499,-1.01892,0,0,0,0,0,0,0,-1,741,582,-7.365,1.01895
-476,442,-4.84784,-4.44141,0,0,0,0,0,0,0,-1,748,582,-4.84787,4.44138
-469,442,-13.2483,-15.6807,0,0,0,0,0,0,0,-1,755,582,-13.2483,15.6807
-462,442,-15.0205,-19.2228,0,0,0,0,0,0,0,-1,762,582,-15.0205,19.2229
-455,442,-38.5486,-45.2706,0,0,0,0,0,0,0,-1,769,582,-38.5486,45.2706
-448,442,-38.9713,-48.1666,0.00261345,0.00500321,-0.00286481,0.00691235,0.000704321,-0.982974,0.00439232,0.0406866,776,582,-38.9713,48.1665
-441,442,-39.5634,-50.8784,0.00251259,0.00401669,-0.00226785,0.00565393,0.000875342,-0.945499,0.00351404,0.0190507,783,582,-39.5633,50.8784
-434,442,-40.1176,-53.5943,0.00227722,0.0030044,-0.00167358,0.00435343,0.000928188,-0.892362,0.00264769,0.0168274,790,582,-40.1176,53.5943
-427,442,-40.6376,-56.2551,0.00205442,0.00209058,-0.00118743,0.00326007,0.000884935,-0.793009,0.00194664,0.0158806,797,582,-40.6376,56.2551
-420,442,-41.1364,-58.9647,0.00194362,0.00130079,-0.000752997,0.00244093,0.000803476,-0.58368,0.00143643,0.0169475,804,582,-41.1364,58.9647
-413,442,-41.6526,-61.6959,0.00182441,0.000463993,-0.000289685,0.00188352,0.000404877,-0.201307,0.00114484,0.015493,811,582,-41.6527,61.6958
-406,442,-42.2412,-64.4474,0.00174273,-0.000358431,0.000181847,0.00175835,-0.000374053,0.0856968,0.00131477,0.0144814,818,582,-42.2412,64.4474
-399,442,-42.8033,-67.1478,0.00183904,-0.00105968,0.000562124,0.00194423,-0.00116487,0.184991,0.00181374,0.0122156,825,582,-42.8033,67.1478
-392,442,-43.3088,-69.8152,0.00212694,-0.00165386,0.000879513,0.00232152,-0.00184844,0.217733,0.00241269,0.0130368,832,582,-43.3088,69.8152
-385,442,-43.8383,-72.5099,0.00253552,-0.00224005,0.00123597,0.00283644,-0.00254097,0.238822,0.00310621,0.0151106,839,582,-43.8383,72.5099
-378,442,-44.3101,-75.2805,0.0032234,-0.00272642,0.00161873,0.00363529,-0.0031383,0.249162,0.00391424,0.0327435,846,582,-44.3101,75.2804
-371,442,-44.8885,-78.2087,0,0,0,0,0,0,0,-1,853,582,-44.8885,78.2087
-364,442,-6.89764,-17.5333,0,0,0,0,0,0,0,-1,860,582,-6.89765,17.5333
-357,442,-4.9115,-11.2649,0,0,0,0,0,0,0,-1,867,582,-4.91147,11.2649
-350,442,-1.75372,-6.27618,0,0,0,0,0,0,0,-1,874,582,-1.75371,6.27618
-343,442,-1.4599,-4.63605,0,0,0,0,0,0,0,-1,881,582,-1.4599,4.63607
-336,442,-1.4054,-2.64313,0,0,0,0,0,0,0,-1,888,582,-1.40539,2.64315
-329,442,-0.952576,-2.76923,0,0,0,0,0,0,0,-1,895,582,-0.952571,2.7692
-322,442,-0.972534,-2.63208,0,0,0,0,0,0,0,-1,902,582,-0.972512,2.6321
-315,442,-0.445557,-2.89764,0,0,0,0,0,0,0,-1,909,582,-0.445582,2.89765
-308,442,-0.654175,-3.07831,0,0,0,0,0,0,0,-1,916,582,-0.654145,3.07832
-301,442,-1.37427,-2.41455,0,0,0,0,0,0,0,-1,923,582,-1.37425,2.41453
-294,442,-2.99963,-2.07855,0,0,0,0,0,0,0,-1,930,582,-2.99964,2.07857
-287,442,3.91034,-10.1913,0,0,0,0,0,0,0,-1,937,582,3.91034,10.1913
-280,442,0,0,0,0,0,0,0,0,0,-1,944,582,0,0
-273,442,0,0,0,0,0,0,0,0,0,-1,951,582,0,0
-266,442,0,0,0,0,0,0,0,0,0,-1,958,582,0,0
-259,442,0,0,0,0,0,0,0,0,0,-1,965,582,0,0
-252,442,0,0,0,0,0,0,0,0,0,-1,972,582,0,0
-245,442,0,0,0,0,0,0,0,0,0,-1,979,582,0,0
-238,442,0,0,0,0,0,0,0,0,0,-1,986,582,0,0
-231,442,0,0,0,0,0,0,0,0,0,-1,993,582,0,0
-224,442,0,0,0,0,0,0,0,0,0,-1,1000,582,0,0
-217,442,0,0,0,0,0,0,0,0,0,-1,1007,582,0,0
-210,442,0,0,0,0,0,0,0,0,0,-1,1014,582,0,0
-203,442,0,0,0,0,0,0,0,0,0,-1,1021,582,0,0
-196,442,0,0,0,0,0,0,0,0,0,-1,1028,582,0,0
-189,442,0,0,0,0,0,0,0,0,0,-1,1035,582,0,0
-182,442,0,0,0,0,0,0,0,0,0,-1,1042,582,0,0
-175,442,0,0,0,0,0,0,0,0,0,-1,1049,582,0,0
-168,442,0,0,0,0,0,0,0,0,0,-1,1056,582,0,0
-161,442,0,0,0,0,0,0,0,0,0,-1,1063,582,0,0
-154,442,0,0,0,0,0,0,0,0,0,-1,1070,582,0,0
-147,442,0,0,0,0,0,0,0,0,0,-1,1077,582,0,0
-140,442,0,0,0,0,0,0,0,0,0,-1,1084,582,0,0
-133,442,0,0,0,0,0,0,0,0,0,-1,1091,582,0,0
-126,442,0,0,0,0,0,0,0,0,0,-1,1098,582,0,0
-119,442,0,0,0,0,0,0,0,0,0,-1,1105,582,0,0
-112,442,0,0,0,0,0,0,0,0,0,-1,1112,582,0,0
-105,442,0,0,0,0,0,0,0,0,0,-1,1119,582,0,0
-98,442,0,0,0,0,0,0,0,0,0,-1,1126,582,0,0
-91,442,0,0,0,0,0,0,0,0,0,-1,1133,582,0,0
-84,442,0,0,0,0,0,0,0,0,0,-1,1140,582,0,0
-77,442,0,0,0,0,0,0,0,0,0,-1,1147,582,0,0
-70,442,0,0,0,0,0,0,0,0,0,-1,1154,582,0,0
-63,442,0,0,0,0,0,0,0,0,0,-1,1161,582,0,0
-56,442,0,0,0,0,0,0,0,0,0,-1,1168,582,0,0
-49,442,0,0,0,0,0,0,0,0,0,-1,1175,582,0,0
-42,442,0,0,0,0,0,0,0,0,0,-1,1182,582,0,0
-35,442,0,0,0,0,0,0,0,0,0,-1,1189,582,0,0
-28,442,0,0,0,0,0,0,0,0,0,-1,1196,582,0,0
-21,442,0,0,0,0,0,0,0,0,0,-1,1203,582,0,0
-14,442,0,0,0,0,0,0,0,0,0,-1,1210,582,0,0
-7,442,0,0,0,0,0,0,0,0,0,-1,1217,582,0,0
0,442,0,0,0,0,0,0,0,0,0,-1,1224,582,0,0
7,442,0,0,0,0,0,0,0,0,0,-1,1231,582,0,0
14,442,0,0,0,0,0,0,0,0,0,-1,1238,582,0,0
21,442,0,0,0,0,0,0,0,0,0,-1,1245,582,0,0
28,442,0,0,0,0,0,0,0,0,0,-1,1252,582,0,0
35,442,0,0,0,0,0,0,0,0,0,-1,1259,582,0,0
42,442,0,0,0,0,0,0,0,0,0,-1,1266,582,0,0
49,442,0,0,0,0,0,0,0,0,0,-1,1273,582,0,0
56,442,0,0,0,0,0,0,0,0,0,-1,1280,582,0,0
63,442,0,0,0,0,0,0,0,0,0,-1,1287,582,0,0
70,442,0,0,0,0,0,0,0,0,0,-1,1294,582,0,0
77,442,0,0,0,0,0,0,0,0,0,-1,1301,582,0,0
84,442,0,0,0,0,0,0,0,0,0,-1,1308,582,0,0
91,442,0,0,0,0,0,0,0,0,0,-1,1315,582,0,0
98,442,0,0,0,0,0,0,0,0,0,-1,1322,582,0,0
105,442,0,0,0,0,0,0,0,0,0,-1,1329,582,0,0
112,442,0,0,0,0,0,0,0,0,0,-1,1336,582,0,0
119,442,0,0,0,0,0,0,0,0,0,-1,1343,582,0,0
126,442,0,0,0,0,0,0,0,0,0,-1,1350,582,0,0
133,442,0,0,0,0,0,0,0,0,0,-1,1357,582,0,0
140,442,0,0,0,0,0,0,0,0,0,-1,1364,582,0,0
147,442,0,0,0,0,0,0,0,0,0,-1,1371,582,0,0
154,442,0,0,0,0,0,0,0,0,0,-1,1378,582,0,0
161,442,0,0,0,0,0,0,0,0,0,-1,1385,582,0,0
168,442,0,0,0,0,0,0,0,0,0,-1,1392,582,0,0
175,442,0,0,0,0,0,0,0,0,0,-1,1399,582,0,0
182,442,0,0,0,0,0,0,0,0,0,-1,1406,582,0,0
189,442,0,0,0,0,0,0,0,0,0,-1,1413,582,0,0
196,442,0,0,0,0,0,0,0,0,0,-1,1420,582,0,0
203,442,0,0,0,0,0,0,0,0,0,-1,1427,582,0,0
210,442,0,0,0,0,0,0,0,0,0,-1,1434,582,0,0
217,442,0,0,0,0,0,0,0,0,0,-1,1441,582,0,0
224,442,0,0,0,0,0,0,0,0,0,-1,1448,582,0,0
231,442,0,0,0,0,0,0,0,0,0,-1,1455,582,0,0
238,442,0,0,0,0,0,0,0,0,0,-1,1462,582,0,0
245,442,0,0,0,0,0,0,0,0,0,-1,1469,582,0,0
252,442,0,0,0,0,0,0,0,0,0,-1,1476,582,0,0
259,442,0,0,0,0,0,0,0,0,0,-1,1483,582,0,0
266,442,0,0,0,0,0,0,0,0,0,-1,1490,582,0,0
273,442,0,0,0,0,0,0,0,0,0,-1,1497,582,0,0
280,442,0,0,0,0,0,0,0,0,0,-1,1504,582,0,0
287,442,0,0,0,0,0,0,0,0,0,-1,1511,582,0,0
294,442,0,0,0,0,0,0,0,0,0,-1,1518,582,0,0
301,442,0,0,0,0,0,0,0,0,0,-1,1525,582,0,0
308,442,0,0,0,0,0,0,0,0,0,-1,1532,582,0,0
315,442,0,0,0,0,0,0,0,0,0,-1,1539,582,0,0
322,442,0,0,0,0,0,0,0,0,0,-1,1546,582,0,0
329,442,0,0,0,0,0,0,0,0,0,-1,1553,582,0,0
336,442,0,0,0,0,0,0,0,0,0,-1,1560,582,0,0
343,442,0,0,0,0,0,0,0,0,0,-1,1567,582,0,0
350,442,0,0,0,0,0,0,0,0,0,-1,1574,582,0,0
357,442,0,0,0,0,0,0,0,0,0,-1,1581,582,0,0
364,442,0,0,0,0,0,0,0,0,0,-1,1588,582,0,0
371,442,0,0,0,0,0,0,0,0,0,-1,1595,582,0,0
378,442,0,0,0,0,0,0,0,0,0,-1,1602,582,0,0
385,442,0,0,0,0,0,0,0,0,0,-1,1609,582,0,0
392,442,0,0,0,0,0,0,0,0,0,-1,1616,582,0,0
399,442,0,0,0,0,0,0,0,0,0,-1,1623,582,0,0
406,442,17.6321,4.08295,0,0,0,0,0,0,0,-1,1630,582,17.6321,-4.08293
413,442,25.4768,2.74445,0,0,0,0,0,0,0,-1,1637,582,25.4768,-2.74444
420,442,22.7478,1.55011,0,0,0,0,0,0,0,-1,1644,582,22.7478,-1.55009
427,442,23.2969,-0.456787,0,0,0,0,0,0,0,-1,1651,582,23.2968,0.456769
434,442,23.9512,-2.49365,0,0,0,0,0,0,0,-1,1658,582,23.9512,2.49366
441,442,24.8251,-4.43958,0,0,0,0,0,0,0,-1,1665,582,24.8251,4.43956
448,442,4.7749,-5.88562,0,0,0,0,0,0,0,-1,1672,582,4.7749,5.8856
455,442,4.87024,-4.60687,0,0,0,0,0,0,0,-1,1679,582,4.87019,4.60686
462,442,5.02307,-3.72821,0,0,0,0,0,0,0,-1,1686,582,5.02311,3.7282
469,442,5.12976,-2.98834,0,0,0,0,0,0,0,-1,1693,582,5.12971,2.98834
476,442,5.4624,1.76947,0,0,0,0,0,0,0,-1,1700,582,5.46234,-1.76944
483,442,5.98486,1.87042,0,0,0,0,0,0,0,-1,1707,582,5.98492,-1.87045
490,442,5.04407,-2.35834,0,0,0,0,0,0,0,-1,1714,582,5.04411,2.35837
497,442,6.20984,-3.07831,0,0,0,0,0,0,0,-1,1721,582,6.2098,3.07833
504,442,20.9276,-19.7709,0,0,0,0,0,0,0,-1,1728,582,20.9276,19.771
511,442,54.722,-74.4102,0,0,0,0,0,0,0,-1,1735,582,54.722,74.4102
518,442,54.2617,-71.5714,0.00288841,0.00112407,0.000353024,0.00295642,0.00105606,0.190329,0.00172994,0.0189279,1742,582,54.2617,71.5714
525,442,53.7201,-68.8838,0.00261063,0.0012708,0.000726651,0.00292905,0.00095238,0.413,0.00172521,0.0161312,1749,582,53.7201,68.8838
532,442,53.1702,-66.1901,0.00242645,0.0013528,0.000905161,0.002942,0.000837248,0.517745,0.00175032,0.0214115,1756,582,53.1702,66.1901
539,442,52.5791,-63.4739,0.00244648,0.00129994,0.00103662,0.00305779,0.000688634,0.532821,0.00185216,0.0272424,1763,582,52.5791,63.4739
546,442,52.076,-60.7704,0.00264624,0.00108889,0.00106724,0.00318868,0.000546453,0.470236,0.00196908,0.0330795,1770,582,52.0761,60.7704
553,442,51.4777,-58.1263,0.00282576,0.000871287,0.000993723,0.00324225,0.000454795,0.396882,0.00202698,0.0291235,1777,582,51.4777,58.1263
560,442,51.0636,-55.4196,0.00298567,0.000588378,0.000925699,0.00330151,0.000272537,0.328806,0.00211602,0.0191365,1784,582,51.0636,55.4196
567,442,50.5508,-52.7387,0.00328279,0.000300675,0.000859456,0.00351276,7.07104e-05,0.261445,0.00231863,0.0141547,1791,582,50.5508,52.7387
574,442,50.0321,-50.0421,0.00340231,3.52181e-05,0.000765297,0.00356809,-0.000130562,0.213326,0.00242342,0.0170144,1798,582,50.0321,50.042
581,442,49.4863,-47.3039,0,0,0,0,0,0,0,-1,1805,582,49.4863,47.3039
588,442,35.4717,-22.1596,0,0,0,0,0,0,0,-1,1812,582,35.4717,22.1596
595,442,16.27,-6.47083,0,0,0,0,0,0,0,-1,1819,582,16.27,6.47082
602,442,16.2213,-4.49225,0,0,0,0,0,0,0,-1,1826,582,16.2213,4.49223
609,442,12.761,2.97223,0,0,0,0,0,0,0,-1,1833,582,12.761,-2.97221
616,442,9.78345,-0.103394,0,0,0,0,0,0,0,-1,1840,582,9.78341,0.103424
623,442,9.23828,0.326721,0,0,0,0,0,0,0,-1,1847,582,9.23829,-0.326727
630,442,7.74304,2.3924,0,0,0,0,0,0,0,-1,1854,582,7.7431,-2.39238
637,442,5.87805,1.84027,0,0,0,0,0,0,0,-1,1861,582,5.87807,-1.84025
644,442,0,0,0,0,0,0,0,0,0,-1,1868,582,0,0
651,442,0,0,0,0,0,0,0,0,0,-1,1875,582,0,0
658,442,0,0,0,0,0,0,0,0,0,-1,1882,582,0,0
665,442,0,0,0,0,0,0,0,0,0,-1,1889,582,0,0
672,442,0,0,0,0,0,0,0,0,0,-1,1896,582,0,0
679,442,0,0,0,0,0,0,0,0,0,-1,1903,582,0,0
686,442,0,0,0,0,0,0,0,0,0,-1,1910,582,0,0
693,442,0,0,0,0,0,0,0,0,0,-1,1917,582,0,0
700,442,0,0,0,0,0,0,0,0,0,-1,1924,582,0,0
707,442,0,0,0,0,0,0,0,0,0,-1,1931,582,0,0
714,442,0,0,0,0,0,0,0,0,0,-1,1938,582,0,0
721,442,0,0,0,0,0,0,0,0,0,-1,1945,582,0,0
728,442,0,0,0,0,0,0,0,0,0,-1,1952,582,0,0
735,442,0,0,0,0,0,0,0,0,0,-1,1959,582,0,0
742,442,0,0,0,0,0,0,0,0,0,-1,1966,582,0,0
749,442,0,0,0,0,0,0,0,0,0,-1,1973,582,0,0
756,442,0,0,0,0,0,0,0,0,0,-1,1980,582,0,0
763,442,0,0,0,0,0,0,0,0,0,-1,1987,582,0,0
770,442,0,0,0,0,0,0,0,0,0,-1,1994,582,0,0
777,442,0,0,0,0,0,0,0,0,0,-1,2001,582,0,0
784,442,0,0,0,0,0,0,0,0,0,-1,2008,582,0,0
791,442,0,0,0,0,0,0,0,0,0,-1,2015,582,0,0
798,442,0,0,0,0,0,0,0,0,0,-1,2022,582,0,0
805,442,0,0,0,0,0,0,0,0,0,-1,2029,582,0,0
812,442,0,0,0,0,0,0,0,0,0,-1,2036,582,0,0
-700,435,0,0,0,0,0,0,0,0,0,-1,524,589,0,0
-693,435,0,0,0,0,0,0,0,0,0,-1,531,589,0,0
-686,435,0,0,0,0,0,0,0,0,0,-1,538,589,0,0
-679,435,0,0,0,0,0,0,0,0,0,-1,545,589,0,0
-672,435,0,0,0,0,0,0,0,0,0,-1,552,589,0,0
-665,435,0,0,0,0,0,0,0,0,0,-1,559,589,0,0
-658,435,0,0,0,0,0,0,0,0,0,-1,566,589,0,0
-651,435,0,0,0,0,0,0,0,0,0,-1,573,589,0,0
-644,435,0,0,0,0,0,0,0,0,0,-1,580,589,0,0
-637,435,0,0,0,0,0,0,0,0,0,-1,587,589,0,0
-630,435,0,0,0,0,0,0,0,0,0,-1,594,589,0,0
-623,435,0,0,0,0,0,0,0,0,0,-1,601,589,0,0
-616,435,0,0,0,0,0,0,0,0,0,-1,608,589,0,0
-609,435,0,0,0,0,0,0,0,0,0,-1,615,589,0,0
-602,435,0,0,0,0,0,0,0,0,0,-1,622,589,0,0
-595,435,0,0,0,0,0,0,0,0,0,-1,629,589,0,0
-588,435,0,0,0,0,0,0,0,0,0,-1,636,589,0,0
-581,435,0,0,0,0,0,0,0,0,0,-1,643,589,0,0
-574,435,0,0,0,0,0,0,0,0,0,-1,650,589,0,0
-567,435,0,0,0,0,0,0,0,0,0,-1,657,589,0,0
-560,435,0,0,0,0,0,0,0,0,0,-1,664,589,0,0
-553,435,0,0,0,0,0,0,0,0,0,-1,671,589,0,0
-546,435,0,0,0,0,0,0,0,0,0,-1,678,589,0,0
-539,435,0,0,0,0,0,0,0,0,0,-1,685,589,0,0
-532,435,0,0,0,0,0,0,0,0,0,-1,692,589,0,0
-525,435,-10.0776,10.0547,0,0,0,0,0,0,0,-1,699,589,-10.0776,-10.0547
-518,435,-1.83093,-5.82367,0,0,0,0,0,0,0,-1,706,589,-1.83093,5.8237
-511,435,-2.45154,-5.33118,0,0,0,0,0,0,0,-1,713,589,-2.45151,5.33115
-504,435,-3.07208,-4.83862,0,0,0,0,0,0,0,-1,720,589,-3.0721,4.8386
-497,435,-6.31012,-5.84698,0,0,0,0,0,0,0,-1,727,589,-6.31012,5.84697
-490,435,-5.81903,-0.458679,0,0,0,0,0,0,0,-1,734,589,-5.81902,0.458684
-483,435,-6.96503,-3.01624,0,0,0,0,0,0,0,-1,741,589,-6.96505,3.01623
-476,435,-14.5337,-14.7686,0,0,0,0,0,0,0,-1,748,589,-14.5337,14.7685
-469,435,-19.5134,-19.9833,0,0,0,0,0,0,0,-1,755,589,-19.5134,19.9833
-462,435,-30.1574,-30.2823,0,0,0,0,0,0,0,-1,762,589,-30.1574,30.2823
-455,435,-41.0936,-44.8817,0,0,0,0,0,0,0,-1,769,589,-41.0936,44.8816
-448,435,-41.6875,-47.6347,0.00199024,0.00349797,-0.00197449,0.00485762,0.000630596,-0.967759,0.00305002,0.0226947,776,589,-41.6875,47.6347
-441,435,-42.2523,-50.3565,0.00201708,0.00261066,-0.00147361,0.00381707,0.000810675,-0.884771,0.00232214,0.0159649,783,589,-42.2522,50.3565
-434,435,-42.7927,-53.0128,0.00193024,0.00173404,-0.000990171,0.00282716,0.00083712,-0.736024,0.00167689,0.0149345,790,589,-42.7927,53.0128
-427,435,-43.3571,-55.7409,0.00187257,0.000986436,-0.000642527,0.00220998,0.000649023,-0.483553,0.00131164,0.0128465,797,589,-43.3571,55.7409
-420,435,-43.8525,-58.4519,0.00189937,0.000360445,-0.000321538,0.00196385,0.000295965,-0.197909,0.00122258,0.0133364,804,589,-43.8525,58.4519
-413,435,-44.3633,-61.1794,0.00189812,-0.000297892,3.78121e-05,0.00189877,-0.000298543,0.0172118,0.0013762,0.0145333,811,589,-44.3633,61.1794
-406,435,-44.915,-63.8805,0.00192366,-0.000908946,0.000402315,0.00197969,-0.000964978,0.138385,0.00173343,0.015245,818,589,-44.915,63.8805
-399,435,-45.4801,-66.5764,0.0021326,-0.0013567,0.000665925,0.00225537,-0.00147947,0.182314,0.00217177,0.0130028,825,589,-45.4801,66.5764
-392,435,-46.0363,-69.2667,0.00249141,-0.00172708,0.000884645,0.00266941,-0.00190509,0.198565,0.00265335,0.0138768,832,589,-46.0362,69.2667
-385,435,-46.5486,-71.9945,0.00297002,-0.00207197,0.00114178,0.00321653,-0.00231847,0.212634,0.00320962,0.0408799,839,589,-46.5486,71.9945
-378,435,-46.9131,-74.9666,0,0,0,0,0,0,0,-1,846,589,-46.9132,74.9666
-371,435,-10.247,-21.7153,0,0,0,0,0,0,0,-1,853,589,-10.247,21.7153
-364,435,-5.62848,-11.5937,0,0,0,0,0,0,0,-1,860,589,-5.62847,11.5937
-357,435,-5.57343,-10.9666,0,0,0,0,0,0,0,-1,867,589,-5.57342,10.9666
-350,435,-0.86676,-3.69836,0,0,0,0,0,0,0,-1,874,589,-0.866784,3.69834
-343,435,-1.60706,-2.36835,0,0,0,0,0,0,0,-1,881,589,-1.60706,2.36838
-336,435,-2.07263,-1.94012,0,0,0,0,0,0,0,-1,888,589,-2.07265,1.94014
-329,435,-2.55963,-1.5517,0,0,0,0,0,0,0,-1,895,589,-2.5596,1.55168
-322,435,-3.08545,-1.55255,0,0,0,0,0,0,0,-1,902,589,-3.08544,1.55254
-315,435,-0.404297,-2.63763,0,0,0,0,0,0,0,-1,909,589,-0.404276,2.63761
-308,435,-1.70056,-1.90369,0,0,0,0,0,0,0,-1,916,589,-1.70056,1.90367
-301,435,-1.19391,-2.41632,0,0,0,0,0,0,0,-1,923,589,-1.1939,2.41635
-294,435,3.78278,-10.3275,0,0,0,0,0,0,0,-1,930,589,3.78281,10.3275
-287,435,0,0,0,0,0,0,0,0,0,-1,937,589,0,0
-280,435,0,0,0,0,0,0,0,0,0,-1,944,589,0,0
-273,435,0,0,0,0,0,0,0,0,0,-1,951,589,0,0
-266,435,0,0,0,0,0,0,0,0,0,-1,958,589,0,0
-259,435,0,0,0,0,0,0,0,0,0,-1,965,589,0,0
-252,435,0,0,0,0,0,0,0,0,0,-1,972,589,0,0
-245,435,0,0,0,0,0,0,0,0,0,-1,979,589,0,0
-238,435,0,0,0,0,0,0,0,0,0,-1,986,589,0,0
-231,435,0,0,0,0,0,0,0,0,0,-1,993,589,0,0
-224,435,0,0,0,0,0,0,0,0,0,-1,1000,589,0,0
-217,435,0,0,0,0,0,0,0,0,0,-1,1007,589,0,0
-210,435,0,0,0,0,0,0,0,0,0,-1,1014,589,0,0
-203,435,0,0,0,0,0,0,0,0,0,-1,1021,589,0,0
-196,435,0,0,0,0,0,0,0,0,0,-1,1028,589,0,0
-189,435,0,0,0,0,0,0,0,0,0,-1,1035,589,0,0
-182,435,0,0,0,0,0,0,0,0,0,-1,1042,589,0,0
-175,435,0,0,0,0,0,0,0,0,0,-1,1049,589,0,0
-168,435,0,0,0,0,0,0,0,0,0,-1,1056,589,0,0
-161,435,0,0,0,0,0,0,0,0,0,-1,1063,589,0,0
-154,435,0,0,0,0,0,0,0,0,0,-1,1070,589,0,0
-147,435,0,0,0,0,0,0,0,0,0,-1,1077,589,0,0
-140,435,0,0,0,0,0,0,0,0,0,-1,1084,589,0,0
-133,435,0,0,0,0,0,0,0,0,0,-1,1091,589,0,0
-126,435,0,0,0,0,0,0,0,0,0,-1,1098,589,0,0
-119,435,0,0,0,0,0,0,0,0,0,-1,1105,589,0,0
-112,435,0,0,0,0,0,0,0,0,0,-1,1112,589,0,0
-105,435,0,0,0,0,0,0,0,0,0,-1,1119,589,0,0
-98,435,0,0,0,0,0,0,0,0,0,-1,1126,589,0,0
-91,435,0,0,0,0,0,0,0,0,0,-1,1133,589,0,0
-84,435,0,0,0,0,0,0,0,0,0,-1,1140,589,0,0
-77,435,0,0,0,0,0,0,0,0,0,-1,1147,589,0,0
-70,435,0,0,0,0,0,0,0,0,0,-1,1154,589,0,0
-63,435,0,0,0,0,0,0,0,0,0,-1,1161,589,0,0
-56,435,0,0,0,0,0,0,0,0,0,-1,1168,589,0,0
-49,435,0,0,0,0,0,0,0,0,0,-1,1175,589,0,0
-42,435,0,0,0,0,0,0,0,0,0,-1,1182,589,0,0
-35,435,0,0,0,0,0,0,0,0,0,-1,1189,589,0,0
-28,435,0,0,0,0,0,0,0,0,0,-1,1196,589,0,0
-21,435,0,0,0,0,0,0,0,0,0,-1,1203,589,0,0
-14,435,0,0,0,0,0,0,0,0,0,-1,1210,589,0,0
-7,435,0,0,0,0,0,0,0,0,0,-1,1217,589,0,0
0,435,0,0,0,0,0,0,0,0,0,-1,1224,589,0,0
7,435,0,0,0,0,0,0,0,0,0,-1,1231,589,0,0
14,435,0,0,0,0,0,0,0,0,0,-1,1238,589,0,0
21,435,0,0,0,0,0,0,0,0,0,-1,1245,589,0,0
28,435,0,0,0,0,0,0,0,0,0,-1,1252,589,0,0
35,435,0,0,0,0,0,0,0,0,0,-1,1259,589,0,0
42,435,0,0,0,0,0,0,0,0,0,-1,1266,589,0,0
49,435,0,0,0,0,0,0,0,0,0,-1,1273,589,0,0
56,435,0,0,0,0,0,0,0,0,0,-1,1280,589,0,0
63,435,0,0,0,0,0,0,0,0,0,-1,1287,589,0,0
70,435,0,0,0,0,0,0,0,0,0,-1,1294,589,0,0
77,435,0,0,0,0,0,0,0,0,0,-1,1301,589,0,0
84,435,0,0,0,0,0,0,0,0,0,-1,1308,589,0,0
91,435,0,0,0,0,0,0,0,0,0,-1,1315,589,0,0
98,435,0,0,0,0,0,0,0,0,0,-1,1322,589,0,0
105,435,0,0,0,0,0,0,0,0,0,-1,1329,589,0,0
112,435,0,0,0,0,0,0,0,0,0,-1,1336,589,0,0
119,435,0,0,0,0,0,0,0,0,0,-1,1343,589,0,0
126,435,0,0,0,0,0,0,0,0,0,-1,1350,589,0,0
133,435,0,0,0,0,0,0,0,0,0,-1,1357,589,0,0
140,435,0,0,0,0,0,0,0,0,0,-1,1364,589,0,0
147,435,0,0,0,0,0,0,0,0,0,-1,1371,589,0,0
154,435,0,0,0,0,0,0,0,0,0,-1,1378,589,0,0
161,435,0,0,0,0,0,0,0,0,0,-1,1385,589,0,0
168,435,0,0,0,0,0,0,0,0,0,-1,1392,589,0,0
175,435,0,0,0,0,0,0,0,0,0,-1,1399,589,0,0
182,435,0,0,0,0,0,0,0,0,0,-1,1406,589,0,0
189,435,0,0,0,0,0,0,0,0,0,-1,1413,589,0,0
196,435,0,0,0,0,0,0,0,0,0,-1,1420,589,0,0
203,435,0,0,0,0,0,0,0,0,0,-1,1427,589,0,0
210,435,0,0,0,0,0,0,0,0,0,-1,1434,589,0,0
217,435,0,0,0,0,0,0,0,0,0,-1,1441,589,0,0
224,435,0,0,0,0,0,0,0,0,0,-1,1448,589,0,0
231,435,0,0,0,0,0,0,0,0,0,-1,1455,589,0,0
238,435,0,0,0,0,0,0,0,0,0,-1,1462,589,0,0
245,435,0,0,0,0,0,0,0,0,0,-1,1469,589,0,0
252,435,0,0,0,0,0,0,0,0,0,-1,1476,589,0,0
259,435,0,0,0,0,0,0,0,0,0,-1,1483,589,0,0
266,435,0,0,0,0,0,0,0,0,0,-1,1490,589,0,0
273,435,0,0,0,0,0,0,0,0,0,-1,1497,589,0,0
280,435,0,0,0,0,0,0,0,0,0,-1,1504,589,0,0
287,435,0,0,0,0,0,0,0,0,0,-1,1511,589,0,0
294,435,0,0,0,0,0,0,0,0,0,-1,1518,589,0,0
301,435,0,0,0,0,0,0,0,0,0,-1,1525,589,0,0
308,435,0,0,0,0,0,0,0,0,0,-1,1532,589,0,0
315,435,0,0,0,0,0,0,0,0,0,-1,1539,589,0,0
322,435,0,0,0,0,0,0,0,0,0,-1,1546,589,0,0
329,435,0,0,0,0,0,0,0,0,0,-1,1553,589,0,0
336,435,0,0,0,0,0,0,0,0,0,-1,1560,589,0,0
343,435,0,0,0,0,0,0,0,0,0,-1,1567,589,0,0
350,435,0,0,0,0,0,0,0,0,0,-1,1574,589,0,0
357,435,0,0,0,0,0,0,0,0,0,-1,1581,589,0,0
364,435,0,0,0,0,0,0,0,0,0,-1,1588,589,0,0
371,435,0,0,0,0,0,0,0,0,0,-1,1595,589,0,0
378,435,0,0,0,0,0,0,0,0,0,-1,1602,589,0,0
385,435,0,0,0,0,0,0,0,0,0,-1,1609,589,0,0
392,435,0,0,0,0,0,0,0,0,0,-1,1616,589,0,0
399,435,0,0,0,0,0,0,0,0,0,-1,1623,589,0,0
406,435,0,0,0,0,0,0,0,0,0,-1,1630,589,0,0
413,435,20.4565,3.49835,0,0,0,0,0,0,0,-1,1637,589,20.4565,-3.49836
420,435,21.4015,1.49609,0,0,0,0,0,0,0,-1,1644,589,21.4015,-1.49609
427,435,22.0464,-0.373962,0,0,0,0,0,0,0,-1,1651,589,22.0464,0.373972
434,435,22.1863,-1.54407,0,0,0,0,0,0,0,-1,1658,589,22.1862,1.54405
441,435,22.3992,-2.38287,0,0,0,0,0,0,0,-1,1665,589,22.3992,2.38289
448,435,7.4585,-0.00292969,0,0,0,0,0,0,0,-1,1672,589,7.45848,0.00294131
455,435,5.49915,-5.047,0,0,0,0,0,0,0,-1,1679,589,5.49914,5.04703
462,435,5.60669,-4.71466,0,0,0,0,0,0,0,-1,1686,589,5.60675,4.71469
469,435,5.87708,1.22351,0,0,0,0,0,0,0,-1,1693,589,5.87703,-1.22351
476,435,6.14136,1.37714,0,0,0,0,0,0,0,-1,1700,589,6.14138,-1.37712
483,435,6.49243,1.36169,0,0,0,0,0,0,0,-1,1707,589,6.49242,-1.36171
490,435,4.38391,-1.36218,0,0,0,0,0,0,0,-1,1714,589,4.38389,1.3622
497,435,7.23499,-3.64551,0,0,0,0,0,0,0,-1,1721,589,7.23495,3.64551
504,435,7.31189,-3.75909,0,0,0,0,0,0,0,-1,1728,589,7.31184,3.75911
511,435,57.369,-74.0555,0,0,0,0,0,0,0,-1,1735,589,57.369,74.0555
518,435,56.9989,-71.0616,0.00333517,0.00201459,0.000768022,0.00368772,0.00166204,0.43034,0.00213255,0.0432764,1742,589,56.9988,71.0616
525,435,56.4116,-68.3863,0.00305841,0.00203702,0.00107447,0.00373737,0.00135806,0.563552,0.00218446,0.0221089,1749,589,56.4117,68.3863
532,435,55.92,-65.6783,0.00284796,0.00197472,0.00117897,0.00366856,0.00115411,0.60806,0.00216604,0.0239268,1756,589,55.9201,65.6783
539,435,55.3196,-62.9339,0.00277919,0.00176387,0.0012215,0.00359432,0.000948732,0.588457,0.00215089,0.0230336,1763,589,55.3196,62.9339
546,435,54.8035,-60.2667,0.00284591,0.00146516,0.00115012,0.00349695,0.000814118,0.515092,0.00211287,0.0223253,1770,589,54.8035,60.2667
553,435,54.2924,-57.6119,0.00285539,0.00117095,0.000975905,0.00330225,0.00072409,0.429397,0.00200422,0.014854,1777,589,54.2924,57.612
560,435,53.7695,-54.9301,0.002757,0.000834608,0.000793959,0.00304251,0.000549101,0.345201,0.00187234,0.0120506,1784,589,53.7695,54.9301
567,435,53.2478,-52.1931,0.00271505,0.000514287,0.000583592,0.00286023,0.00036911,0.243817,0.00179647,0.0124284,1791,589,53.2478,52.1931
574,435,52.6967,-49.4907,0.002512,0.000204566,0.000347108,0.00256308,0.000153481,0.146123,0.00165993,0.0142947,1798,589,52.6967,49.4907
581,435,52.1526,-46.7534,0.00213615,-2.89521e-05,0.000104046,0.00214114,-3.39405e-05,0.0479087,0.00143887,0.0229375,1805,589,52.1526,46.7534
588,435,51.6318,-43.9758,0,0,0,0,0,0,0,-1,1812,589,51.6319,43.9758
595,435,38.4182,-22.4416,0,0,0,0,0,0,0,-1,1819,589,38.4182,22.4416
602,435,16.8671,-6.39026,0,0,0,0,0,0,0,-1,1826,589,16.867,6.39024
609,435,15.2611,-3.42242,0,0,0,0,0,0,0,-1,1833,589,15.2611,3.42242
616,435,5.05151,-2.75269,0,0,0,0,0,0,0,-1,1840,589,5.05157,2.7527
623,435,11.7588,3.9704,0,0,0,0,0,0,0,-1,1847,589,11.7587,-3.97043
630,435,4.72742,-0.87561,0,0,0,0,0,0,0,-1,1854,589,4.7274,0.875636
637,435,5.05286,1.48792,0,0,0,0,0,0,0,-1,1861,589,5.05291,-1.48792
644,435,0,0,0,0,0,0,0,0,0,-1,1868,589,0,0
651,435,0,0,0,0,0,0,0,0,0,-1,1875,589,0,0
658,435,0,0,0,0,0,0,0,0,0,-1,1882,589,0,0
665,435,0,0,0,0,0,0,0,0,0,-1,1889,589,0,0
672,435,0,0,0,0,0,0,0,0,0,-1,1896,589,0,0
679,435,0,0,0,0,0,0,0,0,0,-1,1903,589,0,0
686,435,0,0,0,0,0,0,0,0,0,-1,1910,589,0,0
693,435,0,0,0,0,0,0,0,0,0,-1,1917,589,0,0
700,435,0,0,0,0,0,0,0,0,0,-1,1924,589,0,0
707,435,0,0,0,0,0,0,0,0,0,-1,1931,589,0,0
714,435,0,0,0,0,0,0,0,0,0,-1,1938,589,0,0
721,435,0,0,0,0,0,0,0,0,0,-1,1945,589,0,0
728,435,0,0,0,0,0,0,0,0,0,-1,1952,589,0,0
735,435,0,0,0,0,0,0,0,0,0,-1,1959,589,0,0
742,435,0,0,0,0,0,0,0,0,0,-1,1966,589,0,0
749,435,0,0,0,0,0,0,0,0,0,-1,1973,589,0,0
756,435,0,0,0,0,0,0,0,0,0,-1,1980,589,0,0
763,435,0,0,0,0,0,0,0,0,0,-1,1987,589,0,0
770,435,0,0,0,0,0,0,0,0,0,-1,1994,589,0,0
777,435,0,0,0,0,0,0,0,0,0,-1,2001,589,0,0
784,435,0,0,0,0,0,0,0,0,0,-1,2008,589,0,0
791,435,0,0,0,0,0,0,0,0,0,-1,2015,589,0,0
798,435,0,0,0,0,0,0,0,0,0,-1,2022,589,0,0
805,435,0,0,0,0,0,0,0,0,0,-1,2029,589,0,0
812,435,0,0,0,0,0,0,0,0,0,-1,2036,589,0,0
-700,428,0,0,0,0,0,0,0,0,0,-1,524,596,0,0
-693,428,0,0,0,0,0,0,0,0,0,-1,531,596,0,0
-686,428,0,0,0,0,0,0,0,0,0,-1,538,596,0,0
-679,428,0,0,0,0,0,0,0,0,0,-1,545,596,0,0
-672,428,0,0,0,0,0,0,0,0,0,-1,552,596,0,0
-665,428,0,0,0,0,0,0,0,0,0,-1,559,596,0,0
-658,428,0,0,0,0,0,0,0,0,0,-1,566,596,0,0
-651,428,0,0,0,0,0,0,0,0,0,-1,573,596,0,0
-644,428,0,0,0,0,0,0,0,0,0,-1,580,596,0,0
-637,428,0,0,0,0,0,0,0,0,0,-1,587,596,0,0
-630,428,0,0,0,0,0,0,0,0,0,-1,594,596,0,0
-623,428,0,0,0,0,0,0,0,0,0,-1,601,596,0,0
-616,428,0,0,0,0,0,0,0,0,0,-1,608,596,0,0
-609,428,0,0,0,0,0,0,0,0,0,-1,615,596,0,0
-602,428,0,0,0,0,0,0,0,0,0,-1,622,596,0,0
-595,428,0,0,0,0,0,0,0,0,0,-1,629,596,0,0
-588,428,0,0,0,0,0,0,0,0,0,-1,636,596,0,0
-581,428,0,0,0,0,0,0,0,0,0,-1,643,596,0,0
-574,428,0,0,0,0,0,0,0,0,0,-1,650,596,0,0
-567,428,0,0,0,0,0,0,0,0,0,-1,657,596,0,0
-560,428,0,0,0,0,0,0,0,0,0,-1,664,596,0,0
-553,428,0,0,0,0,0,0,0,0,0,-1,671,596,0,0
-546,428,0,0,0,0,0,0,0,0,0,-1,678,596,0,0
-539,428,0,0,0,0,0,0,0,0,0,-1,685,596,0,0
-532,428,0,0,0,0,0,0,0,0,0,-1,692,596,0,0
-525,428,-9.59918,7.58618,0,0,0,0,0,0,0,-1,699,596,-9.59918,-7.5862
-518,428,-2.92285,-4.81854,0,0,0,0,0,0,0,-1,706,596,-2.92285,4.81856
-511,428,-3.68811,-4.79474,0,0,0,0,0,0,0,-1,713,596,-3.68811,4.79474
-504,428,-4.45337,-4.77094,0,0,0,0,0,0,0,-1,720,596,-4.45337,4.77092
-497,428,-2.98108,-3.77502,0,0,0,0,0,0,0,-1,727,596,-2.98106,3.77505
-490,428,-6.39044,-2.80481,0,0,0,0,0,0,0,-1,734,596,-6.39047,2.80483
-483,428,-10.8474,-9.11322,0,0,0,0,0,0,0,-1,741,596,-10.8473,9.11321
-476,428,-20.6912,-18.7292,0,0,0,0,0,0,0,-1,748,596,-20.6912,18.7292
-469,428,-23.0342,-21.3403,0,0,0,0,0,0,0,-1,755,596,-23.0342,21.3403
-462,428,-43.2478,-41.2371,0,0,0,0,0,0,0,-1,762,596,-43.2478,41.2371
-455,428,-43.8561,-44.2124,0.00147235,0.00313493,-0.00191083,0.00438747,0.000219817,-0.990571,0.00285453,0.031177,769,596,-43.8562,44.2124
-448,428,-44.3885,-47.0267,0.00163267,0.00228513,-0.001351,0.00334873,0.000569074,-0.903867,0.00206905,0.0165119,776,596,-44.3885,47.0267
-441,428,-44.9639,-49.7707,0.00174696,0.00148718,-0.000898221,0.00252464,0.000709507,-0.713592,0.00150347,0.0172767,783,596,-44.9639,49.7707
-434,428,-45.4791,-52.5051,0.00177086,0.000733817,-0.0004953,0.00196941,0.000535271,-0.381248,0.00117585,0.0118629,790,596,-45.479,52.5051
-427,428,-46.0602,-55.231,0.00184197,0.000128426,-0.000254453,0.00187896,9.14395e-05,-0.144346,0.0012233,0.0140034,797,596,-46.0603,55.231
-420,428,-46.567,-57.9121,0.00197034,-0.000371016,-3.46858e-05,0.00197085,-0.00037153,-0.0148101,0.00145366,0.0146077,804,596,-46.567,57.9121
-413,428,-47.0828,-60.6277,0.00206965,-0.000890807,0.000220152,0.00208593,-0.000907089,0.0738229,0.00177214,0.017827,811,596,-47.0828,60.6278
-406,428,-47.6432,-63.3458,0.00220249,-0.00134076,0.000474174,0.00226484,-0.00140312,0.13076,0.00213709,0.0205344,818,596,-47.6433,63.3458
-399,428,-48.1474,-66.0347,0.00252768,-0.00159708,0.000622489,0.00261957,-0.00168898,0.146568,0.00250681,0.0207793,825,596,-48.1474,66.0347
-392,428,-48.6953,-68.7586,0,0,0,0,0,0,0,-1,832,596,-48.6953,68.7586
-385,428,-49.1921,-71.5522,0,0,0,0,0,0,0,-1,839,596,-49.1921,71.5522
-378,428,-10.8172,-20.952,0,0,0,0,0,0,0,-1,846,596,-10.8172,20.952
-371,428,-5.96155,-11.0703,0,0,0,0,0,0,0,-1,853,596,-5.96154,11.0702
-364,428,-6.33643,-10.7223,0,0,0,0,0,0,0,-1,860,596,-6.33645,10.7223
-357,428,-3.20996,-4.70966,0,0,0,0,0,0,0,-1,867,596,-3.20997,4.70965
-350,428,-1.62793,-3.94055,0,0,0,0,0,0,0,-1,874,596,-1.62794,3.94055
-343,428,-0.0567017,-4.80994,0,0,0,0,0,0,0,-1,881,596,-0.0567096,4.80996
-336,428,-3.29175,-1.39569,0,0,0,0,0,0,0,-1,888,596,-3.29172,1.39568
-329,428,-3.71564,-0.791321,0,0,0,0,0,0,0,-1,895,596,-3.71564,0.791299
-322,428,-5.52863,-3.59827,0,0,0,0,0,0,0,-1,902,596,-5.52865,3.59829
-315,428,-4.57172,-1.22052,0,0,0,0,0,0,0,-1,909,596,-4.57171,1.22052
-308,428,-5.60742,-3.40961,0,0,0,0,0,0,0,-1,916,596,-5.60744,3.40959
-301,428,0,0,0,0,0,0,0,0,0,-1,923,596,0,0
-294,428,0,0,0,0,0,0,0,0,0,-1,930,596,0,0
-287,428,0,0,0,0,0,0,0,0,0,-1,937,596,0,0
-280,428,0,0,0,0,0,0,0,0,0,-1,944,596,0,0
-273,428,0,0,0,0,0,0,0,0,0,-1,951,596,0,0
-266,428,0,0,0,0,0,0,0,0,0,-1,958,596,0,0
-259,428,0,0,0,0,0,0,0,0,0,-1,965,596,0,0
-252,428,0,0,0,0,0,0,0,0,0,-1,972,596,0,0
-245,428,0,0,0,0,0,0,0,0,0,-1,979,596,0,0
-238,428,0,0,0,0,0,0,0,0,0,-1,986,596,0,0
-231,428,0,0,0,0,0,0,0,0,0,-1,993,596,0,0
-224,428,0,0,0,0,0,0,0,0,0,-1,1000,596,0,0
-217,428,0,0,0,0,0,0,0,0,0,-1,1007,596,0,0
-210,428,0,0,0,0,0,0,0,0,0,-1,1014,596,0,0
-203,428,0,0,0,0,0,0,0,0,0,-1,1021,596,0,0
-196,428,0,0,0,0,0,0,0,0,0,-1,1028,596,0,0
-189,428,0,0,0,0,0,0,0,0,0,-1,1035,596,0,0
-182,428,0,0,0,0,0,0,0,0,0,-1,1042,596,0,0
-175,428,0,0,0,0,0,0,0,0,0,-1,1049,596,0,0
-168,428,0,0,0,0,0,0,0,0,0,-1,1056,596,0,0
-161,428,0,0,0,0,0,0,0,0,0,-1,1063,596,0,0
-154,428,0,0,0,0,0,0,0,0,0,-1,1070,596,0,0
-147,428,0,0,0,0,0,0,0,0,0,-1,1077,596,0,0
-140,428,0,0,0,0,0,0,0,0,0,-1,1084,596,0,0
-133,428,0,0,0,0,0,0,0,0,0,-1,1091,596,0,0
-126,428,0,0,0,0,0,0,0,0,0,-1,1098,596,0,0
-119,428,0,0,0,0,0,0,0,0,0,-1,1105,596,0,0
-112,428,0,0,0,0,0,0,0,0,0,-1,1112,596,0,0
-105,428,0,0,0,0,0,0,0,0,0,-1,1119,596,0,0
-98,428,0,0,0,0,0,0,0,0,0,-1,1126,596,0,0
-91,428,0,0,0,0,0,0,0,0,0,-1,1133,596,0,0
-84,428,0,0,0,0,0,0,0,0,0,-1,1140,596,0,0
-77,428,0,0,0,0,0,0,0,0,0,-1,1147,596,0,0
-70,428,0,0,0,0,0,0,0,0,0,-1,1154,596,0,0
-63,428,0,0,0,0,0,0,0,0,0,-1,1161,596,0,0
-56,428,0,0,0,0,0,0,0,0,0,-1,1168,596,0,0
-49,428,0,0,0,0,0,0,0,0,0,-1,1175,596,0,0
-42,428,0,0,0,0,0,0,0,0,0,-1,1182,596,0,0
-35,428,0,0,0,0,0,0,0,0,0,-1,1189,596,0,0
-28,428,0,0,0,0,0,0,0,0,0,-1,1196,596,0,0
-21,428,0,0,0,0,0,0,0,0,0,-1,1203,596,0,0
-14,428,0,0,0,0,0,0,0,0,0,-1,1210,596,0,0
-7,428,0,0,0,0,0,0,0,0,0,-1,1217,596,0,0
0,428,0,0,0,0,0,0,0,0,0,-1,1224,596,0,0
7,428,0,0,0,0,0,0,0,0,0,-1,1231,596,0,0
14,428,0,0,0,0,0,0,0,0,0,-1,1238,596,0,0
21,428,0,0,0,0,0,0,0,0,0,-1,1245,596,0,0
28,428,0,0,0,0,0,0,0,0,0,-1,1252,596,0,0
35,428,0,0,0,0,0,0,0,0,0,-1,1259,596,0,0
42,428,0,0,0,0,0,0,0,0,0,-1,1266,596,0,0
49,428,0,0,0,0,0,0,0,0,0,-1,1273,596,0,0
56,428,0,0,0,0,0,0,0,0,0,-1,1280,596,0,0
63,428,0,0,0,0,0,0,0,0,0,-1,1287,596,0,0
70,428,0,0,0,0,0,0,0,0,0,-1,1294,596,0,0
77,428,0,0,0,0,0,0,0,0,0,-1,1301,596,0,0
84,428,0,0,0,0,0,0,0,0,0,-1,1308,596,0,0
91,428,0,0,0,0,0,0,0,0,0,-1,1315,596,0,0
98,428,0,0,0,0,0,0,0,0,0,-1,1322,596,0,0
105,428,0,0,0,0,0,0,0,0,0,-1,1329,596,0,0
112,428,0,0,0,0,0,0,0,0,0,-1,1336,596,0,0
119,428,0,0,0,0,0,0,0,0,0,-1,1343,596,0,0
126,428,0,0,0,0,0,0,0,0,0,-1,1350,596,0,0
133,428,0,0,0,0,0,0,0,0,0,-1,1357,596,0,0
140,428,0,0,0,0,0,0,0,0,0,-1,1364,596,0,0
147,428,0,0,0,0,0,0,0,0,0,-1,1371,596,0,0
154,428,0,0,0,0,0,0,0,0,0,-1,1378,596,0,0
161,428,0,0,0,0,0,0,0,0,0,-1,1385,596,0,0
168,428,0,0,0,0,0,0,0,0,0,-1,1392,596,0,0
175,428,0,0,0,0,0,0,0,0,0,-1,1399,596,0,0
182,428,0,0,0,0,0,0,0,0,0,-1,1406,596,0,0
189,428,0,0,0,0,0,0,0,0,0,-1,1413,596,0,0
196,428,0,0,0,0,0,0,0,0,0,-1,1420,596,0,0
203,428,0,0,0,0,0,0,0,0,0,-1,1427,596,0,0
210,428,0,0,0,0,0,0,0,0,0,-1,1434,596,0,0
217,428,0,0,0,0,0,0,0,0,0,-1,1441,596,0,0
224,428,0,0,0,0,0,0,0,0,0,-1,1448,596,0,0
231,428,0,0,0,0,0,0,0,0,0,-1,1455,596,0,0
238,428,0,0,0,0,0,0,0,0,0,-1,1462,596,0,0
245,428,0,0,0,0,0,0,0,0,0,-1,1469,596,0,0
252,428,0,0,0,0,0,0,0,0,0,-1,1476,596,0,0
259,428,0,0,0,0,0,0,0,0,0,-1,1483,596,0,0
266,428,0,0,0,0,0,0,0,0,0,-1,1490,596,0,0
273,428,0,0,0,0,0,0,0,0,0,-1,1497,596,0,0
280,428,0,0,0,0,0,0,0,0,0,-1,1504,596,0,0
287,428,0,0,0,0,0,0,0,0,0,-1,1511,596,0,0
294,428,0,0,0,0,0,0,0,0,0,-1,1518,596,0,0
301,428,0,0,0,0,0,0,0,0,0,-1,1525,596,0,0
308,428,0,0,0,0,0,0,0,0,0,-1,1532,596,0,0
315,428,0,0,0,0,0,0,0,0,0,-1,1539,596,0,0
322,428,0,0,0,0,0,0,0,0,0,-1,1546,596,0,0
329,428,0,0,0,0,0,0,0,0,0,-1,1553,596,0,0
336,428,0,0,0,0,0,0,0,0,0,-1,1560,596,0,0
343,428,0,0,0,0,0,0,0,0,0,-1,1567,596,0,0
350,428,0,0,0,0,0,0,0,0,0,-1,1574,596,0,0
357,428,0,0,0,0,0,0,0,0,0,-1,1581,596,0,0
364,428,0,0,0,0,0,0,0,0,0,-1,1588,596,0,0
371,428,0,0,0,0,0,0,0,0,0,-1,1595,596,0,0
378,428,0,0,0,0,0,0,0,0,0,-1,1602,596,0,0
385,428,0,0,0,0,0,0,0,0,0,-1,1609,596,0,0
392,428,0,0,0,0,0,0,0,0,0,-1,1616,596,0,0
399,428,0,0,0,0,0,0,0,0,0,-1,1623,596,0,0
406,428,0,0,0,0,0,0,0,0,0,-1,1630,596,0,0
413,428,0,0,0,0,0,0,0,0,0,-1,1637,596,0,0
420,428,19.8469,1.3399,0,0,0,0,0,0,0,-1,1644,596,19.8469,-1.33992
427,428,20.7299,-0.225281,0,0,0,0,0,0,0,-1,1651,596,20.7299,0.225262
434,428,19.8915,-0.583069,0,0,0,0,0,0,0,-1,1658,596,19.8915,0.583075
441,428,8.17993,0.607483,0,0,0,0,0,0,0,-1,1665,596,8.17997,-0.607513
448,428,7.84338,-0.385986,0,0,0,0,0,0,0,-1,1672,596,7.84336,0.385978
455,428,6.64038,2.1123,0,0,0,0,0,0,0,-1,1679,596,6.64037,-2.11229
462,428,4.84106,4.12341,0,0,0,0,0,0,0,-1,1686,596,4.84107,-4.12339
469,428,7.83789,3.10083,0,0,0,0,0,0,0,-1,1693,596,7.83785,-3.10086
476,428,7.61255,1.73956,0,0,0,0,0,0,0,-1,1700,596,7.61252,-1.73958
483,428,7.22766,1.05121,0,0,0,0,0,0,0,-1,1707,596,7.2277,-1.05121
490,428,5.4071,-3.2793,0,0,0,0,0,0,0,-1,1714,596,5.40707,3.27929
497,428,7.84106,-3.65491,0,0,0,0,0,0,0,-1,1721,596,7.84107,3.65491
504,428,6.92139,-2.83356,0,0,0,0,0,0,0,-1,1728,596,6.92137,2.83353
511,428,7.88501,-3.78723,0,0,0,0,0,0,0,-1,1735,596,7.88502,3.78722
518,428,59.678,-70.6544,0,0,0,0,0,0,0,-1,1742,596,59.678,70.6544
525,428,59.1285,-67.893,0,0,0,0,0,0,0,-1,1749,596,59.1286,67.893
532,428,58.5763,-65.2599,0.0033588,0.00292295,0.00173681,0.0048913,0.00139044,0.722987,0.00291029,0.0343467,1756,596,58.5763,65.2599
539,428,58.0287,-62.4582,0.00318812,0.00250049,0.0016383,0.0045183,0.00117032,0.681969,0.00270775,0.027371,1763,596,58.0287,62.4582
546,428,57.5734,-59.7283,0.00313714,0.00210425,0.00143582,0.00414657,0.00109482,0.612759,0.0024813,0.0253705,1770,596,57.5734,59.7283
553,428,57.0199,-57.0709,0.00303867,0.00170047,0.00117334,0.00372028,0.00101886,0.526268,0.00221992,0.0180383,1777,596,57.02,57.0709
560,428,56.4607,-54.3428,0.0027843,0.0012719,0.000909176,0.00321065,0.000845543,0.438499,0.00192163,0.0155769,1784,596,56.4607,54.3428
567,428,55.9811,-51.6091,0.002545,0.000877353,0.000618793,0.00274953,0.000672829,0.319218,0.00165498,0.0156193,1791,596,55.9811,51.6091
574,428,55.4463,-48.9444,0.00219251,0.000487194,0.000323795,0.00225192,0.000427783,0.181464,0.00138095,0.0185338,1798,596,55.4463,48.9444
581,428,54.8574,-46.2476,0.00167231,0.000153504,2.03832e-05,0.00167259,0.000153231,0.0134173,0.00106765,0.0155578,1805,596,54.8574,46.2475
588,428,54.3381,-43.4481,0.00096524,-7.23818e-06,-0.000193215,0.00100222,-4.42204e-05,-0.189117,0.000683365,0.0303894,1812,596,54.3381,43.4481
595,428,53.788,-40.7325,0,0,0,0,0,0,0,-1,1819,596,53.7879,40.7325
602,428,39.9447,-21.0615,0,0,0,0,0,0,0,-1,1826,596,39.9447,21.0615
609,428,17.2073,-4.82446,0,0,0,0,0,0,0,-1,1833,596,17.2073,4.82447
616,428,15.7817,-3.09558,0,0,0,0,0,0,0,-1,1840,596,15.7817,3.09556
623,428,9.53577,1.12518,0,0,0,0,0,0,0,-1,1847,596,9.5358,-1.1252
630,428,7.07996,6.88562,0,0,0,0,0,0,0,-1,1854,596,7.0799,-6.88565
637,428,3.95435,1.90857,0,0,0,0,0,0,0,-1,1861,596,3.95439,-1.90858
644,428,5.75476,0.888977,0,0,0,0,0,0,0,-1,1868,596,5.75472,-0.888955
651,428,0,0,0,0,0,0,0,0,0,-1,1875,596,0,0
658,428,0,0,0,0,0,0,0,0,0,-1,1882,596,0,0
665,428,0,0,0,0,0,0,0,0,0,-1,1889,596,0,0
672,428,0,0,0,0,0,0,0,0,0,-1,1896,596,0,0
679,428,0,0,0,0,0,0,0,0,0,-1,1903,596,0,0
686,428,0,0,0,0,0,0,0,0,0,-1,1910,596,0,0
693,428,0,0,0,0,0,0,0,0,0,-1,1917,596,0,0
700,428,0,0,0,0,0,0,0,0,0,-1,1924,596,0,0
707,428,0,0,0,0,0,0,0,0,0,-1,1931,596,0,0
714,428,0,0,0,0,0,0,0,0,0,-1,1938,596,0,0
721,428,0,0,0,0,0,0,0,0,0,-1,1945,596,0,0
728,428,0,0,0,0,0,0,0,0,0,-1,1952,596,0,0
735,428,0,0,0,0,0,0,0,0,0,-1,1959,596,0,0
742,428,0,0,0,0,0,0,0,0,0,-1,1966,596,0,0
749,428,0,0,0,0,0,0,0,0,0,-1,1973,596,0,0
756,428,0,0,0,0,0,0,0,0,0,-1,1980,596,0,0
763,428,0,0,0,0,0,0,0,0,0,-1,1987,596,0,0
770,428,0,0,0,0,0,0,0,0,0,-1,1994,596,0,0
777,428,0,0,0,0,0,0,0,0,0,-1,2001,596,0,0
784,428,0,0,0,0,0,0,0,0,0,-1,2008,596,0,0
791,428,0,0,0,0,0,0,0,0,0,-1,2015,596,0,0
798,428,0,0,0,0,0,0,0,0,0,-1,2022,596,0,0
805,428,0,0,0,0,0,0,0,0,0,-1,2029,596,0,0
812,428,0,0,0,0,0,0,0,0,0,-1,2036,596,0,0
-700,421,0,0,0,0,0,0,0,0,0,-1,524,603,0,0
-693,421,0,0,0,0,0,0,0,0,0,-1,531,603,0,0
-686,421,0,0,0,0,0,0,0,0,0,-1,538,603,0,0
-679,421,0,0,0,0,0,0,0,0,0,-1,545,603,0,0
-672,421,0,0,0,0,0,0,0,0,0,-1,552,603,0,0
-665,421,0,0,0,0,0,0,0,0,0,-1,559,603,0,0
-658,421,0,0,0,0,0,0,0,0,0,-1,566,603,0,0
-651,421,0,0,0,0,0,0,0,0,0,-1,573,603,0,0
-644,421,0,0,0,0,0,0,0,0,0,-1,580,603,0,0
-637,421,0,0,0,0,0,0,0,0,0,-1,587,603,0,0
-630,421,0,0,0,0,0,0,0,0,0,-1,594,603,0,0
-623,421,0,0,0,0,0,0,0,0,0,-1,601,603,0,0
-616,421,0,0,0,0,0,0,0,0,0,-1,608,603,0,0
-609,421,0,0,0,0,0,0,0,0,0,-1,615,603,0,0
-602,421,0,0,0,0,0,0,0,0,0,-1,622,603,0,0
-595,421,0,0,0,0,0,0,0,0,0,-1,629,603,0,0
-588,421,0,0,0,0,0,0,0,0,0,-1,636,603,0,0
-581,421,0,0,0,0,0,0,0,0,0,-1,643,603,0,0
-574,421,0,0,0,0,0,0,0,0,0,-1,650,603,0,0
-567,421,0,0,0,0,0,0,0,0,0,-1,657,603,0,0
-560,421,0,0,0,0,0,0,0,0,0,-1,664,603,0,0
-553,421,0,0,0,0,0,0,0,0,0,-1,671,603,0,0
-546,421,0,0,0,0,0,0,0,0,0,-1,678,603,0,0
-539,421,0,0,0,0,0,0,0,0,0,-1,685,603,0,0
-532,421,-8.97382,6.95636,0,0,0,0,0,0,0,-1,692,603,-8.97384,-6.95634
-525,421,-2.11481,-8.04272,0,0,0,0,0,0,0,-1,699,603,-2.11483,8.0427
-518,421,-3.05908,-5.07233,0,0,0,0,0,0,0,-1,706,603,-3.0591,5.07235
-511,421,-4.63525,-4.08447,0,0,0,0,0,0,0,-1,713,603,-4.63524,4.08449
-504,421,-5.17029,-4.94458,0,0,0,0,0,0,0,-1,720,603,-5.17029,4.9446
-497,421,-6.63141,-2.32501,0,0,0,0,0,0,0,-1,727,603,-6.6314,2.32498
-490,421,-6.7616,-4.14783,0,0,0,0,0,0,0,-1,734,603,-6.76159,4.1478
-483,421,-16.1866,-14.4011,0,0,0,0,0,0,0,-1,741,603,-16.1866,14.4011
-476,421,-45.1488,-35.5378,0,0,0,0,0,0,0,-1,748,603,-45.1488,35.5378
-469,421,-45.6263,-38.2048,0,0,0,0,0,0,0,-1,755,603,-45.6263,38.2047
-462,421,-46.0641,-40.9873,0.0010595,0.00304523,-0.00193816,0.00423003,-0.000125304,-1.02211,0.0028627,0.0318673,762,603,-46.0641,40.9873
-455,421,-46.6208,-43.7828,0.00132158,0.0019892,-0.00130395,0.00300138,0.00030939,-0.910707,0.00190618,0.0245455,769,603,-46.6208,43.7828
-448,421,-47.1203,-46.4928,0.00151539,0.00114474,-0.000783523,0.0021352,0.000524921,-0.669269,0.00128475,0.0233617,776,603,-47.1203,46.4928
-441,421,-47.6668,-49.2075,0.00169445,0.000407579,-0.000373301,0.0017949,0.000307131,-0.262854,0.0011085,0.0168985,783,603,-47.6668,49.2075
-434,421,-48.221,-51.9352,0.00180474,-0.000231832,-5.51285e-05,0.00180623,-0.000233323,-0.0270428,0.00128899,0.011943,790,603,-48.221,51.9353
-427,421,-48.7637,-54.6407,0.00196501,-0.000685081,6.93851e-05,0.00196683,-0.000686896,0.0261583,0.00159042,0.0118318,797,603,-48.7637,54.6407
-420,421,-49.2977,-57.3185,0.00214103,-0.00103477,0.000151195,0.00214821,-0.00104195,0.0474654,0.00187839,0.0141726,804,603,-49.2977,57.3185
-413,421,-49.8388,-60.0463,0.00229351,-0.00135842,0.000222434,0.002307,-0.00137192,0.06061,0.00214677,0.017821,811,603,-49.8388,60.0463
-406,421,-50.4369,-62.8456,0.00249309,-0.00153323,0.000246023,0.00250807,-0.0015482,0.0608023,0.00236365,0.0313077,818,603,-50.4369,62.8456
-399,421,-51.0083,-65.6812,0,0,0,0,0,0,0,-1,825,603,-51.0083,65.6812
-392,421,-39.7571,-54.787,0,0,0,0,0,0,0,-1,832,603,-39.7571,54.7871
-385,421,-11.5825,-18.8583,0,0,0,0,0,0,0,-1,839,603,-11.5825,18.8583
-378,421,-4.94733,-8.87909,0,0,0,0,0,0,0,-1,846,603,-4.94731,8.87906
-371,421,-5.65082,-7.01849,0,0,0,0,0,0,0,-1,853,603,-5.65082,7.0185
-364,421,-5.94189,-7.09875,0,0,0,0,0,0,0,-1,860,603,-5.94192,7.09878
-357,421,-7.62531,-8.26337,0,0,0,0,0,0,0,-1,867,603,-7.62532,8.26337
-350,421,-5.38019,-3.75024,0,0,0,0,0,0,0,-1,874,603,-5.38017,3.75026
-343,421,-6.22797,-2.57123,0,0,0,0,0,0,0,-1,881,603,-6.22798,2.57121
-336,421,-6.22882,-2.59369,0,0,0,0,0,0,0,-1,888,603,-6.22883,2.5937
-329,421,-4.50134,-1.49469,0,0,0,0,0,0,0,-1,895,603,-4.50137,1.49468
-322,421,-7.55817,1.13263,0,0,0,0,0,0,0,-1,902,603,-7.55818,-1.13263
-315,421,-4.16144,-1.96649,0,0,0,0,0,0,0,-1,909,603,-4.16146,1.9665
-308,421,0,0,0,0,0,0,0,0,0,-1,916,603,0,0
-301,421,0,0,0,0,0,0,0,0,0,-1,923,603,0,0
-294,421,0,0,0,0,0,0,0,0,0,-1,930,603,0,0
-287,421,0,0,0,0,0,0,0,0,0,-1,937,603,0,0
-280,421,0,0,0,0,0,0,0,0,0,-1,944,603,0,0
-273,421,0,0,0,0,0,0,0,0,0,-1,951,603,0,0
-266,421,0,0,0,0,0,0,0,0,0,-1,958,603,0,0
-259,421,0,0,0,0,0,0,0,0,0,-1,965,603,0,0
-252,421,0,0,0,0,0,0,0,0,0,-1,972,603,0,0
-245,421,0,0,0,0,0,0,0,0,0,-1,979,603,0,0
-238,421,0,0,0,0,0,0,0,0,0,-1,986,603,0,0
-231,421,0,0,0,0,0,0,0,0,0,-1,993,603,0,0
-224,421,0,0,0,0,0,0,0,0,0,-1,1000,603,0,0
-217,421,0,0,0,0,0,0,0,0,0,-1,1007,603,0,0
-210,421,0,0,0,0,0,0,0,0,0,-1,1014,603,0,0
-203,421,0,0,0,0,0,0,0,0,0,-1,1021,603,0,0
-196,421,0,0,0,0,0,0,0,0,0,-1,1028,603,0,0
-189,421,0,0,0,0,0,0,0,0,0,-1,1035,603,0,0
-182,421,0,0,0,0,0,0,0,0,0,-1,1042,603,0,0
-175,421,0,0,0,0,0,0,0,0,0,-1,1049,603,0,0
-168,421,0,0,0,0,0,0,0,0,0,-1,1056,603,0,0
-161,421,0,0,0,0,0,0,0,0,0,-1,1063,603,0,0
-154,421,0,0,0,0,0,0,0,0,0,-1,1070,603,0,0
-147,421,0,0,0,0,0,0,0,0,0,-1,1077,603,0,0
-140,421,0,0,0,0,0,0,0,0,0,-1,1084,603,0,0
-133,421,0,0,0,0,0,0,0,0,0,-1,1091,603,0,0
-126,421,0,0,0,0,0,0,0,0,0,-1,1098,603,0,0
-119,421,0,0,0,0,0,0,0,0,0,-1,1105,603,0,0
-112,421,0,0,0,0,0,0,0,0,0,-1,1112,603,0,0
-105,421,0,0,0,0,0,0,0,0,0,-1,1119,603,0,0
-98,421,0,0,0,0,0,0,0,0,0,-1,1126,603,0,0
-91,421,0,0,0,0,0,0,0,0,0,-1,1133,603,0,0
-84,421,0,0,0,0,0,0,0,0,0,-1,1140,603,0,0
-77,421,0,0,0,0,0,0,0,0,0,-1,1147,603,0,0
-70,421,0,0,0,0,0,0,0,0,0,-1,1154,603,0,0
-63,421,0,0,0,0,0,0,0,0,0,-1,1161,603,0,0
-56,421,0,0,0,0,0,0,0,0,0,-1,1168,603,0,0
-49,421,0,0,0,0,0,0,0,0,0,-1,1175,603,0,0
-42,421,0,0,0,0,0,0,0,0,0,-1,1182,603,0,0
-35,421,0,0,0,0,0,0,0,0,0,-1,1189,603,0,0
-28,421,0,0,0,0,0,0,0,0,0,-1,1196,603,0,0
-21,421,0,0,0,0,0,0,0,0,0,-1,1203,603,0,0
-14,421,0,0,0,0,0,0,0,0,0,-1,1210,603,0,0
-7,421,0,0,0,0,0,0,0,0,0,-1,1217,603,0,0
0,421,0,0,0,0,0,0,0,0,0,-1,1224,603,0,0
7,421,0,0,0,0,0,0,0,0,0,-1,1231,603,0,0
14,421,0,0,0,0,0,0,0,0,0,-1,1238,603,0,0
21,421,0,0,0,0,0,0,0,0,0,-1,1245,603,0,0
28,421,0,0,0,0,0,0,0,0,0,-1,1252,603,0,0
35,421,0,0,0,0,0,0,0,0,0,-1,1259,603,0,0
42,421,0,0,0,0,0,0,0,0,0,-1,1266,603,0,0
49,421,0,0,0,0,0,0,0,0,0,-1,1273,603,0,0
56,421,0,0,0,0,0,0,0,0,0,-1,1280,603,0,0
63,421,0,0,0,0,0,0,0,0,0,-1,1287,603,0,0
70,421,0,0,0,0,0,0,0,0,0,-1,1294,603,0,0
77,421,0,0,0,0,0,0,0,0,0,-1,1301,603,0,0
84,421,0,0,0,0,0,0,0,0,0,-1,1308,603,0,0
91,421,0,0,0,0,0,0,0,0,0,-1,1315,603,0,0
98,421,0,0,0,0,0,0,0,0,0,-1,1322,603,0,0
105,421,0,0,0,0,0,0,0,0,0,-1,1329,603,0,0
112,421,0,0,0,0,0,0,0,0,0,-1,1336,603,0,0
119,421,0,0,0,0,0,0,0,0,0,-1,1343,603,0,0
126,421,0,0,0,0,0,0,0,0,0,-1,1350,603,0,0
133,421,0,0,0,0,0,0,0,0,0,-1,1357,603,0,0
140,421,0,0,0,0,0,0,0,0,0,-1,1364,603,0,0
147,421,0,0,0,0,0,0,0,0,0,-1,1371,603,0,0
154,421,0,0,0,0,0,0,0,0,0,-1,1378,603,0,0
161,421,0,0,0,0,0,0,0,0,0,-1,1385,603,0,0
168,421,0,0,0,0,0,0,0,0,0,-1,1392,603,0,0
175,421,0,0,0,0,0,0,0,0,0,-1,1399,603,0,0
182,421,0,0,0,0,0,0,0,0,0,-1,1406,603,0,0
189,421,0,0,0,0,0,0,0,0,0,-1,1413,603,0,0
196,421,0,0,0,0,0,0,0,0,0,-1,1420,603,0,0
203,421,0,0,0,0,0,0,0,0,0,-1,1427,603,0,0
210,421,0,0,0,0,0,0,0,0,0,-1,1434,603,0,0
217,421,0,0,0,0,0,0,0,0,0,-1,1441,603,0,0
224,421,0,0,0,0,0,0,0,0,0,-1,1448,603,0,0
231,421,0,0,0,0,0,0,0,0,0,-1,1455,603,0,0
238,421,0,0,0,0,0,0,0,0,0,-1,1462,603,0,0
245,421,0,0,0,0,0,0,0,0,0,-1,1469,603,0,0
252,421,0,0,0,0,0,0,0,0,0,-1,1476,603,0,0
259,421,0,0,0,0,0,0,0,0,0,-1,1483,603,0,0
266,421,0,0,0,0,0,0,0,0,0,-1,1490,603,0,0
273,421,0,0,0,0,0,0,0,0,0,-1,1497,603,0,0
280,421,0,0,0,0,0,0,0,0,0,-1,1504,603,0,0
287,421,0,0,0,0,0,0,0,0,0,-1,1511,603,0,0
294,421,0,0,0,0,0,0,0,0,0,-1,1518,603,0,0
301,421,0,0,0,0,0,0,0,0,0,-1,1525,603,0,0
308,421,0,0,0,0,0,0,0,0,0,-1,1532,603,0,0
315,421,0,0,0,0,0,0,0,0,0,-1,1539,603,0,0
322,421,0,0,0,0,0,0,0,0,0,-1,1546,603,0,0
329,421,0,0,0,0,0,0,0,0,0,-1,1553,603,0,0
336,421,0,0,0,0,0,0,0,0,0,-1,1560,603,0,0
343,421,0,0,0,0,0,0,0,0,0,-1,1567,603,0,0
350,421,0,0,0,0,0,0,0,0,0,-1,1574,603,0,0
357,421,0,0,0,0,0,0,0,0,0,-1,1581,603,0,0
364,421,0,0,0,0,0,0,0,0,0,-1,1588,603,0,0
371,421,0,0,0,0,0,0,0,0,0,-1,1595,603,0,0
378,421,0,0,0,0,0,0,0,0,0,-1,1602,603,0,0
385,421,0,0,0,0,0,0,0,0,0,-1,1609,603,0,0
392,421,0,0,0,0,0,0,0,0,0,-1,1616,603,0,0
399,421,0,0,0,0,0,0,0,0,0,-1,1623,603,0,0
406,421,0,0,0,0,0,0,0,0,0,-1,1630,603,0,0
413,421,0,0,0,0,0,0,0,0,0,-1,1637,603,0,0
420,421,0,0,0,0,0,0,0,0,0,-1,1644,603,0,0
427,421,0,0,0,0,0,0,0,0,0,-1,1651,603,0,0
434,421,3.68176,-0.0327759,0,0,0,0,0,0,0,-1,1658,603,3.6818,0.0328037
441,421,8.06689,0.527832,0,0,0,0,0,0,0,-1,1665,603,8.06693,-0.527851
448,421,6.93921,0.802246,0,0,0,0,0,0,0,-1,1672,603,6.93923,-0.802251
455,421,7.29456,2.14825,0,0,0,0,0,0,0,-1,1679,603,7.29461,-2.14827
462,421,7.86902,3.53174,0,0,0,0,0,0,0,-1,1686,603,7.869,-3.53173
469,421,8.06604,2.81213,0,0,0,0,0,0,0,-1,1693,603,8.06606,-2.81212
476,421,8.26306,2.09253,0,0,0,0,0,0,0,-1,1700,603,8.26312,-2.09251
483,421,8.05322,0.798096,0,0,0,0,0,0,0,-1,1707,603,8.05323,-0.7981
490,421,7.51233,0.213074,0,0,0,0,0,0,0,-1,1714,603,7.51235,-0.213043
497,421,7.49634,-2.86688,0,0,0,0,0,0,0,-1,1721,603,7.4963,2.86688
504,421,6.90491,-2.18671,0,0,0,0,0,0,0,-1,1728,603,6.90491,2.18669
511,421,6.31348,-1.50653,0,0,0,0,0,0,0,-1,1735,603,6.31353,1.5065
518,421,6.27588,-2.49878,0,0,0,0,0,0,0,-1,1742,603,6.2759,2.4988
525,421,30.6759,-25.1779,0,0,0,0,0,0,0,-1,1749,603,30.6759,25.1779
532,421,61.2014,-64.6694,0,0,0,0,0,0,0,-1,1756,603,61.2014,64.6694
539,421,60.7253,-61.9283,0.00382524,0.00342971,0.00238211,0.00601778,0.00123717,0.743982,0.00366965,0.0302692,1763,603,60.7253,61.9283
546,421,60.2703,-59.1917,0.00366522,0.00293532,0.0020205,0.00535346,0.00124708,0.69605,0.00323444,0.0213453,1770,603,60.2703,59.1917
553,421,59.6799,-56.4674,0.00348561,0.00239316,0.00166557,0.00469224,0.00118653,0.626949,0.00281721,0.0213351,1777,603,59.6799,56.4674
560,421,59.1561,-53.7631,0.00309953,0.00184084,0.00130605,0.00391996,0.00102041,0.56088,0.00234827,0.0187232,1784,603,59.1561,53.763
567,421,58.6885,-51.0508,0.00268204,0.00133673,0.000922443,0.00315103,0.00086773,0.470367,0.00187945,0.0223629,1791,603,58.6885,51.0508
574,421,58.1542,-48.3542,0.00219318,0.000851162,0.000547228,0.00238803,0.000656313,0.34207,0.00142457,0.0260811,1798,603,58.1542,48.3543
581,421,57.5756,-45.6722,0.00154095,0.000430016,0.000146037,0.00155983,0.000411139,0.128545,0.000933523,0.0256513,1805,603,57.5756,45.6722
588,421,57.0531,-43.0305,0.00077735,0.000139059,-0.000217041,0.000844159,7.22502e-05,-0.298611,0.000540302,0.0177678,1812,603,57.0531,43.0304
595,421,56.6056,-40.2606,3.95305e-05,-2.98205e-05,-0.000608847,0.000614688,-0.000604978,-0.756953,0.000704182,0.0359667,1819,603,56.6056,40.2606
602,421,56.097,-37.4029,0,0,0,0,0,0,0,-1,1826,603,56.0971,37.4029
609,421,22.8762,-8.37524,0,0,0,0,0,0,0,-1,1833,603,22.8762,8.37525
616,421,17.7633,-4.72491,0,0,0,0,0,0,0,-1,1840,603,17.7633,4.7249
623,421,6.19885,0.376648,0,0,0,0,0,0,0,-1,1847,603,6.19881,-0.376624
630,421,6.54993,0.778748,0,0,0,0,0,0,0,-1,1854,603,6.54991,-0.778744
637,421,3.74512,1.65405,0,0,0,0,0,0,0,-1,1861,603,3.74517,-1.65407
644,421,3.58081,0.354675,0,0,0,0,0,0,0,-1,1868,603,3.58082,-0.354704
651,421,3.28687,3.66351,0,0,0,0,0,0,0,-1,1875,603,3.28688,-3.66353
658,421,0,0,0,0,0,0,0,0,0,-1,1882,603,0,0
665,421,0,0,0,0,0,0,0,0,0,-1,1889,603,0,0
672,421,0,0,0,0,0,0,0,0,0,-1,1896,603,0,0
679,421,0,0,0,0,0,0,0,0,0,-1,1903,603,0,0
686,421,0,0,0,0,0,0,0,0,0,-1,1910,603,0,0
693,421,0,0,0,0,0,0,0,0,0,-1,1917,603,0,0
700,421,0,0,0,0,0,0,0,0,0,-1,1924,603,0,0
707,421,0,0,0,0,0,0,0,0,0,-1,1931,603,0,0
714,421,0,0,0,0,0,0,0,0,0,-1,1938,603,0,0
721,421,0,0,0,0,0,0,0,0,0,-1,1945,603,0,0
728,421,0,0,0,0,0,0,0,0,0,-1,1952,603,0,0
735,421,0,0,0,0,0,0,0,0,0,-1,1959,603,0,0
742,421,0,0,0,0,0,0,0,0,0,-1,1966,603,0,0
749,421,0,0,0,0,0,0,0,0,0,-1,1973,603,0,0
756,421,0,0,0,0,0,0,0,0,0,-1,1980,603,0,0
763,421,0,0,0,0,0,0,0,0,0,-1,1987,603,0,0
770,421,0,0,0,0,0,0,0,0,0,-1,1994,603,0,0
777,421,0,0,0,0,0,0,0,0,0,-1,2001,603,0,0
784,421,0,0,0,0,0,0,0,0,0,-1,2008,603,0,0
791,421,0,0,0,0,0,0,0,0,0,-1,2015,603,0,0
798,421,0,0,0,0,0,0,0,0,0,-1,2022,603,0,0
805,421,0,0,0,0,0,0,0,0,0,-1,2029,603,0,0
812,421,0,0,0,0,0,0,0,0,0,-1,2036,603,0,0
-700,414,0,0,0,0,0,0,0,0,0,-1,524,610,0,0
-693,414,0,0,0,0,0,0,0,0,0,-1,531,610,0,0
-686,414,0,0,0,0,0,0,0,0,0,-1,538,610,0,0
-679,414,0,0,0,0,0,0,0,0,0,-1,545,610,0,0
-672,414,0,0,0,0,0,0,0,0,0,-1,552,610,0,0
-665,414,0,0,0,0,0,0,0,0,0,-1,559,610,0,0
-658,414,0,0,0,0,0,0,0,0,0,-1,566,610,0,0
-651,414,0,0,0,0,0,0,0,0,0,-1,573,610,0,0
-644,414,0,0,0,0,0,0,0,0,0,-1,580,610,0,0
-637,414,0,0,0,0,0,0,0,0,0,-1,587,610,0,0
-630,414,0,0,0,0,0,0,0,0,0,-1,594,610,0,0
-623,414,0,0,0,0,0,0,0,0,0,-1,601,610,0,0
-616,414,0,0,0,0,0,0,0,0,0,-1,608,610,0,0
-609,414,0,0,0,0,0,0,0,0,0,-1,615,610,0,0
-602,414,0,0,0,0,0,0,0,0,0,-1,622,610,0,0
-595,414,0,0,0,0,0,0,0,0,0,-1,629,610,0,0
-588,414,0,0,0,0,0,0,0,0,0,-1,636,610,0,0
-581,414,0,0,0,0,0,0,0,0,0,-1,643,610,0,0
-574,414,0,0,0,0,0,0,0,0,0,-1,650,610,0,0
-567,414,0,0,0,0,0,0,0,0,0,-1,657,610,0,0
-560,414,0,0,0,0,0,0,0,0,0,-1,664,610,0,0
-553,414,0,0,0,0,0,0,0,0,0,-1,671,610,0,0
-546,414,0,0,0,0,0,0,0,0,0,-1,678,610,0,0
-539,414,-7.50146,5.65619,0,0,0,0,0,0,0,-1,685,610,-7.50149,-5.65617
-532,414,-8.15204,4.01605,0,0,0,0,0,0,0,-1,692,610,-8.15206,-4.01606
-525,414,-3.47137,-3.27924,0,0,0,0,0,0,0,-1,699,610,-3.47136,3.27922
-518,414,-4.12909,-4.36908,0,0,0,0,0,0,0,-1,706,610,-4.12909,4.36909
-511,414,-3.92542,-4.97021,0,0,0,0,0,0,0,-1,713,610,-3.92542,4.97023
-504,414,-9.35394,-5.49896,0,0,0,0,0,0,0,-1,720,610,-9.35394,5.49898
-497,414,-9.67627,-6.54761,0,0,0,0,0,0,0,-1,727,610,-9.6763,6.5476
-490,414,-17.4136,-12.953,0,0,0,0,0,0,0,-1,734,610,-17.4136,12.953
-483,414,-47.0594,-32.361,0,0,0,0,0,0,0,-1,741,610,-47.0594,32.361
-476,414,-47.7452,-35.0706,0.000837071,0.00456695,-0.00295907,0.00619974,-0.000795714,-1.06658,0.00442232,0.0409626,748,610,-47.7453,35.0706
-469,414,-48.316,-37.7076,0.000792412,0.00312381,-0.00203512,0.00430344,-0.00038722,-1.04548,0.00300636,0.0218349,755,610,-48.3161,37.7076
-462,414,-48.8302,-40.464,0.000955164,0.0019044,-0.00128012,0.00279506,6.45055e-05,-0.962922,0.00184225,0.0277769,762,610,-48.8302,40.464
-455,414,-49.368,-43.2704,0.00117326,0.000901834,-0.000729169,0.00177924,0.000295857,-0.69339,0.00110087,0.0307999,769,610,-49.3681,43.2705
-448,414,-49.8538,-45.9779,0.00139373,8.68726e-05,-0.000293952,0.00145681,2.37981e-05,-0.211369,0.000963371,0.0285007,776,610,-49.8538,45.9779
-441,414,-50.4022,-48.686,0.0016473,-0.000565139,2.09498e-05,0.0016475,-0.000565337,0.00946797,0.00132753,0.0201651,783,610,-50.4022,48.686
-434,414,-50.95,-51.369,0.00188732,-0.00105752,0.000205712,0.00190162,-0.00107182,0.0694059,0.00173885,0.0123273,790,610,-50.95,51.369
-427,414,-51.4907,-54.0591,0.0021962,-0.00132014,0.000175903,0.00220498,-0.00132892,0.0498585,0.00206109,0.0129368,797,610,-51.4907,54.0592
-420,414,-52.0275,-56.7619,0.00249774,-0.0014792,7.29728e-05,0.00249908,-0.00148054,0.0183407,0.00232258,0.0128253,804,610,-52.0274,56.7619
-413,414,-52.5803,-59.4995,0.00284845,-0.00154886,-0.000114466,0.00285143,-0.00155183,-0.0260073,0.00257887,0.0155329,811,610,-52.5803,59.4994
-406,414,-53.106,-62.233,0,0,0,0,0,0,0,-1,818,610,-53.106,62.233
-399,414,-38.7434,-47.9197,0,0,0,0,0,0,0,-1,825,610,-38.7434,47.9197
-392,414,-9.43781,-14.5624,0,0,0,0,0,0,0,-1,832,610,-9.43779,14.5624
-385,414,-8.14691,-13.0653,0,0,0,0,0,0,0,-1,839,610,-8.14692,13.0653
-378,414,-8.04907,-11.3331,0,0,0,0,0,0,0,-1,846,610,-8.04905,11.3331
-371,414,-5.20886,-8.05151,0,0,0,0,0,0,0,-1,853,610,-5.20887,8.05153
-364,414,-6.76282,-6.58759,0,0,0,0,0,0,0,-1,860,610,-6.7628,6.58756
-357,414,-9.08685,-8.86188,0,0,0,0,0,0,0,-1,867,610,-9.08688,8.86187
-350,414,-6.4502,-2.41821,0,0,0,0,0,0,0,-1,874,610,-6.45021,2.41822
-343,414,-6.80249,-2.32117,0,0,0,0,0,0,0,-1,881,610,-6.80252,2.32116
-336,414,-7.11017,-2.52026,0,0,0,0,0,0,0,-1,888,610,-7.11016,2.52026
-329,414,-7.59747,-2.70313,0,0,0,0,0,0,0,-1,895,610,-7.59747,2.70315
-322,414,-4.42236,-1.29163,0,0,0,0,0,0,0,-1,902,610,-4.42238,1.2916
-315,414,0,0,0,0,0,0,0,0,0,-1,909,610,0,0
-308,414,0,0,0,0,0,0,0,0,0,-1,916,610,0,0
-301,414,0,0,0,0,0,0,0,0,0,-1,923,610,0,0
-294,414,0,0,0,0,0,0,0,0,0,-1,930,610,0,0
-287,414,0,0,0,0,0,0,0,0,0,-1,937,610,0,0
-280,414,0,0,0,0,0,0,0,0,0,-1,944,610,0,0
-273,414,0,0,0,0,0,0,0,0,0,-1,951,610,0,0
-266,414,0,0,0,0,0,0,0,0,0,-1,958,610,0,0
-259,414,0,0,0,0,0,0,0,0,0,-1,965,610,0,0
-252,414,0,0,0,0,0,0,0,0,0,-1,972,610,0,0
-245,414,0,0,0,0,0,0,0,0,0,-1,979,610,0,0
-238,414,0,0,0,0,0,0,0,0,0,-1,986,610,0,0
-231,414,0,0,0,0,0,0,0,0,0,-1,993,610,0,0
-224,414,0,0,0,0,0,0,0,0,0,-1,1000,610,0,0
-217,414,0,0,0,0,0,0,0,0,0,-1,1007,610,0,0
-210,414,0,0,0,0,0,0,0,0,0,-1,1014,610,0,0
-203,414,0,0,0,0,0,0,0,0,0,-1,1021,610,0,0
-196,414,0,0,0,0,0,0,0,0,0,-1,1028,610,0,0
-189,414,0,0,0,0,0,0,0,0,0,-1,1035,610,0,0
-182,414,0,0,0,0,0,0,0,0,0,-1,1042,610,0,0
-175,414,0,0,0,0,0,0,0,0,0,-1,1049,610,0,0
-168,414,0,0,0,0,0,0,0,0,0,-1,1056,610,0,0
-161,414,0,0,0,0,0,0,0,0,0,-1,1063,610,0,0
-154,414,0,0,0,0,0,0,0,0,0,-1,1070,610,0,0
-147,414,0,0,0,0,0,0,0,0,0,-1,1077,610,0,0
-140,414,0,0,0,0,0,0,0,0,0,-1,1084,610,0,0
-133,414,0,0,0,0,0,0,0,0,0,-1,1091,610,0,0
-126,414,0,0,0,0,0,0,0,0,0,-1,1098,610,0,0
-119,414,0,0,0,0,0,0,0,0,0,-1,1105,610,0,0
-112,414,0,0,0,0,0,0,0,0,0,-1,1112,610,0,0
-105,414,0,0,0,0,0,0,0,0,0,-1,1119,610,0,0
-98,414,0,0,0,0,0,0,0,0,0,-1,1126,610,0,0
-91,414,0,0,0,0,0,0,0,0,0,-1,1133,610,0,0
-84,414,0,0,0,0,0,0,0,0,0,-1,1140,610,0,0
-77,414,0,0,0,0,0,0,0,0,0,-1,1147,610,0,0
-70,414,0,0,0,0,0,0,0,0,0,-1,1154,610,0,0
-63,414,0,0,0,0,0,0,0,0,0,-1,1161,610,0,0
-56,414,0,0,0,0,0,0,0,0,0,-1,1168,610,0,0
-49,414,0,0,0,0,0,0,0,0,0,-1,1175,610,0,0
-42,414,0,0,0,0,0,0,0,0,0,-1,1182,610,0,0
-35,414,0,0,0,0,0,0,0,0,0,-1,1189,610,0,0
-28,414,0,0,0,0,0,0,0,0,0,-1,1196,610,0,0
-21,414,0,0,0,0,0,0,0,0,0,-1,1203,610,0,0
-14,414,0,0,0,0,0,0,0,0,0,-1,1210,610,0,0
-7,414,0,0,0,0,0,0,0,0,0,-1,1217,610,0,0
0,414,0,0,0,0,0,0,0,0,0,-1,1224,610,0,0
7,414,0,0,0,0,0,0,0,0,0,-1,1231,610,0,0
14,414,0,0,0,0,0,0,0,0,0,-1,1238,610,0,0
21,414,0,0,0,0,0,0,0,0,0,-1,1245,610,0,0
28,414,0,0,0,0,0,0,0,0,0,-1,1252,610,0,0
35,414,0,0,0,0,0,0,0,0,0,-1,1259,610,0,0
42,414,0,0,0,0,0,0,0,0,0,-1,1266,610,0,0
49,414,0,0,0,0,0,0,0,0,0,-1,1273,610,0,0
56,414,0,0,0,0,0,0,0,0,0,-1,1280,610,0,0
63,414,0,0,0,0,0,0,0,0,0,-1,1287,610,0,0
70,414,0,0,0,0,0,0,0,0,0,-1,1294,610,0,0
77,414,0,0,0,0,0,0,0,0,0,-1,1301,610,0,0
84,414,0,0,0,0,0,0,0,0,0,-1,1308,610,0,0
91,414,0,0,0,0,0,0,0,0,0,-1,1315,610,0,0
98,414,0,0,0,0,0,0,0,0,0,-1,1322,610,0,0
105,414,0,0,0,0,0,0,0,0,0,-1,1329,610,0,0
112,414,0,0,0,0,0,0,0,0,0,-1,1336,610,0,0
119,414,0,0,0,0,0,0,0,0,0,-1,1343,610,0,0
126,414,0,0,0,0,0,0,0,0,0,-1,1350,610,0,0
133,414,0,0,0,0,0,0,0,0,0,-1,1357,610,0,0
140,414,0,0,0,0,0,0,0,0,0,-1,1364,610,0,0
147,414,0,0,0,0,0,0,0,0,0,-1,1371,610,0,0
154,414,0,0,0,0,0,0,0,0,0,-1,1378,610,0,0
161,414,0,0,0,0,0,0,0,0,0,-1,1385,610,0,0
168,414,0,0,0,0,0,0,0,0,0,-1,1392,610,0,0
175,414,0,0,0,0,0,0,0,0,0,-1,1399,610,0,0
182,414,0,0,0,0,0,0,0,0,0,-1,1406,610,0,0
189,414,0,0,0,0,0,0,0,0,0,-1,1413,610,0,0
196,414,0,0,0,0,0,0,0,0,0,-1,1420,610,0,0
203,414,0,0,0,0,0,0,0,0,0,-1,1427,610,0,0
210,414,0,0,0,0,0,0,0,0,0,-1,1434,610,0,0
217,414,0,0,0,0,0,0,0,0,0,-1,1441,610,0,0
224,414,0,0,0,0,0,0,0,0,0,-1,1448,610,0,0
231,414,0,0,0,0,0,0,0,0,0,-1,1455,610,0,0
238,414,0,0,0,0,0,0,0,0,0,-1,1462,610,0,0
245,414,0,0,0,0,0,0,0,0,0,-1,1469,610,0,0
252,414,0,0,0,0,0,0,0,0,0,-1,1476,610,0,0
259,414,0,0,0,0,0,0,0,0,0,-1,1483,610,0,0
266,414,0,0,0,0,0,0,0,0,0,-1,1490,610,0,0
273,414,0,0,0,0,0,0,0,0,0,-1,1497,610,0,0
280,414,0,0,0,0,0,0,0,0,0,-1,1504,610,0,0
287,414,0,0,0,0,0,0,0,0,0,-1,1511,610,0,0
294,414,0,0,0,0,0,0,0,0,0,-1,1518,610,0,0
301,414,0,0,0,0,0,0,0,0,0,-1,1525,610,0,0
308,414,0,0,0,0,0,0,0,0,0,-1,1532,610,0,0
315,414,0,0,0,0,0,0,0,0,0,-1,1539,610,0,0
322,414,0,0,0,0,0,0,0,0,0,-1,1546,610,0,0
329,414,0,0,0,0,0,0,0,0,0,-1,1553,610,0,0
336,414,0,0,0,0,0,0,0,0,0,-1,1560,610,0,0
343,414,0,0,0,0,0,0,0,0,0,-1,1567,610,0,0
350,414,0,0,0,0,0,0,0,0,0,-1,1574,610,0,0
357,414,0,0,0,0,0,0,0,0,0,-1,1581,610,0,0
364,414,0,0,0,0,0,0,0,0,0,-1,1588,610,0,0
371,414,0,0,0,0,0,0,0,0,0,-1,1595,610,0,0
378,414,0,0,0,0,0,0,0,0,0,-1,1602,610,0,0
385,414,0,0,0,0,0,0,0,0,0,-1,1609,610,0,0
392,414,0,0,0,0,0,0,0,0,0,-1,1616,610,0,0
399,414,0,0,0,0,0,0,0,0,0,-1,1623,610,0,0
406,414,0,0,0,0,0,0,0,0,0,-1,1630,610,0,0
413,414,0,0,0,0,0,0,0,0,0,-1,1637,610,0,0
420,414,0,0,0,0,0,0,0,0,0,-1,1644,610,0,0
427,414,0,0,0,0,0,0,0,0,0,-1,1651,610,0,0
434,414,0,0,0,0,0,0,0,0,0,-1,1658,610,0,0
441,414,7.84375,0.584412,0,0,0,0,0,0,0,-1,1665,610,7.84379,-0.584394
448,414,7.40808,1.25446,0,0,0,0,0,0,0,-1,1672,610,7.40807,-1.25446
455,414,6.3512,1.73846,0,0,0,0,0,0,0,-1,1679,610,6.3512,-1.73847
462,414,8.18103,3.22113,0,0,0,0,0,0,0,-1,1686,610,8.18108,-3.22112
469,414,8.38513,2.49579,0,0,0,0,0,0,0,-1,1693,610,8.38516,-2.49576
476,414,8.64099,1.71161,0,0,0,0,0,0,0,-1,1700,610,8.64097,-1.71164
483,414,8.62744,0.687622,0,0,0,0,0,0,0,-1,1707,610,8.62749,-0.687615
490,414,8.38831,-0.0302734,0,0,0,0,0,0,0,-1,1714,610,8.38835,0.0302913
497,414,4.71094,-0.110046,0,0,0,0,0,0,0,-1,1721,610,4.71089,0.110024
504,414,7.19568,-1.43835,0,0,0,0,0,0,0,-1,1728,610,7.19563,1.43836
511,414,5.94153,-1.28772,0,0,0,0,0,0,0,-1,1735,610,5.94151,1.28769
518,414,4.53381,-0.0996704,0,0,0,0,0,0,0,-1,1742,610,4.53378,0.0996819
525,414,6.18811,-1.64056,0,0,0,0,0,0,0,-1,1749,610,6.18814,1.64055
532,414,32.4541,-24.196,0,0,0,0,0,0,0,-1,1756,610,32.4541,24.196
539,414,63.4788,-61.3961,0,0,0,0,0,0,0,-1,1763,610,63.4787,61.3961
546,414,62.9136,-58.6619,0.00446148,0.00411418,0.0028908,0.00718383,0.00139182,0.755399,0.00439929,0.0186578,1770,610,62.9136,58.6619
553,414,62.4271,-55.9515,0.00428285,0.00330371,0.00248802,0.00632901,0.00125756,0.688254,0.00386889,0.0193745,1777,610,62.4271,55.9515
560,414,61.9535,-53.2631,0.00382419,0.00252834,0.00204692,0.00532329,0.00102925,0.632119,0.00326039,0.0228734,1784,610,61.9535,53.2631
567,414,61.4342,-50.4935,0.00323796,0.00183611,0.00156704,0.00425369,0.000820376,0.575099,0.00260575,0.0345308,1791,610,61.4342,50.4935
574,414,60.8429,-47.7756,0.00259608,0.00121434,0.00108102,0.00318814,0.00062228,0.501065,0.00195136,0.0307074,1798,610,60.8429,47.7756
581,414,60.2926,-45.1119,0.00178044,0.000692781,0.00053348,0.00199842,0.000474803,0.387895,0.00120559,0.0243485,1805,610,60.2926,45.112
588,414,59.7704,-42.4847,0.000884073,0.000302922,-3.76478e-05,0.000886502,0.000300493,-0.0644225,0.000520596,0.0224339,1812,610,59.7704,42.4847
595,414,59.1892,-39.6885,-1.13977e-06,0.000118255,-0.0006339,0.000695263,-0.000578147,-0.832347,0.000736239,0.0285926,1819,610,59.1892,39.6885
602,414,58.6182,-37.0007,-0.00102341,0.000180749,-0.00138598,0.00108977,-0.00193243,-0.990304,0.00176734,0.0398622,1826,610,58.6182,37.0007
609,414,58.1522,-34.1882,0,0,0,0,0,0,0,-1,1833,610,58.1522,34.1882
616,414,51.8026,-23.4824,0,0,0,0,0,0,0,-1,1840,610,51.8027,23.4824
623,414,9.6969,0.0378418,0,0,0,0,0,0,0,-1,1847,610,9.69685,-0.0378644
630,414,5.47144,0.499329,0,0,0,0,0,0,0,-1,1854,610,5.47142,-0.499303
637,414,8.36707,4.16278,0,0,0,0,0,0,0,-1,1861,610,8.36709,-4.16278
644,414,5.87073,1.51422,0,0,0,0,0,0,0,-1,1868,610,5.87076,-1.51424
651,414,3.6377,0.820557,0,0,0,0,0,0,0,-1,1875,610,3.6377,-0.820543
658,414,2.29761,3.87323,0,0,0,0,0,0,0,-1,1882,610,2.29758,-3.87325
665,414,0,0,0,0,0,0,0,0,0,-1,1889,610,0,0
672,414,0,0,0,0,0,0,0,0,0,-1,1896,610,0,0
679,414,0,0,0,0,0,0,0,0,0,-1,1903,610,0,0
686,414,0,0,0,0,0,0,0,0,0,-1,1910,610,0,0
693,414,0,0,0,0,0,0,0,0,0,-1,1917,610,0,0
700,414,0,0,0,0,0,0,0,0,0,-1,1924,610,0,0
707,414,0,0,0,0,0,0,0,0,0,-1,1931,610,0,0
714,414,0,0,0,0,0,0,0,0,0,-1,1938,610,0,0
721,414,0,0,0,0,0,0,0,0,0,-1,1945,610,0,0
728,414,0,0,0,0,0,0,0,0,0,-1,1952,610,0,0
735,414,0,0,0,0,0,0,0,0,0,-1,1959,610,0,0
742,414,0,0,0,0,0,0,0,0,0,-1,1966,610,0,0
749,414,0,0,0,0,0,0,0,0,0,-1,1973,610,0,0
756,414,0,0,0,0,0,0,0,0,0,-1,1980,610,0,0
763,414,0,0,0,0,0,0,0,0,0,-1,1987,610,0,0
770,414,0,0,0,0,0,0,0,0,0,-1,1994,610,0,0
777,414,0,0,0,0,0,0,0,0,0,-1,2001,610,0,0
784,414,0,0,0,0,0,0,0,0,0,-1,2008,610,0,0
791,414,0,0,0,0,0,0,0,0,0,-1,2015,610,0,0
798,414,0,0,0,0,0,0,0,0,0,-1,2022,610,0,0
805,414,0,0,0,0,0,0,0,0,0,-1,2029,610,0,0
812,414,0,0,0,0,0,0,0,0,0,-1,2036,610,0,0
-700,407,0,0,0,0,0,0,0,0,0,-1,524,617,0,0
-693,407,0,0,0,0,0,0,0,0,0,-1,531,617,0,0
-686,407,0,0,0,0,0,0,0,0,0,-1,538,617,0,0
-679,407,0,0,0,0,0,0,0,0,0,-1,545,617,0,0
-672,407,0,0,0,0,0,0,0,0,0,-1,552,617,0,0
-665,407,0,0,0,0,0,0,0,0,0,-1,559,617,0,0
-658,407,0,0,0,0,0,0,0,0,0,-1,566,617,0,0
-651,407,0,0,0,0,0,0,0,0,0,-1,573,617,0,0
-644,407,0,0,0,0,0,0,0,0,0,-1,580,617,0,0
-637,407,0,0,0,0,0,0,0,0,0,-1,587,617,0,0
-630,407,0,0,0,0,0,0,0,0,0,-1,594,617,0,0
-623,407,0,0,0,0,0,0,0,0,0,-1,601,617,0,0
-616,407,0,0,0,0,0,0,0,0,0,-1,608,617,0,0
-609,407,0,0,0,0,0,0,0,0,0,-1,615,617,0,0
-602,407,0,0,0,0,0,0,0,0,0,-1,622,617,0,0
-595,407,0,0,0,0,0,0,0,0,0,-1,629,617,0,0
-588,407,0,0,0,0,0,0,0,0,0,-1,636,617,0,0
-581,407,0,0,0,0,0,0,0,0,0,-1,643,617,0,0
-574,407,0,0,0,0,0,0,0,0,0,-1,650,617,0,0
-567,407,0,0,0,0,0,0,0,0,0,-1,657,617,0,0
-560,407,0,0,0,0,0,0,0,0,0,-1,664,617,0,0
-553,407,0,0,0,0,0,0,0,0,0,-1,671,617,0,0
-546,407,-8.54517,-0.658142,0,0,0,0,0,0,0,-1,678,617,-8.54515,0.658112
-539,407,-6.09442,-1.01154,0,0,0,0,0,0,0,-1,685,617,-6.09441,1.01155
-532,407,-7.75665,1.62152,0,0,0,0,0,0,0,-1,692,617,-7.75667,-1.62154
-525,407,-3.78247,-2.67639,0,0,0,0,0,0,0,-1,699,617,-3.78246,2.67638
-518,407,-5.013,-5.87323,0,0,0,0,0,0,0,-1,706,617,-5.013,5.87324
-511,407,-9.42743,-4.94189,0,0,0,0,0,0,0,-1,713,617,-9.42745,4.94191
-504,407,-10.8291,-8.05927,0,0,0,0,0,0,0,-1,720,617,-10.8291,8.05927
-497,407,-9.84467,-6.81641,0,0,0,0,0,0,0,-1,727,617,-9.84468,6.8164
-490,407,-48.6066,-27.8183,0,0,0,0,0,0,0,-1,734,617,-48.6066,27.8183
-483,407,-49.7636,-31.7831,0,0,0,0,0,0,0,-1,741,617,-49.7636,31.7831
-476,407,-50.3734,-34.5045,0.00103806,0.00351646,-0.00229026,0.00488128,-0.000326751,-1.03338,0.00336839,0.0237523,748,617,-50.3734,34.5045
-469,407,-50.9768,-37.1533,0.000951857,0.00210696,-0.00146777,0.00310672,-4.79035e-05,-0.972838,0.0020873,0.0166512,755,617,-50.9768,37.1533
-462,407,-51.5349,-39.938,0.0010686,0.000935959,-0.000818438,0.0018234,0.00018116,-0.744969,0.00115994,0.0250531,762,617,-51.5349,39.9381
-455,407,-52.1088,-42.7064,0.00126176,1.75897e-06,-0.000340627,0.00134795,-8.44297e-05,-0.247828,0.000928058,0.0260601,769,617,-52.1087,42.7064
-448,407,-52.5765,-45.4272,0.00150517,-0.000774308,2.4481e-05,0.00150543,-0.000774571,0.0107381,0.00133871,0.0229977,776,617,-52.5765,45.4272
-441,407,-53.1106,-48.0903,0.00181024,-0.0013609,0.000263356,0.00183196,-0.00138262,0.0822966,0.00186197,0.018273,783,617,-53.1106,48.0903
-434,407,-53.6629,-50.7643,0.00215552,-0.00173576,0.000340093,0.00218502,-0.00176526,0.0865246,0.00228498,0.0159456,790,617,-53.6629,50.7643
-427,407,-54.2208,-53.4636,0.00256919,-0.0018655,0.000210302,0.00257914,-0.00187545,0.0472806,0.00258253,0.0160413,797,617,-54.2208,53.4636
-420,407,-54.7308,-56.195,0.00293138,-0.00192037,-2.55881e-05,0.00293152,-0.00192051,-0.00527379,0.00282151,0.0143938,804,617,-54.7308,56.195
-413,407,-55.2197,-58.9764,0.00344976,-0.00181643,-0.000435039,0.00348546,-0.00185212,-0.0818702,0.00312938,0.0441599,811,617,-55.2197,58.9765
-406,407,-55.5806,-61.8906,0,0,0,0,0,0,0,-1,818,617,-55.5806,61.8905
-399,407,-16.5686,-23.1791,0,0,0,0,0,0,0,-1,825,617,-16.5686,23.1791
-392,407,-8.33612,-12.195,0,0,0,0,0,0,0,-1,832,617,-8.33611,12.195
-385,407,-7.65765,-10.7744,0,0,0,0,0,0,0,-1,839,617,-7.65767,10.7744
-378,407,-6.08655,-7.42291,0,0,0,0,0,0,0,-1,846,617,-6.08652,7.42292
-371,407,-7.4007,-5.79449,0,0,0,0,0,0,0,-1,853,617,-7.40072,5.79447
-364,407,-10.0638,-6.6228,0,0,0,0,0,0,0,-1,860,617,-10.0639,6.62279
-357,407,-6.64447,-1.83337,0,0,0,0,0,0,0,-1,867,617,-6.64446,1.8334
-350,407,-7.03351,-1.77551,0,0,0,0,0,0,0,-1,874,617,-7.03349,1.77551
-343,407,-7.40967,-1.95026,0,0,0,0,0,0,0,-1,881,617,-7.40969,1.95026
-336,407,-8.10229,-2.40662,0,0,0,0,0,0,0,-1,888,617,-8.10229,2.40664
-329,407,-8.81232,-2.76331,0,0,0,0,0,0,0,-1,895,617,-8.81235,2.76331
-322,407,0,0,0,0,0,0,0,0,0,-1,902,617,0,0
-315,407,0,0,0,0,0,0,0,0,0,-1,909,617,0,0
-308,407,0,0,0,0,0,0,0,0,0,-1,916,617,0,0
-301,407,0,0,0,0,0,0,0,0,0,-1,923,617,0,0
-294,407,0,0,0,0,0,0,0,0,0,-1,930,617,0,0
-287,407,0,0,0,0,0,0,0,0,0,-1,937,617,0,0
-280,407,0,0,0,0,0,0,0,0,0,-1,944,617,0,0
-273,407,0,0,0,0,0,0,0,0,0,-1,951,617,0,0
-266,407,0,0,0,0,0,0,0,0,0,-1,958,617,0,0
-259,407,0,0,0,0,0,0,0,0,0,-1,965,617,0,0
-252,407,0,0,0,0,0,0,0,0,0,-1,972,617,0,0
-245,407,0,0,0,0,0,0,0,0,0,-1,979,617,0,0
-238,407,0,0,0,0,0,0,0,0,0,-1,986,617,0,0
-231,407,0,0,0,0,0,0,0,0,0,-1,993,617,0,0
-224,407,0,0,0,0,0,0,0,0,0,-1,1000,617,0,0
-217,407,0,0,0,0,0,0,0,0,0,-1,1007,617,0,0
-210,407,0,0,0,0,0,0,0,0,0,-1,1014,617,0,0
-203,407,0,0,0,0,0,0,0,0,0,-1,1021,617,0,0
-196,407,0,0,0,0,0,0,0,0,0,-1,1028,617,0,0
-189,407,0,0,0,0,0,0,0,0,0,-1,1035,617,0,0
-182,407,0,0,0,0,0,0,0,0,0,-1,1042,617,0,0
-175,407,0,0,0,0,0,0,0,0,0,-1,1049,617,0,0
-168,407,0,0,0,0,0,0,0,0,0,-1,1056,617,0,0
-161,407,0,0,0,0,0,0,0,0,0,-1,1063,617,0,0
-154,407,0,0,0,0,0,0,0,0,0,-1,1070,617,0,0
-147,407,0,0,0,0,0,0,0,0,0,-1,1077,617,0,0
-140,407,0,0,0,0,0,0,0,0,0,-1,1084,617,0,0
-133,407,0,0,0,0,0,0,0,0,0,-1,1091,617,0,0
-126,407,0,0,0,0,0,0,0,0,0,-1,1098,617,0,0
-119,407,0,0,0,0,0,0,0,0,0,-1,1105,617,0,0
-112,407,0,0,0,0,0,0,0,0,0,-1,1112,617,0,0
-105,407,0,0,0,0,0,0,0,0,0,-1,1119,617,0,0
-98,407,0,0,0,0,0,0,0,0,0,-1,1126,617,0,0
-91,407,0,0,0,0,0,0,0,0,0,-1,1133,617,0,0
-84,407,0,0,0,0,0,0,0,0,0,-1,1140,617,0,0
-77,407,0,0,0,0,0,0,0,0,0,-1,1147,617,0,0
-70,407,0,0,0,0,0,0,0,0,0,-1,1154,617,0,0
-63,407,0,0,0,0,0,0,0,0,0,-1,1161,617,0,0
-56,407,0,0,0,0,0,0,0,0,0,-1,1168,617,0,0
-49,407,0,0,0,0,0,0,0,0,0,-1,1175,617,0,0
-42,407,0,0,0,0,0,0,0,0,0,-1,1182,617,0,0
-35,407,0,0,0,0,0,0,0,0,0,-1,1189,617,0,0
-28,407,0,0,0,0,0,0,0,0,0,-1,1196,617,0,0
-21,407,0,0,0,0,0,0,0,0,0,-1,1203,617,0,0
-14,407,0,0,0,0,0,0,0,0,0,-1,1210,617,0,0
-7,407,0,0,0,0,0,0,0,0,0,-1,1217,617,0,0
0,407,0,0,0,0,0,0,0,0,0,-1,1224,617,0,0
7,407,0,0,0,0,0,0,0,0,0,-1,1231,617,0,0
14,407,0,0,0,0,0,0,0,0,0,-1,1238,617,0,0
21,407,0,0,0,0,0,0,0,0,0,-1,1245,617,0,0
28,407,0,0,0,0,0,0,0,0,0,-1,1252,617,0,0
35,407,0,0,0,0,0,0,0,0,0,-1,1259,617,0,0
42,407,0,0,0,0,0,0,0,0,0,-1,1266,617,0,0
49,407,0,0,0,0,0,0,0,0,0,-1,1273,617,0,0
56,407,0,0,0,0,0,0,0,0,0,-1,1280,617,0,0
63,407,0,0,0,0,0,0,0,0,0,-1,1287,617,0,0
70,407,0,0,0,0,0,0,0,0,0,-1,1294,617,0,0
77,407,0,0,0,0,0,0,0,0,0,-1,1301,617,0,0
84,407,0,0,0,0,0,0,0,0,0,-1,1308,617,0,0
91,407,0,0,0,0,0,0,0,0,0,-1,1315,617,0,0
98,407,0,0,0,0,0,0,0,0,0,-1,1322,617,0,0
105,407,0,0,0,0,0,0,0,0,0,-1,1329,617,0,0
112,407,0,0,0,0,0,0,0,0,0,-1,1336,617,0,0
119,407,0,0,0,0,0,0,0,0,0,-1,1343,617,0,0
126,407,0,0,0,0,0,0,0,0,0,-1,1350,617,0,0
133,407,0,0,0,0,0,0,0,0,0,-1,1357,617,0,0
140,407,0,0,0,0,0,0,0,0,0,-1,1364,617,0,0
147,407,0,0,0,0,0,0,0,0,0,-1,1371,617,0,0
154,407,0,0,0,0,0,0,0,0,0,-1,1378,617,0,0
161,407,0,0,0,0,0,0,0,0,0,-1,1385,617,0,0
168,407,0,0,0,0,0,0,0,0,0,-1,1392,617,0,0
175,407,0,0,0,0,0,0,0,0,0,-1,1399,617,0,0
182,407,0,0,0,0,0,0,0,0,0,-1,1406,617,0,0
189,407,0,0,0,0,0,0,0,0,0,-1,1413,617,0,0
196,407,0,0,0,0,0,0,0,0,0,-1,1420,617,0,0
203,407,0,0,0,0,0,0,0,0,0,-1,1427,617,0,0
210,407,0,0,0,0,0,0,0,0,0,-1,1434,617,0,0
217,407,0,0,0,0,0,0,0,0,0,-1,1441,617,0,0
224,407,0,0,0,0,0,0,0,0,0,-1,1448,617,0,0
231,407,0,0,0,0,0,0,0,0,0,-1,1455,617,0,0
238,407,0,0,0,0,0,0,0,0,0,-1,1462,617,0,0
245,407,0,0,0,0,0,0,0,0,0,-1,1469,617,0,0
252,407,0,0,0,0,0,0,0,0,0,-1,1476,617,0,0
259,407,0,0,0,0,0,0,0,0,0,-1,1483,617,0,0
266,407,0,0,0,0,0,0,0,0,0,-1,1490,617,0,0
273,407,0,0,0,0,0,0,0,0,0,-1,1497,617,0,0
280,407,0,0,0,0,0,0,0,0,0,-1,1504,617,0,0
287,407,0,0,0,0,0,0,0,0,0,-1,1511,617,0,0
294,407,0,0,0,0,0,0,0,0,0,-1,1518,617,0,0
301,407,0,0,0,0,0,0,0,0,0,-1,1525,617,0,0
308,407,0,0,0,0,0,0,0,0,0,-1,1532,617,0,0
315,407,0,0,0,0,0,0,0,0,0,-1,1539,617,0,0
322,407,0,0,0,0,0,0,0,0,0,-1,1546,617,0,0
329,407,0,0,0,0,0,0,0,0,0,-1,1553,617,0,0
336,407,0,0,0,0,0,0,0,0,0,-1,1560,617,0,0
343,407,0,0,0,0,0,0,0,0,0,-1,1567,617,0,0
350,407,0,0,0,0,0,0,0,0,0,-1,1574,617,0,0
357,407,0,0,0,0,0,0,0,0,0,-1,1581,617,0,0
364,407,0,0,0,0,0,0,0,0,0,-1,1588,617,0,0
371,407,0,0,0,0,0,0,0,0,0,-1,1595,617,0,0
378,407,0,0,0,0,0,0,0,0,0,-1,1602,617,0,0
385,407,0,0,0,0,0,0,0,0,0,-1,1609,617,0,0
392,407,0,0,0,0,0,0,0,0,0,-1,1616,617,0,0
399,407,0,0,0,0,0,0,0,0,0,-1,1623,617,0,0
406,407,0,0,0,0,0,0,0,0,0,-1,1630,617,0,0
413,407,0,0,0,0,0,0,0,0,0,-1,1637,617,0,0
420,407,0,0,0,0,0,0,0,0,0,-1,1644,617,0,0
427,407,0,0,0,0,0,0,0,0,0,-1,1651,617,0,0
434,407,0,0,0,0,0,0,0,0,0,-1,1658,617,0,0
441,407,0,0,0,0,0,0,0,0,0,-1,1665,617,0,0
448,407,7.02893,2.13843,0,0,0,0,0,0,0,-1,1672,617,7.02899,-2.13844
455,407,7.55237,2.29242,0,0,0,0,0,0,0,-1,1679,617,7.55236,-2.29244
462,407,8.2926,2.46173,0,0,0,0,0,0,0,-1,1686,617,8.29261,-2.46174
469,407,8.71509,2.22681,0,0,0,0,0,0,0,-1,1693,617,8.71511,-2.22681
476,407,8.89917,1.47766,0,0,0,0,0,0,0,-1,1700,617,8.89914,-1.47768
483,407,9.02612,0.682983,0,0,0,0,0,0,0,-1,1707,617,9.02608,-0.683004
490,407,9.12659,0.000671387,0,0,0,0,0,0,0,-1,1714,617,9.12653,-0.000675931
497,407,7.76819,0.855835,0,0,0,0,0,0,0,-1,1721,617,7.7682,-0.855865
504,407,4.69336,0.160706,0,0,0,0,0,0,0,-1,1728,617,4.69337,-0.1607
511,407,4.07104,-0.00140381,0,0,0,0,0,0,0,-1,1735,617,4.07109,0.00141425
518,407,6.09534,1.9411,0,0,0,0,0,0,0,-1,1742,617,6.09532,-1.94113
525,407,5.72534,-1.35986,0,0,0,0,0,0,0,-1,1749,617,5.72529,1.35988
532,407,18.5767,-10.6388,0,0,0,0,0,0,0,-1,1756,617,18.5766,10.6388
539,407,66.1003,-60.9604,0,0,0,0,0,0,0,-1,1763,617,66.1004,60.9604
546,407,65.6731,-58.1609,0.00552724,0.00532687,0.00409668,0.00952496,0.00132915,0.773173,0.00595656,0.0263216,1770,617,65.6731,58.161
553,407,65.1323,-55.481,0.00525475,0.004347,0.00357993,0.00840946,0.00119229,0.722343,0.00525417,0.0229813,1777,617,65.1323,55.4809
560,407,64.6382,-52.7441,0.00468018,0.00342139,0.00299381,0.00711004,0.000991532,0.68179,0.00444652,0.0282647,1784,617,64.6382,52.7441
567,407,64.1317,-49.9559,0.00389624,0.00258382,0.00238095,0.00570976,0.000770301,0.650932,0.00357749,0.0474192,1791,617,64.1318,49.9559
574,407,63.605,-47.291,0.00311704,0.0018715,0.00175908,0.00436034,0.000628205,0.615267,0.00272177,0.0354909,1798,617,63.6049,47.291
581,407,62.9537,-44.5463,0.00220514,0.00127514,0.00106476,0.00290201,0.000578265,0.579521,0.00177362,0.0284668,1805,617,62.9538,44.5463
588,407,62.4609,-41.9819,0.00127747,0.000789743,0.00032985,0.00144382,0.000623399,0.467083,0.00083617,0.025863,1812,617,62.4609,41.9819
595,407,62.0198,-39.2225,0.00038701,0.000511635,-0.000410032,0.000864062,3.45825e-05,-0.860806,0.000564867,0.0462943,1819,617,62.0198,39.2225
602,407,61.4299,-36.4376,-0.00051678,0.000425996,-0.00124576,0.00128657,-0.00137736,-0.966269,0.00153832,0.0343669,1826,617,61.43,36.4376
609,407,60.6808,-33.7742,-0.00128952,0.000580915,-0.00202259,0.00187404,-0.00258265,-1.00195,0.00258389,0.0363656,1833,617,60.6807,33.7742
616,407,60.092,-30.9044,0,0,0,0,0,0,0,-1,1840,617,60.092,30.9044
623,407,53.5945,-21.0079,0,0,0,0,0,0,0,-1,1847,617,53.5945,21.0078
630,407,7.06177,0.814575,0,0,0,0,0,0,0,-1,1854,617,7.06178,-0.814579
637,407,11.1063,0.391846,0,0,0,0,0,0,0,-1,1861,617,11.1063,-0.391862
644,407,5.09766,2.27747,0,0,0,0,0,0,0,-1,1868,617,5.09764,-2.27746
651,407,7.37524,0.0513916,0,0,0,0,0,0,0,-1,1875,617,7.3752,-0.0513923
658,407,3.76685,0.594177,0,0,0,0,0,0,0,-1,1882,617,3.76683,-0.594184
665,407,5.76123,0.375061,0,0,0,0,0,0,0,-1,1889,617,5.76118,-0.37509
672,407,0,0,0,0,0,0,0,0,0,-1,1896,617,0,0
679,407,0,0,0,0,0,0,0,0,0,-1,1903,617,0,0
686,407,0,0,0,0,0,0,0,0,0,-1,1910,617,0,0
693,407,0,0,0,0,0,0,0,0,0,-1,1917,617,0,0
700,407,0,0,0,0,0,0,0,0,0,-1,1924,617,0,0
707,407,0,0,0,0,0,0,0,0,0,-1,1931,617,0,0
714,407,0,0,0,0,0,0,0,0,0,-1,1938,617,0,0
721,407,0,0,0,0,0,0,0,0,0,-1,1945,617,0,0
728,407,0,0,0,0,0,0,0,0,0,-1,1952,617,0,0
735,407,0,0,0,0,0,0,0,0,0,-1,1959,617,0,0
742,407,0,0,0,0,0,0,0,0,0,-1,1966,617,0,0
749,407,0,0,0,0,0,0,0,0,0,-1,1973,617,0,0
756,407,0,0,0,0,0,0,0,0,0,-1,1980,617,0,0
763,407,0,0,0,0,0,0,0,0,0,-1,1987,617,0,0
770,407,0,0,0,0,0,0,0,0,0,-1,1994,617,0,0
777,407,0,0,0,0,0,0,0,0,0,-1,2001,617,0,0
784,407,0,0,0,0,0,0,0,0,0,-1,2008,617,0,0
791,407,0,0,0,0,0,0,0,0,0,-1,2015,617,0,0
798,407,0,0,0,0,0,0,0,0,0,-1,2022,617,0,0
805,407,0,0,0,0,0,0,0,0,0,-1,2029,617,0,0
812,407,0,0,0,0,0,0,0,0,0,-1,2036,617,0,0
-700,400,0,0,0,0,0,0,0,0,0,-1,524,624,0,0
-693,400,0,0,0,0,0,0,0,0,0,-1,531,624,0,0
-686,400,0,0,0,0,0,0,0,0,0,-1,538,624,0,0
-679,400,0,0,0,0,0,0,0,0,0,-1,545,624,0,0
-672,400,0,0,0,0,0,0,0,0,0,-1,552,624,0,0
-665,400,0,0,0,0,0,0,0,0,0,-1,559,624,0,0
-658,400,0,0,0,0,0,0,0,0,0,-1,566,624,0,0
-651,400,0,0,0,0,0,0,0,0,0,-1,573,624,0,0
-644,400,0,0,0,0,0,0,0,0,0,-1,580,624,0,0
-637,400,0,0,0,0,0,0,0,0,0,-1,587,624,0,0
-630,400,0,0,0,0,0,0,0,0,0,-1,594,624,0,0
-623,400,0,0,0,0,0,0,0,0,0,-1,601,624,0,0
-616,400,0,0,0,0,0,0,0,0,0,-1,608,624,0,0
-609,400,0,0,0,0,0,0,0,0,0,-1,615,624,0,0
-602,400,0,0,0,0,0,0,0,0,0,-1,622,624,0,0
-595,400,0,0,0,0,0,0,0,0,0,-1,629,624,0,0
-588,400,0,0,0,0,0,0,0,0,0,-1,636,624,0,0
-581,400,0,0,0,0,0,0,0,0,0,-1,643,624,0,0
-574,400,0,0,0,0,0,0,0,0,0,-1,650,624,0,0
-567,400,0,0,0,0,0,0,0,0,0,-1,657,624,0,0
-560,400,0,0,0,0,0,0,0,0,0,-1,664,624,0,0
-553,400,0,0,0,0,0,0,0,0,0,-1,671,624,0,0
-546,400,-8.41174,-1.4599,0,0,0,0,0,0,0,-1,678,624,-8.41173,1.45989
-539,400,-5.69104,-1.7337,0,0,0,0,0,0,0,-1,685,624,-5.69103,1.7337
-532,400,-3.03632,-2.03912,0,0,0,0,0,0,0,-1,692,624,-3.03632,2.03909
-525,400,-6.20813,-7.04071,0,0,0,0,0,0,0,-1,699,624,-6.20814,7.04071
-518,400,-5.26544,-1.58661,0,0,0,0,0,0,0,-1,706,624,-5.26544,1.58658
-511,400,-10.6307,-6.7121,0,0,0,0,0,0,0,-1,713,624,-10.6307,6.71209
-504,400,-10.2663,-6.55109,0,0,0,0,0,0,0,-1,720,624,-10.2663,6.55106
-497,400,-37.1384,-17.8541,0,0,0,0,0,0,0,-1,727,624,-37.1384,17.8541
-490,400,-52.116,-28.4215,0,0,0,0,0,0,0,-1,734,624,-52.116,28.4215
-483,400,-52.5043,-31.2399,0.00148371,0.00386761,-0.00238315,0.00534027,1.10453e-05,-1.01728,0.00355651,0.0216244,741,624,-52.5044,31.2398
-476,400,-53.0493,-33.9125,0.00122751,0.002447,-0.00164229,0.00358908,8.54243e-05,-0.96315,0.00236476,0.0172283,748,624,-53.0493,33.9125
-469,400,-53.6356,-36.6132,0.00110928,0.0011452,-0.000940363,0.00206777,0.000186705,-0.794947,0.00132069,0.0180867,755,624,-53.6355,36.6131
-462,400,-54.2039,-39.439,0.00118602,5.64208e-05,-0.000398333,0.00131236,-6.9915e-05,-0.307126,0.000899115,0.0232333,762,624,-54.2039,39.439
-455,400,-54.7512,-42.1588,0.00138207,-0.000811379,9.78942e-06,0.00138211,-0.000811423,0.00446292,0.00128064,0.0241118,769,624,-54.7512,42.1588
-448,400,-55.3043,-44.7984,0.00167795,-0.00154909,0.000312768,0.00170799,-0.00157912,0.0957337,0.0018983,0.019302,776,624,-55.3043,44.7984
-441,400,-55.8187,-47.4592,0.00206249,-0.00208948,0.000484494,0.00211828,-0.00214527,0.114638,0.00246158,0.0189847,783,624,-55.8186,47.4593
-434,400,-56.3448,-50.1815,0.00256049,-0.00236863,0.000454617,0.00260207,-0.00241021,0.0912057,0.00289454,0.0173583,790,624,-56.3448,50.1815
-427,400,-56.9185,-52.8958,0.00313652,-0.0024129,0.000248282,0.0031476,-0.00242399,0.0446214,0.00322579,0.0150268,797,624,-56.9185,52.8957
-420,400,-57.3874,-55.6772,0.00360382,-0.00244279,-0.000113881,0.00360597,-0.00244494,-0.0188249,0.00351486,0.042396,804,624,-57.3874,55.6772
-413,400,-57.6735,-58.5151,0,0,0,0,0,0,0,-1,811,624,-57.6735,58.5151
-406,400,-20.0208,-25.2792,0,0,0,0,0,0,0,-1,818,624,-20.0208,25.2792
-399,400,-11.0176,-13.2944,0,0,0,0,0,0,0,-1,825,624,-11.0176,13.2944
-392,400,-4.92285,-6.63354,0,0,0,0,0,0,0,-1,832,624,-4.92285,6.63354
-385,400,-3.68738,-5.04205,0,0,0,0,0,0,0,-1,839,624,-3.68736,5.04207
-378,400,-6.84064,-1.28662,0,0,0,0,0,0,0,-1,846,624,-6.84062,1.28662
-371,400,-6.98865,-1.2572,0,0,0,0,0,0,0,-1,853,624,-6.98865,1.25721
-364,400,-6.97247,-1.24133,0,0,0,0,0,0,0,-1,860,624,-6.97249,1.24135
-357,400,-7.18329,-1.23218,0,0,0,0,0,0,0,-1,867,624,-7.18327,1.2322
-350,400,-7.40186,-1.19409,0,0,0,0,0,0,0,-1,874,624,-7.40187,1.19407
-343,400,-8.09357,-1.51147,0,0,0,0,0,0,0,-1,881,624,-8.09355,1.51148
-336,400,0,0,0,0,0,0,0,0,0,-1,888,624,0,0
-329,400,0,0,0,0,0,0,0,0,0,-1,895,624,0,0
-322,400,0,0,0,0,0,0,0,0,0,-1,902,624,0,0
-315,400,0,0,0,0,0,0,0,0,0,-1,909,624,0,0
-308,400,0,0,0,0,0,0,0,0,0,-1,916,624,0,0
-301,400,0,0,0,0,0,0,0,0,0,-1,923,624,0,0
-294,400,0,0,0,0,0,0,0,0,0,-1,930,624,0,0
-287,400,0,0,0,0,0,0,0,0,0,-1,937,624,0,0
-280,400,0,0,0,0,0,0,0,0,0,-1,944,624,0,0
-273,400,0,0,0,0,0,0,0,0,0,-1,951,624,0,0
-266,400,0,0,0,0,0,0,0,0,0,-1,958,624,0,0
-259,400,0,0,0,0,0,0,0,0,0,-1,965,624,0,0
-252,400,0,0,0,0,0,0,0,0,0,-1,972,624,0,0
-245,400,0,0,0,0,0,0,0,0,0,-1,979,624,0,0
-238,400,0,0,0,0,0,0,0,0,0,-1,986,624,0,0
-231,400,0,0,0,0,0,0,0,0,0,-1,993,624,0,0
-224,400,0,0,0,0,0,0,0,0,0,-1,1000,624,0,0
-217,400,0,0,0,0,0,0,0,0,0,-1,1007,624,0,0
-210,400,0,0,0,0,0,0,0,0,0,-1,1014,624,0,0
-203,400,0,0,0,0,0,0,0,0,0,-1,1021,624,0,0
-196,400,0,0,0,0,0,0,0,0,0,-1,1028,624,0,0
-189,400,0,0,0,0,0,0,0,0,0,-1,1035,624,0,0
-182,400,0,0,0,0,0,0,0,0,0,-1,1042,624,0,0
-175,400,0,0,0,0,0,0,0,0,0,-1,1049,624,0,0
-168,400,0,0,0,0,0,0,0,0,0,-1,1056,624,0,0
-161,400,0,0,0,0,0,0,0,0,0,-1,1063,624,0,0
-154,400,0,0,0,0,0,0,0,0,0,-1,1070,624,0,0
-147,400,0,0,0,0,0,0,0,0,0,-1,1077,624,0,0
-140,400,0,0,0,0,0,0,0,0,0,-1,1084,624,0,0
-133,400,0,0,0,0,0,0,0,0,0,-1,1091,624,0,0
-126,400,0,0,0,0,0,0,0,0,0,-1,1098,624,0,0
-119,400,0,0,0,0,0,0,0,0,0,-1,1105,624,0,0
-112,400,0,0,0,0,0,0,0,0,0,-1,1112,624,0,0
-105,400,0,0,0,0,0,0,0,0,0,-1,1119,624,0,0
-98,400,0,0,0,0,0,0,0,0,0,-1,1126,624,0,0
-91,400,0,0,0,0,0,0,0,0,0,-1,1133,624,0,0
-84,400,0,0,0,0,0,0,0,0,0,-1,1140,624,0,0
-77,400,0,0,0,0,0,0,0,0,0,-1,1147,624,0,0
-70,400,0,0,0,0,0,0,0,0,0,-1,1154,624,0,0
-63,400,0,0,0,0,0,0,0,0,0,-1,1161,624,0,0
-56,400,0,0,0,0,0,0,0,0,0,-1,1168,624,0,0
-49,400,0,0,0,0,0,0,0,0,0,-1,1175,624,0,0
-42,400,0,0,0,0,0,0,0,0,0,-1,1182,624,0,0
-35,400,0,0,0,0,0,0,0,0,0,-1,1189,624,0,0
-28,400,0,0,0,0,0,0,0,0,0,-1,1196,624,0,0
-21,400,0,0,0,0,0,0,0,0,0,-1,1203,624,0,0
-14,400,0,0,0,0,0,0,0,0,0,-1,1210,624,0,0
-7,400,0,0,0,0,0,0,0,0,0,-1,1217,624,0,0
0,400,0,0,0,0,0,0,0,0,0,-1,1224,624,0,0
7,400,0,0,0,0,0,0,0,0,0,-1,1231,624,0,0
14,400,0,0,0,0,0,0,0,0,0,-1,1238,624,0,0
21,400,0,0,0,0,0,0,0,0,0,-1,1245,624,0,0
28,400,0,0,0,0,0,0,0,0,0,-1,1252,624,0,0
35,400,0,0,0,0,0,0,0,0,0,-1,1259,624,0,0
42,400,0,0,0,0,0,0,0,0,0,-1,1266,624,0,0
49,400,0,0,0,0,0,0,0,0,0,-1,1273,624,0,0
56,400,0,0,0,0,0,0,0,0,0,-1,1280,624,0,0
63,400,0,0,0,0,0,0,0,0,0,-1,1287,624,0,0
70,400,0,0,0,0,0,0,0,0,0,-1,1294,624,0,0
77,400,0,0,0,0,0,0,0,0,0,-1,1301,624,0,0
84,400,0,0,0,0,0,0,0,0,0,-1,1308,624,0,0
91,400,0,0,0,0,0,0,0,0,0,-1,1315,624,0,0
98,400,0,0,0,0,0,0,0,0,0,-1,1322,624,0,0
105,400,0,0,0,0,0,0,0,0,0,-1,1329,624,0,0
112,400,0,0,0,0,0,0,0,0,0,-1,1336,624,0,0
119,400,0,0,0,0,0,0,0,0,0,-1,1343,624,0,0
126,400,0,0,0,0,0,0,0,0,0,-1,1350,624,0,0
133,400,0,0,0,0,0,0,0,0,0,-1,1357,624,0,0
140,400,0,0,0,0,0,0,0,0,0,-1,1364,624,0,0
147,400,0,0,0,0,0,0,0,0,0,-1,1371,624,0,0
154,400,0,0,0,0,0,0,0,0,0,-1,1378,624,0,0
161,400,0,0,0,0,0,0,0,0,0,-1,1385,624,0,0
168,400,0,0,0,0,0,0,0,0,0,-1,1392,624,0,0
175,400,0,0,0,0,0,0,0,0,0,-1,1399,624,0,0
182,400,0,0,0,0,0,0,0,0,0,-1,1406,624,0,0
189,400,0,0,0,0,0,0,0,0,0,-1,1413,624,0,0
196,400,0,0,0,0,0,0,0,0,0,-1,1420,624,0,0
203,400,0,0,0,0,0,0,0,0,0,-1,1427,624,0,0
210,400,0,0,0,0,0,0,0,0,0,-1,1434,624,0,0
217,400,0,0,0,0,0,0,0,0,0,-1,1441,624,0,0
224,400,0,0,0,0,0,0,0,0,0,-1,1448,624,0,0
231,400,0,0,0,0,0,0,0,0,0,-1,1455,624,0,0
238,400,0,0,0,0,0,0,0,0,0,-1,1462,624,0,0
245,400,0,0,0,0,0,0,0,0,0,-1,1469,624,0,0
252,400,0,0,0,0,0,0,0,0,0,-1,1476,624,0,0
259,400,0,0,0,0,0,0,0,0,0,-1,1483,624,0,0
266,400,0,0,0,0,0,0,0,0,0,-1,1490,624,0,0
273,400,0,0,0,0,0,0,0,0,0,-1,1497,624,0,0
280,400,0,0,0,0,0,0,0,0,0,-1,1504,624,0,0
287,400,0,0,0,0,0,0,0,0,0,-1,1511,624,0,0
294,400,0,0,0,0,0,0,0,0,0,-1,1518,624,0,0
301,400,0,0,0,0,0,0,0,0,0,-1,1525,624,0,0
308,400,0,0,0,0,0,0,0,0,0,-1,1532,624,0,0
315,400,0,0,0,0,0,0,0,0,0,-1,1539,624,0,0
322,400,0,0,0,0,0,0,0,0,0,-1,1546,624,0,0
329,400,0,0,0,0,0,0,0,0,0,-1,1553,624,0,0
336,400,0,0,0,0,0,0,0,0,0,-1,1560,624,0,0
343,400,0,0,0,0,0,0,0,0,0,-1,1567,624,0,0
350,400,0,0,0,0,0,0,0,0,0,-1,1574,624,0,0
357,400,0,0,0,0,0,0,0,0,0,-1,1581,624,0,0
364,400,0,0,0,0,0,0,0,0,0,-1,1588,624,0,0
371,400,0,0,0,0,0,0,0,0,0,-1,1595,624,0,0
378,400,0,0,0,0,0,0,0,0,0,-1,1602,624,0,0
385,400,0,0,0,0,0,0,0,0,0,-1,1609,624,0,0
392,400,0,0,0,0,0,0,0,0,0,-1,1616,624,0,0
399,400,0,0,0,0,0,0,0,0,0,-1,1623,624,0,0
406,400,0,0,0,0,0,0,0,0,0,-1,1630,624,0,0
413,400,0,0,0,0,0,0,0,0,0,-1,1637,624,0,0
420,400,0,0,0,0,0,0,0,0,0,-1,1644,624,0,0
427,400,0,0,0,0,0,0,0,0,0,-1,1651,624,0,0
434,400,0,0,0,0,0,0,0,0,0,-1,1658,624,0,0
441,400,0,0,0,0,0,0,0,0,0,-1,1665,624,0,0
448,400,0,0,0,0,0,0,0,0,0,-1,1672,624,0,0
455,400,8.91309,2.75885,0,0,0,0,0,0,0,-1,1679,624,8.91312,-2.75885
462,400,8.90356,2.37878,0,0,0,0,0,0,0,-1,1686,624,8.90353,-2.37878
469,400,9.14429,1.76849,0,0,0,0,0,0,0,-1,1693,624,9.14432,-1.76847
476,400,9.23254,1.25995,0,0,0,0,0,0,0,-1,1700,624,9.23252,-1.25994
483,400,9.59766,0.562439,0,0,0,0,0,0,0,-1,1707,624,9.59771,-0.56242
490,400,9.92578,-0.213745,0,0,0,0,0,0,0,-1,1714,624,9.92579,0.21376
497,400,9.19141,0.175232,0,0,0,0,0,0,0,-1,1721,624,9.19138,-0.175209
504,400,9.23438,0.00823975,0,0,0,0,0,0,0,-1,1728,624,9.23436,-0.00823766
511,400,6.16687,3.3501,0,0,0,0,0,0,0,-1,1735,624,6.16682,-3.35007
518,400,6.55237,1.74994,0,0,0,0,0,0,0,-1,1742,624,6.55236,-1.74993
525,400,6.99731,1.08783,0,0,0,0,0,0,0,-1,1749,624,6.99736,-1.08785
532,400,6.96582,-1.74982,0,0,0,0,0,0,0,-1,1756,624,6.96585,1.74983
539,400,21.2305,-10.5841,0,0,0,0,0,0,0,-1,1763,624,21.2304,10.5841
546,400,68.1725,-57.8846,0,0,0,0,0,0,0,-1,1770,624,68.1725,57.8846
553,400,67.7375,-55.0232,0.00669589,0.00557429,0.00485553,0.0110229,0.00124728,0.727904,0.00697014,0.0453075,1777,624,67.7375,55.0232
560,400,67.2996,-52.2277,0.00597419,0.00455914,0.00415575,0.00948221,0.00105112,0.701081,0.00600186,0.0243717,1784,624,67.2995,52.2277
567,400,66.8197,-49.5231,0.0049208,0.00360287,0.00342838,0.00775297,0.000770702,0.690451,0.00493186,0.0276148,1791,624,66.8197,49.5232
574,400,66.2428,-46.7699,0.00396714,0.00280947,0.00267382,0.00612406,0.000652552,0.678802,0.00388351,0.0284207,1798,624,66.2428,46.7699
581,400,65.5961,-44.0641,0.0029188,0.00210789,0.00184727,0.00440458,0.000622103,0.677367,0.00275255,0.0378278,1805,624,65.596,44.0641
588,400,65.0952,-41.2877,0.00189814,0.0014719,0.000981246,0.00268914,0.000680893,0.678462,0.00161439,0.0362447,1812,624,65.0952,41.2876
595,400,64.6224,-38.5909,0.000942686,0.000993655,0.000126661,0.00109737,0.000838971,0.884673,0.000662464,0.031153,1819,624,64.6225,38.5909
602,400,64.0238,-35.9102,5.98127e-05,0.000637701,-0.000761229,0.00116298,-0.000465466,-0.966786,0.000968505,0.0260043,1826,624,64.0238,35.9102
609,400,63.3738,-33.2422,-0.000667315,0.000449448,-0.00162331,0.00160773,-0.0018256,-0.951047,0.00198356,0.0255686,1833,624,63.3737,33.2422
616,400,62.8979,-30.4778,-0.00117389,0.000490572,-0.0025034,0.00229645,-0.00297977,-0.945871,0.00305474,0.0252057,1840,624,62.898,30.4779
623,400,62.3909,-27.6567,0,0,0,0,0,0,0,-1,1847,624,62.3909,27.6568
630,400,11.9432,0.09021,0,0,0,0,0,0,0,-1,1854,624,11.9432,-0.0902007
637,400,6.92896,1.01917,0,0,0,0,0,0,0,-1,1861,624,6.92899,-1.01918
644,400,8.65381,1.4599,0,0,0,0,0,0,0,-1,1868,624,8.65379,-1.45991
651,400,7.90601,0.424072,0,0,0,0,0,0,0,-1,1875,624,7.90598,-0.424097
658,400,8.69031,1.0484,0,0,0,0,0,0,0,-1,1882,624,8.6903,-1.0484
665,400,5.98438,0.522522,0,0,0,0,0,0,0,-1,1889,624,5.98442,-0.522552
672,400,0,0,0,0,0,0,0,0,0,-1,1896,624,0,0
679,400,0,0,0,0,0,0,0,0,0,-1,1903,624,0,0
686,400,0,0,0,0,0,0,0,0,0,-1,1910,624,0,0
693,400,0,0,0,0,0,0,0,0,0,-1,1917,624,0,0
700,400,0,0,0,0,0,0,0,0,0,-1,1924,624,0,0
707,400,0,0,0,0,0,0,0,0,0,-1,1931,624,0,0
714,400,0,0,0,0,0,0,0,0,0,-1,1938,624,0,0
721,400,0,0,0,0,0,0,0,0,0,-1,1945,624,0,0
728,400,0,0,0,0,0,0,0,0,0,-1,1952,624,0,0
735,400,0,0,0,0,0,0,0,0,0,-1,1959,624,0,0
742,400,0,0,0,0,0,0,0,0,0,-1,1966,624,0,0
749,400,0,0,0,0,0,0,0,0,0,-1,1973,624,0,0
756,400,0,0,0,0,0,0,0,0,0,-1,1980,624,0,0
763,400,0,0,0,0,0,0,0,0,0,-1,1987,624,0,0
770,400,0,0,0,0,0,0,0,0,0,-1,1994,624,0,0
777,400,0,0,0,0,0,0,0,0,0,-1,2001,624,0,0
784,400,0,0,0,0,0,0,0,0,0,-1,2008,624,0,0
791,400,0,0,0,0,0,0,0,0,0,-1,2015,624,0,0
798,400,0,0,0,0,0,0,0,0,0,-1,2022,624,0,0
805,400,0,0,0,0,0,0,0,0,0,-1,2029,624,0,0
812,400,0,0,0,0,0,0,0,0,0,-1,2036,624,0,0
-700,393,0,0,0,0,0,0,0,0,0,-1,524,631,0,0
-693,393,0,0,0,0,0,0,0,0,0,-1,531,631,0,0
-686,393,0,0,0,0,0,0,0,0,0,-1,538,631,0,0
-679,393,0,0,0,0,0,0,0,0,0,-1,545,631,0,0
-672,393,0,0,0,0,0,0,0,0,0,-1,552,631,0,0
-665,393,0,0,0,0,0,0,0,0,0,-1,559,631,0,0
-658,393,0,0,0,0,0,0,0,0,0,-1,566,631,0,0
-651,393,0,0,0,0,0,0,0,0,0,-1,573,631,0,0
-644,393,0,0,0,0,0,0,0,0,0,-1,580,631,0,0
-637,393,0,0,0,0,0,0,0,0,0,-1,587,631,0,0
-630,393,0,0,0,0,0,0,0,0,0,-1,594,631,0,0
-623,393,0,0,0,0,0,0,0,0,0,-1,601,631,0,0
-616,393,0,0,0,0,0,0,0,0,0,-1,608,631,0,0
-609,393,0,0,0,0,0,0,0,0,0,-1,615,631,0,0
-602,393,0,0,0,0,0,0,0,0,0,-1,622,631,0,0
-595,393,0,0,0,0,0,0,0,0,0,-1,629,631,0,0
-588,393,0,0,0,0,0,0,0,0,0,-1,636,631,0,0
-581,393,0,0,0,0,0,0,0,0,0,-1,643,631,0,0
-574,393,0,0,0,0,0,0,0,0,0,-1,650,631,0,0
-567,393,0,0,0,0,0,0,0,0,0,-1,657,631,0,0
-560,393,0,0,0,0,0,0,0,0,0,-1,664,631,0,0
-553,393,-2.35107,3.92633,0,0,0,0,0,0,0,-1,671,631,-2.35108,-3.92634
-546,393,-1.78778,2.4856,0,0,0,0,0,0,0,-1,678,631,-1.78778,-2.48557
-539,393,-5.2113,-2.20245,0,0,0,0,0,0,0,-1,685,631,-5.21128,2.20247
-532,393,-2.83643,-2.01624,0,0,0,0,0,0,0,-1,692,631,-2.83642,2.01626
-525,393,-5.9505,-0.952698,0,0,0,0,0,0,0,-1,699,631,-5.95053,0.95268
-518,393,-5.80219,-1.57739,0,0,0,0,0,0,0,-1,706,631,-5.80219,1.57738
-511,393,-6.15527,-2.09906,0,0,0,0,0,0,0,-1,713,631,-6.15526,2.09903
-504,393,-13.6063,-6.95947,0,0,0,0,0,0,0,-1,720,631,-13.6063,6.95946
-497,393,-54.3912,-24.7924,0,0,0,0,0,0,0,-1,727,631,-54.3912,24.7924
-490,393,-54.7585,-27.8339,0.00211516,0.00407721,-0.00214656,0.00545629,0.000736069,-0.999737,0.00341869,0.0496794,734,631,-54.7585,27.8339
-483,393,-55.2476,-30.7425,0.00169256,0.00270264,-0.00158962,0.00386551,0.000529682,-0.939211,0.00241985,0.0232877,741,631,-55.2476,30.7425
-476,393,-55.7711,-33.3809,0.00141609,0.00145905,-0.00103431,0.0024721,0.000403038,-0.795781,0.0015315,0.0207179,748,631,-55.7711,33.3808
-469,393,-56.3256,-36.0708,0.00131703,0.000320126,-0.000517681,0.00153722,9.99344e-05,-0.40216,0.00099318,0.0171732,755,631,-56.3255,36.0708
-462,393,-56.9506,-38.8682,0.0013969,-0.000652763,-0.000119727,0.00140387,-0.000659733,-0.0581495,0.00121697,0.0208068,762,631,-56.9507,38.8682
-455,393,-57.4963,-41.5699,0.00161043,-0.00144488,0.000192688,0.00162254,-0.00145698,0.0627352,0.00177882,0.019707,769,631,-57.4963,41.5699
-448,393,-58.0377,-44.2491,0.00195836,-0.00213602,0.000418779,0.00200076,-0.00217842,0.100889,0.00241357,0.0174854,776,631,-58.0377,44.2491
-441,393,-58.5636,-46.9346,0.00242282,-0.00263999,0.000523036,0.00247629,-0.00269346,0.101876,0.00298563,0.0159309,783,631,-58.5636,46.9346
-434,393,-59.0759,-49.6271,0.00310183,-0.00283577,0.000390843,0.00312745,-0.00286138,0.0654487,0.00345879,0.0153508,790,631,-59.076,49.6271
-427,393,-59.6115,-52.3859,0,0,0,0,0,0,0,-1,797,631,-59.6115,52.3859
-420,393,-59.9814,-55.252,0,0,0,0,0,0,0,-1,804,631,-59.9815,55.252
-413,393,-15.0913,-18.3777,0,0,0,0,0,0,0,-1,811,631,-15.0913,18.3777
-406,393,-11.826,-12.7987,0,0,0,0,0,0,0,-1,818,631,-11.8261,12.7987
-399,393,-5.07343,-5.92365,0,0,0,0,0,0,0,-1,825,631,-5.07344,5.92364
-392,393,-2.08063,-3.02386,0,0,0,0,0,0,0,-1,832,631,-2.08063,3.02384
-385,393,-3.16931,-0.624756,0,0,0,0,0,0,0,-1,839,631,-3.16928,0.624764
-378,393,-7.33081,-0.872314,0,0,0,0,0,0,0,-1,846,631,-7.33081,0.872325
-371,393,-7.47858,-0.811096,0,0,0,0,0,0,0,-1,853,631,-7.47859,0.811075
-364,393,-7.64917,-0.662415,0,0,0,0,0,0,0,-1,860,631,-7.64917,0.662406
-357,393,-8.09686,-0.726013,0,0,0,0,0,0,0,-1,867,631,-8.09689,0.726029
-350,393,-8.38788,-0.511841,0,0,0,0,0,0,0,-1,874,631,-8.38785,0.511811
-343,393,0,0,0,0,0,0,0,0,0,-1,881,631,0,0
-336,393,0,0,0,0,0,0,0,0,0,-1,888,631,0,0
-329,393,0,0,0,0,0,0,0,0,0,-1,895,631,0,0
-322,393,0,0,0,0,0,0,0,0,0,-1,902,631,0,0
-315,393,0,0,0,0,0,0,0,0,0,-1,909,631,0,0
-308,393,0,0,0,0,0,0,0,0,0,-1,916,631,0,0
-301,393,0,0,0,0,0,0,0,0,0,-1,923,631,0,0
-294,393,0,0,0,0,0,0,0,0,0,-1,930,631,0,0
-287,393,0,0,0,0,0,0,0,0,0,-1,937,631,0,0
-280,393,0,0,0,0,0,0,0,0,0,-1,944,631,0,0
-273,393,0,0,0,0,0,0,0,0,0,-1,951,631,0,0
-266,393,0,0,0,0,0,0,0,0,0,-1,958,631,0,0
-259,393,0,0,0,0,0,0,0,0,0,-1,965,631,0,0
-252,393,0,0,0,0,0,0,0,0,0,-1,972,631,0,0
-245,393,0,0,0,0,0,0,0,0,0,-1,979,631,0,0
-238,393,0,0,0,0,0,0,0,0,0,-1,986,631,0,0
-231,393,0,0,0,0,0,0,0,0,0,-1,993,631,0,0
-224,393,0,0,0,0,0,0,0,0,0,-1,1000,631,0,0
-217,393,0,0,0,0,0,0,0,0,0,-1,1007,631,0,0
-210,393,0,0,0,0,0,0,0,0,0,-1,1014,631,0,0
-203,393,0,0,0,0,0,0,0,0,0,-1,1021,631,0,0
-196,393,0,0,0,0,0,0,0,0,0,-1,1028,631,0,0
-189,393,0,0,0,0,0,0,0,0,0,-1,1035,631,0,0
-182,393,0,0,0,0,0,0,0,0,0,-1,1042,631,0,0
-175,393,0,0,0,0,0,0,0,0,0,-1,1049,631,0,0
-168,393,0,0,0,0,0,0,0,0,0,-1,1056,631,0,0
-161,393,0,0,0,0,0,0,0,0,0,-1,1063,631,0,0
-154,393,0,0,0,0,0,0,0,0,0,-1,1070,631,0,0
-147,393,0,0,0,0,0,0,0,0,0,-1,1077,631,0,0
-140,393,0,0,0,0,0,0,0,0,0,-1,1084,631,0,0
-133,393,0,0,0,0,0,0,0,0,0,-1,1091,631,0,0
-126,393,0,0,0,0,0,0,0,0,0,-1,1098,631,0,0
-119,393,0,0,0,0,0,0,0,0,0,-1,1105,631,0,0
-112,393,0,0,0,0,0,0,0,0,0,-1,1112,631,0,0
-105,393,0,0,0,0,0,0,0,0,0,-1,1119,631,0,0
-98,393,0,0,0,0,0,0,0,0,0,-1,1126,631,0,0
-91,393,0,0,0,0,0,0,0,0,0,-1,1133,631,0,0
-84,393,0,0,0,0,0,0,0,0,0,-1,1140,631,0,0
-77,393,0,0,0,0,0,0,0,0,0,-1,1147,631,0,0
-70,393,0,0,0,0,0,0,0,0,0,-1,1154,631,0,0
-63,393,0,0,0,0,0,0,0,0,0,-1,1161,631,0,0
-56,393,0,0,0,0,0,0,0,0,0,-1,1168,631,0,0
-49,393,0,0,0,0,0,0,0,0,0,-1,1175,631,0,0
-42,393,0,0,0,0,0,0,0,0,0,-1,1182,631,0,0
-35,393,0,0,0,0,0,0,0,0,0,-1,1189,631,0,0
-28,393,0,0,0,0,0,0,0,0,0,-1,1196,631,0,0
-21,393,0,0,0,0,0,0,0,0,0,-1,1203,631,0,0
-14,393,0,0,0,0,0,0,0,0,0,-1,1210,631,0,0
-7,393,0,0,0,0,0,0,0,0,0,-1,1217,631,0,0
0,393,0,0,0,0,0,0,0,0,0,-1,1224,631,0,0
7,393,0,0,0,0,0,0,0,0,0,-1,1231,631,0,0
14,393,0,0,0,0,0,0,0,0,0,-1,1238,631,0,0
21,393,0,0,0,0,0,0,0,0,0,-1,1245,631,0,0
28,393,0,0,0,0,0,0,0,0,0,-1,1252,631,0,0
35,393,0,0,0,0,0,0,0,0,0,-1,1259,631,0,0
42,393,0,0,0,0,0,0,0,0,0,-1,1266,631,0,0
49,393,0,0,0,0,0,0,0,0,0,-1,1273,631,0,0
56,393,0,0,0,0,0,0,0,0,0,-1,1280,631,0,0
63,393,0,0,0,0,0,0,0,0,0,-1,1287,631,0,0
70,393,0,0,0,0,0,0,0,0,0,-1,1294,631,0,0
77,393,0,0,0,0,0,0,0,0,0,-1,1301,631,0,0
84,393,0,0,0,0,0,0,0,0,0,-1,1308,631,0,0
91,393,0,0,0,0,0,0,0,0,0,-1,1315,631,0,0
98,393,0,0,0,0,0,0,0,0,0,-1,1322,631,0,0
105,393,0,0,0,0,0,0,0,0,0,-1,1329,631,0,0
112,393,0,0,0,0,0,0,0,0,0,-1,1336,631,0,0
119,393,0,0,0,0,0,0,0,0,0,-1,1343,631,0,0
126,393,0,0,0,0,0,0,0,0,0,-1,1350,631,0,0
133,393,0,0,0,0,0,0,0,0,0,-1,1357,631,0,0
140,393,0,0,0,0,0,0,0,0,0,-1,1364,631,0,0
147,393,0,0,0,0,0,0,0,0,0,-1,1371,631,0,0
154,393,0,0,0,0,0,0,0,0,0,-1,1378,631,0,0
161,393,0,0,0,0,0,0,0,0,0,-1,1385,631,0,0
168,393,0,0,0,0,0,0,0,0,0,-1,1392,631,0,0
175,393,0,0,0,0,0,0,0,0,0,-1,1399,631,0,0
182,393,0,0,0,0,0,0,0,0,0,-1,1406,631,0,0
189,393,0,0,0,0,0,0,0,0,0,-1,1413,631,0,0
196,393,0,0,0,0,0,0,0,0,0,-1,1420,631,0,0
203,393,0,0,0,0,0,0,0,0,0,-1,1427,631,0,0
210,393,0,0,0,0,0,0,0,0,0,-1,1434,631,0,0
217,393,0,0,0,0,0,0,0,0,0,-1,1441,631,0,0
224,393,0,0,0,0,0,0,0,0,0,-1,1448,631,0,0
231,393,0,0,0,0,0,0,0,0,0,-1,1455,631,0,0
238,393,0,0,0,0,0,0,0,0,0,-1,1462,631,0,0
245,393,0,0,0,0,0,0,0,0,0,-1,1469,631,0,0
252,393,0,0,0,0,0,0,0,0,0,-1,1476,631,0,0
259,393,0,0,0,0,0,0,0,0,0,-1,1483,631,0,0
266,393,0,0,0,0,0,0,0,0,0,-1,1490,631,0,0
273,393,0,0,0,0,0,0,0,0,0,-1,1497,631,0,0
280,393,0,0,0,0,0,0,0,0,0,-1,1504,631,0,0
287,393,0,0,0,0,0,0,0,0,0,-1,1511,631,0,0
294,393,0,0,0,0,0,0,0,0,0,-1,1518,631,0,0
301,393,0,0,0,0,0,0,0,0,0,-1,1525,631,0,0
308,393,0,0,0,0,0,0,0,0,0,-1,1532,631,0,0
315,393,0,0,0,0,0,0,0,0,0,-1,1539,631,0,0
322,393,0,0,0,0,0,0,0,0,0,-1,1546,631,0,0
329,393,0,0,0,0,0,0,0,0,0,-1,1553,631,0,0
336,393,0,0,0,0,0,0,0,0,0,-1,1560,631,0,0
343,393,0,0,0,0,0,0,0,0,0,-1,1567,631,0,0
350,393,0,0,0,0,0,0,0,0,0,-1,1574,631,0,0
357,393,0,0,0,0,0,0,0,0,0,-1,1581,631,0,0
364,393,0,0,0,0,0,0,0,0,0,-1,1588,631,0,0
371,393,0,0,0,0,0,0,0,0,0,-1,1595,631,0,0
378,393,0,0,0,0,0,0,0,0,0,-1,1602,631,0,0
385,393,0,0,0,0,0,0,0,0,0,-1,1609,631,0,0
392,393,0,0,0,0,0,0,0,0,0,-1,1616,631,0,0
399,393,0,0,0,0,0,0,0,0,0,-1,1623,631,0,0
406,393,0,0,0,0,0,0,0,0,0,-1,1630,631,0,0
413,393,0,0,0,0,0,0,0,0,0,-1,1637,631,0,0
420,393,0,0,0,0,0,0,0,0,0,-1,1644,631,0,0
427,393,0,0,0,0,0,0,0,0,0,-1,1651,631,0,0
434,393,0,0,0,0,0,0,0,0,0,-1,1658,631,0,0
441,393,0,0,0,0,0,0,0,0,0,-1,1665,631,0,0
448,393,0,0,0,0,0,0,0,0,0,-1,1672,631,0,0
455,393,0,0,0,0,0,0,0,0,0,-1,1679,631,0,0
462,393,8.51099,1.89502,0,0,0,0,0,0,0,-1,1686,631,8.51103,-1.89504
469,393,9.39465,1.51703,0,0,0,0,0,0,0,-1,1693,631,9.39465,-1.51703
476,393,9.95569,1.185,0,0,0,0,0,0,0,-1,1700,631,9.95575,-1.18497
483,393,10.5267,0.887329,0,0,0,0,0,0,0,-1,1707,631,10.5267,-0.887321
490,393,10.9303,0.761414,0,0,0,0,0,0,0,-1,1714,631,10.9303,-0.761386
497,393,8.32153,1.88104,0,0,0,0,0,0,0,-1,1721,631,8.32148,-1.88103
504,393,9.46985,1.78711,0,0,0,0,0,0,0,-1,1728,631,9.46986,-1.78713
511,393,9.66565,-0.375977,0,0,0,0,0,0,0,-1,1735,631,9.66571,0.375949
518,393,7.01599,1.62482,0,0,0,0,0,0,0,-1,1742,631,7.01597,-1.62483
525,393,7.88245,-1.13422,0,0,0,0,0,0,0,-1,1749,631,7.88246,1.13423
532,393,7.06335,-1.18103,0,0,0,0,0,0,0,-1,1756,631,7.06332,1.18101
539,393,9.91626,-2.46301,0,0,0,0,0,0,0,-1,1763,631,9.91625,2.46302
546,393,16.4094,-8.04651,0,0,0,0,0,0,0,-1,1770,631,16.4094,8.04649
553,393,70.4567,-54.6633,0,0,0,0,0,0,0,-1,1777,631,70.4567,54.6633
560,393,70.0261,-51.7482,0.0075755,0.00575519,0.00551979,0.0122597,0.00107102,0.703689,0.00784052,0.0446705,1784,631,70.0261,51.7481
567,393,69.4829,-48.9737,0.00615637,0.00463014,0.00467782,0.0101329,0.000653597,0.704543,0.00654829,0.0197426,1791,631,69.4829,48.9737
574,393,68.9305,-46.2432,0.00499004,0.00371677,0.00377772,0.0081844,0.000522414,0.70192,0.00529073,0.0219408,1798,631,68.9306,46.2433
581,393,68.3416,-43.442,0.00377978,0.00289768,0.00281514,0.00618822,0.00048925,0.707695,0.00397245,0.0291529,1805,631,68.3416,43.442
588,393,67.7866,-40.5938,0.00266333,0.00214866,0.00181503,0.00423918,0.000572809,0.714978,0.00265585,0.0387653,1812,631,67.7866,40.5938
595,393,67.262,-37.9301,0.00166806,0.00154488,0.000838247,0.00244697,0.00076596,0.748727,0.00144531,0.0340216,1819,631,67.2619,37.9301
602,393,66.6855,-35.3051,0.000818162,0.00106215,-0.000128879,0.00111761,0.000762695,-1.16438,0.000659416,0.0326334,1826,631,66.6855,35.3051
609,393,66.1636,-32.6503,0.000152545,0.000721293,-0.00109147,0.00156483,-0.000690992,-0.912836,0.00133457,0.0238975,1833,631,66.1636,32.6503
616,393,65.692,-29.9735,-0.000298992,0.00056886,-0.00201192,0.00219312,-0.00192325,-0.89161,0.00237829,0.0187332,1840,631,65.692,29.9735
623,393,65.1302,-27.2567,0,0,0,0,0,0,0,-1,1847,631,65.1302,27.2567
630,393,50.0315,-15.3729,0,0,0,0,0,0,0,-1,1854,631,50.0316,15.3728
637,393,11.4626,0.608887,0,0,0,0,0,0,0,-1,1861,631,11.4627,-0.608904
644,393,8.97583,1.30585,0,0,0,0,0,0,0,-1,1868,631,8.97586,-1.30584
651,393,11.348,0.53302,0,0,0,0,0,0,0,-1,1875,631,11.348,-0.53305
658,393,9.21338,1.50836,0,0,0,0,0,0,0,-1,1882,631,9.21338,-1.50834
665,393,6.1001,2.32129,0,0,0,0,0,0,0,-1,1889,631,6.10012,-2.3213
672,393,7.14575,2.43225,0,0,0,0,0,0,0,-1,1896,631,7.14572,-2.43222
679,393,0,0,0,0,0,0,0,0,0,-1,1903,631,0,0
686,393,0,0,0,0,0,0,0,0,0,-1,1910,631,0,0
693,393,0,0,0,0,0,0,0,0,0,-1,1917,631,0,0
700,393,0,0,0,0,0,0,0,0,0,-1,1924,631,0,0
707,393,0,0,0,0,0,0,0,0,0,-1,1931,631,0,0
714,393,0,0,0,0,0,0,0,0,0,-1,1938,631,0,0
721,393,0,0,0,0,0,0,0,0,0,-1,1945,631,0,0
728,393,0,0,0,0,0,0,0,0,0,-1,1952,631,0,0
735,393,0,0,0,0,0,0,0,0,0,-1,1959,631,0,0
742,393,0,0,0,0,0,0,0,0,0,-1,1966,631,0,0
749,393,0,0,0,0,0,0,0,0,0,-1,1973,631,0,0
756,393,0,0,0,0,0,0,0,0,0,-1,1980,631,0,0
763,393,0,0,0,0,0,0,0,0,0,-1,1987,631,0,0
770,393,0,0,0,0,0,0,0,0,0,-1,1994,631,0,0
777,393,0,0,0,0,0,0,0,0,0,-1,2001,631,0,0
784,393,0,0,0,0,0,0,0,0,0,-1,2008,631,0,0
791,393,0,0,0,0,0,0,0,0,0,-1,2015,631,0,0
798,393,0,0,0,0,0,0,0,0,0,-1,2022,631,0,0
805,393,0,0,0,0,0,0,0,0,0,-1,2029,631,0,0
812,393,0,0,0,0,0,0,0,0,0,-1,2036,631,0,0
-700,386,0,0,0,0,0,0,0,0,0,-1,524,638,0,0
-693,386,0,0,0,0,0,0,0,0,0,-1,531,638,0,0
-686,386,0,0,0,0,0,0,0,0,0,-1,538,638,0,0
-679,386,0,0,0,0,0,0,0,0,0,-1,545,638,0,0
-672,386,0,0,0,0,0,0,0,0,0,-1,552,638,0,0
-665,386,0,0,0,0,0,0,0,0,0,-1,559,638,0,0
-658,386,0,0,0,0,0,0,0,0,0,-1,566,638,0,0
-651,386,0,0,0,0,0,0,0,0,0,-1,573,638,0,0
-644,386,0,0,0,0,0,0,0,0,0,-1,580,638,0,0
-637,386,0,0,0,0,0,0,0,0,0,-1,587,638,0,0
-630,386,0,0,0,0,0,0,0,0,0,-1,594,638,0,0
-623,386,0,0,0,0,0,0,0,0,0,-1,601,638,0,0
-616,386,0,0,0,0,0,0,0,0,0,-1,608,638,0,0
-609,386,0,0,0,0,0,0,0,0,0,-1,615,638,0,0
-602,386,0,0,0,0,0,0,0,0,0,-1,622,638,0,0
-595,386,0,0,0,0,0,0,0,0,0,-1,629,638,0,0
-588,386,0,0,0,0,0,0,0,0,0,-1,636,638,0,0
-581,386,0,0,0,0,0,0,0,0,0,-1,643,638,0,0
-574,386,0,0,0,0,0,0,0,0,0,-1,650,638,0,0
-567,386,0,0,0,0,0,0,0,0,0,-1,657,638,0,0
-560,386,-3.97229,-5.13898,0,0,0,0,0,0,0,-1,664,638,-3.97232,5.13897
-553,386,-4.94244,-5.54309,0,0,0,0,0,0,0,-1,671,638,-4.94242,5.5431
-546,386,-1.78668,1.72827,0,0,0,0,0,0,0,-1,678,638,-1.78668,-1.72829
-539,386,-0.879456,-2.90009,0,0,0,0,0,0,0,-1,685,638,-0.879442,2.90008
-532,386,-5.4884,1.73328,0,0,0,0,0,0,0,-1,692,638,-5.4884,-1.73325
-525,386,-6.64148,-1.50604,0,0,0,0,0,0,0,-1,699,638,-6.64149,1.50603
-518,386,-11.1217,-4.10382,0,0,0,0,0,0,0,-1,706,638,-11.1217,4.1038
-511,386,-13.0612,-5.05151,0,0,0,0,0,0,0,-1,713,638,-13.0612,5.05149
-504,386,-34.0443,-13.7252,0,0,0,0,0,0,0,-1,720,638,-34.0442,13.7252
-497,386,-56.9449,-24.6257,0,0,0,0,0,0,0,-1,727,638,-56.945,24.6256
-490,386,-57.4897,-27.4264,0.00244499,0.0030546,-0.0016089,0.00438731,0.00111228,-0.879014,0.0026336,0.0200165,734,638,-57.4897,27.4264
-483,386,-58.0428,-30.2267,0.00198391,0.00183397,-0.00110782,0.00301929,0.000798588,-0.751614,0.00180649,0.0210746,741,638,-58.0428,30.2267
-476,386,-58.5657,-32.9091,0.0016788,0.000689629,-0.000623252,0.00197986,0.000388564,-0.45,0.00121134,0.019215,748,638,-58.5657,32.909
-469,386,-59.0974,-35.5573,0.00157211,-0.000367214,-0.000195572,0.00159163,-0.00038674,-0.0995108,0.00121077,0.0158289,755,638,-59.0974,35.5573
-462,386,-59.6497,-38.2975,0.00163651,-0.00127867,0.000127353,0.00164207,-0.00128422,0.0435754,0.0016937,0.0150276,762,638,-59.6496,38.2975
-455,386,-60.2052,-41.0214,0.00184459,-0.00203603,0.000388882,0.00188317,-0.00207461,0.0989011,0.00228592,0.0166423,769,638,-60.2052,41.0213
-448,386,-60.7141,-43.7209,0.00221831,-0.00270064,0.000555056,0.00228017,-0.0027625,0.110981,0.00291582,0.0167167,776,638,-60.7141,43.721
-441,386,-61.2247,-46.441,0.00272623,-0.00318495,0.000583791,0.00278334,-0.00324205,0.0975052,0.00348212,0.0174707,783,638,-61.2247,46.441
-434,386,-61.778,-49.0736,0,0,0,0,0,0,0,-1,790,638,-61.778,49.0736
-427,386,-51.2595,-43.9547,0,0,0,0,0,0,0,-1,797,638,-51.2594,43.9546
-420,386,-14.5338,-16.0451,0,0,0,0,0,0,0,-1,804,638,-14.5338,16.0451
-413,386,-5.45691,-5.35785,0,0,0,0,0,0,0,-1,811,638,-5.45691,5.35783
-406,386,-4.51135,-4.10999,0,0,0,0,0,0,0,-1,818,638,-4.51135,4.10996
-399,386,-3.57117,-3.42126,0,0,0,0,0,0,0,-1,825,638,-3.57116,3.42129
-392,386,-4.00977,0.403625,0,0,0,0,0,0,0,-1,832,638,-4.0098,-0.403616
-385,386,-3.2406,-0.118469,0,0,0,0,0,0,0,-1,839,638,-3.24058,0.118485
-378,386,-2.55243,-1.22748,0,0,0,0,0,0,0,-1,846,638,-2.55243,1.22748
-371,386,-7.95807,-0.330261,0,0,0,0,0,0,0,-1,853,638,-7.95806,0.330284
-364,386,-8.90637,-0.665955,0,0,0,0,0,0,0,-1,860,638,-8.90635,0.665951
-357,386,-9.10364,-0.388733,0,0,0,0,0,0,0,-1,867,638,-9.10364,0.388744
-350,386,0,0,0,0,0,0,0,0,0,-1,874,638,0,0
-343,386,0,0,0,0,0,0,0,0,0,-1,881,638,0,0
-336,386,0,0,0,0,0,0,0,0,0,-1,888,638,0,0
-329,386,0,0,0,0,0,0,0,0,0,-1,895,638,0,0
-322,386,0,0,0,0,0,0,0,0,0,-1,902,638,0,0
-315,386,0,0,0,0,0,0,0,0,0,-1,909,638,0,0
-308,386,0,0,0,0,0,0,0,0,0,-1,916,638,0,0
-301,386,0,0,0,0,0,0,0,0,0,-1,923,638,0,0
-294,386,0,0,0,0,0,0,0,0,0,-1,930,638,0,0
-287,386,0,0,0,0,0,0,0,0,0,-1,937,638,0,0
-280,386,0,0,0,0,0,0,0,0,0,-1,944,638,0,0
-273,386,0,0,0,0,0,0,0,0,0,-1,951,638,0,0
-266,386,0,0,0,0,0,0,0,0,0,-1,958,638,0,0
-259,386,0,0,0,0,0,0,0,0,0,-1,965,638,0,0
-252,386,0,0,0,0,0,0,0,0,0,-1,972,638,0,0
-245,386,0,0,0,0,0,0,0,0,0,-1,979,638,0,0
-238,386,0,0,0,0,0,0,0,0,0,-1,986,638,0,0
-231,386,0,0,0,0,0,0,0,0,0,-1,993,638,0,0
-224,386,0,0,0,0,0,0,0,0,0,-1,1000,638,0,0
-217,386,0,0,0,0,0,0,0,0,0,-1,1007,638,0,0
-210,386,0,0,0,0,0,0,0,0,0,-1,1014,638,0,0
-203,386,0,0,0,0,0,0,0,0,0,-1,1021,638,0,0
-196,386,0,0,0,0,0,0,0,0,0,-1,1028,638,0,0
-189,386,0,0,0,0,0,0,0,0,0,-1,1035,638,0,0
-182,386,0,0,0,0,0,0,0,0,0,-1,1042,638,0,0
-175,386,0,0,0,0,0,0,0,0,0,-1,1049,638,0,0
-168,386,0,0,0,0,0,0,0,0,0,-1,1056,638,0,0
-161,386,0,0,0,0,0,0,0,0,0,-1,1063,638,0,0
-154,386,0,0,0,0,0,0,0,0,0,-1,1070,638,0,0
-147,386,0,0,0,0,0,0,0,0,0,-1,1077,638,0,0
-140,386,0,0,0,0,0,0,0,0,0,-1,1084,638,0,0
-133,386,0,0,0,0,0,0,0,0,0,-1,1091,638,0,0
-126,386,0,0,0,0,0,0,0,0,0,-1,1098,638,0,0
-119,386,0,0,0,0,0,0,0,0,0,-1,1105,638,0,0
-112,386,0,0,0,0,0,0,0,0,0,-1,1112,638,0,0
-105,386,0,0,0,0,0,0,0,0,0,-1,1119,638,0,0
-98,386,0,0,0,0,0,0,0,0,0,-1,1126,638,0,0
-91,386,0,0,0,0,0,0,0,0,0,-1,1133,638,0,0
-84,386,0,0,0,0,0,0,0,0,0,-1,1140,638,0,0
-77,386,0,0,0,0,0,0,0,0,0,-1,1147,638,0,0
-70,386,0,0,0,0,0,0,0,0,0,-1,1154,638,0,0
-63,386,0,0,0,0,0,0,0,0,0,-1,1161,638,0,0
-56,386,0,0,0,0,0,0,0,0,0,-1,1168,638,0,0
-49,386,0,0,0,0,0,0,0,0,0,-1,1175,638,0,0
-42,386,0,0,0,0,0,0,0,0,0,-1,1182,638,0,0
-35,386,0,0,0,0,0,0,0,0,0,-1,1189,638,0,0
-28,386,0,0,0,0,0,0,0,0,0,-1,1196,638,0,0
-21,386,0,0,0,0,0,0,0,0,0,-1,1203,638,0,0
-14,386,0,0,0,0,0,0,0,0,0,-1,1210,638,0,0
-7,386,0,0,0,0,0,0,0,0,0,-1,1217,638,0,0
0,386,0,0,0,0,0,0,0,0,0,-1,1224,638,0,0
7,386,0,0,0,0,0,0,0,0,0,-1,1231,638,0,0
14,386,0,0,0,0,0,0,0,0,0,-1,1238,638,0,0
21,386,0,0,0,0,0,0,0,0,0,-1,1245,638,0,0
28,386,0,0,0,0,0,0,0,0,0,-1,1252,638,0,0
35,386,0,0,0,0,0,0,0,0,0,-1,1259,638,0,0
42,386,0,0,0,0,0,0,0,0,0,-1,1266,638,0,0
49,386,0,0,0,0,0,0,0,0,0,-1,1273,638,0,0
56,386,0,0,0,0,0,0,0,0,0,-1,1280,638,0,0
63,386,0,0,0,0,0,0,0,0,0,-1,1287,638,0,0
70,386,0,0,0,0,0,0,0,0,0,-1,1294,638,0,0
77,386,0,0,0,0,0,0,0,0,0,-1,1301,638,0,0
84,386,0,0,0,0,0,0,0,0,0,-1,1308,638,0,0
91,386,0,0,0,0,0,0,0,0,0,-1,1315,638,0,0
98,386,0,0,0,0,0,0,0,0,0,-1,1322,638,0,0
105,386,0,0,0,0,0,0,0,0,0,-1,1329,638,0,0
112,386,0,0,0,0,0,0,0,0,0,-1,1336,638,0,0
119,386,0,0,0,0,0,0,0,0,0,-1,1343,638,0,0
126,386,0,0,0,0,0,0,0,0,0,-1,1350,638,0,0
133,386,0,0,0,0,0,0,0,0,0,-1,1357,638,0,0
140,386,0,0,0,0,0,0,0,0,0,-1,1364,638,0,0
147,386,0,0,0,0,0,0,0,0,0,-1,1371,638,0,0
154,386,0,0,0,0,0,0,0,0,0,-1,1378,638,0,0
161,386,0,0,0,0,0,0,0,0,0,-1,1385,638,0,0
168,386,0,0,0,0,0,0,0,0,0,-1,1392,638,0,0
175,386,0,0,0,0,0,0,0,0,0,-1,1399,638,0,0
182,386,0,0,0,0,0,0,0,0,0,-1,1406,638,0,0
189,386,0,0,0,0,0,0,0,0,0,-1,1413,638,0,0
196,386,0,0,0,0,0,0,0,0,0,-1,1420,638,0,0
203,386,0,0,0,0,0,0,0,0,0,-1,1427,638,0,0
210,386,0,0,0,0,0,0,0,0,0,-1,1434,638,0,0
217,386,0,0,0,0,0,0,0,0,0,-1,1441,638,0,0
224,386,0,0,0,0,0,0,0,0,0,-1,1448,638,0,0
231,386,0,0,0,0,0,0,0,0,0,-1,1455,638,0,0
238,386,0,0,0,0,0,0,0,0,0,-1,1462,638,0,0
245,386,0,0,0,0,0,0,0,0,0,-1,1469,638,0,0
252,386,0,0,0,0,0,0,0,0,0,-1,1476,638,0,0
259,386,0,0,0,0,0,0,0,0,0,-1,1483,638,0,0
266,386,0,0,0,0,0,0,0,0,0,-1,1490,638,0,0
273,386,0,0,0,0,0,0,0,0,0,-1,1497,638,0,0
280,386,0,0,0,0,0,0,0,0,0,-1,1504,638,0,0
287,386,0,0,0,0,0,0,0,0,0,-1,1511,638,0,0
294,386,0,0,0,0,0,0,0,0,0,-1,1518,638,0,0
301,386,0,0,0,0,0,0,0,0,0,-1,1525,638,0,0
308,386,0,0,0,0,0,0,0,0,0,-1,1532,638,0,0
315,386,0,0,0,0,0,0,0,0,0,-1,1539,638,0,0
322,386,0,0,0,0,0,0,0,0,0,-1,1546,638,0,0
329,386,0,0,0,0,0,0,0,0,0,-1,1553,638,0,0
336,386,0,0,0,0,0,0,0,0,0,-1,1560,638,0,0
343,386,0,0,0,0,0,0,0,0,0,-1,1567,638,0,0
350,386,0,0,0,0,0,0,0,0,0,-1,1574,638,0,0
357,386,0,0,0,0,0,0,0,0,0,-1,1581,638,0,0
364,386,0,0,0,0,0,0,0,0,0,-1,1588,638,0,0
371,386,0,0,0,0,0,0,0,0,0,-1,1595,638,0,0
378,386,0,0,0,0,0,0,0,0,0,-1,1602,638,0,0
385,386,0,0,0,0,0,0,0,0,0,-1,1609,638,0,0
392,386,0,0,0,0,0,0,0,0,0,-1,1616,638,0,0
399,386,0,0,0,0,0,0,0,0,0,-1,1623,638,0,0
406,386,0,0,0,0,0,0,0,0,0,-1,1630,638,0,0
413,386,0,0,0,0,0,0,0,0,0,-1,1637,638,0,0
420,386,0,0,0,0,0,0,0,0,0,-1,1644,638,0,0
427,386,0,0,0,0,0,0,0,0,0,-1,1651,638,0,0
434,386,0,0,0,0,0,0,0,0,0,-1,1658,638,0,0
441,386,0,0,0,0,0,0,0,0,0,-1,1665,638,0,0
448,386,0,0,0,0,0,0,0,0,0,-1,1672,638,0,0
455,386,0,0,0,0,0,0,0,0,0,-1,1679,638,0,0
462,386,0,0,0,0,0,0,0,0,0,-1,1686,638,0,0
469,386,9.84692,1.55804,0,0,0,0,0,0,0,-1,1693,638,9.84691,-1.55807
476,386,10.6145,0.986511,0,0,0,0,0,0,0,-1,1700,638,10.6145,-0.986529
483,386,11.4113,0.732971,0,0,0,0,0,0,0,-1,1707,638,11.4112,-0.732958
490,386,7.79785,1.79572,0,0,0,0,0,0,0,-1,1714,638,7.79788,-1.7957
497,386,8.96362,1.77081,0,0,0,0,0,0,0,-1,1721,638,8.96357,-1.77081
504,386,10.0555,1.69427,0,0,0,0,0,0,0,-1,1728,638,10.0555,-1.69426
511,386,11.2172,1.534,0,0,0,0,0,0,0,-1,1735,638,11.2172,-1.53398
518,386,7.41553,1.75238,0,0,0,0,0,0,0,-1,1742,638,7.41547,-1.75238
525,386,8.82422,-1.1449,0,0,0,0,0,0,0,-1,1749,638,8.82426,1.14492
532,386,10.6432,0.617371,0,0,0,0,0,0,0,-1,1756,638,10.6432,-0.617359
539,386,9.62061,-0.393616,0,0,0,0,0,0,0,-1,1763,638,9.62059,0.393634
546,386,10.7963,-2.854,0,0,0,0,0,0,0,-1,1770,638,10.7962,2.854
553,386,16.9939,-7.27942,0,0,0,0,0,0,0,-1,1777,638,16.9939,7.27944
560,386,72.3136,-51.4666,0,0,0,0,0,0,0,-1,1784,638,72.3136,51.4666
567,386,71.9897,-48.5189,0.00753779,0.00572159,0.00607746,0.0127746,0.000484753,0.711236,0.00835952,0.0473898,1791,638,71.9897,48.5189
574,386,71.604,-45.6882,0.00613656,0.0046674,0.00500557,0.0104612,0.000342791,0.712542,0.0068627,0.0197356,1798,638,71.604,45.6882
581,386,71.0619,-42.9667,0.00476693,0.00371338,0.00388918,0.00816484,0.000315464,0.718085,0.00534118,0.0211195,1805,638,71.0619,42.9667
588,386,70.5696,-40.1884,0.00354644,0.00285232,0.00274311,0.00596436,0.000434401,0.722472,0.00383964,0.0217174,1812,638,70.5696,40.1884
595,386,70.0149,-37.4623,0.00249525,0.00214069,0.00164037,0.0039679,0.000668051,0.731571,0.00245309,0.0264605,1819,638,70.0149,37.4623
602,386,69.4482,-34.8495,0.00163827,0.00156333,0.00059147,0.00219346,0.00100815,0.753764,0.00126777,0.0257185,1826,638,69.4482,34.8496
609,386,68.9725,-32.1766,0.000983523,0.00112291,-0.000450872,0.00150945,0.000596991,-0.86208,0.0008778,0.0188226,1833,638,68.9725,32.1766
616,386,68.4579,-29.4108,0.000586769,0.000860711,-0.00137412,0.00210467,-0.000657185,-0.835074,0.00166595,0.0161311,1840,638,68.4578,29.4108
623,386,67.8988,-26.7386,0.000551229,0.000734317,-0.002002,0.00264686,-0.00136131,-0.808245,0.00235346,0.0143312,1847,638,67.8988,26.7386
630,386,67.3082,-24.0361,0,0,0,0,0,0,0,-1,1854,638,67.3083,24.0361
637,386,51.4513,-13.595,0,0,0,0,0,0,0,-1,1861,638,51.4513,13.595
644,386,11.6521,0.723328,0,0,0,0,0,0,0,-1,1868,638,11.6521,-0.723355
651,386,9.3866,1.31097,0,0,0,0,0,0,0,-1,1875,638,9.3866,-1.31095
658,386,12.0731,-0.00415039,0,0,0,0,0,0,0,-1,1882,638,12.0731,0.00412803
665,386,6.33167,1.78601,0,0,0,0,0,0,0,-1,1889,638,6.33171,-1.78601
672,386,7.23352,2.14435,0,0,0,0,0,0,0,-1,1896,638,7.23353,-2.14433
679,386,8.07764,2.57104,0,0,0,0,0,0,0,-1,1903,638,8.07758,-2.57103
686,386,0,0,0,0,0,0,0,0,0,-1,1910,638,0,0
693,386,0,0,0,0,0,0,0,0,0,-1,1917,638,0,0
700,386,0,0,0,0,0,0,0,0,0,-1,1924,638,0,0
707,386,0,0,0,0,0,0,0,0,0,-1,1931,638,0,0
714,386,0,0,0,0,0,0,0,0,0,-1,1938,638,0,0
721,386,0,0,0,0,0,0,0,0,0,-1,1945,638,0,0
728,386,0,0,0,0,0,0,0,0,0,-1,1952,638,0,0
735,386,0,0,0,0,0,0,0,0,0,-1,1959,638,0,0
742,386,0,0,0,0,0,0,0,0,0,-1,1966,638,0,0
749,386,0,0,0,0,0,0,0,0,0,-1,1973,638,0,0
756,386,0,0,0,0,0,0,0,0,0,-1,1980,638,0,0
763,386,0,0,0,0,0,0,0,0,0,-1,1987,638,0,0
770,386,0,0,0,0,0,0,0,0,0,-1,1994,638,0,0
777,386,0,0,0,0,0,0,0,0,0,-1,2001,638,0,0
784,386,0,0,0,0,0,0,0,0,0,-1,2008,638,0,0
791,386,0,0,0,0,0,0,0,0,0,-1,2015,638,0,0
798,386,0,0,0,0,0,0,0,0,0,-1,2022,638,0,0
805,386,0,0,0,0,0,0,0,0,0,-1,2029,638,0,0
812,386,0,0,0,0,0,0,0,0,0,-1,2036,638,0,0
-700,379,0,0,0,0,0,0,0,0,0,-1,524,645,0,0
-693,379,0,0,0,0,0,0,0,0,0,-1,531,645,0,0
-686,379,0,0,0,0,0,0,0,0,0,-1,538,645,0,0
-679,379,0,0,0,0,0,0,0,0,0,-1,545,645,0,0
-672,379,0,0,0,0,0,0,0,0,0,-1,552,645,0,0
-665,379,0,0,0,0,0,0,0,0,0,-1,559,645,0,0
-658,379,0,0,0,0,0,0,0,0,0,-1,566,645,0,0
-651,379,0,0,0,0,0,0,0,0,0,-1,573,645,0,0
-644,379,0,0,0,0,0,0,0,0,0,-1,580,645,0,0
-637,379,0,0,0,0,0,0,0,0,0,-1,587,645,0,0
-630,379,0,0,0,0,0,0,0,0,0,-1,594,645,0,0
-623,379,0,0,0,0,0,0,0,0,0,-1,601,645,0,0
-616,379,0,0,0,0,0,0,0,0,0,-1,608,645,0,0
-609,379,0,0,0,0,0,0,0,0,0,-1,615,645,0,0
-602,379,0,0,0,0,0,0,0,0,0,-1,622,645,0,0
-595,379,0,0,0,0,0,0,0,0,0,-1,629,645,0,0
-588,379,0,0,0,0,0,0,0,0,0,-1,636,645,0,0
-581,379,0,0,0,0,0,0,0,0,0,-1,643,645,0,0
-574,379,0,0,0,0,0,0,0,0,0,-1,650,645,0,0
-567,379,-8.78058,0.59668,0,0,0,0,0,0,0,-1,657,645,-8.7806,-0.596692
-560,379,-9.53485,-0.211304,0,0,0,0,0,0,0,-1,664,645,-9.53487,0.211282
-553,379,-5.17108,-4.53119,0,0,0,0,0,0,0,-1,671,645,-5.17106,4.53117
-546,379,-6.23053,-4.92102,0,0,0,0,0,0,0,-1,678,645,-6.23054,4.92105
-539,379,-0.71698,-2.19427,0,0,0,0,0,0,0,-1,685,645,-0.716959,2.19427
-532,379,-7.69611,0.217224,0,0,0,0,0,0,0,-1,692,645,-7.69614,-0.217204
-525,379,-7.09833,-1.13043,0,0,0,0,0,0,0,-1,699,645,-7.0983,1.13041
-518,379,-13.126,-5.33893,0,0,0,0,0,0,0,-1,706,645,-13.126,5.33895
-511,379,-38.2532,-12.7537,0,0,0,0,0,0,0,-1,713,645,-38.2533,12.7537
-504,379,-59.1049,-21.2596,0,0,0,0,0,0,0,-1,720,645,-59.1049,21.2597
-497,379,-59.6932,-24.1282,0.00344888,0.00348738,-0.00167687,0.00514512,0.00179115,-0.791137,0.00301587,0.0290158,727,645,-59.6932,24.1282
-490,379,-60.2372,-26.8597,0.00272722,0.00220129,-0.00115908,0.0036528,0.00127572,-0.673849,0.00214066,0.0166553,734,645,-60.2372,26.8597
-483,379,-60.763,-29.6214,0.00222037,0.0010492,-0.000717666,0.00256104,0.00070853,-0.443202,0.001527,0.0169027,741,645,-60.763,29.6214
-476,379,-61.2608,-32.3154,0.00186977,-4.07665e-05,-0.000296349,0.00191468,-8.56784e-05,-0.150406,0.00130595,0.0159796,748,645,-61.2608,32.3153
-469,379,-61.8151,-34.9913,0.00175619,-0.00103903,3.94283e-05,0.00175675,-0.00103959,0.0141018,0.00163207,0.0159163,755,645,-61.815,34.9913
-462,379,-62.3633,-37.731,0.00182005,-0.00190896,0.000284927,0.00184169,-0.0019306,0.0758219,0.00217814,0.0121457,762,645,-62.3633,37.731
-455,379,-62.8979,-40.4246,0.00203693,-0.0026448,0.00049009,0.00208769,-0.00269555,0.103191,0.00276903,0.0122028,769,645,-62.8979,40.4246
-448,379,-63.3864,-43.1078,0.00245689,-0.00327195,0.000589025,0.00251682,-0.00333188,0.101404,0.00338766,0.0165906,776,645,-63.3864,43.1078
-441,379,-63.8605,-45.9354,0,0,0,0,0,0,0,-1,783,645,-63.8605,45.9354
-434,379,-62.4454,-47.88,0,0,0,0,0,0,0,-1,790,645,-62.4455,47.88
-427,379,-4.16113,-4.13452,0,0,0,0,0,0,0,-1,797,645,-4.16116,4.1345
-420,379,-4.63953,-3.46869,0,0,0,0,0,0,0,-1,804,645,-4.63953,3.46872
-413,379,-4.62543,-3.7912,0,0,0,0,0,0,0,-1,811,645,-4.62541,3.79123
-406,379,-4.64063,-4.38489,0,0,0,0,0,0,0,-1,818,645,-4.64065,4.3849
-399,379,-2.93536,-1.40118,0,0,0,0,0,0,0,-1,825,645,-2.93534,1.40119
-392,379,-4.16711,-0.466003,0,0,0,0,0,0,0,-1,832,645,-4.16714,0.465992
-385,379,-3.51862,0.441101,0,0,0,0,0,0,0,-1,839,645,-3.51859,-0.441072
-378,379,-5.3504,0.212219,0,0,0,0,0,0,0,-1,846,645,-5.35038,-0.212241
-371,379,-4.32092,-0.186707,0,0,0,0,0,0,0,-1,853,645,-4.3209,0.186707
-364,379,-3.40887,-0.549805,0,0,0,0,0,0,0,-1,860,645,-3.4089,0.549802
-357,379,0,0,0,0,0,0,0,0,0,-1,867,645,0,0
-350,379,0,0,0,0,0,0,0,0,0,-1,874,645,0,0
-343,379,0,0,0,0,0,0,0,0,0,-1,881,645,0,0
-336,379,0,0,0,0,0,0,0,0,0,-1,888,645,0,0
-329,379,0,0,0,0,0,0,0,0,0,-1,895,645,0,0
-322,379,0,0,0,0,0,0,0,0,0,-1,902,645,0,0
-315,379,0,0,0,0,0,0,0,0,0,-1,909,645,0,0
-308,379,0,0,0,0,0,0,0,0,0,-1,916,645,0,0
-301,379,0,0,0,0,0,0,0,0,0,-1,923,645,0,0
-294,379,0,0,0,0,0,0,0,0,0,-1,930,645,0,0
-287,379,0,0,0,0,0,0,0,0,0,-1,937,645,0,0
-280,379,0,0,0,0,0,0,0,0,0,-1,944,645,0,0
-273,379,0,0,0,0,0,0,0,0,0,-1,951,645,0,0
-266,379,0,0,0,0,0,0,0,0,0,-1,958,645,0,0
-259,379,0,0,0,0,0,0,0,0,0,-1,965,645,0,0
-252,379,0,0,0,0,0,0,0,0,0,-1,972,645,0,0
-245,379,0,0,0,0,0,0,0,0,0,-1,979,645,0,0
-238,379,0,0,0,0,0,0,0,0,0,-1,986,645,0,0
-231,379,0,0,0,0,0,0,0,0,0,-1,993,645,0,0
-224,379,0,0,0,0,0,0,0,0,0,-1,1000,645,0,0
-217,379,0,0,0,0,0,0,0,0,0,-1,1007,645,0,0
-210,379,0,0,0,0,0,0,0,0,0,-1,1014,645,0,0
-203,379,0,0,0,0,0,0,0,0,0,-1,1021,645,0,0
-196,379,0,0,0,0,0,0,0,0,0,-1,1028,645,0,0
-189,379,0,0,0,0,0,0,0,0,0,-1,1035,645,0,0
-182,379,0,0,0,0,0,0,0,0,0,-1,1042,645,0,0
-175,379,0,0,0,0,0,0,0,0,0,-1,1049,645,0,0
-168,379,0,0,0,0,0,0,0,0,0,-1,1056,645,0,0
-161,379,0,0,0,0,0,0,0,0,0,-1,1063,645,0,0
-154,379,0,0,0,0,0,0,0,0,0,-1,1070,645,0,0
-147,379,0,0,0,0,0,0,0,0,0,-1,1077,645,0,0
-140,379,0,0,0,0,0,0,0,0,0,-1,1084,645,0,0
-133,379,0,0,0,0,0,0,0,0,0,-1,1091,645,0,0
-126,379,0,0,0,0,0,0,0,0,0,-1,1098,645,0,0
-119,379,0,0,0,0,0,0,0,0,0,-1,1105,645,0,0
-112,379,0,0,0,0,0,0,0,0,0,-1,1112,645,0,0
-105,379,0,0,0,0,0,0,0,0,0,-1,1119,645,0,0
-98,379,0,0,0,0,0,0,0,0,0,-1,1126,645,0,0
-91,379,0,0,0,0,0,0,0,0,0,-1,1133,645,0,0
-84,379,0,0,0,0,0,0,0,0,0,-1,1140,645,0,0
-77,379,0,0,0,0,0,0,0,0,0,-1,1147,645,0,0
-70,379,0,0,0,0,0,0,0,0,0,-1,1154,645,0,0
-63,379,0,0,0,0,0,0,0,0,0,-1,1161,645,0,0
-56,379,0,0,0,0,0,0,0,0,0,-1,1168,645,0,0
-49,379,0,0,0,0,0,0,0,0,0,-1,1175,645,0,0
-42,379,0,0,0,0,0,0,0,0,0,-1,1182,645,0,0
-35,379,0,0,0,0,0,0,0,0,0,-1,1189,645,0,0
-28,379,0,0,0,0,0,0,0,0,0,-1,1196,645,0,0
-21,379,0,0,0,0,0,0,0,0,0,-1,1203,645,0,0
-14,379,0,0,0,0,0,0,0,0,0,-1,1210,645,0,0
-7,379,0,0,0,0,0,0,0,0,0,-1,1217,645,0,0
0,379,0,0,0,0,0,0,0,0,0,-1,1224,645,0,0
7,379,0,0,0,0,0,0,0,0,0,-1,1231,645,0,0
14,379,0,0,0,0,0,0,0,0,0,-1,1238,645,0,0
21,379,0,0,0,0,0,0,0,0,0,-1,1245,645,0,0
28,379,0,0,0,0,0,0,0,0,0,-1,1252,645,0,0
35,379,0,0,0,0,0,0,0,0,0,-1,1259,645,0,0
42,379,0,0,0,0,0,0,0,0,0,-1,1266,645,0,0
49,379,0,0,0,0,0,0,0,0,0,-1,1273,645,0,0
56,379,0,0,0,0,0,0,0,0,0,-1,1280,645,0,0
63,379,0,0,0,0,0,0,0,0,0,-1,1287,645,0,0
70,379,0,0,0,0,0,0,0,0,0,-1,1294,645,0,0
77,379,0,0,0,0,0,0,0,0,0,-1,1301,645,0,0
84,379,0,0,0,0,0,0,0,0,0,-1,1308,645,0,0
91,379,0,0,0,0,0,0,0,0,0,-1,1315,645,0,0
98,379,0,0,0,0,0,0,0,0,0,-1,1322,645,0,0
105,379,0,0,0,0,0,0,0,0,0,-1,1329,645,0,0
112,379,0,0,0,0,0,0,0,0,0,-1,1336,645,0,0
119,379,0,0,0,0,0,0,0,0,0,-1,1343,645,0,0
126,379,0,0,0,0,0,0,0,0,0,-1,1350,645,0,0
133,379,0,0,0,0,0,0,0,0,0,-1,1357,645,0,0
140,379,0,0,0,0,0,0,0,0,0,-1,1364,645,0,0
147,379,0,0,0,0,0,0,0,0,0,-1,1371,645,0,0
154,379,0,0,0,0,0,0,0,0,0,-1,1378,645,0,0
161,379,0,0,0,0,0,0,0,0,0,-1,1385,645,0,0
168,379,0,0,0,0,0,0,0,0,0,-1,1392,645,0,0
175,379,0,0,0,0,0,0,0,0,0,-1,1399,645,0,0
182,379,0,0,0,0,0,0,0,0,0,-1,1406,645,0,0
189,379,0,0,0,0,0,0,0,0,0,-1,1413,645,0,0
196,379,0,0,0,0,0,0,0,0,0,-1,1420,645,0,0
203,379,0,0,0,0,0,0,0,0,0,-1,1427,645,0,0
210,379,0,0,0,0,0,0,0,0,0,-1,1434,645,0,0
217,379,0,0,0,0,0,0,0,0,0,-1,1441,645,0,0
224,379,0,0,0,0,0,0,0,0,0,-1,1448,645,0,0
231,379,0,0,0,0,0,0,0,0,0,-1,1455,645,0,0
238,379,0,0,0,0,0,0,0,0,0,-1,1462,645,0,0
245,379,0,0,0,0,0,0,0,0,0,-1,1469,645,0,0
252,379,0,0,0,0,0,0,0,0,0,-1,1476,645,0,0
259,379,0,0,0,0,0,0,0,0,0,-1,1483,645,0,0
266,379,0,0,0,0,0,0,0,0,0,-1,1490,645,0,0
273,379,0,0,0,0,0,0,0,0,0,-1,1497,645,0,0
280,379,0,0,0,0,0,0,0,0,0,-1,1504,645,0,0
287,379,0,0,0,0,0,0,0,0,0,-1,1511,645,0,0
294,379,0,0,0,0,0,0,0,0,0,-1,1518,645,0,0
301,379,0,0,0,0,0,0,0,0,0,-1,1525,645,0,0
308,379,0,0,0,0,0,0,0,0,0,-1,1532,645,0,0
315,379,0,0,0,0,0,0,0,0,0,-1,1539,645,0,0
322,379,0,0,0,0,0,0,0,0,0,-1,1546,645,0,0
329,379,0,0,0,0,0,0,0,0,0,-1,1553,645,0,0
336,379,0,0,0,0,0,0,0,0,0,-1,1560,645,0,0
343,379,0,0,0,0,0,0,0,0,0,-1,1567,645,0,0
350,379,0,0,0,0,0,0,0,0,0,-1,1574,645,0,0
357,379,0,0,0,0,0,0,0,0,0,-1,1581,645,0,0
364,379,0,0,0,0,0,0,0,0,0,-1,1588,645,0,0
371,379,0,0,0,0,0,0,0,0,0,-1,1595,645,0,0
378,379,0,0,0,0,0,0,0,0,0,-1,1602,645,0,0
385,379,0,0,0,0,0,0,0,0,0,-1,1609,645,0,0
392,379,0,0,0,0,0,0,0,0,0,-1,1616,645,0,0
399,379,0,0,0,0,0,0,0,0,0,-1,1623,645,0,0
406,379,0,0,0,0,0,0,0,0,0,-1,1630,645,0,0
413,379,0,0,0,0,0,0,0,0,0,-1,1637,645,0,0
420,379,0,0,0,0,0,0,0,0,0,-1,1644,645,0,0
427,379,0,0,0,0,0,0,0,0,0,-1,1651,645,0,0
434,379,0,0,0,0,0,0,0,0,0,-1,1658,645,0,0
441,379,0,0,0,0,0,0,0,0,0,-1,1665,645,0,0
448,379,0,0,0,0,0,0,0,0,0,-1,1672,645,0,0
455,379,0,0,0,0,0,0,0,0,0,-1,1679,645,0,0
462,379,0,0,0,0,0,0,0,0,0,-1,1686,645,0,0
469,379,0,0,0,0,0,0,0,0,0,-1,1693,645,0,0
476,379,11.1787,0.830383,0,0,0,0,0,0,0,-1,1700,645,11.1787,-0.830365
483,379,7.4231,1.54321,0,0,0,0,0,0,0,-1,1707,645,7.42314,-1.54324
490,379,8.52881,1.56677,0,0,0,0,0,0,0,-1,1714,645,8.52878,-1.56677
497,379,9.63599,1.49573,0,0,0,0,0,0,0,-1,1721,645,9.63604,-1.4957
504,379,10.0833,1.35229,0,0,0,0,0,0,0,-1,1728,645,10.0832,-1.35227
511,379,8.14343,1.59912,0,0,0,0,0,0,0,-1,1735,645,8.14347,-1.59912
518,379,12.7955,-0.324097,0,0,0,0,0,0,0,-1,1742,645,12.7955,0.324101
525,379,6.03711,1.10352,0,0,0,0,0,0,0,-1,1749,645,6.03711,-1.10351
532,379,8.70947,0.887817,0,0,0,0,0,0,0,-1,1756,645,8.70953,-0.887808
539,379,9.87097,0.111389,0,0,0,0,0,0,0,-1,1763,645,9.87095,-0.111395
546,379,8.42383,-0.730652,0,0,0,0,0,0,0,-1,1770,645,8.42378,0.730638
553,379,19.2905,-7.67834,0,0,0,0,0,0,0,-1,1777,645,19.2905,7.67837
560,379,71.6378,-47.4678,0,0,0,0,0,0,0,-1,1784,645,71.6378,47.4678
567,379,74.5281,-48.1691,0,0,0,0,0,0,0,-1,1791,645,74.5281,48.1691
574,379,74.3489,-45.1905,0.00735158,0.0057209,0.00638189,0.01297,0.000102473,0.721863,0.00861272,0.0228657,1798,645,74.3488,45.1905
581,379,73.8016,-42.4698,0.00580641,0.0046048,0.00507136,0.0103124,9.87765e-05,0.726438,0.00684227,0.0218827,1805,645,73.8016,42.4698
588,379,73.2675,-39.7353,0.00446168,0.00361677,0.00374939,0.00781234,0.00026611,0.729299,0.00512183,0.022455,1812,645,73.2675,39.7353
595,379,72.7567,-36.9902,0.00332901,0.00278188,0.00249776,0.00556814,0.000542749,0.730854,0.00354505,0.0187748,1819,645,72.7567,36.9902
602,379,72.2518,-34.295,0.00243624,0.00209201,0.00134071,0.00361584,0.00091241,0.721559,0.0021713,0.0226765,1826,645,72.2518,34.295
609,379,71.6816,-31.6837,0.00174575,0.0015359,0.000213789,0.00187897,0.00140267,0.557274,0.00112792,0.0290676,1833,645,71.6816,31.6837
616,379,71.1362,-28.9938,0.00132064,0.00114845,-0.000734946,0.00197452,0.000494572,-0.72709,0.00118636,0.0239231,1840,645,71.1363,28.9938
623,379,70.6152,-26.1871,0.00119716,0.000923055,-0.00143965,0.00250626,-0.000386048,-0.737942,0.00181328,0.0173157,1847,645,70.6152,26.1872
630,379,70.0555,-23.4835,0.0012511,0.000904562,-0.00196217,0.00304764,-0.000891972,-0.74136,0.00238534,0.0191904,1854,645,70.0555,23.4834
637,379,69.7203,-20.7521,0,0,0,0,0,0,0,-1,1861,645,69.7203,20.7521
644,379,49.4104,-10.7761,0,0,0,0,0,0,0,-1,1868,645,49.4104,10.7762
651,379,12.9515,0.220825,0,0,0,0,0,0,0,-1,1875,645,12.9515,-0.220814
658,379,13.7498,0.37439,0,0,0,0,0,0,0,-1,1882,645,13.7498,-0.374371
665,379,11.9719,0.353333,0,0,0,0,0,0,0,-1,1889,645,11.9719,-0.353321
672,379,7.57605,2.15326,0,0,0,0,0,0,0,-1,1896,645,7.57599,-2.15326
679,379,8.55078,2.50409,0,0,0,0,0,0,0,-1,1903,645,8.55073,-2.50406
686,379,0,0,0,0,0,0,0,0,0,-1,1910,645,0,0
693,379,0,0,0,0,0,0,0,0,0,-1,1917,645,0,0
700,379,0,0,0,0,0,0,0,0,0,-1,1924,645,0,0
707,379,0,0,0,0,0,0,0,0,0,-1,1931,645,0,0
714,379,0,0,0,0,0,0,0,0,0,-1,1938,645,0,0
721,379,0,0,0,0,0,0,0,0,0,-1,1945,645,0,0
728,379,0,0,0,0,0,0,0,0,0,-1,1952,645,0,0
735,379,0,0,0,0,0,0,0,0,0,-1,1959,645,0,0
742,379,0,0,0,0,0,0,0,0,0,-1,1966,645,0,0
749,379,0,0,0,0,0,0,0,0,0,-1,1973,645,0,0
756,379,0,0,0,0,0,0,0,0,0,-1,1980,645,0,0
763,379,0,0,0,0,0,0,0,0,0,-1,1987,645,0,0
770,379,0,0,0,0,0,0,0,0,0,-1,1994,645,0,0
777,379,0,0,0,0,0,0,0,0,0,-1,2001,645,0,0
784,379,0,0,0,0,0,0,0,0,0,-1,2008,645,0,0
791,379,0,0,0,0,0,0,0,0,0,-1,2015,645,0,0
798,379,0,0,0,0,0,0,0,0,0,-1,2022,645,0,0
805,379,0,0,0,0,0,0,0,0,0,-1,2029,645,0,0
812,379,0,0,0,0,0,0,0,0,0,-1,2036,645,0,0
-700,372,0,0,0,0,0,0,0,0,0,-1,524,652,0,0
-693,372,0,0,0,0,0,0,0,0,0,-1,531,652,0,0
-686,372,0,0,0,0,0,0,0,0,0,-1,538,652,0,0
-679,372,0,0,0,0,0,0,0,0,0,-1,545,652,0,0
-672,372,0,0,0,0,0,0,0,0,0,-1,552,652,0,0
-665,372,0,0,0,0,0,0,0,0,0,-1,559,652,0,0
-658,372,0,0,0,0,0,0,0,0,0,-1,566,652,0,0
-651,372,0,0,0,0,0,0,0,0,0,-1,573,652,0,0
-644,372,0,0,0,0,0,0,0,0,0,-1,580,652,0,0
-637,372,0,0,0,0,0,0,0,0,0,-1,587,652,0,0
-630,372,0,0,0,0,0,0,0,0,0,-1,594,652,0,0
-623,372,0,0,0,0,0,0,0,0,0,-1,601,652,0,0
-616,372,0,0,0,0,0,0,0,0,0,-1,608,652,0,0
-609,372,0,0,0,0,0,0,0,0,0,-1,615,652,0,0
-602,372,0,0,0,0,0,0,0,0,0,-1,622,652,0,0
-595,372,0,0,0,0,0,0,0,0,0,-1,629,652,0,0
-588,372,0,0,0,0,0,0,0,0,0,-1,636,652,0,0
-581,372,0,0,0,0,0,0,0,0,0,-1,643,652,0,0
-574,372,0,0,0,0,0,0,0,0,0,-1,650,652,0,0
-567,372,-7.93744,0.73407,0,0,0,0,0,0,0,-1,657,652,-7.93741,-0.734076
-560,372,-8.78552,-0.158203,0,0,0,0,0,0,0,-1,664,652,-8.78552,0.158216
-553,372,-7.95551,1.61694,0,0,0,0,0,0,0,-1,671,652,-7.95552,-1.61697
-546,372,-4.2403,-3.75372,0,0,0,0,0,0,0,-1,678,652,-4.24028,3.75369
-539,372,-7.92285,-0.0650024,0,0,0,0,0,0,0,-1,685,652,-7.92287,0.0649772
-532,372,-8.59589,-0.419556,0,0,0,0,0,0,0,-1,692,652,-8.59591,0.419539
-525,372,-8.03674,-1.36804,0,0,0,0,0,0,0,-1,699,652,-8.03676,1.36806
-518,372,-39.8794,-10.6113,0,0,0,0,0,0,0,-1,706,652,-39.8794,10.6113
-511,372,-61.3513,-18.0561,0,0,0,0,0,0,0,-1,713,652,-61.3513,18.0561
-504,372,-61.8519,-20.8478,0.0044371,0.00398261,-0.00169688,0.00592188,0.00249783,-0.718835,0.00343291,0.0373516,720,652,-61.8518,20.8478
-497,372,-62.3845,-23.626,0.00348463,0.00266602,-0.00122544,0.00436732,0.00178333,-0.624219,0.00253556,0.0171553,727,652,-62.3845,23.626
-490,372,-62.9653,-26.3122,0.00280184,0.00140177,-0.000763903,0.00313795,0.00106566,-0.414499,0.00184251,0.018571,734,652,-62.9653,26.3122
-483,372,-63.4751,-29.0154,0.00231196,0.000257642,-0.000381996,0.0023807,0.00018891,-0.178023,0.00152806,0.0170208,741,652,-63.4751,29.0154
-476,372,-63.9669,-31.7025,0.00195929,-0.00076827,-3.61984e-05,0.00195977,-0.000768751,-0.0132682,0.00162457,0.0177414,748,652,-63.9669,31.7024
-469,372,-64.5218,-34.3931,0.0018513,-0.00167611,0.000198472,0.00186243,-0.00168724,0.0560301,0.00205023,0.0139643,755,652,-64.5218,34.3931
-462,372,-65.0859,-37.114,0.00193939,-0.00246356,0.000345903,0.0019664,-0.00249057,0.0779247,0.00257915,0.0125471,762,652,-65.0859,37.1139
-455,372,-65.6163,-39.8231,0.0021965,-0.0031408,0.000456019,0.00223518,-0.00317948,0.0846228,0.00314196,0.0134013,769,652,-65.6163,39.823
-448,372,-66.1181,-42.5017,0.00269046,-0.00366604,0.000423563,0.00271856,-0.00369414,0.0662443,0.00371663,0.026952,776,652,-66.1181,42.5017
-441,372,-66.5958,-45.2805,0,0,0,0,0,0,0,-1,783,652,-66.5958,45.2805
-434,372,-9.86865,-9.68494,0,0,0,0,0,0,0,-1,790,652,-9.86863,9.68492
-427,372,-4.54248,-3.56268,0,0,0,0,0,0,0,-1,797,652,-4.54247,3.56266
-420,372,-4.66168,-2.93597,0,0,0,0,0,0,0,-1,804,652,-4.66166,2.93599
-413,372,-4.74762,-3.29541,0,0,0,0,0,0,0,-1,811,652,-4.74763,3.29542
-406,372,-0.885437,-0.583923,0,0,0,0,0,0,0,-1,818,652,-0.885437,0.5839
-399,372,-3.97357,-0.825012,0,0,0,0,0,0,0,-1,825,652,-3.97359,0.825037
-392,372,-7.64337,0.173035,0,0,0,0,0,0,0,-1,832,652,-7.64337,-0.173019
-385,372,-6.48871,-0.0271606,0,0,0,0,0,0,0,-1,839,652,-6.48874,0.0271353
-378,372,-5.33044,-0.242432,0,0,0,0,0,0,0,-1,846,652,-5.33042,0.242457
-371,372,-4.40802,-0.495667,0,0,0,0,0,0,0,-1,853,652,-4.40802,0.495661
-364,372,0,0,0,0,0,0,0,0,0,-1,860,652,0,0
-357,372,0,0,0,0,0,0,0,0,0,-1,867,652,0,0
-350,372,0,0,0,0,0,0,0,0,0,-1,874,652,0,0
-343,372,0,0,0,0,0,0,0,0,0,-1,881,652,0,0
-336,372,0,0,0,0,0,0,0,0,0,-1,888,652,0,0
-329,372,0,0,0,0,0,0,0,0,0,-1,895,652,0,0
-322,372,0,0,0,0,0,0,0,0,0,-1,902,652,0,0
-315,372,0,0,0,0,0,0,0,0,0,-1,909,652,0,0
-308,372,0,0,0,0,0,0,0,0,0,-1,916,652,0,0
-301,372,0,0,0,0,0,0,0,0,0,-1,923,652,0,0
-294,372,0,0,0,0,0,0,0,0,0,-1,930,652,0,0
-287,372,0,0,0,0,0,0,0,0,0,-1,937,652,0,0
-280,372,0,0,0,0,0,0,0,0,0,-1,944,652,0,0
-273,372,0,0,0,0,0,0,0,0,0,-1,951,652,0,0
-266,372,0,0,0,0,0,0,0,0,0,-1,958,652,0,0
-259,372,0,0,0,0,0,0,0,0,0,-1,965,652,0,0
-252,372,0,0,0,0,0,0,0,0,0,-1,972,652,0,0
-245,372,0,0,0,0,0,0,0,0,0,-1,979,652,0,0
-238,372,0,0,0,0,0,0,0,0,0,-1,986,652,0,0
-231,372,0,0,0,0,0,0,0,0,0,-1,993,652,0,0
-224,372,0,0,0,0,0,0,0,0,0,-1,1000,652,0,0
-217,372,0,0,0,0,0,0,0,0,0,-1,1007,652,0,0
-210,372,0,0,0,0,0,0,0,0,0,-1,1014,652,0,0
-203,372,0,0,0,0,0,0,0,0,0,-1,1021,652,0,0
-196,372,0,0,0,0,0,0,0,0,0,-1,1028,652,0,0
-189,372,0,0,0,0,0,0,0,0,0,-1,1035,652,0,0
-182,372,0,0,0,0,0,0,0,0,0,-1,1042,652,0,0
-175,372,0,0,0,0,0,0,0,0,0,-1,1049,652,0,0
-168,372,0,0,0,0,0,0,0,0,0,-1,1056,652,0,0
-161,372,0,0,0,0,0,0,0,0,0,-1,1063,652,0,0
-154,372,0,0,0,0,0,0,0,0,0,-1,1070,652,0,0
-147,372,0,0,0,0,0,0,0,0,0,-1,1077,652,0,0
-140,372,0,0,0,0,0,0,0,0,0,-1,1084,652,0,0
-133,372,0,0,0,0,0,0,0,0,0,-1,1091,652,0,0
-126,372,0,0,0,0,0,0,0,0,0,-1,1098,652,0,0
-119,372,0,0,0,0,0,0,0,0,0,-1,1105,652,0,0
-112,372,0,0,0,0,0,0,0,0,0,-1,1112,652,0,0
-105,372,0,0,0,0,0,0,0,0,0,-1,1119,652,0,0
-98,372,0,0,0,0,0,0,0,0,0,-1,1126,652,0,0
-91,372,0,0,0,0,0,0,0,0,0,-1,1133,652,0,0
-84,372,0,0,0,0,0,0,0,0,0,-1,1140,652,0,0
-77,372,0,0,0,0,0,0,0,0,0,-1,1147,652,0,0
-70,372,0,0,0,0,0,0,0,0,0,-1,1154,652,0,0
-63,372,0,0,0,0,0,0,0,0,0,-1,1161,652,0,0
-56,372,0,0,0,0,0,0,0,0,0,-1,1168,652,0,0
-49,372,0,0,0,0,0,0,0,0,0,-1,1175,652,0,0
-42,372,0,0,0,0,0,0,0,0,0,-1,1182,652,0,0
-35,372,0,0,0,0,0,0,0,0,0,-1,1189,652,0,0
-28,372,0,0,0,0,0,0,0,0,0,-1,1196,652,0,0
-21,372,0,0,0,0,0,0,0,0,0,-1,1203,652,0,0
-14,372,0,0,0,0,0,0,0,0,0,-1,1210,652,0,0
-7,372,0,0,0,0,0,0,0,0,0,-1,1217,652,0,0
0,372,0,0,0,0,0,0,0,0,0,-1,1224,652,0,0
7,372,0,0,0,0,0,0,0,0,0,-1,1231,652,0,0
14,372,0,0,0,0,0,0,0,0,0,-1,1238,652,0,0
21,372,0,0,0,0,0,0,0,0,0,-1,1245,652,0,0
28,372,0,0,0,0,0,0,0,0,0,-1,1252,652,0,0
35,372,0,0,0,0,0,0,0,0,0,-1,1259,652,0,0
42,372,0,0,0,0,0,0,0,0,0,-1,1266,652,0,0
49,372,0,0,0,0,0,0,0,0,0,-1,1273,652,0,0
56,372,0,0,0,0,0,0,0,0,0,-1,1280,652,0,0
63,372,0,0,0,0,0,0,0,0,0,-1,1287,652,0,0
70,372,0,0,0,0,0,0,0,0,0,-1,1294,652,0,0
77,372,0,0,0,0,0,0,0,0,0,-1,1301,652,0,0
84,372,0,0,0,0,0,0,0,0,0,-1,1308,652,0,0
91,372,0,0,0,0,0,0,0,0,0,-1,1315,652,0,0
98,372,0,0,0,0,0,0,0,0,0,-1,1322,652,0,0
105,372,0,0,0,0,0,0,0,0,0,-1,1329,652,0,0
112,372,0,0,0,0,0,0,0,0,0,-1,1336,652,0,0
119,372,0,0,0,0,0,0,0,0,0,-1,1343,652,0,0
126,372,0,0,0,0,0,0,0,0,0,-1,1350,652,0,0
133,372,0,0,0,0,0,0,0,0,0,-1,1357,652,0,0
140,372,0,0,0,0,0,0,0,0,0,-1,1364,652,0,0
147,372,0,0,0,0,0,0,0,0,0,-1,1371,652,0,0
154,372,0,0,0,0,0,0,0,0,0,-1,1378,652,0,0
161,372,0,0,0,0,0,0,0,0,0,-1,1385,652,0,0
168,372,0,0,0,0,0,0,0,0,0,-1,1392,652,0,0
175,372,0,0,0,0,0,0,0,0,0,-1,1399,652,0,0
182,372,0,0,0,0,0,0,0,0,0,-1,1406,652,0,0
189,372,0,0,0,0,0,0,0,0,0,-1,1413,652,0,0
196,372,0,0,0,0,0,0,0,0,0,-1,1420,652,0,0
203,372,0,0,0,0,0,0,0,0,0,-1,1427,652,0,0
210,372,0,0,0,0,0,0,0,0,0,-1,1434,652,0,0
217,372,0,0,0,0,0,0,0,0,0,-1,1441,652,0,0
224,372,0,0,0,0,0,0,0,0,0,-1,1448,652,0,0
231,372,0,0,0,0,0,0,0,0,0,-1,1455,652,0,0
238,372,0,0,0,0,0,0,0,0,0,-1,1462,652,0,0
245,372,0,0,0,0,0,0,0,0,0,-1,1469,652,0,0
252,372,0,0,0,0,0,0,0,0,0,-1,1476,652,0,0
259,372,0,0,0,0,0,0,0,0,0,-1,1483,652,0,0
266,372,0,0,0,0,0,0,0,0,0,-1,1490,652,0,0
273,372,0,0,0,0,0,0,0,0,0,-1,1497,652,0,0
280,372,0,0,0,0,0,0,0,0,0,-1,1504,652,0,0
287,372,0,0,0,0,0,0,0,0,0,-1,1511,652,0,0
294,372,0,0,0,0,0,0,0,0,0,-1,1518,652,0,0
301,372,0,0,0,0,0,0,0,0,0,-1,1525,652,0,0
308,372,0,0,0,0,0,0,0,0,0,-1,1532,652,0,0
315,372,0,0,0,0,0,0,0,0,0,-1,1539,652,0,0
322,372,0,0,0,0,0,0,0,0,0,-1,1546,652,0,0
329,372,0,0,0,0,0,0,0,0,0,-1,1553,652,0,0
336,372,0,0,0,0,0,0,0,0,0,-1,1560,652,0,0
343,372,0,0,0,0,0,0,0,0,0,-1,1567,652,0,0
350,372,0,0,0,0,0,0,0,0,0,-1,1574,652,0,0
357,372,0,0,0,0,0,0,0,0,0,-1,1581,652,0,0
364,372,0,0,0,0,0,0,0,0,0,-1,1588,652,0,0
371,372,0,0,0,0,0,0,0,0,0,-1,1595,652,0,0
378,372,0,0,0,0,0,0,0,0,0,-1,1602,652,0,0
385,372,0,0,0,0,0,0,0,0,0,-1,1609,652,0,0
392,372,0,0,0,0,0,0,0,0,0,-1,1616,652,0,0
399,372,0,0,0,0,0,0,0,0,0,-1,1623,652,0,0
406,372,0,0,0,0,0,0,0,0,0,-1,1630,652,0,0
413,372,0,0,0,0,0,0,0,0,0,-1,1637,652,0,0
420,372,0,0,0,0,0,0,0,0,0,-1,1644,652,0,0
427,372,0,0,0,0,0,0,0,0,0,-1,1651,652,0,0
434,372,0,0,0,0,0,0,0,0,0,-1,1658,652,0,0
441,372,0,0,0,0,0,0,0,0,0,-1,1665,652,0,0
448,372,0,0,0,0,0,0,0,0,0,-1,1672,652,0,0
455,372,0,0,0,0,0,0,0,0,0,-1,1679,652,0,0
462,372,0,0,0,0,0,0,0,0,0,-1,1686,652,0,0
469,372,0,0,0,0,0,0,0,0,0,-1,1693,652,0,0
476,372,0,0,0,0,0,0,0,0,0,-1,1700,652,0,0
483,372,8.74182,1.53125,0,0,0,0,0,0,0,-1,1707,652,8.74186,-1.53126
490,372,9.78455,1.67096,0,0,0,0,0,0,0,-1,1714,652,9.7846,-1.67093
497,372,9.97644,1.46069,0,0,0,0,0,0,0,-1,1721,652,9.97647,-1.46071
504,372,10.1216,1.28375,0,0,0,0,0,0,0,-1,1728,652,10.1216,-1.28376
511,372,11.7367,-0.0272217,0,0,0,0,0,0,0,-1,1735,652,11.7367,0.0272326
518,372,12.0657,-0.0995483,0,0,0,0,0,0,0,-1,1742,652,12.0657,0.0995285
525,372,12.3947,-0.171814,0,0,0,0,0,0,0,-1,1749,652,12.3946,0.171824
532,372,9.36597,1.72034,0,0,0,0,0,0,0,-1,1756,652,9.36597,-1.72036
539,372,7.82886,-0.0865479,0,0,0,0,0,0,0,-1,1763,652,7.82882,0.0865771
546,372,10.953,-0.187195,0,0,0,0,0,0,0,-1,1770,652,10.953,0.187181
553,372,14.1201,-4.83234,0,0,0,0,0,0,0,-1,1777,652,14.1201,4.83235
560,372,73.8258,-45.9283,0,0,0,0,0,0,0,-1,1784,652,73.8258,45.9284
567,372,77.1294,-46.5966,0,0,0,0,0,0,0,-1,1791,652,77.1294,46.5965
574,372,77.1864,-44.8258,0,0,0,0,0,0,0,-1,1798,652,77.1864,44.8258
581,372,76.448,-41.9557,0.00669899,0.00566346,0.00627114,0.0124737,-0.000111252,0.74421,0.00835313,0.0419709,1805,652,76.4481,41.9558
588,372,75.9286,-39.2517,0.00520137,0.00449549,0.0047541,0.00961562,8.12421e-05,0.748346,0.0063835,0.0213095,1812,652,75.9285,39.2517
595,372,75.4226,-36.5212,0.00398668,0.00348464,0.00333409,0.00707919,0.000392131,0.747825,0.00459433,0.0192309,1819,652,75.4226,36.5213
602,372,74.9951,-33.77,0.00306389,0.00264187,0.00206296,0.00492661,0.000779152,0.734433,0.00305795,0.0323746,1826,652,74.9951,33.77
609,372,74.3188,-31.1291,0.00234757,0.00193626,0.000865553,0.00303157,0.00125227,0.668762,0.00175907,0.0409629,1833,652,74.3189,31.1291
616,372,73.7655,-28.4174,0.00192703,0.00138713,-0.000111503,0.00194915,0.00136501,-0.195854,0.00115505,0.0368601,1840,652,73.7655,28.4173
623,372,73.3021,-25.6274,0.00179535,0.00104312,-0.000869613,0.0023667,0.000471774,-0.581293,0.00144642,0.0199888,1847,652,73.3021,25.6274
630,372,72.8091,-22.932,0.00188236,0.000870753,-0.00138963,0.00285538,-0.000102264,-0.610859,0.00193857,0.0220356,1854,652,72.8091,22.932
637,372,72.3259,-20.2806,0.00214503,0.000877948,-0.00162563,0.00325621,-0.000233233,-0.599591,0.00225258,0.0396156,1861,652,72.326,20.2807
644,372,71.9178,-17.5912,0,0,0,0,0,0,0,-1,1868,652,71.9178,17.5912
651,372,21.3998,-0.888,0,0,0,0,0,0,0,-1,1875,652,21.3998,0.887992
658,372,14.157,0.280273,0,0,0,0,0,0,0,-1,1882,652,14.157,-0.280264
665,372,15.2286,0.463867,0,0,0,0,0,0,0,-1,1889,652,15.2287,-0.463854
672,372,9.34106,1.48444,0,0,0,0,0,0,0,-1,1896,652,9.34109,-1.48444
679,372,10.7308,2.32391,0,0,0,0,0,0,0,-1,1903,652,10.7309,-2.3239
686,372,11.6295,2.52997,0,0,0,0,0,0,0,-1,1910,652,11.6296,-2.52996
693,372,0,0,0,0,0,0,0,0,0,-1,1917,652,0,0
700,372,0,0,0,0,0,0,0,0,0,-1,1924,652,0,0
707,372,0,0,0,0,0,0,0,0,0,-1,1931,652,0,0
714,372,0,0,0,0,0,0,0,0,0,-1,1938,652,0,0
721,372,0,0,0,0,0,0,0,0,0,-1,1945,652,0,0
728,372,0,0,0,0,0,0,0,0,0,-1,1952,652,0,0
735,372,0,0,0,0,0,0,0,0,0,-1,1959,652,0,0
742,372,0,0,0,0,0,0,0,0,0,-1,1966,652,0,0
749,372,0,0,0,0,0,0,0,0,0,-1,1973,652,0,0
756,372,0,0,0,0,0,0,0,0,0,-1,1980,652,0,0
763,372,0,0,0,0,0,0,0,0,0,-1,1987,652,0,0
770,372,0,0,0,0,0,0,0,0,0,-1,1994,652,0,0
777,372,0,0,0,0,0,0,0,0,0,-1,2001,652,0,0
784,372,0,0,0,0,0,0,0,0,0,-1,2008,652,0,0
791,372,0,0,0,0,0,0,0,0,0,-1,2015,652,0,0
798,372,0,0,0,0,0,0,0,0,0,-1,2022,652,0,0
805,372,0,0,0,0,0,0,0,0,0,-1,2029,652,0,0
812,372,0,0,0,0,0,0,0,0,0,-1,2036,652,0,0
-700,365,0,0,0,0,0,0,0,0,0,-1,524,659,0,0
-693,365,0,0,0,0,0,0,0,0,0,-1,531,659,0,0
-686,365,0,0,0,0,0,0,0,0,0,-1,538,659,0,0
-679,365,0,0,0,0,0,0,0,0,0,-1,545,659,0,0
-672,365,0,0,0,0,0,0,0,0,0,-1,552,659,0,0
-665,365,0,0,0,0,0,0,0,0,0,-1,559,659,0,0
-658,365,0,0,0,0,0,0,0,0,0,-1,566,659,0,0
-651,365,0,0,0,0,0,0,0,0,0,-1,573,659,0,0
-644,365,0,0,0,0,0,0,0,0,0,-1,580,659,0,0
-637,365,0,0,0,0,0,0,0,0,0,-1,587,659,0,0
-630,365,0,0,0,0,0,0,0,0,0,-1,594,659,0,0
-623,365,0,0,0,0,0,0,0,0,0,-1,601,659,0,0
-616,365,0,0,0,0,0,0,0,0,0,-1,608,659,0,0
-609,365,0,0,0,0,0,0,0,0,0,-1,615,659,0,0
-602,365,0,0,0,0,0,0,0,0,0,-1,622,659,0,0
-595,365,0,0,0,0,0,0,0,0,0,-1,629,659,0,0
-588,365,0,0,0,0,0,0,0,0,0,-1,636,659,0,0
-581,365,0,0,0,0,0,0,0,0,0,-1,643,659,0,0
-574,365,-7.69281,1.59015,0,0,0,0,0,0,0,-1,650,659,-7.69282,-1.59018
-567,365,-8.2583,1.72638,0,0,0,0,0,0,0,-1,657,659,-8.25827,-1.72637
-560,365,-7.17767,0.275757,0,0,0,0,0,0,0,-1,664,659,-7.17768,-0.27577
-553,365,-10.0349,-0.169617,0,0,0,0,0,0,0,-1,671,659,-10.0349,0.169593
-546,365,-10.6303,-1.51642,0,0,0,0,0,0,0,-1,678,659,-10.6303,1.5164
-539,365,-8.38599,1.52936,0,0,0,0,0,0,0,-1,685,659,-8.38598,-1.52935
-532,365,-8.52863,0.166504,0,0,0,0,0,0,0,-1,692,659,-8.52863,-0.166501
-525,365,-9.28229,-2.62726,0,0,0,0,0,0,0,-1,699,659,-9.28227,2.62724
-518,365,-51.3718,-12.6115,0,0,0,0,0,0,0,-1,706,659,-51.3718,12.6115
-511,365,-64.0307,-17.6251,0,0,0,0,0,0,0,-1,713,659,-64.0307,17.6251
-504,365,-64.576,-20.3495,0.00454643,0.00310836,-0.00122533,0.00524811,0.00240667,-0.520067,0.00303346,0.01591,720,659,-64.576,20.3495
-497,365,-65.1129,-23.0933,0.00357793,0.00186078,-0.000810275,0.0038999,0.0015388,-0.378233,0.00226823,0.0167406,727,659,-65.1129,23.0933
-490,365,-65.647,-25.7933,0.00284735,0.000719762,-0.000446777,0.00293736,0.000629751,-0.198807,0.00178573,0.018896,734,659,-65.647,25.7933
-483,365,-66.187,-28.4508,0.0023375,-0.000308897,-0.00016201,0.00234738,-0.000318779,-0.0609158,0.00168128,0.0172055,741,659,-66.1869,28.4508
-476,365,-66.6124,-31.1895,0.00198045,-0.00119989,7.62549e-05,0.00198227,-0.00120172,0.0239586,0.0018566,0.0255973,748,659,-66.6124,31.1895
-469,365,-67.1744,-33.8593,0.00187939,-0.00196704,0.000199169,0.00188968,-0.00197733,0.0515961,0.00223281,0.0268052,755,659,-67.1744,33.8592
-462,365,-67.7752,-36.5008,0.00200748,-0.0026352,0.000246904,0.00202058,-0.00264829,0.0529821,0.00270368,0.0203318,762,659,-67.7752,36.5008
-455,365,-68.2925,-39.2414,0.00232613,-0.00323938,0.000280985,0.00234028,-0.00325353,0.0503162,0.0032439,0.027684,769,659,-68.2925,39.2414
-448,365,-68.8594,-41.9557,0,0,0,0,0,0,0,-1,776,659,-68.8595,41.9557
-441,365,-16.9571,-15.1896,0,0,0,0,0,0,0,-1,783,659,-16.9571,15.1896
-434,365,-5.45056,-3.98041,0,0,0,0,0,0,0,-1,790,659,-5.45055,3.98042
-427,365,-5.05377,-4.74689,0,0,0,0,0,0,0,-1,797,659,-5.05376,4.7469
-420,365,-4.58813,-3.16376,0,0,0,0,0,0,0,-1,804,659,-4.58816,3.16374
-413,365,0.141357,0.672729,0,0,0,0,0,0,0,-1,811,659,0.141365,-0.672714
-406,365,-1.75067,-0.934448,0,0,0,0,0,0,0,-1,818,659,-1.7507,0.934424
-399,365,-4.10242,-1.25439,0,0,0,0,0,0,0,-1,825,659,-4.10244,1.25438
-392,365,-7.46545,-0.779724,0,0,0,0,0,0,0,-1,832,659,-7.46543,0.779744
-385,365,-6.27875,-0.887573,0,0,0,0,0,0,0,-1,839,659,-6.27874,0.887545
-378,365,-5.34503,-0.263306,0,0,0,0,0,0,0,-1,846,659,-5.34504,0.263275
-371,365,0,0,0,0,0,0,0,0,0,-1,853,659,0,0
-364,365,0,0,0,0,0,0,0,0,0,-1,860,659,0,0
-357,365,0,0,0,0,0,0,0,0,0,-1,867,659,0,0
-350,365,0,0,0,0,0,0,0,0,0,-1,874,659,0,0
-343,365,0,0,0,0,0,0,0,0,0,-1,881,659,0,0
-336,365,0,0,0,0,0,0,0,0,0,-1,888,659,0,0
-329,365,0,0,0,0,0,0,0,0,0,-1,895,659,0,0
-322,365,0,0,0,0,0,0,0,0,0,-1,902,659,0,0
-315,365,0,0,0,0,0,0,0,0,0,-1,909,659,0,0
-308,365,0,0,0,0,0,0,0,0,0,-1,916,659,0,0
-301,365,0,0,0,0,0,0,0,0,0,-1,923,659,0,0
-294,365,0,0,0,0,0,0,0,0,0,-1,930,659,0,0
-287,365,0,0,0,0,0,0,0,0,0,-1,937,659,0,0
-280,365,0,0,0,0,0,0,0,0,0,-1,944,659,0,0
-273,365,0,0,0,0,0,0,0,0,0,-1,951,659,0,0
-266,365,0,0,0,0,0,0,0,0,0,-1,958,659,0,0
-259,365,0,0,0,0,0,0,0,0,0,-1,965,659,0,0
-252,365,0,0,0,0,0,0,0,0,0,-1,972,659,0,0
-245,365,0,0,0,0,0,0,0,0,0,-1,979,659,0,0
-238,365,0,0,0,0,0,0,0,0,0,-1,986,659,0,0
-231,365,0,0,0,0,0,0,0,0,0,-1,993,659,0,0
-224,365,0,0,0,0,0,0,0,0,0,-1,1000,659,0,0
-217,365,0,0,0,0,0,0,0,0,0,-1,1007,659,0,0
-210,365,0,0,0,0,0,0,0,0,0,-1,1014,659,0,0
-203,365,0,0,0,0,0,0,0,0,0,-1,1021,659,0,0
-196,365,0,0,0,0,0,0,0,0,0,-1,1028,659,0,0
-189,365,0,0,0,0,0,0,0,0,0,-1,1035,659,0,0
-182,365,0,0,0,0,0,0,0,0,0,-1,1042,659,0,0
-175,365,0,0,0,0,0,0,0,0,0,-1,1049,659,0,0
-168,365,0,0,0,0,0,0,0,0,0,-1,1056,659,0,0
-161,365,0,0,0,0,0,0,0,0,0,-1,1063,659,0,0
-154,365,0,0,0,0,0,0,0,0,0,-1,1070,659,0,0
-147,365,0,0,0,0,0,0,0,0,0,-1,1077,659,0,0
-140,365,0,0,0,0,0,0,0,0,0,-1,1084,659,0,0
-133,365,0,0,0,0,0,0,0,0,0,-1,1091,659,0,0
-126,365,0,0,0,0,0,0,0,0,0,-1,1098,659,0,0
-119,365,0,0,0,0,0,0,0,0,0,-1,1105,659,0,0
-112,365,0,0,0,0,0,0,0,0,0,-1,1112,659,0,0
-105,365,0,0,0,0,0,0,0,0,0,-1,1119,659,0,0
-98,365,0,0,0,0,0,0,0,0,0,-1,1126,659,0,0
-91,365,0,0,0,0,0,0,0,0,0,-1,1133,659,0,0
-84,365,0,0,0,0,0,0,0,0,0,-1,1140,659,0,0
-77,365,0,0,0,0,0,0,0,0,0,-1,1147,659,0,0
-70,365,0,0,0,0,0,0,0,0,0,-1,1154,659,0,0
-63,365,0,0,0,0,0,0,0,0,0,-1,1161,659,0,0
-56,365,0,0,0,0,0,0,0,0,0,-1,1168,659,0,0
-49,365,0,0,0,0,0,0,0,0,0,-1,1175,659,0,0
-42,365,0,0,0,0,0,0,0,0,0,-1,1182,659,0,0
-35,365,0,0,0,0,0,0,0,0,0,-1,1189,659,0,0
-28,365,0,0,0,0,0,0,0,0,0,-1,1196,659,0,0
-21,365,0,0,0,0,0,0,0,0,0,-1,1203,659,0,0
-14,365,0,0,0,0,0,0,0,0,0,-1,1210,659,0,0
-7,365,0,0,0,0,0,0,0,0,0,-1,1217,659,0,0
0,365,0,0,0,0,0,0,0,0,0,-1,1224,659,0,0
7,365,0,0,0,0,0,0,0,0,0,-1,1231,659,0,0
14,365,0,0,0,0,0,0,0,0,0,-1,1238,659,0,0
21,365,0,0,0,0,0,0,0,0,0,-1,1245,659,0,0
28,365,0,0,0,0,0,0,0,0,0,-1,1252,659,0,0
35,365,0,0,0,0,0,0,0,0,0,-1,1259,659,0,0
42,365,0,0,0,0,0,0,0,0,0,-1,1266,659,0,0
49,365,0,0,0,0,0,0,0,0,0,-1,1273,659,0,0
56,365,0,0,0,0,0,0,0,0,0,-1,1280,659,0,0
63,365,0,0,0,0,0,0,0,0,0,-1,1287,659,0,0
70,365,0,0,0,0,0,0,0,0,0,-1,1294,659,0,0
77,365,0,0,0,0,0,0,0,0,0,-1,1301,659,0,0
84,365,0,0,0,0,0,0,0,0,0,-1,1308,659,0,0
91,365,0,0,0,0,0,0,0,0,0,-1,1315,659,0,0
98,365,0,0,0,0,0,0,0,0,0,-1,1322,659,0,0
105,365,0,0,0,0,0,0,0,0,0,-1,1329,659,0,0
112,365,0,0,0,0,0,0,0,0,0,-1,1336,659,0,0
119,365,0,0,0,0,0,0,0,0,0,-1,1343,659,0,0
126,365,0,0,0,0,0,0,0,0,0,-1,1350,659,0,0
133,365,0,0,0,0,0,0,0,0,0,-1,1357,659,0,0
140,365,0,0,0,0,0,0,0,0,0,-1,1364,659,0,0
147,365,0,0,0,0,0,0,0,0,0,-1,1371,659,0,0
154,365,0,0,0,0,0,0,0,0,0,-1,1378,659,0,0
161,365,0,0,0,0,0,0,0,0,0,-1,1385,659,0,0
168,365,0,0,0,0,0,0,0,0,0,-1,1392,659,0,0
175,365,0,0,0,0,0,0,0,0,0,-1,1399,659,0,0
182,365,0,0,0,0,0,0,0,0,0,-1,1406,659,0,0
189,365,0,0,0,0,0,0,0,0,0,-1,1413,659,0,0
196,365,0,0,0,0,0,0,0,0,0,-1,1420,659,0,0
203,365,0,0,0,0,0,0,0,0,0,-1,1427,659,0,0
210,365,0,0,0,0,0,0,0,0,0,-1,1434,659,0,0
217,365,0,0,0,0,0,0,0,0,0,-1,1441,659,0,0
224,365,0,0,0,0,0,0,0,0,0,-1,1448,659,0,0
231,365,0,0,0,0,0,0,0,0,0,-1,1455,659,0,0
238,365,0,0,0,0,0,0,0,0,0,-1,1462,659,0,0
245,365,0,0,0,0,0,0,0,0,0,-1,1469,659,0,0
252,365,0,0,0,0,0,0,0,0,0,-1,1476,659,0,0
259,365,0,0,0,0,0,0,0,0,0,-1,1483,659,0,0
266,365,0,0,0,0,0,0,0,0,0,-1,1490,659,0,0
273,365,0,0,0,0,0,0,0,0,0,-1,1497,659,0,0
280,365,0,0,0,0,0,0,0,0,0,-1,1504,659,0,0
287,365,0,0,0,0,0,0,0,0,0,-1,1511,659,0,0
294,365,0,0,0,0,0,0,0,0,0,-1,1518,659,0,0
301,365,0,0,0,0,0,0,0,0,0,-1,1525,659,0,0
308,365,0,0,0,0,0,0,0,0,0,-1,1532,659,0,0
315,365,0,0,0,0,0,0,0,0,0,-1,1539,659,0,0
322,365,0,0,0,0,0,0,0,0,0,-1,1546,659,0,0
329,365,0,0,0,0,0,0,0,0,0,-1,1553,659,0,0
336,365,0,0,0,0,0,0,0,0,0,-1,1560,659,0,0
343,365,0,0,0,0,0,0,0,0,0,-1,1567,659,0,0
350,365,0,0,0,0,0,0,0,0,0,-1,1574,659,0,0
357,365,0,0,0,0,0,0,0,0,0,-1,1581,659,0,0
364,365,0,0,0,0,0,0,0,0,0,-1,1588,659,0,0
371,365,0,0,0,0,0,0,0,0,0,-1,1595,659,0,0
378,365,0,0,0,0,0,0,0,0,0,-1,1602,659,0,0
385,365,0,0,0,0,0,0,0,0,0,-1,1609,659,0,0
392,365,0,0,0,0,0,0,0,0,0,-1,1616,659,0,0
399,365,0,0,0,0,0,0,0,0,0,-1,1623,659,0,0
406,365,0,0,0,0,0,0,0,0,0,-1,1630,659,0,0
413,365,0,0,0,0,0,0,0,0,0,-1,1637,659,0,0
420,365,0,0,0,0,0,0,0,0,0,-1,1644,659,0,0
427,365,0,0,0,0,0,0,0,0,0,-1,1651,659,0,0
434,365,0,0,0,0,0,0,0,0,0,-1,1658,659,0,0
441,365,0,0,0,0,0,0,0,0,0,-1,1665,659,0,0
448,365,0,0,0,0,0,0,0,0,0,-1,1672,659,0,0
455,365,0,0,0,0,0,0,0,0,0,-1,1679,659,0,0
462,365,0,0,0,0,0,0,0,0,0,-1,1686,659,0,0
469,365,0,0,0,0,0,0,0,0,0,-1,1693,659,0,0
476,365,0,0,0,0,0,0,0,0,0,-1,1700,659,0,0
483,365,0,0,0,0,0,0,0,0,0,-1,1707,659,0,0
490,365,8.39551,0.471252,0,0,0,0,0,0,0,-1,1714,659,8.39551,-0.471241
497,365,9.89233,1.35394,0,0,0,0,0,0,0,-1,1721,659,9.89237,-1.35396
504,365,10.1414,1.18005,0,0,0,0,0,0,0,-1,1728,659,10.1413,-1.18004
511,365,10.5151,0.993896,0,0,0,0,0,0,0,-1,1735,659,10.5152,-0.993894
518,365,11.2029,0.398132,0,0,0,0,0,0,0,-1,1742,659,11.2029,-0.398136
525,365,15.5748,3.85303,0,0,0,0,0,0,0,-1,1749,659,15.5748,-3.85303
532,365,11.2446,1.00629,0,0,0,0,0,0,0,-1,1756,659,11.2446,-1.00631
539,365,12.6301,1.03204,0,0,0,0,0,0,0,-1,1763,659,12.6302,-1.03204
546,365,11.647,0.84198,0,0,0,0,0,0,0,-1,1770,659,11.6469,-0.841955
553,365,12.028,-0.558899,0,0,0,0,0,0,0,-1,1777,659,12.028,0.558873
560,365,14.5372,-4.55548,0,0,0,0,0,0,0,-1,1784,659,14.5373,4.55547
567,365,76.046,-42.9528,0,0,0,0,0,0,0,-1,1791,659,76.0461,42.9528
574,365,79.3885,-42.8714,0,0,0,0,0,0,0,-1,1798,659,79.3886,42.8714
581,365,79.0592,-41.3133,0,0,0,0,0,0,0,-1,1805,659,79.0593,41.3133
588,365,78.5918,-38.8925,0.0059012,0.00533804,0.00585895,0.0114853,-0.000246088,0.761387,0.00774022,0.0307356,1812,659,78.5919,38.8925
595,365,78.1172,-35.9556,0.00456575,0.00418132,0.00423299,0.00861088,0.000136185,0.762709,0.00569573,0.0201575,1819,659,78.1172,35.9556
602,365,77.6005,-33.1045,0.0035888,0.00321782,0.00283233,0.00624171,0.000564907,0.7527,0.0039862,0.0341184,1826,659,77.6004,33.1045
609,365,76.97,-30.3433,0.00283175,0.00240772,0.00155097,0.00418513,0.00105434,0.717471,0.00251347,0.0435611,1833,659,76.97,30.3433
616,365,76.4968,-27.7241,0.0024005,0.00174953,0.00049154,0.00266455,0.00148548,0.492955,0.00154177,0.0420533,1840,659,76.4968,27.7241
623,365,75.9805,-25.0966,0.00224419,0.0013068,-0.000382095,0.00238021,0.00117079,-0.341979,0.00137427,0.0180299,1847,659,75.9805,25.0966
630,365,75.4935,-22.4172,0.00232871,0.0010047,-0.000993895,0.00286089,0.00047252,-0.491602,0.00177089,0.019414,1854,659,75.4936,22.4172
637,365,74.9667,-19.7637,0.00258862,0.000868259,-0.00139417,0.00336662,9.02616e-05,-0.508991,0.00221494,0.0249679,1861,659,74.9667,19.7637
644,365,74.4633,-17.0656,0.00323655,0.00121414,-0.00140005,0.00395238,0.000498303,-0.472642,0.00248553,0.0322388,1868,659,74.4632,17.0656
651,365,74.0168,-14.2823,0,0,0,0,0,0,0,-1,1875,659,74.0169,14.2823
658,365,24.745,-2.13275,0,0,0,0,0,0,0,-1,1882,659,24.745,2.13277
665,365,14.0961,0.769043,0,0,0,0,0,0,0,-1,1889,659,14.0961,-0.769063
672,365,10.0579,2.15088,0,0,0,0,0,0,0,-1,1896,659,10.0579,-2.15088
679,365,10.9718,2.19208,0,0,0,0,0,0,0,-1,1903,659,10.9718,-2.19211
686,365,12.2134,2.17108,0,0,0,0,0,0,0,-1,1910,659,12.2134,-2.17109
693,365,13.7141,1.98279,0,0,0,0,0,0,0,-1,1917,659,13.7141,-1.98278
700,365,0,0,0,0,0,0,0,0,0,-1,1924,659,0,0
707,365,0,0,0,0,0,0,0,0,0,-1,1931,659,0,0
714,365,0,0,0,0,0,0,0,0,0,-1,1938,659,0,0
721,365,0,0,0,0,0,0,0,0,0,-1,1945,659,0,0
728,365,0,0,0,0,0,0,0,0,0,-1,1952,659,0,0
735,365,0,0,0,0,0,0,0,0,0,-1,1959,659,0,0
742,365,0,0,0,0,0,0,0,0,0,-1,1966,659,0,0
749,365,0,0,0,0,0,0,0,0,0,-1,1973,659,0,0
756,365,0,0,0,0,0,0,0,0,0,-1,1980,659,0,0
763,365,0,0,0,0,0,0,0,0,0,-1,1987,659,0,0
770,365,0,0,0,0,0,0,0,0,0,-1,1994,659,0,0
777,365,0,0,0,0,0,0,0,0,0,-1,2001,659,0,0
784,365,0,0,0,0,0,0,0,0,0,-1,2008,659,0,0
791,365,0,0,0,0,0,0,0,0,0,-1,2015,659,0,0
798,365,0,0,0,0,0,0,0,0,0,-1,2022,659,0,0
805,365,0,0,0,0,0,0,0,0,0,-1,2029,659,0,0
812,365,0,0,0,0,0,0,0,0,0,-1,2036,659,0,0
-700,358,0,0,0,0,0,0,0,0,0,-1,524,666,0,0
-693,358,0,0,0,0,0,0,0,0,0,-1,531,666,0,0
-686,358,0,0,0,0,0,0,0,0,0,-1,538,666,0,0
-679,358,0,0,0,0,0,0,0,0,0,-1,545,666,0,0
-672,358,0,0,0,0,0,0,0,0,0,-1,552,666,0,0
-665,358,0,0,0,0,0,0,0,0,0,-1,559,666,0,0
-658,358,0,0,0,0,0,0,0,0,0,-1,566,666,0,0
-651,358,0,0,0,0,0,0,0,0,0,-1,573,666,0,0
-644,358,0,0,0,0,0,0,0,0,0,-1,580,666,0,0
-637,358,0,0,0,0,0,0,0,0,0,-1,587,666,0,0
-630,358,0,0,0,0,0,0,0,0,0,-1,594,666,0,0
-623,358,0,0,0,0,0,0,0,0,0,-1,601,666,0,0
-616,358,0,0,0,0,0,0,0,0,0,-1,608,666,0,0
-609,358,0,0,0,0,0,0,0,0,0,-1,615,666,0,0
-602,358,0,0,0,0,0,0,0,0,0,-1,622,666,0,0
-595,358,0,0,0,0,0,0,0,0,0,-1,629,666,0,0
-588,358,0,0,0,0,0,0,0,0,0,-1,636,666,0,0
-581,358,-8.31616,1.61993,0,0,0,0,0,0,0,-1,643,666,-8.31614,-1.61993
-574,358,-8.22406,1.75385,0,0,0,0,0,0,0,-1,650,666,-8.22408,-1.75383
-567,358,-8.14215,1.91577,0,0,0,0,0,0,0,-1,657,666,-8.14214,-1.91579
-560,358,-10.6086,2.18872,0,0,0,0,0,0,0,-1,664,666,-10.6086,-2.18873
-553,358,-13.4767,1.09552,0,0,0,0,0,0,0,-1,671,666,-13.4767,-1.09551
-546,358,-13.3743,-0.185059,0,0,0,0,0,0,0,-1,678,666,-13.3743,0.185037
-539,358,-9.43884,-2.04785,0,0,0,0,0,0,0,-1,685,666,-9.43884,2.04785
-532,358,-12.4141,-2.36572,0,0,0,0,0,0,0,-1,692,666,-12.4141,2.3657
-525,358,-12.731,-3.88031,0,0,0,0,0,0,0,-1,699,666,-12.731,3.88029
-518,358,-66.2081,-14.4233,0,0,0,0,0,0,0,-1,706,666,-66.2081,14.4233
-511,358,-66.71,-17.1154,0.00582362,0.00379115,-0.00124683,0.0064159,0.00319887,-0.443471,0.00370422,0.0219068,713,666,-66.71,17.1154
-504,358,-67.2407,-19.8089,0.00459585,0.00243803,-0.000785912,0.00485174,0.00218213,-0.314777,0.00280586,0.0158737,720,666,-67.2407,19.8089
-497,358,-67.8212,-22.5245,0.0036285,0.00125736,-0.000448612,0.00371054,0.00117532,-0.180871,0.00218971,0.0151997,727,666,-67.8212,22.5244
-490,358,-68.3346,-25.2374,0.00285988,0.00022389,-0.00019666,0.00287447,0.000209298,-0.0740595,0.0018505,0.0144392,734,666,-68.3346,25.2374
-483,358,-68.8597,-27.9164,0.00231686,-0.000682071,-3.16471e-05,0.00231719,-0.000682405,-0.0105512,0.00181553,0.0128459,741,666,-68.8597,27.9165
-476,358,-69.2996,-30.605,0.00194072,-0.00144733,6.74164e-05,0.00194206,-0.00144867,0.0198878,0.00196453,0.020055,748,666,-69.2996,30.605
-469,358,-69.8751,-33.2408,0.00182845,-0.00209245,5.36113e-05,0.00182919,-0.00209318,0.0136698,0.00226629,0.0291495,755,666,-69.8751,33.2409
-462,358,-70.4349,-35.9353,0.00199002,-0.00266682,-3.20819e-05,0.00199024,-0.00266704,-0.00688876,0.00269833,0.02884,762,666,-70.435,35.9353
-455,358,-70.9485,-38.6965,0,0,0,0,0,0,0,-1,769,666,-70.9485,38.6966
-448,358,-17.7847,-14.434,0,0,0,0,0,0,0,-1,776,666,-17.7847,14.434
-441,358,-5.56293,-3.98041,0,0,0,0,0,0,0,-1,783,666,-5.56291,3.98043
-434,358,-5.21558,-4.43127,0,0,0,0,0,0,0,-1,790,666,-5.21559,4.43125
-427,358,-3.56189,-3.15729,0,0,0,0,0,0,0,-1,797,666,-3.56192,3.15729
-420,358,0.200195,1.08234,0,0,0,0,0,0,0,-1,804,666,0.200174,-1.08231
-413,358,0.0325317,0.161072,0,0,0,0,0,0,0,-1,811,666,0.0325501,-0.161098
-406,358,-3.85846,0.753113,0,0,0,0,0,0,0,-1,818,666,-3.85846,-0.753129
-399,358,-1.31213,0.190735,0,0,0,0,0,0,0,-1,825,666,-1.31215,-0.190763
-392,358,-3.73914,-0.832214,0,0,0,0,0,0,0,-1,832,666,-3.73915,0.832202
-385,358,-5.95178,-1.69141,0,0,0,0,0,0,0,-1,839,666,-5.9518,1.69143
-378,358,0,0,0,0,0,0,0,0,0,-1,846,666,0,0
-371,358,0,0,0,0,0,0,0,0,0,-1,853,666,0,0
-364,358,0,0,0,0,0,0,0,0,0,-1,860,666,0,0
-357,358,0,0,0,0,0,0,0,0,0,-1,867,666,0,0
-350,358,0,0,0,0,0,0,0,0,0,-1,874,666,0,0
-343,358,0,0,0,0,0,0,0,0,0,-1,881,666,0,0
-336,358,0,0,0,0,0,0,0,0,0,-1,888,666,0,0
-329,358,0,0,0,0,0,0,0,0,0,-1,895,666,0,0
-322,358,0,0,0,0,0,0,0,0,0,-1,902,666,0,0
-315,358,0,0,0,0,0,0,0,0,0,-1,909,666,0,0
-308,358,0,0,0,0,0,0,0,0,0,-1,916,666,0,0
-301,358,0,0,0,0,0,0,0,0,0,-1,923,666,0,0
-294,358,0,0,0,0,0,0,0,0,0,-1,930,666,0,0
-287,358,0,0,0,0,0,0,0,0,0,-1,937,666,0,0
-280,358,0,0,0,0,0,0,0,0,0,-1,944,666,0,0
-273,358,0,0,0,0,0,0,0,0,0,-1,951,666,0,0
-266,358,0,0,0,0,0,0,0,0,0,-1,958,666,0,0
-259,358,0,0,0,0,0,0,0,0,0,-1,965,666,0,0
-252,358,0,0,0,0,0,0,0,0,0,-1,972,666,0,0
-245,358,0,0,0,0,0,0,0,0,0,-1,979,666,0,0
-238,358,0,0,0,0,0,0,0,0,0,-1,986,666,0,0
-231,358,0,0,0,0,0,0,0,0,0,-1,993,666,0,0
-224,358,0,0,0,0,0,0,0,0,0,-1,1000,666,0,0
-217,358,0,0,0,0,0,0,0,0,0,-1,1007,666,0,0
-210,358,0,0,0,0,0,0,0,0,0,-1,1014,666,0,0
-203,358,0,0,0,0,0,0,0,0,0,-1,1021,666,0,0
-196,358,0,0,0,0,0,0,0,0,0,-1,1028,666,0,0
-189,358,0,0,0,0,0,0,0,0,0,-1,1035,666,0,0
-182,358,0,0,0,0,0,0,0,0,0,-1,1042,666,0,0
-175,358,0,0,0,0,0,0,0,0,0,-1,1049,666,0,0
-168,358,0,0,0,0,0,0,0,0,0,-1,1056,666,0,0
-161,358,0,0,0,0,0,0,0,0,0,-1,1063,666,0,0
-154,358,0,0,0,0,0,0,0,0,0,-1,1070,666,0,0
-147,358,0,0,0,0,0,0,0,0,0,-1,1077,666,0,0
-140,358,0,0,0,0,0,0,0,0,0,-1,1084,666,0,0
-133,358,0,0,0,0,0,0,0,0,0,-1,1091,666,0,0
-126,358,0,0,0,0,0,0,0,0,0,-1,1098,666,0,0
-119,358,0,0,0,0,0,0,0,0,0,-1,1105,666,0,0
-112,358,0,0,0,0,0,0,0,0,0,-1,1112,666,0,0
-105,358,0,0,0,0,0,0,0,0,0,-1,1119,666,0,0
-98,358,0,0,0,0,0,0,0,0,0,-1,1126,666,0,0
-91,358,0,0,0,0,0,0,0,0,0,-1,1133,666,0,0
-84,358,0,0,0,0,0,0,0,0,0,-1,1140,666,0,0
-77,358,0,0,0,0,0,0,0,0,0,-1,1147,666,0,0
-70,358,0,0,0,0,0,0,0,0,0,-1,1154,666,0,0
-63,358,0,0,0,0,0,0,0,0,0,-1,1161,666,0,0
-56,358,0,0,0,0,0,0,0,0,0,-1,1168,666,0,0
-49,358,0,0,0,0,0,0,0,0,0,-1,1175,666,0,0
-42,358,0,0,0,0,0,0,0,0,0,-1,1182,666,0,0
-35,358,0,0,0,0,0,0,0,0,0,-1,1189,666,0,0
-28,358,0,0,0,0,0,0,0,0,0,-1,1196,666,0,0
-21,358,0,0,0,0,0,0,0,0,0,-1,1203,666,0,0
-14,358,0,0,0,0,0,0,0,0,0,-1,1210,666,0,0
-7,358,0,0,0,0,0,0,0,0,0,-1,1217,666,0,0
0,358,0,0,0,0,0,0,0,0,0,-1,1224,666,0,0
7,358,0,0,0,0,0,0,0,0,0,-1,1231,666,0,0
14,358,0,0,0,0,0,0,0,0,0,-1,1238,666,0,0
21,358,0,0,0,0,0,0,0,0,0,-1,1245,666,0,0
28,358,0,0,0,0,0,0,0,0,0,-1,1252,666,0,0
35,358,0,0,0,0,0,0,0,0,0,-1,1259,666,0,0
42,358,0,0,0,0,0,0,0,0,0,-1,1266,666,0,0
49,358,0,0,0,0,0,0,0,0,0,-1,1273,666,0,0
56,358,0,0,0,0,0,0,0,0,0,-1,1280,666,0,0
63,358,0,0,0,0,0,0,0,0,0,-1,1287,666,0,0
70,358,0,0,0,0,0,0,0,0,0,-1,1294,666,0,0
77,358,0,0,0,0,0,0,0,0,0,-1,1301,666,0,0
84,358,0,0,0,0,0,0,0,0,0,-1,1308,666,0,0
91,358,0,0,0,0,0,0,0,0,0,-1,1315,666,0,0
98,358,0,0,0,0,0,0,0,0,0,-1,1322,666,0,0
105,358,0,0,0,0,0,0,0,0,0,-1,1329,666,0,0
112,358,0,0,0,0,0,0,0,0,0,-1,1336,666,0,0
119,358,0,0,0,0,0,0,0,0,0,-1,1343,666,0,0
126,358,0,0,0,0,0,0,0,0,0,-1,1350,666,0,0
133,358,0,0,0,0,0,0,0,0,0,-1,1357,666,0,0
140,358,0,0,0,0,0,0,0,0,0,-1,1364,666,0,0
147,358,0,0,0,0,0,0,0,0,0,-1,1371,666,0,0
154,358,0,0,0,0,0,0,0,0,0,-1,1378,666,0,0
161,358,0,0,0,0,0,0,0,0,0,-1,1385,666,0,0
168,358,0,0,0,0,0,0,0,0,0,-1,1392,666,0,0
175,358,0,0,0,0,0,0,0,0,0,-1,1399,666,0,0
182,358,0,0,0,0,0,0,0,0,0,-1,1406,666,0,0
189,358,0,0,0,0,0,0,0,0,0,-1,1413,666,0,0
196,358,0,0,0,0,0,0,0,0,0,-1,1420,666,0,0
203,358,0,0,0,0,0,0,0,0,0,-1,1427,666,0,0
210,358,0,0,0,0,0,0,0,0,0,-1,1434,666,0,0
217,358,0,0,0,0,0,0,0,0,0,-1,1441,666,0,0
224,358,0,0,0,0,0,0,0,0,0,-1,1448,666,0,0
231,358,0,0,0,0,0,0,0,0,0,-1,1455,666,0,0
238,358,0,0,0,0,0,0,0,0,0,-1,1462,666,0,0
245,358,0,0,0,0,0,0,0,0,0,-1,1469,666,0,0
252,358,0,0,0,0,0,0,0,0,0,-1,1476,666,0,0
259,358,0,0,0,0,0,0,0,0,0,-1,1483,666,0,0
266,358,0,0,0,0,0,0,0,0,0,-1,1490,666,0,0
273,358,0,0,0,0,0,0,0,0,0,-1,1497,666,0,0
280,358,0,0,0,0,0,0,0,0,0,-1,1504,666,0,0
287,358,0,0,0,0,0,0,0,0,0,-1,1511,666,0,0
294,358,0,0,0,0,0,0,0,0,0,-1,1518,666,0,0
301,358,0,0,0,0,0,0,0,0,0,-1,1525,666,0,0
308,358,0,0,0,0,0,0,0,0,0,-1,1532,666,0,0
315,358,0,0,0,0,0,0,0,0,0,-1,1539,666,0,0
322,358,0,0,0,0,0,0,0,0,0,-1,1546,666,0,0
329,358,0,0,0,0,0,0,0,0,0,-1,1553,666,0,0
336,358,0,0,0,0,0,0,0,0,0,-1,1560,666,0,0
343,358,0,0,0,0,0,0,0,0,0,-1,1567,666,0,0
350,358,0,0,0,0,0,0,0,0,0,-1,1574,666,0,0
357,358,0,0,0,0,0,0,0,0,0,-1,1581,666,0,0
364,358,0,0,0,0,0,0,0,0,0,-1,1588,666,0,0
371,358,0,0,0,0,0,0,0,0,0,-1,1595,666,0,0
378,358,0,0,0,0,0,0,0,0,0,-1,1602,666,0,0
385,358,0,0,0,0,0,0,0,0,0,-1,1609,666,0,0
392,358,0,0,0,0,0,0,0,0,0,-1,1616,666,0,0
399,358,0,0,0,0,0,0,0,0,0,-1,1623,666,0,0
406,358,0,0,0,0,0,0,0,0,0,-1,1630,666,0,0
413,358,0,0,0,0,0,0,0,0,0,-1,1637,666,0,0
420,358,0,0,0,0,0,0,0,0,0,-1,1644,666,0,0
427,358,0,0,0,0,0,0,0,0,0,-1,1651,666,0,0
434,358,0,0,0,0,0,0,0,0,0,-1,1658,666,0,0
441,358,0,0,0,0,0,0,0,0,0,-1,1665,666,0,0
448,358,0,0,0,0,0,0,0,0,0,-1,1672,666,0,0
455,358,0,0,0,0,0,0,0,0,0,-1,1679,666,0,0
462,358,0,0,0,0,0,0,0,0,0,-1,1686,666,0,0
469,358,0,0,0,0,0,0,0,0,0,-1,1693,666,0,0
476,358,0,0,0,0,0,0,0,0,0,-1,1700,666,0,0
483,358,0,0,0,0,0,0,0,0,0,-1,1707,666,0,0
490,358,0,0,0,0,0,0,0,0,0,-1,1714,666,0,0
497,358,8.57239,1.1322,0,0,0,0,0,0,0,-1,1721,666,8.57234,-1.13219
504,358,10.5972,0.832947,0,0,0,0,0,0,0,-1,1728,666,10.5972,-0.832968
511,358,10.6873,0.868469,0,0,0,0,0,0,0,-1,1735,666,10.6872,-0.868484
518,358,16.5884,2.34894,0,0,0,0,0,0,0,-1,1742,666,16.5884,-2.34894
525,358,15.7626,3.65344,0,0,0,0,0,0,0,-1,1749,666,15.7626,-3.65342
532,358,14.9368,4.95789,0,0,0,0,0,0,0,-1,1756,666,14.9367,-4.9579
539,358,15.1597,3.42694,0,0,0,0,0,0,0,-1,1763,666,15.1597,-3.42692
546,358,12.3792,1.53558,0,0,0,0,0,0,0,-1,1770,666,12.3792,-1.5356
553,358,11.6584,1.26172,0,0,0,0,0,0,0,-1,1777,666,11.6585,-1.26175
560,358,10.8234,1.43042,0,0,0,0,0,0,0,-1,1784,666,10.8233,-1.43041
567,358,10.1333,-0.955139,0,0,0,0,0,0,0,-1,1791,666,10.1333,0.955132
574,358,14.7886,-2.69293,0,0,0,0,0,0,0,-1,1798,666,14.7885,2.6929
581,358,76.2957,-37.3464,0,0,0,0,0,0,0,-1,1805,666,76.2957,37.3464
588,358,81.4143,-38.1117,0,0,0,0,0,0,0,-1,1812,666,81.4142,38.1117
595,358,80.8445,-35.3422,0.00480224,0.00480537,0.00513712,0.00994092,-0.000333313,0.785551,0.00674113,0.0280053,1819,666,80.8445,35.3422
602,358,80.1984,-32.5206,0.00387634,0.00368371,0.00360011,0.00738142,0.000178622,0.772024,0.0048625,0.0229029,1826,666,80.1984,32.5206
609,358,79.5958,-29.775,0.00316115,0.00278658,0.0022551,0.00523673,0.000710999,0.74397,0.00327994,0.0337851,1833,666,79.5958,29.7749
616,358,79.1129,-27.1237,0.00275405,0.0020542,0.0011326,0.00358955,0.0012187,0.635573,0.00210771,0.0282113,1840,666,79.1129,27.1237
623,358,78.6981,-24.5547,0.00260114,0.00154628,0.000179429,0.00263082,0.00151659,0.163957,0.00152481,0.0180293,1847,666,78.6981,24.5547
630,358,78.2072,-21.9318,0.00270487,0.00122052,-0.000511923,0.0028643,0.00106109,-0.301911,0.0016721,0.0212311,1854,666,78.2071,21.9319
637,358,77.6743,-19.3024,0.00298018,0.00106588,-0.00105084,0.00344444,0.000601626,-0.416012,0.00212434,0.0285332,1861,666,77.6744,19.3024
644,358,77.1621,-16.598,0.00354998,0.00128439,-0.00133713,0.00416966,0.000664712,-0.433969,0.00258683,0.0238286,1868,666,77.1621,16.598
651,358,76.7389,-13.7807,0,0,0,0,0,0,0,-1,1875,666,76.7389,13.7807
658,358,52.9972,-7.31555,0,0,0,0,0,0,0,-1,1882,666,52.9972,7.31555
665,358,28.0272,-2.07764,0,0,0,0,0,0,0,-1,1889,666,28.0272,2.07764
672,358,12.4299,1.47272,0,0,0,0,0,0,0,-1,1896,666,12.4299,-1.4727
679,358,12.1294,2.19702,0,0,0,0,0,0,0,-1,1903,666,12.1294,-2.19703
686,358,11.9557,2.2002,0,0,0,0,0,0,0,-1,1910,666,11.9557,-2.20021
693,358,13.188,2.52203,0,0,0,0,0,0,0,-1,1917,666,13.188,-2.52202
700,358,0,0,0,0,0,0,0,0,0,-1,1924,666,0,0
707,358,0,0,0,0,0,0,0,0,0,-1,1931,666,0,0
714,358,0,0,0,0,0,0,0,0,0,-1,1938,666,0,0
721,358,0,0,0,0,0,0,0,0,0,-1,1945,666,0,0
728,358,0,0,0,0,0,0,0,0,0,-1,1952,666,0,0
735,358,0,0,0,0,0,0,0,0,0,-1,1959,666,0,0
742,358,0,0,0,0,0,0,0,0,0,-1,1966,666,0,0
749,358,0,0,0,0,0,0,0,0,0,-1,1973,666,0,0
756,358,0,0,0,0,0,0,0,0,0,-1,1980,666,0,0
763,358,0,0,0,0,0,0,0,0,0,-1,1987,666,0,0
770,358,0,0,0,0,0,0,0,0,0,-1,1994,666,0,0
777,358,0,0,0,0,0,0,0,0,0,-1,2001,666,0,0
784,358,0,0,0,0,0,0,0,0,0,-1,2008,666,0,0
791,358,0,0,0,0,0,0,0,0,0,-1,2015,666,0,0
798,358,0,0,0,0,0,0,0,0,0,-1,2022,666,0,0
805,358,0,0,0,0,0,0,0,0,0,-1,2029,666,0,0
812,358,0,0,0,0,0,0,0,0,0,-1,2036,666,0,0
-700,351,0,0,0,0,0,0,0,0,0,-1,524,673,0,0
-693,351,0,0,0,0,0,0,0,0,0,-1,531,673,0,0
-686,351,0,0,0,0,0,0,0,0,0,-1,538,673,0,0
-679,351,0,0,0,0,0,0,0,0,0,-1,545,673,0,0
-672,351,0,0,0,0,0,0,0,0,0,-1,552,673,0,0
-665,351,0,0,0,0,0,0,0,0,0,-1,559,673,0,0
-658,351,0,0,0,0,0,0,0,0,0,-1,566,673,0,0
-651,351,0,0,0,0,0,0,0,0,0,-1,573,673,0,0
-644,351,0,0,0,0,0,0,0,0,0,-1,580,673,0,0
-637,351,0,0,0,0,0,0,0,0,0,-1,587,673,0,0
-630,351,0,0,0,0,0,0,0,0,0,-1,594,673,0,0
-623,351,0,0,0,0,0,0,0,0,0,-1,601,673,0,0
-616,351,0,0,0,0,0,0,0,0,0,-1,608,673,0,0
-609,351,0,0,0,0,0,0,0,0,0,-1,615,673,0,0
-602,351,0,0,0,0,0,0,0,0,0,-1,622,673,0,0
-595,351,0,0,0,0,0,0,0,0,0,-1,629,673,0,0
-588,351,0,0,0,0,0,0,0,0,0,-1,636,673,0,0
-581,351,-9.0647,1.71906,0,0,0,0,0,0,0,-1,643,673,-9.06472,-1.71908
-574,351,-8.23584,2.64764,0,0,0,0,0,0,0,-1,650,673,-8.23584,-2.64764
-567,351,-10.8027,4.56836,0,0,0,0,0,0,0,-1,657,673,-10.8027,-4.56839
-560,351,-14.2001,2.17084,0,0,0,0,0,0,0,-1,664,673,-14.2002,-2.17086
-553,351,-13.4979,0.779541,0,0,0,0,0,0,0,-1,671,673,-13.4978,-0.779519
-546,351,-14.0065,0.73645,0,0,0,0,0,0,0,-1,678,673,-14.0065,-0.736473
-539,351,-12.8123,-1.46393,0,0,0,0,0,0,0,-1,685,673,-12.8123,1.46395
-532,351,-16.0198,-4.03937,0,0,0,0,0,0,0,-1,692,673,-16.0198,4.03936
-525,351,-68.6208,-11.1312,0,0,0,0,0,0,0,-1,699,673,-68.6209,11.1312
-518,351,-68.9783,-13.8173,0.00704628,0.00506449,-0.00134936,0.0077295,0.00438128,-0.468695,0.00447589,0.0284995,706,673,-68.9783,13.8173
-511,351,-69.4111,-16.5468,0.00570336,0.00332051,-0.000806895,0.00595088,0.00307299,-0.297648,0.00343636,0.0140125,713,673,-69.4111,16.5468
-504,351,-69.9402,-19.2413,0.00449443,0.00187356,-0.000418678,0.00455969,0.00180831,-0.154623,0.00265124,0.0149152,720,673,-69.9403,19.2413
-497,351,-70.5197,-21.9442,0.00351124,0.000646964,-0.00014051,0.00351812,0.000640088,-0.0488994,0.00216384,0.0152843,727,673,-70.5197,21.9442
-490,351,-71.0331,-24.6363,0.0027001,-0.000321853,6.42215e-06,0.00270011,-0.000321867,0.00212516,0.00191639,0.0144659,734,673,-71.0331,24.6363
-483,351,-71.5465,-27.332,0.0021011,-0.00111028,5.16904e-05,0.00210193,-0.00111111,0.0160905,0.00188422,0.0170915,741,673,-71.5465,27.3321
-476,351,-72.0876,-30.0161,0.00167787,-0.00174158,-5.35561e-06,0.00167787,-0.00174159,-0.00156621,0.00197434,0.0155087,748,673,-72.0876,30.0161
-469,351,-72.5916,-32.6567,0.00150757,-0.00223892,-0.000169112,0.00151518,-0.00224653,-0.0450168,0.00218547,0.0209334,755,673,-72.5916,32.6567
-462,351,-73.1277,-35.38,0,0,0,0,0,0,0,-1,762,673,-73.1277,35.38
-455,351,-39.3901,-22.7581,0,0,0,0,0,0,0,-1,769,673,-39.3901,22.758
-448,351,-6.61456,-4.38654,0,0,0,0,0,0,0,-1,776,673,-6.61456,4.38654
-441,351,-4.31567,-2.3009,0,0,0,0,0,0,0,-1,783,673,-4.31565,2.30089
-434,351,-3.81708,-2.28003,0,0,0,0,0,0,0,-1,790,673,-3.81706,2.28006
-427,351,-2.05157,-2.7785,0,0,0,0,0,0,0,-1,797,673,-2.05157,2.77848
-420,351,-1.06989,-2.43665,0,0,0,0,0,0,0,-1,804,673,-1.06991,2.43663
-413,351,-0.392334,-2.06671,0,0,0,0,0,0,0,-1,811,673,-0.392363,2.06672
-406,351,-1.86316,-2.58105,0,0,0,0,0,0,0,-1,818,673,-1.86313,2.58106
-399,351,1.00952,-1.53455,0,0,0,0,0,0,0,-1,825,673,1.00954,1.53457
-392,351,-1.02197,0.877136,0,0,0,0,0,0,0,-1,832,673,-1.02195,-0.877143
-385,351,-1.47205,1.04437,0,0,0,0,0,0,0,-1,839,673,-1.47207,-1.04435
-378,351,0,0,0,0,0,0,0,0,0,-1,846,673,0,0
-371,351,0,0,0,0,0,0,0,0,0,-1,853,673,0,0
-364,351,0,0,0,0,0,0,0,0,0,-1,860,673,0,0
-357,351,0,0,0,0,0,0,0,0,0,-1,867,673,0,0
-350,351,0,0,0,0,0,0,0,0,0,-1,874,673,0,0
-343,351,0,0,0,0,0,0,0,0,0,-1,881,673,0,0
-336,351,0,0,0,0,0,0,0,0,0,-1,888,673,0,0
-329,351,0,0,0,0,0,0,0,0,0,-1,895,673,0,0
-322,351,0,0,0,0,0,0,0,0,0,-1,902,673,0,0
-315,351,0,0,0,0,0,0,0,0,0,-1,909,673,0,0
-308,351,0,0,0,0,0,0,0,0,0,-1,916,673,0,0
-301,351,0,0,0,0,0,0,0,0,0,-1,923,673,0,0
-294,351,0,0,0,0,0,0,0,0,0,-1,930,673,0,0
-287,351,0,0,0,0,0,0,0,0,0,-1,937,673,0,0
-280,351,0,0,0,0,0,0,0,0,0,-1,944,673,0,0
-273,351,0,0,0,0,0,0,0,0,0,-1,951,673,0,0
-266,351,0,0,0,0,0,0,0,0,0,-1,958,673,0,0
-259,351,0,0,0,0,0,0,0,0,0,-1,965,673,0,0
-252,351,0,0,0,0,0,0,0,0,0,-1,972,673,0,0
-245,351,0,0,0,0,0,0,0,0,0,-1,979,673,0,0
-238,351,0,0,0,0,0,0,0,0,0,-1,986,673,0,0
-231,351,0,0,0,0,0,0,0,0,0,-1,993,673,0,0
-224,351,0,0,0,0,0,0,0,0,0,-1,1000,673,0,0
-217,351,0,0,0,0,0,0,0,0,0,-1,1007,673,0,0
-210,351,0,0,0,0,0,0,0,0,0,-1,1014,673,0,0
-203,351,0,0,0,0,0,0,0,0,0,-1,1021,673,0,0
-196,351,0,0,0,0,0,0,0,0,0,-1,1028,673,0,0
-189,351,0,0,0,0,0,0,0,0,0,-1,1035,673,0,0
-182,351,0,0,0,0,0,0,0,0,0,-1,1042,673,0,0
-175,351,0,0,0,0,0,0,0,0,0,-1,1049,673,0,0
-168,351,0,0,0,0,0,0,0,0,0,-1,1056,673,0,0
-161,351,0,0,0,0,0,0,0,0,0,-1,1063,673,0,0
-154,351,0,0,0,0,0,0,0,0,0,-1,1070,673,0,0
-147,351,0,0,0,0,0,0,0,0,0,-1,1077,673,0,0
-140,351,0,0,0,0,0,0,0,0,0,-1,1084,673,0,0
-133,351,0,0,0,0,0,0,0,0,0,-1,1091,673,0,0
-126,351,0,0,0,0,0,0,0,0,0,-1,1098,673,0,0
-119,351,0,0,0,0,0,0,0,0,0,-1,1105,673,0,0
-112,351,0,0,0,0,0,0,0,0,0,-1,1112,673,0,0
-105,351,0,0,0,0,0,0,0,0,0,-1,1119,673,0,0
-98,351,0,0,0,0,0,0,0,0,0,-1,1126,673,0,0
-91,351,0,0,0,0,0,0,0,0,0,-1,1133,673,0,0
-84,351,0,0,0,0,0,0,0,0,0,-1,1140,673,0,0
-77,351,0,0,0,0,0,0,0,0,0,-1,1147,673,0,0
-70,351,0,0,0,0,0,0,0,0,0,-1,1154,673,0,0
-63,351,0,0,0,0,0,0,0,0,0,-1,1161,673,0,0
-56,351,0,0,0,0,0,0,0,0,0,-1,1168,673,0,0
-49,351,0,0,0,0,0,0,0,0,0,-1,1175,673,0,0
-42,351,0,0,0,0,0,0,0,0,0,-1,1182,673,0,0
-35,351,0,0,0,0,0,0,0,0,0,-1,1189,673,0,0
-28,351,0,0,0,0,0,0,0,0,0,-1,1196,673,0,0
-21,351,0,0,0,0,0,0,0,0,0,-1,1203,673,0,0
-14,351,0,0,0,0,0,0,0,0,0,-1,1210,673,0,0
-7,351,0,0,0,0,0,0,0,0,0,-1,1217,673,0,0
0,351,0,0,0,0,0,0,0,0,0,-1,1224,673,0,0
7,351,0,0,0,0,0,0,0,0,0,-1,1231,673,0,0
14,351,0,0,0,0,0,0,0,0,0,-1,1238,673,0,0
21,351,0,0,0,0,0,0,0,0,0,-1,1245,673,0,0
28,351,0,0,0,0,0,0,0,0,0,-1,1252,673,0,0
35,351,0,0,0,0,0,0,0,0,0,-1,1259,673,0,0
42,351,0,0,0,0,0,0,0,0,0,-1,1266,673,0,0
49,351,0,0,0,0,0,0,0,0,0,-1,1273,673,0,0
56,351,0,0,0,0,0,0,0,0,0,-1,1280,673,0,0
63,351,0,0,0,0,0,0,0,0,0,-1,1287,673,0,0
70,351,0,0,0,0,0,0,0,0,0,-1,1294,673,0,0
77,351,0,0,0,0,0,0,0,0,0,-1,1301,673,0,0
84,351,0,0,0,0,0,0,0,0,0,-1,1308,673,0,0
91,351,0,0,0,0,0,0,0,0,0,-1,1315,673,0,0
98,351,0,0,0,0,0,0,0,0,0,-1,1322,673,0,0
105,351,0,0,0,0,0,0,0,0,0,-1,1329,673,0,0
112,351,0,0,0,0,0,0,0,0,0,-1,1336,673,0,0
119,351,0,0,0,0,0,0,0,0,0,-1,1343,673,0,0
126,351,0,0,0,0,0,0,0,0,0,-1,1350,673,0,0
133,351,0,0,0,0,0,0,0,0,0,-1,1357,673,0,0
140,351,0,0,0,0,0,0,0,0,0,-1,1364,673,0,0
147,351,0,0,0,0,0,0,0,0,0,-1,1371,673,0,0
154,351,0,0,0,0,0,0,0,0,0,-1,1378,673,0,0
161,351,0,0,0,0,0,0,0,0,0,-1,1385,673,0,0
168,351,0,0,0,0,0,0,0,0,0,-1,1392,673,0,0
175,351,0,0,0,0,0,0,0,0,0,-1,1399,673,0,0
182,351,0,0,0,0,0,0,0,0,0,-1,1406,673,0,0
189,351,0,0,0,0,0,0,0,0,0,-1,1413,673,0,0
196,351,0,0,0,0,0,0,0,0,0,-1,1420,673,0,0
203,351,0,0,0,0,0,0,0,0,0,-1,1427,673,0,0
210,351,0,0,0,0,0,0,0,0,0,-1,1434,673,0,0
217,351,0,0,0,0,0,0,0,0,0,-1,1441,673,0,0
224,351,0,0,0,0,0,0,0,0,0,-1,1448,673,0,0
231,351,0,0,0,0,0,0,0,0,0,-1,1455,673,0,0
238,351,0,0,0,0,0,0,0,0,0,-1,1462,673,0,0
245,351,0,0,0,0,0,0,0,0,0,-1,1469,673,0,0
252,351,0,0,0,0,0,0,0,0,0,-1,1476,673,0,0
259,351,0,0,0,0,0,0,0,0,0,-1,1483,673,0,0
266,351,0,0,0,0,0,0,0,0,0,-1,1490,673,0,0
273,351,0,0,0,0,0,0,0,0,0,-1,1497,673,0,0
280,351,0,0,0,0,0,0,0,0,0,-1,1504,673,0,0
287,351,0,0,0,0,0,0,0,0,0,-1,1511,673,0,0
294,351,0,0,0,0,0,0,0,0,0,-1,1518,673,0,0
301,351,0,0,0,0,0,0,0,0,0,-1,1525,673,0,0
308,351,0,0,0,0,0,0,0,0,0,-1,1532,673,0,0
315,351,0,0,0,0,0,0,0,0,0,-1,1539,673,0,0
322,351,0,0,0,0,0,0,0,0,0,-1,1546,673,0,0
329,351,0,0,0,0,0,0,0,0,0,-1,1553,673,0,0
336,351,0,0,0,0,0,0,0,0,0,-1,1560,673,0,0
343,351,0,0,0,0,0,0,0,0,0,-1,1567,673,0,0
350,351,0,0,0,0,0,0,0,0,0,-1,1574,673,0,0
357,351,0,0,0,0,0,0,0,0,0,-1,1581,673,0,0
364,351,0,0,0,0,0,0,0,0,0,-1,1588,673,0,0
371,351,0,0,0,0,0,0,0,0,0,-1,1595,673,0,0
378,351,0,0,0,0,0,0,0,0,0,-1,1602,673,0,0
385,351,0,0,0,0,0,0,0,0,0,-1,1609,673,0,0
392,351,0,0,0,0,0,0,0,0,0,-1,1616,673,0,0
399,351,0,0,0,0,0,0,0,0,0,-1,1623,673,0,0
406,351,0,0,0,0,0,0,0,0,0,-1,1630,673,0,0
413,351,0,0,0,0,0,0,0,0,0,-1,1637,673,0,0
420,351,0,0,0,0,0,0,0,0,0,-1,1644,673,0,0
427,351,0,0,0,0,0,0,0,0,0,-1,1651,673,0,0
434,351,0,0,0,0,0,0,0,0,0,-1,1658,673,0,0
441,351,0,0,0,0,0,0,0,0,0,-1,1665,673,0,0
448,351,0,0,0,0,0,0,0,0,0,-1,1672,673,0,0
455,351,0,0,0,0,0,0,0,0,0,-1,1679,673,0,0
462,351,0,0,0,0,0,0,0,0,0,-1,1686,673,0,0
469,351,0,0,0,0,0,0,0,0,0,-1,1693,673,0,0
476,351,0,0,0,0,0,0,0,0,0,-1,1700,673,0,0
483,351,0,0,0,0,0,0,0,0,0,-1,1707,673,0,0
490,351,0,0,0,0,0,0,0,0,0,-1,1714,673,0,0
497,351,0,0,0,0,0,0,0,0,0,-1,1721,673,0,0
504,351,10.8842,1.61615,0,0,0,0,0,0,0,-1,1728,673,10.8842,-1.61618
511,351,15.4548,0.0236816,0,0,0,0,0,0,0,-1,1735,673,15.4549,-0.0236664
518,351,16.7448,2.49268,0,0,0,0,0,0,0,-1,1742,673,16.7448,-2.49269
525,351,16.0701,3.43225,0,0,0,0,0,0,0,-1,1749,673,16.07,-3.43227
532,351,32.3822,3.03021,0,0,0,0,0,0,0,-1,1756,673,32.3822,-3.03019
539,351,15.3387,3.54486,0,0,0,0,0,0,0,-1,1763,673,15.3387,-3.54485
546,351,13.9387,4.59357,0,0,0,0,0,0,0,-1,1770,673,13.9388,-4.59359
553,351,12.0682,2.02832,0,0,0,0,0,0,0,-1,1777,673,12.0683,-2.02831
560,351,12.0173,0.55304,0,0,0,0,0,0,0,-1,1784,673,12.0174,-0.553028
567,351,10.7827,0.130188,0,0,0,0,0,0,0,-1,1791,673,10.7827,-0.130183
574,351,13.405,-1.09204,0,0,0,0,0,0,0,-1,1798,673,13.405,1.09207
581,351,15.2351,-3.06049,0,0,0,0,0,0,0,-1,1805,673,15.2351,3.06046
588,351,79.4626,-35.6771,0,0,0,0,0,0,0,-1,1812,673,79.4626,35.6771
595,351,83.532,-35.1691,0,0,0,0,0,0,0,-1,1819,673,83.5319,35.1691
602,351,82.8893,-32.2384,0.00354097,0.00382454,0.00419593,0.00788108,-0.000515573,0.802287,0.00543407,0.0350552,1826,673,82.8893,32.2384
609,351,82.4139,-29.4529,0.00298577,0.00289308,0.00278086,0.00572068,0.000158176,0.777066,0.00376217,0.0290165,1833,673,82.4139,29.4529
616,351,81.8383,-26.7789,0.00271382,0.00214145,0.00160531,0.00405825,0.000797019,0.697186,0.00248284,0.0207363,1840,673,81.8383,26.7789
623,351,81.4468,-24.1068,0.00268016,0.00163425,0.000602112,0.00295472,0.0013597,0.42782,0.00170771,0.018736,1847,673,81.4468,24.1067
630,351,80.9426,-21.4537,0.00290002,0.00135217,-0.000143505,0.00291322,0.00133898,-0.091671,0.00168377,0.0293069,1854,673,80.9426,21.4537
637,351,80.3473,-18.7391,0.00328114,0.00130998,-0.000762109,0.00354142,0.0010497,-0.329111,0.00210038,0.0332877,1861,673,80.3473,18.739
644,351,79.833,-16.0085,0.00388778,0.00155942,-0.00122587,0.00441418,0.00103302,-0.405601,0.00266601,0.0241076,1868,673,79.833,16.0085
651,351,79.3026,-13.2278,0.00469614,0.00194121,-0.00160912,0.00543685,0.00120049,-0.431404,0.00329805,0.0218071,1875,673,79.3026,13.2278
658,351,78.7125,-10.3962,0,0,0,0,0,0,0,-1,1882,673,78.7126,10.3962
665,351,54.0391,-5.79291,0,0,0,0,0,0,0,-1,1889,673,54.039,5.79288
672,351,34.9646,-3.1748,0,0,0,0,0,0,0,-1,1896,673,34.9646,3.17482
679,351,14.1252,1.85681,0,0,0,0,0,0,0,-1,1903,673,14.1253,-1.85682
686,351,13.0294,2.1189,0,0,0,0,0,0,0,-1,1910,673,13.0294,-2.11892
693,351,13.5187,2.34595,0,0,0,0,0,0,0,-1,1917,673,13.5187,-2.34596
700,351,14.5629,-2.40173,0,0,0,0,0,0,0,-1,1924,673,14.5629,2.40172
707,351,0,0,0,0,0,0,0,0,0,-1,1931,673,0,0
714,351,0,0,0,0,0,0,0,0,0,-1,1938,673,0,0
721,351,0,0,0,0,0,0,0,0,0,-1,1945,673,0,0
728,351,0,0,0,0,0,0,0,0,0,-1,1952,673,0,0
735,351,0,0,0,0,0,0,0,0,0,-1,1959,673,0,0
742,351,0,0,0,0,0,0,0,0,0,-1,1966,673,0,0
749,351,0,0,0,0,0,0,0,0,0,-1,1973,673,0,0
756,351,0,0,0,0,0,0,0,0,0,-1,1980,673,0,0
763,351,0,0,0,0,0,0,0,0,0,-1,1987,673,0,0
770,351,0,0,0,0,0,0,0,0,0,-1,1994,673,0,0
777,351,0,0,0,0,0,0,0,0,0,-1,2001,673,0,0
784,351,0,0,0,0,0,0,0,0,0,-1,2008,673,0,0
791,351,0,0,0,0,0,0,0,0,0,-1,2015,673,0,0
798,351,0,0,0,0,0,0,0,0,0,-1,2022,673,0,0
805,351,0,0,0,0,0,0,0,0,0,-1,2029,673,0,0
812,351,0,0,0,0,0,0,0,0,0,-1,2036,673,0,0
-700,344,0,0,0,0,0,0,0,0,0,-1,524,680,0,0
-693,344,0,0,0,0,0,0,0,0,0,-1,531,680,0,0
-686,344,0,0,0,0,0,0,0,0,0,-1,538,680,0,0
-679,344,0,0,0,0,0,0,0,0,0,-1,545,680,0,0
-672,344,0,0,0,0,0,0,0,0,0,-1,552,680,0,0
-665,344,0,0,0,0,0,0,0,0,0,-1,559,680,0,0
-658,344,0,0,0,0,0,0,0,0,0,-1,566,680,0,0
-651,344,0,0,0,0,0,0,0,0,0,-1,573,680,0,0
-644,344,0,0,0,0,0,0,0,0,0,-1,580,680,0,0
-637,344,0,0,0,0,0,0,0,0,0,-1,587,680,0,0
-630,344,0,0,0,0,0,0,0,0,0,-1,594,680,0,0
-623,344,0,0,0,0,0,0,0,0,0,-1,601,680,0,0
-616,344,0,0,0,0,0,0,0,0,0,-1,608,680,0,0
-609,344,0,0,0,0,0,0,0,0,0,-1,615,680,0,0
-602,344,0,0,0,0,0,0,0,0,0,-1,622,680,0,0
-595,344,0,0,0,0,0,0,0,0,0,-1,629,680,0,0
-588,344,-9.27826,1.47302,0,0,0,0,0,0,0,-1,636,680,-9.27829,-1.473
-581,344,-10.0098,1.71753,0,0,0,0,0,0,0,-1,643,680,-10.0098,-1.7175
-574,344,-10.2208,3.04871,0,0,0,0,0,0,0,-1,650,680,-10.2208,-3.04869
-567,344,-14.3779,2.29016,0,0,0,0,0,0,0,-1,657,680,-14.3779,-2.29014
-560,344,-14.1238,1.8374,0,0,0,0,0,0,0,-1,664,680,-14.1238,-1.83743
-553,344,-14.7884,2.00116,0,0,0,0,0,0,0,-1,671,680,-14.7884,-2.00115
-546,344,-17.4192,0.157654,0,0,0,0,0,0,0,-1,678,680,-17.4192,-0.157635
-539,344,-17.2671,-2.75714,0,0,0,0,0,0,0,-1,685,680,-17.2671,2.75712
-532,344,-18.4417,-4.38605,0,0,0,0,0,0,0,-1,692,680,-18.4417,4.38603
-525,344,-71.1955,-10.4266,0,0,0,0,0,0,0,-1,699,680,-71.1955,10.4266
-518,344,-71.6722,-13.2888,0.00672357,0.00444522,-0.000800291,0.00697658,0.00419221,-0.306207,0.00405518,0.0239394,706,680,-71.6722,13.2888
-511,344,-72.1923,-16.0354,0.00538305,0.0026337,-0.000381281,0.00543495,0.00258181,-0.13528,0.00313917,0.0206235,713,680,-72.1923,16.0354
-504,344,-72.6821,-18.7839,0.00418116,0.00116068,-8.37619e-05,0.00418348,0.00115836,-0.0277029,0.0024942,0.0220822,720,680,-72.682,18.7839
-497,344,-73.1888,-21.4631,0.00318076,-5.56025e-05,0.000115973,0.00318491,-5.97531e-05,0.0357732,0.00214347,0.0201247,727,680,-73.1888,21.4631
-490,344,-73.6932,-24.1398,0.00232533,-0.000938265,0.000172059,0.00233438,-0.000947311,0.0525265,0.00195028,0.0181983,734,680,-73.6932,24.1398
-483,344,-74.1849,-26.8221,0.00165687,-0.00157069,0.000119916,0.00166132,-0.00157514,0.0370855,0.00186879,0.0194618,741,680,-74.1849,26.8221
-476,344,-74.6609,-29.5207,0.00117786,-0.00202419,-8.31985e-05,0.00118002,-0.00202635,-0.0259595,0.00187258,0.0216887,748,680,-74.6609,29.5207
-469,344,-75.2139,-32.3239,0.000921172,-0.00230507,-0.000372994,0.000963733,-0.00234763,-0.113616,0.00196668,0.0455217,755,680,-75.2139,32.3239
-462,344,-75.9293,-35.1221,0,0,0,0,0,0,0,-1,762,680,-75.9293,35.1221
-455,344,-12.1653,-7.99176,0,0,0,0,0,0,0,-1,769,680,-12.1653,7.99174
-448,344,-5.67657,-2.72864,0,0,0,0,0,0,0,-1,776,680,-5.6766,2.72863
-441,344,-5.09229,-2.34167,0,0,0,0,0,0,0,-1,783,680,-5.09229,2.34168
-434,344,-4.28778,-2.08807,0,0,0,0,0,0,0,-1,790,680,-4.28778,2.08809
-427,344,-3.06506,-1.45404,0,0,0,0,0,0,0,-1,797,680,-3.06505,1.45402
-420,344,-1.96582,-1.57574,0,0,0,0,0,0,0,-1,804,680,-1.96579,1.57574
-413,344,-0.817993,-1.4751,0,0,0,0,0,0,0,-1,811,680,-0.818017,1.47511
-406,344,-0.00714111,-1.25189,0,0,0,0,0,0,0,-1,818,680,-0.00714956,1.25191
-399,344,0.240051,-1.75769,0,0,0,0,0,0,0,-1,825,680,0.240079,1.75767
-392,344,1.11353,-2.05615,0,0,0,0,0,0,0,-1,832,680,1.11351,2.05616
-385,344,0,0,0,0,0,0,0,0,0,-1,839,680,0,0
-378,344,0,0,0,0,0,0,0,0,0,-1,846,680,0,0
-371,344,0,0,0,0,0,0,0,0,0,-1,853,680,0,0
-364,344,0,0,0,0,0,0,0,0,0,-1,860,680,0,0
-357,344,0,0,0,0,0,0,0,0,0,-1,867,680,0,0
-350,344,0,0,0,0,0,0,0,0,0,-1,874,680,0,0
-343,344,0,0,0,0,0,0,0,0,0,-1,881,680,0,0
-336,344,0,0,0,0,0,0,0,0,0,-1,888,680,0,0
-329,344,0,0,0,0,0,0,0,0,0,-1,895,680,0,0
-322,344,0,0,0,0,0,0,0,0,0,-1,902,680,0,0
-315,344,0,0,0,0,0,0,0,0,0,-1,909,680,0,0
-308,344,0,0,0,0,0,0,0,0,0,-1,916,680,0,0
-301,344,0,0,0,0,0,0,0,0,0,-1,923,680,0,0
-294,344,0,0,0,0,0,0,0,0,0,-1,930,680,0,0
-287,344,0,0,0,0,0,0,0,0,0,-1,937,680,0,0
-280,344,0,0,0,0,0,0,0,0,0,-1,944,680,0,0
-273,344,0,0,0,0,0,0,0,0,0,-1,951,680,0,0
-266,344,0,0,0,0,0,0,0,0,0,-1,958,680,0,0
-259,344,0,0,0,0,0,0,0,0,0,-1,965,680,0,0
-252,344,0,0,0,0,0,0,0,0,0,-1,972,680,0,0
-245,344,0,0,0,0,0,0,0,0,0,-1,979,680,0,0
-238,344,0,0,0,0,0,0,0,0,0,-1,986,680,0,0
-231,344,0,0,0,0,0,0,0,0,0,-1,993,680,0,0
-224,344,0,0,0,0,0,0,0,0,0,-1,1000,680,0,0
-217,344,0,0,0,0,0,0,0,0,0,-1,1007,680,0,0
-210,344,0,0,0,0,0,0,0,0,0,-1,1014,680,0,0
-203,344,0,0,0,0,0,0,0,0,0,-1,1021,680,0,0
-196,344,0,0,0,0,0,0,0,0,0,-1,1028,680,0,0
-189,344,0,0,0,0,0,0,0,0,0,-1,1035,680,0,0
-182,344,0,0,0,0,0,0,0,0,0,-1,1042,680,0,0
-175,344,0,0,0,0,0,0,0,0,0,-1,1049,680,0,0
-168,344,0,0,0,0,0,0,0,0,0,-1,1056,680,0,0
-161,344,0,0,0,0,0,0,0,0,0,-1,1063,680,0,0
-154,344,0,0,0,0,0,0,0,0,0,-1,1070,680,0,0
-147,344,0,0,0,0,0,0,0,0,0,-1,1077,680,0,0
-140,344,0,0,0,0,0,0,0,0,0,-1,1084,680,0,0
-133,344,0,0,0,0,0,0,0,0,0,-1,1091,680,0,0
-126,344,0,0,0,0,0,0,0,0,0,-1,1098,680,0,0
-119,344,0,0,0,0,0,0,0,0,0,-1,1105,680,0,0
-112,344,0,0,0,0,0,0,0,0,0,-1,1112,680,0,0
-105,344,0,0,0,0,0,0,0,0,0,-1,1119,680,0,0
-98,344,0,0,0,0,0,0,0,0,0,-1,1126,680,0,0
-91,344,0,0,0,0,0,0,0,0,0,-1,1133,680,0,0
-84,344,0,0,0,0,0,0,0,0,0,-1,1140,680,0,0
-77,344,0,0,0,0,0,0,0,0,0,-1,1147,680,0,0
-70,344,0,0,0,0,0,0,0,0,0,-1,1154,680,0,0
-63,344,0,0,0,0,0,0,0,0,0,-1,1161,680,0,0
-56,344,0,0,0,0,0,0,0,0,0,-1,1168,680,0,0
-49,344,0,0,0,0,0,0,0,0,0,-1,1175,680,0,0
-42,344,0,0,0,0,0,0,0,0,0,-1,1182,680,0,0
-35,344,0,0,0,0,0,0,0,0,0,-1,1189,680,0,0
-28,344,0,0,0,0,0,0,0,0,0,-1,1196,680,0,0
-21,344,0,0,0,0,0,0,0,0,0,-1,1203,680,0,0
-14,344,0,0,0,0,0,0,0,0,0,-1,1210,680,0,0
-7,344,0,0,0,0,0,0,0,0,0,-1,1217,680,0,0
0,344,0,0,0,0,0,0,0,0,0,-1,1224,680,0,0
7,344,0,0,0,0,0,0,0,0,0,-1,1231,680,0,0
14,344,0,0,0,0,0,0,0,0,0,-1,1238,680,0,0
21,344,0,0,0,0,0,0,0,0,0,-1,1245,680,0,0
28,344,0,0,0,0,0,0,0,0,0,-1,1252,680,0,0
35,344,0,0,0,0,0,0,0,0,0,-1,1259,680,0,0
42,344,0,0,0,0,0,0,0,0,0,-1,1266,680,0,0
49,344,0,0,0,0,0,0,0,0,0,-1,1273,680,0,0
56,344,0,0,0,0,0,0,0,0,0,-1,1280,680,0,0
63,344,0,0,0,0,0,0,0,0,0,-1,1287,680,0,0
70,344,0,0,0,0,0,0,0,0,0,-1,1294,680,0,0
77,344,0,0,0,0,0,0,0,0,0,-1,1301,680,0,0
84,344,0,0,0,0,0,0,0,0,0,-1,1308,680,0,0
91,344,0,0,0,0,0,0,0,0,0,-1,1315,680,0,0
98,344,0,0,0,0,0,0,0,0,0,-1,1322,680,0,0
105,344,0,0,0,0,0,0,0,0,0,-1,1329,680,0,0
112,344,0,0,0,0,0,0,0,0,0,-1,1336,680,0,0
119,344,0,0,0,0,0,0,0,0,0,-1,1343,680,0,0
126,344,0,0,0,0,0,0,0,0,0,-1,1350,680,0,0
133,344,0,0,0,0,0,0,0,0,0,-1,1357,680,0,0
140,344,0,0,0,0,0,0,0,0,0,-1,1364,680,0,0
147,344,0,0,0,0,0,0,0,0,0,-1,1371,680,0,0
154,344,0,0,0,0,0,0,0,0,0,-1,1378,680,0,0
161,344,0,0,0,0,0,0,0,0,0,-1,1385,680,0,0
168,344,0,0,0,0,0,0,0,0,0,-1,1392,680,0,0
175,344,0,0,0,0,0,0,0,0,0,-1,1399,680,0,0
182,344,0,0,0,0,0,0,0,0,0,-1,1406,680,0,0
189,344,0,0,0,0,0,0,0,0,0,-1,1413,680,0,0
196,344,0,0,0,0,0,0,0,0,0,-1,1420,680,0,0
203,344,0,0,0,0,0,0,0,0,0,-1,1427,680,0,0
210,344,0,0,0,0,0,0,0,0,0,-1,1434,680,0,0
217,344,0,0,0,0,0,0,0,0,0,-1,1441,680,0,0
224,344,0,0,0,0,0,0,0,0,0,-1,1448,680,0,0
231,344,0,0,0,0,0,0,0,0,0,-1,1455,680,0,0
238,344,0,0,0,0,0,0,0,0,0,-1,1462,680,0,0
245,344,0,0,0,0,0,0,0,0,0,-1,1469,680,0,0
252,344,0,0,0,0,0,0,0,0,0,-1,1476,680,0,0
259,344,0,0,0,0,0,0,0,0,0,-1,1483,680,0,0
266,344,0,0,0,0,0,0,0,0,0,-1,1490,680,0,0
273,344,0,0,0,0,0,0,0,0,0,-1,1497,680,0,0
280,344,0,0,0,0,0,0,0,0,0,-1,1504,680,0,0
287,344,0,0,0,0,0,0,0,0,0,-1,1511,680,0,0
294,344,0,0,0,0,0,0,0,0,0,-1,1518,680,0,0
301,344,0,0,0,0,0,0,0,0,0,-1,1525,680,0,0
308,344,0,0,0,0,0,0,0,0,0,-1,1532,680,0,0
315,344,0,0,0,0,0,0,0,0,0,-1,1539,680,0,0
322,344,0,0,0,0,0,0,0,0,0,-1,1546,680,0,0
329,344,0,0,0,0,0,0,0,0,0,-1,1553,680,0,0
336,344,0,0,0,0,0,0,0,0,0,-1,1560,680,0,0
343,344,0,0,0,0,0,0,0,0,0,-1,1567,680,0,0
350,344,0,0,0,0,0,0,0,0,0,-1,1574,680,0,0
357,344,0,0,0,0,0,0,0,0,0,-1,1581,680,0,0
364,344,0,0,0,0,0,0,0,0,0,-1,1588,680,0,0
371,344,0,0,0,0,0,0,0,0,0,-1,1595,680,0,0
378,344,0,0,0,0,0,0,0,0,0,-1,1602,680,0,0
385,344,0,0,0,0,0,0,0,0,0,-1,1609,680,0,0
392,344,0,0,0,0,0,0,0,0,0,-1,1616,680,0,0
399,344,0,0,0,0,0,0,0,0,0,-1,1623,680,0,0
406,344,0,0,0,0,0,0,0,0,0,-1,1630,680,0,0
413,344,0,0,0,0,0,0,0,0,0,-1,1637,680,0,0
420,344,0,0,0,0,0,0,0,0,0,-1,1644,680,0,0
427,344,0,0,0,0,0,0,0,0,0,-1,1651,680,0,0
434,344,0,0,0,0,0,0,0,0,0,-1,1658,680,0,0
441,344,0,0,0,0,0,0,0,0,0,-1,1665,680,0,0
448,344,0,0,0,0,0,0,0,0,0,-1,1672,680,0,0
455,344,0,0,0,0,0,0,0,0,0,-1,1679,680,0,0
462,344,0,0,0,0,0,0,0,0,0,-1,1686,680,0,0
469,344,0,0,0,0,0,0,0,0,0,-1,1693,680,0,0
476,344,0,0,0,0,0,0,0,0,0,-1,1700,680,0,0
483,344,0,0,0,0,0,0,0,0,0,-1,1707,680,0,0
490,344,0,0,0,0,0,0,0,0,0,-1,1714,680,0,0
497,344,0,0,0,0,0,0,0,0,0,-1,1721,680,0,0
504,344,0,0,0,0,0,0,0,0,0,-1,1728,680,0,0
511,344,15.4819,0.452637,0,0,0,0,0,0,0,-1,1735,680,15.4819,-0.452656
518,344,17.1357,2.31207,0,0,0,0,0,0,0,-1,1742,680,17.1358,-2.31207
525,344,31.5201,2.6217,0,0,0,0,0,0,0,-1,1749,680,31.5201,-2.62168
532,344,31.9766,2.61047,0,0,0,0,0,0,0,-1,1756,680,31.9765,-2.6105
539,344,32.4379,2.65314,0,0,0,0,0,0,0,-1,1763,680,32.4378,-2.65316
546,344,14.6722,4.30243,0,0,0,0,0,0,0,-1,1770,680,14.6722,-4.30241
553,344,14.8136,4.35681,0,0,0,0,0,0,0,-1,1777,680,14.8136,-4.35679
560,344,11.9363,2.14185,0,0,0,0,0,0,0,-1,1784,680,11.9362,-2.14182
567,344,11.397,0.925842,0,0,0,0,0,0,0,-1,1791,680,11.397,-0.92583
574,344,10.0004,0.504639,0,0,0,0,0,0,0,-1,1798,680,10.0004,-0.504645
581,344,13.6709,-0.969604,0,0,0,0,0,0,0,-1,1805,680,13.6709,0.969629
588,344,77.6672,-32.3207,0,0,0,0,0,0,0,-1,1812,680,77.6673,32.3207
595,344,81.5276,-32.8669,0,0,0,0,0,0,0,-1,1819,680,81.5276,32.8669
602,344,85.5608,-31.9524,0,0,0,0,0,0,0,-1,1826,680,85.5608,31.9524
609,344,85.1608,-29.0215,0.00279594,0.00309179,0.00324924,0.00619646,-0.000308739,0.808145,0.00423764,0.0323271,1833,680,85.1607,29.0215
616,344,84.5345,-26.2686,0.00254607,0.00228959,0.0020566,0.00447842,0.000357234,0.754261,0.00287395,0.0318846,1840,680,84.5345,26.2686
623,344,84.1373,-23.549,0.0025269,0.00172285,0.00104017,0.00324003,0.00100972,0.600989,0.00191437,0.0270579,1847,680,84.1373,23.549
630,344,83.5983,-20.9291,0.00276623,0.00140857,0.000245185,0.00280916,0.00136565,0.173302,0.00162207,0.0315698,1854,680,83.5983,20.9291
637,344,83.0189,-18.1913,0.00316062,0.0013828,-0.000460392,0.00327277,0.00127065,-0.238944,0.0019052,0.0313187,1861,680,83.019,18.1913
644,344,82.5244,-15.4073,0.00373107,0.00159003,-0.00109292,0.00419041,0.00113068,-0.397876,0.00250333,0.0222857,1868,680,82.5245,15.4073
651,344,81.9788,-12.749,0.00448604,0.00205147,-0.00166816,0.00533383,0.00120368,-0.470202,0.0032303,0.0150354,1875,680,81.9788,12.749
658,344,81.4071,-10.062,0,0,0,0,0,0,0,-1,1882,680,81.4071,10.062
665,344,81.1891,-7.32172,0,0,0,0,0,0,0,-1,1889,680,81.189,7.32173
672,344,54.3232,-5.07654,0,0,0,0,0,0,0,-1,1896,680,54.3233,5.07656
679,344,36.7468,-2.59857,0,0,0,0,0,0,0,-1,1903,680,36.7468,2.59857
686,344,15.024,1.82709,0,0,0,0,0,0,0,-1,1910,680,15.024,-1.82706
693,344,12.4362,-1.42346,0,0,0,0,0,0,0,-1,1917,680,12.4361,1.42348
700,344,17.5396,2.61206,0,0,0,0,0,0,0,-1,1924,680,17.5396,-2.61204
707,344,18.5829,3.29352,0,0,0,0,0,0,0,-1,1931,680,18.5828,-3.2935
714,344,0,0,0,0,0,0,0,0,0,-1,1938,680,0,0
721,344,0,0,0,0,0,0,0,0,0,-1,1945,680,0,0
728,344,0,0,0,0,0,0,0,0,0,-1,1952,680,0,0
735,344,0,0,0,0,0,0,0,0,0,-1,1959,680,0,0
742,344,0,0,0,0,0,0,0,0,0,-1,1966,680,0,0
749,344,0,0,0,0,0,0,0,0,0,-1,1973,680,0,0
756,344,0,0,0,0,0,0,0,0,0,-1,1980,680,0,0
763,344,0,0,0,0,0,0,0,0,0,-1,1987,680,0,0
770,344,0,0,0,0,0,0,0,0,0,-1,1994,680,0,0
777,344,0,0,0,0,0,0,0,0,0,-1,2001,680,0,0
784,344,0,0,0,0,0,0,0,0,0,-1,2008,680,0,0
791,344,0,0,0,0,0,0,0,0,0,-1,2015,680,0,0
798,344,0,0,0,0,0,0,0,0,0,-1,2022,680,0,0
805,344,0,0,0,0,0,0,0,0,0,-1,2029,680,0,0
812,344,0,0,0,0,0,0,0,0,0,-1,2036,680,0,0
-700,337,0,0,0,0,0,0,0,0,0,-1,524,687,0,0
-693,337,0,0,0,0,0,0,0,0,0,-1,531,687,0,0
-686,337,0,0,0,0,0,0,0,0,0,-1,538,687,0,0
-679,337,0,0,0,0,0,0,0,0,0,-1,545,687,0,0
-672,337,0,0,0,0,0,0,0,0,0,-1,552,687,0,0
-665,337,0,0,0,0,0,0,0,0,0,-1,559,687,0,0
-658,337,0,0,0,0,0,0,0,0,0,-1,566,687,0,0
-651,337,0,0,0,0,0,0,0,0,0,-1,573,687,0,0
-644,337,0,0,0,0,0,0,0,0,0,-1,580,687,0,0
-637,337,0,0,0,0,0,0,0,0,0,-1,587,687,0,0
-630,337,0,0,0,0,0,0,0,0,0,-1,594,687,0,0
-623,337,0,0,0,0,0,0,0,0,0,-1,601,687,0,0
-616,337,0,0,0,0,0,0,0,0,0,-1,608,687,0,0
-609,337,0,0,0,0,0,0,0,0,0,-1,615,687,0,0
-602,337,0,0,0,0,0,0,0,0,0,-1,622,687,0,0
-595,337,0,0,0,0,0,0,0,0,0,-1,629,687,0,0
-588,337,-10.8413,1.27863,0,0,0,0,0,0,0,-1,636,687,-10.8413,-1.27861
-581,337,-11.2157,1.31567,0,0,0,0,0,0,0,-1,643,687,-11.2157,-1.3157
-574,337,-6.03339,2.0321,0,0,0,0,0,0,0,-1,650,687,-6.03337,-2.03213
-567,337,-13.8102,1.56787,0,0,0,0,0,0,0,-1,657,687,-13.8102,-1.56789
-560,337,-15.5435,2.34247,0,0,0,0,0,0,0,-1,664,687,-15.5435,-2.34247
-553,337,-18.0128,1.12927,0,0,0,0,0,0,0,-1,671,687,-18.0128,-1.12926
-546,337,-18.0244,-2.03845,0,0,0,0,0,0,0,-1,678,687,-18.0244,2.03846
-539,337,-19.2426,-3.53815,0,0,0,0,0,0,0,-1,685,687,-19.2426,3.53813
-532,337,-73.4285,-7.25189,0,0,0,0,0,0,0,-1,692,687,-73.4285,7.2519
-525,337,-73.88,-10.0625,0.0077079,0.00586275,-0.000616619,0.00789499,0.00567566,-0.29459,0.00470152,0.023927,699,687,-73.88,10.0625
-518,337,-74.3511,-12.7841,0.00619718,0.00348034,-0.000165637,0.00620724,0.00347028,-0.0606675,0.00359208,0.0263765,706,687,-74.3511,12.784
-511,337,-74.8411,-15.5655,0.00481721,0.00172637,0.000104238,0.00482072,0.00172286,0.0336739,0.00282073,0.0269231,713,687,-74.8411,15.5655
-504,337,-75.3516,-18.311,0.00358749,0.000326992,0.000277657,0.00361097,0.000303516,0.0843484,0.00231279,0.0275305,720,687,-75.3516,18.311
-497,337,-75.8966,-20.9707,0.00255388,-0.000779787,0.000359973,0.00259231,-0.000818214,0.106348,0.00205595,0.0203085,727,687,-75.8966,20.9707
-490,337,-76.4035,-23.6496,0.00168742,-0.00149938,0.000297887,0.00171503,-0.00152698,0.0924086,0.00187283,0.0177509,734,687,-76.4035,23.6496
-483,337,-76.9335,-26.3924,0.000978902,-0.00187264,0.000110644,0.000983189,-0.00187693,0.0387237,0.00167795,0.023636,741,687,-76.9335,26.3924
-476,337,-77.2207,-29.1058,0,0,0,0,0,0,0,-1,748,687,-77.2207,29.1058
-469,337,-77.8124,-31.9934,0,0,0,0,0,0,0,-1,755,687,-77.8124,31.9934
-462,337,-14.186,-8.89264,0,0,0,0,0,0,0,-1,762,687,-14.186,8.89266
-455,337,-6.00574,-3.12933,0,0,0,0,0,0,0,-1,769,687,-6.00576,3.12934
-448,337,-5.30627,-2.07202,0,0,0,0,0,0,0,-1,776,687,-5.30628,2.07205
-441,337,-4.24762,-1.49597,0,0,0,0,0,0,0,-1,783,687,-4.24762,1.49598
-434,337,-6.86908,1.37531,0,0,0,0,0,0,0,-1,790,687,-6.86908,-1.3753
-427,337,-9.92004,2.487,0,0,0,0,0,0,0,-1,797,687,-9.92002,-2.48701
-420,337,-2.95996,-1.76697,0,0,0,0,0,0,0,-1,804,687,-2.95998,1.76696
-413,337,-1.29169,-1.99487,0,0,0,0,0,0,0,-1,811,687,-1.29171,1.9949
-406,337,-1.02356,-1.89563,0,0,0,0,0,0,0,-1,818,687,-1.02357,1.89564
-399,337,-0.472839,-2.21338,0,0,0,0,0,0,0,-1,825,687,-0.472837,2.2134
-392,337,0,0,0,0,0,0,0,0,0,-1,832,687,0,0
-385,337,0,0,0,0,0,0,0,0,0,-1,839,687,0,0
-378,337,0,0,0,0,0,0,0,0,0,-1,846,687,0,0
-371,337,0,0,0,0,0,0,0,0,0,-1,853,687,0,0
-364,337,0,0,0,0,0,0,0,0,0,-1,860,687,0,0
-357,337,0,0,0,0,0,0,0,0,0,-1,867,687,0,0
-350,337,0,0,0,0,0,0,0,0,0,-1,874,687,0,0
-343,337,0,0,0,0,0,0,0,0,0,-1,881,687,0,0
-336,337,0,0,0,0,0,0,0,0,0,-1,888,687,0,0
-329,337,0,0,0,0,0,0,0,0,0,-1,895,687,0,0
-322,337,0,0,0,0,0,0,0,0,0,-1,902,687,0,0
-315,337,0,0,0,0,0,0,0,0,0,-1,909,687,0,0
-308,337,0,0,0,0,0,0,0,0,0,-1,916,687,0,0
-301,337,0,0,0,0,0,0,0,0,0,-1,923,687,0,0
-294,337,0,0,0,0,0,0,0,0,0,-1,930,687,0,0
-287,337,0,0,0,0,0,0,0,0,0,-1,937,687,0,0
-280,337,0,0,0,0,0,0,0,0,0,-1,944,687,0,0
-273,337,0,0,0,0,0,0,0,0,0,-1,951,687,0,0
-266,337,0,0,0,0,0,0,0,0,0,-1,958,687,0,0
-259,337,0,0,0,0,0,0,0,0,0,-1,965,687,0,0
-252,337,0,0,0,0,0,0,0,0,0,-1,972,687,0,0
-245,337,0,0,0,0,0,0,0,0,0,-1,979,687,0,0
-238,337,0,0,0,0,0,0,0,0,0,-1,986,687,0,0
-231,337,0,0,0,0,0,0,0,0,0,-1,993,687,0,0
-224,337,0,0,0,0,0,0,0,0,0,-1,1000,687,0,0
-217,337,0,0,0,0,0,0,0,0,0,-1,1007,687,0,0
-210,337,0,0,0,0,0,0,0,0,0,-1,1014,687,0,0
-203,337,0,0,0,0,0,0,0,0,0,-1,1021,687,0,0
-196,337,0,0,0,0,0,0,0,0,0,-1,1028,687,0,0
-189,337,0,0,0,0,0,0,0,0,0,-1,1035,687,0,0
-182,337,0,0,0,0,0,0,0,0,0,-1,1042,687,0,0
-175,337,0,0,0,0,0,0,0,0,0,-1,1049,687,0,0
-168,337,0,0,0,0,0,0,0,0,0,-1,1056,687,0,0
-161,337,0,0,0,0,0,0,0,0,0,-1,1063,687,0,0
-154,337,0,0,0,0,0,0,0,0,0,-1,1070,687,0,0
-147,337,0,0,0,0,0,0,0,0,0,-1,1077,687,0,0
-140,337,0,0,0,0,0,0,0,0,0,-1,1084,687,0,0
-133,337,0,0,0,0,0,0,0,0,0,-1,1091,687,0,0
-126,337,0,0,0,0,0,0,0,0,0,-1,1098,687,0,0
-119,337,0,0,0,0,0,0,0,0,0,-1,1105,687,0,0
-112,337,0,0,0,0,0,0,0,0,0,-1,1112,687,0,0
-105,337,0,0,0,0,0,0,0,0,0,-1,1119,687,0,0
-98,337,0,0,0,0,0,0,0,0,0,-1,1126,687,0,0
-91,337,0,0,0,0,0,0,0,0,0,-1,1133,687,0,0
-84,337,0,0,0,0,0,0,0,0,0,-1,1140,687,0,0
-77,337,0,0,0,0,0,0,0,0,0,-1,1147,687,0,0
-70,337,0,0,0,0,0,0,0,0,0,-1,1154,687,0,0
-63,337,0,0,0,0,0,0,0,0,0,-1,1161,687,0,0
-56,337,0,0,0,0,0,0,0,0,0,-1,1168,687,0,0
-49,337,0,0,0,0,0,0,0,0,0,-1,1175,687,0,0
-42,337,0,0,0,0,0,0,0,0,0,-1,1182,687,0,0
-35,337,0,0,0,0,0,0,0,0,0,-1,1189,687,0,0
-28,337,0,0,0,0,0,0,0,0,0,-1,1196,687,0,0
-21,337,0,0,0,0,0,0,0,0,0,-1,1203,687,0,0
-14,337,0,0,0,0,0,0,0,0,0,-1,1210,687,0,0
-7,337,0,0,0,0,0,0,0,0,0,-1,1217,687,0,0
0,337,0,0,0,0,0,0,0,0,0,-1,1224,687,0,0
7,337,0,0,0,0,0,0,0,0,0,-1,1231,687,0,0
14,337,0,0,0,0,0,0,0,0,0,-1,1238,687,0,0
21,337,0,0,0,0,0,0,0,0,0,-1,1245,687,0,0
28,337,0,0,0,0,0,0,0,0,0,-1,1252,687,0,0
35,337,0,0,0,0,0,0,0,0,0,-1,1259,687,0,0
42,337,0,0,0,0,0,0,0,0,0,-1,1266,687,0,0
49,337,0,0,0,0,0,0,0,0,0,-1,1273,687,0,0
56,337,0,0,0,0,0,0,0,0,0,-1,1280,687,0,0
63,337,0,0,0,0,0,0,0,0,0,-1,1287,687,0,0
70,337,0,0,0,0,0,0,0,0,0,-1,1294,687,0,0
77,337,0,0,0,0,0,0,0,0,0,-1,1301,687,0,0
84,337,0,0,0,0,0,0,0,0,0,-1,1308,687,0,0
91,337,0,0,0,0,0,0,0,0,0,-1,1315,687,0,0
98,337,0,0,0,0,0,0,0,0,0,-1,1322,687,0,0
105,337,0,0,0,0,0,0,0,0,0,-1,1329,687,0,0
112,337,0,0,0,0,0,0,0,0,0,-1,1336,687,0,0
119,337,0,0,0,0,0,0,0,0,0,-1,1343,687,0,0
126,337,0,0,0,0,0,0,0,0,0,-1,1350,687,0,0
133,337,0,0,0,0,0,0,0,0,0,-1,1357,687,0,0
140,337,0,0,0,0,0,0,0,0,0,-1,1364,687,0,0
147,337,0,0,0,0,0,0,0,0,0,-1,1371,687,0,0
154,337,0,0,0,0,0,0,0,0,0,-1,1378,687,0,0
161,337,0,0,0,0,0,0,0,0,0,-1,1385,687,0,0
168,337,0,0,0,0,0,0,0,0,0,-1,1392,687,0,0
175,337,0,0,0,0,0,0,0,0,0,-1,1399,687,0,0
182,337,0,0,0,0,0,0,0,0,0,-1,1406,687,0,0
189,337,0,0,0,0,0,0,0,0,0,-1,1413,687,0,0
196,337,0,0,0,0,0,0,0,0,0,-1,1420,687,0,0
203,337,0,0,0,0,0,0,0,0,0,-1,1427,687,0,0
210,337,0,0,0,0,0,0,0,0,0,-1,1434,687,0,0
217,337,0,0,0,0,0,0,0,0,0,-1,1441,687,0,0
224,337,0,0,0,0,0,0,0,0,0,-1,1448,687,0,0
231,337,0,0,0,0,0,0,0,0,0,-1,1455,687,0,0
238,337,0,0,0,0,0,0,0,0,0,-1,1462,687,0,0
245,337,0,0,0,0,0,0,0,0,0,-1,1469,687,0,0
252,337,0,0,0,0,0,0,0,0,0,-1,1476,687,0,0
259,337,0,0,0,0,0,0,0,0,0,-1,1483,687,0,0
266,337,0,0,0,0,0,0,0,0,0,-1,1490,687,0,0
273,337,0,0,0,0,0,0,0,0,0,-1,1497,687,0,0
280,337,0,0,0,0,0,0,0,0,0,-1,1504,687,0,0
287,337,0,0,0,0,0,0,0,0,0,-1,1511,687,0,0
294,337,0,0,0,0,0,0,0,0,0,-1,1518,687,0,0
301,337,0,0,0,0,0,0,0,0,0,-1,1525,687,0,0
308,337,0,0,0,0,0,0,0,0,0,-1,1532,687,0,0
315,337,0,0,0,0,0,0,0,0,0,-1,1539,687,0,0
322,337,0,0,0,0,0,0,0,0,0,-1,1546,687,0,0
329,337,0,0,0,0,0,0,0,0,0,-1,1553,687,0,0
336,337,0,0,0,0,0,0,0,0,0,-1,1560,687,0,0
343,337,0,0,0,0,0,0,0,0,0,-1,1567,687,0,0
350,337,0,0,0,0,0,0,0,0,0,-1,1574,687,0,0
357,337,0,0,0,0,0,0,0,0,0,-1,1581,687,0,0
364,337,0,0,0,0,0,0,0,0,0,-1,1588,687,0,0
371,337,0,0,0,0,0,0,0,0,0,-1,1595,687,0,0
378,337,0,0,0,0,0,0,0,0,0,-1,1602,687,0,0
385,337,0,0,0,0,0,0,0,0,0,-1,1609,687,0,0
392,337,0,0,0,0,0,0,0,0,0,-1,1616,687,0,0
399,337,0,0,0,0,0,0,0,0,0,-1,1623,687,0,0
406,337,0,0,0,0,0,0,0,0,0,-1,1630,687,0,0
413,337,0,0,0,0,0,0,0,0,0,-1,1637,687,0,0
420,337,0,0,0,0,0,0,0,0,0,-1,1644,687,0,0
427,337,0,0,0,0,0,0,0,0,0,-1,1651,687,0,0
434,337,0,0,0,0,0,0,0,0,0,-1,1658,687,0,0
441,337,0,0,0,0,0,0,0,0,0,-1,1665,687,0,0
448,337,0,0,0,0,0,0,0,0,0,-1,1672,687,0,0
455,337,0,0,0,0,0,0,0,0,0,-1,1679,687,0,0
462,337,0,0,0,0,0,0,0,0,0,-1,1686,687,0,0
469,337,0,0,0,0,0,0,0,0,0,-1,1693,687,0,0
476,337,0,0,0,0,0,0,0,0,0,-1,1700,687,0,0
483,337,0,0,0,0,0,0,0,0,0,-1,1707,687,0,0
490,337,0,0,0,0,0,0,0,0,0,-1,1714,687,0,0
497,337,0,0,0,0,0,0,0,0,0,-1,1721,687,0,0
504,337,0,0,0,0,0,0,0,0,0,-1,1728,687,0,0
511,337,0,0,0,0,0,0,0,0,0,-1,1735,687,0,0
518,337,18.0369,1.64581,0,0,0,0,0,0,0,-1,1742,687,18.0368,-1.64581
525,337,31.0717,2.13745,0,0,0,0,0,0,0,-1,1749,687,31.0717,-2.13747
532,337,31.5126,2.13904,0,0,0,0,0,0,0,-1,1756,687,31.5125,-2.13905
539,337,31.9684,2.15594,0,0,0,0,0,0,0,-1,1763,687,31.9684,-2.15596
546,337,32.3584,1.43719,0,0,0,0,0,0,0,-1,1770,687,32.3585,-1.43722
553,337,32.1809,1.36395,0,0,0,0,0,0,0,-1,1777,687,32.181,-1.36396
560,337,18.4053,3.62793,0,0,0,0,0,0,0,-1,1784,687,18.4052,-3.6279
567,337,11.9288,1.38776,0,0,0,0,0,0,0,-1,1791,687,11.9288,-1.38777
574,337,10.704,1.19476,0,0,0,0,0,0,0,-1,1798,687,10.704,-1.19478
581,337,8.50427,0.561768,0,0,0,0,0,0,0,-1,1805,687,8.5043,-0.561754
588,337,8.5885,-0.0536499,0,0,0,0,0,0,0,-1,1812,687,8.58844,0.0536788
595,337,81.6165,-31.2047,0,0,0,0,0,0,0,-1,1819,687,81.6165,31.2047
602,337,88.577,-31.1845,0,0,0,0,0,0,0,-1,1826,687,88.577,31.1845
609,337,87.8668,-28.4656,0.00241099,0.0030421,0.00356546,0.00630594,-0.000852853,0.829534,0.00451517,0.0486467,1833,687,87.8668,28.4656
616,337,87.3352,-25.8055,0.00217426,0.00218033,0.00246359,0.00464089,-0.000286298,0.786014,0.00319364,0.0377704,1840,687,87.3352,25.8055
623,337,86.7423,-22.942,0.00218924,0.00155697,0.00150585,0.00341179,0.000334432,0.681932,0.00217165,0.0227395,1847,687,86.7423,22.9419
630,337,86.2893,-20.3086,0.00248034,0.00124855,0.000682062,0.00278343,0.000945461,0.418165,0.00163432,0.0258056,1854,687,86.2892,20.3086
637,337,85.7603,-17.6178,0.00292234,0.00128456,-9.38118e-05,0.00292769,0.0012792,-0.0570313,0.00169478,0.025245,1861,687,85.7602,17.6178
644,337,85.2197,-14.8639,0.00351284,0.00160598,-0.000844269,0.00383291,0.0012859,-0.362375,0.00225251,0.0173266,1868,687,85.2197,14.8639
651,337,84.6372,-12.2266,0.00426719,0.00224055,-0.00156688,0.00511986,0.00138787,-0.498368,0.00305748,0.014545,1875,687,84.6372,12.2266
658,337,84.163,-9.5387,0.0051814,0.00332062,-0.00223939,0.00667598,0.00182603,-0.588514,0.003984,0.0171209,1882,687,84.163,9.53872
665,337,83.7389,-6.87347,0.00611914,0.00490612,-0.00303168,0.00860438,0.00242088,-0.686672,0.00512362,0.0239979,1889,687,83.7389,6.87348
672,337,83.3364,-4.15948,0,0,0,0,0,0,0,-1,1896,687,83.3364,4.15947
679,337,53.736,-3.5094,0,0,0,0,0,0,0,-1,1903,687,53.736,3.50941
686,337,18.5614,1.68597,0,0,0,0,0,0,0,-1,1910,687,18.5614,-1.68598
693,337,16.5415,2.21411,0,0,0,0,0,0,0,-1,1917,687,16.5415,-2.2141
700,337,17.2661,2.44379,0,0,0,0,0,0,0,-1,1924,687,17.2661,-2.44378
707,337,17.3544,5.61853,0,0,0,0,0,0,0,-1,1931,687,17.3543,-5.61851
714,337,0,0,0,0,0,0,0,0,0,-1,1938,687,0,0
721,337,0,0,0,0,0,0,0,0,0,-1,1945,687,0,0
728,337,0,0,0,0,0,0,0,0,0,-1,1952,687,0,0
735,337,0,0,0,0,0,0,0,0,0,-1,1959,687,0,0
742,337,0,0,0,0,0,0,0,0,0,-1,1966,687,0,0
749,337,0,0,0,0,0,0,0,0,0,-1,1973,687,0,0
756,337,0,0,0,0,0,0,0,0,0,-1,1980,687,0,0
763,337,0,0,0,0,0,0,0,0,0,-1,1987,687,0,0
770,337,0,0,0,0,0,0,0,0,0,-1,1994,687,0,0
777,337,0,0,0,0,0,0,0,0,0,-1,2001,687,0,0
784,337,0,0,0,0,0,0,0,0,0,-1,2008,687,0,0
791,337,0,0,0,0,0,0,0,0,0,-1,2015,687,0,0
798,337,0,0,0,0,0,0,0,0,0,-1,2022,687,0,0
805,337,0,0,0,0,0,0,0,0,0,-1,2029,687,0,0
812,337,0,0,0,0,0,0,0,0,0,-1,2036,687,0,0
-700,330,0,0,0,0,0,0,0,0,0,-1,524,694,0,0
-693,330,0,0,0,0,0,0,0,0,0,-1,531,694,0,0
-686,330,0,0,0,0,0,0,0,0,0,-1,538,694,0,0
-679,330,0,0,0,0,0,0,0,0,0,-1,545,694,0,0
-672,330,0,0,0,0,0,0,0,0,0,-1,552,694,0,0
-665,330,0,0,0,0,0,0,0,0,0,-1,559,694,0,0
-658,330,0,0,0,0,0,0,0,0,0,-1,566,694,0,0
-651,330,0,0,0,0,0,0,0,0,0,-1,573,694,0,0
-644,330,0,0,0,0,0,0,0,0,0,-1,580,694,0,0
-637,330,0,0,0,0,0,0,0,0,0,-1,587,694,0,0
-630,330,0,0,0,0,0,0,0,0,0,-1,594,694,0,0
-623,330,0,0,0,0,0,0,0,0,0,-1,601,694,0,0
-616,330,0,0,0,0,0,0,0,0,0,-1,608,694,0,0
-609,330,0,0,0,0,0,0,0,0,0,-1,615,694,0,0
-602,330,0,0,0,0,0,0,0,0,0,-1,622,694,0,0
-595,330,-4.67883,1.65515,0,0,0,0,0,0,0,-1,629,694,-4.67881,-1.65515
-588,330,-8.5047,2.67346,0,0,0,0,0,0,0,-1,636,694,-8.50469,-2.67348
-581,330,-12.4227,0.947083,0,0,0,0,0,0,0,-1,643,694,-12.4227,-0.947109
-574,330,-9.02118,1.87952,0,0,0,0,0,0,0,-1,650,694,-9.02115,-1.87953
-567,330,-8.35577,0.909973,0,0,0,0,0,0,0,-1,657,694,-8.35575,-0.909945
-560,330,-13.1036,-0.584656,0,0,0,0,0,0,0,-1,664,694,-13.1035,0.584658
-553,330,-17.5484,-1.21545,0,0,0,0,0,0,0,-1,671,694,-17.5484,1.21547
-546,330,-74.5344,-0.9505,0,0,0,0,0,0,0,-1,678,694,-74.5344,0.950518
-539,330,-75.4288,-3.93091,0,0,0,0,0,0,0,-1,685,694,-75.4288,3.93091
-532,330,-76.1364,-6.82416,0.00861011,0.00733873,0.000107724,0.00861917,0.00732966,0.0839328,0.00536815,0.0319345,692,694,-76.1364,6.82414
-525,330,-76.5677,-9.63025,0.00708798,0.0047913,0.000265666,0.00711831,0.00476097,0.113674,0.00418713,0.012936,699,694,-76.5678,9.63023
-518,330,-77.0339,-12.2902,0.00557015,0.0026115,0.000403706,0.00562425,0.00255741,0.133206,0.0032516,0.0164522,706,694,-77.0339,12.2901
-511,330,-77.5352,-14.9861,0.00413076,0.000898234,0.000464545,0.00419619,0.000832799,0.139938,0.00256532,0.0219981,713,694,-77.5352,14.9862
-504,330,-78.0528,-17.6981,0.00277832,-0.000435668,0.000480862,0.00284872,-0.00050607,0.145376,0.00208838,0.0208417,720,694,-78.0528,17.6981
-497,330,-78.6039,-20.3396,0.00157888,-0.0014478,0.000439346,0.00164137,-0.00151029,0.141274,0.00182013,0.0164997,727,694,-78.6039,20.3396
-490,330,-79.1317,-23.1168,0.000577163,-0.00204816,0.000287642,0.000608309,-0.0020793,0.10786,0.00162732,0.0211688,734,694,-79.1316,23.1168
-483,330,-79.6387,-25.8824,0,0,0,0,0,0,0,-1,741,694,-79.6388,25.8824
-476,330,-80.1476,-28.6591,0,0,0,0,0,0,0,-1,748,694,-80.1477,28.6591
-469,330,-16.1478,-9.23303,0,0,0,0,0,0,0,-1,755,694,-16.1478,9.23301
-462,330,-7.26733,-3.84833,0,0,0,0,0,0,0,-1,762,694,-7.26731,3.84832
-455,330,-5.04254,-1.79303,0,0,0,0,0,0,0,-1,769,694,-5.04252,1.79305
-448,330,-4.89886,-1.66156,0,0,0,0,0,0,0,-1,776,694,-4.89886,1.66157
-441,330,-5.30676,-2.34045,0,0,0,0,0,0,0,-1,783,694,-5.30679,2.34048
-434,330,-7.20428,1.00024,0,0,0,0,0,0,0,-1,790,694,-7.20431,-1.00027
-427,330,-16.0428,2.89258,0,0,0,0,0,0,0,-1,797,694,-16.0428,-2.89259
-420,330,-29.0331,0.271606,0,0,0,0,0,0,0,-1,804,694,-29.0331,-0.27158
-413,330,-29.0896,0.56366,0,0,0,0,0,0,0,-1,811,694,-29.0896,-0.563671
-406,330,-1.65375,-1.74371,0,0,0,0,0,0,0,-1,818,694,-1.65375,1.74371
-399,330,0,0,0,0,0,0,0,0,0,-1,825,694,0,0
-392,330,0,0,0,0,0,0,0,0,0,-1,832,694,0,0
-385,330,0,0,0,0,0,0,0,0,0,-1,839,694,0,0
-378,330,0,0,0,0,0,0,0,0,0,-1,846,694,0,0
-371,330,0,0,0,0,0,0,0,0,0,-1,853,694,0,0
-364,330,0,0,0,0,0,0,0,0,0,-1,860,694,0,0
-357,330,0,0,0,0,0,0,0,0,0,-1,867,694,0,0
-350,330,0,0,0,0,0,0,0,0,0,-1,874,694,0,0
-343,330,0,0,0,0,0,0,0,0,0,-1,881,694,0,0
-336,330,0,0,0,0,0,0,0,0,0,-1,888,694,0,0
-329,330,0,0,0,0,0,0,0,0,0,-1,895,694,0,0
-322,330,0,0,0,0,0,0,0,0,0,-1,902,694,0,0
-315,330,0,0,0,0,0,0,0,0,0,-1,909,694,0,0
-308,330,0,0,0,0,0,0,0,0,0,-1,916,694,0,0
-301,330,0,0,0,0,0,0,0,0,0,-1,923,694,0,0
-294,330,0,0,0,0,0,0,0,0,0,-1,930,694,0,0
-287,330,0,0,0,0,0,0,0,0,0,-1,937,694,0,0
-280,330,0,0,0,0,0,0,0,0,0,-1,944,694,0,0
-273,330,0,0,0,0,0,0,0,0,0,-1,951,694,0,0
-266,330,0,0,0,0,0,0,0,0,0,-1,958,694,0,0
-259,330,0,0,0,0,0,0,0,0,0,-1,965,694,0,0
-252,330,0,0,0,0,0,0,0,0,0,-1,972,694,0,0
-245,330,0,0,0,0,0,0,0,0,0,-1,979,694,0,0
-238,330,0,0,0,0,0,0,0,0,0,-1,986,694,0,0
-231,330,0,0,0,0,0,0,0,0,0,-1,993,694,0,0
-224,330,0,0,0,0,0,0,0,0,0,-1,1000,694,0,0
-217,330,0,0,0,0,0,0,0,0,0,-1,1007,694,0,0
-210,330,0,0,0,0,0,0,0,0,0,-1,1014,694,0,0
-203,330,0,0,0,0,0,0,0,0,0,-1,1021,694,0,0
-196,330,0,0,0,0,0,0,0,0,0,-1,1028,694,0,0
-189,330,0,0,0,0,0,0,0,0,0,-1,1035,694,0,0
-182,330,0,0,0,0,0,0,0,0,0,-1,1042,694,0,0
-175,330,0,0,0,0,0,0,0,0,0,-1,1049,694,0,0
-168,330,0,0,0,0,0,0,0,0,0,-1,1056,694,0,0
-161,330,0,0,0,0,0,0,0,0,0,-1,1063,694,0,0
-154,330,0,0,0,0,0,0,0,0,0,-1,1070,694,0,0
-147,330,0,0,0,0,0,0,0,0,0,-1,1077,694,0,0
-140,330,0,0,0,0,0,0,0,0,0,-1,1084,694,0,0
-133,330,0,0,0,0,0,0,0,0,0,-1,1091,694,0,0
-126,330,0,0,0,0,0,0,0,0,0,-1,1098,694,0,0
-119,330,0,0,0,0,0,0,0,0,0,-1,1105,694,0,0
-112,330,0,0,0,0,0,0,0,0,0,-1,1112,694,0,0
-105,330,0,0,0,0,0,0,0,0,0,-1,1119,694,0,0
-98,330,0,0,0,0,0,0,0,0,0,-1,1126,694,0,0
-91,330,0,0,0,0,0,0,0,0,0,-1,1133,694,0,0
-84,330,0,0,0,0,0,0,0,0,0,-1,1140,694,0,0
-77,330,0,0,0,0,0,0,0,0,0,-1,1147,694,0,0
-70,330,0,0,0,0,0,0,0,0,0,-1,1154,694,0,0
-63,330,0,0,0,0,0,0,0,0,0,-1,1161,694,0,0
-56,330,0,0,0,0,0,0,0,0,0,-1,1168,694,0,0
-49,330,0,0,0,0,0,0,0,0,0,-1,1175,694,0,0
-42,330,0,0,0,0,0,0,0,0,0,-1,1182,694,0,0
-35,330,0,0,0,0,0,0,0,0,0,-1,1189,694,0,0
-28,330,0,0,0,0,0,0,0,0,0,-1,1196,694,0,0
-21,330,0,0,0,0,0,0,0,0,0,-1,1203,694,0,0
-14,330,0,0,0,0,0,0,0,0,0,-1,1210,694,0,0
-7,330,0,0,0,0,0,0,0,0,0,-1,1217,694,0,0
0,330,0,0,0,0,0,0,0,0,0,-1,1224,694,0,0
7,330,0,0,0,0,0,0,0,0,0,-1,1231,694,0,0
14,330,0,0,0,0,0,0,0,0,0,-1,1238,694,0,0
21,330,0,0,0,0,0,0,0,0,0,-1,1245,694,0,0
28,330,0,0,0,0,0,0,0,0,0,-1,1252,694,0,0
35,330,0,0,0,0,0,0,0,0,0,-1,1259,694,0,0
42,330,0,0,0,0,0,0,0,0,0,-1,1266,694,0,0
49,330,0,0,0,0,0,0,0,0,0,-1,1273,694,0,0
56,330,0,0,0,0,0,0,0,0,0,-1,1280,694,0,0
63,330,0,0,0,0,0,0,0,0,0,-1,1287,694,0,0
70,330,0,0,0,0,0,0,0,0,0,-1,1294,694,0,0
77,330,0,0,0,0,0,0,0,0,0,-1,1301,694,0,0
84,330,0,0,0,0,0,0,0,0,0,-1,1308,694,0,0
91,330,0,0,0,0,0,0,0,0,0,-1,1315,694,0,0
98,330,0,0,0,0,0,0,0,0,0,-1,1322,694,0,0
105,330,0,0,0,0,0,0,0,0,0,-1,1329,694,0,0
112,330,0,0,0,0,0,0,0,0,0,-1,1336,694,0,0
119,330,0,0,0,0,0,0,0,0,0,-1,1343,694,0,0
126,330,0,0,0,0,0,0,0,0,0,-1,1350,694,0,0
133,330,0,0,0,0,0,0,0,0,0,-1,1357,694,0,0
140,330,0,0,0,0,0,0,0,0,0,-1,1364,694,0,0
147,330,0,0,0,0,0,0,0,0,0,-1,1371,694,0,0
154,330,0,0,0,0,0,0,0,0,0,-1,1378,694,0,0
161,330,0,0,0,0,0,0,0,0,0,-1,1385,694,0,0
168,330,0,0,0,0,0,0,0,0,0,-1,1392,694,0,0
175,330,0,0,0,0,0,0,0,0,0,-1,1399,694,0,0
182,330,0,0,0,0,0,0,0,0,0,-1,1406,694,0,0
189,330,0,0,0,0,0,0,0,0,0,-1,1413,694,0,0
196,330,0,0,0,0,0,0,0,0,0,-1,1420,694,0,0
203,330,0,0,0,0,0,0,0,0,0,-1,1427,694,0,0
210,330,0,0,0,0,0,0,0,0,0,-1,1434,694,0,0
217,330,0,0,0,0,0,0,0,0,0,-1,1441,694,0,0
224,330,0,0,0,0,0,0,0,0,0,-1,1448,694,0,0
231,330,0,0,0,0,0,0,0,0,0,-1,1455,694,0,0
238,330,0,0,0,0,0,0,0,0,0,-1,1462,694,0,0
245,330,0,0,0,0,0,0,0,0,0,-1,1469,694,0,0
252,330,0,0,0,0,0,0,0,0,0,-1,1476,694,0,0
259,330,0,0,0,0,0,0,0,0,0,-1,1483,694,0,0
266,330,0,0,0,0,0,0,0,0,0,-1,1490,694,0,0
273,330,0,0,0,0,0,0,0,0,0,-1,1497,694,0,0
280,330,0,0,0,0,0,0,0,0,0,-1,1504,694,0,0
287,330,0,0,0,0,0,0,0,0,0,-1,1511,694,0,0
294,330,0,0,0,0,0,0,0,0,0,-1,1518,694,0,0
301,330,0,0,0,0,0,0,0,0,0,-1,1525,694,0,0
308,330,0,0,0,0,0,0,0,0,0,-1,1532,694,0,0
315,330,0,0,0,0,0,0,0,0,0,-1,1539,694,0,0
322,330,0,0,0,0,0,0,0,0,0,-1,1546,694,0,0
329,330,0,0,0,0,0,0,0,0,0,-1,1553,694,0,0
336,330,0,0,0,0,0,0,0,0,0,-1,1560,694,0,0
343,330,0,0,0,0,0,0,0,0,0,-1,1567,694,0,0
350,330,0,0,0,0,0,0,0,0,0,-1,1574,694,0,0
357,330,0,0,0,0,0,0,0,0,0,-1,1581,694,0,0
364,330,0,0,0,0,0,0,0,0,0,-1,1588,694,0,0
371,330,0,0,0,0,0,0,0,0,0,-1,1595,694,0,0
378,330,0,0,0,0,0,0,0,0,0,-1,1602,694,0,0
385,330,0,0,0,0,0,0,0,0,0,-1,1609,694,0,0
392,330,0,0,0,0,0,0,0,0,0,-1,1616,694,0,0
399,330,0,0,0,0,0,0,0,0,0,-1,1623,694,0,0
406,330,0,0,0,0,0,0,0,0,0,-1,1630,694,0,0
413,330,0,0,0,0,0,0,0,0,0,-1,1637,694,0,0
420,330,0,0,0,0,0,0,0,0,0,-1,1644,694,0,0
427,330,0,0,0,0,0,0,0,0,0,-1,1651,694,0,0
434,330,0,0,0,0,0,0,0,0,0,-1,1658,694,0,0
441,330,0,0,0,0,0,0,0,0,0,-1,1665,694,0,0
448,330,0,0,0,0,0,0,0,0,0,-1,1672,694,0,0
455,330,0,0,0,0,0,0,0,0,0,-1,1679,694,0,0
462,330,0,0,0,0,0,0,0,0,0,-1,1686,694,0,0
469,330,0,0,0,0,0,0,0,0,0,-1,1693,694,0,0
476,330,0,0,0,0,0,0,0,0,0,-1,1700,694,0,0
483,330,0,0,0,0,0,0,0,0,0,-1,1707,694,0,0
490,330,0,0,0,0,0,0,0,0,0,-1,1714,694,0,0
497,330,0,0,0,0,0,0,0,0,0,-1,1721,694,0,0
504,330,0,0,0,0,0,0,0,0,0,-1,1728,694,0,0
511,330,0,0,0,0,0,0,0,0,0,-1,1735,694,0,0
518,330,0,0,0,0,0,0,0,0,0,-1,1742,694,0,0
525,330,30.6694,0.69519,0,0,0,0,0,0,0,-1,1749,694,30.6694,-0.695206
532,330,30.9469,1.32501,0,0,0,0,0,0,0,-1,1756,694,30.9469,-1.32501
539,330,31.5155,1.62506,0,0,0,0,0,0,0,-1,1763,694,31.5155,-1.62507
546,330,31.4187,1.85651,0,0,0,0,0,0,0,-1,1770,694,31.4187,-1.85651
553,330,31.8452,1.81476,0,0,0,0,0,0,0,-1,1777,694,31.8452,-1.81475
560,330,32.2401,2.43225,0,0,0,0,0,0,0,-1,1784,694,32.2401,-2.43227
567,330,18.0321,3.98578,0,0,0,0,0,0,0,-1,1791,694,18.0321,-3.98576
574,330,12.0454,2.1662,0,0,0,0,0,0,0,-1,1798,694,12.0455,-2.16618
581,330,11.4215,4.50836,0,0,0,0,0,0,0,-1,1805,694,11.4215,-4.50837
588,330,6.45667,-0.0630493,0,0,0,0,0,0,0,-1,1812,694,6.45661,0.0630695
595,330,79.1702,-27.7747,0,0,0,0,0,0,0,-1,1819,694,79.1702,27.7747
602,330,88.7308,-30.3799,0,0,0,0,0,0,0,-1,1826,694,88.7308,30.38
609,330,90.7386,-27.9825,0,0,0,0,0,0,0,-1,1833,694,90.7387,27.9825
616,330,89.9639,-25.1444,0.00142996,0.00180139,0.00284552,0.00446725,-0.0012359,0.817985,0.00346441,0.0307333,1840,694,89.9638,25.1444
623,330,89.4442,-22.4287,0.00162934,0.00117709,0.00195518,0.00337143,-0.000564997,0.727827,0.00245769,0.0183224,1847,694,89.4443,22.4287
630,330,88.9966,-19.7349,0.00204442,0.000924412,0.00107787,0.00269908,0.000269755,0.545816,0.00171655,0.0188916,1854,694,88.9966,19.7349
637,330,88.4362,-17.0463,0.00256856,0.00105734,0.000216514,0.00259897,0.00102693,0.139533,0.00151147,0.0177044,1861,694,88.4362,17.0463
644,330,87.906,-14.3732,0.00319979,0.00151111,-0.000654738,0.0034239,0.00128699,-0.329793,0.00199699,0.0117003,1868,694,87.9059,14.3731
651,330,87.3444,-11.6874,0.00395918,0.00229548,-0.00151614,0.00485668,0.00139798,-0.534489,0.00288692,0.0171958,1875,694,87.3444,11.6874
658,330,86.8356,-9.02838,0.00483355,0.00346742,-0.00236803,0.00661506,0.00168591,-0.644984,0.00396927,0.0173609,1882,694,86.8355,9.02837
665,330,86.3292,-6.38916,0.00574126,0.0051541,-0.00327434,0.00873516,0.0021602,-0.740687,0.00525356,0.0151067,1889,694,86.3292,6.38914
672,330,85.8535,-3.703,0,0,0,0,0,0,0,-1,1896,694,85.8536,3.70302
679,330,59.6794,-2.67194,0,0,0,0,0,0,0,-1,1903,694,59.6795,2.67195
686,330,30.6691,0.582825,0,0,0,0,0,0,0,-1,1910,694,30.6691,-0.582798
693,330,17.3999,2.5976,0,0,0,0,0,0,0,-1,1917,694,17.4,-2.59759
700,330,17.1072,4.13,0,0,0,0,0,0,0,-1,1924,694,17.1071,-4.13002
707,330,16.663,4.88672,0,0,0,0,0,0,0,-1,1931,694,16.6629,-4.88673
714,330,16.5454,5.80896,0,0,0,0,0,0,0,-1,1938,694,16.5454,-5.80899
721,330,0,0,0,0,0,0,0,0,0,-1,1945,694,0,0
728,330,0,0,0,0,0,0,0,0,0,-1,1952,694,0,0
735,330,0,0,0,0,0,0,0,0,0,-1,1959,694,0,0
742,330,0,0,0,0,0,0,0,0,0,-1,1966,694,0,0
749,330,0,0,0,0,0,0,0,0,0,-1,1973,694,0,0
756,330,0,0,0,0,0,0,0,0,0,-1,1980,694,0,0
763,330,0,0,0,0,0,0,0,0,0,-1,1987,694,0,0
770,330,0,0,0,0,0,0,0,0,0,-1,1994,694,0,0
777,330,0,0,0,0,0,0,0,0,0,-1,2001,694,0,0
784,330,0,0,0,0,0,0,0,0,0,-1,2008,694,0,0
791,330,0,0,0,0,0,0,0,0,0,-1,2015,694,0,0
798,330,0,0,0,0,0,0,0,0,0,-1,2022,694,0,0
805,330,0,0,0,0,0,0,0,0,0,-1,2029,694,0,0
812,330,0,0,0,0,0,0,0,0,0,-1,2036,694,0,0
-700,323,0,0,0,0,0,0,0,0,0,-1,524,701,0,0
-693,323,0,0,0,0,0,0,0,0,0,-1,531,701,0,0
-686,323,0,0,0,0,0,0,0,0,0,-1,538,701,0,0
-679,323,0,0,0,0,0,0,0,0,0,-1,545,701,0,0
-672,323,0,0,0,0,0,0,0,0,0,-1,552,701,0,0
-665,323,0,0,0,0,0,0,0,0,0,-1,559,701,0,0
-658,323,0,0,0,0,0,0,0,0,0,-1,566,701,0,0
-651,323,0,0,0,0,0,0,0,0,0,-1,573,701,0,0
-644,323,0,0,0,0,0,0,0,0,0,-1,580,701,0,0
-637,323,0,0,0,0,0,0,0,0,0,-1,587,701,0,0
-630,323,0,0,0,0,0,0,0,0,0,-1,594,701,0,0
-623,323,0,0,0,0,0,0,0,0,0,-1,601,701,0,0
-616,323,0,0,0,0,0,0,0,0,0,-1,608,701,0,0
-609,323,0,0,0,0,0,0,0,0,0,-1,615,701,0,0
-602,323,-4.15833,2.12256,0,0,0,0,0,0,0,-1,622,701,-4.1583,-2.12257
-595,323,-4.052,1.79156,0,0,0,0,0,0,0,-1,629,701,-4.05198,-1.79158
-588,323,-4.07019,1.94543,0,0,0,0,0,0,0,-1,636,701,-4.07019,-1.94542
-581,323,-6.63727,0.562805,0,0,0,0,0,0,0,-1,643,701,-6.63728,-0.56279
-574,323,-6.15887,0.426697,0,0,0,0,0,0,0,-1,650,701,-6.15887,-0.426727
-567,323,-10.0015,0.0371094,0,0,0,0,0,0,0,-1,657,701,-10.0015,-0.037126
-560,323,-16.3503,-1.16956,0,0,0,0,0,0,0,-1,664,701,-16.3503,1.16957
-553,323,-77.0396,1.54425,0,0,0,0,0,0,0,-1,671,701,-77.0396,-1.54424
-546,323,-77.7219,-1.0282,0,0,0,0,0,0,0,-1,678,701,-77.7219,1.02818
-539,323,-78.1568,-3.63287,0.00843384,0.00898279,0.00120253,0.00994178,0.00747486,0.8976,0.0059777,0.0349634,685,701,-78.1568,3.63285
-532,323,-78.7493,-6.36108,0.00735991,0.00615659,0.00101955,0.00794209,0.00557441,0.518836,0.00470831,0.0155946,692,701,-78.7493,6.36111
-525,323,-79.2792,-9.06738,0.006132,0.00377663,0.00091162,0.0064436,0.00346502,0.329367,0.00372375,0.0098652,699,701,-79.2792,9.0674
-518,323,-79.754,-11.7435,0.00479252,0.00176491,0.000827277,0.00500382,0.00155361,0.250072,0.00295732,0.0121208,706,701,-79.754,11.7434
-511,323,-80.2521,-14.4138,0.00343741,9.37591e-05,0.000731488,0.00359043,-5.92648e-05,0.206221,0.00241362,0.0160686,713,701,-80.2522,14.4138
-504,323,-80.7622,-17.0375,0.00206493,-0.00120915,0.000639936,0.00218556,-0.00132978,0.186323,0.00204953,0.017787,720,701,-80.7622,17.0375
-497,323,-81.2811,-19.675,0.000750287,-0.00214201,0.000509537,0.000837427,-0.00222915,0.169379,0.00183026,0.0175475,727,701,-81.2811,19.675
-490,323,-81.827,-22.3947,-0.00035044,-0.00264528,0.000279516,-0.000316884,-0.00267883,0.119475,0.00169019,0.0411281,734,701,-81.827,22.3947
-483,323,-82.2947,-25.251,0,0,0,0,0,0,0,-1,741,701,-82.2947,25.251
-476,323,-74.4379,-25.5945,0,0,0,0,0,0,0,-1,748,701,-74.4379,25.5946
-469,323,-8.33301,-3.64001,0,0,0,0,0,0,0,-1,755,701,-8.33298,3.64
-462,323,-5.29431,-1.45697,0,0,0,0,0,0,0,-1,762,701,-5.29431,1.45699
-455,323,-5.0658,-1.36639,0,0,0,0,0,0,0,-1,769,701,-5.06578,1.3664
-448,323,-4.91608,-1.59601,0,0,0,0,0,0,0,-1,776,701,-4.91606,1.59604
-441,323,-14.4006,0.535217,0,0,0,0,0,0,0,-1,783,701,-14.4006,-0.535203
-434,323,-15.3158,2.479,0,0,0,0,0,0,0,-1,790,701,-15.3158,-2.47898
-427,323,-28.3923,1.16797,0,0,0,0,0,0,0,-1,797,701,-28.3923,-1.16796
-420,323,-28.7292,1.09302,0,0,0,0,0,0,0,-1,804,701,-28.7292,-1.09304
-413,323,-28.7955,1.22418,0,0,0,0,0,0,0,-1,811,701,-28.7956,-1.22419
-406,323,0,0,0,0,0,0,0,0,0,-1,818,701,0,0
-399,323,0,0,0,0,0,0,0,0,0,-1,825,701,0,0
-392,323,0,0,0,0,0,0,0,0,0,-1,832,701,0,0
-385,323,0,0,0,0,0,0,0,0,0,-1,839,701,0,0
-378,323,0,0,0,0,0,0,0,0,0,-1,846,701,0,0
-371,323,0,0,0,0,0,0,0,0,0,-1,853,701,0,0
-364,323,0,0,0,0,0,0,0,0,0,-1,860,701,0,0
-357,323,0,0,0,0,0,0,0,0,0,-1,867,701,0,0
-350,323,0,0,0,0,0,0,0,0,0,-1,874,701,0,0
-343,323,0,0,0,0,0,0,0,0,0,-1,881,701,0,0
-336,323,0,0,0,0,0,0,0,0,0,-1,888,701,0,0
-329,323,0,0,0,0,0,0,0,0,0,-1,895,701,0,0
-322,323,0,0,0,0,0,0,0,0,0,-1,902,701,0,0
-315,323,0,0,0,0,0,0,0,0,0,-1,909,701,0,0
-308,323,0,0,0,0,0,0,0,0,0,-1,916,701,0,0
-301,323,0,0,0,0,0,0,0,0,0,-1,923,701,0,0
-294,323,0,0,0,0,0,0,0,0,0,-1,930,701,0,0
-287,323,0,0,0,0,0,0,0,0,0,-1,937,701,0,0
-280,323,0,0,0,0,0,0,0,0,0,-1,944,701,0,0
-273,323,0,0,0,0,0,0,0,0,0,-1,951,701,0,0
-266,323,0,0,0,0,0,0,0,0,0,-1,958,701,0,0
-259,323,0,0,0,0,0,0,0,0,0,-1,965,701,0,0
-252,323,0,0,0,0,0,0,0,0,0,-1,972,701,0,0
-245,323,0,0,0,0,0,0,0,0,0,-1,979,701,0,0
-238,323,0,0,0,0,0,0,0,0,0,-1,986,701,0,0
-231,323,0,0,0,0,0,0,0,0,0,-1,993,701,0,0
-224,323,0,0,0,0,0,0,0,0,0,-1,1000,701,0,0
-217,323,0,0,0,0,0,0,0,0,0,-1,1007,701,0,0
-210,323,0,0,0,0,0,0,0,0,0,-1,1014,701,0,0
-203,323,0,0,0,0,0,0,0,0,0,-1,1021,701,0,0
-196,323,0,0,0,0,0,0,0,0,0,-1,1028,701,0,0
-189,323,0,0,0,0,0,0,0,0,0,-1,1035,701,0,0
-182,323,0,0,0,0,0,0,0,0,0,-1,1042,701,0,0
-175,323,0,0,0,0,0,0,0,0,0,-1,1049,701,0,0
-168,323,0,0,0,0,0,0,0,0,0,-1,1056,701,0,0
-161,323,0,0,0,0,0,0,0,0,0,-1,1063,701,0,0
-154,323,0,0,0,0,0,0,0,0,0,-1,1070,701,0,0
-147,323,0,0,0,0,0,0,0,0,0,-1,1077,701,0,0
-140,323,0,0,0,0,0,0,0,0,0,-1,1084,701,0,0
-133,323,0,0,0,0,0,0,0,0,0,-1,1091,701,0,0
-126,323,0,0,0,0,0,0,0,0,0,-1,1098,701,0,0
-119,323,0,0,0,0,0,0,0,0,0,-1,1105,701,0,0
-112,323,0,0,0,0,0,0,0,0,0,-1,1112,701,0,0
-105,323,0,0,0,0,0,0,0,0,0,-1,1119,701,0,0
-98,323,0,0,0,0,0,0,0,0,0,-1,1126,701,0,0
-91,323,0,0,0,0,0,0,0,0,0,-1,1133,701,0,0
-84,323,0,0,0,0,0,0,0,0,0,-1,1140,701,0,0
-77,323,0,0,0,0,0,0,0,0,0,-1,1147,701,0,0
-70,323,0,0,0,0,0,0,0,0,0,-1,1154,701,0,0
-63,323,0,0,0,0,0,0,0,0,0,-1,1161,701,0,0
-56,323,0,0,0,0,0,0,0,0,0,-1,1168,701,0,0
-49,323,0,0,0,0,0,0,0,0,0,-1,1175,701,0,0
-42,323,0,0,0,0,0,0,0,0,0,-1,1182,701,0,0
-35,323,0,0,0,0,0,0,0,0,0,-1,1189,701,0,0
-28,323,0,0,0,0,0,0,0,0,0,-1,1196,701,0,0
-21,323,0,0,0,0,0,0,0,0,0,-1,1203,701,0,0
-14,323,0,0,0,0,0,0,0,0,0,-1,1210,701,0,0
-7,323,0,0,0,0,0,0,0,0,0,-1,1217,701,0,0
0,323,0,0,0,0,0,0,0,0,0,-1,1224,701,0,0
7,323,0,0,0,0,0,0,0,0,0,-1,1231,701,0,0
14,323,0,0,0,0,0,0,0,0,0,-1,1238,701,0,0
21,323,0,0,0,0,0,0,0,0,0,-1,1245,701,0,0
28,323,0,0,0,0,0,0,0,0,0,-1,1252,701,0,0
35,323,0,0,0,0,0,0,0,0,0,-1,1259,701,0,0
42,323,0,0,0,0,0,0,0,0,0,-1,1266,701,0,0
49,323,0,0,0,0,0,0,0,0,0,-1,1273,701,0,0
56,323,0,0,0,0,0,0,0,0,0,-1,1280,701,0,0
63,323,0,0,0,0,0,0,0,0,0,-1,1287,701,0,0
70,323,0,0,0,0,0,0,0,0,0,-1,1294,701,0,0
77,323,0,0,0,0,0,0,0,0,0,-1,1301,701,0,0
84,323,0,0,0,0,0,0,0,0,0,-1,1308,701,0,0
91,323,0,0,0,0,0,0,0,0,0,-1,1315,701,0,0
98,323,0,0,0,0,0,0,0,0,0,-1,1322,701,0,0
105,323,0,0,0,0,0,0,0,0,0,-1,1329,701,0,0
112,323,0,0,0,0,0,0,0,0,0,-1,1336,701,0,0
119,323,0,0,0,0,0,0,0,0,0,-1,1343,701,0,0
126,323,0,0,0,0,0,0,0,0,0,-1,1350,701,0,0
133,323,0,0,0,0,0,0,0,0,0,-1,1357,701,0,0
140,323,0,0,0,0,0,0,0,0,0,-1,1364,701,0,0
147,323,0,0,0,0,0,0,0,0,0,-1,1371,701,0,0
154,323,0,0,0,0,0,0,0,0,0,-1,1378,701,0,0
161,323,0,0,0,0,0,0,0,0,0,-1,1385,701,0,0
168,323,0,0,0,0,0,0,0,0,0,-1,1392,701,0,0
175,323,0,0,0,0,0,0,0,0,0,-1,1399,701,0,0
182,323,0,0,0,0,0,0,0,0,0,-1,1406,701,0,0
189,323,0,0,0,0,0,0,0,0,0,-1,1413,701,0,0
196,323,0,0,0,0,0,0,0,0,0,-1,1420,701,0,0
203,323,0,0,0,0,0,0,0,0,0,-1,1427,701,0,0
210,323,0,0,0,0,0,0,0,0,0,-1,1434,701,0,0
217,323,0,0,0,0,0,0,0,0,0,-1,1441,701,0,0
224,323,0,0,0,0,0,0,0,0,0,-1,1448,701,0,0
231,323,0,0,0,0,0,0,0,0,0,-1,1455,701,0,0
238,323,0,0,0,0,0,0,0,0,0,-1,1462,701,0,0
245,323,0,0,0,0,0,0,0,0,0,-1,1469,701,0,0
252,323,0,0,0,0,0,0,0,0,0,-1,1476,701,0,0
259,323,0,0,0,0,0,0,0,0,0,-1,1483,701,0,0
266,323,0,0,0,0,0,0,0,0,0,-1,1490,701,0,0
273,323,0,0,0,0,0,0,0,0,0,-1,1497,701,0,0
280,323,0,0,0,0,0,0,0,0,0,-1,1504,701,0,0
287,323,0,0,0,0,0,0,0,0,0,-1,1511,701,0,0
294,323,0,0,0,0,0,0,0,0,0,-1,1518,701,0,0
301,323,0,0,0,0,0,0,0,0,0,-1,1525,701,0,0
308,323,0,0,0,0,0,0,0,0,0,-1,1532,701,0,0
315,323,0,0,0,0,0,0,0,0,0,-1,1539,701,0,0
322,323,0,0,0,0,0,0,0,0,0,-1,1546,701,0,0
329,323,0,0,0,0,0,0,0,0,0,-1,1553,701,0,0
336,323,0,0,0,0,0,0,0,0,0,-1,1560,701,0,0
343,323,0,0,0,0,0,0,0,0,0,-1,1567,701,0,0
350,323,0,0,0,0,0,0,0,0,0,-1,1574,701,0,0
357,323,0,0,0,0,0,0,0,0,0,-1,1581,701,0,0
364,323,0,0,0,0,0,0,0,0,0,-1,1588,701,0,0
371,323,0,0,0,0,0,0,0,0,0,-1,1595,701,0,0
378,323,0,0,0,0,0,0,0,0,0,-1,1602,701,0,0
385,323,0,0,0,0,0,0,0,0,0,-1,1609,701,0,0
392,323,0,0,0,0,0,0,0,0,0,-1,1616,701,0,0
399,323,0,0,0,0,0,0,0,0,0,-1,1623,701,0,0
406,323,0,0,0,0,0,0,0,0,0,-1,1630,701,0,0
413,323,0,0,0,0,0,0,0,0,0,-1,1637,701,0,0
420,323,0,0,0,0,0,0,0,0,0,-1,1644,701,0,0
427,323,0,0,0,0,0,0,0,0,0,-1,1651,701,0,0
434,323,0,0,0,0,0,0,0,0,0,-1,1658,701,0,0
441,323,0,0,0,0,0,0,0,0,0,-1,1665,701,0,0
448,323,0,0,0,0,0,0,0,0,0,-1,1672,701,0,0
455,323,0,0,0,0,0,0,0,0,0,-1,1679,701,0,0
462,323,0,0,0,0,0,0,0,0,0,-1,1686,701,0,0
469,323,0,0,0,0,0,0,0,0,0,-1,1693,701,0,0
476,323,0,0,0,0,0,0,0,0,0,-1,1700,701,0,0
483,323,0,0,0,0,0,0,0,0,0,-1,1707,701,0,0
490,323,0,0,0,0,0,0,0,0,0,-1,1714,701,0,0
497,323,0,0,0,0,0,0,0,0,0,-1,1721,701,0,0
504,323,0,0,0,0,0,0,0,0,0,-1,1728,701,0,0
511,323,0,0,0,0,0,0,0,0,0,-1,1735,701,0,0
518,323,0,0,0,0,0,0,0,0,0,-1,1742,701,0,0
525,323,0,0,0,0,0,0,0,0,0,-1,1749,701,0,0
532,323,33.6193,1.69446,0,0,0,0,0,0,0,-1,1756,701,33.6193,-1.69444
539,323,32.2698,2.44037,0,0,0,0,0,0,0,-1,1763,701,32.2697,-2.44036
546,323,31.1644,3.9444,0,0,0,0,0,0,0,-1,1770,701,31.1644,-3.94438
553,323,30.2488,5.8775,0,0,0,0,0,0,0,-1,1777,701,30.2487,-5.87752
560,323,40.6711,1.25153,0,0,0,0,0,0,0,-1,1784,701,40.6711,-1.25154
567,323,42.1637,2.01208,0,0,0,0,0,0,0,-1,1791,701,42.1637,-2.01207
574,323,12.514,5.89685,0,0,0,0,0,0,0,-1,1798,701,12.5141,-5.89683
581,323,11.821,5.3476,0,0,0,0,0,0,0,-1,1805,701,11.821,-5.34762
588,323,11.7933,7.00818,0,0,0,0,0,0,0,-1,1812,701,11.7933,-7.00819
595,323,6.67847,0.06604,0,0,0,0,0,0,0,-1,1819,701,6.67841,-0.0660418
602,323,82.4321,-26.4705,0,0,0,0,0,0,0,-1,1826,701,82.4321,26.4705
609,323,93.3695,-27.0184,0,0,0,0,0,0,0,-1,1833,701,93.3694,27.0184
616,323,92.718,-24.5753,0.000617244,0.00127384,0.003311,0.00427278,-0.0023817,0.834813,0.00389333,0.0371195,1840,701,92.718,24.5752
623,323,92.201,-21.9449,0.00090707,0.000710517,0.0024386,0.00324937,-0.00163178,0.765259,0.00286925,0.0250776,1847,701,92.201,21.9449
630,323,91.636,-19.1675,0.00145023,0.000545043,0.00148165,0.00254687,-0.000551596,0.637166,0.00190854,0.0197723,1854,701,91.636,19.1675
637,323,91.0883,-16.4985,0.00208079,0.00077149,0.00052425,0.00226483,0.000587448,0.337617,0.00135714,0.015539,1861,701,91.0882,16.4985
644,323,90.5822,-13.8574,0.00277226,0.00135295,-0.000455552,0.00290589,0.00121931,-0.285342,0.00168493,0.0116242,1868,701,90.5821,13.8574
651,323,90.1373,-11.1232,0.00355045,0.00231024,-0.00143498,0.00449358,0.00136711,-0.581449,0.00265983,0.02102,1875,701,90.1373,11.1231
658,323,89.5527,-8.40436,0.00439159,0.00360197,-0.00242358,0.0064523,0.00154126,-0.704655,0.0038909,0.0375065,1882,701,89.5527,8.40433
665,323,88.9983,-5.80554,0.00525593,0.00540885,-0.00341277,0.00874601,0.00191877,-0.796599,0.00530798,0.0283251,1889,701,88.9983,5.80553
672,323,88.5966,-3.13971,0.00619978,0.00779382,-0.00452866,0.0115951,0.00239854,-0.872504,0.00706753,0.0372323,1896,701,88.5966,3.13971
679,323,88.2059,-0.239685,0,0,0,0,0,0,0,-1,1903,701,88.206,0.239675
686,323,30.4916,0.378235,0,0,0,0,0,0,0,-1,1910,701,30.4916,-0.37825
693,323,23.8806,1.08844,0,0,0,0,0,0,0,-1,1917,701,23.8806,-1.08845
700,323,10.7705,0.828613,0,0,0,0,0,0,0,-1,1924,701,10.7705,-0.828591
707,323,16.9005,4.79193,0,0,0,0,0,0,0,-1,1931,701,16.9005,-4.7919
714,323,16.2346,6.25958,0,0,0,0,0,0,0,-1,1938,701,16.2346,-6.25956
721,323,0,0,0,0,0,0,0,0,0,-1,1945,701,0,0
728,323,0,0,0,0,0,0,0,0,0,-1,1952,701,0,0
735,323,0,0,0,0,0,0,0,0,0,-1,1959,701,0,0
742,323,0,0,0,0,0,0,0,0,0,-1,1966,701,0,0
749,323,0,0,0,0,0,0,0,0,0,-1,1973,701,0,0
756,323,0,0,0,0,0,0,0,0,0,-1,1980,701,0,0
763,323,0,0,0,0,0,0,0,0,0,-1,1987,701,0,0
770,323,0,0,0,0,0,0,0,0,0,-1,1994,701,0,0
777,323,0,0,0,0,0,0,0,0,0,-1,2001,701,0,0
784,323,0,0,0,0,0,0,0,0,0,-1,2008,701,0,0
791,323,0,0,0,0,0,0,0,0,0,-1,2015,701,0,0
798,323,0,0,0,0,0,0,0,0,0,-1,2022,701,0,0
805,323,0,0,0,0,0,0,0,0,0,-1,2029,701,0,0
812,323,0,0,0,0,0,0,0,0,0,-1,2036,701,0,0
-700,316,0,0,0,0,0,0,0,0,0,-1,524,708,0,0
-693,316,0,0,0,0,0,0,0,0,0,-1,531,708,0,0
-686,316,0,0,0,0,0,0,0,0,0,-1,538,708,0,0
-679,316,0,0,0,0,0,0,0,0,0,-1,545,708,0,0
-672,316,0,0,0,0,0,0,0,0,0,-1,552,708,0,0
-665,316,0,0,0,0,0,0,0,0,0,-1,559,708,0,0
-658,316,0,0,0,0,0,0,0,0,0,-1,566,708,0,0
-651,316,0,0,0,0,0,0,0,0,0,-1,573,708,0,0
-644,316,0,0,0,0,0,0,0,0,0,-1,580,708,0,0
-637,316,0,0,0,0,0,0,0,0,0,-1,587,708,0,0
-630,316,0,0,0,0,0,0,0,0,0,-1,594,708,0,0
-623,316,0,0,0,0,0,0,0,0,0,-1,601,708,0,0
-616,316,0,0,0,0,0,0,0,0,0,-1,608,708,0,0
-609,316,0,0,0,0,0,0,0,0,0,-1,615,708,0,0
-602,316,-0.451782,-0.0494995,0,0,0,0,0,0,0,-1,622,708,-0.451768,0.0495022
-595,316,-3.3761,2.17188,0,0,0,0,0,0,0,-1,629,708,-3.37609,-2.17189
-588,316,-5.00177,2.60675,0,0,0,0,0,0,0,-1,636,708,-5.00175,-2.60676
-581,316,-3.94653,0.393433,0,0,0,0,0,0,0,-1,643,708,-3.94655,-0.39342
-574,316,-9.67395,1.06067,0,0,0,0,0,0,0,-1,650,708,-9.67396,-1.06065
-567,316,-10.1962,0.448425,0,0,0,0,0,0,0,-1,657,708,-10.1962,-0.448411
-560,316,-18.9941,-1.75067,0,0,0,0,0,0,0,-1,664,708,-18.9941,1.75068
-553,316,-80.1176,2.21997,0,0,0,0,0,0,0,-1,671,708,-80.1176,-2.21998
-546,316,-80.5225,-0.485718,0.0073648,0.010847,0.00290413,0.0124919,0.00571983,1.05543,0.00722075,0.0368792,678,708,-80.5224,0.485698
-539,316,-80.9344,-3.24213,0.0070037,0.00789837,0.0021961,0.00969223,0.00520984,0.885871,0.00560106,0.0154823,685,708,-80.9344,3.24213
-532,316,-81.4453,-5.8689,0.00626488,0.00520194,0.00172058,0.0075342,0.00393262,0.6356,0.00435127,0.0122413,692,708,-81.4452,5.86891
-525,316,-81.9193,-8.47949,0.00525749,0.0028252,0.00138173,0.00588204,0.00220064,0.424525,0.00343168,0.0119897,699,708,-81.9193,8.47949
-518,316,-82.4191,-11.1715,0.00400953,0.000929952,0.00115794,0.00439634,0.000543145,0.322394,0.00276767,0.0126327,706,708,-82.4191,11.1715
-511,316,-82.9218,-13.8699,0.00262317,-0.000670313,0.000998821,0.00290241,-0.000949552,0.272609,0.00231724,0.0138757,713,708,-82.9217,13.8699
-504,316,-83.4326,-16.5362,0.00112749,-0.00193542,0.00088124,0.00136294,-0.00217087,0.261077,0.00205794,0.0208097,720,708,-83.4326,16.5362
-497,316,-83.976,-19.121,-0.000399593,-0.00275391,0.000732605,-0.00019024,-0.00296326,0.278346,0.00191524,0.0257191,727,708,-83.976,19.121
-490,316,-84.6802,-21.7302,0,0,0,0,0,0,0,-1,734,708,-84.6802,21.7301
-483,316,-83.9705,-24.0547,0,0,0,0,0,0,0,-1,741,708,-83.9705,24.0547
-476,316,-8.90894,-3.31207,0,0,0,0,0,0,0,-1,748,708,-8.90896,3.31206
-469,316,-6.24194,-1.42725,0,0,0,0,0,0,0,-1,755,708,-6.24192,1.42725
-462,316,-5.74237,-1.40039,0,0,0,0,0,0,0,-1,762,708,-5.74238,1.40039
-455,316,-5.44745,-1.21899,0,0,0,0,0,0,0,-1,769,708,-5.44746,1.21898
-448,316,-14.8945,0.655396,0,0,0,0,0,0,0,-1,776,708,-14.8946,-0.655396
-441,316,-14.9626,0.576111,0,0,0,0,0,0,0,-1,783,708,-14.9626,-0.576115
-434,316,-27.7723,1.15576,0,0,0,0,0,0,0,-1,790,708,-27.7723,-1.15579
-427,316,-28.0504,1.31427,0,0,0,0,0,0,0,-1,797,708,-28.0504,-1.31427
-420,316,-28.198,1.62891,0,0,0,0,0,0,0,-1,804,708,-28.198,-1.62889
-413,316,0,0,0,0,0,0,0,0,0,-1,811,708,0,0
-406,316,0,0,0,0,0,0,0,0,0,-1,818,708,0,0
-399,316,0,0,0,0,0,0,0,0,0,-1,825,708,0,0
-392,316,0,0,0,0,0,0,0,0,0,-1,832,708,0,0
-385,316,0,0,0,0,0,0,0,0,0,-1,839,708,0,0
-378,316,0,0,0,0,0,0,0,0,0,-1,846,708,0,0
-371,316,0,0,0,0,0,0,0,0,0,-1,853,708,0,0
-364,316,0,0,0,0,0,0,0,0,0,-1,860,708,0,0
-357,316,0,0,0,0,0,0,0,0,0,-1,867,708,0,0
-350,316,0,0,0,0,0,0,0,0,0,-1,874,708,0,0
-343,316,0,0,0,0,0,0,0,0,0,-1,881,708,0,0
-336,316,0,0,0,0,0,0,0,0,0,-1,888,708,0,0
-329,316,0,0,0,0,0,0,0,0,0,-1,895,708,0,0
-322,316,0,0,0,0,0,0,0,0,0,-1,902,708,0,0
-315,316,0,0,0,0,0,0,0,0,0,-1,909,708,0,0
-308,316,0,0,0,0,0,0,0,0,0,-1,916,708,0,0
-301,316,0,0,0,0,0,0,0,0,0,-1,923,708,0,0
-294,316,0,0,0,0,0,0,0,0,0,-1,930,708,0,0
-287,316,0,0,0,0,0,0,0,0,0,-1,937,708,0,0
-280,316,0,0,0,0,0,0,0,0,0,-1,944,708,0,0
-273,316,0,0,0,0,0,0,0,0,0,-1,951,708,0,0
-266,316,0,0,0,0,0,0,0,0,0,-1,958,708,0,0
-259,316,0,0,0,0,0,0,0,0,0,-1,965,708,0,0
-252,316,0,0,0,0,0,0,0,0,0,-1,972,708,0,0
-245,316,0,0,0,0,0,0,0,0,0,-1,979,708,0,0
-238,316,0,0,0,0,0,0,0,0,0,-1,986,708,0,0
-231,316,0,0,0,0,0,0,0,0,0,-1,993,708,0,0
-224,316,0,0,0,0,0,0,0,0,0,-1,1000,708,0,0
-217,316,0,0,0,0,0,0,0,0,0,-1,1007,708,0,0
-210,316,0,0,0,0,0,0,0,0,0,-1,1014,708,0,0
-203,316,0,0,0,0,0,0,0,0,0,-1,1021,708,0,0
-196,316,0,0,0,0,0,0,0,0,0,-1,1028,708,0,0
-189,316,0,0,0,0,0,0,0,0,0,-1,1035,708,0,0
-182,316,0,0,0,0,0,0,0,0,0,-1,1042,708,0,0
-175,316,0,0,0,0,0,0,0,0,0,-1,1049,708,0,0
-168,316,0,0,0,0,0,0,0,0,0,-1,1056,708,0,0
-161,316,0,0,0,0,0,0,0,0,0,-1,1063,708,0,0
-154,316,0,0,0,0,0,0,0,0,0,-1,1070,708,0,0
-147,316,0,0,0,0,0,0,0,0,0,-1,1077,708,0,0
-140,316,0,0,0,0,0,0,0,0,0,-1,1084,708,0,0
-133,316,0,0,0,0,0,0,0,0,0,-1,1091,708,0,0
-126,316,0,0,0,0,0,0,0,0,0,-1,1098,708,0,0
-119,316,0,0,0,0,0,0,0,0,0,-1,1105,708,0,0
-112,316,0,0,0,0,0,0,0,0,0,-1,1112,708,0,0
-105,316,0,0,0,0,0,0,0,0,0,-1,1119,708,0,0
-98,316,0,0,0,0,0,0,0,0,0,-1,1126,708,0,0
-91,316,0,0,0,0,0,0,0,0,0,-1,1133,708,0,0
-84,316,0,0,0,0,0,0,0,0,0,-1,1140,708,0,0
-77,316,0,0,0,0,0,0,0,0,0,-1,1147,708,0,0
-70,316,0,0,0,0,0,0,0,0,0,-1,1154,708,0,0
-63,316,0,0,0,0,0,0,0,0,0,-1,1161,708,0,0
-56,316,0,0,0,0,0,0,0,0,0,-1,1168,708,0,0
-49,316,0,0,0,0,0,0,0,0,0,-1,1175,708,0,0
-42,316,0,0,0,0,0,0,0,0,0,-1,1182,708,0,0
-35,316,0,0,0,0,0,0,0,0,0,-1,1189,708,0,0
-28,316,0,0,0,0,0,0,0,0,0,-1,1196,708,0,0
-21,316,0,0,0,0,0,0,0,0,0,-1,1203,708,0,0
-14,316,0,0,0,0,0,0,0,0,0,-1,1210,708,0,0
-7,316,0,0,0,0,0,0,0,0,0,-1,1217,708,0,0
0,316,0,0,0,0,0,0,0,0,0,-1,1224,708,0,0
7,316,0,0,0,0,0,0,0,0,0,-1,1231,708,0,0
14,316,0,0,0,0,0,0,0,0,0,-1,1238,708,0,0
21,316,0,0,0,0,0,0,0,0,0,-1,1245,708,0,0
28,316,0,0,0,0,0,0,0,0,0,-1,1252,708,0,0
35,316,0,0,0,0,0,0,0,0,0,-1,1259,708,0,0
42,316,0,0,0,0,0,0,0,0,0,-1,1266,708,0,0
49,316,0,0,0,0,0,0,0,0,0,-1,1273,708,0,0
56,316,0,0,0,0,0,0,0,0,0,-1,1280,708,0,0
63,316,0,0,0,0,0,0,0,0,0,-1,1287,708,0,0
70,316,0,0,0,0,0,0,0,0,0,-1,1294,708,0,0
77,316,0,0,0,0,0,0,0,0,0,-1,1301,708,0,0
84,316,0,0,0,0,0,0,0,0,0,-1,1308,708,0,0
91,316,0,0,0,0,0,0,0,0,0,-1,1315,708,0,0
98,316,0,0,0,0,0,0,0,0,0,-1,1322,708,0,0
105,316,0,0,0,0,0,0,0,0,0,-1,1329,708,0,0
112,316,0,0,0,0,0,0,0,0,0,-1,1336,708,0,0
119,316,0,0,0,0,0,0,0,0,0,-1,1343,708,0,0
126,316,0,0,0,0,0,0,0,0,0,-1,1350,708,0,0
133,316,0,0,0,0,0,0,0,0,0,-1,1357,708,0,0
140,316,0,0,0,0,0,0,0,0,0,-1,1364,708,0,0
147,316,0,0,0,0,0,0,0,0,0,-1,1371,708,0,0
154,316,0,0,0,0,0,0,0,0,0,-1,1378,708,0,0
161,316,0,0,0,0,0,0,0,0,0,-1,1385,708,0,0
168,316,0,0,0,0,0,0,0,0,0,-1,1392,708,0,0
175,316,0,0,0,0,0,0,0,0,0,-1,1399,708,0,0
182,316,0,0,0,0,0,0,0,0,0,-1,1406,708,0,0
189,316,0,0,0,0,0,0,0,0,0,-1,1413,708,0,0
196,316,0,0,0,0,0,0,0,0,0,-1,1420,708,0,0
203,316,0,0,0,0,0,0,0,0,0,-1,1427,708,0,0
210,316,0,0,0,0,0,0,0,0,0,-1,1434,708,0,0
217,316,0,0,0,0,0,0,0,0,0,-1,1441,708,0,0
224,316,0,0,0,0,0,0,0,0,0,-1,1448,708,0,0
231,316,0,0,0,0,0,0,0,0,0,-1,1455,708,0,0
238,316,0,0,0,0,0,0,0,0,0,-1,1462,708,0,0
245,316,0,0,0,0,0,0,0,0,0,-1,1469,708,0,0
252,316,0,0,0,0,0,0,0,0,0,-1,1476,708,0,0
259,316,0,0,0,0,0,0,0,0,0,-1,1483,708,0,0
266,316,0,0,0,0,0,0,0,0,0,-1,1490,708,0,0
273,316,0,0,0,0,0,0,0,0,0,-1,1497,708,0,0
280,316,0,0,0,0,0,0,0,0,0,-1,1504,708,0,0
287,316,0,0,0,0,0,0,0,0,0,-1,1511,708,0,0
294,316,0,0,0,0,0,0,0,0,0,-1,1518,708,0,0
301,316,0,0,0,0,0,0,0,0,0,-1,1525,708,0,0
308,316,0,0,0,0,0,0,0,0,0,-1,1532,708,0,0
315,316,0,0,0,0,0,0,0,0,0,-1,1539,708,0,0
322,316,0,0,0,0,0,0,0,0,0,-1,1546,708,0,0
329,316,0,0,0,0,0,0,0,0,0,-1,1553,708,0,0
336,316,0,0,0,0,0,0,0,0,0,-1,1560,708,0,0
343,316,0,0,0,0,0,0,0,0,0,-1,1567,708,0,0
350,316,0,0,0,0,0,0,0,0,0,-1,1574,708,0,0
357,316,0,0,0,0,0,0,0,0,0,-1,1581,708,0,0
364,316,0,0,0,0,0,0,0,0,0,-1,1588,708,0,0
371,316,0,0,0,0,0,0,0,0,0,-1,1595,708,0,0
378,316,0,0,0,0,0,0,0,0,0,-1,1602,708,0,0
385,316,0,0,0,0,0,0,0,0,0,-1,1609,708,0,0
392,316,0,0,0,0,0,0,0,0,0,-1,1616,708,0,0
399,316,0,0,0,0,0,0,0,0,0,-1,1623,708,0,0
406,316,0,0,0,0,0,0,0,0,0,-1,1630,708,0,0
413,316,0,0,0,0,0,0,0,0,0,-1,1637,708,0,0
420,316,0,0,0,0,0,0,0,0,0,-1,1644,708,0,0
427,316,0,0,0,0,0,0,0,0,0,-1,1651,708,0,0
434,316,0,0,0,0,0,0,0,0,0,-1,1658,708,0,0
441,316,0,0,0,0,0,0,0,0,0,-1,1665,708,0,0
448,316,0,0,0,0,0,0,0,0,0,-1,1672,708,0,0
455,316,0,0,0,0,0,0,0,0,0,-1,1679,708,0,0
462,316,0,0,0,0,0,0,0,0,0,-1,1686,708,0,0
469,316,0,0,0,0,0,0,0,0,0,-1,1693,708,0,0
476,316,0,0,0,0,0,0,0,0,0,-1,1700,708,0,0
483,316,0,0,0,0,0,0,0,0,0,-1,1707,708,0,0
490,316,0,0,0,0,0,0,0,0,0,-1,1714,708,0,0
497,316,0,0,0,0,0,0,0,0,0,-1,1721,708,0,0
504,316,0,0,0,0,0,0,0,0,0,-1,1728,708,0,0
511,316,0,0,0,0,0,0,0,0,0,-1,1735,708,0,0
518,316,0,0,0,0,0,0,0,0,0,-1,1742,708,0,0
525,316,0,0,0,0,0,0,0,0,0,-1,1749,708,0,0
532,316,33.8604,0.531128,0,0,0,0,0,0,0,-1,1756,708,33.8604,-0.531151
539,316,44.4543,2.73468,0,0,0,0,0,0,0,-1,1763,708,44.4543,-2.7347
546,316,44.713,3.35498,0,0,0,0,0,0,0,-1,1770,708,44.7131,-3.35501
553,316,39.9031,6.57275,0,0,0,0,0,0,0,-1,1777,708,39.9031,-6.57274
560,316,39.1196,1.10046,0,0,0,0,0,0,0,-1,1784,708,39.1197,-1.10048
567,316,47.3683,6.04919,0,0,0,0,0,0,0,-1,1791,708,47.3683,-6.04918
574,316,45.9872,6.7655,0,0,0,0,0,0,0,-1,1798,708,45.9871,-6.76552
581,316,24.6815,7.77496,0,0,0,0,0,0,0,-1,1805,708,24.6815,-7.77499
588,316,19.7659,2.90198,0,0,0,0,0,0,0,-1,1812,708,19.7659,-2.902
595,316,12.5363,1.50702,0,0,0,0,0,0,0,-1,1819,708,12.5363,-1.50701
602,316,7.79919,0.0422363,0,0,0,0,0,0,0,-1,1826,708,7.79923,-0.0422066
609,316,85.3544,-24.1375,0,0,0,0,0,0,0,-1,1833,708,85.3544,24.1375
616,316,95.4855,-24.0415,0,0,0,0,0,0,0,-1,1840,708,95.4855,24.0415
623,316,94.7899,-21.3956,-8.74646e-05,0.000143567,0.00302498,0.00305523,-0.00299913,0.804483,0.00349554,0.0335113,1847,708,94.7899,21.3956
630,316,94.2946,-18.7242,0.000596603,7.64772e-05,0.00200114,0.00235451,-0.00168143,0.720782,0.00234093,0.0196768,1854,708,94.2946,18.7242
637,316,93.7418,-15.9888,0.00133898,0.000396557,0.000941579,0.00192067,-0.000185138,0.553395,0.00134641,0.0173367,1861,708,93.7418,15.9888
644,316,93.2322,-13.3151,0.00209459,0.00111775,-0.000147089,0.00211626,0.00109609,-0.146258,0.00122208,0.0165714,1868,708,93.2322,13.3151
651,316,92.7684,-10.5948,0.00292144,0.00223607,-0.0012476,0.00387257,0.00128495,-0.651366,0.0022776,0.0289775,1875,708,92.7685,10.5949
658,316,92.4608,-7.73346,0,0,0,0,0,0,0,-1,1882,708,92.4608,7.73346
665,316,91.5973,-5.11584,0.00466704,0.00566697,-0.00348318,0.00868588,0.00164813,-0.85668,0.00532689,0.041969,1889,708,91.5974,5.11587
672,316,91.2458,-2.68744,0.00559804,0.00826686,-0.00466,0.0117797,0.00208515,-0.924844,0.00725864,0.0179497,1896,708,91.2458,2.68743
679,316,90.8438,-0.0263672,0,0,0,0,0,0,0,-1,1903,708,90.8438,0.0263963
686,316,34.0828,0.223206,0,0,0,0,0,0,0,-1,1910,708,34.0828,-0.223183
693,316,26.4315,1.80652,0,0,0,0,0,0,0,-1,1917,708,26.4315,-1.80651
700,316,12.8749,2.89136,0,0,0,0,0,0,0,-1,1924,708,12.8748,-2.89137
707,316,15.7089,5.41486,0,0,0,0,0,0,0,-1,1931,708,15.7088,-5.41487
714,316,16.1727,5.52045,0,0,0,0,0,0,0,-1,1938,708,16.1728,-5.52042
721,316,16.7094,6.53351,0,0,0,0,0,0,0,-1,1945,708,16.7094,-6.5335
728,316,0,0,0,0,0,0,0,0,0,-1,1952,708,0,0
735,316,0,0,0,0,0,0,0,0,0,-1,1959,708,0,0
742,316,0,0,0,0,0,0,0,0,0,-1,1966,708,0,0
749,316,0,0,0,0,0,0,0,0,0,-1,1973,708,0,0
756,316,0,0,0,0,0,0,0,0,0,-1,1980,708,0,0
763,316,0,0,0,0,0,0,0,0,0,-1,1987,708,0,0
770,316,0,0,0,0,0,0,0,0,0,-1,1994,708,0,0
777,316,0,0,0,0,0,0,0,0,0,-1,2001,708,0,0
784,316,0,0,0,0,0,0,0,0,0,-1,2008,708,0,0
791,316,0,0,0,0,0,0,0,0,0,-1,2015,708,0,0
798,316,0,0,0,0,0,0,0,0,0,-1,2022,708,0,0
805,316,0,0,0,0,0,0,0,0,0,-1,2029,708,0,0
812,316,0,0,0,0,0,0,0,0,0,-1,2036,708,0,0
-700,309,0,0,0,0,0,0,0,0,0,-1,524,715,0,0
-693,309,0,0,0,0,0,0,0,0,0,-1,531,715,0,0
-686,309,0,0,0,0,0,0,0,0,0,-1,538,715,0,0
-679,309,0,0,0,0,0,0,0,0,0,-1,545,715,0,0
-672,309,0,0,0,0,0,0,0,0,0,-1,552,715,0,0
-665,309,0,0,0,0,0,0,0,0,0,-1,559,715,0,0
-658,309,0,0,0,0,0,0,0,0,0,-1,566,715,0,0
-651,309,0,0,0,0,0,0,0,0,0,-1,573,715,0,0
-644,309,0,0,0,0,0,0,0,0,0,-1,580,715,0,0
-637,309,0,0,0,0,0,0,0,0,0,-1,587,715,0,0
-630,309,0,0,0,0,0,0,0,0,0,-1,594,715,0,0
-623,309,0,0,0,0,0,0,0,0,0,-1,601,715,0,0
-616,309,0,0,0,0,0,0,0,0,0,-1,608,715,0,0
-609,309,-5.95392,-3.93689,0,0,0,0,0,0,0,-1,615,715,-5.95392,3.93686
-602,309,-4.99786,-3.31287,0,0,0,0,0,0,0,-1,622,715,-4.99786,3.31284
-595,309,-6.80847,2.4046,0,0,0,0,0,0,0,-1,629,715,-6.80845,-2.40458
-588,309,-6.08795,2.19324,0,0,0,0,0,0,0,-1,636,715,-6.08793,-2.19325
-581,309,-5.97552,1.3277,0,0,0,0,0,0,0,-1,643,715,-5.97552,-1.32769
-574,309,-8.73602,0.208435,0,0,0,0,0,0,0,-1,650,715,-8.73604,-0.208437
-567,309,-10.3909,0.85968,0,0,0,0,0,0,0,-1,657,715,-10.3909,-0.859696
-560,309,-18.6088,-1.73389,0,0,0,0,0,0,0,-1,664,715,-18.6088,1.73389
-553,309,-82.7557,2.73932,0,0,0,0,0,0,0,-1,671,715,-82.7557,-2.73933
-546,309,-83.2479,-0.026001,0.006412,0.0103628,0.00411319,0.0129504,0.00382446,1.00927,0.0076829,0.0309124,678,715,-83.2479,0.0259746
-539,309,-83.6669,-2.72772,0.00614134,0.00718448,0.00305372,0.00976085,0.00356497,0.869981,0.00570326,0.0178767,685,715,-83.6669,2.7277
-532,309,-84.1314,-5.33881,0.00541849,0.00441092,0.00230797,0.00727702,0.00255239,0.677944,0.00426333,0.0142596,692,715,-84.1314,5.33881
-525,309,-84.6418,-7.94684,0.00436108,0.00192,0.00174702,0.00527168,0.00100939,0.480491,0.00323098,0.0194661,699,715,-84.6418,7.94683
-518,309,-85.1374,-10.6271,0.00301204,3.07787e-05,0.00140947,0.0035729,-0.000530076,0.37871,0.00257686,0.0218199,706,715,-85.1374,10.6271
-511,309,-85.6111,-13.3099,0.00143536,-0.00155905,0.00121157,0.00186417,-0.00198786,0.34017,0.00222435,0.0189903,713,715,-85.6111,13.3099
-504,309,-86.0656,-16.062,-0.000309148,-0.00283208,0.00109753,0.000101472,-0.0032427,0.358008,0.0021964,0.0263158,720,715,-86.0656,16.0619
-497,309,-86.6494,-18.7697,-0.00213111,-0.00354627,0.000996687,-0.00161637,-0.004061,0.476718,0.00236082,0.0473342,727,715,-86.6494,18.7697
-490,309,-87.5173,-21.6193,0,0,0,0,0,0,0,-1,734,715,-87.5173,21.6193
-483,309,-17.7261,-7.75836,0,0,0,0,0,0,0,-1,741,715,-17.7261,7.75839
-476,309,-5.29486,-1.2262,0,0,0,0,0,0,0,-1,748,715,-5.29484,1.22622
-469,309,-4.22717,-0.592896,0,0,0,0,0,0,0,-1,755,715,-4.2272,0.592905
-462,309,-10.428,2.46948,0,0,0,0,0,0,0,-1,762,715,-10.428,-2.46947
-455,309,-15.8216,0.00915527,0,0,0,0,0,0,0,-1,769,715,-15.8216,-0.00913359
-448,309,-37.3543,-1.02441,0,0,0,0,0,0,0,-1,776,715,-37.3543,1.02444
-441,309,-19.8181,1.4425,0,0,0,0,0,0,0,-1,783,715,-19.8181,-1.44249
-434,309,-46.7953,1.72064,0,0,0,0,0,0,0,-1,790,715,-46.7953,-1.72067
-427,309,-27.8553,1.40332,0,0,0,0,0,0,0,-1,797,715,-27.8553,-1.40334
-420,309,-27.3148,1.90747,0,0,0,0,0,0,0,-1,804,715,-27.3148,-1.90745
-413,309,0,0,0,0,0,0,0,0,0,-1,811,715,0,0
-406,309,0,0,0,0,0,0,0,0,0,-1,818,715,0,0
-399,309,0,0,0,0,0,0,0,0,0,-1,825,715,0,0
-392,309,0,0,0,0,0,0,0,0,0,-1,832,715,0,0
-385,309,0,0,0,0,0,0,0,0,0,-1,839,715,0,0
-378,309,0,0,0,0,0,0,0,0,0,-1,846,715,0,0
-371,309,0,0,0,0,0,0,0,0,0,-1,853,715,0,0
-364,309,0,0,0,0,0,0,0,0,0,-1,860,715,0,0
-357,309,0,0,0,0,0,0,0,0,0,-1,867,715,0,0
-350,309,0,0,0,0,0,0,0,0,0,-1,874,715,0,0
-343,309,0,0,0,0,0,0,0,0,0,-1,881,715,0,0
-336,309,0,0,0,0,0,0,0,0,0,-1,888,715,0,0
-329,309,0,0,0,0,0,0,0,0,0,-1,895,715,0,0
-322,309,0,0,0,0,0,0,0,0,0,-1,902,715,0,0
-315,309,0,0,0,0,0,0,0,0,0,-1,909,715,0,0
-308,309,0,0,0,0,0,0,0,0,0,-1,916,715,0,0
-301,309,0,0,0,0,0,0,0,0,0,-1,923,715,0,0
-294,309,0,0,0,0,0,0,0,0,0,-1,930,715,0,0
-287,309,0,0,0,0,0,0,0,0,0,-1,937,715,0,0
-280,309,0,0,0,0,0,0,0,0,0,-1,944,715,0,0
-273,309,0,0,0,0,0,0,0,0,0,-1,951,715,0,0
-266,309,0,0,0,0,0,0,0,0,0,-1,958,715,0,0
-259,309,0,0,0,0,0,0,0,0,0,-1,965,715,0,0
-252,309,0,0,0,0,0,0,0,0,0,-1,972,715,0,0
-245,309,0,0,0,0,0,0,0,0,0,-1,979,715,0,0
-238,309,0,0,0,0,0,0,0,0,0,-1,986,715,0,0
-231,309,0,0,0,0,0,0,0,0,0,-1,993,715,0,0
-224,309,0,0,0,0,0,0,0,0,0,-1,1000,715,0,0
-217,309,0,0,0,0,0,0,0,0,0,-1,1007,715,0,0
-210,309,0,0,0,0,0,0,0,0,0,-1,1014,715,0,0
-203,309,0,0,0,0,0,0,0,0,0,-1,1021,715,0,0
-196,309,0,0,0,0,0,0,0,0,0,-1,1028,715,0,0
-189,309,0,0,0,0,0,0,0,0,0,-1,1035,715,0,0
-182,309,0,0,0,0,0,0,0,0,0,-1,1042,715,0,0
-175,309,0,0,0,0,0,0,0,0,0,-1,1049,715,0,0
-168,309,0,0,0,0,0,0,0,0,0,-1,1056,715,0,0
-161,309,0,0,0,0,0,0,0,0,0,-1,1063,715,0,0
-154,309,0,0,0,0,0,0,0,0,0,-1,1070,715,0,0
-147,309,0,0,0,0,0,0,0,0,0,-1,1077,715,0,0
-140,309,0,0,0,0,0,0,0,0,0,-1,1084,715,0,0
-133,309,0,0,0,0,0,0,0,0,0,-1,1091,715,0,0
-126,309,0,0,0,0,0,0,0,0,0,-1,1098,715,0,0
-119,309,0,0,0,0,0,0,0,0,0,-1,1105,715,0,0
-112,309,0,0,0,0,0,0,0,0,0,-1,1112,715,0,0
-105,309,0,0,0,0,0,0,0,0,0,-1,1119,715,0,0
-98,309,0,0,0,0,0,0,0,0,0,-1,1126,715,0,0
-91,309,0,0,0,0,0,0,0,0,0,-1,1133,715,0,0
-84,309,0,0,0,0,0,0,0,0,0,-1,1140,715,0,0
-77,309,0,0,0,0,0,0,0,0,0,-1,1147,715,0,0
-70,309,0,0,0,0,0,0,0,0,0,-1,1154,715,0,0
-63,309,0,0,0,0,0,0,0,0,0,-1,1161,715,0,0
-56,309,0,0,0,0,0,0,0,0,0,-1,1168,715,0,0
-49,309,0,0,0,0,0,0,0,0,0,-1,1175,715,0,0
-42,309,0,0,0,0,0,0,0,0,0,-1,1182,715,0,0
-35,309,0,0,0,0,0,0,0,0,0,-1,1189,715,0,0
-28,309,0,0,0,0,0,0,0,0,0,-1,1196,715,0,0
-21,309,0,0,0,0,0,0,0,0,0,-1,1203,715,0,0
-14,309,0,0,0,0,0,0,0,0,0,-1,1210,715,0,0
-7,309,0,0,0,0,0,0,0,0,0,-1,1217,715,0,0
0,309,0,0,0,0,0,0,0,0,0,-1,1224,715,0,0
7,309,0,0,0,0,0,0,0,0,0,-1,1231,715,0,0
14,309,0,0,0,0,0,0,0,0,0,-1,1238,715,0,0
21,309,0,0,0,0,0,0,0,0,0,-1,1245,715,0,0
28,309,0,0,0,0,0,0,0,0,0,-1,1252,715,0,0
35,309,0,0,0,0,0,0,0,0,0,-1,1259,715,0,0
42,309,0,0,0,0,0,0,0,0,0,-1,1266,715,0,0
49,309,0,0,0,0,0,0,0,0,0,-1,1273,715,0,0
56,309,0,0,0,0,0,0,0,0,0,-1,1280,715,0,0
63,309,0,0,0,0,0,0,0,0,0,-1,1287,715,0,0
70,309,0,0,0,0,0,0,0,0,0,-1,1294,715,0,0
77,309,0,0,0,0,0,0,0,0,0,-1,1301,715,0,0
84,309,0,0,0,0,0,0,0,0,0,-1,1308,715,0,0
91,309,0,0,0,0,0,0,0,0,0,-1,1315,715,0,0
98,309,0,0,0,0,0,0,0,0,0,-1,1322,715,0,0
105,309,0,0,0,0,0,0,0,0,0,-1,1329,715,0,0
112,309,0,0,0,0,0,0,0,0,0,-1,1336,715,0,0
119,309,0,0,0,0,0,0,0,0,0,-1,1343,715,0,0
126,309,0,0,0,0,0,0,0,0,0,-1,1350,715,0,0
133,309,0,0,0,0,0,0,0,0,0,-1,1357,715,0,0
140,309,0,0,0,0,0,0,0,0,0,-1,1364,715,0,0
147,309,0,0,0,0,0,0,0,0,0,-1,1371,715,0,0
154,309,0,0,0,0,0,0,0,0,0,-1,1378,715,0,0
161,309,0,0,0,0,0,0,0,0,0,-1,1385,715,0,0
168,309,0,0,0,0,0,0,0,0,0,-1,1392,715,0,0
175,309,0,0,0,0,0,0,0,0,0,-1,1399,715,0,0
182,309,0,0,0,0,0,0,0,0,0,-1,1406,715,0,0
189,309,0,0,0,0,0,0,0,0,0,-1,1413,715,0,0
196,309,0,0,0,0,0,0,0,0,0,-1,1420,715,0,0
203,309,0,0,0,0,0,0,0,0,0,-1,1427,715,0,0
210,309,0,0,0,0,0,0,0,0,0,-1,1434,715,0,0
217,309,0,0,0,0,0,0,0,0,0,-1,1441,715,0,0
224,309,0,0,0,0,0,0,0,0,0,-1,1448,715,0,0
231,309,0,0,0,0,0,0,0,0,0,-1,1455,715,0,0
238,309,0,0,0,0,0,0,0,0,0,-1,1462,715,0,0
245,309,0,0,0,0,0,0,0,0,0,-1,1469,715,0,0
252,309,0,0,0,0,0,0,0,0,0,-1,1476,715,0,0
259,309,0,0,0,0,0,0,0,0,0,-1,1483,715,0,0
266,309,0,0,0,0,0,0,0,0,0,-1,1490,715,0,0
273,309,0,0,0,0,0,0,0,0,0,-1,1497,715,0,0
280,309,0,0,0,0,0,0,0,0,0,-1,1504,715,0,0
287,309,0,0,0,0,0,0,0,0,0,-1,1511,715,0,0
294,309,0,0,0,0,0,0,0,0,0,-1,1518,715,0,0
301,309,0,0,0,0,0,0,0,0,0,-1,1525,715,0,0
308,309,0,0,0,0,0,0,0,0,0,-1,1532,715,0,0
315,309,0,0,0,0,0,0,0,0,0,-1,1539,715,0,0
322,309,0,0,0,0,0,0,0,0,0,-1,1546,715,0,0
329,309,0,0,0,0,0,0,0,0,0,-1,1553,715,0,0
336,309,0,0,0,0,0,0,0,0,0,-1,1560,715,0,0
343,309,0,0,0,0,0,0,0,0,0,-1,1567,715,0,0
350,309,0,0,0,0,0,0,0,0,0,-1,1574,715,0,0
357,309,0,0,0,0,0,0,0,0,0,-1,1581,715,0,0
364,309,0,0,0,0,0,0,0,0,0,-1,1588,715,0,0
371,309,0,0,0,0,0,0,0,0,0,-1,1595,715,0,0
378,309,0,0,0,0,0,0,0,0,0,-1,1602,715,0,0
385,309,0,0,0,0,0,0,0,0,0,-1,1609,715,0,0
392,309,0,0,0,0,0,0,0,0,0,-1,1616,715,0,0
399,309,0,0,0,0,0,0,0,0,0,-1,1623,715,0,0
406,309,0,0,0,0,0,0,0,0,0,-1,1630,715,0,0
413,309,0,0,0,0,0,0,0,0,0,-1,1637,715,0,0
420,309,0,0,0,0,0,0,0,0,0,-1,1644,715,0,0
427,309,0,0,0,0,0,0,0,0,0,-1,1651,715,0,0
434,309,0,0,0,0,0,0,0,0,0,-1,1658,715,0,0
441,309,0,0,0,0,0,0,0,0,0,-1,1665,715,0,0
448,309,0,0,0,0,0,0,0,0,0,-1,1672,715,0,0
455,309,0,0,0,0,0,0,0,0,0,-1,1679,715,0,0
462,309,0,0,0,0,0,0,0,0,0,-1,1686,715,0,0
469,309,0,0,0,0,0,0,0,0,0,-1,1693,715,0,0
476,309,0,0,0,0,0,0,0,0,0,-1,1700,715,0,0
483,309,0,0,0,0,0,0,0,0,0,-1,1707,715,0,0
490,309,0,0,0,0,0,0,0,0,0,-1,1714,715,0,0
497,309,0,0,0,0,0,0,0,0,0,-1,1721,715,0,0
504,309,0,0,0,0,0,0,0,0,0,-1,1728,715,0,0
511,309,0,0,0,0,0,0,0,0,0,-1,1735,715,0,0
518,309,0,0,0,0,0,0,0,0,0,-1,1742,715,0,0
525,309,0,0,0,0,0,0,0,0,0,-1,1749,715,0,0
532,309,0,0,0,0,0,0,0,0,0,-1,1756,715,0,0
539,309,44.2073,2.66235,0,0,0,0,0,0,0,-1,1763,715,44.2073,-2.66238
546,309,44.4976,3.25531,0,0,0,0,0,0,0,-1,1770,715,44.4976,-3.25533
553,309,47.9611,4.06433,0,0,0,0,0,0,0,-1,1777,715,47.9611,-4.06434
560,309,47.9784,4.64801,0,0,0,0,0,0,0,-1,1784,715,47.9784,-4.64799
567,309,47.0073,5.43121,0,0,0,0,0,0,0,-1,1791,715,47.0073,-5.43121
574,309,45.8746,6.53271,0,0,0,0,0,0,0,-1,1798,715,45.8747,-6.53269
581,309,45.0629,7.73468,0,0,0,0,0,0,0,-1,1805,715,45.0629,-7.73471
588,309,26.2064,7.76422,0,0,0,0,0,0,0,-1,1812,715,26.2064,-7.7642
595,309,19.585,3.71558,0,0,0,0,0,0,0,-1,1819,715,19.5849,-3.71555
602,309,11.0811,3.47772,0,0,0,0,0,0,0,-1,1826,715,11.0811,-3.47772
609,309,56.9344,-15.415,0,0,0,0,0,0,0,-1,1833,715,56.9345,15.415
616,309,93.344,-22.6922,0,0,0,0,0,0,0,-1,1840,715,93.344,22.6922
623,309,97.6233,-21.3317,0,0,0,0,0,0,0,-1,1847,715,97.6233,21.3317
630,309,97.0411,-18.356,-0.000471081,-0.000489959,0.00248464,0.00200414,-0.00296518,0.783499,0.00288686,0.0352628,1854,715,97.0411,18.3559
637,309,96.4,-15.4514,0.000467168,-0.000149306,0.00133952,0.00153346,-0.0012156,0.672312,0.0015907,0.0244362,1861,715,96.4,15.4514
644,309,95.8318,-12.7811,0.0013437,0.000657956,0.000155833,0.00137745,0.000624205,0.213293,0.000796432,0.0206743,1868,715,95.8317,12.7811
651,309,95.3451,-10.1336,0.00223833,0.00188165,-0.00105902,0.00313392,0.000986059,-0.701979,0.00185035,0.0199936,1875,715,95.3451,10.1336
658,309,94.8976,-7.39154,0.00313341,0.00347808,-0.00230927,0.00562144,0.000990051,-0.822643,0.00346508,0.0332071,1882,715,94.8976,7.39155
665,309,94.4004,-4.74164,0.00402809,0.00557431,-0.0035094,0.00839474,0.00120765,-0.893815,0.00524054,0.0265611,1889,715,94.4004,4.74162
672,309,93.9191,-2.17761,0.00494554,0.0083309,-0.00472884,0.0116609,0.00161556,-0.957268,0.00729527,0.0205114,1896,715,93.919,2.17762
679,309,93.4574,0.492188,0.00600506,0.0119025,-0.00584529,0.0155007,0.00240683,-1.019,0.00963227,0.0384698,1903,715,93.4574,-0.492181
686,309,92.9918,3.2934,0,0,0,0,0,0,0,-1,1910,715,92.9918,-3.2934
693,309,32.7026,1.51727,0,0,0,0,0,0,0,-1,1917,715,32.7026,-1.51727
700,309,23.0179,3.08337,0,0,0,0,0,0,0,-1,1924,715,23.018,-3.08336
707,309,15.6318,4.58655,0,0,0,0,0,0,0,-1,1931,715,15.6318,-4.58657
714,309,16.7573,6.68286,0,0,0,0,0,0,0,-1,1938,715,16.7574,-6.68284
721,309,16.8337,5.4458,0,0,0,0,0,0,0,-1,1945,715,16.8338,-5.44582
728,309,0,0,0,0,0,0,0,0,0,-1,1952,715,0,0
735,309,0,0,0,0,0,0,0,0,0,-1,1959,715,0,0
742,309,0,0,0,0,0,0,0,0,0,-1,1966,715,0,0
749,309,0,0,0,0,0,0,0,0,0,-1,1973,715,0,0
756,309,0,0,0,0,0,0,0,0,0,-1,1980,715,0,0
763,309,0,0,0,0,0,0,0,0,0,-1,1987,715,0,0
770,309,0,0,0,0,0,0,0,0,0,-1,1994,715,0,0
777,309,0,0,0,0,0,0,0,0,0,-1,2001,715,0,0
784,309,0,0,0,0,0,0,0,0,0,-1,2008,715,0,0
791,309,0,0,0,0,0,0,0,0,0,-1,2015,715,0,0
798,309,0,0,0,0,0,0,0,0,0,-1,2022,715,0,0
805,309,0,0,0,0,0,0,0,0,0,-1,2029,715,0,0
812,309,0,0,0,0,0,0,0,0,0,-1,2036,715,0,0
-700,302,0,0,0,0,0,0,0,0,0,-1,524,722,0,0
-693,302,0,0,0,0,0,0,0,0,0,-1,531,722,0,0
-686,302,0,0,0,0,0,0,0,0,0,-1,538,722,0,0
-679,302,0,0,0,0,0,0,0,0,0,-1,545,722,0,0
-672,302,0,0,0,0,0,0,0,0,0,-1,552,722,0,0
-665,302,0,0,0,0,0,0,0,0,0,-1,559,722,0,0
-658,302,0,0,0,0,0,0,0,0,0,-1,566,722,0,0
-651,302,0,0,0,0,0,0,0,0,0,-1,573,722,0,0
-644,302,0,0,0,0,0,0,0,0,0,-1,580,722,0,0
-637,302,0,0,0,0,0,0,0,0,0,-1,587,722,0,0
-630,302,0,0,0,0,0,0,0,0,0,-1,594,722,0,0
-623,302,0,0,0,0,0,0,0,0,0,-1,601,722,0,0
-616,302,0,0,0,0,0,0,0,0,0,-1,608,722,0,0
-609,302,-7.79266,-3.71649,0,0,0,0,0,0,0,-1,615,722,-7.79267,3.7165
-602,302,0.92865,-1.99158,0,0,0,0,0,0,0,-1,622,722,0.928637,1.99157
-595,302,-7.89941,2.13641,0,0,0,0,0,0,0,-1,629,722,-7.89939,-2.13639
-588,302,-7.10895,1.79163,0,0,0,0,0,0,0,-1,636,722,-7.10896,-1.79163
-581,302,-9.17566,1.09448,0,0,0,0,0,0,0,-1,643,722,-9.17569,-1.09445
-574,302,-11.5183,-0.344543,0,0,0,0,0,0,0,-1,650,722,-11.5183,0.344557
-567,302,-12.1534,-0.672241,0,0,0,0,0,0,0,-1,657,722,-12.1535,0.672246
-560,302,-85.1104,5.82458,0,0,0,0,0,0,0,-1,664,722,-85.1103,-5.82461
-553,302,-85.4103,3.11493,0.00477553,0.013944,0.00676584,0.0175324,0.00118713,1.08315,0.0113133,0.0408422,671,722,-85.4102,-3.11492
-546,302,-85.8854,0.419495,0.00539722,0.0097395,0.00493634,0.0129611,0.00217566,0.99258,0.00801454,0.0204618,678,722,-85.8854,-0.419467
-539,302,-86.3481,-2.15802,0.00521694,0.00640555,0.00359949,0.00945946,0.00216303,0.867214,0.00572321,0.0192322,685,722,-86.3481,2.15802
-532,302,-86.8214,-4.77118,0.00452442,0.00355244,0.00260916,0.00669246,0.0013844,0.693322,0.00407925,0.0180095,692,722,-86.8214,4.77119
-525,302,-87.3411,-7.4389,0.00343109,0.000999642,0.00184994,0.00442902,1.7155e-06,0.494698,0.00295211,0.0236911,699,722,-87.341,7.4389
-518,302,-87.8716,-10.0356,0.00198083,-0.000921223,0.00137585,0.00252942,-0.00146981,0.379406,0.00233581,0.028552,706,722,-87.8716,10.0357
-511,302,-88.3226,-12.6771,0.000173021,-0.00251669,0.00111966,0.000578103,-0.00292177,0.347139,0.00216641,0.0208676,713,722,-88.3226,12.6771
-504,302,-88.8104,-15.3937,-0.0018449,-0.00382666,0.000994092,-0.00143219,-0.00423937,0.393508,0.00249014,0.0302448,720,722,-88.8105,15.3937
-497,302,-89.4362,-18.1543,-0.0040295,-0.00445119,0.000956205,-0.00326117,-0.00521952,0.676882,0.00304462,0.0436551,727,722,-89.4362,18.1543
-490,302,-90.1596,-20.8656,0,0,0,0,0,0,0,-1,734,722,-90.1596,20.8656
-483,302,-9.53412,-3.1673,0,0,0,0,0,0,0,-1,741,722,-9.53411,3.1673
-476,302,-4.29749,-0.203491,0,0,0,0,0,0,0,-1,748,722,-4.29751,0.203464
-469,302,-12.369,1.42859,0,0,0,0,0,0,0,-1,755,722,-12.3689,-1.42857
-462,302,-17.4766,0.310791,0,0,0,0,0,0,0,-1,762,722,-17.4766,-0.310788
-455,302,-36.7368,-2.97418,0,0,0,0,0,0,0,-1,769,722,-36.7368,2.97416
-448,302,-42.1174,-1.44232,0,0,0,0,0,0,0,-1,776,722,-42.1174,1.44229
-441,302,-46.7637,0.580078,0,0,0,0,0,0,0,-1,783,722,-46.7636,-0.58007
-434,302,-46.574,1.30511,0,0,0,0,0,0,0,-1,790,722,-46.574,-1.30509
-427,302,-46.7514,1.51532,0,0,0,0,0,0,0,-1,797,722,-46.7514,-1.51532
-420,302,0,0,0,0,0,0,0,0,0,-1,804,722,0,0
-413,302,0,0,0,0,0,0,0,0,0,-1,811,722,0,0
-406,302,0,0,0,0,0,0,0,0,0,-1,818,722,0,0
-399,302,0,0,0,0,0,0,0,0,0,-1,825,722,0,0
-392,302,0,0,0,0,0,0,0,0,0,-1,832,722,0,0
-385,302,0,0,0,0,0,0,0,0,0,-1,839,722,0,0
-378,302,0,0,0,0,0,0,0,0,0,-1,846,722,0,0
-371,302,0,0,0,0,0,0,0,0,0,-1,853,722,0,0
-364,302,0,0,0,0,0,0,0,0,0,-1,860,722,0,0
-357,302,0,0,0,0,0,0,0,0,0,-1,867,722,0,0
-350,302,0,0,0,0,0,0,0,0,0,-1,874,722,0,0
-343,302,0,0,0,0,0,0,0,0,0,-1,881,722,0,0
-336,302,0,0,0,0,0,0,0,0,0,-1,888,722,0,0
-329,302,0,0,0,0,0,0,0,0,0,-1,895,722,0,0
-322,302,0,0,0,0,0,0,0,0,0,-1,902,722,0,0
-315,302,0,0,0,0,0,0,0,0,0,-1,909,722,0,0
-308,302,0,0,0,0,0,0,0,0,0,-1,916,722,0,0
-301,302,0,0,0,0,0,0,0,0,0,-1,923,722,0,0
-294,302,0,0,0,0,0,0,0,0,0,-1,930,722,0,0
-287,302,0,0,0,0,0,0,0,0,0,-1,937,722,0,0
-280,302,0,0,0,0,0,0,0,0,0,-1,944,722,0,0
-273,302,0,0,0,0,0,0,0,0,0,-1,951,722,0,0
-266,302,0,0,0,0,0,0,0,0,0,-1,958,722,0,0
-259,302,0,0,0,0,0,0,0,0,0,-1,965,722,0,0
-252,302,0,0,0,0,0,0,0,0,0,-1,972,722,0,0
-245,302,0,0,0,0,0,0,0,0,0,-1,979,722,0,0
-238,302,0,0,0,0,0,0,0,0,0,-1,986,722,0,0
-231,302,0,0,0,0,0,0,0,0,0,-1,993,722,0,0
-224,302,0,0,0,0,0,0,0,0,0,-1,1000,722,0,0
-217,302,0,0,0,0,0,0,0,0,0,-1,1007,722,0,0
-210,302,0,0,0,0,0,0,0,0,0,-1,1014,722,0,0
-203,302,0,0,0,0,0,0,0,0,0,-1,1021,722,0,0
-196,302,0,0,0,0,0,0,0,0,0,-1,1028,722,0,0
-189,302,0,0,0,0,0,0,0,0,0,-1,1035,722,0,0
-182,302,0,0,0,0,0,0,0,0,0,-1,1042,722,0,0
-175,302,0,0,0,0,0,0,0,0,0,-1,1049,722,0,0
-168,302,0,0,0,0,0,0,0,0,0,-1,1056,722,0,0
-161,302,0,0,0,0,0,0,0,0,0,-1,1063,722,0,0
-154,302,0,0,0,0,0,0,0,0,0,-1,1070,722,0,0
-147,302,0,0,0,0,0,0,0,0,0,-1,1077,722,0,0
-140,302,0,0,0,0,0,0,0,0,0,-1,1084,722,0,0
-133,302,0,0,0,0,0,0,0,0,0,-1,1091,722,0,0
-126,302,0,0,0,0,0,0,0,0,0,-1,1098,722,0,0
-119,302,0,0,0,0,0,0,0,0,0,-1,1105,722,0,0
-112,302,0,0,0,0,0,0,0,0,0,-1,1112,722,0,0
-105,302,0,0,0,0,0,0,0,0,0,-1,1119,722,0,0
-98,302,0,0,0,0,0,0,0,0,0,-1,1126,722,0,0
-91,302,0,0,0,0,0,0,0,0,0,-1,1133,722,0,0
-84,302,0,0,0,0,0,0,0,0,0,-1,1140,722,0,0
-77,302,0,0,0,0,0,0,0,0,0,-1,1147,722,0,0
-70,302,0,0,0,0,0,0,0,0,0,-1,1154,722,0,0
-63,302,0,0,0,0,0,0,0,0,0,-1,1161,722,0,0
-56,302,0,0,0,0,0,0,0,0,0,-1,1168,722,0,0
-49,302,0,0,0,0,0,0,0,0,0,-1,1175,722,0,0
-42,302,0,0,0,0,0,0,0,0,0,-1,1182,722,0,0
-35,302,0,0,0,0,0,0,0,0,0,-1,1189,722,0,0
-28,302,0,0,0,0,0,0,0,0,0,-1,1196,722,0,0
-21,302,0,0,0,0,0,0,0,0,0,-1,1203,722,0,0
-14,302,0,0,0,0,0,0,0,0,0,-1,1210,722,0,0
-7,302,0,0,0,0,0,0,0,0,0,-1,1217,722,0,0
0,302,0,0,0,0,0,0,0,0,0,-1,1224,722,0,0
7,302,0,0,0,0,0,0,0,0,0,-1,1231,722,0,0
14,302,0,0,0,0,0,0,0,0,0,-1,1238,722,0,0
21,302,0,0,0,0,0,0,0,0,0,-1,1245,722,0,0
28,302,0,0,0,0,0,0,0,0,0,-1,1252,722,0,0
35,302,0,0,0,0,0,0,0,0,0,-1,1259,722,0,0
42,302,0,0,0,0,0,0,0,0,0,-1,1266,722,0,0
49,302,0,0,0,0,0,0,0,0,0,-1,1273,722,0,0
56,302,0,0,0,0,0,0,0,0,0,-1,1280,722,0,0
63,302,0,0,0,0,0,0,0,0,0,-1,1287,722,0,0
70,302,0,0,0,0,0,0,0,0,0,-1,1294,722,0,0
77,302,0,0,0,0,0,0,0,0,0,-1,1301,722,0,0
84,302,0,0,0,0,0,0,0,0,0,-1,1308,722,0,0
91,302,0,0,0,0,0,0,0,0,0,-1,1315,722,0,0
98,302,0,0,0,0,0,0,0,0,0,-1,1322,722,0,0
105,302,0,0,0,0,0,0,0,0,0,-1,1329,722,0,0
112,302,0,0,0,0,0,0,0,0,0,-1,1336,722,0,0
119,302,0,0,0,0,0,0,0,0,0,-1,1343,722,0,0
126,302,0,0,0,0,0,0,0,0,0,-1,1350,722,0,0
133,302,0,0,0,0,0,0,0,0,0,-1,1357,722,0,0
140,302,0,0,0,0,0,0,0,0,0,-1,1364,722,0,0
147,302,0,0,0,0,0,0,0,0,0,-1,1371,722,0,0
154,302,0,0,0,0,0,0,0,0,0,-1,1378,722,0,0
161,302,0,0,0,0,0,0,0,0,0,-1,1385,722,0,0
168,302,0,0,0,0,0,0,0,0,0,-1,1392,722,0,0
175,302,0,0,0,0,0,0,0,0,0,-1,1399,722,0,0
182,302,0,0,0,0,0,0,0,0,0,-1,1406,722,0,0
189,302,0,0,0,0,0,0,0,0,0,-1,1413,722,0,0
196,302,0,0,0,0,0,0,0,0,0,-1,1420,722,0,0
203,302,0,0,0,0,0,0,0,0,0,-1,1427,722,0,0
210,302,0,0,0,0,0,0,0,0,0,-1,1434,722,0,0
217,302,0,0,0,0,0,0,0,0,0,-1,1441,722,0,0
224,302,0,0,0,0,0,0,0,0,0,-1,1448,722,0,0
231,302,0,0,0,0,0,0,0,0,0,-1,1455,722,0,0
238,302,0,0,0,0,0,0,0,0,0,-1,1462,722,0,0
245,302,0,0,0,0,0,0,0,0,0,-1,1469,722,0,0
252,302,0,0,0,0,0,0,0,0,0,-1,1476,722,0,0
259,302,0,0,0,0,0,0,0,0,0,-1,1483,722,0,0
266,302,0,0,0,0,0,0,0,0,0,-1,1490,722,0,0
273,302,0,0,0,0,0,0,0,0,0,-1,1497,722,0,0
280,302,0,0,0,0,0,0,0,0,0,-1,1504,722,0,0
287,302,0,0,0,0,0,0,0,0,0,-1,1511,722,0,0
294,302,0,0,0,0,0,0,0,0,0,-1,1518,722,0,0
301,302,0,0,0,0,0,0,0,0,0,-1,1525,722,0,0
308,302,0,0,0,0,0,0,0,0,0,-1,1532,722,0,0
315,302,0,0,0,0,0,0,0,0,0,-1,1539,722,0,0
322,302,0,0,0,0,0,0,0,0,0,-1,1546,722,0,0
329,302,0,0,0,0,0,0,0,0,0,-1,1553,722,0,0
336,302,0,0,0,0,0,0,0,0,0,-1,1560,722,0,0
343,302,0,0,0,0,0,0,0,0,0,-1,1567,722,0,0
350,302,0,0,0,0,0,0,0,0,0,-1,1574,722,0,0
357,302,0,0,0,0,0,0,0,0,0,-1,1581,722,0,0
364,302,0,0,0,0,0,0,0,0,0,-1,1588,722,0,0
371,302,0,0,0,0,0,0,0,0,0,-1,1595,722,0,0
378,302,0,0,0,0,0,0,0,0,0,-1,1602,722,0,0
385,302,0,0,0,0,0,0,0,0,0,-1,1609,722,0,0
392,302,0,0,0,0,0,0,0,0,0,-1,1616,722,0,0
399,302,0,0,0,0,0,0,0,0,0,-1,1623,722,0,0
406,302,0,0,0,0,0,0,0,0,0,-1,1630,722,0,0
413,302,0,0,0,0,0,0,0,0,0,-1,1637,722,0,0
420,302,0,0,0,0,0,0,0,0,0,-1,1644,722,0,0
427,302,0,0,0,0,0,0,0,0,0,-1,1651,722,0,0
434,302,0,0,0,0,0,0,0,0,0,-1,1658,722,0,0
441,302,0,0,0,0,0,0,0,0,0,-1,1665,722,0,0
448,302,0,0,0,0,0,0,0,0,0,-1,1672,722,0,0
455,302,0,0,0,0,0,0,0,0,0,-1,1679,722,0,0
462,302,0,0,0,0,0,0,0,0,0,-1,1686,722,0,0
469,302,0,0,0,0,0,0,0,0,0,-1,1693,722,0,0
476,302,0,0,0,0,0,0,0,0,0,-1,1700,722,0,0
483,302,0,0,0,0,0,0,0,0,0,-1,1707,722,0,0
490,302,0,0,0,0,0,0,0,0,0,-1,1714,722,0,0
497,302,0,0,0,0,0,0,0,0,0,-1,1721,722,0,0
504,302,0,0,0,0,0,0,0,0,0,-1,1728,722,0,0
511,302,0,0,0,0,0,0,0,0,0,-1,1735,722,0,0
518,302,0,0,0,0,0,0,0,0,0,-1,1742,722,0,0
525,302,0,0,0,0,0,0,0,0,0,-1,1749,722,0,0
532,302,0,0,0,0,0,0,0,0,0,-1,1756,722,0,0
539,302,0,0,0,0,0,0,0,0,0,-1,1763,722,0,0
546,302,48.9873,1.50562,0,0,0,0,0,0,0,-1,1770,722,48.9873,-1.50562
553,302,56.7844,3.46533,0,0,0,0,0,0,0,-1,1777,722,56.7844,-3.4653
560,302,56.7115,3.84808,0,0,0,0,0,0,0,-1,1784,722,56.7116,-3.84806
567,302,55.9475,4.24542,0,0,0,0,0,0,0,-1,1791,722,55.9475,-4.24542
574,302,45.9537,6.00867,0,0,0,0,0,0,0,-1,1798,722,45.9537,-6.00864
581,302,45.137,7.38043,0,0,0,0,0,0,0,-1,1805,722,45.1369,-7.38044
588,302,26.9731,7.19983,0,0,0,0,0,0,0,-1,1812,722,26.9732,-7.19981
595,302,27.3826,8.13104,0,0,0,0,0,0,0,-1,1819,722,27.3825,-8.13102
602,302,14.7349,5.21246,0,0,0,0,0,0,0,-1,1826,722,14.7349,-5.21247
609,302,31.1039,-6.34253,0,0,0,0,0,0,0,-1,1833,722,31.1039,6.34254
616,302,74.8665,-16.7825,0,0,0,0,0,0,0,-1,1840,722,74.8664,16.7825
623,302,100.499,-20.5754,0,0,0,0,0,0,0,-1,1847,722,100.499,20.5755
630,302,99.7775,-17.64,-0.00159851,-0.00139662,0.00306767,0.00157176,-0.0045669,0.801846,0.00368209,0.0485891,1854,722,99.7775,17.64
637,302,99.0302,-14.8872,-0.000574427,-0.0010409,0.00179487,0.0010023,-0.00261762,0.720787,0.00215821,0.031429,1861,722,99.0302,14.8872
644,302,98.5308,-12.2186,0.000337094,-0.000179792,0.000455356,0.000602237,-0.000444935,0.527285,0.000606855,0.0216832,1868,722,98.5308,12.2185
651,302,98.0509,-9.57397,0.00127166,0.0011794,-0.000889792,0.00211652,0.000334543,-0.759502,0.00131377,0.019754,1875,722,98.0509,9.57395
658,302,97.6302,-6.9986,0.00220856,0.00294024,-0.00225134,0.00485527,0.000293522,-0.865943,0.00314358,0.0243612,1882,722,97.6303,6.99859
665,302,97.1045,-4.31744,0.00314772,0.00518473,-0.00356349,0.00787241,0.000460036,-0.924596,0.00510185,0.0236976,1889,722,97.1044,4.31744
672,302,96.5847,-1.68805,0.00411947,0.0080664,-0.00485246,0.0113313,0.00085453,-0.97853,0.0072861,0.0153993,1896,722,96.5847,1.68805
679,302,96.1288,0.884766,0.00523934,0.0117287,-0.00606353,0.0153611,0.00160693,-1.03107,0.00974934,0.012463,1903,722,96.1288,-0.884774
686,302,95.6366,3.52527,0.00626953,0.0164466,-0.00700971,0.02002,0.00269612,-1.09936,0.0125449,0.0335594,1910,722,95.6366,-3.52528
693,302,95.0565,6.10602,0,0,0,0,0,0,0,-1,1917,722,95.0565,-6.10603
700,302,25.4069,1.97308,0,0,0,0,0,0,0,-1,1924,722,25.4068,-1.97311
707,302,16.7321,4.76685,0,0,0,0,0,0,0,-1,1931,722,16.7321,-4.76687
714,302,17.2,5.77594,0,0,0,0,0,0,0,-1,1938,722,17.2,-5.77595
721,302,17.7914,6.60394,0,0,0,0,0,0,0,-1,1945,722,17.7914,-6.60395
728,302,17.2798,4.81702,0,0,0,0,0,0,0,-1,1952,722,17.2798,-4.81703
735,302,0,0,0,0,0,0,0,0,0,-1,1959,722,0,0
742,302,0,0,0,0,0,0,0,0,0,-1,1966,722,0,0
749,302,0,0,0,0,0,0,0,0,0,-1,1973,722,0,0
756,302,0,0,0,0,0,0,0,0,0,-1,1980,722,0,0
763,302,0,0,0,0,0,0,0,0,0,-1,1987,722,0,0
770,302,0,0,0,0,0,0,0,0,0,-1,1994,722,0,0
777,302,0,0,0,0,0,0,0,0,0,-1,2001,722,0,0
784,302,0,0,0,0,0,0,0,0,0,-1,2008,722,0,0
791,302,0,0,0,0,0,0,0,0,0,-1,2015,722,0,0
798,302,0,0,0,0,0,0,0,0,0,-1,2022,722,0,0
805,302,0,0,0,0,0,0,0,0,0,-1,2029,722,0,0
812,302,0,0,0,0,0,0,0,0,0,-1,2036,722,0,0
-700,295,0,0,0,0,0,0,0,0,0,-1,524,729,0,0
-693,295,0,0,0,0,0,0,0,0,0,-1,531,729,0,0
-686,295,0,0,0,0,0,0,0,0,0,-1,538,729,0,0
-679,295,0,0,0,0,0,0,0,0,0,-1,545,729,0,0
-672,295,0,0,0,0,0,0,0,0,0,-1,552,729,0,0
-665,295,0,0,0,0,0,0,0,0,0,-1,559,729,0,0
-658,295,0,0,0,0,0,0,0,0,0,-1,566,729,0,0
-651,295,0,0,0,0,0,0,0,0,0,-1,573,729,0,0
-644,295,0,0,0,0,0,0,0,0,0,-1,580,729,0,0
-637,295,0,0,0,0,0,0,0,0,0,-1,587,729,0,0
-630,295,0,0,0,0,0,0,0,0,0,-1,594,729,0,0
-623,295,0,0,0,0,0,0,0,0,0,-1,601,729,0,0
-616,295,-13.4911,1.31738,0,0,0,0,0,0,0,-1,608,729,-13.4911,-1.3174
-609,295,-10.2864,0.832031,0,0,0,0,0,0,0,-1,615,729,-10.2863,-0.832034
-602,295,-8.19006,3.01587,0,0,0,0,0,0,0,-1,622,729,-8.19005,-3.01588
-595,295,-0.615479,-1.95447,0,0,0,0,0,0,0,-1,629,729,-0.615481,1.95445
-588,295,-7.98999,1.56903,0,0,0,0,0,0,0,-1,636,729,-7.98997,-1.56905
-581,295,-12.0404,0.150574,0,0,0,0,0,0,0,-1,643,729,-12.0404,-0.150604
-574,295,-12.1605,-0.0739746,0,0,0,0,0,0,0,-1,650,729,-12.1605,0.0739856
-567,295,-62.5502,4.69238,0,0,0,0,0,0,0,-1,657,729,-62.5503,-4.69241
-560,295,-87.64,6.13232,0,0,0,0,0,0,0,-1,664,729,-87.64,-6.13235
-553,295,-88.0662,3.4223,0.00415621,0.013199,0.00740997,0.0173581,-2.8722e-06,1.05933,0.011573,0.0266327,671,729,-88.0663,-3.4223
-546,295,-88.5649,0.920105,0.00458284,0.00899486,0.00539172,0.0126144,0.000963291,0.979582,0.0081076,0.0243076,678,729,-88.565,-0.920115
-539,295,-89.0096,-1.62604,0.00431225,0.00555482,0.00383796,0.00882146,0.00104562,0.865641,0.00556527,0.0238963,685,729,-89.0096,1.62604
-532,295,-89.4798,-4.23975,0.00352173,0.00263577,0.00264787,0.00576342,0.000394085,0.702518,0.00371788,0.0199644,692,729,-89.4798,4.23972
-525,295,-89.9333,-6.94183,0.00229194,5.11349e-05,0.00174249,0.00324315,-0.000900069,0.499682,0.00251636,0.0176827,699,729,-89.9333,6.94186
-518,295,-90.4119,-9.57257,0.000657073,-0.00190103,0.00117582,0.00111541,-0.00235936,0.371685,0.00204856,0.0152828,706,729,-90.4118,9.57256
-511,295,-90.9226,-12.1093,-0.00146768,-0.00349069,0.00092134,-0.00111097,-0.0038474,0.369392,0.00228642,0.0206969,713,729,-90.9226,12.1093
-504,295,-91.4782,-14.7399,-0.00382105,-0.00487381,0.000858583,-0.00334034,-0.00535453,0.510407,0.00312288,0.0244425,720,729,-91.4782,14.7399
-497,295,-92.1868,-17.2478,0,0,0,0,0,0,0,-1,727,729,-92.1868,17.2478
-490,295,-52.578,-14.2667,0,0,0,0,0,0,0,-1,734,729,-52.578,14.2667
-483,295,-6.84503,-0.454651,0,0,0,0,0,0,0,-1,741,729,-6.84505,0.454639
-476,295,-13.1738,-0.836243,0,0,0,0,0,0,0,-1,748,729,-13.1738,0.836223
-469,295,-26.5608,-0.466187,0,0,0,0,0,0,0,-1,755,729,-26.5608,0.466162
-462,295,-29.7701,-0.792664,0,0,0,0,0,0,0,-1,762,729,-29.7701,0.792642
-455,295,-45.11,-2.79272,0,0,0,0,0,0,0,-1,769,729,-45.11,2.79272
-448,295,-48.0288,1.41229,0,0,0,0,0,0,0,-1,776,729,-48.0288,-1.41227
-441,295,-47.1089,1.03058,0,0,0,0,0,0,0,-1,783,729,-47.109,-1.0306
-434,295,-46.2319,1.10614,0,0,0,0,0,0,0,-1,790,729,-46.2319,-1.10612
-427,295,0,0,0,0,0,0,0,0,0,-1,797,729,0,0
-420,295,0,0,0,0,0,0,0,0,0,-1,804,729,0,0
-413,295,0,0,0,0,0,0,0,0,0,-1,811,729,0,0
-406,295,0,0,0,0,0,0,0,0,0,-1,818,729,0,0
-399,295,0,0,0,0,0,0,0,0,0,-1,825,729,0,0
-392,295,0,0,0,0,0,0,0,0,0,-1,832,729,0,0
-385,295,0,0,0,0,0,0,0,0,0,-1,839,729,0,0
-378,295,0,0,0,0,0,0,0,0,0,-1,846,729,0,0
-371,295,0,0,0,0,0,0,0,0,0,-1,853,729,0,0
-364,295,0,0,0,0,0,0,0,0,0,-1,860,729,0,0
-357,295,0,0,0,0,0,0,0,0,0,-1,867,729,0,0
-350,295,0,0,0,0,0,0,0,0,0,-1,874,729,0,0
-343,295,0,0,0,0,0,0,0,0,0,-1,881,729,0,0
-336,295,0,0,0,0,0,0,0,0,0,-1,888,729,0,0
-329,295,0,0,0,0,0,0,0,0,0,-1,895,729,0,0
-322,295,0,0,0,0,0,0,0,0,0,-1,902,729,0,0
-315,295,0,0,0,0,0,0,0,0,0,-1,909,729,0,0
-308,295,0,0,0,0,0,0,0,0,0,-1,916,729,0,0
-301,295,0,0,0,0,0,0,0,0,0,-1,923,729,0,0
-294,295,0,0,0,0,0,0,0,0,0,-1,930,729,0,0
-287,295,0,0,0,0,0,0,0,0,0,-1,937,729,0,0
-280,295,0,0,0,0,0,0,0,0,0,-1,944,729,0,0
-273,295,0,0,0,0,0,0,0,0,0,-1,951,729,0,0
-266,295,0,0,0,0,0,0,0,0,0,-1,958,729,0,0
-259,295,0,0,0,0,0,0,0,0,0,-1,965,729,0,0
-252,295,0,0,0,0,0,0,0,0,0,-1,972,729,0,0
-245,295,0,0,0,0,0,0,0,0,0,-1,979,729,0,0
-238,295,0,0,0,0,0,0,0,0,0,-1,986,729,0,0
-231,295,0,0,0,0,0,0,0,0,0,-1,993,729,0,0
-224,295,0,0,0,0,0,0,0,0,0,-1,1000,729,0,0
-217,295,0,0,0,0,0,0,0,0,0,-1,1007,729,0,0
-210,295,0,0,0,0,0,0,0,0,0,-1,1014,729,0,0
-203,295,0,0,0,0,0,0,0,0,0,-1,1021,729,0,0
-196,295,0,0,0,0,0,0,0,0,0,-1,1028,729,0,0
-189,295,0,0,0,0,0,0,0,0,0,-1,1035,729,0,0
-182,295,0,0,0,0,0,0,0,0,0,-1,1042,729,0,0
-175,295,0,0,0,0,0,0,0,0,0,-1,1049,729,0,0
-168,295,0,0,0,0,0,0,0,0,0,-1,1056,729,0,0
-161,295,0,0,0,0,0,0,0,0,0,-1,1063,729,0,0
-154,295,0,0,0,0,0,0,0,0,0,-1,1070,729,0,0
-147,295,0,0,0,0,0,0,0,0,0,-1,1077,729,0,0
-140,295,0,0,0,0,0,0,0,0,0,-1,1084,729,0,0
-133,295,0,0,0,0,0,0,0,0,0,-1,1091,729,0,0
-126,295,0,0,0,0,0,0,0,0,0,-1,1098,729,0,0
-119,295,0,0,0,0,0,0,0,0,0,-1,1105,729,0,0
-112,295,0,0,0,0,0,0,0,0,0,-1,1112,729,0,0
-105,295,0,0,0,0,0,0,0,0,0,-1,1119,729,0,0
-98,295,0,0,0,0,0,0,0,0,0,-1,1126,729,0,0
-91,295,0,0,0,0,0,0,0,0,0,-1,1133,729,0,0
-84,295,0,0,0,0,0,0,0,0,0,-1,1140,729,0,0
-77,295,0,0,0,0,0,0,0,0,0,-1,1147,729,0,0
-70,295,0,0,0,0,0,0,0,0,0,-1,1154,729,0,0
-63,295,0,0,0,0,0,0,0,0,0,-1,1161,729,0,0
-56,295,0,0,0,0,0,0,0,0,0,-1,1168,729,0,0
-49,295,0,0,0,0,0,0,0,0,0,-1,1175,729,0,0
-42,295,0,0,0,0,0,0,0,0,0,-1,1182,729,0,0
-35,295,0,0,0,0,0,0,0,0,0,-1,1189,729,0,0
-28,295,0,0,0,0,0,0,0,0,0,-1,1196,729,0,0
-21,295,0,0,0,0,0,0,0,0,0,-1,1203,729,0,0
-14,295,0,0,0,0,0,0,0,0,0,-1,1210,729,0,0
-7,295,0,0,0,0,0,0,0,0,0,-1,1217,729,0,0
0,295,0,0,0,0,0,0,0,0,0,-1,1224,729,0,0
7,295,0,0,0,0,0,0,0,0,0,-1,1231,729,0,0
14,295,0,0,0,0,0,0,0,0,0,-1,1238,729,0,0
21,295,0,0,0,0,0,0,0,0,0,-1,1245,729,0,0
28,295,0,0,0,0,0,0,0,0,0,-1,1252,729,0,0
35,295,0,0,0,0,0,0,0,0,0,-1,1259,729,0,0
42,295,0,0,0,0,0,0,0,0,0,-1,1266,729,0,0
49,295,0,0,0,0,0,0,0,0,0,-1,1273,729,0,0
56,295,0,0,0,0,0,0,0,0,0,-1,1280,729,0,0
63,295,0,0,0,0,0,0,0,0,0,-1,1287,729,0,0
70,295,0,0,0,0,0,0,0,0,0,-1,1294,729,0,0
77,295,0,0,0,0,0,0,0,0,0,-1,1301,729,0,0
84,295,0,0,0,0,0,0,0,0,0,-1,1308,729,0,0
91,295,0,0,0,0,0,0,0,0,0,-1,1315,729,0,0
98,295,0,0,0,0,0,0,0,0,0,-1,1322,729,0,0
105,295,0,0,0,0,0,0,0,0,0,-1,1329,729,0,0
112,295,0,0,0,0,0,0,0,0,0,-1,1336,729,0,0
119,295,0,0,0,0,0,0,0,0,0,-1,1343,729,0,0
126,295,0,0,0,0,0,0,0,0,0,-1,1350,729,0,0
133,295,0,0,0,0,0,0,0,0,0,-1,1357,729,0,0
140,295,0,0,0,0,0,0,0,0,0,-1,1364,729,0,0
147,295,0,0,0,0,0,0,0,0,0,-1,1371,729,0,0
154,295,0,0,0,0,0,0,0,0,0,-1,1378,729,0,0
161,295,0,0,0,0,0,0,0,0,0,-1,1385,729,0,0
168,295,0,0,0,0,0,0,0,0,0,-1,1392,729,0,0
175,295,0,0,0,0,0,0,0,0,0,-1,1399,729,0,0
182,295,0,0,0,0,0,0,0,0,0,-1,1406,729,0,0
189,295,0,0,0,0,0,0,0,0,0,-1,1413,729,0,0
196,295,0,0,0,0,0,0,0,0,0,-1,1420,729,0,0
203,295,0,0,0,0,0,0,0,0,0,-1,1427,729,0,0
210,295,0,0,0,0,0,0,0,0,0,-1,1434,729,0,0
217,295,0,0,0,0,0,0,0,0,0,-1,1441,729,0,0
224,295,0,0,0,0,0,0,0,0,0,-1,1448,729,0,0
231,295,0,0,0,0,0,0,0,0,0,-1,1455,729,0,0
238,295,0,0,0,0,0,0,0,0,0,-1,1462,729,0,0
245,295,0,0,0,0,0,0,0,0,0,-1,1469,729,0,0
252,295,0,0,0,0,0,0,0,0,0,-1,1476,729,0,0
259,295,0,0,0,0,0,0,0,0,0,-1,1483,729,0,0
266,295,0,0,0,0,0,0,0,0,0,-1,1490,729,0,0
273,295,0,0,0,0,0,0,0,0,0,-1,1497,729,0,0
280,295,0,0,0,0,0,0,0,0,0,-1,1504,729,0,0
287,295,0,0,0,0,0,0,0,0,0,-1,1511,729,0,0
294,295,0,0,0,0,0,0,0,0,0,-1,1518,729,0,0
301,295,0,0,0,0,0,0,0,0,0,-1,1525,729,0,0
308,295,0,0,0,0,0,0,0,0,0,-1,1532,729,0,0
315,295,0,0,0,0,0,0,0,0,0,-1,1539,729,0,0
322,295,0,0,0,0,0,0,0,0,0,-1,1546,729,0,0
329,295,0,0,0,0,0,0,0,0,0,-1,1553,729,0,0
336,295,0,0,0,0,0,0,0,0,0,-1,1560,729,0,0
343,295,0,0,0,0,0,0,0,0,0,-1,1567,729,0,0
350,295,0,0,0,0,0,0,0,0,0,-1,1574,729,0,0
357,295,0,0,0,0,0,0,0,0,0,-1,1581,729,0,0
364,295,0,0,0,0,0,0,0,0,0,-1,1588,729,0,0
371,295,0,0,0,0,0,0,0,0,0,-1,1595,729,0,0
378,295,0,0,0,0,0,0,0,0,0,-1,1602,729,0,0
385,295,0,0,0,0,0,0,0,0,0,-1,1609,729,0,0
392,295,0,0,0,0,0,0,0,0,0,-1,1616,729,0,0
399,295,0,0,0,0,0,0,0,0,0,-1,1623,729,0,0
406,295,0,0,0,0,0,0,0,0,0,-1,1630,729,0,0
413,295,0,0,0,0,0,0,0,0,0,-1,1637,729,0,0
420,295,0,0,0,0,0,0,0,0,0,-1,1644,729,0,0
427,295,0,0,0,0,0,0,0,0,0,-1,1651,729,0,0
434,295,0,0,0,0,0,0,0,0,0,-1,1658,729,0,0
441,295,0,0,0,0,0,0,0,0,0,-1,1665,729,0,0
448,295,0,0,0,0,0,0,0,0,0,-1,1672,729,0,0
455,295,0,0,0,0,0,0,0,0,0,-1,1679,729,0,0
462,295,0,0,0,0,0,0,0,0,0,-1,1686,729,0,0
469,295,0,0,0,0,0,0,0,0,0,-1,1693,729,0,0
476,295,0,0,0,0,0,0,0,0,0,-1,1700,729,0,0
483,295,0,0,0,0,0,0,0,0,0,-1,1707,729,0,0
490,295,0,0,0,0,0,0,0,0,0,-1,1714,729,0,0
497,295,0,0,0,0,0,0,0,0,0,-1,1721,729,0,0
504,295,0,0,0,0,0,0,0,0,0,-1,1728,729,0,0
511,295,0,0,0,0,0,0,0,0,0,-1,1735,729,0,0
518,295,0,0,0,0,0,0,0,0,0,-1,1742,729,0,0
525,295,0,0,0,0,0,0,0,0,0,-1,1749,729,0,0
532,295,0,0,0,0,0,0,0,0,0,-1,1756,729,0,0
539,295,0,0,0,0,0,0,0,0,0,-1,1763,729,0,0
546,295,57.4674,2.36884,0,0,0,0,0,0,0,-1,1770,729,57.4674,-2.36883
553,295,57.1969,2.73846,0,0,0,0,0,0,0,-1,1777,729,57.197,-2.73843
560,295,57.0291,3.27454,0,0,0,0,0,0,0,-1,1784,729,57.029,-3.27454
567,295,56.6243,3.88239,0,0,0,0,0,0,0,-1,1791,729,56.6242,-3.8824
574,295,56.5275,4.755,0,0,0,0,0,0,0,-1,1798,729,56.5274,-4.75501
581,295,37.8191,2.19592,0,0,0,0,0,0,0,-1,1805,729,37.8191,-2.19594
588,295,39.0542,2.45679,0,0,0,0,0,0,0,-1,1812,729,39.0542,-2.45676
595,295,27.2102,6.99121,0,0,0,0,0,0,0,-1,1819,729,27.2103,-6.99121
602,295,26.9065,7.82141,0,0,0,0,0,0,0,-1,1826,729,26.9064,-7.8214
609,295,11.7737,2.19989,0,0,0,0,0,0,0,-1,1833,729,11.7736,-2.19988
616,295,45.2537,-10.4867,0,0,0,0,0,0,0,-1,1840,729,45.2537,10.4867
623,295,86.2454,-17.1973,0,0,0,0,0,0,0,-1,1847,729,86.2454,17.1973
630,295,102.634,-16.9286,0,0,0,0,0,0,0,-1,1854,729,102.634,16.9286
637,295,101.815,-14.468,0,0,0,0,0,0,0,-1,1861,729,101.815,14.468
644,295,101.248,-11.7764,-0.000842755,-0.00139651,0.000755627,-0.000314875,-0.00192439,0.609785,0.00119191,0.0442838,1868,729,101.248,11.7764
651,295,100.732,-9.00732,0.000154115,0.0001219,-0.00078581,0.000923983,-0.000647968,-0.77515,0.000912218,0.0184468,1875,729,100.732,9.00735
658,295,100.264,-6.41205,0.00111768,0.00208319,-0.0022972,0.00394781,-0.000746941,-0.888966,0.00291295,0.0213088,1882,729,100.264,6.41207
665,295,99.7445,-3.83594,0.00205428,0.00449873,-0.00374991,0.00722057,-0.000667565,-0.942936,0.00505096,0.0184909,1889,729,99.7445,3.83595
672,295,99.2751,-1.23749,0.00301483,0.00749524,-0.00512729,0.0108504,-0.000340288,-0.991359,0.00734963,0.0249568,1896,729,99.2751,1.23749
679,295,98.8365,1.31097,0.00409545,0.0112211,-0.00643123,0.0150104,0.0003061,-1.03835,0.0099065,0.0227468,1903,729,98.8365,-1.31096
686,295,98.3501,3.88184,0.00518375,0.015885,-0.00751389,0.0197587,0.00131008,-1.0948,0.0127582,0.020892,1910,729,98.3501,-3.88184
693,295,97.895,6.45465,0,0,0,0,0,0,0,-1,1917,729,97.895,-6.45462
700,295,31.3757,2.06982,0,0,0,0,0,0,0,-1,1924,729,31.3758,-2.0698
707,295,22.2661,3.05206,0,0,0,0,0,0,0,-1,1931,729,22.2662,-3.05207
714,295,17.4906,4.63068,0,0,0,0,0,0,0,-1,1938,729,17.4906,-4.63066
721,295,18.3792,5.32281,0,0,0,0,0,0,0,-1,1945,729,18.3791,-5.32283
728,295,17.379,3.74866,0,0,0,0,0,0,0,-1,1952,729,17.379,-3.74863
735,295,0,0,0,0,0,0,0,0,0,-1,1959,729,0,0
742,295,0,0,0,0,0,0,0,0,0,-1,1966,729,0,0
749,295,0,0,0,0,0,0,0,0,0,-1,1973,729,0,0
756,295,0,0,0,0,0,0,0,0,0,-1,1980,729,0,0
763,295,0,0,0,0,0,0,0,0,0,-1,1987,729,0,0
770,295,0,0,0,0,0,0,0,0,0,-1,1994,729,0,0
777,295,0,0,0,0,0,0,0,0,0,-1,2001,729,0,0
784,295,0,0,0,0,0,0,0,0,0,-1,2008,729,0,0
791,295,0,0,0,0,0,0,0,0,0,-1,2015,729,0,0
798,295,0,0,0,0,0,0,0,0,0,-1,2022,729,0,0
805,295,0,0,0,0,0,0,0,0,0,-1,2029,729,0,0
812,295,0,0,0,0,0,0,0,0,0,-1,2036,729,0,0
-700,288,0,0,0,0,0,0,0,0,0,-1,524,736,0,0
-693,288,0,0,0,0,0,0,0,0,0,-1,531,736,0,0
-686,288,0,0,0,0,0,0,0,0,0,-1,538,736,0,0
-679,288,0,0,0,0,0,0,0,0,0,-1,545,736,0,0
-672,288,0,0,0,0,0,0,0,0,0,-1,552,736,0,0
-665,288,0,0,0,0,0,0,0,0,0,-1,559,736,0,0
-658,288,0,0,0,0,0,0,0,0,0,-1,566,736,0,0
-651,288,0,0,0,0,0,0,0,0,0,-1,573,736,0,0
-644,288,0,0,0,0,0,0,0,0,0,-1,580,736,0,0
-637,288,0,0,0,0,0,0,0,0,0,-1,587,736,0,0
-630,288,0,0,0,0,0,0,0,0,0,-1,594,736,0,0
-623,288,0,0,0,0,0,0,0,0,0,-1,601,736,0,0
-616,288,-11.7584,2.4425,0,0,0,0,0,0,0,-1,608,736,-11.7584,-2.44251
-609,288,-10.3007,2.32178,0,0,0,0,0,0,0,-1,615,736,-10.3007,-2.32178
-602,288,-10.1458,-1.85559,0,0,0,0,0,0,0,-1,622,736,-10.1458,1.85556
-595,288,-7.63208,1.81769,0,0,0,0,0,0,0,-1,629,736,-7.63205,-1.81766
-588,288,-8.19269,1.50598,0,0,0,0,0,0,0,-1,636,736,-8.19268,-1.50601
-581,288,-59.2949,7.2605,0,0,0,0,0,0,0,-1,643,736,-59.2949,-7.26048
-574,288,-74.4278,8.36401,0,0,0,0,0,0,0,-1,650,736,-74.4278,-8.36403
-567,288,-89.8373,9.01025,0,0,0,0,0,0,0,-1,657,736,-89.8373,-9.01025
-560,288,-90.3781,6.44733,0,0,0,0,0,0,0,-1,664,736,-90.3781,-6.44732
-553,288,-90.732,3.95038,0.00346945,0.0123496,0.00773025,0.0168241,-0.00100513,1.04608,0.0115657,0.0235472,671,736,-90.732,-3.95039
-546,288,-91.176,1.46704,0.00372802,0.00813694,0.00560014,0.0119509,-8.59271e-05,0.972905,0.00799605,0.0238771,678,736,-91.176,-1.46702
-539,288,-91.647,-1.11157,0.00335964,0.00461437,0.00389647,0.00793366,4.035e-05,0.865217,0.00527571,0.0224051,685,736,-91.647,1.1116
-532,288,-92.0206,-3.74542,0.00245972,0.00162486,0.00255961,0.00463571,-0.000551131,0.704568,0.00328961,0.020044,692,736,-92.0206,3.74541
-525,288,-92.5104,-6.39862,0.001074,-0.0009589,0.00157311,0.00193048,-0.00181538,0.49857,0.00216301,0.0171983,699,736,-92.5104,6.39861
-518,288,-93.0136,-9.05573,-0.000803242,-0.0029674,0.00099553,-0.000414956,-0.00335569,0.371882,0.00211244,0.0216464,706,736,-93.0136,9.05574
-511,288,-93.6182,-11.6227,-0.00336846,-0.00458916,0.000845896,-0.00293571,-0.00502191,0.472879,0.0029132,0.0225113,713,736,-93.6181,11.6228
-504,288,-94.0182,-14.0448,0,0,0,0,0,0,0,-1,720,736,-94.0182,14.0448
-497,288,-81.8885,-16.6532,0,0,0,0,0,0,0,-1,727,736,-81.8885,16.6532
-490,288,-50.7991,-12.983,0,0,0,0,0,0,0,-1,734,736,-50.799,12.9831
-483,288,-17.3287,0.564758,0,0,0,0,0,0,0,-1,741,736,-17.3287,-0.56477
-476,288,-26.136,0.452148,0,0,0,0,0,0,0,-1,748,736,-26.136,-0.452177
-469,288,-27.7904,0.649841,0,0,0,0,0,0,0,-1,755,736,-27.7904,-0.649854
-462,288,-44.999,-2.65112,0,0,0,0,0,0,0,-1,762,736,-44.999,2.65111
-455,288,-49.1631,1.86432,0,0,0,0,0,0,0,-1,769,736,-49.1632,-1.8643
-448,288,-55.5283,0.0455933,0,0,0,0,0,0,0,-1,776,736,-55.5284,-0.0456
-441,288,-55.0096,0.39325,0,0,0,0,0,0,0,-1,783,736,-55.0096,-0.393269
-434,288,-46.7119,1.66388,0,0,0,0,0,0,0,-1,790,736,-46.7119,-1.66385
-427,288,0,0,0,0,0,0,0,0,0,-1,797,736,0,0
-420,288,0,0,0,0,0,0,0,0,0,-1,804,736,0,0
-413,288,0,0,0,0,0,0,0,0,0,-1,811,736,0,0
-406,288,0,0,0,0,0,0,0,0,0,-1,818,736,0,0
-399,288,0,0,0,0,0,0,0,0,0,-1,825,736,0,0
-392,288,0,0,0,0,0,0,0,0,0,-1,832,736,0,0
-385,288,0,0,0,0,0,0,0,0,0,-1,839,736,0,0
-378,288,0,0,0,0,0,0,0,0,0,-1,846,736,0,0
-371,288,0,0,0,0,0,0,0,0,0,-1,853,736,0,0
-364,288,0,0,0,0,0,0,0,0,0,-1,860,736,0,0
-357,288,0,0,0,0,0,0,0,0,0,-1,867,736,0,0
-350,288,0,0,0,0,0,0,0,0,0,-1,874,736,0,0
-343,288,0,0,0,0,0,0,0,0,0,-1,881,736,0,0
-336,288,0,0,0,0,0,0,0,0,0,-1,888,736,0,0
-329,288,0,0,0,0,0,0,0,0,0,-1,895,736,0,0
-322,288,0,0,0,0,0,0,0,0,0,-1,902,736,0,0
-315,288,0,0,0,0,0,0,0,0,0,-1,909,736,0,0
-308,288,0,0,0,0,0,0,0,0,0,-1,916,736,0,0
-301,288,0,0,0,0,0,0,0,0,0,-1,923,736,0,0
-294,288,0,0,0,0,0,0,0,0,0,-1,930,736,0,0
-287,288,0,0,0,0,0,0,0,0,0,-1,937,736,0,0
-280,288,0,0,0,0,0,0,0,0,0,-1,944,736,0,0
-273,288,0,0,0,0,0,0,0,0,0,-1,951,736,0,0
-266,288,0,0,0,0,0,0,0,0,0,-1,958,736,0,0
-259,288,0,0,0,0,0,0,0,0,0,-1,965,736,0,0
-252,288,0,0,0,0,0,0,0,0,0,-1,972,736,0,0
-245,288,0,0,0,0,0,0,0,0,0,-1,979,736,0,0
-238,288,0,0,0,0,0,0,0,0,0,-1,986,736,0,0
-231,288,0,0,0,0,0,0,0,0,0,-1,993,736,0,0
-224,288,0,0,0,0,0,0,0,0,0,-1,1000,736,0,0
-217,288,0,0,0,0,0,0,0,0,0,-1,1007,736,0,0
-210,288,0,0,0,0,0,0,0,0,0,-1,1014,736,0,0
-203,288,0,0,0,0,0,0,0,0,0,-1,1021,736,0,0
-196,288,0,0,0,0,0,0,0,0,0,-1,1028,736,0,0
-189,288,0,0,0,0,0,0,0,0,0,-1,1035,736,0,0
-182,288,0,0,0,0,0,0,0,0,0,-1,1042,736,0,0
-175,288,0,0,0,0,0,0,0,0,0,-1,1049,736,0,0
-168,288,0,0,0,0,0,0,0,0,0,-1,1056,736,0,0
-161,288,0,0,0,0,0,0,0,0,0,-1,1063,736,0,0
-154,288,0,0,0,0,0,0,0,0,0,-1,1070,736,0,0
-147,288,0,0,0,0,0,0,0,0,0,-1,1077,736,0,0
-140,288,0,0,0,0,0,0,0,0,0,-1,1084,736,0,0
-133,288,0,0,0,0,0,0,0,0,0,-1,1091,736,0,0
-126,288,0,0,0,0,0,0,0,0,0,-1,1098,736,0,0
-119,288,0,0,0,0,0,0,0,0,0,-1,1105,736,0,0
-112,288,0,0,0,0,0,0,0,0,0,-1,1112,736,0,0
-105,288,0,0,0,0,0,0,0,0,0,-1,1119,736,0,0
-98,288,0,0,0,0,0,0,0,0,0,-1,1126,736,0,0
-91,288,0,0,0,0,0,0,0,0,0,-1,1133,736,0,0
-84,288,0,0,0,0,0,0,0,0,0,-1,1140,736,0,0
-77,288,0,0,0,0,0,0,0,0,0,-1,1147,736,0,0
-70,288,0,0,0,0,0,0,0,0,0,-1,1154,736,0,0
-63,288,0,0,0,0,0,0,0,0,0,-1,1161,736,0,0
-56,288,0,0,0,0,0,0,0,0,0,-1,1168,736,0,0
-49,288,0,0,0,0,0,0,0,0,0,-1,1175,736,0,0
-42,288,0,0,0,0,0,0,0,0,0,-1,1182,736,0,0
-35,288,0,0,0,0,0,0,0,0,0,-1,1189,736,0,0
-28,288,0,0,0,0,0,0,0,0,0,-1,1196,736,0,0
-21,288,0,0,0,0,0,0,0,0,0,-1,1203,736,0,0
-14,288,0,0,0,0,0,0,0,0,0,-1,1210,736,0,0
-7,288,0,0,0,0,0,0,0,0,0,-1,1217,736,0,0
0,288,0,0,0,0,0,0,0,0,0,-1,1224,736,0,0
7,288,0,0,0,0,0,0,0,0,0,-1,1231,736,0,0
14,288,0,0,0,0,0,0,0,0,0,-1,1238,736,0,0
21,288,0,0,0,0,0,0,0,0,0,-1,1245,736,0,0
28,288,0,0,0,0,0,0,0,0,0,-1,1252,736,0,0
35,288,0,0,0,0,0,0,0,0,0,-1,1259,736,0,0
42,288,0,0,0,0,0,0,0,0,0,-1,1266,736,0,0
49,288,0,0,0,0,0,0,0,0,0,-1,1273,736,0,0
56,288,0,0,0,0,0,0,0,0,0,-1,1280,736,0,0
63,288,0,0,0,0,0,0,0,0,0,-1,1287,736,0,0
70,288,0,0,0,0,0,0,0,0,0,-1,1294,736,0,0
77,288,0,0,0,0,0,0,0,0,0,-1,1301,736,0,0
84,288,0,0,0,0,0,0,0,0,0,-1,1308,736,0,0
91,288,0,0,0,0,0,0,0,0,0,-1,1315,736,0,0
98,288,0,0,0,0,0,0,0,0,0,-1,1322,736,0,0
105,288,0,0,0,0,0,0,0,0,0,-1,1329,736,0,0
112,288,0,0,0,0,0,0,0,0,0,-1,1336,736,0,0
119,288,0,0,0,0,0,0,0,0,0,-1,1343,736,0,0
126,288,0,0,0,0,0,0,0,0,0,-1,1350,736,0,0
133,288,0,0,0,0,0,0,0,0,0,-1,1357,736,0,0
140,288,0,0,0,0,0,0,0,0,0,-1,1364,736,0,0
147,288,0,0,0,0,0,0,0,0,0,-1,1371,736,0,0
154,288,0,0,0,0,0,0,0,0,0,-1,1378,736,0,0
161,288,0,0,0,0,0,0,0,0,0,-1,1385,736,0,0
168,288,0,0,0,0,0,0,0,0,0,-1,1392,736,0,0
175,288,0,0,0,0,0,0,0,0,0,-1,1399,736,0,0
182,288,0,0,0,0,0,0,0,0,0,-1,1406,736,0,0
189,288,0,0,0,0,0,0,0,0,0,-1,1413,736,0,0
196,288,0,0,0,0,0,0,0,0,0,-1,1420,736,0,0
203,288,0,0,0,0,0,0,0,0,0,-1,1427,736,0,0
210,288,0,0,0,0,0,0,0,0,0,-1,1434,736,0,0
217,288,0,0,0,0,0,0,0,0,0,-1,1441,736,0,0
224,288,0,0,0,0,0,0,0,0,0,-1,1448,736,0,0
231,288,0,0,0,0,0,0,0,0,0,-1,1455,736,0,0
238,288,0,0,0,0,0,0,0,0,0,-1,1462,736,0,0
245,288,0,0,0,0,0,0,0,0,0,-1,1469,736,0,0
252,288,0,0,0,0,0,0,0,0,0,-1,1476,736,0,0
259,288,0,0,0,0,0,0,0,0,0,-1,1483,736,0,0
266,288,0,0,0,0,0,0,0,0,0,-1,1490,736,0,0
273,288,0,0,0,0,0,0,0,0,0,-1,1497,736,0,0
280,288,0,0,0,0,0,0,0,0,0,-1,1504,736,0,0
287,288,0,0,0,0,0,0,0,0,0,-1,1511,736,0,0
294,288,0,0,0,0,0,0,0,0,0,-1,1518,736,0,0
301,288,0,0,0,0,0,0,0,0,0,-1,1525,736,0,0
308,288,0,0,0,0,0,0,0,0,0,-1,1532,736,0,0
315,288,0,0,0,0,0,0,0,0,0,-1,1539,736,0,0
322,288,0,0,0,0,0,0,0,0,0,-1,1546,736,0,0
329,288,0,0,0,0,0,0,0,0,0,-1,1553,736,0,0
336,288,0,0,0,0,0,0,0,0,0,-1,1560,736,0,0
343,288,0,0,0,0,0,0,0,0,0,-1,1567,736,0,0
350,288,0,0,0,0,0,0,0,0,0,-1,1574,736,0,0
357,288,0,0,0,0,0,0,0,0,0,-1,1581,736,0,0
364,288,0,0,0,0,0,0,0,0,0,-1,1588,736,0,0
371,288,0,0,0,0,0,0,0,0,0,-1,1595,736,0,0
378,288,0,0,0,0,0,0,0,0,0,-1,1602,736,0,0
385,288,0,0,0,0,0,0,0,0,0,-1,1609,736,0,0
392,288,0,0,0,0,0,0,0,0,0,-1,1616,736,0,0
399,288,0,0,0,0,0,0,0,0,0,-1,1623,736,0,0
406,288,0,0,0,0,0,0,0,0,0,-1,1630,736,0,0
413,288,0,0,0,0,0,0,0,0,0,-1,1637,736,0,0
420,288,0,0,0,0,0,0,0,0,0,-1,1644,736,0,0
427,288,0,0,0,0,0,0,0,0,0,-1,1651,736,0,0
434,288,0,0,0,0,0,0,0,0,0,-1,1658,736,0,0
441,288,0,0,0,0,0,0,0,0,0,-1,1665,736,0,0
448,288,0,0,0,0,0,0,0,0,0,-1,1672,736,0,0
455,288,0,0,0,0,0,0,0,0,0,-1,1679,736,0,0
462,288,0,0,0,0,0,0,0,0,0,-1,1686,736,0,0
469,288,0,0,0,0,0,0,0,0,0,-1,1693,736,0,0
476,288,0,0,0,0,0,0,0,0,0,-1,1700,736,0,0
483,288,0,0,0,0,0,0,0,0,0,-1,1707,736,0,0
490,288,0,0,0,0,0,0,0,0,0,-1,1714,736,0,0
497,288,0,0,0,0,0,0,0,0,0,-1,1721,736,0,0
504,288,0,0,0,0,0,0,0,0,0,-1,1728,736,0,0
511,288,0,0,0,0,0,0,0,0,0,-1,1735,736,0,0
518,288,0,0,0,0,0,0,0,0,0,-1,1742,736,0,0
525,288,0,0,0,0,0,0,0,0,0,-1,1749,736,0,0
532,288,0,0,0,0,0,0,0,0,0,-1,1756,736,0,0
539,288,0,0,0,0,0,0,0,0,0,-1,1763,736,0,0
546,288,0,0,0,0,0,0,0,0,0,-1,1770,736,0,0
553,288,57.4934,2.28064,0,0,0,0,0,0,0,-1,1777,736,57.4934,-2.28064
560,288,57.3807,3.02881,0,0,0,0,0,0,0,-1,1784,736,57.3808,-3.0288
567,288,57.2081,3.74274,0,0,0,0,0,0,0,-1,1791,736,57.2081,-3.74273
574,288,56.9817,4.36981,0,0,0,0,0,0,0,-1,1798,736,56.9816,-4.36984
581,288,53.4904,5.33215,0,0,0,0,0,0,0,-1,1805,736,53.4904,-5.33218
588,288,54.9313,3.29852,0,0,0,0,0,0,0,-1,1812,736,54.9313,-3.29849
595,288,47.035,3.35156,0,0,0,0,0,0,0,-1,1819,736,47.035,-3.35157
602,288,26.7634,7.61279,0,0,0,0,0,0,0,-1,1826,736,26.7635,-7.61279
609,288,17.5223,4.86414,0,0,0,0,0,0,0,-1,1833,736,17.5223,-4.86412
616,288,13.4886,0.801331,0,0,0,0,0,0,0,-1,1840,736,13.4886,-0.80132
623,288,57.6567,-12.0563,0,0,0,0,0,0,0,-1,1847,736,57.6568,12.0563
630,288,98.6108,-16.3088,0,0,0,0,0,0,0,-1,1854,736,98.6108,16.3088
637,288,98.1063,-14.02,0,0,0,0,0,0,0,-1,1861,736,98.1063,14.02
644,288,103.872,-11.3191,0,0,0,0,0,0,0,-1,1868,736,103.872,11.3191
651,288,103.339,-8.51001,-0.00119226,-0.00109711,-0.000682696,-0.000460331,-0.00182903,-0.820187,0.00109855,0.0292117,1875,736,103.339,8.51003
658,288,102.817,-5.82971,-0.000257897,0.00094547,-0.00231917,0.00273974,-0.00205216,-0.912319,0.00277608,0.0259096,1882,736,102.817,5.82974
665,288,102.382,-3.27716,0.000663899,0.00350766,-0.00389954,0.00623646,-0.0020649,-0.960221,0.00499043,0.0243791,1889,736,102.382,3.27717
672,288,101.931,-0.750732,0.00161252,0.00661519,-0.00536453,0.0100329,-0.00180517,-1.00355,0.00736443,0.0335582,1896,736,101.931,0.750747
679,288,101.467,1.79926,0.00267875,0.0104041,-0.00676905,0.014335,-0.00125219,-1.04467,0.0100002,0.0316278,1903,736,101.467,-1.79927
686,288,100.961,4.29498,0.00384236,0.0150431,-0.00799174,0.0192015,-0.000315947,-1.09102,0.0129076,0.0240953,1910,736,100.961,-4.29499
693,288,100.545,6.91931,0.00524459,0.020532,-0.0089452,0.0246545,0.00112212,-1.13895,0.0160753,0.0413491,1917,736,100.545,-6.91934
700,288,100.079,9.62738,0,0,0,0,0,0,0,-1,1924,736,100.079,-9.62741
707,288,30.9496,3.07977,0,0,0,0,0,0,0,-1,1931,736,30.9496,-3.07975
714,288,23.0149,3.82544,0,0,0,0,0,0,0,-1,1938,736,23.0149,-3.82541
721,288,18.0732,3.69385,0,0,0,0,0,0,0,-1,1945,736,18.0732,-3.69387
728,288,19.3208,3.91455,0,0,0,0,0,0,0,-1,1952,736,19.3209,-3.91455
735,288,18.7712,3.51312,0,0,0,0,0,0,0,-1,1959,736,18.7713,-3.51309
742,288,0,0,0,0,0,0,0,0,0,-1,1966,736,0,0
749,288,0,0,0,0,0,0,0,0,0,-1,1973,736,0,0
756,288,0,0,0,0,0,0,0,0,0,-1,1980,736,0,0
763,288,0,0,0,0,0,0,0,0,0,-1,1987,736,0,0
770,288,0,0,0,0,0,0,0,0,0,-1,1994,736,0,0
777,288,0,0,0,0,0,0,0,0,0,-1,2001,736,0,0
784,288,0,0,0,0,0,0,0,0,0,-1,2008,736,0,0
791,288,0,0,0,0,0,0,0,0,0,-1,2015,736,0,0
798,288,0,0,0,0,0,0,0,0,0,-1,2022,736,0,0
805,288,0,0,0,0,0,0,0,0,0,-1,2029,736,0,0
812,288,0,0,0,0,0,0,0,0,0,-1,2036,736,0,0
-700,281,0,0,0,0,0,0,0,0,0,-1,524,743,0,0
-693,281,0,0,0,0,0,0,0,0,0,-1,531,743,0,0
-686,281,0,0,0,0,0,0,0,0,0,-1,538,743,0,0
-679,281,0,0,0,0,0,0,0,0,0,-1,545,743,0,0
-672,281,0,0,0,0,0,0,0,0,0,-1,552,743,0,0
-665,281,0,0,0,0,0,0,0,0,0,-1,559,743,0,0
-658,281,0,0,0,0,0,0,0,0,0,-1,566,743,0,0
-651,281,0,0,0,0,0,0,0,0,0,-1,573,743,0,0
-644,281,0,0,0,0,0,0,0,0,0,-1,580,743,0,0
-637,281,0,0,0,0,0,0,0,0,0,-1,587,743,0,0
-630,281,0,0,0,0,0,0,0,0,0,-1,594,743,0,0
-623,281,-19.1697,5.67017,0,0,0,0,0,0,0,-1,601,743,-19.1697,-5.67019
-616,281,-11.5906,2.6853,0,0,0,0,0,0,0,-1,608,743,-11.5906,-2.68529
-609,281,-16.1972,4.14838,0,0,0,0,0,0,0,-1,615,743,-16.1972,-4.14837
-602,281,-21.9772,6.77417,0,0,0,0,0,0,0,-1,622,743,-21.9771,-6.77415
-595,281,-10.4797,-1.07404,0,0,0,0,0,0,0,-1,629,743,-10.4798,1.07402
-588,281,-61.8041,9.54553,0,0,0,0,0,0,0,-1,636,743,-61.8041,-9.54551
-581,281,-76.5182,10.7938,0,0,0,0,0,0,0,-1,643,743,-76.5183,-10.7938
-574,281,-91.9241,11.8198,0,0,0,0,0,0,0,-1,650,743,-91.9241,-11.8199
-567,281,-92.5189,9.30853,0.000375641,0.0230717,0.0133941,0.0292788,-0.00583141,1.13684,0.0217254,0.0285796,657,743,-92.5189,-9.30856
-560,281,-93.0637,6.8808,0.00206132,0.0165991,0.0103123,0.0219468,-0.00328644,1.09239,0.0158407,0.0120902,664,743,-93.0637,-6.88078
-553,281,-93.4513,4.40137,0.002739,0.0115305,0.00771492,0.0160141,-0.00174459,1.04435,0.0113025,0.018776,671,743,-93.4513,-4.40137
-546,281,-93.8106,1.95337,0.00279921,0.00725354,0.00553263,0.0109905,-0.0009377,0.97675,0.00765869,0.0198078,678,743,-93.8106,-1.95337
-539,281,-94.2374,-0.626465,0.00229318,0.00362746,0.00372477,0.00674436,-0.000823727,0.874013,0.00479446,0.0176672,685,743,-94.2374,0.626434
-532,281,-94.696,-3.17877,0.00125839,0.000528963,0.00227822,0.00320091,-0.00141355,0.706028,0.00272996,0.0181819,692,743,-94.6961,3.17877
-525,281,-95.1035,-5.84387,-0.000298534,-0.00199598,0.00122238,0.000340878,-0.0026354,0.481946,0.00188088,0.0274617,699,743,-95.1035,5.84387
-518,281,-95.5584,-8.59802,-0.00242107,-0.00395354,0.000595703,-0.00221675,-0.00415786,0.330417,0.0024023,0.0389506,706,743,-95.5584,8.59802
-511,281,-96.3083,-11.1954,-0.00545187,-0.00550372,0.000502859,-0.00497427,-0.00598132,0.759642,0.00369786,0.0294036,713,743,-96.3084,11.1954
-504,281,-96.9491,-13.6055,0,0,0,0,0,0,0,-1,720,743,-96.9491,13.6056
-497,281,-73.8456,-14.3827,0,0,0,0,0,0,0,-1,727,743,-73.8456,14.3827
-490,281,-27.6985,-9.63165,0,0,0,0,0,0,0,-1,734,743,-27.6986,9.63165
-483,281,-22.1078,-2.34973,0,0,0,0,0,0,0,-1,741,743,-22.1078,2.3497
-476,281,-28.0016,2.17786,0,0,0,0,0,0,0,-1,748,743,-28.0016,-2.17786
-469,281,-34.6448,0.171692,0,0,0,0,0,0,0,-1,755,743,-34.6448,-0.171685
-462,281,-46.6214,0.0193481,0,0,0,0,0,0,0,-1,762,743,-46.6214,-0.0193665
-455,281,-56.0239,-0.1521,0,0,0,0,0,0,0,-1,769,743,-56.024,0.152123
-448,281,-55.8145,0.304321,0,0,0,0,0,0,0,-1,776,743,-55.8145,-0.304294
-441,281,-55.4486,0.766052,0,0,0,0,0,0,0,-1,783,743,-55.4486,-0.766078
-434,281,0,0,0,0,0,0,0,0,0,-1,790,743,0,0
-427,281,0,0,0,0,0,0,0,0,0,-1,797,743,0,0
-420,281,0,0,0,0,0,0,0,0,0,-1,804,743,0,0
-413,281,0,0,0,0,0,0,0,0,0,-1,811,743,0,0
-406,281,0,0,0,0,0,0,0,0,0,-1,818,743,0,0
-399,281,0,0,0,0,0,0,0,0,0,-1,825,743,0,0
-392,281,0,0,0,0,0,0,0,0,0,-1,832,743,0,0
-385,281,0,0,0,0,0,0,0,0,0,-1,839,743,0,0
-378,281,0,0,0,0,0,0,0,0,0,-1,846,743,0,0
-371,281,0,0,0,0,0,0,0,0,0,-1,853,743,0,0
-364,281,0,0,0,0,0,0,0,0,0,-1,860,743,0,0
-357,281,0,0,0,0,0,0,0,0,0,-1,867,743,0,0
-350,281,0,0,0,0,0,0,0,0,0,-1,874,743,0,0
-343,281,0,0,0,0,0,0,0,0,0,-1,881,743,0,0
-336,281,0,0,0,0,0,0,0,0,0,-1,888,743,0,0
-329,281,0,0,0,0,0,0,0,0,0,-1,895,743,0,0
-322,281,0,0,0,0,0,0,0,0,0,-1,902,743,0,0
-315,281,0,0,0,0,0,0,0,0,0,-1,909,743,0,0
-308,281,0,0,0,0,0,0,0,0,0,-1,916,743,0,0
-301,281,0,0,0,0,0,0,0,0,0,-1,923,743,0,0
-294,281,0,0,0,0,0,0,0,0,0,-1,930,743,0,0
-287,281,0,0,0,0,0,0,0,0,0,-1,937,743,0,0
-280,281,0,0,0,0,0,0,0,0,0,-1,944,743,0,0
-273,281,0,0,0,0,0,0,0,0,0,-1,951,743,0,0
-266,281,0,0,0,0,0,0,0,0,0,-1,958,743,0,0
-259,281,0,0,0,0,0,0,0,0,0,-1,965,743,0,0
-252,281,0,0,0,0,0,0,0,0,0,-1,972,743,0,0
-245,281,0,0,0,0,0,0,0,0,0,-1,979,743,0,0
-238,281,0,0,0,0,0,0,0,0,0,-1,986,743,0,0
-231,281,0,0,0,0,0,0,0,0,0,-1,993,743,0,0
-224,281,0,0,0,0,0,0,0,0,0,-1,1000,743,0,0
-217,281,0,0,0,0,0,0,0,0,0,-1,1007,743,0,0
-210,281,0,0,0,0,0,0,0,0,0,-1,1014,743,0,0
-203,281,0,0,0,0,0,0,0,0,0,-1,1021,743,0,0
-196,281,0,0,0,0,0,0,0,0,0,-1,1028,743,0,0
-189,281,0,0,0,0,0,0,0,0,0,-1,1035,743,0,0
-182,281,0,0,0,0,0,0,0,0,0,-1,1042,743,0,0
-175,281,0,0,0,0,0,0,0,0,0,-1,1049,743,0,0
-168,281,0,0,0,0,0,0,0,0,0,-1,1056,743,0,0
-161,281,0,0,0,0,0,0,0,0,0,-1,1063,743,0,0
-154,281,0,0,0,0,0,0,0,0,0,-1,1070,743,0,0
-147,281,0,0,0,0,0,0,0,0,0,-1,1077,743,0,0
-140,281,0,0,0,0,0,0,0,0,0,-1,1084,743,0,0
-133,281,0,0,0,0,0,0,0,0,0,-1,1091,743,0,0
-126,281,0,0,0,0,0,0,0,0,0,-1,1098,743,0,0
-119,281,0,0,0,0,0,0,0,0,0,-1,1105,743,0,0
-112,281,0,0,0,0,0,0,0,0,0,-1,1112,743,0,0
-105,281,0,0,0,0,0,0,0,0,0,-1,1119,743,0,0
-98,281,0,0,0,0,0,0,0,0,0,-1,1126,743,0,0
-91,281,0,0,0,0,0,0,0,0,0,-1,1133,743,0,0
-84,281,0,0,0,0,0,0,0,0,0,-1,1140,743,0,0
-77,281,0,0,0,0,0,0,0,0,0,-1,1147,743,0,0
-70,281,0,0,0,0,0,0,0,0,0,-1,1154,743,0,0
-63,281,0,0,0,0,0,0,0,0,0,-1,1161,743,0,0
-56,281,0,0,0,0,0,0,0,0,0,-1,1168,743,0,0
-49,281,0,0,0,0,0,0,0,0,0,-1,1175,743,0,0
-42,281,0,0,0,0,0,0,0,0,0,-1,1182,743,0,0
-35,281,0,0,0,0,0,0,0,0,0,-1,1189,743,0,0
-28,281,0,0,0,0,0,0,0,0,0,-1,1196,743,0,0
-21,281,0,0,0,0,0,0,0,0,0,-1,1203,743,0,0
-14,281,0,0,0,0,0,0,0,0,0,-1,1210,743,0,0
-7,281,0,0,0,0,0,0,0,0,0,-1,1217,743,0,0
0,281,0,0,0,0,0,0,0,0,0,-1,1224,743,0,0
7,281,0,0,0,0,0,0,0,0,0,-1,1231,743,0,0
14,281,0,0,0,0,0,0,0,0,0,-1,1238,743,0,0
21,281,0,0,0,0,0,0,0,0,0,-1,1245,743,0,0
28,281,0,0,0,0,0,0,0,0,0,-1,1252,743,0,0
35,281,0,0,0,0,0,0,0,0,0,-1,1259,743,0,0
42,281,0,0,0,0,0,0,0,0,0,-1,1266,743,0,0
49,281,0,0,0,0,0,0,0,0,0,-1,1273,743,0,0
56,281,0,0,0,0,0,0,0,0,0,-1,1280,743,0,0
63,281,0,0,0,0,0,0,0,0,0,-1,1287,743,0,0
70,281,0,0,0,0,0,0,0,0,0,-1,1294,743,0,0
77,281,0,0,0,0,0,0,0,0,0,-1,1301,743,0,0
84,281,0,0,0,0,0,0,0,0,0,-1,1308,743,0,0
91,281,0,0,0,0,0,0,0,0,0,-1,1315,743,0,0
98,281,0,0,0,0,0,0,0,0,0,-1,1322,743,0,0
105,281,0,0,0,0,0,0,0,0,0,-1,1329,743,0,0
112,281,0,0,0,0,0,0,0,0,0,-1,1336,743,0,0
119,281,0,0,0,0,0,0,0,0,0,-1,1343,743,0,0
126,281,0,0,0,0,0,0,0,0,0,-1,1350,743,0,0
133,281,0,0,0,0,0,0,0,0,0,-1,1357,743,0,0
140,281,0,0,0,0,0,0,0,0,0,-1,1364,743,0,0
147,281,0,0,0,0,0,0,0,0,0,-1,1371,743,0,0
154,281,0,0,0,0,0,0,0,0,0,-1,1378,743,0,0
161,281,0,0,0,0,0,0,0,0,0,-1,1385,743,0,0
168,281,0,0,0,0,0,0,0,0,0,-1,1392,743,0,0
175,281,0,0,0,0,0,0,0,0,0,-1,1399,743,0,0
182,281,0,0,0,0,0,0,0,0,0,-1,1406,743,0,0
189,281,0,0,0,0,0,0,0,0,0,-1,1413,743,0,0
196,281,0,0,0,0,0,0,0,0,0,-1,1420,743,0,0
203,281,0,0,0,0,0,0,0,0,0,-1,1427,743,0,0
210,281,0,0,0,0,0,0,0,0,0,-1,1434,743,0,0
217,281,0,0,0,0,0,0,0,0,0,-1,1441,743,0,0
224,281,0,0,0,0,0,0,0,0,0,-1,1448,743,0,0
231,281,0,0,0,0,0,0,0,0,0,-1,1455,743,0,0
238,281,0,0,0,0,0,0,0,0,0,-1,1462,743,0,0
245,281,0,0,0,0,0,0,0,0,0,-1,1469,743,0,0
252,281,0,0,0,0,0,0,0,0,0,-1,1476,743,0,0
259,281,0,0,0,0,0,0,0,0,0,-1,1483,743,0,0
266,281,0,0,0,0,0,0,0,0,0,-1,1490,743,0,0
273,281,0,0,0,0,0,0,0,0,0,-1,1497,743,0,0
280,281,0,0,0,0,0,0,0,0,0,-1,1504,743,0,0
287,281,0,0,0,0,0,0,0,0,0,-1,1511,743,0,0
294,281,0,0,0,0,0,0,0,0,0,-1,1518,743,0,0
301,281,0,0,0,0,0,0,0,0,0,-1,1525,743,0,0
308,281,0,0,0,0,0,0,0,0,0,-1,1532,743,0,0
315,281,0,0,0,0,0,0,0,0,0,-1,1539,743,0,0
322,281,0,0,0,0,0,0,0,0,0,-1,1546,743,0,0
329,281,0,0,0,0,0,0,0,0,0,-1,1553,743,0,0
336,281,0,0,0,0,0,0,0,0,0,-1,1560,743,0,0
343,281,0,0,0,0,0,0,0,0,0,-1,1567,743,0,0
350,281,0,0,0,0,0,0,0,0,0,-1,1574,743,0,0
357,281,0,0,0,0,0,0,0,0,0,-1,1581,743,0,0
364,281,0,0,0,0,0,0,0,0,0,-1,1588,743,0,0
371,281,0,0,0,0,0,0,0,0,0,-1,1595,743,0,0
378,281,0,0,0,0,0,0,0,0,0,-1,1602,743,0,0
385,281,0,0,0,0,0,0,0,0,0,-1,1609,743,0,0
392,281,0,0,0,0,0,0,0,0,0,-1,1616,743,0,0
399,281,0,0,0,0,0,0,0,0,0,-1,1623,743,0,0
406,281,0,0,0,0,0,0,0,0,0,-1,1630,743,0,0
413,281,0,0,0,0,0,0,0,0,0,-1,1637,743,0,0
420,281,0,0,0,0,0,0,0,0,0,-1,1644,743,0,0
427,281,0,0,0,0,0,0,0,0,0,-1,1651,743,0,0
434,281,0,0,0,0,0,0,0,0,0,-1,1658,743,0,0
441,281,0,0,0,0,0,0,0,0,0,-1,1665,743,0,0
448,281,0,0,0,0,0,0,0,0,0,-1,1672,743,0,0
455,281,0,0,0,0,0,0,0,0,0,-1,1679,743,0,0
462,281,0,0,0,0,0,0,0,0,0,-1,1686,743,0,0
469,281,0,0,0,0,0,0,0,0,0,-1,1693,743,0,0
476,281,0,0,0,0,0,0,0,0,0,-1,1700,743,0,0
483,281,0,0,0,0,0,0,0,0,0,-1,1707,743,0,0
490,281,0,0,0,0,0,0,0,0,0,-1,1714,743,0,0
497,281,0,0,0,0,0,0,0,0,0,-1,1721,743,0,0
504,281,0,0,0,0,0,0,0,0,0,-1,1728,743,0,0
511,281,0,0,0,0,0,0,0,0,0,-1,1735,743,0,0
518,281,0,0,0,0,0,0,0,0,0,-1,1742,743,0,0
525,281,0,0,0,0,0,0,0,0,0,-1,1749,743,0,0
532,281,0,0,0,0,0,0,0,0,0,-1,1756,743,0,0
539,281,0,0,0,0,0,0,0,0,0,-1,1763,743,0,0
546,281,0,0,0,0,0,0,0,0,0,-1,1770,743,0,0
553,281,0,0,0,0,0,0,0,0,0,-1,1777,743,0,0
560,281,57.8354,3.06482,0,0,0,0,0,0,0,-1,1784,743,57.8354,-3.06479
567,281,57.6156,3.64508,0,0,0,0,0,0,0,-1,1791,743,57.6156,-3.64511
574,281,57.3431,4.17767,0,0,0,0,0,0,0,-1,1798,743,57.3431,-4.17769
581,281,57.0648,4.53906,0,0,0,0,0,0,0,-1,1805,743,57.0648,-4.53908
588,281,53.5422,6.00092,0,0,0,0,0,0,0,-1,1812,743,53.5422,-6.00092
595,281,54.8569,3.32269,0,0,0,0,0,0,0,-1,1819,743,54.857,-3.32269
602,281,45.9985,3.98254,0,0,0,0,0,0,0,-1,1826,743,45.9985,-3.98254
609,281,32.7925,1.28723,0,0,0,0,0,0,0,-1,1833,743,32.7925,-1.28722
616,281,21.3191,-0.253906,0,0,0,0,0,0,0,-1,1840,743,21.3191,0.253931
623,281,31.8741,-4.74182,0,0,0,0,0,0,0,-1,1847,743,31.8741,4.74184
630,281,83.0317,-13.8112,0,0,0,0,0,0,0,-1,1854,743,83.0318,13.8112
637,281,100.399,-13.2852,0,0,0,0,0,0,0,-1,1861,743,100.399,13.2851
644,281,99.7024,-10.9404,0,0,0,0,0,0,0,-1,1868,743,99.7024,10.9404
651,281,105.891,-7.98083,0,0,0,0,0,0,0,-1,1875,743,105.891,7.98082
658,281,105.396,-5.34509,-0.00181281,-0.000569292,-0.00229419,0.0011859,-0.003568,-0.917727,0.00285721,0.0316328,1882,743,105.396,5.34511
665,281,104.917,-2.79547,-0.000934275,0.00218011,-0.00404866,0.00496072,-0.00371488,-0.968987,0.00502605,0.0304529,1889,743,104.917,2.79549
672,281,104.515,-0.20282,-5.18179e-05,0.00543451,-0.00563027,0.00895433,-0.00357163,-1.01208,0.00745112,0.0245461,1896,743,104.515,0.202793
679,281,104.048,2.3089,0.000957767,0.00933652,-0.00715947,0.0134423,-0.00314796,-1.05011,0.0101745,0.0442392,1903,743,104.048,-2.30887
686,281,103.534,4.70129,0.00210515,0.014002,-0.0085385,0.0184598,-0.00235267,-1.08964,0.013161,0.032791,1910,743,103.534,-4.7013
693,281,103.134,7.11932,0.00342625,0.0194669,-0.00968589,0.024022,-0.00112888,-1.1312,0.0164039,0.0205328,1917,743,103.134,-7.1193
700,281,102.732,9.56049,0,0,0,0,0,0,0,-1,1924,743,102.732,-9.56046
707,281,53.7238,1.7442,0,0,0,0,0,0,0,-1,1931,743,53.7237,-1.74422
714,281,25.0125,2.5105,0,0,0,0,0,0,0,-1,1938,743,25.0124,-2.51053
721,281,16.9656,3.22174,0,0,0,0,0,0,0,-1,1945,743,16.9656,-3.22172
728,281,19.0251,3.63934,0,0,0,0,0,0,0,-1,1952,743,19.0252,-3.63932
735,281,19.0869,2.50311,0,0,0,0,0,0,0,-1,1959,743,19.0869,-2.5031
742,281,0,0,0,0,0,0,0,0,0,-1,1966,743,0,0
749,281,0,0,0,0,0,0,0,0,0,-1,1973,743,0,0
756,281,0,0,0,0,0,0,0,0,0,-1,1980,743,0,0
763,281,0,0,0,0,0,0,0,0,0,-1,1987,743,0,0
770,281,0,0,0,0,0,0,0,0,0,-1,1994,743,0,0
777,281,0,0,0,0,0,0,0,0,0,-1,2001,743,0,0
784,281,0,0,0,0,0,0,0,0,0,-1,2008,743,0,0
791,281,0,0,0,0,0,0,0,0,0,-1,2015,743,0,0
798,281,0,0,0,0,0,0,0,0,0,-1,2022,743,0,0
805,281,0,0,0,0,0,0,0,0,0,-1,2029,743,0,0
812,281,0,0,0,0,0,0,0,0,0,-1,2036,743,0,0
-700,274,0,0,0,0,0,0,0,0,0,-1,524,750,0,0
-693,274,0,0,0,0,0,0,0,0,0,-1,531,750,0,0
-686,274,0,0,0,0,0,0,0,0,0,-1,538,750,0,0
-679,274,0,0,0,0,0,0,0,0,0,-1,545,750,0,0
-672,274,0,0,0,0,0,0,0,0,0,-1,552,750,0,0
-665,274,0,0,0,0,0,0,0,0,0,-1,559,750,0,0
-658,274,0,0,0,0,0,0,0,0,0,-1,566,750,0,0
-651,274,0,0,0,0,0,0,0,0,0,-1,573,750,0,0
-644,274,0,0,0,0,0,0,0,0,0,-1,580,750,0,0
-637,274,0,0,0,0,0,0,0,0,0,-1,587,750,0,0
-630,274,0,0,0,0,0,0,0,0,0,-1,594,750,0,0
-623,274,-19.6909,5.12701,0,0,0,0,0,0,0,-1,601,750,-19.6908,-5.12703
-616,274,-17.9133,3.9024,0,0,0,0,0,0,0,-1,608,750,-17.9133,-3.90239
-609,274,-26.0861,5.57306,0,0,0,0,0,0,0,-1,615,750,-26.0861,-5.57307
-602,274,-25.7372,3.73846,0,0,0,0,0,0,0,-1,622,750,-25.7372,-3.73849
-595,274,-25.258,2.53473,0,0,0,0,0,0,0,-1,629,750,-25.258,-2.53474
-588,274,-73.9796,12.9916,0,0,0,0,0,0,0,-1,636,750,-73.9796,-12.9916
-581,274,-93.9061,14.7562,0,0,0,0,0,0,0,-1,643,750,-93.9061,-14.7561
-574,274,-94.5664,12.1696,0,0,0,0,0,0,0,-1,650,750,-94.5664,-12.1695
-567,274,-95.1343,9.66504,0.000633566,0.0220703,0.0128033,0.0280495,-0.00534564,1.13389,0.0207127,0.0339234,657,750,-95.1343,-9.66505
-560,274,-95.6089,7.38782,0.00173243,0.0157555,0.00991453,0.0208872,-0.00339933,1.09317,0.0151853,0.0174943,664,750,-95.609,-7.3878
-553,274,-96.0539,4.89386,0.00209084,0.0106331,0.00736438,0.0148753,-0.00215135,1.04818,0.0107063,0.0119034,671,750,-96.0539,-4.89385
-546,274,-96.4406,2.37384,0.0019101,0.0063114,0.00514465,0.00970631,-0.00148481,0.987499,0.00701836,0.0137844,678,750,-96.4406,-2.37381
-539,274,-96.843,-0.174011,0.00120054,0.00260194,0.00326348,0.0052391,-0.00143662,0.891148,0.00405729,0.0147842,685,750,-96.843,0.173992
-532,274,-97.3163,-2.67023,-8.12472e-06,-0.000550692,0.00170151,0.00144359,-0.00200241,0.706345,0.00199825,0.0184898,692,750,-97.3163,2.67021
-525,274,-97.6523,-5.31787,-0.00176974,-0.00293057,0.000588588,-0.00152353,-0.00317679,0.396194,0.00183463,0.0282844,699,750,-97.6524,5.31787
-518,274,-98.0123,-7.94165,-0.00419614,-0.00476032,-7.02031e-05,-0.00418753,-0.00476892,-0.121955,0.0030043,0.0376874,706,750,-98.0123,7.94165
-511,274,-98.709,-10.7303,0,0,0,0,0,0,0,-1,713,750,-98.709,10.7303
-504,274,-78.1935,-12.3701,0,0,0,0,0,0,0,-1,720,750,-78.1935,12.3701
-497,274,-40.4099,-10.8548,0,0,0,0,0,0,0,-1,727,750,-40.4099,10.8548
-490,274,-13.6545,-3.58826,0,0,0,0,0,0,0,-1,734,750,-13.6546,3.58825
-483,274,-27.8608,1.30981,0,0,0,0,0,0,0,-1,741,750,-27.8608,-1.30979
-476,274,-33.7561,-0.508606,0,0,0,0,0,0,0,-1,748,750,-33.7561,0.508636
-469,274,-41.1387,0.907715,0,0,0,0,0,0,0,-1,755,750,-41.1387,-0.907744
-462,274,-56.4362,0.240723,0,0,0,0,0,0,0,-1,762,750,-56.4362,-0.240732
-455,274,-67.431,1.67236,0,0,0,0,0,0,0,-1,769,750,-67.431,-1.67238
-448,274,-56.1052,0.421143,0,0,0,0,0,0,0,-1,776,750,-56.1052,-0.421134
-441,274,0,0,0,0,0,0,0,0,0,-1,783,750,0,0
-434,274,0,0,0,0,0,0,0,0,0,-1,790,750,0,0
-427,274,0,0,0,0,0,0,0,0,0,-1,797,750,0,0
-420,274,0,0,0,0,0,0,0,0,0,-1,804,750,0,0
-413,274,0,0,0,0,0,0,0,0,0,-1,811,750,0,0
-406,274,0,0,0,0,0,0,0,0,0,-1,818,750,0,0
-399,274,0,0,0,0,0,0,0,0,0,-1,825,750,0,0
-392,274,0,0,0,0,0,0,0,0,0,-1,832,750,0,0
-385,274,0,0,0,0,0,0,0,0,0,-1,839,750,0,0
-378,274,0,0,0,0,0,0,0,0,0,-1,846,750,0,0
-371,274,0,0,0,0,0,0,0,0,0,-1,853,750,0,0
-364,274,0,0,0,0,0,0,0,0,0,-1,860,750,0,0
-357,274,0,0,0,0,0,0,0,0,0,-1,867,750,0,0
-350,274,0,0,0,0,0,0,0,0,0,-1,874,750,0,0
-343,274,0,0,0,0,0,0,0,0,0,-1,881,750,0,0
-336,274,0,0,0,0,0,0,0,0,0,-1,888,750,0,0
-329,274,0,0,0,0,0,0,0,0,0,-1,895,750,0,0
-322,274,0,0,0,0,0,0,0,0,0,-1,902,750,0,0
-315,274,0,0,0,0,0,0,0,0,0,-1,909,750,0,0
-308,274,0,0,0,0,0,0,0,0,0,-1,916,750,0,0
-301,274,0,0,0,0,0,0,0,0,0,-1,923,750,0,0
-294,274,0,0,0,0,0,0,0,0,0,-1,930,750,0,0
-287,274,0,0,0,0,0,0,0,0,0,-1,937,750,0,0
-280,274,0,0,0,0,0,0,0,0,0,-1,944,750,0,0
-273,274,0,0,0,0,0,0,0,0,0,-1,951,750,0,0
-266,274,0,0,0,0,0,0,0,0,0,-1,958,750,0,0
-259,274,0,0,0,0,0,0,0,0,0,-1,965,750,0,0
-252,274,0,0,0,0,0,0,0,0,0,-1,972,750,0,0
-245,274,0,0,0,0,0,0,0,0,0,-1,979,750,0,0
-238,274,0,0,0,0,0,0,0,0,0,-1,986,750,0,0
-231,274,0,0,0,0,0,0,0,0,0,-1,993,750,0,0
-224,274,0,0,0,0,0,0,0,0,0,-1,1000,750,0,0
-217,274,0,0,0,0,0,0,0,0,0,-1,1007,750,0,0
-210,274,0,0,0,0,0,0,0,0,0,-1,1014,750,0,0
-203,274,0,0,0,0,0,0,0,0,0,-1,1021,750,0,0
-196,274,0,0,0,0,0,0,0,0,0,-1,1028,750,0,0
-189,274,0,0,0,0,0,0,0,0,0,-1,1035,750,0,0
-182,274,0,0,0,0,0,0,0,0,0,-1,1042,750,0,0
-175,274,0,0,0,0,0,0,0,0,0,-1,1049,750,0,0
-168,274,0,0,0,0,0,0,0,0,0,-1,1056,750,0,0
-161,274,0,0,0,0,0,0,0,0,0,-1,1063,750,0,0
-154,274,0,0,0,0,0,0,0,0,0,-1,1070,750,0,0
-147,274,0,0,0,0,0,0,0,0,0,-1,1077,750,0,0
-140,274,0,0,0,0,0,0,0,0,0,-1,1084,750,0,0
-133,274,0,0,0,0,0,0,0,0,0,-1,1091,750,0,0
-126,274,0,0,0,0,0,0,0,0,0,-1,1098,750,0,0
-119,274,0,0,0,0,0,0,0,0,0,-1,1105,750,0,0
-112,274,0,0,0,0,0,0,0,0,0,-1,1112,750,0,0
-105,274,0,0,0,0,0,0,0,0,0,-1,1119,750,0,0
-98,274,0,0,0,0,0,0,0,0,0,-1,1126,750,0,0
-91,274,0,0,0,0,0,0,0,0,0,-1,1133,750,0,0
-84,274,0,0,0,0,0,0,0,0,0,-1,1140,750,0,0
-77,274,0,0,0,0,0,0,0,0,0,-1,1147,750,0,0
-70,274,0,0,0,0,0,0,0,0,0,-1,1154,750,0,0
-63,274,0,0,0,0,0,0,0,0,0,-1,1161,750,0,0
-56,274,0,0,0,0,0,0,0,0,0,-1,1168,750,0,0
-49,274,0,0,0,0,0,0,0,0,0,-1,1175,750,0,0
-42,274,0,0,0,0,0,0,0,0,0,-1,1182,750,0,0
-35,274,0,0,0,0,0,0,0,0,0,-1,1189,750,0,0
-28,274,0,0,0,0,0,0,0,0,0,-1,1196,750,0,0
-21,274,0,0,0,0,0,0,0,0,0,-1,1203,750,0,0
-14,274,0,0,0,0,0,0,0,0,0,-1,1210,750,0,0
-7,274,0,0,0,0,0,0,0,0,0,-1,1217,750,0,0
0,274,0,0,0,0,0,0,0,0,0,-1,1224,750,0,0
7,274,0,0,0,0,0,0,0,0,0,-1,1231,750,0,0
14,274,0,0,0,0,0,0,0,0,0,-1,1238,750,0,0
21,274,0,0,0,0,0,0,0,0,0,-1,1245,750,0,0
28,274,0,0,0,0,0,0,0,0,0,-1,1252,750,0,0
35,274,0,0,0,0,0,0,0,0,0,-1,1259,750,0,0
42,274,0,0,0,0,0,0,0,0,0,-1,1266,750,0,0
49,274,0,0,0,0,0,0,0,0,0,-1,1273,750,0,0
56,274,0,0,0,0,0,0,0,0,0,-1,1280,750,0,0
63,274,0,0,0,0,0,0,0,0,0,-1,1287,750,0,0
70,274,0,0,0,0,0,0,0,0,0,-1,1294,750,0,0
77,274,0,0,0,0,0,0,0,0,0,-1,1301,750,0,0
84,274,0,0,0,0,0,0,0,0,0,-1,1308,750,0,0
91,274,0,0,0,0,0,0,0,0,0,-1,1315,750,0,0
98,274,0,0,0,0,0,0,0,0,0,-1,1322,750,0,0
105,274,0,0,0,0,0,0,0,0,0,-1,1329,750,0,0
112,274,0,0,0,0,0,0,0,0,0,-1,1336,750,0,0
119,274,0,0,0,0,0,0,0,0,0,-1,1343,750,0,0
126,274,0,0,0,0,0,0,0,0,0,-1,1350,750,0,0
133,274,0,0,0,0,0,0,0,0,0,-1,1357,750,0,0
140,274,0,0,0,0,0,0,0,0,0,-1,1364,750,0,0
147,274,0,0,0,0,0,0,0,0,0,-1,1371,750,0,0
154,274,0,0,0,0,0,0,0,0,0,-1,1378,750,0,0
161,274,0,0,0,0,0,0,0,0,0,-1,1385,750,0,0
168,274,0,0,0,0,0,0,0,0,0,-1,1392,750,0,0
175,274,0,0,0,0,0,0,0,0,0,-1,1399,750,0,0
182,274,0,0,0,0,0,0,0,0,0,-1,1406,750,0,0
189,274,0,0,0,0,0,0,0,0,0,-1,1413,750,0,0
196,274,0,0,0,0,0,0,0,0,0,-1,1420,750,0,0
203,274,0,0,0,0,0,0,0,0,0,-1,1427,750,0,0
210,274,0,0,0,0,0,0,0,0,0,-1,1434,750,0,0
217,274,0,0,0,0,0,0,0,0,0,-1,1441,750,0,0
224,274,0,0,0,0,0,0,0,0,0,-1,1448,750,0,0
231,274,0,0,0,0,0,0,0,0,0,-1,1455,750,0,0
238,274,0,0,0,0,0,0,0,0,0,-1,1462,750,0,0
245,274,0,0,0,0,0,0,0,0,0,-1,1469,750,0,0
252,274,0,0,0,0,0,0,0,0,0,-1,1476,750,0,0
259,274,0,0,0,0,0,0,0,0,0,-1,1483,750,0,0
266,274,0,0,0,0,0,0,0,0,0,-1,1490,750,0,0
273,274,0,0,0,0,0,0,0,0,0,-1,1497,750,0,0
280,274,0,0,0,0,0,0,0,0,0,-1,1504,750,0,0
287,274,0,0,0,0,0,0,0,0,0,-1,1511,750,0,0
294,274,0,0,0,0,0,0,0,0,0,-1,1518,750,0,0
301,274,0,0,0,0,0,0,0,0,0,-1,1525,750,0,0
308,274,0,0,0,0,0,0,0,0,0,-1,1532,750,0,0
315,274,0,0,0,0,0,0,0,0,0,-1,1539,750,0,0
322,274,0,0,0,0,0,0,0,0,0,-1,1546,750,0,0
329,274,0,0,0,0,0,0,0,0,0,-1,1553,750,0,0
336,274,0,0,0,0,0,0,0,0,0,-1,1560,750,0,0
343,274,0,0,0,0,0,0,0,0,0,-1,1567,750,0,0
350,274,0,0,0,0,0,0,0,0,0,-1,1574,750,0,0
357,274,0,0,0,0,0,0,0,0,0,-1,1581,750,0,0
364,274,0,0,0,0,0,0,0,0,0,-1,1588,750,0,0
371,274,0,0,0,0,0,0,0,0,0,-1,1595,750,0,0
378,274,0,0,0,0,0,0,0,0,0,-1,1602,750,0,0
385,274,0,0,0,0,0,0,0,0,0,-1,1609,750,0,0
392,274,0,0,0,0,0,0,0,0,0,-1,1616,750,0,0
399,274,0,0,0,0,0,0,0,0,0,-1,1623,750,0,0
406,274,0,0,0,0,0,0,0,0,0,-1,1630,750,0,0
413,274,0,0,0,0,0,0,0,0,0,-1,1637,750,0,0
420,274,0,0,0,0,0,0,0,0,0,-1,1644,750,0,0
427,274,0,0,0,0,0,0,0,0,0,-1,1651,750,0,0
434,274,0,0,0,0,0,0,0,0,0,-1,1658,750,0,0
441,274,0,0,0,0,0,0,0,0,0,-1,1665,750,0,0
448,274,0,0,0,0,0,0,0,0,0,-1,1672,750,0,0
455,274,0,0,0,0,0,0,0,0,0,-1,1679,750,0,0
462,274,0,0,0,0,0,0,0,0,0,-1,1686,750,0,0
469,274,0,0,0,0,0,0,0,0,0,-1,1693,750,0,0
476,274,0,0,0,0,0,0,0,0,0,-1,1700,750,0,0
483,274,0,0,0,0,0,0,0,0,0,-1,1707,750,0,0
490,274,0,0,0,0,0,0,0,0,0,-1,1714,750,0,0
497,274,0,0,0,0,0,0,0,0,0,-1,1721,750,0,0
504,274,0,0,0,0,0,0,0,0,0,-1,1728,750,0,0
511,274,0,0,0,0,0,0,0,0,0,-1,1735,750,0,0
518,274,0,0,0,0,0,0,0,0,0,-1,1742,750,0,0
525,274,0,0,0,0,0,0,0,0,0,-1,1749,750,0,0
532,274,0,0,0,0,0,0,0,0,0,-1,1756,750,0,0
539,274,0,0,0,0,0,0,0,0,0,-1,1763,750,0,0
546,274,0,0,0,0,0,0,0,0,0,-1,1770,750,0,0
553,274,0,0,0,0,0,0,0,0,0,-1,1777,750,0,0
560,274,57.9182,3.24518,0,0,0,0,0,0,0,-1,1784,750,57.9182,-3.24516
567,274,57.8315,3.4137,0,0,0,0,0,0,0,-1,1791,750,57.8315,-3.41368
574,274,58.2571,3.11115,0,0,0,0,0,0,0,-1,1798,750,58.2571,-3.11114
581,274,54.4941,4.68127,0,0,0,0,0,0,0,-1,1805,750,54.4941,-4.68125
588,274,53.9908,5.6676,0,0,0,0,0,0,0,-1,1812,750,53.9908,-5.66763
595,274,66.2316,2.66986,0,0,0,0,0,0,0,-1,1819,750,66.2315,-2.66988
602,274,55.6321,2.56519,0,0,0,0,0,0,0,-1,1826,750,55.6321,-2.56521
609,274,44.6676,3.10461,0,0,0,0,0,0,0,-1,1833,750,44.6676,-3.1046
616,274,32.7869,1.78436,0,0,0,0,0,0,0,-1,1840,750,32.7868,-1.78437
623,274,24.8231,-1.80353,0,0,0,0,0,0,0,-1,1847,750,24.8232,1.80351
630,274,58.5311,-10.4259,0,0,0,0,0,0,0,-1,1854,750,58.5312,10.4259
637,274,93.1326,-11.4611,0,0,0,0,0,0,0,-1,1861,750,93.1325,11.4611
644,274,96.5939,-11.506,0,0,0,0,0,0,0,-1,1868,750,96.5939,11.506
651,274,108.534,-7.61945,0,0,0,0,0,0,0,-1,1875,750,108.534,7.61945
658,274,108.023,-4.84271,-0.00363406,-0.00247858,-0.00224536,-0.000737821,-0.00537481,-0.911319,0.00336434,0.0281239,1882,750,108.023,4.8427
665,274,107.597,-2.28375,-0.00268914,0.000420086,-0.00411447,0.00326384,-0.00553289,-0.966027,0.00513481,0.0229383,1889,750,107.597,2.28372
672,274,107.037,0.28772,-0.00177175,0.00382589,-0.00583603,0.00749952,-0.00544538,-1.00899,0.00750504,0.0177936,1896,750,107.037,-0.287689
679,274,106.568,2.80255,-0.000766441,0.00785413,-0.00750135,0.0121954,-0.00510768,-1.04617,0.0102655,0.022441,1903,750,106.568,-2.80256
686,274,106.172,5.20758,0.000383278,0.0125482,-0.00904614,0.0173666,-0.00443513,-1.08137,0.0133049,0.0275483,1910,750,106.172,-5.20759
693,274,105.75,7.60181,0.00164004,0.017978,-0.0104119,0.0230431,-0.00342505,-1.11803,0.0166218,0.0190575,1917,750,105.75,-7.60183
700,274,105.342,10.0154,0.00320797,0.0242692,-0.0116081,0.0294115,-0.0019344,-1.15378,0.0202833,0.0276761,1924,750,105.342,-10.0154
707,274,105.04,12.4247,0,0,0,0,0,0,0,-1,1931,750,105.04,-12.4248
714,274,49.125,2.56622,0,0,0,0,0,0,0,-1,1938,750,49.1251,-2.5662
721,274,25.6215,3.91144,0,0,0,0,0,0,0,-1,1945,750,25.6214,-3.91141
728,274,19.2209,3.95154,0,0,0,0,0,0,0,-1,1952,750,19.221,-3.95151
735,274,20.6608,4.10931,0,0,0,0,0,0,0,-1,1959,750,20.6607,-4.10932
742,274,11.7815,-0.740234,0,0,0,0,0,0,0,-1,1966,750,11.7815,0.740253
749,274,0,0,0,0,0,0,0,0,0,-1,1973,750,0,0
756,274,0,0,0,0,0,0,0,0,0,-1,1980,750,0,0
763,274,0,0,0,0,0,0,0,0,0,-1,1987,750,0,0
770,274,0,0,0,0,0,0,0,0,0,-1,1994,750,0,0
777,274,0,0,0,0,0,0,0,0,0,-1,2001,750,0,0
784,274,0,0,0,0,0,0,0,0,0,-1,2008,750,0,0
791,274,0,0,0,0,0,0,0,0,0,-1,2015,750,0,0
798,274,0,0,0,0,0,0,0,0,0,-1,2022,750,0,0
805,274,0,0,0,0,0,0,0,0,0,-1,2029,750,0,0
812,274,0,0,0,0,0,0,0,0,0,-1,2036,750,0,0
-700,267,0,0,0,0,0,0,0,0,0,-1,524,757,0,0
-693,267,0,0,0,0,0,0,0,0,0,-1,531,757,0,0
-686,267,0,0,0,0,0,0,0,0,0,-1,538,757,0,0
-679,267,0,0,0,0,0,0,0,0,0,-1,545,757,0,0
-672,267,0,0,0,0,0,0,0,0,0,-1,552,757,0,0
-665,267,0,0,0,0,0,0,0,0,0,-1,559,757,0,0
-658,267,0,0,0,0,0,0,0,0,0,-1,566,757,0,0
-651,267,0,0,0,0,0,0,0,0,0,-1,573,757,0,0
-644,267,0,0,0,0,0,0,0,0,0,-1,580,757,0,0
-637,267,0,0,0,0,0,0,0,0,0,-1,587,757,0,0
-630,267,-21.3979,5.17529,0,0,0,0,0,0,0,-1,594,757,-21.3979,-5.17529
-623,267,-20.043,4.43115,0,0,0,0,0,0,0,-1,601,757,-20.043,-4.43116
-616,267,-27.1628,5.9325,0,0,0,0,0,0,0,-1,608,757,-27.1629,-5.93249
-609,267,-26.9868,4.99658,0,0,0,0,0,0,0,-1,615,757,-26.9868,-4.99656
-602,267,-26.6637,3.74072,0,0,0,0,0,0,0,-1,622,757,-26.6637,-3.74075
-595,267,-32.7299,2.1203,0,0,0,0,0,0,0,-1,629,757,-32.7299,-2.12028
-588,267,-96.1294,17.3846,0,0,0,0,0,0,0,-1,636,757,-96.1294,-17.3846
-581,267,-96.6282,14.8756,-0.00243427,0.0381959,0.0178529,0.0449258,-0.00916414,1.21031,0.0334266,0.0495777,643,757,-96.6282,-14.8756
-574,267,-97.1413,12.4315,-0.000449563,0.0285388,0.0147199,0.0347027,-0.00661345,1.17423,0.0256257,0.0297141,650,757,-97.1413,-12.4315
-567,267,-97.7307,10.1177,0.000570214,0.0211594,0.0117897,0.0265165,-0.0047869,1.1443,0.0194704,0.0367837,657,757,-97.7306,-10.1178
-560,267,-98.169,7.83997,0.0013263,0.0148863,0.0091311,0.0194793,-0.00326671,1.10475,0.0142009,0.0270601,664,757,-98.169,-7.83997
-553,267,-98.5542,5.40594,0.00147616,0.00961407,0.00667667,0.013364,-0.00227373,1.05906,0.00975594,0.0215773,671,757,-98.5542,-5.40596
-546,267,-98.9757,2.86542,0.00109823,0.00522654,0.00442131,0.0080418,-0.00171703,1.00379,0.00601579,0.0138737,678,757,-98.9757,-2.86541
-539,267,-99.2709,0.265198,0.000165713,0.00147209,0.00243969,0.00334451,-0.00170671,0.916197,0.00296699,0.0235519,685,757,-99.2709,-0.265177
-532,267,-99.7292,-2.50397,-0.00131627,-0.00170323,0.00075595,-0.000729435,-0.00229007,0.660116,0.00135089,0.0412191,692,757,-99.7292,2.50399
-525,267,-100.31,-4.93787,-0.00343963,-0.00386045,-0.000401629,-0.00319663,-0.00410345,-0.54411,0.00248905,0.0361451,699,757,-100.31,4.93789
-518,267,-100.706,-7.32953,-0.00640433,-0.00551823,-0.00106932,-0.00480381,-0.00711875,-0.981796,0.00419291,0.0374386,706,757,-100.706,7.32952
-511,267,-101.129,-9.85431,0,0,0,0,0,0,0,-1,713,757,-101.129,9.85429
-504,267,-67.1038,-11.0731,0,0,0,0,0,0,0,-1,720,757,-67.1038,11.073
-497,267,-31.5913,-8.72119,0,0,0,0,0,0,0,-1,727,757,-31.5913,8.72117
-490,267,-23.4949,-0.494995,0,0,0,0,0,0,0,-1,734,757,-23.4949,0.494981
-483,267,-33.2785,-0.448425,0,0,0,0,0,0,0,-1,741,757,-33.2785,0.448407
-476,267,-40.2954,0.52002,0,0,0,0,0,0,0,-1,748,757,-40.2954,-0.520037
-469,267,-52.9857,0.187744,0,0,0,0,0,0,0,-1,755,757,-52.9857,-0.187726
-462,267,-67.6375,0.974915,0,0,0,0,0,0,0,-1,762,757,-67.6374,-0.974935
-455,267,-71.4348,0.0582886,0,0,0,0,0,0,0,-1,769,757,-71.4348,-0.0582862
-448,267,-68.0212,1.50757,0,0,0,0,0,0,0,-1,776,757,-68.0212,-1.50758
-441,267,0,0,0,0,0,0,0,0,0,-1,783,757,0,0
-434,267,0,0,0,0,0,0,0,0,0,-1,790,757,0,0
-427,267,0,0,0,0,0,0,0,0,0,-1,797,757,0,0
-420,267,0,0,0,0,0,0,0,0,0,-1,804,757,0,0
-413,267,0,0,0,0,0,0,0,0,0,-1,811,757,0,0
-406,267,0,0,0,0,0,0,0,0,0,-1,818,757,0,0
-399,267,0,0,0,0,0,0,0,0,0,-1,825,757,0,0
-392,267,0,0,0,0,0,0,0,0,0,-1,832,757,0,0
-385,267,0,0,0,0,0,0,0,0,0,-1,839,757,0,0
-378,267,0,0,0,0,0,0,0,0,0,-1,846,757,0,0
-371,267,0,0,0,0,0,0,0,0,0,-1,853,757,0,0
-364,267,0,0,0,0,0,0,0,0,0,-1,860,757,0,0
-357,267,0,0,0,0,0,0,0,0,0,-1,867,757,0,0
-350,267,0,0,0,0,0,0,0,0,0,-1,874,757,0,0
-343,267,0,0,0,0,0,0,0,0,0,-1,881,757,0,0
-336,267,0,0,0,0,0,0,0,0,0,-1,888,757,0,0
-329,267,0,0,0,0,0,0,0,0,0,-1,895,757,0,0
-322,267,0,0,0,0,0,0,0,0,0,-1,902,757,0,0
-315,267,0,0,0,0,0,0,0,0,0,-1,909,757,0,0
-308,267,0,0,0,0,0,0,0,0,0,-1,916,757,0,0
-301,267,0,0,0,0,0,0,0,0,0,-1,923,757,0,0
-294,267,0,0,0,0,0,0,0,0,0,-1,930,757,0,0
-287,267,0,0,0,0,0,0,0,0,0,-1,937,757,0,0
-280,267,0,0,0,0,0,0,0,0,0,-1,944,757,0,0
-273,267,0,0,0,0,0,0,0,0,0,-1,951,757,0,0
-266,267,0,0,0,0,0,0,0,0,0,-1,958,757,0,0
-259,267,0,0,0,0,0,0,0,0,0,-1,965,757,0,0
-252,267,0,0,0,0,0,0,0,0,0,-1,972,757,0,0
-245,267,0,0,0,0,0,0,0,0,0,-1,979,757,0,0
-238,267,0,0,0,0,0,0,0,0,0,-1,986,757,0,0
-231,267,0,0,0,0,0,0,0,0,0,-1,993,757,0,0
-224,267,0,0,0,0,0,0,0,0,0,-1,1000,757,0,0
-217,267,0,0,0,0,0,0,0,0,0,-1,1007,757,0,0
-210,267,0,0,0,0,0,0,0,0,0,-1,1014,757,0,0
-203,267,0,0,0,0,0,0,0,0,0,-1,1021,757,0,0
-196,267,0,0,0,0,0,0,0,0,0,-1,1028,757,0,0
-189,267,0,0,0,0,0,0,0,0,0,-1,1035,757,0,0
-182,267,0,0,0,0,0,0,0,0,0,-1,1042,757,0,0
-175,267,0,0,0,0,0,0,0,0,0,-1,1049,757,0,0
-168,267,0,0,0,0,0,0,0,0,0,-1,1056,757,0,0
-161,267,0,0,0,0,0,0,0,0,0,-1,1063,757,0,0
-154,267,0,0,0,0,0,0,0,0,0,-1,1070,757,0,0
-147,267,0,0,0,0,0,0,0,0,0,-1,1077,757,0,0
-140,267,0,0,0,0,0,0,0,0,0,-1,1084,757,0,0
-133,267,0,0,0,0,0,0,0,0,0,-1,1091,757,0,0
-126,267,0,0,0,0,0,0,0,0,0,-1,1098,757,0,0
-119,267,0,0,0,0,0,0,0,0,0,-1,1105,757,0,0
-112,267,0,0,0,0,0,0,0,0,0,-1,1112,757,0,0
-105,267,0,0,0,0,0,0,0,0,0,-1,1119,757,0,0
-98,267,0,0,0,0,0,0,0,0,0,-1,1126,757,0,0
-91,267,0,0,0,0,0,0,0,0,0,-1,1133,757,0,0
-84,267,0,0,0,0,0,0,0,0,0,-1,1140,757,0,0
-77,267,0,0,0,0,0,0,0,0,0,-1,1147,757,0,0
-70,267,0,0,0,0,0,0,0,0,0,-1,1154,757,0,0
-63,267,0,0,0,0,0,0,0,0,0,-1,1161,757,0,0
-56,267,0,0,0,0,0,0,0,0,0,-1,1168,757,0,0
-49,267,0,0,0,0,0,0,0,0,0,-1,1175,757,0,0
-42,267,0,0,0,0,0,0,0,0,0,-1,1182,757,0,0
-35,267,0,0,0,0,0,0,0,0,0,-1,1189,757,0,0
-28,267,0,0,0,0,0,0,0,0,0,-1,1196,757,0,0
-21,267,0,0,0,0,0,0,0,0,0,-1,1203,757,0,0
-14,267,0,0,0,0,0,0,0,0,0,-1,1210,757,0,0
-7,267,0,0,0,0,0,0,0,0,0,-1,1217,757,0,0
0,267,0,0,0,0,0,0,0,0,0,-1,1224,757,0,0
7,267,0,0,0,0,0,0,0,0,0,-1,1231,757,0,0
14,267,0,0,0,0,0,0,0,0,0,-1,1238,757,0,0
21,267,0,0,0,0,0,0,0,0,0,-1,1245,757,0,0
28,267,0,0,0,0,0,0,0,0,0,-1,1252,757,0,0
35,267,0,0,0,0,0,0,0,0,0,-1,1259,757,0,0
42,267,0,0,0,0,0,0,0,0,0,-1,1266,757,0,0
49,267,0,0,0,0,0,0,0,0,0,-1,1273,757,0,0
56,267,0,0,0,0,0,0,0,0,0,-1,1280,757,0,0
63,267,0,0,0,0,0,0,0,0,0,-1,1287,757,0,0
70,267,0,0,0,0,0,0,0,0,0,-1,1294,757,0,0
77,267,0,0,0,0,0,0,0,0,0,-1,1301,757,0,0
84,267,0,0,0,0,0,0,0,0,0,-1,1308,757,0,0
91,267,0,0,0,0,0,0,0,0,0,-1,1315,757,0,0
98,267,0,0,0,0,0,0,0,0,0,-1,1322,757,0,0
105,267,0,0,0,0,0,0,0,0,0,-1,1329,757,0,0
112,267,0,0,0,0,0,0,0,0,0,-1,1336,757,0,0
119,267,0,0,0,0,0,0,0,0,0,-1,1343,757,0,0
126,267,0,0,0,0,0,0,0,0,0,-1,1350,757,0,0
133,267,0,0,0,0,0,0,0,0,0,-1,1357,757,0,0
140,267,0,0,0,0,0,0,0,0,0,-1,1364,757,0,0
147,267,0,0,0,0,0,0,0,0,0,-1,1371,757,0,0
154,267,0,0,0,0,0,0,0,0,0,-1,1378,757,0,0
161,267,0,0,0,0,0,0,0,0,0,-1,1385,757,0,0
168,267,0,0,0,0,0,0,0,0,0,-1,1392,757,0,0
175,267,0,0,0,0,0,0,0,0,0,-1,1399,757,0,0
182,267,0,0,0,0,0,0,0,0,0,-1,1406,757,0,0
189,267,0,0,0,0,0,0,0,0,0,-1,1413,757,0,0
196,267,0,0,0,0,0,0,0,0,0,-1,1420,757,0,0
203,267,0,0,0,0,0,0,0,0,0,-1,1427,757,0,0
210,267,0,0,0,0,0,0,0,0,0,-1,1434,757,0,0
217,267,0,0,0,0,0,0,0,0,0,-1,1441,757,0,0
224,267,0,0,0,0,0,0,0,0,0,-1,1448,757,0,0
231,267,0,0,0,0,0,0,0,0,0,-1,1455,757,0,0
238,267,0,0,0,0,0,0,0,0,0,-1,1462,757,0,0
245,267,0,0,0,0,0,0,0,0,0,-1,1469,757,0,0
252,267,0,0,0,0,0,0,0,0,0,-1,1476,757,0,0
259,267,0,0,0,0,0,0,0,0,0,-1,1483,757,0,0
266,267,0,0,0,0,0,0,0,0,0,-1,1490,757,0,0
273,267,0,0,0,0,0,0,0,0,0,-1,1497,757,0,0
280,267,0,0,0,0,0,0,0,0,0,-1,1504,757,0,0
287,267,0,0,0,0,0,0,0,0,0,-1,1511,757,0,0
294,267,0,0,0,0,0,0,0,0,0,-1,1518,757,0,0
301,267,0,0,0,0,0,0,0,0,0,-1,1525,757,0,0
308,267,0,0,0,0,0,0,0,0,0,-1,1532,757,0,0
315,267,0,0,0,0,0,0,0,0,0,-1,1539,757,0,0
322,267,0,0,0,0,0,0,0,0,0,-1,1546,757,0,0
329,267,0,0,0,0,0,0,0,0,0,-1,1553,757,0,0
336,267,0,0,0,0,0,0,0,0,0,-1,1560,757,0,0
343,267,0,0,0,0,0,0,0,0,0,-1,1567,757,0,0
350,267,0,0,0,0,0,0,0,0,0,-1,1574,757,0,0
357,267,0,0,0,0,0,0,0,0,0,-1,1581,757,0,0
364,267,0,0,0,0,0,0,0,0,0,-1,1588,757,0,0
371,267,0,0,0,0,0,0,0,0,0,-1,1595,757,0,0
378,267,0,0,0,0,0,0,0,0,0,-1,1602,757,0,0
385,267,0,0,0,0,0,0,0,0,0,-1,1609,757,0,0
392,267,0,0,0,0,0,0,0,0,0,-1,1616,757,0,0
399,267,0,0,0,0,0,0,0,0,0,-1,1623,757,0,0
406,267,0,0,0,0,0,0,0,0,0,-1,1630,757,0,0
413,267,0,0,0,0,0,0,0,0,0,-1,1637,757,0,0
420,267,0,0,0,0,0,0,0,0,0,-1,1644,757,0,0
427,267,0,0,0,0,0,0,0,0,0,-1,1651,757,0,0
434,267,0,0,0,0,0,0,0,0,0,-1,1658,757,0,0
441,267,0,0,0,0,0,0,0,0,0,-1,1665,757,0,0
448,267,0,0,0,0,0,0,0,0,0,-1,1672,757,0,0
455,267,0,0,0,0,0,0,0,0,0,-1,1679,757,0,0
462,267,0,0,0,0,0,0,0,0,0,-1,1686,757,0,0
469,267,0,0,0,0,0,0,0,0,0,-1,1693,757,0,0
476,267,0,0,0,0,0,0,0,0,0,-1,1700,757,0,0
483,267,0,0,0,0,0,0,0,0,0,-1,1707,757,0,0
490,267,0,0,0,0,0,0,0,0,0,-1,1714,757,0,0
497,267,0,0,0,0,0,0,0,0,0,-1,1721,757,0,0
504,267,0,0,0,0,0,0,0,0,0,-1,1728,757,0,0
511,267,0,0,0,0,0,0,0,0,0,-1,1735,757,0,0
518,267,0,0,0,0,0,0,0,0,0,-1,1742,757,0,0
525,267,0,0,0,0,0,0,0,0,0,-1,1749,757,0,0
532,267,0,0,0,0,0,0,0,0,0,-1,1756,757,0,0
539,267,0,0,0,0,0,0,0,0,0,-1,1763,757,0,0
546,267,0,0,0,0,0,0,0,0,0,-1,1770,757,0,0
553,267,0,0,0,0,0,0,0,0,0,-1,1777,757,0,0
560,267,0,0,0,0,0,0,0,0,0,-1,1784,757,0,0
567,267,58.0104,3.24304,0,0,0,0,0,0,0,-1,1791,757,58.0104,-3.24306
574,267,64.5414,2.91858,0,0,0,0,0,0,0,-1,1798,757,64.5414,-2.91855
581,267,58.374,2.95636,0,0,0,0,0,0,0,-1,1805,757,58.3741,-2.95639
588,267,65.9681,2.6438,0,0,0,0,0,0,0,-1,1812,757,65.9682,-2.64382
595,267,66.191,2.60791,0,0,0,0,0,0,0,-1,1819,757,66.191,-2.60792
602,267,66.4139,2.57202,0,0,0,0,0,0,0,-1,1826,757,66.4139,-2.57203
609,267,54.5498,3.24054,0,0,0,0,0,0,0,-1,1833,757,54.5498,-3.24052
616,267,44.2543,3.28918,0,0,0,0,0,0,0,-1,1840,757,44.2542,-3.28918
623,267,24.1475,-1.1391,0,0,0,0,0,0,0,-1,1847,757,24.1475,1.13913
630,267,40.7198,-5.42108,0,0,0,0,0,0,0,-1,1854,757,40.7198,5.4211
637,267,89.6044,-11.636,0,0,0,0,0,0,0,-1,1861,757,89.6043,11.636
644,267,94.4562,-10.2131,0,0,0,0,0,0,0,-1,1868,757,94.4562,10.2131
651,267,110.546,-7.07867,0,0,0,0,0,0,0,-1,1875,757,110.546,7.07867
658,267,110.644,-4.49451,0,0,0,0,0,0,0,-1,1882,757,110.644,4.49449
665,267,110.18,-1.80609,-0.00464272,-0.00159285,-0.00388362,0.0010545,-0.00729007,-0.972479,0.00524698,0.0346712,1889,757,110.18,1.80606
672,267,109.569,0.770142,-0.00377397,0.00208073,-0.0058221,0.00567,-0.00736323,-1.01834,0.00754587,0.0213583,1896,757,109.569,-0.770153
679,267,109.188,3.2439,-0.00286005,0.00628076,-0.00764183,0.0106146,-0.00719392,-1.0549,0.0103448,0.0170188,1903,757,109.189,-3.24391
686,267,108.788,5.66675,-0.00178805,0.0110258,-0.00937054,0.0159704,-0.00673258,-1.08526,0.0134644,0.0269675,1910,757,108.788,-5.66674
693,267,108.295,7.94,-0.000655838,0.0163974,-0.0109747,0.0217685,-0.006027,-1.11566,0.0168838,0.0274162,1917,757,108.295,-7.94002
700,267,107.926,10.2764,0.000666653,0.022432,-0.012437,0.0280754,-0.00497673,-1.14482,0.0205774,0.0227275,1924,757,107.926,-10.2763
707,267,107.622,12.5692,0.0021682,0.0289891,-0.0136937,0.0347452,-0.00358791,-1.17287,0.0244474,0.0400385,1931,757,107.622,-12.5691
714,267,107.283,14.9509,0,0,0,0,0,0,0,-1,1938,757,107.283,-14.9509
721,267,47.0829,3.73804,0,0,0,0,0,0,0,-1,1945,757,47.0828,-3.73803
728,267,26.7886,3.90027,0,0,0,0,0,0,0,-1,1952,757,26.7886,-3.90028
735,267,24.6713,2.82483,0,0,0,0,0,0,0,-1,1959,757,24.6713,-2.82483
742,267,18.1177,3.56561,0,0,0,0,0,0,0,-1,1966,757,18.1176,-3.56564
749,267,0,0,0,0,0,0,0,0,0,-1,1973,757,0,0
756,267,0,0,0,0,0,0,0,0,0,-1,1980,757,0,0
763,267,0,0,0,0,0,0,0,0,0,-1,1987,757,0,0
770,267,0,0,0,0,0,0,0,0,0,-1,1994,757,0,0
777,267,0,0,0,0,0,0,0,0,0,-1,2001,757,0,0
784,267,0,0,0,0,0,0,0,0,0,-1,2008,757,0,0
791,267,0,0,0,0,0,0,0,0,0,-1,2015,757,0,0
798,267,0,0,0,0,0,0,0,0,0,-1,2022,757,0,0
805,267,0,0,0,0,0,0,0,0,0,-1,2029,757,0,0
812,267,0,0,0,0,0,0,0,0,0,-1,2036,757,0,0
-700,260,0,0,0,0,0,0,0,0,0,-1,524,764,0,0
-693,260,0,0,0,0,0,0,0,0,0,-1,531,764,0,0
-686,260,0,0,0,0,0,0,0,0,0,-1,538,764,0,0
-679,260,0,0,0,0,0,0,0,0,0,-1,545,764,0,0
-672,260,0,0,0,0,0,0,0,0,0,-1,552,764,0,0
-665,260,0,0,0,0,0,0,0,0,0,-1,559,764,0,0
-658,260,0,0,0,0,0,0,0,0,0,-1,566,764,0,0
-651,260,0,0,0,0,0,0,0,0,0,-1,573,764,0,0
-644,260,0,0,0,0,0,0,0,0,0,-1,580,764,0,0
-637,260,0,0,0,0,0,0,0,0,0,-1,587,764,0,0
-630,260,-21.8905,4.49341,0,0,0,0,0,0,0,-1,594,764,-21.8905,-4.49342
-623,260,-20.3127,3.53546,0,0,0,0,0,0,0,-1,601,764,-20.3127,-3.53544
-616,260,-23.4346,3.65009,0,0,0,0,0,0,0,-1,608,764,-23.4345,-3.65008
-609,260,-27.8874,4.42004,0,0,0,0,0,0,0,-1,615,764,-27.8874,-4.42005
-602,260,-32.8671,3.61243,0,0,0,0,0,0,0,-1,622,764,-32.867,-3.61241
-595,260,-44.4068,5.76526,0,0,0,0,0,0,0,-1,629,764,-44.4068,-5.76525
-588,260,-99.4046,17.5443,0,0,0,0,0,0,0,-1,636,764,-99.4046,-17.5442
-581,260,-99.5482,15.0335,-0.00222566,0.0370292,0.0157768,0.042584,-0.00778046,1.23226,0.0313068,0.0456447,643,764,-99.5481,-15.0335
-574,260,-99.8864,12.7479,-0.00063799,0.027604,0.0132328,0.0328353,-0.00586923,1.19433,0.0240862,0.0264366,650,764,-99.8864,-12.7479
-567,260,-100.358,10.4857,0.000146726,0.0201776,0.0106641,0.024792,-0.00446769,1.16242,0.0182009,0.0247122,657,764,-100.358,-10.4857
-560,260,-100.721,8.17853,0.000605873,0.0138813,0.00817788,0.0177762,-0.00328908,1.1263,0.0130857,0.0262018,664,764,-100.721,-8.17851
-553,260,-101.082,5.81207,0.000556283,0.00843166,0.00579963,0.011504,-0.0025161,1.08363,0.00863118,0.0230557,671,764,-101.082,-5.81206
-546,260,-101.488,3.34344,-5.15563e-06,0.00391814,0.00352191,0.00598786,-0.00207487,1.03949,0.00483431,0.0156107,678,764,-101.488,-3.34342
-539,260,-101.657,0.629089,-0.00115012,5.33018e-05,0.00147567,0.00104522,-0.00214204,0.978985,0.00187613,0.0307214,685,764,-101.657,-0.629114
-532,260,-102.284,-2.17865,-0.00289225,-0.00322947,-0.000297493,-0.00271891,-0.00340281,-0.527588,0.00207842,0.0475942,692,764,-102.284,2.17868
-525,260,-102.958,-4.34589,-0.00536344,-0.00523002,-0.00145508,-0.00384012,-0.00675335,-0.808306,0.00391127,0.0338808,699,764,-102.958,4.34586
-518,260,-103.449,-6.80756,0,0,0,0,0,0,0,-1,706,764,-103.449,6.80754
-511,260,-83.9215,-10.0087,0,0,0,0,0,0,0,-1,713,764,-83.9215,10.0087
-504,260,-34.7117,-8.67163,0,0,0,0,0,0,0,-1,720,764,-34.7117,8.6716
-497,260,-16.6542,-3.67334,0,0,0,0,0,0,0,-1,727,764,-16.6542,3.67331
-490,260,-29.4557,0.921387,0,0,0,0,0,0,0,-1,734,764,-29.4557,-0.921369
-483,260,-40.8972,1.04193,0,0,0,0,0,0,0,-1,741,764,-40.8972,-1.04193
-476,260,-53.8282,0.00378418,0,0,0,0,0,0,0,-1,748,764,-53.8283,-0.00378825
-469,260,-67.7608,1.11853,0,0,0,0,0,0,0,-1,755,764,-67.7608,-1.11852
-462,260,-71.5759,0.041748,0,0,0,0,0,0,0,-1,762,764,-71.5759,-0.0417456
-455,260,-71.384,0.305603,0,0,0,0,0,0,0,-1,769,764,-71.384,-0.305624
-448,260,0,0,0,0,0,0,0,0,0,-1,776,764,0,0
-441,260,0,0,0,0,0,0,0,0,0,-1,783,764,0,0
-434,260,0,0,0,0,0,0,0,0,0,-1,790,764,0,0
-427,260,0,0,0,0,0,0,0,0,0,-1,797,764,0,0
-420,260,0,0,0,0,0,0,0,0,0,-1,804,764,0,0
-413,260,0,0,0,0,0,0,0,0,0,-1,811,764,0,0
-406,260,0,0,0,0,0,0,0,0,0,-1,818,764,0,0
-399,260,0,0,0,0,0,0,0,0,0,-1,825,764,0,0
-392,260,0,0,0,0,0,0,0,0,0,-1,832,764,0,0
-385,260,0,0,0,0,0,0,0,0,0,-1,839,764,0,0
-378,260,0,0,0,0,0,0,0,0,0,-1,846,764,0,0
-371,260,0,0,0,0,0,0,0,0,0,-1,853,764,0,0
-364,260,0,0,0,0,0,0,0,0,0,-1,860,764,0,0
-357,260,0,0,0,0,0,0,0,0,0,-1,867,764,0,0
-350,260,0,0,0,0,0,0,0,0,0,-1,874,764,0,0
-343,260,0,0,0,0,0,0,0,0,0,-1,881,764,0,0
-336,260,0,0,0,0,0,0,0,0,0,-1,888,764,0,0
-329,260,0,0,0,0,0,0,0,0,0,-1,895,764,0,0
-322,260,0,0,0,0,0,0,0,0,0,-1,902,764,0,0
-315,260,0,0,0,0,0,0,0,0,0,-1,909,764,0,0
-308,260,0,0,0,0,0,0,0,0,0,-1,916,764,0,0
-301,260,0,0,0,0,0,0,0,0,0,-1,923,764,0,0
-294,260,0,0,0,0,0,0,0,0,0,-1,930,764,0,0
-287,260,0,0,0,0,0,0,0,0,0,-1,937,764,0,0
-280,260,0,0,0,0,0,0,0,0,0,-1,944,764,0,0
-273,260,0,0,0,0,0,0,0,0,0,-1,951,764,0,0
-266,260,0,0,0,0,0,0,0,0,0,-1,958,764,0,0
-259,260,0,0,0,0,0,0,0,0,0,-1,965,764,0,0
-252,260,0,0,0,0,0,0,0,0,0,-1,972,764,0,0
-245,260,0,0,0,0,0,0,0,0,0,-1,979,764,0,0
-238,260,0,0,0,0,0,0,0,0,0,-1,986,764,0,0
-231,260,0,0,0,0,0,0,0,0,0,-1,993,764,0,0
-224,260,0,0,0,0,0,0,0,0,0,-1,1000,764,0,0
-217,260,0,0,0,0,0,0,0,0,0,-1,1007,764,0,0
-210,260,0,0,0,0,0,0,0,0,0,-1,1014,764,0,0
-203,260,0,0,0,0,0,0,0,0,0,-1,1021,764,0,0
-196,260,0,0,0,0,0,0,0,0,0,-1,1028,764,0,0
-189,260,0,0,0,0,0,0,0,0,0,-1,1035,764,0,0
-182,260,0,0,0,0,0,0,0,0,0,-1,1042,764,0,0
-175,260,0,0,0,0,0,0,0,0,0,-1,1049,764,0,0
-168,260,0,0,0,0,0,0,0,0,0,-1,1056,764,0,0
-161,260,0,0,0,0,0,0,0,0,0,-1,1063,764,0,0
-154,260,0,0,0,0,0,0,0,0,0,-1,1070,764,0,0
-147,260,0,0,0,0,0,0,0,0,0,-1,1077,764,0,0
-140,260,0,0,0,0,0,0,0,0,0,-1,1084,764,0,0
-133,260,0,0,0,0,0,0,0,0,0,-1,1091,764,0,0
-126,260,0,0,0,0,0,0,0,0,0,-1,1098,764,0,0
-119,260,0,0,0,0,0,0,0,0,0,-1,1105,764,0,0
-112,260,0,0,0,0,0,0,0,0,0,-1,1112,764,0,0
-105,260,0,0,0,0,0,0,0,0,0,-1,1119,764,0,0
-98,260,0,0,0,0,0,0,0,0,0,-1,1126,764,0,0
-91,260,0,0,0,0,0,0,0,0,0,-1,1133,764,0,0
-84,260,0,0,0,0,0,0,0,0,0,-1,1140,764,0,0
-77,260,0,0,0,0,0,0,0,0,0,-1,1147,764,0,0
-70,260,0,0,0,0,0,0,0,0,0,-1,1154,764,0,0
-63,260,0,0,0,0,0,0,0,0,0,-1,1161,764,0,0
-56,260,0,0,0,0,0,0,0,0,0,-1,1168,764,0,0
-49,260,0,0,0,0,0,0,0,0,0,-1,1175,764,0,0
-42,260,0,0,0,0,0,0,0,0,0,-1,1182,764,0,0
-35,260,0,0,0,0,0,0,0,0,0,-1,1189,764,0,0
-28,260,0,0,0,0,0,0,0,0,0,-1,1196,764,0,0
-21,260,0,0,0,0,0,0,0,0,0,-1,1203,764,0,0
-14,260,0,0,0,0,0,0,0,0,0,-1,1210,764,0,0
-7,260,0,0,0,0,0,0,0,0,0,-1,1217,764,0,0
0,260,0,0,0,0,0,0,0,0,0,-1,1224,764,0,0
7,260,0,0,0,0,0,0,0,0,0,-1,1231,764,0,0
14,260,0,0,0,0,0,0,0,0,0,-1,1238,764,0,0
21,260,0,0,0,0,0,0,0,0,0,-1,1245,764,0,0
28,260,0,0,0,0,0,0,0,0,0,-1,1252,764,0,0
35,260,0,0,0,0,0,0,0,0,0,-1,1259,764,0,0
42,260,0,0,0,0,0,0,0,0,0,-1,1266,764,0,0
49,260,0,0,0,0,0,0,0,0,0,-1,1273,764,0,0
56,260,0,0,0,0,0,0,0,0,0,-1,1280,764,0,0
63,260,0,0,0,0,0,0,0,0,0,-1,1287,764,0,0
70,260,0,0,0,0,0,0,0,0,0,-1,1294,764,0,0
77,260,0,0,0,0,0,0,0,0,0,-1,1301,764,0,0
84,260,0,0,0,0,0,0,0,0,0,-1,1308,764,0,0
91,260,0,0,0,0,0,0,0,0,0,-1,1315,764,0,0
98,260,0,0,0,0,0,0,0,0,0,-1,1322,764,0,0
105,260,0,0,0,0,0,0,0,0,0,-1,1329,764,0,0
112,260,0,0,0,0,0,0,0,0,0,-1,1336,764,0,0
119,260,0,0,0,0,0,0,0,0,0,-1,1343,764,0,0
126,260,0,0,0,0,0,0,0,0,0,-1,1350,764,0,0
133,260,0,0,0,0,0,0,0,0,0,-1,1357,764,0,0
140,260,0,0,0,0,0,0,0,0,0,-1,1364,764,0,0
147,260,0,0,0,0,0,0,0,0,0,-1,1371,764,0,0
154,260,0,0,0,0,0,0,0,0,0,-1,1378,764,0,0
161,260,0,0,0,0,0,0,0,0,0,-1,1385,764,0,0
168,260,0,0,0,0,0,0,0,0,0,-1,1392,764,0,0
175,260,0,0,0,0,0,0,0,0,0,-1,1399,764,0,0
182,260,0,0,0,0,0,0,0,0,0,-1,1406,764,0,0
189,260,0,0,0,0,0,0,0,0,0,-1,1413,764,0,0
196,260,0,0,0,0,0,0,0,0,0,-1,1420,764,0,0
203,260,0,0,0,0,0,0,0,0,0,-1,1427,764,0,0
210,260,0,0,0,0,0,0,0,0,0,-1,1434,764,0,0
217,260,0,0,0,0,0,0,0,0,0,-1,1441,764,0,0
224,260,0,0,0,0,0,0,0,0,0,-1,1448,764,0,0
231,260,0,0,0,0,0,0,0,0,0,-1,1455,764,0,0
238,260,0,0,0,0,0,0,0,0,0,-1,1462,764,0,0
245,260,0,0,0,0,0,0,0,0,0,-1,1469,764,0,0
252,260,0,0,0,0,0,0,0,0,0,-1,1476,764,0,0
259,260,0,0,0,0,0,0,0,0,0,-1,1483,764,0,0
266,260,0,0,0,0,0,0,0,0,0,-1,1490,764,0,0
273,260,0,0,0,0,0,0,0,0,0,-1,1497,764,0,0
280,260,0,0,0,0,0,0,0,0,0,-1,1504,764,0,0
287,260,0,0,0,0,0,0,0,0,0,-1,1511,764,0,0
294,260,0,0,0,0,0,0,0,0,0,-1,1518,764,0,0
301,260,0,0,0,0,0,0,0,0,0,-1,1525,764,0,0
308,260,0,0,0,0,0,0,0,0,0,-1,1532,764,0,0
315,260,0,0,0,0,0,0,0,0,0,-1,1539,764,0,0
322,260,0,0,0,0,0,0,0,0,0,-1,1546,764,0,0
329,260,0,0,0,0,0,0,0,0,0,-1,1553,764,0,0
336,260,0,0,0,0,0,0,0,0,0,-1,1560,764,0,0
343,260,0,0,0,0,0,0,0,0,0,-1,1567,764,0,0
350,260,0,0,0,0,0,0,0,0,0,-1,1574,764,0,0
357,260,0,0,0,0,0,0,0,0,0,-1,1581,764,0,0
364,260,0,0,0,0,0,0,0,0,0,-1,1588,764,0,0
371,260,0,0,0,0,0,0,0,0,0,-1,1595,764,0,0
378,260,0,0,0,0,0,0,0,0,0,-1,1602,764,0,0
385,260,0,0,0,0,0,0,0,0,0,-1,1609,764,0,0
392,260,0,0,0,0,0,0,0,0,0,-1,1616,764,0,0
399,260,0,0,0,0,0,0,0,0,0,-1,1623,764,0,0
406,260,0,0,0,0,0,0,0,0,0,-1,1630,764,0,0
413,260,0,0,0,0,0,0,0,0,0,-1,1637,764,0,0
420,260,0,0,0,0,0,0,0,0,0,-1,1644,764,0,0
427,260,0,0,0,0,0,0,0,0,0,-1,1651,764,0,0
434,260,0,0,0,0,0,0,0,0,0,-1,1658,764,0,0
441,260,0,0,0,0,0,0,0,0,0,-1,1665,764,0,0
448,260,0,0,0,0,0,0,0,0,0,-1,1672,764,0,0
455,260,0,0,0,0,0,0,0,0,0,-1,1679,764,0,0
462,260,0,0,0,0,0,0,0,0,0,-1,1686,764,0,0
469,260,0,0,0,0,0,0,0,0,0,-1,1693,764,0,0
476,260,0,0,0,0,0,0,0,0,0,-1,1700,764,0,0
483,260,0,0,0,0,0,0,0,0,0,-1,1707,764,0,0
490,260,0,0,0,0,0,0,0,0,0,-1,1714,764,0,0
497,260,0,0,0,0,0,0,0,0,0,-1,1721,764,0,0
504,260,0,0,0,0,0,0,0,0,0,-1,1728,764,0,0
511,260,0,0,0,0,0,0,0,0,0,-1,1735,764,0,0
518,260,0,0,0,0,0,0,0,0,0,-1,1742,764,0,0
525,260,0,0,0,0,0,0,0,0,0,-1,1749,764,0,0
532,260,0,0,0,0,0,0,0,0,0,-1,1756,764,0,0
539,260,0,0,0,0,0,0,0,0,0,-1,1763,764,0,0
546,260,0,0,0,0,0,0,0,0,0,-1,1770,764,0,0
553,260,0,0,0,0,0,0,0,0,0,-1,1777,764,0,0
560,260,0,0,0,0,0,0,0,0,0,-1,1784,764,0,0
567,260,0,0,0,0,0,0,0,0,0,-1,1791,764,0,0
574,260,123.775,3.97382,0,0,0,0,0,0,0,-1,1798,764,123.775,-3.97382
581,260,123.673,4.10852,0,0,0,0,0,0,0,-1,1805,764,123.673,-4.10852
588,260,78.047,2.81091,0,0,0,0,0,0,0,-1,1812,764,78.047,-2.81091
595,260,66.1678,2.56989,0,0,0,0,0,0,0,-1,1819,764,66.1678,-2.56989
602,260,65.9274,2.69824,0,0,0,0,0,0,0,-1,1826,764,65.9274,-2.69825
609,260,65.4674,3.08105,0,0,0,0,0,0,0,-1,1833,764,65.4673,-3.08107
616,260,46.0709,2.74542,0,0,0,0,0,0,0,-1,1840,764,46.0709,-2.74545
623,260,32.2268,3.25836,0,0,0,0,0,0,0,-1,1847,764,32.2268,-3.25833
630,260,24.3739,-0.536316,0,0,0,0,0,0,0,-1,1854,764,24.3739,0.536343
637,260,42.7155,-5.35486,0,0,0,0,0,0,0,-1,1861,764,42.7154,5.35488
644,260,91.3242,-9.78699,0,0,0,0,0,0,0,-1,1868,764,91.3243,9.78696
651,260,76.7991,-7.37592,0,0,0,0,0,0,0,-1,1875,764,76.7991,7.37592
658,260,113.05,-4.2171,0,0,0,0,0,0,0,-1,1882,764,113.05,4.21711
665,260,112.852,-1.45215,0,0,0,0,0,0,0,-1,1889,764,112.852,1.45213
672,260,112.092,1.25421,-0.00527399,0.000413238,-0.00530817,0.00359148,-0.00845224,-1.0313,0.00713972,0.0347761,1896,764,112.092,-1.25422
679,260,111.718,3.70087,-0.00454884,0.00473098,-0.00722764,0.00867988,-0.00849774,-1.07075,0.00991769,0.0166696,1903,764,111.718,-3.70084
686,260,111.234,6.04388,-0.00370617,0.00950726,-0.00911639,0.0141592,-0.00835811,-1.09896,0.0131434,0.0354569,1910,764,111.234,-6.0439
693,260,110.717,8.23071,-0.00289474,0.0147931,-0.0109449,0.0200206,-0.00812225,-1.12521,0.0167254,0.0363638,1917,764,110.717,-8.23068
700,260,110.383,10.4927,-0.00205015,0.0205999,-0.0126732,0.0262709,-0.00772116,-1.15004,0.0205764,0.0265206,1924,764,110.383,-10.4927
707,260,110.19,12.7853,-0.00121879,0.0268514,-0.0142475,0.0328157,-0.00718309,-1.17434,0.0246232,0.0283914,1931,764,110.19,-12.7854
714,260,109.85,15.1413,0,0,0,0,0,0,0,-1,1938,764,109.851,-15.1413
721,260,59.4307,4.13696,0,0,0,0,0,0,0,-1,1945,764,59.4307,-4.13694
728,260,33.4344,5.75409,0,0,0,0,0,0,0,-1,1952,764,33.4345,-5.75408
735,260,26.9788,4.85681,0,0,0,0,0,0,0,-1,1959,764,26.9787,-4.85678
742,260,32.1443,1.73688,0,0,0,0,0,0,0,-1,1966,764,32.1442,-1.73688
749,260,33.6013,2.94733,0,0,0,0,0,0,0,-1,1973,764,33.6013,-2.9473
756,260,0,0,0,0,0,0,0,0,0,-1,1980,764,0,0
763,260,0,0,0,0,0,0,0,0,0,-1,1987,764,0,0
770,260,0,0,0,0,0,0,0,0,0,-1,1994,764,0,0
777,260,0,0,0,0,0,0,0,0,0,-1,2001,764,0,0
784,260,0,0,0,0,0,0,0,0,0,-1,2008,764,0,0
791,260,0,0,0,0,0,0,0,0,0,-1,2015,764,0,0
798,260,0,0,0,0,0,0,0,0,0,-1,2022,764,0,0
805,260,0,0,0,0,0,0,0,0,0,-1,2029,764,0,0
812,260,0,0,0,0,0,0,0,0,0,-1,2036,764,0,0
-700,253,0,0,0,0,0,0,0,0,0,-1,524,771,0,0
-693,253,0,0,0,0,0,0,0,0,0,-1,531,771,0,0
-686,253,0,0,0,0,0,0,0,0,0,-1,538,771,0,0
-679,253,0,0,0,0,0,0,0,0,0,-1,545,771,0,0
-672,253,0,0,0,0,0,0,0,0,0,-1,552,771,0,0
-665,253,0,0,0,0,0,0,0,0,0,-1,559,771,0,0
-658,253,0,0,0,0,0,0,0,0,0,-1,566,771,0,0
-651,253,0,0,0,0,0,0,0,0,0,-1,573,771,0,0
-644,253,0,0,0,0,0,0,0,0,0,-1,580,771,0,0
-637,253,-24.7979,-0.491394,0,0,0,0,0,0,0,-1,587,771,-24.7978,0.491371
-630,253,-25.156,0.540405,0,0,0,0,0,0,0,-1,594,771,-25.156,-0.540421
-623,253,-20.808,2.84314,0,0,0,0,0,0,0,-1,601,771,-20.8081,-2.84312
-616,253,-25.0877,2.96875,0,0,0,0,0,0,0,-1,608,771,-25.0877,-2.96876
-609,253,-24.28,2.08228,0,0,0,0,0,0,0,-1,615,771,-24.2801,-2.08227
-602,253,-45.6953,6.73285,0,0,0,0,0,0,0,-1,622,771,-45.6953,-6.73285
-595,253,-50.7667,7.12732,0,0,0,0,0,0,0,-1,629,771,-50.7667,-7.1273
-588,253,-61.6192,8.3111,0,0,0,0,0,0,0,-1,636,771,-61.6192,-8.31112
-581,253,-102.061,15.4769,0,0,0,0,0,0,0,-1,643,771,-102.061,-15.4769
-574,253,-102.389,13.0047,-0.000596219,0.0263148,0.0116991,0.0306896,-0.00497099,1.21295,0.0223022,0.0337375,650,771,-102.389,-13.0047
-567,253,-102.809,10.7247,-0.000317704,0.0188824,0.00941807,0.0227308,-0.00416611,1.18288,0.0167165,0.0230601,657,771,-102.809,-10.7247
-560,253,-103.171,8.54828,-0.000385122,0.0125341,0.0070676,0.0156494,-0.00350034,1.15564,0.0117744,0.017677,664,771,-103.171,-8.5483
-553,253,-103.566,6.21545,-0.000878308,0.00694044,0.00473446,0.00917096,-0.00310883,1.13051,0.00737209,0.0166405,671,771,-103.566,-6.21545
-546,253,-103.979,3.82507,-0.00184555,0.00224672,0.00242397,0.00337269,-0.00297153,1.13594,0.00366528,0.017719,678,771,-103.979,-3.82506
-539,253,-104.034,1.28357,-0.00338405,-0.00177596,0.000298089,-0.00172248,-0.00343753,1.39328,0.00198466,0.0353335,685,771,-104.034,-1.28359
-532,253,-104.915,-1.28699,-0.00553301,-0.00520237,-0.00156978,-0.00378923,-0.00694615,-0.837861,0.0040159,0.0399113,692,771,-104.915,1.28697
-525,253,-105.465,-3.89783,-0.00850688,-0.00706081,-0.00273133,-0.00495843,-0.0106093,-0.914789,0.00612961,0.0323897,699,771,-105.465,3.89785
-518,253,-105.867,-6.49573,0,0,0,0,0,0,0,-1,706,771,-105.867,6.4957
-511,253,-68.3588,-8.90771,0,0,0,0,0,0,0,-1,713,771,-68.3588,8.90769
-504,253,-19.317,-4.1723,0,0,0,0,0,0,0,-1,720,771,-19.317,4.1723
-497,253,-21.7737,-1.76837,0,0,0,0,0,0,0,-1,727,771,-21.7738,1.7684
-490,253,-29.7674,0.438354,0,0,0,0,0,0,0,-1,734,771,-29.7674,-0.438339
-483,253,-45.4489,1.59302,0,0,0,0,0,0,0,-1,741,771,-45.4489,-1.59303
-476,253,-64.2688,0.0551758,0,0,0,0,0,0,0,-1,748,771,-64.2688,-0.0552001
-469,253,-71.0914,0.867859,0,0,0,0,0,0,0,-1,755,771,-71.0914,-0.867851
-462,253,-71.4388,0.379639,0,0,0,0,0,0,0,-1,762,771,-71.4388,-0.379644
-455,253,-71.35,0.581238,0,0,0,0,0,0,0,-1,769,771,-71.35,-0.581243
-448,253,0,0,0,0,0,0,0,0,0,-1,776,771,0,0
-441,253,0,0,0,0,0,0,0,0,0,-1,783,771,0,0
-434,253,0,0,0,0,0,0,0,0,0,-1,790,771,0,0
-427,253,0,0,0,0,0,0,0,0,0,-1,797,771,0,0
-420,253,0,0,0,0,0,0,0,0,0,-1,804,771,0,0
-413,253,0,0,0,0,0,0,0,0,0,-1,811,771,0,0
-406,253,0,0,0,0,0,0,0,0,0,-1,818,771,0,0
-399,253,0,0,0,0,0,0,0,0,0,-1,825,771,0,0
-392,253,0,0,0,0,0,0,0,0,0,-1,832,771,0,0
-385,253,0,0,0,0,0,0,0,0,0,-1,839,771,0,0
-378,253,0,0,0,0,0,0,0,0,0,-1,846,771,0,0
-371,253,0,0,0,0,0,0,0,0,0,-1,853,771,0,0
-364,253,0,0,0,0,0,0,0,0,0,-1,860,771,0,0
-357,253,0,0,0,0,0,0,0,0,0,-1,867,771,0,0
-350,253,0,0,0,0,0,0,0,0,0,-1,874,771,0,0
-343,253,0,0,0,0,0,0,0,0,0,-1,881,771,0,0
-336,253,0,0,0,0,0,0,0,0,0,-1,888,771,0,0
-329,253,0,0,0,0,0,0,0,0,0,-1,895,771,0,0
-322,253,0,0,0,0,0,0,0,0,0,-1,902,771,0,0
-315,253,0,0,0,0,0,0,0,0,0,-1,909,771,0,0
-308,253,0,0,0,0,0,0,0,0,0,-1,916,771,0,0
-301,253,0,0,0,0,0,0,0,0,0,-1,923,771,0,0
-294,253,0,0,0,0,0,0,0,0,0,-1,930,771,0,0
-287,253,0,0,0,0,0,0,0,0,0,-1,937,771,0,0
-280,253,0,0,0,0,0,0,0,0,0,-1,944,771,0,0
-273,253,0,0,0,0,0,0,0,0,0,-1,951,771,0,0
-266,253,0,0,0,0,0,0,0,0,0,-1,958,771,0,0
-259,253,0,0,0,0,0,0,0,0,0,-1,965,771,0,0
-252,253,0,0,0,0,0,0,0,0,0,-1,972,771,0,0
-245,253,0,0,0,0,0,0,0,0,0,-1,979,771,0,0
-238,253,0,0,0,0,0,0,0,0,0,-1,986,771,0,0
-231,253,0,0,0,0,0,0,0,0,0,-1,993,771,0,0
-224,253,0,0,0,0,0,0,0,0,0,-1,1000,771,0,0
-217,253,0,0,0,0,0,0,0,0,0,-1,1007,771,0,0
-210,253,0,0,0,0,0,0,0,0,0,-1,1014,771,0,0
-203,253,0,0,0,0,0,0,0,0,0,-1,1021,771,0,0
-196,253,0,0,0,0,0,0,0,0,0,-1,1028,771,0,0
-189,253,0,0,0,0,0,0,0,0,0,-1,1035,771,0,0
-182,253,0,0,0,0,0,0,0,0,0,-1,1042,771,0,0
-175,253,0,0,0,0,0,0,0,0,0,-1,1049,771,0,0
-168,253,0,0,0,0,0,0,0,0,0,-1,1056,771,0,0
-161,253,0,0,0,0,0,0,0,0,0,-1,1063,771,0,0
-154,253,0,0,0,0,0,0,0,0,0,-1,1070,771,0,0
-147,253,0,0,0,0,0,0,0,0,0,-1,1077,771,0,0
-140,253,0,0,0,0,0,0,0,0,0,-1,1084,771,0,0
-133,253,0,0,0,0,0,0,0,0,0,-1,1091,771,0,0
-126,253,0,0,0,0,0,0,0,0,0,-1,1098,771,0,0
-119,253,0,0,0,0,0,0,0,0,0,-1,1105,771,0,0
-112,253,0,0,0,0,0,0,0,0,0,-1,1112,771,0,0
-105,253,0,0,0,0,0,0,0,0,0,-1,1119,771,0,0
-98,253,0,0,0,0,0,0,0,0,0,-1,1126,771,0,0
-91,253,0,0,0,0,0,0,0,0,0,-1,1133,771,0,0
-84,253,0,0,0,0,0,0,0,0,0,-1,1140,771,0,0
-77,253,0,0,0,0,0,0,0,0,0,-1,1147,771,0,0
-70,253,0,0,0,0,0,0,0,0,0,-1,1154,771,0,0
-63,253,0,0,0,0,0,0,0,0,0,-1,1161,771,0,0
-56,253,0,0,0,0,0,0,0,0,0,-1,1168,771,0,0
-49,253,0,0,0,0,0,0,0,0,0,-1,1175,771,0,0
-42,253,0,0,0,0,0,0,0,0,0,-1,1182,771,0,0
-35,253,0,0,0,0,0,0,0,0,0,-1,1189,771,0,0
-28,253,0,0,0,0,0,0,0,0,0,-1,1196,771,0,0
-21,253,0,0,0,0,0,0,0,0,0,-1,1203,771,0,0
-14,253,0,0,0,0,0,0,0,0,0,-1,1210,771,0,0
-7,253,0,0,0,0,0,0,0,0,0,-1,1217,771,0,0
0,253,0,0,0,0,0,0,0,0,0,-1,1224,771,0,0
7,253,0,0,0,0,0,0,0,0,0,-1,1231,771,0,0
14,253,0,0,0,0,0,0,0,0,0,-1,1238,771,0,0
21,253,0,0,0,0,0,0,0,0,0,-1,1245,771,0,0
28,253,0,0,0,0,0,0,0,0,0,-1,1252,771,0,0
35,253,0,0,0,0,0,0,0,0,0,-1,1259,771,0,0
42,253,0,0,0,0,0,0,0,0,0,-1,1266,771,0,0
49,253,0,0,0,0,0,0,0,0,0,-1,1273,771,0,0
56,253,0,0,0,0,0,0,0,0,0,-1,1280,771,0,0
63,253,0,0,0,0,0,0,0,0,0,-1,1287,771,0,0
70,253,0,0,0,0,0,0,0,0,0,-1,1294,771,0,0
77,253,0,0,0,0,0,0,0,0,0,-1,1301,771,0,0
84,253,0,0,0,0,0,0,0,0,0,-1,1308,771,0,0
91,253,0,0,0,0,0,0,0,0,0,-1,1315,771,0,0
98,253,0,0,0,0,0,0,0,0,0,-1,1322,771,0,0
105,253,0,0,0,0,0,0,0,0,0,-1,1329,771,0,0
112,253,0,0,0,0,0,0,0,0,0,-1,1336,771,0,0
119,253,0,0,0,0,0,0,0,0,0,-1,1343,771,0,0
126,253,0,0,0,0,0,0,0,0,0,-1,1350,771,0,0
133,253,0,0,0,0,0,0,0,0,0,-1,1357,771,0,0
140,253,0,0,0,0,0,0,0,0,0,-1,1364,771,0,0
147,253,0,0,0,0,0,0,0,0,0,-1,1371,771,0,0
154,253,0,0,0,0,0,0,0,0,0,-1,1378,771,0,0
161,253,0,0,0,0,0,0,0,0,0,-1,1385,771,0,0
168,253,0,0,0,0,0,0,0,0,0,-1,1392,771,0,0
175,253,0,0,0,0,0,0,0,0,0,-1,1399,771,0,0
182,253,0,0,0,0,0,0,0,0,0,-1,1406,771,0,0
189,253,0,0,0,0,0,0,0,0,0,-1,1413,771,0,0
196,253,0,0,0,0,0,0,0,0,0,-1,1420,771,0,0
203,253,0,0,0,0,0,0,0,0,0,-1,1427,771,0,0
210,253,0,0,0,0,0,0,0,0,0,-1,1434,771,0,0
217,253,0,0,0,0,0,0,0,0,0,-1,1441,771,0,0
224,253,0,0,0,0,0,0,0,0,0,-1,1448,771,0,0
231,253,0,0,0,0,0,0,0,0,0,-1,1455,771,0,0
238,253,0,0,0,0,0,0,0,0,0,-1,1462,771,0,0
245,253,0,0,0,0,0,0,0,0,0,-1,1469,771,0,0
252,253,0,0,0,0,0,0,0,0,0,-1,1476,771,0,0
259,253,0,0,0,0,0,0,0,0,0,-1,1483,771,0,0
266,253,0,0,0,0,0,0,0,0,0,-1,1490,771,0,0
273,253,0,0,0,0,0,0,0,0,0,-1,1497,771,0,0
280,253,0,0,0,0,0,0,0,0,0,-1,1504,771,0,0
287,253,0,0,0,0,0,0,0,0,0,-1,1511,771,0,0
294,253,0,0,0,0,0,0,0,0,0,-1,1518,771,0,0
301,253,0,0,0,0,0,0,0,0,0,-1,1525,771,0,0
308,253,0,0,0,0,0,0,0,0,0,-1,1532,771,0,0
315,253,0,0,0,0,0,0,0,0,0,-1,1539,771,0,0
322,253,0,0,0,0,0,0,0,0,0,-1,1546,771,0,0
329,253,0,0,0,0,0,0,0,0,0,-1,1553,771,0,0
336,253,0,0,0,0,0,0,0,0,0,-1,1560,771,0,0
343,253,0,0,0,0,0,0,0,0,0,-1,1567,771,0,0
350,253,0,0,0,0,0,0,0,0,0,-1,1574,771,0,0
357,253,0,0,0,0,0,0,0,0,0,-1,1581,771,0,0
364,253,0,0,0,0,0,0,0,0,0,-1,1588,771,0,0
371,253,0,0,0,0,0,0,0,0,0,-1,1595,771,0,0
378,253,0,0,0,0,0,0,0,0,0,-1,1602,771,0,0
385,253,0,0,0,0,0,0,0,0,0,-1,1609,771,0,0
392,253,0,0,0,0,0,0,0,0,0,-1,1616,771,0,0
399,253,0,0,0,0,0,0,0,0,0,-1,1623,771,0,0
406,253,0,0,0,0,0,0,0,0,0,-1,1630,771,0,0
413,253,0,0,0,0,0,0,0,0,0,-1,1637,771,0,0
420,253,0,0,0,0,0,0,0,0,0,-1,1644,771,0,0
427,253,0,0,0,0,0,0,0,0,0,-1,1651,771,0,0
434,253,0,0,0,0,0,0,0,0,0,-1,1658,771,0,0
441,253,0,0,0,0,0,0,0,0,0,-1,1665,771,0,0
448,253,0,0,0,0,0,0,0,0,0,-1,1672,771,0,0
455,253,0,0,0,0,0,0,0,0,0,-1,1679,771,0,0
462,253,0,0,0,0,0,0,0,0,0,-1,1686,771,0,0
469,253,0,0,0,0,0,0,0,0,0,-1,1693,771,0,0
476,253,0,0,0,0,0,0,0,0,0,-1,1700,771,0,0
483,253,0,0,0,0,0,0,0,0,0,-1,1707,771,0,0
490,253,0,0,0,0,0,0,0,0,0,-1,1714,771,0,0
497,253,0,0,0,0,0,0,0,0,0,-1,1721,771,0,0
504,253,0,0,0,0,0,0,0,0,0,-1,1728,771,0,0
511,253,0,0,0,0,0,0,0,0,0,-1,1735,771,0,0
518,253,0,0,0,0,0,0,0,0,0,-1,1742,771,0,0
525,253,0,0,0,0,0,0,0,0,0,-1,1749,771,0,0
532,253,0,0,0,0,0,0,0,0,0,-1,1756,771,0,0
539,253,0,0,0,0,0,0,0,0,0,-1,1763,771,0,0
546,253,0,0,0,0,0,0,0,0,0,-1,1770,771,0,0
553,253,0,0,0,0,0,0,0,0,0,-1,1777,771,0,0
560,253,0,0,0,0,0,0,0,0,0,-1,1784,771,0,0
567,253,0,0,0,0,0,0,0,0,0,-1,1791,771,0,0
574,253,123.62,3.96124,0,0,0,0,0,0,0,-1,1798,771,123.62,-3.96124
581,253,159.544,5.64038,0,0,0,0,0,0,0,-1,1805,771,159.544,-5.64035
588,253,125.995,4.1709,0,0,0,0,0,0,0,-1,1812,771,125.995,-4.17091
595,253,107.31,2.72931,0,0,0,0,0,0,0,-1,1819,771,107.31,-2.72928
602,253,66.4502,2.6098,0,0,0,0,0,0,0,-1,1826,771,66.4502,-2.60979
609,253,65.2542,3.18195,0,0,0,0,0,0,0,-1,1833,771,65.2541,-3.18193
616,253,58.416,2.69031,0,0,0,0,0,0,0,-1,1840,771,58.4161,-2.69031
623,253,48.8328,3.01001,0,0,0,0,0,0,0,-1,1847,771,48.8328,-3.01002
630,253,33.561,2.96838,0,0,0,0,0,0,0,-1,1854,771,33.561,-2.96836
637,253,22.3192,-0.604004,0,0,0,0,0,0,0,-1,1861,771,22.3192,0.603986
644,253,48.2843,-5.22784,0,0,0,0,0,0,0,-1,1868,771,48.2843,5.22783
651,253,71.8274,-7.87415,0,0,0,0,0,0,0,-1,1875,771,71.8274,7.87416
658,253,74.8138,-4.5741,0,0,0,0,0,0,0,-1,1882,771,74.8138,4.57408
665,253,98.7385,-3.61005,0,0,0,0,0,0,0,-1,1889,771,98.7385,3.61005
672,253,114.514,1.72693,0,0,0,0,0,0,0,-1,1896,771,114.514,-1.72691
679,253,114.237,4.13,-0.00563722,0.00316348,-0.00611215,0.00629449,-0.00876823,-1.09739,0.00873547,0.0169462,1903,771,114.237,-4.13
686,253,113.668,6.47943,-0.00511856,0.0079934,-0.00826854,0.0119897,-0.00911482,-1.12059,0.0122223,0.0390553,1910,771,113.668,-6.47942
693,253,113.212,8.6568,-0.00473903,0.0132629,-0.0104119,0.0180251,-0.00950123,-1.14182,0.0161443,0.038918,1917,771,113.212,-8.65683
700,253,112.911,10.809,-0.004489,0.0189554,-0.0124862,0.0243596,-0.00989322,-1.16232,0.0203553,0.0270597,1924,771,112.911,-10.8089
707,253,112.627,13.0867,-0.00445049,0.0250296,-0.0144499,0.030931,-0.0103519,-1.18307,0.0248021,0.0231931,1931,771,112.627,-13.0867
714,253,112.201,15.4419,0,0,0,0,0,0,0,-1,1938,771,112.201,-15.4419
721,253,109.434,16.1605,0,0,0,0,0,0,0,-1,1945,771,109.434,-16.1605
728,253,96.8784,15.2808,0,0,0,0,0,0,0,-1,1952,771,96.8783,-15.2808
735,253,34.5735,6.15118,0,0,0,0,0,0,0,-1,1959,771,34.5734,-6.1512
742,253,31.0571,5.7337,0,0,0,0,0,0,0,-1,1966,771,31.0571,-5.73373
749,253,33.7754,3.21533,0,0,0,0,0,0,0,-1,1973,771,33.7754,-3.21533
756,253,0,0,0,0,0,0,0,0,0,-1,1980,771,0,0
763,253,0,0,0,0,0,0,0,0,0,-1,1987,771,0,0
770,253,0,0,0,0,0,0,0,0,0,-1,1994,771,0,0
777,253,0,0,0,0,0,0,0,0,0,-1,2001,771,0,0
784,253,0,0,0,0,0,0,0,0,0,-1,2008,771,0,0
791,253,0,0,0,0,0,0,0,0,0,-1,2015,771,0,0
798,253,0,0,0,0,0,0,0,0,0,-1,2022,771,0,0
805,253,0,0,0,0,0,0,0,0,0,-1,2029,771,0,0
812,253,0,0,0,0,0,0,0,0,0,-1,2036,771,0,0
-700,246,0,0,0,0,0,0,0,0,0,-1,524,778,0,0
-693,246,0,0,0,0,0,0,0,0,0,-1,531,778,0,0
-686,246,0,0,0,0,0,0,0,0,0,-1,538,778,0,0
-679,246,0,0,0,0,0,0,0,0,0,-1,545,778,0,0
-672,246,0,0,0,0,0,0,0,0,0,-1,552,778,0,0
-665,246,0,0,0,0,0,0,0,0,0,-1,559,778,0,0
-658,246,0,0,0,0,0,0,0,0,0,-1,566,778,0,0
-651,246,0,0,0,0,0,0,0,0,0,-1,573,778,0,0
-644,246,0,0,0,0,0,0,0,0,0,-1,580,778,0,0
-637,246,-24.1234,0.130432,0,0,0,0,0,0,0,-1,587,778,-24.1234,-0.130438
-630,246,-24.0781,1.38916,0,0,0,0,0,0,0,-1,594,778,-24.0781,-1.38913
-623,246,-23.9183,2.49573,0,0,0,0,0,0,0,-1,601,778,-23.9183,-2.49575
-616,246,-26.8182,2.0705,0,0,0,0,0,0,0,-1,608,778,-26.8182,-2.07052
-609,246,-26.0615,1.16388,0,0,0,0,0,0,0,-1,615,778,-26.0615,-1.16388
-602,246,-51.7078,9.6991,0,0,0,0,0,0,0,-1,622,778,-51.7078,-9.69909
-595,246,-62.918,10.173,0,0,0,0,0,0,0,-1,629,778,-62.918,-10.173
-588,246,-104.164,17.7711,0,0,0,0,0,0,0,-1,636,778,-104.164,-17.7711
-581,246,-104.49,15.6036,-0.00185509,0.0333648,0.0120837,0.0371119,-0.00560223,1.2701,0.0268046,0.0451661,643,778,-104.49,-15.6036
-574,246,-104.769,13.2212,-0.00120999,0.0246365,0.0103021,0.0282403,-0.00481378,1.23429,0.0206196,0.028667,650,778,-104.769,-13.2212
-567,246,-105.143,10.9694,-0.00108618,0.0172973,0.00822352,0.020439,-0.00422791,1.20587,0.0152322,0.0348093,657,778,-105.143,-10.9694
-560,246,-105.544,8.83514,-0.00139373,0.0109753,0.00595032,0.013373,-0.00379144,1.18775,0.0104119,0.0262511,664,778,-105.544,-8.83511
-553,246,-105.949,6.62189,-0.00214101,0.00537133,0.00359468,0.00681425,-0.00358393,1.18908,0.00609919,0.0165323,671,778,-105.949,-6.62191
-546,246,-106.358,4.23706,-0.00341499,0.000624624,0.00117939,0.000943746,-0.00373411,1.30654,0.00285644,0.0223256,678,778,-106.358,-4.23706
-539,246,-106.485,1.74615,-0.00531161,-0.00346538,-0.00113307,-0.00292699,-0.00585,-1.12722,0.0033775,0.0353365,685,778,-106.485,-1.74618
-532,246,-107.309,-0.724243,-0.00790481,-0.00692791,-0.00319833,-0.00418094,-0.0106518,-0.861173,0.00619699,0.0297979,692,778,-107.309,0.724273
-525,246,-107.794,-3.44678,0,0,0,0,0,0,0,-1,699,778,-107.794,3.4468
-518,246,-78.9205,-6.83978,0,0,0,0,0,0,0,-1,706,778,-78.9205,6.83976
-511,246,-28.5886,-5.38635,0,0,0,0,0,0,0,-1,713,778,-28.5886,5.38633
-504,246,-20.0047,-2.88214,0,0,0,0,0,0,0,-1,720,778,-20.0047,2.88216
-497,246,-29.4669,1.82684,0,0,0,0,0,0,0,-1,727,778,-29.4669,-1.82687
-490,246,-40.4299,1.04309,0,0,0,0,0,0,0,-1,734,778,-40.4299,-1.04308
-483,246,-55.5514,-0.0795898,0,0,0,0,0,0,0,-1,741,778,-55.5514,0.0795595
-476,246,-71.3194,0.512817,0,0,0,0,0,0,0,-1,748,778,-71.3194,-0.512787
-469,246,-71.1252,0.834961,0,0,0,0,0,0,0,-1,755,778,-71.1252,-0.834941
-462,246,-71.2921,0.690796,0,0,0,0,0,0,0,-1,762,778,-71.2921,-0.690778
-455,246,0,0,0,0,0,0,0,0,0,-1,769,778,0,0
-448,246,0,0,0,0,0,0,0,0,0,-1,776,778,0,0
-441,246,0,0,0,0,0,0,0,0,0,-1,783,778,0,0
-434,246,0,0,0,0,0,0,0,0,0,-1,790,778,0,0
-427,246,0,0,0,0,0,0,0,0,0,-1,797,778,0,0
-420,246,0,0,0,0,0,0,0,0,0,-1,804,778,0,0
-413,246,0,0,0,0,0,0,0,0,0,-1,811,778,0,0
-406,246,0,0,0,0,0,0,0,0,0,-1,818,778,0,0
-399,246,0,0,0,0,0,0,0,0,0,-1,825,778,0,0
-392,246,0,0,0,0,0,0,0,0,0,-1,832,778,0,0
-385,246,0,0,0,0,0,0,0,0,0,-1,839,778,0,0
-378,246,0,0,0,0,0,0,0,0,0,-1,846,778,0,0
-371,246,0,0,0,0,0,0,0,0,0,-1,853,778,0,0
-364,246,0,0,0,0,0,0,0,0,0,-1,860,778,0,0
-357,246,0,0,0,0,0,0,0,0,0,-1,867,778,0,0
-350,246,0,0,0,0,0,0,0,0,0,-1,874,778,0,0
-343,246,0,0,0,0,0,0,0,0,0,-1,881,778,0,0
-336,246,0,0,0,0,0,0,0,0,0,-1,888,778,0,0
-329,246,0,0,0,0,0,0,0,0,0,-1,895,778,0,0
-322,246,0,0,0,0,0,0,0,0,0,-1,902,778,0,0
-315,246,0,0,0,0,0,0,0,0,0,-1,909,778,0,0
-308,246,0,0,0,0,0,0,0,0,0,-1,916,778,0,0
-301,246,0,0,0,0,0,0,0,0,0,-1,923,778,0,0
-294,246,0,0,0,0,0,0,0,0,0,-1,930,778,0,0
-287,246,0,0,0,0,0,0,0,0,0,-1,937,778,0,0
-280,246,0,0,0,0,0,0,0,0,0,-1,944,778,0,0
-273,246,0,0,0,0,0,0,0,0,0,-1,951,778,0,0
-266,246,0,0,0,0,0,0,0,0,0,-1,958,778,0,0
-259,246,0,0,0,0,0,0,0,0,0,-1,965,778,0,0
-252,246,0,0,0,0,0,0,0,0,0,-1,972,778,0,0
-245,246,0,0,0,0,0,0,0,0,0,-1,979,778,0,0
-238,246,0,0,0,0,0,0,0,0,0,-1,986,778,0,0
-231,246,0,0,0,0,0,0,0,0,0,-1,993,778,0,0
-224,246,0,0,0,0,0,0,0,0,0,-1,1000,778,0,0
-217,246,0,0,0,0,0,0,0,0,0,-1,1007,778,0,0
-210,246,0,0,0,0,0,0,0,0,0,-1,1014,778,0,0
-203,246,0,0,0,0,0,0,0,0,0,-1,1021,778,0,0
-196,246,0,0,0,0,0,0,0,0,0,-1,1028,778,0,0
-189,246,0,0,0,0,0,0,0,0,0,-1,1035,778,0,0
-182,246,0,0,0,0,0,0,0,0,0,-1,1042,778,0,0
-175,246,0,0,0,0,0,0,0,0,0,-1,1049,778,0,0
-168,246,0,0,0,0,0,0,0,0,0,-1,1056,778,0,0
-161,246,0,0,0,0,0,0,0,0,0,-1,1063,778,0,0
-154,246,0,0,0,0,0,0,0,0,0,-1,1070,778,0,0
-147,246,0,0,0,0,0,0,0,0,0,-1,1077,778,0,0
-140,246,0,0,0,0,0,0,0,0,0,-1,1084,778,0,0
-133,246,0,0,0,0,0,0,0,0,0,-1,1091,778,0,0
-126,246,0,0,0,0,0,0,0,0,0,-1,1098,778,0,0
-119,246,0,0,0,0,0,0,0,0,0,-1,1105,778,0,0
-112,246,0,0,0,0,0,0,0,0,0,-1,1112,778,0,0
-105,246,0,0,0,0,0,0,0,0,0,-1,1119,778,0,0
-98,246,0,0,0,0,0,0,0,0,0,-1,1126,778,0,0
-91,246,0,0,0,0,0,0,0,0,0,-1,1133,778,0,0
-84,246,0,0,0,0,0,0,0,0,0,-1,1140,778,0,0
-77,246,0,0,0,0,0,0,0,0,0,-1,1147,778,0,0
-70,246,0,0,0,0,0,0,0,0,0,-1,1154,778,0,0
-63,246,0,0,0,0,0,0,0,0,0,-1,1161,778,0,0
-56,246,0,0,0,0,0,0,0,0,0,-1,1168,778,0,0
-49,246,0,0,0,0,0,0,0,0,0,-1,1175,778,0,0
-42,246,0,0,0,0,0,0,0,0,0,-1,1182,778,0,0
-35,246,0,0,0,0,0,0,0,0,0,-1,1189,778,0,0
-28,246,0,0,0,0,0,0,0,0,0,-1,1196,778,0,0
-21,246,0,0,0,0,0,0,0,0,0,-1,1203,778,0,0
-14,246,0,0,0,0,0,0,0,0,0,-1,1210,778,0,0
-7,246,0,0,0,0,0,0,0,0,0,-1,1217,778,0,0
0,246,0,0,0,0,0,0,0,0,0,-1,1224,778,0,0
7,246,0,0,0,0,0,0,0,0,0,-1,1231,778,0,0
14,246,0,0,0,0,0,0,0,0,0,-1,1238,778,0,0
21,246,0,0,0,0,0,0,0,0,0,-1,1245,778,0,0
28,246,0,0,0,0,0,0,0,0,0,-1,1252,778,0,0
35,246,0,0,0,0,0,0,0,0,0,-1,1259,778,0,0
42,246,0,0,0,0,0,0,0,0,0,-1,1266,778,0,0
49,246,0,0,0,0,0,0,0,0,0,-1,1273,778,0,0
56,246,0,0,0,0,0,0,0,0,0,-1,1280,778,0,0
63,246,0,0,0,0,0,0,0,0,0,-1,1287,778,0,0
70,246,0,0,0,0,0,0,0,0,0,-1,1294,778,0,0
77,246,0,0,0,0,0,0,0,0,0,-1,1301,778,0,0
84,246,0,0,0,0,0,0,0,0,0,-1,1308,778,0,0
91,246,0,0,0,0,0,0,0,0,0,-1,1315,778,0,0
98,246,0,0,0,0,0,0,0,0,0,-1,1322,778,0,0
105,246,0,0,0,0,0,0,0,0,0,-1,1329,778,0,0
112,246,0,0,0,0,0,0,0,0,0,-1,1336,778,0,0
119,246,0,0,0,0,0,0,0,0,0,-1,1343,778,0,0
126,246,0,0,0,0,0,0,0,0,0,-1,1350,778,0,0
133,246,0,0,0,0,0,0,0,0,0,-1,1357,778,0,0
140,246,0,0,0,0,0,0,0,0,0,-1,1364,778,0,0
147,246,0,0,0,0,0,0,0,0,0,-1,1371,778,0,0
154,246,0,0,0,0,0,0,0,0,0,-1,1378,778,0,0
161,246,0,0,0,0,0,0,0,0,0,-1,1385,778,0,0
168,246,0,0,0,0,0,0,0,0,0,-1,1392,778,0,0
175,246,0,0,0,0,0,0,0,0,0,-1,1399,778,0,0
182,246,0,0,0,0,0,0,0,0,0,-1,1406,778,0,0
189,246,0,0,0,0,0,0,0,0,0,-1,1413,778,0,0
196,246,0,0,0,0,0,0,0,0,0,-1,1420,778,0,0
203,246,0,0,0,0,0,0,0,0,0,-1,1427,778,0,0
210,246,0,0,0,0,0,0,0,0,0,-1,1434,778,0,0
217,246,0,0,0,0,0,0,0,0,0,-1,1441,778,0,0
224,246,0,0,0,0,0,0,0,0,0,-1,1448,778,0,0
231,246,0,0,0,0,0,0,0,0,0,-1,1455,778,0,0
238,246,0,0,0,0,0,0,0,0,0,-1,1462,778,0,0
245,246,0,0,0,0,0,0,0,0,0,-1,1469,778,0,0
252,246,0,0,0,0,0,0,0,0,0,-1,1476,778,0,0
259,246,0,0,0,0,0,0,0,0,0,-1,1483,778,0,0
266,246,0,0,0,0,0,0,0,0,0,-1,1490,778,0,0
273,246,0,0,0,0,0,0,0,0,0,-1,1497,778,0,0
280,246,0,0,0,0,0,0,0,0,0,-1,1504,778,0,0
287,246,0,0,0,0,0,0,0,0,0,-1,1511,778,0,0
294,246,0,0,0,0,0,0,0,0,0,-1,1518,778,0,0
301,246,0,0,0,0,0,0,0,0,0,-1,1525,778,0,0
308,246,0,0,0,0,0,0,0,0,0,-1,1532,778,0,0
315,246,0,0,0,0,0,0,0,0,0,-1,1539,778,0,0
322,246,0,0,0,0,0,0,0,0,0,-1,1546,778,0,0
329,246,0,0,0,0,0,0,0,0,0,-1,1553,778,0,0
336,246,0,0,0,0,0,0,0,0,0,-1,1560,778,0,0
343,246,0,0,0,0,0,0,0,0,0,-1,1567,778,0,0
350,246,0,0,0,0,0,0,0,0,0,-1,1574,778,0,0
357,246,0,0,0,0,0,0,0,0,0,-1,1581,778,0,0
364,246,0,0,0,0,0,0,0,0,0,-1,1588,778,0,0
371,246,0,0,0,0,0,0,0,0,0,-1,1595,778,0,0
378,246,0,0,0,0,0,0,0,0,0,-1,1602,778,0,0
385,246,0,0,0,0,0,0,0,0,0,-1,1609,778,0,0
392,246,0,0,0,0,0,0,0,0,0,-1,1616,778,0,0
399,246,0,0,0,0,0,0,0,0,0,-1,1623,778,0,0
406,246,0,0,0,0,0,0,0,0,0,-1,1630,778,0,0
413,246,0,0,0,0,0,0,0,0,0,-1,1637,778,0,0
420,246,0,0,0,0,0,0,0,0,0,-1,1644,778,0,0
427,246,0,0,0,0,0,0,0,0,0,-1,1651,778,0,0
434,246,0,0,0,0,0,0,0,0,0,-1,1658,778,0,0
441,246,0,0,0,0,0,0,0,0,0,-1,1665,778,0,0
448,246,0,0,0,0,0,0,0,0,0,-1,1672,778,0,0
455,246,0,0,0,0,0,0,0,0,0,-1,1679,778,0,0
462,246,0,0,0,0,0,0,0,0,0,-1,1686,778,0,0
469,246,0,0,0,0,0,0,0,0,0,-1,1693,778,0,0
476,246,0,0,0,0,0,0,0,0,0,-1,1700,778,0,0
483,246,0,0,0,0,0,0,0,0,0,-1,1707,778,0,0
490,246,0,0,0,0,0,0,0,0,0,-1,1714,778,0,0
497,246,0,0,0,0,0,0,0,0,0,-1,1721,778,0,0
504,246,0,0,0,0,0,0,0,0,0,-1,1728,778,0,0
511,246,0,0,0,0,0,0,0,0,0,-1,1735,778,0,0
518,246,0,0,0,0,0,0,0,0,0,-1,1742,778,0,0
525,246,0,0,0,0,0,0,0,0,0,-1,1749,778,0,0
532,246,0,0,0,0,0,0,0,0,0,-1,1756,778,0,0
539,246,0,0,0,0,0,0,0,0,0,-1,1763,778,0,0
546,246,0,0,0,0,0,0,0,0,0,-1,1770,778,0,0
553,246,0,0,0,0,0,0,0,0,0,-1,1777,778,0,0
560,246,0,0,0,0,0,0,0,0,0,-1,1784,778,0,0
567,246,0,0,0,0,0,0,0,0,0,-1,1791,778,0,0
574,246,0,0,0,0,0,0,0,0,0,-1,1798,778,0,0
581,246,159.512,5.6759,0,0,0,0,0,0,0,-1,1805,778,159.512,-5.67592
588,246,159.525,5.79028,0,0,0,0,0,0,0,-1,1812,778,159.525,-5.79026
595,246,159.729,5.69257,0,0,0,0,0,0,0,-1,1819,778,159.729,-5.69254
602,246,107.337,2.6972,0,0,0,0,0,0,0,-1,1826,778,107.337,-2.69723
609,246,65.04,3.03278,0,0,0,0,0,0,0,-1,1833,778,65.04,-3.03277
616,246,60.4568,3.98492,0,0,0,0,0,0,0,-1,1840,778,60.4568,-3.98491
623,246,55.8947,3.95953,0,0,0,0,0,0,0,-1,1847,778,55.8947,-3.95952
630,246,49.5938,1.99902,0,0,0,0,0,0,0,-1,1854,778,49.5937,-1.999
637,246,29.5785,0.837585,0,0,0,0,0,0,0,-1,1861,778,29.5785,-0.837606
644,246,28.1232,-1.43188,0,0,0,0,0,0,0,-1,1868,778,28.1232,1.43188
651,246,48.5865,-4.32922,0,0,0,0,0,0,0,-1,1875,778,48.5865,4.32921
658,246,72.3572,-5.37158,0,0,0,0,0,0,0,-1,1882,778,72.3571,5.37156
665,246,86.7817,-3.43433,0,0,0,0,0,0,0,-1,1889,778,86.7817,3.43432
672,246,117.146,2.18835,0,0,0,0,0,0,0,-1,1896,778,117.146,-2.18838
679,246,116.676,4.53998,-0.00621699,0.00165752,-0.00445211,0.00366361,-0.00822307,-1.14745,0.00702905,0.0310032,1903,778,116.676,-4.53995
686,246,116.216,6.93005,-0.00610681,0.00652121,-0.00696259,0.00960638,-0.00919197,-1.15369,0.0108541,0.0351474,1910,778,116.216,-6.93004
693,246,115.836,9.11768,-0.00613456,0.0117936,-0.00942569,0.0158372,-0.0101781,-1.16555,0.0151379,0.0276148,1917,778,115.836,-9.11766
700,246,115.481,11.2097,-0.00637324,0.017386,-0.0118199,0.0222645,-0.0112518,-1.17936,0.0196957,0.0214042,1924,778,115.481,-11.2097
707,246,115.004,13.4124,-0.00692435,0.0232715,-0.0141167,0.0288431,-0.0124959,-1.19488,0.0244812,0.019787,1931,778,115.004,-13.4123
714,246,114.605,15.531,-0.00787946,0.0294125,-0.0163519,0.0355668,-0.0140338,-1.21083,0.0295228,0.0290425,1938,778,114.605,-15.531
721,246,114.156,17.4572,0,0,0,0,0,0,0,-1,1945,778,114.156,-17.4572
728,246,111.41,18.7285,0,0,0,0,0,0,0,-1,1952,778,111.41,-18.7284
735,246,98.2612,18.2271,0,0,0,0,0,0,0,-1,1959,778,98.2612,-18.2271
742,246,31.7356,6.70013,0,0,0,0,0,0,0,-1,1966,778,31.7356,-6.70011
749,246,32.3883,7.69324,0,0,0,0,0,0,0,-1,1973,778,32.3883,-7.69322
756,246,33.6919,3.45264,0,0,0,0,0,0,0,-1,1980,778,33.6919,-3.45262
763,246,0,0,0,0,0,0,0,0,0,-1,1987,778,0,0
770,246,0,0,0,0,0,0,0,0,0,-1,1994,778,0,0
777,246,0,0,0,0,0,0,0,0,0,-1,2001,778,0,0
784,246,0,0,0,0,0,0,0,0,0,-1,2008,778,0,0
791,246,0,0,0,0,0,0,0,0,0,-1,2015,778,0,0
798,246,0,0,0,0,0,0,0,0,0,-1,2022,778,0,0
805,246,0,0,0,0,0,0,0,0,0,-1,2029,778,0,0
812,246,0,0,0,0,0,0,0,0,0,-1,2036,778,0,0
-700,239,0,0,0,0,0,0,0,0,0,-1,524,785,0,0
-693,239,0,0,0,0,0,0,0,0,0,-1,531,785,0,0
-686,239,0,0,0,0,0,0,0,0,0,-1,538,785,0,0
-679,239,0,0,0,0,0,0,0,0,0,-1,545,785,0,0
-672,239,0,0,0,0,0,0,0,0,0,-1,552,785,0,0
-665,239,0,0,0,0,0,0,0,0,0,-1,559,785,0,0
-658,239,0,0,0,0,0,0,0,0,0,-1,566,785,0,0
-651,239,0,0,0,0,0,0,0,0,0,-1,573,785,0,0
-644,239,0,0,0,0,0,0,0,0,0,-1,580,785,0,0
-637,239,-23.2709,0.465088,0,0,0,0,0,0,0,-1,587,785,-23.271,-0.465116
-630,239,-23.4006,0.956299,0,0,0,0,0,0,0,-1,594,785,-23.4005,-0.956285
-623,239,-30.6328,2.52185,0,0,0,0,0,0,0,-1,601,785,-30.6328,-2.52183
-616,239,-29.1425,1.42139,0,0,0,0,0,0,0,-1,608,785,-29.1425,-1.42139
-609,239,-52.9622,11.0265,0,0,0,0,0,0,0,-1,615,785,-52.9622,-11.0265
-602,239,-60.6862,12.3326,0,0,0,0,0,0,0,-1,622,785,-60.6862,-12.3326
-595,239,-101.804,19.7628,0,0,0,0,0,0,0,-1,629,785,-101.804,-19.7628
-588,239,-106.516,18.2891,0,0,0,0,0,0,0,-1,636,785,-106.516,-18.2891
-581,239,-106.93,15.8074,-0.00274729,0.0311709,0.0103889,0.0341,-0.00567639,1.29599,0.0248426,0.0245803,643,785,-106.93,-15.8075
-574,239,-107.289,13.5534,-0.00202419,0.022773,0.008765,0.0255583,-0.00480948,1.26311,0.0188477,0.0172799,650,785,-107.289,-13.5534
-567,239,-107.507,11.3648,-0.00181392,0.0155089,0.00679749,0.0178577,-0.00416277,1.23809,0.0135083,0.024934,657,785,-107.507,-11.3648
-560,239,-107.899,9.24866,-0.0021293,0.00916579,0.00455708,0.0107751,-0.00373859,1.23133,0.00870155,0.0250804,664,785,-107.899,-9.24866
-553,239,-108.333,7.03357,-0.00295086,0.00356057,0.0021341,0.00419767,-0.00358797,1.28068,0.00449964,0.0265217,671,785,-108.333,-7.03356
-546,239,-108.844,4.625,-0.004435,-0.00121916,-0.000385102,-0.00117369,-0.00448047,-1.45326,0.00268274,0.0462511,678,785,-108.844,-4.62503
-539,239,-109.084,1.85419,0,0,0,0,0,0,0,-1,685,785,-109.084,-1.85418
-532,239,-109.588,-0.32074,0,0,0,0,0,0,0,-1,692,785,-109.588,0.320713
-525,239,-110.049,-2.7973,0,0,0,0,0,0,0,-1,699,785,-110.05,2.7973
-518,239,-40.5128,-6.22827,0,0,0,0,0,0,0,-1,706,785,-40.5128,6.22828
-511,239,-20.9849,-2.09235,0,0,0,0,0,0,0,-1,713,785,-20.9848,2.09234
-504,239,-25.5015,2.00421,0,0,0,0,0,0,0,-1,720,785,-25.5015,-2.00422
-497,239,-40.2453,1.4447,0,0,0,0,0,0,0,-1,727,785,-40.2453,-1.4447
-490,239,-55.7633,-0.30426,0,0,0,0,0,0,0,-1,734,785,-55.7633,0.304271
-483,239,-71.5136,0.470825,0,0,0,0,0,0,0,-1,741,785,-71.5136,-0.470807
-476,239,-71.3347,0.550476,0,0,0,0,0,0,0,-1,748,785,-71.3347,-0.550462
-469,239,-71.1616,0.772156,0,0,0,0,0,0,0,-1,755,785,-71.1616,-0.772161
-462,239,-71.1605,0.909424,0,0,0,0,0,0,0,-1,762,785,-71.1605,-0.909427
-455,239,0,0,0,0,0,0,0,0,0,-1,769,785,0,0
-448,239,0,0,0,0,0,0,0,0,0,-1,776,785,0,0
-441,239,0,0,0,0,0,0,0,0,0,-1,783,785,0,0
-434,239,0,0,0,0,0,0,0,0,0,-1,790,785,0,0
-427,239,0,0,0,0,0,0,0,0,0,-1,797,785,0,0
-420,239,0,0,0,0,0,0,0,0,0,-1,804,785,0,0
-413,239,0,0,0,0,0,0,0,0,0,-1,811,785,0,0
-406,239,0,0,0,0,0,0,0,0,0,-1,818,785,0,0
-399,239,0,0,0,0,0,0,0,0,0,-1,825,785,0,0
-392,239,0,0,0,0,0,0,0,0,0,-1,832,785,0,0
-385,239,0,0,0,0,0,0,0,0,0,-1,839,785,0,0
-378,239,0,0,0,0,0,0,0,0,0,-1,846,785,0,0
-371,239,0,0,0,0,0,0,0,0,0,-1,853,785,0,0
-364,239,0,0,0,0,0,0,0,0,0,-1,860,785,0,0
-357,239,0,0,0,0,0,0,0,0,0,-1,867,785,0,0
-350,239,0,0,0,0,0,0,0,0,0,-1,874,785,0,0
-343,239,0,0,0,0,0,0,0,0,0,-1,881,785,0,0
-336,239,0,0,0,0,0,0,0,0,0,-1,888,785,0,0
-329,239,0,0,0,0,0,0,0,0,0,-1,895,785,0,0
-322,239,0,0,0,0,0,0,0,0,0,-1,902,785,0,0
-315,239,0,0,0,0,0,0,0,0,0,-1,909,785,0,0
-308,239,0,0,0,0,0,0,0,0,0,-1,916,785,0,0
-301,239,0,0,0,0,0,0,0,0,0,-1,923,785,0,0
-294,239,0,0,0,0,0,0,0,0,0,-1,930,785,0,0
-287,239,0,0,0,0,0,0,0,0,0,-1,937,785,0,0
-280,239,0,0,0,0,0,0,0,0,0,-1,944,785,0,0
-273,239,0,0,0,0,0,0,0,0,0,-1,951,785,0,0
-266,239,0,0,0,0,0,0,0,0,0,-1,958,785,0,0
-259,239,0,0,0,0,0,0,0,0,0,-1,965,785,0,0
-252,239,0,0,0,0,0,0,0,0,0,-1,972,785,0,0
-245,239,0,0,0,0,0,0,0,0,0,-1,979,785,0,0
-238,239,0,0,0,0,0,0,0,0,0,-1,986,785,0,0
-231,239,0,0,0,0,0,0,0,0,0,-1,993,785,0,0
-224,239,0,0,0,0,0,0,0,0,0,-1,1000,785,0,0
-217,239,0,0,0,0,0,0,0,0,0,-1,1007,785,0,0
-210,239,0,0,0,0,0,0,0,0,0,-1,1014,785,0,0
-203,239,0,0,0,0,0,0,0,0,0,-1,1021,785,0,0
-196,239,0,0,0,0,0,0,0,0,0,-1,1028,785,0,0
-189,239,0,0,0,0,0,0,0,0,0,-1,1035,785,0,0
-182,239,0,0,0,0,0,0,0,0,0,-1,1042,785,0,0
-175,239,0,0,0,0,0,0,0,0,0,-1,1049,785,0,0
-168,239,0,0,0,0,0,0,0,0,0,-1,1056,785,0,0
-161,239,0,0,0,0,0,0,0,0,0,-1,1063,785,0,0
-154,239,0,0,0,0,0,0,0,0,0,-1,1070,785,0,0
-147,239,0,0,0,0,0,0,0,0,0,-1,1077,785,0,0
-140,239,0,0,0,0,0,0,0,0,0,-1,1084,785,0,0
-133,239,0,0,0,0,0,0,0,0,0,-1,1091,785,0,0
-126,239,0,0,0,0,0,0,0,0,0,-1,1098,785,0,0
-119,239,0,0,0,0,0,0,0,0,0,-1,1105,785,0,0
-112,239,0,0,0,0,0,0,0,0,0,-1,1112,785,0,0
-105,239,0,0,0,0,0,0,0,0,0,-1,1119,785,0,0
-98,239,0,0,0,0,0,0,0,0,0,-1,1126,785,0,0
-91,239,0,0,0,0,0,0,0,0,0,-1,1133,785,0,0
-84,239,0,0,0,0,0,0,0,0,0,-1,1140,785,0,0
-77,239,0,0,0,0,0,0,0,0,0,-1,1147,785,0,0
-70,239,0,0,0,0,0,0,0,0,0,-1,1154,785,0,0
-63,239,0,0,0,0,0,0,0,0,0,-1,1161,785,0,0
-56,239,0,0,0,0,0,0,0,0,0,-1,1168,785,0,0
-49,239,0,0,0,0,0,0,0,0,0,-1,1175,785,0,0
-42,239,0,0,0,0,0,0,0,0,0,-1,1182,785,0,0
-35,239,0,0,0,0,0,0,0,0,0,-1,1189,785,0,0
-28,239,0,0,0,0,0,0,0,0,0,-1,1196,785,0,0
-21,239,0,0,0,0,0,0,0,0,0,-1,1203,785,0,0
-14,239,0,0,0,0,0,0,0,0,0,-1,1210,785,0,0
-7,239,0,0,0,0,0,0,0,0,0,-1,1217,785,0,0
0,239,0,0,0,0,0,0,0,0,0,-1,1224,785,0,0
7,239,0,0,0,0,0,0,0,0,0,-1,1231,785,0,0
14,239,0,0,0,0,0,0,0,0,0,-1,1238,785,0,0
21,239,0,0,0,0,0,0,0,0,0,-1,1245,785,0,0
28,239,0,0,0,0,0,0,0,0,0,-1,1252,785,0,0
35,239,0,0,0,0,0,0,0,0,0,-1,1259,785,0,0
42,239,0,0,0,0,0,0,0,0,0,-1,1266,785,0,0
49,239,0,0,0,0,0,0,0,0,0,-1,1273,785,0,0
56,239,0,0,0,0,0,0,0,0,0,-1,1280,785,0,0
63,239,0,0,0,0,0,0,0,0,0,-1,1287,785,0,0
70,239,0,0,0,0,0,0,0,0,0,-1,1294,785,0,0
77,239,0,0,0,0,0,0,0,0,0,-1,1301,785,0,0
84,239,0,0,0,0,0,0,0,0,0,-1,1308,785,0,0
91,239,0,0,0,0,0,0,0,0,0,-1,1315,785,0,0
98,239,0,0,0,0,0,0,0,0,0,-1,1322,785,0,0
105,239,0,0,0,0,0,0,0,0,0,-1,1329,785,0,0
112,239,0,0,0,0,0,0,0,0,0,-1,1336,785,0,0
119,239,0,0,0,0,0,0,0,0,0,-1,1343,785,0,0
126,239,0,0,0,0,0,0,0,0,0,-1,1350,785,0,0
133,239,0,0,0,0,0,0,0,0,0,-1,1357,785,0,0
140,239,0,0,0,0,0,0,0,0,0,-1,1364,785,0,0
147,239,0,0,0,0,0,0,0,0,0,-1,1371,785,0,0
154,239,0,0,0,0,0,0,0,0,0,-1,1378,785,0,0
161,239,0,0,0,0,0,0,0,0,0,-1,1385,785,0,0
168,239,0,0,0,0,0,0,0,0,0,-1,1392,785,0,0
175,239,0,0,0,0,0,0,0,0,0,-1,1399,785,0,0
182,239,0,0,0,0,0,0,0,0,0,-1,1406,785,0,0
189,239,0,0,0,0,0,0,0,0,0,-1,1413,785,0,0
196,239,0,0,0,0,0,0,0,0,0,-1,1420,785,0,0
203,239,0,0,0,0,0,0,0,0,0,-1,1427,785,0,0
210,239,0,0,0,0,0,0,0,0,0,-1,1434,785,0,0
217,239,0,0,0,0,0,0,0,0,0,-1,1441,785,0,0
224,239,0,0,0,0,0,0,0,0,0,-1,1448,785,0,0
231,239,0,0,0,0,0,0,0,0,0,-1,1455,785,0,0
238,239,0,0,0,0,0,0,0,0,0,-1,1462,785,0,0
245,239,0,0,0,0,0,0,0,0,0,-1,1469,785,0,0
252,239,0,0,0,0,0,0,0,0,0,-1,1476,785,0,0
259,239,0,0,0,0,0,0,0,0,0,-1,1483,785,0,0
266,239,0,0,0,0,0,0,0,0,0,-1,1490,785,0,0
273,239,0,0,0,0,0,0,0,0,0,-1,1497,785,0,0
280,239,0,0,0,0,0,0,0,0,0,-1,1504,785,0,0
287,239,0,0,0,0,0,0,0,0,0,-1,1511,785,0,0
294,239,0,0,0,0,0,0,0,0,0,-1,1518,785,0,0
301,239,0,0,0,0,0,0,0,0,0,-1,1525,785,0,0
308,239,0,0,0,0,0,0,0,0,0,-1,1532,785,0,0
315,239,0,0,0,0,0,0,0,0,0,-1,1539,785,0,0
322,239,0,0,0,0,0,0,0,0,0,-1,1546,785,0,0
329,239,0,0,0,0,0,0,0,0,0,-1,1553,785,0,0
336,239,0,0,0,0,0,0,0,0,0,-1,1560,785,0,0
343,239,0,0,0,0,0,0,0,0,0,-1,1567,785,0,0
350,239,0,0,0,0,0,0,0,0,0,-1,1574,785,0,0
357,239,0,0,0,0,0,0,0,0,0,-1,1581,785,0,0
364,239,0,0,0,0,0,0,0,0,0,-1,1588,785,0,0
371,239,0,0,0,0,0,0,0,0,0,-1,1595,785,0,0
378,239,0,0,0,0,0,0,0,0,0,-1,1602,785,0,0
385,239,0,0,0,0,0,0,0,0,0,-1,1609,785,0,0
392,239,0,0,0,0,0,0,0,0,0,-1,1616,785,0,0
399,239,0,0,0,0,0,0,0,0,0,-1,1623,785,0,0
406,239,0,0,0,0,0,0,0,0,0,-1,1630,785,0,0
413,239,0,0,0,0,0,0,0,0,0,-1,1637,785,0,0
420,239,0,0,0,0,0,0,0,0,0,-1,1644,785,0,0
427,239,0,0,0,0,0,0,0,0,0,-1,1651,785,0,0
434,239,0,0,0,0,0,0,0,0,0,-1,1658,785,0,0
441,239,0,0,0,0,0,0,0,0,0,-1,1665,785,0,0
448,239,0,0,0,0,0,0,0,0,0,-1,1672,785,0,0
455,239,0,0,0,0,0,0,0,0,0,-1,1679,785,0,0
462,239,0,0,0,0,0,0,0,0,0,-1,1686,785,0,0
469,239,0,0,0,0,0,0,0,0,0,-1,1693,785,0,0
476,239,0,0,0,0,0,0,0,0,0,-1,1700,785,0,0
483,239,0,0,0,0,0,0,0,0,0,-1,1707,785,0,0
490,239,0,0,0,0,0,0,0,0,0,-1,1714,785,0,0
497,239,0,0,0,0,0,0,0,0,0,-1,1721,785,0,0
504,239,0,0,0,0,0,0,0,0,0,-1,1728,785,0,0
511,239,0,0,0,0,0,0,0,0,0,-1,1735,785,0,0
518,239,0,0,0,0,0,0,0,0,0,-1,1742,785,0,0
525,239,0,0,0,0,0,0,0,0,0,-1,1749,785,0,0
532,239,0,0,0,0,0,0,0,0,0,-1,1756,785,0,0
539,239,0,0,0,0,0,0,0,0,0,-1,1763,785,0,0
546,239,0,0,0,0,0,0,0,0,0,-1,1770,785,0,0
553,239,0,0,0,0,0,0,0,0,0,-1,1777,785,0,0
560,239,0,0,0,0,0,0,0,0,0,-1,1784,785,0,0
567,239,0,0,0,0,0,0,0,0,0,-1,1791,785,0,0
574,239,0,0,0,0,0,0,0,0,0,-1,1798,785,0,0
581,239,159.465,5.74628,0,0,0,0,0,0,0,-1,1805,785,159.465,-5.74627
588,239,159.457,5.70581,0,0,0,0,0,0,0,-1,1812,785,159.457,-5.70579
595,239,159.576,5.61127,0,0,0,0,0,0,0,-1,1819,785,159.576,-5.61126
602,239,159.685,5.60876,0,0,0,0,0,0,0,-1,1826,785,159.685,-5.60877
609,239,100.036,2.43237,0,0,0,0,0,0,0,-1,1833,785,100.036,-2.43237
616,239,55.8469,3.72443,0,0,0,0,0,0,0,-1,1840,785,55.8469,-3.72445
623,239,65.0618,2.66516,0,0,0,0,0,0,0,-1,1847,785,65.0617,-2.66519
630,239,54.5767,3.64667,0,0,0,0,0,0,0,-1,1854,785,54.5766,-3.64667
637,239,39.5542,2.54114,0,0,0,0,0,0,0,-1,1861,785,39.5543,-2.54114
644,239,18.3466,0.735413,0,0,0,0,0,0,0,-1,1868,785,18.3465,-0.735414
651,239,34.2471,-2.15778,0,0,0,0,0,0,0,-1,1875,785,34.2471,2.1578
658,239,77.917,-5.03833,0,0,0,0,0,0,0,-1,1882,785,77.917,5.03835
665,239,79.9928,-3.56384,0,0,0,0,0,0,0,-1,1889,785,79.9928,3.56385
672,239,117.314,2.28534,0,0,0,0,0,0,0,-1,1896,785,117.314,-2.28532
679,239,119.096,4.94696,0,0,0,0,0,0,0,-1,1903,785,119.096,-4.94694
686,239,118.634,7.38892,0,0,0,0,0,0,0,-1,1910,785,118.634,-7.38891
693,239,118.36,9.47705,-0.00663907,0.010358,-0.00797636,0.0135148,-0.0097959,-1.19394,0.0135154,0.0339525,1917,785,118.36,-9.47703
700,239,117.822,11.6216,-0.00736986,0.015935,-0.0106571,0.0200735,-0.0115083,-1.20039,0.0184559,0.0188151,1924,785,117.822,-11.6217
707,239,117.402,13.7085,-0.0084457,0.0216484,-0.013256,0.0266547,-0.013452,-1.2097,0.0235701,0.0161386,1931,785,117.402,-13.7085
714,239,117.027,15.754,-0.00989455,0.0274605,-0.0157776,0.0332326,-0.0156666,-1.22008,0.0288328,0.0178561,1938,785,117.027,-15.754
721,239,116.63,17.757,-0.0118816,0.0332653,-0.0181479,0.0396557,-0.0182721,-1.23223,0.0341957,0.0417176,1945,785,116.63,-17.757
728,239,116.177,19.7991,0,0,0,0,0,0,0,-1,1952,785,116.178,-19.799
735,239,77.1766,10.8863,0,0,0,0,0,0,0,-1,1959,785,77.1767,-10.8863
742,239,32.4141,7.6665,0,0,0,0,0,0,0,-1,1966,785,32.4141,-7.6665
749,239,32.1489,3.4411,0,0,0,0,0,0,0,-1,1973,785,32.149,-3.44109
756,239,32.9064,3.6687,0,0,0,0,0,0,0,-1,1980,785,32.9063,-3.66873
763,239,0,0,0,0,0,0,0,0,0,-1,1987,785,0,0
770,239,0,0,0,0,0,0,0,0,0,-1,1994,785,0,0
777,239,0,0,0,0,0,0,0,0,0,-1,2001,785,0,0
784,239,0,0,0,0,0,0,0,0,0,-1,2008,785,0,0
791,239,0,0,0,0,0,0,0,0,0,-1,2015,785,0,0
798,239,0,0,0,0,0,0,0,0,0,-1,2022,785,0,0
805,239,0,0,0,0,0,0,0,0,0,-1,2029,785,0,0
812,239,0,0,0,0,0,0,0,0,0,-1,2036,785,0,0
-700,232,0,0,0,0,0,0,0,0,0,-1,524,792,0,0
-693,232,0,0,0,0,0,0,0,0,0,-1,531,792,0,0
-686,232,0,0,0,0,0,0,0,0,0,-1,538,792,0,0
-679,232,0,0,0,0,0,0,0,0,0,-1,545,792,0,0
-672,232,0,0,0,0,0,0,0,0,0,-1,552,792,0,0
-665,232,0,0,0,0,0,0,0,0,0,-1,559,792,0,0
-658,232,0,0,0,0,0,0,0,0,0,-1,566,792,0,0
-651,232,0,0,0,0,0,0,0,0,0,-1,573,792,0,0
-644,232,-41.2348,4.28168,0,0,0,0,0,0,0,-1,580,792,-41.2348,-4.28166
-637,232,-42.1427,3.51453,0,0,0,0,0,0,0,-1,587,792,-42.1427,-3.51452
-630,232,-32.2345,1.80212,0,0,0,0,0,0,0,-1,594,792,-32.2345,-1.80211
-623,232,-31.5665,1.05115,0,0,0,0,0,0,0,-1,601,792,-31.5664,-1.05112
-616,232,-30.6812,0.432861,0,0,0,0,0,0,0,-1,608,792,-30.6812,-0.432881
-609,232,-100.422,23.6974,0,0,0,0,0,0,0,-1,615,792,-100.422,-23.6974
-602,232,-80.7242,16.2311,0,0,0,0,0,0,0,-1,622,792,-80.7242,-16.2311
-595,232,-108.65,20.4827,0,0,0,0,0,0,0,-1,629,792,-108.65,-20.4826
-588,232,-108.912,18.2198,-0.00590874,0.0382968,0.00994838,0.0404325,-0.00804443,1.35933,0.0299982,0.0256466,636,792,-108.912,-18.2198
-581,232,-109.28,15.989,-0.00395481,0.0289595,0.00897406,0.0312473,-0.00624257,1.32118,0.0231941,0.0119532,643,792,-109.28,-15.989
-574,232,-109.595,13.9247,-0.00286861,0.0206622,0.00739415,0.0227928,-0.00499919,1.29025,0.0171068,0.011584,650,792,-109.595,-13.9247
-567,232,-109.93,11.7871,-0.00232052,0.0133215,0.00547269,0.0150461,-0.00404511,1.26552,0.0116163,0.0143984,657,792,-109.929,-11.7871
-560,232,-110.302,9.63177,-0.00237844,0.0068093,0.00323523,0.00783418,-0.00340333,1.26401,0.00665396,0.0190615,664,792,-110.302,-9.63175
-553,232,-110.781,7.4837,-0.00303899,0.0011439,0.000719089,0.00126407,-0.00315916,1.40522,0.00263072,0.0296168,671,792,-110.781,-7.48371
-546,232,-111.277,5.10803,0,0,0,0,0,0,0,-1,678,792,-111.277,-5.10806
-539,232,-110.947,2.50464,0,0,0,0,0,0,0,-1,685,792,-110.947,-2.50464
-532,232,-111.919,0.0449219,0,0,0,0,0,0,0,-1,692,792,-111.919,-0.0449383
-525,232,-72.6752,-4.75323,0,0,0,0,0,0,0,-1,699,792,-72.6752,4.75324
-518,232,-20.8098,-3.08154,0,0,0,0,0,0,0,-1,706,792,-20.8098,3.08155
-511,232,-21.6708,-0.962708,0,0,0,0,0,0,0,-1,713,792,-21.6708,0.962731
-504,232,-34.2155,0.346985,0,0,0,0,0,0,0,-1,720,792,-34.2155,-0.346955
-497,232,-52.7195,0.518677,0,0,0,0,0,0,0,-1,727,792,-52.7195,-0.518678
-490,232,-71.4019,0.270386,0,0,0,0,0,0,0,-1,734,792,-71.4019,-0.270382
-483,232,-71.4127,0.497375,0,0,0,0,0,0,0,-1,741,792,-71.4127,-0.497367
-476,232,-71.2791,0.580017,0,0,0,0,0,0,0,-1,748,792,-71.2791,-0.580024
-469,232,-71.2144,0.716919,0,0,0,0,0,0,0,-1,755,792,-71.2143,-0.716921
-462,232,0,0,0,0,0,0,0,0,0,-1,762,792,0,0
-455,232,0,0,0,0,0,0,0,0,0,-1,769,792,0,0
-448,232,0,0,0,0,0,0,0,0,0,-1,776,792,0,0
-441,232,0,0,0,0,0,0,0,0,0,-1,783,792,0,0
-434,232,0,0,0,0,0,0,0,0,0,-1,790,792,0,0
-427,232,0,0,0,0,0,0,0,0,0,-1,797,792,0,0
-420,232,0,0,0,0,0,0,0,0,0,-1,804,792,0,0
-413,232,0,0,0,0,0,0,0,0,0,-1,811,792,0,0
-406,232,0,0,0,0,0,0,0,0,0,-1,818,792,0,0
-399,232,0,0,0,0,0,0,0,0,0,-1,825,792,0,0
-392,232,0,0,0,0,0,0,0,0,0,-1,832,792,0,0
-385,232,0,0,0,0,0,0,0,0,0,-1,839,792,0,0
-378,232,0,0,0,0,0,0,0,0,0,-1,846,792,0,0
-371,232,0,0,0,0,0,0,0,0,0,-1,853,792,0,0
-364,232,0,0,0,0,0,0,0,0,0,-1,860,792,0,0
-357,232,0,0,0,0,0,0,0,0,0,-1,867,792,0,0
-350,232,0,0,0,0,0,0,0,0,0,-1,874,792,0,0
-343,232,0,0,0,0,0,0,0,0,0,-1,881,792,0,0
-336,232,0,0,0,0,0,0,0,0,0,-1,888,792,0,0
-329,232,0,0,0,0,0,0,0,0,0,-1,895,792,0,0
-322,232,0,0,0,0,0,0,0,0,0,-1,902,792,0,0
-315,232,0,0,0,0,0,0,0,0,0,-1,909,792,0,0
-308,232,0,0,0,0,0,0,0,0,0,-1,916,792,0,0
-301,232,0,0,0,0,0,0,0,0,0,-1,923,792,0,0
-294,232,0,0,0,0,0,0,0,0,0,-1,930,792,0,0
-287,232,0,0,0,0,0,0,0,0,0,-1,937,792,0,0
-280,232,0,0,0,0,0,0,0,0,0,-1,944,792,0,0
-273,232,0,0,0,0,0,0,0,0,0,-1,951,792,0,0
-266,232,0,0,0,0,0,0,0,0,0,-1,958,792,0,0
-259,232,0,0,0,0,0,0,0,0,0,-1,965,792,0,0
-252,232,0,0,0,0,0,0,0,0,0,-1,972,792,0,0
-245,232,0,0,0,0,0,0,0,0,0,-1,979,792,0,0
-238,232,0,0,0,0,0,0,0,0,0,-1,986,792,0,0
-231,232,0,0,0,0,0,0,0,0,0,-1,993,792,0,0
-224,232,0,0,0,0,0,0,0,0,0,-1,1000,792,0,0
-217,232,0,0,0,0,0,0,0,0,0,-1,1007,792,0,0
-210,232,0,0,0,0,0,0,0,0,0,-1,1014,792,0,0
-203,232,0,0,0,0,0,0,0,0,0,-1,1021,792,0,0
-196,232,0,0,0,0,0,0,0,0,0,-1,1028,792,0,0
-189,232,0,0,0,0,0,0,0,0,0,-1,1035,792,0,0
-182,232,0,0,0,0,0,0,0,0,0,-1,1042,792,0,0
-175,232,0,0,0,0,0,0,0,0,0,-1,1049,792,0,0
-168,232,0,0,0,0,0,0,0,0,0,-1,1056,792,0,0
-161,232,0,0,0,0,0,0,0,0,0,-1,1063,792,0,0
-154,232,0,0,0,0,0,0,0,0,0,-1,1070,792,0,0
-147,232,0,0,0,0,0,0,0,0,0,-1,1077,792,0,0
-140,232,0,0,0,0,0,0,0,0,0,-1,1084,792,0,0
-133,232,0,0,0,0,0,0,0,0,0,-1,1091,792,0,0
-126,232,0,0,0,0,0,0,0,0,0,-1,1098,792,0,0
-119,232,0,0,0,0,0,0,0,0,0,-1,1105,792,0,0
-112,232,0,0,0,0,0,0,0,0,0,-1,1112,792,0,0
-105,232,0,0,0,0,0,0,0,0,0,-1,1119,792,0,0
-98,232,0,0,0,0,0,0,0,0,0,-1,1126,792,0,0
-91,232,0,0,0,0,0,0,0,0,0,-1,1133,792,0,0
-84,232,0,0,0,0,0,0,0,0,0,-1,1140,792,0,0
-77,232,0,0,0,0,0,0,0,0,0,-1,1147,792,0,0
-70,232,0,0,0,0,0,0,0,0,0,-1,1154,792,0,0
-63,232,0,0,0,0,0,0,0,0,0,-1,1161,792,0,0
-56,232,0,0,0,0,0,0,0,0,0,-1,1168,792,0,0
-49,232,0,0,0,0,0,0,0,0,0,-1,1175,792,0,0
-42,232,0,0,0,0,0,0,0,0,0,-1,1182,792,0,0
-35,232,0,0,0,0,0,0,0,0,0,-1,1189,792,0,0
-28,232,0,0,0,0,0,0,0,0,0,-1,1196,792,0,0
-21,232,0,0,0,0,0,0,0,0,0,-1,1203,792,0,0
-14,232,0,0,0,0,0,0,0,0,0,-1,1210,792,0,0
-7,232,0,0,0,0,0,0,0,0,0,-1,1217,792,0,0
0,232,0,0,0,0,0,0,0,0,0,-1,1224,792,0,0
7,232,0,0,0,0,0,0,0,0,0,-1,1231,792,0,0
14,232,0,0,0,0,0,0,0,0,0,-1,1238,792,0,0
21,232,0,0,0,0,0,0,0,0,0,-1,1245,792,0,0
28,232,0,0,0,0,0,0,0,0,0,-1,1252,792,0,0
35,232,0,0,0,0,0,0,0,0,0,-1,1259,792,0,0
42,232,0,0,0,0,0,0,0,0,0,-1,1266,792,0,0
49,232,0,0,0,0,0,0,0,0,0,-1,1273,792,0,0
56,232,0,0,0,0,0,0,0,0,0,-1,1280,792,0,0
63,232,0,0,0,0,0,0,0,0,0,-1,1287,792,0,0
70,232,0,0,0,0,0,0,0,0,0,-1,1294,792,0,0
77,232,0,0,0,0,0,0,0,0,0,-1,1301,792,0,0
84,232,0,0,0,0,0,0,0,0,0,-1,1308,792,0,0
91,232,0,0,0,0,0,0,0,0,0,-1,1315,792,0,0
98,232,0,0,0,0,0,0,0,0,0,-1,1322,792,0,0
105,232,0,0,0,0,0,0,0,0,0,-1,1329,792,0,0
112,232,0,0,0,0,0,0,0,0,0,-1,1336,792,0,0
119,232,0,0,0,0,0,0,0,0,0,-1,1343,792,0,0
126,232,0,0,0,0,0,0,0,0,0,-1,1350,792,0,0
133,232,0,0,0,0,0,0,0,0,0,-1,1357,792,0,0
140,232,0,0,0,0,0,0,0,0,0,-1,1364,792,0,0
147,232,0,0,0,0,0,0,0,0,0,-1,1371,792,0,0
154,232,0,0,0,0,0,0,0,0,0,-1,1378,792,0,0
161,232,0,0,0,0,0,0,0,0,0,-1,1385,792,0,0
168,232,0,0,0,0,0,0,0,0,0,-1,1392,792,0,0
175,232,0,0,0,0,0,0,0,0,0,-1,1399,792,0,0
182,232,0,0,0,0,0,0,0,0,0,-1,1406,792,0,0
189,232,0,0,0,0,0,0,0,0,0,-1,1413,792,0,0
196,232,0,0,0,0,0,0,0,0,0,-1,1420,792,0,0
203,232,0,0,0,0,0,0,0,0,0,-1,1427,792,0,0
210,232,0,0,0,0,0,0,0,0,0,-1,1434,792,0,0
217,232,0,0,0,0,0,0,0,0,0,-1,1441,792,0,0
224,232,0,0,0,0,0,0,0,0,0,-1,1448,792,0,0
231,232,0,0,0,0,0,0,0,0,0,-1,1455,792,0,0
238,232,0,0,0,0,0,0,0,0,0,-1,1462,792,0,0
245,232,0,0,0,0,0,0,0,0,0,-1,1469,792,0,0
252,232,0,0,0,0,0,0,0,0,0,-1,1476,792,0,0
259,232,0,0,0,0,0,0,0,0,0,-1,1483,792,0,0
266,232,0,0,0,0,0,0,0,0,0,-1,1490,792,0,0
273,232,0,0,0,0,0,0,0,0,0,-1,1497,792,0,0
280,232,0,0,0,0,0,0,0,0,0,-1,1504,792,0,0
287,232,0,0,0,0,0,0,0,0,0,-1,1511,792,0,0
294,232,0,0,0,0,0,0,0,0,0,-1,1518,792,0,0
301,232,0,0,0,0,0,0,0,0,0,-1,1525,792,0,0
308,232,0,0,0,0,0,0,0,0,0,-1,1532,792,0,0
315,232,0,0,0,0,0,0,0,0,0,-1,1539,792,0,0
322,232,0,0,0,0,0,0,0,0,0,-1,1546,792,0,0
329,232,0,0,0,0,0,0,0,0,0,-1,1553,792,0,0
336,232,0,0,0,0,0,0,0,0,0,-1,1560,792,0,0
343,232,0,0,0,0,0,0,0,0,0,-1,1567,792,0,0
350,232,0,0,0,0,0,0,0,0,0,-1,1574,792,0,0
357,232,0,0,0,0,0,0,0,0,0,-1,1581,792,0,0
364,232,0,0,0,0,0,0,0,0,0,-1,1588,792,0,0
371,232,0,0,0,0,0,0,0,0,0,-1,1595,792,0,0
378,232,0,0,0,0,0,0,0,0,0,-1,1602,792,0,0
385,232,0,0,0,0,0,0,0,0,0,-1,1609,792,0,0
392,232,0,0,0,0,0,0,0,0,0,-1,1616,792,0,0
399,232,0,0,0,0,0,0,0,0,0,-1,1623,792,0,0
406,232,0,0,0,0,0,0,0,0,0,-1,1630,792,0,0
413,232,0,0,0,0,0,0,0,0,0,-1,1637,792,0,0
420,232,0,0,0,0,0,0,0,0,0,-1,1644,792,0,0
427,232,0,0,0,0,0,0,0,0,0,-1,1651,792,0,0
434,232,0,0,0,0,0,0,0,0,0,-1,1658,792,0,0
441,232,0,0,0,0,0,0,0,0,0,-1,1665,792,0,0
448,232,0,0,0,0,0,0,0,0,0,-1,1672,792,0,0
455,232,0,0,0,0,0,0,0,0,0,-1,1679,792,0,0
462,232,0,0,0,0,0,0,0,0,0,-1,1686,792,0,0
469,232,0,0,0,0,0,0,0,0,0,-1,1693,792,0,0
476,232,0,0,0,0,0,0,0,0,0,-1,1700,792,0,0
483,232,0,0,0,0,0,0,0,0,0,-1,1707,792,0,0
490,232,0,0,0,0,0,0,0,0,0,-1,1714,792,0,0
497,232,0,0,0,0,0,0,0,0,0,-1,1721,792,0,0
504,232,0,0,0,0,0,0,0,0,0,-1,1728,792,0,0
511,232,0,0,0,0,0,0,0,0,0,-1,1735,792,0,0
518,232,0,0,0,0,0,0,0,0,0,-1,1742,792,0,0
525,232,0,0,0,0,0,0,0,0,0,-1,1749,792,0,0
532,232,0,0,0,0,0,0,0,0,0,-1,1756,792,0,0
539,232,0,0,0,0,0,0,0,0,0,-1,1763,792,0,0
546,232,0,0,0,0,0,0,0,0,0,-1,1770,792,0,0
553,232,0,0,0,0,0,0,0,0,0,-1,1777,792,0,0
560,232,0,0,0,0,0,0,0,0,0,-1,1784,792,0,0
567,232,0,0,0,0,0,0,0,0,0,-1,1791,792,0,0
574,232,0,0,0,0,0,0,0,0,0,-1,1798,792,0,0
581,232,0,0,0,0,0,0,0,0,0,-1,1805,792,0,0
588,232,159.407,5.65747,0,0,0,0,0,0,0,-1,1812,792,159.407,-5.65746
595,232,159.433,5.51807,0,0,0,0,0,0,0,-1,1819,792,159.433,-5.51805
602,232,159.511,5.50256,0,0,0,0,0,0,0,-1,1826,792,159.511,-5.50256
609,232,159.605,5.59711,0,0,0,0,0,0,0,-1,1833,792,159.605,-5.5971
616,232,95.6742,2.46368,0,0,0,0,0,0,0,-1,1840,792,95.6742,-2.46369
623,232,74.9668,2.53278,0,0,0,0,0,0,0,-1,1847,792,74.9667,-2.5328
630,232,64.9034,2.97992,0,0,0,0,0,0,0,-1,1854,792,64.9035,-2.9799
637,232,47.0471,4.04309,0,0,0,0,0,0,0,-1,1861,792,47.0471,-4.04309
644,232,30.7756,4.24139,0,0,0,0,0,0,0,-1,1868,792,30.7757,-4.24141
651,232,31.6797,-0.564087,0,0,0,0,0,0,0,-1,1875,792,31.6797,0.564059
658,232,79.729,-4.87579,0,0,0,0,0,0,0,-1,1882,792,79.729,4.87581
665,232,79.3129,-3.47662,0,0,0,0,0,0,0,-1,1889,792,79.3128,3.47662
672,232,120.99,3.39392,0,0,0,0,0,0,0,-1,1896,792,120.989,-3.39391
679,232,120.991,5.55304,0,0,0,0,0,0,0,-1,1903,792,120.991,-5.55302
686,232,121.036,7.68433,0,0,0,0,0,0,0,-1,1910,792,121.036,-7.68435
693,232,120.533,9.79755,-0.00591044,0.00891797,-0.0064197,0.0113111,-0.00830353,-1.21398,0.0113688,0.0244571,1917,792,120.533,-9.79757
700,232,120.099,11.9073,-0.00737088,0.0144619,-0.00932203,0.0179005,-0.0108096,-1.2174,0.0167435,0.0196429,1924,792,120.099,-11.9073
707,232,119.819,13.9351,-0.00919577,0.0200644,-0.0120646,0.0243973,-0.0135286,-1.226,0.0221943,0.0247402,1931,792,119.819,-13.9351
714,232,119.458,15.8669,-0.0113863,0.0256672,-0.0146607,0.0307662,-0.0164853,-1.23608,0.0276929,0.0345369,1938,792,119.458,-15.8669
721,232,118.817,17.903,-0.0139811,0.0312035,-0.0170494,0.0369148,-0.0196924,-1.24756,0.0331825,0.0397664,1945,792,118.817,-17.903
728,232,118.398,19.9217,0,0,0,0,0,0,0,-1,1952,792,118.398,-19.9217
735,232,75.9558,10.0535,0,0,0,0,0,0,0,-1,1959,792,75.9558,-10.0535
742,232,25.6461,6.00684,0,0,0,0,0,0,0,-1,1966,792,25.6461,-6.00684
749,232,31.2874,3.74713,0,0,0,0,0,0,0,-1,1973,792,31.2874,-3.74713
756,232,34.9586,15.3984,0,0,0,0,0,0,0,-1,1980,792,34.9586,-15.3984
763,232,35.741,16.6099,0,0,0,0,0,0,0,-1,1987,792,35.741,-16.6099
770,232,0,0,0,0,0,0,0,0,0,-1,1994,792,0,0
777,232,0,0,0,0,0,0,0,0,0,-1,2001,792,0,0
784,232,0,0,0,0,0,0,0,0,0,-1,2008,792,0,0
791,232,0,0,0,0,0,0,0,0,0,-1,2015,792,0,0
798,232,0,0,0,0,0,0,0,0,0,-1,2022,792,0,0
805,232,0,0,0,0,0,0,0,0,0,-1,2029,792,0,0
812,232,0,0,0,0,0,0,0,0,0,-1,2036,792,0,0
-700,225,0,0,0,0,0,0,0,0,0,-1,524,799,0,0
-693,225,0,0,0,0,0,0,0,0,0,-1,531,799,0,0
-686,225,0,0,0,0,0,0,0,0,0,-1,538,799,0,0
-679,225,0,0,0,0,0,0,0,0,0,-1,545,799,0,0
-672,225,0,0,0,0,0,0,0,0,0,-1,552,799,0,0
-665,225,0,0,0,0,0,0,0,0,0,-1,559,799,0,0
-658,225,0,0,0,0,0,0,0,0,0,-1,566,799,0,0
-651,225,0,0,0,0,0,0,0,0,0,-1,573,799,0,0
-644,225,-40.8898,4.14661,0,0,0,0,0,0,0,-1,580,799,-40.8898,-4.14661
-637,225,-41.61,3.36749,0,0,0,0,0,0,0,-1,587,799,-41.61,-3.36751
-630,225,-30.244,4.82196,0,0,0,0,0,0,0,-1,594,799,-30.244,-4.82193
-623,225,-32.8276,-0.00836182,0,0,0,0,0,0,0,-1,601,799,-32.8276,0.00837668
-616,225,-101.933,24.8918,0,0,0,0,0,0,0,-1,608,799,-101.933,-24.8918
-609,225,-109.959,25.0734,0,0,0,0,0,0,0,-1,615,799,-109.959,-25.0734
-602,225,-110.888,22.6217,0,0,0,0,0,0,0,-1,622,799,-110.888,-22.6217
-595,225,-111.061,20.4582,-0.0094464,0.0456669,0.00975655,0.0473431,-0.0111226,1.40066,0.0358494,0.0450756,629,799,-111.061,-20.4582
-588,225,-111.229,18.2775,-0.00691709,0.0356598,0.00912093,0.0375315,-0.00878872,1.3684,0.0284074,0.0183802,636,799,-111.229,-18.2775
-581,225,-111.541,16.2415,-0.00464156,0.0265295,0.00796701,0.0284477,-0.00655981,1.33452,0.0214881,0.013998,643,799,-111.541,-16.2415
-574,225,-111.893,14.2299,-0.00312226,0.0183233,0.00637672,0.0200761,-0.00487508,1.30254,0.0152707,0.0116848,650,799,-111.893,-14.2298
-567,225,-112.233,12.1009,-0.002132,0.0109094,0.00448165,0.012301,-0.00352362,1.26972,0.00959338,0.0153537,657,799,-112.233,-12.1009
-560,225,-112.525,9.98755,-0.00175346,0.00418671,0.00226019,0.0049489,-0.00251564,1.24555,0.00438532,0.0165187,664,799,-112.525,-9.98754
-553,225,-112.885,7.86371,-0.00209536,-0.00152342,-0.000323377,-0.00137771,-0.00224108,-1.14744,0.00130519,0.0239841,671,799,-112.885,-7.86369
-546,225,-113.171,5.89246,0,0,0,0,0,0,0,-1,678,799,-113.171,-5.89243
-539,225,-63.7479,-1.78418,0,0,0,0,0,0,0,-1,685,799,-63.7479,1.78418
-532,225,-73.9179,-3.04211,0,0,0,0,0,0,0,-1,692,799,-73.9179,3.04213
-525,225,-29.1705,-3.88239,0,0,0,0,0,0,0,-1,699,799,-29.1705,3.88237
-518,225,-21.963,0.171326,0,0,0,0,0,0,0,-1,706,799,-21.9629,-0.171319
-511,225,-33.0002,0.660217,0,0,0,0,0,0,0,-1,713,799,-33.0002,-0.660239
-504,225,-50.4542,0.524109,0,0,0,0,0,0,0,-1,720,799,-50.4542,-0.524105
-497,225,-71.3785,0.302002,0,0,0,0,0,0,0,-1,727,799,-71.3785,-0.302022
-490,225,-71.3395,0.410217,0,0,0,0,0,0,0,-1,734,799,-71.3395,-0.410223
-483,225,-71.3074,0.58075,0,0,0,0,0,0,0,-1,741,799,-71.3074,-0.580749
-476,225,-71.2732,0.59375,0,0,0,0,0,0,0,-1,748,799,-71.2732,-0.593749
-469,225,-71.2862,0.688171,0,0,0,0,0,0,0,-1,755,799,-71.2862,-0.688153
-462,225,0,0,0,0,0,0,0,0,0,-1,762,799,0,0
-455,225,0,0,0,0,0,0,0,0,0,-1,769,799,0,0
-448,225,0,0,0,0,0,0,0,0,0,-1,776,799,0,0
-441,225,0,0,0,0,0,0,0,0,0,-1,783,799,0,0
-434,225,0,0,0,0,0,0,0,0,0,-1,790,799,0,0
-427,225,0,0,0,0,0,0,0,0,0,-1,797,799,0,0
-420,225,0,0,0,0,0,0,0,0,0,-1,804,799,0,0
-413,225,0,0,0,0,0,0,0,0,0,-1,811,799,0,0
-406,225,0,0,0,0,0,0,0,0,0,-1,818,799,0,0
-399,225,0,0,0,0,0,0,0,0,0,-1,825,799,0,0
-392,225,0,0,0,0,0,0,0,0,0,-1,832,799,0,0
-385,225,0,0,0,0,0,0,0,0,0,-1,839,799,0,0
-378,225,0,0,0,0,0,0,0,0,0,-1,846,799,0,0
-371,225,0,0,0,0,0,0,0,0,0,-1,853,799,0,0
-364,225,0,0,0,0,0,0,0,0,0,-1,860,799,0,0
-357,225,0,0,0,0,0,0,0,0,0,-1,867,799,0,0
-350,225,0,0,0,0,0,0,0,0,0,-1,874,799,0,0
-343,225,0,0,0,0,0,0,0,0,0,-1,881,799,0,0
-336,225,0,0,0,0,0,0,0,0,0,-1,888,799,0,0
-329,225,0,0,0,0,0,0,0,0,0,-1,895,799,0,0
-322,225,0,0,0,0,0,0,0,0,0,-1,902,799,0,0
-315,225,0,0,0,0,0,0,0,0,0,-1,909,799,0,0
-308,225,0,0,0,0,0,0,0,0,0,-1,916,799,0,0
-301,225,0,0,0,0,0,0,0,0,0,-1,923,799,0,0
-294,225,0,0,0,0,0,0,0,0,0,-1,930,799,0,0
-287,225,0,0,0,0,0,0,0,0,0,-1,937,799,0,0
-280,225,0,0,0,0,0,0,0,0,0,-1,944,799,0,0
-273,225,0,0,0,0,0,0,0,0,0,-1,951,799,0,0
-266,225,0,0,0,0,0,0,0,0,0,-1,958,799,0,0
-259,225,0,0,0,0,0,0,0,0,0,-1,965,799,0,0
-252,225,0,0,0,0,0,0,0,0,0,-1,972,799,0,0
-245,225,0,0,0,0,0,0,0,0,0,-1,979,799,0,0
-238,225,0,0,0,0,0,0,0,0,0,-1,986,799,0,0
-231,225,0,0,0,0,0,0,0,0,0,-1,993,799,0,0
-224,225,0,0,0,0,0,0,0,0,0,-1,1000,799,0,0
-217,225,0,0,0,0,0,0,0,0,0,-1,1007,799,0,0
-210,225,0,0,0,0,0,0,0,0,0,-1,1014,799,0,0
-203,225,0,0,0,0,0,0,0,0,0,-1,1021,799,0,0
-196,225,0,0,0,0,0,0,0,0,0,-1,1028,799,0,0
-189,225,0,0,0,0,0,0,0,0,0,-1,1035,799,0,0
-182,225,0,0,0,0,0,0,0,0,0,-1,1042,799,0,0
-175,225,0,0,0,0,0,0,0,0,0,-1,1049,799,0,0
-168,225,0,0,0,0,0,0,0,0,0,-1,1056,799,0,0
-161,225,0,0,0,0,0,0,0,0,0,-1,1063,799,0,0
-154,225,0,0,0,0,0,0,0,0,0,-1,1070,799,0,0
-147,225,0,0,0,0,0,0,0,0,0,-1,1077,799,0,0
-140,225,0,0,0,0,0,0,0,0,0,-1,1084,799,0,0
-133,225,0,0,0,0,0,0,0,0,0,-1,1091,799,0,0
-126,225,0,0,0,0,0,0,0,0,0,-1,1098,799,0,0
-119,225,0,0,0,0,0,0,0,0,0,-1,1105,799,0,0
-112,225,0,0,0,0,0,0,0,0,0,-1,1112,799,0,0
-105,225,0,0,0,0,0,0,0,0,0,-1,1119,799,0,0
-98,225,0,0,0,0,0,0,0,0,0,-1,1126,799,0,0
-91,225,0,0,0,0,0,0,0,0,0,-1,1133,799,0,0
-84,225,0,0,0,0,0,0,0,0,0,-1,1140,799,0,0
-77,225,0,0,0,0,0,0,0,0,0,-1,1147,799,0,0
-70,225,0,0,0,0,0,0,0,0,0,-1,1154,799,0,0
-63,225,0,0,0,0,0,0,0,0,0,-1,1161,799,0,0
-56,225,0,0,0,0,0,0,0,0,0,-1,1168,799,0,0
-49,225,0,0,0,0,0,0,0,0,0,-1,1175,799,0,0
-42,225,0,0,0,0,0,0,0,0,0,-1,1182,799,0,0
-35,225,0,0,0,0,0,0,0,0,0,-1,1189,799,0,0
-28,225,0,0,0,0,0,0,0,0,0,-1,1196,799,0,0
-21,225,0,0,0,0,0,0,0,0,0,-1,1203,799,0,0
-14,225,0,0,0,0,0,0,0,0,0,-1,1210,799,0,0
-7,225,0,0,0,0,0,0,0,0,0,-1,1217,799,0,0
0,225,0,0,0,0,0,0,0,0,0,-1,1224,799,0,0
7,225,0,0,0,0,0,0,0,0,0,-1,1231,799,0,0
14,225,0,0,0,0,0,0,0,0,0,-1,1238,799,0,0
21,225,0,0,0,0,0,0,0,0,0,-1,1245,799,0,0
28,225,0,0,0,0,0,0,0,0,0,-1,1252,799,0,0
35,225,0,0,0,0,0,0,0,0,0,-1,1259,799,0,0
42,225,0,0,0,0,0,0,0,0,0,-1,1266,799,0,0
49,225,0,0,0,0,0,0,0,0,0,-1,1273,799,0,0
56,225,0,0,0,0,0,0,0,0,0,-1,1280,799,0,0
63,225,0,0,0,0,0,0,0,0,0,-1,1287,799,0,0
70,225,0,0,0,0,0,0,0,0,0,-1,1294,799,0,0
77,225,0,0,0,0,0,0,0,0,0,-1,1301,799,0,0
84,225,0,0,0,0,0,0,0,0,0,-1,1308,799,0,0
91,225,0,0,0,0,0,0,0,0,0,-1,1315,799,0,0
98,225,0,0,0,0,0,0,0,0,0,-1,1322,799,0,0
105,225,0,0,0,0,0,0,0,0,0,-1,1329,799,0,0
112,225,0,0,0,0,0,0,0,0,0,-1,1336,799,0,0
119,225,0,0,0,0,0,0,0,0,0,-1,1343,799,0,0
126,225,0,0,0,0,0,0,0,0,0,-1,1350,799,0,0
133,225,0,0,0,0,0,0,0,0,0,-1,1357,799,0,0
140,225,0,0,0,0,0,0,0,0,0,-1,1364,799,0,0
147,225,0,0,0,0,0,0,0,0,0,-1,1371,799,0,0
154,225,0,0,0,0,0,0,0,0,0,-1,1378,799,0,0
161,225,0,0,0,0,0,0,0,0,0,-1,1385,799,0,0
168,225,0,0,0,0,0,0,0,0,0,-1,1392,799,0,0
175,225,0,0,0,0,0,0,0,0,0,-1,1399,799,0,0
182,225,0,0,0,0,0,0,0,0,0,-1,1406,799,0,0
189,225,0,0,0,0,0,0,0,0,0,-1,1413,799,0,0
196,225,0,0,0,0,0,0,0,0,0,-1,1420,799,0,0
203,225,0,0,0,0,0,0,0,0,0,-1,1427,799,0,0
210,225,0,0,0,0,0,0,0,0,0,-1,1434,799,0,0
217,225,0,0,0,0,0,0,0,0,0,-1,1441,799,0,0
224,225,0,0,0,0,0,0,0,0,0,-1,1448,799,0,0
231,225,0,0,0,0,0,0,0,0,0,-1,1455,799,0,0
238,225,0,0,0,0,0,0,0,0,0,-1,1462,799,0,0
245,225,0,0,0,0,0,0,0,0,0,-1,1469,799,0,0
252,225,0,0,0,0,0,0,0,0,0,-1,1476,799,0,0
259,225,0,0,0,0,0,0,0,0,0,-1,1483,799,0,0
266,225,0,0,0,0,0,0,0,0,0,-1,1490,799,0,0
273,225,0,0,0,0,0,0,0,0,0,-1,1497,799,0,0
280,225,0,0,0,0,0,0,0,0,0,-1,1504,799,0,0
287,225,0,0,0,0,0,0,0,0,0,-1,1511,799,0,0
294,225,0,0,0,0,0,0,0,0,0,-1,1518,799,0,0
301,225,0,0,0,0,0,0,0,0,0,-1,1525,799,0,0
308,225,0,0,0,0,0,0,0,0,0,-1,1532,799,0,0
315,225,0,0,0,0,0,0,0,0,0,-1,1539,799,0,0
322,225,0,0,0,0,0,0,0,0,0,-1,1546,799,0,0
329,225,0,0,0,0,0,0,0,0,0,-1,1553,799,0,0
336,225,0,0,0,0,0,0,0,0,0,-1,1560,799,0,0
343,225,0,0,0,0,0,0,0,0,0,-1,1567,799,0,0
350,225,0,0,0,0,0,0,0,0,0,-1,1574,799,0,0
357,225,0,0,0,0,0,0,0,0,0,-1,1581,799,0,0
364,225,0,0,0,0,0,0,0,0,0,-1,1588,799,0,0
371,225,0,0,0,0,0,0,0,0,0,-1,1595,799,0,0
378,225,0,0,0,0,0,0,0,0,0,-1,1602,799,0,0
385,225,0,0,0,0,0,0,0,0,0,-1,1609,799,0,0
392,225,0,0,0,0,0,0,0,0,0,-1,1616,799,0,0
399,225,0,0,0,0,0,0,0,0,0,-1,1623,799,0,0
406,225,0,0,0,0,0,0,0,0,0,-1,1630,799,0,0
413,225,0,0,0,0,0,0,0,0,0,-1,1637,799,0,0
420,225,0,0,0,0,0,0,0,0,0,-1,1644,799,0,0
427,225,0,0,0,0,0,0,0,0,0,-1,1651,799,0,0
434,225,0,0,0,0,0,0,0,0,0,-1,1658,799,0,0
441,225,0,0,0,0,0,0,0,0,0,-1,1665,799,0,0
448,225,0,0,0,0,0,0,0,0,0,-1,1672,799,0,0
455,225,0,0,0,0,0,0,0,0,0,-1,1679,799,0,0
462,225,0,0,0,0,0,0,0,0,0,-1,1686,799,0,0
469,225,0,0,0,0,0,0,0,0,0,-1,1693,799,0,0
476,225,0,0,0,0,0,0,0,0,0,-1,1700,799,0,0
483,225,0,0,0,0,0,0,0,0,0,-1,1707,799,0,0
490,225,0,0,0,0,0,0,0,0,0,-1,1714,799,0,0
497,225,0,0,0,0,0,0,0,0,0,-1,1721,799,0,0
504,225,0,0,0,0,0,0,0,0,0,-1,1728,799,0,0
511,225,0,0,0,0,0,0,0,0,0,-1,1735,799,0,0
518,225,0,0,0,0,0,0,0,0,0,-1,1742,799,0,0
525,225,0,0,0,0,0,0,0,0,0,-1,1749,799,0,0
532,225,0,0,0,0,0,0,0,0,0,-1,1756,799,0,0
539,225,0,0,0,0,0,0,0,0,0,-1,1763,799,0,0
546,225,0,0,0,0,0,0,0,0,0,-1,1770,799,0,0
553,225,0,0,0,0,0,0,0,0,0,-1,1777,799,0,0
560,225,0,0,0,0,0,0,0,0,0,-1,1784,799,0,0
567,225,0,0,0,0,0,0,0,0,0,-1,1791,799,0,0
574,225,0,0,0,0,0,0,0,0,0,-1,1798,799,0,0
581,225,0,0,0,0,0,0,0,0,0,-1,1805,799,0,0
588,225,159.393,5.7049,0,0,0,0,0,0,0,-1,1812,799,159.393,-5.70489
595,225,159.448,5.50867,0,0,0,0,0,0,0,-1,1819,799,159.448,-5.50866
602,225,159.546,5.435,0,0,0,0,0,0,0,-1,1826,799,159.546,-5.435
609,225,159.611,5.52338,0,0,0,0,0,0,0,-1,1833,799,159.611,-5.52337
616,225,159.605,5.4823,0,0,0,0,0,0,0,-1,1840,799,159.605,-5.48231
623,225,98.7035,2.56226,0,0,0,0,0,0,0,-1,1847,799,98.7035,-2.56224
630,225,75.2485,2.28778,0,0,0,0,0,0,0,-1,1854,799,75.2485,-2.28778
637,225,55.6359,2.8064,0,0,0,0,0,0,0,-1,1861,799,55.6359,-2.80637
644,225,42.0298,2.46411,0,0,0,0,0,0,0,-1,1868,799,42.0298,-2.4641
651,225,27.9657,0.579529,0,0,0,0,0,0,0,-1,1875,799,27.9657,-0.579541
658,225,79.1904,-4.22021,0,0,0,0,0,0,0,-1,1882,799,79.1905,4.22019
665,225,80.8872,-3.34991,0,0,0,0,0,0,0,-1,1889,799,80.8872,3.34992
672,225,85.205,-1.42188,0,0,0,0,0,0,0,-1,1896,799,85.205,1.4219
679,225,122.737,6.00787,0,0,0,0,0,0,0,-1,1903,799,122.737,-6.00788
686,225,122.764,8.1076,0,0,0,0,0,0,0,-1,1910,799,122.764,-8.10759
693,225,122.622,10.1099,-0.00492956,0.00717167,-0.00540949,0.00923725,-0.00699514,-1.20604,0.00940153,0.0171076,1917,799,122.622,-10.1099
700,225,122.298,12.1799,-0.00694858,0.0128339,-0.00811509,0.0157368,-0.00985153,-1.22726,0.0149031,0.0188602,1924,799,122.298,-12.1799
707,225,121.938,14.1986,0,0,0,0,0,0,0,-1,1931,799,121.939,-14.1986
714,225,121.93,15.8573,0,0,0,0,0,0,0,-1,1938,799,121.93,-15.8573
721,225,121.115,18.1636,0,0,0,0,0,0,0,-1,1945,799,121.115,-18.1636
728,225,120.845,19.9595,0,0,0,0,0,0,0,-1,1952,799,120.845,-19.9595
735,225,95.1782,15.2966,0,0,0,0,0,0,0,-1,1959,799,95.1782,-15.2966
742,225,77.4065,11.2324,0,0,0,0,0,0,0,-1,1966,799,77.4065,-11.2324
749,225,29.9529,4.45538,0,0,0,0,0,0,0,-1,1973,799,29.9529,-4.45537
756,225,42.6417,11.3672,0,0,0,0,0,0,0,-1,1980,799,42.6417,-11.3672
763,225,42.6943,10.949,0,0,0,0,0,0,0,-1,1987,799,42.6943,-10.9489
770,225,0,0,0,0,0,0,0,0,0,-1,1994,799,0,0
777,225,0,0,0,0,0,0,0,0,0,-1,2001,799,0,0
784,225,0,0,0,0,0,0,0,0,0,-1,2008,799,0,0
791,225,0,0,0,0,0,0,0,0,0,-1,2015,799,0,0
798,225,0,0,0,0,0,0,0,0,0,-1,2022,799,0,0
805,225,0,0,0,0,0,0,0,0,0,-1,2029,799,0,0
812,225,0,0,0,0,0,0,0,0,0,-1,2036,799,0,0
-700,218,0,0,0,0,0,0,0,0,0,-1,524,806,0,0
-693,218,0,0,0,0,0,0,0,0,0,-1,531,806,0,0
-686,218,0,0,0,0,0,0,0,0,0,-1,538,806,0,0
-679,218,0,0,0,0,0,0,0,0,0,-1,545,806,0,0
-672,218,0,0,0,0,0,0,0,0,0,-1,552,806,0,0
-665,218,0,0,0,0,0,0,0,0,0,-1,559,806,0,0
-658,218,0,0,0,0,0,0,0,0,0,-1,566,806,0,0
-651,218,-40.3778,5.1792,0,0,0,0,0,0,0,-1,573,806,-40.3778,-5.1792
-644,218,-40.7704,4.19714,0,0,0,0,0,0,0,-1,580,806,-40.7704,-4.19714
-637,218,-41.541,3.36328,0,0,0,0,0,0,0,-1,587,806,-41.541,-3.36326
-630,218,-42.1423,2.85565,0,0,0,0,0,0,0,-1,594,806,-42.1423,-2.85567
-623,218,-42.7292,2.59015,0,0,0,0,0,0,0,-1,601,806,-42.7292,-2.59015
-616,218,-111.807,26.2411,0,0,0,0,0,0,0,-1,608,806,-111.807,-26.2411
-609,218,-112.203,24.5439,-0.0176503,0.0635411,0.010917,0.0649834,-0.0190926,1.43944,0.0508945,0.0489884,615,806,-112.203,-24.5439
-602,218,-112.544,22.4658,-0.0129098,0.0519996,0.0105811,0.0536809,-0.0145911,1.41322,0.0415147,0.0465197,622,806,-112.544,-22.4657
-595,218,-113.056,20.4892,-0.0100575,0.0418226,0.00969883,0.0435765,-0.0118114,1.3919,0.0336856,0.0256432,629,806,-113.056,-20.4892
-588,218,-113.406,18.486,-0.00727185,0.0324072,0.0085955,0.0341891,-0.00905383,1.36638,0.0263347,0.0168738,636,806,-113.406,-18.486
-581,218,-113.742,16.4931,-0.0048287,0.0236496,0.00715667,0.025347,-0.00652603,1.33793,0.0194419,0.014644,643,806,-113.742,-16.4931
-574,218,-114.071,14.4985,-0.00302168,0.0156227,0.00543523,0.0170915,-0.00449046,1.30687,0.0131492,0.0134677,650,806,-114.071,-14.4985
-567,218,-114.326,12.3771,-0.00175274,0.0082242,0.00345446,0.00930353,-0.00283206,1.26796,0.00733104,0.0218681,657,806,-114.326,-12.3771
-560,218,-114.64,10.2997,-0.00114618,0.00138082,0.00119438,0.00185599,-0.00162135,1.19215,0.00200917,0.0230043,664,806,-114.64,-10.2997
-553,218,-114.944,8.00482,-0.0013997,-0.00429117,-0.00149451,-0.000766084,-0.00492479,-0.400993,0.00305997,0.0300322,671,806,-114.944,-8.0048
-546,218,-115.289,5.88654,0,0,0,0,0,0,0,-1,678,806,-115.289,-5.88654
-539,218,-115.453,3.90546,0,0,0,0,0,0,0,-1,685,806,-115.453,-3.90543
-532,218,-65.3845,-3.26965,0,0,0,0,0,0,0,-1,692,806,-65.3845,3.26966
-525,218,-29.3521,-3.64417,0,0,0,0,0,0,0,-1,699,806,-29.3521,3.64414
-518,218,-23.61,2.54181,0,0,0,0,0,0,0,-1,706,806,-23.61,-2.54183
-511,218,-41.0953,1.06879,0,0,0,0,0,0,0,-1,713,806,-41.0953,-1.06876
-504,218,-59.1388,0.682068,0,0,0,0,0,0,0,-1,720,806,-59.1388,-0.682072
-497,218,-71.1117,0.685852,0,0,0,0,0,0,0,-1,727,806,-71.1117,-0.685864
-490,218,-71.2746,0.549255,0,0,0,0,0,0,0,-1,734,806,-71.2746,-0.54923
-483,218,-71.272,0.618164,0,0,0,0,0,0,0,-1,741,806,-71.272,-0.618135
-476,218,-71.212,0.670837,0,0,0,0,0,0,0,-1,748,806,-71.212,-0.670823
-469,218,0,0,0,0,0,0,0,0,0,-1,755,806,0,0
-462,218,0,0,0,0,0,0,0,0,0,-1,762,806,0,0
-455,218,0,0,0,0,0,0,0,0,0,-1,769,806,0,0
-448,218,0,0,0,0,0,0,0,0,0,-1,776,806,0,0
-441,218,0,0,0,0,0,0,0,0,0,-1,783,806,0,0
-434,218,0,0,0,0,0,0,0,0,0,-1,790,806,0,0
-427,218,0,0,0,0,0,0,0,0,0,-1,797,806,0,0
-420,218,0,0,0,0,0,0,0,0,0,-1,804,806,0,0
-413,218,0,0,0,0,0,0,0,0,0,-1,811,806,0,0
-406,218,0,0,0,0,0,0,0,0,0,-1,818,806,0,0
-399,218,0,0,0,0,0,0,0,0,0,-1,825,806,0,0
-392,218,0,0,0,0,0,0,0,0,0,-1,832,806,0,0
-385,218,0,0,0,0,0,0,0,0,0,-1,839,806,0,0
-378,218,0,0,0,0,0,0,0,0,0,-1,846,806,0,0
-371,218,0,0,0,0,0,0,0,0,0,-1,853,806,0,0
-364,218,0,0,0,0,0,0,0,0,0,-1,860,806,0,0
-357,218,0,0,0,0,0,0,0,0,0,-1,867,806,0,0
-350,218,0,0,0,0,0,0,0,0,0,-1,874,806,0,0
-343,218,0,0,0,0,0,0,0,0,0,-1,881,806,0,0
-336,218,0,0,0,0,0,0,0,0,0,-1,888,806,0,0
-329,218,0,0,0,0,0,0,0,0,0,-1,895,806,0,0
-322,218,0,0,0,0,0,0,0,0,0,-1,902,806,0,0
-315,218,0,0,0,0,0,0,0,0,0,-1,909,806,0,0
-308,218,0,0,0,0,0,0,0,0,0,-1,916,806,0,0
-301,218,0,0,0,0,0,0,0,0,0,-1,923,806,0,0
-294,218,0,0,0,0,0,0,0,0,0,-1,930,806,0,0
-287,218,0,0,0,0,0,0,0,0,0,-1,937,806,0,0
-280,218,0,0,0,0,0,0,0,0,0,-1,944,806,0,0
-273,218,0,0,0,0,0,0,0,0,0,-1,951,806,0,0
-266,218,0,0,0,0,0,0,0,0,0,-1,958,806,0,0
-259,218,0,0,0,0,0,0,0,0,0,-1,965,806,0,0
-252,218,0,0,0,0,0,0,0,0,0,-1,972,806,0,0
-245,218,0,0,0,0,0,0,0,0,0,-1,979,806,0,0
-238,218,0,0,0,0,0,0,0,0,0,-1,986,806,0,0
-231,218,0,0,0,0,0,0,0,0,0,-1,993,806,0,0
-224,218,0,0,0,0,0,0,0,0,0,-1,1000,806,0,0
-217,218,0,0,0,0,0,0,0,0,0,-1,1007,806,0,0
-210,218,0,0,0,0,0,0,0,0,0,-1,1014,806,0,0
-203,218,0,0,0,0,0,0,0,0,0,-1,1021,806,0,0
-196,218,0,0,0,0,0,0,0,0,0,-1,1028,806,0,0
-189,218,0,0,0,0,0,0,0,0,0,-1,1035,806,0,0
-182,218,0,0,0,0,0,0,0,0,0,-1,1042,806,0,0
-175,218,0,0,0,0,0,0,0,0,0,-1,1049,806,0,0
-168,218,0,0,0,0,0,0,0,0,0,-1,1056,806,0,0
-161,218,0,0,0,0,0,0,0,0,0,-1,1063,806,0,0
-154,218,0,0,0,0,0,0,0,0,0,-1,1070,806,0,0
-147,218,0,0,0,0,0,0,0,0,0,-1,1077,806,0,0
-140,218,0,0,0,0,0,0,0,0,0,-1,1084,806,0,0
-133,218,0,0,0,0,0,0,0,0,0,-1,1091,806,0,0
-126,218,0,0,0,0,0,0,0,0,0,-1,1098,806,0,0
-119,218,0,0,0,0,0,0,0,0,0,-1,1105,806,0,0
-112,218,0,0,0,0,0,0,0,0,0,-1,1112,806,0,0
-105,218,0,0,0,0,0,0,0,0,0,-1,1119,806,0,0
-98,218,0,0,0,0,0,0,0,0,0,-1,1126,806,0,0
-91,218,0,0,0,0,0,0,0,0,0,-1,1133,806,0,0
-84,218,0,0,0,0,0,0,0,0,0,-1,1140,806,0,0
-77,218,0,0,0,0,0,0,0,0,0,-1,1147,806,0,0
-70,218,0,0,0,0,0,0,0,0,0,-1,1154,806,0,0
-63,218,0,0,0,0,0,0,0,0,0,-1,1161,806,0,0
-56,218,0,0,0,0,0,0,0,0,0,-1,1168,806,0,0
-49,218,0,0,0,0,0,0,0,0,0,-1,1175,806,0,0
-42,218,0,0,0,0,0,0,0,0,0,-1,1182,806,0,0
-35,218,0,0,0,0,0,0,0,0,0,-1,1189,806,0,0
-28,218,0,0,0,0,0,0,0,0,0,-1,1196,806,0,0
-21,218,0,0,0,0,0,0,0,0,0,-1,1203,806,0,0
-14,218,0,0,0,0,0,0,0,0,0,-1,1210,806,0,0
-7,218,0,0,0,0,0,0,0,0,0,-1,1217,806,0,0
0,218,0,0,0,0,0,0,0,0,0,-1,1224,806,0,0
7,218,0,0,0,0,0,0,0,0,0,-1,1231,806,0,0
14,218,0,0,0,0,0,0,0,0,0,-1,1238,806,0,0
21,218,0,0,0,0,0,0,0,0,0,-1,1245,806,0,0
28,218,0,0,0,0,0,0,0,0,0,-1,1252,806,0,0
35,218,0,0,0,0,0,0,0,0,0,-1,1259,806,0,0
42,218,0,0,0,0,0,0,0,0,0,-1,1266,806,0,0
49,218,0,0,0,0,0,0,0,0,0,-1,1273,806,0,0
56,218,0,0,0,0,0,0,0,0,0,-1,1280,806,0,0
63,218,0,0,0,0,0,0,0,0,0,-1,1287,806,0,0
70,218,0,0,0,0,0,0,0,0,0,-1,1294,806,0,0
77,218,0,0,0,0,0,0,0,0,0,-1,1301,806,0,0
84,218,0,0,0,0,0,0,0,0,0,-1,1308,806,0,0
91,218,0,0,0,0,0,0,0,0,0,-1,1315,806,0,0
98,218,0,0,0,0,0,0,0,0,0,-1,1322,806,0,0
105,218,0,0,0,0,0,0,0,0,0,-1,1329,806,0,0
112,218,0,0,0,0,0,0,0,0,0,-1,1336,806,0,0
119,218,0,0,0,0,0,0,0,0,0,-1,1343,806,0,0
126,218,0,0,0,0,0,0,0,0,0,-1,1350,806,0,0
133,218,0,0,0,0,0,0,0,0,0,-1,1357,806,0,0
140,218,0,0,0,0,0,0,0,0,0,-1,1364,806,0,0
147,218,0,0,0,0,0,0,0,0,0,-1,1371,806,0,0
154,218,0,0,0,0,0,0,0,0,0,-1,1378,806,0,0
161,218,0,0,0,0,0,0,0,0,0,-1,1385,806,0,0
168,218,0,0,0,0,0,0,0,0,0,-1,1392,806,0,0
175,218,0,0,0,0,0,0,0,0,0,-1,1399,806,0,0
182,218,0,0,0,0,0,0,0,0,0,-1,1406,806,0,0
189,218,0,0,0,0,0,0,0,0,0,-1,1413,806,0,0
196,218,0,0,0,0,0,0,0,0,0,-1,1420,806,0,0
203,218,0,0,0,0,0,0,0,0,0,-1,1427,806,0,0
210,218,0,0,0,0,0,0,0,0,0,-1,1434,806,0,0
217,218,0,0,0,0,0,0,0,0,0,-1,1441,806,0,0
224,218,0,0,0,0,0,0,0,0,0,-1,1448,806,0,0
231,218,0,0,0,0,0,0,0,0,0,-1,1455,806,0,0
238,218,0,0,0,0,0,0,0,0,0,-1,1462,806,0,0
245,218,0,0,0,0,0,0,0,0,0,-1,1469,806,0,0
252,218,0,0,0,0,0,0,0,0,0,-1,1476,806,0,0
259,218,0,0,0,0,0,0,0,0,0,-1,1483,806,0,0
266,218,0,0,0,0,0,0,0,0,0,-1,1490,806,0,0
273,218,0,0,0,0,0,0,0,0,0,-1,1497,806,0,0
280,218,0,0,0,0,0,0,0,0,0,-1,1504,806,0,0
287,218,0,0,0,0,0,0,0,0,0,-1,1511,806,0,0
294,218,0,0,0,0,0,0,0,0,0,-1,1518,806,0,0
301,218,0,0,0,0,0,0,0,0,0,-1,1525,806,0,0
308,218,0,0,0,0,0,0,0,0,0,-1,1532,806,0,0
315,218,0,0,0,0,0,0,0,0,0,-1,1539,806,0,0
322,218,0,0,0,0,0,0,0,0,0,-1,1546,806,0,0
329,218,0,0,0,0,0,0,0,0,0,-1,1553,806,0,0
336,218,0,0,0,0,0,0,0,0,0,-1,1560,806,0,0
343,218,0,0,0,0,0,0,0,0,0,-1,1567,806,0,0
350,218,0,0,0,0,0,0,0,0,0,-1,1574,806,0,0
357,218,0,0,0,0,0,0,0,0,0,-1,1581,806,0,0
364,218,0,0,0,0,0,0,0,0,0,-1,1588,806,0,0
371,218,0,0,0,0,0,0,0,0,0,-1,1595,806,0,0
378,218,0,0,0,0,0,0,0,0,0,-1,1602,806,0,0
385,218,0,0,0,0,0,0,0,0,0,-1,1609,806,0,0
392,218,0,0,0,0,0,0,0,0,0,-1,1616,806,0,0
399,218,0,0,0,0,0,0,0,0,0,-1,1623,806,0,0
406,218,0,0,0,0,0,0,0,0,0,-1,1630,806,0,0
413,218,0,0,0,0,0,0,0,0,0,-1,1637,806,0,0
420,218,0,0,0,0,0,0,0,0,0,-1,1644,806,0,0
427,218,0,0,0,0,0,0,0,0,0,-1,1651,806,0,0
434,218,0,0,0,0,0,0,0,0,0,-1,1658,806,0,0
441,218,0,0,0,0,0,0,0,0,0,-1,1665,806,0,0
448,218,0,0,0,0,0,0,0,0,0,-1,1672,806,0,0
455,218,0,0,0,0,0,0,0,0,0,-1,1679,806,0,0
462,218,0,0,0,0,0,0,0,0,0,-1,1686,806,0,0
469,218,0,0,0,0,0,0,0,0,0,-1,1693,806,0,0
476,218,0,0,0,0,0,0,0,0,0,-1,1700,806,0,0
483,218,0,0,0,0,0,0,0,0,0,-1,1707,806,0,0
490,218,0,0,0,0,0,0,0,0,0,-1,1714,806,0,0
497,218,0,0,0,0,0,0,0,0,0,-1,1721,806,0,0
504,218,0,0,0,0,0,0,0,0,0,-1,1728,806,0,0
511,218,0,0,0,0,0,0,0,0,0,-1,1735,806,0,0
518,218,0,0,0,0,0,0,0,0,0,-1,1742,806,0,0
525,218,0,0,0,0,0,0,0,0,0,-1,1749,806,0,0
532,218,0,0,0,0,0,0,0,0,0,-1,1756,806,0,0
539,218,0,0,0,0,0,0,0,0,0,-1,1763,806,0,0
546,218,0,0,0,0,0,0,0,0,0,-1,1770,806,0,0
553,218,0,0,0,0,0,0,0,0,0,-1,1777,806,0,0
560,218,0,0,0,0,0,0,0,0,0,-1,1784,806,0,0
567,218,0,0,0,0,0,0,0,0,0,-1,1791,806,0,0
574,218,0,0,0,0,0,0,0,0,0,-1,1798,806,0,0
581,218,0,0,0,0,0,0,0,0,0,-1,1805,806,0,0
588,218,0,0,0,0,0,0,0,0,0,-1,1812,806,0,0
595,218,159.599,5.45813,0,0,0,0,0,0,0,-1,1819,806,159.599,-5.45816
602,218,159.629,5.41278,0,0,0,0,0,0,0,-1,1826,806,159.629,-5.41278
609,218,159.571,5.54431,0,0,0,0,0,0,0,-1,1833,806,159.571,-5.54433
616,218,159.536,5.60388,0,0,0,0,0,0,0,-1,1840,806,159.536,-5.60388
623,218,159.592,5.3559,0,0,0,0,0,0,0,-1,1847,806,159.592,-5.35588
630,218,98.8997,2.35669,0,0,0,0,0,0,0,-1,1854,806,98.8997,-2.3567
637,218,75.0532,2.44513,0,0,0,0,0,0,0,-1,1861,806,75.0532,-2.44515
644,218,52.4042,2.47949,0,0,0,0,0,0,0,-1,1868,806,52.4041,-2.47949
651,218,41.7338,1.99164,0,0,0,0,0,0,0,-1,1875,806,41.7338,-1.99162
658,218,28.41,0.514954,0,0,0,0,0,0,0,-1,1882,806,28.41,-0.514983
665,218,87.3844,-2.94836,0,0,0,0,0,0,0,-1,1889,806,87.3844,2.94834
672,218,105.041,-0.09729,0,0,0,0,0,0,0,-1,1896,806,105.041,0.0972892
679,218,123.266,5.61505,0,0,0,0,0,0,0,-1,1903,806,123.266,-5.61505
686,218,125.026,8.29688,0,0,0,0,0,0,0,-1,1910,806,125.026,-8.29686
693,218,124.774,10.4065,-0.00326886,0.00537184,-0.00379466,0.0068017,-0.00469871,-1.21044,0.00667667,0.0199347,1917,806,124.774,-10.4065
700,218,124.514,12.4727,-0.00590469,0.0110943,-0.00657047,0.0133378,-0.00814822,-1.24175,0.012525,0.0170705,1924,806,124.514,-12.4727
707,218,123.814,14.6167,-0.00870217,0.016783,-0.00906363,0.0196776,-0.0115968,-1.26167,0.0182561,0.0475976,1931,806,123.814,-14.6167
714,218,123.126,16.8382,0,0,0,0,0,0,0,-1,1938,806,123.126,-16.8382
721,218,123.378,18.3727,0,0,0,0,0,0,0,-1,1945,806,123.378,-18.3727
728,218,123.116,20.1626,0,0,0,0,0,0,0,-1,1952,806,123.116,-20.1626
735,218,118.738,21.3044,0,0,0,0,0,0,0,-1,1959,806,118.738,-21.3045
742,218,47.8733,6.84155,0,0,0,0,0,0,0,-1,1966,806,47.8733,-6.84158
749,218,42.0249,6.64703,0,0,0,0,0,0,0,-1,1973,806,42.0249,-6.64703
756,218,68.6807,8.39844,0,0,0,0,0,0,0,-1,1980,806,68.6807,-8.39847
763,218,70.9336,11.1503,0,0,0,0,0,0,0,-1,1987,806,70.9336,-11.1503
770,218,0,0,0,0,0,0,0,0,0,-1,1994,806,0,0
777,218,0,0,0,0,0,0,0,0,0,-1,2001,806,0,0
784,218,0,0,0,0,0,0,0,0,0,-1,2008,806,0,0
791,218,0,0,0,0,0,0,0,0,0,-1,2015,806,0,0
798,218,0,0,0,0,0,0,0,0,0,-1,2022,806,0,0
805,218,0,0,0,0,0,0,0,0,0,-1,2029,806,0,0
812,218,0,0,0,0,0,0,0,0,0,-1,2036,806,0,0
-700,211,0,0,0,0,0,0,0,0,0,-1,524,813,0,0
-693,211,0,0,0,0,0,0,0,0,0,-1,531,813,0,0
-686,211,0,0,0,0,0,0,0,0,0,-1,538,813,0,0
-679,211,0,0,0,0,0,0,0,0,0,-1,545,813,0,0
-672,211,0,0,0,0,0,0,0,0,0,-1,552,813,0,0
-665,211,0,0,0,0,0,0,0,0,0,-1,559,813,0,0
-658,211,0,0,0,0,0,0,0,0,0,-1,566,813,0,0
-651,211,-40.2495,5.20386,0,0,0,0,0,0,0,-1,573,813,-40.2494,-5.20384
-644,211,-40.6288,4.32092,0,0,0,0,0,0,0,-1,580,813,-40.6288,-4.3209
-637,211,-41.3664,3.51849,0,0,0,0,0,0,0,-1,587,813,-41.3664,-3.51847
-630,211,-41.9262,2.94977,0,0,0,0,0,0,0,-1,594,813,-41.9262,-2.94975
-623,211,-42.5012,2.62903,0,0,0,0,0,0,0,-1,601,813,-42.5011,-2.629
-616,211,-114.256,26.1695,0,0,0,0,0,0,0,-1,608,813,-114.256,-26.1695
-609,211,-114.365,24.2698,-0.0177267,0.0569257,0.011736,0.0587273,-0.0195282,1.41848,0.0470323,0.0469161,615,813,-114.365,-24.2697
-602,211,-114.687,22.3623,-0.0133225,0.0468594,0.0107333,0.0487164,-0.0151795,1.39948,0.0385469,0.0335135,622,813,-114.687,-22.3623
-595,211,-115.269,20.5048,-0.0102701,0.0375622,0.00943764,0.0393569,-0.0120649,1.38287,0.031051,0.0203349,629,813,-115.269,-20.5048
-588,211,-115.612,18.6234,-0.00724605,0.0287554,0.00800498,0.0304551,-0.00894572,1.36158,0.0238512,0.016825,636,813,-115.612,-18.6234
-581,211,-115.883,16.7441,-0.00455748,0.0204059,0.00636064,0.0219332,-0.00608473,1.33515,0.0170169,0.0149593,643,813,-115.883,-16.7441
-574,211,-116.182,14.7095,-0.00236154,0.0126091,0.00451559,0.0138657,-0.00361811,1.29939,0.0106566,0.0160659,650,813,-116.182,-14.7096
-567,211,-116.542,12.6604,-0.00066005,0.00525586,0.00241893,0.00611899,-0.00152318,1.22806,0.00467059,0.0282666,657,813,-116.542,-12.6604
-560,211,-116.971,10.5732,0,0,0,0,0,0,0,-1,664,813,-116.971,-10.5732
-553,211,-116.974,8.19537,0,0,0,0,0,0,0,-1,671,813,-116.974,-8.19536
-546,211,-117.532,6.06958,0,0,0,0,0,0,0,-1,678,813,-117.532,-6.06957
-539,211,-117.427,4.435,0,0,0,0,0,0,0,-1,685,813,-117.427,-4.435
-532,211,-56.3252,-3.37701,0,0,0,0,0,0,0,-1,692,813,-56.3252,3.37701
-525,211,-14.3009,2.3233,0,0,0,0,0,0,0,-1,699,813,-14.3009,-2.3233
-518,211,-34.952,1.93011,0,0,0,0,0,0,0,-1,706,813,-34.952,-1.9301
-511,211,-53.0876,0.677734,0,0,0,0,0,0,0,-1,713,813,-53.0876,-0.677737
-504,211,-71.0793,0.713501,0,0,0,0,0,0,0,-1,720,813,-71.0793,-0.713471
-497,211,-71.1944,0.650879,0,0,0,0,0,0,0,-1,727,813,-71.1944,-0.650871
-490,211,-71.2502,0.66217,0,0,0,0,0,0,0,-1,734,813,-71.2502,-0.662185
-483,211,-71.1762,0.722412,0,0,0,0,0,0,0,-1,741,813,-71.1762,-0.722423
-476,211,-71.2107,0.635254,0,0,0,0,0,0,0,-1,748,813,-71.2107,-0.635269
-469,211,0,0,0,0,0,0,0,0,0,-1,755,813,0,0
-462,211,0,0,0,0,0,0,0,0,0,-1,762,813,0,0
-455,211,0,0,0,0,0,0,0,0,0,-1,769,813,0,0
-448,211,0,0,0,0,0,0,0,0,0,-1,776,813,0,0
-441,211,0,0,0,0,0,0,0,0,0,-1,783,813,0,0
-434,211,0,0,0,0,0,0,0,0,0,-1,790,813,0,0
-427,211,0,0,0,0,0,0,0,0,0,-1,797,813,0,0
-420,211,0,0,0,0,0,0,0,0,0,-1,804,813,0,0
-413,211,0,0,0,0,0,0,0,0,0,-1,811,813,0,0
-406,211,0,0,0,0,0,0,0,0,0,-1,818,813,0,0
-399,211,0,0,0,0,0,0,0,0,0,-1,825,813,0,0
-392,211,0,0,0,0,0,0,0,0,0,-1,832,813,0,0
-385,211,0,0,0,0,0,0,0,0,0,-1,839,813,0,0
-378,211,0,0,0,0,0,0,0,0,0,-1,846,813,0,0
-371,211,0,0,0,0,0,0,0,0,0,-1,853,813,0,0
-364,211,0,0,0,0,0,0,0,0,0,-1,860,813,0,0
-357,211,0,0,0,0,0,0,0,0,0,-1,867,813,0,0
-350,211,0,0,0,0,0,0,0,0,0,-1,874,813,0,0
-343,211,0,0,0,0,0,0,0,0,0,-1,881,813,0,0
-336,211,0,0,0,0,0,0,0,0,0,-1,888,813,0,0
-329,211,0,0,0,0,0,0,0,0,0,-1,895,813,0,0
-322,211,0,0,0,0,0,0,0,0,0,-1,902,813,0,0
-315,211,0,0,0,0,0,0,0,0,0,-1,909,813,0,0
-308,211,0,0,0,0,0,0,0,0,0,-1,916,813,0,0
-301,211,0,0,0,0,0,0,0,0,0,-1,923,813,0,0
-294,211,0,0,0,0,0,0,0,0,0,-1,930,813,0,0
-287,211,0,0,0,0,0,0,0,0,0,-1,937,813,0,0
-280,211,0,0,0,0,0,0,0,0,0,-1,944,813,0,0
-273,211,0,0,0,0,0,0,0,0,0,-1,951,813,0,0
-266,211,0,0,0,0,0,0,0,0,0,-1,958,813,0,0
-259,211,0,0,0,0,0,0,0,0,0,-1,965,813,0,0
-252,211,0,0,0,0,0,0,0,0,0,-1,972,813,0,0
-245,211,0,0,0,0,0,0,0,0,0,-1,979,813,0,0
-238,211,0,0,0,0,0,0,0,0,0,-1,986,813,0,0
-231,211,0,0,0,0,0,0,0,0,0,-1,993,813,0,0
-224,211,0,0,0,0,0,0,0,0,0,-1,1000,813,0,0
-217,211,0,0,0,0,0,0,0,0,0,-1,1007,813,0,0
-210,211,0,0,0,0,0,0,0,0,0,-1,1014,813,0,0
-203,211,0,0,0,0,0,0,0,0,0,-1,1021,813,0,0
-196,211,0,0,0,0,0,0,0,0,0,-1,1028,813,0,0
-189,211,0,0,0,0,0,0,0,0,0,-1,1035,813,0,0
-182,211,0,0,0,0,0,0,0,0,0,-1,1042,813,0,0
-175,211,0,0,0,0,0,0,0,0,0,-1,1049,813,0,0
-168,211,0,0,0,0,0,0,0,0,0,-1,1056,813,0,0
-161,211,0,0,0,0,0,0,0,0,0,-1,1063,813,0,0
-154,211,0,0,0,0,0,0,0,0,0,-1,1070,813,0,0
-147,211,0,0,0,0,0,0,0,0,0,-1,1077,813,0,0
-140,211,0,0,0,0,0,0,0,0,0,-1,1084,813,0,0
-133,211,0,0,0,0,0,0,0,0,0,-1,1091,813,0,0
-126,211,0,0,0,0,0,0,0,0,0,-1,1098,813,0,0
-119,211,0,0,0,0,0,0,0,0,0,-1,1105,813,0,0
-112,211,0,0,0,0,0,0,0,0,0,-1,1112,813,0,0
-105,211,0,0,0,0,0,0,0,0,0,-1,1119,813,0,0
-98,211,0,0,0,0,0,0,0,0,0,-1,1126,813,0,0
-91,211,0,0,0,0,0,0,0,0,0,-1,1133,813,0,0
-84,211,0,0,0,0,0,0,0,0,0,-1,1140,813,0,0
-77,211,0,0,0,0,0,0,0,0,0,-1,1147,813,0,0
-70,211,0,0,0,0,0,0,0,0,0,-1,1154,813,0,0
-63,211,0,0,0,0,0,0,0,0,0,-1,1161,813,0,0
-56,211,0,0,0,0,0,0,0,0,0,-1,1168,813,0,0
-49,211,0,0,0,0,0,0,0,0,0,-1,1175,813,0,0
-42,211,0,0,0,0,0,0,0,0,0,-1,1182,813,0,0
-35,211,0,0,0,0,0,0,0,0,0,-1,1189,813,0,0
-28,211,0,0,0,0,0,0,0,0,0,-1,1196,813,0,0
-21,211,0,0,0,0,0,0,0,0,0,-1,1203,813,0,0
-14,211,0,0,0,0,0,0,0,0,0,-1,1210,813,0,0
-7,211,0,0,0,0,0,0,0,0,0,-1,1217,813,0,0
0,211,0,0,0,0,0,0,0,0,0,-1,1224,813,0,0
7,211,0,0,0,0,0,0,0,0,0,-1,1231,813,0,0
14,211,0,0,0,0,0,0,0,0,0,-1,1238,813,0,0
21,211,0,0,0,0,0,0,0,0,0,-1,1245,813,0,0
28,211,0,0,0,0,0,0,0,0,0,-1,1252,813,0,0
35,211,0,0,0,0,0,0,0,0,0,-1,1259,813,0,0
42,211,0,0,0,0,0,0,0,0,0,-1,1266,813,0,0
49,211,0,0,0,0,0,0,0,0,0,-1,1273,813,0,0
56,211,0,0,0,0,0,0,0,0,0,-1,1280,813,0,0
63,211,0,0,0,0,0,0,0,0,0,-1,1287,813,0,0
70,211,0,0,0,0,0,0,0,0,0,-1,1294,813,0,0
77,211,0,0,0,0,0,0,0,0,0,-1,1301,813,0,0
84,211,0,0,0,0,0,0,0,0,0,-1,1308,813,0,0
91,211,0,0,0,0,0,0,0,0,0,-1,1315,813,0,0
98,211,0,0,0,0,0,0,0,0,0,-1,1322,813,0,0
105,211,0,0,0,0,0,0,0,0,0,-1,1329,813,0,0
112,211,0,0,0,0,0,0,0,0,0,-1,1336,813,0,0
119,211,0,0,0,0,0,0,0,0,0,-1,1343,813,0,0
126,211,0,0,0,0,0,0,0,0,0,-1,1350,813,0,0
133,211,0,0,0,0,0,0,0,0,0,-1,1357,813,0,0
140,211,0,0,0,0,0,0,0,0,0,-1,1364,813,0,0
147,211,0,0,0,0,0,0,0,0,0,-1,1371,813,0,0
154,211,0,0,0,0,0,0,0,0,0,-1,1378,813,0,0
161,211,0,0,0,0,0,0,0,0,0,-1,1385,813,0,0
168,211,0,0,0,0,0,0,0,0,0,-1,1392,813,0,0
175,211,0,0,0,0,0,0,0,0,0,-1,1399,813,0,0
182,211,0,0,0,0,0,0,0,0,0,-1,1406,813,0,0
189,211,0,0,0,0,0,0,0,0,0,-1,1413,813,0,0
196,211,0,0,0,0,0,0,0,0,0,-1,1420,813,0,0
203,211,0,0,0,0,0,0,0,0,0,-1,1427,813,0,0
210,211,0,0,0,0,0,0,0,0,0,-1,1434,813,0,0
217,211,0,0,0,0,0,0,0,0,0,-1,1441,813,0,0
224,211,0,0,0,0,0,0,0,0,0,-1,1448,813,0,0
231,211,0,0,0,0,0,0,0,0,0,-1,1455,813,0,0
238,211,0,0,0,0,0,0,0,0,0,-1,1462,813,0,0
245,211,0,0,0,0,0,0,0,0,0,-1,1469,813,0,0
252,211,0,0,0,0,0,0,0,0,0,-1,1476,813,0,0
259,211,0,0,0,0,0,0,0,0,0,-1,1483,813,0,0
266,211,0,0,0,0,0,0,0,0,0,-1,1490,813,0,0
273,211,0,0,0,0,0,0,0,0,0,-1,1497,813,0,0
280,211,0,0,0,0,0,0,0,0,0,-1,1504,813,0,0
287,211,0,0,0,0,0,0,0,0,0,-1,1511,813,0,0
294,211,0,0,0,0,0,0,0,0,0,-1,1518,813,0,0
301,211,0,0,0,0,0,0,0,0,0,-1,1525,813,0,0
308,211,0,0,0,0,0,0,0,0,0,-1,1532,813,0,0
315,211,0,0,0,0,0,0,0,0,0,-1,1539,813,0,0
322,211,0,0,0,0,0,0,0,0,0,-1,1546,813,0,0
329,211,0,0,0,0,0,0,0,0,0,-1,1553,813,0,0
336,211,0,0,0,0,0,0,0,0,0,-1,1560,813,0,0
343,211,0,0,0,0,0,0,0,0,0,-1,1567,813,0,0
350,211,0,0,0,0,0,0,0,0,0,-1,1574,813,0,0
357,211,0,0,0,0,0,0,0,0,0,-1,1581,813,0,0
364,211,0,0,0,0,0,0,0,0,0,-1,1588,813,0,0
371,211,0,0,0,0,0,0,0,0,0,-1,1595,813,0,0
378,211,0,0,0,0,0,0,0,0,0,-1,1602,813,0,0
385,211,0,0,0,0,0,0,0,0,0,-1,1609,813,0,0
392,211,0,0,0,0,0,0,0,0,0,-1,1616,813,0,0
399,211,0,0,0,0,0,0,0,0,0,-1,1623,813,0,0
406,211,0,0,0,0,0,0,0,0,0,-1,1630,813,0,0
413,211,0,0,0,0,0,0,0,0,0,-1,1637,813,0,0
420,211,0,0,0,0,0,0,0,0,0,-1,1644,813,0,0
427,211,0,0,0,0,0,0,0,0,0,-1,1651,813,0,0
434,211,0,0,0,0,0,0,0,0,0,-1,1658,813,0,0
441,211,0,0,0,0,0,0,0,0,0,-1,1665,813,0,0
448,211,0,0,0,0,0,0,0,0,0,-1,1672,813,0,0
455,211,0,0,0,0,0,0,0,0,0,-1,1679,813,0,0
462,211,0,0,0,0,0,0,0,0,0,-1,1686,813,0,0
469,211,0,0,0,0,0,0,0,0,0,-1,1693,813,0,0
476,211,0,0,0,0,0,0,0,0,0,-1,1700,813,0,0
483,211,0,0,0,0,0,0,0,0,0,-1,1707,813,0,0
490,211,0,0,0,0,0,0,0,0,0,-1,1714,813,0,0
497,211,0,0,0,0,0,0,0,0,0,-1,1721,813,0,0
504,211,0,0,0,0,0,0,0,0,0,-1,1728,813,0,0
511,211,0,0,0,0,0,0,0,0,0,-1,1735,813,0,0
518,211,0,0,0,0,0,0,0,0,0,-1,1742,813,0,0
525,211,0,0,0,0,0,0,0,0,0,-1,1749,813,0,0
532,211,0,0,0,0,0,0,0,0,0,-1,1756,813,0,0
539,211,0,0,0,0,0,0,0,0,0,-1,1763,813,0,0
546,211,0,0,0,0,0,0,0,0,0,-1,1770,813,0,0
553,211,0,0,0,0,0,0,0,0,0,-1,1777,813,0,0
560,211,0,0,0,0,0,0,0,0,0,-1,1784,813,0,0
567,211,0,0,0,0,0,0,0,0,0,-1,1791,813,0,0
574,211,0,0,0,0,0,0,0,0,0,-1,1798,813,0,0
581,211,0,0,0,0,0,0,0,0,0,-1,1805,813,0,0
588,211,0,0,0,0,0,0,0,0,0,-1,1812,813,0,0
595,211,159.733,5.33588,0,0,0,0,0,0,0,-1,1819,813,159.733,-5.33588
602,211,159.548,5.35931,0,0,0,0,0,0,0,-1,1826,813,159.548,-5.3593
609,211,159.469,5.38062,0,0,0,0,0,0,0,-1,1833,813,159.469,-5.38062
616,211,159.515,5.68951,0,0,0,0,0,0,0,-1,1840,813,159.515,-5.68952
623,211,159.619,5.50964,0,0,0,0,0,0,0,-1,1847,813,159.619,-5.50962
630,211,159.49,5.578,0,0,0,0,0,0,0,-1,1854,813,159.49,-5.578
637,211,93.1104,2.29517,0,0,0,0,0,0,0,-1,1861,813,93.1103,-2.29517
644,211,66.401,2.3595,0,0,0,0,0,0,0,-1,1868,813,66.401,-2.35952
651,211,48.5043,2.95557,0,0,0,0,0,0,0,-1,1875,813,48.5043,-2.95558
658,211,27.7909,1.52234,0,0,0,0,0,0,0,-1,1882,813,27.7909,-1.52234
665,211,42.2053,-0.745605,0,0,0,0,0,0,0,-1,1889,813,42.2054,0.745605
672,211,88.5627,-1.52313,0,0,0,0,0,0,0,-1,1896,813,88.5627,1.52312
679,211,113.734,3.14288,0,0,0,0,0,0,0,-1,1903,813,113.734,-3.14288
686,211,127.214,8.5,0,0,0,0,0,0,0,-1,1910,813,127.214,-8.49998
693,211,126.923,10.6278,-0.00213127,0.00347801,-0.00278059,0.00462275,-0.00327602,-1.18025,0.0045824,0.0275276,1917,813,126.923,-10.6278
700,211,126.634,12.7485,-0.00518926,0.00915692,-0.00541736,0.0109728,-0.00700511,-1.24738,0.0104635,0.020653,1924,813,126.634,-12.7485
707,211,126.274,14.8326,-0.00820976,0.0148055,-0.00772659,0.0171588,-0.0105631,-1.27515,0.0161555,0.0488461,1931,813,126.274,-14.8326
714,211,125.799,16.8225,0,0,0,0,0,0,0,-1,1938,813,125.799,-16.8225
721,211,125.523,18.5854,-0.0145723,0.0260725,-0.0121022,0.0294031,-0.0179029,-1.30224,0.0275798,0.0379529,1945,813,125.523,-18.5855
728,211,125.157,20.4322,-0.0177294,0.0316722,-0.0141284,0.0354273,-0.0214846,-1.31101,0.0331852,0.0398686,1952,813,125.157,-20.4322
735,211,124.864,22.2668,0,0,0,0,0,0,0,-1,1959,813,124.864,-22.2669
742,211,84.2058,12.8079,0,0,0,0,0,0,0,-1,1966,813,84.2058,-12.8079
749,211,73.5072,9.75317,0,0,0,0,0,0,0,-1,1973,813,73.5072,-9.75319
756,211,69.7454,8.43085,0,0,0,0,0,0,0,-1,1980,813,69.7454,-8.43087
763,211,79.0168,15.136,0,0,0,0,0,0,0,-1,1987,813,79.017,-15.136
770,211,69.272,8.75696,0,0,0,0,0,0,0,-1,1994,813,69.2719,-8.75697
777,211,0,0,0,0,0,0,0,0,0,-1,2001,813,0,0
784,211,0,0,0,0,0,0,0,0,0,-1,2008,813,0,0
791,211,0,0,0,0,0,0,0,0,0,-1,2015,813,0,0
798,211,0,0,0,0,0,0,0,0,0,-1,2022,813,0,0
805,211,0,0,0,0,0,0,0,0,0,-1,2029,813,0,0
812,211,0,0,0,0,0,0,0,0,0,-1,2036,813,0,0
-700,204,0,0,0,0,0,0,0,0,0,-1,524,820,0,0
-693,204,0,0,0,0,0,0,0,0,0,-1,531,820,0,0
-686,204,0,0,0,0,0,0,0,0,0,-1,538,820,0,0
-679,204,0,0,0,0,0,0,0,0,0,-1,545,820,0,0
-672,204,0,0,0,0,0,0,0,0,0,-1,552,820,0,0
-665,204,0,0,0,0,0,0,0,0,0,-1,559,820,0,0
-658,204,0,0,0,0,0,0,0,0,0,-1,566,820,0,0
-651,204,-40.064,5.25806,0,0,0,0,0,0,0,-1,573,820,-40.064,-5.25806
-644,204,-40.4117,4.54321,0,0,0,0,0,0,0,-1,580,820,-40.4117,-4.54323
-637,204,-40.8671,3.93817,0,0,0,0,0,0,0,-1,587,820,-40.8671,-3.93819
-630,204,-41.7101,3.04382,0,0,0,0,0,0,0,-1,594,820,-41.7101,-3.04383
-623,204,-41.8597,2.11951,0,0,0,0,0,0,0,-1,601,820,-41.8597,-2.11951
-616,204,-95.0965,22.4825,0,0,0,0,0,0,0,-1,608,820,-95.0965,-22.4825
-609,204,-116.451,24.1671,0,0,0,0,0,0,0,-1,615,820,-116.451,-24.1671
-602,204,-116.923,22.3871,-0.0140317,0.0414742,0.0105714,0.0434194,-0.0159769,1.38883,0.0354915,0.029819,622,820,-116.923,-22.3871
-595,204,-117.283,20.6649,-0.0106187,0.0330807,0.00902186,0.03487,-0.012408,1.37501,0.0283043,0.028302,629,820,-117.283,-20.6648
-588,204,-117.699,18.7726,-0.00719695,0.0249396,0.00737749,0.0265523,-0.00880965,1.35558,0.0212556,0.0174942,636,820,-117.699,-18.7726
-581,204,-117.979,16.8516,-0.00403754,0.0170861,0.00557669,0.018468,-0.0054194,1.3279,0.014461,0.0160133,643,820,-117.979,-16.8516
-574,204,-118.234,14.9042,-0.00119198,0.0096225,0.00359679,0.0107095,-0.00227898,1.27731,0.00800816,0.0176682,650,820,-118.234,-14.9042
-567,204,-118.633,13.0439,0.00123712,0.00243259,0.00141554,0.00337142,0.000298293,0.985175,0.00215508,0.023743,657,820,-118.633,-13.044
-560,204,-119.11,11.1945,0,0,0,0,0,0,0,-1,664,820,-119.11,-11.1945
-553,204,-119.192,8.83148,0.00391318,-0.00960831,-0.00388111,0.00494799,-0.0106431,-0.260566,0.00919953,0.0268928,671,820,-119.192,-8.83146
-546,204,-119.987,6.83759,0,0,0,0,0,0,0,-1,678,820,-119.987,-6.83757
-539,204,-120.659,4.83777,0,0,0,0,0,0,0,-1,685,820,-120.659,-4.83777
-532,204,-30.0565,-3.29065,0,0,0,0,0,0,0,-1,692,820,-30.0565,3.29063
-525,204,-25.7137,1.52496,0,0,0,0,0,0,0,-1,699,820,-25.7137,-1.52496
-518,204,-43.4591,0.383972,0,0,0,0,0,0,0,-1,706,820,-43.4591,-0.383942
-511,204,-67.4779,0.469788,0,0,0,0,0,0,0,-1,713,820,-67.4779,-0.469764
-504,204,-71.0822,0.762695,0,0,0,0,0,0,0,-1,720,820,-71.0822,-0.762675
-497,204,-71.2341,0.638,0,0,0,0,0,0,0,-1,727,820,-71.2341,-0.638005
-490,204,-71.2697,0.596191,0,0,0,0,0,0,0,-1,734,820,-71.2697,-0.596182
-483,204,-71.1739,0.642822,0,0,0,0,0,0,0,-1,741,820,-71.1739,-0.6428
-476,204,0,0,0,0,0,0,0,0,0,-1,748,820,0,0
-469,204,0,0,0,0,0,0,0,0,0,-1,755,820,0,0
-462,204,0,0,0,0,0,0,0,0,0,-1,762,820,0,0
-455,204,0,0,0,0,0,0,0,0,0,-1,769,820,0,0
-448,204,0,0,0,0,0,0,0,0,0,-1,776,820,0,0
-441,204,0,0,0,0,0,0,0,0,0,-1,783,820,0,0
-434,204,0,0,0,0,0,0,0,0,0,-1,790,820,0,0
-427,204,0,0,0,0,0,0,0,0,0,-1,797,820,0,0
-420,204,0,0,0,0,0,0,0,0,0,-1,804,820,0,0
-413,204,0,0,0,0,0,0,0,0,0,-1,811,820,0,0
-406,204,0,0,0,0,0,0,0,0,0,-1,818,820,0,0
-399,204,0,0,0,0,0,0,0,0,0,-1,825,820,0,0
-392,204,0,0,0,0,0,0,0,0,0,-1,832,820,0,0
-385,204,0,0,0,0,0,0,0,0,0,-1,839,820,0,0
-378,204,0,0,0,0,0,0,0,0,0,-1,846,820,0,0
-371,204,0,0,0,0,0,0,0,0,0,-1,853,820,0,0
-364,204,0,0,0,0,0,0,0,0,0,-1,860,820,0,0
-357,204,0,0,0,0,0,0,0,0,0,-1,867,820,0,0
-350,204,0,0,0,0,0,0,0,0,0,-1,874,820,0,0
-343,204,0,0,0,0,0,0,0,0,0,-1,881,820,0,0
-336,204,0,0,0,0,0,0,0,0,0,-1,888,820,0,0
-329,204,0,0,0,0,0,0,0,0,0,-1,895,820,0,0
-322,204,0,0,0,0,0,0,0,0,0,-1,902,820,0,0
-315,204,0,0,0,0,0,0,0,0,0,-1,909,820,0,0
-308,204,0,0,0,0,0,0,0,0,0,-1,916,820,0,0
-301,204,0,0,0,0,0,0,0,0,0,-1,923,820,0,0
-294,204,0,0,0,0,0,0,0,0,0,-1,930,820,0,0
-287,204,0,0,0,0,0,0,0,0,0,-1,937,820,0,0
-280,204,0,0,0,0,0,0,0,0,0,-1,944,820,0,0
-273,204,0,0,0,0,0,0,0,0,0,-1,951,820,0,0
-266,204,0,0,0,0,0,0,0,0,0,-1,958,820,0,0
-259,204,0,0,0,0,0,0,0,0,0,-1,965,820,0,0
-252,204,0,0,0,0,0,0,0,0,0,-1,972,820,0,0
-245,204,0,0,0,0,0,0,0,0,0,-1,979,820,0,0
-238,204,0,0,0,0,0,0,0,0,0,-1,986,820,0,0
-231,204,0,0,0,0,0,0,0,0,0,-1,993,820,0,0
-224,204,0,0,0,0,0,0,0,0,0,-1,1000,820,0,0
-217,204,0,0,0,0,0,0,0,0,0,-1,1007,820,0,0
-210,204,0,0,0,0,0,0,0,0,0,-1,1014,820,0,0
-203,204,0,0,0,0,0,0,0,0,0,-1,1021,820,0,0
-196,204,0,0,0,0,0,0,0,0,0,-1,1028,820,0,0
-189,204,0,0,0,0,0,0,0,0,0,-1,1035,820,0,0
-182,204,0,0,0,0,0,0,0,0,0,-1,1042,820,0,0
-175,204,0,0,0,0,0,0,0,0,0,-1,1049,820,0,0
-168,204,0,0,0,0,0,0,0,0,0,-1,1056,820,0,0
-161,204,0,0,0,0,0,0,0,0,0,-1,1063,820,0,0
-154,204,0,0,0,0,0,0,0,0,0,-1,1070,820,0,0
-147,204,0,0,0,0,0,0,0,0,0,-1,1077,820,0,0
-140,204,0,0,0,0,0,0,0,0,0,-1,1084,820,0,0
-133,204,0,0,0,0,0,0,0,0,0,-1,1091,820,0,0
-126,204,0,0,0,0,0,0,0,0,0,-1,1098,820,0,0
-119,204,0,0,0,0,0,0,0,0,0,-1,1105,820,0,0
-112,204,0,0,0,0,0,0,0,0,0,-1,1112,820,0,0
-105,204,0,0,0,0,0,0,0,0,0,-1,1119,820,0,0
-98,204,0,0,0,0,0,0,0,0,0,-1,1126,820,0,0
-91,204,0,0,0,0,0,0,0,0,0,-1,1133,820,0,0
-84,204,0,0,0,0,0,0,0,0,0,-1,1140,820,0,0
-77,204,0,0,0,0,0,0,0,0,0,-1,1147,820,0,0
-70,204,0,0,0,0,0,0,0,0,0,-1,1154,820,0,0
-63,204,0,0,0,0,0,0,0,0,0,-1,1161,820,0,0
-56,204,0,0,0,0,0,0,0,0,0,-1,1168,820,0,0
-49,204,0,0,0,0,0,0,0,0,0,-1,1175,820,0,0
-42,204,0,0,0,0,0,0,0,0,0,-1,1182,820,0,0
-35,204,0,0,0,0,0,0,0,0,0,-1,1189,820,0,0
-28,204,0,0,0,0,0,0,0,0,0,-1,1196,820,0,0
-21,204,0,0,0,0,0,0,0,0,0,-1,1203,820,0,0
-14,204,0,0,0,0,0,0,0,0,0,-1,1210,820,0,0
-7,204,0,0,0,0,0,0,0,0,0,-1,1217,820,0,0
0,204,0,0,0,0,0,0,0,0,0,-1,1224,820,0,0
7,204,0,0,0,0,0,0,0,0,0,-1,1231,820,0,0
14,204,0,0,0,0,0,0,0,0,0,-1,1238,820,0,0
21,204,0,0,0,0,0,0,0,0,0,-1,1245,820,0,0
28,204,0,0,0,0,0,0,0,0,0,-1,1252,820,0,0
35,204,0,0,0,0,0,0,0,0,0,-1,1259,820,0,0
42,204,0,0,0,0,0,0,0,0,0,-1,1266,820,0,0
49,204,0,0,0,0,0,0,0,0,0,-1,1273,820,0,0
56,204,0,0,0,0,0,0,0,0,0,-1,1280,820,0,0
63,204,0,0,0,0,0,0,0,0,0,-1,1287,820,0,0
70,204,0,0,0,0,0,0,0,0,0,-1,1294,820,0,0
77,204,0,0,0,0,0,0,0,0,0,-1,1301,820,0,0
84,204,0,0,0,0,0,0,0,0,0,-1,1308,820,0,0
91,204,0,0,0,0,0,0,0,0,0,-1,1315,820,0,0
98,204,0,0,0,0,0,0,0,0,0,-1,1322,820,0,0
105,204,0,0,0,0,0,0,0,0,0,-1,1329,820,0,0
112,204,0,0,0,0,0,0,0,0,0,-1,1336,820,0,0
119,204,0,0,0,0,0,0,0,0,0,-1,1343,820,0,0
126,204,0,0,0,0,0,0,0,0,0,-1,1350,820,0,0
133,204,0,0,0,0,0,0,0,0,0,-1,1357,820,0,0
140,204,0,0,0,0,0,0,0,0,0,-1,1364,820,0,0
147,204,0,0,0,0,0,0,0,0,0,-1,1371,820,0,0
154,204,0,0,0,0,0,0,0,0,0,-1,1378,820,0,0
161,204,0,0,0,0,0,0,0,0,0,-1,1385,820,0,0
168,204,0,0,0,0,0,0,0,0,0,-1,1392,820,0,0
175,204,0,0,0,0,0,0,0,0,0,-1,1399,820,0,0
182,204,0,0,0,0,0,0,0,0,0,-1,1406,820,0,0
189,204,0,0,0,0,0,0,0,0,0,-1,1413,820,0,0
196,204,0,0,0,0,0,0,0,0,0,-1,1420,820,0,0
203,204,0,0,0,0,0,0,0,0,0,-1,1427,820,0,0
210,204,0,0,0,0,0,0,0,0,0,-1,1434,820,0,0
217,204,0,0,0,0,0,0,0,0,0,-1,1441,820,0,0
224,204,0,0,0,0,0,0,0,0,0,-1,1448,820,0,0
231,204,0,0,0,0,0,0,0,0,0,-1,1455,820,0,0
238,204,0,0,0,0,0,0,0,0,0,-1,1462,820,0,0
245,204,0,0,0,0,0,0,0,0,0,-1,1469,820,0,0
252,204,0,0,0,0,0,0,0,0,0,-1,1476,820,0,0
259,204,0,0,0,0,0,0,0,0,0,-1,1483,820,0,0
266,204,0,0,0,0,0,0,0,0,0,-1,1490,820,0,0
273,204,0,0,0,0,0,0,0,0,0,-1,1497,820,0,0
280,204,0,0,0,0,0,0,0,0,0,-1,1504,820,0,0
287,204,0,0,0,0,0,0,0,0,0,-1,1511,820,0,0
294,204,0,0,0,0,0,0,0,0,0,-1,1518,820,0,0
301,204,0,0,0,0,0,0,0,0,0,-1,1525,820,0,0
308,204,0,0,0,0,0,0,0,0,0,-1,1532,820,0,0
315,204,0,0,0,0,0,0,0,0,0,-1,1539,820,0,0
322,204,0,0,0,0,0,0,0,0,0,-1,1546,820,0,0
329,204,0,0,0,0,0,0,0,0,0,-1,1553,820,0,0
336,204,0,0,0,0,0,0,0,0,0,-1,1560,820,0,0
343,204,0,0,0,0,0,0,0,0,0,-1,1567,820,0,0
350,204,0,0,0,0,0,0,0,0,0,-1,1574,820,0,0
357,204,0,0,0,0,0,0,0,0,0,-1,1581,820,0,0
364,204,0,0,0,0,0,0,0,0,0,-1,1588,820,0,0
371,204,0,0,0,0,0,0,0,0,0,-1,1595,820,0,0
378,204,0,0,0,0,0,0,0,0,0,-1,1602,820,0,0
385,204,0,0,0,0,0,0,0,0,0,-1,1609,820,0,0
392,204,0,0,0,0,0,0,0,0,0,-1,1616,820,0,0
399,204,0,0,0,0,0,0,0,0,0,-1,1623,820,0,0
406,204,0,0,0,0,0,0,0,0,0,-1,1630,820,0,0
413,204,0,0,0,0,0,0,0,0,0,-1,1637,820,0,0
420,204,0,0,0,0,0,0,0,0,0,-1,1644,820,0,0
427,204,0,0,0,0,0,0,0,0,0,-1,1651,820,0,0
434,204,0,0,0,0,0,0,0,0,0,-1,1658,820,0,0
441,204,0,0,0,0,0,0,0,0,0,-1,1665,820,0,0
448,204,0,0,0,0,0,0,0,0,0,-1,1672,820,0,0
455,204,0,0,0,0,0,0,0,0,0,-1,1679,820,0,0
462,204,0,0,0,0,0,0,0,0,0,-1,1686,820,0,0
469,204,0,0,0,0,0,0,0,0,0,-1,1693,820,0,0
476,204,0,0,0,0,0,0,0,0,0,-1,1700,820,0,0
483,204,0,0,0,0,0,0,0,0,0,-1,1707,820,0,0
490,204,0,0,0,0,0,0,0,0,0,-1,1714,820,0,0
497,204,0,0,0,0,0,0,0,0,0,-1,1721,820,0,0
504,204,0,0,0,0,0,0,0,0,0,-1,1728,820,0,0
511,204,0,0,0,0,0,0,0,0,0,-1,1735,820,0,0
518,204,0,0,0,0,0,0,0,0,0,-1,1742,820,0,0
525,204,0,0,0,0,0,0,0,0,0,-1,1749,820,0,0
532,204,0,0,0,0,0,0,0,0,0,-1,1756,820,0,0
539,204,0,0,0,0,0,0,0,0,0,-1,1763,820,0,0
546,204,0,0,0,0,0,0,0,0,0,-1,1770,820,0,0
553,204,0,0,0,0,0,0,0,0,0,-1,1777,820,0,0
560,204,0,0,0,0,0,0,0,0,0,-1,1784,820,0,0
567,204,0,0,0,0,0,0,0,0,0,-1,1791,820,0,0
574,204,0,0,0,0,0,0,0,0,0,-1,1798,820,0,0
581,204,0,0,0,0,0,0,0,0,0,-1,1805,820,0,0
588,204,0,0,0,0,0,0,0,0,0,-1,1812,820,0,0
595,204,0,0,0,0,0,0,0,0,0,-1,1819,820,0,0
602,204,159.544,5.57355,0,0,0,0,0,0,0,-1,1826,820,159.544,-5.57355
609,204,159.444,5.47668,0,0,0,0,0,0,0,-1,1833,820,159.444,-5.4767
616,204,159.555,5.45905,0,0,0,0,0,0,0,-1,1840,820,159.555,-5.45906
623,204,159.617,5.5614,0,0,0,0,0,0,0,-1,1847,820,159.617,-5.56138
630,204,159.522,5.578,0,0,0,0,0,0,0,-1,1854,820,159.522,-5.57802
637,204,159.43,5.66711,0,0,0,0,0,0,0,-1,1861,820,159.43,-5.66712
644,204,80.9747,2.19354,0,0,0,0,0,0,0,-1,1868,820,80.9747,-2.19357
651,204,53.7611,2.32251,0,0,0,0,0,0,0,-1,1875,820,53.7611,-2.32249
658,204,34.9631,1.64844,0,0,0,0,0,0,0,-1,1882,820,34.9631,-1.64842
665,204,21.8292,1.51099,0,0,0,0,0,0,0,-1,1889,820,21.8292,-1.51099
672,204,76.1548,-2.67474,0,0,0,0,0,0,0,-1,1896,820,76.1548,2.67474
679,204,116.017,3.93854,0,0,0,0,0,0,0,-1,1903,820,116.017,-3.93854
686,204,117.16,5.8653,0,0,0,0,0,0,0,-1,1910,820,117.159,-5.86527
693,204,128.948,10.7739,0,0,0,0,0,0,0,-1,1917,820,128.948,-10.7739
700,204,128.483,12.917,-0.00401936,0.00724352,-0.00428546,0.00868869,-0.00546452,-1.24555,0.00824173,0.0231486,1924,820,128.483,-12.917
707,204,128.286,14.9705,-0.00722242,0.0128331,-0.00645157,0.0147292,-0.00911853,-1.28495,0.013895,0.0225553,1931,820,128.286,-14.9705
714,204,127.953,16.9012,-0.0105399,0.0184415,-0.00856458,0.0207833,-0.0128816,-1.30389,0.0196141,0.0392239,1938,820,127.953,-16.9012
721,204,127.552,18.7402,-0.0138819,0.0240619,-0.0106039,0.0268243,-0.0166442,-1.31596,0.0253249,0.0406833,1945,820,127.552,-18.7402
728,204,127.259,20.4431,-0.0171524,0.0296906,-0.012545,0.0328386,-0.0203005,-1.32493,0.0309632,0.0286908,1952,820,127.259,-20.4431
735,204,126.82,22.1024,-0.0202532,0.0353243,-0.0143547,0.0388129,-0.0237418,-1.33239,0.0364637,0.0463254,1959,820,126.82,-22.1024
742,204,126.508,23.8309,0,0,0,0,0,0,0,-1,1966,820,126.508,-23.8309
749,204,101.314,18.9936,0,0,0,0,0,0,0,-1,1973,820,101.314,-18.9936
756,204,92.436,17.8448,0,0,0,0,0,0,0,-1,1980,820,92.436,-17.8448
763,204,100.431,20.1368,0,0,0,0,0,0,0,-1,1987,820,100.431,-20.1368
770,204,81.447,15.5807,0,0,0,0,0,0,0,-1,1994,820,81.4469,-15.5807
777,204,0,0,0,0,0,0,0,0,0,-1,2001,820,0,0
784,204,0,0,0,0,0,0,0,0,0,-1,2008,820,0,0
791,204,0,0,0,0,0,0,0,0,0,-1,2015,820,0,0
798,204,0,0,0,0,0,0,0,0,0,-1,2022,820,0,0
805,204,0,0,0,0,0,0,0,0,0,-1,2029,820,0,0
812,204,0,0,0,0,0,0,0,0,0,-1,2036,820,0,0
-700,197,0,0,0,0,0,0,0,0,0,-1,524,827,0,0
-693,197,0,0,0,0,0,0,0,0,0,-1,531,827,0,0
-686,197,0,0,0,0,0,0,0,0,0,-1,538,827,0,0
-679,197,0,0,0,0,0,0,0,0,0,-1,545,827,0,0
-672,197,0,0,0,0,0,0,0,0,0,-1,552,827,0,0
-665,197,0,0,0,0,0,0,0,0,0,-1,559,827,0,0
-658,197,-39.9774,5.66638,0,0,0,0,0,0,0,-1,566,827,-39.9774,-5.66637
-651,197,-39.9665,5.23578,0,0,0,0,0,0,0,-1,573,827,-39.9665,-5.23575
-644,197,-38.9225,4.75665,0,0,0,0,0,0,0,-1,580,827,-38.9225,-4.75665
-637,197,-45.2572,7.41498,0,0,0,0,0,0,0,-1,587,827,-45.2572,-7.415
-630,197,-40.4908,2.45648,0,0,0,0,0,0,0,-1,594,827,-40.4908,-2.45649
-623,197,-74.227,17.6605,0,0,0,0,0,0,0,-1,601,827,-74.227,-17.6605
-616,197,-74.0396,15.9453,0,0,0,0,0,0,0,-1,608,827,-74.0396,-15.9453
-609,197,-118.629,23.9023,0,0,0,0,0,0,0,-1,615,827,-118.629,-23.9023
-602,197,-118.966,22.3035,-0.0143712,0.0361914,0.010385,0.0382413,-0.016421,1.37591,0.0323866,0.0331429,622,827,-118.966,-22.3035
-595,197,-119.321,20.6955,-0.0105204,0.0287165,0.00867562,0.0305492,-0.012353,1.36261,0.0255014,0.0274291,629,827,-119.321,-20.6955
-588,197,-119.709,18.8936,-0.00662501,0.0212629,0.0068605,0.0228592,-0.00822134,1.34218,0.0185959,0.0263534,636,827,-119.709,-18.8936
-581,197,-120.019,17.0196,-0.00289785,0.0139311,0.00489498,0.0152513,-0.00421807,1.30736,0.011827,0.0157905,643,827,-120.019,-17.0196
-574,197,-120.285,15.104,0.000610533,0.00679703,0.00277022,0.00785617,-0.000448605,1.20562,0.0053932,0.0197584,650,827,-120.285,-15.104
-567,197,-120.42,13.2883,0.00378879,-0.000321072,0.000444113,0.00383624,-0.000368515,0.106423,0.00268876,0.0322291,657,827,-120.42,-13.2884
-560,197,-120.525,11.4794,0,0,0,0,0,0,0,-1,664,827,-120.525,-11.4794
-553,197,-121.229,9.28113,0,0,0,0,0,0,0,-1,671,827,-121.229,-9.28112
-546,197,-121.87,7.56775,0,0,0,0,0,0,0,-1,678,827,-121.87,-7.56776
-539,197,-32.8993,-2.61737,0,0,0,0,0,0,0,-1,685,827,-32.8993,2.61737
-532,197,-16.0519,0.0410156,0,0,0,0,0,0,0,-1,692,827,-16.0519,-0.0410415
-525,197,-35.3785,2.11829,0,0,0,0,0,0,0,-1,699,827,-35.3785,-2.11826
-518,197,-57.6698,0.308533,0,0,0,0,0,0,0,-1,706,827,-57.6698,-0.308561
-511,197,-72.6749,0.492554,0,0,0,0,0,0,0,-1,713,827,-72.6749,-0.492524
-504,197,-71.1552,0.703064,0,0,0,0,0,0,0,-1,720,827,-71.1552,-0.703067
-497,197,-71.2643,0.608765,0,0,0,0,0,0,0,-1,727,827,-71.2643,-0.608793
-490,197,-71.2889,0.46698,0,0,0,0,0,0,0,-1,734,827,-71.2889,-0.466976
-483,197,-71.1486,0.482544,0,0,0,0,0,0,0,-1,741,827,-71.1485,-0.482525
-476,197,0,0,0,0,0,0,0,0,0,-1,748,827,0,0
-469,197,0,0,0,0,0,0,0,0,0,-1,755,827,0,0
-462,197,0,0,0,0,0,0,0,0,0,-1,762,827,0,0
-455,197,0,0,0,0,0,0,0,0,0,-1,769,827,0,0
-448,197,0,0,0,0,0,0,0,0,0,-1,776,827,0,0
-441,197,0,0,0,0,0,0,0,0,0,-1,783,827,0,0
-434,197,0,0,0,0,0,0,0,0,0,-1,790,827,0,0
-427,197,0,0,0,0,0,0,0,0,0,-1,797,827,0,0
-420,197,0,0,0,0,0,0,0,0,0,-1,804,827,0,0
-413,197,0,0,0,0,0,0,0,0,0,-1,811,827,0,0
-406,197,0,0,0,0,0,0,0,0,0,-1,818,827,0,0
-399,197,0,0,0,0,0,0,0,0,0,-1,825,827,0,0
-392,197,0,0,0,0,0,0,0,0,0,-1,832,827,0,0
-385,197,0,0,0,0,0,0,0,0,0,-1,839,827,0,0
-378,197,0,0,0,0,0,0,0,0,0,-1,846,827,0,0
-371,197,0,0,0,0,0,0,0,0,0,-1,853,827,0,0
-364,197,0,0,0,0,0,0,0,0,0,-1,860,827,0,0
-357,197,0,0,0,0,0,0,0,0,0,-1,867,827,0,0
-350,197,0,0,0,0,0,0,0,0,0,-1,874,827,0,0
-343,197,0,0,0,0,0,0,0,0,0,-1,881,827,0,0
-336,197,0,0,0,0,0,0,0,0,0,-1,888,827,0,0
-329,197,0,0,0,0,0,0,0,0,0,-1,895,827,0,0
-322,197,0,0,0,0,0,0,0,0,0,-1,902,827,0,0
-315,197,0,0,0,0,0,0,0,0,0,-1,909,827,0,0
-308,197,0,0,0,0,0,0,0,0,0,-1,916,827,0,0
-301,197,0,0,0,0,0,0,0,0,0,-1,923,827,0,0
-294,197,0,0,0,0,0,0,0,0,0,-1,930,827,0,0
-287,197,0,0,0,0,0,0,0,0,0,-1,937,827,0,0
-280,197,0,0,0,0,0,0,0,0,0,-1,944,827,0,0
-273,197,0,0,0,0,0,0,0,0,0,-1,951,827,0,0
-266,197,0,0,0,0,0,0,0,0,0,-1,958,827,0,0
-259,197,0,0,0,0,0,0,0,0,0,-1,965,827,0,0
-252,197,0,0,0,0,0,0,0,0,0,-1,972,827,0,0
-245,197,0,0,0,0,0,0,0,0,0,-1,979,827,0,0
-238,197,0,0,0,0,0,0,0,0,0,-1,986,827,0,0
-231,197,0,0,0,0,0,0,0,0,0,-1,993,827,0,0
-224,197,0,0,0,0,0,0,0,0,0,-1,1000,827,0,0
-217,197,0,0,0,0,0,0,0,0,0,-1,1007,827,0,0
-210,197,0,0,0,0,0,0,0,0,0,-1,1014,827,0,0
-203,197,0,0,0,0,0,0,0,0,0,-1,1021,827,0,0
-196,197,0,0,0,0,0,0,0,0,0,-1,1028,827,0,0
-189,197,0,0,0,0,0,0,0,0,0,-1,1035,827,0,0
-182,197,0,0,0,0,0,0,0,0,0,-1,1042,827,0,0
-175,197,0,0,0,0,0,0,0,0,0,-1,1049,827,0,0
-168,197,0,0,0,0,0,0,0,0,0,-1,1056,827,0,0
-161,197,0,0,0,0,0,0,0,0,0,-1,1063,827,0,0
-154,197,0,0,0,0,0,0,0,0,0,-1,1070,827,0,0
-147,197,0,0,0,0,0,0,0,0,0,-1,1077,827,0,0
-140,197,0,0,0,0,0,0,0,0,0,-1,1084,827,0,0
-133,197,0,0,0,0,0,0,0,0,0,-1,1091,827,0,0
-126,197,0,0,0,0,0,0,0,0,0,-1,1098,827,0,0
-119,197,0,0,0,0,0,0,0,0,0,-1,1105,827,0,0
-112,197,0,0,0,0,0,0,0,0,0,-1,1112,827,0,0
-105,197,0,0,0,0,0,0,0,0,0,-1,1119,827,0,0
-98,197,0,0,0,0,0,0,0,0,0,-1,1126,827,0,0
-91,197,0,0,0,0,0,0,0,0,0,-1,1133,827,0,0
-84,197,0,0,0,0,0,0,0,0,0,-1,1140,827,0,0
-77,197,0,0,0,0,0,0,0,0,0,-1,1147,827,0,0
-70,197,0,0,0,0,0,0,0,0,0,-1,1154,827,0,0
-63,197,0,0,0,0,0,0,0,0,0,-1,1161,827,0,0
-56,197,0,0,0,0,0,0,0,0,0,-1,1168,827,0,0
-49,197,0,0,0,0,0,0,0,0,0,-1,1175,827,0,0
-42,197,0,0,0,0,0,0,0,0,0,-1,1182,827,0,0
-35,197,0,0,0,0,0,0,0,0,0,-1,1189,827,0,0
-28,197,0,0,0,0,0,0,0,0,0,-1,1196,827,0,0
-21,197,0,0,0,0,0,0,0,0,0,-1,1203,827,0,0
-14,197,0,0,0,0,0,0,0,0,0,-1,1210,827,0,0
-7,197,0,0,0,0,0,0,0,0,0,-1,1217,827,0,0
0,197,0,0,0,0,0,0,0,0,0,-1,1224,827,0,0
7,197,0,0,0,0,0,0,0,0,0,-1,1231,827,0,0
14,197,0,0,0,0,0,0,0,0,0,-1,1238,827,0,0
21,197,0,0,0,0,0,0,0,0,0,-1,1245,827,0,0
28,197,0,0,0,0,0,0,0,0,0,-1,1252,827,0,0
35,197,0,0,0,0,0,0,0,0,0,-1,1259,827,0,0
42,197,0,0,0,0,0,0,0,0,0,-1,1266,827,0,0
49,197,0,0,0,0,0,0,0,0,0,-1,1273,827,0,0
56,197,0,0,0,0,0,0,0,0,0,-1,1280,827,0,0
63,197,0,0,0,0,0,0,0,0,0,-1,1287,827,0,0
70,197,0,0,0,0,0,0,0,0,0,-1,1294,827,0,0
77,197,0,0,0,0,0,0,0,0,0,-1,1301,827,0,0
84,197,0,0,0,0,0,0,0,0,0,-1,1308,827,0,0
91,197,0,0,0,0,0,0,0,0,0,-1,1315,827,0,0
98,197,0,0,0,0,0,0,0,0,0,-1,1322,827,0,0
105,197,0,0,0,0,0,0,0,0,0,-1,1329,827,0,0
112,197,0,0,0,0,0,0,0,0,0,-1,1336,827,0,0
119,197,0,0,0,0,0,0,0,0,0,-1,1343,827,0,0
126,197,0,0,0,0,0,0,0,0,0,-1,1350,827,0,0
133,197,0,0,0,0,0,0,0,0,0,-1,1357,827,0,0
140,197,0,0,0,0,0,0,0,0,0,-1,1364,827,0,0
147,197,0,0,0,0,0,0,0,0,0,-1,1371,827,0,0
154,197,0,0,0,0,0,0,0,0,0,-1,1378,827,0,0
161,197,0,0,0,0,0,0,0,0,0,-1,1385,827,0,0
168,197,0,0,0,0,0,0,0,0,0,-1,1392,827,0,0
175,197,0,0,0,0,0,0,0,0,0,-1,1399,827,0,0
182,197,0,0,0,0,0,0,0,0,0,-1,1406,827,0,0
189,197,0,0,0,0,0,0,0,0,0,-1,1413,827,0,0
196,197,0,0,0,0,0,0,0,0,0,-1,1420,827,0,0
203,197,0,0,0,0,0,0,0,0,0,-1,1427,827,0,0
210,197,0,0,0,0,0,0,0,0,0,-1,1434,827,0,0
217,197,0,0,0,0,0,0,0,0,0,-1,1441,827,0,0
224,197,0,0,0,0,0,0,0,0,0,-1,1448,827,0,0
231,197,0,0,0,0,0,0,0,0,0,-1,1455,827,0,0
238,197,0,0,0,0,0,0,0,0,0,-1,1462,827,0,0
245,197,0,0,0,0,0,0,0,0,0,-1,1469,827,0,0
252,197,0,0,0,0,0,0,0,0,0,-1,1476,827,0,0
259,197,0,0,0,0,0,0,0,0,0,-1,1483,827,0,0
266,197,0,0,0,0,0,0,0,0,0,-1,1490,827,0,0
273,197,0,0,0,0,0,0,0,0,0,-1,1497,827,0,0
280,197,0,0,0,0,0,0,0,0,0,-1,1504,827,0,0
287,197,0,0,0,0,0,0,0,0,0,-1,1511,827,0,0
294,197,0,0,0,0,0,0,0,0,0,-1,1518,827,0,0
301,197,0,0,0,0,0,0,0,0,0,-1,1525,827,0,0
308,197,0,0,0,0,0,0,0,0,0,-1,1532,827,0,0
315,197,0,0,0,0,0,0,0,0,0,-1,1539,827,0,0
322,197,0,0,0,0,0,0,0,0,0,-1,1546,827,0,0
329,197,0,0,0,0,0,0,0,0,0,-1,1553,827,0,0
336,197,0,0,0,0,0,0,0,0,0,-1,1560,827,0,0
343,197,0,0,0,0,0,0,0,0,0,-1,1567,827,0,0
350,197,0,0,0,0,0,0,0,0,0,-1,1574,827,0,0
357,197,0,0,0,0,0,0,0,0,0,-1,1581,827,0,0
364,197,0,0,0,0,0,0,0,0,0,-1,1588,827,0,0
371,197,0,0,0,0,0,0,0,0,0,-1,1595,827,0,0
378,197,0,0,0,0,0,0,0,0,0,-1,1602,827,0,0
385,197,0,0,0,0,0,0,0,0,0,-1,1609,827,0,0
392,197,0,0,0,0,0,0,0,0,0,-1,1616,827,0,0
399,197,0,0,0,0,0,0,0,0,0,-1,1623,827,0,0
406,197,0,0,0,0,0,0,0,0,0,-1,1630,827,0,0
413,197,0,0,0,0,0,0,0,0,0,-1,1637,827,0,0
420,197,0,0,0,0,0,0,0,0,0,-1,1644,827,0,0
427,197,0,0,0,0,0,0,0,0,0,-1,1651,827,0,0
434,197,0,0,0,0,0,0,0,0,0,-1,1658,827,0,0
441,197,0,0,0,0,0,0,0,0,0,-1,1665,827,0,0
448,197,0,0,0,0,0,0,0,0,0,-1,1672,827,0,0
455,197,0,0,0,0,0,0,0,0,0,-1,1679,827,0,0
462,197,0,0,0,0,0,0,0,0,0,-1,1686,827,0,0
469,197,0,0,0,0,0,0,0,0,0,-1,1693,827,0,0
476,197,0,0,0,0,0,0,0,0,0,-1,1700,827,0,0
483,197,0,0,0,0,0,0,0,0,0,-1,1707,827,0,0
490,197,0,0,0,0,0,0,0,0,0,-1,1714,827,0,0
497,197,0,0,0,0,0,0,0,0,0,-1,1721,827,0,0
504,197,0,0,0,0,0,0,0,0,0,-1,1728,827,0,0
511,197,0,0,0,0,0,0,0,0,0,-1,1735,827,0,0
518,197,0,0,0,0,0,0,0,0,0,-1,1742,827,0,0
525,197,0,0,0,0,0,0,0,0,0,-1,1749,827,0,0
532,197,0,0,0,0,0,0,0,0,0,-1,1756,827,0,0
539,197,0,0,0,0,0,0,0,0,0,-1,1763,827,0,0
546,197,0,0,0,0,0,0,0,0,0,-1,1770,827,0,0
553,197,0,0,0,0,0,0,0,0,0,-1,1777,827,0,0
560,197,0,0,0,0,0,0,0,0,0,-1,1784,827,0,0
567,197,0,0,0,0,0,0,0,0,0,-1,1791,827,0,0
574,197,0,0,0,0,0,0,0,0,0,-1,1798,827,0,0
581,197,0,0,0,0,0,0,0,0,0,-1,1805,827,0,0
588,197,0,0,0,0,0,0,0,0,0,-1,1812,827,0,0
595,197,0,0,0,0,0,0,0,0,0,-1,1819,827,0,0
602,197,159.444,5.67371,0,0,0,0,0,0,0,-1,1826,827,159.444,-5.67373
609,197,159.372,5.51318,0,0,0,0,0,0,0,-1,1833,827,159.372,-5.51317
616,197,159.551,5.4201,0,0,0,0,0,0,0,-1,1840,827,159.551,-5.42008
623,197,159.528,5.53003,0,0,0,0,0,0,0,-1,1847,827,159.528,-5.53002
630,197,159.569,5.49591,0,0,0,0,0,0,0,-1,1854,827,159.569,-5.49589
637,197,159.605,5.54236,0,0,0,0,0,0,0,-1,1861,827,159.605,-5.54237
644,197,159.494,5.61731,0,0,0,0,0,0,0,-1,1868,827,159.494,-5.61729
651,197,73.8147,2.2644,0,0,0,0,0,0,0,-1,1875,827,73.8147,-2.26442
658,197,40.4694,3.05927,0,0,0,0,0,0,0,-1,1882,827,40.4694,-3.05926
665,197,14.0618,1.80304,0,0,0,0,0,0,0,-1,1889,827,14.0617,-1.80303
672,197,73.9781,-2.86737,0,0,0,0,0,0,0,-1,1896,827,73.9782,2.86738
679,197,118.135,4.19025,0,0,0,0,0,0,0,-1,1903,827,118.135,-4.19026
686,197,117.649,6.04926,0,0,0,0,0,0,0,-1,1910,827,117.649,-6.04924
693,197,130.988,11.5972,0,0,0,0,0,0,0,-1,1917,827,130.988,-11.5972
700,197,130.373,13.0696,0,0,0,0,0,0,0,-1,1924,827,130.373,-13.0696
707,197,130.189,15.1716,-0.00586834,0.0106839,-0.00537263,0.0122748,-0.00745931,-1.2829,0.011506,0.0149988,1931,827,130.189,-15.1716
714,197,129.902,16.9938,-0.00927872,0.0162596,-0.00732636,0.0182121,-0.0112312,-1.31035,0.0171576,0.0184279,1938,827,129.902,-16.9938
721,197,129.542,18.8223,-0.0127051,0.0218578,-0.00924151,0.0241736,-0.0150209,-1.32526,0.0228337,0.0182997,1945,827,129.543,-18.8223
728,197,129.246,20.5151,-0.0160591,0.0274767,-0.0110897,0.0301387,-0.0187212,-1.33521,0.0284649,0.0179824,1952,827,129.246,-20.5151
735,197,128.941,22.1773,-0.0192491,0.0331171,-0.0128374,0.0360949,-0.0222268,-1.34287,0.0339878,0.029218,1959,827,128.942,-22.1773
742,197,128.558,23.8723,-0.0221838,0.0387792,-0.014446,0.0420291,-0.0254337,-1.34951,0.0393406,0.0433978,1966,827,128.558,-23.8722
749,197,128.527,25.7081,0,0,0,0,0,0,0,-1,1973,827,128.527,-25.7081
756,197,121.426,24.1558,0,0,0,0,0,0,0,-1,1980,827,121.426,-24.1558
763,197,104.387,22.0678,0,0,0,0,0,0,0,-1,1987,827,104.387,-22.0678
770,197,101.281,21.3771,0,0,0,0,0,0,0,-1,1994,827,101.281,-21.3772
777,197,0,0,0,0,0,0,0,0,0,-1,2001,827,0,0
784,197,0,0,0,0,0,0,0,0,0,-1,2008,827,0,0
791,197,0,0,0,0,0,0,0,0,0,-1,2015,827,0,0
798,197,0,0,0,0,0,0,0,0,0,-1,2022,827,0,0
805,197,0,0,0,0,0,0,0,0,0,-1,2029,827,0,0
812,197,0,0,0,0,0,0,0,0,0,-1,2036,827,0,0
-700,190,0,0,0,0,0,0,0,0,0,-1,524,834,0,0
-693,190,0,0,0,0,0,0,0,0,0,-1,531,834,0,0
-686,190,0,0,0,0,0,0,0,0,0,-1,538,834,0,0
-679,190,0,0,0,0,0,0,0,0,0,-1,545,834,0,0
-672,190,0,0,0,0,0,0,0,0,0,-1,552,834,0,0
-665,190,0,0,0,0,0,0,0,0,0,-1,559,834,0,0
-658,190,-41.9736,5.50092,0,0,0,0,0,0,0,-1,566,834,-41.9736,-5.50089
-651,190,-40.1895,4.99677,0,0,0,0,0,0,0,-1,573,834,-40.1894,-4.99677
-644,190,-106.669,29.3985,0,0,0,0,0,0,0,-1,580,834,-106.669,-29.3985
-637,190,-64.9345,16.5327,0,0,0,0,0,0,0,-1,587,834,-64.9345,-16.5327
-630,190,-50.036,11.1152,0,0,0,0,0,0,0,-1,594,834,-50.036,-11.1152
-623,190,-58.1236,11.9842,0,0,0,0,0,0,0,-1,601,834,-58.1236,-11.9842
-616,190,-75.6895,16.0828,0,0,0,0,0,0,0,-1,608,834,-75.6895,-16.0827
-609,190,-120.131,24.0549,0,0,0,0,0,0,0,-1,615,834,-120.131,-24.055
-602,190,-120.893,22.501,-0.0140922,0.0313964,0.0102264,0.0335897,-0.0162855,1.35953,0.0293675,0.0364755,622,834,-120.893,-22.501
-595,190,-121.378,20.7391,-0.0100942,0.024654,0.00831852,0.0265428,-0.011983,1.34753,0.0227662,0.0243626,629,834,-121.378,-20.7391
-588,190,-121.675,18.9562,-0.00592791,0.0177376,0.00631277,0.0193162,-0.00750654,1.32575,0.0159786,0.026798,636,834,-121.675,-18.9562
-581,190,-121.907,17.152,-0.00171371,0.0107775,0.00418561,0.0120503,-0.00298655,1.27558,0.00919222,0.0216464,643,834,-121.907,-17.1519
-574,190,-122.155,15.3239,0.00242025,0.00387709,0.00191271,0.00519539,0.00110195,0.967335,0.00316097,0.020784,650,834,-122.155,-15.3239
-567,190,-122.276,13.2781,0.00648414,-0.0033545,-0.000578188,0.00651801,-0.00338836,-0.0584987,0.00581381,0.0313097,657,834,-122.276,-13.2782
-560,190,-122.382,11.3859,0.0100897,-0.010223,-0.00315142,0.0105674,-0.0107007,-0.150435,0.0122792,0.0325423,664,834,-122.382,-11.3858
-553,190,-122.858,9.49957,0,0,0,0,0,0,0,-1,671,834,-122.858,-9.4996
-546,190,-81.8255,2.11407,0,0,0,0,0,0,0,-1,678,834,-81.8255,-2.11409
-539,190,-16.4624,-0.542542,0,0,0,0,0,0,0,-1,685,834,-16.4624,0.542527
-532,190,-21.6292,2.06122,0,0,0,0,0,0,0,-1,692,834,-21.6292,-2.06123
-525,190,-38.9377,1.03369,0,0,0,0,0,0,0,-1,699,834,-38.9377,-1.0337
-518,190,-72.4769,0.710876,0,0,0,0,0,0,0,-1,706,834,-72.4768,-0.710856
-511,190,-72.7098,0.459412,0,0,0,0,0,0,0,-1,713,834,-72.7098,-0.459385
-504,190,-72.9623,0.199707,0,0,0,0,0,0,0,-1,720,834,-72.9624,-0.199699
-497,190,-71.3149,0.34845,0,0,0,0,0,0,0,-1,727,834,-71.3149,-0.348457
-490,190,-72.7162,1.22229,0,0,0,0,0,0,0,-1,734,834,-72.7163,-1.22232
-483,190,0,0,0,0,0,0,0,0,0,-1,741,834,0,0
-476,190,0,0,0,0,0,0,0,0,0,-1,748,834,0,0
-469,190,0,0,0,0,0,0,0,0,0,-1,755,834,0,0
-462,190,0,0,0,0,0,0,0,0,0,-1,762,834,0,0
-455,190,0,0,0,0,0,0,0,0,0,-1,769,834,0,0
-448,190,0,0,0,0,0,0,0,0,0,-1,776,834,0,0
-441,190,0,0,0,0,0,0,0,0,0,-1,783,834,0,0
-434,190,0,0,0,0,0,0,0,0,0,-1,790,834,0,0
-427,190,0,0,0,0,0,0,0,0,0,-1,797,834,0,0
-420,190,0,0,0,0,0,0,0,0,0,-1,804,834,0,0
-413,190,0,0,0,0,0,0,0,0,0,-1,811,834,0,0
-406,190,0,0,0,0,0,0,0,0,0,-1,818,834,0,0
-399,190,0,0,0,0,0,0,0,0,0,-1,825,834,0,0
-392,190,0,0,0,0,0,0,0,0,0,-1,832,834,0,0
-385,190,0,0,0,0,0,0,0,0,0,-1,839,834,0,0
-378,190,0,0,0,0,0,0,0,0,0,-1,846,834,0,0
-371,190,0,0,0,0,0,0,0,0,0,-1,853,834,0,0
-364,190,0,0,0,0,0,0,0,0,0,-1,860,834,0,0
-357,190,0,0,0,0,0,0,0,0,0,-1,867,834,0,0
-350,190,0,0,0,0,0,0,0,0,0,-1,874,834,0,0
-343,190,0,0,0,0,0,0,0,0,0,-1,881,834,0,0
-336,190,0,0,0,0,0,0,0,0,0,-1,888,834,0,0
-329,190,0,0,0,0,0,0,0,0,0,-1,895,834,0,0
-322,190,0,0,0,0,0,0,0,0,0,-1,902,834,0,0
-315,190,0,0,0,0,0,0,0,0,0,-1,909,834,0,0
-308,190,0,0,0,0,0,0,0,0,0,-1,916,834,0,0
-301,190,0,0,0,0,0,0,0,0,0,-1,923,834,0,0
-294,190,0,0,0,0,0,0,0,0,0,-1,930,834,0,0
-287,190,0,0,0,0,0,0,0,0,0,-1,937,834,0,0
-280,190,0,0,0,0,0,0,0,0,0,-1,944,834,0,0
-273,190,0,0,0,0,0,0,0,0,0,-1,951,834,0,0
-266,190,0,0,0,0,0,0,0,0,0,-1,958,834,0,0
-259,190,0,0,0,0,0,0,0,0,0,-1,965,834,0,0
-252,190,0,0,0,0,0,0,0,0,0,-1,972,834,0,0
-245,190,0,0,0,0,0,0,0,0,0,-1,979,834,0,0
-238,190,0,0,0,0,0,0,0,0,0,-1,986,834,0,0
-231,190,0,0,0,0,0,0,0,0,0,-1,993,834,0,0
-224,190,0,0,0,0,0,0,0,0,0,-1,1000,834,0,0
-217,190,0,0,0,0,0,0,0,0,0,-1,1007,834,0,0
-210,190,0,0,0,0,0,0,0,0,0,-1,1014,834,0,0
-203,190,0,0,0,0,0,0,0,0,0,-1,1021,834,0,0
-196,190,0,0,0,0,0,0,0,0,0,-1,1028,834,0,0
-189,190,0,0,0,0,0,0,0,0,0,-1,1035,834,0,0
-182,190,0,0,0,0,0,0,0,0,0,-1,1042,834,0,0
-175,190,0,0,0,0,0,0,0,0,0,-1,1049,834,0,0
-168,190,0,0,0,0,0,0,0,0,0,-1,1056,834,0,0
-161,190,0,0,0,0,0,0,0,0,0,-1,1063,834,0,0
-154,190,0,0,0,0,0,0,0,0,0,-1,1070,834,0,0
-147,190,0,0,0,0,0,0,0,0,0,-1,1077,834,0,0
-140,190,0,0,0,0,0,0,0,0,0,-1,1084,834,0,0
-133,190,0,0,0,0,0,0,0,0,0,-1,1091,834,0,0
-126,190,0,0,0,0,0,0,0,0,0,-1,1098,834,0,0
-119,190,0,0,0,0,0,0,0,0,0,-1,1105,834,0,0
-112,190,0,0,0,0,0,0,0,0,0,-1,1112,834,0,0
-105,190,0,0,0,0,0,0,0,0,0,-1,1119,834,0,0
-98,190,0,0,0,0,0,0,0,0,0,-1,1126,834,0,0
-91,190,0,0,0,0,0,0,0,0,0,-1,1133,834,0,0
-84,190,0,0,0,0,0,0,0,0,0,-1,1140,834,0,0
-77,190,0,0,0,0,0,0,0,0,0,-1,1147,834,0,0
-70,190,0,0,0,0,0,0,0,0,0,-1,1154,834,0,0
-63,190,0,0,0,0,0,0,0,0,0,-1,1161,834,0,0
-56,190,0,0,0,0,0,0,0,0,0,-1,1168,834,0,0
-49,190,0,0,0,0,0,0,0,0,0,-1,1175,834,0,0
-42,190,0,0,0,0,0,0,0,0,0,-1,1182,834,0,0
-35,190,0,0,0,0,0,0,0,0,0,-1,1189,834,0,0
-28,190,0,0,0,0,0,0,0,0,0,-1,1196,834,0,0
-21,190,0,0,0,0,0,0,0,0,0,-1,1203,834,0,0
-14,190,0,0,0,0,0,0,0,0,0,-1,1210,834,0,0
-7,190,0,0,0,0,0,0,0,0,0,-1,1217,834,0,0
0,190,0,0,0,0,0,0,0,0,0,-1,1224,834,0,0
7,190,0,0,0,0,0,0,0,0,0,-1,1231,834,0,0
14,190,0,0,0,0,0,0,0,0,0,-1,1238,834,0,0
21,190,0,0,0,0,0,0,0,0,0,-1,1245,834,0,0
28,190,0,0,0,0,0,0,0,0,0,-1,1252,834,0,0
35,190,0,0,0,0,0,0,0,0,0,-1,1259,834,0,0
42,190,0,0,0,0,0,0,0,0,0,-1,1266,834,0,0
49,190,0,0,0,0,0,0,0,0,0,-1,1273,834,0,0
56,190,0,0,0,0,0,0,0,0,0,-1,1280,834,0,0
63,190,0,0,0,0,0,0,0,0,0,-1,1287,834,0,0
70,190,0,0,0,0,0,0,0,0,0,-1,1294,834,0,0
77,190,0,0,0,0,0,0,0,0,0,-1,1301,834,0,0
84,190,0,0,0,0,0,0,0,0,0,-1,1308,834,0,0
91,190,0,0,0,0,0,0,0,0,0,-1,1315,834,0,0
98,190,0,0,0,0,0,0,0,0,0,-1,1322,834,0,0
105,190,0,0,0,0,0,0,0,0,0,-1,1329,834,0,0
112,190,0,0,0,0,0,0,0,0,0,-1,1336,834,0,0
119,190,0,0,0,0,0,0,0,0,0,-1,1343,834,0,0
126,190,0,0,0,0,0,0,0,0,0,-1,1350,834,0,0
133,190,0,0,0,0,0,0,0,0,0,-1,1357,834,0,0
140,190,0,0,0,0,0,0,0,0,0,-1,1364,834,0,0
147,190,0,0,0,0,0,0,0,0,0,-1,1371,834,0,0
154,190,0,0,0,0,0,0,0,0,0,-1,1378,834,0,0
161,190,0,0,0,0,0,0,0,0,0,-1,1385,834,0,0
168,190,0,0,0,0,0,0,0,0,0,-1,1392,834,0,0
175,190,0,0,0,0,0,0,0,0,0,-1,1399,834,0,0
182,190,0,0,0,0,0,0,0,0,0,-1,1406,834,0,0
189,190,0,0,0,0,0,0,0,0,0,-1,1413,834,0,0
196,190,0,0,0,0,0,0,0,0,0,-1,1420,834,0,0
203,190,0,0,0,0,0,0,0,0,0,-1,1427,834,0,0
210,190,0,0,0,0,0,0,0,0,0,-1,1434,834,0,0
217,190,0,0,0,0,0,0,0,0,0,-1,1441,834,0,0
224,190,0,0,0,0,0,0,0,0,0,-1,1448,834,0,0
231,190,0,0,0,0,0,0,0,0,0,-1,1455,834,0,0
238,190,0,0,0,0,0,0,0,0,0,-1,1462,834,0,0
245,190,0,0,0,0,0,0,0,0,0,-1,1469,834,0,0
252,190,0,0,0,0,0,0,0,0,0,-1,1476,834,0,0
259,190,0,0,0,0,0,0,0,0,0,-1,1483,834,0,0
266,190,0,0,0,0,0,0,0,0,0,-1,1490,834,0,0
273,190,0,0,0,0,0,0,0,0,0,-1,1497,834,0,0
280,190,0,0,0,0,0,0,0,0,0,-1,1504,834,0,0
287,190,0,0,0,0,0,0,0,0,0,-1,1511,834,0,0
294,190,0,0,0,0,0,0,0,0,0,-1,1518,834,0,0
301,190,0,0,0,0,0,0,0,0,0,-1,1525,834,0,0
308,190,0,0,0,0,0,0,0,0,0,-1,1532,834,0,0
315,190,0,0,0,0,0,0,0,0,0,-1,1539,834,0,0
322,190,0,0,0,0,0,0,0,0,0,-1,1546,834,0,0
329,190,0,0,0,0,0,0,0,0,0,-1,1553,834,0,0
336,190,0,0,0,0,0,0,0,0,0,-1,1560,834,0,0
343,190,0,0,0,0,0,0,0,0,0,-1,1567,834,0,0
350,190,0,0,0,0,0,0,0,0,0,-1,1574,834,0,0
357,190,0,0,0,0,0,0,0,0,0,-1,1581,834,0,0
364,190,0,0,0,0,0,0,0,0,0,-1,1588,834,0,0
371,190,0,0,0,0,0,0,0,0,0,-1,1595,834,0,0
378,190,0,0,0,0,0,0,0,0,0,-1,1602,834,0,0
385,190,0,0,0,0,0,0,0,0,0,-1,1609,834,0,0
392,190,0,0,0,0,0,0,0,0,0,-1,1616,834,0,0
399,190,0,0,0,0,0,0,0,0,0,-1,1623,834,0,0
406,190,0,0,0,0,0,0,0,0,0,-1,1630,834,0,0
413,190,0,0,0,0,0,0,0,0,0,-1,1637,834,0,0
420,190,0,0,0,0,0,0,0,0,0,-1,1644,834,0,0
427,190,0,0,0,0,0,0,0,0,0,-1,1651,834,0,0
434,190,0,0,0,0,0,0,0,0,0,-1,1658,834,0,0
441,190,0,0,0,0,0,0,0,0,0,-1,1665,834,0,0
448,190,0,0,0,0,0,0,0,0,0,-1,1672,834,0,0
455,190,0,0,0,0,0,0,0,0,0,-1,1679,834,0,0
462,190,0,0,0,0,0,0,0,0,0,-1,1686,834,0,0
469,190,0,0,0,0,0,0,0,0,0,-1,1693,834,0,0
476,190,0,0,0,0,0,0,0,0,0,-1,1700,834,0,0
483,190,0,0,0,0,0,0,0,0,0,-1,1707,834,0,0
490,190,0,0,0,0,0,0,0,0,0,-1,1714,834,0,0
497,190,0,0,0,0,0,0,0,0,0,-1,1721,834,0,0
504,190,0,0,0,0,0,0,0,0,0,-1,1728,834,0,0
511,190,0,0,0,0,0,0,0,0,0,-1,1735,834,0,0
518,190,0,0,0,0,0,0,0,0,0,-1,1742,834,0,0
525,190,0,0,0,0,0,0,0,0,0,-1,1749,834,0,0
532,190,0,0,0,0,0,0,0,0,0,-1,1756,834,0,0
539,190,0,0,0,0,0,0,0,0,0,-1,1763,834,0,0
546,190,0,0,0,0,0,0,0,0,0,-1,1770,834,0,0
553,190,0,0,0,0,0,0,0,0,0,-1,1777,834,0,0
560,190,0,0,0,0,0,0,0,0,0,-1,1784,834,0,0
567,190,0,0,0,0,0,0,0,0,0,-1,1791,834,0,0
574,190,0,0,0,0,0,0,0,0,0,-1,1798,834,0,0
581,190,0,0,0,0,0,0,0,0,0,-1,1805,834,0,0
588,190,0,0,0,0,0,0,0,0,0,-1,1812,834,0,0
595,190,0,0,0,0,0,0,0,0,0,-1,1819,834,0,0
602,190,159.424,5.55304,0,0,0,0,0,0,0,-1,1826,834,159.424,-5.55306
609,190,159.357,5.63251,0,0,0,0,0,0,0,-1,1833,834,159.357,-5.63253
616,190,159.462,5.62982,0,0,0,0,0,0,0,-1,1840,834,159.462,-5.62984
623,190,159.501,5.55475,0,0,0,0,0,0,0,-1,1847,834,159.501,-5.55478
630,190,159.636,5.50134,0,0,0,0,0,0,0,-1,1854,834,159.636,-5.50132
637,190,159.675,5.44843,0,0,0,0,0,0,0,-1,1861,834,159.675,-5.44845
644,190,159.456,5.60602,0,0,0,0,0,0,0,-1,1868,834,159.456,-5.60602
651,190,159.291,5.86676,0,0,0,0,0,0,0,-1,1875,834,159.291,-5.86677
658,190,54.0599,3.0943,0,0,0,0,0,0,0,-1,1882,834,54.0599,-3.09428
665,190,25.9916,3.05157,0,0,0,0,0,0,0,-1,1889,834,25.9916,-3.05156
672,190,27.2662,1.70862,0,0,0,0,0,0,0,-1,1896,834,27.2662,-1.70861
679,190,95.3605,1.07916,0,0,0,0,0,0,0,-1,1903,834,95.3604,-1.07919
686,190,132.995,9.87598,0,0,0,0,0,0,0,-1,1910,834,132.995,-9.87596
693,190,132.767,11.7635,0.00217587,-0.00236173,-0.000591145,0.00225162,-0.00243748,-0.127444,0.00270796,0.0424511,1917,834,132.767,-11.7635
700,190,132.391,13.5344,0,0,0,0,0,0,0,-1,1924,834,132.391,-13.5344
707,190,131.99,15.3549,-0.00447394,0.00841992,-0.00454205,0.00985926,-0.00591328,-1.26392,0.00920078,0.0224731,1931,834,131.989,-15.3549
714,190,131.807,17.1424,-0.00783825,0.0139284,-0.00631642,0.0156286,-0.0095384,-1.30786,0.0146713,0.0192557,1938,834,131.807,-17.1424
721,190,131.547,18.9255,-0.0112701,0.0194525,-0.0080955,0.0214552,-0.0132727,-1.32829,0.0202348,0.0154709,1945,834,131.547,-18.9255
728,190,131.257,20.6282,-0.0146785,0.0249932,-0.00984708,0.0273029,-0.0169882,-1.3404,0.0258016,0.0182865,1952,834,131.257,-20.6281
735,190,130.946,22.2709,-0.0179714,0.0305557,-0.0115355,0.0331583,-0.0205739,-1.3489,0.0313046,0.0170928,1959,834,130.945,-22.2709
742,190,130.672,23.9317,-0.0210588,0.0361494,-0.0131233,0.0390161,-0.0239255,-1.35573,0.0366859,0.0201675,1966,834,130.672,-23.9317
749,190,130.387,25.6826,-0.02421,0.0419226,-0.0146349,0.0450165,-0.0273039,-1.36246,0.0421695,0.0458348,1973,834,130.387,-25.6826
756,190,130.089,27.4219,0,0,0,0,0,0,0,-1,1980,834,130.089,-27.4219
763,190,122.597,25.3192,0,0,0,0,0,0,0,-1,1987,834,122.597,-25.3191
770,190,106.929,24.4991,0,0,0,0,0,0,0,-1,1994,834,106.929,-24.4992
777,190,51.4365,10.3331,0,0,0,0,0,0,0,-1,2001,834,51.4366,-10.3331
784,190,0,0,0,0,0,0,0,0,0,-1,2008,834,0,0
791,190,0,0,0,0,0,0,0,0,0,-1,2015,834,0,0
798,190,0,0,0,0,0,0,0,0,0,-1,2022,834,0,0
805,190,0,0,0,0,0,0,0,0,0,-1,2029,834,0,0
812,190,0,0,0,0,0,0,0,0,0,-1,2036,834,0,0
-700,183,0,0,0,0,0,0,0,0,0,-1,524,841,0,0
-693,183,0,0,0,0,0,0,0,0,0,-1,531,841,0,0
-686,183,0,0,0,0,0,0,0,0,0,-1,538,841,0,0
-679,183,0,0,0,0,0,0,0,0,0,-1,545,841,0,0
-672,183,0,0,0,0,0,0,0,0,0,-1,552,841,0,0
-665,183,0,0,0,0,0,0,0,0,0,-1,559,841,0,0
-658,183,-56.7401,1.32843,0,0,0,0,0,0,0,-1,566,841,-56.7401,-1.32844
-651,183,-107.228,30.9319,0,0,0,0,0,0,0,-1,573,841,-107.228,-30.9319
-644,183,-117.635,31.0936,0,0,0,0,0,0,0,-1,580,841,-117.635,-31.0936
-637,183,-108.134,28.3177,0,0,0,0,0,0,0,-1,587,841,-108.134,-28.3177
-630,183,-101.502,23.5692,0,0,0,0,0,0,0,-1,594,841,-101.502,-23.5691
-623,183,-97.5985,22.926,0,0,0,0,0,0,0,-1,601,841,-97.5985,-22.926
-616,183,-121.88,25.9869,0,0,0,0,0,0,0,-1,608,841,-121.88,-25.987
-609,183,-122.251,24.3335,-0.017462,0.0322409,0.0115705,0.0348024,-0.0200235,1.35293,0.0320348,0.0438683,615,841,-122.251,-24.3335
-602,183,-122.832,22.5509,-0.0134869,0.0267898,0.00971264,0.0290097,-0.0157067,1.3461,0.0261951,0.0210515,622,841,-122.832,-22.5509
-595,183,-123.252,20.8854,-0.00950745,0.0207266,0.00772109,0.0225842,-0.0113651,1.33469,0.0199542,0.0138586,629,841,-123.252,-20.8854
-588,183,-123.458,19.1127,-0.00523794,0.0143017,0.0056257,0.0158057,-0.00674188,1.30957,0.0133639,0.0190806,636,841,-123.458,-19.1127
-581,183,-123.769,17.333,-0.00078545,0.00767283,0.00340966,0.00887613,-0.00198875,1.23153,0.00667976,0.0233907,643,841,-123.769,-17.333
-574,183,-123.975,15.522,0.0037408,0.000968076,0.00105157,0.0040945,0.00061438,0.324463,0.00254967,0.0288902,650,841,-123.975,-15.522
-567,183,-123.929,13.6157,0.00849498,-0.00648082,-0.00158714,0.00866134,-0.00664718,-0.104435,0.00886384,0.0370209,657,841,-123.929,-13.6157
-560,183,-124.087,11.6189,0.0129715,-0.0134352,-0.00426647,0.0136437,-0.0141074,-0.156272,0.0160229,0.0483628,664,841,-124.087,-11.6189
-553,183,-124.255,9.3941,0,0,0,0,0,0,0,-1,671,841,-124.255,-9.39412
-546,183,-27.8053,-1.91199,0,0,0,0,0,0,0,-1,678,841,-27.8053,1.91201
-539,183,-16.8032,-0.417297,0,0,0,0,0,0,0,-1,685,841,-16.8032,0.41732
-532,183,-29.9686,0.953613,0,0,0,0,0,0,0,-1,692,841,-29.9686,-0.953627
-525,183,-55.6847,0.842468,0,0,0,0,0,0,0,-1,699,841,-55.6847,-0.842446
-518,183,-72.6883,0.389221,0,0,0,0,0,0,0,-1,706,841,-72.6883,-0.389223
-511,183,-72.7325,0.370056,0,0,0,0,0,0,0,-1,713,841,-72.7325,-0.370065
-504,183,-72.9583,0.115173,0,0,0,0,0,0,0,-1,720,841,-72.9583,-0.115146
-497,183,-73.1502,-0.125122,0,0,0,0,0,0,0,-1,727,841,-73.1502,0.125119
-490,183,-72.6449,0.85791,0,0,0,0,0,0,0,-1,734,841,-72.6449,-0.857887
-483,183,0,0,0,0,0,0,0,0,0,-1,741,841,0,0
-476,183,0,0,0,0,0,0,0,0,0,-1,748,841,0,0
-469,183,0,0,0,0,0,0,0,0,0,-1,755,841,0,0
-462,183,0,0,0,0,0,0,0,0,0,-1,762,841,0,0
-455,183,0,0,0,0,0,0,0,0,0,-1,769,841,0,0
-448,183,0,0,0,0,0,0,0,0,0,-1,776,841,0,0
-441,183,0,0,0,0,0,0,0,0,0,-1,783,841,0,0
-434,183,0,0,0,0,0,0,0,0,0,-1,790,841,0,0
-427,183,0,0,0,0,0,0,0,0,0,-1,797,841,0,0
-420,183,0,0,0,0,0,0,0,0,0,-1,804,841,0,0
-413,183,0,0,0,0,0,0,0,0,0,-1,811,841,0,0
-406,183,0,0,0,0,0,0,0,0,0,-1,818,841,0,0
-399,183,0,0,0,0,0,0,0,0,0,-1,825,841,0,0
-392,183,0,0,0,0,0,0,0,0,0,-1,832,841,0,0
-385,183,0,0,0,0,0,0,0,0,0,-1,839,841,0,0
-378,183,0,0,0,0,0,0,0,0,0,-1,846,841,0,0
-371,183,0,0,0,0,0,0,0,0,0,-1,853,841,0,0
-364,183,0,0,0,0,0,0,0,0,0,-1,860,841,0,0
-357,183,0,0,0,0,0,0,0,0,0,-1,867,841,0,0
-350,183,0,0,0,0,0,0,0,0,0,-1,874,841,0,0
-343,183,0,0,0,0,0,0,0,0,0,-1,881,841,0,0
-336,183,0,0,0,0,0,0,0,0,0,-1,888,841,0,0
-329,183,0,0,0,0,0,0,0,0,0,-1,895,841,0,0
-322,183,0,0,0,0,0,0,0,0,0,-1,902,841,0,0
-315,183,0,0,0,0,0,0,0,0,0,-1,909,841,0,0
-308,183,0,0,0,0,0,0,0,0,0,-1,916,841,0,0
-301,183,0,0,0,0,0,0,0,0,0,-1,923,841,0,0
-294,183,0,0,0,0,0,0,0,0,0,-1,930,841,0,0
-287,183,0,0,0,0,0,0,0,0,0,-1,937,841,0,0
-280,183,0,0,0,0,0,0,0,0,0,-1,944,841,0,0
-273,183,0,0,0,0,0,0,0,0,0,-1,951,841,0,0
-266,183,0,0,0,0,0,0,0,0,0,-1,958,841,0,0
-259,183,0,0,0,0,0,0,0,0,0,-1,965,841,0,0
-252,183,0,0,0,0,0,0,0,0,0,-1,972,841,0,0
-245,183,0,0,0,0,0,0,0,0,0,-1,979,841,0,0
-238,183,0,0,0,0,0,0,0,0,0,-1,986,841,0,0
-231,183,0,0,0,0,0,0,0,0,0,-1,993,841,0,0
-224,183,0,0,0,0,0,0,0,0,0,-1,1000,841,0,0
-217,183,0,0,0,0,0,0,0,0,0,-1,1007,841,0,0
-210,183,0,0,0,0,0,0,0,0,0,-1,1014,841,0,0
-203,183,0,0,0,0,0,0,0,0,0,-1,1021,841,0,0
-196,183,0,0,0,0,0,0,0,0,0,-1,1028,841,0,0
-189,183,0,0,0,0,0,0,0,0,0,-1,1035,841,0,0
-182,183,0,0,0,0,0,0,0,0,0,-1,1042,841,0,0
-175,183,0,0,0,0,0,0,0,0,0,-1,1049,841,0,0
-168,183,0,0,0,0,0,0,0,0,0,-1,1056,841,0,0
-161,183,0,0,0,0,0,0,0,0,0,-1,1063,841,0,0
-154,183,0,0,0,0,0,0,0,0,0,-1,1070,841,0,0
-147,183,0,0,0,0,0,0,0,0,0,-1,1077,841,0,0
-140,183,0,0,0,0,0,0,0,0,0,-1,1084,841,0,0
-133,183,0,0,0,0,0,0,0,0,0,-1,1091,841,0,0
-126,183,0,0,0,0,0,0,0,0,0,-1,1098,841,0,0
-119,183,0,0,0,0,0,0,0,0,0,-1,1105,841,0,0
-112,183,0,0,0,0,0,0,0,0,0,-1,1112,841,0,0
-105,183,0,0,0,0,0,0,0,0,0,-1,1119,841,0,0
-98,183,0,0,0,0,0,0,0,0,0,-1,1126,841,0,0
-91,183,0,0,0,0,0,0,0,0,0,-1,1133,841,0,0
-84,183,0,0,0,0,0,0,0,0,0,-1,1140,841,0,0
-77,183,0,0,0,0,0,0,0,0,0,-1,1147,841,0,0
-70,183,0,0,0,0,0,0,0,0,0,-1,1154,841,0,0
-63,183,0,0,0,0,0,0,0,0,0,-1,1161,841,0,0
-56,183,0,0,0,0,0,0,0,0,0,-1,1168,841,0,0
-49,183,0,0,0,0,0,0,0,0,0,-1,1175,841,0,0
-42,183,0,0,0,0,0,0,0,0,0,-1,1182,841,0,0
-35,183,0,0,0,0,0,0,0,0,0,-1,1189,841,0,0
-28,183,0,0,0,0,0,0,0,0,0,-1,1196,841,0,0
-21,183,0,0,0,0,0,0,0,0,0,-1,1203,841,0,0
-14,183,0,0,0,0,0,0,0,0,0,-1,1210,841,0,0
-7,183,0,0,0,0,0,0,0,0,0,-1,1217,841,0,0
0,183,0,0,0,0,0,0,0,0,0,-1,1224,841,0,0
7,183,0,0,0,0,0,0,0,0,0,-1,1231,841,0,0
14,183,0,0,0,0,0,0,0,0,0,-1,1238,841,0,0
21,183,0,0,0,0,0,0,0,0,0,-1,1245,841,0,0
28,183,0,0,0,0,0,0,0,0,0,-1,1252,841,0,0
35,183,0,0,0,0,0,0,0,0,0,-1,1259,841,0,0
42,183,0,0,0,0,0,0,0,0,0,-1,1266,841,0,0
49,183,0,0,0,0,0,0,0,0,0,-1,1273,841,0,0
56,183,0,0,0,0,0,0,0,0,0,-1,1280,841,0,0
63,183,0,0,0,0,0,0,0,0,0,-1,1287,841,0,0
70,183,0,0,0,0,0,0,0,0,0,-1,1294,841,0,0
77,183,0,0,0,0,0,0,0,0,0,-1,1301,841,0,0
84,183,0,0,0,0,0,0,0,0,0,-1,1308,841,0,0
91,183,0,0,0,0,0,0,0,0,0,-1,1315,841,0,0
98,183,0,0,0,0,0,0,0,0,0,-1,1322,841,0,0
105,183,0,0,0,0,0,0,0,0,0,-1,1329,841,0,0
112,183,0,0,0,0,0,0,0,0,0,-1,1336,841,0,0
119,183,0,0,0,0,0,0,0,0,0,-1,1343,841,0,0
126,183,0,0,0,0,0,0,0,0,0,-1,1350,841,0,0
133,183,0,0,0,0,0,0,0,0,0,-1,1357,841,0,0
140,183,0,0,0,0,0,0,0,0,0,-1,1364,841,0,0
147,183,0,0,0,0,0,0,0,0,0,-1,1371,841,0,0
154,183,0,0,0,0,0,0,0,0,0,-1,1378,841,0,0
161,183,0,0,0,0,0,0,0,0,0,-1,1385,841,0,0
168,183,0,0,0,0,0,0,0,0,0,-1,1392,841,0,0
175,183,0,0,0,0,0,0,0,0,0,-1,1399,841,0,0
182,183,0,0,0,0,0,0,0,0,0,-1,1406,841,0,0
189,183,0,0,0,0,0,0,0,0,0,-1,1413,841,0,0
196,183,0,0,0,0,0,0,0,0,0,-1,1420,841,0,0
203,183,0,0,0,0,0,0,0,0,0,-1,1427,841,0,0
210,183,0,0,0,0,0,0,0,0,0,-1,1434,841,0,0
217,183,0,0,0,0,0,0,0,0,0,-1,1441,841,0,0
224,183,0,0,0,0,0,0,0,0,0,-1,1448,841,0,0
231,183,0,0,0,0,0,0,0,0,0,-1,1455,841,0,0
238,183,0,0,0,0,0,0,0,0,0,-1,1462,841,0,0
245,183,0,0,0,0,0,0,0,0,0,-1,1469,841,0,0
252,183,0,0,0,0,0,0,0,0,0,-1,1476,841,0,0
259,183,0,0,0,0,0,0,0,0,0,-1,1483,841,0,0
266,183,0,0,0,0,0,0,0,0,0,-1,1490,841,0,0
273,183,0,0,0,0,0,0,0,0,0,-1,1497,841,0,0
280,183,0,0,0,0,0,0,0,0,0,-1,1504,841,0,0
287,183,0,0,0,0,0,0,0,0,0,-1,1511,841,0,0
294,183,0,0,0,0,0,0,0,0,0,-1,1518,841,0,0
301,183,0,0,0,0,0,0,0,0,0,-1,1525,841,0,0
308,183,0,0,0,0,0,0,0,0,0,-1,1532,841,0,0
315,183,0,0,0,0,0,0,0,0,0,-1,1539,841,0,0
322,183,0,0,0,0,0,0,0,0,0,-1,1546,841,0,0
329,183,0,0,0,0,0,0,0,0,0,-1,1553,841,0,0
336,183,0,0,0,0,0,0,0,0,0,-1,1560,841,0,0
343,183,0,0,0,0,0,0,0,0,0,-1,1567,841,0,0
350,183,0,0,0,0,0,0,0,0,0,-1,1574,841,0,0
357,183,0,0,0,0,0,0,0,0,0,-1,1581,841,0,0
364,183,0,0,0,0,0,0,0,0,0,-1,1588,841,0,0
371,183,0,0,0,0,0,0,0,0,0,-1,1595,841,0,0
378,183,0,0,0,0,0,0,0,0,0,-1,1602,841,0,0
385,183,0,0,0,0,0,0,0,0,0,-1,1609,841,0,0
392,183,0,0,0,0,0,0,0,0,0,-1,1616,841,0,0
399,183,0,0,0,0,0,0,0,0,0,-1,1623,841,0,0
406,183,0,0,0,0,0,0,0,0,0,-1,1630,841,0,0
413,183,0,0,0,0,0,0,0,0,0,-1,1637,841,0,0
420,183,0,0,0,0,0,0,0,0,0,-1,1644,841,0,0
427,183,0,0,0,0,0,0,0,0,0,-1,1651,841,0,0
434,183,0,0,0,0,0,0,0,0,0,-1,1658,841,0,0
441,183,0,0,0,0,0,0,0,0,0,-1,1665,841,0,0
448,183,0,0,0,0,0,0,0,0,0,-1,1672,841,0,0
455,183,0,0,0,0,0,0,0,0,0,-1,1679,841,0,0
462,183,0,0,0,0,0,0,0,0,0,-1,1686,841,0,0
469,183,0,0,0,0,0,0,0,0,0,-1,1693,841,0,0
476,183,0,0,0,0,0,0,0,0,0,-1,1700,841,0,0
483,183,0,0,0,0,0,0,0,0,0,-1,1707,841,0,0
490,183,0,0,0,0,0,0,0,0,0,-1,1714,841,0,0
497,183,0,0,0,0,0,0,0,0,0,-1,1721,841,0,0
504,183,0,0,0,0,0,0,0,0,0,-1,1728,841,0,0
511,183,0,0,0,0,0,0,0,0,0,-1,1735,841,0,0
518,183,0,0,0,0,0,0,0,0,0,-1,1742,841,0,0
525,183,0,0,0,0,0,0,0,0,0,-1,1749,841,0,0
532,183,0,0,0,0,0,0,0,0,0,-1,1756,841,0,0
539,183,0,0,0,0,0,0,0,0,0,-1,1763,841,0,0
546,183,0,0,0,0,0,0,0,0,0,-1,1770,841,0,0
553,183,0,0,0,0,0,0,0,0,0,-1,1777,841,0,0
560,183,0,0,0,0,0,0,0,0,0,-1,1784,841,0,0
567,183,0,0,0,0,0,0,0,0,0,-1,1791,841,0,0
574,183,0,0,0,0,0,0,0,0,0,-1,1798,841,0,0
581,183,0,0,0,0,0,0,0,0,0,-1,1805,841,0,0
588,183,0,0,0,0,0,0,0,0,0,-1,1812,841,0,0
595,183,0,0,0,0,0,0,0,0,0,-1,1819,841,0,0
602,183,0,0,0,0,0,0,0,0,0,-1,1826,841,0,0
609,183,159.257,5.74615,0,0,0,0,0,0,0,-1,1833,841,159.257,-5.74618
616,183,159.288,5.75354,0,0,0,0,0,0,0,-1,1840,841,159.288,-5.75353
623,183,159.536,5.53491,0,0,0,0,0,0,0,-1,1847,841,159.536,-5.53493
630,183,159.59,5.57526,0,0,0,0,0,0,0,-1,1854,841,159.59,-5.57526
637,183,159.599,5.46008,0,0,0,0,0,0,0,-1,1861,841,159.599,-5.46006
644,183,159.381,5.57428,0,0,0,0,0,0,0,-1,1868,841,159.381,-5.57428
651,183,159.361,5.70349,0,0,0,0,0,0,0,-1,1875,841,159.361,-5.70347
658,183,83.877,2.72919,0,0,0,0,0,0,0,-1,1882,841,83.8769,-2.72919
665,183,38.4337,2.66992,0,0,0,0,0,0,0,-1,1889,841,38.4337,-2.6699
672,183,29.168,1.54572,0,0,0,0,0,0,0,-1,1896,841,29.168,-1.54574
679,183,78.9729,-1.12219,0,0,0,0,0,0,0,-1,1903,841,78.9729,1.12222
686,183,134.637,10.202,0,0,0,0,0,0,0,-1,1910,841,134.637,-10.202
693,183,134.476,11.9838,0,0,0,0,0,0,0,-1,1917,841,134.475,-11.9838
700,183,133.889,13.7609,0,0,0,0,0,0,0,-1,1924,841,133.889,-13.7609
707,183,133.792,15.5614,-0.002949,0.00604184,-0.00406825,0.00760937,-0.00451654,-1.20302,0.0070764,0.020364,1931,841,133.792,-15.5614
714,183,133.741,17.3092,-0.00631408,0.0114746,-0.00560606,0.0130939,-0.00793341,-1.2896,0.0122614,0.0232574,1938,841,133.741,-17.3092
721,183,133.656,19.0433,-0.00976824,0.01693,-0.00718571,0.0187411,-0.0115794,-1.32389,0.0176676,0.0240269,1945,841,133.655,-19.0434
728,183,133.309,20.7214,-0.0132324,0.022401,-0.00878555,0.0244493,-0.0152808,-1.34174,0.0231409,0.0243124,1952,841,133.309,-20.7214
735,183,132.918,22.304,-0.0166012,0.0279019,-0.0103605,0.0301956,-0.0188949,-1.35292,0.0285917,0.0201609,1959,841,132.918,-22.304
742,183,132.547,23.9445,-0.0197706,0.0334527,-0.0118648,0.0359779,-0.0222957,-1.3611,0.033952,0.0138336,1966,841,132.547,-23.9445
749,183,132.267,25.7346,-0.0229166,0.0391912,-0.0133165,0.0419259,-0.0256514,-1.36825,0.0393911,0.0354214,1973,841,132.267,-25.7345
756,183,131.981,27.5541,0,0,0,0,0,0,0,-1,1980,841,131.981,-27.5541
763,183,124.463,26.5287,0,0,0,0,0,0,0,-1,1987,841,124.463,-26.5287
770,183,51.5659,9.50665,0,0,0,0,0,0,0,-1,1994,841,51.5659,-9.50663
777,183,42.1948,7.22906,0,0,0,0,0,0,0,-1,2001,841,42.1948,-7.22905
784,183,0,0,0,0,0,0,0,0,0,-1,2008,841,0,0
791,183,0,0,0,0,0,0,0,0,0,-1,2015,841,0,0
798,183,0,0,0,0,0,0,0,0,0,-1,2022,841,0,0
805,183,0,0,0,0,0,0,0,0,0,-1,2029,841,0,0
812,183,0,0,0,0,0,0,0,0,0,-1,2036,841,0,0
-700,176,0,0,0,0,0,0,0,0,0,-1,524,848,0,0
-693,176,0,0,0,0,0,0,0,0,0,-1,531,848,0,0
-686,176,0,0,0,0,0,0,0,0,0,-1,538,848,0,0
-679,176,0,0,0,0,0,0,0,0,0,-1,545,848,0,0
-672,176,0,0,0,0,0,0,0,0,0,-1,552,848,0,0
-665,176,-59.6962,8.75854,0,0,0,0,0,0,0,-1,559,848,-59.6962,-8.75853
-658,176,-59.6349,7.95142,0,0,0,0,0,0,0,-1,566,848,-59.6349,-7.95144
-651,176,-118.729,32.902,0,0,0,0,0,0,0,-1,573,848,-118.729,-32.902
-644,176,-118.832,31.2602,0,0,0,0,0,0,0,-1,580,848,-118.832,-31.2602
-637,176,-119.176,29.6507,0,0,0,0,0,0,0,-1,587,848,-119.176,-29.6507
-630,176,-123.039,28.2927,0,0,0,0,0,0,0,-1,594,848,-123.039,-28.2927
-623,176,-124.017,27.3381,0,0,0,0,0,0,0,-1,601,848,-124.017,-27.3381
-616,176,-124.326,25.7514,-0.0196141,0.0306379,0.0121254,0.0334107,-0.0223868,1.34599,0.0324236,0.0494465,608,848,-124.326,-25.7514
-609,176,-124.64,24.2842,-0.0167609,0.0272795,0.0107851,0.0297789,-0.0192602,1.34308,0.028529,0.0211062,615,848,-124.64,-24.2843
-602,176,-124.858,22.7103,-0.0128299,0.0226524,0.00898368,0.0247973,-0.0149748,1.33643,0.0231947,0.0152507,622,848,-124.858,-22.7103
-595,176,-125.068,21.0062,-0.00871395,0.0172386,0.00701971,0.0190156,-0.010491,1.32286,0.017271,0.0149095,629,848,-125.068,-21.0061
-588,176,-125.244,19.2847,-0.00424739,0.011291,0.00492746,0.0127218,-0.00567821,1.28819,0.0108796,0.0189943,636,848,-125.244,-19.2847
-581,176,-125.541,17.6024,0.000483406,0.00498769,0.00270004,0.00625156,-0.000780469,1.133,0.00445073,0.0207009,643,848,-125.541,-17.6023
-574,176,-125.906,15.8947,0.00538912,-0.00152096,0.000324499,0.00540433,-0.00153617,0.0468229,0.00420943,0.0339512,650,848,-125.906,-15.8947
-567,176,-125.836,14.0408,0.0108219,-0.0093039,-0.00243275,0.0111118,-0.00959378,-0.118601,0.0119651,0.0342224,657,848,-125.835,-14.0408
-560,176,-125.936,11.9774,0.0161182,-0.0163428,-0.00515419,0.0169169,-0.0171415,-0.153745,0.0196638,0.0482659,664,848,-125.936,-11.9774
-553,176,-126.044,9.6922,0,0,0,0,0,0,0,-1,671,848,-126.044,-9.69222
-546,176,-16.657,-0.403198,0,0,0,0,0,0,0,-1,678,848,-16.657,0.403182
-539,176,-22.7061,1.48657,0,0,0,0,0,0,0,-1,685,848,-22.7061,-1.48657
-532,176,-38.8326,1.29749,0,0,0,0,0,0,0,-1,692,848,-38.8326,-1.29747
-525,176,-72.6287,0.52948,0,0,0,0,0,0,0,-1,699,848,-72.6287,-0.529456
-518,176,-72.6528,0.501587,0,0,0,0,0,0,0,-1,706,848,-72.6528,-0.501577
-511,176,-72.6872,0.485535,0,0,0,0,0,0,0,-1,713,848,-72.6872,-0.485559
-504,176,-72.8505,0.407227,0,0,0,0,0,0,0,-1,720,848,-72.8506,-0.407217
-497,176,-72.7821,0.65387,0,0,0,0,0,0,0,-1,727,848,-72.7821,-0.653851
-490,176,-72.6411,0.631165,0,0,0,0,0,0,0,-1,734,848,-72.641,-0.631162
-483,176,0,0,0,0,0,0,0,0,0,-1,741,848,0,0
-476,176,0,0,0,0,0,0,0,0,0,-1,748,848,0,0
-469,176,0,0,0,0,0,0,0,0,0,-1,755,848,0,0
-462,176,0,0,0,0,0,0,0,0,0,-1,762,848,0,0
-455,176,0,0,0,0,0,0,0,0,0,-1,769,848,0,0
-448,176,0,0,0,0,0,0,0,0,0,-1,776,848,0,0
-441,176,0,0,0,0,0,0,0,0,0,-1,783,848,0,0
-434,176,0,0,0,0,0,0,0,0,0,-1,790,848,0,0
-427,176,0,0,0,0,0,0,0,0,0,-1,797,848,0,0
-420,176,0,0,0,0,0,0,0,0,0,-1,804,848,0,0
-413,176,0,0,0,0,0,0,0,0,0,-1,811,848,0,0
-406,176,0,0,0,0,0,0,0,0,0,-1,818,848,0,0
-399,176,0,0,0,0,0,0,0,0,0,-1,825,848,0,0
-392,176,0,0,0,0,0,0,0,0,0,-1,832,848,0,0
-385,176,0,0,0,0,0,0,0,0,0,-1,839,848,0,0
-378,176,0,0,0,0,0,0,0,0,0,-1,846,848,0,0
-371,176,0,0,0,0,0,0,0,0,0,-1,853,848,0,0
-364,176,0,0,0,0,0,0,0,0,0,-1,860,848,0,0
-357,176,0,0,0,0,0,0,0,0,0,-1,867,848,0,0
-350,176,0,0,0,0,0,0,0,0,0,-1,874,848,0,0
-343,176,0,0,0,0,0,0,0,0,0,-1,881,848,0,0
-336,176,0,0,0,0,0,0,0,0,0,-1,888,848,0,0
-329,176,0,0,0,0,0,0,0,0,0,-1,895,848,0,0
-322,176,0,0,0,0,0,0,0,0,0,-1,902,848,0,0
-315,176,0,0,0,0,0,0,0,0,0,-1,909,848,0,0
-308,176,0,0,0,0,0,0,0,0,0,-1,916,848,0,0
-301,176,0,0,0,0,0,0,0,0,0,-1,923,848,0,0
-294,176,0,0,0,0,0,0,0,0,0,-1,930,848,0,0
-287,176,0,0,0,0,0,0,0,0,0,-1,937,848,0,0
-280,176,0,0,0,0,0,0,0,0,0,-1,944,848,0,0
-273,176,0,0,0,0,0,0,0,0,0,-1,951,848,0,0
-266,176,0,0,0,0,0,0,0,0,0,-1,958,848,0,0
-259,176,0,0,0,0,0,0,0,0,0,-1,965,848,0,0
-252,176,0,0,0,0,0,0,0,0,0,-1,972,848,0,0
-245,176,0,0,0,0,0,0,0,0,0,-1,979,848,0,0
-238,176,0,0,0,0,0,0,0,0,0,-1,986,848,0,0
-231,176,0,0,0,0,0,0,0,0,0,-1,993,848,0,0
-224,176,0,0,0,0,0,0,0,0,0,-1,1000,848,0,0
-217,176,0,0,0,0,0,0,0,0,0,-1,1007,848,0,0
-210,176,0,0,0,0,0,0,0,0,0,-1,1014,848,0,0
-203,176,0,0,0,0,0,0,0,0,0,-1,1021,848,0,0
-196,176,0,0,0,0,0,0,0,0,0,-1,1028,848,0,0
-189,176,0,0,0,0,0,0,0,0,0,-1,1035,848,0,0
-182,176,0,0,0,0,0,0,0,0,0,-1,1042,848,0,0
-175,176,0,0,0,0,0,0,0,0,0,-1,1049,848,0,0
-168,176,0,0,0,0,0,0,0,0,0,-1,1056,848,0,0
-161,176,0,0,0,0,0,0,0,0,0,-1,1063,848,0,0
-154,176,0,0,0,0,0,0,0,0,0,-1,1070,848,0,0
-147,176,0,0,0,0,0,0,0,0,0,-1,1077,848,0,0
-140,176,0,0,0,0,0,0,0,0,0,-1,1084,848,0,0
-133,176,0,0,0,0,0,0,0,0,0,-1,1091,848,0,0
-126,176,0,0,0,0,0,0,0,0,0,-1,1098,848,0,0
-119,176,0,0,0,0,0,0,0,0,0,-1,1105,848,0,0
-112,176,0,0,0,0,0,0,0,0,0,-1,1112,848,0,0
-105,176,0,0,0,0,0,0,0,0,0,-1,1119,848,0,0
-98,176,0,0,0,0,0,0,0,0,0,-1,1126,848,0,0
-91,176,0,0,0,0,0,0,0,0,0,-1,1133,848,0,0
-84,176,0,0,0,0,0,0,0,0,0,-1,1140,848,0,0
-77,176,0,0,0,0,0,0,0,0,0,-1,1147,848,0,0
-70,176,0,0,0,0,0,0,0,0,0,-1,1154,848,0,0
-63,176,0,0,0,0,0,0,0,0,0,-1,1161,848,0,0
-56,176,0,0,0,0,0,0,0,0,0,-1,1168,848,0,0
-49,176,0,0,0,0,0,0,0,0,0,-1,1175,848,0,0
-42,176,0,0,0,0,0,0,0,0,0,-1,1182,848,0,0
-35,176,0,0,0,0,0,0,0,0,0,-1,1189,848,0,0
-28,176,0,0,0,0,0,0,0,0,0,-1,1196,848,0,0
-21,176,0,0,0,0,0,0,0,0,0,-1,1203,848,0,0
-14,176,0,0,0,0,0,0,0,0,0,-1,1210,848,0,0
-7,176,0,0,0,0,0,0,0,0,0,-1,1217,848,0,0
0,176,0,0,0,0,0,0,0,0,0,-1,1224,848,0,0
7,176,0,0,0,0,0,0,0,0,0,-1,1231,848,0,0
14,176,0,0,0,0,0,0,0,0,0,-1,1238,848,0,0
21,176,0,0,0,0,0,0,0,0,0,-1,1245,848,0,0
28,176,0,0,0,0,0,0,0,0,0,-1,1252,848,0,0
35,176,0,0,0,0,0,0,0,0,0,-1,1259,848,0,0
42,176,0,0,0,0,0,0,0,0,0,-1,1266,848,0,0
49,176,0,0,0,0,0,0,0,0,0,-1,1273,848,0,0
56,176,0,0,0,0,0,0,0,0,0,-1,1280,848,0,0
63,176,0,0,0,0,0,0,0,0,0,-1,1287,848,0,0
70,176,0,0,0,0,0,0,0,0,0,-1,1294,848,0,0
77,176,0,0,0,0,0,0,0,0,0,-1,1301,848,0,0
84,176,0,0,0,0,0,0,0,0,0,-1,1308,848,0,0
91,176,0,0,0,0,0,0,0,0,0,-1,1315,848,0,0
98,176,0,0,0,0,0,0,0,0,0,-1,1322,848,0,0
105,176,0,0,0,0,0,0,0,0,0,-1,1329,848,0,0
112,176,0,0,0,0,0,0,0,0,0,-1,1336,848,0,0
119,176,0,0,0,0,0,0,0,0,0,-1,1343,848,0,0
126,176,0,0,0,0,0,0,0,0,0,-1,1350,848,0,0
133,176,0,0,0,0,0,0,0,0,0,-1,1357,848,0,0
140,176,0,0,0,0,0,0,0,0,0,-1,1364,848,0,0
147,176,0,0,0,0,0,0,0,0,0,-1,1371,848,0,0
154,176,0,0,0,0,0,0,0,0,0,-1,1378,848,0,0
161,176,0,0,0,0,0,0,0,0,0,-1,1385,848,0,0
168,176,0,0,0,0,0,0,0,0,0,-1,1392,848,0,0
175,176,0,0,0,0,0,0,0,0,0,-1,1399,848,0,0
182,176,0,0,0,0,0,0,0,0,0,-1,1406,848,0,0
189,176,0,0,0,0,0,0,0,0,0,-1,1413,848,0,0
196,176,0,0,0,0,0,0,0,0,0,-1,1420,848,0,0
203,176,0,0,0,0,0,0,0,0,0,-1,1427,848,0,0
210,176,0,0,0,0,0,0,0,0,0,-1,1434,848,0,0
217,176,0,0,0,0,0,0,0,0,0,-1,1441,848,0,0
224,176,0,0,0,0,0,0,0,0,0,-1,1448,848,0,0
231,176,0,0,0,0,0,0,0,0,0,-1,1455,848,0,0
238,176,0,0,0,0,0,0,0,0,0,-1,1462,848,0,0
245,176,0,0,0,0,0,0,0,0,0,-1,1469,848,0,0
252,176,0,0,0,0,0,0,0,0,0,-1,1476,848,0,0
259,176,0,0,0,0,0,0,0,0,0,-1,1483,848,0,0
266,176,0,0,0,0,0,0,0,0,0,-1,1490,848,0,0
273,176,0,0,0,0,0,0,0,0,0,-1,1497,848,0,0
280,176,0,0,0,0,0,0,0,0,0,-1,1504,848,0,0
287,176,0,0,0,0,0,0,0,0,0,-1,1511,848,0,0
294,176,0,0,0,0,0,0,0,0,0,-1,1518,848,0,0
301,176,0,0,0,0,0,0,0,0,0,-1,1525,848,0,0
308,176,0,0,0,0,0,0,0,0,0,-1,1532,848,0,0
315,176,0,0,0,0,0,0,0,0,0,-1,1539,848,0,0
322,176,0,0,0,0,0,0,0,0,0,-1,1546,848,0,0
329,176,0,0,0,0,0,0,0,0,0,-1,1553,848,0,0
336,176,0,0,0,0,0,0,0,0,0,-1,1560,848,0,0
343,176,0,0,0,0,0,0,0,0,0,-1,1567,848,0,0
350,176,0,0,0,0,0,0,0,0,0,-1,1574,848,0,0
357,176,0,0,0,0,0,0,0,0,0,-1,1581,848,0,0
364,176,0,0,0,0,0,0,0,0,0,-1,1588,848,0,0
371,176,0,0,0,0,0,0,0,0,0,-1,1595,848,0,0
378,176,0,0,0,0,0,0,0,0,0,-1,1602,848,0,0
385,176,0,0,0,0,0,0,0,0,0,-1,1609,848,0,0
392,176,0,0,0,0,0,0,0,0,0,-1,1616,848,0,0
399,176,0,0,0,0,0,0,0,0,0,-1,1623,848,0,0
406,176,0,0,0,0,0,0,0,0,0,-1,1630,848,0,0
413,176,0,0,0,0,0,0,0,0,0,-1,1637,848,0,0
420,176,0,0,0,0,0,0,0,0,0,-1,1644,848,0,0
427,176,0,0,0,0,0,0,0,0,0,-1,1651,848,0,0
434,176,0,0,0,0,0,0,0,0,0,-1,1658,848,0,0
441,176,0,0,0,0,0,0,0,0,0,-1,1665,848,0,0
448,176,0,0,0,0,0,0,0,0,0,-1,1672,848,0,0
455,176,0,0,0,0,0,0,0,0,0,-1,1679,848,0,0
462,176,0,0,0,0,0,0,0,0,0,-1,1686,848,0,0
469,176,0,0,0,0,0,0,0,0,0,-1,1693,848,0,0
476,176,0,0,0,0,0,0,0,0,0,-1,1700,848,0,0
483,176,0,0,0,0,0,0,0,0,0,-1,1707,848,0,0
490,176,0,0,0,0,0,0,0,0,0,-1,1714,848,0,0
497,176,0,0,0,0,0,0,0,0,0,-1,1721,848,0,0
504,176,0,0,0,0,0,0,0,0,0,-1,1728,848,0,0
511,176,0,0,0,0,0,0,0,0,0,-1,1735,848,0,0
518,176,0,0,0,0,0,0,0,0,0,-1,1742,848,0,0
525,176,0,0,0,0,0,0,0,0,0,-1,1749,848,0,0
532,176,0,0,0,0,0,0,0,0,0,-1,1756,848,0,0
539,176,0,0,0,0,0,0,0,0,0,-1,1763,848,0,0
546,176,0,0,0,0,0,0,0,0,0,-1,1770,848,0,0
553,176,0,0,0,0,0,0,0,0,0,-1,1777,848,0,0
560,176,0,0,0,0,0,0,0,0,0,-1,1784,848,0,0
567,176,0,0,0,0,0,0,0,0,0,-1,1791,848,0,0
574,176,0,0,0,0,0,0,0,0,0,-1,1798,848,0,0
581,176,0,0,0,0,0,0,0,0,0,-1,1805,848,0,0
588,176,0,0,0,0,0,0,0,0,0,-1,1812,848,0,0
595,176,0,0,0,0,0,0,0,0,0,-1,1819,848,0,0
602,176,0,0,0,0,0,0,0,0,0,-1,1826,848,0,0
609,176,159.261,5.70496,0,0,0,0,0,0,0,-1,1833,848,159.261,-5.70498
616,176,159.196,5.4873,0,0,0,0,0,0,0,-1,1840,848,159.196,-5.48729
623,176,159.462,5.30731,0,0,0,0,0,0,0,-1,1847,848,159.462,-5.30729
630,176,159.546,5.50305,0,0,0,0,0,0,0,-1,1854,848,159.546,-5.50308
637,176,159.561,5.53619,0,0,0,0,0,0,0,-1,1861,848,159.561,-5.53621
644,176,159.378,5.59283,0,0,0,0,0,0,0,-1,1868,848,159.378,-5.59286
651,176,159.362,5.64386,0,0,0,0,0,0,0,-1,1875,848,159.362,-5.64389
658,176,159.463,5.59778,0,0,0,0,0,0,0,-1,1882,848,159.463,-5.5978
665,176,54.3333,2.34277,0,0,0,0,0,0,0,-1,1889,848,54.3333,-2.34279
672,176,16.9304,2.80719,0,0,0,0,0,0,0,-1,1896,848,16.9305,-2.80719
679,176,50.9341,0.315979,0,0,0,0,0,0,0,-1,1903,848,50.9341,-0.315984
686,176,136.81,10.6958,0,0,0,0,0,0,0,-1,1910,848,136.81,-10.6958
693,176,136.328,12.3279,0.00358341,-0.00690247,-0.00131062,0.00374474,-0.0070638,-0.122479,0.00633763,0.0378929,1917,848,136.328,-12.3279
700,176,136.061,14.2111,0,0,0,0,0,0,0,-1,1924,848,136.06,-14.2111
707,176,135.789,15.9105,-0.0021379,0.00342381,-0.00362749,0.00521372,-0.0039278,-1.11242,0.00529524,0.0471406,1931,848,135.789,-15.9105
714,176,135.48,17.4494,-0.00530034,0.00878575,-0.00496012,0.0103571,-0.00687166,-1.26401,0.0100146,0.0225781,1938,848,135.48,-17.4494
721,176,135.39,19.1277,-0.00858584,0.014209,-0.00636364,0.0158652,-0.010242,-1.31618,0.0151891,0.0226956,1945,848,135.39,-19.1277
728,176,135.083,20.7484,-0.0119392,0.0196696,-0.00783977,0.0215072,-0.0137768,-1.34056,0.0205336,0.0307671,1952,848,135.083,-20.7483
735,176,134.608,22.3643,-0.0152479,0.0251853,-0.00933552,0.0272367,-0.0172992,-1.35449,0.0259253,0.025988,1959,848,134.608,-22.3643
742,176,134.265,24.0206,-0.0183991,0.030779,-0.0107977,0.0330453,-0.0206654,-1.36391,0.0312833,0.0234513,1966,848,134.265,-24.0206
749,176,134.098,25.5912,-0.0214939,0.0365864,-0.0122427,0.0390615,-0.023969,-1.37131,0.0367368,0.0385161,1973,848,134.098,-25.5912
756,176,134.014,27.255,0,0,0,0,0,0,0,-1,1980,848,134.014,-27.255
763,176,115.493,23.4837,0,0,0,0,0,0,0,-1,1987,848,115.493,-23.4837
770,176,36.4186,4.25641,0,0,0,0,0,0,0,-1,1994,848,36.4186,-4.25639
777,176,43.8328,7.50177,0,0,0,0,0,0,0,-1,2001,848,43.8328,-7.50178
784,176,0,0,0,0,0,0,0,0,0,-1,2008,848,0,0
791,176,0,0,0,0,0,0,0,0,0,-1,2015,848,0,0
798,176,0,0,0,0,0,0,0,0,0,-1,2022,848,0,0
805,176,0,0,0,0,0,0,0,0,0,-1,2029,848,0,0
812,176,0,0,0,0,0,0,0,0,0,-1,2036,848,0,0
-700,169,0,0,0,0,0,0,0,0,0,-1,524,855,0,0
-693,169,0,0,0,0,0,0,0,0,0,-1,531,855,0,0
-686,169,0,0,0,0,0,0,0,0,0,-1,538,855,0,0
-679,169,0,0,0,0,0,0,0,0,0,-1,545,855,0,0
-672,169,0,0,0,0,0,0,0,0,0,-1,552,855,0,0
-665,169,-50.4697,8.3269,0,0,0,0,0,0,0,-1,559,855,-50.4697,-8.32688
-658,169,-58.8608,8.22839,0,0,0,0,0,0,0,-1,566,855,-58.8608,-8.2284
-651,169,-119.839,32.9816,0,0,0,0,0,0,0,-1,573,855,-119.839,-32.9815
-644,169,-120.048,31.3985,0,0,0,0,0,0,0,-1,580,855,-120.048,-31.3985
-637,169,-124.778,28.7732,0,0,0,0,0,0,0,-1,587,855,-124.778,-28.7732
-630,169,-125.961,28.3154,0,0,0,0,0,0,0,-1,594,855,-125.961,-28.3154
-623,169,-126.162,26.8784,-0.0208056,0.0267436,0.012031,0.0296144,-0.0236764,1.33656,0.0308311,0.041234,601,855,-126.162,-26.8784
-616,169,-126.221,25.6666,-0.0192459,0.026022,0.0111035,0.0285989,-0.0218227,1.34276,0.0291984,0.0311368,608,855,-126.221,-25.6666
-609,169,-126.37,24.3469,-0.0162036,0.0233157,0.00988134,0.0256487,-0.0185365,1.33894,0.0256203,0.0180327,615,855,-126.37,-24.3469
-602,169,-126.656,22.7913,-0.0122481,0.0192192,0.00817187,0.0212148,-0.0142437,1.33128,0.0206034,0.0163488,622,855,-126.656,-22.7913
-595,169,-126.886,21.1013,-0.00799202,0.0142145,0.0062657,0.0158604,-0.00963793,1.31391,0.0148669,0.0152341,629,855,-126.886,-21.1013
-588,169,-127.048,19.4553,-0.00334443,0.00853593,0.00419779,0.00986948,-0.00467799,1.2632,0.00857541,0.0146613,636,855,-127.048,-19.4553
-581,169,-127.289,17.8275,0.00162981,0.00236719,0.00197456,0.00400719,-1.0187e-05,0.877696,0.00267486,0.0323775,643,855,-127.289,-17.8275
-574,169,-127.591,15.9113,0,0,0,0,0,0,0,-1,650,855,-127.591,-15.9113
-567,169,-128.014,14.1896,0,0,0,0,0,0,0,-1,657,855,-128.014,-14.1896
-560,169,-128.438,12.468,0,0,0,0,0,0,0,-1,664,855,-128.438,-12.468
-553,169,-32.1944,-0.787964,0,0,0,0,0,0,0,-1,671,855,-32.1944,0.787959
-546,169,-19.0852,-1.05609,0,0,0,0,0,0,0,-1,678,855,-19.0852,1.05612
-539,169,-33.2307,1.10706,0,0,0,0,0,0,0,-1,685,855,-33.2307,-1.10708
-532,169,-71.3272,0.203064,0,0,0,0,0,0,0,-1,692,855,-71.3272,-0.203058
-525,169,-72.7736,0.297241,0,0,0,0,0,0,0,-1,699,855,-72.7736,-0.297265
-518,169,-72.6509,0.381287,0,0,0,0,0,0,0,-1,706,855,-72.6509,-0.38129
-511,169,-72.4978,0.552429,0,0,0,0,0,0,0,-1,713,855,-72.4978,-0.552413
-504,169,-72.7489,0.517273,0,0,0,0,0,0,0,-1,720,855,-72.7489,-0.517272
-497,169,-72.8129,0.525146,0,0,0,0,0,0,0,-1,727,855,-72.8129,-0.525136
-490,169,0,0,0,0,0,0,0,0,0,-1,734,855,0,0
-483,169,0,0,0,0,0,0,0,0,0,-1,741,855,0,0
-476,169,0,0,0,0,0,0,0,0,0,-1,748,855,0,0
-469,169,0,0,0,0,0,0,0,0,0,-1,755,855,0,0
-462,169,0,0,0,0,0,0,0,0,0,-1,762,855,0,0
-455,169,0,0,0,0,0,0,0,0,0,-1,769,855,0,0
-448,169,0,0,0,0,0,0,0,0,0,-1,776,855,0,0
-441,169,0,0,0,0,0,0,0,0,0,-1,783,855,0,0
-434,169,0,0,0,0,0,0,0,0,0,-1,790,855,0,0
-427,169,0,0,0,0,0,0,0,0,0,-1,797,855,0,0
-420,169,0,0,0,0,0,0,0,0,0,-1,804,855,0,0
-413,169,0,0,0,0,0,0,0,0,0,-1,811,855,0,0
-406,169,0,0,0,0,0,0,0,0,0,-1,818,855,0,0
-399,169,0,0,0,0,0,0,0,0,0,-1,825,855,0,0
-392,169,0,0,0,0,0,0,0,0,0,-1,832,855,0,0
-385,169,0,0,0,0,0,0,0,0,0,-1,839,855,0,0
-378,169,0,0,0,0,0,0,0,0,0,-1,846,855,0,0
-371,169,0,0,0,0,0,0,0,0,0,-1,853,855,0,0
-364,169,0,0,0,0,0,0,0,0,0,-1,860,855,0,0
-357,169,0,0,0,0,0,0,0,0,0,-1,867,855,0,0
-350,169,0,0,0,0,0,0,0,0,0,-1,874,855,0,0
-343,169,0,0,0,0,0,0,0,0,0,-1,881,855,0,0
-336,169,0,0,0,0,0,0,0,0,0,-1,888,855,0,0
-329,169,0,0,0,0,0,0,0,0,0,-1,895,855,0,0
-322,169,0,0,0,0,0,0,0,0,0,-1,902,855,0,0
-315,169,0,0,0,0,0,0,0,0,0,-1,909,855,0,0
-308,169,0,0,0,0,0,0,0,0,0,-1,916,855,0,0
-301,169,0,0,0,0,0,0,0,0,0,-1,923,855,0,0
-294,169,0,0,0,0,0,0,0,0,0,-1,930,855,0,0
-287,169,0,0,0,0,0,0,0,0,0,-1,937,855,0,0
-280,169,0,0,0,0,0,0,0,0,0,-1,944,855,0,0
-273,169,0,0,0,0,0,0,0,0,0,-1,951,855,0,0
-266,169,0,0,0,0,0,0,0,0,0,-1,958,855,0,0
-259,169,0,0,0,0,0,0,0,0,0,-1,965,855,0,0
-252,169,0,0,0,0,0,0,0,0,0,-1,972,855,0,0
-245,169,0,0,0,0,0,0,0,0,0,-1,979,855,0,0
-238,169,0,0,0,0,0,0,0,0,0,-1,986,855,0,0
-231,169,0,0,0,0,0,0,0,0,0,-1,993,855,0,0
-224,169,0,0,0,0,0,0,0,0,0,-1,1000,855,0,0
-217,169,0,0,0,0,0,0,0,0,0,-1,1007,855,0,0
-210,169,0,0,0,0,0,0,0,0,0,-1,1014,855,0,0
-203,169,0,0,0,0,0,0,0,0,0,-1,1021,855,0,0
-196,169,0,0,0,0,0,0,0,0,0,-1,1028,855,0,0
-189,169,0,0,0,0,0,0,0,0,0,-1,1035,855,0,0
-182,169,0,0,0,0,0,0,0,0,0,-1,1042,855,0,0
-175,169,0,0,0,0,0,0,0,0,0,-1,1049,855,0,0
-168,169,0,0,0,0,0,0,0,0,0,-1,1056,855,0,0
-161,169,0,0,0,0,0,0,0,0,0,-1,1063,855,0,0
-154,169,0,0,0,0,0,0,0,0,0,-1,1070,855,0,0
-147,169,0,0,0,0,0,0,0,0,0,-1,1077,855,0,0
-140,169,0,0,0,0,0,0,0,0,0,-1,1084,855,0,0
-133,169,0,0,0,0,0,0,0,0,0,-1,1091,855,0,0
-126,169,0,0,0,0,0,0,0,0,0,-1,1098,855,0,0
-119,169,0,0,0,0,0,0,0,0,0,-1,1105,855,0,0
-112,169,0,0,0,0,0,0,0,0,0,-1,1112,855,0,0
-105,169,0,0,0,0,0,0,0,0,0,-1,1119,855,0,0
-98,169,0,0,0,0,0,0,0,0,0,-1,1126,855,0,0
-91,169,0,0,0,0,0,0,0,0,0,-1,1133,855,0,0
-84,169,0,0,0,0,0,0,0,0,0,-1,1140,855,0,0
-77,169,0,0,0,0,0,0,0,0,0,-1,1147,855,0,0
-70,169,0,0,0,0,0,0,0,0,0,-1,1154,855,0,0
-63,169,0,0,0,0,0,0,0,0,0,-1,1161,855,0,0
-56,169,0,0,0,0,0,0,0,0,0,-1,1168,855,0,0
-49,169,0,0,0,0,0,0,0,0,0,-1,1175,855,0,0
-42,169,0,0,0,0,0,0,0,0,0,-1,1182,855,0,0
-35,169,0,0,0,0,0,0,0,0,0,-1,1189,855,0,0
-28,169,0,0,0,0,0,0,0,0,0,-1,1196,855,0,0
-21,169,0,0,0,0,0,0,0,0,0,-1,1203,855,0,0
-14,169,0,0,0,0,0,0,0,0,0,-1,1210,855,0,0
-7,169,0,0,0,0,0,0,0,0,0,-1,1217,855,0,0
0,169,0,0,0,0,0,0,0,0,0,-1,1224,855,0,0
7,169,0,0,0,0,0,0,0,0,0,-1,1231,855,0,0
14,169,0,0,0,0,0,0,0,0,0,-1,1238,855,0,0
21,169,0,0,0,0,0,0,0,0,0,-1,1245,855,0,0
28,169,0,0,0,0,0,0,0,0,0,-1,1252,855,0,0
35,169,0,0,0,0,0,0,0,0,0,-1,1259,855,0,0
42,169,0,0,0,0,0,0,0,0,0,-1,1266,855,0,0
49,169,0,0,0,0,0,0,0,0,0,-1,1273,855,0,0
56,169,0,0,0,0,0,0,0,0,0,-1,1280,855,0,0
63,169,0,0,0,0,0,0,0,0,0,-1,1287,855,0,0
70,169,0,0,0,0,0,0,0,0,0,-1,1294,855,0,0
77,169,0,0,0,0,0,0,0,0,0,-1,1301,855,0,0
84,169,0,0,0,0,0,0,0,0,0,-1,1308,855,0,0
91,169,0,0,0,0,0,0,0,0,0,-1,1315,855,0,0
98,169,0,0,0,0,0,0,0,0,0,-1,1322,855,0,0
105,169,0,0,0,0,0,0,0,0,0,-1,1329,855,0,0
112,169,0,0,0,0,0,0,0,0,0,-1,1336,855,0,0
119,169,0,0,0,0,0,0,0,0,0,-1,1343,855,0,0
126,169,0,0,0,0,0,0,0,0,0,-1,1350,855,0,0
133,169,0,0,0,0,0,0,0,0,0,-1,1357,855,0,0
140,169,0,0,0,0,0,0,0,0,0,-1,1364,855,0,0
147,169,0,0,0,0,0,0,0,0,0,-1,1371,855,0,0
154,169,0,0,0,0,0,0,0,0,0,-1,1378,855,0,0
161,169,0,0,0,0,0,0,0,0,0,-1,1385,855,0,0
168,169,0,0,0,0,0,0,0,0,0,-1,1392,855,0,0
175,169,0,0,0,0,0,0,0,0,0,-1,1399,855,0,0
182,169,0,0,0,0,0,0,0,0,0,-1,1406,855,0,0
189,169,0,0,0,0,0,0,0,0,0,-1,1413,855,0,0
196,169,0,0,0,0,0,0,0,0,0,-1,1420,855,0,0
203,169,0,0,0,0,0,0,0,0,0,-1,1427,855,0,0
210,169,0,0,0,0,0,0,0,0,0,-1,1434,855,0,0
217,169,0,0,0,0,0,0,0,0,0,-1,1441,855,0,0
224,169,0,0,0,0,0,0,0,0,0,-1,1448,855,0,0
231,169,0,0,0,0,0,0,0,0,0,-1,1455,855,0,0
238,169,0,0,0,0,0,0,0,0,0,-1,1462,855,0,0
245,169,0,0,0,0,0,0,0,0,0,-1,1469,855,0,0
252,169,0,0,0,0,0,0,0,0,0,-1,1476,855,0,0
259,169,0,0,0,0,0,0,0,0,0,-1,1483,855,0,0
266,169,0,0,0,0,0,0,0,0,0,-1,1490,855,0,0
273,169,0,0,0,0,0,0,0,0,0,-1,1497,855,0,0
280,169,0,0,0,0,0,0,0,0,0,-1,1504,855,0,0
287,169,0,0,0,0,0,0,0,0,0,-1,1511,855,0,0
294,169,0,0,0,0,0,0,0,0,0,-1,1518,855,0,0
301,169,0,0,0,0,0,0,0,0,0,-1,1525,855,0,0
308,169,0,0,0,0,0,0,0,0,0,-1,1532,855,0,0
315,169,0,0,0,0,0,0,0,0,0,-1,1539,855,0,0
322,169,0,0,0,0,0,0,0,0,0,-1,1546,855,0,0
329,169,0,0,0,0,0,0,0,0,0,-1,1553,855,0,0
336,169,0,0,0,0,0,0,0,0,0,-1,1560,855,0,0
343,169,0,0,0,0,0,0,0,0,0,-1,1567,855,0,0
350,169,0,0,0,0,0,0,0,0,0,-1,1574,855,0,0
357,169,0,0,0,0,0,0,0,0,0,-1,1581,855,0,0
364,169,0,0,0,0,0,0,0,0,0,-1,1588,855,0,0
371,169,0,0,0,0,0,0,0,0,0,-1,1595,855,0,0
378,169,0,0,0,0,0,0,0,0,0,-1,1602,855,0,0
385,169,0,0,0,0,0,0,0,0,0,-1,1609,855,0,0
392,169,0,0,0,0,0,0,0,0,0,-1,1616,855,0,0
399,169,0,0,0,0,0,0,0,0,0,-1,1623,855,0,0
406,169,0,0,0,0,0,0,0,0,0,-1,1630,855,0,0
413,169,0,0,0,0,0,0,0,0,0,-1,1637,855,0,0
420,169,0,0,0,0,0,0,0,0,0,-1,1644,855,0,0
427,169,0,0,0,0,0,0,0,0,0,-1,1651,855,0,0
434,169,0,0,0,0,0,0,0,0,0,-1,1658,855,0,0
441,169,0,0,0,0,0,0,0,0,0,-1,1665,855,0,0
448,169,0,0,0,0,0,0,0,0,0,-1,1672,855,0,0
455,169,0,0,0,0,0,0,0,0,0,-1,1679,855,0,0
462,169,0,0,0,0,0,0,0,0,0,-1,1686,855,0,0
469,169,0,0,0,0,0,0,0,0,0,-1,1693,855,0,0
476,169,0,0,0,0,0,0,0,0,0,-1,1700,855,0,0
483,169,0,0,0,0,0,0,0,0,0,-1,1707,855,0,0
490,169,0,0,0,0,0,0,0,0,0,-1,1714,855,0,0
497,169,0,0,0,0,0,0,0,0,0,-1,1721,855,0,0
504,169,0,0,0,0,0,0,0,0,0,-1,1728,855,0,0
511,169,0,0,0,0,0,0,0,0,0,-1,1735,855,0,0
518,169,0,0,0,0,0,0,0,0,0,-1,1742,855,0,0
525,169,0,0,0,0,0,0,0,0,0,-1,1749,855,0,0
532,169,0,0,0,0,0,0,0,0,0,-1,1756,855,0,0
539,169,0,0,0,0,0,0,0,0,0,-1,1763,855,0,0
546,169,0,0,0,0,0,0,0,0,0,-1,1770,855,0,0
553,169,0,0,0,0,0,0,0,0,0,-1,1777,855,0,0
560,169,0,0,0,0,0,0,0,0,0,-1,1784,855,0,0
567,169,0,0,0,0,0,0,0,0,0,-1,1791,855,0,0
574,169,0,0,0,0,0,0,0,0,0,-1,1798,855,0,0
581,169,0,0,0,0,0,0,0,0,0,-1,1805,855,0,0
588,169,0,0,0,0,0,0,0,0,0,-1,1812,855,0,0
595,169,0,0,0,0,0,0,0,0,0,-1,1819,855,0,0
602,169,0,0,0,0,0,0,0,0,0,-1,1826,855,0,0
609,169,0,0,0,0,0,0,0,0,0,-1,1833,855,0,0
616,169,159.25,5.60999,0,0,0,0,0,0,0,-1,1840,855,159.25,-5.60998
623,169,159.315,5.34894,0,0,0,0,0,0,0,-1,1847,855,159.315,-5.34891
630,169,159.47,5.26709,0,0,0,0,0,0,0,-1,1854,855,159.47,-5.26712
637,169,159.564,5.56573,0,0,0,0,0,0,0,-1,1861,855,159.564,-5.56571
644,169,159.454,5.68341,0,0,0,0,0,0,0,-1,1868,855,159.454,-5.6834
651,169,159.386,5.68311,0,0,0,0,0,0,0,-1,1875,855,159.386,-5.68308
658,169,159.381,5.64697,0,0,0,0,0,0,0,-1,1882,855,159.381,-5.64699
665,169,74.1068,1.9809,0,0,0,0,0,0,0,-1,1889,855,74.1069,-1.98093
672,169,31.2465,2.96387,0,0,0,0,0,0,0,-1,1896,855,31.2464,-2.9639
679,169,38.4297,1.08197,0,0,0,0,0,0,0,-1,1903,855,38.4296,-1.08194
686,169,138.59,10.7667,0,0,0,0,0,0,0,-1,1910,855,138.59,-10.7667
693,169,138.406,12.6771,0,0,0,0,0,0,0,-1,1917,855,138.406,-12.6771
700,169,138.222,14.5874,0,0,0,0,0,0,0,-1,1924,855,138.222,-14.5874
707,169,137.175,15.9476,0,0,0,0,0,0,0,-1,1931,855,137.175,-15.9475
714,169,137.119,17.6084,-0.00505199,0.00619072,-0.00391396,0.00741909,-0.00628036,-1.26669,0.00791848,0.03245,1938,855,137.119,-17.6084
721,169,137.027,19.2773,-0.00811117,0.0115536,-0.00534913,0.0129144,-0.00947204,-1.32167,0.0129757,0.0302904,1945,855,137.027,-19.2773
728,169,136.707,20.8403,-0.0112898,0.0169658,-0.0068711,0.0185481,-0.0128721,-1.34446,0.0182388,0.0254249,1952,855,136.707,-20.8403
735,169,136.295,22.4802,-0.0144756,0.0224416,-0.00842626,0.0242739,-0.016308,-1.35668,0.0235799,0.0286587,1959,855,136.295,-22.4802
742,169,136.014,24.0316,-0.0175564,0.0279969,-0.00995879,0.0300789,-0.0196384,-1.3647,0.0289145,0.0229873,1966,855,136.014,-24.0316
749,169,135.619,25.2863,-0.0205739,0.0337312,-0.0114818,0.036059,-0.0229017,-1.37077,0.0343224,0.0437238,1973,855,135.619,-25.2863
756,169,135.501,26.4699,0,0,0,0,0,0,0,-1,1980,855,135.501,-26.4699
763,169,61.2976,7.40009,0,0,0,0,0,0,0,-1,1987,855,61.2975,-7.40007
770,169,37.2059,3.97021,0,0,0,0,0,0,0,-1,1994,855,37.2059,-3.97022
777,169,41.7505,8.7085,0,0,0,0,0,0,0,-1,2001,855,41.7505,-8.70852
784,169,40.7385,9.24359,0,0,0,0,0,0,0,-1,2008,855,40.7384,-9.24361
791,169,0,0,0,0,0,0,0,0,0,-1,2015,855,0,0
798,169,0,0,0,0,0,0,0,0,0,-1,2022,855,0,0
805,169,0,0,0,0,0,0,0,0,0,-1,2029,855,0,0
812,169,0,0,0,0,0,0,0,0,0,-1,2036,855,0,0
-700,162,0,0,0,0,0,0,0,0,0,-1,524,862,0,0
-693,162,0,0,0,0,0,0,0,0,0,-1,531,862,0,0
-686,162,0,0,0,0,0,0,0,0,0,-1,538,862,0,0
-679,162,0,0,0,0,0,0,0,0,0,-1,545,862,0,0
-672,162,0,0,0,0,0,0,0,0,0,-1,552,862,0,0
-665,162,-50.6751,7.18884,0,0,0,0,0,0,0,-1,559,862,-50.6751,-7.18885
-658,162,-50.7888,6.02673,0,0,0,0,0,0,0,-1,566,862,-50.7888,-6.02673
-651,162,-111.183,30.1475,0,0,0,0,0,0,0,-1,573,862,-111.183,-30.1475
-644,162,-123.221,31.1652,0,0,0,0,0,0,0,-1,580,862,-123.221,-31.1652
-637,162,-128.15,30.0755,0,0,0,0,0,0,0,-1,587,862,-128.15,-30.0755
-630,162,-128.013,28.6424,0,0,0,0,0,0,0,-1,594,862,-128.013,-28.6424
-623,162,-127.785,27.1293,-0.0201794,0.0227964,0.0103513,0.0251597,-0.0225427,1.34633,0.0275548,0.0378423,601,862,-127.785,-27.1293
-616,162,-127.815,25.7579,-0.0183087,0.0221339,0.0098166,0.0243908,-0.0205656,1.34482,0.0259868,0.0281625,608,862,-127.815,-25.7579
-609,162,-128.109,24.3306,-0.0152173,0.0198283,0.00885295,0.0219377,-0.0173267,1.33689,0.0227213,0.0186883,615,862,-128.109,-24.3306
-602,162,-128.396,22.828,-0.0113813,0.0162119,0.00736845,0.0180563,-0.0132257,1.32553,0.0181323,0.0145316,622,862,-128.396,-22.828
-595,162,-128.584,21.2491,-0.00720641,0.0116665,0.00564064,0.0132239,-0.00876375,1.30141,0.0127813,0.0138103,629,862,-128.584,-21.2491
-588,162,-128.739,19.6473,-0.00264536,0.00637896,0.00370192,0.00770322,-0.00396962,1.22726,0.00685327,0.0196057,636,862,-128.739,-19.6473
-581,162,-128.995,17.7668,0,0,0,0,0,0,0,-1,643,862,-128.995,-17.7668
-574,162,-125.515,15.4328,0,0,0,0,0,0,0,-1,650,862,-125.515,-15.4328
-567,162,-130.445,14.2415,0,0,0,0,0,0,0,-1,657,862,-130.445,-14.2414
-560,162,-36.5075,-0.831665,0,0,0,0,0,0,0,-1,664,862,-36.5075,0.831657
-553,162,-35.9823,-1.60956,0,0,0,0,0,0,0,-1,671,862,-35.9823,1.60954
-546,162,-22.8181,-1.51154,0,0,0,0,0,0,0,-1,678,862,-22.8181,1.51155
-539,162,-53.0229,0.9328,0,0,0,0,0,0,0,-1,685,862,-53.0229,-0.932798
-532,162,-72.6682,0.448364,0,0,0,0,0,0,0,-1,692,862,-72.6681,-0.44835
-525,162,-72.7237,0.432861,0,0,0,0,0,0,0,-1,699,862,-72.7237,-0.432833
-518,162,-72.6802,0.400024,0,0,0,0,0,0,0,-1,706,862,-72.6803,-0.400041
-511,162,-72.5015,0.546997,0,0,0,0,0,0,0,-1,713,862,-72.5015,-0.54698
-504,162,-72.6396,0.532898,0,0,0,0,0,0,0,-1,720,862,-72.6396,-0.532875
-497,162,-72.7673,0.427124,0,0,0,0,0,0,0,-1,727,862,-72.7673,-0.427125
-490,162,0,0,0,0,0,0,0,0,0,-1,734,862,0,0
-483,162,0,0,0,0,0,0,0,0,0,-1,741,862,0,0
-476,162,0,0,0,0,0,0,0,0,0,-1,748,862,0,0
-469,162,0,0,0,0,0,0,0,0,0,-1,755,862,0,0
-462,162,0,0,0,0,0,0,0,0,0,-1,762,862,0,0
-455,162,0,0,0,0,0,0,0,0,0,-1,769,862,0,0
-448,162,0,0,0,0,0,0,0,0,0,-1,776,862,0,0
-441,162,0,0,0,0,0,0,0,0,0,-1,783,862,0,0
-434,162,0,0,0,0,0,0,0,0,0,-1,790,862,0,0
-427,162,0,0,0,0,0,0,0,0,0,-1,797,862,0,0
-420,162,0,0,0,0,0,0,0,0,0,-1,804,862,0,0
-413,162,0,0,0,0,0,0,0,0,0,-1,811,862,0,0
-406,162,0,0,0,0,0,0,0,0,0,-1,818,862,0,0
-399,162,0,0,0,0,0,0,0,0,0,-1,825,862,0,0
-392,162,0,0,0,0,0,0,0,0,0,-1,832,862,0,0
-385,162,0,0,0,0,0,0,0,0,0,-1,839,862,0,0
-378,162,0,0,0,0,0,0,0,0,0,-1,846,862,0,0
-371,162,0,0,0,0,0,0,0,0,0,-1,853,862,0,0
-364,162,0,0,0,0,0,0,0,0,0,-1,860,862,0,0
-357,162,0,0,0,0,0,0,0,0,0,-1,867,862,0,0
-350,162,0,0,0,0,0,0,0,0,0,-1,874,862,0,0
-343,162,0,0,0,0,0,0,0,0,0,-1,881,862,0,0
-336,162,0,0,0,0,0,0,0,0,0,-1,888,862,0,0
-329,162,0,0,0,0,0,0,0,0,0,-1,895,862,0,0
-322,162,0,0,0,0,0,0,0,0,0,-1,902,862,0,0
-315,162,0,0,0,0,0,0,0,0,0,-1,909,862,0,0
-308,162,0,0,0,0,0,0,0,0,0,-1,916,862,0,0
-301,162,0,0,0,0,0,0,0,0,0,-1,923,862,0,0
-294,162,0,0,0,0,0,0,0,0,0,-1,930,862,0,0
-287,162,0,0,0,0,0,0,0,0,0,-1,937,862,0,0
-280,162,0,0,0,0,0,0,0,0,0,-1,944,862,0,0
-273,162,0,0,0,0,0,0,0,0,0,-1,951,862,0,0
-266,162,0,0,0,0,0,0,0,0,0,-1,958,862,0,0
-259,162,0,0,0,0,0,0,0,0,0,-1,965,862,0,0
-252,162,0,0,0,0,0,0,0,0,0,-1,972,862,0,0
-245,162,0,0,0,0,0,0,0,0,0,-1,979,862,0,0
-238,162,0,0,0,0,0,0,0,0,0,-1,986,862,0,0
-231,162,0,0,0,0,0,0,0,0,0,-1,993,862,0,0
-224,162,0,0,0,0,0,0,0,0,0,-1,1000,862,0,0
-217,162,0,0,0,0,0,0,0,0,0,-1,1007,862,0,0
-210,162,0,0,0,0,0,0,0,0,0,-1,1014,862,0,0
-203,162,0,0,0,0,0,0,0,0,0,-1,1021,862,0,0
-196,162,0,0,0,0,0,0,0,0,0,-1,1028,862,0,0
-189,162,0,0,0,0,0,0,0,0,0,-1,1035,862,0,0
-182,162,0,0,0,0,0,0,0,0,0,-1,1042,862,0,0
-175,162,0,0,0,0,0,0,0,0,0,-1,1049,862,0,0
-168,162,0,0,0,0,0,0,0,0,0,-1,1056,862,0,0
-161,162,0,0,0,0,0,0,0,0,0,-1,1063,862,0,0
-154,162,0,0,0,0,0,0,0,0,0,-1,1070,862,0,0
-147,162,0,0,0,0,0,0,0,0,0,-1,1077,862,0,0
-140,162,0,0,0,0,0,0,0,0,0,-1,1084,862,0,0
-133,162,0,0,0,0,0,0,0,0,0,-1,1091,862,0,0
-126,162,0,0,0,0,0,0,0,0,0,-1,1098,862,0,0
-119,162,0,0,0,0,0,0,0,0,0,-1,1105,862,0,0
-112,162,0,0,0,0,0,0,0,0,0,-1,1112,862,0,0
-105,162,0,0,0,0,0,0,0,0,0,-1,1119,862,0,0
-98,162,0,0,0,0,0,0,0,0,0,-1,1126,862,0,0
-91,162,0,0,0,0,0,0,0,0,0,-1,1133,862,0,0
-84,162,0,0,0,0,0,0,0,0,0,-1,1140,862,0,0
-77,162,0,0,0,0,0,0,0,0,0,-1,1147,862,0,0
-70,162,0,0,0,0,0,0,0,0,0,-1,1154,862,0,0
-63,162,0,0,0,0,0,0,0,0,0,-1,1161,862,0,0
-56,162,0,0,0,0,0,0,0,0,0,-1,1168,862,0,0
-49,162,0,0,0,0,0,0,0,0,0,-1,1175,862,0,0
-42,162,0,0,0,0,0,0,0,0,0,-1,1182,862,0,0
-35,162,0,0,0,0,0,0,0,0,0,-1,1189,862,0,0
-28,162,0,0,0,0,0,0,0,0,0,-1,1196,862,0,0
-21,162,0,0,0,0,0,0,0,0,0,-1,1203,862,0,0
-14,162,0,0,0,0,0,0,0,0,0,-1,1210,862,0,0
-7,162,0,0,0,0,0,0,0,0,0,-1,1217,862,0,0
0,162,0,0,0,0,0,0,0,0,0,-1,1224,862,0,0
7,162,0,0,0,0,0,0,0,0,0,-1,1231,862,0,0
14,162,0,0,0,0,0,0,0,0,0,-1,1238,862,0,0
21,162,0,0,0,0,0,0,0,0,0,-1,1245,862,0,0
28,162,0,0,0,0,0,0,0,0,0,-1,1252,862,0,0
35,162,0,0,0,0,0,0,0,0,0,-1,1259,862,0,0
42,162,0,0,0,0,0,0,0,0,0,-1,1266,862,0,0
49,162,0,0,0,0,0,0,0,0,0,-1,1273,862,0,0
56,162,0,0,0,0,0,0,0,0,0,-1,1280,862,0,0
63,162,0,0,0,0,0,0,0,0,0,-1,1287,862,0,0
70,162,0,0,0,0,0,0,0,0,0,-1,1294,862,0,0
77,162,0,0,0,0,0,0,0,0,0,-1,1301,862,0,0
84,162,0,0,0,0,0,0,0,0,0,-1,1308,862,0,0
91,162,0,0,0,0,0,0,0,0,0,-1,1315,862,0,0
98,162,0,0,0,0,0,0,0,0,0,-1,1322,862,0,0
105,162,0,0,0,0,0,0,0,0,0,-1,1329,862,0,0
112,162,0,0,0,0,0,0,0,0,0,-1,1336,862,0,0
119,162,0,0,0,0,0,0,0,0,0,-1,1343,862,0,0
126,162,0,0,0,0,0,0,0,0,0,-1,1350,862,0,0
133,162,0,0,0,0,0,0,0,0,0,-1,1357,862,0,0
140,162,0,0,0,0,0,0,0,0,0,-1,1364,862,0,0
147,162,0,0,0,0,0,0,0,0,0,-1,1371,862,0,0
154,162,0,0,0,0,0,0,0,0,0,-1,1378,862,0,0
161,162,0,0,0,0,0,0,0,0,0,-1,1385,862,0,0
168,162,0,0,0,0,0,0,0,0,0,-1,1392,862,0,0
175,162,0,0,0,0,0,0,0,0,0,-1,1399,862,0,0
182,162,0,0,0,0,0,0,0,0,0,-1,1406,862,0,0
189,162,0,0,0,0,0,0,0,0,0,-1,1413,862,0,0
196,162,0,0,0,0,0,0,0,0,0,-1,1420,862,0,0
203,162,0,0,0,0,0,0,0,0,0,-1,1427,862,0,0
210,162,0,0,0,0,0,0,0,0,0,-1,1434,862,0,0
217,162,0,0,0,0,0,0,0,0,0,-1,1441,862,0,0
224,162,0,0,0,0,0,0,0,0,0,-1,1448,862,0,0
231,162,0,0,0,0,0,0,0,0,0,-1,1455,862,0,0
238,162,0,0,0,0,0,0,0,0,0,-1,1462,862,0,0
245,162,0,0,0,0,0,0,0,0,0,-1,1469,862,0,0
252,162,0,0,0,0,0,0,0,0,0,-1,1476,862,0,0
259,162,0,0,0,0,0,0,0,0,0,-1,1483,862,0,0
266,162,0,0,0,0,0,0,0,0,0,-1,1490,862,0,0
273,162,0,0,0,0,0,0,0,0,0,-1,1497,862,0,0
280,162,0,0,0,0,0,0,0,0,0,-1,1504,862,0,0
287,162,0,0,0,0,0,0,0,0,0,-1,1511,862,0,0
294,162,0,0,0,0,0,0,0,0,0,-1,1518,862,0,0
301,162,0,0,0,0,0,0,0,0,0,-1,1525,862,0,0
308,162,0,0,0,0,0,0,0,0,0,-1,1532,862,0,0
315,162,0,0,0,0,0,0,0,0,0,-1,1539,862,0,0
322,162,0,0,0,0,0,0,0,0,0,-1,1546,862,0,0
329,162,0,0,0,0,0,0,0,0,0,-1,1553,862,0,0
336,162,0,0,0,0,0,0,0,0,0,-1,1560,862,0,0
343,162,0,0,0,0,0,0,0,0,0,-1,1567,862,0,0
350,162,0,0,0,0,0,0,0,0,0,-1,1574,862,0,0
357,162,0,0,0,0,0,0,0,0,0,-1,1581,862,0,0
364,162,0,0,0,0,0,0,0,0,0,-1,1588,862,0,0
371,162,0,0,0,0,0,0,0,0,0,-1,1595,862,0,0
378,162,0,0,0,0,0,0,0,0,0,-1,1602,862,0,0
385,162,0,0,0,0,0,0,0,0,0,-1,1609,862,0,0
392,162,0,0,0,0,0,0,0,0,0,-1,1616,862,0,0
399,162,0,0,0,0,0,0,0,0,0,-1,1623,862,0,0
406,162,0,0,0,0,0,0,0,0,0,-1,1630,862,0,0
413,162,0,0,0,0,0,0,0,0,0,-1,1637,862,0,0
420,162,0,0,0,0,0,0,0,0,0,-1,1644,862,0,0
427,162,0,0,0,0,0,0,0,0,0,-1,1651,862,0,0
434,162,0,0,0,0,0,0,0,0,0,-1,1658,862,0,0
441,162,0,0,0,0,0,0,0,0,0,-1,1665,862,0,0
448,162,0,0,0,0,0,0,0,0,0,-1,1672,862,0,0
455,162,0,0,0,0,0,0,0,0,0,-1,1679,862,0,0
462,162,0,0,0,0,0,0,0,0,0,-1,1686,862,0,0
469,162,0,0,0,0,0,0,0,0,0,-1,1693,862,0,0
476,162,0,0,0,0,0,0,0,0,0,-1,1700,862,0,0
483,162,0,0,0,0,0,0,0,0,0,-1,1707,862,0,0
490,162,0,0,0,0,0,0,0,0,0,-1,1714,862,0,0
497,162,0,0,0,0,0,0,0,0,0,-1,1721,862,0,0
504,162,0,0,0,0,0,0,0,0,0,-1,1728,862,0,0
511,162,0,0,0,0,0,0,0,0,0,-1,1735,862,0,0
518,162,0,0,0,0,0,0,0,0,0,-1,1742,862,0,0
525,162,0,0,0,0,0,0,0,0,0,-1,1749,862,0,0
532,162,0,0,0,0,0,0,0,0,0,-1,1756,862,0,0
539,162,0,0,0,0,0,0,0,0,0,-1,1763,862,0,0
546,162,0,0,0,0,0,0,0,0,0,-1,1770,862,0,0
553,162,0,0,0,0,0,0,0,0,0,-1,1777,862,0,0
560,162,0,0,0,0,0,0,0,0,0,-1,1784,862,0,0
567,162,0,0,0,0,0,0,0,0,0,-1,1791,862,0,0
574,162,0,0,0,0,0,0,0,0,0,-1,1798,862,0,0
581,162,0,0,0,0,0,0,0,0,0,-1,1805,862,0,0
588,162,0,0,0,0,0,0,0,0,0,-1,1812,862,0,0
595,162,0,0,0,0,0,0,0,0,0,-1,1819,862,0,0
602,162,0,0,0,0,0,0,0,0,0,-1,1826,862,0,0
609,162,0,0,0,0,0,0,0,0,0,-1,1833,862,0,0
616,162,159.291,5.8595,0,0,0,0,0,0,0,-1,1840,862,159.291,-5.85951
623,162,159.399,5.59088,0,0,0,0,0,0,0,-1,1847,862,159.399,-5.5909
630,162,159.467,5.31128,0,0,0,0,0,0,0,-1,1854,862,159.467,-5.3113
637,162,159.451,5.42548,0,0,0,0,0,0,0,-1,1861,862,159.451,-5.42545
644,162,159.472,5.53546,0,0,0,0,0,0,0,-1,1868,862,159.472,-5.53544
651,162,159.428,5.53436,0,0,0,0,0,0,0,-1,1875,862,159.428,-5.53436
658,162,159.463,5.44196,0,0,0,0,0,0,0,-1,1882,862,159.463,-5.44193
665,162,159.585,5.12677,0,0,0,0,0,0,0,-1,1889,862,159.585,-5.12674
672,162,56.9712,3.04034,0,0,0,0,0,0,0,-1,1896,862,56.9711,-3.04034
679,162,26.5077,2.54785,0,0,0,0,0,0,0,-1,1903,862,26.5077,-2.54787
686,162,69.0739,-0.282166,0,0,0,0,0,0,0,-1,1910,862,69.0738,0.28219
693,162,140.291,12.8975,0,0,0,0,0,0,0,-1,1917,862,140.291,-12.8975
700,162,139.305,14.9925,0,0,0,0,0,0,0,-1,1924,862,139.305,-14.9925
707,162,139.153,16.3707,-0.00135372,-0.00148637,-0.00142619,7.68469e-06,-0.00284778,-0.762164,0.00190108,0.0404208,1931,862,139.153,-16.3707
714,162,138.738,17.7202,-0.00423757,0.00374246,-0.00293089,0.00470323,-0.00519835,-1.25402,0.00571906,0.0471571,1938,862,138.738,-17.7202
721,162,138.43,19.4244,-0.00727398,0.00908214,-0.00437338,0.0101781,-0.00836992,-1.32526,0.0107256,0.0495919,1945,862,138.43,-19.4245
728,162,138.295,21.0177,-0.0104759,0.0144836,-0.00590099,0.0158084,-0.0118007,-1.34995,0.015996,0.0369172,1952,862,138.295,-21.0177
735,162,138.026,22.5319,-0.0137256,0.0199539,-0.00745522,0.0215304,-0.015302,-1.36241,0.0213663,0.0142721,1959,862,138.026,-22.5319
742,162,137.719,23.9849,-0.0169081,0.0255006,-0.00897368,0.0273213,-0.0187288,-1.37062,0.0267408,0.0200222,1966,862,137.718,-23.9849
749,162,137.286,25.3653,-0.0200378,0.0311879,-0.0104443,0.0332355,-0.0220854,-1.3772,0.0321551,0.0345448,1973,862,137.286,-25.3653
756,162,136.859,26.6189,0,0,0,0,0,0,0,-1,1980,862,136.859,-26.6189
763,162,87.7278,14.9944,0,0,0,0,0,0,0,-1,1987,862,87.7277,-14.9944
770,162,54.8257,9.36987,0,0,0,0,0,0,0,-1,1994,862,54.8256,-9.36988
777,162,66.324,10.5801,0,0,0,0,0,0,0,-1,2001,862,66.3239,-10.5802
784,162,55.6492,10.6049,0,0,0,0,0,0,0,-1,2008,862,55.6491,-10.6049
791,162,0,0,0,0,0,0,0,0,0,-1,2015,862,0,0
798,162,0,0,0,0,0,0,0,0,0,-1,2022,862,0,0
805,162,0,0,0,0,0,0,0,0,0,-1,2029,862,0,0
812,162,0,0,0,0,0,0,0,0,0,-1,2036,862,0,0
-700,155,0,0,0,0,0,0,0,0,0,-1,524,869,0,0
-693,155,0,0,0,0,0,0,0,0,0,-1,531,869,0,0
-686,155,0,0,0,0,0,0,0,0,0,-1,538,869,0,0
-679,155,0,0,0,0,0,0,0,0,0,-1,545,869,0,0
-672,155,0,0,0,0,0,0,0,0,0,-1,552,869,0,0
-665,155,-50.9639,6.01917,0,0,0,0,0,0,0,-1,559,869,-50.9639,-6.01917
-658,155,-51.2028,4.90723,0,0,0,0,0,0,0,-1,566,869,-51.2028,-4.90722
-651,155,-51.22,3.81226,0,0,0,0,0,0,0,-1,573,869,-51.2201,-3.81228
-644,155,-113.137,28.8492,0,0,0,0,0,0,0,-1,580,869,-113.137,-28.8492
-637,155,-124.939,28.825,0,0,0,0,0,0,0,-1,587,869,-124.939,-28.825
-630,155,-128.882,28.978,0,0,0,0,0,0,0,-1,594,869,-128.882,-28.978
-623,155,-129.086,27.3929,-0.0198037,0.0204983,0.00823376,0.0221156,-0.021421,1.37685,0.0251369,0.0358462,601,869,-129.086,-27.3929
-616,155,-129.426,25.8672,-0.017583,0.0195303,0.00811958,0.0212289,-0.0192817,1.36457,0.0233978,0.0237015,608,869,-129.426,-25.8672
-609,155,-129.775,24.3512,-0.0144235,0.0172664,0.00752453,0.0189623,-0.0161193,1.34912,0.0202765,0.0188584,615,869,-129.775,-24.3512
-602,155,-130.051,22.8864,-0.0107124,0.0138498,0.00638711,0.0154114,-0.012274,1.33101,0.0160184,0.017682,622,869,-130.051,-22.8864
-595,155,-130.248,21.3879,-0.00669838,0.00956106,0.00495397,0.0109515,-0.00808886,1.29716,0.0110343,0.0174013,629,869,-130.248,-21.3879
-588,155,-130.347,19.8841,-0.00234682,0.00453964,0.0032578,0.00583656,-0.00364375,1.19193,0.00552205,0.0288176,636,869,-130.347,-19.8841
-581,155,-130.247,18.3492,0,0,0,0,0,0,0,-1,643,869,-130.247,-18.3492
-574,155,-50.6295,2.30585,0,0,0,0,0,0,0,-1,650,869,-50.6295,-2.30585
-567,155,-38.0134,0.582214,0,0,0,0,0,0,0,-1,657,869,-38.0134,-0.582192
-560,155,-37.1416,-0.708008,0,0,0,0,0,0,0,-1,664,869,-37.1416,0.70801
-553,155,-36.7729,-1.71521,0,0,0,0,0,0,0,-1,671,869,-36.7729,1.71523
-546,155,-22.7988,0.873657,0,0,0,0,0,0,0,-1,678,869,-22.7988,-0.873645
-539,155,-72.6761,0.243042,0,0,0,0,0,0,0,-1,685,869,-72.6761,-0.243061
-532,155,-72.5966,0.578491,0,0,0,0,0,0,0,-1,692,869,-72.5965,-0.578462
-525,155,-72.6186,0.610901,0,0,0,0,0,0,0,-1,699,869,-72.6186,-0.61091
-518,155,-72.5714,0.588013,0,0,0,0,0,0,0,-1,706,869,-72.5714,-0.588003
-511,155,-72.443,0.543091,0,0,0,0,0,0,0,-1,713,869,-72.443,-0.543098
-504,155,-72.4114,0.27301,0,0,0,0,0,0,0,-1,720,869,-72.4115,-0.27298
-497,155,0,0,0,0,0,0,0,0,0,-1,727,869,0,0
-490,155,0,0,0,0,0,0,0,0,0,-1,734,869,0,0
-483,155,0,0,0,0,0,0,0,0,0,-1,741,869,0,0
-476,155,0,0,0,0,0,0,0,0,0,-1,748,869,0,0
-469,155,0,0,0,0,0,0,0,0,0,-1,755,869,0,0
-462,155,0,0,0,0,0,0,0,0,0,-1,762,869,0,0
-455,155,0,0,0,0,0,0,0,0,0,-1,769,869,0,0
-448,155,0,0,0,0,0,0,0,0,0,-1,776,869,0,0
-441,155,0,0,0,0,0,0,0,0,0,-1,783,869,0,0
-434,155,0,0,0,0,0,0,0,0,0,-1,790,869,0,0
-427,155,0,0,0,0,0,0,0,0,0,-1,797,869,0,0
-420,155,0,0,0,0,0,0,0,0,0,-1,804,869,0,0
-413,155,0,0,0,0,0,0,0,0,0,-1,811,869,0,0
-406,155,0,0,0,0,0,0,0,0,0,-1,818,869,0,0
-399,155,0,0,0,0,0,0,0,0,0,-1,825,869,0,0
-392,155,0,0,0,0,0,0,0,0,0,-1,832,869,0,0
-385,155,0,0,0,0,0,0,0,0,0,-1,839,869,0,0
-378,155,0,0,0,0,0,0,0,0,0,-1,846,869,0,0
-371,155,0,0,0,0,0,0,0,0,0,-1,853,869,0,0
-364,155,0,0,0,0,0,0,0,0,0,-1,860,869,0,0
-357,155,0,0,0,0,0,0,0,0,0,-1,867,869,0,0
-350,155,0,0,0,0,0,0,0,0,0,-1,874,869,0,0
-343,155,0,0,0,0,0,0,0,0,0,-1,881,869,0,0
-336,155,0,0,0,0,0,0,0,0,0,-1,888,869,0,0
-329,155,0,0,0,0,0,0,0,0,0,-1,895,869,0,0
-322,155,0,0,0,0,0,0,0,0,0,-1,902,869,0,0
-315,155,0,0,0,0,0,0,0,0,0,-1,909,869,0,0
-308,155,0,0,0,0,0,0,0,0,0,-1,916,869,0,0
-301,155,0,0,0,0,0,0,0,0,0,-1,923,869,0,0
-294,155,0,0,0,0,0,0,0,0,0,-1,930,869,0,0
-287,155,0,0,0,0,0,0,0,0,0,-1,937,869,0,0
-280,155,0,0,0,0,0,0,0,0,0,-1,944,869,0,0
-273,155,0,0,0,0,0,0,0,0,0,-1,951,869,0,0
-266,155,0,0,0,0,0,0,0,0,0,-1,958,869,0,0
-259,155,0,0,0,0,0,0,0,0,0,-1,965,869,0,0
-252,155,0,0,0,0,0,0,0,0,0,-1,972,869,0,0
-245,155,0,0,0,0,0,0,0,0,0,-1,979,869,0,0
-238,155,0,0,0,0,0,0,0,0,0,-1,986,869,0,0
-231,155,0,0,0,0,0,0,0,0,0,-1,993,869,0,0
-224,155,0,0,0,0,0,0,0,0,0,-1,1000,869,0,0
-217,155,0,0,0,0,0,0,0,0,0,-1,1007,869,0,0
-210,155,0,0,0,0,0,0,0,0,0,-1,1014,869,0,0
-203,155,0,0,0,0,0,0,0,0,0,-1,1021,869,0,0
-196,155,0,0,0,0,0,0,0,0,0,-1,1028,869,0,0
-189,155,0,0,0,0,0,0,0,0,0,-1,1035,869,0,0
-182,155,0,0,0,0,0,0,0,0,0,-1,1042,869,0,0
-175,155,0,0,0,0,0,0,0,0,0,-1,1049,869,0,0
-168,155,0,0,0,0,0,0,0,0,0,-1,1056,869,0,0
-161,155,0,0,0,0,0,0,0,0,0,-1,1063,869,0,0
-154,155,0,0,0,0,0,0,0,0,0,-1,1070,869,0,0
-147,155,0,0,0,0,0,0,0,0,0,-1,1077,869,0,0
-140,155,0,0,0,0,0,0,0,0,0,-1,1084,869,0,0
-133,155,0,0,0,0,0,0,0,0,0,-1,1091,869,0,0
-126,155,0,0,0,0,0,0,0,0,0,-1,1098,869,0,0
-119,155,0,0,0,0,0,0,0,0,0,-1,1105,869,0,0
-112,155,0,0,0,0,0,0,0,0,0,-1,1112,869,0,0
-105,155,0,0,0,0,0,0,0,0,0,-1,1119,869,0,0
-98,155,0,0,0,0,0,0,0,0,0,-1,1126,869,0,0
-91,155,0,0,0,0,0,0,0,0,0,-1,1133,869,0,0
-84,155,0,0,0,0,0,0,0,0,0,-1,1140,869,0,0
-77,155,0,0,0,0,0,0,0,0,0,-1,1147,869,0,0
-70,155,0,0,0,0,0,0,0,0,0,-1,1154,869,0,0
-63,155,0,0,0,0,0,0,0,0,0,-1,1161,869,0,0
-56,155,0,0,0,0,0,0,0,0,0,-1,1168,869,0,0
-49,155,0,0,0,0,0,0,0,0,0,-1,1175,869,0,0
-42,155,0,0,0,0,0,0,0,0,0,-1,1182,869,0,0
-35,155,0,0,0,0,0,0,0,0,0,-1,1189,869,0,0
-28,155,0,0,0,0,0,0,0,0,0,-1,1196,869,0,0
-21,155,0,0,0,0,0,0,0,0,0,-1,1203,869,0,0
-14,155,0,0,0,0,0,0,0,0,0,-1,1210,869,0,0
-7,155,0,0,0,0,0,0,0,0,0,-1,1217,869,0,0
0,155,0,0,0,0,0,0,0,0,0,-1,1224,869,0,0
7,155,0,0,0,0,0,0,0,0,0,-1,1231,869,0,0
14,155,0,0,0,0,0,0,0,0,0,-1,1238,869,0,0
21,155,0,0,0,0,0,0,0,0,0,-1,1245,869,0,0
28,155,0,0,0,0,0,0,0,0,0,-1,1252,869,0,0
35,155,0,0,0,0,0,0,0,0,0,-1,1259,869,0,0
42,155,0,0,0,0,0,0,0,0,0,-1,1266,869,0,0
49,155,0,0,0,0,0,0,0,0,0,-1,1273,869,0,0
56,155,0,0,0,0,0,0,0,0,0,-1,1280,869,0,0
63,155,0,0,0,0,0,0,0,0,0,-1,1287,869,0,0
70,155,0,0,0,0,0,0,0,0,0,-1,1294,869,0,0
77,155,0,0,0,0,0,0,0,0,0,-1,1301,869,0,0
84,155,0,0,0,0,0,0,0,0,0,-1,1308,869,0,0
91,155,0,0,0,0,0,0,0,0,0,-1,1315,869,0,0
98,155,0,0,0,0,0,0,0,0,0,-1,1322,869,0,0
105,155,0,0,0,0,0,0,0,0,0,-1,1329,869,0,0
112,155,0,0,0,0,0,0,0,0,0,-1,1336,869,0,0
119,155,0,0,0,0,0,0,0,0,0,-1,1343,869,0,0
126,155,0,0,0,0,0,0,0,0,0,-1,1350,869,0,0
133,155,0,0,0,0,0,0,0,0,0,-1,1357,869,0,0
140,155,0,0,0,0,0,0,0,0,0,-1,1364,869,0,0
147,155,0,0,0,0,0,0,0,0,0,-1,1371,869,0,0
154,155,0,0,0,0,0,0,0,0,0,-1,1378,869,0,0
161,155,0,0,0,0,0,0,0,0,0,-1,1385,869,0,0
168,155,0,0,0,0,0,0,0,0,0,-1,1392,869,0,0
175,155,0,0,0,0,0,0,0,0,0,-1,1399,869,0,0
182,155,0,0,0,0,0,0,0,0,0,-1,1406,869,0,0
189,155,0,0,0,0,0,0,0,0,0,-1,1413,869,0,0
196,155,0,0,0,0,0,0,0,0,0,-1,1420,869,0,0
203,155,0,0,0,0,0,0,0,0,0,-1,1427,869,0,0
210,155,0,0,0,0,0,0,0,0,0,-1,1434,869,0,0
217,155,0,0,0,0,0,0,0,0,0,-1,1441,869,0,0
224,155,0,0,0,0,0,0,0,0,0,-1,1448,869,0,0
231,155,0,0,0,0,0,0,0,0,0,-1,1455,869,0,0
238,155,0,0,0,0,0,0,0,0,0,-1,1462,869,0,0
245,155,0,0,0,0,0,0,0,0,0,-1,1469,869,0,0
252,155,0,0,0,0,0,0,0,0,0,-1,1476,869,0,0
259,155,0,0,0,0,0,0,0,0,0,-1,1483,869,0,0
266,155,0,0,0,0,0,0,0,0,0,-1,1490,869,0,0
273,155,0,0,0,0,0,0,0,0,0,-1,1497,869,0,0
280,155,0,0,0,0,0,0,0,0,0,-1,1504,869,0,0
287,155,0,0,0,0,0,0,0,0,0,-1,1511,869,0,0
294,155,0,0,0,0,0,0,0,0,0,-1,1518,869,0,0
301,155,0,0,0,0,0,0,0,0,0,-1,1525,869,0,0
308,155,0,0,0,0,0,0,0,0,0,-1,1532,869,0,0
315,155,0,0,0,0,0,0,0,0,0,-1,1539,869,0,0
322,155,0,0,0,0,0,0,0,0,0,-1,1546,869,0,0
329,155,0,0,0,0,0,0,0,0,0,-1,1553,869,0,0
336,155,0,0,0,0,0,0,0,0,0,-1,1560,869,0,0
343,155,0,0,0,0,0,0,0,0,0,-1,1567,869,0,0
350,155,0,0,0,0,0,0,0,0,0,-1,1574,869,0,0
357,155,0,0,0,0,0,0,0,0,0,-1,1581,869,0,0
364,155,0,0,0,0,0,0,0,0,0,-1,1588,869,0,0
371,155,0,0,0,0,0,0,0,0,0,-1,1595,869,0,0
378,155,0,0,0,0,0,0,0,0,0,-1,1602,869,0,0
385,155,0,0,0,0,0,0,0,0,0,-1,1609,869,0,0
392,155,0,0,0,0,0,0,0,0,0,-1,1616,869,0,0
399,155,0,0,0,0,0,0,0,0,0,-1,1623,869,0,0
406,155,0,0,0,0,0,0,0,0,0,-1,1630,869,0,0
413,155,0,0,0,0,0,0,0,0,0,-1,1637,869,0,0
420,155,0,0,0,0,0,0,0,0,0,-1,1644,869,0,0
427,155,0,0,0,0,0,0,0,0,0,-1,1651,869,0,0
434,155,0,0,0,0,0,0,0,0,0,-1,1658,869,0,0
441,155,0,0,0,0,0,0,0,0,0,-1,1665,869,0,0
448,155,0,0,0,0,0,0,0,0,0,-1,1672,869,0,0
455,155,0,0,0,0,0,0,0,0,0,-1,1679,869,0,0
462,155,0,0,0,0,0,0,0,0,0,-1,1686,869,0,0
469,155,0,0,0,0,0,0,0,0,0,-1,1693,869,0,0
476,155,0,0,0,0,0,0,0,0,0,-1,1700,869,0,0
483,155,0,0,0,0,0,0,0,0,0,-1,1707,869,0,0
490,155,0,0,0,0,0,0,0,0,0,-1,1714,869,0,0
497,155,0,0,0,0,0,0,0,0,0,-1,1721,869,0,0
504,155,0,0,0,0,0,0,0,0,0,-1,1728,869,0,0
511,155,0,0,0,0,0,0,0,0,0,-1,1735,869,0,0
518,155,0,0,0,0,0,0,0,0,0,-1,1742,869,0,0
525,155,0,0,0,0,0,0,0,0,0,-1,1749,869,0,0
532,155,0,0,0,0,0,0,0,0,0,-1,1756,869,0,0
539,155,0,0,0,0,0,0,0,0,0,-1,1763,869,0,0
546,155,0,0,0,0,0,0,0,0,0,-1,1770,869,0,0
553,155,0,0,0,0,0,0,0,0,0,-1,1777,869,0,0
560,155,0,0,0,0,0,0,0,0,0,-1,1784,869,0,0
567,155,0,0,0,0,0,0,0,0,0,-1,1791,869,0,0
574,155,0,0,0,0,0,0,0,0,0,-1,1798,869,0,0
581,155,0,0,0,0,0,0,0,0,0,-1,1805,869,0,0
588,155,0,0,0,0,0,0,0,0,0,-1,1812,869,0,0
595,155,0,0,0,0,0,0,0,0,0,-1,1819,869,0,0
602,155,0,0,0,0,0,0,0,0,0,-1,1826,869,0,0
609,155,0,0,0,0,0,0,0,0,0,-1,1833,869,0,0
616,155,159.362,5.81641,0,0,0,0,0,0,0,-1,1840,869,159.362,-5.81639
623,155,159.512,5.74884,0,0,0,0,0,0,0,-1,1847,869,159.512,-5.74883
630,155,159.486,5.51788,0,0,0,0,0,0,0,-1,1854,869,159.486,-5.51788
637,155,159.401,5.42224,0,0,0,0,0,0,0,-1,1861,869,159.401,-5.42221
644,155,159.42,5.45984,0,0,0,0,0,0,0,-1,1868,869,159.42,-5.45984
651,155,159.452,5.43909,0,0,0,0,0,0,0,-1,1875,869,159.452,-5.4391
658,155,159.474,5.35114,0,0,0,0,0,0,0,-1,1882,869,159.473,-5.35114
665,155,159.426,5.31506,0,0,0,0,0,0,0,-1,1889,869,159.426,-5.31509
672,155,159.49,5.21271,0,0,0,0,0,0,0,-1,1896,869,159.49,-5.21271
679,155,35.1565,2.78528,0,0,0,0,0,0,0,-1,1903,869,35.1565,-2.7853
686,155,43.6101,1.63361,0,0,0,0,0,0,0,-1,1910,869,43.6101,-1.63362
693,155,70.7813,1.23804,0,0,0,0,0,0,0,-1,1917,869,70.7813,-1.23802
700,155,140.601,15.004,0,0,0,0,0,0,0,-1,1924,869,140.601,-15.004
707,155,140.794,16.566,0,0,0,0,0,0,0,-1,1931,869,140.794,-16.566
714,155,140.424,17.7626,0,0,0,0,0,0,0,-1,1938,869,140.424,-17.7626
721,155,139.75,19.5011,0,0,0,0,0,0,0,-1,1945,869,139.75,-19.5011
728,155,139.741,21.1772,-0.00990484,0.0122678,-0.0050957,0.0133828,-0.0110199,-1.35538,0.0141109,0.0267942,1952,869,139.741,-21.1772
735,155,139.635,22.6213,-0.013102,0.0178045,-0.00661894,0.0191623,-0.0144599,-1.36846,0.019475,0.0205561,1959,869,139.635,-22.6213
742,155,139.397,24.0569,-0.0162653,0.0234274,-0.00808548,0.0250112,-0.0178491,-1.37736,0.0248603,0.0255959,1966,869,139.397,-24.0569
749,155,139.022,25.4162,-0.0193726,0.0291768,-0.00946288,0.030956,-0.0211518,-1.38494,0.0302614,0.0289663,1973,869,139.022,-25.4162
756,155,138.607,26.7452,0,0,0,0,0,0,0,-1,1980,869,138.607,-26.7452
763,155,135.894,27.3688,0,0,0,0,0,0,0,-1,1987,869,135.894,-27.3688
770,155,74.0938,12.5649,0,0,0,0,0,0,0,-1,1994,869,74.0936,-12.565
777,155,73.948,14.0645,0,0,0,0,0,0,0,-1,2001,869,73.948,-14.0645
784,155,69.9526,8.4718,0,0,0,0,0,0,0,-1,2008,869,69.9525,-8.47183
791,155,0,0,0,0,0,0,0,0,0,-1,2015,869,0,0
798,155,0,0,0,0,0,0,0,0,0,-1,2022,869,0,0
805,155,0,0,0,0,0,0,0,0,0,-1,2029,869,0,0
812,155,0,0,0,0,0,0,0,0,0,-1,2036,869,0,0
-700,148,0,0,0,0,0,0,0,0,0,-1,524,876,0,0
-693,148,0,0,0,0,0,0,0,0,0,-1,531,876,0,0
-686,148,0,0,0,0,0,0,0,0,0,-1,538,876,0,0
-679,148,0,0,0,0,0,0,0,0,0,-1,545,876,0,0
-672,148,-48.1407,-0.726746,0,0,0,0,0,0,0,-1,552,876,-48.1407,0.726755
-665,148,-48.2041,-3.97095,0,0,0,0,0,0,0,-1,559,876,-48.2041,3.97096
-658,148,-51.7661,3.82794,0,0,0,0,0,0,0,-1,566,876,-51.7661,-3.82797
-651,148,-52.0392,2.79663,0,0,0,0,0,0,0,-1,573,876,-52.0392,-2.79661
-644,148,-52.2687,1.81482,0,0,0,0,0,0,0,-1,580,876,-52.2687,-1.81482
-637,148,-52.5708,0.881165,0,0,0,0,0,0,0,-1,587,876,-52.5708,-0.88117
-630,148,-129.799,29.5475,0,0,0,0,0,0,0,-1,594,876,-129.799,-29.5476
-623,148,-130.389,27.7214,-0.0197361,0.0201092,0.00635534,0.0210983,-0.0207252,1.4164,0.0241471,0.0387339,601,876,-130.389,-27.7215
-616,148,-131.013,25.9559,-0.0170776,0.0183952,0.00653864,0.0195621,-0.0182445,1.3942,0.021832,0.0232733,608,876,-131.013,-25.9559
-609,148,-131.401,24.4318,-0.0137564,0.0157261,0.00627521,0.0170062,-0.0150365,1.36957,0.0185115,0.0174159,615,876,-131.401,-24.4317
-602,148,-131.673,22.9637,-0.0100281,0.0121615,0.00551659,0.0134573,-0.0113239,1.34008,0.0143251,0.0222272,622,876,-131.673,-22.9638
-595,148,-131.857,21.4737,-0.00599464,0.00788708,0.00445582,0.00919424,-0.0073018,1.28544,0.00954486,0.0198077,629,876,-131.857,-21.4737
-588,148,-131.972,19.896,-0.00161268,0.00300709,0.00311544,0.00457554,-0.00318114,1.1044,0.00450238,0.0348061,636,876,-131.972,-19.896
-581,148,-131.982,18.3463,0,0,0,0,0,0,0,-1,643,876,-131.982,-18.3463
-574,148,-129.493,17.1544,0,0,0,0,0,0,0,-1,650,876,-129.493,-17.1544
-567,148,-35.6293,0.615784,0,0,0,0,0,0,0,-1,657,876,-35.6293,-0.615792
-560,148,-37.7973,-0.588135,0,0,0,0,0,0,0,-1,664,876,-37.7973,0.588143
-553,148,-18.3896,-0.00280762,0,0,0,0,0,0,0,-1,671,876,-18.3897,0.00278524
-546,148,-72.6356,0.278809,0,0,0,0,0,0,0,-1,678,876,-72.6356,-0.278824
-539,148,-72.5992,0.387451,0,0,0,0,0,0,0,-1,685,876,-72.5992,-0.387442
-532,148,-72.5662,0.512207,0,0,0,0,0,0,0,-1,692,876,-72.5661,-0.512225
-525,148,-72.5568,0.659302,0,0,0,0,0,0,0,-1,699,876,-72.5568,-0.659294
-518,148,-72.5514,0.678345,0,0,0,0,0,0,0,-1,706,876,-72.5514,-0.678346
-511,148,-72.4734,0.641174,0,0,0,0,0,0,0,-1,713,876,-72.4734,-0.64118
-504,148,-72.4635,0.438782,0,0,0,0,0,0,0,-1,720,876,-72.4635,-0.438791
-497,148,0,0,0,0,0,0,0,0,0,-1,727,876,0,0
-490,148,0,0,0,0,0,0,0,0,0,-1,734,876,0,0
-483,148,0,0,0,0,0,0,0,0,0,-1,741,876,0,0
-476,148,0,0,0,0,0,0,0,0,0,-1,748,876,0,0
-469,148,0,0,0,0,0,0,0,0,0,-1,755,876,0,0
-462,148,0,0,0,0,0,0,0,0,0,-1,762,876,0,0
-455,148,0,0,0,0,0,0,0,0,0,-1,769,876,0,0
-448,148,0,0,0,0,0,0,0,0,0,-1,776,876,0,0
-441,148,0,0,0,0,0,0,0,0,0,-1,783,876,0,0
-434,148,0,0,0,0,0,0,0,0,0,-1,790,876,0,0
-427,148,0,0,0,0,0,0,0,0,0,-1,797,876,0,0
-420,148,0,0,0,0,0,0,0,0,0,-1,804,876,0,0
-413,148,0,0,0,0,0,0,0,0,0,-1,811,876,0,0
-406,148,0,0,0,0,0,0,0,0,0,-1,818,876,0,0
-399,148,0,0,0,0,0,0,0,0,0,-1,825,876,0,0
-392,148,0,0,0,0,0,0,0,0,0,-1,832,876,0,0
-385,148,0,0,0,0,0,0,0,0,0,-1,839,876,0,0
-378,148,0,0,0,0,0,0,0,0,0,-1,846,876,0,0
-371,148,0,0,0,0,0,0,0,0,0,-1,853,876,0,0
-364,148,0,0,0,0,0,0,0,0,0,-1,860,876,0,0
-357,148,0,0,0,0,0,0,0,0,0,-1,867,876,0,0
-350,148,0,0,0,0,0,0,0,0,0,-1,874,876,0,0
-343,148,0,0,0,0,0,0,0,0,0,-1,881,876,0,0
-336,148,0,0,0,0,0,0,0,0,0,-1,888,876,0,0
-329,148,0,0,0,0,0,0,0,0,0,-1,895,876,0,0
-322,148,0,0,0,0,0,0,0,0,0,-1,902,876,0,0
-315,148,0,0,0,0,0,0,0,0,0,-1,909,876,0,0
-308,148,0,0,0,0,0,0,0,0,0,-1,916,876,0,0
-301,148,0,0,0,0,0,0,0,0,0,-1,923,876,0,0
-294,148,0,0,0,0,0,0,0,0,0,-1,930,876,0,0
-287,148,0,0,0,0,0,0,0,0,0,-1,937,876,0,0
-280,148,0,0,0,0,0,0,0,0,0,-1,944,876,0,0
-273,148,0,0,0,0,0,0,0,0,0,-1,951,876,0,0
-266,148,0,0,0,0,0,0,0,0,0,-1,958,876,0,0
-259,148,0,0,0,0,0,0,0,0,0,-1,965,876,0,0
-252,148,0,0,0,0,0,0,0,0,0,-1,972,876,0,0
-245,148,0,0,0,0,0,0,0,0,0,-1,979,876,0,0
-238,148,0,0,0,0,0,0,0,0,0,-1,986,876,0,0
-231,148,0,0,0,0,0,0,0,0,0,-1,993,876,0,0
-224,148,0,0,0,0,0,0,0,0,0,-1,1000,876,0,0
-217,148,0,0,0,0,0,0,0,0,0,-1,1007,876,0,0
-210,148,0,0,0,0,0,0,0,0,0,-1,1014,876,0,0
-203,148,0,0,0,0,0,0,0,0,0,-1,1021,876,0,0
-196,148,0,0,0,0,0,0,0,0,0,-1,1028,876,0,0
-189,148,0,0,0,0,0,0,0,0,0,-1,1035,876,0,0
-182,148,0,0,0,0,0,0,0,0,0,-1,1042,876,0,0
-175,148,0,0,0,0,0,0,0,0,0,-1,1049,876,0,0
-168,148,0,0,0,0,0,0,0,0,0,-1,1056,876,0,0
-161,148,0,0,0,0,0,0,0,0,0,-1,1063,876,0,0
-154,148,0,0,0,0,0,0,0,0,0,-1,1070,876,0,0
-147,148,0,0,0,0,0,0,0,0,0,-1,1077,876,0,0
-140,148,0,0,0,0,0,0,0,0,0,-1,1084,876,0,0
-133,148,0,0,0,0,0,0,0,0,0,-1,1091,876,0,0
-126,148,0,0,0,0,0,0,0,0,0,-1,1098,876,0,0
-119,148,0,0,0,0,0,0,0,0,0,-1,1105,876,0,0
-112,148,0,0,0,0,0,0,0,0,0,-1,1112,876,0,0
-105,148,0,0,0,0,0,0,0,0,0,-1,1119,876,0,0
-98,148,0,0,0,0,0,0,0,0,0,-1,1126,876,0,0
-91,148,0,0,0,0,0,0,0,0,0,-1,1133,876,0,0
-84,148,0,0,0,0,0,0,0,0,0,-1,1140,876,0,0
-77,148,0,0,0,0,0,0,0,0,0,-1,1147,876,0,0
-70,148,0,0,0,0,0,0,0,0,0,-1,1154,876,0,0
-63,148,0,0,0,0,0,0,0,0,0,-1,1161,876,0,0
-56,148,0,0,0,0,0,0,0,0,0,-1,1168,876,0,0
-49,148,0,0,0,0,0,0,0,0,0,-1,1175,876,0,0
-42,148,0,0,0,0,0,0,0,0,0,-1,1182,876,0,0
-35,148,0,0,0,0,0,0,0,0,0,-1,1189,876,0,0
-28,148,0,0,0,0,0,0,0,0,0,-1,1196,876,0,0
-21,148,0,0,0,0,0,0,0,0,0,-1,1203,876,0,0
-14,148,0,0,0,0,0,0,0,0,0,-1,1210,876,0,0
-7,148,0,0,0,0,0,0,0,0,0,-1,1217,876,0,0
0,148,0,0,0,0,0,0,0,0,0,-1,1224,876,0,0
7,148,0,0,0,0,0,0,0,0,0,-1,1231,876,0,0
14,148,0,0,0,0,0,0,0,0,0,-1,1238,876,0,0
21,148,0,0,0,0,0,0,0,0,0,-1,1245,876,0,0
28,148,0,0,0,0,0,0,0,0,0,-1,1252,876,0,0
35,148,0,0,0,0,0,0,0,0,0,-1,1259,876,0,0
42,148,0,0,0,0,0,0,0,0,0,-1,1266,876,0,0
49,148,0,0,0,0,0,0,0,0,0,-1,1273,876,0,0
56,148,0,0,0,0,0,0,0,0,0,-1,1280,876,0,0
63,148,0,0,0,0,0,0,0,0,0,-1,1287,876,0,0
70,148,0,0,0,0,0,0,0,0,0,-1,1294,876,0,0
77,148,0,0,0,0,0,0,0,0,0,-1,1301,876,0,0
84,148,0,0,0,0,0,0,0,0,0,-1,1308,876,0,0
91,148,0,0,0,0,0,0,0,0,0,-1,1315,876,0,0
98,148,0,0,0,0,0,0,0,0,0,-1,1322,876,0,0
105,148,0,0,0,0,0,0,0,0,0,-1,1329,876,0,0
112,148,0,0,0,0,0,0,0,0,0,-1,1336,876,0,0
119,148,0,0,0,0,0,0,0,0,0,-1,1343,876,0,0
126,148,0,0,0,0,0,0,0,0,0,-1,1350,876,0,0
133,148,0,0,0,0,0,0,0,0,0,-1,1357,876,0,0
140,148,0,0,0,0,0,0,0,0,0,-1,1364,876,0,0
147,148,0,0,0,0,0,0,0,0,0,-1,1371,876,0,0
154,148,0,0,0,0,0,0,0,0,0,-1,1378,876,0,0
161,148,0,0,0,0,0,0,0,0,0,-1,1385,876,0,0
168,148,0,0,0,0,0,0,0,0,0,-1,1392,876,0,0
175,148,0,0,0,0,0,0,0,0,0,-1,1399,876,0,0
182,148,0,0,0,0,0,0,0,0,0,-1,1406,876,0,0
189,148,0,0,0,0,0,0,0,0,0,-1,1413,876,0,0
196,148,0,0,0,0,0,0,0,0,0,-1,1420,876,0,0
203,148,0,0,0,0,0,0,0,0,0,-1,1427,876,0,0
210,148,0,0,0,0,0,0,0,0,0,-1,1434,876,0,0
217,148,0,0,0,0,0,0,0,0,0,-1,1441,876,0,0
224,148,0,0,0,0,0,0,0,0,0,-1,1448,876,0,0
231,148,0,0,0,0,0,0,0,0,0,-1,1455,876,0,0
238,148,0,0,0,0,0,0,0,0,0,-1,1462,876,0,0
245,148,0,0,0,0,0,0,0,0,0,-1,1469,876,0,0
252,148,0,0,0,0,0,0,0,0,0,-1,1476,876,0,0
259,148,0,0,0,0,0,0,0,0,0,-1,1483,876,0,0
266,148,0,0,0,0,0,0,0,0,0,-1,1490,876,0,0
273,148,0,0,0,0,0,0,0,0,0,-1,1497,876,0,0
280,148,0,0,0,0,0,0,0,0,0,-1,1504,876,0,0
287,148,0,0,0,0,0,0,0,0,0,-1,1511,876,0,0
294,148,0,0,0,0,0,0,0,0,0,-1,1518,876,0,0
301,148,0,0,0,0,0,0,0,0,0,-1,1525,876,0,0
308,148,0,0,0,0,0,0,0,0,0,-1,1532,876,0,0
315,148,0,0,0,0,0,0,0,0,0,-1,1539,876,0,0
322,148,0,0,0,0,0,0,0,0,0,-1,1546,876,0,0
329,148,0,0,0,0,0,0,0,0,0,-1,1553,876,0,0
336,148,0,0,0,0,0,0,0,0,0,-1,1560,876,0,0
343,148,0,0,0,0,0,0,0,0,0,-1,1567,876,0,0
350,148,0,0,0,0,0,0,0,0,0,-1,1574,876,0,0
357,148,0,0,0,0,0,0,0,0,0,-1,1581,876,0,0
364,148,0,0,0,0,0,0,0,0,0,-1,1588,876,0,0
371,148,0,0,0,0,0,0,0,0,0,-1,1595,876,0,0
378,148,0,0,0,0,0,0,0,0,0,-1,1602,876,0,0
385,148,0,0,0,0,0,0,0,0,0,-1,1609,876,0,0
392,148,0,0,0,0,0,0,0,0,0,-1,1616,876,0,0
399,148,0,0,0,0,0,0,0,0,0,-1,1623,876,0,0
406,148,0,0,0,0,0,0,0,0,0,-1,1630,876,0,0
413,148,0,0,0,0,0,0,0,0,0,-1,1637,876,0,0
420,148,0,0,0,0,0,0,0,0,0,-1,1644,876,0,0
427,148,0,0,0,0,0,0,0,0,0,-1,1651,876,0,0
434,148,0,0,0,0,0,0,0,0,0,-1,1658,876,0,0
441,148,0,0,0,0,0,0,0,0,0,-1,1665,876,0,0
448,148,0,0,0,0,0,0,0,0,0,-1,1672,876,0,0
455,148,0,0,0,0,0,0,0,0,0,-1,1679,876,0,0
462,148,0,0,0,0,0,0,0,0,0,-1,1686,876,0,0
469,148,0,0,0,0,0,0,0,0,0,-1,1693,876,0,0
476,148,0,0,0,0,0,0,0,0,0,-1,1700,876,0,0
483,148,0,0,0,0,0,0,0,0,0,-1,1707,876,0,0
490,148,0,0,0,0,0,0,0,0,0,-1,1714,876,0,0
497,148,0,0,0,0,0,0,0,0,0,-1,1721,876,0,0
504,148,0,0,0,0,0,0,0,0,0,-1,1728,876,0,0
511,148,0,0,0,0,0,0,0,0,0,-1,1735,876,0,0
518,148,0,0,0,0,0,0,0,0,0,-1,1742,876,0,0
525,148,0,0,0,0,0,0,0,0,0,-1,1749,876,0,0
532,148,0,0,0,0,0,0,0,0,0,-1,1756,876,0,0
539,148,0,0,0,0,0,0,0,0,0,-1,1763,876,0,0
546,148,0,0,0,0,0,0,0,0,0,-1,1770,876,0,0
553,148,0,0,0,0,0,0,0,0,0,-1,1777,876,0,0
560,148,0,0,0,0,0,0,0,0,0,-1,1784,876,0,0
567,148,0,0,0,0,0,0,0,0,0,-1,1791,876,0,0
574,148,0,0,0,0,0,0,0,0,0,-1,1798,876,0,0
581,148,0,0,0,0,0,0,0,0,0,-1,1805,876,0,0
588,148,0,0,0,0,0,0,0,0,0,-1,1812,876,0,0
595,148,0,0,0,0,0,0,0,0,0,-1,1819,876,0,0
602,148,0,0,0,0,0,0,0,0,0,-1,1826,876,0,0
609,148,0,0,0,0,0,0,0,0,0,-1,1833,876,0,0
616,148,0,0,0,0,0,0,0,0,0,-1,1840,876,0,0
623,148,159.464,5.80933,0,0,0,0,0,0,0,-1,1847,876,159.463,-5.80933
630,148,159.357,5.7135,0,0,0,0,0,0,0,-1,1854,876,159.357,-5.71352
637,148,159.354,5.63397,0,0,0,0,0,0,0,-1,1861,876,159.354,-5.63396
644,148,159.332,5.46155,0,0,0,0,0,0,0,-1,1868,876,159.332,-5.46152
651,148,159.341,5.43109,0,0,0,0,0,0,0,-1,1875,876,159.341,-5.4311
658,148,159.399,5.4317,0,0,0,0,0,0,0,-1,1882,876,159.399,-5.43171
665,148,159.319,5.55798,0,0,0,0,0,0,0,-1,1889,876,159.319,-5.558
672,148,159.39,5.45093,0,0,0,0,0,0,0,-1,1896,876,159.39,-5.45093
679,148,159.427,5.31659,0,0,0,0,0,0,0,-1,1903,876,159.427,-5.3166
686,148,21.6195,2.40845,0,0,0,0,0,0,0,-1,1910,876,21.6196,-2.40846
693,148,48.1387,1.97351,0,0,0,0,0,0,0,-1,1917,876,48.1387,-1.97351
700,148,141.843,15.5818,0,0,0,0,0,0,0,-1,1924,876,141.843,-15.5818
707,148,142.561,17.0504,0,0,0,0,0,0,0,-1,1931,876,142.561,-17.0504
714,148,142.107,18.3693,0,0,0,0,0,0,0,-1,1938,876,142.107,-18.3693
721,148,141.493,19.7955,-0.00674318,0.00458828,-0.00298641,0.00532717,-0.00748207,-1.32825,0.00743022,0.0393355,1945,876,141.493,-19.7955
728,148,141.383,21.2451,-0.00953886,0.0101514,-0.00441199,0.0110948,-0.0104822,-1.36014,0.0124592,0.02414,1952,876,141.383,-21.245
735,148,141.253,22.733,-0.0124246,0.0158271,-0.00583938,0.0169865,-0.013584,-1.3748,0.0176863,0.0243833,1959,876,141.253,-22.733
742,148,140.919,24.1384,-0.0152846,0.0216167,-0.00719001,0.0229681,-0.016636,-1.385,0.0229626,0.0275821,1966,876,140.919,-24.1384
749,148,140.566,25.4457,-0.0180487,0.027553,-0.00840907,0.0290543,-0.01955,-1.39413,0.0282399,0.0319508,1973,876,140.566,-25.4457
756,148,140.304,26.8069,-0.0205497,0.0335897,-0.0093785,0.0351683,-0.0221283,-1.40404,0.0333646,0.0380847,1980,876,140.304,-26.8069
763,148,139.973,28.2564,0,0,0,0,0,0,0,-1,1987,876,139.973,-28.2564
770,148,108.528,22.8148,0,0,0,0,0,0,0,-1,1994,876,108.528,-22.8148
777,148,75.2727,13.6713,0,0,0,0,0,0,0,-1,2001,876,75.2726,-13.6714
784,148,75.4836,15.2984,0,0,0,0,0,0,0,-1,2008,876,75.4836,-15.2984
791,148,71.4524,10.6003,0,0,0,0,0,0,0,-1,2015,876,71.4523,-10.6003
798,148,0,0,0,0,0,0,0,0,0,-1,2022,876,0,0
805,148,0,0,0,0,0,0,0,0,0,-1,2029,876,0,0
812,148,0,0,0,0,0,0,0,0,0,-1,2036,876,0,0
-700,141,0,0,0,0,0,0,0,0,0,-1,524,883,0,0
-693,141,0,0,0,0,0,0,0,0,0,-1,531,883,0,0
-686,141,0,0,0,0,0,0,0,0,0,-1,538,883,0,0
-679,141,0,0,0,0,0,0,0,0,0,-1,545,883,0,0
-672,141,-48.7804,-0.600891,0,0,0,0,0,0,0,-1,552,883,-48.7804,0.600898
-665,141,-48.764,-3.67065,0,0,0,0,0,0,0,-1,559,883,-48.764,3.67066
-658,141,-52.3438,3.12531,0,0,0,0,0,0,0,-1,566,883,-52.3438,-3.1253
-651,141,-53.1779,1.50293,0,0,0,0,0,0,0,-1,573,883,-53.1778,-1.50292
-644,141,-52.4205,-0.191956,0,0,0,0,0,0,0,-1,580,883,-52.4205,0.191941
-637,141,-52.859,0.400024,0,0,0,0,0,0,0,-1,587,883,-52.859,-0.400006
-630,141,-130.724,29.5121,0,0,0,0,0,0,0,-1,594,883,-130.724,-29.5121
-623,141,-131.714,27.8096,0,0,0,0,0,0,0,-1,601,883,-131.714,-27.8096
-616,141,-132.652,25.8704,-0.0160291,0.0181228,0.00537647,0.0189493,-0.0168555,1.41828,0.0206837,0.0234604,608,883,-132.652,-25.8704
-609,141,-132.999,24.4417,-0.0130461,0.0147651,0.00532484,0.0157497,-0.0140308,1.38794,0.0172033,0.0184579,615,883,-132.999,-24.4417
-602,141,-133.203,23.0146,-0.00991929,0.0107515,0.00487918,0.0118453,-0.0110131,1.35026,0.0132002,0.0216872,622,883,-133.203,-23.0146
-595,141,-133.306,21.5443,-0.0067091,0.00618535,0.00417526,0.00741924,-0.00794299,1.28345,0.0088711,0.0215585,629,883,-133.306,-21.5442
-588,141,-133.817,20.0687,-0.00335697,0.00115033,0.00322967,0.00283492,-0.00504156,1.09002,0.00460659,0.0354975,636,883,-133.817,-20.0687
-581,141,-134.306,18.5529,0,0,0,0,0,0,0,-1,643,883,-134.306,-18.5529
-574,141,-42.7302,0.864685,0,0,0,0,0,0,0,-1,650,883,-42.7301,-0.864692
-567,141,-30.5335,0.480103,0,0,0,0,0,0,0,-1,657,883,-30.5335,-0.480081
-560,141,-30.5542,0.23175,0,0,0,0,0,0,0,-1,664,883,-30.5542,-0.231742
-553,141,-32.0876,1.39459,0,0,0,0,0,0,0,-1,671,883,-32.0876,-1.3946
-546,141,-72.5951,0.447754,0,0,0,0,0,0,0,-1,678,883,-72.5951,-0.447775
-539,141,-72.5854,0.451538,0,0,0,0,0,0,0,-1,685,883,-72.5855,-0.451528
-532,141,-72.5859,0.468872,0,0,0,0,0,0,0,-1,692,883,-72.5859,-0.468888
-525,141,-72.6156,0.501648,0,0,0,0,0,0,0,-1,699,883,-72.6156,-0.501667
-518,141,-72.6504,0.630859,0,0,0,0,0,0,0,-1,706,883,-72.6504,-0.630879
-511,141,-72.6628,0.72522,0,0,0,0,0,0,0,-1,713,883,-72.6628,-0.725227
-504,141,-72.6421,0.891968,0,0,0,0,0,0,0,-1,720,883,-72.6421,-0.891968
-497,141,0,0,0,0,0,0,0,0,0,-1,727,883,0,0
-490,141,0,0,0,0,0,0,0,0,0,-1,734,883,0,0
-483,141,0,0,0,0,0,0,0,0,0,-1,741,883,0,0
-476,141,0,0,0,0,0,0,0,0,0,-1,748,883,0,0
-469,141,0,0,0,0,0,0,0,0,0,-1,755,883,0,0
-462,141,0,0,0,0,0,0,0,0,0,-1,762,883,0,0
-455,141,0,0,0,0,0,0,0,0,0,-1,769,883,0,0
-448,141,0,0,0,0,0,0,0,0,0,-1,776,883,0,0
-441,141,0,0,0,0,0,0,0,0,0,-1,783,883,0,0
-434,141,0,0,0,0,0,0,0,0,0,-1,790,883,0,0
-427,141,0,0,0,0,0,0,0,0,0,-1,797,883,0,0
-420,141,0,0,0,0,0,0,0,0,0,-1,804,883,0,0
-413,141,0,0,0,0,0,0,0,0,0,-1,811,883,0,0
-406,141,0,0,0,0,0,0,0,0,0,-1,818,883,0,0
-399,141,0,0,0,0,0,0,0,0,0,-1,825,883,0,0
-392,141,0,0,0,0,0,0,0,0,0,-1,832,883,0,0
-385,141,0,0,0,0,0,0,0,0,0,-1,839,883,0,0
-378,141,0,0,0,0,0,0,0,0,0,-1,846,883,0,0
-371,141,0,0,0,0,0,0,0,0,0,-1,853,883,0,0
-364,141,0,0,0,0,0,0,0,0,0,-1,860,883,0,0
-357,141,0,0,0,0,0,0,0,0,0,-1,867,883,0,0
-350,141,0,0,0,0,0,0,0,0,0,-1,874,883,0,0
-343,141,0,0,0,0,0,0,0,0,0,-1,881,883,0,0
-336,141,0,0,0,0,0,0,0,0,0,-1,888,883,0,0
-329,141,0,0,0,0,0,0,0,0,0,-1,895,883,0,0
-322,141,0,0,0,0,0,0,0,0,0,-1,902,883,0,0
-315,141,0,0,0,0,0,0,0,0,0,-1,909,883,0,0
-308,141,0,0,0,0,0,0,0,0,0,-1,916,883,0,0
-301,141,0,0,0,0,0,0,0,0,0,-1,923,883,0,0
-294,141,0,0,0,0,0,0,0,0,0,-1,930,883,0,0
-287,141,0,0,0,0,0,0,0,0,0,-1,937,883,0,0
-280,141,0,0,0,0,0,0,0,0,0,-1,944,883,0,0
-273,141,0,0,0,0,0,0,0,0,0,-1,951,883,0,0
-266,141,0,0,0,0,0,0,0,0,0,-1,958,883,0,0
-259,141,0,0,0,0,0,0,0,0,0,-1,965,883,0,0
-252,141,0,0,0,0,0,0,0,0,0,-1,972,883,0,0
-245,141,0,0,0,0,0,0,0,0,0,-1,979,883,0,0
-238,141,0,0,0,0,0,0,0,0,0,-1,986,883,0,0
-231,141,0,0,0,0,0,0,0,0,0,-1,993,883,0,0
-224,141,0,0,0,0,0,0,0,0,0,-1,1000,883,0,0
-217,141,0,0,0,0,0,0,0,0,0,-1,1007,883,0,0
-210,141,0,0,0,0,0,0,0,0,0,-1,1014,883,0,0
-203,141,0,0,0,0,0,0,0,0,0,-1,1021,883,0,0
-196,141,0,0,0,0,0,0,0,0,0,-1,1028,883,0,0
-189,141,0,0,0,0,0,0,0,0,0,-1,1035,883,0,0
-182,141,0,0,0,0,0,0,0,0,0,-1,1042,883,0,0
-175,141,0,0,0,0,0,0,0,0,0,-1,1049,883,0,0
-168,141,0,0,0,0,0,0,0,0,0,-1,1056,883,0,0
-161,141,0,0,0,0,0,0,0,0,0,-1,1063,883,0,0
-154,141,0,0,0,0,0,0,0,0,0,-1,1070,883,0,0
-147,141,0,0,0,0,0,0,0,0,0,-1,1077,883,0,0
-140,141,0,0,0,0,0,0,0,0,0,-1,1084,883,0,0
-133,141,0,0,0,0,0,0,0,0,0,-1,1091,883,0,0
-126,141,0,0,0,0,0,0,0,0,0,-1,1098,883,0,0
-119,141,0,0,0,0,0,0,0,0,0,-1,1105,883,0,0
-112,141,0,0,0,0,0,0,0,0,0,-1,1112,883,0,0
-105,141,0,0,0,0,0,0,0,0,0,-1,1119,883,0,0
-98,141,0,0,0,0,0,0,0,0,0,-1,1126,883,0,0
-91,141,0,0,0,0,0,0,0,0,0,-1,1133,883,0,0
-84,141,0,0,0,0,0,0,0,0,0,-1,1140,883,0,0
-77,141,0,0,0,0,0,0,0,0,0,-1,1147,883,0,0
-70,141,0,0,0,0,0,0,0,0,0,-1,1154,883,0,0
-63,141,0,0,0,0,0,0,0,0,0,-1,1161,883,0,0
-56,141,0,0,0,0,0,0,0,0,0,-1,1168,883,0,0
-49,141,0,0,0,0,0,0,0,0,0,-1,1175,883,0,0
-42,141,0,0,0,0,0,0,0,0,0,-1,1182,883,0,0
-35,141,0,0,0,0,0,0,0,0,0,-1,1189,883,0,0
-28,141,0,0,0,0,0,0,0,0,0,-1,1196,883,0,0
-21,141,0,0,0,0,0,0,0,0,0,-1,1203,883,0,0
-14,141,0,0,0,0,0,0,0,0,0,-1,1210,883,0,0
-7,141,0,0,0,0,0,0,0,0,0,-1,1217,883,0,0
0,141,0,0,0,0,0,0,0,0,0,-1,1224,883,0,0
7,141,0,0,0,0,0,0,0,0,0,-1,1231,883,0,0
14,141,0,0,0,0,0,0,0,0,0,-1,1238,883,0,0
21,141,0,0,0,0,0,0,0,0,0,-1,1245,883,0,0
28,141,0,0,0,0,0,0,0,0,0,-1,1252,883,0,0
35,141,0,0,0,0,0,0,0,0,0,-1,1259,883,0,0
42,141,0,0,0,0,0,0,0,0,0,-1,1266,883,0,0
49,141,0,0,0,0,0,0,0,0,0,-1,1273,883,0,0
56,141,0,0,0,0,0,0,0,0,0,-1,1280,883,0,0
63,141,0,0,0,0,0,0,0,0,0,-1,1287,883,0,0
70,141,0,0,0,0,0,0,0,0,0,-1,1294,883,0,0
77,141,0,0,0,0,0,0,0,0,0,-1,1301,883,0,0
84,141,0,0,0,0,0,0,0,0,0,-1,1308,883,0,0
91,141,0,0,0,0,0,0,0,0,0,-1,1315,883,0,0
98,141,0,0,0,0,0,0,0,0,0,-1,1322,883,0,0
105,141,0,0,0,0,0,0,0,0,0,-1,1329,883,0,0
112,141,0,0,0,0,0,0,0,0,0,-1,1336,883,0,0
119,141,0,0,0,0,0,0,0,0,0,-1,1343,883,0,0
126,141,0,0,0,0,0,0,0,0,0,-1,1350,883,0,0
133,141,0,0,0,0,0,0,0,0,0,-1,1357,883,0,0
140,141,0,0,0,0,0,0,0,0,0,-1,1364,883,0,0
147,141,0,0,0,0,0,0,0,0,0,-1,1371,883,0,0
154,141,0,0,0,0,0,0,0,0,0,-1,1378,883,0,0
161,141,0,0,0,0,0,0,0,0,0,-1,1385,883,0,0
168,141,0,0,0,0,0,0,0,0,0,-1,1392,883,0,0
175,141,0,0,0,0,0,0,0,0,0,-1,1399,883,0,0
182,141,0,0,0,0,0,0,0,0,0,-1,1406,883,0,0
189,141,0,0,0,0,0,0,0,0,0,-1,1413,883,0,0
196,141,0,0,0,0,0,0,0,0,0,-1,1420,883,0,0
203,141,0,0,0,0,0,0,0,0,0,-1,1427,883,0,0
210,141,0,0,0,0,0,0,0,0,0,-1,1434,883,0,0
217,141,0,0,0,0,0,0,0,0,0,-1,1441,883,0,0
224,141,0,0,0,0,0,0,0,0,0,-1,1448,883,0,0
231,141,0,0,0,0,0,0,0,0,0,-1,1455,883,0,0
238,141,0,0,0,0,0,0,0,0,0,-1,1462,883,0,0
245,141,0,0,0,0,0,0,0,0,0,-1,1469,883,0,0
252,141,0,0,0,0,0,0,0,0,0,-1,1476,883,0,0
259,141,0,0,0,0,0,0,0,0,0,-1,1483,883,0,0
266,141,0,0,0,0,0,0,0,0,0,-1,1490,883,0,0
273,141,0,0,0,0,0,0,0,0,0,-1,1497,883,0,0
280,141,0,0,0,0,0,0,0,0,0,-1,1504,883,0,0
287,141,0,0,0,0,0,0,0,0,0,-1,1511,883,0,0
294,141,0,0,0,0,0,0,0,0,0,-1,1518,883,0,0
301,141,0,0,0,0,0,0,0,0,0,-1,1525,883,0,0
308,141,0,0,0,0,0,0,0,0,0,-1,1532,883,0,0
315,141,0,0,0,0,0,0,0,0,0,-1,1539,883,0,0
322,141,0,0,0,0,0,0,0,0,0,-1,1546,883,0,0
329,141,0,0,0,0,0,0,0,0,0,-1,1553,883,0,0
336,141,0,0,0,0,0,0,0,0,0,-1,1560,883,0,0
343,141,0,0,0,0,0,0,0,0,0,-1,1567,883,0,0
350,141,0,0,0,0,0,0,0,0,0,-1,1574,883,0,0
357,141,0,0,0,0,0,0,0,0,0,-1,1581,883,0,0
364,141,0,0,0,0,0,0,0,0,0,-1,1588,883,0,0
371,141,0,0,0,0,0,0,0,0,0,-1,1595,883,0,0
378,141,0,0,0,0,0,0,0,0,0,-1,1602,883,0,0
385,141,0,0,0,0,0,0,0,0,0,-1,1609,883,0,0
392,141,0,0,0,0,0,0,0,0,0,-1,1616,883,0,0
399,141,0,0,0,0,0,0,0,0,0,-1,1623,883,0,0
406,141,0,0,0,0,0,0,0,0,0,-1,1630,883,0,0
413,141,0,0,0,0,0,0,0,0,0,-1,1637,883,0,0
420,141,0,0,0,0,0,0,0,0,0,-1,1644,883,0,0
427,141,0,0,0,0,0,0,0,0,0,-1,1651,883,0,0
434,141,0,0,0,0,0,0,0,0,0,-1,1658,883,0,0
441,141,0,0,0,0,0,0,0,0,0,-1,1665,883,0,0
448,141,0,0,0,0,0,0,0,0,0,-1,1672,883,0,0
455,141,0,0,0,0,0,0,0,0,0,-1,1679,883,0,0
462,141,0,0,0,0,0,0,0,0,0,-1,1686,883,0,0
469,141,0,0,0,0,0,0,0,0,0,-1,1693,883,0,0
476,141,0,0,0,0,0,0,0,0,0,-1,1700,883,0,0
483,141,0,0,0,0,0,0,0,0,0,-1,1707,883,0,0
490,141,0,0,0,0,0,0,0,0,0,-1,1714,883,0,0
497,141,0,0,0,0,0,0,0,0,0,-1,1721,883,0,0
504,141,0,0,0,0,0,0,0,0,0,-1,1728,883,0,0
511,141,0,0,0,0,0,0,0,0,0,-1,1735,883,0,0
518,141,0,0,0,0,0,0,0,0,0,-1,1742,883,0,0
525,141,0,0,0,0,0,0,0,0,0,-1,1749,883,0,0
532,141,0,0,0,0,0,0,0,0,0,-1,1756,883,0,0
539,141,0,0,0,0,0,0,0,0,0,-1,1763,883,0,0
546,141,0,0,0,0,0,0,0,0,0,-1,1770,883,0,0
553,141,0,0,0,0,0,0,0,0,0,-1,1777,883,0,0
560,141,0,0,0,0,0,0,0,0,0,-1,1784,883,0,0
567,141,0,0,0,0,0,0,0,0,0,-1,1791,883,0,0
574,141,0,0,0,0,0,0,0,0,0,-1,1798,883,0,0
581,141,0,0,0,0,0,0,0,0,0,-1,1805,883,0,0
588,141,0,0,0,0,0,0,0,0,0,-1,1812,883,0,0
595,141,0,0,0,0,0,0,0,0,0,-1,1819,883,0,0
602,141,0,0,0,0,0,0,0,0,0,-1,1826,883,0,0
609,141,0,0,0,0,0,0,0,0,0,-1,1833,883,0,0
616,141,0,0,0,0,0,0,0,0,0,-1,1840,883,0,0
623,141,159.424,5.78699,0,0,0,0,0,0,0,-1,1847,883,159.424,-5.78697
630,141,159.37,5.73291,0,0,0,0,0,0,0,-1,1854,883,159.37,-5.73293
637,141,159.368,5.70831,0,0,0,0,0,0,0,-1,1861,883,159.368,-5.70834
644,141,159.345,5.63086,0,0,0,0,0,0,0,-1,1868,883,159.345,-5.63083
651,141,159.394,5.71387,0,0,0,0,0,0,0,-1,1875,883,159.394,-5.71384
658,141,159.455,5.49176,0,0,0,0,0,0,0,-1,1882,883,159.455,-5.49179
665,141,159.277,5.53949,0,0,0,0,0,0,0,-1,1889,883,159.277,-5.53951
672,141,159.32,5.52789,0,0,0,0,0,0,0,-1,1896,883,159.32,-5.52787
679,141,159.282,5.53528,0,0,0,0,0,0,0,-1,1903,883,159.282,-5.53526
686,141,155.808,4.77344,0,0,0,0,0,0,0,-1,1910,883,155.808,-4.77342
693,141,51.7202,1.76593,0,0,0,0,0,0,0,-1,1917,883,51.7202,-1.76595
700,141,62.7651,1.95361,0,0,0,0,0,0,0,-1,1924,883,62.7651,-1.95364
707,141,143.46,17.1067,0,0,0,0,0,0,0,-1,1931,883,143.46,-17.1067
714,141,142.996,18.4876,0,0,0,0,0,0,0,-1,1938,883,142.996,-18.4876
721,141,143.006,19.9174,-0.00656206,0.00230658,-0.00218047,0.00281368,-0.00706916,-1.34229,0.00587953,0.0238903,1945,883,143.006,-19.9174
728,141,142.98,21.3726,-0.0092207,0.00802794,-0.00365239,0.00876945,-0.00996222,-1.3705,0.010822,0.0193297,1952,883,142.98,-21.3726
735,141,142.767,22.9455,-0.0119694,0.013873,-0.00507554,0.0148342,-0.0129305,-1.38365,0.0160425,0.0232535,1959,883,142.767,-22.9455
742,141,142.424,24.2129,-0.0146995,0.0198356,-0.00637181,0.0209737,-0.0158376,-1.39404,0.0213219,0.0243716,1966,883,142.424,-24.2129
749,141,142.216,25.4639,-0.0173293,0.0259312,-0.00748142,0.0271885,-0.0185866,-1.4043,0.0265833,0.0200116,1973,883,142.216,-25.4639
756,141,142.069,26.8265,-0.0197395,0.0321275,-0.00831185,0.033427,-0.021039,-1.41572,0.0317159,0.0278936,1980,883,142.069,-26.8265
763,141,141.825,28.2247,0,0,0,0,0,0,0,-1,1987,883,141.825,-28.2247
770,141,137.229,28.8567,0,0,0,0,0,0,0,-1,1994,883,137.229,-28.8567
777,141,110.394,25.0393,0,0,0,0,0,0,0,-1,2001,883,110.394,-25.0393
784,141,73.3435,9.80182,0,0,0,0,0,0,0,-1,2008,883,73.3434,-9.80183
791,141,73.7993,11.1595,0,0,0,0,0,0,0,-1,2015,883,73.7994,-11.1595
798,141,0,0,0,0,0,0,0,0,0,-1,2022,883,0,0
805,141,0,0,0,0,0,0,0,0,0,-1,2029,883,0,0
812,141,0,0,0,0,0,0,0,0,0,-1,2036,883,0,0
-700,134,0,0,0,0,0,0,0,0,0,-1,524,890,0,0
-693,134,0,0,0,0,0,0,0,0,0,-1,531,890,0,0
-686,134,0,0,0,0,0,0,0,0,0,-1,538,890,0,0
-679,134,0,0,0,0,0,0,0,0,0,-1,545,890,0,0
-672,134,-49.3306,-0.500671,0,0,0,0,0,0,0,-1,552,890,-49.3306,0.500651
-665,134,-49.3356,-3.00098,0,0,0,0,0,0,0,-1,559,890,-49.3356,3.00096
-658,134,-49.3368,-5.46246,0,0,0,0,0,0,0,-1,566,890,-49.3368,5.46248
-651,134,-53.0905,0.530762,0,0,0,0,0,0,0,-1,573,890,-53.0905,-0.530792
-644,134,-51.8253,-1.26782,0,0,0,0,0,0,0,-1,580,890,-51.8253,1.26783
-637,134,-50.5067,-2.83545,0,0,0,0,0,0,0,-1,587,890,-50.5066,2.83545
-630,134,-132.879,27.9072,0,0,0,0,0,0,0,-1,594,890,-132.879,-27.9072
-623,134,-133.461,26.9966,0,0,0,0,0,0,0,-1,601,890,-133.461,-26.9966
-616,134,-134.176,25.8823,-0.0151615,0.0183147,0.00478339,0.0189848,-0.0158316,1.43162,0.0201287,0.0239654,608,890,-134.176,-25.8823
-609,134,-134.528,24.5288,-0.0122728,0.0140797,0.00478104,0.0149203,-0.0131134,1.39676,0.0161965,0.0155555,615,890,-134.528,-24.5288
-602,134,-134.677,23.0825,-0.00947146,0.0093659,0.00451293,0.0103913,-0.0104968,1.34738,0.0120598,0.0165175,622,890,-134.677,-23.0825
-595,134,-134.658,21.7136,-0.00676974,0.00423007,0.00406216,0.00556757,-0.00810724,1.25272,0.00794041,0.027258,629,890,-134.658,-21.7136
-588,134,-135.306,20.3644,-0.00409847,-0.00126529,0.0034482,0.00104595,-0.00640972,0.980298,0.00466108,0.0436659,636,890,-135.306,-20.3644
-581,134,-135.547,18.8182,0,0,0,0,0,0,0,-1,643,890,-135.547,-18.8182
-574,134,-31.1517,0.757751,0,0,0,0,0,0,0,-1,650,890,-31.1517,-0.757758
-567,134,-30.9003,0.296326,0,0,0,0,0,0,0,-1,657,890,-30.9002,-0.296302
-560,134,-22.9123,0.106567,0,0,0,0,0,0,0,-1,664,890,-22.9123,-0.106594
-553,134,-72.5416,0.452454,0,0,0,0,0,0,0,-1,671,890,-72.5416,-0.452462
-546,134,-72.5792,0.43927,0,0,0,0,0,0,0,-1,678,890,-72.5792,-0.439291
-539,134,-72.602,0.427246,0,0,0,0,0,0,0,-1,685,890,-72.602,-0.42724
-532,134,-72.6031,0.462463,0,0,0,0,0,0,0,-1,692,890,-72.6031,-0.462467
-525,134,-72.651,0.554382,0,0,0,0,0,0,0,-1,699,890,-72.651,-0.554408
-518,134,-72.6708,0.689209,0,0,0,0,0,0,0,-1,706,890,-72.6708,-0.689198
-511,134,-72.619,0.895386,0,0,0,0,0,0,0,-1,713,890,-72.619,-0.895374
-504,134,0,0,0,0,0,0,0,0,0,-1,720,890,0,0
-497,134,0,0,0,0,0,0,0,0,0,-1,727,890,0,0
-490,134,0,0,0,0,0,0,0,0,0,-1,734,890,0,0
-483,134,0,0,0,0,0,0,0,0,0,-1,741,890,0,0
-476,134,0,0,0,0,0,0,0,0,0,-1,748,890,0,0
-469,134,0,0,0,0,0,0,0,0,0,-1,755,890,0,0
-462,134,0,0,0,0,0,0,0,0,0,-1,762,890,0,0
-455,134,0,0,0,0,0,0,0,0,0,-1,769,890,0,0
-448,134,0,0,0,0,0,0,0,0,0,-1,776,890,0,0
-441,134,0,0,0,0,0,0,0,0,0,-1,783,890,0,0
-434,134,0,0,0,0,0,0,0,0,0,-1,790,890,0,0
-427,134,0,0,0,0,0,0,0,0,0,-1,797,890,0,0
-420,134,0,0,0,0,0,0,0,0,0,-1,804,890,0,0
-413,134,0,0,0,0,0,0,0,0,0,-1,811,890,0,0
-406,134,0,0,0,0,0,0,0,0,0,-1,818,890,0,0
-399,134,0,0,0,0,0,0,0,0,0,-1,825,890,0,0
-392,134,0,0,0,0,0,0,0,0,0,-1,832,890,0,0
-385,134,0,0,0,0,0,0,0,0,0,-1,839,890,0,0
-378,134,0,0,0,0,0,0,0,0,0,-1,846,890,0,0
-371,134,0,0,0,0,0,0,0,0,0,-1,853,890,0,0
-364,134,0,0,0,0,0,0,0,0,0,-1,860,890,0,0
-357,134,0,0,0,0,0,0,0,0,0,-1,867,890,0,0
-350,134,0,0,0,0,0,0,0,0,0,-1,874,890,0,0
-343,134,0,0,0,0,0,0,0,0,0,-1,881,890,0,0
-336,134,0,0,0,0,0,0,0,0,0,-1,888,890,0,0
-329,134,0,0,0,0,0,0,0,0,0,-1,895,890,0,0
-322,134,0,0,0,0,0,0,0,0,0,-1,902,890,0,0
-315,134,0,0,0,0,0,0,0,0,0,-1,909,890,0,0
-308,134,0,0,0,0,0,0,0,0,0,-1,916,890,0,0
-301,134,0,0,0,0,0,0,0,0,0,-1,923,890,0,0
-294,134,0,0,0,0,0,0,0,0,0,-1,930,890,0,0
-287,134,0,0,0,0,0,0,0,0,0,-1,937,890,0,0
-280,134,0,0,0,0,0,0,0,0,0,-1,944,890,0,0
-273,134,0,0,0,0,0,0,0,0,0,-1,951,890,0,0
-266,134,0,0,0,0,0,0,0,0,0,-1,958,890,0,0
-259,134,0,0,0,0,0,0,0,0,0,-1,965,890,0,0
-252,134,0,0,0,0,0,0,0,0,0,-1,972,890,0,0
-245,134,0,0,0,0,0,0,0,0,0,-1,979,890,0,0
-238,134,0,0,0,0,0,0,0,0,0,-1,986,890,0,0
-231,134,0,0,0,0,0,0,0,0,0,-1,993,890,0,0
-224,134,0,0,0,0,0,0,0,0,0,-1,1000,890,0,0
-217,134,0,0,0,0,0,0,0,0,0,-1,1007,890,0,0
-210,134,0,0,0,0,0,0,0,0,0,-1,1014,890,0,0
-203,134,0,0,0,0,0,0,0,0,0,-1,1021,890,0,0
-196,134,0,0,0,0,0,0,0,0,0,-1,1028,890,0,0
-189,134,0,0,0,0,0,0,0,0,0,-1,1035,890,0,0
-182,134,0,0,0,0,0,0,0,0,0,-1,1042,890,0,0
-175,134,0,0,0,0,0,0,0,0,0,-1,1049,890,0,0
-168,134,0,0,0,0,0,0,0,0,0,-1,1056,890,0,0
-161,134,0,0,0,0,0,0,0,0,0,-1,1063,890,0,0
-154,134,0,0,0,0,0,0,0,0,0,-1,1070,890,0,0
-147,134,0,0,0,0,0,0,0,0,0,-1,1077,890,0,0
-140,134,0,0,0,0,0,0,0,0,0,-1,1084,890,0,0
-133,134,0,0,0,0,0,0,0,0,0,-1,1091,890,0,0
-126,134,0,0,0,0,0,0,0,0,0,-1,1098,890,0,0
-119,134,0,0,0,0,0,0,0,0,0,-1,1105,890,0,0
-112,134,0,0,0,0,0,0,0,0,0,-1,1112,890,0,0
-105,134,0,0,0,0,0,0,0,0,0,-1,1119,890,0,0
-98,134,0,0,0,0,0,0,0,0,0,-1,1126,890,0,0
-91,134,0,0,0,0,0,0,0,0,0,-1,1133,890,0,0
-84,134,0,0,0,0,0,0,0,0,0,-1,1140,890,0,0
-77,134,0,0,0,0,0,0,0,0,0,-1,1147,890,0,0
-70,134,0,0,0,0,0,0,0,0,0,-1,1154,890,0,0
-63,134,0,0,0,0,0,0,0,0,0,-1,1161,890,0,0
-56,134,0,0,0,0,0,0,0,0,0,-1,1168,890,0,0
-49,134,0,0,0,0,0,0,0,0,0,-1,1175,890,0,0
-42,134,0,0,0,0,0,0,0,0,0,-1,1182,890,0,0
-35,134,0,0,0,0,0,0,0,0,0,-1,1189,890,0,0
-28,134,0,0,0,0,0,0,0,0,0,-1,1196,890,0,0
-21,134,0,0,0,0,0,0,0,0,0,-1,1203,890,0,0
-14,134,0,0,0,0,0,0,0,0,0,-1,1210,890,0,0
-7,134,0,0,0,0,0,0,0,0,0,-1,1217,890,0,0
0,134,0,0,0,0,0,0,0,0,0,-1,1224,890,0,0
7,134,0,0,0,0,0,0,0,0,0,-1,1231,890,0,0
14,134,0,0,0,0,0,0,0,0,0,-1,1238,890,0,0
21,134,0,0,0,0,0,0,0,0,0,-1,1245,890,0,0
28,134,0,0,0,0,0,0,0,0,0,-1,1252,890,0,0
35,134,0,0,0,0,0,0,0,0,0,-1,1259,890,0,0
42,134,0,0,0,0,0,0,0,0,0,-1,1266,890,0,0
49,134,0,0,0,0,0,0,0,0,0,-1,1273,890,0,0
56,134,0,0,0,0,0,0,0,0,0,-1,1280,890,0,0
63,134,0,0,0,0,0,0,0,0,0,-1,1287,890,0,0
70,134,0,0,0,0,0,0,0,0,0,-1,1294,890,0,0
77,134,0,0,0,0,0,0,0,0,0,-1,1301,890,0,0
84,134,0,0,0,0,0,0,0,0,0,-1,1308,890,0,0
91,134,0,0,0,0,0,0,0,0,0,-1,1315,890,0,0
98,134,0,0,0,0,0,0,0,0,0,-1,1322,890,0,0
105,134,0,0,0,0,0,0,0,0,0,-1,1329,890,0,0
112,134,0,0,0,0,0,0,0,0,0,-1,1336,890,0,0
119,134,0,0,0,0,0,0,0,0,0,-1,1343,890,0,0
126,134,0,0,0,0,0,0,0,0,0,-1,1350,890,0,0
133,134,0,0,0,0,0,0,0,0,0,-1,1357,890,0,0
140,134,0,0,0,0,0,0,0,0,0,-1,1364,890,0,0
147,134,0,0,0,0,0,0,0,0,0,-1,1371,890,0,0
154,134,0,0,0,0,0,0,0,0,0,-1,1378,890,0,0
161,134,0,0,0,0,0,0,0,0,0,-1,1385,890,0,0
168,134,0,0,0,0,0,0,0,0,0,-1,1392,890,0,0
175,134,0,0,0,0,0,0,0,0,0,-1,1399,890,0,0
182,134,0,0,0,0,0,0,0,0,0,-1,1406,890,0,0
189,134,0,0,0,0,0,0,0,0,0,-1,1413,890,0,0
196,134,0,0,0,0,0,0,0,0,0,-1,1420,890,0,0
203,134,0,0,0,0,0,0,0,0,0,-1,1427,890,0,0
210,134,0,0,0,0,0,0,0,0,0,-1,1434,890,0,0
217,134,0,0,0,0,0,0,0,0,0,-1,1441,890,0,0
224,134,0,0,0,0,0,0,0,0,0,-1,1448,890,0,0
231,134,0,0,0,0,0,0,0,0,0,-1,1455,890,0,0
238,134,0,0,0,0,0,0,0,0,0,-1,1462,890,0,0
245,134,0,0,0,0,0,0,0,0,0,-1,1469,890,0,0
252,134,0,0,0,0,0,0,0,0,0,-1,1476,890,0,0
259,134,0,0,0,0,0,0,0,0,0,-1,1483,890,0,0
266,134,0,0,0,0,0,0,0,0,0,-1,1490,890,0,0
273,134,0,0,0,0,0,0,0,0,0,-1,1497,890,0,0
280,134,0,0,0,0,0,0,0,0,0,-1,1504,890,0,0
287,134,0,0,0,0,0,0,0,0,0,-1,1511,890,0,0
294,134,0,0,0,0,0,0,0,0,0,-1,1518,890,0,0
301,134,0,0,0,0,0,0,0,0,0,-1,1525,890,0,0
308,134,0,0,0,0,0,0,0,0,0,-1,1532,890,0,0
315,134,0,0,0,0,0,0,0,0,0,-1,1539,890,0,0
322,134,0,0,0,0,0,0,0,0,0,-1,1546,890,0,0
329,134,0,0,0,0,0,0,0,0,0,-1,1553,890,0,0
336,134,0,0,0,0,0,0,0,0,0,-1,1560,890,0,0
343,134,0,0,0,0,0,0,0,0,0,-1,1567,890,0,0
350,134,0,0,0,0,0,0,0,0,0,-1,1574,890,0,0
357,134,0,0,0,0,0,0,0,0,0,-1,1581,890,0,0
364,134,0,0,0,0,0,0,0,0,0,-1,1588,890,0,0
371,134,0,0,0,0,0,0,0,0,0,-1,1595,890,0,0
378,134,0,0,0,0,0,0,0,0,0,-1,1602,890,0,0
385,134,0,0,0,0,0,0,0,0,0,-1,1609,890,0,0
392,134,0,0,0,0,0,0,0,0,0,-1,1616,890,0,0
399,134,0,0,0,0,0,0,0,0,0,-1,1623,890,0,0
406,134,0,0,0,0,0,0,0,0,0,-1,1630,890,0,0
413,134,0,0,0,0,0,0,0,0,0,-1,1637,890,0,0
420,134,0,0,0,0,0,0,0,0,0,-1,1644,890,0,0
427,134,0,0,0,0,0,0,0,0,0,-1,1651,890,0,0
434,134,0,0,0,0,0,0,0,0,0,-1,1658,890,0,0
441,134,0,0,0,0,0,0,0,0,0,-1,1665,890,0,0
448,134,0,0,0,0,0,0,0,0,0,-1,1672,890,0,0
455,134,0,0,0,0,0,0,0,0,0,-1,1679,890,0,0
462,134,0,0,0,0,0,0,0,0,0,-1,1686,890,0,0
469,134,0,0,0,0,0,0,0,0,0,-1,1693,890,0,0
476,134,0,0,0,0,0,0,0,0,0,-1,1700,890,0,0
483,134,0,0,0,0,0,0,0,0,0,-1,1707,890,0,0
490,134,0,0,0,0,0,0,0,0,0,-1,1714,890,0,0
497,134,0,0,0,0,0,0,0,0,0,-1,1721,890,0,0
504,134,0,0,0,0,0,0,0,0,0,-1,1728,890,0,0
511,134,0,0,0,0,0,0,0,0,0,-1,1735,890,0,0
518,134,0,0,0,0,0,0,0,0,0,-1,1742,890,0,0
525,134,0,0,0,0,0,0,0,0,0,-1,1749,890,0,0
532,134,0,0,0,0,0,0,0,0,0,-1,1756,890,0,0
539,134,0,0,0,0,0,0,0,0,0,-1,1763,890,0,0
546,134,0,0,0,0,0,0,0,0,0,-1,1770,890,0,0
553,134,0,0,0,0,0,0,0,0,0,-1,1777,890,0,0
560,134,0,0,0,0,0,0,0,0,0,-1,1784,890,0,0
567,134,0,0,0,0,0,0,0,0,0,-1,1791,890,0,0
574,134,0,0,0,0,0,0,0,0,0,-1,1798,890,0,0
581,134,0,0,0,0,0,0,0,0,0,-1,1805,890,0,0
588,134,0,0,0,0,0,0,0,0,0,-1,1812,890,0,0
595,134,0,0,0,0,0,0,0,0,0,-1,1819,890,0,0
602,134,0,0,0,0,0,0,0,0,0,-1,1826,890,0,0
609,134,0,0,0,0,0,0,0,0,0,-1,1833,890,0,0
616,134,0,0,0,0,0,0,0,0,0,-1,1840,890,0,0
623,134,159.624,5.52545,0,0,0,0,0,0,0,-1,1847,890,159.624,-5.52547
630,134,159.39,5.83295,0,0,0,0,0,0,0,-1,1854,890,159.39,-5.83294
637,134,159.377,5.89758,0,0,0,0,0,0,0,-1,1861,890,159.377,-5.89757
644,134,159.446,5.88196,0,0,0,0,0,0,0,-1,1868,890,159.446,-5.88197
651,134,159.433,5.78363,0,0,0,0,0,0,0,-1,1875,890,159.433,-5.78364
658,134,159.405,5.57446,0,0,0,0,0,0,0,-1,1882,890,159.405,-5.57446
665,134,159.312,5.3692,0,0,0,0,0,0,0,-1,1889,890,159.312,-5.36922
672,134,159.34,5.37225,0,0,0,0,0,0,0,-1,1896,890,159.339,-5.37226
679,134,159.344,5.39404,0,0,0,0,0,0,0,-1,1903,890,159.344,-5.39401
686,134,159.265,5.4538,0,0,0,0,0,0,0,-1,1910,890,159.265,-5.45381
693,134,34.5778,2.48096,0,0,0,0,0,0,0,-1,1917,890,34.5777,-2.48099
700,134,144.983,14.9025,0,0,0,0,0,0,0,-1,1924,890,144.983,-14.9026
707,134,144.751,16.5859,0,0,0,0,0,0,0,-1,1931,890,144.751,-16.5859
714,134,144.566,18.3015,0,0,0,0,0,0,0,-1,1938,890,144.566,-18.3015
721,134,144.545,19.913,-0.0064672,7.24509e-05,-0.00127461,0.000312096,-0.00670685,-1.38495,0.00457881,0.0271655,1945,890,144.546,-19.9129
728,134,144.493,21.4427,-0.00913603,0.00601903,-0.00284989,0.00653723,-0.00965423,-1.39093,0.00940571,0.0236743,1952,890,144.493,-21.4427
735,134,144.273,22.9597,-0.0118847,0.0120754,-0.0043242,0.012832,-0.0126412,-1.3976,0.0147071,0.0345777,1959,890,144.273,-22.9597
742,134,143.934,24.2385,-0.0146203,0.0182289,-0.00562065,0.019164,-0.0155554,-1.40594,0.0200813,0.0220126,1966,890,143.934,-24.2385
749,134,143.763,25.4601,-0.0172585,0.024477,-0.00668115,0.0255204,-0.018302,-1.41587,0.025415,0.0165445,1973,890,143.763,-25.4602
756,134,143.532,26.7443,-0.0197141,0.0308025,-0.00743366,0.0318736,-0.0207853,-1.42768,0.0306265,0.0219848,1980,890,143.533,-26.7443
763,134,143.454,28.1459,-0.022102,0.0372354,-0.00797534,0.0382886,-0.0231552,-1.43949,0.0358315,0.0453188,1987,890,143.454,-28.146
770,134,143.329,29.5525,0,0,0,0,0,0,0,-1,1994,890,143.329,-29.5525
777,134,74.8572,9.58441,0,0,0,0,0,0,0,-1,2001,890,74.8572,-9.58442
784,134,75.1489,10.8398,0,0,0,0,0,0,0,-1,2008,890,75.1489,-10.8398
791,134,75.4202,12.0895,0,0,0,0,0,0,0,-1,2015,890,75.4202,-12.0896
798,134,0,0,0,0,0,0,0,0,0,-1,2022,890,0,0
805,134,0,0,0,0,0,0,0,0,0,-1,2029,890,0,0
812,134,0,0,0,0,0,0,0,0,0,-1,2036,890,0,0
-700,127,0,0,0,0,0,0,0,0,0,-1,524,897,0,0
-693,127,0,0,0,0,0,0,0,0,0,-1,531,897,0,0
-686,127,0,0,0,0,0,0,0,0,0,-1,538,897,0,0
-679,127,-52.0821,4.30957,0,0,0,0,0,0,0,-1,545,897,-52.0821,-4.30955
-672,127,-50.373,4.8219,0,0,0,0,0,0,0,-1,552,897,-50.373,-4.8219
-665,127,-49.6271,-2.44153,0,0,0,0,0,0,0,-1,559,897,-49.6271,2.44154
-658,127,-48.965,-4.18744,0,0,0,0,0,0,0,-1,566,897,-48.965,4.18745
-651,127,-52.9149,-0.455505,0,0,0,0,0,0,0,-1,573,897,-52.9149,0.455524
-644,127,-51.6913,-2.33765,0,0,0,0,0,0,0,-1,580,897,-51.6914,2.33763
-637,127,-50.3104,-4.18658,0,0,0,0,0,0,0,-1,587,897,-50.3104,4.18656
-630,127,-134.74,28.0035,0,0,0,0,0,0,0,-1,594,897,-134.74,-28.0035
-623,127,-135.244,26.8765,0,0,0,0,0,0,0,-1,601,897,-135.244,-26.8765
-616,127,-135.687,25.8552,-0.0139096,0.0182244,0.00437031,0.0188081,-0.0144934,1.43801,0.0192804,0.0202629,608,897,-135.687,-25.8553
-609,127,-135.993,24.5334,-0.0112314,0.0132353,0.00429992,0.013969,-0.0119651,1.4018,0.014988,0.0190993,615,897,-135.993,-24.5334
-602,127,-136.164,23.1716,-0.008871,0.00791868,0.00407931,0.00885734,-0.00980966,1.34463,0.0107821,0.0204365,622,897,-136.164,-23.1716
-595,127,-136.205,21.8438,-0.00683477,0.00231964,0.00376774,0.0036709,-0.00818603,1.22645,0.0070091,0.0296422,629,897,-136.205,-21.8438
-588,127,-136.14,20.8105,0,0,0,0,0,0,0,-1,636,897,-136.14,-20.8105
-581,127,-135.853,18.8794,0,0,0,0,0,0,0,-1,643,897,-135.853,-18.8794
-574,127,-25.2603,0.511169,0,0,0,0,0,0,0,-1,650,897,-25.2603,-0.51117
-567,127,-24.5417,-0.0447388,0,0,0,0,0,0,0,-1,657,897,-24.5417,0.0447226
-560,127,-18.9678,1.21667,0,0,0,0,0,0,0,-1,664,897,-18.9677,-1.2167
-553,127,-72.5789,0.438843,0,0,0,0,0,0,0,-1,671,897,-72.5789,-0.438847
-546,127,-72.5634,0.41156,0,0,0,0,0,0,0,-1,678,897,-72.5634,-0.411548
-539,127,-72.5593,0.420044,0,0,0,0,0,0,0,-1,685,897,-72.5593,-0.420028
-532,127,-72.5491,0.465576,0,0,0,0,0,0,0,-1,692,897,-72.5491,-0.465589
-525,127,-72.5822,0.586487,0,0,0,0,0,0,0,-1,699,897,-72.5822,-0.586498
-518,127,-72.545,0.665894,0,0,0,0,0,0,0,-1,706,897,-72.5451,-0.665918
-511,127,-72.4194,0.653198,0,0,0,0,0,0,0,-1,713,897,-72.4195,-0.653199
-504,127,0,0,0,0,0,0,0,0,0,-1,720,897,0,0
-497,127,0,0,0,0,0,0,0,0,0,-1,727,897,0,0
-490,127,0,0,0,0,0,0,0,0,0,-1,734,897,0,0
-483,127,0,0,0,0,0,0,0,0,0,-1,741,897,0,0
-476,127,0,0,0,0,0,0,0,0,0,-1,748,897,0,0
-469,127,0,0,0,0,0,0,0,0,0,-1,755,897,0,0
-462,127,0,0,0,0,0,0,0,0,0,-1,762,897,0,0
-455,127,0,0,0,0,0,0,0,0,0,-1,769,897,0,0
-448,127,0,0,0,0,0,0,0,0,0,-1,776,897,0,0
-441,127,0,0,0,0,0,0,0,0,0,-1,783,897,0,0
-434,127,0,0,0,0,0,0,0,0,0,-1,790,897,0,0
-427,127,0,0,0,0,0,0,0,0,0,-1,797,897,0,0
-420,127,0,0,0,0,0,0,0,0,0,-1,804,897,0,0
-413,127,0,0,0,0,0,0,0,0,0,-1,811,897,0,0
-406,127,0,0,0,0,0,0,0,0,0,-1,818,897,0,0
-399,127,0,0,0,0,0,0,0,0,0,-1,825,897,0,0
-392,127,0,0,0,0,0,0,0,0,0,-1,832,897,0,0
-385,127,0,0,0,0,0,0,0,0,0,-1,839,897,0,0
-378,127,0,0,0,0,0,0,0,0,0,-1,846,897,0,0
-371,127,0,0,0,0,0,0,0,0,0,-1,853,897,0,0
-364,127,0,0,0,0,0,0,0,0,0,-1,860,897,0,0
-357,127,0,0,0,0,0,0,0,0,0,-1,867,897,0,0
-350,127,0,0,0,0,0,0,0,0,0,-1,874,897,0,0
-343,127,0,0,0,0,0,0,0,0,0,-1,881,897,0,0
-336,127,0,0,0,0,0,0,0,0,0,-1,888,897,0,0
-329,127,0,0,0,0,0,0,0,0,0,-1,895,897,0,0
-322,127,0,0,0,0,0,0,0,0,0,-1,902,897,0,0
-315,127,0,0,0,0,0,0,0,0,0,-1,909,897,0,0
-308,127,0,0,0,0,0,0,0,0,0,-1,916,897,0,0
-301,127,0,0,0,0,0,0,0,0,0,-1,923,897,0,0
-294,127,0,0,0,0,0,0,0,0,0,-1,930,897,0,0
-287,127,0,0,0,0,0,0,0,0,0,-1,937,897,0,0
-280,127,0,0,0,0,0,0,0,0,0,-1,944,897,0,0
-273,127,0,0,0,0,0,0,0,0,0,-1,951,897,0,0
-266,127,0,0,0,0,0,0,0,0,0,-1,958,897,0,0
-259,127,0,0,0,0,0,0,0,0,0,-1,965,897,0,0
-252,127,0,0,0,0,0,0,0,0,0,-1,972,897,0,0
-245,127,0,0,0,0,0,0,0,0,0,-1,979,897,0,0
-238,127,0,0,0,0,0,0,0,0,0,-1,986,897,0,0
-231,127,0,0,0,0,0,0,0,0,0,-1,993,897,0,0
-224,127,0,0,0,0,0,0,0,0,0,-1,1000,897,0,0
-217,127,0,0,0,0,0,0,0,0,0,-1,1007,897,0,0
-210,127,0,0,0,0,0,0,0,0,0,-1,1014,897,0,0
-203,127,0,0,0,0,0,0,0,0,0,-1,1021,897,0,0
-196,127,0,0,0,0,0,0,0,0,0,-1,1028,897,0,0
-189,127,0,0,0,0,0,0,0,0,0,-1,1035,897,0,0
-182,127,0,0,0,0,0,0,0,0,0,-1,1042,897,0,0
-175,127,0,0,0,0,0,0,0,0,0,-1,1049,897,0,0
-168,127,0,0,0,0,0,0,0,0,0,-1,1056,897,0,0
-161,127,0,0,0,0,0,0,0,0,0,-1,1063,897,0,0
-154,127,0,0,0,0,0,0,0,0,0,-1,1070,897,0,0
-147,127,0,0,0,0,0,0,0,0,0,-1,1077,897,0,0
-140,127,0,0,0,0,0,0,0,0,0,-1,1084,897,0,0
-133,127,0,0,0,0,0,0,0,0,0,-1,1091,897,0,0
-126,127,0,0,0,0,0,0,0,0,0,-1,1098,897,0,0
-119,127,0,0,0,0,0,0,0,0,0,-1,1105,897,0,0
-112,127,0,0,0,0,0,0,0,0,0,-1,1112,897,0,0
-105,127,0,0,0,0,0,0,0,0,0,-1,1119,897,0,0
-98,127,0,0,0,0,0,0,0,0,0,-1,1126,897,0,0
-91,127,0,0,0,0,0,0,0,0,0,-1,1133,897,0,0
-84,127,0,0,0,0,0,0,0,0,0,-1,1140,897,0,0
-77,127,0,0,0,0,0,0,0,0,0,-1,1147,897,0,0
-70,127,0,0,0,0,0,0,0,0,0,-1,1154,897,0,0
-63,127,0,0,0,0,0,0,0,0,0,-1,1161,897,0,0
-56,127,0,0,0,0,0,0,0,0,0,-1,1168,897,0,0
-49,127,0,0,0,0,0,0,0,0,0,-1,1175,897,0,0
-42,127,0,0,0,0,0,0,0,0,0,-1,1182,897,0,0
-35,127,0,0,0,0,0,0,0,0,0,-1,1189,897,0,0
-28,127,0,0,0,0,0,0,0,0,0,-1,1196,897,0,0
-21,127,0,0,0,0,0,0,0,0,0,-1,1203,897,0,0
-14,127,0,0,0,0,0,0,0,0,0,-1,1210,897,0,0
-7,127,0,0,0,0,0,0,0,0,0,-1,1217,897,0,0
0,127,0,0,0,0,0,0,0,0,0,-1,1224,897,0,0
7,127,0,0,0,0,0,0,0,0,0,-1,1231,897,0,0
14,127,0,0,0,0,0,0,0,0,0,-1,1238,897,0,0
21,127,0,0,0,0,0,0,0,0,0,-1,1245,897,0,0
28,127,0,0,0,0,0,0,0,0,0,-1,1252,897,0,0
35,127,0,0,0,0,0,0,0,0,0,-1,1259,897,0,0
42,127,0,0,0,0,0,0,0,0,0,-1,1266,897,0,0
49,127,0,0,0,0,0,0,0,0,0,-1,1273,897,0,0
56,127,0,0,0,0,0,0,0,0,0,-1,1280,897,0,0
63,127,0,0,0,0,0,0,0,0,0,-1,1287,897,0,0
70,127,0,0,0,0,0,0,0,0,0,-1,1294,897,0,0
77,127,0,0,0,0,0,0,0,0,0,-1,1301,897,0,0
84,127,0,0,0,0,0,0,0,0,0,-1,1308,897,0,0
91,127,0,0,0,0,0,0,0,0,0,-1,1315,897,0,0
98,127,0,0,0,0,0,0,0,0,0,-1,1322,897,0,0
105,127,0,0,0,0,0,0,0,0,0,-1,1329,897,0,0
112,127,0,0,0,0,0,0,0,0,0,-1,1336,897,0,0
119,127,0,0,0,0,0,0,0,0,0,-1,1343,897,0,0
126,127,0,0,0,0,0,0,0,0,0,-1,1350,897,0,0
133,127,0,0,0,0,0,0,0,0,0,-1,1357,897,0,0
140,127,0,0,0,0,0,0,0,0,0,-1,1364,897,0,0
147,127,0,0,0,0,0,0,0,0,0,-1,1371,897,0,0
154,127,0,0,0,0,0,0,0,0,0,-1,1378,897,0,0
161,127,0,0,0,0,0,0,0,0,0,-1,1385,897,0,0
168,127,0,0,0,0,0,0,0,0,0,-1,1392,897,0,0
175,127,0,0,0,0,0,0,0,0,0,-1,1399,897,0,0
182,127,0,0,0,0,0,0,0,0,0,-1,1406,897,0,0
189,127,0,0,0,0,0,0,0,0,0,-1,1413,897,0,0
196,127,0,0,0,0,0,0,0,0,0,-1,1420,897,0,0
203,127,0,0,0,0,0,0,0,0,0,-1,1427,897,0,0
210,127,0,0,0,0,0,0,0,0,0,-1,1434,897,0,0
217,127,0,0,0,0,0,0,0,0,0,-1,1441,897,0,0
224,127,0,0,0,0,0,0,0,0,0,-1,1448,897,0,0
231,127,0,0,0,0,0,0,0,0,0,-1,1455,897,0,0
238,127,0,0,0,0,0,0,0,0,0,-1,1462,897,0,0
245,127,0,0,0,0,0,0,0,0,0,-1,1469,897,0,0
252,127,0,0,0,0,0,0,0,0,0,-1,1476,897,0,0
259,127,0,0,0,0,0,0,0,0,0,-1,1483,897,0,0
266,127,0,0,0,0,0,0,0,0,0,-1,1490,897,0,0
273,127,0,0,0,0,0,0,0,0,0,-1,1497,897,0,0
280,127,0,0,0,0,0,0,0,0,0,-1,1504,897,0,0
287,127,0,0,0,0,0,0,0,0,0,-1,1511,897,0,0
294,127,0,0,0,0,0,0,0,0,0,-1,1518,897,0,0
301,127,0,0,0,0,0,0,0,0,0,-1,1525,897,0,0
308,127,0,0,0,0,0,0,0,0,0,-1,1532,897,0,0
315,127,0,0,0,0,0,0,0,0,0,-1,1539,897,0,0
322,127,0,0,0,0,0,0,0,0,0,-1,1546,897,0,0
329,127,0,0,0,0,0,0,0,0,0,-1,1553,897,0,0
336,127,0,0,0,0,0,0,0,0,0,-1,1560,897,0,0
343,127,0,0,0,0,0,0,0,0,0,-1,1567,897,0,0
350,127,0,0,0,0,0,0,0,0,0,-1,1574,897,0,0
357,127,0,0,0,0,0,0,0,0,0,-1,1581,897,0,0
364,127,0,0,0,0,0,0,0,0,0,-1,1588,897,0,0
371,127,0,0,0,0,0,0,0,0,0,-1,1595,897,0,0
378,127,0,0,0,0,0,0,0,0,0,-1,1602,897,0,0
385,127,0,0,0,0,0,0,0,0,0,-1,1609,897,0,0
392,127,0,0,0,0,0,0,0,0,0,-1,1616,897,0,0
399,127,0,0,0,0,0,0,0,0,0,-1,1623,897,0,0
406,127,0,0,0,0,0,0,0,0,0,-1,1630,897,0,0
413,127,0,0,0,0,0,0,0,0,0,-1,1637,897,0,0
420,127,0,0,0,0,0,0,0,0,0,-1,1644,897,0,0
427,127,0,0,0,0,0,0,0,0,0,-1,1651,897,0,0
434,127,0,0,0,0,0,0,0,0,0,-1,1658,897,0,0
441,127,0,0,0,0,0,0,0,0,0,-1,1665,897,0,0
448,127,0,0,0,0,0,0,0,0,0,-1,1672,897,0,0
455,127,0,0,0,0,0,0,0,0,0,-1,1679,897,0,0
462,127,0,0,0,0,0,0,0,0,0,-1,1686,897,0,0
469,127,0,0,0,0,0,0,0,0,0,-1,1693,897,0,0
476,127,0,0,0,0,0,0,0,0,0,-1,1700,897,0,0
483,127,0,0,0,0,0,0,0,0,0,-1,1707,897,0,0
490,127,0,0,0,0,0,0,0,0,0,-1,1714,897,0,0
497,127,0,0,0,0,0,0,0,0,0,-1,1721,897,0,0
504,127,0,0,0,0,0,0,0,0,0,-1,1728,897,0,0
511,127,0,0,0,0,0,0,0,0,0,-1,1735,897,0,0
518,127,0,0,0,0,0,0,0,0,0,-1,1742,897,0,0
525,127,0,0,0,0,0,0,0,0,0,-1,1749,897,0,0
532,127,0,0,0,0,0,0,0,0,0,-1,1756,897,0,0
539,127,0,0,0,0,0,0,0,0,0,-1,1763,897,0,0
546,127,0,0,0,0,0,0,0,0,0,-1,1770,897,0,0
553,127,0,0,0,0,0,0,0,0,0,-1,1777,897,0,0
560,127,0,0,0,0,0,0,0,0,0,-1,1784,897,0,0
567,127,0,0,0,0,0,0,0,0,0,-1,1791,897,0,0
574,127,0,0,0,0,0,0,0,0,0,-1,1798,897,0,0
581,127,0,0,0,0,0,0,0,0,0,-1,1805,897,0,0
588,127,0,0,0,0,0,0,0,0,0,-1,1812,897,0,0
595,127,0,0,0,0,0,0,0,0,0,-1,1819,897,0,0
602,127,0,0,0,0,0,0,0,0,0,-1,1826,897,0,0
609,127,0,0,0,0,0,0,0,0,0,-1,1833,897,0,0
616,127,0,0,0,0,0,0,0,0,0,-1,1840,897,0,0
623,127,0,0,0,0,0,0,0,0,0,-1,1847,897,0,0
630,127,159.412,6.04156,0,0,0,0,0,0,0,-1,1854,897,159.412,-6.04159
637,127,159.662,5.27411,0,0,0,0,0,0,0,-1,1861,897,159.662,-5.27408
644,127,159.548,5.76038,0,0,0,0,0,0,0,-1,1868,897,159.548,-5.7604
651,127,159.462,5.68414,0,0,0,0,0,0,0,-1,1875,897,159.462,-5.68412
658,127,159.379,5.58972,0,0,0,0,0,0,0,-1,1882,897,159.379,-5.58974
665,127,159.335,5.40375,0,0,0,0,0,0,0,-1,1889,897,159.335,-5.40376
672,127,159.227,5.29779,0,0,0,0,0,0,0,-1,1896,897,159.227,-5.29779
679,127,159.389,5.33624,0,0,0,0,0,0,0,-1,1903,897,159.389,-5.33622
686,127,159.316,5.44031,0,0,0,0,0,0,0,-1,1910,897,159.316,-5.44033
693,127,159.181,5.49677,0,0,0,0,0,0,0,-1,1917,897,159.181,-5.49679
700,127,145.75,15.071,0,0,0,0,0,0,0,-1,1924,897,145.749,-15.071
707,127,146.041,16.0652,0,0,0,0,0,0,0,-1,1931,897,146.041,-16.0652
714,127,146.625,18.976,0,0,0,0,0,0,0,-1,1938,897,146.625,-18.976
721,127,146.136,20.129,-0.00688402,-0.00204132,-0.000350637,-0.00201606,-0.00690928,-1.49889,0.00410274,0.0265823,1945,897,146.136,-20.129
728,127,145.913,21.5655,-0.00937064,0.00410529,-0.00210693,0.00442702,-0.00969237,-1.41926,0.00833864,0.025035,1952,897,145.913,-21.5655
735,127,145.653,22.8895,-0.0119819,0.0103615,-0.00368803,0.0109545,-0.0125749,-1.41137,0.0135954,0.0275164,1959,897,145.653,-22.8895
742,127,145.421,24.1827,-0.0146263,0.0167113,-0.00503411,0.0175002,-0.0154151,-1.41536,0.0190163,0.0252041,1966,897,145.421,-24.1827
749,127,145.219,25.4657,-0.0172192,0.023146,-0.00609688,0.0240468,-0.01812,-1.42411,0.024425,0.0176333,1973,897,145.22,-25.4657
756,127,144.962,26.6889,-0.0196799,0.029656,-0.00682823,0.0305836,-0.0206075,-1.43577,0.0297417,0.0214186,1980,897,144.962,-26.6889
763,127,144.736,27.9381,-0.022085,0.0362617,-0.00726052,0.0371516,-0.022975,-1.44884,0.0350343,0.0314237,1987,897,144.736,-27.9381
770,127,144.638,29.1978,0,0,0,0,0,0,0,-1,1994,897,144.638,-29.1978
777,127,76.3003,10.8735,0,0,0,0,0,0,0,-1,2001,897,76.3003,-10.8735
784,127,78.9905,10.8276,0,0,0,0,0,0,0,-1,2008,897,78.9905,-10.8276
791,127,76.7629,12.9143,0,0,0,0,0,0,0,-1,2015,897,76.763,-12.9143
798,127,0,0,0,0,0,0,0,0,0,-1,2022,897,0,0
805,127,0,0,0,0,0,0,0,0,0,-1,2029,897,0,0
812,127,0,0,0,0,0,0,0,0,0,-1,2036,897,0,0
-700,120,0,0,0,0,0,0,0,0,0,-1,524,904,0,0
-693,120,0,0,0,0,0,0,0,0,0,-1,531,904,0,0
-686,120,0,0,0,0,0,0,0,0,0,-1,538,904,0,0
-679,120,-52.0888,4.76025,0,0,0,0,0,0,0,-1,545,904,-52.0888,-4.76024
-672,120,-51.1454,5.42755,0,0,0,0,0,0,0,-1,552,904,-51.1454,-5.42753
-665,120,-50.2376,-2.67987,0,0,0,0,0,0,0,-1,559,904,-50.2376,2.67988
-658,120,-54.6443,7.5307,0,0,0,0,0,0,0,-1,566,904,-54.6443,-7.53071
-651,120,-52.9452,-1.22644,0,0,0,0,0,0,0,-1,573,904,-52.9452,1.22647
-644,120,-51.6526,-3.15863,0,0,0,0,0,0,0,-1,580,904,-51.6526,3.15864
-637,120,-63.5991,12.2592,0,0,0,0,0,0,0,-1,587,904,-63.5991,-12.2592
-630,120,-136.813,28.0832,0,0,0,0,0,0,0,-1,594,904,-136.813,-28.0832
-623,120,-136.953,26.9302,-0.0151279,0.0234879,0.00368741,0.0238369,-0.0154769,1.47644,0.0228682,0.0258716,601,904,-136.952,-26.9302
-616,120,-137.144,25.7689,-0.0124754,0.0180476,0.00377882,0.0185085,-0.0129362,1.44943,0.0182494,0.0153934,608,904,-137.144,-25.7689
-609,120,-137.346,24.5093,-0.0102265,0.0123474,0.00369063,0.0129354,-0.0108145,1.41278,0.0137303,0.0171215,615,904,-137.346,-24.5093
-602,120,-137.505,23.197,-0.00843127,0.00641614,0.00347796,0.00719046,-0.00920558,1.35173,0.00949006,0.0188195,622,904,-137.505,-23.197
-595,120,-137.591,21.9206,-0.00713848,0.000287622,0.00319604,0.0014737,-0.00832456,1.21544,0.00610056,0.029295,629,904,-137.591,-21.9206
-588,120,-137.66,20.4357,-0.00639554,-0.00599992,0.00290039,-0.0032906,-0.00910486,0.819446,0.00532358,0.0463956,636,904,-137.66,-20.4358
-581,120,-137.494,18.6729,0,0,0,0,0,0,0,-1,643,904,-137.494,-18.6729
-574,120,-27.5438,0.505066,0,0,0,0,0,0,0,-1,650,904,-27.5438,-0.505085
-567,120,-25.2822,-0.410645,0,0,0,0,0,0,0,-1,657,904,-25.2821,0.410629
-560,120,-27.3358,1.10327,0,0,0,0,0,0,0,-1,664,904,-27.3358,-1.10324
-553,120,-72.493,0.529297,0,0,0,0,0,0,0,-1,671,904,-72.493,-0.529275
-546,120,-72.4564,0.473267,0,0,0,0,0,0,0,-1,678,904,-72.4564,-0.47327
-539,120,-72.4779,0.478088,0,0,0,0,0,0,0,-1,685,904,-72.4779,-0.478083
-532,120,-72.5178,0.429443,0,0,0,0,0,0,0,-1,692,904,-72.5178,-0.429422
-525,120,-72.5717,0.447632,0,0,0,0,0,0,0,-1,699,904,-72.5716,-0.447629
-518,120,-72.5829,0.531921,0,0,0,0,0,0,0,-1,706,904,-72.5829,-0.531914
-511,120,-72.8918,0.68634,0,0,0,0,0,0,0,-1,713,904,-72.8918,-0.686362
-504,120,0,0,0,0,0,0,0,0,0,-1,720,904,0,0
-497,120,0,0,0,0,0,0,0,0,0,-1,727,904,0,0
-490,120,0,0,0,0,0,0,0,0,0,-1,734,904,0,0
-483,120,0,0,0,0,0,0,0,0,0,-1,741,904,0,0
-476,120,0,0,0,0,0,0,0,0,0,-1,748,904,0,0
-469,120,0,0,0,0,0,0,0,0,0,-1,755,904,0,0
-462,120,0,0,0,0,0,0,0,0,0,-1,762,904,0,0
-455,120,0,0,0,0,0,0,0,0,0,-1,769,904,0,0
-448,120,0,0,0,0,0,0,0,0,0,-1,776,904,0,0
-441,120,0,0,0,0,0,0,0,0,0,-1,783,904,0,0
-434,120,0,0,0,0,0,0,0,0,0,-1,790,904,0,0
-427,120,0,0,0,0,0,0,0,0,0,-1,797,904,0,0
-420,120,0,0,0,0,0,0,0,0,0,-1,804,904,0,0
-413,120,0,0,0,0,0,0,0,0,0,-1,811,904,0,0
-406,120,0,0,0,0,0,0,0,0,0,-1,818,904,0,0
-399,120,0,0,0,0,0,0,0,0,0,-1,825,904,0,0
-392,120,0,0,0,0,0,0,0,0,0,-1,832,904,0,0
-385,120,0,0,0,0,0,0,0,0,0,-1,839,904,0,0
-378,120,0,0,0,0,0,0,0,0,0,-1,846,904,0,0
-371,120,0,0,0,0,0,0,0,0,0,-1,853,904,0,0
-364,120,0,0,0,0,0,0,0,0,0,-1,860,904,0,0
-357,120,0,0,0,0,0,0,0,0,0,-1,867,904,0,0
-350,120,0,0,0,0,0,0,0,0,0,-1,874,904,0,0
-343,120,0,0,0,0,0,0,0,0,0,-1,881,904,0,0
-336,120,0,0,0,0,0,0,0,0,0,-1,888,904,0,0
-329,120,0,0,0,0,0,0,0,0,0,-1,895,904,0,0
-322,120,0,0,0,0,0,0,0,0,0,-1,902,904,0,0
-315,120,0,0,0,0,0,0,0,0,0,-1,909,904,0,0
-308,120,0,0,0,0,0,0,0,0,0,-1,916,904,0,0
-301,120,0,0,0,0,0,0,0,0,0,-1,923,904,0,0
-294,120,0,0,0,0,0,0,0,0,0,-1,930,904,0,0
-287,120,0,0,0,0,0,0,0,0,0,-1,937,904,0,0
-280,120,0,0,0,0,0,0,0,0,0,-1,944,904,0,0
-273,120,0,0,0,0,0,0,0,0,0,-1,951,904,0,0
-266,120,0,0,0,0,0,0,0,0,0,-1,958,904,0,0
-259,120,0,0,0,0,0,0,0,0,0,-1,965,904,0,0
-252,120,0,0,0,0,0,0,0,0,0,-1,972,904,0,0
-245,120,0,0,0,0,0,0,0,0,0,-1,979,904,0,0
-238,120,0,0,0,0,0,0,0,0,0,-1,986,904,0,0
-231,120,0,0,0,0,0,0,0,0,0,-1,993,904,0,0
-224,120,0,0,0,0,0,0,0,0,0,-1,1000,904,0,0
-217,120,0,0,0,0,0,0,0,0,0,-1,1007,904,0,0
-210,120,0,0,0,0,0,0,0,0,0,-1,1014,904,0,0
-203,120,0,0,0,0,0,0,0,0,0,-1,1021,904,0,0
-196,120,0,0,0,0,0,0,0,0,0,-1,1028,904,0,0
-189,120,0,0,0,0,0,0,0,0,0,-1,1035,904,0,0
-182,120,0,0,0,0,0,0,0,0,0,-1,1042,904,0,0
-175,120,0,0,0,0,0,0,0,0,0,-1,1049,904,0,0
-168,120,0,0,0,0,0,0,0,0,0,-1,1056,904,0,0
-161,120,0,0,0,0,0,0,0,0,0,-1,1063,904,0,0
-154,120,0,0,0,0,0,0,0,0,0,-1,1070,904,0,0
-147,120,0,0,0,0,0,0,0,0,0,-1,1077,904,0,0
-140,120,0,0,0,0,0,0,0,0,0,-1,1084,904,0,0
-133,120,0,0,0,0,0,0,0,0,0,-1,1091,904,0,0
-126,120,0,0,0,0,0,0,0,0,0,-1,1098,904,0,0
-119,120,0,0,0,0,0,0,0,0,0,-1,1105,904,0,0
-112,120,0,0,0,0,0,0,0,0,0,-1,1112,904,0,0
-105,120,0,0,0,0,0,0,0,0,0,-1,1119,904,0,0
-98,120,0,0,0,0,0,0,0,0,0,-1,1126,904,0,0
-91,120,0,0,0,0,0,0,0,0,0,-1,1133,904,0,0
-84,120,0,0,0,0,0,0,0,0,0,-1,1140,904,0,0
-77,120,0,0,0,0,0,0,0,0,0,-1,1147,904,0,0
-70,120,0,0,0,0,0,0,0,0,0,-1,1154,904,0,0
-63,120,0,0,0,0,0,0,0,0,0,-1,1161,904,0,0
-56,120,0,0,0,0,0,0,0,0,0,-1,1168,904,0,0
-49,120,0,0,0,0,0,0,0,0,0,-1,1175,904,0,0
-42,120,0,0,0,0,0,0,0,0,0,-1,1182,904,0,0
-35,120,0,0,0,0,0,0,0,0,0,-1,1189,904,0,0
-28,120,0,0,0,0,0,0,0,0,0,-1,1196,904,0,0
-21,120,0,0,0,0,0,0,0,0,0,-1,1203,904,0,0
-14,120,0,0,0,0,0,0,0,0,0,-1,1210,904,0,0
-7,120,0,0,0,0,0,0,0,0,0,-1,1217,904,0,0
0,120,0,0,0,0,0,0,0,0,0,-1,1224,904,0,0
7,120,0,0,0,0,0,0,0,0,0,-1,1231,904,0,0
14,120,0,0,0,0,0,0,0,0,0,-1,1238,904,0,0
21,120,0,0,0,0,0,0,0,0,0,-1,1245,904,0,0
28,120,0,0,0,0,0,0,0,0,0,-1,1252,904,0,0
35,120,0,0,0,0,0,0,0,0,0,-1,1259,904,0,0
42,120,0,0,0,0,0,0,0,0,0,-1,1266,904,0,0
49,120,0,0,0,0,0,0,0,0,0,-1,1273,904,0,0
56,120,0,0,0,0,0,0,0,0,0,-1,1280,904,0,0
63,120,0,0,0,0,0,0,0,0,0,-1,1287,904,0,0
70,120,0,0,0,0,0,0,0,0,0,-1,1294,904,0,0
77,120,0,0,0,0,0,0,0,0,0,-1,1301,904,0,0
84,120,0,0,0,0,0,0,0,0,0,-1,1308,904,0,0
91,120,0,0,0,0,0,0,0,0,0,-1,1315,904,0,0
98,120,0,0,0,0,0,0,0,0,0,-1,1322,904,0,0
105,120,0,0,0,0,0,0,0,0,0,-1,1329,904,0,0
112,120,0,0,0,0,0,0,0,0,0,-1,1336,904,0,0
119,120,0,0,0,0,0,0,0,0,0,-1,1343,904,0,0
126,120,0,0,0,0,0,0,0,0,0,-1,1350,904,0,0
133,120,0,0,0,0,0,0,0,0,0,-1,1357,904,0,0
140,120,0,0,0,0,0,0,0,0,0,-1,1364,904,0,0
147,120,0,0,0,0,0,0,0,0,0,-1,1371,904,0,0
154,120,0,0,0,0,0,0,0,0,0,-1,1378,904,0,0
161,120,0,0,0,0,0,0,0,0,0,-1,1385,904,0,0
168,120,0,0,0,0,0,0,0,0,0,-1,1392,904,0,0
175,120,0,0,0,0,0,0,0,0,0,-1,1399,904,0,0
182,120,0,0,0,0,0,0,0,0,0,-1,1406,904,0,0
189,120,0,0,0,0,0,0,0,0,0,-1,1413,904,0,0
196,120,0,0,0,0,0,0,0,0,0,-1,1420,904,0,0
203,120,0,0,0,0,0,0,0,0,0,-1,1427,904,0,0
210,120,0,0,0,0,0,0,0,0,0,-1,1434,904,0,0
217,120,0,0,0,0,0,0,0,0,0,-1,1441,904,0,0
224,120,0,0,0,0,0,0,0,0,0,-1,1448,904,0,0
231,120,0,0,0,0,0,0,0,0,0,-1,1455,904,0,0
238,120,0,0,0,0,0,0,0,0,0,-1,1462,904,0,0
245,120,0,0,0,0,0,0,0,0,0,-1,1469,904,0,0
252,120,0,0,0,0,0,0,0,0,0,-1,1476,904,0,0
259,120,0,0,0,0,0,0,0,0,0,-1,1483,904,0,0
266,120,0,0,0,0,0,0,0,0,0,-1,1490,904,0,0
273,120,0,0,0,0,0,0,0,0,0,-1,1497,904,0,0
280,120,0,0,0,0,0,0,0,0,0,-1,1504,904,0,0
287,120,0,0,0,0,0,0,0,0,0,-1,1511,904,0,0
294,120,0,0,0,0,0,0,0,0,0,-1,1518,904,0,0
301,120,0,0,0,0,0,0,0,0,0,-1,1525,904,0,0
308,120,0,0,0,0,0,0,0,0,0,-1,1532,904,0,0
315,120,0,0,0,0,0,0,0,0,0,-1,1539,904,0,0
322,120,0,0,0,0,0,0,0,0,0,-1,1546,904,0,0
329,120,0,0,0,0,0,0,0,0,0,-1,1553,904,0,0
336,120,0,0,0,0,0,0,0,0,0,-1,1560,904,0,0
343,120,0,0,0,0,0,0,0,0,0,-1,1567,904,0,0
350,120,0,0,0,0,0,0,0,0,0,-1,1574,904,0,0
357,120,0,0,0,0,0,0,0,0,0,-1,1581,904,0,0
364,120,0,0,0,0,0,0,0,0,0,-1,1588,904,0,0
371,120,0,0,0,0,0,0,0,0,0,-1,1595,904,0,0
378,120,0,0,0,0,0,0,0,0,0,-1,1602,904,0,0
385,120,0,0,0,0,0,0,0,0,0,-1,1609,904,0,0
392,120,0,0,0,0,0,0,0,0,0,-1,1616,904,0,0
399,120,0,0,0,0,0,0,0,0,0,-1,1623,904,0,0
406,120,0,0,0,0,0,0,0,0,0,-1,1630,904,0,0
413,120,0,0,0,0,0,0,0,0,0,-1,1637,904,0,0
420,120,0,0,0,0,0,0,0,0,0,-1,1644,904,0,0
427,120,0,0,0,0,0,0,0,0,0,-1,1651,904,0,0
434,120,0,0,0,0,0,0,0,0,0,-1,1658,904,0,0
441,120,0,0,0,0,0,0,0,0,0,-1,1665,904,0,0
448,120,0,0,0,0,0,0,0,0,0,-1,1672,904,0,0
455,120,0,0,0,0,0,0,0,0,0,-1,1679,904,0,0
462,120,0,0,0,0,0,0,0,0,0,-1,1686,904,0,0
469,120,0,0,0,0,0,0,0,0,0,-1,1693,904,0,0
476,120,0,0,0,0,0,0,0,0,0,-1,1700,904,0,0
483,120,0,0,0,0,0,0,0,0,0,-1,1707,904,0,0
490,120,0,0,0,0,0,0,0,0,0,-1,1714,904,0,0
497,120,0,0,0,0,0,0,0,0,0,-1,1721,904,0,0
504,120,0,0,0,0,0,0,0,0,0,-1,1728,904,0,0
511,120,0,0,0,0,0,0,0,0,0,-1,1735,904,0,0
518,120,0,0,0,0,0,0,0,0,0,-1,1742,904,0,0
525,120,0,0,0,0,0,0,0,0,0,-1,1749,904,0,0
532,120,0,0,0,0,0,0,0,0,0,-1,1756,904,0,0
539,120,0,0,0,0,0,0,0,0,0,-1,1763,904,0,0
546,120,0,0,0,0,0,0,0,0,0,-1,1770,904,0,0
553,120,0,0,0,0,0,0,0,0,0,-1,1777,904,0,0
560,120,0,0,0,0,0,0,0,0,0,-1,1784,904,0,0
567,120,0,0,0,0,0,0,0,0,0,-1,1791,904,0,0
574,120,0,0,0,0,0,0,0,0,0,-1,1798,904,0,0
581,120,0,0,0,0,0,0,0,0,0,-1,1805,904,0,0
588,120,0,0,0,0,0,0,0,0,0,-1,1812,904,0,0
595,120,0,0,0,0,0,0,0,0,0,-1,1819,904,0,0
602,120,0,0,0,0,0,0,0,0,0,-1,1826,904,0,0
609,120,0,0,0,0,0,0,0,0,0,-1,1833,904,0,0
616,120,0,0,0,0,0,0,0,0,0,-1,1840,904,0,0
623,120,0,0,0,0,0,0,0,0,0,-1,1847,904,0,0
630,120,159.805,4.87219,0,0,0,0,0,0,0,-1,1854,904,159.805,-4.87221
637,120,159.84,5.17505,0,0,0,0,0,0,0,-1,1861,904,159.84,-5.17503
644,120,159.649,5.42883,0,0,0,0,0,0,0,-1,1868,904,159.649,-5.42884
651,120,159.422,5.34058,0,0,0,0,0,0,0,-1,1875,904,159.422,-5.34061
658,120,159.281,5.52844,0,0,0,0,0,0,0,-1,1882,904,159.281,-5.52845
665,120,159.321,5.50385,0,0,0,0,0,0,0,-1,1889,904,159.321,-5.50385
672,120,159.314,5.38184,0,0,0,0,0,0,0,-1,1896,904,159.314,-5.38187
679,120,159.356,5.3288,0,0,0,0,0,0,0,-1,1903,904,159.356,-5.32877
686,120,159.339,5.43573,0,0,0,0,0,0,0,-1,1910,904,159.339,-5.43571
693,120,159.27,5.56262,0,0,0,0,0,0,0,-1,1917,904,159.27,-5.56263
700,120,42.2007,3.00946,0,0,0,0,0,0,0,-1,1924,904,42.2007,-3.00944
707,120,147.912,17.5846,0,0,0,0,0,0,0,-1,1931,904,147.912,-17.5846
714,120,147.71,19.0676,-0.00427719,-0.0102059,0.00295988,-0.00305248,-0.0114306,0.392322,0.00683407,0.0314186,1938,904,147.71,-19.0676
721,120,147.409,20.4438,-0.00668536,-0.00417045,0.000444493,-0.0040942,-0.00676161,1.40091,0.00393268,0.0258367,1945,904,147.409,-20.4438
728,120,147.164,21.7264,-0.00926275,0.00219708,-0.00154452,0.00240159,-0.00946727,-1.43915,0.00724594,0.0183078,1952,904,147.163,-21.7264
735,120,147.003,22.9625,-0.0119645,0.00867263,-0.00324684,0.0091714,-0.0124633,-1.41837,0.0125389,0.0184757,1959,904,147.003,-22.9625
742,120,146.79,24.2462,-0.0147131,0.0152475,-0.00463556,0.0159483,-0.015414,-1.42075,0.0181079,0.0195335,1966,904,146.79,-24.2462
749,120,146.603,25.4874,-0.0174355,0.0219151,-0.00568304,0.0227194,-0.0182398,-1.4302,0.0236949,0.0147923,1973,904,146.603,-25.4874
756,120,146.293,26.6898,-0.0200623,0.028671,-0.00636031,0.0294875,-0.0208787,-1.44313,0.0292202,0.0229004,1980,904,146.293,-26.6898
763,120,145.923,27.8677,-0.022612,0.0355401,-0.00666423,0.036294,-0.023366,-1.45814,0.0347133,0.0451454,1987,904,145.923,-27.8677
770,120,145.643,29.0611,0,0,0,0,0,0,0,-1,1994,904,145.643,-29.0611
777,120,77.7629,11.9034,0,0,0,0,0,0,0,-1,2001,904,77.763,-11.9034
784,120,78.0063,12.8853,0,0,0,0,0,0,0,-1,2008,904,78.0063,-12.8852
791,120,78.2561,13.8319,0,0,0,0,0,0,0,-1,2015,904,78.2561,-13.8319
798,120,78.5127,14.8143,0,0,0,0,0,0,0,-1,2022,904,78.5128,-14.8143
805,120,0,0,0,0,0,0,0,0,0,-1,2029,904,0,0
812,120,0,0,0,0,0,0,0,0,0,-1,2036,904,0,0
-700,113,0,0,0,0,0,0,0,0,0,-1,524,911,0,0
-693,113,0,0,0,0,0,0,0,0,0,-1,531,911,0,0
-686,113,0,0,0,0,0,0,0,0,0,-1,538,911,0,0
-679,113,-55.9637,4.78546,0,0,0,0,0,0,0,-1,545,911,-55.9637,-4.78548
-672,113,-52.5881,5.49811,0,0,0,0,0,0,0,-1,552,911,-52.5881,-5.49808
-665,113,-56.8114,7.23682,0,0,0,0,0,0,0,-1,559,911,-56.8114,-7.23679
-658,113,-54.1535,7.58624,0,0,0,0,0,0,0,-1,566,911,-54.1535,-7.58627
-651,113,-53.3762,7.8313,0,0,0,0,0,0,0,-1,573,911,-53.3762,-7.8313
-644,113,-48.5211,7.83691,0,0,0,0,0,0,0,-1,580,911,-48.5211,-7.83694
-637,113,-138.115,29.4731,0,0,0,0,0,0,0,-1,587,911,-138.115,-29.4731
-630,113,-138.241,28.1555,-0.017452,0.0304871,0.00302589,0.0306773,-0.0176422,1.50801,0.0282336,0.030637,594,911,-138.241,-28.1555
-623,113,-138.39,26.8669,-0.0143604,0.024355,0.00331275,0.0246365,-0.0146418,1.48605,0.0229207,0.0190313,601,911,-138.39,-26.8669
-616,113,-138.519,25.6947,-0.0116371,0.0180767,0.0033507,0.0184498,-0.0120103,1.45989,0.0177167,0.0154618,608,911,-138.519,-25.6947
-609,113,-138.641,24.556,-0.00934049,0.0116673,0.00319845,0.0121435,-0.00981666,1.42301,0.0127024,0.014313,615,911,-138.641,-24.556
-602,113,-138.821,23.3233,-0.00752912,0.00514689,0.00291514,0.00578516,-0.00816738,1.35525,0.00809455,0.0194437,622,911,-138.821,-23.3233
-595,113,-138.976,22.1532,-0.00626261,-0.00145985,0.00256072,-0.000350688,-0.00737177,1.16205,0.00480189,0.0253738,629,911,-138.976,-22.1532
-588,113,-139.01,20.824,-0.00560199,-0.00812356,0.00219631,-0.00433032,-0.00939524,0.524839,0.00542987,0.0352487,636,911,-139.01,-20.824
-581,113,-139.113,19.5226,-0.00543486,-0.0146832,0.00175459,-0.00511317,-0.0150049,0.181328,0.0088083,0.0390918,643,911,-139.113,-19.5226
-574,113,-139.197,17.9926,0,0,0,0,0,0,0,-1,650,911,-139.197,-17.9926
-567,113,-21.8396,0.437378,0,0,0,0,0,0,0,-1,657,911,-21.8396,-0.437351
-560,113,-72.5729,0.38501,0,0,0,0,0,0,0,-1,664,911,-72.5729,-0.385037
-553,113,-72.5334,0.569885,0,0,0,0,0,0,0,-1,671,911,-72.5334,-0.5699
-546,113,-72.5052,0.60083,0,0,0,0,0,0,0,-1,678,911,-72.5052,-0.60083
-539,113,-72.4194,0.534973,0,0,0,0,0,0,0,-1,685,911,-72.4194,-0.534962
-532,113,-72.4289,0.388855,0,0,0,0,0,0,0,-1,692,911,-72.4289,-0.388827
-525,113,-72.5496,0.299011,0,0,0,0,0,0,0,-1,699,911,-72.5496,-0.299028
-518,113,-72.7172,0.401367,0,0,0,0,0,0,0,-1,706,911,-72.7172,-0.401357
-511,113,-72.8064,0.46875,0,0,0,0,0,0,0,-1,713,911,-72.8064,-0.468774
-504,113,0,0,0,0,0,0,0,0,0,-1,720,911,0,0
-497,113,0,0,0,0,0,0,0,0,0,-1,727,911,0,0
-490,113,0,0,0,0,0,0,0,0,0,-1,734,911,0,0
-483,113,0,0,0,0,0,0,0,0,0,-1,741,911,0,0
-476,113,0,0,0,0,0,0,0,0,0,-1,748,911,0,0
-469,113,0,0,0,0,0,0,0,0,0,-1,755,911,0,0
-462,113,0,0,0,0,0,0,0,0,0,-1,762,911,0,0
-455,113,0,0,0,0,0,0,0,0,0,-1,769,911,0,0
-448,113,0,0,0,0,0,0,0,0,0,-1,776,911,0,0
-441,113,0,0,0,0,0,0,0,0,0,-1,783,911,0,0
-434,113,0,0,0,0,0,0,0,0,0,-1,790,911,0,0
-427,113,0,0,0,0,0,0,0,0,0,-1,797,911,0,0
-420,113,0,0,0,0,0,0,0,0,0,-1,804,911,0,0
-413,113,0,0,0,0,0,0,0,0,0,-1,811,911,0,0
-406,113,0,0,0,0,0,0,0,0,0,-1,818,911,0,0
-399,113,0,0,0,0,0,0,0,0,0,-1,825,911,0,0
-392,113,0,0,0,0,0,0,0,0,0,-1,832,911,0,0
-385,113,0,0,0,0,0,0,0,0,0,-1,839,911,0,0
-378,113,0,0,0,0,0,0,0,0,0,-1,846,911,0,0
-371,113,0,0,0,0,0,0,0,0,0,-1,853,911,0,0
-364,113,0,0,0,0,0,0,0,0,0,-1,860,911,0,0
-357,113,0,0,0,0,0,0,0,0,0,-1,867,911,0,0
-350,113,0,0,0,0,0,0,0,0,0,-1,874,911,0,0
-343,113,0,0,0,0,0,0,0,0,0,-1,881,911,0,0
-336,113,0,0,0,0,0,0,0,0,0,-1,888,911,0,0
-329,113,0,0,0,0,0,0,0,0,0,-1,895,911,0,0
-322,113,0,0,0,0,0,0,0,0,0,-1,902,911,0,0
-315,113,0,0,0,0,0,0,0,0,0,-1,909,911,0,0
-308,113,0,0,0,0,0,0,0,0,0,-1,916,911,0,0
-301,113,0,0,0,0,0,0,0,0,0,-1,923,911,0,0
-294,113,0,0,0,0,0,0,0,0,0,-1,930,911,0,0
-287,113,0,0,0,0,0,0,0,0,0,-1,937,911,0,0
-280,113,0,0,0,0,0,0,0,0,0,-1,944,911,0,0
-273,113,0,0,0,0,0,0,0,0,0,-1,951,911,0,0
-266,113,0,0,0,0,0,0,0,0,0,-1,958,911,0,0
-259,113,0,0,0,0,0,0,0,0,0,-1,965,911,0,0
-252,113,0,0,0,0,0,0,0,0,0,-1,972,911,0,0
-245,113,0,0,0,0,0,0,0,0,0,-1,979,911,0,0
-238,113,0,0,0,0,0,0,0,0,0,-1,986,911,0,0
-231,113,0,0,0,0,0,0,0,0,0,-1,993,911,0,0
-224,113,0,0,0,0,0,0,0,0,0,-1,1000,911,0,0
-217,113,0,0,0,0,0,0,0,0,0,-1,1007,911,0,0
-210,113,0,0,0,0,0,0,0,0,0,-1,1014,911,0,0
-203,113,0,0,0,0,0,0,0,0,0,-1,1021,911,0,0
-196,113,0,0,0,0,0,0,0,0,0,-1,1028,911,0,0
-189,113,0,0,0,0,0,0,0,0,0,-1,1035,911,0,0
-182,113,0,0,0,0,0,0,0,0,0,-1,1042,911,0,0
-175,113,0,0,0,0,0,0,0,0,0,-1,1049,911,0,0
-168,113,0,0,0,0,0,0,0,0,0,-1,1056,911,0,0
-161,113,0,0,0,0,0,0,0,0,0,-1,1063,911,0,0
-154,113,0,0,0,0,0,0,0,0,0,-1,1070,911,0,0
-147,113,0,0,0,0,0,0,0,0,0,-1,1077,911,0,0
-140,113,0,0,0,0,0,0,0,0,0,-1,1084,911,0,0
-133,113,0,0,0,0,0,0,0,0,0,-1,1091,911,0,0
-126,113,0,0,0,0,0,0,0,0,0,-1,1098,911,0,0
-119,113,0,0,0,0,0,0,0,0,0,-1,1105,911,0,0
-112,113,0,0,0,0,0,0,0,0,0,-1,1112,911,0,0
-105,113,0,0,0,0,0,0,0,0,0,-1,1119,911,0,0
-98,113,0,0,0,0,0,0,0,0,0,-1,1126,911,0,0
-91,113,0,0,0,0,0,0,0,0,0,-1,1133,911,0,0
-84,113,0,0,0,0,0,0,0,0,0,-1,1140,911,0,0
-77,113,0,0,0,0,0,0,0,0,0,-1,1147,911,0,0
-70,113,0,0,0,0,0,0,0,0,0,-1,1154,911,0,0
-63,113,0,0,0,0,0,0,0,0,0,-1,1161,911,0,0
-56,113,0,0,0,0,0,0,0,0,0,-1,1168,911,0,0
-49,113,0,0,0,0,0,0,0,0,0,-1,1175,911,0,0
-42,113,0,0,0,0,0,0,0,0,0,-1,1182,911,0,0
-35,113,0,0,0,0,0,0,0,0,0,-1,1189,911,0,0
-28,113,0,0,0,0,0,0,0,0,0,-1,1196,911,0,0
-21,113,0,0,0,0,0,0,0,0,0,-1,1203,911,0,0
-14,113,0,0,0,0,0,0,0,0,0,-1,1210,911,0,0
-7,113,0,0,0,0,0,0,0,0,0,-1,1217,911,0,0
0,113,0,0,0,0,0,0,0,0,0,-1,1224,911,0,0
7,113,0,0,0,0,0,0,0,0,0,-1,1231,911,0,0
14,113,0,0,0,0,0,0,0,0,0,-1,1238,911,0,0
21,113,0,0,0,0,0,0,0,0,0,-1,1245,911,0,0
28,113,0,0,0,0,0,0,0,0,0,-1,1252,911,0,0
35,113,0,0,0,0,0,0,0,0,0,-1,1259,911,0,0
42,113,0,0,0,0,0,0,0,0,0,-1,1266,911,0,0
49,113,0,0,0,0,0,0,0,0,0,-1,1273,911,0,0
56,113,0,0,0,0,0,0,0,0,0,-1,1280,911,0,0
63,113,0,0,0,0,0,0,0,0,0,-1,1287,911,0,0
70,113,0,0,0,0,0,0,0,0,0,-1,1294,911,0,0
77,113,0,0,0,0,0,0,0,0,0,-1,1301,911,0,0
84,113,0,0,0,0,0,0,0,0,0,-1,1308,911,0,0
91,113,0,0,0,0,0,0,0,0,0,-1,1315,911,0,0
98,113,0,0,0,0,0,0,0,0,0,-1,1322,911,0,0
105,113,0,0,0,0,0,0,0,0,0,-1,1329,911,0,0
112,113,0,0,0,0,0,0,0,0,0,-1,1336,911,0,0
119,113,0,0,0,0,0,0,0,0,0,-1,1343,911,0,0
126,113,0,0,0,0,0,0,0,0,0,-1,1350,911,0,0
133,113,0,0,0,0,0,0,0,0,0,-1,1357,911,0,0
140,113,0,0,0,0,0,0,0,0,0,-1,1364,911,0,0
147,113,0,0,0,0,0,0,0,0,0,-1,1371,911,0,0
154,113,0,0,0,0,0,0,0,0,0,-1,1378,911,0,0
161,113,0,0,0,0,0,0,0,0,0,-1,1385,911,0,0
168,113,0,0,0,0,0,0,0,0,0,-1,1392,911,0,0
175,113,0,0,0,0,0,0,0,0,0,-1,1399,911,0,0
182,113,0,0,0,0,0,0,0,0,0,-1,1406,911,0,0
189,113,0,0,0,0,0,0,0,0,0,-1,1413,911,0,0
196,113,0,0,0,0,0,0,0,0,0,-1,1420,911,0,0
203,113,0,0,0,0,0,0,0,0,0,-1,1427,911,0,0
210,113,0,0,0,0,0,0,0,0,0,-1,1434,911,0,0
217,113,0,0,0,0,0,0,0,0,0,-1,1441,911,0,0
224,113,0,0,0,0,0,0,0,0,0,-1,1448,911,0,0
231,113,0,0,0,0,0,0,0,0,0,-1,1455,911,0,0
238,113,0,0,0,0,0,0,0,0,0,-1,1462,911,0,0
245,113,0,0,0,0,0,0,0,0,0,-1,1469,911,0,0
252,113,0,0,0,0,0,0,0,0,0,-1,1476,911,0,0
259,113,0,0,0,0,0,0,0,0,0,-1,1483,911,0,0
266,113,0,0,0,0,0,0,0,0,0,-1,1490,911,0,0
273,113,0,0,0,0,0,0,0,0,0,-1,1497,911,0,0
280,113,0,0,0,0,0,0,0,0,0,-1,1504,911,0,0
287,113,0,0,0,0,0,0,0,0,0,-1,1511,911,0,0
294,113,0,0,0,0,0,0,0,0,0,-1,1518,911,0,0
301,113,0,0,0,0,0,0,0,0,0,-1,1525,911,0,0
308,113,0,0,0,0,0,0,0,0,0,-1,1532,911,0,0
315,113,0,0,0,0,0,0,0,0,0,-1,1539,911,0,0
322,113,0,0,0,0,0,0,0,0,0,-1,1546,911,0,0
329,113,0,0,0,0,0,0,0,0,0,-1,1553,911,0,0
336,113,0,0,0,0,0,0,0,0,0,-1,1560,911,0,0
343,113,0,0,0,0,0,0,0,0,0,-1,1567,911,0,0
350,113,0,0,0,0,0,0,0,0,0,-1,1574,911,0,0
357,113,0,0,0,0,0,0,0,0,0,-1,1581,911,0,0
364,113,0,0,0,0,0,0,0,0,0,-1,1588,911,0,0
371,113,0,0,0,0,0,0,0,0,0,-1,1595,911,0,0
378,113,0,0,0,0,0,0,0,0,0,-1,1602,911,0,0
385,113,0,0,0,0,0,0,0,0,0,-1,1609,911,0,0
392,113,0,0,0,0,0,0,0,0,0,-1,1616,911,0,0
399,113,0,0,0,0,0,0,0,0,0,-1,1623,911,0,0
406,113,0,0,0,0,0,0,0,0,0,-1,1630,911,0,0
413,113,0,0,0,0,0,0,0,0,0,-1,1637,911,0,0
420,113,0,0,0,0,0,0,0,0,0,-1,1644,911,0,0
427,113,0,0,0,0,0,0,0,0,0,-1,1651,911,0,0
434,113,0,0,0,0,0,0,0,0,0,-1,1658,911,0,0
441,113,0,0,0,0,0,0,0,0,0,-1,1665,911,0,0
448,113,0,0,0,0,0,0,0,0,0,-1,1672,911,0,0
455,113,0,0,0,0,0,0,0,0,0,-1,1679,911,0,0
462,113,0,0,0,0,0,0,0,0,0,-1,1686,911,0,0
469,113,0,0,0,0,0,0,0,0,0,-1,1693,911,0,0
476,113,0,0,0,0,0,0,0,0,0,-1,1700,911,0,0
483,113,0,0,0,0,0,0,0,0,0,-1,1707,911,0,0
490,113,0,0,0,0,0,0,0,0,0,-1,1714,911,0,0
497,113,0,0,0,0,0,0,0,0,0,-1,1721,911,0,0
504,113,0,0,0,0,0,0,0,0,0,-1,1728,911,0,0
511,113,0,0,0,0,0,0,0,0,0,-1,1735,911,0,0
518,113,0,0,0,0,0,0,0,0,0,-1,1742,911,0,0
525,113,0,0,0,0,0,0,0,0,0,-1,1749,911,0,0
532,113,0,0,0,0,0,0,0,0,0,-1,1756,911,0,0
539,113,0,0,0,0,0,0,0,0,0,-1,1763,911,0,0
546,113,0,0,0,0,0,0,0,0,0,-1,1770,911,0,0
553,113,0,0,0,0,0,0,0,0,0,-1,1777,911,0,0
560,113,0,0,0,0,0,0,0,0,0,-1,1784,911,0,0
567,113,0,0,0,0,0,0,0,0,0,-1,1791,911,0,0
574,113,0,0,0,0,0,0,0,0,0,-1,1798,911,0,0
581,113,0,0,0,0,0,0,0,0,0,-1,1805,911,0,0
588,113,0,0,0,0,0,0,0,0,0,-1,1812,911,0,0
595,113,0,0,0,0,0,0,0,0,0,-1,1819,911,0,0
602,113,0,0,0,0,0,0,0,0,0,-1,1826,911,0,0
609,113,0,0,0,0,0,0,0,0,0,-1,1833,911,0,0
616,113,0,0,0,0,0,0,0,0,0,-1,1840,911,0,0
623,113,0,0,0,0,0,0,0,0,0,-1,1847,911,0,0
630,113,159.256,6.01166,0,0,0,0,0,0,0,-1,1854,911,159.256,-6.01166
637,113,159.528,5.86871,0,0,0,0,0,0,0,-1,1861,911,159.528,-5.86872
644,113,159.62,5.5929,0,0,0,0,0,0,0,-1,1868,911,159.62,-5.59291
651,113,159.519,5.34296,0,0,0,0,0,0,0,-1,1875,911,159.519,-5.34299
658,113,159.479,5.33093,0,0,0,0,0,0,0,-1,1882,911,159.479,-5.33094
665,113,159.399,5.5274,0,0,0,0,0,0,0,-1,1889,911,159.399,-5.52739
672,113,159.262,5.51373,0,0,0,0,0,0,0,-1,1896,911,159.262,-5.51371
679,113,159.286,5.30273,0,0,0,0,0,0,0,-1,1903,911,159.286,-5.30274
686,113,159.409,5.40942,0,0,0,0,0,0,0,-1,1910,911,159.409,-5.40943
693,113,159.207,5.56567,0,0,0,0,0,0,0,-1,1917,911,159.207,-5.56567
700,113,43.897,2.79669,0,0,0,0,0,0,0,-1,1924,911,43.897,-2.79671
707,113,148.819,17.8356,0,0,0,0,0,0,0,-1,1931,911,148.819,-17.8355
714,113,148.728,19.2233,-0.00496416,-0.0121931,0.0028855,-0.00395365,-0.0132036,0.336856,0.00782489,0.0271147,1938,911,148.728,-19.2233
721,113,148.578,20.5712,-0.00718148,-0.00598966,0.000427119,-0.0058524,-0.00731874,1.25986,0.00447126,0.0267081,1945,911,148.578,-20.5711
728,113,148.451,21.8431,-0.0096247,0.000585934,-0.00146361,0.000791588,-0.00983035,-1.4312,0.00683273,0.0245061,1952,911,148.451,-21.8431
735,113,148.317,23.0277,-0.012246,0.00723093,-0.00308594,0.00770818,-0.0127232,-1.41736,0.0119139,0.0209029,1959,911,148.317,-23.0277
742,113,148.117,24.2267,-0.0149584,0.0139613,-0.00440799,0.0146183,-0.0156153,-1.42285,0.0174585,0.0174112,1966,911,148.117,-24.2267
749,113,147.947,25.4644,-0.0177013,0.020768,-0.00541015,0.0215144,-0.0184476,-1.4337,0.0230947,0.0143305,1973,911,147.947,-25.4643
756,113,147.657,26.6909,-0.0204184,0.0276424,-0.00607244,0.0283978,-0.0211737,-1.44704,0.0287212,0.0229515,1980,911,147.657,-26.6909
763,113,147.213,28.0855,-0.0231101,0.0345924,-0.00639276,0.0352922,-0.0238098,-1.46177,0.0343365,0.0473804,1987,911,147.213,-28.0855
770,113,146.827,29.5201,0,0,0,0,0,0,0,-1,1994,911,146.827,-29.5202
777,113,58.1719,9.65338,0,0,0,0,0,0,0,-1,2001,911,58.172,-9.6534
784,113,79.3757,13.6559,0,0,0,0,0,0,0,-1,2008,911,79.3756,-13.6559
791,113,74.5583,10.0654,0,0,0,0,0,0,0,-1,2015,911,74.5583,-10.0654
798,113,74.8208,11.6051,0,0,0,0,0,0,0,-1,2022,911,74.8207,-11.6051
805,113,0,0,0,0,0,0,0,0,0,-1,2029,911,0,0
812,113,0,0,0,0,0,0,0,0,0,-1,2036,911,0,0
-700,106,0,0,0,0,0,0,0,0,0,-1,524,918,0,0
-693,106,0,0,0,0,0,0,0,0,0,-1,531,918,0,0
-686,106,0,0,0,0,0,0,0,0,0,-1,538,918,0,0
-679,106,-60.4137,10.3801,0,0,0,0,0,0,0,-1,545,918,-60.4137,-10.3802
-672,106,-59.9378,11.2709,0,0,0,0,0,0,0,-1,552,918,-59.9378,-11.271
-665,106,-53.5263,9.70886,0,0,0,0,0,0,0,-1,559,918,-53.5263,-9.70888
-658,106,-53.7712,10.2163,0,0,0,0,0,0,0,-1,566,918,-53.7712,-10.2163
-651,106,-52.8008,8.01733,0,0,0,0,0,0,0,-1,573,918,-52.8008,-8.01734
-644,106,-64.0154,12.8989,0,0,0,0,0,0,0,-1,580,918,-64.0155,-12.8989
-637,106,-139.056,29.2524,0,0,0,0,0,0,0,-1,587,918,-139.056,-29.2524
-630,106,-139.401,28.0281,-0.0155437,0.032345,0.00270569,0.0324974,-0.0156961,1.51454,0.0283825,0.026529,594,918,-139.401,-28.0282
-623,106,-139.766,26.7488,-0.012746,0.0252349,0.00306134,0.0254801,-0.0129911,1.49088,0.0225981,0.0283906,601,918,-139.766,-26.7488
-616,106,-139.908,25.617,-0.0101666,0.0181457,0.00309032,0.0184791,-0.0105,1.46333,0.0169412,0.0268878,608,918,-139.908,-25.617
-609,106,-139.932,24.5765,-0.00789531,0.0110742,0.00287357,0.0115,-0.00832105,1.42371,0.0114926,0.0151791,615,918,-139.932,-24.5765
-602,106,-140.081,23.3998,-0.0060203,0.00402388,0.00248857,0.00460665,-0.00660306,1.34077,0.00650605,0.0183002,622,918,-140.081,-23.3998
-595,106,-140.313,22.1996,-0.0046301,-0.00299585,0.00201076,-0.00164253,-0.00598343,0.978394,0.00356971,0.0242522,629,918,-140.313,-22.1996
-588,106,-140.5,20.9592,0,0,0,0,0,0,0,-1,636,918,-140.5,-20.9592
-581,106,-140.298,19.6166,0,0,0,0,0,0,0,-1,643,918,-140.298,-19.6166
-574,106,-140.379,18.3181,0,0,0,0,0,0,0,-1,650,918,-140.379,-18.3181
-567,106,-41.3706,0.420776,0,0,0,0,0,0,0,-1,657,918,-41.3706,-0.420794
-560,106,-72.5184,0.346619,0,0,0,0,0,0,0,-1,664,918,-72.5184,-0.346624
-553,106,-72.5411,0.640625,0,0,0,0,0,0,0,-1,671,918,-72.5411,-0.640601
-546,106,-72.6151,0.578125,0,0,0,0,0,0,0,-1,678,918,-72.6151,-0.578127
-539,106,-72.566,0.447876,0,0,0,0,0,0,0,-1,685,918,-72.566,-0.4479
-532,106,-72.3527,0.214966,0,0,0,0,0,0,0,-1,692,918,-72.3527,-0.214992
-525,106,-72.5553,0.141418,0,0,0,0,0,0,0,-1,699,918,-72.5553,-0.141448
-518,106,-72.6719,0.387268,0,0,0,0,0,0,0,-1,706,918,-72.672,-0.387285
-511,106,0,0,0,0,0,0,0,0,0,-1,713,918,0,0
-504,106,0,0,0,0,0,0,0,0,0,-1,720,918,0,0
-497,106,0,0,0,0,0,0,0,0,0,-1,727,918,0,0
-490,106,0,0,0,0,0,0,0,0,0,-1,734,918,0,0
-483,106,0,0,0,0,0,0,0,0,0,-1,741,918,0,0
-476,106,0,0,0,0,0,0,0,0,0,-1,748,918,0,0
-469,106,0,0,0,0,0,0,0,0,0,-1,755,918,0,0
-462,106,0,0,0,0,0,0,0,0,0,-1,762,918,0,0
-455,106,0,0,0,0,0,0,0,0,0,-1,769,918,0,0
-448,106,0,0,0,0,0,0,0,0,0,-1,776,918,0,0
-441,106,0,0,0,0,0,0,0,0,0,-1,783,918,0,0
-434,106,0,0,0,0,0,0,0,0,0,-1,790,918,0,0
-427,106,0,0,0,0,0,0,0,0,0,-1,797,918,0,0
-420,106,0,0,0,0,0,0,0,0,0,-1,804,918,0,0
-413,106,0,0,0,0,0,0,0,0,0,-1,811,918,0,0
-406,106,0,0,0,0,0,0,0,0,0,-1,818,918,0,0
-399,106,0,0,0,0,0,0,0,0,0,-1,825,918,0,0
-392,106,0,0,0,0,0,0,0,0,0,-1,832,918,0,0
-385,106,0,0,0,0,0,0,0,0,0,-1,839,918,0,0
-378,106,0,0,0,0,0,0,0,0,0,-1,846,918,0,0
-371,106,0,0,0,0,0,0,0,0,0,-1,853,918,0,0
-364,106,0,0,0,0,0,0,0,0,0,-1,860,918,0,0
-357,106,0,0,0,0,0,0,0,0,0,-1,867,918,0,0
-350,106,0,0,0,0,0,0,0,0,0,-1,874,918,0,0
-343,106,0,0,0,0,0,0,0,0,0,-1,881,918,0,0
-336,106,0,0,0,0,0,0,0,0,0,-1,888,918,0,0
-329,106,0,0,0,0,0,0,0,0,0,-1,895,918,0,0
-322,106,0,0,0,0,0,0,0,0,0,-1,902,918,0,0
-315,106,0,0,0,0,0,0,0,0,0,-1,909,918,0,0
-308,106,0,0,0,0,0,0,0,0,0,-1,916,918,0,0
-301,106,0,0,0,0,0,0,0,0,0,-1,923,918,0,0
-294,106,0,0,0,0,0,0,0,0,0,-1,930,918,0,0
-287,106,0,0,0,0,0,0,0,0,0,-1,937,918,0,0
-280,106,0,0,0,0,0,0,0,0,0,-1,944,918,0,0
-273,106,0,0,0,0,0,0,0,0,0,-1,951,918,0,0
-266,106,0,0,0,0,0,0,0,0,0,-1,958,918,0,0
-259,106,0,0,0,0,0,0,0,0,0,-1,965,918,0,0
-252,106,0,0,0,0,0,0,0,0,0,-1,972,918,0,0
-245,106,0,0,0,0,0,0,0,0,0,-1,979,918,0,0
-238,106,0,0,0,0,0,0,0,0,0,-1,986,918,0,0
-231,106,0,0,0,0,0,0,0,0,0,-1,993,918,0,0
-224,106,0,0,0,0,0,0,0,0,0,-1,1000,918,0,0
-217,106,0,0,0,0,0,0,0,0,0,-1,1007,918,0,0
-210,106,0,0,0,0,0,0,0,0,0,-1,1014,918,0,0
-203,106,0,0,0,0,0,0,0,0,0,-1,1021,918,0,0
-196,106,0,0,0,0,0,0,0,0,0,-1,1028,918,0,0
-189,106,0,0,0,0,0,0,0,0,0,-1,1035,918,0,0
-182,106,0,0,0,0,0,0,0,0,0,-1,1042,918,0,0
-175,106,0,0,0,0,0,0,0,0,0,-1,1049,918,0,0
-168,106,0,0,0,0,0,0,0,0,0,-1,1056,918,0,0
-161,106,0,0,0,0,0,0,0,0,0,-1,1063,918,0,0
-154,106,0,0,0,0,0,0,0,0,0,-1,1070,918,0,0
-147,106,0,0,0,0,0,0,0,0,0,-1,1077,918,0,0
-140,106,0,0,0,0,0,0,0,0,0,-1,1084,918,0,0
-133,106,0,0,0,0,0,0,0,0,0,-1,1091,918,0,0
-126,106,0,0,0,0,0,0,0,0,0,-1,1098,918,0,0
-119,106,0,0,0,0,0,0,0,0,0,-1,1105,918,0,0
-112,106,0,0,0,0,0,0,0,0,0,-1,1112,918,0,0
-105,106,0,0,0,0,0,0,0,0,0,-1,1119,918,0,0
-98,106,0,0,0,0,0,0,0,0,0,-1,1126,918,0,0
-91,106,0,0,0,0,0,0,0,0,0,-1,1133,918,0,0
-84,106,0,0,0,0,0,0,0,0,0,-1,1140,918,0,0
-77,106,0,0,0,0,0,0,0,0,0,-1,1147,918,0,0
-70,106,0,0,0,0,0,0,0,0,0,-1,1154,918,0,0
-63,106,0,0,0,0,0,0,0,0,0,-1,1161,918,0,0
-56,106,0,0,0,0,0,0,0,0,0,-1,1168,918,0,0
-49,106,0,0,0,0,0,0,0,0,0,-1,1175,918,0,0
-42,106,0,0,0,0,0,0,0,0,0,-1,1182,918,0,0
-35,106,0,0,0,0,0,0,0,0,0,-1,1189,918,0,0
-28,106,0,0,0,0,0,0,0,0,0,-1,1196,918,0,0
-21,106,0,0,0,0,0,0,0,0,0,-1,1203,918,0,0
-14,106,0,0,0,0,0,0,0,0,0,-1,1210,918,0,0
-7,106,0,0,0,0,0,0,0,0,0,-1,1217,918,0,0
0,106,0,0,0,0,0,0,0,0,0,-1,1224,918,0,0
7,106,0,0,0,0,0,0,0,0,0,-1,1231,918,0,0
14,106,0,0,0,0,0,0,0,0,0,-1,1238,918,0,0
21,106,0,0,0,0,0,0,0,0,0,-1,1245,918,0,0
28,106,0,0,0,0,0,0,0,0,0,-1,1252,918,0,0
35,106,0,0,0,0,0,0,0,0,0,-1,1259,918,0,0
42,106,0,0,0,0,0,0,0,0,0,-1,1266,918,0,0
49,106,0,0,0,0,0,0,0,0,0,-1,1273,918,0,0
56,106,0,0,0,0,0,0,0,0,0,-1,1280,918,0,0
63,106,0,0,0,0,0,0,0,0,0,-1,1287,918,0,0
70,106,0,0,0,0,0,0,0,0,0,-1,1294,918,0,0
77,106,0,0,0,0,0,0,0,0,0,-1,1301,918,0,0
84,106,0,0,0,0,0,0,0,0,0,-1,1308,918,0,0
91,106,0,0,0,0,0,0,0,0,0,-1,1315,918,0,0
98,106,0,0,0,0,0,0,0,0,0,-1,1322,918,0,0
105,106,0,0,0,0,0,0,0,0,0,-1,1329,918,0,0
112,106,0,0,0,0,0,0,0,0,0,-1,1336,918,0,0
119,106,0,0,0,0,0,0,0,0,0,-1,1343,918,0,0
126,106,0,0,0,0,0,0,0,0,0,-1,1350,918,0,0
133,106,0,0,0,0,0,0,0,0,0,-1,1357,918,0,0
140,106,0,0,0,0,0,0,0,0,0,-1,1364,918,0,0
147,106,0,0,0,0,0,0,0,0,0,-1,1371,918,0,0
154,106,0,0,0,0,0,0,0,0,0,-1,1378,918,0,0
161,106,0,0,0,0,0,0,0,0,0,-1,1385,918,0,0
168,106,0,0,0,0,0,0,0,0,0,-1,1392,918,0,0
175,106,0,0,0,0,0,0,0,0,0,-1,1399,918,0,0
182,106,0,0,0,0,0,0,0,0,0,-1,1406,918,0,0
189,106,0,0,0,0,0,0,0,0,0,-1,1413,918,0,0
196,106,0,0,0,0,0,0,0,0,0,-1,1420,918,0,0
203,106,0,0,0,0,0,0,0,0,0,-1,1427,918,0,0
210,106,0,0,0,0,0,0,0,0,0,-1,1434,918,0,0
217,106,0,0,0,0,0,0,0,0,0,-1,1441,918,0,0
224,106,0,0,0,0,0,0,0,0,0,-1,1448,918,0,0
231,106,0,0,0,0,0,0,0,0,0,-1,1455,918,0,0
238,106,0,0,0,0,0,0,0,0,0,-1,1462,918,0,0
245,106,0,0,0,0,0,0,0,0,0,-1,1469,918,0,0
252,106,0,0,0,0,0,0,0,0,0,-1,1476,918,0,0
259,106,0,0,0,0,0,0,0,0,0,-1,1483,918,0,0
266,106,0,0,0,0,0,0,0,0,0,-1,1490,918,0,0
273,106,0,0,0,0,0,0,0,0,0,-1,1497,918,0,0
280,106,0,0,0,0,0,0,0,0,0,-1,1504,918,0,0
287,106,0,0,0,0,0,0,0,0,0,-1,1511,918,0,0
294,106,0,0,0,0,0,0,0,0,0,-1,1518,918,0,0
301,106,0,0,0,0,0,0,0,0,0,-1,1525,918,0,0
308,106,0,0,0,0,0,0,0,0,0,-1,1532,918,0,0
315,106,0,0,0,0,0,0,0,0,0,-1,1539,918,0,0
322,106,0,0,0,0,0,0,0,0,0,-1,1546,918,0,0
329,106,0,0,0,0,0,0,0,0,0,-1,1553,918,0,0
336,106,0,0,0,0,0,0,0,0,0,-1,1560,918,0,0
343,106,0,0,0,0,0,0,0,0,0,-1,1567,918,0,0
350,106,0,0,0,0,0,0,0,0,0,-1,1574,918,0,0
357,106,0,0,0,0,0,0,0,0,0,-1,1581,918,0,0
364,106,0,0,0,0,0,0,0,0,0,-1,1588,918,0,0
371,106,0,0,0,0,0,0,0,0,0,-1,1595,918,0,0
378,106,0,0,0,0,0,0,0,0,0,-1,1602,918,0,0
385,106,0,0,0,0,0,0,0,0,0,-1,1609,918,0,0
392,106,0,0,0,0,0,0,0,0,0,-1,1616,918,0,0
399,106,0,0,0,0,0,0,0,0,0,-1,1623,918,0,0
406,106,0,0,0,0,0,0,0,0,0,-1,1630,918,0,0
413,106,0,0,0,0,0,0,0,0,0,-1,1637,918,0,0
420,106,0,0,0,0,0,0,0,0,0,-1,1644,918,0,0
427,106,0,0,0,0,0,0,0,0,0,-1,1651,918,0,0
434,106,0,0,0,0,0,0,0,0,0,-1,1658,918,0,0
441,106,0,0,0,0,0,0,0,0,0,-1,1665,918,0,0
448,106,0,0,0,0,0,0,0,0,0,-1,1672,918,0,0
455,106,0,0,0,0,0,0,0,0,0,-1,1679,918,0,0
462,106,0,0,0,0,0,0,0,0,0,-1,1686,918,0,0
469,106,0,0,0,0,0,0,0,0,0,-1,1693,918,0,0
476,106,0,0,0,0,0,0,0,0,0,-1,1700,918,0,0
483,106,0,0,0,0,0,0,0,0,0,-1,1707,918,0,0
490,106,0,0,0,0,0,0,0,0,0,-1,1714,918,0,0
497,106,0,0,0,0,0,0,0,0,0,-1,1721,918,0,0
504,106,0,0,0,0,0,0,0,0,0,-1,1728,918,0,0
511,106,0,0,0,0,0,0,0,0,0,-1,1735,918,0,0
518,106,0,0,0,0,0,0,0,0,0,-1,1742,918,0,0
525,106,0,0,0,0,0,0,0,0,0,-1,1749,918,0,0
532,106,0,0,0,0,0,0,0,0,0,-1,1756,918,0,0
539,106,0,0,0,0,0,0,0,0,0,-1,1763,918,0,0
546,106,0,0,0,0,0,0,0,0,0,-1,1770,918,0,0
553,106,0,0,0,0,0,0,0,0,0,-1,1777,918,0,0
560,106,0,0,0,0,0,0,0,0,0,-1,1784,918,0,0
567,106,0,0,0,0,0,0,0,0,0,-1,1791,918,0,0
574,106,0,0,0,0,0,0,0,0,0,-1,1798,918,0,0
581,106,0,0,0,0,0,0,0,0,0,-1,1805,918,0,0
588,106,0,0,0,0,0,0,0,0,0,-1,1812,918,0,0
595,106,0,0,0,0,0,0,0,0,0,-1,1819,918,0,0
602,106,0,0,0,0,0,0,0,0,0,-1,1826,918,0,0
609,106,0,0,0,0,0,0,0,0,0,-1,1833,918,0,0
616,106,0,0,0,0,0,0,0,0,0,-1,1840,918,0,0
623,106,0,0,0,0,0,0,0,0,0,-1,1847,918,0,0
630,106,159.357,5.61377,0,0,0,0,0,0,0,-1,1854,918,159.357,-5.61378
637,106,159.462,5.65967,0,0,0,0,0,0,0,-1,1861,918,159.462,-5.65966
644,106,159.578,5.43372,0,0,0,0,0,0,0,-1,1868,918,159.578,-5.43371
651,106,159.508,5.30109,0,0,0,0,0,0,0,-1,1875,918,159.508,-5.30108
658,106,159.468,5.43469,0,0,0,0,0,0,0,-1,1882,918,159.468,-5.43471
665,106,159.36,5.59546,0,0,0,0,0,0,0,-1,1889,918,159.36,-5.59546
672,106,159.209,5.67883,0,0,0,0,0,0,0,-1,1896,918,159.209,-5.67882
679,106,159.241,5.51642,0,0,0,0,0,0,0,-1,1903,918,159.241,-5.5164
686,106,159.473,5.50873,0,0,0,0,0,0,0,-1,1910,918,159.473,-5.50875
693,106,159.271,5.54724,0,0,0,0,0,0,0,-1,1917,918,159.271,-5.54726
700,106,158.972,5.42474,0,0,0,0,0,0,0,-1,1924,918,158.972,-5.42477
707,106,150.175,17.9639,0,0,0,0,0,0,0,-1,1931,918,150.175,-17.9639
714,106,150.024,19.3953,-0.00451721,-0.0148461,0.00275783,-0.00382699,-0.0155363,0.245239,0.0093468,0.0299167,1938,918,150.024,-19.3953
721,106,149.863,20.7953,-0.00686575,-0.0084387,0.000304857,-0.00680873,-0.00849572,0.184896,0.00519363,0.0322303,1945,918,149.863,-20.7953
728,106,149.768,22.0062,-0.00943539,-0.0015723,-0.00148197,-0.00130226,-0.00970543,-1.39056,0.00608284,0.0279486,1952,918,149.768,-22.0062
735,106,149.638,23.1246,-0.0122072,0.00535047,-0.00301913,0.00585512,-0.0127119,-1.40518,0.0109606,0.0209266,1959,918,149.638,-23.1246
742,106,149.449,24.2634,-0.015092,0.0123708,-0.00427413,0.0130206,-0.0157419,-1.41992,0.0166308,0.0186158,1966,918,149.449,-24.2634
749,106,149.245,25.4214,-0.0180475,0.0194727,-0.0052428,0.0201916,-0.0187663,-1.43454,0.0224974,0.0169188,1973,918,149.245,-25.4214
756,106,149.009,26.5691,-0.0210352,0.0266382,-0.00592103,0.0273626,-0.0217596,-1.44906,0.0284221,0.0183344,1980,918,149.009,-26.5691
763,106,148.693,27.8527,-0.0240217,0.0338459,-0.00630628,0.0345251,-0.024701,-1.4635,0.0343507,0.0344633,1987,918,148.693,-27.8527
770,106,148.609,28.824,0,0,0,0,0,0,0,-1,1994,918,148.609,-28.824
777,106,88.3054,13.259,0,0,0,0,0,0,0,-1,2001,918,88.3054,-13.259
784,106,89.1936,14.7273,0,0,0,0,0,0,0,-1,2008,918,89.1936,-14.7273
791,106,83.1514,12.6997,0,0,0,0,0,0,0,-1,2015,918,83.1513,-12.6997
798,106,85.3481,12.517,0,0,0,0,0,0,0,-1,2022,918,85.3481,-12.517
805,106,0,0,0,0,0,0,0,0,0,-1,2029,918,0,0
812,106,0,0,0,0,0,0,0,0,0,-1,2036,918,0,0
-700,99,0,0,0,0,0,0,0,0,0,-1,524,925,0,0
-693,99,0,0,0,0,0,0,0,0,0,-1,531,925,0,0
-686,99,0,0,0,0,0,0,0,0,0,-1,538,925,0,0
-679,99,-60.0285,9.58405,0,0,0,0,0,0,0,-1,545,925,-60.0285,-9.58402
-672,99,-59.5222,10.1797,0,0,0,0,0,0,0,-1,552,925,-59.5222,-10.1797
-665,99,-58.8331,10.9661,0,0,0,0,0,0,0,-1,559,925,-58.8331,-10.9661
-658,99,-58.6227,11.3068,0,0,0,0,0,0,0,-1,566,925,-58.6227,-11.3068
-651,99,-58.2084,11.0227,0,0,0,0,0,0,0,-1,573,925,-58.2084,-11.0227
-644,99,-92.0863,19.8066,0,0,0,0,0,0,0,-1,580,925,-92.0863,-19.8066
-637,99,-140.338,29.1267,0,0,0,0,0,0,0,-1,587,925,-140.338,-29.1267
-630,99,-140.651,28.0155,-0.0134571,0.0335731,0.00293844,0.033756,-0.01364,1.50864,0.0281737,0.0325223,594,925,-140.651,-28.0155
-623,99,-141.072,26.8613,-0.0108862,0.025708,0.00318506,0.0259831,-0.0111613,1.48462,0.0220071,0.0198159,601,925,-141.072,-26.8613
-616,99,-141.147,25.6837,-0.00847083,0.0179715,0.00308584,0.0183268,-0.00882618,1.45615,0.0159935,0.0220806,608,925,-141.147,-25.6837
-609,99,-141.177,24.6456,-0.00630383,0.0103483,0.00272803,0.0107838,-0.00673936,1.41248,0.0102064,0.0138677,615,925,-141.177,-24.6456
-602,99,-141.255,23.5348,-0.00447851,0.00283059,0.00219448,0.00343884,-0.00508677,1.30041,0.00495282,0.0168842,622,925,-141.255,-23.5348
-595,99,-141.48,22.3567,-0.00309058,-0.00458209,0.00156551,-0.00210228,-0.0055704,0.563116,0.00324814,0.0224076,629,925,-141.481,-22.3567
-588,99,-141.546,21.1249,-0.00216162,-0.0117396,0.000741129,-0.00210461,-0.0117966,0.0767695,0.00726519,0.0238815,636,925,-141.546,-21.1249
-581,99,-141.681,19.7625,-0.00174584,-0.0186396,-0.000108895,-0.00174514,-0.0186403,-0.00644553,0.0118879,0.027149,643,925,-141.681,-19.7625
-574,99,-141.873,18.3684,0,0,0,0,0,0,0,-1,650,925,-141.873,-18.3684
-567,99,-50.5977,0.659485,0,0,0,0,0,0,0,-1,657,925,-50.5977,-0.659461
-560,99,-72.4919,0.276306,0,0,0,0,0,0,0,-1,664,925,-72.4919,-0.276328
-553,99,-72.5533,0.815918,0,0,0,0,0,0,0,-1,671,925,-72.5533,-0.815947
-546,99,-72.6324,0.722656,0,0,0,0,0,0,0,-1,678,925,-72.6324,-0.722639
-539,99,-72.7263,0.40863,0,0,0,0,0,0,0,-1,685,925,-72.7263,-0.408647
-532,99,-72.3987,0.165527,0,0,0,0,0,0,0,-1,692,925,-72.3988,-0.165522
-525,99,-72.4885,0.298767,0,0,0,0,0,0,0,-1,699,925,-72.4885,-0.29878
-518,99,-72.6053,0.533752,0,0,0,0,0,0,0,-1,706,925,-72.6053,-0.533766
-511,99,0,0,0,0,0,0,0,0,0,-1,713,925,0,0
-504,99,0,0,0,0,0,0,0,0,0,-1,720,925,0,0
-497,99,0,0,0,0,0,0,0,0,0,-1,727,925,0,0
-490,99,0,0,0,0,0,0,0,0,0,-1,734,925,0,0
-483,99,0,0,0,0,0,0,0,0,0,-1,741,925,0,0
-476,99,0,0,0,0,0,0,0,0,0,-1,748,925,0,0
-469,99,0,0,0,0,0,0,0,0,0,-1,755,925,0,0
-462,99,0,0,0,0,0,0,0,0,0,-1,762,925,0,0
-455,99,0,0,0,0,0,0,0,0,0,-1,769,925,0,0
-448,99,0,0,0,0,0,0,0,0,0,-1,776,925,0,0
-441,99,0,0,0,0,0,0,0,0,0,-1,783,925,0,0
-434,99,0,0,0,0,0,0,0,0,0,-1,790,925,0,0
-427,99,0,0,0,0,0,0,0,0,0,-1,797,925,0,0
-420,99,0,0,0,0,0,0,0,0,0,-1,804,925,0,0
-413,99,0,0,0,0,0,0,0,0,0,-1,811,925,0,0
-406,99,0,0,0,0,0,0,0,0,0,-1,818,925,0,0
-399,99,0,0,0,0,0,0,0,0,0,-1,825,925,0,0
-392,99,0,0,0,0,0,0,0,0,0,-1,832,925,0,0
-385,99,0,0,0,0,0,0,0,0,0,-1,839,925,0,0
-378,99,0,0,0,0,0,0,0,0,0,-1,846,925,0,0
-371,99,0,0,0,0,0,0,0,0,0,-1,853,925,0,0
-364,99,0,0,0,0,0,0,0,0,0,-1,860,925,0,0
-357,99,0,0,0,0,0,0,0,0,0,-1,867,925,0,0
-350,99,0,0,0,0,0,0,0,0,0,-1,874,925,0,0
-343,99,0,0,0,0,0,0,0,0,0,-1,881,925,0,0
-336,99,0,0,0,0,0,0,0,0,0,-1,888,925,0,0
-329,99,0,0,0,0,0,0,0,0,0,-1,895,925,0,0
-322,99,0,0,0,0,0,0,0,0,0,-1,902,925,0,0
-315,99,0,0,0,0,0,0,0,0,0,-1,909,925,0,0
-308,99,0,0,0,0,0,0,0,0,0,-1,916,925,0,0
-301,99,0,0,0,0,0,0,0,0,0,-1,923,925,0,0
-294,99,0,0,0,0,0,0,0,0,0,-1,930,925,0,0
-287,99,0,0,0,0,0,0,0,0,0,-1,937,925,0,0
-280,99,0,0,0,0,0,0,0,0,0,-1,944,925,0,0
-273,99,0,0,0,0,0,0,0,0,0,-1,951,925,0,0
-266,99,0,0,0,0,0,0,0,0,0,-1,958,925,0,0
-259,99,0,0,0,0,0,0,0,0,0,-1,965,925,0,0
-252,99,0,0,0,0,0,0,0,0,0,-1,972,925,0,0
-245,99,0,0,0,0,0,0,0,0,0,-1,979,925,0,0
-238,99,0,0,0,0,0,0,0,0,0,-1,986,925,0,0
-231,99,0,0,0,0,0,0,0,0,0,-1,993,925,0,0
-224,99,0,0,0,0,0,0,0,0,0,-1,1000,925,0,0
-217,99,0,0,0,0,0,0,0,0,0,-1,1007,925,0,0
-210,99,0,0,0,0,0,0,0,0,0,-1,1014,925,0,0
-203,99,0,0,0,0,0,0,0,0,0,-1,1021,925,0,0
-196,99,0,0,0,0,0,0,0,0,0,-1,1028,925,0,0
-189,99,0,0,0,0,0,0,0,0,0,-1,1035,925,0,0
-182,99,0,0,0,0,0,0,0,0,0,-1,1042,925,0,0
-175,99,0,0,0,0,0,0,0,0,0,-1,1049,925,0,0
-168,99,0,0,0,0,0,0,0,0,0,-1,1056,925,0,0
-161,99,0,0,0,0,0,0,0,0,0,-1,1063,925,0,0
-154,99,0,0,0,0,0,0,0,0,0,-1,1070,925,0,0
-147,99,0,0,0,0,0,0,0,0,0,-1,1077,925,0,0
-140,99,0,0,0,0,0,0,0,0,0,-1,1084,925,0,0
-133,99,0,0,0,0,0,0,0,0,0,-1,1091,925,0,0
-126,99,0,0,0,0,0,0,0,0,0,-1,1098,925,0,0
-119,99,0,0,0,0,0,0,0,0,0,-1,1105,925,0,0
-112,99,0,0,0,0,0,0,0,0,0,-1,1112,925,0,0
-105,99,0,0,0,0,0,0,0,0,0,-1,1119,925,0,0
-98,99,0,0,0,0,0,0,0,0,0,-1,1126,925,0,0
-91,99,0,0,0,0,0,0,0,0,0,-1,1133,925,0,0
-84,99,0,0,0,0,0,0,0,0,0,-1,1140,925,0,0
-77,99,0,0,0,0,0,0,0,0,0,-1,1147,925,0,0
-70,99,0,0,0,0,0,0,0,0,0,-1,1154,925,0,0
-63,99,0,0,0,0,0,0,0,0,0,-1,1161,925,0,0
-56,99,0,0,0,0,0,0,0,0,0,-1,1168,925,0,0
-49,99,0,0,0,0,0,0,0,0,0,-1,1175,925,0,0
-42,99,0,0,0,0,0,0,0,0,0,-1,1182,925,0,0
-35,99,0,0,0,0,0,0,0,0,0,-1,1189,925,0,0
-28,99,0,0,0,0,0,0,0,0,0,-1,1196,925,0,0
-21,99,0,0,0,0,0,0,0,0,0,-1,1203,925,0,0
-14,99,0,0,0,0,0,0,0,0,0,-1,1210,925,0,0
-7,99,0,0,0,0,0,0,0,0,0,-1,1217,925,0,0
0,99,0,0,0,0,0,0,0,0,0,-1,1224,925,0,0
7,99,0,0,0,0,0,0,0,0,0,-1,1231,925,0,0
14,99,0,0,0,0,0,0,0,0,0,-1,1238,925,0,0
21,99,0,0,0,0,0,0,0,0,0,-1,1245,925,0,0
28,99,0,0,0,0,0,0,0,0,0,-1,1252,925,0,0
35,99,0,0,0,0,0,0,0,0,0,-1,1259,925,0,0
42,99,0,0,0,0,0,0,0,0,0,-1,1266,925,0,0
49,99,0,0,0,0,0,0,0,0,0,-1,1273,925,0,0
56,99,0,0,0,0,0,0,0,0,0,-1,1280,925,0,0
63,99,0,0,0,0,0,0,0,0,0,-1,1287,925,0,0
70,99,0,0,0,0,0,0,0,0,0,-1,1294,925,0,0
77,99,0,0,0,0,0,0,0,0,0,-1,1301,925,0,0
84,99,0,0,0,0,0,0,0,0,0,-1,1308,925,0,0
91,99,0,0,0,0,0,0,0,0,0,-1,1315,925,0,0
98,99,0,0,0,0,0,0,0,0,0,-1,1322,925,0,0
105,99,0,0,0,0,0,0,0,0,0,-1,1329,925,0,0
112,99,0,0,0,0,0,0,0,0,0,-1,1336,925,0,0
119,99,0,0,0,0,0,0,0,0,0,-1,1343,925,0,0
126,99,0,0,0,0,0,0,0,0,0,-1,1350,925,0,0
133,99,0,0,0,0,0,0,0,0,0,-1,1357,925,0,0
140,99,0,0,0,0,0,0,0,0,0,-1,1364,925,0,0
147,99,0,0,0,0,0,0,0,0,0,-1,1371,925,0,0
154,99,0,0,0,0,0,0,0,0,0,-1,1378,925,0,0
161,99,0,0,0,0,0,0,0,0,0,-1,1385,925,0,0
168,99,0,0,0,0,0,0,0,0,0,-1,1392,925,0,0
175,99,0,0,0,0,0,0,0,0,0,-1,1399,925,0,0
182,99,0,0,0,0,0,0,0,0,0,-1,1406,925,0,0
189,99,0,0,0,0,0,0,0,0,0,-1,1413,925,0,0
196,99,0,0,0,0,0,0,0,0,0,-1,1420,925,0,0
203,99,0,0,0,0,0,0,0,0,0,-1,1427,925,0,0
210,99,0,0,0,0,0,0,0,0,0,-1,1434,925,0,0
217,99,0,0,0,0,0,0,0,0,0,-1,1441,925,0,0
224,99,0,0,0,0,0,0,0,0,0,-1,1448,925,0,0
231,99,0,0,0,0,0,0,0,0,0,-1,1455,925,0,0
238,99,0,0,0,0,0,0,0,0,0,-1,1462,925,0,0
245,99,0,0,0,0,0,0,0,0,0,-1,1469,925,0,0
252,99,0,0,0,0,0,0,0,0,0,-1,1476,925,0,0
259,99,0,0,0,0,0,0,0,0,0,-1,1483,925,0,0
266,99,0,0,0,0,0,0,0,0,0,-1,1490,925,0,0
273,99,0,0,0,0,0,0,0,0,0,-1,1497,925,0,0
280,99,0,0,0,0,0,0,0,0,0,-1,1504,925,0,0
287,99,0,0,0,0,0,0,0,0,0,-1,1511,925,0,0
294,99,0,0,0,0,0,0,0,0,0,-1,1518,925,0,0
301,99,0,0,0,0,0,0,0,0,0,-1,1525,925,0,0
308,99,0,0,0,0,0,0,0,0,0,-1,1532,925,0,0
315,99,0,0,0,0,0,0,0,0,0,-1,1539,925,0,0
322,99,0,0,0,0,0,0,0,0,0,-1,1546,925,0,0
329,99,0,0,0,0,0,0,0,0,0,-1,1553,925,0,0
336,99,0,0,0,0,0,0,0,0,0,-1,1560,925,0,0
343,99,0,0,0,0,0,0,0,0,0,-1,1567,925,0,0
350,99,0,0,0,0,0,0,0,0,0,-1,1574,925,0,0
357,99,0,0,0,0,0,0,0,0,0,-1,1581,925,0,0
364,99,0,0,0,0,0,0,0,0,0,-1,1588,925,0,0
371,99,0,0,0,0,0,0,0,0,0,-1,1595,925,0,0
378,99,0,0,0,0,0,0,0,0,0,-1,1602,925,0,0
385,99,0,0,0,0,0,0,0,0,0,-1,1609,925,0,0
392,99,0,0,0,0,0,0,0,0,0,-1,1616,925,0,0
399,99,0,0,0,0,0,0,0,0,0,-1,1623,925,0,0
406,99,0,0,0,0,0,0,0,0,0,-1,1630,925,0,0
413,99,0,0,0,0,0,0,0,0,0,-1,1637,925,0,0
420,99,0,0,0,0,0,0,0,0,0,-1,1644,925,0,0
427,99,0,0,0,0,0,0,0,0,0,-1,1651,925,0,0
434,99,0,0,0,0,0,0,0,0,0,-1,1658,925,0,0
441,99,0,0,0,0,0,0,0,0,0,-1,1665,925,0,0
448,99,0,0,0,0,0,0,0,0,0,-1,1672,925,0,0
455,99,0,0,0,0,0,0,0,0,0,-1,1679,925,0,0
462,99,0,0,0,0,0,0,0,0,0,-1,1686,925,0,0
469,99,0,0,0,0,0,0,0,0,0,-1,1693,925,0,0
476,99,0,0,0,0,0,0,0,0,0,-1,1700,925,0,0
483,99,0,0,0,0,0,0,0,0,0,-1,1707,925,0,0
490,99,0,0,0,0,0,0,0,0,0,-1,1714,925,0,0
497,99,0,0,0,0,0,0,0,0,0,-1,1721,925,0,0
504,99,0,0,0,0,0,0,0,0,0,-1,1728,925,0,0
511,99,0,0,0,0,0,0,0,0,0,-1,1735,925,0,0
518,99,0,0,0,0,0,0,0,0,0,-1,1742,925,0,0
525,99,0,0,0,0,0,0,0,0,0,-1,1749,925,0,0
532,99,0,0,0,0,0,0,0,0,0,-1,1756,925,0,0
539,99,0,0,0,0,0,0,0,0,0,-1,1763,925,0,0
546,99,0,0,0,0,0,0,0,0,0,-1,1770,925,0,0
553,99,0,0,0,0,0,0,0,0,0,-1,1777,925,0,0
560,99,0,0,0,0,0,0,0,0,0,-1,1784,925,0,0
567,99,0,0,0,0,0,0,0,0,0,-1,1791,925,0,0
574,99,0,0,0,0,0,0,0,0,0,-1,1798,925,0,0
581,99,0,0,0,0,0,0,0,0,0,-1,1805,925,0,0
588,99,0,0,0,0,0,0,0,0,0,-1,1812,925,0,0
595,99,0,0,0,0,0,0,0,0,0,-1,1819,925,0,0
602,99,0,0,0,0,0,0,0,0,0,-1,1826,925,0,0
609,99,0,0,0,0,0,0,0,0,0,-1,1833,925,0,0
616,99,0,0,0,0,0,0,0,0,0,-1,1840,925,0,0
623,99,0,0,0,0,0,0,0,0,0,-1,1847,925,0,0
630,99,0,0,0,0,0,0,0,0,0,-1,1854,925,0,0
637,99,159.41,5.48871,0,0,0,0,0,0,0,-1,1861,925,159.41,-5.4887
644,99,159.491,5.18024,0,0,0,0,0,0,0,-1,1868,925,159.491,-5.18022
651,99,159.396,5.20245,0,0,0,0,0,0,0,-1,1875,925,159.396,-5.20243
658,99,159.329,5.51996,0,0,0,0,0,0,0,-1,1882,925,159.329,-5.51993
665,99,159.288,5.65216,0,0,0,0,0,0,0,-1,1889,925,159.288,-5.65218
672,99,159.192,5.78864,0,0,0,0,0,0,0,-1,1896,925,159.192,-5.78866
679,99,159.181,5.63043,0,0,0,0,0,0,0,-1,1903,925,159.181,-5.63041
686,99,159.302,5.5423,0,0,0,0,0,0,0,-1,1910,925,159.302,-5.54232
693,99,159.392,5.59796,0,0,0,0,0,0,0,-1,1917,925,159.392,-5.59795
700,99,159.143,5.53363,0,0,0,0,0,0,0,-1,1924,925,159.143,-5.53361
707,99,151.81,18.288,0,0,0,0,0,0,0,-1,1931,925,151.81,-18.288
714,99,151.365,19.6179,-0.00459385,-0.0173909,0.00250893,-0.00411954,-0.0178652,0.186844,0.0108021,0.036035,1938,925,151.365,-19.6179
721,99,151.099,20.8527,-0.00681962,-0.0108036,0.000161001,-0.00681313,-0.0108101,0.0403247,0.0063114,0.0353031,1945,925,151.099,-20.8527
728,99,150.996,22.0345,-0.00941777,-0.00367262,-0.00150073,-0.00330423,-0.00978616,-1.33008,0.00574848,0.0307808,1952,925,150.996,-22.0345
735,99,150.904,23.1926,-0.012272,0.00349942,-0.00297334,0.00404135,-0.0128139,-1.39051,0.0101613,0.020421,1959,925,150.904,-23.1926
742,99,150.737,24.3347,-0.0152821,0.0107774,-0.00421154,0.0114412,-0.0159458,-1.41448,0.015883,0.0230324,1966,925,150.737,-24.3347
749,99,150.455,25.3874,-0.0184103,0.0181361,-0.00521601,0.0188659,-0.0191402,-1.43177,0.021943,0.021563,1973,925,150.455,-25.3874
756,99,150.243,26.4471,-0.0216244,0.0255456,-0.00598936,0.0262942,-0.022373,-1.44645,0.0281284,0.0194752,1980,925,150.243,-26.4472
763,99,150.125,27.5541,-0.0248981,0.0329708,-0.0065372,0.0337001,-0.0256274,-1.4597,0.0343583,0.0216513,1987,925,150.126,-27.5541
770,99,150.12,28.5849,-0.0286608,0.0406103,-0.00647832,0.0412109,-0.0292614,-1.47834,0.0408817,0.0479306,1994,925,150.12,-28.5849
777,99,150.219,29.4776,0,0,0,0,0,0,0,-1,2001,925,150.219,-29.4776
784,99,90.0874,14.4108,0,0,0,0,0,0,0,-1,2008,925,90.0873,-14.4108
791,99,91.6816,15.5447,0,0,0,0,0,0,0,-1,2015,925,91.6815,-15.5447
798,99,91.3784,14.3621,0,0,0,0,0,0,0,-1,2022,925,91.3783,-14.3621
805,99,0,0,0,0,0,0,0,0,0,-1,2029,925,0,0
812,99,0,0,0,0,0,0,0,0,0,-1,2036,925,0,0
-700,92,0,0,0,0,0,0,0,0,0,-1,524,932,0,0
-693,92,0,0,0,0,0,0,0,0,0,-1,531,932,0,0
-686,92,-71.6475,-3.3797,0,0,0,0,0,0,0,-1,538,932,-71.6475,3.3797
-679,92,-69.8624,-2.1322,0,0,0,0,0,0,0,-1,545,932,-69.8624,2.1322
-672,92,-59.2169,9.25281,0,0,0,0,0,0,0,-1,552,932,-59.2169,-9.25281
-665,92,-58.6809,9.84479,0,0,0,0,0,0,0,-1,559,932,-58.6809,-9.8448
-658,92,-58.4986,10.1044,0,0,0,0,0,0,0,-1,566,932,-58.4986,-10.1044
-651,92,-58.3638,10.0627,0,0,0,0,0,0,0,-1,573,932,-58.3637,-10.0627
-644,92,-100.671,21.8364,0,0,0,0,0,0,0,-1,580,932,-100.671,-21.8364
-637,92,-141.685,28.8862,0,0,0,0,0,0,0,-1,587,932,-141.685,-28.8861
-630,92,-141.903,27.8803,-0.0111388,0.0341531,0.00339841,0.0344066,-0.0113924,1.49632,0.0275324,0.0250941,594,932,-141.903,-27.8803
-623,92,-142.175,26.8649,-0.00886395,0.0256621,0.00347307,0.026008,-0.00920985,1.47153,0.0210899,0.0145085,601,932,-142.175,-26.8649
-616,92,-142.27,25.7919,-0.00668553,0.0173851,0.00320991,0.0178058,-0.00710624,1.44048,0.0148185,0.0129034,608,932,-142.27,-25.7919
-609,92,-142.34,24.6882,-0.0046897,0.00930077,0.00269487,0.00980191,-0.00519084,1.38694,0.00879147,0.0106195,615,932,-142.34,-24.6882
-602,92,-142.439,23.545,-0.0029645,0.00139528,0.002009,0.00217985,-0.00374907,1.19848,0.0034628,0.0129632,622,932,-142.439,-23.545
-595,92,-142.561,22.3096,-0.00160174,-0.00633786,0.00123065,-0.00130105,-0.00663854,0.239637,0.00406207,0.0218799,629,932,-142.561,-22.3096
-588,92,-142.581,21.1758,-0.000665244,-0.0136816,0.00020003,-0.000662171,-0.0136847,0.0153627,0.00891063,0.0296474,636,932,-142.581,-21.1759
-581,92,-143.322,20.0397,-0.000161355,-0.0207043,-0.00085343,-0.000125961,-0.0207397,-0.0414485,0.0137847,0.0455323,643,932,-143.322,-20.0397
-574,92,-144.175,18.6682,0,0,0,0,0,0,0,-1,650,932,-144.175,-18.6682
-567,92,-70.9372,0.522583,0,0,0,0,0,0,0,-1,657,932,-70.9372,-0.522612
-560,92,-72.371,0.383606,0,0,0,0,0,0,0,-1,664,932,-72.371,-0.383636
-553,92,-72.4481,0.722412,0,0,0,0,0,0,0,-1,671,932,-72.448,-0.722438
-546,92,-72.5264,0.623535,0,0,0,0,0,0,0,-1,678,932,-72.5265,-0.62354
-539,92,-72.5651,0.373596,0,0,0,0,0,0,0,-1,685,932,-72.5652,-0.373594
-532,92,-72.5598,0.387268,0,0,0,0,0,0,0,-1,692,932,-72.5598,-0.387249
-525,92,-72.5999,0.502197,0,0,0,0,0,0,0,-1,699,932,-72.5999,-0.502169
-518,92,-72.532,0.667786,0,0,0,0,0,0,0,-1,706,932,-72.532,-0.667758
-511,92,0,0,0,0,0,0,0,0,0,-1,713,932,0,0
-504,92,0,0,0,0,0,0,0,0,0,-1,720,932,0,0
-497,92,0,0,0,0,0,0,0,0,0,-1,727,932,0,0
-490,92,0,0,0,0,0,0,0,0,0,-1,734,932,0,0
-483,92,0,0,0,0,0,0,0,0,0,-1,741,932,0,0
-476,92,0,0,0,0,0,0,0,0,0,-1,748,932,0,0
-469,92,0,0,0,0,0,0,0,0,0,-1,755,932,0,0
-462,92,0,0,0,0,0,0,0,0,0,-1,762,932,0,0
-455,92,0,0,0,0,0,0,0,0,0,-1,769,932,0,0
-448,92,0,0,0,0,0,0,0,0,0,-1,776,932,0,0
-441,92,0,0,0,0,0,0,0,0,0,-1,783,932,0,0
-434,92,0,0,0,0,0,0,0,0,0,-1,790,932,0,0
-427,92,0,0,0,0,0,0,0,0,0,-1,797,932,0,0
-420,92,0,0,0,0,0,0,0,0,0,-1,804,932,0,0
-413,92,0,0,0,0,0,0,0,0,0,-1,811,932,0,0
-406,92,0,0,0,0,0,0,0,0,0,-1,818,932,0,0
-399,92,0,0,0,0,0,0,0,0,0,-1,825,932,0,0
-392,92,0,0,0,0,0,0,0,0,0,-1,832,932,0,0
-385,92,0,0,0,0,0,0,0,0,0,-1,839,932,0,0
-378,92,0,0,0,0,0,0,0,0,0,-1,846,932,0,0
-371,92,0,0,0,0,0,0,0,0,0,-1,853,932,0,0
-364,92,0,0,0,0,0,0,0,0,0,-1,860,932,0,0
-357,92,0,0,0,0,0,0,0,0,0,-1,867,932,0,0
-350,92,0,0,0,0,0,0,0,0,0,-1,874,932,0,0
-343,92,0,0,0,0,0,0,0,0,0,-1,881,932,0,0
-336,92,0,0,0,0,0,0,0,0,0,-1,888,932,0,0
-329,92,0,0,0,0,0,0,0,0,0,-1,895,932,0,0
-322,92,0,0,0,0,0,0,0,0,0,-1,902,932,0,0
-315,92,0,0,0,0,0,0,0,0,0,-1,909,932,0,0
-308,92,0,0,0,0,0,0,0,0,0,-1,916,932,0,0
-301,92,0,0,0,0,0,0,0,0,0,-1,923,932,0,0
-294,92,0,0,0,0,0,0,0,0,0,-1,930,932,0,0
-287,92,0,0,0,0,0,0,0,0,0,-1,937,932,0,0
-280,92,0,0,0,0,0,0,0,0,0,-1,944,932,0,0
-273,92,0,0,0,0,0,0,0,0,0,-1,951,932,0,0
-266,92,0,0,0,0,0,0,0,0,0,-1,958,932,0,0
-259,92,0,0,0,0,0,0,0,0,0,-1,965,932,0,0
-252,92,0,0,0,0,0,0,0,0,0,-1,972,932,0,0
-245,92,0,0,0,0,0,0,0,0,0,-1,979,932,0,0
-238,92,0,0,0,0,0,0,0,0,0,-1,986,932,0,0
-231,92,0,0,0,0,0,0,0,0,0,-1,993,932,0,0
-224,92,0,0,0,0,0,0,0,0,0,-1,1000,932,0,0
-217,92,0,0,0,0,0,0,0,0,0,-1,1007,932,0,0
-210,92,0,0,0,0,0,0,0,0,0,-1,1014,932,0,0
-203,92,0,0,0,0,0,0,0,0,0,-1,1021,932,0,0
-196,92,0,0,0,0,0,0,0,0,0,-1,1028,932,0,0
-189,92,0,0,0,0,0,0,0,0,0,-1,1035,932,0,0
-182,92,0,0,0,0,0,0,0,0,0,-1,1042,932,0,0
-175,92,0,0,0,0,0,0,0,0,0,-1,1049,932,0,0
-168,92,0,0,0,0,0,0,0,0,0,-1,1056,932,0,0
-161,92,0,0,0,0,0,0,0,0,0,-1,1063,932,0,0
-154,92,0,0,0,0,0,0,0,0,0,-1,1070,932,0,0
-147,92,0,0,0,0,0,0,0,0,0,-1,1077,932,0,0
-140,92,0,0,0,0,0,0,0,0,0,-1,1084,932,0,0
-133,92,0,0,0,0,0,0,0,0,0,-1,1091,932,0,0
-126,92,0,0,0,0,0,0,0,0,0,-1,1098,932,0,0
-119,92,0,0,0,0,0,0,0,0,0,-1,1105,932,0,0
-112,92,0,0,0,0,0,0,0,0,0,-1,1112,932,0,0
-105,92,0,0,0,0,0,0,0,0,0,-1,1119,932,0,0
-98,92,0,0,0,0,0,0,0,0,0,-1,1126,932,0,0
-91,92,0,0,0,0,0,0,0,0,0,-1,1133,932,0,0
-84,92,0,0,0,0,0,0,0,0,0,-1,1140,932,0,0
-77,92,0,0,0,0,0,0,0,0,0,-1,1147,932,0,0
-70,92,0,0,0,0,0,0,0,0,0,-1,1154,932,0,0
-63,92,0,0,0,0,0,0,0,0,0,-1,1161,932,0,0
-56,92,0,0,0,0,0,0,0,0,0,-1,1168,932,0,0
-49,92,0,0,0,0,0,0,0,0,0,-1,1175,932,0,0
-42,92,0,0,0,0,0,0,0,0,0,-1,1182,932,0,0
-35,92,0,0,0,0,0,0,0,0,0,-1,1189,932,0,0
-28,92,0,0,0,0,0,0,0,0,0,-1,1196,932,0,0
-21,92,0,0,0,0,0,0,0,0,0,-1,1203,932,0,0
-14,92,0,0,0,0,0,0,0,0,0,-1,1210,932,0,0
-7,92,0,0,0,0,0,0,0,0,0,-1,1217,932,0,0
0,92,0,0,0,0,0,0,0,0,0,-1,1224,932,0,0
7,92,0,0,0,0,0,0,0,0,0,-1,1231,932,0,0
14,92,0,0,0,0,0,0,0,0,0,-1,1238,932,0,0
21,92,0,0,0,0,0,0,0,0,0,-1,1245,932,0,0
28,92,0,0,0,0,0,0,0,0,0,-1,1252,932,0,0
35,92,0,0,0,0,0,0,0,0,0,-1,1259,932,0,0
42,92,0,0,0,0,0,0,0,0,0,-1,1266,932,0,0
49,92,0,0,0,0,0,0,0,0,0,-1,1273,932,0,0
56,92,0,0,0,0,0,0,0,0,0,-1,1280,932,0,0
63,92,0,0,0,0,0,0,0,0,0,-1,1287,932,0,0
70,92,0,0,0,0,0,0,0,0,0,-1,1294,932,0,0
77,92,0,0,0,0,0,0,0,0,0,-1,1301,932,0,0
84,92,0,0,0,0,0,0,0,0,0,-1,1308,932,0,0
91,92,0,0,0,0,0,0,0,0,0,-1,1315,932,0,0
98,92,0,0,0,0,0,0,0,0,0,-1,1322,932,0,0
105,92,0,0,0,0,0,0,0,0,0,-1,1329,932,0,0
112,92,0,0,0,0,0,0,0,0,0,-1,1336,932,0,0
119,92,0,0,0,0,0,0,0,0,0,-1,1343,932,0,0
126,92,0,0,0,0,0,0,0,0,0,-1,1350,932,0,0
133,92,0,0,0,0,0,0,0,0,0,-1,1357,932,0,0
140,92,0,0,0,0,0,0,0,0,0,-1,1364,932,0,0
147,92,0,0,0,0,0,0,0,0,0,-1,1371,932,0,0
154,92,0,0,0,0,0,0,0,0,0,-1,1378,932,0,0
161,92,0,0,0,0,0,0,0,0,0,-1,1385,932,0,0
168,92,0,0,0,0,0,0,0,0,0,-1,1392,932,0,0
175,92,0,0,0,0,0,0,0,0,0,-1,1399,932,0,0
182,92,0,0,0,0,0,0,0,0,0,-1,1406,932,0,0
189,92,0,0,0,0,0,0,0,0,0,-1,1413,932,0,0
196,92,0,0,0,0,0,0,0,0,0,-1,1420,932,0,0
203,92,0,0,0,0,0,0,0,0,0,-1,1427,932,0,0
210,92,0,0,0,0,0,0,0,0,0,-1,1434,932,0,0
217,92,0,0,0,0,0,0,0,0,0,-1,1441,932,0,0
224,92,0,0,0,0,0,0,0,0,0,-1,1448,932,0,0
231,92,0,0,0,0,0,0,0,0,0,-1,1455,932,0,0
238,92,0,0,0,0,0,0,0,0,0,-1,1462,932,0,0
245,92,0,0,0,0,0,0,0,0,0,-1,1469,932,0,0
252,92,0,0,0,0,0,0,0,0,0,-1,1476,932,0,0
259,92,0,0,0,0,0,0,0,0,0,-1,1483,932,0,0
266,92,0,0,0,0,0,0,0,0,0,-1,1490,932,0,0
273,92,0,0,0,0,0,0,0,0,0,-1,1497,932,0,0
280,92,0,0,0,0,0,0,0,0,0,-1,1504,932,0,0
287,92,0,0,0,0,0,0,0,0,0,-1,1511,932,0,0
294,92,0,0,0,0,0,0,0,0,0,-1,1518,932,0,0
301,92,0,0,0,0,0,0,0,0,0,-1,1525,932,0,0
308,92,0,0,0,0,0,0,0,0,0,-1,1532,932,0,0
315,92,0,0,0,0,0,0,0,0,0,-1,1539,932,0,0
322,92,0,0,0,0,0,0,0,0,0,-1,1546,932,0,0
329,92,0,0,0,0,0,0,0,0,0,-1,1553,932,0,0
336,92,0,0,0,0,0,0,0,0,0,-1,1560,932,0,0
343,92,0,0,0,0,0,0,0,0,0,-1,1567,932,0,0
350,92,0,0,0,0,0,0,0,0,0,-1,1574,932,0,0
357,92,0,0,0,0,0,0,0,0,0,-1,1581,932,0,0
364,92,0,0,0,0,0,0,0,0,0,-1,1588,932,0,0
371,92,0,0,0,0,0,0,0,0,0,-1,1595,932,0,0
378,92,0,0,0,0,0,0,0,0,0,-1,1602,932,0,0
385,92,0,0,0,0,0,0,0,0,0,-1,1609,932,0,0
392,92,0,0,0,0,0,0,0,0,0,-1,1616,932,0,0
399,92,0,0,0,0,0,0,0,0,0,-1,1623,932,0,0
406,92,0,0,0,0,0,0,0,0,0,-1,1630,932,0,0
413,92,0,0,0,0,0,0,0,0,0,-1,1637,932,0,0
420,92,0,0,0,0,0,0,0,0,0,-1,1644,932,0,0
427,92,0,0,0,0,0,0,0,0,0,-1,1651,932,0,0
434,92,0,0,0,0,0,0,0,0,0,-1,1658,932,0,0
441,92,0,0,0,0,0,0,0,0,0,-1,1665,932,0,0
448,92,0,0,0,0,0,0,0,0,0,-1,1672,932,0,0
455,92,0,0,0,0,0,0,0,0,0,-1,1679,932,0,0
462,92,0,0,0,0,0,0,0,0,0,-1,1686,932,0,0
469,92,0,0,0,0,0,0,0,0,0,-1,1693,932,0,0
476,92,0,0,0,0,0,0,0,0,0,-1,1700,932,0,0
483,92,0,0,0,0,0,0,0,0,0,-1,1707,932,0,0
490,92,0,0,0,0,0,0,0,0,0,-1,1714,932,0,0
497,92,0,0,0,0,0,0,0,0,0,-1,1721,932,0,0
504,92,0,0,0,0,0,0,0,0,0,-1,1728,932,0,0
511,92,0,0,0,0,0,0,0,0,0,-1,1735,932,0,0
518,92,0,0,0,0,0,0,0,0,0,-1,1742,932,0,0
525,92,0,0,0,0,0,0,0,0,0,-1,1749,932,0,0
532,92,0,0,0,0,0,0,0,0,0,-1,1756,932,0,0
539,92,0,0,0,0,0,0,0,0,0,-1,1763,932,0,0
546,92,0,0,0,0,0,0,0,0,0,-1,1770,932,0,0
553,92,0,0,0,0,0,0,0,0,0,-1,1777,932,0,0
560,92,0,0,0,0,0,0,0,0,0,-1,1784,932,0,0
567,92,0,0,0,0,0,0,0,0,0,-1,1791,932,0,0
574,92,0,0,0,0,0,0,0,0,0,-1,1798,932,0,0
581,92,0,0,0,0,0,0,0,0,0,-1,1805,932,0,0
588,92,0,0,0,0,0,0,0,0,0,-1,1812,932,0,0
595,92,0,0,0,0,0,0,0,0,0,-1,1819,932,0,0
602,92,0,0,0,0,0,0,0,0,0,-1,1826,932,0,0
609,92,0,0,0,0,0,0,0,0,0,-1,1833,932,0,0
616,92,0,0,0,0,0,0,0,0,0,-1,1840,932,0,0
623,92,0,0,0,0,0,0,0,0,0,-1,1847,932,0,0
630,92,0,0,0,0,0,0,0,0,0,-1,1854,932,0,0
637,92,159.355,5.11261,0,0,0,0,0,0,0,-1,1861,932,159.355,-5.11262
644,92,159.392,4.94873,0,0,0,0,0,0,0,-1,1868,932,159.392,-4.94875
651,92,159.337,5.11646,0,0,0,0,0,0,0,-1,1875,932,159.336,-5.11646
658,92,159.352,5.76807,0,0,0,0,0,0,0,-1,1882,932,159.352,-5.76804
665,92,159.334,5.74567,0,0,0,0,0,0,0,-1,1889,932,159.334,-5.74564
672,92,159.253,5.68579,0,0,0,0,0,0,0,-1,1896,932,159.253,-5.6858
679,92,159.225,5.57275,0,0,0,0,0,0,0,-1,1903,932,159.225,-5.57277
686,92,159.257,5.42773,0,0,0,0,0,0,0,-1,1910,932,159.257,-5.42775
693,92,159.36,5.58179,0,0,0,0,0,0,0,-1,1917,932,159.36,-5.58178
700,92,159.249,5.6322,0,0,0,0,0,0,0,-1,1924,932,159.249,-5.63223
707,92,140.011,15.4938,0,0,0,0,0,0,0,-1,1931,932,140.011,-15.4939
714,92,152.783,20.1636,0,0,0,0,0,0,0,-1,1938,932,152.783,-20.1636
721,92,152.358,21.1216,-0.00538132,-0.0130014,0.000365387,-0.00536384,-0.0130188,0.0478046,0.00755513,0.0353325,1945,932,152.358,-21.1216
728,92,152.159,22.2056,-0.00826143,-0.00560681,-0.0012043,-0.00514188,-0.00872636,-1.20237,0.00506484,0.0273945,1952,932,152.159,-22.2056
735,92,152.044,23.2842,-0.0114379,0.00177219,-0.00266042,0.00228785,-0.0119535,-1.37934,0.00883098,0.0233861,1959,932,152.044,-23.2842
742,92,152.006,24.372,-0.0147883,0.00925323,-0.00392942,0.00987917,-0.0154142,-1.41283,0.0147193,0.0325617,1966,932,152.006,-24.372
749,92,151.721,25.3879,-0.0182787,0.0168021,-0.00501639,0.0175053,-0.0189819,-1.43152,0.0210717,0.0286084,1973,932,151.721,-25.3879
756,92,151.452,26.3881,-0.0218814,0.0243786,-0.00592993,0.0251266,-0.0226294,-1.44531,0.0275845,0.0206341,1980,932,151.452,-26.388
763,92,151.345,27.4231,-0.0255746,0.0319354,-0.00668275,0.0327017,-0.0263409,-1.45662,0.0341541,0.0213709,1987,932,151.345,-27.4231
770,92,151.113,28.2724,-0.0297564,0.0396164,-0.00705142,0.0403259,-0.0304659,-1.47052,0.0410036,0.0385706,1994,932,151.113,-28.2724
777,92,150.824,29.0779,0,0,0,0,0,0,0,-1,2001,932,150.824,-29.0779
784,92,117.767,21.7665,0,0,0,0,0,0,0,-1,2008,932,117.767,-21.7665
791,92,95.6941,14.4346,0,0,0,0,0,0,0,-1,2015,932,95.694,-14.4346
798,92,92.6777,13.6,0,0,0,0,0,0,0,-1,2022,932,92.6777,-13.6
805,92,0,0,0,0,0,0,0,0,0,-1,2029,932,0,0
812,92,0,0,0,0,0,0,0,0,0,-1,2036,932,0,0
-700,85,0,0,0,0,0,0,0,0,0,-1,524,939,0,0
-693,85,0,0,0,0,0,0,0,0,0,-1,531,939,0,0
-686,85,-71.3799,-3.12042,0,0,0,0,0,0,0,-1,538,939,-71.3799,3.1204
-679,85,-70.2184,-2.08044,0,0,0,0,0,0,0,-1,545,939,-70.2184,2.08043
-672,85,-58.9819,8.30292,0,0,0,0,0,0,0,-1,552,939,-58.9819,-8.30292
-665,85,-58.5912,8.72552,0,0,0,0,0,0,0,-1,559,939,-58.5912,-8.7255
-658,85,-58.3745,8.90198,0,0,0,0,0,0,0,-1,566,939,-58.3745,-8.90199
-651,85,-58.5191,9.10278,0,0,0,0,0,0,0,-1,573,939,-58.5191,-9.1028
-644,85,-67.919,11.7991,0,0,0,0,0,0,0,-1,580,939,-67.919,-11.7991
-637,85,-142.985,28.7575,0,0,0,0,0,0,0,-1,587,939,-142.985,-28.7575
-630,85,-143.117,27.7113,-0.00953587,0.0338777,0.00323163,0.0341169,-0.00977511,1.4969,0.0266084,0.022153,594,939,-143.117,-27.7113
-623,85,-143.304,26.7355,-0.00741028,0.0249422,0.00327273,0.02527,-0.00773802,1.47099,0.0199331,0.0116977,601,939,-143.304,-26.7355
-616,85,-143.42,25.7408,-0.00533404,0.0162907,0.00297189,0.0166917,-0.00573503,1.43668,0.0134533,0.0124154,608,939,-143.42,-25.7408
-609,85,-143.532,24.6975,-0.00338064,0.00790124,0.00241385,0.00839601,-0.0038754,1.36863,0.00724337,0.0160897,615,939,-143.532,-24.6975
-602,85,-143.619,23.6463,-0.00162524,-0.000241826,0.00167786,0.000881315,-0.00274838,0.980912,0.00218607,0.0200346,622,939,-143.619,-23.6463
-595,85,-143.649,22.4822,-0.000147231,-0.008148,0.000840019,-5.9987e-05,-0.00823524,0.103489,0.00547027,0.0192733,629,939,-143.649,-22.4822
-588,85,-143.648,21.3542,0.000977366,-0.0155044,-0.000314914,0.000983381,-0.0155104,-0.0190975,0.0106832,0.0244501,636,939,-143.648,-21.3542
-581,85,-143.644,20.2593,0,0,0,0,0,0,0,-1,643,939,-143.644,-20.2593
-574,85,-138.281,18.2023,0,0,0,0,0,0,0,-1,650,939,-138.281,-18.2023
-567,85,-72.4246,0.480103,0,0,0,0,0,0,0,-1,657,939,-72.4246,-0.480077
-560,85,-72.3094,0.425659,0,0,0,0,0,0,0,-1,664,939,-72.3094,-0.425637
-553,85,-72.3888,0.423218,0,0,0,0,0,0,0,-1,671,939,-72.3888,-0.423207
-546,85,-72.4185,0.450989,0,0,0,0,0,0,0,-1,678,939,-72.4184,-0.450987
-539,85,-72.4494,0.444458,0,0,0,0,0,0,0,-1,685,939,-72.4494,-0.444476
-532,85,-72.5694,0.691101,0,0,0,0,0,0,0,-1,692,939,-72.5694,-0.691116
-525,85,-72.6234,0.690491,0,0,0,0,0,0,0,-1,699,939,-72.6234,-0.690502
-518,85,-72.5887,0.684326,0,0,0,0,0,0,0,-1,706,939,-72.5888,-0.684306
-511,85,0,0,0,0,0,0,0,0,0,-1,713,939,0,0
-504,85,0,0,0,0,0,0,0,0,0,-1,720,939,0,0
-497,85,0,0,0,0,0,0,0,0,0,-1,727,939,0,0
-490,85,0,0,0,0,0,0,0,0,0,-1,734,939,0,0
-483,85,0,0,0,0,0,0,0,0,0,-1,741,939,0,0
-476,85,0,0,0,0,0,0,0,0,0,-1,748,939,0,0
-469,85,0,0,0,0,0,0,0,0,0,-1,755,939,0,0
-462,85,0,0,0,0,0,0,0,0,0,-1,762,939,0,0
-455,85,0,0,0,0,0,0,0,0,0,-1,769,939,0,0
-448,85,0,0,0,0,0,0,0,0,0,-1,776,939,0,0
-441,85,0,0,0,0,0,0,0,0,0,-1,783,939,0,0
-434,85,0,0,0,0,0,0,0,0,0,-1,790,939,0,0
-427,85,0,0,0,0,0,0,0,0,0,-1,797,939,0,0
-420,85,0,0,0,0,0,0,0,0,0,-1,804,939,0,0
-413,85,0,0,0,0,0,0,0,0,0,-1,811,939,0,0
-406,85,0,0,0,0,0,0,0,0,0,-1,818,939,0,0
-399,85,0,0,0,0,0,0,0,0,0,-1,825,939,0,0
-392,85,0,0,0,0,0,0,0,0,0,-1,832,939,0,0
-385,85,0,0,0,0,0,0,0,0,0,-1,839,939,0,0
-378,85,0,0,0,0,0,0,0,0,0,-1,846,939,0,0
-371,85,0,0,0,0,0,0,0,0,0,-1,853,939,0,0
-364,85,0,0,0,0,0,0,0,0,0,-1,860,939,0,0
-357,85,0,0,0,0,0,0,0,0,0,-1,867,939,0,0
-350,85,0,0,0,0,0,0,0,0,0,-1,874,939,0,0
-343,85,0,0,0,0,0,0,0,0,0,-1,881,939,0,0
-336,85,0,0,0,0,0,0,0,0,0,-1,888,939,0,0
-329,85,0,0,0,0,0,0,0,0,0,-1,895,939,0,0
-322,85,0,0,0,0,0,0,0,0,0,-1,902,939,0,0
-315,85,0,0,0,0,0,0,0,0,0,-1,909,939,0,0
-308,85,0,0,0,0,0,0,0,0,0,-1,916,939,0,0
-301,85,0,0,0,0,0,0,0,0,0,-1,923,939,0,0
-294,85,0,0,0,0,0,0,0,0,0,-1,930,939,0,0
-287,85,0,0,0,0,0,0,0,0,0,-1,937,939,0,0
-280,85,0,0,0,0,0,0,0,0,0,-1,944,939,0,0
-273,85,0,0,0,0,0,0,0,0,0,-1,951,939,0,0
-266,85,0,0,0,0,0,0,0,0,0,-1,958,939,0,0
-259,85,0,0,0,0,0,0,0,0,0,-1,965,939,0,0
-252,85,0,0,0,0,0,0,0,0,0,-1,972,939,0,0
-245,85,0,0,0,0,0,0,0,0,0,-1,979,939,0,0
-238,85,0,0,0,0,0,0,0,0,0,-1,986,939,0,0
-231,85,0,0,0,0,0,0,0,0,0,-1,993,939,0,0
-224,85,0,0,0,0,0,0,0,0,0,-1,1000,939,0,0
-217,85,0,0,0,0,0,0,0,0,0,-1,1007,939,0,0
-210,85,0,0,0,0,0,0,0,0,0,-1,1014,939,0,0
-203,85,0,0,0,0,0,0,0,0,0,-1,1021,939,0,0
-196,85,0,0,0,0,0,0,0,0,0,-1,1028,939,0,0
-189,85,0,0,0,0,0,0,0,0,0,-1,1035,939,0,0
-182,85,0,0,0,0,0,0,0,0,0,-1,1042,939,0,0
-175,85,0,0,0,0,0,0,0,0,0,-1,1049,939,0,0
-168,85,0,0,0,0,0,0,0,0,0,-1,1056,939,0,0
-161,85,0,0,0,0,0,0,0,0,0,-1,1063,939,0,0
-154,85,0,0,0,0,0,0,0,0,0,-1,1070,939,0,0
-147,85,0,0,0,0,0,0,0,0,0,-1,1077,939,0,0
-140,85,0,0,0,0,0,0,0,0,0,-1,1084,939,0,0
-133,85,0,0,0,0,0,0,0,0,0,-1,1091,939,0,0
-126,85,0,0,0,0,0,0,0,0,0,-1,1098,939,0,0
-119,85,0,0,0,0,0,0,0,0,0,-1,1105,939,0,0
-112,85,0,0,0,0,0,0,0,0,0,-1,1112,939,0,0
-105,85,0,0,0,0,0,0,0,0,0,-1,1119,939,0,0
-98,85,0,0,0,0,0,0,0,0,0,-1,1126,939,0,0
-91,85,0,0,0,0,0,0,0,0,0,-1,1133,939,0,0
-84,85,0,0,0,0,0,0,0,0,0,-1,1140,939,0,0
-77,85,0,0,0,0,0,0,0,0,0,-1,1147,939,0,0
-70,85,0,0,0,0,0,0,0,0,0,-1,1154,939,0,0
-63,85,0,0,0,0,0,0,0,0,0,-1,1161,939,0,0
-56,85,0,0,0,0,0,0,0,0,0,-1,1168,939,0,0
-49,85,0,0,0,0,0,0,0,0,0,-1,1175,939,0,0
-42,85,0,0,0,0,0,0,0,0,0,-1,1182,939,0,0
-35,85,0,0,0,0,0,0,0,0,0,-1,1189,939,0,0
-28,85,0,0,0,0,0,0,0,0,0,-1,1196,939,0,0
-21,85,0,0,0,0,0,0,0,0,0,-1,1203,939,0,0
-14,85,0,0,0,0,0,0,0,0,0,-1,1210,939,0,0
-7,85,0,0,0,0,0,0,0,0,0,-1,1217,939,0,0
0,85,0,0,0,0,0,0,0,0,0,-1,1224,939,0,0
7,85,0,0,0,0,0,0,0,0,0,-1,1231,939,0,0
14,85,0,0,0,0,0,0,0,0,0,-1,1238,939,0,0
21,85,0,0,0,0,0,0,0,0,0,-1,1245,939,0,0
28,85,0,0,0,0,0,0,0,0,0,-1,1252,939,0,0
35,85,0,0,0,0,0,0,0,0,0,-1,1259,939,0,0
42,85,0,0,0,0,0,0,0,0,0,-1,1266,939,0,0
49,85,0,0,0,0,0,0,0,0,0,-1,1273,939,0,0
56,85,0,0,0,0,0,0,0,0,0,-1,1280,939,0,0
63,85,0,0,0,0,0,0,0,0,0,-1,1287,939,0,0
70,85,0,0,0,0,0,0,0,0,0,-1,1294,939,0,0
77,85,0,0,0,0,0,0,0,0,0,-1,1301,939,0,0
84,85,0,0,0,0,0,0,0,0,0,-1,1308,939,0,0
91,85,0,0,0,0,0,0,0,0,0,-1,1315,939,0,0
98,85,0,0,0,0,0,0,0,0,0,-1,1322,939,0,0
105,85,0,0,0,0,0,0,0,0,0,-1,1329,939,0,0
112,85,0,0,0,0,0,0,0,0,0,-1,1336,939,0,0
119,85,0,0,0,0,0,0,0,0,0,-1,1343,939,0,0
126,85,0,0,0,0,0,0,0,0,0,-1,1350,939,0,0
133,85,0,0,0,0,0,0,0,0,0,-1,1357,939,0,0
140,85,0,0,0,0,0,0,0,0,0,-1,1364,939,0,0
147,85,0,0,0,0,0,0,0,0,0,-1,1371,939,0,0
154,85,0,0,0,0,0,0,0,0,0,-1,1378,939,0,0
161,85,0,0,0,0,0,0,0,0,0,-1,1385,939,0,0
168,85,0,0,0,0,0,0,0,0,0,-1,1392,939,0,0
175,85,0,0,0,0,0,0,0,0,0,-1,1399,939,0,0
182,85,0,0,0,0,0,0,0,0,0,-1,1406,939,0,0
189,85,0,0,0,0,0,0,0,0,0,-1,1413,939,0,0
196,85,0,0,0,0,0,0,0,0,0,-1,1420,939,0,0
203,85,0,0,0,0,0,0,0,0,0,-1,1427,939,0,0
210,85,0,0,0,0,0,0,0,0,0,-1,1434,939,0,0
217,85,0,0,0,0,0,0,0,0,0,-1,1441,939,0,0
224,85,0,0,0,0,0,0,0,0,0,-1,1448,939,0,0
231,85,0,0,0,0,0,0,0,0,0,-1,1455,939,0,0
238,85,0,0,0,0,0,0,0,0,0,-1,1462,939,0,0
245,85,0,0,0,0,0,0,0,0,0,-1,1469,939,0,0
252,85,0,0,0,0,0,0,0,0,0,-1,1476,939,0,0
259,85,0,0,0,0,0,0,0,0,0,-1,1483,939,0,0
266,85,0,0,0,0,0,0,0,0,0,-1,1490,939,0,0
273,85,0,0,0,0,0,0,0,0,0,-1,1497,939,0,0
280,85,0,0,0,0,0,0,0,0,0,-1,1504,939,0,0
287,85,0,0,0,0,0,0,0,0,0,-1,1511,939,0,0
294,85,0,0,0,0,0,0,0,0,0,-1,1518,939,0,0
301,85,0,0,0,0,0,0,0,0,0,-1,1525,939,0,0
308,85,0,0,0,0,0,0,0,0,0,-1,1532,939,0,0
315,85,0,0,0,0,0,0,0,0,0,-1,1539,939,0,0
322,85,0,0,0,0,0,0,0,0,0,-1,1546,939,0,0
329,85,0,0,0,0,0,0,0,0,0,-1,1553,939,0,0
336,85,0,0,0,0,0,0,0,0,0,-1,1560,939,0,0
343,85,0,0,0,0,0,0,0,0,0,-1,1567,939,0,0
350,85,0,0,0,0,0,0,0,0,0,-1,1574,939,0,0
357,85,0,0,0,0,0,0,0,0,0,-1,1581,939,0,0
364,85,0,0,0,0,0,0,0,0,0,-1,1588,939,0,0
371,85,0,0,0,0,0,0,0,0,0,-1,1595,939,0,0
378,85,0,0,0,0,0,0,0,0,0,-1,1602,939,0,0
385,85,0,0,0,0,0,0,0,0,0,-1,1609,939,0,0
392,85,0,0,0,0,0,0,0,0,0,-1,1616,939,0,0
399,85,0,0,0,0,0,0,0,0,0,-1,1623,939,0,0
406,85,0,0,0,0,0,0,0,0,0,-1,1630,939,0,0
413,85,0,0,0,0,0,0,0,0,0,-1,1637,939,0,0
420,85,0,0,0,0,0,0,0,0,0,-1,1644,939,0,0
427,85,0,0,0,0,0,0,0,0,0,-1,1651,939,0,0
434,85,0,0,0,0,0,0,0,0,0,-1,1658,939,0,0
441,85,0,0,0,0,0,0,0,0,0,-1,1665,939,0,0
448,85,0,0,0,0,0,0,0,0,0,-1,1672,939,0,0
455,85,0,0,0,0,0,0,0,0,0,-1,1679,939,0,0
462,85,0,0,0,0,0,0,0,0,0,-1,1686,939,0,0
469,85,0,0,0,0,0,0,0,0,0,-1,1693,939,0,0
476,85,0,0,0,0,0,0,0,0,0,-1,1700,939,0,0
483,85,0,0,0,0,0,0,0,0,0,-1,1707,939,0,0
490,85,0,0,0,0,0,0,0,0,0,-1,1714,939,0,0
497,85,0,0,0,0,0,0,0,0,0,-1,1721,939,0,0
504,85,0,0,0,0,0,0,0,0,0,-1,1728,939,0,0
511,85,0,0,0,0,0,0,0,0,0,-1,1735,939,0,0
518,85,0,0,0,0,0,0,0,0,0,-1,1742,939,0,0
525,85,0,0,0,0,0,0,0,0,0,-1,1749,939,0,0
532,85,0,0,0,0,0,0,0,0,0,-1,1756,939,0,0
539,85,0,0,0,0,0,0,0,0,0,-1,1763,939,0,0
546,85,0,0,0,0,0,0,0,0,0,-1,1770,939,0,0
553,85,0,0,0,0,0,0,0,0,0,-1,1777,939,0,0
560,85,0,0,0,0,0,0,0,0,0,-1,1784,939,0,0
567,85,0,0,0,0,0,0,0,0,0,-1,1791,939,0,0
574,85,0,0,0,0,0,0,0,0,0,-1,1798,939,0,0
581,85,0,0,0,0,0,0,0,0,0,-1,1805,939,0,0
588,85,0,0,0,0,0,0,0,0,0,-1,1812,939,0,0
595,85,0,0,0,0,0,0,0,0,0,-1,1819,939,0,0
602,85,0,0,0,0,0,0,0,0,0,-1,1826,939,0,0
609,85,0,0,0,0,0,0,0,0,0,-1,1833,939,0,0
616,85,0,0,0,0,0,0,0,0,0,-1,1840,939,0,0
623,85,0,0,0,0,0,0,0,0,0,-1,1847,939,0,0
630,85,0,0,0,0,0,0,0,0,0,-1,1854,939,0,0
637,85,159.372,5.67145,0,0,0,0,0,0,0,-1,1861,939,159.372,-5.67145
644,85,159.31,5.16748,0,0,0,0,0,0,0,-1,1868,939,159.31,-5.1675
651,85,159.416,5.38141,0,0,0,0,0,0,0,-1,1875,939,159.416,-5.38143
658,85,159.308,5.25629,0,0,0,0,0,0,0,-1,1882,939,159.308,-5.2563
665,85,159.39,5.25415,0,0,0,0,0,0,0,-1,1889,939,159.39,-5.25413
672,85,159.575,5.34662,0,0,0,0,0,0,0,-1,1896,939,159.575,-5.34661
679,85,159.501,5.35931,0,0,0,0,0,0,0,-1,1903,939,159.501,-5.35929
686,85,159.285,5.41461,0,0,0,0,0,0,0,-1,1910,939,159.285,-5.41463
693,85,159.248,5.53625,0,0,0,0,0,0,0,-1,1917,939,159.248,-5.53623
700,85,159.283,5.59668,0,0,0,0,0,0,0,-1,1924,939,159.283,-5.59667
707,85,159.32,5.33923,0,0,0,0,0,0,0,-1,1931,939,159.32,-5.33923
714,85,153.875,20.1619,0,0,0,0,0,0,0,-1,1938,939,153.874,-20.1619
721,85,153.424,21.2903,0,0,0,0,0,0,0,-1,1945,939,153.424,-21.2903
728,85,153.209,22.4357,0,0,0,0,0,0,0,-1,1952,939,153.209,-22.4357
735,85,153.141,23.358,0,0,0,0,0,0,0,-1,1959,939,153.141,-23.3579
742,85,153.138,24.4064,-0.0142748,0.00766272,-0.00353351,0.00821782,-0.0148299,-1.41497,0.0134879,0.0385927,1966,939,153.138,-24.4064
749,85,152.871,25.3817,-0.0179891,0.0153966,-0.00469103,0.0160433,-0.0186358,-1.43382,0.0200406,0.0184479,1973,939,152.871,-25.3816
756,85,152.597,26.3309,-0.0218235,0.0231447,-0.00573487,0.0238645,-0.0225434,-1.44593,0.0267972,0.0154875,1980,939,152.597,-26.3309
763,85,152.421,27.2951,-0.0257591,0.030849,-0.00668276,0.0316273,-0.0265373,-1.45487,0.0336242,0.0169197,1987,939,152.421,-27.2951
770,85,152.006,28.2156,-0.0300941,0.0386113,-0.00741384,0.0394022,-0.030885,-1.46452,0.0406796,0.0319886,1994,939,152.006,-28.2156
777,85,151.363,29.1187,0,0,0,0,0,0,0,-1,2001,939,151.363,-29.1187
784,85,114.733,22.3542,0,0,0,0,0,0,0,-1,2008,939,114.733,-22.3543
791,85,108.085,18.0881,0,0,0,0,0,0,0,-1,2015,939,108.085,-18.0881
798,85,93.9771,12.838,0,0,0,0,0,0,0,-1,2022,939,93.9771,-12.838
805,85,67.4045,8.44751,0,0,0,0,0,0,0,-1,2029,939,67.4046,-8.4475
812,85,0,0,0,0,0,0,0,0,0,-1,2036,939,0,0
-700,78,0,0,0,0,0,0,0,0,0,-1,524,946,0,0
-693,78,0,0,0,0,0,0,0,0,0,-1,531,946,0,0
-686,78,-71.3092,-3.06555,0,0,0,0,0,0,0,-1,538,946,-71.3092,3.06553
-679,78,-70.2859,-2.42047,0,0,0,0,0,0,0,-1,545,946,-70.2859,2.42045
-672,78,-68.8298,-1.27698,0,0,0,0,0,0,0,-1,552,946,-68.8298,1.27699
-665,78,-58.3835,7.82446,0,0,0,0,0,0,0,-1,559,946,-58.3835,-7.82444
-658,78,-68.3195,14.526,0,0,0,0,0,0,0,-1,566,946,-68.3195,-14.526
-651,78,-57.2355,9.40192,0,0,0,0,0,0,0,-1,573,946,-57.2355,-9.40191
-644,78,-68.5534,11.7624,0,0,0,0,0,0,0,-1,580,946,-68.5534,-11.7624
-637,78,-144.245,28.3638,0,0,0,0,0,0,0,-1,587,946,-144.245,-28.3638
-630,78,-144.327,27.528,-0.00818122,0.033508,0.00300425,0.0337234,-0.00839661,1.49923,0.0257417,0.0285194,594,946,-144.327,-27.5279
-623,78,-144.388,26.6386,-0.00613285,0.0242789,0.00304485,0.0245808,-0.00643471,1.47198,0.0189008,0.0142108,601,946,-144.388,-26.6386
-616,78,-144.517,25.6775,-0.00406896,0.01536,0.00272738,0.0157356,-0.00444456,1.43394,0.0122438,0.0142192,608,946,-144.517,-25.6775
-609,78,-144.615,24.775,-0.00205449,0.00672882,0.00213847,0.0072218,-0.00254747,1.34422,0.00585155,0.0185525,615,946,-144.615,-24.775
-602,78,-144.62,23.7418,-0.000155203,-0.00163065,0.00135803,0.000652548,-0.00243841,0.536583,0.00188123,0.0217472,622,946,-144.62,-23.7417
-595,78,-144.593,22.7209,0.00155922,-0.00972829,0.000461446,0.00157806,-0.00974713,0.0407903,0.00708294,0.018284,629,946,-144.593,-22.7209
-588,78,-144.648,21.6703,0.00304979,-0.0171833,-0.000846708,0.00308517,-0.0172187,-0.0417504,0.0126337,0.0150175,636,946,-144.648,-21.6703
-581,78,-144.588,20.5583,0,0,0,0,0,0,0,-1,643,946,-144.588,-20.5583
-574,78,-144.478,19.4643,0,0,0,0,0,0,0,-1,650,946,-144.478,-19.4643
-567,78,-72.409,0.433167,0,0,0,0,0,0,0,-1,657,946,-72.409,-0.433163
-560,78,-72.4455,0.42749,0,0,0,0,0,0,0,-1,664,946,-72.4455,-0.427491
-553,78,-72.4747,0.470947,0,0,0,0,0,0,0,-1,671,946,-72.4747,-0.47097
-546,78,-72.4727,0.549438,0,0,0,0,0,0,0,-1,678,946,-72.4727,-0.549428
-539,78,-72.4183,0.590637,0,0,0,0,0,0,0,-1,685,946,-72.4183,-0.590633
-532,78,-72.4738,0.447388,0,0,0,0,0,0,0,-1,692,946,-72.4738,-0.447377
-525,78,-72.4651,0.455017,0,0,0,0,0,0,0,-1,699,946,-72.4652,-0.455003
-518,78,-72.4155,0.587219,0,0,0,0,0,0,0,-1,706,946,-72.4155,-0.587229
-511,78,0,0,0,0,0,0,0,0,0,-1,713,946,0,0
-504,78,0,0,0,0,0,0,0,0,0,-1,720,946,0,0
-497,78,0,0,0,0,0,0,0,0,0,-1,727,946,0,0
-490,78,0,0,0,0,0,0,0,0,0,-1,734,946,0,0
-483,78,0,0,0,0,0,0,0,0,0,-1,741,946,0,0
-476,78,0,0,0,0,0,0,0,0,0,-1,748,946,0,0
-469,78,0,0,0,0,0,0,0,0,0,-1,755,946,0,0
-462,78,0,0,0,0,0,0,0,0,0,-1,762,946,0,0
-455,78,0,0,0,0,0,0,0,0,0,-1,769,946,0,0
-448,78,0,0,0,0,0,0,0,0,0,-1,776,946,0,0
-441,78,0,0,0,0,0,0,0,0,0,-1,783,946,0,0
-434,78,0,0,0,0,0,0,0,0,0,-1,790,946,0,0
-427,78,0,0,0,0,0,0,0,0,0,-1,797,946,0,0
-420,78,0,0,0,0,0,0,0,0,0,-1,804,946,0,0
-413,78,0,0,0,0,0,0,0,0,0,-1,811,946,0,0
-406,78,0,0,0,0,0,0,0,0,0,-1,818,946,0,0
-399,78,0,0,0,0,0,0,0,0,0,-1,825,946,0,0
-392,78,0,0,0,0,0,0,0,0,0,-1,832,946,0,0
-385,78,0,0,0,0,0,0,0,0,0,-1,839,946,0,0
-378,78,0,0,0,0,0,0,0,0,0,-1,846,946,0,0
-371,78,0,0,0,0,0,0,0,0,0,-1,853,946,0,0
-364,78,0,0,0,0,0,0,0,0,0,-1,860,946,0,0
-357,78,0,0,0,0,0,0,0,0,0,-1,867,946,0,0
-350,78,0,0,0,0,0,0,0,0,0,-1,874,946,0,0
-343,78,0,0,0,0,0,0,0,0,0,-1,881,946,0,0
-336,78,0,0,0,0,0,0,0,0,0,-1,888,946,0,0
-329,78,0,0,0,0,0,0,0,0,0,-1,895,946,0,0
-322,78,0,0,0,0,0,0,0,0,0,-1,902,946,0,0
-315,78,0,0,0,0,0,0,0,0,0,-1,909,946,0,0
-308,78,0,0,0,0,0,0,0,0,0,-1,916,946,0,0
-301,78,0,0,0,0,0,0,0,0,0,-1,923,946,0,0
-294,78,0,0,0,0,0,0,0,0,0,-1,930,946,0,0
-287,78,0,0,0,0,0,0,0,0,0,-1,937,946,0,0
-280,78,0,0,0,0,0,0,0,0,0,-1,944,946,0,0
-273,78,0,0,0,0,0,0,0,0,0,-1,951,946,0,0
-266,78,0,0,0,0,0,0,0,0,0,-1,958,946,0,0
-259,78,0,0,0,0,0,0,0,0,0,-1,965,946,0,0
-252,78,0,0,0,0,0,0,0,0,0,-1,972,946,0,0
-245,78,0,0,0,0,0,0,0,0,0,-1,979,946,0,0
-238,78,0,0,0,0,0,0,0,0,0,-1,986,946,0,0
-231,78,0,0,0,0,0,0,0,0,0,-1,993,946,0,0
-224,78,0,0,0,0,0,0,0,0,0,-1,1000,946,0,0
-217,78,0,0,0,0,0,0,0,0,0,-1,1007,946,0,0
-210,78,0,0,0,0,0,0,0,0,0,-1,1014,946,0,0
-203,78,0,0,0,0,0,0,0,0,0,-1,1021,946,0,0
-196,78,0,0,0,0,0,0,0,0,0,-1,1028,946,0,0
-189,78,0,0,0,0,0,0,0,0,0,-1,1035,946,0,0
-182,78,0,0,0,0,0,0,0,0,0,-1,1042,946,0,0
-175,78,0,0,0,0,0,0,0,0,0,-1,1049,946,0,0
-168,78,0,0,0,0,0,0,0,0,0,-1,1056,946,0,0
-161,78,0,0,0,0,0,0,0,0,0,-1,1063,946,0,0
-154,78,0,0,0,0,0,0,0,0,0,-1,1070,946,0,0
-147,78,0,0,0,0,0,0,0,0,0,-1,1077,946,0,0
-140,78,0,0,0,0,0,0,0,0,0,-1,1084,946,0,0
-133,78,0,0,0,0,0,0,0,0,0,-1,1091,946,0,0
-126,78,0,0,0,0,0,0,0,0,0,-1,1098,946,0,0
-119,78,0,0,0,0,0,0,0,0,0,-1,1105,946,0,0
-112,78,0,0,0,0,0,0,0,0,0,-1,1112,946,0,0
-105,78,0,0,0,0,0,0,0,0,0,-1,1119,946,0,0
-98,78,0,0,0,0,0,0,0,0,0,-1,1126,946,0,0
-91,78,0,0,0,0,0,0,0,0,0,-1,1133,946,0,0
-84,78,0,0,0,0,0,0,0,0,0,-1,1140,946,0,0
-77,78,0,0,0,0,0,0,0,0,0,-1,1147,946,0,0
-70,78,0,0,0,0,0,0,0,0,0,-1,1154,946,0,0
-63,78,0,0,0,0,0,0,0,0,0,-1,1161,946,0,0
-56,78,0,0,0,0,0,0,0,0,0,-1,1168,946,0,0
-49,78,0,0,0,0,0,0,0,0,0,-1,1175,946,0,0
-42,78,0,0,0,0,0,0,0,0,0,-1,1182,946,0,0
-35,78,0,0,0,0,0,0,0,0,0,-1,1189,946,0,0
-28,78,0,0,0,0,0,0,0,0,0,-1,1196,946,0,0
-21,78,0,0,0,0,0,0,0,0,0,-1,1203,946,0,0
-14,78,0,0,0,0,0,0,0,0,0,-1,1210,946,0,0
-7,78,0,0,0,0,0,0,0,0,0,-1,1217,946,0,0
0,78,0,0,0,0,0,0,0,0,0,-1,1224,946,0,0
7,78,0,0,0,0,0,0,0,0,0,-1,1231,946,0,0
14,78,0,0,0,0,0,0,0,0,0,-1,1238,946,0,0
21,78,0,0,0,0,0,0,0,0,0,-1,1245,946,0,0
28,78,0,0,0,0,0,0,0,0,0,-1,1252,946,0,0
35,78,0,0,0,0,0,0,0,0,0,-1,1259,946,0,0
42,78,0,0,0,0,0,0,0,0,0,-1,1266,946,0,0
49,78,0,0,0,0,0,0,0,0,0,-1,1273,946,0,0
56,78,0,0,0,0,0,0,0,0,0,-1,1280,946,0,0
63,78,0,0,0,0,0,0,0,0,0,-1,1287,946,0,0
70,78,0,0,0,0,0,0,0,0,0,-1,1294,946,0,0
77,78,0,0,0,0,0,0,0,0,0,-1,1301,946,0,0
84,78,0,0,0,0,0,0,0,0,0,-1,1308,946,0,0
91,78,0,0,0,0,0,0,0,0,0,-1,1315,946,0,0
98,78,0,0,0,0,0,0,0,0,0,-1,1322,946,0,0
105,78,0,0,0,0,0,0,0,0,0,-1,1329,946,0,0
112,78,0,0,0,0,0,0,0,0,0,-1,1336,946,0,0
119,78,0,0,0,0,0,0,0,0,0,-1,1343,946,0,0
126,78,0,0,0,0,0,0,0,0,0,-1,1350,946,0,0
133,78,0,0,0,0,0,0,0,0,0,-1,1357,946,0,0
140,78,0,0,0,0,0,0,0,0,0,-1,1364,946,0,0
147,78,0,0,0,0,0,0,0,0,0,-1,1371,946,0,0
154,78,0,0,0,0,0,0,0,0,0,-1,1378,946,0,0
161,78,0,0,0,0,0,0,0,0,0,-1,1385,946,0,0
168,78,0,0,0,0,0,0,0,0,0,-1,1392,946,0,0
175,78,0,0,0,0,0,0,0,0,0,-1,1399,946,0,0
182,78,0,0,0,0,0,0,0,0,0,-1,1406,946,0,0
189,78,0,0,0,0,0,0,0,0,0,-1,1413,946,0,0
196,78,0,0,0,0,0,0,0,0,0,-1,1420,946,0,0
203,78,0,0,0,0,0,0,0,0,0,-1,1427,946,0,0
210,78,0,0,0,0,0,0,0,0,0,-1,1434,946,0,0
217,78,0,0,0,0,0,0,0,0,0,-1,1441,946,0,0
224,78,0,0,0,0,0,0,0,0,0,-1,1448,946,0,0
231,78,0,0,0,0,0,0,0,0,0,-1,1455,946,0,0
238,78,0,0,0,0,0,0,0,0,0,-1,1462,946,0,0
245,78,0,0,0,0,0,0,0,0,0,-1,1469,946,0,0
252,78,0,0,0,0,0,0,0,0,0,-1,1476,946,0,0
259,78,0,0,0,0,0,0,0,0,0,-1,1483,946,0,0
266,78,0,0,0,0,0,0,0,0,0,-1,1490,946,0,0
273,78,0,0,0,0,0,0,0,0,0,-1,1497,946,0,0
280,78,0,0,0,0,0,0,0,0,0,-1,1504,946,0,0
287,78,0,0,0,0,0,0,0,0,0,-1,1511,946,0,0
294,78,0,0,0,0,0,0,0,0,0,-1,1518,946,0,0
301,78,0,0,0,0,0,0,0,0,0,-1,1525,946,0,0
308,78,0,0,0,0,0,0,0,0,0,-1,1532,946,0,0
315,78,0,0,0,0,0,0,0,0,0,-1,1539,946,0,0
322,78,0,0,0,0,0,0,0,0,0,-1,1546,946,0,0
329,78,0,0,0,0,0,0,0,0,0,-1,1553,946,0,0
336,78,0,0,0,0,0,0,0,0,0,-1,1560,946,0,0
343,78,0,0,0,0,0,0,0,0,0,-1,1567,946,0,0
350,78,0,0,0,0,0,0,0,0,0,-1,1574,946,0,0
357,78,0,0,0,0,0,0,0,0,0,-1,1581,946,0,0
364,78,0,0,0,0,0,0,0,0,0,-1,1588,946,0,0
371,78,0,0,0,0,0,0,0,0,0,-1,1595,946,0,0
378,78,0,0,0,0,0,0,0,0,0,-1,1602,946,0,0
385,78,0,0,0,0,0,0,0,0,0,-1,1609,946,0,0
392,78,0,0,0,0,0,0,0,0,0,-1,1616,946,0,0
399,78,0,0,0,0,0,0,0,0,0,-1,1623,946,0,0
406,78,0,0,0,0,0,0,0,0,0,-1,1630,946,0,0
413,78,0,0,0,0,0,0,0,0,0,-1,1637,946,0,0
420,78,0,0,0,0,0,0,0,0,0,-1,1644,946,0,0
427,78,0,0,0,0,0,0,0,0,0,-1,1651,946,0,0
434,78,0,0,0,0,0,0,0,0,0,-1,1658,946,0,0
441,78,0,0,0,0,0,0,0,0,0,-1,1665,946,0,0
448,78,0,0,0,0,0,0,0,0,0,-1,1672,946,0,0
455,78,0,0,0,0,0,0,0,0,0,-1,1679,946,0,0
462,78,0,0,0,0,0,0,0,0,0,-1,1686,946,0,0
469,78,0,0,0,0,0,0,0,0,0,-1,1693,946,0,0
476,78,0,0,0,0,0,0,0,0,0,-1,1700,946,0,0
483,78,0,0,0,0,0,0,0,0,0,-1,1707,946,0,0
490,78,0,0,0,0,0,0,0,0,0,-1,1714,946,0,0
497,78,0,0,0,0,0,0,0,0,0,-1,1721,946,0,0
504,78,0,0,0,0,0,0,0,0,0,-1,1728,946,0,0
511,78,0,0,0,0,0,0,0,0,0,-1,1735,946,0,0
518,78,0,0,0,0,0,0,0,0,0,-1,1742,946,0,0
525,78,0,0,0,0,0,0,0,0,0,-1,1749,946,0,0
532,78,0,0,0,0,0,0,0,0,0,-1,1756,946,0,0
539,78,0,0,0,0,0,0,0,0,0,-1,1763,946,0,0
546,78,0,0,0,0,0,0,0,0,0,-1,1770,946,0,0
553,78,0,0,0,0,0,0,0,0,0,-1,1777,946,0,0
560,78,0,0,0,0,0,0,0,0,0,-1,1784,946,0,0
567,78,0,0,0,0,0,0,0,0,0,-1,1791,946,0,0
574,78,0,0,0,0,0,0,0,0,0,-1,1798,946,0,0
581,78,0,0,0,0,0,0,0,0,0,-1,1805,946,0,0
588,78,0,0,0,0,0,0,0,0,0,-1,1812,946,0,0
595,78,0,0,0,0,0,0,0,0,0,-1,1819,946,0,0
602,78,0,0,0,0,0,0,0,0,0,-1,1826,946,0,0
609,78,0,0,0,0,0,0,0,0,0,-1,1833,946,0,0
616,78,0,0,0,0,0,0,0,0,0,-1,1840,946,0,0
623,78,0,0,0,0,0,0,0,0,0,-1,1847,946,0,0
630,78,0,0,0,0,0,0,0,0,0,-1,1854,946,0,0
637,78,159.279,5.5755,0,0,0,0,0,0,0,-1,1861,946,159.279,-5.57549
644,78,159.442,5.59906,0,0,0,0,0,0,0,-1,1868,946,159.442,-5.59907
651,78,159.5,5.42987,0,0,0,0,0,0,0,-1,1875,946,159.5,-5.4299
658,78,159.386,5.23285,0,0,0,0,0,0,0,-1,1882,946,159.386,-5.23287
665,78,159.384,5.14569,0,0,0,0,0,0,0,-1,1889,946,159.384,-5.14571
672,78,159.598,5.39648,0,0,0,0,0,0,0,-1,1896,946,159.598,-5.39649
679,78,159.563,5.36072,0,0,0,0,0,0,0,-1,1903,946,159.563,-5.3607
686,78,159.312,5.29785,0,0,0,0,0,0,0,-1,1910,946,159.312,-5.29784
693,78,159.235,5.37671,0,0,0,0,0,0,0,-1,1917,946,159.235,-5.37669
700,78,159.249,5.46729,0,0,0,0,0,0,0,-1,1924,946,159.249,-5.46726
707,78,158.921,6.08954,0,0,0,0,0,0,0,-1,1931,946,158.921,-6.08954
714,78,154.893,20.1406,0,0,0,0,0,0,0,-1,1938,946,154.893,-20.1406
721,78,154.381,21.3569,0,0,0,0,0,0,0,-1,1945,946,154.381,-21.3569
728,78,153.869,22.5732,0,0,0,0,0,0,0,-1,1952,946,153.869,-22.5732
735,78,154.434,23.4977,0,0,0,0,0,0,0,-1,1959,946,154.434,-23.4977
742,78,154.188,24.3147,-0.0135085,0.00598139,-0.00312796,0.0064711,-0.0139982,-1.4155,0.0120813,0.0418207,1966,946,154.188,-24.3147
749,78,153.896,25.3602,-0.0175,0.0139378,-0.00437377,0.0145349,-0.0180971,-1.4351,0.0188775,0.0211064,1973,946,153.896,-25.3603
756,78,153.73,26.2378,-0.0216197,0.0219104,-0.00554023,0.0226044,-0.0223138,-1.44617,0.0259337,0.0190473,1980,946,153.73,-26.2378
763,78,153.505,27.1374,-0.0258512,0.0298314,-0.00664444,0.0306133,-0.0266331,-1.45366,0.0330778,0.0248492,1987,946,153.505,-27.1374
770,78,153.118,28.0494,-0.0303961,0.0377766,-0.00761199,0.0386162,-0.0312357,-1.46094,0.040404,0.0363071,1994,946,153.118,-28.0494
777,78,152.409,28.9561,0,0,0,0,0,0,0,-1,2001,946,152.409,-28.9561
784,78,152.469,29.9208,0,0,0,0,0,0,0,-1,2008,946,152.47,-29.9208
791,78,151.799,29.0956,0,0,0,0,0,0,0,-1,2015,946,151.798,-29.0956
798,78,70.8296,7.99933,0,0,0,0,0,0,0,-1,2022,946,70.8295,-7.99931
805,78,68.5852,7.34106,0,0,0,0,0,0,0,-1,2029,946,68.5853,-7.34105
812,78,0,0,0,0,0,0,0,0,0,-1,2036,946,0,0
-700,71,0,0,0,0,0,0,0,0,0,-1,524,953,0,0
-693,71,0,0,0,0,0,0,0,0,0,-1,531,953,0,0
-686,71,-71.189,-2.98248,0,0,0,0,0,0,0,-1,538,953,-71.189,2.98245
-679,71,-70.2738,-2.17017,0,0,0,0,0,0,0,-1,545,953,-70.2738,2.17015
-672,71,-69.1418,-1.21301,0,0,0,0,0,0,0,-1,552,953,-69.1418,1.21302
-665,71,-68.7411,12.514,0,0,0,0,0,0,0,-1,559,953,-68.7411,-12.514
-658,71,-68.6742,12.8325,0,0,0,0,0,0,0,-1,566,953,-68.6741,-12.8325
-651,71,-68.4807,12.0637,0,0,0,0,0,0,0,-1,573,953,-68.4807,-12.0637
-644,71,-145.899,29.3624,0,0,0,0,0,0,0,-1,580,953,-145.899,-29.3624
-637,71,-145.474,28.3342,-0.00946446,0.0430639,0.00261033,0.0431933,-0.00959386,1.52127,0.0324695,0.0432254,587,953,-145.474,-28.3342
-630,71,-145.318,27.4109,-0.00709956,0.0329508,0.00287525,0.0331561,-0.00730492,1.49949,0.0248989,0.0234505,594,953,-145.318,-27.411
-623,71,-145.389,26.5716,-0.00517682,0.0234487,0.002879,0.0237353,-0.00546351,1.47155,0.0179245,0.0176048,601,953,-145.389,-26.5716
-616,71,-145.505,25.6208,-0.00321483,0.014275,0.0025231,0.0146317,-0.00357154,1.43035,0.0111375,0.0173126,608,953,-145.505,-25.6208
-609,71,-145.553,24.6464,-0.00126322,0.00540554,0.00189336,0.0059056,-0.00176328,1.31258,0.00463793,0.0206447,615,953,-145.553,-24.6464
-602,71,-145.573,23.7879,0.000629564,-0.00317665,0.00106775,0.000908636,-0.00345572,0.255646,0.00265895,0.0207786,622,953,-145.573,-23.7879
-595,71,-145.613,22.9064,0.0024135,-0.0114817,0.000118393,0.00241451,-0.0114827,0.00851961,0.00857404,0.0216647,629,953,-145.613,-22.9064
-588,71,-145.601,21.9636,0.00408193,-0.019057,-0.00134447,0.00415979,-0.0191349,-0.0578448,0.0143457,0.0248586,636,953,-145.601,-21.9636
-581,71,-145.427,20.8345,0,0,0,0,0,0,0,-1,643,953,-145.427,-20.8345
-574,71,-72.4724,0.236389,0,0,0,0,0,0,0,-1,650,953,-72.4724,-0.236367
-567,71,-72.4236,0.345825,0,0,0,0,0,0,0,-1,657,953,-72.4236,-0.345807
-560,71,-72.4896,0.420471,0,0,0,0,0,0,0,-1,664,953,-72.4896,-0.420502
-553,71,-72.5439,0.572449,0,0,0,0,0,0,0,-1,671,953,-72.5439,-0.572455
-546,71,-72.5021,0.74353,0,0,0,0,0,0,0,-1,678,953,-72.5022,-0.743537
-539,71,-72.4401,0.409424,0,0,0,0,0,0,0,-1,685,953,-72.4401,-0.409447
-532,71,-72.476,0.163879,0,0,0,0,0,0,0,-1,692,953,-72.4759,-0.163905
-525,71,-72.3993,0.277771,0,0,0,0,0,0,0,-1,699,953,-72.3993,-0.277776
-518,71,0,0,0,0,0,0,0,0,0,-1,706,953,0,0
-511,71,0,0,0,0,0,0,0,0,0,-1,713,953,0,0
-504,71,0,0,0,0,0,0,0,0,0,-1,720,953,0,0
-497,71,0,0,0,0,0,0,0,0,0,-1,727,953,0,0
-490,71,0,0,0,0,0,0,0,0,0,-1,734,953,0,0
-483,71,0,0,0,0,0,0,0,0,0,-1,741,953,0,0
-476,71,0,0,0,0,0,0,0,0,0,-1,748,953,0,0
-469,71,0,0,0,0,0,0,0,0,0,-1,755,953,0,0
-462,71,0,0,0,0,0,0,0,0,0,-1,762,953,0,0
-455,71,0,0,0,0,0,0,0,0,0,-1,769,953,0,0
-448,71,0,0,0,0,0,0,0,0,0,-1,776,953,0,0
-441,71,0,0,0,0,0,0,0,0,0,-1,783,953,0,0
-434,71,0,0,0,0,0,0,0,0,0,-1,790,953,0,0
-427,71,0,0,0,0,0,0,0,0,0,-1,797,953,0,0
-420,71,0,0,0,0,0,0,0,0,0,-1,804,953,0,0
-413,71,0,0,0,0,0,0,0,0,0,-1,811,953,0,0
-406,71,0,0,0,0,0,0,0,0,0,-1,818,953,0,0
-399,71,0,0,0,0,0,0,0,0,0,-1,825,953,0,0
-392,71,0,0,0,0,0,0,0,0,0,-1,832,953,0,0
-385,71,0,0,0,0,0,0,0,0,0,-1,839,953,0,0
-378,71,0,0,0,0,0,0,0,0,0,-1,846,953,0,0
-371,71,0,0,0,0,0,0,0,0,0,-1,853,953,0,0
-364,71,0,0,0,0,0,0,0,0,0,-1,860,953,0,0
-357,71,0,0,0,0,0,0,0,0,0,-1,867,953,0,0
-350,71,0,0,0,0,0,0,0,0,0,-1,874,953,0,0
-343,71,0,0,0,0,0,0,0,0,0,-1,881,953,0,0
-336,71,0,0,0,0,0,0,0,0,0,-1,888,953,0,0
-329,71,0,0,0,0,0,0,0,0,0,-1,895,953,0,0
-322,71,0,0,0,0,0,0,0,0,0,-1,902,953,0,0
-315,71,0,0,0,0,0,0,0,0,0,-1,909,953,0,0
-308,71,0,0,0,0,0,0,0,0,0,-1,916,953,0,0
-301,71,0,0,0,0,0,0,0,0,0,-1,923,953,0,0
-294,71,0,0,0,0,0,0,0,0,0,-1,930,953,0,0
-287,71,0,0,0,0,0,0,0,0,0,-1,937,953,0,0
-280,71,0,0,0,0,0,0,0,0,0,-1,944,953,0,0
-273,71,0,0,0,0,0,0,0,0,0,-1,951,953,0,0
-266,71,0,0,0,0,0,0,0,0,0,-1,958,953,0,0
-259,71,0,0,0,0,0,0,0,0,0,-1,965,953,0,0
-252,71,0,0,0,0,0,0,0,0,0,-1,972,953,0,0
-245,71,0,0,0,0,0,0,0,0,0,-1,979,953,0,0
-238,71,0,0,0,0,0,0,0,0,0,-1,986,953,0,0
-231,71,0,0,0,0,0,0,0,0,0,-1,993,953,0,0
-224,71,0,0,0,0,0,0,0,0,0,-1,1000,953,0,0
-217,71,0,0,0,0,0,0,0,0,0,-1,1007,953,0,0
-210,71,0,0,0,0,0,0,0,0,0,-1,1014,953,0,0
-203,71,0,0,0,0,0,0,0,0,0,-1,1021,953,0,0
-196,71,0,0,0,0,0,0,0,0,0,-1,1028,953,0,0
-189,71,0,0,0,0,0,0,0,0,0,-1,1035,953,0,0
-182,71,0,0,0,0,0,0,0,0,0,-1,1042,953,0,0
-175,71,0,0,0,0,0,0,0,0,0,-1,1049,953,0,0
-168,71,0,0,0,0,0,0,0,0,0,-1,1056,953,0,0
-161,71,0,0,0,0,0,0,0,0,0,-1,1063,953,0,0
-154,71,0,0,0,0,0,0,0,0,0,-1,1070,953,0,0
-147,71,0,0,0,0,0,0,0,0,0,-1,1077,953,0,0
-140,71,0,0,0,0,0,0,0,0,0,-1,1084,953,0,0
-133,71,0,0,0,0,0,0,0,0,0,-1,1091,953,0,0
-126,71,0,0,0,0,0,0,0,0,0,-1,1098,953,0,0
-119,71,0,0,0,0,0,0,0,0,0,-1,1105,953,0,0
-112,71,0,0,0,0,0,0,0,0,0,-1,1112,953,0,0
-105,71,0,0,0,0,0,0,0,0,0,-1,1119,953,0,0
-98,71,0,0,0,0,0,0,0,0,0,-1,1126,953,0,0
-91,71,0,0,0,0,0,0,0,0,0,-1,1133,953,0,0
-84,71,0,0,0,0,0,0,0,0,0,-1,1140,953,0,0
-77,71,0,0,0,0,0,0,0,0,0,-1,1147,953,0,0
-70,71,0,0,0,0,0,0,0,0,0,-1,1154,953,0,0
-63,71,0,0,0,0,0,0,0,0,0,-1,1161,953,0,0
-56,71,0,0,0,0,0,0,0,0,0,-1,1168,953,0,0
-49,71,0,0,0,0,0,0,0,0,0,-1,1175,953,0,0
-42,71,0,0,0,0,0,0,0,0,0,-1,1182,953,0,0
-35,71,0,0,0,0,0,0,0,0,0,-1,1189,953,0,0
-28,71,0,0,0,0,0,0,0,0,0,-1,1196,953,0,0
-21,71,0,0,0,0,0,0,0,0,0,-1,1203,953,0,0
-14,71,0,0,0,0,0,0,0,0,0,-1,1210,953,0,0
-7,71,0,0,0,0,0,0,0,0,0,-1,1217,953,0,0
0,71,0,0,0,0,0,0,0,0,0,-1,1224,953,0,0
7,71,0,0,0,0,0,0,0,0,0,-1,1231,953,0,0
14,71,0,0,0,0,0,0,0,0,0,-1,1238,953,0,0
21,71,0,0,0,0,0,0,0,0,0,-1,1245,953,0,0
28,71,0,0,0,0,0,0,0,0,0,-1,1252,953,0,0
35,71,0,0,0,0,0,0,0,0,0,-1,1259,953,0,0
42,71,0,0,0,0,0,0,0,0,0,-1,1266,953,0,0
49,71,0,0,0,0,0,0,0,0,0,-1,1273,953,0,0
56,71,0,0,0,0,0,0,0,0,0,-1,1280,953,0,0
63,71,0,0,0,0,0,0,0,0,0,-1,1287,953,0,0
70,71,0,0,0,0,0,0,0,0,0,-1,1294,953,0,0
77,71,0,0,0,0,0,0,0,0,0,-1,1301,953,0,0
84,71,0,0,0,0,0,0,0,0,0,-1,1308,953,0,0
91,71,0,0,0,0,0,0,0,0,0,-1,1315,953,0,0
98,71,0,0,0,0,0,0,0,0,0,-1,1322,953,0,0
105,71,0,0,0,0,0,0,0,0,0,-1,1329,953,0,0
112,71,0,0,0,0,0,0,0,0,0,-1,1336,953,0,0
119,71,0,0,0,0,0,0,0,0,0,-1,1343,953,0,0
126,71,0,0,0,0,0,0,0,0,0,-1,1350,953,0,0
133,71,0,0,0,0,0,0,0,0,0,-1,1357,953,0,0
140,71,0,0,0,0,0,0,0,0,0,-1,1364,953,0,0
147,71,0,0,0,0,0,0,0,0,0,-1,1371,953,0,0
154,71,0,0,0,0,0,0,0,0,0,-1,1378,953,0,0
161,71,0,0,0,0,0,0,0,0,0,-1,1385,953,0,0
168,71,0,0,0,0,0,0,0,0,0,-1,1392,953,0,0
175,71,0,0,0,0,0,0,0,0,0,-1,1399,953,0,0
182,71,0,0,0,0,0,0,0,0,0,-1,1406,953,0,0
189,71,0,0,0,0,0,0,0,0,0,-1,1413,953,0,0
196,71,0,0,0,0,0,0,0,0,0,-1,1420,953,0,0
203,71,0,0,0,0,0,0,0,0,0,-1,1427,953,0,0
210,71,0,0,0,0,0,0,0,0,0,-1,1434,953,0,0
217,71,0,0,0,0,0,0,0,0,0,-1,1441,953,0,0
224,71,0,0,0,0,0,0,0,0,0,-1,1448,953,0,0
231,71,0,0,0,0,0,0,0,0,0,-1,1455,953,0,0
238,71,0,0,0,0,0,0,0,0,0,-1,1462,953,0,0
245,71,0,0,0,0,0,0,0,0,0,-1,1469,953,0,0
252,71,0,0,0,0,0,0,0,0,0,-1,1476,953,0,0
259,71,0,0,0,0,0,0,0,0,0,-1,1483,953,0,0
266,71,0,0,0,0,0,0,0,0,0,-1,1490,953,0,0
273,71,0,0,0,0,0,0,0,0,0,-1,1497,953,0,0
280,71,0,0,0,0,0,0,0,0,0,-1,1504,953,0,0
287,71,0,0,0,0,0,0,0,0,0,-1,1511,953,0,0
294,71,0,0,0,0,0,0,0,0,0,-1,1518,953,0,0
301,71,0,0,0,0,0,0,0,0,0,-1,1525,953,0,0
308,71,0,0,0,0,0,0,0,0,0,-1,1532,953,0,0
315,71,0,0,0,0,0,0,0,0,0,-1,1539,953,0,0
322,71,0,0,0,0,0,0,0,0,0,-1,1546,953,0,0
329,71,0,0,0,0,0,0,0,0,0,-1,1553,953,0,0
336,71,0,0,0,0,0,0,0,0,0,-1,1560,953,0,0
343,71,0,0,0,0,0,0,0,0,0,-1,1567,953,0,0
350,71,0,0,0,0,0,0,0,0,0,-1,1574,953,0,0
357,71,0,0,0,0,0,0,0,0,0,-1,1581,953,0,0
364,71,0,0,0,0,0,0,0,0,0,-1,1588,953,0,0
371,71,0,0,0,0,0,0,0,0,0,-1,1595,953,0,0
378,71,0,0,0,0,0,0,0,0,0,-1,1602,953,0,0
385,71,0,0,0,0,0,0,0,0,0,-1,1609,953,0,0
392,71,0,0,0,0,0,0,0,0,0,-1,1616,953,0,0
399,71,0,0,0,0,0,0,0,0,0,-1,1623,953,0,0
406,71,0,0,0,0,0,0,0,0,0,-1,1630,953,0,0
413,71,0,0,0,0,0,0,0,0,0,-1,1637,953,0,0
420,71,0,0,0,0,0,0,0,0,0,-1,1644,953,0,0
427,71,0,0,0,0,0,0,0,0,0,-1,1651,953,0,0
434,71,0,0,0,0,0,0,0,0,0,-1,1658,953,0,0
441,71,0,0,0,0,0,0,0,0,0,-1,1665,953,0,0
448,71,0,0,0,0,0,0,0,0,0,-1,1672,953,0,0
455,71,0,0,0,0,0,0,0,0,0,-1,1679,953,0,0
462,71,0,0,0,0,0,0,0,0,0,-1,1686,953,0,0
469,71,0,0,0,0,0,0,0,0,0,-1,1693,953,0,0
476,71,0,0,0,0,0,0,0,0,0,-1,1700,953,0,0
483,71,0,0,0,0,0,0,0,0,0,-1,1707,953,0,0
490,71,0,0,0,0,0,0,0,0,0,-1,1714,953,0,0
497,71,0,0,0,0,0,0,0,0,0,-1,1721,953,0,0
504,71,0,0,0,0,0,0,0,0,0,-1,1728,953,0,0
511,71,0,0,0,0,0,0,0,0,0,-1,1735,953,0,0
518,71,0,0,0,0,0,0,0,0,0,-1,1742,953,0,0
525,71,0,0,0,0,0,0,0,0,0,-1,1749,953,0,0
532,71,0,0,0,0,0,0,0,0,0,-1,1756,953,0,0
539,71,0,0,0,0,0,0,0,0,0,-1,1763,953,0,0
546,71,0,0,0,0,0,0,0,0,0,-1,1770,953,0,0
553,71,0,0,0,0,0,0,0,0,0,-1,1777,953,0,0
560,71,0,0,0,0,0,0,0,0,0,-1,1784,953,0,0
567,71,0,0,0,0,0,0,0,0,0,-1,1791,953,0,0
574,71,0,0,0,0,0,0,0,0,0,-1,1798,953,0,0
581,71,0,0,0,0,0,0,0,0,0,-1,1805,953,0,0
588,71,0,0,0,0,0,0,0,0,0,-1,1812,953,0,0
595,71,0,0,0,0,0,0,0,0,0,-1,1819,953,0,0
602,71,0,0,0,0,0,0,0,0,0,-1,1826,953,0,0
609,71,0,0,0,0,0,0,0,0,0,-1,1833,953,0,0
616,71,0,0,0,0,0,0,0,0,0,-1,1840,953,0,0
623,71,0,0,0,0,0,0,0,0,0,-1,1847,953,0,0
630,71,0,0,0,0,0,0,0,0,0,-1,1854,953,0,0
637,71,159.147,5.44794,0,0,0,0,0,0,0,-1,1861,953,159.147,-5.44792
644,71,159.332,5.41333,0,0,0,0,0,0,0,-1,1868,953,159.332,-5.41335
651,71,159.478,5.22522,0,0,0,0,0,0,0,-1,1875,953,159.478,-5.22523
658,71,159.409,5.22626,0,0,0,0,0,0,0,-1,1882,953,159.409,-5.22629
665,71,159.265,5.61206,0,0,0,0,0,0,0,-1,1889,953,159.265,-5.61207
672,71,159.183,5.85321,0,0,0,0,0,0,0,-1,1896,953,159.183,-5.85319
679,71,159.262,5.44086,0,0,0,0,0,0,0,-1,1903,953,159.262,-5.44085
686,71,159.302,5.18512,0,0,0,0,0,0,0,-1,1910,953,159.302,-5.18513
693,71,159.272,5.19733,0,0,0,0,0,0,0,-1,1917,953,159.272,-5.1973
700,71,159.305,5.26556,0,0,0,0,0,0,0,-1,1924,953,159.305,-5.26555
707,71,159.056,5.65936,0,0,0,0,0,0,0,-1,1931,953,159.056,-5.65938
714,71,155.716,20.2296,0,0,0,0,0,0,0,-1,1938,953,155.716,-20.2296
721,71,155.301,21.4675,0,0,0,0,0,0,0,-1,1945,953,155.301,-21.4675
728,71,155.081,22.9481,0,0,0,0,0,0,0,-1,1952,953,155.081,-22.948
735,71,155.151,23.7186,0,0,0,0,0,0,0,-1,1959,953,155.151,-23.7186
742,71,155.052,24.5804,-0.0125165,0.00444901,-0.00281466,0.00490378,-0.0129712,-1.41061,0.0106648,0.0423432,1966,953,155.051,-24.5804
749,71,154.89,25.4083,-0.0167849,0.0126657,-0.00409591,0.0132247,-0.017344,-1.43515,0.0177022,0.0287606,1973,953,154.89,-25.4083
756,71,154.754,26.1235,-0.0211713,0.0209031,-0.00531578,0.0215644,-0.0218325,-1.44704,0.0250554,0.0231663,1980,953,154.754,-26.1235
763,71,154.571,27.0086,-0.02566,0.0290875,-0.00649024,0.0298464,-0.0264189,-1.4544,0.0325049,0.0362097,1987,953,154.571,-27.0086
770,71,154.096,27.8234,-0.0303899,0.0372669,-0.00757178,0.0381039,-0.031227,-1.4607,0.0400938,0.037058,1994,953,154.096,-27.8234
777,71,153.321,28.5608,0,0,0,0,0,0,0,-1,2001,953,153.321,-28.5608
784,71,153.06,29.3997,0,0,0,0,0,0,0,-1,2008,953,153.06,-29.3997
791,71,152.89,30.1083,0,0,0,0,0,0,0,-1,2015,953,152.89,-30.1083
798,71,151.655,30.0103,0,0,0,0,0,0,0,-1,2022,953,151.655,-30.0103
805,71,59.978,6.41992,0,0,0,0,0,0,0,-1,2029,953,59.9781,-6.41992
812,71,0,0,0,0,0,0,0,0,0,-1,2036,953,0,0
-700,64,0,0,0,0,0,0,0,0,0,-1,524,960,0,0
-693,64,0,0,0,0,0,0,0,0,0,-1,531,960,0,0
-686,64,-73.4523,4.74207,0,0,0,0,0,0,0,-1,538,960,-73.4523,-4.74207
-679,64,-81.7646,8.53833,0,0,0,0,0,0,0,-1,545,960,-81.7646,-8.53834
-672,64,-69.4809,11.0681,0,0,0,0,0,0,0,-1,552,960,-69.4809,-11.0681
-665,64,-69.2921,11.0865,0,0,0,0,0,0,0,-1,559,960,-69.2921,-11.0865
-658,64,-69.1396,11.3966,0,0,0,0,0,0,0,-1,566,960,-69.1396,-11.3966
-651,64,-146.498,30.828,0,0,0,0,0,0,0,-1,573,960,-146.498,-30.828
-644,64,-146.166,28.8707,0,0,0,0,0,0,0,-1,580,960,-146.166,-28.8707
-637,64,-146.165,28.0584,-0.00837503,0.0423966,0.00243763,0.0425133,-0.0084918,1.52293,0.031556,0.0283932,587,960,-146.165,-28.0584
-630,64,-146.244,27.2894,-0.00636053,0.0321111,0.00268829,0.032298,-0.00654747,1.50137,0.0240139,0.0184466,594,960,-146.244,-27.2893
-623,64,-146.339,26.5214,-0.00466799,0.0223994,0.0026505,0.0226565,-0.00492509,1.4741,0.0169857,0.0173993,601,960,-146.339,-26.5213
-616,64,-146.425,25.6747,-0.0029344,0.0130458,0.00226621,0.0133609,-0.00324956,1.43261,0.0101651,0.0212302,608,960,-146.425,-25.6748
-609,64,-146.521,24.768,-0.00118872,0.00402221,0.00161451,0.00448188,-0.00164839,1.29342,0.00366317,0.0233495,615,960,-146.521,-24.768
-602,64,-146.503,23.9058,0.000542627,-0.00469211,0.000766907,0.000652668,-0.00480215,0.142514,0.00343969,0.0208235,622,960,-146.503,-23.9058
-595,64,-146.56,23.0626,0.00223387,-0.0131113,-0.00021118,0.00223678,-0.0131142,-0.0137585,0.0095759,0.0274016,629,960,-146.56,-23.0626
-588,64,-146.391,22.1229,0.00391714,-0.0206648,-0.00182856,0.00405242,-0.0208001,-0.0738445,0.0153963,0.0453954,636,960,-146.391,-22.1229
-581,64,-146.048,20.9575,0,0,0,0,0,0,0,-1,643,960,-146.048,-20.9575
-574,64,-72.4006,0.371521,0,0,0,0,0,0,0,-1,650,960,-72.4006,-0.37155
-567,64,-72.3788,0.370911,0,0,0,0,0,0,0,-1,657,960,-72.3788,-0.370913
-560,64,-72.4356,0.388611,0,0,0,0,0,0,0,-1,664,960,-72.4356,-0.388604
-553,64,-72.4363,0.548584,0,0,0,0,0,0,0,-1,671,960,-72.4363,-0.5486
-546,64,-72.4562,0.710083,0,0,0,0,0,0,0,-1,678,960,-72.4563,-0.710067
-539,64,-72.674,0.512695,0,0,0,0,0,0,0,-1,685,960,-72.674,-0.512709
-532,64,-72.5784,0.511841,0,0,0,0,0,0,0,-1,692,960,-72.5783,-0.511854
-525,64,-72.2922,0.433228,0,0,0,0,0,0,0,-1,699,960,-72.2922,-0.433254
-518,64,0,0,0,0,0,0,0,0,0,-1,706,960,0,0
-511,64,0,0,0,0,0,0,0,0,0,-1,713,960,0,0
-504,64,0,0,0,0,0,0,0,0,0,-1,720,960,0,0
-497,64,0,0,0,0,0,0,0,0,0,-1,727,960,0,0
-490,64,0,0,0,0,0,0,0,0,0,-1,734,960,0,0
-483,64,0,0,0,0,0,0,0,0,0,-1,741,960,0,0
-476,64,0,0,0,0,0,0,0,0,0,-1,748,960,0,0
-469,64,0,0,0,0,0,0,0,0,0,-1,755,960,0,0
-462,64,0,0,0,0,0,0,0,0,0,-1,762,960,0,0
-455,64,0,0,0,0,0,0,0,0,0,-1,769,960,0,0
-448,64,0,0,0,0,0,0,0,0,0,-1,776,960,0,0
-441,64,0,0,0,0,0,0,0,0,0,-1,783,960,0,0
-434,64,0,0,0,0,0,0,0,0,0,-1,790,960,0,0
-427,64,0,0,0,0,0,0,0,0,0,-1,797,960,0,0
-420,64,0,0,0,0,0,0,0,0,0,-1,804,960,0,0
-413,64,0,0,0,0,0,0,0,0,0,-1,811,960,0,0
-406,64,0,0,0,0,0,0,0,0,0,-1,818,960,0,0
-399,64,0,0,0,0,0,0,0,0,0,-1,825,960,0,0
-392,64,0,0,0,0,0,0,0,0,0,-1,832,960,0,0
-385,64,0,0,0,0,0,0,0,0,0,-1,839,960,0,0
-378,64,0,0,0,0,0,0,0,0,0,-1,846,960,0,0
-371,64,0,0,0,0,0,0,0,0,0,-1,853,960,0,0
-364,64,0,0,0,0,0,0,0,0,0,-1,860,960,0,0
-357,64,0,0,0,0,0,0,0,0,0,-1,867,960,0,0
-350,64,0,0,0,0,0,0,0,0,0,-1,874,960,0,0
-343,64,0,0,0,0,0,0,0,0,0,-1,881,960,0,0
-336,64,0,0,0,0,0,0,0,0,0,-1,888,960,0,0
-329,64,0,0,0,0,0,0,0,0,0,-1,895,960,0,0
-322,64,0,0,0,0,0,0,0,0,0,-1,902,960,0,0
-315,64,0,0,0,0,0,0,0,0,0,-1,909,960,0,0
-308,64,0,0,0,0,0,0,0,0,0,-1,916,960,0,0
-301,64,0,0,0,0,0,0,0,0,0,-1,923,960,0,0
-294,64,0,0,0,0,0,0,0,0,0,-1,930,960,0,0
-287,64,0,0,0,0,0,0,0,0,0,-1,937,960,0,0
-280,64,0,0,0,0,0,0,0,0,0,-1,944,960,0,0
-273,64,0,0,0,0,0,0,0,0,0,-1,951,960,0,0
-266,64,0,0,0,0,0,0,0,0,0,-1,958,960,0,0
-259,64,0,0,0,0,0,0,0,0,0,-1,965,960,0,0
-252,64,0,0,0,0,0,0,0,0,0,-1,972,960,0,0
-245,64,0,0,0,0,0,0,0,0,0,-1,979,960,0,0
-238,64,0,0,0,0,0,0,0,0,0,-1,986,960,0,0
-231,64,0,0,0,0,0,0,0,0,0,-1,993,960,0,0
-224,64,0,0,0,0,0,0,0,0,0,-1,1000,960,0,0
-217,64,0,0,0,0,0,0,0,0,0,-1,1007,960,0,0
-210,64,0,0,0,0,0,0,0,0,0,-1,1014,960,0,0
-203,64,0,0,0,0,0,0,0,0,0,-1,1021,960,0,0
-196,64,0,0,0,0,0,0,0,0,0,-1,1028,960,0,0
-189,64,0,0,0,0,0,0,0,0,0,-1,1035,960,0,0
-182,64,0,0,0,0,0,0,0,0,0,-1,1042,960,0,0
-175,64,0,0,0,0,0,0,0,0,0,-1,1049,960,0,0
-168,64,0,0,0,0,0,0,0,0,0,-1,1056,960,0,0
-161,64,0,0,0,0,0,0,0,0,0,-1,1063,960,0,0
-154,64,0,0,0,0,0,0,0,0,0,-1,1070,960,0,0
-147,64,0,0,0,0,0,0,0,0,0,-1,1077,960,0,0
-140,64,0,0,0,0,0,0,0,0,0,-1,1084,960,0,0
-133,64,0,0,0,0,0,0,0,0,0,-1,1091,960,0,0
-126,64,0,0,0,0,0,0,0,0,0,-1,1098,960,0,0
-119,64,0,0,0,0,0,0,0,0,0,-1,1105,960,0,0
-112,64,0,0,0,0,0,0,0,0,0,-1,1112,960,0,0
-105,64,0,0,0,0,0,0,0,0,0,-1,1119,960,0,0
-98,64,0,0,0,0,0,0,0,0,0,-1,1126,960,0,0
-91,64,0,0,0,0,0,0,0,0,0,-1,1133,960,0,0
-84,64,0,0,0,0,0,0,0,0,0,-1,1140,960,0,0
-77,64,0,0,0,0,0,0,0,0,0,-1,1147,960,0,0
-70,64,0,0,0,0,0,0,0,0,0,-1,1154,960,0,0
-63,64,0,0,0,0,0,0,0,0,0,-1,1161,960,0,0
-56,64,0,0,0,0,0,0,0,0,0,-1,1168,960,0,0
-49,64,0,0,0,0,0,0,0,0,0,-1,1175,960,0,0
-42,64,0,0,0,0,0,0,0,0,0,-1,1182,960,0,0
-35,64,0,0,0,0,0,0,0,0,0,-1,1189,960,0,0
-28,64,0,0,0,0,0,0,0,0,0,-1,1196,960,0,0
-21,64,0,0,0,0,0,0,0,0,0,-1,1203,960,0,0
-14,64,0,0,0,0,0,0,0,0,0,-1,1210,960,0,0
-7,64,0,0,0,0,0,0,0,0,0,-1,1217,960,0,0
0,64,0,0,0,0,0,0,0,0,0,-1,1224,960,0,0
7,64,0,0,0,0,0,0,0,0,0,-1,1231,960,0,0
14,64,0,0,0,0,0,0,0,0,0,-1,1238,960,0,0
21,64,0,0,0,0,0,0,0,0,0,-1,1245,960,0,0
28,64,0,0,0,0,0,0,0,0,0,-1,1252,960,0,0
35,64,0,0,0,0,0,0,0,0,0,-1,1259,960,0,0
42,64,0,0,0,0,0,0,0,0,0,-1,1266,960,0,0
49,64,0,0,0,0,0,0,0,0,0,-1,1273,960,0,0
56,64,0,0,0,0,0,0,0,0,0,-1,1280,960,0,0
63,64,0,0,0,0,0,0,0,0,0,-1,1287,960,0,0
70,64,0,0,0,0,0,0,0,0,0,-1,1294,960,0,0
77,64,0,0,0,0,0,0,0,0,0,-1,1301,960,0,0
84,64,0,0,0,0,0,0,0,0,0,-1,1308,960,0,0
91,64,0,0,0,0,0,0,0,0,0,-1,1315,960,0,0
98,64,0,0,0,0,0,0,0,0,0,-1,1322,960,0,0
105,64,0,0,0,0,0,0,0,0,0,-1,1329,960,0,0
112,64,0,0,0,0,0,0,0,0,0,-1,1336,960,0,0
119,64,0,0,0,0,0,0,0,0,0,-1,1343,960,0,0
126,64,0,0,0,0,0,0,0,0,0,-1,1350,960,0,0
133,64,0,0,0,0,0,0,0,0,0,-1,1357,960,0,0
140,64,0,0,0,0,0,0,0,0,0,-1,1364,960,0,0
147,64,0,0,0,0,0,0,0,0,0,-1,1371,960,0,0
154,64,0,0,0,0,0,0,0,0,0,-1,1378,960,0,0
161,64,0,0,0,0,0,0,0,0,0,-1,1385,960,0,0
168,64,0,0,0,0,0,0,0,0,0,-1,1392,960,0,0
175,64,0,0,0,0,0,0,0,0,0,-1,1399,960,0,0
182,64,0,0,0,0,0,0,0,0,0,-1,1406,960,0,0
189,64,0,0,0,0,0,0,0,0,0,-1,1413,960,0,0
196,64,0,0,0,0,0,0,0,0,0,-1,1420,960,0,0
203,64,0,0,0,0,0,0,0,0,0,-1,1427,960,0,0
210,64,0,0,0,0,0,0,0,0,0,-1,1434,960,0,0
217,64,0,0,0,0,0,0,0,0,0,-1,1441,960,0,0
224,64,0,0,0,0,0,0,0,0,0,-1,1448,960,0,0
231,64,0,0,0,0,0,0,0,0,0,-1,1455,960,0,0
238,64,0,0,0,0,0,0,0,0,0,-1,1462,960,0,0
245,64,0,0,0,0,0,0,0,0,0,-1,1469,960,0,0
252,64,0,0,0,0,0,0,0,0,0,-1,1476,960,0,0
259,64,0,0,0,0,0,0,0,0,0,-1,1483,960,0,0
266,64,0,0,0,0,0,0,0,0,0,-1,1490,960,0,0
273,64,0,0,0,0,0,0,0,0,0,-1,1497,960,0,0
280,64,0,0,0,0,0,0,0,0,0,-1,1504,960,0,0
287,64,0,0,0,0,0,0,0,0,0,-1,1511,960,0,0
294,64,0,0,0,0,0,0,0,0,0,-1,1518,960,0,0
301,64,0,0,0,0,0,0,0,0,0,-1,1525,960,0,0
308,64,0,0,0,0,0,0,0,0,0,-1,1532,960,0,0
315,64,0,0,0,0,0,0,0,0,0,-1,1539,960,0,0
322,64,0,0,0,0,0,0,0,0,0,-1,1546,960,0,0
329,64,0,0,0,0,0,0,0,0,0,-1,1553,960,0,0
336,64,0,0,0,0,0,0,0,0,0,-1,1560,960,0,0
343,64,0,0,0,0,0,0,0,0,0,-1,1567,960,0,0
350,64,0,0,0,0,0,0,0,0,0,-1,1574,960,0,0
357,64,0,0,0,0,0,0,0,0,0,-1,1581,960,0,0
364,64,0,0,0,0,0,0,0,0,0,-1,1588,960,0,0
371,64,0,0,0,0,0,0,0,0,0,-1,1595,960,0,0
378,64,0,0,0,0,0,0,0,0,0,-1,1602,960,0,0
385,64,0,0,0,0,0,0,0,0,0,-1,1609,960,0,0
392,64,0,0,0,0,0,0,0,0,0,-1,1616,960,0,0
399,64,0,0,0,0,0,0,0,0,0,-1,1623,960,0,0
406,64,0,0,0,0,0,0,0,0,0,-1,1630,960,0,0
413,64,0,0,0,0,0,0,0,0,0,-1,1637,960,0,0
420,64,0,0,0,0,0,0,0,0,0,-1,1644,960,0,0
427,64,0,0,0,0,0,0,0,0,0,-1,1651,960,0,0
434,64,0,0,0,0,0,0,0,0,0,-1,1658,960,0,0
441,64,0,0,0,0,0,0,0,0,0,-1,1665,960,0,0
448,64,0,0,0,0,0,0,0,0,0,-1,1672,960,0,0
455,64,0,0,0,0,0,0,0,0,0,-1,1679,960,0,0
462,64,0,0,0,0,0,0,0,0,0,-1,1686,960,0,0
469,64,0,0,0,0,0,0,0,0,0,-1,1693,960,0,0
476,64,0,0,0,0,0,0,0,0,0,-1,1700,960,0,0
483,64,0,0,0,0,0,0,0,0,0,-1,1707,960,0,0
490,64,0,0,0,0,0,0,0,0,0,-1,1714,960,0,0
497,64,0,0,0,0,0,0,0,0,0,-1,1721,960,0,0
504,64,0,0,0,0,0,0,0,0,0,-1,1728,960,0,0
511,64,0,0,0,0,0,0,0,0,0,-1,1735,960,0,0
518,64,0,0,0,0,0,0,0,0,0,-1,1742,960,0,0
525,64,0,0,0,0,0,0,0,0,0,-1,1749,960,0,0
532,64,0,0,0,0,0,0,0,0,0,-1,1756,960,0,0
539,64,0,0,0,0,0,0,0,0,0,-1,1763,960,0,0
546,64,0,0,0,0,0,0,0,0,0,-1,1770,960,0,0
553,64,0,0,0,0,0,0,0,0,0,-1,1777,960,0,0
560,64,0,0,0,0,0,0,0,0,0,-1,1784,960,0,0
567,64,0,0,0,0,0,0,0,0,0,-1,1791,960,0,0
574,64,0,0,0,0,0,0,0,0,0,-1,1798,960,0,0
581,64,0,0,0,0,0,0,0,0,0,-1,1805,960,0,0
588,64,0,0,0,0,0,0,0,0,0,-1,1812,960,0,0
595,64,0,0,0,0,0,0,0,0,0,-1,1819,960,0,0
602,64,0,0,0,0,0,0,0,0,0,-1,1826,960,0,0
609,64,0,0,0,0,0,0,0,0,0,-1,1833,960,0,0
616,64,0,0,0,0,0,0,0,0,0,-1,1840,960,0,0
623,64,0,0,0,0,0,0,0,0,0,-1,1847,960,0,0
630,64,0,0,0,0,0,0,0,0,0,-1,1854,960,0,0
637,64,0,0,0,0,0,0,0,0,0,-1,1861,960,0,0
644,64,159.352,5.28271,0,0,0,0,0,0,0,-1,1868,960,159.352,-5.28269
651,64,159.463,5.20929,0,0,0,0,0,0,0,-1,1875,960,159.463,-5.20929
658,64,159.372,5.12659,0,0,0,0,0,0,0,-1,1882,960,159.372,-5.12661
665,64,159.125,6.25275,0,0,0,0,0,0,0,-1,1889,960,159.125,-6.25277
672,64,159.136,5.91394,0,0,0,0,0,0,0,-1,1896,960,159.136,-5.91396
679,64,159.219,5.52429,0,0,0,0,0,0,0,-1,1903,960,159.219,-5.52427
686,64,159.299,5.26294,0,0,0,0,0,0,0,-1,1910,960,159.298,-5.26295
693,64,159.25,5.20215,0,0,0,0,0,0,0,-1,1917,960,159.25,-5.20215
700,64,159.321,5.28967,0,0,0,0,0,0,0,-1,1924,960,159.321,-5.28966
707,64,159.19,5.22919,0,0,0,0,0,0,0,-1,1931,960,159.191,-5.22921
714,64,150.807,4.70984,0,0,0,0,0,0,0,-1,1938,960,150.807,-4.70986
721,64,156.33,21.5814,0,0,0,0,0,0,0,-1,1945,960,156.33,-21.5814
728,64,155.937,22.6802,0,0,0,0,0,0,0,-1,1952,960,155.937,-22.6802
735,64,155.702,23.9628,0,0,0,0,0,0,0,-1,1959,960,155.702,-23.9628
742,64,155.84,24.8521,0,0,0,0,0,0,0,-1,1966,960,155.84,-24.8521
749,64,155.853,25.3303,-0.0157961,0.0115784,-0.00395911,0.0121395,-0.0163572,-1.43001,0.0165125,0.0221637,1973,960,155.853,-25.3303
756,64,155.665,26.061,-0.0204412,0.0201507,-0.00513186,0.0207894,-0.0210799,-1.44697,0.0241735,0.0191926,1980,960,155.665,-26.061
763,64,155.575,26.8565,-0.0251681,0.0286598,-0.00626838,0.0293801,-0.0258884,-1.45638,0.0319305,0.0286954,1987,960,155.575,-26.8565
770,64,155.19,27.4589,-0.0300593,0.0371179,-0.00735962,0.0379148,-0.0308561,-1.46295,0.0397745,0.0276772,1994,960,155.19,-27.4589
777,64,154.797,28.0587,-0.0351118,0.0454235,-0.00843057,0.0462966,-0.0359849,-1.46761,0.0476294,0.0421271,2001,960,154.797,-28.0587
784,64,154.375,28.6071,0,0,0,0,0,0,0,-1,2008,960,154.375,-28.6071
791,64,153.202,29.6136,0,0,0,0,0,0,0,-1,2015,960,153.202,-29.6136
798,64,152.564,28.8038,0,0,0,0,0,0,0,-1,2022,960,152.564,-28.8038
805,64,71.8018,7.16925,0,0,0,0,0,0,0,-1,2029,960,71.8016,-7.16926
812,64,0,0,0,0,0,0,0,0,0,-1,2036,960,0,0
-700,57,0,0,0,0,0,0,0,0,0,-1,524,967,0,0
-693,57,0,0,0,0,0,0,0,0,0,-1,531,967,0,0
-686,57,-103.514,6.7984,0,0,0,0,0,0,0,-1,538,967,-103.514,-6.79842
-679,57,-81.4638,7.94403,0,0,0,0,0,0,0,-1,545,967,-81.4638,-7.94406
-672,57,-81.1378,8.84052,0,0,0,0,0,0,0,-1,552,967,-81.1378,-8.84049
-665,57,-69.8138,9.20465,0,0,0,0,0,0,0,-1,559,967,-69.8138,-9.20464
-658,57,-69.5607,9.87787,0,0,0,0,0,0,0,-1,566,967,-69.5607,-9.87786
-651,57,-147.495,29.8986,0,0,0,0,0,0,0,-1,573,967,-147.495,-29.8986
-644,57,-147.236,28.7943,-0.00858961,0.0531099,0.00132377,0.0531383,-0.008618,1.54935,0.03862,0.0466891,580,967,-147.236,-28.7943
-637,57,-147.023,27.8106,-0.00810056,0.0417051,0.00274269,0.0418557,-0.00825114,1.51595,0.0310221,0.0279556,587,967,-147.023,-27.8106
-630,57,-147.159,27.1271,-0.00619058,0.0312707,0.00281731,0.0314814,-0.00640127,1.49615,0.0234149,0.0165112,594,967,-147.159,-27.1271
-623,57,-147.258,26.455,-0.00454464,0.0213473,0.00260793,0.0216074,-0.00480471,1.4714,0.0162451,0.0155222,601,967,-147.258,-26.455
-616,57,-147.26,25.6766,-0.00288109,0.0117945,0.0020749,0.0120822,-0.00316881,1.43301,0.00929294,0.0197815,608,967,-147.26,-25.6766
-609,57,-147.35,24.8669,-0.00121225,0.00258459,0.00129301,0.0029831,-0.00161076,1.27183,0.00269143,0.0240871,615,967,-147.35,-24.8669
-602,57,-147.425,23.9909,0.000452774,-0.00630425,0.000330306,0.000468882,-0.00632036,0.0487284,0.00437825,0.0154024,622,967,-147.425,-23.9909
-595,57,-147.414,23.1395,0.00210727,-0.0148882,-0.00075111,0.0021404,-0.0149214,-0.0440801,0.0107324,0.0231065,629,967,-147.414,-23.1394
-588,57,-147.007,22.2379,0.00378875,-0.0224575,-0.00261303,0.00404637,-0.0227151,-0.0982732,0.0166568,0.0431667,636,967,-147.007,-22.2379
-581,57,-146.26,21.2331,0,0,0,0,0,0,0,-1,643,967,-146.26,-21.2331
-574,57,-72.3458,0.503174,0,0,0,0,0,0,0,-1,650,967,-72.3458,-0.503146
-567,57,-72.3713,0.355774,0,0,0,0,0,0,0,-1,657,967,-72.3714,-0.355774
-560,57,-72.4128,0.327271,0,0,0,0,0,0,0,-1,664,967,-72.4128,-0.327253
-553,57,-72.379,0.421326,0,0,0,0,0,0,0,-1,671,967,-72.379,-0.4213
-546,57,-72.3694,0.425354,0,0,0,0,0,0,0,-1,678,967,-72.3694,-0.425354
-539,57,-72.5713,0.431824,0,0,0,0,0,0,0,-1,685,967,-72.5713,-0.431793
-532,57,-72.5948,0.583679,0,0,0,0,0,0,0,-1,692,967,-72.5948,-0.583709
-525,57,-72.3409,0.563782,0,0,0,0,0,0,0,-1,699,967,-72.3409,-0.563798
-518,57,0,0,0,0,0,0,0,0,0,-1,706,967,0,0
-511,57,0,0,0,0,0,0,0,0,0,-1,713,967,0,0
-504,57,0,0,0,0,0,0,0,0,0,-1,720,967,0,0
-497,57,0,0,0,0,0,0,0,0,0,-1,727,967,0,0
-490,57,0,0,0,0,0,0,0,0,0,-1,734,967,0,0
-483,57,0,0,0,0,0,0,0,0,0,-1,741,967,0,0
-476,57,0,0,0,0,0,0,0,0,0,-1,748,967,0,0
-469,57,0,0,0,0,0,0,0,0,0,-1,755,967,0,0
-462,57,0,0,0,0,0,0,0,0,0,-1,762,967,0,0
-455,57,0,0,0,0,0,0,0,0,0,-1,769,967,0,0
-448,57,0,0,0,0,0,0,0,0,0,-1,776,967,0,0
-441,57,0,0,0,0,0,0,0,0,0,-1,783,967,0,0
-434,57,0,0,0,0,0,0,0,0,0,-1,790,967,0,0
-427,57,0,0,0,0,0,0,0,0,0,-1,797,967,0,0
-420,57,0,0,0,0,0,0,0,0,0,-1,804,967,0,0
-413,57,0,0,0,0,0,0,0,0,0,-1,811,967,0,0
-406,57,0,0,0,0,0,0,0,0,0,-1,818,967,0,0
-399,57,0,0,0,0,0,0,0,0,0,-1,825,967,0,0
-392,57,0,0,0,0,0,0,0,0,0,-1,832,967,0,0
-385,57,0,0,0,0,0,0,0,0,0,-1,839,967,0,0
-378,57,0,0,0,0,0,0,0,0,0,-1,846,967,0,0
-371,57,0,0,0,0,0,0,0,0,0,-1,853,967,0,0
-364,57,0,0,0,0,0,0,0,0,0,-1,860,967,0,0
-357,57,0,0,0,0,0,0,0,0,0,-1,867,967,0,0
-350,57,0,0,0,0,0,0,0,0,0,-1,874,967,0,0
-343,57,0,0,0,0,0,0,0,0,0,-1,881,967,0,0
-336,57,0,0,0,0,0,0,0,0,0,-1,888,967,0,0
-329,57,0,0,0,0,0,0,0,0,0,-1,895,967,0,0
-322,57,0,0,0,0,0,0,0,0,0,-1,902,967,0,0
-315,57,0,0,0,0,0,0,0,0,0,-1,909,967,0,0
-308,57,0,0,0,0,0,0,0,0,0,-1,916,967,0,0
-301,57,0,0,0,0,0,0,0,0,0,-1,923,967,0,0
-294,57,0,0,0,0,0,0,0,0,0,-1,930,967,0,0
-287,57,0,0,0,0,0,0,0,0,0,-1,937,967,0,0
-280,57,0,0,0,0,0,0,0,0,0,-1,944,967,0,0
-273,57,0,0,0,0,0,0,0,0,0,-1,951,967,0,0
-266,57,0,0,0,0,0,0,0,0,0,-1,958,967,0,0
-259,57,0,0,0,0,0,0,0,0,0,-1,965,967,0,0
-252,57,0,0,0,0,0,0,0,0,0,-1,972,967,0,0
-245,57,0,0,0,0,0,0,0,0,0,-1,979,967,0,0
-238,57,0,0,0,0,0,0,0,0,0,-1,986,967,0,0
-231,57,0,0,0,0,0,0,0,0,0,-1,993,967,0,0
-224,57,0,0,0,0,0,0,0,0,0,-1,1000,967,0,0
-217,57,0,0,0,0,0,0,0,0,0,-1,1007,967,0,0
-210,57,0,0,0,0,0,0,0,0,0,-1,1014,967,0,0
-203,57,0,0,0,0,0,0,0,0,0,-1,1021,967,0,0
-196,57,0,0,0,0,0,0,0,0,0,-1,1028,967,0,0
-189,57,0,0,0,0,0,0,0,0,0,-1,1035,967,0,0
-182,57,0,0,0,0,0,0,0,0,0,-1,1042,967,0,0
-175,57,0,0,0,0,0,0,0,0,0,-1,1049,967,0,0
-168,57,0,0,0,0,0,0,0,0,0,-1,1056,967,0,0
-161,57,0,0,0,0,0,0,0,0,0,-1,1063,967,0,0
-154,57,0,0,0,0,0,0,0,0,0,-1,1070,967,0,0
-147,57,0,0,0,0,0,0,0,0,0,-1,1077,967,0,0
-140,57,0,0,0,0,0,0,0,0,0,-1,1084,967,0,0
-133,57,0,0,0,0,0,0,0,0,0,-1,1091,967,0,0
-126,57,0,0,0,0,0,0,0,0,0,-1,1098,967,0,0
-119,57,0,0,0,0,0,0,0,0,0,-1,1105,967,0,0
-112,57,0,0,0,0,0,0,0,0,0,-1,1112,967,0,0
-105,57,0,0,0,0,0,0,0,0,0,-1,1119,967,0,0
-98,57,0,0,0,0,0,0,0,0,0,-1,1126,967,0,0
-91,57,0,0,0,0,0,0,0,0,0,-1,1133,967,0,0
-84,57,0,0,0,0,0,0,0,0,0,-1,1140,967,0,0
-77,57,0,0,0,0,0,0,0,0,0,-1,1147,967,0,0
-70,57,0,0,0,0,0,0,0,0,0,-1,1154,967,0,0
-63,57,0,0,0,0,0,0,0,0,0,-1,1161,967,0,0
-56,57,0,0,0,0,0,0,0,0,0,-1,1168,967,0,0
-49,57,0,0,0,0,0,0,0,0,0,-1,1175,967,0,0
-42,57,0,0,0,0,0,0,0,0,0,-1,1182,967,0,0
-35,57,0,0,0,0,0,0,0,0,0,-1,1189,967,0,0
-28,57,0,0,0,0,0,0,0,0,0,-1,1196,967,0,0
-21,57,0,0,0,0,0,0,0,0,0,-1,1203,967,0,0
-14,57,0,0,0,0,0,0,0,0,0,-1,1210,967,0,0
-7,57,0,0,0,0,0,0,0,0,0,-1,1217,967,0,0
0,57,0,0,0,0,0,0,0,0,0,-1,1224,967,0,0
7,57,0,0,0,0,0,0,0,0,0,-1,1231,967,0,0
14,57,0,0,0,0,0,0,0,0,0,-1,1238,967,0,0
21,57,0,0,0,0,0,0,0,0,0,-1,1245,967,0,0
28,57,0,0,0,0,0,0,0,0,0,-1,1252,967,0,0
35,57,0,0,0,0,0,0,0,0,0,-1,1259,967,0,0
42,57,0,0,0,0,0,0,0,0,0,-1,1266,967,0,0
49,57,0,0,0,0,0,0,0,0,0,-1,1273,967,0,0
56,57,0,0,0,0,0,0,0,0,0,-1,1280,967,0,0
63,57,0,0,0,0,0,0,0,0,0,-1,1287,967,0,0
70,57,0,0,0,0,0,0,0,0,0,-1,1294,967,0,0
77,57,0,0,0,0,0,0,0,0,0,-1,1301,967,0,0
84,57,0,0,0,0,0,0,0,0,0,-1,1308,967,0,0
91,57,0,0,0,0,0,0,0,0,0,-1,1315,967,0,0
98,57,0,0,0,0,0,0,0,0,0,-1,1322,967,0,0
105,57,0,0,0,0,0,0,0,0,0,-1,1329,967,0,0
112,57,0,0,0,0,0,0,0,0,0,-1,1336,967,0,0
119,57,0,0,0,0,0,0,0,0,0,-1,1343,967,0,0
126,57,0,0,0,0,0,0,0,0,0,-1,1350,967,0,0
133,57,0,0,0,0,0,0,0,0,0,-1,1357,967,0,0
140,57,0,0,0,0,0,0,0,0,0,-1,1364,967,0,0
147,57,0,0,0,0,0,0,0,0,0,-1,1371,967,0,0
154,57,0,0,0,0,0,0,0,0,0,-1,1378,967,0,0
161,57,0,0,0,0,0,0,0,0,0,-1,1385,967,0,0
168,57,0,0,0,0,0,0,0,0,0,-1,1392,967,0,0
175,57,0,0,0,0,0,0,0,0,0,-1,1399,967,0,0
182,57,0,0,0,0,0,0,0,0,0,-1,1406,967,0,0
189,57,0,0,0,0,0,0,0,0,0,-1,1413,967,0,0
196,57,0,0,0,0,0,0,0,0,0,-1,1420,967,0,0
203,57,0,0,0,0,0,0,0,0,0,-1,1427,967,0,0
210,57,0,0,0,0,0,0,0,0,0,-1,1434,967,0,0
217,57,0,0,0,0,0,0,0,0,0,-1,1441,967,0,0
224,57,0,0,0,0,0,0,0,0,0,-1,1448,967,0,0
231,57,0,0,0,0,0,0,0,0,0,-1,1455,967,0,0
238,57,0,0,0,0,0,0,0,0,0,-1,1462,967,0,0
245,57,0,0,0,0,0,0,0,0,0,-1,1469,967,0,0
252,57,0,0,0,0,0,0,0,0,0,-1,1476,967,0,0
259,57,0,0,0,0,0,0,0,0,0,-1,1483,967,0,0
266,57,0,0,0,0,0,0,0,0,0,-1,1490,967,0,0
273,57,0,0,0,0,0,0,0,0,0,-1,1497,967,0,0
280,57,0,0,0,0,0,0,0,0,0,-1,1504,967,0,0
287,57,0,0,0,0,0,0,0,0,0,-1,1511,967,0,0
294,57,0,0,0,0,0,0,0,0,0,-1,1518,967,0,0
301,57,0,0,0,0,0,0,0,0,0,-1,1525,967,0,0
308,57,0,0,0,0,0,0,0,0,0,-1,1532,967,0,0
315,57,0,0,0,0,0,0,0,0,0,-1,1539,967,0,0
322,57,0,0,0,0,0,0,0,0,0,-1,1546,967,0,0
329,57,0,0,0,0,0,0,0,0,0,-1,1553,967,0,0
336,57,0,0,0,0,0,0,0,0,0,-1,1560,967,0,0
343,57,0,0,0,0,0,0,0,0,0,-1,1567,967,0,0
350,57,0,0,0,0,0,0,0,0,0,-1,1574,967,0,0
357,57,0,0,0,0,0,0,0,0,0,-1,1581,967,0,0
364,57,0,0,0,0,0,0,0,0,0,-1,1588,967,0,0
371,57,0,0,0,0,0,0,0,0,0,-1,1595,967,0,0
378,57,0,0,0,0,0,0,0,0,0,-1,1602,967,0,0
385,57,0,0,0,0,0,0,0,0,0,-1,1609,967,0,0
392,57,0,0,0,0,0,0,0,0,0,-1,1616,967,0,0
399,57,0,0,0,0,0,0,0,0,0,-1,1623,967,0,0
406,57,0,0,0,0,0,0,0,0,0,-1,1630,967,0,0
413,57,0,0,0,0,0,0,0,0,0,-1,1637,967,0,0
420,57,0,0,0,0,0,0,0,0,0,-1,1644,967,0,0
427,57,0,0,0,0,0,0,0,0,0,-1,1651,967,0,0
434,57,0,0,0,0,0,0,0,0,0,-1,1658,967,0,0
441,57,0,0,0,0,0,0,0,0,0,-1,1665,967,0,0
448,57,0,0,0,0,0,0,0,0,0,-1,1672,967,0,0
455,57,0,0,0,0,0,0,0,0,0,-1,1679,967,0,0
462,57,0,0,0,0,0,0,0,0,0,-1,1686,967,0,0
469,57,0,0,0,0,0,0,0,0,0,-1,1693,967,0,0
476,57,0,0,0,0,0,0,0,0,0,-1,1700,967,0,0
483,57,0,0,0,0,0,0,0,0,0,-1,1707,967,0,0
490,57,0,0,0,0,0,0,0,0,0,-1,1714,967,0,0
497,57,0,0,0,0,0,0,0,0,0,-1,1721,967,0,0
504,57,0,0,0,0,0,0,0,0,0,-1,1728,967,0,0
511,57,0,0,0,0,0,0,0,0,0,-1,1735,967,0,0
518,57,0,0,0,0,0,0,0,0,0,-1,1742,967,0,0
525,57,0,0,0,0,0,0,0,0,0,-1,1749,967,0,0
532,57,0,0,0,0,0,0,0,0,0,-1,1756,967,0,0
539,57,0,0,0,0,0,0,0,0,0,-1,1763,967,0,0
546,57,0,0,0,0,0,0,0,0,0,-1,1770,967,0,0
553,57,0,0,0,0,0,0,0,0,0,-1,1777,967,0,0
560,57,0,0,0,0,0,0,0,0,0,-1,1784,967,0,0
567,57,0,0,0,0,0,0,0,0,0,-1,1791,967,0,0
574,57,0,0,0,0,0,0,0,0,0,-1,1798,967,0,0
581,57,0,0,0,0,0,0,0,0,0,-1,1805,967,0,0
588,57,0,0,0,0,0,0,0,0,0,-1,1812,967,0,0
595,57,0,0,0,0,0,0,0,0,0,-1,1819,967,0,0
602,57,0,0,0,0,0,0,0,0,0,-1,1826,967,0,0
609,57,0,0,0,0,0,0,0,0,0,-1,1833,967,0,0
616,57,0,0,0,0,0,0,0,0,0,-1,1840,967,0,0
623,57,0,0,0,0,0,0,0,0,0,-1,1847,967,0,0
630,57,0,0,0,0,0,0,0,0,0,-1,1854,967,0,0
637,57,0,0,0,0,0,0,0,0,0,-1,1861,967,0,0
644,57,159.274,5.3363,0,0,0,0,0,0,0,-1,1868,967,159.274,-5.33629
651,57,159.312,5.33447,0,0,0,0,0,0,0,-1,1875,967,159.312,-5.33447
658,57,159.26,5.26666,0,0,0,0,0,0,0,-1,1882,967,159.26,-5.26667
665,57,159.323,4.97205,0,0,0,0,0,0,0,-1,1889,967,159.323,-4.97205
672,57,159.194,5.73419,0,0,0,0,0,0,0,-1,1896,967,159.194,-5.73421
679,57,159.229,5.43182,0,0,0,0,0,0,0,-1,1903,967,159.229,-5.43182
686,57,159.233,5.24719,0,0,0,0,0,0,0,-1,1910,967,159.233,-5.2472
693,57,159.195,5.26105,0,0,0,0,0,0,0,-1,1917,967,159.195,-5.26103
700,57,159.208,5.36426,0,0,0,0,0,0,0,-1,1924,967,159.208,-5.36426
707,57,159.187,5.39862,0,0,0,0,0,0,0,-1,1931,967,159.187,-5.39865
714,57,157.193,4.86261,0,0,0,0,0,0,0,-1,1938,967,157.193,-4.8626
721,57,157.287,22.1367,0,0,0,0,0,0,0,-1,1945,967,157.287,-22.1367
728,57,156.903,22.8883,-0.00115878,-0.0159852,0.000218909,-0.00115555,-0.0159884,0.0147605,0.0102954,0.0365148,1952,967,156.903,-22.8883
735,57,156.833,23.5891,-0.00562578,-0.00731915,-0.0010912,-0.00509131,-0.00785362,-0.455457,0.00460027,0.048372,1959,967,156.833,-23.5891
742,57,156.838,24.3413,-0.0101807,0.00149707,-0.00235654,0.00195468,-0.0106383,-1.37899,0.00782555,0.0324986,1966,967,156.838,-24.3413
749,57,156.657,25.2223,-0.0148163,0.0103922,-0.00357479,0.0108893,-0.0153135,-1.43262,0.0151999,0.016391,1973,967,156.657,-25.2223
756,57,156.524,25.9859,-0.0195255,0.019291,-0.00474457,0.0198626,-0.020097,-1.45092,0.0230708,0.0148018,1980,967,156.524,-25.9859
763,57,156.328,26.7242,-0.0242998,0.0281159,-0.00586614,0.0287643,-0.0249483,-1.4607,0.0310371,0.01682,1987,967,156.328,-26.7242
770,57,156.078,27.3872,-0.0291906,0.0368518,-0.00694028,0.0375733,-0.0299121,-1.46722,0.0390463,0.0190947,1994,967,156.078,-27.3872
777,57,155.774,28.0334,-0.0342052,0.0454393,-0.00796575,0.0462282,-0.0349941,-1.47208,0.047043,0.0360797,2001,967,155.774,-28.0334
784,57,155.344,28.618,0,0,0,0,0,0,0,-1,2008,967,155.344,-28.618
791,57,154.881,29.2772,0,0,0,0,0,0,0,-1,2015,967,154.881,-29.2772
798,57,94.5208,12.7969,0,0,0,0,0,0,0,-1,2022,967,94.5207,-12.7969
805,57,84.7698,9.12946,0,0,0,0,0,0,0,-1,2029,967,84.7698,-9.12946
812,57,0,0,0,0,0,0,0,0,0,-1,2036,967,0,0
-700,50,0,0,0,0,0,0,0,0,0,-1,524,974,0,0
-693,50,-102.432,2.85944,0,0,0,0,0,0,0,-1,531,974,-102.432,-2.85945
-686,50,-102.001,5.11273,0,0,0,0,0,0,0,-1,538,974,-102.001,-5.11273
-679,50,-100.914,6.28094,0,0,0,0,0,0,0,-1,545,974,-100.914,-6.28094
-672,50,-81.1913,8.17609,0,0,0,0,0,0,0,-1,552,974,-81.1913,-8.17607
-665,50,-66.1696,0.16217,0,0,0,0,0,0,0,-1,559,974,-66.1696,-0.162174
-658,50,-67.4576,10.0194,0,0,0,0,0,0,0,-1,566,974,-67.4576,-10.0194
-651,50,-147.425,29.0856,0,0,0,0,0,0,0,-1,573,974,-147.425,-29.0856
-644,50,-147.662,28.3267,-0.00836221,0.0524225,0.00205865,0.0524921,-0.00843185,1.53698,0.0381175,0.0431765,580,974,-147.662,-28.3267
-637,50,-147.829,27.5794,-0.00774233,0.0409751,0.00307501,0.0411684,-0.00793565,1.50801,0.0304376,0.0238166,587,974,-147.829,-27.5794
-630,50,-147.997,26.9698,-0.00595743,0.0304155,0.00296711,0.0306559,-0.00619788,1.48993,0.022786,0.0134476,594,974,-147.997,-26.9699
-623,50,-148.103,26.3557,-0.00444951,0.0203191,0.00258902,0.0205869,-0.00471724,1.46775,0.0155376,0.0154123,601,974,-148.103,-26.3556
-616,50,-148.109,25.6746,-0.00298418,0.0105791,0.00191887,0.0108454,-0.00325043,1.43293,0.00852291,0.0177063,608,974,-148.109,-25.6746
-609,50,-148.098,24.8635,-0.00155582,0.00117384,0.00102365,0.00151506,-0.00189705,1.24904,0.00197409,0.0191997,615,974,-148.098,-24.8635
-602,50,-148.186,24.0616,-0.000155944,-0.0079132,-3.56055e-05,-0.00015578,-0.00791337,-0.00458983,0.00522443,0.0172414,622,974,-148.186,-24.0617
-595,50,-148.251,23.3414,0.0012274,-0.0166931,-0.00120365,0.00130788,-0.0167736,-0.0667663,0.0116429,0.023772,629,974,-148.251,-23.3414
-588,50,-148.231,22.5575,0,0,0,0,0,0,0,-1,636,974,-148.231,-22.5575
-581,50,-72.4204,0.485046,0,0,0,0,0,0,0,-1,643,974,-72.4204,-0.485074
-574,50,-72.3653,0.396179,0,0,0,0,0,0,0,-1,650,974,-72.3653,-0.396162
-567,50,-72.3264,0.2995,0,0,0,0,0,0,0,-1,657,974,-72.3264,-0.299482
-560,50,-72.3513,0.199829,0,0,0,0,0,0,0,-1,664,974,-72.3513,-0.199808
-553,50,-72.4231,0.359375,0,0,0,0,0,0,0,-1,671,974,-72.4231,-0.359398
-546,50,-72.4158,0.498962,0,0,0,0,0,0,0,-1,678,974,-72.4158,-0.498949
-539,50,-72.4652,0.52063,0,0,0,0,0,0,0,-1,685,974,-72.4652,-0.520637
-532,50,-72.4564,0.349854,0,0,0,0,0,0,0,-1,692,974,-72.4564,-0.349861
-525,50,-72.4167,0.362976,0,0,0,0,0,0,0,-1,699,974,-72.4167,-0.362984
-518,50,0,0,0,0,0,0,0,0,0,-1,706,974,0,0
-511,50,0,0,0,0,0,0,0,0,0,-1,713,974,0,0
-504,50,0,0,0,0,0,0,0,0,0,-1,720,974,0,0
-497,50,0,0,0,0,0,0,0,0,0,-1,727,974,0,0
-490,50,0,0,0,0,0,0,0,0,0,-1,734,974,0,0
-483,50,0,0,0,0,0,0,0,0,0,-1,741,974,0,0
-476,50,0,0,0,0,0,0,0,0,0,-1,748,974,0,0
-469,50,0,0,0,0,0,0,0,0,0,-1,755,974,0,0
-462,50,0,0,0,0,0,0,0,0,0,-1,762,974,0,0
-455,50,0,0,0,0,0,0,0,0,0,-1,769,974,0,0
-448,50,0,0,0,0,0,0,0,0,0,-1,776,974,0,0
-441,50,0,0,0,0,0,0,0,0,0,-1,783,974,0,0
-434,50,0,0,0,0,0,0,0,0,0,-1,790,974,0,0
-427,50,0,0,0,0,0,0,0,0,0,-1,797,974,0,0
-420,50,0,0,0,0,0,0,0,0,0,-1,804,974,0,0
-413,50,0,0,0,0,0,0,0,0,0,-1,811,974,0,0
-406,50,0,0,0,0,0,0,0,0,0,-1,818,974,0,0
-399,50,0,0,0,0,0,0,0,0,0,-1,825,974,0,0
-392,50,0,0,0,0,0,0,0,0,0,-1,832,974,0,0
-385,50,0,0,0,0,0,0,0,0,0,-1,839,974,0,0
-378,50,0,0,0,0,0,0,0,0,0,-1,846,974,0,0
-371,50,0,0,0,0,0,0,0,0,0,-1,853,974,0,0
-364,50,0,0,0,0,0,0,0,0,0,-1,860,974,0,0
-357,50,0,0,0,0,0,0,0,0,0,-1,867,974,0,0
-350,50,0,0,0,0,0,0,0,0,0,-1,874,974,0,0
-343,50,0,0,0,0,0,0,0,0,0,-1,881,974,0,0
-336,50,0,0,0,0,0,0,0,0,0,-1,888,974,0,0
-329,50,0,0,0,0,0,0,0,0,0,-1,895,974,0,0
-322,50,0,0,0,0,0,0,0,0,0,-1,902,974,0,0
-315,50,0,0,0,0,0,0,0,0,0,-1,909,974,0,0
-308,50,0,0,0,0,0,0,0,0,0,-1,916,974,0,0
-301,50,0,0,0,0,0,0,0,0,0,-1,923,974,0,0
-294,50,0,0,0,0,0,0,0,0,0,-1,930,974,0,0
-287,50,0,0,0,0,0,0,0,0,0,-1,937,974,0,0
-280,50,0,0,0,0,0,0,0,0,0,-1,944,974,0,0
-273,50,0,0,0,0,0,0,0,0,0,-1,951,974,0,0
-266,50,0,0,0,0,0,0,0,0,0,-1,958,974,0,0
-259,50,0,0,0,0,0,0,0,0,0,-1,965,974,0,0
-252,50,0,0,0,0,0,0,0,0,0,-1,972,974,0,0
-245,50,0,0,0,0,0,0,0,0,0,-1,979,974,0,0
-238,50,0,0,0,0,0,0,0,0,0,-1,986,974,0,0
-231,50,0,0,0,0,0,0,0,0,0,-1,993,974,0,0
-224,50,0,0,0,0,0,0,0,0,0,-1,1000,974,0,0
-217,50,0,0,0,0,0,0,0,0,0,-1,1007,974,0,0
-210,50,0,0,0,0,0,0,0,0,0,-1,1014,974,0,0
-203,50,0,0,0,0,0,0,0,0,0,-1,1021,974,0,0
-196,50,0,0,0,0,0,0,0,0,0,-1,1028,974,0,0
-189,50,0,0,0,0,0,0,0,0,0,-1,1035,974,0,0
-182,50,0,0,0,0,0,0,0,0,0,-1,1042,974,0,0
-175,50,0,0,0,0,0,0,0,0,0,-1,1049,974,0,0
-168,50,0,0,0,0,0,0,0,0,0,-1,1056,974,0,0
-161,50,0,0,0,0,0,0,0,0,0,-1,1063,974,0,0
-154,50,0,0,0,0,0,0,0,0,0,-1,1070,974,0,0
-147,50,0,0,0,0,0,0,0,0,0,-1,1077,974,0,0
-140,50,0,0,0,0,0,0,0,0,0,-1,1084,974,0,0
-133,50,0,0,0,0,0,0,0,0,0,-1,1091,974,0,0
-126,50,0,0,0,0,0,0,0,0,0,-1,1098,974,0,0
-119,50,0,0,0,0,0,0,0,0,0,-1,1105,974,0,0
-112,50,0,0,0,0,0,0,0,0,0,-1,1112,974,0,0
-105,50,0,0,0,0,0,0,0,0,0,-1,1119,974,0,0
-98,50,0,0,0,0,0,0,0,0,0,-1,1126,974,0,0
-91,50,0,0,0,0,0,0,0,0,0,-1,1133,974,0,0
-84,50,0,0,0,0,0,0,0,0,0,-1,1140,974,0,0
-77,50,0,0,0,0,0,0,0,0,0,-1,1147,974,0,0
-70,50,0,0,0,0,0,0,0,0,0,-1,1154,974,0,0
-63,50,0,0,0,0,0,0,0,0,0,-1,1161,974,0,0
-56,50,0,0,0,0,0,0,0,0,0,-1,1168,974,0,0
-49,50,0,0,0,0,0,0,0,0,0,-1,1175,974,0,0
-42,50,0,0,0,0,0,0,0,0,0,-1,1182,974,0,0
-35,50,0,0,0,0,0,0,0,0,0,-1,1189,974,0,0
-28,50,0,0,0,0,0,0,0,0,0,-1,1196,974,0,0
-21,50,0,0,0,0,0,0,0,0,0,-1,1203,974,0,0
-14,50,0,0,0,0,0,0,0,0,0,-1,1210,974,0,0
-7,50,0,0,0,0,0,0,0,0,0,-1,1217,974,0,0
0,50,0,0,0,0,0,0,0,0,0,-1,1224,974,0,0
7,50,0,0,0,0,0,0,0,0,0,-1,1231,974,0,0
14,50,0,0,0,0,0,0,0,0,0,-1,1238,974,0,0
21,50,0,0,0,0,0,0,0,0,0,-1,1245,974,0,0
28,50,0,0,0,0,0,0,0,0,0,-1,1252,974,0,0
35,50,0,0,0,0,0,0,0,0,0,-1,1259,974,0,0
42,50,0,0,0,0,0,0,0,0,0,-1,1266,974,0,0
49,50,0,0,0,0,0,0,0,0,0,-1,1273,974,0,0
56,50,0,0,0,0,0,0,0,0,0,-1,1280,974,0,0
63,50,0,0,0,0,0,0,0,0,0,-1,1287,974,0,0
70,50,0,0,0,0,0,0,0,0,0,-1,1294,974,0,0
77,50,0,0,0,0,0,0,0,0,0,-1,1301,974,0,0
84,50,0,0,0,0,0,0,0,0,0,-1,1308,974,0,0
91,50,0,0,0,0,0,0,0,0,0,-1,1315,974,0,0
98,50,0,0,0,0,0,0,0,0,0,-1,1322,974,0,0
105,50,0,0,0,0,0,0,0,0,0,-1,1329,974,0,0
112,50,0,0,0,0,0,0,0,0,0,-1,1336,974,0,0
119,50,0,0,0,0,0,0,0,0,0,-1,1343,974,0,0
126,50,0,0,0,0,0,0,0,0,0,-1,1350,974,0,0
133,50,0,0,0,0,0,0,0,0,0,-1,1357,974,0,0
140,50,0,0,0,0,0,0,0,0,0,-1,1364,974,0,0
147,50,0,0,0,0,0,0,0,0,0,-1,1371,974,0,0
154,50,0,0,0,0,0,0,0,0,0,-1,1378,974,0,0
161,50,0,0,0,0,0,0,0,0,0,-1,1385,974,0,0
168,50,0,0,0,0,0,0,0,0,0,-1,1392,974,0,0
175,50,0,0,0,0,0,0,0,0,0,-1,1399,974,0,0
182,50,0,0,0,0,0,0,0,0,0,-1,1406,974,0,0
189,50,0,0,0,0,0,0,0,0,0,-1,1413,974,0,0
196,50,0,0,0,0,0,0,0,0,0,-1,1420,974,0,0
203,50,0,0,0,0,0,0,0,0,0,-1,1427,974,0,0
210,50,0,0,0,0,0,0,0,0,0,-1,1434,974,0,0
217,50,0,0,0,0,0,0,0,0,0,-1,1441,974,0,0
224,50,0,0,0,0,0,0,0,0,0,-1,1448,974,0,0
231,50,0,0,0,0,0,0,0,0,0,-1,1455,974,0,0
238,50,0,0,0,0,0,0,0,0,0,-1,1462,974,0,0
245,50,0,0,0,0,0,0,0,0,0,-1,1469,974,0,0
252,50,0,0,0,0,0,0,0,0,0,-1,1476,974,0,0
259,50,0,0,0,0,0,0,0,0,0,-1,1483,974,0,0
266,50,0,0,0,0,0,0,0,0,0,-1,1490,974,0,0
273,50,0,0,0,0,0,0,0,0,0,-1,1497,974,0,0
280,50,0,0,0,0,0,0,0,0,0,-1,1504,974,0,0
287,50,0,0,0,0,0,0,0,0,0,-1,1511,974,0,0
294,50,0,0,0,0,0,0,0,0,0,-1,1518,974,0,0
301,50,0,0,0,0,0,0,0,0,0,-1,1525,974,0,0
308,50,0,0,0,0,0,0,0,0,0,-1,1532,974,0,0
315,50,0,0,0,0,0,0,0,0,0,-1,1539,974,0,0
322,50,0,0,0,0,0,0,0,0,0,-1,1546,974,0,0
329,50,0,0,0,0,0,0,0,0,0,-1,1553,974,0,0
336,50,0,0,0,0,0,0,0,0,0,-1,1560,974,0,0
343,50,0,0,0,0,0,0,0,0,0,-1,1567,974,0,0
350,50,0,0,0,0,0,0,0,0,0,-1,1574,974,0,0
357,50,0,0,0,0,0,0,0,0,0,-1,1581,974,0,0
364,50,0,0,0,0,0,0,0,0,0,-1,1588,974,0,0
371,50,0,0,0,0,0,0,0,0,0,-1,1595,974,0,0
378,50,0,0,0,0,0,0,0,0,0,-1,1602,974,0,0
385,50,0,0,0,0,0,0,0,0,0,-1,1609,974,0,0
392,50,0,0,0,0,0,0,0,0,0,-1,1616,974,0,0
399,50,0,0,0,0,0,0,0,0,0,-1,1623,974,0,0
406,50,0,0,0,0,0,0,0,0,0,-1,1630,974,0,0
413,50,0,0,0,0,0,0,0,0,0,-1,1637,974,0,0
420,50,0,0,0,0,0,0,0,0,0,-1,1644,974,0,0
427,50,0,0,0,0,0,0,0,0,0,-1,1651,974,0,0
434,50,0,0,0,0,0,0,0,0,0,-1,1658,974,0,0
441,50,0,0,0,0,0,0,0,0,0,-1,1665,974,0,0
448,50,0,0,0,0,0,0,0,0,0,-1,1672,974,0,0
455,50,0,0,0,0,0,0,0,0,0,-1,1679,974,0,0
462,50,0,0,0,0,0,0,0,0,0,-1,1686,974,0,0
469,50,0,0,0,0,0,0,0,0,0,-1,1693,974,0,0
476,50,0,0,0,0,0,0,0,0,0,-1,1700,974,0,0
483,50,0,0,0,0,0,0,0,0,0,-1,1707,974,0,0
490,50,0,0,0,0,0,0,0,0,0,-1,1714,974,0,0
497,50,0,0,0,0,0,0,0,0,0,-1,1721,974,0,0
504,50,0,0,0,0,0,0,0,0,0,-1,1728,974,0,0
511,50,0,0,0,0,0,0,0,0,0,-1,1735,974,0,0
518,50,0,0,0,0,0,0,0,0,0,-1,1742,974,0,0
525,50,0,0,0,0,0,0,0,0,0,-1,1749,974,0,0
532,50,0,0,0,0,0,0,0,0,0,-1,1756,974,0,0
539,50,0,0,0,0,0,0,0,0,0,-1,1763,974,0,0
546,50,0,0,0,0,0,0,0,0,0,-1,1770,974,0,0
553,50,0,0,0,0,0,0,0,0,0,-1,1777,974,0,0
560,50,0,0,0,0,0,0,0,0,0,-1,1784,974,0,0
567,50,0,0,0,0,0,0,0,0,0,-1,1791,974,0,0
574,50,0,0,0,0,0,0,0,0,0,-1,1798,974,0,0
581,50,0,0,0,0,0,0,0,0,0,-1,1805,974,0,0
588,50,0,0,0,0,0,0,0,0,0,-1,1812,974,0,0
595,50,0,0,0,0,0,0,0,0,0,-1,1819,974,0,0
602,50,0,0,0,0,0,0,0,0,0,-1,1826,974,0,0
609,50,0,0,0,0,0,0,0,0,0,-1,1833,974,0,0
616,50,0,0,0,0,0,0,0,0,0,-1,1840,974,0,0
623,50,0,0,0,0,0,0,0,0,0,-1,1847,974,0,0
630,50,0,0,0,0,0,0,0,0,0,-1,1854,974,0,0
637,50,0,0,0,0,0,0,0,0,0,-1,1861,974,0,0
644,50,159.212,5.3891,0,0,0,0,0,0,0,-1,1868,974,159.212,-5.38913
651,50,159.089,5.42303,0,0,0,0,0,0,0,-1,1875,974,159.089,-5.42305
658,50,159.245,5.41693,0,0,0,0,0,0,0,-1,1882,974,159.244,-5.41691
665,50,159.466,5.13507,0,0,0,0,0,0,0,-1,1889,974,159.466,-5.13507
672,50,159.325,5.2774,0,0,0,0,0,0,0,-1,1896,974,159.325,-5.27738
679,50,159.057,5.36353,0,0,0,0,0,0,0,-1,1903,974,159.057,-5.36354
686,50,159.099,5.3064,0,0,0,0,0,0,0,-1,1910,974,159.099,-5.30642
693,50,159.089,5.32123,0,0,0,0,0,0,0,-1,1917,974,159.089,-5.32123
700,50,159.052,5.42206,0,0,0,0,0,0,0,-1,1924,974,159.052,-5.42208
707,50,159.215,5.29095,0,0,0,0,0,0,0,-1,1931,974,159.215,-5.29096
714,50,159.083,5.10828,0,0,0,0,0,0,0,-1,1938,974,159.083,-5.1083
721,50,157.534,22.3928,0,0,0,0,0,0,0,-1,1945,974,157.535,-22.3928
728,50,157.691,23.0324,0.000250794,-0.0182547,0.000719856,0.000278754,-0.0182827,0.0388213,0.0122824,0.0337008,1952,974,157.692,-23.0324
735,50,157.655,23.8039,-0.00437942,-0.00915692,-0.000593401,-0.00430682,-0.00922952,-0.121743,0.00533262,0.0276169,1959,974,157.655,-23.8039
742,50,157.595,24.5899,-0.00908139,5.90116e-05,-0.001853,0.000420377,-0.00944276,-1.3782,0.00643987,0.0216796,1966,974,157.595,-24.5899
749,50,157.46,25.2084,-0.0138536,0.00932461,-0.00305037,0.00971933,-0.0142483,-1.44211,0.0139198,0.0194112,1973,974,157.46,-25.2085
756,50,157.334,25.8734,-0.0186926,0.0185713,-0.00417899,0.0190342,-0.0191555,-1.46048,0.0220489,0.0185041,1980,974,157.334,-25.8734
763,50,157.13,26.5485,-0.023592,0.0277312,-0.00523472,0.0282597,-0.0241205,-1.47018,0.0302732,0.0177215,1987,974,157.13,-26.5485
770,50,156.912,27.1948,-0.0285801,0.0367701,-0.00622165,0.0373572,-0.0291672,-1.47672,0.0385048,0.0191618,1994,974,156.912,-27.1948
777,50,156.751,27.9193,-0.0336738,0.0456561,-0.00713351,0.0462925,-0.0343101,-1.48183,0.046707,0.0336739,2001,974,156.751,-27.9193
784,50,156.416,28.6592,0,0,0,0,0,0,0,-1,2008,974,156.416,-28.6592
791,50,155.484,29.1358,0,0,0,0,0,0,0,-1,2015,974,155.484,-29.1358
798,50,99.7808,15.0519,0,0,0,0,0,0,0,-1,2022,974,99.7808,-15.052
805,50,95.884,13.8399,0,0,0,0,0,0,0,-1,2029,974,95.8841,-13.8399
812,50,0,0,0,0,0,0,0,0,0,-1,2036,974,0,0
-700,43,0,0,0,0,0,0,0,0,0,-1,524,981,0,0
-693,43,-100.95,1.95203,0,0,0,0,0,0,0,-1,531,981,-100.95,-1.95204
-686,43,-100.614,3.59869,0,0,0,0,0,0,0,-1,538,981,-100.614,-3.5987
-679,43,-99.7601,5.06866,0,0,0,0,0,0,0,-1,545,981,-99.7601,-5.06869
-672,43,-98.6341,6.25378,0,0,0,0,0,0,0,-1,552,981,-98.6341,-6.25376
-665,43,-62.4393,6.80096,0,0,0,0,0,0,0,-1,559,981,-62.4393,-6.80097
-658,43,-96.4501,16.9009,0,0,0,0,0,0,0,-1,566,981,-96.4501,-16.9009
-651,43,-147.832,28.6156,0,0,0,0,0,0,0,-1,573,981,-147.832,-28.6156
-644,43,-148.344,27.9532,-0.00839257,0.0514508,0.00275882,0.0515778,-0.00851948,1.52483,0.0375486,0.0332414,580,981,-148.344,-27.9532
-637,43,-148.644,27.3625,-0.00760639,0.0401347,0.00337772,0.0403725,-0.00784419,1.50051,0.029875,0.0212639,587,981,-148.644,-27.3625
-630,43,-148.723,26.8502,-0.00587044,0.0295498,0.00310075,0.0298192,-0.00613984,1.48413,0.0222108,0.0156824,594,981,-148.723,-26.8502
-623,43,-148.811,26.2552,-0.00444587,0.0193313,0.00254949,0.0196016,-0.00471616,1.46517,0.0148908,0.0150597,601,981,-148.811,-26.2552
-616,43,-148.841,25.5814,-0.00313847,0.00942313,0.00173437,0.00965819,-0.00337354,1.43608,0.00781007,0.0172643,608,981,-148.841,-25.5814
-609,43,-148.822,24.8115,-0.0019262,-0.000186382,0.000710641,6.69857e-05,-0.00217957,1.22831,0.00147588,0.0212095,615,981,-148.822,-24.8115
-602,43,-148.854,24.1075,-0.000785138,-0.00950368,-0.000471741,-0.000759687,-0.00952914,-0.0538981,0.00611528,0.0236247,622,981,-148.854,-24.1075
-595,43,-149.133,23.5098,0.000311989,-0.0185299,-0.0017686,0.000476562,-0.0186945,-0.0927854,0.0126249,0.0254375,629,981,-149.133,-23.5097
-588,43,-149.494,22.9981,0,0,0,0,0,0,0,-1,636,981,-149.494,-22.9981
-581,43,-72.4127,0.449585,0,0,0,0,0,0,0,-1,643,981,-72.4127,-0.449601
-574,43,-72.3796,0.402466,0,0,0,0,0,0,0,-1,650,981,-72.3796,-0.402445
-567,43,-72.3245,0.34906,0,0,0,0,0,0,0,-1,657,981,-72.3245,-0.349055
-560,43,-72.3109,0.30719,0,0,0,0,0,0,0,-1,664,981,-72.3109,-0.307183
-553,43,-72.4063,0.408447,0,0,0,0,0,0,0,-1,671,981,-72.4063,-0.408433
-546,43,-72.4841,0.671204,0,0,0,0,0,0,0,-1,678,981,-72.4841,-0.671202
-539,43,-72.3586,0.661743,0,0,0,0,0,0,0,-1,685,981,-72.3586,-0.661716
-532,43,-72.2639,0.142639,0,0,0,0,0,0,0,-1,692,981,-72.2639,-0.142642
-525,43,-72.2532,0.235413,0,0,0,0,0,0,0,-1,699,981,-72.2533,-0.235409
-518,43,0,0,0,0,0,0,0,0,0,-1,706,981,0,0
-511,43,0,0,0,0,0,0,0,0,0,-1,713,981,0,0
-504,43,0,0,0,0,0,0,0,0,0,-1,720,981,0,0
-497,43,0,0,0,0,0,0,0,0,0,-1,727,981,0,0
-490,43,0,0,0,0,0,0,0,0,0,-1,734,981,0,0
-483,43,0,0,0,0,0,0,0,0,0,-1,741,981,0,0
-476,43,0,0,0,0,0,0,0,0,0,-1,748,981,0,0
-469,43,0,0,0,0,0,0,0,0,0,-1,755,981,0,0
-462,43,0,0,0,0,0,0,0,0,0,-1,762,981,0,0
-455,43,0,0,0,0,0,0,0,0,0,-1,769,981,0,0
-448,43,0,0,0,0,0,0,0,0,0,-1,776,981,0,0
-441,43,0,0,0,0,0,0,0,0,0,-1,783,981,0,0
-434,43,0,0,0,0,0,0,0,0,0,-1,790,981,0,0
-427,43,0,0,0,0,0,0,0,0,0,-1,797,981,0,0
-420,43,0,0,0,0,0,0,0,0,0,-1,804,981,0,0
-413,43,0,0,0,0,0,0,0,0,0,-1,811,981,0,0
-406,43,0,0,0,0,0,0,0,0,0,-1,818,981,0,0
-399,43,0,0,0,0,0,0,0,0,0,-1,825,981,0,0
-392,43,0,0,0,0,0,0,0,0,0,-1,832,981,0,0
-385,43,0,0,0,0,0,0,0,0,0,-1,839,981,0,0
-378,43,0,0,0,0,0,0,0,0,0,-1,846,981,0,0
-371,43,0,0,0,0,0,0,0,0,0,-1,853,981,0,0
-364,43,0,0,0,0,0,0,0,0,0,-1,860,981,0,0
-357,43,0,0,0,0,0,0,0,0,0,-1,867,981,0,0
-350,43,0,0,0,0,0,0,0,0,0,-1,874,981,0,0
-343,43,0,0,0,0,0,0,0,0,0,-1,881,981,0,0
-336,43,0,0,0,0,0,0,0,0,0,-1,888,981,0,0
-329,43,0,0,0,0,0,0,0,0,0,-1,895,981,0,0
-322,43,0,0,0,0,0,0,0,0,0,-1,902,981,0,0
-315,43,0,0,0,0,0,0,0,0,0,-1,909,981,0,0
-308,43,0,0,0,0,0,0,0,0,0,-1,916,981,0,0
-301,43,0,0,0,0,0,0,0,0,0,-1,923,981,0,0
-294,43,0,0,0,0,0,0,0,0,0,-1,930,981,0,0
-287,43,0,0,0,0,0,0,0,0,0,-1,937,981,0,0
-280,43,0,0,0,0,0,0,0,0,0,-1,944,981,0,0
-273,43,0,0,0,0,0,0,0,0,0,-1,951,981,0,0
-266,43,0,0,0,0,0,0,0,0,0,-1,958,981,0,0
-259,43,0,0,0,0,0,0,0,0,0,-1,965,981,0,0
-252,43,0,0,0,0,0,0,0,0,0,-1,972,981,0,0
-245,43,0,0,0,0,0,0,0,0,0,-1,979,981,0,0
-238,43,0,0,0,0,0,0,0,0,0,-1,986,981,0,0
-231,43,0,0,0,0,0,0,0,0,0,-1,993,981,0,0
-224,43,0,0,0,0,0,0,0,0,0,-1,1000,981,0,0
-217,43,0,0,0,0,0,0,0,0,0,-1,1007,981,0,0
-210,43,0,0,0,0,0,0,0,0,0,-1,1014,981,0,0
-203,43,0,0,0,0,0,0,0,0,0,-1,1021,981,0,0
-196,43,0,0,0,0,0,0,0,0,0,-1,1028,981,0,0
-189,43,0,0,0,0,0,0,0,0,0,-1,1035,981,0,0
-182,43,0,0,0,0,0,0,0,0,0,-1,1042,981,0,0
-175,43,0,0,0,0,0,0,0,0,0,-1,1049,981,0,0
-168,43,0,0,0,0,0,0,0,0,0,-1,1056,981,0,0
-161,43,0,0,0,0,0,0,0,0,0,-1,1063,981,0,0
-154,43,0,0,0,0,0,0,0,0,0,-1,1070,981,0,0
-147,43,0,0,0,0,0,0,0,0,0,-1,1077,981,0,0
-140,43,0,0,0,0,0,0,0,0,0,-1,1084,981,0,0
-133,43,0,0,0,0,0,0,0,0,0,-1,1091,981,0,0
-126,43,0,0,0,0,0,0,0,0,0,-1,1098,981,0,0
-119,43,0,0,0,0,0,0,0,0,0,-1,1105,981,0,0
-112,43,0,0,0,0,0,0,0,0,0,-1,1112,981,0,0
-105,43,0,0,0,0,0,0,0,0,0,-1,1119,981,0,0
-98,43,0,0,0,0,0,0,0,0,0,-1,1126,981,0,0
-91,43,0,0,0,0,0,0,0,0,0,-1,1133,981,0,0
-84,43,0,0,0,0,0,0,0,0,0,-1,1140,981,0,0
-77,43,0,0,0,0,0,0,0,0,0,-1,1147,981,0,0
-70,43,0,0,0,0,0,0,0,0,0,-1,1154,981,0,0
-63,43,0,0,0,0,0,0,0,0,0,-1,1161,981,0,0
-56,43,0,0,0,0,0,0,0,0,0,-1,1168,981,0,0
-49,43,0,0,0,0,0,0,0,0,0,-1,1175,981,0,0
-42,43,0,0,0,0,0,0,0,0,0,-1,1182,981,0,0
-35,43,0,0,0,0,0,0,0,0,0,-1,1189,981,0,0
-28,43,0,0,0,0,0,0,0,0,0,-1,1196,981,0,0
-21,43,0,0,0,0,0,0,0,0,0,-1,1203,981,0,0
-14,43,0,0,0,0,0,0,0,0,0,-1,1210,981,0,0
-7,43,0,0,0,0,0,0,0,0,0,-1,1217,981,0,0
0,43,0,0,0,0,0,0,0,0,0,-1,1224,981,0,0
7,43,0,0,0,0,0,0,0,0,0,-1,1231,981,0,0
14,43,0,0,0,0,0,0,0,0,0,-1,1238,981,0,0
21,43,0,0,0,0,0,0,0,0,0,-1,1245,981,0,0
28,43,0,0,0,0,0,0,0,0,0,-1,1252,981,0,0
35,43,0,0,0,0,0,0,0,0,0,-1,1259,981,0,0
42,43,0,0,0,0,0,0,0,0,0,-1,1266,981,0,0
49,43,0,0,0,0,0,0,0,0,0,-1,1273,981,0,0
56,43,0,0,0,0,0,0,0,0,0,-1,1280,981,0,0
63,43,0,0,0,0,0,0,0,0,0,-1,1287,981,0,0
70,43,0,0,0,0,0,0,0,0,0,-1,1294,981,0,0
77,43,0,0,0,0,0,0,0,0,0,-1,1301,981,0,0
84,43,0,0,0,0,0,0,0,0,0,-1,1308,981,0,0
91,43,0,0,0,0,0,0,0,0,0,-1,1315,981,0,0
98,43,0,0,0,0,0,0,0,0,0,-1,1322,981,0,0
105,43,0,0,0,0,0,0,0,0,0,-1,1329,981,0,0
112,43,0,0,0,0,0,0,0,0,0,-1,1336,981,0,0
119,43,0,0,0,0,0,0,0,0,0,-1,1343,981,0,0
126,43,0,0,0,0,0,0,0,0,0,-1,1350,981,0,0
133,43,0,0,0,0,0,0,0,0,0,-1,1357,981,0,0
140,43,0,0,0,0,0,0,0,0,0,-1,1364,981,0,0
147,43,0,0,0,0,0,0,0,0,0,-1,1371,981,0,0
154,43,0,0,0,0,0,0,0,0,0,-1,1378,981,0,0
161,43,0,0,0,0,0,0,0,0,0,-1,1385,981,0,0
168,43,0,0,0,0,0,0,0,0,0,-1,1392,981,0,0
175,43,0,0,0,0,0,0,0,0,0,-1,1399,981,0,0
182,43,0,0,0,0,0,0,0,0,0,-1,1406,981,0,0
189,43,0,0,0,0,0,0,0,0,0,-1,1413,981,0,0
196,43,0,0,0,0,0,0,0,0,0,-1,1420,981,0,0
203,43,0,0,0,0,0,0,0,0,0,-1,1427,981,0,0
210,43,0,0,0,0,0,0,0,0,0,-1,1434,981,0,0
217,43,0,0,0,0,0,0,0,0,0,-1,1441,981,0,0
224,43,0,0,0,0,0,0,0,0,0,-1,1448,981,0,0
231,43,0,0,0,0,0,0,0,0,0,-1,1455,981,0,0
238,43,0,0,0,0,0,0,0,0,0,-1,1462,981,0,0
245,43,0,0,0,0,0,0,0,0,0,-1,1469,981,0,0
252,43,0,0,0,0,0,0,0,0,0,-1,1476,981,0,0
259,43,0,0,0,0,0,0,0,0,0,-1,1483,981,0,0
266,43,0,0,0,0,0,0,0,0,0,-1,1490,981,0,0
273,43,0,0,0,0,0,0,0,0,0,-1,1497,981,0,0
280,43,0,0,0,0,0,0,0,0,0,-1,1504,981,0,0
287,43,0,0,0,0,0,0,0,0,0,-1,1511,981,0,0
294,43,0,0,0,0,0,0,0,0,0,-1,1518,981,0,0
301,43,0,0,0,0,0,0,0,0,0,-1,1525,981,0,0
308,43,0,0,0,0,0,0,0,0,0,-1,1532,981,0,0
315,43,0,0,0,0,0,0,0,0,0,-1,1539,981,0,0
322,43,0,0,0,0,0,0,0,0,0,-1,1546,981,0,0
329,43,0,0,0,0,0,0,0,0,0,-1,1553,981,0,0
336,43,0,0,0,0,0,0,0,0,0,-1,1560,981,0,0
343,43,0,0,0,0,0,0,0,0,0,-1,1567,981,0,0
350,43,0,0,0,0,0,0,0,0,0,-1,1574,981,0,0
357,43,0,0,0,0,0,0,0,0,0,-1,1581,981,0,0
364,43,0,0,0,0,0,0,0,0,0,-1,1588,981,0,0
371,43,0,0,0,0,0,0,0,0,0,-1,1595,981,0,0
378,43,0,0,0,0,0,0,0,0,0,-1,1602,981,0,0
385,43,0,0,0,0,0,0,0,0,0,-1,1609,981,0,0
392,43,0,0,0,0,0,0,0,0,0,-1,1616,981,0,0
399,43,0,0,0,0,0,0,0,0,0,-1,1623,981,0,0
406,43,0,0,0,0,0,0,0,0,0,-1,1630,981,0,0
413,43,0,0,0,0,0,0,0,0,0,-1,1637,981,0,0
420,43,0,0,0,0,0,0,0,0,0,-1,1644,981,0,0
427,43,0,0,0,0,0,0,0,0,0,-1,1651,981,0,0
434,43,0,0,0,0,0,0,0,0,0,-1,1658,981,0,0
441,43,0,0,0,0,0,0,0,0,0,-1,1665,981,0,0
448,43,0,0,0,0,0,0,0,0,0,-1,1672,981,0,0
455,43,0,0,0,0,0,0,0,0,0,-1,1679,981,0,0
462,43,0,0,0,0,0,0,0,0,0,-1,1686,981,0,0
469,43,0,0,0,0,0,0,0,0,0,-1,1693,981,0,0
476,43,0,0,0,0,0,0,0,0,0,-1,1700,981,0,0
483,43,0,0,0,0,0,0,0,0,0,-1,1707,981,0,0
490,43,0,0,0,0,0,0,0,0,0,-1,1714,981,0,0
497,43,0,0,0,0,0,0,0,0,0,-1,1721,981,0,0
504,43,0,0,0,0,0,0,0,0,0,-1,1728,981,0,0
511,43,0,0,0,0,0,0,0,0,0,-1,1735,981,0,0
518,43,0,0,0,0,0,0,0,0,0,-1,1742,981,0,0
525,43,0,0,0,0,0,0,0,0,0,-1,1749,981,0,0
532,43,0,0,0,0,0,0,0,0,0,-1,1756,981,0,0
539,43,0,0,0,0,0,0,0,0,0,-1,1763,981,0,0
546,43,0,0,0,0,0,0,0,0,0,-1,1770,981,0,0
553,43,0,0,0,0,0,0,0,0,0,-1,1777,981,0,0
560,43,0,0,0,0,0,0,0,0,0,-1,1784,981,0,0
567,43,0,0,0,0,0,0,0,0,0,-1,1791,981,0,0
574,43,0,0,0,0,0,0,0,0,0,-1,1798,981,0,0
581,43,0,0,0,0,0,0,0,0,0,-1,1805,981,0,0
588,43,0,0,0,0,0,0,0,0,0,-1,1812,981,0,0
595,43,0,0,0,0,0,0,0,0,0,-1,1819,981,0,0
602,43,0,0,0,0,0,0,0,0,0,-1,1826,981,0,0
609,43,0,0,0,0,0,0,0,0,0,-1,1833,981,0,0
616,43,0,0,0,0,0,0,0,0,0,-1,1840,981,0,0
623,43,0,0,0,0,0,0,0,0,0,-1,1847,981,0,0
630,43,0,0,0,0,0,0,0,0,0,-1,1854,981,0,0
637,43,0,0,0,0,0,0,0,0,0,-1,1861,981,0,0
644,43,159.126,5.42395,0,0,0,0,0,0,0,-1,1868,981,159.126,-5.42398
651,43,159.096,5.40002,0,0,0,0,0,0,0,-1,1875,981,159.096,-5.40002
658,43,159.356,5.39941,0,0,0,0,0,0,0,-1,1882,981,159.356,-5.3994
665,43,159.529,5.28394,0,0,0,0,0,0,0,-1,1889,981,159.529,-5.28397
672,43,159.305,5.14697,0,0,0,0,0,0,0,-1,1896,981,159.305,-5.14699
679,43,158.97,5.22223,0,0,0,0,0,0,0,-1,1903,981,158.97,-5.22224
686,43,159.039,5.31195,0,0,0,0,0,0,0,-1,1910,981,159.039,-5.31194
693,43,159.085,5.36621,0,0,0,0,0,0,0,-1,1917,981,159.085,-5.36622
700,43,159.137,5.39703,0,0,0,0,0,0,0,-1,1924,981,159.137,-5.39704
707,43,159.312,5.27332,0,0,0,0,0,0,0,-1,1931,981,159.312,-5.27329
714,43,159.138,5.28143,0,0,0,0,0,0,0,-1,1938,981,159.138,-5.28146
721,43,158.038,22.4206,0,0,0,0,0,0,0,-1,1945,981,158.038,-22.4206
728,43,158.242,23.1539,0.00236175,-0.020271,0.00130217,0.00243642,-0.0203456,0.0572829,0.0144446,0.0361702,1952,981,158.242,-23.1539
735,43,158.432,23.9088,-0.00270738,-0.0106849,-8.57392e-05,-0.00270646,-0.0106858,-0.010746,0.00641492,0.0198086,1959,981,158.432,-23.9087
742,43,158.285,24.5392,-0.00779191,-0.00104428,-0.00137492,-0.000774879,-0.00806131,-1.37731,0.00513544,0.023043,1966,981,158.285,-24.5393
749,43,158.159,25.1632,-0.0129096,0.00859581,-0.00256312,0.00889707,-0.0132108,-1.45379,0.0128447,0.0239607,1973,981,158.159,-25.1632
756,43,158.106,25.7702,-0.0180704,0.0181817,-0.00364878,0.0185453,-0.018434,-1.47147,0.02135,0.0274352,1980,981,158.106,-25.7702
763,43,158.005,26.3345,-0.0232763,0.0276613,-0.004631,0.028079,-0.0236939,-1.48086,0.0299268,0.0305055,1987,981,158.005,-26.3345
770,43,157.779,27.0713,-0.0285209,0.0369847,-0.00550957,0.0374449,-0.0289811,-1.48747,0.0384547,0.0276183,1994,981,157.779,-27.0713
777,43,157.707,27.7684,-0.0338375,0.0461408,-0.00628946,0.0466324,-0.0343291,-1.4928,0.0469227,0.0328103,2001,981,157.707,-27.7684
784,43,157.577,28.5362,0,0,0,0,0,0,0,-1,2008,981,157.577,-28.5362
791,43,155.91,29.0429,0,0,0,0,0,0,0,-1,2015,981,155.91,-29.0429
798,43,113.706,20.2426,0,0,0,0,0,0,0,-1,2022,981,113.705,-20.2426
805,43,100.68,14.4006,0,0,0,0,0,0,0,-1,2029,981,100.68,-14.4006
812,43,88.1521,11.3432,0,0,0,0,0,0,0,-1,2036,981,88.1521,-11.3432
-700,36,0,0,0,0,0,0,0,0,0,-1,524,988,0,0
-693,36,-99.4285,1.0423,0,0,0,0,0,0,0,-1,531,988,-99.4285,-1.0423
-686,36,-99.1122,2.69891,0,0,0,0,0,0,0,-1,538,988,-99.1122,-2.69891
-679,36,-98.9387,3.27319,0,0,0,0,0,0,0,-1,545,988,-98.9387,-3.27319
-672,36,-92.8255,3.66522,0,0,0,0,0,0,0,-1,552,988,-92.8255,-3.66522
-665,36,-76.8934,4.69366,0,0,0,0,0,0,0,-1,559,988,-76.8934,-4.69369
-658,36,-90.5589,15.0411,0,0,0,0,0,0,0,-1,566,988,-90.5589,-15.0411
-651,36,-148.72,27.9698,0,0,0,0,0,0,0,-1,573,988,-148.72,-27.9698
-644,36,-149.078,27.5907,-0.00912979,0.0507605,0.00308272,0.0509187,-0.00928805,1.5195,0.037428,0.0382307,580,988,-149.078,-27.5907
-637,36,-149.352,27.1191,-0.00822395,0.0394491,0.0033887,0.0396888,-0.00846362,1.50019,0.0296853,0.0239488,587,988,-149.352,-27.1191
-630,36,-149.449,26.6801,-0.00654302,0.0288205,0.00296308,0.0290671,-0.00678957,1.48778,0.0219934,0.0176594,594,988,-149.449,-26.6801
-623,36,-149.538,26.1331,-0.00505027,0.0184901,0.00224448,0.0187022,-0.00526236,1.47658,0.0145432,0.0161945,601,988,-149.538,-26.1331
-616,36,-149.554,25.6283,-0.00370082,0.0084466,0.0012791,0.00857983,-0.00383405,1.46701,0.00733966,0.0174512,608,988,-149.554,-25.6283
-609,36,-149.322,25.0977,-0.0024477,-0.00131602,0.000109246,-0.00130557,-0.00245815,1.47544,0.00142013,0.0315626,615,988,-149.322,-25.0977
-602,36,-149.526,24.3874,-0.00124015,-0.0107985,-0.00122777,-0.00108496,-0.0109537,-0.125731,0.00696899,0.0306821,622,988,-149.526,-24.3874
-595,36,-149.961,23.6536,-2.13148e-05,-0.0199961,-0.00270048,0.000337336,-0.0203548,-0.132037,0.0136837,0.0381229,629,988,-149.961,-23.6536
-588,36,-150.372,23.1175,0,0,0,0,0,0,0,-1,636,988,-150.372,-23.1175
-581,36,-72.3473,0.507568,0,0,0,0,0,0,0,-1,643,988,-72.3473,-0.50759
-574,36,-72.3412,0.423096,0,0,0,0,0,0,0,-1,650,988,-72.3412,-0.423081
-567,36,-72.3419,0.350952,0,0,0,0,0,0,0,-1,657,988,-72.3419,-0.350938
-560,36,-72.3801,0.31012,0,0,0,0,0,0,0,-1,664,988,-72.3801,-0.310147
-553,36,-72.459,0.418152,0,0,0,0,0,0,0,-1,671,988,-72.459,-0.418138
-546,36,-72.4573,0.761353,0,0,0,0,0,0,0,-1,678,988,-72.4573,-0.761375
-539,36,-72.3875,0.629822,0,0,0,0,0,0,0,-1,685,988,-72.3875,-0.629807
-532,36,-72.3541,0.460571,0,0,0,0,0,0,0,-1,692,988,-72.3541,-0.460576
-525,36,-72.4338,0.453003,0,0,0,0,0,0,0,-1,699,988,-72.4338,-0.453011
-518,36,0,0,0,0,0,0,0,0,0,-1,706,988,0,0
-511,36,0,0,0,0,0,0,0,0,0,-1,713,988,0,0
-504,36,0,0,0,0,0,0,0,0,0,-1,720,988,0,0
-497,36,0,0,0,0,0,0,0,0,0,-1,727,988,0,0
-490,36,0,0,0,0,0,0,0,0,0,-1,734,988,0,0
-483,36,0,0,0,0,0,0,0,0,0,-1,741,988,0,0
-476,36,0,0,0,0,0,0,0,0,0,-1,748,988,0,0
-469,36,0,0,0,0,0,0,0,0,0,-1,755,988,0,0
-462,36,0,0,0,0,0,0,0,0,0,-1,762,988,0,0
-455,36,0,0,0,0,0,0,0,0,0,-1,769,988,0,0
-448,36,0,0,0,0,0,0,0,0,0,-1,776,988,0,0
-441,36,0,0,0,0,0,0,0,0,0,-1,783,988,0,0
-434,36,0,0,0,0,0,0,0,0,0,-1,790,988,0,0
-427,36,0,0,0,0,0,0,0,0,0,-1,797,988,0,0
-420,36,0,0,0,0,0,0,0,0,0,-1,804,988,0,0
-413,36,0,0,0,0,0,0,0,0,0,-1,811,988,0,0
-406,36,0,0,0,0,0,0,0,0,0,-1,818,988,0,0
-399,36,0,0,0,0,0,0,0,0,0,-1,825,988,0,0
-392,36,0,0,0,0,0,0,0,0,0,-1,832,988,0,0
-385,36,0,0,0,0,0,0,0,0,0,-1,839,988,0,0
-378,36,0,0,0,0,0,0,0,0,0,-1,846,988,0,0
-371,36,0,0,0,0,0,0,0,0,0,-1,853,988,0,0
-364,36,0,0,0,0,0,0,0,0,0,-1,860,988,0,0
-357,36,0,0,0,0,0,0,0,0,0,-1,867,988,0,0
-350,36,0,0,0,0,0,0,0,0,0,-1,874,988,0,0
-343,36,0,0,0,0,0,0,0,0,0,-1,881,988,0,0
-336,36,0,0,0,0,0,0,0,0,0,-1,888,988,0,0
-329,36,0,0,0,0,0,0,0,0,0,-1,895,988,0,0
-322,36,0,0,0,0,0,0,0,0,0,-1,902,988,0,0
-315,36,0,0,0,0,0,0,0,0,0,-1,909,988,0,0
-308,36,0,0,0,0,0,0,0,0,0,-1,916,988,0,0
-301,36,0,0,0,0,0,0,0,0,0,-1,923,988,0,0
-294,36,0,0,0,0,0,0,0,0,0,-1,930,988,0,0
-287,36,0,0,0,0,0,0,0,0,0,-1,937,988,0,0
-280,36,0,0,0,0,0,0,0,0,0,-1,944,988,0,0
-273,36,0,0,0,0,0,0,0,0,0,-1,951,988,0,0
-266,36,0,0,0,0,0,0,0,0,0,-1,958,988,0,0
-259,36,0,0,0,0,0,0,0,0,0,-1,965,988,0,0
-252,36,0,0,0,0,0,0,0,0,0,-1,972,988,0,0
-245,36,0,0,0,0,0,0,0,0,0,-1,979,988,0,0
-238,36,0,0,0,0,0,0,0,0,0,-1,986,988,0,0
-231,36,0,0,0,0,0,0,0,0,0,-1,993,988,0,0
-224,36,0,0,0,0,0,0,0,0,0,-1,1000,988,0,0
-217,36,0,0,0,0,0,0,0,0,0,-1,1007,988,0,0
-210,36,0,0,0,0,0,0,0,0,0,-1,1014,988,0,0
-203,36,0,0,0,0,0,0,0,0,0,-1,1021,988,0,0
-196,36,0,0,0,0,0,0,0,0,0,-1,1028,988,0,0
-189,36,0,0,0,0,0,0,0,0,0,-1,1035,988,0,0
-182,36,0,0,0,0,0,0,0,0,0,-1,1042,988,0,0
-175,36,0,0,0,0,0,0,0,0,0,-1,1049,988,0,0
-168,36,0,0,0,0,0,0,0,0,0,-1,1056,988,0,0
-161,36,0,0,0,0,0,0,0,0,0,-1,1063,988,0,0
-154,36,0,0,0,0,0,0,0,0,0,-1,1070,988,0,0
-147,36,0,0,0,0,0,0,0,0,0,-1,1077,988,0,0
-140,36,0,0,0,0,0,0,0,0,0,-1,1084,988,0,0
-133,36,0,0,0,0,0,0,0,0,0,-1,1091,988,0,0
-126,36,0,0,0,0,0,0,0,0,0,-1,1098,988,0,0
-119,36,0,0,0,0,0,0,0,0,0,-1,1105,988,0,0
-112,36,0,0,0,0,0,0,0,0,0,-1,1112,988,0,0
-105,36,0,0,0,0,0,0,0,0,0,-1,1119,988,0,0
-98,36,0,0,0,0,0,0,0,0,0,-1,1126,988,0,0
-91,36,0,0,0,0,0,0,0,0,0,-1,1133,988,0,0
-84,36,0,0,0,0,0,0,0,0,0,-1,1140,988,0,0
-77,36,0,0,0,0,0,0,0,0,0,-1,1147,988,0,0
-70,36,0,0,0,0,0,0,0,0,0,-1,1154,988,0,0
-63,36,0,0,0,0,0,0,0,0,0,-1,1161,988,0,0
-56,36,0,0,0,0,0,0,0,0,0,-1,1168,988,0,0
-49,36,0,0,0,0,0,0,0,0,0,-1,1175,988,0,0
-42,36,0,0,0,0,0,0,0,0,0,-1,1182,988,0,0
-35,36,0,0,0,0,0,0,0,0,0,-1,1189,988,0,0
-28,36,0,0,0,0,0,0,0,0,0,-1,1196,988,0,0
-21,36,0,0,0,0,0,0,0,0,0,-1,1203,988,0,0
-14,36,0,0,0,0,0,0,0,0,0,-1,1210,988,0,0
-7,36,0,0,0,0,0,0,0,0,0,-1,1217,988,0,0
0,36,0,0,0,0,0,0,0,0,0,-1,1224,988,0,0
7,36,0,0,0,0,0,0,0,0,0,-1,1231,988,0,0
14,36,0,0,0,0,0,0,0,0,0,-1,1238,988,0,0
21,36,0,0,0,0,0,0,0,0,0,-1,1245,988,0,0
28,36,0,0,0,0,0,0,0,0,0,-1,1252,988,0,0
35,36,0,0,0,0,0,0,0,0,0,-1,1259,988,0,0
42,36,0,0,0,0,0,0,0,0,0,-1,1266,988,0,0
49,36,0,0,0,0,0,0,0,0,0,-1,1273,988,0,0
56,36,0,0,0,0,0,0,0,0,0,-1,1280,988,0,0
63,36,0,0,0,0,0,0,0,0,0,-1,1287,988,0,0
70,36,0,0,0,0,0,0,0,0,0,-1,1294,988,0,0
77,36,0,0,0,0,0,0,0,0,0,-1,1301,988,0,0
84,36,0,0,0,0,0,0,0,0,0,-1,1308,988,0,0
91,36,0,0,0,0,0,0,0,0,0,-1,1315,988,0,0
98,36,0,0,0,0,0,0,0,0,0,-1,1322,988,0,0
105,36,0,0,0,0,0,0,0,0,0,-1,1329,988,0,0
112,36,0,0,0,0,0,0,0,0,0,-1,1336,988,0,0
119,36,0,0,0,0,0,0,0,0,0,-1,1343,988,0,0
126,36,0,0,0,0,0,0,0,0,0,-1,1350,988,0,0
133,36,0,0,0,0,0,0,0,0,0,-1,1357,988,0,0
140,36,0,0,0,0,0,0,0,0,0,-1,1364,988,0,0
147,36,0,0,0,0,0,0,0,0,0,-1,1371,988,0,0
154,36,0,0,0,0,0,0,0,0,0,-1,1378,988,0,0
161,36,0,0,0,0,0,0,0,0,0,-1,1385,988,0,0
168,36,0,0,0,0,0,0,0,0,0,-1,1392,988,0,0
175,36,0,0,0,0,0,0,0,0,0,-1,1399,988,0,0
182,36,0,0,0,0,0,0,0,0,0,-1,1406,988,0,0
189,36,0,0,0,0,0,0,0,0,0,-1,1413,988,0,0
196,36,0,0,0,0,0,0,0,0,0,-1,1420,988,0,0
203,36,0,0,0,0,0,0,0,0,0,-1,1427,988,0,0
210,36,0,0,0,0,0,0,0,0,0,-1,1434,988,0,0
217,36,0,0,0,0,0,0,0,0,0,-1,1441,988,0,0
224,36,0,0,0,0,0,0,0,0,0,-1,1448,988,0,0
231,36,0,0,0,0,0,0,0,0,0,-1,1455,988,0,0
238,36,0,0,0,0,0,0,0,0,0,-1,1462,988,0,0
245,36,0,0,0,0,0,0,0,0,0,-1,1469,988,0,0
252,36,0,0,0,0,0,0,0,0,0,-1,1476,988,0,0
259,36,0,0,0,0,0,0,0,0,0,-1,1483,988,0,0
266,36,0,0,0,0,0,0,0,0,0,-1,1490,988,0,0
273,36,0,0,0,0,0,0,0,0,0,-1,1497,988,0,0
280,36,0,0,0,0,0,0,0,0,0,-1,1504,988,0,0
287,36,0,0,0,0,0,0,0,0,0,-1,1511,988,0,0
294,36,0,0,0,0,0,0,0,0,0,-1,1518,988,0,0
301,36,0,0,0,0,0,0,0,0,0,-1,1525,988,0,0
308,36,0,0,0,0,0,0,0,0,0,-1,1532,988,0,0
315,36,0,0,0,0,0,0,0,0,0,-1,1539,988,0,0
322,36,0,0,0,0,0,0,0,0,0,-1,1546,988,0,0
329,36,0,0,0,0,0,0,0,0,0,-1,1553,988,0,0
336,36,0,0,0,0,0,0,0,0,0,-1,1560,988,0,0
343,36,0,0,0,0,0,0,0,0,0,-1,1567,988,0,0
350,36,0,0,0,0,0,0,0,0,0,-1,1574,988,0,0
357,36,0,0,0,0,0,0,0,0,0,-1,1581,988,0,0
364,36,0,0,0,0,0,0,0,0,0,-1,1588,988,0,0
371,36,0,0,0,0,0,0,0,0,0,-1,1595,988,0,0
378,36,0,0,0,0,0,0,0,0,0,-1,1602,988,0,0
385,36,0,0,0,0,0,0,0,0,0,-1,1609,988,0,0
392,36,0,0,0,0,0,0,0,0,0,-1,1616,988,0,0
399,36,0,0,0,0,0,0,0,0,0,-1,1623,988,0,0
406,36,0,0,0,0,0,0,0,0,0,-1,1630,988,0,0
413,36,0,0,0,0,0,0,0,0,0,-1,1637,988,0,0
420,36,0,0,0,0,0,0,0,0,0,-1,1644,988,0,0
427,36,0,0,0,0,0,0,0,0,0,-1,1651,988,0,0
434,36,0,0,0,0,0,0,0,0,0,-1,1658,988,0,0
441,36,0,0,0,0,0,0,0,0,0,-1,1665,988,0,0
448,36,0,0,0,0,0,0,0,0,0,-1,1672,988,0,0
455,36,0,0,0,0,0,0,0,0,0,-1,1679,988,0,0
462,36,0,0,0,0,0,0,0,0,0,-1,1686,988,0,0
469,36,0,0,0,0,0,0,0,0,0,-1,1693,988,0,0
476,36,0,0,0,0,0,0,0,0,0,-1,1700,988,0,0
483,36,0,0,0,0,0,0,0,0,0,-1,1707,988,0,0
490,36,0,0,0,0,0,0,0,0,0,-1,1714,988,0,0
497,36,0,0,0,0,0,0,0,0,0,-1,1721,988,0,0
504,36,0,0,0,0,0,0,0,0,0,-1,1728,988,0,0
511,36,0,0,0,0,0,0,0,0,0,-1,1735,988,0,0
518,36,0,0,0,0,0,0,0,0,0,-1,1742,988,0,0
525,36,0,0,0,0,0,0,0,0,0,-1,1749,988,0,0
532,36,0,0,0,0,0,0,0,0,0,-1,1756,988,0,0
539,36,0,0,0,0,0,0,0,0,0,-1,1763,988,0,0
546,36,0,0,0,0,0,0,0,0,0,-1,1770,988,0,0
553,36,0,0,0,0,0,0,0,0,0,-1,1777,988,0,0
560,36,0,0,0,0,0,0,0,0,0,-1,1784,988,0,0
567,36,0,0,0,0,0,0,0,0,0,-1,1791,988,0,0
574,36,0,0,0,0,0,0,0,0,0,-1,1798,988,0,0
581,36,0,0,0,0,0,0,0,0,0,-1,1805,988,0,0
588,36,0,0,0,0,0,0,0,0,0,-1,1812,988,0,0
595,36,0,0,0,0,0,0,0,0,0,-1,1819,988,0,0
602,36,0,0,0,0,0,0,0,0,0,-1,1826,988,0,0
609,36,0,0,0,0,0,0,0,0,0,-1,1833,988,0,0
616,36,0,0,0,0,0,0,0,0,0,-1,1840,988,0,0
623,36,0,0,0,0,0,0,0,0,0,-1,1847,988,0,0
630,36,0,0,0,0,0,0,0,0,0,-1,1854,988,0,0
637,36,0,0,0,0,0,0,0,0,0,-1,1861,988,0,0
644,36,159.193,5.341,0,0,0,0,0,0,0,-1,1868,988,159.193,-5.341
651,36,159.204,5.36804,0,0,0,0,0,0,0,-1,1875,988,159.204,-5.36802
658,36,159.308,5.47656,0,0,0,0,0,0,0,-1,1882,988,159.308,-5.47654
665,36,159.348,5.43494,0,0,0,0,0,0,0,-1,1889,988,159.348,-5.43494
672,36,159.224,5.50031,0,0,0,0,0,0,0,-1,1896,988,159.224,-5.50032
679,36,159.053,5.39215,0,0,0,0,0,0,0,-1,1903,988,159.053,-5.39215
686,36,159.046,5.47198,0,0,0,0,0,0,0,-1,1910,988,159.046,-5.472
693,36,159.156,5.4978,0,0,0,0,0,0,0,-1,1917,988,159.155,-5.4978
700,36,159.251,5.45435,0,0,0,0,0,0,0,-1,1924,988,159.251,-5.45435
707,36,159.381,5.29108,0,0,0,0,0,0,0,-1,1931,988,159.381,-5.29109
714,36,159.182,5.22107,0,0,0,0,0,0,0,-1,1938,988,159.182,-5.22109
721,36,114.759,13.3835,0,0,0,0,0,0,0,-1,1945,988,114.759,-13.3835
728,36,159.152,23.459,0,0,0,0,0,0,0,-1,1952,988,159.152,-23.459
735,36,158.938,23.9642,-0.00175665,-0.0116291,0.000166721,-0.00175384,-0.0116319,0.0168811,0.00724116,0.0272572,1959,988,158.938,-23.9642
742,36,158.769,24.4642,-0.00697438,-0.00179517,-0.00108902,-0.00157551,-0.00719405,-1.37175,0.00436665,0.020384,1966,988,158.769,-24.4642
749,36,158.704,25.0735,-0.012209,0.0080414,-0.0022114,0.00828007,-0.0124476,-1.46328,0.0120475,0.0220979,1973,988,158.704,-25.0735
756,36,158.705,25.7262,-0.0174713,0.017833,-0.00320165,0.018121,-0.0177593,-1.48108,0.0207159,0.021709,1980,988,158.705,-25.7262
763,36,158.533,26.236,-0.0227619,0.0275341,-0.00406014,0.0278597,-0.0230875,-1.49076,0.0294574,0.0242404,1987,988,158.533,-26.236
770,36,158.375,26.8285,-0.0280706,0.0371009,-0.00478661,0.0374505,-0.0284203,-1.49787,0.0381495,0.0210618,1994,988,158.375,-26.8285
777,36,158.409,27.5025,-0.0333775,0.0464919,-0.00538045,0.0468527,-0.0337383,-1.50383,0.0467341,0.0317561,2001,988,158.409,-27.5025
784,36,158.682,28.1381,0,0,0,0,0,0,0,-1,2008,988,158.682,-28.1381
791,36,159.058,28.3139,0,0,0,0,0,0,0,-1,2015,988,159.058,-28.3139
798,36,114.126,20.1268,0,0,0,0,0,0,0,-1,2022,988,114.126,-20.1268
805,36,114.409,21.1661,0,0,0,0,0,0,0,-1,2029,988,114.409,-21.1661
812,36,80.2622,5.14569,0,0,0,0,0,0,0,-1,2036,988,80.2621,-5.1457
-700,29,0,0,0,0,0,0,0,0,0,-1,524,995,0,0
-693,29,-97.8289,0.372925,0,0,0,0,0,0,0,-1,531,995,-97.8289,-0.372929
-686,29,-97.6048,1.65991,0,0,0,0,0,0,0,-1,538,995,-97.6048,-1.65989
-679,29,-97.4024,2.89258,0,0,0,0,0,0,0,-1,545,995,-97.4024,-2.8926
-672,29,-97.1027,4.07483,0,0,0,0,0,0,0,-1,552,995,-97.1027,-4.07484
-665,29,-76.1727,4.00098,0,0,0,0,0,0,0,-1,559,995,-76.1727,-4.00097
-658,29,-74.8002,4.05365,0,0,0,0,0,0,0,-1,566,995,-74.8002,-4.05367
-651,29,-91.399,14.4346,0,0,0,0,0,0,0,-1,573,995,-91.399,-14.4346
-644,29,-149.643,27.2741,0,0,0,0,0,0,0,-1,580,995,-149.643,-27.2741
-637,29,-149.98,26.9211,-0.008811,0.0388758,0.00315377,0.0390835,-0.00901867,1.50504,0.0295247,0.0336973,587,995,-149.98,-26.9211
-630,29,-150.068,26.4972,-0.00699703,0.0281389,0.00256492,0.0283252,-0.00718328,1.49831,0.0216783,0.0171389,594,995,-150.068,-26.4972
-623,29,-150.109,26.0574,-0.00545023,0.0177213,0.00169805,0.0178451,-0.00557401,1.49803,0.0141262,0.017954,601,995,-150.109,-26.0574
-616,29,-150.126,25.5785,-0.00411938,0.00761072,0.000597448,0.00764107,-0.00414973,1.52004,0.00690618,0.0318354,608,995,-150.126,-25.5785
-609,29,-149.791,25.4058,0,0,0,0,0,0,0,-1,615,995,-149.791,-25.4058
-602,29,-150.189,24.6736,0,0,0,0,0,0,0,-1,622,995,-150.189,-24.6736
-595,29,-150.713,23.7878,0,0,0,0,0,0,0,-1,629,995,-150.713,-23.7879
-588,29,-151.161,23.2307,0,0,0,0,0,0,0,-1,636,995,-151.161,-23.2307
-581,29,-72.3035,0.499573,0,0,0,0,0,0,0,-1,643,995,-72.3036,-0.499578
-574,29,-72.31,0.427063,0,0,0,0,0,0,0,-1,650,995,-72.31,-0.427046
-567,29,-72.3035,0.407288,0,0,0,0,0,0,0,-1,657,995,-72.3035,-0.407297
-560,29,-72.4127,0.387878,0,0,0,0,0,0,0,-1,664,995,-72.4127,-0.387875
-553,29,-72.4764,0.807861,0,0,0,0,0,0,0,-1,671,995,-72.4764,-0.807876
-546,29,-72.4146,0.674622,0,0,0,0,0,0,0,-1,678,995,-72.4146,-0.674645
-539,29,-72.316,0.321289,0,0,0,0,0,0,0,-1,685,995,-72.316,-0.321271
-532,29,-72.0922,0.0151978,0,0,0,0,0,0,0,-1,692,995,-72.0922,-0.0152197
-525,29,-72.4575,0.468079,0,0,0,0,0,0,0,-1,699,995,-72.4575,-0.4681
-518,29,0,0,0,0,0,0,0,0,0,-1,706,995,0,0
-511,29,0,0,0,0,0,0,0,0,0,-1,713,995,0,0
-504,29,0,0,0,0,0,0,0,0,0,-1,720,995,0,0
-497,29,0,0,0,0,0,0,0,0,0,-1,727,995,0,0
-490,29,0,0,0,0,0,0,0,0,0,-1,734,995,0,0
-483,29,0,0,0,0,0,0,0,0,0,-1,741,995,0,0
-476,29,0,0,0,0,0,0,0,0,0,-1,748,995,0,0
-469,29,0,0,0,0,0,0,0,0,0,-1,755,995,0,0
-462,29,0,0,0,0,0,0,0,0,0,-1,762,995,0,0
-455,29,0,0,0,0,0,0,0,0,0,-1,769,995,0,0
-448,29,0,0,0,0,0,0,0,0,0,-1,776,995,0,0
-441,29,0,0,0,0,0,0,0,0,0,-1,783,995,0,0
-434,29,0,0,0,0,0,0,0,0,0,-1,790,995,0,0
-427,29,0,0,0,0,0,0,0,0,0,-1,797,995,0,0
-420,29,0,0,0,0,0,0,0,0,0,-1,804,995,0,0
-413,29,0,0,0,0,0,0,0,0,0,-1,811,995,0,0
-406,29,0,0,0,0,0,0,0,0,0,-1,818,995,0,0
-399,29,0,0,0,0,0,0,0,0,0,-1,825,995,0,0
-392,29,0,0,0,0,0,0,0,0,0,-1,832,995,0,0
-385,29,0,0,0,0,0,0,0,0,0,-1,839,995,0,0
-378,29,0,0,0,0,0,0,0,0,0,-1,846,995,0,0
-371,29,0,0,0,0,0,0,0,0,0,-1,853,995,0,0
-364,29,0,0,0,0,0,0,0,0,0,-1,860,995,0,0
-357,29,0,0,0,0,0,0,0,0,0,-1,867,995,0,0
-350,29,0,0,0,0,0,0,0,0,0,-1,874,995,0,0
-343,29,0,0,0,0,0,0,0,0,0,-1,881,995,0,0
-336,29,0,0,0,0,0,0,0,0,0,-1,888,995,0,0
-329,29,0,0,0,0,0,0,0,0,0,-1,895,995,0,0
-322,29,0,0,0,0,0,0,0,0,0,-1,902,995,0,0
-315,29,0,0,0,0,0,0,0,0,0,-1,909,995,0,0
-308,29,0,0,0,0,0,0,0,0,0,-1,916,995,0,0
-301,29,0,0,0,0,0,0,0,0,0,-1,923,995,0,0
-294,29,0,0,0,0,0,0,0,0,0,-1,930,995,0,0
-287,29,0,0,0,0,0,0,0,0,0,-1,937,995,0,0
-280,29,0,0,0,0,0,0,0,0,0,-1,944,995,0,0
-273,29,0,0,0,0,0,0,0,0,0,-1,951,995,0,0
-266,29,0,0,0,0,0,0,0,0,0,-1,958,995,0,0
-259,29,0,0,0,0,0,0,0,0,0,-1,965,995,0,0
-252,29,0,0,0,0,0,0,0,0,0,-1,972,995,0,0
-245,29,0,0,0,0,0,0,0,0,0,-1,979,995,0,0
-238,29,0,0,0,0,0,0,0,0,0,-1,986,995,0,0
-231,29,0,0,0,0,0,0,0,0,0,-1,993,995,0,0
-224,29,0,0,0,0,0,0,0,0,0,-1,1000,995,0,0
-217,29,0,0,0,0,0,0,0,0,0,-1,1007,995,0,0
-210,29,0,0,0,0,0,0,0,0,0,-1,1014,995,0,0
-203,29,0,0,0,0,0,0,0,0,0,-1,1021,995,0,0
-196,29,0,0,0,0,0,0,0,0,0,-1,1028,995,0,0
-189,29,0,0,0,0,0,0,0,0,0,-1,1035,995,0,0
-182,29,0,0,0,0,0,0,0,0,0,-1,1042,995,0,0
-175,29,0,0,0,0,0,0,0,0,0,-1,1049,995,0,0
-168,29,0,0,0,0,0,0,0,0,0,-1,1056,995,0,0
-161,29,0,0,0,0,0,0,0,0,0,-1,1063,995,0,0
-154,29,0,0,0,0,0,0,0,0,0,-1,1070,995,0,0
-147,29,0,0,0,0,0,0,0,0,0,-1,1077,995,0,0
-140,29,0,0,0,0,0,0,0,0,0,-1,1084,995,0,0
-133,29,0,0,0,0,0,0,0,0,0,-1,1091,995,0,0
-126,29,0,0,0,0,0,0,0,0,0,-1,1098,995,0,0
-119,29,0,0,0,0,0,0,0,0,0,-1,1105,995,0,0
-112,29,0,0,0,0,0,0,0,0,0,-1,1112,995,0,0
-105,29,0,0,0,0,0,0,0,0,0,-1,1119,995,0,0
-98,29,0,0,0,0,0,0,0,0,0,-1,1126,995,0,0
-91,29,0,0,0,0,0,0,0,0,0,-1,1133,995,0,0
-84,29,0,0,0,0,0,0,0,0,0,-1,1140,995,0,0
-77,29,0,0,0,0,0,0,0,0,0,-1,1147,995,0,0
-70,29,0,0,0,0,0,0,0,0,0,-1,1154,995,0,0
-63,29,0,0,0,0,0,0,0,0,0,-1,1161,995,0,0
-56,29,0,0,0,0,0,0,0,0,0,-1,1168,995,0,0
-49,29,0,0,0,0,0,0,0,0,0,-1,1175,995,0,0
-42,29,0,0,0,0,0,0,0,0,0,-1,1182,995,0,0
-35,29,0,0,0,0,0,0,0,0,0,-1,1189,995,0,0
-28,29,0,0,0,0,0,0,0,0,0,-1,1196,995,0,0
-21,29,0,0,0,0,0,0,0,0,0,-1,1203,995,0,0
-14,29,0,0,0,0,0,0,0,0,0,-1,1210,995,0,0
-7,29,0,0,0,0,0,0,0,0,0,-1,1217,995,0,0
0,29,0,0,0,0,0,0,0,0,0,-1,1224,995,0,0
7,29,0,0,0,0,0,0,0,0,0,-1,1231,995,0,0
14,29,0,0,0,0,0,0,0,0,0,-1,1238,995,0,0
21,29,0,0,0,0,0,0,0,0,0,-1,1245,995,0,0
28,29,0,0,0,0,0,0,0,0,0,-1,1252,995,0,0
35,29,0,0,0,0,0,0,0,0,0,-1,1259,995,0,0
42,29,0,0,0,0,0,0,0,0,0,-1,1266,995,0,0
49,29,0,0,0,0,0,0,0,0,0,-1,1273,995,0,0
56,29,0,0,0,0,0,0,0,0,0,-1,1280,995,0,0
63,29,0,0,0,0,0,0,0,0,0,-1,1287,995,0,0
70,29,0,0,0,0,0,0,0,0,0,-1,1294,995,0,0
77,29,0,0,0,0,0,0,0,0,0,-1,1301,995,0,0
84,29,0,0,0,0,0,0,0,0,0,-1,1308,995,0,0
91,29,0,0,0,0,0,0,0,0,0,-1,1315,995,0,0
98,29,0,0,0,0,0,0,0,0,0,-1,1322,995,0,0
105,29,0,0,0,0,0,0,0,0,0,-1,1329,995,0,0
112,29,0,0,0,0,0,0,0,0,0,-1,1336,995,0,0
119,29,0,0,0,0,0,0,0,0,0,-1,1343,995,0,0
126,29,0,0,0,0,0,0,0,0,0,-1,1350,995,0,0
133,29,0,0,0,0,0,0,0,0,0,-1,1357,995,0,0
140,29,0,0,0,0,0,0,0,0,0,-1,1364,995,0,0
147,29,0,0,0,0,0,0,0,0,0,-1,1371,995,0,0
154,29,0,0,0,0,0,0,0,0,0,-1,1378,995,0,0
161,29,0,0,0,0,0,0,0,0,0,-1,1385,995,0,0
168,29,0,0,0,0,0,0,0,0,0,-1,1392,995,0,0
175,29,0,0,0,0,0,0,0,0,0,-1,1399,995,0,0
182,29,0,0,0,0,0,0,0,0,0,-1,1406,995,0,0
189,29,0,0,0,0,0,0,0,0,0,-1,1413,995,0,0
196,29,0,0,0,0,0,0,0,0,0,-1,1420,995,0,0
203,29,0,0,0,0,0,0,0,0,0,-1,1427,995,0,0
210,29,0,0,0,0,0,0,0,0,0,-1,1434,995,0,0
217,29,0,0,0,0,0,0,0,0,0,-1,1441,995,0,0
224,29,0,0,0,0,0,0,0,0,0,-1,1448,995,0,0
231,29,0,0,0,0,0,0,0,0,0,-1,1455,995,0,0
238,29,0,0,0,0,0,0,0,0,0,-1,1462,995,0,0
245,29,0,0,0,0,0,0,0,0,0,-1,1469,995,0,0
252,29,0,0,0,0,0,0,0,0,0,-1,1476,995,0,0
259,29,0,0,0,0,0,0,0,0,0,-1,1483,995,0,0
266,29,0,0,0,0,0,0,0,0,0,-1,1490,995,0,0
273,29,0,0,0,0,0,0,0,0,0,-1,1497,995,0,0
280,29,0,0,0,0,0,0,0,0,0,-1,1504,995,0,0
287,29,0,0,0,0,0,0,0,0,0,-1,1511,995,0,0
294,29,0,0,0,0,0,0,0,0,0,-1,1518,995,0,0
301,29,0,0,0,0,0,0,0,0,0,-1,1525,995,0,0
308,29,0,0,0,0,0,0,0,0,0,-1,1532,995,0,0
315,29,0,0,0,0,0,0,0,0,0,-1,1539,995,0,0
322,29,0,0,0,0,0,0,0,0,0,-1,1546,995,0,0
329,29,0,0,0,0,0,0,0,0,0,-1,1553,995,0,0
336,29,0,0,0,0,0,0,0,0,0,-1,1560,995,0,0
343,29,0,0,0,0,0,0,0,0,0,-1,1567,995,0,0
350,29,0,0,0,0,0,0,0,0,0,-1,1574,995,0,0
357,29,0,0,0,0,0,0,0,0,0,-1,1581,995,0,0
364,29,0,0,0,0,0,0,0,0,0,-1,1588,995,0,0
371,29,0,0,0,0,0,0,0,0,0,-1,1595,995,0,0
378,29,0,0,0,0,0,0,0,0,0,-1,1602,995,0,0
385,29,0,0,0,0,0,0,0,0,0,-1,1609,995,0,0
392,29,0,0,0,0,0,0,0,0,0,-1,1616,995,0,0
399,29,0,0,0,0,0,0,0,0,0,-1,1623,995,0,0
406,29,0,0,0,0,0,0,0,0,0,-1,1630,995,0,0
413,29,0,0,0,0,0,0,0,0,0,-1,1637,995,0,0
420,29,0,0,0,0,0,0,0,0,0,-1,1644,995,0,0
427,29,0,0,0,0,0,0,0,0,0,-1,1651,995,0,0
434,29,0,0,0,0,0,0,0,0,0,-1,1658,995,0,0
441,29,0,0,0,0,0,0,0,0,0,-1,1665,995,0,0
448,29,0,0,0,0,0,0,0,0,0,-1,1672,995,0,0
455,29,0,0,0,0,0,0,0,0,0,-1,1679,995,0,0
462,29,0,0,0,0,0,0,0,0,0,-1,1686,995,0,0
469,29,0,0,0,0,0,0,0,0,0,-1,1693,995,0,0
476,29,0,0,0,0,0,0,0,0,0,-1,1700,995,0,0
483,29,0,0,0,0,0,0,0,0,0,-1,1707,995,0,0
490,29,0,0,0,0,0,0,0,0,0,-1,1714,995,0,0
497,29,0,0,0,0,0,0,0,0,0,-1,1721,995,0,0
504,29,0,0,0,0,0,0,0,0,0,-1,1728,995,0,0
511,29,0,0,0,0,0,0,0,0,0,-1,1735,995,0,0
518,29,0,0,0,0,0,0,0,0,0,-1,1742,995,0,0
525,29,0,0,0,0,0,0,0,0,0,-1,1749,995,0,0
532,29,0,0,0,0,0,0,0,0,0,-1,1756,995,0,0
539,29,0,0,0,0,0,0,0,0,0,-1,1763,995,0,0
546,29,0,0,0,0,0,0,0,0,0,-1,1770,995,0,0
553,29,0,0,0,0,0,0,0,0,0,-1,1777,995,0,0
560,29,0,0,0,0,0,0,0,0,0,-1,1784,995,0,0
567,29,0,0,0,0,0,0,0,0,0,-1,1791,995,0,0
574,29,0,0,0,0,0,0,0,0,0,-1,1798,995,0,0
581,29,0,0,0,0,0,0,0,0,0,-1,1805,995,0,0
588,29,0,0,0,0,0,0,0,0,0,-1,1812,995,0,0
595,29,0,0,0,0,0,0,0,0,0,-1,1819,995,0,0
602,29,0,0,0,0,0,0,0,0,0,-1,1826,995,0,0
609,29,0,0,0,0,0,0,0,0,0,-1,1833,995,0,0
616,29,0,0,0,0,0,0,0,0,0,-1,1840,995,0,0
623,29,0,0,0,0,0,0,0,0,0,-1,1847,995,0,0
630,29,0,0,0,0,0,0,0,0,0,-1,1854,995,0,0
637,29,0,0,0,0,0,0,0,0,0,-1,1861,995,0,0
644,29,159.497,4.84491,0,0,0,0,0,0,0,-1,1868,995,159.497,-4.8449
651,29,159.243,5.25531,0,0,0,0,0,0,0,-1,1875,995,159.243,-5.25528
658,29,159.137,5.49146,0,0,0,0,0,0,0,-1,1882,995,159.137,-5.49145
665,29,159.234,5.50879,0,0,0,0,0,0,0,-1,1889,995,159.234,-5.50876
672,29,159.155,5.58545,0,0,0,0,0,0,0,-1,1896,995,159.155,-5.58548
679,29,159.052,5.46155,0,0,0,0,0,0,0,-1,1903,995,159.052,-5.46152
686,29,159.102,5.54626,0,0,0,0,0,0,0,-1,1910,995,159.102,-5.54624
693,29,159.183,5.6416,0,0,0,0,0,0,0,-1,1917,995,159.183,-5.64159
700,29,159.214,5.52264,0,0,0,0,0,0,0,-1,1924,995,159.214,-5.52267
707,29,159.251,5.40759,0,0,0,0,0,0,0,-1,1931,995,159.252,-5.40757
714,29,159.1,5.41089,0,0,0,0,0,0,0,-1,1938,995,159.1,-5.41088
721,29,78.8949,6.53455,0,0,0,0,0,0,0,-1,1945,995,78.8949,-6.53457
728,29,159.706,23.4822,0,0,0,0,0,0,0,-1,1952,995,159.706,-23.4822
735,29,159.451,23.9911,-0.00190728,-0.0122512,0.000181229,-0.00190411,-0.0122544,0.0175132,0.00761465,0.0229453,1959,995,159.451,-23.9911
742,29,159.289,24.4999,-0.00692841,-0.00237193,-0.00096409,-0.00217633,-0.00712401,-1.37064,0.00421551,0.017301,1966,995,159.289,-24.4999
749,29,159.236,25.0917,-0.0119629,0.00752009,-0.00197645,0.00771857,-0.0121614,-1.47071,0.0115728,0.0178416,1973,995,159.236,-25.0917
756,29,159.25,25.652,-0.0170087,0.0173762,-0.00285675,0.017612,-0.0172444,-1.48847,0.0201247,0.0178363,1980,995,159.249,-25.652
763,29,159.157,26.064,-0.0220514,0.0271485,-0.00360452,0.0274112,-0.0223141,-1.49805,0.0287591,0.0162305,1987,995,159.157,-26.064
770,29,158.986,26.4905,-0.0270636,0.036789,-0.00421849,0.0370665,-0.0273411,-1.50511,0.0373268,0.0233311,1994,995,158.986,-26.4905
777,29,158.825,27.1129,-0.0320042,0.0462498,-0.00469723,0.0465307,-0.0322852,-1.51106,0.0457515,0.0393787,2001,995,158.825,-27.1129
784,29,158.896,27.6284,0,0,0,0,0,0,0,-1,2008,995,158.896,-27.6283
791,29,114.385,18.9071,0,0,0,0,0,0,0,-1,2015,995,114.385,-18.9071
798,29,114.547,20.011,0,0,0,0,0,0,0,-1,2022,995,114.547,-20.011
805,29,89.9102,12.0472,0,0,0,0,0,0,0,-1,2029,995,89.9103,-12.0472
812,29,74.3464,11.3901,0,0,0,0,0,0,0,-1,2036,995,74.3464,-11.3901
-700,22,0,0,0,0,0,0,0,0,0,-1,524,1002,0,0
-693,22,-96.5399,0.00201416,0,0,0,0,0,0,0,-1,531,1002,-96.5399,-0.00198688
-686,22,-96.4305,1.45563,0,0,0,0,0,0,0,-1,538,1002,-96.4305,-1.45565
-679,22,-96.1309,2.72589,0,0,0,0,0,0,0,-1,545,1002,-96.1309,-2.72589
-672,22,-95.7907,3.92188,0,0,0,0,0,0,0,-1,552,1002,-95.7907,-3.9219
-665,22,-87.7646,3.7699,0,0,0,0,0,0,0,-1,559,1002,-87.7646,-3.76988
-658,22,-68.7921,5.42706,0,0,0,0,0,0,0,-1,566,1002,-68.7921,-5.42709
-651,22,-70.0956,8.71375,0,0,0,0,0,0,0,-1,573,1002,-70.0956,-8.71376
-644,22,-150.362,27.0592,0,0,0,0,0,0,0,-1,580,1002,-150.362,-27.0592
-637,22,-150.603,26.64,-0.00940205,0.0381667,0.00320151,0.0383812,-0.00961656,1.5039,0.0293234,0.0396566,587,1002,-150.603,-26.64
-630,22,-150.603,26.304,-0.00744716,0.0273791,0.00234838,0.0275368,-0.0076048,1.50377,0.0213492,0.0214653,594,1002,-150.603,-26.3039
-623,22,-150.672,25.8914,-0.00582946,0.016907,0.00125498,0.016976,-0.00589852,1.51582,0.0137131,0.0175927,601,1002,-150.672,-25.8914
-616,22,-150.647,25.3486,-0.00449641,0.00674262,-3.89036e-05,0.00674276,-0.00449654,-1.56733,0.00653207,0.0388874,608,1002,-150.647,-25.3486
-609,22,-150.694,24.8433,0,0,0,0,0,0,0,-1,615,1002,-150.694,-24.8434
-602,22,-151.114,24.5497,0,0,0,0,0,0,0,-1,622,1002,-151.114,-24.5498
-595,22,-151.483,23.8389,0,0,0,0,0,0,0,-1,629,1002,-151.483,-23.8389
-588,22,-151.852,23.1281,0,0,0,0,0,0,0,-1,636,1002,-151.852,-23.128
-581,22,-72.3125,0.418152,0,0,0,0,0,0,0,-1,643,1002,-72.3125,-0.41816
-574,22,-72.3202,0.457031,0,0,0,0,0,0,0,-1,650,1002,-72.3202,-0.457039
-567,22,-72.3143,0.489685,0,0,0,0,0,0,0,-1,657,1002,-72.3143,-0.48969
-560,22,-72.375,0.517212,0,0,0,0,0,0,0,-1,664,1002,-72.375,-0.517202
-553,22,-72.4261,0.57373,0,0,0,0,0,0,0,-1,671,1002,-72.4261,-0.573721
-546,22,-72.3248,0.688538,0,0,0,0,0,0,0,-1,678,1002,-72.3248,-0.688512
-539,22,-72.3094,0.448792,0,0,0,0,0,0,0,-1,685,1002,-72.3094,-0.448788
-532,22,-72.2036,0.229858,0,0,0,0,0,0,0,-1,692,1002,-72.2036,-0.229864
-525,22,0,0,0,0,0,0,0,0,0,-1,699,1002,0,0
-518,22,0,0,0,0,0,0,0,0,0,-1,706,1002,0,0
-511,22,0,0,0,0,0,0,0,0,0,-1,713,1002,0,0
-504,22,0,0,0,0,0,0,0,0,0,-1,720,1002,0,0
-497,22,0,0,0,0,0,0,0,0,0,-1,727,1002,0,0
-490,22,0,0,0,0,0,0,0,0,0,-1,734,1002,0,0
-483,22,0,0,0,0,0,0,0,0,0,-1,741,1002,0,0
-476,22,0,0,0,0,0,0,0,0,0,-1,748,1002,0,0
-469,22,0,0,0,0,0,0,0,0,0,-1,755,1002,0,0
-462,22,0,0,0,0,0,0,0,0,0,-1,762,1002,0,0
-455,22,0,0,0,0,0,0,0,0,0,-1,769,1002,0,0
-448,22,0,0,0,0,0,0,0,0,0,-1,776,1002,0,0
-441,22,0,0,0,0,0,0,0,0,0,-1,783,1002,0,0
-434,22,0,0,0,0,0,0,0,0,0,-1,790,1002,0,0
-427,22,0,0,0,0,0,0,0,0,0,-1,797,1002,0,0
-420,22,0,0,0,0,0,0,0,0,0,-1,804,1002,0,0
-413,22,0,0,0,0,0,0,0,0,0,-1,811,1002,0,0
-406,22,0,0,0,0,0,0,0,0,0,-1,818,1002,0,0
-399,22,0,0,0,0,0,0,0,0,0,-1,825,1002,0,0
-392,22,0,0,0,0,0,0,0,0,0,-1,832,1002,0,0
-385,22,0,0,0,0,0,0,0,0,0,-1,839,1002,0,0
-378,22,0,0,0,0,0,0,0,0,0,-1,846,1002,0,0
-371,22,0,0,0,0,0,0,0,0,0,-1,853,1002,0,0
-364,22,0,0,0,0,0,0,0,0,0,-1,860,1002,0,0
-357,22,0,0,0,0,0,0,0,0,0,-1,867,1002,0,0
-350,22,0,0,0,0,0,0,0,0,0,-1,874,1002,0,0
-343,22,0,0,0,0,0,0,0,0,0,-1,881,1002,0,0
-336,22,0,0,0,0,0,0,0,0,0,-1,888,1002,0,0
-329,22,0,0,0,0,0,0,0,0,0,-1,895,1002,0,0
-322,22,0,0,0,0,0,0,0,0,0,-1,902,1002,0,0
-315,22,0,0,0,0,0,0,0,0,0,-1,909,1002,0,0
-308,22,0,0,0,0,0,0,0,0,0,-1,916,1002,0,0
-301,22,0,0,0,0,0,0,0,0,0,-1,923,1002,0,0
-294,22,0,0,0,0,0,0,0,0,0,-1,930,1002,0,0
-287,22,0,0,0,0,0,0,0,0,0,-1,937,1002,0,0
-280,22,0,0,0,0,0,0,0,0,0,-1,944,1002,0,0
-273,22,0,0,0,0,0,0,0,0,0,-1,951,1002,0,0
-266,22,0,0,0,0,0,0,0,0,0,-1,958,1002,0,0
-259,22,0,0,0,0,0,0,0,0,0,-1,965,1002,0,0
-252,22,0,0,0,0,0,0,0,0,0,-1,972,1002,0,0
-245,22,0,0,0,0,0,0,0,0,0,-1,979,1002,0,0
-238,22,0,0,0,0,0,0,0,0,0,-1,986,1002,0,0
-231,22,0,0,0,0,0,0,0,0,0,-1,993,1002,0,0
-224,22,0,0,0,0,0,0,0,0,0,-1,1000,1002,0,0
-217,22,0,0,0,0,0,0,0,0,0,-1,1007,1002,0,0
-210,22,0,0,0,0,0,0,0,0,0,-1,1014,1002,0,0
-203,22,0,0,0,0,0,0,0,0,0,-1,1021,1002,0,0
-196,22,0,0,0,0,0,0,0,0,0,-1,1028,1002,0,0
-189,22,0,0,0,0,0,0,0,0,0,-1,1035,1002,0,0
-182,22,0,0,0,0,0,0,0,0,0,-1,1042,1002,0,0
-175,22,0,0,0,0,0,0,0,0,0,-1,1049,1002,0,0
-168,22,0,0,0,0,0,0,0,0,0,-1,1056,1002,0,0
-161,22,0,0,0,0,0,0,0,0,0,-1,1063,1002,0,0
-154,22,0,0,0,0,0,0,0,0,0,-1,1070,1002,0,0
-147,22,0,0,0,0,0,0,0,0,0,-1,1077,1002,0,0
-140,22,0,0,0,0,0,0,0,0,0,-1,1084,1002,0,0
-133,22,0,0,0,0,0,0,0,0,0,-1,1091,1002,0,0
-126,22,0,0,0,0,0,0,0,0,0,-1,1098,1002,0,0
-119,22,0,0,0,0,0,0,0,0,0,-1,1105,1002,0,0
-112,22,0,0,0,0,0,0,0,0,0,-1,1112,1002,0,0
-105,22,0,0,0,0,0,0,0,0,0,-1,1119,1002,0,0
-98,22,0,0,0,0,0,0,0,0,0,-1,1126,1002,0,0
-91,22,0,0,0,0,0,0,0,0,0,-1,1133,1002,0,0
-84,22,0,0,0,0,0,0,0,0,0,-1,1140,1002,0,0
-77,22,0,0,0,0,0,0,0,0,0,-1,1147,1002,0,0
-70,22,0,0,0,0,0,0,0,0,0,-1,1154,1002,0,0
-63,22,0,0,0,0,0,0,0,0,0,-1,1161,1002,0,0
-56,22,0,0,0,0,0,0,0,0,0,-1,1168,1002,0,0
-49,22,0,0,0,0,0,0,0,0,0,-1,1175,1002,0,0
-42,22,0,0,0,0,0,0,0,0,0,-1,1182,1002,0,0
-35,22,0,0,0,0,0,0,0,0,0,-1,1189,1002,0,0
-28,22,0,0,0,0,0,0,0,0,0,-1,1196,1002,0,0
-21,22,0,0,0,0,0,0,0,0,0,-1,1203,1002,0,0
-14,22,0,0,0,0,0,0,0,0,0,-1,1210,1002,0,0
-7,22,0,0,0,0,0,0,0,0,0,-1,1217,1002,0,0
0,22,0,0,0,0,0,0,0,0,0,-1,1224,1002,0,0
7,22,0,0,0,0,0,0,0,0,0,-1,1231,1002,0,0
14,22,0,0,0,0,0,0,0,0,0,-1,1238,1002,0,0
21,22,0,0,0,0,0,0,0,0,0,-1,1245,1002,0,0
28,22,0,0,0,0,0,0,0,0,0,-1,1252,1002,0,0
35,22,0,0,0,0,0,0,0,0,0,-1,1259,1002,0,0
42,22,0,0,0,0,0,0,0,0,0,-1,1266,1002,0,0
49,22,0,0,0,0,0,0,0,0,0,-1,1273,1002,0,0
56,22,0,0,0,0,0,0,0,0,0,-1,1280,1002,0,0
63,22,0,0,0,0,0,0,0,0,0,-1,1287,1002,0,0
70,22,0,0,0,0,0,0,0,0,0,-1,1294,1002,0,0
77,22,0,0,0,0,0,0,0,0,0,-1,1301,1002,0,0
84,22,0,0,0,0,0,0,0,0,0,-1,1308,1002,0,0
91,22,0,0,0,0,0,0,0,0,0,-1,1315,1002,0,0
98,22,0,0,0,0,0,0,0,0,0,-1,1322,1002,0,0
105,22,0,0,0,0,0,0,0,0,0,-1,1329,1002,0,0
112,22,0,0,0,0,0,0,0,0,0,-1,1336,1002,0,0
119,22,0,0,0,0,0,0,0,0,0,-1,1343,1002,0,0
126,22,0,0,0,0,0,0,0,0,0,-1,1350,1002,0,0
133,22,0,0,0,0,0,0,0,0,0,-1,1357,1002,0,0
140,22,0,0,0,0,0,0,0,0,0,-1,1364,1002,0,0
147,22,0,0,0,0,0,0,0,0,0,-1,1371,1002,0,0
154,22,0,0,0,0,0,0,0,0,0,-1,1378,1002,0,0
161,22,0,0,0,0,0,0,0,0,0,-1,1385,1002,0,0
168,22,0,0,0,0,0,0,0,0,0,-1,1392,1002,0,0
175,22,0,0,0,0,0,0,0,0,0,-1,1399,1002,0,0
182,22,0,0,0,0,0,0,0,0,0,-1,1406,1002,0,0
189,22,0,0,0,0,0,0,0,0,0,-1,1413,1002,0,0
196,22,0,0,0,0,0,0,0,0,0,-1,1420,1002,0,0
203,22,0,0,0,0,0,0,0,0,0,-1,1427,1002,0,0
210,22,0,0,0,0,0,0,0,0,0,-1,1434,1002,0,0
217,22,0,0,0,0,0,0,0,0,0,-1,1441,1002,0,0
224,22,0,0,0,0,0,0,0,0,0,-1,1448,1002,0,0
231,22,0,0,0,0,0,0,0,0,0,-1,1455,1002,0,0
238,22,0,0,0,0,0,0,0,0,0,-1,1462,1002,0,0
245,22,0,0,0,0,0,0,0,0,0,-1,1469,1002,0,0
252,22,0,0,0,0,0,0,0,0,0,-1,1476,1002,0,0
259,22,0,0,0,0,0,0,0,0,0,-1,1483,1002,0,0
266,22,0,0,0,0,0,0,0,0,0,-1,1490,1002,0,0
273,22,0,0,0,0,0,0,0,0,0,-1,1497,1002,0,0
280,22,0,0,0,0,0,0,0,0,0,-1,1504,1002,0,0
287,22,0,0,0,0,0,0,0,0,0,-1,1511,1002,0,0
294,22,0,0,0,0,0,0,0,0,0,-1,1518,1002,0,0
301,22,0,0,0,0,0,0,0,0,0,-1,1525,1002,0,0
308,22,0,0,0,0,0,0,0,0,0,-1,1532,1002,0,0
315,22,0,0,0,0,0,0,0,0,0,-1,1539,1002,0,0
322,22,0,0,0,0,0,0,0,0,0,-1,1546,1002,0,0
329,22,0,0,0,0,0,0,0,0,0,-1,1553,1002,0,0
336,22,0,0,0,0,0,0,0,0,0,-1,1560,1002,0,0
343,22,0,0,0,0,0,0,0,0,0,-1,1567,1002,0,0
350,22,0,0,0,0,0,0,0,0,0,-1,1574,1002,0,0
357,22,0,0,0,0,0,0,0,0,0,-1,1581,1002,0,0
364,22,0,0,0,0,0,0,0,0,0,-1,1588,1002,0,0
371,22,0,0,0,0,0,0,0,0,0,-1,1595,1002,0,0
378,22,0,0,0,0,0,0,0,0,0,-1,1602,1002,0,0
385,22,0,0,0,0,0,0,0,0,0,-1,1609,1002,0,0
392,22,0,0,0,0,0,0,0,0,0,-1,1616,1002,0,0
399,22,0,0,0,0,0,0,0,0,0,-1,1623,1002,0,0
406,22,0,0,0,0,0,0,0,0,0,-1,1630,1002,0,0
413,22,0,0,0,0,0,0,0,0,0,-1,1637,1002,0,0
420,22,0,0,0,0,0,0,0,0,0,-1,1644,1002,0,0
427,22,0,0,0,0,0,0,0,0,0,-1,1651,1002,0,0
434,22,0,0,0,0,0,0,0,0,0,-1,1658,1002,0,0
441,22,0,0,0,0,0,0,0,0,0,-1,1665,1002,0,0
448,22,0,0,0,0,0,0,0,0,0,-1,1672,1002,0,0
455,22,0,0,0,0,0,0,0,0,0,-1,1679,1002,0,0
462,22,0,0,0,0,0,0,0,0,0,-1,1686,1002,0,0
469,22,0,0,0,0,0,0,0,0,0,-1,1693,1002,0,0
476,22,0,0,0,0,0,0,0,0,0,-1,1700,1002,0,0
483,22,0,0,0,0,0,0,0,0,0,-1,1707,1002,0,0
490,22,0,0,0,0,0,0,0,0,0,-1,1714,1002,0,0
497,22,0,0,0,0,0,0,0,0,0,-1,1721,1002,0,0
504,22,0,0,0,0,0,0,0,0,0,-1,1728,1002,0,0
511,22,0,0,0,0,0,0,0,0,0,-1,1735,1002,0,0
518,22,0,0,0,0,0,0,0,0,0,-1,1742,1002,0,0
525,22,0,0,0,0,0,0,0,0,0,-1,1749,1002,0,0
532,22,0,0,0,0,0,0,0,0,0,-1,1756,1002,0,0
539,22,0,0,0,0,0,0,0,0,0,-1,1763,1002,0,0
546,22,0,0,0,0,0,0,0,0,0,-1,1770,1002,0,0
553,22,0,0,0,0,0,0,0,0,0,-1,1777,1002,0,0
560,22,0,0,0,0,0,0,0,0,0,-1,1784,1002,0,0
567,22,0,0,0,0,0,0,0,0,0,-1,1791,1002,0,0
574,22,0,0,0,0,0,0,0,0,0,-1,1798,1002,0,0
581,22,0,0,0,0,0,0,0,0,0,-1,1805,1002,0,0
588,22,0,0,0,0,0,0,0,0,0,-1,1812,1002,0,0
595,22,0,0,0,0,0,0,0,0,0,-1,1819,1002,0,0
602,22,0,0,0,0,0,0,0,0,0,-1,1826,1002,0,0
609,22,0,0,0,0,0,0,0,0,0,-1,1833,1002,0,0
616,22,0,0,0,0,0,0,0,0,0,-1,1840,1002,0,0
623,22,0,0,0,0,0,0,0,0,0,-1,1847,1002,0,0
630,22,0,0,0,0,0,0,0,0,0,-1,1854,1002,0,0
637,22,0,0,0,0,0,0,0,0,0,-1,1861,1002,0,0
644,22,159.148,5.25085,0,0,0,0,0,0,0,-1,1868,1002,159.148,-5.25087
651,22,159.092,5.01123,0,0,0,0,0,0,0,-1,1875,1002,159.092,-5.01123
658,22,159.192,5.52625,0,0,0,0,0,0,0,-1,1882,1002,159.192,-5.52623
665,22,159.288,5.56104,0,0,0,0,0,0,0,-1,1889,1002,159.288,-5.56104
672,22,159.2,5.41565,0,0,0,0,0,0,0,-1,1896,1002,159.201,-5.41566
679,22,159.117,5.34644,0,0,0,0,0,0,0,-1,1903,1002,159.117,-5.34641
686,22,159.177,5.5575,0,0,0,0,0,0,0,-1,1910,1002,159.178,-5.55749
693,22,159.24,5.612,0,0,0,0,0,0,0,-1,1917,1002,159.24,-5.61198
700,22,159.262,5.50946,0,0,0,0,0,0,0,-1,1924,1002,159.262,-5.50944
707,22,159.223,5.51306,0,0,0,0,0,0,0,-1,1931,1002,159.223,-5.51305
714,22,159.085,5.77753,0,0,0,0,0,0,0,-1,1938,1002,159.085,-5.77752
721,22,76.814,2.41211,0,0,0,0,0,0,0,-1,1945,1002,76.814,-2.41212
728,22,160.103,23.7701,0,0,0,0,0,0,0,-1,1952,1002,160.103,-23.7701
735,22,159.963,24.1738,-0.00296702,-0.0114394,-0.000483069,-0.00293957,-0.0114669,-0.0567714,0.00687743,0.0213585,1959,1002,159.963,-24.1737
742,22,159.901,24.5963,-0.0075931,-0.00194164,-0.0013117,-0.00165204,-0.0078827,-1.3535,0.00480017,0.0205502,1966,1002,159.901,-24.5963
749,22,159.747,25.0805,-0.0122769,0.00759591,-0.00199946,0.00779508,-0.0124761,-1.47151,0.0118071,0.0155462,1973,1002,159.747,-25.0805
756,22,159.759,25.5155,-0.0170048,0.0171179,-0.00254658,0.0173069,-0.0171938,-1.49671,0.019919,0.021484,1980,1002,159.759,-25.5155
763,22,159.657,25.935,-0.0217485,0.0265661,-0.00295095,0.0267456,-0.0219281,-1.51002,0.0281476,0.0233227,1987,1002,159.657,-25.935
770,22,159.357,26.2954,-0.0264649,0.0358785,-0.0032089,0.0360432,-0.0266296,-1.51951,0.0363199,0.0245088,1994,1002,159.357,-26.2954
777,22,158.897,26.5436,-0.031095,0.0449892,-0.00331594,0.0451335,-0.0312392,-1.52732,0.0443364,0.0458216,2001,1002,158.897,-26.5436
784,22,158.521,26.8315,0,0,0,0,0,0,0,-1,2008,1002,158.52,-26.8315
791,22,100.772,12.5767,0,0,0,0,0,0,0,-1,2015,1002,100.772,-12.5767
798,22,88.1873,9.98132,0,0,0,0,0,0,0,-1,2022,1002,88.1872,-9.98132
805,22,75.3247,9.49249,0,0,0,0,0,0,0,-1,2029,1002,75.3248,-9.49248
812,22,75.3965,9.88782,0,0,0,0,0,0,0,-1,2036,1002,75.3966,-9.88781
-700,15,0,0,0,0,0,0,0,0,0,-1,524,1009,0,0
-693,15,-95.7462,0.0612793,0,0,0,0,0,0,0,-1,531,1009,-95.7463,-0.0612602
-686,15,-95.0714,1.24689,0,0,0,0,0,0,0,-1,538,1009,-95.0714,-1.24687
-679,15,-94.2675,2.47766,0,0,0,0,0,0,0,-1,545,1009,-94.2675,-2.47764
-672,15,-92.8383,3.98071,0,0,0,0,0,0,0,-1,552,1009,-92.8382,-3.98072
-665,15,-91.6124,4.78375,0,0,0,0,0,0,0,-1,559,1009,-91.6124,-4.78375
-658,15,-67.7799,6.4903,0,0,0,0,0,0,0,-1,566,1009,-67.7799,-6.49027
-651,15,-51.4943,3.62128,0,0,0,0,0,0,0,-1,573,1009,-51.4943,-3.62128
-644,15,-151.096,27.0731,0,0,0,0,0,0,0,-1,580,1009,-151.096,-27.0731
-637,15,-150.998,26.6011,-0.0100278,0.0374314,0.00355803,0.0376967,-0.010293,1.49638,0.0291738,0.0415758,587,1009,-150.998,-26.6011
-630,15,-151.004,26.1802,-0.00784619,0.0266661,0.00238658,0.0268304,-0.00801044,1.50208,0.0210709,0.0230272,594,1009,-151.004,-26.1802
-623,15,-151.079,25.8055,-0.00600855,0.0161723,0.00101577,0.0162187,-0.00605497,1.52513,0.0132985,0.0135895,601,1009,-151.079,-25.8055
-616,15,-151.067,25.4081,-0.00446906,0.00595005,-0.000513699,0.00597532,-0.00449433,-1.52165,0.00606478,0.0247033,608,1009,-151.067,-25.4081
-609,15,-151.18,25.0406,-0.00317136,-0.00399485,-0.00216286,-0.0013814,-0.00578481,-0.691337,0.00348846,0.0324858,615,1009,-151.18,-25.0407
-602,15,-151.388,24.7654,-0.00204788,-0.0136516,-0.00389514,-0.000861634,-0.0148379,-0.295622,0.00961758,0.0302228,622,1009,-151.388,-24.7654
-595,15,-152.196,23.8164,0,0,0,0,0,0,0,-1,629,1009,-152.196,-23.8164
-588,15,-72.2071,0.610718,0,0,0,0,0,0,0,-1,636,1009,-72.2071,-0.61074
-581,15,-72.2703,0.514465,0,0,0,0,0,0,0,-1,643,1009,-72.2703,-0.514438
-574,15,-72.299,0.44397,0,0,0,0,0,0,0,-1,650,1009,-72.299,-0.443981
-567,15,-72.3457,0.428711,0,0,0,0,0,0,0,-1,657,1009,-72.3457,-0.428701
-560,15,-72.3326,0.582153,0,0,0,0,0,0,0,-1,664,1009,-72.3326,-0.582123
-553,15,-72.2341,0.739929,0,0,0,0,0,0,0,-1,671,1009,-72.2341,-0.739918
-546,15,-72.1395,0.576538,0,0,0,0,0,0,0,-1,678,1009,-72.1395,-0.576547
-539,15,-72.1952,0.250854,0,0,0,0,0,0,0,-1,685,1009,-72.1952,-0.250863
-532,15,-72.2346,0.0326538,0,0,0,0,0,0,0,-1,692,1009,-72.2346,-0.0326423
-525,15,0,0,0,0,0,0,0,0,0,-1,699,1009,0,0
-518,15,0,0,0,0,0,0,0,0,0,-1,706,1009,0,0
-511,15,0,0,0,0,0,0,0,0,0,-1,713,1009,0,0
-504,15,0,0,0,0,0,0,0,0,0,-1,720,1009,0,0
-497,15,0,0,0,0,0,0,0,0,0,-1,727,1009,0,0
-490,15,0,0,0,0,0,0,0,0,0,-1,734,1009,0,0
-483,15,0,0,0,0,0,0,0,0,0,-1,741,1009,0,0
-476,15,0,0,0,0,0,0,0,0,0,-1,748,1009,0,0
-469,15,0,0,0,0,0,0,0,0,0,-1,755,1009,0,0
-462,15,0,0,0,0,0,0,0,0,0,-1,762,1009,0,0
-455,15,0,0,0,0,0,0,0,0,0,-1,769,1009,0,0
-448,15,0,0,0,0,0,0,0,0,0,-1,776,1009,0,0
-441,15,0,0,0,0,0,0,0,0,0,-1,783,1009,0,0
-434,15,0,0,0,0,0,0,0,0,0,-1,790,1009,0,0
-427,15,0,0,0,0,0,0,0,0,0,-1,797,1009,0,0
-420,15,0,0,0,0,0,0,0,0,0,-1,804,1009,0,0
-413,15,0,0,0,0,0,0,0,0,0,-1,811,1009,0,0
-406,15,0,0,0,0,0,0,0,0,0,-1,818,1009,0,0
-399,15,0,0,0,0,0,0,0,0,0,-1,825,1009,0,0
-392,15,0,0,0,0,0,0,0,0,0,-1,832,1009,0,0
-385,15,0,0,0,0,0,0,0,0,0,-1,839,1009,0,0
-378,15,0,0,0,0,0,0,0,0,0,-1,846,1009,0,0
-371,15,0,0,0,0,0,0,0,0,0,-1,853,1009,0,0
-364,15,0,0,0,0,0,0,0,0,0,-1,860,1009,0,0
-357,15,0,0,0,0,0,0,0,0,0,-1,867,1009,0,0
-350,15,0,0,0,0,0,0,0,0,0,-1,874,1009,0,0
-343,15,0,0,0,0,0,0,0,0,0,-1,881,1009,0,0
-336,15,0,0,0,0,0,0,0,0,0,-1,888,1009,0,0
-329,15,0,0,0,0,0,0,0,0,0,-1,895,1009,0,0
-322,15,0,0,0,0,0,0,0,0,0,-1,902,1009,0,0
-315,15,0,0,0,0,0,0,0,0,0,-1,909,1009,0,0
-308,15,0,0,0,0,0,0,0,0,0,-1,916,1009,0,0
-301,15,0,0,0,0,0,0,0,0,0,-1,923,1009,0,0
-294,15,0,0,0,0,0,0,0,0,0,-1,930,1009,0,0
-287,15,0,0,0,0,0,0,0,0,0,-1,937,1009,0,0
-280,15,0,0,0,0,0,0,0,0,0,-1,944,1009,0,0
-273,15,0,0,0,0,0,0,0,0,0,-1,951,1009,0,0
-266,15,0,0,0,0,0,0,0,0,0,-1,958,1009,0,0
-259,15,0,0,0,0,0,0,0,0,0,-1,965,1009,0,0
-252,15,0,0,0,0,0,0,0,0,0,-1,972,1009,0,0
-245,15,0,0,0,0,0,0,0,0,0,-1,979,1009,0,0
-238,15,0,0,0,0,0,0,0,0,0,-1,986,1009,0,0
-231,15,0,0,0,0,0,0,0,0,0,-1,993,1009,0,0
-224,15,0,0,0,0,0,0,0,0,0,-1,1000,1009,0,0
-217,15,0,0,0,0,0,0,0,0,0,-1,1007,1009,0,0
-210,15,0,0,0,0,0,0,0,0,0,-1,1014,1009,0,0
-203,15,0,0,0,0,0,0,0,0,0,-1,1021,1009,0,0
-196,15,0,0,0,0,0,0,0,0,0,-1,1028,1009,0,0
-189,15,0,0,0,0,0,0,0,0,0,-1,1035,1009,0,0
-182,15,0,0,0,0,0,0,0,0,0,-1,1042,1009,0,0
-175,15,0,0,0,0,0,0,0,0,0,-1,1049,1009,0,0
-168,15,0,0,0,0,0,0,0,0,0,-1,1056,1009,0,0
-161,15,0,0,0,0,0,0,0,0,0,-1,1063,1009,0,0
-154,15,0,0,0,0,0,0,0,0,0,-1,1070,1009,0,0
-147,15,0,0,0,0,0,0,0,0,0,-1,1077,1009,0,0
-140,15,0,0,0,0,0,0,0,0,0,-1,1084,1009,0,0
-133,15,0,0,0,0,0,0,0,0,0,-1,1091,1009,0,0
-126,15,0,0,0,0,0,0,0,0,0,-1,1098,1009,0,0
-119,15,0,0,0,0,0,0,0,0,0,-1,1105,1009,0,0
-112,15,0,0,0,0,0,0,0,0,0,-1,1112,1009,0,0
-105,15,0,0,0,0,0,0,0,0,0,-1,1119,1009,0,0
-98,15,0,0,0,0,0,0,0,0,0,-1,1126,1009,0,0
-91,15,0,0,0,0,0,0,0,0,0,-1,1133,1009,0,0
-84,15,0,0,0,0,0,0,0,0,0,-1,1140,1009,0,0
-77,15,0,0,0,0,0,0,0,0,0,-1,1147,1009,0,0
-70,15,0,0,0,0,0,0,0,0,0,-1,1154,1009,0,0
-63,15,0,0,0,0,0,0,0,0,0,-1,1161,1009,0,0
-56,15,0,0,0,0,0,0,0,0,0,-1,1168,1009,0,0
-49,15,0,0,0,0,0,0,0,0,0,-1,1175,1009,0,0
-42,15,0,0,0,0,0,0,0,0,0,-1,1182,1009,0,0
-35,15,0,0,0,0,0,0,0,0,0,-1,1189,1009,0,0
-28,15,0,0,0,0,0,0,0,0,0,-1,1196,1009,0,0
-21,15,0,0,0,0,0,0,0,0,0,-1,1203,1009,0,0
-14,15,0,0,0,0,0,0,0,0,0,-1,1210,1009,0,0
-7,15,0,0,0,0,0,0,0,0,0,-1,1217,1009,0,0
0,15,0,0,0,0,0,0,0,0,0,-1,1224,1009,0,0
7,15,0,0,0,0,0,0,0,0,0,-1,1231,1009,0,0
14,15,0,0,0,0,0,0,0,0,0,-1,1238,1009,0,0
21,15,0,0,0,0,0,0,0,0,0,-1,1245,1009,0,0
28,15,0,0,0,0,0,0,0,0,0,-1,1252,1009,0,0
35,15,0,0,0,0,0,0,0,0,0,-1,1259,1009,0,0
42,15,0,0,0,0,0,0,0,0,0,-1,1266,1009,0,0
49,15,0,0,0,0,0,0,0,0,0,-1,1273,1009,0,0
56,15,0,0,0,0,0,0,0,0,0,-1,1280,1009,0,0
63,15,0,0,0,0,0,0,0,0,0,-1,1287,1009,0,0
70,15,0,0,0,0,0,0,0,0,0,-1,1294,1009,0,0
77,15,0,0,0,0,0,0,0,0,0,-1,1301,1009,0,0
84,15,0,0,0,0,0,0,0,0,0,-1,1308,1009,0,0
91,15,0,0,0,0,0,0,0,0,0,-1,1315,1009,0,0
98,15,0,0,0,0,0,0,0,0,0,-1,1322,1009,0,0
105,15,0,0,0,0,0,0,0,0,0,-1,1329,1009,0,0
112,15,0,0,0,0,0,0,0,0,0,-1,1336,1009,0,0
119,15,0,0,0,0,0,0,0,0,0,-1,1343,1009,0,0
126,15,0,0,0,0,0,0,0,0,0,-1,1350,1009,0,0
133,15,0,0,0,0,0,0,0,0,0,-1,1357,1009,0,0
140,15,0,0,0,0,0,0,0,0,0,-1,1364,1009,0,0
147,15,0,0,0,0,0,0,0,0,0,-1,1371,1009,0,0
154,15,0,0,0,0,0,0,0,0,0,-1,1378,1009,0,0
161,15,0,0,0,0,0,0,0,0,0,-1,1385,1009,0,0
168,15,0,0,0,0,0,0,0,0,0,-1,1392,1009,0,0
175,15,0,0,0,0,0,0,0,0,0,-1,1399,1009,0,0
182,15,0,0,0,0,0,0,0,0,0,-1,1406,1009,0,0
189,15,0,0,0,0,0,0,0,0,0,-1,1413,1009,0,0
196,15,0,0,0,0,0,0,0,0,0,-1,1420,1009,0,0
203,15,0,0,0,0,0,0,0,0,0,-1,1427,1009,0,0
210,15,0,0,0,0,0,0,0,0,0,-1,1434,1009,0,0
217,15,0,0,0,0,0,0,0,0,0,-1,1441,1009,0,0
224,15,0,0,0,0,0,0,0,0,0,-1,1448,1009,0,0
231,15,0,0,0,0,0,0,0,0,0,-1,1455,1009,0,0
238,15,0,0,0,0,0,0,0,0,0,-1,1462,1009,0,0
245,15,0,0,0,0,0,0,0,0,0,-1,1469,1009,0,0
252,15,0,0,0,0,0,0,0,0,0,-1,1476,1009,0,0
259,15,0,0,0,0,0,0,0,0,0,-1,1483,1009,0,0
266,15,0,0,0,0,0,0,0,0,0,-1,1490,1009,0,0
273,15,0,0,0,0,0,0,0,0,0,-1,1497,1009,0,0
280,15,0,0,0,0,0,0,0,0,0,-1,1504,1009,0,0
287,15,0,0,0,0,0,0,0,0,0,-1,1511,1009,0,0
294,15,0,0,0,0,0,0,0,0,0,-1,1518,1009,0,0
301,15,0,0,0,0,0,0,0,0,0,-1,1525,1009,0,0
308,15,0,0,0,0,0,0,0,0,0,-1,1532,1009,0,0
315,15,0,0,0,0,0,0,0,0,0,-1,1539,1009,0,0
322,15,0,0,0,0,0,0,0,0,0,-1,1546,1009,0,0
329,15,0,0,0,0,0,0,0,0,0,-1,1553,1009,0,0
336,15,0,0,0,0,0,0,0,0,0,-1,1560,1009,0,0
343,15,0,0,0,0,0,0,0,0,0,-1,1567,1009,0,0
350,15,0,0,0,0,0,0,0,0,0,-1,1574,1009,0,0
357,15,0,0,0,0,0,0,0,0,0,-1,1581,1009,0,0
364,15,0,0,0,0,0,0,0,0,0,-1,1588,1009,0,0
371,15,0,0,0,0,0,0,0,0,0,-1,1595,1009,0,0
378,15,0,0,0,0,0,0,0,0,0,-1,1602,1009,0,0
385,15,0,0,0,0,0,0,0,0,0,-1,1609,1009,0,0
392,15,0,0,0,0,0,0,0,0,0,-1,1616,1009,0,0
399,15,0,0,0,0,0,0,0,0,0,-1,1623,1009,0,0
406,15,0,0,0,0,0,0,0,0,0,-1,1630,1009,0,0
413,15,0,0,0,0,0,0,0,0,0,-1,1637,1009,0,0
420,15,0,0,0,0,0,0,0,0,0,-1,1644,1009,0,0
427,15,0,0,0,0,0,0,0,0,0,-1,1651,1009,0,0
434,15,0,0,0,0,0,0,0,0,0,-1,1658,1009,0,0
441,15,0,0,0,0,0,0,0,0,0,-1,1665,1009,0,0
448,15,0,0,0,0,0,0,0,0,0,-1,1672,1009,0,0
455,15,0,0,0,0,0,0,0,0,0,-1,1679,1009,0,0
462,15,0,0,0,0,0,0,0,0,0,-1,1686,1009,0,0
469,15,0,0,0,0,0,0,0,0,0,-1,1693,1009,0,0
476,15,0,0,0,0,0,0,0,0,0,-1,1700,1009,0,0
483,15,0,0,0,0,0,0,0,0,0,-1,1707,1009,0,0
490,15,0,0,0,0,0,0,0,0,0,-1,1714,1009,0,0
497,15,0,0,0,0,0,0,0,0,0,-1,1721,1009,0,0
504,15,0,0,0,0,0,0,0,0,0,-1,1728,1009,0,0
511,15,0,0,0,0,0,0,0,0,0,-1,1735,1009,0,0
518,15,0,0,0,0,0,0,0,0,0,-1,1742,1009,0,0
525,15,0,0,0,0,0,0,0,0,0,-1,1749,1009,0,0
532,15,0,0,0,0,0,0,0,0,0,-1,1756,1009,0,0
539,15,0,0,0,0,0,0,0,0,0,-1,1763,1009,0,0
546,15,0,0,0,0,0,0,0,0,0,-1,1770,1009,0,0
553,15,0,0,0,0,0,0,0,0,0,-1,1777,1009,0,0
560,15,0,0,0,0,0,0,0,0,0,-1,1784,1009,0,0
567,15,0,0,0,0,0,0,0,0,0,-1,1791,1009,0,0
574,15,0,0,0,0,0,0,0,0,0,-1,1798,1009,0,0
581,15,0,0,0,0,0,0,0,0,0,-1,1805,1009,0,0
588,15,0,0,0,0,0,0,0,0,0,-1,1812,1009,0,0
595,15,0,0,0,0,0,0,0,0,0,-1,1819,1009,0,0
602,15,0,0,0,0,0,0,0,0,0,-1,1826,1009,0,0
609,15,0,0,0,0,0,0,0,0,0,-1,1833,1009,0,0
616,15,0,0,0,0,0,0,0,0,0,-1,1840,1009,0,0
623,15,0,0,0,0,0,0,0,0,0,-1,1847,1009,0,0
630,15,0,0,0,0,0,0,0,0,0,-1,1854,1009,0,0
637,15,0,0,0,0,0,0,0,0,0,-1,1861,1009,0,0
644,15,159.06,5.19537,0,0,0,0,0,0,0,-1,1868,1009,159.06,-5.19535
651,15,159.003,5.14691,0,0,0,0,0,0,0,-1,1875,1009,159.003,-5.14689
658,15,159.162,5.44885,0,0,0,0,0,0,0,-1,1882,1009,159.162,-5.44887
665,15,159.214,5.41229,0,0,0,0,0,0,0,-1,1889,1009,159.214,-5.41227
672,15,159.166,5.35687,0,0,0,0,0,0,0,-1,1896,1009,159.166,-5.35689
679,15,159.226,5.25842,0,0,0,0,0,0,0,-1,1903,1009,159.226,-5.25843
686,15,159.26,5.11072,0,0,0,0,0,0,0,-1,1910,1009,159.26,-5.11072
693,15,159.226,5.14142,0,0,0,0,0,0,0,-1,1917,1009,159.226,-5.1414
700,15,159.224,5.30945,0,0,0,0,0,0,0,-1,1924,1009,159.224,-5.30943
707,15,159.196,5.44867,0,0,0,0,0,0,0,-1,1931,1009,159.196,-5.44864
714,15,159.302,5.64294,0,0,0,0,0,0,0,-1,1938,1009,159.302,-5.64292
721,15,105.871,3.06104,0,0,0,0,0,0,0,-1,1945,1009,105.871,-3.06104
728,15,160.451,23.8718,0,0,0,0,0,0,0,-1,1952,1009,160.451,-23.8718
735,15,160.254,24.3207,0,0,0,0,0,0,0,-1,1959,1009,160.254,-24.3207
742,15,160.52,24.6663,0,0,0,0,0,0,0,-1,1966,1009,160.52,-24.6663
749,15,160.27,25.1633,-0.0127951,0.00796604,-0.00203552,0.00816372,-0.0129928,-1.47398,0.0123203,0.0382084,1973,1009,160.27,-25.1633
756,15,160.261,25.3049,-0.0172812,0.0170569,-0.00225596,0.0172045,-0.0174288,-1.50547,0.0199957,0.025628,1980,1009,160.261,-25.3049
763,15,160.11,25.7356,-0.0217617,0.0260983,-0.0023505,0.0262135,-0.0218768,-1.52184,0.0278025,0.0162433,1987,1009,160.11,-25.7356
770,15,159.832,25.9863,-0.0261822,0.0350228,-0.00231549,0.0351103,-0.0262697,-1.53304,0.0355601,0.0225799,1994,1009,159.832,-25.9863
777,15,159.313,26.1884,-0.0304707,0.0437564,-0.00214661,0.0438185,-0.0305327,-1.54191,0.0431545,0.0466124,2001,1009,159.313,-26.1884
784,15,158.864,26.4194,0,0,0,0,0,0,0,-1,2008,1009,158.864,-26.4194
791,15,77.2153,5.6933,0,0,0,0,0,0,0,-1,2015,1009,77.2154,-5.69328
798,15,88.0789,8.15259,0,0,0,0,0,0,0,-1,2022,1009,88.0789,-8.1526
805,15,88.3564,8.5954,0,0,0,0,0,0,0,-1,2029,1009,88.3564,-8.59542
812,15,88.9314,8.58789,0,0,0,0,0,0,0,-1,2036,1009,88.9313,-8.58789
-700,8,0,0,0,0,0,0,0,0,0,-1,524,1016,0,0
-693,8,-94.4625,-0.110535,0,0,0,0,0,0,0,-1,531,1016,-94.4625,0.110518
-686,8,-93.652,1.13306,0,0,0,0,0,0,0,-1,538,1016,-93.652,-1.13308
-679,8,-92.8582,2.35199,0,0,0,0,0,0,0,-1,545,1016,-92.8582,-2.35199
-672,8,-91.9374,3.4234,0,0,0,0,0,0,0,-1,552,1016,-91.9374,-3.42337
-665,8,-91.0598,4.48438,0,0,0,0,0,0,0,-1,559,1016,-91.0598,-4.48439
-658,8,-67.093,6.67358,0,0,0,0,0,0,0,-1,566,1016,-67.093,-6.67358
-651,8,-66.0091,7.37134,0,0,0,0,0,0,0,-1,573,1016,-66.0091,-7.37133
-644,8,-148.952,25.9857,0,0,0,0,0,0,0,-1,580,1016,-148.952,-25.9857
-637,8,-151.373,26.4977,0,0,0,0,0,0,0,-1,587,1016,-151.373,-26.4977
-630,8,-151.313,26.042,-0.00790752,0.0260091,0.00210113,0.0261388,-0.00803719,1.50916,0.0206335,0.0303512,594,1016,-151.313,-26.042
-623,8,-151.334,25.8121,-0.00604583,0.0155896,0.000623715,0.0156076,-0.00606379,1.542,0.0129101,0.0204977,601,1016,-151.334,-25.8121
-616,8,-151.396,25.5197,-0.00454376,0.00537589,-0.000990301,0.00547379,-0.00464165,-1.47226,0.00584674,0.0277159,608,1016,-151.396,-25.5197
-609,8,-151.572,25.0501,-0.00336823,-0.0046227,-0.00269893,-0.00122461,-0.00676632,-0.671224,0.00416315,0.0255588,615,1016,-151.572,-25.0501
-602,8,-151.436,24.799,-0.00247627,-0.0143916,-0.00446049,-0.000991511,-0.0158764,-0.321333,0.0102697,0.0324581,622,1016,-151.436,-24.799
-595,8,-151.486,24.3539,0,0,0,0,0,0,0,-1,629,1016,-151.486,-24.3539
-588,8,-72.1575,0.396667,0,0,0,0,0,0,0,-1,636,1016,-72.1575,-0.396696
-581,8,-72.2949,0.488342,0,0,0,0,0,0,0,-1,643,1016,-72.2949,-0.488366
-574,8,-72.2419,0.491821,0,0,0,0,0,0,0,-1,650,1016,-72.242,-0.491798
-567,8,-72.2828,0.555176,0,0,0,0,0,0,0,-1,657,1016,-72.2828,-0.555176
-560,8,-72.3215,0.677917,0,0,0,0,0,0,0,-1,664,1016,-72.3215,-0.677912
-553,8,-72.1692,0.698608,0,0,0,0,0,0,0,-1,671,1016,-72.1692,-0.698607
-546,8,-72.1154,0.481506,0,0,0,0,0,0,0,-1,678,1016,-72.1154,-0.481502
-539,8,-72.0368,0.219299,0,0,0,0,0,0,0,-1,685,1016,-72.0368,-0.219299
-532,8,-72.2081,0.637329,0,0,0,0,0,0,0,-1,692,1016,-72.2082,-0.637349
-525,8,0,0,0,0,0,0,0,0,0,-1,699,1016,0,0
-518,8,0,0,0,0,0,0,0,0,0,-1,706,1016,0,0
-511,8,0,0,0,0,0,0,0,0,0,-1,713,1016,0,0
-504,8,0,0,0,0,0,0,0,0,0,-1,720,1016,0,0
-497,8,0,0,0,0,0,0,0,0,0,-1,727,1016,0,0
-490,8,0,0,0,0,0,0,0,0,0,-1,734,1016,0,0
-483,8,0,0,0,0,0,0,0,0,0,-1,741,1016,0,0
-476,8,0,0,0,0,0,0,0,0,0,-1,748,1016,0,0
-469,8,0,0,0,0,0,0,0,0,0,-1,755,1016,0,0
-462,8,0,0,0,0,0,0,0,0,0,-1,762,1016,0,0
-455,8,0,0,0,0,0,0,0,0,0,-1,769,1016,0,0
-448,8,0,0,0,0,0,0,0,0,0,-1,776,1016,0,0
-441,8,0,0,0,0,0,0,0,0,0,-1,783,1016,0,0
-434,8,0,0,0,0,0,0,0,0,0,-1,790,1016,0,0
-427,8,0,0,0,0,0,0,0,0,0,-1,797,1016,0,0
-420,8,0,0,0,0,0,0,0,0,0,-1,804,1016,0,0
-413,8,0,0,0,0,0,0,0,0,0,-1,811,1016,0,0
-406,8,0,0,0,0,0,0,0,0,0,-1,818,1016,0,0
-399,8,0,0,0,0,0,0,0,0,0,-1,825,1016,0,0
-392,8,0,0,0,0,0,0,0,0,0,-1,832,1016,0,0
-385,8,0,0,0,0,0,0,0,0,0,-1,839,1016,0,0
-378,8,0,0,0,0,0,0,0,0,0,-1,846,1016,0,0
-371,8,0,0,0,0,0,0,0,0,0,-1,853,1016,0,0
-364,8,0,0,0,0,0,0,0,0,0,-1,860,1016,0,0
-357,8,0,0,0,0,0,0,0,0,0,-1,867,1016,0,0
-350,8,0,0,0,0,0,0,0,0,0,-1,874,1016,0,0
-343,8,0,0,0,0,0,0,0,0,0,-1,881,1016,0,0
-336,8,0,0,0,0,0,0,0,0,0,-1,888,1016,0,0
-329,8,0,0,0,0,0,0,0,0,0,-1,895,1016,0,0
-322,8,0,0,0,0,0,0,0,0,0,-1,902,1016,0,0
-315,8,0,0,0,0,0,0,0,0,0,-1,909,1016,0,0
-308,8,0,0,0,0,0,0,0,0,0,-1,916,1016,0,0
-301,8,0,0,0,0,0,0,0,0,0,-1,923,1016,0,0
-294,8,0,0,0,0,0,0,0,0,0,-1,930,1016,0,0
-287,8,0,0,0,0,0,0,0,0,0,-1,937,1016,0,0
-280,8,0,0,0,0,0,0,0,0,0,-1,944,1016,0,0
-273,8,0,0,0,0,0,0,0,0,0,-1,951,1016,0,0
-266,8,0,0,0,0,0,0,0,0,0,-1,958,1016,0,0
-259,8,0,0,0,0,0,0,0,0,0,-1,965,1016,0,0
-252,8,0,0,0,0,0,0,0,0,0,-1,972,1016,0,0
-245,8,0,0,0,0,0,0,0,0,0,-1,979,1016,0,0
-238,8,0,0,0,0,0,0,0,0,0,-1,986,1016,0,0
-231,8,0,0,0,0,0,0,0,0,0,-1,993,1016,0,0
-224,8,0,0,0,0,0,0,0,0,0,-1,1000,1016,0,0
-217,8,0,0,0,0,0,0,0,0,0,-1,1007,1016,0,0
-210,8,0,0,0,0,0,0,0,0,0,-1,1014,1016,0,0
-203,8,0,0,0,0,0,0,0,0,0,-1,1021,1016,0,0
-196,8,0,0,0,0,0,0,0,0,0,-1,1028,1016,0,0
-189,8,0,0,0,0,0,0,0,0,0,-1,1035,1016,0,0
-182,8,0,0,0,0,0,0,0,0,0,-1,1042,1016,0,0
-175,8,0,0,0,0,0,0,0,0,0,-1,1049,1016,0,0
-168,8,0,0,0,0,0,0,0,0,0,-1,1056,1016,0,0
-161,8,0,0,0,0,0,0,0,0,0,-1,1063,1016,0,0
-154,8,0,0,0,0,0,0,0,0,0,-1,1070,1016,0,0
-147,8,0,0,0,0,0,0,0,0,0,-1,1077,1016,0,0
-140,8,0,0,0,0,0,0,0,0,0,-1,1084,1016,0,0
-133,8,0,0,0,0,0,0,0,0,0,-1,1091,1016,0,0
-126,8,0,0,0,0,0,0,0,0,0,-1,1098,1016,0,0
-119,8,0,0,0,0,0,0,0,0,0,-1,1105,1016,0,0
-112,8,0,0,0,0,0,0,0,0,0,-1,1112,1016,0,0
-105,8,0,0,0,0,0,0,0,0,0,-1,1119,1016,0,0
-98,8,0,0,0,0,0,0,0,0,0,-1,1126,1016,0,0
-91,8,0,0,0,0,0,0,0,0,0,-1,1133,1016,0,0
-84,8,0,0,0,0,0,0,0,0,0,-1,1140,1016,0,0
-77,8,0,0,0,0,0,0,0,0,0,-1,1147,1016,0,0
-70,8,0,0,0,0,0,0,0,0,0,-1,1154,1016,0,0
-63,8,0,0,0,0,0,0,0,0,0,-1,1161,1016,0,0
-56,8,0,0,0,0,0,0,0,0,0,-1,1168,1016,0,0
-49,8,0,0,0,0,0,0,0,0,0,-1,1175,1016,0,0
-42,8,0,0,0,0,0,0,0,0,0,-1,1182,1016,0,0
-35,8,0,0,0,0,0,0,0,0,0,-1,1189,1016,0,0
-28,8,0,0,0,0,0,0,0,0,0,-1,1196,1016,0,0
-21,8,0,0,0,0,0,0,0,0,0,-1,1203,1016,0,0
-14,8,0,0,0,0,0,0,0,0,0,-1,1210,1016,0,0
-7,8,0,0,0,0,0,0,0,0,0,-1,1217,1016,0,0
0,8,0,0,0,0,0,0,0,0,0,-1,1224,1016,0,0
7,8,0,0,0,0,0,0,0,0,0,-1,1231,1016,0,0
14,8,0,0,0,0,0,0,0,0,0,-1,1238,1016,0,0
21,8,0,0,0,0,0,0,0,0,0,-1,1245,1016,0,0
28,8,0,0,0,0,0,0,0,0,0,-1,1252,1016,0,0
35,8,0,0,0,0,0,0,0,0,0,-1,1259,1016,0,0
42,8,0,0,0,0,0,0,0,0,0,-1,1266,1016,0,0
49,8,0,0,0,0,0,0,0,0,0,-1,1273,1016,0,0
56,8,0,0,0,0,0,0,0,0,0,-1,1280,1016,0,0
63,8,0,0,0,0,0,0,0,0,0,-1,1287,1016,0,0
70,8,0,0,0,0,0,0,0,0,0,-1,1294,1016,0,0
77,8,0,0,0,0,0,0,0,0,0,-1,1301,1016,0,0
84,8,0,0,0,0,0,0,0,0,0,-1,1308,1016,0,0
91,8,0,0,0,0,0,0,0,0,0,-1,1315,1016,0,0
98,8,0,0,0,0,0,0,0,0,0,-1,1322,1016,0,0
105,8,0,0,0,0,0,0,0,0,0,-1,1329,1016,0,0
112,8,0,0,0,0,0,0,0,0,0,-1,1336,1016,0,0
119,8,0,0,0,0,0,0,0,0,0,-1,1343,1016,0,0
126,8,0,0,0,0,0,0,0,0,0,-1,1350,1016,0,0
133,8,0,0,0,0,0,0,0,0,0,-1,1357,1016,0,0
140,8,0,0,0,0,0,0,0,0,0,-1,1364,1016,0,0
147,8,0,0,0,0,0,0,0,0,0,-1,1371,1016,0,0
154,8,0,0,0,0,0,0,0,0,0,-1,1378,1016,0,0
161,8,0,0,0,0,0,0,0,0,0,-1,1385,1016,0,0
168,8,0,0,0,0,0,0,0,0,0,-1,1392,1016,0,0
175,8,0,0,0,0,0,0,0,0,0,-1,1399,1016,0,0
182,8,0,0,0,0,0,0,0,0,0,-1,1406,1016,0,0
189,8,0,0,0,0,0,0,0,0,0,-1,1413,1016,0,0
196,8,0,0,0,0,0,0,0,0,0,-1,1420,1016,0,0
203,8,0,0,0,0,0,0,0,0,0,-1,1427,1016,0,0
210,8,0,0,0,0,0,0,0,0,0,-1,1434,1016,0,0
217,8,0,0,0,0,0,0,0,0,0,-1,1441,1016,0,0
224,8,0,0,0,0,0,0,0,0,0,-1,1448,1016,0,0
231,8,0,0,0,0,0,0,0,0,0,-1,1455,1016,0,0
238,8,0,0,0,0,0,0,0,0,0,-1,1462,1016,0,0
245,8,0,0,0,0,0,0,0,0,0,-1,1469,1016,0,0
252,8,0,0,0,0,0,0,0,0,0,-1,1476,1016,0,0
259,8,0,0,0,0,0,0,0,0,0,-1,1483,1016,0,0
266,8,0,0,0,0,0,0,0,0,0,-1,1490,1016,0,0
273,8,0,0,0,0,0,0,0,0,0,-1,1497,1016,0,0
280,8,0,0,0,0,0,0,0,0,0,-1,1504,1016,0,0
287,8,0,0,0,0,0,0,0,0,0,-1,1511,1016,0,0
294,8,0,0,0,0,0,0,0,0,0,-1,1518,1016,0,0
301,8,0,0,0,0,0,0,0,0,0,-1,1525,1016,0,0
308,8,0,0,0,0,0,0,0,0,0,-1,1532,1016,0,0
315,8,0,0,0,0,0,0,0,0,0,-1,1539,1016,0,0
322,8,0,0,0,0,0,0,0,0,0,-1,1546,1016,0,0
329,8,0,0,0,0,0,0,0,0,0,-1,1553,1016,0,0
336,8,0,0,0,0,0,0,0,0,0,-1,1560,1016,0,0
343,8,0,0,0,0,0,0,0,0,0,-1,1567,1016,0,0
350,8,0,0,0,0,0,0,0,0,0,-1,1574,1016,0,0
357,8,0,0,0,0,0,0,0,0,0,-1,1581,1016,0,0
364,8,0,0,0,0,0,0,0,0,0,-1,1588,1016,0,0
371,8,0,0,0,0,0,0,0,0,0,-1,1595,1016,0,0
378,8,0,0,0,0,0,0,0,0,0,-1,1602,1016,0,0
385,8,0,0,0,0,0,0,0,0,0,-1,1609,1016,0,0
392,8,0,0,0,0,0,0,0,0,0,-1,1616,1016,0,0
399,8,0,0,0,0,0,0,0,0,0,-1,1623,1016,0,0
406,8,0,0,0,0,0,0,0,0,0,-1,1630,1016,0,0
413,8,0,0,0,0,0,0,0,0,0,-1,1637,1016,0,0
420,8,0,0,0,0,0,0,0,0,0,-1,1644,1016,0,0
427,8,0,0,0,0,0,0,0,0,0,-1,1651,1016,0,0
434,8,0,0,0,0,0,0,0,0,0,-1,1658,1016,0,0
441,8,0,0,0,0,0,0,0,0,0,-1,1665,1016,0,0
448,8,0,0,0,0,0,0,0,0,0,-1,1672,1016,0,0
455,8,0,0,0,0,0,0,0,0,0,-1,1679,1016,0,0
462,8,0,0,0,0,0,0,0,0,0,-1,1686,1016,0,0
469,8,0,0,0,0,0,0,0,0,0,-1,1693,1016,0,0
476,8,0,0,0,0,0,0,0,0,0,-1,1700,1016,0,0
483,8,0,0,0,0,0,0,0,0,0,-1,1707,1016,0,0
490,8,0,0,0,0,0,0,0,0,0,-1,1714,1016,0,0
497,8,0,0,0,0,0,0,0,0,0,-1,1721,1016,0,0
504,8,0,0,0,0,0,0,0,0,0,-1,1728,1016,0,0
511,8,0,0,0,0,0,0,0,0,0,-1,1735,1016,0,0
518,8,0,0,0,0,0,0,0,0,0,-1,1742,1016,0,0
525,8,0,0,0,0,0,0,0,0,0,-1,1749,1016,0,0
532,8,0,0,0,0,0,0,0,0,0,-1,1756,1016,0,0
539,8,0,0,0,0,0,0,0,0,0,-1,1763,1016,0,0
546,8,0,0,0,0,0,0,0,0,0,-1,1770,1016,0,0
553,8,0,0,0,0,0,0,0,0,0,-1,1777,1016,0,0
560,8,0,0,0,0,0,0,0,0,0,-1,1784,1016,0,0
567,8,0,0,0,0,0,0,0,0,0,-1,1791,1016,0,0
574,8,0,0,0,0,0,0,0,0,0,-1,1798,1016,0,0
581,8,0,0,0,0,0,0,0,0,0,-1,1805,1016,0,0
588,8,0,0,0,0,0,0,0,0,0,-1,1812,1016,0,0
595,8,0,0,0,0,0,0,0,0,0,-1,1819,1016,0,0
602,8,0,0,0,0,0,0,0,0,0,-1,1826,1016,0,0
609,8,0,0,0,0,0,0,0,0,0,-1,1833,1016,0,0
616,8,0,0,0,0,0,0,0,0,0,-1,1840,1016,0,0
623,8,0,0,0,0,0,0,0,0,0,-1,1847,1016,0,0
630,8,0,0,0,0,0,0,0,0,0,-1,1854,1016,0,0
637,8,0,0,0,0,0,0,0,0,0,-1,1861,1016,0,0
644,8,159.034,4.95044,0,0,0,0,0,0,0,-1,1868,1016,159.034,-4.95046
651,8,159.03,5.02576,0,0,0,0,0,0,0,-1,1875,1016,159.03,-5.02577
658,8,159.012,5.36346,0,0,0,0,0,0,0,-1,1882,1016,159.012,-5.36345
665,8,159.109,5.25208,0,0,0,0,0,0,0,-1,1889,1016,159.109,-5.25209
672,8,159.163,5.20416,0,0,0,0,0,0,0,-1,1896,1016,159.163,-5.20415
679,8,159.271,5.14142,0,0,0,0,0,0,0,-1,1903,1016,159.271,-5.14141
686,8,159.243,5.02032,0,0,0,0,0,0,0,-1,1910,1016,159.243,-5.02035
693,8,159.196,5.08209,0,0,0,0,0,0,0,-1,1917,1016,159.196,-5.0821
700,8,159.147,5.2785,0,0,0,0,0,0,0,-1,1924,1016,159.147,-5.2785
707,8,159.153,5.34808,0,0,0,0,0,0,0,-1,1931,1016,159.153,-5.34809
714,8,159.151,5.27136,0,0,0,0,0,0,0,-1,1938,1016,159.151,-5.27135
721,8,158.98,5.30164,0,0,0,0,0,0,0,-1,1945,1016,158.98,-5.30163
728,8,52.1681,5.36774,0,0,0,0,0,0,0,-1,1952,1016,52.168,-5.36773
735,8,160.59,24.5103,0,0,0,0,0,0,0,-1,1959,1016,160.59,-24.5103
742,8,83.9912,8.48407,0,0,0,0,0,0,0,-1,1966,1016,83.9913,-8.48409
749,8,160.855,25.2689,0,0,0,0,0,0,0,-1,1973,1016,160.855,-25.2688
756,8,160.801,25.2704,0,0,0,0,0,0,0,-1,1980,1016,160.801,-25.2704
763,8,160.49,25.5131,-0.0218309,0.0254868,-0.00175908,0.0255521,-0.0218962,-1.53369,0.0274214,0.0186914,1987,1016,160.49,-25.5131
770,8,160.283,25.7223,-0.0259299,0.0341755,-0.00155966,0.0342159,-0.0259703,-1.54487,0.0348571,0.0272588,1994,1016,160.283,-25.7223
777,8,159.799,26.0031,0,0,0,0,0,0,0,-1,2001,1016,159.799,-26.0031
784,8,134.481,19.9537,0,0,0,0,0,0,0,-1,2008,1016,134.481,-19.9537
791,8,88.1389,7.42731,0,0,0,0,0,0,0,-1,2015,1016,88.1389,-7.42729
798,8,88.519,7.40491,0,0,0,0,0,0,0,-1,2022,1016,88.519,-7.40488
805,8,94.8618,12.5284,0,0,0,0,0,0,0,-1,2029,1016,94.8618,-12.5284
812,8,95.3872,12.9834,0,0,0,0,0,0,0,-1,2036,1016,95.3873,-12.9834
-700,1,0,0,0,0,0,0,0,0,0,-1,524,1023,0,0
-693,1,-89.0085,15.0234,0,0,0,0,0,0,0,-1,531,1023,-89.0085,-15.0233
-686,1,-92.1439,0.987854,0,0,0,0,0,0,0,-1,538,1023,-92.1439,-0.987837
-679,1,-91.2599,2.24536,0,0,0,0,0,0,0,-1,545,1023,-91.2599,-2.24535
-672,1,-90.748,2.95911,0,0,0,0,0,0,0,-1,552,1023,-90.748,-2.95909
-665,1,-89.907,3.96826,0,0,0,0,0,0,0,-1,559,1023,-89.907,-3.96827
-658,1,-71.1587,7.20117,0,0,0,0,0,0,0,-1,566,1023,-71.1587,-7.20115
-651,1,-67.7609,7.71844,0,0,0,0,0,0,0,-1,573,1023,-67.7609,-7.71845
-644,1,-147.645,26.1228,0,0,0,0,0,0,0,-1,580,1023,-147.645,-26.1228
-637,1,-151.802,26.2596,0,0,0,0,0,0,0,-1,587,1023,-151.802,-26.2596
-630,1,-151.721,25.9492,-0.00871844,0.0251398,0.00196015,0.0252529,-0.00883154,1.51316,0.0204258,0.0431998,594,1023,-151.721,-25.9492
-623,1,-151.578,25.7183,-0.00643701,0.0148734,0.000311034,0.0148779,-0.00644154,1.55621,0.0126259,0.023497,601,1023,-151.578,-25.7183
-616,1,-151.792,25.3739,-0.00465213,0.00472288,-0.00144855,0.00494159,-0.00487084,-1.42094,0.00566526,0.03556,608,1023,-151.792,-25.3739
-609,1,-151.822,25.1827,-0.00337359,-0.00530355,-0.00328264,-0.00091704,-0.0077601,-0.642443,0.00489643,0.0282659,615,1023,-151.822,-25.1828
-602,1,-151.835,25.1559,0,0,0,0,0,0,0,-1,622,1023,-151.835,-25.1559
-595,1,-150.487,24.5992,0,0,0,0,0,0,0,-1,629,1023,-150.487,-24.5993
-588,1,-150.421,24.5443,0,0,0,0,0,0,0,-1,636,1023,-150.421,-24.5443
-581,1,-72.3068,0.48175,0,0,0,0,0,0,0,-1,643,1023,-72.3068,-0.481753
-574,1,-72.3138,0.632874,0,0,0,0,0,0,0,-1,650,1023,-72.3138,-0.632846
-567,1,-72.231,0.548584,0,0,0,0,0,0,0,-1,657,1023,-72.231,-0.548607
-560,1,-72.2925,0.673706,0,0,0,0,0,0,0,-1,664,1023,-72.2926,-0.673701
-553,1,-72.1824,-0.118774,0,0,0,0,0,0,0,-1,671,1023,-72.1824,0.118785
-546,1,-72.0557,0.329224,0,0,0,0,0,0,0,-1,678,1023,-72.0557,-0.329219
-539,1,-72.0885,0.710022,0,0,0,0,0,0,0,-1,685,1023,-72.0885,-0.710042
-532,1,-72.1794,0.856262,0,0,0,0,0,0,0,-1,692,1023,-72.1794,-0.856276
-525,1,0,0,0,0,0,0,0,0,0,-1,699,1023,0,0
-518,1,0,0,0,0,0,0,0,0,0,-1,706,1023,0,0
-511,1,0,0,0,0,0,0,0,0,0,-1,713,1023,0,0
-504,1,0,0,0,0,0,0,0,0,0,-1,720,1023,0,0
-497,1,0,0,0,0,0,0,0,0,0,-1,727,1023,0,0
-490,1,0,0,0,0,0,0,0,0,0,-1,734,1023,0,0
-483,1,0,0,0,0,0,0,0,0,0,-1,741,1023,0,0
-476,1,0,0,0,0,0,0,0,0,0,-1,748,1023,0,0
-469,1,0,0,0,0,0,0,0,0,0,-1,755,1023,0,0
-462,1,0,0,0,0,0,0,0,0,0,-1,762,1023,0,0
-455,1,0,0,0,0,0,0,0,0,0,-1,769,1023,0,0
-448,1,0,0,0,0,0,0,0,0,0,-1,776,1023,0,0
-441,1,0,0,0,0,0,0,0,0,0,-1,783,1023,0,0
-434,1,0,0,0,0,0,0,0,0,0,-1,790,1023,0,0
-427,1,0,0,0,0,0,0,0,0,0,-1,797,1023,0,0
-420,1,0,0,0,0,0,0,0,0,0,-1,804,1023,0,0
-413,1,0,0,0,0,0,0,0,0,0,-1,811,1023,0,0
-406,1,0,0,0,0,0,0,0,0,0,-1,818,1023,0,0
-399,1,0,0,0,0,0,0,0,0,0,-1,825,1023,0,0
-392,1,0,0,0,0,0,0,0,0,0,-1,832,1023,0,0
-385,1,0,0,0,0,0,0,0,0,0,-1,839,1023,0,0
-378,1,0,0,0,0,0,0,0,0,0,-1,846,1023,0,0
-371,1,0,0,0,0,0,0,0,0,0,-1,853,1023,0,0
-364,1,0,0,0,0,0,0,0,0,0,-1,860,1023,0,0
-357,1,0,0,0,0,0,0,0,0,0,-1,867,1023,0,0
-350,1,0,0,0,0,0,0,0,0,0,-1,874,1023,0,0
-343,1,0,0,0,0,0,0,0,0,0,-1,881,1023,0,0
-336,1,0,0,0,0,0,0,0,0,0,-1,888,1023,0,0
-329,1,0,0,0,0,0,0,0,0,0,-1,895,1023,0,0
-322,1,0,0,0,0,0,0,0,0,0,-1,902,1023,0,0
-315,1,0,0,0,0,0,0,0,0,0,-1,909,1023,0,0
-308,1,0,0,0,0,0,0,0,0,0,-1,916,1023,0,0
-301,1,0,0,0,0,0,0,0,0,0,-1,923,1023,0,0
-294,1,0,0,0,0,0,0,0,0,0,-1,930,1023,0,0
-287,1,0,0,0,0,0,0,0,0,0,-1,937,1023,0,0
-280,1,0,0,0,0,0,0,0,0,0,-1,944,1023,0,0
-273,1,0,0,0,0,0,0,0,0,0,-1,951,1023,0,0
-266,1,0,0,0,0,0,0,0,0,0,-1,958,1023,0,0
-259,1,0,0,0,0,0,0,0,0,0,-1,965,1023,0,0
-252,1,0,0,0,0,0,0,0,0,0,-1,972,1023,0,0
-245,1,0,0,0,0,0,0,0,0,0,-1,979,1023,0,0
-238,1,0,0,0,0,0,0,0,0,0,-1,986,1023,0,0
-231,1,0,0,0,0,0,0,0,0,0,-1,993,1023,0,0
-224,1,0,0,0,0,0,0,0,0,0,-1,1000,1023,0,0
-217,1,0,0,0,0,0,0,0,0,0,-1,1007,1023,0,0
-210,1,0,0,0,0,0,0,0,0,0,-1,1014,1023,0,0
-203,1,0,0,0,0,0,0,0,0,0,-1,1021,1023,0,0
-196,1,0,0,0,0,0,0,0,0,0,-1,1028,1023,0,0
-189,1,0,0,0,0,0,0,0,0,0,-1,1035,1023,0,0
-182,1,0,0,0,0,0,0,0,0,0,-1,1042,1023,0,0
-175,1,0,0,0,0,0,0,0,0,0,-1,1049,1023,0,0
-168,1,0,0,0,0,0,0,0,0,0,-1,1056,1023,0,0
-161,1,0,0,0,0,0,0,0,0,0,-1,1063,1023,0,0
-154,1,0,0,0,0,0,0,0,0,0,-1,1070,1023,0,0
-147,1,0,0,0,0,0,0,0,0,0,-1,1077,1023,0,0
-140,1,0,0,0,0,0,0,0,0,0,-1,1084,1023,0,0
-133,1,0,0,0,0,0,0,0,0,0,-1,1091,1023,0,0
-126,1,0,0,0,0,0,0,0,0,0,-1,1098,1023,0,0
-119,1,0,0,0,0,0,0,0,0,0,-1,1105,1023,0,0
-112,1,0,0,0,0,0,0,0,0,0,-1,1112,1023,0,0
-105,1,0,0,0,0,0,0,0,0,0,-1,1119,1023,0,0
-98,1,0,0,0,0,0,0,0,0,0,-1,1126,1023,0,0
-91,1,0,0,0,0,0,0,0,0,0,-1,1133,1023,0,0
-84,1,0,0,0,0,0,0,0,0,0,-1,1140,1023,0,0
-77,1,0,0,0,0,0,0,0,0,0,-1,1147,1023,0,0
-70,1,0,0,0,0,0,0,0,0,0,-1,1154,1023,0,0
-63,1,0,0,0,0,0,0,0,0,0,-1,1161,1023,0,0
-56,1,0,0,0,0,0,0,0,0,0,-1,1168,1023,0,0
-49,1,0,0,0,0,0,0,0,0,0,-1,1175,1023,0,0
-42,1,0,0,0,0,0,0,0,0,0,-1,1182,1023,0,0
-35,1,0,0,0,0,0,0,0,0,0,-1,1189,1023,0,0
-28,1,0,0,0,0,0,0,0,0,0,-1,1196,1023,0,0
-21,1,0,0,0,0,0,0,0,0,0,-1,1203,1023,0,0
-14,1,0,0,0,0,0,0,0,0,0,-1,1210,1023,0,0
-7,1,0,0,0,0,0,0,0,0,0,-1,1217,1023,0,0
0,1,0,0,0,0,0,0,0,0,0,-1,1224,1023,0,0
7,1,0,0,0,0,0,0,0,0,0,-1,1231,1023,0,0
14,1,0,0,0,0,0,0,0,0,0,-1,1238,1023,0,0
21,1,0,0,0,0,0,0,0,0,0,-1,1245,1023,0,0
28,1,0,0,0,0,0,0,0,0,0,-1,1252,1023,0,0
35,1,0,0,0,0,0,0,0,0,0,-1,1259,1023,0,0
42,1,0,0,0,0,0,0,0,0,0,-1,1266,1023,0,0
49,1,0,0,0,0,0,0,0,0,0,-1,1273,1023,0,0
56,1,0,0,0,0,0,0,0,0,0,-1,1280,1023,0,0
63,1,0,0,0,0,0,0,0,0,0,-1,1287,1023,0,0
70,1,0,0,0,0,0,0,0,0,0,-1,1294,1023,0,0
77,1,0,0,0,0,0,0,0,0,0,-1,1301,1023,0,0
84,1,0,0,0,0,0,0,0,0,0,-1,1308,1023,0,0
91,1,0,0,0,0,0,0,0,0,0,-1,1315,1023,0,0
98,1,0,0,0,0,0,0,0,0,0,-1,1322,1023,0,0
105,1,0,0,0,0,0,0,0,0,0,-1,1329,1023,0,0
112,1,0,0,0,0,0,0,0,0,0,-1,1336,1023,0,0
119,1,0,0,0,0,0,0,0,0,0,-1,1343,1023,0,0
126,1,0,0,0,0,0,0,0,0,0,-1,1350,1023,0,0
133,1,0,0,0,0,0,0,0,0,0,-1,1357,1023,0,0
140,1,0,0,0,0,0,0,0,0,0,-1,1364,1023,0,0
147,1,0,0,0,0,0,0,0,0,0,-1,1371,1023,0,0
154,1,0,0,0,0,0,0,0,0,0,-1,1378,1023,0,0
161,1,0,0,0,0,0,0,0,0,0,-1,1385,1023,0,0
168,1,0,0,0,0,0,0,0,0,0,-1,1392,1023,0,0
175,1,0,0,0,0,0,0,0,0,0,-1,1399,1023,0,0
182,1,0,0,0,0,0,0,0,0,0,-1,1406,1023,0,0
189,1,0,0,0,0,0,0,0,0,0,-1,1413,1023,0,0
196,1,0,0,0,0,0,0,0,0,0,-1,1420,1023,0,0
203,1,0,0,0,0,0,0,0,0,0,-1,1427,1023,0,0
210,1,0,0,0,0,0,0,0,0,0,-1,1434,1023,0,0
217,1,0,0,0,0,0,0,0,0,0,-1,1441,1023,0,0
224,1,0,0,0,0,0,0,0,0,0,-1,1448,1023,0,0
231,1,0,0,0,0,0,0,0,0,0,-1,1455,1023,0,0
238,1,0,0,0,0,0,0,0,0,0,-1,1462,1023,0,0
245,1,0,0,0,0,0,0,0,0,0,-1,1469,1023,0,0
252,1,0,0,0,0,0,0,0,0,0,-1,1476,1023,0,0
259,1,0,0,0,0,0,0,0,0,0,-1,1483,1023,0,0
266,1,0,0,0,0,0,0,0,0,0,-1,1490,1023,0,0
273,1,0,0,0,0,0,0,0,0,0,-1,1497,1023,0,0
280,1,0,0,0,0,0,0,0,0,0,-1,1504,1023,0,0
287,1,0,0,0,0,0,0,0,0,0,-1,1511,1023,0,0
294,1,0,0,0,0,0,0,0,0,0,-1,1518,1023,0,0
301,1,0,0,0,0,0,0,0,0,0,-1,1525,1023,0,0
308,1,0,0,0,0,0,0,0,0,0,-1,1532,1023,0,0
315,1,0,0,0,0,0,0,0,0,0,-1,1539,1023,0,0
322,1,0,0,0,0,0,0,0,0,0,-1,1546,1023,0,0
329,1,0,0,0,0,0,0,0,0,0,-1,1553,1023,0,0
336,1,0,0,0,0,0,0,0,0,0,-1,1560,1023,0,0
343,1,0,0,0,0,0,0,0,0,0,-1,1567,1023,0,0
350,1,0,0,0,0,0,0,0,0,0,-1,1574,1023,0,0
357,1,0,0,0,0,0,0,0,0,0,-1,1581,1023,0,0
364,1,0,0,0,0,0,0,0,0,0,-1,1588,1023,0,0
371,1,0,0,0,0,0,0,0,0,0,-1,1595,1023,0,0
378,1,0,0,0,0,0,0,0,0,0,-1,1602,1023,0,0
385,1,0,0,0,0,0,0,0,0,0,-1,1609,1023,0,0
392,1,0,0,0,0,0,0,0,0,0,-1,1616,1023,0,0
399,1,0,0,0,0,0,0,0,0,0,-1,1623,1023,0,0
406,1,0,0,0,0,0,0,0,0,0,-1,1630,1023,0,0
413,1,0,0,0,0,0,0,0,0,0,-1,1637,1023,0,0
420,1,0,0,0,0,0,0,0,0,0,-1,1644,1023,0,0
427,1,0,0,0,0,0,0,0,0,0,-1,1651,1023,0,0
434,1,0,0,0,0,0,0,0,0,0,-1,1658,1023,0,0
441,1,0,0,0,0,0,0,0,0,0,-1,1665,1023,0,0
448,1,0,0,0,0,0,0,0,0,0,-1,1672,1023,0,0
455,1,0,0,0,0,0,0,0,0,0,-1,1679,1023,0,0
462,1,0,0,0,0,0,0,0,0,0,-1,1686,1023,0,0
469,1,0,0,0,0,0,0,0,0,0,-1,1693,1023,0,0
476,1,0,0,0,0,0,0,0,0,0,-1,1700,1023,0,0
483,1,0,0,0,0,0,0,0,0,0,-1,1707,1023,0,0
490,1,0,0,0,0,0,0,0,0,0,-1,1714,1023,0,0
497,1,0,0,0,0,0,0,0,0,0,-1,1721,1023,0,0
504,1,0,0,0,0,0,0,0,0,0,-1,1728,1023,0,0
511,1,0,0,0,0,0,0,0,0,0,-1,1735,1023,0,0
518,1,0,0,0,0,0,0,0,0,0,-1,1742,1023,0,0
525,1,0,0,0,0,0,0,0,0,0,-1,1749,1023,0,0
532,1,0,0,0,0,0,0,0,0,0,-1,1756,1023,0,0
539,1,0,0,0,0,0,0,0,0,0,-1,1763,1023,0,0
546,1,0,0,0,0,0,0,0,0,0,-1,1770,1023,0,0
553,1,0,0,0,0,0,0,0,0,0,-1,1777,1023,0,0
560,1,0,0,0,0,0,0,0,0,0,-1,1784,1023,0,0
567,1,0,0,0,0,0,0,0,0,0,-1,1791,1023,0,0
574,1,0,0,0,0,0,0,0,0,0,-1,1798,1023,0,0
581,1,0,0,0,0,0,0,0,0,0,-1,1805,1023,0,0
588,1,0,0,0,0,0,0,0,0,0,-1,1812,1023,0,0
595,1,0,0,0,0,0,0,0,0,0,-1,1819,1023,0,0
602,1,0,0,0,0,0,0,0,0,0,-1,1826,1023,0,0
609,1,0,0,0,0,0,0,0,0,0,-1,1833,1023,0,0
616,1,0,0,0,0,0,0,0,0,0,-1,1840,1023,0,0
623,1,0,0,0,0,0,0,0,0,0,-1,1847,1023,0,0
630,1,0,0,0,0,0,0,0,0,0,-1,1854,1023,0,0
637,1,0,0,0,0,0,0,0,0,0,-1,1861,1023,0,0
644,1,0,0,0,0,0,0,0,0,0,-1,1868,1023,0,0
651,1,159.096,5.11414,0,0,0,0,0,0,0,-1,1875,1023,159.096,-5.11415
658,1,159.036,5.37524,0,0,0,0,0,0,0,-1,1882,1023,159.036,-5.37522
665,1,159.183,5.29419,0,0,0,0,0,0,0,-1,1889,1023,159.183,-5.29419
672,1,159.252,5.15344,0,0,0,0,0,0,0,-1,1896,1023,159.252,-5.15342
679,1,159.045,5.42828,0,0,0,0,0,0,0,-1,1903,1023,159.045,-5.42827
686,1,159.025,5.35797,0,0,0,0,0,0,0,-1,1910,1023,159.025,-5.35797
693,1,159.157,5.47607,0,0,0,0,0,0,0,-1,1917,1023,159.157,-5.47609
700,1,159.175,5.55511,0,0,0,0,0,0,0,-1,1924,1023,159.175,-5.5551
707,1,159.12,5.3429,0,0,0,0,0,0,0,-1,1931,1023,159.12,-5.34288
714,1,159.115,5.23224,0,0,0,0,0,0,0,-1,1938,1023,159.114,-5.23222
721,1,159.116,5.32599,0,0,0,0,0,0,0,-1,1945,1023,159.116,-5.326
728,1,52.4639,5.59277,0,0,0,0,0,0,0,-1,1952,1023,52.4639,-5.59276
735,1,53.3617,6.10699,0,0,0,0,0,0,0,-1,1959,1023,53.3617,-6.10698
742,1,52.4393,5.81525,0,0,0,0,0,0,0,-1,1966,1023,52.4393,-5.81527
749,1,82.8113,7.83478,0,0,0,0,0,0,0,-1,1973,1023,82.8112,-7.8348
756,1,160.809,25.1696,0,0,0,0,0,0,0,-1,1980,1023,160.809,-25.1696
763,1,160.663,25.2973,-0.0218967,0.0248249,-0.00129248,0.0248607,-0.0219324,-1.54316,0.0270336,0.0201551,1987,1023,160.663,-25.2973
770,1,160.555,25.4613,-0.0256993,0.0330887,-0.00103838,0.033107,-0.0257176,-1.55314,0.0340516,0.0252234,1994,1023,160.555,-25.4613
777,1,160.25,25.6362,-0.0292224,0.0411078,-0.00071089,0.041115,-0.0292295,-1.56069,0.0408062,0.0404647,2001,1023,160.25,-25.6362
784,1,159.961,25.7508,0,0,0,0,0,0,0,-1,2008,1023,159.961,-25.7508
791,1,100.412,8.00543,0,0,0,0,0,0,0,-1,2015,1023,100.411,-8.00544
798,1,101.517,12.6337,0,0,0,0,0,0,0,-1,2022,1023,101.517,-12.6337
805,1,104.376,19.1456,0,0,0,0,0,0,0,-1,2029,1023,104.376,-19.1455
812,1,104.873,17.9626,0,0,0,0,0,0,0,-1,2036,1023,104.873,-17.9627
-700,-6,0,0,0,0,0,0,0,0,0,-1,524,1030,0,0
-693,-6,-88.6603,13.7856,0,0,0,0,0,0,0,-1,531,1030,-88.6604,-13.7856
-686,-6,-90.5388,13.9272,0,0,0,0,0,0,0,-1,538,1030,-90.5388,-13.9272
-679,-6,-91.8646,14.2508,0,0,0,0,0,0,0,-1,545,1030,-91.8646,-14.2508
-672,-6,-89.5654,2.59106,0,0,0,0,0,0,0,-1,552,1030,-89.5654,-2.59105
-665,-6,-87.2815,3.90417,0,0,0,0,0,0,0,-1,559,1030,-87.2815,-3.90414
-658,-6,-85.4016,4.85437,0,0,0,0,0,0,0,-1,566,1030,-85.4016,-4.85436
-651,-6,-87.49,11.0592,0,0,0,0,0,0,0,-1,573,1030,-87.4899,-11.0592
-644,-6,-100.787,15.4011,0,0,0,0,0,0,0,-1,580,1030,-100.787,-15.401
-637,-6,-152.124,26.0828,0,0,0,0,0,0,0,-1,587,1030,-152.124,-26.0828
-630,-6,-151.939,25.7211,-0.00886867,0.0241521,0.0015206,0.024222,-0.00893855,1.52488,0.0198115,0.0335721,594,1030,-151.939,-25.7211
-623,-6,-151.819,25.6086,-0.00606379,0.0140554,-0.000104671,0.014056,-0.00606433,-1.56559,0.011918,0.0271503,601,1030,-151.819,-25.6086
-616,-6,-151.958,25.3664,-0.00363826,0.00402569,-0.00186534,0.00445558,-0.00406815,-1.34429,0.00492287,0.0334087,608,1030,-151.958,-25.3664
-609,-6,-151.967,25.2413,-0.00160635,-0.0059307,-0.00373678,0.000548714,-0.00808576,-0.523123,0.00558241,0.0290239,615,1030,-151.967,-25.2413
-602,-6,-151.708,25.0181,0,0,0,0,0,0,0,-1,622,1030,-151.708,-25.0181
-595,-6,-151.768,24.8284,0,0,0,0,0,0,0,-1,629,1030,-151.768,-24.8284
-588,-6,-72.219,0.444824,0,0,0,0,0,0,0,-1,636,1030,-72.219,-0.444882
-581,-6,-72.2767,0.400757,0,0,0,0,0,0,0,-1,643,1030,-72.2767,-0.400731
-574,-6,-72.3219,0.456665,0,0,0,0,0,0,0,-1,650,1030,-72.3219,-0.456675
-567,-6,-72.2971,0.412842,0,0,0,0,0,0,0,-1,657,1030,-72.2971,-0.412811
-560,-6,-72.3146,0.529053,0,0,0,0,0,0,0,-1,664,1030,-72.3146,-0.529107
-553,-6,-72.132,0.543579,0,0,0,0,0,0,0,-1,671,1030,-72.132,-0.543622
-546,-6,-72.027,0.153687,0,0,0,0,0,0,0,-1,678,1030,-72.0271,-0.153691
-539,-6,-72.1198,0.670776,0,0,0,0,0,0,0,-1,685,1030,-72.1198,-0.670789
-532,-6,-72.3258,1.02258,0,0,0,0,0,0,0,-1,692,1030,-72.3258,-1.02254
-525,-6,0,0,0,0,0,0,0,0,0,-1,699,1030,0,0
-518,-6,0,0,0,0,0,0,0,0,0,-1,706,1030,0,0
-511,-6,0,0,0,0,0,0,0,0,0,-1,713,1030,0,0
-504,-6,0,0,0,0,0,0,0,0,0,-1,720,1030,0,0
-497,-6,0,0,0,0,0,0,0,0,0,-1,727,1030,0,0
-490,-6,0,0,0,0,0,0,0,0,0,-1,734,1030,0,0
-483,-6,0,0,0,0,0,0,0,0,0,-1,741,1030,0,0
-476,-6,0,0,0,0,0,0,0,0,0,-1,748,1030,0,0
-469,-6,0,0,0,0,0,0,0,0,0,-1,755,1030,0,0
-462,-6,0,0,0,0,0,0,0,0,0,-1,762,1030,0,0
-455,-6,0,0,0,0,0,0,0,0,0,-1,769,1030,0,0
-448,-6,0,0,0,0,0,0,0,0,0,-1,776,1030,0,0
-441,-6,0,0,0,0,0,0,0,0,0,-1,783,1030,0,0
-434,-6,0,0,0,0,0,0,0,0,0,-1,790,1030,0,0
-427,-6,0,0,0,0,0,0,0,0,0,-1,797,1030,0,0
-420,-6,0,0,0,0,0,0,0,0,0,-1,804,1030,0,0
-413,-6,0,0,0,0,0,0,0,0,0,-1,811,1030,0,0
-406,-6,0,0,0,0,0,0,0,0,0,-1,818,1030,0,0
-399,-6,0,0,0,0,0,0,0,0,0,-1,825,1030,0,0
-392,-6,0,0,0,0,0,0,0,0,0,-1,832,1030,0,0
-385,-6,0,0,0,0,0,0,0,0,0,-1,839,1030,0,0
-378,-6,0,0,0,0,0,0,0,0,0,-1,846,1030,0,0
-371,-6,0,0,0,0,0,0,0,0,0,-1,853,1030,0,0
-364,-6,0,0,0,0,0,0,0,0,0,-1,860,1030,0,0
-357,-6,0,0,0,0,0,0,0,0,0,-1,867,1030,0,0
-350,-6,0,0,0,0,0,0,0,0,0,-1,874,1030,0,0
-343,-6,0,0,0,0,0,0,0,0,0,-1,881,1030,0,0
-336,-6,0,0,0,0,0,0,0,0,0,-1,888,1030,0,0
-329,-6,0,0,0,0,0,0,0,0,0,-1,895,1030,0,0
-322,-6,0,0,0,0,0,0,0,0,0,-1,902,1030,0,0
-315,-6,0,0,0,0,0,0,0,0,0,-1,909,1030,0,0
-308,-6,0,0,0,0,0,0,0,0,0,-1,916,1030,0,0
-301,-6,0,0,0,0,0,0,0,0,0,-1,923,1030,0,0
-294,-6,0,0,0,0,0,0,0,0,0,-1,930,1030,0,0
-287,-6,0,0,0,0,0,0,0,0,0,-1,937,1030,0,0
-280,-6,0,0,0,0,0,0,0,0,0,-1,944,1030,0,0
-273,-6,0,0,0,0,0,0,0,0,0,-1,951,1030,0,0
-266,-6,0,0,0,0,0,0,0,0,0,-1,958,1030,0,0
-259,-6,0,0,0,0,0,0,0,0,0,-1,965,1030,0,0
-252,-6,0,0,0,0,0,0,0,0,0,-1,972,1030,0,0
-245,-6,0,0,0,0,0,0,0,0,0,-1,979,1030,0,0
-238,-6,0,0,0,0,0,0,0,0,0,-1,986,1030,0,0
-231,-6,0,0,0,0,0,0,0,0,0,-1,993,1030,0,0
-224,-6,0,0,0,0,0,0,0,0,0,-1,1000,1030,0,0
-217,-6,0,0,0,0,0,0,0,0,0,-1,1007,1030,0,0
-210,-6,0,0,0,0,0,0,0,0,0,-1,1014,1030,0,0
-203,-6,0,0,0,0,0,0,0,0,0,-1,1021,1030,0,0
-196,-6,0,0,0,0,0,0,0,0,0,-1,1028,1030,0,0
-189,-6,0,0,0,0,0,0,0,0,0,-1,1035,1030,0,0
-182,-6,0,0,0,0,0,0,0,0,0,-1,1042,1030,0,0
-175,-6,0,0,0,0,0,0,0,0,0,-1,1049,1030,0,0
-168,-6,0,0,0,0,0,0,0,0,0,-1,1056,1030,0,0
-161,-6,0,0,0,0,0,0,0,0,0,-1,1063,1030,0,0
-154,-6,0,0,0,0,0,0,0,0,0,-1,1070,1030,0,0
-147,-6,0,0,0,0,0,0,0,0,0,-1,1077,1030,0,0
-140,-6,0,0,0,0,0,0,0,0,0,-1,1084,1030,0,0
-133,-6,0,0,0,0,0,0,0,0,0,-1,1091,1030,0,0
-126,-6,0,0,0,0,0,0,0,0,0,-1,1098,1030,0,0
-119,-6,0,0,0,0,0,0,0,0,0,-1,1105,1030,0,0
-112,-6,0,0,0,0,0,0,0,0,0,-1,1112,1030,0,0
-105,-6,0,0,0,0,0,0,0,0,0,-1,1119,1030,0,0
-98,-6,0,0,0,0,0,0,0,0,0,-1,1126,1030,0,0
-91,-6,0,0,0,0,0,0,0,0,0,-1,1133,1030,0,0
-84,-6,0,0,0,0,0,0,0,0,0,-1,1140,1030,0,0
-77,-6,0,0,0,0,0,0,0,0,0,-1,1147,1030,0,0
-70,-6,0,0,0,0,0,0,0,0,0,-1,1154,1030,0,0
-63,-6,0,0,0,0,0,0,0,0,0,-1,1161,1030,0,0
-56,-6,0,0,0,0,0,0,0,0,0,-1,1168,1030,0,0
-49,-6,0,0,0,0,0,0,0,0,0,-1,1175,1030,0,0
-42,-6,0,0,0,0,0,0,0,0,0,-1,1182,1030,0,0
-35,-6,0,0,0,0,0,0,0,0,0,-1,1189,1030,0,0
-28,-6,0,0,0,0,0,0,0,0,0,-1,1196,1030,0,0
-21,-6,0,0,0,0,0,0,0,0,0,-1,1203,1030,0,0
-14,-6,0,0,0,0,0,0,0,0,0,-1,1210,1030,0,0
-7,-6,0,0,0,0,0,0,0,0,0,-1,1217,1030,0,0
0,-6,0,0,0,0,0,0,0,0,0,-1,1224,1030,0,0
7,-6,0,0,0,0,0,0,0,0,0,-1,1231,1030,0,0
14,-6,0,0,0,0,0,0,0,0,0,-1,1238,1030,0,0
21,-6,0,0,0,0,0,0,0,0,0,-1,1245,1030,0,0
28,-6,0,0,0,0,0,0,0,0,0,-1,1252,1030,0,0
35,-6,0,0,0,0,0,0,0,0,0,-1,1259,1030,0,0
42,-6,0,0,0,0,0,0,0,0,0,-1,1266,1030,0,0
49,-6,0,0,0,0,0,0,0,0,0,-1,1273,1030,0,0
56,-6,0,0,0,0,0,0,0,0,0,-1,1280,1030,0,0
63,-6,0,0,0,0,0,0,0,0,0,-1,1287,1030,0,0
70,-6,0,0,0,0,0,0,0,0,0,-1,1294,1030,0,0
77,-6,0,0,0,0,0,0,0,0,0,-1,1301,1030,0,0
84,-6,0,0,0,0,0,0,0,0,0,-1,1308,1030,0,0
91,-6,0,0,0,0,0,0,0,0,0,-1,1315,1030,0,0
98,-6,0,0,0,0,0,0,0,0,0,-1,1322,1030,0,0
105,-6,0,0,0,0,0,0,0,0,0,-1,1329,1030,0,0
112,-6,0,0,0,0,0,0,0,0,0,-1,1336,1030,0,0
119,-6,0,0,0,0,0,0,0,0,0,-1,1343,1030,0,0
126,-6,0,0,0,0,0,0,0,0,0,-1,1350,1030,0,0
133,-6,0,0,0,0,0,0,0,0,0,-1,1357,1030,0,0
140,-6,0,0,0,0,0,0,0,0,0,-1,1364,1030,0,0
147,-6,0,0,0,0,0,0,0,0,0,-1,1371,1030,0,0
154,-6,0,0,0,0,0,0,0,0,0,-1,1378,1030,0,0
161,-6,0,0,0,0,0,0,0,0,0,-1,1385,1030,0,0
168,-6,0,0,0,0,0,0,0,0,0,-1,1392,1030,0,0
175,-6,0,0,0,0,0,0,0,0,0,-1,1399,1030,0,0
182,-6,0,0,0,0,0,0,0,0,0,-1,1406,1030,0,0
189,-6,0,0,0,0,0,0,0,0,0,-1,1413,1030,0,0
196,-6,0,0,0,0,0,0,0,0,0,-1,1420,1030,0,0
203,-6,0,0,0,0,0,0,0,0,0,-1,1427,1030,0,0
210,-6,0,0,0,0,0,0,0,0,0,-1,1434,1030,0,0
217,-6,0,0,0,0,0,0,0,0,0,-1,1441,1030,0,0
224,-6,0,0,0,0,0,0,0,0,0,-1,1448,1030,0,0
231,-6,0,0,0,0,0,0,0,0,0,-1,1455,1030,0,0
238,-6,0,0,0,0,0,0,0,0,0,-1,1462,1030,0,0
245,-6,0,0,0,0,0,0,0,0,0,-1,1469,1030,0,0
252,-6,0,0,0,0,0,0,0,0,0,-1,1476,1030,0,0
259,-6,0,0,0,0,0,0,0,0,0,-1,1483,1030,0,0
266,-6,0,0,0,0,0,0,0,0,0,-1,1490,1030,0,0
273,-6,0,0,0,0,0,0,0,0,0,-1,1497,1030,0,0
280,-6,0,0,0,0,0,0,0,0,0,-1,1504,1030,0,0
287,-6,0,0,0,0,0,0,0,0,0,-1,1511,1030,0,0
294,-6,0,0,0,0,0,0,0,0,0,-1,1518,1030,0,0
301,-6,0,0,0,0,0,0,0,0,0,-1,1525,1030,0,0
308,-6,0,0,0,0,0,0,0,0,0,-1,1532,1030,0,0
315,-6,0,0,0,0,0,0,0,0,0,-1,1539,1030,0,0
322,-6,0,0,0,0,0,0,0,0,0,-1,1546,1030,0,0
329,-6,0,0,0,0,0,0,0,0,0,-1,1553,1030,0,0
336,-6,0,0,0,0,0,0,0,0,0,-1,1560,1030,0,0
343,-6,0,0,0,0,0,0,0,0,0,-1,1567,1030,0,0
350,-6,0,0,0,0,0,0,0,0,0,-1,1574,1030,0,0
357,-6,0,0,0,0,0,0,0,0,0,-1,1581,1030,0,0
364,-6,0,0,0,0,0,0,0,0,0,-1,1588,1030,0,0
371,-6,0,0,0,0,0,0,0,0,0,-1,1595,1030,0,0
378,-6,0,0,0,0,0,0,0,0,0,-1,1602,1030,0,0
385,-6,0,0,0,0,0,0,0,0,0,-1,1609,1030,0,0
392,-6,0,0,0,0,0,0,0,0,0,-1,1616,1030,0,0
399,-6,0,0,0,0,0,0,0,0,0,-1,1623,1030,0,0
406,-6,0,0,0,0,0,0,0,0,0,-1,1630,1030,0,0
413,-6,0,0,0,0,0,0,0,0,0,-1,1637,1030,0,0
420,-6,0,0,0,0,0,0,0,0,0,-1,1644,1030,0,0
427,-6,0,0,0,0,0,0,0,0,0,-1,1651,1030,0,0
434,-6,0,0,0,0,0,0,0,0,0,-1,1658,1030,0,0
441,-6,0,0,0,0,0,0,0,0,0,-1,1665,1030,0,0
448,-6,0,0,0,0,0,0,0,0,0,-1,1672,1030,0,0
455,-6,0,0,0,0,0,0,0,0,0,-1,1679,1030,0,0
462,-6,0,0,0,0,0,0,0,0,0,-1,1686,1030,0,0
469,-6,0,0,0,0,0,0,0,0,0,-1,1693,1030,0,0
476,-6,0,0,0,0,0,0,0,0,0,-1,1700,1030,0,0
483,-6,0,0,0,0,0,0,0,0,0,-1,1707,1030,0,0
490,-6,0,0,0,0,0,0,0,0,0,-1,1714,1030,0,0
497,-6,0,0,0,0,0,0,0,0,0,-1,1721,1030,0,0
504,-6,0,0,0,0,0,0,0,0,0,-1,1728,1030,0,0
511,-6,0,0,0,0,0,0,0,0,0,-1,1735,1030,0,0
518,-6,0,0,0,0,0,0,0,0,0,-1,1742,1030,0,0
525,-6,0,0,0,0,0,0,0,0,0,-1,1749,1030,0,0
532,-6,0,0,0,0,0,0,0,0,0,-1,1756,1030,0,0
539,-6,0,0,0,0,0,0,0,0,0,-1,1763,1030,0,0
546,-6,0,0,0,0,0,0,0,0,0,-1,1770,1030,0,0
553,-6,0,0,0,0,0,0,0,0,0,-1,1777,1030,0,0
560,-6,0,0,0,0,0,0,0,0,0,-1,1784,1030,0,0
567,-6,0,0,0,0,0,0,0,0,0,-1,1791,1030,0,0
574,-6,0,0,0,0,0,0,0,0,0,-1,1798,1030,0,0
581,-6,0,0,0,0,0,0,0,0,0,-1,1805,1030,0,0
588,-6,0,0,0,0,0,0,0,0,0,-1,1812,1030,0,0
595,-6,0,0,0,0,0,0,0,0,0,-1,1819,1030,0,0
602,-6,0,0,0,0,0,0,0,0,0,-1,1826,1030,0,0
609,-6,0,0,0,0,0,0,0,0,0,-1,1833,1030,0,0
616,-6,0,0,0,0,0,0,0,0,0,-1,1840,1030,0,0
623,-6,0,0,0,0,0,0,0,0,0,-1,1847,1030,0,0
630,-6,0,0,0,0,0,0,0,0,0,-1,1854,1030,0,0
637,-6,0,0,0,0,0,0,0,0,0,-1,1861,1030,0,0
644,-6,0,0,0,0,0,0,0,0,0,-1,1868,1030,0,0
651,-6,159.34,5.40051,0,0,0,0,0,0,0,-1,1875,1030,159.34,-5.40048
658,-6,159.283,5.44446,0,0,0,0,0,0,0,-1,1882,1030,159.283,-5.44443
665,-6,159.341,5.19055,0,0,0,0,0,0,0,-1,1889,1030,159.34,-5.19058
672,-6,159.265,5.39014,0,0,0,0,0,0,0,-1,1896,1030,159.265,-5.39013
679,-6,159.044,5.52747,0,0,0,0,0,0,0,-1,1903,1030,159.045,-5.52747
686,-6,158.903,5.41882,0,0,0,0,0,0,0,-1,1910,1030,158.902,-5.4188
693,-6,158.981,5.52515,0,0,0,0,0,0,0,-1,1917,1030,158.981,-5.52512
700,-6,159.1,5.59058,0,0,0,0,0,0,0,-1,1924,1030,159.1,-5.59054
707,-6,159.087,5.22937,0,0,0,0,0,0,0,-1,1931,1030,159.087,-5.22942
714,-6,159.118,4.96448,0,0,0,0,0,0,0,-1,1938,1030,159.118,-4.96442
721,-6,159.076,4.94055,0,0,0,0,0,0,0,-1,1945,1030,159.076,-4.94051
728,-6,53.1713,6.25494,0,0,0,0,0,0,0,-1,1952,1030,53.1713,-6.25495
735,-6,78.4772,7.47345,0,0,0,0,0,0,0,-1,1959,1030,78.4772,-7.47343
742,-6,93.9734,9.68024,0,0,0,0,0,0,0,-1,1966,1030,93.9735,-9.68022
749,-6,98.1589,9.69836,0,0,0,0,0,0,0,-1,1973,1030,98.159,-9.69838
756,-6,161.119,24.9769,0,0,0,0,0,0,0,-1,1980,1030,161.119,-24.977
763,-6,160.881,25.0533,-0.0219235,0.0240703,-0.00083158,0.0240853,-0.0219385,-1.55272,0.0265815,0.0278972,1987,1030,160.881,-25.0533
770,-6,160.755,25.1972,-0.0255422,0.0318804,-0.000492105,0.0318847,-0.0255464,-1.56223,0.0332251,0.025471,1994,1030,160.755,-25.1972
777,-6,160.508,25.3193,-0.0288051,0.0394165,-0.000151145,0.0394168,-0.0288054,-1.56858,0.0395466,0.0260341,2001,1030,160.508,-25.3194
784,-6,160.343,25.4148,0,0,0,0,0,0,0,-1,2008,1030,160.343,-25.4148
791,-6,122.263,16.3963,0,0,0,0,0,0,0,-1,2015,1030,122.263,-16.3963
798,-6,109.146,16.0051,0,0,0,0,0,0,0,-1,2022,1030,109.146,-16.0051
805,-6,108.771,15.1763,0,0,0,0,0,0,0,-1,2029,1030,108.771,-15.1763
812,-6,108.805,14.3323,0,0,0,0,0,0,0,-1,2036,1030,108.805,-14.3324
-700,-13,0,0,0,0,0,0,0,0,0,-1,524,1037,0,0
-693,-13,-88.6181,12.3467,0,0,0,0,0,0,0,-1,531,1037,-88.6181,-12.3467
-686,-13,-90.2635,12.9246,0,0,0,0,0,0,0,-1,538,1037,-90.2636,-12.9246
-679,-13,-91.6175,13.3315,0,0,0,0,0,0,0,-1,545,1037,-91.6175,-13.3315
-672,-13,-92.9723,13.725,0,0,0,0,0,0,0,-1,552,1037,-92.9723,-13.725
-665,-13,-102.499,14.6928,0,0,0,0,0,0,0,-1,559,1037,-102.499,-14.6928
-658,-13,-86.5689,5.10486,0,0,0,0,0,0,0,-1,566,1037,-86.569,-5.10484
-651,-13,-148.721,25.444,0,0,0,0,0,0,0,-1,573,1037,-148.721,-25.444
-644,-13,-151.423,25.7963,0,0,0,0,0,0,0,-1,580,1037,-151.423,-25.7963
-637,-13,-151.688,25.6283,-0.0122835,0.0330262,0.00207515,0.0331211,-0.0123784,1.52512,0.0271638,0.0360102,587,1037,-151.688,-25.6283
-630,-13,-151.938,25.4318,-0.00873989,0.0232175,0.000836835,0.0232394,-0.00876179,1.54463,0.0190957,0.0220094,594,1037,-151.938,-25.4318
-623,-13,-152.027,25.4471,-0.00542415,0.0134608,-0.000591117,0.0134793,-0.00544263,-1.53954,0.0112482,0.0239032,601,1037,-152.027,-25.4471
-616,-13,-152.082,25.399,-0.00234209,0.00375311,-0.00219478,0.00446116,-0.00305014,-1.25873,0.00436209,0.0253192,608,1037,-152.082,-25.399
-609,-13,-152.204,25.1734,0.000496824,-0.00590566,-0.00395893,0.00238686,-0.0077957,-0.445413,0.00614915,0.0287093,615,1037,-152.204,-25.1734
-602,-13,-152.266,24.9368,0,0,0,0,0,0,0,-1,622,1037,-152.266,-24.9368
-595,-13,-151.504,25.1094,0,0,0,0,0,0,0,-1,629,1037,-151.504,-25.1093
-588,-13,-72.2089,0.594238,0,0,0,0,0,0,0,-1,636,1037,-72.2089,-0.594287
-581,-13,-72.2836,0.314087,0,0,0,0,0,0,0,-1,643,1037,-72.2836,-0.314046
-574,-13,-72.244,0.27478,0,0,0,0,0,0,0,-1,650,1037,-72.244,-0.274767
-567,-13,-72.2231,0.455933,0,0,0,0,0,0,0,-1,657,1037,-72.2231,-0.455912
-560,-13,-72.3318,0.672241,0,0,0,0,0,0,0,-1,664,1037,-72.3318,-0.672274
-553,-13,-72.1812,0.473267,0,0,0,0,0,0,0,-1,671,1037,-72.1812,-0.473223
-546,-13,-72.0977,0.129761,0,0,0,0,0,0,0,-1,678,1037,-72.0977,-0.129714
-539,-13,-72.2216,0.659302,0,0,0,0,0,0,0,-1,685,1037,-72.2216,-0.659334
-532,-13,-72.4635,0.773682,0,0,0,0,0,0,0,-1,692,1037,-72.4635,-0.77364
-525,-13,0,0,0,0,0,0,0,0,0,-1,699,1037,0,0
-518,-13,0,0,0,0,0,0,0,0,0,-1,706,1037,0,0
-511,-13,0,0,0,0,0,0,0,0,0,-1,713,1037,0,0
-504,-13,0,0,0,0,0,0,0,0,0,-1,720,1037,0,0
-497,-13,0,0,0,0,0,0,0,0,0,-1,727,1037,0,0
-490,-13,0,0,0,0,0,0,0,0,0,-1,734,1037,0,0
-483,-13,0,0,0,0,0,0,0,0,0,-1,741,1037,0,0
-476,-13,0,0,0,0,0,0,0,0,0,-1,748,1037,0,0
-469,-13,0,0,0,0,0,0,0,0,0,-1,755,1037,0,0
-462,-13,0,0,0,0,0,0,0,0,0,-1,762,1037,0,0
-455,-13,0,0,0,0,0,0,0,0,0,-1,769,1037,0,0
-448,-13,0,0,0,0,0,0,0,0,0,-1,776,1037,0,0
-441,-13,0,0,0,0,0,0,0,0,0,-1,783,1037,0,0
-434,-13,0,0,0,0,0,0,0,0,0,-1,790,1037,0,0
-427,-13,0,0,0,0,0,0,0,0,0,-1,797,1037,0,0
-420,-13,0,0,0,0,0,0,0,0,0,-1,804,1037,0,0
-413,-13,0,0,0,0,0,0,0,0,0,-1,811,1037,0,0
-406,-13,0,0,0,0,0,0,0,0,0,-1,818,1037,0,0
-399,-13,0,0,0,0,0,0,0,0,0,-1,825,1037,0,0
-392,-13,0,0,0,0,0,0,0,0,0,-1,832,1037,0,0
-385,-13,0,0,0,0,0,0,0,0,0,-1,839,1037,0,0
-378,-13,0,0,0,0,0,0,0,0,0,-1,846,1037,0,0
-371,-13,0,0,0,0,0,0,0,0,0,-1,853,1037,0,0
-364,-13,0,0,0,0,0,0,0,0,0,-1,860,1037,0,0
-357,-13,0,0,0,0,0,0,0,0,0,-1,867,1037,0,0
-350,-13,0,0,0,0,0,0,0,0,0,-1,874,1037,0,0
-343,-13,0,0,0,0,0,0,0,0,0,-1,881,1037,0,0
-336,-13,0,0,0,0,0,0,0,0,0,-1,888,1037,0,0
-329,-13,0,0,0,0,0,0,0,0,0,-1,895,1037,0,0
-322,-13,0,0,0,0,0,0,0,0,0,-1,902,1037,0,0
-315,-13,0,0,0,0,0,0,0,0,0,-1,909,1037,0,0
-308,-13,0,0,0,0,0,0,0,0,0,-1,916,1037,0,0
-301,-13,0,0,0,0,0,0,0,0,0,-1,923,1037,0,0
-294,-13,0,0,0,0,0,0,0,0,0,-1,930,1037,0,0
-287,-13,0,0,0,0,0,0,0,0,0,-1,937,1037,0,0
-280,-13,0,0,0,0,0,0,0,0,0,-1,944,1037,0,0
-273,-13,0,0,0,0,0,0,0,0,0,-1,951,1037,0,0
-266,-13,0,0,0,0,0,0,0,0,0,-1,958,1037,0,0
-259,-13,0,0,0,0,0,0,0,0,0,-1,965,1037,0,0
-252,-13,0,0,0,0,0,0,0,0,0,-1,972,1037,0,0
-245,-13,0,0,0,0,0,0,0,0,0,-1,979,1037,0,0
-238,-13,0,0,0,0,0,0,0,0,0,-1,986,1037,0,0
-231,-13,0,0,0,0,0,0,0,0,0,-1,993,1037,0,0
-224,-13,0,0,0,0,0,0,0,0,0,-1,1000,1037,0,0
-217,-13,0,0,0,0,0,0,0,0,0,-1,1007,1037,0,0
-210,-13,0,0,0,0,0,0,0,0,0,-1,1014,1037,0,0
-203,-13,0,0,0,0,0,0,0,0,0,-1,1021,1037,0,0
-196,-13,0,0,0,0,0,0,0,0,0,-1,1028,1037,0,0
-189,-13,0,0,0,0,0,0,0,0,0,-1,1035,1037,0,0
-182,-13,0,0,0,0,0,0,0,0,0,-1,1042,1037,0,0
-175,-13,0,0,0,0,0,0,0,0,0,-1,1049,1037,0,0
-168,-13,0,0,0,0,0,0,0,0,0,-1,1056,1037,0,0
-161,-13,0,0,0,0,0,0,0,0,0,-1,1063,1037,0,0
-154,-13,0,0,0,0,0,0,0,0,0,-1,1070,1037,0,0
-147,-13,0,0,0,0,0,0,0,0,0,-1,1077,1037,0,0
-140,-13,0,0,0,0,0,0,0,0,0,-1,1084,1037,0,0
-133,-13,0,0,0,0,0,0,0,0,0,-1,1091,1037,0,0
-126,-13,0,0,0,0,0,0,0,0,0,-1,1098,1037,0,0
-119,-13,0,0,0,0,0,0,0,0,0,-1,1105,1037,0,0
-112,-13,0,0,0,0,0,0,0,0,0,-1,1112,1037,0,0
-105,-13,0,0,0,0,0,0,0,0,0,-1,1119,1037,0,0
-98,-13,0,0,0,0,0,0,0,0,0,-1,1126,1037,0,0
-91,-13,0,0,0,0,0,0,0,0,0,-1,1133,1037,0,0
-84,-13,0,0,0,0,0,0,0,0,0,-1,1140,1037,0,0
-77,-13,0,0,0,0,0,0,0,0,0,-1,1147,1037,0,0
-70,-13,0,0,0,0,0,0,0,0,0,-1,1154,1037,0,0
-63,-13,0,0,0,0,0,0,0,0,0,-1,1161,1037,0,0
-56,-13,0,0,0,0,0,0,0,0,0,-1,1168,1037,0,0
-49,-13,0,0,0,0,0,0,0,0,0,-1,1175,1037,0,0
-42,-13,0,0,0,0,0,0,0,0,0,-1,1182,1037,0,0
-35,-13,0,0,0,0,0,0,0,0,0,-1,1189,1037,0,0
-28,-13,0,0,0,0,0,0,0,0,0,-1,1196,1037,0,0
-21,-13,0,0,0,0,0,0,0,0,0,-1,1203,1037,0,0
-14,-13,0,0,0,0,0,0,0,0,0,-1,1210,1037,0,0
-7,-13,0,0,0,0,0,0,0,0,0,-1,1217,1037,0,0
0,-13,0,0,0,0,0,0,0,0,0,-1,1224,1037,0,0
7,-13,0,0,0,0,0,0,0,0,0,-1,1231,1037,0,0
14,-13,0,0,0,0,0,0,0,0,0,-1,1238,1037,0,0
21,-13,0,0,0,0,0,0,0,0,0,-1,1245,1037,0,0
28,-13,0,0,0,0,0,0,0,0,0,-1,1252,1037,0,0
35,-13,0,0,0,0,0,0,0,0,0,-1,1259,1037,0,0
42,-13,0,0,0,0,0,0,0,0,0,-1,1266,1037,0,0
49,-13,0,0,0,0,0,0,0,0,0,-1,1273,1037,0,0
56,-13,0,0,0,0,0,0,0,0,0,-1,1280,1037,0,0
63,-13,0,0,0,0,0,0,0,0,0,-1,1287,1037,0,0
70,-13,0,0,0,0,0,0,0,0,0,-1,1294,1037,0,0
77,-13,0,0,0,0,0,0,0,0,0,-1,1301,1037,0,0
84,-13,0,0,0,0,0,0,0,0,0,-1,1308,1037,0,0
91,-13,0,0,0,0,0,0,0,0,0,-1,1315,1037,0,0
98,-13,0,0,0,0,0,0,0,0,0,-1,1322,1037,0,0
105,-13,0,0,0,0,0,0,0,0,0,-1,1329,1037,0,0
112,-13,0,0,0,0,0,0,0,0,0,-1,1336,1037,0,0
119,-13,0,0,0,0,0,0,0,0,0,-1,1343,1037,0,0
126,-13,0,0,0,0,0,0,0,0,0,-1,1350,1037,0,0
133,-13,0,0,0,0,0,0,0,0,0,-1,1357,1037,0,0
140,-13,0,0,0,0,0,0,0,0,0,-1,1364,1037,0,0
147,-13,0,0,0,0,0,0,0,0,0,-1,1371,1037,0,0
154,-13,0,0,0,0,0,0,0,0,0,-1,1378,1037,0,0
161,-13,0,0,0,0,0,0,0,0,0,-1,1385,1037,0,0
168,-13,0,0,0,0,0,0,0,0,0,-1,1392,1037,0,0
175,-13,0,0,0,0,0,0,0,0,0,-1,1399,1037,0,0
182,-13,0,0,0,0,0,0,0,0,0,-1,1406,1037,0,0
189,-13,0,0,0,0,0,0,0,0,0,-1,1413,1037,0,0
196,-13,0,0,0,0,0,0,0,0,0,-1,1420,1037,0,0
203,-13,0,0,0,0,0,0,0,0,0,-1,1427,1037,0,0
210,-13,0,0,0,0,0,0,0,0,0,-1,1434,1037,0,0
217,-13,0,0,0,0,0,0,0,0,0,-1,1441,1037,0,0
224,-13,0,0,0,0,0,0,0,0,0,-1,1448,1037,0,0
231,-13,0,0,0,0,0,0,0,0,0,-1,1455,1037,0,0
238,-13,0,0,0,0,0,0,0,0,0,-1,1462,1037,0,0
245,-13,0,0,0,0,0,0,0,0,0,-1,1469,1037,0,0
252,-13,0,0,0,0,0,0,0,0,0,-1,1476,1037,0,0
259,-13,0,0,0,0,0,0,0,0,0,-1,1483,1037,0,0
266,-13,0,0,0,0,0,0,0,0,0,-1,1490,1037,0,0
273,-13,0,0,0,0,0,0,0,0,0,-1,1497,1037,0,0
280,-13,0,0,0,0,0,0,0,0,0,-1,1504,1037,0,0
287,-13,0,0,0,0,0,0,0,0,0,-1,1511,1037,0,0
294,-13,0,0,0,0,0,0,0,0,0,-1,1518,1037,0,0
301,-13,0,0,0,0,0,0,0,0,0,-1,1525,1037,0,0
308,-13,0,0,0,0,0,0,0,0,0,-1,1532,1037,0,0
315,-13,0,0,0,0,0,0,0,0,0,-1,1539,1037,0,0
322,-13,0,0,0,0,0,0,0,0,0,-1,1546,1037,0,0
329,-13,0,0,0,0,0,0,0,0,0,-1,1553,1037,0,0
336,-13,0,0,0,0,0,0,0,0,0,-1,1560,1037,0,0
343,-13,0,0,0,0,0,0,0,0,0,-1,1567,1037,0,0
350,-13,0,0,0,0,0,0,0,0,0,-1,1574,1037,0,0
357,-13,0,0,0,0,0,0,0,0,0,-1,1581,1037,0,0
364,-13,0,0,0,0,0,0,0,0,0,-1,1588,1037,0,0
371,-13,0,0,0,0,0,0,0,0,0,-1,1595,1037,0,0
378,-13,0,0,0,0,0,0,0,0,0,-1,1602,1037,0,0
385,-13,0,0,0,0,0,0,0,0,0,-1,1609,1037,0,0
392,-13,0,0,0,0,0,0,0,0,0,-1,1616,1037,0,0
399,-13,0,0,0,0,0,0,0,0,0,-1,1623,1037,0,0
406,-13,0,0,0,0,0,0,0,0,0,-1,1630,1037,0,0
413,-13,0,0,0,0,0,0,0,0,0,-1,1637,1037,0,0
420,-13,0,0,0,0,0,0,0,0,0,-1,1644,1037,0,0
427,-13,0,0,0,0,0,0,0,0,0,-1,1651,1037,0,0
434,-13,0,0,0,0,0,0,0,0,0,-1,1658,1037,0,0
441,-13,0,0,0,0,0,0,0,0,0,-1,1665,1037,0,0
448,-13,0,0,0,0,0,0,0,0,0,-1,1672,1037,0,0
455,-13,0,0,0,0,0,0,0,0,0,-1,1679,1037,0,0
462,-13,0,0,0,0,0,0,0,0,0,-1,1686,1037,0,0
469,-13,0,0,0,0,0,0,0,0,0,-1,1693,1037,0,0
476,-13,0,0,0,0,0,0,0,0,0,-1,1700,1037,0,0
483,-13,0,0,0,0,0,0,0,0,0,-1,1707,1037,0,0
490,-13,0,0,0,0,0,0,0,0,0,-1,1714,1037,0,0
497,-13,0,0,0,0,0,0,0,0,0,-1,1721,1037,0,0
504,-13,0,0,0,0,0,0,0,0,0,-1,1728,1037,0,0
511,-13,0,0,0,0,0,0,0,0,0,-1,1735,1037,0,0
518,-13,0,0,0,0,0,0,0,0,0,-1,1742,1037,0,0
525,-13,0,0,0,0,0,0,0,0,0,-1,1749,1037,0,0
532,-13,0,0,0,0,0,0,0,0,0,-1,1756,1037,0,0
539,-13,0,0,0,0,0,0,0,0,0,-1,1763,1037,0,0
546,-13,0,0,0,0,0,0,0,0,0,-1,1770,1037,0,0
553,-13,0,0,0,0,0,0,0,0,0,-1,1777,1037,0,0
560,-13,0,0,0,0,0,0,0,0,0,-1,1784,1037,0,0
567,-13,0,0,0,0,0,0,0,0,0,-1,1791,1037,0,0
574,-13,0,0,0,0,0,0,0,0,0,-1,1798,1037,0,0
581,-13,0,0,0,0,0,0,0,0,0,-1,1805,1037,0,0
588,-13,0,0,0,0,0,0,0,0,0,-1,1812,1037,0,0
595,-13,0,0,0,0,0,0,0,0,0,-1,1819,1037,0,0
602,-13,0,0,0,0,0,0,0,0,0,-1,1826,1037,0,0
609,-13,0,0,0,0,0,0,0,0,0,-1,1833,1037,0,0
616,-13,0,0,0,0,0,0,0,0,0,-1,1840,1037,0,0
623,-13,0,0,0,0,0,0,0,0,0,-1,1847,1037,0,0
630,-13,0,0,0,0,0,0,0,0,0,-1,1854,1037,0,0
637,-13,0,0,0,0,0,0,0,0,0,-1,1861,1037,0,0
644,-13,0,0,0,0,0,0,0,0,0,-1,1868,1037,0,0
651,-13,159.34,5.69629,0,0,0,0,0,0,0,-1,1875,1037,159.34,-5.69624
658,-13,159.304,5.21558,0,0,0,0,0,0,0,-1,1882,1037,159.304,-5.21554
665,-13,159.314,5.28674,0,0,0,0,0,0,0,-1,1889,1037,159.314,-5.28669
672,-13,159.282,5.38916,0,0,0,0,0,0,0,-1,1896,1037,159.283,-5.3892
679,-13,159.091,5.53247,0,0,0,0,0,0,0,-1,1903,1037,159.091,-5.53248
686,-13,158.953,5.37463,0,0,0,0,0,0,0,-1,1910,1037,158.953,-5.37459
693,-13,158.957,5.44189,0,0,0,0,0,0,0,-1,1917,1037,158.957,-5.44187
700,-13,159.034,5.47864,0,0,0,0,0,0,0,-1,1924,1037,159.034,-5.47865
707,-13,159.17,5.2644,0,0,0,0,0,0,0,-1,1931,1037,159.17,-5.26434
714,-13,159.45,4.99683,0,0,0,0,0,0,0,-1,1938,1037,159.45,-4.99684
721,-13,152.424,4.76563,0,0,0,0,0,0,0,-1,1945,1037,152.424,-4.76559
728,-13,78.576,7.60706,0,0,0,0,0,0,0,-1,1952,1037,78.5761,-7.60708
735,-13,102.323,11.209,0,0,0,0,0,0,0,-1,1959,1037,102.323,-11.209
742,-13,93.698,9.32483,0,0,0,0,0,0,0,-1,1966,1037,93.6979,-9.32482
749,-13,161.096,24.6782,0,0,0,0,0,0,0,-1,1973,1037,161.097,-24.6782
756,-13,161.238,24.8441,-0.0185222,0.0155964,-0.000905223,0.0156204,-0.0185462,-1.54429,0.0197502,0.0293879,1980,1037,161.238,-24.844
763,-13,161.115,24.9487,-0.0220882,0.0232186,-0.000459717,0.0232233,-0.0220929,-1.56065,0.026166,0.0383635,1987,1037,161.115,-24.9487
770,-13,160.927,25.0066,-0.0253555,0.0306359,-7.09273e-05,0.030636,-0.0253556,-1.56953,0.0323747,0.0331496,1994,1037,160.927,-25.0066
777,-13,160.63,24.9865,-0.0282179,0.0377721,0.000248411,0.037773,-0.0282189,1.56703,0.0382333,0.0239298,2001,1037,160.63,-24.9864
784,-13,160.505,25.0744,-0.0305656,0.0445465,0.000488549,0.0445497,-0.0305688,1.56429,0.0436194,0.0460624,2008,1037,160.505,-25.0744
791,-13,161.293,24.8202,0,0,0,0,0,0,0,-1,2015,1037,161.293,-24.8202
798,-13,141.364,21.8746,0,0,0,0,0,0,0,-1,2022,1037,141.364,-21.8746
805,-13,141.104,21.3998,0,0,0,0,0,0,0,-1,2029,1037,141.104,-21.3998
812,-13,118.83,15.0224,0,0,0,0,0,0,0,-1,2036,1037,118.83,-15.0224
-700,-20,-93.2781,-2.50916,0,0,0,0,0,0,0,-1,524,1044,-93.2781,2.50913
-693,-20,-89.4135,12.1685,0,0,0,0,0,0,0,-1,531,1044,-89.4135,-12.1684
-686,-20,-90.3054,12.3282,0,0,0,0,0,0,0,-1,538,1044,-90.3054,-12.3283
-679,-20,-91.2314,12.5063,0,0,0,0,0,0,0,-1,545,1044,-91.2314,-12.5063
-672,-20,-102.373,14.449,0,0,0,0,0,0,0,-1,552,1044,-102.373,-14.449
-665,-20,-103.32,14.0575,0,0,0,0,0,0,0,-1,559,1044,-103.32,-14.0575
-658,-20,-148.725,25.2925,0,0,0,0,0,0,0,-1,566,1044,-148.725,-25.2925
-651,-20,-151.718,25.7232,0,0,0,0,0,0,0,-1,573,1044,-151.718,-25.7232
-644,-20,-151.607,25.4188,-0.0165843,0.0412014,0.00173584,0.0412535,-0.0166364,1.54079,0.0344153,0.0428992,580,1044,-151.607,-25.4188
-637,-20,-151.741,25.1704,-0.0125377,0.031773,0.00100056,0.0317956,-0.0125603,1.54823,0.0263993,0.026466,587,1044,-151.741,-25.1704
-630,-20,-151.874,25.2715,-0.00861305,0.0224043,4.2427e-05,0.0224044,-0.00861311,1.56943,0.0184886,0.0203734,594,1044,-151.874,-25.2715
-623,-20,-152.088,25.3832,-0.00480308,0.0130884,-0.00112627,0.013159,-0.0048737,-1.50818,0.0107713,0.0218563,601,1044,-152.088,-25.3833
-616,-20,-152.088,25.3336,-0.0011003,0.00382017,-0.00249402,0.0048632,-0.00214333,-1.17469,0.00414558,0.0253283,608,1044,-152.088,-25.3336
-609,-20,-152.14,25.3182,0.00250306,-0.00540341,-0.0040501,0.00420945,-0.0071098,-0.39875,0.0066063,0.02552,615,1044,-152.14,-25.3182
-602,-20,-151.955,25.15,0.00601507,-0.0145831,-0.00578449,0.00752833,-0.0160963,-0.255872,0.0139355,0.0208237,622,1044,-151.955,-25.15
-595,-20,-151.951,25.1226,0,0,0,0,0,0,0,-1,629,1044,-151.951,-25.1226
-588,-20,-72.2241,0.531372,0,0,0,0,0,0,0,-1,636,1044,-72.2241,-0.531387
-581,-20,-72.261,0.247192,0,0,0,0,0,0,0,-1,643,1044,-72.261,-0.247205
-574,-20,-72.2443,0.32019,0,0,0,0,0,0,0,-1,650,1044,-72.2443,-0.320219
-567,-20,-72.0424,0.520142,0,0,0,0,0,0,0,-1,657,1044,-72.0424,-0.520167
-560,-20,-71.8108,0.804077,0,0,0,0,0,0,0,-1,664,1044,-71.8108,-0.804076
-553,-20,-72.0823,0.542358,0,0,0,0,0,0,0,-1,671,1044,-72.0823,-0.542369
-546,-20,-72.0886,0.290649,0,0,0,0,0,0,0,-1,678,1044,-72.0885,-0.290684
-539,-20,-72.2553,0.547974,0,0,0,0,0,0,0,-1,685,1044,-72.2553,-0.547983
-532,-20,-72.5035,0.667969,0,0,0,0,0,0,0,-1,692,1044,-72.5035,-0.667925
-525,-20,0,0,0,0,0,0,0,0,0,-1,699,1044,0,0
-518,-20,0,0,0,0,0,0,0,0,0,-1,706,1044,0,0
-511,-20,0,0,0,0,0,0,0,0,0,-1,713,1044,0,0
-504,-20,0,0,0,0,0,0,0,0,0,-1,720,1044,0,0
-497,-20,0,0,0,0,0,0,0,0,0,-1,727,1044,0,0
-490,-20,0,0,0,0,0,0,0,0,0,-1,734,1044,0,0
-483,-20,0,0,0,0,0,0,0,0,0,-1,741,1044,0,0
-476,-20,0,0,0,0,0,0,0,0,0,-1,748,1044,0,0
-469,-20,0,0,0,0,0,0,0,0,0,-1,755,1044,0,0
-462,-20,0,0,0,0,0,0,0,0,0,-1,762,1044,0,0
-455,-20,0,0,0,0,0,0,0,0,0,-1,769,1044,0,0
-448,-20,0,0,0,0,0,0,0,0,0,-1,776,1044,0,0
-441,-20,0,0,0,0,0,0,0,0,0,-1,783,1044,0,0
-434,-20,0,0,0,0,0,0,0,0,0,-1,790,1044,0,0
-427,-20,0,0,0,0,0,0,0,0,0,-1,797,1044,0,0
-420,-20,0,0,0,0,0,0,0,0,0,-1,804,1044,0,0
-413,-20,0,0,0,0,0,0,0,0,0,-1,811,1044,0,0
-406,-20,0,0,0,0,0,0,0,0,0,-1,818,1044,0,0
-399,-20,0,0,0,0,0,0,0,0,0,-1,825,1044,0,0
-392,-20,0,0,0,0,0,0,0,0,0,-1,832,1044,0,0
-385,-20,0,0,0,0,0,0,0,0,0,-1,839,1044,0,0
-378,-20,0,0,0,0,0,0,0,0,0,-1,846,1044,0,0
-371,-20,0,0,0,0,0,0,0,0,0,-1,853,1044,0,0
-364,-20,0,0,0,0,0,0,0,0,0,-1,860,1044,0,0
-357,-20,0,0,0,0,0,0,0,0,0,-1,867,1044,0,0
-350,-20,0,0,0,0,0,0,0,0,0,-1,874,1044,0,0
-343,-20,0,0,0,0,0,0,0,0,0,-1,881,1044,0,0
-336,-20,0,0,0,0,0,0,0,0,0,-1,888,1044,0,0
-329,-20,0,0,0,0,0,0,0,0,0,-1,895,1044,0,0
-322,-20,0,0,0,0,0,0,0,0,0,-1,902,1044,0,0
-315,-20,0,0,0,0,0,0,0,0,0,-1,909,1044,0,0
-308,-20,0,0,0,0,0,0,0,0,0,-1,916,1044,0,0
-301,-20,0,0,0,0,0,0,0,0,0,-1,923,1044,0,0
-294,-20,0,0,0,0,0,0,0,0,0,-1,930,1044,0,0
-287,-20,0,0,0,0,0,0,0,0,0,-1,937,1044,0,0
-280,-20,0,0,0,0,0,0,0,0,0,-1,944,1044,0,0
-273,-20,0,0,0,0,0,0,0,0,0,-1,951,1044,0,0
-266,-20,0,0,0,0,0,0,0,0,0,-1,958,1044,0,0
-259,-20,0,0,0,0,0,0,0,0,0,-1,965,1044,0,0
-252,-20,0,0,0,0,0,0,0,0,0,-1,972,1044,0,0
-245,-20,0,0,0,0,0,0,0,0,0,-1,979,1044,0,0
-238,-20,0,0,0,0,0,0,0,0,0,-1,986,1044,0,0
-231,-20,0,0,0,0,0,0,0,0,0,-1,993,1044,0,0
-224,-20,0,0,0,0,0,0,0,0,0,-1,1000,1044,0,0
-217,-20,0,0,0,0,0,0,0,0,0,-1,1007,1044,0,0
-210,-20,0,0,0,0,0,0,0,0,0,-1,1014,1044,0,0
-203,-20,0,0,0,0,0,0,0,0,0,-1,1021,1044,0,0
-196,-20,0,0,0,0,0,0,0,0,0,-1,1028,1044,0,0
-189,-20,0,0,0,0,0,0,0,0,0,-1,1035,1044,0,0
-182,-20,0,0,0,0,0,0,0,0,0,-1,1042,1044,0,0
-175,-20,0,0,0,0,0,0,0,0,0,-1,1049,1044,0,0
-168,-20,0,0,0,0,0,0,0,0,0,-1,1056,1044,0,0
-161,-20,0,0,0,0,0,0,0,0,0,-1,1063,1044,0,0
-154,-20,0,0,0,0,0,0,0,0,0,-1,1070,1044,0,0
-147,-20,0,0,0,0,0,0,0,0,0,-1,1077,1044,0,0
-140,-20,0,0,0,0,0,0,0,0,0,-1,1084,1044,0,0
-133,-20,0,0,0,0,0,0,0,0,0,-1,1091,1044,0,0
-126,-20,0,0,0,0,0,0,0,0,0,-1,1098,1044,0,0
-119,-20,0,0,0,0,0,0,0,0,0,-1,1105,1044,0,0
-112,-20,0,0,0,0,0,0,0,0,0,-1,1112,1044,0,0
-105,-20,0,0,0,0,0,0,0,0,0,-1,1119,1044,0,0
-98,-20,0,0,0,0,0,0,0,0,0,-1,1126,1044,0,0
-91,-20,0,0,0,0,0,0,0,0,0,-1,1133,1044,0,0
-84,-20,0,0,0,0,0,0,0,0,0,-1,1140,1044,0,0
-77,-20,0,0,0,0,0,0,0,0,0,-1,1147,1044,0,0
-70,-20,0,0,0,0,0,0,0,0,0,-1,1154,1044,0,0
-63,-20,0,0,0,0,0,0,0,0,0,-1,1161,1044,0,0
-56,-20,0,0,0,0,0,0,0,0,0,-1,1168,1044,0,0
-49,-20,0,0,0,0,0,0,0,0,0,-1,1175,1044,0,0
-42,-20,0,0,0,0,0,0,0,0,0,-1,1182,1044,0,0
-35,-20,0,0,0,0,0,0,0,0,0,-1,1189,1044,0,0
-28,-20,0,0,0,0,0,0,0,0,0,-1,1196,1044,0,0
-21,-20,0,0,0,0,0,0,0,0,0,-1,1203,1044,0,0
-14,-20,0,0,0,0,0,0,0,0,0,-1,1210,1044,0,0
-7,-20,0,0,0,0,0,0,0,0,0,-1,1217,1044,0,0
0,-20,0,0,0,0,0,0,0,0,0,-1,1224,1044,0,0
7,-20,0,0,0,0,0,0,0,0,0,-1,1231,1044,0,0
14,-20,0,0,0,0,0,0,0,0,0,-1,1238,1044,0,0
21,-20,0,0,0,0,0,0,0,0,0,-1,1245,1044,0,0
28,-20,0,0,0,0,0,0,0,0,0,-1,1252,1044,0,0
35,-20,0,0,0,0,0,0,0,0,0,-1,1259,1044,0,0
42,-20,0,0,0,0,0,0,0,0,0,-1,1266,1044,0,0
49,-20,0,0,0,0,0,0,0,0,0,-1,1273,1044,0,0
56,-20,0,0,0,0,0,0,0,0,0,-1,1280,1044,0,0
63,-20,0,0,0,0,0,0,0,0,0,-1,1287,1044,0,0
70,-20,0,0,0,0,0,0,0,0,0,-1,1294,1044,0,0
77,-20,0,0,0,0,0,0,0,0,0,-1,1301,1044,0,0
84,-20,0,0,0,0,0,0,0,0,0,-1,1308,1044,0,0
91,-20,0,0,0,0,0,0,0,0,0,-1,1315,1044,0,0
98,-20,0,0,0,0,0,0,0,0,0,-1,1322,1044,0,0
105,-20,0,0,0,0,0,0,0,0,0,-1,1329,1044,0,0
112,-20,0,0,0,0,0,0,0,0,0,-1,1336,1044,0,0
119,-20,0,0,0,0,0,0,0,0,0,-1,1343,1044,0,0
126,-20,0,0,0,0,0,0,0,0,0,-1,1350,1044,0,0
133,-20,0,0,0,0,0,0,0,0,0,-1,1357,1044,0,0
140,-20,0,0,0,0,0,0,0,0,0,-1,1364,1044,0,0
147,-20,0,0,0,0,0,0,0,0,0,-1,1371,1044,0,0
154,-20,0,0,0,0,0,0,0,0,0,-1,1378,1044,0,0
161,-20,0,0,0,0,0,0,0,0,0,-1,1385,1044,0,0
168,-20,0,0,0,0,0,0,0,0,0,-1,1392,1044,0,0
175,-20,0,0,0,0,0,0,0,0,0,-1,1399,1044,0,0
182,-20,0,0,0,0,0,0,0,0,0,-1,1406,1044,0,0
189,-20,0,0,0,0,0,0,0,0,0,-1,1413,1044,0,0
196,-20,0,0,0,0,0,0,0,0,0,-1,1420,1044,0,0
203,-20,0,0,0,0,0,0,0,0,0,-1,1427,1044,0,0
210,-20,0,0,0,0,0,0,0,0,0,-1,1434,1044,0,0
217,-20,0,0,0,0,0,0,0,0,0,-1,1441,1044,0,0
224,-20,0,0,0,0,0,0,0,0,0,-1,1448,1044,0,0
231,-20,0,0,0,0,0,0,0,0,0,-1,1455,1044,0,0
238,-20,0,0,0,0,0,0,0,0,0,-1,1462,1044,0,0
245,-20,0,0,0,0,0,0,0,0,0,-1,1469,1044,0,0
252,-20,0,0,0,0,0,0,0,0,0,-1,1476,1044,0,0
259,-20,0,0,0,0,0,0,0,0,0,-1,1483,1044,0,0
266,-20,0,0,0,0,0,0,0,0,0,-1,1490,1044,0,0
273,-20,0,0,0,0,0,0,0,0,0,-1,1497,1044,0,0
280,-20,0,0,0,0,0,0,0,0,0,-1,1504,1044,0,0
287,-20,0,0,0,0,0,0,0,0,0,-1,1511,1044,0,0
294,-20,0,0,0,0,0,0,0,0,0,-1,1518,1044,0,0
301,-20,0,0,0,0,0,0,0,0,0,-1,1525,1044,0,0
308,-20,0,0,0,0,0,0,0,0,0,-1,1532,1044,0,0
315,-20,0,0,0,0,0,0,0,0,0,-1,1539,1044,0,0
322,-20,0,0,0,0,0,0,0,0,0,-1,1546,1044,0,0
329,-20,0,0,0,0,0,0,0,0,0,-1,1553,1044,0,0
336,-20,0,0,0,0,0,0,0,0,0,-1,1560,1044,0,0
343,-20,0,0,0,0,0,0,0,0,0,-1,1567,1044,0,0
350,-20,0,0,0,0,0,0,0,0,0,-1,1574,1044,0,0
357,-20,0,0,0,0,0,0,0,0,0,-1,1581,1044,0,0
364,-20,0,0,0,0,0,0,0,0,0,-1,1588,1044,0,0
371,-20,0,0,0,0,0,0,0,0,0,-1,1595,1044,0,0
378,-20,0,0,0,0,0,0,0,0,0,-1,1602,1044,0,0
385,-20,0,0,0,0,0,0,0,0,0,-1,1609,1044,0,0
392,-20,0,0,0,0,0,0,0,0,0,-1,1616,1044,0,0
399,-20,0,0,0,0,0,0,0,0,0,-1,1623,1044,0,0
406,-20,0,0,0,0,0,0,0,0,0,-1,1630,1044,0,0
413,-20,0,0,0,0,0,0,0,0,0,-1,1637,1044,0,0
420,-20,0,0,0,0,0,0,0,0,0,-1,1644,1044,0,0
427,-20,0,0,0,0,0,0,0,0,0,-1,1651,1044,0,0
434,-20,0,0,0,0,0,0,0,0,0,-1,1658,1044,0,0
441,-20,0,0,0,0,0,0,0,0,0,-1,1665,1044,0,0
448,-20,0,0,0,0,0,0,0,0,0,-1,1672,1044,0,0
455,-20,0,0,0,0,0,0,0,0,0,-1,1679,1044,0,0
462,-20,0,0,0,0,0,0,0,0,0,-1,1686,1044,0,0
469,-20,0,0,0,0,0,0,0,0,0,-1,1693,1044,0,0
476,-20,0,0,0,0,0,0,0,0,0,-1,1700,1044,0,0
483,-20,0,0,0,0,0,0,0,0,0,-1,1707,1044,0,0
490,-20,0,0,0,0,0,0,0,0,0,-1,1714,1044,0,0
497,-20,0,0,0,0,0,0,0,0,0,-1,1721,1044,0,0
504,-20,0,0,0,0,0,0,0,0,0,-1,1728,1044,0,0
511,-20,0,0,0,0,0,0,0,0,0,-1,1735,1044,0,0
518,-20,0,0,0,0,0,0,0,0,0,-1,1742,1044,0,0
525,-20,0,0,0,0,0,0,0,0,0,-1,1749,1044,0,0
532,-20,0,0,0,0,0,0,0,0,0,-1,1756,1044,0,0
539,-20,0,0,0,0,0,0,0,0,0,-1,1763,1044,0,0
546,-20,0,0,0,0,0,0,0,0,0,-1,1770,1044,0,0
553,-20,0,0,0,0,0,0,0,0,0,-1,1777,1044,0,0
560,-20,0,0,0,0,0,0,0,0,0,-1,1784,1044,0,0
567,-20,0,0,0,0,0,0,0,0,0,-1,1791,1044,0,0
574,-20,0,0,0,0,0,0,0,0,0,-1,1798,1044,0,0
581,-20,0,0,0,0,0,0,0,0,0,-1,1805,1044,0,0
588,-20,0,0,0,0,0,0,0,0,0,-1,1812,1044,0,0
595,-20,0,0,0,0,0,0,0,0,0,-1,1819,1044,0,0
602,-20,0,0,0,0,0,0,0,0,0,-1,1826,1044,0,0
609,-20,0,0,0,0,0,0,0,0,0,-1,1833,1044,0,0
616,-20,0,0,0,0,0,0,0,0,0,-1,1840,1044,0,0
623,-20,0,0,0,0,0,0,0,0,0,-1,1847,1044,0,0
630,-20,0,0,0,0,0,0,0,0,0,-1,1854,1044,0,0
637,-20,0,0,0,0,0,0,0,0,0,-1,1861,1044,0,0
644,-20,0,0,0,0,0,0,0,0,0,-1,1868,1044,0,0
651,-20,159.16,5.76135,0,0,0,0,0,0,0,-1,1875,1044,159.16,-5.76139
658,-20,159.14,5.6759,0,0,0,0,0,0,0,-1,1882,1044,159.14,-5.67593
665,-20,159.187,5.54224,0,0,0,0,0,0,0,-1,1889,1044,159.187,-5.54218
672,-20,159.234,5.43689,0,0,0,0,0,0,0,-1,1896,1044,159.234,-5.43691
679,-20,159.174,5.38647,0,0,0,0,0,0,0,-1,1903,1044,159.174,-5.38651
686,-20,159.089,5.23083,0,0,0,0,0,0,0,-1,1910,1044,159.089,-5.23077
693,-20,159.168,5.32642,0,0,0,0,0,0,0,-1,1917,1044,159.168,-5.32643
700,-20,159.136,5.35291,0,0,0,0,0,0,0,-1,1924,1044,159.136,-5.35295
707,-20,159.12,5.38391,0,0,0,0,0,0,0,-1,1931,1044,159.12,-5.38397
714,-20,159.552,5.30042,0,0,0,0,0,0,0,-1,1938,1044,159.553,-5.30046
721,-20,155.168,5.13721,0,0,0,0,0,0,0,-1,1945,1044,155.169,-5.13723
728,-20,102.772,11.5071,0,0,0,0,0,0,0,-1,1952,1044,102.772,-11.5071
735,-20,161.585,25.075,0,0,0,0,0,0,0,-1,1959,1044,161.585,-25.075
742,-20,161.533,24.869,0,0,0,0,0,0,0,-1,1966,1044,161.533,-24.869
749,-20,161.364,24.6525,0,0,0,0,0,0,0,-1,1973,1044,161.364,-24.6525
756,-20,161.327,24.7933,-0.0187654,0.014931,-0.000506099,0.0149386,-0.018773,-1.55578,0.0195053,0.0274518,1980,1044,161.327,-24.7933
763,-20,161.119,24.8555,-0.022114,0.0220983,-9.56103e-05,0.0220985,-0.0221142,-1.56863,0.0255263,0.0392791,1987,1044,161.119,-24.8555
770,-20,160.936,24.9389,-0.025074,0.0290479,0.000201134,0.0290486,-0.0250747,1.56708,0.0312762,0.0337246,1994,1044,160.936,-24.9389
777,-20,160.654,24.7789,-0.027551,0.0357113,0.000369079,0.0357134,-0.0275531,1.56496,0.0366281,0.024035,2001,1044,160.654,-24.7789
784,-20,160.606,24.7991,-0.0294495,0.0420165,0.000396849,0.0420187,-0.0294517,1.56524,0.0414755,0.0287121,2008,1044,160.606,-24.7991
791,-20,161.002,24.5604,0,0,0,0,0,0,0,-1,2015,1044,161.002,-24.5603
798,-20,161.394,24.2627,0,0,0,0,0,0,0,-1,2022,1044,161.394,-24.2627
805,-20,145.318,17.1595,0,0,0,0,0,0,0,-1,2029,1044,145.318,-17.1595
812,-20,146.059,16.0255,0,0,0,0,0,0,0,-1,2036,1044,146.059,-16.0255
-700,-27,-88.3745,10.9375,0,0,0,0,0,0,0,-1,524,1051,-88.3745,-10.9374
-693,-27,-89.2953,11.3148,0,0,0,0,0,0,0,-1,531,1051,-89.2953,-11.3148
-686,-27,-90.1198,11.5474,0,0,0,0,0,0,0,-1,538,1051,-90.1198,-11.5473
-679,-27,-101.677,13.863,0,0,0,0,0,0,0,-1,545,1051,-101.677,-13.863
-672,-27,-102.566,13.9822,0,0,0,0,0,0,0,-1,552,1051,-102.566,-13.9821
-665,-27,-103.518,14.1494,0,0,0,0,0,0,0,-1,559,1051,-103.518,-14.1494
-658,-27,-110.786,16.425,0,0,0,0,0,0,0,-1,566,1051,-110.786,-16.425
-651,-27,-151.609,25.1926,0,0,0,0,0,0,0,-1,573,1051,-151.609,-25.1926
-644,-27,-151.644,24.9999,-0.0170386,0.039716,0.000938409,0.0397315,-0.0170541,1.55427,0.0336453,0.0284044,580,1051,-151.644,-24.9999
-637,-27,-151.797,25.0095,-0.0127379,0.0305623,0.000368678,0.0305654,-0.0127411,1.56228,0.0256993,0.018794,587,1051,-151.797,-25.0096
-630,-27,-151.891,25.1768,-0.00855858,0.0214518,-0.000423374,0.0214578,-0.00856455,-1.55669,0.0178583,0.0219093,594,1051,-151.891,-25.1767
-623,-27,-152.044,25.312,-0.00448843,0.0123777,-0.00142604,0.0124975,-0.00460815,-1.48704,0.0102201,0.0222106,601,1051,-152.044,-25.312
-616,-27,-151.937,25.301,-0.000515093,0.00333444,-0.0026281,0.00466722,-0.00184788,-1.10146,0.00387712,0.0192656,608,1051,-151.937,-25.3011
-609,-27,-151.892,25.3241,0.00337388,-0.00568219,-0.00401886,0.00490013,-0.00720844,-0.362947,0.0070331,0.0200739,615,1051,-151.892,-25.3241
-602,-27,-151.928,25.3202,0.00719084,-0.0146744,-0.00558804,0.00853618,-0.0160198,-0.236258,0.0143952,0.0151139,622,1051,-151.928,-25.3202
-595,-27,-151.878,25.3878,0,0,0,0,0,0,0,-1,629,1051,-151.878,-25.3879
-588,-27,-148.22,25.2644,0,0,0,0,0,0,0,-1,636,1051,-148.22,-25.2645
-581,-27,-72.1835,0.374878,0,0,0,0,0,0,0,-1,643,1051,-72.1835,-0.37492
-574,-27,-72.1907,0.398804,0,0,0,0,0,0,0,-1,650,1051,-72.1907,-0.398771
-567,-27,-72.0397,0.301392,0,0,0,0,0,0,0,-1,657,1051,-72.0396,-0.301375
-560,-27,-72.0294,0.408813,0,0,0,0,0,0,0,-1,664,1051,-72.0294,-0.408812
-553,-27,-72.0273,0.499268,0,0,0,0,0,0,0,-1,671,1051,-72.0273,-0.499301
-546,-27,-72.1342,0.19397,0,0,0,0,0,0,0,-1,678,1051,-72.1342,-0.193915
-539,-27,-72.2832,0.279175,0,0,0,0,0,0,0,-1,685,1051,-72.2832,-0.279193
-532,-27,-72.424,0.484375,0,0,0,0,0,0,0,-1,692,1051,-72.424,-0.484377
-525,-27,0,0,0,0,0,0,0,0,0,-1,699,1051,0,0
-518,-27,0,0,0,0,0,0,0,0,0,-1,706,1051,0,0
-511,-27,0,0,0,0,0,0,0,0,0,-1,713,1051,0,0
-504,-27,0,0,0,0,0,0,0,0,0,-1,720,1051,0,0
-497,-27,0,0,0,0,0,0,0,0,0,-1,727,1051,0,0
-490,-27,0,0,0,0,0,0,0,0,0,-1,734,1051,0,0
-483,-27,0,0,0,0,0,0,0,0,0,-1,741,1051,0,0
-476,-27,0,0,0,0,0,0,0,0,0,-1,748,1051,0,0
-469,-27,0,0,0,0,0,0,0,0,0,-1,755,1051,0,0
-462,-27,0,0,0,0,0,0,0,0,0,-1,762,1051,0,0
-455,-27,0,0,0,0,0,0,0,0,0,-1,769,1051,0,0
-448,-27,0,0,0,0,0,0,0,0,0,-1,776,1051,0,0
-441,-27,0,0,0,0,0,0,0,0,0,-1,783,1051,0,0
-434,-27,0,0,0,0,0,0,0,0,0,-1,790,1051,0,0
-427,-27,0,0,0,0,0,0,0,0,0,-1,797,1051,0,0
-420,-27,0,0,0,0,0,0,0,0,0,-1,804,1051,0,0
-413,-27,0,0,0,0,0,0,0,0,0,-1,811,1051,0,0
-406,-27,0,0,0,0,0,0,0,0,0,-1,818,1051,0,0
-399,-27,0,0,0,0,0,0,0,0,0,-1,825,1051,0,0
-392,-27,0,0,0,0,0,0,0,0,0,-1,832,1051,0,0
-385,-27,0,0,0,0,0,0,0,0,0,-1,839,1051,0,0
-378,-27,0,0,0,0,0,0,0,0,0,-1,846,1051,0,0
-371,-27,0,0,0,0,0,0,0,0,0,-1,853,1051,0,0
-364,-27,0,0,0,0,0,0,0,0,0,-1,860,1051,0,0
-357,-27,0,0,0,0,0,0,0,0,0,-1,867,1051,0,0
-350,-27,0,0,0,0,0,0,0,0,0,-1,874,1051,0,0
-343,-27,0,0,0,0,0,0,0,0,0,-1,881,1051,0,0
-336,-27,0,0,0,0,0,0,0,0,0,-1,888,1051,0,0
-329,-27,0,0,0,0,0,0,0,0,0,-1,895,1051,0,0
-322,-27,0,0,0,0,0,0,0,0,0,-1,902,1051,0,0
-315,-27,0,0,0,0,0,0,0,0,0,-1,909,1051,0,0
-308,-27,0,0,0,0,0,0,0,0,0,-1,916,1051,0,0
-301,-27,0,0,0,0,0,0,0,0,0,-1,923,1051,0,0
-294,-27,0,0,0,0,0,0,0,0,0,-1,930,1051,0,0
-287,-27,0,0,0,0,0,0,0,0,0,-1,937,1051,0,0
-280,-27,0,0,0,0,0,0,0,0,0,-1,944,1051,0,0
-273,-27,0,0,0,0,0,0,0,0,0,-1,951,1051,0,0
-266,-27,0,0,0,0,0,0,0,0,0,-1,958,1051,0,0
-259,-27,0,0,0,0,0,0,0,0,0,-1,965,1051,0,0
-252,-27,0,0,0,0,0,0,0,0,0,-1,972,1051,0,0
-245,-27,0,0,0,0,0,0,0,0,0,-1,979,1051,0,0
-238,-27,0,0,0,0,0,0,0,0,0,-1,986,1051,0,0
-231,-27,0,0,0,0,0,0,0,0,0,-1,993,1051,0,0
-224,-27,0,0,0,0,0,0,0,0,0,-1,1000,1051,0,0
-217,-27,0,0,0,0,0,0,0,0,0,-1,1007,1051,0,0
-210,-27,0,0,0,0,0,0,0,0,0,-1,1014,1051,0,0
-203,-27,0,0,0,0,0,0,0,0,0,-1,1021,1051,0,0
-196,-27,0,0,0,0,0,0,0,0,0,-1,1028,1051,0,0
-189,-27,0,0,0,0,0,0,0,0,0,-1,1035,1051,0,0
-182,-27,0,0,0,0,0,0,0,0,0,-1,1042,1051,0,0
-175,-27,0,0,0,0,0,0,0,0,0,-1,1049,1051,0,0
-168,-27,0,0,0,0,0,0,0,0,0,-1,1056,1051,0,0
-161,-27,0,0,0,0,0,0,0,0,0,-1,1063,1051,0,0
-154,-27,0,0,0,0,0,0,0,0,0,-1,1070,1051,0,0
-147,-27,0,0,0,0,0,0,0,0,0,-1,1077,1051,0,0
-140,-27,0,0,0,0,0,0,0,0,0,-1,1084,1051,0,0
-133,-27,0,0,0,0,0,0,0,0,0,-1,1091,1051,0,0
-126,-27,0,0,0,0,0,0,0,0,0,-1,1098,1051,0,0
-119,-27,0,0,0,0,0,0,0,0,0,-1,1105,1051,0,0
-112,-27,0,0,0,0,0,0,0,0,0,-1,1112,1051,0,0
-105,-27,0,0,0,0,0,0,0,0,0,-1,1119,1051,0,0
-98,-27,0,0,0,0,0,0,0,0,0,-1,1126,1051,0,0
-91,-27,0,0,0,0,0,0,0,0,0,-1,1133,1051,0,0
-84,-27,0,0,0,0,0,0,0,0,0,-1,1140,1051,0,0
-77,-27,0,0,0,0,0,0,0,0,0,-1,1147,1051,0,0
-70,-27,0,0,0,0,0,0,0,0,0,-1,1154,1051,0,0
-63,-27,0,0,0,0,0,0,0,0,0,-1,1161,1051,0,0
-56,-27,0,0,0,0,0,0,0,0,0,-1,1168,1051,0,0
-49,-27,0,0,0,0,0,0,0,0,0,-1,1175,1051,0,0
-42,-27,0,0,0,0,0,0,0,0,0,-1,1182,1051,0,0
-35,-27,0,0,0,0,0,0,0,0,0,-1,1189,1051,0,0
-28,-27,0,0,0,0,0,0,0,0,0,-1,1196,1051,0,0
-21,-27,0,0,0,0,0,0,0,0,0,-1,1203,1051,0,0
-14,-27,0,0,0,0,0,0,0,0,0,-1,1210,1051,0,0
-7,-27,0,0,0,0,0,0,0,0,0,-1,1217,1051,0,0
0,-27,0,0,0,0,0,0,0,0,0,-1,1224,1051,0,0
7,-27,0,0,0,0,0,0,0,0,0,-1,1231,1051,0,0
14,-27,0,0,0,0,0,0,0,0,0,-1,1238,1051,0,0
21,-27,0,0,0,0,0,0,0,0,0,-1,1245,1051,0,0
28,-27,0,0,0,0,0,0,0,0,0,-1,1252,1051,0,0
35,-27,0,0,0,0,0,0,0,0,0,-1,1259,1051,0,0
42,-27,0,0,0,0,0,0,0,0,0,-1,1266,1051,0,0
49,-27,0,0,0,0,0,0,0,0,0,-1,1273,1051,0,0
56,-27,0,0,0,0,0,0,0,0,0,-1,1280,1051,0,0
63,-27,0,0,0,0,0,0,0,0,0,-1,1287,1051,0,0
70,-27,0,0,0,0,0,0,0,0,0,-1,1294,1051,0,0
77,-27,0,0,0,0,0,0,0,0,0,-1,1301,1051,0,0
84,-27,0,0,0,0,0,0,0,0,0,-1,1308,1051,0,0
91,-27,0,0,0,0,0,0,0,0,0,-1,1315,1051,0,0
98,-27,0,0,0,0,0,0,0,0,0,-1,1322,1051,0,0
105,-27,0,0,0,0,0,0,0,0,0,-1,1329,1051,0,0
112,-27,0,0,0,0,0,0,0,0,0,-1,1336,1051,0,0
119,-27,0,0,0,0,0,0,0,0,0,-1,1343,1051,0,0
126,-27,0,0,0,0,0,0,0,0,0,-1,1350,1051,0,0
133,-27,0,0,0,0,0,0,0,0,0,-1,1357,1051,0,0
140,-27,0,0,0,0,0,0,0,0,0,-1,1364,1051,0,0
147,-27,0,0,0,0,0,0,0,0,0,-1,1371,1051,0,0
154,-27,0,0,0,0,0,0,0,0,0,-1,1378,1051,0,0
161,-27,0,0,0,0,0,0,0,0,0,-1,1385,1051,0,0
168,-27,0,0,0,0,0,0,0,0,0,-1,1392,1051,0,0
175,-27,0,0,0,0,0,0,0,0,0,-1,1399,1051,0,0
182,-27,0,0,0,0,0,0,0,0,0,-1,1406,1051,0,0
189,-27,0,0,0,0,0,0,0,0,0,-1,1413,1051,0,0
196,-27,0,0,0,0,0,0,0,0,0,-1,1420,1051,0,0
203,-27,0,0,0,0,0,0,0,0,0,-1,1427,1051,0,0
210,-27,0,0,0,0,0,0,0,0,0,-1,1434,1051,0,0
217,-27,0,0,0,0,0,0,0,0,0,-1,1441,1051,0,0
224,-27,0,0,0,0,0,0,0,0,0,-1,1448,1051,0,0
231,-27,0,0,0,0,0,0,0,0,0,-1,1455,1051,0,0
238,-27,0,0,0,0,0,0,0,0,0,-1,1462,1051,0,0
245,-27,0,0,0,0,0,0,0,0,0,-1,1469,1051,0,0
252,-27,0,0,0,0,0,0,0,0,0,-1,1476,1051,0,0
259,-27,0,0,0,0,0,0,0,0,0,-1,1483,1051,0,0
266,-27,0,0,0,0,0,0,0,0,0,-1,1490,1051,0,0
273,-27,0,0,0,0,0,0,0,0,0,-1,1497,1051,0,0
280,-27,0,0,0,0,0,0,0,0,0,-1,1504,1051,0,0
287,-27,0,0,0,0,0,0,0,0,0,-1,1511,1051,0,0
294,-27,0,0,0,0,0,0,0,0,0,-1,1518,1051,0,0
301,-27,0,0,0,0,0,0,0,0,0,-1,1525,1051,0,0
308,-27,0,0,0,0,0,0,0,0,0,-1,1532,1051,0,0
315,-27,0,0,0,0,0,0,0,0,0,-1,1539,1051,0,0
322,-27,0,0,0,0,0,0,0,0,0,-1,1546,1051,0,0
329,-27,0,0,0,0,0,0,0,0,0,-1,1553,1051,0,0
336,-27,0,0,0,0,0,0,0,0,0,-1,1560,1051,0,0
343,-27,0,0,0,0,0,0,0,0,0,-1,1567,1051,0,0
350,-27,0,0,0,0,0,0,0,0,0,-1,1574,1051,0,0
357,-27,0,0,0,0,0,0,0,0,0,-1,1581,1051,0,0
364,-27,0,0,0,0,0,0,0,0,0,-1,1588,1051,0,0
371,-27,0,0,0,0,0,0,0,0,0,-1,1595,1051,0,0
378,-27,0,0,0,0,0,0,0,0,0,-1,1602,1051,0,0
385,-27,0,0,0,0,0,0,0,0,0,-1,1609,1051,0,0
392,-27,0,0,0,0,0,0,0,0,0,-1,1616,1051,0,0
399,-27,0,0,0,0,0,0,0,0,0,-1,1623,1051,0,0
406,-27,0,0,0,0,0,0,0,0,0,-1,1630,1051,0,0
413,-27,0,0,0,0,0,0,0,0,0,-1,1637,1051,0,0
420,-27,0,0,0,0,0,0,0,0,0,-1,1644,1051,0,0
427,-27,0,0,0,0,0,0,0,0,0,-1,1651,1051,0,0
434,-27,0,0,0,0,0,0,0,0,0,-1,1658,1051,0,0
441,-27,0,0,0,0,0,0,0,0,0,-1,1665,1051,0,0
448,-27,0,0,0,0,0,0,0,0,0,-1,1672,1051,0,0
455,-27,0,0,0,0,0,0,0,0,0,-1,1679,1051,0,0
462,-27,0,0,0,0,0,0,0,0,0,-1,1686,1051,0,0
469,-27,0,0,0,0,0,0,0,0,0,-1,1693,1051,0,0
476,-27,0,0,0,0,0,0,0,0,0,-1,1700,1051,0,0
483,-27,0,0,0,0,0,0,0,0,0,-1,1707,1051,0,0
490,-27,0,0,0,0,0,0,0,0,0,-1,1714,1051,0,0
497,-27,0,0,0,0,0,0,0,0,0,-1,1721,1051,0,0
504,-27,0,0,0,0,0,0,0,0,0,-1,1728,1051,0,0
511,-27,0,0,0,0,0,0,0,0,0,-1,1735,1051,0,0
518,-27,0,0,0,0,0,0,0,0,0,-1,1742,1051,0,0
525,-27,0,0,0,0,0,0,0,0,0,-1,1749,1051,0,0
532,-27,0,0,0,0,0,0,0,0,0,-1,1756,1051,0,0
539,-27,0,0,0,0,0,0,0,0,0,-1,1763,1051,0,0
546,-27,0,0,0,0,0,0,0,0,0,-1,1770,1051,0,0
553,-27,0,0,0,0,0,0,0,0,0,-1,1777,1051,0,0
560,-27,0,0,0,0,0,0,0,0,0,-1,1784,1051,0,0
567,-27,0,0,0,0,0,0,0,0,0,-1,1791,1051,0,0
574,-27,0,0,0,0,0,0,0,0,0,-1,1798,1051,0,0
581,-27,0,0,0,0,0,0,0,0,0,-1,1805,1051,0,0
588,-27,0,0,0,0,0,0,0,0,0,-1,1812,1051,0,0
595,-27,0,0,0,0,0,0,0,0,0,-1,1819,1051,0,0
602,-27,0,0,0,0,0,0,0,0,0,-1,1826,1051,0,0
609,-27,0,0,0,0,0,0,0,0,0,-1,1833,1051,0,0
616,-27,0,0,0,0,0,0,0,0,0,-1,1840,1051,0,0
623,-27,0,0,0,0,0,0,0,0,0,-1,1847,1051,0,0
630,-27,0,0,0,0,0,0,0,0,0,-1,1854,1051,0,0
637,-27,0,0,0,0,0,0,0,0,0,-1,1861,1051,0,0
644,-27,0,0,0,0,0,0,0,0,0,-1,1868,1051,0,0
651,-27,159.307,4.95557,0,0,0,0,0,0,0,-1,1875,1051,159.307,-4.95562
658,-27,159.119,5.71985,0,0,0,0,0,0,0,-1,1882,1051,159.119,-5.71985
665,-27,159.068,5.53198,0,0,0,0,0,0,0,-1,1889,1051,159.068,-5.53198
672,-27,159.068,5.35925,0,0,0,0,0,0,0,-1,1896,1051,159.068,-5.35925
679,-27,159.046,5.33569,0,0,0,0,0,0,0,-1,1903,1051,159.046,-5.33572
686,-27,159.206,4.77783,0,0,0,0,0,0,0,-1,1910,1051,159.206,-4.77783
693,-27,159.281,5.18201,0,0,0,0,0,0,0,-1,1917,1051,159.281,-5.18195
700,-27,159.161,5.31677,0,0,0,0,0,0,0,-1,1924,1051,159.161,-5.31676
707,-27,159.032,5.32776,0,0,0,0,0,0,0,-1,1931,1051,159.032,-5.32773
714,-27,159.144,5.4563,0,0,0,0,0,0,0,-1,1938,1051,159.144,-5.45634
721,-27,158.977,5.64307,0,0,0,0,0,0,0,-1,1945,1051,158.977,-5.64302
728,-27,161.598,25.1847,0,0,0,0,0,0,0,-1,1952,1051,161.598,-25.1846
735,-27,161.459,25.0565,-0.00777506,-0.0065867,-0.00186149,-0.00522686,-0.00913491,-0.939885,0.00529233,0.0286971,1959,1051,161.459,-25.0566
742,-27,161.348,24.9144,-0.0116706,0.000385527,-0.00115018,0.000494277,-0.0117793,-1.47653,0.00802273,0.0265031,1966,1051,161.348,-24.9145
749,-27,161.272,24.6836,-0.0153737,0.00735187,-0.0005161,0.00736359,-0.0153854,-1.5481,0.0134036,0.0217455,1973,1051,161.272,-24.6836
756,-27,161.186,24.6368,-0.0188075,0.0142534,1.82072e-05,0.0142534,-0.0188075,1.57025,0.019148,0.0220236,1980,1051,161.186,-24.6368
763,-27,161.011,24.6134,-0.0218917,0.0210272,0.000432585,0.0210315,-0.021896,1.56072,0.0247859,0.0197366,1987,1051,161.011,-24.6134
770,-27,160.859,24.5549,-0.0245428,0.0276069,0.000709199,0.0276166,-0.0245524,1.5572,0.0301371,0.0192816,1994,1051,160.859,-24.5549
777,-27,160.646,24.6461,-0.0266751,0.033923,0.000832528,0.0339344,-0.0266865,1.55706,0.0350828,0.0262447,2001,1051,160.646,-24.6461
784,-27,160.499,24.8301,-0.0282012,0.0399029,0.000789451,0.039912,-0.0282103,1.55921,0.0395234,0.0392043,2008,1051,160.499,-24.83
791,-27,160.71,24.3005,0,0,0,0,0,0,0,-1,2015,1051,160.71,-24.3005
798,-27,148.048,15.4778,0,0,0,0,0,0,0,-1,2022,1051,148.048,-15.4778
805,-27,149.532,12.9192,0,0,0,0,0,0,0,-1,2029,1051,149.532,-12.9192
812,-27,122.348,7.61328,0,0,0,0,0,0,0,-1,2036,1051,122.348,-7.61324
-700,-34,-88.641,10.5408,0,0,0,0,0,0,0,-1,524,1058,-88.641,-10.5407
-693,-34,-89.3244,10.6776,0,0,0,0,0,0,0,-1,531,1058,-89.3244,-10.6776
-686,-34,-89.9775,10.8049,0,0,0,0,0,0,0,-1,538,1058,-89.9775,-10.805
-679,-34,-90.4781,10.9393,0,0,0,0,0,0,0,-1,545,1058,-90.4781,-10.9394
-672,-34,-102.759,13.5153,0,0,0,0,0,0,0,-1,552,1058,-102.759,-13.5153
-665,-34,-107.765,15.0314,0,0,0,0,0,0,0,-1,559,1058,-107.765,-15.0314
-658,-34,-151.059,24.51,0,0,0,0,0,0,0,-1,566,1058,-151.059,-24.51
-651,-34,-151.472,24.6246,0,0,0,0,0,0,0,-1,573,1058,-151.472,-24.6246
-644,-34,-151.767,24.7518,-0.018419,0.039107,0.000367399,0.0391094,-0.0184214,1.56441,0.0339237,0.0196932,580,1058,-151.767,-24.7518
-637,-34,-151.828,24.9186,-0.013623,0.0299961,-6.5184e-05,0.0299962,-0.0136231,-1.5693,0.0257682,0.0174333,587,1058,-151.828,-24.9186
-630,-34,-151.845,25.0745,-0.00896788,0.0209428,-0.000704753,0.0209594,-0.00898448,-1.54725,0.0177429,0.019394,594,1058,-151.845,-25.0745
-623,-34,-151.879,25.15,-0.00443834,0.0119391,-0.00154166,0.012083,-0.0045822,-1.47775,0.0099412,0.0186096,601,1058,-151.879,-25.15
-616,-34,-151.764,25.3171,-1.84296e-05,0.00297756,-0.00256686,0.00445156,-0.00149243,-1.04953,0.00357071,0.0272327,608,1058,-151.764,-25.3171
-609,-34,-151.747,25.4287,0.00430831,-0.00594874,-0.00377187,0.00554601,-0.00718643,-0.317068,0.00737139,0.0229619,615,1058,-151.747,-25.4287
-602,-34,-151.86,25.5134,0.00855857,-0.0148454,-0.0051487,0.00964117,-0.015928,-0.207247,0.0149104,0.0178898,622,1058,-151.86,-25.5134
-595,-34,-151.741,25.5083,0.012749,-0.0237166,-0.00668954,0.0139375,-0.024905,-0.175823,0.0227218,0.043389,629,1058,-151.741,-25.5083
-588,-34,-151.455,25.4917,0,0,0,0,0,0,0,-1,636,1058,-151.455,-25.4917
-581,-34,-72.1434,0.436035,0,0,0,0,0,0,0,-1,643,1058,-72.1434,-0.436062
-574,-34,-72.0847,0.55542,0,0,0,0,0,0,0,-1,650,1058,-72.0847,-0.555444
-567,-34,-72.0326,0.461548,0,0,0,0,0,0,0,-1,657,1058,-72.0326,-0.461549
-560,-34,-71.9365,0.331909,0,0,0,0,0,0,0,-1,664,1058,-71.9365,-0.331852
-553,-34,-72.034,0.347778,0,0,0,0,0,0,0,-1,671,1058,-72.034,-0.347718
-546,-34,-72.1083,0.333984,0,0,0,0,0,0,0,-1,678,1058,-72.1083,-0.334014
-539,-34,-72.1866,0.363037,0,0,0,0,0,0,0,-1,685,1058,-72.1866,-0.363007
-532,-34,-72.3097,0.421509,0,0,0,0,0,0,0,-1,692,1058,-72.3097,-0.421536
-525,-34,0,0,0,0,0,0,0,0,0,-1,699,1058,0,0
-518,-34,0,0,0,0,0,0,0,0,0,-1,706,1058,0,0
-511,-34,0,0,0,0,0,0,0,0,0,-1,713,1058,0,0
-504,-34,0,0,0,0,0,0,0,0,0,-1,720,1058,0,0
-497,-34,0,0,0,0,0,0,0,0,0,-1,727,1058,0,0
-490,-34,0,0,0,0,0,0,0,0,0,-1,734,1058,0,0
-483,-34,0,0,0,0,0,0,0,0,0,-1,741,1058,0,0
-476,-34,0,0,0,0,0,0,0,0,0,-1,748,1058,0,0
-469,-34,0,0,0,0,0,0,0,0,0,-1,755,1058,0,0
-462,-34,0,0,0,0,0,0,0,0,0,-1,762,1058,0,0
-455,-34,0,0,0,0,0,0,0,0,0,-1,769,1058,0,0
-448,-34,0,0,0,0,0,0,0,0,0,-1,776,1058,0,0
-441,-34,0,0,0,0,0,0,0,0,0,-1,783,1058,0,0
-434,-34,0,0,0,0,0,0,0,0,0,-1,790,1058,0,0
-427,-34,0,0,0,0,0,0,0,0,0,-1,797,1058,0,0
-420,-34,0,0,0,0,0,0,0,0,0,-1,804,1058,0,0
-413,-34,0,0,0,0,0,0,0,0,0,-1,811,1058,0,0
-406,-34,0,0,0,0,0,0,0,0,0,-1,818,1058,0,0
-399,-34,0,0,0,0,0,0,0,0,0,-1,825,1058,0,0
-392,-34,0,0,0,0,0,0,0,0,0,-1,832,1058,0,0
-385,-34,0,0,0,0,0,0,0,0,0,-1,839,1058,0,0
-378,-34,0,0,0,0,0,0,0,0,0,-1,846,1058,0,0
-371,-34,0,0,0,0,0,0,0,0,0,-1,853,1058,0,0
-364,-34,0,0,0,0,0,0,0,0,0,-1,860,1058,0,0
-357,-34,0,0,0,0,0,0,0,0,0,-1,867,1058,0,0
-350,-34,0,0,0,0,0,0,0,0,0,-1,874,1058,0,0
-343,-34,0,0,0,0,0,0,0,0,0,-1,881,1058,0,0
-336,-34,0,0,0,0,0,0,0,0,0,-1,888,1058,0,0
-329,-34,0,0,0,0,0,0,0,0,0,-1,895,1058,0,0
-322,-34,0,0,0,0,0,0,0,0,0,-1,902,1058,0,0
-315,-34,0,0,0,0,0,0,0,0,0,-1,909,1058,0,0
-308,-34,0,0,0,0,0,0,0,0,0,-1,916,1058,0,0
-301,-34,0,0,0,0,0,0,0,0,0,-1,923,1058,0,0
-294,-34,0,0,0,0,0,0,0,0,0,-1,930,1058,0,0
-287,-34,0,0,0,0,0,0,0,0,0,-1,937,1058,0,0
-280,-34,0,0,0,0,0,0,0,0,0,-1,944,1058,0,0
-273,-34,0,0,0,0,0,0,0,0,0,-1,951,1058,0,0
-266,-34,0,0,0,0,0,0,0,0,0,-1,958,1058,0,0
-259,-34,0,0,0,0,0,0,0,0,0,-1,965,1058,0,0
-252,-34,0,0,0,0,0,0,0,0,0,-1,972,1058,0,0
-245,-34,0,0,0,0,0,0,0,0,0,-1,979,1058,0,0
-238,-34,0,0,0,0,0,0,0,0,0,-1,986,1058,0,0
-231,-34,0,0,0,0,0,0,0,0,0,-1,993,1058,0,0
-224,-34,0,0,0,0,0,0,0,0,0,-1,1000,1058,0,0
-217,-34,0,0,0,0,0,0,0,0,0,-1,1007,1058,0,0
-210,-34,0,0,0,0,0,0,0,0,0,-1,1014,1058,0,0
-203,-34,0,0,0,0,0,0,0,0,0,-1,1021,1058,0,0
-196,-34,0,0,0,0,0,0,0,0,0,-1,1028,1058,0,0
-189,-34,0,0,0,0,0,0,0,0,0,-1,1035,1058,0,0
-182,-34,0,0,0,0,0,0,0,0,0,-1,1042,1058,0,0
-175,-34,0,0,0,0,0,0,0,0,0,-1,1049,1058,0,0
-168,-34,0,0,0,0,0,0,0,0,0,-1,1056,1058,0,0
-161,-34,0,0,0,0,0,0,0,0,0,-1,1063,1058,0,0
-154,-34,0,0,0,0,0,0,0,0,0,-1,1070,1058,0,0
-147,-34,0,0,0,0,0,0,0,0,0,-1,1077,1058,0,0
-140,-34,0,0,0,0,0,0,0,0,0,-1,1084,1058,0,0
-133,-34,0,0,0,0,0,0,0,0,0,-1,1091,1058,0,0
-126,-34,0,0,0,0,0,0,0,0,0,-1,1098,1058,0,0
-119,-34,0,0,0,0,0,0,0,0,0,-1,1105,1058,0,0
-112,-34,0,0,0,0,0,0,0,0,0,-1,1112,1058,0,0
-105,-34,0,0,0,0,0,0,0,0,0,-1,1119,1058,0,0
-98,-34,0,0,0,0,0,0,0,0,0,-1,1126,1058,0,0
-91,-34,0,0,0,0,0,0,0,0,0,-1,1133,1058,0,0
-84,-34,0,0,0,0,0,0,0,0,0,-1,1140,1058,0,0
-77,-34,0,0,0,0,0,0,0,0,0,-1,1147,1058,0,0
-70,-34,0,0,0,0,0,0,0,0,0,-1,1154,1058,0,0
-63,-34,0,0,0,0,0,0,0,0,0,-1,1161,1058,0,0
-56,-34,0,0,0,0,0,0,0,0,0,-1,1168,1058,0,0
-49,-34,0,0,0,0,0,0,0,0,0,-1,1175,1058,0,0
-42,-34,0,0,0,0,0,0,0,0,0,-1,1182,1058,0,0
-35,-34,0,0,0,0,0,0,0,0,0,-1,1189,1058,0,0
-28,-34,0,0,0,0,0,0,0,0,0,-1,1196,1058,0,0
-21,-34,0,0,0,0,0,0,0,0,0,-1,1203,1058,0,0
-14,-34,0,0,0,0,0,0,0,0,0,-1,1210,1058,0,0
-7,-34,0,0,0,0,0,0,0,0,0,-1,1217,1058,0,0
0,-34,0,0,0,0,0,0,0,0,0,-1,1224,1058,0,0
7,-34,0,0,0,0,0,0,0,0,0,-1,1231,1058,0,0
14,-34,0,0,0,0,0,0,0,0,0,-1,1238,1058,0,0
21,-34,0,0,0,0,0,0,0,0,0,-1,1245,1058,0,0
28,-34,0,0,0,0,0,0,0,0,0,-1,1252,1058,0,0
35,-34,0,0,0,0,0,0,0,0,0,-1,1259,1058,0,0
42,-34,0,0,0,0,0,0,0,0,0,-1,1266,1058,0,0
49,-34,0,0,0,0,0,0,0,0,0,-1,1273,1058,0,0
56,-34,0,0,0,0,0,0,0,0,0,-1,1280,1058,0,0
63,-34,0,0,0,0,0,0,0,0,0,-1,1287,1058,0,0
70,-34,0,0,0,0,0,0,0,0,0,-1,1294,1058,0,0
77,-34,0,0,0,0,0,0,0,0,0,-1,1301,1058,0,0
84,-34,0,0,0,0,0,0,0,0,0,-1,1308,1058,0,0
91,-34,0,0,0,0,0,0,0,0,0,-1,1315,1058,0,0
98,-34,0,0,0,0,0,0,0,0,0,-1,1322,1058,0,0
105,-34,0,0,0,0,0,0,0,0,0,-1,1329,1058,0,0
112,-34,0,0,0,0,0,0,0,0,0,-1,1336,1058,0,0
119,-34,0,0,0,0,0,0,0,0,0,-1,1343,1058,0,0
126,-34,0,0,0,0,0,0,0,0,0,-1,1350,1058,0,0
133,-34,0,0,0,0,0,0,0,0,0,-1,1357,1058,0,0
140,-34,0,0,0,0,0,0,0,0,0,-1,1364,1058,0,0
147,-34,0,0,0,0,0,0,0,0,0,-1,1371,1058,0,0
154,-34,0,0,0,0,0,0,0,0,0,-1,1378,1058,0,0
161,-34,0,0,0,0,0,0,0,0,0,-1,1385,1058,0,0
168,-34,0,0,0,0,0,0,0,0,0,-1,1392,1058,0,0
175,-34,0,0,0,0,0,0,0,0,0,-1,1399,1058,0,0
182,-34,0,0,0,0,0,0,0,0,0,-1,1406,1058,0,0
189,-34,0,0,0,0,0,0,0,0,0,-1,1413,1058,0,0
196,-34,0,0,0,0,0,0,0,0,0,-1,1420,1058,0,0
203,-34,0,0,0,0,0,0,0,0,0,-1,1427,1058,0,0
210,-34,0,0,0,0,0,0,0,0,0,-1,1434,1058,0,0
217,-34,0,0,0,0,0,0,0,0,0,-1,1441,1058,0,0
224,-34,0,0,0,0,0,0,0,0,0,-1,1448,1058,0,0
231,-34,0,0,0,0,0,0,0,0,0,-1,1455,1058,0,0
238,-34,0,0,0,0,0,0,0,0,0,-1,1462,1058,0,0
245,-34,0,0,0,0,0,0,0,0,0,-1,1469,1058,0,0
252,-34,0,0,0,0,0,0,0,0,0,-1,1476,1058,0,0
259,-34,0,0,0,0,0,0,0,0,0,-1,1483,1058,0,0
266,-34,0,0,0,0,0,0,0,0,0,-1,1490,1058,0,0
273,-34,0,0,0,0,0,0,0,0,0,-1,1497,1058,0,0
280,-34,0,0,0,0,0,0,0,0,0,-1,1504,1058,0,0
287,-34,0,0,0,0,0,0,0,0,0,-1,1511,1058,0,0
294,-34,0,0,0,0,0,0,0,0,0,-1,1518,1058,0,0
301,-34,0,0,0,0,0,0,0,0,0,-1,1525,1058,0,0
308,-34,0,0,0,0,0,0,0,0,0,-1,1532,1058,0,0
315,-34,0,0,0,0,0,0,0,0,0,-1,1539,1058,0,0
322,-34,0,0,0,0,0,0,0,0,0,-1,1546,1058,0,0
329,-34,0,0,0,0,0,0,0,0,0,-1,1553,1058,0,0
336,-34,0,0,0,0,0,0,0,0,0,-1,1560,1058,0,0
343,-34,0,0,0,0,0,0,0,0,0,-1,1567,1058,0,0
350,-34,0,0,0,0,0,0,0,0,0,-1,1574,1058,0,0
357,-34,0,0,0,0,0,0,0,0,0,-1,1581,1058,0,0
364,-34,0,0,0,0,0,0,0,0,0,-1,1588,1058,0,0
371,-34,0,0,0,0,0,0,0,0,0,-1,1595,1058,0,0
378,-34,0,0,0,0,0,0,0,0,0,-1,1602,1058,0,0
385,-34,0,0,0,0,0,0,0,0,0,-1,1609,1058,0,0
392,-34,0,0,0,0,0,0,0,0,0,-1,1616,1058,0,0
399,-34,0,0,0,0,0,0,0,0,0,-1,1623,1058,0,0
406,-34,0,0,0,0,0,0,0,0,0,-1,1630,1058,0,0
413,-34,0,0,0,0,0,0,0,0,0,-1,1637,1058,0,0
420,-34,0,0,0,0,0,0,0,0,0,-1,1644,1058,0,0
427,-34,0,0,0,0,0,0,0,0,0,-1,1651,1058,0,0
434,-34,0,0,0,0,0,0,0,0,0,-1,1658,1058,0,0
441,-34,0,0,0,0,0,0,0,0,0,-1,1665,1058,0,0
448,-34,0,0,0,0,0,0,0,0,0,-1,1672,1058,0,0
455,-34,0,0,0,0,0,0,0,0,0,-1,1679,1058,0,0
462,-34,0,0,0,0,0,0,0,0,0,-1,1686,1058,0,0
469,-34,0,0,0,0,0,0,0,0,0,-1,1693,1058,0,0
476,-34,0,0,0,0,0,0,0,0,0,-1,1700,1058,0,0
483,-34,0,0,0,0,0,0,0,0,0,-1,1707,1058,0,0
490,-34,0,0,0,0,0,0,0,0,0,-1,1714,1058,0,0
497,-34,0,0,0,0,0,0,0,0,0,-1,1721,1058,0,0
504,-34,0,0,0,0,0,0,0,0,0,-1,1728,1058,0,0
511,-34,0,0,0,0,0,0,0,0,0,-1,1735,1058,0,0
518,-34,0,0,0,0,0,0,0,0,0,-1,1742,1058,0,0
525,-34,0,0,0,0,0,0,0,0,0,-1,1749,1058,0,0
532,-34,0,0,0,0,0,0,0,0,0,-1,1756,1058,0,0
539,-34,0,0,0,0,0,0,0,0,0,-1,1763,1058,0,0
546,-34,0,0,0,0,0,0,0,0,0,-1,1770,1058,0,0
553,-34,0,0,0,0,0,0,0,0,0,-1,1777,1058,0,0
560,-34,0,0,0,0,0,0,0,0,0,-1,1784,1058,0,0
567,-34,0,0,0,0,0,0,0,0,0,-1,1791,1058,0,0
574,-34,0,0,0,0,0,0,0,0,0,-1,1798,1058,0,0
581,-34,0,0,0,0,0,0,0,0,0,-1,1805,1058,0,0
588,-34,0,0,0,0,0,0,0,0,0,-1,1812,1058,0,0
595,-34,0,0,0,0,0,0,0,0,0,-1,1819,1058,0,0
602,-34,0,0,0,0,0,0,0,0,0,-1,1826,1058,0,0
609,-34,0,0,0,0,0,0,0,0,0,-1,1833,1058,0,0
616,-34,0,0,0,0,0,0,0,0,0,-1,1840,1058,0,0
623,-34,0,0,0,0,0,0,0,0,0,-1,1847,1058,0,0
630,-34,0,0,0,0,0,0,0,0,0,-1,1854,1058,0,0
637,-34,0,0,0,0,0,0,0,0,0,-1,1861,1058,0,0
644,-34,0,0,0,0,0,0,0,0,0,-1,1868,1058,0,0
651,-34,159.191,5.05188,0,0,0,0,0,0,0,-1,1875,1058,159.191,-5.05192
658,-34,159.115,5.63953,0,0,0,0,0,0,0,-1,1882,1058,159.115,-5.63951
665,-34,159.08,5.65637,0,0,0,0,0,0,0,-1,1889,1058,159.08,-5.65638
672,-34,159.057,5.552,0,0,0,0,0,0,0,-1,1896,1058,159.057,-5.55201
679,-34,159.157,5.36475,0,0,0,0,0,0,0,-1,1903,1058,159.158,-5.36478
686,-34,159.191,5.3385,0,0,0,0,0,0,0,-1,1910,1058,159.191,-5.33847
693,-34,158.972,5.30713,0,0,0,0,0,0,0,-1,1917,1058,158.972,-5.30707
700,-34,159.014,5.22693,0,0,0,0,0,0,0,-1,1924,1058,159.014,-5.22695
707,-34,159.004,5.3103,0,0,0,0,0,0,0,-1,1931,1058,159.004,-5.31028
714,-34,159.036,5.48193,0,0,0,0,0,0,0,-1,1938,1058,159.036,-5.48192
721,-34,158.966,5.65247,0,0,0,0,0,0,0,-1,1945,1058,158.966,-5.65248
728,-34,161.327,25.1465,0,0,0,0,0,0,0,-1,1952,1058,161.327,-25.1465
735,-34,161.356,24.9939,-0.00710666,-0.00684651,-0.000747955,-0.0062174,-0.00773577,-0.871494,0.00473295,0.0236173,1959,1058,161.356,-24.9938
742,-34,161.327,24.7957,-0.010953,-6.669e-05,-0.000141857,-6.48419e-05,-0.0109549,-1.55777,0.00728175,0.0272511,1966,1058,161.327,-24.7956
749,-34,161.207,24.6569,-0.0146327,0.00674356,0.000402231,0.00675113,-0.0146402,1.55199,0.0126272,0.0249204,1973,1058,161.207,-24.6568
756,-34,161.091,24.5316,-0.0180681,0.0135208,0.000868385,0.0135446,-0.0180919,1.54333,0.0183282,0.0172753,1980,1058,161.091,-24.5316
763,-34,160.922,24.4532,-0.0211773,0.020199,0.00124133,0.0202362,-0.0212145,1.54083,0.0239338,0.0156605,1987,1058,160.922,-24.4532
770,-34,160.701,24.3888,-0.0238746,0.0267104,0.00150608,0.0267552,-0.0239194,1.54106,0.0292722,0.0207809,1994,1058,160.701,-24.3888
777,-34,160.429,24.3971,-0.0260711,0.0329853,0.00164782,0.0330312,-0.026117,1.54292,0.0342269,0.0265144,2001,1058,160.429,-24.3971
784,-34,160.125,24.3534,0,0,0,0,0,0,0,-1,2008,1058,160.126,-24.3534
791,-34,159.261,24.1865,0,0,0,0,0,0,0,-1,2015,1058,159.261,-24.1865
798,-34,121.588,12.5922,0,0,0,0,0,0,0,-1,2022,1058,121.588,-12.5921
805,-34,125.464,13.6713,0,0,0,0,0,0,0,-1,2029,1058,125.464,-13.6713
812,-34,120.777,11.1539,0,0,0,0,0,0,0,-1,2036,1058,120.777,-11.154
-700,-41,-89.518,-1.90662,0,0,0,0,0,0,0,-1,524,1065,-89.5181,1.90658
-693,-41,-89.1671,9.85364,0,0,0,0,0,0,0,-1,531,1065,-89.167,-9.85359
-686,-41,-89.8336,9.96179,0,0,0,0,0,0,0,-1,538,1065,-89.8336,-9.96181
-679,-41,-89.9981,10.0525,0,0,0,0,0,0,0,-1,545,1065,-89.9981,-10.0525
-672,-41,-87.9003,9.43982,0,0,0,0,0,0,0,-1,552,1065,-87.9003,-9.43984
-665,-41,-100.841,12.2817,0,0,0,0,0,0,0,-1,559,1065,-100.841,-12.2818
-658,-41,-150.364,23.9476,0,0,0,0,0,0,0,-1,566,1065,-150.364,-23.9477
-651,-41,-151.648,24.2909,0,0,0,0,0,0,0,-1,573,1065,-151.648,-24.2909
-644,-41,-151.603,24.5328,-0.0190498,0.0386992,0.000474866,0.0387031,-0.0190537,1.56257,0.0339831,0.0210418,580,1065,-151.603,-24.5328
-637,-41,-151.705,24.7207,-0.0139159,0.0296527,2.67879e-05,0.0296527,-0.0139159,1.57018,0.0256955,0.0199527,587,1065,-151.705,-24.7207
-630,-41,-151.719,24.9193,-0.00892736,0.0206719,-0.000596435,0.0206839,-0.00893938,-1.55066,0.0175454,0.0183303,594,1065,-151.719,-24.9193
-623,-41,-151.718,25.0957,-0.00406138,0.0117477,-0.00138778,0.0118686,-0.00418228,-1.4839,0.00961463,0.0164358,601,1065,-151.718,-25.0957
-616,-41,-151.738,25.3075,0.000706016,0.00287082,-0.00234095,0.00436749,-0.000790659,-1.00195,0.00320786,0.0222673,608,1065,-151.738,-25.3075
-609,-41,-151.69,25.509,0.00539955,-0.00596722,-0.00345039,0.00636493,-0.0069326,-0.272813,0.00767966,0.0260933,615,1065,-151.69,-25.509
-602,-41,-151.666,25.6208,0.0100444,-0.0147741,-0.00471119,0.0109086,-0.0156383,-0.181422,0.0154077,0.0170033,622,1065,-151.666,-25.6209
-595,-41,-151.758,25.6509,0.0146657,-0.023556,-0.00611874,0.0156213,-0.0245117,-0.154929,0.0233595,0.0347873,629,1065,-151.758,-25.6509
-588,-41,-152.107,25.5543,0,0,0,0,0,0,0,-1,636,1065,-152.107,-25.5543
-581,-41,-72.1207,0.19458,0,0,0,0,0,0,0,-1,643,1065,-72.1207,-0.194633
-574,-41,-72.1909,0.302856,0,0,0,0,0,0,0,-1,650,1065,-72.1909,-0.302903
-567,-41,-72.1972,0.48999,0,0,0,0,0,0,0,-1,657,1065,-72.1972,-0.490016
-560,-41,-72.1502,0.519897,0,0,0,0,0,0,0,-1,664,1065,-72.1502,-0.519944
-553,-41,-72.0277,0.413452,0,0,0,0,0,0,0,-1,671,1065,-72.0277,-0.413458
-546,-41,-72.038,0.488159,0,0,0,0,0,0,0,-1,678,1065,-72.038,-0.488107
-539,-41,-72.1121,0.595093,0,0,0,0,0,0,0,-1,685,1065,-72.112,-0.595043
-532,-41,-72.0419,0.654419,0,0,0,0,0,0,0,-1,692,1065,-72.0419,-0.654407
-525,-41,0,0,0,0,0,0,0,0,0,-1,699,1065,0,0
-518,-41,0,0,0,0,0,0,0,0,0,-1,706,1065,0,0
-511,-41,0,0,0,0,0,0,0,0,0,-1,713,1065,0,0
-504,-41,0,0,0,0,0,0,0,0,0,-1,720,1065,0,0
-497,-41,0,0,0,0,0,0,0,0,0,-1,727,1065,0,0
-490,-41,0,0,0,0,0,0,0,0,0,-1,734,1065,0,0
-483,-41,0,0,0,0,0,0,0,0,0,-1,741,1065,0,0
-476,-41,0,0,0,0,0,0,0,0,0,-1,748,1065,0,0
-469,-41,0,0,0,0,0,0,0,0,0,-1,755,1065,0,0
-462,-41,0,0,0,0,0,0,0,0,0,-1,762,1065,0,0
-455,-41,0,0,0,0,0,0,0,0,0,-1,769,1065,0,0
-448,-41,0,0,0,0,0,0,0,0,0,-1,776,1065,0,0
-441,-41,0,0,0,0,0,0,0,0,0,-1,783,1065,0,0
-434,-41,0,0,0,0,0,0,0,0,0,-1,790,1065,0,0
-427,-41,0,0,0,0,0,0,0,0,0,-1,797,1065,0,0
-420,-41,0,0,0,0,0,0,0,0,0,-1,804,1065,0,0
-413,-41,0,0,0,0,0,0,0,0,0,-1,811,1065,0,0
-406,-41,0,0,0,0,0,0,0,0,0,-1,818,1065,0,0
-399,-41,0,0,0,0,0,0,0,0,0,-1,825,1065,0,0
-392,-41,0,0,0,0,0,0,0,0,0,-1,832,1065,0,0
-385,-41,0,0,0,0,0,0,0,0,0,-1,839,1065,0,0
-378,-41,0,0,0,0,0,0,0,0,0,-1,846,1065,0,0
-371,-41,0,0,0,0,0,0,0,0,0,-1,853,1065,0,0
-364,-41,0,0,0,0,0,0,0,0,0,-1,860,1065,0,0
-357,-41,0,0,0,0,0,0,0,0,0,-1,867,1065,0,0
-350,-41,0,0,0,0,0,0,0,0,0,-1,874,1065,0,0
-343,-41,0,0,0,0,0,0,0,0,0,-1,881,1065,0,0
-336,-41,0,0,0,0,0,0,0,0,0,-1,888,1065,0,0
-329,-41,0,0,0,0,0,0,0,0,0,-1,895,1065,0,0
-322,-41,0,0,0,0,0,0,0,0,0,-1,902,1065,0,0
-315,-41,0,0,0,0,0,0,0,0,0,-1,909,1065,0,0
-308,-41,0,0,0,0,0,0,0,0,0,-1,916,1065,0,0
-301,-41,0,0,0,0,0,0,0,0,0,-1,923,1065,0,0
-294,-41,0,0,0,0,0,0,0,0,0,-1,930,1065,0,0
-287,-41,0,0,0,0,0,0,0,0,0,-1,937,1065,0,0
-280,-41,0,0,0,0,0,0,0,0,0,-1,944,1065,0,0
-273,-41,0,0,0,0,0,0,0,0,0,-1,951,1065,0,0
-266,-41,0,0,0,0,0,0,0,0,0,-1,958,1065,0,0
-259,-41,0,0,0,0,0,0,0,0,0,-1,965,1065,0,0
-252,-41,0,0,0,0,0,0,0,0,0,-1,972,1065,0,0
-245,-41,0,0,0,0,0,0,0,0,0,-1,979,1065,0,0
-238,-41,0,0,0,0,0,0,0,0,0,-1,986,1065,0,0
-231,-41,0,0,0,0,0,0,0,0,0,-1,993,1065,0,0
-224,-41,0,0,0,0,0,0,0,0,0,-1,1000,1065,0,0
-217,-41,0,0,0,0,0,0,0,0,0,-1,1007,1065,0,0
-210,-41,0,0,0,0,0,0,0,0,0,-1,1014,1065,0,0
-203,-41,0,0,0,0,0,0,0,0,0,-1,1021,1065,0,0
-196,-41,0,0,0,0,0,0,0,0,0,-1,1028,1065,0,0
-189,-41,0,0,0,0,0,0,0,0,0,-1,1035,1065,0,0
-182,-41,0,0,0,0,0,0,0,0,0,-1,1042,1065,0,0
-175,-41,0,0,0,0,0,0,0,0,0,-1,1049,1065,0,0
-168,-41,0,0,0,0,0,0,0,0,0,-1,1056,1065,0,0
-161,-41,0,0,0,0,0,0,0,0,0,-1,1063,1065,0,0
-154,-41,0,0,0,0,0,0,0,0,0,-1,1070,1065,0,0
-147,-41,0,0,0,0,0,0,0,0,0,-1,1077,1065,0,0
-140,-41,0,0,0,0,0,0,0,0,0,-1,1084,1065,0,0
-133,-41,0,0,0,0,0,0,0,0,0,-1,1091,1065,0,0
-126,-41,0,0,0,0,0,0,0,0,0,-1,1098,1065,0,0
-119,-41,0,0,0,0,0,0,0,0,0,-1,1105,1065,0,0
-112,-41,0,0,0,0,0,0,0,0,0,-1,1112,1065,0,0
-105,-41,0,0,0,0,0,0,0,0,0,-1,1119,1065,0,0
-98,-41,0,0,0,0,0,0,0,0,0,-1,1126,1065,0,0
-91,-41,0,0,0,0,0,0,0,0,0,-1,1133,1065,0,0
-84,-41,0,0,0,0,0,0,0,0,0,-1,1140,1065,0,0
-77,-41,0,0,0,0,0,0,0,0,0,-1,1147,1065,0,0
-70,-41,0,0,0,0,0,0,0,0,0,-1,1154,1065,0,0
-63,-41,0,0,0,0,0,0,0,0,0,-1,1161,1065,0,0
-56,-41,0,0,0,0,0,0,0,0,0,-1,1168,1065,0,0
-49,-41,0,0,0,0,0,0,0,0,0,-1,1175,1065,0,0
-42,-41,0,0,0,0,0,0,0,0,0,-1,1182,1065,0,0
-35,-41,0,0,0,0,0,0,0,0,0,-1,1189,1065,0,0
-28,-41,0,0,0,0,0,0,0,0,0,-1,1196,1065,0,0
-21,-41,0,0,0,0,0,0,0,0,0,-1,1203,1065,0,0
-14,-41,0,0,0,0,0,0,0,0,0,-1,1210,1065,0,0
-7,-41,0,0,0,0,0,0,0,0,0,-1,1217,1065,0,0
0,-41,0,0,0,0,0,0,0,0,0,-1,1224,1065,0,0
7,-41,0,0,0,0,0,0,0,0,0,-1,1231,1065,0,0
14,-41,0,0,0,0,0,0,0,0,0,-1,1238,1065,0,0
21,-41,0,0,0,0,0,0,0,0,0,-1,1245,1065,0,0
28,-41,0,0,0,0,0,0,0,0,0,-1,1252,1065,0,0
35,-41,0,0,0,0,0,0,0,0,0,-1,1259,1065,0,0
42,-41,0,0,0,0,0,0,0,0,0,-1,1266,1065,0,0
49,-41,0,0,0,0,0,0,0,0,0,-1,1273,1065,0,0
56,-41,0,0,0,0,0,0,0,0,0,-1,1280,1065,0,0
63,-41,0,0,0,0,0,0,0,0,0,-1,1287,1065,0,0
70,-41,0,0,0,0,0,0,0,0,0,-1,1294,1065,0,0
77,-41,0,0,0,0,0,0,0,0,0,-1,1301,1065,0,0
84,-41,0,0,0,0,0,0,0,0,0,-1,1308,1065,0,0
91,-41,0,0,0,0,0,0,0,0,0,-1,1315,1065,0,0
98,-41,0,0,0,0,0,0,0,0,0,-1,1322,1065,0,0
105,-41,0,0,0,0,0,0,0,0,0,-1,1329,1065,0,0
112,-41,0,0,0,0,0,0,0,0,0,-1,1336,1065,0,0
119,-41,0,0,0,0,0,0,0,0,0,-1,1343,1065,0,0
126,-41,0,0,0,0,0,0,0,0,0,-1,1350,1065,0,0
133,-41,0,0,0,0,0,0,0,0,0,-1,1357,1065,0,0
140,-41,0,0,0,0,0,0,0,0,0,-1,1364,1065,0,0
147,-41,0,0,0,0,0,0,0,0,0,-1,1371,1065,0,0
154,-41,0,0,0,0,0,0,0,0,0,-1,1378,1065,0,0
161,-41,0,0,0,0,0,0,0,0,0,-1,1385,1065,0,0
168,-41,0,0,0,0,0,0,0,0,0,-1,1392,1065,0,0
175,-41,0,0,0,0,0,0,0,0,0,-1,1399,1065,0,0
182,-41,0,0,0,0,0,0,0,0,0,-1,1406,1065,0,0
189,-41,0,0,0,0,0,0,0,0,0,-1,1413,1065,0,0
196,-41,0,0,0,0,0,0,0,0,0,-1,1420,1065,0,0
203,-41,0,0,0,0,0,0,0,0,0,-1,1427,1065,0,0
210,-41,0,0,0,0,0,0,0,0,0,-1,1434,1065,0,0
217,-41,0,0,0,0,0,0,0,0,0,-1,1441,1065,0,0
224,-41,0,0,0,0,0,0,0,0,0,-1,1448,1065,0,0
231,-41,0,0,0,0,0,0,0,0,0,-1,1455,1065,0,0
238,-41,0,0,0,0,0,0,0,0,0,-1,1462,1065,0,0
245,-41,0,0,0,0,0,0,0,0,0,-1,1469,1065,0,0
252,-41,0,0,0,0,0,0,0,0,0,-1,1476,1065,0,0
259,-41,0,0,0,0,0,0,0,0,0,-1,1483,1065,0,0
266,-41,0,0,0,0,0,0,0,0,0,-1,1490,1065,0,0
273,-41,0,0,0,0,0,0,0,0,0,-1,1497,1065,0,0
280,-41,0,0,0,0,0,0,0,0,0,-1,1504,1065,0,0
287,-41,0,0,0,0,0,0,0,0,0,-1,1511,1065,0,0
294,-41,0,0,0,0,0,0,0,0,0,-1,1518,1065,0,0
301,-41,0,0,0,0,0,0,0,0,0,-1,1525,1065,0,0
308,-41,0,0,0,0,0,0,0,0,0,-1,1532,1065,0,0
315,-41,0,0,0,0,0,0,0,0,0,-1,1539,1065,0,0
322,-41,0,0,0,0,0,0,0,0,0,-1,1546,1065,0,0
329,-41,0,0,0,0,0,0,0,0,0,-1,1553,1065,0,0
336,-41,0,0,0,0,0,0,0,0,0,-1,1560,1065,0,0
343,-41,0,0,0,0,0,0,0,0,0,-1,1567,1065,0,0
350,-41,0,0,0,0,0,0,0,0,0,-1,1574,1065,0,0
357,-41,0,0,0,0,0,0,0,0,0,-1,1581,1065,0,0
364,-41,0,0,0,0,0,0,0,0,0,-1,1588,1065,0,0
371,-41,0,0,0,0,0,0,0,0,0,-1,1595,1065,0,0
378,-41,0,0,0,0,0,0,0,0,0,-1,1602,1065,0,0
385,-41,0,0,0,0,0,0,0,0,0,-1,1609,1065,0,0
392,-41,0,0,0,0,0,0,0,0,0,-1,1616,1065,0,0
399,-41,0,0,0,0,0,0,0,0,0,-1,1623,1065,0,0
406,-41,0,0,0,0,0,0,0,0,0,-1,1630,1065,0,0
413,-41,0,0,0,0,0,0,0,0,0,-1,1637,1065,0,0
420,-41,0,0,0,0,0,0,0,0,0,-1,1644,1065,0,0
427,-41,0,0,0,0,0,0,0,0,0,-1,1651,1065,0,0
434,-41,0,0,0,0,0,0,0,0,0,-1,1658,1065,0,0
441,-41,0,0,0,0,0,0,0,0,0,-1,1665,1065,0,0
448,-41,0,0,0,0,0,0,0,0,0,-1,1672,1065,0,0
455,-41,0,0,0,0,0,0,0,0,0,-1,1679,1065,0,0
462,-41,0,0,0,0,0,0,0,0,0,-1,1686,1065,0,0
469,-41,0,0,0,0,0,0,0,0,0,-1,1693,1065,0,0
476,-41,0,0,0,0,0,0,0,0,0,-1,1700,1065,0,0
483,-41,0,0,0,0,0,0,0,0,0,-1,1707,1065,0,0
490,-41,0,0,0,0,0,0,0,0,0,-1,1714,1065,0,0
497,-41,0,0,0,0,0,0,0,0,0,-1,1721,1065,0,0
504,-41,0,0,0,0,0,0,0,0,0,-1,1728,1065,0,0
511,-41,0,0,0,0,0,0,0,0,0,-1,1735,1065,0,0
518,-41,0,0,0,0,0,0,0,0,0,-1,1742,1065,0,0
525,-41,0,0,0,0,0,0,0,0,0,-1,1749,1065,0,0
532,-41,0,0,0,0,0,0,0,0,0,-1,1756,1065,0,0
539,-41,0,0,0,0,0,0,0,0,0,-1,1763,1065,0,0
546,-41,0,0,0,0,0,0,0,0,0,-1,1770,1065,0,0
553,-41,0,0,0,0,0,0,0,0,0,-1,1777,1065,0,0
560,-41,0,0,0,0,0,0,0,0,0,-1,1784,1065,0,0
567,-41,0,0,0,0,0,0,0,0,0,-1,1791,1065,0,0
574,-41,0,0,0,0,0,0,0,0,0,-1,1798,1065,0,0
581,-41,0,0,0,0,0,0,0,0,0,-1,1805,1065,0,0
588,-41,0,0,0,0,0,0,0,0,0,-1,1812,1065,0,0
595,-41,0,0,0,0,0,0,0,0,0,-1,1819,1065,0,0
602,-41,0,0,0,0,0,0,0,0,0,-1,1826,1065,0,0
609,-41,0,0,0,0,0,0,0,0,0,-1,1833,1065,0,0
616,-41,0,0,0,0,0,0,0,0,0,-1,1840,1065,0,0
623,-41,0,0,0,0,0,0,0,0,0,-1,1847,1065,0,0
630,-41,0,0,0,0,0,0,0,0,0,-1,1854,1065,0,0
637,-41,0,0,0,0,0,0,0,0,0,-1,1861,1065,0,0
644,-41,0,0,0,0,0,0,0,0,0,-1,1868,1065,0,0
651,-41,159.075,5.13538,0,0,0,0,0,0,0,-1,1875,1065,159.075,-5.13536
658,-41,158.97,4.86865,0,0,0,0,0,0,0,-1,1882,1065,158.97,-4.86862
665,-41,158.987,5.61938,0,0,0,0,0,0,0,-1,1889,1065,158.987,-5.61933
672,-41,159.157,5.57605,0,0,0,0,0,0,0,-1,1896,1065,159.157,-5.57611
679,-41,159.153,5.47583,0,0,0,0,0,0,0,-1,1903,1065,159.153,-5.4758
686,-41,159.157,5.53149,0,0,0,0,0,0,0,-1,1910,1065,159.157,-5.53149
693,-41,159.076,5.40808,0,0,0,0,0,0,0,-1,1917,1065,159.076,-5.40811
700,-41,159.042,5.27173,0,0,0,0,0,0,0,-1,1924,1065,159.042,-5.27168
707,-41,159.048,5.26978,0,0,0,0,0,0,0,-1,1931,1065,159.048,-5.26976
714,-41,159.06,5.36584,0,0,0,0,0,0,0,-1,1938,1065,159.06,-5.36586
721,-41,159.023,5.48621,0,0,0,0,0,0,0,-1,1945,1065,159.023,-5.48616
728,-41,161.221,25.2671,0,0,0,0,0,0,0,-1,1952,1065,161.221,-25.267
735,-41,161.178,24.9858,0,0,0,0,0,0,0,-1,1959,1065,161.178,-24.9858
742,-41,161.316,24.4752,0,0,0,0,0,0,0,-1,1966,1065,161.316,-24.4752
749,-41,160.992,24.6309,-0.0136209,0.00545387,0.00175643,0.00561425,-0.0137813,1.47974,0.0115242,0.023867,1973,1065,160.992,-24.6308
756,-41,160.914,24.5416,-0.0172315,0.0124805,0.00204197,0.0126202,-0.0173712,1.5025,0.0173878,0.0186815,1980,1065,160.914,-24.5416
763,-41,160.748,24.3264,-0.0205417,0.0193787,0.00226217,0.0195065,-0.0206695,1.51437,0.0231988,0.0158685,1987,1065,160.748,-24.3264
770,-41,160.497,24.1678,-0.0234685,0.026093,0.0024024,0.0262091,-0.0235846,1.52247,0.0287618,0.0169484,1994,1065,160.497,-24.1678
777,-41,160.214,24.0183,-0.0259243,0.0325662,0.00244759,0.0326685,-0.0260265,1.52905,0.0339598,0.0205659,2001,1065,160.214,-24.0184
784,-41,159.952,23.6949,-0.0278186,0.0387403,0.00238214,0.0388254,-0.0279038,1.53507,0.0386977,0.0351795,2008,1065,159.952,-23.6949
791,-41,159.809,23.309,0,0,0,0,0,0,0,-1,2015,1065,159.809,-23.309
798,-41,144.406,18.5679,0,0,0,0,0,0,0,-1,2022,1065,144.406,-18.5679
805,-41,143.496,17.1398,0,0,0,0,0,0,0,-1,2029,1065,143.496,-17.1397
812,-41,130.787,15.5538,0,0,0,0,0,0,0,-1,2036,1065,130.787,-15.5539
-700,-48,-88.5808,-1.61304,0,0,0,0,0,0,0,-1,524,1072,-88.5808,1.61309
-693,-48,-89.1802,8.5564,0,0,0,0,0,0,0,-1,531,1072,-89.1802,-8.55644
-686,-48,-89.7466,8.80872,0,0,0,0,0,0,0,-1,538,1072,-89.7466,-8.80872
-679,-48,-90.313,9.06104,0,0,0,0,0,0,0,-1,545,1072,-90.313,-9.06099
-672,-48,-85.5398,3.31128,0,0,0,0,0,0,0,-1,552,1072,-85.5398,-3.31128
-665,-48,-84.2753,4.37109,0,0,0,0,0,0,0,-1,559,1072,-84.2753,-4.37112
-658,-48,-98.2539,10.8611,0,0,0,0,0,0,0,-1,566,1072,-98.2539,-10.8611
-651,-48,-150.891,24.3889,0,0,0,0,0,0,0,-1,573,1072,-150.891,-24.3889
-644,-48,-151.259,24.4359,-0.0190584,0.0376532,0.000317331,0.037655,-0.0190602,1.5652,0.033326,0.030323,580,1072,-151.259,-24.436
-637,-48,-151.462,24.468,-0.0138494,0.0288554,-4.88538e-05,0.0288555,-0.0138495,-1.56965,0.025158,0.0301866,587,1072,-151.462,-24.4681
-630,-48,-151.526,24.767,-0.00878901,0.0201118,-0.00056041,0.0201226,-0.00879987,-1.55142,0.0171196,0.0356394,594,1072,-151.526,-24.767
-623,-48,-151.592,24.9998,-0.00384693,0.0114118,-0.00121741,0.0115083,-0.00394345,-1.49168,0.00927063,0.0163534,601,1072,-151.592,-24.9998
-616,-48,-151.544,25.2335,0.00100817,0.0027461,-0.00202022,0.00407632,-0.000322043,-0.988504,0.002831,0.0128158,608,1072,-151.544,-25.2335
-609,-48,-151.481,25.5146,0.00580849,-0.00589373,-0.00296955,0.00651891,-0.00660415,-0.234822,0.00757666,0.014004,615,1072,-151.481,-25.5146
-602,-48,-151.421,25.7032,0.0105868,-0.0145146,-0.00406632,0.0112291,-0.0151569,-0.156659,0.0152901,0.0158318,622,1072,-151.421,-25.7032
-595,-48,-151.395,25.7813,0.0153764,-0.0231218,-0.00531141,0.0160958,-0.0238412,-0.134615,0.0232017,0.0355822,629,1072,-151.395,-25.7812
-588,-48,-151.601,25.7028,0,0,0,0,0,0,0,-1,636,1072,-151.601,-25.7027
-581,-48,-72.1721,0.0887451,0,0,0,0,0,0,0,-1,643,1072,-72.172,-0.0887806
-574,-48,-72.2043,0.252686,0,0,0,0,0,0,0,-1,650,1072,-72.2043,-0.25272
-567,-48,-72.2415,0.488281,0,0,0,0,0,0,0,-1,657,1072,-72.2414,-0.488321
-560,-48,-72.2725,0.536499,0,0,0,0,0,0,0,-1,664,1072,-72.2725,-0.536524
-553,-48,-72.2182,0.4552,0,0,0,0,0,0,0,-1,671,1072,-72.2182,-0.45517
-546,-48,-72.1917,0.478149,0,0,0,0,0,0,0,-1,678,1072,-72.1916,-0.478111
-539,-48,-72.183,0.666382,0,0,0,0,0,0,0,-1,685,1072,-72.183,-0.66641
-532,-48,-72.2211,0.694214,0,0,0,0,0,0,0,-1,692,1072,-72.2211,-0.694174
-525,-48,0,0,0,0,0,0,0,0,0,-1,699,1072,0,0
-518,-48,0,0,0,0,0,0,0,0,0,-1,706,1072,0,0
-511,-48,0,0,0,0,0,0,0,0,0,-1,713,1072,0,0
-504,-48,0,0,0,0,0,0,0,0,0,-1,720,1072,0,0
-497,-48,0,0,0,0,0,0,0,0,0,-1,727,1072,0,0
-490,-48,0,0,0,0,0,0,0,0,0,-1,734,1072,0,0
-483,-48,0,0,0,0,0,0,0,0,0,-1,741,1072,0,0
-476,-48,0,0,0,0,0,0,0,0,0,-1,748,1072,0,0
-469,-48,0,0,0,0,0,0,0,0,0,-1,755,1072,0,0
-462,-48,0,0,0,0,0,0,0,0,0,-1,762,1072,0,0
-455,-48,0,0,0,0,0,0,0,0,0,-1,769,1072,0,0
-448,-48,0,0,0,0,0,0,0,0,0,-1,776,1072,0,0
-441,-48,0,0,0,0,0,0,0,0,0,-1,783,1072,0,0
-434,-48,0,0,0,0,0,0,0,0,0,-1,790,1072,0,0
-427,-48,0,0,0,0,0,0,0,0,0,-1,797,1072,0,0
-420,-48,0,0,0,0,0,0,0,0,0,-1,804,1072,0,0
-413,-48,0,0,0,0,0,0,0,0,0,-1,811,1072,0,0
-406,-48,0,0,0,0,0,0,0,0,0,-1,818,1072,0,0
-399,-48,0,0,0,0,0,0,0,0,0,-1,825,1072,0,0
-392,-48,0,0,0,0,0,0,0,0,0,-1,832,1072,0,0
-385,-48,0,0,0,0,0,0,0,0,0,-1,839,1072,0,0
-378,-48,0,0,0,0,0,0,0,0,0,-1,846,1072,0,0
-371,-48,0,0,0,0,0,0,0,0,0,-1,853,1072,0,0
-364,-48,0,0,0,0,0,0,0,0,0,-1,860,1072,0,0
-357,-48,0,0,0,0,0,0,0,0,0,-1,867,1072,0,0
-350,-48,0,0,0,0,0,0,0,0,0,-1,874,1072,0,0
-343,-48,0,0,0,0,0,0,0,0,0,-1,881,1072,0,0
-336,-48,0,0,0,0,0,0,0,0,0,-1,888,1072,0,0
-329,-48,0,0,0,0,0,0,0,0,0,-1,895,1072,0,0
-322,-48,0,0,0,0,0,0,0,0,0,-1,902,1072,0,0
-315,-48,0,0,0,0,0,0,0,0,0,-1,909,1072,0,0
-308,-48,0,0,0,0,0,0,0,0,0,-1,916,1072,0,0
-301,-48,0,0,0,0,0,0,0,0,0,-1,923,1072,0,0
-294,-48,0,0,0,0,0,0,0,0,0,-1,930,1072,0,0
-287,-48,0,0,0,0,0,0,0,0,0,-1,937,1072,0,0
-280,-48,0,0,0,0,0,0,0,0,0,-1,944,1072,0,0
-273,-48,0,0,0,0,0,0,0,0,0,-1,951,1072,0,0
-266,-48,0,0,0,0,0,0,0,0,0,-1,958,1072,0,0
-259,-48,0,0,0,0,0,0,0,0,0,-1,965,1072,0,0
-252,-48,0,0,0,0,0,0,0,0,0,-1,972,1072,0,0
-245,-48,0,0,0,0,0,0,0,0,0,-1,979,1072,0,0
-238,-48,0,0,0,0,0,0,0,0,0,-1,986,1072,0,0
-231,-48,0,0,0,0,0,0,0,0,0,-1,993,1072,0,0
-224,-48,0,0,0,0,0,0,0,0,0,-1,1000,1072,0,0
-217,-48,0,0,0,0,0,0,0,0,0,-1,1007,1072,0,0
-210,-48,0,0,0,0,0,0,0,0,0,-1,1014,1072,0,0
-203,-48,0,0,0,0,0,0,0,0,0,-1,1021,1072,0,0
-196,-48,0,0,0,0,0,0,0,0,0,-1,1028,1072,0,0
-189,-48,0,0,0,0,0,0,0,0,0,-1,1035,1072,0,0
-182,-48,0,0,0,0,0,0,0,0,0,-1,1042,1072,0,0
-175,-48,0,0,0,0,0,0,0,0,0,-1,1049,1072,0,0
-168,-48,0,0,0,0,0,0,0,0,0,-1,1056,1072,0,0
-161,-48,0,0,0,0,0,0,0,0,0,-1,1063,1072,0,0
-154,-48,0,0,0,0,0,0,0,0,0,-1,1070,1072,0,0
-147,-48,0,0,0,0,0,0,0,0,0,-1,1077,1072,0,0
-140,-48,0,0,0,0,0,0,0,0,0,-1,1084,1072,0,0
-133,-48,0,0,0,0,0,0,0,0,0,-1,1091,1072,0,0
-126,-48,0,0,0,0,0,0,0,0,0,-1,1098,1072,0,0
-119,-48,0,0,0,0,0,0,0,0,0,-1,1105,1072,0,0
-112,-48,0,0,0,0,0,0,0,0,0,-1,1112,1072,0,0
-105,-48,0,0,0,0,0,0,0,0,0,-1,1119,1072,0,0
-98,-48,0,0,0,0,0,0,0,0,0,-1,1126,1072,0,0
-91,-48,0,0,0,0,0,0,0,0,0,-1,1133,1072,0,0
-84,-48,0,0,0,0,0,0,0,0,0,-1,1140,1072,0,0
-77,-48,0,0,0,0,0,0,0,0,0,-1,1147,1072,0,0
-70,-48,0,0,0,0,0,0,0,0,0,-1,1154,1072,0,0
-63,-48,0,0,0,0,0,0,0,0,0,-1,1161,1072,0,0
-56,-48,0,0,0,0,0,0,0,0,0,-1,1168,1072,0,0
-49,-48,0,0,0,0,0,0,0,0,0,-1,1175,1072,0,0
-42,-48,0,0,0,0,0,0,0,0,0,-1,1182,1072,0,0
-35,-48,0,0,0,0,0,0,0,0,0,-1,1189,1072,0,0
-28,-48,0,0,0,0,0,0,0,0,0,-1,1196,1072,0,0
-21,-48,0,0,0,0,0,0,0,0,0,-1,1203,1072,0,0
-14,-48,0,0,0,0,0,0,0,0,0,-1,1210,1072,0,0
-7,-48,0,0,0,0,0,0,0,0,0,-1,1217,1072,0,0
0,-48,0,0,0,0,0,0,0,0,0,-1,1224,1072,0,0
7,-48,0,0,0,0,0,0,0,0,0,-1,1231,1072,0,0
14,-48,0,0,0,0,0,0,0,0,0,-1,1238,1072,0,0
21,-48,0,0,0,0,0,0,0,0,0,-1,1245,1072,0,0
28,-48,0,0,0,0,0,0,0,0,0,-1,1252,1072,0,0
35,-48,0,0,0,0,0,0,0,0,0,-1,1259,1072,0,0
42,-48,0,0,0,0,0,0,0,0,0,-1,1266,1072,0,0
49,-48,0,0,0,0,0,0,0,0,0,-1,1273,1072,0,0
56,-48,0,0,0,0,0,0,0,0,0,-1,1280,1072,0,0
63,-48,0,0,0,0,0,0,0,0,0,-1,1287,1072,0,0
70,-48,0,0,0,0,0,0,0,0,0,-1,1294,1072,0,0
77,-48,0,0,0,0,0,0,0,0,0,-1,1301,1072,0,0
84,-48,0,0,0,0,0,0,0,0,0,-1,1308,1072,0,0
91,-48,0,0,0,0,0,0,0,0,0,-1,1315,1072,0,0
98,-48,0,0,0,0,0,0,0,0,0,-1,1322,1072,0,0
105,-48,0,0,0,0,0,0,0,0,0,-1,1329,1072,0,0
112,-48,0,0,0,0,0,0,0,0,0,-1,1336,1072,0,0
119,-48,0,0,0,0,0,0,0,0,0,-1,1343,1072,0,0
126,-48,0,0,0,0,0,0,0,0,0,-1,1350,1072,0,0
133,-48,0,0,0,0,0,0,0,0,0,-1,1357,1072,0,0
140,-48,0,0,0,0,0,0,0,0,0,-1,1364,1072,0,0
147,-48,0,0,0,0,0,0,0,0,0,-1,1371,1072,0,0
154,-48,0,0,0,0,0,0,0,0,0,-1,1378,1072,0,0
161,-48,0,0,0,0,0,0,0,0,0,-1,1385,1072,0,0
168,-48,0,0,0,0,0,0,0,0,0,-1,1392,1072,0,0
175,-48,0,0,0,0,0,0,0,0,0,-1,1399,1072,0,0
182,-48,0,0,0,0,0,0,0,0,0,-1,1406,1072,0,0
189,-48,0,0,0,0,0,0,0,0,0,-1,1413,1072,0,0
196,-48,0,0,0,0,0,0,0,0,0,-1,1420,1072,0,0
203,-48,0,0,0,0,0,0,0,0,0,-1,1427,1072,0,0
210,-48,0,0,0,0,0,0,0,0,0,-1,1434,1072,0,0
217,-48,0,0,0,0,0,0,0,0,0,-1,1441,1072,0,0
224,-48,0,0,0,0,0,0,0,0,0,-1,1448,1072,0,0
231,-48,0,0,0,0,0,0,0,0,0,-1,1455,1072,0,0
238,-48,0,0,0,0,0,0,0,0,0,-1,1462,1072,0,0
245,-48,0,0,0,0,0,0,0,0,0,-1,1469,1072,0,0
252,-48,0,0,0,0,0,0,0,0,0,-1,1476,1072,0,0
259,-48,0,0,0,0,0,0,0,0,0,-1,1483,1072,0,0
266,-48,0,0,0,0,0,0,0,0,0,-1,1490,1072,0,0
273,-48,0,0,0,0,0,0,0,0,0,-1,1497,1072,0,0
280,-48,0,0,0,0,0,0,0,0,0,-1,1504,1072,0,0
287,-48,0,0,0,0,0,0,0,0,0,-1,1511,1072,0,0
294,-48,0,0,0,0,0,0,0,0,0,-1,1518,1072,0,0
301,-48,0,0,0,0,0,0,0,0,0,-1,1525,1072,0,0
308,-48,0,0,0,0,0,0,0,0,0,-1,1532,1072,0,0
315,-48,0,0,0,0,0,0,0,0,0,-1,1539,1072,0,0
322,-48,0,0,0,0,0,0,0,0,0,-1,1546,1072,0,0
329,-48,0,0,0,0,0,0,0,0,0,-1,1553,1072,0,0
336,-48,0,0,0,0,0,0,0,0,0,-1,1560,1072,0,0
343,-48,0,0,0,0,0,0,0,0,0,-1,1567,1072,0,0
350,-48,0,0,0,0,0,0,0,0,0,-1,1574,1072,0,0
357,-48,0,0,0,0,0,0,0,0,0,-1,1581,1072,0,0
364,-48,0,0,0,0,0,0,0,0,0,-1,1588,1072,0,0
371,-48,0,0,0,0,0,0,0,0,0,-1,1595,1072,0,0
378,-48,0,0,0,0,0,0,0,0,0,-1,1602,1072,0,0
385,-48,0,0,0,0,0,0,0,0,0,-1,1609,1072,0,0
392,-48,0,0,0,0,0,0,0,0,0,-1,1616,1072,0,0
399,-48,0,0,0,0,0,0,0,0,0,-1,1623,1072,0,0
406,-48,0,0,0,0,0,0,0,0,0,-1,1630,1072,0,0
413,-48,0,0,0,0,0,0,0,0,0,-1,1637,1072,0,0
420,-48,0,0,0,0,0,0,0,0,0,-1,1644,1072,0,0
427,-48,0,0,0,0,0,0,0,0,0,-1,1651,1072,0,0
434,-48,0,0,0,0,0,0,0,0,0,-1,1658,1072,0,0
441,-48,0,0,0,0,0,0,0,0,0,-1,1665,1072,0,0
448,-48,0,0,0,0,0,0,0,0,0,-1,1672,1072,0,0
455,-48,0,0,0,0,0,0,0,0,0,-1,1679,1072,0,0
462,-48,0,0,0,0,0,0,0,0,0,-1,1686,1072,0,0
469,-48,0,0,0,0,0,0,0,0,0,-1,1693,1072,0,0
476,-48,0,0,0,0,0,0,0,0,0,-1,1700,1072,0,0
483,-48,0,0,0,0,0,0,0,0,0,-1,1707,1072,0,0
490,-48,0,0,0,0,0,0,0,0,0,-1,1714,1072,0,0
497,-48,0,0,0,0,0,0,0,0,0,-1,1721,1072,0,0
504,-48,0,0,0,0,0,0,0,0,0,-1,1728,1072,0,0
511,-48,0,0,0,0,0,0,0,0,0,-1,1735,1072,0,0
518,-48,0,0,0,0,0,0,0,0,0,-1,1742,1072,0,0
525,-48,0,0,0,0,0,0,0,0,0,-1,1749,1072,0,0
532,-48,0,0,0,0,0,0,0,0,0,-1,1756,1072,0,0
539,-48,0,0,0,0,0,0,0,0,0,-1,1763,1072,0,0
546,-48,0,0,0,0,0,0,0,0,0,-1,1770,1072,0,0
553,-48,0,0,0,0,0,0,0,0,0,-1,1777,1072,0,0
560,-48,0,0,0,0,0,0,0,0,0,-1,1784,1072,0,0
567,-48,0,0,0,0,0,0,0,0,0,-1,1791,1072,0,0
574,-48,0,0,0,0,0,0,0,0,0,-1,1798,1072,0,0
581,-48,0,0,0,0,0,0,0,0,0,-1,1805,1072,0,0
588,-48,0,0,0,0,0,0,0,0,0,-1,1812,1072,0,0
595,-48,0,0,0,0,0,0,0,0,0,-1,1819,1072,0,0
602,-48,0,0,0,0,0,0,0,0,0,-1,1826,1072,0,0
609,-48,0,0,0,0,0,0,0,0,0,-1,1833,1072,0,0
616,-48,0,0,0,0,0,0,0,0,0,-1,1840,1072,0,0
623,-48,0,0,0,0,0,0,0,0,0,-1,1847,1072,0,0
630,-48,0,0,0,0,0,0,0,0,0,-1,1854,1072,0,0
637,-48,0,0,0,0,0,0,0,0,0,-1,1861,1072,0,0
644,-48,0,0,0,0,0,0,0,0,0,-1,1868,1072,0,0
651,-48,159.013,5.30505,0,0,0,0,0,0,0,-1,1875,1072,159.013,-5.30507
658,-48,159.041,5.13538,0,0,0,0,0,0,0,-1,1882,1072,159.041,-5.13536
665,-48,158.759,5.56396,0,0,0,0,0,0,0,-1,1889,1072,158.759,-5.56401
672,-48,158.945,5.51038,0,0,0,0,0,0,0,-1,1896,1072,158.945,-5.51037
679,-48,159.132,5.50562,0,0,0,0,0,0,0,-1,1903,1072,159.132,-5.50555
686,-48,159.144,5.57532,0,0,0,0,0,0,0,-1,1910,1072,159.144,-5.57533
693,-48,159.061,5.43518,0,0,0,0,0,0,0,-1,1917,1072,159.061,-5.43517
700,-48,159.039,5.31409,0,0,0,0,0,0,0,-1,1924,1072,159.039,-5.31412
707,-48,159.129,5.29089,0,0,0,0,0,0,0,-1,1931,1072,159.13,-5.29085
714,-48,159.068,5.28125,0,0,0,0,0,0,0,-1,1938,1072,159.068,-5.28124
721,-48,159.059,5.28247,0,0,0,0,0,0,0,-1,1945,1072,159.059,-5.28245
728,-48,160.972,25.5176,0,0,0,0,0,0,0,-1,1952,1072,160.972,-25.5176
735,-48,160.843,25.2095,-0.00387836,-0.0104238,0.00172899,-0.00344971,-0.0108524,0.243018,0.0064027,0.0295925,1959,1072,160.843,-25.2095
742,-48,160.694,24.8845,-0.00821109,-0.00296284,0.00203344,-0.00226719,-0.00890674,1.24117,0.00534486,0.0193867,1966,1072,160.694,-24.8845
749,-48,160.617,24.6569,-0.0124039,0.00443122,0.00233274,0.00474848,-0.0127212,1.43563,0.0104304,0.0198711,1973,1072,160.617,-24.6568
756,-48,160.588,24.4458,-0.0163892,0.0117185,0.00260744,0.0119583,-0.016629,1.47907,0.0165782,0.0175426,1980,1072,160.588,-24.4458
763,-48,160.449,24.2045,-0.0200919,0.0188562,0.00283891,0.019062,-0.0202978,1.49842,0.0227281,0.0169025,1987,1072,160.449,-24.2045
770,-48,160.302,23.9491,-0.0234309,0.0257994,0.00300887,0.0259826,-0.0236141,1.50998,0.0286455,0.0185055,1994,1072,160.302,-23.9491
777,-48,160.032,23.7183,-0.0263197,0.0325015,0.00309914,0.0326643,-0.0264825,1.5183,0.0342106,0.017479,2001,1072,160.032,-23.7182
784,-48,159.81,23.4624,-0.0286683,0.0389148,0.00309157,0.039056,-0.0288094,1.52518,0.0393307,0.0309104,2008,1072,159.81,-23.4624
791,-48,159.668,23.1256,0,0,0,0,0,0,0,-1,2015,1072,159.668,-23.1256
798,-48,156.153,20.6919,0,0,0,0,0,0,0,-1,2022,1072,156.153,-20.6919
805,-48,145.94,17.7681,0,0,0,0,0,0,0,-1,2029,1072,145.94,-17.768
812,-48,145.715,16.424,0,0,0,0,0,0,0,-1,2036,1072,145.715,-16.424
-700,-55,-87.3454,-1.32239,0,0,0,0,0,0,0,-1,524,1079,-87.3454,1.32238
-693,-55,-88.6417,7.0238,0,0,0,0,0,0,0,-1,531,1079,-88.6417,-7.02386
-686,-55,-89.3746,7.15051,0,0,0,0,0,0,0,-1,538,1079,-89.3746,-7.15048
-679,-55,-90.1075,7.2771,0,0,0,0,0,0,0,-1,545,1079,-90.1075,-7.27709
-672,-55,-85.4192,2.81006,0,0,0,0,0,0,0,-1,552,1079,-85.4192,-2.81005
-665,-55,-84.8889,2.23938,0,0,0,0,0,0,0,-1,559,1079,-84.8889,-2.23935
-658,-55,-84.2544,2.53162,0,0,0,0,0,0,0,-1,566,1079,-84.2544,-2.53157
-651,-55,-150.855,24.027,0,0,0,0,0,0,0,-1,573,1079,-150.855,-24.027
-644,-55,-151.085,24.2035,-0.0197255,0.0366811,-0.000129941,0.0366814,-0.0197258,-1.56849,0.0330535,0.0399514,580,1079,-151.085,-24.2035
-637,-55,-151.261,24.2671,-0.014408,0.0281093,-0.000339118,0.028112,-0.0144107,-1.56282,0.0249717,0.0284854,587,1079,-151.261,-24.2671
-630,-55,-151.302,24.6151,-0.00921781,0.0195926,-0.000677978,0.0196086,-0.00923375,-1.54728,0.0170074,0.0314582,594,1079,-151.302,-24.6151
-623,-55,-151.31,25.0131,-0.00411891,0.0111199,-0.00115138,0.0112064,-0.00420541,-1.49581,0.00919892,0.0228444,601,1079,-151.31,-25.013
-616,-55,-151.257,25.2638,0.000925725,0.00268158,-0.00176382,0.00377389,-0.000166582,-1.01632,0.00257325,0.0153898,608,1079,-151.257,-25.2638
-609,-55,-151.208,25.5468,0.00595378,-0.00573003,-0.00251958,0.00647396,-0.00625021,-0.203595,0.00734668,0.0155053,615,1079,-151.208,-25.5467
-602,-55,-151.214,25.8201,0.0110035,-0.0141212,-0.00342269,0.0114614,-0.0145791,-0.133,0.0150704,0.0187922,622,1079,-151.214,-25.8201
-595,-55,-150.944,26.0939,0.0161135,-0.0224965,-0.00447681,0.0166257,-0.0230087,-0.113936,0.0229817,0.0340814,629,1079,-150.944,-26.0939
-588,-55,-150.636,26.3627,0,0,0,0,0,0,0,-1,636,1079,-150.636,-26.3626
-581,-55,-72.2021,0.568848,0,0,0,0,0,0,0,-1,643,1079,-72.2021,-0.568903
-574,-55,-72.1902,0.588257,0,0,0,0,0,0,0,-1,650,1079,-72.1903,-0.588203
-567,-55,-72.2176,0.383911,0,0,0,0,0,0,0,-1,657,1079,-72.2176,-0.383936
-560,-55,-72.2438,0.371704,0,0,0,0,0,0,0,-1,664,1079,-72.2438,-0.371714
-553,-55,-72.1981,0.384766,0,0,0,0,0,0,0,-1,671,1079,-72.1981,-0.384818
-546,-55,-72.202,0.425049,0,0,0,0,0,0,0,-1,678,1079,-72.202,-0.425034
-539,-55,-72.2377,0.464722,0,0,0,0,0,0,0,-1,685,1079,-72.2377,-0.464753
-532,-55,-76.1212,-0.043335,0,0,0,0,0,0,0,-1,692,1079,-76.1211,0.043395
-525,-55,0,0,0,0,0,0,0,0,0,-1,699,1079,0,0
-518,-55,0,0,0,0,0,0,0,0,0,-1,706,1079,0,0
-511,-55,0,0,0,0,0,0,0,0,0,-1,713,1079,0,0
-504,-55,0,0,0,0,0,0,0,0,0,-1,720,1079,0,0
-497,-55,0,0,0,0,0,0,0,0,0,-1,727,1079,0,0
-490,-55,0,0,0,0,0,0,0,0,0,-1,734,1079,0,0
-483,-55,0,0,0,0,0,0,0,0,0,-1,741,1079,0,0
-476,-55,0,0,0,0,0,0,0,0,0,-1,748,1079,0,0
-469,-55,0,0,0,0,0,0,0,0,0,-1,755,1079,0,0
-462,-55,0,0,0,0,0,0,0,0,0,-1,762,1079,0,0
-455,-55,0,0,0,0,0,0,0,0,0,-1,769,1079,0,0
-448,-55,0,0,0,0,0,0,0,0,0,-1,776,1079,0,0
-441,-55,0,0,0,0,0,0,0,0,0,-1,783,1079,0,0
-434,-55,0,0,0,0,0,0,0,0,0,-1,790,1079,0,0
-427,-55,0,0,0,0,0,0,0,0,0,-1,797,1079,0,0
-420,-55,0,0,0,0,0,0,0,0,0,-1,804,1079,0,0
-413,-55,0,0,0,0,0,0,0,0,0,-1,811,1079,0,0
-406,-55,0,0,0,0,0,0,0,0,0,-1,818,1079,0,0
-399,-55,0,0,0,0,0,0,0,0,0,-1,825,1079,0,0
-392,-55,0,0,0,0,0,0,0,0,0,-1,832,1079,0,0
-385,-55,0,0,0,0,0,0,0,0,0,-1,839,1079,0,0
-378,-55,0,0,0,0,0,0,0,0,0,-1,846,1079,0,0
-371,-55,0,0,0,0,0,0,0,0,0,-1,853,1079,0,0
-364,-55,0,0,0,0,0,0,0,0,0,-1,860,1079,0,0
-357,-55,0,0,0,0,0,0,0,0,0,-1,867,1079,0,0
-350,-55,0,0,0,0,0,0,0,0,0,-1,874,1079,0,0
-343,-55,0,0,0,0,0,0,0,0,0,-1,881,1079,0,0
-336,-55,0,0,0,0,0,0,0,0,0,-1,888,1079,0,0
-329,-55,0,0,0,0,0,0,0,0,0,-1,895,1079,0,0
-322,-55,0,0,0,0,0,0,0,0,0,-1,902,1079,0,0
-315,-55,0,0,0,0,0,0,0,0,0,-1,909,1079,0,0
-308,-55,0,0,0,0,0,0,0,0,0,-1,916,1079,0,0
-301,-55,0,0,0,0,0,0,0,0,0,-1,923,1079,0,0
-294,-55,0,0,0,0,0,0,0,0,0,-1,930,1079,0,0
-287,-55,0,0,0,0,0,0,0,0,0,-1,937,1079,0,0
-280,-55,0,0,0,0,0,0,0,0,0,-1,944,1079,0,0
-273,-55,0,0,0,0,0,0,0,0,0,-1,951,1079,0,0
-266,-55,0,0,0,0,0,0,0,0,0,-1,958,1079,0,0
-259,-55,0,0,0,0,0,0,0,0,0,-1,965,1079,0,0
-252,-55,0,0,0,0,0,0,0,0,0,-1,972,1079,0,0
-245,-55,0,0,0,0,0,0,0,0,0,-1,979,1079,0,0
-238,-55,0,0,0,0,0,0,0,0,0,-1,986,1079,0,0
-231,-55,0,0,0,0,0,0,0,0,0,-1,993,1079,0,0
-224,-55,0,0,0,0,0,0,0,0,0,-1,1000,1079,0,0
-217,-55,0,0,0,0,0,0,0,0,0,-1,1007,1079,0,0
-210,-55,0,0,0,0,0,0,0,0,0,-1,1014,1079,0,0
-203,-55,0,0,0,0,0,0,0,0,0,-1,1021,1079,0,0
-196,-55,0,0,0,0,0,0,0,0,0,-1,1028,1079,0,0
-189,-55,0,0,0,0,0,0,0,0,0,-1,1035,1079,0,0
-182,-55,0,0,0,0,0,0,0,0,0,-1,1042,1079,0,0
-175,-55,0,0,0,0,0,0,0,0,0,-1,1049,1079,0,0
-168,-55,0,0,0,0,0,0,0,0,0,-1,1056,1079,0,0
-161,-55,0,0,0,0,0,0,0,0,0,-1,1063,1079,0,0
-154,-55,0,0,0,0,0,0,0,0,0,-1,1070,1079,0,0
-147,-55,0,0,0,0,0,0,0,0,0,-1,1077,1079,0,0
-140,-55,0,0,0,0,0,0,0,0,0,-1,1084,1079,0,0
-133,-55,0,0,0,0,0,0,0,0,0,-1,1091,1079,0,0
-126,-55,0,0,0,0,0,0,0,0,0,-1,1098,1079,0,0
-119,-55,0,0,0,0,0,0,0,0,0,-1,1105,1079,0,0
-112,-55,0,0,0,0,0,0,0,0,0,-1,1112,1079,0,0
-105,-55,0,0,0,0,0,0,0,0,0,-1,1119,1079,0,0
-98,-55,0,0,0,0,0,0,0,0,0,-1,1126,1079,0,0
-91,-55,0,0,0,0,0,0,0,0,0,-1,1133,1079,0,0
-84,-55,0,0,0,0,0,0,0,0,0,-1,1140,1079,0,0
-77,-55,0,0,0,0,0,0,0,0,0,-1,1147,1079,0,0
-70,-55,0,0,0,0,0,0,0,0,0,-1,1154,1079,0,0
-63,-55,0,0,0,0,0,0,0,0,0,-1,1161,1079,0,0
-56,-55,0,0,0,0,0,0,0,0,0,-1,1168,1079,0,0
-49,-55,0,0,0,0,0,0,0,0,0,-1,1175,1079,0,0
-42,-55,0,0,0,0,0,0,0,0,0,-1,1182,1079,0,0
-35,-55,0,0,0,0,0,0,0,0,0,-1,1189,1079,0,0
-28,-55,0,0,0,0,0,0,0,0,0,-1,1196,1079,0,0
-21,-55,0,0,0,0,0,0,0,0,0,-1,1203,1079,0,0
-14,-55,0,0,0,0,0,0,0,0,0,-1,1210,1079,0,0
-7,-55,0,0,0,0,0,0,0,0,0,-1,1217,1079,0,0
0,-55,0,0,0,0,0,0,0,0,0,-1,1224,1079,0,0
7,-55,0,0,0,0,0,0,0,0,0,-1,1231,1079,0,0
14,-55,0,0,0,0,0,0,0,0,0,-1,1238,1079,0,0
21,-55,0,0,0,0,0,0,0,0,0,-1,1245,1079,0,0
28,-55,0,0,0,0,0,0,0,0,0,-1,1252,1079,0,0
35,-55,0,0,0,0,0,0,0,0,0,-1,1259,1079,0,0
42,-55,0,0,0,0,0,0,0,0,0,-1,1266,1079,0,0
49,-55,0,0,0,0,0,0,0,0,0,-1,1273,1079,0,0
56,-55,0,0,0,0,0,0,0,0,0,-1,1280,1079,0,0
63,-55,0,0,0,0,0,0,0,0,0,-1,1287,1079,0,0
70,-55,0,0,0,0,0,0,0,0,0,-1,1294,1079,0,0
77,-55,0,0,0,0,0,0,0,0,0,-1,1301,1079,0,0
84,-55,0,0,0,0,0,0,0,0,0,-1,1308,1079,0,0
91,-55,0,0,0,0,0,0,0,0,0,-1,1315,1079,0,0
98,-55,0,0,0,0,0,0,0,0,0,-1,1322,1079,0,0
105,-55,0,0,0,0,0,0,0,0,0,-1,1329,1079,0,0
112,-55,0,0,0,0,0,0,0,0,0,-1,1336,1079,0,0
119,-55,0,0,0,0,0,0,0,0,0,-1,1343,1079,0,0
126,-55,0,0,0,0,0,0,0,0,0,-1,1350,1079,0,0
133,-55,0,0,0,0,0,0,0,0,0,-1,1357,1079,0,0
140,-55,0,0,0,0,0,0,0,0,0,-1,1364,1079,0,0
147,-55,0,0,0,0,0,0,0,0,0,-1,1371,1079,0,0
154,-55,0,0,0,0,0,0,0,0,0,-1,1378,1079,0,0
161,-55,0,0,0,0,0,0,0,0,0,-1,1385,1079,0,0
168,-55,0,0,0,0,0,0,0,0,0,-1,1392,1079,0,0
175,-55,0,0,0,0,0,0,0,0,0,-1,1399,1079,0,0
182,-55,0,0,0,0,0,0,0,0,0,-1,1406,1079,0,0
189,-55,0,0,0,0,0,0,0,0,0,-1,1413,1079,0,0
196,-55,0,0,0,0,0,0,0,0,0,-1,1420,1079,0,0
203,-55,0,0,0,0,0,0,0,0,0,-1,1427,1079,0,0
210,-55,0,0,0,0,0,0,0,0,0,-1,1434,1079,0,0
217,-55,0,0,0,0,0,0,0,0,0,-1,1441,1079,0,0
224,-55,0,0,0,0,0,0,0,0,0,-1,1448,1079,0,0
231,-55,0,0,0,0,0,0,0,0,0,-1,1455,1079,0,0
238,-55,0,0,0,0,0,0,0,0,0,-1,1462,1079,0,0
245,-55,0,0,0,0,0,0,0,0,0,-1,1469,1079,0,0
252,-55,0,0,0,0,0,0,0,0,0,-1,1476,1079,0,0
259,-55,0,0,0,0,0,0,0,0,0,-1,1483,1079,0,0
266,-55,0,0,0,0,0,0,0,0,0,-1,1490,1079,0,0
273,-55,0,0,0,0,0,0,0,0,0,-1,1497,1079,0,0
280,-55,0,0,0,0,0,0,0,0,0,-1,1504,1079,0,0
287,-55,0,0,0,0,0,0,0,0,0,-1,1511,1079,0,0
294,-55,0,0,0,0,0,0,0,0,0,-1,1518,1079,0,0
301,-55,0,0,0,0,0,0,0,0,0,-1,1525,1079,0,0
308,-55,0,0,0,0,0,0,0,0,0,-1,1532,1079,0,0
315,-55,0,0,0,0,0,0,0,0,0,-1,1539,1079,0,0
322,-55,0,0,0,0,0,0,0,0,0,-1,1546,1079,0,0
329,-55,0,0,0,0,0,0,0,0,0,-1,1553,1079,0,0
336,-55,0,0,0,0,0,0,0,0,0,-1,1560,1079,0,0
343,-55,0,0,0,0,0,0,0,0,0,-1,1567,1079,0,0
350,-55,0,0,0,0,0,0,0,0,0,-1,1574,1079,0,0
357,-55,0,0,0,0,0,0,0,0,0,-1,1581,1079,0,0
364,-55,0,0,0,0,0,0,0,0,0,-1,1588,1079,0,0
371,-55,0,0,0,0,0,0,0,0,0,-1,1595,1079,0,0
378,-55,0,0,0,0,0,0,0,0,0,-1,1602,1079,0,0
385,-55,0,0,0,0,0,0,0,0,0,-1,1609,1079,0,0
392,-55,0,0,0,0,0,0,0,0,0,-1,1616,1079,0,0
399,-55,0,0,0,0,0,0,0,0,0,-1,1623,1079,0,0
406,-55,0,0,0,0,0,0,0,0,0,-1,1630,1079,0,0
413,-55,0,0,0,0,0,0,0,0,0,-1,1637,1079,0,0
420,-55,0,0,0,0,0,0,0,0,0,-1,1644,1079,0,0
427,-55,0,0,0,0,0,0,0,0,0,-1,1651,1079,0,0
434,-55,0,0,0,0,0,0,0,0,0,-1,1658,1079,0,0
441,-55,0,0,0,0,0,0,0,0,0,-1,1665,1079,0,0
448,-55,0,0,0,0,0,0,0,0,0,-1,1672,1079,0,0
455,-55,0,0,0,0,0,0,0,0,0,-1,1679,1079,0,0
462,-55,0,0,0,0,0,0,0,0,0,-1,1686,1079,0,0
469,-55,0,0,0,0,0,0,0,0,0,-1,1693,1079,0,0
476,-55,0,0,0,0,0,0,0,0,0,-1,1700,1079,0,0
483,-55,0,0,0,0,0,0,0,0,0,-1,1707,1079,0,0
490,-55,0,0,0,0,0,0,0,0,0,-1,1714,1079,0,0
497,-55,0,0,0,0,0,0,0,0,0,-1,1721,1079,0,0
504,-55,0,0,0,0,0,0,0,0,0,-1,1728,1079,0,0
511,-55,0,0,0,0,0,0,0,0,0,-1,1735,1079,0,0
518,-55,0,0,0,0,0,0,0,0,0,-1,1742,1079,0,0
525,-55,0,0,0,0,0,0,0,0,0,-1,1749,1079,0,0
532,-55,0,0,0,0,0,0,0,0,0,-1,1756,1079,0,0
539,-55,0,0,0,0,0,0,0,0,0,-1,1763,1079,0,0
546,-55,0,0,0,0,0,0,0,0,0,-1,1770,1079,0,0
553,-55,0,0,0,0,0,0,0,0,0,-1,1777,1079,0,0
560,-55,0,0,0,0,0,0,0,0,0,-1,1784,1079,0,0
567,-55,0,0,0,0,0,0,0,0,0,-1,1791,1079,0,0
574,-55,0,0,0,0,0,0,0,0,0,-1,1798,1079,0,0
581,-55,0,0,0,0,0,0,0,0,0,-1,1805,1079,0,0
588,-55,0,0,0,0,0,0,0,0,0,-1,1812,1079,0,0
595,-55,0,0,0,0,0,0,0,0,0,-1,1819,1079,0,0
602,-55,0,0,0,0,0,0,0,0,0,-1,1826,1079,0,0
609,-55,0,0,0,0,0,0,0,0,0,-1,1833,1079,0,0
616,-55,0,0,0,0,0,0,0,0,0,-1,1840,1079,0,0
623,-55,0,0,0,0,0,0,0,0,0,-1,1847,1079,0,0
630,-55,0,0,0,0,0,0,0,0,0,-1,1854,1079,0,0
637,-55,0,0,0,0,0,0,0,0,0,-1,1861,1079,0,0
644,-55,0,0,0,0,0,0,0,0,0,-1,1868,1079,0,0
651,-55,158.855,5.50098,0,0,0,0,0,0,0,-1,1875,1079,158.855,-5.50103
658,-55,159.017,5.52979,0,0,0,0,0,0,0,-1,1882,1079,159.017,-5.52978
665,-55,158.901,5.43506,0,0,0,0,0,0,0,-1,1889,1079,158.901,-5.43505
672,-55,158.99,5.39038,0,0,0,0,0,0,0,-1,1896,1079,158.99,-5.39043
679,-55,159.169,5.41785,0,0,0,0,0,0,0,-1,1903,1079,159.169,-5.41783
686,-55,159.07,5.37817,0,0,0,0,0,0,0,-1,1910,1079,159.07,-5.37816
693,-55,158.946,5.27295,0,0,0,0,0,0,0,-1,1917,1079,158.946,-5.27295
700,-55,159.011,5.32532,0,0,0,0,0,0,0,-1,1924,1079,159.011,-5.32536
707,-55,159.137,5.35168,0,0,0,0,0,0,0,-1,1931,1079,159.137,-5.35168
714,-55,159.054,5.30261,0,0,0,0,0,0,0,-1,1938,1079,159.055,-5.30262
721,-55,158.987,5.26929,0,0,0,0,0,0,0,-1,1945,1079,158.987,-5.26931
728,-55,160.436,25.7069,0,0,0,0,0,0,0,-1,1952,1079,160.436,-25.7069
735,-55,160.395,25.3512,-0.00230697,-0.0115234,0.00214837,-0.00183079,-0.0119996,0.218123,0.00746471,0.0261763,1959,1079,160.395,-25.3512
742,-55,160.406,25.0642,-0.00699687,-0.00381513,0.00243568,-0.00249681,-0.00831519,1.07469,0.0049268,0.0237569,1966,1079,160.406,-25.0642
749,-55,160.389,24.7467,-0.0115389,0.00378789,0.0027459,0.00426499,-0.012016,1.39877,0.00974844,0.017983,1973,1079,160.389,-24.7467
756,-55,160.262,24.3967,-0.0158709,0.0112566,0.00305717,0.0115969,-0.0162111,1.45995,0.0161285,0.0171613,1980,1079,160.262,-24.3967
763,-55,160.13,24.0997,-0.0199241,0.0185593,0.00334864,0.0188485,-0.0202133,1.48464,0.0225569,0.0197358,1987,1079,160.13,-24.0997
770,-55,159.958,23.7852,-0.0236239,0.0256622,0.00360019,0.0259238,-0.0238855,1.49826,0.0287654,0.0221005,1994,1079,159.958,-23.7852
777,-55,159.748,23.5118,-0.0268904,0.0325295,0.00379216,0.0327706,-0.0271314,1.50732,0.0346355,0.0193528,2001,1079,159.748,-23.5118
784,-55,159.65,23.1973,-0.0296398,0.0391246,0.00390523,0.0393457,-0.0298609,1.51425,0.0400813,0.0365543,2008,1079,159.65,-23.1973
791,-55,159.578,22.8499,0,0,0,0,0,0,0,-1,2015,1079,159.578,-22.8499
798,-55,154.99,20.4393,0,0,0,0,0,0,0,-1,2022,1079,154.989,-20.4393
805,-55,144.886,17.7817,0,0,0,0,0,0,0,-1,2029,1079,144.886,-17.7818
812,-55,144.398,16.9786,0,0,0,0,0,0,0,-1,2036,1079,144.398,-16.9786
-700,-62,-85.9905,-1.22083,0,0,0,0,0,0,0,-1,524,1086,-85.9906,1.22079
-693,-62,-86.1433,0.277466,0,0,0,0,0,0,0,-1,531,1086,-86.1434,-0.277479
-686,-62,-88.9893,5.4032,0,0,0,0,0,0,0,-1,538,1086,-88.9893,-5.40321
-679,-62,-85.3067,3.15723,0,0,0,0,0,0,0,-1,545,1086,-85.3067,-3.15717
-672,-62,-84.727,4.49841,0,0,0,0,0,0,0,-1,552,1086,-84.727,-4.4984
-665,-62,-84.3833,2.66711,0,0,0,0,0,0,0,-1,559,1086,-84.3833,-2.66709
-658,-62,-84.1052,2.85754,0,0,0,0,0,0,0,-1,566,1086,-84.1052,-2.8576
-651,-62,-149.476,22.8375,0,0,0,0,0,0,0,-1,573,1086,-149.476,-22.8376
-644,-62,-150.993,23.9646,0,0,0,0,0,0,0,-1,580,1086,-150.993,-23.9647
-637,-62,-150.961,24.2598,-0.0153223,0.0274419,-0.000685035,0.0274529,-0.0153333,-1.55478,0.0250308,0.0221913,587,1086,-150.961,-24.2597
-630,-62,-151.028,24.5942,-0.0100661,0.0191266,-0.000873514,0.0191527,-0.0100922,-1.54091,0.0171525,0.0201267,594,1086,-151.028,-24.5943
-623,-62,-150.977,24.989,-0.00488441,0.010869,-0.00117631,0.0109563,-0.00497176,-1.49667,0.00940998,0.0222366,601,1086,-150.977,-24.989
-616,-62,-150.947,25.3121,0.000267359,0.00265667,-0.00160101,0.00345962,-0.000535589,-1.10593,0.00250411,0.0206742,608,1086,-150.947,-25.3121
-609,-62,-150.943,25.6154,0.0054348,-0.00552058,-0.00215445,0.00584326,-0.00592904,-0.187365,0.0067968,0.0193535,615,1086,-150.943,-25.6154
-602,-62,-150.93,25.931,0.0106642,-0.0136711,-0.00284295,0.010992,-0.0139988,-0.114765,0.0144632,0.0211353,622,1086,-150.93,-25.931
-595,-62,-150.651,26.3583,0.0160027,-0.0218013,-0.00367235,0.0163561,-0.0221547,-0.0959468,0.0223181,0.0298809,629,1086,-150.651,-26.3582
-588,-62,-150.167,26.7086,0,0,0,0,0,0,0,-1,636,1086,-150.167,-26.7086
-581,-62,-72.1781,0.615723,0,0,0,0,0,0,0,-1,643,1086,-72.1781,-0.615709
-574,-62,-72.2164,0.539185,0,0,0,0,0,0,0,-1,650,1086,-72.2164,-0.539192
-567,-62,-72.2147,0.359985,0,0,0,0,0,0,0,-1,657,1086,-72.2147,-0.360028
-560,-62,-72.1146,0.307617,0,0,0,0,0,0,0,-1,664,1086,-72.1146,-0.307569
-553,-62,-72.0814,0.354126,0,0,0,0,0,0,0,-1,671,1086,-72.0814,-0.354185
-546,-62,-72.1473,0.42334,0,0,0,0,0,0,0,-1,678,1086,-72.1473,-0.423366
-539,-62,-72.1967,0.42981,0,0,0,0,0,0,0,-1,685,1086,-72.1967,-0.429812
-532,-62,-72.1149,0.448608,0,0,0,0,0,0,0,-1,692,1086,-72.1149,-0.448575
-525,-62,0,0,0,0,0,0,0,0,0,-1,699,1086,0,0
-518,-62,0,0,0,0,0,0,0,0,0,-1,706,1086,0,0
-511,-62,0,0,0,0,0,0,0,0,0,-1,713,1086,0,0
-504,-62,0,0,0,0,0,0,0,0,0,-1,720,1086,0,0
-497,-62,0,0,0,0,0,0,0,0,0,-1,727,1086,0,0
-490,-62,0,0,0,0,0,0,0,0,0,-1,734,1086,0,0
-483,-62,0,0,0,0,0,0,0,0,0,-1,741,1086,0,0
-476,-62,0,0,0,0,0,0,0,0,0,-1,748,1086,0,0
-469,-62,0,0,0,0,0,0,0,0,0,-1,755,1086,0,0
-462,-62,0,0,0,0,0,0,0,0,0,-1,762,1086,0,0
-455,-62,0,0,0,0,0,0,0,0,0,-1,769,1086,0,0
-448,-62,0,0,0,0,0,0,0,0,0,-1,776,1086,0,0
-441,-62,0,0,0,0,0,0,0,0,0,-1,783,1086,0,0
-434,-62,0,0,0,0,0,0,0,0,0,-1,790,1086,0,0
-427,-62,0,0,0,0,0,0,0,0,0,-1,797,1086,0,0
-420,-62,0,0,0,0,0,0,0,0,0,-1,804,1086,0,0
-413,-62,0,0,0,0,0,0,0,0,0,-1,811,1086,0,0
-406,-62,0,0,0,0,0,0,0,0,0,-1,818,1086,0,0
-399,-62,0,0,0,0,0,0,0,0,0,-1,825,1086,0,0
-392,-62,0,0,0,0,0,0,0,0,0,-1,832,1086,0,0
-385,-62,0,0,0,0,0,0,0,0,0,-1,839,1086,0,0
-378,-62,0,0,0,0,0,0,0,0,0,-1,846,1086,0,0
-371,-62,0,0,0,0,0,0,0,0,0,-1,853,1086,0,0
-364,-62,0,0,0,0,0,0,0,0,0,-1,860,1086,0,0
-357,-62,0,0,0,0,0,0,0,0,0,-1,867,1086,0,0
-350,-62,0,0,0,0,0,0,0,0,0,-1,874,1086,0,0
-343,-62,0,0,0,0,0,0,0,0,0,-1,881,1086,0,0
-336,-62,0,0,0,0,0,0,0,0,0,-1,888,1086,0,0
-329,-62,0,0,0,0,0,0,0,0,0,-1,895,1086,0,0
-322,-62,0,0,0,0,0,0,0,0,0,-1,902,1086,0,0
-315,-62,0,0,0,0,0,0,0,0,0,-1,909,1086,0,0
-308,-62,0,0,0,0,0,0,0,0,0,-1,916,1086,0,0
-301,-62,0,0,0,0,0,0,0,0,0,-1,923,1086,0,0
-294,-62,0,0,0,0,0,0,0,0,0,-1,930,1086,0,0
-287,-62,0,0,0,0,0,0,0,0,0,-1,937,1086,0,0
-280,-62,0,0,0,0,0,0,0,0,0,-1,944,1086,0,0
-273,-62,0,0,0,0,0,0,0,0,0,-1,951,1086,0,0
-266,-62,0,0,0,0,0,0,0,0,0,-1,958,1086,0,0
-259,-62,0,0,0,0,0,0,0,0,0,-1,965,1086,0,0
-252,-62,0,0,0,0,0,0,0,0,0,-1,972,1086,0,0
-245,-62,0,0,0,0,0,0,0,0,0,-1,979,1086,0,0
-238,-62,0,0,0,0,0,0,0,0,0,-1,986,1086,0,0
-231,-62,0,0,0,0,0,0,0,0,0,-1,993,1086,0,0
-224,-62,0,0,0,0,0,0,0,0,0,-1,1000,1086,0,0
-217,-62,0,0,0,0,0,0,0,0,0,-1,1007,1086,0,0
-210,-62,0,0,0,0,0,0,0,0,0,-1,1014,1086,0,0
-203,-62,0,0,0,0,0,0,0,0,0,-1,1021,1086,0,0
-196,-62,0,0,0,0,0,0,0,0,0,-1,1028,1086,0,0
-189,-62,0,0,0,0,0,0,0,0,0,-1,1035,1086,0,0
-182,-62,0,0,0,0,0,0,0,0,0,-1,1042,1086,0,0
-175,-62,0,0,0,0,0,0,0,0,0,-1,1049,1086,0,0
-168,-62,0,0,0,0,0,0,0,0,0,-1,1056,1086,0,0
-161,-62,0,0,0,0,0,0,0,0,0,-1,1063,1086,0,0
-154,-62,0,0,0,0,0,0,0,0,0,-1,1070,1086,0,0
-147,-62,0,0,0,0,0,0,0,0,0,-1,1077,1086,0,0
-140,-62,0,0,0,0,0,0,0,0,0,-1,1084,1086,0,0
-133,-62,0,0,0,0,0,0,0,0,0,-1,1091,1086,0,0
-126,-62,0,0,0,0,0,0,0,0,0,-1,1098,1086,0,0
-119,-62,0,0,0,0,0,0,0,0,0,-1,1105,1086,0,0
-112,-62,0,0,0,0,0,0,0,0,0,-1,1112,1086,0,0
-105,-62,0,0,0,0,0,0,0,0,0,-1,1119,1086,0,0
-98,-62,0,0,0,0,0,0,0,0,0,-1,1126,1086,0,0
-91,-62,0,0,0,0,0,0,0,0,0,-1,1133,1086,0,0
-84,-62,0,0,0,0,0,0,0,0,0,-1,1140,1086,0,0
-77,-62,0,0,0,0,0,0,0,0,0,-1,1147,1086,0,0
-70,-62,0,0,0,0,0,0,0,0,0,-1,1154,1086,0,0
-63,-62,0,0,0,0,0,0,0,0,0,-1,1161,1086,0,0
-56,-62,0,0,0,0,0,0,0,0,0,-1,1168,1086,0,0
-49,-62,0,0,0,0,0,0,0,0,0,-1,1175,1086,0,0
-42,-62,0,0,0,0,0,0,0,0,0,-1,1182,1086,0,0
-35,-62,0,0,0,0,0,0,0,0,0,-1,1189,1086,0,0
-28,-62,0,0,0,0,0,0,0,0,0,-1,1196,1086,0,0
-21,-62,0,0,0,0,0,0,0,0,0,-1,1203,1086,0,0
-14,-62,0,0,0,0,0,0,0,0,0,-1,1210,1086,0,0
-7,-62,0,0,0,0,0,0,0,0,0,-1,1217,1086,0,0
0,-62,0,0,0,0,0,0,0,0,0,-1,1224,1086,0,0
7,-62,0,0,0,0,0,0,0,0,0,-1,1231,1086,0,0
14,-62,0,0,0,0,0,0,0,0,0,-1,1238,1086,0,0
21,-62,0,0,0,0,0,0,0,0,0,-1,1245,1086,0,0
28,-62,0,0,0,0,0,0,0,0,0,-1,1252,1086,0,0
35,-62,0,0,0,0,0,0,0,0,0,-1,1259,1086,0,0
42,-62,0,0,0,0,0,0,0,0,0,-1,1266,1086,0,0
49,-62,0,0,0,0,0,0,0,0,0,-1,1273,1086,0,0
56,-62,0,0,0,0,0,0,0,0,0,-1,1280,1086,0,0
63,-62,0,0,0,0,0,0,0,0,0,-1,1287,1086,0,0
70,-62,0,0,0,0,0,0,0,0,0,-1,1294,1086,0,0
77,-62,0,0,0,0,0,0,0,0,0,-1,1301,1086,0,0
84,-62,0,0,0,0,0,0,0,0,0,-1,1308,1086,0,0
91,-62,0,0,0,0,0,0,0,0,0,-1,1315,1086,0,0
98,-62,0,0,0,0,0,0,0,0,0,-1,1322,1086,0,0
105,-62,0,0,0,0,0,0,0,0,0,-1,1329,1086,0,0
112,-62,0,0,0,0,0,0,0,0,0,-1,1336,1086,0,0
119,-62,0,0,0,0,0,0,0,0,0,-1,1343,1086,0,0
126,-62,0,0,0,0,0,0,0,0,0,-1,1350,1086,0,0
133,-62,0,0,0,0,0,0,0,0,0,-1,1357,1086,0,0
140,-62,0,0,0,0,0,0,0,0,0,-1,1364,1086,0,0
147,-62,0,0,0,0,0,0,0,0,0,-1,1371,1086,0,0
154,-62,0,0,0,0,0,0,0,0,0,-1,1378,1086,0,0
161,-62,0,0,0,0,0,0,0,0,0,-1,1385,1086,0,0
168,-62,0,0,0,0,0,0,0,0,0,-1,1392,1086,0,0
175,-62,0,0,0,0,0,0,0,0,0,-1,1399,1086,0,0
182,-62,0,0,0,0,0,0,0,0,0,-1,1406,1086,0,0
189,-62,0,0,0,0,0,0,0,0,0,-1,1413,1086,0,0
196,-62,0,0,0,0,0,0,0,0,0,-1,1420,1086,0,0
203,-62,0,0,0,0,0,0,0,0,0,-1,1427,1086,0,0
210,-62,0,0,0,0,0,0,0,0,0,-1,1434,1086,0,0
217,-62,0,0,0,0,0,0,0,0,0,-1,1441,1086,0,0
224,-62,0,0,0,0,0,0,0,0,0,-1,1448,1086,0,0
231,-62,0,0,0,0,0,0,0,0,0,-1,1455,1086,0,0
238,-62,0,0,0,0,0,0,0,0,0,-1,1462,1086,0,0
245,-62,0,0,0,0,0,0,0,0,0,-1,1469,1086,0,0
252,-62,0,0,0,0,0,0,0,0,0,-1,1476,1086,0,0
259,-62,0,0,0,0,0,0,0,0,0,-1,1483,1086,0,0
266,-62,0,0,0,0,0,0,0,0,0,-1,1490,1086,0,0
273,-62,0,0,0,0,0,0,0,0,0,-1,1497,1086,0,0
280,-62,0,0,0,0,0,0,0,0,0,-1,1504,1086,0,0
287,-62,0,0,0,0,0,0,0,0,0,-1,1511,1086,0,0
294,-62,0,0,0,0,0,0,0,0,0,-1,1518,1086,0,0
301,-62,0,0,0,0,0,0,0,0,0,-1,1525,1086,0,0
308,-62,0,0,0,0,0,0,0,0,0,-1,1532,1086,0,0
315,-62,0,0,0,0,0,0,0,0,0,-1,1539,1086,0,0
322,-62,0,0,0,0,0,0,0,0,0,-1,1546,1086,0,0
329,-62,0,0,0,0,0,0,0,0,0,-1,1553,1086,0,0
336,-62,0,0,0,0,0,0,0,0,0,-1,1560,1086,0,0
343,-62,0,0,0,0,0,0,0,0,0,-1,1567,1086,0,0
350,-62,0,0,0,0,0,0,0,0,0,-1,1574,1086,0,0
357,-62,0,0,0,0,0,0,0,0,0,-1,1581,1086,0,0
364,-62,0,0,0,0,0,0,0,0,0,-1,1588,1086,0,0
371,-62,0,0,0,0,0,0,0,0,0,-1,1595,1086,0,0
378,-62,0,0,0,0,0,0,0,0,0,-1,1602,1086,0,0
385,-62,0,0,0,0,0,0,0,0,0,-1,1609,1086,0,0
392,-62,0,0,0,0,0,0,0,0,0,-1,1616,1086,0,0
399,-62,0,0,0,0,0,0,0,0,0,-1,1623,1086,0,0
406,-62,0,0,0,0,0,0,0,0,0,-1,1630,1086,0,0
413,-62,0,0,0,0,0,0,0,0,0,-1,1637,1086,0,0
420,-62,0,0,0,0,0,0,0,0,0,-1,1644,1086,0,0
427,-62,0,0,0,0,0,0,0,0,0,-1,1651,1086,0,0
434,-62,0,0,0,0,0,0,0,0,0,-1,1658,1086,0,0
441,-62,0,0,0,0,0,0,0,0,0,-1,1665,1086,0,0
448,-62,0,0,0,0,0,0,0,0,0,-1,1672,1086,0,0
455,-62,0,0,0,0,0,0,0,0,0,-1,1679,1086,0,0
462,-62,0,0,0,0,0,0,0,0,0,-1,1686,1086,0,0
469,-62,0,0,0,0,0,0,0,0,0,-1,1693,1086,0,0
476,-62,0,0,0,0,0,0,0,0,0,-1,1700,1086,0,0
483,-62,0,0,0,0,0,0,0,0,0,-1,1707,1086,0,0
490,-62,0,0,0,0,0,0,0,0,0,-1,1714,1086,0,0
497,-62,0,0,0,0,0,0,0,0,0,-1,1721,1086,0,0
504,-62,0,0,0,0,0,0,0,0,0,-1,1728,1086,0,0
511,-62,0,0,0,0,0,0,0,0,0,-1,1735,1086,0,0
518,-62,0,0,0,0,0,0,0,0,0,-1,1742,1086,0,0
525,-62,0,0,0,0,0,0,0,0,0,-1,1749,1086,0,0
532,-62,0,0,0,0,0,0,0,0,0,-1,1756,1086,0,0
539,-62,0,0,0,0,0,0,0,0,0,-1,1763,1086,0,0
546,-62,0,0,0,0,0,0,0,0,0,-1,1770,1086,0,0
553,-62,0,0,0,0,0,0,0,0,0,-1,1777,1086,0,0
560,-62,0,0,0,0,0,0,0,0,0,-1,1784,1086,0,0
567,-62,0,0,0,0,0,0,0,0,0,-1,1791,1086,0,0
574,-62,0,0,0,0,0,0,0,0,0,-1,1798,1086,0,0
581,-62,0,0,0,0,0,0,0,0,0,-1,1805,1086,0,0
588,-62,0,0,0,0,0,0,0,0,0,-1,1812,1086,0,0
595,-62,0,0,0,0,0,0,0,0,0,-1,1819,1086,0,0
602,-62,0,0,0,0,0,0,0,0,0,-1,1826,1086,0,0
609,-62,0,0,0,0,0,0,0,0,0,-1,1833,1086,0,0
616,-62,0,0,0,0,0,0,0,0,0,-1,1840,1086,0,0
623,-62,0,0,0,0,0,0,0,0,0,-1,1847,1086,0,0
630,-62,0,0,0,0,0,0,0,0,0,-1,1854,1086,0,0
637,-62,0,0,0,0,0,0,0,0,0,-1,1861,1086,0,0
644,-62,0,0,0,0,0,0,0,0,0,-1,1868,1086,0,0
651,-62,158.763,5.65747,0,0,0,0,0,0,0,-1,1875,1086,158.763,-5.65749
658,-62,158.872,5.68091,0,0,0,0,0,0,0,-1,1882,1086,158.872,-5.68086
665,-62,159.036,5.38257,0,0,0,0,0,0,0,-1,1889,1086,159.036,-5.38261
672,-62,159.004,5.24731,0,0,0,0,0,0,0,-1,1896,1086,159.004,-5.24727
679,-62,159.124,5.3241,0,0,0,0,0,0,0,-1,1903,1086,159.123,-5.32413
686,-62,158.983,5.25415,0,0,0,0,0,0,0,-1,1910,1086,158.983,-5.25419
693,-62,158.938,5.20203,0,0,0,0,0,0,0,-1,1917,1086,158.938,-5.20206
700,-62,159.065,5.30579,0,0,0,0,0,0,0,-1,1924,1086,159.065,-5.30584
707,-62,159.067,5.33093,0,0,0,0,0,0,0,-1,1931,1086,159.067,-5.33091
714,-62,158.989,5.08862,0,0,0,0,0,0,0,-1,1938,1086,158.989,-5.08861
721,-62,158.86,4.64905,0,0,0,0,0,0,0,-1,1945,1086,158.86,-4.64899
728,-62,160.058,25.9117,0,0,0,0,0,0,0,-1,1952,1086,160.058,-25.9118
735,-62,160.086,25.415,-0.0010845,-0.0121988,0.00256566,-0.000520823,-0.0127625,0.216265,0.00834013,0.0301905,1959,1086,160.087,-25.4151
742,-62,160.131,25.1385,-0.00604605,-0.00433186,0.00282268,-0.00223902,-0.00813889,0.932798,0.00485485,0.035652,1966,1086,160.131,-25.1385
749,-62,160.129,24.9103,0,0,0,0,0,0,0,-1,1973,1086,160.129,-24.9103
756,-62,159.838,24.3756,-0.0155762,0.0110042,0.00344686,0.0114439,-0.016016,1.44392,0.0159271,0.0197753,1980,1086,159.838,-24.3756
763,-62,159.728,23.9803,-0.0200135,0.0184248,0.00377258,0.0187915,-0.0203803,1.47388,0.0226221,0.02693,1987,1086,159.728,-23.9803
770,-62,159.577,23.5775,-0.0241372,0.0256467,0.0040813,0.0259791,-0.0244695,1.48954,0.0291309,0.0280049,1994,1086,159.577,-23.5775
777,-62,159.244,23.188,-0.0278707,0.032644,0.00435451,0.0329557,-0.0281824,1.49933,0.035334,0.0277561,2001,1086,159.244,-23.188
784,-62,159.27,22.8077,-0.0311061,0.0393867,0.00457071,0.0396819,-0.0314013,1.50632,0.0411326,0.0366654,2008,1086,159.27,-22.8077
791,-62,159.296,22.4849,0,0,0,0,0,0,0,-1,2015,1086,159.296,-22.4849
798,-62,145.367,17.0892,0,0,0,0,0,0,0,-1,2022,1086,145.367,-17.0892
805,-62,143.891,17.6748,0,0,0,0,0,0,0,-1,2029,1086,143.891,-17.6749
812,-62,143.176,17.629,0,0,0,0,0,0,0,-1,2036,1086,143.175,-17.629
-700,-69,-84.8301,-0.922119,0,0,0,0,0,0,0,-1,524,1093,-84.8301,0.922103
-693,-69,-85.0201,0.548096,0,0,0,0,0,0,0,-1,531,1093,-85.0201,-0.548078
-686,-69,-85.1974,2.0426,0,0,0,0,0,0,0,-1,538,1093,-85.1974,-2.04259
-679,-69,-85.5246,3.56934,0,0,0,0,0,0,0,-1,545,1093,-85.5246,-3.56928
-672,-69,-83.949,2.89832,0,0,0,0,0,0,0,-1,552,1093,-83.949,-2.89829
-665,-69,-83.4005,3.32349,0,0,0,0,0,0,0,-1,559,1093,-83.4005,-3.32348
-658,-69,-82.7957,3.74512,0,0,0,0,0,0,0,-1,566,1093,-82.7957,-3.74516
-651,-69,-91.5511,10.6301,0,0,0,0,0,0,0,-1,573,1093,-91.5511,-10.6301
-644,-69,-150.549,23.7203,0,0,0,0,0,0,0,-1,580,1093,-150.549,-23.7204
-637,-69,-150.493,24.1569,-0.0156675,0.0266627,-0.00100658,0.0266866,-0.0156914,-1.54703,0.0247399,0.0272079,587,1093,-150.493,-24.1569
-630,-69,-150.581,24.5233,-0.010432,0.0185745,-0.00104925,0.0186124,-0.0104699,-1.53469,0.0170086,0.0185824,594,1093,-150.581,-24.5233
-623,-69,-150.513,24.8654,-0.0052886,0.0105612,-0.00117939,0.0106485,-0.00537588,-1.49693,0.00941712,0.0254519,601,1093,-150.513,-24.8654
-616,-69,-150.542,25.2192,-0.000185967,0.00260607,-0.00140897,0.00319349,-0.000773394,-1.17579,0.0024282,0.0333726,608,1093,-150.542,-25.2192
-609,-69,-150.656,25.6008,0.00492838,-0.00530516,-0.00174902,0.00521905,-0.00559583,-0.164685,0.00624524,0.0261478,615,1093,-150.656,-25.6008
-602,-69,-150.581,26.004,0.0101081,-0.0131845,-0.00221008,0.0103159,-0.0133924,-0.0937685,0.0137264,0.0248712,622,1093,-150.581,-26.004
-595,-69,-150.373,26.3403,0.0154079,-0.0210421,-0.00280244,0.0156221,-0.0212563,-0.0762869,0.0213745,0.0325093,629,1093,-150.373,-26.3403
-588,-69,-150.175,26.7561,0,0,0,0,0,0,0,-1,636,1093,-150.175,-26.7561
-581,-69,-72.1123,0.543701,0,0,0,0,0,0,0,-1,643,1093,-72.1123,-0.543654
-574,-69,-72.1184,0.475464,0,0,0,0,0,0,0,-1,650,1093,-72.1184,-0.475443
-567,-69,-72.0325,0.365845,0,0,0,0,0,0,0,-1,657,1093,-72.0325,-0.365815
-560,-69,-72.1545,0.69043,0,0,0,0,0,0,0,-1,664,1093,-72.1545,-0.690484
-553,-69,-72.1738,0.429199,0,0,0,0,0,0,0,-1,671,1093,-72.1738,-0.429245
-546,-69,-72.1447,0.32312,0,0,0,0,0,0,0,-1,678,1093,-72.1447,-0.323069
-539,-69,-72.1819,0.331909,0,0,0,0,0,0,0,-1,685,1093,-72.1819,-0.331935
-532,-69,-72.0621,0.311523,0,0,0,0,0,0,0,-1,692,1093,-72.0621,-0.31155
-525,-69,0,0,0,0,0,0,0,0,0,-1,699,1093,0,0
-518,-69,0,0,0,0,0,0,0,0,0,-1,706,1093,0,0
-511,-69,0,0,0,0,0,0,0,0,0,-1,713,1093,0,0
-504,-69,0,0,0,0,0,0,0,0,0,-1,720,1093,0,0
-497,-69,0,0,0,0,0,0,0,0,0,-1,727,1093,0,0
-490,-69,0,0,0,0,0,0,0,0,0,-1,734,1093,0,0
-483,-69,0,0,0,0,0,0,0,0,0,-1,741,1093,0,0
-476,-69,0,0,0,0,0,0,0,0,0,-1,748,1093,0,0
-469,-69,0,0,0,0,0,0,0,0,0,-1,755,1093,0,0
-462,-69,0,0,0,0,0,0,0,0,0,-1,762,1093,0,0
-455,-69,0,0,0,0,0,0,0,0,0,-1,769,1093,0,0
-448,-69,0,0,0,0,0,0,0,0,0,-1,776,1093,0,0
-441,-69,0,0,0,0,0,0,0,0,0,-1,783,1093,0,0
-434,-69,0,0,0,0,0,0,0,0,0,-1,790,1093,0,0
-427,-69,0,0,0,0,0,0,0,0,0,-1,797,1093,0,0
-420,-69,0,0,0,0,0,0,0,0,0,-1,804,1093,0,0
-413,-69,0,0,0,0,0,0,0,0,0,-1,811,1093,0,0
-406,-69,0,0,0,0,0,0,0,0,0,-1,818,1093,0,0
-399,-69,0,0,0,0,0,0,0,0,0,-1,825,1093,0,0
-392,-69,0,0,0,0,0,0,0,0,0,-1,832,1093,0,0
-385,-69,0,0,0,0,0,0,0,0,0,-1,839,1093,0,0
-378,-69,0,0,0,0,0,0,0,0,0,-1,846,1093,0,0
-371,-69,0,0,0,0,0,0,0,0,0,-1,853,1093,0,0
-364,-69,0,0,0,0,0,0,0,0,0,-1,860,1093,0,0
-357,-69,0,0,0,0,0,0,0,0,0,-1,867,1093,0,0
-350,-69,0,0,0,0,0,0,0,0,0,-1,874,1093,0,0
-343,-69,0,0,0,0,0,0,0,0,0,-1,881,1093,0,0
-336,-69,0,0,0,0,0,0,0,0,0,-1,888,1093,0,0
-329,-69,0,0,0,0,0,0,0,0,0,-1,895,1093,0,0
-322,-69,0,0,0,0,0,0,0,0,0,-1,902,1093,0,0
-315,-69,0,0,0,0,0,0,0,0,0,-1,909,1093,0,0
-308,-69,0,0,0,0,0,0,0,0,0,-1,916,1093,0,0
-301,-69,0,0,0,0,0,0,0,0,0,-1,923,1093,0,0
-294,-69,0,0,0,0,0,0,0,0,0,-1,930,1093,0,0
-287,-69,0,0,0,0,0,0,0,0,0,-1,937,1093,0,0
-280,-69,0,0,0,0,0,0,0,0,0,-1,944,1093,0,0
-273,-69,0,0,0,0,0,0,0,0,0,-1,951,1093,0,0
-266,-69,0,0,0,0,0,0,0,0,0,-1,958,1093,0,0
-259,-69,0,0,0,0,0,0,0,0,0,-1,965,1093,0,0
-252,-69,0,0,0,0,0,0,0,0,0,-1,972,1093,0,0
-245,-69,0,0,0,0,0,0,0,0,0,-1,979,1093,0,0
-238,-69,0,0,0,0,0,0,0,0,0,-1,986,1093,0,0
-231,-69,0,0,0,0,0,0,0,0,0,-1,993,1093,0,0
-224,-69,0,0,0,0,0,0,0,0,0,-1,1000,1093,0,0
-217,-69,0,0,0,0,0,0,0,0,0,-1,1007,1093,0,0
-210,-69,0,0,0,0,0,0,0,0,0,-1,1014,1093,0,0
-203,-69,0,0,0,0,0,0,0,0,0,-1,1021,1093,0,0
-196,-69,0,0,0,0,0,0,0,0,0,-1,1028,1093,0,0
-189,-69,0,0,0,0,0,0,0,0,0,-1,1035,1093,0,0
-182,-69,0,0,0,0,0,0,0,0,0,-1,1042,1093,0,0
-175,-69,0,0,0,0,0,0,0,0,0,-1,1049,1093,0,0
-168,-69,0,0,0,0,0,0,0,0,0,-1,1056,1093,0,0
-161,-69,0,0,0,0,0,0,0,0,0,-1,1063,1093,0,0
-154,-69,0,0,0,0,0,0,0,0,0,-1,1070,1093,0,0
-147,-69,0,0,0,0,0,0,0,0,0,-1,1077,1093,0,0
-140,-69,0,0,0,0,0,0,0,0,0,-1,1084,1093,0,0
-133,-69,0,0,0,0,0,0,0,0,0,-1,1091,1093,0,0
-126,-69,0,0,0,0,0,0,0,0,0,-1,1098,1093,0,0
-119,-69,0,0,0,0,0,0,0,0,0,-1,1105,1093,0,0
-112,-69,0,0,0,0,0,0,0,0,0,-1,1112,1093,0,0
-105,-69,0,0,0,0,0,0,0,0,0,-1,1119,1093,0,0
-98,-69,0,0,0,0,0,0,0,0,0,-1,1126,1093,0,0
-91,-69,0,0,0,0,0,0,0,0,0,-1,1133,1093,0,0
-84,-69,0,0,0,0,0,0,0,0,0,-1,1140,1093,0,0
-77,-69,0,0,0,0,0,0,0,0,0,-1,1147,1093,0,0
-70,-69,0,0,0,0,0,0,0,0,0,-1,1154,1093,0,0
-63,-69,0,0,0,0,0,0,0,0,0,-1,1161,1093,0,0
-56,-69,0,0,0,0,0,0,0,0,0,-1,1168,1093,0,0
-49,-69,0,0,0,0,0,0,0,0,0,-1,1175,1093,0,0
-42,-69,0,0,0,0,0,0,0,0,0,-1,1182,1093,0,0
-35,-69,0,0,0,0,0,0,0,0,0,-1,1189,1093,0,0
-28,-69,0,0,0,0,0,0,0,0,0,-1,1196,1093,0,0
-21,-69,0,0,0,0,0,0,0,0,0,-1,1203,1093,0,0
-14,-69,0,0,0,0,0,0,0,0,0,-1,1210,1093,0,0
-7,-69,0,0,0,0,0,0,0,0,0,-1,1217,1093,0,0
0,-69,0,0,0,0,0,0,0,0,0,-1,1224,1093,0,0
7,-69,0,0,0,0,0,0,0,0,0,-1,1231,1093,0,0
14,-69,0,0,0,0,0,0,0,0,0,-1,1238,1093,0,0
21,-69,0,0,0,0,0,0,0,0,0,-1,1245,1093,0,0
28,-69,0,0,0,0,0,0,0,0,0,-1,1252,1093,0,0
35,-69,0,0,0,0,0,0,0,0,0,-1,1259,1093,0,0
42,-69,0,0,0,0,0,0,0,0,0,-1,1266,1093,0,0
49,-69,0,0,0,0,0,0,0,0,0,-1,1273,1093,0,0
56,-69,0,0,0,0,0,0,0,0,0,-1,1280,1093,0,0
63,-69,0,0,0,0,0,0,0,0,0,-1,1287,1093,0,0
70,-69,0,0,0,0,0,0,0,0,0,-1,1294,1093,0,0
77,-69,0,0,0,0,0,0,0,0,0,-1,1301,1093,0,0
84,-69,0,0,0,0,0,0,0,0,0,-1,1308,1093,0,0
91,-69,0,0,0,0,0,0,0,0,0,-1,1315,1093,0,0
98,-69,0,0,0,0,0,0,0,0,0,-1,1322,1093,0,0
105,-69,0,0,0,0,0,0,0,0,0,-1,1329,1093,0,0
112,-69,0,0,0,0,0,0,0,0,0,-1,1336,1093,0,0
119,-69,0,0,0,0,0,0,0,0,0,-1,1343,1093,0,0
126,-69,0,0,0,0,0,0,0,0,0,-1,1350,1093,0,0
133,-69,0,0,0,0,0,0,0,0,0,-1,1357,1093,0,0
140,-69,0,0,0,0,0,0,0,0,0,-1,1364,1093,0,0
147,-69,0,0,0,0,0,0,0,0,0,-1,1371,1093,0,0
154,-69,0,0,0,0,0,0,0,0,0,-1,1378,1093,0,0
161,-69,0,0,0,0,0,0,0,0,0,-1,1385,1093,0,0
168,-69,0,0,0,0,0,0,0,0,0,-1,1392,1093,0,0
175,-69,0,0,0,0,0,0,0,0,0,-1,1399,1093,0,0
182,-69,0,0,0,0,0,0,0,0,0,-1,1406,1093,0,0
189,-69,0,0,0,0,0,0,0,0,0,-1,1413,1093,0,0
196,-69,0,0,0,0,0,0,0,0,0,-1,1420,1093,0,0
203,-69,0,0,0,0,0,0,0,0,0,-1,1427,1093,0,0
210,-69,0,0,0,0,0,0,0,0,0,-1,1434,1093,0,0
217,-69,0,0,0,0,0,0,0,0,0,-1,1441,1093,0,0
224,-69,0,0,0,0,0,0,0,0,0,-1,1448,1093,0,0
231,-69,0,0,0,0,0,0,0,0,0,-1,1455,1093,0,0
238,-69,0,0,0,0,0,0,0,0,0,-1,1462,1093,0,0
245,-69,0,0,0,0,0,0,0,0,0,-1,1469,1093,0,0
252,-69,0,0,0,0,0,0,0,0,0,-1,1476,1093,0,0
259,-69,0,0,0,0,0,0,0,0,0,-1,1483,1093,0,0
266,-69,0,0,0,0,0,0,0,0,0,-1,1490,1093,0,0
273,-69,0,0,0,0,0,0,0,0,0,-1,1497,1093,0,0
280,-69,0,0,0,0,0,0,0,0,0,-1,1504,1093,0,0
287,-69,0,0,0,0,0,0,0,0,0,-1,1511,1093,0,0
294,-69,0,0,0,0,0,0,0,0,0,-1,1518,1093,0,0
301,-69,0,0,0,0,0,0,0,0,0,-1,1525,1093,0,0
308,-69,0,0,0,0,0,0,0,0,0,-1,1532,1093,0,0
315,-69,0,0,0,0,0,0,0,0,0,-1,1539,1093,0,0
322,-69,0,0,0,0,0,0,0,0,0,-1,1546,1093,0,0
329,-69,0,0,0,0,0,0,0,0,0,-1,1553,1093,0,0
336,-69,0,0,0,0,0,0,0,0,0,-1,1560,1093,0,0
343,-69,0,0,0,0,0,0,0,0,0,-1,1567,1093,0,0
350,-69,0,0,0,0,0,0,0,0,0,-1,1574,1093,0,0
357,-69,0,0,0,0,0,0,0,0,0,-1,1581,1093,0,0
364,-69,0,0,0,0,0,0,0,0,0,-1,1588,1093,0,0
371,-69,0,0,0,0,0,0,0,0,0,-1,1595,1093,0,0
378,-69,0,0,0,0,0,0,0,0,0,-1,1602,1093,0,0
385,-69,0,0,0,0,0,0,0,0,0,-1,1609,1093,0,0
392,-69,0,0,0,0,0,0,0,0,0,-1,1616,1093,0,0
399,-69,0,0,0,0,0,0,0,0,0,-1,1623,1093,0,0
406,-69,0,0,0,0,0,0,0,0,0,-1,1630,1093,0,0
413,-69,0,0,0,0,0,0,0,0,0,-1,1637,1093,0,0
420,-69,0,0,0,0,0,0,0,0,0,-1,1644,1093,0,0
427,-69,0,0,0,0,0,0,0,0,0,-1,1651,1093,0,0
434,-69,0,0,0,0,0,0,0,0,0,-1,1658,1093,0,0
441,-69,0,0,0,0,0,0,0,0,0,-1,1665,1093,0,0
448,-69,0,0,0,0,0,0,0,0,0,-1,1672,1093,0,0
455,-69,0,0,0,0,0,0,0,0,0,-1,1679,1093,0,0
462,-69,0,0,0,0,0,0,0,0,0,-1,1686,1093,0,0
469,-69,0,0,0,0,0,0,0,0,0,-1,1693,1093,0,0
476,-69,0,0,0,0,0,0,0,0,0,-1,1700,1093,0,0
483,-69,0,0,0,0,0,0,0,0,0,-1,1707,1093,0,0
490,-69,0,0,0,0,0,0,0,0,0,-1,1714,1093,0,0
497,-69,0,0,0,0,0,0,0,0,0,-1,1721,1093,0,0
504,-69,0,0,0,0,0,0,0,0,0,-1,1728,1093,0,0
511,-69,0,0,0,0,0,0,0,0,0,-1,1735,1093,0,0
518,-69,0,0,0,0,0,0,0,0,0,-1,1742,1093,0,0
525,-69,0,0,0,0,0,0,0,0,0,-1,1749,1093,0,0
532,-69,0,0,0,0,0,0,0,0,0,-1,1756,1093,0,0
539,-69,0,0,0,0,0,0,0,0,0,-1,1763,1093,0,0
546,-69,0,0,0,0,0,0,0,0,0,-1,1770,1093,0,0
553,-69,0,0,0,0,0,0,0,0,0,-1,1777,1093,0,0
560,-69,0,0,0,0,0,0,0,0,0,-1,1784,1093,0,0
567,-69,0,0,0,0,0,0,0,0,0,-1,1791,1093,0,0
574,-69,0,0,0,0,0,0,0,0,0,-1,1798,1093,0,0
581,-69,0,0,0,0,0,0,0,0,0,-1,1805,1093,0,0
588,-69,0,0,0,0,0,0,0,0,0,-1,1812,1093,0,0
595,-69,0,0,0,0,0,0,0,0,0,-1,1819,1093,0,0
602,-69,0,0,0,0,0,0,0,0,0,-1,1826,1093,0,0
609,-69,0,0,0,0,0,0,0,0,0,-1,1833,1093,0,0
616,-69,0,0,0,0,0,0,0,0,0,-1,1840,1093,0,0
623,-69,0,0,0,0,0,0,0,0,0,-1,1847,1093,0,0
630,-69,0,0,0,0,0,0,0,0,0,-1,1854,1093,0,0
637,-69,0,0,0,0,0,0,0,0,0,-1,1861,1093,0,0
644,-69,0,0,0,0,0,0,0,0,0,-1,1868,1093,0,0
651,-69,158.954,5.71716,0,0,0,0,0,0,0,-1,1875,1093,158.954,-5.71721
658,-69,158.974,5.68945,0,0,0,0,0,0,0,-1,1882,1093,158.974,-5.68946
665,-69,159.005,5.37109,0,0,0,0,0,0,0,-1,1889,1093,159.005,-5.37114
672,-69,159.044,5.25793,0,0,0,0,0,0,0,-1,1896,1093,159.044,-5.25799
679,-69,159.096,5.28833,0,0,0,0,0,0,0,-1,1903,1093,159.096,-5.28834
686,-69,159.063,5.26843,0,0,0,0,0,0,0,-1,1910,1093,159.063,-5.2684
693,-69,159.012,5.22888,0,0,0,0,0,0,0,-1,1917,1093,159.012,-5.22889
700,-69,159.029,5.20349,0,0,0,0,0,0,0,-1,1924,1093,159.029,-5.20347
707,-69,158.992,5.19238,0,0,0,0,0,0,0,-1,1931,1093,158.992,-5.19238
714,-69,158.941,4.88025,0,0,0,0,0,0,0,-1,1938,1093,158.941,-4.88023
721,-69,158.777,4.33032,0,0,0,0,0,0,0,-1,1945,1093,158.777,-4.33032
728,-69,159.298,26.0829,0,0,0,0,0,0,0,-1,1952,1093,159.298,-26.0829
735,-69,159.623,25.6029,-0.00049038,-0.012906,0.00310635,0.000243446,-0.0136398,0.231981,0.00917544,0.0364139,1959,1093,159.623,-25.6029
742,-69,159.644,25.2548,-0.00551995,-0.00480287,0.00326332,-0.00187845,-0.00844437,0.840113,0.00511962,0.0345837,1966,1093,159.644,-25.2548
749,-69,159.409,24.7875,-0.0105376,0.00314626,0.00350475,0.00399168,-0.011383,1.3341,0.00921216,0.0358906,1973,1093,159.409,-24.7874
756,-69,159.342,24.2896,-0.0154739,0.010921,0.00380572,0.0114587,-0.0160117,1.43042,0.0159325,0.0199577,1980,1093,159.342,-24.2896
763,-69,159.293,23.8594,-0.0202567,0.0185014,0.00414311,0.0189394,-0.0206946,1.46549,0.0228902,0.0290029,1987,1093,159.293,-23.8594
770,-69,159.023,23.5299,-0.0248107,0.025868,0.0044956,0.0262637,-0.0252064,1.483,0.0297183,0.0346767,1994,1093,159.023,-23.5299
777,-69,158.699,23.2031,-0.0290579,0.0330008,0.0048437,0.0333766,-0.0294336,1.49337,0.0362873,0.0404602,2001,1093,158.699,-23.2031
784,-69,158.768,22.4885,-0.0329004,0.039857,0.00519448,0.040226,-0.0332694,1.49988,0.0424959,0.0455646,2008,1093,158.768,-22.4885
791,-69,159.053,21.7114,0,0,0,0,0,0,0,-1,2015,1093,159.053,-21.7114
798,-69,130.727,14.436,0,0,0,0,0,0,0,-1,2022,1093,130.727,-14.4361
805,-69,141.347,18.6334,0,0,0,0,0,0,0,-1,2029,1093,141.347,-18.6334
812,-69,141.898,18.0513,0,0,0,0,0,0,0,-1,2036,1093,141.898,-18.0513
-700,-76,0,0,0,0,0,0,0,0,0,-1,524,1100,0,0
-693,-76,-84.1913,0.912598,0,0,0,0,0,0,0,-1,531,1100,-84.1913,-0.912564
-686,-76,-84.7185,2.40625,0,0,0,0,0,0,0,-1,538,1100,-84.7185,-2.40624
-679,-76,-85.125,4.04797,0,0,0,0,0,0,0,-1,545,1100,-85.125,-4.04794
-672,-76,-85.447,5.35437,0,0,0,0,0,0,0,-1,552,1100,-85.447,-5.35438
-665,-76,-85.3085,6.47705,0,0,0,0,0,0,0,-1,559,1100,-85.3085,-6.47707
-658,-76,-67.4031,4.96143,0,0,0,0,0,0,0,-1,566,1100,-67.4031,-4.9614
-651,-76,-119.68,18.7716,0,0,0,0,0,0,0,-1,573,1100,-119.68,-18.7716
-644,-76,-149.872,23.5159,0,0,0,0,0,0,0,-1,580,1100,-149.872,-23.5159
-637,-76,-149.989,23.9601,-0.0160956,0.0261144,-0.00128536,0.0261535,-0.0161347,-1.54038,0.0246425,0.031581,587,1100,-149.989,-23.96
-630,-76,-150.045,24.3617,-0.0110109,0.0182581,-0.00118788,0.0183062,-0.0110591,-1.5303,0.0171253,0.0182113,594,1100,-150.045,-24.3617
-623,-76,-150.068,24.7847,-0.00603556,0.0104724,-0.00114489,0.0105514,-0.00611459,-1.50188,0.00973512,0.027346,601,1100,-150.068,-24.7847
-616,-76,-150.127,25.2571,-0.00111103,0.00273964,-0.00117554,0.00307014,-0.00144153,-1.29672,0.00266078,0.0297836,608,1100,-150.127,-25.257
-609,-76,-150.187,25.6877,0.00382271,-0.0049556,-0.00129772,0.00401053,-0.00514343,-0.143737,0.00529852,0.0258781,615,1100,-150.187,-25.6878
-602,-76,-150.101,26.0922,0.00882739,-0.0126266,-0.00152856,0.00893575,-0.012735,-0.0707716,0.0125755,0.0235589,622,1100,-150.101,-26.0922
-595,-76,-149.985,26.3632,0.0139664,-0.0202851,-0.00188482,0.0140698,-0.0203885,-0.0548082,0.0200057,0.0332939,629,1100,-149.985,-26.3631
-588,-76,-149.887,26.626,0,0,0,0,0,0,0,-1,636,1100,-149.887,-26.626
-581,-76,-72.097,0.376953,0,0,0,0,0,0,0,-1,643,1100,-72.097,-0.377007
-574,-76,-72.0711,0.447632,0,0,0,0,0,0,0,-1,650,1100,-72.0711,-0.44758
-567,-76,-72.015,0.546509,0,0,0,0,0,0,0,-1,657,1100,-72.015,-0.546474
-560,-76,-72.2302,0.441284,0,0,0,0,0,0,0,-1,664,1100,-72.2302,-0.44127
-553,-76,-72.1963,0.22937,0,0,0,0,0,0,0,-1,671,1100,-72.1963,-0.229379
-546,-76,-72.09,0.186401,0,0,0,0,0,0,0,-1,678,1100,-72.09,-0.186419
-539,-76,-72.1268,0.189087,0,0,0,0,0,0,0,-1,685,1100,-72.1268,-0.18903
-532,-76,-72.0507,0.187256,0,0,0,0,0,0,0,-1,692,1100,-72.0507,-0.187309
-525,-76,0,0,0,0,0,0,0,0,0,-1,699,1100,0,0
-518,-76,0,0,0,0,0,0,0,0,0,-1,706,1100,0,0
-511,-76,0,0,0,0,0,0,0,0,0,-1,713,1100,0,0
-504,-76,0,0,0,0,0,0,0,0,0,-1,720,1100,0,0
-497,-76,0,0,0,0,0,0,0,0,0,-1,727,1100,0,0
-490,-76,0,0,0,0,0,0,0,0,0,-1,734,1100,0,0
-483,-76,0,0,0,0,0,0,0,0,0,-1,741,1100,0,0
-476,-76,0,0,0,0,0,0,0,0,0,-1,748,1100,0,0
-469,-76,0,0,0,0,0,0,0,0,0,-1,755,1100,0,0
-462,-76,0,0,0,0,0,0,0,0,0,-1,762,1100,0,0
-455,-76,0,0,0,0,0,0,0,0,0,-1,769,1100,0,0
-448,-76,0,0,0,0,0,0,0,0,0,-1,776,1100,0,0
-441,-76,0,0,0,0,0,0,0,0,0,-1,783,1100,0,0
-434,-76,0,0,0,0,0,0,0,0,0,-1,790,1100,0,0
-427,-76,0,0,0,0,0,0,0,0,0,-1,797,1100,0,0
-420,-76,0,0,0,0,0,0,0,0,0,-1,804,1100,0,0
-413,-76,0,0,0,0,0,0,0,0,0,-1,811,1100,0,0
-406,-76,0,0,0,0,0,0,0,0,0,-1,818,1100,0,0
-399,-76,0,0,0,0,0,0,0,0,0,-1,825,1100,0,0
-392,-76,0,0,0,0,0,0,0,0,0,-1,832,1100,0,0
-385,-76,0,0,0,0,0,0,0,0,0,-1,839,1100,0,0
-378,-76,0,0,0,0,0,0,0,0,0,-1,846,1100,0,0
-371,-76,0,0,0,0,0,0,0,0,0,-1,853,1100,0,0
-364,-76,0,0,0,0,0,0,0,0,0,-1,860,1100,0,0
-357,-76,0,0,0,0,0,0,0,0,0,-1,867,1100,0,0
-350,-76,0,0,0,0,0,0,0,0,0,-1,874,1100,0,0
-343,-76,0,0,0,0,0,0,0,0,0,-1,881,1100,0,0
-336,-76,0,0,0,0,0,0,0,0,0,-1,888,1100,0,0
-329,-76,0,0,0,0,0,0,0,0,0,-1,895,1100,0,0
-322,-76,0,0,0,0,0,0,0,0,0,-1,902,1100,0,0
-315,-76,0,0,0,0,0,0,0,0,0,-1,909,1100,0,0
-308,-76,0,0,0,0,0,0,0,0,0,-1,916,1100,0,0
-301,-76,0,0,0,0,0,0,0,0,0,-1,923,1100,0,0
-294,-76,0,0,0,0,0,0,0,0,0,-1,930,1100,0,0
-287,-76,0,0,0,0,0,0,0,0,0,-1,937,1100,0,0
-280,-76,0,0,0,0,0,0,0,0,0,-1,944,1100,0,0
-273,-76,0,0,0,0,0,0,0,0,0,-1,951,1100,0,0
-266,-76,0,0,0,0,0,0,0,0,0,-1,958,1100,0,0
-259,-76,0,0,0,0,0,0,0,0,0,-1,965,1100,0,0
-252,-76,0,0,0,0,0,0,0,0,0,-1,972,1100,0,0
-245,-76,0,0,0,0,0,0,0,0,0,-1,979,1100,0,0
-238,-76,0,0,0,0,0,0,0,0,0,-1,986,1100,0,0
-231,-76,0,0,0,0,0,0,0,0,0,-1,993,1100,0,0
-224,-76,0,0,0,0,0,0,0,0,0,-1,1000,1100,0,0
-217,-76,0,0,0,0,0,0,0,0,0,-1,1007,1100,0,0
-210,-76,0,0,0,0,0,0,0,0,0,-1,1014,1100,0,0
-203,-76,0,0,0,0,0,0,0,0,0,-1,1021,1100,0,0
-196,-76,0,0,0,0,0,0,0,0,0,-1,1028,1100,0,0
-189,-76,0,0,0,0,0,0,0,0,0,-1,1035,1100,0,0
-182,-76,0,0,0,0,0,0,0,0,0,-1,1042,1100,0,0
-175,-76,0,0,0,0,0,0,0,0,0,-1,1049,1100,0,0
-168,-76,0,0,0,0,0,0,0,0,0,-1,1056,1100,0,0
-161,-76,0,0,0,0,0,0,0,0,0,-1,1063,1100,0,0
-154,-76,0,0,0,0,0,0,0,0,0,-1,1070,1100,0,0
-147,-76,0,0,0,0,0,0,0,0,0,-1,1077,1100,0,0
-140,-76,0,0,0,0,0,0,0,0,0,-1,1084,1100,0,0
-133,-76,0,0,0,0,0,0,0,0,0,-1,1091,1100,0,0
-126,-76,0,0,0,0,0,0,0,0,0,-1,1098,1100,0,0
-119,-76,0,0,0,0,0,0,0,0,0,-1,1105,1100,0,0
-112,-76,0,0,0,0,0,0,0,0,0,-1,1112,1100,0,0
-105,-76,0,0,0,0,0,0,0,0,0,-1,1119,1100,0,0
-98,-76,0,0,0,0,0,0,0,0,0,-1,1126,1100,0,0
-91,-76,0,0,0,0,0,0,0,0,0,-1,1133,1100,0,0
-84,-76,0,0,0,0,0,0,0,0,0,-1,1140,1100,0,0
-77,-76,0,0,0,0,0,0,0,0,0,-1,1147,1100,0,0
-70,-76,0,0,0,0,0,0,0,0,0,-1,1154,1100,0,0
-63,-76,0,0,0,0,0,0,0,0,0,-1,1161,1100,0,0
-56,-76,0,0,0,0,0,0,0,0,0,-1,1168,1100,0,0
-49,-76,0,0,0,0,0,0,0,0,0,-1,1175,1100,0,0
-42,-76,0,0,0,0,0,0,0,0,0,-1,1182,1100,0,0
-35,-76,0,0,0,0,0,0,0,0,0,-1,1189,1100,0,0
-28,-76,0,0,0,0,0,0,0,0,0,-1,1196,1100,0,0
-21,-76,0,0,0,0,0,0,0,0,0,-1,1203,1100,0,0
-14,-76,0,0,0,0,0,0,0,0,0,-1,1210,1100,0,0
-7,-76,0,0,0,0,0,0,0,0,0,-1,1217,1100,0,0
0,-76,0,0,0,0,0,0,0,0,0,-1,1224,1100,0,0
7,-76,0,0,0,0,0,0,0,0,0,-1,1231,1100,0,0
14,-76,0,0,0,0,0,0,0,0,0,-1,1238,1100,0,0
21,-76,0,0,0,0,0,0,0,0,0,-1,1245,1100,0,0
28,-76,0,0,0,0,0,0,0,0,0,-1,1252,1100,0,0
35,-76,0,0,0,0,0,0,0,0,0,-1,1259,1100,0,0
42,-76,0,0,0,0,0,0,0,0,0,-1,1266,1100,0,0
49,-76,0,0,0,0,0,0,0,0,0,-1,1273,1100,0,0
56,-76,0,0,0,0,0,0,0,0,0,-1,1280,1100,0,0
63,-76,0,0,0,0,0,0,0,0,0,-1,1287,1100,0,0
70,-76,0,0,0,0,0,0,0,0,0,-1,1294,1100,0,0
77,-76,0,0,0,0,0,0,0,0,0,-1,1301,1100,0,0
84,-76,0,0,0,0,0,0,0,0,0,-1,1308,1100,0,0
91,-76,0,0,0,0,0,0,0,0,0,-1,1315,1100,0,0
98,-76,0,0,0,0,0,0,0,0,0,-1,1322,1100,0,0
105,-76,0,0,0,0,0,0,0,0,0,-1,1329,1100,0,0
112,-76,0,0,0,0,0,0,0,0,0,-1,1336,1100,0,0
119,-76,0,0,0,0,0,0,0,0,0,-1,1343,1100,0,0
126,-76,0,0,0,0,0,0,0,0,0,-1,1350,1100,0,0
133,-76,0,0,0,0,0,0,0,0,0,-1,1357,1100,0,0
140,-76,0,0,0,0,0,0,0,0,0,-1,1364,1100,0,0
147,-76,0,0,0,0,0,0,0,0,0,-1,1371,1100,0,0
154,-76,0,0,0,0,0,0,0,0,0,-1,1378,1100,0,0
161,-76,0,0,0,0,0,0,0,0,0,-1,1385,1100,0,0
168,-76,0,0,0,0,0,0,0,0,0,-1,1392,1100,0,0
175,-76,0,0,0,0,0,0,0,0,0,-1,1399,1100,0,0
182,-76,0,0,0,0,0,0,0,0,0,-1,1406,1100,0,0
189,-76,0,0,0,0,0,0,0,0,0,-1,1413,1100,0,0
196,-76,0,0,0,0,0,0,0,0,0,-1,1420,1100,0,0
203,-76,0,0,0,0,0,0,0,0,0,-1,1427,1100,0,0
210,-76,0,0,0,0,0,0,0,0,0,-1,1434,1100,0,0
217,-76,0,0,0,0,0,0,0,0,0,-1,1441,1100,0,0
224,-76,0,0,0,0,0,0,0,0,0,-1,1448,1100,0,0
231,-76,0,0,0,0,0,0,0,0,0,-1,1455,1100,0,0
238,-76,0,0,0,0,0,0,0,0,0,-1,1462,1100,0,0
245,-76,0,0,0,0,0,0,0,0,0,-1,1469,1100,0,0
252,-76,0,0,0,0,0,0,0,0,0,-1,1476,1100,0,0
259,-76,0,0,0,0,0,0,0,0,0,-1,1483,1100,0,0
266,-76,0,0,0,0,0,0,0,0,0,-1,1490,1100,0,0
273,-76,0,0,0,0,0,0,0,0,0,-1,1497,1100,0,0
280,-76,0,0,0,0,0,0,0,0,0,-1,1504,1100,0,0
287,-76,0,0,0,0,0,0,0,0,0,-1,1511,1100,0,0
294,-76,0,0,0,0,0,0,0,0,0,-1,1518,1100,0,0
301,-76,0,0,0,0,0,0,0,0,0,-1,1525,1100,0,0
308,-76,0,0,0,0,0,0,0,0,0,-1,1532,1100,0,0
315,-76,0,0,0,0,0,0,0,0,0,-1,1539,1100,0,0
322,-76,0,0,0,0,0,0,0,0,0,-1,1546,1100,0,0
329,-76,0,0,0,0,0,0,0,0,0,-1,1553,1100,0,0
336,-76,0,0,0,0,0,0,0,0,0,-1,1560,1100,0,0
343,-76,0,0,0,0,0,0,0,0,0,-1,1567,1100,0,0
350,-76,0,0,0,0,0,0,0,0,0,-1,1574,1100,0,0
357,-76,0,0,0,0,0,0,0,0,0,-1,1581,1100,0,0
364,-76,0,0,0,0,0,0,0,0,0,-1,1588,1100,0,0
371,-76,0,0,0,0,0,0,0,0,0,-1,1595,1100,0,0
378,-76,0,0,0,0,0,0,0,0,0,-1,1602,1100,0,0
385,-76,0,0,0,0,0,0,0,0,0,-1,1609,1100,0,0
392,-76,0,0,0,0,0,0,0,0,0,-1,1616,1100,0,0
399,-76,0,0,0,0,0,0,0,0,0,-1,1623,1100,0,0
406,-76,0,0,0,0,0,0,0,0,0,-1,1630,1100,0,0
413,-76,0,0,0,0,0,0,0,0,0,-1,1637,1100,0,0
420,-76,0,0,0,0,0,0,0,0,0,-1,1644,1100,0,0
427,-76,0,0,0,0,0,0,0,0,0,-1,1651,1100,0,0
434,-76,0,0,0,0,0,0,0,0,0,-1,1658,1100,0,0
441,-76,0,0,0,0,0,0,0,0,0,-1,1665,1100,0,0
448,-76,0,0,0,0,0,0,0,0,0,-1,1672,1100,0,0
455,-76,0,0,0,0,0,0,0,0,0,-1,1679,1100,0,0
462,-76,0,0,0,0,0,0,0,0,0,-1,1686,1100,0,0
469,-76,0,0,0,0,0,0,0,0,0,-1,1693,1100,0,0
476,-76,0,0,0,0,0,0,0,0,0,-1,1700,1100,0,0
483,-76,0,0,0,0,0,0,0,0,0,-1,1707,1100,0,0
490,-76,0,0,0,0,0,0,0,0,0,-1,1714,1100,0,0
497,-76,0,0,0,0,0,0,0,0,0,-1,1721,1100,0,0
504,-76,0,0,0,0,0,0,0,0,0,-1,1728,1100,0,0
511,-76,0,0,0,0,0,0,0,0,0,-1,1735,1100,0,0
518,-76,0,0,0,0,0,0,0,0,0,-1,1742,1100,0,0
525,-76,0,0,0,0,0,0,0,0,0,-1,1749,1100,0,0
532,-76,0,0,0,0,0,0,0,0,0,-1,1756,1100,0,0
539,-76,0,0,0,0,0,0,0,0,0,-1,1763,1100,0,0
546,-76,0,0,0,0,0,0,0,0,0,-1,1770,1100,0,0
553,-76,0,0,0,0,0,0,0,0,0,-1,1777,1100,0,0
560,-76,0,0,0,0,0,0,0,0,0,-1,1784,1100,0,0
567,-76,0,0,0,0,0,0,0,0,0,-1,1791,1100,0,0
574,-76,0,0,0,0,0,0,0,0,0,-1,1798,1100,0,0
581,-76,0,0,0,0,0,0,0,0,0,-1,1805,1100,0,0
588,-76,0,0,0,0,0,0,0,0,0,-1,1812,1100,0,0
595,-76,0,0,0,0,0,0,0,0,0,-1,1819,1100,0,0
602,-76,0,0,0,0,0,0,0,0,0,-1,1826,1100,0,0
609,-76,0,0,0,0,0,0,0,0,0,-1,1833,1100,0,0
616,-76,0,0,0,0,0,0,0,0,0,-1,1840,1100,0,0
623,-76,0,0,0,0,0,0,0,0,0,-1,1847,1100,0,0
630,-76,0,0,0,0,0,0,0,0,0,-1,1854,1100,0,0
637,-76,0,0,0,0,0,0,0,0,0,-1,1861,1100,0,0
644,-76,0,0,0,0,0,0,0,0,0,-1,1868,1100,0,0
651,-76,159.13,5.4469,0,0,0,0,0,0,0,-1,1875,1100,159.13,-5.44694
658,-76,159.018,5.49902,0,0,0,0,0,0,0,-1,1882,1100,159.018,-5.499
665,-76,158.928,5.29492,0,0,0,0,0,0,0,-1,1889,1100,158.928,-5.29495
672,-76,159.06,5.40186,0,0,0,0,0,0,0,-1,1896,1100,159.06,-5.40185
679,-76,159.059,5.55017,0,0,0,0,0,0,0,-1,1903,1100,159.059,-5.55012
686,-76,159.134,5.37122,0,0,0,0,0,0,0,-1,1910,1100,159.134,-5.37124
693,-76,159.068,5.17639,0,0,0,0,0,0,0,-1,1917,1100,159.068,-5.17638
700,-76,158.992,5.17322,0,0,0,0,0,0,0,-1,1924,1100,158.992,-5.1732
707,-76,158.965,5.20447,0,0,0,0,0,0,0,-1,1931,1100,158.965,-5.20452
714,-76,158.967,4.77612,0,0,0,0,0,0,0,-1,1938,1100,158.967,-4.77612
721,-76,45.1713,3.04919,0,0,0,0,0,0,0,-1,1945,1100,45.1713,-3.04915
728,-76,156.902,25.9305,0,0,0,0,0,0,0,-1,1952,1100,156.902,-25.9305
735,-76,159.151,25.714,0,0,0,0,0,0,0,-1,1959,1100,159.151,-25.714
742,-76,159.023,25.3049,-0.00482573,-0.00523447,0.00364013,-0.00138424,-0.00867596,0.757356,0.00538223,0.0375414,1966,1100,159.023,-25.3049
749,-76,158.857,24.7789,-0.0101059,0.00290052,0.0037855,0.00392206,-0.0111274,1.30722,0.00901468,0.0307101,1973,1100,158.857,-24.7789
756,-76,158.844,24.2729,-0.0154051,0.0108581,0.00404851,0.011468,-0.016015,1.42127,0.0159396,0.0193856,1980,1100,158.844,-24.273
763,-76,158.743,23.7737,-0.0206553,0.0186243,0.00440202,0.0191115,-0.0211426,1.46055,0.0232506,0.0253422,1987,1100,158.743,-23.7737
770,-76,158.479,23.3739,-0.0257854,0.0261854,0.00482158,0.0266289,-0.0262289,1.47906,0.0305178,0.0295514,1994,1100,158.479,-23.3739
777,-76,158.158,23.1718,-0.0307208,0.033528,0.00528553,0.0339599,-0.0311527,1.48926,0.0376044,0.0320248,2001,1100,158.158,-23.1718
784,-76,158.051,22.6427,-0.0353797,0.0405843,0.00586519,0.0410345,-0.0358298,1.49419,0.0444116,0.0412309,2008,1100,158.051,-22.6426
791,-76,158.225,22.0509,0,0,0,0,0,0,0,-1,2015,1100,158.225,-22.051
798,-76,154.434,19.4275,0,0,0,0,0,0,0,-1,2022,1100,154.434,-19.4275
805,-76,125.512,12.9398,0,0,0,0,0,0,0,-1,2029,1100,125.512,-12.9399
812,-76,140.617,18.4784,0,0,0,0,0,0,0,-1,2036,1100,140.617,-18.4783
-700,-83,0,0,0,0,0,0,0,0,0,-1,524,1107,0,0
-693,-83,-83.7391,1.26392,0,0,0,0,0,0,0,-1,531,1107,-83.7391,-1.26397
-686,-83,-83.9973,2.73779,0,0,0,0,0,0,0,-1,538,1107,-83.9973,-2.73779
-679,-83,-84.214,4.20288,0,0,0,0,0,0,0,-1,545,1107,-84.214,-4.20288
-672,-83,-84.4678,5.47815,0,0,0,0,0,0,0,-1,552,1107,-84.4678,-5.47815
-665,-83,-85.1248,6.91895,0,0,0,0,0,0,0,-1,559,1107,-85.1248,-6.91893
-658,-83,-85.575,8.10474,0,0,0,0,0,0,0,-1,566,1107,-85.575,-8.10475
-651,-83,-148.225,23.3038,0,0,0,0,0,0,0,-1,573,1107,-148.225,-23.3038
-644,-83,-149.005,23.4976,-0.0215947,0.0338437,-0.0021677,0.0339284,-0.0216793,-1.53177,0.0323637,0.0388747,580,1107,-149.005,-23.4976
-637,-83,-149.474,23.8103,-0.0165261,0.0260044,-0.00182261,0.0260823,-0.0166041,-1.52805,0.0248467,0.0220609,587,1107,-149.474,-23.8103
-630,-83,-149.536,24.2683,-0.0116365,0.0182571,-0.00149412,0.0183316,-0.011711,-1.52098,0.0174849,0.0220446,594,1107,-149.536,-24.2683
-623,-83,-149.604,24.7146,-0.00686727,0.0105821,-0.00120847,0.0106654,-0.00695057,-1.50198,0.0102457,0.0241145,601,1107,-149.604,-24.7146
-616,-83,-149.706,25.2271,-0.00215892,0.0029618,-0.000989493,0.00314635,-0.00234348,-1.3864,0.00318083,0.0198332,608,1107,-149.706,-25.2271
-609,-83,-149.678,25.6761,0.00254939,-0.00461975,-0.000859177,0.00265092,-0.00472128,-0.117625,0.00431192,0.0238166,615,1107,-149.678,-25.6762
-602,-83,-149.634,26.2369,0.00732018,-0.012177,-0.000838218,0.00735615,-0.0122129,-0.0428863,0.0114136,0.0227433,622,1107,-149.634,-26.2369
-595,-83,-149.544,26.6177,0.0122179,-0.0197233,-0.000946552,0.0122459,-0.0197514,-0.0295996,0.0186423,0.0326747,629,1107,-149.544,-26.6177
-588,-83,-149.558,26.5647,0,0,0,0,0,0,0,-1,636,1107,-149.558,-26.5647
-581,-83,-72.0923,0.283447,0,0,0,0,0,0,0,-1,643,1107,-72.0923,-0.283507
-574,-83,-72.0815,0.412354,0,0,0,0,0,0,0,-1,650,1107,-72.0815,-0.412369
-567,-83,-72.0112,0.552002,0,0,0,0,0,0,0,-1,657,1107,-72.0112,-0.551955
-560,-83,-72.1143,0.244629,0,0,0,0,0,0,0,-1,664,1107,-72.1142,-0.244629
-553,-83,-72.1241,0.0872803,0,0,0,0,0,0,0,-1,671,1107,-72.1241,-0.0872678
-546,-83,-72.0452,0.189331,0,0,0,0,0,0,0,-1,678,1107,-72.0452,-0.189338
-539,-83,-72.0553,0.273926,0,0,0,0,0,0,0,-1,685,1107,-72.0553,-0.273949
-532,-83,-72.0438,0.221191,0,0,0,0,0,0,0,-1,692,1107,-72.0438,-0.221206
-525,-83,0,0,0,0,0,0,0,0,0,-1,699,1107,0,0
-518,-83,0,0,0,0,0,0,0,0,0,-1,706,1107,0,0
-511,-83,0,0,0,0,0,0,0,0,0,-1,713,1107,0,0
-504,-83,0,0,0,0,0,0,0,0,0,-1,720,1107,0,0
-497,-83,0,0,0,0,0,0,0,0,0,-1,727,1107,0,0
-490,-83,0,0,0,0,0,0,0,0,0,-1,734,1107,0,0
-483,-83,0,0,0,0,0,0,0,0,0,-1,741,1107,0,0
-476,-83,0,0,0,0,0,0,0,0,0,-1,748,1107,0,0
-469,-83,0,0,0,0,0,0,0,0,0,-1,755,1107,0,0
-462,-83,0,0,0,0,0,0,0,0,0,-1,762,1107,0,0
-455,-83,0,0,0,0,0,0,0,0,0,-1,769,1107,0,0
-448,-83,0,0,0,0,0,0,0,0,0,-1,776,1107,0,0
-441,-83,0,0,0,0,0,0,0,0,0,-1,783,1107,0,0
-434,-83,0,0,0,0,0,0,0,0,0,-1,790,1107,0,0
-427,-83,0,0,0,0,0,0,0,0,0,-1,797,1107,0,0
-420,-83,0,0,0,0,0,0,0,0,0,-1,804,1107,0,0
-413,-83,0,0,0,0,0,0,0,0,0,-1,811,1107,0,0
-406,-83,0,0,0,0,0,0,0,0,0,-1,818,1107,0,0
-399,-83,0,0,0,0,0,0,0,0,0,-1,825,1107,0,0
-392,-83,0,0,0,0,0,0,0,0,0,-1,832,1107,0,0
-385,-83,0,0,0,0,0,0,0,0,0,-1,839,1107,0,0
-378,-83,0,0,0,0,0,0,0,0,0,-1,846,1107,0,0
-371,-83,0,0,0,0,0,0,0,0,0,-1,853,1107,0,0
-364,-83,0,0,0,0,0,0,0,0,0,-1,860,1107,0,0
-357,-83,0,0,0,0,0,0,0,0,0,-1,867,1107,0,0
-350,-83,0,0,0,0,0,0,0,0,0,-1,874,1107,0,0
-343,-83,0,0,0,0,0,0,0,0,0,-1,881,1107,0,0
-336,-83,0,0,0,0,0,0,0,0,0,-1,888,1107,0,0
-329,-83,0,0,0,0,0,0,0,0,0,-1,895,1107,0,0
-322,-83,0,0,0,0,0,0,0,0,0,-1,902,1107,0,0
-315,-83,0,0,0,0,0,0,0,0,0,-1,909,1107,0,0
-308,-83,0,0,0,0,0,0,0,0,0,-1,916,1107,0,0
-301,-83,0,0,0,0,0,0,0,0,0,-1,923,1107,0,0
-294,-83,0,0,0,0,0,0,0,0,0,-1,930,1107,0,0
-287,-83,0,0,0,0,0,0,0,0,0,-1,937,1107,0,0
-280,-83,0,0,0,0,0,0,0,0,0,-1,944,1107,0,0
-273,-83,0,0,0,0,0,0,0,0,0,-1,951,1107,0,0
-266,-83,0,0,0,0,0,0,0,0,0,-1,958,1107,0,0
-259,-83,0,0,0,0,0,0,0,0,0,-1,965,1107,0,0
-252,-83,0,0,0,0,0,0,0,0,0,-1,972,1107,0,0
-245,-83,0,0,0,0,0,0,0,0,0,-1,979,1107,0,0
-238,-83,0,0,0,0,0,0,0,0,0,-1,986,1107,0,0
-231,-83,0,0,0,0,0,0,0,0,0,-1,993,1107,0,0
-224,-83,0,0,0,0,0,0,0,0,0,-1,1000,1107,0,0
-217,-83,0,0,0,0,0,0,0,0,0,-1,1007,1107,0,0
-210,-83,0,0,0,0,0,0,0,0,0,-1,1014,1107,0,0
-203,-83,0,0,0,0,0,0,0,0,0,-1,1021,1107,0,0
-196,-83,0,0,0,0,0,0,0,0,0,-1,1028,1107,0,0
-189,-83,0,0,0,0,0,0,0,0,0,-1,1035,1107,0,0
-182,-83,0,0,0,0,0,0,0,0,0,-1,1042,1107,0,0
-175,-83,0,0,0,0,0,0,0,0,0,-1,1049,1107,0,0
-168,-83,0,0,0,0,0,0,0,0,0,-1,1056,1107,0,0
-161,-83,0,0,0,0,0,0,0,0,0,-1,1063,1107,0,0
-154,-83,0,0,0,0,0,0,0,0,0,-1,1070,1107,0,0
-147,-83,0,0,0,0,0,0,0,0,0,-1,1077,1107,0,0
-140,-83,0,0,0,0,0,0,0,0,0,-1,1084,1107,0,0
-133,-83,0,0,0,0,0,0,0,0,0,-1,1091,1107,0,0
-126,-83,0,0,0,0,0,0,0,0,0,-1,1098,1107,0,0
-119,-83,0,0,0,0,0,0,0,0,0,-1,1105,1107,0,0
-112,-83,0,0,0,0,0,0,0,0,0,-1,1112,1107,0,0
-105,-83,0,0,0,0,0,0,0,0,0,-1,1119,1107,0,0
-98,-83,0,0,0,0,0,0,0,0,0,-1,1126,1107,0,0
-91,-83,0,0,0,0,0,0,0,0,0,-1,1133,1107,0,0
-84,-83,0,0,0,0,0,0,0,0,0,-1,1140,1107,0,0
-77,-83,0,0,0,0,0,0,0,0,0,-1,1147,1107,0,0
-70,-83,0,0,0,0,0,0,0,0,0,-1,1154,1107,0,0
-63,-83,0,0,0,0,0,0,0,0,0,-1,1161,1107,0,0
-56,-83,0,0,0,0,0,0,0,0,0,-1,1168,1107,0,0
-49,-83,0,0,0,0,0,0,0,0,0,-1,1175,1107,0,0
-42,-83,0,0,0,0,0,0,0,0,0,-1,1182,1107,0,0
-35,-83,0,0,0,0,0,0,0,0,0,-1,1189,1107,0,0
-28,-83,0,0,0,0,0,0,0,0,0,-1,1196,1107,0,0
-21,-83,0,0,0,0,0,0,0,0,0,-1,1203,1107,0,0
-14,-83,0,0,0,0,0,0,0,0,0,-1,1210,1107,0,0
-7,-83,0,0,0,0,0,0,0,0,0,-1,1217,1107,0,0
0,-83,0,0,0,0,0,0,0,0,0,-1,1224,1107,0,0
7,-83,0,0,0,0,0,0,0,0,0,-1,1231,1107,0,0
14,-83,0,0,0,0,0,0,0,0,0,-1,1238,1107,0,0
21,-83,0,0,0,0,0,0,0,0,0,-1,1245,1107,0,0
28,-83,0,0,0,0,0,0,0,0,0,-1,1252,1107,0,0
35,-83,0,0,0,0,0,0,0,0,0,-1,1259,1107,0,0
42,-83,0,0,0,0,0,0,0,0,0,-1,1266,1107,0,0
49,-83,0,0,0,0,0,0,0,0,0,-1,1273,1107,0,0
56,-83,0,0,0,0,0,0,0,0,0,-1,1280,1107,0,0
63,-83,0,0,0,0,0,0,0,0,0,-1,1287,1107,0,0
70,-83,0,0,0,0,0,0,0,0,0,-1,1294,1107,0,0
77,-83,0,0,0,0,0,0,0,0,0,-1,1301,1107,0,0
84,-83,0,0,0,0,0,0,0,0,0,-1,1308,1107,0,0
91,-83,0,0,0,0,0,0,0,0,0,-1,1315,1107,0,0
98,-83,0,0,0,0,0,0,0,0,0,-1,1322,1107,0,0
105,-83,0,0,0,0,0,0,0,0,0,-1,1329,1107,0,0
112,-83,0,0,0,0,0,0,0,0,0,-1,1336,1107,0,0
119,-83,0,0,0,0,0,0,0,0,0,-1,1343,1107,0,0
126,-83,0,0,0,0,0,0,0,0,0,-1,1350,1107,0,0
133,-83,0,0,0,0,0,0,0,0,0,-1,1357,1107,0,0
140,-83,0,0,0,0,0,0,0,0,0,-1,1364,1107,0,0
147,-83,0,0,0,0,0,0,0,0,0,-1,1371,1107,0,0
154,-83,0,0,0,0,0,0,0,0,0,-1,1378,1107,0,0
161,-83,0,0,0,0,0,0,0,0,0,-1,1385,1107,0,0
168,-83,0,0,0,0,0,0,0,0,0,-1,1392,1107,0,0
175,-83,0,0,0,0,0,0,0,0,0,-1,1399,1107,0,0
182,-83,0,0,0,0,0,0,0,0,0,-1,1406,1107,0,0
189,-83,0,0,0,0,0,0,0,0,0,-1,1413,1107,0,0
196,-83,0,0,0,0,0,0,0,0,0,-1,1420,1107,0,0
203,-83,0,0,0,0,0,0,0,0,0,-1,1427,1107,0,0
210,-83,0,0,0,0,0,0,0,0,0,-1,1434,1107,0,0
217,-83,0,0,0,0,0,0,0,0,0,-1,1441,1107,0,0
224,-83,0,0,0,0,0,0,0,0,0,-1,1448,1107,0,0
231,-83,0,0,0,0,0,0,0,0,0,-1,1455,1107,0,0
238,-83,0,0,0,0,0,0,0,0,0,-1,1462,1107,0,0
245,-83,0,0,0,0,0,0,0,0,0,-1,1469,1107,0,0
252,-83,0,0,0,0,0,0,0,0,0,-1,1476,1107,0,0
259,-83,0,0,0,0,0,0,0,0,0,-1,1483,1107,0,0
266,-83,0,0,0,0,0,0,0,0,0,-1,1490,1107,0,0
273,-83,0,0,0,0,0,0,0,0,0,-1,1497,1107,0,0
280,-83,0,0,0,0,0,0,0,0,0,-1,1504,1107,0,0
287,-83,0,0,0,0,0,0,0,0,0,-1,1511,1107,0,0
294,-83,0,0,0,0,0,0,0,0,0,-1,1518,1107,0,0
301,-83,0,0,0,0,0,0,0,0,0,-1,1525,1107,0,0
308,-83,0,0,0,0,0,0,0,0,0,-1,1532,1107,0,0
315,-83,0,0,0,0,0,0,0,0,0,-1,1539,1107,0,0
322,-83,0,0,0,0,0,0,0,0,0,-1,1546,1107,0,0
329,-83,0,0,0,0,0,0,0,0,0,-1,1553,1107,0,0
336,-83,0,0,0,0,0,0,0,0,0,-1,1560,1107,0,0
343,-83,0,0,0,0,0,0,0,0,0,-1,1567,1107,0,0
350,-83,0,0,0,0,0,0,0,0,0,-1,1574,1107,0,0
357,-83,0,0,0,0,0,0,0,0,0,-1,1581,1107,0,0
364,-83,0,0,0,0,0,0,0,0,0,-1,1588,1107,0,0
371,-83,0,0,0,0,0,0,0,0,0,-1,1595,1107,0,0
378,-83,0,0,0,0,0,0,0,0,0,-1,1602,1107,0,0
385,-83,0,0,0,0,0,0,0,0,0,-1,1609,1107,0,0
392,-83,0,0,0,0,0,0,0,0,0,-1,1616,1107,0,0
399,-83,0,0,0,0,0,0,0,0,0,-1,1623,1107,0,0
406,-83,0,0,0,0,0,0,0,0,0,-1,1630,1107,0,0
413,-83,0,0,0,0,0,0,0,0,0,-1,1637,1107,0,0
420,-83,0,0,0,0,0,0,0,0,0,-1,1644,1107,0,0
427,-83,0,0,0,0,0,0,0,0,0,-1,1651,1107,0,0
434,-83,0,0,0,0,0,0,0,0,0,-1,1658,1107,0,0
441,-83,0,0,0,0,0,0,0,0,0,-1,1665,1107,0,0
448,-83,0,0,0,0,0,0,0,0,0,-1,1672,1107,0,0
455,-83,0,0,0,0,0,0,0,0,0,-1,1679,1107,0,0
462,-83,0,0,0,0,0,0,0,0,0,-1,1686,1107,0,0
469,-83,0,0,0,0,0,0,0,0,0,-1,1693,1107,0,0
476,-83,0,0,0,0,0,0,0,0,0,-1,1700,1107,0,0
483,-83,0,0,0,0,0,0,0,0,0,-1,1707,1107,0,0
490,-83,0,0,0,0,0,0,0,0,0,-1,1714,1107,0,0
497,-83,0,0,0,0,0,0,0,0,0,-1,1721,1107,0,0
504,-83,0,0,0,0,0,0,0,0,0,-1,1728,1107,0,0
511,-83,0,0,0,0,0,0,0,0,0,-1,1735,1107,0,0
518,-83,0,0,0,0,0,0,0,0,0,-1,1742,1107,0,0
525,-83,0,0,0,0,0,0,0,0,0,-1,1749,1107,0,0
532,-83,0,0,0,0,0,0,0,0,0,-1,1756,1107,0,0
539,-83,0,0,0,0,0,0,0,0,0,-1,1763,1107,0,0
546,-83,0,0,0,0,0,0,0,0,0,-1,1770,1107,0,0
553,-83,0,0,0,0,0,0,0,0,0,-1,1777,1107,0,0
560,-83,0,0,0,0,0,0,0,0,0,-1,1784,1107,0,0
567,-83,0,0,0,0,0,0,0,0,0,-1,1791,1107,0,0
574,-83,0,0,0,0,0,0,0,0,0,-1,1798,1107,0,0
581,-83,0,0,0,0,0,0,0,0,0,-1,1805,1107,0,0
588,-83,0,0,0,0,0,0,0,0,0,-1,1812,1107,0,0
595,-83,0,0,0,0,0,0,0,0,0,-1,1819,1107,0,0
602,-83,0,0,0,0,0,0,0,0,0,-1,1826,1107,0,0
609,-83,0,0,0,0,0,0,0,0,0,-1,1833,1107,0,0
616,-83,0,0,0,0,0,0,0,0,0,-1,1840,1107,0,0
623,-83,0,0,0,0,0,0,0,0,0,-1,1847,1107,0,0
630,-83,0,0,0,0,0,0,0,0,0,-1,1854,1107,0,0
637,-83,0,0,0,0,0,0,0,0,0,-1,1861,1107,0,0
644,-83,158.995,5.32776,0,0,0,0,0,0,0,-1,1868,1107,158.995,-5.32771
651,-83,159.154,5.30811,0,0,0,0,0,0,0,-1,1875,1107,159.154,-5.30805
658,-83,159.155,5.24377,0,0,0,0,0,0,0,-1,1882,1107,159.155,-5.24372
665,-83,159.005,5.04077,0,0,0,0,0,0,0,-1,1889,1107,159.005,-5.04077
672,-83,159.013,5.63403,0,0,0,0,0,0,0,-1,1896,1107,159.013,-5.63401
679,-83,158.951,6.00342,0,0,0,0,0,0,0,-1,1903,1107,158.951,-6.00339
686,-83,159.104,5.43188,0,0,0,0,0,0,0,-1,1910,1107,159.104,-5.43189
693,-83,159.029,5.22644,0,0,0,0,0,0,0,-1,1917,1107,159.029,-5.22649
700,-83,158.944,5.29626,0,0,0,0,0,0,0,-1,1924,1107,158.944,-5.29632
707,-83,158.979,5.21875,0,0,0,0,0,0,0,-1,1931,1107,158.979,-5.21874
714,-83,159.064,5.18408,0,0,0,0,0,0,0,-1,1938,1107,159.064,-5.18414
721,-83,49.1162,7.36719,0,0,0,0,0,0,0,-1,1945,1107,49.1162,-7.36721
728,-83,66.6315,8.32141,0,0,0,0,0,0,0,-1,1952,1107,66.6314,-8.32147
735,-83,158.367,25.9456,0,0,0,0,0,0,0,-1,1959,1107,158.367,-25.9456
742,-83,158.404,25.2958,-0.00389927,-0.00566648,0.00406068,-0.000627172,-0.00893858,0.678268,0.00576139,0.0460547,1966,1107,158.404,-25.2958
749,-83,158.443,24.7277,-0.00952112,0.00265803,0.00408045,0.00389873,-0.0107618,1.27562,0.00876798,0.0307202,1973,1107,158.443,-24.7276
756,-83,158.368,24.2037,-0.0152168,0.0107983,0.00425058,0.0114751,-0.0158937,1.41288,0.0158699,0.0247305,1980,1107,158.369,-24.2037
763,-83,158.233,23.6501,-0.0209286,0.0187483,0.00454266,0.0192618,-0.0214421,1.45825,0.0235116,0.0167941,1987,1107,158.233,-23.6502
770,-83,158.006,23.2085,-0.0265942,0.0265025,0.00493169,0.0269567,-0.0270483,1.47896,0.0311798,0.0205919,1994,1107,158.006,-23.2085
777,-83,157.588,22.7407,-0.0321468,0.034055,0.00539634,0.0344919,-0.0325838,1.48999,0.0387314,0.0235425,2001,1107,157.588,-22.7408
784,-83,157.156,22.4427,-0.037519,0.0413165,0.0060667,0.0417806,-0.0379832,1.49444,0.046069,0.0352759,2008,1107,157.156,-22.4427
791,-83,156.972,22.1628,0,0,0,0,0,0,0,-1,2015,1107,156.972,-22.1629
798,-83,131.871,16.2344,0,0,0,0,0,0,0,-1,2022,1107,131.871,-16.2344
805,-83,124.276,12.3838,0,0,0,0,0,0,0,-1,2029,1107,124.276,-12.3837
812,-83,124.219,11.7633,0,0,0,0,0,0,0,-1,2036,1107,124.219,-11.7633
-700,-90,0,0,0,0,0,0,0,0,0,-1,524,1114,0,0
-693,-90,-90.692,3.47388,0,0,0,0,0,0,0,-1,531,1114,-90.692,-3.4739
-686,-90,-90.7303,5.27307,0,0,0,0,0,0,0,-1,538,1114,-90.7303,-5.27313
-679,-90,-90.8391,6.87366,0,0,0,0,0,0,0,-1,545,1114,-90.8391,-6.8736
-672,-90,-90.992,7.98755,0,0,0,0,0,0,0,-1,552,1114,-90.9921,-7.98753
-665,-90,-90.9703,9.08142,0,0,0,0,0,0,0,-1,559,1114,-90.9703,-9.08142
-658,-90,-91.029,9.63928,0,0,0,0,0,0,0,-1,566,1114,-91.029,-9.63924
-651,-90,-148.441,22.2789,0,0,0,0,0,0,0,-1,573,1114,-148.441,-22.2789
-644,-90,-148.73,22.957,-0.0220812,0.033645,-0.00293952,0.0337996,-0.0222358,-1.51824,0.0325809,0.0323962,580,1114,-148.73,-22.957
-637,-90,-148.913,23.6122,-0.0171126,0.0259277,-0.00236055,0.0260568,-0.0172417,-1.51617,0.0251705,0.024524,587,1114,-148.913,-23.6122
-630,-90,-149.022,24.1771,-0.0123429,0.0183043,-0.00178415,0.0184078,-0.0124464,-1.51284,0.0179242,0.0178487,594,1114,-149.022,-24.1771
-623,-90,-149.059,24.709,-0.00771673,0.0107545,-0.00123962,0.0108374,-0.00779955,-1.50408,0.0108076,0.0156829,601,1114,-149.059,-24.709
-616,-90,-149.109,25.275,-0.00317841,0.00325942,-0.000753574,0.00334645,-0.00326545,-1.45581,0.00381748,0.0155273,608,1114,-149.109,-25.2751
-609,-90,-149.095,25.7906,0.00132828,-0.00419897,-0.000350383,0.0013504,-0.0042211,-0.0630554,0.00335602,0.024574,615,1114,-149.095,-25.7907
-602,-90,-149.182,26.3306,0.00586077,-0.0116379,-5.27132e-05,0.00586093,-0.011638,-0.00301238,0.0102849,0.0248021,622,1114,-149.182,-26.3306
-595,-90,-149.034,26.9264,0,0,0,0,0,0,0,-1,629,1114,-149.034,-26.9264
-588,-90,-145.984,26.0542,0,0,0,0,0,0,0,-1,636,1114,-145.984,-26.0542
-581,-90,-72.1534,0.511597,0,0,0,0,0,0,0,-1,643,1114,-72.1535,-0.511617
-574,-90,-72.1114,0.455933,0,0,0,0,0,0,0,-1,650,1114,-72.1114,-0.455892
-567,-90,-71.9807,0.329224,0,0,0,0,0,0,0,-1,657,1114,-71.9807,-0.329208
-560,-90,-71.8557,0.221558,0,0,0,0,0,0,0,-1,664,1114,-71.8556,-0.221563
-553,-90,-72.0052,0.168823,0,0,0,0,0,0,0,-1,671,1114,-72.0052,-0.16887
-546,-90,-72.0448,0.128662,0,0,0,0,0,0,0,-1,678,1114,-72.0448,-0.128629
-539,-90,-72.0883,0.242065,0,0,0,0,0,0,0,-1,685,1114,-72.0882,-0.242084
-532,-90,-72.1111,0.248169,0,0,0,0,0,0,0,-1,692,1114,-72.1112,-0.248142
-525,-90,0,0,0,0,0,0,0,0,0,-1,699,1114,0,0
-518,-90,0,0,0,0,0,0,0,0,0,-1,706,1114,0,0
-511,-90,0,0,0,0,0,0,0,0,0,-1,713,1114,0,0
-504,-90,0,0,0,0,0,0,0,0,0,-1,720,1114,0,0
-497,-90,0,0,0,0,0,0,0,0,0,-1,727,1114,0,0
-490,-90,0,0,0,0,0,0,0,0,0,-1,734,1114,0,0
-483,-90,0,0,0,0,0,0,0,0,0,-1,741,1114,0,0
-476,-90,0,0,0,0,0,0,0,0,0,-1,748,1114,0,0
-469,-90,0,0,0,0,0,0,0,0,0,-1,755,1114,0,0
-462,-90,0,0,0,0,0,0,0,0,0,-1,762,1114,0,0
-455,-90,0,0,0,0,0,0,0,0,0,-1,769,1114,0,0
-448,-90,0,0,0,0,0,0,0,0,0,-1,776,1114,0,0
-441,-90,0,0,0,0,0,0,0,0,0,-1,783,1114,0,0
-434,-90,0,0,0,0,0,0,0,0,0,-1,790,1114,0,0
-427,-90,0,0,0,0,0,0,0,0,0,-1,797,1114,0,0
-420,-90,0,0,0,0,0,0,0,0,0,-1,804,1114,0,0
-413,-90,0,0,0,0,0,0,0,0,0,-1,811,1114,0,0
-406,-90,0,0,0,0,0,0,0,0,0,-1,818,1114,0,0
-399,-90,0,0,0,0,0,0,0,0,0,-1,825,1114,0,0
-392,-90,0,0,0,0,0,0,0,0,0,-1,832,1114,0,0
-385,-90,0,0,0,0,0,0,0,0,0,-1,839,1114,0,0
-378,-90,0,0,0,0,0,0,0,0,0,-1,846,1114,0,0
-371,-90,0,0,0,0,0,0,0,0,0,-1,853,1114,0,0
-364,-90,0,0,0,0,0,0,0,0,0,-1,860,1114,0,0
-357,-90,0,0,0,0,0,0,0,0,0,-1,867,1114,0,0
-350,-90,0,0,0,0,0,0,0,0,0,-1,874,1114,0,0
-343,-90,0,0,0,0,0,0,0,0,0,-1,881,1114,0,0
-336,-90,0,0,0,0,0,0,0,0,0,-1,888,1114,0,0
-329,-90,0,0,0,0,0,0,0,0,0,-1,895,1114,0,0
-322,-90,0,0,0,0,0,0,0,0,0,-1,902,1114,0,0
-315,-90,0,0,0,0,0,0,0,0,0,-1,909,1114,0,0
-308,-90,0,0,0,0,0,0,0,0,0,-1,916,1114,0,0
-301,-90,0,0,0,0,0,0,0,0,0,-1,923,1114,0,0
-294,-90,0,0,0,0,0,0,0,0,0,-1,930,1114,0,0
-287,-90,0,0,0,0,0,0,0,0,0,-1,937,1114,0,0
-280,-90,0,0,0,0,0,0,0,0,0,-1,944,1114,0,0
-273,-90,0,0,0,0,0,0,0,0,0,-1,951,1114,0,0
-266,-90,0,0,0,0,0,0,0,0,0,-1,958,1114,0,0
-259,-90,0,0,0,0,0,0,0,0,0,-1,965,1114,0,0
-252,-90,0,0,0,0,0,0,0,0,0,-1,972,1114,0,0
-245,-90,0,0,0,0,0,0,0,0,0,-1,979,1114,0,0
-238,-90,0,0,0,0,0,0,0,0,0,-1,986,1114,0,0
-231,-90,0,0,0,0,0,0,0,0,0,-1,993,1114,0,0
-224,-90,0,0,0,0,0,0,0,0,0,-1,1000,1114,0,0
-217,-90,0,0,0,0,0,0,0,0,0,-1,1007,1114,0,0
-210,-90,0,0,0,0,0,0,0,0,0,-1,1014,1114,0,0
-203,-90,0,0,0,0,0,0,0,0,0,-1,1021,1114,0,0
-196,-90,0,0,0,0,0,0,0,0,0,-1,1028,1114,0,0
-189,-90,0,0,0,0,0,0,0,0,0,-1,1035,1114,0,0
-182,-90,0,0,0,0,0,0,0,0,0,-1,1042,1114,0,0
-175,-90,0,0,0,0,0,0,0,0,0,-1,1049,1114,0,0
-168,-90,0,0,0,0,0,0,0,0,0,-1,1056,1114,0,0
-161,-90,0,0,0,0,0,0,0,0,0,-1,1063,1114,0,0
-154,-90,0,0,0,0,0,0,0,0,0,-1,1070,1114,0,0
-147,-90,0,0,0,0,0,0,0,0,0,-1,1077,1114,0,0
-140,-90,0,0,0,0,0,0,0,0,0,-1,1084,1114,0,0
-133,-90,0,0,0,0,0,0,0,0,0,-1,1091,1114,0,0
-126,-90,0,0,0,0,0,0,0,0,0,-1,1098,1114,0,0
-119,-90,0,0,0,0,0,0,0,0,0,-1,1105,1114,0,0
-112,-90,0,0,0,0,0,0,0,0,0,-1,1112,1114,0,0
-105,-90,0,0,0,0,0,0,0,0,0,-1,1119,1114,0,0
-98,-90,0,0,0,0,0,0,0,0,0,-1,1126,1114,0,0
-91,-90,0,0,0,0,0,0,0,0,0,-1,1133,1114,0,0
-84,-90,0,0,0,0,0,0,0,0,0,-1,1140,1114,0,0
-77,-90,0,0,0,0,0,0,0,0,0,-1,1147,1114,0,0
-70,-90,0,0,0,0,0,0,0,0,0,-1,1154,1114,0,0
-63,-90,0,0,0,0,0,0,0,0,0,-1,1161,1114,0,0
-56,-90,0,0,0,0,0,0,0,0,0,-1,1168,1114,0,0
-49,-90,0,0,0,0,0,0,0,0,0,-1,1175,1114,0,0
-42,-90,0,0,0,0,0,0,0,0,0,-1,1182,1114,0,0
-35,-90,0,0,0,0,0,0,0,0,0,-1,1189,1114,0,0
-28,-90,0,0,0,0,0,0,0,0,0,-1,1196,1114,0,0
-21,-90,0,0,0,0,0,0,0,0,0,-1,1203,1114,0,0
-14,-90,0,0,0,0,0,0,0,0,0,-1,1210,1114,0,0
-7,-90,0,0,0,0,0,0,0,0,0,-1,1217,1114,0,0
0,-90,0,0,0,0,0,0,0,0,0,-1,1224,1114,0,0
7,-90,0,0,0,0,0,0,0,0,0,-1,1231,1114,0,0
14,-90,0,0,0,0,0,0,0,0,0,-1,1238,1114,0,0
21,-90,0,0,0,0,0,0,0,0,0,-1,1245,1114,0,0
28,-90,0,0,0,0,0,0,0,0,0,-1,1252,1114,0,0
35,-90,0,0,0,0,0,0,0,0,0,-1,1259,1114,0,0
42,-90,0,0,0,0,0,0,0,0,0,-1,1266,1114,0,0
49,-90,0,0,0,0,0,0,0,0,0,-1,1273,1114,0,0
56,-90,0,0,0,0,0,0,0,0,0,-1,1280,1114,0,0
63,-90,0,0,0,0,0,0,0,0,0,-1,1287,1114,0,0
70,-90,0,0,0,0,0,0,0,0,0,-1,1294,1114,0,0
77,-90,0,0,0,0,0,0,0,0,0,-1,1301,1114,0,0
84,-90,0,0,0,0,0,0,0,0,0,-1,1308,1114,0,0
91,-90,0,0,0,0,0,0,0,0,0,-1,1315,1114,0,0
98,-90,0,0,0,0,0,0,0,0,0,-1,1322,1114,0,0
105,-90,0,0,0,0,0,0,0,0,0,-1,1329,1114,0,0
112,-90,0,0,0,0,0,0,0,0,0,-1,1336,1114,0,0
119,-90,0,0,0,0,0,0,0,0,0,-1,1343,1114,0,0
126,-90,0,0,0,0,0,0,0,0,0,-1,1350,1114,0,0
133,-90,0,0,0,0,0,0,0,0,0,-1,1357,1114,0,0
140,-90,0,0,0,0,0,0,0,0,0,-1,1364,1114,0,0
147,-90,0,0,0,0,0,0,0,0,0,-1,1371,1114,0,0
154,-90,0,0,0,0,0,0,0,0,0,-1,1378,1114,0,0
161,-90,0,0,0,0,0,0,0,0,0,-1,1385,1114,0,0
168,-90,0,0,0,0,0,0,0,0,0,-1,1392,1114,0,0
175,-90,0,0,0,0,0,0,0,0,0,-1,1399,1114,0,0
182,-90,0,0,0,0,0,0,0,0,0,-1,1406,1114,0,0
189,-90,0,0,0,0,0,0,0,0,0,-1,1413,1114,0,0
196,-90,0,0,0,0,0,0,0,0,0,-1,1420,1114,0,0
203,-90,0,0,0,0,0,0,0,0,0,-1,1427,1114,0,0
210,-90,0,0,0,0,0,0,0,0,0,-1,1434,1114,0,0
217,-90,0,0,0,0,0,0,0,0,0,-1,1441,1114,0,0
224,-90,0,0,0,0,0,0,0,0,0,-1,1448,1114,0,0
231,-90,0,0,0,0,0,0,0,0,0,-1,1455,1114,0,0
238,-90,0,0,0,0,0,0,0,0,0,-1,1462,1114,0,0
245,-90,0,0,0,0,0,0,0,0,0,-1,1469,1114,0,0
252,-90,0,0,0,0,0,0,0,0,0,-1,1476,1114,0,0
259,-90,0,0,0,0,0,0,0,0,0,-1,1483,1114,0,0
266,-90,0,0,0,0,0,0,0,0,0,-1,1490,1114,0,0
273,-90,0,0,0,0,0,0,0,0,0,-1,1497,1114,0,0
280,-90,0,0,0,0,0,0,0,0,0,-1,1504,1114,0,0
287,-90,0,0,0,0,0,0,0,0,0,-1,1511,1114,0,0
294,-90,0,0,0,0,0,0,0,0,0,-1,1518,1114,0,0
301,-90,0,0,0,0,0,0,0,0,0,-1,1525,1114,0,0
308,-90,0,0,0,0,0,0,0,0,0,-1,1532,1114,0,0
315,-90,0,0,0,0,0,0,0,0,0,-1,1539,1114,0,0
322,-90,0,0,0,0,0,0,0,0,0,-1,1546,1114,0,0
329,-90,0,0,0,0,0,0,0,0,0,-1,1553,1114,0,0
336,-90,0,0,0,0,0,0,0,0,0,-1,1560,1114,0,0
343,-90,0,0,0,0,0,0,0,0,0,-1,1567,1114,0,0
350,-90,0,0,0,0,0,0,0,0,0,-1,1574,1114,0,0
357,-90,0,0,0,0,0,0,0,0,0,-1,1581,1114,0,0
364,-90,0,0,0,0,0,0,0,0,0,-1,1588,1114,0,0
371,-90,0,0,0,0,0,0,0,0,0,-1,1595,1114,0,0
378,-90,0,0,0,0,0,0,0,0,0,-1,1602,1114,0,0
385,-90,0,0,0,0,0,0,0,0,0,-1,1609,1114,0,0
392,-90,0,0,0,0,0,0,0,0,0,-1,1616,1114,0,0
399,-90,0,0,0,0,0,0,0,0,0,-1,1623,1114,0,0
406,-90,0,0,0,0,0,0,0,0,0,-1,1630,1114,0,0
413,-90,0,0,0,0,0,0,0,0,0,-1,1637,1114,0,0
420,-90,0,0,0,0,0,0,0,0,0,-1,1644,1114,0,0
427,-90,0,0,0,0,0,0,0,0,0,-1,1651,1114,0,0
434,-90,0,0,0,0,0,0,0,0,0,-1,1658,1114,0,0
441,-90,0,0,0,0,0,0,0,0,0,-1,1665,1114,0,0
448,-90,0,0,0,0,0,0,0,0,0,-1,1672,1114,0,0
455,-90,0,0,0,0,0,0,0,0,0,-1,1679,1114,0,0
462,-90,0,0,0,0,0,0,0,0,0,-1,1686,1114,0,0
469,-90,0,0,0,0,0,0,0,0,0,-1,1693,1114,0,0
476,-90,0,0,0,0,0,0,0,0,0,-1,1700,1114,0,0
483,-90,0,0,0,0,0,0,0,0,0,-1,1707,1114,0,0
490,-90,0,0,0,0,0,0,0,0,0,-1,1714,1114,0,0
497,-90,0,0,0,0,0,0,0,0,0,-1,1721,1114,0,0
504,-90,0,0,0,0,0,0,0,0,0,-1,1728,1114,0,0
511,-90,0,0,0,0,0,0,0,0,0,-1,1735,1114,0,0
518,-90,0,0,0,0,0,0,0,0,0,-1,1742,1114,0,0
525,-90,0,0,0,0,0,0,0,0,0,-1,1749,1114,0,0
532,-90,0,0,0,0,0,0,0,0,0,-1,1756,1114,0,0
539,-90,0,0,0,0,0,0,0,0,0,-1,1763,1114,0,0
546,-90,0,0,0,0,0,0,0,0,0,-1,1770,1114,0,0
553,-90,0,0,0,0,0,0,0,0,0,-1,1777,1114,0,0
560,-90,0,0,0,0,0,0,0,0,0,-1,1784,1114,0,0
567,-90,0,0,0,0,0,0,0,0,0,-1,1791,1114,0,0
574,-90,0,0,0,0,0,0,0,0,0,-1,1798,1114,0,0
581,-90,0,0,0,0,0,0,0,0,0,-1,1805,1114,0,0
588,-90,0,0,0,0,0,0,0,0,0,-1,1812,1114,0,0
595,-90,0,0,0,0,0,0,0,0,0,-1,1819,1114,0,0
602,-90,0,0,0,0,0,0,0,0,0,-1,1826,1114,0,0
609,-90,0,0,0,0,0,0,0,0,0,-1,1833,1114,0,0
616,-90,0,0,0,0,0,0,0,0,0,-1,1840,1114,0,0
623,-90,0,0,0,0,0,0,0,0,0,-1,1847,1114,0,0
630,-90,0,0,0,0,0,0,0,0,0,-1,1854,1114,0,0
637,-90,0,0,0,0,0,0,0,0,0,-1,1861,1114,0,0
644,-90,158.942,5.4845,0,0,0,0,0,0,0,-1,1868,1114,158.942,-5.48454
651,-90,158.961,5.32825,0,0,0,0,0,0,0,-1,1875,1114,158.961,-5.32827
658,-90,158.973,5.1355,0,0,0,0,0,0,0,-1,1882,1114,158.973,-5.13555
665,-90,158.937,5.14612,0,0,0,0,0,0,0,-1,1889,1114,158.937,-5.14607
672,-90,159.002,5.46533,0,0,0,0,0,0,0,-1,1896,1114,159.002,-5.46539
679,-90,159.029,5.63953,0,0,0,0,0,0,0,-1,1903,1114,159.029,-5.63958
686,-90,159.073,5.5304,0,0,0,0,0,0,0,-1,1910,1114,159.073,-5.53034
693,-90,158.932,5.30212,0,0,0,0,0,0,0,-1,1917,1114,158.932,-5.30209
700,-90,158.835,5.24475,0,0,0,0,0,0,0,-1,1924,1114,158.835,-5.24481
707,-90,158.961,5.13733,0,0,0,0,0,0,0,-1,1931,1114,158.961,-5.13733
714,-90,159.133,4.93945,0,0,0,0,0,0,0,-1,1938,1114,159.133,-4.93948
721,-90,63.521,8.76965,0,0,0,0,0,0,0,-1,1945,1114,63.521,-8.7697
728,-90,135.37,21.8513,0,0,0,0,0,0,0,-1,1952,1114,135.37,-21.8513
735,-90,157.51,26.0728,0,0,0,0,0,0,0,-1,1959,1114,157.51,-26.0727
742,-90,157.76,24.6982,0,0,0,0,0,0,0,-1,1966,1114,157.76,-24.6982
749,-90,157.92,24.389,-0.00925228,0.00288044,0.00413165,0.00415379,-0.0105256,1.27184,0.00873725,0.0369931,1973,1114,157.92,-24.3891
756,-90,157.915,23.9675,-0.0151613,0.0110577,0.00431057,0.0117482,-0.0158518,1.41196,0.0159934,0.0286101,1980,1114,157.915,-23.9675
763,-90,157.717,23.4733,-0.0211648,0.0190303,0.00463757,0.0195585,-0.021693,1.4574,0.0238272,0.0165897,1987,1114,157.717,-23.4732
770,-90,157.508,22.8992,-0.0272142,0.0267985,0.00508621,0.0272733,-0.027689,1.47772,0.0317328,0.0243435,1994,1114,157.508,-22.8992
777,-90,157.118,22.4382,-0.0332564,0.034362,0.00563497,0.0348283,-0.0337228,1.48822,0.0395797,0.0277362,2001,1114,157.118,-22.4383
784,-90,156.675,22.0955,-0.0392957,0.0415864,0.00649804,0.0421051,-0.0398144,1.49114,0.0473024,0.0456538,2008,1114,156.675,-22.0955
791,-90,156.376,21.7982,0,0,0,0,0,0,0,-1,2015,1114,156.376,-21.7982
798,-90,134.395,15.3065,0,0,0,0,0,0,0,-1,2022,1114,134.394,-15.3065
805,-90,131.621,15.2422,0,0,0,0,0,0,0,-1,2029,1114,131.621,-15.2421
812,-90,123.027,11.3015,0,0,0,0,0,0,0,-1,2036,1114,123.027,-11.3016
-700,-97,0,0,0,0,0,0,0,0,0,-1,524,1121,0,0
-693,-97,-89.9478,2.73914,0,0,0,0,0,0,0,-1,531,1121,-89.9478,-2.73918
-686,-97,-89.8224,4.55396,0,0,0,0,0,0,0,-1,538,1121,-89.8224,-4.55392
-679,-97,-89.7606,6.30127,0,0,0,0,0,0,0,-1,545,1121,-89.7606,-6.3013
-672,-97,-89.9535,7.65637,0,0,0,0,0,0,0,-1,552,1121,-89.9534,-7.65637
-665,-97,-90.0474,8.70679,0,0,0,0,0,0,0,-1,559,1121,-90.0474,-8.7068
-658,-97,-90.24,9.39502,0,0,0,0,0,0,0,-1,566,1121,-90.24,-9.39496
-651,-97,-148.143,22.1868,0,0,0,0,0,0,0,-1,573,1121,-148.143,-22.1868
-644,-97,-148.282,22.74,-0.0222745,0.0332004,-0.00358557,0.0334312,-0.0225053,-1.50652,0.0324997,0.0249977,580,1121,-148.282,-22.74
-637,-97,-148.344,23.4548,-0.0175215,0.0257307,-0.00282808,0.0259148,-0.0177056,-1.50578,0.0253325,0.0229575,587,1121,-148.344,-23.4548
-630,-97,-148.445,24.0702,-0.0129738,0.0183542,-0.00204432,0.0184871,-0.0131066,-1.50591,0.0183286,0.0161307,594,1121,-148.445,-24.0702
-623,-97,-148.523,24.5682,-0.00858047,0.0110515,-0.00126612,0.0111328,-0.00866179,-1.50666,0.0114581,0.0187275,601,1121,-148.523,-24.5683
-616,-97,-148.581,25.2438,-0.00429179,0.00380337,-0.000523063,0.00383703,-0.00432545,-1.50654,0.00471542,0.0208207,608,1121,-148.581,-25.2438
-609,-97,-148.655,25.8619,-5.90594e-05,-0.00340903,0.000157171,-5.17014e-05,-0.00341639,0.0467803,0.00226055,0.0291843,615,1121,-148.655,-25.8619
-602,-97,-148.73,26.4127,0.00416573,-0.0106047,0.0007484,0.00420355,-0.0106426,0.0504963,0.00883605,0.0323651,622,1121,-148.73,-26.4127
-595,-97,-148.531,26.9796,0,0,0,0,0,0,0,-1,629,1121,-148.531,-26.9796
-588,-97,-145.714,26.3563,0,0,0,0,0,0,0,-1,636,1121,-145.714,-26.3563
-581,-97,-51.2355,3.23926,0,0,0,0,0,0,0,-1,643,1121,-51.2355,-3.23926
-574,-97,-72.1288,0.532715,0,0,0,0,0,0,0,-1,650,1121,-72.1289,-0.532768
-567,-97,-72.0277,0.395386,0,0,0,0,0,0,0,-1,657,1121,-72.0277,-0.395328
-560,-97,-71.9832,0.468018,0,0,0,0,0,0,0,-1,664,1121,-71.9832,-0.467976
-553,-97,-72.03,0.328735,0,0,0,0,0,0,0,-1,671,1121,-72.03,-0.328706
-546,-97,-72.0363,0.304321,0,0,0,0,0,0,0,-1,678,1121,-72.0362,-0.30431
-539,-97,-72.1473,0.396973,0,0,0,0,0,0,0,-1,685,1121,-72.1474,-0.396945
-532,-97,-72.1843,0.338135,0,0,0,0,0,0,0,-1,692,1121,-72.1843,-0.338076
-525,-97,0,0,0,0,0,0,0,0,0,-1,699,1121,0,0
-518,-97,0,0,0,0,0,0,0,0,0,-1,706,1121,0,0
-511,-97,0,0,0,0,0,0,0,0,0,-1,713,1121,0,0
-504,-97,0,0,0,0,0,0,0,0,0,-1,720,1121,0,0
-497,-97,0,0,0,0,0,0,0,0,0,-1,727,1121,0,0
-490,-97,0,0,0,0,0,0,0,0,0,-1,734,1121,0,0
-483,-97,0,0,0,0,0,0,0,0,0,-1,741,1121,0,0
-476,-97,0,0,0,0,0,0,0,0,0,-1,748,1121,0,0
-469,-97,0,0,0,0,0,0,0,0,0,-1,755,1121,0,0
-462,-97,0,0,0,0,0,0,0,0,0,-1,762,1121,0,0
-455,-97,0,0,0,0,0,0,0,0,0,-1,769,1121,0,0
-448,-97,0,0,0,0,0,0,0,0,0,-1,776,1121,0,0
-441,-97,0,0,0,0,0,0,0,0,0,-1,783,1121,0,0
-434,-97,0,0,0,0,0,0,0,0,0,-1,790,1121,0,0
-427,-97,0,0,0,0,0,0,0,0,0,-1,797,1121,0,0
-420,-97,0,0,0,0,0,0,0,0,0,-1,804,1121,0,0
-413,-97,0,0,0,0,0,0,0,0,0,-1,811,1121,0,0
-406,-97,0,0,0,0,0,0,0,0,0,-1,818,1121,0,0
-399,-97,0,0,0,0,0,0,0,0,0,-1,825,1121,0,0
-392,-97,0,0,0,0,0,0,0,0,0,-1,832,1121,0,0
-385,-97,0,0,0,0,0,0,0,0,0,-1,839,1121,0,0
-378,-97,0,0,0,0,0,0,0,0,0,-1,846,1121,0,0
-371,-97,0,0,0,0,0,0,0,0,0,-1,853,1121,0,0
-364,-97,0,0,0,0,0,0,0,0,0,-1,860,1121,0,0
-357,-97,0,0,0,0,0,0,0,0,0,-1,867,1121,0,0
-350,-97,0,0,0,0,0,0,0,0,0,-1,874,1121,0,0
-343,-97,0,0,0,0,0,0,0,0,0,-1,881,1121,0,0
-336,-97,0,0,0,0,0,0,0,0,0,-1,888,1121,0,0
-329,-97,0,0,0,0,0,0,0,0,0,-1,895,1121,0,0
-322,-97,0,0,0,0,0,0,0,0,0,-1,902,1121,0,0
-315,-97,0,0,0,0,0,0,0,0,0,-1,909,1121,0,0
-308,-97,0,0,0,0,0,0,0,0,0,-1,916,1121,0,0
-301,-97,0,0,0,0,0,0,0,0,0,-1,923,1121,0,0
-294,-97,0,0,0,0,0,0,0,0,0,-1,930,1121,0,0
-287,-97,0,0,0,0,0,0,0,0,0,-1,937,1121,0,0
-280,-97,0,0,0,0,0,0,0,0,0,-1,944,1121,0,0
-273,-97,0,0,0,0,0,0,0,0,0,-1,951,1121,0,0
-266,-97,0,0,0,0,0,0,0,0,0,-1,958,1121,0,0
-259,-97,0,0,0,0,0,0,0,0,0,-1,965,1121,0,0
-252,-97,0,0,0,0,0,0,0,0,0,-1,972,1121,0,0
-245,-97,0,0,0,0,0,0,0,0,0,-1,979,1121,0,0
-238,-97,0,0,0,0,0,0,0,0,0,-1,986,1121,0,0
-231,-97,0,0,0,0,0,0,0,0,0,-1,993,1121,0,0
-224,-97,0,0,0,0,0,0,0,0,0,-1,1000,1121,0,0
-217,-97,0,0,0,0,0,0,0,0,0,-1,1007,1121,0,0
-210,-97,0,0,0,0,0,0,0,0,0,-1,1014,1121,0,0
-203,-97,0,0,0,0,0,0,0,0,0,-1,1021,1121,0,0
-196,-97,0,0,0,0,0,0,0,0,0,-1,1028,1121,0,0
-189,-97,0,0,0,0,0,0,0,0,0,-1,1035,1121,0,0
-182,-97,0,0,0,0,0,0,0,0,0,-1,1042,1121,0,0
-175,-97,0,0,0,0,0,0,0,0,0,-1,1049,1121,0,0
-168,-97,0,0,0,0,0,0,0,0,0,-1,1056,1121,0,0
-161,-97,0,0,0,0,0,0,0,0,0,-1,1063,1121,0,0
-154,-97,0,0,0,0,0,0,0,0,0,-1,1070,1121,0,0
-147,-97,0,0,0,0,0,0,0,0,0,-1,1077,1121,0,0
-140,-97,0,0,0,0,0,0,0,0,0,-1,1084,1121,0,0
-133,-97,0,0,0,0,0,0,0,0,0,-1,1091,1121,0,0
-126,-97,0,0,0,0,0,0,0,0,0,-1,1098,1121,0,0
-119,-97,0,0,0,0,0,0,0,0,0,-1,1105,1121,0,0
-112,-97,0,0,0,0,0,0,0,0,0,-1,1112,1121,0,0
-105,-97,0,0,0,0,0,0,0,0,0,-1,1119,1121,0,0
-98,-97,0,0,0,0,0,0,0,0,0,-1,1126,1121,0,0
-91,-97,0,0,0,0,0,0,0,0,0,-1,1133,1121,0,0
-84,-97,0,0,0,0,0,0,0,0,0,-1,1140,1121,0,0
-77,-97,0,0,0,0,0,0,0,0,0,-1,1147,1121,0,0
-70,-97,0,0,0,0,0,0,0,0,0,-1,1154,1121,0,0
-63,-97,0,0,0,0,0,0,0,0,0,-1,1161,1121,0,0
-56,-97,0,0,0,0,0,0,0,0,0,-1,1168,1121,0,0
-49,-97,0,0,0,0,0,0,0,0,0,-1,1175,1121,0,0
-42,-97,0,0,0,0,0,0,0,0,0,-1,1182,1121,0,0
-35,-97,0,0,0,0,0,0,0,0,0,-1,1189,1121,0,0
-28,-97,0,0,0,0,0,0,0,0,0,-1,1196,1121,0,0
-21,-97,0,0,0,0,0,0,0,0,0,-1,1203,1121,0,0
-14,-97,0,0,0,0,0,0,0,0,0,-1,1210,1121,0,0
-7,-97,0,0,0,0,0,0,0,0,0,-1,1217,1121,0,0
0,-97,0,0,0,0,0,0,0,0,0,-1,1224,1121,0,0
7,-97,0,0,0,0,0,0,0,0,0,-1,1231,1121,0,0
14,-97,0,0,0,0,0,0,0,0,0,-1,1238,1121,0,0
21,-97,0,0,0,0,0,0,0,0,0,-1,1245,1121,0,0
28,-97,0,0,0,0,0,0,0,0,0,-1,1252,1121,0,0
35,-97,0,0,0,0,0,0,0,0,0,-1,1259,1121,0,0
42,-97,0,0,0,0,0,0,0,0,0,-1,1266,1121,0,0
49,-97,0,0,0,0,0,0,0,0,0,-1,1273,1121,0,0
56,-97,0,0,0,0,0,0,0,0,0,-1,1280,1121,0,0
63,-97,0,0,0,0,0,0,0,0,0,-1,1287,1121,0,0
70,-97,0,0,0,0,0,0,0,0,0,-1,1294,1121,0,0
77,-97,0,0,0,0,0,0,0,0,0,-1,1301,1121,0,0
84,-97,0,0,0,0,0,0,0,0,0,-1,1308,1121,0,0
91,-97,0,0,0,0,0,0,0,0,0,-1,1315,1121,0,0
98,-97,0,0,0,0,0,0,0,0,0,-1,1322,1121,0,0
105,-97,0,0,0,0,0,0,0,0,0,-1,1329,1121,0,0
112,-97,0,0,0,0,0,0,0,0,0,-1,1336,1121,0,0
119,-97,0,0,0,0,0,0,0,0,0,-1,1343,1121,0,0
126,-97,0,0,0,0,0,0,0,0,0,-1,1350,1121,0,0
133,-97,0,0,0,0,0,0,0,0,0,-1,1357,1121,0,0
140,-97,0,0,0,0,0,0,0,0,0,-1,1364,1121,0,0
147,-97,0,0,0,0,0,0,0,0,0,-1,1371,1121,0,0
154,-97,0,0,0,0,0,0,0,0,0,-1,1378,1121,0,0
161,-97,0,0,0,0,0,0,0,0,0,-1,1385,1121,0,0
168,-97,0,0,0,0,0,0,0,0,0,-1,1392,1121,0,0
175,-97,0,0,0,0,0,0,0,0,0,-1,1399,1121,0,0
182,-97,0,0,0,0,0,0,0,0,0,-1,1406,1121,0,0
189,-97,0,0,0,0,0,0,0,0,0,-1,1413,1121,0,0
196,-97,0,0,0,0,0,0,0,0,0,-1,1420,1121,0,0
203,-97,0,0,0,0,0,0,0,0,0,-1,1427,1121,0,0
210,-97,0,0,0,0,0,0,0,0,0,-1,1434,1121,0,0
217,-97,0,0,0,0,0,0,0,0,0,-1,1441,1121,0,0
224,-97,0,0,0,0,0,0,0,0,0,-1,1448,1121,0,0
231,-97,0,0,0,0,0,0,0,0,0,-1,1455,1121,0,0
238,-97,0,0,0,0,0,0,0,0,0,-1,1462,1121,0,0
245,-97,0,0,0,0,0,0,0,0,0,-1,1469,1121,0,0
252,-97,0,0,0,0,0,0,0,0,0,-1,1476,1121,0,0
259,-97,0,0,0,0,0,0,0,0,0,-1,1483,1121,0,0
266,-97,0,0,0,0,0,0,0,0,0,-1,1490,1121,0,0
273,-97,0,0,0,0,0,0,0,0,0,-1,1497,1121,0,0
280,-97,0,0,0,0,0,0,0,0,0,-1,1504,1121,0,0
287,-97,0,0,0,0,0,0,0,0,0,-1,1511,1121,0,0
294,-97,0,0,0,0,0,0,0,0,0,-1,1518,1121,0,0
301,-97,0,0,0,0,0,0,0,0,0,-1,1525,1121,0,0
308,-97,0,0,0,0,0,0,0,0,0,-1,1532,1121,0,0
315,-97,0,0,0,0,0,0,0,0,0,-1,1539,1121,0,0
322,-97,0,0,0,0,0,0,0,0,0,-1,1546,1121,0,0
329,-97,0,0,0,0,0,0,0,0,0,-1,1553,1121,0,0
336,-97,0,0,0,0,0,0,0,0,0,-1,1560,1121,0,0
343,-97,0,0,0,0,0,0,0,0,0,-1,1567,1121,0,0
350,-97,0,0,0,0,0,0,0,0,0,-1,1574,1121,0,0
357,-97,0,0,0,0,0,0,0,0,0,-1,1581,1121,0,0
364,-97,0,0,0,0,0,0,0,0,0,-1,1588,1121,0,0
371,-97,0,0,0,0,0,0,0,0,0,-1,1595,1121,0,0
378,-97,0,0,0,0,0,0,0,0,0,-1,1602,1121,0,0
385,-97,0,0,0,0,0,0,0,0,0,-1,1609,1121,0,0
392,-97,0,0,0,0,0,0,0,0,0,-1,1616,1121,0,0
399,-97,0,0,0,0,0,0,0,0,0,-1,1623,1121,0,0
406,-97,0,0,0,0,0,0,0,0,0,-1,1630,1121,0,0
413,-97,0,0,0,0,0,0,0,0,0,-1,1637,1121,0,0
420,-97,0,0,0,0,0,0,0,0,0,-1,1644,1121,0,0
427,-97,0,0,0,0,0,0,0,0,0,-1,1651,1121,0,0
434,-97,0,0,0,0,0,0,0,0,0,-1,1658,1121,0,0
441,-97,0,0,0,0,0,0,0,0,0,-1,1665,1121,0,0
448,-97,0,0,0,0,0,0,0,0,0,-1,1672,1121,0,0
455,-97,0,0,0,0,0,0,0,0,0,-1,1679,1121,0,0
462,-97,0,0,0,0,0,0,0,0,0,-1,1686,1121,0,0
469,-97,0,0,0,0,0,0,0,0,0,-1,1693,1121,0,0
476,-97,0,0,0,0,0,0,0,0,0,-1,1700,1121,0,0
483,-97,0,0,0,0,0,0,0,0,0,-1,1707,1121,0,0
490,-97,0,0,0,0,0,0,0,0,0,-1,1714,1121,0,0
497,-97,0,0,0,0,0,0,0,0,0,-1,1721,1121,0,0
504,-97,0,0,0,0,0,0,0,0,0,-1,1728,1121,0,0
511,-97,0,0,0,0,0,0,0,0,0,-1,1735,1121,0,0
518,-97,0,0,0,0,0,0,0,0,0,-1,1742,1121,0,0
525,-97,0,0,0,0,0,0,0,0,0,-1,1749,1121,0,0
532,-97,0,0,0,0,0,0,0,0,0,-1,1756,1121,0,0
539,-97,0,0,0,0,0,0,0,0,0,-1,1763,1121,0,0
546,-97,0,0,0,0,0,0,0,0,0,-1,1770,1121,0,0
553,-97,0,0,0,0,0,0,0,0,0,-1,1777,1121,0,0
560,-97,0,0,0,0,0,0,0,0,0,-1,1784,1121,0,0
567,-97,0,0,0,0,0,0,0,0,0,-1,1791,1121,0,0
574,-97,0,0,0,0,0,0,0,0,0,-1,1798,1121,0,0
581,-97,0,0,0,0,0,0,0,0,0,-1,1805,1121,0,0
588,-97,0,0,0,0,0,0,0,0,0,-1,1812,1121,0,0
595,-97,0,0,0,0,0,0,0,0,0,-1,1819,1121,0,0
602,-97,0,0,0,0,0,0,0,0,0,-1,1826,1121,0,0
609,-97,0,0,0,0,0,0,0,0,0,-1,1833,1121,0,0
616,-97,0,0,0,0,0,0,0,0,0,-1,1840,1121,0,0
623,-97,0,0,0,0,0,0,0,0,0,-1,1847,1121,0,0
630,-97,0,0,0,0,0,0,0,0,0,-1,1854,1121,0,0
637,-97,0,0,0,0,0,0,0,0,0,-1,1861,1121,0,0
644,-97,159.001,5.53479,0,0,0,0,0,0,0,-1,1868,1121,159.001,-5.53483
651,-97,158.953,5.46094,0,0,0,0,0,0,0,-1,1875,1121,158.953,-5.46095
658,-97,158.888,5.34644,0,0,0,0,0,0,0,-1,1882,1121,158.888,-5.34647
665,-97,158.884,5.29504,0,0,0,0,0,0,0,-1,1889,1121,158.884,-5.29503
672,-97,158.965,5.41858,0,0,0,0,0,0,0,-1,1896,1121,158.965,-5.41852
679,-97,159.016,5.53027,0,0,0,0,0,0,0,-1,1903,1121,159.016,-5.53023
686,-97,158.925,5.58154,0,0,0,0,0,0,0,-1,1910,1121,158.925,-5.58156
693,-97,158.919,5.36646,0,0,0,0,0,0,0,-1,1917,1121,158.919,-5.36647
700,-97,158.85,5.24316,0,0,0,0,0,0,0,-1,1924,1121,158.85,-5.2432
707,-97,158.985,5.19666,0,0,0,0,0,0,0,-1,1931,1121,158.985,-5.19664
714,-97,111.154,2.86841,0,0,0,0,0,0,0,-1,1938,1121,111.154,-2.86838
721,-97,134.605,22.2906,0,0,0,0,0,0,0,-1,1945,1121,134.605,-22.2907
728,-97,157.563,26.1794,0,0,0,0,0,0,0,-1,1952,1121,157.563,-26.1795
735,-97,157.213,25.8446,0,0,0,0,0,0,0,-1,1959,1121,157.213,-25.8446
742,-97,157.004,25.1851,-0.0035742,-0.00471715,0.00406645,-3.92725e-05,-0.00825208,0.715588,0.00548834,0.0346976,1966,1121,157.004,-25.1851
749,-97,157.147,24.5328,-0.00937264,0.00348775,0.0041128,0.00469055,-0.0105754,1.28628,0.00902948,0.0388668,1973,1121,157.148,-24.5329
756,-97,157.21,23.8817,-0.0153556,0.0115071,0.00435982,0.012197,-0.0160455,1.41386,0.0163562,0.0254452,1980,1121,157.21,-23.8817
763,-97,157.02,23.3224,-0.0214959,0.0193458,0.00477379,0.0198963,-0.0220464,1.45597,0.0242263,0.0232572,1987,1121,157.02,-23.3223
770,-97,156.832,22.7698,-0.0277611,0.0270076,0.00532549,0.0275207,-0.0282741,1.47476,0.0322141,0.0241683,1994,1121,156.832,-22.7698
777,-97,156.531,22.1879,-0.0341146,0.0344961,0.00599055,0.0350152,-0.0346337,1.48436,0.040212,0.0306952,2001,1121,156.531,-22.1878
784,-97,156.161,21.7122,0,0,0,0,0,0,0,-1,2008,1121,156.161,-21.7122
791,-97,134.17,15.504,0,0,0,0,0,0,0,-1,2015,1121,134.17,-15.504
798,-97,131.522,15.1385,0,0,0,0,0,0,0,-1,2022,1121,131.522,-15.1386
805,-97,124.571,12.1506,0,0,0,0,0,0,0,-1,2029,1121,124.571,-12.1506
812,-97,126.348,9.70874,0,0,0,0,0,0,0,-1,2036,1121,126.348,-9.70871
-700,-104,0,0,0,0,0,0,0,0,0,-1,524,1128,0,0
-693,-104,-88.4984,2.96033,0,0,0,0,0,0,0,-1,531,1128,-88.4984,-2.96029
-686,-104,-88.6273,4.21045,0,0,0,0,0,0,0,-1,538,1128,-88.6273,-4.21046
-679,-104,-88.796,5.63074,0,0,0,0,0,0,0,-1,545,1128,-88.796,-5.63079
-672,-104,-88.9519,7.09509,0,0,0,0,0,0,0,-1,552,1128,-88.9519,-7.09509
-665,-104,-89.3686,8.08325,0,0,0,0,0,0,0,-1,559,1128,-89.3686,-8.0833
-658,-104,-89.5414,8.89392,0,0,0,0,0,0,0,-1,566,1128,-89.5414,-8.89391
-651,-104,-147.144,22.1888,0,0,0,0,0,0,0,-1,573,1128,-147.144,-22.1889
-644,-104,-147.468,22.8058,-0.0217956,0.0325624,-0.00436665,0.0329109,-0.0221442,-1.49115,0.0319881,0.0306786,580,1128,-147.468,-22.8058
-637,-104,-147.641,23.3676,-0.0174206,0.0255928,-0.0034214,0.0258632,-0.0176911,-1.49191,0.0252932,0.0212241,587,1128,-147.641,-23.3676
-630,-104,-147.729,23.8986,-0.0132415,0.0187065,-0.00242143,0.018889,-0.013424,-1.49558,0.0187446,0.0264664,594,1128,-147.729,-23.8986
-623,-104,-147.949,24.4938,-0.00920872,0.011887,-0.0014003,0.0119795,-0.00930127,-1.5048,0.0123189,0.0262402,601,1128,-147.949,-24.4938
-616,-104,-148.249,25.271,-0.00527472,0.00511698,-0.00039038,0.00513163,-0.00528937,-1.5333,0.00601679,0.0307519,608,1128,-148.249,-25.271
-609,-104,-148.349,25.8353,-0.00139456,-0.00162179,0.000576963,-0.000920134,-0.00209622,0.688186,0.00121326,0.0417152,615,1128,-148.349,-25.8353
-602,-104,-148.401,26.4982,0,0,0,0,0,0,0,-1,622,1128,-148.401,-26.4982
-595,-104,-144.464,26.8159,0,0,0,0,0,0,0,-1,629,1128,-144.464,-26.8159
-588,-104,-144.744,27.6185,0,0,0,0,0,0,0,-1,636,1128,-144.744,-27.6186
-581,-104,-23.9373,2.85864,0,0,0,0,0,0,0,-1,643,1128,-23.9373,-2.85861
-574,-104,-72.0505,0.37915,0,0,0,0,0,0,0,-1,650,1128,-72.0505,-0.379201
-567,-104,-71.9956,0.300293,0,0,0,0,0,0,0,-1,657,1128,-71.9956,-0.300253
-560,-104,-72.1018,0.113281,0,0,0,0,0,0,0,-1,664,1128,-72.1018,-0.113305
-553,-104,-72.0447,0.12207,0,0,0,0,0,0,0,-1,671,1128,-72.0447,-0.122018
-546,-104,-72.1016,0.472168,0,0,0,0,0,0,0,-1,678,1128,-72.1016,-0.472146
-539,-104,-72.235,0.630371,0,0,0,0,0,0,0,-1,685,1128,-72.235,-0.630384
-532,-104,-72.246,0.490479,0,0,0,0,0,0,0,-1,692,1128,-72.246,-0.490481
-525,-104,-79.9618,1.60864,0,0,0,0,0,0,0,-1,699,1128,-79.9618,-1.60862
-518,-104,0,0,0,0,0,0,0,0,0,-1,706,1128,0,0
-511,-104,0,0,0,0,0,0,0,0,0,-1,713,1128,0,0
-504,-104,0,0,0,0,0,0,0,0,0,-1,720,1128,0,0
-497,-104,0,0,0,0,0,0,0,0,0,-1,727,1128,0,0
-490,-104,0,0,0,0,0,0,0,0,0,-1,734,1128,0,0
-483,-104,0,0,0,0,0,0,0,0,0,-1,741,1128,0,0
-476,-104,0,0,0,0,0,0,0,0,0,-1,748,1128,0,0
-469,-104,0,0,0,0,0,0,0,0,0,-1,755,1128,0,0
-462,-104,0,0,0,0,0,0,0,0,0,-1,762,1128,0,0
-455,-104,0,0,0,0,0,0,0,0,0,-1,769,1128,0,0
-448,-104,0,0,0,0,0,0,0,0,0,-1,776,1128,0,0
-441,-104,0,0,0,0,0,0,0,0,0,-1,783,1128,0,0
-434,-104,0,0,0,0,0,0,0,0,0,-1,790,1128,0,0
-427,-104,0,0,0,0,0,0,0,0,0,-1,797,1128,0,0
-420,-104,0,0,0,0,0,0,0,0,0,-1,804,1128,0,0
-413,-104,0,0,0,0,0,0,0,0,0,-1,811,1128,0,0
-406,-104,0,0,0,0,0,0,0,0,0,-1,818,1128,0,0
-399,-104,0,0,0,0,0,0,0,0,0,-1,825,1128,0,0
-392,-104,0,0,0,0,0,0,0,0,0,-1,832,1128,0,0
-385,-104,0,0,0,0,0,0,0,0,0,-1,839,1128,0,0
-378,-104,0,0,0,0,0,0,0,0,0,-1,846,1128,0,0
-371,-104,0,0,0,0,0,0,0,0,0,-1,853,1128,0,0
-364,-104,0,0,0,0,0,0,0,0,0,-1,860,1128,0,0
-357,-104,0,0,0,0,0,0,0,0,0,-1,867,1128,0,0
-350,-104,0,0,0,0,0,0,0,0,0,-1,874,1128,0,0
-343,-104,0,0,0,0,0,0,0,0,0,-1,881,1128,0,0
-336,-104,0,0,0,0,0,0,0,0,0,-1,888,1128,0,0
-329,-104,0,0,0,0,0,0,0,0,0,-1,895,1128,0,0
-322,-104,0,0,0,0,0,0,0,0,0,-1,902,1128,0,0
-315,-104,0,0,0,0,0,0,0,0,0,-1,909,1128,0,0
-308,-104,0,0,0,0,0,0,0,0,0,-1,916,1128,0,0
-301,-104,0,0,0,0,0,0,0,0,0,-1,923,1128,0,0
-294,-104,0,0,0,0,0,0,0,0,0,-1,930,1128,0,0
-287,-104,0,0,0,0,0,0,0,0,0,-1,937,1128,0,0
-280,-104,0,0,0,0,0,0,0,0,0,-1,944,1128,0,0
-273,-104,0,0,0,0,0,0,0,0,0,-1,951,1128,0,0
-266,-104,0,0,0,0,0,0,0,0,0,-1,958,1128,0,0
-259,-104,0,0,0,0,0,0,0,0,0,-1,965,1128,0,0
-252,-104,0,0,0,0,0,0,0,0,0,-1,972,1128,0,0
-245,-104,0,0,0,0,0,0,0,0,0,-1,979,1128,0,0
-238,-104,0,0,0,0,0,0,0,0,0,-1,986,1128,0,0
-231,-104,0,0,0,0,0,0,0,0,0,-1,993,1128,0,0
-224,-104,0,0,0,0,0,0,0,0,0,-1,1000,1128,0,0
-217,-104,0,0,0,0,0,0,0,0,0,-1,1007,1128,0,0
-210,-104,0,0,0,0,0,0,0,0,0,-1,1014,1128,0,0
-203,-104,0,0,0,0,0,0,0,0,0,-1,1021,1128,0,0
-196,-104,0,0,0,0,0,0,0,0,0,-1,1028,1128,0,0
-189,-104,0,0,0,0,0,0,0,0,0,-1,1035,1128,0,0
-182,-104,0,0,0,0,0,0,0,0,0,-1,1042,1128,0,0
-175,-104,0,0,0,0,0,0,0,0,0,-1,1049,1128,0,0
-168,-104,0,0,0,0,0,0,0,0,0,-1,1056,1128,0,0
-161,-104,0,0,0,0,0,0,0,0,0,-1,1063,1128,0,0
-154,-104,0,0,0,0,0,0,0,0,0,-1,1070,1128,0,0
-147,-104,0,0,0,0,0,0,0,0,0,-1,1077,1128,0,0
-140,-104,0,0,0,0,0,0,0,0,0,-1,1084,1128,0,0
-133,-104,0,0,0,0,0,0,0,0,0,-1,1091,1128,0,0
-126,-104,0,0,0,0,0,0,0,0,0,-1,1098,1128,0,0
-119,-104,0,0,0,0,0,0,0,0,0,-1,1105,1128,0,0
-112,-104,0,0,0,0,0,0,0,0,0,-1,1112,1128,0,0
-105,-104,0,0,0,0,0,0,0,0,0,-1,1119,1128,0,0
-98,-104,0,0,0,0,0,0,0,0,0,-1,1126,1128,0,0
-91,-104,0,0,0,0,0,0,0,0,0,-1,1133,1128,0,0
-84,-104,0,0,0,0,0,0,0,0,0,-1,1140,1128,0,0
-77,-104,0,0,0,0,0,0,0,0,0,-1,1147,1128,0,0
-70,-104,0,0,0,0,0,0,0,0,0,-1,1154,1128,0,0
-63,-104,0,0,0,0,0,0,0,0,0,-1,1161,1128,0,0
-56,-104,0,0,0,0,0,0,0,0,0,-1,1168,1128,0,0
-49,-104,0,0,0,0,0,0,0,0,0,-1,1175,1128,0,0
-42,-104,0,0,0,0,0,0,0,0,0,-1,1182,1128,0,0
-35,-104,0,0,0,0,0,0,0,0,0,-1,1189,1128,0,0
-28,-104,0,0,0,0,0,0,0,0,0,-1,1196,1128,0,0
-21,-104,0,0,0,0,0,0,0,0,0,-1,1203,1128,0,0
-14,-104,0,0,0,0,0,0,0,0,0,-1,1210,1128,0,0
-7,-104,0,0,0,0,0,0,0,0,0,-1,1217,1128,0,0
0,-104,0,0,0,0,0,0,0,0,0,-1,1224,1128,0,0
7,-104,0,0,0,0,0,0,0,0,0,-1,1231,1128,0,0
14,-104,0,0,0,0,0,0,0,0,0,-1,1238,1128,0,0
21,-104,0,0,0,0,0,0,0,0,0,-1,1245,1128,0,0
28,-104,0,0,0,0,0,0,0,0,0,-1,1252,1128,0,0
35,-104,0,0,0,0,0,0,0,0,0,-1,1259,1128,0,0
42,-104,0,0,0,0,0,0,0,0,0,-1,1266,1128,0,0
49,-104,0,0,0,0,0,0,0,0,0,-1,1273,1128,0,0
56,-104,0,0,0,0,0,0,0,0,0,-1,1280,1128,0,0
63,-104,0,0,0,0,0,0,0,0,0,-1,1287,1128,0,0
70,-104,0,0,0,0,0,0,0,0,0,-1,1294,1128,0,0
77,-104,0,0,0,0,0,0,0,0,0,-1,1301,1128,0,0
84,-104,0,0,0,0,0,0,0,0,0,-1,1308,1128,0,0
91,-104,0,0,0,0,0,0,0,0,0,-1,1315,1128,0,0
98,-104,0,0,0,0,0,0,0,0,0,-1,1322,1128,0,0
105,-104,0,0,0,0,0,0,0,0,0,-1,1329,1128,0,0
112,-104,0,0,0,0,0,0,0,0,0,-1,1336,1128,0,0
119,-104,0,0,0,0,0,0,0,0,0,-1,1343,1128,0,0
126,-104,0,0,0,0,0,0,0,0,0,-1,1350,1128,0,0
133,-104,0,0,0,0,0,0,0,0,0,-1,1357,1128,0,0
140,-104,0,0,0,0,0,0,0,0,0,-1,1364,1128,0,0
147,-104,0,0,0,0,0,0,0,0,0,-1,1371,1128,0,0
154,-104,0,0,0,0,0,0,0,0,0,-1,1378,1128,0,0
161,-104,0,0,0,0,0,0,0,0,0,-1,1385,1128,0,0
168,-104,0,0,0,0,0,0,0,0,0,-1,1392,1128,0,0
175,-104,0,0,0,0,0,0,0,0,0,-1,1399,1128,0,0
182,-104,0,0,0,0,0,0,0,0,0,-1,1406,1128,0,0
189,-104,0,0,0,0,0,0,0,0,0,-1,1413,1128,0,0
196,-104,0,0,0,0,0,0,0,0,0,-1,1420,1128,0,0
203,-104,0,0,0,0,0,0,0,0,0,-1,1427,1128,0,0
210,-104,0,0,0,0,0,0,0,0,0,-1,1434,1128,0,0
217,-104,0,0,0,0,0,0,0,0,0,-1,1441,1128,0,0
224,-104,0,0,0,0,0,0,0,0,0,-1,1448,1128,0,0
231,-104,0,0,0,0,0,0,0,0,0,-1,1455,1128,0,0
238,-104,0,0,0,0,0,0,0,0,0,-1,1462,1128,0,0
245,-104,0,0,0,0,0,0,0,0,0,-1,1469,1128,0,0
252,-104,0,0,0,0,0,0,0,0,0,-1,1476,1128,0,0
259,-104,0,0,0,0,0,0,0,0,0,-1,1483,1128,0,0
266,-104,0,0,0,0,0,0,0,0,0,-1,1490,1128,0,0
273,-104,0,0,0,0,0,0,0,0,0,-1,1497,1128,0,0
280,-104,0,0,0,0,0,0,0,0,0,-1,1504,1128,0,0
287,-104,0,0,0,0,0,0,0,0,0,-1,1511,1128,0,0
294,-104,0,0,0,0,0,0,0,0,0,-1,1518,1128,0,0
301,-104,0,0,0,0,0,0,0,0,0,-1,1525,1128,0,0
308,-104,0,0,0,0,0,0,0,0,0,-1,1532,1128,0,0
315,-104,0,0,0,0,0,0,0,0,0,-1,1539,1128,0,0
322,-104,0,0,0,0,0,0,0,0,0,-1,1546,1128,0,0
329,-104,0,0,0,0,0,0,0,0,0,-1,1553,1128,0,0
336,-104,0,0,0,0,0,0,0,0,0,-1,1560,1128,0,0
343,-104,0,0,0,0,0,0,0,0,0,-1,1567,1128,0,0
350,-104,0,0,0,0,0,0,0,0,0,-1,1574,1128,0,0
357,-104,0,0,0,0,0,0,0,0,0,-1,1581,1128,0,0
364,-104,0,0,0,0,0,0,0,0,0,-1,1588,1128,0,0
371,-104,0,0,0,0,0,0,0,0,0,-1,1595,1128,0,0
378,-104,0,0,0,0,0,0,0,0,0,-1,1602,1128,0,0
385,-104,0,0,0,0,0,0,0,0,0,-1,1609,1128,0,0
392,-104,0,0,0,0,0,0,0,0,0,-1,1616,1128,0,0
399,-104,0,0,0,0,0,0,0,0,0,-1,1623,1128,0,0
406,-104,0,0,0,0,0,0,0,0,0,-1,1630,1128,0,0
413,-104,0,0,0,0,0,0,0,0,0,-1,1637,1128,0,0
420,-104,0,0,0,0,0,0,0,0,0,-1,1644,1128,0,0
427,-104,0,0,0,0,0,0,0,0,0,-1,1651,1128,0,0
434,-104,0,0,0,0,0,0,0,0,0,-1,1658,1128,0,0
441,-104,0,0,0,0,0,0,0,0,0,-1,1665,1128,0,0
448,-104,0,0,0,0,0,0,0,0,0,-1,1672,1128,0,0
455,-104,0,0,0,0,0,0,0,0,0,-1,1679,1128,0,0
462,-104,0,0,0,0,0,0,0,0,0,-1,1686,1128,0,0
469,-104,0,0,0,0,0,0,0,0,0,-1,1693,1128,0,0
476,-104,0,0,0,0,0,0,0,0,0,-1,1700,1128,0,0
483,-104,0,0,0,0,0,0,0,0,0,-1,1707,1128,0,0
490,-104,0,0,0,0,0,0,0,0,0,-1,1714,1128,0,0
497,-104,0,0,0,0,0,0,0,0,0,-1,1721,1128,0,0
504,-104,0,0,0,0,0,0,0,0,0,-1,1728,1128,0,0
511,-104,0,0,0,0,0,0,0,0,0,-1,1735,1128,0,0
518,-104,0,0,0,0,0,0,0,0,0,-1,1742,1128,0,0
525,-104,0,0,0,0,0,0,0,0,0,-1,1749,1128,0,0
532,-104,0,0,0,0,0,0,0,0,0,-1,1756,1128,0,0
539,-104,0,0,0,0,0,0,0,0,0,-1,1763,1128,0,0
546,-104,0,0,0,0,0,0,0,0,0,-1,1770,1128,0,0
553,-104,0,0,0,0,0,0,0,0,0,-1,1777,1128,0,0
560,-104,0,0,0,0,0,0,0,0,0,-1,1784,1128,0,0
567,-104,0,0,0,0,0,0,0,0,0,-1,1791,1128,0,0
574,-104,0,0,0,0,0,0,0,0,0,-1,1798,1128,0,0
581,-104,0,0,0,0,0,0,0,0,0,-1,1805,1128,0,0
588,-104,0,0,0,0,0,0,0,0,0,-1,1812,1128,0,0
595,-104,0,0,0,0,0,0,0,0,0,-1,1819,1128,0,0
602,-104,0,0,0,0,0,0,0,0,0,-1,1826,1128,0,0
609,-104,0,0,0,0,0,0,0,0,0,-1,1833,1128,0,0
616,-104,0,0,0,0,0,0,0,0,0,-1,1840,1128,0,0
623,-104,0,0,0,0,0,0,0,0,0,-1,1847,1128,0,0
630,-104,0,0,0,0,0,0,0,0,0,-1,1854,1128,0,0
637,-104,0,0,0,0,0,0,0,0,0,-1,1861,1128,0,0
644,-104,158.947,5.52661,0,0,0,0,0,0,0,-1,1868,1128,158.947,-5.52658
651,-104,158.934,5.44421,0,0,0,0,0,0,0,-1,1875,1128,158.934,-5.44417
658,-104,159.063,5.23853,0,0,0,0,0,0,0,-1,1882,1128,159.063,-5.23853
665,-104,159.125,5.22217,0,0,0,0,0,0,0,-1,1889,1128,159.125,-5.22221
672,-104,159.147,5.3728,0,0,0,0,0,0,0,-1,1896,1128,159.147,-5.37285
679,-104,158.98,5.51001,0,0,0,0,0,0,0,-1,1903,1128,158.98,-5.51003
686,-104,158.869,5.58362,0,0,0,0,0,0,0,-1,1910,1128,158.869,-5.58366
693,-104,158.923,5.47327,0,0,0,0,0,0,0,-1,1917,1128,158.923,-5.47332
700,-104,158.988,5.33228,0,0,0,0,0,0,0,-1,1924,1128,158.988,-5.33231
707,-104,159.008,5.31091,0,0,0,0,0,0,0,-1,1931,1128,159.008,-5.31096
714,-104,45.5221,2.32166,0,0,0,0,0,0,0,-1,1938,1128,45.5221,-2.3216
721,-104,148.973,26.0243,0,0,0,0,0,0,0,-1,1945,1128,148.973,-26.0243
728,-104,156.665,26.7719,0,0,0,0,0,0,0,-1,1952,1128,156.664,-26.7719
735,-104,156.915,25.6165,0,0,0,0,0,0,0,-1,1959,1128,156.915,-25.6164
742,-104,156.572,25.2985,-0.00348419,-0.00388186,0.00405098,0.000372835,-0.00773888,0.760877,0.00528792,0.0297007,1966,1128,156.571,-25.2984
749,-104,156.471,24.6289,-0.00928804,0.00409351,0.00420155,0.00530334,-0.0104979,1.29043,0.0092857,0.0274014,1973,1128,156.471,-24.6289
756,-104,156.373,23.9093,-0.0152794,0.0118854,0.00458915,0.0126397,-0.0160338,1.40788,0.0165933,0.021232,1980,1128,156.373,-23.9093
763,-104,156.189,23.203,-0.0214402,0.0195047,0.00518061,0.02015,-0.0220855,1.44687,0.0243932,0.0398224,1987,1128,156.189,-23.2029
770,-104,156.044,22.5594,-0.0277463,0.0269608,0.00594709,0.0275998,-0.0283853,1.46375,0.0323241,0.0367567,1994,1128,156.044,-22.5595
777,-104,155.712,21.9816,-0.0341685,0.0342615,0.00686454,0.0349433,-0.0348503,1.4718,0.0402954,0.0451329,2001,1128,155.712,-21.9816
784,-104,155.02,21.1355,0,0,0,0,0,0,0,-1,2008,1128,155.02,-21.1355
791,-104,124.777,12.4595,0,0,0,0,0,0,0,-1,2015,1128,124.777,-12.4595
798,-104,117.724,5.89856,0,0,0,0,0,0,0,-1,2022,1128,117.724,-5.89853
805,-104,116.657,4.51953,0,0,0,0,0,0,0,-1,2029,1128,116.657,-4.51951
812,-104,115.406,3.27905,0,0,0,0,0,0,0,-1,2036,1128,115.406,-3.27907
-700,-111,0,0,0,0,0,0,0,0,0,-1,524,1135,0,0
-693,-111,-87.3786,2.87793,0,0,0,0,0,0,0,-1,531,1135,-87.3786,-2.87792
-686,-111,-87.7664,3.81384,0,0,0,0,0,0,0,-1,538,1135,-87.7664,-3.81379
-679,-111,-87.8987,5.0907,0,0,0,0,0,0,0,-1,545,1135,-87.8987,-5.09074
-672,-111,-87.9348,6.62744,0,0,0,0,0,0,0,-1,552,1135,-87.9348,-6.62745
-665,-111,-89.323,7.58716,0,0,0,0,0,0,0,-1,559,1135,-89.323,-7.58714
-658,-111,-88.7458,8.3031,0,0,0,0,0,0,0,-1,566,1135,-88.7457,-8.30306
-651,-111,-146.382,21.9344,0,0,0,0,0,0,0,-1,573,1135,-146.382,-21.9345
-644,-111,-146.654,22.6571,-0.0215171,0.031844,-0.0056494,0.0324356,-0.0221087,-1.46647,0.0316787,0.0445791,580,1135,-146.654,-22.6571
-637,-111,-146.956,23.2654,-0.0175353,0.0254154,-0.00440678,0.0258629,-0.0179827,-1.4696,0.0254502,0.0220553,587,1135,-146.956,-23.2654
-630,-111,-147.114,23.7438,-0.0137674,0.0190449,-0.00310761,0.0193366,-0.0140591,-1.4772,0.0193611,0.0412577,594,1135,-147.114,-23.7438
-623,-111,-147.17,24.5137,-0.0101652,0.0127218,-0.00178525,0.0128602,-0.0103036,-1.49342,0.0134008,0.0348319,601,1135,-147.17,-24.5136
-616,-111,-147.561,25.2311,-0.00668184,0.0064337,-0.000472479,0.0064507,-0.00669883,-1.53483,0.00759234,0.0362802,608,1135,-147.561,-25.2311
-609,-111,-147.727,25.8481,-0.00327231,0.000165806,0.000798429,0.000342176,-0.00344868,1.35339,0.00242125,0.0399831,615,1135,-147.727,-25.8482
-602,-111,-147.529,26.692,0,0,0,0,0,0,0,-1,622,1135,-147.529,-26.692
-595,-111,-143.812,26.902,0,0,0,0,0,0,0,-1,629,1135,-143.812,-26.902
-588,-111,-143.526,27.7971,0,0,0,0,0,0,0,-1,636,1135,-143.526,-27.7971
-581,-111,-21.0555,3.14551,0,0,0,0,0,0,0,-1,643,1135,-21.0555,-3.14548
-574,-111,-72.0052,0.325439,0,0,0,0,0,0,0,-1,650,1135,-72.0053,-0.325442
-567,-111,-71.9791,0.25293,0,0,0,0,0,0,0,-1,657,1135,-71.979,-0.25289
-560,-111,-72.0156,-0.0426025,0,0,0,0,0,0,0,-1,664,1135,-72.0156,0.0426468
-553,-111,-71.9611,0.0412598,0,0,0,0,0,0,0,-1,671,1135,-71.9611,-0.0412414
-546,-111,-71.9863,0.294189,0,0,0,0,0,0,0,-1,678,1135,-71.9863,-0.294224
-539,-111,-72.1181,0.645142,0,0,0,0,0,0,0,-1,685,1135,-72.1181,-0.645102
-532,-111,-72.2086,0.617065,0,0,0,0,0,0,0,-1,692,1135,-72.2085,-0.617046
-525,-111,-72.1599,0.566895,0,0,0,0,0,0,0,-1,699,1135,-72.1599,-0.56687
-518,-111,0,0,0,0,0,0,0,0,0,-1,706,1135,0,0
-511,-111,0,0,0,0,0,0,0,0,0,-1,713,1135,0,0
-504,-111,0,0,0,0,0,0,0,0,0,-1,720,1135,0,0
-497,-111,0,0,0,0,0,0,0,0,0,-1,727,1135,0,0
-490,-111,0,0,0,0,0,0,0,0,0,-1,734,1135,0,0
-483,-111,0,0,0,0,0,0,0,0,0,-1,741,1135,0,0
-476,-111,0,0,0,0,0,0,0,0,0,-1,748,1135,0,0
-469,-111,0,0,0,0,0,0,0,0,0,-1,755,1135,0,0
-462,-111,0,0,0,0,0,0,0,0,0,-1,762,1135,0,0
-455,-111,0,0,0,0,0,0,0,0,0,-1,769,1135,0,0
-448,-111,0,0,0,0,0,0,0,0,0,-1,776,1135,0,0
-441,-111,0,0,0,0,0,0,0,0,0,-1,783,1135,0,0
-434,-111,0,0,0,0,0,0,0,0,0,-1,790,1135,0,0
-427,-111,0,0,0,0,0,0,0,0,0,-1,797,1135,0,0
-420,-111,0,0,0,0,0,0,0,0,0,-1,804,1135,0,0
-413,-111,0,0,0,0,0,0,0,0,0,-1,811,1135,0,0
-406,-111,0,0,0,0,0,0,0,0,0,-1,818,1135,0,0
-399,-111,0,0,0,0,0,0,0,0,0,-1,825,1135,0,0
-392,-111,0,0,0,0,0,0,0,0,0,-1,832,1135,0,0
-385,-111,0,0,0,0,0,0,0,0,0,-1,839,1135,0,0
-378,-111,0,0,0,0,0,0,0,0,0,-1,846,1135,0,0
-371,-111,0,0,0,0,0,0,0,0,0,-1,853,1135,0,0
-364,-111,0,0,0,0,0,0,0,0,0,-1,860,1135,0,0
-357,-111,0,0,0,0,0,0,0,0,0,-1,867,1135,0,0
-350,-111,0,0,0,0,0,0,0,0,0,-1,874,1135,0,0
-343,-111,0,0,0,0,0,0,0,0,0,-1,881,1135,0,0
-336,-111,0,0,0,0,0,0,0,0,0,-1,888,1135,0,0
-329,-111,0,0,0,0,0,0,0,0,0,-1,895,1135,0,0
-322,-111,0,0,0,0,0,0,0,0,0,-1,902,1135,0,0
-315,-111,0,0,0,0,0,0,0,0,0,-1,909,1135,0,0
-308,-111,0,0,0,0,0,0,0,0,0,-1,916,1135,0,0
-301,-111,0,0,0,0,0,0,0,0,0,-1,923,1135,0,0
-294,-111,0,0,0,0,0,0,0,0,0,-1,930,1135,0,0
-287,-111,0,0,0,0,0,0,0,0,0,-1,937,1135,0,0
-280,-111,0,0,0,0,0,0,0,0,0,-1,944,1135,0,0
-273,-111,0,0,0,0,0,0,0,0,0,-1,951,1135,0,0
-266,-111,0,0,0,0,0,0,0,0,0,-1,958,1135,0,0
-259,-111,0,0,0,0,0,0,0,0,0,-1,965,1135,0,0
-252,-111,0,0,0,0,0,0,0,0,0,-1,972,1135,0,0
-245,-111,0,0,0,0,0,0,0,0,0,-1,979,1135,0,0
-238,-111,0,0,0,0,0,0,0,0,0,-1,986,1135,0,0
-231,-111,0,0,0,0,0,0,0,0,0,-1,993,1135,0,0
-224,-111,0,0,0,0,0,0,0,0,0,-1,1000,1135,0,0
-217,-111,0,0,0,0,0,0,0,0,0,-1,1007,1135,0,0
-210,-111,0,0,0,0,0,0,0,0,0,-1,1014,1135,0,0
-203,-111,0,0,0,0,0,0,0,0,0,-1,1021,1135,0,0
-196,-111,0,0,0,0,0,0,0,0,0,-1,1028,1135,0,0
-189,-111,0,0,0,0,0,0,0,0,0,-1,1035,1135,0,0
-182,-111,0,0,0,0,0,0,0,0,0,-1,1042,1135,0,0
-175,-111,0,0,0,0,0,0,0,0,0,-1,1049,1135,0,0
-168,-111,0,0,0,0,0,0,0,0,0,-1,1056,1135,0,0
-161,-111,0,0,0,0,0,0,0,0,0,-1,1063,1135,0,0
-154,-111,0,0,0,0,0,0,0,0,0,-1,1070,1135,0,0
-147,-111,0,0,0,0,0,0,0,0,0,-1,1077,1135,0,0
-140,-111,0,0,0,0,0,0,0,0,0,-1,1084,1135,0,0
-133,-111,0,0,0,0,0,0,0,0,0,-1,1091,1135,0,0
-126,-111,0,0,0,0,0,0,0,0,0,-1,1098,1135,0,0
-119,-111,0,0,0,0,0,0,0,0,0,-1,1105,1135,0,0
-112,-111,0,0,0,0,0,0,0,0,0,-1,1112,1135,0,0
-105,-111,0,0,0,0,0,0,0,0,0,-1,1119,1135,0,0
-98,-111,0,0,0,0,0,0,0,0,0,-1,1126,1135,0,0
-91,-111,0,0,0,0,0,0,0,0,0,-1,1133,1135,0,0
-84,-111,0,0,0,0,0,0,0,0,0,-1,1140,1135,0,0
-77,-111,0,0,0,0,0,0,0,0,0,-1,1147,1135,0,0
-70,-111,0,0,0,0,0,0,0,0,0,-1,1154,1135,0,0
-63,-111,0,0,0,0,0,0,0,0,0,-1,1161,1135,0,0
-56,-111,0,0,0,0,0,0,0,0,0,-1,1168,1135,0,0
-49,-111,0,0,0,0,0,0,0,0,0,-1,1175,1135,0,0
-42,-111,0,0,0,0,0,0,0,0,0,-1,1182,1135,0,0
-35,-111,0,0,0,0,0,0,0,0,0,-1,1189,1135,0,0
-28,-111,0,0,0,0,0,0,0,0,0,-1,1196,1135,0,0
-21,-111,0,0,0,0,0,0,0,0,0,-1,1203,1135,0,0
-14,-111,0,0,0,0,0,0,0,0,0,-1,1210,1135,0,0
-7,-111,0,0,0,0,0,0,0,0,0,-1,1217,1135,0,0
0,-111,0,0,0,0,0,0,0,0,0,-1,1224,1135,0,0
7,-111,0,0,0,0,0,0,0,0,0,-1,1231,1135,0,0
14,-111,0,0,0,0,0,0,0,0,0,-1,1238,1135,0,0
21,-111,0,0,0,0,0,0,0,0,0,-1,1245,1135,0,0
28,-111,0,0,0,0,0,0,0,0,0,-1,1252,1135,0,0
35,-111,0,0,0,0,0,0,0,0,0,-1,1259,1135,0,0
42,-111,0,0,0,0,0,0,0,0,0,-1,1266,1135,0,0
49,-111,0,0,0,0,0,0,0,0,0,-1,1273,1135,0,0
56,-111,0,0,0,0,0,0,0,0,0,-1,1280,1135,0,0
63,-111,0,0,0,0,0,0,0,0,0,-1,1287,1135,0,0
70,-111,0,0,0,0,0,0,0,0,0,-1,1294,1135,0,0
77,-111,0,0,0,0,0,0,0,0,0,-1,1301,1135,0,0
84,-111,0,0,0,0,0,0,0,0,0,-1,1308,1135,0,0
91,-111,0,0,0,0,0,0,0,0,0,-1,1315,1135,0,0
98,-111,0,0,0,0,0,0,0,0,0,-1,1322,1135,0,0
105,-111,0,0,0,0,0,0,0,0,0,-1,1329,1135,0,0
112,-111,0,0,0,0,0,0,0,0,0,-1,1336,1135,0,0
119,-111,0,0,0,0,0,0,0,0,0,-1,1343,1135,0,0
126,-111,0,0,0,0,0,0,0,0,0,-1,1350,1135,0,0
133,-111,0,0,0,0,0,0,0,0,0,-1,1357,1135,0,0
140,-111,0,0,0,0,0,0,0,0,0,-1,1364,1135,0,0
147,-111,0,0,0,0,0,0,0,0,0,-1,1371,1135,0,0
154,-111,0,0,0,0,0,0,0,0,0,-1,1378,1135,0,0
161,-111,0,0,0,0,0,0,0,0,0,-1,1385,1135,0,0
168,-111,0,0,0,0,0,0,0,0,0,-1,1392,1135,0,0
175,-111,0,0,0,0,0,0,0,0,0,-1,1399,1135,0,0
182,-111,0,0,0,0,0,0,0,0,0,-1,1406,1135,0,0
189,-111,0,0,0,0,0,0,0,0,0,-1,1413,1135,0,0
196,-111,0,0,0,0,0,0,0,0,0,-1,1420,1135,0,0
203,-111,0,0,0,0,0,0,0,0,0,-1,1427,1135,0,0
210,-111,0,0,0,0,0,0,0,0,0,-1,1434,1135,0,0
217,-111,0,0,0,0,0,0,0,0,0,-1,1441,1135,0,0
224,-111,0,0,0,0,0,0,0,0,0,-1,1448,1135,0,0
231,-111,0,0,0,0,0,0,0,0,0,-1,1455,1135,0,0
238,-111,0,0,0,0,0,0,0,0,0,-1,1462,1135,0,0
245,-111,0,0,0,0,0,0,0,0,0,-1,1469,1135,0,0
252,-111,0,0,0,0,0,0,0,0,0,-1,1476,1135,0,0
259,-111,0,0,0,0,0,0,0,0,0,-1,1483,1135,0,0
266,-111,0,0,0,0,0,0,0,0,0,-1,1490,1135,0,0
273,-111,0,0,0,0,0,0,0,0,0,-1,1497,1135,0,0
280,-111,0,0,0,0,0,0,0,0,0,-1,1504,1135,0,0
287,-111,0,0,0,0,0,0,0,0,0,-1,1511,1135,0,0
294,-111,0,0,0,0,0,0,0,0,0,-1,1518,1135,0,0
301,-111,0,0,0,0,0,0,0,0,0,-1,1525,1135,0,0
308,-111,0,0,0,0,0,0,0,0,0,-1,1532,1135,0,0
315,-111,0,0,0,0,0,0,0,0,0,-1,1539,1135,0,0
322,-111,0,0,0,0,0,0,0,0,0,-1,1546,1135,0,0
329,-111,0,0,0,0,0,0,0,0,0,-1,1553,1135,0,0
336,-111,0,0,0,0,0,0,0,0,0,-1,1560,1135,0,0
343,-111,0,0,0,0,0,0,0,0,0,-1,1567,1135,0,0
350,-111,0,0,0,0,0,0,0,0,0,-1,1574,1135,0,0
357,-111,0,0,0,0,0,0,0,0,0,-1,1581,1135,0,0
364,-111,0,0,0,0,0,0,0,0,0,-1,1588,1135,0,0
371,-111,0,0,0,0,0,0,0,0,0,-1,1595,1135,0,0
378,-111,0,0,0,0,0,0,0,0,0,-1,1602,1135,0,0
385,-111,0,0,0,0,0,0,0,0,0,-1,1609,1135,0,0
392,-111,0,0,0,0,0,0,0,0,0,-1,1616,1135,0,0
399,-111,0,0,0,0,0,0,0,0,0,-1,1623,1135,0,0
406,-111,0,0,0,0,0,0,0,0,0,-1,1630,1135,0,0
413,-111,0,0,0,0,0,0,0,0,0,-1,1637,1135,0,0
420,-111,0,0,0,0,0,0,0,0,0,-1,1644,1135,0,0
427,-111,0,0,0,0,0,0,0,0,0,-1,1651,1135,0,0
434,-111,0,0,0,0,0,0,0,0,0,-1,1658,1135,0,0
441,-111,0,0,0,0,0,0,0,0,0,-1,1665,1135,0,0
448,-111,0,0,0,0,0,0,0,0,0,-1,1672,1135,0,0
455,-111,0,0,0,0,0,0,0,0,0,-1,1679,1135,0,0
462,-111,0,0,0,0,0,0,0,0,0,-1,1686,1135,0,0
469,-111,0,0,0,0,0,0,0,0,0,-1,1693,1135,0,0
476,-111,0,0,0,0,0,0,0,0,0,-1,1700,1135,0,0
483,-111,0,0,0,0,0,0,0,0,0,-1,1707,1135,0,0
490,-111,0,0,0,0,0,0,0,0,0,-1,1714,1135,0,0
497,-111,0,0,0,0,0,0,0,0,0,-1,1721,1135,0,0
504,-111,0,0,0,0,0,0,0,0,0,-1,1728,1135,0,0
511,-111,0,0,0,0,0,0,0,0,0,-1,1735,1135,0,0
518,-111,0,0,0,0,0,0,0,0,0,-1,1742,1135,0,0
525,-111,0,0,0,0,0,0,0,0,0,-1,1749,1135,0,0
532,-111,0,0,0,0,0,0,0,0,0,-1,1756,1135,0,0
539,-111,0,0,0,0,0,0,0,0,0,-1,1763,1135,0,0
546,-111,0,0,0,0,0,0,0,0,0,-1,1770,1135,0,0
553,-111,0,0,0,0,0,0,0,0,0,-1,1777,1135,0,0
560,-111,0,0,0,0,0,0,0,0,0,-1,1784,1135,0,0
567,-111,0,0,0,0,0,0,0,0,0,-1,1791,1135,0,0
574,-111,0,0,0,0,0,0,0,0,0,-1,1798,1135,0,0
581,-111,0,0,0,0,0,0,0,0,0,-1,1805,1135,0,0
588,-111,0,0,0,0,0,0,0,0,0,-1,1812,1135,0,0
595,-111,0,0,0,0,0,0,0,0,0,-1,1819,1135,0,0
602,-111,0,0,0,0,0,0,0,0,0,-1,1826,1135,0,0
609,-111,0,0,0,0,0,0,0,0,0,-1,1833,1135,0,0
616,-111,0,0,0,0,0,0,0,0,0,-1,1840,1135,0,0
623,-111,0,0,0,0,0,0,0,0,0,-1,1847,1135,0,0
630,-111,0,0,0,0,0,0,0,0,0,-1,1854,1135,0,0
637,-111,0,0,0,0,0,0,0,0,0,-1,1861,1135,0,0
644,-111,158.891,5.56042,0,0,0,0,0,0,0,-1,1868,1135,158.891,-5.56046
651,-111,158.903,5.56348,0,0,0,0,0,0,0,-1,1875,1135,158.903,-5.5635
658,-111,159.156,5.40186,0,0,0,0,0,0,0,-1,1882,1135,159.156,-5.40187
665,-111,159.386,5.07654,0,0,0,0,0,0,0,-1,1889,1135,159.387,-5.07651
672,-111,159.125,5.35486,0,0,0,0,0,0,0,-1,1896,1135,159.124,-5.35484
679,-111,158.964,5.5166,0,0,0,0,0,0,0,-1,1903,1135,158.964,-5.51657
686,-111,158.864,5.57642,0,0,0,0,0,0,0,-1,1910,1135,158.864,-5.57643
693,-111,158.879,5.51538,0,0,0,0,0,0,0,-1,1917,1135,158.879,-5.51538
700,-111,159.012,5.42505,0,0,0,0,0,0,0,-1,1924,1135,159.012,-5.42501
707,-111,159.043,5.40186,0,0,0,0,0,0,0,-1,1931,1135,159.044,-5.40182
714,-111,45.1654,7.39746,0,0,0,0,0,0,0,-1,1938,1135,45.1654,-7.39745
721,-111,156.061,27.53,0,0,0,0,0,0,0,-1,1945,1135,156.06,-27.5301
728,-111,155.998,26.8369,0.0072296,-0.0193222,0.00472355,0.00804489,-0.0201375,0.170916,0.016763,0.0408527,1952,1135,155.998,-26.837
735,-111,156.012,26.1322,0.00183087,-0.0110214,0.0041567,0.00305806,-0.0122485,0.287077,0.0093532,0.0356411,1959,1135,156.012,-26.1322
742,-111,155.844,25.4147,-0.00368944,-0.00305895,0.00411959,0.000757442,-0.00750583,0.823586,0.00527453,0.0227168,1966,1135,155.843,-25.4146
749,-111,155.662,24.6342,-0.00942133,0.00469104,0.00438218,0.00594107,-0.0106714,1.29292,0.00971994,0.0233102,1973,1135,155.662,-24.6342
756,-111,155.519,23.8875,-0.0153597,0.0122465,0.00490902,0.0130935,-0.0162067,1.39995,0.0169482,0.0218802,1980,1135,155.519,-23.8875
763,-111,155.397,23.1595,-0.0214934,0.0196233,0.00566861,0.0203905,-0.0222606,1.43627,0.0246325,0.0309761,1987,1135,155.397,-23.1595
770,-111,155.254,22.5027,-0.0278048,0.0268348,0.00663404,0.0276287,-0.0285987,1.45169,0.0324645,0.0279724,1994,1135,155.254,-22.5027
777,-111,154.889,21.7694,-0.0342694,0.0338928,0.0077834,0.0347703,-0.0351469,1.45853,0.0403669,0.0420928,2001,1135,154.889,-21.7694
784,-111,154.441,20.9867,0,0,0,0,0,0,0,-1,2008,1135,154.441,-20.9867
791,-111,154.159,20.3138,0,0,0,0,0,0,0,-1,2015,1135,154.159,-20.3138
798,-111,117.362,5.41443,0,0,0,0,0,0,0,-1,2022,1135,117.362,-5.41445
805,-111,116.808,4.02344,0,0,0,0,0,0,0,-1,2029,1135,116.808,-4.02344
812,-111,115.569,2.60425,0,0,0,0,0,0,0,-1,2036,1135,115.569,-2.60429
-700,-118,0,0,0,0,0,0,0,0,0,-1,524,1142,0,0
-693,-118,-86.2747,2.6283,0,0,0,0,0,0,0,-1,531,1142,-86.2747,-2.62824
-686,-118,-86.7041,3.22351,0,0,0,0,0,0,0,-1,538,1142,-86.7041,-3.22351
-679,-118,-86.7281,4.65881,0,0,0,0,0,0,0,-1,545,1142,-86.7281,-4.65885
-672,-118,-86.7669,6.11426,0,0,0,0,0,0,0,-1,552,1142,-86.7669,-6.11421
-665,-118,-81.5959,6.78015,0,0,0,0,0,0,0,-1,559,1142,-81.5959,-6.78018
-658,-118,-83.8181,6.78662,0,0,0,0,0,0,0,-1,566,1142,-83.8181,-6.78663
-651,-118,-82.0064,8.375,0,0,0,0,0,0,0,-1,573,1142,-82.0064,-8.37502
-644,-118,-145.725,22.3354,0,0,0,0,0,0,0,-1,580,1142,-145.725,-22.3355
-637,-118,-146.122,23.2466,-0.0180957,0.0255748,-0.00581174,0.026335,-0.0188559,-1.44073,0.0262098,0.0319144,587,1142,-146.122,-23.2466
-630,-118,-146.33,23.8037,-0.0147561,0.0196898,-0.00418983,0.0201921,-0.0152584,-1.45148,0.0205333,0.0398924,594,1142,-146.33,-23.8038
-623,-118,-146.282,24.5852,-0.0116152,0.0138326,-0.00258959,0.0140935,-0.0118761,-1.47041,0.0150117,0.0325249,601,1142,-146.282,-24.5852
-616,-118,-146.066,25.4365,0,0,0,0,0,0,0,-1,608,1142,-146.066,-25.4365
-609,-118,-146.802,25.8573,0,0,0,0,0,0,0,-1,615,1142,-146.802,-25.8572
-602,-118,-146.342,26.8748,0,0,0,0,0,0,0,-1,622,1142,-146.342,-26.8748
-595,-118,-143.159,26.8971,0,0,0,0,0,0,0,-1,629,1142,-143.159,-26.8971
-588,-118,-142.544,27.9683,0,0,0,0,0,0,0,-1,636,1142,-142.544,-27.9683
-581,-118,-24.6116,3.89648,0,0,0,0,0,0,0,-1,643,1142,-24.6116,-3.89645
-574,-118,-72.0256,0.515259,0,0,0,0,0,0,0,-1,650,1142,-72.0257,-0.515318
-567,-118,-72.0513,0.48877,0,0,0,0,0,0,0,-1,657,1142,-72.0513,-0.488796
-560,-118,-71.967,0.49707,0,0,0,0,0,0,0,-1,664,1142,-71.967,-0.497115
-553,-118,-71.8315,0.429077,0,0,0,0,0,0,0,-1,671,1142,-71.8316,-0.429054
-546,-118,-71.9034,0.514893,0,0,0,0,0,0,0,-1,678,1142,-71.9035,-0.514945
-539,-118,-72.0641,0.645264,0,0,0,0,0,0,0,-1,685,1142,-72.0641,-0.645291
-532,-118,-72.1383,0.627808,0,0,0,0,0,0,0,-1,692,1142,-72.1383,-0.627791
-525,-118,-72.0248,0.533691,0,0,0,0,0,0,0,-1,699,1142,-72.0248,-0.533746
-518,-118,0,0,0,0,0,0,0,0,0,-1,706,1142,0,0
-511,-118,0,0,0,0,0,0,0,0,0,-1,713,1142,0,0
-504,-118,0,0,0,0,0,0,0,0,0,-1,720,1142,0,0
-497,-118,0,0,0,0,0,0,0,0,0,-1,727,1142,0,0
-490,-118,0,0,0,0,0,0,0,0,0,-1,734,1142,0,0
-483,-118,0,0,0,0,0,0,0,0,0,-1,741,1142,0,0
-476,-118,0,0,0,0,0,0,0,0,0,-1,748,1142,0,0
-469,-118,0,0,0,0,0,0,0,0,0,-1,755,1142,0,0
-462,-118,0,0,0,0,0,0,0,0,0,-1,762,1142,0,0
-455,-118,0,0,0,0,0,0,0,0,0,-1,769,1142,0,0
-448,-118,0,0,0,0,0,0,0,0,0,-1,776,1142,0,0
-441,-118,0,0,0,0,0,0,0,0,0,-1,783,1142,0,0
-434,-118,0,0,0,0,0,0,0,0,0,-1,790,1142,0,0
-427,-118,0,0,0,0,0,0,0,0,0,-1,797,1142,0,0
-420,-118,0,0,0,0,0,0,0,0,0,-1,804,1142,0,0
-413,-118,0,0,0,0,0,0,0,0,0,-1,811,1142,0,0
-406,-118,0,0,0,0,0,0,0,0,0,-1,818,1142,0,0
-399,-118,0,0,0,0,0,0,0,0,0,-1,825,1142,0,0
-392,-118,0,0,0,0,0,0,0,0,0,-1,832,1142,0,0
-385,-118,0,0,0,0,0,0,0,0,0,-1,839,1142,0,0
-378,-118,0,0,0,0,0,0,0,0,0,-1,846,1142,0,0
-371,-118,0,0,0,0,0,0,0,0,0,-1,853,1142,0,0
-364,-118,0,0,0,0,0,0,0,0,0,-1,860,1142,0,0
-357,-118,0,0,0,0,0,0,0,0,0,-1,867,1142,0,0
-350,-118,0,0,0,0,0,0,0,0,0,-1,874,1142,0,0
-343,-118,0,0,0,0,0,0,0,0,0,-1,881,1142,0,0
-336,-118,0,0,0,0,0,0,0,0,0,-1,888,1142,0,0
-329,-118,0,0,0,0,0,0,0,0,0,-1,895,1142,0,0
-322,-118,0,0,0,0,0,0,0,0,0,-1,902,1142,0,0
-315,-118,0,0,0,0,0,0,0,0,0,-1,909,1142,0,0
-308,-118,0,0,0,0,0,0,0,0,0,-1,916,1142,0,0
-301,-118,0,0,0,0,0,0,0,0,0,-1,923,1142,0,0
-294,-118,0,0,0,0,0,0,0,0,0,-1,930,1142,0,0
-287,-118,0,0,0,0,0,0,0,0,0,-1,937,1142,0,0
-280,-118,0,0,0,0,0,0,0,0,0,-1,944,1142,0,0
-273,-118,0,0,0,0,0,0,0,0,0,-1,951,1142,0,0
-266,-118,0,0,0,0,0,0,0,0,0,-1,958,1142,0,0
-259,-118,0,0,0,0,0,0,0,0,0,-1,965,1142,0,0
-252,-118,0,0,0,0,0,0,0,0,0,-1,972,1142,0,0
-245,-118,0,0,0,0,0,0,0,0,0,-1,979,1142,0,0
-238,-118,0,0,0,0,0,0,0,0,0,-1,986,1142,0,0
-231,-118,0,0,0,0,0,0,0,0,0,-1,993,1142,0,0
-224,-118,0,0,0,0,0,0,0,0,0,-1,1000,1142,0,0
-217,-118,0,0,0,0,0,0,0,0,0,-1,1007,1142,0,0
-210,-118,0,0,0,0,0,0,0,0,0,-1,1014,1142,0,0
-203,-118,0,0,0,0,0,0,0,0,0,-1,1021,1142,0,0
-196,-118,0,0,0,0,0,0,0,0,0,-1,1028,1142,0,0
-189,-118,0,0,0,0,0,0,0,0,0,-1,1035,1142,0,0
-182,-118,0,0,0,0,0,0,0,0,0,-1,1042,1142,0,0
-175,-118,0,0,0,0,0,0,0,0,0,-1,1049,1142,0,0
-168,-118,0,0,0,0,0,0,0,0,0,-1,1056,1142,0,0
-161,-118,0,0,0,0,0,0,0,0,0,-1,1063,1142,0,0
-154,-118,0,0,0,0,0,0,0,0,0,-1,1070,1142,0,0
-147,-118,0,0,0,0,0,0,0,0,0,-1,1077,1142,0,0
-140,-118,0,0,0,0,0,0,0,0,0,-1,1084,1142,0,0
-133,-118,0,0,0,0,0,0,0,0,0,-1,1091,1142,0,0
-126,-118,0,0,0,0,0,0,0,0,0,-1,1098,1142,0,0
-119,-118,0,0,0,0,0,0,0,0,0,-1,1105,1142,0,0
-112,-118,0,0,0,0,0,0,0,0,0,-1,1112,1142,0,0
-105,-118,0,0,0,0,0,0,0,0,0,-1,1119,1142,0,0
-98,-118,0,0,0,0,0,0,0,0,0,-1,1126,1142,0,0
-91,-118,0,0,0,0,0,0,0,0,0,-1,1133,1142,0,0
-84,-118,0,0,0,0,0,0,0,0,0,-1,1140,1142,0,0
-77,-118,0,0,0,0,0,0,0,0,0,-1,1147,1142,0,0
-70,-118,0,0,0,0,0,0,0,0,0,-1,1154,1142,0,0
-63,-118,0,0,0,0,0,0,0,0,0,-1,1161,1142,0,0
-56,-118,0,0,0,0,0,0,0,0,0,-1,1168,1142,0,0
-49,-118,0,0,0,0,0,0,0,0,0,-1,1175,1142,0,0
-42,-118,0,0,0,0,0,0,0,0,0,-1,1182,1142,0,0
-35,-118,0,0,0,0,0,0,0,0,0,-1,1189,1142,0,0
-28,-118,0,0,0,0,0,0,0,0,0,-1,1196,1142,0,0
-21,-118,0,0,0,0,0,0,0,0,0,-1,1203,1142,0,0
-14,-118,0,0,0,0,0,0,0,0,0,-1,1210,1142,0,0
-7,-118,0,0,0,0,0,0,0,0,0,-1,1217,1142,0,0
0,-118,0,0,0,0,0,0,0,0,0,-1,1224,1142,0,0
7,-118,0,0,0,0,0,0,0,0,0,-1,1231,1142,0,0
14,-118,0,0,0,0,0,0,0,0,0,-1,1238,1142,0,0
21,-118,0,0,0,0,0,0,0,0,0,-1,1245,1142,0,0
28,-118,0,0,0,0,0,0,0,0,0,-1,1252,1142,0,0
35,-118,0,0,0,0,0,0,0,0,0,-1,1259,1142,0,0
42,-118,0,0,0,0,0,0,0,0,0,-1,1266,1142,0,0
49,-118,0,0,0,0,0,0,0,0,0,-1,1273,1142,0,0
56,-118,0,0,0,0,0,0,0,0,0,-1,1280,1142,0,0
63,-118,0,0,0,0,0,0,0,0,0,-1,1287,1142,0,0
70,-118,0,0,0,0,0,0,0,0,0,-1,1294,1142,0,0
77,-118,0,0,0,0,0,0,0,0,0,-1,1301,1142,0,0
84,-118,0,0,0,0,0,0,0,0,0,-1,1308,1142,0,0
91,-118,0,0,0,0,0,0,0,0,0,-1,1315,1142,0,0
98,-118,0,0,0,0,0,0,0,0,0,-1,1322,1142,0,0
105,-118,0,0,0,0,0,0,0,0,0,-1,1329,1142,0,0
112,-118,0,0,0,0,0,0,0,0,0,-1,1336,1142,0,0
119,-118,0,0,0,0,0,0,0,0,0,-1,1343,1142,0,0
126,-118,0,0,0,0,0,0,0,0,0,-1,1350,1142,0,0
133,-118,0,0,0,0,0,0,0,0,0,-1,1357,1142,0,0
140,-118,0,0,0,0,0,0,0,0,0,-1,1364,1142,0,0
147,-118,0,0,0,0,0,0,0,0,0,-1,1371,1142,0,0
154,-118,0,0,0,0,0,0,0,0,0,-1,1378,1142,0,0
161,-118,0,0,0,0,0,0,0,0,0,-1,1385,1142,0,0
168,-118,0,0,0,0,0,0,0,0,0,-1,1392,1142,0,0
175,-118,0,0,0,0,0,0,0,0,0,-1,1399,1142,0,0
182,-118,0,0,0,0,0,0,0,0,0,-1,1406,1142,0,0
189,-118,0,0,0,0,0,0,0,0,0,-1,1413,1142,0,0
196,-118,0,0,0,0,0,0,0,0,0,-1,1420,1142,0,0
203,-118,0,0,0,0,0,0,0,0,0,-1,1427,1142,0,0
210,-118,0,0,0,0,0,0,0,0,0,-1,1434,1142,0,0
217,-118,0,0,0,0,0,0,0,0,0,-1,1441,1142,0,0
224,-118,0,0,0,0,0,0,0,0,0,-1,1448,1142,0,0
231,-118,0,0,0,0,0,0,0,0,0,-1,1455,1142,0,0
238,-118,0,0,0,0,0,0,0,0,0,-1,1462,1142,0,0
245,-118,0,0,0,0,0,0,0,0,0,-1,1469,1142,0,0
252,-118,0,0,0,0,0,0,0,0,0,-1,1476,1142,0,0
259,-118,0,0,0,0,0,0,0,0,0,-1,1483,1142,0,0
266,-118,0,0,0,0,0,0,0,0,0,-1,1490,1142,0,0
273,-118,0,0,0,0,0,0,0,0,0,-1,1497,1142,0,0
280,-118,0,0,0,0,0,0,0,0,0,-1,1504,1142,0,0
287,-118,0,0,0,0,0,0,0,0,0,-1,1511,1142,0,0
294,-118,0,0,0,0,0,0,0,0,0,-1,1518,1142,0,0
301,-118,0,0,0,0,0,0,0,0,0,-1,1525,1142,0,0
308,-118,0,0,0,0,0,0,0,0,0,-1,1532,1142,0,0
315,-118,0,0,0,0,0,0,0,0,0,-1,1539,1142,0,0
322,-118,0,0,0,0,0,0,0,0,0,-1,1546,1142,0,0
329,-118,0,0,0,0,0,0,0,0,0,-1,1553,1142,0,0
336,-118,0,0,0,0,0,0,0,0,0,-1,1560,1142,0,0
343,-118,0,0,0,0,0,0,0,0,0,-1,1567,1142,0,0
350,-118,0,0,0,0,0,0,0,0,0,-1,1574,1142,0,0
357,-118,0,0,0,0,0,0,0,0,0,-1,1581,1142,0,0
364,-118,0,0,0,0,0,0,0,0,0,-1,1588,1142,0,0
371,-118,0,0,0,0,0,0,0,0,0,-1,1595,1142,0,0
378,-118,0,0,0,0,0,0,0,0,0,-1,1602,1142,0,0
385,-118,0,0,0,0,0,0,0,0,0,-1,1609,1142,0,0
392,-118,0,0,0,0,0,0,0,0,0,-1,1616,1142,0,0
399,-118,0,0,0,0,0,0,0,0,0,-1,1623,1142,0,0
406,-118,0,0,0,0,0,0,0,0,0,-1,1630,1142,0,0
413,-118,0,0,0,0,0,0,0,0,0,-1,1637,1142,0,0
420,-118,0,0,0,0,0,0,0,0,0,-1,1644,1142,0,0
427,-118,0,0,0,0,0,0,0,0,0,-1,1651,1142,0,0
434,-118,0,0,0,0,0,0,0,0,0,-1,1658,1142,0,0
441,-118,0,0,0,0,0,0,0,0,0,-1,1665,1142,0,0
448,-118,0,0,0,0,0,0,0,0,0,-1,1672,1142,0,0
455,-118,0,0,0,0,0,0,0,0,0,-1,1679,1142,0,0
462,-118,0,0,0,0,0,0,0,0,0,-1,1686,1142,0,0
469,-118,0,0,0,0,0,0,0,0,0,-1,1693,1142,0,0
476,-118,0,0,0,0,0,0,0,0,0,-1,1700,1142,0,0
483,-118,0,0,0,0,0,0,0,0,0,-1,1707,1142,0,0
490,-118,0,0,0,0,0,0,0,0,0,-1,1714,1142,0,0
497,-118,0,0,0,0,0,0,0,0,0,-1,1721,1142,0,0
504,-118,0,0,0,0,0,0,0,0,0,-1,1728,1142,0,0
511,-118,0,0,0,0,0,0,0,0,0,-1,1735,1142,0,0
518,-118,0,0,0,0,0,0,0,0,0,-1,1742,1142,0,0
525,-118,0,0,0,0,0,0,0,0,0,-1,1749,1142,0,0
532,-118,0,0,0,0,0,0,0,0,0,-1,1756,1142,0,0
539,-118,0,0,0,0,0,0,0,0,0,-1,1763,1142,0,0
546,-118,0,0,0,0,0,0,0,0,0,-1,1770,1142,0,0
553,-118,0,0,0,0,0,0,0,0,0,-1,1777,1142,0,0
560,-118,0,0,0,0,0,0,0,0,0,-1,1784,1142,0,0
567,-118,0,0,0,0,0,0,0,0,0,-1,1791,1142,0,0
574,-118,0,0,0,0,0,0,0,0,0,-1,1798,1142,0,0
581,-118,0,0,0,0,0,0,0,0,0,-1,1805,1142,0,0
588,-118,0,0,0,0,0,0,0,0,0,-1,1812,1142,0,0
595,-118,0,0,0,0,0,0,0,0,0,-1,1819,1142,0,0
602,-118,0,0,0,0,0,0,0,0,0,-1,1826,1142,0,0
609,-118,0,0,0,0,0,0,0,0,0,-1,1833,1142,0,0
616,-118,0,0,0,0,0,0,0,0,0,-1,1840,1142,0,0
623,-118,0,0,0,0,0,0,0,0,0,-1,1847,1142,0,0
630,-118,0,0,0,0,0,0,0,0,0,-1,1854,1142,0,0
637,-118,0,0,0,0,0,0,0,0,0,-1,1861,1142,0,0
644,-118,158.91,5.65759,0,0,0,0,0,0,0,-1,1868,1142,158.91,-5.65758
651,-118,159.018,5.6637,0,0,0,0,0,0,0,-1,1875,1142,159.018,-5.66373
658,-118,158.845,5.47815,0,0,0,0,0,0,0,-1,1882,1142,158.845,-5.47821
665,-118,158.876,5.41345,0,0,0,0,0,0,0,-1,1889,1142,158.876,-5.41348
672,-118,158.827,5.54187,0,0,0,0,0,0,0,-1,1896,1142,158.827,-5.54189
679,-118,158.806,5.54797,0,0,0,0,0,0,0,-1,1903,1142,158.806,-5.548
686,-118,158.849,5.55261,0,0,0,0,0,0,0,-1,1910,1142,158.849,-5.55259
693,-118,158.785,5.45569,0,0,0,0,0,0,0,-1,1917,1142,158.785,-5.45566
700,-118,158.941,5.40332,0,0,0,0,0,0,0,-1,1924,1142,158.942,-5.40336
707,-118,159.085,5.38989,0,0,0,0,0,0,0,-1,1931,1142,159.086,-5.38987
714,-118,50.4819,8.53809,0,0,0,0,0,0,0,-1,1938,1142,50.4819,-8.53809
721,-118,155.442,27.6522,0,0,0,0,0,0,0,-1,1945,1142,155.442,-27.6522
728,-118,155.254,26.9894,0.00693668,-0.0180958,0.00422135,0.00762938,-0.0187884,0.162645,0.0156994,0.0306332,1952,1142,155.254,-26.9894
735,-118,155.145,26.3306,0.00163661,-0.0100305,0.00383695,0.00278535,-0.0111792,0.290898,0.00853415,0.0280903,1959,1142,155.145,-26.3306
742,-118,155.056,25.5118,-0.00389325,-0.00225857,0.00396312,0.000970617,-0.00712243,0.88709,0.00510269,0.0381792,1966,1142,155.056,-25.5119
749,-118,154.734,24.6877,-0.00963564,0.00530456,0.004417,0.00651273,-0.0108438,1.3038,0.0101243,0.0302684,1973,1142,154.734,-24.6878
756,-118,154.661,23.8865,-0.0155943,0.0126772,0.00516312,0.0135906,-0.0165077,1.3957,0.0174045,0.0240752,1980,1142,154.661,-23.8864
763,-118,154.716,23.1327,-0.0217674,0.0198748,0.00616995,0.0207697,-0.0226623,1.42675,0.0250834,0.0151574,1987,1142,154.716,-23.1327
770,-118,154.417,22.4564,-0.0281464,0.0269101,0.00741066,0.0278901,-0.0291265,1.43931,0.0329211,0.020669,1994,1142,154.418,-22.4564
777,-118,154.103,21.6565,-0.0347162,0.033793,0.00886365,0.0349212,-0.0358444,1.44419,0.0408577,0.0373162,2001,1142,154.103,-21.6565
784,-118,153.865,20.7827,0,0,0,0,0,0,0,-1,2008,1142,153.865,-20.7827
791,-118,148.07,17.4791,0,0,0,0,0,0,0,-1,2015,1142,148.07,-17.4791
798,-118,133.874,10.8453,0,0,0,0,0,0,0,-1,2022,1142,133.874,-10.8454
805,-118,117.066,3.61499,0,0,0,0,0,0,0,-1,2029,1142,117.066,-3.61499
812,-118,115.738,2.09705,0,0,0,0,0,0,0,-1,2036,1142,115.738,-2.09702
-700,-125,0,0,0,0,0,0,0,0,0,-1,524,1149,0,0
-693,-125,-85.8903,0.790649,0,0,0,0,0,0,0,-1,531,1149,-85.8903,-0.790608
-686,-125,-85.7074,2.69226,0,0,0,0,0,0,0,-1,538,1149,-85.7074,-2.6923
-679,-125,-85.6257,4.22424,0,0,0,0,0,0,0,-1,545,1149,-85.6257,-4.22429
-672,-125,-85.823,5.55298,0,0,0,0,0,0,0,-1,552,1149,-85.823,-5.55295
-665,-125,-80.6827,9.34875,0,0,0,0,0,0,0,-1,559,1149,-80.6827,-9.34879
-658,-125,-81.5901,7.77625,0,0,0,0,0,0,0,-1,566,1149,-81.59,-7.77628
-651,-125,-92.6542,11.2368,0,0,0,0,0,0,0,-1,573,1149,-92.6542,-11.2368
-644,-125,-145.268,22.4468,0,0,0,0,0,0,0,-1,580,1149,-145.268,-22.4467
-637,-125,-145.292,23.1229,-0.0189252,0.0258835,-0.00720623,0.0270139,-0.0200556,-1.4152,0.0272744,0.0257728,587,1149,-145.292,-23.1229
-630,-125,-145.423,23.8113,-0.0157478,0.0204754,-0.00511505,0.0211838,-0.0164563,-1.43317,0.0217886,0.021882,594,1149,-145.423,-23.8113
-623,-125,-145.438,24.5787,-0.0128224,0.0150659,-0.00308998,0.0154042,-0.0131606,-1.46176,0.0165089,0.0181626,601,1149,-145.438,-24.5788
-616,-125,-145.438,25.405,0,0,0,0,0,0,0,-1,608,1149,-145.438,-25.4051
-609,-125,-145.881,25.9299,0,0,0,0,0,0,0,-1,615,1149,-145.881,-25.9299
-602,-125,-145.602,27.0007,0,0,0,0,0,0,0,-1,622,1149,-145.602,-27.0008
-595,-125,-142.395,27.1858,0,0,0,0,0,0,0,-1,629,1149,-142.395,-27.1858
-588,-125,-141.443,28.1597,0,0,0,0,0,0,0,-1,636,1149,-141.443,-28.1596
-581,-125,-26.4055,4.83203,0,0,0,0,0,0,0,-1,643,1149,-26.4055,-4.83204
-574,-125,-37.674,0.655151,0,0,0,0,0,0,0,-1,650,1149,-37.674,-0.655195
-567,-125,-72.0776,0.557861,0,0,0,0,0,0,0,-1,657,1149,-72.0776,-0.557844
-560,-125,-72.0543,0.454834,0,0,0,0,0,0,0,-1,664,1149,-72.0543,-0.45488
-553,-125,-71.9824,0.501099,0,0,0,0,0,0,0,-1,671,1149,-71.9824,-0.501113
-546,-125,-72.0555,0.591553,0,0,0,0,0,0,0,-1,678,1149,-72.0555,-0.591532
-539,-125,-72.1036,0.750366,0,0,0,0,0,0,0,-1,685,1149,-72.1036,-0.750355
-532,-125,-72.1306,0.628418,0,0,0,0,0,0,0,-1,692,1149,-72.1305,-0.628371
-525,-125,-71.9377,0.417236,0,0,0,0,0,0,0,-1,699,1149,-71.9377,-0.417244
-518,-125,0,0,0,0,0,0,0,0,0,-1,706,1149,0,0
-511,-125,0,0,0,0,0,0,0,0,0,-1,713,1149,0,0
-504,-125,0,0,0,0,0,0,0,0,0,-1,720,1149,0,0
-497,-125,0,0,0,0,0,0,0,0,0,-1,727,1149,0,0
-490,-125,0,0,0,0,0,0,0,0,0,-1,734,1149,0,0
-483,-125,0,0,0,0,0,0,0,0,0,-1,741,1149,0,0
-476,-125,0,0,0,0,0,0,0,0,0,-1,748,1149,0,0
-469,-125,0,0,0,0,0,0,0,0,0,-1,755,1149,0,0
-462,-125,0,0,0,0,0,0,0,0,0,-1,762,1149,0,0
-455,-125,0,0,0,0,0,0,0,0,0,-1,769,1149,0,0
-448,-125,0,0,0,0,0,0,0,0,0,-1,776,1149,0,0
-441,-125,0,0,0,0,0,0,0,0,0,-1,783,1149,0,0
-434,-125,0,0,0,0,0,0,0,0,0,-1,790,1149,0,0
-427,-125,0,0,0,0,0,0,0,0,0,-1,797,1149,0,0
-420,-125,0,0,0,0,0,0,0,0,0,-1,804,1149,0,0
-413,-125,0,0,0,0,0,0,0,0,0,-1,811,1149,0,0
-406,-125,0,0,0,0,0,0,0,0,0,-1,818,1149,0,0
-399,-125,0,0,0,0,0,0,0,0,0,-1,825,1149,0,0
-392,-125,0,0,0,0,0,0,0,0,0,-1,832,1149,0,0
-385,-125,0,0,0,0,0,0,0,0,0,-1,839,1149,0,0
-378,-125,0,0,0,0,0,0,0,0,0,-1,846,1149,0,0
-371,-125,0,0,0,0,0,0,0,0,0,-1,853,1149,0,0
-364,-125,0,0,0,0,0,0,0,0,0,-1,860,1149,0,0
-357,-125,0,0,0,0,0,0,0,0,0,-1,867,1149,0,0
-350,-125,0,0,0,0,0,0,0,0,0,-1,874,1149,0,0
-343,-125,0,0,0,0,0,0,0,0,0,-1,881,1149,0,0
-336,-125,0,0,0,0,0,0,0,0,0,-1,888,1149,0,0
-329,-125,0,0,0,0,0,0,0,0,0,-1,895,1149,0,0
-322,-125,0,0,0,0,0,0,0,0,0,-1,902,1149,0,0
-315,-125,0,0,0,0,0,0,0,0,0,-1,909,1149,0,0
-308,-125,0,0,0,0,0,0,0,0,0,-1,916,1149,0,0
-301,-125,0,0,0,0,0,0,0,0,0,-1,923,1149,0,0
-294,-125,0,0,0,0,0,0,0,0,0,-1,930,1149,0,0
-287,-125,0,0,0,0,0,0,0,0,0,-1,937,1149,0,0
-280,-125,0,0,0,0,0,0,0,0,0,-1,944,1149,0,0
-273,-125,0,0,0,0,0,0,0,0,0,-1,951,1149,0,0
-266,-125,0,0,0,0,0,0,0,0,0,-1,958,1149,0,0
-259,-125,0,0,0,0,0,0,0,0,0,-1,965,1149,0,0
-252,-125,0,0,0,0,0,0,0,0,0,-1,972,1149,0,0
-245,-125,0,0,0,0,0,0,0,0,0,-1,979,1149,0,0
-238,-125,0,0,0,0,0,0,0,0,0,-1,986,1149,0,0
-231,-125,0,0,0,0,0,0,0,0,0,-1,993,1149,0,0
-224,-125,0,0,0,0,0,0,0,0,0,-1,1000,1149,0,0
-217,-125,0,0,0,0,0,0,0,0,0,-1,1007,1149,0,0
-210,-125,0,0,0,0,0,0,0,0,0,-1,1014,1149,0,0
-203,-125,0,0,0,0,0,0,0,0,0,-1,1021,1149,0,0
-196,-125,0,0,0,0,0,0,0,0,0,-1,1028,1149,0,0
-189,-125,0,0,0,0,0,0,0,0,0,-1,1035,1149,0,0
-182,-125,0,0,0,0,0,0,0,0,0,-1,1042,1149,0,0
-175,-125,0,0,0,0,0,0,0,0,0,-1,1049,1149,0,0
-168,-125,0,0,0,0,0,0,0,0,0,-1,1056,1149,0,0
-161,-125,0,0,0,0,0,0,0,0,0,-1,1063,1149,0,0
-154,-125,0,0,0,0,0,0,0,0,0,-1,1070,1149,0,0
-147,-125,0,0,0,0,0,0,0,0,0,-1,1077,1149,0,0
-140,-125,0,0,0,0,0,0,0,0,0,-1,1084,1149,0,0
-133,-125,0,0,0,0,0,0,0,0,0,-1,1091,1149,0,0
-126,-125,0,0,0,0,0,0,0,0,0,-1,1098,1149,0,0
-119,-125,0,0,0,0,0,0,0,0,0,-1,1105,1149,0,0
-112,-125,0,0,0,0,0,0,0,0,0,-1,1112,1149,0,0
-105,-125,0,0,0,0,0,0,0,0,0,-1,1119,1149,0,0
-98,-125,0,0,0,0,0,0,0,0,0,-1,1126,1149,0,0
-91,-125,0,0,0,0,0,0,0,0,0,-1,1133,1149,0,0
-84,-125,0,0,0,0,0,0,0,0,0,-1,1140,1149,0,0
-77,-125,0,0,0,0,0,0,0,0,0,-1,1147,1149,0,0
-70,-125,0,0,0,0,0,0,0,0,0,-1,1154,1149,0,0
-63,-125,0,0,0,0,0,0,0,0,0,-1,1161,1149,0,0
-56,-125,0,0,0,0,0,0,0,0,0,-1,1168,1149,0,0
-49,-125,0,0,0,0,0,0,0,0,0,-1,1175,1149,0,0
-42,-125,0,0,0,0,0,0,0,0,0,-1,1182,1149,0,0
-35,-125,0,0,0,0,0,0,0,0,0,-1,1189,1149,0,0
-28,-125,0,0,0,0,0,0,0,0,0,-1,1196,1149,0,0
-21,-125,0,0,0,0,0,0,0,0,0,-1,1203,1149,0,0
-14,-125,0,0,0,0,0,0,0,0,0,-1,1210,1149,0,0
-7,-125,0,0,0,0,0,0,0,0,0,-1,1217,1149,0,0
0,-125,0,0,0,0,0,0,0,0,0,-1,1224,1149,0,0
7,-125,0,0,0,0,0,0,0,0,0,-1,1231,1149,0,0
14,-125,0,0,0,0,0,0,0,0,0,-1,1238,1149,0,0
21,-125,0,0,0,0,0,0,0,0,0,-1,1245,1149,0,0
28,-125,0,0,0,0,0,0,0,0,0,-1,1252,1149,0,0
35,-125,0,0,0,0,0,0,0,0,0,-1,1259,1149,0,0
42,-125,0,0,0,0,0,0,0,0,0,-1,1266,1149,0,0
49,-125,0,0,0,0,0,0,0,0,0,-1,1273,1149,0,0
56,-125,0,0,0,0,0,0,0,0,0,-1,1280,1149,0,0
63,-125,0,0,0,0,0,0,0,0,0,-1,1287,1149,0,0
70,-125,0,0,0,0,0,0,0,0,0,-1,1294,1149,0,0
77,-125,0,0,0,0,0,0,0,0,0,-1,1301,1149,0,0
84,-125,0,0,0,0,0,0,0,0,0,-1,1308,1149,0,0
91,-125,0,0,0,0,0,0,0,0,0,-1,1315,1149,0,0
98,-125,0,0,0,0,0,0,0,0,0,-1,1322,1149,0,0
105,-125,0,0,0,0,0,0,0,0,0,-1,1329,1149,0,0
112,-125,0,0,0,0,0,0,0,0,0,-1,1336,1149,0,0
119,-125,0,0,0,0,0,0,0,0,0,-1,1343,1149,0,0
126,-125,0,0,0,0,0,0,0,0,0,-1,1350,1149,0,0
133,-125,0,0,0,0,0,0,0,0,0,-1,1357,1149,0,0
140,-125,0,0,0,0,0,0,0,0,0,-1,1364,1149,0,0
147,-125,0,0,0,0,0,0,0,0,0,-1,1371,1149,0,0
154,-125,0,0,0,0,0,0,0,0,0,-1,1378,1149,0,0
161,-125,0,0,0,0,0,0,0,0,0,-1,1385,1149,0,0
168,-125,0,0,0,0,0,0,0,0,0,-1,1392,1149,0,0
175,-125,0,0,0,0,0,0,0,0,0,-1,1399,1149,0,0
182,-125,0,0,0,0,0,0,0,0,0,-1,1406,1149,0,0
189,-125,0,0,0,0,0,0,0,0,0,-1,1413,1149,0,0
196,-125,0,0,0,0,0,0,0,0,0,-1,1420,1149,0,0
203,-125,0,0,0,0,0,0,0,0,0,-1,1427,1149,0,0
210,-125,0,0,0,0,0,0,0,0,0,-1,1434,1149,0,0
217,-125,0,0,0,0,0,0,0,0,0,-1,1441,1149,0,0
224,-125,0,0,0,0,0,0,0,0,0,-1,1448,1149,0,0
231,-125,0,0,0,0,0,0,0,0,0,-1,1455,1149,0,0
238,-125,0,0,0,0,0,0,0,0,0,-1,1462,1149,0,0
245,-125,0,0,0,0,0,0,0,0,0,-1,1469,1149,0,0
252,-125,0,0,0,0,0,0,0,0,0,-1,1476,1149,0,0
259,-125,0,0,0,0,0,0,0,0,0,-1,1483,1149,0,0
266,-125,0,0,0,0,0,0,0,0,0,-1,1490,1149,0,0
273,-125,0,0,0,0,0,0,0,0,0,-1,1497,1149,0,0
280,-125,0,0,0,0,0,0,0,0,0,-1,1504,1149,0,0
287,-125,0,0,0,0,0,0,0,0,0,-1,1511,1149,0,0
294,-125,0,0,0,0,0,0,0,0,0,-1,1518,1149,0,0
301,-125,0,0,0,0,0,0,0,0,0,-1,1525,1149,0,0
308,-125,0,0,0,0,0,0,0,0,0,-1,1532,1149,0,0
315,-125,0,0,0,0,0,0,0,0,0,-1,1539,1149,0,0
322,-125,0,0,0,0,0,0,0,0,0,-1,1546,1149,0,0
329,-125,0,0,0,0,0,0,0,0,0,-1,1553,1149,0,0
336,-125,0,0,0,0,0,0,0,0,0,-1,1560,1149,0,0
343,-125,0,0,0,0,0,0,0,0,0,-1,1567,1149,0,0
350,-125,0,0,0,0,0,0,0,0,0,-1,1574,1149,0,0
357,-125,0,0,0,0,0,0,0,0,0,-1,1581,1149,0,0
364,-125,0,0,0,0,0,0,0,0,0,-1,1588,1149,0,0
371,-125,0,0,0,0,0,0,0,0,0,-1,1595,1149,0,0
378,-125,0,0,0,0,0,0,0,0,0,-1,1602,1149,0,0
385,-125,0,0,0,0,0,0,0,0,0,-1,1609,1149,0,0
392,-125,0,0,0,0,0,0,0,0,0,-1,1616,1149,0,0
399,-125,0,0,0,0,0,0,0,0,0,-1,1623,1149,0,0
406,-125,0,0,0,0,0,0,0,0,0,-1,1630,1149,0,0
413,-125,0,0,0,0,0,0,0,0,0,-1,1637,1149,0,0
420,-125,0,0,0,0,0,0,0,0,0,-1,1644,1149,0,0
427,-125,0,0,0,0,0,0,0,0,0,-1,1651,1149,0,0
434,-125,0,0,0,0,0,0,0,0,0,-1,1658,1149,0,0
441,-125,0,0,0,0,0,0,0,0,0,-1,1665,1149,0,0
448,-125,0,0,0,0,0,0,0,0,0,-1,1672,1149,0,0
455,-125,0,0,0,0,0,0,0,0,0,-1,1679,1149,0,0
462,-125,0,0,0,0,0,0,0,0,0,-1,1686,1149,0,0
469,-125,0,0,0,0,0,0,0,0,0,-1,1693,1149,0,0
476,-125,0,0,0,0,0,0,0,0,0,-1,1700,1149,0,0
483,-125,0,0,0,0,0,0,0,0,0,-1,1707,1149,0,0
490,-125,0,0,0,0,0,0,0,0,0,-1,1714,1149,0,0
497,-125,0,0,0,0,0,0,0,0,0,-1,1721,1149,0,0
504,-125,0,0,0,0,0,0,0,0,0,-1,1728,1149,0,0
511,-125,0,0,0,0,0,0,0,0,0,-1,1735,1149,0,0
518,-125,0,0,0,0,0,0,0,0,0,-1,1742,1149,0,0
525,-125,0,0,0,0,0,0,0,0,0,-1,1749,1149,0,0
532,-125,0,0,0,0,0,0,0,0,0,-1,1756,1149,0,0
539,-125,0,0,0,0,0,0,0,0,0,-1,1763,1149,0,0
546,-125,0,0,0,0,0,0,0,0,0,-1,1770,1149,0,0
553,-125,0,0,0,0,0,0,0,0,0,-1,1777,1149,0,0
560,-125,0,0,0,0,0,0,0,0,0,-1,1784,1149,0,0
567,-125,0,0,0,0,0,0,0,0,0,-1,1791,1149,0,0
574,-125,0,0,0,0,0,0,0,0,0,-1,1798,1149,0,0
581,-125,0,0,0,0,0,0,0,0,0,-1,1805,1149,0,0
588,-125,0,0,0,0,0,0,0,0,0,-1,1812,1149,0,0
595,-125,0,0,0,0,0,0,0,0,0,-1,1819,1149,0,0
602,-125,0,0,0,0,0,0,0,0,0,-1,1826,1149,0,0
609,-125,0,0,0,0,0,0,0,0,0,-1,1833,1149,0,0
616,-125,0,0,0,0,0,0,0,0,0,-1,1840,1149,0,0
623,-125,0,0,0,0,0,0,0,0,0,-1,1847,1149,0,0
630,-125,0,0,0,0,0,0,0,0,0,-1,1854,1149,0,0
637,-125,0,0,0,0,0,0,0,0,0,-1,1861,1149,0,0
644,-125,158.971,5.69617,0,0,0,0,0,0,0,-1,1868,1149,158.971,-5.69618
651,-125,158.952,5.60144,0,0,0,0,0,0,0,-1,1875,1149,158.952,-5.60145
658,-125,158.665,5.45776,0,0,0,0,0,0,0,-1,1882,1149,158.665,-5.45771
665,-125,158.701,5.46472,0,0,0,0,0,0,0,-1,1889,1149,158.701,-5.46477
672,-125,158.812,5.40063,0,0,0,0,0,0,0,-1,1896,1149,158.812,-5.40069
679,-125,158.969,5.34058,0,0,0,0,0,0,0,-1,1903,1149,158.969,-5.34054
686,-125,158.958,5.52795,0,0,0,0,0,0,0,-1,1910,1149,158.958,-5.52797
693,-125,158.747,5.47803,0,0,0,0,0,0,0,-1,1917,1149,158.747,-5.478
700,-125,158.885,5.30859,0,0,0,0,0,0,0,-1,1924,1149,158.885,-5.30858
707,-125,159.115,5.03284,0,0,0,0,0,0,0,-1,1931,1149,159.115,-5.03281
714,-125,54.8745,9.21375,0,0,0,0,0,0,0,-1,1938,1149,54.8746,-9.21371
721,-125,154.307,28.095,0,0,0,0,0,0,0,-1,1945,1149,154.307,-28.095
728,-125,154.223,27.311,0.00800514,-0.0162209,0.00342963,0.00848131,-0.0166971,0.137957,0.0147924,0.0330967,1952,1149,154.223,-27.311
735,-125,154.212,26.5587,0.00253788,-0.00856859,0.00325635,0.00342221,-0.00945292,0.265175,0.00770048,0.0357796,1959,1149,154.212,-26.5587
742,-125,154.194,25.604,-0.00321515,-0.00107632,0.003588,0.00159825,-0.00588971,0.930233,0.00455369,0.0409486,1966,1149,154.194,-25.604
749,-125,153.885,24.7931,-0.00915304,0.00623974,0.00427042,0.00734511,-0.0102584,1.31751,0.0102097,0.0333241,1973,1149,153.885,-24.7931
756,-125,153.779,23.8119,-0.0152837,0.0133995,0.00527381,0.0143384,-0.0162226,1.39461,0.0176556,0.0304313,1980,1149,153.779,-23.8119
763,-125,153.817,23.0547,-0.0216109,0.02042,0.0065725,0.0214238,-0.0226147,1.41924,0.0254287,0.0171829,1987,1149,153.817,-23.0547
770,-125,153.488,22.1469,-0.0281339,0.0273155,0.00814574,0.0284874,-0.0293058,1.42791,0.033368,0.0266791,1994,1149,153.488,-22.1468
777,-125,153.096,21.2383,0,0,0,0,0,0,0,-1,2001,1149,153.096,-21.2383
784,-125,147.026,18.6482,0,0,0,0,0,0,0,-1,2008,1149,147.026,-18.6482
791,-125,132.727,12.136,0,0,0,0,0,0,0,-1,2015,1149,132.727,-12.136
798,-125,113.704,2.52368,0,0,0,0,0,0,0,-1,2022,1149,113.704,-2.52367
805,-125,114.45,3.41956,0,0,0,0,0,0,0,-1,2029,1149,114.451,-3.41951
812,-125,115.883,3.97852,0,0,0,0,0,0,0,-1,2036,1149,115.883,-3.97857
-700,-132,0,0,0,0,0,0,0,0,0,-1,524,1156,0,0
-693,-132,-84.8775,-0.206787,0,0,0,0,0,0,0,-1,531,1156,-84.8775,0.20675
-686,-132,-84.7945,1.61938,0,0,0,0,0,0,0,-1,538,1156,-84.7945,-1.6194
-679,-132,-84.6419,3.61133,0,0,0,0,0,0,0,-1,545,1156,-84.6419,-3.61137
-672,-132,-81.5812,8.59778,0,0,0,0,0,0,0,-1,552,1156,-81.5813,-8.59783
-665,-132,-80.6072,9.95984,0,0,0,0,0,0,0,-1,559,1156,-80.6072,-9.95988
-658,-132,-91.9766,9.54736,0,0,0,0,0,0,0,-1,566,1156,-91.9766,-9.54732
-651,-132,-116.257,16.9509,0,0,0,0,0,0,0,-1,573,1156,-116.257,-16.9509
-644,-132,-144.621,22.2444,0,0,0,0,0,0,0,-1,580,1156,-144.621,-22.2444
-637,-132,-144.591,22.9722,-0.0201797,0.0261906,-0.0086042,0.0277357,-0.0217248,-1.39312,0.0286262,0.0248286,587,1156,-144.591,-22.9721
-630,-132,-144.651,23.7059,-0.0169988,0.0213153,-0.00590258,0.022204,-0.0178875,-1.42135,0.0231915,0.0161762,594,1156,-144.651,-23.7059
-623,-132,-144.728,24.5083,-0.014151,0.016419,-0.00325712,0.0167622,-0.0144942,-1.46582,0.0180617,0.0195267,601,1156,-144.728,-24.5083
-616,-132,-144.808,25.3353,0,0,0,0,0,0,0,-1,608,1156,-144.808,-25.3353
-609,-132,-144.817,26.1461,0,0,0,0,0,0,0,-1,615,1156,-144.817,-26.1462
-602,-132,-144.753,27.226,0,0,0,0,0,0,0,-1,622,1156,-144.753,-27.226
-595,-132,-144.742,27.9713,0,0,0,0,0,0,0,-1,629,1156,-144.742,-27.9713
-588,-132,-42.6534,6.92969,0,0,0,0,0,0,0,-1,636,1156,-42.6535,-6.92967
-581,-132,-35.9343,6.42957,0,0,0,0,0,0,0,-1,643,1156,-35.9342,-6.42957
-574,-132,-33.2071,2.86963,0,0,0,0,0,0,0,-1,650,1156,-33.2071,-2.86963
-567,-132,-72.0044,0.526489,0,0,0,0,0,0,0,-1,657,1156,-72.0044,-0.526461
-560,-132,-72.1078,0.445068,0,0,0,0,0,0,0,-1,664,1156,-72.1078,-0.445009
-553,-132,-72.0989,0.435669,0,0,0,0,0,0,0,-1,671,1156,-72.0989,-0.435641
-546,-132,-72.072,0.571045,0,0,0,0,0,0,0,-1,678,1156,-72.0721,-0.570985
-539,-132,-72.0065,0.603271,0,0,0,0,0,0,0,-1,685,1156,-72.0065,-0.603318
-532,-132,-71.9823,0.505493,0,0,0,0,0,0,0,-1,692,1156,-71.9823,-0.505447
-525,-132,-72.0096,0.454956,0,0,0,0,0,0,0,-1,699,1156,-72.0097,-0.455012
-518,-132,0,0,0,0,0,0,0,0,0,-1,706,1156,0,0
-511,-132,0,0,0,0,0,0,0,0,0,-1,713,1156,0,0
-504,-132,0,0,0,0,0,0,0,0,0,-1,720,1156,0,0
-497,-132,0,0,0,0,0,0,0,0,0,-1,727,1156,0,0
-490,-132,0,0,0,0,0,0,0,0,0,-1,734,1156,0,0
-483,-132,0,0,0,0,0,0,0,0,0,-1,741,1156,0,0
-476,-132,0,0,0,0,0,0,0,0,0,-1,748,1156,0,0
-469,-132,0,0,0,0,0,0,0,0,0,-1,755,1156,0,0
-462,-132,0,0,0,0,0,0,0,0,0,-1,762,1156,0,0
-455,-132,0,0,0,0,0,0,0,0,0,-1,769,1156,0,0
-448,-132,0,0,0,0,0,0,0,0,0,-1,776,1156,0,0
-441,-132,0,0,0,0,0,0,0,0,0,-1,783,1156,0,0
-434,-132,0,0,0,0,0,0,0,0,0,-1,790,1156,0,0
-427,-132,0,0,0,0,0,0,0,0,0,-1,797,1156,0,0
-420,-132,0,0,0,0,0,0,0,0,0,-1,804,1156,0,0
-413,-132,0,0,0,0,0,0,0,0,0,-1,811,1156,0,0
-406,-132,0,0,0,0,0,0,0,0,0,-1,818,1156,0,0
-399,-132,0,0,0,0,0,0,0,0,0,-1,825,1156,0,0
-392,-132,0,0,0,0,0,0,0,0,0,-1,832,1156,0,0
-385,-132,0,0,0,0,0,0,0,0,0,-1,839,1156,0,0
-378,-132,0,0,0,0,0,0,0,0,0,-1,846,1156,0,0
-371,-132,0,0,0,0,0,0,0,0,0,-1,853,1156,0,0
-364,-132,0,0,0,0,0,0,0,0,0,-1,860,1156,0,0
-357,-132,0,0,0,0,0,0,0,0,0,-1,867,1156,0,0
-350,-132,0,0,0,0,0,0,0,0,0,-1,874,1156,0,0
-343,-132,0,0,0,0,0,0,0,0,0,-1,881,1156,0,0
-336,-132,0,0,0,0,0,0,0,0,0,-1,888,1156,0,0
-329,-132,0,0,0,0,0,0,0,0,0,-1,895,1156,0,0
-322,-132,0,0,0,0,0,0,0,0,0,-1,902,1156,0,0
-315,-132,0,0,0,0,0,0,0,0,0,-1,909,1156,0,0
-308,-132,0,0,0,0,0,0,0,0,0,-1,916,1156,0,0
-301,-132,0,0,0,0,0,0,0,0,0,-1,923,1156,0,0
-294,-132,0,0,0,0,0,0,0,0,0,-1,930,1156,0,0
-287,-132,0,0,0,0,0,0,0,0,0,-1,937,1156,0,0
-280,-132,0,0,0,0,0,0,0,0,0,-1,944,1156,0,0
-273,-132,0,0,0,0,0,0,0,0,0,-1,951,1156,0,0
-266,-132,0,0,0,0,0,0,0,0,0,-1,958,1156,0,0
-259,-132,0,0,0,0,0,0,0,0,0,-1,965,1156,0,0
-252,-132,0,0,0,0,0,0,0,0,0,-1,972,1156,0,0
-245,-132,0,0,0,0,0,0,0,0,0,-1,979,1156,0,0
-238,-132,0,0,0,0,0,0,0,0,0,-1,986,1156,0,0
-231,-132,0,0,0,0,0,0,0,0,0,-1,993,1156,0,0
-224,-132,0,0,0,0,0,0,0,0,0,-1,1000,1156,0,0
-217,-132,0,0,0,0,0,0,0,0,0,-1,1007,1156,0,0
-210,-132,0,0,0,0,0,0,0,0,0,-1,1014,1156,0,0
-203,-132,0,0,0,0,0,0,0,0,0,-1,1021,1156,0,0
-196,-132,0,0,0,0,0,0,0,0,0,-1,1028,1156,0,0
-189,-132,0,0,0,0,0,0,0,0,0,-1,1035,1156,0,0
-182,-132,0,0,0,0,0,0,0,0,0,-1,1042,1156,0,0
-175,-132,0,0,0,0,0,0,0,0,0,-1,1049,1156,0,0
-168,-132,0,0,0,0,0,0,0,0,0,-1,1056,1156,0,0
-161,-132,0,0,0,0,0,0,0,0,0,-1,1063,1156,0,0
-154,-132,0,0,0,0,0,0,0,0,0,-1,1070,1156,0,0
-147,-132,0,0,0,0,0,0,0,0,0,-1,1077,1156,0,0
-140,-132,0,0,0,0,0,0,0,0,0,-1,1084,1156,0,0
-133,-132,0,0,0,0,0,0,0,0,0,-1,1091,1156,0,0
-126,-132,0,0,0,0,0,0,0,0,0,-1,1098,1156,0,0
-119,-132,0,0,0,0,0,0,0,0,0,-1,1105,1156,0,0
-112,-132,0,0,0,0,0,0,0,0,0,-1,1112,1156,0,0
-105,-132,0,0,0,0,0,0,0,0,0,-1,1119,1156,0,0
-98,-132,0,0,0,0,0,0,0,0,0,-1,1126,1156,0,0
-91,-132,0,0,0,0,0,0,0,0,0,-1,1133,1156,0,0
-84,-132,0,0,0,0,0,0,0,0,0,-1,1140,1156,0,0
-77,-132,0,0,0,0,0,0,0,0,0,-1,1147,1156,0,0
-70,-132,0,0,0,0,0,0,0,0,0,-1,1154,1156,0,0
-63,-132,0,0,0,0,0,0,0,0,0,-1,1161,1156,0,0
-56,-132,0,0,0,0,0,0,0,0,0,-1,1168,1156,0,0
-49,-132,0,0,0,0,0,0,0,0,0,-1,1175,1156,0,0
-42,-132,0,0,0,0,0,0,0,0,0,-1,1182,1156,0,0
-35,-132,0,0,0,0,0,0,0,0,0,-1,1189,1156,0,0
-28,-132,0,0,0,0,0,0,0,0,0,-1,1196,1156,0,0
-21,-132,0,0,0,0,0,0,0,0,0,-1,1203,1156,0,0
-14,-132,0,0,0,0,0,0,0,0,0,-1,1210,1156,0,0
-7,-132,0,0,0,0,0,0,0,0,0,-1,1217,1156,0,0
0,-132,0,0,0,0,0,0,0,0,0,-1,1224,1156,0,0
7,-132,0,0,0,0,0,0,0,0,0,-1,1231,1156,0,0
14,-132,0,0,0,0,0,0,0,0,0,-1,1238,1156,0,0
21,-132,0,0,0,0,0,0,0,0,0,-1,1245,1156,0,0
28,-132,0,0,0,0,0,0,0,0,0,-1,1252,1156,0,0
35,-132,0,0,0,0,0,0,0,0,0,-1,1259,1156,0,0
42,-132,0,0,0,0,0,0,0,0,0,-1,1266,1156,0,0
49,-132,0,0,0,0,0,0,0,0,0,-1,1273,1156,0,0
56,-132,0,0,0,0,0,0,0,0,0,-1,1280,1156,0,0
63,-132,0,0,0,0,0,0,0,0,0,-1,1287,1156,0,0
70,-132,0,0,0,0,0,0,0,0,0,-1,1294,1156,0,0
77,-132,0,0,0,0,0,0,0,0,0,-1,1301,1156,0,0
84,-132,0,0,0,0,0,0,0,0,0,-1,1308,1156,0,0
91,-132,0,0,0,0,0,0,0,0,0,-1,1315,1156,0,0
98,-132,0,0,0,0,0,0,0,0,0,-1,1322,1156,0,0
105,-132,0,0,0,0,0,0,0,0,0,-1,1329,1156,0,0
112,-132,0,0,0,0,0,0,0,0,0,-1,1336,1156,0,0
119,-132,0,0,0,0,0,0,0,0,0,-1,1343,1156,0,0
126,-132,0,0,0,0,0,0,0,0,0,-1,1350,1156,0,0
133,-132,0,0,0,0,0,0,0,0,0,-1,1357,1156,0,0
140,-132,0,0,0,0,0,0,0,0,0,-1,1364,1156,0,0
147,-132,0,0,0,0,0,0,0,0,0,-1,1371,1156,0,0
154,-132,0,0,0,0,0,0,0,0,0,-1,1378,1156,0,0
161,-132,0,0,0,0,0,0,0,0,0,-1,1385,1156,0,0
168,-132,0,0,0,0,0,0,0,0,0,-1,1392,1156,0,0
175,-132,0,0,0,0,0,0,0,0,0,-1,1399,1156,0,0
182,-132,0,0,0,0,0,0,0,0,0,-1,1406,1156,0,0
189,-132,0,0,0,0,0,0,0,0,0,-1,1413,1156,0,0
196,-132,0,0,0,0,0,0,0,0,0,-1,1420,1156,0,0
203,-132,0,0,0,0,0,0,0,0,0,-1,1427,1156,0,0
210,-132,0,0,0,0,0,0,0,0,0,-1,1434,1156,0,0
217,-132,0,0,0,0,0,0,0,0,0,-1,1441,1156,0,0
224,-132,0,0,0,0,0,0,0,0,0,-1,1448,1156,0,0
231,-132,0,0,0,0,0,0,0,0,0,-1,1455,1156,0,0
238,-132,0,0,0,0,0,0,0,0,0,-1,1462,1156,0,0
245,-132,0,0,0,0,0,0,0,0,0,-1,1469,1156,0,0
252,-132,0,0,0,0,0,0,0,0,0,-1,1476,1156,0,0
259,-132,0,0,0,0,0,0,0,0,0,-1,1483,1156,0,0
266,-132,0,0,0,0,0,0,0,0,0,-1,1490,1156,0,0
273,-132,0,0,0,0,0,0,0,0,0,-1,1497,1156,0,0
280,-132,0,0,0,0,0,0,0,0,0,-1,1504,1156,0,0
287,-132,0,0,0,0,0,0,0,0,0,-1,1511,1156,0,0
294,-132,0,0,0,0,0,0,0,0,0,-1,1518,1156,0,0
301,-132,0,0,0,0,0,0,0,0,0,-1,1525,1156,0,0
308,-132,0,0,0,0,0,0,0,0,0,-1,1532,1156,0,0
315,-132,0,0,0,0,0,0,0,0,0,-1,1539,1156,0,0
322,-132,0,0,0,0,0,0,0,0,0,-1,1546,1156,0,0
329,-132,0,0,0,0,0,0,0,0,0,-1,1553,1156,0,0
336,-132,0,0,0,0,0,0,0,0,0,-1,1560,1156,0,0
343,-132,0,0,0,0,0,0,0,0,0,-1,1567,1156,0,0
350,-132,0,0,0,0,0,0,0,0,0,-1,1574,1156,0,0
357,-132,0,0,0,0,0,0,0,0,0,-1,1581,1156,0,0
364,-132,0,0,0,0,0,0,0,0,0,-1,1588,1156,0,0
371,-132,0,0,0,0,0,0,0,0,0,-1,1595,1156,0,0
378,-132,0,0,0,0,0,0,0,0,0,-1,1602,1156,0,0
385,-132,0,0,0,0,0,0,0,0,0,-1,1609,1156,0,0
392,-132,0,0,0,0,0,0,0,0,0,-1,1616,1156,0,0
399,-132,0,0,0,0,0,0,0,0,0,-1,1623,1156,0,0
406,-132,0,0,0,0,0,0,0,0,0,-1,1630,1156,0,0
413,-132,0,0,0,0,0,0,0,0,0,-1,1637,1156,0,0
420,-132,0,0,0,0,0,0,0,0,0,-1,1644,1156,0,0
427,-132,0,0,0,0,0,0,0,0,0,-1,1651,1156,0,0
434,-132,0,0,0,0,0,0,0,0,0,-1,1658,1156,0,0
441,-132,0,0,0,0,0,0,0,0,0,-1,1665,1156,0,0
448,-132,0,0,0,0,0,0,0,0,0,-1,1672,1156,0,0
455,-132,0,0,0,0,0,0,0,0,0,-1,1679,1156,0,0
462,-132,0,0,0,0,0,0,0,0,0,-1,1686,1156,0,0
469,-132,0,0,0,0,0,0,0,0,0,-1,1693,1156,0,0
476,-132,0,0,0,0,0,0,0,0,0,-1,1700,1156,0,0
483,-132,0,0,0,0,0,0,0,0,0,-1,1707,1156,0,0
490,-132,0,0,0,0,0,0,0,0,0,-1,1714,1156,0,0
497,-132,0,0,0,0,0,0,0,0,0,-1,1721,1156,0,0
504,-132,0,0,0,0,0,0,0,0,0,-1,1728,1156,0,0
511,-132,0,0,0,0,0,0,0,0,0,-1,1735,1156,0,0
518,-132,0,0,0,0,0,0,0,0,0,-1,1742,1156,0,0
525,-132,0,0,0,0,0,0,0,0,0,-1,1749,1156,0,0
532,-132,0,0,0,0,0,0,0,0,0,-1,1756,1156,0,0
539,-132,0,0,0,0,0,0,0,0,0,-1,1763,1156,0,0
546,-132,0,0,0,0,0,0,0,0,0,-1,1770,1156,0,0
553,-132,0,0,0,0,0,0,0,0,0,-1,1777,1156,0,0
560,-132,0,0,0,0,0,0,0,0,0,-1,1784,1156,0,0
567,-132,0,0,0,0,0,0,0,0,0,-1,1791,1156,0,0
574,-132,0,0,0,0,0,0,0,0,0,-1,1798,1156,0,0
581,-132,0,0,0,0,0,0,0,0,0,-1,1805,1156,0,0
588,-132,0,0,0,0,0,0,0,0,0,-1,1812,1156,0,0
595,-132,0,0,0,0,0,0,0,0,0,-1,1819,1156,0,0
602,-132,0,0,0,0,0,0,0,0,0,-1,1826,1156,0,0
609,-132,0,0,0,0,0,0,0,0,0,-1,1833,1156,0,0
616,-132,0,0,0,0,0,0,0,0,0,-1,1840,1156,0,0
623,-132,0,0,0,0,0,0,0,0,0,-1,1847,1156,0,0
630,-132,0,0,0,0,0,0,0,0,0,-1,1854,1156,0,0
637,-132,0,0,0,0,0,0,0,0,0,-1,1861,1156,0,0
644,-132,159.067,5.66284,0,0,0,0,0,0,0,-1,1868,1156,159.067,-5.66283
651,-132,158.819,5.58472,0,0,0,0,0,0,0,-1,1875,1156,158.819,-5.58468
658,-132,158.695,5.50952,0,0,0,0,0,0,0,-1,1882,1156,158.695,-5.50952
665,-132,158.883,5.36829,0,0,0,0,0,0,0,-1,1889,1156,158.883,-5.36826
672,-132,158.944,5.3064,0,0,0,0,0,0,0,-1,1896,1156,158.944,-5.30637
679,-132,159.089,5.20996,0,0,0,0,0,0,0,-1,1903,1156,159.089,-5.21
686,-132,159.045,5.33374,0,0,0,0,0,0,0,-1,1910,1156,159.045,-5.33372
693,-132,158.934,5.58557,0,0,0,0,0,0,0,-1,1917,1156,158.934,-5.58554
700,-132,158.878,5.20801,0,0,0,0,0,0,0,-1,1924,1156,158.878,-5.208
707,-132,57.9275,3.01367,0,0,0,0,0,0,0,-1,1931,1156,57.9275,-3.01369
714,-132,57.8083,9.22156,0,0,0,0,0,0,0,-1,1938,1156,57.8084,-9.22151
721,-132,153.3,28.3615,0,0,0,0,0,0,0,-1,1945,1156,153.3,-28.3614
728,-132,153.143,27.6014,0.00895341,-0.0140983,0.00276099,0.00927949,-0.0144244,0.117559,0.0137925,0.0431395,1952,1156,153.143,-27.6015
735,-132,153.208,26.6388,0.00328629,-0.00693908,0.00288339,0.00404332,-0.00769611,0.256752,0.00688626,0.0445481,1959,1156,153.208,-26.6388
742,-132,153.239,25.6696,-0.002636,0.000185428,0.00342601,0.0024798,-0.00493037,0.980702,0.00435554,0.0335554,1966,1156,153.239,-25.6695
749,-132,153.055,24.7739,-0.00867892,0.0071692,0.0043108,0.00826588,-0.0097756,1.32168,0.0104284,0.0290534,1973,1156,153.055,-24.7739
756,-132,152.906,23.8334,-0.0148538,0.0140302,0.00551538,0.0150475,-0.0158711,1.38839,0.017853,0.0308294,1980,1156,152.905,-23.8333
763,-132,152.811,23.0328,-0.0211685,0.0207845,0.00702133,0.0219285,-0.0223124,1.4093,0.0255428,0.019853,1987,1156,152.811,-23.0329
770,-132,152.583,22.2299,-0.0276273,0.0274471,0.00881472,0.0288235,-0.0290037,1.4159,0.0333866,0.0274842,1994,1156,152.583,-22.2298
777,-132,152.227,21.3042,0,0,0,0,0,0,0,-1,2001,1156,152.227,-21.3042
784,-132,109.483,2.9032,0,0,0,0,0,0,0,-1,2008,1156,109.483,-2.9032
791,-132,109.441,3.19641,0,0,0,0,0,0,0,-1,2015,1156,109.441,-3.19635
798,-132,114.092,2.5321,0,0,0,0,0,0,0,-1,2022,1156,114.092,-2.53215
805,-132,115.147,3.21765,0,0,0,0,0,0,0,-1,2029,1156,115.147,-3.21762
812,-132,116.501,3.68884,0,0,0,0,0,0,0,-1,2036,1156,116.501,-3.68888
-700,-139,0,0,0,0,0,0,0,0,0,-1,524,1163,0,0
-693,-139,-83.8602,-1.02612,0,0,0,0,0,0,0,-1,531,1163,-83.8602,1.02614
-686,-139,-84.5963,0.895996,0,0,0,0,0,0,0,-1,538,1163,-84.5963,-0.895989
-679,-139,-76.4769,6.57263,0,0,0,0,0,0,0,-1,545,1163,-76.4769,-6.5726
-672,-139,-81.4354,9.16565,0,0,0,0,0,0,0,-1,552,1163,-81.4354,-9.16571
-665,-139,-76.317,6.78796,0,0,0,0,0,0,0,-1,559,1163,-76.317,-6.78797
-658,-139,-77.2073,6.44202,0,0,0,0,0,0,0,-1,566,1163,-77.2073,-6.44196
-651,-139,-119.496,17.2479,0,0,0,0,0,0,0,-1,573,1163,-119.496,-17.2479
-644,-139,-143.595,21.8999,0,0,0,0,0,0,0,-1,580,1163,-143.595,-21.8999
-637,-139,-143.698,22.7606,-0.021007,0.0257642,-0.0104051,0.0279746,-0.0232173,-1.36148,0.0295982,0.0252407,587,1163,-143.698,-22.7606
-630,-139,-143.802,23.5874,-0.0174773,0.0219005,-0.00686687,0.0230637,-0.0186404,-1.40301,0.024123,0.0132275,594,1163,-143.802,-23.5874
-623,-139,-143.831,24.4263,-0.014188,0.0180033,-0.00334582,0.0183474,-0.0145321,-1.46832,0.0190255,0.0204899,601,1163,-143.831,-24.4263
-616,-139,-144.028,25.3121,-0.0110879,0.0140567,0.000139242,0.0140574,-0.0110886,1.56526,0.0145518,0.0258517,608,1163,-144.028,-25.3121
-609,-139,-144.033,26.2261,0,0,0,0,0,0,0,-1,615,1163,-144.033,-26.2261
-602,-139,-144.003,27.2223,0,0,0,0,0,0,0,-1,622,1163,-144.003,-27.2223
-595,-139,-143.736,28.376,0,0,0,0,0,0,0,-1,629,1163,-143.736,-28.3759
-588,-139,-51.0773,9.1781,0,0,0,0,0,0,0,-1,636,1163,-51.0773,-9.17806
-581,-139,-34.4892,6.72473,0,0,0,0,0,0,0,-1,643,1163,-34.4892,-6.72476
-574,-139,-23.0725,2.4043,0,0,0,0,0,0,0,-1,650,1163,-23.0725,-2.40433
-567,-139,-71.9699,0.449097,0,0,0,0,0,0,0,-1,657,1163,-71.9699,-0.449152
-560,-139,-72.0389,0.474487,0,0,0,0,0,0,0,-1,664,1163,-72.0389,-0.4745
-553,-139,-71.9187,0.398071,0,0,0,0,0,0,0,-1,671,1163,-71.9187,-0.39804
-546,-139,-72.0151,0.339478,0,0,0,0,0,0,0,-1,678,1163,-72.0151,-0.339479
-539,-139,-72.0318,0.385498,0,0,0,0,0,0,0,-1,685,1163,-72.0318,-0.385501
-532,-139,-71.9254,0.387329,0,0,0,0,0,0,0,-1,692,1163,-71.9254,-0.387287
-525,-139,-72.0009,0.424561,0,0,0,0,0,0,0,-1,699,1163,-72.0009,-0.424544
-518,-139,0,0,0,0,0,0,0,0,0,-1,706,1163,0,0
-511,-139,0,0,0,0,0,0,0,0,0,-1,713,1163,0,0
-504,-139,0,0,0,0,0,0,0,0,0,-1,720,1163,0,0
-497,-139,0,0,0,0,0,0,0,0,0,-1,727,1163,0,0
-490,-139,0,0,0,0,0,0,0,0,0,-1,734,1163,0,0
-483,-139,0,0,0,0,0,0,0,0,0,-1,741,1163,0,0
-476,-139,0,0,0,0,0,0,0,0,0,-1,748,1163,0,0
-469,-139,0,0,0,0,0,0,0,0,0,-1,755,1163,0,0
-462,-139,0,0,0,0,0,0,0,0,0,-1,762,1163,0,0
-455,-139,0,0,0,0,0,0,0,0,0,-1,769,1163,0,0
-448,-139,0,0,0,0,0,0,0,0,0,-1,776,1163,0,0
-441,-139,0,0,0,0,0,0,0,0,0,-1,783,1163,0,0
-434,-139,0,0,0,0,0,0,0,0,0,-1,790,1163,0,0
-427,-139,0,0,0,0,0,0,0,0,0,-1,797,1163,0,0
-420,-139,0,0,0,0,0,0,0,0,0,-1,804,1163,0,0
-413,-139,0,0,0,0,0,0,0,0,0,-1,811,1163,0,0
-406,-139,0,0,0,0,0,0,0,0,0,-1,818,1163,0,0
-399,-139,0,0,0,0,0,0,0,0,0,-1,825,1163,0,0
-392,-139,0,0,0,0,0,0,0,0,0,-1,832,1163,0,0
-385,-139,0,0,0,0,0,0,0,0,0,-1,839,1163,0,0
-378,-139,0,0,0,0,0,0,0,0,0,-1,846,1163,0,0
-371,-139,0,0,0,0,0,0,0,0,0,-1,853,1163,0,0
-364,-139,0,0,0,0,0,0,0,0,0,-1,860,1163,0,0
-357,-139,0,0,0,0,0,0,0,0,0,-1,867,1163,0,0
-350,-139,0,0,0,0,0,0,0,0,0,-1,874,1163,0,0
-343,-139,0,0,0,0,0,0,0,0,0,-1,881,1163,0,0
-336,-139,0,0,0,0,0,0,0,0,0,-1,888,1163,0,0
-329,-139,0,0,0,0,0,0,0,0,0,-1,895,1163,0,0
-322,-139,0,0,0,0,0,0,0,0,0,-1,902,1163,0,0
-315,-139,0,0,0,0,0,0,0,0,0,-1,909,1163,0,0
-308,-139,0,0,0,0,0,0,0,0,0,-1,916,1163,0,0
-301,-139,0,0,0,0,0,0,0,0,0,-1,923,1163,0,0
-294,-139,0,0,0,0,0,0,0,0,0,-1,930,1163,0,0
-287,-139,0,0,0,0,0,0,0,0,0,-1,937,1163,0,0
-280,-139,0,0,0,0,0,0,0,0,0,-1,944,1163,0,0
-273,-139,0,0,0,0,0,0,0,0,0,-1,951,1163,0,0
-266,-139,0,0,0,0,0,0,0,0,0,-1,958,1163,0,0
-259,-139,0,0,0,0,0,0,0,0,0,-1,965,1163,0,0
-252,-139,0,0,0,0,0,0,0,0,0,-1,972,1163,0,0
-245,-139,0,0,0,0,0,0,0,0,0,-1,979,1163,0,0
-238,-139,0,0,0,0,0,0,0,0,0,-1,986,1163,0,0
-231,-139,0,0,0,0,0,0,0,0,0,-1,993,1163,0,0
-224,-139,0,0,0,0,0,0,0,0,0,-1,1000,1163,0,0
-217,-139,0,0,0,0,0,0,0,0,0,-1,1007,1163,0,0
-210,-139,0,0,0,0,0,0,0,0,0,-1,1014,1163,0,0
-203,-139,0,0,0,0,0,0,0,0,0,-1,1021,1163,0,0
-196,-139,0,0,0,0,0,0,0,0,0,-1,1028,1163,0,0
-189,-139,0,0,0,0,0,0,0,0,0,-1,1035,1163,0,0
-182,-139,0,0,0,0,0,0,0,0,0,-1,1042,1163,0,0
-175,-139,0,0,0,0,0,0,0,0,0,-1,1049,1163,0,0
-168,-139,0,0,0,0,0,0,0,0,0,-1,1056,1163,0,0
-161,-139,0,0,0,0,0,0,0,0,0,-1,1063,1163,0,0
-154,-139,0,0,0,0,0,0,0,0,0,-1,1070,1163,0,0
-147,-139,0,0,0,0,0,0,0,0,0,-1,1077,1163,0,0
-140,-139,0,0,0,0,0,0,0,0,0,-1,1084,1163,0,0
-133,-139,0,0,0,0,0,0,0,0,0,-1,1091,1163,0,0
-126,-139,0,0,0,0,0,0,0,0,0,-1,1098,1163,0,0
-119,-139,0,0,0,0,0,0,0,0,0,-1,1105,1163,0,0
-112,-139,0,0,0,0,0,0,0,0,0,-1,1112,1163,0,0
-105,-139,0,0,0,0,0,0,0,0,0,-1,1119,1163,0,0
-98,-139,0,0,0,0,0,0,0,0,0,-1,1126,1163,0,0
-91,-139,0,0,0,0,0,0,0,0,0,-1,1133,1163,0,0
-84,-139,0,0,0,0,0,0,0,0,0,-1,1140,1163,0,0
-77,-139,0,0,0,0,0,0,0,0,0,-1,1147,1163,0,0
-70,-139,0,0,0,0,0,0,0,0,0,-1,1154,1163,0,0
-63,-139,0,0,0,0,0,0,0,0,0,-1,1161,1163,0,0
-56,-139,0,0,0,0,0,0,0,0,0,-1,1168,1163,0,0
-49,-139,0,0,0,0,0,0,0,0,0,-1,1175,1163,0,0
-42,-139,0,0,0,0,0,0,0,0,0,-1,1182,1163,0,0
-35,-139,0,0,0,0,0,0,0,0,0,-1,1189,1163,0,0
-28,-139,0,0,0,0,0,0,0,0,0,-1,1196,1163,0,0
-21,-139,0,0,0,0,0,0,0,0,0,-1,1203,1163,0,0
-14,-139,0,0,0,0,0,0,0,0,0,-1,1210,1163,0,0
-7,-139,0,0,0,0,0,0,0,0,0,-1,1217,1163,0,0
0,-139,0,0,0,0,0,0,0,0,0,-1,1224,1163,0,0
7,-139,0,0,0,0,0,0,0,0,0,-1,1231,1163,0,0
14,-139,0,0,0,0,0,0,0,0,0,-1,1238,1163,0,0
21,-139,0,0,0,0,0,0,0,0,0,-1,1245,1163,0,0
28,-139,0,0,0,0,0,0,0,0,0,-1,1252,1163,0,0
35,-139,0,0,0,0,0,0,0,0,0,-1,1259,1163,0,0
42,-139,0,0,0,0,0,0,0,0,0,-1,1266,1163,0,0
49,-139,0,0,0,0,0,0,0,0,0,-1,1273,1163,0,0
56,-139,0,0,0,0,0,0,0,0,0,-1,1280,1163,0,0
63,-139,0,0,0,0,0,0,0,0,0,-1,1287,1163,0,0
70,-139,0,0,0,0,0,0,0,0,0,-1,1294,1163,0,0
77,-139,0,0,0,0,0,0,0,0,0,-1,1301,1163,0,0
84,-139,0,0,0,0,0,0,0,0,0,-1,1308,1163,0,0
91,-139,0,0,0,0,0,0,0,0,0,-1,1315,1163,0,0
98,-139,0,0,0,0,0,0,0,0,0,-1,1322,1163,0,0
105,-139,0,0,0,0,0,0,0,0,0,-1,1329,1163,0,0
112,-139,0,0,0,0,0,0,0,0,0,-1,1336,1163,0,0
119,-139,0,0,0,0,0,0,0,0,0,-1,1343,1163,0,0
126,-139,0,0,0,0,0,0,0,0,0,-1,1350,1163,0,0
133,-139,0,0,0,0,0,0,0,0,0,-1,1357,1163,0,0
140,-139,0,0,0,0,0,0,0,0,0,-1,1364,1163,0,0
147,-139,0,0,0,0,0,0,0,0,0,-1,1371,1163,0,0
154,-139,0,0,0,0,0,0,0,0,0,-1,1378,1163,0,0
161,-139,0,0,0,0,0,0,0,0,0,-1,1385,1163,0,0
168,-139,0,0,0,0,0,0,0,0,0,-1,1392,1163,0,0
175,-139,0,0,0,0,0,0,0,0,0,-1,1399,1163,0,0
182,-139,0,0,0,0,0,0,0,0,0,-1,1406,1163,0,0
189,-139,0,0,0,0,0,0,0,0,0,-1,1413,1163,0,0
196,-139,0,0,0,0,0,0,0,0,0,-1,1420,1163,0,0
203,-139,0,0,0,0,0,0,0,0,0,-1,1427,1163,0,0
210,-139,0,0,0,0,0,0,0,0,0,-1,1434,1163,0,0
217,-139,0,0,0,0,0,0,0,0,0,-1,1441,1163,0,0
224,-139,0,0,0,0,0,0,0,0,0,-1,1448,1163,0,0
231,-139,0,0,0,0,0,0,0,0,0,-1,1455,1163,0,0
238,-139,0,0,0,0,0,0,0,0,0,-1,1462,1163,0,0
245,-139,0,0,0,0,0,0,0,0,0,-1,1469,1163,0,0
252,-139,0,0,0,0,0,0,0,0,0,-1,1476,1163,0,0
259,-139,0,0,0,0,0,0,0,0,0,-1,1483,1163,0,0
266,-139,0,0,0,0,0,0,0,0,0,-1,1490,1163,0,0
273,-139,0,0,0,0,0,0,0,0,0,-1,1497,1163,0,0
280,-139,0,0,0,0,0,0,0,0,0,-1,1504,1163,0,0
287,-139,0,0,0,0,0,0,0,0,0,-1,1511,1163,0,0
294,-139,0,0,0,0,0,0,0,0,0,-1,1518,1163,0,0
301,-139,0,0,0,0,0,0,0,0,0,-1,1525,1163,0,0
308,-139,0,0,0,0,0,0,0,0,0,-1,1532,1163,0,0
315,-139,0,0,0,0,0,0,0,0,0,-1,1539,1163,0,0
322,-139,0,0,0,0,0,0,0,0,0,-1,1546,1163,0,0
329,-139,0,0,0,0,0,0,0,0,0,-1,1553,1163,0,0
336,-139,0,0,0,0,0,0,0,0,0,-1,1560,1163,0,0
343,-139,0,0,0,0,0,0,0,0,0,-1,1567,1163,0,0
350,-139,0,0,0,0,0,0,0,0,0,-1,1574,1163,0,0
357,-139,0,0,0,0,0,0,0,0,0,-1,1581,1163,0,0
364,-139,0,0,0,0,0,0,0,0,0,-1,1588,1163,0,0
371,-139,0,0,0,0,0,0,0,0,0,-1,1595,1163,0,0
378,-139,0,0,0,0,0,0,0,0,0,-1,1602,1163,0,0
385,-139,0,0,0,0,0,0,0,0,0,-1,1609,1163,0,0
392,-139,0,0,0,0,0,0,0,0,0,-1,1616,1163,0,0
399,-139,0,0,0,0,0,0,0,0,0,-1,1623,1163,0,0
406,-139,0,0,0,0,0,0,0,0,0,-1,1630,1163,0,0
413,-139,0,0,0,0,0,0,0,0,0,-1,1637,1163,0,0
420,-139,0,0,0,0,0,0,0,0,0,-1,1644,1163,0,0
427,-139,0,0,0,0,0,0,0,0,0,-1,1651,1163,0,0
434,-139,0,0,0,0,0,0,0,0,0,-1,1658,1163,0,0
441,-139,0,0,0,0,0,0,0,0,0,-1,1665,1163,0,0
448,-139,0,0,0,0,0,0,0,0,0,-1,1672,1163,0,0
455,-139,0,0,0,0,0,0,0,0,0,-1,1679,1163,0,0
462,-139,0,0,0,0,0,0,0,0,0,-1,1686,1163,0,0
469,-139,0,0,0,0,0,0,0,0,0,-1,1693,1163,0,0
476,-139,0,0,0,0,0,0,0,0,0,-1,1700,1163,0,0
483,-139,0,0,0,0,0,0,0,0,0,-1,1707,1163,0,0
490,-139,0,0,0,0,0,0,0,0,0,-1,1714,1163,0,0
497,-139,0,0,0,0,0,0,0,0,0,-1,1721,1163,0,0
504,-139,0,0,0,0,0,0,0,0,0,-1,1728,1163,0,0
511,-139,0,0,0,0,0,0,0,0,0,-1,1735,1163,0,0
518,-139,0,0,0,0,0,0,0,0,0,-1,1742,1163,0,0
525,-139,0,0,0,0,0,0,0,0,0,-1,1749,1163,0,0
532,-139,0,0,0,0,0,0,0,0,0,-1,1756,1163,0,0
539,-139,0,0,0,0,0,0,0,0,0,-1,1763,1163,0,0
546,-139,0,0,0,0,0,0,0,0,0,-1,1770,1163,0,0
553,-139,0,0,0,0,0,0,0,0,0,-1,1777,1163,0,0
560,-139,0,0,0,0,0,0,0,0,0,-1,1784,1163,0,0
567,-139,0,0,0,0,0,0,0,0,0,-1,1791,1163,0,0
574,-139,0,0,0,0,0,0,0,0,0,-1,1798,1163,0,0
581,-139,0,0,0,0,0,0,0,0,0,-1,1805,1163,0,0
588,-139,0,0,0,0,0,0,0,0,0,-1,1812,1163,0,0
595,-139,0,0,0,0,0,0,0,0,0,-1,1819,1163,0,0
602,-139,0,0,0,0,0,0,0,0,0,-1,1826,1163,0,0
609,-139,0,0,0,0,0,0,0,0,0,-1,1833,1163,0,0
616,-139,0,0,0,0,0,0,0,0,0,-1,1840,1163,0,0
623,-139,0,0,0,0,0,0,0,0,0,-1,1847,1163,0,0
630,-139,0,0,0,0,0,0,0,0,0,-1,1854,1163,0,0
637,-139,0,0,0,0,0,0,0,0,0,-1,1861,1163,0,0
644,-139,159.144,5.44653,0,0,0,0,0,0,0,-1,1868,1163,159.144,-5.4465
651,-139,158.781,5.55908,0,0,0,0,0,0,0,-1,1875,1163,158.781,-5.55903
658,-139,158.722,5.33533,0,0,0,0,0,0,0,-1,1882,1163,158.722,-5.33537
665,-139,158.876,5.35767,0,0,0,0,0,0,0,-1,1889,1163,158.876,-5.35771
672,-139,158.911,5.39648,0,0,0,0,0,0,0,-1,1896,1163,158.911,-5.3965
679,-139,159.001,5.37268,0,0,0,0,0,0,0,-1,1903,1163,159.001,-5.37269
686,-139,158.947,5.39514,0,0,0,0,0,0,0,-1,1910,1163,158.946,-5.39511
693,-139,158.813,5.51099,0,0,0,0,0,0,0,-1,1917,1163,158.813,-5.51096
700,-139,158.955,5.21362,0,0,0,0,0,0,0,-1,1924,1163,158.955,-5.21368
707,-139,32.116,6.54346,0,0,0,0,0,0,0,-1,1931,1163,32.116,-6.54343
714,-139,62.1425,10.1428,0,0,0,0,0,0,0,-1,1938,1163,62.1424,-10.1428
721,-139,72.1608,11.011,0,0,0,0,0,0,0,-1,1945,1163,72.1608,-11.0109
728,-139,152.098,28.0203,0,0,0,0,0,0,0,-1,1952,1163,152.098,-28.0203
735,-139,152.329,26.7072,0.00338622,-0.00493302,0.0022835,0.00397179,-0.00551859,0.251026,0.00550348,0.0443761,1959,1163,152.329,-26.7072
742,-139,152.296,25.5913,-0.00252297,0.00168932,0.00316298,0.00338321,-0.00421686,1.07912,0.0043967,0.0318052,1966,1163,152.296,-25.5913
749,-139,152.114,24.666,-0.00845688,0.0081961,0.00436947,0.00927295,-0.00953373,1.32916,0.0108584,0.0236254,1973,1163,152.114,-24.666
756,-139,151.94,23.8062,-0.0144225,0.0145987,0.00588756,0.0157476,-0.0155714,1.37807,0.0180821,0.0146497,1980,1163,151.94,-23.8062
763,-139,151.768,22.9176,-0.020423,0.020906,0.00770551,0.0222959,-0.0218129,1.39234,0.0254667,0.0167043,1987,1163,151.768,-22.9176
770,-139,151.603,22.0636,-0.0264575,0.0271253,0.00981539,0.0288667,-0.0281989,1.39521,0.0329476,0.0268439,1994,1163,151.603,-22.0636
777,-139,151.407,21.1852,0,0,0,0,0,0,0,-1,2001,1163,151.407,-21.1852
784,-139,111.54,4.47424,0,0,0,0,0,0,0,-1,2008,1163,111.54,-4.47423
791,-139,113.788,9.25476,0,0,0,0,0,0,0,-1,2015,1163,113.788,-9.25476
798,-139,114.748,2.3186,0,0,0,0,0,0,0,-1,2022,1163,114.748,-2.31858
805,-139,115.784,2.98291,0,0,0,0,0,0,0,-1,2029,1163,115.784,-2.98296
812,-139,0,0,0,0,0,0,0,0,0,-1,2036,1163,0,0
-700,-146,0,0,0,0,0,0,0,0,0,-1,524,1170,0,0
-693,-146,-82.7482,-2.19629,0,0,0,0,0,0,0,-1,531,1170,-82.7482,2.19632
-686,-146,-138.739,10.9902,0,0,0,0,0,0,0,-1,538,1170,-138.739,-10.9902
-679,-146,-83.9792,1.00256,0,0,0,0,0,0,0,-1,545,1170,-83.9791,-1.00257
-672,-146,-74.9213,7.40356,0,0,0,0,0,0,0,-1,552,1170,-74.9213,-7.40356
-665,-146,-75.6855,5.98706,0,0,0,0,0,0,0,-1,559,1170,-75.6855,-5.98704
-658,-146,-76.8463,5.53369,0,0,0,0,0,0,0,-1,566,1170,-76.8463,-5.53366
-651,-146,-118.127,17.3252,0,0,0,0,0,0,0,-1,573,1170,-118.127,-17.3252
-644,-146,-142.587,21.9103,0,0,0,0,0,0,0,-1,580,1170,-142.587,-21.9103
-637,-146,-142.745,22.6698,-0.0235441,0.026151,-0.0122365,0.0290006,-0.0263937,-1.342,0.0319937,0.0263502,587,1170,-142.745,-22.6697
-630,-146,-142.898,23.4875,-0.0186296,0.0226831,-0.00801939,0.0241852,-0.0201317,-1.38564,0.025622,0.0141132,594,1170,-142.898,-23.4876
-623,-146,-142.976,24.3861,-0.0138789,0.0191862,-0.00387888,0.0196352,-0.0143278,-1.45557,0.0196882,0.0172464,601,1170,-142.976,-24.3861
-616,-146,-143.246,25.252,-0.00925463,0.0156553,0.000166787,0.0156564,-0.00925574,1.5641,0.0145404,0.0282002,608,1170,-143.246,-25.2519
-609,-146,-143.522,26.0284,0,0,0,0,0,0,0,-1,615,1170,-143.522,-26.0285
-602,-146,-143.262,27.236,0,0,0,0,0,0,0,-1,622,1170,-143.262,-27.236
-595,-146,-109.641,23.5803,0,0,0,0,0,0,0,-1,629,1170,-109.641,-23.5803
-588,-146,-45.0034,7.81934,0,0,0,0,0,0,0,-1,636,1170,-45.0034,-7.81931
-581,-146,-31.7815,6.30347,0,0,0,0,0,0,0,-1,643,1170,-31.7815,-6.3035
-574,-146,-17.9915,3.79114,0,0,0,0,0,0,0,-1,650,1170,-17.9915,-3.79118
-567,-146,-44.4572,0.6604,0,0,0,0,0,0,0,-1,657,1170,-44.4572,-0.660404
-560,-146,-71.9951,0.45874,0,0,0,0,0,0,0,-1,664,1170,-71.9951,-0.458771
-553,-146,-71.8871,0.505371,0,0,0,0,0,0,0,-1,671,1170,-71.8871,-0.505387
-546,-146,-71.9315,0.423218,0,0,0,0,0,0,0,-1,678,1170,-71.9315,-0.423264
-539,-146,-71.9998,0.394165,0,0,0,0,0,0,0,-1,685,1170,-71.9998,-0.394152
-532,-146,-71.8738,0.287109,0,0,0,0,0,0,0,-1,692,1170,-71.8738,-0.287159
-525,-146,-71.8591,0.315796,0,0,0,0,0,0,0,-1,699,1170,-71.8591,-0.315751
-518,-146,0,0,0,0,0,0,0,0,0,-1,706,1170,0,0
-511,-146,0,0,0,0,0,0,0,0,0,-1,713,1170,0,0
-504,-146,0,0,0,0,0,0,0,0,0,-1,720,1170,0,0
-497,-146,0,0,0,0,0,0,0,0,0,-1,727,1170,0,0
-490,-146,0,0,0,0,0,0,0,0,0,-1,734,1170,0,0
-483,-146,0,0,0,0,0,0,0,0,0,-1,741,1170,0,0
-476,-146,0,0,0,0,0,0,0,0,0,-1,748,1170,0,0
-469,-146,0,0,0,0,0,0,0,0,0,-1,755,1170,0,0
-462,-146,0,0,0,0,0,0,0,0,0,-1,762,1170,0,0
-455,-146,0,0,0,0,0,0,0,0,0,-1,769,1170,0,0
-448,-146,0,0,0,0,0,0,0,0,0,-1,776,1170,0,0
-441,-146,0,0,0,0,0,0,0,0,0,-1,783,1170,0,0
-434,-146,0,0,0,0,0,0,0,0,0,-1,790,1170,0,0
-427,-146,0,0,0,0,0,0,0,0,0,-1,797,1170,0,0
-420,-146,0,0,0,0,0,0,0,0,0,-1,804,1170,0,0
-413,-146,0,0,0,0,0,0,0,0,0,-1,811,1170,0,0
-406,-146,0,0,0,0,0,0,0,0,0,-1,818,1170,0,0
-399,-146,0,0,0,0,0,0,0,0,0,-1,825,1170,0,0
-392,-146,0,0,0,0,0,0,0,0,0,-1,832,1170,0,0
-385,-146,0,0,0,0,0,0,0,0,0,-1,839,1170,0,0
-378,-146,0,0,0,0,0,0,0,0,0,-1,846,1170,0,0
-371,-146,0,0,0,0,0,0,0,0,0,-1,853,1170,0,0
-364,-146,0,0,0,0,0,0,0,0,0,-1,860,1170,0,0
-357,-146,0,0,0,0,0,0,0,0,0,-1,867,1170,0,0
-350,-146,0,0,0,0,0,0,0,0,0,-1,874,1170,0,0
-343,-146,0,0,0,0,0,0,0,0,0,-1,881,1170,0,0
-336,-146,0,0,0,0,0,0,0,0,0,-1,888,1170,0,0
-329,-146,0,0,0,0,0,0,0,0,0,-1,895,1170,0,0
-322,-146,0,0,0,0,0,0,0,0,0,-1,902,1170,0,0
-315,-146,0,0,0,0,0,0,0,0,0,-1,909,1170,0,0
-308,-146,0,0,0,0,0,0,0,0,0,-1,916,1170,0,0
-301,-146,0,0,0,0,0,0,0,0,0,-1,923,1170,0,0
-294,-146,0,0,0,0,0,0,0,0,0,-1,930,1170,0,0
-287,-146,0,0,0,0,0,0,0,0,0,-1,937,1170,0,0
-280,-146,0,0,0,0,0,0,0,0,0,-1,944,1170,0,0
-273,-146,0,0,0,0,0,0,0,0,0,-1,951,1170,0,0
-266,-146,0,0,0,0,0,0,0,0,0,-1,958,1170,0,0
-259,-146,0,0,0,0,0,0,0,0,0,-1,965,1170,0,0
-252,-146,0,0,0,0,0,0,0,0,0,-1,972,1170,0,0
-245,-146,0,0,0,0,0,0,0,0,0,-1,979,1170,0,0
-238,-146,0,0,0,0,0,0,0,0,0,-1,986,1170,0,0
-231,-146,0,0,0,0,0,0,0,0,0,-1,993,1170,0,0
-224,-146,0,0,0,0,0,0,0,0,0,-1,1000,1170,0,0
-217,-146,0,0,0,0,0,0,0,0,0,-1,1007,1170,0,0
-210,-146,0,0,0,0,0,0,0,0,0,-1,1014,1170,0,0
-203,-146,0,0,0,0,0,0,0,0,0,-1,1021,1170,0,0
-196,-146,0,0,0,0,0,0,0,0,0,-1,1028,1170,0,0
-189,-146,0,0,0,0,0,0,0,0,0,-1,1035,1170,0,0
-182,-146,0,0,0,0,0,0,0,0,0,-1,1042,1170,0,0
-175,-146,0,0,0,0,0,0,0,0,0,-1,1049,1170,0,0
-168,-146,0,0,0,0,0,0,0,0,0,-1,1056,1170,0,0
-161,-146,0,0,0,0,0,0,0,0,0,-1,1063,1170,0,0
-154,-146,0,0,0,0,0,0,0,0,0,-1,1070,1170,0,0
-147,-146,0,0,0,0,0,0,0,0,0,-1,1077,1170,0,0
-140,-146,0,0,0,0,0,0,0,0,0,-1,1084,1170,0,0
-133,-146,0,0,0,0,0,0,0,0,0,-1,1091,1170,0,0
-126,-146,0,0,0,0,0,0,0,0,0,-1,1098,1170,0,0
-119,-146,0,0,0,0,0,0,0,0,0,-1,1105,1170,0,0
-112,-146,0,0,0,0,0,0,0,0,0,-1,1112,1170,0,0
-105,-146,0,0,0,0,0,0,0,0,0,-1,1119,1170,0,0
-98,-146,0,0,0,0,0,0,0,0,0,-1,1126,1170,0,0
-91,-146,0,0,0,0,0,0,0,0,0,-1,1133,1170,0,0
-84,-146,0,0,0,0,0,0,0,0,0,-1,1140,1170,0,0
-77,-146,0,0,0,0,0,0,0,0,0,-1,1147,1170,0,0
-70,-146,0,0,0,0,0,0,0,0,0,-1,1154,1170,0,0
-63,-146,0,0,0,0,0,0,0,0,0,-1,1161,1170,0,0
-56,-146,0,0,0,0,0,0,0,0,0,-1,1168,1170,0,0
-49,-146,0,0,0,0,0,0,0,0,0,-1,1175,1170,0,0
-42,-146,0,0,0,0,0,0,0,0,0,-1,1182,1170,0,0
-35,-146,0,0,0,0,0,0,0,0,0,-1,1189,1170,0,0
-28,-146,0,0,0,0,0,0,0,0,0,-1,1196,1170,0,0
-21,-146,0,0,0,0,0,0,0,0,0,-1,1203,1170,0,0
-14,-146,0,0,0,0,0,0,0,0,0,-1,1210,1170,0,0
-7,-146,0,0,0,0,0,0,0,0,0,-1,1217,1170,0,0
0,-146,0,0,0,0,0,0,0,0,0,-1,1224,1170,0,0
7,-146,0,0,0,0,0,0,0,0,0,-1,1231,1170,0,0
14,-146,0,0,0,0,0,0,0,0,0,-1,1238,1170,0,0
21,-146,0,0,0,0,0,0,0,0,0,-1,1245,1170,0,0
28,-146,0,0,0,0,0,0,0,0,0,-1,1252,1170,0,0
35,-146,0,0,0,0,0,0,0,0,0,-1,1259,1170,0,0
42,-146,0,0,0,0,0,0,0,0,0,-1,1266,1170,0,0
49,-146,0,0,0,0,0,0,0,0,0,-1,1273,1170,0,0
56,-146,0,0,0,0,0,0,0,0,0,-1,1280,1170,0,0
63,-146,0,0,0,0,0,0,0,0,0,-1,1287,1170,0,0
70,-146,0,0,0,0,0,0,0,0,0,-1,1294,1170,0,0
77,-146,0,0,0,0,0,0,0,0,0,-1,1301,1170,0,0
84,-146,0,0,0,0,0,0,0,0,0,-1,1308,1170,0,0
91,-146,0,0,0,0,0,0,0,0,0,-1,1315,1170,0,0
98,-146,0,0,0,0,0,0,0,0,0,-1,1322,1170,0,0
105,-146,0,0,0,0,0,0,0,0,0,-1,1329,1170,0,0
112,-146,0,0,0,0,0,0,0,0,0,-1,1336,1170,0,0
119,-146,0,0,0,0,0,0,0,0,0,-1,1343,1170,0,0
126,-146,0,0,0,0,0,0,0,0,0,-1,1350,1170,0,0
133,-146,0,0,0,0,0,0,0,0,0,-1,1357,1170,0,0
140,-146,0,0,0,0,0,0,0,0,0,-1,1364,1170,0,0
147,-146,0,0,0,0,0,0,0,0,0,-1,1371,1170,0,0
154,-146,0,0,0,0,0,0,0,0,0,-1,1378,1170,0,0
161,-146,0,0,0,0,0,0,0,0,0,-1,1385,1170,0,0
168,-146,0,0,0,0,0,0,0,0,0,-1,1392,1170,0,0
175,-146,0,0,0,0,0,0,0,0,0,-1,1399,1170,0,0
182,-146,0,0,0,0,0,0,0,0,0,-1,1406,1170,0,0
189,-146,0,0,0,0,0,0,0,0,0,-1,1413,1170,0,0
196,-146,0,0,0,0,0,0,0,0,0,-1,1420,1170,0,0
203,-146,0,0,0,0,0,0,0,0,0,-1,1427,1170,0,0
210,-146,0,0,0,0,0,0,0,0,0,-1,1434,1170,0,0
217,-146,0,0,0,0,0,0,0,0,0,-1,1441,1170,0,0
224,-146,0,0,0,0,0,0,0,0,0,-1,1448,1170,0,0
231,-146,0,0,0,0,0,0,0,0,0,-1,1455,1170,0,0
238,-146,0,0,0,0,0,0,0,0,0,-1,1462,1170,0,0
245,-146,0,0,0,0,0,0,0,0,0,-1,1469,1170,0,0
252,-146,0,0,0,0,0,0,0,0,0,-1,1476,1170,0,0
259,-146,0,0,0,0,0,0,0,0,0,-1,1483,1170,0,0
266,-146,0,0,0,0,0,0,0,0,0,-1,1490,1170,0,0
273,-146,0,0,0,0,0,0,0,0,0,-1,1497,1170,0,0
280,-146,0,0,0,0,0,0,0,0,0,-1,1504,1170,0,0
287,-146,0,0,0,0,0,0,0,0,0,-1,1511,1170,0,0
294,-146,0,0,0,0,0,0,0,0,0,-1,1518,1170,0,0
301,-146,0,0,0,0,0,0,0,0,0,-1,1525,1170,0,0
308,-146,0,0,0,0,0,0,0,0,0,-1,1532,1170,0,0
315,-146,0,0,0,0,0,0,0,0,0,-1,1539,1170,0,0
322,-146,0,0,0,0,0,0,0,0,0,-1,1546,1170,0,0
329,-146,0,0,0,0,0,0,0,0,0,-1,1553,1170,0,0
336,-146,0,0,0,0,0,0,0,0,0,-1,1560,1170,0,0
343,-146,0,0,0,0,0,0,0,0,0,-1,1567,1170,0,0
350,-146,0,0,0,0,0,0,0,0,0,-1,1574,1170,0,0
357,-146,0,0,0,0,0,0,0,0,0,-1,1581,1170,0,0
364,-146,0,0,0,0,0,0,0,0,0,-1,1588,1170,0,0
371,-146,0,0,0,0,0,0,0,0,0,-1,1595,1170,0,0
378,-146,0,0,0,0,0,0,0,0,0,-1,1602,1170,0,0
385,-146,0,0,0,0,0,0,0,0,0,-1,1609,1170,0,0
392,-146,0,0,0,0,0,0,0,0,0,-1,1616,1170,0,0
399,-146,0,0,0,0,0,0,0,0,0,-1,1623,1170,0,0
406,-146,0,0,0,0,0,0,0,0,0,-1,1630,1170,0,0
413,-146,0,0,0,0,0,0,0,0,0,-1,1637,1170,0,0
420,-146,0,0,0,0,0,0,0,0,0,-1,1644,1170,0,0
427,-146,0,0,0,0,0,0,0,0,0,-1,1651,1170,0,0
434,-146,0,0,0,0,0,0,0,0,0,-1,1658,1170,0,0
441,-146,0,0,0,0,0,0,0,0,0,-1,1665,1170,0,0
448,-146,0,0,0,0,0,0,0,0,0,-1,1672,1170,0,0
455,-146,0,0,0,0,0,0,0,0,0,-1,1679,1170,0,0
462,-146,0,0,0,0,0,0,0,0,0,-1,1686,1170,0,0
469,-146,0,0,0,0,0,0,0,0,0,-1,1693,1170,0,0
476,-146,0,0,0,0,0,0,0,0,0,-1,1700,1170,0,0
483,-146,0,0,0,0,0,0,0,0,0,-1,1707,1170,0,0
490,-146,0,0,0,0,0,0,0,0,0,-1,1714,1170,0,0
497,-146,0,0,0,0,0,0,0,0,0,-1,1721,1170,0,0
504,-146,0,0,0,0,0,0,0,0,0,-1,1728,1170,0,0
511,-146,0,0,0,0,0,0,0,0,0,-1,1735,1170,0,0
518,-146,0,0,0,0,0,0,0,0,0,-1,1742,1170,0,0
525,-146,0,0,0,0,0,0,0,0,0,-1,1749,1170,0,0
532,-146,0,0,0,0,0,0,0,0,0,-1,1756,1170,0,0
539,-146,0,0,0,0,0,0,0,0,0,-1,1763,1170,0,0
546,-146,0,0,0,0,0,0,0,0,0,-1,1770,1170,0,0
553,-146,0,0,0,0,0,0,0,0,0,-1,1777,1170,0,0
560,-146,0,0,0,0,0,0,0,0,0,-1,1784,1170,0,0
567,-146,0,0,0,0,0,0,0,0,0,-1,1791,1170,0,0
574,-146,0,0,0,0,0,0,0,0,0,-1,1798,1170,0,0
581,-146,0,0,0,0,0,0,0,0,0,-1,1805,1170,0,0
588,-146,0,0,0,0,0,0,0,0,0,-1,1812,1170,0,0
595,-146,0,0,0,0,0,0,0,0,0,-1,1819,1170,0,0
602,-146,0,0,0,0,0,0,0,0,0,-1,1826,1170,0,0
609,-146,0,0,0,0,0,0,0,0,0,-1,1833,1170,0,0
616,-146,0,0,0,0,0,0,0,0,0,-1,1840,1170,0,0
623,-146,0,0,0,0,0,0,0,0,0,-1,1847,1170,0,0
630,-146,0,0,0,0,0,0,0,0,0,-1,1854,1170,0,0
637,-146,158.972,5.02393,0,0,0,0,0,0,0,-1,1861,1170,158.972,-5.02387
644,-146,159.017,5.09644,0,0,0,0,0,0,0,-1,1868,1170,159.017,-5.09638
651,-146,158.857,5.26062,0,0,0,0,0,0,0,-1,1875,1170,158.857,-5.26057
658,-146,158.739,5.53479,0,0,0,0,0,0,0,-1,1882,1170,158.739,-5.53477
665,-146,158.846,5.56323,0,0,0,0,0,0,0,-1,1889,1170,158.846,-5.56324
672,-146,158.872,5.44543,0,0,0,0,0,0,0,-1,1896,1170,158.872,-5.44546
679,-146,158.851,5.40747,0,0,0,0,0,0,0,-1,1903,1170,158.851,-5.40742
686,-146,158.677,5.35217,0,0,0,0,0,0,0,-1,1910,1170,158.677,-5.35222
693,-146,158.84,5.26758,0,0,0,0,0,0,0,-1,1917,1170,158.84,-5.26759
700,-146,158.957,5.14038,0,0,0,0,0,0,0,-1,1924,1170,158.957,-5.14042
707,-146,29.9441,6.94653,0,0,0,0,0,0,0,-1,1931,1170,29.9441,-6.94652
714,-146,31.325,6.13245,0,0,0,0,0,0,0,-1,1938,1170,31.325,-6.1325
721,-146,61.3608,9.47766,0,0,0,0,0,0,0,-1,1945,1170,61.3608,-9.47767
728,-146,151.428,27.3008,0,0,0,0,0,0,0,-1,1952,1170,151.428,-27.3008
735,-146,151.447,26.5391,0.00356585,-0.00307833,0.00123165,0.00378682,-0.0032993,0.177518,0.0040944,0.040851,1959,1170,151.447,-26.5391
742,-146,151.406,25.6229,-0.00243369,0.00318871,0.00256412,0.00418245,-0.00342744,1.20106,0.00440077,0.0249663,1966,1170,151.406,-25.6229
749,-146,151.154,24.6924,-0.00836956,0.00929748,0.00420934,0.0102491,-0.00932122,1.34845,0.0113032,0.0190904,1973,1170,151.154,-24.6923
756,-146,150.991,23.7419,-0.0142396,0.01527,0.00616664,0.0165068,-0.0154764,1.37286,0.0184687,0.0153981,1980,1170,150.991,-23.742
763,-146,150.745,22.7813,-0.0200373,0.021121,0.00843864,0.022784,-0.0217003,1.37622,0.0256855,0.0154898,1987,1170,150.745,-22.7812
770,-146,150.581,21.8398,-0.0257511,0.026859,0.0110314,0.0290785,-0.0279706,1.37225,0.0329393,0.0256598,1994,1170,150.581,-21.8399
777,-146,150.536,20.9722,0,0,0,0,0,0,0,-1,2001,1170,150.536,-20.9721
784,-146,144.32,19.2047,0,0,0,0,0,0,0,-1,2008,1170,144.32,-19.2047
791,-146,113.349,9.9635,0,0,0,0,0,0,0,-1,2015,1170,113.349,-9.9635
798,-146,113.271,9.17603,0,0,0,0,0,0,0,-1,2022,1170,113.271,-9.17597
805,-146,113.28,8.16431,0,0,0,0,0,0,0,-1,2029,1170,113.28,-8.16431
812,-146,0,0,0,0,0,0,0,0,0,-1,2036,1170,0,0
-700,-153,0,0,0,0,0,0,0,0,0,-1,524,1177,0,0
-693,-153,0,0,0,0,0,0,0,0,0,-1,531,1177,0,0
-686,-153,-136.534,13.2439,0,0,0,0,0,0,0,-1,538,1177,-136.534,-13.2439
-679,-153,-136.238,14.3585,0,0,0,0,0,0,0,-1,545,1177,-136.238,-14.3586
-672,-153,-134.581,16.3475,0,0,0,0,0,0,0,-1,552,1177,-134.581,-16.3475
-665,-153,-109.895,18.7006,0,0,0,0,0,0,0,-1,559,1177,-109.895,-18.7006
-658,-153,-76.2853,4.375,0,0,0,0,0,0,0,-1,566,1177,-76.2853,-4.375
-651,-153,-73.9761,7.67358,0,0,0,0,0,0,0,-1,573,1177,-73.9761,-7.67353
-644,-153,-141.587,21.8844,0,0,0,0,0,0,0,-1,580,1177,-141.587,-21.8844
-637,-153,-141.757,22.6265,-0.0269174,0.0274414,-0.0133863,0.030559,-0.030035,-1.34198,0.0349844,0.0301976,587,1177,-141.757,-22.6265
-630,-153,-141.902,23.4753,-0.0202543,0.0237549,-0.00912243,0.0255709,-0.0220703,-1.3743,0.0275304,0.0151742,594,1177,-141.902,-23.4754
-623,-153,-142.116,24.0625,-0.0137938,0.020146,-0.00499845,0.0208669,-0.0145146,-1.42757,0.020537,0.0297485,601,1177,-142.116,-24.0625
-616,-153,-142.222,25.0769,-0.00752409,0.0166211,-0.00102785,0.0166647,-0.00756776,-1.52833,0.0143155,0.0443623,608,1177,-142.222,-25.077
-609,-153,-142.272,26.272,0,0,0,0,0,0,0,-1,615,1177,-142.272,-26.2719
-602,-153,-108.822,22.9852,0,0,0,0,0,0,0,-1,622,1177,-108.822,-22.9852
-595,-153,-43.9551,7.35718,0,0,0,0,0,0,0,-1,629,1177,-43.9551,-7.35722
-588,-153,-32.348,5.51038,0,0,0,0,0,0,0,-1,636,1177,-32.348,-5.51034
-581,-153,-33.4568,6.41492,0,0,0,0,0,0,0,-1,643,1177,-33.4568,-6.41497
-574,-153,-25.4814,5.16956,0,0,0,0,0,0,0,-1,650,1177,-25.4814,-5.16961
-567,-153,-35.3121,1.09485,0,0,0,0,0,0,0,-1,657,1177,-35.3121,-1.09482
-560,-153,-72.0881,0.687866,0,0,0,0,0,0,0,-1,664,1177,-72.0881,-0.687857
-553,-153,-71.9505,0.579346,0,0,0,0,0,0,0,-1,671,1177,-71.9505,-0.579368
-546,-153,-71.9724,0.468628,0,0,0,0,0,0,0,-1,678,1177,-71.9724,-0.468682
-539,-153,-72.1825,0.396606,0,0,0,0,0,0,0,-1,685,1177,-72.1825,-0.396654
-532,-153,-72.1336,0.405396,0,0,0,0,0,0,0,-1,692,1177,-72.1336,-0.405355
-525,-153,-71.8697,0.428833,0,0,0,0,0,0,0,-1,699,1177,-71.8697,-0.428859
-518,-153,0,0,0,0,0,0,0,0,0,-1,706,1177,0,0
-511,-153,0,0,0,0,0,0,0,0,0,-1,713,1177,0,0
-504,-153,0,0,0,0,0,0,0,0,0,-1,720,1177,0,0
-497,-153,0,0,0,0,0,0,0,0,0,-1,727,1177,0,0
-490,-153,0,0,0,0,0,0,0,0,0,-1,734,1177,0,0
-483,-153,0,0,0,0,0,0,0,0,0,-1,741,1177,0,0
-476,-153,0,0,0,0,0,0,0,0,0,-1,748,1177,0,0
-469,-153,0,0,0,0,0,0,0,0,0,-1,755,1177,0,0
-462,-153,0,0,0,0,0,0,0,0,0,-1,762,1177,0,0
-455,-153,0,0,0,0,0,0,0,0,0,-1,769,1177,0,0
-448,-153,0,0,0,0,0,0,0,0,0,-1,776,1177,0,0
-441,-153,0,0,0,0,0,0,0,0,0,-1,783,1177,0,0
-434,-153,0,0,0,0,0,0,0,0,0,-1,790,1177,0,0
-427,-153,0,0,0,0,0,0,0,0,0,-1,797,1177,0,0
-420,-153,0,0,0,0,0,0,0,0,0,-1,804,1177,0,0
-413,-153,0,0,0,0,0,0,0,0,0,-1,811,1177,0,0
-406,-153,0,0,0,0,0,0,0,0,0,-1,818,1177,0,0
-399,-153,0,0,0,0,0,0,0,0,0,-1,825,1177,0,0
-392,-153,0,0,0,0,0,0,0,0,0,-1,832,1177,0,0
-385,-153,0,0,0,0,0,0,0,0,0,-1,839,1177,0,0
-378,-153,0,0,0,0,0,0,0,0,0,-1,846,1177,0,0
-371,-153,0,0,0,0,0,0,0,0,0,-1,853,1177,0,0
-364,-153,0,0,0,0,0,0,0,0,0,-1,860,1177,0,0
-357,-153,0,0,0,0,0,0,0,0,0,-1,867,1177,0,0
-350,-153,0,0,0,0,0,0,0,0,0,-1,874,1177,0,0
-343,-153,0,0,0,0,0,0,0,0,0,-1,881,1177,0,0
-336,-153,0,0,0,0,0,0,0,0,0,-1,888,1177,0,0
-329,-153,0,0,0,0,0,0,0,0,0,-1,895,1177,0,0
-322,-153,0,0,0,0,0,0,0,0,0,-1,902,1177,0,0
-315,-153,0,0,0,0,0,0,0,0,0,-1,909,1177,0,0
-308,-153,0,0,0,0,0,0,0,0,0,-1,916,1177,0,0
-301,-153,0,0,0,0,0,0,0,0,0,-1,923,1177,0,0
-294,-153,0,0,0,0,0,0,0,0,0,-1,930,1177,0,0
-287,-153,0,0,0,0,0,0,0,0,0,-1,937,1177,0,0
-280,-153,0,0,0,0,0,0,0,0,0,-1,944,1177,0,0
-273,-153,0,0,0,0,0,0,0,0,0,-1,951,1177,0,0
-266,-153,0,0,0,0,0,0,0,0,0,-1,958,1177,0,0
-259,-153,0,0,0,0,0,0,0,0,0,-1,965,1177,0,0
-252,-153,0,0,0,0,0,0,0,0,0,-1,972,1177,0,0
-245,-153,0,0,0,0,0,0,0,0,0,-1,979,1177,0,0
-238,-153,0,0,0,0,0,0,0,0,0,-1,986,1177,0,0
-231,-153,0,0,0,0,0,0,0,0,0,-1,993,1177,0,0
-224,-153,0,0,0,0,0,0,0,0,0,-1,1000,1177,0,0
-217,-153,0,0,0,0,0,0,0,0,0,-1,1007,1177,0,0
-210,-153,0,0,0,0,0,0,0,0,0,-1,1014,1177,0,0
-203,-153,0,0,0,0,0,0,0,0,0,-1,1021,1177,0,0
-196,-153,0,0,0,0,0,0,0,0,0,-1,1028,1177,0,0
-189,-153,0,0,0,0,0,0,0,0,0,-1,1035,1177,0,0
-182,-153,0,0,0,0,0,0,0,0,0,-1,1042,1177,0,0
-175,-153,0,0,0,0,0,0,0,0,0,-1,1049,1177,0,0
-168,-153,0,0,0,0,0,0,0,0,0,-1,1056,1177,0,0
-161,-153,0,0,0,0,0,0,0,0,0,-1,1063,1177,0,0
-154,-153,0,0,0,0,0,0,0,0,0,-1,1070,1177,0,0
-147,-153,0,0,0,0,0,0,0,0,0,-1,1077,1177,0,0
-140,-153,0,0,0,0,0,0,0,0,0,-1,1084,1177,0,0
-133,-153,0,0,0,0,0,0,0,0,0,-1,1091,1177,0,0
-126,-153,0,0,0,0,0,0,0,0,0,-1,1098,1177,0,0
-119,-153,0,0,0,0,0,0,0,0,0,-1,1105,1177,0,0
-112,-153,0,0,0,0,0,0,0,0,0,-1,1112,1177,0,0
-105,-153,0,0,0,0,0,0,0,0,0,-1,1119,1177,0,0
-98,-153,0,0,0,0,0,0,0,0,0,-1,1126,1177,0,0
-91,-153,0,0,0,0,0,0,0,0,0,-1,1133,1177,0,0
-84,-153,0,0,0,0,0,0,0,0,0,-1,1140,1177,0,0
-77,-153,0,0,0,0,0,0,0,0,0,-1,1147,1177,0,0
-70,-153,0,0,0,0,0,0,0,0,0,-1,1154,1177,0,0
-63,-153,0,0,0,0,0,0,0,0,0,-1,1161,1177,0,0
-56,-153,0,0,0,0,0,0,0,0,0,-1,1168,1177,0,0
-49,-153,0,0,0,0,0,0,0,0,0,-1,1175,1177,0,0
-42,-153,0,0,0,0,0,0,0,0,0,-1,1182,1177,0,0
-35,-153,0,0,0,0,0,0,0,0,0,-1,1189,1177,0,0
-28,-153,0,0,0,0,0,0,0,0,0,-1,1196,1177,0,0
-21,-153,0,0,0,0,0,0,0,0,0,-1,1203,1177,0,0
-14,-153,0,0,0,0,0,0,0,0,0,-1,1210,1177,0,0
-7,-153,0,0,0,0,0,0,0,0,0,-1,1217,1177,0,0
0,-153,0,0,0,0,0,0,0,0,0,-1,1224,1177,0,0
7,-153,0,0,0,0,0,0,0,0,0,-1,1231,1177,0,0
14,-153,0,0,0,0,0,0,0,0,0,-1,1238,1177,0,0
21,-153,0,0,0,0,0,0,0,0,0,-1,1245,1177,0,0
28,-153,0,0,0,0,0,0,0,0,0,-1,1252,1177,0,0
35,-153,0,0,0,0,0,0,0,0,0,-1,1259,1177,0,0
42,-153,0,0,0,0,0,0,0,0,0,-1,1266,1177,0,0
49,-153,0,0,0,0,0,0,0,0,0,-1,1273,1177,0,0
56,-153,0,0,0,0,0,0,0,0,0,-1,1280,1177,0,0
63,-153,0,0,0,0,0,0,0,0,0,-1,1287,1177,0,0
70,-153,0,0,0,0,0,0,0,0,0,-1,1294,1177,0,0
77,-153,0,0,0,0,0,0,0,0,0,-1,1301,1177,0,0
84,-153,0,0,0,0,0,0,0,0,0,-1,1308,1177,0,0
91,-153,0,0,0,0,0,0,0,0,0,-1,1315,1177,0,0
98,-153,0,0,0,0,0,0,0,0,0,-1,1322,1177,0,0
105,-153,0,0,0,0,0,0,0,0,0,-1,1329,1177,0,0
112,-153,0,0,0,0,0,0,0,0,0,-1,1336,1177,0,0
119,-153,0,0,0,0,0,0,0,0,0,-1,1343,1177,0,0
126,-153,0,0,0,0,0,0,0,0,0,-1,1350,1177,0,0
133,-153,0,0,0,0,0,0,0,0,0,-1,1357,1177,0,0
140,-153,0,0,0,0,0,0,0,0,0,-1,1364,1177,0,0
147,-153,0,0,0,0,0,0,0,0,0,-1,1371,1177,0,0
154,-153,0,0,0,0,0,0,0,0,0,-1,1378,1177,0,0
161,-153,0,0,0,0,0,0,0,0,0,-1,1385,1177,0,0
168,-153,0,0,0,0,0,0,0,0,0,-1,1392,1177,0,0
175,-153,0,0,0,0,0,0,0,0,0,-1,1399,1177,0,0
182,-153,0,0,0,0,0,0,0,0,0,-1,1406,1177,0,0
189,-153,0,0,0,0,0,0,0,0,0,-1,1413,1177,0,0
196,-153,0,0,0,0,0,0,0,0,0,-1,1420,1177,0,0
203,-153,0,0,0,0,0,0,0,0,0,-1,1427,1177,0,0
210,-153,0,0,0,0,0,0,0,0,0,-1,1434,1177,0,0
217,-153,0,0,0,0,0,0,0,0,0,-1,1441,1177,0,0
224,-153,0,0,0,0,0,0,0,0,0,-1,1448,1177,0,0
231,-153,0,0,0,0,0,0,0,0,0,-1,1455,1177,0,0
238,-153,0,0,0,0,0,0,0,0,0,-1,1462,1177,0,0
245,-153,0,0,0,0,0,0,0,0,0,-1,1469,1177,0,0
252,-153,0,0,0,0,0,0,0,0,0,-1,1476,1177,0,0
259,-153,0,0,0,0,0,0,0,0,0,-1,1483,1177,0,0
266,-153,0,0,0,0,0,0,0,0,0,-1,1490,1177,0,0
273,-153,0,0,0,0,0,0,0,0,0,-1,1497,1177,0,0
280,-153,0,0,0,0,0,0,0,0,0,-1,1504,1177,0,0
287,-153,0,0,0,0,0,0,0,0,0,-1,1511,1177,0,0
294,-153,0,0,0,0,0,0,0,0,0,-1,1518,1177,0,0
301,-153,0,0,0,0,0,0,0,0,0,-1,1525,1177,0,0
308,-153,0,0,0,0,0,0,0,0,0,-1,1532,1177,0,0
315,-153,0,0,0,0,0,0,0,0,0,-1,1539,1177,0,0
322,-153,0,0,0,0,0,0,0,0,0,-1,1546,1177,0,0
329,-153,0,0,0,0,0,0,0,0,0,-1,1553,1177,0,0
336,-153,0,0,0,0,0,0,0,0,0,-1,1560,1177,0,0
343,-153,0,0,0,0,0,0,0,0,0,-1,1567,1177,0,0
350,-153,0,0,0,0,0,0,0,0,0,-1,1574,1177,0,0
357,-153,0,0,0,0,0,0,0,0,0,-1,1581,1177,0,0
364,-153,0,0,0,0,0,0,0,0,0,-1,1588,1177,0,0
371,-153,0,0,0,0,0,0,0,0,0,-1,1595,1177,0,0
378,-153,0,0,0,0,0,0,0,0,0,-1,1602,1177,0,0
385,-153,0,0,0,0,0,0,0,0,0,-1,1609,1177,0,0
392,-153,0,0,0,0,0,0,0,0,0,-1,1616,1177,0,0
399,-153,0,0,0,0,0,0,0,0,0,-1,1623,1177,0,0
406,-153,0,0,0,0,0,0,0,0,0,-1,1630,1177,0,0
413,-153,0,0,0,0,0,0,0,0,0,-1,1637,1177,0,0
420,-153,0,0,0,0,0,0,0,0,0,-1,1644,1177,0,0
427,-153,0,0,0,0,0,0,0,0,0,-1,1651,1177,0,0
434,-153,0,0,0,0,0,0,0,0,0,-1,1658,1177,0,0
441,-153,0,0,0,0,0,0,0,0,0,-1,1665,1177,0,0
448,-153,0,0,0,0,0,0,0,0,0,-1,1672,1177,0,0
455,-153,0,0,0,0,0,0,0,0,0,-1,1679,1177,0,0
462,-153,0,0,0,0,0,0,0,0,0,-1,1686,1177,0,0
469,-153,0,0,0,0,0,0,0,0,0,-1,1693,1177,0,0
476,-153,0,0,0,0,0,0,0,0,0,-1,1700,1177,0,0
483,-153,0,0,0,0,0,0,0,0,0,-1,1707,1177,0,0
490,-153,0,0,0,0,0,0,0,0,0,-1,1714,1177,0,0
497,-153,0,0,0,0,0,0,0,0,0,-1,1721,1177,0,0
504,-153,0,0,0,0,0,0,0,0,0,-1,1728,1177,0,0
511,-153,0,0,0,0,0,0,0,0,0,-1,1735,1177,0,0
518,-153,0,0,0,0,0,0,0,0,0,-1,1742,1177,0,0
525,-153,0,0,0,0,0,0,0,0,0,-1,1749,1177,0,0
532,-153,0,0,0,0,0,0,0,0,0,-1,1756,1177,0,0
539,-153,0,0,0,0,0,0,0,0,0,-1,1763,1177,0,0
546,-153,0,0,0,0,0,0,0,0,0,-1,1770,1177,0,0
553,-153,0,0,0,0,0,0,0,0,0,-1,1777,1177,0,0
560,-153,0,0,0,0,0,0,0,0,0,-1,1784,1177,0,0
567,-153,0,0,0,0,0,0,0,0,0,-1,1791,1177,0,0
574,-153,0,0,0,0,0,0,0,0,0,-1,1798,1177,0,0
581,-153,0,0,0,0,0,0,0,0,0,-1,1805,1177,0,0
588,-153,0,0,0,0,0,0,0,0,0,-1,1812,1177,0,0
595,-153,0,0,0,0,0,0,0,0,0,-1,1819,1177,0,0
602,-153,0,0,0,0,0,0,0,0,0,-1,1826,1177,0,0
609,-153,0,0,0,0,0,0,0,0,0,-1,1833,1177,0,0
616,-153,0,0,0,0,0,0,0,0,0,-1,1840,1177,0,0
623,-153,0,0,0,0,0,0,0,0,0,-1,1847,1177,0,0
630,-153,0,0,0,0,0,0,0,0,0,-1,1854,1177,0,0
637,-153,158.786,5.24487,0,0,0,0,0,0,0,-1,1861,1177,158.786,-5.2449
644,-153,158.813,5.20764,0,0,0,0,0,0,0,-1,1868,1177,158.813,-5.20759
651,-153,158.856,5.39807,0,0,0,0,0,0,0,-1,1875,1177,158.856,-5.39802
658,-153,158.809,5.50366,0,0,0,0,0,0,0,-1,1882,1177,158.809,-5.50366
665,-153,158.856,5.52795,0,0,0,0,0,0,0,-1,1889,1177,158.856,-5.52796
672,-153,158.789,5.44788,0,0,0,0,0,0,0,-1,1896,1177,158.789,-5.44782
679,-153,158.702,5.3158,0,0,0,0,0,0,0,-1,1903,1177,158.702,-5.31584
686,-153,158.752,5.34595,0,0,0,0,0,0,0,-1,1910,1177,158.752,-5.34598
693,-153,158.942,5.18628,0,0,0,0,0,0,0,-1,1917,1177,158.942,-5.18626
700,-153,79.9266,2.01807,0,0,0,0,0,0,0,-1,1924,1177,79.9267,-2.01805
707,-153,29.6483,6.6842,0,0,0,0,0,0,0,-1,1931,1177,29.6483,-6.68415
714,-153,36.0046,6.78418,0,0,0,0,0,0,0,-1,1938,1177,36.0046,-6.78418
721,-153,36.4866,6.47595,0,0,0,0,0,0,0,-1,1945,1177,36.4866,-6.47593
728,-153,47.7305,7.37024,0,0,0,0,0,0,0,-1,1952,1177,47.7304,-7.37022
735,-153,150.315,26.1245,0,0,0,0,0,0,0,-1,1959,1177,150.315,-26.1245
742,-153,150.083,25.8137,-0.00284569,0.00488919,0.00212155,0.00543288,-0.00338938,1.31993,0.00513888,0.0262365,1966,1177,150.082,-25.8137
749,-153,150.068,24.7673,-0.00863696,0.0106503,0.00421696,0.011532,-0.00951865,1.36468,0.0121721,0.0189691,1973,1177,150.068,-24.7673
756,-153,149.928,23.7345,-0.0143216,0.0162599,0.00659058,0.0176197,-0.0156815,1.36732,0.0192373,0.0137472,1980,1177,149.928,-23.7345
763,-153,149.732,22.7218,-0.0198876,0.0217349,0.00926612,0.0237045,-0.0218573,1.36135,0.0263123,0.0144306,1987,1177,149.732,-22.7218
770,-153,149.494,21.8055,-0.0253178,0.0270862,0.0122698,0.0298167,-0.0280483,1.35182,0.0334136,0.0179512,1994,1177,149.494,-21.8055
777,-153,149.41,20.924,-0.0304657,0.0322208,0.0155564,0.035869,-0.0341139,1.34045,0.0404089,0.037188,2001,1177,149.41,-20.9239
784,-153,149.528,20.0601,0,0,0,0,0,0,0,-1,2008,1177,149.528,-20.06
791,-153,143.615,18.244,0,0,0,0,0,0,0,-1,2015,1177,143.615,-18.244
798,-153,112.618,9.82629,0,0,0,0,0,0,0,-1,2022,1177,112.618,-9.82625
805,-153,112.649,8.82446,0,0,0,0,0,0,0,-1,2029,1177,112.649,-8.82442
812,-153,0,0,0,0,0,0,0,0,0,-1,2036,1177,0,0
-700,-160,0,0,0,0,0,0,0,0,0,-1,524,1184,0,0
-693,-160,0,0,0,0,0,0,0,0,0,-1,531,1184,0,0
-686,-160,-135.663,12.828,0,0,0,0,0,0,0,-1,538,1184,-135.663,-12.828
-679,-160,-135.265,13.8839,0,0,0,0,0,0,0,-1,545,1184,-135.265,-13.8839
-672,-160,-134.38,15.5529,0,0,0,0,0,0,0,-1,552,1184,-134.38,-15.5529
-665,-160,-134.438,15.9967,0,0,0,0,0,0,0,-1,559,1184,-134.438,-15.9967
-658,-160,-108.842,18.2297,0,0,0,0,0,0,0,-1,566,1184,-108.842,-18.2297
-651,-160,-73.1214,7.68677,0,0,0,0,0,0,0,-1,573,1184,-73.1214,-7.68675
-644,-160,-140.351,21.8857,0,0,0,0,0,0,0,-1,580,1184,-140.351,-21.8857
-637,-160,-140.612,22.587,-0.030149,0.0289195,-0.0139601,0.0320526,-0.0332821,-1.35002,0.0377232,0.0350226,587,1184,-140.612,-22.5871
-630,-160,-140.921,23.3353,-0.0217973,0.0248725,-0.0098767,0.0268766,-0.0238014,-1.3706,0.0292769,0.0170848,594,1184,-140.921,-23.3354
-623,-160,-141.367,23.6639,0,0,0,0,0,0,0,-1,601,1184,-141.367,-23.6639
-616,-160,-141.521,24.5986,0,0,0,0,0,0,0,-1,608,1184,-141.521,-24.5986
-609,-160,-137.156,25.7803,0,0,0,0,0,0,0,-1,615,1184,-137.156,-25.7803
-602,-160,-137.391,27.0148,0,0,0,0,0,0,0,-1,622,1184,-137.391,-27.0147
-595,-160,-33.0669,5.93445,0,0,0,0,0,0,0,-1,629,1184,-33.0669,-5.93446
-588,-160,-33.4845,5.66699,0,0,0,0,0,0,0,-1,636,1184,-33.4845,-5.66697
-581,-160,-33.1338,6.41174,0,0,0,0,0,0,0,-1,643,1184,-33.1338,-6.41176
-574,-160,-32.7831,7.15649,0,0,0,0,0,0,0,-1,650,1184,-32.7831,-7.15655
-567,-160,-29.5828,0.643921,0,0,0,0,0,0,0,-1,657,1184,-29.5828,-0.643968
-560,-160,-57.0784,0.200806,0,0,0,0,0,0,0,-1,664,1184,-57.0784,-0.200768
-553,-160,-71.9811,0.620483,0,0,0,0,0,0,0,-1,671,1184,-71.9811,-0.620473
-546,-160,-72.0035,0.388306,0,0,0,0,0,0,0,-1,678,1184,-72.0035,-0.388251
-539,-160,-72.1849,0.41272,0,0,0,0,0,0,0,-1,685,1184,-72.1849,-0.412664
-532,-160,-72.0911,0.559814,0,0,0,0,0,0,0,-1,692,1184,-72.091,-0.559809
-525,-160,-71.9916,0.556885,0,0,0,0,0,0,0,-1,699,1184,-71.9916,-0.556882
-518,-160,-71.9895,0.636475,0,0,0,0,0,0,0,-1,706,1184,-71.9895,-0.636494
-511,-160,0,0,0,0,0,0,0,0,0,-1,713,1184,0,0
-504,-160,0,0,0,0,0,0,0,0,0,-1,720,1184,0,0
-497,-160,0,0,0,0,0,0,0,0,0,-1,727,1184,0,0
-490,-160,0,0,0,0,0,0,0,0,0,-1,734,1184,0,0
-483,-160,0,0,0,0,0,0,0,0,0,-1,741,1184,0,0
-476,-160,0,0,0,0,0,0,0,0,0,-1,748,1184,0,0
-469,-160,0,0,0,0,0,0,0,0,0,-1,755,1184,0,0
-462,-160,0,0,0,0,0,0,0,0,0,-1,762,1184,0,0
-455,-160,0,0,0,0,0,0,0,0,0,-1,769,1184,0,0
-448,-160,0,0,0,0,0,0,0,0,0,-1,776,1184,0,0
-441,-160,0,0,0,0,0,0,0,0,0,-1,783,1184,0,0
-434,-160,0,0,0,0,0,0,0,0,0,-1,790,1184,0,0
-427,-160,0,0,0,0,0,0,0,0,0,-1,797,1184,0,0
-420,-160,0,0,0,0,0,0,0,0,0,-1,804,1184,0,0
-413,-160,0,0,0,0,0,0,0,0,0,-1,811,1184,0,0
-406,-160,0,0,0,0,0,0,0,0,0,-1,818,1184,0,0
-399,-160,0,0,0,0,0,0,0,0,0,-1,825,1184,0,0
-392,-160,0,0,0,0,0,0,0,0,0,-1,832,1184,0,0
-385,-160,0,0,0,0,0,0,0,0,0,-1,839,1184,0,0
-378,-160,0,0,0,0,0,0,0,0,0,-1,846,1184,0,0
-371,-160,0,0,0,0,0,0,0,0,0,-1,853,1184,0,0
-364,-160,0,0,0,0,0,0,0,0,0,-1,860,1184,0,0
-357,-160,0,0,0,0,0,0,0,0,0,-1,867,1184,0,0
-350,-160,0,0,0,0,0,0,0,0,0,-1,874,1184,0,0
-343,-160,0,0,0,0,0,0,0,0,0,-1,881,1184,0,0
-336,-160,0,0,0,0,0,0,0,0,0,-1,888,1184,0,0
-329,-160,0,0,0,0,0,0,0,0,0,-1,895,1184,0,0
-322,-160,0,0,0,0,0,0,0,0,0,-1,902,1184,0,0
-315,-160,0,0,0,0,0,0,0,0,0,-1,909,1184,0,0
-308,-160,0,0,0,0,0,0,0,0,0,-1,916,1184,0,0
-301,-160,0,0,0,0,0,0,0,0,0,-1,923,1184,0,0
-294,-160,0,0,0,0,0,0,0,0,0,-1,930,1184,0,0
-287,-160,0,0,0,0,0,0,0,0,0,-1,937,1184,0,0
-280,-160,0,0,0,0,0,0,0,0,0,-1,944,1184,0,0
-273,-160,0,0,0,0,0,0,0,0,0,-1,951,1184,0,0
-266,-160,0,0,0,0,0,0,0,0,0,-1,958,1184,0,0
-259,-160,0,0,0,0,0,0,0,0,0,-1,965,1184,0,0
-252,-160,0,0,0,0,0,0,0,0,0,-1,972,1184,0,0
-245,-160,0,0,0,0,0,0,0,0,0,-1,979,1184,0,0
-238,-160,0,0,0,0,0,0,0,0,0,-1,986,1184,0,0
-231,-160,0,0,0,0,0,0,0,0,0,-1,993,1184,0,0
-224,-160,0,0,0,0,0,0,0,0,0,-1,1000,1184,0,0
-217,-160,0,0,0,0,0,0,0,0,0,-1,1007,1184,0,0
-210,-160,0,0,0,0,0,0,0,0,0,-1,1014,1184,0,0
-203,-160,0,0,0,0,0,0,0,0,0,-1,1021,1184,0,0
-196,-160,0,0,0,0,0,0,0,0,0,-1,1028,1184,0,0
-189,-160,0,0,0,0,0,0,0,0,0,-1,1035,1184,0,0
-182,-160,0,0,0,0,0,0,0,0,0,-1,1042,1184,0,0
-175,-160,0,0,0,0,0,0,0,0,0,-1,1049,1184,0,0
-168,-160,0,0,0,0,0,0,0,0,0,-1,1056,1184,0,0
-161,-160,0,0,0,0,0,0,0,0,0,-1,1063,1184,0,0
-154,-160,0,0,0,0,0,0,0,0,0,-1,1070,1184,0,0
-147,-160,0,0,0,0,0,0,0,0,0,-1,1077,1184,0,0
-140,-160,0,0,0,0,0,0,0,0,0,-1,1084,1184,0,0
-133,-160,0,0,0,0,0,0,0,0,0,-1,1091,1184,0,0
-126,-160,0,0,0,0,0,0,0,0,0,-1,1098,1184,0,0
-119,-160,0,0,0,0,0,0,0,0,0,-1,1105,1184,0,0
-112,-160,0,0,0,0,0,0,0,0,0,-1,1112,1184,0,0
-105,-160,0,0,0,0,0,0,0,0,0,-1,1119,1184,0,0
-98,-160,0,0,0,0,0,0,0,0,0,-1,1126,1184,0,0
-91,-160,0,0,0,0,0,0,0,0,0,-1,1133,1184,0,0
-84,-160,0,0,0,0,0,0,0,0,0,-1,1140,1184,0,0
-77,-160,0,0,0,0,0,0,0,0,0,-1,1147,1184,0,0
-70,-160,0,0,0,0,0,0,0,0,0,-1,1154,1184,0,0
-63,-160,0,0,0,0,0,0,0,0,0,-1,1161,1184,0,0
-56,-160,0,0,0,0,0,0,0,0,0,-1,1168,1184,0,0
-49,-160,0,0,0,0,0,0,0,0,0,-1,1175,1184,0,0
-42,-160,0,0,0,0,0,0,0,0,0,-1,1182,1184,0,0
-35,-160,0,0,0,0,0,0,0,0,0,-1,1189,1184,0,0
-28,-160,0,0,0,0,0,0,0,0,0,-1,1196,1184,0,0
-21,-160,0,0,0,0,0,0,0,0,0,-1,1203,1184,0,0
-14,-160,0,0,0,0,0,0,0,0,0,-1,1210,1184,0,0
-7,-160,0,0,0,0,0,0,0,0,0,-1,1217,1184,0,0
0,-160,0,0,0,0,0,0,0,0,0,-1,1224,1184,0,0
7,-160,0,0,0,0,0,0,0,0,0,-1,1231,1184,0,0
14,-160,0,0,0,0,0,0,0,0,0,-1,1238,1184,0,0
21,-160,0,0,0,0,0,0,0,0,0,-1,1245,1184,0,0
28,-160,0,0,0,0,0,0,0,0,0,-1,1252,1184,0,0
35,-160,0,0,0,0,0,0,0,0,0,-1,1259,1184,0,0
42,-160,0,0,0,0,0,0,0,0,0,-1,1266,1184,0,0
49,-160,0,0,0,0,0,0,0,0,0,-1,1273,1184,0,0
56,-160,0,0,0,0,0,0,0,0,0,-1,1280,1184,0,0
63,-160,0,0,0,0,0,0,0,0,0,-1,1287,1184,0,0
70,-160,0,0,0,0,0,0,0,0,0,-1,1294,1184,0,0
77,-160,0,0,0,0,0,0,0,0,0,-1,1301,1184,0,0
84,-160,0,0,0,0,0,0,0,0,0,-1,1308,1184,0,0
91,-160,0,0,0,0,0,0,0,0,0,-1,1315,1184,0,0
98,-160,0,0,0,0,0,0,0,0,0,-1,1322,1184,0,0
105,-160,0,0,0,0,0,0,0,0,0,-1,1329,1184,0,0
112,-160,0,0,0,0,0,0,0,0,0,-1,1336,1184,0,0
119,-160,0,0,0,0,0,0,0,0,0,-1,1343,1184,0,0
126,-160,0,0,0,0,0,0,0,0,0,-1,1350,1184,0,0
133,-160,0,0,0,0,0,0,0,0,0,-1,1357,1184,0,0
140,-160,0,0,0,0,0,0,0,0,0,-1,1364,1184,0,0
147,-160,0,0,0,0,0,0,0,0,0,-1,1371,1184,0,0
154,-160,0,0,0,0,0,0,0,0,0,-1,1378,1184,0,0
161,-160,0,0,0,0,0,0,0,0,0,-1,1385,1184,0,0
168,-160,0,0,0,0,0,0,0,0,0,-1,1392,1184,0,0
175,-160,0,0,0,0,0,0,0,0,0,-1,1399,1184,0,0
182,-160,0,0,0,0,0,0,0,0,0,-1,1406,1184,0,0
189,-160,0,0,0,0,0,0,0,0,0,-1,1413,1184,0,0
196,-160,0,0,0,0,0,0,0,0,0,-1,1420,1184,0,0
203,-160,0,0,0,0,0,0,0,0,0,-1,1427,1184,0,0
210,-160,0,0,0,0,0,0,0,0,0,-1,1434,1184,0,0
217,-160,0,0,0,0,0,0,0,0,0,-1,1441,1184,0,0
224,-160,0,0,0,0,0,0,0,0,0,-1,1448,1184,0,0
231,-160,0,0,0,0,0,0,0,0,0,-1,1455,1184,0,0
238,-160,0,0,0,0,0,0,0,0,0,-1,1462,1184,0,0
245,-160,0,0,0,0,0,0,0,0,0,-1,1469,1184,0,0
252,-160,0,0,0,0,0,0,0,0,0,-1,1476,1184,0,0
259,-160,0,0,0,0,0,0,0,0,0,-1,1483,1184,0,0
266,-160,0,0,0,0,0,0,0,0,0,-1,1490,1184,0,0
273,-160,0,0,0,0,0,0,0,0,0,-1,1497,1184,0,0
280,-160,0,0,0,0,0,0,0,0,0,-1,1504,1184,0,0
287,-160,0,0,0,0,0,0,0,0,0,-1,1511,1184,0,0
294,-160,0,0,0,0,0,0,0,0,0,-1,1518,1184,0,0
301,-160,0,0,0,0,0,0,0,0,0,-1,1525,1184,0,0
308,-160,0,0,0,0,0,0,0,0,0,-1,1532,1184,0,0
315,-160,0,0,0,0,0,0,0,0,0,-1,1539,1184,0,0
322,-160,0,0,0,0,0,0,0,0,0,-1,1546,1184,0,0
329,-160,0,0,0,0,0,0,0,0,0,-1,1553,1184,0,0
336,-160,0,0,0,0,0,0,0,0,0,-1,1560,1184,0,0
343,-160,0,0,0,0,0,0,0,0,0,-1,1567,1184,0,0
350,-160,0,0,0,0,0,0,0,0,0,-1,1574,1184,0,0
357,-160,0,0,0,0,0,0,0,0,0,-1,1581,1184,0,0
364,-160,0,0,0,0,0,0,0,0,0,-1,1588,1184,0,0
371,-160,0,0,0,0,0,0,0,0,0,-1,1595,1184,0,0
378,-160,0,0,0,0,0,0,0,0,0,-1,1602,1184,0,0
385,-160,0,0,0,0,0,0,0,0,0,-1,1609,1184,0,0
392,-160,0,0,0,0,0,0,0,0,0,-1,1616,1184,0,0
399,-160,0,0,0,0,0,0,0,0,0,-1,1623,1184,0,0
406,-160,0,0,0,0,0,0,0,0,0,-1,1630,1184,0,0
413,-160,0,0,0,0,0,0,0,0,0,-1,1637,1184,0,0
420,-160,0,0,0,0,0,0,0,0,0,-1,1644,1184,0,0
427,-160,0,0,0,0,0,0,0,0,0,-1,1651,1184,0,0
434,-160,0,0,0,0,0,0,0,0,0,-1,1658,1184,0,0
441,-160,0,0,0,0,0,0,0,0,0,-1,1665,1184,0,0
448,-160,0,0,0,0,0,0,0,0,0,-1,1672,1184,0,0
455,-160,0,0,0,0,0,0,0,0,0,-1,1679,1184,0,0
462,-160,0,0,0,0,0,0,0,0,0,-1,1686,1184,0,0
469,-160,0,0,0,0,0,0,0,0,0,-1,1693,1184,0,0
476,-160,0,0,0,0,0,0,0,0,0,-1,1700,1184,0,0
483,-160,0,0,0,0,0,0,0,0,0,-1,1707,1184,0,0
490,-160,0,0,0,0,0,0,0,0,0,-1,1714,1184,0,0
497,-160,0,0,0,0,0,0,0,0,0,-1,1721,1184,0,0
504,-160,0,0,0,0,0,0,0,0,0,-1,1728,1184,0,0
511,-160,0,0,0,0,0,0,0,0,0,-1,1735,1184,0,0
518,-160,0,0,0,0,0,0,0,0,0,-1,1742,1184,0,0
525,-160,0,0,0,0,0,0,0,0,0,-1,1749,1184,0,0
532,-160,0,0,0,0,0,0,0,0,0,-1,1756,1184,0,0
539,-160,0,0,0,0,0,0,0,0,0,-1,1763,1184,0,0
546,-160,0,0,0,0,0,0,0,0,0,-1,1770,1184,0,0
553,-160,0,0,0,0,0,0,0,0,0,-1,1777,1184,0,0
560,-160,0,0,0,0,0,0,0,0,0,-1,1784,1184,0,0
567,-160,0,0,0,0,0,0,0,0,0,-1,1791,1184,0,0
574,-160,0,0,0,0,0,0,0,0,0,-1,1798,1184,0,0
581,-160,0,0,0,0,0,0,0,0,0,-1,1805,1184,0,0
588,-160,0,0,0,0,0,0,0,0,0,-1,1812,1184,0,0
595,-160,0,0,0,0,0,0,0,0,0,-1,1819,1184,0,0
602,-160,0,0,0,0,0,0,0,0,0,-1,1826,1184,0,0
609,-160,0,0,0,0,0,0,0,0,0,-1,1833,1184,0,0
616,-160,0,0,0,0,0,0,0,0,0,-1,1840,1184,0,0
623,-160,0,0,0,0,0,0,0,0,0,-1,1847,1184,0,0
630,-160,0,0,0,0,0,0,0,0,0,-1,1854,1184,0,0
637,-160,158.701,5.37952,0,0,0,0,0,0,0,-1,1861,1184,158.701,-5.37948
644,-160,158.798,5.31641,0,0,0,0,0,0,0,-1,1868,1184,158.798,-5.31646
651,-160,158.771,5.48682,0,0,0,0,0,0,0,-1,1875,1184,158.771,-5.48688
658,-160,158.77,5.59619,0,0,0,0,0,0,0,-1,1882,1184,158.77,-5.59622
665,-160,158.829,5.51172,0,0,0,0,0,0,0,-1,1889,1184,158.829,-5.51169
672,-160,158.834,5.39941,0,0,0,0,0,0,0,-1,1896,1184,158.834,-5.39939
679,-160,158.784,5.3103,0,0,0,0,0,0,0,-1,1903,1184,158.784,-5.31035
686,-160,158.797,5.28174,0,0,0,0,0,0,0,-1,1910,1184,158.797,-5.2817
693,-160,159.011,5.20984,0,0,0,0,0,0,0,-1,1917,1184,159.011,-5.2098
700,-160,42.8784,2.44617,0,0,0,0,0,0,0,-1,1924,1184,42.8785,-2.4462
707,-160,24.5115,6.27405,0,0,0,0,0,0,0,-1,1931,1184,24.5115,-6.27401
714,-160,35.6892,6.8905,0,0,0,0,0,0,0,-1,1938,1184,35.6892,-6.89048
721,-160,36.2388,6.37878,0,0,0,0,0,0,0,-1,1945,1184,36.2388,-6.37876
728,-160,52.2174,8.57385,0,0,0,0,0,0,0,-1,1952,1184,52.2174,-8.57381
735,-160,148.767,26.9508,0,0,0,0,0,0,0,-1,1959,1184,148.767,-26.9508
742,-160,148.938,25.7826,-0.00341919,0.00675111,0.00190959,0.00709783,-0.00376591,1.39118,0.00636976,0.0299028,1966,1184,148.938,-25.7826
749,-160,148.937,24.7367,-0.00909066,0.0121947,0.00439305,0.0130658,-0.00996169,1.37506,0.0133351,0.0210085,1973,1184,148.937,-24.7367
756,-160,148.812,23.6847,-0.0146596,0.0175037,0.00713563,0.0190157,-0.0161716,1.36199,0.0203375,0.0149645,1980,1184,148.812,-23.6847
763,-160,148.569,22.7618,-0.0201074,0.0226885,0.0101704,0.0249825,-0.0224014,1.34895,0.0273707,0.0175848,1987,1184,148.569,-22.7618
770,-160,148.231,21.8188,-0.0254077,0.0277547,0.013534,0.0310018,-0.0286549,1.33532,0.0344517,0.0306094,1994,1184,148.231,-21.8189
777,-160,147.926,20.8704,-0.030316,0.0325967,0.0171867,0.0369856,-0.034705,1.32077,0.0413976,0.0414059,2001,1184,147.926,-20.8704
784,-160,147.753,19.6625,0,0,0,0,0,0,0,-1,2008,1184,147.753,-19.6625
791,-160,147.534,18.5968,0,0,0,0,0,0,0,-1,2015,1184,147.534,-18.5969
798,-160,111.608,10.7561,0,0,0,0,0,0,0,-1,2022,1184,111.608,-10.7561
805,-160,111.527,10.1486,0,0,0,0,0,0,0,-1,2029,1184,111.527,-10.1486
812,-160,0,0,0,0,0,0,0,0,0,-1,2036,1184,0,0
-700,-167,0,0,0,0,0,0,0,0,0,-1,524,1191,0,0
-693,-167,0,0,0,0,0,0,0,0,0,-1,531,1191,0,0
-686,-167,-134.78,12.0304,0,0,0,0,0,0,0,-1,538,1191,-134.78,-12.0304
-679,-167,-134.229,13.3411,0,0,0,0,0,0,0,-1,545,1191,-134.229,-13.341
-672,-167,-134.002,14.7538,0,0,0,0,0,0,0,-1,552,1191,-134.002,-14.7537
-665,-167,-133.871,16.0719,0,0,0,0,0,0,0,-1,559,1191,-133.871,-16.072
-658,-167,-133.732,17.4132,0,0,0,0,0,0,0,-1,566,1191,-133.732,-17.4132
-651,-167,-136.94,22.1243,0,0,0,0,0,0,0,-1,573,1191,-136.94,-22.1242
-644,-167,-139.124,21.9647,0,0,0,0,0,0,0,-1,580,1191,-139.124,-21.9647
-637,-167,-139.436,22.5908,-0.0332889,0.0300008,-0.0148389,0.0333072,-0.0365953,-1.35156,0.0403731,0.037332,587,1191,-139.436,-22.5908
-630,-167,-139.809,23.251,-0.0235161,0.0258107,-0.0106952,0.0280299,-0.0257352,-1.36621,0.0310507,0.0180399,594,1191,-139.809,-23.251
-623,-167,-140.159,24.1995,-0.0139801,0.0218937,-0.00662799,0.0230791,-0.0151655,-1.39382,0.0222375,0.0361319,601,1191,-140.159,-24.1994
-616,-167,-140.479,25.0516,0,0,0,0,0,0,0,-1,608,1191,-140.479,-25.0517
-609,-167,-135.921,25.9724,0,0,0,0,0,0,0,-1,615,1191,-135.921,-25.9724
-602,-167,-136.186,26.9637,0,0,0,0,0,0,0,-1,622,1191,-136.186,-26.9638
-595,-167,-53.8502,10.2292,0,0,0,0,0,0,0,-1,629,1191,-53.8502,-10.2292
-588,-167,-42.7112,7.92004,0,0,0,0,0,0,0,-1,636,1191,-42.7112,-7.92007
-581,-167,-32.8646,6.30542,0,0,0,0,0,0,0,-1,643,1191,-32.8646,-6.30537
-574,-167,-32.4808,7.37524,0,0,0,0,0,0,0,-1,650,1191,-32.4808,-7.37525
-567,-167,-27.3643,2.55859,0,0,0,0,0,0,0,-1,657,1191,-27.3643,-2.55864
-560,-167,-48.2598,0.834839,0,0,0,0,0,0,0,-1,664,1191,-48.2598,-0.834822
-553,-167,-71.9608,0.495361,0,0,0,0,0,0,0,-1,671,1191,-71.9607,-0.495325
-546,-167,-71.9877,0.515503,0,0,0,0,0,0,0,-1,678,1191,-71.9877,-0.515464
-539,-167,-71.9675,0.487549,0,0,0,0,0,0,0,-1,685,1191,-71.9675,-0.487605
-532,-167,-71.9727,0.365723,0,0,0,0,0,0,0,-1,692,1191,-71.9727,-0.36578
-525,-167,-72.0439,0.532471,0,0,0,0,0,0,0,-1,699,1191,-72.0439,-0.532526
-518,-167,-72.0834,0.718506,0,0,0,0,0,0,0,-1,706,1191,-72.0834,-0.718521
-511,-167,0,0,0,0,0,0,0,0,0,-1,713,1191,0,0
-504,-167,0,0,0,0,0,0,0,0,0,-1,720,1191,0,0
-497,-167,0,0,0,0,0,0,0,0,0,-1,727,1191,0,0
-490,-167,0,0,0,0,0,0,0,0,0,-1,734,1191,0,0
-483,-167,0,0,0,0,0,0,0,0,0,-1,741,1191,0,0
-476,-167,0,0,0,0,0,0,0,0,0,-1,748,1191,0,0
-469,-167,0,0,0,0,0,0,0,0,0,-1,755,1191,0,0
-462,-167,0,0,0,0,0,0,0,0,0,-1,762,1191,0,0
-455,-167,0,0,0,0,0,0,0,0,0,-1,769,1191,0,0
-448,-167,0,0,0,0,0,0,0,0,0,-1,776,1191,0,0
-441,-167,0,0,0,0,0,0,0,0,0,-1,783,1191,0,0
-434,-167,0,0,0,0,0,0,0,0,0,-1,790,1191,0,0
-427,-167,0,0,0,0,0,0,0,0,0,-1,797,1191,0,0
-420,-167,0,0,0,0,0,0,0,0,0,-1,804,1191,0,0
-413,-167,0,0,0,0,0,0,0,0,0,-1,811,1191,0,0
-406,-167,0,0,0,0,0,0,0,0,0,-1,818,1191,0,0
-399,-167,0,0,0,0,0,0,0,0,0,-1,825,1191,0,0
-392,-167,0,0,0,0,0,0,0,0,0,-1,832,1191,0,0
-385,-167,0,0,0,0,0,0,0,0,0,-1,839,1191,0,0
-378,-167,0,0,0,0,0,0,0,0,0,-1,846,1191,0,0
-371,-167,0,0,0,0,0,0,0,0,0,-1,853,1191,0,0
-364,-167,0,0,0,0,0,0,0,0,0,-1,860,1191,0,0
-357,-167,0,0,0,0,0,0,0,0,0,-1,867,1191,0,0
-350,-167,0,0,0,0,0,0,0,0,0,-1,874,1191,0,0
-343,-167,0,0,0,0,0,0,0,0,0,-1,881,1191,0,0
-336,-167,0,0,0,0,0,0,0,0,0,-1,888,1191,0,0
-329,-167,0,0,0,0,0,0,0,0,0,-1,895,1191,0,0
-322,-167,0,0,0,0,0,0,0,0,0,-1,902,1191,0,0
-315,-167,0,0,0,0,0,0,0,0,0,-1,909,1191,0,0
-308,-167,0,0,0,0,0,0,0,0,0,-1,916,1191,0,0
-301,-167,0,0,0,0,0,0,0,0,0,-1,923,1191,0,0
-294,-167,0,0,0,0,0,0,0,0,0,-1,930,1191,0,0
-287,-167,0,0,0,0,0,0,0,0,0,-1,937,1191,0,0
-280,-167,0,0,0,0,0,0,0,0,0,-1,944,1191,0,0
-273,-167,0,0,0,0,0,0,0,0,0,-1,951,1191,0,0
-266,-167,0,0,0,0,0,0,0,0,0,-1,958,1191,0,0
-259,-167,0,0,0,0,0,0,0,0,0,-1,965,1191,0,0
-252,-167,0,0,0,0,0,0,0,0,0,-1,972,1191,0,0
-245,-167,0,0,0,0,0,0,0,0,0,-1,979,1191,0,0
-238,-167,0,0,0,0,0,0,0,0,0,-1,986,1191,0,0
-231,-167,0,0,0,0,0,0,0,0,0,-1,993,1191,0,0
-224,-167,0,0,0,0,0,0,0,0,0,-1,1000,1191,0,0
-217,-167,0,0,0,0,0,0,0,0,0,-1,1007,1191,0,0
-210,-167,0,0,0,0,0,0,0,0,0,-1,1014,1191,0,0
-203,-167,0,0,0,0,0,0,0,0,0,-1,1021,1191,0,0
-196,-167,0,0,0,0,0,0,0,0,0,-1,1028,1191,0,0
-189,-167,0,0,0,0,0,0,0,0,0,-1,1035,1191,0,0
-182,-167,0,0,0,0,0,0,0,0,0,-1,1042,1191,0,0
-175,-167,0,0,0,0,0,0,0,0,0,-1,1049,1191,0,0
-168,-167,0,0,0,0,0,0,0,0,0,-1,1056,1191,0,0
-161,-167,0,0,0,0,0,0,0,0,0,-1,1063,1191,0,0
-154,-167,0,0,0,0,0,0,0,0,0,-1,1070,1191,0,0
-147,-167,0,0,0,0,0,0,0,0,0,-1,1077,1191,0,0
-140,-167,0,0,0,0,0,0,0,0,0,-1,1084,1191,0,0
-133,-167,0,0,0,0,0,0,0,0,0,-1,1091,1191,0,0
-126,-167,0,0,0,0,0,0,0,0,0,-1,1098,1191,0,0
-119,-167,0,0,0,0,0,0,0,0,0,-1,1105,1191,0,0
-112,-167,0,0,0,0,0,0,0,0,0,-1,1112,1191,0,0
-105,-167,0,0,0,0,0,0,0,0,0,-1,1119,1191,0,0
-98,-167,0,0,0,0,0,0,0,0,0,-1,1126,1191,0,0
-91,-167,0,0,0,0,0,0,0,0,0,-1,1133,1191,0,0
-84,-167,0,0,0,0,0,0,0,0,0,-1,1140,1191,0,0
-77,-167,0,0,0,0,0,0,0,0,0,-1,1147,1191,0,0
-70,-167,0,0,0,0,0,0,0,0,0,-1,1154,1191,0,0
-63,-167,0,0,0,0,0,0,0,0,0,-1,1161,1191,0,0
-56,-167,0,0,0,0,0,0,0,0,0,-1,1168,1191,0,0
-49,-167,0,0,0,0,0,0,0,0,0,-1,1175,1191,0,0
-42,-167,0,0,0,0,0,0,0,0,0,-1,1182,1191,0,0
-35,-167,0,0,0,0,0,0,0,0,0,-1,1189,1191,0,0
-28,-167,0,0,0,0,0,0,0,0,0,-1,1196,1191,0,0
-21,-167,0,0,0,0,0,0,0,0,0,-1,1203,1191,0,0
-14,-167,0,0,0,0,0,0,0,0,0,-1,1210,1191,0,0
-7,-167,0,0,0,0,0,0,0,0,0,-1,1217,1191,0,0
0,-167,0,0,0,0,0,0,0,0,0,-1,1224,1191,0,0
7,-167,0,0,0,0,0,0,0,0,0,-1,1231,1191,0,0
14,-167,0,0,0,0,0,0,0,0,0,-1,1238,1191,0,0
21,-167,0,0,0,0,0,0,0,0,0,-1,1245,1191,0,0
28,-167,0,0,0,0,0,0,0,0,0,-1,1252,1191,0,0
35,-167,0,0,0,0,0,0,0,0,0,-1,1259,1191,0,0
42,-167,0,0,0,0,0,0,0,0,0,-1,1266,1191,0,0
49,-167,0,0,0,0,0,0,0,0,0,-1,1273,1191,0,0
56,-167,0,0,0,0,0,0,0,0,0,-1,1280,1191,0,0
63,-167,0,0,0,0,0,0,0,0,0,-1,1287,1191,0,0
70,-167,0,0,0,0,0,0,0,0,0,-1,1294,1191,0,0
77,-167,0,0,0,0,0,0,0,0,0,-1,1301,1191,0,0
84,-167,0,0,0,0,0,0,0,0,0,-1,1308,1191,0,0
91,-167,0,0,0,0,0,0,0,0,0,-1,1315,1191,0,0
98,-167,0,0,0,0,0,0,0,0,0,-1,1322,1191,0,0
105,-167,0,0,0,0,0,0,0,0,0,-1,1329,1191,0,0
112,-167,0,0,0,0,0,0,0,0,0,-1,1336,1191,0,0
119,-167,0,0,0,0,0,0,0,0,0,-1,1343,1191,0,0
126,-167,0,0,0,0,0,0,0,0,0,-1,1350,1191,0,0
133,-167,0,0,0,0,0,0,0,0,0,-1,1357,1191,0,0
140,-167,0,0,0,0,0,0,0,0,0,-1,1364,1191,0,0
147,-167,0,0,0,0,0,0,0,0,0,-1,1371,1191,0,0
154,-167,0,0,0,0,0,0,0,0,0,-1,1378,1191,0,0
161,-167,0,0,0,0,0,0,0,0,0,-1,1385,1191,0,0
168,-167,0,0,0,0,0,0,0,0,0,-1,1392,1191,0,0
175,-167,0,0,0,0,0,0,0,0,0,-1,1399,1191,0,0
182,-167,0,0,0,0,0,0,0,0,0,-1,1406,1191,0,0
189,-167,0,0,0,0,0,0,0,0,0,-1,1413,1191,0,0
196,-167,0,0,0,0,0,0,0,0,0,-1,1420,1191,0,0
203,-167,0,0,0,0,0,0,0,0,0,-1,1427,1191,0,0
210,-167,0,0,0,0,0,0,0,0,0,-1,1434,1191,0,0
217,-167,0,0,0,0,0,0,0,0,0,-1,1441,1191,0,0
224,-167,0,0,0,0,0,0,0,0,0,-1,1448,1191,0,0
231,-167,0,0,0,0,0,0,0,0,0,-1,1455,1191,0,0
238,-167,0,0,0,0,0,0,0,0,0,-1,1462,1191,0,0
245,-167,0,0,0,0,0,0,0,0,0,-1,1469,1191,0,0
252,-167,0,0,0,0,0,0,0,0,0,-1,1476,1191,0,0
259,-167,0,0,0,0,0,0,0,0,0,-1,1483,1191,0,0
266,-167,0,0,0,0,0,0,0,0,0,-1,1490,1191,0,0
273,-167,0,0,0,0,0,0,0,0,0,-1,1497,1191,0,0
280,-167,0,0,0,0,0,0,0,0,0,-1,1504,1191,0,0
287,-167,0,0,0,0,0,0,0,0,0,-1,1511,1191,0,0
294,-167,0,0,0,0,0,0,0,0,0,-1,1518,1191,0,0
301,-167,0,0,0,0,0,0,0,0,0,-1,1525,1191,0,0
308,-167,0,0,0,0,0,0,0,0,0,-1,1532,1191,0,0
315,-167,0,0,0,0,0,0,0,0,0,-1,1539,1191,0,0
322,-167,0,0,0,0,0,0,0,0,0,-1,1546,1191,0,0
329,-167,0,0,0,0,0,0,0,0,0,-1,1553,1191,0,0
336,-167,0,0,0,0,0,0,0,0,0,-1,1560,1191,0,0
343,-167,0,0,0,0,0,0,0,0,0,-1,1567,1191,0,0
350,-167,0,0,0,0,0,0,0,0,0,-1,1574,1191,0,0
357,-167,0,0,0,0,0,0,0,0,0,-1,1581,1191,0,0
364,-167,0,0,0,0,0,0,0,0,0,-1,1588,1191,0,0
371,-167,0,0,0,0,0,0,0,0,0,-1,1595,1191,0,0
378,-167,0,0,0,0,0,0,0,0,0,-1,1602,1191,0,0
385,-167,0,0,0,0,0,0,0,0,0,-1,1609,1191,0,0
392,-167,0,0,0,0,0,0,0,0,0,-1,1616,1191,0,0
399,-167,0,0,0,0,0,0,0,0,0,-1,1623,1191,0,0
406,-167,0,0,0,0,0,0,0,0,0,-1,1630,1191,0,0
413,-167,0,0,0,0,0,0,0,0,0,-1,1637,1191,0,0
420,-167,0,0,0,0,0,0,0,0,0,-1,1644,1191,0,0
427,-167,0,0,0,0,0,0,0,0,0,-1,1651,1191,0,0
434,-167,0,0,0,0,0,0,0,0,0,-1,1658,1191,0,0
441,-167,0,0,0,0,0,0,0,0,0,-1,1665,1191,0,0
448,-167,0,0,0,0,0,0,0,0,0,-1,1672,1191,0,0
455,-167,0,0,0,0,0,0,0,0,0,-1,1679,1191,0,0
462,-167,0,0,0,0,0,0,0,0,0,-1,1686,1191,0,0
469,-167,0,0,0,0,0,0,0,0,0,-1,1693,1191,0,0
476,-167,0,0,0,0,0,0,0,0,0,-1,1700,1191,0,0
483,-167,0,0,0,0,0,0,0,0,0,-1,1707,1191,0,0
490,-167,0,0,0,0,0,0,0,0,0,-1,1714,1191,0,0
497,-167,0,0,0,0,0,0,0,0,0,-1,1721,1191,0,0
504,-167,0,0,0,0,0,0,0,0,0,-1,1728,1191,0,0
511,-167,0,0,0,0,0,0,0,0,0,-1,1735,1191,0,0
518,-167,0,0,0,0,0,0,0,0,0,-1,1742,1191,0,0
525,-167,0,0,0,0,0,0,0,0,0,-1,1749,1191,0,0
532,-167,0,0,0,0,0,0,0,0,0,-1,1756,1191,0,0
539,-167,0,0,0,0,0,0,0,0,0,-1,1763,1191,0,0
546,-167,0,0,0,0,0,0,0,0,0,-1,1770,1191,0,0
553,-167,0,0,0,0,0,0,0,0,0,-1,1777,1191,0,0
560,-167,0,0,0,0,0,0,0,0,0,-1,1784,1191,0,0
567,-167,0,0,0,0,0,0,0,0,0,-1,1791,1191,0,0
574,-167,0,0,0,0,0,0,0,0,0,-1,1798,1191,0,0
581,-167,0,0,0,0,0,0,0,0,0,-1,1805,1191,0,0
588,-167,0,0,0,0,0,0,0,0,0,-1,1812,1191,0,0
595,-167,0,0,0,0,0,0,0,0,0,-1,1819,1191,0,0
602,-167,0,0,0,0,0,0,0,0,0,-1,1826,1191,0,0
609,-167,0,0,0,0,0,0,0,0,0,-1,1833,1191,0,0
616,-167,0,0,0,0,0,0,0,0,0,-1,1840,1191,0,0
623,-167,0,0,0,0,0,0,0,0,0,-1,1847,1191,0,0
630,-167,0,0,0,0,0,0,0,0,0,-1,1854,1191,0,0
637,-167,158.67,5.3595,0,0,0,0,0,0,0,-1,1861,1191,158.67,-5.35945
644,-167,158.813,5.31445,0,0,0,0,0,0,0,-1,1868,1191,158.813,-5.31444
651,-167,158.734,5.52258,0,0,0,0,0,0,0,-1,1875,1191,158.734,-5.52255
658,-167,158.677,5.66748,0,0,0,0,0,0,0,-1,1882,1191,158.677,-5.66744
665,-167,158.828,5.58374,0,0,0,0,0,0,0,-1,1889,1191,158.828,-5.58379
672,-167,158.874,5.46655,0,0,0,0,0,0,0,-1,1896,1191,158.874,-5.46659
679,-167,158.812,5.3562,0,0,0,0,0,0,0,-1,1903,1191,158.812,-5.35621
686,-167,158.79,5.14966,0,0,0,0,0,0,0,-1,1910,1191,158.79,-5.14962
693,-167,83.0426,2.22205,0,0,0,0,0,0,0,-1,1917,1191,83.0426,-2.22204
700,-167,28.0459,2.70508,0,0,0,0,0,0,0,-1,1924,1191,28.0459,-2.70513
707,-167,29.4708,7.10168,0,0,0,0,0,0,0,-1,1931,1191,29.4708,-7.10172
714,-167,35.9202,6.84668,0,0,0,0,0,0,0,-1,1938,1191,35.9202,-6.84664
721,-167,36.2072,6.38892,0,0,0,0,0,0,0,-1,1945,1191,36.2072,-6.38891
728,-167,143.565,27.7025,0,0,0,0,0,0,0,-1,1952,1191,143.565,-27.7025
735,-167,147.995,27.084,0,0,0,0,0,0,0,-1,1959,1191,147.995,-27.084
742,-167,147.897,25.9233,-0.00398565,0.00842702,0.00180503,0.00868418,-0.00424281,1.42928,0.00760882,0.0264215,1966,1191,147.897,-25.9233
749,-167,147.785,24.7615,-0.00969533,0.0135953,0.00469617,0.0145066,-0.0106066,1.37914,0.0145572,0.0180182,1973,1191,147.785,-24.7615
756,-167,147.652,23.6852,-0.0152661,0.018655,0.00784024,0.0203794,-0.0169906,1.35429,0.0216051,0.014902,1980,1191,147.652,-23.6852
763,-167,147.304,22.5939,-0.0206851,0.0236113,0.0112737,0.0263155,-0.0233892,1.33538,0.0287136,0.0181615,1987,1191,147.305,-22.5939
770,-167,146.874,21.7902,-0.0259281,0.0284649,0.015038,0.0323455,-0.0298088,1.31825,0.0358948,0.042085,1994,1191,146.874,-21.7901
777,-167,146.738,21.0616,0,0,0,0,0,0,0,-1,2001,1191,146.738,-21.0616
784,-167,146.464,19.4583,0,0,0,0,0,0,0,-1,2008,1191,146.464,-19.4582
791,-167,111.03,11.9199,0,0,0,0,0,0,0,-1,2015,1191,111.03,-11.9199
798,-167,111.017,11.4597,0,0,0,0,0,0,0,-1,2022,1191,111.017,-11.4597
805,-167,110.788,10.5145,0,0,0,0,0,0,0,-1,2029,1191,110.788,-10.5145
812,-167,0,0,0,0,0,0,0,0,0,-1,2036,1191,0,0
-700,-174,0,0,0,0,0,0,0,0,0,-1,524,1198,0,0
-693,-174,0,0,0,0,0,0,0,0,0,-1,531,1198,0,0
-686,-174,-133.574,11.994,0,0,0,0,0,0,0,-1,538,1198,-133.574,-11.9941
-679,-174,-133.443,13.3643,0,0,0,0,0,0,0,-1,545,1198,-133.443,-13.3642
-672,-174,-133.35,14.7778,0,0,0,0,0,0,0,-1,552,1198,-133.35,-14.7779
-665,-174,-133.251,16.1805,0,0,0,0,0,0,0,-1,559,1198,-133.251,-16.1805
-658,-174,-135.287,19.1776,0,0,0,0,0,0,0,-1,566,1198,-135.287,-19.1776
-651,-174,-135.2,20.6976,0,0,0,0,0,0,0,-1,573,1198,-135.2,-20.6977
-644,-174,-137.734,21.4711,0,0,0,0,0,0,0,-1,580,1198,-137.734,-21.4711
-637,-174,-138.143,22.3345,-0.0343738,0.0312022,-0.0147794,0.0343792,-0.0375509,-1.35905,0.0415423,0.0451741,587,1198,-138.143,-22.3345
-630,-174,-138.6,23.2112,-0.0248947,0.0267185,-0.0111741,0.0290338,-0.02721,-1.36649,0.0324781,0.02328,594,1198,-138.6,-23.2111
-623,-174,-138.863,24.1801,-0.0158498,0.0224983,-0.0077141,0.0239919,-0.0173433,-1.37954,0.0239676,0.01914,601,1198,-138.863,-24.18
-616,-174,-138.912,25.2964,-0.0072373,0.0185344,-0.00441256,0.0192689,-0.00797187,-1.40584,0.016172,0.0243374,608,1198,-138.912,-25.2964
-609,-174,-138.958,26.4514,0,0,0,0,0,0,0,-1,615,1198,-138.958,-26.4515
-602,-174,-135.284,26.6168,0,0,0,0,0,0,0,-1,622,1198,-135.284,-26.6169
-595,-174,-52.4874,10.4403,0,0,0,0,0,0,0,-1,629,1198,-52.4874,-10.4403
-588,-174,-82.5152,19.7214,0,0,0,0,0,0,0,-1,636,1198,-82.5152,-19.7215
-581,-174,-51.1051,11.6198,0,0,0,0,0,0,0,-1,643,1198,-51.1051,-11.6197
-574,-174,-31.7448,7.09595,0,0,0,0,0,0,0,-1,650,1198,-31.7448,-7.09599
-567,-174,-26.6597,3.04041,0,0,0,0,0,0,0,-1,657,1198,-26.6597,-3.04039
-560,-174,-42.6953,1.07178,0,0,0,0,0,0,0,-1,664,1198,-42.6953,-1.07181
-553,-174,-71.9143,0.470703,0,0,0,0,0,0,0,-1,671,1198,-71.9143,-0.470669
-546,-174,-71.9802,0.492554,0,0,0,0,0,0,0,-1,678,1198,-71.9802,-0.492513
-539,-174,-71.983,0.482666,0,0,0,0,0,0,0,-1,685,1198,-71.983,-0.48269
-532,-174,-72.0311,0.235718,0,0,0,0,0,0,0,-1,692,1198,-72.0311,-0.235711
-525,-174,-72.1511,0.398926,0,0,0,0,0,0,0,-1,699,1198,-72.1511,-0.398868
-518,-174,-72.131,0.657959,0,0,0,0,0,0,0,-1,706,1198,-72.131,-0.657944
-511,-174,0,0,0,0,0,0,0,0,0,-1,713,1198,0,0
-504,-174,0,0,0,0,0,0,0,0,0,-1,720,1198,0,0
-497,-174,0,0,0,0,0,0,0,0,0,-1,727,1198,0,0
-490,-174,0,0,0,0,0,0,0,0,0,-1,734,1198,0,0
-483,-174,0,0,0,0,0,0,0,0,0,-1,741,1198,0,0
-476,-174,0,0,0,0,0,0,0,0,0,-1,748,1198,0,0
-469,-174,0,0,0,0,0,0,0,0,0,-1,755,1198,0,0
-462,-174,0,0,0,0,0,0,0,0,0,-1,762,1198,0,0
-455,-174,0,0,0,0,0,0,0,0,0,-1,769,1198,0,0
-448,-174,0,0,0,0,0,0,0,0,0,-1,776,1198,0,0
-441,-174,0,0,0,0,0,0,0,0,0,-1,783,1198,0,0
-434,-174,0,0,0,0,0,0,0,0,0,-1,790,1198,0,0
-427,-174,0,0,0,0,0,0,0,0,0,-1,797,1198,0,0
-420,-174,0,0,0,0,0,0,0,0,0,-1,804,1198,0,0
-413,-174,0,0,0,0,0,0,0,0,0,-1,811,1198,0,0
-406,-174,0,0,0,0,0,0,0,0,0,-1,818,1198,0,0
-399,-174,0,0,0,0,0,0,0,0,0,-1,825,1198,0,0
-392,-174,0,0,0,0,0,0,0,0,0,-1,832,1198,0,0
-385,-174,0,0,0,0,0,0,0,0,0,-1,839,1198,0,0
-378,-174,0,0,0,0,0,0,0,0,0,-1,846,1198,0,0
-371,-174,0,0,0,0,0,0,0,0,0,-1,853,1198,0,0
-364,-174,0,0,0,0,0,0,0,0,0,-1,860,1198,0,0
-357,-174,0,0,0,0,0,0,0,0,0,-1,867,1198,0,0
-350,-174,0,0,0,0,0,0,0,0,0,-1,874,1198,0,0
-343,-174,0,0,0,0,0,0,0,0,0,-1,881,1198,0,0
-336,-174,0,0,0,0,0,0,0,0,0,-1,888,1198,0,0
-329,-174,0,0,0,0,0,0,0,0,0,-1,895,1198,0,0
-322,-174,0,0,0,0,0,0,0,0,0,-1,902,1198,0,0
-315,-174,0,0,0,0,0,0,0,0,0,-1,909,1198,0,0
-308,-174,0,0,0,0,0,0,0,0,0,-1,916,1198,0,0
-301,-174,0,0,0,0,0,0,0,0,0,-1,923,1198,0,0
-294,-174,0,0,0,0,0,0,0,0,0,-1,930,1198,0,0
-287,-174,0,0,0,0,0,0,0,0,0,-1,937,1198,0,0
-280,-174,0,0,0,0,0,0,0,0,0,-1,944,1198,0,0
-273,-174,0,0,0,0,0,0,0,0,0,-1,951,1198,0,0
-266,-174,0,0,0,0,0,0,0,0,0,-1,958,1198,0,0
-259,-174,0,0,0,0,0,0,0,0,0,-1,965,1198,0,0
-252,-174,0,0,0,0,0,0,0,0,0,-1,972,1198,0,0
-245,-174,0,0,0,0,0,0,0,0,0,-1,979,1198,0,0
-238,-174,0,0,0,0,0,0,0,0,0,-1,986,1198,0,0
-231,-174,0,0,0,0,0,0,0,0,0,-1,993,1198,0,0
-224,-174,0,0,0,0,0,0,0,0,0,-1,1000,1198,0,0
-217,-174,0,0,0,0,0,0,0,0,0,-1,1007,1198,0,0
-210,-174,0,0,0,0,0,0,0,0,0,-1,1014,1198,0,0
-203,-174,0,0,0,0,0,0,0,0,0,-1,1021,1198,0,0
-196,-174,0,0,0,0,0,0,0,0,0,-1,1028,1198,0,0
-189,-174,0,0,0,0,0,0,0,0,0,-1,1035,1198,0,0
-182,-174,0,0,0,0,0,0,0,0,0,-1,1042,1198,0,0
-175,-174,0,0,0,0,0,0,0,0,0,-1,1049,1198,0,0
-168,-174,0,0,0,0,0,0,0,0,0,-1,1056,1198,0,0
-161,-174,0,0,0,0,0,0,0,0,0,-1,1063,1198,0,0
-154,-174,0,0,0,0,0,0,0,0,0,-1,1070,1198,0,0
-147,-174,0,0,0,0,0,0,0,0,0,-1,1077,1198,0,0
-140,-174,0,0,0,0,0,0,0,0,0,-1,1084,1198,0,0
-133,-174,0,0,0,0,0,0,0,0,0,-1,1091,1198,0,0
-126,-174,0,0,0,0,0,0,0,0,0,-1,1098,1198,0,0
-119,-174,0,0,0,0,0,0,0,0,0,-1,1105,1198,0,0
-112,-174,0,0,0,0,0,0,0,0,0,-1,1112,1198,0,0
-105,-174,0,0,0,0,0,0,0,0,0,-1,1119,1198,0,0
-98,-174,0,0,0,0,0,0,0,0,0,-1,1126,1198,0,0
-91,-174,0,0,0,0,0,0,0,0,0,-1,1133,1198,0,0
-84,-174,0,0,0,0,0,0,0,0,0,-1,1140,1198,0,0
-77,-174,0,0,0,0,0,0,0,0,0,-1,1147,1198,0,0
-70,-174,0,0,0,0,0,0,0,0,0,-1,1154,1198,0,0
-63,-174,0,0,0,0,0,0,0,0,0,-1,1161,1198,0,0
-56,-174,0,0,0,0,0,0,0,0,0,-1,1168,1198,0,0
-49,-174,0,0,0,0,0,0,0,0,0,-1,1175,1198,0,0
-42,-174,0,0,0,0,0,0,0,0,0,-1,1182,1198,0,0
-35,-174,0,0,0,0,0,0,0,0,0,-1,1189,1198,0,0
-28,-174,0,0,0,0,0,0,0,0,0,-1,1196,1198,0,0
-21,-174,0,0,0,0,0,0,0,0,0,-1,1203,1198,0,0
-14,-174,0,0,0,0,0,0,0,0,0,-1,1210,1198,0,0
-7,-174,0,0,0,0,0,0,0,0,0,-1,1217,1198,0,0
0,-174,0,0,0,0,0,0,0,0,0,-1,1224,1198,0,0
7,-174,0,0,0,0,0,0,0,0,0,-1,1231,1198,0,0
14,-174,0,0,0,0,0,0,0,0,0,-1,1238,1198,0,0
21,-174,0,0,0,0,0,0,0,0,0,-1,1245,1198,0,0
28,-174,0,0,0,0,0,0,0,0,0,-1,1252,1198,0,0
35,-174,0,0,0,0,0,0,0,0,0,-1,1259,1198,0,0
42,-174,0,0,0,0,0,0,0,0,0,-1,1266,1198,0,0
49,-174,0,0,0,0,0,0,0,0,0,-1,1273,1198,0,0
56,-174,0,0,0,0,0,0,0,0,0,-1,1280,1198,0,0
63,-174,0,0,0,0,0,0,0,0,0,-1,1287,1198,0,0
70,-174,0,0,0,0,0,0,0,0,0,-1,1294,1198,0,0
77,-174,0,0,0,0,0,0,0,0,0,-1,1301,1198,0,0
84,-174,0,0,0,0,0,0,0,0,0,-1,1308,1198,0,0
91,-174,0,0,0,0,0,0,0,0,0,-1,1315,1198,0,0
98,-174,0,0,0,0,0,0,0,0,0,-1,1322,1198,0,0
105,-174,0,0,0,0,0,0,0,0,0,-1,1329,1198,0,0
112,-174,0,0,0,0,0,0,0,0,0,-1,1336,1198,0,0
119,-174,0,0,0,0,0,0,0,0,0,-1,1343,1198,0,0
126,-174,0,0,0,0,0,0,0,0,0,-1,1350,1198,0,0
133,-174,0,0,0,0,0,0,0,0,0,-1,1357,1198,0,0
140,-174,0,0,0,0,0,0,0,0,0,-1,1364,1198,0,0
147,-174,0,0,0,0,0,0,0,0,0,-1,1371,1198,0,0
154,-174,0,0,0,0,0,0,0,0,0,-1,1378,1198,0,0
161,-174,0,0,0,0,0,0,0,0,0,-1,1385,1198,0,0
168,-174,0,0,0,0,0,0,0,0,0,-1,1392,1198,0,0
175,-174,0,0,0,0,0,0,0,0,0,-1,1399,1198,0,0
182,-174,0,0,0,0,0,0,0,0,0,-1,1406,1198,0,0
189,-174,0,0,0,0,0,0,0,0,0,-1,1413,1198,0,0
196,-174,0,0,0,0,0,0,0,0,0,-1,1420,1198,0,0
203,-174,0,0,0,0,0,0,0,0,0,-1,1427,1198,0,0
210,-174,0,0,0,0,0,0,0,0,0,-1,1434,1198,0,0
217,-174,0,0,0,0,0,0,0,0,0,-1,1441,1198,0,0
224,-174,0,0,0,0,0,0,0,0,0,-1,1448,1198,0,0
231,-174,0,0,0,0,0,0,0,0,0,-1,1455,1198,0,0
238,-174,0,0,0,0,0,0,0,0,0,-1,1462,1198,0,0
245,-174,0,0,0,0,0,0,0,0,0,-1,1469,1198,0,0
252,-174,0,0,0,0,0,0,0,0,0,-1,1476,1198,0,0
259,-174,0,0,0,0,0,0,0,0,0,-1,1483,1198,0,0
266,-174,0,0,0,0,0,0,0,0,0,-1,1490,1198,0,0
273,-174,0,0,0,0,0,0,0,0,0,-1,1497,1198,0,0
280,-174,0,0,0,0,0,0,0,0,0,-1,1504,1198,0,0
287,-174,0,0,0,0,0,0,0,0,0,-1,1511,1198,0,0
294,-174,0,0,0,0,0,0,0,0,0,-1,1518,1198,0,0
301,-174,0,0,0,0,0,0,0,0,0,-1,1525,1198,0,0
308,-174,0,0,0,0,0,0,0,0,0,-1,1532,1198,0,0
315,-174,0,0,0,0,0,0,0,0,0,-1,1539,1198,0,0
322,-174,0,0,0,0,0,0,0,0,0,-1,1546,1198,0,0
329,-174,0,0,0,0,0,0,0,0,0,-1,1553,1198,0,0
336,-174,0,0,0,0,0,0,0,0,0,-1,1560,1198,0,0
343,-174,0,0,0,0,0,0,0,0,0,-1,1567,1198,0,0
350,-174,0,0,0,0,0,0,0,0,0,-1,1574,1198,0,0
357,-174,0,0,0,0,0,0,0,0,0,-1,1581,1198,0,0
364,-174,0,0,0,0,0,0,0,0,0,-1,1588,1198,0,0
371,-174,0,0,0,0,0,0,0,0,0,-1,1595,1198,0,0
378,-174,0,0,0,0,0,0,0,0,0,-1,1602,1198,0,0
385,-174,0,0,0,0,0,0,0,0,0,-1,1609,1198,0,0
392,-174,0,0,0,0,0,0,0,0,0,-1,1616,1198,0,0
399,-174,0,0,0,0,0,0,0,0,0,-1,1623,1198,0,0
406,-174,0,0,0,0,0,0,0,0,0,-1,1630,1198,0,0
413,-174,0,0,0,0,0,0,0,0,0,-1,1637,1198,0,0
420,-174,0,0,0,0,0,0,0,0,0,-1,1644,1198,0,0
427,-174,0,0,0,0,0,0,0,0,0,-1,1651,1198,0,0
434,-174,0,0,0,0,0,0,0,0,0,-1,1658,1198,0,0
441,-174,0,0,0,0,0,0,0,0,0,-1,1665,1198,0,0
448,-174,0,0,0,0,0,0,0,0,0,-1,1672,1198,0,0
455,-174,0,0,0,0,0,0,0,0,0,-1,1679,1198,0,0
462,-174,0,0,0,0,0,0,0,0,0,-1,1686,1198,0,0
469,-174,0,0,0,0,0,0,0,0,0,-1,1693,1198,0,0
476,-174,0,0,0,0,0,0,0,0,0,-1,1700,1198,0,0
483,-174,0,0,0,0,0,0,0,0,0,-1,1707,1198,0,0
490,-174,0,0,0,0,0,0,0,0,0,-1,1714,1198,0,0
497,-174,0,0,0,0,0,0,0,0,0,-1,1721,1198,0,0
504,-174,0,0,0,0,0,0,0,0,0,-1,1728,1198,0,0
511,-174,0,0,0,0,0,0,0,0,0,-1,1735,1198,0,0
518,-174,0,0,0,0,0,0,0,0,0,-1,1742,1198,0,0
525,-174,0,0,0,0,0,0,0,0,0,-1,1749,1198,0,0
532,-174,0,0,0,0,0,0,0,0,0,-1,1756,1198,0,0
539,-174,0,0,0,0,0,0,0,0,0,-1,1763,1198,0,0
546,-174,0,0,0,0,0,0,0,0,0,-1,1770,1198,0,0
553,-174,0,0,0,0,0,0,0,0,0,-1,1777,1198,0,0
560,-174,0,0,0,0,0,0,0,0,0,-1,1784,1198,0,0
567,-174,0,0,0,0,0,0,0,0,0,-1,1791,1198,0,0
574,-174,0,0,0,0,0,0,0,0,0,-1,1798,1198,0,0
581,-174,0,0,0,0,0,0,0,0,0,-1,1805,1198,0,0
588,-174,0,0,0,0,0,0,0,0,0,-1,1812,1198,0,0
595,-174,0,0,0,0,0,0,0,0,0,-1,1819,1198,0,0
602,-174,0,0,0,0,0,0,0,0,0,-1,1826,1198,0,0
609,-174,0,0,0,0,0,0,0,0,0,-1,1833,1198,0,0
616,-174,0,0,0,0,0,0,0,0,0,-1,1840,1198,0,0
623,-174,0,0,0,0,0,0,0,0,0,-1,1847,1198,0,0
630,-174,0,0,0,0,0,0,0,0,0,-1,1854,1198,0,0
637,-174,159.123,5.59082,0,0,0,0,0,0,0,-1,1861,1198,159.123,-5.59082
644,-174,159.068,5.57349,0,0,0,0,0,0,0,-1,1868,1198,159.067,-5.57352
651,-174,158.819,5.63403,0,0,0,0,0,0,0,-1,1875,1198,158.819,-5.63405
658,-174,158.765,5.64514,0,0,0,0,0,0,0,-1,1882,1198,158.765,-5.64512
665,-174,158.872,5.48254,0,0,0,0,0,0,0,-1,1889,1198,158.872,-5.48252
672,-174,158.842,5.39014,0,0,0,0,0,0,0,-1,1896,1198,158.842,-5.39017
679,-174,158.766,5.28748,0,0,0,0,0,0,0,-1,1903,1198,158.766,-5.28752
686,-174,158.874,4.98938,0,0,0,0,0,0,0,-1,1910,1198,158.874,-4.98943
693,-174,51.1324,2.57349,0,0,0,0,0,0,0,-1,1917,1198,51.1325,-2.57343
700,-174,25.4004,6.11792,0,0,0,0,0,0,0,-1,1924,1198,25.4004,-6.11797
707,-174,34.7908,7.34473,0,0,0,0,0,0,0,-1,1931,1198,34.7908,-7.34475
714,-174,40.1135,7.79871,0,0,0,0,0,0,0,-1,1938,1198,40.1135,-7.79875
721,-174,40.8693,7.59863,0,0,0,0,0,0,0,-1,1945,1198,40.8693,-7.59859
728,-174,146.385,28.2483,0,0,0,0,0,0,0,-1,1952,1198,146.385,-28.2483
735,-174,146.509,27.1992,0.0019646,0.00476522,-0.00102173,0.00509834,0.00163147,-1.25562,0.00300644,0.0395336,1959,1198,146.508,-27.1992
742,-174,146.73,25.9595,-0.00436686,0.0098145,0.00209724,0.0101182,-0.00467051,1.42701,0.0087292,0.0313268,1966,1198,146.73,-25.9595
749,-174,146.661,24.7594,-0.0104411,0.0147455,0.00540347,0.0158558,-0.0115514,1.36814,0.0158885,0.0237904,1973,1198,146.661,-24.7594
756,-174,146.405,23.5953,-0.016278,0.0195657,0.00893415,0.0216692,-0.0183815,1.33957,0.0231492,0.0146944,1980,1198,146.405,-23.5953
763,-174,146.134,22.4703,-0.021885,0.0242786,0.0127321,0.0275572,-0.0251637,1.31876,0.0304489,0.0220364,1987,1198,146.134,-22.4704
770,-174,145.912,21.3828,0,0,0,0,0,0,0,-1,1994,1198,145.912,-21.3829
777,-174,112.049,4.95313,0,0,0,0,0,0,0,-1,2001,1198,112.049,-4.95312
784,-174,111.412,4.28589,0,0,0,0,0,0,0,-1,2008,1198,111.412,-4.28584
791,-174,117.999,0.526611,0,0,0,0,0,0,0,-1,2015,1198,117.999,-0.526629
798,-174,110.634,11.9554,0,0,0,0,0,0,0,-1,2022,1198,110.634,-11.9555
805,-174,110.032,10.519,0,0,0,0,0,0,0,-1,2029,1198,110.032,-10.5191
812,-174,0,0,0,0,0,0,0,0,0,-1,2036,1198,0,0
-700,-181,0,0,0,0,0,0,0,0,0,-1,524,1205,0,0
-693,-181,0,0,0,0,0,0,0,0,0,-1,531,1205,0,0
-686,-181,-128.267,12.0564,0,0,0,0,0,0,0,-1,538,1205,-128.267,-12.0564
-679,-181,-135.686,15.616,0,0,0,0,0,0,0,-1,545,1205,-135.686,-15.616
-672,-181,-135.098,16.293,0,0,0,0,0,0,0,-1,552,1205,-135.098,-16.2929
-665,-181,-133.816,16.5824,0,0,0,0,0,0,0,-1,559,1205,-133.816,-16.5824
-658,-181,-133.489,17.853,0,0,0,0,0,0,0,-1,566,1205,-133.489,-17.8531
-651,-181,-137.514,19.4775,0,0,0,0,0,0,0,-1,573,1205,-137.514,-19.4776
-644,-181,-137.296,20.7493,0,0,0,0,0,0,0,-1,580,1205,-137.296,-20.7493
-637,-181,-137.037,22.1022,-0.0348428,0.0324566,-0.0146879,0.0355225,-0.0379088,-1.36501,0.042403,0.0416554,587,1205,-137.037,-22.1022
-630,-181,-137.442,23.1201,-0.025801,0.0275419,-0.0116592,0.0299789,-0.028238,-1.36474,0.0336166,0.021905,594,1205,-137.442,-23.1202
-623,-181,-137.746,24.1777,-0.0173086,0.0228576,-0.00879559,0.0246992,-0.0191502,-1.3644,0.0253839,0.0189818,601,1205,-137.746,-24.1777
-616,-181,-137.777,25.3444,-0.00935822,0.0183764,-0.00611872,0.0196663,-0.0106481,-1.36303,0.0177583,0.0182209,608,1205,-137.777,-25.3444
-609,-181,-138.024,26.4851,-0.00194336,0.0140706,-0.00365192,0.014864,-0.00273685,-1.35684,0.0109364,0.0234412,615,1205,-138.024,-26.4851
-602,-181,-138.394,27.5345,0,0,0,0,0,0,0,-1,622,1205,-138.394,-27.5346
-595,-181,-123.93,27.8311,0,0,0,0,0,0,0,-1,629,1205,-123.93,-27.8311
-588,-181,-81.3058,19.9136,0,0,0,0,0,0,0,-1,636,1205,-81.3058,-19.9135
-581,-181,-81.564,20.8275,0,0,0,0,0,0,0,-1,643,1205,-81.564,-20.8275
-574,-181,-49.6119,12.3185,0,0,0,0,0,0,0,-1,650,1205,-49.6119,-12.3185
-567,-181,-25.8839,3.34485,0,0,0,0,0,0,0,-1,657,1205,-25.8839,-3.3449
-560,-181,-31.7396,1.63306,0,0,0,0,0,0,0,-1,664,1205,-31.7396,-1.63303
-553,-181,-57.8761,0.527832,0,0,0,0,0,0,0,-1,671,1205,-57.8761,-0.527787
-546,-181,-71.9266,0.492798,0,0,0,0,0,0,0,-1,678,1205,-71.9266,-0.492781
-539,-181,-71.897,0.373657,0,0,0,0,0,0,0,-1,685,1205,-71.8971,-0.373697
-532,-181,-71.999,0.237061,0,0,0,0,0,0,0,-1,692,1205,-71.999,-0.237102
-525,-181,-72.1212,0.416626,0,0,0,0,0,0,0,-1,699,1205,-72.1212,-0.416618
-518,-181,-71.9969,0.632813,0,0,0,0,0,0,0,-1,706,1205,-71.997,-0.632783
-511,-181,0,0,0,0,0,0,0,0,0,-1,713,1205,0,0
-504,-181,0,0,0,0,0,0,0,0,0,-1,720,1205,0,0
-497,-181,0,0,0,0,0,0,0,0,0,-1,727,1205,0,0
-490,-181,0,0,0,0,0,0,0,0,0,-1,734,1205,0,0
-483,-181,0,0,0,0,0,0,0,0,0,-1,741,1205,0,0
-476,-181,0,0,0,0,0,0,0,0,0,-1,748,1205,0,0
-469,-181,0,0,0,0,0,0,0,0,0,-1,755,1205,0,0
-462,-181,0,0,0,0,0,0,0,0,0,-1,762,1205,0,0
-455,-181,0,0,0,0,0,0,0,0,0,-1,769,1205,0,0
-448,-181,0,0,0,0,0,0,0,0,0,-1,776,1205,0,0
-441,-181,0,0,0,0,0,0,0,0,0,-1,783,1205,0,0
-434,-181,0,0,0,0,0,0,0,0,0,-1,790,1205,0,0
-427,-181,0,0,0,0,0,0,0,0,0,-1,797,1205,0,0
-420,-181,0,0,0,0,0,0,0,0,0,-1,804,1205,0,0
-413,-181,0,0,0,0,0,0,0,0,0,-1,811,1205,0,0
-406,-181,0,0,0,0,0,0,0,0,0,-1,818,1205,0,0
-399,-181,0,0,0,0,0,0,0,0,0,-1,825,1205,0,0
-392,-181,0,0,0,0,0,0,0,0,0,-1,832,1205,0,0
-385,-181,0,0,0,0,0,0,0,0,0,-1,839,1205,0,0
-378,-181,0,0,0,0,0,0,0,0,0,-1,846,1205,0,0
-371,-181,0,0,0,0,0,0,0,0,0,-1,853,1205,0,0
-364,-181,0,0,0,0,0,0,0,0,0,-1,860,1205,0,0
-357,-181,0,0,0,0,0,0,0,0,0,-1,867,1205,0,0
-350,-181,0,0,0,0,0,0,0,0,0,-1,874,1205,0,0
-343,-181,0,0,0,0,0,0,0,0,0,-1,881,1205,0,0
-336,-181,0,0,0,0,0,0,0,0,0,-1,888,1205,0,0
-329,-181,0,0,0,0,0,0,0,0,0,-1,895,1205,0,0
-322,-181,0,0,0,0,0,0,0,0,0,-1,902,1205,0,0
-315,-181,0,0,0,0,0,0,0,0,0,-1,909,1205,0,0
-308,-181,0,0,0,0,0,0,0,0,0,-1,916,1205,0,0
-301,-181,0,0,0,0,0,0,0,0,0,-1,923,1205,0,0
-294,-181,0,0,0,0,0,0,0,0,0,-1,930,1205,0,0
-287,-181,0,0,0,0,0,0,0,0,0,-1,937,1205,0,0
-280,-181,0,0,0,0,0,0,0,0,0,-1,944,1205,0,0
-273,-181,0,0,0,0,0,0,0,0,0,-1,951,1205,0,0
-266,-181,0,0,0,0,0,0,0,0,0,-1,958,1205,0,0
-259,-181,0,0,0,0,0,0,0,0,0,-1,965,1205,0,0
-252,-181,0,0,0,0,0,0,0,0,0,-1,972,1205,0,0
-245,-181,0,0,0,0,0,0,0,0,0,-1,979,1205,0,0
-238,-181,0,0,0,0,0,0,0,0,0,-1,986,1205,0,0
-231,-181,0,0,0,0,0,0,0,0,0,-1,993,1205,0,0
-224,-181,0,0,0,0,0,0,0,0,0,-1,1000,1205,0,0
-217,-181,0,0,0,0,0,0,0,0,0,-1,1007,1205,0,0
-210,-181,0,0,0,0,0,0,0,0,0,-1,1014,1205,0,0
-203,-181,0,0,0,0,0,0,0,0,0,-1,1021,1205,0,0
-196,-181,0,0,0,0,0,0,0,0,0,-1,1028,1205,0,0
-189,-181,0,0,0,0,0,0,0,0,0,-1,1035,1205,0,0
-182,-181,0,0,0,0,0,0,0,0,0,-1,1042,1205,0,0
-175,-181,0,0,0,0,0,0,0,0,0,-1,1049,1205,0,0
-168,-181,0,0,0,0,0,0,0,0,0,-1,1056,1205,0,0
-161,-181,0,0,0,0,0,0,0,0,0,-1,1063,1205,0,0
-154,-181,0,0,0,0,0,0,0,0,0,-1,1070,1205,0,0
-147,-181,0,0,0,0,0,0,0,0,0,-1,1077,1205,0,0
-140,-181,0,0,0,0,0,0,0,0,0,-1,1084,1205,0,0
-133,-181,0,0,0,0,0,0,0,0,0,-1,1091,1205,0,0
-126,-181,0,0,0,0,0,0,0,0,0,-1,1098,1205,0,0
-119,-181,0,0,0,0,0,0,0,0,0,-1,1105,1205,0,0
-112,-181,0,0,0,0,0,0,0,0,0,-1,1112,1205,0,0
-105,-181,0,0,0,0,0,0,0,0,0,-1,1119,1205,0,0
-98,-181,0,0,0,0,0,0,0,0,0,-1,1126,1205,0,0
-91,-181,0,0,0,0,0,0,0,0,0,-1,1133,1205,0,0
-84,-181,0,0,0,0,0,0,0,0,0,-1,1140,1205,0,0
-77,-181,0,0,0,0,0,0,0,0,0,-1,1147,1205,0,0
-70,-181,0,0,0,0,0,0,0,0,0,-1,1154,1205,0,0
-63,-181,0,0,0,0,0,0,0,0,0,-1,1161,1205,0,0
-56,-181,0,0,0,0,0,0,0,0,0,-1,1168,1205,0,0
-49,-181,0,0,0,0,0,0,0,0,0,-1,1175,1205,0,0
-42,-181,0,0,0,0,0,0,0,0,0,-1,1182,1205,0,0
-35,-181,0,0,0,0,0,0,0,0,0,-1,1189,1205,0,0
-28,-181,0,0,0,0,0,0,0,0,0,-1,1196,1205,0,0
-21,-181,0,0,0,0,0,0,0,0,0,-1,1203,1205,0,0
-14,-181,0,0,0,0,0,0,0,0,0,-1,1210,1205,0,0
-7,-181,0,0,0,0,0,0,0,0,0,-1,1217,1205,0,0
0,-181,0,0,0,0,0,0,0,0,0,-1,1224,1205,0,0
7,-181,0,0,0,0,0,0,0,0,0,-1,1231,1205,0,0
14,-181,0,0,0,0,0,0,0,0,0,-1,1238,1205,0,0
21,-181,0,0,0,0,0,0,0,0,0,-1,1245,1205,0,0
28,-181,0,0,0,0,0,0,0,0,0,-1,1252,1205,0,0
35,-181,0,0,0,0,0,0,0,0,0,-1,1259,1205,0,0
42,-181,0,0,0,0,0,0,0,0,0,-1,1266,1205,0,0
49,-181,0,0,0,0,0,0,0,0,0,-1,1273,1205,0,0
56,-181,0,0,0,0,0,0,0,0,0,-1,1280,1205,0,0
63,-181,0,0,0,0,0,0,0,0,0,-1,1287,1205,0,0
70,-181,0,0,0,0,0,0,0,0,0,-1,1294,1205,0,0
77,-181,0,0,0,0,0,0,0,0,0,-1,1301,1205,0,0
84,-181,0,0,0,0,0,0,0,0,0,-1,1308,1205,0,0
91,-181,0,0,0,0,0,0,0,0,0,-1,1315,1205,0,0
98,-181,0,0,0,0,0,0,0,0,0,-1,1322,1205,0,0
105,-181,0,0,0,0,0,0,0,0,0,-1,1329,1205,0,0
112,-181,0,0,0,0,0,0,0,0,0,-1,1336,1205,0,0
119,-181,0,0,0,0,0,0,0,0,0,-1,1343,1205,0,0
126,-181,0,0,0,0,0,0,0,0,0,-1,1350,1205,0,0
133,-181,0,0,0,0,0,0,0,0,0,-1,1357,1205,0,0
140,-181,0,0,0,0,0,0,0,0,0,-1,1364,1205,0,0
147,-181,0,0,0,0,0,0,0,0,0,-1,1371,1205,0,0
154,-181,0,0,0,0,0,0,0,0,0,-1,1378,1205,0,0
161,-181,0,0,0,0,0,0,0,0,0,-1,1385,1205,0,0
168,-181,0,0,0,0,0,0,0,0,0,-1,1392,1205,0,0
175,-181,0,0,0,0,0,0,0,0,0,-1,1399,1205,0,0
182,-181,0,0,0,0,0,0,0,0,0,-1,1406,1205,0,0
189,-181,0,0,0,0,0,0,0,0,0,-1,1413,1205,0,0
196,-181,0,0,0,0,0,0,0,0,0,-1,1420,1205,0,0
203,-181,0,0,0,0,0,0,0,0,0,-1,1427,1205,0,0
210,-181,0,0,0,0,0,0,0,0,0,-1,1434,1205,0,0
217,-181,0,0,0,0,0,0,0,0,0,-1,1441,1205,0,0
224,-181,0,0,0,0,0,0,0,0,0,-1,1448,1205,0,0
231,-181,0,0,0,0,0,0,0,0,0,-1,1455,1205,0,0
238,-181,0,0,0,0,0,0,0,0,0,-1,1462,1205,0,0
245,-181,0,0,0,0,0,0,0,0,0,-1,1469,1205,0,0
252,-181,0,0,0,0,0,0,0,0,0,-1,1476,1205,0,0
259,-181,0,0,0,0,0,0,0,0,0,-1,1483,1205,0,0
266,-181,0,0,0,0,0,0,0,0,0,-1,1490,1205,0,0
273,-181,0,0,0,0,0,0,0,0,0,-1,1497,1205,0,0
280,-181,0,0,0,0,0,0,0,0,0,-1,1504,1205,0,0
287,-181,0,0,0,0,0,0,0,0,0,-1,1511,1205,0,0
294,-181,0,0,0,0,0,0,0,0,0,-1,1518,1205,0,0
301,-181,0,0,0,0,0,0,0,0,0,-1,1525,1205,0,0
308,-181,0,0,0,0,0,0,0,0,0,-1,1532,1205,0,0
315,-181,0,0,0,0,0,0,0,0,0,-1,1539,1205,0,0
322,-181,0,0,0,0,0,0,0,0,0,-1,1546,1205,0,0
329,-181,0,0,0,0,0,0,0,0,0,-1,1553,1205,0,0
336,-181,0,0,0,0,0,0,0,0,0,-1,1560,1205,0,0
343,-181,0,0,0,0,0,0,0,0,0,-1,1567,1205,0,0
350,-181,0,0,0,0,0,0,0,0,0,-1,1574,1205,0,0
357,-181,0,0,0,0,0,0,0,0,0,-1,1581,1205,0,0
364,-181,0,0,0,0,0,0,0,0,0,-1,1588,1205,0,0
371,-181,0,0,0,0,0,0,0,0,0,-1,1595,1205,0,0
378,-181,0,0,0,0,0,0,0,0,0,-1,1602,1205,0,0
385,-181,0,0,0,0,0,0,0,0,0,-1,1609,1205,0,0
392,-181,0,0,0,0,0,0,0,0,0,-1,1616,1205,0,0
399,-181,0,0,0,0,0,0,0,0,0,-1,1623,1205,0,0
406,-181,0,0,0,0,0,0,0,0,0,-1,1630,1205,0,0
413,-181,0,0,0,0,0,0,0,0,0,-1,1637,1205,0,0
420,-181,0,0,0,0,0,0,0,0,0,-1,1644,1205,0,0
427,-181,0,0,0,0,0,0,0,0,0,-1,1651,1205,0,0
434,-181,0,0,0,0,0,0,0,0,0,-1,1658,1205,0,0
441,-181,0,0,0,0,0,0,0,0,0,-1,1665,1205,0,0
448,-181,0,0,0,0,0,0,0,0,0,-1,1672,1205,0,0
455,-181,0,0,0,0,0,0,0,0,0,-1,1679,1205,0,0
462,-181,0,0,0,0,0,0,0,0,0,-1,1686,1205,0,0
469,-181,0,0,0,0,0,0,0,0,0,-1,1693,1205,0,0
476,-181,0,0,0,0,0,0,0,0,0,-1,1700,1205,0,0
483,-181,0,0,0,0,0,0,0,0,0,-1,1707,1205,0,0
490,-181,0,0,0,0,0,0,0,0,0,-1,1714,1205,0,0
497,-181,0,0,0,0,0,0,0,0,0,-1,1721,1205,0,0
504,-181,0,0,0,0,0,0,0,0,0,-1,1728,1205,0,0
511,-181,0,0,0,0,0,0,0,0,0,-1,1735,1205,0,0
518,-181,0,0,0,0,0,0,0,0,0,-1,1742,1205,0,0
525,-181,0,0,0,0,0,0,0,0,0,-1,1749,1205,0,0
532,-181,0,0,0,0,0,0,0,0,0,-1,1756,1205,0,0
539,-181,0,0,0,0,0,0,0,0,0,-1,1763,1205,0,0
546,-181,0,0,0,0,0,0,0,0,0,-1,1770,1205,0,0
553,-181,0,0,0,0,0,0,0,0,0,-1,1777,1205,0,0
560,-181,0,0,0,0,0,0,0,0,0,-1,1784,1205,0,0
567,-181,0,0,0,0,0,0,0,0,0,-1,1791,1205,0,0
574,-181,0,0,0,0,0,0,0,0,0,-1,1798,1205,0,0
581,-181,0,0,0,0,0,0,0,0,0,-1,1805,1205,0,0
588,-181,0,0,0,0,0,0,0,0,0,-1,1812,1205,0,0
595,-181,0,0,0,0,0,0,0,0,0,-1,1819,1205,0,0
602,-181,0,0,0,0,0,0,0,0,0,-1,1826,1205,0,0
609,-181,0,0,0,0,0,0,0,0,0,-1,1833,1205,0,0
616,-181,0,0,0,0,0,0,0,0,0,-1,1840,1205,0,0
623,-181,0,0,0,0,0,0,0,0,0,-1,1847,1205,0,0
630,-181,158.916,5.50623,0,0,0,0,0,0,0,-1,1854,1205,158.916,-5.50618
637,-181,159.067,5.46313,0,0,0,0,0,0,0,-1,1861,1205,159.067,-5.46314
644,-181,159.031,5.41809,0,0,0,0,0,0,0,-1,1868,1205,159.031,-5.41805
651,-181,158.893,5.48303,0,0,0,0,0,0,0,-1,1875,1205,158.893,-5.48305
658,-181,158.834,5.51111,0,0,0,0,0,0,0,-1,1882,1205,158.835,-5.51109
665,-181,158.823,5.4906,0,0,0,0,0,0,0,-1,1889,1205,158.823,-5.49066
672,-181,158.767,5.37732,0,0,0,0,0,0,0,-1,1896,1205,158.767,-5.37734
679,-181,158.803,5.172,0,0,0,0,0,0,0,-1,1903,1205,158.804,-5.17205
686,-181,84.0454,1.91431,0,0,0,0,0,0,0,-1,1910,1205,84.0455,-1.91427
693,-181,36.1301,2.91016,0,0,0,0,0,0,0,-1,1917,1205,36.1302,-2.9102
700,-181,29.5845,6.58398,0,0,0,0,0,0,0,-1,1924,1205,29.5844,-6.58395
707,-181,55.4949,10.6722,0,0,0,0,0,0,0,-1,1931,1205,55.4949,-10.6722
714,-181,89.1893,18.8728,0,0,0,0,0,0,0,-1,1938,1205,89.1894,-18.8728
721,-181,145.775,29.6309,0,0,0,0,0,0,0,-1,1945,1205,145.776,-29.6309
728,-181,145.7,28.2252,0,0,0,0,0,0,0,-1,1952,1205,145.7,-28.2253
735,-181,145.55,27.1421,0.0015227,0.00606813,-0.00107485,0.00630948,0.00128135,-1.34992,0.00385093,0.0328069,1959,1205,145.55,-27.1421
742,-181,145.488,26.0742,-0.00523542,0.0110877,0.00248323,0.0114571,-0.00560483,1.42312,0.010042,0.0258436,1966,1205,145.488,-26.0743
749,-181,145.358,24.7841,-0.0116398,0.0159967,0.00615056,0.0173037,-0.0129468,1.36141,0.0175254,0.0212697,1973,1205,145.358,-24.7841
756,-181,145.198,23.5894,-0.0177266,0.0207939,0.00997038,0.0232216,-0.0201542,1.33196,0.0250639,0.0162612,1980,1205,145.198,-23.5894
763,-181,145.009,22.4475,-0.023521,0.0254756,0.0139909,0.0291892,-0.0272346,1.31135,0.0325828,0.0254653,1987,1205,145.009,-22.4475
770,-181,144.906,21.2869,0,0,0,0,0,0,0,-1,1994,1205,144.906,-21.2868
777,-181,112.389,5.52087,0,0,0,0,0,0,0,-1,2001,1205,112.389,-5.52082
784,-181,111.663,4.77502,0,0,0,0,0,0,0,-1,2008,1205,111.663,-4.77498
791,-181,110.522,4.12244,0,0,0,0,0,0,0,-1,2015,1205,110.522,-4.12243
798,-181,118.47,0.938965,0,0,0,0,0,0,0,-1,2022,1205,118.47,-0.938971
805,-181,0,0,0,0,0,0,0,0,0,-1,2029,1205,0,0
812,-181,0,0,0,0,0,0,0,0,0,-1,2036,1205,0,0
-700,-188,0,0,0,0,0,0,0,0,0,-1,524,1212,0,0
-693,-188,0,0,0,0,0,0,0,0,0,-1,531,1212,0,0
-686,-188,0,0,0,0,0,0,0,0,0,-1,538,1212,0,0
-679,-188,-133.394,14.2952,0,0,0,0,0,0,0,-1,545,1212,-133.394,-14.2952
-672,-188,-132.93,15.0283,0,0,0,0,0,0,0,-1,552,1212,-132.93,-15.0283
-665,-188,-132.326,15.7805,0,0,0,0,0,0,0,-1,559,1212,-132.326,-15.7805
-658,-188,-131.816,16.5458,0,0,0,0,0,0,0,-1,566,1212,-131.816,-16.5458
-651,-188,-131.342,17.8308,0,0,0,0,0,0,0,-1,573,1212,-131.342,-17.8308
-644,-188,-136.544,20.7664,0,0,0,0,0,0,0,-1,580,1212,-136.544,-20.7664
-637,-188,-136.095,22.0216,0,0,0,0,0,0,0,-1,587,1212,-136.095,-22.0217
-630,-188,-136.256,23.0646,-0.0264745,0.0285659,-0.0118743,0.0310183,-0.028927,-1.36713,0.0346165,0.0275198,594,1212,-136.256,-23.0646
-623,-188,-136.425,24.2124,-0.018512,0.0233672,-0.00955107,0.0254426,-0.0205873,-1.35683,0.0266246,0.0160484,601,1212,-136.425,-24.2124
-616,-188,-136.552,25.3093,-0.0111286,0.0183128,-0.00742902,0.0200811,-0.012897,-1.33711,0.0191899,0.0149975,608,1212,-136.552,-25.3093
-609,-188,-136.713,26.5398,-0.00432683,0.013356,-0.00554613,0.0149515,-0.00592238,-1.29067,0.0124217,0.0187594,615,1212,-136.713,-26.5398
-602,-188,-136.676,27.91,0.00188457,0.00844996,-0.00394278,0.0102977,3.6804e-05,-1.13255,0.00685292,0.0418036,622,1212,-136.676,-27.91
-595,-188,-136.571,29.5718,0,0,0,0,0,0,0,-1,629,1212,-136.571,-29.5718
-588,-188,-80.1454,20.0868,0,0,0,0,0,0,0,-1,636,1212,-80.1454,-20.0868
-581,-188,-80.2917,21.2421,0,0,0,0,0,0,0,-1,643,1212,-80.2917,-21.2421
-574,-188,-51.8871,13.5398,0,0,0,0,0,0,0,-1,650,1212,-51.8871,-13.5398
-567,-188,-19.5786,4.10388,0,0,0,0,0,0,0,-1,657,1212,-19.5785,-4.10383
-560,-188,-23.9507,0.416626,0,0,0,0,0,0,0,-1,664,1212,-23.9508,-0.416602
-553,-188,-49.2368,1.03101,0,0,0,0,0,0,0,-1,671,1212,-49.2367,-1.03099
-546,-188,-71.8369,0.494629,0,0,0,0,0,0,0,-1,678,1212,-71.8369,-0.494635
-539,-188,-71.8539,0.373535,0,0,0,0,0,0,0,-1,685,1212,-71.854,-0.373478
-532,-188,-72.0013,0.373047,0,0,0,0,0,0,0,-1,692,1212,-72.0014,-0.373048
-525,-188,-72.0408,0.373535,0,0,0,0,0,0,0,-1,699,1212,-72.0408,-0.373498
-518,-188,-71.9813,0.422363,0,0,0,0,0,0,0,-1,706,1212,-71.9813,-0.422411
-511,-188,-71.7823,0.477417,0,0,0,0,0,0,0,-1,713,1212,-71.7823,-0.477475
-504,-188,0,0,0,0,0,0,0,0,0,-1,720,1212,0,0
-497,-188,0,0,0,0,0,0,0,0,0,-1,727,1212,0,0
-490,-188,0,0,0,0,0,0,0,0,0,-1,734,1212,0,0
-483,-188,0,0,0,0,0,0,0,0,0,-1,741,1212,0,0
-476,-188,0,0,0,0,0,0,0,0,0,-1,748,1212,0,0
-469,-188,0,0,0,0,0,0,0,0,0,-1,755,1212,0,0
-462,-188,0,0,0,0,0,0,0,0,0,-1,762,1212,0,0
-455,-188,0,0,0,0,0,0,0,0,0,-1,769,1212,0,0
-448,-188,0,0,0,0,0,0,0,0,0,-1,776,1212,0,0
-441,-188,0,0,0,0,0,0,0,0,0,-1,783,1212,0,0
-434,-188,0,0,0,0,0,0,0,0,0,-1,790,1212,0,0
-427,-188,0,0,0,0,0,0,0,0,0,-1,797,1212,0,0
-420,-188,0,0,0,0,0,0,0,0,0,-1,804,1212,0,0
-413,-188,0,0,0,0,0,0,0,0,0,-1,811,1212,0,0
-406,-188,0,0,0,0,0,0,0,0,0,-1,818,1212,0,0
-399,-188,0,0,0,0,0,0,0,0,0,-1,825,1212,0,0
-392,-188,0,0,0,0,0,0,0,0,0,-1,832,1212,0,0
-385,-188,0,0,0,0,0,0,0,0,0,-1,839,1212,0,0
-378,-188,0,0,0,0,0,0,0,0,0,-1,846,1212,0,0
-371,-188,0,0,0,0,0,0,0,0,0,-1,853,1212,0,0
-364,-188,0,0,0,0,0,0,0,0,0,-1,860,1212,0,0
-357,-188,0,0,0,0,0,0,0,0,0,-1,867,1212,0,0
-350,-188,0,0,0,0,0,0,0,0,0,-1,874,1212,0,0
-343,-188,0,0,0,0,0,0,0,0,0,-1,881,1212,0,0
-336,-188,0,0,0,0,0,0,0,0,0,-1,888,1212,0,0
-329,-188,0,0,0,0,0,0,0,0,0,-1,895,1212,0,0
-322,-188,0,0,0,0,0,0,0,0,0,-1,902,1212,0,0
-315,-188,0,0,0,0,0,0,0,0,0,-1,909,1212,0,0
-308,-188,0,0,0,0,0,0,0,0,0,-1,916,1212,0,0
-301,-188,0,0,0,0,0,0,0,0,0,-1,923,1212,0,0
-294,-188,0,0,0,0,0,0,0,0,0,-1,930,1212,0,0
-287,-188,0,0,0,0,0,0,0,0,0,-1,937,1212,0,0
-280,-188,0,0,0,0,0,0,0,0,0,-1,944,1212,0,0
-273,-188,0,0,0,0,0,0,0,0,0,-1,951,1212,0,0
-266,-188,0,0,0,0,0,0,0,0,0,-1,958,1212,0,0
-259,-188,0,0,0,0,0,0,0,0,0,-1,965,1212,0,0
-252,-188,0,0,0,0,0,0,0,0,0,-1,972,1212,0,0
-245,-188,0,0,0,0,0,0,0,0,0,-1,979,1212,0,0
-238,-188,0,0,0,0,0,0,0,0,0,-1,986,1212,0,0
-231,-188,0,0,0,0,0,0,0,0,0,-1,993,1212,0,0
-224,-188,0,0,0,0,0,0,0,0,0,-1,1000,1212,0,0
-217,-188,0,0,0,0,0,0,0,0,0,-1,1007,1212,0,0
-210,-188,0,0,0,0,0,0,0,0,0,-1,1014,1212,0,0
-203,-188,0,0,0,0,0,0,0,0,0,-1,1021,1212,0,0
-196,-188,0,0,0,0,0,0,0,0,0,-1,1028,1212,0,0
-189,-188,0,0,0,0,0,0,0,0,0,-1,1035,1212,0,0
-182,-188,0,0,0,0,0,0,0,0,0,-1,1042,1212,0,0
-175,-188,0,0,0,0,0,0,0,0,0,-1,1049,1212,0,0
-168,-188,0,0,0,0,0,0,0,0,0,-1,1056,1212,0,0
-161,-188,0,0,0,0,0,0,0,0,0,-1,1063,1212,0,0
-154,-188,0,0,0,0,0,0,0,0,0,-1,1070,1212,0,0
-147,-188,0,0,0,0,0,0,0,0,0,-1,1077,1212,0,0
-140,-188,0,0,0,0,0,0,0,0,0,-1,1084,1212,0,0
-133,-188,0,0,0,0,0,0,0,0,0,-1,1091,1212,0,0
-126,-188,0,0,0,0,0,0,0,0,0,-1,1098,1212,0,0
-119,-188,0,0,0,0,0,0,0,0,0,-1,1105,1212,0,0
-112,-188,0,0,0,0,0,0,0,0,0,-1,1112,1212,0,0
-105,-188,0,0,0,0,0,0,0,0,0,-1,1119,1212,0,0
-98,-188,0,0,0,0,0,0,0,0,0,-1,1126,1212,0,0
-91,-188,0,0,0,0,0,0,0,0,0,-1,1133,1212,0,0
-84,-188,0,0,0,0,0,0,0,0,0,-1,1140,1212,0,0
-77,-188,0,0,0,0,0,0,0,0,0,-1,1147,1212,0,0
-70,-188,0,0,0,0,0,0,0,0,0,-1,1154,1212,0,0
-63,-188,0,0,0,0,0,0,0,0,0,-1,1161,1212,0,0
-56,-188,0,0,0,0,0,0,0,0,0,-1,1168,1212,0,0
-49,-188,0,0,0,0,0,0,0,0,0,-1,1175,1212,0,0
-42,-188,0,0,0,0,0,0,0,0,0,-1,1182,1212,0,0
-35,-188,0,0,0,0,0,0,0,0,0,-1,1189,1212,0,0
-28,-188,0,0,0,0,0,0,0,0,0,-1,1196,1212,0,0
-21,-188,0,0,0,0,0,0,0,0,0,-1,1203,1212,0,0
-14,-188,0,0,0,0,0,0,0,0,0,-1,1210,1212,0,0
-7,-188,0,0,0,0,0,0,0,0,0,-1,1217,1212,0,0
0,-188,0,0,0,0,0,0,0,0,0,-1,1224,1212,0,0
7,-188,0,0,0,0,0,0,0,0,0,-1,1231,1212,0,0
14,-188,0,0,0,0,0,0,0,0,0,-1,1238,1212,0,0
21,-188,0,0,0,0,0,0,0,0,0,-1,1245,1212,0,0
28,-188,0,0,0,0,0,0,0,0,0,-1,1252,1212,0,0
35,-188,0,0,0,0,0,0,0,0,0,-1,1259,1212,0,0
42,-188,0,0,0,0,0,0,0,0,0,-1,1266,1212,0,0
49,-188,0,0,0,0,0,0,0,0,0,-1,1273,1212,0,0
56,-188,0,0,0,0,0,0,0,0,0,-1,1280,1212,0,0
63,-188,0,0,0,0,0,0,0,0,0,-1,1287,1212,0,0
70,-188,0,0,0,0,0,0,0,0,0,-1,1294,1212,0,0
77,-188,0,0,0,0,0,0,0,0,0,-1,1301,1212,0,0
84,-188,0,0,0,0,0,0,0,0,0,-1,1308,1212,0,0
91,-188,0,0,0,0,0,0,0,0,0,-1,1315,1212,0,0
98,-188,0,0,0,0,0,0,0,0,0,-1,1322,1212,0,0
105,-188,0,0,0,0,0,0,0,0,0,-1,1329,1212,0,0
112,-188,0,0,0,0,0,0,0,0,0,-1,1336,1212,0,0
119,-188,0,0,0,0,0,0,0,0,0,-1,1343,1212,0,0
126,-188,0,0,0,0,0,0,0,0,0,-1,1350,1212,0,0
133,-188,0,0,0,0,0,0,0,0,0,-1,1357,1212,0,0
140,-188,0,0,0,0,0,0,0,0,0,-1,1364,1212,0,0
147,-188,0,0,0,0,0,0,0,0,0,-1,1371,1212,0,0
154,-188,0,0,0,0,0,0,0,0,0,-1,1378,1212,0,0
161,-188,0,0,0,0,0,0,0,0,0,-1,1385,1212,0,0
168,-188,0,0,0,0,0,0,0,0,0,-1,1392,1212,0,0
175,-188,0,0,0,0,0,0,0,0,0,-1,1399,1212,0,0
182,-188,0,0,0,0,0,0,0,0,0,-1,1406,1212,0,0
189,-188,0,0,0,0,0,0,0,0,0,-1,1413,1212,0,0
196,-188,0,0,0,0,0,0,0,0,0,-1,1420,1212,0,0
203,-188,0,0,0,0,0,0,0,0,0,-1,1427,1212,0,0
210,-188,0,0,0,0,0,0,0,0,0,-1,1434,1212,0,0
217,-188,0,0,0,0,0,0,0,0,0,-1,1441,1212,0,0
224,-188,0,0,0,0,0,0,0,0,0,-1,1448,1212,0,0
231,-188,0,0,0,0,0,0,0,0,0,-1,1455,1212,0,0
238,-188,0,0,0,0,0,0,0,0,0,-1,1462,1212,0,0
245,-188,0,0,0,0,0,0,0,0,0,-1,1469,1212,0,0
252,-188,0,0,0,0,0,0,0,0,0,-1,1476,1212,0,0
259,-188,0,0,0,0,0,0,0,0,0,-1,1483,1212,0,0
266,-188,0,0,0,0,0,0,0,0,0,-1,1490,1212,0,0
273,-188,0,0,0,0,0,0,0,0,0,-1,1497,1212,0,0
280,-188,0,0,0,0,0,0,0,0,0,-1,1504,1212,0,0
287,-188,0,0,0,0,0,0,0,0,0,-1,1511,1212,0,0
294,-188,0,0,0,0,0,0,0,0,0,-1,1518,1212,0,0
301,-188,0,0,0,0,0,0,0,0,0,-1,1525,1212,0,0
308,-188,0,0,0,0,0,0,0,0,0,-1,1532,1212,0,0
315,-188,0,0,0,0,0,0,0,0,0,-1,1539,1212,0,0
322,-188,0,0,0,0,0,0,0,0,0,-1,1546,1212,0,0
329,-188,0,0,0,0,0,0,0,0,0,-1,1553,1212,0,0
336,-188,0,0,0,0,0,0,0,0,0,-1,1560,1212,0,0
343,-188,0,0,0,0,0,0,0,0,0,-1,1567,1212,0,0
350,-188,0,0,0,0,0,0,0,0,0,-1,1574,1212,0,0
357,-188,0,0,0,0,0,0,0,0,0,-1,1581,1212,0,0
364,-188,0,0,0,0,0,0,0,0,0,-1,1588,1212,0,0
371,-188,0,0,0,0,0,0,0,0,0,-1,1595,1212,0,0
378,-188,0,0,0,0,0,0,0,0,0,-1,1602,1212,0,0
385,-188,0,0,0,0,0,0,0,0,0,-1,1609,1212,0,0
392,-188,0,0,0,0,0,0,0,0,0,-1,1616,1212,0,0
399,-188,0,0,0,0,0,0,0,0,0,-1,1623,1212,0,0
406,-188,0,0,0,0,0,0,0,0,0,-1,1630,1212,0,0
413,-188,0,0,0,0,0,0,0,0,0,-1,1637,1212,0,0
420,-188,0,0,0,0,0,0,0,0,0,-1,1644,1212,0,0
427,-188,0,0,0,0,0,0,0,0,0,-1,1651,1212,0,0
434,-188,0,0,0,0,0,0,0,0,0,-1,1658,1212,0,0
441,-188,0,0,0,0,0,0,0,0,0,-1,1665,1212,0,0
448,-188,0,0,0,0,0,0,0,0,0,-1,1672,1212,0,0
455,-188,0,0,0,0,0,0,0,0,0,-1,1679,1212,0,0
462,-188,0,0,0,0,0,0,0,0,0,-1,1686,1212,0,0
469,-188,0,0,0,0,0,0,0,0,0,-1,1693,1212,0,0
476,-188,0,0,0,0,0,0,0,0,0,-1,1700,1212,0,0
483,-188,0,0,0,0,0,0,0,0,0,-1,1707,1212,0,0
490,-188,0,0,0,0,0,0,0,0,0,-1,1714,1212,0,0
497,-188,0,0,0,0,0,0,0,0,0,-1,1721,1212,0,0
504,-188,0,0,0,0,0,0,0,0,0,-1,1728,1212,0,0
511,-188,0,0,0,0,0,0,0,0,0,-1,1735,1212,0,0
518,-188,0,0,0,0,0,0,0,0,0,-1,1742,1212,0,0
525,-188,0,0,0,0,0,0,0,0,0,-1,1749,1212,0,0
532,-188,0,0,0,0,0,0,0,0,0,-1,1756,1212,0,0
539,-188,0,0,0,0,0,0,0,0,0,-1,1763,1212,0,0
546,-188,0,0,0,0,0,0,0,0,0,-1,1770,1212,0,0
553,-188,0,0,0,0,0,0,0,0,0,-1,1777,1212,0,0
560,-188,0,0,0,0,0,0,0,0,0,-1,1784,1212,0,0
567,-188,0,0,0,0,0,0,0,0,0,-1,1791,1212,0,0
574,-188,0,0,0,0,0,0,0,0,0,-1,1798,1212,0,0
581,-188,0,0,0,0,0,0,0,0,0,-1,1805,1212,0,0
588,-188,0,0,0,0,0,0,0,0,0,-1,1812,1212,0,0
595,-188,0,0,0,0,0,0,0,0,0,-1,1819,1212,0,0
602,-188,0,0,0,0,0,0,0,0,0,-1,1826,1212,0,0
609,-188,0,0,0,0,0,0,0,0,0,-1,1833,1212,0,0
616,-188,0,0,0,0,0,0,0,0,0,-1,1840,1212,0,0
623,-188,0,0,0,0,0,0,0,0,0,-1,1847,1212,0,0
630,-188,158.904,5.32153,0,0,0,0,0,0,0,-1,1854,1212,158.904,-5.32148
637,-188,158.873,5.3335,0,0,0,0,0,0,0,-1,1861,1212,158.873,-5.33344
644,-188,158.815,5.37866,0,0,0,0,0,0,0,-1,1868,1212,158.815,-5.37872
651,-188,158.752,5.42456,0,0,0,0,0,0,0,-1,1875,1212,158.752,-5.42457
658,-188,158.804,5.43787,0,0,0,0,0,0,0,-1,1882,1212,158.804,-5.43784
665,-188,158.738,5.41931,0,0,0,0,0,0,0,-1,1889,1212,158.738,-5.41934
672,-188,158.692,5.35791,0,0,0,0,0,0,0,-1,1896,1212,158.692,-5.35788
679,-188,143.12,4.60071,0,0,0,0,0,0,0,-1,1903,1212,143.12,-4.60066
686,-188,60.1007,2.41321,0,0,0,0,0,0,0,-1,1910,1212,60.1007,-2.41325
693,-188,35.9054,2.18042,0,0,0,0,0,0,0,-1,1917,1212,35.9054,-2.18038
700,-188,54.452,11.2678,0,0,0,0,0,0,0,-1,1924,1212,54.452,-11.2678
707,-188,87.9962,19.8148,0,0,0,0,0,0,0,-1,1931,1212,87.9962,-19.8148
714,-188,144.853,31.5701,0,0,0,0,0,0,0,-1,1938,1212,144.853,-31.5701
721,-188,144.706,29.951,0,0,0,0,0,0,0,-1,1945,1212,144.706,-29.9511
728,-188,144.6,28.3662,0,0,0,0,0,0,0,-1,1952,1212,144.6,-28.3662
735,-188,144.428,27.25,9.15776e-05,0.00724373,-0.000505085,0.00727922,5.60845e-05,-1.50064,0.00483423,0.0321783,1959,1212,144.429,-27.25
742,-188,144.139,26.0682,-0.00671317,0.0122315,0.00330943,0.0127929,-0.00727465,1.40274,0.0117311,0.0204369,1966,1212,144.139,-26.0682
749,-188,144.034,24.8,-0.0131299,0.017117,0.00717409,0.0187323,-0.0147452,1.34933,0.0193739,0.0200987,1973,1212,144.034,-24.8
756,-188,143.848,23.5836,-0.0192046,0.021896,0.0111342,0.0247184,-0.022027,1.32253,0.0270034,0.0185666,1980,1212,143.848,-23.5836
763,-188,143.656,22.3302,-0.0249755,0.0265613,0.0152403,0.0307308,-0.029145,1.30375,0.0345733,0.0352761,1987,1212,143.656,-22.3303
770,-188,143.442,21.0769,0,0,0,0,0,0,0,-1,1994,1212,143.442,-21.0769
777,-188,112.896,6.17334,0,0,0,0,0,0,0,-1,2001,1212,112.896,-6.17339
784,-188,112.584,4.92078,0,0,0,0,0,0,0,-1,2008,1212,112.585,-4.92083
791,-188,110.442,4.34192,0,0,0,0,0,0,0,-1,2015,1212,110.442,-4.34196
798,-188,109.589,3.68896,0,0,0,0,0,0,0,-1,2022,1212,109.589,-3.68891
805,-188,0,0,0,0,0,0,0,0,0,-1,2029,1212,0,0
812,-188,0,0,0,0,0,0,0,0,0,-1,2036,1212,0,0
-700,-195,0,0,0,0,0,0,0,0,0,-1,524,1219,0,0
-693,-195,0,0,0,0,0,0,0,0,0,-1,531,1219,0,0
-686,-195,0,0,0,0,0,0,0,0,0,-1,538,1219,0,0
-679,-195,-131.102,12.9744,0,0,0,0,0,0,0,-1,545,1219,-131.102,-12.9744
-672,-195,-130.762,13.7637,0,0,0,0,0,0,0,-1,552,1219,-130.762,-13.7637
-665,-195,-130.248,14.4685,0,0,0,0,0,0,0,-1,559,1219,-130.248,-14.4685
-658,-195,-129.977,15.1659,0,0,0,0,0,0,0,-1,566,1219,-129.977,-15.1659
-651,-195,-130.518,19.4866,0,0,0,0,0,0,0,-1,573,1219,-130.518,-19.4866
-644,-195,-127.621,19.9391,0,0,0,0,0,0,0,-1,580,1219,-127.621,-19.9391
-637,-195,-134.296,21.8368,0,0,0,0,0,0,0,-1,587,1219,-134.296,-21.8368
-630,-195,-134.951,22.9237,-0.0269264,0.0296098,-0.01125,0.0317662,-0.0290828,-1.38142,0.0351425,0.0355605,594,1219,-134.951,-22.9237
-623,-195,-135.139,24.1373,-0.0196826,0.0240848,-0.00973382,0.026152,-0.0217498,-1.36154,0.027695,0.0161465,601,1219,-135.139,-24.1374
-616,-195,-135.328,25.3625,-0.0131301,0.0186582,-0.00846395,0.0207713,-0.0152433,-1.32613,0.0208745,0.0135851,608,1219,-135.328,-25.3625
-609,-195,-135.38,26.632,-0.0073118,0.0132695,-0.0074918,0.0157078,-0.00975003,-1.25615,0.0148316,0.0224409,615,1219,-135.38,-26.6319
-602,-195,-135.43,27.8224,-0.00228118,0.00786028,-0.00686941,0.0113278,-0.00574866,-1.10334,0.0100329,0.0365522,622,1219,-135.43,-27.8224
-595,-195,-135.515,29.3778,0,0,0,0,0,0,0,-1,629,1219,-135.515,-29.3778
-588,-195,-79.0808,20.1426,0,0,0,0,0,0,0,-1,636,1219,-79.0808,-20.1426
-581,-195,-79.1722,21.3226,0,0,0,0,0,0,0,-1,643,1219,-79.1723,-21.3226
-574,-195,-50.9985,13.5392,0,0,0,0,0,0,0,-1,650,1219,-50.9985,-13.5392
-567,-195,-20.6388,3.78369,0,0,0,0,0,0,0,-1,657,1219,-20.6388,-3.78369
-560,-195,-20.878,2.10388,0,0,0,0,0,0,0,-1,664,1219,-20.878,-2.10385
-553,-195,-41.595,0.613281,0,0,0,0,0,0,0,-1,671,1219,-41.595,-0.61334
-546,-195,-63.8136,0.917603,0,0,0,0,0,0,0,-1,678,1219,-63.8136,-0.917637
-539,-195,-71.8246,0.420898,0,0,0,0,0,0,0,-1,685,1219,-71.8246,-0.420894
-532,-195,-71.9599,0.428955,0,0,0,0,0,0,0,-1,692,1219,-71.9599,-0.428942
-525,-195,-72.043,0.315674,0,0,0,0,0,0,0,-1,699,1219,-72.043,-0.315645
-518,-195,-72.0127,0.386719,0,0,0,0,0,0,0,-1,706,1219,-72.0127,-0.386762
-511,-195,-71.9944,0.641724,0,0,0,0,0,0,0,-1,713,1219,-71.9944,-0.64174
-504,-195,0,0,0,0,0,0,0,0,0,-1,720,1219,0,0
-497,-195,0,0,0,0,0,0,0,0,0,-1,727,1219,0,0
-490,-195,0,0,0,0,0,0,0,0,0,-1,734,1219,0,0
-483,-195,0,0,0,0,0,0,0,0,0,-1,741,1219,0,0
-476,-195,0,0,0,0,0,0,0,0,0,-1,748,1219,0,0
-469,-195,0,0,0,0,0,0,0,0,0,-1,755,1219,0,0
-462,-195,0,0,0,0,0,0,0,0,0,-1,762,1219,0,0
-455,-195,0,0,0,0,0,0,0,0,0,-1,769,1219,0,0
-448,-195,0,0,0,0,0,0,0,0,0,-1,776,1219,0,0
-441,-195,0,0,0,0,0,0,0,0,0,-1,783,1219,0,0
-434,-195,0,0,0,0,0,0,0,0,0,-1,790,1219,0,0
-427,-195,0,0,0,0,0,0,0,0,0,-1,797,1219,0,0
-420,-195,0,0,0,0,0,0,0,0,0,-1,804,1219,0,0
-413,-195,0,0,0,0,0,0,0,0,0,-1,811,1219,0,0
-406,-195,0,0,0,0,0,0,0,0,0,-1,818,1219,0,0
-399,-195,0,0,0,0,0,0,0,0,0,-1,825,1219,0,0
-392,-195,0,0,0,0,0,0,0,0,0,-1,832,1219,0,0
-385,-195,0,0,0,0,0,0,0,0,0,-1,839,1219,0,0
-378,-195,0,0,0,0,0,0,0,0,0,-1,846,1219,0,0
-371,-195,0,0,0,0,0,0,0,0,0,-1,853,1219,0,0
-364,-195,0,0,0,0,0,0,0,0,0,-1,860,1219,0,0
-357,-195,0,0,0,0,0,0,0,0,0,-1,867,1219,0,0
-350,-195,0,0,0,0,0,0,0,0,0,-1,874,1219,0,0
-343,-195,0,0,0,0,0,0,0,0,0,-1,881,1219,0,0
-336,-195,0,0,0,0,0,0,0,0,0,-1,888,1219,0,0
-329,-195,0,0,0,0,0,0,0,0,0,-1,895,1219,0,0
-322,-195,0,0,0,0,0,0,0,0,0,-1,902,1219,0,0
-315,-195,0,0,0,0,0,0,0,0,0,-1,909,1219,0,0
-308,-195,0,0,0,0,0,0,0,0,0,-1,916,1219,0,0
-301,-195,0,0,0,0,0,0,0,0,0,-1,923,1219,0,0
-294,-195,0,0,0,0,0,0,0,0,0,-1,930,1219,0,0
-287,-195,0,0,0,0,0,0,0,0,0,-1,937,1219,0,0
-280,-195,0,0,0,0,0,0,0,0,0,-1,944,1219,0,0
-273,-195,0,0,0,0,0,0,0,0,0,-1,951,1219,0,0
-266,-195,0,0,0,0,0,0,0,0,0,-1,958,1219,0,0
-259,-195,0,0,0,0,0,0,0,0,0,-1,965,1219,0,0
-252,-195,0,0,0,0,0,0,0,0,0,-1,972,1219,0,0
-245,-195,0,0,0,0,0,0,0,0,0,-1,979,1219,0,0
-238,-195,0,0,0,0,0,0,0,0,0,-1,986,1219,0,0
-231,-195,0,0,0,0,0,0,0,0,0,-1,993,1219,0,0
-224,-195,0,0,0,0,0,0,0,0,0,-1,1000,1219,0,0
-217,-195,0,0,0,0,0,0,0,0,0,-1,1007,1219,0,0
-210,-195,0,0,0,0,0,0,0,0,0,-1,1014,1219,0,0
-203,-195,0,0,0,0,0,0,0,0,0,-1,1021,1219,0,0
-196,-195,0,0,0,0,0,0,0,0,0,-1,1028,1219,0,0
-189,-195,0,0,0,0,0,0,0,0,0,-1,1035,1219,0,0
-182,-195,0,0,0,0,0,0,0,0,0,-1,1042,1219,0,0
-175,-195,0,0,0,0,0,0,0,0,0,-1,1049,1219,0,0
-168,-195,0,0,0,0,0,0,0,0,0,-1,1056,1219,0,0
-161,-195,0,0,0,0,0,0,0,0,0,-1,1063,1219,0,0
-154,-195,0,0,0,0,0,0,0,0,0,-1,1070,1219,0,0
-147,-195,0,0,0,0,0,0,0,0,0,-1,1077,1219,0,0
-140,-195,0,0,0,0,0,0,0,0,0,-1,1084,1219,0,0
-133,-195,0,0,0,0,0,0,0,0,0,-1,1091,1219,0,0
-126,-195,0,0,0,0,0,0,0,0,0,-1,1098,1219,0,0
-119,-195,0,0,0,0,0,0,0,0,0,-1,1105,1219,0,0
-112,-195,0,0,0,0,0,0,0,0,0,-1,1112,1219,0,0
-105,-195,0,0,0,0,0,0,0,0,0,-1,1119,1219,0,0
-98,-195,0,0,0,0,0,0,0,0,0,-1,1126,1219,0,0
-91,-195,0,0,0,0,0,0,0,0,0,-1,1133,1219,0,0
-84,-195,0,0,0,0,0,0,0,0,0,-1,1140,1219,0,0
-77,-195,0,0,0,0,0,0,0,0,0,-1,1147,1219,0,0
-70,-195,0,0,0,0,0,0,0,0,0,-1,1154,1219,0,0
-63,-195,0,0,0,0,0,0,0,0,0,-1,1161,1219,0,0
-56,-195,0,0,0,0,0,0,0,0,0,-1,1168,1219,0,0
-49,-195,0,0,0,0,0,0,0,0,0,-1,1175,1219,0,0
-42,-195,0,0,0,0,0,0,0,0,0,-1,1182,1219,0,0
-35,-195,0,0,0,0,0,0,0,0,0,-1,1189,1219,0,0
-28,-195,0,0,0,0,0,0,0,0,0,-1,1196,1219,0,0
-21,-195,0,0,0,0,0,0,0,0,0,-1,1203,1219,0,0
-14,-195,0,0,0,0,0,0,0,0,0,-1,1210,1219,0,0
-7,-195,0,0,0,0,0,0,0,0,0,-1,1217,1219,0,0
0,-195,0,0,0,0,0,0,0,0,0,-1,1224,1219,0,0
7,-195,0,0,0,0,0,0,0,0,0,-1,1231,1219,0,0
14,-195,0,0,0,0,0,0,0,0,0,-1,1238,1219,0,0
21,-195,0,0,0,0,0,0,0,0,0,-1,1245,1219,0,0
28,-195,0,0,0,0,0,0,0,0,0,-1,1252,1219,0,0
35,-195,0,0,0,0,0,0,0,0,0,-1,1259,1219,0,0
42,-195,0,0,0,0,0,0,0,0,0,-1,1266,1219,0,0
49,-195,0,0,0,0,0,0,0,0,0,-1,1273,1219,0,0
56,-195,0,0,0,0,0,0,0,0,0,-1,1280,1219,0,0
63,-195,0,0,0,0,0,0,0,0,0,-1,1287,1219,0,0
70,-195,0,0,0,0,0,0,0,0,0,-1,1294,1219,0,0
77,-195,0,0,0,0,0,0,0,0,0,-1,1301,1219,0,0
84,-195,0,0,0,0,0,0,0,0,0,-1,1308,1219,0,0
91,-195,0,0,0,0,0,0,0,0,0,-1,1315,1219,0,0
98,-195,0,0,0,0,0,0,0,0,0,-1,1322,1219,0,0
105,-195,0,0,0,0,0,0,0,0,0,-1,1329,1219,0,0
112,-195,0,0,0,0,0,0,0,0,0,-1,1336,1219,0,0
119,-195,0,0,0,0,0,0,0,0,0,-1,1343,1219,0,0
126,-195,0,0,0,0,0,0,0,0,0,-1,1350,1219,0,0
133,-195,0,0,0,0,0,0,0,0,0,-1,1357,1219,0,0
140,-195,0,0,0,0,0,0,0,0,0,-1,1364,1219,0,0
147,-195,0,0,0,0,0,0,0,0,0,-1,1371,1219,0,0
154,-195,0,0,0,0,0,0,0,0,0,-1,1378,1219,0,0
161,-195,0,0,0,0,0,0,0,0,0,-1,1385,1219,0,0
168,-195,0,0,0,0,0,0,0,0,0,-1,1392,1219,0,0
175,-195,0,0,0,0,0,0,0,0,0,-1,1399,1219,0,0
182,-195,0,0,0,0,0,0,0,0,0,-1,1406,1219,0,0
189,-195,0,0,0,0,0,0,0,0,0,-1,1413,1219,0,0
196,-195,0,0,0,0,0,0,0,0,0,-1,1420,1219,0,0
203,-195,0,0,0,0,0,0,0,0,0,-1,1427,1219,0,0
210,-195,0,0,0,0,0,0,0,0,0,-1,1434,1219,0,0
217,-195,0,0,0,0,0,0,0,0,0,-1,1441,1219,0,0
224,-195,0,0,0,0,0,0,0,0,0,-1,1448,1219,0,0
231,-195,0,0,0,0,0,0,0,0,0,-1,1455,1219,0,0
238,-195,0,0,0,0,0,0,0,0,0,-1,1462,1219,0,0
245,-195,0,0,0,0,0,0,0,0,0,-1,1469,1219,0,0
252,-195,0,0,0,0,0,0,0,0,0,-1,1476,1219,0,0
259,-195,0,0,0,0,0,0,0,0,0,-1,1483,1219,0,0
266,-195,0,0,0,0,0,0,0,0,0,-1,1490,1219,0,0
273,-195,0,0,0,0,0,0,0,0,0,-1,1497,1219,0,0
280,-195,0,0,0,0,0,0,0,0,0,-1,1504,1219,0,0
287,-195,0,0,0,0,0,0,0,0,0,-1,1511,1219,0,0
294,-195,0,0,0,0,0,0,0,0,0,-1,1518,1219,0,0
301,-195,0,0,0,0,0,0,0,0,0,-1,1525,1219,0,0
308,-195,0,0,0,0,0,0,0,0,0,-1,1532,1219,0,0
315,-195,0,0,0,0,0,0,0,0,0,-1,1539,1219,0,0
322,-195,0,0,0,0,0,0,0,0,0,-1,1546,1219,0,0
329,-195,0,0,0,0,0,0,0,0,0,-1,1553,1219,0,0
336,-195,0,0,0,0,0,0,0,0,0,-1,1560,1219,0,0
343,-195,0,0,0,0,0,0,0,0,0,-1,1567,1219,0,0
350,-195,0,0,0,0,0,0,0,0,0,-1,1574,1219,0,0
357,-195,0,0,0,0,0,0,0,0,0,-1,1581,1219,0,0
364,-195,0,0,0,0,0,0,0,0,0,-1,1588,1219,0,0
371,-195,0,0,0,0,0,0,0,0,0,-1,1595,1219,0,0
378,-195,0,0,0,0,0,0,0,0,0,-1,1602,1219,0,0
385,-195,0,0,0,0,0,0,0,0,0,-1,1609,1219,0,0
392,-195,0,0,0,0,0,0,0,0,0,-1,1616,1219,0,0
399,-195,0,0,0,0,0,0,0,0,0,-1,1623,1219,0,0
406,-195,0,0,0,0,0,0,0,0,0,-1,1630,1219,0,0
413,-195,0,0,0,0,0,0,0,0,0,-1,1637,1219,0,0
420,-195,0,0,0,0,0,0,0,0,0,-1,1644,1219,0,0
427,-195,0,0,0,0,0,0,0,0,0,-1,1651,1219,0,0
434,-195,0,0,0,0,0,0,0,0,0,-1,1658,1219,0,0
441,-195,0,0,0,0,0,0,0,0,0,-1,1665,1219,0,0
448,-195,0,0,0,0,0,0,0,0,0,-1,1672,1219,0,0
455,-195,0,0,0,0,0,0,0,0,0,-1,1679,1219,0,0
462,-195,0,0,0,0,0,0,0,0,0,-1,1686,1219,0,0
469,-195,0,0,0,0,0,0,0,0,0,-1,1693,1219,0,0
476,-195,0,0,0,0,0,0,0,0,0,-1,1700,1219,0,0
483,-195,0,0,0,0,0,0,0,0,0,-1,1707,1219,0,0
490,-195,0,0,0,0,0,0,0,0,0,-1,1714,1219,0,0
497,-195,0,0,0,0,0,0,0,0,0,-1,1721,1219,0,0
504,-195,0,0,0,0,0,0,0,0,0,-1,1728,1219,0,0
511,-195,0,0,0,0,0,0,0,0,0,-1,1735,1219,0,0
518,-195,0,0,0,0,0,0,0,0,0,-1,1742,1219,0,0
525,-195,0,0,0,0,0,0,0,0,0,-1,1749,1219,0,0
532,-195,0,0,0,0,0,0,0,0,0,-1,1756,1219,0,0
539,-195,0,0,0,0,0,0,0,0,0,-1,1763,1219,0,0
546,-195,0,0,0,0,0,0,0,0,0,-1,1770,1219,0,0
553,-195,0,0,0,0,0,0,0,0,0,-1,1777,1219,0,0
560,-195,0,0,0,0,0,0,0,0,0,-1,1784,1219,0,0
567,-195,0,0,0,0,0,0,0,0,0,-1,1791,1219,0,0
574,-195,0,0,0,0,0,0,0,0,0,-1,1798,1219,0,0
581,-195,0,0,0,0,0,0,0,0,0,-1,1805,1219,0,0
588,-195,0,0,0,0,0,0,0,0,0,-1,1812,1219,0,0
595,-195,0,0,0,0,0,0,0,0,0,-1,1819,1219,0,0
602,-195,0,0,0,0,0,0,0,0,0,-1,1826,1219,0,0
609,-195,0,0,0,0,0,0,0,0,0,-1,1833,1219,0,0
616,-195,0,0,0,0,0,0,0,0,0,-1,1840,1219,0,0
623,-195,0,0,0,0,0,0,0,0,0,-1,1847,1219,0,0
630,-195,158.871,5.48315,0,0,0,0,0,0,0,-1,1854,1219,158.871,-5.48313
637,-195,158.806,5.39197,0,0,0,0,0,0,0,-1,1861,1219,158.806,-5.39202
644,-195,158.741,5.35242,0,0,0,0,0,0,0,-1,1868,1219,158.741,-5.35237
651,-195,158.752,5.40332,0,0,0,0,0,0,0,-1,1875,1219,158.752,-5.40334
658,-195,158.794,5.4176,0,0,0,0,0,0,0,-1,1882,1219,158.794,-5.41765
665,-195,158.803,5.33899,0,0,0,0,0,0,0,-1,1889,1219,158.803,-5.339
672,-195,158.859,5.14014,0,0,0,0,0,0,0,-1,1896,1219,158.859,-5.14019
679,-195,88.1234,1.78857,0,0,0,0,0,0,0,-1,1903,1219,88.1234,-1.78854
686,-195,51.2117,1.94312,0,0,0,0,0,0,0,-1,1910,1219,51.2117,-1.9431
693,-195,24.4368,5.68298,0,0,0,0,0,0,0,-1,1917,1219,24.4368,-5.68293
700,-195,68.4086,14.5306,0,0,0,0,0,0,0,-1,1924,1219,68.4086,-14.5306
707,-195,75.7532,15.8331,0,0,0,0,0,0,0,-1,1931,1219,75.7532,-15.8332
714,-195,143.573,31.6188,0,0,0,0,0,0,0,-1,1938,1219,143.573,-31.6188
721,-195,143.395,30.2214,0.0116238,-0.00290593,-0.00661821,0.0141864,-0.00546853,-0.369427,0.0117139,0.0442995,1945,1219,143.395,-30.2214
728,-195,143.483,28.7776,0.00454015,0.0025424,-0.00280109,0.00651513,0.00056741,-0.614126,0.00416718,0.0302117,1952,1219,143.483,-28.7776
735,-195,143.152,27.326,-0.00220728,0.00783493,0.00110481,0.00795504,-0.00232739,1.46251,0.00622589,0.0292832,1959,1219,143.152,-27.326
742,-195,142.879,26.0256,-0.00870625,0.0129917,0.00499607,0.0140868,-0.00980135,1.35502,0.0138656,0.0207806,1966,1219,142.879,-26.0256
749,-195,142.675,24.7845,-0.0149484,0.0180102,0.00890531,0.0202624,-0.0172007,1.32308,0.0216534,0.0195924,1973,1219,142.675,-24.7846
756,-195,142.438,23.5786,-0.0209654,0.0228847,0.012879,0.0263875,-0.0244682,1.30524,0.0293686,0.0209683,1980,1219,142.438,-23.5786
763,-195,142.152,22.2587,-0.0268103,0.0275887,0.0169546,0.0324402,-0.0316619,1.29209,0.0370103,0.0439056,1987,1219,142.152,-22.2586
770,-195,141.918,20.9155,0,0,0,0,0,0,0,-1,1994,1219,141.918,-20.9155
777,-195,67.0903,5.65259,0,0,0,0,0,0,0,-1,2001,1219,67.0904,-5.65253
784,-195,113.331,5.10986,0,0,0,0,0,0,0,-1,2008,1219,113.331,-5.10985
791,-195,68.9104,-1.24268,0,0,0,0,0,0,0,-1,2015,1219,68.9103,1.24264
798,-195,66.05,2.49902,0,0,0,0,0,0,0,-1,2022,1219,66.0501,-2.499
805,-195,0,0,0,0,0,0,0,0,0,-1,2029,1219,0,0
812,-195,0,0,0,0,0,0,0,0,0,-1,2036,1219,0,0
-700,-202,0,0,0,0,0,0,0,0,0,-1,524,1226,0,0
-693,-202,0,0,0,0,0,0,0,0,0,-1,531,1226,0,0
-686,-202,0,0,0,0,0,0,0,0,0,-1,538,1226,0,0
-679,-202,-133.24,13.6667,0,0,0,0,0,0,0,-1,545,1226,-133.24,-13.6667
-672,-202,-133.265,14.934,0,0,0,0,0,0,0,-1,552,1226,-133.265,-14.9339
-665,-202,-133.366,16.2468,0,0,0,0,0,0,0,-1,559,1226,-133.366,-16.2468
-658,-202,-133.212,17.5051,0,0,0,0,0,0,0,-1,566,1226,-133.212,-17.5052
-651,-202,-126.897,18.9121,0,0,0,0,0,0,0,-1,573,1226,-126.897,-18.9121
-644,-202,-53.0106,6.29651,0,0,0,0,0,0,0,-1,580,1226,-53.0105,-6.29651
-637,-202,-89.9309,14.75,0,0,0,0,0,0,0,-1,587,1226,-89.9309,-14.75
-630,-202,-133.398,22.8026,0,0,0,0,0,0,0,-1,594,1226,-133.398,-22.8026
-623,-202,-133.834,24.149,-0.0194643,0.0246474,-0.00965241,0.026667,-0.021484,-1.36453,0.0278536,0.0159155,601,1226,-133.834,-24.1491
-616,-202,-133.979,25.3789,-0.0140307,0.0190772,-0.00900474,0.0213678,-0.0163214,-1.3217,0.0218248,0.0111626,608,1226,-133.979,-25.3789
-609,-202,-134.05,26.6897,-0.00949072,0.0134634,-0.00848134,0.0162572,-0.0122845,-1.25259,0.0165316,0.0275161,615,1226,-134.05,-26.6897
-602,-202,-134.19,27.7799,-0.00578986,0.00782484,-0.00806254,0.0115695,-0.0095345,-1.13599,0.0122033,0.0429605,622,1226,-134.19,-27.7799
-595,-202,-134.189,28.8567,0,0,0,0,0,0,0,-1,629,1226,-134.189,-28.8567
-588,-202,-77.8618,20.3673,0,0,0,0,0,0,0,-1,636,1226,-77.8618,-20.3673
-581,-202,-77.893,21.4277,0,0,0,0,0,0,0,-1,643,1226,-77.893,-21.4278
-574,-202,-77.9501,22.582,0,0,0,0,0,0,0,-1,650,1226,-77.9501,-22.5821
-567,-202,-22.1768,4.56995,0,0,0,0,0,0,0,-1,657,1226,-22.1768,-4.56991
-560,-202,-10.929,2.73096,0,0,0,0,0,0,0,-1,664,1226,-10.929,-2.73092
-553,-202,-30.2701,1.474,0,0,0,0,0,0,0,-1,671,1226,-30.2701,-1.47395
-546,-202,-53.2803,0.580933,0,0,0,0,0,0,0,-1,678,1226,-53.2803,-0.580945
-539,-202,-71.7885,0.485962,0,0,0,0,0,0,0,-1,685,1226,-71.7885,-0.486007
-532,-202,-71.8226,0.46228,0,0,0,0,0,0,0,-1,692,1226,-71.8226,-0.462257
-525,-202,-71.8826,0.379639,0,0,0,0,0,0,0,-1,699,1226,-71.8826,-0.379652
-518,-202,-72.0466,0.453613,0,0,0,0,0,0,0,-1,706,1226,-72.0466,-0.453633
-511,-202,-72.2618,0.686035,0,0,0,0,0,0,0,-1,713,1226,-72.2618,-0.686083
-504,-202,0,0,0,0,0,0,0,0,0,-1,720,1226,0,0
-497,-202,0,0,0,0,0,0,0,0,0,-1,727,1226,0,0
-490,-202,0,0,0,0,0,0,0,0,0,-1,734,1226,0,0
-483,-202,0,0,0,0,0,0,0,0,0,-1,741,1226,0,0
-476,-202,0,0,0,0,0,0,0,0,0,-1,748,1226,0,0
-469,-202,0,0,0,0,0,0,0,0,0,-1,755,1226,0,0
-462,-202,0,0,0,0,0,0,0,0,0,-1,762,1226,0,0
-455,-202,0,0,0,0,0,0,0,0,0,-1,769,1226,0,0
-448,-202,0,0,0,0,0,0,0,0,0,-1,776,1226,0,0
-441,-202,0,0,0,0,0,0,0,0,0,-1,783,1226,0,0
-434,-202,0,0,0,0,0,0,0,0,0,-1,790,1226,0,0
-427,-202,0,0,0,0,0,0,0,0,0,-1,797,1226,0,0
-420,-202,0,0,0,0,0,0,0,0,0,-1,804,1226,0,0
-413,-202,0,0,0,0,0,0,0,0,0,-1,811,1226,0,0
-406,-202,0,0,0,0,0,0,0,0,0,-1,818,1226,0,0
-399,-202,0,0,0,0,0,0,0,0,0,-1,825,1226,0,0
-392,-202,0,0,0,0,0,0,0,0,0,-1,832,1226,0,0
-385,-202,0,0,0,0,0,0,0,0,0,-1,839,1226,0,0
-378,-202,0,0,0,0,0,0,0,0,0,-1,846,1226,0,0
-371,-202,0,0,0,0,0,0,0,0,0,-1,853,1226,0,0
-364,-202,0,0,0,0,0,0,0,0,0,-1,860,1226,0,0
-357,-202,0,0,0,0,0,0,0,0,0,-1,867,1226,0,0
-350,-202,0,0,0,0,0,0,0,0,0,-1,874,1226,0,0
-343,-202,0,0,0,0,0,0,0,0,0,-1,881,1226,0,0
-336,-202,0,0,0,0,0,0,0,0,0,-1,888,1226,0,0
-329,-202,0,0,0,0,0,0,0,0,0,-1,895,1226,0,0
-322,-202,0,0,0,0,0,0,0,0,0,-1,902,1226,0,0
-315,-202,0,0,0,0,0,0,0,0,0,-1,909,1226,0,0
-308,-202,0,0,0,0,0,0,0,0,0,-1,916,1226,0,0
-301,-202,0,0,0,0,0,0,0,0,0,-1,923,1226,0,0
-294,-202,0,0,0,0,0,0,0,0,0,-1,930,1226,0,0
-287,-202,0,0,0,0,0,0,0,0,0,-1,937,1226,0,0
-280,-202,0,0,0,0,0,0,0,0,0,-1,944,1226,0,0
-273,-202,0,0,0,0,0,0,0,0,0,-1,951,1226,0,0
-266,-202,0,0,0,0,0,0,0,0,0,-1,958,1226,0,0
-259,-202,0,0,0,0,0,0,0,0,0,-1,965,1226,0,0
-252,-202,0,0,0,0,0,0,0,0,0,-1,972,1226,0,0
-245,-202,0,0,0,0,0,0,0,0,0,-1,979,1226,0,0
-238,-202,0,0,0,0,0,0,0,0,0,-1,986,1226,0,0
-231,-202,0,0,0,0,0,0,0,0,0,-1,993,1226,0,0
-224,-202,0,0,0,0,0,0,0,0,0,-1,1000,1226,0,0
-217,-202,0,0,0,0,0,0,0,0,0,-1,1007,1226,0,0
-210,-202,0,0,0,0,0,0,0,0,0,-1,1014,1226,0,0
-203,-202,0,0,0,0,0,0,0,0,0,-1,1021,1226,0,0
-196,-202,0,0,0,0,0,0,0,0,0,-1,1028,1226,0,0
-189,-202,0,0,0,0,0,0,0,0,0,-1,1035,1226,0,0
-182,-202,0,0,0,0,0,0,0,0,0,-1,1042,1226,0,0
-175,-202,0,0,0,0,0,0,0,0,0,-1,1049,1226,0,0
-168,-202,0,0,0,0,0,0,0,0,0,-1,1056,1226,0,0
-161,-202,0,0,0,0,0,0,0,0,0,-1,1063,1226,0,0
-154,-202,0,0,0,0,0,0,0,0,0,-1,1070,1226,0,0
-147,-202,0,0,0,0,0,0,0,0,0,-1,1077,1226,0,0
-140,-202,0,0,0,0,0,0,0,0,0,-1,1084,1226,0,0
-133,-202,0,0,0,0,0,0,0,0,0,-1,1091,1226,0,0
-126,-202,0,0,0,0,0,0,0,0,0,-1,1098,1226,0,0
-119,-202,0,0,0,0,0,0,0,0,0,-1,1105,1226,0,0
-112,-202,0,0,0,0,0,0,0,0,0,-1,1112,1226,0,0
-105,-202,0,0,0,0,0,0,0,0,0,-1,1119,1226,0,0
-98,-202,0,0,0,0,0,0,0,0,0,-1,1126,1226,0,0
-91,-202,0,0,0,0,0,0,0,0,0,-1,1133,1226,0,0
-84,-202,0,0,0,0,0,0,0,0,0,-1,1140,1226,0,0
-77,-202,0,0,0,0,0,0,0,0,0,-1,1147,1226,0,0
-70,-202,0,0,0,0,0,0,0,0,0,-1,1154,1226,0,0
-63,-202,0,0,0,0,0,0,0,0,0,-1,1161,1226,0,0
-56,-202,0,0,0,0,0,0,0,0,0,-1,1168,1226,0,0
-49,-202,0,0,0,0,0,0,0,0,0,-1,1175,1226,0,0
-42,-202,0,0,0,0,0,0,0,0,0,-1,1182,1226,0,0
-35,-202,0,0,0,0,0,0,0,0,0,-1,1189,1226,0,0
-28,-202,0,0,0,0,0,0,0,0,0,-1,1196,1226,0,0
-21,-202,0,0,0,0,0,0,0,0,0,-1,1203,1226,0,0
-14,-202,0,0,0,0,0,0,0,0,0,-1,1210,1226,0,0
-7,-202,0,0,0,0,0,0,0,0,0,-1,1217,1226,0,0
0,-202,0,0,0,0,0,0,0,0,0,-1,1224,1226,0,0
7,-202,0,0,0,0,0,0,0,0,0,-1,1231,1226,0,0
14,-202,0,0,0,0,0,0,0,0,0,-1,1238,1226,0,0
21,-202,0,0,0,0,0,0,0,0,0,-1,1245,1226,0,0
28,-202,0,0,0,0,0,0,0,0,0,-1,1252,1226,0,0
35,-202,0,0,0,0,0,0,0,0,0,-1,1259,1226,0,0
42,-202,0,0,0,0,0,0,0,0,0,-1,1266,1226,0,0
49,-202,0,0,0,0,0,0,0,0,0,-1,1273,1226,0,0
56,-202,0,0,0,0,0,0,0,0,0,-1,1280,1226,0,0
63,-202,0,0,0,0,0,0,0,0,0,-1,1287,1226,0,0
70,-202,0,0,0,0,0,0,0,0,0,-1,1294,1226,0,0
77,-202,0,0,0,0,0,0,0,0,0,-1,1301,1226,0,0
84,-202,0,0,0,0,0,0,0,0,0,-1,1308,1226,0,0
91,-202,0,0,0,0,0,0,0,0,0,-1,1315,1226,0,0
98,-202,0,0,0,0,0,0,0,0,0,-1,1322,1226,0,0
105,-202,0,0,0,0,0,0,0,0,0,-1,1329,1226,0,0
112,-202,0,0,0,0,0,0,0,0,0,-1,1336,1226,0,0
119,-202,0,0,0,0,0,0,0,0,0,-1,1343,1226,0,0
126,-202,0,0,0,0,0,0,0,0,0,-1,1350,1226,0,0
133,-202,0,0,0,0,0,0,0,0,0,-1,1357,1226,0,0
140,-202,0,0,0,0,0,0,0,0,0,-1,1364,1226,0,0
147,-202,0,0,0,0,0,0,0,0,0,-1,1371,1226,0,0
154,-202,0,0,0,0,0,0,0,0,0,-1,1378,1226,0,0
161,-202,0,0,0,0,0,0,0,0,0,-1,1385,1226,0,0
168,-202,0,0,0,0,0,0,0,0,0,-1,1392,1226,0,0
175,-202,0,0,0,0,0,0,0,0,0,-1,1399,1226,0,0
182,-202,0,0,0,0,0,0,0,0,0,-1,1406,1226,0,0
189,-202,0,0,0,0,0,0,0,0,0,-1,1413,1226,0,0
196,-202,0,0,0,0,0,0,0,0,0,-1,1420,1226,0,0
203,-202,0,0,0,0,0,0,0,0,0,-1,1427,1226,0,0
210,-202,0,0,0,0,0,0,0,0,0,-1,1434,1226,0,0
217,-202,0,0,0,0,0,0,0,0,0,-1,1441,1226,0,0
224,-202,0,0,0,0,0,0,0,0,0,-1,1448,1226,0,0
231,-202,0,0,0,0,0,0,0,0,0,-1,1455,1226,0,0
238,-202,0,0,0,0,0,0,0,0,0,-1,1462,1226,0,0
245,-202,0,0,0,0,0,0,0,0,0,-1,1469,1226,0,0
252,-202,0,0,0,0,0,0,0,0,0,-1,1476,1226,0,0
259,-202,0,0,0,0,0,0,0,0,0,-1,1483,1226,0,0
266,-202,0,0,0,0,0,0,0,0,0,-1,1490,1226,0,0
273,-202,0,0,0,0,0,0,0,0,0,-1,1497,1226,0,0
280,-202,0,0,0,0,0,0,0,0,0,-1,1504,1226,0,0
287,-202,0,0,0,0,0,0,0,0,0,-1,1511,1226,0,0
294,-202,0,0,0,0,0,0,0,0,0,-1,1518,1226,0,0
301,-202,0,0,0,0,0,0,0,0,0,-1,1525,1226,0,0
308,-202,0,0,0,0,0,0,0,0,0,-1,1532,1226,0,0
315,-202,0,0,0,0,0,0,0,0,0,-1,1539,1226,0,0
322,-202,0,0,0,0,0,0,0,0,0,-1,1546,1226,0,0
329,-202,0,0,0,0,0,0,0,0,0,-1,1553,1226,0,0
336,-202,0,0,0,0,0,0,0,0,0,-1,1560,1226,0,0
343,-202,0,0,0,0,0,0,0,0,0,-1,1567,1226,0,0
350,-202,0,0,0,0,0,0,0,0,0,-1,1574,1226,0,0
357,-202,0,0,0,0,0,0,0,0,0,-1,1581,1226,0,0
364,-202,0,0,0,0,0,0,0,0,0,-1,1588,1226,0,0
371,-202,0,0,0,0,0,0,0,0,0,-1,1595,1226,0,0
378,-202,0,0,0,0,0,0,0,0,0,-1,1602,1226,0,0
385,-202,0,0,0,0,0,0,0,0,0,-1,1609,1226,0,0
392,-202,0,0,0,0,0,0,0,0,0,-1,1616,1226,0,0
399,-202,0,0,0,0,0,0,0,0,0,-1,1623,1226,0,0
406,-202,0,0,0,0,0,0,0,0,0,-1,1630,1226,0,0
413,-202,0,0,0,0,0,0,0,0,0,-1,1637,1226,0,0
420,-202,0,0,0,0,0,0,0,0,0,-1,1644,1226,0,0
427,-202,0,0,0,0,0,0,0,0,0,-1,1651,1226,0,0
434,-202,0,0,0,0,0,0,0,0,0,-1,1658,1226,0,0
441,-202,0,0,0,0,0,0,0,0,0,-1,1665,1226,0,0
448,-202,0,0,0,0,0,0,0,0,0,-1,1672,1226,0,0
455,-202,0,0,0,0,0,0,0,0,0,-1,1679,1226,0,0
462,-202,0,0,0,0,0,0,0,0,0,-1,1686,1226,0,0
469,-202,0,0,0,0,0,0,0,0,0,-1,1693,1226,0,0
476,-202,0,0,0,0,0,0,0,0,0,-1,1700,1226,0,0
483,-202,0,0,0,0,0,0,0,0,0,-1,1707,1226,0,0
490,-202,0,0,0,0,0,0,0,0,0,-1,1714,1226,0,0
497,-202,0,0,0,0,0,0,0,0,0,-1,1721,1226,0,0
504,-202,0,0,0,0,0,0,0,0,0,-1,1728,1226,0,0
511,-202,0,0,0,0,0,0,0,0,0,-1,1735,1226,0,0
518,-202,0,0,0,0,0,0,0,0,0,-1,1742,1226,0,0
525,-202,0,0,0,0,0,0,0,0,0,-1,1749,1226,0,0
532,-202,0,0,0,0,0,0,0,0,0,-1,1756,1226,0,0
539,-202,0,0,0,0,0,0,0,0,0,-1,1763,1226,0,0
546,-202,0,0,0,0,0,0,0,0,0,-1,1770,1226,0,0
553,-202,0,0,0,0,0,0,0,0,0,-1,1777,1226,0,0
560,-202,0,0,0,0,0,0,0,0,0,-1,1784,1226,0,0
567,-202,0,0,0,0,0,0,0,0,0,-1,1791,1226,0,0
574,-202,0,0,0,0,0,0,0,0,0,-1,1798,1226,0,0
581,-202,0,0,0,0,0,0,0,0,0,-1,1805,1226,0,0
588,-202,0,0,0,0,0,0,0,0,0,-1,1812,1226,0,0
595,-202,0,0,0,0,0,0,0,0,0,-1,1819,1226,0,0
602,-202,0,0,0,0,0,0,0,0,0,-1,1826,1226,0,0
609,-202,0,0,0,0,0,0,0,0,0,-1,1833,1226,0,0
616,-202,0,0,0,0,0,0,0,0,0,-1,1840,1226,0,0
623,-202,0,0,0,0,0,0,0,0,0,-1,1847,1226,0,0
630,-202,158.823,5.64941,0,0,0,0,0,0,0,-1,1854,1226,158.823,-5.64947
637,-202,158.871,5.58435,0,0,0,0,0,0,0,-1,1861,1226,158.871,-5.58435
644,-202,158.8,5.39587,0,0,0,0,0,0,0,-1,1868,1226,158.8,-5.39582
651,-202,158.771,5.33972,0,0,0,0,0,0,0,-1,1875,1226,158.771,-5.33972
658,-202,158.763,5.37952,0,0,0,0,0,0,0,-1,1882,1226,158.763,-5.37958
665,-202,158.859,5.37305,0,0,0,0,0,0,0,-1,1889,1226,158.859,-5.37303
672,-202,159.067,5.23181,0,0,0,0,0,0,0,-1,1896,1226,159.067,-5.23187
679,-202,72.3511,2.32935,0,0,0,0,0,0,0,-1,1903,1226,72.3511,-2.32932
686,-202,49.1708,2.15198,0,0,0,0,0,0,0,-1,1910,1226,49.1708,-2.15195
693,-202,52.1176,12.0886,0,0,0,0,0,0,0,-1,1917,1226,52.1176,-12.0886
700,-202,74.741,16.6233,0,0,0,0,0,0,0,-1,1924,1226,74.741,-16.6233
707,-202,92.8003,22.7876,0,0,0,0,0,0,0,-1,1931,1226,92.8003,-22.7876
714,-202,142.129,32.1278,0,0,0,0,0,0,0,-1,1938,1226,142.129,-32.1278
721,-202,142.146,30.526,0.00877721,-0.00215942,-0.00579804,0.0112788,-0.00466103,-0.407328,0.00946357,0.0354047,1945,1226,142.146,-30.5259
728,-202,142.094,28.8757,0.00206382,0.00335071,-0.00162873,0.00445849,0.000956039,-0.973518,0.00271044,0.0255222,1952,1226,142.094,-28.8757
735,-202,141.723,27.464,-0.00453194,0.00872082,0.00257595,0.0092039,-0.00501502,1.38541,0.00832719,0.0221107,1959,1226,141.723,-27.464
742,-202,141.431,26.1267,-0.0109904,0.0139521,0.00675946,0.0156661,-0.0127044,1.32245,0.0164095,0.0189709,1966,1226,141.431,-26.1266
749,-202,141.152,24.8986,-0.0172726,0.0190346,0.0109383,0.0220753,-0.0203133,1.29965,0.0244801,0.0205049,1973,1226,141.152,-24.8986
756,-202,140.987,23.5887,-0.0234089,0.0239542,0.0151578,0.0283899,-0.0278446,1.28612,0.0324675,0.020374,1980,1226,140.987,-23.5888
763,-202,140.872,22.3004,-0.0294785,0.0286647,0.0194198,0.0345544,-0.0353682,1.27633,0.0403707,0.0441768,1987,1226,140.872,-22.3005
770,-202,140.63,21.1389,0,0,0,0,0,0,0,-1,1994,1226,140.63,-21.1389
777,-202,67.5615,-0.236572,0,0,0,0,0,0,0,-1,2001,1226,67.5615,0.236573
784,-202,66.7117,0.754517,0,0,0,0,0,0,0,-1,2008,1226,66.7118,-0.754543
791,-202,66.512,1.74207,0,0,0,0,0,0,0,-1,2015,1226,66.512,-1.74201
798,-202,51.8999,3.58789,0,0,0,0,0,0,0,-1,2022,1226,51.9,-3.58791
805,-202,0,0,0,0,0,0,0,0,0,-1,2029,1226,0,0
812,-202,0,0,0,0,0,0,0,0,0,-1,2036,1226,0,0
-700,-209,0,0,0,0,0,0,0,0,0,-1,524,1233,0,0
-693,-209,0,0,0,0,0,0,0,0,0,-1,531,1233,0,0
-686,-209,0,0,0,0,0,0,0,0,0,-1,538,1233,0,0
-679,-209,-132.926,13.704,0,0,0,0,0,0,0,-1,545,1233,-132.926,-13.704
-672,-209,-132.465,15.028,0,0,0,0,0,0,0,-1,552,1233,-132.465,-15.028
-665,-209,-132.623,16.0931,0,0,0,0,0,0,0,-1,559,1233,-132.623,-16.0931
-658,-209,-132.543,17.2954,0,0,0,0,0,0,0,-1,566,1233,-132.543,-17.2955
-651,-209,-48.544,5.83411,0,0,0,0,0,0,0,-1,573,1233,-48.544,-5.83409
-644,-209,-64.1546,-2.03052,0,0,0,0,0,0,0,-1,580,1233,-64.1546,2.03054
-637,-209,-93.7946,16.2063,0,0,0,0,0,0,0,-1,587,1233,-93.7946,-16.2063
-630,-209,-131.662,22.7406,0,0,0,0,0,0,0,-1,594,1233,-131.662,-22.7406
-623,-209,-132.357,24.116,-0.0190326,0.0256973,-0.00961914,0.0276782,-0.0210134,-1.36771,0.0281998,0.0230471,601,1233,-132.357,-24.116
-616,-209,-132.559,25.3447,-0.0146708,0.0198097,-0.00935625,0.0221849,-0.017046,-1.32219,0.0227146,0.0149637,608,1233,-132.559,-25.3448
-609,-209,-132.753,26.6256,-0.0108845,0.0138885,-0.00871033,0.0166445,-0.0136405,-1.26436,0.0175137,0.0180983,615,1233,-132.753,-26.6256
-602,-209,-132.804,27.9863,-0.00757201,0.00804212,-0.00772071,0.011215,-0.0107449,-1.18088,0.0126795,0.0367592,622,1233,-132.804,-27.9864
-595,-209,-132.689,29.1934,0,0,0,0,0,0,0,-1,629,1233,-132.689,-29.1934
-588,-209,-76.5599,20.4441,0,0,0,0,0,0,0,-1,636,1233,-76.5598,-20.4441
-581,-209,-76.5614,21.6544,0,0,0,0,0,0,0,-1,643,1233,-76.5614,-21.6544
-574,-209,-76.64,22.7886,0,0,0,0,0,0,0,-1,650,1233,-76.6399,-22.7886
-567,-209,-76.9697,24.0137,0,0,0,0,0,0,0,-1,657,1233,-76.9698,-24.0137
-560,-209,-13.9294,4.16626,0,0,0,0,0,0,0,-1,664,1233,-13.9294,-4.16621
-553,-209,-22.7542,0.748779,0,0,0,0,0,0,0,-1,671,1233,-22.7541,-0.748796
-546,-209,-44.691,0.142822,0,0,0,0,0,0,0,-1,678,1233,-44.6911,-0.142844
-539,-209,-65.5246,0.622681,0,0,0,0,0,0,0,-1,685,1233,-65.5246,-0.622625
-532,-209,-71.7545,0.510864,0,0,0,0,0,0,0,-1,692,1233,-71.7545,-0.510841
-525,-209,-71.8335,0.54895,0,0,0,0,0,0,0,-1,699,1233,-71.8335,-0.548929
-518,-209,-72.0107,0.633545,0,0,0,0,0,0,0,-1,706,1233,-72.0108,-0.633602
-511,-209,-72.1729,0.666382,0,0,0,0,0,0,0,-1,713,1233,-72.1729,-0.666353
-504,-209,0,0,0,0,0,0,0,0,0,-1,720,1233,0,0
-497,-209,0,0,0,0,0,0,0,0,0,-1,727,1233,0,0
-490,-209,0,0,0,0,0,0,0,0,0,-1,734,1233,0,0
-483,-209,0,0,0,0,0,0,0,0,0,-1,741,1233,0,0
-476,-209,0,0,0,0,0,0,0,0,0,-1,748,1233,0,0
-469,-209,0,0,0,0,0,0,0,0,0,-1,755,1233,0,0
-462,-209,0,0,0,0,0,0,0,0,0,-1,762,1233,0,0
-455,-209,0,0,0,0,0,0,0,0,0,-1,769,1233,0,0
-448,-209,0,0,0,0,0,0,0,0,0,-1,776,1233,0,0
-441,-209,0,0,0,0,0,0,0,0,0,-1,783,1233,0,0
-434,-209,0,0,0,0,0,0,0,0,0,-1,790,1233,0,0
-427,-209,0,0,0,0,0,0,0,0,0,-1,797,1233,0,0
-420,-209,0,0,0,0,0,0,0,0,0,-1,804,1233,0,0
-413,-209,0,0,0,0,0,0,0,0,0,-1,811,1233,0,0
-406,-209,0,0,0,0,0,0,0,0,0,-1,818,1233,0,0
-399,-209,0,0,0,0,0,0,0,0,0,-1,825,1233,0,0
-392,-209,0,0,0,0,0,0,0,0,0,-1,832,1233,0,0
-385,-209,0,0,0,0,0,0,0,0,0,-1,839,1233,0,0
-378,-209,0,0,0,0,0,0,0,0,0,-1,846,1233,0,0
-371,-209,0,0,0,0,0,0,0,0,0,-1,853,1233,0,0
-364,-209,0,0,0,0,0,0,0,0,0,-1,860,1233,0,0
-357,-209,0,0,0,0,0,0,0,0,0,-1,867,1233,0,0
-350,-209,0,0,0,0,0,0,0,0,0,-1,874,1233,0,0
-343,-209,0,0,0,0,0,0,0,0,0,-1,881,1233,0,0
-336,-209,0,0,0,0,0,0,0,0,0,-1,888,1233,0,0
-329,-209,0,0,0,0,0,0,0,0,0,-1,895,1233,0,0
-322,-209,0,0,0,0,0,0,0,0,0,-1,902,1233,0,0
-315,-209,0,0,0,0,0,0,0,0,0,-1,909,1233,0,0
-308,-209,0,0,0,0,0,0,0,0,0,-1,916,1233,0,0
-301,-209,0,0,0,0,0,0,0,0,0,-1,923,1233,0,0
-294,-209,0,0,0,0,0,0,0,0,0,-1,930,1233,0,0
-287,-209,0,0,0,0,0,0,0,0,0,-1,937,1233,0,0
-280,-209,0,0,0,0,0,0,0,0,0,-1,944,1233,0,0
-273,-209,0,0,0,0,0,0,0,0,0,-1,951,1233,0,0
-266,-209,0,0,0,0,0,0,0,0,0,-1,958,1233,0,0
-259,-209,0,0,0,0,0,0,0,0,0,-1,965,1233,0,0
-252,-209,0,0,0,0,0,0,0,0,0,-1,972,1233,0,0
-245,-209,0,0,0,0,0,0,0,0,0,-1,979,1233,0,0
-238,-209,0,0,0,0,0,0,0,0,0,-1,986,1233,0,0
-231,-209,0,0,0,0,0,0,0,0,0,-1,993,1233,0,0
-224,-209,0,0,0,0,0,0,0,0,0,-1,1000,1233,0,0
-217,-209,0,0,0,0,0,0,0,0,0,-1,1007,1233,0,0
-210,-209,0,0,0,0,0,0,0,0,0,-1,1014,1233,0,0
-203,-209,0,0,0,0,0,0,0,0,0,-1,1021,1233,0,0
-196,-209,0,0,0,0,0,0,0,0,0,-1,1028,1233,0,0
-189,-209,0,0,0,0,0,0,0,0,0,-1,1035,1233,0,0
-182,-209,0,0,0,0,0,0,0,0,0,-1,1042,1233,0,0
-175,-209,0,0,0,0,0,0,0,0,0,-1,1049,1233,0,0
-168,-209,0,0,0,0,0,0,0,0,0,-1,1056,1233,0,0
-161,-209,0,0,0,0,0,0,0,0,0,-1,1063,1233,0,0
-154,-209,0,0,0,0,0,0,0,0,0,-1,1070,1233,0,0
-147,-209,0,0,0,0,0,0,0,0,0,-1,1077,1233,0,0
-140,-209,0,0,0,0,0,0,0,0,0,-1,1084,1233,0,0
-133,-209,0,0,0,0,0,0,0,0,0,-1,1091,1233,0,0
-126,-209,0,0,0,0,0,0,0,0,0,-1,1098,1233,0,0
-119,-209,0,0,0,0,0,0,0,0,0,-1,1105,1233,0,0
-112,-209,0,0,0,0,0,0,0,0,0,-1,1112,1233,0,0
-105,-209,0,0,0,0,0,0,0,0,0,-1,1119,1233,0,0
-98,-209,0,0,0,0,0,0,0,0,0,-1,1126,1233,0,0
-91,-209,0,0,0,0,0,0,0,0,0,-1,1133,1233,0,0
-84,-209,0,0,0,0,0,0,0,0,0,-1,1140,1233,0,0
-77,-209,0,0,0,0,0,0,0,0,0,-1,1147,1233,0,0
-70,-209,0,0,0,0,0,0,0,0,0,-1,1154,1233,0,0
-63,-209,0,0,0,0,0,0,0,0,0,-1,1161,1233,0,0
-56,-209,0,0,0,0,0,0,0,0,0,-1,1168,1233,0,0
-49,-209,0,0,0,0,0,0,0,0,0,-1,1175,1233,0,0
-42,-209,0,0,0,0,0,0,0,0,0,-1,1182,1233,0,0
-35,-209,0,0,0,0,0,0,0,0,0,-1,1189,1233,0,0
-28,-209,0,0,0,0,0,0,0,0,0,-1,1196,1233,0,0
-21,-209,0,0,0,0,0,0,0,0,0,-1,1203,1233,0,0
-14,-209,0,0,0,0,0,0,0,0,0,-1,1210,1233,0,0
-7,-209,0,0,0,0,0,0,0,0,0,-1,1217,1233,0,0
0,-209,0,0,0,0,0,0,0,0,0,-1,1224,1233,0,0
7,-209,0,0,0,0,0,0,0,0,0,-1,1231,1233,0,0
14,-209,0,0,0,0,0,0,0,0,0,-1,1238,1233,0,0
21,-209,0,0,0,0,0,0,0,0,0,-1,1245,1233,0,0
28,-209,0,0,0,0,0,0,0,0,0,-1,1252,1233,0,0
35,-209,0,0,0,0,0,0,0,0,0,-1,1259,1233,0,0
42,-209,0,0,0,0,0,0,0,0,0,-1,1266,1233,0,0
49,-209,0,0,0,0,0,0,0,0,0,-1,1273,1233,0,0
56,-209,0,0,0,0,0,0,0,0,0,-1,1280,1233,0,0
63,-209,0,0,0,0,0,0,0,0,0,-1,1287,1233,0,0
70,-209,0,0,0,0,0,0,0,0,0,-1,1294,1233,0,0
77,-209,0,0,0,0,0,0,0,0,0,-1,1301,1233,0,0
84,-209,0,0,0,0,0,0,0,0,0,-1,1308,1233,0,0
91,-209,0,0,0,0,0,0,0,0,0,-1,1315,1233,0,0
98,-209,0,0,0,0,0,0,0,0,0,-1,1322,1233,0,0
105,-209,0,0,0,0,0,0,0,0,0,-1,1329,1233,0,0
112,-209,0,0,0,0,0,0,0,0,0,-1,1336,1233,0,0
119,-209,0,0,0,0,0,0,0,0,0,-1,1343,1233,0,0
126,-209,0,0,0,0,0,0,0,0,0,-1,1350,1233,0,0
133,-209,0,0,0,0,0,0,0,0,0,-1,1357,1233,0,0
140,-209,0,0,0,0,0,0,0,0,0,-1,1364,1233,0,0
147,-209,0,0,0,0,0,0,0,0,0,-1,1371,1233,0,0
154,-209,0,0,0,0,0,0,0,0,0,-1,1378,1233,0,0
161,-209,0,0,0,0,0,0,0,0,0,-1,1385,1233,0,0
168,-209,0,0,0,0,0,0,0,0,0,-1,1392,1233,0,0
175,-209,0,0,0,0,0,0,0,0,0,-1,1399,1233,0,0
182,-209,0,0,0,0,0,0,0,0,0,-1,1406,1233,0,0
189,-209,0,0,0,0,0,0,0,0,0,-1,1413,1233,0,0
196,-209,0,0,0,0,0,0,0,0,0,-1,1420,1233,0,0
203,-209,0,0,0,0,0,0,0,0,0,-1,1427,1233,0,0
210,-209,0,0,0,0,0,0,0,0,0,-1,1434,1233,0,0
217,-209,0,0,0,0,0,0,0,0,0,-1,1441,1233,0,0
224,-209,0,0,0,0,0,0,0,0,0,-1,1448,1233,0,0
231,-209,0,0,0,0,0,0,0,0,0,-1,1455,1233,0,0
238,-209,0,0,0,0,0,0,0,0,0,-1,1462,1233,0,0
245,-209,0,0,0,0,0,0,0,0,0,-1,1469,1233,0,0
252,-209,0,0,0,0,0,0,0,0,0,-1,1476,1233,0,0
259,-209,0,0,0,0,0,0,0,0,0,-1,1483,1233,0,0
266,-209,0,0,0,0,0,0,0,0,0,-1,1490,1233,0,0
273,-209,0,0,0,0,0,0,0,0,0,-1,1497,1233,0,0
280,-209,0,0,0,0,0,0,0,0,0,-1,1504,1233,0,0
287,-209,0,0,0,0,0,0,0,0,0,-1,1511,1233,0,0
294,-209,0,0,0,0,0,0,0,0,0,-1,1518,1233,0,0
301,-209,0,0,0,0,0,0,0,0,0,-1,1525,1233,0,0
308,-209,0,0,0,0,0,0,0,0,0,-1,1532,1233,0,0
315,-209,0,0,0,0,0,0,0,0,0,-1,1539,1233,0,0
322,-209,0,0,0,0,0,0,0,0,0,-1,1546,1233,0,0
329,-209,0,0,0,0,0,0,0,0,0,-1,1553,1233,0,0
336,-209,0,0,0,0,0,0,0,0,0,-1,1560,1233,0,0
343,-209,0,0,0,0,0,0,0,0,0,-1,1567,1233,0,0
350,-209,0,0,0,0,0,0,0,0,0,-1,1574,1233,0,0
357,-209,0,0,0,0,0,0,0,0,0,-1,1581,1233,0,0
364,-209,0,0,0,0,0,0,0,0,0,-1,1588,1233,0,0
371,-209,0,0,0,0,0,0,0,0,0,-1,1595,1233,0,0
378,-209,0,0,0,0,0,0,0,0,0,-1,1602,1233,0,0
385,-209,0,0,0,0,0,0,0,0,0,-1,1609,1233,0,0
392,-209,0,0,0,0,0,0,0,0,0,-1,1616,1233,0,0
399,-209,0,0,0,0,0,0,0,0,0,-1,1623,1233,0,0
406,-209,0,0,0,0,0,0,0,0,0,-1,1630,1233,0,0
413,-209,0,0,0,0,0,0,0,0,0,-1,1637,1233,0,0
420,-209,0,0,0,0,0,0,0,0,0,-1,1644,1233,0,0
427,-209,0,0,0,0,0,0,0,0,0,-1,1651,1233,0,0
434,-209,0,0,0,0,0,0,0,0,0,-1,1658,1233,0,0
441,-209,0,0,0,0,0,0,0,0,0,-1,1665,1233,0,0
448,-209,0,0,0,0,0,0,0,0,0,-1,1672,1233,0,0
455,-209,0,0,0,0,0,0,0,0,0,-1,1679,1233,0,0
462,-209,0,0,0,0,0,0,0,0,0,-1,1686,1233,0,0
469,-209,0,0,0,0,0,0,0,0,0,-1,1693,1233,0,0
476,-209,0,0,0,0,0,0,0,0,0,-1,1700,1233,0,0
483,-209,0,0,0,0,0,0,0,0,0,-1,1707,1233,0,0
490,-209,0,0,0,0,0,0,0,0,0,-1,1714,1233,0,0
497,-209,0,0,0,0,0,0,0,0,0,-1,1721,1233,0,0
504,-209,0,0,0,0,0,0,0,0,0,-1,1728,1233,0,0
511,-209,0,0,0,0,0,0,0,0,0,-1,1735,1233,0,0
518,-209,0,0,0,0,0,0,0,0,0,-1,1742,1233,0,0
525,-209,0,0,0,0,0,0,0,0,0,-1,1749,1233,0,0
532,-209,0,0,0,0,0,0,0,0,0,-1,1756,1233,0,0
539,-209,0,0,0,0,0,0,0,0,0,-1,1763,1233,0,0
546,-209,0,0,0,0,0,0,0,0,0,-1,1770,1233,0,0
553,-209,0,0,0,0,0,0,0,0,0,-1,1777,1233,0,0
560,-209,0,0,0,0,0,0,0,0,0,-1,1784,1233,0,0
567,-209,0,0,0,0,0,0,0,0,0,-1,1791,1233,0,0
574,-209,0,0,0,0,0,0,0,0,0,-1,1798,1233,0,0
581,-209,0,0,0,0,0,0,0,0,0,-1,1805,1233,0,0
588,-209,0,0,0,0,0,0,0,0,0,-1,1812,1233,0,0
595,-209,0,0,0,0,0,0,0,0,0,-1,1819,1233,0,0
602,-209,0,0,0,0,0,0,0,0,0,-1,1826,1233,0,0
609,-209,0,0,0,0,0,0,0,0,0,-1,1833,1233,0,0
616,-209,0,0,0,0,0,0,0,0,0,-1,1840,1233,0,0
623,-209,158.67,5.29407,0,0,0,0,0,0,0,-1,1847,1233,158.67,-5.2941
630,-209,158.778,5.36072,0,0,0,0,0,0,0,-1,1854,1233,158.778,-5.36077
637,-209,158.82,5.422,0,0,0,0,0,0,0,-1,1861,1233,158.82,-5.42204
644,-209,158.784,5.41028,0,0,0,0,0,0,0,-1,1868,1233,158.784,-5.41029
651,-209,158.798,5.35706,0,0,0,0,0,0,0,-1,1875,1233,158.798,-5.35707
658,-209,158.789,5.39453,0,0,0,0,0,0,0,-1,1882,1233,158.789,-5.39459
665,-209,158.863,5.31592,0,0,0,0,0,0,0,-1,1889,1233,158.863,-5.31595
672,-209,87.3463,1.96936,0,0,0,0,0,0,0,-1,1896,1233,87.3464,-1.96942
679,-209,55.2465,2.78674,0,0,0,0,0,0,0,-1,1903,1233,55.2464,-2.78678
686,-209,33.3711,3.89856,0,0,0,0,0,0,0,-1,1910,1233,33.3711,-3.89855
693,-209,60.7567,13.6616,0,0,0,0,0,0,0,-1,1917,1233,60.7567,-13.6616
700,-209,84.3783,20.4895,0,0,0,0,0,0,0,-1,1924,1233,84.3783,-20.4894
707,-209,140.813,33.1268,0,0,0,0,0,0,0,-1,1931,1233,140.813,-33.1268
714,-209,140.876,31.8049,0,0,0,0,0,0,0,-1,1938,1233,140.876,-31.8049
721,-209,140.719,30.4766,0.00545149,-0.000872406,-0.00412658,0.00748825,-0.00290917,-0.458492,0.00619397,0.0296663,1945,1233,140.719,-30.4766
728,-209,140.614,29.0074,-0.000842033,0.00459103,0.000109668,0.00459324,-0.000844246,1.55062,0.00337892,0.0283222,1952,1233,140.614,-29.0075
735,-209,140.204,27.5723,-0.00717308,0.00992692,0.00436778,0.010978,-0.00822412,1.33465,0.0111243,0.0260177,1959,1233,140.204,-27.5723
742,-209,139.893,26.1558,-0.0134744,0.0151296,0.00862136,0.0175272,-0.015872,1.29956,0.0192909,0.0225399,1966,1233,139.893,-26.1557
749,-209,139.601,24.8738,-0.0196919,0.0201877,0.0128649,0.0239777,-0.0234819,1.2843,0.0274013,0.0216162,1973,1233,139.601,-24.8738
756,-209,139.439,23.5485,-0.025878,0.0250772,0.0171348,0.0303032,-0.031104,1.27477,0.0354544,0.0239224,1980,1233,139.439,-23.5484
763,-209,139.095,22.2919,-0.0321259,0.0297411,0.0213651,0.0364022,-0.038787,1.26858,0.0434178,0.0462258,1987,1233,139.096,-22.2919
770,-209,138.802,21.3042,0,0,0,0,0,0,0,-1,1994,1233,138.802,-21.3041
777,-209,68.0347,-0.36377,0,0,0,0,0,0,0,-1,2001,1233,68.0346,0.363742
784,-209,67.6289,0.771729,0,0,0,0,0,0,0,-1,2008,1233,67.6289,-0.771742
791,-209,67.1841,1.90906,0,0,0,0,0,0,0,-1,2015,1233,67.1841,-1.90909
798,-209,53.6404,3.71179,0,0,0,0,0,0,0,-1,2022,1233,53.6404,-3.71185
805,-209,0,0,0,0,0,0,0,0,0,-1,2029,1233,0,0
812,-209,0,0,0,0,0,0,0,0,0,-1,2036,1233,0,0
-700,-216,0,0,0,0,0,0,0,0,0,-1,524,1240,0,0
-693,-216,0,0,0,0,0,0,0,0,0,-1,531,1240,0,0
-686,-216,0,0,0,0,0,0,0,0,0,-1,538,1240,0,0
-679,-216,-131.236,13.9845,0,0,0,0,0,0,0,-1,545,1240,-131.236,-13.9845
-672,-216,-131.733,14.7885,0,0,0,0,0,0,0,-1,552,1240,-131.734,-14.7884
-665,-216,-132.262,15.5371,0,0,0,0,0,0,0,-1,559,1240,-132.262,-15.5371
-658,-216,-78.3845,24.0464,0,0,0,0,0,0,0,-1,566,1240,-78.3845,-24.0463
-651,-216,-63.4149,-2.69446,0,0,0,0,0,0,0,-1,573,1240,-63.4149,2.69441
-644,-216,-63.9308,-2.41199,0,0,0,0,0,0,0,-1,580,1240,-63.9308,2.41198
-637,-216,-129.94,21.1483,0,0,0,0,0,0,0,-1,587,1240,-129.94,-21.1483
-630,-216,-130.335,22.7223,0,0,0,0,0,0,0,-1,594,1240,-130.335,-22.7223
-623,-216,-130.84,24.1611,-0.0180065,0.0271698,-0.00918431,0.0289656,-0.0198023,-1.37771,0.0283213,0.0252367,601,1240,-130.84,-24.1611
-616,-216,-131.131,25.3252,-0.0149642,0.0211168,-0.00952857,0.0234786,-0.017326,-1.32783,0.0236476,0.0178149,608,1240,-131.131,-25.3252
-609,-216,-131.339,26.6252,-0.0121614,0.0148645,-0.00913756,0.017664,-0.0149608,-1.27351,0.0188575,0.0176257,615,1240,-131.338,-26.6252
-602,-216,-131.398,28.0566,-0.00961735,0.0086249,-0.00823446,0.011792,-0.0127845,-1.20362,0.0141931,0.0248863,622,1240,-131.398,-28.0566
-595,-216,-131.334,29.4889,0,0,0,0,0,0,0,-1,629,1240,-131.334,-29.4889
-588,-216,-76.3784,20.2157,0,0,0,0,0,0,0,-1,636,1240,-76.3784,-20.2156
-581,-216,-75.1554,21.9757,0,0,0,0,0,0,0,-1,643,1240,-75.1554,-21.9757
-574,-216,-75.3052,22.9486,0,0,0,0,0,0,0,-1,650,1240,-75.3051,-22.9486
-567,-216,-48.2406,14.5559,0,0,0,0,0,0,0,-1,657,1240,-48.2406,-14.5559
-560,-216,-16.5087,5.4574,0,0,0,0,0,0,0,-1,664,1240,-16.5087,-5.45746
-553,-216,-16.2355,1.22351,0,0,0,0,0,0,0,-1,671,1240,-16.2356,-1.22356
-546,-216,-37.1617,-0.25415,0,0,0,0,0,0,0,-1,678,1240,-37.1618,0.254161
-539,-216,-47.7817,1.47327,0,0,0,0,0,0,0,-1,685,1240,-47.7818,-1.4733
-532,-216,-68.0657,0.361084,0,0,0,0,0,0,0,-1,692,1240,-68.0657,-0.361113
-525,-216,-71.8069,0.608032,0,0,0,0,0,0,0,-1,699,1240,-71.8069,-0.608086
-518,-216,-71.9826,0.685303,0,0,0,0,0,0,0,-1,706,1240,-71.9826,-0.685246
-511,-216,-72.0073,0.585571,0,0,0,0,0,0,0,-1,713,1240,-72.0072,-0.585511
-504,-216,-71.8983,0.502075,0,0,0,0,0,0,0,-1,720,1240,-71.8983,-0.502107
-497,-216,0,0,0,0,0,0,0,0,0,-1,727,1240,0,0
-490,-216,0,0,0,0,0,0,0,0,0,-1,734,1240,0,0
-483,-216,0,0,0,0,0,0,0,0,0,-1,741,1240,0,0
-476,-216,0,0,0,0,0,0,0,0,0,-1,748,1240,0,0
-469,-216,0,0,0,0,0,0,0,0,0,-1,755,1240,0,0
-462,-216,0,0,0,0,0,0,0,0,0,-1,762,1240,0,0
-455,-216,0,0,0,0,0,0,0,0,0,-1,769,1240,0,0
-448,-216,0,0,0,0,0,0,0,0,0,-1,776,1240,0,0
-441,-216,0,0,0,0,0,0,0,0,0,-1,783,1240,0,0
-434,-216,0,0,0,0,0,0,0,0,0,-1,790,1240,0,0
-427,-216,0,0,0,0,0,0,0,0,0,-1,797,1240,0,0
-420,-216,0,0,0,0,0,0,0,0,0,-1,804,1240,0,0
-413,-216,0,0,0,0,0,0,0,0,0,-1,811,1240,0,0
-406,-216,0,0,0,0,0,0,0,0,0,-1,818,1240,0,0
-399,-216,0,0,0,0,0,0,0,0,0,-1,825,1240,0,0
-392,-216,0,0,0,0,0,0,0,0,0,-1,832,1240,0,0
-385,-216,0,0,0,0,0,0,0,0,0,-1,839,1240,0,0
-378,-216,0,0,0,0,0,0,0,0,0,-1,846,1240,0,0
-371,-216,0,0,0,0,0,0,0,0,0,-1,853,1240,0,0
-364,-216,0,0,0,0,0,0,0,0,0,-1,860,1240,0,0
-357,-216,0,0,0,0,0,0,0,0,0,-1,867,1240,0,0
-350,-216,0,0,0,0,0,0,0,0,0,-1,874,1240,0,0
-343,-216,0,0,0,0,0,0,0,0,0,-1,881,1240,0,0
-336,-216,0,0,0,0,0,0,0,0,0,-1,888,1240,0,0
-329,-216,0,0,0,0,0,0,0,0,0,-1,895,1240,0,0
-322,-216,0,0,0,0,0,0,0,0,0,-1,902,1240,0,0
-315,-216,0,0,0,0,0,0,0,0,0,-1,909,1240,0,0
-308,-216,0,0,0,0,0,0,0,0,0,-1,916,1240,0,0
-301,-216,0,0,0,0,0,0,0,0,0,-1,923,1240,0,0
-294,-216,0,0,0,0,0,0,0,0,0,-1,930,1240,0,0
-287,-216,0,0,0,0,0,0,0,0,0,-1,937,1240,0,0
-280,-216,0,0,0,0,0,0,0,0,0,-1,944,1240,0,0
-273,-216,0,0,0,0,0,0,0,0,0,-1,951,1240,0,0
-266,-216,0,0,0,0,0,0,0,0,0,-1,958,1240,0,0
-259,-216,0,0,0,0,0,0,0,0,0,-1,965,1240,0,0
-252,-216,0,0,0,0,0,0,0,0,0,-1,972,1240,0,0
-245,-216,0,0,0,0,0,0,0,0,0,-1,979,1240,0,0
-238,-216,0,0,0,0,0,0,0,0,0,-1,986,1240,0,0
-231,-216,0,0,0,0,0,0,0,0,0,-1,993,1240,0,0
-224,-216,0,0,0,0,0,0,0,0,0,-1,1000,1240,0,0
-217,-216,0,0,0,0,0,0,0,0,0,-1,1007,1240,0,0
-210,-216,0,0,0,0,0,0,0,0,0,-1,1014,1240,0,0
-203,-216,0,0,0,0,0,0,0,0,0,-1,1021,1240,0,0
-196,-216,0,0,0,0,0,0,0,0,0,-1,1028,1240,0,0
-189,-216,0,0,0,0,0,0,0,0,0,-1,1035,1240,0,0
-182,-216,0,0,0,0,0,0,0,0,0,-1,1042,1240,0,0
-175,-216,0,0,0,0,0,0,0,0,0,-1,1049,1240,0,0
-168,-216,0,0,0,0,0,0,0,0,0,-1,1056,1240,0,0
-161,-216,0,0,0,0,0,0,0,0,0,-1,1063,1240,0,0
-154,-216,0,0,0,0,0,0,0,0,0,-1,1070,1240,0,0
-147,-216,0,0,0,0,0,0,0,0,0,-1,1077,1240,0,0
-140,-216,0,0,0,0,0,0,0,0,0,-1,1084,1240,0,0
-133,-216,0,0,0,0,0,0,0,0,0,-1,1091,1240,0,0
-126,-216,0,0,0,0,0,0,0,0,0,-1,1098,1240,0,0
-119,-216,0,0,0,0,0,0,0,0,0,-1,1105,1240,0,0
-112,-216,0,0,0,0,0,0,0,0,0,-1,1112,1240,0,0
-105,-216,0,0,0,0,0,0,0,0,0,-1,1119,1240,0,0
-98,-216,0,0,0,0,0,0,0,0,0,-1,1126,1240,0,0
-91,-216,0,0,0,0,0,0,0,0,0,-1,1133,1240,0,0
-84,-216,0,0,0,0,0,0,0,0,0,-1,1140,1240,0,0
-77,-216,0,0,0,0,0,0,0,0,0,-1,1147,1240,0,0
-70,-216,0,0,0,0,0,0,0,0,0,-1,1154,1240,0,0
-63,-216,0,0,0,0,0,0,0,0,0,-1,1161,1240,0,0
-56,-216,0,0,0,0,0,0,0,0,0,-1,1168,1240,0,0
-49,-216,0,0,0,0,0,0,0,0,0,-1,1175,1240,0,0
-42,-216,0,0,0,0,0,0,0,0,0,-1,1182,1240,0,0
-35,-216,0,0,0,0,0,0,0,0,0,-1,1189,1240,0,0
-28,-216,0,0,0,0,0,0,0,0,0,-1,1196,1240,0,0
-21,-216,0,0,0,0,0,0,0,0,0,-1,1203,1240,0,0
-14,-216,0,0,0,0,0,0,0,0,0,-1,1210,1240,0,0
-7,-216,0,0,0,0,0,0,0,0,0,-1,1217,1240,0,0
0,-216,0,0,0,0,0,0,0,0,0,-1,1224,1240,0,0
7,-216,0,0,0,0,0,0,0,0,0,-1,1231,1240,0,0
14,-216,0,0,0,0,0,0,0,0,0,-1,1238,1240,0,0
21,-216,0,0,0,0,0,0,0,0,0,-1,1245,1240,0,0
28,-216,0,0,0,0,0,0,0,0,0,-1,1252,1240,0,0
35,-216,0,0,0,0,0,0,0,0,0,-1,1259,1240,0,0
42,-216,0,0,0,0,0,0,0,0,0,-1,1266,1240,0,0
49,-216,0,0,0,0,0,0,0,0,0,-1,1273,1240,0,0
56,-216,0,0,0,0,0,0,0,0,0,-1,1280,1240,0,0
63,-216,0,0,0,0,0,0,0,0,0,-1,1287,1240,0,0
70,-216,0,0,0,0,0,0,0,0,0,-1,1294,1240,0,0
77,-216,0,0,0,0,0,0,0,0,0,-1,1301,1240,0,0
84,-216,0,0,0,0,0,0,0,0,0,-1,1308,1240,0,0
91,-216,0,0,0,0,0,0,0,0,0,-1,1315,1240,0,0
98,-216,0,0,0,0,0,0,0,0,0,-1,1322,1240,0,0
105,-216,0,0,0,0,0,0,0,0,0,-1,1329,1240,0,0
112,-216,0,0,0,0,0,0,0,0,0,-1,1336,1240,0,0
119,-216,0,0,0,0,0,0,0,0,0,-1,1343,1240,0,0
126,-216,0,0,0,0,0,0,0,0,0,-1,1350,1240,0,0
133,-216,0,0,0,0,0,0,0,0,0,-1,1357,1240,0,0
140,-216,0,0,0,0,0,0,0,0,0,-1,1364,1240,0,0
147,-216,0,0,0,0,0,0,0,0,0,-1,1371,1240,0,0
154,-216,0,0,0,0,0,0,0,0,0,-1,1378,1240,0,0
161,-216,0,0,0,0,0,0,0,0,0,-1,1385,1240,0,0
168,-216,0,0,0,0,0,0,0,0,0,-1,1392,1240,0,0
175,-216,0,0,0,0,0,0,0,0,0,-1,1399,1240,0,0
182,-216,0,0,0,0,0,0,0,0,0,-1,1406,1240,0,0
189,-216,0,0,0,0,0,0,0,0,0,-1,1413,1240,0,0
196,-216,0,0,0,0,0,0,0,0,0,-1,1420,1240,0,0
203,-216,0,0,0,0,0,0,0,0,0,-1,1427,1240,0,0
210,-216,0,0,0,0,0,0,0,0,0,-1,1434,1240,0,0
217,-216,0,0,0,0,0,0,0,0,0,-1,1441,1240,0,0
224,-216,0,0,0,0,0,0,0,0,0,-1,1448,1240,0,0
231,-216,0,0,0,0,0,0,0,0,0,-1,1455,1240,0,0
238,-216,0,0,0,0,0,0,0,0,0,-1,1462,1240,0,0
245,-216,0,0,0,0,0,0,0,0,0,-1,1469,1240,0,0
252,-216,0,0,0,0,0,0,0,0,0,-1,1476,1240,0,0
259,-216,0,0,0,0,0,0,0,0,0,-1,1483,1240,0,0
266,-216,0,0,0,0,0,0,0,0,0,-1,1490,1240,0,0
273,-216,0,0,0,0,0,0,0,0,0,-1,1497,1240,0,0
280,-216,0,0,0,0,0,0,0,0,0,-1,1504,1240,0,0
287,-216,0,0,0,0,0,0,0,0,0,-1,1511,1240,0,0
294,-216,0,0,0,0,0,0,0,0,0,-1,1518,1240,0,0
301,-216,0,0,0,0,0,0,0,0,0,-1,1525,1240,0,0
308,-216,0,0,0,0,0,0,0,0,0,-1,1532,1240,0,0
315,-216,0,0,0,0,0,0,0,0,0,-1,1539,1240,0,0
322,-216,0,0,0,0,0,0,0,0,0,-1,1546,1240,0,0
329,-216,0,0,0,0,0,0,0,0,0,-1,1553,1240,0,0
336,-216,0,0,0,0,0,0,0,0,0,-1,1560,1240,0,0
343,-216,0,0,0,0,0,0,0,0,0,-1,1567,1240,0,0
350,-216,0,0,0,0,0,0,0,0,0,-1,1574,1240,0,0
357,-216,0,0,0,0,0,0,0,0,0,-1,1581,1240,0,0
364,-216,0,0,0,0,0,0,0,0,0,-1,1588,1240,0,0
371,-216,0,0,0,0,0,0,0,0,0,-1,1595,1240,0,0
378,-216,0,0,0,0,0,0,0,0,0,-1,1602,1240,0,0
385,-216,0,0,0,0,0,0,0,0,0,-1,1609,1240,0,0
392,-216,0,0,0,0,0,0,0,0,0,-1,1616,1240,0,0
399,-216,0,0,0,0,0,0,0,0,0,-1,1623,1240,0,0
406,-216,0,0,0,0,0,0,0,0,0,-1,1630,1240,0,0
413,-216,0,0,0,0,0,0,0,0,0,-1,1637,1240,0,0
420,-216,0,0,0,0,0,0,0,0,0,-1,1644,1240,0,0
427,-216,0,0,0,0,0,0,0,0,0,-1,1651,1240,0,0
434,-216,0,0,0,0,0,0,0,0,0,-1,1658,1240,0,0
441,-216,0,0,0,0,0,0,0,0,0,-1,1665,1240,0,0
448,-216,0,0,0,0,0,0,0,0,0,-1,1672,1240,0,0
455,-216,0,0,0,0,0,0,0,0,0,-1,1679,1240,0,0
462,-216,0,0,0,0,0,0,0,0,0,-1,1686,1240,0,0
469,-216,0,0,0,0,0,0,0,0,0,-1,1693,1240,0,0
476,-216,0,0,0,0,0,0,0,0,0,-1,1700,1240,0,0
483,-216,0,0,0,0,0,0,0,0,0,-1,1707,1240,0,0
490,-216,0,0,0,0,0,0,0,0,0,-1,1714,1240,0,0
497,-216,0,0,0,0,0,0,0,0,0,-1,1721,1240,0,0
504,-216,0,0,0,0,0,0,0,0,0,-1,1728,1240,0,0
511,-216,0,0,0,0,0,0,0,0,0,-1,1735,1240,0,0
518,-216,0,0,0,0,0,0,0,0,0,-1,1742,1240,0,0
525,-216,0,0,0,0,0,0,0,0,0,-1,1749,1240,0,0
532,-216,0,0,0,0,0,0,0,0,0,-1,1756,1240,0,0
539,-216,0,0,0,0,0,0,0,0,0,-1,1763,1240,0,0
546,-216,0,0,0,0,0,0,0,0,0,-1,1770,1240,0,0
553,-216,0,0,0,0,0,0,0,0,0,-1,1777,1240,0,0
560,-216,0,0,0,0,0,0,0,0,0,-1,1784,1240,0,0
567,-216,0,0,0,0,0,0,0,0,0,-1,1791,1240,0,0
574,-216,0,0,0,0,0,0,0,0,0,-1,1798,1240,0,0
581,-216,0,0,0,0,0,0,0,0,0,-1,1805,1240,0,0
588,-216,0,0,0,0,0,0,0,0,0,-1,1812,1240,0,0
595,-216,0,0,0,0,0,0,0,0,0,-1,1819,1240,0,0
602,-216,0,0,0,0,0,0,0,0,0,-1,1826,1240,0,0
609,-216,0,0,0,0,0,0,0,0,0,-1,1833,1240,0,0
616,-216,0,0,0,0,0,0,0,0,0,-1,1840,1240,0,0
623,-216,158.599,5.43237,0,0,0,0,0,0,0,-1,1847,1240,158.599,-5.43238
630,-216,158.727,5.37659,0,0,0,0,0,0,0,-1,1854,1240,158.727,-5.3766
637,-216,158.74,5.42944,0,0,0,0,0,0,0,-1,1861,1240,158.74,-5.42947
644,-216,158.724,5.45947,0,0,0,0,0,0,0,-1,1868,1240,158.724,-5.45944
651,-216,158.743,5.49158,0,0,0,0,0,0,0,-1,1875,1240,158.743,-5.49156
658,-216,158.886,5.47705,0,0,0,0,0,0,0,-1,1882,1240,158.886,-5.47707
665,-216,101.954,2.26392,0,0,0,0,0,0,0,-1,1889,1240,101.954,-2.26386
672,-216,68.6339,1.33826,0,0,0,0,0,0,0,-1,1896,1240,68.6339,-1.33828
679,-216,47.3159,3.82703,0,0,0,0,0,0,0,-1,1903,1240,47.316,-3.82708
686,-216,21.5172,6.19458,0,0,0,0,0,0,0,-1,1910,1240,21.5172,-6.19453
693,-216,56.1224,12.7039,0,0,0,0,0,0,0,-1,1917,1240,56.1224,-12.7038
700,-216,82.1761,20.2852,0,0,0,0,0,0,0,-1,1924,1240,82.1761,-20.2852
707,-216,103.84,27.1699,0,0,0,0,0,0,0,-1,1931,1240,103.84,-27.17
714,-216,139.171,32.2334,0,0,0,0,0,0,0,-1,1938,1240,139.171,-32.2334
721,-216,139.193,30.5731,0.00263802,0.000376774,-0.00237141,0.00413454,-0.00111975,-0.562951,0.00319569,0.0280648,1945,1240,139.193,-30.5731
728,-216,139.097,29.0117,-0.00336416,0.00580234,0.00200547,0.0062219,-0.00378372,1.36456,0.00583364,0.0226392,1952,1240,139.097,-29.0117
735,-216,138.759,27.6733,-0.00949692,0.011102,0.00641123,0.0129344,-0.0113293,1.2924,0.0140189,0.0235993,1959,1240,138.759,-27.6734
742,-216,138.438,26.1962,-0.0156819,0.016265,0.0108201,0.0195847,-0.0190016,1.2731,0.0222787,0.0266808,1966,1240,138.438,-26.1962
749,-216,138.137,24.8002,-0.0218532,0.0212791,0.0152149,0.026106,-0.0266801,1.26359,0.0304767,0.0182546,1973,1240,138.137,-24.8001
756,-216,137.854,23.4667,-0.0280743,0.0261139,0.0196247,0.0324745,-0.0344349,1.25737,0.0386357,0.0212232,1980,1240,137.854,-23.4667
763,-216,137.475,22.1644,-0.034454,0.0306954,0.0239016,0.0385237,-0.0422823,1.25429,0.0466701,0.0421822,1987,1240,137.475,-22.1644
770,-216,137.336,20.8403,0,0,0,0,0,0,0,-1,1994,1240,137.336,-20.8403
777,-216,71.583,6.68445,0,0,0,0,0,0,0,-1,2001,1240,71.5829,-6.6844
784,-216,68.2205,0.660034,0,0,0,0,0,0,0,-1,2008,1240,68.2204,-0.660033
791,-216,67.71,1.8468,0,0,0,0,0,0,0,-1,2015,1240,67.7099,-1.84686
798,-216,0,0,0,0,0,0,0,0,0,-1,2022,1240,0,0
805,-216,0,0,0,0,0,0,0,0,0,-1,2029,1240,0,0
812,-216,0,0,0,0,0,0,0,0,0,-1,2036,1240,0,0
-700,-223,0,0,0,0,0,0,0,0,0,-1,524,1247,0,0
-693,-223,0,0,0,0,0,0,0,0,0,-1,531,1247,0,0
-686,-223,0,0,0,0,0,0,0,0,0,-1,538,1247,0,0
-679,-223,0,0,0,0,0,0,0,0,0,-1,545,1247,0,0
-672,-223,-131.246,14.4957,0,0,0,0,0,0,0,-1,552,1247,-131.246,-14.4957
-665,-223,-129.016,15.0405,0,0,0,0,0,0,0,-1,559,1247,-129.016,-15.0406
-658,-223,-81.3573,25.3363,0,0,0,0,0,0,0,-1,566,1247,-81.3573,-25.3363
-651,-223,-81.1982,27.5779,0,0,0,0,0,0,0,-1,573,1247,-81.1982,-27.5779
-644,-223,-63.6605,-3.14734,0,0,0,0,0,0,0,-1,580,1247,-63.6605,3.14729
-637,-223,-49.2922,0.294189,0,0,0,0,0,0,0,-1,587,1247,-49.2922,-0.294245
-630,-223,-129.008,22.704,0,0,0,0,0,0,0,-1,594,1247,-129.008,-22.704
-623,-223,-129.392,24.0154,0,0,0,0,0,0,0,-1,601,1247,-129.392,-24.0154
-616,-223,-129.628,25.3054,-0.0147548,0.0223665,-0.00942688,0.0246233,-0.0170116,-1.33582,0.0241714,0.0219644,608,1247,-129.628,-25.3054
-609,-223,-129.844,26.65,-0.0128436,0.0160601,-0.009232,0.0187571,-0.0155407,-1.28656,0.0198309,0.0160218,615,1247,-129.844,-26.65
-602,-223,-130.005,28.0894,-0.0109183,0.00972004,-0.00835302,0.0126771,-0.0138753,-1.23055,0.0153353,0.0221275,622,1247,-130.005,-28.0893
-595,-223,-130.491,28.9337,-0.0086578,0.00336761,-0.00656763,0.0062592,-0.0115494,-1.15606,0.0104319,0.0455204,629,1247,-130.491,-28.9337
-588,-223,-131.123,29.6387,0,0,0,0,0,0,0,-1,636,1247,-131.123,-29.6387
-581,-223,-73.8349,22.21,0,0,0,0,0,0,0,-1,643,1247,-73.8349,-22.21
-574,-223,-47.5632,13.7034,0,0,0,0,0,0,0,-1,650,1247,-47.5632,-13.7034
-567,-223,-57.4084,18.6537,0,0,0,0,0,0,0,-1,657,1247,-57.4084,-18.6536
-560,-223,-31.8748,9.50732,0,0,0,0,0,0,0,-1,664,1247,-31.8748,-9.50735
-553,-223,-11.4025,4.14722,0,0,0,0,0,0,0,-1,671,1247,-11.4025,-4.14719
-546,-223,-26.9034,-0.148682,0,0,0,0,0,0,0,-1,678,1247,-26.9034,0.14867
-539,-223,-36.7405,0.35376,0,0,0,0,0,0,0,-1,685,1247,-36.7405,-0.353807
-532,-223,-47.6184,1.39844,0,0,0,0,0,0,0,-1,692,1247,-47.6184,-1.3984
-525,-223,-68.3091,0.599243,0,0,0,0,0,0,0,-1,699,1247,-68.3091,-0.599261
-518,-223,-71.9418,0.685669,0,0,0,0,0,0,0,-1,706,1247,-71.9418,-0.685676
-511,-223,-71.9317,0.546631,0,0,0,0,0,0,0,-1,713,1247,-71.9317,-0.546598
-504,-223,-71.9573,0.504639,0,0,0,0,0,0,0,-1,720,1247,-71.9573,-0.504659
-497,-223,0,0,0,0,0,0,0,0,0,-1,727,1247,0,0
-490,-223,0,0,0,0,0,0,0,0,0,-1,734,1247,0,0
-483,-223,0,0,0,0,0,0,0,0,0,-1,741,1247,0,0
-476,-223,0,0,0,0,0,0,0,0,0,-1,748,1247,0,0
-469,-223,0,0,0,0,0,0,0,0,0,-1,755,1247,0,0
-462,-223,0,0,0,0,0,0,0,0,0,-1,762,1247,0,0
-455,-223,0,0,0,0,0,0,0,0,0,-1,769,1247,0,0
-448,-223,0,0,0,0,0,0,0,0,0,-1,776,1247,0,0
-441,-223,0,0,0,0,0,0,0,0,0,-1,783,1247,0,0
-434,-223,0,0,0,0,0,0,0,0,0,-1,790,1247,0,0
-427,-223,0,0,0,0,0,0,0,0,0,-1,797,1247,0,0
-420,-223,0,0,0,0,0,0,0,0,0,-1,804,1247,0,0
-413,-223,0,0,0,0,0,0,0,0,0,-1,811,1247,0,0
-406,-223,0,0,0,0,0,0,0,0,0,-1,818,1247,0,0
-399,-223,0,0,0,0,0,0,0,0,0,-1,825,1247,0,0
-392,-223,0,0,0,0,0,0,0,0,0,-1,832,1247,0,0
-385,-223,0,0,0,0,0,0,0,0,0,-1,839,1247,0,0
-378,-223,0,0,0,0,0,0,0,0,0,-1,846,1247,0,0
-371,-223,0,0,0,0,0,0,0,0,0,-1,853,1247,0,0
-364,-223,0,0,0,0,0,0,0,0,0,-1,860,1247,0,0
-357,-223,0,0,0,0,0,0,0,0,0,-1,867,1247,0,0
-350,-223,0,0,0,0,0,0,0,0,0,-1,874,1247,0,0
-343,-223,0,0,0,0,0,0,0,0,0,-1,881,1247,0,0
-336,-223,0,0,0,0,0,0,0,0,0,-1,888,1247,0,0
-329,-223,0,0,0,0,0,0,0,0,0,-1,895,1247,0,0
-322,-223,0,0,0,0,0,0,0,0,0,-1,902,1247,0,0
-315,-223,0,0,0,0,0,0,0,0,0,-1,909,1247,0,0
-308,-223,0,0,0,0,0,0,0,0,0,-1,916,1247,0,0
-301,-223,0,0,0,0,0,0,0,0,0,-1,923,1247,0,0
-294,-223,0,0,0,0,0,0,0,0,0,-1,930,1247,0,0
-287,-223,0,0,0,0,0,0,0,0,0,-1,937,1247,0,0
-280,-223,0,0,0,0,0,0,0,0,0,-1,944,1247,0,0
-273,-223,0,0,0,0,0,0,0,0,0,-1,951,1247,0,0
-266,-223,0,0,0,0,0,0,0,0,0,-1,958,1247,0,0
-259,-223,0,0,0,0,0,0,0,0,0,-1,965,1247,0,0
-252,-223,0,0,0,0,0,0,0,0,0,-1,972,1247,0,0
-245,-223,0,0,0,0,0,0,0,0,0,-1,979,1247,0,0
-238,-223,0,0,0,0,0,0,0,0,0,-1,986,1247,0,0
-231,-223,0,0,0,0,0,0,0,0,0,-1,993,1247,0,0
-224,-223,0,0,0,0,0,0,0,0,0,-1,1000,1247,0,0
-217,-223,0,0,0,0,0,0,0,0,0,-1,1007,1247,0,0
-210,-223,0,0,0,0,0,0,0,0,0,-1,1014,1247,0,0
-203,-223,0,0,0,0,0,0,0,0,0,-1,1021,1247,0,0
-196,-223,0,0,0,0,0,0,0,0,0,-1,1028,1247,0,0
-189,-223,0,0,0,0,0,0,0,0,0,-1,1035,1247,0,0
-182,-223,0,0,0,0,0,0,0,0,0,-1,1042,1247,0,0
-175,-223,0,0,0,0,0,0,0,0,0,-1,1049,1247,0,0
-168,-223,0,0,0,0,0,0,0,0,0,-1,1056,1247,0,0
-161,-223,0,0,0,0,0,0,0,0,0,-1,1063,1247,0,0
-154,-223,0,0,0,0,0,0,0,0,0,-1,1070,1247,0,0
-147,-223,0,0,0,0,0,0,0,0,0,-1,1077,1247,0,0
-140,-223,0,0,0,0,0,0,0,0,0,-1,1084,1247,0,0
-133,-223,0,0,0,0,0,0,0,0,0,-1,1091,1247,0,0
-126,-223,0,0,0,0,0,0,0,0,0,-1,1098,1247,0,0
-119,-223,0,0,0,0,0,0,0,0,0,-1,1105,1247,0,0
-112,-223,0,0,0,0,0,0,0,0,0,-1,1112,1247,0,0
-105,-223,0,0,0,0,0,0,0,0,0,-1,1119,1247,0,0
-98,-223,0,0,0,0,0,0,0,0,0,-1,1126,1247,0,0
-91,-223,0,0,0,0,0,0,0,0,0,-1,1133,1247,0,0
-84,-223,0,0,0,0,0,0,0,0,0,-1,1140,1247,0,0
-77,-223,0,0,0,0,0,0,0,0,0,-1,1147,1247,0,0
-70,-223,0,0,0,0,0,0,0,0,0,-1,1154,1247,0,0
-63,-223,0,0,0,0,0,0,0,0,0,-1,1161,1247,0,0
-56,-223,0,0,0,0,0,0,0,0,0,-1,1168,1247,0,0
-49,-223,0,0,0,0,0,0,0,0,0,-1,1175,1247,0,0
-42,-223,0,0,0,0,0,0,0,0,0,-1,1182,1247,0,0
-35,-223,0,0,0,0,0,0,0,0,0,-1,1189,1247,0,0
-28,-223,0,0,0,0,0,0,0,0,0,-1,1196,1247,0,0
-21,-223,0,0,0,0,0,0,0,0,0,-1,1203,1247,0,0
-14,-223,0,0,0,0,0,0,0,0,0,-1,1210,1247,0,0
-7,-223,0,0,0,0,0,0,0,0,0,-1,1217,1247,0,0
0,-223,0,0,0,0,0,0,0,0,0,-1,1224,1247,0,0
7,-223,0,0,0,0,0,0,0,0,0,-1,1231,1247,0,0
14,-223,0,0,0,0,0,0,0,0,0,-1,1238,1247,0,0
21,-223,0,0,0,0,0,0,0,0,0,-1,1245,1247,0,0
28,-223,0,0,0,0,0,0,0,0,0,-1,1252,1247,0,0
35,-223,0,0,0,0,0,0,0,0,0,-1,1259,1247,0,0
42,-223,0,0,0,0,0,0,0,0,0,-1,1266,1247,0,0
49,-223,0,0,0,0,0,0,0,0,0,-1,1273,1247,0,0
56,-223,0,0,0,0,0,0,0,0,0,-1,1280,1247,0,0
63,-223,0,0,0,0,0,0,0,0,0,-1,1287,1247,0,0
70,-223,0,0,0,0,0,0,0,0,0,-1,1294,1247,0,0
77,-223,0,0,0,0,0,0,0,0,0,-1,1301,1247,0,0
84,-223,0,0,0,0,0,0,0,0,0,-1,1308,1247,0,0
91,-223,0,0,0,0,0,0,0,0,0,-1,1315,1247,0,0
98,-223,0,0,0,0,0,0,0,0,0,-1,1322,1247,0,0
105,-223,0,0,0,0,0,0,0,0,0,-1,1329,1247,0,0
112,-223,0,0,0,0,0,0,0,0,0,-1,1336,1247,0,0
119,-223,0,0,0,0,0,0,0,0,0,-1,1343,1247,0,0
126,-223,0,0,0,0,0,0,0,0,0,-1,1350,1247,0,0
133,-223,0,0,0,0,0,0,0,0,0,-1,1357,1247,0,0
140,-223,0,0,0,0,0,0,0,0,0,-1,1364,1247,0,0
147,-223,0,0,0,0,0,0,0,0,0,-1,1371,1247,0,0
154,-223,0,0,0,0,0,0,0,0,0,-1,1378,1247,0,0
161,-223,0,0,0,0,0,0,0,0,0,-1,1385,1247,0,0
168,-223,0,0,0,0,0,0,0,0,0,-1,1392,1247,0,0
175,-223,0,0,0,0,0,0,0,0,0,-1,1399,1247,0,0
182,-223,0,0,0,0,0,0,0,0,0,-1,1406,1247,0,0
189,-223,0,0,0,0,0,0,0,0,0,-1,1413,1247,0,0
196,-223,0,0,0,0,0,0,0,0,0,-1,1420,1247,0,0
203,-223,0,0,0,0,0,0,0,0,0,-1,1427,1247,0,0
210,-223,0,0,0,0,0,0,0,0,0,-1,1434,1247,0,0
217,-223,0,0,0,0,0,0,0,0,0,-1,1441,1247,0,0
224,-223,0,0,0,0,0,0,0,0,0,-1,1448,1247,0,0
231,-223,0,0,0,0,0,0,0,0,0,-1,1455,1247,0,0
238,-223,0,0,0,0,0,0,0,0,0,-1,1462,1247,0,0
245,-223,0,0,0,0,0,0,0,0,0,-1,1469,1247,0,0
252,-223,0,0,0,0,0,0,0,0,0,-1,1476,1247,0,0
259,-223,0,0,0,0,0,0,0,0,0,-1,1483,1247,0,0
266,-223,0,0,0,0,0,0,0,0,0,-1,1490,1247,0,0
273,-223,0,0,0,0,0,0,0,0,0,-1,1497,1247,0,0
280,-223,0,0,0,0,0,0,0,0,0,-1,1504,1247,0,0
287,-223,0,0,0,0,0,0,0,0,0,-1,1511,1247,0,0
294,-223,0,0,0,0,0,0,0,0,0,-1,1518,1247,0,0
301,-223,0,0,0,0,0,0,0,0,0,-1,1525,1247,0,0
308,-223,0,0,0,0,0,0,0,0,0,-1,1532,1247,0,0
315,-223,0,0,0,0,0,0,0,0,0,-1,1539,1247,0,0
322,-223,0,0,0,0,0,0,0,0,0,-1,1546,1247,0,0
329,-223,0,0,0,0,0,0,0,0,0,-1,1553,1247,0,0
336,-223,0,0,0,0,0,0,0,0,0,-1,1560,1247,0,0
343,-223,0,0,0,0,0,0,0,0,0,-1,1567,1247,0,0
350,-223,0,0,0,0,0,0,0,0,0,-1,1574,1247,0,0
357,-223,0,0,0,0,0,0,0,0,0,-1,1581,1247,0,0
364,-223,0,0,0,0,0,0,0,0,0,-1,1588,1247,0,0
371,-223,0,0,0,0,0,0,0,0,0,-1,1595,1247,0,0
378,-223,0,0,0,0,0,0,0,0,0,-1,1602,1247,0,0
385,-223,0,0,0,0,0,0,0,0,0,-1,1609,1247,0,0
392,-223,0,0,0,0,0,0,0,0,0,-1,1616,1247,0,0
399,-223,0,0,0,0,0,0,0,0,0,-1,1623,1247,0,0
406,-223,0,0,0,0,0,0,0,0,0,-1,1630,1247,0,0
413,-223,0,0,0,0,0,0,0,0,0,-1,1637,1247,0,0
420,-223,0,0,0,0,0,0,0,0,0,-1,1644,1247,0,0
427,-223,0,0,0,0,0,0,0,0,0,-1,1651,1247,0,0
434,-223,0,0,0,0,0,0,0,0,0,-1,1658,1247,0,0
441,-223,0,0,0,0,0,0,0,0,0,-1,1665,1247,0,0
448,-223,0,0,0,0,0,0,0,0,0,-1,1672,1247,0,0
455,-223,0,0,0,0,0,0,0,0,0,-1,1679,1247,0,0
462,-223,0,0,0,0,0,0,0,0,0,-1,1686,1247,0,0
469,-223,0,0,0,0,0,0,0,0,0,-1,1693,1247,0,0
476,-223,0,0,0,0,0,0,0,0,0,-1,1700,1247,0,0
483,-223,0,0,0,0,0,0,0,0,0,-1,1707,1247,0,0
490,-223,0,0,0,0,0,0,0,0,0,-1,1714,1247,0,0
497,-223,0,0,0,0,0,0,0,0,0,-1,1721,1247,0,0
504,-223,0,0,0,0,0,0,0,0,0,-1,1728,1247,0,0
511,-223,0,0,0,0,0,0,0,0,0,-1,1735,1247,0,0
518,-223,0,0,0,0,0,0,0,0,0,-1,1742,1247,0,0
525,-223,0,0,0,0,0,0,0,0,0,-1,1749,1247,0,0
532,-223,0,0,0,0,0,0,0,0,0,-1,1756,1247,0,0
539,-223,0,0,0,0,0,0,0,0,0,-1,1763,1247,0,0
546,-223,0,0,0,0,0,0,0,0,0,-1,1770,1247,0,0
553,-223,0,0,0,0,0,0,0,0,0,-1,1777,1247,0,0
560,-223,0,0,0,0,0,0,0,0,0,-1,1784,1247,0,0
567,-223,0,0,0,0,0,0,0,0,0,-1,1791,1247,0,0
574,-223,0,0,0,0,0,0,0,0,0,-1,1798,1247,0,0
581,-223,0,0,0,0,0,0,0,0,0,-1,1805,1247,0,0
588,-223,0,0,0,0,0,0,0,0,0,-1,1812,1247,0,0
595,-223,0,0,0,0,0,0,0,0,0,-1,1819,1247,0,0
602,-223,0,0,0,0,0,0,0,0,0,-1,1826,1247,0,0
609,-223,0,0,0,0,0,0,0,0,0,-1,1833,1247,0,0
616,-223,0,0,0,0,0,0,0,0,0,-1,1840,1247,0,0
623,-223,158.58,5.56567,0,0,0,0,0,0,0,-1,1847,1247,158.58,-5.56564
630,-223,158.64,5.30469,0,0,0,0,0,0,0,-1,1854,1247,158.64,-5.30475
637,-223,158.679,5.39478,0,0,0,0,0,0,0,-1,1861,1247,158.679,-5.39473
644,-223,158.648,5.43066,0,0,0,0,0,0,0,-1,1868,1247,158.648,-5.43063
651,-223,158.736,5.24097,0,0,0,0,0,0,0,-1,1875,1247,158.736,-5.24101
658,-223,113.084,3.32898,0,0,0,0,0,0,0,-1,1882,1247,113.084,-3.32899
665,-223,68.7177,1.6427,0,0,0,0,0,0,0,-1,1889,1247,68.7176,-1.64275
672,-223,56.4625,2.72424,0,0,0,0,0,0,0,-1,1896,1247,56.4626,-2.72418
679,-223,43.2783,2.46973,0,0,0,0,0,0,0,-1,1903,1247,43.2784,-2.46978
686,-223,40.7926,10.0316,0,0,0,0,0,0,0,-1,1910,1247,40.7926,-10.0316
693,-223,81.1904,21.5211,0,0,0,0,0,0,0,-1,1917,1247,81.1904,-21.5211
700,-223,102.817,28.546,0,0,0,0,0,0,0,-1,1924,1247,102.817,-28.546
707,-223,138.105,33.7045,0,0,0,0,0,0,0,-1,1931,1247,138.105,-33.7045
714,-223,137.636,32.3983,0,0,0,0,0,0,0,-1,1938,1247,137.636,-32.3983
721,-223,137.365,30.7544,-0.000119792,0.0017197,-0.00055864,0.00187606,-0.000276155,-1.29788,0.00135219,0.0345262,1945,1247,137.365,-30.7544
728,-223,137.407,29.1289,-0.00582049,0.0070878,0.00403016,0.00824274,-0.00697543,1.2917,0.00879637,0.0299926,1952,1247,137.408,-29.1289
735,-223,137.139,27.8378,-0.0117409,0.0123232,0.00866653,0.0151194,-0.0145372,1.25869,0.0171233,0.0309169,1959,1247,137.139,-27.8377
742,-223,136.821,26.3633,-0.0178026,0.0174122,0.0133166,0.0218809,-0.0222713,1.24703,0.0254916,0.0274392,1966,1247,136.821,-26.3632
749,-223,136.517,24.845,-0.0239334,0.0223395,0.0179549,0.0284891,-0.030083,1.24082,0.0338208,0.0188992,1973,1247,136.517,-24.845
756,-223,136.161,23.5292,-0.0302279,0.0270684,0.0226024,0.0349112,-0.0380707,1.23681,0.0421492,0.0242871,1980,1247,136.161,-23.5292
763,-223,135.762,22.3535,-0.0368153,0.031489,0.0270457,0.040901,-0.0462274,1.2359,0.0503349,0.0330886,1987,1247,135.762,-22.3536
770,-223,135.696,21.0458,0,0,0,0,0,0,0,-1,1994,1247,135.696,-21.0458
777,-223,69.5923,7.03833,0,0,0,0,0,0,0,-1,2001,1247,69.5922,-7.03835
784,-223,68.8677,0.507813,0,0,0,0,0,0,0,-1,2008,1247,68.8676,-0.507816
791,-223,34.7136,2.92554,0,0,0,0,0,0,0,-1,2015,1247,34.7137,-2.92555
798,-223,0,0,0,0,0,0,0,0,0,-1,2022,1247,0,0
805,-223,0,0,0,0,0,0,0,0,0,-1,2029,1247,0,0
812,-223,0,0,0,0,0,0,0,0,0,-1,2036,1247,0,0
-700,-230,0,0,0,0,0,0,0,0,0,-1,524,1254,0,0
-693,-230,0,0,0,0,0,0,0,0,0,-1,531,1254,0,0
-686,-230,0,0,0,0,0,0,0,0,0,-1,538,1254,0,0
-679,-230,0,0,0,0,0,0,0,0,0,-1,545,1254,0,0
-672,-230,-127.6,12.7964,0,0,0,0,0,0,0,-1,552,1254,-127.6,-12.7964
-665,-230,-81.2452,24.4174,0,0,0,0,0,0,0,-1,559,1254,-81.2452,-24.4173
-658,-230,-81.4997,26.5293,0,0,0,0,0,0,0,-1,566,1254,-81.4997,-26.5293
-651,-230,-81.583,28.701,0,0,0,0,0,0,0,-1,573,1254,-81.583,-28.701
-644,-230,-62.1854,10.1193,0,0,0,0,0,0,0,-1,580,1254,-62.1854,-10.1193
-637,-230,-49.1636,-0.158325,0,0,0,0,0,0,0,-1,587,1254,-49.1636,0.158288
-630,-230,-41.3331,5.24744,0,0,0,0,0,0,0,-1,594,1254,-41.3331,-5.24744
-623,-230,-127.867,23.8549,0,0,0,0,0,0,0,-1,601,1254,-127.867,-23.8549
-616,-230,-128.019,25.3074,-0.0144313,0.0236891,-0.00961497,0.025977,-0.0167191,-1.33719,0.024843,0.0263764,608,1254,-128.019,-25.3074
-609,-230,-128.252,26.743,-0.0131927,0.0175019,-0.00945746,0.0201819,-0.0158727,-1.29466,0.0208656,0.0149661,615,1254,-128.252,-26.743
-602,-230,-128.456,28.1705,-0.0116098,0.0112207,-0.00848868,0.014031,-0.0144201,-1.25109,0.0164268,0.0162482,622,1254,-128.456,-28.1705
-595,-230,-128.889,29.2656,-0.00943386,0.00488201,-0.00652793,0.0074117,-0.0119635,-1.2011,0.0112887,0.0446434,629,1254,-128.889,-29.2656
-588,-230,-129.374,30.2845,0,0,0,0,0,0,0,-1,636,1254,-129.374,-30.2845
-581,-230,-58.0035,16.7986,0,0,0,0,0,0,0,-1,643,1254,-58.0036,-16.7985
-574,-230,-129.566,34.658,0,0,0,0,0,0,0,-1,650,1254,-129.566,-34.6579
-567,-230,-56.2896,18.8512,0,0,0,0,0,0,0,-1,657,1254,-56.2896,-18.8512
-560,-230,-56.3123,19.355,0,0,0,0,0,0,0,-1,664,1254,-56.3123,-19.355
-553,-230,-13.1939,4.9718,0,0,0,0,0,0,0,-1,671,1254,-13.1939,-4.97175
-546,-230,-15.23,0.453979,0,0,0,0,0,0,0,-1,678,1254,-15.23,-0.453996
-539,-230,-25.8232,0.512817,0,0,0,0,0,0,0,-1,685,1254,-25.8232,-0.512878
-532,-230,-21.1644,1.52966,0,0,0,0,0,0,0,-1,692,1254,-21.1644,-1.52969
-525,-230,-29.4775,0.731445,0,0,0,0,0,0,0,-1,699,1254,-29.4775,-0.731432
-518,-230,-71.6359,0.529785,0,0,0,0,0,0,0,-1,706,1254,-71.6359,-0.529735
-511,-230,-71.8687,0.53125,0,0,0,0,0,0,0,-1,713,1254,-71.8687,-0.531259
-504,-230,-72.0195,0.526123,0,0,0,0,0,0,0,-1,720,1254,-72.0195,-0.526122
-497,-230,0,0,0,0,0,0,0,0,0,-1,727,1254,0,0
-490,-230,0,0,0,0,0,0,0,0,0,-1,734,1254,0,0
-483,-230,0,0,0,0,0,0,0,0,0,-1,741,1254,0,0
-476,-230,0,0,0,0,0,0,0,0,0,-1,748,1254,0,0
-469,-230,0,0,0,0,0,0,0,0,0,-1,755,1254,0,0
-462,-230,0,0,0,0,0,0,0,0,0,-1,762,1254,0,0
-455,-230,0,0,0,0,0,0,0,0,0,-1,769,1254,0,0
-448,-230,0,0,0,0,0,0,0,0,0,-1,776,1254,0,0
-441,-230,0,0,0,0,0,0,0,0,0,-1,783,1254,0,0
-434,-230,0,0,0,0,0,0,0,0,0,-1,790,1254,0,0
-427,-230,0,0,0,0,0,0,0,0,0,-1,797,1254,0,0
-420,-230,0,0,0,0,0,0,0,0,0,-1,804,1254,0,0
-413,-230,0,0,0,0,0,0,0,0,0,-1,811,1254,0,0
-406,-230,0,0,0,0,0,0,0,0,0,-1,818,1254,0,0
-399,-230,0,0,0,0,0,0,0,0,0,-1,825,1254,0,0
-392,-230,0,0,0,0,0,0,0,0,0,-1,832,1254,0,0
-385,-230,0,0,0,0,0,0,0,0,0,-1,839,1254,0,0
-378,-230,0,0,0,0,0,0,0,0,0,-1,846,1254,0,0
-371,-230,0,0,0,0,0,0,0,0,0,-1,853,1254,0,0
-364,-230,0,0,0,0,0,0,0,0,0,-1,860,1254,0,0
-357,-230,0,0,0,0,0,0,0,0,0,-1,867,1254,0,0
-350,-230,0,0,0,0,0,0,0,0,0,-1,874,1254,0,0
-343,-230,0,0,0,0,0,0,0,0,0,-1,881,1254,0,0
-336,-230,0,0,0,0,0,0,0,0,0,-1,888,1254,0,0
-329,-230,0,0,0,0,0,0,0,0,0,-1,895,1254,0,0
-322,-230,0,0,0,0,0,0,0,0,0,-1,902,1254,0,0
-315,-230,0,0,0,0,0,0,0,0,0,-1,909,1254,0,0
-308,-230,0,0,0,0,0,0,0,0,0,-1,916,1254,0,0
-301,-230,0,0,0,0,0,0,0,0,0,-1,923,1254,0,0
-294,-230,0,0,0,0,0,0,0,0,0,-1,930,1254,0,0
-287,-230,0,0,0,0,0,0,0,0,0,-1,937,1254,0,0
-280,-230,0,0,0,0,0,0,0,0,0,-1,944,1254,0,0
-273,-230,0,0,0,0,0,0,0,0,0,-1,951,1254,0,0
-266,-230,0,0,0,0,0,0,0,0,0,-1,958,1254,0,0
-259,-230,0,0,0,0,0,0,0,0,0,-1,965,1254,0,0
-252,-230,0,0,0,0,0,0,0,0,0,-1,972,1254,0,0
-245,-230,0,0,0,0,0,0,0,0,0,-1,979,1254,0,0
-238,-230,0,0,0,0,0,0,0,0,0,-1,986,1254,0,0
-231,-230,0,0,0,0,0,0,0,0,0,-1,993,1254,0,0
-224,-230,0,0,0,0,0,0,0,0,0,-1,1000,1254,0,0
-217,-230,0,0,0,0,0,0,0,0,0,-1,1007,1254,0,0
-210,-230,0,0,0,0,0,0,0,0,0,-1,1014,1254,0,0
-203,-230,0,0,0,0,0,0,0,0,0,-1,1021,1254,0,0
-196,-230,0,0,0,0,0,0,0,0,0,-1,1028,1254,0,0
-189,-230,0,0,0,0,0,0,0,0,0,-1,1035,1254,0,0
-182,-230,0,0,0,0,0,0,0,0,0,-1,1042,1254,0,0
-175,-230,0,0,0,0,0,0,0,0,0,-1,1049,1254,0,0
-168,-230,0,0,0,0,0,0,0,0,0,-1,1056,1254,0,0
-161,-230,0,0,0,0,0,0,0,0,0,-1,1063,1254,0,0
-154,-230,0,0,0,0,0,0,0,0,0,-1,1070,1254,0,0
-147,-230,0,0,0,0,0,0,0,0,0,-1,1077,1254,0,0
-140,-230,0,0,0,0,0,0,0,0,0,-1,1084,1254,0,0
-133,-230,0,0,0,0,0,0,0,0,0,-1,1091,1254,0,0
-126,-230,0,0,0,0,0,0,0,0,0,-1,1098,1254,0,0
-119,-230,0,0,0,0,0,0,0,0,0,-1,1105,1254,0,0
-112,-230,0,0,0,0,0,0,0,0,0,-1,1112,1254,0,0
-105,-230,0,0,0,0,0,0,0,0,0,-1,1119,1254,0,0
-98,-230,0,0,0,0,0,0,0,0,0,-1,1126,1254,0,0
-91,-230,0,0,0,0,0,0,0,0,0,-1,1133,1254,0,0
-84,-230,0,0,0,0,0,0,0,0,0,-1,1140,1254,0,0
-77,-230,0,0,0,0,0,0,0,0,0,-1,1147,1254,0,0
-70,-230,0,0,0,0,0,0,0,0,0,-1,1154,1254,0,0
-63,-230,0,0,0,0,0,0,0,0,0,-1,1161,1254,0,0
-56,-230,0,0,0,0,0,0,0,0,0,-1,1168,1254,0,0
-49,-230,0,0,0,0,0,0,0,0,0,-1,1175,1254,0,0
-42,-230,0,0,0,0,0,0,0,0,0,-1,1182,1254,0,0
-35,-230,0,0,0,0,0,0,0,0,0,-1,1189,1254,0,0
-28,-230,0,0,0,0,0,0,0,0,0,-1,1196,1254,0,0
-21,-230,0,0,0,0,0,0,0,0,0,-1,1203,1254,0,0
-14,-230,0,0,0,0,0,0,0,0,0,-1,1210,1254,0,0
-7,-230,0,0,0,0,0,0,0,0,0,-1,1217,1254,0,0
0,-230,0,0,0,0,0,0,0,0,0,-1,1224,1254,0,0
7,-230,0,0,0,0,0,0,0,0,0,-1,1231,1254,0,0
14,-230,0,0,0,0,0,0,0,0,0,-1,1238,1254,0,0
21,-230,0,0,0,0,0,0,0,0,0,-1,1245,1254,0,0
28,-230,0,0,0,0,0,0,0,0,0,-1,1252,1254,0,0
35,-230,0,0,0,0,0,0,0,0,0,-1,1259,1254,0,0
42,-230,0,0,0,0,0,0,0,0,0,-1,1266,1254,0,0
49,-230,0,0,0,0,0,0,0,0,0,-1,1273,1254,0,0
56,-230,0,0,0,0,0,0,0,0,0,-1,1280,1254,0,0
63,-230,0,0,0,0,0,0,0,0,0,-1,1287,1254,0,0
70,-230,0,0,0,0,0,0,0,0,0,-1,1294,1254,0,0
77,-230,0,0,0,0,0,0,0,0,0,-1,1301,1254,0,0
84,-230,0,0,0,0,0,0,0,0,0,-1,1308,1254,0,0
91,-230,0,0,0,0,0,0,0,0,0,-1,1315,1254,0,0
98,-230,0,0,0,0,0,0,0,0,0,-1,1322,1254,0,0
105,-230,0,0,0,0,0,0,0,0,0,-1,1329,1254,0,0
112,-230,0,0,0,0,0,0,0,0,0,-1,1336,1254,0,0
119,-230,0,0,0,0,0,0,0,0,0,-1,1343,1254,0,0
126,-230,0,0,0,0,0,0,0,0,0,-1,1350,1254,0,0
133,-230,0,0,0,0,0,0,0,0,0,-1,1357,1254,0,0
140,-230,0,0,0,0,0,0,0,0,0,-1,1364,1254,0,0
147,-230,0,0,0,0,0,0,0,0,0,-1,1371,1254,0,0
154,-230,0,0,0,0,0,0,0,0,0,-1,1378,1254,0,0
161,-230,0,0,0,0,0,0,0,0,0,-1,1385,1254,0,0
168,-230,0,0,0,0,0,0,0,0,0,-1,1392,1254,0,0
175,-230,0,0,0,0,0,0,0,0,0,-1,1399,1254,0,0
182,-230,0,0,0,0,0,0,0,0,0,-1,1406,1254,0,0
189,-230,0,0,0,0,0,0,0,0,0,-1,1413,1254,0,0
196,-230,0,0,0,0,0,0,0,0,0,-1,1420,1254,0,0
203,-230,0,0,0,0,0,0,0,0,0,-1,1427,1254,0,0
210,-230,0,0,0,0,0,0,0,0,0,-1,1434,1254,0,0
217,-230,0,0,0,0,0,0,0,0,0,-1,1441,1254,0,0
224,-230,0,0,0,0,0,0,0,0,0,-1,1448,1254,0,0
231,-230,0,0,0,0,0,0,0,0,0,-1,1455,1254,0,0
238,-230,0,0,0,0,0,0,0,0,0,-1,1462,1254,0,0
245,-230,0,0,0,0,0,0,0,0,0,-1,1469,1254,0,0
252,-230,0,0,0,0,0,0,0,0,0,-1,1476,1254,0,0
259,-230,0,0,0,0,0,0,0,0,0,-1,1483,1254,0,0
266,-230,0,0,0,0,0,0,0,0,0,-1,1490,1254,0,0
273,-230,0,0,0,0,0,0,0,0,0,-1,1497,1254,0,0
280,-230,0,0,0,0,0,0,0,0,0,-1,1504,1254,0,0
287,-230,0,0,0,0,0,0,0,0,0,-1,1511,1254,0,0
294,-230,0,0,0,0,0,0,0,0,0,-1,1518,1254,0,0
301,-230,0,0,0,0,0,0,0,0,0,-1,1525,1254,0,0
308,-230,0,0,0,0,0,0,0,0,0,-1,1532,1254,0,0
315,-230,0,0,0,0,0,0,0,0,0,-1,1539,1254,0,0
322,-230,0,0,0,0,0,0,0,0,0,-1,1546,1254,0,0
329,-230,0,0,0,0,0,0,0,0,0,-1,1553,1254,0,0
336,-230,0,0,0,0,0,0,0,0,0,-1,1560,1254,0,0
343,-230,0,0,0,0,0,0,0,0,0,-1,1567,1254,0,0
350,-230,0,0,0,0,0,0,0,0,0,-1,1574,1254,0,0
357,-230,0,0,0,0,0,0,0,0,0,-1,1581,1254,0,0
364,-230,0,0,0,0,0,0,0,0,0,-1,1588,1254,0,0
371,-230,0,0,0,0,0,0,0,0,0,-1,1595,1254,0,0
378,-230,0,0,0,0,0,0,0,0,0,-1,1602,1254,0,0
385,-230,0,0,0,0,0,0,0,0,0,-1,1609,1254,0,0
392,-230,0,0,0,0,0,0,0,0,0,-1,1616,1254,0,0
399,-230,0,0,0,0,0,0,0,0,0,-1,1623,1254,0,0
406,-230,0,0,0,0,0,0,0,0,0,-1,1630,1254,0,0
413,-230,0,0,0,0,0,0,0,0,0,-1,1637,1254,0,0
420,-230,0,0,0,0,0,0,0,0,0,-1,1644,1254,0,0
427,-230,0,0,0,0,0,0,0,0,0,-1,1651,1254,0,0
434,-230,0,0,0,0,0,0,0,0,0,-1,1658,1254,0,0
441,-230,0,0,0,0,0,0,0,0,0,-1,1665,1254,0,0
448,-230,0,0,0,0,0,0,0,0,0,-1,1672,1254,0,0
455,-230,0,0,0,0,0,0,0,0,0,-1,1679,1254,0,0
462,-230,0,0,0,0,0,0,0,0,0,-1,1686,1254,0,0
469,-230,0,0,0,0,0,0,0,0,0,-1,1693,1254,0,0
476,-230,0,0,0,0,0,0,0,0,0,-1,1700,1254,0,0
483,-230,0,0,0,0,0,0,0,0,0,-1,1707,1254,0,0
490,-230,0,0,0,0,0,0,0,0,0,-1,1714,1254,0,0
497,-230,0,0,0,0,0,0,0,0,0,-1,1721,1254,0,0
504,-230,0,0,0,0,0,0,0,0,0,-1,1728,1254,0,0
511,-230,0,0,0,0,0,0,0,0,0,-1,1735,1254,0,0
518,-230,0,0,0,0,0,0,0,0,0,-1,1742,1254,0,0
525,-230,0,0,0,0,0,0,0,0,0,-1,1749,1254,0,0
532,-230,0,0,0,0,0,0,0,0,0,-1,1756,1254,0,0
539,-230,0,0,0,0,0,0,0,0,0,-1,1763,1254,0,0
546,-230,0,0,0,0,0,0,0,0,0,-1,1770,1254,0,0
553,-230,0,0,0,0,0,0,0,0,0,-1,1777,1254,0,0
560,-230,0,0,0,0,0,0,0,0,0,-1,1784,1254,0,0
567,-230,0,0,0,0,0,0,0,0,0,-1,1791,1254,0,0
574,-230,0,0,0,0,0,0,0,0,0,-1,1798,1254,0,0
581,-230,0,0,0,0,0,0,0,0,0,-1,1805,1254,0,0
588,-230,0,0,0,0,0,0,0,0,0,-1,1812,1254,0,0
595,-230,0,0,0,0,0,0,0,0,0,-1,1819,1254,0,0
602,-230,0,0,0,0,0,0,0,0,0,-1,1826,1254,0,0
609,-230,0,0,0,0,0,0,0,0,0,-1,1833,1254,0,0
616,-230,158.917,5.68958,0,0,0,0,0,0,0,-1,1840,1254,158.917,-5.68962
623,-230,158.799,5.57764,0,0,0,0,0,0,0,-1,1847,1254,158.799,-5.57768
630,-230,158.74,5.3717,0,0,0,0,0,0,0,-1,1854,1254,158.74,-5.37168
637,-230,158.681,5.40601,0,0,0,0,0,0,0,-1,1861,1254,158.681,-5.40599
644,-230,158.654,5.31445,0,0,0,0,0,0,0,-1,1868,1254,158.654,-5.31443
651,-230,158.666,5.20447,0,0,0,0,0,0,0,-1,1875,1254,158.666,-5.20453
658,-230,92.1161,1.86768,0,0,0,0,0,0,0,-1,1882,1254,92.116,-1.86765
665,-230,56.2585,2.51587,0,0,0,0,0,0,0,-1,1889,1254,56.2586,-2.51586
672,-230,43.0962,2.78699,0,0,0,0,0,0,0,-1,1896,1254,43.0962,-2.78698
679,-230,27.9967,2.37708,0,0,0,0,0,0,0,-1,1903,1254,27.9967,-2.3771
686,-230,40.8854,10.1788,0,0,0,0,0,0,0,-1,1910,1254,40.8853,-10.1788
693,-230,84.3876,23.9386,0,0,0,0,0,0,0,-1,1917,1254,84.3876,-23.9386
700,-230,137.017,35.7109,0,0,0,0,0,0,0,-1,1924,1254,137.017,-35.7109
707,-230,136.428,34.2633,0,0,0,0,0,0,0,-1,1931,1254,136.429,-34.2633
714,-230,135.626,33.0391,0,0,0,0,0,0,0,-1,1938,1254,135.626,-33.0391
721,-230,135.654,31.2513,-0.0030413,0.00286336,0.00147758,0.00321247,-0.00339041,1.33878,0.00381264,0.0277201,1945,1254,135.654,-31.2513
728,-230,135.637,29.4756,-0.00846466,0.00818963,0.0062089,0.0102496,-0.0105246,1.25045,0.0119943,0.0223002,1952,1254,135.637,-29.4756
735,-230,135.44,27.9607,-0.0141791,0.0133816,0.0110476,0.0172632,-0.0180607,1.23291,0.020396,0.0242081,1959,1254,135.44,-27.9606
742,-230,135.124,26.3671,-0.0201159,0.0184227,0.0159576,0.0241724,-0.0258656,1.22496,0.028895,0.0167312,1966,1254,135.124,-26.367
749,-230,134.838,24.791,-0.0262098,0.0232943,0.0209098,0.0309442,-0.0338596,1.22007,0.0374271,0.0213011,1973,1254,134.838,-24.791
756,-230,134.289,23.4066,-0.0326338,0.0279465,0.0259848,0.037565,-0.0422523,1.21628,0.046109,0.0428179,1980,1254,134.289,-23.4067
763,-230,134.045,22.5133,0,0,0,0,0,0,0,-1,1987,1254,134.045,-22.5133
770,-230,107.623,16.1041,0,0,0,0,0,0,0,-1,1994,1254,107.623,-16.1041
777,-230,41.8693,3.74707,0,0,0,0,0,0,0,-1,2001,1254,41.8692,-3.74713
784,-230,35.8896,1.80334,0,0,0,0,0,0,0,-1,2008,1254,35.8897,-1.80338
791,-230,35.6028,2.20642,0,0,0,0,0,0,0,-1,2015,1254,35.6027,-2.2064
798,-230,0,0,0,0,0,0,0,0,0,-1,2022,1254,0,0
805,-230,0,0,0,0,0,0,0,0,0,-1,2029,1254,0,0
812,-230,0,0,0,0,0,0,0,0,0,-1,2036,1254,0,0
-700,-237,0,0,0,0,0,0,0,0,0,-1,524,1261,0,0
-693,-237,0,0,0,0,0,0,0,0,0,-1,531,1261,0,0
-686,-237,0,0,0,0,0,0,0,0,0,-1,538,1261,0,0
-679,-237,0,0,0,0,0,0,0,0,0,-1,545,1261,0,0
-672,-237,-81.1678,23.7125,0,0,0,0,0,0,0,-1,552,1261,-81.1678,-23.7125
-665,-237,-81.6478,25.696,0,0,0,0,0,0,0,-1,559,1261,-81.6478,-25.6961
-658,-237,-81.9223,27.0465,0,0,0,0,0,0,0,-1,566,1261,-81.9223,-27.0465
-651,-237,-81.7989,29.6414,0,0,0,0,0,0,0,-1,573,1261,-81.7989,-29.6414
-644,-237,-62.5868,9.75488,0,0,0,0,0,0,0,-1,580,1261,-62.5868,-9.75482
-637,-237,-33.4961,2.71313,0,0,0,0,0,0,0,-1,587,1261,-33.4961,-2.71312
-630,-237,-45.178,6.85889,0,0,0,0,0,0,0,-1,594,1261,-45.1781,-6.85892
-623,-237,-126.189,23.7355,0,0,0,0,0,0,0,-1,601,1261,-126.189,-23.7355
-616,-237,-126.258,25.2926,-0.0141952,0.0253767,-0.00994097,0.0277336,-0.0165522,-1.338,0.0258386,0.0312223,608,1261,-126.258,-25.2927
-609,-237,-126.6,26.8171,-0.0133038,0.0191528,-0.00974953,0.0218563,-0.0160073,-1.3003,0.0219473,0.0213838,615,1261,-126.6,-26.8172
-602,-237,-126.83,28.3159,-0.0118274,0.0127971,-0.00869448,0.0155575,-0.0145879,-1.26337,0.0174075,0.016547,622,1261,-126.83,-28.316
-595,-237,-127.217,29.7881,-0.00959369,0.00636948,-0.00661906,0.00875697,-0.0119812,-1.22462,0.0120213,0.0318228,629,1261,-127.217,-29.7881
-588,-237,-127.606,31.2166,0,0,0,0,0,0,0,-1,636,1261,-127.606,-31.2166
-581,-237,-127.619,32.8578,0,0,0,0,0,0,0,-1,643,1261,-127.619,-32.8578
-574,-237,-127.827,34.7651,0,0,0,0,0,0,0,-1,650,1261,-127.827,-34.7651
-567,-237,-128.034,36.6724,0,0,0,0,0,0,0,-1,657,1261,-128.034,-36.6724
-560,-237,-55.2889,19.8724,0,0,0,0,0,0,0,-1,664,1261,-55.2889,-19.8725
-553,-237,-20.6102,6.92139,0,0,0,0,0,0,0,-1,671,1261,-20.6102,-6.92138
-546,-237,-11.192,1.14014,0,0,0,0,0,0,0,-1,678,1261,-11.192,-1.14011
-539,-237,-16.512,1.53455,0,0,0,0,0,0,0,-1,685,1261,-16.512,-1.53457
-532,-237,-29.7025,1.23621,0,0,0,0,0,0,0,-1,692,1261,-29.7025,-1.23618
-525,-237,-47.2925,0.590942,0,0,0,0,0,0,0,-1,699,1261,-47.2925,-0.590989
-518,-237,-48.2897,0.765869,0,0,0,0,0,0,0,-1,706,1261,-48.2897,-0.765854
-511,-237,-71.7244,0.621704,0,0,0,0,0,0,0,-1,713,1261,-71.7244,-0.621723
-504,-237,-72.0632,0.737671,0,0,0,0,0,0,0,-1,720,1261,-72.0632,-0.737635
-497,-237,-72.178,0.960449,0,0,0,0,0,0,0,-1,727,1261,-72.178,-0.960392
-490,-237,0,0,0,0,0,0,0,0,0,-1,734,1261,0,0
-483,-237,0,0,0,0,0,0,0,0,0,-1,741,1261,0,0
-476,-237,0,0,0,0,0,0,0,0,0,-1,748,1261,0,0
-469,-237,0,0,0,0,0,0,0,0,0,-1,755,1261,0,0
-462,-237,0,0,0,0,0,0,0,0,0,-1,762,1261,0,0
-455,-237,0,0,0,0,0,0,0,0,0,-1,769,1261,0,0
-448,-237,0,0,0,0,0,0,0,0,0,-1,776,1261,0,0
-441,-237,0,0,0,0,0,0,0,0,0,-1,783,1261,0,0
-434,-237,0,0,0,0,0,0,0,0,0,-1,790,1261,0,0
-427,-237,0,0,0,0,0,0,0,0,0,-1,797,1261,0,0
-420,-237,0,0,0,0,0,0,0,0,0,-1,804,1261,0,0
-413,-237,0,0,0,0,0,0,0,0,0,-1,811,1261,0,0
-406,-237,0,0,0,0,0,0,0,0,0,-1,818,1261,0,0
-399,-237,0,0,0,0,0,0,0,0,0,-1,825,1261,0,0
-392,-237,0,0,0,0,0,0,0,0,0,-1,832,1261,0,0
-385,-237,0,0,0,0,0,0,0,0,0,-1,839,1261,0,0
-378,-237,0,0,0,0,0,0,0,0,0,-1,846,1261,0,0
-371,-237,0,0,0,0,0,0,0,0,0,-1,853,1261,0,0
-364,-237,0,0,0,0,0,0,0,0,0,-1,860,1261,0,0
-357,-237,0,0,0,0,0,0,0,0,0,-1,867,1261,0,0
-350,-237,0,0,0,0,0,0,0,0,0,-1,874,1261,0,0
-343,-237,0,0,0,0,0,0,0,0,0,-1,881,1261,0,0
-336,-237,0,0,0,0,0,0,0,0,0,-1,888,1261,0,0
-329,-237,0,0,0,0,0,0,0,0,0,-1,895,1261,0,0
-322,-237,0,0,0,0,0,0,0,0,0,-1,902,1261,0,0
-315,-237,0,0,0,0,0,0,0,0,0,-1,909,1261,0,0
-308,-237,0,0,0,0,0,0,0,0,0,-1,916,1261,0,0
-301,-237,0,0,0,0,0,0,0,0,0,-1,923,1261,0,0
-294,-237,0,0,0,0,0,0,0,0,0,-1,930,1261,0,0
-287,-237,0,0,0,0,0,0,0,0,0,-1,937,1261,0,0
-280,-237,0,0,0,0,0,0,0,0,0,-1,944,1261,0,0
-273,-237,0,0,0,0,0,0,0,0,0,-1,951,1261,0,0
-266,-237,0,0,0,0,0,0,0,0,0,-1,958,1261,0,0
-259,-237,0,0,0,0,0,0,0,0,0,-1,965,1261,0,0
-252,-237,0,0,0,0,0,0,0,0,0,-1,972,1261,0,0
-245,-237,0,0,0,0,0,0,0,0,0,-1,979,1261,0,0
-238,-237,0,0,0,0,0,0,0,0,0,-1,986,1261,0,0
-231,-237,0,0,0,0,0,0,0,0,0,-1,993,1261,0,0
-224,-237,0,0,0,0,0,0,0,0,0,-1,1000,1261,0,0
-217,-237,0,0,0,0,0,0,0,0,0,-1,1007,1261,0,0
-210,-237,0,0,0,0,0,0,0,0,0,-1,1014,1261,0,0
-203,-237,0,0,0,0,0,0,0,0,0,-1,1021,1261,0,0
-196,-237,0,0,0,0,0,0,0,0,0,-1,1028,1261,0,0
-189,-237,0,0,0,0,0,0,0,0,0,-1,1035,1261,0,0
-182,-237,0,0,0,0,0,0,0,0,0,-1,1042,1261,0,0
-175,-237,0,0,0,0,0,0,0,0,0,-1,1049,1261,0,0
-168,-237,0,0,0,0,0,0,0,0,0,-1,1056,1261,0,0
-161,-237,0,0,0,0,0,0,0,0,0,-1,1063,1261,0,0
-154,-237,0,0,0,0,0,0,0,0,0,-1,1070,1261,0,0
-147,-237,0,0,0,0,0,0,0,0,0,-1,1077,1261,0,0
-140,-237,0,0,0,0,0,0,0,0,0,-1,1084,1261,0,0
-133,-237,0,0,0,0,0,0,0,0,0,-1,1091,1261,0,0
-126,-237,0,0,0,0,0,0,0,0,0,-1,1098,1261,0,0
-119,-237,0,0,0,0,0,0,0,0,0,-1,1105,1261,0,0
-112,-237,0,0,0,0,0,0,0,0,0,-1,1112,1261,0,0
-105,-237,0,0,0,0,0,0,0,0,0,-1,1119,1261,0,0
-98,-237,0,0,0,0,0,0,0,0,0,-1,1126,1261,0,0
-91,-237,0,0,0,0,0,0,0,0,0,-1,1133,1261,0,0
-84,-237,0,0,0,0,0,0,0,0,0,-1,1140,1261,0,0
-77,-237,0,0,0,0,0,0,0,0,0,-1,1147,1261,0,0
-70,-237,0,0,0,0,0,0,0,0,0,-1,1154,1261,0,0
-63,-237,0,0,0,0,0,0,0,0,0,-1,1161,1261,0,0
-56,-237,0,0,0,0,0,0,0,0,0,-1,1168,1261,0,0
-49,-237,0,0,0,0,0,0,0,0,0,-1,1175,1261,0,0
-42,-237,0,0,0,0,0,0,0,0,0,-1,1182,1261,0,0
-35,-237,0,0,0,0,0,0,0,0,0,-1,1189,1261,0,0
-28,-237,0,0,0,0,0,0,0,0,0,-1,1196,1261,0,0
-21,-237,0,0,0,0,0,0,0,0,0,-1,1203,1261,0,0
-14,-237,0,0,0,0,0,0,0,0,0,-1,1210,1261,0,0
-7,-237,0,0,0,0,0,0,0,0,0,-1,1217,1261,0,0
0,-237,0,0,0,0,0,0,0,0,0,-1,1224,1261,0,0
7,-237,0,0,0,0,0,0,0,0,0,-1,1231,1261,0,0
14,-237,0,0,0,0,0,0,0,0,0,-1,1238,1261,0,0
21,-237,0,0,0,0,0,0,0,0,0,-1,1245,1261,0,0
28,-237,0,0,0,0,0,0,0,0,0,-1,1252,1261,0,0
35,-237,0,0,0,0,0,0,0,0,0,-1,1259,1261,0,0
42,-237,0,0,0,0,0,0,0,0,0,-1,1266,1261,0,0
49,-237,0,0,0,0,0,0,0,0,0,-1,1273,1261,0,0
56,-237,0,0,0,0,0,0,0,0,0,-1,1280,1261,0,0
63,-237,0,0,0,0,0,0,0,0,0,-1,1287,1261,0,0
70,-237,0,0,0,0,0,0,0,0,0,-1,1294,1261,0,0
77,-237,0,0,0,0,0,0,0,0,0,-1,1301,1261,0,0
84,-237,0,0,0,0,0,0,0,0,0,-1,1308,1261,0,0
91,-237,0,0,0,0,0,0,0,0,0,-1,1315,1261,0,0
98,-237,0,0,0,0,0,0,0,0,0,-1,1322,1261,0,0
105,-237,0,0,0,0,0,0,0,0,0,-1,1329,1261,0,0
112,-237,0,0,0,0,0,0,0,0,0,-1,1336,1261,0,0
119,-237,0,0,0,0,0,0,0,0,0,-1,1343,1261,0,0
126,-237,0,0,0,0,0,0,0,0,0,-1,1350,1261,0,0
133,-237,0,0,0,0,0,0,0,0,0,-1,1357,1261,0,0
140,-237,0,0,0,0,0,0,0,0,0,-1,1364,1261,0,0
147,-237,0,0,0,0,0,0,0,0,0,-1,1371,1261,0,0
154,-237,0,0,0,0,0,0,0,0,0,-1,1378,1261,0,0
161,-237,0,0,0,0,0,0,0,0,0,-1,1385,1261,0,0
168,-237,0,0,0,0,0,0,0,0,0,-1,1392,1261,0,0
175,-237,0,0,0,0,0,0,0,0,0,-1,1399,1261,0,0
182,-237,0,0,0,0,0,0,0,0,0,-1,1406,1261,0,0
189,-237,0,0,0,0,0,0,0,0,0,-1,1413,1261,0,0
196,-237,0,0,0,0,0,0,0,0,0,-1,1420,1261,0,0
203,-237,0,0,0,0,0,0,0,0,0,-1,1427,1261,0,0
210,-237,0,0,0,0,0,0,0,0,0,-1,1434,1261,0,0
217,-237,0,0,0,0,0,0,0,0,0,-1,1441,1261,0,0
224,-237,0,0,0,0,0,0,0,0,0,-1,1448,1261,0,0
231,-237,0,0,0,0,0,0,0,0,0,-1,1455,1261,0,0
238,-237,0,0,0,0,0,0,0,0,0,-1,1462,1261,0,0
245,-237,0,0,0,0,0,0,0,0,0,-1,1469,1261,0,0
252,-237,0,0,0,0,0,0,0,0,0,-1,1476,1261,0,0
259,-237,0,0,0,0,0,0,0,0,0,-1,1483,1261,0,0
266,-237,0,0,0,0,0,0,0,0,0,-1,1490,1261,0,0
273,-237,0,0,0,0,0,0,0,0,0,-1,1497,1261,0,0
280,-237,0,0,0,0,0,0,0,0,0,-1,1504,1261,0,0
287,-237,0,0,0,0,0,0,0,0,0,-1,1511,1261,0,0
294,-237,0,0,0,0,0,0,0,0,0,-1,1518,1261,0,0
301,-237,0,0,0,0,0,0,0,0,0,-1,1525,1261,0,0
308,-237,0,0,0,0,0,0,0,0,0,-1,1532,1261,0,0
315,-237,0,0,0,0,0,0,0,0,0,-1,1539,1261,0,0
322,-237,0,0,0,0,0,0,0,0,0,-1,1546,1261,0,0
329,-237,0,0,0,0,0,0,0,0,0,-1,1553,1261,0,0
336,-237,0,0,0,0,0,0,0,0,0,-1,1560,1261,0,0
343,-237,0,0,0,0,0,0,0,0,0,-1,1567,1261,0,0
350,-237,0,0,0,0,0,0,0,0,0,-1,1574,1261,0,0
357,-237,0,0,0,0,0,0,0,0,0,-1,1581,1261,0,0
364,-237,0,0,0,0,0,0,0,0,0,-1,1588,1261,0,0
371,-237,0,0,0,0,0,0,0,0,0,-1,1595,1261,0,0
378,-237,0,0,0,0,0,0,0,0,0,-1,1602,1261,0,0
385,-237,0,0,0,0,0,0,0,0,0,-1,1609,1261,0,0
392,-237,0,0,0,0,0,0,0,0,0,-1,1616,1261,0,0
399,-237,0,0,0,0,0,0,0,0,0,-1,1623,1261,0,0
406,-237,0,0,0,0,0,0,0,0,0,-1,1630,1261,0,0
413,-237,0,0,0,0,0,0,0,0,0,-1,1637,1261,0,0
420,-237,0,0,0,0,0,0,0,0,0,-1,1644,1261,0,0
427,-237,0,0,0,0,0,0,0,0,0,-1,1651,1261,0,0
434,-237,0,0,0,0,0,0,0,0,0,-1,1658,1261,0,0
441,-237,0,0,0,0,0,0,0,0,0,-1,1665,1261,0,0
448,-237,0,0,0,0,0,0,0,0,0,-1,1672,1261,0,0
455,-237,0,0,0,0,0,0,0,0,0,-1,1679,1261,0,0
462,-237,0,0,0,0,0,0,0,0,0,-1,1686,1261,0,0
469,-237,0,0,0,0,0,0,0,0,0,-1,1693,1261,0,0
476,-237,0,0,0,0,0,0,0,0,0,-1,1700,1261,0,0
483,-237,0,0,0,0,0,0,0,0,0,-1,1707,1261,0,0
490,-237,0,0,0,0,0,0,0,0,0,-1,1714,1261,0,0
497,-237,0,0,0,0,0,0,0,0,0,-1,1721,1261,0,0
504,-237,0,0,0,0,0,0,0,0,0,-1,1728,1261,0,0
511,-237,0,0,0,0,0,0,0,0,0,-1,1735,1261,0,0
518,-237,0,0,0,0,0,0,0,0,0,-1,1742,1261,0,0
525,-237,0,0,0,0,0,0,0,0,0,-1,1749,1261,0,0
532,-237,0,0,0,0,0,0,0,0,0,-1,1756,1261,0,0
539,-237,0,0,0,0,0,0,0,0,0,-1,1763,1261,0,0
546,-237,0,0,0,0,0,0,0,0,0,-1,1770,1261,0,0
553,-237,0,0,0,0,0,0,0,0,0,-1,1777,1261,0,0
560,-237,0,0,0,0,0,0,0,0,0,-1,1784,1261,0,0
567,-237,0,0,0,0,0,0,0,0,0,-1,1791,1261,0,0
574,-237,0,0,0,0,0,0,0,0,0,-1,1798,1261,0,0
581,-237,0,0,0,0,0,0,0,0,0,-1,1805,1261,0,0
588,-237,0,0,0,0,0,0,0,0,0,-1,1812,1261,0,0
595,-237,0,0,0,0,0,0,0,0,0,-1,1819,1261,0,0
602,-237,0,0,0,0,0,0,0,0,0,-1,1826,1261,0,0
609,-237,0,0,0,0,0,0,0,0,0,-1,1833,1261,0,0
616,-237,158.858,5.48865,0,0,0,0,0,0,0,-1,1840,1261,158.858,-5.48869
623,-237,158.868,5.53772,0,0,0,0,0,0,0,-1,1847,1261,158.868,-5.53776
630,-237,158.787,5.49463,0,0,0,0,0,0,0,-1,1854,1261,158.787,-5.49463
637,-237,158.651,5.34338,0,0,0,0,0,0,0,-1,1861,1261,158.651,-5.34333
644,-237,158.674,5.27393,0,0,0,0,0,0,0,-1,1868,1261,158.674,-5.27394
651,-237,102.834,1.94067,0,0,0,0,0,0,0,-1,1875,1261,102.834,-1.94072
658,-237,76.8235,1.29675,0,0,0,0,0,0,0,-1,1882,1261,76.8235,-1.2968
665,-237,57.9302,3.30676,0,0,0,0,0,0,0,-1,1889,1261,57.9302,-3.30671
672,-237,45.3922,1.95618,0,0,0,0,0,0,0,-1,1896,1261,45.3922,-1.95623
679,-237,23.1501,7.37488,0,0,0,0,0,0,0,-1,1903,1261,23.1502,-7.37493
686,-237,67.415,18.053,0,0,0,0,0,0,0,-1,1910,1261,67.415,-18.053
693,-237,90.6783,27.291,0,0,0,0,0,0,0,-1,1917,1261,90.6784,-27.291
700,-237,135.263,36.3452,0,0,0,0,0,0,0,-1,1924,1261,135.263,-36.3452
707,-237,134.8,34.6763,0,0,0,0,0,0,0,-1,1931,1261,134.8,-34.6763
714,-237,134.379,33.1512,0,0,0,0,0,0,0,-1,1938,1261,134.379,-33.1512
721,-237,134.101,31.3376,-0.00519318,0.00406644,0.00333775,0.00514414,-0.00627088,1.25848,0.00660116,0.0382449,1945,1261,134.101,-31.3376
728,-237,133.913,29.5834,-0.0104676,0.00930836,0.00825916,0.0123039,-0.0134632,1.22286,0.0148817,0.0250637,1952,1261,133.913,-29.5834
735,-237,133.635,28.0001,-0.0161178,0.0144199,0.0133427,0.0194283,-0.0211262,1.21171,0.0234209,0.0266575,1959,1261,133.635,-28.0001
742,-237,133.417,26.4156,-0.0220881,0.0193805,0.0185556,0.0264711,-0.0291786,1.20579,0.032142,0.0226787,1966,1261,133.417,-26.4156
749,-237,133.128,24.9135,-0.028322,0.0241668,0.0238698,0.0333982,-0.0375535,1.20177,0.0409874,0.0240019,1973,1261,133.128,-24.9135
756,-237,132.206,23.1327,0,0,0,0,0,0,0,-1,1980,1261,132.205,-23.1327
763,-237,106.22,17.7108,0,0,0,0,0,0,0,-1,1987,1261,106.22,-17.7108
770,-237,105.618,16.0095,0,0,0,0,0,0,0,-1,1994,1261,105.618,-16.0095
777,-237,56.8215,4.47815,0,0,0,0,0,0,0,-1,2001,1261,56.8214,-4.47817
784,-237,36.3441,1.68591,0,0,0,0,0,0,0,-1,2008,1261,36.3441,-1.68592
791,-237,32.3025,6.03235,0,0,0,0,0,0,0,-1,2015,1261,32.3025,-6.03229
798,-237,0,0,0,0,0,0,0,0,0,-1,2022,1261,0,0
805,-237,0,0,0,0,0,0,0,0,0,-1,2029,1261,0,0
812,-237,0,0,0,0,0,0,0,0,0,-1,2036,1261,0,0
-700,-244,0,0,0,0,0,0,0,0,0,-1,524,1268,0,0
-693,-244,0,0,0,0,0,0,0,0,0,-1,531,1268,0,0
-686,-244,0,0,0,0,0,0,0,0,0,-1,538,1268,0,0
-679,-244,0,0,0,0,0,0,0,0,0,-1,545,1268,0,0
-672,-244,-74.9612,20.7479,0,0,0,0,0,0,0,-1,552,1268,-74.9612,-20.7479
-665,-244,-75.2466,22.6189,0,0,0,0,0,0,0,-1,559,1268,-75.2466,-22.6189
-658,-244,-82.4415,27.5525,0,0,0,0,0,0,0,-1,566,1268,-82.4415,-27.5525
-651,-244,-75.8113,25.9297,0,0,0,0,0,0,0,-1,573,1268,-75.8113,-25.9297
-644,-244,-62.6064,9.31079,0,0,0,0,0,0,0,-1,580,1268,-62.6065,-9.31082
-637,-244,-51.7188,8.54675,0,0,0,0,0,0,0,-1,587,1268,-51.7187,-8.54672
-630,-244,-51.6189,9.35242,0,0,0,0,0,0,0,-1,594,1268,-51.6189,-9.35244
-623,-244,-124.329,23.8484,0,0,0,0,0,0,0,-1,601,1268,-124.329,-23.8484
-616,-244,-124.518,25.2838,-0.0144093,0.0273155,-0.0101993,0.0296752,-0.016769,-1.34344,0.0271575,0.0389993,608,1268,-124.518,-25.2838
-609,-244,-124.974,26.8503,-0.0136883,0.0209318,-0.0101025,0.0236642,-0.0164206,-1.30665,0.0232686,0.0221853,615,1268,-124.974,-26.8503
-602,-244,-125.182,28.3621,-0.0122504,0.0144353,-0.00904697,0.0172132,-0.0150284,-1.27288,0.0186289,0.0205593,622,1268,-125.182,-28.362
-595,-244,-125.5,29.9532,-0.00995439,0.00790009,-0.00689803,0.0102546,-0.0123089,-1.24186,0.0130451,0.0225541,629,1268,-125.5,-29.9533
-588,-244,-126.123,31.4563,-0.00669602,0.00138234,-0.00355781,0.00272582,-0.0080395,-1.20974,0.00646281,0.0449132,636,1268,-126.123,-31.4563
-581,-244,-126.989,32.9535,0,0,0,0,0,0,0,-1,643,1268,-126.989,-32.9535
-574,-244,-126.104,34.873,0,0,0,0,0,0,0,-1,650,1268,-126.104,-34.8731
-567,-244,-126.431,36.6958,0,0,0,0,0,0,0,-1,657,1268,-126.431,-36.6958
-560,-244,-82.1958,30.7954,0,0,0,0,0,0,0,-1,664,1268,-82.1958,-30.7954
-553,-244,-54.347,20.9492,0,0,0,0,0,0,0,-1,671,1268,-54.347,-20.9492
-546,-244,-11.2686,4.41772,0,0,0,0,0,0,0,-1,678,1268,-11.2686,-4.41767
-539,-244,-12.8706,0.3302,0,0,0,0,0,0,0,-1,685,1268,-12.8706,-0.330156
-532,-244,-18.1502,0.816528,0,0,0,0,0,0,0,-1,692,1268,-18.1502,-0.816514
-525,-244,-33.0835,0.693604,0,0,0,0,0,0,0,-1,699,1268,-33.0835,-0.69365
-518,-244,-47.5015,0.609131,0,0,0,0,0,0,0,-1,706,1268,-47.5015,-0.60919
-511,-244,-48.6138,1.11877,0,0,0,0,0,0,0,-1,713,1268,-48.6138,-1.11872
-504,-244,-72.0964,0.876465,0,0,0,0,0,0,0,-1,720,1268,-72.0964,-0.876515
-497,-244,-72.4528,1.26904,0,0,0,0,0,0,0,-1,727,1268,-72.4529,-1.26907
-490,-244,0,0,0,0,0,0,0,0,0,-1,734,1268,0,0
-483,-244,0,0,0,0,0,0,0,0,0,-1,741,1268,0,0
-476,-244,0,0,0,0,0,0,0,0,0,-1,748,1268,0,0
-469,-244,0,0,0,0,0,0,0,0,0,-1,755,1268,0,0
-462,-244,0,0,0,0,0,0,0,0,0,-1,762,1268,0,0
-455,-244,0,0,0,0,0,0,0,0,0,-1,769,1268,0,0
-448,-244,0,0,0,0,0,0,0,0,0,-1,776,1268,0,0
-441,-244,0,0,0,0,0,0,0,0,0,-1,783,1268,0,0
-434,-244,0,0,0,0,0,0,0,0,0,-1,790,1268,0,0
-427,-244,0,0,0,0,0,0,0,0,0,-1,797,1268,0,0
-420,-244,0,0,0,0,0,0,0,0,0,-1,804,1268,0,0
-413,-244,0,0,0,0,0,0,0,0,0,-1,811,1268,0,0
-406,-244,0,0,0,0,0,0,0,0,0,-1,818,1268,0,0
-399,-244,0,0,0,0,0,0,0,0,0,-1,825,1268,0,0
-392,-244,0,0,0,0,0,0,0,0,0,-1,832,1268,0,0
-385,-244,0,0,0,0,0,0,0,0,0,-1,839,1268,0,0
-378,-244,0,0,0,0,0,0,0,0,0,-1,846,1268,0,0
-371,-244,0,0,0,0,0,0,0,0,0,-1,853,1268,0,0
-364,-244,0,0,0,0,0,0,0,0,0,-1,860,1268,0,0
-357,-244,0,0,0,0,0,0,0,0,0,-1,867,1268,0,0
-350,-244,0,0,0,0,0,0,0,0,0,-1,874,1268,0,0
-343,-244,0,0,0,0,0,0,0,0,0,-1,881,1268,0,0
-336,-244,0,0,0,0,0,0,0,0,0,-1,888,1268,0,0
-329,-244,0,0,0,0,0,0,0,0,0,-1,895,1268,0,0
-322,-244,0,0,0,0,0,0,0,0,0,-1,902,1268,0,0
-315,-244,0,0,0,0,0,0,0,0,0,-1,909,1268,0,0
-308,-244,0,0,0,0,0,0,0,0,0,-1,916,1268,0,0
-301,-244,0,0,0,0,0,0,0,0,0,-1,923,1268,0,0
-294,-244,0,0,0,0,0,0,0,0,0,-1,930,1268,0,0
-287,-244,0,0,0,0,0,0,0,0,0,-1,937,1268,0,0
-280,-244,0,0,0,0,0,0,0,0,0,-1,944,1268,0,0
-273,-244,0,0,0,0,0,0,0,0,0,-1,951,1268,0,0
-266,-244,0,0,0,0,0,0,0,0,0,-1,958,1268,0,0
-259,-244,0,0,0,0,0,0,0,0,0,-1,965,1268,0,0
-252,-244,0,0,0,0,0,0,0,0,0,-1,972,1268,0,0
-245,-244,0,0,0,0,0,0,0,0,0,-1,979,1268,0,0
-238,-244,0,0,0,0,0,0,0,0,0,-1,986,1268,0,0
-231,-244,0,0,0,0,0,0,0,0,0,-1,993,1268,0,0
-224,-244,0,0,0,0,0,0,0,0,0,-1,1000,1268,0,0
-217,-244,0,0,0,0,0,0,0,0,0,-1,1007,1268,0,0
-210,-244,0,0,0,0,0,0,0,0,0,-1,1014,1268,0,0
-203,-244,0,0,0,0,0,0,0,0,0,-1,1021,1268,0,0
-196,-244,0,0,0,0,0,0,0,0,0,-1,1028,1268,0,0
-189,-244,0,0,0,0,0,0,0,0,0,-1,1035,1268,0,0
-182,-244,0,0,0,0,0,0,0,0,0,-1,1042,1268,0,0
-175,-244,0,0,0,0,0,0,0,0,0,-1,1049,1268,0,0
-168,-244,0,0,0,0,0,0,0,0,0,-1,1056,1268,0,0
-161,-244,0,0,0,0,0,0,0,0,0,-1,1063,1268,0,0
-154,-244,0,0,0,0,0,0,0,0,0,-1,1070,1268,0,0
-147,-244,0,0,0,0,0,0,0,0,0,-1,1077,1268,0,0
-140,-244,0,0,0,0,0,0,0,0,0,-1,1084,1268,0,0
-133,-244,0,0,0,0,0,0,0,0,0,-1,1091,1268,0,0
-126,-244,0,0,0,0,0,0,0,0,0,-1,1098,1268,0,0
-119,-244,0,0,0,0,0,0,0,0,0,-1,1105,1268,0,0
-112,-244,0,0,0,0,0,0,0,0,0,-1,1112,1268,0,0
-105,-244,0,0,0,0,0,0,0,0,0,-1,1119,1268,0,0
-98,-244,0,0,0,0,0,0,0,0,0,-1,1126,1268,0,0
-91,-244,0,0,0,0,0,0,0,0,0,-1,1133,1268,0,0
-84,-244,0,0,0,0,0,0,0,0,0,-1,1140,1268,0,0
-77,-244,0,0,0,0,0,0,0,0,0,-1,1147,1268,0,0
-70,-244,0,0,0,0,0,0,0,0,0,-1,1154,1268,0,0
-63,-244,0,0,0,0,0,0,0,0,0,-1,1161,1268,0,0
-56,-244,0,0,0,0,0,0,0,0,0,-1,1168,1268,0,0
-49,-244,0,0,0,0,0,0,0,0,0,-1,1175,1268,0,0
-42,-244,0,0,0,0,0,0,0,0,0,-1,1182,1268,0,0
-35,-244,0,0,0,0,0,0,0,0,0,-1,1189,1268,0,0
-28,-244,0,0,0,0,0,0,0,0,0,-1,1196,1268,0,0
-21,-244,0,0,0,0,0,0,0,0,0,-1,1203,1268,0,0
-14,-244,0,0,0,0,0,0,0,0,0,-1,1210,1268,0,0
-7,-244,0,0,0,0,0,0,0,0,0,-1,1217,1268,0,0
0,-244,0,0,0,0,0,0,0,0,0,-1,1224,1268,0,0
7,-244,0,0,0,0,0,0,0,0,0,-1,1231,1268,0,0
14,-244,0,0,0,0,0,0,0,0,0,-1,1238,1268,0,0
21,-244,0,0,0,0,0,0,0,0,0,-1,1245,1268,0,0
28,-244,0,0,0,0,0,0,0,0,0,-1,1252,1268,0,0
35,-244,0,0,0,0,0,0,0,0,0,-1,1259,1268,0,0
42,-244,0,0,0,0,0,0,0,0,0,-1,1266,1268,0,0
49,-244,0,0,0,0,0,0,0,0,0,-1,1273,1268,0,0
56,-244,0,0,0,0,0,0,0,0,0,-1,1280,1268,0,0
63,-244,0,0,0,0,0,0,0,0,0,-1,1287,1268,0,0
70,-244,0,0,0,0,0,0,0,0,0,-1,1294,1268,0,0
77,-244,0,0,0,0,0,0,0,0,0,-1,1301,1268,0,0
84,-244,0,0,0,0,0,0,0,0,0,-1,1308,1268,0,0
91,-244,0,0,0,0,0,0,0,0,0,-1,1315,1268,0,0
98,-244,0,0,0,0,0,0,0,0,0,-1,1322,1268,0,0
105,-244,0,0,0,0,0,0,0,0,0,-1,1329,1268,0,0
112,-244,0,0,0,0,0,0,0,0,0,-1,1336,1268,0,0
119,-244,0,0,0,0,0,0,0,0,0,-1,1343,1268,0,0
126,-244,0,0,0,0,0,0,0,0,0,-1,1350,1268,0,0
133,-244,0,0,0,0,0,0,0,0,0,-1,1357,1268,0,0
140,-244,0,0,0,0,0,0,0,0,0,-1,1364,1268,0,0
147,-244,0,0,0,0,0,0,0,0,0,-1,1371,1268,0,0
154,-244,0,0,0,0,0,0,0,0,0,-1,1378,1268,0,0
161,-244,0,0,0,0,0,0,0,0,0,-1,1385,1268,0,0
168,-244,0,0,0,0,0,0,0,0,0,-1,1392,1268,0,0
175,-244,0,0,0,0,0,0,0,0,0,-1,1399,1268,0,0
182,-244,0,0,0,0,0,0,0,0,0,-1,1406,1268,0,0
189,-244,0,0,0,0,0,0,0,0,0,-1,1413,1268,0,0
196,-244,0,0,0,0,0,0,0,0,0,-1,1420,1268,0,0
203,-244,0,0,0,0,0,0,0,0,0,-1,1427,1268,0,0
210,-244,0,0,0,0,0,0,0,0,0,-1,1434,1268,0,0
217,-244,0,0,0,0,0,0,0,0,0,-1,1441,1268,0,0
224,-244,0,0,0,0,0,0,0,0,0,-1,1448,1268,0,0
231,-244,0,0,0,0,0,0,0,0,0,-1,1455,1268,0,0
238,-244,0,0,0,0,0,0,0,0,0,-1,1462,1268,0,0
245,-244,0,0,0,0,0,0,0,0,0,-1,1469,1268,0,0
252,-244,0,0,0,0,0,0,0,0,0,-1,1476,1268,0,0
259,-244,0,0,0,0,0,0,0,0,0,-1,1483,1268,0,0
266,-244,0,0,0,0,0,0,0,0,0,-1,1490,1268,0,0
273,-244,0,0,0,0,0,0,0,0,0,-1,1497,1268,0,0
280,-244,0,0,0,0,0,0,0,0,0,-1,1504,1268,0,0
287,-244,0,0,0,0,0,0,0,0,0,-1,1511,1268,0,0
294,-244,0,0,0,0,0,0,0,0,0,-1,1518,1268,0,0
301,-244,0,0,0,0,0,0,0,0,0,-1,1525,1268,0,0
308,-244,0,0,0,0,0,0,0,0,0,-1,1532,1268,0,0
315,-244,0,0,0,0,0,0,0,0,0,-1,1539,1268,0,0
322,-244,0,0,0,0,0,0,0,0,0,-1,1546,1268,0,0
329,-244,0,0,0,0,0,0,0,0,0,-1,1553,1268,0,0
336,-244,0,0,0,0,0,0,0,0,0,-1,1560,1268,0,0
343,-244,0,0,0,0,0,0,0,0,0,-1,1567,1268,0,0
350,-244,0,0,0,0,0,0,0,0,0,-1,1574,1268,0,0
357,-244,0,0,0,0,0,0,0,0,0,-1,1581,1268,0,0
364,-244,0,0,0,0,0,0,0,0,0,-1,1588,1268,0,0
371,-244,0,0,0,0,0,0,0,0,0,-1,1595,1268,0,0
378,-244,0,0,0,0,0,0,0,0,0,-1,1602,1268,0,0
385,-244,0,0,0,0,0,0,0,0,0,-1,1609,1268,0,0
392,-244,0,0,0,0,0,0,0,0,0,-1,1616,1268,0,0
399,-244,0,0,0,0,0,0,0,0,0,-1,1623,1268,0,0
406,-244,0,0,0,0,0,0,0,0,0,-1,1630,1268,0,0
413,-244,0,0,0,0,0,0,0,0,0,-1,1637,1268,0,0
420,-244,0,0,0,0,0,0,0,0,0,-1,1644,1268,0,0
427,-244,0,0,0,0,0,0,0,0,0,-1,1651,1268,0,0
434,-244,0,0,0,0,0,0,0,0,0,-1,1658,1268,0,0
441,-244,0,0,0,0,0,0,0,0,0,-1,1665,1268,0,0
448,-244,0,0,0,0,0,0,0,0,0,-1,1672,1268,0,0
455,-244,0,0,0,0,0,0,0,0,0,-1,1679,1268,0,0
462,-244,0,0,0,0,0,0,0,0,0,-1,1686,1268,0,0
469,-244,0,0,0,0,0,0,0,0,0,-1,1693,1268,0,0
476,-244,0,0,0,0,0,0,0,0,0,-1,1700,1268,0,0
483,-244,0,0,0,0,0,0,0,0,0,-1,1707,1268,0,0
490,-244,0,0,0,0,0,0,0,0,0,-1,1714,1268,0,0
497,-244,0,0,0,0,0,0,0,0,0,-1,1721,1268,0,0
504,-244,0,0,0,0,0,0,0,0,0,-1,1728,1268,0,0
511,-244,0,0,0,0,0,0,0,0,0,-1,1735,1268,0,0
518,-244,0,0,0,0,0,0,0,0,0,-1,1742,1268,0,0
525,-244,0,0,0,0,0,0,0,0,0,-1,1749,1268,0,0
532,-244,0,0,0,0,0,0,0,0,0,-1,1756,1268,0,0
539,-244,0,0,0,0,0,0,0,0,0,-1,1763,1268,0,0
546,-244,0,0,0,0,0,0,0,0,0,-1,1770,1268,0,0
553,-244,0,0,0,0,0,0,0,0,0,-1,1777,1268,0,0
560,-244,0,0,0,0,0,0,0,0,0,-1,1784,1268,0,0
567,-244,0,0,0,0,0,0,0,0,0,-1,1791,1268,0,0
574,-244,0,0,0,0,0,0,0,0,0,-1,1798,1268,0,0
581,-244,0,0,0,0,0,0,0,0,0,-1,1805,1268,0,0
588,-244,0,0,0,0,0,0,0,0,0,-1,1812,1268,0,0
595,-244,0,0,0,0,0,0,0,0,0,-1,1819,1268,0,0
602,-244,0,0,0,0,0,0,0,0,0,-1,1826,1268,0,0
609,-244,0,0,0,0,0,0,0,0,0,-1,1833,1268,0,0
616,-244,158.772,5.40125,0,0,0,0,0,0,0,-1,1840,1268,158.772,-5.40131
623,-244,158.82,5.5675,0,0,0,0,0,0,0,-1,1847,1268,158.82,-5.56746
630,-244,158.703,5.51428,0,0,0,0,0,0,0,-1,1854,1268,158.703,-5.51429
637,-244,158.63,5.25549,0,0,0,0,0,0,0,-1,1861,1268,158.63,-5.2555
644,-244,114.925,3.12561,0,0,0,0,0,0,0,-1,1868,1268,114.925,-3.12563
651,-244,90.5771,1.93823,0,0,0,0,0,0,0,-1,1875,1268,90.5771,-1.93817
658,-244,71.6105,1.55334,0,0,0,0,0,0,0,-1,1882,1268,71.6104,-1.55332
665,-244,50.7988,1.09888,0,0,0,0,0,0,0,-1,1889,1268,50.7989,-1.09893
672,-244,32.224,3.6123,0,0,0,0,0,0,0,-1,1896,1268,32.224,-3.6123
679,-244,27.2593,7.90649,0,0,0,0,0,0,0,-1,1903,1268,27.2592,-7.9065
686,-244,84.4209,27.0175,0,0,0,0,0,0,0,-1,1910,1268,84.4209,-27.0174
693,-244,133.753,38.7578,0,0,0,0,0,0,0,-1,1917,1268,133.753,-38.7578
700,-244,133.439,36.899,0.00551664,-0.0101445,-0.00895658,0.00958304,-0.0142109,-0.426186,0.0138238,0.0443604,1924,1268,133.439,-36.8991
707,-244,133.062,34.9987,0.00215827,-0.00525779,-0.00448822,0.00427206,-0.00737158,-0.44015,0.00680139,0.0441764,1931,1268,133.061,-34.9986
714,-244,132.461,33.2717,-0.00210514,0.000196533,0.000215764,0.000216585,-0.00212519,1.47813,0.00149423,0.0447187,1938,1268,132.462,-33.2717
721,-244,132.282,31.5529,-0.00690035,0.00536619,0.00511604,0.00721984,-0.00875399,1.22319,0.00923666,0.0452462,1945,1268,132.282,-31.5529
728,-244,132.157,29.5643,0,0,0,0,0,0,0,-1,1952,1268,132.157,-29.5643
735,-244,131.75,27.8793,-0.0178589,0.0154091,0.0155768,0.0215639,-0.0240136,1.1945,0.0263269,0.041633,1959,1268,131.75,-27.8793
742,-244,131.518,26.5081,-0.0239554,0.0202375,0.0210833,0.0286822,-0.0324,1.18983,0.0352876,0.0282228,1966,1268,131.518,-26.5081
749,-244,131.176,25.1946,-0.0304099,0.0249023,0.0267412,0.0357164,-0.0412239,1.18651,0.0444594,0.0387397,1973,1268,131.176,-25.1946
756,-244,130.534,23.8143,0,0,0,0,0,0,0,-1,1980,1268,130.534,-23.8144
763,-244,104.206,18.0935,0,0,0,0,0,0,0,-1,1987,1268,104.206,-18.0935
770,-244,56.2969,5.43298,0,0,0,0,0,0,0,-1,1994,1268,56.2969,-5.43297
777,-244,48.7119,2.7002,0,0,0,0,0,0,0,-1,2001,1268,48.712,-2.70019
784,-244,31.7908,5.20081,0,0,0,0,0,0,0,-1,2008,1268,31.7907,-5.20083
791,-244,0,0,0,0,0,0,0,0,0,-1,2015,1268,0,0
798,-244,0,0,0,0,0,0,0,0,0,-1,2022,1268,0,0
805,-244,0,0,0,0,0,0,0,0,0,-1,2029,1268,0,0
812,-244,0,0,0,0,0,0,0,0,0,-1,2036,1268,0,0
-700,-251,0,0,0,0,0,0,0,0,0,-1,524,1275,0,0
-693,-251,0,0,0,0,0,0,0,0,0,-1,531,1275,0,0
-686,-251,0,0,0,0,0,0,0,0,0,-1,538,1275,0,0
-679,-251,0,0,0,0,0,0,0,0,0,-1,545,1275,0,0
-672,-251,0,0,0,0,0,0,0,0,0,-1,552,1275,0,0
-665,-251,-75.6944,23.8195,0,0,0,0,0,0,0,-1,559,1275,-75.6944,-23.8195
-658,-251,-75.8995,25.6963,0,0,0,0,0,0,0,-1,566,1275,-75.8995,-25.6963
-651,-251,-76.1266,27.5671,0,0,0,0,0,0,0,-1,573,1275,-76.1266,-27.5671
-644,-251,-50.9809,8.08691,0,0,0,0,0,0,0,-1,580,1275,-50.9809,-8.08686
-637,-251,-50.8358,8.91528,0,0,0,0,0,0,0,-1,587,1275,-50.8358,-8.91532
-630,-251,-71.7939,14.9017,0,0,0,0,0,0,0,-1,594,1275,-71.7939,-14.9018
-623,-251,-123.653,24.0231,0,0,0,0,0,0,0,-1,601,1275,-123.653,-24.0231
-616,-251,-123.209,25.4681,-0.0146977,0.0294199,-0.0106231,0.0318446,-0.0171224,-1.34639,0.0286938,0.041367,608,1275,-123.209,-25.4681
-609,-251,-123.25,26.8517,-0.013903,0.0229667,-0.0104798,0.0257373,-0.0166736,-1.31234,0.0246716,0.0298103,615,1275,-123.25,-26.8516
-602,-251,-123.414,28.4448,-0.0122838,0.0164104,-0.00933473,0.0191798,-0.0150532,-1.28238,0.0198123,0.0206099,622,1275,-123.414,-28.4448
-595,-251,-123.669,30.0952,-0.0097249,0.00983785,-0.00707454,0.0121281,-0.0120152,-1.25771,0.0139392,0.0178941,629,1275,-123.669,-30.0952
-588,-251,-124.196,31.7025,-0.00614468,0.00331279,-0.00362167,0.00454035,-0.00737224,-1.244,0.00694221,0.0241622,636,1275,-124.196,-31.7026
-581,-251,-124.163,33.413,0,0,0,0,0,0,0,-1,643,1275,-124.163,-33.413
-574,-251,-124.39,35.1157,0.00422452,-0.00947588,0.00696314,0.00714216,-0.0123935,0.396787,0.0114139,0.0351633,650,1275,-124.39,-35.1158
-567,-251,-124.613,36.9586,0.0111866,-0.0157882,0.0141005,0.0172117,-0.0218133,0.403809,0.0225832,0.0421246,657,1275,-124.613,-36.9587
-560,-251,-124.825,38.7247,0,0,0,0,0,0,0,-1,664,1275,-124.825,-38.7248
-553,-251,-73.401,29.2515,0,0,0,0,0,0,0,-1,671,1275,-73.401,-29.2514
-546,-251,-12.995,4.5675,0,0,0,0,0,0,0,-1,678,1275,-12.995,-4.56745
-539,-251,-10.7916,0.366333,0,0,0,0,0,0,0,-1,685,1275,-10.7916,-0.366282
-532,-251,-10.7391,-0.00769043,0,0,0,0,0,0,0,-1,692,1275,-10.7391,0.00773227
-525,-251,-29.4286,-0.250244,0,0,0,0,0,0,0,-1,699,1275,-29.4286,0.250266
-518,-251,-32.6981,0.678833,0,0,0,0,0,0,0,-1,706,1275,-32.6981,-0.678787
-511,-251,-29.4731,0.637085,0,0,0,0,0,0,0,-1,713,1275,-29.4731,-0.637025
-504,-251,-30.6428,0.792358,0,0,0,0,0,0,0,-1,720,1275,-30.6427,-0.792335
-497,-251,-54.1249,0.753784,0,0,0,0,0,0,0,-1,727,1275,-54.1249,-0.753774
-490,-251,0,0,0,0,0,0,0,0,0,-1,734,1275,0,0
-483,-251,0,0,0,0,0,0,0,0,0,-1,741,1275,0,0
-476,-251,0,0,0,0,0,0,0,0,0,-1,748,1275,0,0
-469,-251,0,0,0,0,0,0,0,0,0,-1,755,1275,0,0
-462,-251,0,0,0,0,0,0,0,0,0,-1,762,1275,0,0
-455,-251,0,0,0,0,0,0,0,0,0,-1,769,1275,0,0
-448,-251,0,0,0,0,0,0,0,0,0,-1,776,1275,0,0
-441,-251,0,0,0,0,0,0,0,0,0,-1,783,1275,0,0
-434,-251,0,0,0,0,0,0,0,0,0,-1,790,1275,0,0
-427,-251,0,0,0,0,0,0,0,0,0,-1,797,1275,0,0
-420,-251,0,0,0,0,0,0,0,0,0,-1,804,1275,0,0
-413,-251,0,0,0,0,0,0,0,0,0,-1,811,1275,0,0
-406,-251,0,0,0,0,0,0,0,0,0,-1,818,1275,0,0
-399,-251,0,0,0,0,0,0,0,0,0,-1,825,1275,0,0
-392,-251,0,0,0,0,0,0,0,0,0,-1,832,1275,0,0
-385,-251,0,0,0,0,0,0,0,0,0,-1,839,1275,0,0
-378,-251,0,0,0,0,0,0,0,0,0,-1,846,1275,0,0
-371,-251,0,0,0,0,0,0,0,0,0,-1,853,1275,0,0
-364,-251,0,0,0,0,0,0,0,0,0,-1,860,1275,0,0
-357,-251,0,0,0,0,0,0,0,0,0,-1,867,1275,0,0
-350,-251,0,0,0,0,0,0,0,0,0,-1,874,1275,0,0
-343,-251,0,0,0,0,0,0,0,0,0,-1,881,1275,0,0
-336,-251,0,0,0,0,0,0,0,0,0,-1,888,1275,0,0
-329,-251,0,0,0,0,0,0,0,0,0,-1,895,1275,0,0
-322,-251,0,0,0,0,0,0,0,0,0,-1,902,1275,0,0
-315,-251,0,0,0,0,0,0,0,0,0,-1,909,1275,0,0
-308,-251,0,0,0,0,0,0,0,0,0,-1,916,1275,0,0
-301,-251,0,0,0,0,0,0,0,0,0,-1,923,1275,0,0
-294,-251,0,0,0,0,0,0,0,0,0,-1,930,1275,0,0
-287,-251,0,0,0,0,0,0,0,0,0,-1,937,1275,0,0
-280,-251,0,0,0,0,0,0,0,0,0,-1,944,1275,0,0
-273,-251,0,0,0,0,0,0,0,0,0,-1,951,1275,0,0
-266,-251,0,0,0,0,0,0,0,0,0,-1,958,1275,0,0
-259,-251,0,0,0,0,0,0,0,0,0,-1,965,1275,0,0
-252,-251,0,0,0,0,0,0,0,0,0,-1,972,1275,0,0
-245,-251,0,0,0,0,0,0,0,0,0,-1,979,1275,0,0
-238,-251,0,0,0,0,0,0,0,0,0,-1,986,1275,0,0
-231,-251,0,0,0,0,0,0,0,0,0,-1,993,1275,0,0
-224,-251,0,0,0,0,0,0,0,0,0,-1,1000,1275,0,0
-217,-251,0,0,0,0,0,0,0,0,0,-1,1007,1275,0,0
-210,-251,0,0,0,0,0,0,0,0,0,-1,1014,1275,0,0
-203,-251,0,0,0,0,0,0,0,0,0,-1,1021,1275,0,0
-196,-251,0,0,0,0,0,0,0,0,0,-1,1028,1275,0,0
-189,-251,0,0,0,0,0,0,0,0,0,-1,1035,1275,0,0
-182,-251,0,0,0,0,0,0,0,0,0,-1,1042,1275,0,0
-175,-251,0,0,0,0,0,0,0,0,0,-1,1049,1275,0,0
-168,-251,0,0,0,0,0,0,0,0,0,-1,1056,1275,0,0
-161,-251,0,0,0,0,0,0,0,0,0,-1,1063,1275,0,0
-154,-251,0,0,0,0,0,0,0,0,0,-1,1070,1275,0,0
-147,-251,0,0,0,0,0,0,0,0,0,-1,1077,1275,0,0
-140,-251,0,0,0,0,0,0,0,0,0,-1,1084,1275,0,0
-133,-251,0,0,0,0,0,0,0,0,0,-1,1091,1275,0,0
-126,-251,0,0,0,0,0,0,0,0,0,-1,1098,1275,0,0
-119,-251,0,0,0,0,0,0,0,0,0,-1,1105,1275,0,0
-112,-251,0,0,0,0,0,0,0,0,0,-1,1112,1275,0,0
-105,-251,0,0,0,0,0,0,0,0,0,-1,1119,1275,0,0
-98,-251,0,0,0,0,0,0,0,0,0,-1,1126,1275,0,0
-91,-251,0,0,0,0,0,0,0,0,0,-1,1133,1275,0,0
-84,-251,0,0,0,0,0,0,0,0,0,-1,1140,1275,0,0
-77,-251,0,0,0,0,0,0,0,0,0,-1,1147,1275,0,0
-70,-251,0,0,0,0,0,0,0,0,0,-1,1154,1275,0,0
-63,-251,0,0,0,0,0,0,0,0,0,-1,1161,1275,0,0
-56,-251,0,0,0,0,0,0,0,0,0,-1,1168,1275,0,0
-49,-251,0,0,0,0,0,0,0,0,0,-1,1175,1275,0,0
-42,-251,0,0,0,0,0,0,0,0,0,-1,1182,1275,0,0
-35,-251,0,0,0,0,0,0,0,0,0,-1,1189,1275,0,0
-28,-251,0,0,0,0,0,0,0,0,0,-1,1196,1275,0,0
-21,-251,0,0,0,0,0,0,0,0,0,-1,1203,1275,0,0
-14,-251,0,0,0,0,0,0,0,0,0,-1,1210,1275,0,0
-7,-251,0,0,0,0,0,0,0,0,0,-1,1217,1275,0,0
0,-251,0,0,0,0,0,0,0,0,0,-1,1224,1275,0,0
7,-251,0,0,0,0,0,0,0,0,0,-1,1231,1275,0,0
14,-251,0,0,0,0,0,0,0,0,0,-1,1238,1275,0,0
21,-251,0,0,0,0,0,0,0,0,0,-1,1245,1275,0,0
28,-251,0,0,0,0,0,0,0,0,0,-1,1252,1275,0,0
35,-251,0,0,0,0,0,0,0,0,0,-1,1259,1275,0,0
42,-251,0,0,0,0,0,0,0,0,0,-1,1266,1275,0,0
49,-251,0,0,0,0,0,0,0,0,0,-1,1273,1275,0,0
56,-251,0,0,0,0,0,0,0,0,0,-1,1280,1275,0,0
63,-251,0,0,0,0,0,0,0,0,0,-1,1287,1275,0,0
70,-251,0,0,0,0,0,0,0,0,0,-1,1294,1275,0,0
77,-251,0,0,0,0,0,0,0,0,0,-1,1301,1275,0,0
84,-251,0,0,0,0,0,0,0,0,0,-1,1308,1275,0,0
91,-251,0,0,0,0,0,0,0,0,0,-1,1315,1275,0,0
98,-251,0,0,0,0,0,0,0,0,0,-1,1322,1275,0,0
105,-251,0,0,0,0,0,0,0,0,0,-1,1329,1275,0,0
112,-251,0,0,0,0,0,0,0,0,0,-1,1336,1275,0,0
119,-251,0,0,0,0,0,0,0,0,0,-1,1343,1275,0,0
126,-251,0,0,0,0,0,0,0,0,0,-1,1350,1275,0,0
133,-251,0,0,0,0,0,0,0,0,0,-1,1357,1275,0,0
140,-251,0,0,0,0,0,0,0,0,0,-1,1364,1275,0,0
147,-251,0,0,0,0,0,0,0,0,0,-1,1371,1275,0,0
154,-251,0,0,0,0,0,0,0,0,0,-1,1378,1275,0,0
161,-251,0,0,0,0,0,0,0,0,0,-1,1385,1275,0,0
168,-251,0,0,0,0,0,0,0,0,0,-1,1392,1275,0,0
175,-251,0,0,0,0,0,0,0,0,0,-1,1399,1275,0,0
182,-251,0,0,0,0,0,0,0,0,0,-1,1406,1275,0,0
189,-251,0,0,0,0,0,0,0,0,0,-1,1413,1275,0,0
196,-251,0,0,0,0,0,0,0,0,0,-1,1420,1275,0,0
203,-251,0,0,0,0,0,0,0,0,0,-1,1427,1275,0,0
210,-251,0,0,0,0,0,0,0,0,0,-1,1434,1275,0,0
217,-251,0,0,0,0,0,0,0,0,0,-1,1441,1275,0,0
224,-251,0,0,0,0,0,0,0,0,0,-1,1448,1275,0,0
231,-251,0,0,0,0,0,0,0,0,0,-1,1455,1275,0,0
238,-251,0,0,0,0,0,0,0,0,0,-1,1462,1275,0,0
245,-251,0,0,0,0,0,0,0,0,0,-1,1469,1275,0,0
252,-251,0,0,0,0,0,0,0,0,0,-1,1476,1275,0,0
259,-251,0,0,0,0,0,0,0,0,0,-1,1483,1275,0,0
266,-251,0,0,0,0,0,0,0,0,0,-1,1490,1275,0,0
273,-251,0,0,0,0,0,0,0,0,0,-1,1497,1275,0,0
280,-251,0,0,0,0,0,0,0,0,0,-1,1504,1275,0,0
287,-251,0,0,0,0,0,0,0,0,0,-1,1511,1275,0,0
294,-251,0,0,0,0,0,0,0,0,0,-1,1518,1275,0,0
301,-251,0,0,0,0,0,0,0,0,0,-1,1525,1275,0,0
308,-251,0,0,0,0,0,0,0,0,0,-1,1532,1275,0,0
315,-251,0,0,0,0,0,0,0,0,0,-1,1539,1275,0,0
322,-251,0,0,0,0,0,0,0,0,0,-1,1546,1275,0,0
329,-251,0,0,0,0,0,0,0,0,0,-1,1553,1275,0,0
336,-251,0,0,0,0,0,0,0,0,0,-1,1560,1275,0,0
343,-251,0,0,0,0,0,0,0,0,0,-1,1567,1275,0,0
350,-251,0,0,0,0,0,0,0,0,0,-1,1574,1275,0,0
357,-251,0,0,0,0,0,0,0,0,0,-1,1581,1275,0,0
364,-251,0,0,0,0,0,0,0,0,0,-1,1588,1275,0,0
371,-251,0,0,0,0,0,0,0,0,0,-1,1595,1275,0,0
378,-251,0,0,0,0,0,0,0,0,0,-1,1602,1275,0,0
385,-251,0,0,0,0,0,0,0,0,0,-1,1609,1275,0,0
392,-251,0,0,0,0,0,0,0,0,0,-1,1616,1275,0,0
399,-251,0,0,0,0,0,0,0,0,0,-1,1623,1275,0,0
406,-251,0,0,0,0,0,0,0,0,0,-1,1630,1275,0,0
413,-251,0,0,0,0,0,0,0,0,0,-1,1637,1275,0,0
420,-251,0,0,0,0,0,0,0,0,0,-1,1644,1275,0,0
427,-251,0,0,0,0,0,0,0,0,0,-1,1651,1275,0,0
434,-251,0,0,0,0,0,0,0,0,0,-1,1658,1275,0,0
441,-251,0,0,0,0,0,0,0,0,0,-1,1665,1275,0,0
448,-251,0,0,0,0,0,0,0,0,0,-1,1672,1275,0,0
455,-251,0,0,0,0,0,0,0,0,0,-1,1679,1275,0,0
462,-251,0,0,0,0,0,0,0,0,0,-1,1686,1275,0,0
469,-251,0,0,0,0,0,0,0,0,0,-1,1693,1275,0,0
476,-251,0,0,0,0,0,0,0,0,0,-1,1700,1275,0,0
483,-251,0,0,0,0,0,0,0,0,0,-1,1707,1275,0,0
490,-251,0,0,0,0,0,0,0,0,0,-1,1714,1275,0,0
497,-251,0,0,0,0,0,0,0,0,0,-1,1721,1275,0,0
504,-251,0,0,0,0,0,0,0,0,0,-1,1728,1275,0,0
511,-251,0,0,0,0,0,0,0,0,0,-1,1735,1275,0,0
518,-251,0,0,0,0,0,0,0,0,0,-1,1742,1275,0,0
525,-251,0,0,0,0,0,0,0,0,0,-1,1749,1275,0,0
532,-251,0,0,0,0,0,0,0,0,0,-1,1756,1275,0,0
539,-251,0,0,0,0,0,0,0,0,0,-1,1763,1275,0,0
546,-251,0,0,0,0,0,0,0,0,0,-1,1770,1275,0,0
553,-251,0,0,0,0,0,0,0,0,0,-1,1777,1275,0,0
560,-251,0,0,0,0,0,0,0,0,0,-1,1784,1275,0,0
567,-251,0,0,0,0,0,0,0,0,0,-1,1791,1275,0,0
574,-251,0,0,0,0,0,0,0,0,0,-1,1798,1275,0,0
581,-251,0,0,0,0,0,0,0,0,0,-1,1805,1275,0,0
588,-251,0,0,0,0,0,0,0,0,0,-1,1812,1275,0,0
595,-251,0,0,0,0,0,0,0,0,0,-1,1819,1275,0,0
602,-251,0,0,0,0,0,0,0,0,0,-1,1826,1275,0,0
609,-251,158.64,5.40173,0,0,0,0,0,0,0,-1,1833,1275,158.639,-5.4017
616,-251,158.691,5.40991,0,0,0,0,0,0,0,-1,1840,1275,158.691,-5.40986
623,-251,158.706,5.58948,0,0,0,0,0,0,0,-1,1847,1275,158.706,-5.58943
630,-251,158.652,5.47339,0,0,0,0,0,0,0,-1,1854,1275,158.652,-5.47344
637,-251,119.813,3.21826,0,0,0,0,0,0,0,-1,1861,1275,119.813,-3.21831
644,-251,103.02,2.53735,0,0,0,0,0,0,0,-1,1868,1275,103.02,-2.53738
651,-251,83.6721,2.65125,0,0,0,0,0,0,0,-1,1875,1275,83.6722,-2.65119
658,-251,64.3931,2.57288,0,0,0,0,0,0,0,-1,1882,1275,64.393,-2.57287
665,-251,32.9579,2.60229,0,0,0,0,0,0,0,-1,1889,1275,32.9579,-2.60231
672,-251,26.0721,4.53064,0,0,0,0,0,0,0,-1,1896,1275,26.0721,-4.53063
679,-251,66.3422,18.9362,0,0,0,0,0,0,0,-1,1903,1275,66.3421,-18.9362
686,-251,94.9014,31.4364,0,0,0,0,0,0,0,-1,1910,1275,94.9014,-31.4364
693,-251,131.734,39.0216,0,0,0,0,0,0,0,-1,1917,1275,131.734,-39.0217
700,-251,131.519,37.2329,0.0041897,-0.00786912,-0.00780974,0.00802669,-0.0117061,-0.45667,0.0114586,0.035514,1924,1275,131.519,-37.2329
707,-251,131.264,35.3309,0.000623653,-0.00322282,-0.00313213,0.00237589,-0.00497505,-0.510061,0.0043316,0.0465408,1931,1275,131.264,-35.3309
714,-251,130.708,33.5199,-0.00362067,0.00185435,0.00174746,0.00236454,-0.00413086,1.28673,0.00379606,0.0421311,1938,1275,130.708,-33.5199
721,-251,130.418,31.7518,-0.00833162,0.00676257,0.00684502,0.00940434,-0.0109734,1.20247,0.0117767,0.0451472,1945,1275,130.418,-31.7519
728,-251,129.897,30.3218,0,0,0,0,0,0,0,-1,1952,1275,129.897,-30.3217
735,-251,129.884,28.1251,-0.0191366,0.0163617,0.0177711,0.0237291,-0.0265041,1.17779,0.0290169,0.0359326,1959,1275,129.884,-28.1251
742,-251,129.565,26.6506,-0.0252277,0.0209998,0.0235768,0.0309029,-0.0351308,1.17314,0.0381506,0.0269646,1966,1275,129.565,-26.6506
749,-251,128.958,25.4191,-0.0317517,0.0254989,0.0295829,0.0380386,-0.0442914,1.16987,0.0475789,0.0411188,1973,1275,128.958,-25.4191
756,-251,128.002,24.191,0,0,0,0,0,0,0,-1,1980,1275,128.002,-24.191
763,-251,43.3652,5.7583,0,0,0,0,0,0,0,-1,1987,1275,43.3653,-5.75827
770,-251,49.4386,3.45508,0,0,0,0,0,0,0,-1,1994,1275,49.4386,-3.4551
777,-251,31.5731,4.33252,0,0,0,0,0,0,0,-1,2001,1275,31.5731,-4.33251
784,-251,32.0776,5.78247,0,0,0,0,0,0,0,-1,2008,1275,32.0776,-5.78247
791,-251,0,0,0,0,0,0,0,0,0,-1,2015,1275,0,0
798,-251,0,0,0,0,0,0,0,0,0,-1,2022,1275,0,0
805,-251,0,0,0,0,0,0,0,0,0,-1,2029,1275,0,0
812,-251,0,0,0,0,0,0,0,0,0,-1,2036,1275,0,0
-700,-258,0,0,0,0,0,0,0,0,0,-1,524,1282,0,0
-693,-258,0,0,0,0,0,0,0,0,0,-1,531,1282,0,0
-686,-258,0,0,0,0,0,0,0,0,0,-1,538,1282,0,0
-679,-258,0,0,0,0,0,0,0,0,0,-1,545,1282,0,0
-672,-258,0,0,0,0,0,0,0,0,0,-1,552,1282,0,0
-665,-258,-76.3329,25.1647,0,0,0,0,0,0,0,-1,559,1282,-76.3329,-25.1646
-658,-258,-76.3535,27.1967,0,0,0,0,0,0,0,-1,566,1282,-76.3535,-27.1966
-651,-258,-45.5418,0.0863037,0,0,0,0,0,0,0,-1,573,1282,-45.5418,-0.0863288
-644,-258,-62.455,9.17346,0,0,0,0,0,0,0,-1,580,1282,-62.455,-9.17347
-637,-258,-49.9528,9.28394,0,0,0,0,0,0,0,-1,587,1282,-49.9528,-9.28393
-630,-258,-69.9883,14.4841,0,0,0,0,0,0,0,-1,594,1282,-69.9883,-14.4841
-623,-258,-96.8689,21.0114,0,0,0,0,0,0,0,-1,601,1282,-96.8689,-21.0114
-616,-258,-122.155,25.751,0,0,0,0,0,0,0,-1,608,1282,-122.155,-25.751
-609,-258,-121.429,26.9141,-0.0139138,0.0251108,-0.0107095,0.0278566,-0.0166596,-1.31981,0.0259711,0.0255715,615,1282,-121.429,-26.9141
-602,-258,-121.65,28.5674,-0.0120772,0.0185472,-0.00958766,0.0213012,-0.0148312,-1.29109,0.0209722,0.0186634,622,1282,-121.65,-28.5674
-595,-258,-121.865,30.2518,-0.00932809,0.0120223,-0.00740287,0.014338,-0.0116437,-1.26763,0.0150274,0.016451,629,1282,-121.865,-30.2518
-588,-258,-122.093,31.9125,-0.00562613,0.00559466,-0.00411467,0.00694178,-0.00697325,-1.2544,0.00803386,0.0186503,636,1282,-122.093,-31.9124
-581,-258,-122.26,33.5748,0,0,0,0,0,0,0,-1,643,1282,-122.26,-33.5748
-574,-258,-122.86,35.1085,0.00462244,-0.00687374,0.00573604,0.00699486,-0.00924616,0.392175,0.00940674,0.039902,650,1282,-122.86,-35.1085
-567,-258,-122.949,37.4767,0.0111485,-0.012956,0.0121805,0.0162316,-0.0180392,0.395345,0.0197954,0.0350736,657,1282,-122.949,-37.4767
-560,-258,-122.948,39.505,0,0,0,0,0,0,0,-1,664,1282,-122.948,-39.505
-553,-258,-32.5081,11.6642,0,0,0,0,0,0,0,-1,671,1282,-32.5081,-11.6641
-546,-258,-14.2231,5.92029,0,0,0,0,0,0,0,-1,678,1282,-14.2231,-5.92028
-539,-258,-10.2228,4.05823,0,0,0,0,0,0,0,-1,685,1282,-10.2228,-4.05823
-532,-258,-10.2173,-0.353882,0,0,0,0,0,0,0,-1,692,1282,-10.2173,0.353836
-525,-258,-21.8661,-1.5929,0,0,0,0,0,0,0,-1,699,1282,-21.8661,1.59285
-518,-258,-29.2484,0.123169,0,0,0,0,0,0,0,-1,706,1282,-29.2484,-0.123186
-511,-258,-23.5061,1.16833,0,0,0,0,0,0,0,-1,713,1282,-23.5061,-1.16833
-504,-258,-22.9178,0.484131,0,0,0,0,0,0,0,-1,720,1282,-22.9178,-0.484106
-497,-258,-17.8047,0.730469,0,0,0,0,0,0,0,-1,727,1282,-17.8048,-0.730489
-490,-258,-15.4346,0.632935,0,0,0,0,0,0,0,-1,734,1282,-15.4346,-0.632917
-483,-258,0,0,0,0,0,0,0,0,0,-1,741,1282,0,0
-476,-258,0,0,0,0,0,0,0,0,0,-1,748,1282,0,0
-469,-258,0,0,0,0,0,0,0,0,0,-1,755,1282,0,0
-462,-258,0,0,0,0,0,0,0,0,0,-1,762,1282,0,0
-455,-258,0,0,0,0,0,0,0,0,0,-1,769,1282,0,0
-448,-258,0,0,0,0,0,0,0,0,0,-1,776,1282,0,0
-441,-258,0,0,0,0,0,0,0,0,0,-1,783,1282,0,0
-434,-258,0,0,0,0,0,0,0,0,0,-1,790,1282,0,0
-427,-258,0,0,0,0,0,0,0,0,0,-1,797,1282,0,0
-420,-258,0,0,0,0,0,0,0,0,0,-1,804,1282,0,0
-413,-258,0,0,0,0,0,0,0,0,0,-1,811,1282,0,0
-406,-258,0,0,0,0,0,0,0,0,0,-1,818,1282,0,0
-399,-258,0,0,0,0,0,0,0,0,0,-1,825,1282,0,0
-392,-258,0,0,0,0,0,0,0,0,0,-1,832,1282,0,0
-385,-258,0,0,0,0,0,0,0,0,0,-1,839,1282,0,0
-378,-258,0,0,0,0,0,0,0,0,0,-1,846,1282,0,0
-371,-258,0,0,0,0,0,0,0,0,0,-1,853,1282,0,0
-364,-258,0,0,0,0,0,0,0,0,0,-1,860,1282,0,0
-357,-258,0,0,0,0,0,0,0,0,0,-1,867,1282,0,0
-350,-258,0,0,0,0,0,0,0,0,0,-1,874,1282,0,0
-343,-258,0,0,0,0,0,0,0,0,0,-1,881,1282,0,0
-336,-258,0,0,0,0,0,0,0,0,0,-1,888,1282,0,0
-329,-258,0,0,0,0,0,0,0,0,0,-1,895,1282,0,0
-322,-258,0,0,0,0,0,0,0,0,0,-1,902,1282,0,0
-315,-258,0,0,0,0,0,0,0,0,0,-1,909,1282,0,0
-308,-258,0,0,0,0,0,0,0,0,0,-1,916,1282,0,0
-301,-258,0,0,0,0,0,0,0,0,0,-1,923,1282,0,0
-294,-258,0,0,0,0,0,0,0,0,0,-1,930,1282,0,0
-287,-258,0,0,0,0,0,0,0,0,0,-1,937,1282,0,0
-280,-258,0,0,0,0,0,0,0,0,0,-1,944,1282,0,0
-273,-258,0,0,0,0,0,0,0,0,0,-1,951,1282,0,0
-266,-258,0,0,0,0,0,0,0,0,0,-1,958,1282,0,0
-259,-258,0,0,0,0,0,0,0,0,0,-1,965,1282,0,0
-252,-258,0,0,0,0,0,0,0,0,0,-1,972,1282,0,0
-245,-258,0,0,0,0,0,0,0,0,0,-1,979,1282,0,0
-238,-258,0,0,0,0,0,0,0,0,0,-1,986,1282,0,0
-231,-258,0,0,0,0,0,0,0,0,0,-1,993,1282,0,0
-224,-258,0,0,0,0,0,0,0,0,0,-1,1000,1282,0,0
-217,-258,0,0,0,0,0,0,0,0,0,-1,1007,1282,0,0
-210,-258,0,0,0,0,0,0,0,0,0,-1,1014,1282,0,0
-203,-258,0,0,0,0,0,0,0,0,0,-1,1021,1282,0,0
-196,-258,0,0,0,0,0,0,0,0,0,-1,1028,1282,0,0
-189,-258,0,0,0,0,0,0,0,0,0,-1,1035,1282,0,0
-182,-258,0,0,0,0,0,0,0,0,0,-1,1042,1282,0,0
-175,-258,0,0,0,0,0,0,0,0,0,-1,1049,1282,0,0
-168,-258,0,0,0,0,0,0,0,0,0,-1,1056,1282,0,0
-161,-258,0,0,0,0,0,0,0,0,0,-1,1063,1282,0,0
-154,-258,0,0,0,0,0,0,0,0,0,-1,1070,1282,0,0
-147,-258,0,0,0,0,0,0,0,0,0,-1,1077,1282,0,0
-140,-258,0,0,0,0,0,0,0,0,0,-1,1084,1282,0,0
-133,-258,0,0,0,0,0,0,0,0,0,-1,1091,1282,0,0
-126,-258,0,0,0,0,0,0,0,0,0,-1,1098,1282,0,0
-119,-258,0,0,0,0,0,0,0,0,0,-1,1105,1282,0,0
-112,-258,0,0,0,0,0,0,0,0,0,-1,1112,1282,0,0
-105,-258,0,0,0,0,0,0,0,0,0,-1,1119,1282,0,0
-98,-258,0,0,0,0,0,0,0,0,0,-1,1126,1282,0,0
-91,-258,0,0,0,0,0,0,0,0,0,-1,1133,1282,0,0
-84,-258,0,0,0,0,0,0,0,0,0,-1,1140,1282,0,0
-77,-258,0,0,0,0,0,0,0,0,0,-1,1147,1282,0,0
-70,-258,0,0,0,0,0,0,0,0,0,-1,1154,1282,0,0
-63,-258,0,0,0,0,0,0,0,0,0,-1,1161,1282,0,0
-56,-258,0,0,0,0,0,0,0,0,0,-1,1168,1282,0,0
-49,-258,0,0,0,0,0,0,0,0,0,-1,1175,1282,0,0
-42,-258,0,0,0,0,0,0,0,0,0,-1,1182,1282,0,0
-35,-258,0,0,0,0,0,0,0,0,0,-1,1189,1282,0,0
-28,-258,0,0,0,0,0,0,0,0,0,-1,1196,1282,0,0
-21,-258,0,0,0,0,0,0,0,0,0,-1,1203,1282,0,0
-14,-258,0,0,0,0,0,0,0,0,0,-1,1210,1282,0,0
-7,-258,0,0,0,0,0,0,0,0,0,-1,1217,1282,0,0
0,-258,0,0,0,0,0,0,0,0,0,-1,1224,1282,0,0
7,-258,0,0,0,0,0,0,0,0,0,-1,1231,1282,0,0
14,-258,0,0,0,0,0,0,0,0,0,-1,1238,1282,0,0
21,-258,0,0,0,0,0,0,0,0,0,-1,1245,1282,0,0
28,-258,0,0,0,0,0,0,0,0,0,-1,1252,1282,0,0
35,-258,0,0,0,0,0,0,0,0,0,-1,1259,1282,0,0
42,-258,0,0,0,0,0,0,0,0,0,-1,1266,1282,0,0
49,-258,0,0,0,0,0,0,0,0,0,-1,1273,1282,0,0
56,-258,0,0,0,0,0,0,0,0,0,-1,1280,1282,0,0
63,-258,0,0,0,0,0,0,0,0,0,-1,1287,1282,0,0
70,-258,0,0,0,0,0,0,0,0,0,-1,1294,1282,0,0
77,-258,0,0,0,0,0,0,0,0,0,-1,1301,1282,0,0
84,-258,0,0,0,0,0,0,0,0,0,-1,1308,1282,0,0
91,-258,0,0,0,0,0,0,0,0,0,-1,1315,1282,0,0
98,-258,0,0,0,0,0,0,0,0,0,-1,1322,1282,0,0
105,-258,0,0,0,0,0,0,0,0,0,-1,1329,1282,0,0
112,-258,0,0,0,0,0,0,0,0,0,-1,1336,1282,0,0
119,-258,0,0,0,0,0,0,0,0,0,-1,1343,1282,0,0
126,-258,0,0,0,0,0,0,0,0,0,-1,1350,1282,0,0
133,-258,0,0,0,0,0,0,0,0,0,-1,1357,1282,0,0
140,-258,0,0,0,0,0,0,0,0,0,-1,1364,1282,0,0
147,-258,0,0,0,0,0,0,0,0,0,-1,1371,1282,0,0
154,-258,0,0,0,0,0,0,0,0,0,-1,1378,1282,0,0
161,-258,0,0,0,0,0,0,0,0,0,-1,1385,1282,0,0
168,-258,0,0,0,0,0,0,0,0,0,-1,1392,1282,0,0
175,-258,0,0,0,0,0,0,0,0,0,-1,1399,1282,0,0
182,-258,0,0,0,0,0,0,0,0,0,-1,1406,1282,0,0
189,-258,0,0,0,0,0,0,0,0,0,-1,1413,1282,0,0
196,-258,0,0,0,0,0,0,0,0,0,-1,1420,1282,0,0
203,-258,0,0,0,0,0,0,0,0,0,-1,1427,1282,0,0
210,-258,0,0,0,0,0,0,0,0,0,-1,1434,1282,0,0
217,-258,0,0,0,0,0,0,0,0,0,-1,1441,1282,0,0
224,-258,0,0,0,0,0,0,0,0,0,-1,1448,1282,0,0
231,-258,0,0,0,0,0,0,0,0,0,-1,1455,1282,0,0
238,-258,0,0,0,0,0,0,0,0,0,-1,1462,1282,0,0
245,-258,0,0,0,0,0,0,0,0,0,-1,1469,1282,0,0
252,-258,0,0,0,0,0,0,0,0,0,-1,1476,1282,0,0
259,-258,0,0,0,0,0,0,0,0,0,-1,1483,1282,0,0
266,-258,0,0,0,0,0,0,0,0,0,-1,1490,1282,0,0
273,-258,0,0,0,0,0,0,0,0,0,-1,1497,1282,0,0
280,-258,0,0,0,0,0,0,0,0,0,-1,1504,1282,0,0
287,-258,0,0,0,0,0,0,0,0,0,-1,1511,1282,0,0
294,-258,0,0,0,0,0,0,0,0,0,-1,1518,1282,0,0
301,-258,0,0,0,0,0,0,0,0,0,-1,1525,1282,0,0
308,-258,0,0,0,0,0,0,0,0,0,-1,1532,1282,0,0
315,-258,0,0,0,0,0,0,0,0,0,-1,1539,1282,0,0
322,-258,0,0,0,0,0,0,0,0,0,-1,1546,1282,0,0
329,-258,0,0,0,0,0,0,0,0,0,-1,1553,1282,0,0
336,-258,0,0,0,0,0,0,0,0,0,-1,1560,1282,0,0
343,-258,0,0,0,0,0,0,0,0,0,-1,1567,1282,0,0
350,-258,0,0,0,0,0,0,0,0,0,-1,1574,1282,0,0
357,-258,0,0,0,0,0,0,0,0,0,-1,1581,1282,0,0
364,-258,0,0,0,0,0,0,0,0,0,-1,1588,1282,0,0
371,-258,0,0,0,0,0,0,0,0,0,-1,1595,1282,0,0
378,-258,0,0,0,0,0,0,0,0,0,-1,1602,1282,0,0
385,-258,0,0,0,0,0,0,0,0,0,-1,1609,1282,0,0
392,-258,0,0,0,0,0,0,0,0,0,-1,1616,1282,0,0
399,-258,0,0,0,0,0,0,0,0,0,-1,1623,1282,0,0
406,-258,0,0,0,0,0,0,0,0,0,-1,1630,1282,0,0
413,-258,0,0,0,0,0,0,0,0,0,-1,1637,1282,0,0
420,-258,0,0,0,0,0,0,0,0,0,-1,1644,1282,0,0
427,-258,0,0,0,0,0,0,0,0,0,-1,1651,1282,0,0
434,-258,0,0,0,0,0,0,0,0,0,-1,1658,1282,0,0
441,-258,0,0,0,0,0,0,0,0,0,-1,1665,1282,0,0
448,-258,0,0,0,0,0,0,0,0,0,-1,1672,1282,0,0
455,-258,0,0,0,0,0,0,0,0,0,-1,1679,1282,0,0
462,-258,0,0,0,0,0,0,0,0,0,-1,1686,1282,0,0
469,-258,0,0,0,0,0,0,0,0,0,-1,1693,1282,0,0
476,-258,0,0,0,0,0,0,0,0,0,-1,1700,1282,0,0
483,-258,0,0,0,0,0,0,0,0,0,-1,1707,1282,0,0
490,-258,0,0,0,0,0,0,0,0,0,-1,1714,1282,0,0
497,-258,0,0,0,0,0,0,0,0,0,-1,1721,1282,0,0
504,-258,0,0,0,0,0,0,0,0,0,-1,1728,1282,0,0
511,-258,0,0,0,0,0,0,0,0,0,-1,1735,1282,0,0
518,-258,0,0,0,0,0,0,0,0,0,-1,1742,1282,0,0
525,-258,0,0,0,0,0,0,0,0,0,-1,1749,1282,0,0
532,-258,0,0,0,0,0,0,0,0,0,-1,1756,1282,0,0
539,-258,0,0,0,0,0,0,0,0,0,-1,1763,1282,0,0
546,-258,0,0,0,0,0,0,0,0,0,-1,1770,1282,0,0
553,-258,0,0,0,0,0,0,0,0,0,-1,1777,1282,0,0
560,-258,0,0,0,0,0,0,0,0,0,-1,1784,1282,0,0
567,-258,0,0,0,0,0,0,0,0,0,-1,1791,1282,0,0
574,-258,0,0,0,0,0,0,0,0,0,-1,1798,1282,0,0
581,-258,0,0,0,0,0,0,0,0,0,-1,1805,1282,0,0
588,-258,0,0,0,0,0,0,0,0,0,-1,1812,1282,0,0
595,-258,0,0,0,0,0,0,0,0,0,-1,1819,1282,0,0
602,-258,0,0,0,0,0,0,0,0,0,-1,1826,1282,0,0
609,-258,158.677,5.43799,0,0,0,0,0,0,0,-1,1833,1282,158.677,-5.43802
616,-258,158.663,5.4325,0,0,0,0,0,0,0,-1,1840,1282,158.663,-5.43255
623,-258,158.549,5.34192,0,0,0,0,0,0,0,-1,1847,1282,158.549,-5.34196
630,-258,123.931,3.52234,0,0,0,0,0,0,0,-1,1854,1282,123.931,-3.52233
637,-258,104.7,2.59534,0,0,0,0,0,0,0,-1,1861,1282,104.7,-2.59538
644,-258,88.6257,1.45276,0,0,0,0,0,0,0,-1,1868,1282,88.6257,-1.45271
651,-258,77.8041,3.65466,0,0,0,0,0,0,0,-1,1875,1282,77.8041,-3.65469
658,-258,45.4424,3.1405,0,0,0,0,0,0,0,-1,1882,1282,45.4423,-3.14046
665,-258,35.4747,1.1864,0,0,0,0,0,0,0,-1,1889,1282,35.4747,-1.18637
672,-258,22.703,2.80957,0,0,0,0,0,0,0,-1,1896,1282,22.703,-2.80962
679,-258,26.8693,8.19543,0,0,0,0,0,0,0,-1,1903,1282,26.8692,-8.19548
686,-258,105.596,35.5438,0,0,0,0,0,0,0,-1,1910,1282,105.596,-35.5438
693,-258,129.983,39.4088,0,0,0,0,0,0,0,-1,1917,1282,129.983,-39.4088
700,-258,129.532,37.6018,0.00319822,-0.00610837,-0.00655955,0.00658737,-0.00949752,-0.476898,0.00933714,0.0381001,1924,1282,129.532,-37.6019
707,-258,129.275,35.5851,-0.000495884,-0.00168198,-0.00168562,0.00069797,-0.00287583,-0.616247,0.00218732,0.0372802,1931,1282,129.275,-35.5851
714,-258,129.031,33.7168,-0.00473751,0.00309476,0.00335503,0.00433541,-0.00597815,1.2166,0.00597966,0.0255408,1938,1282,129.032,-33.7168
721,-258,128.708,31.8774,-0.00942204,0.00780062,0.00860391,0.0113623,-0.0129837,1.17831,0.0140666,0.0355736,1945,1282,128.708,-31.8774
728,-258,128.256,30.1494,-0.0145681,0.0124807,0.0140951,0.0184904,-0.0205778,1.16777,0.0225668,0.0337502,1952,1282,128.256,-30.1494
735,-258,128.059,28.3767,-0.0202101,0.0171037,0.019837,0.0256789,-0.0287853,1.16277,0.0314619,0.0279706,1959,1282,128.059,-28.3767
742,-258,127.712,26.7546,-0.0263725,0.0216361,0.0258363,0.0328983,-0.0376346,1.15973,0.0407528,0.0263794,1966,1282,127.712,-26.7547
749,-258,127.174,25.2523,0,0,0,0,0,0,0,-1,1973,1282,127.174,-25.2523
756,-258,113.161,21.6831,0,0,0,0,0,0,0,-1,1980,1282,113.161,-21.6831
763,-258,39.3638,5.09753,0,0,0,0,0,0,0,-1,1987,1282,39.3638,-5.09751
770,-258,40.3713,4.08325,0,0,0,0,0,0,0,-1,1994,1282,40.3713,-4.08323
777,-258,31.912,4.83093,0,0,0,0,0,0,0,-1,2001,1282,31.912,-4.8309
784,-258,32.6525,6.43091,0,0,0,0,0,0,0,-1,2008,1282,32.6525,-6.43091
791,-258,0,0,0,0,0,0,0,0,0,-1,2015,1282,0,0
798,-258,0,0,0,0,0,0,0,0,0,-1,2022,1282,0,0
805,-258,0,0,0,0,0,0,0,0,0,-1,2029,1282,0,0
812,-258,0,0,0,0,0,0,0,0,0,-1,2036,1282,0,0
-700,-265,0,0,0,0,0,0,0,0,0,-1,524,1289,0,0
-693,-265,0,0,0,0,0,0,0,0,0,-1,531,1289,0,0
-686,-265,0,0,0,0,0,0,0,0,0,-1,538,1289,0,0
-679,-265,0,0,0,0,0,0,0,0,0,-1,545,1289,0,0
-672,-265,0,0,0,0,0,0,0,0,0,-1,552,1289,0,0
-665,-265,-76.8365,26.342,0,0,0,0,0,0,0,-1,559,1289,-76.8365,-26.342
-658,-265,-65.901,0.884277,0,0,0,0,0,0,0,-1,566,1289,-65.901,-0.884263
-651,-265,-44.821,1.0614,0,0,0,0,0,0,0,-1,573,1289,-44.821,-1.06141
-644,-265,-44.4684,0.304932,0,0,0,0,0,0,0,-1,580,1289,-44.4684,-0.304991
-637,-265,-44.6157,0.250122,0,0,0,0,0,0,0,-1,587,1289,-44.6157,-0.250067
-630,-265,-44.5689,0.900269,0,0,0,0,0,0,0,-1,594,1289,-44.5689,-0.900302
-623,-265,-68.8688,15.7357,0,0,0,0,0,0,0,-1,601,1289,-68.8688,-15.7357
-616,-265,-119.133,25.0204,0,0,0,0,0,0,0,-1,608,1289,-119.133,-25.0204
-609,-265,-119.309,26.9124,-0.013869,0.0273806,-0.0109141,0.0300903,-0.0165787,-1.32744,0.0273182,0.0320284,615,1289,-119.309,-26.9123
-602,-265,-119.727,28.7362,-0.0118238,0.0207483,-0.00993145,0.0235376,-0.0146131,-1.29699,0.0222263,0.0207154,622,1289,-119.727,-28.7362
-595,-265,-120.007,30.4235,-0.00887997,0.0141946,-0.00793687,0.016661,-0.0113464,-1.26951,0.0162668,0.0187858,629,1289,-120.007,-30.4234
-588,-265,-120.256,32.1302,-0.00503653,0.00776901,-0.00492315,0.00944293,-0.00671045,-1.24305,0.00937053,0.0171136,636,1289,-120.256,-32.1303
-581,-265,-120.468,33.7802,-0.000325446,0.00149443,-0.000919282,0.00187797,-0.000708978,-1.17554,0.00154357,0.0483785,643,1289,-120.468,-33.7802
-574,-265,-120.794,35.511,0,0,0,0,0,0,0,-1,650,1289,-120.794,-35.511
-567,-265,-121.12,37.616,0,0,0,0,0,0,0,-1,657,1289,-121.12,-37.616
-560,-265,-121.196,40.0171,0,0,0,0,0,0,0,-1,664,1289,-121.196,-40.0171
-553,-265,-68.6046,28.845,0,0,0,0,0,0,0,-1,671,1289,-68.6046,-28.8449
-546,-265,-24.2283,10.2581,0,0,0,0,0,0,0,-1,678,1289,-24.2283,-10.258
-539,-265,-13.7668,6.39917,0,0,0,0,0,0,0,-1,685,1289,-13.7668,-6.39915
-532,-265,-8.53998,3.41467,0,0,0,0,0,0,0,-1,692,1289,-8.53996,-3.41473
-525,-265,-12.1317,0.514648,0,0,0,0,0,0,0,-1,699,1289,-12.1317,-0.514634
-518,-265,-24.1604,0.712402,0,0,0,0,0,0,0,-1,706,1289,-24.1604,-0.712425
-511,-265,-23.233,0.791626,0,0,0,0,0,0,0,-1,713,1289,-23.233,-0.791617
-504,-265,-22.3056,0.87085,0,0,0,0,0,0,0,-1,720,1289,-22.3056,-0.87081
-497,-265,-18.689,-0.278442,0,0,0,0,0,0,0,-1,727,1289,-18.689,0.278423
-490,-265,-15.1696,0.492676,0,0,0,0,0,0,0,-1,734,1289,-15.1696,-0.492688
-483,-265,0,0,0,0,0,0,0,0,0,-1,741,1289,0,0
-476,-265,0,0,0,0,0,0,0,0,0,-1,748,1289,0,0
-469,-265,0,0,0,0,0,0,0,0,0,-1,755,1289,0,0
-462,-265,0,0,0,0,0,0,0,0,0,-1,762,1289,0,0
-455,-265,0,0,0,0,0,0,0,0,0,-1,769,1289,0,0
-448,-265,0,0,0,0,0,0,0,0,0,-1,776,1289,0,0
-441,-265,0,0,0,0,0,0,0,0,0,-1,783,1289,0,0
-434,-265,0,0,0,0,0,0,0,0,0,-1,790,1289,0,0
-427,-265,0,0,0,0,0,0,0,0,0,-1,797,1289,0,0
-420,-265,0,0,0,0,0,0,0,0,0,-1,804,1289,0,0
-413,-265,0,0,0,0,0,0,0,0,0,-1,811,1289,0,0
-406,-265,0,0,0,0,0,0,0,0,0,-1,818,1289,0,0
-399,-265,0,0,0,0,0,0,0,0,0,-1,825,1289,0,0
-392,-265,0,0,0,0,0,0,0,0,0,-1,832,1289,0,0
-385,-265,0,0,0,0,0,0,0,0,0,-1,839,1289,0,0
-378,-265,0,0,0,0,0,0,0,0,0,-1,846,1289,0,0
-371,-265,0,0,0,0,0,0,0,0,0,-1,853,1289,0,0
-364,-265,0,0,0,0,0,0,0,0,0,-1,860,1289,0,0
-357,-265,0,0,0,0,0,0,0,0,0,-1,867,1289,0,0
-350,-265,0,0,0,0,0,0,0,0,0,-1,874,1289,0,0
-343,-265,0,0,0,0,0,0,0,0,0,-1,881,1289,0,0
-336,-265,0,0,0,0,0,0,0,0,0,-1,888,1289,0,0
-329,-265,0,0,0,0,0,0,0,0,0,-1,895,1289,0,0
-322,-265,0,0,0,0,0,0,0,0,0,-1,902,1289,0,0
-315,-265,0,0,0,0,0,0,0,0,0,-1,909,1289,0,0
-308,-265,0,0,0,0,0,0,0,0,0,-1,916,1289,0,0
-301,-265,0,0,0,0,0,0,0,0,0,-1,923,1289,0,0
-294,-265,0,0,0,0,0,0,0,0,0,-1,930,1289,0,0
-287,-265,0,0,0,0,0,0,0,0,0,-1,937,1289,0,0
-280,-265,0,0,0,0,0,0,0,0,0,-1,944,1289,0,0
-273,-265,0,0,0,0,0,0,0,0,0,-1,951,1289,0,0
-266,-265,0,0,0,0,0,0,0,0,0,-1,958,1289,0,0
-259,-265,0,0,0,0,0,0,0,0,0,-1,965,1289,0,0
-252,-265,0,0,0,0,0,0,0,0,0,-1,972,1289,0,0
-245,-265,0,0,0,0,0,0,0,0,0,-1,979,1289,0,0
-238,-265,0,0,0,0,0,0,0,0,0,-1,986,1289,0,0
-231,-265,0,0,0,0,0,0,0,0,0,-1,993,1289,0,0
-224,-265,0,0,0,0,0,0,0,0,0,-1,1000,1289,0,0
-217,-265,0,0,0,0,0,0,0,0,0,-1,1007,1289,0,0
-210,-265,0,0,0,0,0,0,0,0,0,-1,1014,1289,0,0
-203,-265,0,0,0,0,0,0,0,0,0,-1,1021,1289,0,0
-196,-265,0,0,0,0,0,0,0,0,0,-1,1028,1289,0,0
-189,-265,0,0,0,0,0,0,0,0,0,-1,1035,1289,0,0
-182,-265,0,0,0,0,0,0,0,0,0,-1,1042,1289,0,0
-175,-265,0,0,0,0,0,0,0,0,0,-1,1049,1289,0,0
-168,-265,0,0,0,0,0,0,0,0,0,-1,1056,1289,0,0
-161,-265,0,0,0,0,0,0,0,0,0,-1,1063,1289,0,0
-154,-265,0,0,0,0,0,0,0,0,0,-1,1070,1289,0,0
-147,-265,0,0,0,0,0,0,0,0,0,-1,1077,1289,0,0
-140,-265,0,0,0,0,0,0,0,0,0,-1,1084,1289,0,0
-133,-265,0,0,0,0,0,0,0,0,0,-1,1091,1289,0,0
-126,-265,0,0,0,0,0,0,0,0,0,-1,1098,1289,0,0
-119,-265,0,0,0,0,0,0,0,0,0,-1,1105,1289,0,0
-112,-265,0,0,0,0,0,0,0,0,0,-1,1112,1289,0,0
-105,-265,0,0,0,0,0,0,0,0,0,-1,1119,1289,0,0
-98,-265,0,0,0,0,0,0,0,0,0,-1,1126,1289,0,0
-91,-265,0,0,0,0,0,0,0,0,0,-1,1133,1289,0,0
-84,-265,0,0,0,0,0,0,0,0,0,-1,1140,1289,0,0
-77,-265,0,0,0,0,0,0,0,0,0,-1,1147,1289,0,0
-70,-265,0,0,0,0,0,0,0,0,0,-1,1154,1289,0,0
-63,-265,0,0,0,0,0,0,0,0,0,-1,1161,1289,0,0
-56,-265,0,0,0,0,0,0,0,0,0,-1,1168,1289,0,0
-49,-265,0,0,0,0,0,0,0,0,0,-1,1175,1289,0,0
-42,-265,0,0,0,0,0,0,0,0,0,-1,1182,1289,0,0
-35,-265,0,0,0,0,0,0,0,0,0,-1,1189,1289,0,0
-28,-265,0,0,0,0,0,0,0,0,0,-1,1196,1289,0,0
-21,-265,0,0,0,0,0,0,0,0,0,-1,1203,1289,0,0
-14,-265,0,0,0,0,0,0,0,0,0,-1,1210,1289,0,0
-7,-265,0,0,0,0,0,0,0,0,0,-1,1217,1289,0,0
0,-265,0,0,0,0,0,0,0,0,0,-1,1224,1289,0,0
7,-265,0,0,0,0,0,0,0,0,0,-1,1231,1289,0,0
14,-265,0,0,0,0,0,0,0,0,0,-1,1238,1289,0,0
21,-265,0,0,0,0,0,0,0,0,0,-1,1245,1289,0,0
28,-265,0,0,0,0,0,0,0,0,0,-1,1252,1289,0,0
35,-265,0,0,0,0,0,0,0,0,0,-1,1259,1289,0,0
42,-265,0,0,0,0,0,0,0,0,0,-1,1266,1289,0,0
49,-265,0,0,0,0,0,0,0,0,0,-1,1273,1289,0,0
56,-265,0,0,0,0,0,0,0,0,0,-1,1280,1289,0,0
63,-265,0,0,0,0,0,0,0,0,0,-1,1287,1289,0,0
70,-265,0,0,0,0,0,0,0,0,0,-1,1294,1289,0,0
77,-265,0,0,0,0,0,0,0,0,0,-1,1301,1289,0,0
84,-265,0,0,0,0,0,0,0,0,0,-1,1308,1289,0,0
91,-265,0,0,0,0,0,0,0,0,0,-1,1315,1289,0,0
98,-265,0,0,0,0,0,0,0,0,0,-1,1322,1289,0,0
105,-265,0,0,0,0,0,0,0,0,0,-1,1329,1289,0,0
112,-265,0,0,0,0,0,0,0,0,0,-1,1336,1289,0,0
119,-265,0,0,0,0,0,0,0,0,0,-1,1343,1289,0,0
126,-265,0,0,0,0,0,0,0,0,0,-1,1350,1289,0,0
133,-265,0,0,0,0,0,0,0,0,0,-1,1357,1289,0,0
140,-265,0,0,0,0,0,0,0,0,0,-1,1364,1289,0,0
147,-265,0,0,0,0,0,0,0,0,0,-1,1371,1289,0,0
154,-265,0,0,0,0,0,0,0,0,0,-1,1378,1289,0,0
161,-265,0,0,0,0,0,0,0,0,0,-1,1385,1289,0,0
168,-265,0,0,0,0,0,0,0,0,0,-1,1392,1289,0,0
175,-265,0,0,0,0,0,0,0,0,0,-1,1399,1289,0,0
182,-265,0,0,0,0,0,0,0,0,0,-1,1406,1289,0,0
189,-265,0,0,0,0,0,0,0,0,0,-1,1413,1289,0,0
196,-265,0,0,0,0,0,0,0,0,0,-1,1420,1289,0,0
203,-265,0,0,0,0,0,0,0,0,0,-1,1427,1289,0,0
210,-265,0,0,0,0,0,0,0,0,0,-1,1434,1289,0,0
217,-265,0,0,0,0,0,0,0,0,0,-1,1441,1289,0,0
224,-265,0,0,0,0,0,0,0,0,0,-1,1448,1289,0,0
231,-265,0,0,0,0,0,0,0,0,0,-1,1455,1289,0,0
238,-265,0,0,0,0,0,0,0,0,0,-1,1462,1289,0,0
245,-265,0,0,0,0,0,0,0,0,0,-1,1469,1289,0,0
252,-265,0,0,0,0,0,0,0,0,0,-1,1476,1289,0,0
259,-265,0,0,0,0,0,0,0,0,0,-1,1483,1289,0,0
266,-265,0,0,0,0,0,0,0,0,0,-1,1490,1289,0,0
273,-265,0,0,0,0,0,0,0,0,0,-1,1497,1289,0,0
280,-265,0,0,0,0,0,0,0,0,0,-1,1504,1289,0,0
287,-265,0,0,0,0,0,0,0,0,0,-1,1511,1289,0,0
294,-265,0,0,0,0,0,0,0,0,0,-1,1518,1289,0,0
301,-265,0,0,0,0,0,0,0,0,0,-1,1525,1289,0,0
308,-265,0,0,0,0,0,0,0,0,0,-1,1532,1289,0,0
315,-265,0,0,0,0,0,0,0,0,0,-1,1539,1289,0,0
322,-265,0,0,0,0,0,0,0,0,0,-1,1546,1289,0,0
329,-265,0,0,0,0,0,0,0,0,0,-1,1553,1289,0,0
336,-265,0,0,0,0,0,0,0,0,0,-1,1560,1289,0,0
343,-265,0,0,0,0,0,0,0,0,0,-1,1567,1289,0,0
350,-265,0,0,0,0,0,0,0,0,0,-1,1574,1289,0,0
357,-265,0,0,0,0,0,0,0,0,0,-1,1581,1289,0,0
364,-265,0,0,0,0,0,0,0,0,0,-1,1588,1289,0,0
371,-265,0,0,0,0,0,0,0,0,0,-1,1595,1289,0,0
378,-265,0,0,0,0,0,0,0,0,0,-1,1602,1289,0,0
385,-265,0,0,0,0,0,0,0,0,0,-1,1609,1289,0,0
392,-265,0,0,0,0,0,0,0,0,0,-1,1616,1289,0,0
399,-265,0,0,0,0,0,0,0,0,0,-1,1623,1289,0,0
406,-265,0,0,0,0,0,0,0,0,0,-1,1630,1289,0,0
413,-265,0,0,0,0,0,0,0,0,0,-1,1637,1289,0,0
420,-265,0,0,0,0,0,0,0,0,0,-1,1644,1289,0,0
427,-265,0,0,0,0,0,0,0,0,0,-1,1651,1289,0,0
434,-265,0,0,0,0,0,0,0,0,0,-1,1658,1289,0,0
441,-265,0,0,0,0,0,0,0,0,0,-1,1665,1289,0,0
448,-265,0,0,0,0,0,0,0,0,0,-1,1672,1289,0,0
455,-265,0,0,0,0,0,0,0,0,0,-1,1679,1289,0,0
462,-265,0,0,0,0,0,0,0,0,0,-1,1686,1289,0,0
469,-265,0,0,0,0,0,0,0,0,0,-1,1693,1289,0,0
476,-265,0,0,0,0,0,0,0,0,0,-1,1700,1289,0,0
483,-265,0,0,0,0,0,0,0,0,0,-1,1707,1289,0,0
490,-265,0,0,0,0,0,0,0,0,0,-1,1714,1289,0,0
497,-265,0,0,0,0,0,0,0,0,0,-1,1721,1289,0,0
504,-265,0,0,0,0,0,0,0,0,0,-1,1728,1289,0,0
511,-265,0,0,0,0,0,0,0,0,0,-1,1735,1289,0,0
518,-265,0,0,0,0,0,0,0,0,0,-1,1742,1289,0,0
525,-265,0,0,0,0,0,0,0,0,0,-1,1749,1289,0,0
532,-265,0,0,0,0,0,0,0,0,0,-1,1756,1289,0,0
539,-265,0,0,0,0,0,0,0,0,0,-1,1763,1289,0,0
546,-265,0,0,0,0,0,0,0,0,0,-1,1770,1289,0,0
553,-265,0,0,0,0,0,0,0,0,0,-1,1777,1289,0,0
560,-265,0,0,0,0,0,0,0,0,0,-1,1784,1289,0,0
567,-265,0,0,0,0,0,0,0,0,0,-1,1791,1289,0,0
574,-265,0,0,0,0,0,0,0,0,0,-1,1798,1289,0,0
581,-265,0,0,0,0,0,0,0,0,0,-1,1805,1289,0,0
588,-265,0,0,0,0,0,0,0,0,0,-1,1812,1289,0,0
595,-265,0,0,0,0,0,0,0,0,0,-1,1819,1289,0,0
602,-265,158.65,5.43677,0,0,0,0,0,0,0,-1,1826,1289,158.65,-5.43673
609,-265,158.629,5.36707,0,0,0,0,0,0,0,-1,1833,1289,158.629,-5.36711
616,-265,158.699,5.42761,0,0,0,0,0,0,0,-1,1840,1289,158.699,-5.42759
623,-265,125.862,3.50574,0,0,0,0,0,0,0,-1,1847,1289,125.862,-3.5057
630,-265,107.643,2.78882,0,0,0,0,0,0,0,-1,1854,1289,107.643,-2.78883
637,-265,92.8903,1.12158,0,0,0,0,0,0,0,-1,1861,1289,92.8903,-1.12158
644,-265,77.3746,2.97742,0,0,0,0,0,0,0,-1,1868,1289,77.3746,-2.97738
651,-265,53.6781,1.57166,0,0,0,0,0,0,0,-1,1875,1289,53.6781,-1.57167
658,-265,41.7163,3.71619,0,0,0,0,0,0,0,-1,1882,1289,41.7163,-3.71624
665,-265,34.7902,1.43164,0,0,0,0,0,0,0,-1,1889,1289,34.7901,-1.43162
672,-265,20.0045,6.62671,0,0,0,0,0,0,0,-1,1896,1289,20.0045,-6.62668
679,-265,82.8594,29.2052,0,0,0,0,0,0,0,-1,1903,1289,82.8594,-29.2052
686,-265,126.239,41.2773,0,0,0,0,0,0,0,-1,1910,1289,126.239,-41.2774
693,-265,128.095,40.0269,0,0,0,0,0,0,0,-1,1917,1289,128.095,-40.0268
700,-265,127.474,38.0479,0.00224129,-0.00513114,-0.0055374,0.00520721,-0.00809706,-0.491734,0.00774139,0.0439963,1924,1289,127.474,-38.0479
707,-265,127.339,35.9403,-0.00143456,-0.000711121,-0.000442314,-0.000501454,-0.00164423,-1.12815,0.00097307,0.0276701,1931,1289,127.339,-35.9403
714,-265,127.108,33.9285,-0.00561965,0.00390993,0.00480867,0.00591467,-0.00762439,1.17581,0.00783753,0.0258981,1938,1289,127.108,-33.9285
721,-265,126.648,32.0713,-0.0102353,0.00848369,0.0102584,0.0130107,-0.0147623,1.1552,0.0160454,0.034126,1945,1289,126.648,-32.0713
728,-265,126.333,30.3214,-0.0153131,0.013046,0.0159407,0.020201,-0.0224681,1.1489,0.0246466,0.0308284,1952,1289,126.333,-30.3214
735,-265,126.165,28.5529,-0.020911,0.0175633,0.0218742,0.027456,-0.0308037,1.14607,0.0336547,0.0225443,1959,1289,126.165,-28.5528
742,-265,125.792,26.8861,-0.0270608,0.0220158,0.0280762,0.0347656,-0.0398106,1.14453,0.0430894,0.0287038,1966,1289,125.792,-26.8861
749,-265,125.387,25.252,0,0,0,0,0,0,0,-1,1973,1289,125.387,-25.252
756,-265,69.9429,10.3409,0,0,0,0,0,0,0,-1,1980,1289,69.9429,-10.341
763,-265,39.1299,4.9679,0,0,0,0,0,0,0,-1,1987,1289,39.1299,-4.96791
770,-265,35.1674,5.07715,0,0,0,0,0,0,0,-1,1994,1289,35.1673,-5.07718
777,-265,32.1664,5.3457,0,0,0,0,0,0,0,-1,2001,1289,32.1664,-5.34568
784,-265,0,0,0,0,0,0,0,0,0,-1,2008,1289,0,0
791,-265,0,0,0,0,0,0,0,0,0,-1,2015,1289,0,0
798,-265,0,0,0,0,0,0,0,0,0,-1,2022,1289,0,0
805,-265,0,0,0,0,0,0,0,0,0,-1,2029,1289,0,0
812,-265,0,0,0,0,0,0,0,0,0,-1,2036,1289,0,0
-700,-272,0,0,0,0,0,0,0,0,0,-1,524,1296,0,0
-693,-272,0,0,0,0,0,0,0,0,0,-1,531,1296,0,0
-686,-272,0,0,0,0,0,0,0,0,0,-1,538,1296,0,0
-679,-272,0,0,0,0,0,0,0,0,0,-1,545,1296,0,0
-672,-272,0,0,0,0,0,0,0,0,0,-1,552,1296,0,0
-665,-272,0,0,0,0,0,0,0,0,0,-1,559,1296,0,0
-658,-272,-44.6526,1.54443,0,0,0,0,0,0,0,-1,566,1296,-44.6526,-1.5444
-651,-272,-44.3723,1.53772,0,0,0,0,0,0,0,-1,573,1296,-44.3723,-1.53774
-644,-272,-44.1104,1.46021,0,0,0,0,0,0,0,-1,580,1296,-44.1104,-1.46022
-637,-272,-43.9348,1.25171,0,0,0,0,0,0,0,-1,587,1296,-43.9348,-1.25175
-630,-272,-43.5906,0.784912,0,0,0,0,0,0,0,-1,594,1296,-43.5906,-0.784935
-623,-272,-36.8673,6.23547,0,0,0,0,0,0,0,-1,601,1296,-36.8673,-6.23548
-616,-272,-110.185,25.3271,0,0,0,0,0,0,0,-1,608,1296,-110.185,-25.3271
-609,-272,-117.231,26.9945,0,0,0,0,0,0,0,-1,615,1296,-117.231,-26.9945
-602,-272,-117.732,28.7865,-0.0116039,0.0230322,-0.0102144,0.02582,-0.0143918,-1.30435,0.0235267,0.0251291,622,1296,-117.732,-28.7864
-595,-272,-118.087,30.5941,-0.00836263,0.0163903,-0.00846357,0.0190075,-0.0109798,-1.2709,0.0175187,0.0186134,629,1296,-118.087,-30.5941
-588,-272,-118.412,32.3754,-0.0042609,0.00992686,-0.00578617,0.0119874,-0.00632141,-1.22869,0.010738,0.0186301,636,1296,-118.412,-32.3753
-581,-272,-118.676,34.1992,0.000641246,0.00365698,-0.00223656,0.00484649,-0.000548273,-1.08199,0.0034284,0.0271265,643,1296,-118.676,-34.1992
-574,-272,-118.873,36.2209,0,0,0,0,0,0,0,-1,650,1296,-118.873,-36.2209
-567,-272,-119.134,37.7601,0,0,0,0,0,0,0,-1,657,1296,-119.134,-37.7601
-560,-272,-76.906,31.7885,0,0,0,0,0,0,0,-1,664,1296,-76.906,-31.7884
-553,-272,-77.0592,33.2899,0,0,0,0,0,0,0,-1,671,1296,-77.0592,-33.2899
-546,-272,-66.9853,29.9088,0,0,0,0,0,0,0,-1,678,1296,-66.9853,-29.9089
-539,-272,-24.1416,11.0325,0,0,0,0,0,0,0,-1,685,1296,-24.1416,-11.0324
-532,-272,-10.5572,4.53943,0,0,0,0,0,0,0,-1,692,1296,-10.5572,-4.53943
-525,-272,-11.9599,0.0393066,0,0,0,0,0,0,0,-1,699,1296,-11.9599,-0.0393577
-518,-272,-21.1357,-1.41382,0,0,0,0,0,0,0,-1,706,1296,-21.1357,1.41379
-511,-272,-23.2565,0.226318,0,0,0,0,0,0,0,-1,713,1296,-23.2565,-0.22626
-504,-272,-19.7397,0.114746,0,0,0,0,0,0,0,-1,720,1296,-19.7397,-0.114701
-497,-272,-19.2225,1.71301,0,0,0,0,0,0,0,-1,727,1296,-19.2225,-1.71302
-490,-272,-20.1948,2.4032,0,0,0,0,0,0,0,-1,734,1296,-20.1948,-2.40322
-483,-272,-15.3736,0.792603,0,0,0,0,0,0,0,-1,741,1296,-15.3736,-0.79263
-476,-272,0,0,0,0,0,0,0,0,0,-1,748,1296,0,0
-469,-272,0,0,0,0,0,0,0,0,0,-1,755,1296,0,0
-462,-272,0,0,0,0,0,0,0,0,0,-1,762,1296,0,0
-455,-272,0,0,0,0,0,0,0,0,0,-1,769,1296,0,0
-448,-272,0,0,0,0,0,0,0,0,0,-1,776,1296,0,0
-441,-272,0,0,0,0,0,0,0,0,0,-1,783,1296,0,0
-434,-272,0,0,0,0,0,0,0,0,0,-1,790,1296,0,0
-427,-272,0,0,0,0,0,0,0,0,0,-1,797,1296,0,0
-420,-272,0,0,0,0,0,0,0,0,0,-1,804,1296,0,0
-413,-272,0,0,0,0,0,0,0,0,0,-1,811,1296,0,0
-406,-272,0,0,0,0,0,0,0,0,0,-1,818,1296,0,0
-399,-272,0,0,0,0,0,0,0,0,0,-1,825,1296,0,0
-392,-272,0,0,0,0,0,0,0,0,0,-1,832,1296,0,0
-385,-272,0,0,0,0,0,0,0,0,0,-1,839,1296,0,0
-378,-272,0,0,0,0,0,0,0,0,0,-1,846,1296,0,0
-371,-272,0,0,0,0,0,0,0,0,0,-1,853,1296,0,0
-364,-272,0,0,0,0,0,0,0,0,0,-1,860,1296,0,0
-357,-272,0,0,0,0,0,0,0,0,0,-1,867,1296,0,0
-350,-272,0,0,0,0,0,0,0,0,0,-1,874,1296,0,0
-343,-272,0,0,0,0,0,0,0,0,0,-1,881,1296,0,0
-336,-272,0,0,0,0,0,0,0,0,0,-1,888,1296,0,0
-329,-272,0,0,0,0,0,0,0,0,0,-1,895,1296,0,0
-322,-272,0,0,0,0,0,0,0,0,0,-1,902,1296,0,0
-315,-272,0,0,0,0,0,0,0,0,0,-1,909,1296,0,0
-308,-272,0,0,0,0,0,0,0,0,0,-1,916,1296,0,0
-301,-272,0,0,0,0,0,0,0,0,0,-1,923,1296,0,0
-294,-272,0,0,0,0,0,0,0,0,0,-1,930,1296,0,0
-287,-272,0,0,0,0,0,0,0,0,0,-1,937,1296,0,0
-280,-272,0,0,0,0,0,0,0,0,0,-1,944,1296,0,0
-273,-272,0,0,0,0,0,0,0,0,0,-1,951,1296,0,0
-266,-272,0,0,0,0,0,0,0,0,0,-1,958,1296,0,0
-259,-272,0,0,0,0,0,0,0,0,0,-1,965,1296,0,0
-252,-272,0,0,0,0,0,0,0,0,0,-1,972,1296,0,0
-245,-272,0,0,0,0,0,0,0,0,0,-1,979,1296,0,0
-238,-272,0,0,0,0,0,0,0,0,0,-1,986,1296,0,0
-231,-272,0,0,0,0,0,0,0,0,0,-1,993,1296,0,0
-224,-272,0,0,0,0,0,0,0,0,0,-1,1000,1296,0,0
-217,-272,0,0,0,0,0,0,0,0,0,-1,1007,1296,0,0
-210,-272,0,0,0,0,0,0,0,0,0,-1,1014,1296,0,0
-203,-272,0,0,0,0,0,0,0,0,0,-1,1021,1296,0,0
-196,-272,0,0,0,0,0,0,0,0,0,-1,1028,1296,0,0
-189,-272,0,0,0,0,0,0,0,0,0,-1,1035,1296,0,0
-182,-272,0,0,0,0,0,0,0,0,0,-1,1042,1296,0,0
-175,-272,0,0,0,0,0,0,0,0,0,-1,1049,1296,0,0
-168,-272,0,0,0,0,0,0,0,0,0,-1,1056,1296,0,0
-161,-272,0,0,0,0,0,0,0,0,0,-1,1063,1296,0,0
-154,-272,0,0,0,0,0,0,0,0,0,-1,1070,1296,0,0
-147,-272,0,0,0,0,0,0,0,0,0,-1,1077,1296,0,0
-140,-272,0,0,0,0,0,0,0,0,0,-1,1084,1296,0,0
-133,-272,0,0,0,0,0,0,0,0,0,-1,1091,1296,0,0
-126,-272,0,0,0,0,0,0,0,0,0,-1,1098,1296,0,0
-119,-272,0,0,0,0,0,0,0,0,0,-1,1105,1296,0,0
-112,-272,0,0,0,0,0,0,0,0,0,-1,1112,1296,0,0
-105,-272,0,0,0,0,0,0,0,0,0,-1,1119,1296,0,0
-98,-272,0,0,0,0,0,0,0,0,0,-1,1126,1296,0,0
-91,-272,0,0,0,0,0,0,0,0,0,-1,1133,1296,0,0
-84,-272,0,0,0,0,0,0,0,0,0,-1,1140,1296,0,0
-77,-272,0,0,0,0,0,0,0,0,0,-1,1147,1296,0,0
-70,-272,0,0,0,0,0,0,0,0,0,-1,1154,1296,0,0
-63,-272,0,0,0,0,0,0,0,0,0,-1,1161,1296,0,0
-56,-272,0,0,0,0,0,0,0,0,0,-1,1168,1296,0,0
-49,-272,0,0,0,0,0,0,0,0,0,-1,1175,1296,0,0
-42,-272,0,0,0,0,0,0,0,0,0,-1,1182,1296,0,0
-35,-272,0,0,0,0,0,0,0,0,0,-1,1189,1296,0,0
-28,-272,0,0,0,0,0,0,0,0,0,-1,1196,1296,0,0
-21,-272,0,0,0,0,0,0,0,0,0,-1,1203,1296,0,0
-14,-272,0,0,0,0,0,0,0,0,0,-1,1210,1296,0,0
-7,-272,0,0,0,0,0,0,0,0,0,-1,1217,1296,0,0
0,-272,0,0,0,0,0,0,0,0,0,-1,1224,1296,0,0
7,-272,0,0,0,0,0,0,0,0,0,-1,1231,1296,0,0
14,-272,0,0,0,0,0,0,0,0,0,-1,1238,1296,0,0
21,-272,0,0,0,0,0,0,0,0,0,-1,1245,1296,0,0
28,-272,0,0,0,0,0,0,0,0,0,-1,1252,1296,0,0
35,-272,0,0,0,0,0,0,0,0,0,-1,1259,1296,0,0
42,-272,0,0,0,0,0,0,0,0,0,-1,1266,1296,0,0
49,-272,0,0,0,0,0,0,0,0,0,-1,1273,1296,0,0
56,-272,0,0,0,0,0,0,0,0,0,-1,1280,1296,0,0
63,-272,0,0,0,0,0,0,0,0,0,-1,1287,1296,0,0
70,-272,0,0,0,0,0,0,0,0,0,-1,1294,1296,0,0
77,-272,0,0,0,0,0,0,0,0,0,-1,1301,1296,0,0
84,-272,0,0,0,0,0,0,0,0,0,-1,1308,1296,0,0
91,-272,0,0,0,0,0,0,0,0,0,-1,1315,1296,0,0
98,-272,0,0,0,0,0,0,0,0,0,-1,1322,1296,0,0
105,-272,0,0,0,0,0,0,0,0,0,-1,1329,1296,0,0
112,-272,0,0,0,0,0,0,0,0,0,-1,1336,1296,0,0
119,-272,0,0,0,0,0,0,0,0,0,-1,1343,1296,0,0
126,-272,0,0,0,0,0,0,0,0,0,-1,1350,1296,0,0
133,-272,0,0,0,0,0,0,0,0,0,-1,1357,1296,0,0
140,-272,0,0,0,0,0,0,0,0,0,-1,1364,1296,0,0
147,-272,0,0,0,0,0,0,0,0,0,-1,1371,1296,0,0
154,-272,0,0,0,0,0,0,0,0,0,-1,1378,1296,0,0
161,-272,0,0,0,0,0,0,0,0,0,-1,1385,1296,0,0
168,-272,0,0,0,0,0,0,0,0,0,-1,1392,1296,0,0
175,-272,0,0,0,0,0,0,0,0,0,-1,1399,1296,0,0
182,-272,0,0,0,0,0,0,0,0,0,-1,1406,1296,0,0
189,-272,0,0,0,0,0,0,0,0,0,-1,1413,1296,0,0
196,-272,0,0,0,0,0,0,0,0,0,-1,1420,1296,0,0
203,-272,0,0,0,0,0,0,0,0,0,-1,1427,1296,0,0
210,-272,0,0,0,0,0,0,0,0,0,-1,1434,1296,0,0
217,-272,0,0,0,0,0,0,0,0,0,-1,1441,1296,0,0
224,-272,0,0,0,0,0,0,0,0,0,-1,1448,1296,0,0
231,-272,0,0,0,0,0,0,0,0,0,-1,1455,1296,0,0
238,-272,0,0,0,0,0,0,0,0,0,-1,1462,1296,0,0
245,-272,0,0,0,0,0,0,0,0,0,-1,1469,1296,0,0
252,-272,0,0,0,0,0,0,0,0,0,-1,1476,1296,0,0
259,-272,0,0,0,0,0,0,0,0,0,-1,1483,1296,0,0
266,-272,0,0,0,0,0,0,0,0,0,-1,1490,1296,0,0
273,-272,0,0,0,0,0,0,0,0,0,-1,1497,1296,0,0
280,-272,0,0,0,0,0,0,0,0,0,-1,1504,1296,0,0
287,-272,0,0,0,0,0,0,0,0,0,-1,1511,1296,0,0
294,-272,0,0,0,0,0,0,0,0,0,-1,1518,1296,0,0
301,-272,0,0,0,0,0,0,0,0,0,-1,1525,1296,0,0
308,-272,0,0,0,0,0,0,0,0,0,-1,1532,1296,0,0
315,-272,0,0,0,0,0,0,0,0,0,-1,1539,1296,0,0
322,-272,0,0,0,0,0,0,0,0,0,-1,1546,1296,0,0
329,-272,0,0,0,0,0,0,0,0,0,-1,1553,1296,0,0
336,-272,0,0,0,0,0,0,0,0,0,-1,1560,1296,0,0
343,-272,0,0,0,0,0,0,0,0,0,-1,1567,1296,0,0
350,-272,0,0,0,0,0,0,0,0,0,-1,1574,1296,0,0
357,-272,0,0,0,0,0,0,0,0,0,-1,1581,1296,0,0
364,-272,0,0,0,0,0,0,0,0,0,-1,1588,1296,0,0
371,-272,0,0,0,0,0,0,0,0,0,-1,1595,1296,0,0
378,-272,0,0,0,0,0,0,0,0,0,-1,1602,1296,0,0
385,-272,0,0,0,0,0,0,0,0,0,-1,1609,1296,0,0
392,-272,0,0,0,0,0,0,0,0,0,-1,1616,1296,0,0
399,-272,0,0,0,0,0,0,0,0,0,-1,1623,1296,0,0
406,-272,0,0,0,0,0,0,0,0,0,-1,1630,1296,0,0
413,-272,0,0,0,0,0,0,0,0,0,-1,1637,1296,0,0
420,-272,0,0,0,0,0,0,0,0,0,-1,1644,1296,0,0
427,-272,0,0,0,0,0,0,0,0,0,-1,1651,1296,0,0
434,-272,0,0,0,0,0,0,0,0,0,-1,1658,1296,0,0
441,-272,0,0,0,0,0,0,0,0,0,-1,1665,1296,0,0
448,-272,0,0,0,0,0,0,0,0,0,-1,1672,1296,0,0
455,-272,0,0,0,0,0,0,0,0,0,-1,1679,1296,0,0
462,-272,0,0,0,0,0,0,0,0,0,-1,1686,1296,0,0
469,-272,0,0,0,0,0,0,0,0,0,-1,1693,1296,0,0
476,-272,0,0,0,0,0,0,0,0,0,-1,1700,1296,0,0
483,-272,0,0,0,0,0,0,0,0,0,-1,1707,1296,0,0
490,-272,0,0,0,0,0,0,0,0,0,-1,1714,1296,0,0
497,-272,0,0,0,0,0,0,0,0,0,-1,1721,1296,0,0
504,-272,0,0,0,0,0,0,0,0,0,-1,1728,1296,0,0
511,-272,0,0,0,0,0,0,0,0,0,-1,1735,1296,0,0
518,-272,0,0,0,0,0,0,0,0,0,-1,1742,1296,0,0
525,-272,0,0,0,0,0,0,0,0,0,-1,1749,1296,0,0
532,-272,0,0,0,0,0,0,0,0,0,-1,1756,1296,0,0
539,-272,0,0,0,0,0,0,0,0,0,-1,1763,1296,0,0
546,-272,0,0,0,0,0,0,0,0,0,-1,1770,1296,0,0
553,-272,0,0,0,0,0,0,0,0,0,-1,1777,1296,0,0
560,-272,0,0,0,0,0,0,0,0,0,-1,1784,1296,0,0
567,-272,0,0,0,0,0,0,0,0,0,-1,1791,1296,0,0
574,-272,0,0,0,0,0,0,0,0,0,-1,1798,1296,0,0
581,-272,0,0,0,0,0,0,0,0,0,-1,1805,1296,0,0
588,-272,0,0,0,0,0,0,0,0,0,-1,1812,1296,0,0
595,-272,0,0,0,0,0,0,0,0,0,-1,1819,1296,0,0
602,-272,158.653,5.37524,0,0,0,0,0,0,0,-1,1826,1296,158.653,-5.37529
609,-272,158.608,5.23889,0,0,0,0,0,0,0,-1,1833,1296,158.608,-5.23884
616,-272,126.119,3.40002,0,0,0,0,0,0,0,-1,1840,1296,126.119,-3.40006
623,-272,109.517,3.08215,0,0,0,0,0,0,0,-1,1847,1296,109.517,-3.08218
630,-272,97.5989,2.35938,0,0,0,0,0,0,0,-1,1854,1296,97.5989,-2.35936
637,-272,81.689,1.84167,0,0,0,0,0,0,0,-1,1861,1296,81.6889,-1.84169
644,-272,53.563,1.44336,0,0,0,0,0,0,0,-1,1868,1296,53.5629,-1.4433
651,-272,41.9225,4.27161,0,0,0,0,0,0,0,-1,1875,1296,41.9225,-4.27157
658,-272,35.1527,2.10571,0,0,0,0,0,0,0,-1,1882,1296,35.1527,-2.10573
665,-272,22.0238,4.14417,0,0,0,0,0,0,0,-1,1889,1296,22.0238,-4.14421
672,-272,22.661,7.21765,0,0,0,0,0,0,0,-1,1896,1296,22.661,-7.21761
679,-272,51.5885,15.1158,0,0,0,0,0,0,0,-1,1903,1296,51.5885,-15.1159
686,-272,126.439,42.3174,0,0,0,0,0,0,0,-1,1910,1296,126.439,-42.3174
693,-272,126.171,40.2949,0,0,0,0,0,0,0,-1,1917,1296,126.171,-40.2949
700,-272,125.645,38.2406,0.00184815,-0.00377672,-0.00455494,0.00438896,-0.00631754,-0.508824,0.00621474,0.0473619,1924,1296,125.645,-38.2407
707,-272,125.34,36.1656,-0.00191236,0.000491001,0.000718497,0.000689419,-0.00211077,1.30136,0.00168468,0.0244238,1931,1296,125.34,-36.1657
714,-272,125.015,34.2421,-0.00610714,0.00489472,0.00615466,0.00764849,-0.00886091,1.15008,0.00954027,0.0257284,1938,1296,125.015,-34.242
721,-272,124.628,32.3533,-0.0106877,0.00929736,0.0118034,0.0147699,-0.0161603,1.13665,0.0178636,0.0381055,1945,1296,124.628,-32.3533
728,-272,124.237,30.4279,-0.0156945,0.0137195,0.0176952,0.0220215,-0.0239966,1.13212,0.0265767,0.0389893,1952,1296,124.237,-30.4279
735,-272,123.952,28.7065,-0.0212208,0.0181109,0.0238605,0.0293654,-0.0324753,1.13006,0.0357188,0.0301324,1959,1296,123.952,-28.7066
742,-272,123.508,27.0452,-0.0272662,0.0224974,0.0303218,0.0368395,-0.0416083,1.12898,0.0453198,0.037407,1966,1296,123.508,-27.0452
749,-272,122.982,25.3308,0,0,0,0,0,0,0,-1,1973,1296,122.982,-25.3308
756,-272,95.0237,19.6219,0,0,0,0,0,0,0,-1,1980,1296,95.0237,-19.622
763,-272,34.3995,5.88416,0,0,0,0,0,0,0,-1,1987,1296,34.3996,-5.88419
770,-272,25.9485,3.67749,0,0,0,0,0,0,0,-1,1994,1296,25.9485,-3.67744
777,-272,32.3619,6.13257,0,0,0,0,0,0,0,-1,2001,1296,32.362,-6.1326
784,-272,0,0,0,0,0,0,0,0,0,-1,2008,1296,0,0
791,-272,0,0,0,0,0,0,0,0,0,-1,2015,1296,0,0
798,-272,0,0,0,0,0,0,0,0,0,-1,2022,1296,0,0
805,-272,0,0,0,0,0,0,0,0,0,-1,2029,1296,0,0
812,-272,0,0,0,0,0,0,0,0,0,-1,2036,1296,0,0
-700,-279,0,0,0,0,0,0,0,0,0,-1,524,1303,0,0
-693,-279,0,0,0,0,0,0,0,0,0,-1,531,1303,0,0
-686,-279,0,0,0,0,0,0,0,0,0,-1,538,1303,0,0
-679,-279,0,0,0,0,0,0,0,0,0,-1,545,1303,0,0
-672,-279,0,0,0,0,0,0,0,0,0,-1,552,1303,0,0
-665,-279,0,0,0,0,0,0,0,0,0,-1,559,1303,0,0
-658,-279,-44.3733,1.65881,0,0,0,0,0,0,0,-1,566,1303,-44.3733,-1.65883
-651,-279,-44.1603,1.61462,0,0,0,0,0,0,0,-1,573,1303,-44.1604,-1.61462
-644,-279,-43.8069,1.50903,0,0,0,0,0,0,0,-1,580,1303,-43.8069,-1.50909
-637,-279,-43.2951,1.33704,0,0,0,0,0,0,0,-1,587,1303,-43.2951,-1.33703
-630,-279,-42.6152,1.22852,0,0,0,0,0,0,0,-1,594,1303,-42.6152,-1.22856
-623,-279,-41.8359,0.907715,0,0,0,0,0,0,0,-1,601,1303,-41.8358,-0.907688
-616,-279,-36.7089,8.0625,0,0,0,0,0,0,0,-1,608,1303,-36.7089,-8.06252
-609,-279,-115.695,26.9259,0,0,0,0,0,0,0,-1,615,1303,-115.695,-26.9259
-602,-279,-115.885,28.8839,-0.0119442,0.0251799,-0.010686,0.0280361,-0.0148004,-1.30962,0.0251221,0.0288021,622,1303,-115.885,-28.884
-595,-279,-116.214,30.7139,-0.00806697,0.0185861,-0.0089269,0.0212997,-0.0107806,-1.27569,0.0188506,0.0182338,629,1303,-116.214,-30.7138
-588,-279,-116.508,32.4984,-0.00349308,0.0121975,-0.00641842,0.0144886,-0.00578409,-1.22795,0.0120587,0.0214771,636,1303,-116.509,-32.4984
-581,-279,-116.766,34.3265,0.00170642,0.00602571,-0.00322832,0.00775015,-1.8022e-05,-1.0802,0.00517278,0.0221161,643,1303,-116.766,-34.3265
-574,-279,-116.877,36.3037,0.00744265,6.59124e-05,0.000551152,0.00748361,2.49606e-05,0.074166,0.00498077,0.048175,650,1303,-116.877,-36.3037
-567,-279,-116.685,38.4232,0,0,0,0,0,0,0,-1,657,1303,-116.685,-38.4232
-560,-279,-75.499,31.936,0,0,0,0,0,0,0,-1,664,1303,-75.499,-31.936
-553,-279,-91.6979,38.8201,0,0,0,0,0,0,0,-1,671,1303,-91.6979,-38.82
-546,-279,-75.6956,34.5919,0,0,0,0,0,0,0,-1,678,1303,-75.6955,-34.5919
-539,-279,-43.8463,20.5084,0,0,0,0,0,0,0,-1,685,1303,-43.8463,-20.5085
-532,-279,-14.9813,7.89917,0,0,0,0,0,0,0,-1,692,1303,-14.9813,-7.89918
-525,-279,-11.7063,-0.539185,0,0,0,0,0,0,0,-1,699,1303,-11.7063,0.539166
-518,-279,-16.8138,1.11963,0,0,0,0,0,0,0,-1,706,1303,-16.8138,-1.11968
-511,-279,-20.1063,-1.37915,0,0,0,0,0,0,0,-1,713,1303,-20.1062,1.37918
-504,-279,-18.3766,1.04578,0,0,0,0,0,0,0,-1,720,1303,-18.3767,-1.04577
-497,-279,-19.0046,2.08911,0,0,0,0,0,0,0,-1,727,1303,-19.0046,-2.08905
-490,-279,-20.0176,2.55188,0,0,0,0,0,0,0,-1,734,1303,-20.0176,-2.55183
-483,-279,-20.8064,2.99792,0,0,0,0,0,0,0,-1,741,1303,-20.8064,-2.99797
-476,-279,0,0,0,0,0,0,0,0,0,-1,748,1303,0,0
-469,-279,0,0,0,0,0,0,0,0,0,-1,755,1303,0,0
-462,-279,0,0,0,0,0,0,0,0,0,-1,762,1303,0,0
-455,-279,0,0,0,0,0,0,0,0,0,-1,769,1303,0,0
-448,-279,0,0,0,0,0,0,0,0,0,-1,776,1303,0,0
-441,-279,0,0,0,0,0,0,0,0,0,-1,783,1303,0,0
-434,-279,0,0,0,0,0,0,0,0,0,-1,790,1303,0,0
-427,-279,0,0,0,0,0,0,0,0,0,-1,797,1303,0,0
-420,-279,0,0,0,0,0,0,0,0,0,-1,804,1303,0,0
-413,-279,0,0,0,0,0,0,0,0,0,-1,811,1303,0,0
-406,-279,0,0,0,0,0,0,0,0,0,-1,818,1303,0,0
-399,-279,0,0,0,0,0,0,0,0,0,-1,825,1303,0,0
-392,-279,0,0,0,0,0,0,0,0,0,-1,832,1303,0,0
-385,-279,0,0,0,0,0,0,0,0,0,-1,839,1303,0,0
-378,-279,0,0,0,0,0,0,0,0,0,-1,846,1303,0,0
-371,-279,0,0,0,0,0,0,0,0,0,-1,853,1303,0,0
-364,-279,0,0,0,0,0,0,0,0,0,-1,860,1303,0,0
-357,-279,0,0,0,0,0,0,0,0,0,-1,867,1303,0,0
-350,-279,0,0,0,0,0,0,0,0,0,-1,874,1303,0,0
-343,-279,0,0,0,0,0,0,0,0,0,-1,881,1303,0,0
-336,-279,0,0,0,0,0,0,0,0,0,-1,888,1303,0,0
-329,-279,0,0,0,0,0,0,0,0,0,-1,895,1303,0,0
-322,-279,0,0,0,0,0,0,0,0,0,-1,902,1303,0,0
-315,-279,0,0,0,0,0,0,0,0,0,-1,909,1303,0,0
-308,-279,0,0,0,0,0,0,0,0,0,-1,916,1303,0,0
-301,-279,0,0,0,0,0,0,0,0,0,-1,923,1303,0,0
-294,-279,0,0,0,0,0,0,0,0,0,-1,930,1303,0,0
-287,-279,0,0,0,0,0,0,0,0,0,-1,937,1303,0,0
-280,-279,0,0,0,0,0,0,0,0,0,-1,944,1303,0,0
-273,-279,0,0,0,0,0,0,0,0,0,-1,951,1303,0,0
-266,-279,0,0,0,0,0,0,0,0,0,-1,958,1303,0,0
-259,-279,0,0,0,0,0,0,0,0,0,-1,965,1303,0,0
-252,-279,0,0,0,0,0,0,0,0,0,-1,972,1303,0,0
-245,-279,0,0,0,0,0,0,0,0,0,-1,979,1303,0,0
-238,-279,0,0,0,0,0,0,0,0,0,-1,986,1303,0,0
-231,-279,0,0,0,0,0,0,0,0,0,-1,993,1303,0,0
-224,-279,0,0,0,0,0,0,0,0,0,-1,1000,1303,0,0
-217,-279,0,0,0,0,0,0,0,0,0,-1,1007,1303,0,0
-210,-279,0,0,0,0,0,0,0,0,0,-1,1014,1303,0,0
-203,-279,0,0,0,0,0,0,0,0,0,-1,1021,1303,0,0
-196,-279,0,0,0,0,0,0,0,0,0,-1,1028,1303,0,0
-189,-279,0,0,0,0,0,0,0,0,0,-1,1035,1303,0,0
-182,-279,0,0,0,0,0,0,0,0,0,-1,1042,1303,0,0
-175,-279,0,0,0,0,0,0,0,0,0,-1,1049,1303,0,0
-168,-279,0,0,0,0,0,0,0,0,0,-1,1056,1303,0,0
-161,-279,0,0,0,0,0,0,0,0,0,-1,1063,1303,0,0
-154,-279,0,0,0,0,0,0,0,0,0,-1,1070,1303,0,0
-147,-279,0,0,0,0,0,0,0,0,0,-1,1077,1303,0,0
-140,-279,0,0,0,0,0,0,0,0,0,-1,1084,1303,0,0
-133,-279,0,0,0,0,0,0,0,0,0,-1,1091,1303,0,0
-126,-279,0,0,0,0,0,0,0,0,0,-1,1098,1303,0,0
-119,-279,0,0,0,0,0,0,0,0,0,-1,1105,1303,0,0
-112,-279,0,0,0,0,0,0,0,0,0,-1,1112,1303,0,0
-105,-279,0,0,0,0,0,0,0,0,0,-1,1119,1303,0,0
-98,-279,0,0,0,0,0,0,0,0,0,-1,1126,1303,0,0
-91,-279,0,0,0,0,0,0,0,0,0,-1,1133,1303,0,0
-84,-279,0,0,0,0,0,0,0,0,0,-1,1140,1303,0,0
-77,-279,0,0,0,0,0,0,0,0,0,-1,1147,1303,0,0
-70,-279,0,0,0,0,0,0,0,0,0,-1,1154,1303,0,0
-63,-279,0,0,0,0,0,0,0,0,0,-1,1161,1303,0,0
-56,-279,0,0,0,0,0,0,0,0,0,-1,1168,1303,0,0
-49,-279,0,0,0,0,0,0,0,0,0,-1,1175,1303,0,0
-42,-279,0,0,0,0,0,0,0,0,0,-1,1182,1303,0,0
-35,-279,0,0,0,0,0,0,0,0,0,-1,1189,1303,0,0
-28,-279,0,0,0,0,0,0,0,0,0,-1,1196,1303,0,0
-21,-279,0,0,0,0,0,0,0,0,0,-1,1203,1303,0,0
-14,-279,0,0,0,0,0,0,0,0,0,-1,1210,1303,0,0
-7,-279,0,0,0,0,0,0,0,0,0,-1,1217,1303,0,0
0,-279,0,0,0,0,0,0,0,0,0,-1,1224,1303,0,0
7,-279,0,0,0,0,0,0,0,0,0,-1,1231,1303,0,0
14,-279,0,0,0,0,0,0,0,0,0,-1,1238,1303,0,0
21,-279,0,0,0,0,0,0,0,0,0,-1,1245,1303,0,0
28,-279,0,0,0,0,0,0,0,0,0,-1,1252,1303,0,0
35,-279,0,0,0,0,0,0,0,0,0,-1,1259,1303,0,0
42,-279,0,0,0,0,0,0,0,0,0,-1,1266,1303,0,0
49,-279,0,0,0,0,0,0,0,0,0,-1,1273,1303,0,0
56,-279,0,0,0,0,0,0,0,0,0,-1,1280,1303,0,0
63,-279,0,0,0,0,0,0,0,0,0,-1,1287,1303,0,0
70,-279,0,0,0,0,0,0,0,0,0,-1,1294,1303,0,0
77,-279,0,0,0,0,0,0,0,0,0,-1,1301,1303,0,0
84,-279,0,0,0,0,0,0,0,0,0,-1,1308,1303,0,0
91,-279,0,0,0,0,0,0,0,0,0,-1,1315,1303,0,0
98,-279,0,0,0,0,0,0,0,0,0,-1,1322,1303,0,0
105,-279,0,0,0,0,0,0,0,0,0,-1,1329,1303,0,0
112,-279,0,0,0,0,0,0,0,0,0,-1,1336,1303,0,0
119,-279,0,0,0,0,0,0,0,0,0,-1,1343,1303,0,0
126,-279,0,0,0,0,0,0,0,0,0,-1,1350,1303,0,0
133,-279,0,0,0,0,0,0,0,0,0,-1,1357,1303,0,0
140,-279,0,0,0,0,0,0,0,0,0,-1,1364,1303,0,0
147,-279,0,0,0,0,0,0,0,0,0,-1,1371,1303,0,0
154,-279,0,0,0,0,0,0,0,0,0,-1,1378,1303,0,0
161,-279,0,0,0,0,0,0,0,0,0,-1,1385,1303,0,0
168,-279,0,0,0,0,0,0,0,0,0,-1,1392,1303,0,0
175,-279,0,0,0,0,0,0,0,0,0,-1,1399,1303,0,0
182,-279,0,0,0,0,0,0,0,0,0,-1,1406,1303,0,0
189,-279,0,0,0,0,0,0,0,0,0,-1,1413,1303,0,0
196,-279,0,0,0,0,0,0,0,0,0,-1,1420,1303,0,0
203,-279,0,0,0,0,0,0,0,0,0,-1,1427,1303,0,0
210,-279,0,0,0,0,0,0,0,0,0,-1,1434,1303,0,0
217,-279,0,0,0,0,0,0,0,0,0,-1,1441,1303,0,0
224,-279,0,0,0,0,0,0,0,0,0,-1,1448,1303,0,0
231,-279,0,0,0,0,0,0,0,0,0,-1,1455,1303,0,0
238,-279,0,0,0,0,0,0,0,0,0,-1,1462,1303,0,0
245,-279,0,0,0,0,0,0,0,0,0,-1,1469,1303,0,0
252,-279,0,0,0,0,0,0,0,0,0,-1,1476,1303,0,0
259,-279,0,0,0,0,0,0,0,0,0,-1,1483,1303,0,0
266,-279,0,0,0,0,0,0,0,0,0,-1,1490,1303,0,0
273,-279,0,0,0,0,0,0,0,0,0,-1,1497,1303,0,0
280,-279,0,0,0,0,0,0,0,0,0,-1,1504,1303,0,0
287,-279,0,0,0,0,0,0,0,0,0,-1,1511,1303,0,0
294,-279,0,0,0,0,0,0,0,0,0,-1,1518,1303,0,0
301,-279,0,0,0,0,0,0,0,0,0,-1,1525,1303,0,0
308,-279,0,0,0,0,0,0,0,0,0,-1,1532,1303,0,0
315,-279,0,0,0,0,0,0,0,0,0,-1,1539,1303,0,0
322,-279,0,0,0,0,0,0,0,0,0,-1,1546,1303,0,0
329,-279,0,0,0,0,0,0,0,0,0,-1,1553,1303,0,0
336,-279,0,0,0,0,0,0,0,0,0,-1,1560,1303,0,0
343,-279,0,0,0,0,0,0,0,0,0,-1,1567,1303,0,0
350,-279,0,0,0,0,0,0,0,0,0,-1,1574,1303,0,0
357,-279,0,0,0,0,0,0,0,0,0,-1,1581,1303,0,0
364,-279,0,0,0,0,0,0,0,0,0,-1,1588,1303,0,0
371,-279,0,0,0,0,0,0,0,0,0,-1,1595,1303,0,0
378,-279,0,0,0,0,0,0,0,0,0,-1,1602,1303,0,0
385,-279,0,0,0,0,0,0,0,0,0,-1,1609,1303,0,0
392,-279,0,0,0,0,0,0,0,0,0,-1,1616,1303,0,0
399,-279,0,0,0,0,0,0,0,0,0,-1,1623,1303,0,0
406,-279,0,0,0,0,0,0,0,0,0,-1,1630,1303,0,0
413,-279,0,0,0,0,0,0,0,0,0,-1,1637,1303,0,0
420,-279,0,0,0,0,0,0,0,0,0,-1,1644,1303,0,0
427,-279,0,0,0,0,0,0,0,0,0,-1,1651,1303,0,0
434,-279,0,0,0,0,0,0,0,0,0,-1,1658,1303,0,0
441,-279,0,0,0,0,0,0,0,0,0,-1,1665,1303,0,0
448,-279,0,0,0,0,0,0,0,0,0,-1,1672,1303,0,0
455,-279,0,0,0,0,0,0,0,0,0,-1,1679,1303,0,0
462,-279,0,0,0,0,0,0,0,0,0,-1,1686,1303,0,0
469,-279,0,0,0,0,0,0,0,0,0,-1,1693,1303,0,0
476,-279,0,0,0,0,0,0,0,0,0,-1,1700,1303,0,0
483,-279,0,0,0,0,0,0,0,0,0,-1,1707,1303,0,0
490,-279,0,0,0,0,0,0,0,0,0,-1,1714,1303,0,0
497,-279,0,0,0,0,0,0,0,0,0,-1,1721,1303,0,0
504,-279,0,0,0,0,0,0,0,0,0,-1,1728,1303,0,0
511,-279,0,0,0,0,0,0,0,0,0,-1,1735,1303,0,0
518,-279,0,0,0,0,0,0,0,0,0,-1,1742,1303,0,0
525,-279,0,0,0,0,0,0,0,0,0,-1,1749,1303,0,0
532,-279,0,0,0,0,0,0,0,0,0,-1,1756,1303,0,0
539,-279,0,0,0,0,0,0,0,0,0,-1,1763,1303,0,0
546,-279,0,0,0,0,0,0,0,0,0,-1,1770,1303,0,0
553,-279,0,0,0,0,0,0,0,0,0,-1,1777,1303,0,0
560,-279,0,0,0,0,0,0,0,0,0,-1,1784,1303,0,0
567,-279,0,0,0,0,0,0,0,0,0,-1,1791,1303,0,0
574,-279,0,0,0,0,0,0,0,0,0,-1,1798,1303,0,0
581,-279,0,0,0,0,0,0,0,0,0,-1,1805,1303,0,0
588,-279,0,0,0,0,0,0,0,0,0,-1,1812,1303,0,0
595,-279,0,0,0,0,0,0,0,0,0,-1,1819,1303,0,0
602,-279,152.555,4.89832,0,0,0,0,0,0,0,-1,1826,1303,152.555,-4.89833
609,-279,126.095,3.35498,0,0,0,0,0,0,0,-1,1833,1303,126.095,-3.35493
616,-279,109.392,2.99854,0,0,0,0,0,0,0,-1,1840,1303,109.392,-2.99857
623,-279,99.0006,2.2428,0,0,0,0,0,0,0,-1,1847,1303,99.0006,-2.24284
630,-279,88.6062,2.73572,0,0,0,0,0,0,0,-1,1854,1303,88.6063,-2.73567
637,-279,73.1141,1.62744,0,0,0,0,0,0,0,-1,1861,1303,73.1142,-1.62742
644,-279,33.5021,3.40234,0,0,0,0,0,0,0,-1,1868,1303,33.5021,-3.40237
651,-279,29.8456,2.3562,0,0,0,0,0,0,0,-1,1875,1303,29.8455,-2.35615
658,-279,21.5076,7.65649,0,0,0,0,0,0,0,-1,1882,1303,21.5076,-7.65648
665,-279,18.9794,6.09607,0,0,0,0,0,0,0,-1,1889,1303,18.9793,-6.09601
672,-279,23.5206,8.32507,0,0,0,0,0,0,0,-1,1896,1303,23.5206,-8.32512
679,-279,63.2394,20.0441,0,0,0,0,0,0,0,-1,1903,1303,63.2394,-20.0441
686,-279,84.6371,29.4445,0,0,0,0,0,0,0,-1,1910,1303,84.6371,-29.4445
693,-279,124.319,40.6008,0,0,0,0,0,0,0,-1,1917,1303,124.319,-40.6009
700,-279,123.442,38.5552,0,0,0,0,0,0,0,-1,1924,1303,123.442,-38.5552
707,-279,123.234,36.5009,-0.003104,0.00182841,0.00231843,0.00274706,-0.00402266,1.19353,0.00393156,0.0222698,1931,1303,123.234,-36.5009
714,-279,122.896,34.4989,-0.00686769,0.00594006,0.00765963,0.00952015,-0.0104478,1.13357,0.0115326,0.015702,1938,1303,122.896,-34.4989
721,-279,122.594,32.5114,-0.0110774,0.0100826,0.013291,0.0164905,-0.0174853,1.12156,0.0196187,0.0258763,1945,1303,122.594,-32.5113
728,-279,122.185,30.6486,-0.0157341,0.0142646,0.0192309,0.0236539,-0.0251234,1.1166,0.0281659,0.0326932,1952,1303,122.185,-30.6485
735,-279,121.701,29.0088,0,0,0,0,0,0,0,-1,1959,1303,121.701,-29.0088
742,-279,121.269,27.5267,0,0,0,0,0,0,0,-1,1966,1303,121.269,-27.5268
749,-279,119.831,24.8264,0,0,0,0,0,0,0,-1,1973,1303,119.831,-24.8265
756,-279,103.538,20.6768,0,0,0,0,0,0,0,-1,1980,1303,103.538,-20.6768
763,-279,27.1613,3.46265,0,0,0,0,0,0,0,-1,1987,1303,27.1613,-3.4627
770,-279,21.5828,3.54199,0,0,0,0,0,0,0,-1,1994,1303,21.5827,-3.54198
777,-279,32.5369,6.99609,0,0,0,0,0,0,0,-1,2001,1303,32.5369,-6.99608
784,-279,0,0,0,0,0,0,0,0,0,-1,2008,1303,0,0
791,-279,0,0,0,0,0,0,0,0,0,-1,2015,1303,0,0
798,-279,0,0,0,0,0,0,0,0,0,-1,2022,1303,0,0
805,-279,0,0,0,0,0,0,0,0,0,-1,2029,1303,0,0
812,-279,0,0,0,0,0,0,0,0,0,-1,2036,1303,0,0
-700,-286,0,0,0,0,0,0,0,0,0,-1,524,1310,0,0
-693,-286,0,0,0,0,0,0,0,0,0,-1,531,1310,0,0
-686,-286,0,0,0,0,0,0,0,0,0,-1,538,1310,0,0
-679,-286,0,0,0,0,0,0,0,0,0,-1,545,1310,0,0
-672,-286,0,0,0,0,0,0,0,0,0,-1,552,1310,0,0
-665,-286,0,0,0,0,0,0,0,0,0,-1,559,1310,0,0
-658,-286,-44.103,1.76782,0,0,0,0,0,0,0,-1,566,1310,-44.103,-1.76778
-651,-286,-43.6417,1.98254,0,0,0,0,0,0,0,-1,573,1310,-43.6416,-1.98254
-644,-286,-43.3175,1.59558,0,0,0,0,0,0,0,-1,580,1310,-43.3175,-1.59556
-637,-286,-42.8448,1.15039,0,0,0,0,0,0,0,-1,587,1310,-42.8448,-1.15043
-630,-286,-42.1176,0.443848,0,0,0,0,0,0,0,-1,594,1310,-42.1176,-0.443802
-623,-286,-41.3121,-0.468384,0,0,0,0,0,0,0,-1,601,1310,-41.3121,0.468376
-616,-286,-22.0634,2.37744,0,0,0,0,0,0,0,-1,608,1310,-22.0633,-2.37746
-609,-286,-113.674,26.485,0,0,0,0,0,0,0,-1,615,1310,-113.674,-26.485
-602,-286,-113.836,28.8756,-0.0125986,0.0270481,-0.0110155,0.0299031,-0.0154536,-1.3172,0.026626,0.0448785,622,1310,-113.836,-28.8756
-595,-286,-114.219,30.9071,-0.00824502,0.0205676,-0.00938216,0.0233533,-0.0110308,-1.28217,0.0202721,0.0223516,629,1310,-114.219,-30.9071
-588,-286,-114.545,32.6914,-0.00336629,0.014298,-0.00715957,0.0168354,-0.00590367,-1.2302,0.0136247,0.0261166,636,1310,-114.545,-32.6914
-581,-286,-114.779,34.5793,0.00196313,0.0082531,-0.00442171,0.0105342,-0.000317973,-1.09452,0.00713116,0.0261431,643,1310,-114.779,-34.5794
-574,-286,-114.962,36.5082,0.00765672,0.00243396,-0.00126228,0.00794579,0.00214488,-0.22513,0.00474662,0.0450694,650,1310,-114.962,-36.5082
-567,-286,-115.015,38.533,0,0,0,0,0,0,0,-1,657,1310,-115.015,-38.5329
-560,-286,-89.4232,37.6656,0,0,0,0,0,0,0,-1,664,1310,-89.4232,-37.6656
-553,-286,-116.047,42.9994,0,0,0,0,0,0,0,-1,671,1310,-116.047,-42.9994
-546,-286,-90.5775,40.3599,0,0,0,0,0,0,0,-1,678,1310,-90.5775,-40.3599
-539,-286,-60.7808,29.4718,0,0,0,0,0,0,0,-1,685,1310,-60.7808,-29.4718
-532,-286,-21.6771,10.4924,0,0,0,0,0,0,0,-1,692,1310,-21.6771,-10.4924
-525,-286,-11.4528,-1.11768,0,0,0,0,0,0,0,-1,699,1310,-11.4528,1.11769
-518,-286,-11.0701,1.37329,0,0,0,0,0,0,0,-1,706,1310,-11.0701,-1.37332
-511,-286,-17.7545,-0.0791016,0,0,0,0,0,0,0,-1,713,1310,-17.7544,0.0791606
-504,-286,-18.0455,1.29602,0,0,0,0,0,0,0,-1,720,1310,-18.0455,-1.29601
-497,-286,-18.3367,2.67114,0,0,0,0,0,0,0,-1,727,1310,-18.3366,-2.67118
-490,-286,-19.5795,2.47266,0,0,0,0,0,0,0,-1,734,1310,-19.5795,-2.4727
-483,-286,-19.7277,2.74744,0,0,0,0,0,0,0,-1,741,1310,-19.7277,-2.74747
-476,-286,-20.0391,3.06177,0,0,0,0,0,0,0,-1,748,1310,-20.0391,-3.06178
-469,-286,0,0,0,0,0,0,0,0,0,-1,755,1310,0,0
-462,-286,0,0,0,0,0,0,0,0,0,-1,762,1310,0,0
-455,-286,0,0,0,0,0,0,0,0,0,-1,769,1310,0,0
-448,-286,0,0,0,0,0,0,0,0,0,-1,776,1310,0,0
-441,-286,0,0,0,0,0,0,0,0,0,-1,783,1310,0,0
-434,-286,0,0,0,0,0,0,0,0,0,-1,790,1310,0,0
-427,-286,0,0,0,0,0,0,0,0,0,-1,797,1310,0,0
-420,-286,0,0,0,0,0,0,0,0,0,-1,804,1310,0,0
-413,-286,0,0,0,0,0,0,0,0,0,-1,811,1310,0,0
-406,-286,0,0,0,0,0,0,0,0,0,-1,818,1310,0,0
-399,-286,0,0,0,0,0,0,0,0,0,-1,825,1310,0,0
-392,-286,0,0,0,0,0,0,0,0,0,-1,832,1310,0,0
-385,-286,0,0,0,0,0,0,0,0,0,-1,839,1310,0,0
-378,-286,0,0,0,0,0,0,0,0,0,-1,846,1310,0,0
-371,-286,0,0,0,0,0,0,0,0,0,-1,853,1310,0,0
-364,-286,0,0,0,0,0,0,0,0,0,-1,860,1310,0,0
-357,-286,0,0,0,0,0,0,0,0,0,-1,867,1310,0,0
-350,-286,0,0,0,0,0,0,0,0,0,-1,874,1310,0,0
-343,-286,0,0,0,0,0,0,0,0,0,-1,881,1310,0,0
-336,-286,0,0,0,0,0,0,0,0,0,-1,888,1310,0,0
-329,-286,0,0,0,0,0,0,0,0,0,-1,895,1310,0,0
-322,-286,0,0,0,0,0,0,0,0,0,-1,902,1310,0,0
-315,-286,0,0,0,0,0,0,0,0,0,-1,909,1310,0,0
-308,-286,0,0,0,0,0,0,0,0,0,-1,916,1310,0,0
-301,-286,0,0,0,0,0,0,0,0,0,-1,923,1310,0,0
-294,-286,0,0,0,0,0,0,0,0,0,-1,930,1310,0,0
-287,-286,0,0,0,0,0,0,0,0,0,-1,937,1310,0,0
-280,-286,0,0,0,0,0,0,0,0,0,-1,944,1310,0,0
-273,-286,0,0,0,0,0,0,0,0,0,-1,951,1310,0,0
-266,-286,0,0,0,0,0,0,0,0,0,-1,958,1310,0,0
-259,-286,0,0,0,0,0,0,0,0,0,-1,965,1310,0,0
-252,-286,0,0,0,0,0,0,0,0,0,-1,972,1310,0,0
-245,-286,0,0,0,0,0,0,0,0,0,-1,979,1310,0,0
-238,-286,0,0,0,0,0,0,0,0,0,-1,986,1310,0,0
-231,-286,0,0,0,0,0,0,0,0,0,-1,993,1310,0,0
-224,-286,0,0,0,0,0,0,0,0,0,-1,1000,1310,0,0
-217,-286,0,0,0,0,0,0,0,0,0,-1,1007,1310,0,0
-210,-286,0,0,0,0,0,0,0,0,0,-1,1014,1310,0,0
-203,-286,0,0,0,0,0,0,0,0,0,-1,1021,1310,0,0
-196,-286,0,0,0,0,0,0,0,0,0,-1,1028,1310,0,0
-189,-286,0,0,0,0,0,0,0,0,0,-1,1035,1310,0,0
-182,-286,0,0,0,0,0,0,0,0,0,-1,1042,1310,0,0
-175,-286,0,0,0,0,0,0,0,0,0,-1,1049,1310,0,0
-168,-286,0,0,0,0,0,0,0,0,0,-1,1056,1310,0,0
-161,-286,0,0,0,0,0,0,0,0,0,-1,1063,1310,0,0
-154,-286,0,0,0,0,0,0,0,0,0,-1,1070,1310,0,0
-147,-286,0,0,0,0,0,0,0,0,0,-1,1077,1310,0,0
-140,-286,0,0,0,0,0,0,0,0,0,-1,1084,1310,0,0
-133,-286,0,0,0,0,0,0,0,0,0,-1,1091,1310,0,0
-126,-286,0,0,0,0,0,0,0,0,0,-1,1098,1310,0,0
-119,-286,0,0,0,0,0,0,0,0,0,-1,1105,1310,0,0
-112,-286,0,0,0,0,0,0,0,0,0,-1,1112,1310,0,0
-105,-286,0,0,0,0,0,0,0,0,0,-1,1119,1310,0,0
-98,-286,0,0,0,0,0,0,0,0,0,-1,1126,1310,0,0
-91,-286,0,0,0,0,0,0,0,0,0,-1,1133,1310,0,0
-84,-286,0,0,0,0,0,0,0,0,0,-1,1140,1310,0,0
-77,-286,0,0,0,0,0,0,0,0,0,-1,1147,1310,0,0
-70,-286,0,0,0,0,0,0,0,0,0,-1,1154,1310,0,0
-63,-286,0,0,0,0,0,0,0,0,0,-1,1161,1310,0,0
-56,-286,0,0,0,0,0,0,0,0,0,-1,1168,1310,0,0
-49,-286,0,0,0,0,0,0,0,0,0,-1,1175,1310,0,0
-42,-286,0,0,0,0,0,0,0,0,0,-1,1182,1310,0,0
-35,-286,0,0,0,0,0,0,0,0,0,-1,1189,1310,0,0
-28,-286,0,0,0,0,0,0,0,0,0,-1,1196,1310,0,0
-21,-286,0,0,0,0,0,0,0,0,0,-1,1203,1310,0,0
-14,-286,0,0,0,0,0,0,0,0,0,-1,1210,1310,0,0
-7,-286,0,0,0,0,0,0,0,0,0,-1,1217,1310,0,0
0,-286,0,0,0,0,0,0,0,0,0,-1,1224,1310,0,0
7,-286,0,0,0,0,0,0,0,0,0,-1,1231,1310,0,0
14,-286,0,0,0,0,0,0,0,0,0,-1,1238,1310,0,0
21,-286,0,0,0,0,0,0,0,0,0,-1,1245,1310,0,0
28,-286,0,0,0,0,0,0,0,0,0,-1,1252,1310,0,0
35,-286,0,0,0,0,0,0,0,0,0,-1,1259,1310,0,0
42,-286,0,0,0,0,0,0,0,0,0,-1,1266,1310,0,0
49,-286,0,0,0,0,0,0,0,0,0,-1,1273,1310,0,0
56,-286,0,0,0,0,0,0,0,0,0,-1,1280,1310,0,0
63,-286,0,0,0,0,0,0,0,0,0,-1,1287,1310,0,0
70,-286,0,0,0,0,0,0,0,0,0,-1,1294,1310,0,0
77,-286,0,0,0,0,0,0,0,0,0,-1,1301,1310,0,0
84,-286,0,0,0,0,0,0,0,0,0,-1,1308,1310,0,0
91,-286,0,0,0,0,0,0,0,0,0,-1,1315,1310,0,0
98,-286,0,0,0,0,0,0,0,0,0,-1,1322,1310,0,0
105,-286,0,0,0,0,0,0,0,0,0,-1,1329,1310,0,0
112,-286,0,0,0,0,0,0,0,0,0,-1,1336,1310,0,0
119,-286,0,0,0,0,0,0,0,0,0,-1,1343,1310,0,0
126,-286,0,0,0,0,0,0,0,0,0,-1,1350,1310,0,0
133,-286,0,0,0,0,0,0,0,0,0,-1,1357,1310,0,0
140,-286,0,0,0,0,0,0,0,0,0,-1,1364,1310,0,0
147,-286,0,0,0,0,0,0,0,0,0,-1,1371,1310,0,0
154,-286,0,0,0,0,0,0,0,0,0,-1,1378,1310,0,0
161,-286,0,0,0,0,0,0,0,0,0,-1,1385,1310,0,0
168,-286,0,0,0,0,0,0,0,0,0,-1,1392,1310,0,0
175,-286,0,0,0,0,0,0,0,0,0,-1,1399,1310,0,0
182,-286,0,0,0,0,0,0,0,0,0,-1,1406,1310,0,0
189,-286,0,0,0,0,0,0,0,0,0,-1,1413,1310,0,0
196,-286,0,0,0,0,0,0,0,0,0,-1,1420,1310,0,0
203,-286,0,0,0,0,0,0,0,0,0,-1,1427,1310,0,0
210,-286,0,0,0,0,0,0,0,0,0,-1,1434,1310,0,0
217,-286,0,0,0,0,0,0,0,0,0,-1,1441,1310,0,0
224,-286,0,0,0,0,0,0,0,0,0,-1,1448,1310,0,0
231,-286,0,0,0,0,0,0,0,0,0,-1,1455,1310,0,0
238,-286,0,0,0,0,0,0,0,0,0,-1,1462,1310,0,0
245,-286,0,0,0,0,0,0,0,0,0,-1,1469,1310,0,0
252,-286,0,0,0,0,0,0,0,0,0,-1,1476,1310,0,0
259,-286,0,0,0,0,0,0,0,0,0,-1,1483,1310,0,0
266,-286,0,0,0,0,0,0,0,0,0,-1,1490,1310,0,0
273,-286,0,0,0,0,0,0,0,0,0,-1,1497,1310,0,0
280,-286,0,0,0,0,0,0,0,0,0,-1,1504,1310,0,0
287,-286,0,0,0,0,0,0,0,0,0,-1,1511,1310,0,0
294,-286,0,0,0,0,0,0,0,0,0,-1,1518,1310,0,0
301,-286,0,0,0,0,0,0,0,0,0,-1,1525,1310,0,0
308,-286,0,0,0,0,0,0,0,0,0,-1,1532,1310,0,0
315,-286,0,0,0,0,0,0,0,0,0,-1,1539,1310,0,0
322,-286,0,0,0,0,0,0,0,0,0,-1,1546,1310,0,0
329,-286,0,0,0,0,0,0,0,0,0,-1,1553,1310,0,0
336,-286,0,0,0,0,0,0,0,0,0,-1,1560,1310,0,0
343,-286,0,0,0,0,0,0,0,0,0,-1,1567,1310,0,0
350,-286,0,0,0,0,0,0,0,0,0,-1,1574,1310,0,0
357,-286,0,0,0,0,0,0,0,0,0,-1,1581,1310,0,0
364,-286,0,0,0,0,0,0,0,0,0,-1,1588,1310,0,0
371,-286,0,0,0,0,0,0,0,0,0,-1,1595,1310,0,0
378,-286,0,0,0,0,0,0,0,0,0,-1,1602,1310,0,0
385,-286,0,0,0,0,0,0,0,0,0,-1,1609,1310,0,0
392,-286,0,0,0,0,0,0,0,0,0,-1,1616,1310,0,0
399,-286,0,0,0,0,0,0,0,0,0,-1,1623,1310,0,0
406,-286,0,0,0,0,0,0,0,0,0,-1,1630,1310,0,0
413,-286,0,0,0,0,0,0,0,0,0,-1,1637,1310,0,0
420,-286,0,0,0,0,0,0,0,0,0,-1,1644,1310,0,0
427,-286,0,0,0,0,0,0,0,0,0,-1,1651,1310,0,0
434,-286,0,0,0,0,0,0,0,0,0,-1,1658,1310,0,0
441,-286,0,0,0,0,0,0,0,0,0,-1,1665,1310,0,0
448,-286,0,0,0,0,0,0,0,0,0,-1,1672,1310,0,0
455,-286,0,0,0,0,0,0,0,0,0,-1,1679,1310,0,0
462,-286,0,0,0,0,0,0,0,0,0,-1,1686,1310,0,0
469,-286,0,0,0,0,0,0,0,0,0,-1,1693,1310,0,0
476,-286,0,0,0,0,0,0,0,0,0,-1,1700,1310,0,0
483,-286,0,0,0,0,0,0,0,0,0,-1,1707,1310,0,0
490,-286,0,0,0,0,0,0,0,0,0,-1,1714,1310,0,0
497,-286,0,0,0,0,0,0,0,0,0,-1,1721,1310,0,0
504,-286,0,0,0,0,0,0,0,0,0,-1,1728,1310,0,0
511,-286,0,0,0,0,0,0,0,0,0,-1,1735,1310,0,0
518,-286,0,0,0,0,0,0,0,0,0,-1,1742,1310,0,0
525,-286,0,0,0,0,0,0,0,0,0,-1,1749,1310,0,0
532,-286,0,0,0,0,0,0,0,0,0,-1,1756,1310,0,0
539,-286,0,0,0,0,0,0,0,0,0,-1,1763,1310,0,0
546,-286,0,0,0,0,0,0,0,0,0,-1,1770,1310,0,0
553,-286,0,0,0,0,0,0,0,0,0,-1,1777,1310,0,0
560,-286,0,0,0,0,0,0,0,0,0,-1,1784,1310,0,0
567,-286,0,0,0,0,0,0,0,0,0,-1,1791,1310,0,0
574,-286,0,0,0,0,0,0,0,0,0,-1,1798,1310,0,0
581,-286,0,0,0,0,0,0,0,0,0,-1,1805,1310,0,0
588,-286,0,0,0,0,0,0,0,0,0,-1,1812,1310,0,0
595,-286,85.6449,2.23169,0,0,0,0,0,0,0,-1,1819,1310,85.6449,-2.23175
602,-286,124.014,3.47412,0,0,0,0,0,0,0,-1,1826,1310,124.014,-3.4741
609,-286,92.1185,1.80212,0,0,0,0,0,0,0,-1,1833,1310,92.1185,-1.80215
616,-286,99.723,2.9939,0,0,0,0,0,0,0,-1,1840,1310,99.7231,-2.99387
623,-286,91.3973,1.46118,0,0,0,0,0,0,0,-1,1847,1310,91.3974,-1.46122
630,-286,73.3732,1.46594,0,0,0,0,0,0,0,-1,1854,1310,73.3731,-1.46595
637,-286,47.8409,3.69824,0,0,0,0,0,0,0,-1,1861,1310,47.841,-3.69823
644,-286,25.6433,1.33862,0,0,0,0,0,0,0,-1,1868,1310,25.6433,-1.33858
651,-286,25.2507,1.88245,0,0,0,0,0,0,0,-1,1875,1310,25.2508,-1.88245
658,-286,25.9475,9.43689,0,0,0,0,0,0,0,-1,1882,1310,25.9475,-9.43693
665,-286,24.9838,8.03101,0,0,0,0,0,0,0,-1,1889,1310,24.9837,-8.03104
672,-286,40.2175,12.9626,0,0,0,0,0,0,0,-1,1896,1310,40.2175,-12.9627
679,-286,95.2627,37.8113,0,0,0,0,0,0,0,-1,1903,1310,95.2627,-37.8113
686,-286,82.3354,29.6196,0,0,0,0,0,0,0,-1,1910,1310,82.3354,-29.6197
693,-286,105.44,37.8418,0,0,0,0,0,0,0,-1,1917,1310,105.44,-37.8419
700,-286,121.667,39.3915,0,0,0,0,0,0,0,-1,1924,1310,121.667,-39.3915
707,-286,121.12,36.828,-0.00382439,0.00265826,0.00417496,0.00470243,-0.00586856,1.11548,0.00611553,0.0174683,1931,1310,121.12,-36.828
714,-286,120.786,34.7853,-0.00723852,0.00651937,0.00937171,0.0112658,-0.0119849,1.10199,0.0134259,0.0133455,1938,1310,120.786,-34.7852
721,-286,120.476,32.8059,-0.0111077,0.0103622,0.0149138,0.0180028,-0.0187482,1.09734,0.0212197,0.017932,1945,1310,120.476,-32.8059
728,-286,120.082,30.9059,-0.0153984,0.0142055,0.0208081,0.0249393,-0.0261322,1.09455,0.0294888,0.0243867,1952,1310,120.082,-30.9058
735,-286,119.823,29.0522,0,0,0,0,0,0,0,-1,1959,1310,119.823,-29.0522
742,-286,119.69,27.0513,0,0,0,0,0,0,0,-1,1966,1310,119.69,-27.0512
749,-286,102.236,22.6971,0,0,0,0,0,0,0,-1,1973,1310,102.236,-22.6971
756,-286,24.8226,4.43481,0,0,0,0,0,0,0,-1,1980,1310,24.8227,-4.43479
763,-286,20.6671,3.99683,0,0,0,0,0,0,0,-1,1987,1310,20.6671,-3.99683
770,-286,23.9147,4.45679,0,0,0,0,0,0,0,-1,1994,1310,23.9146,-4.45675
777,-286,0,0,0,0,0,0,0,0,0,-1,2001,1310,0,0
784,-286,0,0,0,0,0,0,0,0,0,-1,2008,1310,0,0
791,-286,0,0,0,0,0,0,0,0,0,-1,2015,1310,0,0
798,-286,0,0,0,0,0,0,0,0,0,-1,2022,1310,0,0
805,-286,0,0,0,0,0,0,0,0,0,-1,2029,1310,0,0
812,-286,0,0,0,0,0,0,0,0,0,-1,2036,1310,0,0
-700,-293,0,0,0,0,0,0,0,0,0,-1,524,1317,0,0
-693,-293,0,0,0,0,0,0,0,0,0,-1,531,1317,0,0
-686,-293,0,0,0,0,0,0,0,0,0,-1,538,1317,0,0
-679,-293,0,0,0,0,0,0,0,0,0,-1,545,1317,0,0
-672,-293,0,0,0,0,0,0,0,0,0,-1,552,1317,0,0
-665,-293,0,0,0,0,0,0,0,0,0,-1,559,1317,0,0
-658,-293,0,0,0,0,0,0,0,0,0,-1,566,1317,0,0
-651,-293,-42.6636,2.1897,0,0,0,0,0,0,0,-1,573,1317,-42.6636,-2.18965
-644,-293,-42.6672,1.56262,0,0,0,0,0,0,0,-1,580,1317,-42.6672,-1.5626
-637,-293,-42.7898,0.963745,0,0,0,0,0,0,0,-1,587,1317,-42.7898,-0.963689
-630,-293,-42.7558,0.296021,0,0,0,0,0,0,0,-1,594,1317,-42.7558,-0.295997
-623,-293,-15.6058,0.229614,0,0,0,0,0,0,0,-1,601,1317,-15.6058,-0.229666
-616,-293,-15.5056,2.17737,0,0,0,0,0,0,0,-1,608,1317,-15.5055,-2.17742
-609,-293,-25.3796,5.07373,0,0,0,0,0,0,0,-1,615,1317,-25.3796,-5.07369
-602,-293,-111.738,28.8267,0,0,0,0,0,0,0,-1,622,1317,-111.738,-28.8267
-595,-293,-112.103,31.1211,-0.00820956,0.0222258,-0.00955657,0.0249777,-0.0109615,-1.29042,0.021269,0.0380469,629,1317,-112.103,-31.1211
-588,-293,-112.451,32.9916,-0.00329964,0.0160311,-0.0077799,0.0187732,-0.00604178,-1.23193,0.0149423,0.0259711,636,1317,-112.451,-32.9916
-581,-293,-112.658,34.8762,0.00187142,0.0100773,-0.0056385,0.0129477,-0.000998929,-1.09993,0.00898329,0.0261968,643,1317,-112.658,-34.8762
-574,-293,-112.919,36.8802,0.00720787,0.00436239,-0.00323856,0.00932243,0.00224783,-0.578433,0.00561764,0.0250276,650,1317,-112.919,-36.8802
-567,-293,-113.157,38.8618,0,0,0,0,0,0,0,-1,657,1317,-113.157,-38.8618
-560,-293,-114.081,40.8411,0,0,0,0,0,0,0,-1,664,1317,-114.081,-40.8411
-553,-293,-114.064,43.1594,0,0,0,0,0,0,0,-1,671,1317,-114.064,-43.1595
-546,-293,-114.046,45.4778,0,0,0,0,0,0,0,-1,678,1317,-114.046,-45.4778
-539,-293,-75.0351,37.2535,0,0,0,0,0,0,0,-1,685,1317,-75.0351,-37.2536
-532,-293,-27.4858,13.6715,0,0,0,0,0,0,0,-1,692,1317,-27.4858,-13.6715
-525,-293,-8.20642,3.62256,0,0,0,0,0,0,0,-1,699,1317,-8.20639,-3.6226
-518,-293,-10.1053,0.314209,0,0,0,0,0,0,0,-1,706,1317,-10.1053,-0.314234
-511,-293,-11.6276,0.235352,0,0,0,0,0,0,0,-1,713,1317,-11.6276,-0.235372
-504,-293,-17.9086,1.25427,0,0,0,0,0,0,0,-1,720,1317,-17.9086,-1.25423
-497,-293,-18.8006,1.62122,0,0,0,0,0,0,0,-1,727,1317,-18.8006,-1.62119
-490,-293,-18.8961,1.99255,0,0,0,0,0,0,0,-1,734,1317,-18.8961,-1.99251
-483,-293,-19.0831,2.35498,0,0,0,0,0,0,0,-1,741,1317,-19.0831,-2.35497
-476,-293,-19.5228,2.61243,0,0,0,0,0,0,0,-1,748,1317,-19.5228,-2.61237
-469,-293,0,0,0,0,0,0,0,0,0,-1,755,1317,0,0
-462,-293,0,0,0,0,0,0,0,0,0,-1,762,1317,0,0
-455,-293,0,0,0,0,0,0,0,0,0,-1,769,1317,0,0
-448,-293,0,0,0,0,0,0,0,0,0,-1,776,1317,0,0
-441,-293,0,0,0,0,0,0,0,0,0,-1,783,1317,0,0
-434,-293,0,0,0,0,0,0,0,0,0,-1,790,1317,0,0
-427,-293,0,0,0,0,0,0,0,0,0,-1,797,1317,0,0
-420,-293,0,0,0,0,0,0,0,0,0,-1,804,1317,0,0
-413,-293,0,0,0,0,0,0,0,0,0,-1,811,1317,0,0
-406,-293,0,0,0,0,0,0,0,0,0,-1,818,1317,0,0
-399,-293,0,0,0,0,0,0,0,0,0,-1,825,1317,0,0
-392,-293,0,0,0,0,0,0,0,0,0,-1,832,1317,0,0
-385,-293,0,0,0,0,0,0,0,0,0,-1,839,1317,0,0
-378,-293,0,0,0,0,0,0,0,0,0,-1,846,1317,0,0
-371,-293,0,0,0,0,0,0,0,0,0,-1,853,1317,0,0
-364,-293,0,0,0,0,0,0,0,0,0,-1,860,1317,0,0
-357,-293,0,0,0,0,0,0,0,0,0,-1,867,1317,0,0
-350,-293,0,0,0,0,0,0,0,0,0,-1,874,1317,0,0
-343,-293,0,0,0,0,0,0,0,0,0,-1,881,1317,0,0
-336,-293,0,0,0,0,0,0,0,0,0,-1,888,1317,0,0
-329,-293,0,0,0,0,0,0,0,0,0,-1,895,1317,0,0
-322,-293,0,0,0,0,0,0,0,0,0,-1,902,1317,0,0
-315,-293,0,0,0,0,0,0,0,0,0,-1,909,1317,0,0
-308,-293,0,0,0,0,0,0,0,0,0,-1,916,1317,0,0
-301,-293,0,0,0,0,0,0,0,0,0,-1,923,1317,0,0
-294,-293,0,0,0,0,0,0,0,0,0,-1,930,1317,0,0
-287,-293,0,0,0,0,0,0,0,0,0,-1,937,1317,0,0
-280,-293,0,0,0,0,0,0,0,0,0,-1,944,1317,0,0
-273,-293,0,0,0,0,0,0,0,0,0,-1,951,1317,0,0
-266,-293,0,0,0,0,0,0,0,0,0,-1,958,1317,0,0
-259,-293,0,0,0,0,0,0,0,0,0,-1,965,1317,0,0
-252,-293,0,0,0,0,0,0,0,0,0,-1,972,1317,0,0
-245,-293,0,0,0,0,0,0,0,0,0,-1,979,1317,0,0
-238,-293,0,0,0,0,0,0,0,0,0,-1,986,1317,0,0
-231,-293,0,0,0,0,0,0,0,0,0,-1,993,1317,0,0
-224,-293,0,0,0,0,0,0,0,0,0,-1,1000,1317,0,0
-217,-293,0,0,0,0,0,0,0,0,0,-1,1007,1317,0,0
-210,-293,0,0,0,0,0,0,0,0,0,-1,1014,1317,0,0
-203,-293,0,0,0,0,0,0,0,0,0,-1,1021,1317,0,0
-196,-293,0,0,0,0,0,0,0,0,0,-1,1028,1317,0,0
-189,-293,0,0,0,0,0,0,0,0,0,-1,1035,1317,0,0
-182,-293,0,0,0,0,0,0,0,0,0,-1,1042,1317,0,0
-175,-293,0,0,0,0,0,0,0,0,0,-1,1049,1317,0,0
-168,-293,0,0,0,0,0,0,0,0,0,-1,1056,1317,0,0
-161,-293,0,0,0,0,0,0,0,0,0,-1,1063,1317,0,0
-154,-293,0,0,0,0,0,0,0,0,0,-1,1070,1317,0,0
-147,-293,0,0,0,0,0,0,0,0,0,-1,1077,1317,0,0
-140,-293,0,0,0,0,0,0,0,0,0,-1,1084,1317,0,0
-133,-293,0,0,0,0,0,0,0,0,0,-1,1091,1317,0,0
-126,-293,0,0,0,0,0,0,0,0,0,-1,1098,1317,0,0
-119,-293,0,0,0,0,0,0,0,0,0,-1,1105,1317,0,0
-112,-293,0,0,0,0,0,0,0,0,0,-1,1112,1317,0,0
-105,-293,0,0,0,0,0,0,0,0,0,-1,1119,1317,0,0
-98,-293,0,0,0,0,0,0,0,0,0,-1,1126,1317,0,0
-91,-293,0,0,0,0,0,0,0,0,0,-1,1133,1317,0,0
-84,-293,0,0,0,0,0,0,0,0,0,-1,1140,1317,0,0
-77,-293,0,0,0,0,0,0,0,0,0,-1,1147,1317,0,0
-70,-293,0,0,0,0,0,0,0,0,0,-1,1154,1317,0,0
-63,-293,0,0,0,0,0,0,0,0,0,-1,1161,1317,0,0
-56,-293,0,0,0,0,0,0,0,0,0,-1,1168,1317,0,0
-49,-293,0,0,0,0,0,0,0,0,0,-1,1175,1317,0,0
-42,-293,0,0,0,0,0,0,0,0,0,-1,1182,1317,0,0
-35,-293,0,0,0,0,0,0,0,0,0,-1,1189,1317,0,0
-28,-293,0,0,0,0,0,0,0,0,0,-1,1196,1317,0,0
-21,-293,0,0,0,0,0,0,0,0,0,-1,1203,1317,0,0
-14,-293,0,0,0,0,0,0,0,0,0,-1,1210,1317,0,0
-7,-293,0,0,0,0,0,0,0,0,0,-1,1217,1317,0,0
0,-293,0,0,0,0,0,0,0,0,0,-1,1224,1317,0,0
7,-293,0,0,0,0,0,0,0,0,0,-1,1231,1317,0,0
14,-293,0,0,0,0,0,0,0,0,0,-1,1238,1317,0,0
21,-293,0,0,0,0,0,0,0,0,0,-1,1245,1317,0,0
28,-293,0,0,0,0,0,0,0,0,0,-1,1252,1317,0,0
35,-293,0,0,0,0,0,0,0,0,0,-1,1259,1317,0,0
42,-293,0,0,0,0,0,0,0,0,0,-1,1266,1317,0,0
49,-293,0,0,0,0,0,0,0,0,0,-1,1273,1317,0,0
56,-293,0,0,0,0,0,0,0,0,0,-1,1280,1317,0,0
63,-293,0,0,0,0,0,0,0,0,0,-1,1287,1317,0,0
70,-293,0,0,0,0,0,0,0,0,0,-1,1294,1317,0,0
77,-293,0,0,0,0,0,0,0,0,0,-1,1301,1317,0,0
84,-293,0,0,0,0,0,0,0,0,0,-1,1308,1317,0,0
91,-293,0,0,0,0,0,0,0,0,0,-1,1315,1317,0,0
98,-293,0,0,0,0,0,0,0,0,0,-1,1322,1317,0,0
105,-293,0,0,0,0,0,0,0,0,0,-1,1329,1317,0,0
112,-293,0,0,0,0,0,0,0,0,0,-1,1336,1317,0,0
119,-293,0,0,0,0,0,0,0,0,0,-1,1343,1317,0,0
126,-293,0,0,0,0,0,0,0,0,0,-1,1350,1317,0,0
133,-293,0,0,0,0,0,0,0,0,0,-1,1357,1317,0,0
140,-293,0,0,0,0,0,0,0,0,0,-1,1364,1317,0,0
147,-293,0,0,0,0,0,0,0,0,0,-1,1371,1317,0,0
154,-293,0,0,0,0,0,0,0,0,0,-1,1378,1317,0,0
161,-293,0,0,0,0,0,0,0,0,0,-1,1385,1317,0,0
168,-293,0,0,0,0,0,0,0,0,0,-1,1392,1317,0,0
175,-293,0,0,0,0,0,0,0,0,0,-1,1399,1317,0,0
182,-293,0,0,0,0,0,0,0,0,0,-1,1406,1317,0,0
189,-293,0,0,0,0,0,0,0,0,0,-1,1413,1317,0,0
196,-293,0,0,0,0,0,0,0,0,0,-1,1420,1317,0,0
203,-293,0,0,0,0,0,0,0,0,0,-1,1427,1317,0,0
210,-293,0,0,0,0,0,0,0,0,0,-1,1434,1317,0,0
217,-293,0,0,0,0,0,0,0,0,0,-1,1441,1317,0,0
224,-293,0,0,0,0,0,0,0,0,0,-1,1448,1317,0,0
231,-293,0,0,0,0,0,0,0,0,0,-1,1455,1317,0,0
238,-293,0,0,0,0,0,0,0,0,0,-1,1462,1317,0,0
245,-293,0,0,0,0,0,0,0,0,0,-1,1469,1317,0,0
252,-293,0,0,0,0,0,0,0,0,0,-1,1476,1317,0,0
259,-293,0,0,0,0,0,0,0,0,0,-1,1483,1317,0,0
266,-293,0,0,0,0,0,0,0,0,0,-1,1490,1317,0,0
273,-293,0,0,0,0,0,0,0,0,0,-1,1497,1317,0,0
280,-293,0,0,0,0,0,0,0,0,0,-1,1504,1317,0,0
287,-293,0,0,0,0,0,0,0,0,0,-1,1511,1317,0,0
294,-293,0,0,0,0,0,0,0,0,0,-1,1518,1317,0,0
301,-293,0,0,0,0,0,0,0,0,0,-1,1525,1317,0,0
308,-293,0,0,0,0,0,0,0,0,0,-1,1532,1317,0,0
315,-293,0,0,0,0,0,0,0,0,0,-1,1539,1317,0,0
322,-293,0,0,0,0,0,0,0,0,0,-1,1546,1317,0,0
329,-293,0,0,0,0,0,0,0,0,0,-1,1553,1317,0,0
336,-293,0,0,0,0,0,0,0,0,0,-1,1560,1317,0,0
343,-293,0,0,0,0,0,0,0,0,0,-1,1567,1317,0,0
350,-293,0,0,0,0,0,0,0,0,0,-1,1574,1317,0,0
357,-293,0,0,0,0,0,0,0,0,0,-1,1581,1317,0,0
364,-293,0,0,0,0,0,0,0,0,0,-1,1588,1317,0,0
371,-293,0,0,0,0,0,0,0,0,0,-1,1595,1317,0,0
378,-293,0,0,0,0,0,0,0,0,0,-1,1602,1317,0,0
385,-293,0,0,0,0,0,0,0,0,0,-1,1609,1317,0,0
392,-293,0,0,0,0,0,0,0,0,0,-1,1616,1317,0,0
399,-293,0,0,0,0,0,0,0,0,0,-1,1623,1317,0,0
406,-293,0,0,0,0,0,0,0,0,0,-1,1630,1317,0,0
413,-293,0,0,0,0,0,0,0,0,0,-1,1637,1317,0,0
420,-293,0,0,0,0,0,0,0,0,0,-1,1644,1317,0,0
427,-293,0,0,0,0,0,0,0,0,0,-1,1651,1317,0,0
434,-293,0,0,0,0,0,0,0,0,0,-1,1658,1317,0,0
441,-293,0,0,0,0,0,0,0,0,0,-1,1665,1317,0,0
448,-293,0,0,0,0,0,0,0,0,0,-1,1672,1317,0,0
455,-293,0,0,0,0,0,0,0,0,0,-1,1679,1317,0,0
462,-293,0,0,0,0,0,0,0,0,0,-1,1686,1317,0,0
469,-293,0,0,0,0,0,0,0,0,0,-1,1693,1317,0,0
476,-293,0,0,0,0,0,0,0,0,0,-1,1700,1317,0,0
483,-293,0,0,0,0,0,0,0,0,0,-1,1707,1317,0,0
490,-293,0,0,0,0,0,0,0,0,0,-1,1714,1317,0,0
497,-293,0,0,0,0,0,0,0,0,0,-1,1721,1317,0,0
504,-293,0,0,0,0,0,0,0,0,0,-1,1728,1317,0,0
511,-293,0,0,0,0,0,0,0,0,0,-1,1735,1317,0,0
518,-293,0,0,0,0,0,0,0,0,0,-1,1742,1317,0,0
525,-293,0,0,0,0,0,0,0,0,0,-1,1749,1317,0,0
532,-293,0,0,0,0,0,0,0,0,0,-1,1756,1317,0,0
539,-293,0,0,0,0,0,0,0,0,0,-1,1763,1317,0,0
546,-293,0,0,0,0,0,0,0,0,0,-1,1770,1317,0,0
553,-293,0,0,0,0,0,0,0,0,0,-1,1777,1317,0,0
560,-293,0,0,0,0,0,0,0,0,0,-1,1784,1317,0,0
567,-293,0,0,0,0,0,0,0,0,0,-1,1791,1317,0,0
574,-293,0,0,0,0,0,0,0,0,0,-1,1798,1317,0,0
581,-293,0,0,0,0,0,0,0,0,0,-1,1805,1317,0,0
588,-293,0,0,0,0,0,0,0,0,0,-1,1812,1317,0,0
595,-293,85.9399,2.10144,0,0,0,0,0,0,0,-1,1819,1317,85.94,-2.1015
602,-293,85.9573,1.71106,0,0,0,0,0,0,0,-1,1826,1317,85.9573,-1.71108
609,-293,86.5338,0.772461,0,0,0,0,0,0,0,-1,1833,1317,86.5338,-0.772455
616,-293,91.9178,1.40967,0,0,0,0,0,0,0,-1,1840,1317,91.9178,-1.40968
623,-293,64.6224,0.448364,0,0,0,0,0,0,0,-1,1847,1317,64.6224,-0.448318
630,-293,46.6716,3.21558,0,0,0,0,0,0,0,-1,1854,1317,46.6716,-3.2156
637,-293,42.7729,4.95544,0,0,0,0,0,0,0,-1,1861,1317,42.773,-4.95546
644,-293,24.4565,0.520752,0,0,0,0,0,0,0,-1,1868,1317,24.4566,-0.520709
651,-293,25.8926,9.51245,0,0,0,0,0,0,0,-1,1875,1317,25.8926,-9.51246
658,-293,25.4904,9.10205,0,0,0,0,0,0,0,-1,1882,1317,25.4904,-9.10209
665,-293,39.7999,13.4221,0,0,0,0,0,0,0,-1,1889,1317,39.8,-13.4221
672,-293,93.4913,39.5636,0,0,0,0,0,0,0,-1,1896,1317,93.4913,-39.5636
679,-293,104.875,42.3218,0,0,0,0,0,0,0,-1,1903,1317,104.875,-42.3218
686,-293,94.0323,36.5354,0,0,0,0,0,0,0,-1,1910,1317,94.0324,-36.5354
693,-293,119.603,41.7231,0,0,0,0,0,0,0,-1,1917,1317,119.603,-41.7232
700,-293,119.305,39.4645,-0.00118156,-0.000323036,0.00132849,0.000643821,-0.00214841,0.941663,0.00168831,0.0319331,1924,1317,119.305,-39.4645
707,-293,118.943,37.1379,-0.00395529,0.0032999,0.00586711,0.00657031,-0.0072257,1.06228,0.00796813,0.0176614,1931,1317,118.943,-37.1379
714,-293,118.61,35.1069,-0.00722262,0.00691457,0.0107922,0.012747,-0.013055,1.07533,0.0148972,0.0107556,1938,1317,118.61,-35.1069
721,-293,118.292,33.0743,-0.0109579,0.0105625,0.0160969,0.0191644,-0.0195598,1.08002,0.0223579,0.013398,1945,1317,118.291,-33.0744
728,-293,117.809,31.1995,-0.0151064,0.0143199,0.0217939,0.0259022,-0.0266888,1.08231,0.0303646,0.031719,1952,1317,117.809,-31.1994
735,-293,117.322,29.5322,0,0,0,0,0,0,0,-1,1959,1317,117.322,-29.5322
742,-293,105.342,25.7426,0,0,0,0,0,0,0,-1,1966,1317,105.342,-25.7425
749,-293,74.3734,16.1273,0,0,0,0,0,0,0,-1,1973,1317,74.3734,-16.1274
756,-293,24.978,3.9718,0,0,0,0,0,0,0,-1,1980,1317,24.978,-3.97186
763,-293,26.6713,4.74097,0,0,0,0,0,0,0,-1,1987,1317,26.6713,-4.74098
770,-293,24.1349,4.69153,0,0,0,0,0,0,0,-1,1994,1317,24.1348,-4.69159
777,-293,0,0,0,0,0,0,0,0,0,-1,2001,1317,0,0
784,-293,0,0,0,0,0,0,0,0,0,-1,2008,1317,0,0
791,-293,0,0,0,0,0,0,0,0,0,-1,2015,1317,0,0
798,-293,0,0,0,0,0,0,0,0,0,-1,2022,1317,0,0
805,-293,0,0,0,0,0,0,0,0,0,-1,2029,1317,0,0
812,-293,0,0,0,0,0,0,0,0,0,-1,2036,1317,0,0
-700,-300,0,0,0,0,0,0,0,0,0,-1,524,1324,0,0
-693,-300,0,0,0,0,0,0,0,0,0,-1,531,1324,0,0
-686,-300,0,0,0,0,0,0,0,0,0,-1,538,1324,0,0
-679,-300,0,0,0,0,0,0,0,0,0,-1,545,1324,0,0
-672,-300,0,0,0,0,0,0,0,0,0,-1,552,1324,0,0
-665,-300,0,0,0,0,0,0,0,0,0,-1,559,1324,0,0
-658,-300,0,0,0,0,0,0,0,0,0,-1,566,1324,0,0
-651,-300,-41.7632,2.33789,0,0,0,0,0,0,0,-1,573,1324,-41.7632,-2.33789
-644,-300,-42.3084,1.3728,0,0,0,0,0,0,0,-1,580,1324,-42.3084,-1.37282
-637,-300,-42.6259,0.807251,0,0,0,0,0,0,0,-1,587,1324,-42.6259,-0.807209
-630,-300,-21.1108,2.26306,0,0,0,0,0,0,0,-1,594,1324,-21.1109,-2.2631
-623,-300,-12.7067,1.48462,0,0,0,0,0,0,0,-1,601,1324,-12.7067,-1.48462
-616,-300,-14.9988,1.68628,0,0,0,0,0,0,0,-1,608,1324,-14.9988,-1.68627
-609,-300,-15.5027,3.29907,0,0,0,0,0,0,0,-1,615,1324,-15.5027,-3.29902
-602,-300,-42.3108,13.1433,0,0,0,0,0,0,0,-1,622,1324,-42.3108,-13.1433
-595,-300,-110.006,31.2375,0,0,0,0,0,0,0,-1,629,1324,-110.006,-31.2375
-588,-300,-110.171,33.1796,-0.00326531,0.017791,-0.00804346,0.020512,-0.00598628,-1.2446,0.0160467,0.0246989,636,1324,-110.171,-33.1796
-581,-300,-110.523,35.1338,0.00205547,0.0118472,-0.00625074,0.0148912,-0.000988511,-1.11762,0.0102728,0.0245298,643,1324,-110.523,-35.1337
-574,-300,-110.812,37.1732,0.00734765,0.00621684,-0.00433323,0.0111522,0.00241228,-0.720524,0.0067754,0.0212947,650,1324,-110.812,-37.1732
-567,-300,-111.011,39.2416,0,0,0,0,0,0,0,-1,657,1324,-111.011,-39.2415
-560,-300,-111.992,41.2605,0,0,0,0,0,0,0,-1,664,1324,-111.992,-41.2605
-553,-300,-112.012,43.4386,0,0,0,0,0,0,0,-1,671,1324,-112.012,-43.4386
-546,-300,-112.024,45.809,0,0,0,0,0,0,0,-1,678,1324,-112.024,-45.8089
-539,-300,-84.1171,42.1063,0,0,0,0,0,0,0,-1,685,1324,-84.1171,-42.1063
-532,-300,-63.239,34.0382,0,0,0,0,0,0,0,-1,692,1324,-63.239,-34.0382
-525,-300,-13.5115,6.27783,0,0,0,0,0,0,0,-1,699,1324,-13.5115,-6.2778
-518,-300,-9.8349,-0.537109,0,0,0,0,0,0,0,-1,706,1324,-9.83487,0.537068
-511,-300,-12.8644,0.081665,0,0,0,0,0,0,0,-1,713,1324,-12.8644,-0.0817016
-504,-300,-13.4829,-0.165527,0,0,0,0,0,0,0,-1,720,1324,-13.4829,0.165544
-497,-300,-18.1063,0.956543,0,0,0,0,0,0,0,-1,727,1324,-18.1063,-0.9565
-490,-300,-18.2293,1.53625,0,0,0,0,0,0,0,-1,734,1324,-18.2293,-1.53626
-483,-300,-18.3522,1.61084,0,0,0,0,0,0,0,-1,741,1324,-18.3522,-1.6108
-476,-300,-18.7489,1.96387,0,0,0,0,0,0,0,-1,748,1324,-18.7489,-1.96387
-469,-300,0,0,0,0,0,0,0,0,0,-1,755,1324,0,0
-462,-300,0,0,0,0,0,0,0,0,0,-1,762,1324,0,0
-455,-300,0,0,0,0,0,0,0,0,0,-1,769,1324,0,0
-448,-300,0,0,0,0,0,0,0,0,0,-1,776,1324,0,0
-441,-300,0,0,0,0,0,0,0,0,0,-1,783,1324,0,0
-434,-300,0,0,0,0,0,0,0,0,0,-1,790,1324,0,0
-427,-300,0,0,0,0,0,0,0,0,0,-1,797,1324,0,0
-420,-300,0,0,0,0,0,0,0,0,0,-1,804,1324,0,0
-413,-300,0,0,0,0,0,0,0,0,0,-1,811,1324,0,0
-406,-300,0,0,0,0,0,0,0,0,0,-1,818,1324,0,0
-399,-300,0,0,0,0,0,0,0,0,0,-1,825,1324,0,0
-392,-300,0,0,0,0,0,0,0,0,0,-1,832,1324,0,0
-385,-300,0,0,0,0,0,0,0,0,0,-1,839,1324,0,0
-378,-300,0,0,0,0,0,0,0,0,0,-1,846,1324,0,0
-371,-300,0,0,0,0,0,0,0,0,0,-1,853,1324,0,0
-364,-300,0,0,0,0,0,0,0,0,0,-1,860,1324,0,0
-357,-300,0,0,0,0,0,0,0,0,0,-1,867,1324,0,0
-350,-300,0,0,0,0,0,0,0,0,0,-1,874,1324,0,0
-343,-300,0,0,0,0,0,0,0,0,0,-1,881,1324,0,0
-336,-300,0,0,0,0,0,0,0,0,0,-1,888,1324,0,0
-329,-300,0,0,0,0,0,0,0,0,0,-1,895,1324,0,0
-322,-300,0,0,0,0,0,0,0,0,0,-1,902,1324,0,0
-315,-300,0,0,0,0,0,0,0,0,0,-1,909,1324,0,0
-308,-300,0,0,0,0,0,0,0,0,0,-1,916,1324,0,0
-301,-300,0,0,0,0,0,0,0,0,0,-1,923,1324,0,0
-294,-300,0,0,0,0,0,0,0,0,0,-1,930,1324,0,0
-287,-300,0,0,0,0,0,0,0,0,0,-1,937,1324,0,0
-280,-300,0,0,0,0,0,0,0,0,0,-1,944,1324,0,0
-273,-300,0,0,0,0,0,0,0,0,0,-1,951,1324,0,0
-266,-300,0,0,0,0,0,0,0,0,0,-1,958,1324,0,0
-259,-300,0,0,0,0,0,0,0,0,0,-1,965,1324,0,0
-252,-300,0,0,0,0,0,0,0,0,0,-1,972,1324,0,0
-245,-300,0,0,0,0,0,0,0,0,0,-1,979,1324,0,0
-238,-300,0,0,0,0,0,0,0,0,0,-1,986,1324,0,0
-231,-300,0,0,0,0,0,0,0,0,0,-1,993,1324,0,0
-224,-300,0,0,0,0,0,0,0,0,0,-1,1000,1324,0,0
-217,-300,0,0,0,0,0,0,0,0,0,-1,1007,1324,0,0
-210,-300,0,0,0,0,0,0,0,0,0,-1,1014,1324,0,0
-203,-300,0,0,0,0,0,0,0,0,0,-1,1021,1324,0,0
-196,-300,0,0,0,0,0,0,0,0,0,-1,1028,1324,0,0
-189,-300,0,0,0,0,0,0,0,0,0,-1,1035,1324,0,0
-182,-300,0,0,0,0,0,0,0,0,0,-1,1042,1324,0,0
-175,-300,0,0,0,0,0,0,0,0,0,-1,1049,1324,0,0
-168,-300,0,0,0,0,0,0,0,0,0,-1,1056,1324,0,0
-161,-300,0,0,0,0,0,0,0,0,0,-1,1063,1324,0,0
-154,-300,0,0,0,0,0,0,0,0,0,-1,1070,1324,0,0
-147,-300,0,0,0,0,0,0,0,0,0,-1,1077,1324,0,0
-140,-300,0,0,0,0,0,0,0,0,0,-1,1084,1324,0,0
-133,-300,0,0,0,0,0,0,0,0,0,-1,1091,1324,0,0
-126,-300,0,0,0,0,0,0,0,0,0,-1,1098,1324,0,0
-119,-300,0,0,0,0,0,0,0,0,0,-1,1105,1324,0,0
-112,-300,0,0,0,0,0,0,0,0,0,-1,1112,1324,0,0
-105,-300,0,0,0,0,0,0,0,0,0,-1,1119,1324,0,0
-98,-300,0,0,0,0,0,0,0,0,0,-1,1126,1324,0,0
-91,-300,0,0,0,0,0,0,0,0,0,-1,1133,1324,0,0
-84,-300,0,0,0,0,0,0,0,0,0,-1,1140,1324,0,0
-77,-300,0,0,0,0,0,0,0,0,0,-1,1147,1324,0,0
-70,-300,0,0,0,0,0,0,0,0,0,-1,1154,1324,0,0
-63,-300,0,0,0,0,0,0,0,0,0,-1,1161,1324,0,0
-56,-300,0,0,0,0,0,0,0,0,0,-1,1168,1324,0,0
-49,-300,0,0,0,0,0,0,0,0,0,-1,1175,1324,0,0
-42,-300,0,0,0,0,0,0,0,0,0,-1,1182,1324,0,0
-35,-300,0,0,0,0,0,0,0,0,0,-1,1189,1324,0,0
-28,-300,0,0,0,0,0,0,0,0,0,-1,1196,1324,0,0
-21,-300,0,0,0,0,0,0,0,0,0,-1,1203,1324,0,0
-14,-300,0,0,0,0,0,0,0,0,0,-1,1210,1324,0,0
-7,-300,0,0,0,0,0,0,0,0,0,-1,1217,1324,0,0
0,-300,0,0,0,0,0,0,0,0,0,-1,1224,1324,0,0
7,-300,0,0,0,0,0,0,0,0,0,-1,1231,1324,0,0
14,-300,0,0,0,0,0,0,0,0,0,-1,1238,1324,0,0
21,-300,0,0,0,0,0,0,0,0,0,-1,1245,1324,0,0
28,-300,0,0,0,0,0,0,0,0,0,-1,1252,1324,0,0
35,-300,0,0,0,0,0,0,0,0,0,-1,1259,1324,0,0
42,-300,0,0,0,0,0,0,0,0,0,-1,1266,1324,0,0
49,-300,0,0,0,0,0,0,0,0,0,-1,1273,1324,0,0
56,-300,0,0,0,0,0,0,0,0,0,-1,1280,1324,0,0
63,-300,0,0,0,0,0,0,0,0,0,-1,1287,1324,0,0
70,-300,0,0,0,0,0,0,0,0,0,-1,1294,1324,0,0
77,-300,0,0,0,0,0,0,0,0,0,-1,1301,1324,0,0
84,-300,0,0,0,0,0,0,0,0,0,-1,1308,1324,0,0
91,-300,0,0,0,0,0,0,0,0,0,-1,1315,1324,0,0
98,-300,0,0,0,0,0,0,0,0,0,-1,1322,1324,0,0
105,-300,0,0,0,0,0,0,0,0,0,-1,1329,1324,0,0
112,-300,0,0,0,0,0,0,0,0,0,-1,1336,1324,0,0
119,-300,0,0,0,0,0,0,0,0,0,-1,1343,1324,0,0
126,-300,0,0,0,0,0,0,0,0,0,-1,1350,1324,0,0
133,-300,0,0,0,0,0,0,0,0,0,-1,1357,1324,0,0
140,-300,0,0,0,0,0,0,0,0,0,-1,1364,1324,0,0
147,-300,0,0,0,0,0,0,0,0,0,-1,1371,1324,0,0
154,-300,0,0,0,0,0,0,0,0,0,-1,1378,1324,0,0
161,-300,0,0,0,0,0,0,0,0,0,-1,1385,1324,0,0
168,-300,0,0,0,0,0,0,0,0,0,-1,1392,1324,0,0
175,-300,0,0,0,0,0,0,0,0,0,-1,1399,1324,0,0
182,-300,0,0,0,0,0,0,0,0,0,-1,1406,1324,0,0
189,-300,0,0,0,0,0,0,0,0,0,-1,1413,1324,0,0
196,-300,0,0,0,0,0,0,0,0,0,-1,1420,1324,0,0
203,-300,0,0,0,0,0,0,0,0,0,-1,1427,1324,0,0
210,-300,0,0,0,0,0,0,0,0,0,-1,1434,1324,0,0
217,-300,0,0,0,0,0,0,0,0,0,-1,1441,1324,0,0
224,-300,0,0,0,0,0,0,0,0,0,-1,1448,1324,0,0
231,-300,0,0,0,0,0,0,0,0,0,-1,1455,1324,0,0
238,-300,0,0,0,0,0,0,0,0,0,-1,1462,1324,0,0
245,-300,0,0,0,0,0,0,0,0,0,-1,1469,1324,0,0
252,-300,0,0,0,0,0,0,0,0,0,-1,1476,1324,0,0
259,-300,0,0,0,0,0,0,0,0,0,-1,1483,1324,0,0
266,-300,0,0,0,0,0,0,0,0,0,-1,1490,1324,0,0
273,-300,0,0,0,0,0,0,0,0,0,-1,1497,1324,0,0
280,-300,0,0,0,0,0,0,0,0,0,-1,1504,1324,0,0
287,-300,0,0,0,0,0,0,0,0,0,-1,1511,1324,0,0
294,-300,0,0,0,0,0,0,0,0,0,-1,1518,1324,0,0
301,-300,0,0,0,0,0,0,0,0,0,-1,1525,1324,0,0
308,-300,0,0,0,0,0,0,0,0,0,-1,1532,1324,0,0
315,-300,0,0,0,0,0,0,0,0,0,-1,1539,1324,0,0
322,-300,0,0,0,0,0,0,0,0,0,-1,1546,1324,0,0
329,-300,0,0,0,0,0,0,0,0,0,-1,1553,1324,0,0
336,-300,0,0,0,0,0,0,0,0,0,-1,1560,1324,0,0
343,-300,0,0,0,0,0,0,0,0,0,-1,1567,1324,0,0
350,-300,0,0,0,0,0,0,0,0,0,-1,1574,1324,0,0
357,-300,0,0,0,0,0,0,0,0,0,-1,1581,1324,0,0
364,-300,0,0,0,0,0,0,0,0,0,-1,1588,1324,0,0
371,-300,0,0,0,0,0,0,0,0,0,-1,1595,1324,0,0
378,-300,0,0,0,0,0,0,0,0,0,-1,1602,1324,0,0
385,-300,0,0,0,0,0,0,0,0,0,-1,1609,1324,0,0
392,-300,0,0,0,0,0,0,0,0,0,-1,1616,1324,0,0
399,-300,0,0,0,0,0,0,0,0,0,-1,1623,1324,0,0
406,-300,0,0,0,0,0,0,0,0,0,-1,1630,1324,0,0
413,-300,0,0,0,0,0,0,0,0,0,-1,1637,1324,0,0
420,-300,0,0,0,0,0,0,0,0,0,-1,1644,1324,0,0
427,-300,0,0,0,0,0,0,0,0,0,-1,1651,1324,0,0
434,-300,0,0,0,0,0,0,0,0,0,-1,1658,1324,0,0
441,-300,0,0,0,0,0,0,0,0,0,-1,1665,1324,0,0
448,-300,0,0,0,0,0,0,0,0,0,-1,1672,1324,0,0
455,-300,0,0,0,0,0,0,0,0,0,-1,1679,1324,0,0
462,-300,0,0,0,0,0,0,0,0,0,-1,1686,1324,0,0
469,-300,0,0,0,0,0,0,0,0,0,-1,1693,1324,0,0
476,-300,0,0,0,0,0,0,0,0,0,-1,1700,1324,0,0
483,-300,0,0,0,0,0,0,0,0,0,-1,1707,1324,0,0
490,-300,0,0,0,0,0,0,0,0,0,-1,1714,1324,0,0
497,-300,0,0,0,0,0,0,0,0,0,-1,1721,1324,0,0
504,-300,0,0,0,0,0,0,0,0,0,-1,1728,1324,0,0
511,-300,0,0,0,0,0,0,0,0,0,-1,1735,1324,0,0
518,-300,0,0,0,0,0,0,0,0,0,-1,1742,1324,0,0
525,-300,0,0,0,0,0,0,0,0,0,-1,1749,1324,0,0
532,-300,0,0,0,0,0,0,0,0,0,-1,1756,1324,0,0
539,-300,0,0,0,0,0,0,0,0,0,-1,1763,1324,0,0
546,-300,0,0,0,0,0,0,0,0,0,-1,1770,1324,0,0
553,-300,0,0,0,0,0,0,0,0,0,-1,1777,1324,0,0
560,-300,0,0,0,0,0,0,0,0,0,-1,1784,1324,0,0
567,-300,0,0,0,0,0,0,0,0,0,-1,1791,1324,0,0
574,-300,0,0,0,0,0,0,0,0,0,-1,1798,1324,0,0
581,-300,0,0,0,0,0,0,0,0,0,-1,1805,1324,0,0
588,-300,66.4561,1.99207,0,0,0,0,0,0,0,-1,1812,1324,66.456,-1.99202
595,-300,66.4685,1.95496,0,0,0,0,0,0,0,-1,1819,1324,66.4685,-1.95499
602,-300,66.5259,1.72363,0,0,0,0,0,0,0,-1,1826,1324,66.5259,-1.72367
609,-300,64.2576,2.90149,0,0,0,0,0,0,0,-1,1833,1324,64.2575,-2.90154
616,-300,65.1267,2.84033,0,0,0,0,0,0,0,-1,1840,1324,65.1267,-2.84037
623,-300,47.4474,2.43188,0,0,0,0,0,0,0,-1,1847,1324,47.4474,-2.43194
630,-300,42.4099,3.9165,0,0,0,0,0,0,0,-1,1854,1324,42.4099,-3.91649
637,-300,31.1719,4.6366,0,0,0,0,0,0,0,-1,1861,1324,31.1718,-4.63665
644,-300,22.9836,3.44934,0,0,0,0,0,0,0,-1,1868,1324,22.9836,-3.4493
651,-300,25.5004,9.11853,0,0,0,0,0,0,0,-1,1875,1324,25.5004,-9.11851
658,-300,25.4012,9.20032,0,0,0,0,0,0,0,-1,1882,1324,25.4012,-9.20036
665,-300,91.6304,40.3275,0,0,0,0,0,0,0,-1,1889,1324,91.6304,-40.3276
672,-300,105.809,45.0531,0,0,0,0,0,0,0,-1,1896,1324,105.809,-45.0531
679,-300,118.43,46.575,0,0,0,0,0,0,0,-1,1903,1324,118.43,-46.5749
686,-300,117.355,44.4764,0,0,0,0,0,0,0,-1,1910,1324,117.355,-44.4764
693,-300,117.24,41.9935,0.00113529,-0.00275335,-0.000364287,0.00116912,-0.00278719,-0.092606,0.00234699,0.0380664,1917,1324,117.24,-41.9935
700,-300,116.999,39.6577,-0.00106337,0.00064344,0.00326114,0.00316099,-0.00358092,0.913373,0.00389496,0.0260641,1924,1324,116.999,-39.6577
707,-300,116.701,37.5046,-0.00380949,0.00396613,0.00736656,0.00840786,-0.00825123,1.0282,0.00961827,0.0152202,1931,1324,116.701,-37.5046
714,-300,116.398,35.4407,-0.00702943,0.00727417,0.0118737,0.0139836,-0.0137389,1.05646,0.0160058,0.0156836,1938,1324,116.398,-35.4407
721,-300,116.052,33.3907,-0.0107269,0.0106207,0.0167736,0.0198287,-0.0199348,1.06876,0.0229575,0.0164978,1945,1324,116.052,-33.3907
728,-300,115.691,31.3104,0,0,0,0,0,0,0,-1,1952,1324,115.691,-31.3104
735,-300,111.211,29.4399,0,0,0,0,0,0,0,-1,1959,1324,111.211,-29.44
742,-300,101.949,26.0653,0,0,0,0,0,0,0,-1,1966,1324,101.949,-26.0653
749,-300,27.4065,5.9718,0,0,0,0,0,0,0,-1,1973,1324,27.4065,-5.97181
756,-300,22.1423,3.45642,0,0,0,0,0,0,0,-1,1980,1324,22.1423,-3.45638
763,-300,22.6136,5.1571,0,0,0,0,0,0,0,-1,1987,1324,22.6136,-5.15706
770,-300,24.859,4.77979,0,0,0,0,0,0,0,-1,1994,1324,24.859,-4.77972
777,-300,0,0,0,0,0,0,0,0,0,-1,2001,1324,0,0
784,-300,0,0,0,0,0,0,0,0,0,-1,2008,1324,0,0
791,-300,0,0,0,0,0,0,0,0,0,-1,2015,1324,0,0
798,-300,0,0,0,0,0,0,0,0,0,-1,2022,1324,0,0
805,-300,0,0,0,0,0,0,0,0,0,-1,2029,1324,0,0
812,-300,0,0,0,0,0,0,0,0,0,-1,2036,1324,0,0
-700,-307,0,0,0,0,0,0,0,0,0,-1,524,1331,0,0
-693,-307,0,0,0,0,0,0,0,0,0,-1,531,1331,0,0
-686,-307,0,0,0,0,0,0,0,0,0,-1,538,1331,0,0
-679,-307,0,0,0,0,0,0,0,0,0,-1,545,1331,0,0
-672,-307,0,0,0,0,0,0,0,0,0,-1,552,1331,0,0
-665,-307,0,0,0,0,0,0,0,0,0,-1,559,1331,0,0
-658,-307,0,0,0,0,0,0,0,0,0,-1,566,1331,0,0
-651,-307,-40.7436,1.98755,0,0,0,0,0,0,0,-1,573,1331,-40.7436,-1.98753
-644,-307,-41.7838,1.24817,0,0,0,0,0,0,0,-1,580,1331,-41.7838,-1.2482
-637,-307,-41.9006,0.477783,0,0,0,0,0,0,0,-1,587,1331,-41.9006,-0.477844
-630,-307,-12.0005,0.767212,0,0,0,0,0,0,0,-1,594,1331,-12.0005,-0.767266
-623,-307,-12.2128,2.93811,0,0,0,0,0,0,0,-1,601,1331,-12.2128,-2.93813
-616,-307,-12.6612,2.08289,0,0,0,0,0,0,0,-1,608,1331,-12.6612,-2.08293
-609,-307,-12.2767,1.83228,0,0,0,0,0,0,0,-1,615,1331,-12.2768,-1.83224
-602,-307,-27.5659,6.93335,0,0,0,0,0,0,0,-1,622,1331,-27.5658,-6.9333
-595,-307,-107.823,31.328,0,0,0,0,0,0,0,-1,629,1331,-107.823,-31.328
-588,-307,-108.028,33.4178,-0.00379285,0.0197894,-0.00703845,0.0217304,-0.00573382,-1.30172,0.016729,0.0344351,636,1331,-108.028,-33.4178
-581,-307,-108.341,35.4174,0.00167365,0.0137234,-0.0060571,0.0162418,-0.000844751,-1.17676,0.0111202,0.0194583,643,1331,-108.341,-35.4173
-574,-307,-108.633,37.475,0.00682684,0.00812342,-0.0050861,0.0126024,0.00234787,-0.848788,0.00773861,0.0162262,650,1331,-108.633,-37.475
-567,-307,-108.899,39.7312,0.0115777,0.00293539,-0.00419814,0.0132812,0.00123186,-0.38548,0.00847343,0.027841,657,1331,-108.899,-39.7312
-560,-307,-109.547,41.799,0.0158386,-0.00189512,-0.0034553,0.016488,-0.00254457,-0.185792,0.011931,0.0433503,664,1331,-109.547,-41.799
-553,-307,-109.875,43.717,0,0,0,0,0,0,0,-1,671,1331,-109.875,-43.717
-546,-307,-109.92,45.9712,0,0,0,0,0,0,0,-1,678,1331,-109.92,-45.9712
-539,-307,-109.87,48.3367,0,0,0,0,0,0,0,-1,685,1331,-109.869,-48.3366
-532,-307,-82.0417,43.2467,0,0,0,0,0,0,0,-1,692,1331,-82.0417,-43.2467
-525,-307,-13.2009,6.91309,0,0,0,0,0,0,0,-1,699,1331,-13.2009,-6.9131
-518,-307,-9.77777,-1.56653,0,0,0,0,0,0,0,-1,706,1331,-9.77777,1.56651
-511,-307,-12.5226,0.26709,0,0,0,0,0,0,0,-1,713,1331,-12.5226,-0.267038
-504,-307,-12.5913,-0.308105,0,0,0,0,0,0,0,-1,720,1331,-12.5913,0.308124
-497,-307,-13.8586,-0.115845,0,0,0,0,0,0,0,-1,727,1331,-13.8587,0.115861
-490,-307,-17.9429,0.982178,0,0,0,0,0,0,0,-1,734,1331,-17.9429,-0.982198
-483,-307,-18.1066,0.927612,0,0,0,0,0,0,0,-1,741,1331,-18.1066,-0.927609
-476,-307,-18.1288,1.1228,0,0,0,0,0,0,0,-1,748,1331,-18.1289,-1.12286
-469,-307,-18.2028,0.798584,0,0,0,0,0,0,0,-1,755,1331,-18.2027,-0.798546
-462,-307,0,0,0,0,0,0,0,0,0,-1,762,1331,0,0
-455,-307,0,0,0,0,0,0,0,0,0,-1,769,1331,0,0
-448,-307,0,0,0,0,0,0,0,0,0,-1,776,1331,0,0
-441,-307,0,0,0,0,0,0,0,0,0,-1,783,1331,0,0
-434,-307,0,0,0,0,0,0,0,0,0,-1,790,1331,0,0
-427,-307,0,0,0,0,0,0,0,0,0,-1,797,1331,0,0
-420,-307,0,0,0,0,0,0,0,0,0,-1,804,1331,0,0
-413,-307,0,0,0,0,0,0,0,0,0,-1,811,1331,0,0
-406,-307,0,0,0,0,0,0,0,0,0,-1,818,1331,0,0
-399,-307,0,0,0,0,0,0,0,0,0,-1,825,1331,0,0
-392,-307,0,0,0,0,0,0,0,0,0,-1,832,1331,0,0
-385,-307,0,0,0,0,0,0,0,0,0,-1,839,1331,0,0
-378,-307,0,0,0,0,0,0,0,0,0,-1,846,1331,0,0
-371,-307,0,0,0,0,0,0,0,0,0,-1,853,1331,0,0
-364,-307,0,0,0,0,0,0,0,0,0,-1,860,1331,0,0
-357,-307,0,0,0,0,0,0,0,0,0,-1,867,1331,0,0
-350,-307,0,0,0,0,0,0,0,0,0,-1,874,1331,0,0
-343,-307,0,0,0,0,0,0,0,0,0,-1,881,1331,0,0
-336,-307,0,0,0,0,0,0,0,0,0,-1,888,1331,0,0
-329,-307,0,0,0,0,0,0,0,0,0,-1,895,1331,0,0
-322,-307,0,0,0,0,0,0,0,0,0,-1,902,1331,0,0
-315,-307,0,0,0,0,0,0,0,0,0,-1,909,1331,0,0
-308,-307,0,0,0,0,0,0,0,0,0,-1,916,1331,0,0
-301,-307,0,0,0,0,0,0,0,0,0,-1,923,1331,0,0
-294,-307,0,0,0,0,0,0,0,0,0,-1,930,1331,0,0
-287,-307,0,0,0,0,0,0,0,0,0,-1,937,1331,0,0
-280,-307,0,0,0,0,0,0,0,0,0,-1,944,1331,0,0
-273,-307,0,0,0,0,0,0,0,0,0,-1,951,1331,0,0
-266,-307,0,0,0,0,0,0,0,0,0,-1,958,1331,0,0
-259,-307,0,0,0,0,0,0,0,0,0,-1,965,1331,0,0
-252,-307,0,0,0,0,0,0,0,0,0,-1,972,1331,0,0
-245,-307,0,0,0,0,0,0,0,0,0,-1,979,1331,0,0
-238,-307,0,0,0,0,0,0,0,0,0,-1,986,1331,0,0
-231,-307,0,0,0,0,0,0,0,0,0,-1,993,1331,0,0
-224,-307,0,0,0,0,0,0,0,0,0,-1,1000,1331,0,0
-217,-307,0,0,0,0,0,0,0,0,0,-1,1007,1331,0,0
-210,-307,0,0,0,0,0,0,0,0,0,-1,1014,1331,0,0
-203,-307,0,0,0,0,0,0,0,0,0,-1,1021,1331,0,0
-196,-307,0,0,0,0,0,0,0,0,0,-1,1028,1331,0,0
-189,-307,0,0,0,0,0,0,0,0,0,-1,1035,1331,0,0
-182,-307,0,0,0,0,0,0,0,0,0,-1,1042,1331,0,0
-175,-307,0,0,0,0,0,0,0,0,0,-1,1049,1331,0,0
-168,-307,0,0,0,0,0,0,0,0,0,-1,1056,1331,0,0
-161,-307,0,0,0,0,0,0,0,0,0,-1,1063,1331,0,0
-154,-307,0,0,0,0,0,0,0,0,0,-1,1070,1331,0,0
-147,-307,0,0,0,0,0,0,0,0,0,-1,1077,1331,0,0
-140,-307,0,0,0,0,0,0,0,0,0,-1,1084,1331,0,0
-133,-307,0,0,0,0,0,0,0,0,0,-1,1091,1331,0,0
-126,-307,0,0,0,0,0,0,0,0,0,-1,1098,1331,0,0
-119,-307,0,0,0,0,0,0,0,0,0,-1,1105,1331,0,0
-112,-307,0,0,0,0,0,0,0,0,0,-1,1112,1331,0,0
-105,-307,0,0,0,0,0,0,0,0,0,-1,1119,1331,0,0
-98,-307,0,0,0,0,0,0,0,0,0,-1,1126,1331,0,0
-91,-307,0,0,0,0,0,0,0,0,0,-1,1133,1331,0,0
-84,-307,0,0,0,0,0,0,0,0,0,-1,1140,1331,0,0
-77,-307,0,0,0,0,0,0,0,0,0,-1,1147,1331,0,0
-70,-307,0,0,0,0,0,0,0,0,0,-1,1154,1331,0,0
-63,-307,0,0,0,0,0,0,0,0,0,-1,1161,1331,0,0
-56,-307,0,0,0,0,0,0,0,0,0,-1,1168,1331,0,0
-49,-307,0,0,0,0,0,0,0,0,0,-1,1175,1331,0,0
-42,-307,0,0,0,0,0,0,0,0,0,-1,1182,1331,0,0
-35,-307,0,0,0,0,0,0,0,0,0,-1,1189,1331,0,0
-28,-307,0,0,0,0,0,0,0,0,0,-1,1196,1331,0,0
-21,-307,0,0,0,0,0,0,0,0,0,-1,1203,1331,0,0
-14,-307,0,0,0,0,0,0,0,0,0,-1,1210,1331,0,0
-7,-307,0,0,0,0,0,0,0,0,0,-1,1217,1331,0,0
0,-307,0,0,0,0,0,0,0,0,0,-1,1224,1331,0,0
7,-307,0,0,0,0,0,0,0,0,0,-1,1231,1331,0,0
14,-307,0,0,0,0,0,0,0,0,0,-1,1238,1331,0,0
21,-307,0,0,0,0,0,0,0,0,0,-1,1245,1331,0,0
28,-307,0,0,0,0,0,0,0,0,0,-1,1252,1331,0,0
35,-307,0,0,0,0,0,0,0,0,0,-1,1259,1331,0,0
42,-307,0,0,0,0,0,0,0,0,0,-1,1266,1331,0,0
49,-307,0,0,0,0,0,0,0,0,0,-1,1273,1331,0,0
56,-307,0,0,0,0,0,0,0,0,0,-1,1280,1331,0,0
63,-307,0,0,0,0,0,0,0,0,0,-1,1287,1331,0,0
70,-307,0,0,0,0,0,0,0,0,0,-1,1294,1331,0,0
77,-307,0,0,0,0,0,0,0,0,0,-1,1301,1331,0,0
84,-307,0,0,0,0,0,0,0,0,0,-1,1308,1331,0,0
91,-307,0,0,0,0,0,0,0,0,0,-1,1315,1331,0,0
98,-307,0,0,0,0,0,0,0,0,0,-1,1322,1331,0,0
105,-307,0,0,0,0,0,0,0,0,0,-1,1329,1331,0,0
112,-307,0,0,0,0,0,0,0,0,0,-1,1336,1331,0,0
119,-307,0,0,0,0,0,0,0,0,0,-1,1343,1331,0,0
126,-307,0,0,0,0,0,0,0,0,0,-1,1350,1331,0,0
133,-307,0,0,0,0,0,0,0,0,0,-1,1357,1331,0,0
140,-307,0,0,0,0,0,0,0,0,0,-1,1364,1331,0,0
147,-307,0,0,0,0,0,0,0,0,0,-1,1371,1331,0,0
154,-307,0,0,0,0,0,0,0,0,0,-1,1378,1331,0,0
161,-307,0,0,0,0,0,0,0,0,0,-1,1385,1331,0,0
168,-307,0,0,0,0,0,0,0,0,0,-1,1392,1331,0,0
175,-307,0,0,0,0,0,0,0,0,0,-1,1399,1331,0,0
182,-307,0,0,0,0,0,0,0,0,0,-1,1406,1331,0,0
189,-307,0,0,0,0,0,0,0,0,0,-1,1413,1331,0,0
196,-307,0,0,0,0,0,0,0,0,0,-1,1420,1331,0,0
203,-307,0,0,0,0,0,0,0,0,0,-1,1427,1331,0,0
210,-307,0,0,0,0,0,0,0,0,0,-1,1434,1331,0,0
217,-307,0,0,0,0,0,0,0,0,0,-1,1441,1331,0,0
224,-307,0,0,0,0,0,0,0,0,0,-1,1448,1331,0,0
231,-307,0,0,0,0,0,0,0,0,0,-1,1455,1331,0,0
238,-307,0,0,0,0,0,0,0,0,0,-1,1462,1331,0,0
245,-307,0,0,0,0,0,0,0,0,0,-1,1469,1331,0,0
252,-307,0,0,0,0,0,0,0,0,0,-1,1476,1331,0,0
259,-307,0,0,0,0,0,0,0,0,0,-1,1483,1331,0,0
266,-307,0,0,0,0,0,0,0,0,0,-1,1490,1331,0,0
273,-307,0,0,0,0,0,0,0,0,0,-1,1497,1331,0,0
280,-307,0,0,0,0,0,0,0,0,0,-1,1504,1331,0,0
287,-307,0,0,0,0,0,0,0,0,0,-1,1511,1331,0,0
294,-307,0,0,0,0,0,0,0,0,0,-1,1518,1331,0,0
301,-307,0,0,0,0,0,0,0,0,0,-1,1525,1331,0,0
308,-307,0,0,0,0,0,0,0,0,0,-1,1532,1331,0,0
315,-307,0,0,0,0,0,0,0,0,0,-1,1539,1331,0,0
322,-307,0,0,0,0,0,0,0,0,0,-1,1546,1331,0,0
329,-307,0,0,0,0,0,0,0,0,0,-1,1553,1331,0,0
336,-307,0,0,0,0,0,0,0,0,0,-1,1560,1331,0,0
343,-307,0,0,0,0,0,0,0,0,0,-1,1567,1331,0,0
350,-307,0,0,0,0,0,0,0,0,0,-1,1574,1331,0,0
357,-307,0,0,0,0,0,0,0,0,0,-1,1581,1331,0,0
364,-307,0,0,0,0,0,0,0,0,0,-1,1588,1331,0,0
371,-307,0,0,0,0,0,0,0,0,0,-1,1595,1331,0,0
378,-307,0,0,0,0,0,0,0,0,0,-1,1602,1331,0,0
385,-307,0,0,0,0,0,0,0,0,0,-1,1609,1331,0,0
392,-307,0,0,0,0,0,0,0,0,0,-1,1616,1331,0,0
399,-307,0,0,0,0,0,0,0,0,0,-1,1623,1331,0,0
406,-307,0,0,0,0,0,0,0,0,0,-1,1630,1331,0,0
413,-307,0,0,0,0,0,0,0,0,0,-1,1637,1331,0,0
420,-307,0,0,0,0,0,0,0,0,0,-1,1644,1331,0,0
427,-307,0,0,0,0,0,0,0,0,0,-1,1651,1331,0,0
434,-307,0,0,0,0,0,0,0,0,0,-1,1658,1331,0,0
441,-307,0,0,0,0,0,0,0,0,0,-1,1665,1331,0,0
448,-307,0,0,0,0,0,0,0,0,0,-1,1672,1331,0,0
455,-307,0,0,0,0,0,0,0,0,0,-1,1679,1331,0,0
462,-307,0,0,0,0,0,0,0,0,0,-1,1686,1331,0,0
469,-307,0,0,0,0,0,0,0,0,0,-1,1693,1331,0,0
476,-307,0,0,0,0,0,0,0,0,0,-1,1700,1331,0,0
483,-307,0,0,0,0,0,0,0,0,0,-1,1707,1331,0,0
490,-307,0,0,0,0,0,0,0,0,0,-1,1714,1331,0,0
497,-307,0,0,0,0,0,0,0,0,0,-1,1721,1331,0,0
504,-307,0,0,0,0,0,0,0,0,0,-1,1728,1331,0,0
511,-307,0,0,0,0,0,0,0,0,0,-1,1735,1331,0,0
518,-307,0,0,0,0,0,0,0,0,0,-1,1742,1331,0,0
525,-307,0,0,0,0,0,0,0,0,0,-1,1749,1331,0,0
532,-307,0,0,0,0,0,0,0,0,0,-1,1756,1331,0,0
539,-307,0,0,0,0,0,0,0,0,0,-1,1763,1331,0,0
546,-307,0,0,0,0,0,0,0,0,0,-1,1770,1331,0,0
553,-307,0,0,0,0,0,0,0,0,0,-1,1777,1331,0,0
560,-307,0,0,0,0,0,0,0,0,0,-1,1784,1331,0,0
567,-307,0,0,0,0,0,0,0,0,0,-1,1791,1331,0,0
574,-307,0,0,0,0,0,0,0,0,0,-1,1798,1331,0,0
581,-307,0,0,0,0,0,0,0,0,0,-1,1805,1331,0,0
588,-307,66.5917,1.60864,0,0,0,0,0,0,0,-1,1812,1331,66.5917,-1.60867
595,-307,66.708,1.85352,0,0,0,0,0,0,0,-1,1819,1331,66.708,-1.85351
602,-307,66.111,1.49976,0,0,0,0,0,0,0,-1,1826,1331,66.1109,-1.49974
609,-307,63.8848,2.78992,0,0,0,0,0,0,0,-1,1833,1331,63.8848,-2.78989
616,-307,53.2878,0.135498,0,0,0,0,0,0,0,-1,1840,1331,53.2878,-0.135477
623,-307,44.3966,2.84888,0,0,0,0,0,0,0,-1,1847,1331,44.3966,-2.84884
630,-307,29.8116,1.51184,0,0,0,0,0,0,0,-1,1854,1331,29.8116,-1.51188
637,-307,24.6407,4.09106,0,0,0,0,0,0,0,-1,1861,1331,24.6407,-4.09103
644,-307,22.6885,5.80408,0,0,0,0,0,0,0,-1,1868,1331,22.6884,-5.80408
651,-307,17.5013,5.80078,0,0,0,0,0,0,0,-1,1875,1331,17.5014,-5.80072
658,-307,37.4427,13.9775,0,0,0,0,0,0,0,-1,1882,1331,37.4427,-13.9776
665,-307,104.043,47.2717,0,0,0,0,0,0,0,-1,1889,1331,104.043,-47.2717
672,-307,116.477,49.1543,0,0,0,0,0,0,0,-1,1896,1331,116.477,-49.1543
679,-307,116.003,46.8752,0,0,0,0,0,0,0,-1,1903,1331,116.003,-46.8752
686,-307,115.324,44.7067,0,0,0,0,0,0,0,-1,1910,1331,115.324,-44.7067
693,-307,115.167,42.2455,0.000760133,-0.00214209,0.00170177,0.00154548,-0.00292744,0.432367,0.00262321,0.0402194,1917,1331,115.167,-42.2455
700,-307,114.745,40.0386,-0.00119858,0.00116274,0.00494608,0.00506712,-0.00510296,0.902559,0.00587171,0.024585,1924,1331,114.745,-40.0386
707,-307,114.361,37.8685,-0.00354349,0.00437538,0.00858075,0.00986615,-0.00903426,1.00156,0.0109157,0.0240036,1931,1331,114.361,-37.8686
714,-307,114.104,35.8046,-0.00629926,0.00754589,0.0125935,0.0149941,-0.0137474,1.0367,0.0165991,0.0190593,1938,1331,114.105,-35.8046
721,-307,113.779,33.7672,-0.00947861,0.0107289,0.016967,0.0203726,-0.0191224,1.05395,0.0228063,0.0210615,1945,1331,113.779,-33.7672
728,-307,113.436,31.6815,0,0,0,0,0,0,0,-1,1952,1331,113.435,-31.6816
735,-307,100.371,27.8601,0,0,0,0,0,0,0,-1,1959,1331,100.371,-27.86
742,-307,26.677,6.09192,0,0,0,0,0,0,0,-1,1966,1331,26.677,-6.0919
749,-307,26.7727,5.9032,0,0,0,0,0,0,0,-1,1973,1331,26.7727,-5.90323
756,-307,27.1556,5.74756,0,0,0,0,0,0,0,-1,1980,1331,27.1557,-5.7475
763,-307,18.7522,3.55298,0,0,0,0,0,0,0,-1,1987,1331,18.7522,-3.55301
770,-307,0,0,0,0,0,0,0,0,0,-1,1994,1331,0,0
777,-307,0,0,0,0,0,0,0,0,0,-1,2001,1331,0,0
784,-307,0,0,0,0,0,0,0,0,0,-1,2008,1331,0,0
791,-307,0,0,0,0,0,0,0,0,0,-1,2015,1331,0,0
798,-307,0,0,0,0,0,0,0,0,0,-1,2022,1331,0,0
805,-307,0,0,0,0,0,0,0,0,0,-1,2029,1331,0,0
812,-307,0,0,0,0,0,0,0,0,0,-1,2036,1331,0,0
-700,-314,0,0,0,0,0,0,0,0,0,-1,524,1338,0,0
-693,-314,0,0,0,0,0,0,0,0,0,-1,531,1338,0,0
-686,-314,0,0,0,0,0,0,0,0,0,-1,538,1338,0,0
-679,-314,0,0,0,0,0,0,0,0,0,-1,545,1338,0,0
-672,-314,0,0,0,0,0,0,0,0,0,-1,552,1338,0,0
-665,-314,0,0,0,0,0,0,0,0,0,-1,559,1338,0,0
-658,-314,0,0,0,0,0,0,0,0,0,-1,566,1338,0,0
-651,-314,0,0,0,0,0,0,0,0,0,-1,573,1338,0,0
-644,-314,-41.2806,1.17566,0,0,0,0,0,0,0,-1,580,1338,-41.2806,-1.17565
-637,-314,-58.369,7.97375,0,0,0,0,0,0,0,-1,587,1338,-58.369,-7.97376
-630,-314,-59.7463,6.72742,0,0,0,0,0,0,0,-1,594,1338,-59.7463,-6.72739
-623,-314,-13.3542,3.00903,0,0,0,0,0,0,0,-1,601,1338,-13.3542,-3.00907
-616,-314,-9.93311,1.15088,0,0,0,0,0,0,0,-1,608,1338,-9.93308,-1.15093
-609,-314,-9.4361,2.86292,0,0,0,0,0,0,0,-1,615,1338,-9.43612,-2.86286
-602,-314,-11.8027,2.42798,0,0,0,0,0,0,0,-1,622,1338,-11.8027,-2.42802
-595,-314,-52.7681,19.3807,0,0,0,0,0,0,0,-1,629,1338,-52.7681,-19.3807
-588,-314,-105.794,33.5778,0,0,0,0,0,0,0,-1,636,1338,-105.794,-33.5777
-581,-314,-106.105,35.6859,0.00229812,0.0153904,-0.00443184,0.0167495,0.000939003,-1.27323,0.0108669,0.0162022,643,1338,-106.105,-35.6859
-574,-314,-106.437,37.8213,0.00606765,0.00969372,-0.00527245,0.0134561,0.00230522,-0.951,0.00830964,0.0162531,650,1338,-106.437,-37.8213
-567,-314,-106.703,39.9724,0.0092717,0.00439477,-0.00626251,0.0135537,0.000112735,-0.599741,0.00899848,0.017259,657,1338,-106.702,-39.9724
-560,-314,-107.023,42.2542,0.0118642,-0.000563938,-0.00742065,0.015329,-0.00402874,-0.43683,0.0117939,0.0336736,664,1338,-107.023,-42.2541
-553,-314,-107.251,44.2635,0,0,0,0,0,0,0,-1,671,1338,-107.251,-44.2635
-546,-314,-107.815,46.1334,0,0,0,0,0,0,0,-1,678,1338,-107.815,-46.1334
-539,-314,-79.5233,41.916,0,0,0,0,0,0,0,-1,685,1338,-79.5232,-41.916
-532,-314,-52.4742,29.8778,0,0,0,0,0,0,0,-1,692,1338,-52.4742,-29.8779
-525,-314,-13.3017,7.50671,0,0,0,0,0,0,0,-1,699,1338,-13.3017,-7.50669
-518,-314,-8.52753,4.70032,0,0,0,0,0,0,0,-1,706,1338,-8.52755,-4.70034
-511,-314,-11.8597,0.384888,0,0,0,0,0,0,0,-1,713,1338,-11.8597,-0.384927
-504,-314,-11.4322,-0.187378,0,0,0,0,0,0,0,-1,720,1338,-11.4322,0.187381
-497,-314,-11.0047,-0.759644,0,0,0,0,0,0,0,-1,727,1338,-11.0047,0.759689
-490,-314,-18.5143,0.471069,0,0,0,0,0,0,0,-1,734,1338,-18.5143,-0.47103
-483,-314,-17.8528,0.577271,0,0,0,0,0,0,0,-1,741,1338,-17.8528,-0.577327
-476,-314,-17.714,0.665405,0,0,0,0,0,0,0,-1,748,1338,-17.714,-0.665388
-469,-314,-17.7246,0.794678,0,0,0,0,0,0,0,-1,755,1338,-17.7246,-0.794645
-462,-314,0,0,0,0,0,0,0,0,0,-1,762,1338,0,0
-455,-314,0,0,0,0,0,0,0,0,0,-1,769,1338,0,0
-448,-314,0,0,0,0,0,0,0,0,0,-1,776,1338,0,0
-441,-314,0,0,0,0,0,0,0,0,0,-1,783,1338,0,0
-434,-314,0,0,0,0,0,0,0,0,0,-1,790,1338,0,0
-427,-314,0,0,0,0,0,0,0,0,0,-1,797,1338,0,0
-420,-314,0,0,0,0,0,0,0,0,0,-1,804,1338,0,0
-413,-314,0,0,0,0,0,0,0,0,0,-1,811,1338,0,0
-406,-314,0,0,0,0,0,0,0,0,0,-1,818,1338,0,0
-399,-314,0,0,0,0,0,0,0,0,0,-1,825,1338,0,0
-392,-314,0,0,0,0,0,0,0,0,0,-1,832,1338,0,0
-385,-314,0,0,0,0,0,0,0,0,0,-1,839,1338,0,0
-378,-314,0,0,0,0,0,0,0,0,0,-1,846,1338,0,0
-371,-314,0,0,0,0,0,0,0,0,0,-1,853,1338,0,0
-364,-314,0,0,0,0,0,0,0,0,0,-1,860,1338,0,0
-357,-314,0,0,0,0,0,0,0,0,0,-1,867,1338,0,0
-350,-314,0,0,0,0,0,0,0,0,0,-1,874,1338,0,0
-343,-314,0,0,0,0,0,0,0,0,0,-1,881,1338,0,0
-336,-314,0,0,0,0,0,0,0,0,0,-1,888,1338,0,0
-329,-314,0,0,0,0,0,0,0,0,0,-1,895,1338,0,0
-322,-314,0,0,0,0,0,0,0,0,0,-1,902,1338,0,0
-315,-314,0,0,0,0,0,0,0,0,0,-1,909,1338,0,0
-308,-314,0,0,0,0,0,0,0,0,0,-1,916,1338,0,0
-301,-314,0,0,0,0,0,0,0,0,0,-1,923,1338,0,0
-294,-314,0,0,0,0,0,0,0,0,0,-1,930,1338,0,0
-287,-314,0,0,0,0,0,0,0,0,0,-1,937,1338,0,0
-280,-314,0,0,0,0,0,0,0,0,0,-1,944,1338,0,0
-273,-314,0,0,0,0,0,0,0,0,0,-1,951,1338,0,0
-266,-314,0,0,0,0,0,0,0,0,0,-1,958,1338,0,0
-259,-314,0,0,0,0,0,0,0,0,0,-1,965,1338,0,0
-252,-314,0,0,0,0,0,0,0,0,0,-1,972,1338,0,0
-245,-314,0,0,0,0,0,0,0,0,0,-1,979,1338,0,0
-238,-314,0,0,0,0,0,0,0,0,0,-1,986,1338,0,0
-231,-314,0,0,0,0,0,0,0,0,0,-1,993,1338,0,0
-224,-314,0,0,0,0,0,0,0,0,0,-1,1000,1338,0,0
-217,-314,0,0,0,0,0,0,0,0,0,-1,1007,1338,0,0
-210,-314,0,0,0,0,0,0,0,0,0,-1,1014,1338,0,0
-203,-314,0,0,0,0,0,0,0,0,0,-1,1021,1338,0,0
-196,-314,0,0,0,0,0,0,0,0,0,-1,1028,1338,0,0
-189,-314,0,0,0,0,0,0,0,0,0,-1,1035,1338,0,0
-182,-314,0,0,0,0,0,0,0,0,0,-1,1042,1338,0,0
-175,-314,0,0,0,0,0,0,0,0,0,-1,1049,1338,0,0
-168,-314,0,0,0,0,0,0,0,0,0,-1,1056,1338,0,0
-161,-314,0,0,0,0,0,0,0,0,0,-1,1063,1338,0,0
-154,-314,0,0,0,0,0,0,0,0,0,-1,1070,1338,0,0
-147,-314,0,0,0,0,0,0,0,0,0,-1,1077,1338,0,0
-140,-314,0,0,0,0,0,0,0,0,0,-1,1084,1338,0,0
-133,-314,0,0,0,0,0,0,0,0,0,-1,1091,1338,0,0
-126,-314,0,0,0,0,0,0,0,0,0,-1,1098,1338,0,0
-119,-314,0,0,0,0,0,0,0,0,0,-1,1105,1338,0,0
-112,-314,0,0,0,0,0,0,0,0,0,-1,1112,1338,0,0
-105,-314,0,0,0,0,0,0,0,0,0,-1,1119,1338,0,0
-98,-314,0,0,0,0,0,0,0,0,0,-1,1126,1338,0,0
-91,-314,0,0,0,0,0,0,0,0,0,-1,1133,1338,0,0
-84,-314,0,0,0,0,0,0,0,0,0,-1,1140,1338,0,0
-77,-314,0,0,0,0,0,0,0,0,0,-1,1147,1338,0,0
-70,-314,0,0,0,0,0,0,0,0,0,-1,1154,1338,0,0
-63,-314,0,0,0,0,0,0,0,0,0,-1,1161,1338,0,0
-56,-314,0,0,0,0,0,0,0,0,0,-1,1168,1338,0,0
-49,-314,0,0,0,0,0,0,0,0,0,-1,1175,1338,0,0
-42,-314,0,0,0,0,0,0,0,0,0,-1,1182,1338,0,0
-35,-314,0,0,0,0,0,0,0,0,0,-1,1189,1338,0,0
-28,-314,0,0,0,0,0,0,0,0,0,-1,1196,1338,0,0
-21,-314,0,0,0,0,0,0,0,0,0,-1,1203,1338,0,0
-14,-314,0,0,0,0,0,0,0,0,0,-1,1210,1338,0,0
-7,-314,0,0,0,0,0,0,0,0,0,-1,1217,1338,0,0
0,-314,0,0,0,0,0,0,0,0,0,-1,1224,1338,0,0
7,-314,0,0,0,0,0,0,0,0,0,-1,1231,1338,0,0
14,-314,0,0,0,0,0,0,0,0,0,-1,1238,1338,0,0
21,-314,0,0,0,0,0,0,0,0,0,-1,1245,1338,0,0
28,-314,0,0,0,0,0,0,0,0,0,-1,1252,1338,0,0
35,-314,0,0,0,0,0,0,0,0,0,-1,1259,1338,0,0
42,-314,0,0,0,0,0,0,0,0,0,-1,1266,1338,0,0
49,-314,0,0,0,0,0,0,0,0,0,-1,1273,1338,0,0
56,-314,0,0,0,0,0,0,0,0,0,-1,1280,1338,0,0
63,-314,0,0,0,0,0,0,0,0,0,-1,1287,1338,0,0
70,-314,0,0,0,0,0,0,0,0,0,-1,1294,1338,0,0
77,-314,0,0,0,0,0,0,0,0,0,-1,1301,1338,0,0
84,-314,0,0,0,0,0,0,0,0,0,-1,1308,1338,0,0
91,-314,0,0,0,0,0,0,0,0,0,-1,1315,1338,0,0
98,-314,0,0,0,0,0,0,0,0,0,-1,1322,1338,0,0
105,-314,0,0,0,0,0,0,0,0,0,-1,1329,1338,0,0
112,-314,0,0,0,0,0,0,0,0,0,-1,1336,1338,0,0
119,-314,0,0,0,0,0,0,0,0,0,-1,1343,1338,0,0
126,-314,0,0,0,0,0,0,0,0,0,-1,1350,1338,0,0
133,-314,0,0,0,0,0,0,0,0,0,-1,1357,1338,0,0
140,-314,0,0,0,0,0,0,0,0,0,-1,1364,1338,0,0
147,-314,0,0,0,0,0,0,0,0,0,-1,1371,1338,0,0
154,-314,0,0,0,0,0,0,0,0,0,-1,1378,1338,0,0
161,-314,0,0,0,0,0,0,0,0,0,-1,1385,1338,0,0
168,-314,0,0,0,0,0,0,0,0,0,-1,1392,1338,0,0
175,-314,0,0,0,0,0,0,0,0,0,-1,1399,1338,0,0
182,-314,0,0,0,0,0,0,0,0,0,-1,1406,1338,0,0
189,-314,0,0,0,0,0,0,0,0,0,-1,1413,1338,0,0
196,-314,0,0,0,0,0,0,0,0,0,-1,1420,1338,0,0
203,-314,0,0,0,0,0,0,0,0,0,-1,1427,1338,0,0
210,-314,0,0,0,0,0,0,0,0,0,-1,1434,1338,0,0
217,-314,0,0,0,0,0,0,0,0,0,-1,1441,1338,0,0
224,-314,0,0,0,0,0,0,0,0,0,-1,1448,1338,0,0
231,-314,0,0,0,0,0,0,0,0,0,-1,1455,1338,0,0
238,-314,0,0,0,0,0,0,0,0,0,-1,1462,1338,0,0
245,-314,0,0,0,0,0,0,0,0,0,-1,1469,1338,0,0
252,-314,0,0,0,0,0,0,0,0,0,-1,1476,1338,0,0
259,-314,0,0,0,0,0,0,0,0,0,-1,1483,1338,0,0
266,-314,0,0,0,0,0,0,0,0,0,-1,1490,1338,0,0
273,-314,0,0,0,0,0,0,0,0,0,-1,1497,1338,0,0
280,-314,0,0,0,0,0,0,0,0,0,-1,1504,1338,0,0
287,-314,0,0,0,0,0,0,0,0,0,-1,1511,1338,0,0
294,-314,0,0,0,0,0,0,0,0,0,-1,1518,1338,0,0
301,-314,0,0,0,0,0,0,0,0,0,-1,1525,1338,0,0
308,-314,0,0,0,0,0,0,0,0,0,-1,1532,1338,0,0
315,-314,0,0,0,0,0,0,0,0,0,-1,1539,1338,0,0
322,-314,0,0,0,0,0,0,0,0,0,-1,1546,1338,0,0
329,-314,0,0,0,0,0,0,0,0,0,-1,1553,1338,0,0
336,-314,0,0,0,0,0,0,0,0,0,-1,1560,1338,0,0
343,-314,0,0,0,0,0,0,0,0,0,-1,1567,1338,0,0
350,-314,0,0,0,0,0,0,0,0,0,-1,1574,1338,0,0
357,-314,0,0,0,0,0,0,0,0,0,-1,1581,1338,0,0
364,-314,0,0,0,0,0,0,0,0,0,-1,1588,1338,0,0
371,-314,0,0,0,0,0,0,0,0,0,-1,1595,1338,0,0
378,-314,0,0,0,0,0,0,0,0,0,-1,1602,1338,0,0
385,-314,0,0,0,0,0,0,0,0,0,-1,1609,1338,0,0
392,-314,0,0,0,0,0,0,0,0,0,-1,1616,1338,0,0
399,-314,0,0,0,0,0,0,0,0,0,-1,1623,1338,0,0
406,-314,0,0,0,0,0,0,0,0,0,-1,1630,1338,0,0
413,-314,0,0,0,0,0,0,0,0,0,-1,1637,1338,0,0
420,-314,0,0,0,0,0,0,0,0,0,-1,1644,1338,0,0
427,-314,0,0,0,0,0,0,0,0,0,-1,1651,1338,0,0
434,-314,0,0,0,0,0,0,0,0,0,-1,1658,1338,0,0
441,-314,0,0,0,0,0,0,0,0,0,-1,1665,1338,0,0
448,-314,0,0,0,0,0,0,0,0,0,-1,1672,1338,0,0
455,-314,0,0,0,0,0,0,0,0,0,-1,1679,1338,0,0
462,-314,0,0,0,0,0,0,0,0,0,-1,1686,1338,0,0
469,-314,0,0,0,0,0,0,0,0,0,-1,1693,1338,0,0
476,-314,0,0,0,0,0,0,0,0,0,-1,1700,1338,0,0
483,-314,0,0,0,0,0,0,0,0,0,-1,1707,1338,0,0
490,-314,0,0,0,0,0,0,0,0,0,-1,1714,1338,0,0
497,-314,0,0,0,0,0,0,0,0,0,-1,1721,1338,0,0
504,-314,0,0,0,0,0,0,0,0,0,-1,1728,1338,0,0
511,-314,0,0,0,0,0,0,0,0,0,-1,1735,1338,0,0
518,-314,0,0,0,0,0,0,0,0,0,-1,1742,1338,0,0
525,-314,0,0,0,0,0,0,0,0,0,-1,1749,1338,0,0
532,-314,0,0,0,0,0,0,0,0,0,-1,1756,1338,0,0
539,-314,0,0,0,0,0,0,0,0,0,-1,1763,1338,0,0
546,-314,0,0,0,0,0,0,0,0,0,-1,1770,1338,0,0
553,-314,0,0,0,0,0,0,0,0,0,-1,1777,1338,0,0
560,-314,0,0,0,0,0,0,0,0,0,-1,1784,1338,0,0
567,-314,0,0,0,0,0,0,0,0,0,-1,1791,1338,0,0
574,-314,0,0,0,0,0,0,0,0,0,-1,1798,1338,0,0
581,-314,66.1637,1.86658,0,0,0,0,0,0,0,-1,1805,1338,66.1637,-1.86663
588,-314,66.4303,1.43481,0,0,0,0,0,0,0,-1,1812,1338,66.4303,-1.43487
595,-314,66.7465,0.982788,0,0,0,0,0,0,0,-1,1819,1338,66.7464,-0.982795
602,-314,66.322,1.38416,0,0,0,0,0,0,0,-1,1826,1338,66.322,-1.3842
609,-314,60.2225,1.27014,0,0,0,0,0,0,0,-1,1833,1338,60.2225,-1.27017
616,-314,48.1149,3.005,0,0,0,0,0,0,0,-1,1840,1338,48.1149,-3.00505
623,-314,38.7728,2.71741,0,0,0,0,0,0,0,-1,1847,1338,38.7728,-2.71737
630,-314,29.4308,6.23206,0,0,0,0,0,0,0,-1,1854,1338,29.4308,-6.23202
637,-314,22.1349,5.16418,0,0,0,0,0,0,0,-1,1861,1338,22.1349,-5.16414
644,-314,18.7517,6.2605,0,0,0,0,0,0,0,-1,1868,1338,18.7517,-6.26053
651,-314,23.1317,8.005,0,0,0,0,0,0,0,-1,1875,1338,23.1317,-8.00506
658,-314,49.9191,18.822,0,0,0,0,0,0,0,-1,1882,1338,49.9191,-18.8221
665,-314,102.126,47.7522,0,0,0,0,0,0,0,-1,1889,1338,102.126,-47.7522
672,-314,114.299,49.5934,0,0,0,0,0,0,0,-1,1896,1338,114.299,-49.5934
679,-314,113.719,47.2058,0.00127738,-0.00832097,7.58147e-05,0.00127798,-0.00832157,0.00789806,0.0060191,0.0378935,1903,1338,113.719,-47.2059
686,-314,113.224,44.8281,0,0,0,0,0,0,0,-1,1910,1338,113.224,-44.8282
693,-314,112.931,42.6602,-0.000113644,-0.00159964,0.00373317,0.00294975,-0.00466303,0.687169,0.00443219,0.0265953,1917,1338,112.931,-42.6601
700,-314,112.448,40.4076,-0.00136005,0.00163587,0.00629906,0.00661263,-0.00633681,0.902133,0.00747693,0.0217689,1924,1338,112.448,-40.4075
707,-314,112.067,38.2513,-0.00299985,0.00478157,0.00930917,0.0109804,-0.00919865,0.983338,0.0116655,0.0206185,1931,1338,112.066,-38.2514
714,-314,111.799,36.1918,-0.00508109,0.00787233,0.0127666,0.0157111,-0.0129199,1.02014,0.0165563,0.0165707,1938,1338,111.799,-36.1918
721,-314,111.394,34.1411,-0.00768807,0.0109565,0.0166919,0.0207529,-0.0174845,1.04007,0.0221032,0.0329413,1945,1338,111.394,-34.1411
728,-314,111.017,32.0593,0,0,0,0,0,0,0,-1,1952,1338,111.017,-32.0593
735,-314,26.3665,6.21582,0,0,0,0,0,0,0,-1,1959,1338,26.3664,-6.21581
742,-314,26.2235,6.0166,0,0,0,0,0,0,0,-1,1966,1338,26.2235,-6.01662
749,-314,26.2223,5.47046,0,0,0,0,0,0,0,-1,1973,1338,26.2223,-5.47041
756,-314,24.2521,5.93408,0,0,0,0,0,0,0,-1,1980,1338,24.252,-5.93413
763,-314,19.2207,4.07239,0,0,0,0,0,0,0,-1,1987,1338,19.2206,-4.07239
770,-314,0,0,0,0,0,0,0,0,0,-1,1994,1338,0,0
777,-314,0,0,0,0,0,0,0,0,0,-1,2001,1338,0,0
784,-314,0,0,0,0,0,0,0,0,0,-1,2008,1338,0,0
791,-314,0,0,0,0,0,0,0,0,0,-1,2015,1338,0,0
798,-314,0,0,0,0,0,0,0,0,0,-1,2022,1338,0,0
805,-314,0,0,0,0,0,0,0,0,0,-1,2029,1338,0,0
812,-314,0,0,0,0,0,0,0,0,0,-1,2036,1338,0,0
-700,-321,0,0,0,0,0,0,0,0,0,-1,524,1345,0,0
-693,-321,0,0,0,0,0,0,0,0,0,-1,531,1345,0,0
-686,-321,0,0,0,0,0,0,0,0,0,-1,538,1345,0,0
-679,-321,0,0,0,0,0,0,0,0,0,-1,545,1345,0,0
-672,-321,0,0,0,0,0,0,0,0,0,-1,552,1345,0,0
-665,-321,0,0,0,0,0,0,0,0,0,-1,559,1345,0,0
-658,-321,0,0,0,0,0,0,0,0,0,-1,566,1345,0,0
-651,-321,0,0,0,0,0,0,0,0,0,-1,573,1345,0,0
-644,-321,-58.7329,10.2313,0,0,0,0,0,0,0,-1,580,1345,-58.7329,-10.2313
-637,-321,-59.9981,9.06421,0,0,0,0,0,0,0,-1,587,1345,-59.9981,-9.06417
-630,-321,-61.377,8.07166,0,0,0,0,0,0,0,-1,594,1345,-61.3769,-8.07168
-623,-321,-13.2242,3.14148,0,0,0,0,0,0,0,-1,601,1345,-13.2243,-3.14146
-616,-321,-11.6754,3.13794,0,0,0,0,0,0,0,-1,608,1345,-11.6754,-3.13789
-609,-321,-7.95209,1.14758,0,0,0,0,0,0,0,-1,615,1345,-7.95208,-1.14757
-602,-321,-8.85791,2.50049,0,0,0,0,0,0,0,-1,622,1345,-8.85791,-2.50048
-595,-321,-19.8463,5.36584,0,0,0,0,0,0,0,-1,629,1345,-19.8462,-5.36589
-588,-321,-103.593,33.7686,0,0,0,0,0,0,0,-1,636,1345,-103.593,-33.7686
-581,-321,-103.875,35.9189,0.00322976,0.016502,-0.00321753,0.0172409,0.00249088,-1.34507,0.0107602,0.0191041,643,1345,-103.875,-35.9189
-574,-321,-104.225,38.1366,0.00652207,0.0113483,-0.00410155,0.0136939,0.00417641,-1.0513,0.00810417,0.0190989,650,1345,-104.225,-38.1366
-567,-321,-104.526,40.3857,0.00923237,0.00646006,-0.00508476,0.0131165,0.0025759,-0.652327,0.00802474,0.0248073,657,1345,-104.526,-40.3857
-560,-321,-104.532,42.8064,0.0113489,0.00179907,-0.00616251,0.0143699,-0.00122193,-0.455795,0.0100121,0.0425177,664,1345,-104.532,-42.8063
-553,-321,-104.492,45.0697,0,0,0,0,0,0,0,-1,671,1345,-104.492,-45.0697
-546,-321,-73.3562,38.6277,0,0,0,0,0,0,0,-1,678,1345,-73.3562,-38.6277
-539,-321,-62.9611,33.6246,0,0,0,0,0,0,0,-1,685,1345,-62.9611,-33.6247
-532,-321,-58.1584,32.4453,0,0,0,0,0,0,0,-1,692,1345,-58.1584,-32.4453
-525,-321,-60.7136,36.2605,0,0,0,0,0,0,0,-1,699,1345,-60.7136,-36.2605
-518,-321,-10.3564,6.75696,0,0,0,0,0,0,0,-1,706,1345,-10.3564,-6.75694
-511,-321,-9.3302,5.29297,0,0,0,0,0,0,0,-1,713,1345,-9.33023,-5.29294
-504,-321,-10.4713,0.0145264,0,0,0,0,0,0,0,-1,720,1345,-10.4713,-0.0145296
-497,-321,-9.96771,0.313599,0,0,0,0,0,0,0,-1,727,1345,-9.96769,-0.313618
-490,-321,-10.7631,0.973511,0,0,0,0,0,0,0,-1,734,1345,-10.7631,-0.97353
-483,-321,-17.5908,0.2323,0,0,0,0,0,0,0,-1,741,1345,-17.5908,-0.232355
-476,-321,-17.2915,0.297363,0,0,0,0,0,0,0,-1,748,1345,-17.2915,-0.297342
-469,-321,-17.2441,0.478027,0,0,0,0,0,0,0,-1,755,1345,-17.2441,-0.477994
-462,-321,-17.1672,0.526489,0,0,0,0,0,0,0,-1,762,1345,-17.1672,-0.526533
-455,-321,0,0,0,0,0,0,0,0,0,-1,769,1345,0,0
-448,-321,0,0,0,0,0,0,0,0,0,-1,776,1345,0,0
-441,-321,0,0,0,0,0,0,0,0,0,-1,783,1345,0,0
-434,-321,0,0,0,0,0,0,0,0,0,-1,790,1345,0,0
-427,-321,0,0,0,0,0,0,0,0,0,-1,797,1345,0,0
-420,-321,0,0,0,0,0,0,0,0,0,-1,804,1345,0,0
-413,-321,0,0,0,0,0,0,0,0,0,-1,811,1345,0,0
-406,-321,0,0,0,0,0,0,0,0,0,-1,818,1345,0,0
-399,-321,0,0,0,0,0,0,0,0,0,-1,825,1345,0,0
-392,-321,0,0,0,0,0,0,0,0,0,-1,832,1345,0,0
-385,-321,0,0,0,0,0,0,0,0,0,-1,839,1345,0,0
-378,-321,0,0,0,0,0,0,0,0,0,-1,846,1345,0,0
-371,-321,0,0,0,0,0,0,0,0,0,-1,853,1345,0,0
-364,-321,0,0,0,0,0,0,0,0,0,-1,860,1345,0,0
-357,-321,0,0,0,0,0,0,0,0,0,-1,867,1345,0,0
-350,-321,0,0,0,0,0,0,0,0,0,-1,874,1345,0,0
-343,-321,0,0,0,0,0,0,0,0,0,-1,881,1345,0,0
-336,-321,0,0,0,0,0,0,0,0,0,-1,888,1345,0,0
-329,-321,0,0,0,0,0,0,0,0,0,-1,895,1345,0,0
-322,-321,0,0,0,0,0,0,0,0,0,-1,902,1345,0,0
-315,-321,0,0,0,0,0,0,0,0,0,-1,909,1345,0,0
-308,-321,0,0,0,0,0,0,0,0,0,-1,916,1345,0,0
-301,-321,0,0,0,0,0,0,0,0,0,-1,923,1345,0,0
-294,-321,0,0,0,0,0,0,0,0,0,-1,930,1345,0,0
-287,-321,0,0,0,0,0,0,0,0,0,-1,937,1345,0,0
-280,-321,0,0,0,0,0,0,0,0,0,-1,944,1345,0,0
-273,-321,0,0,0,0,0,0,0,0,0,-1,951,1345,0,0
-266,-321,0,0,0,0,0,0,0,0,0,-1,958,1345,0,0
-259,-321,0,0,0,0,0,0,0,0,0,-1,965,1345,0,0
-252,-321,0,0,0,0,0,0,0,0,0,-1,972,1345,0,0
-245,-321,0,0,0,0,0,0,0,0,0,-1,979,1345,0,0
-238,-321,0,0,0,0,0,0,0,0,0,-1,986,1345,0,0
-231,-321,0,0,0,0,0,0,0,0,0,-1,993,1345,0,0
-224,-321,0,0,0,0,0,0,0,0,0,-1,1000,1345,0,0
-217,-321,0,0,0,0,0,0,0,0,0,-1,1007,1345,0,0
-210,-321,0,0,0,0,0,0,0,0,0,-1,1014,1345,0,0
-203,-321,0,0,0,0,0,0,0,0,0,-1,1021,1345,0,0
-196,-321,0,0,0,0,0,0,0,0,0,-1,1028,1345,0,0
-189,-321,0,0,0,0,0,0,0,0,0,-1,1035,1345,0,0
-182,-321,0,0,0,0,0,0,0,0,0,-1,1042,1345,0,0
-175,-321,0,0,0,0,0,0,0,0,0,-1,1049,1345,0,0
-168,-321,0,0,0,0,0,0,0,0,0,-1,1056,1345,0,0
-161,-321,0,0,0,0,0,0,0,0,0,-1,1063,1345,0,0
-154,-321,0,0,0,0,0,0,0,0,0,-1,1070,1345,0,0
-147,-321,0,0,0,0,0,0,0,0,0,-1,1077,1345,0,0
-140,-321,0,0,0,0,0,0,0,0,0,-1,1084,1345,0,0
-133,-321,0,0,0,0,0,0,0,0,0,-1,1091,1345,0,0
-126,-321,0,0,0,0,0,0,0,0,0,-1,1098,1345,0,0
-119,-321,0,0,0,0,0,0,0,0,0,-1,1105,1345,0,0
-112,-321,0,0,0,0,0,0,0,0,0,-1,1112,1345,0,0
-105,-321,0,0,0,0,0,0,0,0,0,-1,1119,1345,0,0
-98,-321,0,0,0,0,0,0,0,0,0,-1,1126,1345,0,0
-91,-321,0,0,0,0,0,0,0,0,0,-1,1133,1345,0,0
-84,-321,0,0,0,0,0,0,0,0,0,-1,1140,1345,0,0
-77,-321,0,0,0,0,0,0,0,0,0,-1,1147,1345,0,0
-70,-321,0,0,0,0,0,0,0,0,0,-1,1154,1345,0,0
-63,-321,0,0,0,0,0,0,0,0,0,-1,1161,1345,0,0
-56,-321,0,0,0,0,0,0,0,0,0,-1,1168,1345,0,0
-49,-321,0,0,0,0,0,0,0,0,0,-1,1175,1345,0,0
-42,-321,0,0,0,0,0,0,0,0,0,-1,1182,1345,0,0
-35,-321,0,0,0,0,0,0,0,0,0,-1,1189,1345,0,0
-28,-321,0,0,0,0,0,0,0,0,0,-1,1196,1345,0,0
-21,-321,0,0,0,0,0,0,0,0,0,-1,1203,1345,0,0
-14,-321,0,0,0,0,0,0,0,0,0,-1,1210,1345,0,0
-7,-321,0,0,0,0,0,0,0,0,0,-1,1217,1345,0,0
0,-321,0,0,0,0,0,0,0,0,0,-1,1224,1345,0,0
7,-321,0,0,0,0,0,0,0,0,0,-1,1231,1345,0,0
14,-321,0,0,0,0,0,0,0,0,0,-1,1238,1345,0,0
21,-321,0,0,0,0,0,0,0,0,0,-1,1245,1345,0,0
28,-321,0,0,0,0,0,0,0,0,0,-1,1252,1345,0,0
35,-321,0,0,0,0,0,0,0,0,0,-1,1259,1345,0,0
42,-321,0,0,0,0,0,0,0,0,0,-1,1266,1345,0,0
49,-321,0,0,0,0,0,0,0,0,0,-1,1273,1345,0,0
56,-321,0,0,0,0,0,0,0,0,0,-1,1280,1345,0,0
63,-321,0,0,0,0,0,0,0,0,0,-1,1287,1345,0,0
70,-321,0,0,0,0,0,0,0,0,0,-1,1294,1345,0,0
77,-321,0,0,0,0,0,0,0,0,0,-1,1301,1345,0,0
84,-321,0,0,0,0,0,0,0,0,0,-1,1308,1345,0,0
91,-321,0,0,0,0,0,0,0,0,0,-1,1315,1345,0,0
98,-321,0,0,0,0,0,0,0,0,0,-1,1322,1345,0,0
105,-321,0,0,0,0,0,0,0,0,0,-1,1329,1345,0,0
112,-321,0,0,0,0,0,0,0,0,0,-1,1336,1345,0,0
119,-321,0,0,0,0,0,0,0,0,0,-1,1343,1345,0,0
126,-321,0,0,0,0,0,0,0,0,0,-1,1350,1345,0,0
133,-321,0,0,0,0,0,0,0,0,0,-1,1357,1345,0,0
140,-321,0,0,0,0,0,0,0,0,0,-1,1364,1345,0,0
147,-321,0,0,0,0,0,0,0,0,0,-1,1371,1345,0,0
154,-321,0,0,0,0,0,0,0,0,0,-1,1378,1345,0,0
161,-321,0,0,0,0,0,0,0,0,0,-1,1385,1345,0,0
168,-321,0,0,0,0,0,0,0,0,0,-1,1392,1345,0,0
175,-321,0,0,0,0,0,0,0,0,0,-1,1399,1345,0,0
182,-321,0,0,0,0,0,0,0,0,0,-1,1406,1345,0,0
189,-321,0,0,0,0,0,0,0,0,0,-1,1413,1345,0,0
196,-321,0,0,0,0,0,0,0,0,0,-1,1420,1345,0,0
203,-321,0,0,0,0,0,0,0,0,0,-1,1427,1345,0,0
210,-321,0,0,0,0,0,0,0,0,0,-1,1434,1345,0,0
217,-321,0,0,0,0,0,0,0,0,0,-1,1441,1345,0,0
224,-321,0,0,0,0,0,0,0,0,0,-1,1448,1345,0,0
231,-321,0,0,0,0,0,0,0,0,0,-1,1455,1345,0,0
238,-321,0,0,0,0,0,0,0,0,0,-1,1462,1345,0,0
245,-321,0,0,0,0,0,0,0,0,0,-1,1469,1345,0,0
252,-321,0,0,0,0,0,0,0,0,0,-1,1476,1345,0,0
259,-321,0,0,0,0,0,0,0,0,0,-1,1483,1345,0,0
266,-321,0,0,0,0,0,0,0,0,0,-1,1490,1345,0,0
273,-321,0,0,0,0,0,0,0,0,0,-1,1497,1345,0,0
280,-321,0,0,0,0,0,0,0,0,0,-1,1504,1345,0,0
287,-321,0,0,0,0,0,0,0,0,0,-1,1511,1345,0,0
294,-321,0,0,0,0,0,0,0,0,0,-1,1518,1345,0,0
301,-321,0,0,0,0,0,0,0,0,0,-1,1525,1345,0,0
308,-321,0,0,0,0,0,0,0,0,0,-1,1532,1345,0,0
315,-321,0,0,0,0,0,0,0,0,0,-1,1539,1345,0,0
322,-321,0,0,0,0,0,0,0,0,0,-1,1546,1345,0,0
329,-321,0,0,0,0,0,0,0,0,0,-1,1553,1345,0,0
336,-321,0,0,0,0,0,0,0,0,0,-1,1560,1345,0,0
343,-321,0,0,0,0,0,0,0,0,0,-1,1567,1345,0,0
350,-321,0,0,0,0,0,0,0,0,0,-1,1574,1345,0,0
357,-321,0,0,0,0,0,0,0,0,0,-1,1581,1345,0,0
364,-321,0,0,0,0,0,0,0,0,0,-1,1588,1345,0,0
371,-321,0,0,0,0,0,0,0,0,0,-1,1595,1345,0,0
378,-321,0,0,0,0,0,0,0,0,0,-1,1602,1345,0,0
385,-321,0,0,0,0,0,0,0,0,0,-1,1609,1345,0,0
392,-321,0,0,0,0,0,0,0,0,0,-1,1616,1345,0,0
399,-321,0,0,0,0,0,0,0,0,0,-1,1623,1345,0,0
406,-321,0,0,0,0,0,0,0,0,0,-1,1630,1345,0,0
413,-321,0,0,0,0,0,0,0,0,0,-1,1637,1345,0,0
420,-321,0,0,0,0,0,0,0,0,0,-1,1644,1345,0,0
427,-321,0,0,0,0,0,0,0,0,0,-1,1651,1345,0,0
434,-321,0,0,0,0,0,0,0,0,0,-1,1658,1345,0,0
441,-321,0,0,0,0,0,0,0,0,0,-1,1665,1345,0,0
448,-321,0,0,0,0,0,0,0,0,0,-1,1672,1345,0,0
455,-321,0,0,0,0,0,0,0,0,0,-1,1679,1345,0,0
462,-321,0,0,0,0,0,0,0,0,0,-1,1686,1345,0,0
469,-321,0,0,0,0,0,0,0,0,0,-1,1693,1345,0,0
476,-321,0,0,0,0,0,0,0,0,0,-1,1700,1345,0,0
483,-321,0,0,0,0,0,0,0,0,0,-1,1707,1345,0,0
490,-321,0,0,0,0,0,0,0,0,0,-1,1714,1345,0,0
497,-321,0,0,0,0,0,0,0,0,0,-1,1721,1345,0,0
504,-321,0,0,0,0,0,0,0,0,0,-1,1728,1345,0,0
511,-321,0,0,0,0,0,0,0,0,0,-1,1735,1345,0,0
518,-321,0,0,0,0,0,0,0,0,0,-1,1742,1345,0,0
525,-321,0,0,0,0,0,0,0,0,0,-1,1749,1345,0,0
532,-321,0,0,0,0,0,0,0,0,0,-1,1756,1345,0,0
539,-321,0,0,0,0,0,0,0,0,0,-1,1763,1345,0,0
546,-321,0,0,0,0,0,0,0,0,0,-1,1770,1345,0,0
553,-321,0,0,0,0,0,0,0,0,0,-1,1777,1345,0,0
560,-321,0,0,0,0,0,0,0,0,0,-1,1784,1345,0,0
567,-321,0,0,0,0,0,0,0,0,0,-1,1791,1345,0,0
574,-321,0,0,0,0,0,0,0,0,0,-1,1798,1345,0,0
581,-321,66.1073,1.6543,0,0,0,0,0,0,0,-1,1805,1345,66.1073,-1.65427
588,-321,66.6576,0.7948,0,0,0,0,0,0,0,-1,1812,1345,66.6575,-0.794774
595,-321,67.2585,-0.216431,0,0,0,0,0,0,0,-1,1819,1345,67.2586,0.216484
602,-321,60.3523,1.24133,0,0,0,0,0,0,0,-1,1826,1345,60.3523,-1.2413
609,-321,48.311,3.39575,0,0,0,0,0,0,0,-1,1833,1345,48.311,-3.39571
616,-321,37.8107,2.58704,0,0,0,0,0,0,0,-1,1840,1345,37.8106,-2.58705
623,-321,37.6854,3.68933,0,0,0,0,0,0,0,-1,1847,1345,37.6854,-3.68931
630,-321,23.6674,4.34106,0,0,0,0,0,0,0,-1,1854,1345,23.6674,-4.34112
637,-321,21.7925,6.79224,0,0,0,0,0,0,0,-1,1861,1345,21.7925,-6.7922
644,-321,16.8844,6.71973,0,0,0,0,0,0,0,-1,1868,1345,16.8844,-6.71971
651,-321,27.4924,10.0319,0,0,0,0,0,0,0,-1,1875,1345,27.4924,-10.0319
658,-321,66.9578,30.2902,0,0,0,0,0,0,0,-1,1882,1345,66.9577,-30.2901
665,-321,90.8429,42.8761,0,0,0,0,0,0,0,-1,1889,1345,90.8429,-42.8761
672,-321,112.26,50.094,0,0,0,0,0,0,0,-1,1896,1345,112.26,-50.0939
679,-321,111.573,47.8147,0,0,0,0,0,0,0,-1,1903,1345,111.572,-47.8147
686,-321,110.505,44.9059,0,0,0,0,0,0,0,-1,1910,1345,110.505,-44.9059
693,-321,110.53,43.1814,-0.000476584,-0.000973785,0.00514647,0.00442729,-0.00587766,0.761264,0.00596917,0.0181286,1917,1345,110.53,-43.1814
700,-321,110.156,40.8513,-0.0011883,0.00211824,0.00706278,0.00771867,-0.00678873,0.900369,0.00838159,0.0181082,1924,1345,110.157,-40.8513
707,-321,109.824,38.6282,-0.00218178,0.00516299,0.00938357,0.0115672,-0.008586,0.971918,0.0116778,0.0203104,1931,1345,109.824,-38.6281
714,-321,109.461,36.4714,-0.00352972,0.00820748,0.0121312,0.015815,-0.0111373,1.01068,0.0156388,0.0189601,1938,1345,109.461,-36.4715
721,-321,108.994,34.5243,0,0,0,0,0,0,0,-1,1945,1345,108.994,-34.5243
728,-321,69.6017,20.2322,0,0,0,0,0,0,0,-1,1952,1345,69.6017,-20.2322
735,-321,22.0081,5.65479,0,0,0,0,0,0,0,-1,1959,1345,22.008,-5.65481
742,-321,24.5398,5.05725,0,0,0,0,0,0,0,-1,1966,1345,24.5398,-5.05729
749,-321,24.0675,5.4458,0,0,0,0,0,0,0,-1,1973,1345,24.0675,-5.44581
756,-321,19.6251,4.98315,0,0,0,0,0,0,0,-1,1980,1345,19.6251,-4.98311
763,-321,19.6747,4.61438,0,0,0,0,0,0,0,-1,1987,1345,19.6747,-4.61436
770,-321,0,0,0,0,0,0,0,0,0,-1,1994,1345,0,0
777,-321,0,0,0,0,0,0,0,0,0,-1,2001,1345,0,0
784,-321,0,0,0,0,0,0,0,0,0,-1,2008,1345,0,0
791,-321,0,0,0,0,0,0,0,0,0,-1,2015,1345,0,0
798,-321,0,0,0,0,0,0,0,0,0,-1,2022,1345,0,0
805,-321,0,0,0,0,0,0,0,0,0,-1,2029,1345,0,0
812,-321,0,0,0,0,0,0,0,0,0,-1,2036,1345,0,0
-700,-328,0,0,0,0,0,0,0,0,0,-1,524,1352,0,0
-693,-328,0,0,0,0,0,0,0,0,0,-1,531,1352,0,0
-686,-328,0,0,0,0,0,0,0,0,0,-1,538,1352,0,0
-679,-328,0,0,0,0,0,0,0,0,0,-1,545,1352,0,0
-672,-328,0,0,0,0,0,0,0,0,0,-1,552,1352,0,0
-665,-328,0,0,0,0,0,0,0,0,0,-1,559,1352,0,0
-658,-328,0,0,0,0,0,0,0,0,0,-1,566,1352,0,0
-651,-328,0,0,0,0,0,0,0,0,0,-1,573,1352,0,0
-644,-328,0,0,0,0,0,0,0,0,0,-1,580,1352,0,0
-637,-328,-61.3883,10.1125,0,0,0,0,0,0,0,-1,587,1352,-61.3883,-10.1126
-630,-328,-62.8012,9.14563,0,0,0,0,0,0,0,-1,594,1352,-62.8012,-9.14564
-623,-328,-10.7739,4.55042,0,0,0,0,0,0,0,-1,601,1352,-10.7739,-4.55041
-616,-328,-8.22198,-0.25708,0,0,0,0,0,0,0,-1,608,1352,-8.22201,0.257067
-609,-328,-7.87439,0.192871,0,0,0,0,0,0,0,-1,615,1352,-7.87441,-0.192822
-602,-328,-7.63062,1.31665,0,0,0,0,0,0,0,-1,622,1352,-7.63064,-1.3166
-595,-328,-9.42639,2.93494,0,0,0,0,0,0,0,-1,629,1352,-9.42638,-2.93499
-588,-328,-101.287,33.6194,0,0,0,0,0,0,0,-1,636,1352,-101.287,-33.6194
-581,-328,-101.57,36.1459,0.0041829,0.0177801,-0.00200557,0.0180698,0.00389325,-1.42737,0.0109813,0.0438902,643,1352,-101.57,-36.1458
-574,-328,-101.941,38.4193,0.00707662,0.0127904,-0.0029612,0.0140482,0.00581883,-1.16913,0.00815041,0.0186132,650,1352,-101.941,-38.4193
-567,-328,-102.249,40.6425,0.00943065,0.00803003,-0.00394586,0.0127379,0.00472282,-0.697572,0.00743564,0.0246906,657,1352,-102.249,-40.6425
-560,-328,-102.286,43.0052,0.0112811,0.00347432,-0.0049401,0.0136738,0.0010816,-0.451048,0.00877757,0.0372949,664,1352,-102.286,-43.0052
-553,-328,-102.331,45.2719,0,0,0,0,0,0,0,-1,671,1352,-102.331,-45.2718
-546,-328,-74.9383,40.7139,0,0,0,0,0,0,0,-1,678,1352,-74.9383,-40.7139
-539,-328,-67.9141,38.4679,0,0,0,0,0,0,0,-1,685,1352,-67.9141,-38.468
-532,-328,-63.8609,37.8448,0,0,0,0,0,0,0,-1,692,1352,-63.8609,-37.8448
-525,-328,-58.8255,36.8346,0,0,0,0,0,0,0,-1,699,1352,-58.8255,-36.8346
-518,-328,-66.7287,42.3196,0,0,0,0,0,0,0,-1,706,1352,-66.7287,-42.3196
-511,-328,-9.39868,7.16113,0,0,0,0,0,0,0,-1,713,1352,-9.39869,-7.16113
-504,-328,-8.60626,-0.905762,0,0,0,0,0,0,0,-1,720,1352,-8.60623,0.905787
-497,-328,-9.29102,-0.0517578,0,0,0,0,0,0,0,-1,727,1352,-9.29104,0.0518175
-490,-328,-10.0663,0.882813,0,0,0,0,0,0,0,-1,734,1352,-10.0663,-0.882795
-483,-328,-10.8181,1.72375,0,0,0,0,0,0,0,-1,741,1352,-10.8181,-1.72374
-476,-328,-16.8951,-0.150757,0,0,0,0,0,0,0,-1,748,1352,-16.8951,0.150795
-469,-328,-16.8412,0.00158691,0,0,0,0,0,0,0,-1,755,1352,-16.8412,-0.00161515
-462,-328,-16.3546,-0.203491,0,0,0,0,0,0,0,-1,762,1352,-16.3545,0.203532
-455,-328,0,0,0,0,0,0,0,0,0,-1,769,1352,0,0
-448,-328,0,0,0,0,0,0,0,0,0,-1,776,1352,0,0
-441,-328,0,0,0,0,0,0,0,0,0,-1,783,1352,0,0
-434,-328,0,0,0,0,0,0,0,0,0,-1,790,1352,0,0
-427,-328,0,0,0,0,0,0,0,0,0,-1,797,1352,0,0
-420,-328,0,0,0,0,0,0,0,0,0,-1,804,1352,0,0
-413,-328,0,0,0,0,0,0,0,0,0,-1,811,1352,0,0
-406,-328,0,0,0,0,0,0,0,0,0,-1,818,1352,0,0
-399,-328,0,0,0,0,0,0,0,0,0,-1,825,1352,0,0
-392,-328,0,0,0,0,0,0,0,0,0,-1,832,1352,0,0
-385,-328,0,0,0,0,0,0,0,0,0,-1,839,1352,0,0
-378,-328,0,0,0,0,0,0,0,0,0,-1,846,1352,0,0
-371,-328,0,0,0,0,0,0,0,0,0,-1,853,1352,0,0
-364,-328,0,0,0,0,0,0,0,0,0,-1,860,1352,0,0
-357,-328,0,0,0,0,0,0,0,0,0,-1,867,1352,0,0
-350,-328,0,0,0,0,0,0,0,0,0,-1,874,1352,0,0
-343,-328,0,0,0,0,0,0,0,0,0,-1,881,1352,0,0
-336,-328,0,0,0,0,0,0,0,0,0,-1,888,1352,0,0
-329,-328,0,0,0,0,0,0,0,0,0,-1,895,1352,0,0
-322,-328,0,0,0,0,0,0,0,0,0,-1,902,1352,0,0
-315,-328,0,0,0,0,0,0,0,0,0,-1,909,1352,0,0
-308,-328,0,0,0,0,0,0,0,0,0,-1,916,1352,0,0
-301,-328,0,0,0,0,0,0,0,0,0,-1,923,1352,0,0
-294,-328,0,0,0,0,0,0,0,0,0,-1,930,1352,0,0
-287,-328,0,0,0,0,0,0,0,0,0,-1,937,1352,0,0
-280,-328,0,0,0,0,0,0,0,0,0,-1,944,1352,0,0
-273,-328,0,0,0,0,0,0,0,0,0,-1,951,1352,0,0
-266,-328,0,0,0,0,0,0,0,0,0,-1,958,1352,0,0
-259,-328,0,0,0,0,0,0,0,0,0,-1,965,1352,0,0
-252,-328,0,0,0,0,0,0,0,0,0,-1,972,1352,0,0
-245,-328,0,0,0,0,0,0,0,0,0,-1,979,1352,0,0
-238,-328,0,0,0,0,0,0,0,0,0,-1,986,1352,0,0
-231,-328,0,0,0,0,0,0,0,0,0,-1,993,1352,0,0
-224,-328,0,0,0,0,0,0,0,0,0,-1,1000,1352,0,0
-217,-328,0,0,0,0,0,0,0,0,0,-1,1007,1352,0,0
-210,-328,0,0,0,0,0,0,0,0,0,-1,1014,1352,0,0
-203,-328,0,0,0,0,0,0,0,0,0,-1,1021,1352,0,0
-196,-328,0,0,0,0,0,0,0,0,0,-1,1028,1352,0,0
-189,-328,0,0,0,0,0,0,0,0,0,-1,1035,1352,0,0
-182,-328,0,0,0,0,0,0,0,0,0,-1,1042,1352,0,0
-175,-328,0,0,0,0,0,0,0,0,0,-1,1049,1352,0,0
-168,-328,0,0,0,0,0,0,0,0,0,-1,1056,1352,0,0
-161,-328,0,0,0,0,0,0,0,0,0,-1,1063,1352,0,0
-154,-328,0,0,0,0,0,0,0,0,0,-1,1070,1352,0,0
-147,-328,0,0,0,0,0,0,0,0,0,-1,1077,1352,0,0
-140,-328,0,0,0,0,0,0,0,0,0,-1,1084,1352,0,0
-133,-328,0,0,0,0,0,0,0,0,0,-1,1091,1352,0,0
-126,-328,0,0,0,0,0,0,0,0,0,-1,1098,1352,0,0
-119,-328,0,0,0,0,0,0,0,0,0,-1,1105,1352,0,0
-112,-328,0,0,0,0,0,0,0,0,0,-1,1112,1352,0,0
-105,-328,0,0,0,0,0,0,0,0,0,-1,1119,1352,0,0
-98,-328,0,0,0,0,0,0,0,0,0,-1,1126,1352,0,0
-91,-328,0,0,0,0,0,0,0,0,0,-1,1133,1352,0,0
-84,-328,0,0,0,0,0,0,0,0,0,-1,1140,1352,0,0
-77,-328,0,0,0,0,0,0,0,0,0,-1,1147,1352,0,0
-70,-328,0,0,0,0,0,0,0,0,0,-1,1154,1352,0,0
-63,-328,0,0,0,0,0,0,0,0,0,-1,1161,1352,0,0
-56,-328,0,0,0,0,0,0,0,0,0,-1,1168,1352,0,0
-49,-328,0,0,0,0,0,0,0,0,0,-1,1175,1352,0,0
-42,-328,0,0,0,0,0,0,0,0,0,-1,1182,1352,0,0
-35,-328,0,0,0,0,0,0,0,0,0,-1,1189,1352,0,0
-28,-328,0,0,0,0,0,0,0,0,0,-1,1196,1352,0,0
-21,-328,0,0,0,0,0,0,0,0,0,-1,1203,1352,0,0
-14,-328,0,0,0,0,0,0,0,0,0,-1,1210,1352,0,0
-7,-328,0,0,0,0,0,0,0,0,0,-1,1217,1352,0,0
0,-328,0,0,0,0,0,0,0,0,0,-1,1224,1352,0,0
7,-328,0,0,0,0,0,0,0,0,0,-1,1231,1352,0,0
14,-328,0,0,0,0,0,0,0,0,0,-1,1238,1352,0,0
21,-328,0,0,0,0,0,0,0,0,0,-1,1245,1352,0,0
28,-328,0,0,0,0,0,0,0,0,0,-1,1252,1352,0,0
35,-328,0,0,0,0,0,0,0,0,0,-1,1259,1352,0,0
42,-328,0,0,0,0,0,0,0,0,0,-1,1266,1352,0,0
49,-328,0,0,0,0,0,0,0,0,0,-1,1273,1352,0,0
56,-328,0,0,0,0,0,0,0,0,0,-1,1280,1352,0,0
63,-328,0,0,0,0,0,0,0,0,0,-1,1287,1352,0,0
70,-328,0,0,0,0,0,0,0,0,0,-1,1294,1352,0,0
77,-328,0,0,0,0,0,0,0,0,0,-1,1301,1352,0,0
84,-328,0,0,0,0,0,0,0,0,0,-1,1308,1352,0,0
91,-328,0,0,0,0,0,0,0,0,0,-1,1315,1352,0,0
98,-328,0,0,0,0,0,0,0,0,0,-1,1322,1352,0,0
105,-328,0,0,0,0,0,0,0,0,0,-1,1329,1352,0,0
112,-328,0,0,0,0,0,0,0,0,0,-1,1336,1352,0,0
119,-328,0,0,0,0,0,0,0,0,0,-1,1343,1352,0,0
126,-328,0,0,0,0,0,0,0,0,0,-1,1350,1352,0,0
133,-328,0,0,0,0,0,0,0,0,0,-1,1357,1352,0,0
140,-328,0,0,0,0,0,0,0,0,0,-1,1364,1352,0,0
147,-328,0,0,0,0,0,0,0,0,0,-1,1371,1352,0,0
154,-328,0,0,0,0,0,0,0,0,0,-1,1378,1352,0,0
161,-328,0,0,0,0,0,0,0,0,0,-1,1385,1352,0,0
168,-328,0,0,0,0,0,0,0,0,0,-1,1392,1352,0,0
175,-328,0,0,0,0,0,0,0,0,0,-1,1399,1352,0,0
182,-328,0,0,0,0,0,0,0,0,0,-1,1406,1352,0,0
189,-328,0,0,0,0,0,0,0,0,0,-1,1413,1352,0,0
196,-328,0,0,0,0,0,0,0,0,0,-1,1420,1352,0,0
203,-328,0,0,0,0,0,0,0,0,0,-1,1427,1352,0,0
210,-328,0,0,0,0,0,0,0,0,0,-1,1434,1352,0,0
217,-328,0,0,0,0,0,0,0,0,0,-1,1441,1352,0,0
224,-328,0,0,0,0,0,0,0,0,0,-1,1448,1352,0,0
231,-328,0,0,0,0,0,0,0,0,0,-1,1455,1352,0,0
238,-328,0,0,0,0,0,0,0,0,0,-1,1462,1352,0,0
245,-328,0,0,0,0,0,0,0,0,0,-1,1469,1352,0,0
252,-328,0,0,0,0,0,0,0,0,0,-1,1476,1352,0,0
259,-328,0,0,0,0,0,0,0,0,0,-1,1483,1352,0,0
266,-328,0,0,0,0,0,0,0,0,0,-1,1490,1352,0,0
273,-328,0,0,0,0,0,0,0,0,0,-1,1497,1352,0,0
280,-328,0,0,0,0,0,0,0,0,0,-1,1504,1352,0,0
287,-328,0,0,0,0,0,0,0,0,0,-1,1511,1352,0,0
294,-328,0,0,0,0,0,0,0,0,0,-1,1518,1352,0,0
301,-328,0,0,0,0,0,0,0,0,0,-1,1525,1352,0,0
308,-328,0,0,0,0,0,0,0,0,0,-1,1532,1352,0,0
315,-328,0,0,0,0,0,0,0,0,0,-1,1539,1352,0,0
322,-328,0,0,0,0,0,0,0,0,0,-1,1546,1352,0,0
329,-328,0,0,0,0,0,0,0,0,0,-1,1553,1352,0,0
336,-328,0,0,0,0,0,0,0,0,0,-1,1560,1352,0,0
343,-328,0,0,0,0,0,0,0,0,0,-1,1567,1352,0,0
350,-328,0,0,0,0,0,0,0,0,0,-1,1574,1352,0,0
357,-328,0,0,0,0,0,0,0,0,0,-1,1581,1352,0,0
364,-328,0,0,0,0,0,0,0,0,0,-1,1588,1352,0,0
371,-328,0,0,0,0,0,0,0,0,0,-1,1595,1352,0,0
378,-328,0,0,0,0,0,0,0,0,0,-1,1602,1352,0,0
385,-328,0,0,0,0,0,0,0,0,0,-1,1609,1352,0,0
392,-328,0,0,0,0,0,0,0,0,0,-1,1616,1352,0,0
399,-328,0,0,0,0,0,0,0,0,0,-1,1623,1352,0,0
406,-328,0,0,0,0,0,0,0,0,0,-1,1630,1352,0,0
413,-328,0,0,0,0,0,0,0,0,0,-1,1637,1352,0,0
420,-328,0,0,0,0,0,0,0,0,0,-1,1644,1352,0,0
427,-328,0,0,0,0,0,0,0,0,0,-1,1651,1352,0,0
434,-328,0,0,0,0,0,0,0,0,0,-1,1658,1352,0,0
441,-328,0,0,0,0,0,0,0,0,0,-1,1665,1352,0,0
448,-328,0,0,0,0,0,0,0,0,0,-1,1672,1352,0,0
455,-328,0,0,0,0,0,0,0,0,0,-1,1679,1352,0,0
462,-328,0,0,0,0,0,0,0,0,0,-1,1686,1352,0,0
469,-328,0,0,0,0,0,0,0,0,0,-1,1693,1352,0,0
476,-328,0,0,0,0,0,0,0,0,0,-1,1700,1352,0,0
483,-328,0,0,0,0,0,0,0,0,0,-1,1707,1352,0,0
490,-328,0,0,0,0,0,0,0,0,0,-1,1714,1352,0,0
497,-328,0,0,0,0,0,0,0,0,0,-1,1721,1352,0,0
504,-328,0,0,0,0,0,0,0,0,0,-1,1728,1352,0,0
511,-328,0,0,0,0,0,0,0,0,0,-1,1735,1352,0,0
518,-328,0,0,0,0,0,0,0,0,0,-1,1742,1352,0,0
525,-328,0,0,0,0,0,0,0,0,0,-1,1749,1352,0,0
532,-328,0,0,0,0,0,0,0,0,0,-1,1756,1352,0,0
539,-328,0,0,0,0,0,0,0,0,0,-1,1763,1352,0,0
546,-328,0,0,0,0,0,0,0,0,0,-1,1770,1352,0,0
553,-328,0,0,0,0,0,0,0,0,0,-1,1777,1352,0,0
560,-328,0,0,0,0,0,0,0,0,0,-1,1784,1352,0,0
567,-328,0,0,0,0,0,0,0,0,0,-1,1791,1352,0,0
574,-328,65.0565,3.09021,0,0,0,0,0,0,0,-1,1798,1352,65.0565,-3.09019
581,-328,66.3988,1.74048,0,0,0,0,0,0,0,-1,1805,1352,66.3989,-1.74051
588,-328,67.0304,0.506714,0,0,0,0,0,0,0,-1,1812,1352,67.0304,-0.506669
595,-328,60.5831,1.52856,0,0,0,0,0,0,0,-1,1819,1352,60.5832,-1.52861
602,-328,48.7734,3.66785,0,0,0,0,0,0,0,-1,1826,1352,48.7734,-3.66782
609,-328,37.0468,1.17407,0,0,0,0,0,0,0,-1,1833,1352,37.0468,-1.17407
616,-328,36.999,2.42859,0,0,0,0,0,0,0,-1,1840,1352,36.999,-2.42862
623,-328,34.345,5.14722,0,0,0,0,0,0,0,-1,1847,1352,34.3449,-5.14718
630,-328,22.0211,5.026,0,0,0,0,0,0,0,-1,1854,1352,22.0212,-5.02603
637,-328,21.15,5.53699,0,0,0,0,0,0,0,-1,1861,1352,21.15,-5.53704
644,-328,16.9579,6.3396,0,0,0,0,0,0,0,-1,1868,1352,16.9579,-6.33959
651,-328,36.2629,14.6906,0,0,0,0,0,0,0,-1,1875,1352,36.263,-14.6905
658,-328,74.4406,36.167,0,0,0,0,0,0,0,-1,1882,1352,74.4405,-36.167
665,-328,86.4988,42.1331,0,0,0,0,0,0,0,-1,1889,1352,86.4988,-42.133
672,-328,109.618,50.1613,0,0,0,0,0,0,0,-1,1896,1352,109.618,-50.1613
679,-328,109.249,47.8527,0.000530568,-0.00604901,0.00434476,0.00269051,-0.00820896,0.461356,0.00655616,0.033399,1903,1352,109.249,-47.8527
686,-328,108.592,45.7516,0.000328847,-0.00323379,0.00504952,0.00390204,-0.00680698,0.615828,0.00625822,0.0276514,1910,1352,108.592,-45.7516
693,-328,108.229,43.4889,5.8178e-05,-0.000317371,0.00598715,0.00586049,-0.00611969,0.769722,0.0069173,0.0157425,1917,1352,108.229,-43.4889
700,-328,107.859,41.1962,-0.000325349,0.00265572,0.00720212,0.00851993,-0.00618955,0.887437,0.00852798,0.0201053,1924,1352,107.859,-41.1962
707,-328,107.499,38.9623,-0.000921966,0.00566693,0.00875323,0.0117251,-0.00698019,0.965383,0.0109147,0.0226966,1931,1352,107.499,-38.9623
714,-328,107.141,36.7506,-0.00173094,0.00878292,0.0106415,0.0153951,-0.00834317,1.01482,0.0139055,0.033945,1938,1352,107.141,-36.7506
721,-328,106.819,34.3608,0,0,0,0,0,0,0,-1,1945,1352,106.819,-34.3609
728,-328,29.2787,6.74695,0,0,0,0,0,0,0,-1,1952,1352,29.2787,-6.74693
735,-328,20.8927,5.23523,0,0,0,0,0,0,0,-1,1959,1352,20.8927,-5.23528
742,-328,20.3547,4.11316,0,0,0,0,0,0,0,-1,1966,1352,20.3547,-4.11321
749,-328,20.0669,5.66321,0,0,0,0,0,0,0,-1,1973,1352,20.0669,-5.66319
756,-328,19.9543,5.50464,0,0,0,0,0,0,0,-1,1980,1352,19.9543,-5.50463
763,-328,0,0,0,0,0,0,0,0,0,-1,1987,1352,0,0
770,-328,0,0,0,0,0,0,0,0,0,-1,1994,1352,0,0
777,-328,0,0,0,0,0,0,0,0,0,-1,2001,1352,0,0
784,-328,0,0,0,0,0,0,0,0,0,-1,2008,1352,0,0
791,-328,0,0,0,0,0,0,0,0,0,-1,2015,1352,0,0
798,-328,0,0,0,0,0,0,0,0,0,-1,2022,1352,0,0
805,-328,0,0,0,0,0,0,0,0,0,-1,2029,1352,0,0
812,-328,0,0,0,0,0,0,0,0,0,-1,2036,1352,0,0
-700,-335,0,0,0,0,0,0,0,0,0,-1,524,1359,0,0
-693,-335,0,0,0,0,0,0,0,0,0,-1,531,1359,0,0
-686,-335,0,0,0,0,0,0,0,0,0,-1,538,1359,0,0
-679,-335,0,0,0,0,0,0,0,0,0,-1,545,1359,0,0
-672,-335,0,0,0,0,0,0,0,0,0,-1,552,1359,0,0
-665,-335,0,0,0,0,0,0,0,0,0,-1,559,1359,0,0
-658,-335,0,0,0,0,0,0,0,0,0,-1,566,1359,0,0
-651,-335,0,0,0,0,0,0,0,0,0,-1,573,1359,0,0
-644,-335,0,0,0,0,0,0,0,0,0,-1,580,1359,0,0
-637,-335,-62.7114,11.0491,0,0,0,0,0,0,0,-1,587,1359,-62.7114,-11.0491
-630,-335,-64.2532,9.91284,0,0,0,0,0,0,0,-1,594,1359,-64.2532,-9.91285
-623,-335,-8.43304,1.09509,0,0,0,0,0,0,0,-1,601,1359,-8.43301,-1.09507
-616,-335,-7.80927,-0.485352,0,0,0,0,0,0,0,-1,608,1359,-7.80926,0.485291
-609,-335,-7.12256,-2.03601,0,0,0,0,0,0,0,-1,615,1359,-7.12253,2.03601
-602,-335,-9.39935,2.25146,0,0,0,0,0,0,0,-1,622,1359,-9.39935,-2.25145
-595,-335,-9.54767,3.01917,0,0,0,0,0,0,0,-1,629,1359,-9.54768,-3.01911
-588,-335,-34.9862,13.5168,0,0,0,0,0,0,0,-1,636,1359,-34.9862,-13.5169
-581,-335,-99.4147,36.3347,0,0,0,0,0,0,0,-1,643,1359,-99.4147,-36.3348
-574,-335,-99.588,38.7101,0.0077693,0.0141489,-0.00171962,0.0145829,0.0073353,-1.32358,0.00841951,0.0164975,650,1359,-99.588,-38.7101
-567,-335,-99.9169,40.9888,0.00947339,0.00937777,-0.00278492,0.0122109,0.00664024,-0.776815,0.00705898,0.0222124,657,1359,-99.9169,-40.9887
-560,-335,-100.194,43.2462,0.0105886,0.00516841,-0.00359821,0.0123832,0.00337388,-0.462631,0.00739208,0.0325124,664,1359,-100.194,-43.2462
-553,-335,-100.441,45.4559,0,0,0,0,0,0,0,-1,671,1359,-100.441,-45.456
-546,-335,-89.8048,45.8964,0,0,0,0,0,0,0,-1,678,1359,-89.8048,-45.8963
-539,-335,-70.172,41.3423,0,0,0,0,0,0,0,-1,685,1359,-70.172,-41.3422
-532,-335,-66.527,40.0629,0,0,0,0,0,0,0,-1,692,1359,-66.527,-40.0629
-525,-335,-64.6355,40.8328,0,0,0,0,0,0,0,-1,699,1359,-64.6355,-40.8328
-518,-335,-64.9236,42.5958,0,0,0,0,0,0,0,-1,706,1359,-64.9236,-42.5958
-511,-335,-65.4062,44.1842,0,0,0,0,0,0,0,-1,713,1359,-65.4062,-44.1843
-504,-335,-9.35767,5.99695,0,0,0,0,0,0,0,-1,720,1359,-9.35767,-5.99694
-497,-335,-8.75024,-0.650513,0,0,0,0,0,0,0,-1,727,1359,-8.75024,0.650521
-490,-335,-9.51971,0.417603,0,0,0,0,0,0,0,-1,734,1359,-9.51974,-0.41765
-483,-335,-10.2883,1.29224,0,0,0,0,0,0,0,-1,741,1359,-10.2883,-1.2922
-476,-335,-11.9938,-0.173462,0,0,0,0,0,0,0,-1,748,1359,-11.9938,0.173429
-469,-335,-12.8704,-0.204102,0,0,0,0,0,0,0,-1,755,1359,-12.8704,0.204117
-462,-335,-13.486,0.0218506,0,0,0,0,0,0,0,-1,762,1359,-13.4859,-0.0217908
-455,-335,-14.1504,0.549561,0,0,0,0,0,0,0,-1,769,1359,-14.1504,-0.549583
-448,-335,0,0,0,0,0,0,0,0,0,-1,776,1359,0,0
-441,-335,0,0,0,0,0,0,0,0,0,-1,783,1359,0,0
-434,-335,0,0,0,0,0,0,0,0,0,-1,790,1359,0,0
-427,-335,0,0,0,0,0,0,0,0,0,-1,797,1359,0,0
-420,-335,0,0,0,0,0,0,0,0,0,-1,804,1359,0,0
-413,-335,0,0,0,0,0,0,0,0,0,-1,811,1359,0,0
-406,-335,0,0,0,0,0,0,0,0,0,-1,818,1359,0,0
-399,-335,0,0,0,0,0,0,0,0,0,-1,825,1359,0,0
-392,-335,0,0,0,0,0,0,0,0,0,-1,832,1359,0,0
-385,-335,0,0,0,0,0,0,0,0,0,-1,839,1359,0,0
-378,-335,0,0,0,0,0,0,0,0,0,-1,846,1359,0,0
-371,-335,0,0,0,0,0,0,0,0,0,-1,853,1359,0,0
-364,-335,0,0,0,0,0,0,0,0,0,-1,860,1359,0,0
-357,-335,0,0,0,0,0,0,0,0,0,-1,867,1359,0,0
-350,-335,0,0,0,0,0,0,0,0,0,-1,874,1359,0,0
-343,-335,0,0,0,0,0,0,0,0,0,-1,881,1359,0,0
-336,-335,0,0,0,0,0,0,0,0,0,-1,888,1359,0,0
-329,-335,0,0,0,0,0,0,0,0,0,-1,895,1359,0,0
-322,-335,0,0,0,0,0,0,0,0,0,-1,902,1359,0,0
-315,-335,0,0,0,0,0,0,0,0,0,-1,909,1359,0,0
-308,-335,0,0,0,0,0,0,0,0,0,-1,916,1359,0,0
-301,-335,0,0,0,0,0,0,0,0,0,-1,923,1359,0,0
-294,-335,0,0,0,0,0,0,0,0,0,-1,930,1359,0,0
-287,-335,0,0,0,0,0,0,0,0,0,-1,937,1359,0,0
-280,-335,0,0,0,0,0,0,0,0,0,-1,944,1359,0,0
-273,-335,0,0,0,0,0,0,0,0,0,-1,951,1359,0,0
-266,-335,0,0,0,0,0,0,0,0,0,-1,958,1359,0,0
-259,-335,0,0,0,0,0,0,0,0,0,-1,965,1359,0,0
-252,-335,0,0,0,0,0,0,0,0,0,-1,972,1359,0,0
-245,-335,0,0,0,0,0,0,0,0,0,-1,979,1359,0,0
-238,-335,0,0,0,0,0,0,0,0,0,-1,986,1359,0,0
-231,-335,0,0,0,0,0,0,0,0,0,-1,993,1359,0,0
-224,-335,0,0,0,0,0,0,0,0,0,-1,1000,1359,0,0
-217,-335,0,0,0,0,0,0,0,0,0,-1,1007,1359,0,0
-210,-335,0,0,0,0,0,0,0,0,0,-1,1014,1359,0,0
-203,-335,0,0,0,0,0,0,0,0,0,-1,1021,1359,0,0
-196,-335,0,0,0,0,0,0,0,0,0,-1,1028,1359,0,0
-189,-335,0,0,0,0,0,0,0,0,0,-1,1035,1359,0,0
-182,-335,0,0,0,0,0,0,0,0,0,-1,1042,1359,0,0
-175,-335,0,0,0,0,0,0,0,0,0,-1,1049,1359,0,0
-168,-335,0,0,0,0,0,0,0,0,0,-1,1056,1359,0,0
-161,-335,0,0,0,0,0,0,0,0,0,-1,1063,1359,0,0
-154,-335,0,0,0,0,0,0,0,0,0,-1,1070,1359,0,0
-147,-335,0,0,0,0,0,0,0,0,0,-1,1077,1359,0,0
-140,-335,0,0,0,0,0,0,0,0,0,-1,1084,1359,0,0
-133,-335,0,0,0,0,0,0,0,0,0,-1,1091,1359,0,0
-126,-335,0,0,0,0,0,0,0,0,0,-1,1098,1359,0,0
-119,-335,0,0,0,0,0,0,0,0,0,-1,1105,1359,0,0
-112,-335,0,0,0,0,0,0,0,0,0,-1,1112,1359,0,0
-105,-335,0,0,0,0,0,0,0,0,0,-1,1119,1359,0,0
-98,-335,0,0,0,0,0,0,0,0,0,-1,1126,1359,0,0
-91,-335,0,0,0,0,0,0,0,0,0,-1,1133,1359,0,0
-84,-335,0,0,0,0,0,0,0,0,0,-1,1140,1359,0,0
-77,-335,0,0,0,0,0,0,0,0,0,-1,1147,1359,0,0
-70,-335,0,0,0,0,0,0,0,0,0,-1,1154,1359,0,0
-63,-335,0,0,0,0,0,0,0,0,0,-1,1161,1359,0,0
-56,-335,0,0,0,0,0,0,0,0,0,-1,1168,1359,0,0
-49,-335,0,0,0,0,0,0,0,0,0,-1,1175,1359,0,0
-42,-335,0,0,0,0,0,0,0,0,0,-1,1182,1359,0,0
-35,-335,0,0,0,0,0,0,0,0,0,-1,1189,1359,0,0
-28,-335,0,0,0,0,0,0,0,0,0,-1,1196,1359,0,0
-21,-335,0,0,0,0,0,0,0,0,0,-1,1203,1359,0,0
-14,-335,0,0,0,0,0,0,0,0,0,-1,1210,1359,0,0
-7,-335,0,0,0,0,0,0,0,0,0,-1,1217,1359,0,0
0,-335,0,0,0,0,0,0,0,0,0,-1,1224,1359,0,0
7,-335,0,0,0,0,0,0,0,0,0,-1,1231,1359,0,0
14,-335,0,0,0,0,0,0,0,0,0,-1,1238,1359,0,0
21,-335,0,0,0,0,0,0,0,0,0,-1,1245,1359,0,0
28,-335,0,0,0,0,0,0,0,0,0,-1,1252,1359,0,0
35,-335,0,0,0,0,0,0,0,0,0,-1,1259,1359,0,0
42,-335,0,0,0,0,0,0,0,0,0,-1,1266,1359,0,0
49,-335,0,0,0,0,0,0,0,0,0,-1,1273,1359,0,0
56,-335,0,0,0,0,0,0,0,0,0,-1,1280,1359,0,0
63,-335,0,0,0,0,0,0,0,0,0,-1,1287,1359,0,0
70,-335,0,0,0,0,0,0,0,0,0,-1,1294,1359,0,0
77,-335,0,0,0,0,0,0,0,0,0,-1,1301,1359,0,0
84,-335,0,0,0,0,0,0,0,0,0,-1,1308,1359,0,0
91,-335,0,0,0,0,0,0,0,0,0,-1,1315,1359,0,0
98,-335,0,0,0,0,0,0,0,0,0,-1,1322,1359,0,0
105,-335,0,0,0,0,0,0,0,0,0,-1,1329,1359,0,0
112,-335,0,0,0,0,0,0,0,0,0,-1,1336,1359,0,0
119,-335,0,0,0,0,0,0,0,0,0,-1,1343,1359,0,0
126,-335,0,0,0,0,0,0,0,0,0,-1,1350,1359,0,0
133,-335,0,0,0,0,0,0,0,0,0,-1,1357,1359,0,0
140,-335,0,0,0,0,0,0,0,0,0,-1,1364,1359,0,0
147,-335,0,0,0,0,0,0,0,0,0,-1,1371,1359,0,0
154,-335,0,0,0,0,0,0,0,0,0,-1,1378,1359,0,0
161,-335,0,0,0,0,0,0,0,0,0,-1,1385,1359,0,0
168,-335,0,0,0,0,0,0,0,0,0,-1,1392,1359,0,0
175,-335,0,0,0,0,0,0,0,0,0,-1,1399,1359,0,0
182,-335,0,0,0,0,0,0,0,0,0,-1,1406,1359,0,0
189,-335,0,0,0,0,0,0,0,0,0,-1,1413,1359,0,0
196,-335,0,0,0,0,0,0,0,0,0,-1,1420,1359,0,0
203,-335,0,0,0,0,0,0,0,0,0,-1,1427,1359,0,0
210,-335,0,0,0,0,0,0,0,0,0,-1,1434,1359,0,0
217,-335,0,0,0,0,0,0,0,0,0,-1,1441,1359,0,0
224,-335,0,0,0,0,0,0,0,0,0,-1,1448,1359,0,0
231,-335,0,0,0,0,0,0,0,0,0,-1,1455,1359,0,0
238,-335,0,0,0,0,0,0,0,0,0,-1,1462,1359,0,0
245,-335,0,0,0,0,0,0,0,0,0,-1,1469,1359,0,0
252,-335,0,0,0,0,0,0,0,0,0,-1,1476,1359,0,0
259,-335,0,0,0,0,0,0,0,0,0,-1,1483,1359,0,0
266,-335,0,0,0,0,0,0,0,0,0,-1,1490,1359,0,0
273,-335,0,0,0,0,0,0,0,0,0,-1,1497,1359,0,0
280,-335,0,0,0,0,0,0,0,0,0,-1,1504,1359,0,0
287,-335,0,0,0,0,0,0,0,0,0,-1,1511,1359,0,0
294,-335,0,0,0,0,0,0,0,0,0,-1,1518,1359,0,0
301,-335,0,0,0,0,0,0,0,0,0,-1,1525,1359,0,0
308,-335,0,0,0,0,0,0,0,0,0,-1,1532,1359,0,0
315,-335,0,0,0,0,0,0,0,0,0,-1,1539,1359,0,0
322,-335,0,0,0,0,0,0,0,0,0,-1,1546,1359,0,0
329,-335,0,0,0,0,0,0,0,0,0,-1,1553,1359,0,0
336,-335,0,0,0,0,0,0,0,0,0,-1,1560,1359,0,0
343,-335,0,0,0,0,0,0,0,0,0,-1,1567,1359,0,0
350,-335,0,0,0,0,0,0,0,0,0,-1,1574,1359,0,0
357,-335,0,0,0,0,0,0,0,0,0,-1,1581,1359,0,0
364,-335,0,0,0,0,0,0,0,0,0,-1,1588,1359,0,0
371,-335,0,0,0,0,0,0,0,0,0,-1,1595,1359,0,0
378,-335,0,0,0,0,0,0,0,0,0,-1,1602,1359,0,0
385,-335,0,0,0,0,0,0,0,0,0,-1,1609,1359,0,0
392,-335,0,0,0,0,0,0,0,0,0,-1,1616,1359,0,0
399,-335,0,0,0,0,0,0,0,0,0,-1,1623,1359,0,0
406,-335,0,0,0,0,0,0,0,0,0,-1,1630,1359,0,0
413,-335,0,0,0,0,0,0,0,0,0,-1,1637,1359,0,0
420,-335,0,0,0,0,0,0,0,0,0,-1,1644,1359,0,0
427,-335,0,0,0,0,0,0,0,0,0,-1,1651,1359,0,0
434,-335,0,0,0,0,0,0,0,0,0,-1,1658,1359,0,0
441,-335,0,0,0,0,0,0,0,0,0,-1,1665,1359,0,0
448,-335,0,0,0,0,0,0,0,0,0,-1,1672,1359,0,0
455,-335,0,0,0,0,0,0,0,0,0,-1,1679,1359,0,0
462,-335,0,0,0,0,0,0,0,0,0,-1,1686,1359,0,0
469,-335,0,0,0,0,0,0,0,0,0,-1,1693,1359,0,0
476,-335,0,0,0,0,0,0,0,0,0,-1,1700,1359,0,0
483,-335,0,0,0,0,0,0,0,0,0,-1,1707,1359,0,0
490,-335,0,0,0,0,0,0,0,0,0,-1,1714,1359,0,0
497,-335,0,0,0,0,0,0,0,0,0,-1,1721,1359,0,0
504,-335,0,0,0,0,0,0,0,0,0,-1,1728,1359,0,0
511,-335,0,0,0,0,0,0,0,0,0,-1,1735,1359,0,0
518,-335,0,0,0,0,0,0,0,0,0,-1,1742,1359,0,0
525,-335,0,0,0,0,0,0,0,0,0,-1,1749,1359,0,0
532,-335,0,0,0,0,0,0,0,0,0,-1,1756,1359,0,0
539,-335,0,0,0,0,0,0,0,0,0,-1,1763,1359,0,0
546,-335,0,0,0,0,0,0,0,0,0,-1,1770,1359,0,0
553,-335,0,0,0,0,0,0,0,0,0,-1,1777,1359,0,0
560,-335,0,0,0,0,0,0,0,0,0,-1,1784,1359,0,0
567,-335,0,0,0,0,0,0,0,0,0,-1,1791,1359,0,0
574,-335,65.0712,2.80188,0,0,0,0,0,0,0,-1,1798,1359,65.0712,-2.80193
581,-335,66.5206,1.60327,0,0,0,0,0,0,0,-1,1805,1359,66.5206,-1.60333
588,-335,67.826,0.334961,0,0,0,0,0,0,0,-1,1812,1359,67.8261,-0.335018
595,-335,49.984,3.76465,0,0,0,0,0,0,0,-1,1819,1359,49.984,-3.76467
602,-335,36.5643,0.0861816,0,0,0,0,0,0,0,-1,1826,1359,36.5643,-0.0862283
609,-335,36.2933,0.993896,0,0,0,0,0,0,0,-1,1833,1359,36.2934,-0.993911
616,-335,34.6969,4.82666,0,0,0,0,0,0,0,-1,1840,1359,34.6969,-4.82667
623,-335,26.6051,6.54333,0,0,0,0,0,0,0,-1,1847,1359,26.6051,-6.54339
630,-335,19.1707,1.00952,0,0,0,0,0,0,0,-1,1854,1359,19.1707,-1.00953
637,-335,18.2009,6.65454,0,0,0,0,0,0,0,-1,1861,1359,18.2009,-6.6546
644,-335,28.1042,12.067,0,0,0,0,0,0,0,-1,1868,1359,28.1042,-12.067
651,-335,56.3635,25.3947,0,0,0,0,0,0,0,-1,1875,1359,56.3636,-25.3946
658,-335,82.4652,42.7295,0,0,0,0,0,0,0,-1,1882,1359,82.4652,-42.7295
665,-335,89.772,45.6466,0,0,0,0,0,0,0,-1,1889,1359,89.772,-45.6466
672,-335,106.954,50.8951,0,0,0,0,0,0,0,-1,1896,1359,106.954,-50.8951
679,-335,106.62,48.3944,0.00128226,-0.00468384,0.00489804,0.00403414,-0.00743572,0.511882,0.00671849,0.0331994,1903,1359,106.62,-48.3944
686,-335,106.276,46.1655,0.00107761,-0.00212355,0.00538043,0.00509049,-0.00613643,0.640826,0.00649123,0.022876,1910,1359,106.276,-46.1655
693,-335,105.903,43.9175,0.000888048,0.000626198,0.00600064,0.0067592,-0.00524495,0.774491,0.00694895,0.0167386,1917,1359,105.903,-43.9174
700,-335,105.482,41.6149,0.000659084,0.00353324,0.00682363,0.00906947,-0.00487715,0.889183,0.00817245,0.0163447,1924,1359,105.482,-41.6149
707,-335,105.106,39.3394,0.000301711,0.00659507,0.00791083,0.0119621,-0.00506529,0.974689,0.010096,0.021148,1931,1359,105.106,-39.3393
714,-335,104.804,37.1194,0,0,0,0,0,0,0,-1,1938,1359,104.804,-37.1193
721,-335,63.0804,18.417,0,0,0,0,0,0,0,-1,1945,1359,63.0804,-18.417
728,-335,20.8126,5.21167,0,0,0,0,0,0,0,-1,1952,1359,20.8127,-5.21172
735,-335,20.2725,5.34729,0,0,0,0,0,0,0,-1,1959,1359,20.2724,-5.34734
742,-335,19.8624,4.72229,0,0,0,0,0,0,0,-1,1966,1359,19.8624,-4.72225
749,-335,20.5887,6.05322,0,0,0,0,0,0,0,-1,1973,1359,20.5887,-6.05322
756,-335,20.7832,6.00452,0,0,0,0,0,0,0,-1,1980,1359,20.7832,-6.00447
763,-335,0,0,0,0,0,0,0,0,0,-1,1987,1359,0,0
770,-335,0,0,0,0,0,0,0,0,0,-1,1994,1359,0,0
777,-335,0,0,0,0,0,0,0,0,0,-1,2001,1359,0,0
784,-335,0,0,0,0,0,0,0,0,0,-1,2008,1359,0,0
791,-335,0,0,0,0,0,0,0,0,0,-1,2015,1359,0,0
798,-335,0,0,0,0,0,0,0,0,0,-1,2022,1359,0,0
805,-335,0,0,0,0,0,0,0,0,0,-1,2029,1359,0,0
812,-335,0,0,0,0,0,0,0,0,0,-1,2036,1359,0,0
-700,-342,0,0,0,0,0,0,0,0,0,-1,524,1366,0,0
-693,-342,0,0,0,0,0,0,0,0,0,-1,531,1366,0,0
-686,-342,0,0,0,0,0,0,0,0,0,-1,538,1366,0,0
-679,-342,0,0,0,0,0,0,0,0,0,-1,545,1366,0,0
-672,-342,0,0,0,0,0,0,0,0,0,-1,552,1366,0,0
-665,-342,0,0,0,0,0,0,0,0,0,-1,559,1366,0,0
-658,-342,0,0,0,0,0,0,0,0,0,-1,566,1366,0,0
-651,-342,0,0,0,0,0,0,0,0,0,-1,573,1366,0,0
-644,-342,0,0,0,0,0,0,0,0,0,-1,580,1366,0,0
-637,-342,-63.7546,12.2344,0,0,0,0,0,0,0,-1,587,1366,-63.7546,-12.2343
-630,-342,-8.60132,2.71777,0,0,0,0,0,0,0,-1,594,1366,-8.60135,-2.71779
-623,-342,-8.41168,0.662476,0,0,0,0,0,0,0,-1,601,1366,-8.41168,-0.662442
-616,-342,-6.625,-1.28015,0,0,0,0,0,0,0,-1,608,1366,-6.62499,1.28011
-609,-342,-7.83154,0.674561,0,0,0,0,0,0,0,-1,615,1366,-7.83155,-0.674598
-602,-342,-9.65765,2.25195,0,0,0,0,0,0,0,-1,622,1366,-9.65767,-2.25192
-595,-342,-9.47687,3.00671,0,0,0,0,0,0,0,-1,629,1366,-9.47686,-3.00668
-588,-342,-9.78467,3.57727,0,0,0,0,0,0,0,-1,636,1366,-9.78468,-3.57723
-581,-342,-97.1806,36.7998,0,0,0,0,0,0,0,-1,643,1366,-97.1806,-36.7998
-574,-342,-97.3393,39.0369,0.00854844,0.0153613,-0.000662138,0.015425,0.00848468,-1.4748,0.00892051,0.0289822,650,1366,-97.3393,-39.0369
-567,-342,-97.5201,41.332,0.00978157,0.0106461,-0.00167761,0.0119462,0.00848142,-0.911488,0.00709698,0.0213555,657,1366,-97.5201,-41.3321
-560,-342,-97.8568,43.5569,0.010507,0.00652138,-0.00239065,0.0116265,0.00540188,-0.437954,0.00671818,0.0314578,664,1366,-97.8568,-43.5568
-553,-342,-98.275,45.7467,0.010809,0.00322446,-0.00275092,0.0117017,0.00233177,-0.313785,0.00715173,0.0327375,671,1366,-98.275,-45.7466
-546,-342,-98.7508,47.9652,0,0,0,0,0,0,0,-1,678,1366,-98.7508,-47.9652
-539,-342,-81.4354,46.4868,0,0,0,0,0,0,0,-1,685,1366,-81.4353,-46.4869
-532,-342,-67.7392,42.2123,0,0,0,0,0,0,0,-1,692,1366,-67.7392,-42.2123
-525,-342,-65.3508,41.8672,0,0,0,0,0,0,0,-1,699,1366,-65.3508,-41.8671
-518,-342,-63.2446,42.9529,0,0,0,0,0,0,0,-1,706,1366,-63.2446,-42.9529
-511,-342,-63.2302,44.5254,0,0,0,0,0,0,0,-1,713,1366,-63.2302,-44.5253
-504,-342,-8.95709,6.5719,0,0,0,0,0,0,0,-1,720,1366,-8.95707,-6.57192
-497,-342,-8.26587,-0.943604,0,0,0,0,0,0,0,-1,727,1366,-8.26586,0.943543
-490,-342,-9.07153,-0.0227051,0,0,0,0,0,0,0,-1,734,1366,-9.07155,0.0227087
-483,-342,-9.87726,0.898071,0,0,0,0,0,0,0,-1,741,1366,-9.87724,-0.898125
-476,-342,-11.6371,-0.736328,0,0,0,0,0,0,0,-1,748,1366,-11.6371,0.736281
-469,-342,-12.6245,-0.987549,0,0,0,0,0,0,0,-1,755,1366,-12.6245,0.987553
-462,-342,-13.0912,-0.533203,0,0,0,0,0,0,0,-1,762,1366,-13.0912,0.533224
-455,-342,-13.7612,0.122925,0,0,0,0,0,0,0,-1,769,1366,-13.7612,-0.122896
-448,-342,-14.5278,0.826904,0,0,0,0,0,0,0,-1,776,1366,-14.5277,-0.826861
-441,-342,0,0,0,0,0,0,0,0,0,-1,783,1366,0,0
-434,-342,0,0,0,0,0,0,0,0,0,-1,790,1366,0,0
-427,-342,0,0,0,0,0,0,0,0,0,-1,797,1366,0,0
-420,-342,0,0,0,0,0,0,0,0,0,-1,804,1366,0,0
-413,-342,0,0,0,0,0,0,0,0,0,-1,811,1366,0,0
-406,-342,0,0,0,0,0,0,0,0,0,-1,818,1366,0,0
-399,-342,0,0,0,0,0,0,0,0,0,-1,825,1366,0,0
-392,-342,0,0,0,0,0,0,0,0,0,-1,832,1366,0,0
-385,-342,0,0,0,0,0,0,0,0,0,-1,839,1366,0,0
-378,-342,0,0,0,0,0,0,0,0,0,-1,846,1366,0,0
-371,-342,0,0,0,0,0,0,0,0,0,-1,853,1366,0,0
-364,-342,0,0,0,0,0,0,0,0,0,-1,860,1366,0,0
-357,-342,0,0,0,0,0,0,0,0,0,-1,867,1366,0,0
-350,-342,0,0,0,0,0,0,0,0,0,-1,874,1366,0,0
-343,-342,0,0,0,0,0,0,0,0,0,-1,881,1366,0,0
-336,-342,0,0,0,0,0,0,0,0,0,-1,888,1366,0,0
-329,-342,0,0,0,0,0,0,0,0,0,-1,895,1366,0,0
-322,-342,0,0,0,0,0,0,0,0,0,-1,902,1366,0,0
-315,-342,0,0,0,0,0,0,0,0,0,-1,909,1366,0,0
-308,-342,0,0,0,0,0,0,0,0,0,-1,916,1366,0,0
-301,-342,0,0,0,0,0,0,0,0,0,-1,923,1366,0,0
-294,-342,0,0,0,0,0,0,0,0,0,-1,930,1366,0,0
-287,-342,0,0,0,0,0,0,0,0,0,-1,937,1366,0,0
-280,-342,0,0,0,0,0,0,0,0,0,-1,944,1366,0,0
-273,-342,0,0,0,0,0,0,0,0,0,-1,951,1366,0,0
-266,-342,0,0,0,0,0,0,0,0,0,-1,958,1366,0,0
-259,-342,0,0,0,0,0,0,0,0,0,-1,965,1366,0,0
-252,-342,0,0,0,0,0,0,0,0,0,-1,972,1366,0,0
-245,-342,0,0,0,0,0,0,0,0,0,-1,979,1366,0,0
-238,-342,0,0,0,0,0,0,0,0,0,-1,986,1366,0,0
-231,-342,0,0,0,0,0,0,0,0,0,-1,993,1366,0,0
-224,-342,0,0,0,0,0,0,0,0,0,-1,1000,1366,0,0
-217,-342,0,0,0,0,0,0,0,0,0,-1,1007,1366,0,0
-210,-342,0,0,0,0,0,0,0,0,0,-1,1014,1366,0,0
-203,-342,0,0,0,0,0,0,0,0,0,-1,1021,1366,0,0
-196,-342,0,0,0,0,0,0,0,0,0,-1,1028,1366,0,0
-189,-342,0,0,0,0,0,0,0,0,0,-1,1035,1366,0,0
-182,-342,0,0,0,0,0,0,0,0,0,-1,1042,1366,0,0
-175,-342,0,0,0,0,0,0,0,0,0,-1,1049,1366,0,0
-168,-342,0,0,0,0,0,0,0,0,0,-1,1056,1366,0,0
-161,-342,0,0,0,0,0,0,0,0,0,-1,1063,1366,0,0
-154,-342,0,0,0,0,0,0,0,0,0,-1,1070,1366,0,0
-147,-342,0,0,0,0,0,0,0,0,0,-1,1077,1366,0,0
-140,-342,0,0,0,0,0,0,0,0,0,-1,1084,1366,0,0
-133,-342,0,0,0,0,0,0,0,0,0,-1,1091,1366,0,0
-126,-342,0,0,0,0,0,0,0,0,0,-1,1098,1366,0,0
-119,-342,0,0,0,0,0,0,0,0,0,-1,1105,1366,0,0
-112,-342,0,0,0,0,0,0,0,0,0,-1,1112,1366,0,0
-105,-342,0,0,0,0,0,0,0,0,0,-1,1119,1366,0,0
-98,-342,0,0,0,0,0,0,0,0,0,-1,1126,1366,0,0
-91,-342,0,0,0,0,0,0,0,0,0,-1,1133,1366,0,0
-84,-342,0,0,0,0,0,0,0,0,0,-1,1140,1366,0,0
-77,-342,0,0,0,0,0,0,0,0,0,-1,1147,1366,0,0
-70,-342,0,0,0,0,0,0,0,0,0,-1,1154,1366,0,0
-63,-342,0,0,0,0,0,0,0,0,0,-1,1161,1366,0,0
-56,-342,0,0,0,0,0,0,0,0,0,-1,1168,1366,0,0
-49,-342,0,0,0,0,0,0,0,0,0,-1,1175,1366,0,0
-42,-342,0,0,0,0,0,0,0,0,0,-1,1182,1366,0,0
-35,-342,0,0,0,0,0,0,0,0,0,-1,1189,1366,0,0
-28,-342,0,0,0,0,0,0,0,0,0,-1,1196,1366,0,0
-21,-342,0,0,0,0,0,0,0,0,0,-1,1203,1366,0,0
-14,-342,0,0,0,0,0,0,0,0,0,-1,1210,1366,0,0
-7,-342,0,0,0,0,0,0,0,0,0,-1,1217,1366,0,0
0,-342,0,0,0,0,0,0,0,0,0,-1,1224,1366,0,0
7,-342,0,0,0,0,0,0,0,0,0,-1,1231,1366,0,0
14,-342,0,0,0,0,0,0,0,0,0,-1,1238,1366,0,0
21,-342,0,0,0,0,0,0,0,0,0,-1,1245,1366,0,0
28,-342,0,0,0,0,0,0,0,0,0,-1,1252,1366,0,0
35,-342,0,0,0,0,0,0,0,0,0,-1,1259,1366,0,0
42,-342,0,0,0,0,0,0,0,0,0,-1,1266,1366,0,0
49,-342,0,0,0,0,0,0,0,0,0,-1,1273,1366,0,0
56,-342,0,0,0,0,0,0,0,0,0,-1,1280,1366,0,0
63,-342,0,0,0,0,0,0,0,0,0,-1,1287,1366,0,0
70,-342,0,0,0,0,0,0,0,0,0,-1,1294,1366,0,0
77,-342,0,0,0,0,0,0,0,0,0,-1,1301,1366,0,0
84,-342,0,0,0,0,0,0,0,0,0,-1,1308,1366,0,0
91,-342,0,0,0,0,0,0,0,0,0,-1,1315,1366,0,0
98,-342,0,0,0,0,0,0,0,0,0,-1,1322,1366,0,0
105,-342,0,0,0,0,0,0,0,0,0,-1,1329,1366,0,0
112,-342,0,0,0,0,0,0,0,0,0,-1,1336,1366,0,0
119,-342,0,0,0,0,0,0,0,0,0,-1,1343,1366,0,0
126,-342,0,0,0,0,0,0,0,0,0,-1,1350,1366,0,0
133,-342,0,0,0,0,0,0,0,0,0,-1,1357,1366,0,0
140,-342,0,0,0,0,0,0,0,0,0,-1,1364,1366,0,0
147,-342,0,0,0,0,0,0,0,0,0,-1,1371,1366,0,0
154,-342,0,0,0,0,0,0,0,0,0,-1,1378,1366,0,0
161,-342,0,0,0,0,0,0,0,0,0,-1,1385,1366,0,0
168,-342,0,0,0,0,0,0,0,0,0,-1,1392,1366,0,0
175,-342,0,0,0,0,0,0,0,0,0,-1,1399,1366,0,0
182,-342,0,0,0,0,0,0,0,0,0,-1,1406,1366,0,0
189,-342,0,0,0,0,0,0,0,0,0,-1,1413,1366,0,0
196,-342,0,0,0,0,0,0,0,0,0,-1,1420,1366,0,0
203,-342,0,0,0,0,0,0,0,0,0,-1,1427,1366,0,0
210,-342,0,0,0,0,0,0,0,0,0,-1,1434,1366,0,0
217,-342,0,0,0,0,0,0,0,0,0,-1,1441,1366,0,0
224,-342,0,0,0,0,0,0,0,0,0,-1,1448,1366,0,0
231,-342,0,0,0,0,0,0,0,0,0,-1,1455,1366,0,0
238,-342,0,0,0,0,0,0,0,0,0,-1,1462,1366,0,0
245,-342,0,0,0,0,0,0,0,0,0,-1,1469,1366,0,0
252,-342,0,0,0,0,0,0,0,0,0,-1,1476,1366,0,0
259,-342,0,0,0,0,0,0,0,0,0,-1,1483,1366,0,0
266,-342,0,0,0,0,0,0,0,0,0,-1,1490,1366,0,0
273,-342,0,0,0,0,0,0,0,0,0,-1,1497,1366,0,0
280,-342,0,0,0,0,0,0,0,0,0,-1,1504,1366,0,0
287,-342,0,0,0,0,0,0,0,0,0,-1,1511,1366,0,0
294,-342,0,0,0,0,0,0,0,0,0,-1,1518,1366,0,0
301,-342,0,0,0,0,0,0,0,0,0,-1,1525,1366,0,0
308,-342,0,0,0,0,0,0,0,0,0,-1,1532,1366,0,0
315,-342,0,0,0,0,0,0,0,0,0,-1,1539,1366,0,0
322,-342,0,0,0,0,0,0,0,0,0,-1,1546,1366,0,0
329,-342,0,0,0,0,0,0,0,0,0,-1,1553,1366,0,0
336,-342,0,0,0,0,0,0,0,0,0,-1,1560,1366,0,0
343,-342,0,0,0,0,0,0,0,0,0,-1,1567,1366,0,0
350,-342,0,0,0,0,0,0,0,0,0,-1,1574,1366,0,0
357,-342,0,0,0,0,0,0,0,0,0,-1,1581,1366,0,0
364,-342,0,0,0,0,0,0,0,0,0,-1,1588,1366,0,0
371,-342,0,0,0,0,0,0,0,0,0,-1,1595,1366,0,0
378,-342,0,0,0,0,0,0,0,0,0,-1,1602,1366,0,0
385,-342,0,0,0,0,0,0,0,0,0,-1,1609,1366,0,0
392,-342,0,0,0,0,0,0,0,0,0,-1,1616,1366,0,0
399,-342,0,0,0,0,0,0,0,0,0,-1,1623,1366,0,0
406,-342,0,0,0,0,0,0,0,0,0,-1,1630,1366,0,0
413,-342,0,0,0,0,0,0,0,0,0,-1,1637,1366,0,0
420,-342,0,0,0,0,0,0,0,0,0,-1,1644,1366,0,0
427,-342,0,0,0,0,0,0,0,0,0,-1,1651,1366,0,0
434,-342,0,0,0,0,0,0,0,0,0,-1,1658,1366,0,0
441,-342,0,0,0,0,0,0,0,0,0,-1,1665,1366,0,0
448,-342,0,0,0,0,0,0,0,0,0,-1,1672,1366,0,0
455,-342,0,0,0,0,0,0,0,0,0,-1,1679,1366,0,0
462,-342,0,0,0,0,0,0,0,0,0,-1,1686,1366,0,0
469,-342,0,0,0,0,0,0,0,0,0,-1,1693,1366,0,0
476,-342,0,0,0,0,0,0,0,0,0,-1,1700,1366,0,0
483,-342,0,0,0,0,0,0,0,0,0,-1,1707,1366,0,0
490,-342,0,0,0,0,0,0,0,0,0,-1,1714,1366,0,0
497,-342,0,0,0,0,0,0,0,0,0,-1,1721,1366,0,0
504,-342,0,0,0,0,0,0,0,0,0,-1,1728,1366,0,0
511,-342,0,0,0,0,0,0,0,0,0,-1,1735,1366,0,0
518,-342,0,0,0,0,0,0,0,0,0,-1,1742,1366,0,0
525,-342,0,0,0,0,0,0,0,0,0,-1,1749,1366,0,0
532,-342,0,0,0,0,0,0,0,0,0,-1,1756,1366,0,0
539,-342,0,0,0,0,0,0,0,0,0,-1,1763,1366,0,0
546,-342,0,0,0,0,0,0,0,0,0,-1,1770,1366,0,0
553,-342,0,0,0,0,0,0,0,0,0,-1,1777,1366,0,0
560,-342,0,0,0,0,0,0,0,0,0,-1,1784,1366,0,0
567,-342,64.6937,3.24878,0,0,0,0,0,0,0,-1,1791,1366,64.6938,-3.24881
574,-342,65.4669,2.18384,0,0,0,0,0,0,0,-1,1798,1366,65.4669,-2.18381
581,-342,66.542,1.36292,0,0,0,0,0,0,0,-1,1805,1366,66.542,-1.36295
588,-342,43.9108,7.22559,0,0,0,0,0,0,0,-1,1812,1366,43.9107,-7.22554
595,-342,35.7993,0.709961,0,0,0,0,0,0,0,-1,1819,1366,35.7993,-0.709913
602,-342,36.3618,3.28723,0,0,0,0,0,0,0,-1,1826,1366,36.3619,-3.28719
609,-342,35.3777,4.14978,0,0,0,0,0,0,0,-1,1833,1366,35.3777,-4.14976
616,-342,34.199,5.8158,0,0,0,0,0,0,0,-1,1840,1366,34.199,-5.81579
623,-342,26.0299,6.86865,0,0,0,0,0,0,0,-1,1847,1366,26.0299,-6.86863
630,-342,17.3431,0.773071,0,0,0,0,0,0,0,-1,1854,1366,17.3432,-0.773095
637,-342,16.196,6.76172,0,0,0,0,0,0,0,-1,1861,1366,16.1961,-6.76174
644,-342,31.8916,14.0614,0,0,0,0,0,0,0,-1,1868,1366,31.8916,-14.0613
651,-342,80.5938,43.9689,0,0,0,0,0,0,0,-1,1875,1366,80.5937,-43.9688
658,-342,87.5692,47.3271,0,0,0,0,0,0,0,-1,1882,1366,87.5692,-47.3271
665,-342,104.641,53.4136,0,0,0,0,0,0,0,-1,1889,1366,104.641,-53.4135
672,-342,104.363,51.3853,0.00217757,-0.00489672,0.00430871,0.00421504,-0.00693419,0.441712,0.00650051,0.0347579,1896,1366,104.363,-51.3852
679,-342,104.248,49.0338,0.00192301,-0.0030999,0.00475809,0.00479178,-0.00596866,0.542567,0.00622492,0.0208362,1903,1366,104.248,-49.0338
686,-342,103.955,46.6586,0.001756,-0.00092785,0.00514669,0.00573283,-0.00490468,0.65787,0.00614777,0.0219869,1910,1366,103.955,-46.6586
693,-342,103.519,44.333,0.00167206,0.00156009,0.00554474,0.00716109,-0.00392894,0.78035,0.00649285,0.0196109,1917,1366,103.519,-44.333
700,-342,103.12,42.0784,0.0015985,0.004418,0.00599697,0.00916869,-0.00315219,0.900841,0.00739077,0.0186036,1924,1366,103.12,-42.0783
707,-342,102.716,39.6898,0.00146395,0.00754353,0.00660727,0.0117767,-0.00276925,1.001,0.00891871,0.0191594,1931,1366,102.716,-39.6898
714,-342,102.341,37.2838,0,0,0,0,0,0,0,-1,1938,1366,102.341,-37.2838
721,-342,22.4666,6.08679,0,0,0,0,0,0,0,-1,1945,1366,22.4666,-6.08678
728,-342,19.8912,5.26636,0,0,0,0,0,0,0,-1,1952,1366,19.8913,-5.26636
735,-342,19.481,4.41968,0,0,0,0,0,0,0,-1,1959,1366,19.4809,-4.41962
742,-342,19.309,2.66943,0,0,0,0,0,0,0,-1,1966,1366,19.3089,-2.66948
749,-342,21.0934,6.47729,0,0,0,0,0,0,0,-1,1973,1366,21.0934,-6.4773
756,-342,0,0,0,0,0,0,0,0,0,-1,1980,1366,0,0
763,-342,0,0,0,0,0,0,0,0,0,-1,1987,1366,0,0
770,-342,0,0,0,0,0,0,0,0,0,-1,1994,1366,0,0
777,-342,0,0,0,0,0,0,0,0,0,-1,2001,1366,0,0
784,-342,0,0,0,0,0,0,0,0,0,-1,2008,1366,0,0
791,-342,0,0,0,0,0,0,0,0,0,-1,2015,1366,0,0
798,-342,0,0,0,0,0,0,0,0,0,-1,2022,1366,0,0
805,-342,0,0,0,0,0,0,0,0,0,-1,2029,1366,0,0
812,-342,0,0,0,0,0,0,0,0,0,-1,2036,1366,0,0
-700,-349,0,0,0,0,0,0,0,0,0,-1,524,1373,0,0
-693,-349,0,0,0,0,0,0,0,0,0,-1,531,1373,0,0
-686,-349,0,0,0,0,0,0,0,0,0,-1,538,1373,0,0
-679,-349,0,0,0,0,0,0,0,0,0,-1,545,1373,0,0
-672,-349,0,0,0,0,0,0,0,0,0,-1,552,1373,0,0
-665,-349,0,0,0,0,0,0,0,0,0,-1,559,1373,0,0
-658,-349,0,0,0,0,0,0,0,0,0,-1,566,1373,0,0
-651,-349,0,0,0,0,0,0,0,0,0,-1,573,1373,0,0
-644,-349,0,0,0,0,0,0,0,0,0,-1,580,1373,0,0
-637,-349,0,0,0,0,0,0,0,0,0,-1,587,1373,0,0
-630,-349,-7.64117,-5.06177,0,0,0,0,0,0,0,-1,594,1373,-7.64118,5.0618
-623,-349,-8.63507,0.51123,0,0,0,0,0,0,0,-1,601,1373,-8.63505,-0.511275
-616,-349,-5.2066,-0.188232,0,0,0,0,0,0,0,-1,608,1373,-5.20659,0.188211
-609,-349,-7.12073,1.37048,0,0,0,0,0,0,0,-1,615,1373,-7.12072,-1.37044
-602,-349,-9.00623,3.39587,0,0,0,0,0,0,0,-1,622,1373,-9.0062,-3.39591
-595,-349,-9.50568,2.96912,0,0,0,0,0,0,0,-1,629,1373,-9.50569,-2.96906
-588,-349,-8.60046,3.56042,0,0,0,0,0,0,0,-1,636,1373,-8.60046,-3.56047
-581,-349,-31.1797,14.1667,0,0,0,0,0,0,0,-1,643,1373,-31.1798,-14.1667
-574,-349,-95.1957,39.2354,0,0,0,0,0,0,0,-1,650,1373,-95.1957,-39.2353
-567,-349,-95.2211,41.6688,0.00963726,0.0119317,-0.000670138,0.0121131,0.00945587,-1.30646,0.00735152,0.0247988,657,1373,-95.2211,-41.6688
-560,-349,-95.5339,43.9838,0.0102542,0.00757008,-0.00138778,0.0108427,0.00698158,-0.401073,0.00634586,0.0265558,664,1373,-95.5339,-43.9838
-553,-349,-95.84,46.2834,0.0104969,0.00444011,-0.00163762,0.0109113,0.00402569,-0.247859,0.00637136,0.0309928,671,1373,-95.84,-46.2834
-546,-349,-96.0836,48.736,0.0102438,0.00217444,-0.00173913,0.0106026,0.00181558,-0.20349,0.00654768,0.0490228,678,1373,-96.0836,-48.736
-539,-349,-96.4141,51.1735,0,0,0,0,0,0,0,-1,685,1373,-96.4141,-51.1735
-532,-349,-80.009,48.7177,0,0,0,0,0,0,0,-1,692,1373,-80.0089,-48.7177
-525,-349,-69.8218,45.8181,0,0,0,0,0,0,0,-1,699,1373,-69.8218,-45.8181
-518,-349,-88.0445,55.7136,0,0,0,0,0,0,0,-1,706,1373,-88.0445,-55.7136
-511,-349,-58.4487,42.8572,0,0,0,0,0,0,0,-1,713,1373,-58.4487,-42.8572
-504,-349,-9.60516,7.88831,0,0,0,0,0,0,0,-1,720,1373,-9.60519,-7.88825
-497,-349,-7.9339,5.58789,0,0,0,0,0,0,0,-1,727,1373,-7.93388,-5.58785
-490,-349,-8.73969,-0.503784,0,0,0,0,0,0,0,-1,734,1373,-8.73966,0.503752
-483,-349,-5.66974,3.7395,0,0,0,0,0,0,0,-1,741,1373,-5.66975,-3.73949
-476,-349,-10.8496,1.15759,0,0,0,0,0,0,0,-1,748,1373,-10.8496,-1.15756
-469,-349,-12.3314,-1.74878,0,0,0,0,0,0,0,-1,755,1373,-12.3314,1.74882
-462,-349,-12.6559,-0.995361,0,0,0,0,0,0,0,-1,762,1373,-12.656,0.995351
-455,-349,-13.2897,-0.234253,0,0,0,0,0,0,0,-1,769,1373,-13.2897,0.234261
-448,-349,-14.045,0.712891,0,0,0,0,0,0,0,-1,776,1373,-14.045,-0.712838
-441,-349,0,0,0,0,0,0,0,0,0,-1,783,1373,0,0
-434,-349,0,0,0,0,0,0,0,0,0,-1,790,1373,0,0
-427,-349,0,0,0,0,0,0,0,0,0,-1,797,1373,0,0
-420,-349,0,0,0,0,0,0,0,0,0,-1,804,1373,0,0
-413,-349,0,0,0,0,0,0,0,0,0,-1,811,1373,0,0
-406,-349,0,0,0,0,0,0,0,0,0,-1,818,1373,0,0
-399,-349,0,0,0,0,0,0,0,0,0,-1,825,1373,0,0
-392,-349,0,0,0,0,0,0,0,0,0,-1,832,1373,0,0
-385,-349,0,0,0,0,0,0,0,0,0,-1,839,1373,0,0
-378,-349,0,0,0,0,0,0,0,0,0,-1,846,1373,0,0
-371,-349,0,0,0,0,0,0,0,0,0,-1,853,1373,0,0
-364,-349,0,0,0,0,0,0,0,0,0,-1,860,1373,0,0
-357,-349,0,0,0,0,0,0,0,0,0,-1,867,1373,0,0
-350,-349,0,0,0,0,0,0,0,0,0,-1,874,1373,0,0
-343,-349,0,0,0,0,0,0,0,0,0,-1,881,1373,0,0
-336,-349,0,0,0,0,0,0,0,0,0,-1,888,1373,0,0
-329,-349,0,0,0,0,0,0,0,0,0,-1,895,1373,0,0
-322,-349,0,0,0,0,0,0,0,0,0,-1,902,1373,0,0
-315,-349,0,0,0,0,0,0,0,0,0,-1,909,1373,0,0
-308,-349,0,0,0,0,0,0,0,0,0,-1,916,1373,0,0
-301,-349,0,0,0,0,0,0,0,0,0,-1,923,1373,0,0
-294,-349,0,0,0,0,0,0,0,0,0,-1,930,1373,0,0
-287,-349,0,0,0,0,0,0,0,0,0,-1,937,1373,0,0
-280,-349,0,0,0,0,0,0,0,0,0,-1,944,1373,0,0
-273,-349,0,0,0,0,0,0,0,0,0,-1,951,1373,0,0
-266,-349,0,0,0,0,0,0,0,0,0,-1,958,1373,0,0
-259,-349,0,0,0,0,0,0,0,0,0,-1,965,1373,0,0
-252,-349,0,0,0,0,0,0,0,0,0,-1,972,1373,0,0
-245,-349,0,0,0,0,0,0,0,0,0,-1,979,1373,0,0
-238,-349,0,0,0,0,0,0,0,0,0,-1,986,1373,0,0
-231,-349,0,0,0,0,0,0,0,0,0,-1,993,1373,0,0
-224,-349,0,0,0,0,0,0,0,0,0,-1,1000,1373,0,0
-217,-349,0,0,0,0,0,0,0,0,0,-1,1007,1373,0,0
-210,-349,0,0,0,0,0,0,0,0,0,-1,1014,1373,0,0
-203,-349,0,0,0,0,0,0,0,0,0,-1,1021,1373,0,0
-196,-349,0,0,0,0,0,0,0,0,0,-1,1028,1373,0,0
-189,-349,0,0,0,0,0,0,0,0,0,-1,1035,1373,0,0
-182,-349,0,0,0,0,0,0,0,0,0,-1,1042,1373,0,0
-175,-349,0,0,0,0,0,0,0,0,0,-1,1049,1373,0,0
-168,-349,0,0,0,0,0,0,0,0,0,-1,1056,1373,0,0
-161,-349,0,0,0,0,0,0,0,0,0,-1,1063,1373,0,0
-154,-349,0,0,0,0,0,0,0,0,0,-1,1070,1373,0,0
-147,-349,0,0,0,0,0,0,0,0,0,-1,1077,1373,0,0
-140,-349,0,0,0,0,0,0,0,0,0,-1,1084,1373,0,0
-133,-349,0,0,0,0,0,0,0,0,0,-1,1091,1373,0,0
-126,-349,0,0,0,0,0,0,0,0,0,-1,1098,1373,0,0
-119,-349,0,0,0,0,0,0,0,0,0,-1,1105,1373,0,0
-112,-349,0,0,0,0,0,0,0,0,0,-1,1112,1373,0,0
-105,-349,0,0,0,0,0,0,0,0,0,-1,1119,1373,0,0
-98,-349,0,0,0,0,0,0,0,0,0,-1,1126,1373,0,0
-91,-349,0,0,0,0,0,0,0,0,0,-1,1133,1373,0,0
-84,-349,0,0,0,0,0,0,0,0,0,-1,1140,1373,0,0
-77,-349,0,0,0,0,0,0,0,0,0,-1,1147,1373,0,0
-70,-349,0,0,0,0,0,0,0,0,0,-1,1154,1373,0,0
-63,-349,0,0,0,0,0,0,0,0,0,-1,1161,1373,0,0
-56,-349,0,0,0,0,0,0,0,0,0,-1,1168,1373,0,0
-49,-349,0,0,0,0,0,0,0,0,0,-1,1175,1373,0,0
-42,-349,0,0,0,0,0,0,0,0,0,-1,1182,1373,0,0
-35,-349,0,0,0,0,0,0,0,0,0,-1,1189,1373,0,0
-28,-349,0,0,0,0,0,0,0,0,0,-1,1196,1373,0,0
-21,-349,0,0,0,0,0,0,0,0,0,-1,1203,1373,0,0
-14,-349,0,0,0,0,0,0,0,0,0,-1,1210,1373,0,0
-7,-349,0,0,0,0,0,0,0,0,0,-1,1217,1373,0,0
0,-349,0,0,0,0,0,0,0,0,0,-1,1224,1373,0,0
7,-349,0,0,0,0,0,0,0,0,0,-1,1231,1373,0,0
14,-349,0,0,0,0,0,0,0,0,0,-1,1238,1373,0,0
21,-349,0,0,0,0,0,0,0,0,0,-1,1245,1373,0,0
28,-349,0,0,0,0,0,0,0,0,0,-1,1252,1373,0,0
35,-349,0,0,0,0,0,0,0,0,0,-1,1259,1373,0,0
42,-349,0,0,0,0,0,0,0,0,0,-1,1266,1373,0,0
49,-349,0,0,0,0,0,0,0,0,0,-1,1273,1373,0,0
56,-349,0,0,0,0,0,0,0,0,0,-1,1280,1373,0,0
63,-349,0,0,0,0,0,0,0,0,0,-1,1287,1373,0,0
70,-349,0,0,0,0,0,0,0,0,0,-1,1294,1373,0,0
77,-349,0,0,0,0,0,0,0,0,0,-1,1301,1373,0,0
84,-349,0,0,0,0,0,0,0,0,0,-1,1308,1373,0,0
91,-349,0,0,0,0,0,0,0,0,0,-1,1315,1373,0,0
98,-349,0,0,0,0,0,0,0,0,0,-1,1322,1373,0,0
105,-349,0,0,0,0,0,0,0,0,0,-1,1329,1373,0,0
112,-349,0,0,0,0,0,0,0,0,0,-1,1336,1373,0,0
119,-349,0,0,0,0,0,0,0,0,0,-1,1343,1373,0,0
126,-349,0,0,0,0,0,0,0,0,0,-1,1350,1373,0,0
133,-349,0,0,0,0,0,0,0,0,0,-1,1357,1373,0,0
140,-349,0,0,0,0,0,0,0,0,0,-1,1364,1373,0,0
147,-349,0,0,0,0,0,0,0,0,0,-1,1371,1373,0,0
154,-349,0,0,0,0,0,0,0,0,0,-1,1378,1373,0,0
161,-349,0,0,0,0,0,0,0,0,0,-1,1385,1373,0,0
168,-349,0,0,0,0,0,0,0,0,0,-1,1392,1373,0,0
175,-349,0,0,0,0,0,0,0,0,0,-1,1399,1373,0,0
182,-349,0,0,0,0,0,0,0,0,0,-1,1406,1373,0,0
189,-349,0,0,0,0,0,0,0,0,0,-1,1413,1373,0,0
196,-349,0,0,0,0,0,0,0,0,0,-1,1420,1373,0,0
203,-349,0,0,0,0,0,0,0,0,0,-1,1427,1373,0,0
210,-349,0,0,0,0,0,0,0,0,0,-1,1434,1373,0,0
217,-349,0,0,0,0,0,0,0,0,0,-1,1441,1373,0,0
224,-349,0,0,0,0,0,0,0,0,0,-1,1448,1373,0,0
231,-349,0,0,0,0,0,0,0,0,0,-1,1455,1373,0,0
238,-349,0,0,0,0,0,0,0,0,0,-1,1462,1373,0,0
245,-349,0,0,0,0,0,0,0,0,0,-1,1469,1373,0,0
252,-349,0,0,0,0,0,0,0,0,0,-1,1476,1373,0,0
259,-349,0,0,0,0,0,0,0,0,0,-1,1483,1373,0,0
266,-349,0,0,0,0,0,0,0,0,0,-1,1490,1373,0,0
273,-349,0,0,0,0,0,0,0,0,0,-1,1497,1373,0,0
280,-349,0,0,0,0,0,0,0,0,0,-1,1504,1373,0,0
287,-349,0,0,0,0,0,0,0,0,0,-1,1511,1373,0,0
294,-349,0,0,0,0,0,0,0,0,0,-1,1518,1373,0,0
301,-349,0,0,0,0,0,0,0,0,0,-1,1525,1373,0,0
308,-349,0,0,0,0,0,0,0,0,0,-1,1532,1373,0,0
315,-349,0,0,0,0,0,0,0,0,0,-1,1539,1373,0,0
322,-349,0,0,0,0,0,0,0,0,0,-1,1546,1373,0,0
329,-349,0,0,0,0,0,0,0,0,0,-1,1553,1373,0,0
336,-349,0,0,0,0,0,0,0,0,0,-1,1560,1373,0,0
343,-349,0,0,0,0,0,0,0,0,0,-1,1567,1373,0,0
350,-349,0,0,0,0,0,0,0,0,0,-1,1574,1373,0,0
357,-349,0,0,0,0,0,0,0,0,0,-1,1581,1373,0,0
364,-349,0,0,0,0,0,0,0,0,0,-1,1588,1373,0,0
371,-349,0,0,0,0,0,0,0,0,0,-1,1595,1373,0,0
378,-349,0,0,0,0,0,0,0,0,0,-1,1602,1373,0,0
385,-349,0,0,0,0,0,0,0,0,0,-1,1609,1373,0,0
392,-349,0,0,0,0,0,0,0,0,0,-1,1616,1373,0,0
399,-349,0,0,0,0,0,0,0,0,0,-1,1623,1373,0,0
406,-349,0,0,0,0,0,0,0,0,0,-1,1630,1373,0,0
413,-349,0,0,0,0,0,0,0,0,0,-1,1637,1373,0,0
420,-349,0,0,0,0,0,0,0,0,0,-1,1644,1373,0,0
427,-349,0,0,0,0,0,0,0,0,0,-1,1651,1373,0,0
434,-349,0,0,0,0,0,0,0,0,0,-1,1658,1373,0,0
441,-349,0,0,0,0,0,0,0,0,0,-1,1665,1373,0,0
448,-349,0,0,0,0,0,0,0,0,0,-1,1672,1373,0,0
455,-349,0,0,0,0,0,0,0,0,0,-1,1679,1373,0,0
462,-349,0,0,0,0,0,0,0,0,0,-1,1686,1373,0,0
469,-349,0,0,0,0,0,0,0,0,0,-1,1693,1373,0,0
476,-349,0,0,0,0,0,0,0,0,0,-1,1700,1373,0,0
483,-349,0,0,0,0,0,0,0,0,0,-1,1707,1373,0,0
490,-349,0,0,0,0,0,0,0,0,0,-1,1714,1373,0,0
497,-349,0,0,0,0,0,0,0,0,0,-1,1721,1373,0,0
504,-349,0,0,0,0,0,0,0,0,0,-1,1728,1373,0,0
511,-349,0,0,0,0,0,0,0,0,0,-1,1735,1373,0,0
518,-349,0,0,0,0,0,0,0,0,0,-1,1742,1373,0,0
525,-349,0,0,0,0,0,0,0,0,0,-1,1749,1373,0,0
532,-349,0,0,0,0,0,0,0,0,0,-1,1756,1373,0,0
539,-349,0,0,0,0,0,0,0,0,0,-1,1763,1373,0,0
546,-349,0,0,0,0,0,0,0,0,0,-1,1770,1373,0,0
553,-349,0,0,0,0,0,0,0,0,0,-1,1777,1373,0,0
560,-349,63.5519,3.94397,0,0,0,0,0,0,0,-1,1784,1373,63.5519,-3.94394
567,-349,64.7863,2.54688,0,0,0,0,0,0,0,-1,1791,1373,64.7863,-2.5469
574,-349,65.8214,1.63818,0,0,0,0,0,0,0,-1,1798,1373,65.8214,-1.63813
581,-349,42.8947,6.78381,0,0,0,0,0,0,0,-1,1805,1373,42.8946,-6.78376
588,-349,44.8121,5.06213,0,0,0,0,0,0,0,-1,1812,1373,44.8121,-5.06215
595,-349,44.4338,6.14099,0,0,0,0,0,0,0,-1,1819,1373,44.4338,-6.14095
602,-349,35.6641,3.26465,0,0,0,0,0,0,0,-1,1826,1373,35.6641,-3.26468
609,-349,34.7175,4.401,0,0,0,0,0,0,0,-1,1833,1373,34.7175,-4.40096
616,-349,27.1451,6.68274,0,0,0,0,0,0,0,-1,1840,1373,27.1451,-6.6828
623,-349,18.8478,2.75769,0,0,0,0,0,0,0,-1,1847,1373,18.8478,-2.75774
630,-349,15.4948,6.47644,0,0,0,0,0,0,0,-1,1854,1373,15.4947,-6.4765
637,-349,16.5161,6.92639,0,0,0,0,0,0,0,-1,1861,1373,16.5161,-6.92636
644,-349,44.2694,19.8312,0,0,0,0,0,0,0,-1,1868,1373,44.2695,-19.8311
651,-349,78.9188,43.9373,0,0,0,0,0,0,0,-1,1875,1373,78.9188,-43.9372
658,-349,87.4794,48.3646,0,0,0,0,0,0,0,-1,1882,1373,87.4794,-48.3647
665,-349,102.293,53.4324,0,0,0,0,0,0,0,-1,1889,1373,102.293,-53.4323
672,-349,102.072,51.6201,0.00247473,-0.00338833,0.00425694,0.00471189,-0.00562549,0.483865,0.00597606,0.0327347,1896,1373,102.072,-51.6201
679,-349,101.896,49.4371,0.0023581,-0.00191864,0.00457853,0.005273,-0.00483354,0.56693,0.00583685,0.0229392,1903,1373,101.897,-49.4371
686,-349,101.582,47.0541,0.002384,8.92283e-06,0.00474907,0.00609176,-0.00369883,0.662882,0.0057086,0.0291742,1910,1373,101.582,-47.0541
693,-349,101.124,44.7092,0.00255337,0.00239251,0.00481319,0.0072868,-0.00234092,0.777044,0.0057979,0.0299364,1917,1373,101.124,-44.7092
700,-349,100.722,42.4965,0.00278936,0.00529297,0.00481414,0.0090154,-0.000933066,0.912595,0.0063442,0.0221719,1924,1373,100.722,-42.4964
707,-349,100.351,40.1686,0,0,0,0,0,0,0,-1,1931,1373,100.351,-40.1686
714,-349,65.1287,22.8026,0,0,0,0,0,0,0,-1,1938,1373,65.1287,-22.8026
721,-349,19.6688,5.93604,0,0,0,0,0,0,0,-1,1945,1373,19.6688,-5.93606
728,-349,18.6333,3.73218,0,0,0,0,0,0,0,-1,1952,1373,18.6333,-3.73214
735,-349,18.1918,3.39954,0,0,0,0,0,0,0,-1,1959,1373,18.1918,-3.3995
742,-349,20.7345,2.07483,0,0,0,0,0,0,0,-1,1966,1373,20.7345,-2.07485
749,-349,21.9037,1.45789,0,0,0,0,0,0,0,-1,1973,1373,21.9037,-1.45788
756,-349,0,0,0,0,0,0,0,0,0,-1,1980,1373,0,0
763,-349,0,0,0,0,0,0,0,0,0,-1,1987,1373,0,0
770,-349,0,0,0,0,0,0,0,0,0,-1,1994,1373,0,0
777,-349,0,0,0,0,0,0,0,0,0,-1,2001,1373,0,0
784,-349,0,0,0,0,0,0,0,0,0,-1,2008,1373,0,0
791,-349,0,0,0,0,0,0,0,0,0,-1,2015,1373,0,0
798,-349,0,0,0,0,0,0,0,0,0,-1,2022,1373,0,0
805,-349,0,0,0,0,0,0,0,0,0,-1,2029,1373,0,0
812,-349,0,0,0,0,0,0,0,0,0,-1,2036,1373,0,0
-700,-356,0,0,0,0,0,0,0,0,0,-1,524,1380,0,0
-693,-356,0,0,0,0,0,0,0,0,0,-1,531,1380,0,0
-686,-356,0,0,0,0,0,0,0,0,0,-1,538,1380,0,0
-679,-356,0,0,0,0,0,0,0,0,0,-1,545,1380,0,0
-672,-356,0,0,0,0,0,0,0,0,0,-1,552,1380,0,0
-665,-356,0,0,0,0,0,0,0,0,0,-1,559,1380,0,0
-658,-356,0,0,0,0,0,0,0,0,0,-1,566,1380,0,0
-651,-356,0,0,0,0,0,0,0,0,0,-1,573,1380,0,0
-644,-356,0,0,0,0,0,0,0,0,0,-1,580,1380,0,0
-637,-356,0,0,0,0,0,0,0,0,0,-1,587,1380,0,0
-630,-356,-8.23126,-5.01917,0,0,0,0,0,0,0,-1,594,1380,-8.23124,5.0192
-623,-356,-0.263855,-0.675781,0,0,0,0,0,0,0,-1,601,1380,-0.263835,0.675841
-616,-356,-8.26532,-3.43945,0,0,0,0,0,0,0,-1,608,1380,-8.2653,3.43948
-609,-356,-4.88483,0.734497,0,0,0,0,0,0,0,-1,615,1380,-4.88485,-0.734532
-602,-356,-9.06635,2.4021,0,0,0,0,0,0,0,-1,622,1380,-9.06634,-2.40206
-595,-356,-8.45703,3.61853,0,0,0,0,0,0,0,-1,629,1380,-8.45706,-3.61848
-588,-356,-9.31738,4.14258,0,0,0,0,0,0,0,-1,636,1380,-9.31736,-4.14255
-581,-356,-16.5185,7.32312,0,0,0,0,0,0,0,-1,643,1380,-16.5185,-7.32306
-574,-356,-92.5453,39.4684,0,0,0,0,0,0,0,-1,650,1380,-92.5453,-39.4684
-567,-356,-92.8361,41.8627,0.00913449,0.0132127,-8.36369e-05,0.0132144,0.00913278,-1.5503,0.00781291,0.0424428,657,1380,-92.8361,-41.8627
-560,-356,-93.1599,44.3719,0.00975344,0.00838703,-0.000789065,0.010114,0.00802649,-0.428588,0.00616576,0.0235507,664,1380,-93.1598,-44.3719
-553,-356,-93.4864,46.6865,0.00997549,0.0053219,-0.000922365,0.0101516,0.00514575,-0.188704,0.00586124,0.0252978,671,1380,-93.4864,-46.6866
-546,-356,-93.9089,49.0219,0.00982218,0.00316028,-0.000864285,0.00993248,0.00304998,-0.126936,0.0058751,0.0278269,678,1380,-93.909,-49.0218
-539,-356,-94.2642,51.4196,0.00879379,0.00173342,-0.000613401,0.00884669,0.00168053,-0.0860206,0.00542508,0.0316945,685,1380,-94.2642,-51.4195
-532,-356,-94.4644,53.8508,0,0,0,0,0,0,0,-1,692,1380,-94.4643,-53.8509
-525,-356,-93.0189,56.4785,0,0,0,0,0,0,0,-1,699,1380,-93.0188,-56.4785
-518,-356,-93.6779,58.5238,0,0,0,0,0,0,0,-1,706,1380,-93.6779,-58.5238
-511,-356,-86.5028,58.0922,0,0,0,0,0,0,0,-1,713,1380,-86.5028,-58.0921
-504,-356,-14.3925,12.3971,0,0,0,0,0,0,0,-1,720,1380,-14.3925,-12.3971
-497,-356,-5.68604,4.96387,0,0,0,0,0,0,0,-1,727,1380,-5.68605,-4.96385
-490,-356,-7.95288,5.5625,0,0,0,0,0,0,0,-1,734,1380,-7.95285,-5.56246
-483,-356,-7.2627,4.07446,0,0,0,0,0,0,0,-1,741,1380,-7.2627,-4.07441
-476,-356,-5.1936,4.16016,0,0,0,0,0,0,0,-1,748,1380,-5.1936,-4.16012
-469,-356,-10.0883,0.536011,0,0,0,0,0,0,0,-1,755,1380,-10.0883,-0.535989
-462,-356,-12.3481,-0.215698,0,0,0,0,0,0,0,-1,762,1380,-12.3481,0.215641
-455,-356,-13.1367,-0.264648,0,0,0,0,0,0,0,-1,769,1380,-13.1367,0.264647
-448,-356,-13.9116,-0.310181,0,0,0,0,0,0,0,-1,776,1380,-13.9115,0.310207
-441,-356,-13.1602,3.05603,0,0,0,0,0,0,0,-1,783,1380,-13.1602,-3.05609
-434,-356,0,0,0,0,0,0,0,0,0,-1,790,1380,0,0
-427,-356,0,0,0,0,0,0,0,0,0,-1,797,1380,0,0
-420,-356,0,0,0,0,0,0,0,0,0,-1,804,1380,0,0
-413,-356,0,0,0,0,0,0,0,0,0,-1,811,1380,0,0
-406,-356,0,0,0,0,0,0,0,0,0,-1,818,1380,0,0
-399,-356,0,0,0,0,0,0,0,0,0,-1,825,1380,0,0
-392,-356,0,0,0,0,0,0,0,0,0,-1,832,1380,0,0
-385,-356,0,0,0,0,0,0,0,0,0,-1,839,1380,0,0
-378,-356,0,0,0,0,0,0,0,0,0,-1,846,1380,0,0
-371,-356,0,0,0,0,0,0,0,0,0,-1,853,1380,0,0
-364,-356,0,0,0,0,0,0,0,0,0,-1,860,1380,0,0
-357,-356,0,0,0,0,0,0,0,0,0,-1,867,1380,0,0
-350,-356,0,0,0,0,0,0,0,0,0,-1,874,1380,0,0
-343,-356,0,0,0,0,0,0,0,0,0,-1,881,1380,0,0
-336,-356,0,0,0,0,0,0,0,0,0,-1,888,1380,0,0
-329,-356,0,0,0,0,0,0,0,0,0,-1,895,1380,0,0
-322,-356,0,0,0,0,0,0,0,0,0,-1,902,1380,0,0
-315,-356,0,0,0,0,0,0,0,0,0,-1,909,1380,0,0
-308,-356,0,0,0,0,0,0,0,0,0,-1,916,1380,0,0
-301,-356,0,0,0,0,0,0,0,0,0,-1,923,1380,0,0
-294,-356,0,0,0,0,0,0,0,0,0,-1,930,1380,0,0
-287,-356,0,0,0,0,0,0,0,0,0,-1,937,1380,0,0
-280,-356,0,0,0,0,0,0,0,0,0,-1,944,1380,0,0
-273,-356,0,0,0,0,0,0,0,0,0,-1,951,1380,0,0
-266,-356,0,0,0,0,0,0,0,0,0,-1,958,1380,0,0
-259,-356,0,0,0,0,0,0,0,0,0,-1,965,1380,0,0
-252,-356,0,0,0,0,0,0,0,0,0,-1,972,1380,0,0
-245,-356,0,0,0,0,0,0,0,0,0,-1,979,1380,0,0
-238,-356,0,0,0,0,0,0,0,0,0,-1,986,1380,0,0
-231,-356,0,0,0,0,0,0,0,0,0,-1,993,1380,0,0
-224,-356,0,0,0,0,0,0,0,0,0,-1,1000,1380,0,0
-217,-356,0,0,0,0,0,0,0,0,0,-1,1007,1380,0,0
-210,-356,0,0,0,0,0,0,0,0,0,-1,1014,1380,0,0
-203,-356,0,0,0,0,0,0,0,0,0,-1,1021,1380,0,0
-196,-356,0,0,0,0,0,0,0,0,0,-1,1028,1380,0,0
-189,-356,0,0,0,0,0,0,0,0,0,-1,1035,1380,0,0
-182,-356,0,0,0,0,0,0,0,0,0,-1,1042,1380,0,0
-175,-356,0,0,0,0,0,0,0,0,0,-1,1049,1380,0,0
-168,-356,0,0,0,0,0,0,0,0,0,-1,1056,1380,0,0
-161,-356,0,0,0,0,0,0,0,0,0,-1,1063,1380,0,0
-154,-356,0,0,0,0,0,0,0,0,0,-1,1070,1380,0,0
-147,-356,0,0,0,0,0,0,0,0,0,-1,1077,1380,0,0
-140,-356,0,0,0,0,0,0,0,0,0,-1,1084,1380,0,0
-133,-356,0,0,0,0,0,0,0,0,0,-1,1091,1380,0,0
-126,-356,0,0,0,0,0,0,0,0,0,-1,1098,1380,0,0
-119,-356,0,0,0,0,0,0,0,0,0,-1,1105,1380,0,0
-112,-356,0,0,0,0,0,0,0,0,0,-1,1112,1380,0,0
-105,-356,0,0,0,0,0,0,0,0,0,-1,1119,1380,0,0
-98,-356,0,0,0,0,0,0,0,0,0,-1,1126,1380,0,0
-91,-356,0,0,0,0,0,0,0,0,0,-1,1133,1380,0,0
-84,-356,0,0,0,0,0,0,0,0,0,-1,1140,1380,0,0
-77,-356,0,0,0,0,0,0,0,0,0,-1,1147,1380,0,0
-70,-356,0,0,0,0,0,0,0,0,0,-1,1154,1380,0,0
-63,-356,0,0,0,0,0,0,0,0,0,-1,1161,1380,0,0
-56,-356,0,0,0,0,0,0,0,0,0,-1,1168,1380,0,0
-49,-356,0,0,0,0,0,0,0,0,0,-1,1175,1380,0,0
-42,-356,0,0,0,0,0,0,0,0,0,-1,1182,1380,0,0
-35,-356,0,0,0,0,0,0,0,0,0,-1,1189,1380,0,0
-28,-356,0,0,0,0,0,0,0,0,0,-1,1196,1380,0,0
-21,-356,0,0,0,0,0,0,0,0,0,-1,1203,1380,0,0
-14,-356,0,0,0,0,0,0,0,0,0,-1,1210,1380,0,0
-7,-356,0,0,0,0,0,0,0,0,0,-1,1217,1380,0,0
0,-356,0,0,0,0,0,0,0,0,0,-1,1224,1380,0,0
7,-356,0,0,0,0,0,0,0,0,0,-1,1231,1380,0,0
14,-356,0,0,0,0,0,0,0,0,0,-1,1238,1380,0,0
21,-356,0,0,0,0,0,0,0,0,0,-1,1245,1380,0,0
28,-356,0,0,0,0,0,0,0,0,0,-1,1252,1380,0,0
35,-356,0,0,0,0,0,0,0,0,0,-1,1259,1380,0,0
42,-356,0,0,0,0,0,0,0,0,0,-1,1266,1380,0,0
49,-356,0,0,0,0,0,0,0,0,0,-1,1273,1380,0,0
56,-356,0,0,0,0,0,0,0,0,0,-1,1280,1380,0,0
63,-356,0,0,0,0,0,0,0,0,0,-1,1287,1380,0,0
70,-356,0,0,0,0,0,0,0,0,0,-1,1294,1380,0,0
77,-356,0,0,0,0,0,0,0,0,0,-1,1301,1380,0,0
84,-356,0,0,0,0,0,0,0,0,0,-1,1308,1380,0,0
91,-356,0,0,0,0,0,0,0,0,0,-1,1315,1380,0,0
98,-356,0,0,0,0,0,0,0,0,0,-1,1322,1380,0,0
105,-356,0,0,0,0,0,0,0,0,0,-1,1329,1380,0,0
112,-356,0,0,0,0,0,0,0,0,0,-1,1336,1380,0,0
119,-356,0,0,0,0,0,0,0,0,0,-1,1343,1380,0,0
126,-356,0,0,0,0,0,0,0,0,0,-1,1350,1380,0,0
133,-356,0,0,0,0,0,0,0,0,0,-1,1357,1380,0,0
140,-356,0,0,0,0,0,0,0,0,0,-1,1364,1380,0,0
147,-356,0,0,0,0,0,0,0,0,0,-1,1371,1380,0,0
154,-356,0,0,0,0,0,0,0,0,0,-1,1378,1380,0,0
161,-356,0,0,0,0,0,0,0,0,0,-1,1385,1380,0,0
168,-356,0,0,0,0,0,0,0,0,0,-1,1392,1380,0,0
175,-356,0,0,0,0,0,0,0,0,0,-1,1399,1380,0,0
182,-356,0,0,0,0,0,0,0,0,0,-1,1406,1380,0,0
189,-356,0,0,0,0,0,0,0,0,0,-1,1413,1380,0,0
196,-356,0,0,0,0,0,0,0,0,0,-1,1420,1380,0,0
203,-356,0,0,0,0,0,0,0,0,0,-1,1427,1380,0,0
210,-356,0,0,0,0,0,0,0,0,0,-1,1434,1380,0,0
217,-356,0,0,0,0,0,0,0,0,0,-1,1441,1380,0,0
224,-356,0,0,0,0,0,0,0,0,0,-1,1448,1380,0,0
231,-356,0,0,0,0,0,0,0,0,0,-1,1455,1380,0,0
238,-356,0,0,0,0,0,0,0,0,0,-1,1462,1380,0,0
245,-356,0,0,0,0,0,0,0,0,0,-1,1469,1380,0,0
252,-356,0,0,0,0,0,0,0,0,0,-1,1476,1380,0,0
259,-356,0,0,0,0,0,0,0,0,0,-1,1483,1380,0,0
266,-356,0,0,0,0,0,0,0,0,0,-1,1490,1380,0,0
273,-356,0,0,0,0,0,0,0,0,0,-1,1497,1380,0,0
280,-356,0,0,0,0,0,0,0,0,0,-1,1504,1380,0,0
287,-356,0,0,0,0,0,0,0,0,0,-1,1511,1380,0,0
294,-356,0,0,0,0,0,0,0,0,0,-1,1518,1380,0,0
301,-356,0,0,0,0,0,0,0,0,0,-1,1525,1380,0,0
308,-356,0,0,0,0,0,0,0,0,0,-1,1532,1380,0,0
315,-356,0,0,0,0,0,0,0,0,0,-1,1539,1380,0,0
322,-356,0,0,0,0,0,0,0,0,0,-1,1546,1380,0,0
329,-356,0,0,0,0,0,0,0,0,0,-1,1553,1380,0,0
336,-356,0,0,0,0,0,0,0,0,0,-1,1560,1380,0,0
343,-356,0,0,0,0,0,0,0,0,0,-1,1567,1380,0,0
350,-356,0,0,0,0,0,0,0,0,0,-1,1574,1380,0,0
357,-356,0,0,0,0,0,0,0,0,0,-1,1581,1380,0,0
364,-356,0,0,0,0,0,0,0,0,0,-1,1588,1380,0,0
371,-356,0,0,0,0,0,0,0,0,0,-1,1595,1380,0,0
378,-356,0,0,0,0,0,0,0,0,0,-1,1602,1380,0,0
385,-356,0,0,0,0,0,0,0,0,0,-1,1609,1380,0,0
392,-356,0,0,0,0,0,0,0,0,0,-1,1616,1380,0,0
399,-356,0,0,0,0,0,0,0,0,0,-1,1623,1380,0,0
406,-356,0,0,0,0,0,0,0,0,0,-1,1630,1380,0,0
413,-356,0,0,0,0,0,0,0,0,0,-1,1637,1380,0,0
420,-356,0,0,0,0,0,0,0,0,0,-1,1644,1380,0,0
427,-356,0,0,0,0,0,0,0,0,0,-1,1651,1380,0,0
434,-356,0,0,0,0,0,0,0,0,0,-1,1658,1380,0,0
441,-356,0,0,0,0,0,0,0,0,0,-1,1665,1380,0,0
448,-356,0,0,0,0,0,0,0,0,0,-1,1672,1380,0,0
455,-356,0,0,0,0,0,0,0,0,0,-1,1679,1380,0,0
462,-356,0,0,0,0,0,0,0,0,0,-1,1686,1380,0,0
469,-356,0,0,0,0,0,0,0,0,0,-1,1693,1380,0,0
476,-356,0,0,0,0,0,0,0,0,0,-1,1700,1380,0,0
483,-356,0,0,0,0,0,0,0,0,0,-1,1707,1380,0,0
490,-356,0,0,0,0,0,0,0,0,0,-1,1714,1380,0,0
497,-356,0,0,0,0,0,0,0,0,0,-1,1721,1380,0,0
504,-356,0,0,0,0,0,0,0,0,0,-1,1728,1380,0,0
511,-356,0,0,0,0,0,0,0,0,0,-1,1735,1380,0,0
518,-356,0,0,0,0,0,0,0,0,0,-1,1742,1380,0,0
525,-356,0,0,0,0,0,0,0,0,0,-1,1749,1380,0,0
532,-356,0,0,0,0,0,0,0,0,0,-1,1756,1380,0,0
539,-356,0,0,0,0,0,0,0,0,0,-1,1763,1380,0,0
546,-356,0,0,0,0,0,0,0,0,0,-1,1770,1380,0,0
553,-356,0,0,0,0,0,0,0,0,0,-1,1777,1380,0,0
560,-356,63.6171,3.12183,0,0,0,0,0,0,0,-1,1784,1380,63.617,-3.12183
567,-356,65.0425,1.89966,0,0,0,0,0,0,0,-1,1791,1380,65.0424,-1.8996
574,-356,45.5742,3.39575,0,0,0,0,0,0,0,-1,1798,1380,45.5742,-3.39574
581,-356,45.6708,3.64172,0,0,0,0,0,0,0,-1,1805,1380,45.6707,-3.64175
588,-356,44.4739,4.87085,0,0,0,0,0,0,0,-1,1812,1380,44.4739,-4.87086
595,-356,32.0834,5.86084,0,0,0,0,0,0,0,-1,1819,1380,32.0834,-5.86079
602,-356,30.1604,6.07104,0,0,0,0,0,0,0,-1,1826,1380,30.1604,-6.07104
609,-356,28.3435,6.48901,0,0,0,0,0,0,0,-1,1833,1380,28.3435,-6.48899
616,-356,26.9358,6.80872,0,0,0,0,0,0,0,-1,1840,1380,26.9358,-6.80877
623,-356,16.1803,1.07532,0,0,0,0,0,0,0,-1,1847,1380,16.1803,-1.07529
630,-356,16.4138,6.91553,0,0,0,0,0,0,0,-1,1854,1380,16.4138,-6.9155
637,-356,24.8021,12.0151,0,0,0,0,0,0,0,-1,1861,1380,24.8022,-12.0151
644,-356,80.338,48.7954,0,0,0,0,0,0,0,-1,1868,1380,80.338,-48.7954
651,-356,87.4346,51.2051,0,0,0,0,0,0,0,-1,1875,1380,87.4345,-51.205
658,-356,94.4417,53.7695,0,0,0,0,0,0,0,-1,1882,1380,94.4416,-53.7695
665,-356,100.06,54.5579,0,0,0,0,0,0,0,-1,1889,1380,100.06,-54.5579
672,-356,99.813,52.2629,0.0026312,-0.0019718,0.00382503,0.00479375,-0.00413435,0.514566,0.00515933,0.0291672,1896,1380,99.813,-52.2629
679,-356,99.4944,49.8712,0.00259773,-0.000826473,0.00416744,0.00539105,-0.00361979,0.590495,0.00523581,0.0236876,1903,1380,99.4944,-49.8712
686,-356,99.0657,47.4479,0.00281585,0.000937758,0.00418425,0.00616514,-0.00241152,0.675015,0.00510737,0.0282132,1910,1380,99.0657,-47.4479
693,-356,98.6946,45.1693,0.00325533,0.00330612,0.00393389,0.0072147,-0.000653246,0.788626,0.00504167,0.023183,1917,1380,98.6946,-45.1693
700,-356,98.3647,42.8905,0.00380892,0.00627364,0.00347529,0.0087286,0.00135395,0.955784,0.00542437,0.0300837,1924,1380,98.3647,-42.8905
707,-356,98.1055,40.5463,0,0,0,0,0,0,0,-1,1931,1380,98.1055,-40.5462
714,-356,19.6907,5.82129,0,0,0,0,0,0,0,-1,1938,1380,19.6907,-5.82132
721,-356,17.2948,4.1958,0,0,0,0,0,0,0,-1,1945,1380,17.2948,-4.19584
728,-356,19.1846,2.31519,0,0,0,0,0,0,0,-1,1952,1380,19.1846,-2.31514
735,-356,20.0731,2.50842,0,0,0,0,0,0,0,-1,1959,1380,20.0731,-2.50844
742,-356,21.0111,2.43762,0,0,0,0,0,0,0,-1,1966,1380,21.0112,-2.43762
749,-356,22.1411,1.83276,0,0,0,0,0,0,0,-1,1973,1380,22.1411,-1.83275
756,-356,0,0,0,0,0,0,0,0,0,-1,1980,1380,0,0
763,-356,0,0,0,0,0,0,0,0,0,-1,1987,1380,0,0
770,-356,0,0,0,0,0,0,0,0,0,-1,1994,1380,0,0
777,-356,0,0,0,0,0,0,0,0,0,-1,2001,1380,0,0
784,-356,0,0,0,0,0,0,0,0,0,-1,2008,1380,0,0
791,-356,0,0,0,0,0,0,0,0,0,-1,2015,1380,0,0
798,-356,0,0,0,0,0,0,0,0,0,-1,2022,1380,0,0
805,-356,0,0,0,0,0,0,0,0,0,-1,2029,1380,0,0
812,-356,0,0,0,0,0,0,0,0,0,-1,2036,1380,0,0
-700,-363,0,0,0,0,0,0,0,0,0,-1,524,1387,0,0
-693,-363,0,0,0,0,0,0,0,0,0,-1,531,1387,0,0
-686,-363,0,0,0,0,0,0,0,0,0,-1,538,1387,0,0
-679,-363,0,0,0,0,0,0,0,0,0,-1,545,1387,0,0
-672,-363,0,0,0,0,0,0,0,0,0,-1,552,1387,0,0
-665,-363,0,0,0,0,0,0,0,0,0,-1,559,1387,0,0
-658,-363,0,0,0,0,0,0,0,0,0,-1,566,1387,0,0
-651,-363,0,0,0,0,0,0,0,0,0,-1,573,1387,0,0
-644,-363,0,0,0,0,0,0,0,0,0,-1,580,1387,0,0
-637,-363,0,0,0,0,0,0,0,0,0,-1,587,1387,0,0
-630,-363,0,0,0,0,0,0,0,0,0,-1,594,1387,0,0
-623,-363,-9.67566,-5.91846,0,0,0,0,0,0,0,-1,601,1387,-9.67563,5.91847
-616,-363,-9.02985,-2.98083,0,0,0,0,0,0,0,-1,608,1387,-9.02987,2.98079
-609,-363,-4.90265,0.195679,0,0,0,0,0,0,0,-1,615,1387,-4.90263,-0.195721
-602,-363,-9.65009,3.5321,0,0,0,0,0,0,0,-1,622,1387,-9.65007,-3.53211
-595,-363,-8.00256,3.48853,0,0,0,0,0,0,0,-1,629,1387,-8.00256,-3.48855
-588,-363,-10.8846,4.49768,0,0,0,0,0,0,0,-1,636,1387,-10.8846,-4.49773
-581,-363,-11.7469,5.15161,0,0,0,0,0,0,0,-1,643,1387,-11.747,-5.15167
-574,-363,-17.8334,8.33801,0,0,0,0,0,0,0,-1,650,1387,-17.8334,-8.33804
-567,-363,-90.4565,42.2944,0,0,0,0,0,0,0,-1,657,1387,-90.4565,-42.2945
-560,-363,-90.7842,44.7202,0.00847517,0.00888863,-0.000834564,0.00954169,0.00782211,-0.906811,0.00587246,0.0190864,664,1387,-90.7842,-44.7202
-553,-363,-91.14,47.1228,0.00914104,0.00582422,-0.00066027,0.00926764,0.00569761,-0.189449,0.00539747,0.0172503,671,1387,-91.14,-47.1229
-546,-363,-91.566,49.4607,0.00954551,0.00375334,-0.000216496,0.00955359,0.00374526,-0.037308,0.00555847,0.0183777,678,1387,-91.5661,-49.4606
-539,-363,-91.8695,51.8529,0.00891901,0.0024376,0.000289771,0.00893194,0.00242467,0.0445894,0.0053334,0.0230714,685,1387,-91.8695,-51.853
-532,-363,-92.1549,54.1973,0.00782334,0.00176821,0.000885256,0.00795011,0.00164144,0.142234,0.00484649,0.0343156,692,1387,-92.1549,-54.1973
-525,-363,-92.6536,56.8333,0,0,0,0,0,0,0,-1,699,1387,-92.6536,-56.8332
-518,-363,-91.1656,58.6323,0,0,0,0,0,0,0,-1,706,1387,-91.1656,-58.6323
-511,-363,-91.3474,60.9979,0,0,0,0,0,0,0,-1,713,1387,-91.3474,-60.998
-504,-363,-82.3174,59.6276,0,0,0,0,0,0,0,-1,720,1387,-82.3174,-59.6276
-497,-363,-7.18842,7.29944,0,0,0,0,0,0,0,-1,727,1387,-7.18839,-7.29945
-490,-363,-5.42413,4.6958,0,0,0,0,0,0,0,-1,734,1387,-5.42412,-4.69583
-483,-363,-6.28375,4.1394,0,0,0,0,0,0,0,-1,741,1387,-6.28374,-4.13944
-476,-363,-5.83807,4.31018,0,0,0,0,0,0,0,-1,748,1387,-5.8381,-4.31013
-469,-363,-10.7125,0.697754,0,0,0,0,0,0,0,-1,755,1387,-10.7125,-0.697811
-462,-363,-9.55951,-0.0830078,0,0,0,0,0,0,0,-1,762,1387,-9.55949,0.0830163
-455,-363,-13.1008,-0.290894,0,0,0,0,0,0,0,-1,769,1387,-13.1008,0.290921
-448,-363,-11.7324,2.46606,0,0,0,0,0,0,0,-1,776,1387,-11.7324,-2.46605
-441,-363,-12.4464,2.5354,0,0,0,0,0,0,0,-1,783,1387,-12.4463,-2.53537
-434,-363,-13.6918,2.14661,0,0,0,0,0,0,0,-1,790,1387,-13.6918,-2.14662
-427,-363,0,0,0,0,0,0,0,0,0,-1,797,1387,0,0
-420,-363,0,0,0,0,0,0,0,0,0,-1,804,1387,0,0
-413,-363,0,0,0,0,0,0,0,0,0,-1,811,1387,0,0
-406,-363,0,0,0,0,0,0,0,0,0,-1,818,1387,0,0
-399,-363,0,0,0,0,0,0,0,0,0,-1,825,1387,0,0
-392,-363,0,0,0,0,0,0,0,0,0,-1,832,1387,0,0
-385,-363,0,0,0,0,0,0,0,0,0,-1,839,1387,0,0
-378,-363,0,0,0,0,0,0,0,0,0,-1,846,1387,0,0
-371,-363,0,0,0,0,0,0,0,0,0,-1,853,1387,0,0
-364,-363,0,0,0,0,0,0,0,0,0,-1,860,1387,0,0
-357,-363,0,0,0,0,0,0,0,0,0,-1,867,1387,0,0
-350,-363,0,0,0,0,0,0,0,0,0,-1,874,1387,0,0
-343,-363,0,0,0,0,0,0,0,0,0,-1,881,1387,0,0
-336,-363,0,0,0,0,0,0,0,0,0,-1,888,1387,0,0
-329,-363,0,0,0,0,0,0,0,0,0,-1,895,1387,0,0
-322,-363,0,0,0,0,0,0,0,0,0,-1,902,1387,0,0
-315,-363,0,0,0,0,0,0,0,0,0,-1,909,1387,0,0
-308,-363,0,0,0,0,0,0,0,0,0,-1,916,1387,0,0
-301,-363,0,0,0,0,0,0,0,0,0,-1,923,1387,0,0
-294,-363,0,0,0,0,0,0,0,0,0,-1,930,1387,0,0
-287,-363,0,0,0,0,0,0,0,0,0,-1,937,1387,0,0
-280,-363,0,0,0,0,0,0,0,0,0,-1,944,1387,0,0
-273,-363,0,0,0,0,0,0,0,0,0,-1,951,1387,0,0
-266,-363,0,0,0,0,0,0,0,0,0,-1,958,1387,0,0
-259,-363,0,0,0,0,0,0,0,0,0,-1,965,1387,0,0
-252,-363,0,0,0,0,0,0,0,0,0,-1,972,1387,0,0
-245,-363,0,0,0,0,0,0,0,0,0,-1,979,1387,0,0
-238,-363,0,0,0,0,0,0,0,0,0,-1,986,1387,0,0
-231,-363,0,0,0,0,0,0,0,0,0,-1,993,1387,0,0
-224,-363,0,0,0,0,0,0,0,0,0,-1,1000,1387,0,0
-217,-363,0,0,0,0,0,0,0,0,0,-1,1007,1387,0,0
-210,-363,0,0,0,0,0,0,0,0,0,-1,1014,1387,0,0
-203,-363,0,0,0,0,0,0,0,0,0,-1,1021,1387,0,0
-196,-363,0,0,0,0,0,0,0,0,0,-1,1028,1387,0,0
-189,-363,0,0,0,0,0,0,0,0,0,-1,1035,1387,0,0
-182,-363,0,0,0,0,0,0,0,0,0,-1,1042,1387,0,0
-175,-363,0,0,0,0,0,0,0,0,0,-1,1049,1387,0,0
-168,-363,0,0,0,0,0,0,0,0,0,-1,1056,1387,0,0
-161,-363,0,0,0,0,0,0,0,0,0,-1,1063,1387,0,0
-154,-363,0,0,0,0,0,0,0,0,0,-1,1070,1387,0,0
-147,-363,0,0,0,0,0,0,0,0,0,-1,1077,1387,0,0
-140,-363,0,0,0,0,0,0,0,0,0,-1,1084,1387,0,0
-133,-363,0,0,0,0,0,0,0,0,0,-1,1091,1387,0,0
-126,-363,0,0,0,0,0,0,0,0,0,-1,1098,1387,0,0
-119,-363,0,0,0,0,0,0,0,0,0,-1,1105,1387,0,0
-112,-363,0,0,0,0,0,0,0,0,0,-1,1112,1387,0,0
-105,-363,0,0,0,0,0,0,0,0,0,-1,1119,1387,0,0
-98,-363,0,0,0,0,0,0,0,0,0,-1,1126,1387,0,0
-91,-363,0,0,0,0,0,0,0,0,0,-1,1133,1387,0,0
-84,-363,0,0,0,0,0,0,0,0,0,-1,1140,1387,0,0
-77,-363,0,0,0,0,0,0,0,0,0,-1,1147,1387,0,0
-70,-363,0,0,0,0,0,0,0,0,0,-1,1154,1387,0,0
-63,-363,0,0,0,0,0,0,0,0,0,-1,1161,1387,0,0
-56,-363,0,0,0,0,0,0,0,0,0,-1,1168,1387,0,0
-49,-363,0,0,0,0,0,0,0,0,0,-1,1175,1387,0,0
-42,-363,0,0,0,0,0,0,0,0,0,-1,1182,1387,0,0
-35,-363,0,0,0,0,0,0,0,0,0,-1,1189,1387,0,0
-28,-363,0,0,0,0,0,0,0,0,0,-1,1196,1387,0,0
-21,-363,0,0,0,0,0,0,0,0,0,-1,1203,1387,0,0
-14,-363,0,0,0,0,0,0,0,0,0,-1,1210,1387,0,0
-7,-363,0,0,0,0,0,0,0,0,0,-1,1217,1387,0,0
0,-363,0,0,0,0,0,0,0,0,0,-1,1224,1387,0,0
7,-363,0,0,0,0,0,0,0,0,0,-1,1231,1387,0,0
14,-363,0,0,0,0,0,0,0,0,0,-1,1238,1387,0,0
21,-363,0,0,0,0,0,0,0,0,0,-1,1245,1387,0,0
28,-363,0,0,0,0,0,0,0,0,0,-1,1252,1387,0,0
35,-363,0,0,0,0,0,0,0,0,0,-1,1259,1387,0,0
42,-363,0,0,0,0,0,0,0,0,0,-1,1266,1387,0,0
49,-363,0,0,0,0,0,0,0,0,0,-1,1273,1387,0,0
56,-363,0,0,0,0,0,0,0,0,0,-1,1280,1387,0,0
63,-363,0,0,0,0,0,0,0,0,0,-1,1287,1387,0,0
70,-363,0,0,0,0,0,0,0,0,0,-1,1294,1387,0,0
77,-363,0,0,0,0,0,0,0,0,0,-1,1301,1387,0,0
84,-363,0,0,0,0,0,0,0,0,0,-1,1308,1387,0,0
91,-363,0,0,0,0,0,0,0,0,0,-1,1315,1387,0,0
98,-363,0,0,0,0,0,0,0,0,0,-1,1322,1387,0,0
105,-363,0,0,0,0,0,0,0,0,0,-1,1329,1387,0,0
112,-363,0,0,0,0,0,0,0,0,0,-1,1336,1387,0,0
119,-363,0,0,0,0,0,0,0,0,0,-1,1343,1387,0,0
126,-363,0,0,0,0,0,0,0,0,0,-1,1350,1387,0,0
133,-363,0,0,0,0,0,0,0,0,0,-1,1357,1387,0,0
140,-363,0,0,0,0,0,0,0,0,0,-1,1364,1387,0,0
147,-363,0,0,0,0,0,0,0,0,0,-1,1371,1387,0,0
154,-363,0,0,0,0,0,0,0,0,0,-1,1378,1387,0,0
161,-363,0,0,0,0,0,0,0,0,0,-1,1385,1387,0,0
168,-363,0,0,0,0,0,0,0,0,0,-1,1392,1387,0,0
175,-363,0,0,0,0,0,0,0,0,0,-1,1399,1387,0,0
182,-363,0,0,0,0,0,0,0,0,0,-1,1406,1387,0,0
189,-363,0,0,0,0,0,0,0,0,0,-1,1413,1387,0,0
196,-363,0,0,0,0,0,0,0,0,0,-1,1420,1387,0,0
203,-363,0,0,0,0,0,0,0,0,0,-1,1427,1387,0,0
210,-363,0,0,0,0,0,0,0,0,0,-1,1434,1387,0,0
217,-363,0,0,0,0,0,0,0,0,0,-1,1441,1387,0,0
224,-363,0,0,0,0,0,0,0,0,0,-1,1448,1387,0,0
231,-363,0,0,0,0,0,0,0,0,0,-1,1455,1387,0,0
238,-363,0,0,0,0,0,0,0,0,0,-1,1462,1387,0,0
245,-363,0,0,0,0,0,0,0,0,0,-1,1469,1387,0,0
252,-363,0,0,0,0,0,0,0,0,0,-1,1476,1387,0,0
259,-363,0,0,0,0,0,0,0,0,0,-1,1483,1387,0,0
266,-363,0,0,0,0,0,0,0,0,0,-1,1490,1387,0,0
273,-363,0,0,0,0,0,0,0,0,0,-1,1497,1387,0,0
280,-363,0,0,0,0,0,0,0,0,0,-1,1504,1387,0,0
287,-363,0,0,0,0,0,0,0,0,0,-1,1511,1387,0,0
294,-363,0,0,0,0,0,0,0,0,0,-1,1518,1387,0,0
301,-363,0,0,0,0,0,0,0,0,0,-1,1525,1387,0,0
308,-363,0,0,0,0,0,0,0,0,0,-1,1532,1387,0,0
315,-363,0,0,0,0,0,0,0,0,0,-1,1539,1387,0,0
322,-363,0,0,0,0,0,0,0,0,0,-1,1546,1387,0,0
329,-363,0,0,0,0,0,0,0,0,0,-1,1553,1387,0,0
336,-363,0,0,0,0,0,0,0,0,0,-1,1560,1387,0,0
343,-363,0,0,0,0,0,0,0,0,0,-1,1567,1387,0,0
350,-363,0,0,0,0,0,0,0,0,0,-1,1574,1387,0,0
357,-363,0,0,0,0,0,0,0,0,0,-1,1581,1387,0,0
364,-363,0,0,0,0,0,0,0,0,0,-1,1588,1387,0,0
371,-363,0,0,0,0,0,0,0,0,0,-1,1595,1387,0,0
378,-363,0,0,0,0,0,0,0,0,0,-1,1602,1387,0,0
385,-363,0,0,0,0,0,0,0,0,0,-1,1609,1387,0,0
392,-363,0,0,0,0,0,0,0,0,0,-1,1616,1387,0,0
399,-363,0,0,0,0,0,0,0,0,0,-1,1623,1387,0,0
406,-363,0,0,0,0,0,0,0,0,0,-1,1630,1387,0,0
413,-363,0,0,0,0,0,0,0,0,0,-1,1637,1387,0,0
420,-363,0,0,0,0,0,0,0,0,0,-1,1644,1387,0,0
427,-363,0,0,0,0,0,0,0,0,0,-1,1651,1387,0,0
434,-363,0,0,0,0,0,0,0,0,0,-1,1658,1387,0,0
441,-363,0,0,0,0,0,0,0,0,0,-1,1665,1387,0,0
448,-363,0,0,0,0,0,0,0,0,0,-1,1672,1387,0,0
455,-363,0,0,0,0,0,0,0,0,0,-1,1679,1387,0,0
462,-363,0,0,0,0,0,0,0,0,0,-1,1686,1387,0,0
469,-363,0,0,0,0,0,0,0,0,0,-1,1693,1387,0,0
476,-363,0,0,0,0,0,0,0,0,0,-1,1700,1387,0,0
483,-363,0,0,0,0,0,0,0,0,0,-1,1707,1387,0,0
490,-363,0,0,0,0,0,0,0,0,0,-1,1714,1387,0,0
497,-363,0,0,0,0,0,0,0,0,0,-1,1721,1387,0,0
504,-363,0,0,0,0,0,0,0,0,0,-1,1728,1387,0,0
511,-363,0,0,0,0,0,0,0,0,0,-1,1735,1387,0,0
518,-363,0,0,0,0,0,0,0,0,0,-1,1742,1387,0,0
525,-363,0,0,0,0,0,0,0,0,0,-1,1749,1387,0,0
532,-363,0,0,0,0,0,0,0,0,0,-1,1756,1387,0,0
539,-363,0,0,0,0,0,0,0,0,0,-1,1763,1387,0,0
546,-363,0,0,0,0,0,0,0,0,0,-1,1770,1387,0,0
553,-363,62.1395,3.42249,0,0,0,0,0,0,0,-1,1777,1387,62.1395,-3.42245
560,-363,63.2896,2.40808,0,0,0,0,0,0,0,-1,1784,1387,63.2896,-2.40811
567,-363,64.4463,1.38135,0,0,0,0,0,0,0,-1,1791,1387,64.4463,-1.38131
574,-363,45.7261,2.8075,0,0,0,0,0,0,0,-1,1798,1387,45.7261,-2.80754
581,-363,39.2413,1.97632,0,0,0,0,0,0,0,-1,1805,1387,39.2413,-1.97636
588,-363,32.5608,6.72131,0,0,0,0,0,0,0,-1,1812,1387,32.5608,-6.72131
595,-363,31.4688,6.95435,0,0,0,0,0,0,0,-1,1819,1387,31.4688,-6.95431
602,-363,25.7437,5.33667,0,0,0,0,0,0,0,-1,1826,1387,25.7437,-5.33667
609,-363,27.7048,7.06885,0,0,0,0,0,0,0,-1,1833,1387,27.7048,-7.06882
616,-363,16.229,1.08704,0,0,0,0,0,0,0,-1,1840,1387,16.229,-1.08706
623,-363,15.7283,7.16663,0,0,0,0,0,0,0,-1,1847,1387,15.7282,-7.16665
630,-363,18.3192,9.27844,0,0,0,0,0,0,0,-1,1854,1387,18.3192,-9.27843
637,-363,78.6736,50.8374,0,0,0,0,0,0,0,-1,1861,1387,78.6736,-50.8373
644,-363,93.6857,58.8877,0,0,0,0,0,0,0,-1,1868,1387,93.6857,-58.8877
651,-363,98.186,60.1615,0,0,0,0,0,0,0,-1,1875,1387,98.186,-60.1615
658,-363,98.5187,57.4021,0,0,0,0,0,0,0,-1,1882,1387,98.5187,-57.402
665,-363,97.958,54.9591,0.00312223,-0.00120693,0.00251466,0.00427562,-0.00236032,0.430038,0.00388409,0.0304584,1889,1387,97.958,-54.9592
672,-363,97.5033,52.6884,0.00296125,-0.000788667,0.003173,0.00477186,-0.00259927,0.518543,0.0043169,0.0190205,1896,1387,97.5033,-52.6884
679,-363,97.1027,50.3485,0.00299884,0.000144934,0.00348919,0.00534159,-0.00219781,0.591293,0.00447724,0.0192801,1903,1387,97.1027,-50.3485
686,-363,96.6948,47.9904,0.00332049,0.00173843,0.00340651,0.00602661,-0.000967685,0.671315,0.00437611,0.0193783,1910,1387,96.6948,-47.9904
693,-363,96.3462,45.6176,0.00387341,0.00407561,0.00292212,0.00689838,0.00105064,0.80269,0.00429179,0.0173267,1917,1387,96.3462,-45.6175
700,-363,96.1287,43.118,0.00452387,0.00703697,0.00208221,0.0082124,0.00334844,1.05688,0.00476827,0.0479634,1924,1387,96.1287,-43.118
707,-363,96.1075,40.6201,0,0,0,0,0,0,0,-1,1931,1387,96.1075,-40.6201
714,-363,16.5782,5.3147,0,0,0,0,0,0,0,-1,1938,1387,16.5783,-5.31472
721,-363,14.4045,4.51685,0,0,0,0,0,0,0,-1,1945,1387,14.4045,-4.51685
728,-363,19.9756,0.853027,0,0,0,0,0,0,0,-1,1952,1387,19.9756,-0.853059
735,-363,21.4297,1.2981,0,0,0,0,0,0,0,-1,1959,1387,21.4297,-1.29811
742,-363,21.3621,2.79663,0,0,0,0,0,0,0,-1,1966,1387,21.362,-2.7966
749,-363,0,0,0,0,0,0,0,0,0,-1,1973,1387,0,0
756,-363,0,0,0,0,0,0,0,0,0,-1,1980,1387,0,0
763,-363,0,0,0,0,0,0,0,0,0,-1,1987,1387,0,0
770,-363,0,0,0,0,0,0,0,0,0,-1,1994,1387,0,0
777,-363,0,0,0,0,0,0,0,0,0,-1,2001,1387,0,0
784,-363,0,0,0,0,0,0,0,0,0,-1,2008,1387,0,0
791,-363,0,0,0,0,0,0,0,0,0,-1,2015,1387,0,0
798,-363,0,0,0,0,0,0,0,0,0,-1,2022,1387,0,0
805,-363,0,0,0,0,0,0,0,0,0,-1,2029,1387,0,0
812,-363,0,0,0,0,0,0,0,0,0,-1,2036,1387,0,0
-700,-370,0,0,0,0,0,0,0,0,0,-1,524,1394,0,0
-693,-370,0,0,0,0,0,0,0,0,0,-1,531,1394,0,0
-686,-370,0,0,0,0,0,0,0,0,0,-1,538,1394,0,0
-679,-370,0,0,0,0,0,0,0,0,0,-1,545,1394,0,0
-672,-370,0,0,0,0,0,0,0,0,0,-1,552,1394,0,0
-665,-370,0,0,0,0,0,0,0,0,0,-1,559,1394,0,0
-658,-370,0,0,0,0,0,0,0,0,0,-1,566,1394,0,0
-651,-370,0,0,0,0,0,0,0,0,0,-1,573,1394,0,0
-644,-370,0,0,0,0,0,0,0,0,0,-1,580,1394,0,0
-637,-370,0,0,0,0,0,0,0,0,0,-1,587,1394,0,0
-630,-370,0,0,0,0,0,0,0,0,0,-1,594,1394,0,0
-623,-370,-10.1758,-7.10486,0,0,0,0,0,0,0,-1,601,1394,-10.1758,7.10483
-616,-370,-8.85925,-1.61475,0,0,0,0,0,0,0,-1,608,1394,-8.85925,1.61476
-609,-370,-5.39325,0.0421143,0,0,0,0,0,0,0,-1,615,1394,-5.39328,-0.0421372
-602,-370,-12.3151,3.44592,0,0,0,0,0,0,0,-1,622,1394,-12.3151,-3.44595
-595,-370,-7.53284,5.44214,0,0,0,0,0,0,0,-1,629,1394,-7.53284,-5.44216
-588,-370,-11.2422,4.50598,0,0,0,0,0,0,0,-1,636,1394,-11.2422,-4.50596
-581,-370,-13.1575,5.84888,0,0,0,0,0,0,0,-1,643,1394,-13.1575,-5.84887
-574,-370,-13.0107,6.69861,0,0,0,0,0,0,0,-1,650,1394,-13.0108,-6.69866
-567,-370,-39.5869,22.689,0,0,0,0,0,0,0,-1,657,1394,-39.5868,-22.689
-560,-370,-88.5025,45.1553,0,0,0,0,0,0,0,-1,664,1394,-88.5025,-45.1553
-553,-370,-88.7631,47.5404,0.00796825,0.0060047,-0.000873996,0.00830091,0.00567204,-0.363693,0.00489871,0.0135357,671,1394,-88.7631,-47.5404
-546,-370,-89.1181,49.8807,0.00844549,0.0040773,-0.000174769,0.00845247,0.00407032,-0.0399244,0.00488114,0.0191272,678,1394,-89.1181,-49.8807
-539,-370,-89.4753,52.2556,0.00790573,0.00289416,0.000440728,0.00794419,0.0028557,0.0870518,0.00464657,0.026482,685,1394,-89.4754,-52.2556
-532,-370,-89.8602,54.6865,0.00673217,0.00227688,0.0011078,0.00699242,0.00201663,0.23074,0.00415583,0.0407035,692,1394,-89.8603,-54.6865
-525,-370,-90.1255,57.0736,0,0,0,0,0,0,0,-1,699,1394,-90.1255,-57.0736
-518,-370,-90.6392,59.5446,0,0,0,0,0,0,0,-1,706,1394,-90.6392,-59.5446
-511,-370,-88.7462,61.3354,0,0,0,0,0,0,0,-1,713,1394,-88.7462,-61.3354
-504,-370,-88.5164,63.4016,0,0,0,0,0,0,0,-1,720,1394,-88.5164,-63.4016
-497,-370,-73.6671,59.0852,0,0,0,0,0,0,0,-1,727,1394,-73.667,-59.0852
-490,-370,-5.30695,4.5271,0,0,0,0,0,0,0,-1,734,1394,-5.30698,-4.52704
-483,-370,-6.02997,4.59253,0,0,0,0,0,0,0,-1,741,1394,-6.02994,-4.5925
-476,-370,-6.75293,4.65796,0,0,0,0,0,0,0,-1,748,1394,-6.7529,-4.65795
-469,-370,-10.584,1.14294,0,0,0,0,0,0,0,-1,755,1394,-10.584,-1.14293
-462,-370,-9.54462,0.387207,0,0,0,0,0,0,0,-1,762,1394,-9.5446,-0.387176
-455,-370,-8.50525,-0.36853,0,0,0,0,0,0,0,-1,769,1394,-8.50523,0.368582
-448,-370,-10.9543,2.28833,0,0,0,0,0,0,0,-1,776,1394,-10.9543,-2.28835
-441,-370,-11.8699,1.8313,0,0,0,0,0,0,0,-1,783,1394,-11.8699,-1.83127
-434,-370,-12.7855,1.37415,0,0,0,0,0,0,0,-1,790,1394,-12.7855,-1.37419
-427,-370,0,0,0,0,0,0,0,0,0,-1,797,1394,0,0
-420,-370,0,0,0,0,0,0,0,0,0,-1,804,1394,0,0
-413,-370,0,0,0,0,0,0,0,0,0,-1,811,1394,0,0
-406,-370,0,0,0,0,0,0,0,0,0,-1,818,1394,0,0
-399,-370,0,0,0,0,0,0,0,0,0,-1,825,1394,0,0
-392,-370,0,0,0,0,0,0,0,0,0,-1,832,1394,0,0
-385,-370,0,0,0,0,0,0,0,0,0,-1,839,1394,0,0
-378,-370,0,0,0,0,0,0,0,0,0,-1,846,1394,0,0
-371,-370,0,0,0,0,0,0,0,0,0,-1,853,1394,0,0
-364,-370,0,0,0,0,0,0,0,0,0,-1,860,1394,0,0
-357,-370,0,0,0,0,0,0,0,0,0,-1,867,1394,0,0
-350,-370,0,0,0,0,0,0,0,0,0,-1,874,1394,0,0
-343,-370,0,0,0,0,0,0,0,0,0,-1,881,1394,0,0
-336,-370,0,0,0,0,0,0,0,0,0,-1,888,1394,0,0
-329,-370,0,0,0,0,0,0,0,0,0,-1,895,1394,0,0
-322,-370,0,0,0,0,0,0,0,0,0,-1,902,1394,0,0
-315,-370,0,0,0,0,0,0,0,0,0,-1,909,1394,0,0
-308,-370,0,0,0,0,0,0,0,0,0,-1,916,1394,0,0
-301,-370,0,0,0,0,0,0,0,0,0,-1,923,1394,0,0
-294,-370,0,0,0,0,0,0,0,0,0,-1,930,1394,0,0
-287,-370,0,0,0,0,0,0,0,0,0,-1,937,1394,0,0
-280,-370,0,0,0,0,0,0,0,0,0,-1,944,1394,0,0
-273,-370,0,0,0,0,0,0,0,0,0,-1,951,1394,0,0
-266,-370,0,0,0,0,0,0,0,0,0,-1,958,1394,0,0
-259,-370,0,0,0,0,0,0,0,0,0,-1,965,1394,0,0
-252,-370,0,0,0,0,0,0,0,0,0,-1,972,1394,0,0
-245,-370,0,0,0,0,0,0,0,0,0,-1,979,1394,0,0
-238,-370,0,0,0,0,0,0,0,0,0,-1,986,1394,0,0
-231,-370,0,0,0,0,0,0,0,0,0,-1,993,1394,0,0
-224,-370,0,0,0,0,0,0,0,0,0,-1,1000,1394,0,0
-217,-370,0,0,0,0,0,0,0,0,0,-1,1007,1394,0,0
-210,-370,0,0,0,0,0,0,0,0,0,-1,1014,1394,0,0
-203,-370,0,0,0,0,0,0,0,0,0,-1,1021,1394,0,0
-196,-370,0,0,0,0,0,0,0,0,0,-1,1028,1394,0,0
-189,-370,0,0,0,0,0,0,0,0,0,-1,1035,1394,0,0
-182,-370,0,0,0,0,0,0,0,0,0,-1,1042,1394,0,0
-175,-370,0,0,0,0,0,0,0,0,0,-1,1049,1394,0,0
-168,-370,0,0,0,0,0,0,0,0,0,-1,1056,1394,0,0
-161,-370,0,0,0,0,0,0,0,0,0,-1,1063,1394,0,0
-154,-370,0,0,0,0,0,0,0,0,0,-1,1070,1394,0,0
-147,-370,0,0,0,0,0,0,0,0,0,-1,1077,1394,0,0
-140,-370,0,0,0,0,0,0,0,0,0,-1,1084,1394,0,0
-133,-370,0,0,0,0,0,0,0,0,0,-1,1091,1394,0,0
-126,-370,0,0,0,0,0,0,0,0,0,-1,1098,1394,0,0
-119,-370,0,0,0,0,0,0,0,0,0,-1,1105,1394,0,0
-112,-370,0,0,0,0,0,0,0,0,0,-1,1112,1394,0,0
-105,-370,0,0,0,0,0,0,0,0,0,-1,1119,1394,0,0
-98,-370,0,0,0,0,0,0,0,0,0,-1,1126,1394,0,0
-91,-370,0,0,0,0,0,0,0,0,0,-1,1133,1394,0,0
-84,-370,0,0,0,0,0,0,0,0,0,-1,1140,1394,0,0
-77,-370,0,0,0,0,0,0,0,0,0,-1,1147,1394,0,0
-70,-370,0,0,0,0,0,0,0,0,0,-1,1154,1394,0,0
-63,-370,0,0,0,0,0,0,0,0,0,-1,1161,1394,0,0
-56,-370,0,0,0,0,0,0,0,0,0,-1,1168,1394,0,0
-49,-370,0,0,0,0,0,0,0,0,0,-1,1175,1394,0,0
-42,-370,0,0,0,0,0,0,0,0,0,-1,1182,1394,0,0
-35,-370,0,0,0,0,0,0,0,0,0,-1,1189,1394,0,0
-28,-370,0,0,0,0,0,0,0,0,0,-1,1196,1394,0,0
-21,-370,0,0,0,0,0,0,0,0,0,-1,1203,1394,0,0
-14,-370,0,0,0,0,0,0,0,0,0,-1,1210,1394,0,0
-7,-370,0,0,0,0,0,0,0,0,0,-1,1217,1394,0,0
0,-370,0,0,0,0,0,0,0,0,0,-1,1224,1394,0,0
7,-370,0,0,0,0,0,0,0,0,0,-1,1231,1394,0,0
14,-370,0,0,0,0,0,0,0,0,0,-1,1238,1394,0,0
21,-370,0,0,0,0,0,0,0,0,0,-1,1245,1394,0,0
28,-370,0,0,0,0,0,0,0,0,0,-1,1252,1394,0,0
35,-370,0,0,0,0,0,0,0,0,0,-1,1259,1394,0,0
42,-370,0,0,0,0,0,0,0,0,0,-1,1266,1394,0,0
49,-370,0,0,0,0,0,0,0,0,0,-1,1273,1394,0,0
56,-370,0,0,0,0,0,0,0,0,0,-1,1280,1394,0,0
63,-370,0,0,0,0,0,0,0,0,0,-1,1287,1394,0,0
70,-370,0,0,0,0,0,0,0,0,0,-1,1294,1394,0,0
77,-370,0,0,0,0,0,0,0,0,0,-1,1301,1394,0,0
84,-370,0,0,0,0,0,0,0,0,0,-1,1308,1394,0,0
91,-370,0,0,0,0,0,0,0,0,0,-1,1315,1394,0,0
98,-370,0,0,0,0,0,0,0,0,0,-1,1322,1394,0,0
105,-370,0,0,0,0,0,0,0,0,0,-1,1329,1394,0,0
112,-370,0,0,0,0,0,0,0,0,0,-1,1336,1394,0,0
119,-370,0,0,0,0,0,0,0,0,0,-1,1343,1394,0,0
126,-370,0,0,0,0,0,0,0,0,0,-1,1350,1394,0,0
133,-370,0,0,0,0,0,0,0,0,0,-1,1357,1394,0,0
140,-370,0,0,0,0,0,0,0,0,0,-1,1364,1394,0,0
147,-370,0,0,0,0,0,0,0,0,0,-1,1371,1394,0,0
154,-370,0,0,0,0,0,0,0,0,0,-1,1378,1394,0,0
161,-370,0,0,0,0,0,0,0,0,0,-1,1385,1394,0,0
168,-370,0,0,0,0,0,0,0,0,0,-1,1392,1394,0,0
175,-370,0,0,0,0,0,0,0,0,0,-1,1399,1394,0,0
182,-370,0,0,0,0,0,0,0,0,0,-1,1406,1394,0,0
189,-370,0,0,0,0,0,0,0,0,0,-1,1413,1394,0,0
196,-370,0,0,0,0,0,0,0,0,0,-1,1420,1394,0,0
203,-370,0,0,0,0,0,0,0,0,0,-1,1427,1394,0,0
210,-370,0,0,0,0,0,0,0,0,0,-1,1434,1394,0,0
217,-370,0,0,0,0,0,0,0,0,0,-1,1441,1394,0,0
224,-370,0,0,0,0,0,0,0,0,0,-1,1448,1394,0,0
231,-370,0,0,0,0,0,0,0,0,0,-1,1455,1394,0,0
238,-370,0,0,0,0,0,0,0,0,0,-1,1462,1394,0,0
245,-370,0,0,0,0,0,0,0,0,0,-1,1469,1394,0,0
252,-370,0,0,0,0,0,0,0,0,0,-1,1476,1394,0,0
259,-370,0,0,0,0,0,0,0,0,0,-1,1483,1394,0,0
266,-370,0,0,0,0,0,0,0,0,0,-1,1490,1394,0,0
273,-370,0,0,0,0,0,0,0,0,0,-1,1497,1394,0,0
280,-370,0,0,0,0,0,0,0,0,0,-1,1504,1394,0,0
287,-370,0,0,0,0,0,0,0,0,0,-1,1511,1394,0,0
294,-370,0,0,0,0,0,0,0,0,0,-1,1518,1394,0,0
301,-370,0,0,0,0,0,0,0,0,0,-1,1525,1394,0,0
308,-370,0,0,0,0,0,0,0,0,0,-1,1532,1394,0,0
315,-370,0,0,0,0,0,0,0,0,0,-1,1539,1394,0,0
322,-370,0,0,0,0,0,0,0,0,0,-1,1546,1394,0,0
329,-370,0,0,0,0,0,0,0,0,0,-1,1553,1394,0,0
336,-370,0,0,0,0,0,0,0,0,0,-1,1560,1394,0,0
343,-370,0,0,0,0,0,0,0,0,0,-1,1567,1394,0,0
350,-370,0,0,0,0,0,0,0,0,0,-1,1574,1394,0,0
357,-370,0,0,0,0,0,0,0,0,0,-1,1581,1394,0,0
364,-370,0,0,0,0,0,0,0,0,0,-1,1588,1394,0,0
371,-370,0,0,0,0,0,0,0,0,0,-1,1595,1394,0,0
378,-370,0,0,0,0,0,0,0,0,0,-1,1602,1394,0,0
385,-370,0,0,0,0,0,0,0,0,0,-1,1609,1394,0,0
392,-370,0,0,0,0,0,0,0,0,0,-1,1616,1394,0,0
399,-370,0,0,0,0,0,0,0,0,0,-1,1623,1394,0,0
406,-370,0,0,0,0,0,0,0,0,0,-1,1630,1394,0,0
413,-370,0,0,0,0,0,0,0,0,0,-1,1637,1394,0,0
420,-370,0,0,0,0,0,0,0,0,0,-1,1644,1394,0,0
427,-370,0,0,0,0,0,0,0,0,0,-1,1651,1394,0,0
434,-370,0,0,0,0,0,0,0,0,0,-1,1658,1394,0,0
441,-370,0,0,0,0,0,0,0,0,0,-1,1665,1394,0,0
448,-370,0,0,0,0,0,0,0,0,0,-1,1672,1394,0,0
455,-370,0,0,0,0,0,0,0,0,0,-1,1679,1394,0,0
462,-370,0,0,0,0,0,0,0,0,0,-1,1686,1394,0,0
469,-370,0,0,0,0,0,0,0,0,0,-1,1693,1394,0,0
476,-370,0,0,0,0,0,0,0,0,0,-1,1700,1394,0,0
483,-370,0,0,0,0,0,0,0,0,0,-1,1707,1394,0,0
490,-370,0,0,0,0,0,0,0,0,0,-1,1714,1394,0,0
497,-370,0,0,0,0,0,0,0,0,0,-1,1721,1394,0,0
504,-370,0,0,0,0,0,0,0,0,0,-1,1728,1394,0,0
511,-370,0,0,0,0,0,0,0,0,0,-1,1735,1394,0,0
518,-370,0,0,0,0,0,0,0,0,0,-1,1742,1394,0,0
525,-370,0,0,0,0,0,0,0,0,0,-1,1749,1394,0,0
532,-370,0,0,0,0,0,0,0,0,0,-1,1756,1394,0,0
539,-370,0,0,0,0,0,0,0,0,0,-1,1763,1394,0,0
546,-370,60.9257,3.80493,0,0,0,0,0,0,0,-1,1770,1394,60.9256,-3.80494
553,-370,61.9966,2.87524,0,0,0,0,0,0,0,-1,1777,1394,61.9966,-2.8753
560,-370,63.1577,1.82617,0,0,0,0,0,0,0,-1,1784,1394,63.1578,-1.82617
567,-370,46.1089,3.11719,0,0,0,0,0,0,0,-1,1791,1394,46.1089,-3.1172
574,-370,38.8953,1.49353,0,0,0,0,0,0,0,-1,1798,1394,38.8952,-1.49348
581,-370,39.178,2.86145,0,0,0,0,0,0,0,-1,1805,1394,39.1779,-2.86145
588,-370,39.2102,4.27661,0,0,0,0,0,0,0,-1,1812,1394,39.2102,-4.27657
595,-370,25.793,4.5271,0,0,0,0,0,0,0,-1,1819,1394,25.793,-4.52711
602,-370,25.1077,5.34937,0,0,0,0,0,0,0,-1,1826,1394,25.1077,-5.34932
609,-370,16.712,0.993286,0,0,0,0,0,0,0,-1,1833,1394,16.7121,-0.99323
616,-370,16.7764,7.23315,0,0,0,0,0,0,0,-1,1840,1394,16.7764,-7.23313
623,-370,17.6625,8.94263,0,0,0,0,0,0,0,-1,1847,1394,17.6624,-8.94258
630,-370,20.9681,11.1785,0,0,0,0,0,0,0,-1,1854,1394,20.9681,-11.1784
637,-370,91.8469,61.3878,0,0,0,0,0,0,0,-1,1861,1394,91.847,-61.3879
644,-370,97.0195,62.5894,0,0,0,0,0,0,0,-1,1868,1394,97.0195,-62.5893
651,-370,96.3304,60.6046,0,0,0,0,0,0,0,-1,1875,1394,96.3304,-60.6046
658,-370,95.963,57.9514,0.00340037,0.000432305,0.00112334,0.00377758,5.50898e-05,0.323967,0.00250023,0.0343448,1882,1394,95.963,-57.9514
665,-370,95.6,55.4451,0.00323863,6.09668e-05,0.00208793,0.0042735,-0.000973908,0.460159,0.00322306,0.02175,1889,1394,95.6,-55.4451
672,-370,95.1497,53.0645,0.00324303,0.000192594,0.00266622,0.00478946,-0.00135383,0.52559,0.00372713,0.0211631,1896,1394,95.1496,-53.0644
679,-370,94.7081,50.7678,0.00342767,0.000842583,0.00285646,0.00527041,-0.00100016,0.572933,0.00389009,0.0184849,1903,1394,94.7082,-50.7678
686,-370,94.3002,48.4357,0.00389174,0.00210632,0.00259299,0.00574139,0.000256674,0.619614,0.00374497,0.019506,1910,1394,94.3002,-48.4356
693,-370,93.9229,46.0029,0.00457214,0.00424912,0.00177422,0.00619219,0.00262907,0.740008,0.00358859,0.0227186,1917,1394,93.9228,-46.0029
700,-370,93.6479,43.4773,0,0,0,0,0,0,0,-1,1924,1394,93.6479,-43.4773
707,-370,39.2391,11.5549,0,0,0,0,0,0,0,-1,1931,1394,39.2392,-11.555
714,-370,16.9116,5.93018,0,0,0,0,0,0,0,-1,1938,1394,16.9116,-5.93014
721,-370,17.2007,4.69153,0,0,0,0,0,0,0,-1,1945,1394,17.2007,-4.69158
728,-370,20.5315,-0.313354,0,0,0,0,0,0,0,-1,1952,1394,20.5315,0.313332
735,-370,22.3652,0.233398,0,0,0,0,0,0,0,-1,1959,1394,22.3652,-0.233355
742,-370,24.1989,0.780029,0,0,0,0,0,0,0,-1,1966,1394,24.1989,-0.780041
749,-370,0,0,0,0,0,0,0,0,0,-1,1973,1394,0,0
756,-370,0,0,0,0,0,0,0,0,0,-1,1980,1394,0,0
763,-370,0,0,0,0,0,0,0,0,0,-1,1987,1394,0,0
770,-370,0,0,0,0,0,0,0,0,0,-1,1994,1394,0,0
777,-370,0,0,0,0,0,0,0,0,0,-1,2001,1394,0,0
784,-370,0,0,0,0,0,0,0,0,0,-1,2008,1394,0,0
791,-370,0,0,0,0,0,0,0,0,0,-1,2015,1394,0,0
798,-370,0,0,0,0,0,0,0,0,0,-1,2022,1394,0,0
805,-370,0,0,0,0,0,0,0,0,0,-1,2029,1394,0,0
812,-370,0,0,0,0,0,0,0,0,0,-1,2036,1394,0,0
-700,-377,0,0,0,0,0,0,0,0,0,-1,524,1401,0,0
-693,-377,0,0,0,0,0,0,0,0,0,-1,531,1401,0,0
-686,-377,0,0,0,0,0,0,0,0,0,-1,538,1401,0,0
-679,-377,0,0,0,0,0,0,0,0,0,-1,545,1401,0,0
-672,-377,0,0,0,0,0,0,0,0,0,-1,552,1401,0,0
-665,-377,0,0,0,0,0,0,0,0,0,-1,559,1401,0,0
-658,-377,0,0,0,0,0,0,0,0,0,-1,566,1401,0,0
-651,-377,0,0,0,0,0,0,0,0,0,-1,573,1401,0,0
-644,-377,0,0,0,0,0,0,0,0,0,-1,580,1401,0,0
-637,-377,0,0,0,0,0,0,0,0,0,-1,587,1401,0,0
-630,-377,0,0,0,0,0,0,0,0,0,-1,594,1401,0,0
-623,-377,0,0,0,0,0,0,0,0,0,-1,601,1401,0,0
-616,-377,-9.43915,-2.4906,0,0,0,0,0,0,0,-1,608,1401,-9.43915,2.49062
-609,-377,-7.2821,-1.35278,0,0,0,0,0,0,0,-1,615,1401,-7.28208,1.35279
-602,-377,-14.9736,3.98279,0,0,0,0,0,0,0,-1,622,1401,-14.9737,-3.98276
-595,-377,-6.9082,1.18201,0,0,0,0,0,0,0,-1,629,1401,-6.90822,-1.18204
-588,-377,-12.8003,3.44751,0,0,0,0,0,0,0,-1,636,1401,-12.8003,-3.44754
-581,-377,-11.8243,6.21521,0,0,0,0,0,0,0,-1,643,1401,-11.8244,-6.21519
-574,-377,-12.2761,6.60547,0,0,0,0,0,0,0,-1,650,1401,-12.2761,-6.60552
-567,-377,-13.4844,7.41931,0,0,0,0,0,0,0,-1,657,1401,-13.4845,-7.41926
-560,-377,-86.0023,45.2887,0,0,0,0,0,0,0,-1,664,1401,-86.0023,-45.2887
-553,-377,-86.3354,47.88,0.0070716,0.00586503,-0.00122754,0.00783609,0.00510054,-0.557003,0.00459234,0.0246209,671,1401,-86.3355,-47.88
-546,-377,-86.7125,50.291,0.00734632,0.00402543,-0.000373569,0.00738782,0.00398392,-0.110648,0.00426974,0.0205636,678,1401,-86.7124,-50.2911
-539,-377,-87.0921,52.6278,0.00685465,0.00293583,0.000248687,0.00687037,0.00292011,0.0631223,0.00398144,0.0270368,685,1401,-87.0921,-52.6278
-532,-377,-87.4203,55.1028,0.00563657,0.00234995,0.00089318,0.00586362,0.00212291,0.24893,0.00342804,0.0314264,692,1401,-87.4204,-55.1027
-525,-377,-87.7361,57.5302,0,0,0,0,0,0,0,-1,699,1401,-87.7361,-57.5302
-518,-377,-88.4218,60.0148,0,0,0,0,0,0,0,-1,706,1401,-88.4218,-60.0147
-511,-377,-88.9181,62.8617,0,0,0,0,0,0,0,-1,713,1401,-88.9181,-62.8617
-504,-377,-85.9185,64.1112,0,0,0,0,0,0,0,-1,720,1401,-85.9185,-64.1112
-497,-377,-84.5035,65.3524,0,0,0,0,0,0,0,-1,727,1401,-84.5036,-65.3525
-490,-377,-8.88409,10.1245,0,0,0,0,0,0,0,-1,734,1401,-8.8841,-10.1245
-483,-377,-5.6524,5.07324,0,0,0,0,0,0,0,-1,741,1401,-5.6524,-5.07325
-476,-377,-6.11682,5.10535,0,0,0,0,0,0,0,-1,748,1401,-6.11681,-5.10537
-469,-377,-10.3211,1.9281,0,0,0,0,0,0,0,-1,755,1401,-10.3211,-1.92808
-462,-377,-9.2204,1.0022,0,0,0,0,0,0,0,-1,762,1401,-9.22039,-1.00218
-455,-377,-8.11969,0.0762939,0,0,0,0,0,0,0,-1,769,1401,-8.11968,-0.0762759
-448,-377,-9.05334,0.877319,0,0,0,0,0,0,0,-1,776,1401,-9.05332,-0.877324
-441,-377,-11.212,0.763428,0,0,0,0,0,0,0,-1,783,1401,-11.212,-0.763415
-434,-377,-11.0984,0.996216,0,0,0,0,0,0,0,-1,790,1401,-11.0984,-0.996265
-427,-377,-11.1733,1.25732,0,0,0,0,0,0,0,-1,797,1401,-11.1733,-1.25732
-420,-377,0,0,0,0,0,0,0,0,0,-1,804,1401,0,0
-413,-377,0,0,0,0,0,0,0,0,0,-1,811,1401,0,0
-406,-377,0,0,0,0,0,0,0,0,0,-1,818,1401,0,0
-399,-377,0,0,0,0,0,0,0,0,0,-1,825,1401,0,0
-392,-377,0,0,0,0,0,0,0,0,0,-1,832,1401,0,0
-385,-377,0,0,0,0,0,0,0,0,0,-1,839,1401,0,0
-378,-377,0,0,0,0,0,0,0,0,0,-1,846,1401,0,0
-371,-377,0,0,0,0,0,0,0,0,0,-1,853,1401,0,0
-364,-377,0,0,0,0,0,0,0,0,0,-1,860,1401,0,0
-357,-377,0,0,0,0,0,0,0,0,0,-1,867,1401,0,0
-350,-377,0,0,0,0,0,0,0,0,0,-1,874,1401,0,0
-343,-377,0,0,0,0,0,0,0,0,0,-1,881,1401,0,0
-336,-377,0,0,0,0,0,0,0,0,0,-1,888,1401,0,0
-329,-377,0,0,0,0,0,0,0,0,0,-1,895,1401,0,0
-322,-377,0,0,0,0,0,0,0,0,0,-1,902,1401,0,0
-315,-377,0,0,0,0,0,0,0,0,0,-1,909,1401,0,0
-308,-377,0,0,0,0,0,0,0,0,0,-1,916,1401,0,0
-301,-377,0,0,0,0,0,0,0,0,0,-1,923,1401,0,0
-294,-377,0,0,0,0,0,0,0,0,0,-1,930,1401,0,0
-287,-377,0,0,0,0,0,0,0,0,0,-1,937,1401,0,0
-280,-377,0,0,0,0,0,0,0,0,0,-1,944,1401,0,0
-273,-377,0,0,0,0,0,0,0,0,0,-1,951,1401,0,0
-266,-377,0,0,0,0,0,0,0,0,0,-1,958,1401,0,0
-259,-377,0,0,0,0,0,0,0,0,0,-1,965,1401,0,0
-252,-377,0,0,0,0,0,0,0,0,0,-1,972,1401,0,0
-245,-377,0,0,0,0,0,0,0,0,0,-1,979,1401,0,0
-238,-377,0,0,0,0,0,0,0,0,0,-1,986,1401,0,0
-231,-377,0,0,0,0,0,0,0,0,0,-1,993,1401,0,0
-224,-377,0,0,0,0,0,0,0,0,0,-1,1000,1401,0,0
-217,-377,0,0,0,0,0,0,0,0,0,-1,1007,1401,0,0
-210,-377,0,0,0,0,0,0,0,0,0,-1,1014,1401,0,0
-203,-377,0,0,0,0,0,0,0,0,0,-1,1021,1401,0,0
-196,-377,0,0,0,0,0,0,0,0,0,-1,1028,1401,0,0
-189,-377,0,0,0,0,0,0,0,0,0,-1,1035,1401,0,0
-182,-377,0,0,0,0,0,0,0,0,0,-1,1042,1401,0,0
-175,-377,0,0,0,0,0,0,0,0,0,-1,1049,1401,0,0
-168,-377,0,0,0,0,0,0,0,0,0,-1,1056,1401,0,0
-161,-377,0,0,0,0,0,0,0,0,0,-1,1063,1401,0,0
-154,-377,0,0,0,0,0,0,0,0,0,-1,1070,1401,0,0
-147,-377,0,0,0,0,0,0,0,0,0,-1,1077,1401,0,0
-140,-377,0,0,0,0,0,0,0,0,0,-1,1084,1401,0,0
-133,-377,0,0,0,0,0,0,0,0,0,-1,1091,1401,0,0
-126,-377,0,0,0,0,0,0,0,0,0,-1,1098,1401,0,0
-119,-377,0,0,0,0,0,0,0,0,0,-1,1105,1401,0,0
-112,-377,0,0,0,0,0,0,0,0,0,-1,1112,1401,0,0
-105,-377,0,0,0,0,0,0,0,0,0,-1,1119,1401,0,0
-98,-377,0,0,0,0,0,0,0,0,0,-1,1126,1401,0,0
-91,-377,0,0,0,0,0,0,0,0,0,-1,1133,1401,0,0
-84,-377,0,0,0,0,0,0,0,0,0,-1,1140,1401,0,0
-77,-377,0,0,0,0,0,0,0,0,0,-1,1147,1401,0,0
-70,-377,0,0,0,0,0,0,0,0,0,-1,1154,1401,0,0
-63,-377,0,0,0,0,0,0,0,0,0,-1,1161,1401,0,0
-56,-377,0,0,0,0,0,0,0,0,0,-1,1168,1401,0,0
-49,-377,0,0,0,0,0,0,0,0,0,-1,1175,1401,0,0
-42,-377,0,0,0,0,0,0,0,0,0,-1,1182,1401,0,0
-35,-377,0,0,0,0,0,0,0,0,0,-1,1189,1401,0,0
-28,-377,0,0,0,0,0,0,0,0,0,-1,1196,1401,0,0
-21,-377,0,0,0,0,0,0,0,0,0,-1,1203,1401,0,0
-14,-377,0,0,0,0,0,0,0,0,0,-1,1210,1401,0,0
-7,-377,0,0,0,0,0,0,0,0,0,-1,1217,1401,0,0
0,-377,0,0,0,0,0,0,0,0,0,-1,1224,1401,0,0
7,-377,0,0,0,0,0,0,0,0,0,-1,1231,1401,0,0
14,-377,0,0,0,0,0,0,0,0,0,-1,1238,1401,0,0
21,-377,0,0,0,0,0,0,0,0,0,-1,1245,1401,0,0
28,-377,0,0,0,0,0,0,0,0,0,-1,1252,1401,0,0
35,-377,0,0,0,0,0,0,0,0,0,-1,1259,1401,0,0
42,-377,0,0,0,0,0,0,0,0,0,-1,1266,1401,0,0
49,-377,0,0,0,0,0,0,0,0,0,-1,1273,1401,0,0
56,-377,0,0,0,0,0,0,0,0,0,-1,1280,1401,0,0
63,-377,0,0,0,0,0,0,0,0,0,-1,1287,1401,0,0
70,-377,0,0,0,0,0,0,0,0,0,-1,1294,1401,0,0
77,-377,0,0,0,0,0,0,0,0,0,-1,1301,1401,0,0
84,-377,0,0,0,0,0,0,0,0,0,-1,1308,1401,0,0
91,-377,0,0,0,0,0,0,0,0,0,-1,1315,1401,0,0
98,-377,0,0,0,0,0,0,0,0,0,-1,1322,1401,0,0
105,-377,0,0,0,0,0,0,0,0,0,-1,1329,1401,0,0
112,-377,0,0,0,0,0,0,0,0,0,-1,1336,1401,0,0
119,-377,0,0,0,0,0,0,0,0,0,-1,1343,1401,0,0
126,-377,0,0,0,0,0,0,0,0,0,-1,1350,1401,0,0
133,-377,0,0,0,0,0,0,0,0,0,-1,1357,1401,0,0
140,-377,0,0,0,0,0,0,0,0,0,-1,1364,1401,0,0
147,-377,0,0,0,0,0,0,0,0,0,-1,1371,1401,0,0
154,-377,0,0,0,0,0,0,0,0,0,-1,1378,1401,0,0
161,-377,0,0,0,0,0,0,0,0,0,-1,1385,1401,0,0
168,-377,0,0,0,0,0,0,0,0,0,-1,1392,1401,0,0
175,-377,0,0,0,0,0,0,0,0,0,-1,1399,1401,0,0
182,-377,0,0,0,0,0,0,0,0,0,-1,1406,1401,0,0
189,-377,0,0,0,0,0,0,0,0,0,-1,1413,1401,0,0
196,-377,0,0,0,0,0,0,0,0,0,-1,1420,1401,0,0
203,-377,0,0,0,0,0,0,0,0,0,-1,1427,1401,0,0
210,-377,0,0,0,0,0,0,0,0,0,-1,1434,1401,0,0
217,-377,0,0,0,0,0,0,0,0,0,-1,1441,1401,0,0
224,-377,0,0,0,0,0,0,0,0,0,-1,1448,1401,0,0
231,-377,0,0,0,0,0,0,0,0,0,-1,1455,1401,0,0
238,-377,0,0,0,0,0,0,0,0,0,-1,1462,1401,0,0
245,-377,0,0,0,0,0,0,0,0,0,-1,1469,1401,0,0
252,-377,0,0,0,0,0,0,0,0,0,-1,1476,1401,0,0
259,-377,0,0,0,0,0,0,0,0,0,-1,1483,1401,0,0
266,-377,0,0,0,0,0,0,0,0,0,-1,1490,1401,0,0
273,-377,0,0,0,0,0,0,0,0,0,-1,1497,1401,0,0
280,-377,0,0,0,0,0,0,0,0,0,-1,1504,1401,0,0
287,-377,0,0,0,0,0,0,0,0,0,-1,1511,1401,0,0
294,-377,0,0,0,0,0,0,0,0,0,-1,1518,1401,0,0
301,-377,0,0,0,0,0,0,0,0,0,-1,1525,1401,0,0
308,-377,0,0,0,0,0,0,0,0,0,-1,1532,1401,0,0
315,-377,0,0,0,0,0,0,0,0,0,-1,1539,1401,0,0
322,-377,0,0,0,0,0,0,0,0,0,-1,1546,1401,0,0
329,-377,0,0,0,0,0,0,0,0,0,-1,1553,1401,0,0
336,-377,0,0,0,0,0,0,0,0,0,-1,1560,1401,0,0
343,-377,0,0,0,0,0,0,0,0,0,-1,1567,1401,0,0
350,-377,0,0,0,0,0,0,0,0,0,-1,1574,1401,0,0
357,-377,0,0,0,0,0,0,0,0,0,-1,1581,1401,0,0
364,-377,0,0,0,0,0,0,0,0,0,-1,1588,1401,0,0
371,-377,0,0,0,0,0,0,0,0,0,-1,1595,1401,0,0
378,-377,0,0,0,0,0,0,0,0,0,-1,1602,1401,0,0
385,-377,0,0,0,0,0,0,0,0,0,-1,1609,1401,0,0
392,-377,0,0,0,0,0,0,0,0,0,-1,1616,1401,0,0
399,-377,0,0,0,0,0,0,0,0,0,-1,1623,1401,0,0
406,-377,0,0,0,0,0,0,0,0,0,-1,1630,1401,0,0
413,-377,0,0,0,0,0,0,0,0,0,-1,1637,1401,0,0
420,-377,0,0,0,0,0,0,0,0,0,-1,1644,1401,0,0
427,-377,0,0,0,0,0,0,0,0,0,-1,1651,1401,0,0
434,-377,0,0,0,0,0,0,0,0,0,-1,1658,1401,0,0
441,-377,0,0,0,0,0,0,0,0,0,-1,1665,1401,0,0
448,-377,0,0,0,0,0,0,0,0,0,-1,1672,1401,0,0
455,-377,0,0,0,0,0,0,0,0,0,-1,1679,1401,0,0
462,-377,0,0,0,0,0,0,0,0,0,-1,1686,1401,0,0
469,-377,0,0,0,0,0,0,0,0,0,-1,1693,1401,0,0
476,-377,0,0,0,0,0,0,0,0,0,-1,1700,1401,0,0
483,-377,0,0,0,0,0,0,0,0,0,-1,1707,1401,0,0
490,-377,0,0,0,0,0,0,0,0,0,-1,1714,1401,0,0
497,-377,0,0,0,0,0,0,0,0,0,-1,1721,1401,0,0
504,-377,0,0,0,0,0,0,0,0,0,-1,1728,1401,0,0
511,-377,0,0,0,0,0,0,0,0,0,-1,1735,1401,0,0
518,-377,0,0,0,0,0,0,0,0,0,-1,1742,1401,0,0
525,-377,0,0,0,0,0,0,0,0,0,-1,1749,1401,0,0
532,-377,0,0,0,0,0,0,0,0,0,-1,1756,1401,0,0
539,-377,0,0,0,0,0,0,0,0,0,-1,1763,1401,0,0
546,-377,27.8485,2.34094,0,0,0,0,0,0,0,-1,1770,1401,27.8486,-2.34091
553,-377,61.8907,2.39148,0,0,0,0,0,0,0,-1,1777,1401,61.8908,-2.39149
560,-377,38.3577,-2.15015,0,0,0,0,0,0,0,-1,1784,1401,38.3576,2.1501
567,-377,38.4889,-0.285645,0,0,0,0,0,0,0,-1,1791,1401,38.4889,0.2857
574,-377,38.6221,1.61694,0,0,0,0,0,0,0,-1,1798,1401,38.6221,-1.61689
581,-377,39.1818,3.76367,0,0,0,0,0,0,0,-1,1805,1401,39.1818,-3.76366
588,-377,25.882,4.35217,0,0,0,0,0,0,0,-1,1812,1401,25.8819,-4.3522
595,-377,25.5392,5.11804,0,0,0,0,0,0,0,-1,1819,1401,25.5392,-5.11808
602,-377,24.816,5.79126,0,0,0,0,0,0,0,-1,1826,1401,24.816,-5.79124
609,-377,15.0223,4.76135,0,0,0,0,0,0,0,-1,1833,1401,15.0224,-4.76129
616,-377,14.1842,5.78992,0,0,0,0,0,0,0,-1,1840,1401,14.1842,-5.78987
623,-377,15.8248,8.76721,0,0,0,0,0,0,0,-1,1847,1401,15.8248,-8.76725
630,-377,37.4343,20.0704,0,0,0,0,0,0,0,-1,1854,1401,37.4344,-20.0704
637,-377,95.0511,65.4064,0,0,0,0,0,0,0,-1,1861,1401,95.0512,-65.4064
644,-377,94.4585,63.0513,0.00386639,0.0036052,-0.0025901,0.00632918,0.00114241,-0.76021,0.0038949,0.037758,1868,1401,94.4585,-63.0513
651,-377,93.9552,60.6136,0.00323889,0.00189507,-0.000703784,0.00354001,0.00159396,-0.404282,0.00204719,0.0221417,1875,1401,93.9552,-60.6137
658,-377,93.5698,58.2723,0.00301978,0.000930442,0.000632271,0.00319621,0.000754005,0.272131,0.00192923,0.0195013,1882,1401,93.5698,-58.2724
665,-377,93.255,55.8485,0.00297465,0.000439586,0.00161667,0.00376144,-0.000347207,0.452932,0.00263101,0.0268933,1889,1401,93.255,-55.8486
672,-377,92.8312,53.4537,0.00313175,0.000516517,0.00220372,0.0043866,-0.00073833,0.517633,0.00319904,0.0269978,1896,1401,92.8312,-53.4537
679,-377,92.3021,51.1587,0.00351774,0.00113812,0.00238011,0.00498886,-0.000333002,0.553616,0.00344228,0.0218793,1903,1401,92.3021,-51.1587
686,-377,91.9124,48.8584,0.00421343,0.00230865,0.0021172,0.00558259,0.00093949,0.574041,0.00345145,0.0196794,1910,1401,91.9124,-48.8584
693,-377,91.5754,46.5037,0,0,0,0,0,0,0,-1,1917,1401,91.5755,-46.5037
700,-377,69.8997,32.8438,0,0,0,0,0,0,0,-1,1924,1401,69.8996,-32.8438
707,-377,28.6234,9.18152,0,0,0,0,0,0,0,-1,1931,1401,28.6234,-9.18151
714,-377,16.5369,5.45959,0,0,0,0,0,0,0,-1,1938,1401,16.5369,-5.4596
721,-377,17.0913,5.42529,0,0,0,0,0,0,0,-1,1945,1401,17.0914,-5.42529
728,-377,14.5396,2.79724,0,0,0,0,0,0,0,-1,1952,1401,14.5396,-2.7972
735,-377,23.2977,-0.991089,0,0,0,0,0,0,0,-1,1959,1401,23.2978,0.991076
742,-377,0,0,0,0,0,0,0,0,0,-1,1966,1401,0,0
749,-377,0,0,0,0,0,0,0,0,0,-1,1973,1401,0,0
756,-377,0,0,0,0,0,0,0,0,0,-1,1980,1401,0,0
763,-377,0,0,0,0,0,0,0,0,0,-1,1987,1401,0,0
770,-377,0,0,0,0,0,0,0,0,0,-1,1994,1401,0,0
777,-377,0,0,0,0,0,0,0,0,0,-1,2001,1401,0,0
784,-377,0,0,0,0,0,0,0,0,0,-1,2008,1401,0,0
791,-377,0,0,0,0,0,0,0,0,0,-1,2015,1401,0,0
798,-377,0,0,0,0,0,0,0,0,0,-1,2022,1401,0,0
805,-377,0,0,0,0,0,0,0,0,0,-1,2029,1401,0,0
812,-377,0,0,0,0,0,0,0,0,0,-1,2036,1401,0,0
-700,-384,0,0,0,0,0,0,0,0,0,-1,524,1408,0,0
-693,-384,0,0,0,0,0,0,0,0,0,-1,531,1408,0,0
-686,-384,0,0,0,0,0,0,0,0,0,-1,538,1408,0,0
-679,-384,0,0,0,0,0,0,0,0,0,-1,545,1408,0,0
-672,-384,0,0,0,0,0,0,0,0,0,-1,552,1408,0,0
-665,-384,0,0,0,0,0,0,0,0,0,-1,559,1408,0,0
-658,-384,0,0,0,0,0,0,0,0,0,-1,566,1408,0,0
-651,-384,0,0,0,0,0,0,0,0,0,-1,573,1408,0,0
-644,-384,0,0,0,0,0,0,0,0,0,-1,580,1408,0,0
-637,-384,0,0,0,0,0,0,0,0,0,-1,587,1408,0,0
-630,-384,0,0,0,0,0,0,0,0,0,-1,594,1408,0,0
-623,-384,0,0,0,0,0,0,0,0,0,-1,601,1408,0,0
-616,-384,-10.019,-3.36646,0,0,0,0,0,0,0,-1,608,1408,-10.019,3.36648
-609,-384,-7.72357,-2.3418,0,0,0,0,0,0,0,-1,615,1408,-7.72358,2.34182
-602,-384,-11.7632,-2.85156,0,0,0,0,0,0,0,-1,622,1408,-11.7632,2.85157
-595,-384,-10.2217,2.8855,0,0,0,0,0,0,0,-1,629,1408,-10.2218,-2.88548
-588,-384,-12.1653,2.29041,0,0,0,0,0,0,0,-1,636,1408,-12.1654,-2.29038
-581,-384,-11.9297,3.60376,0,0,0,0,0,0,0,-1,643,1408,-11.9298,-3.6038
-574,-384,-11.8677,6.02722,0,0,0,0,0,0,0,-1,650,1408,-11.8677,-6.02722
-567,-384,-12.0743,7.04639,0,0,0,0,0,0,0,-1,657,1408,-12.0743,-7.04641
-560,-384,-19.9478,11.6345,0,0,0,0,0,0,0,-1,664,1408,-19.9478,-11.6345
-553,-384,-83.9703,48.2539,0,0,0,0,0,0,0,-1,671,1408,-83.9703,-48.2539
-546,-384,-84.343,50.7173,0.00654089,0.00370553,-0.00063032,0.0066747,0.00357172,-0.209183,0.00385681,0.0200548,678,1408,-84.343,-50.7172
-539,-384,-84.7448,53.0511,0.00632667,0.00273697,-2.27203e-05,0.00632681,0.00273682,-0.00632896,0.00366384,0.0211735,685,1408,-84.7448,-53.0511
-532,-384,-85.0665,55.405,0.0051911,0.00217638,0.00058431,0.00530038,0.00206709,0.184902,0.00308477,0.0295397,692,1408,-85.0665,-55.405
-525,-384,-85.4919,57.8539,0.00360781,0.0019823,0.00118467,0.00423172,0.00135838,0.484743,0.00249483,0.0326013,699,1408,-85.4919,-57.8539
-518,-384,-85.8951,60.3695,0.00145566,0.00196955,0.00171053,0.00344232,-1.71138e-05,0.859948,0.00230061,0.0266512,706,1408,-85.8951,-60.3695
-511,-384,-86.5192,62.9418,-0.00130925,0.0019937,0.00214439,0.00304885,-0.00236439,1.11353,0.00313365,0.047679,713,1408,-86.5191,-62.9417
-504,-384,-86.6192,65.4114,0,0,0,0,0,0,0,-1,720,1408,-86.6192,-65.4114
-497,-384,-87.2922,67.6422,0,0,0,0,0,0,0,-1,727,1408,-87.2921,-67.6422
-490,-384,-82.2095,67.7151,0,0,0,0,0,0,0,-1,734,1408,-82.2096,-67.7151
-483,-384,-6.26471,7.61194,0,0,0,0,0,0,0,-1,741,1408,-6.26469,-7.61191
-476,-384,-6.02734,5.67761,0,0,0,0,0,0,0,-1,748,1408,-6.02736,-5.6776
-469,-384,-10.206,2.63721,0,0,0,0,0,0,0,-1,755,1408,-10.206,-2.6372
-462,-384,-9.04291,1.43542,0,0,0,0,0,0,0,-1,762,1408,-9.04293,-1.43545
-455,-384,-7.87988,0.233765,0,0,0,0,0,0,0,-1,769,1408,-7.87986,-0.233709
-448,-384,-9.35529,7.19226,0,0,0,0,0,0,0,-1,776,1408,-9.35531,-7.19226
-441,-384,-10.4697,1.79004,0,0,0,0,0,0,0,-1,783,1408,-10.4697,-1.79003
-434,-384,-10.6449,0.552246,0,0,0,0,0,0,0,-1,790,1408,-10.6449,-0.552216
-427,-384,-10.968,1.10583,0,0,0,0,0,0,0,-1,797,1408,-10.968,-1.10588
-420,-384,-12.5607,4.54858,0,0,0,0,0,0,0,-1,804,1408,-12.5607,-4.54859
-413,-384,0,0,0,0,0,0,0,0,0,-1,811,1408,0,0
-406,-384,0,0,0,0,0,0,0,0,0,-1,818,1408,0,0
-399,-384,0,0,0,0,0,0,0,0,0,-1,825,1408,0,0
-392,-384,0,0,0,0,0,0,0,0,0,-1,832,1408,0,0
-385,-384,0,0,0,0,0,0,0,0,0,-1,839,1408,0,0
-378,-384,0,0,0,0,0,0,0,0,0,-1,846,1408,0,0
-371,-384,0,0,0,0,0,0,0,0,0,-1,853,1408,0,0
-364,-384,0,0,0,0,0,0,0,0,0,-1,860,1408,0,0
-357,-384,0,0,0,0,0,0,0,0,0,-1,867,1408,0,0
-350,-384,0,0,0,0,0,0,0,0,0,-1,874,1408,0,0
-343,-384,0,0,0,0,0,0,0,0,0,-1,881,1408,0,0
-336,-384,0,0,0,0,0,0,0,0,0,-1,888,1408,0,0
-329,-384,0,0,0,0,0,0,0,0,0,-1,895,1408,0,0
-322,-384,0,0,0,0,0,0,0,0,0,-1,902,1408,0,0
-315,-384,0,0,0,0,0,0,0,0,0,-1,909,1408,0,0
-308,-384,0,0,0,0,0,0,0,0,0,-1,916,1408,0,0
-301,-384,0,0,0,0,0,0,0,0,0,-1,923,1408,0,0
-294,-384,0,0,0,0,0,0,0,0,0,-1,930,1408,0,0
-287,-384,0,0,0,0,0,0,0,0,0,-1,937,1408,0,0
-280,-384,0,0,0,0,0,0,0,0,0,-1,944,1408,0,0
-273,-384,0,0,0,0,0,0,0,0,0,-1,951,1408,0,0
-266,-384,0,0,0,0,0,0,0,0,0,-1,958,1408,0,0
-259,-384,0,0,0,0,0,0,0,0,0,-1,965,1408,0,0
-252,-384,0,0,0,0,0,0,0,0,0,-1,972,1408,0,0
-245,-384,0,0,0,0,0,0,0,0,0,-1,979,1408,0,0
-238,-384,0,0,0,0,0,0,0,0,0,-1,986,1408,0,0
-231,-384,0,0,0,0,0,0,0,0,0,-1,993,1408,0,0
-224,-384,0,0,0,0,0,0,0,0,0,-1,1000,1408,0,0
-217,-384,0,0,0,0,0,0,0,0,0,-1,1007,1408,0,0
-210,-384,0,0,0,0,0,0,0,0,0,-1,1014,1408,0,0
-203,-384,0,0,0,0,0,0,0,0,0,-1,1021,1408,0,0
-196,-384,0,0,0,0,0,0,0,0,0,-1,1028,1408,0,0
-189,-384,0,0,0,0,0,0,0,0,0,-1,1035,1408,0,0
-182,-384,0,0,0,0,0,0,0,0,0,-1,1042,1408,0,0
-175,-384,0,0,0,0,0,0,0,0,0,-1,1049,1408,0,0
-168,-384,0,0,0,0,0,0,0,0,0,-1,1056,1408,0,0
-161,-384,0,0,0,0,0,0,0,0,0,-1,1063,1408,0,0
-154,-384,0,0,0,0,0,0,0,0,0,-1,1070,1408,0,0
-147,-384,0,0,0,0,0,0,0,0,0,-1,1077,1408,0,0
-140,-384,0,0,0,0,0,0,0,0,0,-1,1084,1408,0,0
-133,-384,0,0,0,0,0,0,0,0,0,-1,1091,1408,0,0
-126,-384,0,0,0,0,0,0,0,0,0,-1,1098,1408,0,0
-119,-384,0,0,0,0,0,0,0,0,0,-1,1105,1408,0,0
-112,-384,0,0,0,0,0,0,0,0,0,-1,1112,1408,0,0
-105,-384,0,0,0,0,0,0,0,0,0,-1,1119,1408,0,0
-98,-384,0,0,0,0,0,0,0,0,0,-1,1126,1408,0,0
-91,-384,0,0,0,0,0,0,0,0,0,-1,1133,1408,0,0
-84,-384,0,0,0,0,0,0,0,0,0,-1,1140,1408,0,0
-77,-384,0,0,0,0,0,0,0,0,0,-1,1147,1408,0,0
-70,-384,0,0,0,0,0,0,0,0,0,-1,1154,1408,0,0
-63,-384,0,0,0,0,0,0,0,0,0,-1,1161,1408,0,0
-56,-384,0,0,0,0,0,0,0,0,0,-1,1168,1408,0,0
-49,-384,0,0,0,0,0,0,0,0,0,-1,1175,1408,0,0
-42,-384,0,0,0,0,0,0,0,0,0,-1,1182,1408,0,0
-35,-384,0,0,0,0,0,0,0,0,0,-1,1189,1408,0,0
-28,-384,0,0,0,0,0,0,0,0,0,-1,1196,1408,0,0
-21,-384,0,0,0,0,0,0,0,0,0,-1,1203,1408,0,0
-14,-384,0,0,0,0,0,0,0,0,0,-1,1210,1408,0,0
-7,-384,0,0,0,0,0,0,0,0,0,-1,1217,1408,0,0
0,-384,0,0,0,0,0,0,0,0,0,-1,1224,1408,0,0
7,-384,0,0,0,0,0,0,0,0,0,-1,1231,1408,0,0
14,-384,0,0,0,0,0,0,0,0,0,-1,1238,1408,0,0
21,-384,0,0,0,0,0,0,0,0,0,-1,1245,1408,0,0
28,-384,0,0,0,0,0,0,0,0,0,-1,1252,1408,0,0
35,-384,0,0,0,0,0,0,0,0,0,-1,1259,1408,0,0
42,-384,0,0,0,0,0,0,0,0,0,-1,1266,1408,0,0
49,-384,0,0,0,0,0,0,0,0,0,-1,1273,1408,0,0
56,-384,0,0,0,0,0,0,0,0,0,-1,1280,1408,0,0
63,-384,0,0,0,0,0,0,0,0,0,-1,1287,1408,0,0
70,-384,0,0,0,0,0,0,0,0,0,-1,1294,1408,0,0
77,-384,0,0,0,0,0,0,0,0,0,-1,1301,1408,0,0
84,-384,0,0,0,0,0,0,0,0,0,-1,1308,1408,0,0
91,-384,0,0,0,0,0,0,0,0,0,-1,1315,1408,0,0
98,-384,0,0,0,0,0,0,0,0,0,-1,1322,1408,0,0
105,-384,0,0,0,0,0,0,0,0,0,-1,1329,1408,0,0
112,-384,0,0,0,0,0,0,0,0,0,-1,1336,1408,0,0
119,-384,0,0,0,0,0,0,0,0,0,-1,1343,1408,0,0
126,-384,0,0,0,0,0,0,0,0,0,-1,1350,1408,0,0
133,-384,0,0,0,0,0,0,0,0,0,-1,1357,1408,0,0
140,-384,0,0,0,0,0,0,0,0,0,-1,1364,1408,0,0
147,-384,0,0,0,0,0,0,0,0,0,-1,1371,1408,0,0
154,-384,0,0,0,0,0,0,0,0,0,-1,1378,1408,0,0
161,-384,0,0,0,0,0,0,0,0,0,-1,1385,1408,0,0
168,-384,0,0,0,0,0,0,0,0,0,-1,1392,1408,0,0
175,-384,0,0,0,0,0,0,0,0,0,-1,1399,1408,0,0
182,-384,0,0,0,0,0,0,0,0,0,-1,1406,1408,0,0
189,-384,0,0,0,0,0,0,0,0,0,-1,1413,1408,0,0
196,-384,0,0,0,0,0,0,0,0,0,-1,1420,1408,0,0
203,-384,0,0,0,0,0,0,0,0,0,-1,1427,1408,0,0
210,-384,0,0,0,0,0,0,0,0,0,-1,1434,1408,0,0
217,-384,0,0,0,0,0,0,0,0,0,-1,1441,1408,0,0
224,-384,0,0,0,0,0,0,0,0,0,-1,1448,1408,0,0
231,-384,0,0,0,0,0,0,0,0,0,-1,1455,1408,0,0
238,-384,0,0,0,0,0,0,0,0,0,-1,1462,1408,0,0
245,-384,0,0,0,0,0,0,0,0,0,-1,1469,1408,0,0
252,-384,0,0,0,0,0,0,0,0,0,-1,1476,1408,0,0
259,-384,0,0,0,0,0,0,0,0,0,-1,1483,1408,0,0
266,-384,0,0,0,0,0,0,0,0,0,-1,1490,1408,0,0
273,-384,0,0,0,0,0,0,0,0,0,-1,1497,1408,0,0
280,-384,0,0,0,0,0,0,0,0,0,-1,1504,1408,0,0
287,-384,0,0,0,0,0,0,0,0,0,-1,1511,1408,0,0
294,-384,0,0,0,0,0,0,0,0,0,-1,1518,1408,0,0
301,-384,0,0,0,0,0,0,0,0,0,-1,1525,1408,0,0
308,-384,0,0,0,0,0,0,0,0,0,-1,1532,1408,0,0
315,-384,0,0,0,0,0,0,0,0,0,-1,1539,1408,0,0
322,-384,0,0,0,0,0,0,0,0,0,-1,1546,1408,0,0
329,-384,0,0,0,0,0,0,0,0,0,-1,1553,1408,0,0
336,-384,0,0,0,0,0,0,0,0,0,-1,1560,1408,0,0
343,-384,0,0,0,0,0,0,0,0,0,-1,1567,1408,0,0
350,-384,0,0,0,0,0,0,0,0,0,-1,1574,1408,0,0
357,-384,0,0,0,0,0,0,0,0,0,-1,1581,1408,0,0
364,-384,0,0,0,0,0,0,0,0,0,-1,1588,1408,0,0
371,-384,0,0,0,0,0,0,0,0,0,-1,1595,1408,0,0
378,-384,0,0,0,0,0,0,0,0,0,-1,1602,1408,0,0
385,-384,0,0,0,0,0,0,0,0,0,-1,1609,1408,0,0
392,-384,0,0,0,0,0,0,0,0,0,-1,1616,1408,0,0
399,-384,0,0,0,0,0,0,0,0,0,-1,1623,1408,0,0
406,-384,0,0,0,0,0,0,0,0,0,-1,1630,1408,0,0
413,-384,0,0,0,0,0,0,0,0,0,-1,1637,1408,0,0
420,-384,0,0,0,0,0,0,0,0,0,-1,1644,1408,0,0
427,-384,0,0,0,0,0,0,0,0,0,-1,1651,1408,0,0
434,-384,0,0,0,0,0,0,0,0,0,-1,1658,1408,0,0
441,-384,0,0,0,0,0,0,0,0,0,-1,1665,1408,0,0
448,-384,0,0,0,0,0,0,0,0,0,-1,1672,1408,0,0
455,-384,0,0,0,0,0,0,0,0,0,-1,1679,1408,0,0
462,-384,0,0,0,0,0,0,0,0,0,-1,1686,1408,0,0
469,-384,0,0,0,0,0,0,0,0,0,-1,1693,1408,0,0
476,-384,0,0,0,0,0,0,0,0,0,-1,1700,1408,0,0
483,-384,0,0,0,0,0,0,0,0,0,-1,1707,1408,0,0
490,-384,0,0,0,0,0,0,0,0,0,-1,1714,1408,0,0
497,-384,0,0,0,0,0,0,0,0,0,-1,1721,1408,0,0
504,-384,0,0,0,0,0,0,0,0,0,-1,1728,1408,0,0
511,-384,0,0,0,0,0,0,0,0,0,-1,1735,1408,0,0
518,-384,0,0,0,0,0,0,0,0,0,-1,1742,1408,0,0
525,-384,0,0,0,0,0,0,0,0,0,-1,1749,1408,0,0
532,-384,0,0,0,0,0,0,0,0,0,-1,1756,1408,0,0
539,-384,27.6886,2.85803,0,0,0,0,0,0,0,-1,1763,1408,27.6886,-2.85807
546,-384,27.5044,2.9425,0,0,0,0,0,0,0,-1,1770,1408,27.5044,-2.94255
553,-384,27.3052,2.78394,0,0,0,0,0,0,0,-1,1777,1408,27.3051,-2.78394
560,-384,26.833,3.19812,0,0,0,0,0,0,0,-1,1784,1408,26.833,-3.19816
567,-384,38.2566,0.109985,0,0,0,0,0,0,0,-1,1791,1408,38.2566,-0.110044
574,-384,38.4003,2.05945,0,0,0,0,0,0,0,-1,1798,1408,38.4003,-2.05949
581,-384,25.819,3.91846,0,0,0,0,0,0,0,-1,1805,1408,25.8189,-3.91848
588,-384,23.3721,4.25439,0,0,0,0,0,0,0,-1,1812,1408,23.3721,-4.25442
595,-384,24.981,5.59595,0,0,0,0,0,0,0,-1,1819,1408,24.981,-5.59598
602,-384,20.6605,4.17261,0,0,0,0,0,0,0,-1,1826,1408,20.6606,-4.17265
609,-384,14.158,5.49475,0,0,0,0,0,0,0,-1,1833,1408,14.158,-5.49474
616,-384,14.7997,7.6908,0,0,0,0,0,0,0,-1,1840,1408,14.7996,-7.69079
623,-384,16.4293,9.58899,0,0,0,0,0,0,0,-1,1847,1408,16.4294,-9.58901
630,-384,81.8457,60.5172,0,0,0,0,0,0,0,-1,1854,1408,81.8457,-60.5173
637,-384,92.5402,66.1565,0,0,0,0,0,0,0,-1,1861,1408,92.5401,-66.1565
644,-384,91.9526,63.5967,0.00361117,0.00366562,-0.00263488,0.00627342,0.00100337,-0.790564,0.00389118,0.0428617,1868,1408,91.9526,-63.5967
651,-384,91.5493,61.0461,0.00318577,0.00209613,-0.00097639,0.00375906,0.00152284,-0.530918,0.00218328,0.0203429,1875,1408,91.5493,-61.0462
658,-384,91.1206,58.6327,0.00303948,0.00112348,0.000289772,0.00308235,0.00108061,0.146863,0.00180589,0.0207418,1882,1408,91.1206,-58.6327
665,-384,90.7794,56.2543,0.00304217,0.0005698,0.00126283,0.00357316,3.88125e-05,0.39803,0.00236928,0.0238887,1889,1408,90.7794,-56.2543
672,-384,90.3435,53.8672,0.00320498,0.000580279,0.00189574,0.0041983,-0.000413035,0.482641,0.00294621,0.0220938,1896,1408,90.3435,-53.8672
679,-384,89.8901,51.5432,0.00359683,0.00117731,0.00211791,0.00482613,-5.20009e-05,0.525909,0.0032349,0.0198751,1903,1408,89.8901,-51.5432
686,-384,89.5389,49.1953,0.00426181,0.00222911,0.00195635,0.00545006,0.00104086,0.545831,0.00334091,0.031191,1910,1408,89.5389,-49.1953
693,-384,89.2694,46.7529,0,0,0,0,0,0,0,-1,1917,1408,89.2694,-46.7529
700,-384,41.9762,14.4678,0,0,0,0,0,0,0,-1,1924,1408,41.9762,-14.4678
707,-384,17.0566,6.62842,0,0,0,0,0,0,0,-1,1931,1408,17.0567,-6.62848
714,-384,16.038,5.0282,0,0,0,0,0,0,0,-1,1938,1408,16.038,-5.02819
721,-384,13.8843,2.8717,0,0,0,0,0,0,0,-1,1945,1408,13.8843,-2.87171
728,-384,15.4409,6.25745,0,0,0,0,0,0,0,-1,1952,1408,15.4409,-6.2574
735,-384,16.7598,6.71289,0,0,0,0,0,0,0,-1,1959,1408,16.7598,-6.71287
742,-384,0,0,0,0,0,0,0,0,0,-1,1966,1408,0,0
749,-384,0,0,0,0,0,0,0,0,0,-1,1973,1408,0,0
756,-384,0,0,0,0,0,0,0,0,0,-1,1980,1408,0,0
763,-384,0,0,0,0,0,0,0,0,0,-1,1987,1408,0,0
770,-384,0,0,0,0,0,0,0,0,0,-1,1994,1408,0,0
777,-384,0,0,0,0,0,0,0,0,0,-1,2001,1408,0,0
784,-384,0,0,0,0,0,0,0,0,0,-1,2008,1408,0,0
791,-384,0,0,0,0,0,0,0,0,0,-1,2015,1408,0,0
798,-384,0,0,0,0,0,0,0,0,0,-1,2022,1408,0,0
805,-384,0,0,0,0,0,0,0,0,0,-1,2029,1408,0,0
812,-384,0,0,0,0,0,0,0,0,0,-1,2036,1408,0,0
-700,-391,0,0,0,0,0,0,0,0,0,-1,524,1415,0,0
-693,-391,0,0,0,0,0,0,0,0,0,-1,531,1415,0,0
-686,-391,0,0,0,0,0,0,0,0,0,-1,538,1415,0,0
-679,-391,0,0,0,0,0,0,0,0,0,-1,545,1415,0,0
-672,-391,0,0,0,0,0,0,0,0,0,-1,552,1415,0,0
-665,-391,0,0,0,0,0,0,0,0,0,-1,559,1415,0,0
-658,-391,0,0,0,0,0,0,0,0,0,-1,566,1415,0,0
-651,-391,0,0,0,0,0,0,0,0,0,-1,573,1415,0,0
-644,-391,0,0,0,0,0,0,0,0,0,-1,580,1415,0,0
-637,-391,0,0,0,0,0,0,0,0,0,-1,587,1415,0,0
-630,-391,0,0,0,0,0,0,0,0,0,-1,594,1415,0,0
-623,-391,0,0,0,0,0,0,0,0,0,-1,601,1415,0,0
-616,-391,0,0,0,0,0,0,0,0,0,-1,608,1415,0,0
-609,-391,-7.71753,-3.69763,0,0,0,0,0,0,0,-1,615,1415,-7.71751,3.69759
-602,-391,-13.9493,-4.12805,0,0,0,0,0,0,0,-1,622,1415,-13.9493,4.12803
-595,-391,-10.8315,1.76172,0,0,0,0,0,0,0,-1,629,1415,-10.8315,-1.76171
-588,-391,-10.265,2.16431,0,0,0,0,0,0,0,-1,636,1415,-10.265,-2.16431
-581,-391,-11.3325,2.44836,0,0,0,0,0,0,0,-1,643,1415,-11.3325,-2.44842
-574,-391,-11.1471,6.19983,0,0,0,0,0,0,0,-1,650,1415,-11.1471,-6.19981
-567,-391,-11.5172,6.82458,0,0,0,0,0,0,0,-1,657,1415,-11.5171,-6.82454
-560,-391,-11.2459,7.37195,0,0,0,0,0,0,0,-1,664,1415,-11.2459,-7.37191
-553,-391,-81.7369,48.5321,0,0,0,0,0,0,0,-1,671,1415,-81.7369,-48.5321
-546,-391,-81.9781,51.0479,0.00581253,0.00332893,-0.000926319,0.00611997,0.0030215,-0.320452,0.00353346,0.0326918,678,1415,-81.9781,-51.0478
-539,-391,-82.3045,53.5369,0.0061069,0.00249931,-0.000316915,0.00613452,0.00247168,-0.0869595,0.00356396,0.0178622,685,1415,-82.3045,-53.5369
-532,-391,-82.7208,55.9026,0.00513035,0.00195246,0.000266627,0.00515257,0.00193024,0.0831262,0.00300585,0.0333098,692,1415,-82.7208,-55.9026
-525,-391,-83.1636,58.2546,0.0037663,0.00177615,0.00085605,0.00408385,0.00145859,0.355218,0.00238967,0.0302784,699,1415,-83.1636,-58.2547
-518,-391,-83.5321,60.7145,0.00192482,0.00181651,0.00140143,0.00327315,0.000468189,0.766086,0.00204399,0.0198437,706,1415,-83.5321,-60.7145
-511,-391,-84.0262,63.0555,-0.000436159,0.00189171,0.00184871,0.00291237,-0.00145682,1.06635,0.00256879,0.0291086,713,1415,-84.0263,-63.0555
-504,-391,-84.2864,65.5884,-0.00332397,0.00204165,0.00220183,0.00282951,-0.00411183,1.22717,0.00403031,0.0371557,720,1415,-84.2864,-65.5884
-497,-391,-84.8278,67.9652,-0.00680933,0.00225928,0.00246097,0.00288407,-0.00743412,1.32217,0.00614725,0.028562,727,1415,-84.8278,-67.9652
-490,-391,-85.3076,70.1975,0,0,0,0,0,0,0,-1,734,1415,-85.3076,-70.1976
-483,-391,-11.1018,12.9382,0,0,0,0,0,0,0,-1,741,1415,-11.1018,-12.9382
-476,-391,-6.05731,6.85303,0,0,0,0,0,0,0,-1,748,1415,-6.05728,-6.85304
-469,-391,-3.88953,5.0979,0,0,0,0,0,0,0,-1,755,1415,-3.88955,-5.09794
-462,-391,-8.67688,2.03125,0,0,0,0,0,0,0,-1,762,1415,-8.67685,-2.03121
-455,-391,-8.65576,6.46997,0,0,0,0,0,0,0,-1,769,1415,-8.65579,-6.46999
-448,-391,-8.39618,4.38403,0,0,0,0,0,0,0,-1,776,1415,-8.39617,-4.38405
-441,-391,-9.77704,2.5946,0,0,0,0,0,0,0,-1,783,1415,-9.77702,-2.5946
-434,-391,-11.5403,2.12878,0,0,0,0,0,0,0,-1,790,1415,-11.5403,-2.12881
-427,-391,-10.5311,2.50403,0,0,0,0,0,0,0,-1,797,1415,-10.5311,-2.504
-420,-391,-14.7087,1.24365,0,0,0,0,0,0,0,-1,804,1415,-14.7088,-1.24365
-413,-391,0,0,0,0,0,0,0,0,0,-1,811,1415,0,0
-406,-391,0,0,0,0,0,0,0,0,0,-1,818,1415,0,0
-399,-391,0,0,0,0,0,0,0,0,0,-1,825,1415,0,0
-392,-391,0,0,0,0,0,0,0,0,0,-1,832,1415,0,0
-385,-391,0,0,0,0,0,0,0,0,0,-1,839,1415,0,0
-378,-391,0,0,0,0,0,0,0,0,0,-1,846,1415,0,0
-371,-391,0,0,0,0,0,0,0,0,0,-1,853,1415,0,0
-364,-391,0,0,0,0,0,0,0,0,0,-1,860,1415,0,0
-357,-391,0,0,0,0,0,0,0,0,0,-1,867,1415,0,0
-350,-391,0,0,0,0,0,0,0,0,0,-1,874,1415,0,0
-343,-391,0,0,0,0,0,0,0,0,0,-1,881,1415,0,0
-336,-391,0,0,0,0,0,0,0,0,0,-1,888,1415,0,0
-329,-391,0,0,0,0,0,0,0,0,0,-1,895,1415,0,0
-322,-391,0,0,0,0,0,0,0,0,0,-1,902,1415,0,0
-315,-391,0,0,0,0,0,0,0,0,0,-1,909,1415,0,0
-308,-391,0,0,0,0,0,0,0,0,0,-1,916,1415,0,0
-301,-391,0,0,0,0,0,0,0,0,0,-1,923,1415,0,0
-294,-391,0,0,0,0,0,0,0,0,0,-1,930,1415,0,0
-287,-391,0,0,0,0,0,0,0,0,0,-1,937,1415,0,0
-280,-391,0,0,0,0,0,0,0,0,0,-1,944,1415,0,0
-273,-391,0,0,0,0,0,0,0,0,0,-1,951,1415,0,0
-266,-391,0,0,0,0,0,0,0,0,0,-1,958,1415,0,0
-259,-391,0,0,0,0,0,0,0,0,0,-1,965,1415,0,0
-252,-391,0,0,0,0,0,0,0,0,0,-1,972,1415,0,0
-245,-391,0,0,0,0,0,0,0,0,0,-1,979,1415,0,0
-238,-391,0,0,0,0,0,0,0,0,0,-1,986,1415,0,0
-231,-391,0,0,0,0,0,0,0,0,0,-1,993,1415,0,0
-224,-391,0,0,0,0,0,0,0,0,0,-1,1000,1415,0,0
-217,-391,0,0,0,0,0,0,0,0,0,-1,1007,1415,0,0
-210,-391,0,0,0,0,0,0,0,0,0,-1,1014,1415,0,0
-203,-391,0,0,0,0,0,0,0,0,0,-1,1021,1415,0,0
-196,-391,0,0,0,0,0,0,0,0,0,-1,1028,1415,0,0
-189,-391,0,0,0,0,0,0,0,0,0,-1,1035,1415,0,0
-182,-391,0,0,0,0,0,0,0,0,0,-1,1042,1415,0,0
-175,-391,0,0,0,0,0,0,0,0,0,-1,1049,1415,0,0
-168,-391,0,0,0,0,0,0,0,0,0,-1,1056,1415,0,0
-161,-391,0,0,0,0,0,0,0,0,0,-1,1063,1415,0,0
-154,-391,0,0,0,0,0,0,0,0,0,-1,1070,1415,0,0
-147,-391,0,0,0,0,0,0,0,0,0,-1,1077,1415,0,0
-140,-391,0,0,0,0,0,0,0,0,0,-1,1084,1415,0,0
-133,-391,0,0,0,0,0,0,0,0,0,-1,1091,1415,0,0
-126,-391,0,0,0,0,0,0,0,0,0,-1,1098,1415,0,0
-119,-391,0,0,0,0,0,0,0,0,0,-1,1105,1415,0,0
-112,-391,0,0,0,0,0,0,0,0,0,-1,1112,1415,0,0
-105,-391,0,0,0,0,0,0,0,0,0,-1,1119,1415,0,0
-98,-391,0,0,0,0,0,0,0,0,0,-1,1126,1415,0,0
-91,-391,0,0,0,0,0,0,0,0,0,-1,1133,1415,0,0
-84,-391,0,0,0,0,0,0,0,0,0,-1,1140,1415,0,0
-77,-391,0,0,0,0,0,0,0,0,0,-1,1147,1415,0,0
-70,-391,0,0,0,0,0,0,0,0,0,-1,1154,1415,0,0
-63,-391,0,0,0,0,0,0,0,0,0,-1,1161,1415,0,0
-56,-391,0,0,0,0,0,0,0,0,0,-1,1168,1415,0,0
-49,-391,0,0,0,0,0,0,0,0,0,-1,1175,1415,0,0
-42,-391,0,0,0,0,0,0,0,0,0,-1,1182,1415,0,0
-35,-391,0,0,0,0,0,0,0,0,0,-1,1189,1415,0,0
-28,-391,0,0,0,0,0,0,0,0,0,-1,1196,1415,0,0
-21,-391,0,0,0,0,0,0,0,0,0,-1,1203,1415,0,0
-14,-391,0,0,0,0,0,0,0,0,0,-1,1210,1415,0,0
-7,-391,0,0,0,0,0,0,0,0,0,-1,1217,1415,0,0
0,-391,0,0,0,0,0,0,0,0,0,-1,1224,1415,0,0
7,-391,0,0,0,0,0,0,0,0,0,-1,1231,1415,0,0
14,-391,0,0,0,0,0,0,0,0,0,-1,1238,1415,0,0
21,-391,0,0,0,0,0,0,0,0,0,-1,1245,1415,0,0
28,-391,0,0,0,0,0,0,0,0,0,-1,1252,1415,0,0
35,-391,0,0,0,0,0,0,0,0,0,-1,1259,1415,0,0
42,-391,0,0,0,0,0,0,0,0,0,-1,1266,1415,0,0
49,-391,0,0,0,0,0,0,0,0,0,-1,1273,1415,0,0
56,-391,0,0,0,0,0,0,0,0,0,-1,1280,1415,0,0
63,-391,0,0,0,0,0,0,0,0,0,-1,1287,1415,0,0
70,-391,0,0,0,0,0,0,0,0,0,-1,1294,1415,0,0
77,-391,0,0,0,0,0,0,0,0,0,-1,1301,1415,0,0
84,-391,0,0,0,0,0,0,0,0,0,-1,1308,1415,0,0
91,-391,0,0,0,0,0,0,0,0,0,-1,1315,1415,0,0
98,-391,0,0,0,0,0,0,0,0,0,-1,1322,1415,0,0
105,-391,0,0,0,0,0,0,0,0,0,-1,1329,1415,0,0
112,-391,0,0,0,0,0,0,0,0,0,-1,1336,1415,0,0
119,-391,0,0,0,0,0,0,0,0,0,-1,1343,1415,0,0
126,-391,0,0,0,0,0,0,0,0,0,-1,1350,1415,0,0
133,-391,0,0,0,0,0,0,0,0,0,-1,1357,1415,0,0
140,-391,0,0,0,0,0,0,0,0,0,-1,1364,1415,0,0
147,-391,0,0,0,0,0,0,0,0,0,-1,1371,1415,0,0
154,-391,0,0,0,0,0,0,0,0,0,-1,1378,1415,0,0
161,-391,0,0,0,0,0,0,0,0,0,-1,1385,1415,0,0
168,-391,0,0,0,0,0,0,0,0,0,-1,1392,1415,0,0
175,-391,0,0,0,0,0,0,0,0,0,-1,1399,1415,0,0
182,-391,0,0,0,0,0,0,0,0,0,-1,1406,1415,0,0
189,-391,0,0,0,0,0,0,0,0,0,-1,1413,1415,0,0
196,-391,0,0,0,0,0,0,0,0,0,-1,1420,1415,0,0
203,-391,0,0,0,0,0,0,0,0,0,-1,1427,1415,0,0
210,-391,0,0,0,0,0,0,0,0,0,-1,1434,1415,0,0
217,-391,0,0,0,0,0,0,0,0,0,-1,1441,1415,0,0
224,-391,0,0,0,0,0,0,0,0,0,-1,1448,1415,0,0
231,-391,0,0,0,0,0,0,0,0,0,-1,1455,1415,0,0
238,-391,0,0,0,0,0,0,0,0,0,-1,1462,1415,0,0
245,-391,0,0,0,0,0,0,0,0,0,-1,1469,1415,0,0
252,-391,0,0,0,0,0,0,0,0,0,-1,1476,1415,0,0
259,-391,0,0,0,0,0,0,0,0,0,-1,1483,1415,0,0
266,-391,0,0,0,0,0,0,0,0,0,-1,1490,1415,0,0
273,-391,0,0,0,0,0,0,0,0,0,-1,1497,1415,0,0
280,-391,0,0,0,0,0,0,0,0,0,-1,1504,1415,0,0
287,-391,0,0,0,0,0,0,0,0,0,-1,1511,1415,0,0
294,-391,0,0,0,0,0,0,0,0,0,-1,1518,1415,0,0
301,-391,0,0,0,0,0,0,0,0,0,-1,1525,1415,0,0
308,-391,0,0,0,0,0,0,0,0,0,-1,1532,1415,0,0
315,-391,0,0,0,0,0,0,0,0,0,-1,1539,1415,0,0
322,-391,0,0,0,0,0,0,0,0,0,-1,1546,1415,0,0
329,-391,0,0,0,0,0,0,0,0,0,-1,1553,1415,0,0
336,-391,0,0,0,0,0,0,0,0,0,-1,1560,1415,0,0
343,-391,0,0,0,0,0,0,0,0,0,-1,1567,1415,0,0
350,-391,0,0,0,0,0,0,0,0,0,-1,1574,1415,0,0
357,-391,0,0,0,0,0,0,0,0,0,-1,1581,1415,0,0
364,-391,0,0,0,0,0,0,0,0,0,-1,1588,1415,0,0
371,-391,0,0,0,0,0,0,0,0,0,-1,1595,1415,0,0
378,-391,0,0,0,0,0,0,0,0,0,-1,1602,1415,0,0
385,-391,0,0,0,0,0,0,0,0,0,-1,1609,1415,0,0
392,-391,0,0,0,0,0,0,0,0,0,-1,1616,1415,0,0
399,-391,0,0,0,0,0,0,0,0,0,-1,1623,1415,0,0
406,-391,0,0,0,0,0,0,0,0,0,-1,1630,1415,0,0
413,-391,0,0,0,0,0,0,0,0,0,-1,1637,1415,0,0
420,-391,0,0,0,0,0,0,0,0,0,-1,1644,1415,0,0
427,-391,0,0,0,0,0,0,0,0,0,-1,1651,1415,0,0
434,-391,0,0,0,0,0,0,0,0,0,-1,1658,1415,0,0
441,-391,0,0,0,0,0,0,0,0,0,-1,1665,1415,0,0
448,-391,0,0,0,0,0,0,0,0,0,-1,1672,1415,0,0
455,-391,0,0,0,0,0,0,0,0,0,-1,1679,1415,0,0
462,-391,0,0,0,0,0,0,0,0,0,-1,1686,1415,0,0
469,-391,0,0,0,0,0,0,0,0,0,-1,1693,1415,0,0
476,-391,0,0,0,0,0,0,0,0,0,-1,1700,1415,0,0
483,-391,0,0,0,0,0,0,0,0,0,-1,1707,1415,0,0
490,-391,0,0,0,0,0,0,0,0,0,-1,1714,1415,0,0
497,-391,0,0,0,0,0,0,0,0,0,-1,1721,1415,0,0
504,-391,0,0,0,0,0,0,0,0,0,-1,1728,1415,0,0
511,-391,0,0,0,0,0,0,0,0,0,-1,1735,1415,0,0
518,-391,0,0,0,0,0,0,0,0,0,-1,1742,1415,0,0
525,-391,0,0,0,0,0,0,0,0,0,-1,1749,1415,0,0
532,-391,28.5959,3.02356,0,0,0,0,0,0,0,-1,1756,1415,28.596,-3.02358
539,-391,27.5881,3.25012,0,0,0,0,0,0,0,-1,1763,1415,27.5882,-3.25016
546,-391,27.2837,3.28064,0,0,0,0,0,0,0,-1,1770,1415,27.2837,-3.28064
553,-391,32.5952,5.04553,0,0,0,0,0,0,0,-1,1777,1415,32.5952,-5.04551
560,-391,31.2947,5.67017,0,0,0,0,0,0,0,-1,1784,1415,31.2947,-5.67011
567,-391,30.1473,6.17603,0,0,0,0,0,0,0,-1,1791,1415,30.1473,-6.17602
574,-391,27.5656,5.6842,0,0,0,0,0,0,0,-1,1798,1415,27.5655,-5.68422
581,-391,25.8883,5.76123,0,0,0,0,0,0,0,-1,1805,1415,25.8883,-5.76124
588,-391,24.2717,5.47986,0,0,0,0,0,0,0,-1,1812,1415,24.2717,-5.47982
595,-391,22.8827,6.1991,0,0,0,0,0,0,0,-1,1819,1415,22.8827,-6.19909
602,-391,15.1635,5.69849,0,0,0,0,0,0,0,-1,1826,1415,15.1635,-5.69847
609,-391,14.8285,7.50476,0,0,0,0,0,0,0,-1,1833,1415,14.8285,-7.50479
616,-391,20.7952,12.0503,0,0,0,0,0,0,0,-1,1840,1415,20.7952,-12.0503
623,-391,36.6426,20.3677,0,0,0,0,0,0,0,-1,1847,1415,36.6426,-20.3676
630,-391,90.3503,69.0784,0,0,0,0,0,0,0,-1,1854,1415,90.3503,-69.0783
637,-391,90.0199,66.4899,0.00326248,0.0052532,-0.00396635,0.00834717,0.0001685,-0.908335,0.00550948,0.0323036,1861,1415,90.02,-66.4899
644,-391,89.5831,63.9259,0.00283752,0.00339067,-0.00228673,0.00541749,0.000810695,-0.84558,0.00337405,0.0247361,1868,1415,89.5831,-63.9259
651,-391,89.1639,61.5112,0.00267332,0.00201431,-0.000881265,0.00328466,0.00140296,-0.606496,0.0019031,0.0220369,1875,1415,89.164,-61.5112
658,-391,88.7231,59.0887,0.00272924,0.00109371,0.000241227,0.00276407,0.00105887,0.143424,0.00161031,0.0223622,1882,1415,88.7231,-59.0887
665,-391,88.3098,56.6781,0.00294408,0.000561739,0.00112608,0.0033921,0.000113717,0.378659,0.00222447,0.017852,1889,1415,88.3099,-56.6781
672,-391,87.9148,54.3091,0.00332474,0.00051725,0.00173208,0.00415048,-0.000308489,0.444861,0.00287534,0.0153752,1896,1415,87.9148,-54.3091
679,-391,87.4945,51.9728,0.00401713,0.00110359,0.00190945,0.00496207,0.000158652,0.459536,0.00325645,0.0167243,1903,1415,87.4945,-51.9728
686,-391,87.1353,49.6498,0,0,0,0,0,0,0,-1,1910,1415,87.1353,-49.6498
693,-391,55.7168,25.5087,0,0,0,0,0,0,0,-1,1917,1415,55.7168,-25.5087
700,-391,39.8163,14.4929,0,0,0,0,0,0,0,-1,1924,1415,39.8163,-14.4929
707,-391,12.9524,5.96851,0,0,0,0,0,0,0,-1,1931,1415,12.9524,-5.96849
714,-391,15.6875,7.67896,0,0,0,0,0,0,0,-1,1938,1415,15.6875,-7.67893
721,-391,14.1808,8.08435,0,0,0,0,0,0,0,-1,1945,1415,14.1808,-8.08439
728,-391,13.8102,7.28174,0,0,0,0,0,0,0,-1,1952,1415,13.8102,-7.28174
735,-391,0,0,0,0,0,0,0,0,0,-1,1959,1415,0,0
742,-391,0,0,0,0,0,0,0,0,0,-1,1966,1415,0,0
749,-391,0,0,0,0,0,0,0,0,0,-1,1973,1415,0,0
756,-391,0,0,0,0,0,0,0,0,0,-1,1980,1415,0,0
763,-391,0,0,0,0,0,0,0,0,0,-1,1987,1415,0,0
770,-391,0,0,0,0,0,0,0,0,0,-1,1994,1415,0,0
777,-391,0,0,0,0,0,0,0,0,0,-1,2001,1415,0,0
784,-391,0,0,0,0,0,0,0,0,0,-1,2008,1415,0,0
791,-391,0,0,0,0,0,0,0,0,0,-1,2015,1415,0,0
798,-391,0,0,0,0,0,0,0,0,0,-1,2022,1415,0,0
805,-391,0,0,0,0,0,0,0,0,0,-1,2029,1415,0,0
812,-391,0,0,0,0,0,0,0,0,0,-1,2036,1415,0,0
-700,-398,0,0,0,0,0,0,0,0,0,-1,524,1422,0,0
-693,-398,0,0,0,0,0,0,0,0,0,-1,531,1422,0,0
-686,-398,0,0,0,0,0,0,0,0,0,-1,538,1422,0,0
-679,-398,0,0,0,0,0,0,0,0,0,-1,545,1422,0,0
-672,-398,0,0,0,0,0,0,0,0,0,-1,552,1422,0,0
-665,-398,0,0,0,0,0,0,0,0,0,-1,559,1422,0,0
-658,-398,0,0,0,0,0,0,0,0,0,-1,566,1422,0,0
-651,-398,0,0,0,0,0,0,0,0,0,-1,573,1422,0,0
-644,-398,0,0,0,0,0,0,0,0,0,-1,580,1422,0,0
-637,-398,0,0,0,0,0,0,0,0,0,-1,587,1422,0,0
-630,-398,0,0,0,0,0,0,0,0,0,-1,594,1422,0,0
-623,-398,0,0,0,0,0,0,0,0,0,-1,601,1422,0,0
-616,-398,0,0,0,0,0,0,0,0,0,-1,608,1422,0,0
-609,-398,-7.47125,-4.05322,0,0,0,0,0,0,0,-1,615,1422,-7.47128,4.05317
-602,-398,-4.58868,-2.77026,0,0,0,0,0,0,0,-1,622,1422,-4.58869,2.77023
-595,-398,-12.2224,-1.82007,0,0,0,0,0,0,0,-1,629,1422,-12.2224,1.82006
-588,-398,-10.6939,1.32336,0,0,0,0,0,0,0,-1,636,1422,-10.6939,-1.32337
-581,-398,-10.433,3.1123,0,0,0,0,0,0,0,-1,643,1422,-10.433,-3.11233
-574,-398,-10.4475,5.89807,0,0,0,0,0,0,0,-1,650,1422,-10.4475,-5.89802
-567,-398,-10.4904,6.80115,0,0,0,0,0,0,0,-1,657,1422,-10.4904,-6.80115
-560,-398,-10.5333,7.70435,0,0,0,0,0,0,0,-1,664,1422,-10.5333,-7.70429
-553,-398,-26.3343,18.9387,0,0,0,0,0,0,0,-1,671,1422,-26.3343,-18.9387
-546,-398,-79.6096,51.3214,0,0,0,0,0,0,0,-1,678,1422,-79.6096,-51.3214
-539,-398,-79.9016,53.9882,0.00571006,0.00223221,-0.00064776,0.00582679,0.00211548,-0.178291,0.0034059,0.0161307,685,1422,-79.9016,-53.9881
-532,-398,-80.3715,56.3528,0.0049895,0.00169437,-7.01926e-05,0.004991,0.00169288,-0.021289,0.00293081,0.0290114,692,1422,-80.3715,-56.3528
-525,-398,-80.8105,58.7263,0.00391069,0.00151439,0.000513512,0.00401609,0.00140898,0.202452,0.00235284,0.0263129,699,1422,-80.8106,-58.7263
-518,-398,-81.127,61.1744,0.00244055,0.00156422,0.00107832,0.00316633,0.000838446,0.592417,0.0018943,0.0224907,706,1422,-81.127,-61.1745
-511,-398,-81.5031,63.5485,0.000521334,0.0016485,0.00155972,0.00274334,-0.000573498,0.958768,0.00204701,0.026891,713,1422,-81.5031,-63.5485
-504,-398,-81.9341,66.059,-0.00183486,0.00183194,0.001989,0.00270362,-0.00270655,1.15775,0.00312356,0.037917,720,1422,-81.9341,-66.059
-497,-398,-82.3028,68.4736,-0.00463704,0.00205302,0.00234858,0.00279516,-0.00537919,1.26473,0.00479742,0.0284937,727,1422,-82.3028,-68.4736
-490,-398,-82.9415,70.7836,-0.00787738,0.00230584,0.00265131,0.00295479,-0.00852632,1.33075,0.00688388,0.0436043,734,1422,-82.9415,-70.7835
-483,-398,-83.5863,73.243,0,0,0,0,0,0,0,-1,741,1422,-83.5863,-73.243
-476,-398,-8.64392,11.9448,0,0,0,0,0,0,0,-1,748,1422,-8.6439,-11.9448
-469,-398,-8.91699,10.6276,0,0,0,0,0,0,0,-1,755,1422,-8.91697,-10.6275
-462,-398,-9.59753,9.32532,0,0,0,0,0,0,0,-1,762,1422,-9.59753,-9.32531
-455,-398,-8.08331,6.75024,0,0,0,0,0,0,0,-1,769,1422,-8.08333,-6.75022
-448,-398,-7.4505,5.25293,0,0,0,0,0,0,0,-1,776,1422,-7.4505,-5.25291
-441,-398,-7.61639,3.32141,0,0,0,0,0,0,0,-1,783,1422,-7.61637,-3.32145
-434,-398,-10.7618,3.297,0,0,0,0,0,0,0,-1,790,1422,-10.7618,-3.29704
-427,-398,-11.9061,2.24939,0,0,0,0,0,0,0,-1,797,1422,-11.9061,-2.24941
-420,-398,-13.467,2.32788,0,0,0,0,0,0,0,-1,804,1422,-13.467,-2.32787
-413,-398,-14.7983,2.15515,0,0,0,0,0,0,0,-1,811,1422,-14.7983,-2.15516
-406,-398,0,0,0,0,0,0,0,0,0,-1,818,1422,0,0
-399,-398,0,0,0,0,0,0,0,0,0,-1,825,1422,0,0
-392,-398,0,0,0,0,0,0,0,0,0,-1,832,1422,0,0
-385,-398,0,0,0,0,0,0,0,0,0,-1,839,1422,0,0
-378,-398,0,0,0,0,0,0,0,0,0,-1,846,1422,0,0
-371,-398,0,0,0,0,0,0,0,0,0,-1,853,1422,0,0
-364,-398,0,0,0,0,0,0,0,0,0,-1,860,1422,0,0
-357,-398,0,0,0,0,0,0,0,0,0,-1,867,1422,0,0
-350,-398,0,0,0,0,0,0,0,0,0,-1,874,1422,0,0
-343,-398,0,0,0,0,0,0,0,0,0,-1,881,1422,0,0
-336,-398,0,0,0,0,0,0,0,0,0,-1,888,1422,0,0
-329,-398,0,0,0,0,0,0,0,0,0,-1,895,1422,0,0
-322,-398,0,0,0,0,0,0,0,0,0,-1,902,1422,0,0
-315,-398,0,0,0,0,0,0,0,0,0,-1,909,1422,0,0
-308,-398,0,0,0,0,0,0,0,0,0,-1,916,1422,0,0
-301,-398,0,0,0,0,0,0,0,0,0,-1,923,1422,0,0
-294,-398,0,0,0,0,0,0,0,0,0,-1,930,1422,0,0
-287,-398,0,0,0,0,0,0,0,0,0,-1,937,1422,0,0
-280,-398,0,0,0,0,0,0,0,0,0,-1,944,1422,0,0
-273,-398,0,0,0,0,0,0,0,0,0,-1,951,1422,0,0
-266,-398,0,0,0,0,0,0,0,0,0,-1,958,1422,0,0
-259,-398,0,0,0,0,0,0,0,0,0,-1,965,1422,0,0
-252,-398,0,0,0,0,0,0,0,0,0,-1,972,1422,0,0
-245,-398,0,0,0,0,0,0,0,0,0,-1,979,1422,0,0
-238,-398,0,0,0,0,0,0,0,0,0,-1,986,1422,0,0
-231,-398,0,0,0,0,0,0,0,0,0,-1,993,1422,0,0
-224,-398,0,0,0,0,0,0,0,0,0,-1,1000,1422,0,0
-217,-398,0,0,0,0,0,0,0,0,0,-1,1007,1422,0,0
-210,-398,0,0,0,0,0,0,0,0,0,-1,1014,1422,0,0
-203,-398,0,0,0,0,0,0,0,0,0,-1,1021,1422,0,0
-196,-398,0,0,0,0,0,0,0,0,0,-1,1028,1422,0,0
-189,-398,0,0,0,0,0,0,0,0,0,-1,1035,1422,0,0
-182,-398,0,0,0,0,0,0,0,0,0,-1,1042,1422,0,0
-175,-398,0,0,0,0,0,0,0,0,0,-1,1049,1422,0,0
-168,-398,0,0,0,0,0,0,0,0,0,-1,1056,1422,0,0
-161,-398,0,0,0,0,0,0,0,0,0,-1,1063,1422,0,0
-154,-398,0,0,0,0,0,0,0,0,0,-1,1070,1422,0,0
-147,-398,0,0,0,0,0,0,0,0,0,-1,1077,1422,0,0
-140,-398,0,0,0,0,0,0,0,0,0,-1,1084,1422,0,0
-133,-398,0,0,0,0,0,0,0,0,0,-1,1091,1422,0,0
-126,-398,0,0,0,0,0,0,0,0,0,-1,1098,1422,0,0
-119,-398,0,0,0,0,0,0,0,0,0,-1,1105,1422,0,0
-112,-398,0,0,0,0,0,0,0,0,0,-1,1112,1422,0,0
-105,-398,0,0,0,0,0,0,0,0,0,-1,1119,1422,0,0
-98,-398,0,0,0,0,0,0,0,0,0,-1,1126,1422,0,0
-91,-398,0,0,0,0,0,0,0,0,0,-1,1133,1422,0,0
-84,-398,0,0,0,0,0,0,0,0,0,-1,1140,1422,0,0
-77,-398,0,0,0,0,0,0,0,0,0,-1,1147,1422,0,0
-70,-398,0,0,0,0,0,0,0,0,0,-1,1154,1422,0,0
-63,-398,0,0,0,0,0,0,0,0,0,-1,1161,1422,0,0
-56,-398,0,0,0,0,0,0,0,0,0,-1,1168,1422,0,0
-49,-398,0,0,0,0,0,0,0,0,0,-1,1175,1422,0,0
-42,-398,0,0,0,0,0,0,0,0,0,-1,1182,1422,0,0
-35,-398,0,0,0,0,0,0,0,0,0,-1,1189,1422,0,0
-28,-398,0,0,0,0,0,0,0,0,0,-1,1196,1422,0,0
-21,-398,0,0,0,0,0,0,0,0,0,-1,1203,1422,0,0
-14,-398,0,0,0,0,0,0,0,0,0,-1,1210,1422,0,0
-7,-398,0,0,0,0,0,0,0,0,0,-1,1217,1422,0,0
0,-398,0,0,0,0,0,0,0,0,0,-1,1224,1422,0,0
7,-398,0,0,0,0,0,0,0,0,0,-1,1231,1422,0,0
14,-398,0,0,0,0,0,0,0,0,0,-1,1238,1422,0,0
21,-398,0,0,0,0,0,0,0,0,0,-1,1245,1422,0,0
28,-398,0,0,0,0,0,0,0,0,0,-1,1252,1422,0,0
35,-398,0,0,0,0,0,0,0,0,0,-1,1259,1422,0,0
42,-398,0,0,0,0,0,0,0,0,0,-1,1266,1422,0,0
49,-398,0,0,0,0,0,0,0,0,0,-1,1273,1422,0,0
56,-398,0,0,0,0,0,0,0,0,0,-1,1280,1422,0,0
63,-398,0,0,0,0,0,0,0,0,0,-1,1287,1422,0,0
70,-398,0,0,0,0,0,0,0,0,0,-1,1294,1422,0,0
77,-398,0,0,0,0,0,0,0,0,0,-1,1301,1422,0,0
84,-398,0,0,0,0,0,0,0,0,0,-1,1308,1422,0,0
91,-398,0,0,0,0,0,0,0,0,0,-1,1315,1422,0,0
98,-398,0,0,0,0,0,0,0,0,0,-1,1322,1422,0,0
105,-398,0,0,0,0,0,0,0,0,0,-1,1329,1422,0,0
112,-398,0,0,0,0,0,0,0,0,0,-1,1336,1422,0,0
119,-398,0,0,0,0,0,0,0,0,0,-1,1343,1422,0,0
126,-398,0,0,0,0,0,0,0,0,0,-1,1350,1422,0,0
133,-398,0,0,0,0,0,0,0,0,0,-1,1357,1422,0,0
140,-398,0,0,0,0,0,0,0,0,0,-1,1364,1422,0,0
147,-398,0,0,0,0,0,0,0,0,0,-1,1371,1422,0,0
154,-398,0,0,0,0,0,0,0,0,0,-1,1378,1422,0,0
161,-398,0,0,0,0,0,0,0,0,0,-1,1385,1422,0,0
168,-398,0,0,0,0,0,0,0,0,0,-1,1392,1422,0,0
175,-398,0,0,0,0,0,0,0,0,0,-1,1399,1422,0,0
182,-398,0,0,0,0,0,0,0,0,0,-1,1406,1422,0,0
189,-398,0,0,0,0,0,0,0,0,0,-1,1413,1422,0,0
196,-398,0,0,0,0,0,0,0,0,0,-1,1420,1422,0,0
203,-398,0,0,0,0,0,0,0,0,0,-1,1427,1422,0,0
210,-398,0,0,0,0,0,0,0,0,0,-1,1434,1422,0,0
217,-398,0,0,0,0,0,0,0,0,0,-1,1441,1422,0,0
224,-398,0,0,0,0,0,0,0,0,0,-1,1448,1422,0,0
231,-398,0,0,0,0,0,0,0,0,0,-1,1455,1422,0,0
238,-398,0,0,0,0,0,0,0,0,0,-1,1462,1422,0,0
245,-398,0,0,0,0,0,0,0,0,0,-1,1469,1422,0,0
252,-398,0,0,0,0,0,0,0,0,0,-1,1476,1422,0,0
259,-398,0,0,0,0,0,0,0,0,0,-1,1483,1422,0,0
266,-398,0,0,0,0,0,0,0,0,0,-1,1490,1422,0,0
273,-398,0,0,0,0,0,0,0,0,0,-1,1497,1422,0,0
280,-398,0,0,0,0,0,0,0,0,0,-1,1504,1422,0,0
287,-398,0,0,0,0,0,0,0,0,0,-1,1511,1422,0,0
294,-398,0,0,0,0,0,0,0,0,0,-1,1518,1422,0,0
301,-398,0,0,0,0,0,0,0,0,0,-1,1525,1422,0,0
308,-398,0,0,0,0,0,0,0,0,0,-1,1532,1422,0,0
315,-398,0,0,0,0,0,0,0,0,0,-1,1539,1422,0,0
322,-398,0,0,0,0,0,0,0,0,0,-1,1546,1422,0,0
329,-398,0,0,0,0,0,0,0,0,0,-1,1553,1422,0,0
336,-398,0,0,0,0,0,0,0,0,0,-1,1560,1422,0,0
343,-398,0,0,0,0,0,0,0,0,0,-1,1567,1422,0,0
350,-398,0,0,0,0,0,0,0,0,0,-1,1574,1422,0,0
357,-398,0,0,0,0,0,0,0,0,0,-1,1581,1422,0,0
364,-398,0,0,0,0,0,0,0,0,0,-1,1588,1422,0,0
371,-398,0,0,0,0,0,0,0,0,0,-1,1595,1422,0,0
378,-398,0,0,0,0,0,0,0,0,0,-1,1602,1422,0,0
385,-398,0,0,0,0,0,0,0,0,0,-1,1609,1422,0,0
392,-398,0,0,0,0,0,0,0,0,0,-1,1616,1422,0,0
399,-398,0,0,0,0,0,0,0,0,0,-1,1623,1422,0,0
406,-398,0,0,0,0,0,0,0,0,0,-1,1630,1422,0,0
413,-398,0,0,0,0,0,0,0,0,0,-1,1637,1422,0,0
420,-398,0,0,0,0,0,0,0,0,0,-1,1644,1422,0,0
427,-398,0,0,0,0,0,0,0,0,0,-1,1651,1422,0,0
434,-398,0,0,0,0,0,0,0,0,0,-1,1658,1422,0,0
441,-398,0,0,0,0,0,0,0,0,0,-1,1665,1422,0,0
448,-398,0,0,0,0,0,0,0,0,0,-1,1672,1422,0,0
455,-398,0,0,0,0,0,0,0,0,0,-1,1679,1422,0,0
462,-398,0,0,0,0,0,0,0,0,0,-1,1686,1422,0,0
469,-398,0,0,0,0,0,0,0,0,0,-1,1693,1422,0,0
476,-398,0,0,0,0,0,0,0,0,0,-1,1700,1422,0,0
483,-398,0,0,0,0,0,0,0,0,0,-1,1707,1422,0,0
490,-398,0,0,0,0,0,0,0,0,0,-1,1714,1422,0,0
497,-398,0,0,0,0,0,0,0,0,0,-1,1721,1422,0,0
504,-398,0,0,0,0,0,0,0,0,0,-1,1728,1422,0,0
511,-398,0,0,0,0,0,0,0,0,0,-1,1735,1422,0,0
518,-398,0,0,0,0,0,0,0,0,0,-1,1742,1422,0,0
525,-398,0,0,0,0,0,0,0,0,0,-1,1749,1422,0,0
532,-398,28.4558,3.84094,0,0,0,0,0,0,0,-1,1756,1422,28.4558,-3.8409
539,-398,27.0594,3.33887,0,0,0,0,0,0,0,-1,1763,1422,27.0595,-3.3389
546,-398,31.6873,5.58582,0,0,0,0,0,0,0,-1,1770,1422,31.6872,-5.58585
553,-398,30.4392,5.92383,0,0,0,0,0,0,0,-1,1777,1422,30.4392,-5.92386
560,-398,29.1621,6.30469,0,0,0,0,0,0,0,-1,1784,1422,29.1621,-6.30469
567,-398,27.8411,6.55029,0,0,0,0,0,0,0,-1,1791,1422,27.8411,-6.55033
574,-398,26.411,6.8916,0,0,0,0,0,0,0,-1,1798,1422,26.411,-6.8916
581,-398,24.75,7.11145,0,0,0,0,0,0,0,-1,1805,1422,24.7499,-7.11142
588,-398,23.1649,7.67969,0,0,0,0,0,0,0,-1,1812,1422,23.1649,-7.67975
595,-398,21.4253,7.86023,0,0,0,0,0,0,0,-1,1819,1422,21.4253,-7.86029
602,-398,19.6857,8.04077,0,0,0,0,0,0,0,-1,1826,1422,19.6856,-8.04083
609,-398,21.1835,13.2628,0,0,0,0,0,0,0,-1,1833,1422,21.1835,-13.2628
616,-398,35.7712,21.4,0,0,0,0,0,0,0,-1,1840,1422,35.7713,-21.4
623,-398,88.3125,72.0906,0,0,0,0,0,0,0,-1,1847,1422,88.3125,-72.0906
630,-398,88.1082,69.0408,0,0,0,0,0,0,0,-1,1854,1422,88.1081,-69.0408
637,-398,87.6527,66.6696,0.00245738,0.00446033,-0.0032896,0.00689752,2.01925e-05,-0.933159,0.00459163,0.0202235,1861,1422,87.6527,-66.6696
644,-398,87.1797,64.2998,0.00220693,0.00276003,-0.00181913,0.00432351,0.000643449,-0.860833,0.0026936,0.026063,1868,1422,87.1797,-64.2999
651,-398,86.8145,61.9362,0.00224222,0.00152433,-0.000599249,0.0025818,0.00118475,-0.51556,0.00149228,0.0381003,1875,1422,86.8144,-61.9362
658,-398,86.3846,59.567,0.00251314,0.000672364,0.000401068,0.00259673,0.000588774,0.205475,0.00157208,0.0304906,1882,1422,86.3847,-59.567
665,-398,85.9297,57.1656,0.00301864,0.000236886,0.00117411,0.00344795,-0.00019242,0.350544,0.00236538,0.0195387,1889,1422,85.9297,-57.1657
672,-398,85.52,54.762,0.00376621,0.000217763,0.00170459,0.00445237,-0.000468398,0.382692,0.00313606,0.0155446,1896,1422,85.5201,-54.7619
679,-398,85.1805,52.3724,0.00503486,0.000942939,0.00173111,0.00566896,0.000308842,0.351116,0.00368068,0.0427869,1903,1422,85.1805,-52.3725
686,-398,84.8754,49.6423,0,0,0,0,0,0,0,-1,1910,1422,84.8754,-49.6423
693,-398,43.5162,17.3228,0,0,0,0,0,0,0,-1,1917,1422,43.5162,-17.3228
700,-398,38.7251,14.4174,0,0,0,0,0,0,0,-1,1924,1422,38.725,-14.4174
707,-398,10.9731,5.479,0,0,0,0,0,0,0,-1,1931,1422,10.9732,-5.47896
714,-398,11.7313,6.17346,0,0,0,0,0,0,0,-1,1938,1422,11.7313,-6.17348
721,-398,13.9371,8.05103,0,0,0,0,0,0,0,-1,1945,1422,13.9372,-8.05102
728,-398,14.786,7.0282,0,0,0,0,0,0,0,-1,1952,1422,14.786,-7.0282
735,-398,0,0,0,0,0,0,0,0,0,-1,1959,1422,0,0
742,-398,0,0,0,0,0,0,0,0,0,-1,1966,1422,0,0
749,-398,0,0,0,0,0,0,0,0,0,-1,1973,1422,0,0
756,-398,0,0,0,0,0,0,0,0,0,-1,1980,1422,0,0
763,-398,0,0,0,0,0,0,0,0,0,-1,1987,1422,0,0
770,-398,0,0,0,0,0,0,0,0,0,-1,1994,1422,0,0
777,-398,0,0,0,0,0,0,0,0,0,-1,2001,1422,0,0
784,-398,0,0,0,0,0,0,0,0,0,-1,2008,1422,0,0
791,-398,0,0,0,0,0,0,0,0,0,-1,2015,1422,0,0
798,-398,0,0,0,0,0,0,0,0,0,-1,2022,1422,0,0
805,-398,0,0,0,0,0,0,0,0,0,-1,2029,1422,0,0
812,-398,0,0,0,0,0,0,0,0,0,-1,2036,1422,0,0
-700,-405,0,0,0,0,0,0,0,0,0,-1,524,1429,0,0
-693,-405,0,0,0,0,0,0,0,0,0,-1,531,1429,0,0
-686,-405,0,0,0,0,0,0,0,0,0,-1,538,1429,0,0
-679,-405,0,0,0,0,0,0,0,0,0,-1,545,1429,0,0
-672,-405,0,0,0,0,0,0,0,0,0,-1,552,1429,0,0
-665,-405,0,0,0,0,0,0,0,0,0,-1,559,1429,0,0
-658,-405,0,0,0,0,0,0,0,0,0,-1,566,1429,0,0
-651,-405,0,0,0,0,0,0,0,0,0,-1,573,1429,0,0
-644,-405,0,0,0,0,0,0,0,0,0,-1,580,1429,0,0
-637,-405,0,0,0,0,0,0,0,0,0,-1,587,1429,0,0
-630,-405,0,0,0,0,0,0,0,0,0,-1,594,1429,0,0
-623,-405,0,0,0,0,0,0,0,0,0,-1,601,1429,0,0
-616,-405,0,0,0,0,0,0,0,0,0,-1,608,1429,0,0
-609,-405,0,0,0,0,0,0,0,0,0,-1,615,1429,0,0
-602,-405,-5.80988,-3.46594,0,0,0,0,0,0,0,-1,622,1429,-5.80987,3.46592
-595,-405,-9.35413,2.01477,0,0,0,0,0,0,0,-1,629,1429,-9.35411,-2.01476
-588,-405,-7.35693,0.507202,0,0,0,0,0,0,0,-1,636,1429,-7.35696,-0.507187
-581,-405,-10.1284,1.62927,0,0,0,0,0,0,0,-1,643,1429,-10.1284,-1.62922
-574,-405,-9.32074,3.05896,0,0,0,0,0,0,0,-1,650,1429,-9.32077,-3.0589
-567,-405,-9.68781,6.92163,0,0,0,0,0,0,0,-1,657,1429,-9.68782,-6.92166
-560,-405,-9.28674,7.20886,0,0,0,0,0,0,0,-1,664,1429,-9.28675,-7.20885
-553,-405,-20.6244,15.8638,0,0,0,0,0,0,0,-1,671,1429,-20.6244,-15.8637
-546,-405,-77.116,51.8041,0,0,0,0,0,0,0,-1,678,1429,-77.116,-51.8041
-539,-405,-77.5276,54.3157,0.00529999,0.00200838,-0.00100431,0.00558222,0.00172615,-0.273951,0.00330017,0.0261027,685,1429,-77.5276,-54.3157
-532,-405,-77.9277,56.7017,0.00469332,0.00142995,-0.000508654,0.00477077,0.0013525,-0.151094,0.00283917,0.0214694,692,1429,-77.9277,-56.7016
-525,-405,-78.3976,59.1598,0.00381096,0.00120406,2.43349e-05,0.00381118,0.00120383,0.00933372,0.00224957,0.0210636,699,1429,-78.3976,-59.1597
-518,-405,-78.7367,61.5963,0.00265422,0.00122032,0.000584591,0.00286234,0.0010122,0.342027,0.00167601,0.0184243,706,1429,-78.7367,-61.5963
-511,-405,-79.0995,63.9993,0.00116421,0.0013003,0.00110261,0.00233696,0.000127549,0.816215,0.00151725,0.0178908,713,1429,-79.0995,-63.9992
-504,-405,-79.4871,66.4749,-0.000638572,0.0014575,0.00159092,0.00231457,-0.00149563,1.07665,0.00221669,0.0238167,720,1429,-79.487,-66.4748
-497,-405,-79.6638,69.0751,-0.00274197,0.0016629,0.00205652,0.00247377,-0.00355284,1.19522,0.00349801,0.0373849,727,1429,-79.6638,-69.075
-490,-405,-80.5523,71.277,-0.00509221,0.00193717,0.0025324,0.00275447,-0.00590951,1.25861,0.00511151,0.0480365,734,1429,-80.5523,-71.277
-483,-405,-81.2131,73.7393,0,0,0,0,0,0,0,-1,741,1429,-81.2131,-73.7392
-476,-405,-81.5973,76.4272,0,0,0,0,0,0,0,-1,748,1429,-81.5973,-76.4272
-469,-405,-9.65692,12.8171,0,0,0,0,0,0,0,-1,755,1429,-9.65691,-12.8172
-462,-405,-9.14862,11.3597,0,0,0,0,0,0,0,-1,762,1429,-9.14865,-11.3597
-455,-405,-9.021,9.51111,0,0,0,0,0,0,0,-1,769,1429,-9.021,-9.51109
-448,-405,-8.4649,6.82813,0,0,0,0,0,0,0,-1,776,1429,-8.46492,-6.82817
-441,-405,-6.6712,4.23767,0,0,0,0,0,0,0,-1,783,1429,-6.67121,-4.23764
-434,-405,-9.62549,3.94189,0,0,0,0,0,0,0,-1,790,1429,-9.62546,-3.94191
-427,-405,-10.9764,3.73926,0,0,0,0,0,0,0,-1,797,1429,-10.9764,-3.73923
-420,-405,-12.1187,3.68506,0,0,0,0,0,0,0,-1,804,1429,-12.1187,-3.68512
-413,-405,-13.5353,3.75659,0,0,0,0,0,0,0,-1,811,1429,-13.5353,-3.75655
-406,-405,-14.7374,3.99817,0,0,0,0,0,0,0,-1,818,1429,-14.7374,-3.99814
-399,-405,0,0,0,0,0,0,0,0,0,-1,825,1429,0,0
-392,-405,0,0,0,0,0,0,0,0,0,-1,832,1429,0,0
-385,-405,0,0,0,0,0,0,0,0,0,-1,839,1429,0,0
-378,-405,0,0,0,0,0,0,0,0,0,-1,846,1429,0,0
-371,-405,0,0,0,0,0,0,0,0,0,-1,853,1429,0,0
-364,-405,0,0,0,0,0,0,0,0,0,-1,860,1429,0,0
-357,-405,0,0,0,0,0,0,0,0,0,-1,867,1429,0,0
-350,-405,0,0,0,0,0,0,0,0,0,-1,874,1429,0,0
-343,-405,0,0,0,0,0,0,0,0,0,-1,881,1429,0,0
-336,-405,0,0,0,0,0,0,0,0,0,-1,888,1429,0,0
-329,-405,0,0,0,0,0,0,0,0,0,-1,895,1429,0,0
-322,-405,0,0,0,0,0,0,0,0,0,-1,902,1429,0,0
-315,-405,0,0,0,0,0,0,0,0,0,-1,909,1429,0,0
-308,-405,0,0,0,0,0,0,0,0,0,-1,916,1429,0,0
-301,-405,0,0,0,0,0,0,0,0,0,-1,923,1429,0,0
-294,-405,0,0,0,0,0,0,0,0,0,-1,930,1429,0,0
-287,-405,0,0,0,0,0,0,0,0,0,-1,937,1429,0,0
-280,-405,0,0,0,0,0,0,0,0,0,-1,944,1429,0,0
-273,-405,0,0,0,0,0,0,0,0,0,-1,951,1429,0,0
-266,-405,0,0,0,0,0,0,0,0,0,-1,958,1429,0,0
-259,-405,0,0,0,0,0,0,0,0,0,-1,965,1429,0,0
-252,-405,0,0,0,0,0,0,0,0,0,-1,972,1429,0,0
-245,-405,0,0,0,0,0,0,0,0,0,-1,979,1429,0,0
-238,-405,0,0,0,0,0,0,0,0,0,-1,986,1429,0,0
-231,-405,0,0,0,0,0,0,0,0,0,-1,993,1429,0,0
-224,-405,0,0,0,0,0,0,0,0,0,-1,1000,1429,0,0
-217,-405,0,0,0,0,0,0,0,0,0,-1,1007,1429,0,0
-210,-405,0,0,0,0,0,0,0,0,0,-1,1014,1429,0,0
-203,-405,0,0,0,0,0,0,0,0,0,-1,1021,1429,0,0
-196,-405,0,0,0,0,0,0,0,0,0,-1,1028,1429,0,0
-189,-405,0,0,0,0,0,0,0,0,0,-1,1035,1429,0,0
-182,-405,0,0,0,0,0,0,0,0,0,-1,1042,1429,0,0
-175,-405,0,0,0,0,0,0,0,0,0,-1,1049,1429,0,0
-168,-405,0,0,0,0,0,0,0,0,0,-1,1056,1429,0,0
-161,-405,0,0,0,0,0,0,0,0,0,-1,1063,1429,0,0
-154,-405,0,0,0,0,0,0,0,0,0,-1,1070,1429,0,0
-147,-405,0,0,0,0,0,0,0,0,0,-1,1077,1429,0,0
-140,-405,0,0,0,0,0,0,0,0,0,-1,1084,1429,0,0
-133,-405,0,0,0,0,0,0,0,0,0,-1,1091,1429,0,0
-126,-405,0,0,0,0,0,0,0,0,0,-1,1098,1429,0,0
-119,-405,0,0,0,0,0,0,0,0,0,-1,1105,1429,0,0
-112,-405,0,0,0,0,0,0,0,0,0,-1,1112,1429,0,0
-105,-405,0,0,0,0,0,0,0,0,0,-1,1119,1429,0,0
-98,-405,0,0,0,0,0,0,0,0,0,-1,1126,1429,0,0
-91,-405,0,0,0,0,0,0,0,0,0,-1,1133,1429,0,0
-84,-405,0,0,0,0,0,0,0,0,0,-1,1140,1429,0,0
-77,-405,0,0,0,0,0,0,0,0,0,-1,1147,1429,0,0
-70,-405,0,0,0,0,0,0,0,0,0,-1,1154,1429,0,0
-63,-405,0,0,0,0,0,0,0,0,0,-1,1161,1429,0,0
-56,-405,0,0,0,0,0,0,0,0,0,-1,1168,1429,0,0
-49,-405,0,0,0,0,0,0,0,0,0,-1,1175,1429,0,0
-42,-405,0,0,0,0,0,0,0,0,0,-1,1182,1429,0,0
-35,-405,0,0,0,0,0,0,0,0,0,-1,1189,1429,0,0
-28,-405,0,0,0,0,0,0,0,0,0,-1,1196,1429,0,0
-21,-405,0,0,0,0,0,0,0,0,0,-1,1203,1429,0,0
-14,-405,0,0,0,0,0,0,0,0,0,-1,1210,1429,0,0
-7,-405,0,0,0,0,0,0,0,0,0,-1,1217,1429,0,0
0,-405,0,0,0,0,0,0,0,0,0,-1,1224,1429,0,0
7,-405,0,0,0,0,0,0,0,0,0,-1,1231,1429,0,0
14,-405,0,0,0,0,0,0,0,0,0,-1,1238,1429,0,0
21,-405,0,0,0,0,0,0,0,0,0,-1,1245,1429,0,0
28,-405,0,0,0,0,0,0,0,0,0,-1,1252,1429,0,0
35,-405,0,0,0,0,0,0,0,0,0,-1,1259,1429,0,0
42,-405,0,0,0,0,0,0,0,0,0,-1,1266,1429,0,0
49,-405,0,0,0,0,0,0,0,0,0,-1,1273,1429,0,0
56,-405,0,0,0,0,0,0,0,0,0,-1,1280,1429,0,0
63,-405,0,0,0,0,0,0,0,0,0,-1,1287,1429,0,0
70,-405,0,0,0,0,0,0,0,0,0,-1,1294,1429,0,0
77,-405,0,0,0,0,0,0,0,0,0,-1,1301,1429,0,0
84,-405,0,0,0,0,0,0,0,0,0,-1,1308,1429,0,0
91,-405,0,0,0,0,0,0,0,0,0,-1,1315,1429,0,0
98,-405,0,0,0,0,0,0,0,0,0,-1,1322,1429,0,0
105,-405,0,0,0,0,0,0,0,0,0,-1,1329,1429,0,0
112,-405,0,0,0,0,0,0,0,0,0,-1,1336,1429,0,0
119,-405,0,0,0,0,0,0,0,0,0,-1,1343,1429,0,0
126,-405,0,0,0,0,0,0,0,0,0,-1,1350,1429,0,0
133,-405,0,0,0,0,0,0,0,0,0,-1,1357,1429,0,0
140,-405,0,0,0,0,0,0,0,0,0,-1,1364,1429,0,0
147,-405,0,0,0,0,0,0,0,0,0,-1,1371,1429,0,0
154,-405,0,0,0,0,0,0,0,0,0,-1,1378,1429,0,0
161,-405,0,0,0,0,0,0,0,0,0,-1,1385,1429,0,0
168,-405,0,0,0,0,0,0,0,0,0,-1,1392,1429,0,0
175,-405,0,0,0,0,0,0,0,0,0,-1,1399,1429,0,0
182,-405,0,0,0,0,0,0,0,0,0,-1,1406,1429,0,0
189,-405,0,0,0,0,0,0,0,0,0,-1,1413,1429,0,0
196,-405,0,0,0,0,0,0,0,0,0,-1,1420,1429,0,0
203,-405,0,0,0,0,0,0,0,0,0,-1,1427,1429,0,0
210,-405,0,0,0,0,0,0,0,0,0,-1,1434,1429,0,0
217,-405,0,0,0,0,0,0,0,0,0,-1,1441,1429,0,0
224,-405,0,0,0,0,0,0,0,0,0,-1,1448,1429,0,0
231,-405,0,0,0,0,0,0,0,0,0,-1,1455,1429,0,0
238,-405,0,0,0,0,0,0,0,0,0,-1,1462,1429,0,0
245,-405,0,0,0,0,0,0,0,0,0,-1,1469,1429,0,0
252,-405,0,0,0,0,0,0,0,0,0,-1,1476,1429,0,0
259,-405,0,0,0,0,0,0,0,0,0,-1,1483,1429,0,0
266,-405,0,0,0,0,0,0,0,0,0,-1,1490,1429,0,0
273,-405,0,0,0,0,0,0,0,0,0,-1,1497,1429,0,0
280,-405,0,0,0,0,0,0,0,0,0,-1,1504,1429,0,0
287,-405,0,0,0,0,0,0,0,0,0,-1,1511,1429,0,0
294,-405,0,0,0,0,0,0,0,0,0,-1,1518,1429,0,0
301,-405,0,0,0,0,0,0,0,0,0,-1,1525,1429,0,0
308,-405,0,0,0,0,0,0,0,0,0,-1,1532,1429,0,0
315,-405,0,0,0,0,0,0,0,0,0,-1,1539,1429,0,0
322,-405,0,0,0,0,0,0,0,0,0,-1,1546,1429,0,0
329,-405,0,0,0,0,0,0,0,0,0,-1,1553,1429,0,0
336,-405,0,0,0,0,0,0,0,0,0,-1,1560,1429,0,0
343,-405,0,0,0,0,0,0,0,0,0,-1,1567,1429,0,0
350,-405,0,0,0,0,0,0,0,0,0,-1,1574,1429,0,0
357,-405,0,0,0,0,0,0,0,0,0,-1,1581,1429,0,0
364,-405,0,0,0,0,0,0,0,0,0,-1,1588,1429,0,0
371,-405,0,0,0,0,0,0,0,0,0,-1,1595,1429,0,0
378,-405,0,0,0,0,0,0,0,0,0,-1,1602,1429,0,0
385,-405,0,0,0,0,0,0,0,0,0,-1,1609,1429,0,0
392,-405,0,0,0,0,0,0,0,0,0,-1,1616,1429,0,0
399,-405,0,0,0,0,0,0,0,0,0,-1,1623,1429,0,0
406,-405,0,0,0,0,0,0,0,0,0,-1,1630,1429,0,0
413,-405,0,0,0,0,0,0,0,0,0,-1,1637,1429,0,0
420,-405,0,0,0,0,0,0,0,0,0,-1,1644,1429,0,0
427,-405,0,0,0,0,0,0,0,0,0,-1,1651,1429,0,0
434,-405,0,0,0,0,0,0,0,0,0,-1,1658,1429,0,0
441,-405,0,0,0,0,0,0,0,0,0,-1,1665,1429,0,0
448,-405,0,0,0,0,0,0,0,0,0,-1,1672,1429,0,0
455,-405,0,0,0,0,0,0,0,0,0,-1,1679,1429,0,0
462,-405,0,0,0,0,0,0,0,0,0,-1,1686,1429,0,0
469,-405,0,0,0,0,0,0,0,0,0,-1,1693,1429,0,0
476,-405,0,0,0,0,0,0,0,0,0,-1,1700,1429,0,0
483,-405,0,0,0,0,0,0,0,0,0,-1,1707,1429,0,0
490,-405,0,0,0,0,0,0,0,0,0,-1,1714,1429,0,0
497,-405,0,0,0,0,0,0,0,0,0,-1,1721,1429,0,0
504,-405,0,0,0,0,0,0,0,0,0,-1,1728,1429,0,0
511,-405,0,0,0,0,0,0,0,0,0,-1,1735,1429,0,0
518,-405,0,0,0,0,0,0,0,0,0,-1,1742,1429,0,0
525,-405,31.1563,-1.40942,0,0,0,0,0,0,0,-1,1749,1429,31.1563,1.40937
532,-405,28.156,4.8783,0,0,0,0,0,0,0,-1,1756,1429,28.1561,-4.87833
539,-405,26.5133,3.02454,0,0,0,0,0,0,0,-1,1763,1429,26.5133,-3.0246
546,-405,29.5735,6.53052,0,0,0,0,0,0,0,-1,1770,1429,29.5735,-6.53049
553,-405,28.2911,6.70654,0,0,0,0,0,0,0,-1,1777,1429,28.2912,-6.70656
560,-405,26.9299,7.08472,0,0,0,0,0,0,0,-1,1784,1429,26.9299,-7.08469
567,-405,25.804,7.14661,0,0,0,0,0,0,0,-1,1791,1429,25.8039,-7.14665
574,-405,25.1151,8.07971,0,0,0,0,0,0,0,-1,1798,1429,25.1151,-8.07965
581,-405,23.5055,8.505,0,0,0,0,0,0,0,-1,1805,1429,23.5054,-8.50501
588,-405,21.7491,8.98254,0,0,0,0,0,0,0,-1,1812,1429,21.7491,-8.98254
595,-405,21.6327,10.7795,0,0,0,0,0,0,0,-1,1819,1429,21.6327,-10.7796
602,-405,21.6461,13.9199,0,0,0,0,0,0,0,-1,1826,1429,21.6461,-13.92
609,-405,37.801,24.062,0,0,0,0,0,0,0,-1,1833,1429,37.8011,-24.062
616,-405,86.245,74.7568,0,0,0,0,0,0,0,-1,1840,1429,86.245,-74.7569
623,-405,85.952,72.2709,0.00327611,0.00796196,-0.00565387,0.0117391,-0.000501054,-0.981824,0.00799834,0.0465626,1847,1429,85.952,-72.2709
630,-405,85.5853,69.6479,0.0026095,0.00554342,-0.00402979,0.00836496,-0.000212034,-0.959957,0.00564865,0.0206045,1854,1429,85.5853,-69.6479
637,-405,85.2419,67.1403,0.00218579,0.0035766,-0.00262461,0.00559637,0.000166017,-0.9149,0.00367682,0.0141677,1861,1429,85.2419,-67.1403
644,-405,84.6853,64.8248,0.0020435,0.00205367,-0.00140082,0.00344941,0.000647757,-0.787214,0.00211698,0.0385973,1868,1429,84.6854,-64.8248
651,-405,84.1243,62.4028,0.00218994,0.000927073,-0.000378259,0.00229457,0.000822444,-0.269859,0.00134235,0.0482614,1875,1429,84.1243,-62.4028
658,-405,83.8795,59.9823,0.00258839,0.000138037,0.000474953,0.00267723,4.91972e-05,0.184912,0.00176865,0.0335007,1882,1429,83.8796,-59.9823
665,-405,83.4792,57.6174,0.00329498,-0.000191589,0.00111253,0.00361973,-0.000516338,0.284011,0.0026024,0.0223475,1889,1429,83.4792,-57.6174
672,-405,83.0728,55.2041,0.00430507,-0.000221419,0.00156423,0.00479302,-0.000709371,0.302379,0.00345616,0.0292888,1896,1429,83.0728,-55.2041
679,-405,83.0537,52.5204,0,0,0,0,0,0,0,-1,1903,1429,83.0537,-52.5203
686,-405,42.9835,18.502,0,0,0,0,0,0,0,-1,1910,1429,42.9835,-18.5019
693,-405,37.6653,14.9521,0,0,0,0,0,0,0,-1,1917,1429,37.6653,-14.9521
700,-405,9.1958,4.02026,0,0,0,0,0,0,0,-1,1924,1429,9.19579,-4.02025
707,-405,7.40308,3.83191,0,0,0,0,0,0,0,-1,1931,1429,7.40311,-3.83194
714,-405,7.33252,3.47388,0,0,0,0,0,0,0,-1,1938,1429,7.33255,-3.47383
721,-405,9.23523,0.993896,0,0,0,0,0,0,0,-1,1945,1429,9.23523,-0.993884
728,-405,0,0,0,0,0,0,0,0,0,-1,1952,1429,0,0
735,-405,0,0,0,0,0,0,0,0,0,-1,1959,1429,0,0
742,-405,0,0,0,0,0,0,0,0,0,-1,1966,1429,0,0
749,-405,0,0,0,0,0,0,0,0,0,-1,1973,1429,0,0
756,-405,0,0,0,0,0,0,0,0,0,-1,1980,1429,0,0
763,-405,0,0,0,0,0,0,0,0,0,-1,1987,1429,0,0
770,-405,0,0,0,0,0,0,0,0,0,-1,1994,1429,0,0
777,-405,0,0,0,0,0,0,0,0,0,-1,2001,1429,0,0
784,-405,0,0,0,0,0,0,0,0,0,-1,2008,1429,0,0
791,-405,0,0,0,0,0,0,0,0,0,-1,2015,1429,0,0
798,-405,0,0,0,0,0,0,0,0,0,-1,2022,1429,0,0
805,-405,0,0,0,0,0,0,0,0,0,-1,2029,1429,0,0
812,-405,0,0,0,0,0,0,0,0,0,-1,2036,1429,0,0
-700,-412,0,0,0,0,0,0,0,0,0,-1,524,1436,0,0
-693,-412,0,0,0,0,0,0,0,0,0,-1,531,1436,0,0
-686,-412,0,0,0,0,0,0,0,0,0,-1,538,1436,0,0
-679,-412,0,0,0,0,0,0,0,0,0,-1,545,1436,0,0
-672,-412,0,0,0,0,0,0,0,0,0,-1,552,1436,0,0
-665,-412,0,0,0,0,0,0,0,0,0,-1,559,1436,0,0
-658,-412,0,0,0,0,0,0,0,0,0,-1,566,1436,0,0
-651,-412,0,0,0,0,0,0,0,0,0,-1,573,1436,0,0
-644,-412,0,0,0,0,0,0,0,0,0,-1,580,1436,0,0
-637,-412,0,0,0,0,0,0,0,0,0,-1,587,1436,0,0
-630,-412,0,0,0,0,0,0,0,0,0,-1,594,1436,0,0
-623,-412,0,0,0,0,0,0,0,0,0,-1,601,1436,0,0
-616,-412,0,0,0,0,0,0,0,0,0,-1,608,1436,0,0
-609,-412,0,0,0,0,0,0,0,0,0,-1,615,1436,0,0
-602,-412,-3.72766,-3.50012,0,0,0,0,0,0,0,-1,622,1436,-3.72764,3.50017
-595,-412,-10.3706,0.65564,0,0,0,0,0,0,0,-1,629,1436,-10.3706,-0.655672
-588,-412,-8.17957,1.94934,0,0,0,0,0,0,0,-1,636,1436,-8.17956,-1.94939
-581,-412,-6.60065,-0.0554199,0,0,0,0,0,0,0,-1,643,1436,-6.60063,0.0554733
-574,-412,-8.34131,5.25012,0,0,0,0,0,0,0,-1,650,1436,-8.34129,-5.25012
-567,-412,-7.50354,3.65454,0,0,0,0,0,0,0,-1,657,1436,-7.50356,-3.65452
-560,-412,-8.52448,7.39014,0,0,0,0,0,0,0,-1,664,1436,-8.52447,-7.39019
-553,-412,-7.36761,6.54651,0,0,0,0,0,0,0,-1,671,1436,-7.36763,-6.54654
-546,-412,-30.9525,25.4158,0,0,0,0,0,0,0,-1,678,1436,-30.9525,-25.4157
-539,-412,-75.161,54.6265,0,0,0,0,0,0,0,-1,685,1436,-75.161,-54.6264
-532,-412,-75.5001,57.167,0.00442951,0.0010205,-0.00105727,0.00473078,0.00071922,-0.277599,0.00294355,0.0271867,692,1436,-75.5,-57.167
-525,-412,-75.946,59.5822,0.00375296,0.000811428,-0.000516706,0.00384109,0.000723304,-0.168924,0.00235691,0.0187793,699,1436,-75.946,-59.5822
-518,-412,-76.3098,62.0135,0.00287676,0.000846296,7.17827e-05,0.0028793,0.000843761,0.0352941,0.00170917,0.0185059,706,1436,-76.3097,-62.0136
-511,-412,-76.6808,64.4459,0.00175079,0.00099103,0.000658476,0.00213111,0.000610714,0.523764,0.00126721,0.0216382,713,1436,-76.6809,-64.446
-504,-412,-77.1064,66.8325,0.000377925,0.00118073,0.00120549,0.00204989,-0.000491233,0.946114,0.00155639,0.0230394,720,1436,-77.1064,-66.8326
-497,-412,-77.3832,69.3423,-0.00118266,0.00144071,0.00175059,0.00231651,-0.00205845,1.10692,0.00252735,0.0290805,727,1436,-77.3833,-69.3423
-490,-412,-77.7037,71.9265,0,0,0,0,0,0,0,-1,734,1436,-77.7037,-71.9265
-483,-412,-78.7313,74.2959,0,0,0,0,0,0,0,-1,741,1436,-78.7313,-74.2959
-476,-412,-78.5204,76.4374,0,0,0,0,0,0,0,-1,748,1436,-78.5204,-76.4373
-469,-412,-12.7646,18.4785,0,0,0,0,0,0,0,-1,755,1436,-12.7647,-18.4785
-462,-412,-8.94659,13.3385,0,0,0,0,0,0,0,-1,762,1436,-8.94657,-13.3385
-455,-412,-8.25006,11.2572,0,0,0,0,0,0,0,-1,769,1436,-8.25007,-11.2572
-448,-412,-7.38086,8.78186,0,0,0,0,0,0,0,-1,776,1436,-7.38088,-8.78183
-441,-412,-8.79523,9.05286,0,0,0,0,0,0,0,-1,783,1436,-8.79521,-9.0529
-434,-412,-10.6305,8.03577,0,0,0,0,0,0,0,-1,790,1436,-10.6305,-8.0358
-427,-412,-10.0004,5.15271,0,0,0,0,0,0,0,-1,797,1436,-10.0004,-5.15266
-420,-412,-10.4468,4.9043,0,0,0,0,0,0,0,-1,804,1436,-10.4468,-4.90429
-413,-412,-11.5704,4.97766,0,0,0,0,0,0,0,-1,811,1436,-11.5704,-4.97771
-406,-412,-13.1968,5.70093,0,0,0,0,0,0,0,-1,818,1436,-13.1968,-5.70096
-399,-412,-10.5506,0.771973,0,0,0,0,0,0,0,-1,825,1436,-10.5506,-0.771954
-392,-412,0,0,0,0,0,0,0,0,0,-1,832,1436,0,0
-385,-412,0,0,0,0,0,0,0,0,0,-1,839,1436,0,0
-378,-412,0,0,0,0,0,0,0,0,0,-1,846,1436,0,0
-371,-412,0,0,0,0,0,0,0,0,0,-1,853,1436,0,0
-364,-412,0,0,0,0,0,0,0,0,0,-1,860,1436,0,0
-357,-412,0,0,0,0,0,0,0,0,0,-1,867,1436,0,0
-350,-412,0,0,0,0,0,0,0,0,0,-1,874,1436,0,0
-343,-412,0,0,0,0,0,0,0,0,0,-1,881,1436,0,0
-336,-412,0,0,0,0,0,0,0,0,0,-1,888,1436,0,0
-329,-412,0,0,0,0,0,0,0,0,0,-1,895,1436,0,0
-322,-412,0,0,0,0,0,0,0,0,0,-1,902,1436,0,0
-315,-412,0,0,0,0,0,0,0,0,0,-1,909,1436,0,0
-308,-412,0,0,0,0,0,0,0,0,0,-1,916,1436,0,0
-301,-412,0,0,0,0,0,0,0,0,0,-1,923,1436,0,0
-294,-412,0,0,0,0,0,0,0,0,0,-1,930,1436,0,0
-287,-412,0,0,0,0,0,0,0,0,0,-1,937,1436,0,0
-280,-412,0,0,0,0,0,0,0,0,0,-1,944,1436,0,0
-273,-412,0,0,0,0,0,0,0,0,0,-1,951,1436,0,0
-266,-412,0,0,0,0,0,0,0,0,0,-1,958,1436,0,0
-259,-412,0,0,0,0,0,0,0,0,0,-1,965,1436,0,0
-252,-412,0,0,0,0,0,0,0,0,0,-1,972,1436,0,0
-245,-412,0,0,0,0,0,0,0,0,0,-1,979,1436,0,0
-238,-412,0,0,0,0,0,0,0,0,0,-1,986,1436,0,0
-231,-412,0,0,0,0,0,0,0,0,0,-1,993,1436,0,0
-224,-412,0,0,0,0,0,0,0,0,0,-1,1000,1436,0,0
-217,-412,0,0,0,0,0,0,0,0,0,-1,1007,1436,0,0
-210,-412,0,0,0,0,0,0,0,0,0,-1,1014,1436,0,0
-203,-412,0,0,0,0,0,0,0,0,0,-1,1021,1436,0,0
-196,-412,0,0,0,0,0,0,0,0,0,-1,1028,1436,0,0
-189,-412,0,0,0,0,0,0,0,0,0,-1,1035,1436,0,0
-182,-412,0,0,0,0,0,0,0,0,0,-1,1042,1436,0,0
-175,-412,0,0,0,0,0,0,0,0,0,-1,1049,1436,0,0
-168,-412,0,0,0,0,0,0,0,0,0,-1,1056,1436,0,0
-161,-412,0,0,0,0,0,0,0,0,0,-1,1063,1436,0,0
-154,-412,0,0,0,0,0,0,0,0,0,-1,1070,1436,0,0
-147,-412,0,0,0,0,0,0,0,0,0,-1,1077,1436,0,0
-140,-412,0,0,0,0,0,0,0,0,0,-1,1084,1436,0,0
-133,-412,0,0,0,0,0,0,0,0,0,-1,1091,1436,0,0
-126,-412,0,0,0,0,0,0,0,0,0,-1,1098,1436,0,0
-119,-412,0,0,0,0,0,0,0,0,0,-1,1105,1436,0,0
-112,-412,0,0,0,0,0,0,0,0,0,-1,1112,1436,0,0
-105,-412,0,0,0,0,0,0,0,0,0,-1,1119,1436,0,0
-98,-412,0,0,0,0,0,0,0,0,0,-1,1126,1436,0,0
-91,-412,0,0,0,0,0,0,0,0,0,-1,1133,1436,0,0
-84,-412,0,0,0,0,0,0,0,0,0,-1,1140,1436,0,0
-77,-412,0,0,0,0,0,0,0,0,0,-1,1147,1436,0,0
-70,-412,0,0,0,0,0,0,0,0,0,-1,1154,1436,0,0
-63,-412,0,0,0,0,0,0,0,0,0,-1,1161,1436,0,0
-56,-412,0,0,0,0,0,0,0,0,0,-1,1168,1436,0,0
-49,-412,0,0,0,0,0,0,0,0,0,-1,1175,1436,0,0
-42,-412,0,0,0,0,0,0,0,0,0,-1,1182,1436,0,0
-35,-412,0,0,0,0,0,0,0,0,0,-1,1189,1436,0,0
-28,-412,0,0,0,0,0,0,0,0,0,-1,1196,1436,0,0
-21,-412,0,0,0,0,0,0,0,0,0,-1,1203,1436,0,0
-14,-412,0,0,0,0,0,0,0,0,0,-1,1210,1436,0,0
-7,-412,0,0,0,0,0,0,0,0,0,-1,1217,1436,0,0
0,-412,0,0,0,0,0,0,0,0,0,-1,1224,1436,0,0
7,-412,0,0,0,0,0,0,0,0,0,-1,1231,1436,0,0
14,-412,0,0,0,0,0,0,0,0,0,-1,1238,1436,0,0
21,-412,0,0,0,0,0,0,0,0,0,-1,1245,1436,0,0
28,-412,0,0,0,0,0,0,0,0,0,-1,1252,1436,0,0
35,-412,0,0,0,0,0,0,0,0,0,-1,1259,1436,0,0
42,-412,0,0,0,0,0,0,0,0,0,-1,1266,1436,0,0
49,-412,0,0,0,0,0,0,0,0,0,-1,1273,1436,0,0
56,-412,0,0,0,0,0,0,0,0,0,-1,1280,1436,0,0
63,-412,0,0,0,0,0,0,0,0,0,-1,1287,1436,0,0
70,-412,0,0,0,0,0,0,0,0,0,-1,1294,1436,0,0
77,-412,0,0,0,0,0,0,0,0,0,-1,1301,1436,0,0
84,-412,0,0,0,0,0,0,0,0,0,-1,1308,1436,0,0
91,-412,0,0,0,0,0,0,0,0,0,-1,1315,1436,0,0
98,-412,0,0,0,0,0,0,0,0,0,-1,1322,1436,0,0
105,-412,0,0,0,0,0,0,0,0,0,-1,1329,1436,0,0
112,-412,0,0,0,0,0,0,0,0,0,-1,1336,1436,0,0
119,-412,0,0,0,0,0,0,0,0,0,-1,1343,1436,0,0
126,-412,0,0,0,0,0,0,0,0,0,-1,1350,1436,0,0
133,-412,0,0,0,0,0,0,0,0,0,-1,1357,1436,0,0
140,-412,0,0,0,0,0,0,0,0,0,-1,1364,1436,0,0
147,-412,0,0,0,0,0,0,0,0,0,-1,1371,1436,0,0
154,-412,0,0,0,0,0,0,0,0,0,-1,1378,1436,0,0
161,-412,0,0,0,0,0,0,0,0,0,-1,1385,1436,0,0
168,-412,0,0,0,0,0,0,0,0,0,-1,1392,1436,0,0
175,-412,0,0,0,0,0,0,0,0,0,-1,1399,1436,0,0
182,-412,0,0,0,0,0,0,0,0,0,-1,1406,1436,0,0
189,-412,0,0,0,0,0,0,0,0,0,-1,1413,1436,0,0
196,-412,0,0,0,0,0,0,0,0,0,-1,1420,1436,0,0
203,-412,0,0,0,0,0,0,0,0,0,-1,1427,1436,0,0
210,-412,0,0,0,0,0,0,0,0,0,-1,1434,1436,0,0
217,-412,0,0,0,0,0,0,0,0,0,-1,1441,1436,0,0
224,-412,0,0,0,0,0,0,0,0,0,-1,1448,1436,0,0
231,-412,0,0,0,0,0,0,0,0,0,-1,1455,1436,0,0
238,-412,0,0,0,0,0,0,0,0,0,-1,1462,1436,0,0
245,-412,0,0,0,0,0,0,0,0,0,-1,1469,1436,0,0
252,-412,0,0,0,0,0,0,0,0,0,-1,1476,1436,0,0
259,-412,0,0,0,0,0,0,0,0,0,-1,1483,1436,0,0
266,-412,0,0,0,0,0,0,0,0,0,-1,1490,1436,0,0
273,-412,0,0,0,0,0,0,0,0,0,-1,1497,1436,0,0
280,-412,0,0,0,0,0,0,0,0,0,-1,1504,1436,0,0
287,-412,0,0,0,0,0,0,0,0,0,-1,1511,1436,0,0
294,-412,0,0,0,0,0,0,0,0,0,-1,1518,1436,0,0
301,-412,0,0,0,0,0,0,0,0,0,-1,1525,1436,0,0
308,-412,0,0,0,0,0,0,0,0,0,-1,1532,1436,0,0
315,-412,0,0,0,0,0,0,0,0,0,-1,1539,1436,0,0
322,-412,0,0,0,0,0,0,0,0,0,-1,1546,1436,0,0
329,-412,0,0,0,0,0,0,0,0,0,-1,1553,1436,0,0
336,-412,0,0,0,0,0,0,0,0,0,-1,1560,1436,0,0
343,-412,0,0,0,0,0,0,0,0,0,-1,1567,1436,0,0
350,-412,0,0,0,0,0,0,0,0,0,-1,1574,1436,0,0
357,-412,0,0,0,0,0,0,0,0,0,-1,1581,1436,0,0
364,-412,0,0,0,0,0,0,0,0,0,-1,1588,1436,0,0
371,-412,0,0,0,0,0,0,0,0,0,-1,1595,1436,0,0
378,-412,0,0,0,0,0,0,0,0,0,-1,1602,1436,0,0
385,-412,0,0,0,0,0,0,0,0,0,-1,1609,1436,0,0
392,-412,0,0,0,0,0,0,0,0,0,-1,1616,1436,0,0
399,-412,0,0,0,0,0,0,0,0,0,-1,1623,1436,0,0
406,-412,0,0,0,0,0,0,0,0,0,-1,1630,1436,0,0
413,-412,0,0,0,0,0,0,0,0,0,-1,1637,1436,0,0
420,-412,0,0,0,0,0,0,0,0,0,-1,1644,1436,0,0
427,-412,0,0,0,0,0,0,0,0,0,-1,1651,1436,0,0
434,-412,0,0,0,0,0,0,0,0,0,-1,1658,1436,0,0
441,-412,0,0,0,0,0,0,0,0,0,-1,1665,1436,0,0
448,-412,0,0,0,0,0,0,0,0,0,-1,1672,1436,0,0
455,-412,0,0,0,0,0,0,0,0,0,-1,1679,1436,0,0
462,-412,0,0,0,0,0,0,0,0,0,-1,1686,1436,0,0
469,-412,0,0,0,0,0,0,0,0,0,-1,1693,1436,0,0
476,-412,0,0,0,0,0,0,0,0,0,-1,1700,1436,0,0
483,-412,0,0,0,0,0,0,0,0,0,-1,1707,1436,0,0
490,-412,0,0,0,0,0,0,0,0,0,-1,1714,1436,0,0
497,-412,0,0,0,0,0,0,0,0,0,-1,1721,1436,0,0
504,-412,0,0,0,0,0,0,0,0,0,-1,1728,1436,0,0
511,-412,0,0,0,0,0,0,0,0,0,-1,1735,1436,0,0
518,-412,30.1038,-2.43384,0,0,0,0,0,0,0,-1,1742,1436,30.1038,2.43383
525,-412,29.5283,-1.42493,0,0,0,0,0,0,0,-1,1749,1436,29.5283,1.42495
532,-412,28.8533,-0.386597,0,0,0,0,0,0,0,-1,1756,1436,28.8533,0.386632
539,-412,25.8654,2.74683,0,0,0,0,0,0,0,-1,1763,1436,25.8654,-2.74685
546,-412,25.4265,2.4342,0,0,0,0,0,0,0,-1,1770,1436,25.4265,-2.4342
553,-412,26.3595,7.49255,0,0,0,0,0,0,0,-1,1777,1436,26.3595,-7.4925
560,-412,24.9116,7.94324,0,0,0,0,0,0,0,-1,1784,1436,24.9116,-7.94327
567,-412,23.668,7.94531,0,0,0,0,0,0,0,-1,1791,1436,23.6679,-7.94534
574,-412,23.0142,9.17236,0,0,0,0,0,0,0,-1,1798,1436,23.0141,-9.17235
581,-412,22.2615,10.0349,0,0,0,0,0,0,0,-1,1805,1436,22.2615,-10.0349
588,-412,21.6893,10.8069,0,0,0,0,0,0,0,-1,1812,1436,21.6893,-10.8069
595,-412,21.5137,14.3157,0,0,0,0,0,0,0,-1,1819,1436,21.5137,-14.3157
602,-412,37.0725,24.8387,0,0,0,0,0,0,0,-1,1826,1436,37.0725,-24.8388
609,-412,80.7455,73.8978,0,0,0,0,0,0,0,-1,1833,1436,80.7455,-73.8979
616,-412,83.9874,74.8843,0,0,0,0,0,0,0,-1,1840,1436,83.9875,-74.8842
623,-412,83.5771,72.4713,0.00287884,0.0061563,-0.00429569,0.00911522,-8.00812e-05,-0.967619,0.00610369,0.0229082,1847,1436,83.5772,-72.4713
630,-412,83.1903,70.0414,0.00235733,0.00424062,-0.00302985,0.00647178,0.00012617,-0.93606,0.00427309,0.0152546,1854,1436,83.1903,-70.0413
637,-412,82.8219,67.6007,0.00204927,0.00265532,-0.00192475,0.00430075,0.000403836,-0.863475,0.00274249,0.0164988,1861,1436,82.8219,-67.6007
644,-412,82.421,65.15,0.00200443,0.00137918,-0.000967357,0.00270843,0.00067519,-0.629109,0.00162792,0.0216307,1868,1436,82.421,-65.15
651,-412,81.7418,62.8362,0.00223609,0.000402898,-0.000165984,0.002251,0.00038799,-0.0895728,0.00138951,0.0444567,1875,1436,81.7418,-62.8361
658,-412,81.4298,60.447,0.00272916,-0.000293414,0.000494317,0.00280795,-0.000372202,0.158058,0.00200757,0.0266609,1882,1436,81.4298,-60.4471
665,-412,81.0614,58.064,0.00358088,-0.000470703,0.000925545,0.0037823,-0.000672121,0.21428,0.00277286,0.0269819,1889,1436,81.0615,-58.064
672,-412,80.6619,55.6313,0,0,0,0,0,0,0,-1,1896,1436,80.6618,-55.6313
679,-412,40.6736,18.6143,0,0,0,0,0,0,0,-1,1903,1436,40.6736,-18.6142
686,-412,35.3159,15.2073,0,0,0,0,0,0,0,-1,1910,1436,35.3159,-15.2072
693,-412,11.9346,6.02344,0,0,0,0,0,0,0,-1,1917,1436,11.9346,-6.02343
700,-412,8.82764,5.8844,0,0,0,0,0,0,0,-1,1924,1436,8.82761,-5.88444
707,-412,6.59998,1.68994,0,0,0,0,0,0,0,-1,1931,1436,6.60002,-1.68995
714,-412,4.77283,-2.39832,0,0,0,0,0,0,0,-1,1938,1436,4.77288,2.39835
721,-412,0,0,0,0,0,0,0,0,0,-1,1945,1436,0,0
728,-412,0,0,0,0,0,0,0,0,0,-1,1952,1436,0,0
735,-412,0,0,0,0,0,0,0,0,0,-1,1959,1436,0,0
742,-412,0,0,0,0,0,0,0,0,0,-1,1966,1436,0,0
749,-412,0,0,0,0,0,0,0,0,0,-1,1973,1436,0,0
756,-412,0,0,0,0,0,0,0,0,0,-1,1980,1436,0,0
763,-412,0,0,0,0,0,0,0,0,0,-1,1987,1436,0,0
770,-412,0,0,0,0,0,0,0,0,0,-1,1994,1436,0,0
777,-412,0,0,0,0,0,0,0,0,0,-1,2001,1436,0,0
784,-412,0,0,0,0,0,0,0,0,0,-1,2008,1436,0,0
791,-412,0,0,0,0,0,0,0,0,0,-1,2015,1436,0,0
798,-412,0,0,0,0,0,0,0,0,0,-1,2022,1436,0,0
805,-412,0,0,0,0,0,0,0,0,0,-1,2029,1436,0,0
812,-412,0,0,0,0,0,0,0,0,0,-1,2036,1436,0,0
-700,-419,0,0,0,0,0,0,0,0,0,-1,524,1443,0,0
-693,-419,0,0,0,0,0,0,0,0,0,-1,531,1443,0,0
-686,-419,0,0,0,0,0,0,0,0,0,-1,538,1443,0,0
-679,-419,0,0,0,0,0,0,0,0,0,-1,545,1443,0,0
-672,-419,0,0,0,0,0,0,0,0,0,-1,552,1443,0,0
-665,-419,0,0,0,0,0,0,0,0,0,-1,559,1443,0,0
-658,-419,0,0,0,0,0,0,0,0,0,-1,566,1443,0,0
-651,-419,0,0,0,0,0,0,0,0,0,-1,573,1443,0,0
-644,-419,0,0,0,0,0,0,0,0,0,-1,580,1443,0,0
-637,-419,0,0,0,0,0,0,0,0,0,-1,587,1443,0,0
-630,-419,0,0,0,0,0,0,0,0,0,-1,594,1443,0,0
-623,-419,0,0,0,0,0,0,0,0,0,-1,601,1443,0,0
-616,-419,0,0,0,0,0,0,0,0,0,-1,608,1443,0,0
-609,-419,0,0,0,0,0,0,0,0,0,-1,615,1443,0,0
-602,-419,0,0,0,0,0,0,0,0,0,-1,622,1443,0,0
-595,-419,-11.4904,-0.622681,0,0,0,0,0,0,0,-1,629,1443,-11.4903,0.622714
-588,-419,-9.09369,0.742432,0,0,0,0,0,0,0,-1,636,1443,-9.09366,-0.742482
-581,-419,-6.39172,2.14673,0,0,0,0,0,0,0,-1,643,1443,-6.39175,-2.14668
-574,-419,-4.09772,3.54773,0,0,0,0,0,0,0,-1,650,1443,-4.09772,-3.54767
-567,-419,-6.14038,3.22498,0,0,0,0,0,0,0,-1,657,1443,-6.14037,-3.22497
-560,-419,-4.52814,5.22253,0,0,0,0,0,0,0,-1,664,1443,-4.52816,-5.22251
-553,-419,-5.08331,6.11829,0,0,0,0,0,0,0,-1,671,1443,-5.08331,-6.1183
-546,-419,-10.3732,9.23279,0,0,0,0,0,0,0,-1,678,1443,-10.3732,-9.23275
-539,-419,-30.3044,27.1487,0,0,0,0,0,0,0,-1,685,1443,-30.3044,-27.1487
-532,-419,-73.1153,57.5032,0,0,0,0,0,0,0,-1,692,1443,-73.1153,-57.5032
-525,-419,-73.4604,60.0464,0.00351134,0.000555713,-0.00103437,0.00383737,0.000229684,-0.30534,0.00248523,0.0154009,699,1443,-73.4605,-60.0464
-518,-419,-73.8042,62.4971,0.00286114,0.000573621,-0.000440589,0.00294307,0.000491695,-0.183846,0.00182042,0.0189492,706,1443,-73.8042,-62.4971
-511,-419,-74.2518,64.9114,0.00206795,0.000752591,0.000196687,0.00209673,0.00072381,0.145298,0.00122973,0.0229725,713,1443,-74.2518,-64.9114
-504,-419,-74.7311,67.3027,0.0010909,0.000960911,0.000795768,0.00182432,0.000227487,0.744652,0.00114792,0.0246429,720,1443,-74.7311,-67.3027
-497,-419,-75.1268,69.7163,-1.66595e-05,0.00122399,0.00140041,0.00213532,-0.000927986,0.99389,0.00181381,0.0196404,727,1443,-75.1268,-69.7163
-490,-419,-75.5458,72.1567,-0.00121692,0.00154371,0.00200546,0.00259797,-0.00227117,1.08681,0.00281331,0.02303,734,1443,-75.5459,-72.1567
-483,-419,-76.0562,74.7289,0,0,0,0,0,0,0,-1,741,1443,-76.0562,-74.7289
-476,-419,-76.0531,77.0022,0,0,0,0,0,0,0,-1,748,1443,-76.0531,-77.0022
-469,-419,-76.6753,79.2833,0,0,0,0,0,0,0,-1,755,1443,-76.6753,-79.2833
-462,-419,-11.5347,18.1563,0,0,0,0,0,0,0,-1,762,1443,-11.5347,-18.1562
-455,-419,-7.35645,11.9451,0,0,0,0,0,0,0,-1,769,1443,-7.35646,-11.9451
-448,-419,-7.49109,9.92444,0,0,0,0,0,0,0,-1,776,1443,-7.49109,-9.92442
-441,-419,-7.65527,8.75574,0,0,0,0,0,0,0,-1,783,1443,-7.65525,-8.75568
-434,-419,-11.3724,12.3643,0,0,0,0,0,0,0,-1,790,1443,-11.3724,-12.3643
-427,-419,-8.23193,7.89404,0,0,0,0,0,0,0,-1,797,1443,-8.23193,-7.89404
-420,-419,-8.74091,6.36597,0,0,0,0,0,0,0,-1,804,1443,-8.74089,-6.366
-413,-419,-9.88391,6.53955,0,0,0,0,0,0,0,-1,811,1443,-9.8839,-6.53955
-406,-419,-10.3372,2.75195,0,0,0,0,0,0,0,-1,818,1443,-10.3372,-2.75201
-399,-419,-11.5999,1.40002,0,0,0,0,0,0,0,-1,825,1443,-11.5999,-1.39998
-392,-419,0,0,0,0,0,0,0,0,0,-1,832,1443,0,0
-385,-419,0,0,0,0,0,0,0,0,0,-1,839,1443,0,0
-378,-419,0,0,0,0,0,0,0,0,0,-1,846,1443,0,0
-371,-419,0,0,0,0,0,0,0,0,0,-1,853,1443,0,0
-364,-419,0,0,0,0,0,0,0,0,0,-1,860,1443,0,0
-357,-419,0,0,0,0,0,0,0,0,0,-1,867,1443,0,0
-350,-419,0,0,0,0,0,0,0,0,0,-1,874,1443,0,0
-343,-419,0,0,0,0,0,0,0,0,0,-1,881,1443,0,0
-336,-419,0,0,0,0,0,0,0,0,0,-1,888,1443,0,0
-329,-419,0,0,0,0,0,0,0,0,0,-1,895,1443,0,0
-322,-419,0,0,0,0,0,0,0,0,0,-1,902,1443,0,0
-315,-419,0,0,0,0,0,0,0,0,0,-1,909,1443,0,0
-308,-419,0,0,0,0,0,0,0,0,0,-1,916,1443,0,0
-301,-419,0,0,0,0,0,0,0,0,0,-1,923,1443,0,0
-294,-419,0,0,0,0,0,0,0,0,0,-1,930,1443,0,0
-287,-419,0,0,0,0,0,0,0,0,0,-1,937,1443,0,0
-280,-419,0,0,0,0,0,0,0,0,0,-1,944,1443,0,0
-273,-419,0,0,0,0,0,0,0,0,0,-1,951,1443,0,0
-266,-419,0,0,0,0,0,0,0,0,0,-1,958,1443,0,0
-259,-419,0,0,0,0,0,0,0,0,0,-1,965,1443,0,0
-252,-419,0,0,0,0,0,0,0,0,0,-1,972,1443,0,0
-245,-419,0,0,0,0,0,0,0,0,0,-1,979,1443,0,0
-238,-419,0,0,0,0,0,0,0,0,0,-1,986,1443,0,0
-231,-419,0,0,0,0,0,0,0,0,0,-1,993,1443,0,0
-224,-419,0,0,0,0,0,0,0,0,0,-1,1000,1443,0,0
-217,-419,0,0,0,0,0,0,0,0,0,-1,1007,1443,0,0
-210,-419,0,0,0,0,0,0,0,0,0,-1,1014,1443,0,0
-203,-419,0,0,0,0,0,0,0,0,0,-1,1021,1443,0,0
-196,-419,0,0,0,0,0,0,0,0,0,-1,1028,1443,0,0
-189,-419,0,0,0,0,0,0,0,0,0,-1,1035,1443,0,0
-182,-419,0,0,0,0,0,0,0,0,0,-1,1042,1443,0,0
-175,-419,0,0,0,0,0,0,0,0,0,-1,1049,1443,0,0
-168,-419,0,0,0,0,0,0,0,0,0,-1,1056,1443,0,0
-161,-419,0,0,0,0,0,0,0,0,0,-1,1063,1443,0,0
-154,-419,0,0,0,0,0,0,0,0,0,-1,1070,1443,0,0
-147,-419,0,0,0,0,0,0,0,0,0,-1,1077,1443,0,0
-140,-419,0,0,0,0,0,0,0,0,0,-1,1084,1443,0,0
-133,-419,0,0,0,0,0,0,0,0,0,-1,1091,1443,0,0
-126,-419,0,0,0,0,0,0,0,0,0,-1,1098,1443,0,0
-119,-419,0,0,0,0,0,0,0,0,0,-1,1105,1443,0,0
-112,-419,0,0,0,0,0,0,0,0,0,-1,1112,1443,0,0
-105,-419,0,0,0,0,0,0,0,0,0,-1,1119,1443,0,0
-98,-419,0,0,0,0,0,0,0,0,0,-1,1126,1443,0,0
-91,-419,0,0,0,0,0,0,0,0,0,-1,1133,1443,0,0
-84,-419,0,0,0,0,0,0,0,0,0,-1,1140,1443,0,0
-77,-419,0,0,0,0,0,0,0,0,0,-1,1147,1443,0,0
-70,-419,0,0,0,0,0,0,0,0,0,-1,1154,1443,0,0
-63,-419,0,0,0,0,0,0,0,0,0,-1,1161,1443,0,0
-56,-419,0,0,0,0,0,0,0,0,0,-1,1168,1443,0,0
-49,-419,0,0,0,0,0,0,0,0,0,-1,1175,1443,0,0
-42,-419,0,0,0,0,0,0,0,0,0,-1,1182,1443,0,0
-35,-419,0,0,0,0,0,0,0,0,0,-1,1189,1443,0,0
-28,-419,0,0,0,0,0,0,0,0,0,-1,1196,1443,0,0
-21,-419,0,0,0,0,0,0,0,0,0,-1,1203,1443,0,0
-14,-419,0,0,0,0,0,0,0,0,0,-1,1210,1443,0,0
-7,-419,0,0,0,0,0,0,0,0,0,-1,1217,1443,0,0
0,-419,0,0,0,0,0,0,0,0,0,-1,1224,1443,0,0
7,-419,0,0,0,0,0,0,0,0,0,-1,1231,1443,0,0
14,-419,0,0,0,0,0,0,0,0,0,-1,1238,1443,0,0
21,-419,0,0,0,0,0,0,0,0,0,-1,1245,1443,0,0
28,-419,0,0,0,0,0,0,0,0,0,-1,1252,1443,0,0
35,-419,0,0,0,0,0,0,0,0,0,-1,1259,1443,0,0
42,-419,0,0,0,0,0,0,0,0,0,-1,1266,1443,0,0
49,-419,0,0,0,0,0,0,0,0,0,-1,1273,1443,0,0
56,-419,0,0,0,0,0,0,0,0,0,-1,1280,1443,0,0
63,-419,0,0,0,0,0,0,0,0,0,-1,1287,1443,0,0
70,-419,0,0,0,0,0,0,0,0,0,-1,1294,1443,0,0
77,-419,0,0,0,0,0,0,0,0,0,-1,1301,1443,0,0
84,-419,0,0,0,0,0,0,0,0,0,-1,1308,1443,0,0
91,-419,0,0,0,0,0,0,0,0,0,-1,1315,1443,0,0
98,-419,0,0,0,0,0,0,0,0,0,-1,1322,1443,0,0
105,-419,0,0,0,0,0,0,0,0,0,-1,1329,1443,0,0
112,-419,0,0,0,0,0,0,0,0,0,-1,1336,1443,0,0
119,-419,0,0,0,0,0,0,0,0,0,-1,1343,1443,0,0
126,-419,0,0,0,0,0,0,0,0,0,-1,1350,1443,0,0
133,-419,0,0,0,0,0,0,0,0,0,-1,1357,1443,0,0
140,-419,0,0,0,0,0,0,0,0,0,-1,1364,1443,0,0
147,-419,0,0,0,0,0,0,0,0,0,-1,1371,1443,0,0
154,-419,0,0,0,0,0,0,0,0,0,-1,1378,1443,0,0
161,-419,0,0,0,0,0,0,0,0,0,-1,1385,1443,0,0
168,-419,0,0,0,0,0,0,0,0,0,-1,1392,1443,0,0
175,-419,0,0,0,0,0,0,0,0,0,-1,1399,1443,0,0
182,-419,0,0,0,0,0,0,0,0,0,-1,1406,1443,0,0
189,-419,0,0,0,0,0,0,0,0,0,-1,1413,1443,0,0
196,-419,0,0,0,0,0,0,0,0,0,-1,1420,1443,0,0
203,-419,0,0,0,0,0,0,0,0,0,-1,1427,1443,0,0
210,-419,0,0,0,0,0,0,0,0,0,-1,1434,1443,0,0
217,-419,0,0,0,0,0,0,0,0,0,-1,1441,1443,0,0
224,-419,0,0,0,0,0,0,0,0,0,-1,1448,1443,0,0
231,-419,0,0,0,0,0,0,0,0,0,-1,1455,1443,0,0
238,-419,0,0,0,0,0,0,0,0,0,-1,1462,1443,0,0
245,-419,0,0,0,0,0,0,0,0,0,-1,1469,1443,0,0
252,-419,0,0,0,0,0,0,0,0,0,-1,1476,1443,0,0
259,-419,0,0,0,0,0,0,0,0,0,-1,1483,1443,0,0
266,-419,0,0,0,0,0,0,0,0,0,-1,1490,1443,0,0
273,-419,0,0,0,0,0,0,0,0,0,-1,1497,1443,0,0
280,-419,0,0,0,0,0,0,0,0,0,-1,1504,1443,0,0
287,-419,0,0,0,0,0,0,0,0,0,-1,1511,1443,0,0
294,-419,0,0,0,0,0,0,0,0,0,-1,1518,1443,0,0
301,-419,0,0,0,0,0,0,0,0,0,-1,1525,1443,0,0
308,-419,0,0,0,0,0,0,0,0,0,-1,1532,1443,0,0
315,-419,0,0,0,0,0,0,0,0,0,-1,1539,1443,0,0
322,-419,0,0,0,0,0,0,0,0,0,-1,1546,1443,0,0
329,-419,0,0,0,0,0,0,0,0,0,-1,1553,1443,0,0
336,-419,0,0,0,0,0,0,0,0,0,-1,1560,1443,0,0
343,-419,0,0,0,0,0,0,0,0,0,-1,1567,1443,0,0
350,-419,0,0,0,0,0,0,0,0,0,-1,1574,1443,0,0
357,-419,0,0,0,0,0,0,0,0,0,-1,1581,1443,0,0
364,-419,0,0,0,0,0,0,0,0,0,-1,1588,1443,0,0
371,-419,0,0,0,0,0,0,0,0,0,-1,1595,1443,0,0
378,-419,0,0,0,0,0,0,0,0,0,-1,1602,1443,0,0
385,-419,0,0,0,0,0,0,0,0,0,-1,1609,1443,0,0
392,-419,0,0,0,0,0,0,0,0,0,-1,1616,1443,0,0
399,-419,0,0,0,0,0,0,0,0,0,-1,1623,1443,0,0
406,-419,0,0,0,0,0,0,0,0,0,-1,1630,1443,0,0
413,-419,0,0,0,0,0,0,0,0,0,-1,1637,1443,0,0
420,-419,0,0,0,0,0,0,0,0,0,-1,1644,1443,0,0
427,-419,0,0,0,0,0,0,0,0,0,-1,1651,1443,0,0
434,-419,0,0,0,0,0,0,0,0,0,-1,1658,1443,0,0
441,-419,0,0,0,0,0,0,0,0,0,-1,1665,1443,0,0
448,-419,0,0,0,0,0,0,0,0,0,-1,1672,1443,0,0
455,-419,0,0,0,0,0,0,0,0,0,-1,1679,1443,0,0
462,-419,0,0,0,0,0,0,0,0,0,-1,1686,1443,0,0
469,-419,0,0,0,0,0,0,0,0,0,-1,1693,1443,0,0
476,-419,0,0,0,0,0,0,0,0,0,-1,1700,1443,0,0
483,-419,0,0,0,0,0,0,0,0,0,-1,1707,1443,0,0
490,-419,0,0,0,0,0,0,0,0,0,-1,1714,1443,0,0
497,-419,0,0,0,0,0,0,0,0,0,-1,1721,1443,0,0
504,-419,0,0,0,0,0,0,0,0,0,-1,1728,1443,0,0
511,-419,20.3005,3.7959,0,0,0,0,0,0,0,-1,1735,1443,20.3005,-3.79584
518,-419,21.3154,2.03027,0,0,0,0,0,0,0,-1,1742,1443,21.3155,-2.03029
525,-419,28.3439,-1.24475,0,0,0,0,0,0,0,-1,1749,1443,28.3438,1.24471
532,-419,27.5902,-0.272583,0,0,0,0,0,0,0,-1,1756,1443,27.5902,0.272526
539,-419,26.5278,1.60583,0,0,0,0,0,0,0,-1,1763,1443,26.5279,-1.60579
546,-419,24.9509,2.77539,0,0,0,0,0,0,0,-1,1770,1443,24.9509,-2.77537
553,-419,24.118,3.75525,0,0,0,0,0,0,0,-1,1777,1443,24.1181,-3.75526
560,-419,11.8199,8.26343,0,0,0,0,0,0,0,-1,1784,1443,11.82,-8.26341
567,-419,21.5143,8.74719,0,0,0,0,0,0,0,-1,1791,1443,21.5143,-8.74722
574,-419,19.5886,6.46155,0,0,0,0,0,0,0,-1,1798,1443,19.5886,-6.46157
581,-419,20.7926,11.4265,0,0,0,0,0,0,0,-1,1805,1443,20.7926,-11.4265
588,-419,19.4242,12.5363,0,0,0,0,0,0,0,-1,1812,1443,19.4242,-12.5362
595,-419,22.9375,16.0151,0,0,0,0,0,0,0,-1,1819,1443,22.9375,-16.0152
602,-419,69.4452,65.303,0,0,0,0,0,0,0,-1,1826,1443,69.4452,-65.3029
609,-419,82.2472,78.2174,0,0,0,0,0,0,0,-1,1833,1443,82.2472,-78.2174
616,-419,81.7402,75.3947,0,0,0,0,0,0,0,-1,1840,1443,81.7402,-75.3946
623,-419,81.2369,72.9564,0.00244214,0.00456563,-0.00324272,0.006916,9.17688e-05,-0.943609,0.00458038,0.016531,1847,1443,81.237,-72.9565
630,-419,80.7838,70.4924,0.0021388,0.00306943,-0.00225911,0.00491065,0.000297584,-0.886963,0.00317922,0.0153795,1854,1443,80.7839,-70.4925
637,-419,80.3795,68.0938,0.00198972,0.00182457,-0.00137743,0.00328705,0.000527248,-0.755459,0.00203847,0.0162998,1861,1443,80.3795,-68.0938
644,-419,79.9805,65.6472,0.00204376,0.000787425,-0.000618514,0.00229715,0.000534028,-0.388828,0.0013881,0.0178971,1868,1443,79.9804,-65.6472
651,-419,79.5114,63.2762,0.00230431,-4.22695e-05,3.42631e-05,0.00230481,-4.27696e-05,0.0145971,0.00155099,0.0209451,1875,1443,79.5113,-63.2763
658,-419,79.0812,60.877,0.00281237,-0.000637374,0.000566653,0.00290307,-0.000728068,0.158706,0.00221826,0.0201645,1882,1443,79.0811,-60.877
665,-419,78.8221,58.4518,0.00366282,-0.000607642,0.000865123,0.00383142,-0.000776244,0.192476,0.00284851,0.0435666,1889,1443,78.8222,-58.4518
672,-419,78.708,55.9681,0,0,0,0,0,0,0,-1,1896,1443,78.708,-55.9681
679,-419,35.5436,15.4066,0,0,0,0,0,0,0,-1,1903,1443,35.5436,-15.4067
686,-419,17.4127,8.03076,0,0,0,0,0,0,0,-1,1910,1443,17.4127,-8.03071
693,-419,8.76086,5.60535,0,0,0,0,0,0,0,-1,1917,1443,8.76091,-5.6054
700,-419,11.0498,4.85156,0,0,0,0,0,0,0,-1,1924,1443,11.0498,-4.85153
707,-419,9.5752,1.80042,0,0,0,0,0,0,0,-1,1931,1443,9.57523,-1.80037
714,-419,5.77576,-1.25061,0,0,0,0,0,0,0,-1,1938,1443,5.7757,1.25056
721,-419,0,0,0,0,0,0,0,0,0,-1,1945,1443,0,0
728,-419,0,0,0,0,0,0,0,0,0,-1,1952,1443,0,0
735,-419,0,0,0,0,0,0,0,0,0,-1,1959,1443,0,0
742,-419,0,0,0,0,0,0,0,0,0,-1,1966,1443,0,0
749,-419,0,0,0,0,0,0,0,0,0,-1,1973,1443,0,0
756,-419,0,0,0,0,0,0,0,0,0,-1,1980,1443,0,0
763,-419,0,0,0,0,0,0,0,0,0,-1,1987,1443,0,0
770,-419,0,0,0,0,0,0,0,0,0,-1,1994,1443,0,0
777,-419,0,0,0,0,0,0,0,0,0,-1,2001,1443,0,0
784,-419,0,0,0,0,0,0,0,0,0,-1,2008,1443,0,0
791,-419,0,0,0,0,0,0,0,0,0,-1,2015,1443,0,0
798,-419,0,0,0,0,0,0,0,0,0,-1,2022,1443,0,0
805,-419,0,0,0,0,0,0,0,0,0,-1,2029,1443,0,0
812,-419,0,0,0,0,0,0,0,0,0,-1,2036,1443,0,0
-700,-426,0,0,0,0,0,0,0,0,0,-1,524,1450,0,0
-693,-426,0,0,0,0,0,0,0,0,0,-1,531,1450,0,0
-686,-426,0,0,0,0,0,0,0,0,0,-1,538,1450,0,0
-679,-426,0,0,0,0,0,0,0,0,0,-1,545,1450,0,0
-672,-426,0,0,0,0,0,0,0,0,0,-1,552,1450,0,0
-665,-426,0,0,0,0,0,0,0,0,0,-1,559,1450,0,0
-658,-426,0,0,0,0,0,0,0,0,0,-1,566,1450,0,0
-651,-426,0,0,0,0,0,0,0,0,0,-1,573,1450,0,0
-644,-426,0,0,0,0,0,0,0,0,0,-1,580,1450,0,0
-637,-426,0,0,0,0,0,0,0,0,0,-1,587,1450,0,0
-630,-426,0,0,0,0,0,0,0,0,0,-1,594,1450,0,0
-623,-426,0,0,0,0,0,0,0,0,0,-1,601,1450,0,0
-616,-426,0,0,0,0,0,0,0,0,0,-1,608,1450,0,0
-609,-426,0,0,0,0,0,0,0,0,0,-1,615,1450,0,0
-602,-426,0,0,0,0,0,0,0,0,0,-1,622,1450,0,0
-595,-426,0,0,0,0,0,0,0,0,0,-1,629,1450,0,0
-588,-426,-10.184,-0.554321,0,0,0,0,0,0,0,-1,636,1450,-10.184,0.554321
-581,-426,-7.3349,1.48157,0,0,0,0,0,0,0,-1,643,1450,-7.33491,-1.48152
-574,-426,-5.02856,2.89319,0,0,0,0,0,0,0,-1,650,1450,-5.02858,-2.89319
-567,-426,-3.04797,1.72644,0,0,0,0,0,0,0,-1,657,1450,-3.04797,-1.72639
-560,-426,-5.55682,3.44397,0,0,0,0,0,0,0,-1,664,1450,-5.55684,-3.44399
-553,-426,-4.67017,6.66614,0,0,0,0,0,0,0,-1,671,1450,-4.67015,-6.66619
-546,-426,-7.58752,8.28882,0,0,0,0,0,0,0,-1,678,1450,-7.58752,-8.28878
-539,-426,-10.436,10.7441,0,0,0,0,0,0,0,-1,685,1450,-10.436,-10.7441
-532,-426,-56.7146,50.4419,0,0,0,0,0,0,0,-1,692,1450,-56.7146,-50.4419
-525,-426,-70.9166,60.5052,0,0,0,0,0,0,0,-1,699,1450,-70.9166,-60.5053
-518,-426,-71.3859,62.9237,0.00267819,0.000463585,-0.00082303,0.00295056,0.000191214,-0.319591,0.0019065,0.0192543,706,1450,-71.3859,-62.9237
-511,-426,-71.8287,65.3506,0.00220497,0.000650665,-0.000167889,0.0022229,0.000632737,-0.10638,0.00132248,0.0187816,713,1450,-71.8288,-65.3506
-504,-426,-72.2919,67.7606,0.00157654,0.000815642,0.000445932,0.00178226,0.00060992,0.432238,0.00104593,0.0189567,720,1450,-72.2919,-67.7606
-497,-426,-72.6895,70.1682,0.00083284,0.000999412,0.00103941,0.00195886,-0.000126611,0.825377,0.00135009,0.0171255,727,1450,-72.6895,-70.1682
-490,-426,-73.1108,72.589,2.93781e-05,0.00118719,0.00161007,0.00231927,-0.0011027,0.957978,0.00201686,0.0174514,734,1450,-73.1108,-72.589
-483,-426,-73.5881,75.0807,-0.000813519,0.00136925,0.00217536,0.00271165,-0.00215592,1.0179,0.00281639,0.0214909,741,1450,-73.588,-75.0807
-476,-426,-74.0762,77.5865,0,0,0,0,0,0,0,-1,748,1450,-74.0762,-77.5865
-469,-426,-74.2905,79.6678,0,0,0,0,0,0,0,-1,755,1450,-74.2905,-79.6679
-462,-426,-74.8724,82.0115,0,0,0,0,0,0,0,-1,762,1450,-74.8724,-82.0114
-455,-426,-10.215,17.7007,0,0,0,0,0,0,0,-1,769,1450,-10.215,-17.7007
-448,-426,-6.46545,10.1322,0,0,0,0,0,0,0,-1,776,1450,-6.46543,-10.1322
-441,-426,-10.9547,11.4747,0,0,0,0,0,0,0,-1,783,1450,-10.9546,-11.4748
-434,-426,-10.4998,13.6189,0,0,0,0,0,0,0,-1,790,1450,-10.4997,-13.6189
-427,-426,-9.36627,13.7396,0,0,0,0,0,0,0,-1,797,1450,-9.36628,-13.7396
-420,-426,-5.33765,7.95044,0,0,0,0,0,0,0,-1,804,1450,-5.33766,-7.95041
-413,-426,-10.1148,5.0415,0,0,0,0,0,0,0,-1,811,1450,-10.1148,-5.04152
-406,-426,-11.4199,3.6438,0,0,0,0,0,0,0,-1,818,1450,-11.4198,-3.64382
-399,-426,-12.7595,2.29004,0,0,0,0,0,0,0,-1,825,1450,-12.7595,-2.29003
-392,-426,-12.4147,0.537354,0,0,0,0,0,0,0,-1,832,1450,-12.4147,-0.53731
-385,-426,0,0,0,0,0,0,0,0,0,-1,839,1450,0,0
-378,-426,0,0,0,0,0,0,0,0,0,-1,846,1450,0,0
-371,-426,0,0,0,0,0,0,0,0,0,-1,853,1450,0,0
-364,-426,0,0,0,0,0,0,0,0,0,-1,860,1450,0,0
-357,-426,0,0,0,0,0,0,0,0,0,-1,867,1450,0,0
-350,-426,0,0,0,0,0,0,0,0,0,-1,874,1450,0,0
-343,-426,0,0,0,0,0,0,0,0,0,-1,881,1450,0,0
-336,-426,0,0,0,0,0,0,0,0,0,-1,888,1450,0,0
-329,-426,0,0,0,0,0,0,0,0,0,-1,895,1450,0,0
-322,-426,0,0,0,0,0,0,0,0,0,-1,902,1450,0,0
-315,-426,0,0,0,0,0,0,0,0,0,-1,909,1450,0,0
-308,-426,0,0,0,0,0,0,0,0,0,-1,916,1450,0,0
-301,-426,0,0,0,0,0,0,0,0,0,-1,923,1450,0,0
-294,-426,0,0,0,0,0,0,0,0,0,-1,930,1450,0,0
-287,-426,0,0,0,0,0,0,0,0,0,-1,937,1450,0,0
-280,-426,0,0,0,0,0,0,0,0,0,-1,944,1450,0,0
-273,-426,0,0,0,0,0,0,0,0,0,-1,951,1450,0,0
-266,-426,0,0,0,0,0,0,0,0,0,-1,958,1450,0,0
-259,-426,0,0,0,0,0,0,0,0,0,-1,965,1450,0,0
-252,-426,0,0,0,0,0,0,0,0,0,-1,972,1450,0,0
-245,-426,0,0,0,0,0,0,0,0,0,-1,979,1450,0,0
-238,-426,0,0,0,0,0,0,0,0,0,-1,986,1450,0,0
-231,-426,0,0,0,0,0,0,0,0,0,-1,993,1450,0,0
-224,-426,0,0,0,0,0,0,0,0,0,-1,1000,1450,0,0
-217,-426,0,0,0,0,0,0,0,0,0,-1,1007,1450,0,0
-210,-426,0,0,0,0,0,0,0,0,0,-1,1014,1450,0,0
-203,-426,0,0,0,0,0,0,0,0,0,-1,1021,1450,0,0
-196,-426,0,0,0,0,0,0,0,0,0,-1,1028,1450,0,0
-189,-426,0,0,0,0,0,0,0,0,0,-1,1035,1450,0,0
-182,-426,0,0,0,0,0,0,0,0,0,-1,1042,1450,0,0
-175,-426,0,0,0,0,0,0,0,0,0,-1,1049,1450,0,0
-168,-426,0,0,0,0,0,0,0,0,0,-1,1056,1450,0,0
-161,-426,0,0,0,0,0,0,0,0,0,-1,1063,1450,0,0
-154,-426,0,0,0,0,0,0,0,0,0,-1,1070,1450,0,0
-147,-426,0,0,0,0,0,0,0,0,0,-1,1077,1450,0,0
-140,-426,0,0,0,0,0,0,0,0,0,-1,1084,1450,0,0
-133,-426,0,0,0,0,0,0,0,0,0,-1,1091,1450,0,0
-126,-426,0,0,0,0,0,0,0,0,0,-1,1098,1450,0,0
-119,-426,0,0,0,0,0,0,0,0,0,-1,1105,1450,0,0
-112,-426,0,0,0,0,0,0,0,0,0,-1,1112,1450,0,0
-105,-426,0,0,0,0,0,0,0,0,0,-1,1119,1450,0,0
-98,-426,0,0,0,0,0,0,0,0,0,-1,1126,1450,0,0
-91,-426,0,0,0,0,0,0,0,0,0,-1,1133,1450,0,0
-84,-426,0,0,0,0,0,0,0,0,0,-1,1140,1450,0,0
-77,-426,0,0,0,0,0,0,0,0,0,-1,1147,1450,0,0
-70,-426,0,0,0,0,0,0,0,0,0,-1,1154,1450,0,0
-63,-426,0,0,0,0,0,0,0,0,0,-1,1161,1450,0,0
-56,-426,0,0,0,0,0,0,0,0,0,-1,1168,1450,0,0
-49,-426,0,0,0,0,0,0,0,0,0,-1,1175,1450,0,0
-42,-426,0,0,0,0,0,0,0,0,0,-1,1182,1450,0,0
-35,-426,0,0,0,0,0,0,0,0,0,-1,1189,1450,0,0
-28,-426,0,0,0,0,0,0,0,0,0,-1,1196,1450,0,0
-21,-426,0,0,0,0,0,0,0,0,0,-1,1203,1450,0,0
-14,-426,0,0,0,0,0,0,0,0,0,-1,1210,1450,0,0
-7,-426,0,0,0,0,0,0,0,0,0,-1,1217,1450,0,0
0,-426,0,0,0,0,0,0,0,0,0,-1,1224,1450,0,0
7,-426,0,0,0,0,0,0,0,0,0,-1,1231,1450,0,0
14,-426,0,0,0,0,0,0,0,0,0,-1,1238,1450,0,0
21,-426,0,0,0,0,0,0,0,0,0,-1,1245,1450,0,0
28,-426,0,0,0,0,0,0,0,0,0,-1,1252,1450,0,0
35,-426,0,0,0,0,0,0,0,0,0,-1,1259,1450,0,0
42,-426,0,0,0,0,0,0,0,0,0,-1,1266,1450,0,0
49,-426,0,0,0,0,0,0,0,0,0,-1,1273,1450,0,0
56,-426,0,0,0,0,0,0,0,0,0,-1,1280,1450,0,0
63,-426,0,0,0,0,0,0,0,0,0,-1,1287,1450,0,0
70,-426,0,0,0,0,0,0,0,0,0,-1,1294,1450,0,0
77,-426,0,0,0,0,0,0,0,0,0,-1,1301,1450,0,0
84,-426,0,0,0,0,0,0,0,0,0,-1,1308,1450,0,0
91,-426,0,0,0,0,0,0,0,0,0,-1,1315,1450,0,0
98,-426,0,0,0,0,0,0,0,0,0,-1,1322,1450,0,0
105,-426,0,0,0,0,0,0,0,0,0,-1,1329,1450,0,0
112,-426,0,0,0,0,0,0,0,0,0,-1,1336,1450,0,0
119,-426,0,0,0,0,0,0,0,0,0,-1,1343,1450,0,0
126,-426,0,0,0,0,0,0,0,0,0,-1,1350,1450,0,0
133,-426,0,0,0,0,0,0,0,0,0,-1,1357,1450,0,0
140,-426,0,0,0,0,0,0,0,0,0,-1,1364,1450,0,0
147,-426,0,0,0,0,0,0,0,0,0,-1,1371,1450,0,0
154,-426,0,0,0,0,0,0,0,0,0,-1,1378,1450,0,0
161,-426,0,0,0,0,0,0,0,0,0,-1,1385,1450,0,0
168,-426,0,0,0,0,0,0,0,0,0,-1,1392,1450,0,0
175,-426,0,0,0,0,0,0,0,0,0,-1,1399,1450,0,0
182,-426,0,0,0,0,0,0,0,0,0,-1,1406,1450,0,0
189,-426,0,0,0,0,0,0,0,0,0,-1,1413,1450,0,0
196,-426,0,0,0,0,0,0,0,0,0,-1,1420,1450,0,0
203,-426,0,0,0,0,0,0,0,0,0,-1,1427,1450,0,0
210,-426,0,0,0,0,0,0,0,0,0,-1,1434,1450,0,0
217,-426,0,0,0,0,0,0,0,0,0,-1,1441,1450,0,0
224,-426,0,0,0,0,0,0,0,0,0,-1,1448,1450,0,0
231,-426,0,0,0,0,0,0,0,0,0,-1,1455,1450,0,0
238,-426,0,0,0,0,0,0,0,0,0,-1,1462,1450,0,0
245,-426,0,0,0,0,0,0,0,0,0,-1,1469,1450,0,0
252,-426,0,0,0,0,0,0,0,0,0,-1,1476,1450,0,0
259,-426,0,0,0,0,0,0,0,0,0,-1,1483,1450,0,0
266,-426,0,0,0,0,0,0,0,0,0,-1,1490,1450,0,0
273,-426,0,0,0,0,0,0,0,0,0,-1,1497,1450,0,0
280,-426,0,0,0,0,0,0,0,0,0,-1,1504,1450,0,0
287,-426,0,0,0,0,0,0,0,0,0,-1,1511,1450,0,0
294,-426,0,0,0,0,0,0,0,0,0,-1,1518,1450,0,0
301,-426,0,0,0,0,0,0,0,0,0,-1,1525,1450,0,0
308,-426,0,0,0,0,0,0,0,0,0,-1,1532,1450,0,0
315,-426,0,0,0,0,0,0,0,0,0,-1,1539,1450,0,0
322,-426,0,0,0,0,0,0,0,0,0,-1,1546,1450,0,0
329,-426,0,0,0,0,0,0,0,0,0,-1,1553,1450,0,0
336,-426,0,0,0,0,0,0,0,0,0,-1,1560,1450,0,0
343,-426,0,0,0,0,0,0,0,0,0,-1,1567,1450,0,0
350,-426,0,0,0,0,0,0,0,0,0,-1,1574,1450,0,0
357,-426,0,0,0,0,0,0,0,0,0,-1,1581,1450,0,0
364,-426,0,0,0,0,0,0,0,0,0,-1,1588,1450,0,0
371,-426,0,0,0,0,0,0,0,0,0,-1,1595,1450,0,0
378,-426,0,0,0,0,0,0,0,0,0,-1,1602,1450,0,0
385,-426,0,0,0,0,0,0,0,0,0,-1,1609,1450,0,0
392,-426,0,0,0,0,0,0,0,0,0,-1,1616,1450,0,0
399,-426,0,0,0,0,0,0,0,0,0,-1,1623,1450,0,0
406,-426,0,0,0,0,0,0,0,0,0,-1,1630,1450,0,0
413,-426,0,0,0,0,0,0,0,0,0,-1,1637,1450,0,0
420,-426,0,0,0,0,0,0,0,0,0,-1,1644,1450,0,0
427,-426,0,0,0,0,0,0,0,0,0,-1,1651,1450,0,0
434,-426,0,0,0,0,0,0,0,0,0,-1,1658,1450,0,0
441,-426,0,0,0,0,0,0,0,0,0,-1,1665,1450,0,0
448,-426,0,0,0,0,0,0,0,0,0,-1,1672,1450,0,0
455,-426,0,0,0,0,0,0,0,0,0,-1,1679,1450,0,0
462,-426,0,0,0,0,0,0,0,0,0,-1,1686,1450,0,0
469,-426,0,0,0,0,0,0,0,0,0,-1,1693,1450,0,0
476,-426,0,0,0,0,0,0,0,0,0,-1,1700,1450,0,0
483,-426,0,0,0,0,0,0,0,0,0,-1,1707,1450,0,0
490,-426,0,0,0,0,0,0,0,0,0,-1,1714,1450,0,0
497,-426,0,0,0,0,0,0,0,0,0,-1,1721,1450,0,0
504,-426,20.6873,3.38367,0,0,0,0,0,0,0,-1,1728,1450,20.6873,-3.38361
511,-426,19.6676,3.53748,0,0,0,0,0,0,0,-1,1735,1450,19.6676,-3.53749
518,-426,18.6853,3.32288,0,0,0,0,0,0,0,-1,1742,1450,18.6853,-3.3229
525,-426,18.9552,2.71033,0,0,0,0,0,0,0,-1,1749,1450,18.9552,-2.71034
532,-426,19.4333,2.70764,0,0,0,0,0,0,0,-1,1756,1450,19.4334,-2.70764
539,-426,25.1482,2.56287,0,0,0,0,0,0,0,-1,1763,1450,25.1482,-2.56286
546,-426,24.1136,3.75659,0,0,0,0,0,0,0,-1,1770,1450,24.1136,-3.7566
553,-426,23.0791,4.95032,0,0,0,0,0,0,0,-1,1777,1450,23.0791,-4.95034
560,-426,12.9688,11.8289,0,0,0,0,0,0,0,-1,1784,1450,12.9688,-11.8288
567,-426,13.6388,11.5623,0,0,0,0,0,0,0,-1,1791,1450,13.6388,-11.5623
574,-426,14.3943,11.0286,0,0,0,0,0,0,0,-1,1798,1450,14.3942,-11.0285
581,-426,16.3879,11.4653,0,0,0,0,0,0,0,-1,1805,1450,16.3879,-11.4653
588,-426,18.1212,12.5547,0,0,0,0,0,0,0,-1,1812,1450,18.1212,-12.5547
595,-426,30.0474,21.0964,0,0,0,0,0,0,0,-1,1819,1450,30.0474,-21.0965
602,-426,80.1716,81.0984,0,0,0,0,0,0,0,-1,1826,1450,80.1716,-81.0984
609,-426,79.7358,78.4532,0.00243687,0.00586247,-0.0039573,0.00846173,-0.000162387,-0.989636,0.00569606,0.0361411,1833,1450,79.7359,-78.4532
616,-426,79.2748,75.7821,0.00216376,0.00451665,-0.00305564,0.0066145,6.59167e-05,-0.969155,0.00438786,0.0182151,1840,1450,79.2747,-75.7821
623,-426,78.8285,73.371,0.00201204,0.00324991,-0.00227569,0.00498933,0.000272623,-0.918175,0.00323917,0.0147712,1847,1450,78.8285,-73.3709
630,-426,78.4047,70.9653,0.00191443,0.00208248,-0.00157104,0.00357175,0.000425166,-0.812114,0.00225286,0.0154941,1854,1450,78.4047,-70.9654
637,-426,77.9702,68.5492,0.00192514,0.00110561,-0.00093249,0.00253393,0.000496825,-0.578382,0.00155044,0.0169999,1861,1450,77.9702,-68.5492
644,-426,77.5353,66.11,0.00210468,0.000268669,-0.000394602,0.00218589,0.000187452,-0.202985,0.00139897,0.0185952,1868,1450,77.5352,-66.11
651,-426,77.1038,63.7228,0.00249484,-0.000382183,2.97718e-05,0.00249515,-0.000382491,0.0103466,0.00180449,0.0193214,1875,1450,77.1038,-63.7228
658,-426,76.646,61.2404,0.00315345,-0.000821392,0.000338558,0.00318208,-0.000850023,0.0843653,0.00245429,0.0208549,1882,1450,76.646,-61.2403
665,-426,76.6127,58.7196,0,0,0,0,0,0,0,-1,1889,1450,76.6127,-58.7196
672,-426,36.2397,16.927,0,0,0,0,0,0,0,-1,1896,1450,36.2397,-16.9271
679,-426,17.1522,8.15784,0,0,0,0,0,0,0,-1,1903,1450,17.1522,-8.15784
686,-426,13.5326,8.03711,0,0,0,0,0,0,0,-1,1910,1450,13.5326,-8.03717
693,-426,11.8607,6.45215,0,0,0,0,0,0,0,-1,1917,1450,11.8607,-6.45215
700,-426,9.24304,2.95447,0,0,0,0,0,0,0,-1,1924,1450,9.24305,-2.95442
707,-426,8.44519,-1.21448,0,0,0,0,0,0,0,-1,1931,1450,8.44514,1.21454
714,-426,0,0,0,0,0,0,0,0,0,-1,1938,1450,0,0
721,-426,0,0,0,0,0,0,0,0,0,-1,1945,1450,0,0
728,-426,0,0,0,0,0,0,0,0,0,-1,1952,1450,0,0
735,-426,0,0,0,0,0,0,0,0,0,-1,1959,1450,0,0
742,-426,0,0,0,0,0,0,0,0,0,-1,1966,1450,0,0
749,-426,0,0,0,0,0,0,0,0,0,-1,1973,1450,0,0
756,-426,0,0,0,0,0,0,0,0,0,-1,1980,1450,0,0
763,-426,0,0,0,0,0,0,0,0,0,-1,1987,1450,0,0
770,-426,0,0,0,0,0,0,0,0,0,-1,1994,1450,0,0
777,-426,0,0,0,0,0,0,0,0,0,-1,2001,1450,0,0
784,-426,0,0,0,0,0,0,0,0,0,-1,2008,1450,0,0
791,-426,0,0,0,0,0,0,0,0,0,-1,2015,1450,0,0
798,-426,0,0,0,0,0,0,0,0,0,-1,2022,1450,0,0
805,-426,0,0,0,0,0,0,0,0,0,-1,2029,1450,0,0
812,-426,0,0,0,0,0,0,0,0,0,-1,2036,1450,0,0
-700,-433,0,0,0,0,0,0,0,0,0,-1,524,1457,0,0
-693,-433,0,0,0,0,0,0,0,0,0,-1,531,1457,0,0
-686,-433,0,0,0,0,0,0,0,0,0,-1,538,1457,0,0
-679,-433,0,0,0,0,0,0,0,0,0,-1,545,1457,0,0
-672,-433,0,0,0,0,0,0,0,0,0,-1,552,1457,0,0
-665,-433,0,0,0,0,0,0,0,0,0,-1,559,1457,0,0
-658,-433,0,0,0,0,0,0,0,0,0,-1,566,1457,0,0
-651,-433,0,0,0,0,0,0,0,0,0,-1,573,1457,0,0
-644,-433,0,0,0,0,0,0,0,0,0,-1,580,1457,0,0
-637,-433,0,0,0,0,0,0,0,0,0,-1,587,1457,0,0
-630,-433,0,0,0,0,0,0,0,0,0,-1,594,1457,0,0
-623,-433,0,0,0,0,0,0,0,0,0,-1,601,1457,0,0
-616,-433,0,0,0,0,0,0,0,0,0,-1,608,1457,0,0
-609,-433,0,0,0,0,0,0,0,0,0,-1,615,1457,0,0
-602,-433,0,0,0,0,0,0,0,0,0,-1,622,1457,0,0
-595,-433,0,0,0,0,0,0,0,0,0,-1,629,1457,0,0
-588,-433,-10.3756,-0.467041,0,0,0,0,0,0,0,-1,636,1457,-10.3756,0.467081
-581,-433,-8.12201,0.884033,0,0,0,0,0,0,0,-1,643,1457,-8.12204,-0.884056
-574,-433,-5.86847,2.23523,0,0,0,0,0,0,0,-1,650,1457,-5.86844,-2.23519
-567,-433,-5.42255,1.16833,0,0,0,0,0,0,0,-1,657,1457,-5.42254,-1.1683
-560,-433,-6.84027,1.86414,0,0,0,0,0,0,0,-1,664,1457,-6.84026,-1.86412
-553,-433,-5.74017,1.79163,0,0,0,0,0,0,0,-1,671,1457,-5.74015,-1.79166
-546,-433,-8.12451,7.35095,0,0,0,0,0,0,0,-1,678,1457,-8.12451,-7.35097
-539,-433,-7.3136,8.75659,0,0,0,0,0,0,0,-1,685,1457,-7.31362,-8.75659
-532,-433,-14.5645,14.8475,0,0,0,0,0,0,0,-1,692,1457,-14.5645,-14.8475
-525,-433,-68.6826,60.9257,0,0,0,0,0,0,0,-1,699,1457,-68.6825,-60.9256
-518,-433,-68.9763,63.3644,0.00213052,0.00038789,-0.00125301,0.00278538,-0.000266972,-0.481589,0.00195201,0.0241828,706,1457,-68.9763,-63.3644
-511,-433,-69.4363,65.7598,0.00197456,0.000623665,-0.000548245,0.00216906,0.000429169,-0.34091,0.00132633,0.0197099,713,1457,-69.4364,-65.7598
-504,-433,-69.8685,68.161,0.00169672,0.000761118,0.000101903,0.00170769,0.000750148,0.107241,0.000988358,0.0154667,720,1457,-69.8685,-68.161
-497,-433,-70.2693,70.5681,0.00129575,0.000875728,0.00068898,0.00180602,0.000365464,0.637464,0.00110257,0.0166322,727,1457,-70.2693,-70.5681
-490,-433,-70.7156,73.021,0.000833853,0.000946748,0.00122536,0.00211696,-0.000336357,0.808415,0.00153575,0.0198752,734,1457,-70.7156,-73.021
-483,-433,-71.1174,75.438,0.000382941,0.000955932,0.00174653,0.00243931,-0.00110044,0.866692,0.00209184,0.0213975,741,1457,-71.1175,-75.438
-476,-433,-71.5342,77.9427,-0.000127942,0.000999532,0.00222855,0.00273454,-0.00186295,0.90928,0.00267022,0.0266683,748,1457,-71.5342,-77.9427
-469,-433,-71.9346,80.5028,0,0,0,0,0,0,0,-1,755,1457,-71.9346,-80.5028
-462,-433,-72.265,82.625,0,0,0,0,0,0,0,-1,762,1457,-72.2649,-82.6251
-455,-433,-43.1202,58.5039,0,0,0,0,0,0,0,-1,769,1457,-43.1202,-58.5039
-448,-433,-6.94812,14.5563,0,0,0,0,0,0,0,-1,776,1457,-6.94809,-14.5562
-441,-433,-9.97485,14.0258,0,0,0,0,0,0,0,-1,783,1457,-9.97488,-14.0257
-434,-433,-9.41205,14.2297,0,0,0,0,0,0,0,-1,790,1457,-9.41205,-14.2297
-427,-433,-8.67419,13.6827,0,0,0,0,0,0,0,-1,797,1457,-8.67422,-13.6827
-420,-433,-5.74658,9.49121,0,0,0,0,0,0,0,-1,804,1457,-5.7466,-9.49119
-413,-433,-3.63074,5.5813,0,0,0,0,0,0,0,-1,811,1457,-3.63072,-5.58129
-406,-433,-12.3472,4.69373,0,0,0,0,0,0,0,-1,818,1457,-12.3472,-4.69374
-399,-433,-12.055,2.83594,0,0,0,0,0,0,0,-1,825,1457,-12.055,-2.83594
-392,-433,-12.9772,1.6228,0,0,0,0,0,0,0,-1,832,1457,-12.9772,-1.62282
-385,-433,-13.7999,0.514771,0,0,0,0,0,0,0,-1,839,1457,-13.7999,-0.514788
-378,-433,0,0,0,0,0,0,0,0,0,-1,846,1457,0,0
-371,-433,0,0,0,0,0,0,0,0,0,-1,853,1457,0,0
-364,-433,0,0,0,0,0,0,0,0,0,-1,860,1457,0,0
-357,-433,0,0,0,0,0,0,0,0,0,-1,867,1457,0,0
-350,-433,0,0,0,0,0,0,0,0,0,-1,874,1457,0,0
-343,-433,0,0,0,0,0,0,0,0,0,-1,881,1457,0,0
-336,-433,0,0,0,0,0,0,0,0,0,-1,888,1457,0,0
-329,-433,0,0,0,0,0,0,0,0,0,-1,895,1457,0,0
-322,-433,0,0,0,0,0,0,0,0,0,-1,902,1457,0,0
-315,-433,0,0,0,0,0,0,0,0,0,-1,909,1457,0,0
-308,-433,0,0,0,0,0,0,0,0,0,-1,916,1457,0,0
-301,-433,0,0,0,0,0,0,0,0,0,-1,923,1457,0,0
-294,-433,0,0,0,0,0,0,0,0,0,-1,930,1457,0,0
-287,-433,0,0,0,0,0,0,0,0,0,-1,937,1457,0,0
-280,-433,0,0,0,0,0,0,0,0,0,-1,944,1457,0,0
-273,-433,0,0,0,0,0,0,0,0,0,-1,951,1457,0,0
-266,-433,0,0,0,0,0,0,0,0,0,-1,958,1457,0,0
-259,-433,0,0,0,0,0,0,0,0,0,-1,965,1457,0,0
-252,-433,0,0,0,0,0,0,0,0,0,-1,972,1457,0,0
-245,-433,0,0,0,0,0,0,0,0,0,-1,979,1457,0,0
-238,-433,0,0,0,0,0,0,0,0,0,-1,986,1457,0,0
-231,-433,0,0,0,0,0,0,0,0,0,-1,993,1457,0,0
-224,-433,0,0,0,0,0,0,0,0,0,-1,1000,1457,0,0
-217,-433,0,0,0,0,0,0,0,0,0,-1,1007,1457,0,0
-210,-433,0,0,0,0,0,0,0,0,0,-1,1014,1457,0,0
-203,-433,0,0,0,0,0,0,0,0,0,-1,1021,1457,0,0
-196,-433,0,0,0,0,0,0,0,0,0,-1,1028,1457,0,0
-189,-433,0,0,0,0,0,0,0,0,0,-1,1035,1457,0,0
-182,-433,0,0,0,0,0,0,0,0,0,-1,1042,1457,0,0
-175,-433,0,0,0,0,0,0,0,0,0,-1,1049,1457,0,0
-168,-433,0,0,0,0,0,0,0,0,0,-1,1056,1457,0,0
-161,-433,0,0,0,0,0,0,0,0,0,-1,1063,1457,0,0
-154,-433,0,0,0,0,0,0,0,0,0,-1,1070,1457,0,0
-147,-433,0,0,0,0,0,0,0,0,0,-1,1077,1457,0,0
-140,-433,0,0,0,0,0,0,0,0,0,-1,1084,1457,0,0
-133,-433,0,0,0,0,0,0,0,0,0,-1,1091,1457,0,0
-126,-433,0,0,0,0,0,0,0,0,0,-1,1098,1457,0,0
-119,-433,0,0,0,0,0,0,0,0,0,-1,1105,1457,0,0
-112,-433,0,0,0,0,0,0,0,0,0,-1,1112,1457,0,0
-105,-433,0,0,0,0,0,0,0,0,0,-1,1119,1457,0,0
-98,-433,0,0,0,0,0,0,0,0,0,-1,1126,1457,0,0
-91,-433,0,0,0,0,0,0,0,0,0,-1,1133,1457,0,0
-84,-433,0,0,0,0,0,0,0,0,0,-1,1140,1457,0,0
-77,-433,0,0,0,0,0,0,0,0,0,-1,1147,1457,0,0
-70,-433,0,0,0,0,0,0,0,0,0,-1,1154,1457,0,0
-63,-433,0,0,0,0,0,0,0,0,0,-1,1161,1457,0,0
-56,-433,0,0,0,0,0,0,0,0,0,-1,1168,1457,0,0
-49,-433,0,0,0,0,0,0,0,0,0,-1,1175,1457,0,0
-42,-433,0,0,0,0,0,0,0,0,0,-1,1182,1457,0,0
-35,-433,0,0,0,0,0,0,0,0,0,-1,1189,1457,0,0
-28,-433,0,0,0,0,0,0,0,0,0,-1,1196,1457,0,0
-21,-433,0,0,0,0,0,0,0,0,0,-1,1203,1457,0,0
-14,-433,0,0,0,0,0,0,0,0,0,-1,1210,1457,0,0
-7,-433,0,0,0,0,0,0,0,0,0,-1,1217,1457,0,0
0,-433,0,0,0,0,0,0,0,0,0,-1,1224,1457,0,0
7,-433,0,0,0,0,0,0,0,0,0,-1,1231,1457,0,0
14,-433,0,0,0,0,0,0,0,0,0,-1,1238,1457,0,0
21,-433,0,0,0,0,0,0,0,0,0,-1,1245,1457,0,0
28,-433,0,0,0,0,0,0,0,0,0,-1,1252,1457,0,0
35,-433,0,0,0,0,0,0,0,0,0,-1,1259,1457,0,0
42,-433,0,0,0,0,0,0,0,0,0,-1,1266,1457,0,0
49,-433,0,0,0,0,0,0,0,0,0,-1,1273,1457,0,0
56,-433,0,0,0,0,0,0,0,0,0,-1,1280,1457,0,0
63,-433,0,0,0,0,0,0,0,0,0,-1,1287,1457,0,0
70,-433,0,0,0,0,0,0,0,0,0,-1,1294,1457,0,0
77,-433,0,0,0,0,0,0,0,0,0,-1,1301,1457,0,0
84,-433,0,0,0,0,0,0,0,0,0,-1,1308,1457,0,0
91,-433,0,0,0,0,0,0,0,0,0,-1,1315,1457,0,0
98,-433,0,0,0,0,0,0,0,0,0,-1,1322,1457,0,0
105,-433,0,0,0,0,0,0,0,0,0,-1,1329,1457,0,0
112,-433,0,0,0,0,0,0,0,0,0,-1,1336,1457,0,0
119,-433,0,0,0,0,0,0,0,0,0,-1,1343,1457,0,0
126,-433,0,0,0,0,0,0,0,0,0,-1,1350,1457,0,0
133,-433,0,0,0,0,0,0,0,0,0,-1,1357,1457,0,0
140,-433,0,0,0,0,0,0,0,0,0,-1,1364,1457,0,0
147,-433,0,0,0,0,0,0,0,0,0,-1,1371,1457,0,0
154,-433,0,0,0,0,0,0,0,0,0,-1,1378,1457,0,0
161,-433,0,0,0,0,0,0,0,0,0,-1,1385,1457,0,0
168,-433,0,0,0,0,0,0,0,0,0,-1,1392,1457,0,0
175,-433,0,0,0,0,0,0,0,0,0,-1,1399,1457,0,0
182,-433,0,0,0,0,0,0,0,0,0,-1,1406,1457,0,0
189,-433,0,0,0,0,0,0,0,0,0,-1,1413,1457,0,0
196,-433,0,0,0,0,0,0,0,0,0,-1,1420,1457,0,0
203,-433,0,0,0,0,0,0,0,0,0,-1,1427,1457,0,0
210,-433,0,0,0,0,0,0,0,0,0,-1,1434,1457,0,0
217,-433,0,0,0,0,0,0,0,0,0,-1,1441,1457,0,0
224,-433,0,0,0,0,0,0,0,0,0,-1,1448,1457,0,0
231,-433,0,0,0,0,0,0,0,0,0,-1,1455,1457,0,0
238,-433,0,0,0,0,0,0,0,0,0,-1,1462,1457,0,0
245,-433,0,0,0,0,0,0,0,0,0,-1,1469,1457,0,0
252,-433,0,0,0,0,0,0,0,0,0,-1,1476,1457,0,0
259,-433,0,0,0,0,0,0,0,0,0,-1,1483,1457,0,0
266,-433,0,0,0,0,0,0,0,0,0,-1,1490,1457,0,0
273,-433,0,0,0,0,0,0,0,0,0,-1,1497,1457,0,0
280,-433,0,0,0,0,0,0,0,0,0,-1,1504,1457,0,0
287,-433,0,0,0,0,0,0,0,0,0,-1,1511,1457,0,0
294,-433,0,0,0,0,0,0,0,0,0,-1,1518,1457,0,0
301,-433,0,0,0,0,0,0,0,0,0,-1,1525,1457,0,0
308,-433,0,0,0,0,0,0,0,0,0,-1,1532,1457,0,0
315,-433,0,0,0,0,0,0,0,0,0,-1,1539,1457,0,0
322,-433,0,0,0,0,0,0,0,0,0,-1,1546,1457,0,0
329,-433,0,0,0,0,0,0,0,0,0,-1,1553,1457,0,0
336,-433,0,0,0,0,0,0,0,0,0,-1,1560,1457,0,0
343,-433,0,0,0,0,0,0,0,0,0,-1,1567,1457,0,0
350,-433,0,0,0,0,0,0,0,0,0,-1,1574,1457,0,0
357,-433,0,0,0,0,0,0,0,0,0,-1,1581,1457,0,0
364,-433,0,0,0,0,0,0,0,0,0,-1,1588,1457,0,0
371,-433,0,0,0,0,0,0,0,0,0,-1,1595,1457,0,0
378,-433,0,0,0,0,0,0,0,0,0,-1,1602,1457,0,0
385,-433,0,0,0,0,0,0,0,0,0,-1,1609,1457,0,0
392,-433,0,0,0,0,0,0,0,0,0,-1,1616,1457,0,0
399,-433,0,0,0,0,0,0,0,0,0,-1,1623,1457,0,0
406,-433,0,0,0,0,0,0,0,0,0,-1,1630,1457,0,0
413,-433,0,0,0,0,0,0,0,0,0,-1,1637,1457,0,0
420,-433,0,0,0,0,0,0,0,0,0,-1,1644,1457,0,0
427,-433,0,0,0,0,0,0,0,0,0,-1,1651,1457,0,0
434,-433,0,0,0,0,0,0,0,0,0,-1,1658,1457,0,0
441,-433,0,0,0,0,0,0,0,0,0,-1,1665,1457,0,0
448,-433,0,0,0,0,0,0,0,0,0,-1,1672,1457,0,0
455,-433,0,0,0,0,0,0,0,0,0,-1,1679,1457,0,0
462,-433,0,0,0,0,0,0,0,0,0,-1,1686,1457,0,0
469,-433,0,0,0,0,0,0,0,0,0,-1,1693,1457,0,0
476,-433,0,0,0,0,0,0,0,0,0,-1,1700,1457,0,0
483,-433,0,0,0,0,0,0,0,0,0,-1,1707,1457,0,0
490,-433,0,0,0,0,0,0,0,0,0,-1,1714,1457,0,0
497,-433,0,0,0,0,0,0,0,0,0,-1,1721,1457,0,0
504,-433,19.9058,3.03662,0,0,0,0,0,0,0,-1,1728,1457,19.9058,-3.03656
511,-433,19.0145,3.07837,0,0,0,0,0,0,0,-1,1735,1457,19.0146,-3.07834
518,-433,18.071,3.06433,0,0,0,0,0,0,0,-1,1742,1457,18.071,-3.06432
525,-433,17.2048,3.37085,0,0,0,0,0,0,0,-1,1749,1457,17.2049,-3.37083
532,-433,16.5637,3.36646,0,0,0,0,0,0,0,-1,1756,1457,16.5637,-3.36643
539,-433,15.9193,3.30396,0,0,0,0,0,0,0,-1,1763,1457,15.9193,-3.30394
546,-433,23.1903,4.81775,0,0,0,0,0,0,0,-1,1770,1457,23.1903,-4.81775
553,-433,13.9674,11.5781,0,0,0,0,0,0,0,-1,1777,1457,13.9674,-11.5781
560,-433,13.9855,11.7341,0,0,0,0,0,0,0,-1,1784,1457,13.9855,-11.7341
567,-433,13.9264,11.3364,0,0,0,0,0,0,0,-1,1791,1457,13.9263,-11.3364
574,-433,15.5305,12.3673,0,0,0,0,0,0,0,-1,1798,1457,15.5305,-12.3673
581,-433,16.6405,12.1898,0,0,0,0,0,0,0,-1,1805,1457,16.6405,-12.1898
588,-433,26.4386,19.7478,0,0,0,0,0,0,0,-1,1812,1457,26.4386,-19.7478
595,-433,63.533,64.4567,0,0,0,0,0,0,0,-1,1819,1457,63.5329,-64.4566
602,-433,77.6575,81.0601,0,0,0,0,0,0,0,-1,1826,1457,77.6575,-81.06
609,-433,77.2491,78.6455,0.00214613,0.00424544,-0.00289398,0.00627424,0.00011733,-0.959371,0.00414427,0.0211853,1833,1457,77.2491,-78.6455
616,-433,76.816,76.2159,0.00188555,0.0032244,-0.00221565,0.00486955,0.000240407,-0.932106,0.00316927,0.0177499,1840,1457,76.8161,-76.216
623,-433,76.3842,73.814,0.00178981,0.0022683,-0.00163791,0.00368434,0.000373767,-0.85792,0.0023416,0.0138112,1847,1457,76.3842,-73.8139
630,-433,75.9603,71.4047,0.00177344,0.00135691,-0.00113543,0.00271955,0.000410805,-0.694696,0.00169279,0.0183116,1854,1457,75.9603,-71.4047
637,-433,75.5498,68.9674,0.00184518,0.000574498,-0.000682494,0.00214229,0.000277393,-0.410581,0.00134529,0.0224427,1861,1457,75.5498,-68.9674
644,-433,75.1249,66.5304,0.00207069,-0.000111023,-0.000317379,0.00211593,-0.000156255,-0.141564,0.00146548,0.0251461,1868,1457,75.1248,-66.5304
651,-433,74.7037,64.1317,0.00252551,-0.000626385,-8.8421e-05,0.00252799,-0.000628863,-0.0280239,0.00192942,0.0196086,1875,1457,74.7037,-64.1317
658,-433,74.2438,61.5861,0,0,0,0,0,0,0,-1,1882,1457,74.2438,-61.5861
665,-433,36.4893,18.9447,0,0,0,0,0,0,0,-1,1889,1457,36.4893,-18.9447
672,-433,18.115,8.7207,0,0,0,0,0,0,0,-1,1896,1457,18.115,-8.72074
679,-433,17.2969,9.6355,0,0,0,0,0,0,0,-1,1903,1457,17.2968,-9.63548
686,-433,13.6356,8.61694,0,0,0,0,0,0,0,-1,1910,1457,13.6356,-8.61694
693,-433,13.4081,8.39624,0,0,0,0,0,0,0,-1,1917,1457,13.4081,-8.39624
700,-433,7.16809,-1.5166,0,0,0,0,0,0,0,-1,1924,1457,7.16806,1.51656
707,-433,8.68359,-2.82202,0,0,0,0,0,0,0,-1,1931,1457,8.68359,2.82197
714,-433,0,0,0,0,0,0,0,0,0,-1,1938,1457,0,0
721,-433,0,0,0,0,0,0,0,0,0,-1,1945,1457,0,0
728,-433,0,0,0,0,0,0,0,0,0,-1,1952,1457,0,0
735,-433,0,0,0,0,0,0,0,0,0,-1,1959,1457,0,0
742,-433,0,0,0,0,0,0,0,0,0,-1,1966,1457,0,0
749,-433,0,0,0,0,0,0,0,0,0,-1,1973,1457,0,0
756,-433,0,0,0,0,0,0,0,0,0,-1,1980,1457,0,0
763,-433,0,0,0,0,0,0,0,0,0,-1,1987,1457,0,0
770,-433,0,0,0,0,0,0,0,0,0,-1,1994,1457,0,0
777,-433,0,0,0,0,0,0,0,0,0,-1,2001,1457,0,0
784,-433,0,0,0,0,0,0,0,0,0,-1,2008,1457,0,0
791,-433,0,0,0,0,0,0,0,0,0,-1,2015,1457,0,0
798,-433,0,0,0,0,0,0,0,0,0,-1,2022,1457,0,0
805,-433,0,0,0,0,0,0,0,0,0,-1,2029,1457,0,0
812,-433,0,0,0,0,0,0,0,0,0,-1,2036,1457,0,0
-700,-440,0,0,0,0,0,0,0,0,0,-1,524,1464,0,0
-693,-440,0,0,0,0,0,0,0,0,0,-1,531,1464,0,0
-686,-440,0,0,0,0,0,0,0,0,0,-1,538,1464,0,0
-679,-440,0,0,0,0,0,0,0,0,0,-1,545,1464,0,0
-672,-440,0,0,0,0,0,0,0,0,0,-1,552,1464,0,0
-665,-440,0,0,0,0,0,0,0,0,0,-1,559,1464,0,0
-658,-440,0,0,0,0,0,0,0,0,0,-1,566,1464,0,0
-651,-440,0,0,0,0,0,0,0,0,0,-1,573,1464,0,0
-644,-440,0,0,0,0,0,0,0,0,0,-1,580,1464,0,0
-637,-440,0,0,0,0,0,0,0,0,0,-1,587,1464,0,0
-630,-440,0,0,0,0,0,0,0,0,0,-1,594,1464,0,0
-623,-440,0,0,0,0,0,0,0,0,0,-1,601,1464,0,0
-616,-440,0,0,0,0,0,0,0,0,0,-1,608,1464,0,0
-609,-440,0,0,0,0,0,0,0,0,0,-1,615,1464,0,0
-602,-440,0,0,0,0,0,0,0,0,0,-1,622,1464,0,0
-595,-440,0,0,0,0,0,0,0,0,0,-1,629,1464,0,0
-588,-440,0,0,0,0,0,0,0,0,0,-1,636,1464,0,0
-581,-440,-8.97278,0.254517,0,0,0,0,0,0,0,-1,643,1464,-8.97276,-0.254526
-574,-440,-7.00818,-0.918579,0,0,0,0,0,0,0,-1,650,1464,-7.00817,0.918538
-567,-440,-6.12152,-0.0766602,0,0,0,0,0,0,0,-1,657,1464,-6.12151,0.0767097
-560,-440,-5.46747,0.82251,0,0,0,0,0,0,0,-1,664,1464,-5.46748,-0.822551
-553,-440,-6.84729,0.0831299,0,0,0,0,0,0,0,-1,671,1464,-6.84732,-0.083136
-546,-440,-5.63446,-0.153198,0,0,0,0,0,0,0,-1,678,1464,-5.63447,0.153147
-539,-440,-6.80017,8.58252,0,0,0,0,0,0,0,-1,685,1464,-6.80015,-8.58257
-532,-440,-9.69647,11.3262,0,0,0,0,0,0,0,-1,692,1464,-9.69649,-11.3262
-525,-440,-34.9579,37.0464,0,0,0,0,0,0,0,-1,699,1464,-34.9579,-37.0464
-518,-440,-66.6841,63.7819,0,0,0,0,0,0,0,-1,706,1464,-66.6841,-63.7819
-511,-440,-67.0408,66.2028,0.00154781,0.00108994,-0.000741696,0.0020951,0.000542652,-0.635704,0.00125557,0.0213897,713,1464,-67.0408,-66.2028
-504,-440,-67.4539,68.6006,0.00165799,0.00100051,-0.000143372,0.0016879,0.000970604,-0.205627,0.000978158,0.0230781,720,1464,-67.4538,-68.6006
-497,-440,-67.8778,70.9365,0.00156911,0.000878882,0.000359265,0.00172217,0.000725825,0.402742,0.000998376,0.0250793,727,1464,-67.8778,-70.9365
-490,-440,-68.3561,73.3333,0.00136929,0.000743188,0.000810751,0.00192533,0.000187149,0.601153,0.00122594,0.0256823,734,1464,-68.3561,-73.3333
-483,-440,-68.7214,75.8057,0.00116399,0.000544695,0.0012399,0.00213232,-0.000423635,0.663033,0.00158178,0.0250002,741,1464,-68.7214,-75.8057
-476,-440,-69.1198,78.2607,0.000903734,0.000437829,0.001641,0.00232823,-0.000986667,0.71489,0.00196541,0.018254,748,1464,-69.1198,-78.2607
-469,-440,-69.55,80.7935,0.000612258,0.000279826,0.00196497,0.00241803,-0.00152595,0.743204,0.00229639,0.0289649,755,1464,-69.55,-80.7935
-462,-440,-70.0634,83.3104,0,0,0,0,0,0,0,-1,762,1464,-70.0633,-83.3104
-455,-440,-70.0716,85.2322,0,0,0,0,0,0,0,-1,769,1464,-70.0716,-85.2322
-448,-440,-12.8837,23.5623,0,0,0,0,0,0,0,-1,776,1464,-12.8837,-23.5623
-441,-440,-7.28583,14.7465,0,0,0,0,0,0,0,-1,783,1464,-7.28584,-14.7464
-434,-440,-8.33636,14.5024,0,0,0,0,0,0,0,-1,790,1464,-8.33638,-14.5025
-427,-440,-8.28094,14.2512,0,0,0,0,0,0,0,-1,797,1464,-8.28094,-14.2512
-420,-440,-6.86603,8.09216,0,0,0,0,0,0,0,-1,804,1464,-6.86602,-8.09222
-413,-440,-3.46796,5.72278,0,0,0,0,0,0,0,-1,811,1464,-3.46797,-5.72276
-406,-440,-5.2887,5.20264,0,0,0,0,0,0,0,-1,818,1464,-5.2887,-5.20261
-399,-440,-12.7318,3.94421,0,0,0,0,0,0,0,-1,825,1464,-12.7318,-3.94419
-392,-440,-13.5565,2.51855,0,0,0,0,0,0,0,-1,832,1464,-13.5565,-2.51861
-385,-440,-14.6741,1.39795,0,0,0,0,0,0,0,-1,839,1464,-14.6741,-1.39801
-378,-440,-15.8063,0.293457,0,0,0,0,0,0,0,-1,846,1464,-15.8063,-0.293412
-371,-440,0,0,0,0,0,0,0,0,0,-1,853,1464,0,0
-364,-440,0,0,0,0,0,0,0,0,0,-1,860,1464,0,0
-357,-440,0,0,0,0,0,0,0,0,0,-1,867,1464,0,0
-350,-440,0,0,0,0,0,0,0,0,0,-1,874,1464,0,0
-343,-440,0,0,0,0,0,0,0,0,0,-1,881,1464,0,0
-336,-440,0,0,0,0,0,0,0,0,0,-1,888,1464,0,0
-329,-440,0,0,0,0,0,0,0,0,0,-1,895,1464,0,0
-322,-440,0,0,0,0,0,0,0,0,0,-1,902,1464,0,0
-315,-440,0,0,0,0,0,0,0,0,0,-1,909,1464,0,0
-308,-440,0,0,0,0,0,0,0,0,0,-1,916,1464,0,0
-301,-440,0,0,0,0,0,0,0,0,0,-1,923,1464,0,0
-294,-440,0,0,0,0,0,0,0,0,0,-1,930,1464,0,0
-287,-440,0,0,0,0,0,0,0,0,0,-1,937,1464,0,0
-280,-440,0,0,0,0,0,0,0,0,0,-1,944,1464,0,0
-273,-440,0,0,0,0,0,0,0,0,0,-1,951,1464,0,0
-266,-440,0,0,0,0,0,0,0,0,0,-1,958,1464,0,0
-259,-440,0,0,0,0,0,0,0,0,0,-1,965,1464,0,0
-252,-440,0,0,0,0,0,0,0,0,0,-1,972,1464,0,0
-245,-440,0,0,0,0,0,0,0,0,0,-1,979,1464,0,0
-238,-440,0,0,0,0,0,0,0,0,0,-1,986,1464,0,0
-231,-440,0,0,0,0,0,0,0,0,0,-1,993,1464,0,0
-224,-440,0,0,0,0,0,0,0,0,0,-1,1000,1464,0,0
-217,-440,0,0,0,0,0,0,0,0,0,-1,1007,1464,0,0
-210,-440,0,0,0,0,0,0,0,0,0,-1,1014,1464,0,0
-203,-440,0,0,0,0,0,0,0,0,0,-1,1021,1464,0,0
-196,-440,0,0,0,0,0,0,0,0,0,-1,1028,1464,0,0
-189,-440,0,0,0,0,0,0,0,0,0,-1,1035,1464,0,0
-182,-440,0,0,0,0,0,0,0,0,0,-1,1042,1464,0,0
-175,-440,0,0,0,0,0,0,0,0,0,-1,1049,1464,0,0
-168,-440,0,0,0,0,0,0,0,0,0,-1,1056,1464,0,0
-161,-440,0,0,0,0,0,0,0,0,0,-1,1063,1464,0,0
-154,-440,0,0,0,0,0,0,0,0,0,-1,1070,1464,0,0
-147,-440,0,0,0,0,0,0,0,0,0,-1,1077,1464,0,0
-140,-440,0,0,0,0,0,0,0,0,0,-1,1084,1464,0,0
-133,-440,0,0,0,0,0,0,0,0,0,-1,1091,1464,0,0
-126,-440,0,0,0,0,0,0,0,0,0,-1,1098,1464,0,0
-119,-440,0,0,0,0,0,0,0,0,0,-1,1105,1464,0,0
-112,-440,0,0,0,0,0,0,0,0,0,-1,1112,1464,0,0
-105,-440,0,0,0,0,0,0,0,0,0,-1,1119,1464,0,0
-98,-440,0,0,0,0,0,0,0,0,0,-1,1126,1464,0,0
-91,-440,0,0,0,0,0,0,0,0,0,-1,1133,1464,0,0
-84,-440,0,0,0,0,0,0,0,0,0,-1,1140,1464,0,0
-77,-440,0,0,0,0,0,0,0,0,0,-1,1147,1464,0,0
-70,-440,0,0,0,0,0,0,0,0,0,-1,1154,1464,0,0
-63,-440,0,0,0,0,0,0,0,0,0,-1,1161,1464,0,0
-56,-440,0,0,0,0,0,0,0,0,0,-1,1168,1464,0,0
-49,-440,0,0,0,0,0,0,0,0,0,-1,1175,1464,0,0
-42,-440,0,0,0,0,0,0,0,0,0,-1,1182,1464,0,0
-35,-440,0,0,0,0,0,0,0,0,0,-1,1189,1464,0,0
-28,-440,0,0,0,0,0,0,0,0,0,-1,1196,1464,0,0
-21,-440,0,0,0,0,0,0,0,0,0,-1,1203,1464,0,0
-14,-440,0,0,0,0,0,0,0,0,0,-1,1210,1464,0,0
-7,-440,0,0,0,0,0,0,0,0,0,-1,1217,1464,0,0
0,-440,0,0,0,0,0,0,0,0,0,-1,1224,1464,0,0
7,-440,0,0,0,0,0,0,0,0,0,-1,1231,1464,0,0
14,-440,0,0,0,0,0,0,0,0,0,-1,1238,1464,0,0
21,-440,0,0,0,0,0,0,0,0,0,-1,1245,1464,0,0
28,-440,0,0,0,0,0,0,0,0,0,-1,1252,1464,0,0
35,-440,0,0,0,0,0,0,0,0,0,-1,1259,1464,0,0
42,-440,0,0,0,0,0,0,0,0,0,-1,1266,1464,0,0
49,-440,0,0,0,0,0,0,0,0,0,-1,1273,1464,0,0
56,-440,0,0,0,0,0,0,0,0,0,-1,1280,1464,0,0
63,-440,0,0,0,0,0,0,0,0,0,-1,1287,1464,0,0
70,-440,0,0,0,0,0,0,0,0,0,-1,1294,1464,0,0
77,-440,0,0,0,0,0,0,0,0,0,-1,1301,1464,0,0
84,-440,0,0,0,0,0,0,0,0,0,-1,1308,1464,0,0
91,-440,0,0,0,0,0,0,0,0,0,-1,1315,1464,0,0
98,-440,0,0,0,0,0,0,0,0,0,-1,1322,1464,0,0
105,-440,0,0,0,0,0,0,0,0,0,-1,1329,1464,0,0
112,-440,0,0,0,0,0,0,0,0,0,-1,1336,1464,0,0
119,-440,0,0,0,0,0,0,0,0,0,-1,1343,1464,0,0
126,-440,0,0,0,0,0,0,0,0,0,-1,1350,1464,0,0
133,-440,0,0,0,0,0,0,0,0,0,-1,1357,1464,0,0
140,-440,0,0,0,0,0,0,0,0,0,-1,1364,1464,0,0
147,-440,0,0,0,0,0,0,0,0,0,-1,1371,1464,0,0
154,-440,0,0,0,0,0,0,0,0,0,-1,1378,1464,0,0
161,-440,0,0,0,0,0,0,0,0,0,-1,1385,1464,0,0
168,-440,0,0,0,0,0,0,0,0,0,-1,1392,1464,0,0
175,-440,0,0,0,0,0,0,0,0,0,-1,1399,1464,0,0
182,-440,0,0,0,0,0,0,0,0,0,-1,1406,1464,0,0
189,-440,0,0,0,0,0,0,0,0,0,-1,1413,1464,0,0
196,-440,0,0,0,0,0,0,0,0,0,-1,1420,1464,0,0
203,-440,0,0,0,0,0,0,0,0,0,-1,1427,1464,0,0
210,-440,0,0,0,0,0,0,0,0,0,-1,1434,1464,0,0
217,-440,0,0,0,0,0,0,0,0,0,-1,1441,1464,0,0
224,-440,0,0,0,0,0,0,0,0,0,-1,1448,1464,0,0
231,-440,0,0,0,0,0,0,0,0,0,-1,1455,1464,0,0
238,-440,0,0,0,0,0,0,0,0,0,-1,1462,1464,0,0
245,-440,0,0,0,0,0,0,0,0,0,-1,1469,1464,0,0
252,-440,0,0,0,0,0,0,0,0,0,-1,1476,1464,0,0
259,-440,0,0,0,0,0,0,0,0,0,-1,1483,1464,0,0
266,-440,0,0,0,0,0,0,0,0,0,-1,1490,1464,0,0
273,-440,0,0,0,0,0,0,0,0,0,-1,1497,1464,0,0
280,-440,0,0,0,0,0,0,0,0,0,-1,1504,1464,0,0
287,-440,0,0,0,0,0,0,0,0,0,-1,1511,1464,0,0
294,-440,0,0,0,0,0,0,0,0,0,-1,1518,1464,0,0
301,-440,0,0,0,0,0,0,0,0,0,-1,1525,1464,0,0
308,-440,0,0,0,0,0,0,0,0,0,-1,1532,1464,0,0
315,-440,0,0,0,0,0,0,0,0,0,-1,1539,1464,0,0
322,-440,0,0,0,0,0,0,0,0,0,-1,1546,1464,0,0
329,-440,0,0,0,0,0,0,0,0,0,-1,1553,1464,0,0
336,-440,0,0,0,0,0,0,0,0,0,-1,1560,1464,0,0
343,-440,0,0,0,0,0,0,0,0,0,-1,1567,1464,0,0
350,-440,0,0,0,0,0,0,0,0,0,-1,1574,1464,0,0
357,-440,0,0,0,0,0,0,0,0,0,-1,1581,1464,0,0
364,-440,0,0,0,0,0,0,0,0,0,-1,1588,1464,0,0
371,-440,0,0,0,0,0,0,0,0,0,-1,1595,1464,0,0
378,-440,0,0,0,0,0,0,0,0,0,-1,1602,1464,0,0
385,-440,0,0,0,0,0,0,0,0,0,-1,1609,1464,0,0
392,-440,0,0,0,0,0,0,0,0,0,-1,1616,1464,0,0
399,-440,0,0,0,0,0,0,0,0,0,-1,1623,1464,0,0
406,-440,0,0,0,0,0,0,0,0,0,-1,1630,1464,0,0
413,-440,0,0,0,0,0,0,0,0,0,-1,1637,1464,0,0
420,-440,0,0,0,0,0,0,0,0,0,-1,1644,1464,0,0
427,-440,0,0,0,0,0,0,0,0,0,-1,1651,1464,0,0
434,-440,0,0,0,0,0,0,0,0,0,-1,1658,1464,0,0
441,-440,0,0,0,0,0,0,0,0,0,-1,1665,1464,0,0
448,-440,0,0,0,0,0,0,0,0,0,-1,1672,1464,0,0
455,-440,0,0,0,0,0,0,0,0,0,-1,1679,1464,0,0
462,-440,0,0,0,0,0,0,0,0,0,-1,1686,1464,0,0
469,-440,0,0,0,0,0,0,0,0,0,-1,1693,1464,0,0
476,-440,0,0,0,0,0,0,0,0,0,-1,1700,1464,0,0
483,-440,0,0,0,0,0,0,0,0,0,-1,1707,1464,0,0
490,-440,0,0,0,0,0,0,0,0,0,-1,1714,1464,0,0
497,-440,16.965,-0.528442,0,0,0,0,0,0,0,-1,1721,1464,16.965,0.528492
504,-440,15.8052,0.670166,0,0,0,0,0,0,0,-1,1728,1464,15.8052,-0.670145
511,-440,17.5754,2.77832,0,0,0,0,0,0,0,-1,1735,1464,17.5754,-2.77826
518,-440,16.9017,3.07861,0,0,0,0,0,0,0,-1,1742,1464,16.9018,-3.07859
525,-440,18.4495,12.0867,0,0,0,0,0,0,0,-1,1749,1464,18.4495,-12.0867
532,-440,15.4319,3.64392,0,0,0,0,0,0,0,-1,1756,1464,15.4318,-3.64391
539,-440,14.8214,3.41321,0,0,0,0,0,0,0,-1,1763,1464,14.8214,-3.4132
546,-440,14.8651,10.7683,0,0,0,0,0,0,0,-1,1770,1464,14.8651,-10.7683
553,-440,15.1213,11.4121,0,0,0,0,0,0,0,-1,1777,1464,15.1213,-11.4121
560,-440,17.4325,12.5394,0,0,0,0,0,0,0,-1,1784,1464,17.4325,-12.5394
567,-440,16.9025,12.4249,0,0,0,0,0,0,0,-1,1791,1464,16.9025,-12.425
574,-440,19.2841,14.8679,0,0,0,0,0,0,0,-1,1798,1464,19.2841,-14.868
581,-440,26.4432,21.3477,0,0,0,0,0,0,0,-1,1805,1464,26.4432,-21.3476
588,-440,48.658,45.8292,0,0,0,0,0,0,0,-1,1812,1464,48.658,-45.8293
595,-440,75.7098,84.0352,0,0,0,0,0,0,0,-1,1819,1464,75.7099,-84.0351
602,-440,75.236,81.5394,0.00169745,0.0037087,-0.00230822,0.00522085,0.000185303,-0.990835,0.00342047,0.0265648,1826,1464,75.2359,-81.5394
609,-440,74.782,79.0776,0.00163792,0.00292509,-0.00188811,0.00427629,0.000286715,-0.949653,0.00276026,0.021232,1833,1464,74.782,-79.0776
616,-440,74.3481,76.6891,0.00152676,0.00216446,-0.00147132,0.00335109,0.000340136,-0.892102,0.00212975,0.0248183,1840,1464,74.3481,-76.6891
623,-440,73.954,74.2271,0.0015575,0.00148109,-0.0011398,0.00265974,0.00037885,-0.768644,0.00166134,0.0193716,1847,1464,73.954,-74.2271
630,-440,73.5187,71.7841,0.00165175,0.000825466,-0.000870613,0.00220227,0.00027494,-0.563862,0.00138566,0.0143469,1854,1464,73.5187,-71.784
637,-440,73.1187,69.375,0.00180984,0.000248117,-0.00064564,0.00204219,1.57675e-05,-0.345445,0.00135623,0.0212159,1861,1464,73.1187,-69.3749
644,-440,72.7305,66.9509,0.00210405,-0.000258699,-0.000502663,0.00220654,-0.000361192,-0.201143,0.00160503,0.024974,1868,1464,72.7304,-66.9509
651,-440,72.3549,64.479,0.00264238,-0.000601527,-0.0005429,0.00273083,-0.000689975,-0.161499,0.00208888,0.0492533,1875,1464,72.3548,-64.479
658,-440,72.0287,61.6626,0,0,0,0,0,0,0,-1,1882,1464,72.0287,-61.6626
665,-440,24.2067,12.5813,0,0,0,0,0,0,0,-1,1889,1464,24.2067,-12.5813
672,-440,18.9385,9.6394,0,0,0,0,0,0,0,-1,1896,1464,18.9384,-9.63939
679,-440,16.9508,10.2336,0,0,0,0,0,0,0,-1,1903,1464,16.9508,-10.2337
686,-440,15.2556,8.44177,0,0,0,0,0,0,0,-1,1910,1464,15.2556,-8.44177
693,-440,9.88635,2.89795,0,0,0,0,0,0,0,-1,1917,1464,9.88638,-2.89798
700,-440,7.07825,-2.62061,0,0,0,0,0,0,0,-1,1924,1464,7.07829,2.62057
707,-440,0,0,0,0,0,0,0,0,0,-1,1931,1464,0,0
714,-440,0,0,0,0,0,0,0,0,0,-1,1938,1464,0,0
721,-440,0,0,0,0,0,0,0,0,0,-1,1945,1464,0,0
728,-440,0,0,0,0,0,0,0,0,0,-1,1952,1464,0,0
735,-440,0,0,0,0,0,0,0,0,0,-1,1959,1464,0,0
742,-440,0,0,0,0,0,0,0,0,0,-1,1966,1464,0,0
749,-440,0,0,0,0,0,0,0,0,0,-1,1973,1464,0,0
756,-440,0,0,0,0,0,0,0,0,0,-1,1980,1464,0,0
763,-440,0,0,0,0,0,0,0,0,0,-1,1987,1464,0,0
770,-440,0,0,0,0,0,0,0,0,0,-1,1994,1464,0,0
777,-440,0,0,0,0,0,0,0,0,0,-1,2001,1464,0,0
784,-440,0,0,0,0,0,0,0,0,0,-1,2008,1464,0,0
791,-440,0,0,0,0,0,0,0,0,0,-1,2015,1464,0,0
798,-440,0,0,0,0,0,0,0,0,0,-1,2022,1464,0,0
805,-440,0,0,0,0,0,0,0,0,0,-1,2029,1464,0,0
812,-440,0,0,0,0,0,0,0,0,0,-1,2036,1464,0,0
-700,-447,0,0,0,0,0,0,0,0,0,-1,524,1471,0,0
-693,-447,0,0,0,0,0,0,0,0,0,-1,531,1471,0,0
-686,-447,0,0,0,0,0,0,0,0,0,-1,538,1471,0,0
-679,-447,0,0,0,0,0,0,0,0,0,-1,545,1471,0,0
-672,-447,0,0,0,0,0,0,0,0,0,-1,552,1471,0,0
-665,-447,0,0,0,0,0,0,0,0,0,-1,559,1471,0,0
-658,-447,0,0,0,0,0,0,0,0,0,-1,566,1471,0,0
-651,-447,0,0,0,0,0,0,0,0,0,-1,573,1471,0,0
-644,-447,0,0,0,0,0,0,0,0,0,-1,580,1471,0,0
-637,-447,0,0,0,0,0,0,0,0,0,-1,587,1471,0,0
-630,-447,0,0,0,0,0,0,0,0,0,-1,594,1471,0,0
-623,-447,0,0,0,0,0,0,0,0,0,-1,601,1471,0,0
-616,-447,0,0,0,0,0,0,0,0,0,-1,608,1471,0,0
-609,-447,0,0,0,0,0,0,0,0,0,-1,615,1471,0,0
-602,-447,0,0,0,0,0,0,0,0,0,-1,622,1471,0,0
-595,-447,0,0,0,0,0,0,0,0,0,-1,629,1471,0,0
-588,-447,0,0,0,0,0,0,0,0,0,-1,636,1471,0,0
-581,-447,-7.06482,-1.50476,0,0,0,0,0,0,0,-1,643,1471,-7.0648,1.50474
-574,-447,-6.88092,-0.00585938,0,0,0,0,0,0,0,-1,650,1471,-6.88095,0.00589852
-567,-447,-6.8205,-1.32178,0,0,0,0,0,0,0,-1,657,1471,-6.82047,1.32172
-560,-447,-8.85748,2.80774,0,0,0,0,0,0,0,-1,664,1471,-8.85748,-2.80775
-553,-447,-7.60486,3.26794,0,0,0,0,0,0,0,-1,671,1471,-7.60487,-3.26799
-546,-447,-3.94501,1.8656,0,0,0,0,0,0,0,-1,678,1471,-3.945,-1.86554
-539,-447,-5.35492,4.50024,0,0,0,0,0,0,0,-1,685,1471,-5.35492,-4.50018
-532,-447,-6.12781,8.81091,0,0,0,0,0,0,0,-1,692,1471,-6.12781,-8.81094
-525,-447,-9.44501,12.098,0,0,0,0,0,0,0,-1,699,1471,-9.44502,-12.098
-518,-447,-53.4653,56.6064,0,0,0,0,0,0,0,-1,706,1471,-53.4653,-56.6064
-511,-447,-64.6389,66.6265,0,0,0,0,0,0,0,-1,713,1471,-64.6389,-66.6265
-504,-447,-65.0676,69.0635,0.00136446,0.00146995,-0.000297737,0.00171958,0.00111483,-0.873064,0.00100725,0.0247776,720,1471,-65.0676,-69.0635
-497,-447,-65.5842,71.4036,0.00157904,0.00118704,0.000219893,0.0016776,0.00108848,0.421396,0.000982763,0.0287698,727,1471,-65.5842,-71.4036
-490,-447,-66.0074,73.7623,0.00161093,0.000917187,0.000656332,0.00200641,0.000521702,0.542306,0.00120206,0.0292425,734,1471,-66.0074,-73.7624
-483,-447,-66.3506,76.202,0.00158429,0.000575096,0.00102183,0.00221932,-5.99363e-05,0.556054,0.00149992,0.0278814,741,1471,-66.3506,-76.202
-476,-447,-66.7106,78.6112,0.00150448,0.000340185,0.00135122,0.00239362,-0.000548953,0.581998,0.00180675,0.019278,748,1471,-66.7107,-78.6112
-469,-447,-67.1398,81.0889,0.00137464,9.9671e-05,0.00161462,0.00247307,-0.000998757,0.597382,0.00206382,0.0176798,755,1471,-67.1398,-81.0889
-462,-447,-67.6357,83.5435,0.00125072,-0.000123854,0.00184922,0.00253624,-0.00140938,0.607477,0.00230876,0.0223272,762,1471,-67.6357,-83.5435
-455,-447,-67.986,85.9441,0,0,0,0,0,0,0,-1,769,1471,-67.986,-85.944
-448,-447,-64.4352,85.1656,0,0,0,0,0,0,0,-1,776,1471,-64.4352,-85.1656
-441,-447,-8.68506,19.0931,0,0,0,0,0,0,0,-1,783,1471,-8.68504,-19.0932
-434,-447,-7.43402,15.6273,0,0,0,0,0,0,0,-1,790,1471,-7.43404,-15.6274
-427,-447,-7.21832,14.691,0,0,0,0,0,0,0,-1,797,1471,-7.21834,-14.6911
-420,-447,-8.0545,12.8055,0,0,0,0,0,0,0,-1,804,1471,-8.05452,-12.8055
-413,-447,-4.27393,6.59705,0,0,0,0,0,0,0,-1,811,1471,-4.27392,-6.59707
-406,-447,-1.04279,6.18591,0,0,0,0,0,0,0,-1,818,1471,-1.04276,-6.18586
-399,-447,0.0134888,0.687622,0,0,0,0,0,0,0,-1,825,1471,0.0134841,-0.68767
-392,-447,-14.0646,3.76147,0,0,0,0,0,0,0,-1,832,1471,-14.0646,-3.7615
-385,-447,-15.1695,2.61865,0,0,0,0,0,0,0,-1,839,1471,-15.1695,-2.61871
-378,-447,-15.9424,1.49316,0,0,0,0,0,0,0,-1,846,1471,-15.9424,-1.49313
-371,-447,-17.3655,0.73291,0,0,0,0,0,0,0,-1,853,1471,-17.3655,-0.732946
-364,-447,0,0,0,0,0,0,0,0,0,-1,860,1471,0,0
-357,-447,0,0,0,0,0,0,0,0,0,-1,867,1471,0,0
-350,-447,0,0,0,0,0,0,0,0,0,-1,874,1471,0,0
-343,-447,0,0,0,0,0,0,0,0,0,-1,881,1471,0,0
-336,-447,0,0,0,0,0,0,0,0,0,-1,888,1471,0,0
-329,-447,0,0,0,0,0,0,0,0,0,-1,895,1471,0,0
-322,-447,0,0,0,0,0,0,0,0,0,-1,902,1471,0,0
-315,-447,0,0,0,0,0,0,0,0,0,-1,909,1471,0,0
-308,-447,0,0,0,0,0,0,0,0,0,-1,916,1471,0,0
-301,-447,0,0,0,0,0,0,0,0,0,-1,923,1471,0,0
-294,-447,0,0,0,0,0,0,0,0,0,-1,930,1471,0,0
-287,-447,0,0,0,0,0,0,0,0,0,-1,937,1471,0,0
-280,-447,0,0,0,0,0,0,0,0,0,-1,944,1471,0,0
-273,-447,0,0,0,0,0,0,0,0,0,-1,951,1471,0,0
-266,-447,0,0,0,0,0,0,0,0,0,-1,958,1471,0,0
-259,-447,0,0,0,0,0,0,0,0,0,-1,965,1471,0,0
-252,-447,0,0,0,0,0,0,0,0,0,-1,972,1471,0,0
-245,-447,0,0,0,0,0,0,0,0,0,-1,979,1471,0,0
-238,-447,0,0,0,0,0,0,0,0,0,-1,986,1471,0,0
-231,-447,0,0,0,0,0,0,0,0,0,-1,993,1471,0,0
-224,-447,0,0,0,0,0,0,0,0,0,-1,1000,1471,0,0
-217,-447,0,0,0,0,0,0,0,0,0,-1,1007,1471,0,0
-210,-447,0,0,0,0,0,0,0,0,0,-1,1014,1471,0,0
-203,-447,0,0,0,0,0,0,0,0,0,-1,1021,1471,0,0
-196,-447,0,0,0,0,0,0,0,0,0,-1,1028,1471,0,0
-189,-447,0,0,0,0,0,0,0,0,0,-1,1035,1471,0,0
-182,-447,0,0,0,0,0,0,0,0,0,-1,1042,1471,0,0
-175,-447,0,0,0,0,0,0,0,0,0,-1,1049,1471,0,0
-168,-447,0,0,0,0,0,0,0,0,0,-1,1056,1471,0,0
-161,-447,0,0,0,0,0,0,0,0,0,-1,1063,1471,0,0
-154,-447,0,0,0,0,0,0,0,0,0,-1,1070,1471,0,0
-147,-447,0,0,0,0,0,0,0,0,0,-1,1077,1471,0,0
-140,-447,0,0,0,0,0,0,0,0,0,-1,1084,1471,0,0
-133,-447,0,0,0,0,0,0,0,0,0,-1,1091,1471,0,0
-126,-447,0,0,0,0,0,0,0,0,0,-1,1098,1471,0,0
-119,-447,0,0,0,0,0,0,0,0,0,-1,1105,1471,0,0
-112,-447,0,0,0,0,0,0,0,0,0,-1,1112,1471,0,0
-105,-447,0,0,0,0,0,0,0,0,0,-1,1119,1471,0,0
-98,-447,0,0,0,0,0,0,0,0,0,-1,1126,1471,0,0
-91,-447,0,0,0,0,0,0,0,0,0,-1,1133,1471,0,0
-84,-447,0,0,0,0,0,0,0,0,0,-1,1140,1471,0,0
-77,-447,0,0,0,0,0,0,0,0,0,-1,1147,1471,0,0
-70,-447,0,0,0,0,0,0,0,0,0,-1,1154,1471,0,0
-63,-447,0,0,0,0,0,0,0,0,0,-1,1161,1471,0,0
-56,-447,0,0,0,0,0,0,0,0,0,-1,1168,1471,0,0
-49,-447,0,0,0,0,0,0,0,0,0,-1,1175,1471,0,0
-42,-447,0,0,0,0,0,0,0,0,0,-1,1182,1471,0,0
-35,-447,0,0,0,0,0,0,0,0,0,-1,1189,1471,0,0
-28,-447,0,0,0,0,0,0,0,0,0,-1,1196,1471,0,0
-21,-447,0,0,0,0,0,0,0,0,0,-1,1203,1471,0,0
-14,-447,0,0,0,0,0,0,0,0,0,-1,1210,1471,0,0
-7,-447,0,0,0,0,0,0,0,0,0,-1,1217,1471,0,0
0,-447,0,0,0,0,0,0,0,0,0,-1,1224,1471,0,0
7,-447,0,0,0,0,0,0,0,0,0,-1,1231,1471,0,0
14,-447,0,0,0,0,0,0,0,0,0,-1,1238,1471,0,0
21,-447,0,0,0,0,0,0,0,0,0,-1,1245,1471,0,0
28,-447,0,0,0,0,0,0,0,0,0,-1,1252,1471,0,0
35,-447,0,0,0,0,0,0,0,0,0,-1,1259,1471,0,0
42,-447,0,0,0,0,0,0,0,0,0,-1,1266,1471,0,0
49,-447,0,0,0,0,0,0,0,0,0,-1,1273,1471,0,0
56,-447,0,0,0,0,0,0,0,0,0,-1,1280,1471,0,0
63,-447,0,0,0,0,0,0,0,0,0,-1,1287,1471,0,0
70,-447,0,0,0,0,0,0,0,0,0,-1,1294,1471,0,0
77,-447,0,0,0,0,0,0,0,0,0,-1,1301,1471,0,0
84,-447,0,0,0,0,0,0,0,0,0,-1,1308,1471,0,0
91,-447,0,0,0,0,0,0,0,0,0,-1,1315,1471,0,0
98,-447,0,0,0,0,0,0,0,0,0,-1,1322,1471,0,0
105,-447,0,0,0,0,0,0,0,0,0,-1,1329,1471,0,0
112,-447,0,0,0,0,0,0,0,0,0,-1,1336,1471,0,0
119,-447,0,0,0,0,0,0,0,0,0,-1,1343,1471,0,0
126,-447,0,0,0,0,0,0,0,0,0,-1,1350,1471,0,0
133,-447,0,0,0,0,0,0,0,0,0,-1,1357,1471,0,0
140,-447,0,0,0,0,0,0,0,0,0,-1,1364,1471,0,0
147,-447,0,0,0,0,0,0,0,0,0,-1,1371,1471,0,0
154,-447,0,0,0,0,0,0,0,0,0,-1,1378,1471,0,0
161,-447,0,0,0,0,0,0,0,0,0,-1,1385,1471,0,0
168,-447,0,0,0,0,0,0,0,0,0,-1,1392,1471,0,0
175,-447,0,0,0,0,0,0,0,0,0,-1,1399,1471,0,0
182,-447,0,0,0,0,0,0,0,0,0,-1,1406,1471,0,0
189,-447,0,0,0,0,0,0,0,0,0,-1,1413,1471,0,0
196,-447,0,0,0,0,0,0,0,0,0,-1,1420,1471,0,0
203,-447,0,0,0,0,0,0,0,0,0,-1,1427,1471,0,0
210,-447,0,0,0,0,0,0,0,0,0,-1,1434,1471,0,0
217,-447,0,0,0,0,0,0,0,0,0,-1,1441,1471,0,0
224,-447,0,0,0,0,0,0,0,0,0,-1,1448,1471,0,0
231,-447,0,0,0,0,0,0,0,0,0,-1,1455,1471,0,0
238,-447,0,0,0,0,0,0,0,0,0,-1,1462,1471,0,0
245,-447,0,0,0,0,0,0,0,0,0,-1,1469,1471,0,0
252,-447,0,0,0,0,0,0,0,0,0,-1,1476,1471,0,0
259,-447,0,0,0,0,0,0,0,0,0,-1,1483,1471,0,0
266,-447,0,0,0,0,0,0,0,0,0,-1,1490,1471,0,0
273,-447,0,0,0,0,0,0,0,0,0,-1,1497,1471,0,0
280,-447,0,0,0,0,0,0,0,0,0,-1,1504,1471,0,0
287,-447,0,0,0,0,0,0,0,0,0,-1,1511,1471,0,0
294,-447,0,0,0,0,0,0,0,0,0,-1,1518,1471,0,0
301,-447,0,0,0,0,0,0,0,0,0,-1,1525,1471,0,0
308,-447,0,0,0,0,0,0,0,0,0,-1,1532,1471,0,0
315,-447,0,0,0,0,0,0,0,0,0,-1,1539,1471,0,0
322,-447,0,0,0,0,0,0,0,0,0,-1,1546,1471,0,0
329,-447,0,0,0,0,0,0,0,0,0,-1,1553,1471,0,0
336,-447,0,0,0,0,0,0,0,0,0,-1,1560,1471,0,0
343,-447,0,0,0,0,0,0,0,0,0,-1,1567,1471,0,0
350,-447,0,0,0,0,0,0,0,0,0,-1,1574,1471,0,0
357,-447,0,0,0,0,0,0,0,0,0,-1,1581,1471,0,0
364,-447,0,0,0,0,0,0,0,0,0,-1,1588,1471,0,0
371,-447,0,0,0,0,0,0,0,0,0,-1,1595,1471,0,0
378,-447,0,0,0,0,0,0,0,0,0,-1,1602,1471,0,0
385,-447,0,0,0,0,0,0,0,0,0,-1,1609,1471,0,0
392,-447,0,0,0,0,0,0,0,0,0,-1,1616,1471,0,0
399,-447,0,0,0,0,0,0,0,0,0,-1,1623,1471,0,0
406,-447,0,0,0,0,0,0,0,0,0,-1,1630,1471,0,0
413,-447,0,0,0,0,0,0,0,0,0,-1,1637,1471,0,0
420,-447,0,0,0,0,0,0,0,0,0,-1,1644,1471,0,0
427,-447,0,0,0,0,0,0,0,0,0,-1,1651,1471,0,0
434,-447,0,0,0,0,0,0,0,0,0,-1,1658,1471,0,0
441,-447,0,0,0,0,0,0,0,0,0,-1,1665,1471,0,0
448,-447,0,0,0,0,0,0,0,0,0,-1,1672,1471,0,0
455,-447,0,0,0,0,0,0,0,0,0,-1,1679,1471,0,0
462,-447,0,0,0,0,0,0,0,0,0,-1,1686,1471,0,0
469,-447,0,0,0,0,0,0,0,0,0,-1,1693,1471,0,0
476,-447,0,0,0,0,0,0,0,0,0,-1,1700,1471,0,0
483,-447,0,0,0,0,0,0,0,0,0,-1,1707,1471,0,0
490,-447,18.2214,-0.810303,0,0,0,0,0,0,0,-1,1714,1471,18.2215,0.810307
497,-447,17.0237,0.352417,0,0,0,0,0,0,0,-1,1721,1471,17.0237,-0.352442
504,-447,15.8998,1.53479,0,0,0,0,0,0,0,-1,1728,1471,15.8997,-1.53478
511,-447,14.7201,2.76111,0,0,0,0,0,0,0,-1,1735,1471,14.7201,-2.76107
518,-447,17.7618,13.2864,0,0,0,0,0,0,0,-1,1742,1471,17.7619,-13.2863
525,-447,17.1191,11.9014,0,0,0,0,0,0,0,-1,1749,1471,17.1191,-11.9013
532,-447,16.3959,10.0455,0,0,0,0,0,0,0,-1,1756,1471,16.3959,-10.0456
539,-447,14.1699,10.0204,0,0,0,0,0,0,0,-1,1763,1471,14.1699,-10.0204
546,-447,16.3715,11.8046,0,0,0,0,0,0,0,-1,1770,1471,16.3714,-11.8046
553,-447,17.5106,13.4012,0,0,0,0,0,0,0,-1,1777,1471,17.5107,-13.4012
560,-447,17.0187,13.168,0,0,0,0,0,0,0,-1,1784,1471,17.0187,-13.168
567,-447,18.9286,15.1703,0,0,0,0,0,0,0,-1,1791,1471,18.9286,-15.1703
574,-447,32.1848,27.6504,0,0,0,0,0,0,0,-1,1798,1471,32.1848,-27.6503
581,-447,48.0679,47.2927,0,0,0,0,0,0,0,-1,1805,1471,48.0679,-47.2927
588,-447,73.6359,86.9252,0,0,0,0,0,0,0,-1,1812,1471,73.6358,-86.9251
595,-447,73.2119,84.4391,0.00159752,0.00311438,-0.00192312,0.00442322,0.000288675,-0.973222,0.00285745,0.0200964,1819,1471,73.2119,-84.4391
602,-447,72.7692,81.9502,0.00135235,0.00238466,-0.00144411,0.00340208,0.000334928,-0.957033,0.00216507,0.0161224,1826,1471,72.7692,-81.9502
609,-447,72.3396,79.5083,0.00135782,0.00185494,-0.00117525,0.00280763,0.000405131,-0.88961,0.00175239,0.0180408,1833,1471,72.3396,-79.5083
616,-447,71.929,77.0917,0.00138853,0.00132967,-0.000957539,0.00231709,0.000401107,-0.770036,0.0014299,0.0216756,1840,1471,71.929,-77.0916
623,-447,71.5609,74.6782,0.00152873,0.000911804,-0.00083121,0.00210686,0.000333666,-0.607725,0.00130762,0.0239535,1847,1471,71.5609,-74.6782
630,-447,71.0889,72.2485,0.00170389,0.000551829,-0.000769986,0.00208946,0.000166251,-0.464255,0.001341,0.013914,1854,1471,71.0889,-72.2486
637,-447,70.6769,69.8226,0.00192107,0.000277516,-0.000781121,0.00223307,-3.44921e-05,-0.380021,0.00150034,0.0139229,1861,1471,70.6769,-69.8226
644,-447,70.2827,67.3867,0.00223949,0.000100111,-0.0009003,0.00256793,-0.000228332,-0.349812,0.00179292,0.0207041,1868,1471,70.2828,-67.3867
651,-447,70.0493,64.5901,0,0,0,0,0,0,0,-1,1875,1471,70.0493,-64.5901
658,-447,30.2566,16.5862,0,0,0,0,0,0,0,-1,1882,1471,30.2566,-16.5862
665,-447,18.4946,9.79919,0,0,0,0,0,0,0,-1,1889,1471,18.4946,-9.79922
672,-447,18.9784,9.66077,0,0,0,0,0,0,0,-1,1896,1471,18.9784,-9.66081
679,-447,14.844,7.4248,0,0,0,0,0,0,0,-1,1903,1471,14.844,-7.42477
686,-447,9.81079,4.30859,0,0,0,0,0,0,0,-1,1910,1471,9.8108,-4.30864
693,-447,10.48,2.08643,0,0,0,0,0,0,0,-1,1917,1471,10.48,-2.08642
700,-447,0,0,0,0,0,0,0,0,0,-1,1924,1471,0,0
707,-447,0,0,0,0,0,0,0,0,0,-1,1931,1471,0,0
714,-447,0,0,0,0,0,0,0,0,0,-1,1938,1471,0,0
721,-447,0,0,0,0,0,0,0,0,0,-1,1945,1471,0,0
728,-447,0,0,0,0,0,0,0,0,0,-1,1952,1471,0,0
735,-447,0,0,0,0,0,0,0,0,0,-1,1959,1471,0,0
742,-447,0,0,0,0,0,0,0,0,0,-1,1966,1471,0,0
749,-447,0,0,0,0,0,0,0,0,0,-1,1973,1471,0,0
756,-447,0,0,0,0,0,0,0,0,0,-1,1980,1471,0,0
763,-447,0,0,0,0,0,0,0,0,0,-1,1987,1471,0,0
770,-447,0,0,0,0,0,0,0,0,0,-1,1994,1471,0,0
777,-447,0,0,0,0,0,0,0,0,0,-1,2001,1471,0,0
784,-447,0,0,0,0,0,0,0,0,0,-1,2008,1471,0,0
791,-447,0,0,0,0,0,0,0,0,0,-1,2015,1471,0,0
798,-447,0,0,0,0,0,0,0,0,0,-1,2022,1471,0,0
805,-447,0,0,0,0,0,0,0,0,0,-1,2029,1471,0,0
812,-447,0,0,0,0,0,0,0,0,0,-1,2036,1471,0,0
-700,-454,0,0,0,0,0,0,0,0,0,-1,524,1478,0,0
-693,-454,0,0,0,0,0,0,0,0,0,-1,531,1478,0,0
-686,-454,0,0,0,0,0,0,0,0,0,-1,538,1478,0,0
-679,-454,0,0,0,0,0,0,0,0,0,-1,545,1478,0,0
-672,-454,0,0,0,0,0,0,0,0,0,-1,552,1478,0,0
-665,-454,0,0,0,0,0,0,0,0,0,-1,559,1478,0,0
-658,-454,0,0,0,0,0,0,0,0,0,-1,566,1478,0,0
-651,-454,0,0,0,0,0,0,0,0,0,-1,573,1478,0,0
-644,-454,0,0,0,0,0,0,0,0,0,-1,580,1478,0,0
-637,-454,0,0,0,0,0,0,0,0,0,-1,587,1478,0,0
-630,-454,0,0,0,0,0,0,0,0,0,-1,594,1478,0,0
-623,-454,0,0,0,0,0,0,0,0,0,-1,601,1478,0,0
-616,-454,0,0,0,0,0,0,0,0,0,-1,608,1478,0,0
-609,-454,0,0,0,0,0,0,0,0,0,-1,615,1478,0,0
-602,-454,0,0,0,0,0,0,0,0,0,-1,622,1478,0,0
-595,-454,0,0,0,0,0,0,0,0,0,-1,629,1478,0,0
-588,-454,0,0,0,0,0,0,0,0,0,-1,636,1478,0,0
-581,-454,0,0,0,0,0,0,0,0,0,-1,643,1478,0,0
-574,-454,-8.4881,-0.465942,0,0,0,0,0,0,0,-1,650,1478,-8.4881,0.465885
-567,-454,-8.10046,0.922974,0,0,0,0,0,0,0,-1,657,1478,-8.10047,-0.923034
-560,-454,-10.656,3.51172,0,0,0,0,0,0,0,-1,664,1478,-10.656,-3.51176
-553,-454,-9.01129,3.95251,0,0,0,0,0,0,0,-1,671,1478,-9.0113,-3.95256
-546,-454,-9.61896,6.05237,0,0,0,0,0,0,0,-1,678,1478,-9.61897,-6.05239
-539,-454,-7.72589,4.96533,0,0,0,0,0,0,0,-1,685,1478,-7.72592,-4.96532
-532,-454,-7.03931,7.59985,0,0,0,0,0,0,0,-1,692,1478,-7.03929,-7.59981
-525,-454,-5.78723,9.677,0,0,0,0,0,0,0,-1,699,1478,-5.78722,-9.67703
-518,-454,-9.82098,13.8295,0,0,0,0,0,0,0,-1,706,1478,-9.82098,-13.8295
-511,-454,-62.2346,66.7349,0,0,0,0,0,0,0,-1,713,1478,-62.2346,-66.7349
-504,-454,-62.614,69.4054,0.00085752,0.00216572,-0.000345734,0.00225147,0.00077177,-1.32768,0.00132113,0.0380454,720,1478,-62.614,-69.4054
-497,-454,-63.1443,71.8611,0.00142791,0.00175831,0.000184073,0.00184045,0.00134578,1.15111,0.0010998,0.0229475,727,1478,-63.1443,-71.8611
-490,-454,-63.4781,74.2852,0.00169699,0.00136694,0.000597153,0.0021515,0.000912432,0.650588,0.00124693,0.0230511,734,1478,-63.4782,-74.2852
-483,-454,-63.8604,76.7498,0.00184595,0.000900965,0.000905872,0.00239515,0.000351766,0.545013,0.00149338,0.0217143,741,1478,-63.8604,-76.7497
-476,-454,-64.3514,79.1171,0.00194267,0.000508847,0.00117321,0.00260067,-0.000149158,0.51114,0.00178558,0.0188755,748,1478,-64.3514,-79.117
-469,-454,-64.7633,81.5549,0.00197534,0.000120659,0.00138713,0.00271656,-0.000620564,0.490753,0.00204946,0.0156638,755,1478,-64.7633,-81.5549
-462,-454,-65.1823,84.0647,0.0020226,-0.000248041,0.00157407,0.00282807,-0.00105351,0.472971,0.00231778,0.0159021,762,1478,-65.1823,-84.0648
-455,-454,-65.6318,86.4757,0.00217816,-0.000554658,0.00177716,0.00305348,-0.00142998,0.457662,0.00264449,0.0176749,769,1478,-65.6318,-86.4756
-448,-454,-66.1232,88.8485,0,0,0,0,0,0,0,-1,776,1478,-66.1233,-88.8484
-441,-454,-59.8186,85.6444,0,0,0,0,0,0,0,-1,783,1478,-59.8186,-85.6444
-434,-454,-7.55743,19.4857,0,0,0,0,0,0,0,-1,790,1478,-7.55746,-19.4858
-427,-454,-6.00183,15.8636,0,0,0,0,0,0,0,-1,797,1478,-6.00184,-15.8637
-420,-454,-6.28088,15.2135,0,0,0,0,0,0,0,-1,804,1478,-6.28087,-15.2135
-413,-454,-5.4408,13.674,0,0,0,0,0,0,0,-1,811,1478,-5.44079,-13.6739
-406,-454,-2.38208,10.0308,0,0,0,0,0,0,0,-1,818,1478,-2.38209,-10.0308
-399,-454,-1.21033,6.95447,0,0,0,0,0,0,0,-1,825,1478,-1.21035,-6.95452
-392,-454,0.0967407,0.985474,0,0,0,0,0,0,0,-1,832,1478,0.0967364,-0.985529
-385,-454,2.38629,3.297,0,0,0,0,0,0,0,-1,839,1478,2.38629,-3.29702
-378,-454,-15.9756,2.83997,0,0,0,0,0,0,0,-1,846,1478,-15.9756,-2.83994
-371,-454,-17.2753,2.01453,0,0,0,0,0,0,0,-1,853,1478,-17.2753,-2.01455
-364,-454,1.08124,0.819458,0,0,0,0,0,0,0,-1,860,1478,1.08124,-0.819513
-357,-454,0,0,0,0,0,0,0,0,0,-1,867,1478,0,0
-350,-454,0,0,0,0,0,0,0,0,0,-1,874,1478,0,0
-343,-454,0,0,0,0,0,0,0,0,0,-1,881,1478,0,0
-336,-454,0,0,0,0,0,0,0,0,0,-1,888,1478,0,0
-329,-454,0,0,0,0,0,0,0,0,0,-1,895,1478,0,0
-322,-454,0,0,0,0,0,0,0,0,0,-1,902,1478,0,0
-315,-454,0,0,0,0,0,0,0,0,0,-1,909,1478,0,0
-308,-454,0,0,0,0,0,0,0,0,0,-1,916,1478,0,0
-301,-454,0,0,0,0,0,0,0,0,0,-1,923,1478,0,0
-294,-454,0,0,0,0,0,0,0,0,0,-1,930,1478,0,0
-287,-454,0,0,0,0,0,0,0,0,0,-1,937,1478,0,0
-280,-454,0,0,0,0,0,0,0,0,0,-1,944,1478,0,0
-273,-454,0,0,0,0,0,0,0,0,0,-1,951,1478,0,0
-266,-454,0,0,0,0,0,0,0,0,0,-1,958,1478,0,0
-259,-454,0,0,0,0,0,0,0,0,0,-1,965,1478,0,0
-252,-454,0,0,0,0,0,0,0,0,0,-1,972,1478,0,0
-245,-454,0,0,0,0,0,0,0,0,0,-1,979,1478,0,0
-238,-454,0,0,0,0,0,0,0,0,0,-1,986,1478,0,0
-231,-454,0,0,0,0,0,0,0,0,0,-1,993,1478,0,0
-224,-454,0,0,0,0,0,0,0,0,0,-1,1000,1478,0,0
-217,-454,0,0,0,0,0,0,0,0,0,-1,1007,1478,0,0
-210,-454,0,0,0,0,0,0,0,0,0,-1,1014,1478,0,0
-203,-454,0,0,0,0,0,0,0,0,0,-1,1021,1478,0,0
-196,-454,0,0,0,0,0,0,0,0,0,-1,1028,1478,0,0
-189,-454,0,0,0,0,0,0,0,0,0,-1,1035,1478,0,0
-182,-454,0,0,0,0,0,0,0,0,0,-1,1042,1478,0,0
-175,-454,0,0,0,0,0,0,0,0,0,-1,1049,1478,0,0
-168,-454,0,0,0,0,0,0,0,0,0,-1,1056,1478,0,0
-161,-454,0,0,0,0,0,0,0,0,0,-1,1063,1478,0,0
-154,-454,0,0,0,0,0,0,0,0,0,-1,1070,1478,0,0
-147,-454,0,0,0,0,0,0,0,0,0,-1,1077,1478,0,0
-140,-454,0,0,0,0,0,0,0,0,0,-1,1084,1478,0,0
-133,-454,0,0,0,0,0,0,0,0,0,-1,1091,1478,0,0
-126,-454,0,0,0,0,0,0,0,0,0,-1,1098,1478,0,0
-119,-454,0,0,0,0,0,0,0,0,0,-1,1105,1478,0,0
-112,-454,0,0,0,0,0,0,0,0,0,-1,1112,1478,0,0
-105,-454,0,0,0,0,0,0,0,0,0,-1,1119,1478,0,0
-98,-454,0,0,0,0,0,0,0,0,0,-1,1126,1478,0,0
-91,-454,0,0,0,0,0,0,0,0,0,-1,1133,1478,0,0
-84,-454,0,0,0,0,0,0,0,0,0,-1,1140,1478,0,0
-77,-454,0,0,0,0,0,0,0,0,0,-1,1147,1478,0,0
-70,-454,0,0,0,0,0,0,0,0,0,-1,1154,1478,0,0
-63,-454,0,0,0,0,0,0,0,0,0,-1,1161,1478,0,0
-56,-454,0,0,0,0,0,0,0,0,0,-1,1168,1478,0,0
-49,-454,0,0,0,0,0,0,0,0,0,-1,1175,1478,0,0
-42,-454,0,0,0,0,0,0,0,0,0,-1,1182,1478,0,0
-35,-454,0,0,0,0,0,0,0,0,0,-1,1189,1478,0,0
-28,-454,0,0,0,0,0,0,0,0,0,-1,1196,1478,0,0
-21,-454,0,0,0,0,0,0,0,0,0,-1,1203,1478,0,0
-14,-454,0,0,0,0,0,0,0,0,0,-1,1210,1478,0,0
-7,-454,0,0,0,0,0,0,0,0,0,-1,1217,1478,0,0
0,-454,0,0,0,0,0,0,0,0,0,-1,1224,1478,0,0
7,-454,0,0,0,0,0,0,0,0,0,-1,1231,1478,0,0
14,-454,0,0,0,0,0,0,0,0,0,-1,1238,1478,0,0
21,-454,0,0,0,0,0,0,0,0,0,-1,1245,1478,0,0
28,-454,0,0,0,0,0,0,0,0,0,-1,1252,1478,0,0
35,-454,0,0,0,0,0,0,0,0,0,-1,1259,1478,0,0
42,-454,0,0,0,0,0,0,0,0,0,-1,1266,1478,0,0
49,-454,0,0,0,0,0,0,0,0,0,-1,1273,1478,0,0
56,-454,0,0,0,0,0,0,0,0,0,-1,1280,1478,0,0
63,-454,0,0,0,0,0,0,0,0,0,-1,1287,1478,0,0
70,-454,0,0,0,0,0,0,0,0,0,-1,1294,1478,0,0
77,-454,0,0,0,0,0,0,0,0,0,-1,1301,1478,0,0
84,-454,0,0,0,0,0,0,0,0,0,-1,1308,1478,0,0
91,-454,0,0,0,0,0,0,0,0,0,-1,1315,1478,0,0
98,-454,0,0,0,0,0,0,0,0,0,-1,1322,1478,0,0
105,-454,0,0,0,0,0,0,0,0,0,-1,1329,1478,0,0
112,-454,0,0,0,0,0,0,0,0,0,-1,1336,1478,0,0
119,-454,0,0,0,0,0,0,0,0,0,-1,1343,1478,0,0
126,-454,0,0,0,0,0,0,0,0,0,-1,1350,1478,0,0
133,-454,0,0,0,0,0,0,0,0,0,-1,1357,1478,0,0
140,-454,0,0,0,0,0,0,0,0,0,-1,1364,1478,0,0
147,-454,0,0,0,0,0,0,0,0,0,-1,1371,1478,0,0
154,-454,0,0,0,0,0,0,0,0,0,-1,1378,1478,0,0
161,-454,0,0,0,0,0,0,0,0,0,-1,1385,1478,0,0
168,-454,0,0,0,0,0,0,0,0,0,-1,1392,1478,0,0
175,-454,0,0,0,0,0,0,0,0,0,-1,1399,1478,0,0
182,-454,0,0,0,0,0,0,0,0,0,-1,1406,1478,0,0
189,-454,0,0,0,0,0,0,0,0,0,-1,1413,1478,0,0
196,-454,0,0,0,0,0,0,0,0,0,-1,1420,1478,0,0
203,-454,0,0,0,0,0,0,0,0,0,-1,1427,1478,0,0
210,-454,0,0,0,0,0,0,0,0,0,-1,1434,1478,0,0
217,-454,0,0,0,0,0,0,0,0,0,-1,1441,1478,0,0
224,-454,0,0,0,0,0,0,0,0,0,-1,1448,1478,0,0
231,-454,0,0,0,0,0,0,0,0,0,-1,1455,1478,0,0
238,-454,0,0,0,0,0,0,0,0,0,-1,1462,1478,0,0
245,-454,0,0,0,0,0,0,0,0,0,-1,1469,1478,0,0
252,-454,0,0,0,0,0,0,0,0,0,-1,1476,1478,0,0
259,-454,0,0,0,0,0,0,0,0,0,-1,1483,1478,0,0
266,-454,0,0,0,0,0,0,0,0,0,-1,1490,1478,0,0
273,-454,0,0,0,0,0,0,0,0,0,-1,1497,1478,0,0
280,-454,0,0,0,0,0,0,0,0,0,-1,1504,1478,0,0
287,-454,0,0,0,0,0,0,0,0,0,-1,1511,1478,0,0
294,-454,0,0,0,0,0,0,0,0,0,-1,1518,1478,0,0
301,-454,0,0,0,0,0,0,0,0,0,-1,1525,1478,0,0
308,-454,0,0,0,0,0,0,0,0,0,-1,1532,1478,0,0
315,-454,0,0,0,0,0,0,0,0,0,-1,1539,1478,0,0
322,-454,0,0,0,0,0,0,0,0,0,-1,1546,1478,0,0
329,-454,0,0,0,0,0,0,0,0,0,-1,1553,1478,0,0
336,-454,0,0,0,0,0,0,0,0,0,-1,1560,1478,0,0
343,-454,0,0,0,0,0,0,0,0,0,-1,1567,1478,0,0
350,-454,0,0,0,0,0,0,0,0,0,-1,1574,1478,0,0
357,-454,0,0,0,0,0,0,0,0,0,-1,1581,1478,0,0
364,-454,0,0,0,0,0,0,0,0,0,-1,1588,1478,0,0
371,-454,0,0,0,0,0,0,0,0,0,-1,1595,1478,0,0
378,-454,0,0,0,0,0,0,0,0,0,-1,1602,1478,0,0
385,-454,0,0,0,0,0,0,0,0,0,-1,1609,1478,0,0
392,-454,0,0,0,0,0,0,0,0,0,-1,1616,1478,0,0
399,-454,0,0,0,0,0,0,0,0,0,-1,1623,1478,0,0
406,-454,0,0,0,0,0,0,0,0,0,-1,1630,1478,0,0
413,-454,0,0,0,0,0,0,0,0,0,-1,1637,1478,0,0
420,-454,0,0,0,0,0,0,0,0,0,-1,1644,1478,0,0
427,-454,0,0,0,0,0,0,0,0,0,-1,1651,1478,0,0
434,-454,0,0,0,0,0,0,0,0,0,-1,1658,1478,0,0
441,-454,0,0,0,0,0,0,0,0,0,-1,1665,1478,0,0
448,-454,0,0,0,0,0,0,0,0,0,-1,1672,1478,0,0
455,-454,0,0,0,0,0,0,0,0,0,-1,1679,1478,0,0
462,-454,0,0,0,0,0,0,0,0,0,-1,1686,1478,0,0
469,-454,0,0,0,0,0,0,0,0,0,-1,1693,1478,0,0
476,-454,0,0,0,0,0,0,0,0,0,-1,1700,1478,0,0
483,-454,14.2399,3.97498,0,0,0,0,0,0,0,-1,1707,1478,14.2399,-3.97502
490,-454,18.1821,-0.175781,0,0,0,0,0,0,0,-1,1714,1478,18.1821,0.175822
497,-454,16.8854,1.01208,0,0,0,0,0,0,0,-1,1721,1478,16.8854,-1.01209
504,-454,15.587,2.05994,0,0,0,0,0,0,0,-1,1728,1478,15.5871,-2.05998
511,-454,17.0273,14.5258,0,0,0,0,0,0,0,-1,1735,1478,17.0273,-14.5258
518,-454,16.4158,13.1039,0,0,0,0,0,0,0,-1,1742,1478,16.4157,-13.1038
525,-454,15.7842,11.6628,0,0,0,0,0,0,0,-1,1749,1478,15.7841,-11.6629
532,-454,15.1094,10.2476,0,0,0,0,0,0,0,-1,1756,1478,15.1094,-10.2475
539,-454,13.7905,10.9373,0,0,0,0,0,0,0,-1,1763,1478,13.7906,-10.9372
546,-454,16.2002,13.2458,0,0,0,0,0,0,0,-1,1770,1478,16.2002,-13.2459
553,-454,15.6747,12.1868,0,0,0,0,0,0,0,-1,1777,1478,15.6747,-12.1868
560,-454,16.3895,14.0527,0,0,0,0,0,0,0,-1,1784,1478,16.3895,-14.0528
567,-454,38.1984,36.0463,0,0,0,0,0,0,0,-1,1791,1478,38.1983,-36.0463
574,-454,47.4471,49.8385,0,0,0,0,0,0,0,-1,1798,1478,47.4471,-49.8385
581,-454,71.6993,89.6492,0,0,0,0,0,0,0,-1,1805,1478,71.6994,-89.6491
588,-454,71.2659,87.2379,0.00195176,0.00273239,-0.00169701,0.00408339,0.000600765,-0.898434,0.00254575,0.0254605,1812,1478,71.2659,-87.2379
595,-454,70.7948,84.8323,0.00155075,0.00216205,-0.00134568,0.00323636,0.000476443,-0.89707,0.0020176,0.0154479,1819,1478,70.7948,-84.8322
602,-454,70.3474,82.3947,0.0012859,0.00157367,-0.00100318,0.00244323,0.000416337,-0.856629,0.0015093,0.0128172,1826,1478,70.3474,-82.3947
609,-454,69.9454,79.953,0.00132325,0.00124596,-0.000882356,0.00216781,0.000401402,-0.763515,0.00133172,0.015404,1833,1478,69.9455,-79.953
616,-454,69.5291,77.5421,0.00142939,0.000924515,-0.00082422,0.00203897,0.000314942,-0.636796,0.00126744,0.0173184,1840,1478,69.529,-77.5421
623,-454,69.1582,75.1771,0.00160872,0.000721208,-0.000852071,0.00212566,0.000204264,-0.545325,0.00135417,0.0248826,1847,1478,69.1582,-75.1772
630,-454,68.7412,72.7423,0.00176802,0.000606206,-0.000918753,0.00227411,0.000100117,-0.503491,0.00148382,0.0268397,1854,1478,68.7412,-72.7423
637,-454,68.2006,70.3389,0.00195011,0.000566592,-0.0010686,0.00253131,-1.46122e-05,-0.498143,0.00169243,0.0218794,1861,1478,68.2005,-70.3389
644,-454,67.8865,67.8927,0,0,0,0,0,0,0,-1,1868,1478,67.8864,-67.8927
651,-454,54.428,47.5275,0,0,0,0,0,0,0,-1,1875,1478,54.428,-47.5275
658,-454,17.2583,10.0765,0,0,0,0,0,0,0,-1,1882,1478,17.2583,-10.0765
665,-454,17.683,9.67566,0,0,0,0,0,0,0,-1,1889,1478,17.683,-9.67572
672,-454,16.5476,6.41931,0,0,0,0,0,0,0,-1,1896,1478,16.5476,-6.41929
679,-454,14.2161,5.45007,0,0,0,0,0,0,0,-1,1903,1478,14.2161,-5.45013
686,-454,10.3767,2.12842,0,0,0,0,0,0,0,-1,1910,1478,10.3767,-2.12839
693,-454,11.1857,1.48486,0,0,0,0,0,0,0,-1,1917,1478,11.1857,-1.48487
700,-454,0,0,0,0,0,0,0,0,0,-1,1924,1478,0,0
707,-454,0,0,0,0,0,0,0,0,0,-1,1931,1478,0,0
714,-454,0,0,0,0,0,0,0,0,0,-1,1938,1478,0,0
721,-454,0,0,0,0,0,0,0,0,0,-1,1945,1478,0,0
728,-454,0,0,0,0,0,0,0,0,0,-1,1952,1478,0,0
735,-454,0,0,0,0,0,0,0,0,0,-1,1959,1478,0,0
742,-454,0,0,0,0,0,0,0,0,0,-1,1966,1478,0,0
749,-454,0,0,0,0,0,0,0,0,0,-1,1973,1478,0,0
756,-454,0,0,0,0,0,0,0,0,0,-1,1980,1478,0,0
763,-454,0,0,0,0,0,0,0,0,0,-1,1987,1478,0,0
770,-454,0,0,0,0,0,0,0,0,0,-1,1994,1478,0,0
777,-454,0,0,0,0,0,0,0,0,0,-1,2001,1478,0,0
784,-454,0,0,0,0,0,0,0,0,0,-1,2008,1478,0,0
791,-454,0,0,0,0,0,0,0,0,0,-1,2015,1478,0,0
798,-454,0,0,0,0,0,0,0,0,0,-1,2022,1478,0,0
805,-454,0,0,0,0,0,0,0,0,0,-1,2029,1478,0,0
812,-454,0,0,0,0,0,0,0,0,0,-1,2036,1478,0,0
-700,-461,0,0,0,0,0,0,0,0,0,-1,524,1485,0,0
-693,-461,0,0,0,0,0,0,0,0,0,-1,531,1485,0,0
-686,-461,0,0,0,0,0,0,0,0,0,-1,538,1485,0,0
-679,-461,0,0,0,0,0,0,0,0,0,-1,545,1485,0,0
-672,-461,0,0,0,0,0,0,0,0,0,-1,552,1485,0,0
-665,-461,0,0,0,0,0,0,0,0,0,-1,559,1485,0,0
-658,-461,0,0,0,0,0,0,0,0,0,-1,566,1485,0,0
-651,-461,0,0,0,0,0,0,0,0,0,-1,573,1485,0,0
-644,-461,0,0,0,0,0,0,0,0,0,-1,580,1485,0,0
-637,-461,0,0,0,0,0,0,0,0,0,-1,587,1485,0,0
-630,-461,0,0,0,0,0,0,0,0,0,-1,594,1485,0,0
-623,-461,0,0,0,0,0,0,0,0,0,-1,601,1485,0,0
-616,-461,0,0,0,0,0,0,0,0,0,-1,608,1485,0,0
-609,-461,0,0,0,0,0,0,0,0,0,-1,615,1485,0,0
-602,-461,0,0,0,0,0,0,0,0,0,-1,622,1485,0,0
-595,-461,0,0,0,0,0,0,0,0,0,-1,629,1485,0,0
-588,-461,0,0,0,0,0,0,0,0,0,-1,636,1485,0,0
-581,-461,0,0,0,0,0,0,0,0,0,-1,643,1485,0,0
-574,-461,0,0,0,0,0,0,0,0,0,-1,650,1485,0,0
-567,-461,-9.69031,0.513306,0,0,0,0,0,0,0,-1,657,1485,-9.69032,-0.513305
-560,-461,-7.28815,1.54004,0,0,0,0,0,0,0,-1,664,1485,-7.28817,-1.54005
-553,-461,-11.9607,5.27783,0,0,0,0,0,0,0,-1,671,1485,-11.9607,-5.27778
-546,-461,-11.4215,4.44666,0,0,0,0,0,0,0,-1,678,1485,-11.4215,-4.4467
-539,-461,-9.36493,5.23438,0,0,0,0,0,0,0,-1,685,1485,-9.3649,-5.23432
-532,-461,-7.82898,6.78357,0,0,0,0,0,0,0,-1,692,1485,-7.829,-6.78363
-525,-461,-6.37878,8.75659,0,0,0,0,0,0,0,-1,699,1485,-6.3788,-8.75659
-518,-461,-6.49695,10.886,0,0,0,0,0,0,0,-1,706,1485,-6.49696,-10.8859
-511,-461,-15.8618,21.5214,0,0,0,0,0,0,0,-1,713,1485,-15.8617,-21.5213
-504,-461,-60.1906,69.7078,0,0,0,0,0,0,0,-1,720,1485,-60.1906,-69.7078
-497,-461,-60.631,72.2986,0.00110165,0.00273475,0.000462556,0.00285667,0.00097974,1.31309,0.00167619,0.0155111,727,1485,-60.631,-72.2986
-490,-461,-61.0167,74.7831,0.00157501,0.00211646,0.000737337,0.0026312,0.00106027,0.961341,0.00152863,0.0184531,734,1485,-61.0167,-74.7831
-483,-461,-61.4355,77.2472,0.00184733,0.00145789,0.000892723,0.00256632,0.000738901,0.67802,0.00152545,0.0176663,741,1485,-61.4356,-77.2472
-476,-461,-61.9146,79.6058,0.00206241,0.000818116,0.0010204,0.00263537,0.000245154,0.511635,0.00168116,0.0152401,748,1485,-61.9146,-79.6058
-469,-461,-62.2861,82.0166,0.00221193,0.00023051,0.00113391,0.00272696,-0.000284518,0.426347,0.00191986,0.018248,755,1485,-62.286,-82.0165
-462,-461,-62.6624,84.5422,0.00236858,-0.000312108,0.00123957,0.0028539,-0.000797433,0.37318,0.00221675,0.0276691,762,1485,-62.6624,-84.5423
-455,-461,-63.1723,86.9713,0.00260093,-0.00079555,0.00136365,0.00308066,-0.00127528,0.338278,0.00258591,0.0341888,769,1485,-63.1723,-86.9713
-448,-461,-63.5795,89.4391,0.00284571,-0.00117338,0.00153956,0.00336767,-0.00169534,0.32687,0.00297581,0.0362644,776,1485,-63.5795,-89.439
-441,-461,-63.9491,91.7487,0,0,0,0,0,0,0,-1,783,1485,-63.9491,-91.7486
-434,-461,-26.355,48.8398,0,0,0,0,0,0,0,-1,790,1485,-26.355,-48.8398
-427,-461,-8.26154,21.546,0,0,0,0,0,0,0,-1,797,1485,-8.26153,-21.5461
-420,-461,-5.70355,16.6116,0,0,0,0,0,0,0,-1,804,1485,-5.70353,-16.6115
-413,-461,-5.98798,16.0605,0,0,0,0,0,0,0,-1,811,1485,-5.98796,-16.0605
-406,-461,-5.52667,14.839,0,0,0,0,0,0,0,-1,818,1485,-5.52666,-14.839
-399,-461,-1.93439,9.82849,0,0,0,0,0,0,0,-1,825,1485,-1.9344,-9.82846
-392,-461,-0.357544,5.55225,0,0,0,0,0,0,0,-1,832,1485,-0.357536,-5.55228
-385,-461,1.71509,3.35254,0,0,0,0,0,0,0,-1,839,1485,1.71511,-3.35255
-378,-461,1.95996,3.01111,0,0,0,0,0,0,0,-1,846,1485,1.95993,-3.01111
-371,-461,0.702881,2.33459,0,0,0,0,0,0,0,-1,853,1485,0.702859,-2.33459
-364,-461,-1.93097,2.56458,0,0,0,0,0,0,0,-1,860,1485,-1.93095,-2.56456
-357,-461,-2.41516,3.49487,0,0,0,0,0,0,0,-1,867,1485,-2.41517,-3.49487
-350,-461,0,0,0,0,0,0,0,0,0,-1,874,1485,0,0
-343,-461,0,0,0,0,0,0,0,0,0,-1,881,1485,0,0
-336,-461,0,0,0,0,0,0,0,0,0,-1,888,1485,0,0
-329,-461,0,0,0,0,0,0,0,0,0,-1,895,1485,0,0
-322,-461,0,0,0,0,0,0,0,0,0,-1,902,1485,0,0
-315,-461,0,0,0,0,0,0,0,0,0,-1,909,1485,0,0
-308,-461,0,0,0,0,0,0,0,0,0,-1,916,1485,0,0
-301,-461,0,0,0,0,0,0,0,0,0,-1,923,1485,0,0
-294,-461,0,0,0,0,0,0,0,0,0,-1,930,1485,0,0
-287,-461,0,0,0,0,0,0,0,0,0,-1,937,1485,0,0
-280,-461,0,0,0,0,0,0,0,0,0,-1,944,1485,0,0
-273,-461,0,0,0,0,0,0,0,0,0,-1,951,1485,0,0
-266,-461,0,0,0,0,0,0,0,0,0,-1,958,1485,0,0
-259,-461,0,0,0,0,0,0,0,0,0,-1,965,1485,0,0
-252,-461,0,0,0,0,0,0,0,0,0,-1,972,1485,0,0
-245,-461,0,0,0,0,0,0,0,0,0,-1,979,1485,0,0
-238,-461,0,0,0,0,0,0,0,0,0,-1,986,1485,0,0
-231,-461,0,0,0,0,0,0,0,0,0,-1,993,1485,0,0
-224,-461,0,0,0,0,0,0,0,0,0,-1,1000,1485,0,0
-217,-461,0,0,0,0,0,0,0,0,0,-1,1007,1485,0,0
-210,-461,0,0,0,0,0,0,0,0,0,-1,1014,1485,0,0
-203,-461,0,0,0,0,0,0,0,0,0,-1,1021,1485,0,0
-196,-461,0,0,0,0,0,0,0,0,0,-1,1028,1485,0,0
-189,-461,0,0,0,0,0,0,0,0,0,-1,1035,1485,0,0
-182,-461,0,0,0,0,0,0,0,0,0,-1,1042,1485,0,0
-175,-461,0,0,0,0,0,0,0,0,0,-1,1049,1485,0,0
-168,-461,0,0,0,0,0,0,0,0,0,-1,1056,1485,0,0
-161,-461,0,0,0,0,0,0,0,0,0,-1,1063,1485,0,0
-154,-461,0,0,0,0,0,0,0,0,0,-1,1070,1485,0,0
-147,-461,0,0,0,0,0,0,0,0,0,-1,1077,1485,0,0
-140,-461,0,0,0,0,0,0,0,0,0,-1,1084,1485,0,0
-133,-461,0,0,0,0,0,0,0,0,0,-1,1091,1485,0,0
-126,-461,0,0,0,0,0,0,0,0,0,-1,1098,1485,0,0
-119,-461,0,0,0,0,0,0,0,0,0,-1,1105,1485,0,0
-112,-461,0,0,0,0,0,0,0,0,0,-1,1112,1485,0,0
-105,-461,0,0,0,0,0,0,0,0,0,-1,1119,1485,0,0
-98,-461,0,0,0,0,0,0,0,0,0,-1,1126,1485,0,0
-91,-461,0,0,0,0,0,0,0,0,0,-1,1133,1485,0,0
-84,-461,0,0,0,0,0,0,0,0,0,-1,1140,1485,0,0
-77,-461,0,0,0,0,0,0,0,0,0,-1,1147,1485,0,0
-70,-461,0,0,0,0,0,0,0,0,0,-1,1154,1485,0,0
-63,-461,0,0,0,0,0,0,0,0,0,-1,1161,1485,0,0
-56,-461,0,0,0,0,0,0,0,0,0,-1,1168,1485,0,0
-49,-461,0,0,0,0,0,0,0,0,0,-1,1175,1485,0,0
-42,-461,0,0,0,0,0,0,0,0,0,-1,1182,1485,0,0
-35,-461,0,0,0,0,0,0,0,0,0,-1,1189,1485,0,0
-28,-461,0,0,0,0,0,0,0,0,0,-1,1196,1485,0,0
-21,-461,0,0,0,0,0,0,0,0,0,-1,1203,1485,0,0
-14,-461,0,0,0,0,0,0,0,0,0,-1,1210,1485,0,0
-7,-461,0,0,0,0,0,0,0,0,0,-1,1217,1485,0,0
0,-461,0,0,0,0,0,0,0,0,0,-1,1224,1485,0,0
7,-461,0,0,0,0,0,0,0,0,0,-1,1231,1485,0,0
14,-461,0,0,0,0,0,0,0,0,0,-1,1238,1485,0,0
21,-461,0,0,0,0,0,0,0,0,0,-1,1245,1485,0,0
28,-461,0,0,0,0,0,0,0,0,0,-1,1252,1485,0,0
35,-461,0,0,0,0,0,0,0,0,0,-1,1259,1485,0,0
42,-461,0,0,0,0,0,0,0,0,0,-1,1266,1485,0,0
49,-461,0,0,0,0,0,0,0,0,0,-1,1273,1485,0,0
56,-461,0,0,0,0,0,0,0,0,0,-1,1280,1485,0,0
63,-461,0,0,0,0,0,0,0,0,0,-1,1287,1485,0,0
70,-461,0,0,0,0,0,0,0,0,0,-1,1294,1485,0,0
77,-461,0,0,0,0,0,0,0,0,0,-1,1301,1485,0,0
84,-461,0,0,0,0,0,0,0,0,0,-1,1308,1485,0,0
91,-461,0,0,0,0,0,0,0,0,0,-1,1315,1485,0,0
98,-461,0,0,0,0,0,0,0,0,0,-1,1322,1485,0,0
105,-461,0,0,0,0,0,0,0,0,0,-1,1329,1485,0,0
112,-461,0,0,0,0,0,0,0,0,0,-1,1336,1485,0,0
119,-461,0,0,0,0,0,0,0,0,0,-1,1343,1485,0,0
126,-461,0,0,0,0,0,0,0,0,0,-1,1350,1485,0,0
133,-461,0,0,0,0,0,0,0,0,0,-1,1357,1485,0,0
140,-461,0,0,0,0,0,0,0,0,0,-1,1364,1485,0,0
147,-461,0,0,0,0,0,0,0,0,0,-1,1371,1485,0,0
154,-461,0,0,0,0,0,0,0,0,0,-1,1378,1485,0,0
161,-461,0,0,0,0,0,0,0,0,0,-1,1385,1485,0,0
168,-461,0,0,0,0,0,0,0,0,0,-1,1392,1485,0,0
175,-461,0,0,0,0,0,0,0,0,0,-1,1399,1485,0,0
182,-461,0,0,0,0,0,0,0,0,0,-1,1406,1485,0,0
189,-461,0,0,0,0,0,0,0,0,0,-1,1413,1485,0,0
196,-461,0,0,0,0,0,0,0,0,0,-1,1420,1485,0,0
203,-461,0,0,0,0,0,0,0,0,0,-1,1427,1485,0,0
210,-461,0,0,0,0,0,0,0,0,0,-1,1434,1485,0,0
217,-461,0,0,0,0,0,0,0,0,0,-1,1441,1485,0,0
224,-461,0,0,0,0,0,0,0,0,0,-1,1448,1485,0,0
231,-461,0,0,0,0,0,0,0,0,0,-1,1455,1485,0,0
238,-461,0,0,0,0,0,0,0,0,0,-1,1462,1485,0,0
245,-461,0,0,0,0,0,0,0,0,0,-1,1469,1485,0,0
252,-461,0,0,0,0,0,0,0,0,0,-1,1476,1485,0,0
259,-461,0,0,0,0,0,0,0,0,0,-1,1483,1485,0,0
266,-461,0,0,0,0,0,0,0,0,0,-1,1490,1485,0,0
273,-461,0,0,0,0,0,0,0,0,0,-1,1497,1485,0,0
280,-461,0,0,0,0,0,0,0,0,0,-1,1504,1485,0,0
287,-461,0,0,0,0,0,0,0,0,0,-1,1511,1485,0,0
294,-461,0,0,0,0,0,0,0,0,0,-1,1518,1485,0,0
301,-461,0,0,0,0,0,0,0,0,0,-1,1525,1485,0,0
308,-461,0,0,0,0,0,0,0,0,0,-1,1532,1485,0,0
315,-461,0,0,0,0,0,0,0,0,0,-1,1539,1485,0,0
322,-461,0,0,0,0,0,0,0,0,0,-1,1546,1485,0,0
329,-461,0,0,0,0,0,0,0,0,0,-1,1553,1485,0,0
336,-461,0,0,0,0,0,0,0,0,0,-1,1560,1485,0,0
343,-461,0,0,0,0,0,0,0,0,0,-1,1567,1485,0,0
350,-461,0,0,0,0,0,0,0,0,0,-1,1574,1485,0,0
357,-461,0,0,0,0,0,0,0,0,0,-1,1581,1485,0,0
364,-461,0,0,0,0,0,0,0,0,0,-1,1588,1485,0,0
371,-461,0,0,0,0,0,0,0,0,0,-1,1595,1485,0,0
378,-461,0,0,0,0,0,0,0,0,0,-1,1602,1485,0,0
385,-461,0,0,0,0,0,0,0,0,0,-1,1609,1485,0,0
392,-461,0,0,0,0,0,0,0,0,0,-1,1616,1485,0,0
399,-461,0,0,0,0,0,0,0,0,0,-1,1623,1485,0,0
406,-461,0,0,0,0,0,0,0,0,0,-1,1630,1485,0,0
413,-461,0,0,0,0,0,0,0,0,0,-1,1637,1485,0,0
420,-461,0,0,0,0,0,0,0,0,0,-1,1644,1485,0,0
427,-461,0,0,0,0,0,0,0,0,0,-1,1651,1485,0,0
434,-461,0,0,0,0,0,0,0,0,0,-1,1658,1485,0,0
441,-461,0,0,0,0,0,0,0,0,0,-1,1665,1485,0,0
448,-461,0,0,0,0,0,0,0,0,0,-1,1672,1485,0,0
455,-461,0,0,0,0,0,0,0,0,0,-1,1679,1485,0,0
462,-461,0,0,0,0,0,0,0,0,0,-1,1686,1485,0,0
469,-461,0,0,0,0,0,0,0,0,0,-1,1693,1485,0,0
476,-461,14.1906,0.690552,0,0,0,0,0,0,0,-1,1700,1485,14.1906,-0.690525
483,-461,10.6361,3.09106,0,0,0,0,0,0,0,-1,1707,1485,10.6361,-3.091
490,-461,17.9972,0.665894,0,0,0,0,0,0,0,-1,1714,1485,17.9972,-0.665876
497,-461,16.6829,1.87732,0,0,0,0,0,0,0,-1,1721,1485,16.6828,-1.87736
504,-461,15.3884,3.09216,0,0,0,0,0,0,0,-1,1728,1485,15.3885,-3.09212
511,-461,15.4292,14.3512,0,0,0,0,0,0,0,-1,1735,1485,15.4292,-14.3512
518,-461,14.8081,10.0085,0,0,0,0,0,0,0,-1,1742,1485,14.8081,-10.0086
525,-461,14.0022,10.8033,0,0,0,0,0,0,0,-1,1749,1485,14.0022,-10.8033
532,-461,17.1704,14.077,0,0,0,0,0,0,0,-1,1756,1485,17.1704,-14.077
539,-461,17.0229,14.7386,0,0,0,0,0,0,0,-1,1763,1485,17.0229,-14.7387
546,-461,16.2106,14.1372,0,0,0,0,0,0,0,-1,1770,1485,16.2106,-14.1372
553,-461,25.9354,24.2889,0,0,0,0,0,0,0,-1,1777,1485,25.9354,-24.2889
560,-461,37.0342,37.0962,0,0,0,0,0,0,0,-1,1784,1485,37.0342,-37.0962
567,-461,46.5439,50.9802,0,0,0,0,0,0,0,-1,1791,1485,46.5439,-50.9803
574,-461,69.5665,92.5272,0,0,0,0,0,0,0,-1,1798,1485,69.5665,-92.5272
581,-461,69.248,90.111,0.00183292,0.00235134,-0.00150835,0.00362259,0.000561666,-0.870492,0.00225132,0.0305504,1805,1485,69.2481,-90.111
588,-461,68.8484,87.6843,0.00154514,0.00181683,-0.00104619,0.00273596,0.000626007,-0.849959,0.00165525,0.0145761,1812,1485,68.8484,-87.6844
595,-461,68.3962,85.2682,0.00140264,0.00142584,-0.000843994,0.00225832,0.000570169,-0.79227,0.00135605,0.0110433,1819,1485,68.3963,-85.2682
602,-461,67.952,82.8157,0.00130608,0.00104163,-0.0006948,0.00188113,0.000466587,-0.69137,0.0011311,0.0132956,1826,1485,67.952,-82.8157
609,-461,67.5265,80.3688,0.00147724,0.000932523,-0.00077935,0.00203046,0.000379313,-0.617296,0.00124659,0.0157357,1833,1485,67.5265,-80.3688
616,-461,67.0748,77.9561,0.00174519,0.000853226,-0.000948116,0.00234698,0.000251438,-0.565558,0.00148794,0.0164424,1840,1485,67.0748,-77.9561
623,-461,66.7524,75.6019,0.00204239,0.000894482,-0.00120769,0.00280558,0.0001313,-0.563572,0.00182819,0.0285974,1847,1485,66.7524,-75.602
630,-461,66.3346,73.239,0.00226416,0.00106872,-0.0015014,0.00328244,5.04396e-05,-0.59596,0.00217168,0.0308931,1854,1485,66.3346,-73.239
637,-461,65.8145,70.7155,0.00249952,0.00131803,-0.00193557,0.00393248,-0.000114931,-0.637285,0.00266079,0.0337316,1861,1485,65.8145,-70.7155
644,-461,65.4277,68.0634,0,0,0,0,0,0,0,-1,1868,1485,65.4278,-68.0633
651,-461,35.6685,23.4559,0,0,0,0,0,0,0,-1,1875,1485,35.6684,-23.456
658,-461,16.8987,10.1084,0,0,0,0,0,0,0,-1,1882,1485,16.8986,-10.1084
665,-461,17.2638,9.81384,0,0,0,0,0,0,0,-1,1889,1485,17.2638,-9.81385
672,-461,14.4877,6.89429,0,0,0,0,0,0,0,-1,1896,1485,14.4876,-6.89431
679,-461,10.0535,2.16321,0,0,0,0,0,0,0,-1,1903,1485,10.0535,-2.16317
686,-461,10.8195,1.84192,0,0,0,0,0,0,0,-1,1910,1485,10.8194,-1.84195
693,-461,0,0,0,0,0,0,0,0,0,-1,1917,1485,0,0
700,-461,0,0,0,0,0,0,0,0,0,-1,1924,1485,0,0
707,-461,0,0,0,0,0,0,0,0,0,-1,1931,1485,0,0
714,-461,0,0,0,0,0,0,0,0,0,-1,1938,1485,0,0
721,-461,0,0,0,0,0,0,0,0,0,-1,1945,1485,0,0
728,-461,0,0,0,0,0,0,0,0,0,-1,1952,1485,0,0
735,-461,0,0,0,0,0,0,0,0,0,-1,1959,1485,0,0
742,-461,0,0,0,0,0,0,0,0,0,-1,1966,1485,0,0
749,-461,0,0,0,0,0,0,0,0,0,-1,1973,1485,0,0
756,-461,0,0,0,0,0,0,0,0,0,-1,1980,1485,0,0
763,-461,0,0,0,0,0,0,0,0,0,-1,1987,1485,0,0
770,-461,0,0,0,0,0,0,0,0,0,-1,1994,1485,0,0
777,-461,0,0,0,0,0,0,0,0,0,-1,2001,1485,0,0
784,-461,0,0,0,0,0,0,0,0,0,-1,2008,1485,0,0
791,-461,0,0,0,0,0,0,0,0,0,-1,2015,1485,0,0
798,-461,0,0,0,0,0,0,0,0,0,-1,2022,1485,0,0
805,-461,0,0,0,0,0,0,0,0,0,-1,2029,1485,0,0
812,-461,0,0,0,0,0,0,0,0,0,-1,2036,1485,0,0
-700,-468,0,0,0,0,0,0,0,0,0,-1,524,1492,0,0
-693,-468,0,0,0,0,0,0,0,0,0,-1,531,1492,0,0
-686,-468,0,0,0,0,0,0,0,0,0,-1,538,1492,0,0
-679,-468,0,0,0,0,0,0,0,0,0,-1,545,1492,0,0
-672,-468,0,0,0,0,0,0,0,0,0,-1,552,1492,0,0
-665,-468,0,0,0,0,0,0,0,0,0,-1,559,1492,0,0
-658,-468,0,0,0,0,0,0,0,0,0,-1,566,1492,0,0
-651,-468,0,0,0,0,0,0,0,0,0,-1,573,1492,0,0
-644,-468,0,0,0,0,0,0,0,0,0,-1,580,1492,0,0
-637,-468,0,0,0,0,0,0,0,0,0,-1,587,1492,0,0
-630,-468,0,0,0,0,0,0,0,0,0,-1,594,1492,0,0
-623,-468,0,0,0,0,0,0,0,0,0,-1,601,1492,0,0
-616,-468,0,0,0,0,0,0,0,0,0,-1,608,1492,0,0
-609,-468,0,0,0,0,0,0,0,0,0,-1,615,1492,0,0
-602,-468,0,0,0,0,0,0,0,0,0,-1,622,1492,0,0
-595,-468,0,0,0,0,0,0,0,0,0,-1,629,1492,0,0
-588,-468,0,0,0,0,0,0,0,0,0,-1,636,1492,0,0
-581,-468,0,0,0,0,0,0,0,0,0,-1,643,1492,0,0
-574,-468,0,0,0,0,0,0,0,0,0,-1,650,1492,0,0
-567,-468,-11.2603,1.8042,0,0,0,0,0,0,0,-1,657,1492,-11.2603,-1.80424
-560,-468,-8.77441,2.23694,0,0,0,0,0,0,0,-1,664,1492,-8.77443,-2.23692
-553,-468,-5.94061,9.26318,0,0,0,0,0,0,0,-1,671,1492,-5.94062,-9.26322
-546,-468,-10.47,5.43237,0,0,0,0,0,0,0,-1,678,1492,-10.47,-5.4324
-539,-468,-10.2468,5.45203,0,0,0,0,0,0,0,-1,685,1492,-10.2468,-5.45197
-532,-468,-8.39795,6.02783,0,0,0,0,0,0,0,-1,692,1492,-8.39793,-6.02789
-525,-468,-6.59332,7.15405,0,0,0,0,0,0,0,-1,699,1492,-6.59331,-7.15411
-518,-468,-6.33588,8.65393,0,0,0,0,0,0,0,-1,706,1492,-6.33588,-8.65397
-511,-468,-8.05835,13.8282,0,0,0,0,0,0,0,-1,713,1492,-8.05835,-13.8283
-504,-468,-33.1901,45.7253,0,0,0,0,0,0,0,-1,720,1492,-33.1901,-45.7253
-497,-468,-58.2339,72.8153,0,0,0,0,0,0,0,-1,727,1492,-58.2339,-72.8153
-490,-468,-58.6135,75.229,0.00175582,0.00327375,0.00117546,0.00391398,0.0011156,1.07206,0.00232831,0.013365,734,1492,-58.6135,-75.229
-483,-468,-59.0128,77.6296,0.00183014,0.00233368,0.0011028,0.00321308,0.000950736,0.897624,0.0019059,0.0125104,741,1492,-59.0128,-77.6296
-476,-468,-59.4381,80.0697,0.001926,0.00138421,0.0010432,0.0027329,0.000577309,0.658366,0.00166324,0.0130691,748,1492,-59.4381,-80.0697
-469,-468,-59.8383,82.5427,0.00202425,0.000604121,0.00102845,0.00256394,6.44275e-05,0.483264,0.00168823,0.0174932,755,1492,-59.8383,-82.5427
-462,-468,-60.1704,85.0557,0.00217565,-7.5398e-05,0.0010457,0.00258645,-0.000486198,0.374325,0.00190714,0.0331221,762,1492,-60.1704,-85.0557
-455,-468,-60.6004,87.395,0.00242122,-0.00066444,0.00110154,0.0027741,-0.00101732,0.310022,0.00226596,0.0431409,769,1492,-60.6004,-87.395
-448,-468,-61.1497,89.8265,0.00278598,-0.0011749,0.0012172,0.00313013,-0.00151905,0.275547,0.0027374,0.0233345,776,1492,-61.1497,-89.8265
-441,-468,-61.5522,92.2445,0.00339592,-0.00160205,0.00140415,0.00376339,-0.00196952,0.255963,0.00336348,0.025923,783,1492,-61.5522,-92.2445
-434,-468,-61.8755,94.797,0,0,0,0,0,0,0,-1,790,1492,-61.8756,-94.797
-427,-468,-25.4199,50.1571,0,0,0,0,0,0,0,-1,797,1492,-25.4199,-50.1571
-420,-468,-7.57581,22.0538,0,0,0,0,0,0,0,-1,804,1492,-7.57582,-22.0538
-413,-468,-5.30328,17.3519,0,0,0,0,0,0,0,-1,811,1492,-5.30329,-17.352
-406,-468,-2.2356,9.396,0,0,0,0,0,0,0,-1,818,1492,-2.2356,-9.396
-399,-468,-0.940369,8.1936,0,0,0,0,0,0,0,-1,825,1492,-0.940365,-8.19357
-392,-468,-0.35144,8.14673,0,0,0,0,0,0,0,-1,832,1492,-0.351449,-8.14674
-385,-468,0.465759,5.35864,0,0,0,0,0,0,0,-1,839,1492,0.465732,-5.35864
-378,-468,1.99835,3.25391,0,0,0,0,0,0,0,-1,846,1492,1.99837,-3.2539
-371,-468,-0.31842,3.1532,0,0,0,0,0,0,0,-1,853,1492,-0.318441,-3.15324
-364,-468,-0.966736,2.14563,0,0,0,0,0,0,0,-1,860,1492,-0.966735,-2.14557
-357,-468,-3.06787,3.22742,0,0,0,0,0,0,0,-1,867,1492,-3.06784,-3.2274
-350,-468,-3.18658,4.12659,0,0,0,0,0,0,0,-1,874,1492,-3.18659,-4.12658
-343,-468,0,0,0,0,0,0,0,0,0,-1,881,1492,0,0
-336,-468,0,0,0,0,0,0,0,0,0,-1,888,1492,0,0
-329,-468,0,0,0,0,0,0,0,0,0,-1,895,1492,0,0
-322,-468,0,0,0,0,0,0,0,0,0,-1,902,1492,0,0
-315,-468,0,0,0,0,0,0,0,0,0,-1,909,1492,0,0
-308,-468,0,0,0,0,0,0,0,0,0,-1,916,1492,0,0
-301,-468,0,0,0,0,0,0,0,0,0,-1,923,1492,0,0
-294,-468,0,0,0,0,0,0,0,0,0,-1,930,1492,0,0
-287,-468,0,0,0,0,0,0,0,0,0,-1,937,1492,0,0
-280,-468,0,0,0,0,0,0,0,0,0,-1,944,1492,0,0
-273,-468,0,0,0,0,0,0,0,0,0,-1,951,1492,0,0
-266,-468,0,0,0,0,0,0,0,0,0,-1,958,1492,0,0
-259,-468,0,0,0,0,0,0,0,0,0,-1,965,1492,0,0
-252,-468,0,0,0,0,0,0,0,0,0,-1,972,1492,0,0
-245,-468,0,0,0,0,0,0,0,0,0,-1,979,1492,0,0
-238,-468,0,0,0,0,0,0,0,0,0,-1,986,1492,0,0
-231,-468,0,0,0,0,0,0,0,0,0,-1,993,1492,0,0
-224,-468,0,0,0,0,0,0,0,0,0,-1,1000,1492,0,0
-217,-468,0,0,0,0,0,0,0,0,0,-1,1007,1492,0,0
-210,-468,0,0,0,0,0,0,0,0,0,-1,1014,1492,0,0
-203,-468,0,0,0,0,0,0,0,0,0,-1,1021,1492,0,0
-196,-468,0,0,0,0,0,0,0,0,0,-1,1028,1492,0,0
-189,-468,0,0,0,0,0,0,0,0,0,-1,1035,1492,0,0
-182,-468,0,0,0,0,0,0,0,0,0,-1,1042,1492,0,0
-175,-468,0,0,0,0,0,0,0,0,0,-1,1049,1492,0,0
-168,-468,0,0,0,0,0,0,0,0,0,-1,1056,1492,0,0
-161,-468,0,0,0,0,0,0,0,0,0,-1,1063,1492,0,0
-154,-468,0,0,0,0,0,0,0,0,0,-1,1070,1492,0,0
-147,-468,0,0,0,0,0,0,0,0,0,-1,1077,1492,0,0
-140,-468,0,0,0,0,0,0,0,0,0,-1,1084,1492,0,0
-133,-468,0,0,0,0,0,0,0,0,0,-1,1091,1492,0,0
-126,-468,0,0,0,0,0,0,0,0,0,-1,1098,1492,0,0
-119,-468,0,0,0,0,0,0,0,0,0,-1,1105,1492,0,0
-112,-468,0,0,0,0,0,0,0,0,0,-1,1112,1492,0,0
-105,-468,0,0,0,0,0,0,0,0,0,-1,1119,1492,0,0
-98,-468,0,0,0,0,0,0,0,0,0,-1,1126,1492,0,0
-91,-468,0,0,0,0,0,0,0,0,0,-1,1133,1492,0,0
-84,-468,0,0,0,0,0,0,0,0,0,-1,1140,1492,0,0
-77,-468,0,0,0,0,0,0,0,0,0,-1,1147,1492,0,0
-70,-468,0,0,0,0,0,0,0,0,0,-1,1154,1492,0,0
-63,-468,0,0,0,0,0,0,0,0,0,-1,1161,1492,0,0
-56,-468,0,0,0,0,0,0,0,0,0,-1,1168,1492,0,0
-49,-468,0,0,0,0,0,0,0,0,0,-1,1175,1492,0,0
-42,-468,0,0,0,0,0,0,0,0,0,-1,1182,1492,0,0
-35,-468,0,0,0,0,0,0,0,0,0,-1,1189,1492,0,0
-28,-468,0,0,0,0,0,0,0,0,0,-1,1196,1492,0,0
-21,-468,0,0,0,0,0,0,0,0,0,-1,1203,1492,0,0
-14,-468,0,0,0,0,0,0,0,0,0,-1,1210,1492,0,0
-7,-468,0,0,0,0,0,0,0,0,0,-1,1217,1492,0,0
0,-468,0,0,0,0,0,0,0,0,0,-1,1224,1492,0,0
7,-468,0,0,0,0,0,0,0,0,0,-1,1231,1492,0,0
14,-468,0,0,0,0,0,0,0,0,0,-1,1238,1492,0,0
21,-468,0,0,0,0,0,0,0,0,0,-1,1245,1492,0,0
28,-468,0,0,0,0,0,0,0,0,0,-1,1252,1492,0,0
35,-468,0,0,0,0,0,0,0,0,0,-1,1259,1492,0,0
42,-468,0,0,0,0,0,0,0,0,0,-1,1266,1492,0,0
49,-468,0,0,0,0,0,0,0,0,0,-1,1273,1492,0,0
56,-468,0,0,0,0,0,0,0,0,0,-1,1280,1492,0,0
63,-468,0,0,0,0,0,0,0,0,0,-1,1287,1492,0,0
70,-468,0,0,0,0,0,0,0,0,0,-1,1294,1492,0,0
77,-468,0,0,0,0,0,0,0,0,0,-1,1301,1492,0,0
84,-468,0,0,0,0,0,0,0,0,0,-1,1308,1492,0,0
91,-468,0,0,0,0,0,0,0,0,0,-1,1315,1492,0,0
98,-468,0,0,0,0,0,0,0,0,0,-1,1322,1492,0,0
105,-468,0,0,0,0,0,0,0,0,0,-1,1329,1492,0,0
112,-468,0,0,0,0,0,0,0,0,0,-1,1336,1492,0,0
119,-468,0,0,0,0,0,0,0,0,0,-1,1343,1492,0,0
126,-468,0,0,0,0,0,0,0,0,0,-1,1350,1492,0,0
133,-468,0,0,0,0,0,0,0,0,0,-1,1357,1492,0,0
140,-468,0,0,0,0,0,0,0,0,0,-1,1364,1492,0,0
147,-468,0,0,0,0,0,0,0,0,0,-1,1371,1492,0,0
154,-468,0,0,0,0,0,0,0,0,0,-1,1378,1492,0,0
161,-468,0,0,0,0,0,0,0,0,0,-1,1385,1492,0,0
168,-468,0,0,0,0,0,0,0,0,0,-1,1392,1492,0,0
175,-468,0,0,0,0,0,0,0,0,0,-1,1399,1492,0,0
182,-468,0,0,0,0,0,0,0,0,0,-1,1406,1492,0,0
189,-468,0,0,0,0,0,0,0,0,0,-1,1413,1492,0,0
196,-468,0,0,0,0,0,0,0,0,0,-1,1420,1492,0,0
203,-468,0,0,0,0,0,0,0,0,0,-1,1427,1492,0,0
210,-468,0,0,0,0,0,0,0,0,0,-1,1434,1492,0,0
217,-468,0,0,0,0,0,0,0,0,0,-1,1441,1492,0,0
224,-468,0,0,0,0,0,0,0,0,0,-1,1448,1492,0,0
231,-468,0,0,0,0,0,0,0,0,0,-1,1455,1492,0,0
238,-468,0,0,0,0,0,0,0,0,0,-1,1462,1492,0,0
245,-468,0,0,0,0,0,0,0,0,0,-1,1469,1492,0,0
252,-468,0,0,0,0,0,0,0,0,0,-1,1476,1492,0,0
259,-468,0,0,0,0,0,0,0,0,0,-1,1483,1492,0,0
266,-468,0,0,0,0,0,0,0,0,0,-1,1490,1492,0,0
273,-468,0,0,0,0,0,0,0,0,0,-1,1497,1492,0,0
280,-468,0,0,0,0,0,0,0,0,0,-1,1504,1492,0,0
287,-468,0,0,0,0,0,0,0,0,0,-1,1511,1492,0,0
294,-468,0,0,0,0,0,0,0,0,0,-1,1518,1492,0,0
301,-468,0,0,0,0,0,0,0,0,0,-1,1525,1492,0,0
308,-468,0,0,0,0,0,0,0,0,0,-1,1532,1492,0,0
315,-468,0,0,0,0,0,0,0,0,0,-1,1539,1492,0,0
322,-468,0,0,0,0,0,0,0,0,0,-1,1546,1492,0,0
329,-468,0,0,0,0,0,0,0,0,0,-1,1553,1492,0,0
336,-468,0,0,0,0,0,0,0,0,0,-1,1560,1492,0,0
343,-468,0,0,0,0,0,0,0,0,0,-1,1567,1492,0,0
350,-468,0,0,0,0,0,0,0,0,0,-1,1574,1492,0,0
357,-468,0,0,0,0,0,0,0,0,0,-1,1581,1492,0,0
364,-468,0,0,0,0,0,0,0,0,0,-1,1588,1492,0,0
371,-468,0,0,0,0,0,0,0,0,0,-1,1595,1492,0,0
378,-468,0,0,0,0,0,0,0,0,0,-1,1602,1492,0,0
385,-468,0,0,0,0,0,0,0,0,0,-1,1609,1492,0,0
392,-468,0,0,0,0,0,0,0,0,0,-1,1616,1492,0,0
399,-468,0,0,0,0,0,0,0,0,0,-1,1623,1492,0,0
406,-468,0,0,0,0,0,0,0,0,0,-1,1630,1492,0,0
413,-468,0,0,0,0,0,0,0,0,0,-1,1637,1492,0,0
420,-468,0,0,0,0,0,0,0,0,0,-1,1644,1492,0,0
427,-468,0,0,0,0,0,0,0,0,0,-1,1651,1492,0,0
434,-468,0,0,0,0,0,0,0,0,0,-1,1658,1492,0,0
441,-468,0,0,0,0,0,0,0,0,0,-1,1665,1492,0,0
448,-468,0,0,0,0,0,0,0,0,0,-1,1672,1492,0,0
455,-468,0,0,0,0,0,0,0,0,0,-1,1679,1492,0,0
462,-468,0,0,0,0,0,0,0,0,0,-1,1686,1492,0,0
469,-468,15.6879,1.2677,0,0,0,0,0,0,0,-1,1693,1492,15.6879,-1.26772
476,-468,14.9318,1.61865,0,0,0,0,0,0,0,-1,1700,1492,14.9318,-1.61869
483,-468,11.265,4.64795,0,0,0,0,0,0,0,-1,1707,1492,11.265,-4.64798
490,-468,12.1316,3.51624,0,0,0,0,0,0,0,-1,1714,1492,12.1316,-3.51628
497,-468,16.5355,3.14587,0,0,0,0,0,0,0,-1,1721,1492,16.5356,-3.14583
504,-468,15.0642,4.10437,0,0,0,0,0,0,0,-1,1728,1492,15.0643,-4.10431
511,-468,15.6877,9.4801,0,0,0,0,0,0,0,-1,1735,1492,15.6878,-9.48007
518,-468,13.759,11.0887,0,0,0,0,0,0,0,-1,1742,1492,13.759,-11.0887
525,-468,16.6531,14.2238,0,0,0,0,0,0,0,-1,1749,1492,16.653,-14.2237
532,-468,16.9696,15.9641,0,0,0,0,0,0,0,-1,1756,1492,16.9696,-15.9641
539,-468,21.5308,20.7551,0,0,0,0,0,0,0,-1,1763,1492,21.5308,-20.7551
546,-468,25.5796,25.0283,0,0,0,0,0,0,0,-1,1770,1492,25.5796,-25.0284
553,-468,31.8678,31.5677,0,0,0,0,0,0,0,-1,1777,1492,31.8678,-31.5678
560,-468,44.905,52.734,0,0,0,0,0,0,0,-1,1784,1492,44.905,-52.7341
567,-468,67.7379,95.4642,0,0,0,0,0,0,0,-1,1791,1492,67.7379,-95.4642
574,-468,67.3287,92.97,0.00282141,0.00253247,-0.00194698,0.00462928,0.000724604,-0.748366,0.00287525,0.0221572,1798,1492,67.3287,-92.97
581,-468,66.882,90.5525,0.00208568,0.00185204,-0.0013231,0.0032971,0.000640616,-0.741364,0.0020187,0.0226453,1805,1492,66.8819,-90.5525
588,-468,66.4131,88.1449,0.00173586,0.00142411,-0.000940759,0.00253357,0.000626401,-0.7033,0.00152379,0.0167578,1812,1492,66.4131,-88.1449
595,-468,65.9856,85.7036,0.0016421,0.00113689,-0.000788042,0.00221704,0.00056196,-0.630298,0.00133086,0.013034,1819,1492,65.9856,-85.7036
602,-468,65.5442,83.2455,0.00161351,0.000902944,-0.000730229,0.0020703,0.000446156,-0.558988,0.00125813,0.0128574,1826,1492,65.5442,-83.2455
609,-468,65.0723,80.8123,0.00183595,0.000951932,-0.000927632,0.0024215,0.000366384,-0.563066,0.00150712,0.0143794,1833,1492,65.0723,-80.8122
616,-468,64.6385,78.3981,0.00220116,0.00107174,-0.00124004,0.00299902,0.000273878,-0.571733,0.00191459,0.0140128,1840,1492,64.6385,-78.398
623,-468,64.2634,75.9952,0.00256706,0.00129155,-0.0016381,0.00368717,0.000171438,-0.599762,0.00240301,0.0175134,1847,1492,64.2634,-75.9952
630,-468,63.8561,73.5837,0.00280623,0.0016892,-0.00205481,0.00437708,0.00011835,-0.6527,0.00287941,0.0218416,1854,1492,63.8561,-73.5837
637,-468,63.4379,71.1399,0,0,0,0,0,0,0,-1,1861,1492,63.4379,-71.1399
644,-468,46.2697,41.3138,0,0,0,0,0,0,0,-1,1868,1492,46.2696,-41.3138
651,-468,33.613,23.1599,0,0,0,0,0,0,0,-1,1875,1492,33.613,-23.1599
658,-468,16.4969,10.0774,0,0,0,0,0,0,0,-1,1882,1492,16.497,-10.0774
665,-468,15.4673,8.59546,0,0,0,0,0,0,0,-1,1889,1492,15.4672,-8.59548
672,-468,9.96814,3.61133,0,0,0,0,0,0,0,-1,1896,1492,9.96817,-3.61139
679,-468,11.2191,1.91968,0,0,0,0,0,0,0,-1,1903,1492,11.2191,-1.91965
686,-468,11.9252,1.42285,0,0,0,0,0,0,0,-1,1910,1492,11.9252,-1.42291
693,-468,0,0,0,0,0,0,0,0,0,-1,1917,1492,0,0
700,-468,0,0,0,0,0,0,0,0,0,-1,1924,1492,0,0
707,-468,0,0,0,0,0,0,0,0,0,-1,1931,1492,0,0
714,-468,0,0,0,0,0,0,0,0,0,-1,1938,1492,0,0
721,-468,0,0,0,0,0,0,0,0,0,-1,1945,1492,0,0
728,-468,0,0,0,0,0,0,0,0,0,-1,1952,1492,0,0
735,-468,0,0,0,0,0,0,0,0,0,-1,1959,1492,0,0
742,-468,0,0,0,0,0,0,0,0,0,-1,1966,1492,0,0
749,-468,0,0,0,0,0,0,0,0,0,-1,1973,1492,0,0
756,-468,0,0,0,0,0,0,0,0,0,-1,1980,1492,0,0
763,-468,0,0,0,0,0,0,0,0,0,-1,1987,1492,0,0
770,-468,0,0,0,0,0,0,0,0,0,-1,1994,1492,0,0
777,-468,0,0,0,0,0,0,0,0,0,-1,2001,1492,0,0
784,-468,0,0,0,0,0,0,0,0,0,-1,2008,1492,0,0
791,-468,0,0,0,0,0,0,0,0,0,-1,2015,1492,0,0
798,-468,0,0,0,0,0,0,0,0,0,-1,2022,1492,0,0
805,-468,0,0,0,0,0,0,0,0,0,-1,2029,1492,0,0
812,-468,0,0,0,0,0,0,0,0,0,-1,2036,1492,0,0
-700,-475,0,0,0,0,0,0,0,0,0,-1,524,1499,0,0
-693,-475,0,0,0,0,0,0,0,0,0,-1,531,1499,0,0
-686,-475,0,0,0,0,0,0,0,0,0,-1,538,1499,0,0
-679,-475,0,0,0,0,0,0,0,0,0,-1,545,1499,0,0
-672,-475,0,0,0,0,0,0,0,0,0,-1,552,1499,0,0
-665,-475,0,0,0,0,0,0,0,0,0,-1,559,1499,0,0
-658,-475,0,0,0,0,0,0,0,0,0,-1,566,1499,0,0
-651,-475,0,0,0,0,0,0,0,0,0,-1,573,1499,0,0
-644,-475,0,0,0,0,0,0,0,0,0,-1,580,1499,0,0
-637,-475,0,0,0,0,0,0,0,0,0,-1,587,1499,0,0
-630,-475,0,0,0,0,0,0,0,0,0,-1,594,1499,0,0
-623,-475,0,0,0,0,0,0,0,0,0,-1,601,1499,0,0
-616,-475,0,0,0,0,0,0,0,0,0,-1,608,1499,0,0
-609,-475,0,0,0,0,0,0,0,0,0,-1,615,1499,0,0
-602,-475,0,0,0,0,0,0,0,0,0,-1,622,1499,0,0
-595,-475,0,0,0,0,0,0,0,0,0,-1,629,1499,0,0
-588,-475,0,0,0,0,0,0,0,0,0,-1,636,1499,0,0
-581,-475,0,0,0,0,0,0,0,0,0,-1,643,1499,0,0
-574,-475,0,0,0,0,0,0,0,0,0,-1,650,1499,0,0
-567,-475,0,0,0,0,0,0,0,0,0,-1,657,1499,0,0
-560,-475,-9.42731,9.29517,0,0,0,0,0,0,0,-1,664,1499,-9.42731,-9.29519
-553,-475,-8.15131,8.78369,0,0,0,0,0,0,0,-1,671,1499,-8.15131,-8.78367
-546,-475,-8.41254,8.20654,0,0,0,0,0,0,0,-1,678,1499,-8.41251,-8.20655
-539,-475,-4.7345,4.17419,0,0,0,0,0,0,0,-1,685,1499,-4.73449,-4.17418
-532,-475,-7.07379,4.25024,0,0,0,0,0,0,0,-1,692,1499,-7.07378,-4.2503
-525,-475,-6.13147,5.82166,0,0,0,0,0,0,0,-1,699,1499,-6.1315,-5.8216
-518,-475,-7.28784,9.31506,0,0,0,0,0,0,0,-1,706,1499,-7.28782,-9.315
-511,-475,-6.84851,12.4244,0,0,0,0,0,0,0,-1,713,1499,-6.84851,-12.4244
-504,-475,-8.80957,16.0863,0,0,0,0,0,0,0,-1,720,1499,-8.80954,-16.0862
-497,-475,-55.8393,72.7051,0,0,0,0,0,0,0,-1,727,1499,-55.8393,-72.7051
-490,-475,-56.1306,75.4924,0.00202591,0.00479535,0.00184358,0.00571633,0.00110493,1.1075,0.00350118,0.0413378,734,1499,-56.1306,-75.4924
-483,-475,-56.5552,78.109,0.00194643,0.00356209,0.00153709,0.0044907,0.00101781,1.02734,0.00271879,0.0124354,741,1499,-56.5553,-78.109
-476,-475,-57.0077,80.5325,0.00193867,0.00227684,0.00128077,0.00339964,0.000815876,0.851027,0.00204934,0.0145607,748,1499,-57.0077,-80.5325
-469,-475,-57.4644,82.9849,0.00197892,0.00128974,0.00112479,0.00281072,0.00045794,0.636758,0.00174135,0.0196559,755,1499,-57.4644,-82.9848
-462,-475,-57.787,85.4142,0.00208557,0.000461685,0.00103451,0.00258872,-4.14659e-05,0.452679,0.0017398,0.028636,762,1499,-57.7871,-85.4141
-455,-475,-58.2292,87.8556,0.00229166,-0.000241582,0.000998747,0.00263806,-0.000587978,0.333848,0.00198396,0.0307982,769,1499,-58.2293,-87.8556
-448,-475,-58.7783,90.262,0.00265524,-0.000875722,0.00101778,0.0029276,-0.00114808,0.261476,0.00242671,0.0250945,776,1499,-58.7783,-90.2619
-441,-475,-59.1794,92.6594,0.00320147,-0.0013915,0.00113555,0.00346689,-0.00165691,0.229608,0.00301912,0.0203828,783,1499,-59.1794,-92.6595
-434,-475,-59.5131,95.1471,0.00404152,-0.00170485,0.00139391,0.00436179,-0.00202512,0.225846,0.00376885,0.0172768,790,1499,-59.513,-95.1471
-427,-475,-60.0012,97.7625,0,0,0,0,0,0,0,-1,797,1499,-60.0012,-97.7624
-420,-475,-14.302,33.4558,0,0,0,0,0,0,0,-1,804,1499,-14.302,-33.4559
-413,-475,-6.46777,20.8481,0,0,0,0,0,0,0,-1,811,1499,-6.46776,-20.8481
-406,-475,-2.56116,12.4956,0,0,0,0,0,0,0,-1,818,1499,-2.56116,-12.4956
-399,-475,-1.39667,6.1615,0,0,0,0,0,0,0,-1,825,1499,-1.39664,-6.16155
-392,-475,0.217163,8.61389,0,0,0,0,0,0,0,-1,832,1499,0.217167,-8.6139
-385,-475,1.18372,2.73999,0,0,0,0,0,0,0,-1,839,1499,1.18372,-2.73995
-378,-475,1.31409,2.90149,0,0,0,0,0,0,0,-1,846,1499,1.31411,-2.90151
-371,-475,2.3476,3.31116,0,0,0,0,0,0,0,-1,853,1499,2.34761,-3.31121
-364,-475,1.04462,9.05823,0,0,0,0,0,0,0,-1,860,1499,1.04461,-9.05825
-357,-475,-0.262756,7.97205,0,0,0,0,0,0,0,-1,867,1499,-0.262784,-7.97205
-350,-475,-5.16473,-1.27881,0,0,0,0,0,0,0,-1,874,1499,-5.16474,1.27884
-343,-475,-5.76923,-0.530518,0,0,0,0,0,0,0,-1,881,1499,-5.76923,0.530526
-336,-475,0,0,0,0,0,0,0,0,0,-1,888,1499,0,0
-329,-475,0,0,0,0,0,0,0,0,0,-1,895,1499,0,0
-322,-475,0,0,0,0,0,0,0,0,0,-1,902,1499,0,0
-315,-475,0,0,0,0,0,0,0,0,0,-1,909,1499,0,0
-308,-475,0,0,0,0,0,0,0,0,0,-1,916,1499,0,0
-301,-475,0,0,0,0,0,0,0,0,0,-1,923,1499,0,0
-294,-475,0,0,0,0,0,0,0,0,0,-1,930,1499,0,0
-287,-475,0,0,0,0,0,0,0,0,0,-1,937,1499,0,0
-280,-475,0,0,0,0,0,0,0,0,0,-1,944,1499,0,0
-273,-475,0,0,0,0,0,0,0,0,0,-1,951,1499,0,0
-266,-475,0,0,0,0,0,0,0,0,0,-1,958,1499,0,0
-259,-475,0,0,0,0,0,0,0,0,0,-1,965,1499,0,0
-252,-475,0,0,0,0,0,0,0,0,0,-1,972,1499,0,0
-245,-475,0,0,0,0,0,0,0,0,0,-1,979,1499,0,0
-238,-475,0,0,0,0,0,0,0,0,0,-1,986,1499,0,0
-231,-475,0,0,0,0,0,0,0,0,0,-1,993,1499,0,0
-224,-475,0,0,0,0,0,0,0,0,0,-1,1000,1499,0,0
-217,-475,0,0,0,0,0,0,0,0,0,-1,1007,1499,0,0
-210,-475,0,0,0,0,0,0,0,0,0,-1,1014,1499,0,0
-203,-475,0,0,0,0,0,0,0,0,0,-1,1021,1499,0,0
-196,-475,0,0,0,0,0,0,0,0,0,-1,1028,1499,0,0
-189,-475,0,0,0,0,0,0,0,0,0,-1,1035,1499,0,0
-182,-475,0,0,0,0,0,0,0,0,0,-1,1042,1499,0,0
-175,-475,0,0,0,0,0,0,0,0,0,-1,1049,1499,0,0
-168,-475,0,0,0,0,0,0,0,0,0,-1,1056,1499,0,0
-161,-475,0,0,0,0,0,0,0,0,0,-1,1063,1499,0,0
-154,-475,0,0,0,0,0,0,0,0,0,-1,1070,1499,0,0
-147,-475,0,0,0,0,0,0,0,0,0,-1,1077,1499,0,0
-140,-475,0,0,0,0,0,0,0,0,0,-1,1084,1499,0,0
-133,-475,0,0,0,0,0,0,0,0,0,-1,1091,1499,0,0
-126,-475,0,0,0,0,0,0,0,0,0,-1,1098,1499,0,0
-119,-475,0,0,0,0,0,0,0,0,0,-1,1105,1499,0,0
-112,-475,0,0,0,0,0,0,0,0,0,-1,1112,1499,0,0
-105,-475,0,0,0,0,0,0,0,0,0,-1,1119,1499,0,0
-98,-475,0,0,0,0,0,0,0,0,0,-1,1126,1499,0,0
-91,-475,0,0,0,0,0,0,0,0,0,-1,1133,1499,0,0
-84,-475,0,0,0,0,0,0,0,0,0,-1,1140,1499,0,0
-77,-475,0,0,0,0,0,0,0,0,0,-1,1147,1499,0,0
-70,-475,0,0,0,0,0,0,0,0,0,-1,1154,1499,0,0
-63,-475,0,0,0,0,0,0,0,0,0,-1,1161,1499,0,0
-56,-475,0,0,0,0,0,0,0,0,0,-1,1168,1499,0,0
-49,-475,0,0,0,0,0,0,0,0,0,-1,1175,1499,0,0
-42,-475,0,0,0,0,0,0,0,0,0,-1,1182,1499,0,0
-35,-475,0,0,0,0,0,0,0,0,0,-1,1189,1499,0,0
-28,-475,0,0,0,0,0,0,0,0,0,-1,1196,1499,0,0
-21,-475,0,0,0,0,0,0,0,0,0,-1,1203,1499,0,0
-14,-475,0,0,0,0,0,0,0,0,0,-1,1210,1499,0,0
-7,-475,0,0,0,0,0,0,0,0,0,-1,1217,1499,0,0
0,-475,0,0,0,0,0,0,0,0,0,-1,1224,1499,0,0
7,-475,0,0,0,0,0,0,0,0,0,-1,1231,1499,0,0
14,-475,0,0,0,0,0,0,0,0,0,-1,1238,1499,0,0
21,-475,0,0,0,0,0,0,0,0,0,-1,1245,1499,0,0
28,-475,0,0,0,0,0,0,0,0,0,-1,1252,1499,0,0
35,-475,0,0,0,0,0,0,0,0,0,-1,1259,1499,0,0
42,-475,0,0,0,0,0,0,0,0,0,-1,1266,1499,0,0
49,-475,0,0,0,0,0,0,0,0,0,-1,1273,1499,0,0
56,-475,0,0,0,0,0,0,0,0,0,-1,1280,1499,0,0
63,-475,0,0,0,0,0,0,0,0,0,-1,1287,1499,0,0
70,-475,0,0,0,0,0,0,0,0,0,-1,1294,1499,0,0
77,-475,0,0,0,0,0,0,0,0,0,-1,1301,1499,0,0
84,-475,0,0,0,0,0,0,0,0,0,-1,1308,1499,0,0
91,-475,0,0,0,0,0,0,0,0,0,-1,1315,1499,0,0
98,-475,0,0,0,0,0,0,0,0,0,-1,1322,1499,0,0
105,-475,0,0,0,0,0,0,0,0,0,-1,1329,1499,0,0
112,-475,0,0,0,0,0,0,0,0,0,-1,1336,1499,0,0
119,-475,0,0,0,0,0,0,0,0,0,-1,1343,1499,0,0
126,-475,0,0,0,0,0,0,0,0,0,-1,1350,1499,0,0
133,-475,0,0,0,0,0,0,0,0,0,-1,1357,1499,0,0
140,-475,0,0,0,0,0,0,0,0,0,-1,1364,1499,0,0
147,-475,0,0,0,0,0,0,0,0,0,-1,1371,1499,0,0
154,-475,0,0,0,0,0,0,0,0,0,-1,1378,1499,0,0
161,-475,0,0,0,0,0,0,0,0,0,-1,1385,1499,0,0
168,-475,0,0,0,0,0,0,0,0,0,-1,1392,1499,0,0
175,-475,0,0,0,0,0,0,0,0,0,-1,1399,1499,0,0
182,-475,0,0,0,0,0,0,0,0,0,-1,1406,1499,0,0
189,-475,0,0,0,0,0,0,0,0,0,-1,1413,1499,0,0
196,-475,0,0,0,0,0,0,0,0,0,-1,1420,1499,0,0
203,-475,0,0,0,0,0,0,0,0,0,-1,1427,1499,0,0
210,-475,0,0,0,0,0,0,0,0,0,-1,1434,1499,0,0
217,-475,0,0,0,0,0,0,0,0,0,-1,1441,1499,0,0
224,-475,0,0,0,0,0,0,0,0,0,-1,1448,1499,0,0
231,-475,0,0,0,0,0,0,0,0,0,-1,1455,1499,0,0
238,-475,0,0,0,0,0,0,0,0,0,-1,1462,1499,0,0
245,-475,0,0,0,0,0,0,0,0,0,-1,1469,1499,0,0
252,-475,0,0,0,0,0,0,0,0,0,-1,1476,1499,0,0
259,-475,0,0,0,0,0,0,0,0,0,-1,1483,1499,0,0
266,-475,0,0,0,0,0,0,0,0,0,-1,1490,1499,0,0
273,-475,0,0,0,0,0,0,0,0,0,-1,1497,1499,0,0
280,-475,0,0,0,0,0,0,0,0,0,-1,1504,1499,0,0
287,-475,0,0,0,0,0,0,0,0,0,-1,1511,1499,0,0
294,-475,0,0,0,0,0,0,0,0,0,-1,1518,1499,0,0
301,-475,0,0,0,0,0,0,0,0,0,-1,1525,1499,0,0
308,-475,0,0,0,0,0,0,0,0,0,-1,1532,1499,0,0
315,-475,0,0,0,0,0,0,0,0,0,-1,1539,1499,0,0
322,-475,0,0,0,0,0,0,0,0,0,-1,1546,1499,0,0
329,-475,0,0,0,0,0,0,0,0,0,-1,1553,1499,0,0
336,-475,0,0,0,0,0,0,0,0,0,-1,1560,1499,0,0
343,-475,0,0,0,0,0,0,0,0,0,-1,1567,1499,0,0
350,-475,0,0,0,0,0,0,0,0,0,-1,1574,1499,0,0
357,-475,0,0,0,0,0,0,0,0,0,-1,1581,1499,0,0
364,-475,0,0,0,0,0,0,0,0,0,-1,1588,1499,0,0
371,-475,0,0,0,0,0,0,0,0,0,-1,1595,1499,0,0
378,-475,0,0,0,0,0,0,0,0,0,-1,1602,1499,0,0
385,-475,0,0,0,0,0,0,0,0,0,-1,1609,1499,0,0
392,-475,0,0,0,0,0,0,0,0,0,-1,1616,1499,0,0
399,-475,0,0,0,0,0,0,0,0,0,-1,1623,1499,0,0
406,-475,0,0,0,0,0,0,0,0,0,-1,1630,1499,0,0
413,-475,0,0,0,0,0,0,0,0,0,-1,1637,1499,0,0
420,-475,0,0,0,0,0,0,0,0,0,-1,1644,1499,0,0
427,-475,0,0,0,0,0,0,0,0,0,-1,1651,1499,0,0
434,-475,0,0,0,0,0,0,0,0,0,-1,1658,1499,0,0
441,-475,0,0,0,0,0,0,0,0,0,-1,1665,1499,0,0
448,-475,0,0,0,0,0,0,0,0,0,-1,1672,1499,0,0
455,-475,0,0,0,0,0,0,0,0,0,-1,1679,1499,0,0
462,-475,12.6372,0.275391,0,0,0,0,0,0,0,-1,1686,1499,12.6372,-0.27536
469,-475,15.6437,2.28296,0,0,0,0,0,0,0,-1,1693,1499,15.6437,-2.28293
476,-475,15.3302,2.71436,0,0,0,0,0,0,0,-1,1700,1499,15.3303,-2.7143
483,-475,10.7461,5.91479,0,0,0,0,0,0,0,-1,1707,1499,10.7461,-5.91476
490,-475,11.9305,4.4364,0,0,0,0,0,0,0,-1,1714,1499,11.9305,-4.43644
497,-475,15.3451,4.3479,0,0,0,0,0,0,0,-1,1721,1499,15.3451,-4.34789
504,-475,16.9646,7.71265,0,0,0,0,0,0,0,-1,1728,1499,16.9646,-7.71265
511,-475,18.941,12.7572,0,0,0,0,0,0,0,-1,1735,1499,18.941,-12.7572
518,-475,17.0021,13.8564,0,0,0,0,0,0,0,-1,1742,1499,17.0021,-13.8564
525,-475,17.5637,15.2103,0,0,0,0,0,0,0,-1,1749,1499,17.5637,-15.2103
532,-475,20.8623,20.8413,0,0,0,0,0,0,0,-1,1756,1499,20.8623,-20.8413
539,-475,20.5494,20.8519,0,0,0,0,0,0,0,-1,1763,1499,20.5494,-20.852
546,-475,20.4524,19.8799,0,0,0,0,0,0,0,-1,1770,1499,20.4524,-19.8798
553,-475,34.2676,37.0474,0,0,0,0,0,0,0,-1,1777,1499,34.2675,-37.0474
560,-475,65.5548,98.5265,0,0,0,0,0,0,0,-1,1784,1499,65.5548,-98.5265
567,-475,65.2948,95.8224,0.00408938,0.00307495,-0.00247863,0.00611216,0.00105216,-0.684474,0.00377327,0.0323407,1791,1499,65.2948,-95.8224
574,-475,64.8413,93.3748,0.00298621,0.00216157,-0.00168548,0.00430907,0.000838708,-0.66544,0.00263797,0.0191817,1798,1499,64.8412,-93.3747
581,-475,64.3954,90.9893,0.00235428,0.00156537,-0.0011878,0.00321141,0.000708235,-0.625083,0.00194825,0.0164611,1805,1499,64.3954,-90.9892
588,-475,63.9709,88.5481,0.00202947,0.00121569,-0.000935682,0.0026429,0.000602257,-0.580302,0.00159944,0.0133536,1812,1499,63.9709,-88.5481
595,-475,63.5576,86.1056,0.00199781,0.00102728,-0.000891253,0.00252735,0.00049775,-0.536102,0.00154593,0.0149557,1819,1499,63.5576,-86.1056
602,-475,63.1094,83.6979,0.0020714,0.000948062,-0.00098188,0.00264091,0.000378553,-0.525597,0.00164897,0.0169167,1826,1499,63.1093,-83.6979
609,-475,62.6458,81.2899,0.00236461,0.00113776,-0.00132125,0.00320789,0.000294483,-0.568066,0.0020475,0.0164897,1833,1499,62.6457,-81.29
616,-475,62.2081,78.8822,0.00281572,0.00145177,-0.00179337,0.0040524,0.00021508,-0.603704,0.00263284,0.0166075,1840,1499,62.2082,-78.8822
623,-475,61.8502,76.3297,0.0032085,0.00181091,-0.00232802,0.00494034,7.90714e-05,-0.639593,0.00326752,0.0259454,1847,1499,61.8502,-76.3297
630,-475,61.39,73.849,0,0,0,0,0,0,0,-1,1854,1499,61.39,-73.849
637,-475,47.9917,48.1105,0,0,0,0,0,0,0,-1,1861,1499,47.9917,-48.1105
644,-475,32.8739,24.0623,0,0,0,0,0,0,0,-1,1868,1499,32.8739,-24.0622
651,-475,29.886,19.2421,0,0,0,0,0,0,0,-1,1875,1499,29.886,-19.242
658,-475,14.6708,8.80322,0,0,0,0,0,0,0,-1,1882,1499,14.6708,-8.8032
665,-475,9.33435,5.43335,0,0,0,0,0,0,0,-1,1889,1499,9.33439,-5.43332
672,-475,9.38635,1.10474,0,0,0,0,0,0,0,-1,1896,1499,9.38629,-1.10475
679,-475,12.2594,1.31079,0,0,0,0,0,0,0,-1,1903,1499,12.2594,-1.31077
686,-475,0,0,0,0,0,0,0,0,0,-1,1910,1499,0,0
693,-475,0,0,0,0,0,0,0,0,0,-1,1917,1499,0,0
700,-475,0,0,0,0,0,0,0,0,0,-1,1924,1499,0,0
707,-475,0,0,0,0,0,0,0,0,0,-1,1931,1499,0,0
714,-475,0,0,0,0,0,0,0,0,0,-1,1938,1499,0,0
721,-475,0,0,0,0,0,0,0,0,0,-1,1945,1499,0,0
728,-475,0,0,0,0,0,0,0,0,0,-1,1952,1499,0,0
735,-475,0,0,0,0,0,0,0,0,0,-1,1959,1499,0,0
742,-475,0,0,0,0,0,0,0,0,0,-1,1966,1499,0,0
749,-475,0,0,0,0,0,0,0,0,0,-1,1973,1499,0,0
756,-475,0,0,0,0,0,0,0,0,0,-1,1980,1499,0,0
763,-475,0,0,0,0,0,0,0,0,0,-1,1987,1499,0,0
770,-475,0,0,0,0,0,0,0,0,0,-1,1994,1499,0,0
777,-475,0,0,0,0,0,0,0,0,0,-1,2001,1499,0,0
784,-475,0,0,0,0,0,0,0,0,0,-1,2008,1499,0,0
791,-475,0,0,0,0,0,0,0,0,0,-1,2015,1499,0,0
798,-475,0,0,0,0,0,0,0,0,0,-1,2022,1499,0,0
805,-475,0,0,0,0,0,0,0,0,0,-1,2029,1499,0,0
812,-475,0,0,0,0,0,0,0,0,0,-1,2036,1499,0,0
-700,-482,0,0,0,0,0,0,0,0,0,-1,524,1506,0,0
-693,-482,0,0,0,0,0,0,0,0,0,-1,531,1506,0,0
-686,-482,0,0,0,0,0,0,0,0,0,-1,538,1506,0,0
-679,-482,0,0,0,0,0,0,0,0,0,-1,545,1506,0,0
-672,-482,0,0,0,0,0,0,0,0,0,-1,552,1506,0,0
-665,-482,0,0,0,0,0,0,0,0,0,-1,559,1506,0,0
-658,-482,0,0,0,0,0,0,0,0,0,-1,566,1506,0,0
-651,-482,0,0,0,0,0,0,0,0,0,-1,573,1506,0,0
-644,-482,0,0,0,0,0,0,0,0,0,-1,580,1506,0,0
-637,-482,0,0,0,0,0,0,0,0,0,-1,587,1506,0,0
-630,-482,0,0,0,0,0,0,0,0,0,-1,594,1506,0,0
-623,-482,0,0,0,0,0,0,0,0,0,-1,601,1506,0,0
-616,-482,0,0,0,0,0,0,0,0,0,-1,608,1506,0,0
-609,-482,0,0,0,0,0,0,0,0,0,-1,615,1506,0,0
-602,-482,0,0,0,0,0,0,0,0,0,-1,622,1506,0,0
-595,-482,0,0,0,0,0,0,0,0,0,-1,629,1506,0,0
-588,-482,0,0,0,0,0,0,0,0,0,-1,636,1506,0,0
-581,-482,0,0,0,0,0,0,0,0,0,-1,643,1506,0,0
-574,-482,0,0,0,0,0,0,0,0,0,-1,650,1506,0,0
-567,-482,0,0,0,0,0,0,0,0,0,-1,657,1506,0,0
-560,-482,0,0,0,0,0,0,0,0,0,-1,664,1506,0,0
-553,-482,-9.06055,9.34314,0,0,0,0,0,0,0,-1,671,1506,-9.06056,-9.34312
-546,-482,-4.08624,8.34241,0,0,0,0,0,0,0,-1,678,1506,-4.08624,-8.3424
-539,-482,-4.29877,2.73499,0,0,0,0,0,0,0,-1,685,1506,-4.29879,-2.73494
-532,-482,-3.63611,4.23987,0,0,0,0,0,0,0,-1,692,1506,-3.63609,-4.23983
-525,-482,-6.19116,5.24927,0,0,0,0,0,0,0,-1,699,1506,-6.19117,-5.24927
-518,-482,-5.92957,6.39807,0,0,0,0,0,0,0,-1,706,1506,-5.92958,-6.39806
-511,-482,-7.74634,11.9137,0,0,0,0,0,0,0,-1,713,1506,-7.74633,-11.9137
-504,-482,-6.42358,13.4211,0,0,0,0,0,0,0,-1,720,1506,-6.42356,-13.4212
-497,-482,-8.86163,17.7108,0,0,0,0,0,0,0,-1,727,1506,-8.86163,-17.7109
-490,-482,-53.7039,75.6375,0,0,0,0,0,0,0,-1,734,1506,-53.7038,-75.6375
-483,-482,-54.1216,78.4675,0.00213809,0.00509566,0.00213056,0.00621035,0.0010234,1.08877,0.00384477,0.024923,741,1506,-54.1216,-78.4676
-476,-482,-54.5629,80.9897,0.00199303,0.00337812,0.00165618,0.00448072,0.00089043,0.983429,0.00273901,0.0132582,748,1506,-54.5629,-80.9898
-469,-482,-55.0674,83.4354,0.00194314,0.00214712,0.00135401,0.00340298,0.00068728,0.82299,0.0020778,0.0180394,755,1506,-55.0674,-83.4354
-462,-482,-55.4886,85.8298,0.00199197,0.00115368,0.00114452,0.00279168,0.000353972,0.609875,0.00175507,0.0201799,762,1506,-55.4886,-85.8298
-455,-482,-55.8855,88.2487,0.00214386,0.000331043,0.00100497,0.0025908,-0.000115892,0.418458,0.0017671,0.0191889,769,1506,-55.8855,-88.2486
-448,-482,-56.3386,90.7493,0.00246325,-0.000406872,0.000913698,0.00272943,-0.000673059,0.283483,0.00208059,0.0191591,776,1506,-56.3386,-90.7492
-441,-482,-56.7829,93.1743,0.00291438,-0.00100425,0.000922543,0.00312071,-0.00121057,0.220029,0.00258045,0.0161333,783,1506,-56.7829,-93.1743
-434,-482,-57.1622,95.6597,0.0035449,-0.0014866,0.0010119,0.00374078,-0.00168248,0.191211,0.00320541,0.0190645,790,1506,-57.1622,-95.6596
-427,-482,-57.5577,98.188,0.00429971,-0.00204361,0.00110745,0.0044875,-0.00223139,0.167968,0.00395138,0.034415,797,1506,-57.5577,-98.188
-420,-482,-58.0513,100.719,0,0,0,0,0,0,0,-1,804,1506,-58.0513,-100.718
-413,-482,-6.56415,22.3163,0,0,0,0,0,0,0,-1,811,1506,-6.56417,-22.3163
-406,-482,-2.51373,12.7556,0,0,0,0,0,0,0,-1,818,1506,-2.51376,-12.7556
-399,-482,-1.3822,9.22595,0,0,0,0,0,0,0,-1,825,1506,-1.38221,-9.22598
-392,-482,-1.06836,9.22729,0,0,0,0,0,0,0,-1,832,1506,-1.06835,-9.2273
-385,-482,0.0647583,8.90649,0,0,0,0,0,0,0,-1,839,1506,0.0647778,-8.90644
-378,-482,0.215698,5.96948,0,0,0,0,0,0,0,-1,846,1506,0.215681,-5.9695
-371,-482,-0.10907,8.10437,0,0,0,0,0,0,0,-1,853,1506,-0.109063,-8.10433
-364,-482,-0.154968,10.5032,0,0,0,0,0,0,0,-1,860,1506,-0.154976,-10.5032
-357,-482,2.14807,4.60144,0,0,0,0,0,0,0,-1,867,1506,2.14807,-4.60144
-350,-482,-7.5813,-1.45935,0,0,0,0,0,0,0,-1,874,1506,-7.58133,1.45937
-343,-482,-5.80902,1.81226,0,0,0,0,0,0,0,-1,881,1506,-5.80903,-1.81221
-336,-482,2.52826,-0.390503,0,0,0,0,0,0,0,-1,888,1506,2.52826,0.390456
-329,-482,0,0,0,0,0,0,0,0,0,-1,895,1506,0,0
-322,-482,0,0,0,0,0,0,0,0,0,-1,902,1506,0,0
-315,-482,0,0,0,0,0,0,0,0,0,-1,909,1506,0,0
-308,-482,0,0,0,0,0,0,0,0,0,-1,916,1506,0,0
-301,-482,0,0,0,0,0,0,0,0,0,-1,923,1506,0,0
-294,-482,0,0,0,0,0,0,0,0,0,-1,930,1506,0,0
-287,-482,0,0,0,0,0,0,0,0,0,-1,937,1506,0,0
-280,-482,0,0,0,0,0,0,0,0,0,-1,944,1506,0,0
-273,-482,0,0,0,0,0,0,0,0,0,-1,951,1506,0,0
-266,-482,0,0,0,0,0,0,0,0,0,-1,958,1506,0,0
-259,-482,0,0,0,0,0,0,0,0,0,-1,965,1506,0,0
-252,-482,0,0,0,0,0,0,0,0,0,-1,972,1506,0,0
-245,-482,0,0,0,0,0,0,0,0,0,-1,979,1506,0,0
-238,-482,0,0,0,0,0,0,0,0,0,-1,986,1506,0,0
-231,-482,0,0,0,0,0,0,0,0,0,-1,993,1506,0,0
-224,-482,0,0,0,0,0,0,0,0,0,-1,1000,1506,0,0
-217,-482,0,0,0,0,0,0,0,0,0,-1,1007,1506,0,0
-210,-482,0,0,0,0,0,0,0,0,0,-1,1014,1506,0,0
-203,-482,0,0,0,0,0,0,0,0,0,-1,1021,1506,0,0
-196,-482,0,0,0,0,0,0,0,0,0,-1,1028,1506,0,0
-189,-482,0,0,0,0,0,0,0,0,0,-1,1035,1506,0,0
-182,-482,0,0,0,0,0,0,0,0,0,-1,1042,1506,0,0
-175,-482,0,0,0,0,0,0,0,0,0,-1,1049,1506,0,0
-168,-482,0,0,0,0,0,0,0,0,0,-1,1056,1506,0,0
-161,-482,0,0,0,0,0,0,0,0,0,-1,1063,1506,0,0
-154,-482,0,0,0,0,0,0,0,0,0,-1,1070,1506,0,0
-147,-482,0,0,0,0,0,0,0,0,0,-1,1077,1506,0,0
-140,-482,0,0,0,0,0,0,0,0,0,-1,1084,1506,0,0
-133,-482,0,0,0,0,0,0,0,0,0,-1,1091,1506,0,0
-126,-482,0,0,0,0,0,0,0,0,0,-1,1098,1506,0,0
-119,-482,0,0,0,0,0,0,0,0,0,-1,1105,1506,0,0
-112,-482,0,0,0,0,0,0,0,0,0,-1,1112,1506,0,0
-105,-482,0,0,0,0,0,0,0,0,0,-1,1119,1506,0,0
-98,-482,0,0,0,0,0,0,0,0,0,-1,1126,1506,0,0
-91,-482,0,0,0,0,0,0,0,0,0,-1,1133,1506,0,0
-84,-482,0,0,0,0,0,0,0,0,0,-1,1140,1506,0,0
-77,-482,0,0,0,0,0,0,0,0,0,-1,1147,1506,0,0
-70,-482,0,0,0,0,0,0,0,0,0,-1,1154,1506,0,0
-63,-482,0,0,0,0,0,0,0,0,0,-1,1161,1506,0,0
-56,-482,0,0,0,0,0,0,0,0,0,-1,1168,1506,0,0
-49,-482,0,0,0,0,0,0,0,0,0,-1,1175,1506,0,0
-42,-482,0,0,0,0,0,0,0,0,0,-1,1182,1506,0,0
-35,-482,0,0,0,0,0,0,0,0,0,-1,1189,1506,0,0
-28,-482,0,0,0,0,0,0,0,0,0,-1,1196,1506,0,0
-21,-482,0,0,0,0,0,0,0,0,0,-1,1203,1506,0,0
-14,-482,0,0,0,0,0,0,0,0,0,-1,1210,1506,0,0
-7,-482,0,0,0,0,0,0,0,0,0,-1,1217,1506,0,0
0,-482,0,0,0,0,0,0,0,0,0,-1,1224,1506,0,0
7,-482,0,0,0,0,0,0,0,0,0,-1,1231,1506,0,0
14,-482,0,0,0,0,0,0,0,0,0,-1,1238,1506,0,0
21,-482,0,0,0,0,0,0,0,0,0,-1,1245,1506,0,0
28,-482,0,0,0,0,0,0,0,0,0,-1,1252,1506,0,0
35,-482,0,0,0,0,0,0,0,0,0,-1,1259,1506,0,0
42,-482,0,0,0,0,0,0,0,0,0,-1,1266,1506,0,0
49,-482,0,0,0,0,0,0,0,0,0,-1,1273,1506,0,0
56,-482,0,0,0,0,0,0,0,0,0,-1,1280,1506,0,0
63,-482,0,0,0,0,0,0,0,0,0,-1,1287,1506,0,0
70,-482,0,0,0,0,0,0,0,0,0,-1,1294,1506,0,0
77,-482,0,0,0,0,0,0,0,0,0,-1,1301,1506,0,0
84,-482,0,0,0,0,0,0,0,0,0,-1,1308,1506,0,0
91,-482,0,0,0,0,0,0,0,0,0,-1,1315,1506,0,0
98,-482,0,0,0,0,0,0,0,0,0,-1,1322,1506,0,0
105,-482,0,0,0,0,0,0,0,0,0,-1,1329,1506,0,0
112,-482,0,0,0,0,0,0,0,0,0,-1,1336,1506,0,0
119,-482,0,0,0,0,0,0,0,0,0,-1,1343,1506,0,0
126,-482,0,0,0,0,0,0,0,0,0,-1,1350,1506,0,0
133,-482,0,0,0,0,0,0,0,0,0,-1,1357,1506,0,0
140,-482,0,0,0,0,0,0,0,0,0,-1,1364,1506,0,0
147,-482,0,0,0,0,0,0,0,0,0,-1,1371,1506,0,0
154,-482,0,0,0,0,0,0,0,0,0,-1,1378,1506,0,0
161,-482,0,0,0,0,0,0,0,0,0,-1,1385,1506,0,0
168,-482,0,0,0,0,0,0,0,0,0,-1,1392,1506,0,0
175,-482,0,0,0,0,0,0,0,0,0,-1,1399,1506,0,0
182,-482,0,0,0,0,0,0,0,0,0,-1,1406,1506,0,0
189,-482,0,0,0,0,0,0,0,0,0,-1,1413,1506,0,0
196,-482,0,0,0,0,0,0,0,0,0,-1,1420,1506,0,0
203,-482,0,0,0,0,0,0,0,0,0,-1,1427,1506,0,0
210,-482,0,0,0,0,0,0,0,0,0,-1,1434,1506,0,0
217,-482,0,0,0,0,0,0,0,0,0,-1,1441,1506,0,0
224,-482,0,0,0,0,0,0,0,0,0,-1,1448,1506,0,0
231,-482,0,0,0,0,0,0,0,0,0,-1,1455,1506,0,0
238,-482,0,0,0,0,0,0,0,0,0,-1,1462,1506,0,0
245,-482,0,0,0,0,0,0,0,0,0,-1,1469,1506,0,0
252,-482,0,0,0,0,0,0,0,0,0,-1,1476,1506,0,0
259,-482,0,0,0,0,0,0,0,0,0,-1,1483,1506,0,0
266,-482,0,0,0,0,0,0,0,0,0,-1,1490,1506,0,0
273,-482,0,0,0,0,0,0,0,0,0,-1,1497,1506,0,0
280,-482,0,0,0,0,0,0,0,0,0,-1,1504,1506,0,0
287,-482,0,0,0,0,0,0,0,0,0,-1,1511,1506,0,0
294,-482,0,0,0,0,0,0,0,0,0,-1,1518,1506,0,0
301,-482,0,0,0,0,0,0,0,0,0,-1,1525,1506,0,0
308,-482,0,0,0,0,0,0,0,0,0,-1,1532,1506,0,0
315,-482,0,0,0,0,0,0,0,0,0,-1,1539,1506,0,0
322,-482,0,0,0,0,0,0,0,0,0,-1,1546,1506,0,0
329,-482,0,0,0,0,0,0,0,0,0,-1,1553,1506,0,0
336,-482,0,0,0,0,0,0,0,0,0,-1,1560,1506,0,0
343,-482,0,0,0,0,0,0,0,0,0,-1,1567,1506,0,0
350,-482,0,0,0,0,0,0,0,0,0,-1,1574,1506,0,0
357,-482,0,0,0,0,0,0,0,0,0,-1,1581,1506,0,0
364,-482,0,0,0,0,0,0,0,0,0,-1,1588,1506,0,0
371,-482,0,0,0,0,0,0,0,0,0,-1,1595,1506,0,0
378,-482,0,0,0,0,0,0,0,0,0,-1,1602,1506,0,0
385,-482,0,0,0,0,0,0,0,0,0,-1,1609,1506,0,0
392,-482,0,0,0,0,0,0,0,0,0,-1,1616,1506,0,0
399,-482,0,0,0,0,0,0,0,0,0,-1,1623,1506,0,0
406,-482,0,0,0,0,0,0,0,0,0,-1,1630,1506,0,0
413,-482,0,0,0,0,0,0,0,0,0,-1,1637,1506,0,0
420,-482,0,0,0,0,0,0,0,0,0,-1,1644,1506,0,0
427,-482,0,0,0,0,0,0,0,0,0,-1,1651,1506,0,0
434,-482,0,0,0,0,0,0,0,0,0,-1,1658,1506,0,0
441,-482,0,0,0,0,0,0,0,0,0,-1,1665,1506,0,0
448,-482,4.24146,1.55383,0,0,0,0,0,0,0,-1,1672,1506,4.24149,-1.55381
455,-482,12.4122,1.09729,0,0,0,0,0,0,0,-1,1679,1506,12.4122,-1.09734
462,-482,15.0673,3.13135,0,0,0,0,0,0,0,-1,1686,1506,15.0672,-3.13134
469,-482,15.3793,3.46301,0,0,0,0,0,0,0,-1,1693,1506,15.3793,-3.46307
476,-482,8.69751,9.18738,0,0,0,0,0,0,0,-1,1700,1506,8.69753,-9.18739
483,-482,10.0902,7.17432,0,0,0,0,0,0,0,-1,1707,1506,10.0902,-7.1743
490,-482,11.6289,5.4928,0,0,0,0,0,0,0,-1,1714,1506,11.6289,-5.49283
497,-482,15.9539,7.40222,0,0,0,0,0,0,0,-1,1721,1506,15.9538,-7.40219
504,-482,20.4233,12.006,0,0,0,0,0,0,0,-1,1728,1506,20.4233,-12.006
511,-482,18.4937,12.9175,0,0,0,0,0,0,0,-1,1735,1506,18.4936,-12.9174
518,-482,16.6002,13.9679,0,0,0,0,0,0,0,-1,1742,1506,16.6003,-13.9679
525,-482,18.495,15.9618,0,0,0,0,0,0,0,-1,1749,1506,18.495,-15.9618
532,-482,19.9375,21.0775,0,0,0,0,0,0,0,-1,1756,1506,19.9375,-21.0775
539,-482,20.2291,20.5577,0,0,0,0,0,0,0,-1,1763,1506,20.2291,-20.5578
546,-482,50.8713,71.6311,0,0,0,0,0,0,0,-1,1770,1506,50.8714,-71.6312
553,-482,63.443,101.445,0,0,0,0,0,0,0,-1,1777,1506,63.443,-101.445
560,-482,63.1343,98.859,0.00506109,0.00367627,-0.00301994,0.00746698,0.00127038,-0.672705,0.00461321,0.0424172,1784,1506,63.1343,-98.859
567,-482,62.8708,96.2889,0.0038334,0.00255871,-0.00201786,0.00531218,0.00107994,-0.63243,0.00324199,0.0191747,1791,1506,62.8708,-96.289
574,-482,62.4084,93.8702,0.00302329,0.00181065,-0.00142617,0.00396668,0.000867267,-0.584405,0.002408,0.0179504,1798,1506,62.4085,-93.8703
581,-482,61.9568,91.4459,0.00253135,0.0013113,-0.00106954,0.00315261,0.000690043,-0.526228,0.00191365,0.0134454,1805,1506,61.9568,-91.4459
588,-482,61.5299,88.9651,0.00229599,0.00105292,-0.00096812,0.00282492,0.000523994,-0.500032,0.00173519,0.0138743,1812,1506,61.5299,-88.9651
595,-482,61.1199,86.5111,0.00236811,0.000983479,-0.00107125,0.00295128,0.000400305,-0.498524,0.00184859,0.0210141,1819,1506,61.1199,-86.5111
602,-482,60.6871,84.1248,0.00262386,0.00111428,-0.00139477,0.00345497,0.000283167,-0.537385,0.00221497,0.0257029,1826,1506,60.6871,-84.1248
609,-482,60.2408,81.7128,0.00308108,0.00147429,-0.00194738,0.00438428,0.000171097,-0.589758,0.00286752,0.0200954,1833,1506,60.2408,-81.7127
616,-482,59.7593,79.3046,0.00377272,0.00207877,-0.00269357,0.00574934,0.00010215,-0.63307,0.0037993,0.015876,1840,1506,59.7593,-79.3046
623,-482,59.4521,76.6483,0,0,0,0,0,0,0,-1,1847,1506,59.4521,-76.6483
630,-482,48.3544,54.5571,0,0,0,0,0,0,0,-1,1854,1506,48.3544,-54.5571
637,-482,32.1249,25.1031,0,0,0,0,0,0,0,-1,1861,1506,32.1249,-25.1031
644,-482,29.0146,20.1443,0,0,0,0,0,0,0,-1,1868,1506,29.0147,-20.1442
651,-482,4.03845,7.05273,0,0,0,0,0,0,0,-1,1875,1506,4.03843,-7.05279
658,-482,10.0278,5.87903,0,0,0,0,0,0,0,-1,1882,1506,10.0279,-5.87902
665,-482,8.15198,3.22229,0,0,0,0,0,0,0,-1,1889,1506,8.15199,-3.22232
672,-482,9.87415,1.3147,0,0,0,0,0,0,0,-1,1896,1506,9.87416,-1.31473
679,-482,0,0,0,0,0,0,0,0,0,-1,1903,1506,0,0
686,-482,0,0,0,0,0,0,0,0,0,-1,1910,1506,0,0
693,-482,0,0,0,0,0,0,0,0,0,-1,1917,1506,0,0
700,-482,0,0,0,0,0,0,0,0,0,-1,1924,1506,0,0
707,-482,0,0,0,0,0,0,0,0,0,-1,1931,1506,0,0
714,-482,0,0,0,0,0,0,0,0,0,-1,1938,1506,0,0
721,-482,0,0,0,0,0,0,0,0,0,-1,1945,1506,0,0
728,-482,0,0,0,0,0,0,0,0,0,-1,1952,1506,0,0
735,-482,0,0,0,0,0,0,0,0,0,-1,1959,1506,0,0
742,-482,0,0,0,0,0,0,0,0,0,-1,1966,1506,0,0
749,-482,0,0,0,0,0,0,0,0,0,-1,1973,1506,0,0
756,-482,0,0,0,0,0,0,0,0,0,-1,1980,1506,0,0
763,-482,0,0,0,0,0,0,0,0,0,-1,1987,1506,0,0
770,-482,0,0,0,0,0,0,0,0,0,-1,1994,1506,0,0
777,-482,0,0,0,0,0,0,0,0,0,-1,2001,1506,0,0
784,-482,0,0,0,0,0,0,0,0,0,-1,2008,1506,0,0
791,-482,0,0,0,0,0,0,0,0,0,-1,2015,1506,0,0
798,-482,0,0,0,0,0,0,0,0,0,-1,2022,1506,0,0
805,-482,0,0,0,0,0,0,0,0,0,-1,2029,1506,0,0
812,-482,0,0,0,0,0,0,0,0,0,-1,2036,1506,0,0
-700,-489,0,0,0,0,0,0,0,0,0,-1,524,1513,0,0
-693,-489,0,0,0,0,0,0,0,0,0,-1,531,1513,0,0
-686,-489,0,0,0,0,0,0,0,0,0,-1,538,1513,0,0
-679,-489,0,0,0,0,0,0,0,0,0,-1,545,1513,0,0
-672,-489,0,0,0,0,0,0,0,0,0,-1,552,1513,0,0
-665,-489,0,0,0,0,0,0,0,0,0,-1,559,1513,0,0
-658,-489,0,0,0,0,0,0,0,0,0,-1,566,1513,0,0
-651,-489,0,0,0,0,0,0,0,0,0,-1,573,1513,0,0
-644,-489,0,0,0,0,0,0,0,0,0,-1,580,1513,0,0
-637,-489,0,0,0,0,0,0,0,0,0,-1,587,1513,0,0
-630,-489,0,0,0,0,0,0,0,0,0,-1,594,1513,0,0
-623,-489,0,0,0,0,0,0,0,0,0,-1,601,1513,0,0
-616,-489,0,0,0,0,0,0,0,0,0,-1,608,1513,0,0
-609,-489,0,0,0,0,0,0,0,0,0,-1,615,1513,0,0
-602,-489,0,0,0,0,0,0,0,0,0,-1,622,1513,0,0
-595,-489,0,0,0,0,0,0,0,0,0,-1,629,1513,0,0
-588,-489,0,0,0,0,0,0,0,0,0,-1,636,1513,0,0
-581,-489,0,0,0,0,0,0,0,0,0,-1,643,1513,0,0
-574,-489,0,0,0,0,0,0,0,0,0,-1,650,1513,0,0
-567,-489,0,0,0,0,0,0,0,0,0,-1,657,1513,0,0
-560,-489,0,0,0,0,0,0,0,0,0,-1,664,1513,0,0
-553,-489,-9.42206,8.5116,0,0,0,0,0,0,0,-1,671,1513,-9.42205,-8.51158
-546,-489,-7.80951,8.18506,0,0,0,0,0,0,0,-1,678,1513,-7.8095,-8.18503
-539,-489,-3.06879,2.82349,0,0,0,0,0,0,0,-1,685,1513,-3.06881,-2.82354
-532,-489,-3.14215,2.5835,0,0,0,0,0,0,0,-1,692,1513,-3.14213,-2.58353
-525,-489,-2.604,4.06274,0,0,0,0,0,0,0,-1,699,1513,-2.60399,-4.06274
-518,-489,-5.43774,7.48059,0,0,0,0,0,0,0,-1,706,1513,-5.43777,-7.48058
-511,-489,-7.52856,10.951,0,0,0,0,0,0,0,-1,713,1513,-7.52857,-10.951
-504,-489,-7.17352,12.8508,0,0,0,0,0,0,0,-1,720,1513,-7.17352,-12.8508
-497,-489,-5.51678,14.9254,0,0,0,0,0,0,0,-1,727,1513,-5.51681,-14.9254
-490,-489,-15.6675,29.208,0,0,0,0,0,0,0,-1,734,1513,-15.6675,-29.208
-483,-489,-51.7632,78.7349,0,0,0,0,0,0,0,-1,741,1513,-51.7633,-78.7348
-476,-489,-52.1437,81.3083,0.00202808,0.00470783,0.00218692,0.00593269,0.000803213,1.06024,0.00371643,0.0238998,748,1513,-52.1437,-81.3084
-469,-489,-52.5652,83.8435,0.00184081,0.00316448,0.00169576,0.00432298,0.000682312,0.971451,0.00268362,0.0140788,755,1513,-52.5652,-83.8435
-462,-489,-53.007,86.2634,0.00180859,0.00197783,0.00134386,0.00323973,0.000546693,0.81684,0.00200262,0.0209739,762,1513,-53.007,-86.2634
-455,-489,-53.467,88.7367,0.00190654,0.00102034,0.0010962,0.0026458,0.000281076,0.593332,0.00167804,0.0234941,769,1513,-53.467,-88.7367
-448,-489,-53.9102,91.1742,0.00218312,0.000184672,0.000898529,0.00252769,-0.000159906,0.366194,0.00174088,0.0206135,776,1513,-53.9102,-91.1742
-441,-489,-54.3114,93.5984,0.00256429,-0.000491132,0.000796462,0.00275944,-0.000686283,0.240288,0.002106,0.0183112,783,1513,-54.3114,-93.5984
-434,-489,-54.7444,96.0624,0.00306723,-0.00109794,0.000738108,0.00319416,-0.00122487,0.170303,0.00263442,0.0209129,790,1513,-54.7444,-96.0624
-427,-489,-55.1578,98.5088,0.00367827,-0.00173899,0.00063777,0.00375235,-0.00181306,0.115623,0.00327757,0.0231523,797,1513,-55.1578,-98.5087
-420,-489,-55.5734,100.938,0,0,0,0,0,0,0,-1,804,1513,-55.5733,-100.937
-413,-489,-53.5017,100.258,0,0,0,0,0,0,0,-1,811,1513,-53.5017,-100.258
-406,-489,-3.10559,15.8143,0,0,0,0,0,0,0,-1,818,1513,-3.10556,-15.8143
-399,-489,-1.41241,9.10718,0,0,0,0,0,0,0,-1,825,1513,-1.41244,-9.10722
-392,-489,-1.0368,9.30469,0,0,0,0,0,0,0,-1,832,1513,-1.03682,-9.30466
-385,-489,-1.75165,10.6559,0,0,0,0,0,0,0,-1,839,1513,-1.75165,-10.6559
-378,-489,-0.401428,9.87048,0,0,0,0,0,0,0,-1,846,1513,-0.401415,-9.87047
-371,-489,-1.11633,10.6606,0,0,0,0,0,0,0,-1,853,1513,-1.11633,-10.6606
-364,-489,-0.503113,8.98486,0,0,0,0,0,0,0,-1,860,1513,-0.503097,-8.98482
-357,-489,-0.609924,10.9606,0,0,0,0,0,0,0,-1,867,1513,-0.609947,-10.9605
-350,-489,-7.94659,-0.358887,0,0,0,0,0,0,0,-1,874,1513,-7.94657,0.358912
-343,-489,-7.49323,-0.437866,0,0,0,0,0,0,0,-1,881,1513,-7.49322,0.437823
-336,-489,-7.02332,-0.53125,0,0,0,0,0,0,0,-1,888,1513,-7.0233,0.531295
-329,-489,-13.2786,4.96082,0,0,0,0,0,0,0,-1,895,1513,-13.2785,-4.96077
-322,-489,0,0,0,0,0,0,0,0,0,-1,902,1513,0,0
-315,-489,0,0,0,0,0,0,0,0,0,-1,909,1513,0,0
-308,-489,0,0,0,0,0,0,0,0,0,-1,916,1513,0,0
-301,-489,0,0,0,0,0,0,0,0,0,-1,923,1513,0,0
-294,-489,0,0,0,0,0,0,0,0,0,-1,930,1513,0,0
-287,-489,0,0,0,0,0,0,0,0,0,-1,937,1513,0,0
-280,-489,0,0,0,0,0,0,0,0,0,-1,944,1513,0,0
-273,-489,0,0,0,0,0,0,0,0,0,-1,951,1513,0,0
-266,-489,0,0,0,0,0,0,0,0,0,-1,958,1513,0,0
-259,-489,0,0,0,0,0,0,0,0,0,-1,965,1513,0,0
-252,-489,0,0,0,0,0,0,0,0,0,-1,972,1513,0,0
-245,-489,0,0,0,0,0,0,0,0,0,-1,979,1513,0,0
-238,-489,0,0,0,0,0,0,0,0,0,-1,986,1513,0,0
-231,-489,0,0,0,0,0,0,0,0,0,-1,993,1513,0,0
-224,-489,0,0,0,0,0,0,0,0,0,-1,1000,1513,0,0
-217,-489,0,0,0,0,0,0,0,0,0,-1,1007,1513,0,0
-210,-489,0,0,0,0,0,0,0,0,0,-1,1014,1513,0,0
-203,-489,0,0,0,0,0,0,0,0,0,-1,1021,1513,0,0
-196,-489,0,0,0,0,0,0,0,0,0,-1,1028,1513,0,0
-189,-489,0,0,0,0,0,0,0,0,0,-1,1035,1513,0,0
-182,-489,0,0,0,0,0,0,0,0,0,-1,1042,1513,0,0
-175,-489,0,0,0,0,0,0,0,0,0,-1,1049,1513,0,0
-168,-489,0,0,0,0,0,0,0,0,0,-1,1056,1513,0,0
-161,-489,0,0,0,0,0,0,0,0,0,-1,1063,1513,0,0
-154,-489,0,0,0,0,0,0,0,0,0,-1,1070,1513,0,0
-147,-489,0,0,0,0,0,0,0,0,0,-1,1077,1513,0,0
-140,-489,0,0,0,0,0,0,0,0,0,-1,1084,1513,0,0
-133,-489,0,0,0,0,0,0,0,0,0,-1,1091,1513,0,0
-126,-489,0,0,0,0,0,0,0,0,0,-1,1098,1513,0,0
-119,-489,0,0,0,0,0,0,0,0,0,-1,1105,1513,0,0
-112,-489,0,0,0,0,0,0,0,0,0,-1,1112,1513,0,0
-105,-489,0,0,0,0,0,0,0,0,0,-1,1119,1513,0,0
-98,-489,0,0,0,0,0,0,0,0,0,-1,1126,1513,0,0
-91,-489,0,0,0,0,0,0,0,0,0,-1,1133,1513,0,0
-84,-489,0,0,0,0,0,0,0,0,0,-1,1140,1513,0,0
-77,-489,0,0,0,0,0,0,0,0,0,-1,1147,1513,0,0
-70,-489,0,0,0,0,0,0,0,0,0,-1,1154,1513,0,0
-63,-489,0,0,0,0,0,0,0,0,0,-1,1161,1513,0,0
-56,-489,0,0,0,0,0,0,0,0,0,-1,1168,1513,0,0
-49,-489,0,0,0,0,0,0,0,0,0,-1,1175,1513,0,0
-42,-489,0,0,0,0,0,0,0,0,0,-1,1182,1513,0,0
-35,-489,0,0,0,0,0,0,0,0,0,-1,1189,1513,0,0
-28,-489,0,0,0,0,0,0,0,0,0,-1,1196,1513,0,0
-21,-489,0,0,0,0,0,0,0,0,0,-1,1203,1513,0,0
-14,-489,0,0,0,0,0,0,0,0,0,-1,1210,1513,0,0
-7,-489,0,0,0,0,0,0,0,0,0,-1,1217,1513,0,0
0,-489,0,0,0,0,0,0,0,0,0,-1,1224,1513,0,0
7,-489,0,0,0,0,0,0,0,0,0,-1,1231,1513,0,0
14,-489,0,0,0,0,0,0,0,0,0,-1,1238,1513,0,0
21,-489,0,0,0,0,0,0,0,0,0,-1,1245,1513,0,0
28,-489,0,0,0,0,0,0,0,0,0,-1,1252,1513,0,0
35,-489,0,0,0,0,0,0,0,0,0,-1,1259,1513,0,0
42,-489,0,0,0,0,0,0,0,0,0,-1,1266,1513,0,0
49,-489,0,0,0,0,0,0,0,0,0,-1,1273,1513,0,0
56,-489,0,0,0,0,0,0,0,0,0,-1,1280,1513,0,0
63,-489,0,0,0,0,0,0,0,0,0,-1,1287,1513,0,0
70,-489,0,0,0,0,0,0,0,0,0,-1,1294,1513,0,0
77,-489,0,0,0,0,0,0,0,0,0,-1,1301,1513,0,0
84,-489,0,0,0,0,0,0,0,0,0,-1,1308,1513,0,0
91,-489,0,0,0,0,0,0,0,0,0,-1,1315,1513,0,0
98,-489,0,0,0,0,0,0,0,0,0,-1,1322,1513,0,0
105,-489,0,0,0,0,0,0,0,0,0,-1,1329,1513,0,0
112,-489,0,0,0,0,0,0,0,0,0,-1,1336,1513,0,0
119,-489,0,0,0,0,0,0,0,0,0,-1,1343,1513,0,0
126,-489,0,0,0,0,0,0,0,0,0,-1,1350,1513,0,0
133,-489,0,0,0,0,0,0,0,0,0,-1,1357,1513,0,0
140,-489,0,0,0,0,0,0,0,0,0,-1,1364,1513,0,0
147,-489,0,0,0,0,0,0,0,0,0,-1,1371,1513,0,0
154,-489,0,0,0,0,0,0,0,0,0,-1,1378,1513,0,0
161,-489,0,0,0,0,0,0,0,0,0,-1,1385,1513,0,0
168,-489,0,0,0,0,0,0,0,0,0,-1,1392,1513,0,0
175,-489,0,0,0,0,0,0,0,0,0,-1,1399,1513,0,0
182,-489,0,0,0,0,0,0,0,0,0,-1,1406,1513,0,0
189,-489,0,0,0,0,0,0,0,0,0,-1,1413,1513,0,0
196,-489,0,0,0,0,0,0,0,0,0,-1,1420,1513,0,0
203,-489,0,0,0,0,0,0,0,0,0,-1,1427,1513,0,0
210,-489,0,0,0,0,0,0,0,0,0,-1,1434,1513,0,0
217,-489,0,0,0,0,0,0,0,0,0,-1,1441,1513,0,0
224,-489,0,0,0,0,0,0,0,0,0,-1,1448,1513,0,0
231,-489,0,0,0,0,0,0,0,0,0,-1,1455,1513,0,0
238,-489,0,0,0,0,0,0,0,0,0,-1,1462,1513,0,0
245,-489,0,0,0,0,0,0,0,0,0,-1,1469,1513,0,0
252,-489,0,0,0,0,0,0,0,0,0,-1,1476,1513,0,0
259,-489,0,0,0,0,0,0,0,0,0,-1,1483,1513,0,0
266,-489,0,0,0,0,0,0,0,0,0,-1,1490,1513,0,0
273,-489,0,0,0,0,0,0,0,0,0,-1,1497,1513,0,0
280,-489,0,0,0,0,0,0,0,0,0,-1,1504,1513,0,0
287,-489,0,0,0,0,0,0,0,0,0,-1,1511,1513,0,0
294,-489,0,0,0,0,0,0,0,0,0,-1,1518,1513,0,0
301,-489,0,0,0,0,0,0,0,0,0,-1,1525,1513,0,0
308,-489,0,0,0,0,0,0,0,0,0,-1,1532,1513,0,0
315,-489,0,0,0,0,0,0,0,0,0,-1,1539,1513,0,0
322,-489,0,0,0,0,0,0,0,0,0,-1,1546,1513,0,0
329,-489,0,0,0,0,0,0,0,0,0,-1,1553,1513,0,0
336,-489,0,0,0,0,0,0,0,0,0,-1,1560,1513,0,0
343,-489,0,0,0,0,0,0,0,0,0,-1,1567,1513,0,0
350,-489,0,0,0,0,0,0,0,0,0,-1,1574,1513,0,0
357,-489,0,0,0,0,0,0,0,0,0,-1,1581,1513,0,0
364,-489,0,0,0,0,0,0,0,0,0,-1,1588,1513,0,0
371,-489,0,0,0,0,0,0,0,0,0,-1,1595,1513,0,0
378,-489,0,0,0,0,0,0,0,0,0,-1,1602,1513,0,0
385,-489,0,0,0,0,0,0,0,0,0,-1,1609,1513,0,0
392,-489,0,0,0,0,0,0,0,0,0,-1,1616,1513,0,0
399,-489,0,0,0,0,0,0,0,0,0,-1,1623,1513,0,0
406,-489,0,0,0,0,0,0,0,0,0,-1,1630,1513,0,0
413,-489,0,0,0,0,0,0,0,0,0,-1,1637,1513,0,0
420,-489,0,0,0,0,0,0,0,0,0,-1,1644,1513,0,0
427,-489,0,0,0,0,0,0,0,0,0,-1,1651,1513,0,0
434,-489,0,0,0,0,0,0,0,0,0,-1,1658,1513,0,0
441,-489,11.4602,2.56787,0,0,0,0,0,0,0,-1,1665,1513,11.4602,-2.56786
448,-489,12.4425,1.72351,0,0,0,0,0,0,0,-1,1672,1513,12.4425,-1.72349
455,-489,12.5575,1.37463,0,0,0,0,0,0,0,-1,1679,1513,12.5575,-1.37469
462,-489,14.9784,3.84888,0,0,0,0,0,0,0,-1,1686,1513,14.9784,-3.84892
469,-489,15.1367,4.53101,0,0,0,0,0,0,0,-1,1693,1513,15.1368,-4.531
476,-489,15.5536,5.09338,0,0,0,0,0,0,0,-1,1700,1513,15.5536,-5.09339
483,-489,8.96912,8.37805,0,0,0,0,0,0,0,-1,1707,1513,8.96909,-8.37809
490,-489,10.5366,7.49561,0,0,0,0,0,0,0,-1,1714,1513,10.5367,-7.49558
497,-489,14.6051,11.8397,0,0,0,0,0,0,0,-1,1721,1513,14.6051,-11.8397
504,-489,16.7527,14.1735,0,0,0,0,0,0,0,-1,1728,1513,16.7527,-14.1735
511,-489,17.83,17.7993,0,0,0,0,0,0,0,-1,1735,1513,17.83,-17.7993
518,-489,16.4751,14.3682,0,0,0,0,0,0,0,-1,1742,1513,16.4751,-14.3682
525,-489,17.2606,17.4949,0,0,0,0,0,0,0,-1,1749,1513,17.2606,-17.4949
532,-489,19.397,21.0182,0,0,0,0,0,0,0,-1,1756,1513,19.397,-21.0182
539,-489,31.8036,37.8446,0,0,0,0,0,0,0,-1,1763,1513,31.8036,-37.8447
546,-489,61.3877,104.565,0,0,0,0,0,0,0,-1,1770,1513,61.3876,-104.565
553,-489,61.149,101.668,0,0,0,0,0,0,0,-1,1777,1513,61.149,-101.668
560,-489,60.7804,99.2097,0.00434505,0.00294499,-0.00248651,0.00622819,0.00106185,-0.648185,0.00384734,0.020256,1784,1513,60.7804,-99.2097
567,-489,60.3975,96.7454,0.00350958,0.00218192,-0.00176619,0.00473257,0.000958932,-0.605638,0.00288895,0.0203424,1791,1513,60.3974,-96.7454
574,-489,59.91,94.342,0.00300734,0.00170526,-0.001348,0.00385329,0.00085932,-0.560434,0.00233572,0.0193728,1798,1513,59.9101,-94.342
581,-489,59.5107,91.8733,0.00271581,0.00137897,-0.001122,0.0033534,0.000741378,-0.516759,0.00203402,0.0146837,1805,1513,59.5107,-91.8733
588,-489,59.1094,89.412,0.00262913,0.00125004,-0.0011554,0.00328511,0.000594068,-0.516365,0.00202136,0.0175284,1812,1513,59.1093,-89.412
595,-489,58.6906,87.0394,0.00283043,0.00129317,-0.00138345,0.00364443,0.000479166,-0.531836,0.0022867,0.0242598,1819,1513,58.6905,-87.0395
602,-489,58.2668,84.6407,0.00332204,0.00161724,-0.00193257,0.00458185,0.000357441,-0.577696,0.00294266,0.0305642,1826,1513,58.2669,-84.6408
609,-489,57.8311,82.1666,0.00397871,0.00206003,-0.00266312,0.00585001,0.000188732,-0.612518,0.00383864,0.0226137,1833,1513,57.8311,-82.1666
616,-489,57.4298,79.6583,0.00492638,0.00285348,-0.00367428,0.0077076,7.2259e-05,-0.647929,0.00511448,0.0469365,1840,1513,57.4299,-79.6583
623,-489,57.0544,76.9498,0,0,0,0,0,0,0,-1,1847,1513,57.0544,-76.9498
630,-489,30.3123,23.9675,0,0,0,0,0,0,0,-1,1854,1513,30.3123,-23.9676
637,-489,17.2048,11.8091,0,0,0,0,0,0,0,-1,1861,1513,17.2048,-11.8091
644,-489,9.67578,8.45874,0,0,0,0,0,0,0,-1,1868,1513,9.67576,-8.45879
651,-489,6.13818,6.85095,0,0,0,0,0,0,0,-1,1875,1513,6.13823,-6.85097
658,-489,5.43848,7.75513,0,0,0,0,0,0,0,-1,1882,1513,5.43844,-7.75509
665,-489,5.48438,8.59912,0,0,0,0,0,0,0,-1,1889,1513,5.48434,-8.59907
672,-489,0,0,0,0,0,0,0,0,0,-1,1896,1513,0,0
679,-489,0,0,0,0,0,0,0,0,0,-1,1903,1513,0,0
686,-489,0,0,0,0,0,0,0,0,0,-1,1910,1513,0,0
693,-489,0,0,0,0,0,0,0,0,0,-1,1917,1513,0,0
700,-489,0,0,0,0,0,0,0,0,0,-1,1924,1513,0,0
707,-489,0,0,0,0,0,0,0,0,0,-1,1931,1513,0,0
714,-489,0,0,0,0,0,0,0,0,0,-1,1938,1513,0,0
721,-489,0,0,0,0,0,0,0,0,0,-1,1945,1513,0,0
728,-489,0,0,0,0,0,0,0,0,0,-1,1952,1513,0,0
735,-489,0,0,0,0,0,0,0,0,0,-1,1959,1513,0,0
742,-489,0,0,0,0,0,0,0,0,0,-1,1966,1513,0,0
749,-489,0,0,0,0,0,0,0,0,0,-1,1973,1513,0,0
756,-489,0,0,0,0,0,0,0,0,0,-1,1980,1513,0,0
763,-489,0,0,0,0,0,0,0,0,0,-1,1987,1513,0,0
770,-489,0,0,0,0,0,0,0,0,0,-1,1994,1513,0,0
777,-489,0,0,0,0,0,0,0,0,0,-1,2001,1513,0,0
784,-489,0,0,0,0,0,0,0,0,0,-1,2008,1513,0,0
791,-489,0,0,0,0,0,0,0,0,0,-1,2015,1513,0,0
798,-489,0,0,0,0,0,0,0,0,0,-1,2022,1513,0,0
805,-489,0,0,0,0,0,0,0,0,0,-1,2029,1513,0,0
812,-489,0,0,0,0,0,0,0,0,0,-1,2036,1513,0,0
-700,-496,0,0,0,0,0,0,0,0,0,-1,524,1520,0,0
-693,-496,0,0,0,0,0,0,0,0,0,-1,531,1520,0,0
-686,-496,0,0,0,0,0,0,0,0,0,-1,538,1520,0,0
-679,-496,0,0,0,0,0,0,0,0,0,-1,545,1520,0,0
-672,-496,0,0,0,0,0,0,0,0,0,-1,552,1520,0,0
-665,-496,0,0,0,0,0,0,0,0,0,-1,559,1520,0,0
-658,-496,0,0,0,0,0,0,0,0,0,-1,566,1520,0,0
-651,-496,0,0,0,0,0,0,0,0,0,-1,573,1520,0,0
-644,-496,0,0,0,0,0,0,0,0,0,-1,580,1520,0,0
-637,-496,0,0,0,0,0,0,0,0,0,-1,587,1520,0,0
-630,-496,0,0,0,0,0,0,0,0,0,-1,594,1520,0,0
-623,-496,0,0,0,0,0,0,0,0,0,-1,601,1520,0,0
-616,-496,0,0,0,0,0,0,0,0,0,-1,608,1520,0,0
-609,-496,0,0,0,0,0,0,0,0,0,-1,615,1520,0,0
-602,-496,0,0,0,0,0,0,0,0,0,-1,622,1520,0,0
-595,-496,0,0,0,0,0,0,0,0,0,-1,629,1520,0,0
-588,-496,0,0,0,0,0,0,0,0,0,-1,636,1520,0,0
-581,-496,0,0,0,0,0,0,0,0,0,-1,643,1520,0,0
-574,-496,0,0,0,0,0,0,0,0,0,-1,650,1520,0,0
-567,-496,0,0,0,0,0,0,0,0,0,-1,657,1520,0,0
-560,-496,0,0,0,0,0,0,0,0,0,-1,664,1520,0,0
-553,-496,0,0,0,0,0,0,0,0,0,-1,671,1520,0,0
-546,-496,-8.09711,7.94836,0,0,0,0,0,0,0,-1,678,1520,-8.09712,-7.94842
-539,-496,-3.20129,1.16052,0,0,0,0,0,0,0,-1,685,1520,-3.20131,-1.16054
-532,-496,-2.98279,2.62146,0,0,0,0,0,0,0,-1,692,1520,-2.98278,-2.62151
-525,-496,-2.75201,4.08032,0,0,0,0,0,0,0,-1,699,1520,-2.75201,-4.08031
-518,-496,-2.6333,5.36072,0,0,0,0,0,0,0,-1,706,1520,-2.63328,-5.36077
-511,-496,-7.92126,9.68604,0,0,0,0,0,0,0,-1,713,1520,-7.92127,-9.68598
-504,-496,-7.51044,11.6274,0,0,0,0,0,0,0,-1,720,1520,-7.51042,-11.6275
-497,-496,-5.30933,14.4291,0,0,0,0,0,0,0,-1,727,1520,-5.30932,-14.4291
-490,-496,-8.21246,19.5051,0,0,0,0,0,0,0,-1,734,1520,-8.21243,-19.5051
-483,-496,-20.4368,40.3196,0,0,0,0,0,0,0,-1,741,1520,-20.4368,-40.3195
-476,-496,-49.7823,81.5604,0,0,0,0,0,0,0,-1,748,1520,-49.7823,-81.5605
-469,-496,-50.1337,84.275,0.00183462,0.00438809,0.00209684,0.00556631,0.000656405,1.05886,0.00351257,0.0166984,755,1520,-50.1337,-84.275
-462,-496,-50.5662,86.7622,0.00172983,0.00296509,0.0015672,0.00403197,0.000662942,0.973102,0.00249652,0.0194724,762,1520,-50.5662,-86.7623
-455,-496,-51.0261,89.2517,0.00176328,0.00184006,0.00120483,0.00300711,0.000596226,0.801323,0.00183851,0.0243769,769,1520,-51.026,-89.2518
-448,-496,-51.4615,91.6676,0.00196435,0.000896773,0.000919011,0.00249335,0.000367777,0.522296,0.00155421,0.0227871,776,1520,-51.4616,-91.6676
-441,-496,-51.8735,94.0502,0.00224149,0.000125197,0.000738255,0.00247357,-0.000106887,0.304586,0.00168581,0.0176697,783,1520,-51.8735,-94.0502
-434,-496,-52.3005,96.4755,0.00259609,-0.00059497,0.000601161,0.00270559,-0.000704465,0.180164,0.00207873,0.016318,790,1520,-52.3005,-96.4755
-427,-496,-52.6929,98.9396,0.00303349,-0.00131378,0.000427187,0.00307507,-0.00135536,0.0970289,0.00262135,0.0206177,797,1520,-52.6929,-98.9396
-420,-496,-53.0845,101.377,0.00356939,-0.0020987,0.000247527,0.00358018,-0.00210949,0.0435598,0.00332131,0.023262,804,1520,-53.0845,-101.377
-413,-496,-53.5619,103.849,0,0,0,0,0,0,0,-1,811,1520,-53.5619,-103.849
-406,-496,-48.9747,99.7778,0,0,0,0,0,0,0,-1,818,1520,-48.9747,-99.7778
-399,-496,-11.5063,36.5204,0,0,0,0,0,0,0,-1,825,1520,-11.5063,-36.5204
-392,-496,-1.49786,12.387,0,0,0,0,0,0,0,-1,832,1520,-1.49788,-12.387
-385,-496,-1.72437,11.4985,0,0,0,0,0,0,0,-1,839,1520,-1.72436,-11.4985
-378,-496,-1.45532,14.0719,0,0,0,0,0,0,0,-1,846,1520,-1.45533,-14.0719
-371,-496,0.0877075,12.5299,0,0,0,0,0,0,0,-1,853,1520,0.0876896,-12.5299
-364,-496,0.0881348,10.6422,0,0,0,0,0,0,0,-1,860,1520,0.0881368,-10.6423
-357,-496,0.323792,7.56812,0,0,0,0,0,0,0,-1,867,1520,0.323782,-7.56806
-350,-496,2.1535,7.18945,0,0,0,0,0,0,0,-1,874,1520,2.15348,-7.1894
-343,-496,-7.56244,0.335327,0,0,0,0,0,0,0,-1,881,1520,-7.56242,-0.335322
-336,-496,-3.99249,6.02222,0,0,0,0,0,0,0,-1,888,1520,-3.99246,-6.0222
-329,-496,-6.93689,-0.100342,0,0,0,0,0,0,0,-1,895,1520,-6.93686,0.1003
-322,-496,-6.17505,0.494385,0,0,0,0,0,0,0,-1,902,1520,-6.17507,-0.49437
-315,-496,-7.539,5.78638,0,0,0,0,0,0,0,-1,909,1520,-7.53898,-5.78633
-308,-496,0,0,0,0,0,0,0,0,0,-1,916,1520,0,0
-301,-496,0,0,0,0,0,0,0,0,0,-1,923,1520,0,0
-294,-496,0,0,0,0,0,0,0,0,0,-1,930,1520,0,0
-287,-496,0,0,0,0,0,0,0,0,0,-1,937,1520,0,0
-280,-496,0,0,0,0,0,0,0,0,0,-1,944,1520,0,0
-273,-496,0,0,0,0,0,0,0,0,0,-1,951,1520,0,0
-266,-496,0,0,0,0,0,0,0,0,0,-1,958,1520,0,0
-259,-496,0,0,0,0,0,0,0,0,0,-1,965,1520,0,0
-252,-496,0,0,0,0,0,0,0,0,0,-1,972,1520,0,0
-245,-496,0,0,0,0,0,0,0,0,0,-1,979,1520,0,0
-238,-496,0,0,0,0,0,0,0,0,0,-1,986,1520,0,0
-231,-496,0,0,0,0,0,0,0,0,0,-1,993,1520,0,0
-224,-496,0,0,0,0,0,0,0,0,0,-1,1000,1520,0,0
-217,-496,0,0,0,0,0,0,0,0,0,-1,1007,1520,0,0
-210,-496,0,0,0,0,0,0,0,0,0,-1,1014,1520,0,0
-203,-496,0,0,0,0,0,0,0,0,0,-1,1021,1520,0,0
-196,-496,0,0,0,0,0,0,0,0,0,-1,1028,1520,0,0
-189,-496,0,0,0,0,0,0,0,0,0,-1,1035,1520,0,0
-182,-496,0,0,0,0,0,0,0,0,0,-1,1042,1520,0,0
-175,-496,0,0,0,0,0,0,0,0,0,-1,1049,1520,0,0
-168,-496,0,0,0,0,0,0,0,0,0,-1,1056,1520,0,0
-161,-496,0,0,0,0,0,0,0,0,0,-1,1063,1520,0,0
-154,-496,0,0,0,0,0,0,0,0,0,-1,1070,1520,0,0
-147,-496,0,0,0,0,0,0,0,0,0,-1,1077,1520,0,0
-140,-496,0,0,0,0,0,0,0,0,0,-1,1084,1520,0,0
-133,-496,0,0,0,0,0,0,0,0,0,-1,1091,1520,0,0
-126,-496,0,0,0,0,0,0,0,0,0,-1,1098,1520,0,0
-119,-496,0,0,0,0,0,0,0,0,0,-1,1105,1520,0,0
-112,-496,0,0,0,0,0,0,0,0,0,-1,1112,1520,0,0
-105,-496,0,0,0,0,0,0,0,0,0,-1,1119,1520,0,0
-98,-496,0,0,0,0,0,0,0,0,0,-1,1126,1520,0,0
-91,-496,0,0,0,0,0,0,0,0,0,-1,1133,1520,0,0
-84,-496,0,0,0,0,0,0,0,0,0,-1,1140,1520,0,0
-77,-496,0,0,0,0,0,0,0,0,0,-1,1147,1520,0,0
-70,-496,0,0,0,0,0,0,0,0,0,-1,1154,1520,0,0
-63,-496,0,0,0,0,0,0,0,0,0,-1,1161,1520,0,0
-56,-496,0,0,0,0,0,0,0,0,0,-1,1168,1520,0,0
-49,-496,0,0,0,0,0,0,0,0,0,-1,1175,1520,0,0
-42,-496,0,0,0,0,0,0,0,0,0,-1,1182,1520,0,0
-35,-496,0,0,0,0,0,0,0,0,0,-1,1189,1520,0,0
-28,-496,0,0,0,0,0,0,0,0,0,-1,1196,1520,0,0
-21,-496,0,0,0,0,0,0,0,0,0,-1,1203,1520,0,0
-14,-496,0,0,0,0,0,0,0,0,0,-1,1210,1520,0,0
-7,-496,0,0,0,0,0,0,0,0,0,-1,1217,1520,0,0
0,-496,0,0,0,0,0,0,0,0,0,-1,1224,1520,0,0
7,-496,0,0,0,0,0,0,0,0,0,-1,1231,1520,0,0
14,-496,0,0,0,0,0,0,0,0,0,-1,1238,1520,0,0
21,-496,0,0,0,0,0,0,0,0,0,-1,1245,1520,0,0
28,-496,0,0,0,0,0,0,0,0,0,-1,1252,1520,0,0
35,-496,0,0,0,0,0,0,0,0,0,-1,1259,1520,0,0
42,-496,0,0,0,0,0,0,0,0,0,-1,1266,1520,0,0
49,-496,0,0,0,0,0,0,0,0,0,-1,1273,1520,0,0
56,-496,0,0,0,0,0,0,0,0,0,-1,1280,1520,0,0
63,-496,0,0,0,0,0,0,0,0,0,-1,1287,1520,0,0
70,-496,0,0,0,0,0,0,0,0,0,-1,1294,1520,0,0
77,-496,0,0,0,0,0,0,0,0,0,-1,1301,1520,0,0
84,-496,0,0,0,0,0,0,0,0,0,-1,1308,1520,0,0
91,-496,0,0,0,0,0,0,0,0,0,-1,1315,1520,0,0
98,-496,0,0,0,0,0,0,0,0,0,-1,1322,1520,0,0
105,-496,0,0,0,0,0,0,0,0,0,-1,1329,1520,0,0
112,-496,0,0,0,0,0,0,0,0,0,-1,1336,1520,0,0
119,-496,0,0,0,0,0,0,0,0,0,-1,1343,1520,0,0
126,-496,0,0,0,0,0,0,0,0,0,-1,1350,1520,0,0
133,-496,0,0,0,0,0,0,0,0,0,-1,1357,1520,0,0
140,-496,0,0,0,0,0,0,0,0,0,-1,1364,1520,0,0
147,-496,0,0,0,0,0,0,0,0,0,-1,1371,1520,0,0
154,-496,0,0,0,0,0,0,0,0,0,-1,1378,1520,0,0
161,-496,0,0,0,0,0,0,0,0,0,-1,1385,1520,0,0
168,-496,0,0,0,0,0,0,0,0,0,-1,1392,1520,0,0
175,-496,0,0,0,0,0,0,0,0,0,-1,1399,1520,0,0
182,-496,0,0,0,0,0,0,0,0,0,-1,1406,1520,0,0
189,-496,0,0,0,0,0,0,0,0,0,-1,1413,1520,0,0
196,-496,0,0,0,0,0,0,0,0,0,-1,1420,1520,0,0
203,-496,0,0,0,0,0,0,0,0,0,-1,1427,1520,0,0
210,-496,0,0,0,0,0,0,0,0,0,-1,1434,1520,0,0
217,-496,0,0,0,0,0,0,0,0,0,-1,1441,1520,0,0
224,-496,0,0,0,0,0,0,0,0,0,-1,1448,1520,0,0
231,-496,0,0,0,0,0,0,0,0,0,-1,1455,1520,0,0
238,-496,0,0,0,0,0,0,0,0,0,-1,1462,1520,0,0
245,-496,0,0,0,0,0,0,0,0,0,-1,1469,1520,0,0
252,-496,0,0,0,0,0,0,0,0,0,-1,1476,1520,0,0
259,-496,0,0,0,0,0,0,0,0,0,-1,1483,1520,0,0
266,-496,0,0,0,0,0,0,0,0,0,-1,1490,1520,0,0
273,-496,0,0,0,0,0,0,0,0,0,-1,1497,1520,0,0
280,-496,0,0,0,0,0,0,0,0,0,-1,1504,1520,0,0
287,-496,0,0,0,0,0,0,0,0,0,-1,1511,1520,0,0
294,-496,0,0,0,0,0,0,0,0,0,-1,1518,1520,0,0
301,-496,0,0,0,0,0,0,0,0,0,-1,1525,1520,0,0
308,-496,0,0,0,0,0,0,0,0,0,-1,1532,1520,0,0
315,-496,0,0,0,0,0,0,0,0,0,-1,1539,1520,0,0
322,-496,0,0,0,0,0,0,0,0,0,-1,1546,1520,0,0
329,-496,0,0,0,0,0,0,0,0,0,-1,1553,1520,0,0
336,-496,0,0,0,0,0,0,0,0,0,-1,1560,1520,0,0
343,-496,0,0,0,0,0,0,0,0,0,-1,1567,1520,0,0
350,-496,0,0,0,0,0,0,0,0,0,-1,1574,1520,0,0
357,-496,0,0,0,0,0,0,0,0,0,-1,1581,1520,0,0
364,-496,0,0,0,0,0,0,0,0,0,-1,1588,1520,0,0
371,-496,0,0,0,0,0,0,0,0,0,-1,1595,1520,0,0
378,-496,0,0,0,0,0,0,0,0,0,-1,1602,1520,0,0
385,-496,0,0,0,0,0,0,0,0,0,-1,1609,1520,0,0
392,-496,0,0,0,0,0,0,0,0,0,-1,1616,1520,0,0
399,-496,0,0,0,0,0,0,0,0,0,-1,1623,1520,0,0
406,-496,0,0,0,0,0,0,0,0,0,-1,1630,1520,0,0
413,-496,0,0,0,0,0,0,0,0,0,-1,1637,1520,0,0
420,-496,0,0,0,0,0,0,0,0,0,-1,1644,1520,0,0
427,-496,0,0,0,0,0,0,0,0,0,-1,1651,1520,0,0
434,-496,11.0457,3.37732,0,0,0,0,0,0,0,-1,1658,1520,11.0456,-3.37736
441,-496,11.788,2.75488,0,0,0,0,0,0,0,-1,1665,1520,11.7879,-2.75485
448,-496,12.2146,2.18494,0,0,0,0,0,0,0,-1,1672,1520,12.2146,-2.18489
455,-496,12.3489,1.65173,0,0,0,0,0,0,0,-1,1679,1520,12.3489,-1.65178
462,-496,12.1912,1.32361,0,0,0,0,0,0,0,-1,1686,1520,12.1911,-1.32357
469,-496,14.8138,5.77954,0,0,0,0,0,0,0,-1,1693,1520,14.8138,-5.77958
476,-496,15.2449,6.27942,0,0,0,0,0,0,0,-1,1700,1520,15.2449,-6.27936
483,-496,9.19812,6.88367,0,0,0,0,0,0,0,-1,1707,1520,9.19812,-6.88361
490,-496,10.2123,7.97144,0,0,0,0,0,0,0,-1,1714,1520,10.2122,-7.97145
497,-496,13.9297,12.2981,0,0,0,0,0,0,0,-1,1721,1520,13.9297,-12.2982
504,-496,16.3271,16.6501,0,0,0,0,0,0,0,-1,1728,1520,16.3272,-16.6502
511,-496,17.6753,18.0685,0,0,0,0,0,0,0,-1,1735,1520,17.6753,-18.0685
518,-496,17.0537,17.3118,0,0,0,0,0,0,0,-1,1742,1520,17.0538,-17.3118
525,-496,18.2721,19.3259,0,0,0,0,0,0,0,-1,1749,1520,18.2721,-19.3259
532,-496,31.3234,37.6648,0,0,0,0,0,0,0,-1,1756,1520,31.3234,-37.6648
539,-496,59.2336,107.516,0,0,0,0,0,0,0,-1,1763,1520,59.2336,-107.516
546,-496,59.0183,104.74,0.00538579,0.00379501,-0.00347731,0.00815752,0.00102328,-0.672964,0.00513138,0.0483215,1770,1520,59.0183,-104.74
553,-496,58.7936,101.978,0.00444342,0.00310265,-0.00267454,0.00653031,0.00101576,-0.662601,0.00405756,0.020403,1777,1520,58.7935,-101.978
560,-496,58.4165,99.5754,0.00370374,0.0025604,-0.00199862,0.00521085,0.00105329,-0.646101,0.00318146,0.0207544,1784,1520,58.4165,-99.5754
567,-496,57.951,97.1431,0.00317795,0.001992,-0.00152918,0.0042251,0.000944849,-0.600437,0.00256057,0.0173724,1791,1520,57.9511,-97.1431
574,-496,57.488,94.7208,0.00293611,0.00167713,-0.00128516,0.00373767,0.000875569,-0.557664,0.00225725,0.0166516,1798,1520,57.488,-94.7208
581,-496,57.0759,92.2958,0.0028527,0.00148361,-0.00120501,0.00355403,0.000782275,-0.527088,0.00215642,0.0180298,1805,1520,57.076,-92.2957
588,-496,56.7103,89.8533,0.00294107,0.00147164,-0.00138337,0.00377273,0.000639982,-0.541288,0.00233129,0.0212623,1812,1520,56.7103,-89.8533
595,-496,56.2788,87.4919,0.00327652,0.00163275,-0.00175135,0.00438924,0.000520024,-0.56601,0.00276914,0.0232145,1819,1520,56.2788,-87.492
602,-496,55.8395,85.0854,0.00404486,0.00219795,-0.00257621,0.00585812,0.000384683,-0.613305,0.00378371,0.0226602,1826,1520,55.8395,-85.0855
609,-496,55.4874,82.5876,0.00494349,0.00271852,-0.00351345,0.00751637,0.000145631,-0.632074,0.00496308,0.0312373,1833,1520,55.4875,-82.5876
616,-496,55.1478,79.6543,0,0,0,0,0,0,0,-1,1840,1520,55.1478,-79.6543
623,-496,28.9139,24.1847,0,0,0,0,0,0,0,-1,1847,1520,28.9139,-24.1846
630,-496,18.5656,13.8966,0,0,0,0,0,0,0,-1,1854,1520,18.5655,-13.8967
637,-496,14.6411,10.1016,0,0,0,0,0,0,0,-1,1861,1520,14.6411,-10.1016
644,-496,12.4537,10.087,0,0,0,0,0,0,0,-1,1868,1520,12.4537,-10.0871
651,-496,8.18506,5.47803,0,0,0,0,0,0,0,-1,1875,1520,8.18505,-5.47806
658,-496,7.79993,4.02563,0,0,0,0,0,0,0,-1,1882,1520,7.79997,-4.02568
665,-496,5.47583,7.90625,0,0,0,0,0,0,0,-1,1889,1520,5.47581,-7.90628
672,-496,0,0,0,0,0,0,0,0,0,-1,1896,1520,0,0
679,-496,0,0,0,0,0,0,0,0,0,-1,1903,1520,0,0
686,-496,0,0,0,0,0,0,0,0,0,-1,1910,1520,0,0
693,-496,0,0,0,0,0,0,0,0,0,-1,1917,1520,0,0
700,-496,0,0,0,0,0,0,0,0,0,-1,1924,1520,0,0
707,-496,0,0,0,0,0,0,0,0,0,-1,1931,1520,0,0
714,-496,0,0,0,0,0,0,0,0,0,-1,1938,1520,0,0
721,-496,0,0,0,0,0,0,0,0,0,-1,1945,1520,0,0
728,-496,0,0,0,0,0,0,0,0,0,-1,1952,1520,0,0
735,-496,0,0,0,0,0,0,0,0,0,-1,1959,1520,0,0
742,-496,0,0,0,0,0,0,0,0,0,-1,1966,1520,0,0
749,-496,0,0,0,0,0,0,0,0,0,-1,1973,1520,0,0
756,-496,0,0,0,0,0,0,0,0,0,-1,1980,1520,0,0
763,-496,0,0,0,0,0,0,0,0,0,-1,1987,1520,0,0
770,-496,0,0,0,0,0,0,0,0,0,-1,1994,1520,0,0
777,-496,0,0,0,0,0,0,0,0,0,-1,2001,1520,0,0
784,-496,0,0,0,0,0,0,0,0,0,-1,2008,1520,0,0
791,-496,0,0,0,0,0,0,0,0,0,-1,2015,1520,0,0
798,-496,0,0,0,0,0,0,0,0,0,-1,2022,1520,0,0
805,-496,0,0,0,0,0,0,0,0,0,-1,2029,1520,0,0
812,-496,0,0,0,0,0,0,0,0,0,-1,2036,1520,0,0
-700,-503,0,0,0,0,0,0,0,0,0,-1,524,1527,0,0
-693,-503,0,0,0,0,0,0,0,0,0,-1,531,1527,0,0
-686,-503,0,0,0,0,0,0,0,0,0,-1,538,1527,0,0
-679,-503,0,0,0,0,0,0,0,0,0,-1,545,1527,0,0
-672,-503,0,0,0,0,0,0,0,0,0,-1,552,1527,0,0
-665,-503,0,0,0,0,0,0,0,0,0,-1,559,1527,0,0
-658,-503,0,0,0,0,0,0,0,0,0,-1,566,1527,0,0
-651,-503,0,0,0,0,0,0,0,0,0,-1,573,1527,0,0
-644,-503,0,0,0,0,0,0,0,0,0,-1,580,1527,0,0
-637,-503,0,0,0,0,0,0,0,0,0,-1,587,1527,0,0
-630,-503,0,0,0,0,0,0,0,0,0,-1,594,1527,0,0
-623,-503,0,0,0,0,0,0,0,0,0,-1,601,1527,0,0
-616,-503,0,0,0,0,0,0,0,0,0,-1,608,1527,0,0
-609,-503,0,0,0,0,0,0,0,0,0,-1,615,1527,0,0
-602,-503,0,0,0,0,0,0,0,0,0,-1,622,1527,0,0
-595,-503,0,0,0,0,0,0,0,0,0,-1,629,1527,0,0
-588,-503,0,0,0,0,0,0,0,0,0,-1,636,1527,0,0
-581,-503,0,0,0,0,0,0,0,0,0,-1,643,1527,0,0
-574,-503,0,0,0,0,0,0,0,0,0,-1,650,1527,0,0
-567,-503,0,0,0,0,0,0,0,0,0,-1,657,1527,0,0
-560,-503,0,0,0,0,0,0,0,0,0,-1,664,1527,0,0
-553,-503,0,0,0,0,0,0,0,0,0,-1,671,1527,0,0
-546,-503,0,0,0,0,0,0,0,0,0,-1,678,1527,0,0
-539,-503,3.50177,4.26428,0,0,0,0,0,0,0,-1,685,1527,3.50177,-4.26424
-532,-503,-3.13196,1.05298,0,0,0,0,0,0,0,-1,692,1527,-3.13194,-1.05299
-525,-503,-2.94293,2.59314,0,0,0,0,0,0,0,-1,699,1527,-2.94296,-2.59314
-518,-503,-2.7395,4.05872,0,0,0,0,0,0,0,-1,706,1527,-2.73948,-4.05871
-511,-503,-1.60022,7.23877,0,0,0,0,0,0,0,-1,713,1527,-1.60023,-7.23872
-504,-503,-8.1402,10.1541,0,0,0,0,0,0,0,-1,720,1527,-8.14017,-10.1541
-497,-503,-4.51758,14.0781,0,0,0,0,0,0,0,-1,727,1527,-4.5176,-14.0782
-490,-503,-4.24194,16.1982,0,0,0,0,0,0,0,-1,734,1527,-4.24196,-16.1982
-483,-503,-9.55774,23.7681,0,0,0,0,0,0,0,-1,741,1527,-9.55776,-23.7681
-476,-503,-35.8533,66.9409,0,0,0,0,0,0,0,-1,748,1527,-35.8533,-66.9409
-469,-503,-47.746,84.6747,0,0,0,0,0,0,0,-1,755,1527,-47.746,-84.6746
-462,-503,-48.1537,87.2196,0.00162484,0.00396258,0.00192904,0.00504925,0.000538179,1.05778,0.00320189,0.0152098,762,1527,-48.1538,-87.2195
-455,-503,-48.5955,89.6494,0.00160829,0.00274046,0.00148284,0.00376159,0.000587159,0.967739,0.00233673,0.0215124,769,1527,-48.5955,-89.6494
-448,-503,-48.9938,92.0614,0.00173476,0.00173608,0.00112747,0.0028629,0.000607945,0.785692,0.00174168,0.0196254,776,1527,-48.9938,-92.0615
-441,-503,-49.3947,94.4736,0.00194552,0.000876204,0.000862031,0.00242524,0.000396488,0.507816,0.00150221,0.0159109,783,1527,-49.3947,-94.4736
-434,-503,-49.8462,96.9137,0.00222575,6.38068e-05,0.000632257,0.00239708,-0.000107519,0.26462,0.00163507,0.0137944,790,1527,-49.8462,-96.9137
-427,-503,-50.309,99.3345,0.00257545,-0.0007169,0.000366253,0.0026157,-0.000757151,0.109461,0.00204349,0.0223854,797,1527,-50.3091,-99.3345
-420,-503,-50.6755,101.768,0.00300369,-0.0015509,9.02964e-05,0.00300548,-0.00155269,0.019815,0.00267584,0.0245318,804,1527,-50.6755,-101.768
-413,-503,-51.0964,104.195,0.00347896,-0.00234163,-0.000154663,0.00348307,-0.00234574,-0.0265467,0.00338655,0.0226845,811,1527,-51.0964,-104.195
-406,-503,-51.4927,106.616,0,0,0,0,0,0,0,-1,818,1527,-51.4927,-106.616
-399,-503,-51.7996,108.959,0,0,0,0,0,0,0,-1,825,1527,-51.7996,-108.959
-392,-503,-10.7637,37.4486,0,0,0,0,0,0,0,-1,832,1527,-10.7637,-37.4486
-385,-503,-2.00403,14.1218,0,0,0,0,0,0,0,-1,839,1527,-2.00403,-14.1218
-378,-503,-2.07043,13.8632,0,0,0,0,0,0,0,-1,846,1527,-2.07043,-13.8631
-371,-503,-1.67285,13.8081,0,0,0,0,0,0,0,-1,853,1527,-1.67285,-13.8081
-364,-503,0.181396,12.3768,0,0,0,0,0,0,0,-1,860,1527,0.18138,-12.3768
-357,-503,0.558533,9.25452,0,0,0,0,0,0,0,-1,867,1527,0.558542,-9.25446
-350,-503,0.219971,6.84827,0,0,0,0,0,0,0,-1,874,1527,0.21996,-6.84831
-343,-503,-3.5802,4.43274,0,0,0,0,0,0,0,-1,881,1527,-3.58018,-4.43276
-336,-503,-3.2384,6.40637,0,0,0,0,0,0,0,-1,888,1527,-3.2384,-6.40643
-329,-503,-1.70691,11.886,0,0,0,0,0,0,0,-1,895,1527,-1.70689,-11.886
-322,-503,-3.31317,8.81519,0,0,0,0,0,0,0,-1,902,1527,-3.31315,-8.81524
-315,-503,-3.90265,7.73853,0,0,0,0,0,0,0,-1,909,1527,-3.90264,-7.73854
-308,-503,-1.70264,7.35413,0,0,0,0,0,0,0,-1,916,1527,-1.70262,-7.35416
-301,-503,0,0,0,0,0,0,0,0,0,-1,923,1527,0,0
-294,-503,0,0,0,0,0,0,0,0,0,-1,930,1527,0,0
-287,-503,0,0,0,0,0,0,0,0,0,-1,937,1527,0,0
-280,-503,0,0,0,0,0,0,0,0,0,-1,944,1527,0,0
-273,-503,0,0,0,0,0,0,0,0,0,-1,951,1527,0,0
-266,-503,0,0,0,0,0,0,0,0,0,-1,958,1527,0,0
-259,-503,0,0,0,0,0,0,0,0,0,-1,965,1527,0,0
-252,-503,0,0,0,0,0,0,0,0,0,-1,972,1527,0,0
-245,-503,0,0,0,0,0,0,0,0,0,-1,979,1527,0,0
-238,-503,0,0,0,0,0,0,0,0,0,-1,986,1527,0,0
-231,-503,0,0,0,0,0,0,0,0,0,-1,993,1527,0,0
-224,-503,0,0,0,0,0,0,0,0,0,-1,1000,1527,0,0
-217,-503,0,0,0,0,0,0,0,0,0,-1,1007,1527,0,0
-210,-503,0,0,0,0,0,0,0,0,0,-1,1014,1527,0,0
-203,-503,0,0,0,0,0,0,0,0,0,-1,1021,1527,0,0
-196,-503,0,0,0,0,0,0,0,0,0,-1,1028,1527,0,0
-189,-503,0,0,0,0,0,0,0,0,0,-1,1035,1527,0,0
-182,-503,0,0,0,0,0,0,0,0,0,-1,1042,1527,0,0
-175,-503,0,0,0,0,0,0,0,0,0,-1,1049,1527,0,0
-168,-503,0,0,0,0,0,0,0,0,0,-1,1056,1527,0,0
-161,-503,0,0,0,0,0,0,0,0,0,-1,1063,1527,0,0
-154,-503,0,0,0,0,0,0,0,0,0,-1,1070,1527,0,0
-147,-503,0,0,0,0,0,0,0,0,0,-1,1077,1527,0,0
-140,-503,0,0,0,0,0,0,0,0,0,-1,1084,1527,0,0
-133,-503,0,0,0,0,0,0,0,0,0,-1,1091,1527,0,0
-126,-503,0,0,0,0,0,0,0,0,0,-1,1098,1527,0,0
-119,-503,0,0,0,0,0,0,0,0,0,-1,1105,1527,0,0
-112,-503,0,0,0,0,0,0,0,0,0,-1,1112,1527,0,0
-105,-503,0,0,0,0,0,0,0,0,0,-1,1119,1527,0,0
-98,-503,0,0,0,0,0,0,0,0,0,-1,1126,1527,0,0
-91,-503,0,0,0,0,0,0,0,0,0,-1,1133,1527,0,0
-84,-503,0,0,0,0,0,0,0,0,0,-1,1140,1527,0,0
-77,-503,0,0,0,0,0,0,0,0,0,-1,1147,1527,0,0
-70,-503,0,0,0,0,0,0,0,0,0,-1,1154,1527,0,0
-63,-503,0,0,0,0,0,0,0,0,0,-1,1161,1527,0,0
-56,-503,0,0,0,0,0,0,0,0,0,-1,1168,1527,0,0
-49,-503,0,0,0,0,0,0,0,0,0,-1,1175,1527,0,0
-42,-503,0,0,0,0,0,0,0,0,0,-1,1182,1527,0,0
-35,-503,0,0,0,0,0,0,0,0,0,-1,1189,1527,0,0
-28,-503,0,0,0,0,0,0,0,0,0,-1,1196,1527,0,0
-21,-503,0,0,0,0,0,0,0,0,0,-1,1203,1527,0,0
-14,-503,0,0,0,0,0,0,0,0,0,-1,1210,1527,0,0
-7,-503,0,0,0,0,0,0,0,0,0,-1,1217,1527,0,0
0,-503,0,0,0,0,0,0,0,0,0,-1,1224,1527,0,0
7,-503,0,0,0,0,0,0,0,0,0,-1,1231,1527,0,0
14,-503,0,0,0,0,0,0,0,0,0,-1,1238,1527,0,0
21,-503,0,0,0,0,0,0,0,0,0,-1,1245,1527,0,0
28,-503,0,0,0,0,0,0,0,0,0,-1,1252,1527,0,0
35,-503,0,0,0,0,0,0,0,0,0,-1,1259,1527,0,0
42,-503,0,0,0,0,0,0,0,0,0,-1,1266,1527,0,0
49,-503,0,0,0,0,0,0,0,0,0,-1,1273,1527,0,0
56,-503,0,0,0,0,0,0,0,0,0,-1,1280,1527,0,0
63,-503,0,0,0,0,0,0,0,0,0,-1,1287,1527,0,0
70,-503,0,0,0,0,0,0,0,0,0,-1,1294,1527,0,0
77,-503,0,0,0,0,0,0,0,0,0,-1,1301,1527,0,0
84,-503,0,0,0,0,0,0,0,0,0,-1,1308,1527,0,0
91,-503,0,0,0,0,0,0,0,0,0,-1,1315,1527,0,0
98,-503,0,0,0,0,0,0,0,0,0,-1,1322,1527,0,0
105,-503,0,0,0,0,0,0,0,0,0,-1,1329,1527,0,0
112,-503,0,0,0,0,0,0,0,0,0,-1,1336,1527,0,0
119,-503,0,0,0,0,0,0,0,0,0,-1,1343,1527,0,0
126,-503,0,0,0,0,0,0,0,0,0,-1,1350,1527,0,0
133,-503,0,0,0,0,0,0,0,0,0,-1,1357,1527,0,0
140,-503,0,0,0,0,0,0,0,0,0,-1,1364,1527,0,0
147,-503,0,0,0,0,0,0,0,0,0,-1,1371,1527,0,0
154,-503,0,0,0,0,0,0,0,0,0,-1,1378,1527,0,0
161,-503,0,0,0,0,0,0,0,0,0,-1,1385,1527,0,0
168,-503,0,0,0,0,0,0,0,0,0,-1,1392,1527,0,0
175,-503,0,0,0,0,0,0,0,0,0,-1,1399,1527,0,0
182,-503,0,0,0,0,0,0,0,0,0,-1,1406,1527,0,0
189,-503,0,0,0,0,0,0,0,0,0,-1,1413,1527,0,0
196,-503,0,0,0,0,0,0,0,0,0,-1,1420,1527,0,0
203,-503,0,0,0,0,0,0,0,0,0,-1,1427,1527,0,0
210,-503,0,0,0,0,0,0,0,0,0,-1,1434,1527,0,0
217,-503,0,0,0,0,0,0,0,0,0,-1,1441,1527,0,0
224,-503,0,0,0,0,0,0,0,0,0,-1,1448,1527,0,0
231,-503,0,0,0,0,0,0,0,0,0,-1,1455,1527,0,0
238,-503,0,0,0,0,0,0,0,0,0,-1,1462,1527,0,0
245,-503,0,0,0,0,0,0,0,0,0,-1,1469,1527,0,0
252,-503,0,0,0,0,0,0,0,0,0,-1,1476,1527,0,0
259,-503,0,0,0,0,0,0,0,0,0,-1,1483,1527,0,0
266,-503,0,0,0,0,0,0,0,0,0,-1,1490,1527,0,0
273,-503,0,0,0,0,0,0,0,0,0,-1,1497,1527,0,0
280,-503,0,0,0,0,0,0,0,0,0,-1,1504,1527,0,0
287,-503,0,0,0,0,0,0,0,0,0,-1,1511,1527,0,0
294,-503,0,0,0,0,0,0,0,0,0,-1,1518,1527,0,0
301,-503,0,0,0,0,0,0,0,0,0,-1,1525,1527,0,0
308,-503,0,0,0,0,0,0,0,0,0,-1,1532,1527,0,0
315,-503,0,0,0,0,0,0,0,0,0,-1,1539,1527,0,0
322,-503,0,0,0,0,0,0,0,0,0,-1,1546,1527,0,0
329,-503,0,0,0,0,0,0,0,0,0,-1,1553,1527,0,0
336,-503,0,0,0,0,0,0,0,0,0,-1,1560,1527,0,0
343,-503,0,0,0,0,0,0,0,0,0,-1,1567,1527,0,0
350,-503,0,0,0,0,0,0,0,0,0,-1,1574,1527,0,0
357,-503,0,0,0,0,0,0,0,0,0,-1,1581,1527,0,0
364,-503,0,0,0,0,0,0,0,0,0,-1,1588,1527,0,0
371,-503,0,0,0,0,0,0,0,0,0,-1,1595,1527,0,0
378,-503,0,0,0,0,0,0,0,0,0,-1,1602,1527,0,0
385,-503,0,0,0,0,0,0,0,0,0,-1,1609,1527,0,0
392,-503,0,0,0,0,0,0,0,0,0,-1,1616,1527,0,0
399,-503,0,0,0,0,0,0,0,0,0,-1,1623,1527,0,0
406,-503,0,0,0,0,0,0,0,0,0,-1,1630,1527,0,0
413,-503,0,0,0,0,0,0,0,0,0,-1,1637,1527,0,0
420,-503,0,0,0,0,0,0,0,0,0,-1,1644,1527,0,0
427,-503,10.5968,4.9856,0,0,0,0,0,0,0,-1,1651,1527,10.5969,-4.98563
434,-503,11.4329,3.97217,0,0,0,0,0,0,0,-1,1658,1527,11.4328,-3.97222
441,-503,12.0957,2.96509,0,0,0,0,0,0,0,-1,1665,1527,12.0957,-2.96512
448,-503,12.3259,2.53894,0,0,0,0,0,0,0,-1,1672,1527,12.326,-2.53895
455,-503,12.1669,2.18762,0,0,0,0,0,0,0,-1,1679,1527,12.1668,-2.18767
462,-503,11.59,2.60791,0,0,0,0,0,0,0,-1,1686,1527,11.5899,-2.60794
469,-503,11.1625,1.61853,0,0,0,0,0,0,0,-1,1693,1527,11.1625,-1.61856
476,-503,9.07703,5.81042,0,0,0,0,0,0,0,-1,1700,1527,9.07699,-5.81047
483,-503,9.74414,6.92432,0,0,0,0,0,0,0,-1,1707,1527,9.74417,-6.9243
490,-503,10.5033,10.1071,0,0,0,0,0,0,0,-1,1714,1527,10.5032,-10.107
497,-503,15.0057,17.9476,0,0,0,0,0,0,0,-1,1721,1527,15.0058,-17.9476
504,-503,16.4764,18.4486,0,0,0,0,0,0,0,-1,1728,1527,16.4764,-18.4486
511,-503,16.8276,18.3271,0,0,0,0,0,0,0,-1,1735,1527,16.8276,-18.3272
518,-503,17.2533,18.2738,0,0,0,0,0,0,0,-1,1742,1527,17.2533,-18.2738
525,-503,21.2887,26.5785,0,0,0,0,0,0,0,-1,1749,1527,21.2887,-26.5785
532,-503,50.0776,89.5392,0,0,0,0,0,0,0,-1,1756,1527,50.0776,-89.5392
539,-503,57.3112,107.192,0,0,0,0,0,0,0,-1,1763,1527,57.3112,-107.192
546,-503,56.7578,104.859,0.00406189,0.00312029,-0.00249402,0.00612916,0.00105302,-0.69211,0.00378426,0.0210554,1770,1527,56.7578,-104.858
553,-503,56.4193,102.393,0.00345472,0.00259684,-0.00195579,0.00502806,0.0010235,-0.677448,0.00306831,0.0173641,1777,1527,56.4193,-102.393
560,-503,55.9615,99.9769,0.00308027,0.00224266,-0.00156845,0.00428487,0.00103806,-0.654932,0.0025811,0.0189474,1784,1527,55.9615,-99.9769
567,-503,55.4926,97.5491,0.00284249,0.00186041,-0.00133311,0.00377212,0.000930783,-0.608938,0.00226904,0.0187579,1791,1527,55.4925,-97.5491
574,-503,55.0692,95.125,0.00284738,0.0016996,-0.00126426,0.0036619,0.000885075,-0.572336,0.00220624,0.0180735,1798,1527,55.0692,-95.125
581,-503,54.6826,92.7197,0.00298759,0.00165218,-0.00134256,0.00381932,0.000820449,-0.55464,0.00232157,0.0192054,1805,1527,54.6826,-92.7197
588,-503,54.2834,90.3165,0.00328736,0.00177782,-0.00168013,0.00437447,0.000690708,-0.57429,0.00271552,0.0234939,1812,1527,54.2834,-90.3165
595,-503,53.8479,87.8896,0.0037933,0.00208532,-0.00221941,0.00531735,0.000561271,-0.601737,0.00337341,0.0178186,1819,1527,53.8478,-87.8896
602,-503,53.4247,85.4655,0,0,0,0,0,0,0,-1,1826,1527,53.4247,-85.4654
609,-503,53.2113,82.8721,0,0,0,0,0,0,0,-1,1833,1527,53.2113,-82.8721
616,-503,27.9205,24.2308,0,0,0,0,0,0,0,-1,1840,1527,27.9206,-24.2309
623,-503,18.7351,15.5999,0,0,0,0,0,0,0,-1,1847,1527,18.7351,-15.5999
630,-503,20.6721,13.9077,0,0,0,0,0,0,0,-1,1854,1527,20.6721,-13.9077
637,-503,14.5564,9.20496,0,0,0,0,0,0,0,-1,1861,1527,14.5564,-9.2049
644,-503,11.4802,7.57214,0,0,0,0,0,0,0,-1,1868,1527,11.4802,-7.57215
651,-503,11.5718,6.5448,0,0,0,0,0,0,0,-1,1875,1527,11.5718,-6.54476
658,-503,8.25635,3.10498,0,0,0,0,0,0,0,-1,1882,1527,8.2563,-3.10493
665,-503,0,0,0,0,0,0,0,0,0,-1,1889,1527,0,0
672,-503,0,0,0,0,0,0,0,0,0,-1,1896,1527,0,0
679,-503,0,0,0,0,0,0,0,0,0,-1,1903,1527,0,0
686,-503,0,0,0,0,0,0,0,0,0,-1,1910,1527,0,0
693,-503,0,0,0,0,0,0,0,0,0,-1,1917,1527,0,0
700,-503,0,0,0,0,0,0,0,0,0,-1,1924,1527,0,0
707,-503,0,0,0,0,0,0,0,0,0,-1,1931,1527,0,0
714,-503,0,0,0,0,0,0,0,0,0,-1,1938,1527,0,0
721,-503,0,0,0,0,0,0,0,0,0,-1,1945,1527,0,0
728,-503,0,0,0,0,0,0,0,0,0,-1,1952,1527,0,0
735,-503,0,0,0,0,0,0,0,0,0,-1,1959,1527,0,0
742,-503,0,0,0,0,0,0,0,0,0,-1,1966,1527,0,0
749,-503,0,0,0,0,0,0,0,0,0,-1,1973,1527,0,0
756,-503,0,0,0,0,0,0,0,0,0,-1,1980,1527,0,0
763,-503,0,0,0,0,0,0,0,0,0,-1,1987,1527,0,0
770,-503,0,0,0,0,0,0,0,0,0,-1,1994,1527,0,0
777,-503,0,0,0,0,0,0,0,0,0,-1,2001,1527,0,0
784,-503,0,0,0,0,0,0,0,0,0,-1,2008,1527,0,0
791,-503,0,0,0,0,0,0,0,0,0,-1,2015,1527,0,0
798,-503,0,0,0,0,0,0,0,0,0,-1,2022,1527,0,0
805,-503,0,0,0,0,0,0,0,0,0,-1,2029,1527,0,0
812,-503,0,0,0,0,0,0,0,0,0,-1,2036,1527,0,0
-700,-510,0,0,0,0,0,0,0,0,0,-1,524,1534,0,0
-693,-510,0,0,0,0,0,0,0,0,0,-1,531,1534,0,0
-686,-510,0,0,0,0,0,0,0,0,0,-1,538,1534,0,0
-679,-510,0,0,0,0,0,0,0,0,0,-1,545,1534,0,0
-672,-510,0,0,0,0,0,0,0,0,0,-1,552,1534,0,0
-665,-510,0,0,0,0,0,0,0,0,0,-1,559,1534,0,0
-658,-510,0,0,0,0,0,0,0,0,0,-1,566,1534,0,0
-651,-510,0,0,0,0,0,0,0,0,0,-1,573,1534,0,0
-644,-510,0,0,0,0,0,0,0,0,0,-1,580,1534,0,0
-637,-510,0,0,0,0,0,0,0,0,0,-1,587,1534,0,0
-630,-510,0,0,0,0,0,0,0,0,0,-1,594,1534,0,0
-623,-510,0,0,0,0,0,0,0,0,0,-1,601,1534,0,0
-616,-510,0,0,0,0,0,0,0,0,0,-1,608,1534,0,0
-609,-510,0,0,0,0,0,0,0,0,0,-1,615,1534,0,0
-602,-510,0,0,0,0,0,0,0,0,0,-1,622,1534,0,0
-595,-510,0,0,0,0,0,0,0,0,0,-1,629,1534,0,0
-588,-510,0,0,0,0,0,0,0,0,0,-1,636,1534,0,0
-581,-510,0,0,0,0,0,0,0,0,0,-1,643,1534,0,0
-574,-510,0,0,0,0,0,0,0,0,0,-1,650,1534,0,0
-567,-510,0,0,0,0,0,0,0,0,0,-1,657,1534,0,0
-560,-510,0,0,0,0,0,0,0,0,0,-1,664,1534,0,0
-553,-510,0,0,0,0,0,0,0,0,0,-1,671,1534,0,0
-546,-510,0,0,0,0,0,0,0,0,0,-1,678,1534,0,0
-539,-510,0,0,0,0,0,0,0,0,0,-1,685,1534,0,0
-532,-510,-3.95129,4.52014,0,0,0,0,0,0,0,-1,692,1534,-3.95131,-4.5202
-525,-510,-2.77411,0.316772,0,0,0,0,0,0,0,-1,699,1534,-2.77409,-0.3168
-518,-510,-2.86847,2.71423,0,0,0,0,0,0,0,-1,706,1534,-2.86849,-2.71424
-511,-510,-2.28571,4.48083,0,0,0,0,0,0,0,-1,713,1534,-2.28571,-4.48086
-504,-510,-4.86731,10.8224,0,0,0,0,0,0,0,-1,720,1534,-4.8673,-10.8224
-497,-510,-3.42352,15.5178,0,0,0,0,0,0,0,-1,727,1534,-3.42352,-15.5178
-490,-510,-5.9472,18.5184,0,0,0,0,0,0,0,-1,734,1534,-5.94718,-18.5185
-483,-510,-6.79639,20.8453,0,0,0,0,0,0,0,-1,741,1534,-6.79638,-20.8454
-476,-510,-16.0211,37.6001,0,0,0,0,0,0,0,-1,748,1534,-16.021,-37.6001
-469,-510,-45.1963,85.094,0,0,0,0,0,0,0,-1,755,1534,-45.1963,-85.094
-462,-510,-45.6795,87.5677,0.00158036,0.00483385,0.00232266,0.00604278,0.00037143,1.09089,0.00391059,0.0210091,762,1534,-45.6795,-87.5678
-455,-510,-46.1533,90.0498,0.00151427,0.0035534,0.00185525,0.00465078,0.000416882,1.03665,0.00297133,0.0181715,769,1534,-46.1533,-90.0498
-448,-510,-46.535,92.4738,0.00156113,0.00252797,0.0014795,0.00360103,0.00048808,0.943303,0.00225566,0.0169064,776,1534,-46.535,-92.4738
-441,-510,-46.9281,94.9222,0.00171224,0.00159477,0.00113641,0.00279144,0.000515579,0.759579,0.00171513,0.017377,783,1534,-46.9281,-94.9222
-434,-510,-47.405,97.342,0.00193156,0.000717461,0.000824569,0.00234843,0.000300585,0.468093,0.00147567,0.0188794,790,1534,-47.405,-97.3421
-427,-510,-47.9021,99.7168,0.00218805,-0.000103677,0.000482258,0.0022854,-0.000201026,0.199183,0.00159484,0.0296814,797,1534,-47.9021,-99.7168
-420,-510,-48.2862,102.224,0.00249946,-0.000961461,0.000115008,0.00250328,-0.000965279,0.0331817,0.00206715,0.0298014,804,1534,-48.2862,-102.224
-413,-510,-48.6849,104.668,0.00288939,-0.00171285,-0.000207711,0.00289875,-0.00172221,-0.0450106,0.00269658,0.0173324,811,1534,-48.6849,-104.668
-406,-510,-49.1381,107.027,0.00329856,-0.00258483,-0.000600809,0.00335929,-0.00264555,-0.100734,0.00347505,0.0165005,818,1534,-49.1381,-107.027
-399,-510,-49.5223,109.393,0.00390316,-0.00333737,-0.000971349,0.00403121,-0.00346542,-0.131067,0.00433228,0.0273157,825,1534,-49.5223,-109.393
-392,-510,-49.7078,111.881,0,0,0,0,0,0,0,-1,832,1534,-49.7078,-111.881
-385,-510,-7.23199,31.704,0,0,0,0,0,0,0,-1,839,1534,-7.23198,-31.704
-378,-510,-1.78308,13.8044,0,0,0,0,0,0,0,-1,846,1534,-1.78309,-13.8044
-371,-510,-1.74982,13.8027,0,0,0,0,0,0,0,-1,853,1534,-1.74981,-13.8028
-364,-510,-1.3479,13.7771,0,0,0,0,0,0,0,-1,860,1534,-1.34791,-13.7771
-357,-510,-0.254395,8.89575,0,0,0,0,0,0,0,-1,867,1534,-0.254397,-8.89569
-350,-510,0.471191,6.06458,0,0,0,0,0,0,0,-1,874,1534,0.47118,-6.06453
-343,-510,-6.96869,26.3074,0,0,0,0,0,0,0,-1,881,1534,-6.9687,-26.3074
-336,-510,-5.60437,29.5996,0,0,0,0,0,0,0,-1,888,1534,-5.60435,-29.5996
-329,-510,-4.87781,20.6893,0,0,0,0,0,0,0,-1,895,1534,-4.87782,-20.6894
-322,-510,-0.251526,11.973,0,0,0,0,0,0,0,-1,902,1534,-0.251497,-11.9731
-315,-510,-1.73047,10.9796,0,0,0,0,0,0,0,-1,909,1534,-1.73049,-10.9796
-308,-510,-2.05328,9.72034,0,0,0,0,0,0,0,-1,916,1534,-2.05327,-9.72036
-301,-510,-1.85437,11.5869,0,0,0,0,0,0,0,-1,923,1534,-1.85437,-11.5869
-294,-510,0,0,0,0,0,0,0,0,0,-1,930,1534,0,0
-287,-510,0,0,0,0,0,0,0,0,0,-1,937,1534,0,0
-280,-510,0,0,0,0,0,0,0,0,0,-1,944,1534,0,0
-273,-510,0,0,0,0,0,0,0,0,0,-1,951,1534,0,0
-266,-510,0,0,0,0,0,0,0,0,0,-1,958,1534,0,0
-259,-510,0,0,0,0,0,0,0,0,0,-1,965,1534,0,0
-252,-510,0,0,0,0,0,0,0,0,0,-1,972,1534,0,0
-245,-510,0,0,0,0,0,0,0,0,0,-1,979,1534,0,0
-238,-510,0,0,0,0,0,0,0,0,0,-1,986,1534,0,0
-231,-510,0,0,0,0,0,0,0,0,0,-1,993,1534,0,0
-224,-510,0,0,0,0,0,0,0,0,0,-1,1000,1534,0,0
-217,-510,0,0,0,0,0,0,0,0,0,-1,1007,1534,0,0
-210,-510,0,0,0,0,0,0,0,0,0,-1,1014,1534,0,0
-203,-510,0,0,0,0,0,0,0,0,0,-1,1021,1534,0,0
-196,-510,0,0,0,0,0,0,0,0,0,-1,1028,1534,0,0
-189,-510,0,0,0,0,0,0,0,0,0,-1,1035,1534,0,0
-182,-510,0,0,0,0,0,0,0,0,0,-1,1042,1534,0,0
-175,-510,0,0,0,0,0,0,0,0,0,-1,1049,1534,0,0
-168,-510,0,0,0,0,0,0,0,0,0,-1,1056,1534,0,0
-161,-510,0,0,0,0,0,0,0,0,0,-1,1063,1534,0,0
-154,-510,0,0,0,0,0,0,0,0,0,-1,1070,1534,0,0
-147,-510,0,0,0,0,0,0,0,0,0,-1,1077,1534,0,0
-140,-510,0,0,0,0,0,0,0,0,0,-1,1084,1534,0,0
-133,-510,0,0,0,0,0,0,0,0,0,-1,1091,1534,0,0
-126,-510,0,0,0,0,0,0,0,0,0,-1,1098,1534,0,0
-119,-510,0,0,0,0,0,0,0,0,0,-1,1105,1534,0,0
-112,-510,0,0,0,0,0,0,0,0,0,-1,1112,1534,0,0
-105,-510,0,0,0,0,0,0,0,0,0,-1,1119,1534,0,0
-98,-510,0,0,0,0,0,0,0,0,0,-1,1126,1534,0,0
-91,-510,0,0,0,0,0,0,0,0,0,-1,1133,1534,0,0
-84,-510,0,0,0,0,0,0,0,0,0,-1,1140,1534,0,0
-77,-510,0,0,0,0,0,0,0,0,0,-1,1147,1534,0,0
-70,-510,0,0,0,0,0,0,0,0,0,-1,1154,1534,0,0
-63,-510,0,0,0,0,0,0,0,0,0,-1,1161,1534,0,0
-56,-510,0,0,0,0,0,0,0,0,0,-1,1168,1534,0,0
-49,-510,0,0,0,0,0,0,0,0,0,-1,1175,1534,0,0
-42,-510,0,0,0,0,0,0,0,0,0,-1,1182,1534,0,0
-35,-510,0,0,0,0,0,0,0,0,0,-1,1189,1534,0,0
-28,-510,0,0,0,0,0,0,0,0,0,-1,1196,1534,0,0
-21,-510,0,0,0,0,0,0,0,0,0,-1,1203,1534,0,0
-14,-510,0,0,0,0,0,0,0,0,0,-1,1210,1534,0,0
-7,-510,0,0,0,0,0,0,0,0,0,-1,1217,1534,0,0
0,-510,0,0,0,0,0,0,0,0,0,-1,1224,1534,0,0
7,-510,0,0,0,0,0,0,0,0,0,-1,1231,1534,0,0
14,-510,0,0,0,0,0,0,0,0,0,-1,1238,1534,0,0
21,-510,0,0,0,0,0,0,0,0,0,-1,1245,1534,0,0
28,-510,0,0,0,0,0,0,0,0,0,-1,1252,1534,0,0
35,-510,0,0,0,0,0,0,0,0,0,-1,1259,1534,0,0
42,-510,0,0,0,0,0,0,0,0,0,-1,1266,1534,0,0
49,-510,0,0,0,0,0,0,0,0,0,-1,1273,1534,0,0
56,-510,0,0,0,0,0,0,0,0,0,-1,1280,1534,0,0
63,-510,0,0,0,0,0,0,0,0,0,-1,1287,1534,0,0
70,-510,0,0,0,0,0,0,0,0,0,-1,1294,1534,0,0
77,-510,0,0,0,0,0,0,0,0,0,-1,1301,1534,0,0
84,-510,0,0,0,0,0,0,0,0,0,-1,1308,1534,0,0
91,-510,0,0,0,0,0,0,0,0,0,-1,1315,1534,0,0
98,-510,0,0,0,0,0,0,0,0,0,-1,1322,1534,0,0
105,-510,0,0,0,0,0,0,0,0,0,-1,1329,1534,0,0
112,-510,0,0,0,0,0,0,0,0,0,-1,1336,1534,0,0
119,-510,0,0,0,0,0,0,0,0,0,-1,1343,1534,0,0
126,-510,0,0,0,0,0,0,0,0,0,-1,1350,1534,0,0
133,-510,0,0,0,0,0,0,0,0,0,-1,1357,1534,0,0
140,-510,0,0,0,0,0,0,0,0,0,-1,1364,1534,0,0
147,-510,0,0,0,0,0,0,0,0,0,-1,1371,1534,0,0
154,-510,0,0,0,0,0,0,0,0,0,-1,1378,1534,0,0
161,-510,0,0,0,0,0,0,0,0,0,-1,1385,1534,0,0
168,-510,0,0,0,0,0,0,0,0,0,-1,1392,1534,0,0
175,-510,0,0,0,0,0,0,0,0,0,-1,1399,1534,0,0
182,-510,0,0,0,0,0,0,0,0,0,-1,1406,1534,0,0
189,-510,0,0,0,0,0,0,0,0,0,-1,1413,1534,0,0
196,-510,0,0,0,0,0,0,0,0,0,-1,1420,1534,0,0
203,-510,0,0,0,0,0,0,0,0,0,-1,1427,1534,0,0
210,-510,0,0,0,0,0,0,0,0,0,-1,1434,1534,0,0
217,-510,0,0,0,0,0,0,0,0,0,-1,1441,1534,0,0
224,-510,0,0,0,0,0,0,0,0,0,-1,1448,1534,0,0
231,-510,0,0,0,0,0,0,0,0,0,-1,1455,1534,0,0
238,-510,0,0,0,0,0,0,0,0,0,-1,1462,1534,0,0
245,-510,0,0,0,0,0,0,0,0,0,-1,1469,1534,0,0
252,-510,0,0,0,0,0,0,0,0,0,-1,1476,1534,0,0
259,-510,0,0,0,0,0,0,0,0,0,-1,1483,1534,0,0
266,-510,0,0,0,0,0,0,0,0,0,-1,1490,1534,0,0
273,-510,0,0,0,0,0,0,0,0,0,-1,1497,1534,0,0
280,-510,0,0,0,0,0,0,0,0,0,-1,1504,1534,0,0
287,-510,0,0,0,0,0,0,0,0,0,-1,1511,1534,0,0
294,-510,0,0,0,0,0,0,0,0,0,-1,1518,1534,0,0
301,-510,0,0,0,0,0,0,0,0,0,-1,1525,1534,0,0
308,-510,0,0,0,0,0,0,0,0,0,-1,1532,1534,0,0
315,-510,0,0,0,0,0,0,0,0,0,-1,1539,1534,0,0
322,-510,0,0,0,0,0,0,0,0,0,-1,1546,1534,0,0
329,-510,0,0,0,0,0,0,0,0,0,-1,1553,1534,0,0
336,-510,0,0,0,0,0,0,0,0,0,-1,1560,1534,0,0
343,-510,0,0,0,0,0,0,0,0,0,-1,1567,1534,0,0
350,-510,0,0,0,0,0,0,0,0,0,-1,1574,1534,0,0
357,-510,0,0,0,0,0,0,0,0,0,-1,1581,1534,0,0
364,-510,0,0,0,0,0,0,0,0,0,-1,1588,1534,0,0
371,-510,0,0,0,0,0,0,0,0,0,-1,1595,1534,0,0
378,-510,0,0,0,0,0,0,0,0,0,-1,1602,1534,0,0
385,-510,0,0,0,0,0,0,0,0,0,-1,1609,1534,0,0
392,-510,0,0,0,0,0,0,0,0,0,-1,1616,1534,0,0
399,-510,0,0,0,0,0,0,0,0,0,-1,1623,1534,0,0
406,-510,0,0,0,0,0,0,0,0,0,-1,1630,1534,0,0
413,-510,0,0,0,0,0,0,0,0,0,-1,1637,1534,0,0
420,-510,14.1888,6.71936,0,0,0,0,0,0,0,-1,1644,1534,14.1889,-6.71939
427,-510,10.2134,5.59485,0,0,0,0,0,0,0,-1,1651,1534,10.2134,-5.59485
434,-510,11.8219,4.07898,0,0,0,0,0,0,0,-1,1658,1534,11.8219,-4.07895
441,-510,12.6812,3.02991,0,0,0,0,0,0,0,-1,1665,1534,12.6811,-3.0299
448,-510,13.2379,2.2804,0,0,0,0,0,0,0,-1,1672,1534,13.2379,-2.28037
455,-510,9.76892,2.20642,0,0,0,0,0,0,0,-1,1679,1534,9.76894,-2.20647
462,-510,9.84692,2.49182,0,0,0,0,0,0,0,-1,1686,1534,9.84695,-2.49185
469,-510,16.6072,7.26941,0,0,0,0,0,0,0,-1,1693,1534,16.6072,-7.26945
476,-510,15.9199,7.8645,0,0,0,0,0,0,0,-1,1700,1534,15.9199,-7.86455
483,-510,13.0833,8.10938,0,0,0,0,0,0,0,-1,1707,1534,13.0833,-8.10932
490,-510,13.0841,15.3286,0,0,0,0,0,0,0,-1,1714,1534,13.0841,-15.3286
497,-510,15.5652,18.823,0,0,0,0,0,0,0,-1,1721,1534,15.5652,-18.823
504,-510,15.998,18.7478,0,0,0,0,0,0,0,-1,1728,1534,15.998,-18.7478
511,-510,15.9443,18.0476,0,0,0,0,0,0,0,-1,1735,1534,15.9443,-18.0476
518,-510,21.5343,27.1368,0,0,0,0,0,0,0,-1,1742,1534,21.5342,-27.1368
525,-510,48.0154,91.9933,0,0,0,0,0,0,0,-1,1749,1534,48.0153,-91.9933
532,-510,55.2622,110.097,0,0,0,0,0,0,0,-1,1756,1534,55.2622,-110.097
539,-510,54.8689,107.659,0.00376399,0.00310358,-0.00226103,0.00571879,0.00114877,-0.712889,0.00349315,0.0206019,1763,1534,54.8689,-107.659
546,-510,54.3521,105.289,0.00311982,0.00257407,-0.00180344,0.00467091,0.00102298,-0.710313,0.00283515,0.0192926,1770,1534,54.3521,-105.289
553,-510,53.9192,102.854,0.00270412,0.00219614,-0.00144962,0.00392184,0.000978426,-0.698672,0.00235711,0.0182998,1777,1534,53.9192,-102.854
560,-510,53.4585,100.363,0.00254787,0.00199928,-0.00126456,0.00356754,0.000979613,-0.678596,0.00212834,0.0206198,1784,1534,53.4585,-100.363
567,-510,53.0458,97.9055,0.00250223,0.00179685,-0.0012063,0.00340634,0.000892739,-0.643176,0.00203952,0.02116,1791,1534,53.0457,-97.9056
574,-510,52.6279,95.5272,0.00267711,0.00178314,-0.00127859,0.00358459,0.000875649,-0.617243,0.0021579,0.019884,1798,1534,52.6279,-95.5272
581,-510,52.2356,93.1608,0.00300537,0.00189228,-0.00150304,0.00405159,0.000846052,-0.608086,0.00246787,0.0178718,1805,1534,52.2356,-93.1607
588,-510,51.8213,90.7965,0.00354065,0.00215343,-0.00198549,0.0049502,0.000743882,-0.617355,0.00308224,0.0186835,1812,1534,51.8213,-90.7965
595,-510,51.542,88.1167,0.00425207,0.00258972,-0.00268352,0.00623019,0.000611604,-0.635217,0.00396534,0.0397399,1819,1534,51.542,-88.1167
602,-510,51.161,85.524,0,0,0,0,0,0,0,-1,1826,1534,51.1611,-85.5241
609,-510,21.259,19.222,0,0,0,0,0,0,0,-1,1833,1534,21.259,-19.222
616,-510,18.7024,16.2474,0,0,0,0,0,0,0,-1,1840,1534,18.7024,-16.2474
623,-510,19.6013,14.6211,0,0,0,0,0,0,0,-1,1847,1534,19.6013,-14.6211
630,-510,13.7461,9.30334,0,0,0,0,0,0,0,-1,1854,1534,13.7461,-9.30335
637,-510,11.0155,7.38464,0,0,0,0,0,0,0,-1,1861,1534,11.0155,-7.38463
644,-510,11.5809,7.17126,0,0,0,0,0,0,0,-1,1868,1534,11.5809,-7.17123
651,-510,8.70471,3.5061,0,0,0,0,0,0,0,-1,1875,1534,8.70475,-3.50611
658,-510,0,0,0,0,0,0,0,0,0,-1,1882,1534,0,0
665,-510,0,0,0,0,0,0,0,0,0,-1,1889,1534,0,0
672,-510,0,0,0,0,0,0,0,0,0,-1,1896,1534,0,0
679,-510,0,0,0,0,0,0,0,0,0,-1,1903,1534,0,0
686,-510,0,0,0,0,0,0,0,0,0,-1,1910,1534,0,0
693,-510,0,0,0,0,0,0,0,0,0,-1,1917,1534,0,0
700,-510,0,0,0,0,0,0,0,0,0,-1,1924,1534,0,0
707,-510,0,0,0,0,0,0,0,0,0,-1,1931,1534,0,0
714,-510,0,0,0,0,0,0,0,0,0,-1,1938,1534,0,0
721,-510,0,0,0,0,0,0,0,0,0,-1,1945,1534,0,0
728,-510,0,0,0,0,0,0,0,0,0,-1,1952,1534,0,0
735,-510,0,0,0,0,0,0,0,0,0,-1,1959,1534,0,0
742,-510,0,0,0,0,0,0,0,0,0,-1,1966,1534,0,0
749,-510,0,0,0,0,0,0,0,0,0,-1,1973,1534,0,0
756,-510,0,0,0,0,0,0,0,0,0,-1,1980,1534,0,0
763,-510,0,0,0,0,0,0,0,0,0,-1,1987,1534,0,0
770,-510,0,0,0,0,0,0,0,0,0,-1,1994,1534,0,0
777,-510,0,0,0,0,0,0,0,0,0,-1,2001,1534,0,0
784,-510,0,0,0,0,0,0,0,0,0,-1,2008,1534,0,0
791,-510,0,0,0,0,0,0,0,0,0,-1,2015,1534,0,0
798,-510,0,0,0,0,0,0,0,0,0,-1,2022,1534,0,0
805,-510,0,0,0,0,0,0,0,0,0,-1,2029,1534,0,0
812,-510,0,0,0,0,0,0,0,0,0,-1,2036,1534,0,0
-700,-517,0,0,0,0,0,0,0,0,0,-1,524,1541,0,0
-693,-517,0,0,0,0,0,0,0,0,0,-1,531,1541,0,0
-686,-517,0,0,0,0,0,0,0,0,0,-1,538,1541,0,0
-679,-517,0,0,0,0,0,0,0,0,0,-1,545,1541,0,0
-672,-517,0,0,0,0,0,0,0,0,0,-1,552,1541,0,0
-665,-517,0,0,0,0,0,0,0,0,0,-1,559,1541,0,0
-658,-517,0,0,0,0,0,0,0,0,0,-1,566,1541,0,0
-651,-517,0,0,0,0,0,0,0,0,0,-1,573,1541,0,0
-644,-517,0,0,0,0,0,0,0,0,0,-1,580,1541,0,0
-637,-517,0,0,0,0,0,0,0,0,0,-1,587,1541,0,0
-630,-517,0,0,0,0,0,0,0,0,0,-1,594,1541,0,0
-623,-517,0,0,0,0,0,0,0,0,0,-1,601,1541,0,0
-616,-517,0,0,0,0,0,0,0,0,0,-1,608,1541,0,0
-609,-517,0,0,0,0,0,0,0,0,0,-1,615,1541,0,0
-602,-517,0,0,0,0,0,0,0,0,0,-1,622,1541,0,0
-595,-517,0,0,0,0,0,0,0,0,0,-1,629,1541,0,0
-588,-517,0,0,0,0,0,0,0,0,0,-1,636,1541,0,0
-581,-517,0,0,0,0,0,0,0,0,0,-1,643,1541,0,0
-574,-517,0,0,0,0,0,0,0,0,0,-1,650,1541,0,0
-567,-517,0,0,0,0,0,0,0,0,0,-1,657,1541,0,0
-560,-517,0,0,0,0,0,0,0,0,0,-1,664,1541,0,0
-553,-517,0,0,0,0,0,0,0,0,0,-1,671,1541,0,0
-546,-517,0,0,0,0,0,0,0,0,0,-1,678,1541,0,0
-539,-517,0,0,0,0,0,0,0,0,0,-1,685,1541,0,0
-532,-517,0,0,0,0,0,0,0,0,0,-1,692,1541,0,0
-525,-517,-3.62903,4.3606,0,0,0,0,0,0,0,-1,699,1541,-3.62904,-4.36056
-518,-517,-1.664,2.27209,0,0,0,0,0,0,0,-1,706,1541,-1.66399,-2.27207
-511,-517,-0.999146,5.52063,0,0,0,0,0,0,0,-1,713,1541,-0.999126,-5.52059
-504,-517,-1.06946,8.67432,0,0,0,0,0,0,0,-1,720,1541,-1.06947,-8.6743
-497,-517,-5.43036,17.4033,0,0,0,0,0,0,0,-1,727,1541,-5.43033,-17.4034
-490,-517,-6.20526,19.4496,0,0,0,0,0,0,0,-1,734,1541,-6.20526,-19.4495
-483,-517,-6.2254,20.368,0,0,0,0,0,0,0,-1,741,1541,-6.22542,-20.368
-476,-517,-11.8129,32.7147,0,0,0,0,0,0,0,-1,748,1541,-11.8129,-32.7147
-469,-517,-14.6641,38.8503,0,0,0,0,0,0,0,-1,755,1541,-14.6641,-38.8503
-462,-517,-43.1682,87.8385,0,0,0,0,0,0,0,-1,762,1541,-43.1682,-87.8385
-455,-517,-43.7007,90.4666,0,0,0,0,0,0,0,-1,769,1541,-43.7008,-90.4666
-448,-517,-44.0978,92.9357,0.00147477,0.00333212,0.00192737,0.00454288,0.000264012,1.0099,0.00294453,0.0187268,776,1541,-44.0978,-92.9356
-441,-517,-44.5094,95.3484,0.00156025,0.00229832,0.00149693,0.00347103,0.000387537,0.906252,0.00219627,0.0174819,783,1541,-44.5094,-95.3484
-434,-517,-44.9422,97.774,0.00171684,0.00134832,0.00111701,0.00266469,0.00040047,0.703657,0.00165916,0.0207808,790,1541,-44.9422,-97.774
-427,-517,-45.4147,100.197,0.00189059,0.00049143,0.000728944,0.00220134,0.000180678,0.402975,0.0014112,0.0188419,797,1541,-45.4147,-100.197
-420,-517,-45.9033,102.633,0.0021043,-0.000387887,0.000300839,0.0021401,-0.000423688,0.118446,0.00158693,0.0336122,804,1541,-45.9033,-102.633
-413,-517,-46.3174,105.074,0.00241999,-0.00113827,-7.09292e-05,0.0024214,-0.00113969,-0.0199231,0.00209992,0.0201276,811,1541,-46.3175,-105.074
-406,-517,-46.7053,107.525,0.00277532,-0.00196092,-0.000487578,0.00282499,-0.00201059,-0.101528,0.00280499,0.017266,818,1541,-46.7053,-107.525
-399,-517,-47.0867,109.923,0.00328082,-0.00259272,-0.000856355,0.00340312,-0.00271503,-0.141865,0.00353976,0.0147746,825,1541,-47.0867,-109.923
-392,-517,-47.4627,112.345,0.00386474,-0.00330855,-0.0012874,0.0040888,-0.00353261,-0.17231,0.00440413,0.0327712,832,1541,-47.4627,-112.345
-385,-517,-47.7783,114.916,0,0,0,0,0,0,0,-1,839,1541,-47.7783,-114.916
-378,-517,-6.61444,32.6315,0,0,0,0,0,0,0,-1,846,1541,-6.61445,-32.6315
-371,-517,-1.37585,13.2646,0,0,0,0,0,0,0,-1,853,1541,-1.37586,-13.2647
-364,-517,-1.26245,12.6289,0,0,0,0,0,0,0,-1,860,1541,-1.26243,-12.6289
-357,-517,-1.23889,12.979,0,0,0,0,0,0,0,-1,867,1541,-1.23891,-12.979
-350,-517,-5.40198,23.8954,0,0,0,0,0,0,0,-1,874,1541,-5.40196,-23.8954
-343,-517,-5.45844,29.2598,0,0,0,0,0,0,0,-1,881,1541,-5.45842,-29.2598
-336,-517,-4.53223,29.6708,0,0,0,0,0,0,0,-1,888,1541,-4.53221,-29.6708
-329,-517,-3.60602,30.0817,0,0,0,0,0,0,0,-1,895,1541,-3.60601,-30.0817
-322,-517,-4.21246,19.5819,0,0,0,0,0,0,0,-1,902,1541,-4.21244,-19.5819
-315,-517,-0.987976,7.29749,0,0,0,0,0,0,0,-1,909,1541,-0.987993,-7.29743
-308,-517,3.27911,17.621,0,0,0,0,0,0,0,-1,916,1541,3.27913,-17.621
-301,-517,-1.69141,8.87488,0,0,0,0,0,0,0,-1,923,1541,-1.69141,-8.87485
-294,-517,-1.72583,9.92566,0,0,0,0,0,0,0,-1,930,1541,-1.72584,-9.92571
-287,-517,-3.09045,12.1472,0,0,0,0,0,0,0,-1,937,1541,-3.09043,-12.1472
-280,-517,0,0,0,0,0,0,0,0,0,-1,944,1541,0,0
-273,-517,0,0,0,0,0,0,0,0,0,-1,951,1541,0,0
-266,-517,0,0,0,0,0,0,0,0,0,-1,958,1541,0,0
-259,-517,0,0,0,0,0,0,0,0,0,-1,965,1541,0,0
-252,-517,0,0,0,0,0,0,0,0,0,-1,972,1541,0,0
-245,-517,0,0,0,0,0,0,0,0,0,-1,979,1541,0,0
-238,-517,0,0,0,0,0,0,0,0,0,-1,986,1541,0,0
-231,-517,0,0,0,0,0,0,0,0,0,-1,993,1541,0,0
-224,-517,0,0,0,0,0,0,0,0,0,-1,1000,1541,0,0
-217,-517,0,0,0,0,0,0,0,0,0,-1,1007,1541,0,0
-210,-517,0,0,0,0,0,0,0,0,0,-1,1014,1541,0,0
-203,-517,0,0,0,0,0,0,0,0,0,-1,1021,1541,0,0
-196,-517,0,0,0,0,0,0,0,0,0,-1,1028,1541,0,0
-189,-517,0,0,0,0,0,0,0,0,0,-1,1035,1541,0,0
-182,-517,0,0,0,0,0,0,0,0,0,-1,1042,1541,0,0
-175,-517,0,0,0,0,0,0,0,0,0,-1,1049,1541,0,0
-168,-517,0,0,0,0,0,0,0,0,0,-1,1056,1541,0,0
-161,-517,0,0,0,0,0,0,0,0,0,-1,1063,1541,0,0
-154,-517,0,0,0,0,0,0,0,0,0,-1,1070,1541,0,0
-147,-517,0,0,0,0,0,0,0,0,0,-1,1077,1541,0,0
-140,-517,0,0,0,0,0,0,0,0,0,-1,1084,1541,0,0
-133,-517,0,0,0,0,0,0,0,0,0,-1,1091,1541,0,0
-126,-517,0,0,0,0,0,0,0,0,0,-1,1098,1541,0,0
-119,-517,0,0,0,0,0,0,0,0,0,-1,1105,1541,0,0
-112,-517,0,0,0,0,0,0,0,0,0,-1,1112,1541,0,0
-105,-517,0,0,0,0,0,0,0,0,0,-1,1119,1541,0,0
-98,-517,0,0,0,0,0,0,0,0,0,-1,1126,1541,0,0
-91,-517,0,0,0,0,0,0,0,0,0,-1,1133,1541,0,0
-84,-517,0,0,0,0,0,0,0,0,0,-1,1140,1541,0,0
-77,-517,0,0,0,0,0,0,0,0,0,-1,1147,1541,0,0
-70,-517,0,0,0,0,0,0,0,0,0,-1,1154,1541,0,0
-63,-517,0,0,0,0,0,0,0,0,0,-1,1161,1541,0,0
-56,-517,0,0,0,0,0,0,0,0,0,-1,1168,1541,0,0
-49,-517,0,0,0,0,0,0,0,0,0,-1,1175,1541,0,0
-42,-517,0,0,0,0,0,0,0,0,0,-1,1182,1541,0,0
-35,-517,0,0,0,0,0,0,0,0,0,-1,1189,1541,0,0
-28,-517,0,0,0,0,0,0,0,0,0,-1,1196,1541,0,0
-21,-517,0,0,0,0,0,0,0,0,0,-1,1203,1541,0,0
-14,-517,0,0,0,0,0,0,0,0,0,-1,1210,1541,0,0
-7,-517,0,0,0,0,0,0,0,0,0,-1,1217,1541,0,0
0,-517,0,0,0,0,0,0,0,0,0,-1,1224,1541,0,0
7,-517,0,0,0,0,0,0,0,0,0,-1,1231,1541,0,0
14,-517,0,0,0,0,0,0,0,0,0,-1,1238,1541,0,0
21,-517,0,0,0,0,0,0,0,0,0,-1,1245,1541,0,0
28,-517,0,0,0,0,0,0,0,0,0,-1,1252,1541,0,0
35,-517,0,0,0,0,0,0,0,0,0,-1,1259,1541,0,0
42,-517,0,0,0,0,0,0,0,0,0,-1,1266,1541,0,0
49,-517,0,0,0,0,0,0,0,0,0,-1,1273,1541,0,0
56,-517,0,0,0,0,0,0,0,0,0,-1,1280,1541,0,0
63,-517,0,0,0,0,0,0,0,0,0,-1,1287,1541,0,0
70,-517,0,0,0,0,0,0,0,0,0,-1,1294,1541,0,0
77,-517,0,0,0,0,0,0,0,0,0,-1,1301,1541,0,0
84,-517,0,0,0,0,0,0,0,0,0,-1,1308,1541,0,0
91,-517,0,0,0,0,0,0,0,0,0,-1,1315,1541,0,0
98,-517,0,0,0,0,0,0,0,0,0,-1,1322,1541,0,0
105,-517,0,0,0,0,0,0,0,0,0,-1,1329,1541,0,0
112,-517,0,0,0,0,0,0,0,0,0,-1,1336,1541,0,0
119,-517,0,0,0,0,0,0,0,0,0,-1,1343,1541,0,0
126,-517,0,0,0,0,0,0,0,0,0,-1,1350,1541,0,0
133,-517,0,0,0,0,0,0,0,0,0,-1,1357,1541,0,0
140,-517,0,0,0,0,0,0,0,0,0,-1,1364,1541,0,0
147,-517,0,0,0,0,0,0,0,0,0,-1,1371,1541,0,0
154,-517,0,0,0,0,0,0,0,0,0,-1,1378,1541,0,0
161,-517,0,0,0,0,0,0,0,0,0,-1,1385,1541,0,0
168,-517,0,0,0,0,0,0,0,0,0,-1,1392,1541,0,0
175,-517,0,0,0,0,0,0,0,0,0,-1,1399,1541,0,0
182,-517,0,0,0,0,0,0,0,0,0,-1,1406,1541,0,0
189,-517,0,0,0,0,0,0,0,0,0,-1,1413,1541,0,0
196,-517,0,0,0,0,0,0,0,0,0,-1,1420,1541,0,0
203,-517,0,0,0,0,0,0,0,0,0,-1,1427,1541,0,0
210,-517,0,0,0,0,0,0,0,0,0,-1,1434,1541,0,0
217,-517,0,0,0,0,0,0,0,0,0,-1,1441,1541,0,0
224,-517,0,0,0,0,0,0,0,0,0,-1,1448,1541,0,0
231,-517,0,0,0,0,0,0,0,0,0,-1,1455,1541,0,0
238,-517,0,0,0,0,0,0,0,0,0,-1,1462,1541,0,0
245,-517,0,0,0,0,0,0,0,0,0,-1,1469,1541,0,0
252,-517,0,0,0,0,0,0,0,0,0,-1,1476,1541,0,0
259,-517,0,0,0,0,0,0,0,0,0,-1,1483,1541,0,0
266,-517,0,0,0,0,0,0,0,0,0,-1,1490,1541,0,0
273,-517,0,0,0,0,0,0,0,0,0,-1,1497,1541,0,0
280,-517,0,0,0,0,0,0,0,0,0,-1,1504,1541,0,0
287,-517,0,0,0,0,0,0,0,0,0,-1,1511,1541,0,0
294,-517,0,0,0,0,0,0,0,0,0,-1,1518,1541,0,0
301,-517,0,0,0,0,0,0,0,0,0,-1,1525,1541,0,0
308,-517,0,0,0,0,0,0,0,0,0,-1,1532,1541,0,0
315,-517,0,0,0,0,0,0,0,0,0,-1,1539,1541,0,0
322,-517,0,0,0,0,0,0,0,0,0,-1,1546,1541,0,0
329,-517,0,0,0,0,0,0,0,0,0,-1,1553,1541,0,0
336,-517,0,0,0,0,0,0,0,0,0,-1,1560,1541,0,0
343,-517,0,0,0,0,0,0,0,0,0,-1,1567,1541,0,0
350,-517,0,0,0,0,0,0,0,0,0,-1,1574,1541,0,0
357,-517,0,0,0,0,0,0,0,0,0,-1,1581,1541,0,0
364,-517,0,0,0,0,0,0,0,0,0,-1,1588,1541,0,0
371,-517,0,0,0,0,0,0,0,0,0,-1,1595,1541,0,0
378,-517,0,0,0,0,0,0,0,0,0,-1,1602,1541,0,0
385,-517,0,0,0,0,0,0,0,0,0,-1,1609,1541,0,0
392,-517,0,0,0,0,0,0,0,0,0,-1,1616,1541,0,0
399,-517,0,0,0,0,0,0,0,0,0,-1,1623,1541,0,0
406,-517,13.1395,7.01978,0,0,0,0,0,0,0,-1,1630,1541,13.1396,-7.01981
413,-517,12.8859,6.31592,0,0,0,0,0,0,0,-1,1637,1541,12.8858,-6.31588
420,-517,12.4789,6.20337,0,0,0,0,0,0,0,-1,1644,1541,12.4789,-6.20333
427,-517,11.647,4.66516,0,0,0,0,0,0,0,-1,1651,1541,11.647,-4.66519
434,-517,12.3719,3.92773,0,0,0,0,0,0,0,-1,1658,1541,12.3719,-3.92776
441,-517,13.146,3.14124,0,0,0,0,0,0,0,-1,1665,1541,13.146,-3.14121
448,-517,13.8861,2.36682,0,0,0,0,0,0,0,-1,1672,1541,13.8861,-2.36684
455,-517,13.6012,4.06335,0,0,0,0,0,0,0,-1,1679,1541,13.6012,-4.06335
462,-517,14.8956,7.0752,0,0,0,0,0,0,0,-1,1686,1541,14.8956,-7.07525
469,-517,13.6292,6.87744,0,0,0,0,0,0,0,-1,1693,1541,13.6292,-6.87739
476,-517,17.1632,14.1487,0,0,0,0,0,0,0,-1,1700,1541,17.1632,-14.1487
483,-517,16.5157,15.0776,0,0,0,0,0,0,0,-1,1707,1541,16.5157,-15.0777
490,-517,15.5439,18.0258,0,0,0,0,0,0,0,-1,1714,1541,15.5439,-18.0258
497,-517,16.0292,18.7786,0,0,0,0,0,0,0,-1,1721,1541,16.0291,-18.7786
504,-517,31.0431,47.8639,0,0,0,0,0,0,0,-1,1728,1541,31.0431,-47.8639
511,-517,30.7837,46.1383,0,0,0,0,0,0,0,-1,1735,1541,30.7837,-46.1384
518,-517,53.7878,115.336,0,0,0,0,0,0,0,-1,1742,1541,53.7879,-115.336
525,-517,53.2122,112.966,0,0,0,0,0,0,0,-1,1749,1541,53.2122,-112.966
532,-517,52.8503,110.509,0.00297787,0.00283212,-0.00158977,0.00449644,0.00131355,-0.762495,0.00266976,0.0205251,1756,1541,52.8503,-110.509
539,-517,52.4252,108.084,0.00259967,0.00250545,-0.00148816,0.00404147,0.00106365,-0.769576,0.00241901,0.0211382,1763,1541,52.4252,-108.084
546,-517,51.9368,105.667,0.00226911,0.00219219,-0.00132075,0.00355196,0.000909346,-0.770842,0.00213056,0.021159,1770,1541,51.9367,-105.667
553,-517,51.4658,103.28,0.00209404,0.00195775,-0.00116566,0.00319354,0.000858239,-0.756202,0.0019084,0.0257476,1777,1541,51.4658,-103.28
560,-517,51.0654,100.829,0.00217006,0.00190135,-0.00117141,0.00321479,0.000856613,-0.728299,0.00192237,0.0246002,1784,1541,51.0654,-100.829
567,-517,50.6865,98.351,0.00232036,0.00187075,-0.0012761,0.00339131,0.000799804,-0.69821,0.00204704,0.0204463,1791,1541,50.6866,-98.351
574,-517,50.2288,95.9232,0.00264934,0.00197746,-0.0014809,0.00383192,0.000794873,-0.673862,0.00233519,0.0231405,1798,1541,50.2288,-95.9232
581,-517,49.7813,93.5614,0.00315379,0.00222195,-0.00184712,0.00459284,0.000782898,-0.661854,0.00283717,0.0233049,1805,1541,49.7812,-93.5614
588,-517,49.3649,91.1886,0.00391753,0.00257343,-0.00243209,0.00576871,0.00072225,-0.650599,0.00362909,0.0252843,1812,1541,49.3649,-91.1886
595,-517,48.9301,88.6484,0,0,0,0,0,0,0,-1,1819,1541,48.93,-88.6484
602,-517,28.1732,28.2633,0,0,0,0,0,0,0,-1,1826,1541,28.1733,-28.2633
609,-517,12.6417,10.8751,0,0,0,0,0,0,0,-1,1833,1541,12.6417,-10.8751
616,-517,14.205,10.3193,0,0,0,0,0,0,0,-1,1840,1541,14.205,-10.3194
623,-517,12.578,10.0779,0,0,0,0,0,0,0,-1,1847,1541,12.578,-10.0779
630,-517,11.7035,7.47815,0,0,0,0,0,0,0,-1,1854,1541,11.7035,-7.47812
637,-517,11.5172,5.79822,0,0,0,0,0,0,0,-1,1861,1541,11.5173,-5.79825
644,-517,11.4232,3.30579,0,0,0,0,0,0,0,-1,1868,1541,11.4232,-3.30574
651,-517,0,0,0,0,0,0,0,0,0,-1,1875,1541,0,0
658,-517,0,0,0,0,0,0,0,0,0,-1,1882,1541,0,0
665,-517,0,0,0,0,0,0,0,0,0,-1,1889,1541,0,0
672,-517,0,0,0,0,0,0,0,0,0,-1,1896,1541,0,0
679,-517,0,0,0,0,0,0,0,0,0,-1,1903,1541,0,0
686,-517,0,0,0,0,0,0,0,0,0,-1,1910,1541,0,0
693,-517,0,0,0,0,0,0,0,0,0,-1,1917,1541,0,0
700,-517,0,0,0,0,0,0,0,0,0,-1,1924,1541,0,0
707,-517,0,0,0,0,0,0,0,0,0,-1,1931,1541,0,0
714,-517,0,0,0,0,0,0,0,0,0,-1,1938,1541,0,0
721,-517,0,0,0,0,0,0,0,0,0,-1,1945,1541,0,0
728,-517,0,0,0,0,0,0,0,0,0,-1,1952,1541,0,0
735,-517,0,0,0,0,0,0,0,0,0,-1,1959,1541,0,0
742,-517,0,0,0,0,0,0,0,0,0,-1,1966,1541,0,0
749,-517,0,0,0,0,0,0,0,0,0,-1,1973,1541,0,0
756,-517,0,0,0,0,0,0,0,0,0,-1,1980,1541,0,0
763,-517,0,0,0,0,0,0,0,0,0,-1,1987,1541,0,0
770,-517,0,0,0,0,0,0,0,0,0,-1,1994,1541,0,0
777,-517,0,0,0,0,0,0,0,0,0,-1,2001,1541,0,0
784,-517,0,0,0,0,0,0,0,0,0,-1,2008,1541,0,0
791,-517,0,0,0,0,0,0,0,0,0,-1,2015,1541,0,0
798,-517,0,0,0,0,0,0,0,0,0,-1,2022,1541,0,0
805,-517,0,0,0,0,0,0,0,0,0,-1,2029,1541,0,0
812,-517,0,0,0,0,0,0,0,0,0,-1,2036,1541,0,0
-700,-524,0,0,0,0,0,0,0,0,0,-1,524,1548,0,0
-693,-524,0,0,0,0,0,0,0,0,0,-1,531,1548,0,0
-686,-524,0,0,0,0,0,0,0,0,0,-1,538,1548,0,0
-679,-524,0,0,0,0,0,0,0,0,0,-1,545,1548,0,0
-672,-524,0,0,0,0,0,0,0,0,0,-1,552,1548,0,0
-665,-524,0,0,0,0,0,0,0,0,0,-1,559,1548,0,0
-658,-524,0,0,0,0,0,0,0,0,0,-1,566,1548,0,0
-651,-524,0,0,0,0,0,0,0,0,0,-1,573,1548,0,0
-644,-524,0,0,0,0,0,0,0,0,0,-1,580,1548,0,0
-637,-524,0,0,0,0,0,0,0,0,0,-1,587,1548,0,0
-630,-524,0,0,0,0,0,0,0,0,0,-1,594,1548,0,0
-623,-524,0,0,0,0,0,0,0,0,0,-1,601,1548,0,0
-616,-524,0,0,0,0,0,0,0,0,0,-1,608,1548,0,0
-609,-524,0,0,0,0,0,0,0,0,0,-1,615,1548,0,0
-602,-524,0,0,0,0,0,0,0,0,0,-1,622,1548,0,0
-595,-524,0,0,0,0,0,0,0,0,0,-1,629,1548,0,0
-588,-524,0,0,0,0,0,0,0,0,0,-1,636,1548,0,0
-581,-524,0,0,0,0,0,0,0,0,0,-1,643,1548,0,0
-574,-524,0,0,0,0,0,0,0,0,0,-1,650,1548,0,0
-567,-524,0,0,0,0,0,0,0,0,0,-1,657,1548,0,0
-560,-524,0,0,0,0,0,0,0,0,0,-1,664,1548,0,0
-553,-524,0,0,0,0,0,0,0,0,0,-1,671,1548,0,0
-546,-524,0,0,0,0,0,0,0,0,0,-1,678,1548,0,0
-539,-524,0,0,0,0,0,0,0,0,0,-1,685,1548,0,0
-532,-524,0,0,0,0,0,0,0,0,0,-1,692,1548,0,0
-525,-524,-0.215515,3.97131,0,0,0,0,0,0,0,-1,699,1548,-0.215501,-3.97136
-518,-524,-0.806274,4.35632,0,0,0,0,0,0,0,-1,706,1548,-0.806259,-4.35633
-511,-524,-1.08301,4.29004,0,0,0,0,0,0,0,-1,713,1548,-1.08301,-4.29006
-504,-524,-1.28821,3.98145,0,0,0,0,0,0,0,-1,720,1548,-1.28822,-3.98151
-497,-524,-0.328491,8.63416,0,0,0,0,0,0,0,-1,727,1548,-0.328487,-8.63411
-490,-524,-6.65582,19.3033,0,0,0,0,0,0,0,-1,734,1548,-6.65583,-19.3034
-483,-524,-7.57153,22.1989,0,0,0,0,0,0,0,-1,741,1548,-7.57151,-22.1988
-476,-524,-8.51898,26.7598,0,0,0,0,0,0,0,-1,748,1548,-8.51897,-26.7597
-469,-524,-11.4355,33.9093,0,0,0,0,0,0,0,-1,755,1548,-11.4355,-33.9093
-462,-524,-12.2963,37.6239,0,0,0,0,0,0,0,-1,762,1548,-12.2963,-37.6238
-455,-524,-41.333,90.7723,0,0,0,0,0,0,0,-1,769,1548,-41.333,-90.7724
-448,-524,-41.6859,93.3203,0.00148114,0.00410866,0.00257671,0.0056872,-9.73947e-05,1.02115,0.00382434,0.045444,776,1548,-41.6858,-93.3203
-441,-524,-42.109,95.7671,0.00151838,0.00299383,0.00204151,0.00442682,8.53902e-05,0.958778,0.00292316,0.0148727,783,1548,-42.109,-95.7671
-434,-524,-42.4883,98.2073,0.00163604,0.00200712,0.00157493,0.0034074,0.000235763,0.844031,0.00219723,0.0167906,790,1548,-42.4883,-98.2073
-427,-524,-42.9415,100.654,0.00175776,0.00113312,0.00114617,0.00263341,0.000257474,0.652382,0.00167638,0.0194046,797,1548,-42.9415,-100.654
-420,-524,-43.4166,103.095,0.00188458,0.000247168,0.000662287,0.00211892,1.28283e-05,0.340086,0.00140835,0.0419441,804,1548,-43.4166,-103.095
-413,-524,-43.8975,105.507,0.00210568,-0.000512694,0.000225554,0.00212496,-0.000531982,0.0853054,0.00162329,0.0395235,811,1548,-43.8974,-105.507
-406,-524,-44.2642,107.982,0.00238897,-0.00129406,-0.000228998,0.00240315,-0.00130824,-0.0618591,0.00217363,0.018739,818,1548,-44.2642,-107.982
-399,-524,-44.6668,110.404,0.00278201,-0.00184499,-0.000612049,0.0028616,-0.00192458,-0.129315,0.0027809,0.0120135,825,1548,-44.6668,-110.404
-392,-524,-45.0903,112.794,0.0032273,-0.0024266,-0.00101104,0.00340266,-0.00260195,-0.171734,0.00347702,0.0123766,832,1548,-45.0903,-112.794
-385,-524,-45.5009,115.239,0.00381197,-0.0027684,-0.00132133,0.00406737,-0.00302381,-0.190941,0.00410885,0.0257474,839,1548,-45.5009,-115.239
-378,-524,-45.872,117.756,0,0,0,0,0,0,0,-1,846,1548,-45.872,-117.756
-371,-524,-4.20789,29.1592,0,0,0,0,0,0,0,-1,853,1548,-4.2079,-29.1592
-364,-524,-0.712097,14.9871,0,0,0,0,0,0,0,-1,860,1548,-0.712116,-14.9871
-357,-524,-1.34052,14.7448,0,0,0,0,0,0,0,-1,867,1548,-1.34054,-14.7447
-350,-524,-4.31909,25.032,0,0,0,0,0,0,0,-1,874,1548,-4.31906,-25.0319
-343,-524,-3.69696,28.6923,0,0,0,0,0,0,0,-1,881,1548,-3.69694,-28.6922
-336,-524,-3.4873,29.655,0,0,0,0,0,0,0,-1,888,1548,-3.48728,-29.6551
-329,-524,-3.21936,30.5509,0,0,0,0,0,0,0,-1,895,1548,-3.21933,-30.5509
-322,-524,-4.31378,25.6389,0,0,0,0,0,0,0,-1,902,1548,-4.31379,-25.639
-315,-524,-1.90839,19.4824,0,0,0,0,0,0,0,-1,909,1548,-1.90838,-19.4824
-308,-524,-2.36938,19.3059,0,0,0,0,0,0,0,-1,916,1548,-2.3694,-19.3058
-301,-524,2.72394,17.7618,0,0,0,0,0,0,0,-1,923,1548,2.72396,-17.7619
-294,-524,-1.52515,9.05408,0,0,0,0,0,0,0,-1,930,1548,-1.52512,-9.05411
-287,-524,-0.962219,10.3199,0,0,0,0,0,0,0,-1,937,1548,-0.962241,-10.32
-280,-524,-1.36255,10.3859,0,0,0,0,0,0,0,-1,944,1548,-1.36253,-10.3859
-273,-524,0,0,0,0,0,0,0,0,0,-1,951,1548,0,0
-266,-524,0,0,0,0,0,0,0,0,0,-1,958,1548,0,0
-259,-524,0,0,0,0,0,0,0,0,0,-1,965,1548,0,0
-252,-524,0,0,0,0,0,0,0,0,0,-1,972,1548,0,0
-245,-524,0,0,0,0,0,0,0,0,0,-1,979,1548,0,0
-238,-524,0,0,0,0,0,0,0,0,0,-1,986,1548,0,0
-231,-524,0,0,0,0,0,0,0,0,0,-1,993,1548,0,0
-224,-524,0,0,0,0,0,0,0,0,0,-1,1000,1548,0,0
-217,-524,0,0,0,0,0,0,0,0,0,-1,1007,1548,0,0
-210,-524,0,0,0,0,0,0,0,0,0,-1,1014,1548,0,0
-203,-524,0,0,0,0,0,0,0,0,0,-1,1021,1548,0,0
-196,-524,0,0,0,0,0,0,0,0,0,-1,1028,1548,0,0
-189,-524,0,0,0,0,0,0,0,0,0,-1,1035,1548,0,0
-182,-524,0,0,0,0,0,0,0,0,0,-1,1042,1548,0,0
-175,-524,0,0,0,0,0,0,0,0,0,-1,1049,1548,0,0
-168,-524,0,0,0,0,0,0,0,0,0,-1,1056,1548,0,0
-161,-524,0,0,0,0,0,0,0,0,0,-1,1063,1548,0,0
-154,-524,0,0,0,0,0,0,0,0,0,-1,1070,1548,0,0
-147,-524,0,0,0,0,0,0,0,0,0,-1,1077,1548,0,0
-140,-524,0,0,0,0,0,0,0,0,0,-1,1084,1548,0,0
-133,-524,0,0,0,0,0,0,0,0,0,-1,1091,1548,0,0
-126,-524,0,0,0,0,0,0,0,0,0,-1,1098,1548,0,0
-119,-524,0,0,0,0,0,0,0,0,0,-1,1105,1548,0,0
-112,-524,0,0,0,0,0,0,0,0,0,-1,1112,1548,0,0
-105,-524,0,0,0,0,0,0,0,0,0,-1,1119,1548,0,0
-98,-524,0,0,0,0,0,0,0,0,0,-1,1126,1548,0,0
-91,-524,0,0,0,0,0,0,0,0,0,-1,1133,1548,0,0
-84,-524,0,0,0,0,0,0,0,0,0,-1,1140,1548,0,0
-77,-524,0,0,0,0,0,0,0,0,0,-1,1147,1548,0,0
-70,-524,0,0,0,0,0,0,0,0,0,-1,1154,1548,0,0
-63,-524,0,0,0,0,0,0,0,0,0,-1,1161,1548,0,0
-56,-524,0,0,0,0,0,0,0,0,0,-1,1168,1548,0,0
-49,-524,0,0,0,0,0,0,0,0,0,-1,1175,1548,0,0
-42,-524,0,0,0,0,0,0,0,0,0,-1,1182,1548,0,0
-35,-524,0,0,0,0,0,0,0,0,0,-1,1189,1548,0,0
-28,-524,0,0,0,0,0,0,0,0,0,-1,1196,1548,0,0
-21,-524,0,0,0,0,0,0,0,0,0,-1,1203,1548,0,0
-14,-524,0,0,0,0,0,0,0,0,0,-1,1210,1548,0,0
-7,-524,0,0,0,0,0,0,0,0,0,-1,1217,1548,0,0
0,-524,0,0,0,0,0,0,0,0,0,-1,1224,1548,0,0
7,-524,0,0,0,0,0,0,0,0,0,-1,1231,1548,0,0
14,-524,0,0,0,0,0,0,0,0,0,-1,1238,1548,0,0
21,-524,0,0,0,0,0,0,0,0,0,-1,1245,1548,0,0
28,-524,0,0,0,0,0,0,0,0,0,-1,1252,1548,0,0
35,-524,0,0,0,0,0,0,0,0,0,-1,1259,1548,0,0
42,-524,0,0,0,0,0,0,0,0,0,-1,1266,1548,0,0
49,-524,0,0,0,0,0,0,0,0,0,-1,1273,1548,0,0
56,-524,0,0,0,0,0,0,0,0,0,-1,1280,1548,0,0
63,-524,0,0,0,0,0,0,0,0,0,-1,1287,1548,0,0
70,-524,0,0,0,0,0,0,0,0,0,-1,1294,1548,0,0
77,-524,0,0,0,0,0,0,0,0,0,-1,1301,1548,0,0
84,-524,0,0,0,0,0,0,0,0,0,-1,1308,1548,0,0
91,-524,0,0,0,0,0,0,0,0,0,-1,1315,1548,0,0
98,-524,0,0,0,0,0,0,0,0,0,-1,1322,1548,0,0
105,-524,0,0,0,0,0,0,0,0,0,-1,1329,1548,0,0
112,-524,0,0,0,0,0,0,0,0,0,-1,1336,1548,0,0
119,-524,0,0,0,0,0,0,0,0,0,-1,1343,1548,0,0
126,-524,0,0,0,0,0,0,0,0,0,-1,1350,1548,0,0
133,-524,0,0,0,0,0,0,0,0,0,-1,1357,1548,0,0
140,-524,0,0,0,0,0,0,0,0,0,-1,1364,1548,0,0
147,-524,0,0,0,0,0,0,0,0,0,-1,1371,1548,0,0
154,-524,0,0,0,0,0,0,0,0,0,-1,1378,1548,0,0
161,-524,0,0,0,0,0,0,0,0,0,-1,1385,1548,0,0
168,-524,0,0,0,0,0,0,0,0,0,-1,1392,1548,0,0
175,-524,0,0,0,0,0,0,0,0,0,-1,1399,1548,0,0
182,-524,0,0,0,0,0,0,0,0,0,-1,1406,1548,0,0
189,-524,0,0,0,0,0,0,0,0,0,-1,1413,1548,0,0
196,-524,0,0,0,0,0,0,0,0,0,-1,1420,1548,0,0
203,-524,0,0,0,0,0,0,0,0,0,-1,1427,1548,0,0
210,-524,0,0,0,0,0,0,0,0,0,-1,1434,1548,0,0
217,-524,0,0,0,0,0,0,0,0,0,-1,1441,1548,0,0
224,-524,0,0,0,0,0,0,0,0,0,-1,1448,1548,0,0
231,-524,0,0,0,0,0,0,0,0,0,-1,1455,1548,0,0
238,-524,0,0,0,0,0,0,0,0,0,-1,1462,1548,0,0
245,-524,0,0,0,0,0,0,0,0,0,-1,1469,1548,0,0
252,-524,0,0,0,0,0,0,0,0,0,-1,1476,1548,0,0
259,-524,0,0,0,0,0,0,0,0,0,-1,1483,1548,0,0
266,-524,0,0,0,0,0,0,0,0,0,-1,1490,1548,0,0
273,-524,0,0,0,0,0,0,0,0,0,-1,1497,1548,0,0
280,-524,0,0,0,0,0,0,0,0,0,-1,1504,1548,0,0
287,-524,0,0,0,0,0,0,0,0,0,-1,1511,1548,0,0
294,-524,0,0,0,0,0,0,0,0,0,-1,1518,1548,0,0
301,-524,0,0,0,0,0,0,0,0,0,-1,1525,1548,0,0
308,-524,0,0,0,0,0,0,0,0,0,-1,1532,1548,0,0
315,-524,0,0,0,0,0,0,0,0,0,-1,1539,1548,0,0
322,-524,0,0,0,0,0,0,0,0,0,-1,1546,1548,0,0
329,-524,0,0,0,0,0,0,0,0,0,-1,1553,1548,0,0
336,-524,0,0,0,0,0,0,0,0,0,-1,1560,1548,0,0
343,-524,0,0,0,0,0,0,0,0,0,-1,1567,1548,0,0
350,-524,0,0,0,0,0,0,0,0,0,-1,1574,1548,0,0
357,-524,0,0,0,0,0,0,0,0,0,-1,1581,1548,0,0
364,-524,0,0,0,0,0,0,0,0,0,-1,1588,1548,0,0
371,-524,0,0,0,0,0,0,0,0,0,-1,1595,1548,0,0
378,-524,0,0,0,0,0,0,0,0,0,-1,1602,1548,0,0
385,-524,0,0,0,0,0,0,0,0,0,-1,1609,1548,0,0
392,-524,0,0,0,0,0,0,0,0,0,-1,1616,1548,0,0
399,-524,8.81848,5.05774,0,0,0,0,0,0,0,-1,1623,1548,8.81843,-5.05769
406,-524,8.64294,6.06799,0,0,0,0,0,0,0,-1,1630,1548,8.6429,-6.06805
413,-524,11.677,6.41858,0,0,0,0,0,0,0,-1,1637,1548,11.677,-6.41864
420,-524,11.4913,6.36401,0,0,0,0,0,0,0,-1,1644,1548,11.4913,-6.36402
427,-524,7.68335,6.17249,0,0,0,0,0,0,0,-1,1651,1548,7.68341,-6.17245
434,-524,10.432,11.6801,0,0,0,0,0,0,0,-1,1658,1548,10.432,-11.68
441,-524,8.78552,4.12305,0,0,0,0,0,0,0,-1,1665,1548,8.78553,-4.12301
448,-524,14.1854,4.78674,0,0,0,0,0,0,0,-1,1672,1548,14.1854,-4.78674
455,-524,12.4784,3.65576,0,0,0,0,0,0,0,-1,1679,1548,12.4784,-3.65572
462,-524,14.7551,9.29395,0,0,0,0,0,0,0,-1,1686,1548,14.7552,-9.29397
469,-524,16.3314,14.3779,0,0,0,0,0,0,0,-1,1693,1548,16.3314,-14.3779
476,-524,15.9106,15.1875,0,0,0,0,0,0,0,-1,1700,1548,15.9107,-15.1876
483,-524,15.2776,16.2268,0,0,0,0,0,0,0,-1,1707,1548,15.2776,-16.2269
490,-524,15.2563,18.5848,0,0,0,0,0,0,0,-1,1714,1548,15.2564,-18.5848
497,-524,30.566,48.7196,0,0,0,0,0,0,0,-1,1721,1548,30.566,-48.7196
504,-524,33.686,57.3251,0,0,0,0,0,0,0,-1,1728,1548,33.686,-57.3251
511,-524,51.7324,118.321,0,0,0,0,0,0,0,-1,1735,1548,51.7324,-118.321
518,-524,51.312,115.71,0.00316571,0.00304515,-0.00138945,0.00449619,0.00171467,-0.763719,0.00262012,0.0483294,1742,1548,51.312,-115.71
525,-524,50.8208,113.371,0.00248221,0.00267879,-0.00117982,0.00376441,0.00139658,-0.826956,0.00219736,0.0177426,1749,1548,50.8208,-113.371
532,-524,50.402,110.956,0.00207978,0.00235038,-0.00114337,0.00336643,0.00106374,-0.844292,0.001987,0.0141338,1756,1548,50.4019,-110.956
539,-524,49.9756,108.503,0.0018633,0.00212237,-0.00112638,0.00312664,0.000859031,-0.842649,0.00186523,0.0168363,1763,1548,49.9756,-108.503
546,-524,49.5422,106.08,0.0017473,0.0019799,-0.0011412,0.00301071,0.000716491,-0.836177,0.00181605,0.021778,1770,1548,49.5422,-106.08
553,-524,49.132,103.796,0.00175626,0.0018848,-0.00113993,0.00296227,0.000678787,-0.813561,0.00179196,0.0367878,1777,1548,49.132,-103.796
560,-524,48.7891,101.41,0.00199653,0.00194813,-0.00128383,0.00325638,0.000688277,-0.775976,0.00198175,0.044605,1784,1548,48.7891,-101.41
567,-524,48.2559,98.8588,0.00230015,0.00210014,-0.00150035,0.00370382,0.000696467,-0.752119,0.00227291,0.0274055,1791,1548,48.2559,-98.8588
574,-524,47.7947,96.3529,0.00272232,0.00233071,-0.00179235,0.00432953,0.000723501,-0.730992,0.00267797,0.0233953,1798,1548,47.7946,-96.3529
581,-524,47.3842,93.9128,0.00330658,0.00273922,-0.00227273,0.00531327,0.000732526,-0.72331,0.00332501,0.025775,1805,1548,47.3841,-93.9128
588,-524,46.9277,91.5237,0,0,0,0,0,0,0,-1,1812,1548,46.9277,-91.5237
595,-524,36.1853,49.8848,0,0,0,0,0,0,0,-1,1819,1548,36.1853,-49.8847
602,-524,13.837,12.0682,0,0,0,0,0,0,0,-1,1826,1548,13.837,-12.0683
609,-524,13.0056,10.5138,0,0,0,0,0,0,0,-1,1833,1548,13.0056,-10.5138
616,-524,11.6941,8.65515,0,0,0,0,0,0,0,-1,1840,1548,11.6941,-8.65514
623,-524,9.38452,5.15356,0,0,0,0,0,0,0,-1,1847,1548,9.38456,-5.15359
630,-524,11.0541,3.57434,0,0,0,0,0,0,0,-1,1854,1548,11.0541,-3.57438
637,-524,11.6067,3.20728,0,0,0,0,0,0,0,-1,1861,1548,11.6067,-3.20724
644,-524,12.2134,0.727173,0,0,0,0,0,0,0,-1,1868,1548,12.2134,-0.727222
651,-524,0,0,0,0,0,0,0,0,0,-1,1875,1548,0,0
658,-524,0,0,0,0,0,0,0,0,0,-1,1882,1548,0,0
665,-524,0,0,0,0,0,0,0,0,0,-1,1889,1548,0,0
672,-524,0,0,0,0,0,0,0,0,0,-1,1896,1548,0,0
679,-524,0,0,0,0,0,0,0,0,0,-1,1903,1548,0,0
686,-524,0,0,0,0,0,0,0,0,0,-1,1910,1548,0,0
693,-524,0,0,0,0,0,0,0,0,0,-1,1917,1548,0,0
700,-524,0,0,0,0,0,0,0,0,0,-1,1924,1548,0,0
707,-524,0,0,0,0,0,0,0,0,0,-1,1931,1548,0,0
714,-524,0,0,0,0,0,0,0,0,0,-1,1938,1548,0,0
721,-524,0,0,0,0,0,0,0,0,0,-1,1945,1548,0,0
728,-524,0,0,0,0,0,0,0,0,0,-1,1952,1548,0,0
735,-524,0,0,0,0,0,0,0,0,0,-1,1959,1548,0,0
742,-524,0,0,0,0,0,0,0,0,0,-1,1966,1548,0,0
749,-524,0,0,0,0,0,0,0,0,0,-1,1973,1548,0,0
756,-524,0,0,0,0,0,0,0,0,0,-1,1980,1548,0,0
763,-524,0,0,0,0,0,0,0,0,0,-1,1987,1548,0,0
770,-524,0,0,0,0,0,0,0,0,0,-1,1994,1548,0,0
777,-524,0,0,0,0,0,0,0,0,0,-1,2001,1548,0,0
784,-524,0,0,0,0,0,0,0,0,0,-1,2008,1548,0,0
791,-524,0,0,0,0,0,0,0,0,0,-1,2015,1548,0,0
798,-524,0,0,0,0,0,0,0,0,0,-1,2022,1548,0,0
805,-524,0,0,0,0,0,0,0,0,0,-1,2029,1548,0,0
812,-524,0,0,0,0,0,0,0,0,0,-1,2036,1548,0,0
-700,-531,0,0,0,0,0,0,0,0,0,-1,524,1555,0,0
-693,-531,0,0,0,0,0,0,0,0,0,-1,531,1555,0,0
-686,-531,0,0,0,0,0,0,0,0,0,-1,538,1555,0,0
-679,-531,0,0,0,0,0,0,0,0,0,-1,545,1555,0,0
-672,-531,0,0,0,0,0,0,0,0,0,-1,552,1555,0,0
-665,-531,0,0,0,0,0,0,0,0,0,-1,559,1555,0,0
-658,-531,0,0,0,0,0,0,0,0,0,-1,566,1555,0,0
-651,-531,0,0,0,0,0,0,0,0,0,-1,573,1555,0,0
-644,-531,0,0,0,0,0,0,0,0,0,-1,580,1555,0,0
-637,-531,0,0,0,0,0,0,0,0,0,-1,587,1555,0,0
-630,-531,0,0,0,0,0,0,0,0,0,-1,594,1555,0,0
-623,-531,0,0,0,0,0,0,0,0,0,-1,601,1555,0,0
-616,-531,0,0,0,0,0,0,0,0,0,-1,608,1555,0,0
-609,-531,0,0,0,0,0,0,0,0,0,-1,615,1555,0,0
-602,-531,0,0,0,0,0,0,0,0,0,-1,622,1555,0,0
-595,-531,0,0,0,0,0,0,0,0,0,-1,629,1555,0,0
-588,-531,0,0,0,0,0,0,0,0,0,-1,636,1555,0,0
-581,-531,0,0,0,0,0,0,0,0,0,-1,643,1555,0,0
-574,-531,0,0,0,0,0,0,0,0,0,-1,650,1555,0,0
-567,-531,0,0,0,0,0,0,0,0,0,-1,657,1555,0,0
-560,-531,0,0,0,0,0,0,0,0,0,-1,664,1555,0,0
-553,-531,0,0,0,0,0,0,0,0,0,-1,671,1555,0,0
-546,-531,0,0,0,0,0,0,0,0,0,-1,678,1555,0,0
-539,-531,0,0,0,0,0,0,0,0,0,-1,685,1555,0,0
-532,-531,0,0,0,0,0,0,0,0,0,-1,692,1555,0,0
-525,-531,0,0,0,0,0,0,0,0,0,-1,699,1555,0,0
-518,-531,-1.63983,4.03821,0,0,0,0,0,0,0,-1,706,1555,-1.63982,-4.03821
-511,-531,-2.9682,8.07483,0,0,0,0,0,0,0,-1,713,1555,-2.9682,-8.07479
-504,-531,-2.95978,0.557861,0,0,0,0,0,0,0,-1,720,1555,-2.95978,-0.557917
-497,-531,-2.46039,8.07422,0,0,0,0,0,0,0,-1,727,1555,-2.46039,-8.07423
-490,-531,-0.423462,7.92065,0,0,0,0,0,0,0,-1,734,1555,-0.42344,-7.92066
-483,-531,-7.50745,20.1915,0,0,0,0,0,0,0,-1,741,1555,-7.50744,-20.1915
-476,-531,-7.69647,23.6229,0,0,0,0,0,0,0,-1,748,1555,-7.6965,-23.6229
-469,-531,-8.2475,27.6931,0,0,0,0,0,0,0,-1,755,1555,-8.2475,-27.6931
-462,-531,-7.27551,28.5044,0,0,0,0,0,0,0,-1,762,1555,-7.27551,-28.5044
-455,-531,-11.3782,37.1852,0,0,0,0,0,0,0,-1,769,1555,-11.3782,-37.1852
-448,-531,-39.3132,93.5333,0,0,0,0,0,0,0,-1,776,1555,-39.3132,-93.5333
-441,-531,-39.7117,96.1274,0.00174193,0.0034618,0.00272769,0.0054619,-0.000258165,0.938098,0.0037303,0.0310053,783,1555,-39.7117,-96.1275
-434,-531,-40.1193,98.6418,0.00176811,0.0025551,0.00216984,0.00436683,-4.36283e-05,0.875097,0.00292587,0.0150606,790,1555,-40.1193,-98.6419
-427,-531,-40.5176,101.098,0.00179473,0.00173834,0.00170026,0.00346702,6.60424e-05,0.777107,0.00228965,0.018343,797,1555,-40.5177,-101.098
-420,-531,-41.0178,103.512,0.0017953,0.000897624,0.0011583,0.00258868,0.000104242,0.600557,0.00169211,0.0382555,804,1555,-41.0177,-103.512
-413,-531,-41.4526,105.955,0.00188469,0.000142553,0.000647192,0.0020988,-7.15593e-05,0.319498,0.00142366,0.0359284,811,1555,-41.4527,-105.955
-406,-531,-41.851,108.394,0.00207536,-0.000588338,0.00016251,0.00208524,-0.000598216,0.0607092,0.00162665,0.0190004,818,1555,-41.8509,-108.394
-399,-531,-42.2726,110.812,0.00236728,-0.00108471,-0.000230627,0.00238262,-0.00110005,-0.0664165,0.00205567,0.0167867,825,1555,-42.2726,-110.812
-392,-531,-42.6917,113.252,0.00271952,-0.00156811,-0.000619059,0.00280711,-0.0016557,-0.140559,0.00260503,0.0192702,832,1555,-42.6917,-113.252
-385,-531,-43.1229,115.706,0.00322064,-0.00176972,-0.00093289,0.00338933,-0.00193842,-0.178893,0.00311377,0.0181565,839,1555,-43.1228,-115.706
-378,-531,-43.5473,118.004,0.00382203,-0.00179486,-0.00110493,0.00403157,-0.0020044,-0.187415,0.00354978,0.0306715,846,1555,-43.5473,-118.004
-371,-531,-43.9519,120.577,0,0,0,0,0,0,0,-1,853,1555,-43.9519,-120.577
-364,-531,-44.145,123.197,0,0,0,0,0,0,0,-1,860,1555,-44.145,-123.197
-357,-531,-4.29193,31.5354,0,0,0,0,0,0,0,-1,867,1555,-4.29191,-31.5354
-350,-531,-3.16101,27.5791,0,0,0,0,0,0,0,-1,874,1555,-3.16099,-27.5791
-343,-531,-2.90552,28.561,0,0,0,0,0,0,0,-1,881,1555,-2.90549,-28.5611
-336,-531,-2.6698,29.5398,0,0,0,0,0,0,0,-1,888,1555,-2.66983,-29.5398
-329,-531,-2.45148,30.4781,0,0,0,0,0,0,0,-1,895,1555,-2.45148,-30.4781
-322,-531,-3.25092,28.4921,0,0,0,0,0,0,0,-1,902,1555,-3.25092,-28.4921
-315,-531,-5.51929,31.7814,0,0,0,0,0,0,0,-1,909,1555,-5.51928,-31.7813
-308,-531,-1.66455,19.0624,0,0,0,0,0,0,0,-1,916,1555,-1.66455,-19.0623
-301,-531,-2.02405,18.8912,0,0,0,0,0,0,0,-1,923,1555,-2.02407,-18.8913
-294,-531,-1.3244,8.1825,0,0,0,0,0,0,0,-1,930,1555,-1.3244,-8.18251
-287,-531,-1.78192,10.1661,0,0,0,0,0,0,0,-1,937,1555,-1.78192,-10.1661
-280,-531,-2.14508,10.3945,0,0,0,0,0,0,0,-1,944,1555,-2.14506,-10.3945
-273,-531,-2.50818,10.6229,0,0,0,0,0,0,0,-1,951,1555,-2.5082,-10.6229
-266,-531,-4.97742,17.9215,0,0,0,0,0,0,0,-1,958,1555,-4.97744,-17.9215
-259,-531,0,0,0,0,0,0,0,0,0,-1,965,1555,0,0
-252,-531,0,0,0,0,0,0,0,0,0,-1,972,1555,0,0
-245,-531,0,0,0,0,0,0,0,0,0,-1,979,1555,0,0
-238,-531,0,0,0,0,0,0,0,0,0,-1,986,1555,0,0
-231,-531,0,0,0,0,0,0,0,0,0,-1,993,1555,0,0
-224,-531,0,0,0,0,0,0,0,0,0,-1,1000,1555,0,0
-217,-531,0,0,0,0,0,0,0,0,0,-1,1007,1555,0,0
-210,-531,0,0,0,0,0,0,0,0,0,-1,1014,1555,0,0
-203,-531,0,0,0,0,0,0,0,0,0,-1,1021,1555,0,0
-196,-531,0,0,0,0,0,0,0,0,0,-1,1028,1555,0,0
-189,-531,0,0,0,0,0,0,0,0,0,-1,1035,1555,0,0
-182,-531,0,0,0,0,0,0,0,0,0,-1,1042,1555,0,0
-175,-531,0,0,0,0,0,0,0,0,0,-1,1049,1555,0,0
-168,-531,0,0,0,0,0,0,0,0,0,-1,1056,1555,0,0
-161,-531,0,0,0,0,0,0,0,0,0,-1,1063,1555,0,0
-154,-531,0,0,0,0,0,0,0,0,0,-1,1070,1555,0,0
-147,-531,0,0,0,0,0,0,0,0,0,-1,1077,1555,0,0
-140,-531,0,0,0,0,0,0,0,0,0,-1,1084,1555,0,0
-133,-531,0,0,0,0,0,0,0,0,0,-1,1091,1555,0,0
-126,-531,0,0,0,0,0,0,0,0,0,-1,1098,1555,0,0
-119,-531,0,0,0,0,0,0,0,0,0,-1,1105,1555,0,0
-112,-531,0,0,0,0,0,0,0,0,0,-1,1112,1555,0,0
-105,-531,0,0,0,0,0,0,0,0,0,-1,1119,1555,0,0
-98,-531,0,0,0,0,0,0,0,0,0,-1,1126,1555,0,0
-91,-531,0,0,0,0,0,0,0,0,0,-1,1133,1555,0,0
-84,-531,0,0,0,0,0,0,0,0,0,-1,1140,1555,0,0
-77,-531,0,0,0,0,0,0,0,0,0,-1,1147,1555,0,0
-70,-531,0,0,0,0,0,0,0,0,0,-1,1154,1555,0,0
-63,-531,0,0,0,0,0,0,0,0,0,-1,1161,1555,0,0
-56,-531,0,0,0,0,0,0,0,0,0,-1,1168,1555,0,0
-49,-531,0,0,0,0,0,0,0,0,0,-1,1175,1555,0,0
-42,-531,0,0,0,0,0,0,0,0,0,-1,1182,1555,0,0
-35,-531,0,0,0,0,0,0,0,0,0,-1,1189,1555,0,0
-28,-531,0,0,0,0,0,0,0,0,0,-1,1196,1555,0,0
-21,-531,0,0,0,0,0,0,0,0,0,-1,1203,1555,0,0
-14,-531,0,0,0,0,0,0,0,0,0,-1,1210,1555,0,0
-7,-531,0,0,0,0,0,0,0,0,0,-1,1217,1555,0,0
0,-531,0,0,0,0,0,0,0,0,0,-1,1224,1555,0,0
7,-531,0,0,0,0,0,0,0,0,0,-1,1231,1555,0,0
14,-531,0,0,0,0,0,0,0,0,0,-1,1238,1555,0,0
21,-531,0,0,0,0,0,0,0,0,0,-1,1245,1555,0,0
28,-531,0,0,0,0,0,0,0,0,0,-1,1252,1555,0,0
35,-531,0,0,0,0,0,0,0,0,0,-1,1259,1555,0,0
42,-531,0,0,0,0,0,0,0,0,0,-1,1266,1555,0,0
49,-531,0,0,0,0,0,0,0,0,0,-1,1273,1555,0,0
56,-531,0,0,0,0,0,0,0,0,0,-1,1280,1555,0,0
63,-531,0,0,0,0,0,0,0,0,0,-1,1287,1555,0,0
70,-531,0,0,0,0,0,0,0,0,0,-1,1294,1555,0,0
77,-531,0,0,0,0,0,0,0,0,0,-1,1301,1555,0,0
84,-531,0,0,0,0,0,0,0,0,0,-1,1308,1555,0,0
91,-531,0,0,0,0,0,0,0,0,0,-1,1315,1555,0,0
98,-531,0,0,0,0,0,0,0,0,0,-1,1322,1555,0,0
105,-531,0,0,0,0,0,0,0,0,0,-1,1329,1555,0,0
112,-531,0,0,0,0,0,0,0,0,0,-1,1336,1555,0,0
119,-531,0,0,0,0,0,0,0,0,0,-1,1343,1555,0,0
126,-531,0,0,0,0,0,0,0,0,0,-1,1350,1555,0,0
133,-531,0,0,0,0,0,0,0,0,0,-1,1357,1555,0,0
140,-531,0,0,0,0,0,0,0,0,0,-1,1364,1555,0,0
147,-531,0,0,0,0,0,0,0,0,0,-1,1371,1555,0,0
154,-531,0,0,0,0,0,0,0,0,0,-1,1378,1555,0,0
161,-531,0,0,0,0,0,0,0,0,0,-1,1385,1555,0,0
168,-531,0,0,0,0,0,0,0,0,0,-1,1392,1555,0,0
175,-531,0,0,0,0,0,0,0,0,0,-1,1399,1555,0,0
182,-531,0,0,0,0,0,0,0,0,0,-1,1406,1555,0,0
189,-531,0,0,0,0,0,0,0,0,0,-1,1413,1555,0,0
196,-531,0,0,0,0,0,0,0,0,0,-1,1420,1555,0,0
203,-531,0,0,0,0,0,0,0,0,0,-1,1427,1555,0,0
210,-531,0,0,0,0,0,0,0,0,0,-1,1434,1555,0,0
217,-531,0,0,0,0,0,0,0,0,0,-1,1441,1555,0,0
224,-531,0,0,0,0,0,0,0,0,0,-1,1448,1555,0,0
231,-531,0,0,0,0,0,0,0,0,0,-1,1455,1555,0,0
238,-531,0,0,0,0,0,0,0,0,0,-1,1462,1555,0,0
245,-531,0,0,0,0,0,0,0,0,0,-1,1469,1555,0,0
252,-531,0,0,0,0,0,0,0,0,0,-1,1476,1555,0,0
259,-531,0,0,0,0,0,0,0,0,0,-1,1483,1555,0,0
266,-531,0,0,0,0,0,0,0,0,0,-1,1490,1555,0,0
273,-531,0,0,0,0,0,0,0,0,0,-1,1497,1555,0,0
280,-531,0,0,0,0,0,0,0,0,0,-1,1504,1555,0,0
287,-531,0,0,0,0,0,0,0,0,0,-1,1511,1555,0,0
294,-531,0,0,0,0,0,0,0,0,0,-1,1518,1555,0,0
301,-531,0,0,0,0,0,0,0,0,0,-1,1525,1555,0,0
308,-531,0,0,0,0,0,0,0,0,0,-1,1532,1555,0,0
315,-531,0,0,0,0,0,0,0,0,0,-1,1539,1555,0,0
322,-531,0,0,0,0,0,0,0,0,0,-1,1546,1555,0,0
329,-531,0,0,0,0,0,0,0,0,0,-1,1553,1555,0,0
336,-531,0,0,0,0,0,0,0,0,0,-1,1560,1555,0,0
343,-531,0,0,0,0,0,0,0,0,0,-1,1567,1555,0,0
350,-531,0,0,0,0,0,0,0,0,0,-1,1574,1555,0,0
357,-531,0,0,0,0,0,0,0,0,0,-1,1581,1555,0,0
364,-531,0,0,0,0,0,0,0,0,0,-1,1588,1555,0,0
371,-531,0,0,0,0,0,0,0,0,0,-1,1595,1555,0,0
378,-531,0,0,0,0,0,0,0,0,0,-1,1602,1555,0,0
385,-531,3.48169,1.78625,0,0,0,0,0,0,0,-1,1609,1555,3.48165,-1.78624
392,-531,10.8781,9.09204,0,0,0,0,0,0,0,-1,1616,1555,10.8781,-9.09205
399,-531,8.26306,5.29602,0,0,0,0,0,0,0,-1,1623,1555,8.26302,-5.29607
406,-531,8.26147,5.42712,0,0,0,0,0,0,0,-1,1630,1555,8.26145,-5.42716
413,-531,8.20618,5.75012,0,0,0,0,0,0,0,-1,1637,1555,8.20619,-5.75017
420,-531,7.64868,7.09558,0,0,0,0,0,0,0,-1,1644,1555,7.64867,-7.09564
427,-531,9.93054,11.8412,0,0,0,0,0,0,0,-1,1651,1555,9.93059,-11.8412
434,-531,10.244,11.7072,0,0,0,0,0,0,0,-1,1658,1555,10.244,-11.7071
441,-531,11.4528,12.9397,0,0,0,0,0,0,0,-1,1665,1555,11.4528,-12.9397
448,-531,11.928,18.8029,0,0,0,0,0,0,0,-1,1672,1555,11.928,-18.8028
455,-531,14.4877,9.67065,0,0,0,0,0,0,0,-1,1679,1555,14.4876,-9.67066
462,-531,13.5253,12.2002,0,0,0,0,0,0,0,-1,1686,1555,13.5252,-12.2002
469,-531,15.5087,15.7894,0,0,0,0,0,0,0,-1,1693,1555,15.5086,-15.7895
476,-531,14.6582,16.2264,0,0,0,0,0,0,0,-1,1700,1555,14.6582,-16.2264
483,-531,14.755,18.5994,0,0,0,0,0,0,0,-1,1707,1555,14.7551,-18.5994
490,-531,16.9362,25.4943,0,0,0,0,0,0,0,-1,1714,1555,16.9362,-25.4942
497,-531,32.8171,58.4194,0,0,0,0,0,0,0,-1,1721,1555,32.8171,-58.4195
504,-531,49.5967,121.067,0,0,0,0,0,0,0,-1,1728,1555,49.5966,-121.067
511,-531,49.2545,118.637,0.00348091,0.00314761,-0.00143889,0.00476277,0.00186575,-0.727745,0.00277119,0.0293718,1735,1555,49.2545,-118.637
518,-531,48.861,116.21,0.00262993,0.0027245,-0.00117333,0.00385149,0.00150294,-0.805537,0.00224145,0.0198762,1742,1555,48.8609,-116.21
525,-531,48.4031,113.821,0.00196093,0.00233996,-0.000990729,0.00315914,0.00114176,-0.879901,0.00184714,0.0188861,1749,1555,48.4031,-113.821
532,-531,47.9731,111.373,0.00157466,0.00209765,-0.000996008,0.00286591,0.000806391,-0.913771,0.00170655,0.0151133,1756,1555,47.9732,-111.373
539,-531,47.5625,108.964,0.00141517,0.00195005,-0.00103911,0.00275558,0.000609643,-0.911353,0.00167132,0.017879,1763,1555,47.5626,-108.964
546,-531,47.1215,106.541,0.00142758,0.00195088,-0.00118948,0.00290715,0.000471309,-0.89366,0.00180167,0.0229323,1770,1555,47.1215,-106.541
553,-531,46.7201,104.462,0.00157623,0.00200405,-0.00133546,0.00314263,0.000437656,-0.864812,0.00196551,0.0465804,1777,1555,46.7202,-104.462
560,-531,46.3929,102.013,0.00193147,0.0021632,-0.0016062,0.00365771,0.000436961,-0.821403,0.00230666,0.049861,1784,1555,46.3929,-102.013
567,-531,45.83,99.3196,0.00236712,0.00248519,-0.0019228,0.00434987,0.000502449,-0.800745,0.00274779,0.0295923,1791,1555,45.83,-99.3195
574,-531,45.3884,96.8484,0.00284831,0.002813,-0.00225557,0.0050863,0.000575016,-0.781485,0.00321637,0.0288102,1798,1555,45.3885,-96.8484
581,-531,44.9713,94.3549,0,0,0,0,0,0,0,-1,1805,1555,44.9713,-94.3548
588,-531,35.8337,54.0994,0,0,0,0,0,0,0,-1,1812,1555,35.8337,-54.0994
595,-531,25.4437,28.0334,0,0,0,0,0,0,0,-1,1819,1555,25.4438,-28.0335
602,-531,13.701,11.8346,0,0,0,0,0,0,0,-1,1826,1555,13.701,-11.8347
609,-531,10.9072,8.50903,0,0,0,0,0,0,0,-1,1833,1555,10.9073,-8.50902
616,-531,10.5723,7.17859,0,0,0,0,0,0,0,-1,1840,1555,10.5723,-7.17855
623,-531,10.0674,5.08984,0,0,0,0,0,0,0,-1,1847,1555,10.0674,-5.08981
630,-531,11.672,3.18909,0,0,0,0,0,0,0,-1,1854,1555,11.672,-3.18904
637,-531,13.2546,1.38965,0,0,0,0,0,0,0,-1,1861,1555,13.2547,-1.3896
644,-531,0,0,0,0,0,0,0,0,0,-1,1868,1555,0,0
651,-531,0,0,0,0,0,0,0,0,0,-1,1875,1555,0,0
658,-531,0,0,0,0,0,0,0,0,0,-1,1882,1555,0,0
665,-531,0,0,0,0,0,0,0,0,0,-1,1889,1555,0,0
672,-531,0,0,0,0,0,0,0,0,0,-1,1896,1555,0,0
679,-531,0,0,0,0,0,0,0,0,0,-1,1903,1555,0,0
686,-531,0,0,0,0,0,0,0,0,0,-1,1910,1555,0,0
693,-531,0,0,0,0,0,0,0,0,0,-1,1917,1555,0,0
700,-531,0,0,0,0,0,0,0,0,0,-1,1924,1555,0,0
707,-531,0,0,0,0,0,0,0,0,0,-1,1931,1555,0,0
714,-531,0,0,0,0,0,0,0,0,0,-1,1938,1555,0,0
721,-531,0,0,0,0,0,0,0,0,0,-1,1945,1555,0,0
728,-531,0,0,0,0,0,0,0,0,0,-1,1952,1555,0,0
735,-531,0,0,0,0,0,0,0,0,0,-1,1959,1555,0,0
742,-531,0,0,0,0,0,0,0,0,0,-1,1966,1555,0,0
749,-531,0,0,0,0,0,0,0,0,0,-1,1973,1555,0,0
756,-531,0,0,0,0,0,0,0,0,0,-1,1980,1555,0,0
763,-531,0,0,0,0,0,0,0,0,0,-1,1987,1555,0,0
770,-531,0,0,0,0,0,0,0,0,0,-1,1994,1555,0,0
777,-531,0,0,0,0,0,0,0,0,0,-1,2001,1555,0,0
784,-531,0,0,0,0,0,0,0,0,0,-1,2008,1555,0,0
791,-531,0,0,0,0,0,0,0,0,0,-1,2015,1555,0,0
798,-531,0,0,0,0,0,0,0,0,0,-1,2022,1555,0,0
805,-531,0,0,0,0,0,0,0,0,0,-1,2029,1555,0,0
812,-531,0,0,0,0,0,0,0,0,0,-1,2036,1555,0,0
-700,-538,0,0,0,0,0,0,0,0,0,-1,524,1562,0,0
-693,-538,0,0,0,0,0,0,0,0,0,-1,531,1562,0,0
-686,-538,0,0,0,0,0,0,0,0,0,-1,538,1562,0,0
-679,-538,0,0,0,0,0,0,0,0,0,-1,545,1562,0,0
-672,-538,0,0,0,0,0,0,0,0,0,-1,552,1562,0,0
-665,-538,0,0,0,0,0,0,0,0,0,-1,559,1562,0,0
-658,-538,0,0,0,0,0,0,0,0,0,-1,566,1562,0,0
-651,-538,0,0,0,0,0,0,0,0,0,-1,573,1562,0,0
-644,-538,0,0,0,0,0,0,0,0,0,-1,580,1562,0,0
-637,-538,0,0,0,0,0,0,0,0,0,-1,587,1562,0,0
-630,-538,0,0,0,0,0,0,0,0,0,-1,594,1562,0,0
-623,-538,0,0,0,0,0,0,0,0,0,-1,601,1562,0,0
-616,-538,0,0,0,0,0,0,0,0,0,-1,608,1562,0,0
-609,-538,0,0,0,0,0,0,0,0,0,-1,615,1562,0,0
-602,-538,0,0,0,0,0,0,0,0,0,-1,622,1562,0,0
-595,-538,0,0,0,0,0,0,0,0,0,-1,629,1562,0,0
-588,-538,0,0,0,0,0,0,0,0,0,-1,636,1562,0,0
-581,-538,0,0,0,0,0,0,0,0,0,-1,643,1562,0,0
-574,-538,0,0,0,0,0,0,0,0,0,-1,650,1562,0,0
-567,-538,0,0,0,0,0,0,0,0,0,-1,657,1562,0,0
-560,-538,0,0,0,0,0,0,0,0,0,-1,664,1562,0,0
-553,-538,0,0,0,0,0,0,0,0,0,-1,671,1562,0,0
-546,-538,0,0,0,0,0,0,0,0,0,-1,678,1562,0,0
-539,-538,0,0,0,0,0,0,0,0,0,-1,685,1562,0,0
-532,-538,0,0,0,0,0,0,0,0,0,-1,692,1562,0,0
-525,-538,0,0,0,0,0,0,0,0,0,-1,699,1562,0,0
-518,-538,0,0,0,0,0,0,0,0,0,-1,706,1562,0,0
-511,-538,-2.6582,-1.54321,0,0,0,0,0,0,0,-1,713,1562,-2.65821,1.54327
-504,-538,-2.66455,-0.71167,0,0,0,0,0,0,0,-1,720,1562,-2.66456,0.711667
-497,-538,-0.763855,6.77747,0,0,0,0,0,0,0,-1,727,1562,-0.76385,-6.77743
-490,-538,-2.70453,8.01465,0,0,0,0,0,0,0,-1,734,1562,-2.70451,-8.0147
-483,-538,-0.933533,7.84644,0,0,0,0,0,0,0,-1,741,1562,-0.933548,-7.84638
-476,-538,-3.29962,15.8307,0,0,0,0,0,0,0,-1,748,1562,-3.29962,-15.8306
-469,-538,-6.44983,24.5707,0,0,0,0,0,0,0,-1,755,1562,-6.4498,-24.5707
-462,-538,-5.75458,25.4069,0,0,0,0,0,0,0,-1,762,1562,-5.7546,-25.4068
-455,-538,-11.161,39.4834,0,0,0,0,0,0,0,-1,769,1562,-11.161,-39.4833
-448,-538,-13.2156,47.0696,0,0,0,0,0,0,0,-1,776,1562,-13.2156,-47.0695
-441,-538,-37.1653,96.3801,0,0,0,0,0,0,0,-1,783,1562,-37.1653,-96.3801
-434,-538,-37.6747,99.0212,0.00212644,0.00316077,0.00304062,0.00572789,-0.000440679,0.869635,0.00397364,0.0329213,790,1562,-37.6747,-99.0212
-427,-538,-38.1685,101.589,0.00204532,0.00236716,0.00249991,0.00471132,-0.00029884,0.81754,0.00324508,0.0174806,797,1562,-38.1684,-101.589
-420,-538,-38.604,104.004,0.00190658,0.00153126,0.00187283,0.00360113,-0.000163288,0.735463,0.00245699,0.0223738,804,1562,-38.604,-104.004
-413,-538,-38.999,106.374,0.00183547,0.000719935,0.00123701,0.00263464,-7.92405e-05,0.573598,0.00178343,0.0250074,811,1562,-38.999,-106.374
-406,-538,-39.4108,108.818,0.0019156,-8.29567e-06,0.000680445,0.00213193,-0.00022463,0.307825,0.00150178,0.0242894,818,1562,-39.4108,-108.818
-399,-538,-39.8104,111.27,0.00211146,-0.00050852,0.000230201,0.00213153,-0.000528592,0.0869755,0.00162611,0.0204427,825,1562,-39.8104,-111.27
-392,-538,-40.2482,113.695,0.00238146,-0.000937667,-0.000190232,0.00239233,-0.000948535,-0.057065,0.00198798,0.0184972,832,1562,-40.2483,-113.695
-385,-538,-40.706,116.147,0.0027808,-0.00107363,-0.00054999,0.00285774,-0.00115057,-0.138996,0.00238314,0.0163116,839,1562,-40.706,-116.147
-378,-538,-41.1292,118.536,0.00328714,-0.00102635,-0.000752237,0.00341456,-0.00115377,-0.167795,0.00274307,0.0143051,846,1562,-41.1291,-118.536
-371,-538,-41.5468,120.882,0.00385871,-0.000734393,-0.000740648,0.00397519,-0.000850871,-0.155987,0.0029746,0.023363,853,1562,-41.5468,-120.882
-364,-538,-41.8561,123.404,0.00446135,-8.5522e-05,-0.000756448,0.0045839,-0.000208067,-0.160605,0.0031276,0.0480121,860,1562,-41.8561,-123.404
-357,-538,-42.1169,126.01,0,0,0,0,0,0,0,-1,867,1562,-42.1169,-126.01
-350,-538,-6.37695,40.0256,0,0,0,0,0,0,0,-1,874,1562,-6.37696,-40.0257
-343,-538,-2.47339,28.3082,0,0,0,0,0,0,0,-1,881,1562,-2.47341,-28.3083
-336,-538,-2.40161,28.5409,0,0,0,0,0,0,0,-1,888,1562,-2.40163,-28.541
-329,-538,-2.57159,28.4905,0,0,0,0,0,0,0,-1,895,1562,-2.57161,-28.4905
-322,-538,-2.83783,28.2308,0,0,0,0,0,0,0,-1,902,1562,-2.83783,-28.2308
-315,-538,-2.91827,27.7609,0,0,0,0,0,0,0,-1,909,1562,-2.91829,-27.7608
-308,-538,-4.37433,31.7996,0,0,0,0,0,0,0,-1,916,1562,-4.3743,-31.7995
-301,-538,-0.452393,18.5101,0,0,0,0,0,0,0,-1,923,1562,-0.452367,-18.5102
-294,-538,1.23138,14.0757,0,0,0,0,0,0,0,-1,930,1562,1.23137,-14.0757
-287,-538,-2.60419,10.2361,0,0,0,0,0,0,0,-1,937,1562,-2.6042,-10.2361
-280,-538,-2.93475,10.5106,0,0,0,0,0,0,0,-1,944,1562,-2.93475,-10.5106
-273,-538,-3.26532,10.785,0,0,0,0,0,0,0,-1,951,1562,-3.26531,-10.785
-266,-538,-5.03412,15.9951,0,0,0,0,0,0,0,-1,958,1562,-5.03409,-15.9951
-259,-538,-5.89642,16.5184,0,0,0,0,0,0,0,-1,965,1562,-5.89644,-16.5184
-252,-538,0,0,0,0,0,0,0,0,0,-1,972,1562,0,0
-245,-538,0,0,0,0,0,0,0,0,0,-1,979,1562,0,0
-238,-538,0,0,0,0,0,0,0,0,0,-1,986,1562,0,0
-231,-538,0,0,0,0,0,0,0,0,0,-1,993,1562,0,0
-224,-538,0,0,0,0,0,0,0,0,0,-1,1000,1562,0,0
-217,-538,0,0,0,0,0,0,0,0,0,-1,1007,1562,0,0
-210,-538,0,0,0,0,0,0,0,0,0,-1,1014,1562,0,0
-203,-538,0,0,0,0,0,0,0,0,0,-1,1021,1562,0,0
-196,-538,0,0,0,0,0,0,0,0,0,-1,1028,1562,0,0
-189,-538,0,0,0,0,0,0,0,0,0,-1,1035,1562,0,0
-182,-538,0,0,0,0,0,0,0,0,0,-1,1042,1562,0,0
-175,-538,0,0,0,0,0,0,0,0,0,-1,1049,1562,0,0
-168,-538,0,0,0,0,0,0,0,0,0,-1,1056,1562,0,0
-161,-538,0,0,0,0,0,0,0,0,0,-1,1063,1562,0,0
-154,-538,0,0,0,0,0,0,0,0,0,-1,1070,1562,0,0
-147,-538,0,0,0,0,0,0,0,0,0,-1,1077,1562,0,0
-140,-538,0,0,0,0,0,0,0,0,0,-1,1084,1562,0,0
-133,-538,0,0,0,0,0,0,0,0,0,-1,1091,1562,0,0
-126,-538,0,0,0,0,0,0,0,0,0,-1,1098,1562,0,0
-119,-538,0,0,0,0,0,0,0,0,0,-1,1105,1562,0,0
-112,-538,0,0,0,0,0,0,0,0,0,-1,1112,1562,0,0
-105,-538,0,0,0,0,0,0,0,0,0,-1,1119,1562,0,0
-98,-538,0,0,0,0,0,0,0,0,0,-1,1126,1562,0,0
-91,-538,0,0,0,0,0,0,0,0,0,-1,1133,1562,0,0
-84,-538,0,0,0,0,0,0,0,0,0,-1,1140,1562,0,0
-77,-538,0,0,0,0,0,0,0,0,0,-1,1147,1562,0,0
-70,-538,0,0,0,0,0,0,0,0,0,-1,1154,1562,0,0
-63,-538,0,0,0,0,0,0,0,0,0,-1,1161,1562,0,0
-56,-538,0,0,0,0,0,0,0,0,0,-1,1168,1562,0,0
-49,-538,0,0,0,0,0,0,0,0,0,-1,1175,1562,0,0
-42,-538,0,0,0,0,0,0,0,0,0,-1,1182,1562,0,0
-35,-538,0,0,0,0,0,0,0,0,0,-1,1189,1562,0,0
-28,-538,0,0,0,0,0,0,0,0,0,-1,1196,1562,0,0
-21,-538,0,0,0,0,0,0,0,0,0,-1,1203,1562,0,0
-14,-538,0,0,0,0,0,0,0,0,0,-1,1210,1562,0,0
-7,-538,0,0,0,0,0,0,0,0,0,-1,1217,1562,0,0
0,-538,0,0,0,0,0,0,0,0,0,-1,1224,1562,0,0
7,-538,0,0,0,0,0,0,0,0,0,-1,1231,1562,0,0
14,-538,0,0,0,0,0,0,0,0,0,-1,1238,1562,0,0
21,-538,0,0,0,0,0,0,0,0,0,-1,1245,1562,0,0
28,-538,0,0,0,0,0,0,0,0,0,-1,1252,1562,0,0
35,-538,0,0,0,0,0,0,0,0,0,-1,1259,1562,0,0
42,-538,0,0,0,0,0,0,0,0,0,-1,1266,1562,0,0
49,-538,0,0,0,0,0,0,0,0,0,-1,1273,1562,0,0
56,-538,0,0,0,0,0,0,0,0,0,-1,1280,1562,0,0
63,-538,0,0,0,0,0,0,0,0,0,-1,1287,1562,0,0
70,-538,0,0,0,0,0,0,0,0,0,-1,1294,1562,0,0
77,-538,0,0,0,0,0,0,0,0,0,-1,1301,1562,0,0
84,-538,0,0,0,0,0,0,0,0,0,-1,1308,1562,0,0
91,-538,0,0,0,0,0,0,0,0,0,-1,1315,1562,0,0
98,-538,0,0,0,0,0,0,0,0,0,-1,1322,1562,0,0
105,-538,0,0,0,0,0,0,0,0,0,-1,1329,1562,0,0
112,-538,0,0,0,0,0,0,0,0,0,-1,1336,1562,0,0
119,-538,0,0,0,0,0,0,0,0,0,-1,1343,1562,0,0
126,-538,0,0,0,0,0,0,0,0,0,-1,1350,1562,0,0
133,-538,0,0,0,0,0,0,0,0,0,-1,1357,1562,0,0
140,-538,0,0,0,0,0,0,0,0,0,-1,1364,1562,0,0
147,-538,0,0,0,0,0,0,0,0,0,-1,1371,1562,0,0
154,-538,0,0,0,0,0,0,0,0,0,-1,1378,1562,0,0
161,-538,0,0,0,0,0,0,0,0,0,-1,1385,1562,0,0
168,-538,0,0,0,0,0,0,0,0,0,-1,1392,1562,0,0
175,-538,0,0,0,0,0,0,0,0,0,-1,1399,1562,0,0
182,-538,0,0,0,0,0,0,0,0,0,-1,1406,1562,0,0
189,-538,0,0,0,0,0,0,0,0,0,-1,1413,1562,0,0
196,-538,0,0,0,0,0,0,0,0,0,-1,1420,1562,0,0
203,-538,0,0,0,0,0,0,0,0,0,-1,1427,1562,0,0
210,-538,0,0,0,0,0,0,0,0,0,-1,1434,1562,0,0
217,-538,0,0,0,0,0,0,0,0,0,-1,1441,1562,0,0
224,-538,0,0,0,0,0,0,0,0,0,-1,1448,1562,0,0
231,-538,0,0,0,0,0,0,0,0,0,-1,1455,1562,0,0
238,-538,0,0,0,0,0,0,0,0,0,-1,1462,1562,0,0
245,-538,0,0,0,0,0,0,0,0,0,-1,1469,1562,0,0
252,-538,0,0,0,0,0,0,0,0,0,-1,1476,1562,0,0
259,-538,0,0,0,0,0,0,0,0,0,-1,1483,1562,0,0
266,-538,0,0,0,0,0,0,0,0,0,-1,1490,1562,0,0
273,-538,0,0,0,0,0,0,0,0,0,-1,1497,1562,0,0
280,-538,0,0,0,0,0,0,0,0,0,-1,1504,1562,0,0
287,-538,0,0,0,0,0,0,0,0,0,-1,1511,1562,0,0
294,-538,0,0,0,0,0,0,0,0,0,-1,1518,1562,0,0
301,-538,0,0,0,0,0,0,0,0,0,-1,1525,1562,0,0
308,-538,0,0,0,0,0,0,0,0,0,-1,1532,1562,0,0
315,-538,0,0,0,0,0,0,0,0,0,-1,1539,1562,0,0
322,-538,0,0,0,0,0,0,0,0,0,-1,1546,1562,0,0
329,-538,0,0,0,0,0,0,0,0,0,-1,1553,1562,0,0
336,-538,0,0,0,0,0,0,0,0,0,-1,1560,1562,0,0
343,-538,0,0,0,0,0,0,0,0,0,-1,1567,1562,0,0
350,-538,0,0,0,0,0,0,0,0,0,-1,1574,1562,0,0
357,-538,0,0,0,0,0,0,0,0,0,-1,1581,1562,0,0
364,-538,0,0,0,0,0,0,0,0,0,-1,1588,1562,0,0
371,-538,0,0,0,0,0,0,0,0,0,-1,1595,1562,0,0
378,-538,9.65479,5.82434,0,0,0,0,0,0,0,-1,1602,1562,9.6548,-5.82439
385,-538,10.5449,7.9502,0,0,0,0,0,0,0,-1,1609,1562,10.5449,-7.95014
392,-538,8.20361,7.07214,0,0,0,0,0,0,0,-1,1616,1562,8.20362,-7.07211
399,-538,7.85425,4.70508,0,0,0,0,0,0,0,-1,1623,1562,7.85425,-4.70512
406,-538,7.77734,4.96094,0,0,0,0,0,0,0,-1,1630,1562,7.77729,-4.96097
413,-538,13.0446,13.1765,0,0,0,0,0,0,0,-1,1637,1562,13.0446,-13.1765
420,-538,9.96216,12.7653,0,0,0,0,0,0,0,-1,1644,1562,9.96221,-12.7653
427,-538,10.1732,14.5863,0,0,0,0,0,0,0,-1,1651,1562,10.1732,-14.5863
434,-538,9.64331,14.7745,0,0,0,0,0,0,0,-1,1658,1562,9.64326,-14.7746
441,-538,11.5039,20.5195,0,0,0,0,0,0,0,-1,1665,1562,11.5039,-20.5195
448,-538,12.8766,22.4932,0,0,0,0,0,0,0,-1,1672,1562,12.8766,-22.4932
455,-538,12.5693,17.4128,0,0,0,0,0,0,0,-1,1679,1562,12.5694,-17.4128
462,-538,12.1389,17.017,0,0,0,0,0,0,0,-1,1686,1562,12.1389,-17.017
469,-538,14.3802,16.6945,0,0,0,0,0,0,0,-1,1693,1562,14.3803,-16.6945
476,-538,13.724,19.0608,0,0,0,0,0,0,0,-1,1700,1562,13.724,-19.0608
483,-538,17.088,25.2936,0,0,0,0,0,0,0,-1,1707,1562,17.088,-25.2936
490,-538,38.6315,88.9027,0,0,0,0,0,0,0,-1,1714,1562,38.6315,-88.9028
497,-538,47.7061,123.723,0,0,0,0,0,0,0,-1,1721,1562,47.706,-123.723
504,-538,47.2495,121.375,0.00392447,0.00373867,-0.00158185,0.00541614,0.00224699,-0.756068,0.00314208,0.0311614,1728,1562,47.2495,-121.375
511,-538,46.785,119.003,0.00290189,0.00295347,-0.00127777,0.00420571,0.00164965,-0.795488,0.00244689,0.0128934,1735,1562,46.7851,-119.003
518,-538,46.4076,116.632,0.00213535,0.0024984,-0.00110568,0.00343736,0.00119639,-0.866761,0.00201487,0.0143911,1742,1562,46.4076,-116.632
525,-538,45.9509,114.207,0.00153591,0.00208416,-0.000976494,0.00282427,0.000795793,-0.922237,0.00168157,0.0170555,1749,1562,45.951,-114.207
532,-538,45.5289,111.825,0.00121341,0.00189997,-0.00103756,0.00264956,0.000463817,-0.945155,0.00163386,0.0198034,1756,1562,45.529,-111.825
539,-538,45.1473,109.43,0.00114678,0.00182994,-0.00115891,0.00269656,0.000280156,-0.928712,0.00171198,0.0229986,1763,1562,45.1473,-109.43
546,-538,44.6732,106.96,0.00133077,0.00197939,-0.0014487,0.00313963,0.000170527,-0.895515,0.00203863,0.0215459,1770,1562,44.6732,-106.96
553,-538,44.1742,104.552,0.00170986,0.00223563,-0.0017888,0.00378076,0.000164737,-0.858357,0.00246743,0.0398365,1777,1562,44.1742,-104.552
560,-538,43.746,102.273,0.002286,0.00251679,-0.00222919,0.00463358,0.000169219,-0.811258,0.00303422,0.0475565,1784,1562,43.7459,-102.273
567,-538,43.3821,99.7169,0.00303373,0.0030602,-0.00271357,0.00576057,0.000333358,-0.787836,0.00373422,0.0433242,1791,1562,43.3821,-99.7169
574,-538,43.0197,97.3405,0,0,0,0,0,0,0,-1,1798,1562,43.0196,-97.3404
581,-538,34.416,55.7428,0,0,0,0,0,0,0,-1,1805,1562,34.4161,-55.7428
588,-538,25.8256,30.7411,0,0,0,0,0,0,0,-1,1812,1562,25.8255,-30.7411
595,-538,15.9808,16.0894,0,0,0,0,0,0,0,-1,1819,1562,15.9808,-16.0893
602,-538,10.314,8.94238,0,0,0,0,0,0,0,-1,1826,1562,10.314,-8.94238
609,-538,10.1046,7.05713,0,0,0,0,0,0,0,-1,1833,1562,10.1046,-7.05719
616,-538,9.92249,5.43506,0,0,0,0,0,0,0,-1,1840,1562,9.92254,-5.43507
623,-538,11.1711,4.31604,0,0,0,0,0,0,0,-1,1847,1562,11.1711,-4.316
630,-538,12.6112,2.61633,0,0,0,0,0,0,0,-1,1854,1562,12.6112,-2.61637
637,-538,0,0,0,0,0,0,0,0,0,-1,1861,1562,0,0
644,-538,0,0,0,0,0,0,0,0,0,-1,1868,1562,0,0
651,-538,0,0,0,0,0,0,0,0,0,-1,1875,1562,0,0
658,-538,0,0,0,0,0,0,0,0,0,-1,1882,1562,0,0
665,-538,0,0,0,0,0,0,0,0,0,-1,1889,1562,0,0
672,-538,0,0,0,0,0,0,0,0,0,-1,1896,1562,0,0
679,-538,0,0,0,0,0,0,0,0,0,-1,1903,1562,0,0
686,-538,0,0,0,0,0,0,0,0,0,-1,1910,1562,0,0
693,-538,0,0,0,0,0,0,0,0,0,-1,1917,1562,0,0
700,-538,0,0,0,0,0,0,0,0,0,-1,1924,1562,0,0
707,-538,0,0,0,0,0,0,0,0,0,-1,1931,1562,0,0
714,-538,0,0,0,0,0,0,0,0,0,-1,1938,1562,0,0
721,-538,0,0,0,0,0,0,0,0,0,-1,1945,1562,0,0
728,-538,0,0,0,0,0,0,0,0,0,-1,1952,1562,0,0
735,-538,0,0,0,0,0,0,0,0,0,-1,1959,1562,0,0
742,-538,0,0,0,0,0,0,0,0,0,-1,1966,1562,0,0
749,-538,0,0,0,0,0,0,0,0,0,-1,1973,1562,0,0
756,-538,0,0,0,0,0,0,0,0,0,-1,1980,1562,0,0
763,-538,0,0,0,0,0,0,0,0,0,-1,1987,1562,0,0
770,-538,0,0,0,0,0,0,0,0,0,-1,1994,1562,0,0
777,-538,0,0,0,0,0,0,0,0,0,-1,2001,1562,0,0
784,-538,0,0,0,0,0,0,0,0,0,-1,2008,1562,0,0
791,-538,0,0,0,0,0,0,0,0,0,-1,2015,1562,0,0
798,-538,0,0,0,0,0,0,0,0,0,-1,2022,1562,0,0
805,-538,0,0,0,0,0,0,0,0,0,-1,2029,1562,0,0
812,-538,0,0,0,0,0,0,0,0,0,-1,2036,1562,0,0
-700,-545,0,0,0,0,0,0,0,0,0,-1,524,1569,0,0
-693,-545,0,0,0,0,0,0,0,0,0,-1,531,1569,0,0
-686,-545,0,0,0,0,0,0,0,0,0,-1,538,1569,0,0
-679,-545,0,0,0,0,0,0,0,0,0,-1,545,1569,0,0
-672,-545,0,0,0,0,0,0,0,0,0,-1,552,1569,0,0
-665,-545,0,0,0,0,0,0,0,0,0,-1,559,1569,0,0
-658,-545,0,0,0,0,0,0,0,0,0,-1,566,1569,0,0
-651,-545,0,0,0,0,0,0,0,0,0,-1,573,1569,0,0
-644,-545,0,0,0,0,0,0,0,0,0,-1,580,1569,0,0
-637,-545,0,0,0,0,0,0,0,0,0,-1,587,1569,0,0
-630,-545,0,0,0,0,0,0,0,0,0,-1,594,1569,0,0
-623,-545,0,0,0,0,0,0,0,0,0,-1,601,1569,0,0
-616,-545,0,0,0,0,0,0,0,0,0,-1,608,1569,0,0
-609,-545,0,0,0,0,0,0,0,0,0,-1,615,1569,0,0
-602,-545,0,0,0,0,0,0,0,0,0,-1,622,1569,0,0
-595,-545,0,0,0,0,0,0,0,0,0,-1,629,1569,0,0
-588,-545,0,0,0,0,0,0,0,0,0,-1,636,1569,0,0
-581,-545,0,0,0,0,0,0,0,0,0,-1,643,1569,0,0
-574,-545,0,0,0,0,0,0,0,0,0,-1,650,1569,0,0
-567,-545,0,0,0,0,0,0,0,0,0,-1,657,1569,0,0
-560,-545,0,0,0,0,0,0,0,0,0,-1,664,1569,0,0
-553,-545,0,0,0,0,0,0,0,0,0,-1,671,1569,0,0
-546,-545,0,0,0,0,0,0,0,0,0,-1,678,1569,0,0
-539,-545,0,0,0,0,0,0,0,0,0,-1,685,1569,0,0
-532,-545,0,0,0,0,0,0,0,0,0,-1,692,1569,0,0
-525,-545,0,0,0,0,0,0,0,0,0,-1,699,1569,0,0
-518,-545,0,0,0,0,0,0,0,0,0,-1,706,1569,0,0
-511,-545,0,0,0,0,0,0,0,0,0,-1,713,1569,0,0
-504,-545,-3.55237,-2.5354,0,0,0,0,0,0,0,-1,720,1569,-3.55236,2.53545
-497,-545,2.26575,5.69214,0,0,0,0,0,0,0,-1,727,1569,2.26573,-5.6922
-490,-545,-2.17334,7.81396,0,0,0,0,0,0,0,-1,734,1569,-2.17334,-7.81399
-483,-545,-1.88336,5.8446,0,0,0,0,0,0,0,-1,741,1569,-1.88334,-5.84466
-476,-545,-1.13147,6.5741,0,0,0,0,0,0,0,-1,748,1569,-1.13149,-6.57405
-469,-545,-1.03412,15.8353,0,0,0,0,0,0,0,-1,755,1569,-1.03414,-15.8353
-462,-545,-4.09772,21.0458,0,0,0,0,0,0,0,-1,762,1569,-4.0977,-21.0458
-455,-545,-8.5816,34.5475,0,0,0,0,0,0,0,-1,769,1569,-8.58159,-34.5475
-448,-545,-9.96466,40.7007,0,0,0,0,0,0,0,-1,776,1569,-9.96466,-40.7007
-441,-545,-11.8745,47.3488,0,0,0,0,0,0,0,-1,783,1569,-11.8745,-47.3487
-434,-545,-35.2567,99.4174,0,0,0,0,0,0,0,-1,790,1569,-35.2567,-99.4174
-427,-545,-35.8013,102.004,0.00235661,0.00297996,0.00337558,0.00605823,-0.000721655,0.831434,0.00429961,0.0499791,797,1569,-35.8013,-102.004
-420,-545,-36.1161,104.402,0.00215276,0.0021586,0.002719,0.00487468,-0.000563315,0.785935,0.00345291,0.0281349,804,1569,-36.1161,-104.402
-413,-545,-36.5065,106.767,0.00194389,0.00127139,0.00197695,0.00361298,-0.000397706,0.701162,0.00255158,0.0286237,811,1569,-36.5065,-106.767
-406,-545,-36.9514,109.266,0.00191149,0.000525142,0.00135063,0.00273644,-0.000299805,0.548313,0.001932,0.0253482,818,1569,-36.9514,-109.266
-399,-545,-37.3454,111.685,0.00200851,-2.23624e-05,0.000816909,0.00229632,-0.000310173,0.338737,0.00164405,0.0181163,825,1569,-37.3454,-111.685
-392,-545,-37.7745,114.104,0.00220552,-0.000426538,0.00034146,0.00224909,-0.000470115,0.126932,0.00167819,0.0168774,832,1569,-37.7745,-114.104
-385,-545,-38.2589,116.557,0.00250644,-0.000537201,-8.04913e-05,0.00250857,-0.000539328,-0.0264211,0.00187815,0.0146572,839,1569,-38.2589,-116.557
-378,-545,-38.6774,118.988,0.00291016,-0.00046128,-0.000344661,0.00294504,-0.000496153,-0.10084,0.00214793,0.0164924,846,1569,-38.6774,-118.988
-371,-545,-39.0885,121.434,0.00335015,-8.759e-05,-0.00039044,0.00339394,-0.000131376,-0.11168,0.00230766,0.0200393,853,1569,-39.0885,-121.434
-364,-545,-39.5121,123.748,0.00381918,0.000558503,-0.000432052,0.00387546,0.000502226,-0.129526,0.00243357,0.0189498,860,1569,-39.5122,-123.748
-357,-545,-39.8685,126.155,0,0,0,0,0,0,0,-1,867,1569,-39.8685,-126.155
-350,-545,-40.0714,129.055,0,0,0,0,0,0,0,-1,874,1569,-40.0713,-129.055
-343,-545,-9.54028,53.48,0,0,0,0,0,0,0,-1,881,1569,-9.54026,-53.48
-336,-545,-4.2146,36.9165,0,0,0,0,0,0,0,-1,888,1569,-4.21457,-36.9165
-329,-545,-2.03595,27.8694,0,0,0,0,0,0,0,-1,895,1569,-2.03592,-27.8694
-322,-545,-2.42474,27.9695,0,0,0,0,0,0,0,-1,902,1569,-2.42474,-27.9695
-315,-545,-2.52954,30.1711,0,0,0,0,0,0,0,-1,909,1569,-2.52951,-30.1712
-308,-545,-1.54358,21.4457,0,0,0,0,0,0,0,-1,916,1569,-1.54357,-21.4457
-301,-545,1.52191,17.5009,0,0,0,0,0,0,0,-1,923,1569,1.52192,-17.5008
-294,-545,-2.69287,8.42102,0,0,0,0,0,0,0,-1,930,1569,-2.69287,-8.42097
-287,-545,-3.47784,9.96021,0,0,0,0,0,0,0,-1,937,1569,-3.47785,-9.96021
-280,-545,-3.7879,10.5448,0,0,0,0,0,0,0,-1,944,1569,-3.78793,-10.5448
-273,-545,-5.10333,12.864,0,0,0,0,0,0,0,-1,951,1569,-5.10331,-12.864
-266,-545,-5.78955,13.3704,0,0,0,0,0,0,0,-1,958,1569,-5.78952,-13.3703
-259,-545,-6.32184,13.8101,0,0,0,0,0,0,0,-1,965,1569,-6.32182,-13.81
-252,-545,0.369263,7.54053,0,0,0,0,0,0,0,-1,972,1569,0.369276,-7.54056
-245,-545,-0.236633,6.65564,0,0,0,0,0,0,0,-1,979,1569,-0.236605,-6.65566
-238,-545,0,0,0,0,0,0,0,0,0,-1,986,1569,0,0
-231,-545,0,0,0,0,0,0,0,0,0,-1,993,1569,0,0
-224,-545,0,0,0,0,0,0,0,0,0,-1,1000,1569,0,0
-217,-545,0,0,0,0,0,0,0,0,0,-1,1007,1569,0,0
-210,-545,0,0,0,0,0,0,0,0,0,-1,1014,1569,0,0
-203,-545,0,0,0,0,0,0,0,0,0,-1,1021,1569,0,0
-196,-545,0,0,0,0,0,0,0,0,0,-1,1028,1569,0,0
-189,-545,0,0,0,0,0,0,0,0,0,-1,1035,1569,0,0
-182,-545,0,0,0,0,0,0,0,0,0,-1,1042,1569,0,0
-175,-545,0,0,0,0,0,0,0,0,0,-1,1049,1569,0,0
-168,-545,0,0,0,0,0,0,0,0,0,-1,1056,1569,0,0
-161,-545,0,0,0,0,0,0,0,0,0,-1,1063,1569,0,0
-154,-545,0,0,0,0,0,0,0,0,0,-1,1070,1569,0,0
-147,-545,0,0,0,0,0,0,0,0,0,-1,1077,1569,0,0
-140,-545,0,0,0,0,0,0,0,0,0,-1,1084,1569,0,0
-133,-545,0,0,0,0,0,0,0,0,0,-1,1091,1569,0,0
-126,-545,0,0,0,0,0,0,0,0,0,-1,1098,1569,0,0
-119,-545,0,0,0,0,0,0,0,0,0,-1,1105,1569,0,0
-112,-545,0,0,0,0,0,0,0,0,0,-1,1112,1569,0,0
-105,-545,0,0,0,0,0,0,0,0,0,-1,1119,1569,0,0
-98,-545,0,0,0,0,0,0,0,0,0,-1,1126,1569,0,0
-91,-545,0,0,0,0,0,0,0,0,0,-1,1133,1569,0,0
-84,-545,0,0,0,0,0,0,0,0,0,-1,1140,1569,0,0
-77,-545,0,0,0,0,0,0,0,0,0,-1,1147,1569,0,0
-70,-545,0,0,0,0,0,0,0,0,0,-1,1154,1569,0,0
-63,-545,0,0,0,0,0,0,0,0,0,-1,1161,1569,0,0
-56,-545,0,0,0,0,0,0,0,0,0,-1,1168,1569,0,0
-49,-545,0,0,0,0,0,0,0,0,0,-1,1175,1569,0,0
-42,-545,0,0,0,0,0,0,0,0,0,-1,1182,1569,0,0
-35,-545,0,0,0,0,0,0,0,0,0,-1,1189,1569,0,0
-28,-545,0,0,0,0,0,0,0,0,0,-1,1196,1569,0,0
-21,-545,0,0,0,0,0,0,0,0,0,-1,1203,1569,0,0
-14,-545,0,0,0,0,0,0,0,0,0,-1,1210,1569,0,0
-7,-545,0,0,0,0,0,0,0,0,0,-1,1217,1569,0,0
0,-545,0,0,0,0,0,0,0,0,0,-1,1224,1569,0,0
7,-545,0,0,0,0,0,0,0,0,0,-1,1231,1569,0,0
14,-545,0,0,0,0,0,0,0,0,0,-1,1238,1569,0,0
21,-545,0,0,0,0,0,0,0,0,0,-1,1245,1569,0,0
28,-545,0,0,0,0,0,0,0,0,0,-1,1252,1569,0,0
35,-545,0,0,0,0,0,0,0,0,0,-1,1259,1569,0,0
42,-545,0,0,0,0,0,0,0,0,0,-1,1266,1569,0,0
49,-545,0,0,0,0,0,0,0,0,0,-1,1273,1569,0,0
56,-545,0,0,0,0,0,0,0,0,0,-1,1280,1569,0,0
63,-545,0,0,0,0,0,0,0,0,0,-1,1287,1569,0,0
70,-545,0,0,0,0,0,0,0,0,0,-1,1294,1569,0,0
77,-545,0,0,0,0,0,0,0,0,0,-1,1301,1569,0,0
84,-545,0,0,0,0,0,0,0,0,0,-1,1308,1569,0,0
91,-545,0,0,0,0,0,0,0,0,0,-1,1315,1569,0,0
98,-545,0,0,0,0,0,0,0,0,0,-1,1322,1569,0,0
105,-545,0,0,0,0,0,0,0,0,0,-1,1329,1569,0,0
112,-545,0,0,0,0,0,0,0,0,0,-1,1336,1569,0,0
119,-545,0,0,0,0,0,0,0,0,0,-1,1343,1569,0,0
126,-545,0,0,0,0,0,0,0,0,0,-1,1350,1569,0,0
133,-545,0,0,0,0,0,0,0,0,0,-1,1357,1569,0,0
140,-545,0,0,0,0,0,0,0,0,0,-1,1364,1569,0,0
147,-545,0,0,0,0,0,0,0,0,0,-1,1371,1569,0,0
154,-545,0,0,0,0,0,0,0,0,0,-1,1378,1569,0,0
161,-545,0,0,0,0,0,0,0,0,0,-1,1385,1569,0,0
168,-545,0,0,0,0,0,0,0,0,0,-1,1392,1569,0,0
175,-545,0,0,0,0,0,0,0,0,0,-1,1399,1569,0,0
182,-545,0,0,0,0,0,0,0,0,0,-1,1406,1569,0,0
189,-545,0,0,0,0,0,0,0,0,0,-1,1413,1569,0,0
196,-545,0,0,0,0,0,0,0,0,0,-1,1420,1569,0,0
203,-545,0,0,0,0,0,0,0,0,0,-1,1427,1569,0,0
210,-545,0,0,0,0,0,0,0,0,0,-1,1434,1569,0,0
217,-545,0,0,0,0,0,0,0,0,0,-1,1441,1569,0,0
224,-545,0,0,0,0,0,0,0,0,0,-1,1448,1569,0,0
231,-545,0,0,0,0,0,0,0,0,0,-1,1455,1569,0,0
238,-545,0,0,0,0,0,0,0,0,0,-1,1462,1569,0,0
245,-545,0,0,0,0,0,0,0,0,0,-1,1469,1569,0,0
252,-545,0,0,0,0,0,0,0,0,0,-1,1476,1569,0,0
259,-545,0,0,0,0,0,0,0,0,0,-1,1483,1569,0,0
266,-545,0,0,0,0,0,0,0,0,0,-1,1490,1569,0,0
273,-545,0,0,0,0,0,0,0,0,0,-1,1497,1569,0,0
280,-545,0,0,0,0,0,0,0,0,0,-1,1504,1569,0,0
287,-545,0,0,0,0,0,0,0,0,0,-1,1511,1569,0,0
294,-545,0,0,0,0,0,0,0,0,0,-1,1518,1569,0,0
301,-545,0,0,0,0,0,0,0,0,0,-1,1525,1569,0,0
308,-545,0,0,0,0,0,0,0,0,0,-1,1532,1569,0,0
315,-545,0,0,0,0,0,0,0,0,0,-1,1539,1569,0,0
322,-545,0,0,0,0,0,0,0,0,0,-1,1546,1569,0,0
329,-545,0,0,0,0,0,0,0,0,0,-1,1553,1569,0,0
336,-545,0,0,0,0,0,0,0,0,0,-1,1560,1569,0,0
343,-545,0,0,0,0,0,0,0,0,0,-1,1567,1569,0,0
350,-545,0,0,0,0,0,0,0,0,0,-1,1574,1569,0,0
357,-545,0,0,0,0,0,0,0,0,0,-1,1581,1569,0,0
364,-545,7.19495,4.88098,0,0,0,0,0,0,0,-1,1588,1569,7.19497,-4.88095
371,-545,7.82324,3.84302,0,0,0,0,0,0,0,-1,1595,1569,7.82324,-3.84307
378,-545,7.65674,5.52673,0,0,0,0,0,0,0,-1,1602,1569,7.6567,-5.52667
385,-545,8.58447,1.16125,0,0,0,0,0,0,0,-1,1609,1569,8.5845,-1.1612
392,-545,12.5654,3.89526,0,0,0,0,0,0,0,-1,1616,1569,12.5655,-3.89532
399,-545,11.5869,5.6333,0,0,0,0,0,0,0,-1,1623,1569,11.5869,-5.63326
406,-545,11.234,6.36414,0,0,0,0,0,0,0,-1,1630,1569,11.234,-6.3641
413,-545,12.1521,13.4817,0,0,0,0,0,0,0,-1,1637,1569,12.1521,-13.4817
420,-545,11.1954,13.6047,0,0,0,0,0,0,0,-1,1644,1569,11.1954,-13.6047
427,-545,9.61072,14.9135,0,0,0,0,0,0,0,-1,1651,1569,9.61076,-14.9134
434,-545,13.1598,23.9921,0,0,0,0,0,0,0,-1,1658,1569,13.1598,-23.992
441,-545,12.2833,22.2238,0,0,0,0,0,0,0,-1,1665,1569,12.2833,-22.2237
448,-545,13.0082,21.941,0,0,0,0,0,0,0,-1,1672,1569,13.0082,-21.941
455,-545,13.733,21.6583,0,0,0,0,0,0,0,-1,1679,1569,13.733,-21.6583
462,-545,12.449,20.7413,0,0,0,0,0,0,0,-1,1686,1569,12.4489,-20.7413
469,-545,12.7837,17.7919,0,0,0,0,0,0,0,-1,1693,1569,12.7837,-17.7919
476,-545,15.7562,24.8708,0,0,0,0,0,0,0,-1,1700,1569,15.7563,-24.8709
483,-545,37.3098,90.5648,0,0,0,0,0,0,0,-1,1707,1569,37.3098,-90.5648
490,-545,45.593,127.171,0,0,0,0,0,0,0,-1,1714,1569,45.593,-127.171
497,-545,45.1729,124.462,0.00472129,0.00408795,-0.00194739,0.00637759,0.00243165,-0.704797,0.00371654,0.0449173,1721,1569,45.1728,-124.462
504,-545,44.876,121.864,0.00352826,0.00326564,-0.0014582,0.00486105,0.00193285,-0.740494,0.00282607,0.0215954,1728,1569,44.8759,-121.864
511,-545,44.4005,119.419,0.00259523,0.00259882,-0.00121436,0.00381139,0.00138266,-0.786138,0.00222796,0.0157594,1735,1569,44.4006,-119.419
518,-545,44.0243,117,0.00193955,0.00219559,-0.00117008,0.00324463,0.00089051,-0.839889,0.00193578,0.0176354,1742,1569,44.0243,-117
525,-545,43.5867,114.593,0.00142117,0.0018235,-0.00113763,0.00277762,0.000467055,-0.872907,0.00171736,0.01929,1749,1569,43.5867,-114.593
532,-545,43.1205,112.271,0.00116468,0.00172686,-0.00128565,0.00276179,0.000129749,-0.893022,0.0017995,0.0195119,1756,1569,43.1204,-112.271
539,-545,42.7111,109.855,0.00117093,0.00176672,-0.00151028,0.0030082,-7.05571e-05,-0.88277,0.0020294,0.0212454,1763,1569,42.7111,-109.855
546,-545,42.2413,107.348,0.0014894,0.00209493,-0.00194459,0.00376019,-0.000175857,-0.862626,0.00256742,0.0213843,1770,1569,42.2413,-107.348
553,-545,41.8345,104.927,0.00206019,0.00261666,-0.0025017,0.00485555,-0.000178707,-0.84078,0.00329822,0.034586,1777,1569,41.8345,-104.927
560,-545,41.3704,102.384,0,0,0,0,0,0,0,-1,1784,1569,41.3703,-102.384
567,-545,41.0426,99.8237,0,0,0,0,0,0,0,-1,1791,1569,41.0426,-99.8237
574,-545,27.1798,38.2062,0,0,0,0,0,0,0,-1,1798,1569,27.1798,-38.2062
581,-545,24.7096,31.5568,0,0,0,0,0,0,0,-1,1805,1569,24.7096,-31.5568
588,-545,15.4786,16.7035,0,0,0,0,0,0,0,-1,1812,1569,15.4786,-16.7035
595,-545,10.2859,9.11218,0,0,0,0,0,0,0,-1,1819,1569,10.2858,-9.11215
602,-545,8.82117,6.32214,0,0,0,0,0,0,0,-1,1826,1569,8.82121,-6.32217
609,-545,10.2406,5.22351,0,0,0,0,0,0,0,-1,1833,1569,10.2406,-5.22353
616,-545,11.701,3.93188,0,0,0,0,0,0,0,-1,1840,1569,11.701,-3.93191
623,-545,13.2139,2.32043,0,0,0,0,0,0,0,-1,1847,1569,13.2139,-2.32042
630,-545,0,0,0,0,0,0,0,0,0,-1,1854,1569,0,0
637,-545,0,0,0,0,0,0,0,0,0,-1,1861,1569,0,0
644,-545,0,0,0,0,0,0,0,0,0,-1,1868,1569,0,0
651,-545,0,0,0,0,0,0,0,0,0,-1,1875,1569,0,0
658,-545,0,0,0,0,0,0,0,0,0,-1,1882,1569,0,0
665,-545,0,0,0,0,0,0,0,0,0,-1,1889,1569,0,0
672,-545,0,0,0,0,0,0,0,0,0,-1,1896,1569,0,0
679,-545,0,0,0,0,0,0,0,0,0,-1,1903,1569,0,0
686,-545,0,0,0,0,0,0,0,0,0,-1,1910,1569,0,0
693,-545,0,0,0,0,0,0,0,0,0,-1,1917,1569,0,0
700,-545,0,0,0,0,0,0,0,0,0,-1,1924,1569,0,0
707,-545,0,0,0,0,0,0,0,0,0,-1,1931,1569,0,0
714,-545,0,0,0,0,0,0,0,0,0,-1,1938,1569,0,0
721,-545,0,0,0,0,0,0,0,0,0,-1,1945,1569,0,0
728,-545,0,0,0,0,0,0,0,0,0,-1,1952,1569,0,0
735,-545,0,0,0,0,0,0,0,0,0,-1,1959,1569,0,0
742,-545,0,0,0,0,0,0,0,0,0,-1,1966,1569,0,0
749,-545,0,0,0,0,0,0,0,0,0,-1,1973,1569,0,0
756,-545,0,0,0,0,0,0,0,0,0,-1,1980,1569,0,0
763,-545,0,0,0,0,0,0,0,0,0,-1,1987,1569,0,0
770,-545,0,0,0,0,0,0,0,0,0,-1,1994,1569,0,0
777,-545,0,0,0,0,0,0,0,0,0,-1,2001,1569,0,0
784,-545,0,0,0,0,0,0,0,0,0,-1,2008,1569,0,0
791,-545,0,0,0,0,0,0,0,0,0,-1,2015,1569,0,0
798,-545,0,0,0,0,0,0,0,0,0,-1,2022,1569,0,0
805,-545,0,0,0,0,0,0,0,0,0,-1,2029,1569,0,0
812,-545,0,0,0,0,0,0,0,0,0,-1,2036,1569,0,0
-700,-552,0,0,0,0,0,0,0,0,0,-1,524,1576,0,0
-693,-552,0,0,0,0,0,0,0,0,0,-1,531,1576,0,0
-686,-552,0,0,0,0,0,0,0,0,0,-1,538,1576,0,0
-679,-552,0,0,0,0,0,0,0,0,0,-1,545,1576,0,0
-672,-552,0,0,0,0,0,0,0,0,0,-1,552,1576,0,0
-665,-552,0,0,0,0,0,0,0,0,0,-1,559,1576,0,0
-658,-552,0,0,0,0,0,0,0,0,0,-1,566,1576,0,0
-651,-552,0,0,0,0,0,0,0,0,0,-1,573,1576,0,0
-644,-552,0,0,0,0,0,0,0,0,0,-1,580,1576,0,0
-637,-552,0,0,0,0,0,0,0,0,0,-1,587,1576,0,0
-630,-552,0,0,0,0,0,0,0,0,0,-1,594,1576,0,0
-623,-552,0,0,0,0,0,0,0,0,0,-1,601,1576,0,0
-616,-552,0,0,0,0,0,0,0,0,0,-1,608,1576,0,0
-609,-552,0,0,0,0,0,0,0,0,0,-1,615,1576,0,0
-602,-552,0,0,0,0,0,0,0,0,0,-1,622,1576,0,0
-595,-552,0,0,0,0,0,0,0,0,0,-1,629,1576,0,0
-588,-552,0,0,0,0,0,0,0,0,0,-1,636,1576,0,0
-581,-552,0,0,0,0,0,0,0,0,0,-1,643,1576,0,0
-574,-552,0,0,0,0,0,0,0,0,0,-1,650,1576,0,0
-567,-552,0,0,0,0,0,0,0,0,0,-1,657,1576,0,0
-560,-552,0,0,0,0,0,0,0,0,0,-1,664,1576,0,0
-553,-552,0,0,0,0,0,0,0,0,0,-1,671,1576,0,0
-546,-552,0,0,0,0,0,0,0,0,0,-1,678,1576,0,0
-539,-552,0,0,0,0,0,0,0,0,0,-1,685,1576,0,0
-532,-552,0,0,0,0,0,0,0,0,0,-1,692,1576,0,0
-525,-552,0,0,0,0,0,0,0,0,0,-1,699,1576,0,0
-518,-552,0,0,0,0,0,0,0,0,0,-1,706,1576,0,0
-511,-552,0,0,0,0,0,0,0,0,0,-1,713,1576,0,0
-504,-552,0,0,0,0,0,0,0,0,0,-1,720,1576,0,0
-497,-552,1.51282,3.96924,0,0,0,0,0,0,0,-1,727,1576,1.5128,-3.96924
-490,-552,-3.82312,6.32104,0,0,0,0,0,0,0,-1,734,1576,-3.82314,-6.3211
-483,-552,-3.50586,6.47986,0,0,0,0,0,0,0,-1,741,1576,-3.50587,-6.47983
-476,-552,-1.95129,4.43054,0,0,0,0,0,0,0,-1,748,1576,-1.95128,-4.43054
-469,-552,-1.40491,7.9895,0,0,0,0,0,0,0,-1,755,1576,-1.40491,-7.98947
-462,-552,0.0459595,16.3469,0,0,0,0,0,0,0,-1,762,1576,0.0459611,-16.3469
-455,-552,-3.21484,22.3766,0,0,0,0,0,0,0,-1,769,1576,-3.21487,-22.3766
-448,-552,-7.5672,35.5388,0,0,0,0,0,0,0,-1,776,1576,-7.56718,-35.5388
-441,-552,-6.46014,37.4419,0,0,0,0,0,0,0,-1,783,1576,-6.46013,-37.4419
-434,-552,-10.2953,45.2994,0,0,0,0,0,0,0,-1,790,1576,-10.2954,-45.2994
-427,-552,-33.5261,102.264,0,0,0,0,0,0,0,-1,797,1576,-33.5261,-102.264
-420,-552,-33.6489,104.826,0,0,0,0,0,0,0,-1,804,1576,-33.6489,-104.826
-413,-552,-34.071,107.203,0.00214579,0.00178145,0.00280869,0.00477822,-0.000850972,0.753014,0.00350375,0.0215859,811,1576,-34.071,-107.203
-406,-552,-34.5269,109.657,0.00197129,0.00100213,0.00210792,0.00364961,-0.000676189,0.672418,0.00268698,0.017352,818,1576,-34.5269,-109.657
-399,-552,-34.958,112.077,0.00195989,0.000379497,0.00146287,0.00283234,-0.000492953,0.537766,0.00207218,0.0194853,825,1576,-34.958,-112.077
-392,-552,-35.4395,114.499,0.00208455,-3.22107e-05,0.000914103,0.00242465,-0.000372313,0.356191,0.00175376,0.0220021,832,1576,-35.4395,-114.499
-385,-552,-35.8587,116.987,0.00229509,-0.000179417,0.000418483,0.00236395,-0.000248274,0.163078,0.0016649,0.0195784,839,1576,-35.8587,-116.987
-378,-552,-36.2712,119.375,0.00262216,-0.000142937,7.89406e-05,0.00262441,-0.000145189,0.028518,0.00179996,0.019955,846,1576,-36.2712,-119.375
-371,-552,-36.682,121.801,0.00297244,0.000200538,-4.61274e-05,0.0029732,0.000199771,-0.0166349,0.00191901,0.0221286,853,1576,-36.682,-121.801
-364,-552,-37.1174,124.183,0.00334961,0.000768198,-0.000134739,0.00335662,0.000761185,-0.0520077,0.00203211,0.017564,860,1576,-37.1174,-124.183
-357,-552,-37.4799,126.601,0.00382194,0.00164769,-4.25969e-05,0.00382277,0.00164686,-0.0195815,0.00221411,0.0153833,867,1576,-37.4799,-126.601
-350,-552,-37.8594,129.147,0.00460152,0.00284759,0.000436319,0.00470406,0.00274505,0.230836,0.0027285,0.0362733,874,1576,-37.8594,-129.147
-343,-552,-38.217,131.68,0,0,0,0,0,0,0,-1,881,1576,-38.217,-131.68
-336,-552,-12.1249,66.1841,0,0,0,0,0,0,0,-1,888,1576,-12.1249,-66.184
-329,-552,-3.68982,37.6417,0,0,0,0,0,0,0,-1,895,1576,-3.68984,-37.6417
-322,-552,-1.23962,28.5371,0,0,0,0,0,0,0,-1,902,1576,-1.23964,-28.5371
-315,-552,-0.605347,28.994,0,0,0,0,0,0,0,-1,909,1576,-0.605331,-28.9941
-308,-552,-1.01624,30.3169,0,0,0,0,0,0,0,-1,916,1576,-1.01624,-30.3169
-301,-552,1.39453,18.4995,0,0,0,0,0,0,0,-1,923,1576,1.3945,-18.4995
-294,-552,0.842163,13.7863,0,0,0,0,0,0,0,-1,930,1576,0.842149,-13.7863
-287,-552,-0.663757,13.3474,0,0,0,0,0,0,0,-1,937,1576,-0.663744,-13.3474
-280,-552,-5.47241,8.96765,0,0,0,0,0,0,0,-1,944,1576,-5.47239,-8.96766
-273,-552,1.64587,10.6685,0,0,0,0,0,0,0,-1,951,1576,1.6459,-10.6685
-266,-552,-1.32678,8.05688,0,0,0,0,0,0,0,-1,958,1576,-1.32677,-8.05683
-259,-552,-5.54321,8.31213,0,0,0,0,0,0,0,-1,965,1576,-5.54324,-8.31214
-252,-552,-1.93445,7.81543,0,0,0,0,0,0,0,-1,972,1576,-1.93445,-7.81546
-245,-552,-2.53613,6.92212,0,0,0,0,0,0,0,-1,979,1576,-2.53614,-6.92216
-238,-552,-6.5365,2.81885,0,0,0,0,0,0,0,-1,986,1576,-6.53649,-2.8188
-231,-552,-4.32239,4.34583,0,0,0,0,0,0,0,-1,993,1576,-4.32239,-4.34587
-224,-552,0,0,0,0,0,0,0,0,0,-1,1000,1576,0,0
-217,-552,0,0,0,0,0,0,0,0,0,-1,1007,1576,0,0
-210,-552,0,0,0,0,0,0,0,0,0,-1,1014,1576,0,0
-203,-552,0,0,0,0,0,0,0,0,0,-1,1021,1576,0,0
-196,-552,0,0,0,0,0,0,0,0,0,-1,1028,1576,0,0
-189,-552,0,0,0,0,0,0,0,0,0,-1,1035,1576,0,0
-182,-552,0,0,0,0,0,0,0,0,0,-1,1042,1576,0,0
-175,-552,0,0,0,0,0,0,0,0,0,-1,1049,1576,0,0
-168,-552,0,0,0,0,0,0,0,0,0,-1,1056,1576,0,0
-161,-552,0,0,0,0,0,0,0,0,0,-1,1063,1576,0,0
-154,-552,0,0,0,0,0,0,0,0,0,-1,1070,1576,0,0
-147,-552,0,0,0,0,0,0,0,0,0,-1,1077,1576,0,0
-140,-552,0,0,0,0,0,0,0,0,0,-1,1084,1576,0,0
-133,-552,0,0,0,0,0,0,0,0,0,-1,1091,1576,0,0
-126,-552,0,0,0,0,0,0,0,0,0,-1,1098,1576,0,0
-119,-552,0,0,0,0,0,0,0,0,0,-1,1105,1576,0,0
-112,-552,0,0,0,0,0,0,0,0,0,-1,1112,1576,0,0
-105,-552,0,0,0,0,0,0,0,0,0,-1,1119,1576,0,0
-98,-552,0,0,0,0,0,0,0,0,0,-1,1126,1576,0,0
-91,-552,0,0,0,0,0,0,0,0,0,-1,1133,1576,0,0
-84,-552,0,0,0,0,0,0,0,0,0,-1,1140,1576,0,0
-77,-552,0,0,0,0,0,0,0,0,0,-1,1147,1576,0,0
-70,-552,0,0,0,0,0,0,0,0,0,-1,1154,1576,0,0
-63,-552,0,0,0,0,0,0,0,0,0,-1,1161,1576,0,0
-56,-552,0,0,0,0,0,0,0,0,0,-1,1168,1576,0,0
-49,-552,0,0,0,0,0,0,0,0,0,-1,1175,1576,0,0
-42,-552,0,0,0,0,0,0,0,0,0,-1,1182,1576,0,0
-35,-552,0,0,0,0,0,0,0,0,0,-1,1189,1576,0,0
-28,-552,0,0,0,0,0,0,0,0,0,-1,1196,1576,0,0
-21,-552,0,0,0,0,0,0,0,0,0,-1,1203,1576,0,0
-14,-552,0,0,0,0,0,0,0,0,0,-1,1210,1576,0,0
-7,-552,0,0,0,0,0,0,0,0,0,-1,1217,1576,0,0
0,-552,0,0,0,0,0,0,0,0,0,-1,1224,1576,0,0
7,-552,0,0,0,0,0,0,0,0,0,-1,1231,1576,0,0
14,-552,0,0,0,0,0,0,0,0,0,-1,1238,1576,0,0
21,-552,0,0,0,0,0,0,0,0,0,-1,1245,1576,0,0
28,-552,0,0,0,0,0,0,0,0,0,-1,1252,1576,0,0
35,-552,0,0,0,0,0,0,0,0,0,-1,1259,1576,0,0
42,-552,0,0,0,0,0,0,0,0,0,-1,1266,1576,0,0
49,-552,0,0,0,0,0,0,0,0,0,-1,1273,1576,0,0
56,-552,0,0,0,0,0,0,0,0,0,-1,1280,1576,0,0
63,-552,0,0,0,0,0,0,0,0,0,-1,1287,1576,0,0
70,-552,0,0,0,0,0,0,0,0,0,-1,1294,1576,0,0
77,-552,0,0,0,0,0,0,0,0,0,-1,1301,1576,0,0
84,-552,0,0,0,0,0,0,0,0,0,-1,1308,1576,0,0
91,-552,0,0,0,0,0,0,0,0,0,-1,1315,1576,0,0
98,-552,0,0,0,0,0,0,0,0,0,-1,1322,1576,0,0
105,-552,0,0,0,0,0,0,0,0,0,-1,1329,1576,0,0
112,-552,0,0,0,0,0,0,0,0,0,-1,1336,1576,0,0
119,-552,0,0,0,0,0,0,0,0,0,-1,1343,1576,0,0
126,-552,0,0,0,0,0,0,0,0,0,-1,1350,1576,0,0
133,-552,0,0,0,0,0,0,0,0,0,-1,1357,1576,0,0
140,-552,0,0,0,0,0,0,0,0,0,-1,1364,1576,0,0
147,-552,0,0,0,0,0,0,0,0,0,-1,1371,1576,0,0
154,-552,0,0,0,0,0,0,0,0,0,-1,1378,1576,0,0
161,-552,0,0,0,0,0,0,0,0,0,-1,1385,1576,0,0
168,-552,0,0,0,0,0,0,0,0,0,-1,1392,1576,0,0
175,-552,0,0,0,0,0,0,0,0,0,-1,1399,1576,0,0
182,-552,0,0,0,0,0,0,0,0,0,-1,1406,1576,0,0
189,-552,0,0,0,0,0,0,0,0,0,-1,1413,1576,0,0
196,-552,0,0,0,0,0,0,0,0,0,-1,1420,1576,0,0
203,-552,0,0,0,0,0,0,0,0,0,-1,1427,1576,0,0
210,-552,0,0,0,0,0,0,0,0,0,-1,1434,1576,0,0
217,-552,0,0,0,0,0,0,0,0,0,-1,1441,1576,0,0
224,-552,0,0,0,0,0,0,0,0,0,-1,1448,1576,0,0
231,-552,0,0,0,0,0,0,0,0,0,-1,1455,1576,0,0
238,-552,0,0,0,0,0,0,0,0,0,-1,1462,1576,0,0
245,-552,0,0,0,0,0,0,0,0,0,-1,1469,1576,0,0
252,-552,0,0,0,0,0,0,0,0,0,-1,1476,1576,0,0
259,-552,0,0,0,0,0,0,0,0,0,-1,1483,1576,0,0
266,-552,0,0,0,0,0,0,0,0,0,-1,1490,1576,0,0
273,-552,0,0,0,0,0,0,0,0,0,-1,1497,1576,0,0
280,-552,0,0,0,0,0,0,0,0,0,-1,1504,1576,0,0
287,-552,0,0,0,0,0,0,0,0,0,-1,1511,1576,0,0
294,-552,0,0,0,0,0,0,0,0,0,-1,1518,1576,0,0
301,-552,0,0,0,0,0,0,0,0,0,-1,1525,1576,0,0
308,-552,0,0,0,0,0,0,0,0,0,-1,1532,1576,0,0
315,-552,0,0,0,0,0,0,0,0,0,-1,1539,1576,0,0
322,-552,0,0,0,0,0,0,0,0,0,-1,1546,1576,0,0
329,-552,0,0,0,0,0,0,0,0,0,-1,1553,1576,0,0
336,-552,0,0,0,0,0,0,0,0,0,-1,1560,1576,0,0
343,-552,0,0,0,0,0,0,0,0,0,-1,1567,1576,0,0
350,-552,4.97876,4.09888,0,0,0,0,0,0,0,-1,1574,1576,4.97875,-4.09883
357,-552,5.18469,4.10706,0,0,0,0,0,0,0,-1,1581,1576,5.1847,-4.10702
364,-552,5.80872,5.07031,0,0,0,0,0,0,0,-1,1588,1576,5.80874,-5.07037
371,-552,7.10657,5.64783,0,0,0,0,0,0,0,-1,1595,1576,7.10651,-5.64786
378,-552,6.44446,4.91492,0,0,0,0,0,0,0,-1,1602,1576,6.44448,-4.91496
385,-552,12.8276,3.16504,0,0,0,0,0,0,0,-1,1609,1576,12.8276,-3.16503
392,-552,12.1301,4.3363,0,0,0,0,0,0,0,-1,1616,1576,12.1302,-4.33631
399,-552,11.3486,5.6012,0,0,0,0,0,0,0,-1,1623,1576,11.3486,-5.60115
406,-552,10.7863,6.42542,0,0,0,0,0,0,0,-1,1630,1576,10.7863,-6.42536
413,-552,8.39307,10.365,0,0,0,0,0,0,0,-1,1637,1576,8.3931,-10.365
420,-552,10.2306,12.7225,0,0,0,0,0,0,0,-1,1644,1576,10.2305,-12.7226
427,-552,9.73267,14.783,0,0,0,0,0,0,0,-1,1651,1576,9.73269,-14.783
434,-552,12.0377,20.1364,0,0,0,0,0,0,0,-1,1658,1576,12.0377,-20.1364
441,-552,12.4963,21.5277,0,0,0,0,0,0,0,-1,1665,1576,12.4964,-21.5277
448,-552,12.9141,21.5482,0,0,0,0,0,0,0,-1,1672,1576,12.9141,-21.5482
455,-552,13.3318,21.5687,0,0,0,0,0,0,0,-1,1679,1576,13.3317,-21.5687
462,-552,12.745,20.5947,0,0,0,0,0,0,0,-1,1686,1576,12.745,-20.5947
469,-552,17.7067,29.6902,0,0,0,0,0,0,0,-1,1693,1576,17.7067,-29.6902
476,-552,42.0524,124.612,0,0,0,0,0,0,0,-1,1700,1576,42.0523,-124.612
483,-552,43.5647,129.401,0,0,0,0,0,0,0,-1,1707,1576,43.5648,-129.401
490,-552,43.1873,127.122,0.00524365,0.00385421,-0.00204514,0.00670885,0.00238902,-0.621666,0.00392646,0.0237972,1714,1576,43.1873,-127.122
497,-552,42.9297,124.706,0.00405816,0.00323422,-0.00161,0.00530806,0.00198432,-0.660145,0.00309696,0.0279158,1721,1576,42.9297,-124.706
504,-552,42.5135,122.303,0.0029772,0.00260097,-0.00125149,0.00405463,0.00152354,-0.7108,0.00236491,0.0299063,1728,1576,42.5135,-122.303
511,-552,42.0504,119.852,0.00216557,0.0020684,-0.00109412,0.00321218,0.00102179,-0.763209,0.00189502,0.021925,1735,1576,42.0504,-119.852
518,-552,41.6563,117.35,0.00164134,0.001742,-0.0011785,0.00287124,0.000512093,-0.806739,0.00176836,0.0207288,1742,1576,41.6562,-117.35
525,-552,41.2128,114.936,0.00126833,0.0014619,-0.0012967,0.00266542,6.48076e-05,-0.822648,0.00175574,0.0220369,1749,1576,41.2128,-114.936
532,-552,40.7678,112.596,0.00118671,0.00149736,-0.00161016,0.00295967,-0.0002756,-0.833482,0.0020711,0.0208086,1756,1576,40.7679,-112.596
539,-552,40.3341,110.244,0.00140705,0.00172464,-0.00205246,0.00362444,-0.000492746,-0.824005,0.00259618,0.022751,1763,1576,40.3341,-110.244
546,-552,39.8406,107.843,0.00205409,0.00233551,-0.00277709,0.00497545,-0.000585848,-0.81071,0.0035285,0.0250979,1770,1576,39.8406,-107.843
553,-552,39.4811,105.307,0.00307953,0.00329508,-0.00377619,0.00696503,-0.000590422,-0.799664,0.00485215,0.0344803,1777,1576,39.4811,-105.307
560,-552,39.1882,102.702,0,0,0,0,0,0,0,-1,1784,1576,39.1883,-102.702
567,-552,26.8342,55.0354,0,0,0,0,0,0,0,-1,1791,1576,26.8342,-55.0354
574,-552,12.8835,14.8463,0,0,0,0,0,0,0,-1,1798,1576,12.8836,-14.8463
581,-552,9.74841,9.98645,0,0,0,0,0,0,0,-1,1805,1576,9.74847,-9.9864
588,-552,10.5619,9.34924,0,0,0,0,0,0,0,-1,1812,1576,10.5619,-9.34921
595,-552,5.36194,6.62744,0,0,0,0,0,0,0,-1,1819,1576,5.36193,-6.62742
602,-552,10.6863,4.31616,0,0,0,0,0,0,0,-1,1826,1576,10.6862,-4.31619
609,-552,12.146,3.18286,0,0,0,0,0,0,0,-1,1833,1576,12.1459,-3.18281
616,-552,13.8762,2.08167,0,0,0,0,0,0,0,-1,1840,1576,13.8763,-2.08167
623,-552,0,0,0,0,0,0,0,0,0,-1,1847,1576,0,0
630,-552,0,0,0,0,0,0,0,0,0,-1,1854,1576,0,0
637,-552,0,0,0,0,0,0,0,0,0,-1,1861,1576,0,0
644,-552,0,0,0,0,0,0,0,0,0,-1,1868,1576,0,0
651,-552,0,0,0,0,0,0,0,0,0,-1,1875,1576,0,0
658,-552,0,0,0,0,0,0,0,0,0,-1,1882,1576,0,0
665,-552,0,0,0,0,0,0,0,0,0,-1,1889,1576,0,0
672,-552,0,0,0,0,0,0,0,0,0,-1,1896,1576,0,0
679,-552,0,0,0,0,0,0,0,0,0,-1,1903,1576,0,0
686,-552,0,0,0,0,0,0,0,0,0,-1,1910,1576,0,0
693,-552,0,0,0,0,0,0,0,0,0,-1,1917,1576,0,0
700,-552,0,0,0,0,0,0,0,0,0,-1,1924,1576,0,0
707,-552,0,0,0,0,0,0,0,0,0,-1,1931,1576,0,0
714,-552,0,0,0,0,0,0,0,0,0,-1,1938,1576,0,0
721,-552,0,0,0,0,0,0,0,0,0,-1,1945,1576,0,0
728,-552,0,0,0,0,0,0,0,0,0,-1,1952,1576,0,0
735,-552,0,0,0,0,0,0,0,0,0,-1,1959,1576,0,0
742,-552,0,0,0,0,0,0,0,0,0,-1,1966,1576,0,0
749,-552,0,0,0,0,0,0,0,0,0,-1,1973,1576,0,0
756,-552,0,0,0,0,0,0,0,0,0,-1,1980,1576,0,0
763,-552,0,0,0,0,0,0,0,0,0,-1,1987,1576,0,0
770,-552,0,0,0,0,0,0,0,0,0,-1,1994,1576,0,0
777,-552,0,0,0,0,0,0,0,0,0,-1,2001,1576,0,0
784,-552,0,0,0,0,0,0,0,0,0,-1,2008,1576,0,0
791,-552,0,0,0,0,0,0,0,0,0,-1,2015,1576,0,0
798,-552,0,0,0,0,0,0,0,0,0,-1,2022,1576,0,0
805,-552,0,0,0,0,0,0,0,0,0,-1,2029,1576,0,0
812,-552,0,0,0,0,0,0,0,0,0,-1,2036,1576,0,0
-700,-559,0,0,0,0,0,0,0,0,0,-1,524,1583,0,0
-693,-559,0,0,0,0,0,0,0,0,0,-1,531,1583,0,0
-686,-559,0,0,0,0,0,0,0,0,0,-1,538,1583,0,0
-679,-559,0,0,0,0,0,0,0,0,0,-1,545,1583,0,0
-672,-559,0,0,0,0,0,0,0,0,0,-1,552,1583,0,0
-665,-559,0,0,0,0,0,0,0,0,0,-1,559,1583,0,0
-658,-559,0,0,0,0,0,0,0,0,0,-1,566,1583,0,0
-651,-559,0,0,0,0,0,0,0,0,0,-1,573,1583,0,0
-644,-559,0,0,0,0,0,0,0,0,0,-1,580,1583,0,0
-637,-559,0,0,0,0,0,0,0,0,0,-1,587,1583,0,0
-630,-559,0,0,0,0,0,0,0,0,0,-1,594,1583,0,0
-623,-559,0,0,0,0,0,0,0,0,0,-1,601,1583,0,0
-616,-559,0,0,0,0,0,0,0,0,0,-1,608,1583,0,0
-609,-559,0,0,0,0,0,0,0,0,0,-1,615,1583,0,0
-602,-559,0,0,0,0,0,0,0,0,0,-1,622,1583,0,0
-595,-559,0,0,0,0,0,0,0,0,0,-1,629,1583,0,0
-588,-559,0,0,0,0,0,0,0,0,0,-1,636,1583,0,0
-581,-559,0,0,0,0,0,0,0,0,0,-1,643,1583,0,0
-574,-559,0,0,0,0,0,0,0,0,0,-1,650,1583,0,0
-567,-559,0,0,0,0,0,0,0,0,0,-1,657,1583,0,0
-560,-559,0,0,0,0,0,0,0,0,0,-1,664,1583,0,0
-553,-559,0,0,0,0,0,0,0,0,0,-1,671,1583,0,0
-546,-559,0,0,0,0,0,0,0,0,0,-1,678,1583,0,0
-539,-559,0,0,0,0,0,0,0,0,0,-1,685,1583,0,0
-532,-559,0,0,0,0,0,0,0,0,0,-1,692,1583,0,0
-525,-559,0,0,0,0,0,0,0,0,0,-1,699,1583,0,0
-518,-559,0,0,0,0,0,0,0,0,0,-1,706,1583,0,0
-511,-559,0,0,0,0,0,0,0,0,0,-1,713,1583,0,0
-504,-559,0,0,0,0,0,0,0,0,0,-1,720,1583,0,0
-497,-559,0,0,0,0,0,0,0,0,0,-1,727,1583,0,0
-490,-559,-5.49835,4.47424,0,0,0,0,0,0,0,-1,734,1583,-5.49833,-4.4743
-483,-559,-5.24078,4.74561,0,0,0,0,0,0,0,-1,741,1583,-5.24079,-4.74563
-476,-559,-4.98022,4.99316,0,0,0,0,0,0,0,-1,748,1583,-4.98024,-4.99321
-469,-559,-4.6424,5.38062,0,0,0,0,0,0,0,-1,755,1583,-4.64237,-5.38058
-462,-559,-0.161865,6.49438,0,0,0,0,0,0,0,-1,762,1583,-0.161835,-6.49444
-455,-559,1.08826,7.02527,0,0,0,0,0,0,0,-1,769,1583,1.08823,-7.02529
-448,-559,-2.86023,20.0852,0,0,0,0,0,0,0,-1,776,1583,-2.86025,-20.0852
-441,-559,-4.58539,35.9545,0,0,0,0,0,0,0,-1,783,1583,-4.58539,-35.9545
-434,-559,-5.80078,38.0879,0,0,0,0,0,0,0,-1,790,1583,-5.80078,-38.0879
-427,-559,-8.86206,45.5948,0,0,0,0,0,0,0,-1,797,1583,-8.86204,-45.5949
-420,-559,-31.4583,104.939,0,0,0,0,0,0,0,-1,804,1583,-31.4583,-104.939
-413,-559,-31.7126,107.623,0.00246257,0.00213045,0.00374074,0.00604094,-0.00144792,0.763216,0.00458675,0.0478602,811,1583,-31.7127,-107.623
-406,-559,-32.144,110.108,0.00214076,0.00134765,0.00293121,0.00470212,-0.0012137,0.718163,0.00360801,0.0134038,818,1583,-32.144,-110.108
-399,-559,-32.5849,112.529,0.00203641,0.000669984,0.00215013,0.00360926,-0.000902865,0.631565,0.00275686,0.0174224,825,1583,-32.5849,-112.529
-392,-559,-33.0534,114.946,0.00209363,0.000265545,0.00153598,0.00296696,-0.000607791,0.516999,0.00220863,0.0209311,832,1583,-33.0534,-114.946
-385,-559,-33.4437,117.39,0.0022043,6.14287e-05,0.000974487,0.00258117,-0.000315444,0.369023,0.00183499,0.0208119,839,1583,-33.4437,-117.39
-378,-559,-33.8302,119.801,0.00243265,4.61514e-05,0.000559376,0.00255726,-7.84557e-05,0.219182,0.00173158,0.0190606,846,1583,-33.8302,-119.801
-371,-559,-34.3286,122.184,0.0026734,0.000323384,0.000342295,0.00272224,0.000274542,0.141734,0.00173059,0.0258606,853,1583,-34.3285,-122.184
-364,-559,-34.7027,124.568,0.00293266,0.000755433,0.000187175,0.00294864,0.000739459,0.0851368,0.00177149,0.0222677,860,1583,-34.7027,-124.568
-357,-559,-35.0728,127.045,0.00327897,0.00141939,0.000158399,0.00329236,0.00140599,0.08437,0.00190758,0.0145889,867,1583,-35.0728,-127.045
-350,-559,-35.46,129.423,0.00396034,0.00237566,0.000471163,0.00408985,0.00224615,0.268237,0.00236508,0.0127514,874,1583,-35.46,-129.423
-343,-559,-35.8969,131.794,0.00468653,0.00346287,0.000937326,0.00519404,0.00295536,0.496248,0.00300828,0.0160492,881,1583,-35.8968,-131.794
-336,-559,-36.3851,134.155,0,0,0,0,0,0,0,-1,888,1583,-36.3852,-134.155
-329,-559,-12.5913,70.7823,0,0,0,0,0,0,0,-1,895,1583,-12.5913,-70.7824
-322,-559,-6.67694,51.8236,0,0,0,0,0,0,0,-1,902,1583,-6.67692,-51.8236
-315,-559,-0.659607,29.1698,0,0,0,0,0,0,0,-1,909,1583,-0.659577,-29.1698
-308,-559,-0.755493,30.4624,0,0,0,0,0,0,0,-1,916,1583,-0.755509,-30.4625
-301,-559,-1.22174,31.0372,0,0,0,0,0,0,0,-1,923,1583,-1.22176,-31.0372
-294,-559,0.945129,18.5165,0,0,0,0,0,0,0,-1,930,1583,0.945117,-18.5165
-287,-559,-0.11792,15.4912,0,0,0,0,0,0,0,-1,937,1583,-0.117939,-15.4912
-280,-559,0.191467,13.5093,0,0,0,0,0,0,0,-1,944,1583,0.191441,-13.5093
-273,-559,2.12836,10.3059,0,0,0,0,0,0,0,-1,951,1583,2.12839,-10.3059
-266,-559,-0.597046,6.68933,0,0,0,0,0,0,0,-1,958,1583,-0.597031,-6.68937
-259,-559,-7.00311,8.62756,0,0,0,0,0,0,0,-1,965,1583,-7.00312,-8.6275
-252,-559,-9.4483,2.87805,0,0,0,0,0,0,0,-1,972,1583,-9.44829,-2.87805
-245,-559,-4.80804,7.1803,0,0,0,0,0,0,0,-1,979,1583,-4.80804,-7.18027
-238,-559,-8.45764,2.54858,0,0,0,0,0,0,0,-1,986,1583,-8.45763,-2.54862
-231,-559,-5.86914,4.34021,0,0,0,0,0,0,0,-1,993,1583,-5.86914,-4.34019
-224,-559,-3.30505,6.22864,0,0,0,0,0,0,0,-1,1000,1583,-3.30505,-6.22859
-217,-559,0,0,0,0,0,0,0,0,0,-1,1007,1583,0,0
-210,-559,0,0,0,0,0,0,0,0,0,-1,1014,1583,0,0
-203,-559,0,0,0,0,0,0,0,0,0,-1,1021,1583,0,0
-196,-559,0,0,0,0,0,0,0,0,0,-1,1028,1583,0,0
-189,-559,0,0,0,0,0,0,0,0,0,-1,1035,1583,0,0
-182,-559,0,0,0,0,0,0,0,0,0,-1,1042,1583,0,0
-175,-559,0,0,0,0,0,0,0,0,0,-1,1049,1583,0,0
-168,-559,0,0,0,0,0,0,0,0,0,-1,1056,1583,0,0
-161,-559,0,0,0,0,0,0,0,0,0,-1,1063,1583,0,0
-154,-559,0,0,0,0,0,0,0,0,0,-1,1070,1583,0,0
-147,-559,0,0,0,0,0,0,0,0,0,-1,1077,1583,0,0
-140,-559,0,0,0,0,0,0,0,0,0,-1,1084,1583,0,0
-133,-559,0,0,0,0,0,0,0,0,0,-1,1091,1583,0,0
-126,-559,0,0,0,0,0,0,0,0,0,-1,1098,1583,0,0
-119,-559,0,0,0,0,0,0,0,0,0,-1,1105,1583,0,0
-112,-559,0,0,0,0,0,0,0,0,0,-1,1112,1583,0,0
-105,-559,0,0,0,0,0,0,0,0,0,-1,1119,1583,0,0
-98,-559,0,0,0,0,0,0,0,0,0,-1,1126,1583,0,0
-91,-559,0,0,0,0,0,0,0,0,0,-1,1133,1583,0,0
-84,-559,0,0,0,0,0,0,0,0,0,-1,1140,1583,0,0
-77,-559,0,0,0,0,0,0,0,0,0,-1,1147,1583,0,0
-70,-559,0,0,0,0,0,0,0,0,0,-1,1154,1583,0,0
-63,-559,0,0,0,0,0,0,0,0,0,-1,1161,1583,0,0
-56,-559,0,0,0,0,0,0,0,0,0,-1,1168,1583,0,0
-49,-559,0,0,0,0,0,0,0,0,0,-1,1175,1583,0,0
-42,-559,0,0,0,0,0,0,0,0,0,-1,1182,1583,0,0
-35,-559,0,0,0,0,0,0,0,0,0,-1,1189,1583,0,0
-28,-559,0,0,0,0,0,0,0,0,0,-1,1196,1583,0,0
-21,-559,0,0,0,0,0,0,0,0,0,-1,1203,1583,0,0
-14,-559,0,0,0,0,0,0,0,0,0,-1,1210,1583,0,0
-7,-559,0,0,0,0,0,0,0,0,0,-1,1217,1583,0,0
0,-559,0,0,0,0,0,0,0,0,0,-1,1224,1583,0,0
7,-559,0,0,0,0,0,0,0,0,0,-1,1231,1583,0,0
14,-559,0,0,0,0,0,0,0,0,0,-1,1238,1583,0,0
21,-559,0,0,0,0,0,0,0,0,0,-1,1245,1583,0,0
28,-559,0,0,0,0,0,0,0,0,0,-1,1252,1583,0,0
35,-559,0,0,0,0,0,0,0,0,0,-1,1259,1583,0,0
42,-559,0,0,0,0,0,0,0,0,0,-1,1266,1583,0,0
49,-559,0,0,0,0,0,0,0,0,0,-1,1273,1583,0,0
56,-559,0,0,0,0,0,0,0,0,0,-1,1280,1583,0,0
63,-559,0,0,0,0,0,0,0,0,0,-1,1287,1583,0,0
70,-559,0,0,0,0,0,0,0,0,0,-1,1294,1583,0,0
77,-559,0,0,0,0,0,0,0,0,0,-1,1301,1583,0,0
84,-559,0,0,0,0,0,0,0,0,0,-1,1308,1583,0,0
91,-559,0,0,0,0,0,0,0,0,0,-1,1315,1583,0,0
98,-559,0,0,0,0,0,0,0,0,0,-1,1322,1583,0,0
105,-559,0,0,0,0,0,0,0,0,0,-1,1329,1583,0,0
112,-559,0,0,0,0,0,0,0,0,0,-1,1336,1583,0,0
119,-559,0,0,0,0,0,0,0,0,0,-1,1343,1583,0,0
126,-559,0,0,0,0,0,0,0,0,0,-1,1350,1583,0,0
133,-559,0,0,0,0,0,0,0,0,0,-1,1357,1583,0,0
140,-559,0,0,0,0,0,0,0,0,0,-1,1364,1583,0,0
147,-559,0,0,0,0,0,0,0,0,0,-1,1371,1583,0,0
154,-559,0,0,0,0,0,0,0,0,0,-1,1378,1583,0,0
161,-559,0,0,0,0,0,0,0,0,0,-1,1385,1583,0,0
168,-559,0,0,0,0,0,0,0,0,0,-1,1392,1583,0,0
175,-559,0,0,0,0,0,0,0,0,0,-1,1399,1583,0,0
182,-559,0,0,0,0,0,0,0,0,0,-1,1406,1583,0,0
189,-559,0,0,0,0,0,0,0,0,0,-1,1413,1583,0,0
196,-559,0,0,0,0,0,0,0,0,0,-1,1420,1583,0,0
203,-559,0,0,0,0,0,0,0,0,0,-1,1427,1583,0,0
210,-559,0,0,0,0,0,0,0,0,0,-1,1434,1583,0,0
217,-559,0,0,0,0,0,0,0,0,0,-1,1441,1583,0,0
224,-559,0,0,0,0,0,0,0,0,0,-1,1448,1583,0,0
231,-559,0,0,0,0,0,0,0,0,0,-1,1455,1583,0,0
238,-559,0,0,0,0,0,0,0,0,0,-1,1462,1583,0,0
245,-559,0,0,0,0,0,0,0,0,0,-1,1469,1583,0,0
252,-559,0,0,0,0,0,0,0,0,0,-1,1476,1583,0,0
259,-559,0,0,0,0,0,0,0,0,0,-1,1483,1583,0,0
266,-559,0,0,0,0,0,0,0,0,0,-1,1490,1583,0,0
273,-559,0,0,0,0,0,0,0,0,0,-1,1497,1583,0,0
280,-559,0,0,0,0,0,0,0,0,0,-1,1504,1583,0,0
287,-559,0,0,0,0,0,0,0,0,0,-1,1511,1583,0,0
294,-559,0,0,0,0,0,0,0,0,0,-1,1518,1583,0,0
301,-559,0,0,0,0,0,0,0,0,0,-1,1525,1583,0,0
308,-559,0,0,0,0,0,0,0,0,0,-1,1532,1583,0,0
315,-559,0,0,0,0,0,0,0,0,0,-1,1539,1583,0,0
322,-559,0,0,0,0,0,0,0,0,0,-1,1546,1583,0,0
329,-559,0,0,0,0,0,0,0,0,0,-1,1553,1583,0,0
336,-559,5.97668,3.09827,0,0,0,0,0,0,0,-1,1560,1583,5.97667,-3.09824
343,-559,5.44824,2.88696,0,0,0,0,0,0,0,-1,1567,1583,5.44819,-2.88693
350,-559,4.69775,3.27051,0,0,0,0,0,0,0,-1,1574,1583,4.69771,-3.27048
357,-559,3.88025,3.60999,0,0,0,0,0,0,0,-1,1581,1583,3.88027,-3.60998
364,-559,5.00928,5.32605,0,0,0,0,0,0,0,-1,1588,1583,5.00928,-5.32607
371,-559,21.0801,52.1865,0,0,0,0,0,0,0,-1,1595,1583,21.0801,-52.1865
378,-559,6.34753,1.53137,0,0,0,0,0,0,0,-1,1602,1583,6.34752,-1.53139
385,-559,6.95911,1.48181,0,0,0,0,0,0,0,-1,1609,1583,6.95916,-1.48175
392,-559,11.6949,4.77734,0,0,0,0,0,0,0,-1,1616,1583,11.6949,-4.77731
399,-559,11.1104,5.56909,0,0,0,0,0,0,0,-1,1623,1583,11.1103,-5.56905
406,-559,10.3385,6.48657,0,0,0,0,0,0,0,-1,1630,1583,10.3385,-6.48661
413,-559,9.76147,6.97571,0,0,0,0,0,0,0,-1,1637,1583,9.76143,-6.97574
420,-559,7.77124,10.5851,0,0,0,0,0,0,0,-1,1644,1583,7.77128,-10.585
427,-559,10.1022,12.5565,0,0,0,0,0,0,0,-1,1651,1583,10.1021,-12.5565
434,-559,9.62769,14.6309,0,0,0,0,0,0,0,-1,1658,1583,9.62771,-14.6309
441,-559,12.6149,21.3678,0,0,0,0,0,0,0,-1,1665,1583,12.6149,-21.3678
448,-559,13.7046,22.6677,0,0,0,0,0,0,0,-1,1672,1583,13.7046,-22.6677
455,-559,13.9427,23.0509,0,0,0,0,0,0,0,-1,1679,1583,13.9427,-23.0509
462,-559,21.9476,42.0568,0,0,0,0,0,0,0,-1,1686,1583,21.9477,-42.0568
469,-559,41.6609,135.057,0,0,0,0,0,0,0,-1,1693,1583,41.6609,-135.057
476,-559,41.597,132.226,0,0,0,0,0,0,0,-1,1700,1583,41.5971,-132.226
483,-559,41.2725,129.8,0.00550888,0.00381499,-0.00212453,0.00694906,0.00237481,-0.595728,0.00407848,0.0217323,1707,1583,41.2725,-129.8
490,-559,40.8737,127.411,0.00446058,0.00294675,-0.00166665,0.00553414,0.00187319,-0.572246,0.00325023,0.0197745,1714,1583,40.8737,-127.411
497,-559,40.4948,125.077,0.00344947,0.00236989,-0.00137158,0.00438366,0.0014357,-0.597931,0.00258062,0.0228704,1721,1583,40.4948,-125.077
504,-559,40.0601,122.722,0.00257745,0.00188622,-0.0011839,0.00346515,0.000998517,-0.643379,0.00205959,0.0305629,1728,1583,40.0601,-122.722
511,-559,39.6279,120.285,0.00193216,0.0014833,-0.00114124,0.00287083,0.000544629,-0.688309,0.00176065,0.0262596,1735,1583,39.628,-120.285
518,-559,39.2382,117.791,0.00155108,0.00123417,-0.00134211,0.00274406,4.11932e-05,-0.726637,0.0018158,0.0188977,1742,1583,39.2382,-117.791
525,-559,38.8104,115.349,0.00133081,0.00106104,-0.00161881,0.00282034,-0.000428491,-0.743832,0.00203813,0.0197265,1749,1583,38.8104,-115.349
532,-559,38.4158,112.965,0.00139984,0.00120695,-0.00207839,0.00338402,-0.000777236,-0.762214,0.00255481,0.0234569,1756,1583,38.4158,-112.965
539,-559,37.9735,110.594,0.00175779,0.00160299,-0.00269146,0.00437296,-0.00101218,-0.771023,0.00330478,0.0274062,1763,1583,37.9735,-110.593
546,-559,37.4716,108.285,0.00260867,0.00245526,-0.00360113,0.00613391,-0.00106998,-0.774749,0.00448865,0.0244923,1770,1583,37.4716,-108.285
553,-559,37.0444,105.691,0,0,0,0,0,0,0,-1,1777,1583,37.0445,-105.691
560,-559,35.3595,88.3951,0,0,0,0,0,0,0,-1,1784,1583,35.3595,-88.3951
567,-559,21.7423,29.5544,0,0,0,0,0,0,0,-1,1791,1583,21.7423,-29.5544
574,-559,10.5109,10.7317,0,0,0,0,0,0,0,-1,1798,1583,10.5108,-10.7317
581,-559,5.97095,5.96179,0,0,0,0,0,0,0,-1,1805,1583,5.97093,-5.96181
588,-559,5.79102,5.89954,0,0,0,0,0,0,0,-1,1812,1583,5.79098,-5.89949
595,-559,5.79089,6.24231,0,0,0,0,0,0,0,-1,1819,1583,5.7909,-6.24227
602,-559,12.478,2.35669,0,0,0,0,0,0,0,-1,1826,1583,12.4781,-2.35675
609,-559,14.0479,1.22681,0,0,0,0,0,0,0,-1,1833,1583,14.0479,-1.22681
616,-559,0,0,0,0,0,0,0,0,0,-1,1840,1583,0,0
623,-559,0,0,0,0,0,0,0,0,0,-1,1847,1583,0,0
630,-559,0,0,0,0,0,0,0,0,0,-1,1854,1583,0,0
637,-559,0,0,0,0,0,0,0,0,0,-1,1861,1583,0,0
644,-559,0,0,0,0,0,0,0,0,0,-1,1868,1583,0,0
651,-559,0,0,0,0,0,0,0,0,0,-1,1875,1583,0,0
658,-559,0,0,0,0,0,0,0,0,0,-1,1882,1583,0,0
665,-559,0,0,0,0,0,0,0,0,0,-1,1889,1583,0,0
672,-559,0,0,0,0,0,0,0,0,0,-1,1896,1583,0,0
679,-559,0,0,0,0,0,0,0,0,0,-1,1903,1583,0,0
686,-559,0,0,0,0,0,0,0,0,0,-1,1910,1583,0,0
693,-559,0,0,0,0,0,0,0,0,0,-1,1917,1583,0,0
700,-559,0,0,0,0,0,0,0,0,0,-1,1924,1583,0,0
707,-559,0,0,0,0,0,0,0,0,0,-1,1931,1583,0,0
714,-559,0,0,0,0,0,0,0,0,0,-1,1938,1583,0,0
721,-559,0,0,0,0,0,0,0,0,0,-1,1945,1583,0,0
728,-559,0,0,0,0,0,0,0,0,0,-1,1952,1583,0,0
735,-559,0,0,0,0,0,0,0,0,0,-1,1959,1583,0,0
742,-559,0,0,0,0,0,0,0,0,0,-1,1966,1583,0,0
749,-559,0,0,0,0,0,0,0,0,0,-1,1973,1583,0,0
756,-559,0,0,0,0,0,0,0,0,0,-1,1980,1583,0,0
763,-559,0,0,0,0,0,0,0,0,0,-1,1987,1583,0,0
770,-559,0,0,0,0,0,0,0,0,0,-1,1994,1583,0,0
777,-559,0,0,0,0,0,0,0,0,0,-1,2001,1583,0,0
784,-559,0,0,0,0,0,0,0,0,0,-1,2008,1583,0,0
791,-559,0,0,0,0,0,0,0,0,0,-1,2015,1583,0,0
798,-559,0,0,0,0,0,0,0,0,0,-1,2022,1583,0,0
805,-559,0,0,0,0,0,0,0,0,0,-1,2029,1583,0,0
812,-559,0,0,0,0,0,0,0,0,0,-1,2036,1583,0,0
-700,-566,0,0,0,0,0,0,0,0,0,-1,524,1590,0,0
-693,-566,0,0,0,0,0,0,0,0,0,-1,531,1590,0,0
-686,-566,0,0,0,0,0,0,0,0,0,-1,538,1590,0,0
-679,-566,0,0,0,0,0,0,0,0,0,-1,545,1590,0,0
-672,-566,0,0,0,0,0,0,0,0,0,-1,552,1590,0,0
-665,-566,0,0,0,0,0,0,0,0,0,-1,559,1590,0,0
-658,-566,0,0,0,0,0,0,0,0,0,-1,566,1590,0,0
-651,-566,0,0,0,0,0,0,0,0,0,-1,573,1590,0,0
-644,-566,0,0,0,0,0,0,0,0,0,-1,580,1590,0,0
-637,-566,0,0,0,0,0,0,0,0,0,-1,587,1590,0,0
-630,-566,0,0,0,0,0,0,0,0,0,-1,594,1590,0,0
-623,-566,0,0,0,0,0,0,0,0,0,-1,601,1590,0,0
-616,-566,0,0,0,0,0,0,0,0,0,-1,608,1590,0,0
-609,-566,0,0,0,0,0,0,0,0,0,-1,615,1590,0,0
-602,-566,0,0,0,0,0,0,0,0,0,-1,622,1590,0,0
-595,-566,0,0,0,0,0,0,0,0,0,-1,629,1590,0,0
-588,-566,0,0,0,0,0,0,0,0,0,-1,636,1590,0,0
-581,-566,0,0,0,0,0,0,0,0,0,-1,643,1590,0,0
-574,-566,0,0,0,0,0,0,0,0,0,-1,650,1590,0,0
-567,-566,0,0,0,0,0,0,0,0,0,-1,657,1590,0,0
-560,-566,0,0,0,0,0,0,0,0,0,-1,664,1590,0,0
-553,-566,0,0,0,0,0,0,0,0,0,-1,671,1590,0,0
-546,-566,0,0,0,0,0,0,0,0,0,-1,678,1590,0,0
-539,-566,0,0,0,0,0,0,0,0,0,-1,685,1590,0,0
-532,-566,0,0,0,0,0,0,0,0,0,-1,692,1590,0,0
-525,-566,0,0,0,0,0,0,0,0,0,-1,699,1590,0,0
-518,-566,0,0,0,0,0,0,0,0,0,-1,706,1590,0,0
-511,-566,0,0,0,0,0,0,0,0,0,-1,713,1590,0,0
-504,-566,0,0,0,0,0,0,0,0,0,-1,720,1590,0,0
-497,-566,0,0,0,0,0,0,0,0,0,-1,727,1590,0,0
-490,-566,0,0,0,0,0,0,0,0,0,-1,734,1590,0,0
-483,-566,-7.17084,2.78613,0,0,0,0,0,0,0,-1,741,1590,-7.17083,-2.78618
-476,-566,-7.13971,2.87183,0,0,0,0,0,0,0,-1,748,1590,-7.13971,-2.87184
-469,-566,-6.43829,3.2998,0,0,0,0,0,0,0,-1,755,1590,-6.43829,-3.2998
-462,-566,-0.459106,3.89343,0,0,0,0,0,0,0,-1,762,1590,-0.459095,-3.89341
-455,-566,0.280212,4.74023,0,0,0,0,0,0,0,-1,769,1590,0.280207,-4.74023
-448,-566,0.436951,5.51306,0,0,0,0,0,0,0,-1,776,1590,0.436971,-5.51301
-441,-566,-0.440735,12.4063,0,0,0,0,0,0,0,-1,783,1590,-0.440753,-12.4062
-434,-566,-4.50739,36.9485,0,0,0,0,0,0,0,-1,790,1590,-4.50737,-36.9485
-427,-566,-5.04791,38.1658,0,0,0,0,0,0,0,-1,797,1590,-5.04793,-38.1658
-420,-566,-7.9455,47.2288,0,0,0,0,0,0,0,-1,804,1590,-7.94552,-47.2288
-413,-566,-29.3437,107.997,0,0,0,0,0,0,0,-1,811,1590,-29.3437,-107.997
-406,-566,-29.7387,110.567,0,0,0,0,0,0,0,-1,818,1590,-29.7387,-110.567
-399,-566,-30.1848,112.968,0.00220146,0.000770401,0.00285262,0.00442692,-0.00145506,0.662517,0.00353749,0.0159349,825,1590,-30.1848,-112.968
-392,-566,-30.6419,115.39,0.00221458,0.000429113,0.00221985,0.00371449,-0.00107079,0.594215,0.00289992,0.0187104,832,1590,-30.6419,-115.39
-385,-566,-31.0277,117.831,0.00223629,0.000187926,0.00162816,0.00313561,-0.000711388,0.504647,0.0023635,0.020849,839,1590,-31.0277,-117.831
-378,-566,-31.4191,120.274,0.00237314,0.000154072,0.00115178,0.00286287,-0.00033566,0.402038,0.00202974,0.0211472,846,1590,-31.4191,-120.274
-371,-566,-31.9017,122.618,0.00251909,0.000371287,0.000843584,0.0028108,7.95756e-05,0.332928,0.00184791,0.0273297,853,1590,-31.9017,-122.618
-364,-566,-32.2654,125.047,0.00266541,0.00068712,0.000620872,0.00284412,0.000508408,0.280264,0.00175139,0.0263792,860,1590,-32.2655,-125.047
-357,-566,-32.6871,127.451,0.00288652,0.00117166,0.00045719,0.0030008,0.00105739,0.24493,0.0017575,0.0222378,867,1590,-32.6871,-127.451
-350,-566,-33.0528,129.828,0.00342948,0.00188389,0.00057246,0.00361841,0.00169495,0.318783,0.00209048,0.0264837,874,1590,-33.0528,-129.828
-343,-566,-33.435,132.261,0.00402871,0.00257415,0.000762379,0.00435507,0.00224779,0.404476,0.00251484,0.0342753,881,1590,-33.435,-132.261
-336,-566,-33.9,134.662,0,0,0,0,0,0,0,-1,888,1590,-33.9,-134.662
-329,-566,-34.2617,136.995,0,0,0,0,0,0,0,-1,895,1590,-34.2617,-136.995
-322,-566,-34.4072,139.896,0,0,0,0,0,0,0,-1,902,1590,-34.4072,-139.896
-315,-566,-5.8877,52.3676,0,0,0,0,0,0,0,-1,909,1590,-5.88771,-52.3675
-308,-566,-0.127258,29.7607,0,0,0,0,0,0,0,-1,916,1590,-0.12725,-29.7608
-301,-566,0.424011,30.6545,0,0,0,0,0,0,0,-1,923,1590,0.424036,-30.6546
-294,-566,-2.54523,43.1459,0,0,0,0,0,0,0,-1,930,1590,-2.54522,-43.1458
-287,-566,1.25391,23.4589,0,0,0,0,0,0,0,-1,937,1590,1.2539,-23.4589
-280,-566,1.59406,17.8762,0,0,0,0,0,0,0,-1,944,1590,1.59405,-17.8762
-273,-566,0.49762,11.2427,0,0,0,0,0,0,0,-1,951,1590,0.497591,-11.2426
-266,-566,0.392151,6.90295,0,0,0,0,0,0,0,-1,958,1590,0.392151,-6.90294
-259,-566,0.343628,6.47437,0,0,0,0,0,0,0,-1,965,1590,0.34363,-6.47438
-252,-566,-7.68311,1.01343,0,0,0,0,0,0,0,-1,972,1590,-7.68308,-1.01348
-245,-566,-11.1835,1.97522,0,0,0,0,0,0,0,-1,979,1590,-11.1835,-1.97527
-238,-566,-10.4883,2.40491,0,0,0,0,0,0,0,-1,986,1590,-10.4883,-2.40487
-231,-566,-7.41827,4.22803,0,0,0,0,0,0,0,-1,993,1590,-7.41827,-4.22803
-224,-566,-4.67188,6.30859,0,0,0,0,0,0,0,-1,1000,1590,-4.67185,-6.30853
-217,-566,-2.82867,7.52527,0,0,0,0,0,0,0,-1,1007,1590,-2.82869,-7.52531
-210,-566,-1.03436,8.67737,0,0,0,0,0,0,0,-1,1014,1590,-1.03439,-8.67733
-203,-566,0,0,0,0,0,0,0,0,0,-1,1021,1590,0,0
-196,-566,0,0,0,0,0,0,0,0,0,-1,1028,1590,0,0
-189,-566,0,0,0,0,0,0,0,0,0,-1,1035,1590,0,0
-182,-566,0,0,0,0,0,0,0,0,0,-1,1042,1590,0,0
-175,-566,0,0,0,0,0,0,0,0,0,-1,1049,1590,0,0
-168,-566,0,0,0,0,0,0,0,0,0,-1,1056,1590,0,0
-161,-566,0,0,0,0,0,0,0,0,0,-1,1063,1590,0,0
-154,-566,0,0,0,0,0,0,0,0,0,-1,1070,1590,0,0
-147,-566,0,0,0,0,0,0,0,0,0,-1,1077,1590,0,0
-140,-566,0,0,0,0,0,0,0,0,0,-1,1084,1590,0,0
-133,-566,0,0,0,0,0,0,0,0,0,-1,1091,1590,0,0
-126,-566,0,0,0,0,0,0,0,0,0,-1,1098,1590,0,0
-119,-566,0,0,0,0,0,0,0,0,0,-1,1105,1590,0,0
-112,-566,0,0,0,0,0,0,0,0,0,-1,1112,1590,0,0
-105,-566,0,0,0,0,0,0,0,0,0,-1,1119,1590,0,0
-98,-566,0,0,0,0,0,0,0,0,0,-1,1126,1590,0,0
-91,-566,0,0,0,0,0,0,0,0,0,-1,1133,1590,0,0
-84,-566,0,0,0,0,0,0,0,0,0,-1,1140,1590,0,0
-77,-566,0,0,0,0,0,0,0,0,0,-1,1147,1590,0,0
-70,-566,0,0,0,0,0,0,0,0,0,-1,1154,1590,0,0
-63,-566,0,0,0,0,0,0,0,0,0,-1,1161,1590,0,0
-56,-566,0,0,0,0,0,0,0,0,0,-1,1168,1590,0,0
-49,-566,0,0,0,0,0,0,0,0,0,-1,1175,1590,0,0
-42,-566,0,0,0,0,0,0,0,0,0,-1,1182,1590,0,0
-35,-566,0,0,0,0,0,0,0,0,0,-1,1189,1590,0,0
-28,-566,0,0,0,0,0,0,0,0,0,-1,1196,1590,0,0
-21,-566,0,0,0,0,0,0,0,0,0,-1,1203,1590,0,0
-14,-566,0,0,0,0,0,0,0,0,0,-1,1210,1590,0,0
-7,-566,0,0,0,0,0,0,0,0,0,-1,1217,1590,0,0
0,-566,0,0,0,0,0,0,0,0,0,-1,1224,1590,0,0
7,-566,0,0,0,0,0,0,0,0,0,-1,1231,1590,0,0
14,-566,0,0,0,0,0,0,0,0,0,-1,1238,1590,0,0
21,-566,0,0,0,0,0,0,0,0,0,-1,1245,1590,0,0
28,-566,0,0,0,0,0,0,0,0,0,-1,1252,1590,0,0
35,-566,0,0,0,0,0,0,0,0,0,-1,1259,1590,0,0
42,-566,0,0,0,0,0,0,0,0,0,-1,1266,1590,0,0
49,-566,0,0,0,0,0,0,0,0,0,-1,1273,1590,0,0
56,-566,0,0,0,0,0,0,0,0,0,-1,1280,1590,0,0
63,-566,0,0,0,0,0,0,0,0,0,-1,1287,1590,0,0
70,-566,0,0,0,0,0,0,0,0,0,-1,1294,1590,0,0
77,-566,0,0,0,0,0,0,0,0,0,-1,1301,1590,0,0
84,-566,0,0,0,0,0,0,0,0,0,-1,1308,1590,0,0
91,-566,0,0,0,0,0,0,0,0,0,-1,1315,1590,0,0
98,-566,0,0,0,0,0,0,0,0,0,-1,1322,1590,0,0
105,-566,0,0,0,0,0,0,0,0,0,-1,1329,1590,0,0
112,-566,0,0,0,0,0,0,0,0,0,-1,1336,1590,0,0
119,-566,0,0,0,0,0,0,0,0,0,-1,1343,1590,0,0
126,-566,0,0,0,0,0,0,0,0,0,-1,1350,1590,0,0
133,-566,0,0,0,0,0,0,0,0,0,-1,1357,1590,0,0
140,-566,0,0,0,0,0,0,0,0,0,-1,1364,1590,0,0
147,-566,0,0,0,0,0,0,0,0,0,-1,1371,1590,0,0
154,-566,0,0,0,0,0,0,0,0,0,-1,1378,1590,0,0
161,-566,0,0,0,0,0,0,0,0,0,-1,1385,1590,0,0
168,-566,0,0,0,0,0,0,0,0,0,-1,1392,1590,0,0
175,-566,0,0,0,0,0,0,0,0,0,-1,1399,1590,0,0
182,-566,0,0,0,0,0,0,0,0,0,-1,1406,1590,0,0
189,-566,0,0,0,0,0,0,0,0,0,-1,1413,1590,0,0
196,-566,0,0,0,0,0,0,0,0,0,-1,1420,1590,0,0
203,-566,0,0,0,0,0,0,0,0,0,-1,1427,1590,0,0
210,-566,0,0,0,0,0,0,0,0,0,-1,1434,1590,0,0
217,-566,0,0,0,0,0,0,0,0,0,-1,1441,1590,0,0
224,-566,0,0,0,0,0,0,0,0,0,-1,1448,1590,0,0
231,-566,0,0,0,0,0,0,0,0,0,-1,1455,1590,0,0
238,-566,0,0,0,0,0,0,0,0,0,-1,1462,1590,0,0
245,-566,0,0,0,0,0,0,0,0,0,-1,1469,1590,0,0
252,-566,0,0,0,0,0,0,0,0,0,-1,1476,1590,0,0
259,-566,0,0,0,0,0,0,0,0,0,-1,1483,1590,0,0
266,-566,0,0,0,0,0,0,0,0,0,-1,1490,1590,0,0
273,-566,0,0,0,0,0,0,0,0,0,-1,1497,1590,0,0
280,-566,0,0,0,0,0,0,0,0,0,-1,1504,1590,0,0
287,-566,0,0,0,0,0,0,0,0,0,-1,1511,1590,0,0
294,-566,0,0,0,0,0,0,0,0,0,-1,1518,1590,0,0
301,-566,0,0,0,0,0,0,0,0,0,-1,1525,1590,0,0
308,-566,0,0,0,0,0,0,0,0,0,-1,1532,1590,0,0
315,-566,0,0,0,0,0,0,0,0,0,-1,1539,1590,0,0
322,-566,6.07983,4.44873,0,0,0,0,0,0,0,-1,1546,1590,6.07983,-4.44873
329,-566,5.77026,3.47534,0,0,0,0,0,0,0,-1,1553,1590,5.77026,-3.47535
336,-566,5.41138,2.62915,0,0,0,0,0,0,0,-1,1560,1590,5.41138,-2.62909
343,-566,4.81873,1.79089,0,0,0,0,0,0,0,-1,1567,1590,4.81878,-1.79095
350,-566,24.2104,52.894,0,0,0,0,0,0,0,-1,1574,1590,24.2105,-52.8941
357,-566,25.1531,51.6272,0,0,0,0,0,0,0,-1,1581,1590,25.153,-51.6272
364,-566,24.3885,51.1313,0,0,0,0,0,0,0,-1,1588,1590,24.3886,-51.1314
371,-566,21.1536,52.8204,0,0,0,0,0,0,0,-1,1595,1590,21.1535,-52.8205
378,-566,22.0442,54.6259,0,0,0,0,0,0,0,-1,1602,1590,22.0442,-54.6259
385,-566,5.67615,-0.573975,0,0,0,0,0,0,0,-1,1609,1590,5.67612,0.573956
392,-566,5.78638,1.82434,0,0,0,0,0,0,0,-1,1616,1590,5.78637,-1.82439
399,-566,18.6853,38.6455,0,0,0,0,0,0,0,-1,1623,1590,18.6853,-38.6456
406,-566,4.30359,5.26868,0,0,0,0,0,0,0,-1,1630,1590,4.30364,-5.26867
413,-566,4.27124,5.79492,0,0,0,0,0,0,0,-1,1637,1590,4.27123,-5.7949
420,-566,18.0121,32.5314,0,0,0,0,0,0,0,-1,1644,1590,18.0121,-32.5313
427,-566,19.4491,36.9315,0,0,0,0,0,0,0,-1,1651,1590,19.4491,-36.9315
434,-566,19.338,36.7385,0,0,0,0,0,0,0,-1,1658,1590,19.338,-36.7386
441,-566,15.5841,27.5869,0,0,0,0,0,0,0,-1,1665,1590,15.5842,-27.587
448,-566,21.8796,45.052,0,0,0,0,0,0,0,-1,1672,1590,21.8797,-45.052
455,-566,24.4391,53.7858,0,0,0,0,0,0,0,-1,1679,1590,24.4391,-53.7858
462,-566,39.9919,137.382,0,0,0,0,0,0,0,-1,1686,1590,39.9919,-137.382
469,-566,39.5151,135.092,0.00659996,0.00449602,-0.00222564,0.00800972,0.00308626,-0.56463,0.00466479,0.043705,1693,1590,39.5151,-135.092
476,-566,39.2426,132.626,0.0054167,0.00366162,-0.00194287,0.00667102,0.00240731,-0.573276,0.00390091,0.0154789,1700,1590,39.2425,-132.626
483,-566,38.8682,130.193,0.00450111,0.00264526,-0.00159004,0.00541418,0.00173219,-0.521266,0.00319273,0.0141003,1707,1590,38.8682,-130.193
490,-566,38.4742,127.781,0.00368996,0.00196886,-0.00134487,0.00442604,0.00123279,-0.500786,0.00263761,0.017346,1714,1590,38.4742,-127.781
497,-566,38.1108,125.406,0.00286302,0.00146784,-0.0011812,0.00353724,0.00079362,-0.518667,0.00214318,0.021124,1721,1590,38.1109,-125.406
504,-566,37.6461,123.093,0.00218749,0.00109603,-0.0011387,0.00290448,0.000379047,-0.56194,0.00182315,0.0257959,1728,1590,37.6461,-123.093
511,-566,37.2152,120.726,0.00169433,0.000803239,-0.00119911,0.002528,-3.0429e-05,-0.607522,0.00169556,0.0247824,1735,1590,37.2152,-120.726
518,-566,36.86,118.319,0.00142866,0.000613588,-0.00148324,0.00255933,-0.000517091,-0.651327,0.00190216,0.0158953,1742,1590,36.86,-118.319
525,-566,36.4415,115.921,0.00134537,0.000543705,-0.0019137,0.00289977,-0.00101069,-0.682163,0.00234387,0.016673,1749,1590,36.4415,-115.921
532,-566,36.0529,113.432,0.0015352,0.000758105,-0.00250847,0.00368503,-0.00139173,-0.708562,0.00302911,0.0234536,1756,1590,36.0529,-113.432
539,-566,35.6488,110.885,0.00193519,0.00126827,-0.00328605,0.00490465,-0.0017012,-0.734833,0.00396055,0.0362996,1763,1590,35.6488,-110.885
546,-566,35.2166,108.383,0,0,0,0,0,0,0,-1,1770,1590,35.2166,-108.383
553,-566,31.3649,70.2271,0,0,0,0,0,0,0,-1,1777,1590,31.3648,-70.2271
560,-566,28.2495,53.7024,0,0,0,0,0,0,0,-1,1784,1590,28.2495,-53.7024
567,-566,22.297,34.7642,0,0,0,0,0,0,0,-1,1791,1590,22.2969,-34.7641
574,-566,7.99548,3.14514,0,0,0,0,0,0,0,-1,1798,1590,7.99543,-3.14511
581,-566,2.54102,5.1311,0,0,0,0,0,0,0,-1,1805,1590,2.54099,-5.13111
588,-566,-1.91321,8.39197,0,0,0,0,0,0,0,-1,1812,1590,-1.91316,-8.39199
595,-566,9.0271,4.66467,0,0,0,0,0,0,0,-1,1819,1590,9.02705,-4.66468
602,-566,9.953,3.54895,0,0,0,0,0,0,0,-1,1826,1590,9.953,-3.54898
609,-566,0,0,0,0,0,0,0,0,0,-1,1833,1590,0,0
616,-566,0,0,0,0,0,0,0,0,0,-1,1840,1590,0,0
623,-566,0,0,0,0,0,0,0,0,0,-1,1847,1590,0,0
630,-566,0,0,0,0,0,0,0,0,0,-1,1854,1590,0,0
637,-566,0,0,0,0,0,0,0,0,0,-1,1861,1590,0,0
644,-566,0,0,0,0,0,0,0,0,0,-1,1868,1590,0,0
651,-566,0,0,0,0,0,0,0,0,0,-1,1875,1590,0,0
658,-566,0,0,0,0,0,0,0,0,0,-1,1882,1590,0,0
665,-566,0,0,0,0,0,0,0,0,0,-1,1889,1590,0,0
672,-566,0,0,0,0,0,0,0,0,0,-1,1896,1590,0,0
679,-566,0,0,0,0,0,0,0,0,0,-1,1903,1590,0,0
686,-566,0,0,0,0,0,0,0,0,0,-1,1910,1590,0,0
693,-566,0,0,0,0,0,0,0,0,0,-1,1917,1590,0,0
700,-566,0,0,0,0,0,0,0,0,0,-1,1924,1590,0,0
707,-566,0,0,0,0,0,0,0,0,0,-1,1931,1590,0,0
714,-566,0,0,0,0,0,0,0,0,0,-1,1938,1590,0,0
721,-566,0,0,0,0,0,0,0,0,0,-1,1945,1590,0,0
728,-566,0,0,0,0,0,0,0,0,0,-1,1952,1590,0,0
735,-566,0,0,0,0,0,0,0,0,0,-1,1959,1590,0,0
742,-566,0,0,0,0,0,0,0,0,0,-1,1966,1590,0,0
749,-566,0,0,0,0,0,0,0,0,0,-1,1973,1590,0,0
756,-566,0,0,0,0,0,0,0,0,0,-1,1980,1590,0,0
763,-566,0,0,0,0,0,0,0,0,0,-1,1987,1590,0,0
770,-566,0,0,0,0,0,0,0,0,0,-1,1994,1590,0,0
777,-566,0,0,0,0,0,0,0,0,0,-1,2001,1590,0,0
784,-566,0,0,0,0,0,0,0,0,0,-1,2008,1590,0,0
791,-566,0,0,0,0,0,0,0,0,0,-1,2015,1590,0,0
798,-566,0,0,0,0,0,0,0,0,0,-1,2022,1590,0,0
805,-566,0,0,0,0,0,0,0,0,0,-1,2029,1590,0,0
812,-566,0,0,0,0,0,0,0,0,0,-1,2036,1590,0,0
-700,-573,0,0,0,0,0,0,0,0,0,-1,524,1597,0,0
-693,-573,0,0,0,0,0,0,0,0,0,-1,531,1597,0,0
-686,-573,0,0,0,0,0,0,0,0,0,-1,538,1597,0,0
-679,-573,0,0,0,0,0,0,0,0,0,-1,545,1597,0,0
-672,-573,0,0,0,0,0,0,0,0,0,-1,552,1597,0,0
-665,-573,0,0,0,0,0,0,0,0,0,-1,559,1597,0,0
-658,-573,0,0,0,0,0,0,0,0,0,-1,566,1597,0,0
-651,-573,0,0,0,0,0,0,0,0,0,-1,573,1597,0,0
-644,-573,0,0,0,0,0,0,0,0,0,-1,580,1597,0,0
-637,-573,0,0,0,0,0,0,0,0,0,-1,587,1597,0,0
-630,-573,0,0,0,0,0,0,0,0,0,-1,594,1597,0,0
-623,-573,0,0,0,0,0,0,0,0,0,-1,601,1597,0,0
-616,-573,0,0,0,0,0,0,0,0,0,-1,608,1597,0,0
-609,-573,0,0,0,0,0,0,0,0,0,-1,615,1597,0,0
-602,-573,0,0,0,0,0,0,0,0,0,-1,622,1597,0,0
-595,-573,0,0,0,0,0,0,0,0,0,-1,629,1597,0,0
-588,-573,0,0,0,0,0,0,0,0,0,-1,636,1597,0,0
-581,-573,0,0,0,0,0,0,0,0,0,-1,643,1597,0,0
-574,-573,0,0,0,0,0,0,0,0,0,-1,650,1597,0,0
-567,-573,0,0,0,0,0,0,0,0,0,-1,657,1597,0,0
-560,-573,0,0,0,0,0,0,0,0,0,-1,664,1597,0,0
-553,-573,0,0,0,0,0,0,0,0,0,-1,671,1597,0,0
-546,-573,0,0,0,0,0,0,0,0,0,-1,678,1597,0,0
-539,-573,0,0,0,0,0,0,0,0,0,-1,685,1597,0,0
-532,-573,0,0,0,0,0,0,0,0,0,-1,692,1597,0,0
-525,-573,0,0,0,0,0,0,0,0,0,-1,699,1597,0,0
-518,-573,0,0,0,0,0,0,0,0,0,-1,706,1597,0,0
-511,-573,0,0,0,0,0,0,0,0,0,-1,713,1597,0,0
-504,-573,0,0,0,0,0,0,0,0,0,-1,720,1597,0,0
-497,-573,0,0,0,0,0,0,0,0,0,-1,727,1597,0,0
-490,-573,0,0,0,0,0,0,0,0,0,-1,734,1597,0,0
-483,-573,0,0,0,0,0,0,0,0,0,-1,741,1597,0,0
-476,-573,-9.3327,0.972778,0,0,0,0,0,0,0,-1,748,1597,-9.33268,-0.972776
-469,-573,-1.41681,1.13379,0,0,0,0,0,0,0,-1,755,1597,-1.41681,-1.13382
-462,-573,-0.748535,2.02588,0,0,0,0,0,0,0,-1,762,1597,-0.748533,-2.02584
-455,-573,-0.112976,2.70703,0,0,0,0,0,0,0,-1,769,1597,-0.112988,-2.70697
-448,-573,-1.26172,3.33252,0,0,0,0,0,0,0,-1,776,1597,-1.26173,-3.33248
-441,-573,0.108582,5.06726,0,0,0,0,0,0,0,-1,783,1597,0.108584,-5.06721
-434,-573,1.61768,7.05444,0,0,0,0,0,0,0,-1,790,1597,1.61767,-7.05446
-427,-573,-1.37927,24.4124,0,0,0,0,0,0,0,-1,797,1597,-1.37928,-24.4124
-420,-573,-1.15186,28.0936,0,0,0,0,0,0,0,-1,804,1597,-1.15185,-28.0936
-413,-573,-6.24719,44.6611,0,0,0,0,0,0,0,-1,811,1597,-6.24719,-44.6612
-406,-573,-27.5307,110.546,0,0,0,0,0,0,0,-1,818,1597,-27.5307,-110.546
-399,-573,-27.7814,113.322,0.00260516,0.000763325,0.003692,0.00548937,-0.00212088,0.663174,0.00453498,0.0473737,825,1597,-27.7814,-113.322
-392,-573,-28.2128,115.844,0.00249016,0.000478292,0.00299448,0.00464316,-0.0016747,0.623355,0.00377944,0.0186973,832,1597,-28.2128,-115.844
-385,-573,-28.6458,118.266,0.0023785,0.000194591,0.00238061,0.00390564,-0.00133255,0.570371,0.00314355,0.0183665,839,1597,-28.6458,-118.266
-378,-573,-29.056,120.665,0.0024084,0.000151257,0.00183231,0.00343182,-0.000872159,0.509374,0.0026273,0.0190701,846,1597,-29.056,-120.665
-371,-573,-29.4531,123.083,0.00246022,0.000315963,0.00142286,0.00316966,-0.000393476,0.462528,0.00225573,0.0207943,853,1597,-29.4531,-123.083
-364,-573,-29.8614,125.452,0.00251199,0.000552418,0.00113807,0.00303393,3.04783e-05,0.429998,0.00201254,0.0229763,860,1597,-29.8614,-125.452
-357,-573,-30.2818,127.807,0.00263392,0.000915896,0.000873748,0.0030002,0.000549617,0.396951,0.00184443,0.0274356,867,1597,-30.2818,-127.807
-350,-573,-30.6835,130.258,0.00304295,0.0014481,0.00083864,0.00340277,0.00108828,0.405291,0.00200666,0.0228792,874,1597,-30.6835,-130.258
-343,-573,-31.0408,132.713,0.00353173,0.00187735,0.000841248,0.00388434,0.00152474,0.396912,0.00225983,0.027691,881,1597,-31.0408,-132.713
-336,-573,-31.473,135.16,0.00409706,0.00248457,0.000827652,0.00444625,0.00213537,0.39925,0.00256771,0.0221049,888,1597,-31.473,-135.16
-329,-573,-31.8285,137.421,0.00490242,0.00305616,0.000893676,0.00526414,0.00269445,0.384594,0.00303954,0.028458,895,1597,-31.8285,-137.421
-322,-573,-32.2712,139.91,0.00608521,0.00379975,0.00120207,0.00660104,0.00328393,0.405351,0.00381113,0.0425852,902,1597,-32.2712,-139.91
-315,-573,-32.3132,142.931,0,0,0,0,0,0,0,-1,909,1597,-32.3133,-142.931
-308,-573,-5.80212,56.1248,0,0,0,0,0,0,0,-1,916,1597,-5.80211,-56.1248
-301,-573,-5.52454,56.47,0,0,0,0,0,0,0,-1,923,1597,-5.52453,-56.47
-294,-573,-3.89948,50.4868,0,0,0,0,0,0,0,-1,930,1597,-3.89947,-50.4868
-287,-573,-2.00739,43.4723,0,0,0,0,0,0,0,-1,937,1597,-2.00739,-43.4723
-280,-573,1.19684,26.4906,0,0,0,0,0,0,0,-1,944,1597,1.19685,-26.4906
-273,-573,2.24805,25.4375,0,0,0,0,0,0,0,-1,951,1597,2.24803,-25.4374
-266,-573,1.31116,7.1814,0,0,0,0,0,0,0,-1,958,1597,1.31118,-7.18142
-259,-573,1.2514,6.70959,0,0,0,0,0,0,0,-1,965,1597,1.25137,-6.70965
-252,-573,2.07874,5.27161,0,0,0,0,0,0,0,-1,972,1597,2.07875,-5.27157
-245,-573,-10.2592,1.09827,0,0,0,0,0,0,0,-1,979,1597,-10.2592,-1.09823
-238,-573,-11.5463,4.44141,0,0,0,0,0,0,0,-1,986,1597,-11.5463,-4.44146
-231,-573,-9.23431,4.14539,0,0,0,0,0,0,0,-1,993,1597,-9.23431,-4.14534
-224,-573,-6.70044,7.40857,0,0,0,0,0,0,0,-1,1000,1597,-6.70045,-7.40851
-217,-573,-4.25824,8.59119,0,0,0,0,0,0,0,-1,1007,1597,-4.25824,-8.59122
-210,-573,-2.39661,9.73914,0,0,0,0,0,0,0,-1,1014,1597,-2.39658,-9.73915
-203,-573,-0.557373,10.9005,0,0,0,0,0,0,0,-1,1021,1597,-0.557387,-10.9006
-196,-573,-1.65344,9.02246,0,0,0,0,0,0,0,-1,1028,1597,-1.65349,-9.02241
-189,-573,-6.12915,6.66882,0,0,0,0,0,0,0,-1,1035,1597,-6.12913,-6.66884
-182,-573,0,0,0,0,0,0,0,0,0,-1,1042,1597,0,0
-175,-573,0,0,0,0,0,0,0,0,0,-1,1049,1597,0,0
-168,-573,0,0,0,0,0,0,0,0,0,-1,1056,1597,0,0
-161,-573,0,0,0,0,0,0,0,0,0,-1,1063,1597,0,0
-154,-573,0,0,0,0,0,0,0,0,0,-1,1070,1597,0,0
-147,-573,0,0,0,0,0,0,0,0,0,-1,1077,1597,0,0
-140,-573,0,0,0,0,0,0,0,0,0,-1,1084,1597,0,0
-133,-573,0,0,0,0,0,0,0,0,0,-1,1091,1597,0,0
-126,-573,0,0,0,0,0,0,0,0,0,-1,1098,1597,0,0
-119,-573,0,0,0,0,0,0,0,0,0,-1,1105,1597,0,0
-112,-573,0,0,0,0,0,0,0,0,0,-1,1112,1597,0,0
-105,-573,0,0,0,0,0,0,0,0,0,-1,1119,1597,0,0
-98,-573,0,0,0,0,0,0,0,0,0,-1,1126,1597,0,0
-91,-573,0,0,0,0,0,0,0,0,0,-1,1133,1597,0,0
-84,-573,0,0,0,0,0,0,0,0,0,-1,1140,1597,0,0
-77,-573,0,0,0,0,0,0,0,0,0,-1,1147,1597,0,0
-70,-573,0,0,0,0,0,0,0,0,0,-1,1154,1597,0,0
-63,-573,0,0,0,0,0,0,0,0,0,-1,1161,1597,0,0
-56,-573,0,0,0,0,0,0,0,0,0,-1,1168,1597,0,0
-49,-573,0,0,0,0,0,0,0,0,0,-1,1175,1597,0,0
-42,-573,0,0,0,0,0,0,0,0,0,-1,1182,1597,0,0
-35,-573,0,0,0,0,0,0,0,0,0,-1,1189,1597,0,0
-28,-573,0,0,0,0,0,0,0,0,0,-1,1196,1597,0,0
-21,-573,0,0,0,0,0,0,0,0,0,-1,1203,1597,0,0
-14,-573,0,0,0,0,0,0,0,0,0,-1,1210,1597,0,0
-7,-573,0,0,0,0,0,0,0,0,0,-1,1217,1597,0,0
0,-573,0,0,0,0,0,0,0,0,0,-1,1224,1597,0,0
7,-573,0,0,0,0,0,0,0,0,0,-1,1231,1597,0,0
14,-573,0,0,0,0,0,0,0,0,0,-1,1238,1597,0,0
21,-573,0,0,0,0,0,0,0,0,0,-1,1245,1597,0,0
28,-573,0,0,0,0,0,0,0,0,0,-1,1252,1597,0,0
35,-573,0,0,0,0,0,0,0,0,0,-1,1259,1597,0,0
42,-573,0,0,0,0,0,0,0,0,0,-1,1266,1597,0,0
49,-573,0,0,0,0,0,0,0,0,0,-1,1273,1597,0,0
56,-573,0,0,0,0,0,0,0,0,0,-1,1280,1597,0,0
63,-573,0,0,0,0,0,0,0,0,0,-1,1287,1597,0,0
70,-573,0,0,0,0,0,0,0,0,0,-1,1294,1597,0,0
77,-573,0,0,0,0,0,0,0,0,0,-1,1301,1597,0,0
84,-573,0,0,0,0,0,0,0,0,0,-1,1308,1597,0,0
91,-573,0,0,0,0,0,0,0,0,0,-1,1315,1597,0,0
98,-573,0,0,0,0,0,0,0,0,0,-1,1322,1597,0,0
105,-573,0,0,0,0,0,0,0,0,0,-1,1329,1597,0,0
112,-573,0,0,0,0,0,0,0,0,0,-1,1336,1597,0,0
119,-573,0,0,0,0,0,0,0,0,0,-1,1343,1597,0,0
126,-573,0,0,0,0,0,0,0,0,0,-1,1350,1597,0,0
133,-573,0,0,0,0,0,0,0,0,0,-1,1357,1597,0,0
140,-573,0,0,0,0,0,0,0,0,0,-1,1364,1597,0,0
147,-573,0,0,0,0,0,0,0,0,0,-1,1371,1597,0,0
154,-573,0,0,0,0,0,0,0,0,0,-1,1378,1597,0,0
161,-573,0,0,0,0,0,0,0,0,0,-1,1385,1597,0,0
168,-573,0,0,0,0,0,0,0,0,0,-1,1392,1597,0,0
175,-573,0,0,0,0,0,0,0,0,0,-1,1399,1597,0,0
182,-573,0,0,0,0,0,0,0,0,0,-1,1406,1597,0,0
189,-573,0,0,0,0,0,0,0,0,0,-1,1413,1597,0,0
196,-573,0,0,0,0,0,0,0,0,0,-1,1420,1597,0,0
203,-573,0,0,0,0,0,0,0,0,0,-1,1427,1597,0,0
210,-573,0,0,0,0,0,0,0,0,0,-1,1434,1597,0,0
217,-573,0,0,0,0,0,0,0,0,0,-1,1441,1597,0,0
224,-573,0,0,0,0,0,0,0,0,0,-1,1448,1597,0,0
231,-573,0,0,0,0,0,0,0,0,0,-1,1455,1597,0,0
238,-573,0,0,0,0,0,0,0,0,0,-1,1462,1597,0,0
245,-573,0,0,0,0,0,0,0,0,0,-1,1469,1597,0,0
252,-573,0,0,0,0,0,0,0,0,0,-1,1476,1597,0,0
259,-573,0,0,0,0,0,0,0,0,0,-1,1483,1597,0,0
266,-573,0,0,0,0,0,0,0,0,0,-1,1490,1597,0,0
273,-573,0,0,0,0,0,0,0,0,0,-1,1497,1597,0,0
280,-573,0,0,0,0,0,0,0,0,0,-1,1504,1597,0,0
287,-573,0,0,0,0,0,0,0,0,0,-1,1511,1597,0,0
294,-573,0,0,0,0,0,0,0,0,0,-1,1518,1597,0,0
301,-573,0,0,0,0,0,0,0,0,0,-1,1525,1597,0,0
308,-573,5.93042,9.71143,0,0,0,0,0,0,0,-1,1532,1597,5.93046,-9.71144
315,-573,4.34204,11.719,0,0,0,0,0,0,0,-1,1539,1597,4.34205,-11.719
322,-573,10.3269,7.77563,0,0,0,0,0,0,0,-1,1546,1597,10.327,-7.77565
329,-573,4.99573,3.80273,0,0,0,0,0,0,0,-1,1553,1597,4.9957,-3.80273
336,-573,4.85693,2.53455,0,0,0,0,0,0,0,-1,1560,1597,4.8569,-2.53459
343,-573,21.4159,52.1832,0,0,0,0,0,0,0,-1,1567,1597,21.4159,-52.1833
350,-573,24.5242,53.5112,0,0,0,0,0,0,0,-1,1574,1597,24.5242,-53.5112
357,-573,23.7375,52.9818,0,0,0,0,0,0,0,-1,1581,1597,23.7376,-52.9818
364,-573,22.9738,52.4512,0,0,0,0,0,0,0,-1,1588,1597,22.9738,-52.4511
371,-573,22.2067,51.9435,0,0,0,0,0,0,0,-1,1595,1597,22.2066,-51.9435
378,-573,22.1105,55.1304,0,0,0,0,0,0,0,-1,1602,1597,22.1104,-55.1304
385,-573,6.54346,-0.951904,0,0,0,0,0,0,0,-1,1609,1597,6.54349,0.951901
392,-573,17.5164,38.3645,0,0,0,0,0,0,0,-1,1616,1597,17.5164,-38.3645
399,-573,20.5255,42.9893,0,0,0,0,0,0,0,-1,1623,1597,20.5255,-42.9893
406,-573,22.5132,48.6315,0,0,0,0,0,0,0,-1,1630,1597,22.5132,-48.6315
413,-573,27.5349,77.4857,0,0,0,0,0,0,0,-1,1637,1597,27.5349,-77.4857
420,-573,28.8744,81.4833,0,0,0,0,0,0,0,-1,1644,1597,28.8743,-81.4833
427,-573,20.4286,42.2079,0,0,0,0,0,0,0,-1,1651,1597,20.4285,-42.2079
434,-573,22.8055,51.4678,0,0,0,0,0,0,0,-1,1658,1597,22.8056,-51.4678
441,-573,22.8397,52.2052,0,0,0,0,0,0,0,-1,1665,1597,22.8397,-52.2051
448,-573,38.3712,143,0,0,0,0,0,0,0,-1,1672,1597,38.3712,-143
455,-573,38.0479,140.084,0,0,0,0,0,0,0,-1,1679,1597,38.0478,-140.084
462,-573,37.7294,137.62,0.0065334,0.00458861,-0.0021241,0.0078971,0.00322491,-0.570741,0.00458485,0.04637,1686,1597,37.7294,-137.62
469,-573,37.2709,135.364,0.00530587,0.00315458,-0.00160318,0.00616082,0.00229963,-0.489918,0.00359483,0.0196861,1693,1597,37.2709,-135.364
476,-573,36.8712,133.027,0.00428875,0.00239468,-0.00141761,0.00504656,0.00163687,-0.490917,0.00297296,0.0184869,1700,1597,36.8713,-133.027
483,-573,36.5574,130.594,0.00354255,0.001528,-0.00121333,0.00411223,0.000958321,-0.438963,0.00248444,0.0194609,1707,1597,36.5573,-130.594
490,-573,36.1113,128.15,0.00287734,0.00100272,-0.00110681,0.0033904,0.000489653,-0.434065,0.00211602,0.0231363,1714,1597,36.1114,-128.15
497,-573,35.6945,125.759,0.0021959,0.00055983,-0.00103928,0.00270047,5.52594e-05,-0.451981,0.00178218,0.0336915,1721,1597,35.6945,-125.759
504,-573,35.339,123.466,0.00169355,0.000254765,-0.00110522,0.00229289,-0.000344568,-0.496893,0.00165544,0.0220715,1728,1597,35.339,-123.466
511,-573,34.8907,121.118,0.00134701,3.16699e-05,-0.00124844,0.00210042,-0.00072174,-0.542974,0.00169294,0.0218206,1735,1597,34.8907,-121.118
518,-573,34.4343,118.726,0.00119638,-0.000132222,-0.00157521,0.00224164,-0.00117748,-0.585853,0.00200565,0.0181794,1742,1597,34.4343,-118.726
525,-573,34.041,116.373,0.00129664,-0.000121252,-0.00215355,0.00285494,-0.00167955,-0.626386,0.00264714,0.0231947,1749,1597,34.0411,-116.373
532,-573,33.6622,113.832,0.0016634,0.000122829,-0.00288461,0.00387879,-0.00209257,-0.654926,0.0034986,0.0302044,1756,1597,33.6622,-113.832
539,-573,33.3822,111.143,0,0,0,0,0,0,0,-1,1763,1597,33.3822,-111.143
546,-573,29.525,73.3749,0,0,0,0,0,0,0,-1,1770,1597,29.525,-73.3749
553,-573,28.2662,57.49,0,0,0,0,0,0,0,-1,1777,1597,28.2663,-57.49
560,-573,25.194,47.3386,0,0,0,0,0,0,0,-1,1784,1597,25.194,-47.3386
567,-573,23.1487,41.1044,0,0,0,0,0,0,0,-1,1791,1597,23.1486,-41.1043
574,-573,0.83374,5.7041,0,0,0,0,0,0,0,-1,1798,1597,0.833718,-5.70405
581,-573,-0.224854,7.41602,0,0,0,0,0,0,0,-1,1805,1597,-0.224904,-7.41596
588,-573,-0.134033,7.67065,0,0,0,0,0,0,0,-1,1812,1597,-0.134037,-7.67063
595,-573,-0.0825195,8.35083,0,0,0,0,0,0,0,-1,1819,1597,-0.0824684,-8.35088
602,-573,0,0,0,0,0,0,0,0,0,-1,1826,1597,0,0
609,-573,0,0,0,0,0,0,0,0,0,-1,1833,1597,0,0
616,-573,0,0,0,0,0,0,0,0,0,-1,1840,1597,0,0
623,-573,0,0,0,0,0,0,0,0,0,-1,1847,1597,0,0
630,-573,0,0,0,0,0,0,0,0,0,-1,1854,1597,0,0
637,-573,0,0,0,0,0,0,0,0,0,-1,1861,1597,0,0
644,-573,0,0,0,0,0,0,0,0,0,-1,1868,1597,0,0
651,-573,0,0,0,0,0,0,0,0,0,-1,1875,1597,0,0
658,-573,0,0,0,0,0,0,0,0,0,-1,1882,1597,0,0
665,-573,0,0,0,0,0,0,0,0,0,-1,1889,1597,0,0
672,-573,0,0,0,0,0,0,0,0,0,-1,1896,1597,0,0
679,-573,0,0,0,0,0,0,0,0,0,-1,1903,1597,0,0
686,-573,0,0,0,0,0,0,0,0,0,-1,1910,1597,0,0
693,-573,0,0,0,0,0,0,0,0,0,-1,1917,1597,0,0
700,-573,0,0,0,0,0,0,0,0,0,-1,1924,1597,0,0
707,-573,0,0,0,0,0,0,0,0,0,-1,1931,1597,0,0
714,-573,0,0,0,0,0,0,0,0,0,-1,1938,1597,0,0
721,-573,0,0,0,0,0,0,0,0,0,-1,1945,1597,0,0
728,-573,0,0,0,0,0,0,0,0,0,-1,1952,1597,0,0
735,-573,0,0,0,0,0,0,0,0,0,-1,1959,1597,0,0
742,-573,0,0,0,0,0,0,0,0,0,-1,1966,1597,0,0
749,-573,0,0,0,0,0,0,0,0,0,-1,1973,1597,0,0
756,-573,0,0,0,0,0,0,0,0,0,-1,1980,1597,0,0
763,-573,0,0,0,0,0,0,0,0,0,-1,1987,1597,0,0
770,-573,0,0,0,0,0,0,0,0,0,-1,1994,1597,0,0
777,-573,0,0,0,0,0,0,0,0,0,-1,2001,1597,0,0
784,-573,0,0,0,0,0,0,0,0,0,-1,2008,1597,0,0
791,-573,0,0,0,0,0,0,0,0,0,-1,2015,1597,0,0
798,-573,0,0,0,0,0,0,0,0,0,-1,2022,1597,0,0
805,-573,0,0,0,0,0,0,0,0,0,-1,2029,1597,0,0
812,-573,0,0,0,0,0,0,0,0,0,-1,2036,1597,0,0
-700,-580,0,0,0,0,0,0,0,0,0,-1,524,1604,0,0
-693,-580,0,0,0,0,0,0,0,0,0,-1,531,1604,0,0
-686,-580,0,0,0,0,0,0,0,0,0,-1,538,1604,0,0
-679,-580,0,0,0,0,0,0,0,0,0,-1,545,1604,0,0
-672,-580,0,0,0,0,0,0,0,0,0,-1,552,1604,0,0
-665,-580,0,0,0,0,0,0,0,0,0,-1,559,1604,0,0
-658,-580,0,0,0,0,0,0,0,0,0,-1,566,1604,0,0
-651,-580,0,0,0,0,0,0,0,0,0,-1,573,1604,0,0
-644,-580,0,0,0,0,0,0,0,0,0,-1,580,1604,0,0
-637,-580,0,0,0,0,0,0,0,0,0,-1,587,1604,0,0
-630,-580,0,0,0,0,0,0,0,0,0,-1,594,1604,0,0
-623,-580,0,0,0,0,0,0,0,0,0,-1,601,1604,0,0
-616,-580,0,0,0,0,0,0,0,0,0,-1,608,1604,0,0
-609,-580,0,0,0,0,0,0,0,0,0,-1,615,1604,0,0
-602,-580,0,0,0,0,0,0,0,0,0,-1,622,1604,0,0
-595,-580,0,0,0,0,0,0,0,0,0,-1,629,1604,0,0
-588,-580,0,0,0,0,0,0,0,0,0,-1,636,1604,0,0
-581,-580,0,0,0,0,0,0,0,0,0,-1,643,1604,0,0
-574,-580,0,0,0,0,0,0,0,0,0,-1,650,1604,0,0
-567,-580,0,0,0,0,0,0,0,0,0,-1,657,1604,0,0
-560,-580,0,0,0,0,0,0,0,0,0,-1,664,1604,0,0
-553,-580,0,0,0,0,0,0,0,0,0,-1,671,1604,0,0
-546,-580,0,0,0,0,0,0,0,0,0,-1,678,1604,0,0
-539,-580,0,0,0,0,0,0,0,0,0,-1,685,1604,0,0
-532,-580,0,0,0,0,0,0,0,0,0,-1,692,1604,0,0
-525,-580,0,0,0,0,0,0,0,0,0,-1,699,1604,0,0
-518,-580,0,0,0,0,0,0,0,0,0,-1,706,1604,0,0
-511,-580,0,0,0,0,0,0,0,0,0,-1,713,1604,0,0
-504,-580,0,0,0,0,0,0,0,0,0,-1,720,1604,0,0
-497,-580,0,0,0,0,0,0,0,0,0,-1,727,1604,0,0
-490,-580,0,0,0,0,0,0,0,0,0,-1,734,1604,0,0
-483,-580,0,0,0,0,0,0,0,0,0,-1,741,1604,0,0
-476,-580,0,0,0,0,0,0,0,0,0,-1,748,1604,0,0
-469,-580,-1.69189,-0.38916,0,0,0,0,0,0,0,-1,755,1604,-1.69192,0.389188
-462,-580,-0.859863,0.675293,0,0,0,0,0,0,0,-1,762,1604,-0.859834,-0.675245
-455,-580,-0.730164,0.651978,0,0,0,0,0,0,0,-1,769,1604,-0.730153,-0.651957
-448,-580,-3.31891,2.07544,0,0,0,0,0,0,0,-1,776,1604,-3.3189,-2.07539
-441,-580,-1.63843,3.9469,0,0,0,0,0,0,0,-1,783,1604,-1.63842,-3.94695
-434,-580,0.23291,5.97876,0,0,0,0,0,0,0,-1,790,1604,0.232901,-5.97878
-427,-580,1.62756,8.05493,0,0,0,0,0,0,0,-1,797,1604,1.62758,-8.05488
-420,-580,0.986572,11.2383,0,0,0,0,0,0,0,-1,804,1604,0.986544,-11.2382
-413,-580,0.922913,21.5701,0,0,0,0,0,0,0,-1,811,1604,0.922905,-21.5701
-406,-580,-3.00854,38.0941,0,0,0,0,0,0,0,-1,818,1604,-3.00852,-38.0941
-399,-580,-25.4954,113.51,0,0,0,0,0,0,0,-1,825,1604,-25.4953,-113.51
-392,-580,-25.7919,116.299,0,0,0,0,0,0,0,-1,832,1604,-25.7919,-116.299
-385,-580,-26.2515,118.698,0.00264353,0.000150702,0.00329825,0.00492302,-0.00212879,0.604743,0.00417655,0.0216514,839,1604,-26.2516,-118.698
-378,-580,-26.6416,121.136,0.00257689,0.000105909,0.0026387,0.00425502,-0.00157221,0.566447,0.00348118,0.0171584,846,1604,-26.6416,-121.136
-371,-580,-27.0052,123.56,0.00254627,0.000231137,0.0021018,0.00378819,-0.00101078,0.533689,0.00292127,0.0172418,853,1604,-27.0053,-123.56
-364,-580,-27.4167,125.905,0.00251409,0.000411166,0.00175092,0.003505,-0.000579746,0.514997,0.00255196,0.0264099,860,1604,-27.4167,-125.905
-357,-580,-27.8789,128.265,0.00253014,0.000680439,0.0014077,0.00328963,-7.90436e-05,0.494761,0.0022199,0.0190212,867,1604,-27.8789,-128.265
-350,-580,-28.3082,130.656,0.00277886,0.00107014,0.00125141,0.00343974,0.000409259,0.485883,0.00216965,0.0144952,874,1604,-28.3082,-130.656
-343,-580,-28.6746,133.056,0.00314525,0.00133402,0.00113367,0.00369062,0.00078865,0.448383,0.00224421,0.015072,881,1604,-28.6746,-133.056
-336,-580,-28.9615,135.413,0.00358122,0.00176626,0.00101628,0.00403622,0.00131126,0.420948,0.00237748,0.0302887,888,1604,-28.9616,-135.413
-329,-580,-29.4414,137.828,0.00420166,0.00212269,0.000958637,0.00457622,0.00174813,0.372479,0.00266649,0.02723,895,1604,-29.4414,-137.828
-322,-580,-29.9344,140.242,0.00511457,0.00259051,0.00104861,0.00549336,0.00221172,0.346646,0.00319158,0.0305047,902,1604,-29.9344,-140.242
-315,-580,-30.1962,142.698,0,0,0,0,0,0,0,-1,909,1604,-30.1962,-142.698
-308,-580,-30.7949,145.056,0,0,0,0,0,0,0,-1,916,1604,-30.7949,-145.056
-301,-580,-30.5806,147.655,0,0,0,0,0,0,0,-1,923,1604,-30.5806,-147.655
-294,-580,-6.49896,66.3197,0,0,0,0,0,0,0,-1,930,1604,-6.49896,-66.3196
-287,-580,-3.76239,54.9144,0,0,0,0,0,0,0,-1,937,1604,-3.76236,-54.9144
-280,-580,-2.74774,52.328,0,0,0,0,0,0,0,-1,944,1604,-2.74776,-52.328
-273,-580,-2.96637,52.8284,0,0,0,0,0,0,0,-1,951,1604,-2.96637,-52.8283
-266,-580,-1.22644,48.4485,0,0,0,0,0,0,0,-1,958,1604,-1.22644,-48.4485
-259,-580,1.31091,9.11536,0,0,0,0,0,0,0,-1,965,1604,1.31092,-9.11539
-252,-580,1.07629,7.74097,0,0,0,0,0,0,0,-1,972,1604,1.07627,-7.74101
-245,-580,3.80304,9.16028,0,0,0,0,0,0,0,-1,979,1604,3.80306,-9.16034
-238,-580,-10.3588,1.57556,0,0,0,0,0,0,0,-1,986,1604,-10.3588,-1.5755
-231,-580,-10.576,6.43787,0,0,0,0,0,0,0,-1,993,1604,-10.576,-6.43783
-224,-580,-8.27435,7.58972,0,0,0,0,0,0,0,-1,1000,1604,-8.27435,-7.5897
-217,-580,-5.85632,9.51221,0,0,0,0,0,0,0,-1,1007,1604,-5.85632,-9.5122
-210,-580,-3.6684,11.1569,0,0,0,0,0,0,0,-1,1014,1604,-3.66839,-11.1569
-203,-580,-1.92474,12.7845,0,0,0,0,0,0,0,-1,1021,1604,-1.92477,-12.7845
-196,-580,-2.28552,10.3289,0,0,0,0,0,0,0,-1,1028,1604,-2.28552,-10.3288
-189,-580,-4.58252,7.59058,0,0,0,0,0,0,0,-1,1035,1604,-4.58256,-7.59057
-182,-580,-5.45874,7.65942,0,0,0,0,0,0,0,-1,1042,1604,-5.45876,-7.65939
-175,-580,-6.38977,7.55005,0,0,0,0,0,0,0,-1,1049,1604,-6.38981,-7.5501
-168,-580,0,0,0,0,0,0,0,0,0,-1,1056,1604,0,0
-161,-580,0,0,0,0,0,0,0,0,0,-1,1063,1604,0,0
-154,-580,0,0,0,0,0,0,0,0,0,-1,1070,1604,0,0
-147,-580,0,0,0,0,0,0,0,0,0,-1,1077,1604,0,0
-140,-580,0,0,0,0,0,0,0,0,0,-1,1084,1604,0,0
-133,-580,0,0,0,0,0,0,0,0,0,-1,1091,1604,0,0
-126,-580,0,0,0,0,0,0,0,0,0,-1,1098,1604,0,0
-119,-580,0,0,0,0,0,0,0,0,0,-1,1105,1604,0,0
-112,-580,0,0,0,0,0,0,0,0,0,-1,1112,1604,0,0
-105,-580,0,0,0,0,0,0,0,0,0,-1,1119,1604,0,0
-98,-580,0,0,0,0,0,0,0,0,0,-1,1126,1604,0,0
-91,-580,0,0,0,0,0,0,0,0,0,-1,1133,1604,0,0
-84,-580,0,0,0,0,0,0,0,0,0,-1,1140,1604,0,0
-77,-580,0,0,0,0,0,0,0,0,0,-1,1147,1604,0,0
-70,-580,0,0,0,0,0,0,0,0,0,-1,1154,1604,0,0
-63,-580,0,0,0,0,0,0,0,0,0,-1,1161,1604,0,0
-56,-580,0,0,0,0,0,0,0,0,0,-1,1168,1604,0,0
-49,-580,0,0,0,0,0,0,0,0,0,-1,1175,1604,0,0
-42,-580,0,0,0,0,0,0,0,0,0,-1,1182,1604,0,0
-35,-580,0,0,0,0,0,0,0,0,0,-1,1189,1604,0,0
-28,-580,0,0,0,0,0,0,0,0,0,-1,1196,1604,0,0
-21,-580,0,0,0,0,0,0,0,0,0,-1,1203,1604,0,0
-14,-580,0,0,0,0,0,0,0,0,0,-1,1210,1604,0,0
-7,-580,0,0,0,0,0,0,0,0,0,-1,1217,1604,0,0
0,-580,0,0,0,0,0,0,0,0,0,-1,1224,1604,0,0
7,-580,0,0,0,0,0,0,0,0,0,-1,1231,1604,0,0
14,-580,0,0,0,0,0,0,0,0,0,-1,1238,1604,0,0
21,-580,0,0,0,0,0,0,0,0,0,-1,1245,1604,0,0
28,-580,0,0,0,0,0,0,0,0,0,-1,1252,1604,0,0
35,-580,0,0,0,0,0,0,0,0,0,-1,1259,1604,0,0
42,-580,0,0,0,0,0,0,0,0,0,-1,1266,1604,0,0
49,-580,0,0,0,0,0,0,0,0,0,-1,1273,1604,0,0
56,-580,0,0,0,0,0,0,0,0,0,-1,1280,1604,0,0
63,-580,0,0,0,0,0,0,0,0,0,-1,1287,1604,0,0
70,-580,0,0,0,0,0,0,0,0,0,-1,1294,1604,0,0
77,-580,0,0,0,0,0,0,0,0,0,-1,1301,1604,0,0
84,-580,0,0,0,0,0,0,0,0,0,-1,1308,1604,0,0
91,-580,0,0,0,0,0,0,0,0,0,-1,1315,1604,0,0
98,-580,0,0,0,0,0,0,0,0,0,-1,1322,1604,0,0
105,-580,0,0,0,0,0,0,0,0,0,-1,1329,1604,0,0
112,-580,0,0,0,0,0,0,0,0,0,-1,1336,1604,0,0
119,-580,0,0,0,0,0,0,0,0,0,-1,1343,1604,0,0
126,-580,0,0,0,0,0,0,0,0,0,-1,1350,1604,0,0
133,-580,0,0,0,0,0,0,0,0,0,-1,1357,1604,0,0
140,-580,0,0,0,0,0,0,0,0,0,-1,1364,1604,0,0
147,-580,0,0,0,0,0,0,0,0,0,-1,1371,1604,0,0
154,-580,0,0,0,0,0,0,0,0,0,-1,1378,1604,0,0
161,-580,0,0,0,0,0,0,0,0,0,-1,1385,1604,0,0
168,-580,0,0,0,0,0,0,0,0,0,-1,1392,1604,0,0
175,-580,0,0,0,0,0,0,0,0,0,-1,1399,1604,0,0
182,-580,0,0,0,0,0,0,0,0,0,-1,1406,1604,0,0
189,-580,0,0,0,0,0,0,0,0,0,-1,1413,1604,0,0
196,-580,0,0,0,0,0,0,0,0,0,-1,1420,1604,0,0
203,-580,0,0,0,0,0,0,0,0,0,-1,1427,1604,0,0
210,-580,0,0,0,0,0,0,0,0,0,-1,1434,1604,0,0
217,-580,0,0,0,0,0,0,0,0,0,-1,1441,1604,0,0
224,-580,0,0,0,0,0,0,0,0,0,-1,1448,1604,0,0
231,-580,0,0,0,0,0,0,0,0,0,-1,1455,1604,0,0
238,-580,0,0,0,0,0,0,0,0,0,-1,1462,1604,0,0
245,-580,0,0,0,0,0,0,0,0,0,-1,1469,1604,0,0
252,-580,0,0,0,0,0,0,0,0,0,-1,1476,1604,0,0
259,-580,0,0,0,0,0,0,0,0,0,-1,1483,1604,0,0
266,-580,0,0,0,0,0,0,0,0,0,-1,1490,1604,0,0
273,-580,0,0,0,0,0,0,0,0,0,-1,1497,1604,0,0
280,-580,0,0,0,0,0,0,0,0,0,-1,1504,1604,0,0
287,-580,0,0,0,0,0,0,0,0,0,-1,1511,1604,0,0
294,-580,4.0437,0.177368,0,0,0,0,0,0,0,-1,1518,1604,4.04369,-0.177371
301,-580,7.55164,8.05798,0,0,0,0,0,0,0,-1,1525,1604,7.55158,-8.05802
308,-580,5.9126,9.99341,0,0,0,0,0,0,0,-1,1532,1604,5.91255,-9.99337
315,-580,4.27356,11.9287,0,0,0,0,0,0,0,-1,1539,1604,4.27352,-11.9287
322,-580,10.2366,7.50281,0,0,0,0,0,0,0,-1,1546,1604,10.2366,-7.50282
329,-580,10.5962,8.69641,0,0,0,0,0,0,0,-1,1553,1604,10.5962,-8.69642
336,-580,3.66431,1.58862,0,0,0,0,0,0,0,-1,1560,1604,3.6643,-1.58864
343,-580,19.0659,51.8346,0,0,0,0,0,0,0,-1,1567,1604,19.0659,-51.8346
350,-580,22.8734,54.9255,0,0,0,0,0,0,0,-1,1574,1604,22.8734,-54.9255
357,-580,22.1614,54.3809,0,0,0,0,0,0,0,-1,1581,1604,22.1614,-54.3809
364,-580,21.4701,53.8442,0,0,0,0,0,0,0,-1,1588,1604,21.4701,-53.8442
371,-580,22.0861,57.5294,0,0,0,0,0,0,0,-1,1595,1604,22.0861,-57.5294
378,-580,23.1404,53.2659,0,0,0,0,0,0,0,-1,1602,1604,23.1404,-53.2659
385,-580,23.9454,66.333,0,0,0,0,0,0,0,-1,1609,1604,23.9455,-66.3331
392,-580,19.1388,46.7451,0,0,0,0,0,0,0,-1,1616,1604,19.1388,-46.7452
399,-580,21.1744,50.241,0,0,0,0,0,0,0,-1,1623,1604,21.1744,-50.241
406,-580,29.3561,99.2605,0,0,0,0,0,0,0,-1,1630,1604,29.3561,-99.2605
413,-580,29.0001,93.5648,0,0,0,0,0,0,0,-1,1637,1604,29.0001,-93.5648
420,-580,27.9183,81.3159,0,0,0,0,0,0,0,-1,1644,1604,27.9184,-81.3159
427,-580,28.2332,86.6798,0,0,0,0,0,0,0,-1,1651,1604,28.2332,-86.6798
434,-580,27.2424,77.8894,0,0,0,0,0,0,0,-1,1658,1604,27.2424,-77.8894
441,-580,36.1614,145.527,0,0,0,0,0,0,0,-1,1665,1604,36.1613,-145.527
448,-580,36.027,142.893,0.00713321,0.00608123,-0.00237337,0.00903818,0.00417626,-0.67635,0.0052232,0.0404777,1672,1604,36.0269,-142.893
455,-580,35.6851,140.513,0.00604668,0.0044559,-0.00192337,0.00733264,0.00316995,-0.589335,0.00424641,0.033539,1679,1604,35.6851,-140.513
462,-580,35.2833,138.152,0.00512996,0.00322774,-0.00163064,0.0060666,0.0022911,-0.521383,0.00353733,0.0279027,1686,1604,35.2833,-138.152
469,-580,34.9161,135.799,0.00413636,0.00199863,-0.00123146,0.00469813,0.00143686,-0.427981,0.0027798,0.0231794,1693,1604,34.9162,-135.799
476,-580,34.4789,133.422,0.00329813,0.00129782,-0.00110865,0.0037911,0.000804856,-0.418402,0.00230641,0.0189198,1700,1604,34.4788,-133.421
483,-580,34.1141,131.031,0.00269481,0.000548376,-0.00100021,0.00308864,0.000154551,-0.3751,0.00200956,0.0202621,1707,1604,34.1141,-131.031
490,-580,33.6644,128.659,0.00214773,0.000124945,-0.000983602,0.00254715,-0.000274474,-0.385735,0.00179659,0.0303545,1714,1604,33.6644,-128.659
497,-580,33.2476,126.219,0.00157914,-0.000293941,-0.000982849,0.00200021,-0.00071501,-0.40476,0.00162511,0.0234037,1721,1604,33.2475,-126.218
504,-580,32.8707,123.856,0.0012023,-0.000598976,-0.00111718,0.00173667,-0.00113335,-0.446153,0.00166916,0.0208539,1728,1604,32.8707,-123.856
511,-580,32.4703,121.508,0.000954549,-0.000841623,-0.00130748,0.00164267,-0.00152975,-0.484464,0.00183198,0.0211332,1735,1604,32.4704,-121.508
518,-580,32.0027,119.104,0.000848505,-0.0010759,-0.00161095,0.00176273,-0.00199013,-0.516186,0.00216804,0.0207558,1742,1604,32.0026,-119.104
525,-580,31.6057,116.775,0,0,0,0,0,0,0,-1,1749,1604,31.6057,-116.775
532,-580,31.2789,114.085,0,0,0,0,0,0,0,-1,1756,1604,31.279,-114.085
539,-580,26.9873,63.3041,0,0,0,0,0,0,0,-1,1763,1604,26.9873,-63.3041
546,-580,26.3485,55.9186,0,0,0,0,0,0,0,-1,1770,1604,26.3486,-55.9186
553,-580,24.7284,48.406,0,0,0,0,0,0,0,-1,1777,1604,24.7284,-48.406
560,-580,22.035,41.963,0,0,0,0,0,0,0,-1,1784,1604,22.035,-41.963
567,-580,21.5164,41.0686,0,0,0,0,0,0,0,-1,1791,1604,21.5163,-41.0687
574,-580,2.31653,5.62952,0,0,0,0,0,0,0,-1,1798,1604,2.31654,-5.62947
581,-580,1.60876,6.67664,0,0,0,0,0,0,0,-1,1805,1604,1.60873,-6.67667
588,-580,1.38684,7.14441,0,0,0,0,0,0,0,-1,1812,1604,1.38689,-7.14443
595,-580,0,0,0,0,0,0,0,0,0,-1,1819,1604,0,0
602,-580,0,0,0,0,0,0,0,0,0,-1,1826,1604,0,0
609,-580,0,0,0,0,0,0,0,0,0,-1,1833,1604,0,0
616,-580,0,0,0,0,0,0,0,0,0,-1,1840,1604,0,0
623,-580,0,0,0,0,0,0,0,0,0,-1,1847,1604,0,0
630,-580,0,0,0,0,0,0,0,0,0,-1,1854,1604,0,0
637,-580,0,0,0,0,0,0,0,0,0,-1,1861,1604,0,0
644,-580,0,0,0,0,0,0,0,0,0,-1,1868,1604,0,0
651,-580,0,0,0,0,0,0,0,0,0,-1,1875,1604,0,0
658,-580,0,0,0,0,0,0,0,0,0,-1,1882,1604,0,0
665,-580,0,0,0,0,0,0,0,0,0,-1,1889,1604,0,0
672,-580,0,0,0,0,0,0,0,0,0,-1,1896,1604,0,0
679,-580,0,0,0,0,0,0,0,0,0,-1,1903,1604,0,0
686,-580,0,0,0,0,0,0,0,0,0,-1,1910,1604,0,0
693,-580,0,0,0,0,0,0,0,0,0,-1,1917,1604,0,0
700,-580,0,0,0,0,0,0,0,0,0,-1,1924,1604,0,0
707,-580,0,0,0,0,0,0,0,0,0,-1,1931,1604,0,0
714,-580,0,0,0,0,0,0,0,0,0,-1,1938,1604,0,0
721,-580,0,0,0,0,0,0,0,0,0,-1,1945,1604,0,0
728,-580,0,0,0,0,0,0,0,0,0,-1,1952,1604,0,0
735,-580,0,0,0,0,0,0,0,0,0,-1,1959,1604,0,0
742,-580,0,0,0,0,0,0,0,0,0,-1,1966,1604,0,0
749,-580,0,0,0,0,0,0,0,0,0,-1,1973,1604,0,0
756,-580,0,0,0,0,0,0,0,0,0,-1,1980,1604,0,0
763,-580,0,0,0,0,0,0,0,0,0,-1,1987,1604,0,0
770,-580,0,0,0,0,0,0,0,0,0,-1,1994,1604,0,0
777,-580,0,0,0,0,0,0,0,0,0,-1,2001,1604,0,0
784,-580,0,0,0,0,0,0,0,0,0,-1,2008,1604,0,0
791,-580,0,0,0,0,0,0,0,0,0,-1,2015,1604,0,0
798,-580,0,0,0,0,0,0,0,0,0,-1,2022,1604,0,0
805,-580,0,0,0,0,0,0,0,0,0,-1,2029,1604,0,0
812,-580,0,0,0,0,0,0,0,0,0,-1,2036,1604,0,0
-700,-587,0,0,0,0,0,0,0,0,0,-1,524,1611,0,0
-693,-587,0,0,0,0,0,0,0,0,0,-1,531,1611,0,0
-686,-587,0,0,0,0,0,0,0,0,0,-1,538,1611,0,0
-679,-587,0,0,0,0,0,0,0,0,0,-1,545,1611,0,0
-672,-587,0,0,0,0,0,0,0,0,0,-1,552,1611,0,0
-665,-587,0,0,0,0,0,0,0,0,0,-1,559,1611,0,0
-658,-587,0,0,0,0,0,0,0,0,0,-1,566,1611,0,0
-651,-587,0,0,0,0,0,0,0,0,0,-1,573,1611,0,0
-644,-587,0,0,0,0,0,0,0,0,0,-1,580,1611,0,0
-637,-587,0,0,0,0,0,0,0,0,0,-1,587,1611,0,0
-630,-587,0,0,0,0,0,0,0,0,0,-1,594,1611,0,0
-623,-587,0,0,0,0,0,0,0,0,0,-1,601,1611,0,0
-616,-587,0,0,0,0,0,0,0,0,0,-1,608,1611,0,0
-609,-587,0,0,0,0,0,0,0,0,0,-1,615,1611,0,0
-602,-587,0,0,0,0,0,0,0,0,0,-1,622,1611,0,0
-595,-587,0,0,0,0,0,0,0,0,0,-1,629,1611,0,0
-588,-587,0,0,0,0,0,0,0,0,0,-1,636,1611,0,0
-581,-587,0,0,0,0,0,0,0,0,0,-1,643,1611,0,0
-574,-587,0,0,0,0,0,0,0,0,0,-1,650,1611,0,0
-567,-587,0,0,0,0,0,0,0,0,0,-1,657,1611,0,0
-560,-587,0,0,0,0,0,0,0,0,0,-1,664,1611,0,0
-553,-587,0,0,0,0,0,0,0,0,0,-1,671,1611,0,0
-546,-587,0,0,0,0,0,0,0,0,0,-1,678,1611,0,0
-539,-587,0,0,0,0,0,0,0,0,0,-1,685,1611,0,0
-532,-587,0,0,0,0,0,0,0,0,0,-1,692,1611,0,0
-525,-587,0,0,0,0,0,0,0,0,0,-1,699,1611,0,0
-518,-587,0,0,0,0,0,0,0,0,0,-1,706,1611,0,0
-511,-587,0,0,0,0,0,0,0,0,0,-1,713,1611,0,0
-504,-587,0,0,0,0,0,0,0,0,0,-1,720,1611,0,0
-497,-587,0,0,0,0,0,0,0,0,0,-1,727,1611,0,0
-490,-587,0,0,0,0,0,0,0,0,0,-1,734,1611,0,0
-483,-587,0,0,0,0,0,0,0,0,0,-1,741,1611,0,0
-476,-587,0,0,0,0,0,0,0,0,0,-1,748,1611,0,0
-469,-587,0,0,0,0,0,0,0,0,0,-1,755,1611,0,0
-462,-587,-0.714355,-0.418457,0,0,0,0,0,0,0,-1,762,1611,-0.714359,0.418483
-455,-587,-0.619812,-0.522461,0,0,0,0,0,0,0,-1,769,1611,-0.619802,0.522515
-448,-587,-0.461731,-0.686523,0,0,0,0,0,0,0,-1,776,1611,-0.461739,0.686559
-441,-587,-3.56555,2.72253,0,0,0,0,0,0,0,-1,783,1611,-3.56555,-2.72259
-434,-587,-1.77319,4.76318,0,0,0,0,0,0,0,-1,790,1611,-1.77318,-4.76323
-427,-587,0.0346069,6.92944,0,0,0,0,0,0,0,-1,797,1611,0.034587,-6.92941
-420,-587,-0.647156,10.1157,0,0,0,0,0,0,0,-1,804,1611,-0.647128,-10.1158
-413,-587,2.13971,10.3901,0,0,0,0,0,0,0,-1,811,1611,2.13971,-10.3902
-406,-587,2.2525,19.7814,0,0,0,0,0,0,0,-1,818,1611,2.25253,-19.7814
-399,-587,-1.7851,36.6587,0,0,0,0,0,0,0,-1,825,1611,-1.78511,-36.6587
-392,-587,-17.8898,94.8955,0,0,0,0,0,0,0,-1,832,1611,-17.8898,-94.8955
-385,-587,-23.9987,118.991,0,0,0,0,0,0,0,-1,839,1611,-23.9987,-118.991
-378,-587,-24.2715,121.502,0.00281039,0.000101528,0.0035639,0.00526856,-0.00235664,0.603807,0.00450814,0.0237631,846,1611,-24.2715,-121.502
-371,-587,-24.6447,123.984,0.00273211,0.000215253,0.00292534,0.00465822,-0.00171085,0.582273,0.00380617,0.0171283,853,1611,-24.6446,-123.984
-364,-587,-25.0413,126.367,0.00263682,0.000378621,0.00253582,0.00428355,-0.00126811,0.575946,0.00335916,0.0249399,860,1611,-25.0413,-126.367
-357,-587,-25.4641,128.664,0.00254074,0.000583579,0.00213464,0.00391042,-0.000786101,0.570478,0.00290466,0.0218676,867,1611,-25.4641,-128.664
-350,-587,-25.917,131.09,0.00259009,0.000849554,0.00185456,0.00376842,-0.000328775,0.566021,0.00262874,0.0135969,874,1611,-25.917,-131.09
-343,-587,-26.3176,133.45,0.00282328,0.00099854,0.00162262,0.00377244,4.93746e-05,0.529286,0.00249867,0.0183332,881,1611,-26.3176,-133.45
-336,-587,-26.7039,135.815,0.00315027,0.00128282,0.00139704,0.0038969,0.000536202,0.490811,0.00243892,0.020707,888,1611,-26.7039,-135.815
-329,-587,-27.1204,138.233,0.00362841,0.00147776,0.00120654,0.00416927,0.000936904,0.421419,0.00252581,0.0222702,895,1611,-27.1204,-138.233
-322,-587,-27.5333,140.684,0.00434184,0.00171156,0.00109608,0.00473872,0.00131469,0.347398,0.0028248,0.0214536,902,1611,-27.5333,-140.684
-315,-587,-27.9601,143.004,0.00547892,0.00243376,0.00127808,0.00594424,0.00196844,0.349159,0.00349653,0.0185082,909,1611,-27.9602,-143.004
-308,-587,-28.3905,145.379,0.00678439,0.00298717,0.00142414,0.00725915,0.00251241,0.321781,0.00425673,0.0221107,916,1611,-28.3905,-145.379
-301,-587,-28.5342,147.866,0.00816924,0.00363815,0.00164657,0.00870439,0.003103,0.314239,0.00509402,0.0374664,923,1611,-28.5343,-147.866
-294,-587,-28.7107,150.213,0,0,0,0,0,0,0,-1,930,1611,-28.7107,-150.213
-287,-587,-6.83337,72.7224,0,0,0,0,0,0,0,-1,937,1611,-6.83338,-72.7224
-280,-587,-5.36652,67.5034,0,0,0,0,0,0,0,-1,944,1611,-5.36649,-67.5034
-273,-587,-5.27942,66.161,0,0,0,0,0,0,0,-1,951,1611,-5.27943,-66.161
-266,-587,-4.93909,64.3071,0,0,0,0,0,0,0,-1,958,1611,-4.93907,-64.3071
-259,-587,-4.64594,61.301,0,0,0,0,0,0,0,-1,965,1611,-4.64594,-61.301
-252,-587,1.30188,10.3103,0,0,0,0,0,0,0,-1,972,1611,1.30188,-10.3104
-245,-587,1.52075,27.4791,0,0,0,0,0,0,0,-1,979,1611,1.52076,-27.4791
-238,-587,-1.50494,61.2449,0,0,0,0,0,0,0,-1,986,1611,-1.50494,-61.2449
-231,-587,-2.15942,62.5487,0,0,0,0,0,0,0,-1,993,1611,-2.1594,-62.5488
-224,-587,-3.16583,63.6151,0,0,0,0,0,0,0,-1,1000,1611,-3.16585,-63.6151
-217,-587,-7.07495,10.7847,0,0,0,0,0,0,0,-1,1007,1611,-7.07495,-10.7847
-210,-587,-4.72308,12.5889,0,0,0,0,0,0,0,-1,1014,1611,-4.72307,-12.5888
-203,-587,-3.2583,13.7289,0,0,0,0,0,0,0,-1,1021,1611,-3.25828,-13.7289
-196,-587,-1.953,14.8145,0,0,0,0,0,0,0,-1,1028,1611,-1.95302,-14.8144
-189,-587,-3.04138,8.66638,0,0,0,0,0,0,0,-1,1035,1611,-3.04136,-8.66635
-182,-587,-3.97095,9.7146,0,0,0,0,0,0,0,-1,1042,1611,-3.97093,-9.71461
-175,-587,-4.80969,8.37878,0,0,0,0,0,0,0,-1,1049,1611,-4.80964,-8.37883
-168,-587,-5.91394,8.72546,0,0,0,0,0,0,0,-1,1056,1611,-5.91398,-8.72542
-161,-587,-7.06946,8.88501,0,0,0,0,0,0,0,-1,1063,1611,-7.06947,-8.885
-154,-587,-2.24731,6.56519,0,0,0,0,0,0,0,-1,1070,1611,-2.24728,-6.56517
-147,-587,0,0,0,0,0,0,0,0,0,-1,1077,1611,0,0
-140,-587,0,0,0,0,0,0,0,0,0,-1,1084,1611,0,0
-133,-587,0,0,0,0,0,0,0,0,0,-1,1091,1611,0,0
-126,-587,0,0,0,0,0,0,0,0,0,-1,1098,1611,0,0
-119,-587,0,0,0,0,0,0,0,0,0,-1,1105,1611,0,0
-112,-587,0,0,0,0,0,0,0,0,0,-1,1112,1611,0,0
-105,-587,0,0,0,0,0,0,0,0,0,-1,1119,1611,0,0
-98,-587,0,0,0,0,0,0,0,0,0,-1,1126,1611,0,0
-91,-587,0,0,0,0,0,0,0,0,0,-1,1133,1611,0,0
-84,-587,0,0,0,0,0,0,0,0,0,-1,1140,1611,0,0
-77,-587,0,0,0,0,0,0,0,0,0,-1,1147,1611,0,0
-70,-587,0,0,0,0,0,0,0,0,0,-1,1154,1611,0,0
-63,-587,0,0,0,0,0,0,0,0,0,-1,1161,1611,0,0
-56,-587,0,0,0,0,0,0,0,0,0,-1,1168,1611,0,0
-49,-587,0,0,0,0,0,0,0,0,0,-1,1175,1611,0,0
-42,-587,0,0,0,0,0,0,0,0,0,-1,1182,1611,0,0
-35,-587,0,0,0,0,0,0,0,0,0,-1,1189,1611,0,0
-28,-587,0,0,0,0,0,0,0,0,0,-1,1196,1611,0,0
-21,-587,0,0,0,0,0,0,0,0,0,-1,1203,1611,0,0
-14,-587,0,0,0,0,0,0,0,0,0,-1,1210,1611,0,0
-7,-587,0,0,0,0,0,0,0,0,0,-1,1217,1611,0,0
0,-587,0,0,0,0,0,0,0,0,0,-1,1224,1611,0,0
7,-587,0,0,0,0,0,0,0,0,0,-1,1231,1611,0,0
14,-587,0,0,0,0,0,0,0,0,0,-1,1238,1611,0,0
21,-587,0,0,0,0,0,0,0,0,0,-1,1245,1611,0,0
28,-587,0,0,0,0,0,0,0,0,0,-1,1252,1611,0,0
35,-587,0,0,0,0,0,0,0,0,0,-1,1259,1611,0,0
42,-587,0,0,0,0,0,0,0,0,0,-1,1266,1611,0,0
49,-587,0,0,0,0,0,0,0,0,0,-1,1273,1611,0,0
56,-587,0,0,0,0,0,0,0,0,0,-1,1280,1611,0,0
63,-587,0,0,0,0,0,0,0,0,0,-1,1287,1611,0,0
70,-587,0,0,0,0,0,0,0,0,0,-1,1294,1611,0,0
77,-587,0,0,0,0,0,0,0,0,0,-1,1301,1611,0,0
84,-587,0,0,0,0,0,0,0,0,0,-1,1308,1611,0,0
91,-587,0,0,0,0,0,0,0,0,0,-1,1315,1611,0,0
98,-587,0,0,0,0,0,0,0,0,0,-1,1322,1611,0,0
105,-587,0,0,0,0,0,0,0,0,0,-1,1329,1611,0,0
112,-587,0,0,0,0,0,0,0,0,0,-1,1336,1611,0,0
119,-587,0,0,0,0,0,0,0,0,0,-1,1343,1611,0,0
126,-587,0,0,0,0,0,0,0,0,0,-1,1350,1611,0,0
133,-587,0,0,0,0,0,0,0,0,0,-1,1357,1611,0,0
140,-587,0,0,0,0,0,0,0,0,0,-1,1364,1611,0,0
147,-587,0,0,0,0,0,0,0,0,0,-1,1371,1611,0,0
154,-587,0,0,0,0,0,0,0,0,0,-1,1378,1611,0,0
161,-587,0,0,0,0,0,0,0,0,0,-1,1385,1611,0,0
168,-587,0,0,0,0,0,0,0,0,0,-1,1392,1611,0,0
175,-587,0,0,0,0,0,0,0,0,0,-1,1399,1611,0,0
182,-587,0,0,0,0,0,0,0,0,0,-1,1406,1611,0,0
189,-587,0,0,0,0,0,0,0,0,0,-1,1413,1611,0,0
196,-587,0,0,0,0,0,0,0,0,0,-1,1420,1611,0,0
203,-587,0,0,0,0,0,0,0,0,0,-1,1427,1611,0,0
210,-587,0,0,0,0,0,0,0,0,0,-1,1434,1611,0,0
217,-587,0,0,0,0,0,0,0,0,0,-1,1441,1611,0,0
224,-587,0,0,0,0,0,0,0,0,0,-1,1448,1611,0,0
231,-587,0,0,0,0,0,0,0,0,0,-1,1455,1611,0,0
238,-587,0,0,0,0,0,0,0,0,0,-1,1462,1611,0,0
245,-587,0,0,0,0,0,0,0,0,0,-1,1469,1611,0,0
252,-587,0,0,0,0,0,0,0,0,0,-1,1476,1611,0,0
259,-587,0,0,0,0,0,0,0,0,0,-1,1483,1611,0,0
266,-587,0,0,0,0,0,0,0,0,0,-1,1490,1611,0,0
273,-587,10.2936,6.35083,0,0,0,0,0,0,0,-1,1497,1611,10.2936,-6.35087
280,-587,2.09204,1.1217,0,0,0,0,0,0,0,-1,1504,1611,2.092,-1.12176
287,-587,3.2865,0.671509,0,0,0,0,0,0,0,-1,1511,1611,3.28656,-0.671538
294,-587,4.24646,1.58765,0,0,0,0,0,0,0,-1,1518,1611,4.24648,-1.58761
301,-587,7.60474,8.37085,0,0,0,0,0,0,0,-1,1525,1611,7.60478,-8.37084
308,-587,5.99316,10.2291,0,0,0,0,0,0,0,-1,1532,1611,5.99315,-10.2291
315,-587,4.34558,12.3289,0,0,0,0,0,0,0,-1,1539,1611,4.34556,-12.3288
322,-587,10.4526,6.38245,0,0,0,0,0,0,0,-1,1546,1611,10.4526,-6.38245
329,-587,10.7738,8.42444,0,0,0,0,0,0,0,-1,1553,1611,10.7738,-8.42438
336,-587,7.5531,5.96619,0,0,0,0,0,0,0,-1,1560,1611,7.55311,-5.96617
343,-587,20.0991,54.4835,0,0,0,0,0,0,0,-1,1567,1611,20.0991,-54.4835
350,-587,21.0448,56.5502,0,0,0,0,0,0,0,-1,1574,1611,21.0448,-56.5501
357,-587,26.1832,62.3915,0,0,0,0,0,0,0,-1,1581,1611,26.1832,-62.3915
364,-587,20.2296,58.4607,0,0,0,0,0,0,0,-1,1588,1611,20.2296,-58.4607
371,-587,22.5784,60.5015,0,0,0,0,0,0,0,-1,1595,1611,22.5784,-60.5014
378,-587,22.5558,66.4056,0,0,0,0,0,0,0,-1,1602,1611,22.5558,-66.4056
385,-587,22.582,66.9934,0,0,0,0,0,0,0,-1,1609,1611,22.582,-66.9934
392,-587,25.6912,75.1815,0,0,0,0,0,0,0,-1,1616,1611,25.6912,-75.1815
399,-587,28.3593,100.695,0,0,0,0,0,0,0,-1,1623,1611,28.3593,-100.695
406,-587,28.3816,99.4526,0,0,0,0,0,0,0,-1,1630,1611,28.3816,-99.4527
413,-587,28.9996,101.258,0,0,0,0,0,0,0,-1,1637,1611,28.9997,-101.258
420,-587,34.3275,147.889,0,0,0,0,0,0,0,-1,1644,1611,34.3275,-147.889
427,-587,34.7351,150.879,0,0,0,0,0,0,0,-1,1651,1611,34.7351,-150.879
434,-587,34.3744,148.316,0,0,0,0,0,0,0,-1,1658,1611,34.3744,-148.316
441,-587,33.9772,145.773,0,0,0,0,0,0,0,-1,1665,1611,33.9771,-145.773
448,-587,33.7196,143.287,0.00582593,0.00442606,-0.0018,0.0070573,0.0031947,-0.599968,0.00408061,0.0241904,1672,1611,33.7196,-143.287
455,-587,33.3607,140.923,0.00484296,0.00311935,-0.00150396,0.00571453,0.00224777,-0.525224,0.00332421,0.0206237,1679,1611,33.3608,-140.923
462,-587,32.9636,138.553,0.0039996,0.00204928,-0.00131181,0.004659,0.00138988,-0.465777,0.00276185,0.023442,1686,1611,32.9636,-138.553
469,-587,32.5571,136.21,0.0031327,0.000990398,-0.00103784,0.00355302,0.000570082,-0.384802,0.00220337,0.019588,1693,1611,32.5572,-136.21
476,-587,32.114,133.861,0.00240642,0.000334659,-0.000975551,0.00279347,-5.2397e-05,-0.377707,0.00188003,0.0142173,1700,1611,32.114,-133.861
483,-587,31.6804,131.493,0.00189054,-0.000299815,-0.000948973,0.00224448,-0.000653763,-0.356999,0.00175531,0.0180582,1707,1611,31.6804,-131.493
490,-587,31.2765,129.099,0.0014281,-0.000646473,-0.00100385,0.00183431,-0.00105268,-0.384508,0.00168704,0.023165,1714,1611,31.2764,-129.099
497,-587,30.891,126.697,0.000963273,-0.00105508,-0.00105937,0.00141721,-0.00150901,-0.40483,0.00168973,0.0193411,1721,1611,30.891,-126.697
504,-587,30.467,124.373,0.000715138,-0.0014195,-0.00123349,0.00127898,-0.00198334,-0.428748,0.00189807,0.0161506,1728,1611,30.467,-124.373
511,-587,30.0216,121.988,0.000588345,-0.00177128,-0.00143513,0.00126637,-0.0024493,-0.441364,0.00218118,0.0203873,1735,1611,30.0217,-121.988
518,-587,29.6509,119.551,0.000564005,-0.00211713,-0.00166424,0.00136045,-0.00291357,-0.446351,0.00252133,0.035562,1742,1611,29.6509,-119.551
525,-587,29.2633,117.02,0,0,0,0,0,0,0,-1,1749,1611,29.2633,-117.02
532,-587,25.6605,64.9603,0,0,0,0,0,0,0,-1,1756,1611,25.6606,-64.9604
539,-587,24.8812,57.923,0,0,0,0,0,0,0,-1,1763,1611,24.8812,-57.923
546,-587,24.2523,48.2316,0,0,0,0,0,0,0,-1,1770,1611,24.2523,-48.2315
553,-587,20.7854,42.3828,0,0,0,0,0,0,0,-1,1777,1611,20.7854,-42.3828
560,-587,20.7347,41.9242,0,0,0,0,0,0,0,-1,1784,1611,20.7347,-41.9241
567,-587,4.03711,5.46387,0,0,0,0,0,0,0,-1,1791,1611,4.03715,-5.46382
574,-587,3.83142,5.68884,0,0,0,0,0,0,0,-1,1798,1611,3.83141,-5.68881
581,-587,3.47168,6.00977,0,0,0,0,0,0,0,-1,1805,1611,3.47167,-6.00983
588,-587,0,0,0,0,0,0,0,0,0,-1,1812,1611,0,0
595,-587,0,0,0,0,0,0,0,0,0,-1,1819,1611,0,0
602,-587,0,0,0,0,0,0,0,0,0,-1,1826,1611,0,0
609,-587,0,0,0,0,0,0,0,0,0,-1,1833,1611,0,0
616,-587,0,0,0,0,0,0,0,0,0,-1,1840,1611,0,0
623,-587,0,0,0,0,0,0,0,0,0,-1,1847,1611,0,0
630,-587,0,0,0,0,0,0,0,0,0,-1,1854,1611,0,0
637,-587,0,0,0,0,0,0,0,0,0,-1,1861,1611,0,0
644,-587,0,0,0,0,0,0,0,0,0,-1,1868,1611,0,0
651,-587,0,0,0,0,0,0,0,0,0,-1,1875,1611,0,0
658,-587,0,0,0,0,0,0,0,0,0,-1,1882,1611,0,0
665,-587,0,0,0,0,0,0,0,0,0,-1,1889,1611,0,0
672,-587,0,0,0,0,0,0,0,0,0,-1,1896,1611,0,0
679,-587,0,0,0,0,0,0,0,0,0,-1,1903,1611,0,0
686,-587,0,0,0,0,0,0,0,0,0,-1,1910,1611,0,0
693,-587,0,0,0,0,0,0,0,0,0,-1,1917,1611,0,0
700,-587,0,0,0,0,0,0,0,0,0,-1,1924,1611,0,0
707,-587,0,0,0,0,0,0,0,0,0,-1,1931,1611,0,0
714,-587,0,0,0,0,0,0,0,0,0,-1,1938,1611,0,0
721,-587,0,0,0,0,0,0,0,0,0,-1,1945,1611,0,0
728,-587,0,0,0,0,0,0,0,0,0,-1,1952,1611,0,0
735,-587,0,0,0,0,0,0,0,0,0,-1,1959,1611,0,0
742,-587,0,0,0,0,0,0,0,0,0,-1,1966,1611,0,0
749,-587,0,0,0,0,0,0,0,0,0,-1,1973,1611,0,0
756,-587,0,0,0,0,0,0,0,0,0,-1,1980,1611,0,0
763,-587,0,0,0,0,0,0,0,0,0,-1,1987,1611,0,0
770,-587,0,0,0,0,0,0,0,0,0,-1,1994,1611,0,0
777,-587,0,0,0,0,0,0,0,0,0,-1,2001,1611,0,0
784,-587,0,0,0,0,0,0,0,0,0,-1,2008,1611,0,0
791,-587,0,0,0,0,0,0,0,0,0,-1,2015,1611,0,0
798,-587,0,0,0,0,0,0,0,0,0,-1,2022,1611,0,0
805,-587,0,0,0,0,0,0,0,0,0,-1,2029,1611,0,0
812,-587,0,0,0,0,0,0,0,0,0,-1,2036,1611,0,0
-700,-594,0,0,0,0,0,0,0,0,0,-1,524,1618,0,0
-693,-594,0,0,0,0,0,0,0,0,0,-1,531,1618,0,0
-686,-594,0,0,0,0,0,0,0,0,0,-1,538,1618,0,0
-679,-594,0,0,0,0,0,0,0,0,0,-1,545,1618,0,0
-672,-594,0,0,0,0,0,0,0,0,0,-1,552,1618,0,0
-665,-594,0,0,0,0,0,0,0,0,0,-1,559,1618,0,0
-658,-594,0,0,0,0,0,0,0,0,0,-1,566,1618,0,0
-651,-594,0,0,0,0,0,0,0,0,0,-1,573,1618,0,0
-644,-594,0,0,0,0,0,0,0,0,0,-1,580,1618,0,0
-637,-594,0,0,0,0,0,0,0,0,0,-1,587,1618,0,0
-630,-594,0,0,0,0,0,0,0,0,0,-1,594,1618,0,0
-623,-594,0,0,0,0,0,0,0,0,0,-1,601,1618,0,0
-616,-594,0,0,0,0,0,0,0,0,0,-1,608,1618,0,0
-609,-594,0,0,0,0,0,0,0,0,0,-1,615,1618,0,0
-602,-594,0,0,0,0,0,0,0,0,0,-1,622,1618,0,0
-595,-594,0,0,0,0,0,0,0,0,0,-1,629,1618,0,0
-588,-594,0,0,0,0,0,0,0,0,0,-1,636,1618,0,0
-581,-594,0,0,0,0,0,0,0,0,0,-1,643,1618,0,0
-574,-594,0,0,0,0,0,0,0,0,0,-1,650,1618,0,0
-567,-594,0,0,0,0,0,0,0,0,0,-1,657,1618,0,0
-560,-594,0,0,0,0,0,0,0,0,0,-1,664,1618,0,0
-553,-594,0,0,0,0,0,0,0,0,0,-1,671,1618,0,0
-546,-594,0,0,0,0,0,0,0,0,0,-1,678,1618,0,0
-539,-594,0,0,0,0,0,0,0,0,0,-1,685,1618,0,0
-532,-594,0,0,0,0,0,0,0,0,0,-1,692,1618,0,0
-525,-594,0,0,0,0,0,0,0,0,0,-1,699,1618,0,0
-518,-594,0,0,0,0,0,0,0,0,0,-1,706,1618,0,0
-511,-594,0,0,0,0,0,0,0,0,0,-1,713,1618,0,0
-504,-594,0,0,0,0,0,0,0,0,0,-1,720,1618,0,0
-497,-594,0,0,0,0,0,0,0,0,0,-1,727,1618,0,0
-490,-594,0,0,0,0,0,0,0,0,0,-1,734,1618,0,0
-483,-594,0,0,0,0,0,0,0,0,0,-1,741,1618,0,0
-476,-594,0,0,0,0,0,0,0,0,0,-1,748,1618,0,0
-469,-594,0,0,0,0,0,0,0,0,0,-1,755,1618,0,0
-462,-594,0,0,0,0,0,0,0,0,0,-1,762,1618,0,0
-455,-594,-0.509216,-1.58411,0,0,0,0,0,0,0,-1,769,1618,-0.509245,1.58415
-448,-594,-7.71887,-0.0559082,0,0,0,0,0,0,0,-1,776,1618,-7.71885,0.055939
-441,-594,-5.78473,1.18298,0,0,0,0,0,0,0,-1,783,1618,-5.78474,-1.18295
-434,-594,-3.93628,3.06213,0,0,0,0,0,0,0,-1,790,1618,-3.93631,-3.06208
-427,-594,-3.97693,6.77759,0,0,0,0,0,0,0,-1,797,1618,-3.97695,-6.77764
-420,-594,-2.53046,7.71606,0,0,0,0,0,0,0,-1,804,1618,-2.53047,-7.71609
-413,-594,-0.860413,8.00391,0,0,0,0,0,0,0,-1,811,1618,-0.860423,-8.00389
-406,-594,2.45746,13.6218,0,0,0,0,0,0,0,-1,818,1618,2.45747,-13.6218
-399,-594,1.30414,24.9963,0,0,0,0,0,0,0,-1,825,1618,1.30415,-24.9963
-392,-594,-0.504883,35.921,0,0,0,0,0,0,0,-1,832,1618,-0.50491,-35.921
-385,-594,-10.3674,76.0038,0,0,0,0,0,0,0,-1,839,1618,-10.3675,-76.0038
-378,-594,-22.0209,121.6,0,0,0,0,0,0,0,-1,846,1618,-22.021,-121.6
-371,-594,-22.3301,124.359,0.00326602,0.000392698,0.00405942,0.0061355,-0.00247678,0.615322,0.00511969,0.0364544,853,1618,-22.3301,-124.359
-364,-594,-22.6841,126.798,0.00302903,0.000545086,0.00358049,0.00557683,-0.00200272,0.618455,0.00453533,0.0138854,860,1618,-22.6842,-126.798
-357,-594,-23.1278,129.211,0.00270752,0.000703174,0.00307311,0.00493774,-0.00152705,0.627781,0.00390176,0.0124861,867,1618,-23.1278,-129.211
-350,-594,-23.5532,131.538,0.00245078,0.000849357,0.00261703,0.00438686,-0.00108672,0.636939,0.00334616,0.0202396,874,1618,-23.5531,-131.538
-343,-594,-23.9321,133.83,0.00249506,0.000927792,0.00224498,0.00408924,-0.000666395,0.61748,0.00297329,0.0296112,881,1618,-23.932,-133.83
-336,-594,-24.3629,136.202,0.00269144,0.00107665,0.00189813,0.00394676,-0.000178668,0.584309,0.00269271,0.0274525,888,1618,-24.3629,-136.202
-329,-594,-24.793,138.648,0.00303211,0.00114065,0.00158158,0.00392915,0.000243609,0.515937,0.00254213,0.0237919,895,1618,-24.793,-138.648
-322,-594,-25.1589,141.132,0.00357837,0.00119831,0.00131578,0.00416244,0.000614234,0.417769,0.00259456,0.0209093,902,1618,-25.1588,-141.132
-315,-594,-25.5551,143.437,0.00451482,0.00166048,0.0013026,0.00501989,0.00115541,0.369898,0.00303566,0.0206234,909,1618,-25.5551,-143.437
-308,-594,-25.9442,145.766,0.00568503,0.00200413,0.00130361,0.00609995,0.00158922,0.308141,0.00365397,0.0178195,916,1618,-25.9442,-145.766
-301,-594,-26.3539,148.101,0.00689054,0.00242079,0.00134305,0.00726304,0.00204828,0.270558,0.00432412,0.0153547,923,1618,-26.3539,-148.101
-294,-594,-26.6063,150.451,0.00833368,0.00303083,0.00150653,0.00873179,0.00263272,0.258353,0.00517202,0.032645,930,1618,-26.6062,-150.451
-287,-594,-26.8828,152.792,0,0,0,0,0,0,0,-1,937,1618,-26.8828,-152.792
-280,-594,-26.5746,151.363,0,0,0,0,0,0,0,-1,944,1618,-26.5747,-151.363
-273,-594,-7.12677,80.9253,0,0,0,0,0,0,0,-1,951,1618,-7.12675,-80.9253
-266,-594,-6.24011,77.041,0,0,0,0,0,0,0,-1,958,1618,-6.24012,-77.041
-259,-594,-5.43719,73.2439,0,0,0,0,0,0,0,-1,965,1618,-5.43718,-73.2438
-252,-594,-3.87189,67.4364,0,0,0,0,0,0,0,-1,972,1618,-3.87187,-67.4365
-245,-594,-4.10248,71.0682,0,0,0,0,0,0,0,-1,979,1618,-4.10248,-71.0683
-238,-594,-3.80469,71.3663,0,0,0,0,0,0,0,-1,986,1618,-3.80466,-71.3663
-231,-594,-2.14069,63.0621,0,0,0,0,0,0,0,-1,993,1618,-2.14071,-63.0621
-224,-594,-3.09943,64.4106,0,0,0,0,0,0,0,-1,1000,1618,-3.09942,-64.4107
-217,-594,-3.96979,66.0715,0,0,0,0,0,0,0,-1,1007,1618,-3.96979,-66.0715
-210,-594,-5.61438,14.2119,0,0,0,0,0,0,0,-1,1014,1618,-5.6144,-14.212
-203,-594,-3.94507,15.5768,0,0,0,0,0,0,0,-1,1021,1618,-3.94506,-15.5768
-196,-594,2.78613,10.5815,0,0,0,0,0,0,0,-1,1028,1618,2.78612,-10.5815
-189,-594,2.60913,9.48865,0,0,0,0,0,0,0,-1,1035,1618,2.6091,-9.48871
-182,-594,1.2395,9.38806,0,0,0,0,0,0,0,-1,1042,1618,1.23951,-9.38804
-175,-594,0.234863,8.73792,0,0,0,0,0,0,0,-1,1049,1618,0.234812,-8.73786
-168,-594,-0.495483,8.46289,0,0,0,0,0,0,0,-1,1056,1618,-0.495513,-8.46285
-161,-594,-1.39734,8.28699,0,0,0,0,0,0,0,-1,1063,1618,-1.39729,-8.28699
-154,-594,-0.000854492,7.68445,0,0,0,0,0,0,0,-1,1070,1618,-0.000805755,-7.6845
-147,-594,0.348267,9.3385,0,0,0,0,0,0,0,-1,1077,1618,0.348237,-9.33849
-140,-594,0.675171,11.5884,0,0,0,0,0,0,0,-1,1084,1618,0.675204,-11.5884
-133,-594,0,0,0,0,0,0,0,0,0,-1,1091,1618,0,0
-126,-594,0,0,0,0,0,0,0,0,0,-1,1098,1618,0,0
-119,-594,0,0,0,0,0,0,0,0,0,-1,1105,1618,0,0
-112,-594,0,0,0,0,0,0,0,0,0,-1,1112,1618,0,0
-105,-594,0,0,0,0,0,0,0,0,0,-1,1119,1618,0,0
-98,-594,0,0,0,0,0,0,0,0,0,-1,1126,1618,0,0
-91,-594,0,0,0,0,0,0,0,0,0,-1,1133,1618,0,0
-84,-594,0,0,0,0,0,0,0,0,0,-1,1140,1618,0,0
-77,-594,0,0,0,0,0,0,0,0,0,-1,1147,1618,0,0
-70,-594,0,0,0,0,0,0,0,0,0,-1,1154,1618,0,0
-63,-594,0,0,0,0,0,0,0,0,0,-1,1161,1618,0,0
-56,-594,0,0,0,0,0,0,0,0,0,-1,1168,1618,0,0
-49,-594,0,0,0,0,0,0,0,0,0,-1,1175,1618,0,0
-42,-594,0,0,0,0,0,0,0,0,0,-1,1182,1618,0,0
-35,-594,0,0,0,0,0,0,0,0,0,-1,1189,1618,0,0
-28,-594,0,0,0,0,0,0,0,0,0,-1,1196,1618,0,0
-21,-594,0,0,0,0,0,0,0,0,0,-1,1203,1618,0,0
-14,-594,0,0,0,0,0,0,0,0,0,-1,1210,1618,0,0
-7,-594,0,0,0,0,0,0,0,0,0,-1,1217,1618,0,0
0,-594,0,0,0,0,0,0,0,0,0,-1,1224,1618,0,0
7,-594,0,0,0,0,0,0,0,0,0,-1,1231,1618,0,0
14,-594,0,0,0,0,0,0,0,0,0,-1,1238,1618,0,0
21,-594,0,0,0,0,0,0,0,0,0,-1,1245,1618,0,0
28,-594,0,0,0,0,0,0,0,0,0,-1,1252,1618,0,0
35,-594,0,0,0,0,0,0,0,0,0,-1,1259,1618,0,0
42,-594,0,0,0,0,0,0,0,0,0,-1,1266,1618,0,0
49,-594,0,0,0,0,0,0,0,0,0,-1,1273,1618,0,0
56,-594,0,0,0,0,0,0,0,0,0,-1,1280,1618,0,0
63,-594,0,0,0,0,0,0,0,0,0,-1,1287,1618,0,0
70,-594,0,0,0,0,0,0,0,0,0,-1,1294,1618,0,0
77,-594,0,0,0,0,0,0,0,0,0,-1,1301,1618,0,0
84,-594,0,0,0,0,0,0,0,0,0,-1,1308,1618,0,0
91,-594,0,0,0,0,0,0,0,0,0,-1,1315,1618,0,0
98,-594,0,0,0,0,0,0,0,0,0,-1,1322,1618,0,0
105,-594,0,0,0,0,0,0,0,0,0,-1,1329,1618,0,0
112,-594,0,0,0,0,0,0,0,0,0,-1,1336,1618,0,0
119,-594,0,0,0,0,0,0,0,0,0,-1,1343,1618,0,0
126,-594,0,0,0,0,0,0,0,0,0,-1,1350,1618,0,0
133,-594,0,0,0,0,0,0,0,0,0,-1,1357,1618,0,0
140,-594,0,0,0,0,0,0,0,0,0,-1,1364,1618,0,0
147,-594,0,0,0,0,0,0,0,0,0,-1,1371,1618,0,0
154,-594,0,0,0,0,0,0,0,0,0,-1,1378,1618,0,0
161,-594,0,0,0,0,0,0,0,0,0,-1,1385,1618,0,0
168,-594,0,0,0,0,0,0,0,0,0,-1,1392,1618,0,0
175,-594,0,0,0,0,0,0,0,0,0,-1,1399,1618,0,0
182,-594,0,0,0,0,0,0,0,0,0,-1,1406,1618,0,0
189,-594,0,0,0,0,0,0,0,0,0,-1,1413,1618,0,0
196,-594,0,0,0,0,0,0,0,0,0,-1,1420,1618,0,0
203,-594,0,0,0,0,0,0,0,0,0,-1,1427,1618,0,0
210,-594,0,0,0,0,0,0,0,0,0,-1,1434,1618,0,0
217,-594,0,0,0,0,0,0,0,0,0,-1,1441,1618,0,0
224,-594,0,0,0,0,0,0,0,0,0,-1,1448,1618,0,0
231,-594,0,0,0,0,0,0,0,0,0,-1,1455,1618,0,0
238,-594,0,0,0,0,0,0,0,0,0,-1,1462,1618,0,0
245,-594,0,0,0,0,0,0,0,0,0,-1,1469,1618,0,0
252,-594,3.03674,1.20996,0,0,0,0,0,0,0,-1,1476,1618,3.0368,-1.20999
259,-594,4.79834,1.53113,0,0,0,0,0,0,0,-1,1483,1618,4.79837,-1.53118
266,-594,3.71606,2.68152,0,0,0,0,0,0,0,-1,1490,1618,3.71609,-2.68149
273,-594,9.7655,6.33557,0,0,0,0,0,0,0,-1,1497,1618,9.76555,-6.33554
280,-594,3.13281,0.911255,0,0,0,0,0,0,0,-1,1504,1618,3.13277,-0.911207
287,-594,4.42749,1.51563,0,0,0,0,0,0,0,-1,1511,1618,4.42747,-1.51564
294,-594,5.36475,3.34937,0,0,0,0,0,0,0,-1,1518,1618,5.36475,-3.3494
301,-594,7.97144,9.04333,0,0,0,0,0,0,0,-1,1525,1618,7.9714,-9.04328
308,-594,6.30347,10.4633,0,0,0,0,0,0,0,-1,1532,1618,6.30351,-10.4633
315,-594,4.62012,11.934,0,0,0,0,0,0,0,-1,1539,1618,4.62006,-11.934
322,-594,2.91528,13.3134,0,0,0,0,0,0,0,-1,1546,1618,2.91523,-13.3133
329,-594,4.19861,9.77258,0,0,0,0,0,0,0,-1,1553,1618,4.19865,-9.77264
336,-594,10.1353,4.66528,0,0,0,0,0,0,0,-1,1560,1618,10.1353,-4.66533
343,-594,18.0483,57.3796,0,0,0,0,0,0,0,-1,1567,1618,18.0484,-57.3796
350,-594,24.8807,64.2565,0,0,0,0,0,0,0,-1,1574,1618,24.8807,-64.2565
357,-594,24.1903,62.9299,0,0,0,0,0,0,0,-1,1581,1618,24.1903,-62.93
364,-594,20.7518,62.6091,0,0,0,0,0,0,0,-1,1588,1618,20.7519,-62.6092
371,-594,22.4775,64.7457,0,0,0,0,0,0,0,-1,1595,1618,22.4775,-64.7457
378,-594,22.6462,69.2249,0,0,0,0,0,0,0,-1,1602,1618,22.6462,-69.2248
385,-594,25.8207,82.2562,0,0,0,0,0,0,0,-1,1609,1618,25.8207,-82.2562
392,-594,26.0084,90.6113,0,0,0,0,0,0,0,-1,1616,1618,26.0085,-90.6113
399,-594,29.077,116.162,0,0,0,0,0,0,0,-1,1623,1618,29.077,-116.162
406,-594,32.7993,154.188,0,0,0,0,0,0,0,-1,1630,1618,32.7993,-154.188
413,-594,32.8428,156.137,0,0,0,0,0,0,0,-1,1637,1618,32.8427,-156.137
420,-594,32.7172,153.348,0,0,0,0,0,0,0,-1,1644,1618,32.7171,-153.348
427,-594,32.5519,150.924,0.00782322,0.00797851,-0.00271745,0.0106194,0.00518231,-0.799681,0.00613171,0.0319308,1651,1618,32.5519,-150.924
434,-594,32.1082,148.527,0.00656665,0.00605447,-0.00213191,0.00845779,0.00416333,-0.725623,0.0048833,0.0331167,1658,1618,32.1081,-148.527
441,-594,31.6757,146.113,0.00561662,0.0043158,-0.00172329,0.00680815,0.00312427,-0.604952,0.00393511,0.0266272,1665,1618,31.6756,-146.113
448,-594,31.3442,143.711,0.00476752,0.00313143,-0.00149075,0.00564992,0.00224902,-0.534458,0.00328451,0.0263269,1672,1618,31.3443,-143.711
455,-594,30.9443,141.34,0.0038738,0.00206461,-0.0013158,0.00456596,0.00137245,-0.484258,0.00270514,0.0181054,1679,1618,30.9444,-141.34
462,-594,30.6117,138.934,0.00308603,0.00112801,-0.00119652,0.00365302,0.000561012,-0.442524,0.00227155,0.0176226,1686,1618,30.6117,-138.934
469,-594,30.2041,136.635,0.0023271,0.000218041,-0.00103394,0.00274942,-0.000204273,-0.38777,0.00190469,0.0162887,1693,1618,30.2041,-136.636
476,-594,29.7987,134.282,0.00169507,-0.000408011,-0.00101979,0.00210835,-0.000821291,-0.385035,0.00174499,0.0180977,1700,1618,29.7987,-134.283
483,-594,29.3319,131.88,0.00122877,-0.000929545,-0.0010599,0.00166221,-0.00136299,-0.388197,0.00174944,0.0213917,1707,1618,29.3319,-131.88
490,-594,28.9574,129.506,0.00080233,-0.00123565,-0.00117088,0.00133553,-0.00176885,-0.427324,0.00179813,0.0201518,1714,1618,28.9574,-129.506
497,-594,28.546,127.139,0.000385412,-0.00169043,-0.00126358,0.000982699,-0.00228772,-0.441566,0.00193764,0.0160794,1721,1618,28.5461,-127.139
504,-594,28.1367,124.754,0.000198398,-0.00222631,-0.00143788,0.000866812,-0.00289472,-0.435144,0.00227449,0.0186359,1728,1618,28.1367,-124.754
511,-594,27.6102,122.457,0,0,0,0,0,0,0,-1,1735,1618,27.6103,-122.457
518,-594,27.1553,119.747,0,0,0,0,0,0,0,-1,1742,1618,27.1553,-119.747
525,-594,22.6301,74.267,0,0,0,0,0,0,0,-1,1749,1618,22.6301,-74.267
532,-594,23.9922,59.0367,0,0,0,0,0,0,0,-1,1756,1618,23.9921,-59.0367
539,-594,22.6456,47.21,0,0,0,0,0,0,0,-1,1763,1618,22.6457,-47.2099
546,-594,7.48645,8.54785,0,0,0,0,0,0,0,-1,1770,1618,7.48639,-8.54789
553,-594,3.69714,5.68762,0,0,0,0,0,0,0,-1,1777,1618,3.69715,-5.68764
560,-594,6.06616,4.44482,0,0,0,0,0,0,0,-1,1784,1618,6.06621,-4.44477
567,-594,5.97266,4.73303,0,0,0,0,0,0,0,-1,1791,1618,5.97271,-4.73309
574,-594,5.9906,4.96326,0,0,0,0,0,0,0,-1,1798,1618,5.99065,-4.96326
581,-594,0,0,0,0,0,0,0,0,0,-1,1805,1618,0,0
588,-594,0,0,0,0,0,0,0,0,0,-1,1812,1618,0,0
595,-594,0,0,0,0,0,0,0,0,0,-1,1819,1618,0,0
602,-594,0,0,0,0,0,0,0,0,0,-1,1826,1618,0,0
609,-594,0,0,0,0,0,0,0,0,0,-1,1833,1618,0,0
616,-594,0,0,0,0,0,0,0,0,0,-1,1840,1618,0,0
623,-594,0,0,0,0,0,0,0,0,0,-1,1847,1618,0,0
630,-594,0,0,0,0,0,0,0,0,0,-1,1854,1618,0,0
637,-594,0,0,0,0,0,0,0,0,0,-1,1861,1618,0,0
644,-594,0,0,0,0,0,0,0,0,0,-1,1868,1618,0,0
651,-594,0,0,0,0,0,0,0,0,0,-1,1875,1618,0,0
658,-594,0,0,0,0,0,0,0,0,0,-1,1882,1618,0,0
665,-594,0,0,0,0,0,0,0,0,0,-1,1889,1618,0,0
672,-594,0,0,0,0,0,0,0,0,0,-1,1896,1618,0,0
679,-594,0,0,0,0,0,0,0,0,0,-1,1903,1618,0,0
686,-594,0,0,0,0,0,0,0,0,0,-1,1910,1618,0,0
693,-594,0,0,0,0,0,0,0,0,0,-1,1917,1618,0,0
700,-594,0,0,0,0,0,0,0,0,0,-1,1924,1618,0,0
707,-594,0,0,0,0,0,0,0,0,0,-1,1931,1618,0,0
714,-594,0,0,0,0,0,0,0,0,0,-1,1938,1618,0,0
721,-594,0,0,0,0,0,0,0,0,0,-1,1945,1618,0,0
728,-594,0,0,0,0,0,0,0,0,0,-1,1952,1618,0,0
735,-594,0,0,0,0,0,0,0,0,0,-1,1959,1618,0,0
742,-594,0,0,0,0,0,0,0,0,0,-1,1966,1618,0,0
749,-594,0,0,0,0,0,0,0,0,0,-1,1973,1618,0,0
756,-594,0,0,0,0,0,0,0,0,0,-1,1980,1618,0,0
763,-594,0,0,0,0,0,0,0,0,0,-1,1987,1618,0,0
770,-594,0,0,0,0,0,0,0,0,0,-1,1994,1618,0,0
777,-594,0,0,0,0,0,0,0,0,0,-1,2001,1618,0,0
784,-594,0,0,0,0,0,0,0,0,0,-1,2008,1618,0,0
791,-594,0,0,0,0,0,0,0,0,0,-1,2015,1618,0,0
798,-594,0,0,0,0,0,0,0,0,0,-1,2022,1618,0,0
805,-594,0,0,0,0,0,0,0,0,0,-1,2029,1618,0,0
812,-594,0,0,0,0,0,0,0,0,0,-1,2036,1618,0,0
-700,-601,0,0,0,0,0,0,0,0,0,-1,524,1625,0,0
-693,-601,0,0,0,0,0,0,0,0,0,-1,531,1625,0,0
-686,-601,0,0,0,0,0,0,0,0,0,-1,538,1625,0,0
-679,-601,0,0,0,0,0,0,0,0,0,-1,545,1625,0,0
-672,-601,0,0,0,0,0,0,0,0,0,-1,552,1625,0,0
-665,-601,0,0,0,0,0,0,0,0,0,-1,559,1625,0,0
-658,-601,0,0,0,0,0,0,0,0,0,-1,566,1625,0,0
-651,-601,0,0,0,0,0,0,0,0,0,-1,573,1625,0,0
-644,-601,0,0,0,0,0,0,0,0,0,-1,580,1625,0,0
-637,-601,0,0,0,0,0,0,0,0,0,-1,587,1625,0,0
-630,-601,0,0,0,0,0,0,0,0,0,-1,594,1625,0,0
-623,-601,0,0,0,0,0,0,0,0,0,-1,601,1625,0,0
-616,-601,0,0,0,0,0,0,0,0,0,-1,608,1625,0,0
-609,-601,0,0,0,0,0,0,0,0,0,-1,615,1625,0,0
-602,-601,0,0,0,0,0,0,0,0,0,-1,622,1625,0,0
-595,-601,0,0,0,0,0,0,0,0,0,-1,629,1625,0,0
-588,-601,0,0,0,0,0,0,0,0,0,-1,636,1625,0,0
-581,-601,0,0,0,0,0,0,0,0,0,-1,643,1625,0,0
-574,-601,0,0,0,0,0,0,0,0,0,-1,650,1625,0,0
-567,-601,0,0,0,0,0,0,0,0,0,-1,657,1625,0,0
-560,-601,0,0,0,0,0,0,0,0,0,-1,664,1625,0,0
-553,-601,0,0,0,0,0,0,0,0,0,-1,671,1625,0,0
-546,-601,0,0,0,0,0,0,0,0,0,-1,678,1625,0,0
-539,-601,0,0,0,0,0,0,0,0,0,-1,685,1625,0,0
-532,-601,0,0,0,0,0,0,0,0,0,-1,692,1625,0,0
-525,-601,0,0,0,0,0,0,0,0,0,-1,699,1625,0,0
-518,-601,0,0,0,0,0,0,0,0,0,-1,706,1625,0,0
-511,-601,0,0,0,0,0,0,0,0,0,-1,713,1625,0,0
-504,-601,0,0,0,0,0,0,0,0,0,-1,720,1625,0,0
-497,-601,0,0,0,0,0,0,0,0,0,-1,727,1625,0,0
-490,-601,0,0,0,0,0,0,0,0,0,-1,734,1625,0,0
-483,-601,0,0,0,0,0,0,0,0,0,-1,741,1625,0,0
-476,-601,0,0,0,0,0,0,0,0,0,-1,748,1625,0,0
-469,-601,0,0,0,0,0,0,0,0,0,-1,755,1625,0,0
-462,-601,0,0,0,0,0,0,0,0,0,-1,762,1625,0,0
-455,-601,0,0,0,0,0,0,0,0,0,-1,769,1625,0,0
-448,-601,-7.07623,2.7616,0,0,0,0,0,0,0,-1,776,1625,-7.07626,-2.76161
-441,-601,-6.06689,3.33447,0,0,0,0,0,0,0,-1,783,1625,-6.06691,-3.33448
-434,-601,-5.02655,3.8468,0,0,0,0,0,0,0,-1,790,1625,-5.02657,-3.84674
-427,-601,-5.78601,4.2406,0,0,0,0,0,0,0,-1,797,1625,-5.786,-4.24058
-420,-601,-5.5191,5.60364,0,0,0,0,0,0,0,-1,804,1625,-5.51907,-5.60368
-413,-601,-4.30756,5.86047,0,0,0,0,0,0,0,-1,811,1625,-4.30757,-5.86046
-406,-601,-1.67493,7.20422,0,0,0,0,0,0,0,-1,818,1625,-1.67493,-7.20428
-399,-601,1.40094,15.3108,0,0,0,0,0,0,0,-1,825,1625,1.40096,-15.3107
-392,-601,0.678833,30.98,0,0,0,0,0,0,0,-1,832,1625,0.678827,-30.98
-385,-601,-0.0147095,37.3687,0,0,0,0,0,0,0,-1,839,1625,-0.0147267,-37.3687
-378,-601,-9.49316,77.9558,0,0,0,0,0,0,0,-1,846,1625,-9.49313,-77.9558
-371,-601,-20.0173,124.625,0,0,0,0,0,0,0,-1,853,1625,-20.0173,-124.625
-364,-601,-20.3312,127.159,0.00345013,0.00109899,0.00482226,0.00723804,-0.00268892,0.66584,0.00592854,0.0348887,860,1625,-20.3312,-127.159
-357,-601,-20.7875,129.603,0.00296822,0.00116009,0.00422137,0.00638125,-0.00225294,0.67991,0.0051714,0.0126893,867,1625,-20.7875,-129.603
-350,-601,-21.1917,131.995,0.00238113,0.00114863,0.00355595,0.00537383,-0.00184407,0.6996,0.00433018,0.0270948,874,1625,-21.1917,-131.995
-343,-601,-21.5204,134.347,0.00223111,0.00115459,0.00303515,0.00477536,-0.00138966,0.697639,0.00373401,0.0436381,881,1625,-21.5204,-134.347
-336,-601,-22.001,136.675,0.00229754,0.00114369,0.00256401,0.00434873,-0.000907505,0.674738,0.00324425,0.0394045,888,1625,-22.001,-136.675
-329,-601,-22.4502,139.066,0.00249819,0.00108471,0.00211656,0.00402289,-0.000439987,0.624264,0.00283997,0.0325297,895,1625,-22.4502,-139.066
-322,-601,-22.8027,141.571,0.00288205,0.00100392,0.00170208,0.00388693,-9.59844e-07,0.533319,0.00259161,0.0198627,902,1625,-22.8027,-141.571
-315,-601,-23.1733,143.77,0.00360324,0.00125386,0.00149461,0.00432955,0.000527562,0.452341,0.00272757,0.0206442,909,1625,-23.1734,-143.77
-308,-601,-23.5886,146.106,0.00459063,0.00144117,0.00132613,0.00507464,0.000957164,0.349954,0.00311347,0.018215,916,1625,-23.5886,-146.106
-301,-601,-23.995,148.524,0.00564914,0.00170996,0.00120564,0.00598885,0.00137025,0.274645,0.00362324,0.013877,923,1625,-23.995,-148.524
-294,-601,-24.363,150.897,0.0068603,0.00213888,0.00120181,0.00714861,0.00185057,0.235445,0.00428425,0.0151276,930,1625,-24.3631,-150.897
-287,-601,-24.7929,153.272,0.00829725,0.00286326,0.00143129,0.00865119,0.00250932,0.242425,0.00513944,0.0216189,937,1625,-24.7929,-153.272
-280,-601,-25.166,155.582,0,0,0,0,0,0,0,-1,944,1625,-25.166,-155.582
-273,-601,-25.3428,158.013,0,0,0,0,0,0,0,-1,951,1625,-25.3428,-158.013
-266,-601,-25.609,160.927,0,0,0,0,0,0,0,-1,958,1625,-25.609,-160.927
-259,-601,-18.8072,134.813,0,0,0,0,0,0,0,-1,965,1625,-18.8072,-134.813
-252,-601,-5.5199,84.9717,0,0,0,0,0,0,0,-1,972,1625,-5.51992,-84.9717
-245,-601,-5.19122,85.542,0,0,0,0,0,0,0,-1,979,1625,-5.19122,-85.542
-238,-601,-4.50085,79.6481,0,0,0,0,0,0,0,-1,986,1625,-4.50088,-79.648
-231,-601,-3.33917,71.8477,0,0,0,0,0,0,0,-1,993,1625,-3.33918,-71.8476
-224,-601,-3.03302,65.2062,0,0,0,0,0,0,0,-1,1000,1625,-3.033,-65.2062
-217,-601,3.39429,10.3898,0,0,0,0,0,0,0,-1,1007,1625,3.39431,-10.3898
-210,-601,-6.53699,15.7931,0,0,0,0,0,0,0,-1,1014,1625,-6.53697,-15.7931
-203,-601,2.69348,15.9099,0,0,0,0,0,0,0,-1,1021,1625,2.69351,-15.91
-196,-601,2.66992,16.1815,0,0,0,0,0,0,0,-1,1028,1625,2.66995,-16.1815
-189,-601,2.849,16.6105,0,0,0,0,0,0,0,-1,1035,1625,2.84902,-16.6104
-182,-601,1.82153,13.9752,0,0,0,0,0,0,0,-1,1042,1625,1.82155,-13.9752
-175,-601,0.544922,9.28687,0,0,0,0,0,0,0,-1,1049,1625,0.544879,-9.28685
-168,-601,-0.247559,8.97461,0,0,0,0,0,0,0,-1,1056,1625,-0.247598,-8.97466
-161,-601,-1.16833,8.80078,0,0,0,0,0,0,0,-1,1063,1625,-1.16837,-8.80081
-154,-601,1.12756,7.94861,0,0,0,0,0,0,0,-1,1070,1625,1.12762,-7.94855
-147,-601,1.35352,9.55432,0,0,0,0,0,0,0,-1,1077,1625,1.35351,-9.55429
-140,-601,1.72437,11.1498,0,0,0,0,0,0,0,-1,1084,1625,1.72432,-11.1498
-133,-601,2.13281,12.8347,0,0,0,0,0,0,0,-1,1091,1625,2.13287,-12.8348
-126,-601,3.09534,15.427,0,0,0,0,0,0,0,-1,1098,1625,3.0953,-15.4271
-119,-601,1.22485,9.43457,0,0,0,0,0,0,0,-1,1105,1625,1.22489,-9.43456
-112,-601,0,0,0,0,0,0,0,0,0,-1,1112,1625,0,0
-105,-601,0,0,0,0,0,0,0,0,0,-1,1119,1625,0,0
-98,-601,0,0,0,0,0,0,0,0,0,-1,1126,1625,0,0
-91,-601,0,0,0,0,0,0,0,0,0,-1,1133,1625,0,0
-84,-601,0,0,0,0,0,0,0,0,0,-1,1140,1625,0,0
-77,-601,0,0,0,0,0,0,0,0,0,-1,1147,1625,0,0
-70,-601,0,0,0,0,0,0,0,0,0,-1,1154,1625,0,0
-63,-601,0,0,0,0,0,0,0,0,0,-1,1161,1625,0,0
-56,-601,0,0,0,0,0,0,0,0,0,-1,1168,1625,0,0
-49,-601,0,0,0,0,0,0,0,0,0,-1,1175,1625,0,0
-42,-601,0,0,0,0,0,0,0,0,0,-1,1182,1625,0,0
-35,-601,0,0,0,0,0,0,0,0,0,-1,1189,1625,0,0
-28,-601,0,0,0,0,0,0,0,0,0,-1,1196,1625,0,0
-21,-601,0,0,0,0,0,0,0,0,0,-1,1203,1625,0,0
-14,-601,0,0,0,0,0,0,0,0,0,-1,1210,1625,0,0
-7,-601,0,0,0,0,0,0,0,0,0,-1,1217,1625,0,0
0,-601,0,0,0,0,0,0,0,0,0,-1,1224,1625,0,0
7,-601,0,0,0,0,0,0,0,0,0,-1,1231,1625,0,0
14,-601,0,0,0,0,0,0,0,0,0,-1,1238,1625,0,0
21,-601,0,0,0,0,0,0,0,0,0,-1,1245,1625,0,0
28,-601,0,0,0,0,0,0,0,0,0,-1,1252,1625,0,0
35,-601,0,0,0,0,0,0,0,0,0,-1,1259,1625,0,0
42,-601,0,0,0,0,0,0,0,0,0,-1,1266,1625,0,0
49,-601,0,0,0,0,0,0,0,0,0,-1,1273,1625,0,0
56,-601,0,0,0,0,0,0,0,0,0,-1,1280,1625,0,0
63,-601,0,0,0,0,0,0,0,0,0,-1,1287,1625,0,0
70,-601,0,0,0,0,0,0,0,0,0,-1,1294,1625,0,0
77,-601,0,0,0,0,0,0,0,0,0,-1,1301,1625,0,0
84,-601,0,0,0,0,0,0,0,0,0,-1,1308,1625,0,0
91,-601,0,0,0,0,0,0,0,0,0,-1,1315,1625,0,0
98,-601,0,0,0,0,0,0,0,0,0,-1,1322,1625,0,0
105,-601,0,0,0,0,0,0,0,0,0,-1,1329,1625,0,0
112,-601,0,0,0,0,0,0,0,0,0,-1,1336,1625,0,0
119,-601,0,0,0,0,0,0,0,0,0,-1,1343,1625,0,0
126,-601,0,0,0,0,0,0,0,0,0,-1,1350,1625,0,0
133,-601,0,0,0,0,0,0,0,0,0,-1,1357,1625,0,0
140,-601,0,0,0,0,0,0,0,0,0,-1,1364,1625,0,0
147,-601,0,0,0,0,0,0,0,0,0,-1,1371,1625,0,0
154,-601,0,0,0,0,0,0,0,0,0,-1,1378,1625,0,0
161,-601,0,0,0,0,0,0,0,0,0,-1,1385,1625,0,0
168,-601,0,0,0,0,0,0,0,0,0,-1,1392,1625,0,0
175,-601,0,0,0,0,0,0,0,0,0,-1,1399,1625,0,0
182,-601,0,0,0,0,0,0,0,0,0,-1,1406,1625,0,0
189,-601,0,0,0,0,0,0,0,0,0,-1,1413,1625,0,0
196,-601,0,0,0,0,0,0,0,0,0,-1,1420,1625,0,0
203,-601,0,0,0,0,0,0,0,0,0,-1,1427,1625,0,0
210,-601,0,0,0,0,0,0,0,0,0,-1,1434,1625,0,0
217,-601,0,0,0,0,0,0,0,0,0,-1,1441,1625,0,0
224,-601,0,0,0,0,0,0,0,0,0,-1,1448,1625,0,0
231,-601,-0.0371094,0.525879,0,0,0,0,0,0,0,-1,1455,1625,-0.0371518,-0.525824
238,-601,2.03369,-1.32861,0,0,0,0,0,0,0,-1,1462,1625,2.03364,1.32858
245,-601,2.71375,2.44983,0,0,0,0,0,0,0,-1,1469,1625,2.71371,-2.44979
252,-601,4.66943,2.28381,0,0,0,0,0,0,0,-1,1476,1625,4.66947,-2.28376
259,-601,6.42712,2.61987,0,0,0,0,0,0,0,-1,1483,1625,6.42711,-2.61985
266,-601,6.75317,1.68701,0,0,0,0,0,0,0,-1,1490,1625,6.75323,-1.687
273,-601,5.4314,2.92053,0,0,0,0,0,0,0,-1,1497,1625,5.43144,-2.92051
280,-601,4.64722,1.17786,0,0,0,0,0,0,0,-1,1504,1625,4.64722,-1.1779
287,-601,5.32532,2.6217,0,0,0,0,0,0,0,-1,1511,1625,5.32535,-2.62171
294,-601,5.97693,4.22693,0,0,0,0,0,0,0,-1,1518,1625,5.97697,-4.22694
301,-601,7.28162,9.50024,0,0,0,0,0,0,0,-1,1525,1625,7.28162,-9.50025
308,-601,6.53528,10.3927,0,0,0,0,0,0,0,-1,1532,1625,6.53529,-10.3927
315,-601,4.88013,11.7184,0,0,0,0,0,0,0,-1,1539,1625,4.88015,-11.7184
322,-601,3.38098,12.7864,0,0,0,0,0,0,0,-1,1546,1625,3.38104,-12.7864
329,-601,1.8772,13.8768,0,0,0,0,0,0,0,-1,1553,1625,1.87716,-13.8768
336,-601,4.67847,9.53308,0,0,0,0,0,0,0,-1,1560,1625,4.67848,-9.53309
343,-601,11.1404,3.14575,0,0,0,0,0,0,0,-1,1567,1625,11.1404,-3.1458
350,-601,22.2609,65.0352,0,0,0,0,0,0,0,-1,1574,1625,22.2608,-65.0352
357,-601,22.0867,63.3602,0,0,0,0,0,0,0,-1,1581,1625,22.0867,-63.3603
364,-601,20.9148,63.1563,0,0,0,0,0,0,0,-1,1588,1625,20.9148,-63.1563
371,-601,25.7045,110.517,0,0,0,0,0,0,0,-1,1595,1625,25.7044,-110.517
378,-601,26.113,103.917,0,0,0,0,0,0,0,-1,1602,1625,26.113,-103.918
385,-601,25.7329,93.0115,0,0,0,0,0,0,0,-1,1609,1625,25.7329,-93.0114
392,-601,27.6798,117.651,0,0,0,0,0,0,0,-1,1616,1625,27.6798,-117.651
399,-601,30.7197,156.291,0,0,0,0,0,0,0,-1,1623,1625,30.7197,-156.291
406,-601,31.1545,158.471,0,0,0,0,0,0,0,-1,1630,1625,31.1546,-158.471
413,-601,30.6929,155.975,0.00920613,0.00985191,-0.0030098,0.0125561,0.00650195,-0.838834,0.0072508,0.0438081,1637,1625,30.6928,-155.975
420,-601,30.4691,153.413,0.00798203,0.00774636,-0.00249779,0.0103648,0.00536362,-0.761828,0.00598532,0.0198488,1644,1625,30.4692,-153.413
427,-601,30.1981,151.054,0.00679559,0.00601303,-0.00204779,0.00848915,0.00431947,-0.690999,0.00490147,0.0198284,1651,1625,30.1982,-151.054
434,-601,29.7738,148.753,0.00560337,0.00449707,-0.00168776,0.00682631,0.00327412,-0.627043,0.00394226,0.0200896,1658,1625,29.7738,-148.753
441,-601,29.4176,146.416,0.00469773,0.00308733,-0.00147295,0.0055712,0.00221386,-0.535262,0.00323904,0.0225029,1665,1625,29.4177,-146.416
448,-601,29.0161,144.111,0.0038494,0.0020769,-0.00133198,0.00456303,0.00136327,-0.491848,0.00270465,0.0185773,1672,1625,29.0161,-144.111
455,-601,28.6115,141.729,0.00299067,0.00119022,-0.00124857,0.00362971,0.00055118,-0.473056,0.00225861,0.0171825,1679,1625,28.6114,-141.729
462,-601,28.2168,139.355,0.00223359,0.000379693,-0.00119165,0.00281637,-0.000203084,-0.454849,0.0019488,0.0164175,1686,1625,28.2168,-139.355
469,-601,27.8712,137.061,0.00158226,-0.000362854,-0.00115836,0.0021222,-0.000902796,-0.436185,0.00179316,0.0157995,1693,1625,27.8712,-137.061
476,-601,27.4792,134.678,0.00107019,-0.000947225,-0.00121965,0.00164421,-0.00152125,-0.439889,0.00182804,0.0186145,1700,1625,27.4792,-134.678
483,-601,27.0106,132.305,0.000694115,-0.00132746,-0.00136925,0.00138525,-0.0020186,-0.467443,0.00197652,0.021468,1707,1625,27.0106,-132.305
490,-601,26.5901,129.928,0.00037142,-0.00158276,-0.00160682,0.00127491,-0.00248625,-0.512225,0.00220873,0.018203,1714,1625,26.5901,-129.928
497,-601,26.179,127.536,0.000113431,-0.00202369,-0.00188072,0.00120795,-0.00311821,-0.527056,0.0025776,0.0263465,1721,1625,26.179,-127.536
504,-601,25.8186,125.073,0,0,0,0,0,0,0,-1,1728,1625,25.8186,-125.073
511,-601,24.7172,89.2206,0,0,0,0,0,0,0,-1,1735,1625,24.7171,-89.2206
518,-601,22.5652,60.4095,0,0,0,0,0,0,0,-1,1742,1625,22.5652,-60.4096
525,-601,21.0905,50.1962,0,0,0,0,0,0,0,-1,1749,1625,21.0905,-50.1961
532,-601,15.9053,24.3068,0,0,0,0,0,0,0,-1,1756,1625,15.9053,-24.3067
539,-601,7.77112,11.4299,0,0,0,0,0,0,0,-1,1763,1625,7.77116,-11.4299
546,-601,6.56873,3.62354,0,0,0,0,0,0,0,-1,1770,1625,6.56867,-3.62352
553,-601,7.03015,4.25049,0,0,0,0,0,0,0,-1,1777,1625,7.03011,-4.25048
560,-601,7.50745,4.83374,0,0,0,0,0,0,0,-1,1784,1625,7.50744,-4.83376
567,-601,7.82043,3.83301,0,0,0,0,0,0,0,-1,1791,1625,7.82041,-3.83303
574,-601,0,0,0,0,0,0,0,0,0,-1,1798,1625,0,0
581,-601,0,0,0,0,0,0,0,0,0,-1,1805,1625,0,0
588,-601,0,0,0,0,0,0,0,0,0,-1,1812,1625,0,0
595,-601,0,0,0,0,0,0,0,0,0,-1,1819,1625,0,0
602,-601,0,0,0,0,0,0,0,0,0,-1,1826,1625,0,0
609,-601,0,0,0,0,0,0,0,0,0,-1,1833,1625,0,0
616,-601,0,0,0,0,0,0,0,0,0,-1,1840,1625,0,0
623,-601,0,0,0,0,0,0,0,0,0,-1,1847,1625,0,0
630,-601,0,0,0,0,0,0,0,0,0,-1,1854,1625,0,0
637,-601,0,0,0,0,0,0,0,0,0,-1,1861,1625,0,0
644,-601,0,0,0,0,0,0,0,0,0,-1,1868,1625,0,0
651,-601,0,0,0,0,0,0,0,0,0,-1,1875,1625,0,0
658,-601,0,0,0,0,0,0,0,0,0,-1,1882,1625,0,0
665,-601,0,0,0,0,0,0,0,0,0,-1,1889,1625,0,0
672,-601,0,0,0,0,0,0,0,0,0,-1,1896,1625,0,0
679,-601,0,0,0,0,0,0,0,0,0,-1,1903,1625,0,0
686,-601,0,0,0,0,0,0,0,0,0,-1,1910,1625,0,0
693,-601,0,0,0,0,0,0,0,0,0,-1,1917,1625,0,0
700,-601,0,0,0,0,0,0,0,0,0,-1,1924,1625,0,0
707,-601,0,0,0,0,0,0,0,0,0,-1,1931,1625,0,0
714,-601,0,0,0,0,0,0,0,0,0,-1,1938,1625,0,0
721,-601,0,0,0,0,0,0,0,0,0,-1,1945,1625,0,0
728,-601,0,0,0,0,0,0,0,0,0,-1,1952,1625,0,0
735,-601,0,0,0,0,0,0,0,0,0,-1,1959,1625,0,0
742,-601,0,0,0,0,0,0,0,0,0,-1,1966,1625,0,0
749,-601,0,0,0,0,0,0,0,0,0,-1,1973,1625,0,0
756,-601,0,0,0,0,0,0,0,0,0,-1,1980,1625,0,0
763,-601,0,0,0,0,0,0,0,0,0,-1,1987,1625,0,0
770,-601,0,0,0,0,0,0,0,0,0,-1,1994,1625,0,0
777,-601,0,0,0,0,0,0,0,0,0,-1,2001,1625,0,0
784,-601,0,0,0,0,0,0,0,0,0,-1,2008,1625,0,0
791,-601,0,0,0,0,0,0,0,0,0,-1,2015,1625,0,0
798,-601,0,0,0,0,0,0,0,0,0,-1,2022,1625,0,0
805,-601,0,0,0,0,0,0,0,0,0,-1,2029,1625,0,0
812,-601,0,0,0,0,0,0,0,0,0,-1,2036,1625,0,0
-700,-608,0,0,0,0,0,0,0,0,0,-1,524,1632,0,0
-693,-608,0,0,0,0,0,0,0,0,0,-1,531,1632,0,0
-686,-608,0,0,0,0,0,0,0,0,0,-1,538,1632,0,0
-679,-608,0,0,0,0,0,0,0,0,0,-1,545,1632,0,0
-672,-608,0,0,0,0,0,0,0,0,0,-1,552,1632,0,0
-665,-608,0,0,0,0,0,0,0,0,0,-1,559,1632,0,0
-658,-608,0,0,0,0,0,0,0,0,0,-1,566,1632,0,0
-651,-608,0,0,0,0,0,0,0,0,0,-1,573,1632,0,0
-644,-608,0,0,0,0,0,0,0,0,0,-1,580,1632,0,0
-637,-608,0,0,0,0,0,0,0,0,0,-1,587,1632,0,0
-630,-608,0,0,0,0,0,0,0,0,0,-1,594,1632,0,0
-623,-608,0,0,0,0,0,0,0,0,0,-1,601,1632,0,0
-616,-608,0,0,0,0,0,0,0,0,0,-1,608,1632,0,0
-609,-608,0,0,0,0,0,0,0,0,0,-1,615,1632,0,0
-602,-608,0,0,0,0,0,0,0,0,0,-1,622,1632,0,0
-595,-608,0,0,0,0,0,0,0,0,0,-1,629,1632,0,0
-588,-608,0,0,0,0,0,0,0,0,0,-1,636,1632,0,0
-581,-608,0,0,0,0,0,0,0,0,0,-1,643,1632,0,0
-574,-608,0,0,0,0,0,0,0,0,0,-1,650,1632,0,0
-567,-608,0,0,0,0,0,0,0,0,0,-1,657,1632,0,0
-560,-608,0,0,0,0,0,0,0,0,0,-1,664,1632,0,0
-553,-608,0,0,0,0,0,0,0,0,0,-1,671,1632,0,0
-546,-608,0,0,0,0,0,0,0,0,0,-1,678,1632,0,0
-539,-608,0,0,0,0,0,0,0,0,0,-1,685,1632,0,0
-532,-608,0,0,0,0,0,0,0,0,0,-1,692,1632,0,0
-525,-608,0,0,0,0,0,0,0,0,0,-1,699,1632,0,0
-518,-608,0,0,0,0,0,0,0,0,0,-1,706,1632,0,0
-511,-608,0,0,0,0,0,0,0,0,0,-1,713,1632,0,0
-504,-608,0,0,0,0,0,0,0,0,0,-1,720,1632,0,0
-497,-608,0,0,0,0,0,0,0,0,0,-1,727,1632,0,0
-490,-608,0,0,0,0,0,0,0,0,0,-1,734,1632,0,0
-483,-608,0,0,0,0,0,0,0,0,0,-1,741,1632,0,0
-476,-608,0,0,0,0,0,0,0,0,0,-1,748,1632,0,0
-469,-608,0,0,0,0,0,0,0,0,0,-1,755,1632,0,0
-462,-608,0,0,0,0,0,0,0,0,0,-1,762,1632,0,0
-455,-608,0,0,0,0,0,0,0,0,0,-1,769,1632,0,0
-448,-608,0,0,0,0,0,0,0,0,0,-1,776,1632,0,0
-441,-608,-7.34601,2.78052,0,0,0,0,0,0,0,-1,783,1632,-7.346,-2.78056
-434,-608,-6.34558,3.27405,0,0,0,0,0,0,0,-1,790,1632,-6.34555,-3.27406
-427,-608,-7.74335,4.17688,0,0,0,0,0,0,0,-1,797,1632,-7.74334,-4.17693
-420,-608,-6.82794,4.34839,0,0,0,0,0,0,0,-1,804,1632,-6.82794,-4.34838
-413,-608,-5.41919,5.66138,0,0,0,0,0,0,0,-1,811,1632,-5.41917,-5.66133
-406,-608,-4.79681,4.98999,0,0,0,0,0,0,0,-1,818,1632,-4.79684,-4.98997
-399,-608,-2.60645,6.34167,0,0,0,0,0,0,0,-1,825,1632,-2.60643,-6.34169
-392,-608,2.08356,15.437,0,0,0,0,0,0,0,-1,832,1632,2.08354,-15.437
-385,-608,1.51526,31.5153,0,0,0,0,0,0,0,-1,839,1632,1.51527,-31.5153
-378,-608,0.340515,38.2742,0,0,0,0,0,0,0,-1,846,1632,0.340526,-38.2742
-371,-608,-2.89227,60.2308,0,0,0,0,0,0,0,-1,853,1632,-2.89227,-60.2308
-364,-608,-17.9885,127.422,0,0,0,0,0,0,0,-1,860,1632,-17.9885,-127.423
-357,-608,-18.4495,129.945,0,0,0,0,0,0,0,-1,867,1632,-18.4495,-129.945
-350,-608,-18.7737,132.318,0.00248268,0.00196045,0.00482461,0.00705324,-0.00261011,0.758364,0.00577237,0.0396873,874,1632,-18.7737,-132.318
-343,-608,-19.1375,134.807,0.00200093,0.00178133,0.00404599,0.00593861,-0.00215635,0.771832,0.00484069,0.0423046,881,1632,-19.1374,-134.807
-336,-608,-19.5887,137.216,0.00186323,0.00151071,0.00338763,0.00507918,-0.00170524,0.759407,0.00407524,0.032122,888,1632,-19.5887,-137.216
-329,-608,-20.1016,139.597,0.00189335,0.00128056,0.00277263,0.00437646,-0.00120255,0.730369,0.00339034,0.0304358,895,1632,-20.1016,-139.597
-322,-608,-20.5126,141.965,0.00210732,0.00104537,0.00218985,0.00382964,-0.00067696,0.666458,0.0028061,0.0305941,902,1632,-20.5127,-141.965
-315,-608,-20.8857,144.211,0.00261734,0.00106928,0.00177936,0.00378373,-9.71169e-05,0.580241,0.00255547,0.032429,909,1632,-20.8857,-144.211
-308,-608,-21.325,146.578,0.00343743,0.00111419,0.00145129,0.00413473,0.000416883,0.447904,0.00262857,0.0322022,916,1632,-21.325,-146.578
-301,-608,-21.6818,148.961,0.00436033,0.00125599,0.00118349,0.00476005,0.000856268,0.325719,0.00292995,0.0162109,923,1632,-21.6817,-148.961
-294,-608,-22.0043,151.328,0.00539048,0.00154318,0.00103745,0.0056524,0.00128126,0.247302,0.00342209,0.0157799,930,1632,-22.0043,-151.328
-287,-608,-22.3855,153.621,0.00660412,0.00201656,0.0010118,0.00681737,0.00180332,0.207716,0.00407892,0.0148605,937,1632,-22.3855,-153.621
-280,-608,-22.7005,155.907,0.00825539,0.00270581,0.00110015,0.00846552,0.00249568,0.188734,0.00502289,0.0133536,944,1632,-22.7005,-155.907
-273,-608,-23.1198,158.238,0.0102136,0.00391839,0.00132748,0.0104821,0.00364991,0.199555,0.00614409,0.0240113,951,1632,-23.1198,-158.238
-266,-608,-23.4277,160.774,0.0121742,0.00535923,0.00153224,0.0125029,0.00503058,0.211289,0.00726428,0.0374419,958,1632,-23.4277,-160.774
-259,-608,-23.6663,162.889,0,0,0,0,0,0,0,-1,965,1632,-23.6663,-162.889
-252,-608,-19.696,147.72,0,0,0,0,0,0,0,-1,972,1632,-19.6961,-147.72
-245,-608,-6.69507,93.6216,0,0,0,0,0,0,0,-1,979,1632,-6.69507,-93.6216
-238,-608,-4.35168,86.9574,0,0,0,0,0,0,0,-1,986,1632,-4.35168,-86.9574
-231,-608,-3.63574,80.2905,0,0,0,0,0,0,0,-1,993,1632,-3.63575,-80.2905
-224,-608,-5.05853,91.6997,0,0,0,0,0,0,0,-1,1000,1632,-5.0585,-91.6998
-217,-608,1.04419,12.8451,0,0,0,0,0,0,0,-1,1007,1632,1.04418,-12.8451
-210,-608,2.75903,15.9414,0,0,0,0,0,0,0,-1,1014,1632,2.75903,-15.9414
-203,-608,2.76776,16.217,0,0,0,0,0,0,0,-1,1021,1632,2.76773,-16.217
-196,-608,1.53955,18.6058,0,0,0,0,0,0,0,-1,1028,1632,1.53959,-18.6058
-189,-608,1.37634,19.119,0,0,0,0,0,0,0,-1,1035,1632,1.37634,-19.1191
-182,-608,2.89221,16.7092,0,0,0,0,0,0,0,-1,1042,1632,2.89224,-16.7093
-175,-608,0.219116,15.1643,0,0,0,0,0,0,0,-1,1049,1632,0.219173,-15.1644
-168,-608,0.000366211,9.48645,0,0,0,0,0,0,0,-1,1056,1632,0.000317105,-9.48648
-161,-608,2.27832,15.4423,0,0,0,0,0,0,0,-1,1063,1632,2.27826,-15.4423
-154,-608,1.3999,16.4037,0,0,0,0,0,0,0,-1,1070,1632,1.39987,-16.4037
-147,-608,2.4386,9.50317,0,0,0,0,0,0,0,-1,1077,1632,2.43858,-9.50313
-140,-608,2.60132,10.8401,0,0,0,0,0,0,0,-1,1084,1632,2.60134,-10.8401
-133,-608,3.2312,12.4738,0,0,0,0,0,0,0,-1,1091,1632,3.23116,-12.4738
-126,-608,3.76465,13.9644,0,0,0,0,0,0,0,-1,1098,1632,3.76466,-13.9644
-119,-608,4.28906,15.4196,0,0,0,0,0,0,0,-1,1105,1632,4.28911,-15.4195
-112,-608,0.745117,10.5587,0,0,0,0,0,0,0,-1,1112,1632,0.745145,-10.5587
-105,-608,-0.252319,1.42419,0,0,0,0,0,0,0,-1,1119,1632,-0.252331,-1.42418
-98,-608,-2.8595,3.0863,0,0,0,0,0,0,0,-1,1126,1632,-2.85948,-3.08625
-91,-608,-3.71948,1.73608,0,0,0,0,0,0,0,-1,1133,1632,-3.7195,-1.73607
-84,-608,0,0,0,0,0,0,0,0,0,-1,1140,1632,0,0
-77,-608,0,0,0,0,0,0,0,0,0,-1,1147,1632,0,0
-70,-608,0,0,0,0,0,0,0,0,0,-1,1154,1632,0,0
-63,-608,0,0,0,0,0,0,0,0,0,-1,1161,1632,0,0
-56,-608,0,0,0,0,0,0,0,0,0,-1,1168,1632,0,0
-49,-608,0,0,0,0,0,0,0,0,0,-1,1175,1632,0,0
-42,-608,0,0,0,0,0,0,0,0,0,-1,1182,1632,0,0
-35,-608,0,0,0,0,0,0,0,0,0,-1,1189,1632,0,0
-28,-608,0,0,0,0,0,0,0,0,0,-1,1196,1632,0,0
-21,-608,0,0,0,0,0,0,0,0,0,-1,1203,1632,0,0
-14,-608,0,0,0,0,0,0,0,0,0,-1,1210,1632,0,0
-7,-608,0,0,0,0,0,0,0,0,0,-1,1217,1632,0,0
0,-608,0,0,0,0,0,0,0,0,0,-1,1224,1632,0,0
7,-608,0,0,0,0,0,0,0,0,0,-1,1231,1632,0,0
14,-608,0,0,0,0,0,0,0,0,0,-1,1238,1632,0,0
21,-608,0,0,0,0,0,0,0,0,0,-1,1245,1632,0,0
28,-608,0,0,0,0,0,0,0,0,0,-1,1252,1632,0,0
35,-608,0,0,0,0,0,0,0,0,0,-1,1259,1632,0,0
42,-608,0,0,0,0,0,0,0,0,0,-1,1266,1632,0,0
49,-608,0,0,0,0,0,0,0,0,0,-1,1273,1632,0,0
56,-608,0,0,0,0,0,0,0,0,0,-1,1280,1632,0,0
63,-608,0,0,0,0,0,0,0,0,0,-1,1287,1632,0,0
70,-608,0,0,0,0,0,0,0,0,0,-1,1294,1632,0,0
77,-608,0,0,0,0,0,0,0,0,0,-1,1301,1632,0,0
84,-608,0,0,0,0,0,0,0,0,0,-1,1308,1632,0,0
91,-608,0,0,0,0,0,0,0,0,0,-1,1315,1632,0,0
98,-608,0,0,0,0,0,0,0,0,0,-1,1322,1632,0,0
105,-608,0,0,0,0,0,0,0,0,0,-1,1329,1632,0,0
112,-608,0,0,0,0,0,0,0,0,0,-1,1336,1632,0,0
119,-608,0,0,0,0,0,0,0,0,0,-1,1343,1632,0,0
126,-608,0,0,0,0,0,0,0,0,0,-1,1350,1632,0,0
133,-608,0,0,0,0,0,0,0,0,0,-1,1357,1632,0,0
140,-608,0,0,0,0,0,0,0,0,0,-1,1364,1632,0,0
147,-608,0,0,0,0,0,0,0,0,0,-1,1371,1632,0,0
154,-608,0,0,0,0,0,0,0,0,0,-1,1378,1632,0,0
161,-608,0,0,0,0,0,0,0,0,0,-1,1385,1632,0,0
168,-608,0,0,0,0,0,0,0,0,0,-1,1392,1632,0,0
175,-608,0,0,0,0,0,0,0,0,0,-1,1399,1632,0,0
182,-608,0,0,0,0,0,0,0,0,0,-1,1406,1632,0,0
189,-608,0,0,0,0,0,0,0,0,0,-1,1413,1632,0,0
196,-608,0,0,0,0,0,0,0,0,0,-1,1420,1632,0,0
203,-608,0,0,0,0,0,0,0,0,0,-1,1427,1632,0,0
210,-608,5.7157,-0.333008,0,0,0,0,0,0,0,-1,1434,1632,5.71566,0.333004
217,-608,4.49402,-0.831787,0,0,0,0,0,0,0,-1,1441,1632,4.49396,0.831738
224,-608,4.18018,-1.11792,0,0,0,0,0,0,0,-1,1448,1632,4.1802,1.11796
231,-608,0.361816,0.825195,0,0,0,0,0,0,0,-1,1455,1632,0.36185,-0.825226
238,-608,2.85388,-0.28833,0,0,0,0,0,0,0,-1,1462,1632,2.85391,0.288282
245,-608,3.87537,4.02173,0,0,0,0,0,0,0,-1,1469,1632,3.87538,-4.02168
252,-608,5.66956,3.5282,0,0,0,0,0,0,0,-1,1476,1632,5.6696,-3.52815
259,-608,7.47437,3.07178,0,0,0,0,0,0,0,-1,1483,1632,7.4744,-3.07172
266,-608,9.46936,2.34766,0,0,0,0,0,0,0,-1,1490,1632,9.46932,-2.34764
273,-608,6.03003,3.34241,0,0,0,0,0,0,0,-1,1497,1632,6.02997,-3.34245
280,-608,5.72461,2.0769,0,0,0,0,0,0,0,-1,1504,1632,5.72457,-2.07688
287,-608,6.20581,3.59338,0,0,0,0,0,0,0,-1,1511,1632,6.20585,-3.59341
294,-608,6.94922,5.17151,0,0,0,0,0,0,0,-1,1518,1632,6.94925,-5.17151
301,-608,7.60083,6.68018,0,0,0,0,0,0,0,-1,1525,1632,7.60086,-6.68013
308,-608,7.64746,9.93848,0,0,0,0,0,0,0,-1,1532,1632,7.64745,-9.93842
315,-608,5.30688,11.2054,0,0,0,0,0,0,0,-1,1539,1632,5.30694,-11.2054
322,-608,5.32617,13.7581,0,0,0,0,0,0,0,-1,1546,1632,5.32613,-13.758
329,-608,7.12231,13.9607,0,0,0,0,0,0,0,-1,1553,1632,7.12231,-13.9607
336,-608,5.48633,7.82446,0,0,0,0,0,0,0,-1,1560,1632,5.48634,-7.82446
343,-608,5.47192,5.61047,0,0,0,0,0,0,0,-1,1567,1632,5.47192,-5.61045
350,-608,20.215,64.3408,0,0,0,0,0,0,0,-1,1574,1632,20.2149,-64.3408
357,-608,20.1851,63.2336,0,0,0,0,0,0,0,-1,1581,1632,20.1851,-63.2337
364,-608,24.6505,112.798,0,0,0,0,0,0,0,-1,1588,1632,24.6505,-112.798
371,-608,24.809,112.369,0,0,0,0,0,0,0,-1,1595,1632,24.809,-112.369
378,-608,29.3972,162.128,0,0,0,0,0,0,0,-1,1602,1632,29.3973,-162.128
385,-608,29.9474,165.929,0,0,0,0,0,0,0,-1,1609,1632,29.9474,-165.929
392,-608,29.5676,163.626,0,0,0,0,0,0,0,-1,1616,1632,29.5676,-163.626
399,-608,29.0931,160.772,0,0,0,0,0,0,0,-1,1623,1632,29.0931,-160.772
406,-608,28.8312,158.354,0.0091649,0.00880018,-0.00249019,0.0114794,0.00648568,-0.748847,0.00664626,0.0245231,1630,1632,28.8312,-158.354
413,-608,28.4794,156.06,0.00781561,0.00710035,-0.00202037,0.00950976,0.00540621,-0.6978,0.00550761,0.0142859,1637,1632,28.4794,-156.06
420,-608,28.1334,153.786,0.00675004,0.00555126,-0.0017614,0.00801124,0.00429006,-0.621398,0.00462918,0.0222536,1644,1632,28.1334,-153.786
427,-608,27.8511,151.475,0.00571165,0.00432005,-0.00157262,0.00673552,0.00329618,-0.577121,0.00388905,0.0238749,1651,1632,27.851,-151.475
434,-608,27.4971,149.181,0.0046665,0.00321015,-0.00144567,0.00555703,0.00231962,-0.552101,0.00322291,0.0194713,1658,1632,27.4971,-149.181
441,-608,27.0963,146.87,0.00384784,0.00214218,-0.00142791,0.00465821,0.00133181,-0.516199,0.00277038,0.0187634,1665,1632,27.0963,-146.87
448,-608,26.7205,144.556,0.00308022,0.00135209,-0.00144115,0.00389649,0.000535823,-0.515346,0.00243875,0.0183247,1672,1632,26.7205,-144.556
455,-608,26.3339,142.172,0.00230389,0.000640749,-0.00147447,0.00316511,-0.000220478,-0.528642,0.00218728,0.0147385,1679,1632,26.3339,-142.172
462,-608,25.9191,139.833,0.0016057,-3.74832e-05,-0.00149409,0.00248919,-0.00092098,-0.534018,0.00203708,0.0169214,1686,1632,25.919,-139.833
469,-608,25.4807,137.484,0.00108843,-0.000576733,-0.00159978,0.00205931,-0.00154762,-0.545467,0.00208944,0.0126117,1693,1632,25.4807,-137.484
476,-608,25.0802,135.126,0.000723017,-0.00110718,-0.00171502,0.00175181,-0.00213598,-0.540324,0.00224826,0.0110585,1700,1632,25.0802,-135.126
483,-608,24.6605,132.76,0.00044393,-0.00131209,-0.00193945,0.00169486,-0.00256301,-0.572845,0.00247526,0.01091,1707,1632,24.6606,-132.76
490,-608,24.2682,130.336,0.000198648,-0.00151644,-0.0022339,0.00173394,-0.00305173,-0.602133,0.00279771,0.0220064,1714,1632,24.2682,-130.336
497,-608,23.9517,127.841,0,0,0,0,0,0,0,-1,1721,1632,23.9517,-127.841
504,-608,23.4728,87.6309,0,0,0,0,0,0,0,-1,1728,1632,23.4728,-87.6308
511,-608,19.2942,47.2458,0,0,0,0,0,0,0,-1,1735,1632,19.2942,-47.2458
518,-608,18.8019,37.4651,0,0,0,0,0,0,0,-1,1742,1632,18.8019,-37.4651
525,-608,11.2109,16.2579,0,0,0,0,0,0,0,-1,1749,1632,11.2109,-16.2579
532,-608,8.27917,11.6693,0,0,0,0,0,0,0,-1,1756,1632,8.27919,-11.6694
539,-608,9.40796,1.43457,0,0,0,0,0,0,0,-1,1763,1632,9.40801,-1.43463
546,-608,9.94031,2.1134,0,0,0,0,0,0,0,-1,1770,1632,9.94031,-2.11346
553,-608,10.363,2.81335,0,0,0,0,0,0,0,-1,1777,1632,10.3631,-2.81333
560,-608,9.23999,4.5636,0,0,0,0,0,0,0,-1,1784,1632,9.24,-4.56354
567,-608,0,0,0,0,0,0,0,0,0,-1,1791,1632,0,0
574,-608,0,0,0,0,0,0,0,0,0,-1,1798,1632,0,0
581,-608,0,0,0,0,0,0,0,0,0,-1,1805,1632,0,0
588,-608,0,0,0,0,0,0,0,0,0,-1,1812,1632,0,0
595,-608,0,0,0,0,0,0,0,0,0,-1,1819,1632,0,0
602,-608,0,0,0,0,0,0,0,0,0,-1,1826,1632,0,0
609,-608,0,0,0,0,0,0,0,0,0,-1,1833,1632,0,0
616,-608,0,0,0,0,0,0,0,0,0,-1,1840,1632,0,0
623,-608,0,0,0,0,0,0,0,0,0,-1,1847,1632,0,0
630,-608,0,0,0,0,0,0,0,0,0,-1,1854,1632,0,0
637,-608,0,0,0,0,0,0,0,0,0,-1,1861,1632,0,0
644,-608,0,0,0,0,0,0,0,0,0,-1,1868,1632,0,0
651,-608,0,0,0,0,0,0,0,0,0,-1,1875,1632,0,0
658,-608,0,0,0,0,0,0,0,0,0,-1,1882,1632,0,0
665,-608,0,0,0,0,0,0,0,0,0,-1,1889,1632,0,0
672,-608,0,0,0,0,0,0,0,0,0,-1,1896,1632,0,0
679,-608,0,0,0,0,0,0,0,0,0,-1,1903,1632,0,0
686,-608,0,0,0,0,0,0,0,0,0,-1,1910,1632,0,0
693,-608,0,0,0,0,0,0,0,0,0,-1,1917,1632,0,0
700,-608,0,0,0,0,0,0,0,0,0,-1,1924,1632,0,0
707,-608,0,0,0,0,0,0,0,0,0,-1,1931,1632,0,0
714,-608,0,0,0,0,0,0,0,0,0,-1,1938,1632,0,0
721,-608,0,0,0,0,0,0,0,0,0,-1,1945,1632,0,0
728,-608,0,0,0,0,0,0,0,0,0,-1,1952,1632,0,0
735,-608,0,0,0,0,0,0,0,0,0,-1,1959,1632,0,0
742,-608,0,0,0,0,0,0,0,0,0,-1,1966,1632,0,0
749,-608,0,0,0,0,0,0,0,0,0,-1,1973,1632,0,0
756,-608,0,0,0,0,0,0,0,0,0,-1,1980,1632,0,0
763,-608,0,0,0,0,0,0,0,0,0,-1,1987,1632,0,0
770,-608,0,0,0,0,0,0,0,0,0,-1,1994,1632,0,0
777,-608,0,0,0,0,0,0,0,0,0,-1,2001,1632,0,0
784,-608,0,0,0,0,0,0,0,0,0,-1,2008,1632,0,0
791,-608,0,0,0,0,0,0,0,0,0,-1,2015,1632,0,0
798,-608,0,0,0,0,0,0,0,0,0,-1,2022,1632,0,0
805,-608,0,0,0,0,0,0,0,0,0,-1,2029,1632,0,0
812,-608,0,0,0,0,0,0,0,0,0,-1,2036,1632,0,0
-700,-615,0,0,0,0,0,0,0,0,0,-1,524,1639,0,0
-693,-615,0,0,0,0,0,0,0,0,0,-1,531,1639,0,0
-686,-615,0,0,0,0,0,0,0,0,0,-1,538,1639,0,0
-679,-615,0,0,0,0,0,0,0,0,0,-1,545,1639,0,0
-672,-615,0,0,0,0,0,0,0,0,0,-1,552,1639,0,0
-665,-615,0,0,0,0,0,0,0,0,0,-1,559,1639,0,0
-658,-615,0,0,0,0,0,0,0,0,0,-1,566,1639,0,0
-651,-615,0,0,0,0,0,0,0,0,0,-1,573,1639,0,0
-644,-615,0,0,0,0,0,0,0,0,0,-1,580,1639,0,0
-637,-615,0,0,0,0,0,0,0,0,0,-1,587,1639,0,0
-630,-615,0,0,0,0,0,0,0,0,0,-1,594,1639,0,0
-623,-615,0,0,0,0,0,0,0,0,0,-1,601,1639,0,0
-616,-615,0,0,0,0,0,0,0,0,0,-1,608,1639,0,0
-609,-615,0,0,0,0,0,0,0,0,0,-1,615,1639,0,0
-602,-615,0,0,0,0,0,0,0,0,0,-1,622,1639,0,0
-595,-615,0,0,0,0,0,0,0,0,0,-1,629,1639,0,0
-588,-615,0,0,0,0,0,0,0,0,0,-1,636,1639,0,0
-581,-615,0,0,0,0,0,0,0,0,0,-1,643,1639,0,0
-574,-615,0,0,0,0,0,0,0,0,0,-1,650,1639,0,0
-567,-615,0,0,0,0,0,0,0,0,0,-1,657,1639,0,0
-560,-615,0,0,0,0,0,0,0,0,0,-1,664,1639,0,0
-553,-615,0,0,0,0,0,0,0,0,0,-1,671,1639,0,0
-546,-615,0,0,0,0,0,0,0,0,0,-1,678,1639,0,0
-539,-615,0,0,0,0,0,0,0,0,0,-1,685,1639,0,0
-532,-615,0,0,0,0,0,0,0,0,0,-1,692,1639,0,0
-525,-615,0,0,0,0,0,0,0,0,0,-1,699,1639,0,0
-518,-615,0,0,0,0,0,0,0,0,0,-1,706,1639,0,0
-511,-615,0,0,0,0,0,0,0,0,0,-1,713,1639,0,0
-504,-615,0,0,0,0,0,0,0,0,0,-1,720,1639,0,0
-497,-615,0,0,0,0,0,0,0,0,0,-1,727,1639,0,0
-490,-615,0,0,0,0,0,0,0,0,0,-1,734,1639,0,0
-483,-615,0,0,0,0,0,0,0,0,0,-1,741,1639,0,0
-476,-615,0,0,0,0,0,0,0,0,0,-1,748,1639,0,0
-469,-615,0,0,0,0,0,0,0,0,0,-1,755,1639,0,0
-462,-615,0,0,0,0,0,0,0,0,0,-1,762,1639,0,0
-455,-615,0,0,0,0,0,0,0,0,0,-1,769,1639,0,0
-448,-615,0,0,0,0,0,0,0,0,0,-1,776,1639,0,0
-441,-615,0,0,0,0,0,0,0,0,0,-1,783,1639,0,0
-434,-615,-7.64508,2.98596,0,0,0,0,0,0,0,-1,790,1639,-7.64505,-2.98594
-427,-615,-9.0011,2.89404,0,0,0,0,0,0,0,-1,797,1639,-9.00107,-2.89399
-420,-615,-8.07568,3.0752,0,0,0,0,0,0,0,-1,804,1639,-8.07569,-3.07514
-413,-615,-7.09149,3.396,0,0,0,0,0,0,0,-1,811,1639,-7.09147,-3.39599
-406,-615,-6.21368,3.7312,0,0,0,0,0,0,0,-1,818,1639,-6.21366,-3.73114
-399,-615,-4.84875,3.91907,0,0,0,0,0,0,0,-1,825,1639,-4.84877,-3.91901
-392,-615,1.7395,13.3127,0,0,0,0,0,0,0,-1,832,1639,1.73953,-13.3128
-385,-615,3.42297,14.9401,0,0,0,0,0,0,0,-1,839,1639,3.42296,-14.94
-378,-615,1.50134,37.1793,0,0,0,0,0,0,0,-1,846,1639,1.50132,-37.1793
-371,-615,-0.743164,48.5927,0,0,0,0,0,0,0,-1,853,1639,-0.743134,-48.5926
-364,-615,-2.22162,61.8123,0,0,0,0,0,0,0,-1,860,1639,-2.22161,-61.8122
-357,-615,-14.6611,120.546,0,0,0,0,0,0,0,-1,867,1639,-14.661,-120.546
-350,-615,-16.3878,132.506,0,0,0,0,0,0,0,-1,874,1639,-16.3877,-132.506
-343,-615,-16.9147,135.062,0.00171811,0.00280983,0.00517352,0.00746621,-0.00293827,0.837959,0.00619374,0.0482485,881,1639,-16.9147,-135.062
-336,-615,-17.2426,137.541,0.00141228,0.00223982,0.00434653,0.00619223,-0.00254013,0.832853,0.00518653,0.0137939,888,1639,-17.2426,-137.54
-329,-615,-17.709,139.941,0.00129918,0.00181715,0.00357357,0.00514111,-0.00202478,0.82157,0.00426564,0.0166748,895,1639,-17.709,-139.941
-322,-615,-18.1271,142.348,0.00134081,0.0014169,0.00282633,0.00420544,-0.00144773,0.792128,0.00339084,0.0213618,902,1639,-18.1271,-142.348
-315,-615,-18.5693,144.766,0.00163032,0.00117788,0.0022125,0.00362814,-0.000819938,0.734452,0.00273338,0.0292901,909,1639,-18.5693,-144.766
-308,-615,-19.0336,147.115,0.00227455,0.00105625,0.00174033,0.00350926,-0.00017846,0.617051,0.0024012,0.0415162,916,1639,-19.0336,-147.115
-301,-615,-19.3013,149.365,0.00305595,0.00104754,0.0013483,0.00373292,0.000370577,0.465318,0.00237475,0.0174711,923,1639,-19.3013,-149.365
-294,-615,-19.6844,151.721,0.00391962,0.0011409,0.00107632,0.00428776,0.00077277,0.329557,0.0026389,0.0139539,930,1639,-19.6844,-151.721
-287,-615,-20.0629,154.01,0.00495423,0.00136608,0.000870283,0.00515417,0.00116614,0.225823,0.00312089,0.0109703,937,1639,-20.0629,-154.01
-280,-615,-20.3877,156.3,0.00643436,0.00180387,0.000771749,0.0065596,0.00167864,0.160875,0.00393474,0.0144125,944,1639,-20.3877,-156.3
-273,-615,-20.8113,158.606,0.00815969,0.00264682,0.00081383,0.00827732,0.00252919,0.143545,0.00489789,0.0187701,951,1639,-20.8113,-158.606
-266,-615,-21.1874,160.879,0.00985618,0.0036491,0.000836568,0.00996695,0.00353833,0.131648,0.00583451,0.0217042,958,1639,-21.1873,-160.879
-259,-615,-21.42,163.179,0.0118439,0.00478445,0.000934633,0.0119655,0.0046628,0.129425,0.00696412,0.0286857,965,1639,-21.4201,-163.179
-252,-615,-21.6552,165.49,0,0,0,0,0,0,0,-1,972,1639,-21.6552,-165.491
-245,-615,-19.5461,156.202,0,0,0,0,0,0,0,-1,979,1639,-19.5461,-156.202
-238,-615,-19.7418,158.524,0,0,0,0,0,0,0,-1,986,1639,-19.7418,-158.524
-231,-615,-11.2592,120.892,0,0,0,0,0,0,0,-1,993,1639,-11.2592,-120.892
-224,-615,-14.0591,136.41,0,0,0,0,0,0,0,-1,1000,1639,-14.0591,-136.41
-217,-615,-4.28967,93.3335,0,0,0,0,0,0,0,-1,1007,1639,-4.28968,-93.3335
-210,-615,2.48901,18.9324,0,0,0,0,0,0,0,-1,1014,1639,2.48902,-18.9323
-203,-615,2.13684,18.6173,0,0,0,0,0,0,0,-1,1021,1639,2.13683,-18.6173
-196,-615,4.27161,21.3264,0,0,0,0,0,0,0,-1,1028,1639,4.27165,-21.3264
-189,-615,0.55249,62.4188,0,0,0,0,0,0,0,-1,1035,1639,0.55247,-62.4188
-182,-615,2.98364,52.7119,0,0,0,0,0,0,0,-1,1042,1639,2.9836,-52.7119
-175,-615,2.25159,49.2682,0,0,0,0,0,0,0,-1,1049,1639,2.25158,-49.2682
-168,-615,3.85754,15.472,0,0,0,0,0,0,0,-1,1056,1639,3.85757,-15.472
-161,-615,2.14307,46.5156,0,0,0,0,0,0,0,-1,1063,1639,2.14303,-46.5156
-154,-615,1.37329,47.9545,0,0,0,0,0,0,0,-1,1070,1639,1.37327,-47.9545
-147,-615,0.0180664,48.1396,0,0,0,0,0,0,0,-1,1077,1639,0.0180157,-48.1397
-140,-615,3.73401,10.2349,0,0,0,0,0,0,0,-1,1084,1639,3.73402,-10.2348
-133,-615,2.6178,17.45,0,0,0,0,0,0,0,-1,1091,1639,2.61776,-17.4499
-126,-615,4.43408,12.5017,0,0,0,0,0,0,0,-1,1098,1639,4.43403,-12.5018
-119,-615,4.82983,13.9279,0,0,0,0,0,0,0,-1,1105,1639,4.82986,-13.9278
-112,-615,3.65698,14.4874,0,0,0,0,0,0,0,-1,1112,1639,3.65695,-14.4875
-105,-615,0.958496,2.45398,0,0,0,0,0,0,0,-1,1119,1639,0.958452,-2.45398
-98,-615,-0.647705,2.12109,0,0,0,0,0,0,0,-1,1126,1639,-0.647756,-2.12105
-91,-615,-3.07983,2.97375,0,0,0,0,0,0,0,-1,1133,1639,-3.07989,-2.97376
-84,-615,-2.46509,0.703247,0,0,0,0,0,0,0,-1,1140,1639,-2.46505,-0.703273
-77,-615,-3.17859,1.23755,0,0,0,0,0,0,0,-1,1147,1639,-3.17865,-1.23752
-70,-615,-4.03943,1.43335,0,0,0,0,0,0,0,-1,1154,1639,-4.03942,-1.43339
-63,-615,-4.8877,1.45544,0,0,0,0,0,0,0,-1,1161,1639,-4.88766,-1.45549
-56,-615,0,0,0,0,0,0,0,0,0,-1,1168,1639,0,0
-49,-615,0,0,0,0,0,0,0,0,0,-1,1175,1639,0,0
-42,-615,0,0,0,0,0,0,0,0,0,-1,1182,1639,0,0
-35,-615,0,0,0,0,0,0,0,0,0,-1,1189,1639,0,0
-28,-615,0,0,0,0,0,0,0,0,0,-1,1196,1639,0,0
-21,-615,0,0,0,0,0,0,0,0,0,-1,1203,1639,0,0
-14,-615,0,0,0,0,0,0,0,0,0,-1,1210,1639,0,0
-7,-615,0,0,0,0,0,0,0,0,0,-1,1217,1639,0,0
0,-615,0,0,0,0,0,0,0,0,0,-1,1224,1639,0,0
7,-615,0,0,0,0,0,0,0,0,0,-1,1231,1639,0,0
14,-615,0,0,0,0,0,0,0,0,0,-1,1238,1639,0,0
21,-615,0,0,0,0,0,0,0,0,0,-1,1245,1639,0,0
28,-615,0,0,0,0,0,0,0,0,0,-1,1252,1639,0,0
35,-615,0,0,0,0,0,0,0,0,0,-1,1259,1639,0,0
42,-615,0,0,0,0,0,0,0,0,0,-1,1266,1639,0,0
49,-615,0,0,0,0,0,0,0,0,0,-1,1273,1639,0,0
56,-615,0,0,0,0,0,0,0,0,0,-1,1280,1639,0,0
63,-615,0,0,0,0,0,0,0,0,0,-1,1287,1639,0,0
70,-615,0,0,0,0,0,0,0,0,0,-1,1294,1639,0,0
77,-615,0,0,0,0,0,0,0,0,0,-1,1301,1639,0,0
84,-615,0,0,0,0,0,0,0,0,0,-1,1308,1639,0,0
91,-615,0,0,0,0,0,0,0,0,0,-1,1315,1639,0,0
98,-615,0,0,0,0,0,0,0,0,0,-1,1322,1639,0,0
105,-615,0,0,0,0,0,0,0,0,0,-1,1329,1639,0,0
112,-615,0,0,0,0,0,0,0,0,0,-1,1336,1639,0,0
119,-615,0,0,0,0,0,0,0,0,0,-1,1343,1639,0,0
126,-615,0,0,0,0,0,0,0,0,0,-1,1350,1639,0,0
133,-615,0,0,0,0,0,0,0,0,0,-1,1357,1639,0,0
140,-615,0,0,0,0,0,0,0,0,0,-1,1364,1639,0,0
147,-615,0,0,0,0,0,0,0,0,0,-1,1371,1639,0,0
154,-615,0,0,0,0,0,0,0,0,0,-1,1378,1639,0,0
161,-615,0,0,0,0,0,0,0,0,0,-1,1385,1639,0,0
168,-615,0,0,0,0,0,0,0,0,0,-1,1392,1639,0,0
175,-615,5.39648,-2.00879,0,0,0,0,0,0,0,-1,1399,1639,5.3965,2.00881
182,-615,5.65393,-1.51025,0,0,0,0,0,0,0,-1,1406,1639,5.65388,1.51028
189,-615,5.58972,-1.35608,0,0,0,0,0,0,0,-1,1413,1639,5.58967,1.35607
196,-615,5.49915,-0.693604,0,0,0,0,0,0,0,-1,1420,1639,5.4991,0.693602
203,-615,5.33411,-0.226685,0,0,0,0,0,0,0,-1,1427,1639,5.33414,0.226689
210,-615,5.60278,0.108276,0,0,0,0,0,0,0,-1,1434,1639,5.60284,-0.10831
217,-615,6.26331,-0.307373,0,0,0,0,0,0,0,-1,1441,1639,6.26331,0.307372
224,-615,5.45422,-0.333984,0,0,0,0,0,0,0,-1,1448,1639,5.45422,0.333992
231,-615,4.92542,1.80298,0,0,0,0,0,0,0,-1,1455,1639,4.92537,-1.80297
238,-615,4.76355,1.96729,0,0,0,0,0,0,0,-1,1462,1639,4.76357,-1.96734
245,-615,4.08643,3.15906,0,0,0,0,0,0,0,-1,1469,1639,4.08638,-3.159
252,-615,6.37805,3.73889,0,0,0,0,0,0,0,-1,1476,1639,6.37806,-3.73891
259,-615,8.35974,3.16443,0,0,0,0,0,0,0,-1,1483,1639,8.35975,-3.16444
266,-615,10.3414,2.58997,0,0,0,0,0,0,0,-1,1490,1639,10.3414,-2.58996
273,-615,6.57043,1.84766,0,0,0,0,0,0,0,-1,1497,1639,6.5704,-1.84771
280,-615,7.10449,3.23438,0,0,0,0,0,0,0,-1,1504,1639,7.10447,-3.23435
287,-615,7.35779,4.68542,0,0,0,0,0,0,0,-1,1511,1639,7.35776,-4.68546
294,-615,7.63733,6.29114,0,0,0,0,0,0,0,-1,1518,1639,7.63735,-6.29109
301,-615,8.47925,11.452,0,0,0,0,0,0,0,-1,1525,1639,8.47922,-11.452
308,-615,6.8114,10.9059,0,0,0,0,0,0,0,-1,1532,1639,6.81137,-10.9058
315,-615,5.1427,14.7251,0,0,0,0,0,0,0,-1,1539,1639,5.14269,-14.7251
322,-615,7.17981,17.6864,0,0,0,0,0,0,0,-1,1546,1639,7.17985,-17.6864
329,-615,7.62134,20.4354,0,0,0,0,0,0,0,-1,1553,1639,7.62139,-20.4354
336,-615,6.45007,14.1138,0,0,0,0,0,0,0,-1,1560,1639,6.45011,-14.1138
343,-615,2.40491,6.50134,0,0,0,0,0,0,0,-1,1567,1639,2.40489,-6.50137
350,-615,22.3712,92.9357,0,0,0,0,0,0,0,-1,1574,1639,22.3712,-92.9357
357,-615,24.0944,105.165,0,0,0,0,0,0,0,-1,1581,1639,24.0943,-105.165
364,-615,23.6659,113.769,0,0,0,0,0,0,0,-1,1588,1639,23.666,-113.769
371,-615,27.1198,170.181,0,0,0,0,0,0,0,-1,1595,1639,27.1197,-170.181
378,-615,27.8879,168.025,0,0,0,0,0,0,0,-1,1602,1639,27.8879,-168.025
385,-615,27.6085,165.769,0.0120128,0.0122202,-0.00325691,0.0153751,0.00885796,-0.801311,0.00891103,0.0408164,1609,1639,27.6085,-165.769
392,-615,27.2156,163.353,0.0104574,0.0102037,-0.0027475,0.013081,0.00758015,-0.762328,0.00758406,0.0352771,1616,1639,27.2156,-163.353
399,-615,26.8976,161.006,0.00899727,0.00819644,-0.00225264,0.0108848,0.0063089,-0.69744,0.00631084,0.0276999,1623,1639,26.8976,-161.006
406,-615,26.5244,158.727,0.00768241,0.00645326,-0.0017807,0.00895162,0.00518406,-0.619233,0.00518974,0.0147432,1630,1639,26.5244,-158.727
413,-615,26.1744,156.463,0.00657588,0.00521669,-0.00159165,0.00762695,0.00416562,-0.583627,0.00440968,0.0176789,1637,1639,26.1744,-156.463
420,-615,25.8146,154.203,0.00567394,0.00404672,-0.0015288,0.00659215,0.00312851,-0.540865,0.00380762,0.0176931,1644,1639,25.8146,-154.203
427,-615,25.4941,151.889,0.004797,0.0031584,-0.00153006,0.00571331,0.0022421,-0.539589,0.00332393,0.0180804,1651,1639,25.4941,-151.889
434,-615,25.1611,149.561,0.00391105,0.00233921,-0.00157112,0.00488186,0.0013684,-0.553483,0.00290782,0.0187251,1658,1639,25.1612,-149.561
441,-615,24.7616,147.256,0.00320879,0.00154882,-0.00169525,0.00426633,0.000491282,-0.557754,0.00269542,0.0210546,1665,1639,24.7616,-147.256
448,-615,24.374,144.937,0.00252299,0.000937367,-0.00181986,0.00371523,-0.000254871,-0.579971,0.002566,0.0195744,1672,1639,24.374,-144.937
455,-615,24.0144,142.627,0.00181385,0.000359891,-0.00193124,0.00315041,-0.000976665,-0.605385,0.0024905,0.0180881,1679,1639,24.0144,-142.627
462,-615,23.6,140.299,0.00116009,-0.000208249,-0.00200332,0.00259285,-0.001641,-0.620849,0.00246492,0.0226568,1686,1639,23.6,-140.299
469,-615,23.163,137.938,0.000736474,-0.000514316,-0.00222703,0.00242426,-0.0022021,-0.648514,0.00267206,0.017456,1693,1639,23.1629,-137.938
476,-615,22.744,135.509,0.000447314,-0.000974399,-0.00233543,0.00217768,-0.00270476,-0.637664,0.00282435,0.0168677,1700,1639,22.744,-135.509
483,-615,22.2959,133.23,0,0,0,0,0,0,0,-1,1707,1639,22.2959,-133.23
490,-615,22.0403,130.534,0,0,0,0,0,0,0,-1,1714,1639,22.0403,-130.534
497,-615,21.8047,89.4543,0,0,0,0,0,0,0,-1,1721,1639,21.8047,-89.4543
504,-615,16.4989,34.738,0,0,0,0,0,0,0,-1,1728,1639,16.4989,-34.738
511,-615,15.2349,30.2052,0,0,0,0,0,0,0,-1,1735,1639,15.2348,-30.2052
518,-615,13.2416,9.81812,0,0,0,0,0,0,0,-1,1742,1639,13.2416,-9.81813
525,-615,4.37524,3.90491,0,0,0,0,0,0,0,-1,1749,1639,4.37518,-3.90495
532,-615,7.3645,0.848145,0,0,0,0,0,0,0,-1,1756,1639,7.36451,-0.848093
539,-615,12.8112,-0.0476074,0,0,0,0,0,0,0,-1,1763,1639,12.8111,0.0475553
546,-615,8.33813,2.94556,0,0,0,0,0,0,0,-1,1770,1639,8.33813,-2.9455
553,-615,5.82532,-2.04199,0,0,0,0,0,0,0,-1,1777,1639,5.82534,2.04195
560,-615,0,0,0,0,0,0,0,0,0,-1,1784,1639,0,0
567,-615,0,0,0,0,0,0,0,0,0,-1,1791,1639,0,0
574,-615,0,0,0,0,0,0,0,0,0,-1,1798,1639,0,0
581,-615,0,0,0,0,0,0,0,0,0,-1,1805,1639,0,0
588,-615,0,0,0,0,0,0,0,0,0,-1,1812,1639,0,0
595,-615,0,0,0,0,0,0,0,0,0,-1,1819,1639,0,0
602,-615,0,0,0,0,0,0,0,0,0,-1,1826,1639,0,0
609,-615,0,0,0,0,0,0,0,0,0,-1,1833,1639,0,0
616,-615,0,0,0,0,0,0,0,0,0,-1,1840,1639,0,0
623,-615,0,0,0,0,0,0,0,0,0,-1,1847,1639,0,0
630,-615,0,0,0,0,0,0,0,0,0,-1,1854,1639,0,0
637,-615,0,0,0,0,0,0,0,0,0,-1,1861,1639,0,0
644,-615,0,0,0,0,0,0,0,0,0,-1,1868,1639,0,0
651,-615,0,0,0,0,0,0,0,0,0,-1,1875,1639,0,0
658,-615,0,0,0,0,0,0,0,0,0,-1,1882,1639,0,0
665,-615,0,0,0,0,0,0,0,0,0,-1,1889,1639,0,0
672,-615,0,0,0,0,0,0,0,0,0,-1,1896,1639,0,0
679,-615,0,0,0,0,0,0,0,0,0,-1,1903,1639,0,0
686,-615,0,0,0,0,0,0,0,0,0,-1,1910,1639,0,0
693,-615,0,0,0,0,0,0,0,0,0,-1,1917,1639,0,0
700,-615,0,0,0,0,0,0,0,0,0,-1,1924,1639,0,0
707,-615,0,0,0,0,0,0,0,0,0,-1,1931,1639,0,0
714,-615,0,0,0,0,0,0,0,0,0,-1,1938,1639,0,0
721,-615,0,0,0,0,0,0,0,0,0,-1,1945,1639,0,0
728,-615,0,0,0,0,0,0,0,0,0,-1,1952,1639,0,0
735,-615,0,0,0,0,0,0,0,0,0,-1,1959,1639,0,0
742,-615,0,0,0,0,0,0,0,0,0,-1,1966,1639,0,0
749,-615,0,0,0,0,0,0,0,0,0,-1,1973,1639,0,0
756,-615,0,0,0,0,0,0,0,0,0,-1,1980,1639,0,0
763,-615,0,0,0,0,0,0,0,0,0,-1,1987,1639,0,0
770,-615,0,0,0,0,0,0,0,0,0,-1,1994,1639,0,0
777,-615,0,0,0,0,0,0,0,0,0,-1,2001,1639,0,0
784,-615,0,0,0,0,0,0,0,0,0,-1,2008,1639,0,0
791,-615,0,0,0,0,0,0,0,0,0,-1,2015,1639,0,0
798,-615,0,0,0,0,0,0,0,0,0,-1,2022,1639,0,0
805,-615,0,0,0,0,0,0,0,0,0,-1,2029,1639,0,0
812,-615,0,0,0,0,0,0,0,0,0,-1,2036,1639,0,0
-700,-622,0,0,0,0,0,0,0,0,0,-1,524,1646,0,0
-693,-622,0,0,0,0,0,0,0,0,0,-1,531,1646,0,0
-686,-622,0,0,0,0,0,0,0,0,0,-1,538,1646,0,0
-679,-622,0,0,0,0,0,0,0,0,0,-1,545,1646,0,0
-672,-622,0,0,0,0,0,0,0,0,0,-1,552,1646,0,0
-665,-622,0,0,0,0,0,0,0,0,0,-1,559,1646,0,0
-658,-622,0,0,0,0,0,0,0,0,0,-1,566,1646,0,0
-651,-622,0,0,0,0,0,0,0,0,0,-1,573,1646,0,0
-644,-622,0,0,0,0,0,0,0,0,0,-1,580,1646,0,0
-637,-622,0,0,0,0,0,0,0,0,0,-1,587,1646,0,0
-630,-622,0,0,0,0,0,0,0,0,0,-1,594,1646,0,0
-623,-622,0,0,0,0,0,0,0,0,0,-1,601,1646,0,0
-616,-622,0,0,0,0,0,0,0,0,0,-1,608,1646,0,0
-609,-622,0,0,0,0,0,0,0,0,0,-1,615,1646,0,0
-602,-622,0,0,0,0,0,0,0,0,0,-1,622,1646,0,0
-595,-622,0,0,0,0,0,0,0,0,0,-1,629,1646,0,0
-588,-622,0,0,0,0,0,0,0,0,0,-1,636,1646,0,0
-581,-622,0,0,0,0,0,0,0,0,0,-1,643,1646,0,0
-574,-622,0,0,0,0,0,0,0,0,0,-1,650,1646,0,0
-567,-622,0,0,0,0,0,0,0,0,0,-1,657,1646,0,0
-560,-622,0,0,0,0,0,0,0,0,0,-1,664,1646,0,0
-553,-622,0,0,0,0,0,0,0,0,0,-1,671,1646,0,0
-546,-622,0,0,0,0,0,0,0,0,0,-1,678,1646,0,0
-539,-622,0,0,0,0,0,0,0,0,0,-1,685,1646,0,0
-532,-622,0,0,0,0,0,0,0,0,0,-1,692,1646,0,0
-525,-622,0,0,0,0,0,0,0,0,0,-1,699,1646,0,0
-518,-622,0,0,0,0,0,0,0,0,0,-1,706,1646,0,0
-511,-622,0,0,0,0,0,0,0,0,0,-1,713,1646,0,0
-504,-622,0,0,0,0,0,0,0,0,0,-1,720,1646,0,0
-497,-622,0,0,0,0,0,0,0,0,0,-1,727,1646,0,0
-490,-622,0,0,0,0,0,0,0,0,0,-1,734,1646,0,0
-483,-622,0,0,0,0,0,0,0,0,0,-1,741,1646,0,0
-476,-622,0,0,0,0,0,0,0,0,0,-1,748,1646,0,0
-469,-622,0,0,0,0,0,0,0,0,0,-1,755,1646,0,0
-462,-622,0,0,0,0,0,0,0,0,0,-1,762,1646,0,0
-455,-622,0,0,0,0,0,0,0,0,0,-1,769,1646,0,0
-448,-622,0,0,0,0,0,0,0,0,0,-1,776,1646,0,0
-441,-622,0,0,0,0,0,0,0,0,0,-1,783,1646,0,0
-434,-622,0,0,0,0,0,0,0,0,0,-1,790,1646,0,0
-427,-622,-7.62891,3.48096,0,0,0,0,0,0,0,-1,797,1646,-7.62892,-3.48092
-420,-622,-9.35791,1.77185,0,0,0,0,0,0,0,-1,804,1646,-9.35789,-1.77183
-413,-622,-8.46075,1.96777,0,0,0,0,0,0,0,-1,811,1646,-8.46074,-1.96774
-406,-622,-4.44318,2.16858,0,0,0,0,0,0,0,-1,818,1646,-4.44315,-2.16859
-399,-622,-7.06976,1.51001,0,0,0,0,0,0,0,-1,825,1646,-7.06976,-1.51005
-392,-622,3.89551,5.85376,0,0,0,0,0,0,0,-1,832,1646,3.8955,-5.85379
-385,-622,2.00543,14.0448,0,0,0,0,0,0,0,-1,839,1646,2.00544,-14.0448
-378,-622,1.49036,15.3436,0,0,0,0,0,0,0,-1,846,1646,1.49033,-15.3436
-371,-622,1.5274,38.0657,0,0,0,0,0,0,0,-1,853,1646,1.5274,-38.0657
-364,-622,-0.301086,49.736,0,0,0,0,0,0,0,-1,860,1646,-0.301086,-49.736
-357,-622,0.0578003,53.6583,0,0,0,0,0,0,0,-1,867,1646,0.0578109,-53.6584
-350,-622,-10.2404,105.288,0,0,0,0,0,0,0,-1,874,1646,-10.2404,-105.288
-343,-622,-14.6667,135.314,0,0,0,0,0,0,0,-1,881,1646,-14.6667,-135.314
-336,-622,-14.9836,137.818,0.00093177,0.00321695,0.00540081,0.00759471,-0.00344599,0.889641,0.00652263,0.0288618,888,1646,-14.9836,-137.818
-329,-622,-15.4006,140.293,0.000637363,0.00257546,0.00445263,0.00616327,-0.00295045,0.892545,0.00536969,0.0108925,895,1646,-15.4005,-140.293
-322,-622,-15.8029,142.696,0.000500207,0.00198522,0.00353094,0.00485088,-0.00236546,0.889031,0.00424792,0.0124964,902,1646,-15.8028,-142.696
-315,-622,-16.1899,145.089,0.000567036,0.00144593,0.00270278,0.00374475,-0.00173179,0.865988,0.00323229,0.0198543,909,1646,-16.1899,-145.089
-308,-622,-16.5172,147.484,0.00103566,0.00115991,0.00209222,0.00319093,-0.00099536,0.800241,0.00252533,0.0216205,916,1646,-16.5171,-147.484
-301,-622,-16.9544,149.76,0.00168911,0.00101085,0.00160097,0.00298647,-0.000286515,0.681027,0.00209303,0.0191626,923,1646,-16.9544,-149.76
-294,-622,-17.3495,152.084,0.00243213,0.000931891,0.00124097,0.00313207,0.000231949,0.51355,0.00201519,0.0131492,930,1646,-17.3495,-152.084
-287,-622,-17.7267,154.397,0.00334741,0.000975875,0.000931373,0.00366946,0.000653829,0.332906,0.00226011,0.0108602,937,1646,-17.7267,-154.397
-280,-622,-18.1147,156.693,0.00466689,0.0012217,0.000722468,0.00481226,0.00107633,0.198562,0.00291637,0.012897,944,1646,-18.1147,-156.693
-273,-622,-18.467,158.972,0.00619103,0.00180493,0.000659711,0.00628811,0.00170785,0.146104,0.00375458,0.0217679,951,1646,-18.4671,-158.972
-266,-622,-18.857,161.225,0.00769548,0.00251956,0.000584819,0.00776074,0.0024543,0.111122,0.00458041,0.0231325,958,1646,-18.857,-161.225
-259,-622,-19.1555,163.553,0.00946,0.00332013,0.000522232,0.00950411,0.00327602,0.0842492,0.00557473,0.0184957,965,1646,-19.1554,-163.553
-252,-622,-19.5078,165.784,0.0112454,0.00440697,0.000328927,0.0112612,0.00439119,0.0479523,0.00655394,0.0260327,972,1646,-19.5078,-165.784
-245,-622,-19.7447,168.098,0,0,0,0,0,0,0,-1,979,1646,-19.7447,-168.098
-238,-622,-17.7687,158.472,0,0,0,0,0,0,0,-1,986,1646,-17.7687,-158.472
-231,-622,-20.1993,173.253,0,0,0,0,0,0,0,-1,993,1646,-20.1993,-173.253
-224,-622,-20.266,175.51,0,0,0,0,0,0,0,-1,1000,1646,-20.266,-175.51
-217,-622,-20.2098,176.355,0,0,0,0,0,0,0,-1,1007,1646,-20.2097,-176.355
-210,-622,0.891846,61.1121,0,0,0,0,0,0,0,-1,1014,1646,0.89187,-61.112
-203,-622,4.21375,20.9574,0,0,0,0,0,0,0,-1,1021,1646,4.21375,-20.9574
-196,-622,1.65784,62.3484,0,0,0,0,0,0,0,-1,1028,1646,1.65785,-62.3484
-189,-622,-7.52905,121.878,0,0,0,0,0,0,0,-1,1035,1646,-7.52904,-121.878
-182,-622,0.0473633,63.868,0,0,0,0,0,0,0,-1,1042,1646,0.0473535,-63.8681
-175,-622,3.61438,53.5428,0,0,0,0,0,0,0,-1,1049,1646,3.61438,-53.5428
-168,-622,3.44849,53.4453,0,0,0,0,0,0,0,-1,1056,1646,3.44848,-53.4453
-161,-622,2.79761,52.5291,0,0,0,0,0,0,0,-1,1063,1646,2.79756,-52.529
-154,-622,2.00879,52.2384,0,0,0,0,0,0,0,-1,1070,1646,2.00874,-52.2384
-147,-622,0.939453,52.2694,0,0,0,0,0,0,0,-1,1077,1646,0.939511,-52.2694
-140,-622,0.546997,48.6783,0,0,0,0,0,0,0,-1,1084,1646,0.547022,-48.6784
-133,-622,3.09644,17.677,0,0,0,0,0,0,0,-1,1091,1646,3.09638,-17.677
-126,-622,3.5061,19.5251,0,0,0,0,0,0,0,-1,1098,1646,3.50616,-19.5252
-119,-622,4.06384,13.1715,0,0,0,0,0,0,0,-1,1105,1646,4.06379,-13.1716
-112,-622,4.33276,14.6605,0,0,0,0,0,0,0,-1,1112,1646,4.33281,-14.6605
-105,-622,0.306519,4.38159,0,0,0,0,0,0,0,-1,1119,1646,0.306536,-4.38159
-98,-622,-0.510376,3.5033,0,0,0,0,0,0,0,-1,1126,1646,-0.510393,-3.50324
-91,-622,-1.146,0.975952,0,0,0,0,0,0,0,-1,1133,1646,-1.14599,-0.97597
-84,-622,-2.04895,1.31787,0,0,0,0,0,0,0,-1,1140,1646,-2.0489,-1.31781
-77,-622,-1.80627,0.332275,0,0,0,0,0,0,0,-1,1147,1646,-1.80622,-0.33223
-70,-622,-3.65588,2.28149,0,0,0,0,0,0,0,-1,1154,1646,-3.65589,-2.28155
-63,-622,-2.49683,1.27087,0,0,0,0,0,0,0,-1,1161,1646,-2.49679,-1.27093
-56,-622,-2.44238,-0.575562,0,0,0,0,0,0,0,-1,1168,1646,-2.44242,0.575508
-49,-622,-2.41089,1.38818,0,0,0,0,0,0,0,-1,1175,1646,-2.41088,-1.38815
-42,-622,-2.71497,2.85242,0,0,0,0,0,0,0,-1,1182,1646,-2.71491,-2.85247
-35,-622,-3.0177,4.25842,0,0,0,0,0,0,0,-1,1189,1646,-3.01773,-4.25838
-28,-622,-0.896606,0.678833,0,0,0,0,0,0,0,-1,1196,1646,-0.89661,-0.678835
-21,-622,-6.8219,165.735,0,0,0,0,0,0,0,-1,1203,1646,-6.82187,-165.735
-14,-622,14.2158,207.352,0,0,0,0,0,0,0,-1,1210,1646,14.2158,-207.352
-7,-622,13.6969,208.004,0,0,0,0,0,0,0,-1,1217,1646,13.6969,-208.004
0,-622,0,0,0,0,0,0,0,0,0,-1,1224,1646,0,0
7,-622,0,0,0,0,0,0,0,0,0,-1,1231,1646,0,0
14,-622,0,0,0,0,0,0,0,0,0,-1,1238,1646,0,0
21,-622,0,0,0,0,0,0,0,0,0,-1,1245,1646,0,0
28,-622,0,0,0,0,0,0,0,0,0,-1,1252,1646,0,0
35,-622,0,0,0,0,0,0,0,0,0,-1,1259,1646,0,0
42,-622,0,0,0,0,0,0,0,0,0,-1,1266,1646,0,0
49,-622,0,0,0,0,0,0,0,0,0,-1,1273,1646,0,0
56,-622,0,0,0,0,0,0,0,0,0,-1,1280,1646,0,0
63,-622,0,0,0,0,0,0,0,0,0,-1,1287,1646,0,0
70,-622,0,0,0,0,0,0,0,0,0,-1,1294,1646,0,0
77,-622,0,0,0,0,0,0,0,0,0,-1,1301,1646,0,0
84,-622,0,0,0,0,0,0,0,0,0,-1,1308,1646,0,0
91,-622,0,0,0,0,0,0,0,0,0,-1,1315,1646,0,0
98,-622,0,0,0,0,0,0,0,0,0,-1,1322,1646,0,0
105,-622,0,0,0,0,0,0,0,0,0,-1,1329,1646,0,0
112,-622,0,0,0,0,0,0,0,0,0,-1,1336,1646,0,0
119,-622,0,0,0,0,0,0,0,0,0,-1,1343,1646,0,0
126,-622,5.35596,212.15,0,0,0,0,0,0,0,-1,1350,1646,5.35594,-212.15
133,-622,5.39441,210.275,0,0,0,0,0,0,0,-1,1357,1646,5.39439,-210.275
140,-622,5.34595,208.973,0,0,0,0,0,0,0,-1,1364,1646,5.34596,-208.973
147,-622,5.37158,207.63,0,0,0,0,0,0,0,-1,1371,1646,5.37162,-207.63
154,-622,-0.105103,203.615,0,0,0,0,0,0,0,-1,1378,1646,-0.105079,-203.615
161,-622,10.6884,6.46448,0,0,0,0,0,0,0,-1,1385,1646,10.6883,-6.46442
168,-622,12.2402,5.18091,0,0,0,0,0,0,0,-1,1392,1646,12.2403,-5.1809
175,-622,5.64355,-1.77075,0,0,0,0,0,0,0,-1,1399,1646,5.64351,1.77077
182,-622,5.88586,-1.32251,0,0,0,0,0,0,0,-1,1406,1646,5.88587,1.32256
189,-622,5.97986,-1.18005,0,0,0,0,0,0,0,-1,1413,1646,5.97986,1.18003
196,-622,5.85022,-0.244507,0,0,0,0,0,0,0,-1,1420,1646,5.85026,0.244478
203,-622,5.25159,0.138794,0,0,0,0,0,0,0,-1,1427,1646,5.25162,-0.138822
210,-622,6.66833,0.0397949,0,0,0,0,0,0,0,-1,1434,1646,6.6684,-0.0398278
217,-622,6.12061,0.0506592,0,0,0,0,0,0,0,-1,1441,1646,6.12058,-0.0507181
224,-622,5.57275,0.0616455,0,0,0,0,0,0,0,-1,1448,1646,5.57276,-0.0616084
231,-622,5.31348,1.3949,0,0,0,0,0,0,0,-1,1455,1646,5.31342,-1.39495
238,-622,3.76477,2.90686,0,0,0,0,0,0,0,-1,1462,1646,3.7648,-2.90686
245,-622,5.13794,2.67993,0,0,0,0,0,0,0,-1,1469,1646,5.13796,-2.67992
252,-622,6.66528,2.53992,0,0,0,0,0,0,0,-1,1476,1646,6.66522,-2.53991
259,-622,8.93787,3.31458,0,0,0,0,0,0,0,-1,1483,1646,8.93791,-3.31454
266,-622,5.72644,3.11926,0,0,0,0,0,0,0,-1,1490,1646,5.72647,-3.1192
273,-622,7.28076,3.61218,0,0,0,0,0,0,0,-1,1497,1646,7.28071,-3.61212
280,-622,8.43127,4.4447,0,0,0,0,0,0,0,-1,1504,1646,8.43123,-4.44467
287,-622,8.60315,5.94617,0,0,0,0,0,0,0,-1,1511,1646,8.60319,-5.94622
294,-622,7.62756,11.5143,0,0,0,0,0,0,0,-1,1518,1646,7.62762,-11.5143
301,-622,7.36548,11.6569,0,0,0,0,0,0,0,-1,1525,1646,7.36549,-11.6569
308,-622,7.10339,11.7994,0,0,0,0,0,0,0,-1,1532,1646,7.10335,-11.7995
315,-622,8.28687,16.5842,0,0,0,0,0,0,0,-1,1539,1646,8.28689,-16.5843
322,-622,7.43689,20.5786,0,0,0,0,0,0,0,-1,1546,1646,7.43685,-20.5786
329,-622,9.76477,26.4202,0,0,0,0,0,0,0,-1,1553,1646,9.7648,-26.4202
336,-622,21.3851,107.279,0,0,0,0,0,0,0,-1,1560,1646,21.3852,-107.279
343,-622,22.0696,109.882,0,0,0,0,0,0,0,-1,1567,1646,22.0696,-109.882
350,-622,26.6602,170.982,0,0,0,0,0,0,0,-1,1574,1646,26.6602,-170.982
357,-622,26.6694,174.602,0,0,0,0,0,0,0,-1,1581,1646,26.6695,-174.602
364,-622,26.0117,173.4,0,0,0,0,0,0,0,-1,1588,1646,26.0117,-173.4
371,-622,25.699,171.016,0,0,0,0,0,0,0,-1,1595,1646,25.699,-171.016
378,-622,25.515,168.339,0.0116696,0.0103777,-0.00264096,0.0137424,0.00830483,-0.665461,0.00799156,0.0286108,1602,1646,25.515,-168.339
385,-622,25.2662,165.902,0.0102582,0.00906812,-0.00243138,0.0121663,0.00716003,-0.665391,0.0070608,0.014707,1609,1646,25.2662,-165.902
392,-622,24.9219,163.68,0.00887702,0.00751684,-0.00214452,0.0104467,0.00594715,-0.63185,0.00605068,0.0165124,1616,1646,24.9218,-163.68
399,-622,24.5753,161.424,0.00759972,0.00600152,-0.00188305,0.00884621,0.00475503,-0.584732,0.00511215,0.015832,1623,1646,24.5754,-161.424
406,-622,24.2368,159.121,0.00646136,0.00469269,-0.00161288,0.00741644,0.00373762,-0.534632,0.00428193,0.0190697,1630,1646,24.2368,-159.121
413,-622,23.8977,156.839,0.00553652,0.00380449,-0.00160895,0.00649772,0.00284329,-0.538511,0.00376119,0.0220852,1637,1646,23.8977,-156.839
420,-622,23.5085,154.617,0.00474774,0.00294788,-0.00167396,0.00574834,0.00194729,-0.538759,0.00337584,0.0206983,1644,1646,23.5085,-154.617
427,-622,23.1595,152.275,0.0039982,0.00234332,-0.00180653,0.00515777,0.00118375,-0.570644,0.00311971,0.0172114,1651,1646,23.1595,-152.275
434,-622,22.8093,149.911,0.00325271,0.00178281,-0.0019644,0.00461514,0.000420383,-0.606392,0.00294665,0.0188333,1658,1646,22.8094,-149.911
441,-622,22.4358,147.607,0.00264962,0.00126526,-0.00219213,0.00425626,-0.000341375,-0.632474,0.00295787,0.020201,1665,1646,22.4358,-147.607
448,-622,22.0626,145.308,0.0020424,0.000831261,-0.00240151,0.00391351,-0.00103985,-0.661892,0.00301598,0.0176994,1672,1646,22.0627,-145.309
455,-622,21.6914,143.014,0.0014258,0.00040031,-0.00258539,0.0035488,-0.00172269,-0.687506,0.00310377,0.019507,1679,1646,21.6914,-143.014
462,-622,21.2838,140.688,0.00087536,-3.93471e-05,-0.0027325,0.00318851,-0.0023525,-0.702479,0.00321122,0.0224464,1686,1646,21.2838,-140.688
469,-622,20.8185,138.318,0.000646788,-5.64736e-05,-0.00315155,0.00346626,-0.00287595,-0.729841,0.00366696,0.0257954,1693,1646,20.8184,-138.318
476,-622,20.392,135.864,0,0,0,0,0,0,0,-1,1700,1646,20.3919,-135.864
483,-622,20.4073,110.002,0,0,0,0,0,0,0,-1,1707,1646,20.4073,-110.002
490,-622,20.0802,71.223,0,0,0,0,0,0,0,-1,1714,1646,20.0802,-71.223
497,-622,20.1091,60.8011,0,0,0,0,0,0,0,-1,1721,1646,20.1091,-60.8012
504,-622,10.8306,19.8021,0,0,0,0,0,0,0,-1,1728,1646,10.8306,-19.8022
511,-622,5.29004,4.14587,0,0,0,0,0,0,0,-1,1735,1646,5.29008,-4.14589
518,-622,5.6001,1.55359,0,0,0,0,0,0,0,-1,1742,1646,5.60015,-1.5536
525,-622,5.83093,2.01807,0,0,0,0,0,0,0,-1,1749,1646,5.83097,-2.01802
532,-622,5.44202,0.57373,0,0,0,0,0,0,0,-1,1756,1646,5.44196,-0.573705
539,-622,9.32129,1.06116,0,0,0,0,0,0,0,-1,1763,1646,9.32131,-1.0612
546,-622,6.50977,-3.45618,0,0,0,0,0,0,0,-1,1770,1646,6.50981,3.4562
553,-622,0,0,0,0,0,0,0,0,0,-1,1777,1646,0,0
560,-622,0,0,0,0,0,0,0,0,0,-1,1784,1646,0,0
567,-622,0,0,0,0,0,0,0,0,0,-1,1791,1646,0,0
574,-622,0,0,0,0,0,0,0,0,0,-1,1798,1646,0,0
581,-622,0,0,0,0,0,0,0,0,0,-1,1805,1646,0,0
588,-622,0,0,0,0,0,0,0,0,0,-1,1812,1646,0,0
595,-622,0,0,0,0,0,0,0,0,0,-1,1819,1646,0,0
602,-622,0,0,0,0,0,0,0,0,0,-1,1826,1646,0,0
609,-622,0,0,0,0,0,0,0,0,0,-1,1833,1646,0,0
616,-622,0,0,0,0,0,0,0,0,0,-1,1840,1646,0,0
623,-622,0,0,0,0,0,0,0,0,0,-1,1847,1646,0,0
630,-622,0,0,0,0,0,0,0,0,0,-1,1854,1646,0,0
637,-622,0,0,0,0,0,0,0,0,0,-1,1861,1646,0,0
644,-622,0,0,0,0,0,0,0,0,0,-1,1868,1646,0,0
651,-622,0,0,0,0,0,0,0,0,0,-1,1875,1646,0,0
658,-622,0,0,0,0,0,0,0,0,0,-1,1882,1646,0,0
665,-622,0,0,0,0,0,0,0,0,0,-1,1889,1646,0,0
672,-622,0,0,0,0,0,0,0,0,0,-1,1896,1646,0,0
679,-622,0,0,0,0,0,0,0,0,0,-1,1903,1646,0,0
686,-622,0,0,0,0,0,0,0,0,0,-1,1910,1646,0,0
693,-622,0,0,0,0,0,0,0,0,0,-1,1917,1646,0,0
700,-622,0,0,0,0,0,0,0,0,0,-1,1924,1646,0,0
707,-622,0,0,0,0,0,0,0,0,0,-1,1931,1646,0,0
714,-622,0,0,0,0,0,0,0,0,0,-1,1938,1646,0,0
721,-622,0,0,0,0,0,0,0,0,0,-1,1945,1646,0,0
728,-622,0,0,0,0,0,0,0,0,0,-1,1952,1646,0,0
735,-622,0,0,0,0,0,0,0,0,0,-1,1959,1646,0,0
742,-622,0,0,0,0,0,0,0,0,0,-1,1966,1646,0,0
749,-622,0,0,0,0,0,0,0,0,0,-1,1973,1646,0,0
756,-622,0,0,0,0,0,0,0,0,0,-1,1980,1646,0,0
763,-622,0,0,0,0,0,0,0,0,0,-1,1987,1646,0,0
770,-622,0,0,0,0,0,0,0,0,0,-1,1994,1646,0,0
777,-622,0,0,0,0,0,0,0,0,0,-1,2001,1646,0,0
784,-622,0,0,0,0,0,0,0,0,0,-1,2008,1646,0,0
791,-622,0,0,0,0,0,0,0,0,0,-1,2015,1646,0,0
798,-622,0,0,0,0,0,0,0,0,0,-1,2022,1646,0,0
805,-622,0,0,0,0,0,0,0,0,0,-1,2029,1646,0,0
812,-622,0,0,0,0,0,0,0,0,0,-1,2036,1646,0,0
-700,-629,0,0,0,0,0,0,0,0,0,-1,524,1653,0,0
-693,-629,0,0,0,0,0,0,0,0,0,-1,531,1653,0,0
-686,-629,0,0,0,0,0,0,0,0,0,-1,538,1653,0,0
-679,-629,0,0,0,0,0,0,0,0,0,-1,545,1653,0,0
-672,-629,0,0,0,0,0,0,0,0,0,-1,552,1653,0,0
-665,-629,0,0,0,0,0,0,0,0,0,-1,559,1653,0,0
-658,-629,0,0,0,0,0,0,0,0,0,-1,566,1653,0,0
-651,-629,0,0,0,0,0,0,0,0,0,-1,573,1653,0,0
-644,-629,0,0,0,0,0,0,0,0,0,-1,580,1653,0,0
-637,-629,0,0,0,0,0,0,0,0,0,-1,587,1653,0,0
-630,-629,0,0,0,0,0,0,0,0,0,-1,594,1653,0,0
-623,-629,0,0,0,0,0,0,0,0,0,-1,601,1653,0,0
-616,-629,0,0,0,0,0,0,0,0,0,-1,608,1653,0,0
-609,-629,0,0,0,0,0,0,0,0,0,-1,615,1653,0,0
-602,-629,0,0,0,0,0,0,0,0,0,-1,622,1653,0,0
-595,-629,0,0,0,0,0,0,0,0,0,-1,629,1653,0,0
-588,-629,0,0,0,0,0,0,0,0,0,-1,636,1653,0,0
-581,-629,0,0,0,0,0,0,0,0,0,-1,643,1653,0,0
-574,-629,0,0,0,0,0,0,0,0,0,-1,650,1653,0,0
-567,-629,0,0,0,0,0,0,0,0,0,-1,657,1653,0,0
-560,-629,0,0,0,0,0,0,0,0,0,-1,664,1653,0,0
-553,-629,0,0,0,0,0,0,0,0,0,-1,671,1653,0,0
-546,-629,0,0,0,0,0,0,0,0,0,-1,678,1653,0,0
-539,-629,0,0,0,0,0,0,0,0,0,-1,685,1653,0,0
-532,-629,0,0,0,0,0,0,0,0,0,-1,692,1653,0,0
-525,-629,0,0,0,0,0,0,0,0,0,-1,699,1653,0,0
-518,-629,0,0,0,0,0,0,0,0,0,-1,706,1653,0,0
-511,-629,0,0,0,0,0,0,0,0,0,-1,713,1653,0,0
-504,-629,0,0,0,0,0,0,0,0,0,-1,720,1653,0,0
-497,-629,0,0,0,0,0,0,0,0,0,-1,727,1653,0,0
-490,-629,0,0,0,0,0,0,0,0,0,-1,734,1653,0,0
-483,-629,0,0,0,0,0,0,0,0,0,-1,741,1653,0,0
-476,-629,0,0,0,0,0,0,0,0,0,-1,748,1653,0,0
-469,-629,0,0,0,0,0,0,0,0,0,-1,755,1653,0,0
-462,-629,0,0,0,0,0,0,0,0,0,-1,762,1653,0,0
-455,-629,0,0,0,0,0,0,0,0,0,-1,769,1653,0,0
-448,-629,0,0,0,0,0,0,0,0,0,-1,776,1653,0,0
-441,-629,0,0,0,0,0,0,0,0,0,-1,783,1653,0,0
-434,-629,0,0,0,0,0,0,0,0,0,-1,790,1653,0,0
-427,-629,0,0,0,0,0,0,0,0,0,-1,797,1653,0,0
-420,-629,-3.87103,3.37634,0,0,0,0,0,0,0,-1,804,1653,-3.87101,-3.37633
-413,-629,-5.69751,1.33582,0,0,0,0,0,0,0,-1,811,1653,-5.69754,-1.3358
-406,-629,2.85406,6.01501,0,0,0,0,0,0,0,-1,818,1653,2.85405,-6.01507
-399,-629,-0.455627,10.8687,0,0,0,0,0,0,0,-1,825,1653,-0.455625,-10.8687
-392,-629,1.15369,11.1295,0,0,0,0,0,0,0,-1,832,1653,1.1537,-11.1295
-385,-629,1.81976,11.6935,0,0,0,0,0,0,0,-1,839,1653,1.81975,-11.6935
-378,-629,2.19452,14.7941,0,0,0,0,0,0,0,-1,846,1653,2.19451,-14.7941
-371,-629,3.60114,14.7299,0,0,0,0,0,0,0,-1,853,1653,3.60113,-14.7299
-364,-629,3.26898,21.0801,0,0,0,0,0,0,0,-1,860,1653,3.26895,-21.08
-357,-629,4.38782,16.3444,0,0,0,0,0,0,0,-1,867,1653,4.38783,-16.3443
-350,-629,-0.262939,58.4408,0,0,0,0,0,0,0,-1,874,1653,-0.26293,-58.4408
-343,-629,-9.90247,117.128,0,0,0,0,0,0,0,-1,881,1653,-9.9025,-117.128
-336,-629,-12.6618,137.989,0,0,0,0,0,0,0,-1,888,1653,-12.6618,-137.989
-329,-629,-13.0704,140.696,-0.00020799,0.00378224,0.00549432,0.00763246,-0.00405821,0.959557,0.00685396,0.034233,895,1653,-13.0704,-140.696
-322,-629,-13.4634,143.079,-0.000491644,0.00283859,0.00434415,0.00582581,-0.00347886,0.968412,0.00542872,0.0174013,902,1653,-13.4635,-143.079
-315,-629,-13.8682,145.47,-0.000617402,0.0018882,0.00327455,0.00414142,-0.00287062,0.968101,0.0040705,0.0212718,909,1653,-13.8682,-145.47
-308,-629,-14.2031,147.816,-0.000302645,0.00140739,0.00252196,0.00321533,-0.00211058,0.948832,0.00309689,0.0196466,916,1653,-14.203,-147.816
-301,-629,-14.6465,150.182,0.000248473,0.0011046,0.00194538,0.00266846,-0.00131538,0.893693,0.00234388,0.0170797,923,1653,-14.6465,-150.182
-294,-629,-15.0389,152.533,0.00090111,0.000875872,0.00151833,0.00240687,-0.000629887,0.781243,0.00185063,0.0163768,930,1653,-15.0389,-152.533
-287,-629,-15.4005,154.8,0.0017309,0.00078253,0.00114238,0.00249359,1.98316e-05,0.588677,0.00165582,0.0125481,937,1653,-15.4005,-154.8
-280,-629,-15.7918,157.096,0.0029098,0.000871049,0.000859467,0.00322377,0.00055708,0.350246,0.00198966,0.0126858,944,1653,-15.7918,-157.096
-273,-629,-16.1803,159.37,0.00427897,0.00122864,0.000728901,0.00444419,0.00106342,0.222913,0.00267961,0.0197867,951,1653,-16.1803,-159.37
-266,-629,-16.5452,161.639,0.00567372,0.00170273,0.000610979,0.0057656,0.00161085,0.149262,0.00343508,0.0211865,958,1653,-16.5452,-161.639
-259,-629,-16.8636,163.942,0.00730895,0.00222701,0.000459972,0.00735025,0.00218572,0.0895415,0.00435828,0.0185826,965,1653,-16.8636,-163.942
-252,-629,-17.2009,166.209,0.00899839,0.00297649,0.000186699,0.00900417,0.0029707,0.0309637,0.00529786,0.0163755,972,1653,-17.2009,-166.21
-245,-629,-17.5331,168.516,0,0,0,0,0,0,0,-1,979,1653,-17.5331,-168.516
-238,-629,-17.7833,170.717,0,0,0,0,0,0,0,-1,986,1653,-17.7832,-170.717
-231,-629,-18.1339,173.083,0.015622,0.0059199,-0.000575712,0.015656,0.00588585,-0.0590627,0.00913128,0.0409422,993,1653,-18.1339,-173.083
-224,-629,-18.2681,175.401,0.018204,0.00723005,-0.000769638,0.0182577,0.00717634,-0.0696785,0.0106212,0.0373624,1000,1653,-18.2681,-175.401
-217,-629,-18.6634,177.596,0,0,0,0,0,0,0,-1,1007,1653,-18.6634,-177.596
-210,-629,-18.8156,178.822,0,0,0,0,0,0,0,-1,1014,1653,-18.8156,-178.822
-203,-629,-19.5888,179.579,0,0,0,0,0,0,0,-1,1021,1653,-19.5888,-179.579
-196,-629,-18.1288,182.756,0,0,0,0,0,0,0,-1,1028,1653,-18.1288,-182.756
-189,-629,-8.75793,131.552,0,0,0,0,0,0,0,-1,1035,1653,-8.75788,-131.552
-182,-629,-7.33752,126.11,0,0,0,0,0,0,0,-1,1042,1653,-7.33758,-126.11
-175,-629,-0.0251465,65.663,0,0,0,0,0,0,0,-1,1049,1653,-0.025117,-65.663
-168,-629,3.94775,55.7037,0,0,0,0,0,0,0,-1,1056,1653,3.94774,-55.7038
-161,-629,3.2146,53.0543,0,0,0,0,0,0,0,-1,1063,1653,3.21462,-53.0543
-154,-629,2.30042,52.7101,0,0,0,0,0,0,0,-1,1070,1653,2.30043,-52.7101
-147,-629,1.22363,52.6086,0,0,0,0,0,0,0,-1,1077,1653,1.22368,-52.6087
-140,-629,3.68201,55.7941,0,0,0,0,0,0,0,-1,1084,1653,3.68206,-55.7941
-133,-629,1.99792,57.769,0,0,0,0,0,0,0,-1,1091,1653,1.99792,-57.769
-126,-629,4.01025,19.5328,0,0,0,0,0,0,0,-1,1098,1653,4.01022,-19.5328
-119,-629,4.94177,13.5525,0,0,0,0,0,0,0,-1,1105,1653,4.94172,-13.5525
-112,-629,5.63123,15.9187,0,0,0,0,0,0,0,-1,1112,1653,5.63118,-15.9187
-105,-629,2.15881,4.38342,0,0,0,0,0,0,0,-1,1119,1653,2.15878,-4.38347
-98,-629,0.825806,4.19385,0,0,0,0,0,0,0,-1,1126,1653,0.825779,-4.1939
-91,-629,-0.452271,3.64465,0,0,0,0,0,0,0,-1,1133,1653,-0.452278,-3.6446
-84,-629,-2.6084,0.466797,0,0,0,0,0,0,0,-1,1140,1653,-2.6084,-0.466786
-77,-629,-3.50903,2.10706,0,0,0,0,0,0,0,-1,1147,1653,-3.509,-2.10707
-70,-629,-1.20886,2.52502,0,0,0,0,0,0,0,-1,1154,1653,-1.20886,-2.525
-63,-629,-0.960693,4.30212,0,0,0,0,0,0,0,-1,1161,1653,-0.960691,-4.30215
-56,-629,-1.31934,5.64343,0,0,0,0,0,0,0,-1,1168,1653,-1.31928,-5.6434
-49,-629,-2.15662,2.57458,0,0,0,0,0,0,0,-1,1175,1653,-2.15656,-2.57459
-42,-629,-2.46326,3.91467,0,0,0,0,0,0,0,-1,1182,1653,-2.4633,-3.91466
-35,-629,-2.67261,5.24292,0,0,0,0,0,0,0,-1,1189,1653,-2.67257,-5.24298
-28,-629,-0.402954,-0.866577,0,0,0,0,0,0,0,-1,1196,1653,-0.402943,0.866612
-21,-629,3.45508,27.0596,0,0,0,0,0,0,0,-1,1203,1653,3.45508,-27.0596
-14,-629,13.4379,207.635,0,0,0,0,0,0,0,-1,1210,1653,13.4379,-207.635
-7,-629,24.397,219.831,0,0,0,0,0,0,0,-1,1217,1653,24.3969,-219.831
0,-629,22.8854,219.796,0,0,0,0,0,0,0,-1,1224,1653,22.8854,-219.796
7,-629,21.7861,220.448,0,0,0,0,0,0,0,-1,1231,1653,21.7861,-220.447
14,-629,21.5472,220.311,0,0,0,0,0,0,0,-1,1238,1653,21.5472,-220.311
21,-629,21.9025,220.851,0,0,0,0,0,0,0,-1,1245,1653,21.9025,-220.851
28,-629,19.9016,220.444,0,0,0,0,0,0,0,-1,1252,1653,19.9016,-220.444
35,-629,17.6697,219.813,0,0,0,0,0,0,0,-1,1259,1653,17.6697,-219.813
42,-629,15.9707,219.138,0,0,0,0,0,0,0,-1,1266,1653,15.9707,-219.138
49,-629,14.5641,218.947,0,0,0,0,0,0,0,-1,1273,1653,14.5641,-218.947
56,-629,13.2581,218.77,0,0,0,0,0,0,0,-1,1280,1653,13.258,-218.77
63,-629,10.1635,220.157,0,0,0,0,0,0,0,-1,1287,1653,10.1634,-220.157
70,-629,8.76599,219.545,0,0,0,0,0,0,0,-1,1294,1653,8.76604,-219.545
77,-629,7.96252,219.845,0,0,0,0,0,0,0,-1,1301,1653,7.96253,-219.845
84,-629,5.55957,216.71,0,0,0,0,0,0,0,-1,1308,1653,5.55952,-216.71
91,-629,4.21277,217.661,0,0,0,0,0,0,0,-1,1315,1653,4.21272,-217.661
98,-629,2.94202,218.203,0,0,0,0,0,0,0,-1,1322,1653,2.94207,-218.203
105,-629,1.68018,218.511,0,0,0,0,0,0,0,-1,1329,1653,1.68022,-218.511
112,-629,0.542725,218.687,0,0,0,0,0,0,0,-1,1336,1653,0.542753,-218.687
119,-629,4.84583,214.3,0,0,0,0,0,0,0,-1,1343,1653,4.84581,-214.3
126,-629,4.84961,213.05,0,0,0,0,0,0,0,-1,1350,1653,4.84958,-213.05
133,-629,4.9248,211.413,0,0,0,0,0,0,0,-1,1357,1653,4.92486,-211.413
140,-629,4.93066,210.09,0,0,0,0,0,0,0,-1,1364,1653,4.93063,-210.09
147,-629,4.95532,208.744,0,0,0,0,0,0,0,-1,1371,1653,4.95538,-208.744
154,-629,-5.11658,195.595,0,0,0,0,0,0,0,-1,1378,1653,-5.11663,-195.595
161,-629,10.5461,6.83752,0,0,0,0,0,0,0,-1,1385,1653,10.5461,-6.83758
168,-629,12.0059,5.56348,0,0,0,0,0,0,0,-1,1392,1653,12.0059,-5.56352
175,-629,5.84485,-1.78845,0,0,0,0,0,0,0,-1,1399,1653,5.84479,1.7884
182,-629,5.99036,-1.27783,0,0,0,0,0,0,0,-1,1406,1653,5.99041,1.27778
189,-629,5.97668,-0.748535,0,0,0,0,0,0,0,-1,1413,1653,5.97671,0.748544
196,-629,4.52869,9.24695,0,0,0,0,0,0,0,-1,1420,1653,4.52869,-9.2469
203,-629,3.75085,6.88037,0,0,0,0,0,0,0,-1,1427,1653,3.75087,-6.88032
210,-629,3.5907,6.52637,0,0,0,0,0,0,0,-1,1434,1653,3.59067,-6.52642
217,-629,2.4585,4.84448,0,0,0,0,0,0,0,-1,1441,1653,2.45855,-4.84448
224,-629,1.31982,3.68481,0,0,0,0,0,0,0,-1,1448,1653,1.31986,-3.68487
231,-629,3.63025,1.73499,0,0,0,0,0,0,0,-1,1455,1653,3.6303,-1.735
238,-629,4.26428,2.11255,0,0,0,0,0,0,0,-1,1462,1653,4.26429,-2.11253
245,-629,5.61816,1.95361,0,0,0,0,0,0,0,-1,1469,1653,5.61815,-1.95359
252,-629,7.27136,2.18982,0,0,0,0,0,0,0,-1,1476,1653,7.27131,-2.18985
259,-629,8.67334,2.18628,0,0,0,0,0,0,0,-1,1483,1653,8.6733,-2.18633
266,-629,6.86475,3.72058,0,0,0,0,0,0,0,-1,1490,1653,6.86479,-3.72063
273,-629,7.9021,3.8717,0,0,0,0,0,0,0,-1,1497,1653,7.90205,-3.87171
280,-629,9.70837,4.39087,0,0,0,0,0,0,0,-1,1504,1653,9.7084,-4.39082
287,-629,9.82947,7.19348,0,0,0,0,0,0,0,-1,1511,1653,9.8295,-7.19347
294,-629,6.56555,11.6359,0,0,0,0,0,0,0,-1,1518,1653,6.5656,-11.6358
301,-629,13.903,44.4862,0,0,0,0,0,0,0,-1,1525,1653,13.903,-44.4862
308,-629,6.08264,12.1423,0,0,0,0,0,0,0,-1,1532,1653,6.08263,-12.1423
315,-629,6.82043,18.2764,0,0,0,0,0,0,0,-1,1539,1653,6.82049,-18.2764
322,-629,20.8529,106.778,0,0,0,0,0,0,0,-1,1546,1653,20.8529,-106.778
329,-629,24.0797,173.373,0,0,0,0,0,0,0,-1,1553,1653,24.0797,-173.373
336,-629,24.2906,175.088,0,0,0,0,0,0,0,-1,1560,1653,24.2907,-175.088
343,-629,24.218,175.767,0,0,0,0,0,0,0,-1,1567,1653,24.218,-175.767
350,-629,24.1647,177.852,0,0,0,0,0,0,0,-1,1574,1653,24.1647,-177.852
357,-629,24.1652,175.367,0,0,0,0,0,0,0,-1,1581,1653,24.1652,-175.367
364,-629,23.8478,173.222,0.0126913,0.0100965,-0.00234435,0.0140733,0.00871448,-0.532663,0.00820187,0.0344443,1588,1653,23.8478,-173.222
371,-629,23.5062,170.946,0.0112493,0.00868262,-0.00216124,0.0124795,0.00745242,-0.517472,0.00725027,0.0228042,1595,1653,23.5062,-170.946
378,-629,23.272,168.572,0.00983911,0.00756102,-0.00203718,0.0110341,0.00636607,-0.530486,0.00639561,0.0162779,1602,1653,23.272,-168.572
385,-629,22.9756,166.326,0.00863248,0.00665873,-0.00207064,0.0099394,0.00535181,-0.563019,0.00574417,0.0176723,1609,1653,22.9756,-166.326
392,-629,22.6239,164.099,0.00741993,0.00546955,-0.00197011,0.008643,0.00424648,-0.555581,0.00499029,0.0162357,1616,1653,22.6239,-164.099
399,-629,22.28,161.82,0.00631953,0.00433358,-0.00190156,0.00747177,0.00318134,-0.544778,0.00432964,0.0151543,1623,1653,22.28,-161.82
406,-629,21.9698,159.545,0.00535882,0.00338612,-0.00181252,0.00643599,0.00230895,-0.536213,0.00376492,0.0184917,1630,1653,21.9698,-159.545
413,-629,21.5867,157.268,0.00461795,0.00279775,-0.00196432,0.00587277,0.00154294,-0.568463,0.0035156,0.0304059,1637,1653,21.5867,-157.268
420,-629,21.1674,154.977,0.00397986,0.00224458,-0.0021634,0.00544312,0.000781325,-0.594691,0.00339838,0.0293295,1644,1653,21.1674,-154.977
427,-629,20.8823,152.689,0.0033875,0.00189909,-0.00242059,0.00517571,0.000110883,-0.636261,0.00341411,0.0208138,1651,1653,20.8823,-152.689
434,-629,20.5309,150.343,0.00280302,0.00158685,-0.00268904,0.00495187,-0.000562,-0.674202,0.00350364,0.0176282,1658,1653,20.5309,-150.343
441,-629,20.1185,148.021,0.00229562,0.00135066,-0.00300411,0.00486418,-0.00121789,-0.707398,0.00371589,0.0204194,1665,1653,20.1186,-148.021
448,-629,19.7479,145.701,0.00173146,0.00108703,-0.00326459,0.0046897,-0.0018712,-0.736208,0.00390271,0.0187009,1672,1653,19.748,-145.701
455,-629,19.3489,143.361,0.00114348,0.000774839,-0.00348099,0.00444503,-0.00252671,-0.758947,0.00407561,0.0175799,1679,1653,19.3488,-143.361
462,-629,19.0129,141.079,0.000605975,0.000417434,-0.00363796,0.00415089,-0.00312748,-0.772445,0.00421599,0.0327388,1686,1653,19.013,-141.079
469,-629,18.4752,138.634,0,0,0,0,0,0,0,-1,1693,1653,18.4753,-138.634
476,-629,18.8602,112.477,0,0,0,0,0,0,0,-1,1700,1653,18.8602,-112.477
483,-629,18.7847,67.8679,0,0,0,0,0,0,0,-1,1707,1653,18.7847,-67.8679
490,-629,19.1938,61.9336,0,0,0,0,0,0,0,-1,1714,1653,19.1938,-61.9336
497,-629,10.3662,19.8605,0,0,0,0,0,0,0,-1,1721,1653,10.3662,-19.8605
504,-629,7.89453,15.5316,0,0,0,0,0,0,0,-1,1728,1653,7.89447,-15.5316
511,-629,6.29138,3.40295,0,0,0,0,0,0,0,-1,1735,1653,6.29137,-3.403
518,-629,5.84387,1.41858,0,0,0,0,0,0,0,-1,1742,1653,5.84391,-1.4186
525,-629,6.4729,1.02319,0,0,0,0,0,0,0,-1,1749,1653,6.47284,-1.02316
532,-629,6.86511,0.903687,0,0,0,0,0,0,0,-1,1756,1653,6.86514,-0.903691
539,-629,6.60803,0.746704,0,0,0,0,0,0,0,-1,1763,1653,6.60809,-0.746691
546,-629,0,0,0,0,0,0,0,0,0,-1,1770,1653,0,0
553,-629,0,0,0,0,0,0,0,0,0,-1,1777,1653,0,0
560,-629,0,0,0,0,0,0,0,0,0,-1,1784,1653,0,0
567,-629,0,0,0,0,0,0,0,0,0,-1,1791,1653,0,0
574,-629,0,0,0,0,0,0,0,0,0,-1,1798,1653,0,0
581,-629,0,0,0,0,0,0,0,0,0,-1,1805,1653,0,0
588,-629,0,0,0,0,0,0,0,0,0,-1,1812,1653,0,0
595,-629,0,0,0,0,0,0,0,0,0,-1,1819,1653,0,0
602,-629,0,0,0,0,0,0,0,0,0,-1,1826,1653,0,0
609,-629,0,0,0,0,0,0,0,0,0,-1,1833,1653,0,0
616,-629,0,0,0,0,0,0,0,0,0,-1,1840,1653,0,0
623,-629,0,0,0,0,0,0,0,0,0,-1,1847,1653,0,0
630,-629,0,0,0,0,0,0,0,0,0,-1,1854,1653,0,0
637,-629,0,0,0,0,0,0,0,0,0,-1,1861,1653,0,0
644,-629,0,0,0,0,0,0,0,0,0,-1,1868,1653,0,0
651,-629,0,0,0,0,0,0,0,0,0,-1,1875,1653,0,0
658,-629,0,0,0,0,0,0,0,0,0,-1,1882,1653,0,0
665,-629,0,0,0,0,0,0,0,0,0,-1,1889,1653,0,0
672,-629,0,0,0,0,0,0,0,0,0,-1,1896,1653,0,0
679,-629,0,0,0,0,0,0,0,0,0,-1,1903,1653,0,0
686,-629,0,0,0,0,0,0,0,0,0,-1,1910,1653,0,0
693,-629,0,0,0,0,0,0,0,0,0,-1,1917,1653,0,0
700,-629,0,0,0,0,0,0,0,0,0,-1,1924,1653,0,0
707,-629,0,0,0,0,0,0,0,0,0,-1,1931,1653,0,0
714,-629,0,0,0,0,0,0,0,0,0,-1,1938,1653,0,0
721,-629,0,0,0,0,0,0,0,0,0,-1,1945,1653,0,0
728,-629,0,0,0,0,0,0,0,0,0,-1,1952,1653,0,0
735,-629,0,0,0,0,0,0,0,0,0,-1,1959,1653,0,0
742,-629,0,0,0,0,0,0,0,0,0,-1,1966,1653,0,0
749,-629,0,0,0,0,0,0,0,0,0,-1,1973,1653,0,0
756,-629,0,0,0,0,0,0,0,0,0,-1,1980,1653,0,0
763,-629,0,0,0,0,0,0,0,0,0,-1,1987,1653,0,0
770,-629,0,0,0,0,0,0,0,0,0,-1,1994,1653,0,0
777,-629,0,0,0,0,0,0,0,0,0,-1,2001,1653,0,0
784,-629,0,0,0,0,0,0,0,0,0,-1,2008,1653,0,0
791,-629,0,0,0,0,0,0,0,0,0,-1,2015,1653,0,0
798,-629,0,0,0,0,0,0,0,0,0,-1,2022,1653,0,0
805,-629,0,0,0,0,0,0,0,0,0,-1,2029,1653,0,0
812,-629,0,0,0,0,0,0,0,0,0,-1,2036,1653,0,0
-700,-636,0,0,0,0,0,0,0,0,0,-1,524,1660,0,0
-693,-636,0,0,0,0,0,0,0,0,0,-1,531,1660,0,0
-686,-636,0,0,0,0,0,0,0,0,0,-1,538,1660,0,0
-679,-636,0,0,0,0,0,0,0,0,0,-1,545,1660,0,0
-672,-636,0,0,0,0,0,0,0,0,0,-1,552,1660,0,0
-665,-636,0,0,0,0,0,0,0,0,0,-1,559,1660,0,0
-658,-636,0,0,0,0,0,0,0,0,0,-1,566,1660,0,0
-651,-636,0,0,0,0,0,0,0,0,0,-1,573,1660,0,0
-644,-636,0,0,0,0,0,0,0,0,0,-1,580,1660,0,0
-637,-636,0,0,0,0,0,0,0,0,0,-1,587,1660,0,0
-630,-636,0,0,0,0,0,0,0,0,0,-1,594,1660,0,0
-623,-636,0,0,0,0,0,0,0,0,0,-1,601,1660,0,0
-616,-636,0,0,0,0,0,0,0,0,0,-1,608,1660,0,0
-609,-636,0,0,0,0,0,0,0,0,0,-1,615,1660,0,0
-602,-636,0,0,0,0,0,0,0,0,0,-1,622,1660,0,0
-595,-636,0,0,0,0,0,0,0,0,0,-1,629,1660,0,0
-588,-636,0,0,0,0,0,0,0,0,0,-1,636,1660,0,0
-581,-636,0,0,0,0,0,0,0,0,0,-1,643,1660,0,0
-574,-636,0,0,0,0,0,0,0,0,0,-1,650,1660,0,0
-567,-636,0,0,0,0,0,0,0,0,0,-1,657,1660,0,0
-560,-636,0,0,0,0,0,0,0,0,0,-1,664,1660,0,0
-553,-636,0,0,0,0,0,0,0,0,0,-1,671,1660,0,0
-546,-636,0,0,0,0,0,0,0,0,0,-1,678,1660,0,0
-539,-636,0,0,0,0,0,0,0,0,0,-1,685,1660,0,0
-532,-636,0,0,0,0,0,0,0,0,0,-1,692,1660,0,0
-525,-636,0,0,0,0,0,0,0,0,0,-1,699,1660,0,0
-518,-636,0,0,0,0,0,0,0,0,0,-1,706,1660,0,0
-511,-636,0,0,0,0,0,0,0,0,0,-1,713,1660,0,0
-504,-636,0,0,0,0,0,0,0,0,0,-1,720,1660,0,0
-497,-636,0,0,0,0,0,0,0,0,0,-1,727,1660,0,0
-490,-636,0,0,0,0,0,0,0,0,0,-1,734,1660,0,0
-483,-636,0,0,0,0,0,0,0,0,0,-1,741,1660,0,0
-476,-636,0,0,0,0,0,0,0,0,0,-1,748,1660,0,0
-469,-636,0,0,0,0,0,0,0,0,0,-1,755,1660,0,0
-462,-636,0,0,0,0,0,0,0,0,0,-1,762,1660,0,0
-455,-636,0,0,0,0,0,0,0,0,0,-1,769,1660,0,0
-448,-636,0,0,0,0,0,0,0,0,0,-1,776,1660,0,0
-441,-636,0,0,0,0,0,0,0,0,0,-1,783,1660,0,0
-434,-636,0,0,0,0,0,0,0,0,0,-1,790,1660,0,0
-427,-636,0,0,0,0,0,0,0,0,0,-1,797,1660,0,0
-420,-636,0,0,0,0,0,0,0,0,0,-1,804,1660,0,0
-413,-636,0,0,0,0,0,0,0,0,0,-1,811,1660,0,0
-406,-636,-0.591125,10.6943,0,0,0,0,0,0,0,-1,818,1660,-0.59115,-10.6943
-399,-636,0.0766602,11.2408,0,0,0,0,0,0,0,-1,825,1660,0.076685,-11.2409
-392,-636,0.75946,11.9233,0,0,0,0,0,0,0,-1,832,1660,0.759481,-11.9233
-385,-636,1.68878,12.517,0,0,0,0,0,0,0,-1,839,1660,1.6888,-12.5169
-378,-636,2.22107,13.0013,0,0,0,0,0,0,0,-1,846,1660,2.22107,-13.0014
-371,-636,2.52185,11.9684,0,0,0,0,0,0,0,-1,853,1660,2.52184,-11.9684
-364,-636,4.51947,14.8503,0,0,0,0,0,0,0,-1,860,1660,4.51949,-14.8504
-357,-636,4.55682,15.8809,0,0,0,0,0,0,0,-1,867,1660,4.55681,-15.8808
-350,-636,2.57788,36.7095,0,0,0,0,0,0,0,-1,874,1660,2.57785,-36.7094
-343,-636,-5.8728,103.424,0,0,0,0,0,0,0,-1,881,1660,-5.87281,-103.424
-336,-636,-8.47229,124.221,0,0,0,0,0,0,0,-1,888,1660,-8.4723,-124.221
-329,-636,-10.7079,141.109,0,0,0,0,0,0,0,-1,895,1660,-10.7079,-141.109
-322,-636,-11.0612,143.432,0,0,0,0,0,0,0,-1,902,1660,-11.0612,-143.432
-315,-636,-11.5137,145.832,-0.00202959,0.00244692,0.00390707,0.00471144,-0.00429412,1.04551,0.00520122,0.0320438,909,1660,-11.5137,-145.832
-308,-636,-11.9453,148.215,-0.00181076,0.00179515,0.00302192,0.00351109,-0.00352671,1.05437,0.00406328,0.0167723,916,1660,-11.9453,-148.215
-301,-636,-12.3886,150.598,-0.00131096,0.00136123,0.00237831,0.00275305,-0.00270277,1.04132,0.00314997,0.017206,923,1660,-12.3886,-150.598
-294,-636,-12.8546,152.977,-0.000698947,0.00100901,0.00190441,0.00224215,-0.00193209,0.996169,0.00241221,0.0207388,930,1660,-12.8546,-152.977
-287,-636,-13.1533,155.206,7.34606e-05,0.000817671,0.00149469,0.00198588,-0.00109475,0.907394,0.00180323,0.016476,937,1660,-13.1533,-155.206
-280,-636,-13.4963,157.478,0.0011148,0.000750874,0.00118095,0.00212773,-0.000262052,0.708958,0.00151342,0.0157616,944,1660,-13.4963,-157.478
-273,-636,-13.8759,159.776,0.00233644,0.000917261,0.00101167,0.00286256,0.000391135,0.479565,0.00179228,0.0180362,951,1660,-13.8759,-159.776
-266,-636,-14.2474,162.056,0.00364408,0.00119414,0.000861378,0.00391662,0.000921605,0.306429,0.00236452,0.0204115,958,1660,-14.2474,-162.056
-259,-636,-14.6019,164.333,0.00516364,0.00151658,0.000664647,0.00528099,0.00139923,0.17476,0.00315928,0.0222463,965,1660,-14.6019,-164.333
-252,-636,-14.9475,166.602,0.00675824,0.00202107,0.0003561,0.00678486,0.00199445,0.0746127,0.00402658,0.0175474,972,1660,-14.9475,-166.602
-245,-636,-15.3,168.892,0.00847899,0.00257341,-0.000103828,0.00848081,0.00257158,-0.017574,0.0050212,0.015644,979,1660,-15.3,-168.892
-238,-636,-15.6287,171.104,0.0106043,0.00332126,-0.000382098,0.0106243,0.00330126,-0.0522726,0.00627874,0.0168886,986,1660,-15.6287,-171.104
-231,-636,-15.868,173.322,0.0128113,0.00410467,-0.000587386,0.0128507,0.00406522,-0.0670593,0.00758439,0.016098,993,1660,-15.868,-173.322
-224,-636,-16.1187,175.544,0.0150701,0.00499236,-0.000929715,0.0151552,0.0049073,-0.0912281,0.0089291,0.0158719,1000,1660,-16.1187,-175.544
-217,-636,-16.4692,177.823,0.0174785,0.00596451,-0.00130016,0.0176235,0.00581952,-0.111057,0.0103686,0.0296821,1007,1660,-16.4691,-177.823
-210,-636,-16.7682,179.886,0,0,0,0,0,0,0,-1,1014,1660,-16.7682,-179.886
-203,-636,-17.0999,182.061,0,0,0,0,0,0,0,-1,1021,1660,-17.0999,-182.061
-196,-636,-16.8481,184.181,0,0,0,0,0,0,0,-1,1028,1660,-16.8481,-184.181
-189,-636,-16.8429,186.442,0,0,0,0,0,0,0,-1,1035,1660,-16.8429,-186.442
-182,-636,-7.71545,133.33,0,0,0,0,0,0,0,-1,1042,1660,-7.71542,-133.33
-175,-636,-6.10059,127.683,0,0,0,0,0,0,0,-1,1049,1660,-6.10056,-127.683
-168,-636,-1.64722,104.298,0,0,0,0,0,0,0,-1,1056,1660,-1.64726,-104.298
-161,-636,4.54553,56.2565,0,0,0,0,0,0,0,-1,1063,1660,4.5455,-56.2564
-154,-636,2.33289,62.5505,0,0,0,0,0,0,0,-1,1070,1660,2.33283,-62.5505
-147,-636,4.22656,55.8413,0,0,0,0,0,0,0,-1,1077,1660,4.22662,-55.8413
-140,-636,3.20886,57.1307,0,0,0,0,0,0,0,-1,1084,1660,3.20882,-57.1307
-133,-636,2.82764,57.9807,0,0,0,0,0,0,0,-1,1091,1660,2.82766,-57.9807
-126,-636,2.44653,58.8307,0,0,0,0,0,0,0,-1,1098,1660,2.44649,-58.8307
-119,-636,1.8667,13.8916,0,0,0,0,0,0,0,-1,1105,1660,1.86668,-13.8916
-112,-636,-1.24963,9.7998,0,0,0,0,0,0,0,-1,1112,1660,-1.24968,-9.79978
-105,-636,3.51624,4.72791,0,0,0,0,0,0,0,-1,1119,1660,3.51618,-4.7279
-98,-636,1.54504,5.11914,0,0,0,0,0,0,0,-1,1126,1660,1.54503,-5.11912
-91,-636,-1.87964,-2.25012,0,0,0,0,0,0,0,-1,1133,1660,-1.87966,2.25016
-84,-636,-2.84143,0.133667,0,0,0,0,0,0,0,-1,1140,1660,-2.84144,-0.133701
-77,-636,-3.57349,2.45935,0,0,0,0,0,0,0,-1,1147,1660,-3.57345,-2.45939
-70,-636,-4.23682,4.82312,0,0,0,0,0,0,0,-1,1154,1660,-4.23681,-4.82307
-63,-636,-2.21033,6.97168,0,0,0,0,0,0,0,-1,1161,1660,-2.21034,-6.97165
-56,-636,-2.51917,8.80359,0,0,0,0,0,0,0,-1,1168,1660,-2.51916,-8.80361
-49,-636,-3.13,10.4113,0,0,0,0,0,0,0,-1,1175,1660,-3.12996,-10.4112
-42,-636,-2.27771,4.90173,0,0,0,0,0,0,0,-1,1182,1660,-2.27775,-4.90173
-35,-636,-2.27698,5.89685,0,0,0,0,0,0,0,-1,1189,1660,-2.27695,-5.89686
-28,-636,-1.70654,4.83936,0,0,0,0,0,0,0,-1,1196,1660,-1.70656,-4.8393
-21,-636,12.8972,207.317,0,0,0,0,0,0,0,-1,1203,1660,12.8972,-207.317
-14,-636,25.7635,221.082,0,0,0,0,0,0,0,-1,1210,1660,25.7635,-221.082
-7,-636,24.2616,221.025,0,0,0,0,0,0,0,-1,1217,1660,24.2617,-221.025
0,-636,22.7585,220.969,0,0,0,0,0,0,0,-1,1224,1660,22.7586,-220.969
7,-636,21.2633,221.694,0,0,0,0,0,0,0,-1,1231,1660,21.2633,-221.694
14,-636,20.8545,221.612,0,0,0,0,0,0,0,-1,1238,1660,20.8544,-221.612
21,-636,20.0676,221.28,0,0,0,0,0,0,0,-1,1245,1660,20.0676,-221.28
28,-636,18.6569,221.915,0,0,0,0,0,0,0,-1,1252,1660,18.6569,-221.915
35,-636,17.0142,221.194,0,0,0,0,0,0,0,-1,1259,1660,17.0141,-221.194
42,-636,15.3488,220.478,0,0,0,0,0,0,0,-1,1266,1660,15.3488,-220.478
49,-636,13.7585,219.904,0,0,0,0,0,0,0,-1,1273,1660,13.7585,-219.904
56,-636,11.3077,220.616,0,0,0,0,0,0,0,-1,1280,1660,11.3077,-220.616
63,-636,9.97021,220.514,0,0,0,0,0,0,0,-1,1287,1660,9.97027,-220.514
70,-636,8.48914,220.242,0,0,0,0,0,0,0,-1,1294,1660,8.48909,-220.242
77,-636,7.53296,220.243,0,0,0,0,0,0,0,-1,1301,1660,7.53293,-220.243
84,-636,5.31274,220.234,0,0,0,0,0,0,0,-1,1308,1660,5.31279,-220.234
91,-636,4.63879,218.434,0,0,0,0,0,0,0,-1,1315,1660,4.63881,-218.434
98,-636,3.34583,218.886,0,0,0,0,0,0,0,-1,1322,1660,3.3458,-218.886
105,-636,2.1908,218.992,0,0,0,0,0,0,0,-1,1329,1660,2.19077,-218.992
112,-636,1.19897,218.888,0,0,0,0,0,0,0,-1,1336,1660,1.19897,-218.888
119,-636,4.40796,215.382,0,0,0,0,0,0,0,-1,1343,1660,4.40794,-215.382
126,-636,4.36719,214.001,0,0,0,0,0,0,0,-1,1350,1660,4.36714,-214.001
133,-636,4.44043,212.576,0,0,0,0,0,0,0,-1,1357,1660,4.44045,-212.576
140,-636,4.28906,211.248,0,0,0,0,0,0,0,-1,1364,1660,4.2891,-211.248
147,-636,3.86902,209.896,0,0,0,0,0,0,0,-1,1371,1660,3.86902,-209.896
154,-636,3.68958,208.605,0,0,0,0,0,0,0,-1,1378,1660,3.68956,-208.605
161,-636,10.2961,7.13025,0,0,0,0,0,0,0,-1,1385,1660,10.2961,-7.13021
168,-636,11.7659,5.83899,0,0,0,0,0,0,0,-1,1392,1660,11.7658,-5.83899
175,-636,5.94592,-1.72888,0,0,0,0,0,0,0,-1,1399,1660,5.94598,1.72886
182,-636,5.93994,-1.11938,0,0,0,0,0,0,0,-1,1406,1660,5.93998,1.11936
189,-636,5.32544,11.9595,0,0,0,0,0,0,0,-1,1413,1660,5.32542,-11.9595
196,-636,5.3623,9.38025,0,0,0,0,0,0,0,-1,1420,1660,5.36225,-9.38027
203,-636,5.18542,9.02429,0,0,0,0,0,0,0,-1,1427,1660,5.18547,-9.0243
210,-636,4.09167,7.17041,0,0,0,0,0,0,0,-1,1434,1660,4.09173,-7.17041
217,-636,2.94897,5.28992,0,0,0,0,0,0,0,-1,1441,1660,2.94899,-5.28991
224,-636,1.49194,3.63916,0,0,0,0,0,0,0,-1,1448,1660,1.49197,-3.63918
231,-636,0.17749,2.24854,0,0,0,0,0,0,0,-1,1455,1660,0.177501,-2.24855
238,-636,-0.764648,1.00598,0,0,0,0,0,0,0,-1,1462,1660,-0.764704,-1.00595
245,-636,6.21204,1.18005,0,0,0,0,0,0,0,-1,1469,1660,6.21206,-1.18001
252,-636,7.70251,0.865723,0,0,0,0,0,0,0,-1,1476,1660,7.7025,-0.865692
259,-636,9.03601,0.787231,0,0,0,0,0,0,0,-1,1483,1660,9.03598,-0.787243
266,-636,10.1071,3.24109,0,0,0,0,0,0,0,-1,1490,1660,10.1071,-3.24103
273,-636,8.48535,5.02466,0,0,0,0,0,0,0,-1,1497,1660,8.48533,-5.02472
280,-636,11.908,32.0698,0,0,0,0,0,0,0,-1,1504,1660,11.9079,-32.0698
287,-636,12.1218,36.4158,0,0,0,0,0,0,0,-1,1511,1660,12.1218,-36.4158
294,-636,13.3706,44.9711,0,0,0,0,0,0,0,-1,1518,1660,13.3706,-44.9711
301,-636,19.6848,107.288,0,0,0,0,0,0,0,-1,1525,1660,19.6848,-107.288
308,-636,20.512,112.991,0,0,0,0,0,0,0,-1,1532,1660,20.512,-112.991
315,-636,19.869,115.303,0,0,0,0,0,0,0,-1,1539,1660,19.869,-115.303
322,-636,22.5635,175.394,0,0,0,0,0,0,0,-1,1546,1660,22.5634,-175.394
329,-636,22.576,183.613,0,0,0,0,0,0,0,-1,1553,1660,22.576,-183.613
336,-636,22.1924,182.381,0,0,0,0,0,0,0,-1,1560,1660,22.1924,-182.381
343,-636,22.2322,180.567,0,0,0,0,0,0,0,-1,1567,1660,22.2322,-180.567
350,-636,22.1007,178.007,0.0135558,0.00809276,-0.000795971,0.0136694,0.00797915,-0.141776,0.00792881,0.0335714,1574,1660,22.1007,-178.007
357,-636,21.9329,175.54,0.0119695,0.00760029,-0.00120677,0.0122807,0.00728915,-0.252338,0.0071315,0.0188177,1581,1660,21.9328,-175.539
364,-636,21.6442,173.335,0.0105875,0.00717636,-0.00163206,0.0112426,0.00652129,-0.381689,0.00651857,0.0132548,1588,1660,21.6442,-173.335
371,-636,21.3435,171.152,0.00928439,0.00623348,-0.0017302,0.0100656,0.00545229,-0.424103,0.00581809,0.0119627,1595,1660,21.3435,-171.152
378,-636,21.0443,168.926,0.00808292,0.00542012,-0.00183806,0.00902112,0.00448192,-0.471956,0.00520838,0.0127886,1602,1660,21.0443,-168.926
385,-636,20.7246,166.711,0.00706718,0.00481206,-0.00206373,0.00829129,0.00358795,-0.535372,0.00480139,0.0205453,1609,1660,20.7247,-166.711
392,-636,20.3691,164.465,0.00603583,0.00391899,-0.002127,0.0073532,0.00260162,-0.55453,0.00430543,0.0219049,1616,1660,20.3692,-164.465
399,-636,20.0432,162.205,0.00512845,0.00310217,-0.00222638,0.00656138,0.00166924,-0.57187,0.0039376,0.0158429,1623,1660,20.0433,-162.205
406,-636,19.7137,159.933,0.00436374,0.00248099,-0.00231406,0.00592058,0.000924153,-0.592217,0.00367791,0.0178273,1630,1660,19.7138,-159.933
413,-636,19.3407,157.661,0.00378936,0.00213666,-0.0025894,0.00568108,0.000244947,-0.630942,0.00370843,0.0279763,1637,1660,19.3407,-157.661
420,-636,18.9302,155.368,0.00329585,0.00187773,-0.00291692,0.00558865,-0.000415069,-0.666168,0.00387155,0.0290684,1644,1660,18.9302,-155.368
427,-636,18.606,153.06,0.00286901,0.00177944,-0.00329449,0.00566345,-0.001015,-0.703458,0.00415549,0.0196556,1651,1660,18.6059,-153.06
434,-636,18.2129,150.73,0.00246738,0.00170587,-0.00367797,0.00578425,-0.001611,-0.733821,0.00449055,0.0187727,1658,1660,18.2129,-150.73
441,-636,17.8185,148.421,0.00208337,0.00176387,-0.00410562,0.00603234,-0.0021851,-0.765952,0.00491461,0.0158532,1665,1660,17.8185,-148.421
448,-636,17.4591,146.066,0.00159821,0.00169661,-0.00445028,0.00609796,-0.00280314,-0.790925,0.0052551,0.0186305,1672,1660,17.4592,-146.066
455,-636,17.0542,143.671,0.00109382,0.00152777,-0.00474502,0.00606078,-0.00343919,-0.808246,0.00555398,0.0272372,1679,1660,17.0542,-143.671
462,-636,16.7677,141.251,0,0,0,0,0,0,0,-1,1686,1660,16.7677,-141.251
469,-636,16.3865,137.218,0,0,0,0,0,0,0,-1,1693,1660,16.3865,-137.218
476,-636,17.6901,99.8433,0,0,0,0,0,0,0,-1,1700,1660,17.69,-99.8432
483,-636,11.3833,24.3958,0,0,0,0,0,0,0,-1,1707,1660,11.3833,-24.3957
490,-636,10.8951,23.9569,0,0,0,0,0,0,0,-1,1714,1660,10.8951,-23.9569
497,-636,9.55579,18.0111,0,0,0,0,0,0,0,-1,1721,1660,9.55574,-18.0111
504,-636,6.26428,19.4268,0,0,0,0,0,0,0,-1,1728,1660,6.26433,-19.4268
511,-636,5.65466,9.23218,0,0,0,0,0,0,0,-1,1735,1660,5.65461,-9.23216
518,-636,6.72791,1.07605,0,0,0,0,0,0,0,-1,1742,1660,6.7279,-1.0761
525,-636,7.04309,0.93335,0,0,0,0,0,0,0,-1,1749,1660,7.04308,-0.933298
532,-636,0,0,0,0,0,0,0,0,0,-1,1756,1660,0,0
539,-636,0,0,0,0,0,0,0,0,0,-1,1763,1660,0,0
546,-636,0,0,0,0,0,0,0,0,0,-1,1770,1660,0,0
553,-636,0,0,0,0,0,0,0,0,0,-1,1777,1660,0,0
560,-636,0,0,0,0,0,0,0,0,0,-1,1784,1660,0,0
567,-636,0,0,0,0,0,0,0,0,0,-1,1791,1660,0,0
574,-636,0,0,0,0,0,0,0,0,0,-1,1798,1660,0,0
581,-636,0,0,0,0,0,0,0,0,0,-1,1805,1660,0,0
588,-636,0,0,0,0,0,0,0,0,0,-1,1812,1660,0,0
595,-636,0,0,0,0,0,0,0,0,0,-1,1819,1660,0,0
602,-636,0,0,0,0,0,0,0,0,0,-1,1826,1660,0,0
609,-636,0,0,0,0,0,0,0,0,0,-1,1833,1660,0,0
616,-636,0,0,0,0,0,0,0,0,0,-1,1840,1660,0,0
623,-636,0,0,0,0,0,0,0,0,0,-1,1847,1660,0,0
630,-636,0,0,0,0,0,0,0,0,0,-1,1854,1660,0,0
637,-636,0,0,0,0,0,0,0,0,0,-1,1861,1660,0,0
644,-636,0,0,0,0,0,0,0,0,0,-1,1868,1660,0,0
651,-636,0,0,0,0,0,0,0,0,0,-1,1875,1660,0,0
658,-636,0,0,0,0,0,0,0,0,0,-1,1882,1660,0,0
665,-636,0,0,0,0,0,0,0,0,0,-1,1889,1660,0,0
672,-636,0,0,0,0,0,0,0,0,0,-1,1896,1660,0,0
679,-636,0,0,0,0,0,0,0,0,0,-1,1903,1660,0,0
686,-636,0,0,0,0,0,0,0,0,0,-1,1910,1660,0,0
693,-636,0,0,0,0,0,0,0,0,0,-1,1917,1660,0,0
700,-636,0,0,0,0,0,0,0,0,0,-1,1924,1660,0,0
707,-636,0,0,0,0,0,0,0,0,0,-1,1931,1660,0,0
714,-636,0,0,0,0,0,0,0,0,0,-1,1938,1660,0,0
721,-636,0,0,0,0,0,0,0,0,0,-1,1945,1660,0,0
728,-636,0,0,0,0,0,0,0,0,0,-1,1952,1660,0,0
735,-636,0,0,0,0,0,0,0,0,0,-1,1959,1660,0,0
742,-636,0,0,0,0,0,0,0,0,0,-1,1966,1660,0,0
749,-636,0,0,0,0,0,0,0,0,0,-1,1973,1660,0,0
756,-636,0,0,0,0,0,0,0,0,0,-1,1980,1660,0,0
763,-636,0,0,0,0,0,0,0,0,0,-1,1987,1660,0,0
770,-636,0,0,0,0,0,0,0,0,0,-1,1994,1660,0,0
777,-636,0,0,0,0,0,0,0,0,0,-1,2001,1660,0,0
784,-636,0,0,0,0,0,0,0,0,0,-1,2008,1660,0,0
791,-636,0,0,0,0,0,0,0,0,0,-1,2015,1660,0,0
798,-636,0,0,0,0,0,0,0,0,0,-1,2022,1660,0,0
805,-636,0,0,0,0,0,0,0,0,0,-1,2029,1660,0,0
812,-636,0,0,0,0,0,0,0,0,0,-1,2036,1660,0,0
-700,-643,0,0,0,0,0,0,0,0,0,-1,524,1667,0,0
-693,-643,0,0,0,0,0,0,0,0,0,-1,531,1667,0,0
-686,-643,0,0,0,0,0,0,0,0,0,-1,538,1667,0,0
-679,-643,0,0,0,0,0,0,0,0,0,-1,545,1667,0,0
-672,-643,0,0,0,0,0,0,0,0,0,-1,552,1667,0,0
-665,-643,0,0,0,0,0,0,0,0,0,-1,559,1667,0,0
-658,-643,0,0,0,0,0,0,0,0,0,-1,566,1667,0,0
-651,-643,0,0,0,0,0,0,0,0,0,-1,573,1667,0,0
-644,-643,0,0,0,0,0,0,0,0,0,-1,580,1667,0,0
-637,-643,0,0,0,0,0,0,0,0,0,-1,587,1667,0,0
-630,-643,0,0,0,0,0,0,0,0,0,-1,594,1667,0,0
-623,-643,0,0,0,0,0,0,0,0,0,-1,601,1667,0,0
-616,-643,0,0,0,0,0,0,0,0,0,-1,608,1667,0,0
-609,-643,0,0,0,0,0,0,0,0,0,-1,615,1667,0,0
-602,-643,0,0,0,0,0,0,0,0,0,-1,622,1667,0,0
-595,-643,0,0,0,0,0,0,0,0,0,-1,629,1667,0,0
-588,-643,0,0,0,0,0,0,0,0,0,-1,636,1667,0,0
-581,-643,0,0,0,0,0,0,0,0,0,-1,643,1667,0,0
-574,-643,0,0,0,0,0,0,0,0,0,-1,650,1667,0,0
-567,-643,0,0,0,0,0,0,0,0,0,-1,657,1667,0,0
-560,-643,0,0,0,0,0,0,0,0,0,-1,664,1667,0,0
-553,-643,0,0,0,0,0,0,0,0,0,-1,671,1667,0,0
-546,-643,0,0,0,0,0,0,0,0,0,-1,678,1667,0,0
-539,-643,0,0,0,0,0,0,0,0,0,-1,685,1667,0,0
-532,-643,0,0,0,0,0,0,0,0,0,-1,692,1667,0,0
-525,-643,0,0,0,0,0,0,0,0,0,-1,699,1667,0,0
-518,-643,0,0,0,0,0,0,0,0,0,-1,706,1667,0,0
-511,-643,0,0,0,0,0,0,0,0,0,-1,713,1667,0,0
-504,-643,0,0,0,0,0,0,0,0,0,-1,720,1667,0,0
-497,-643,0,0,0,0,0,0,0,0,0,-1,727,1667,0,0
-490,-643,0,0,0,0,0,0,0,0,0,-1,734,1667,0,0
-483,-643,0,0,0,0,0,0,0,0,0,-1,741,1667,0,0
-476,-643,0,0,0,0,0,0,0,0,0,-1,748,1667,0,0
-469,-643,0,0,0,0,0,0,0,0,0,-1,755,1667,0,0
-462,-643,0,0,0,0,0,0,0,0,0,-1,762,1667,0,0
-455,-643,0,0,0,0,0,0,0,0,0,-1,769,1667,0,0
-448,-643,0,0,0,0,0,0,0,0,0,-1,776,1667,0,0
-441,-643,0,0,0,0,0,0,0,0,0,-1,783,1667,0,0
-434,-643,0,0,0,0,0,0,0,0,0,-1,790,1667,0,0
-427,-643,0,0,0,0,0,0,0,0,0,-1,797,1667,0,0
-420,-643,0,0,0,0,0,0,0,0,0,-1,804,1667,0,0
-413,-643,0,0,0,0,0,0,0,0,0,-1,811,1667,0,0
-406,-643,0,0,0,0,0,0,0,0,0,-1,818,1667,0,0
-399,-643,0.589417,11.6465,0,0,0,0,0,0,0,-1,825,1667,0.58939,-11.6465
-392,-643,0.865295,12.6523,0,0,0,0,0,0,0,-1,832,1667,0.865315,-12.6523
-385,-643,1.72968,13.2692,0,0,0,0,0,0,0,-1,839,1667,1.72967,-13.2692
-378,-643,2.66522,13.8193,0,0,0,0,0,0,0,-1,846,1667,2.66524,-13.8193
-371,-643,0.466125,3.35095,0,0,0,0,0,0,0,-1,853,1667,0.466148,-3.351
-364,-643,1.69513,9.922,0,0,0,0,0,0,0,-1,860,1667,1.69511,-9.92205
-357,-643,1.14227,10.8429,0,0,0,0,0,0,0,-1,867,1667,1.14228,-10.8429
-350,-643,4.48804,36.1799,0,0,0,0,0,0,0,-1,874,1667,4.48801,-36.1799
-343,-643,2.32159,48.7034,0,0,0,0,0,0,0,-1,881,1667,2.3216,-48.7034
-336,-643,-4.51129,105.569,0,0,0,0,0,0,0,-1,888,1667,-4.51131,-105.569
-329,-643,-6.68561,126.295,0,0,0,0,0,0,0,-1,895,1667,-6.68564,-126.295
-322,-643,-8.34045,136.628,0,0,0,0,0,0,0,-1,902,1667,-8.34044,-136.628
-315,-643,-9.20416,146.186,0,0,0,0,0,0,0,-1,909,1667,-9.20418,-146.186
-308,-643,-9.59271,148.568,-0.00321799,0.00241109,0.00365416,0.00420898,-0.00501588,1.11356,0.00533276,0.0335567,916,1667,-9.5927,-148.568
-301,-643,-10.0549,150.927,-0.00284978,0.00181987,0.00293712,0.00323713,-0.00426704,1.12122,0.00434611,0.0221196,923,1667,-10.0549,-150.927
-294,-643,-10.5152,153.313,-0.00232631,0.00133954,0.00241842,0.00254114,-0.00352792,1.10967,0.00351938,0.0189098,930,1667,-10.5152,-153.313
-287,-643,-10.8339,155.578,-0.00163741,0.00105505,0.0019848,0.00210711,-0.00268946,1.08339,0.0027761,0.0154802,937,1667,-10.8339,-155.578
-280,-643,-11.2003,157.865,-0.000749423,0.00083763,0.00164851,0.00187366,-0.00178545,1.00971,0.0021128,0.0192232,944,1667,-11.2003,-157.865
-273,-643,-11.5838,160.167,0.000352875,0.000820509,0.00144807,0.00205351,-0.000880129,0.865442,0.00173831,0.0172791,951,1667,-11.5838,-160.167
-266,-643,-11.9783,162.455,0.00161247,0.000939596,0.00128673,0.00260602,-5.39552e-05,0.657528,0.00175561,0.0157222,958,1667,-11.9784,-162.455
-259,-643,-12.3909,164.74,0.00302932,0.00111254,0.00108003,0.00351487,0.00062698,0.4225,0.00216474,0.0176118,965,1667,-12.3909,-164.74
-252,-643,-12.7296,167.052,0.00453126,0.00142569,0.000770395,0.00471187,0.00124509,0.230277,0.0028194,0.0207046,972,1667,-12.7296,-167.052
-245,-643,-13.1062,169.281,0.00616888,0.00178684,0.000358065,0.00619794,0.00175778,0.0809962,0.0036884,0.0185714,979,1667,-13.1062,-169.281
-238,-643,-13.3986,171.469,0.00804472,0.00225197,3.53505e-05,0.00804493,0.00225175,0.00610224,0.00479241,0.0213392,986,1667,-13.3986,-171.469
-231,-643,-13.6701,173.702,0.00996068,0.0027625,-0.000260286,0.00997008,0.0027531,-0.0360971,0.00594543,0.0142732,993,1667,-13.6701,-173.702
-224,-643,-13.9141,175.888,0.0119121,0.00325698,-0.000708249,0.0119696,0.0031994,-0.0811113,0.00715581,0.013686,1000,1667,-13.9141,-175.888
-217,-643,-14.2471,178.011,0.0139554,0.00371794,-0.00119312,0.0140926,0.00358073,-0.1145,0.00845804,0.0128888,1007,1667,-14.247,-178.011
-210,-643,-14.5446,180.199,0.0160812,0.00401204,-0.00174072,0.0163272,0.00376599,-0.140417,0.00987192,0.0186924,1014,1667,-14.5446,-180.199
-203,-643,-14.787,182.415,0.018573,0.00454838,-0.00203784,0.0188631,0.00425827,-0.14141,0.0114237,0.0268696,1021,1667,-14.787,-182.415
-196,-643,-14.9478,184.486,0.021204,0.00479577,-0.00227745,0.0215143,0.00448553,-0.13539,0.0131061,0.0297082,1028,1667,-14.9478,-184.486
-189,-643,-14.9648,186.64,0.0239071,0.00450217,-0.00253587,0.024233,0.00417625,-0.127822,0.0149589,0.0451573,1035,1667,-14.9648,-186.64
-182,-643,-15.1895,188.944,0,0,0,0,0,0,0,-1,1042,1667,-15.1895,-188.944
-175,-643,-7.11316,138.679,0,0,0,0,0,0,0,-1,1049,1667,-7.11322,-138.679
-168,-643,-5.92041,131.39,0,0,0,0,0,0,0,-1,1056,1667,-5.92042,-131.39
-161,-643,-2.19751,109.358,0,0,0,0,0,0,0,-1,1063,1667,-2.19756,-109.358
-154,-643,-0.143555,99.9445,0,0,0,0,0,0,0,-1,1070,1667,-0.143534,-99.9445
-147,-643,2.29285,74.679,0,0,0,0,0,0,0,-1,1077,1667,2.2928,-74.6789
-140,-643,2.17468,70.4902,0,0,0,0,0,0,0,-1,1084,1667,2.17471,-70.4902
-133,-643,2.32495,61.5938,0,0,0,0,0,0,0,-1,1091,1667,2.32497,-61.5937
-126,-643,3.28662,58.6659,0,0,0,0,0,0,0,-1,1098,1667,3.28657,-58.6658
-119,-643,3.76282,14.1458,0,0,0,0,0,0,0,-1,1105,1667,3.76283,-14.1458
-112,-643,3.81458,16.2069,0,0,0,0,0,0,0,-1,1112,1667,3.81463,-16.2069
-105,-643,-2.23413,10.0996,0,0,0,0,0,0,0,-1,1119,1667,-2.23415,-10.0996
-98,-643,3.11035,4.68066,0,0,0,0,0,0,0,-1,1126,1667,3.11041,-4.68071
-91,-643,-1.74146,-2.5885,0,0,0,0,0,0,0,-1,1133,1667,-1.74146,2.58856
-84,-643,-3.07446,-0.199341,0,0,0,0,0,0,0,-1,1140,1667,-3.07449,0.199383
-77,-643,-3.63794,2.81165,0,0,0,0,0,0,0,-1,1147,1667,-3.63791,-2.8117
-70,-643,-3.36938,4.45203,0,0,0,0,0,0,0,-1,1154,1667,-3.36941,-4.452
-63,-643,-3.67822,6.26855,0,0,0,0,0,0,0,-1,1161,1667,-3.67823,-6.26856
-56,-643,-3.95142,8.1073,0,0,0,0,0,0,0,-1,1168,1667,-3.95139,-8.10732
-49,-643,-4.23535,9.90552,0,0,0,0,0,0,0,-1,1175,1667,-4.23537,-9.90557
-42,-643,-4.25195,10.7059,0,0,0,0,0,0,0,-1,1182,1667,-4.25192,-10.706
-35,-643,-4.10986,11.6588,0,0,0,0,0,0,0,-1,1189,1667,-4.10982,-11.6589
-28,-643,-1.38513,5.604,0,0,0,0,0,0,0,-1,1196,1667,-1.3851,-5.60403
-21,-643,27.0492,220.166,0,0,0,0,0,0,0,-1,1203,1667,27.0492,-220.166
-14,-643,25.851,220.509,0,0,0,0,0,0,0,-1,1210,1667,25.8509,-220.509
-7,-643,24.1639,222.183,0,0,0,0,0,0,0,-1,1217,1667,24.1639,-222.183
0,-643,22.641,222.162,0,0,0,0,0,0,0,-1,1224,1667,22.641,-222.162
7,-643,21.0853,222.181,0,0,0,0,0,0,0,-1,1231,1667,21.0853,-222.181
14,-643,20.0475,222.408,0,0,0,0,0,0,0,-1,1238,1667,20.0475,-222.408
21,-643,19.3424,222.317,0,0,0,0,0,0,0,-1,1245,1667,19.3424,-222.317
28,-643,17.0718,222.908,0,0,0,0,0,0,0,-1,1252,1667,17.0718,-222.908
35,-643,16.1635,222.676,0,0,0,0,0,0,0,-1,1259,1667,16.1635,-222.676
42,-643,14.8208,221.988,0,0,0,0,0,0,0,-1,1266,1667,14.8208,-221.988
49,-643,12.9146,220.986,0,0,0,0,0,0,0,-1,1273,1667,12.9146,-220.986
56,-643,11.1016,220.872,0,0,0,0,0,0,0,-1,1280,1667,11.1016,-220.872
63,-643,9.77771,220.805,0,0,0,0,0,0,0,-1,1287,1667,9.77777,-220.805
70,-643,8.49414,220.706,0,0,0,0,0,0,0,-1,1294,1667,8.49414,-220.706
77,-643,7.19617,220.606,0,0,0,0,0,0,0,-1,1301,1667,7.19622,-220.606
84,-643,5.47388,220.85,0,0,0,0,0,0,0,-1,1308,1667,5.47386,-220.85
91,-643,4.77246,219.571,0,0,0,0,0,0,0,-1,1315,1667,4.77252,-219.571
98,-643,3.85291,219.513,0,0,0,0,0,0,0,-1,1322,1667,3.85289,-219.513
105,-643,2.84534,219.632,0,0,0,0,0,0,0,-1,1329,1667,2.8453,-219.632
112,-643,2.21484,219.661,0,0,0,0,0,0,0,-1,1336,1667,2.21489,-219.661
119,-643,1.56689,219.689,0,0,0,0,0,0,0,-1,1343,1667,1.56693,-219.689
126,-643,3.93945,215.04,0,0,0,0,0,0,0,-1,1350,1667,3.93947,-215.04
133,-643,3.91992,213.737,0,0,0,0,0,0,0,-1,1357,1667,3.91996,-213.737
140,-643,3.88135,212.474,0,0,0,0,0,0,0,-1,1364,1667,3.88133,-212.474
147,-643,3.64111,211.387,0,0,0,0,0,0,0,-1,1371,1667,3.64108,-211.387
154,-643,3.69104,210.511,0,0,0,0,0,0,0,-1,1378,1667,3.69109,-210.511
161,-643,5.57935,26.2754,0,0,0,0,0,0,0,-1,1385,1667,5.57931,-26.2754
168,-643,10.5563,10.9818,0,0,0,0,0,0,0,-1,1392,1667,10.5562,-10.9819
175,-643,5.88525,-1.1698,0,0,0,0,0,0,0,-1,1399,1667,5.88526,1.16977
182,-643,5.80945,-0.418701,0,0,0,0,0,0,0,-1,1406,1667,5.80949,0.418712
189,-643,5.42297,12.9208,0,0,0,0,0,0,0,-1,1413,1667,5.42298,-12.9208
196,-643,5.51953,11.2415,0,0,0,0,0,0,0,-1,1420,1667,5.51948,-11.2414
203,-643,5.60828,9.82153,0,0,0,0,0,0,0,-1,1427,1667,5.60833,-9.82148
210,-643,4.73218,7.58728,0,0,0,0,0,0,0,-1,1434,1667,4.73222,-7.58728
217,-643,3.8031,5.28955,0,0,0,0,0,0,0,-1,1441,1667,3.80305,-5.28955
224,-643,2.96436,2.97095,0,0,0,0,0,0,0,-1,1448,1667,2.96432,-2.97095
231,-643,2.13403,1.08472,0,0,0,0,0,0,0,-1,1455,1667,2.13403,-1.08467
238,-643,1.18152,-0.261963,0,0,0,0,0,0,0,-1,1462,1667,1.18152,0.26192
245,-643,-0.157471,-1.79016,0,0,0,0,0,0,0,-1,1469,1667,-0.157517,1.7901
252,-643,8.08789,0.0202637,0,0,0,0,0,0,0,-1,1476,1667,8.08791,-0.0203056
259,-643,9.02979,-0.46936,0,0,0,0,0,0,0,-1,1483,1667,9.02974,0.46933
266,-643,4.55066,5.17554,0,0,0,0,0,0,0,-1,1490,1667,4.55063,-5.17556
273,-643,10.74,31.432,0,0,0,0,0,0,0,-1,1497,1667,10.7399,-31.4319
280,-643,12.1675,42.5023,0,0,0,0,0,0,0,-1,1504,1667,12.1675,-42.5023
287,-643,12.9725,46.299,0,0,0,0,0,0,0,-1,1511,1667,12.9725,-46.299
294,-643,18.1219,108.518,0,0,0,0,0,0,0,-1,1518,1667,18.122,-108.518
301,-643,18.713,120.823,0,0,0,0,0,0,0,-1,1525,1667,18.713,-120.823
308,-643,19.4183,137.233,0,0,0,0,0,0,0,-1,1532,1667,19.4183,-137.233
315,-643,20.1995,171.383,0,0,0,0,0,0,0,-1,1539,1667,20.1995,-171.383
322,-643,21.004,186.486,0,0,0,0,0,0,0,-1,1546,1667,21.004,-186.486
329,-643,20.7222,184.187,0.0157132,0.00344381,0.001727,0.0159516,0.00320535,0.137206,0.00974332,0.0498345,1553,1667,20.7222,-184.187
336,-643,20.3793,182.374,0.0142481,0.00447239,0.00100081,0.0143495,0.00437098,0.100982,0.00849291,0.0368186,1560,1667,20.3793,-182.374
343,-643,20.2468,180.341,0.0127617,0.00523321,0.000263254,0.0127709,0.00522402,0.0349108,0.00741384,0.0219538,1567,1667,20.2468,-180.341
350,-643,20.0004,178.039,0.0113665,0.00554847,-0.000421314,0.0113968,0.00551812,-0.0719152,0.00658107,0.0163407,1574,1667,20.0004,-178.039
357,-643,19.6918,175.861,0.00990781,0.00533693,-0.000972322,0.010106,0.00513869,-0.201123,0.00583501,0.0127671,1581,1667,19.6917,-175.861
364,-643,19.4252,173.698,0.00861348,0.00507196,-0.00146695,0.00914218,0.00454325,-0.34592,0.00527827,0.0118935,1588,1667,19.4252,-173.698
371,-643,19.1563,171.523,0.00743985,0.004424,-0.00173402,0.00822989,0.00363395,-0.427513,0.00476234,0.01122,1595,1667,19.1562,-171.523
378,-643,18.8524,169.306,0.00640795,0.00382056,-0.00199023,0.00748799,0.00274051,-0.497202,0.00437465,0.0135614,1602,1667,18.8525,-169.306
385,-643,18.5499,167.043,0.00555505,0.00340943,-0.00234758,0.00706333,0.00190115,-0.571075,0.0042204,0.0210194,1609,1667,18.5499,-167.043
392,-643,18.1874,164.82,0.00470749,0.00275433,-0.00254676,0.00645849,0.00100333,-0.602314,0.00401324,0.021161,1616,1667,18.1873,-164.82
399,-643,17.8239,162.59,0.00401177,0.00220796,-0.00279939,0.00605095,0.000168776,-0.629559,0.0039789,0.0176731,1623,1667,17.8238,-162.59
406,-643,17.4692,160.275,0.00346673,0.0018814,-0.00307281,0.00584746,-0.000499335,-0.659169,0.00407496,0.0165217,1630,1667,17.4693,-160.275
413,-643,17.1317,157.958,0.00308195,0.0017539,-0.00347614,0.00595692,-0.00112107,-0.691023,0.00439291,0.0228203,1637,1667,17.1317,-157.958
420,-643,16.7327,155.71,0.00275511,0.00179501,-0.00394769,0.00625183,-0.00170171,-0.724893,0.00483597,0.022411,1644,1667,16.7327,-155.71
427,-643,16.3433,153.443,0.00251499,0.00195491,-0.00446417,0.00670789,-0.002238,-0.754074,0.00537553,0.0196559,1651,1667,16.3433,-153.443
434,-643,15.9344,151.115,0.00232018,0.00214396,-0.00497799,0.00721084,-0.00274671,-0.776549,0.00593845,0.0216038,1658,1667,15.9344,-151.115
441,-643,15.5321,148.776,0.00206779,0.00253014,-0.00552426,0.00782806,-0.00323013,-0.80631,0.00656583,0.0248844,1665,1667,15.5321,-148.776
448,-643,15.1736,146.411,0.00166013,0.00270599,-0.00595518,0.00816115,-0.00379503,-0.829191,0.00705466,0.0399701,1672,1667,15.1736,-146.411
455,-643,14.7859,144.006,0,0,0,0,0,0,0,-1,1679,1667,14.7859,-144.006
462,-643,14.5381,139.965,0,0,0,0,0,0,0,-1,1686,1667,14.5381,-139.965
469,-643,15.6941,107.608,0,0,0,0,0,0,0,-1,1693,1667,15.6941,-107.608
476,-643,16.5469,79.5991,0,0,0,0,0,0,0,-1,1700,1667,16.5469,-79.5992
483,-643,16.2855,58.1313,0,0,0,0,0,0,0,-1,1707,1667,16.2855,-58.1313
490,-643,10.6885,24.1522,0,0,0,0,0,0,0,-1,1714,1667,10.6884,-24.1522
497,-643,10.9073,23.9465,0,0,0,0,0,0,0,-1,1721,1667,10.9074,-23.9465
504,-643,8.05591,19.0656,0,0,0,0,0,0,0,-1,1728,1667,8.0559,-19.0655
511,-643,7.74719,18.1564,0,0,0,0,0,0,0,-1,1735,1667,7.74724,-18.1563
518,-643,7.40564,0.922607,0,0,0,0,0,0,0,-1,1742,1667,7.4057,-0.922598
525,-643,0,0,0,0,0,0,0,0,0,-1,1749,1667,0,0
532,-643,0,0,0,0,0,0,0,0,0,-1,1756,1667,0,0
539,-643,0,0,0,0,0,0,0,0,0,-1,1763,1667,0,0
546,-643,0,0,0,0,0,0,0,0,0,-1,1770,1667,0,0
553,-643,0,0,0,0,0,0,0,0,0,-1,1777,1667,0,0
560,-643,0,0,0,0,0,0,0,0,0,-1,1784,1667,0,0
567,-643,0,0,0,0,0,0,0,0,0,-1,1791,1667,0,0
574,-643,0,0,0,0,0,0,0,0,0,-1,1798,1667,0,0
581,-643,0,0,0,0,0,0,0,0,0,-1,1805,1667,0,0
588,-643,0,0,0,0,0,0,0,0,0,-1,1812,1667,0,0
595,-643,0,0,0,0,0,0,0,0,0,-1,1819,1667,0,0
602,-643,0,0,0,0,0,0,0,0,0,-1,1826,1667,0,0
609,-643,0,0,0,0,0,0,0,0,0,-1,1833,1667,0,0
616,-643,0,0,0,0,0,0,0,0,0,-1,1840,1667,0,0
623,-643,0,0,0,0,0,0,0,0,0,-1,1847,1667,0,0
630,-643,0,0,0,0,0,0,0,0,0,-1,1854,1667,0,0
637,-643,0,0,0,0,0,0,0,0,0,-1,1861,1667,0,0
644,-643,0,0,0,0,0,0,0,0,0,-1,1868,1667,0,0
651,-643,0,0,0,0,0,0,0,0,0,-1,1875,1667,0,0
658,-643,0,0,0,0,0,0,0,0,0,-1,1882,1667,0,0
665,-643,0,0,0,0,0,0,0,0,0,-1,1889,1667,0,0
672,-643,0,0,0,0,0,0,0,0,0,-1,1896,1667,0,0
679,-643,0,0,0,0,0,0,0,0,0,-1,1903,1667,0,0
686,-643,0,0,0,0,0,0,0,0,0,-1,1910,1667,0,0
693,-643,0,0,0,0,0,0,0,0,0,-1,1917,1667,0,0
700,-643,0,0,0,0,0,0,0,0,0,-1,1924,1667,0,0
707,-643,0,0,0,0,0,0,0,0,0,-1,1931,1667,0,0
714,-643,0,0,0,0,0,0,0,0,0,-1,1938,1667,0,0
721,-643,0,0,0,0,0,0,0,0,0,-1,1945,1667,0,0
728,-643,0,0,0,0,0,0,0,0,0,-1,1952,1667,0,0
735,-643,0,0,0,0,0,0,0,0,0,-1,1959,1667,0,0
742,-643,0,0,0,0,0,0,0,0,0,-1,1966,1667,0,0
749,-643,0,0,0,0,0,0,0,0,0,-1,1973,1667,0,0
756,-643,0,0,0,0,0,0,0,0,0,-1,1980,1667,0,0
763,-643,0,0,0,0,0,0,0,0,0,-1,1987,1667,0,0
770,-643,0,0,0,0,0,0,0,0,0,-1,1994,1667,0,0
777,-643,0,0,0,0,0,0,0,0,0,-1,2001,1667,0,0
784,-643,0,0,0,0,0,0,0,0,0,-1,2008,1667,0,0
791,-643,0,0,0,0,0,0,0,0,0,-1,2015,1667,0,0
798,-643,0,0,0,0,0,0,0,0,0,-1,2022,1667,0,0
805,-643,0,0,0,0,0,0,0,0,0,-1,2029,1667,0,0
812,-643,0,0,0,0,0,0,0,0,0,-1,2036,1667,0,0
-700,-650,0,0,0,0,0,0,0,0,0,-1,524,1674,0,0
-693,-650,0,0,0,0,0,0,0,0,0,-1,531,1674,0,0
-686,-650,0,0,0,0,0,0,0,0,0,-1,538,1674,0,0
-679,-650,0,0,0,0,0,0,0,0,0,-1,545,1674,0,0
-672,-650,0,0,0,0,0,0,0,0,0,-1,552,1674,0,0
-665,-650,0,0,0,0,0,0,0,0,0,-1,559,1674,0,0
-658,-650,0,0,0,0,0,0,0,0,0,-1,566,1674,0,0
-651,-650,0,0,0,0,0,0,0,0,0,-1,573,1674,0,0
-644,-650,0,0,0,0,0,0,0,0,0,-1,580,1674,0,0
-637,-650,0,0,0,0,0,0,0,0,0,-1,587,1674,0,0
-630,-650,0,0,0,0,0,0,0,0,0,-1,594,1674,0,0
-623,-650,0,0,0,0,0,0,0,0,0,-1,601,1674,0,0
-616,-650,0,0,0,0,0,0,0,0,0,-1,608,1674,0,0
-609,-650,0,0,0,0,0,0,0,0,0,-1,615,1674,0,0
-602,-650,0,0,0,0,0,0,0,0,0,-1,622,1674,0,0
-595,-650,0,0,0,0,0,0,0,0,0,-1,629,1674,0,0
-588,-650,0,0,0,0,0,0,0,0,0,-1,636,1674,0,0
-581,-650,0,0,0,0,0,0,0,0,0,-1,643,1674,0,0
-574,-650,0,0,0,0,0,0,0,0,0,-1,650,1674,0,0
-567,-650,0,0,0,0,0,0,0,0,0,-1,657,1674,0,0
-560,-650,0,0,0,0,0,0,0,0,0,-1,664,1674,0,0
-553,-650,0,0,0,0,0,0,0,0,0,-1,671,1674,0,0
-546,-650,0,0,0,0,0,0,0,0,0,-1,678,1674,0,0
-539,-650,0,0,0,0,0,0,0,0,0,-1,685,1674,0,0
-532,-650,0,0,0,0,0,0,0,0,0,-1,692,1674,0,0
-525,-650,0,0,0,0,0,0,0,0,0,-1,699,1674,0,0
-518,-650,0,0,0,0,0,0,0,0,0,-1,706,1674,0,0
-511,-650,0,0,0,0,0,0,0,0,0,-1,713,1674,0,0
-504,-650,0,0,0,0,0,0,0,0,0,-1,720,1674,0,0
-497,-650,0,0,0,0,0,0,0,0,0,-1,727,1674,0,0
-490,-650,0,0,0,0,0,0,0,0,0,-1,734,1674,0,0
-483,-650,0,0,0,0,0,0,0,0,0,-1,741,1674,0,0
-476,-650,0,0,0,0,0,0,0,0,0,-1,748,1674,0,0
-469,-650,0,0,0,0,0,0,0,0,0,-1,755,1674,0,0
-462,-650,0,0,0,0,0,0,0,0,0,-1,762,1674,0,0
-455,-650,0,0,0,0,0,0,0,0,0,-1,769,1674,0,0
-448,-650,0,0,0,0,0,0,0,0,0,-1,776,1674,0,0
-441,-650,0,0,0,0,0,0,0,0,0,-1,783,1674,0,0
-434,-650,0,0,0,0,0,0,0,0,0,-1,790,1674,0,0
-427,-650,0,0,0,0,0,0,0,0,0,-1,797,1674,0,0
-420,-650,0,0,0,0,0,0,0,0,0,-1,804,1674,0,0
-413,-650,0,0,0,0,0,0,0,0,0,-1,811,1674,0,0
-406,-650,0,0,0,0,0,0,0,0,0,-1,818,1674,0,0
-399,-650,0,0,0,0,0,0,0,0,0,-1,825,1674,0,0
-392,-650,5.44415,6.85669,0,0,0,0,0,0,0,-1,832,1674,5.44414,-6.85674
-385,-650,1.74451,14.0183,0,0,0,0,0,0,0,-1,839,1674,1.74453,-14.0183
-378,-650,0.997986,4.11108,0,0,0,0,0,0,0,-1,846,1674,0.998006,-4.11113
-371,-650,-1.80096,3.78625,0,0,0,0,0,0,0,-1,853,1674,-1.80094,-3.78625
-364,-650,-2.95679,2.57507,0,0,0,0,0,0,0,-1,860,1674,-2.95681,-2.57506
-357,-650,5.76074,34.531,0,0,0,0,0,0,0,-1,867,1674,5.76077,-34.531
-350,-650,5.11011,35.4972,0,0,0,0,0,0,0,-1,874,1674,5.1101,-35.4971
-343,-650,5.20538,37.4165,0,0,0,0,0,0,0,-1,881,1674,5.20538,-37.4166
-336,-650,-1.81726,96.24,0,0,0,0,0,0,0,-1,888,1674,-1.81727,-96.24
-329,-650,-3.37445,103.583,0,0,0,0,0,0,0,-1,895,1674,-3.37446,-103.583
-322,-650,-4.90698,122.366,0,0,0,0,0,0,0,-1,902,1674,-4.90696,-122.366
-315,-650,-6.50775,137.28,0,0,0,0,0,0,0,-1,909,1674,-6.50778,-137.28
-308,-650,-7.28839,148.66,0,0,0,0,0,0,0,-1,916,1674,-7.2884,-148.66
-301,-650,-7.64581,151.323,-0.00461683,0.00232855,0.00351945,0.00380016,-0.00608844,1.17475,0.00575991,0.0249761,923,1674,-7.64583,-151.323
-294,-650,-8.13409,153.641,-0.00408873,0.00178194,0.00300345,0.00304624,-0.00535302,1.17236,0.0049099,0.0189044,930,1674,-8.13407,-153.641
-287,-650,-8.53564,156.002,-0.00341702,0.00147142,0.0025894,0.00258799,-0.00453358,1.16368,0.00416247,0.0204638,937,1674,-8.53562,-156.002
-280,-650,-8.9259,158.248,-0.00264473,0.00114723,0.00226071,0.00220177,-0.00369927,1.13434,0.00344334,0.0209093,944,1674,-8.92591,-158.248
-273,-650,-9.32477,160.559,-0.00162933,0.000975153,0.00204487,0.00209723,-0.0027514,1.06893,0.00280784,0.0193254,951,1674,-9.32479,-160.559
-266,-650,-9.74231,162.854,-0.000335517,0.00100917,0.00192291,0.00237388,-0.00170023,0.953579,0.00236289,0.0139631,958,1674,-9.74231,-162.854
-259,-650,-10.151,165.129,0.00104798,0.00110422,0.00174377,0.0028201,-0.000667901,0.79346,0.00213777,0.0187072,965,1674,-10.151,-165.129
-252,-650,-10.513,167.418,0.00247074,0.00128634,0.00145858,0.00345275,0.000304329,0.592559,0.0022074,0.0189333,972,1674,-10.513,-167.418
-245,-650,-10.8551,169.647,0.00398528,0.0015097,0.00109286,0.00439869,0.00109629,0.361648,0.00264391,0.0166018,979,1674,-10.8551,-169.647
-238,-650,-11.1714,171.84,0.00564577,0.0017588,0.000759169,0.00578878,0.00161579,0.186198,0.00344914,0.0167444,986,1674,-11.1714,-171.84
-231,-650,-11.54,174.089,0.00731569,0.00203788,0.000408186,0.00734707,0.0020065,0.0767319,0.00438501,0.0216749,993,1674,-11.54,-174.089
-224,-650,-11.8033,176.28,0.0089991,0.00221338,-0.000105786,0.00900075,0.00221173,-0.0155844,0.00541594,0.0198758,1000,1674,-11.8033,-176.28
-217,-650,-12.0509,178.375,0.0107266,0.0022709,-0.000669083,0.0107792,0.00221829,-0.078477,0.00657272,0.0141913,1007,1674,-12.0509,-178.375
-210,-650,-12.2943,180.515,0.0125356,0.00221184,-0.00127711,0.0126913,0.0020562,-0.12127,0.00786555,0.0130993,1014,1674,-12.2943,-180.515
-203,-650,-12.4975,182.672,0.0146222,0.00219964,-0.00171129,0.0148536,0.00196821,-0.134422,0.0093159,0.0185347,1021,1674,-12.4975,-182.672
-196,-650,-12.782,184.783,0.0167999,0.0019221,-0.00214857,0.017104,0.00161803,-0.140588,0.0109034,0.0183045,1028,1674,-12.782,-184.783
-189,-650,-12.9877,186.863,0.0190969,0.00125286,-0.00261688,0.0194727,0.000877004,-0.142652,0.0126996,0.0220011,1035,1674,-12.9877,-186.863
-182,-650,-13.1273,189.062,0.0215685,0.000551735,-0.00302387,0.0219949,0.000125316,-0.140094,0.0146217,0.0474693,1042,1674,-13.1274,-189.062
-175,-650,-13.2816,191.383,0,0,0,0,0,0,0,-1,1049,1674,-13.2816,-191.383
-168,-650,-7.99158,155.667,0,0,0,0,0,0,0,-1,1056,1674,-7.99163,-155.667
-161,-650,-5.98145,140.817,0,0,0,0,0,0,0,-1,1063,1674,-5.98139,-140.817
-154,-650,-2.67444,122.398,0,0,0,0,0,0,0,-1,1070,1674,-2.67445,-122.398
-147,-650,1.06372,101.053,0,0,0,0,0,0,0,-1,1077,1674,1.06373,-101.053
-140,-650,3.01062,75.6625,0,0,0,0,0,0,0,-1,1084,1674,3.01057,-75.6625
-133,-650,3.06543,72.1895,0,0,0,0,0,0,0,-1,1091,1674,3.06545,-72.1895
-126,-650,3.67334,62.924,0,0,0,0,0,0,0,-1,1098,1674,3.67329,-62.924
-119,-650,5.16663,20.6232,0,0,0,0,0,0,0,-1,1105,1674,5.16665,-20.6232
-112,-650,3.86292,14.4513,0,0,0,0,0,0,0,-1,1112,1674,3.8629,-14.4513
-105,-650,7.92102,38.1313,0,0,0,0,0,0,0,-1,1119,1674,7.92104,-38.1314
-98,-650,3.3761,6.78003,0,0,0,0,0,0,0,-1,1126,1674,3.37611,-6.78009
-91,-650,3.66809,7.04443,0,0,0,0,0,0,0,-1,1133,1674,3.66806,-7.04439
-84,-650,-3.82666,-1.59521,0,0,0,0,0,0,0,-1,1140,1674,-3.82661,1.59517
-77,-650,-4.70557,1.90198,0,0,0,0,0,0,0,-1,1147,1674,-4.7056,-1.90194
-70,-650,-4.88171,3.81653,0,0,0,0,0,0,0,-1,1154,1674,-4.88176,-3.81651
-63,-650,-5.14612,5.56543,0,0,0,0,0,0,0,-1,1161,1674,-5.14612,-5.56547
-56,-650,-5.38367,7.41101,0,0,0,0,0,0,0,-1,1168,1674,-5.38361,-7.41102
-49,-650,-5.11316,8.23706,0,0,0,0,0,0,0,-1,1175,1674,-5.11317,-8.23708
-42,-650,-4.99487,9.6792,0,0,0,0,0,0,0,-1,1182,1674,-4.99484,-9.67921
-35,-650,-4.77771,11.3369,0,0,0,0,0,0,0,-1,1189,1674,-4.77769,-11.3369
-28,-650,-4.1936,13.1501,0,0,0,0,0,0,0,-1,1196,1674,-4.19358,-13.1501
-21,-650,27.1227,220.601,0,0,0,0,0,0,0,-1,1203,1674,27.1227,-220.601
-14,-650,25.7292,221.218,0,0,0,0,0,0,0,-1,1210,1674,25.7293,-221.218
-7,-650,24.1882,221.652,0,0,0,0,0,0,0,-1,1217,1674,24.1882,-221.652
0,-650,22.527,223.213,0,0,0,0,0,0,0,-1,1224,1674,22.527,-223.213
7,-650,20.9216,223.245,0,0,0,0,0,0,0,-1,1231,1674,20.9216,-223.245
14,-650,19.5638,223.194,0,0,0,0,0,0,0,-1,1238,1674,19.5639,-223.194
21,-650,17.8214,224.987,0,0,0,0,0,0,0,-1,1245,1674,17.8214,-224.987
28,-650,16.5828,224.375,0,0,0,0,0,0,0,-1,1252,1674,16.5827,-224.375
35,-650,15.6578,223.946,0,0,0,0,0,0,0,-1,1259,1674,15.6578,-223.946
42,-650,14.2487,223.412,0,0,0,0,0,0,0,-1,1266,1674,14.2487,-223.412
49,-650,12.5895,223.174,0,0,0,0,0,0,0,-1,1273,1674,12.5895,-223.174
56,-650,11.1687,222.657,0,0,0,0,0,0,0,-1,1280,1674,11.1687,-222.657
63,-650,9.53491,221.925,0,0,0,0,0,0,0,-1,1287,1674,9.53495,-221.925
70,-650,8.22925,221.486,0,0,0,0,0,0,0,-1,1294,1674,8.22921,-221.486
77,-650,7.13904,221.057,0,0,0,0,0,0,0,-1,1301,1674,7.13898,-221.057
84,-650,5.68005,221.322,0,0,0,0,0,0,0,-1,1308,1674,5.68009,-221.322
91,-650,4.9104,220.712,0,0,0,0,0,0,0,-1,1315,1674,4.91037,-220.712
98,-650,4.32263,220.573,0,0,0,0,0,0,0,-1,1322,1674,4.32262,-220.573
105,-650,3.61328,220.763,0,0,0,0,0,0,0,-1,1329,1674,3.61325,-220.763
112,-650,2.64978,220.818,0,0,0,0,0,0,0,-1,1336,1674,2.64981,-220.818
119,-650,3.57507,217.861,0,0,0,0,0,0,0,-1,1343,1674,3.57502,-217.861
126,-650,3.48975,216.172,0,0,0,0,0,0,0,-1,1350,1674,3.48978,-216.172
133,-650,3.4137,214.912,0,0,0,0,0,0,0,-1,1357,1674,3.41368,-214.912
140,-650,3.42139,213.679,0,0,0,0,0,0,0,-1,1364,1674,3.42143,-213.679
147,-650,3.6936,212.438,0,0,0,0,0,0,0,-1,1371,1674,3.69363,-212.438
154,-650,3.80188,211.306,0,0,0,0,0,0,0,-1,1378,1674,3.80187,-211.306
161,-650,-1.18494,102.822,0,0,0,0,0,0,0,-1,1385,1674,-1.18498,-102.822
168,-650,11.2113,7.87231,0,0,0,0,0,0,0,-1,1392,1674,11.2113,-7.87236
175,-650,5.62537,-0.230713,0,0,0,0,0,0,0,-1,1399,1674,5.62538,0.230745
182,-650,5.56006,0.421631,0,0,0,0,0,0,0,-1,1406,1674,5.56,-0.421652
189,-650,4.81543,11.0654,0,0,0,0,0,0,0,-1,1413,1674,4.81542,-11.0654
196,-650,5.39575,11.9077,0,0,0,0,0,0,0,-1,1420,1674,5.39575,-11.9078
203,-650,3.93628,11.8215,0,0,0,0,0,0,0,-1,1427,1674,3.93624,-11.8216
210,-650,5.40955,8.08594,0,0,0,0,0,0,0,-1,1434,1674,5.40958,-8.086
217,-650,5.12451,4.69739,0,0,0,0,0,0,0,-1,1441,1674,5.12451,-4.69738
224,-650,4.79041,1.45813,0,0,0,0,0,0,0,-1,1448,1674,4.79046,-1.45816
231,-650,4.04102,-0.642212,0,0,0,0,0,0,0,-1,1455,1674,4.04101,0.642209
238,-650,3.23022,-1.43396,0,0,0,0,0,0,0,-1,1462,1674,3.23023,1.43394
245,-650,1.65894,-2.55042,0,0,0,0,0,0,0,-1,1469,1674,1.65889,2.55036
252,-650,8.75342,0.355103,0,0,0,0,0,0,0,-1,1476,1674,8.75337,-0.355147
259,-650,5.61255,3.17566,0,0,0,0,0,0,0,-1,1483,1674,5.61257,-3.17572
266,-650,4.00403,6.10229,0,0,0,0,0,0,0,-1,1490,1674,4.00401,-6.10225
273,-650,11.9524,42.7109,0,0,0,0,0,0,0,-1,1497,1674,11.9524,-42.7109
280,-650,12.3011,46.7283,0,0,0,0,0,0,0,-1,1504,1674,12.3011,-46.7283
287,-650,14.0593,62.3341,0,0,0,0,0,0,0,-1,1511,1674,14.0593,-62.334
294,-650,17.2339,122.499,0,0,0,0,0,0,0,-1,1518,1674,17.2339,-122.499
301,-650,17.9724,139.27,0,0,0,0,0,0,0,-1,1525,1674,17.9724,-139.27
308,-650,18.6383,183.018,0,0,0,0,0,0,0,-1,1532,1674,18.6382,-183.018
315,-650,19.063,188.919,0,0,0,0,0,0,0,-1,1539,1674,19.0629,-188.919
322,-650,18.8547,186.831,0,0,0,0,0,0,0,-1,1546,1674,18.8548,-186.831
329,-650,18.5863,184.706,0.0134721,0.0017296,0.00143088,0.0136439,0.00155775,0.119525,0.00862374,0.032109,1553,1674,18.5863,-184.706
336,-650,18.361,182.629,0.011935,0.0026488,0.00081427,0.0120058,0.00257794,0.0868037,0.00729795,0.0202594,1560,1674,18.3609,-182.629
343,-650,18.1179,180.53,0.0104757,0.00344185,0.000130956,0.0104781,0.00343942,0.0186094,0.00616736,0.0197686,1567,1674,18.118,-180.53
350,-650,17.8424,178.392,0.00915248,0.00382521,-0.00053826,0.00920632,0.00377137,-0.0996962,0.00534412,0.020217,1574,1674,17.8424,-178.392
357,-650,17.5162,176.235,0.00781619,0.00374569,-0.00113043,0.00810906,0.00345283,-0.2535,0.00469892,0.016268,1581,1674,17.5163,-176.235
364,-650,17.2483,174.032,0.0066396,0.00354918,-0.00164077,0.00734823,0.00284055,-0.407691,0.00427874,0.0115068,1588,1674,17.2483,-174.032
371,-650,16.9546,171.858,0.00562885,0.00309216,-0.00201928,0.00674508,0.00197593,-0.504979,0.00400403,0.015109,1595,1674,16.9546,-171.858
378,-650,16.6288,169.657,0.0047846,0.00262134,-0.00237745,0.0063149,0.00109104,-0.571915,0.00389749,0.0179017,1602,1674,16.6288,-169.657
385,-650,16.3417,167.448,0.00410947,0.00232992,-0.00283561,0.00619162,0.000247766,-0.633371,0.00404769,0.0182487,1609,1674,16.3417,-167.448
392,-650,15.9609,165.194,0.00346571,0.00186706,-0.00316622,0.00593194,-0.00059917,-0.661755,0.00416873,0.0214861,1616,1674,15.9609,-165.194
399,-650,15.5884,162.934,0.00299292,0.00157829,-0.0035762,0.00593108,-0.00135987,-0.687766,0.00447673,0.0202007,1623,1674,15.5884,-162.934
406,-650,15.2072,160.662,0.00268033,0.00155401,-0.00406131,0.00621734,-0.001983,-0.716506,0.00494038,0.0187786,1630,1674,15.2072,-160.662
413,-650,14.866,158.355,0.00249342,0.00168059,-0.00463144,0.00673624,-0.00256224,-0.741635,0.00554584,0.018875,1637,1674,14.866,-158.355
420,-650,14.4496,156.133,0.00234277,0.00210176,-0.00530192,0.00752555,-0.00308102,-0.774036,0.00630037,0.0199128,1644,1674,14.4496,-156.133
427,-650,14.057,153.862,0.00229222,0.0026355,-0.00603639,0.00850269,-0.00357497,-0.799612,0.00716389,0.0192351,1651,1674,14.057,-153.862
434,-650,13.6531,151.512,0.00231475,0.0032612,-0.00678701,0.00959147,-0.00401552,-0.820204,0.00807287,0.0309602,1658,1674,13.6531,-151.512
441,-650,13.2318,149.058,0,0,0,0,0,0,0,-1,1665,1674,13.2318,-149.058
448,-650,12.7076,146.67,0,0,0,0,0,0,0,-1,1672,1674,12.7077,-146.67
455,-650,12.1978,141.432,0,0,0,0,0,0,0,-1,1679,1674,12.1977,-141.432
462,-650,13.7844,109.635,0,0,0,0,0,0,0,-1,1686,1674,13.7845,-109.635
469,-650,16.0024,83.395,0,0,0,0,0,0,0,-1,1693,1674,16.0025,-83.395
476,-650,15.3911,81.0083,0,0,0,0,0,0,0,-1,1700,1674,15.3911,-81.0082
483,-650,14.676,57.1664,0,0,0,0,0,0,0,-1,1707,1674,14.676,-57.1664
490,-650,14.6292,56.9932,0,0,0,0,0,0,0,-1,1714,1674,14.6292,-56.9932
497,-650,10.4985,20.1362,0,0,0,0,0,0,0,-1,1721,1674,10.4986,-20.1362
504,-650,9.69458,18.7721,0,0,0,0,0,0,0,-1,1728,1674,9.6946,-18.772
511,-650,9.37158,17.7506,0,0,0,0,0,0,0,-1,1735,1674,9.37159,-17.7506
518,-650,0,0,0,0,0,0,0,0,0,-1,1742,1674,0,0
525,-650,0,0,0,0,0,0,0,0,0,-1,1749,1674,0,0
532,-650,0,0,0,0,0,0,0,0,0,-1,1756,1674,0,0
539,-650,0,0,0,0,0,0,0,0,0,-1,1763,1674,0,0
546,-650,0,0,0,0,0,0,0,0,0,-1,1770,1674,0,0
553,-650,0,0,0,0,0,0,0,0,0,-1,1777,1674,0,0
560,-650,0,0,0,0,0,0,0,0,0,-1,1784,1674,0,0
567,-650,0,0,0,0,0,0,0,0,0,-1,1791,1674,0,0
574,-650,0,0,0,0,0,0,0,0,0,-1,1798,1674,0,0
581,-650,0,0,0,0,0,0,0,0,0,-1,1805,1674,0,0
588,-650,0,0,0,0,0,0,0,0,0,-1,1812,1674,0,0
595,-650,0,0,0,0,0,0,0,0,0,-1,1819,1674,0,0
602,-650,0,0,0,0,0,0,0,0,0,-1,1826,1674,0,0
609,-650,0,0,0,0,0,0,0,0,0,-1,1833,1674,0,0
616,-650,0,0,0,0,0,0,0,0,0,-1,1840,1674,0,0
623,-650,0,0,0,0,0,0,0,0,0,-1,1847,1674,0,0
630,-650,0,0,0,0,0,0,0,0,0,-1,1854,1674,0,0
637,-650,0,0,0,0,0,0,0,0,0,-1,1861,1674,0,0
644,-650,0,0,0,0,0,0,0,0,0,-1,1868,1674,0,0
651,-650,0,0,0,0,0,0,0,0,0,-1,1875,1674,0,0
658,-650,0,0,0,0,0,0,0,0,0,-1,1882,1674,0,0
665,-650,0,0,0,0,0,0,0,0,0,-1,1889,1674,0,0
672,-650,0,0,0,0,0,0,0,0,0,-1,1896,1674,0,0
679,-650,0,0,0,0,0,0,0,0,0,-1,1903,1674,0,0
686,-650,0,0,0,0,0,0,0,0,0,-1,1910,1674,0,0
693,-650,0,0,0,0,0,0,0,0,0,-1,1917,1674,0,0
700,-650,0,0,0,0,0,0,0,0,0,-1,1924,1674,0,0
707,-650,0,0,0,0,0,0,0,0,0,-1,1931,1674,0,0
714,-650,0,0,0,0,0,0,0,0,0,-1,1938,1674,0,0
721,-650,0,0,0,0,0,0,0,0,0,-1,1945,1674,0,0
728,-650,0,0,0,0,0,0,0,0,0,-1,1952,1674,0,0
735,-650,0,0,0,0,0,0,0,0,0,-1,1959,1674,0,0
742,-650,0,0,0,0,0,0,0,0,0,-1,1966,1674,0,0
749,-650,0,0,0,0,0,0,0,0,0,-1,1973,1674,0,0
756,-650,0,0,0,0,0,0,0,0,0,-1,1980,1674,0,0
763,-650,0,0,0,0,0,0,0,0,0,-1,1987,1674,0,0
770,-650,0,0,0,0,0,0,0,0,0,-1,1994,1674,0,0
777,-650,0,0,0,0,0,0,0,0,0,-1,2001,1674,0,0
784,-650,0,0,0,0,0,0,0,0,0,-1,2008,1674,0,0
791,-650,0,0,0,0,0,0,0,0,0,-1,2015,1674,0,0
798,-650,0,0,0,0,0,0,0,0,0,-1,2022,1674,0,0
805,-650,0,0,0,0,0,0,0,0,0,-1,2029,1674,0,0
812,-650,0,0,0,0,0,0,0,0,0,-1,2036,1674,0,0
-700,-657,0,0,0,0,0,0,0,0,0,-1,524,1681,0,0
-693,-657,0,0,0,0,0,0,0,0,0,-1,531,1681,0,0
-686,-657,0,0,0,0,0,0,0,0,0,-1,538,1681,0,0
-679,-657,0,0,0,0,0,0,0,0,0,-1,545,1681,0,0
-672,-657,0,0,0,0,0,0,0,0,0,-1,552,1681,0,0
-665,-657,0,0,0,0,0,0,0,0,0,-1,559,1681,0,0
-658,-657,0,0,0,0,0,0,0,0,0,-1,566,1681,0,0
-651,-657,0,0,0,0,0,0,0,0,0,-1,573,1681,0,0
-644,-657,0,0,0,0,0,0,0,0,0,-1,580,1681,0,0
-637,-657,0,0,0,0,0,0,0,0,0,-1,587,1681,0,0
-630,-657,0,0,0,0,0,0,0,0,0,-1,594,1681,0,0
-623,-657,0,0,0,0,0,0,0,0,0,-1,601,1681,0,0
-616,-657,0,0,0,0,0,0,0,0,0,-1,608,1681,0,0
-609,-657,0,0,0,0,0,0,0,0,0,-1,615,1681,0,0
-602,-657,0,0,0,0,0,0,0,0,0,-1,622,1681,0,0
-595,-657,0,0,0,0,0,0,0,0,0,-1,629,1681,0,0
-588,-657,0,0,0,0,0,0,0,0,0,-1,636,1681,0,0
-581,-657,0,0,0,0,0,0,0,0,0,-1,643,1681,0,0
-574,-657,0,0,0,0,0,0,0,0,0,-1,650,1681,0,0
-567,-657,0,0,0,0,0,0,0,0,0,-1,657,1681,0,0
-560,-657,0,0,0,0,0,0,0,0,0,-1,664,1681,0,0
-553,-657,0,0,0,0,0,0,0,0,0,-1,671,1681,0,0
-546,-657,0,0,0,0,0,0,0,0,0,-1,678,1681,0,0
-539,-657,0,0,0,0,0,0,0,0,0,-1,685,1681,0,0
-532,-657,0,0,0,0,0,0,0,0,0,-1,692,1681,0,0
-525,-657,0,0,0,0,0,0,0,0,0,-1,699,1681,0,0
-518,-657,0,0,0,0,0,0,0,0,0,-1,706,1681,0,0
-511,-657,0,0,0,0,0,0,0,0,0,-1,713,1681,0,0
-504,-657,0,0,0,0,0,0,0,0,0,-1,720,1681,0,0
-497,-657,0,0,0,0,0,0,0,0,0,-1,727,1681,0,0
-490,-657,0,0,0,0,0,0,0,0,0,-1,734,1681,0,0
-483,-657,0,0,0,0,0,0,0,0,0,-1,741,1681,0,0
-476,-657,0,0,0,0,0,0,0,0,0,-1,748,1681,0,0
-469,-657,0,0,0,0,0,0,0,0,0,-1,755,1681,0,0
-462,-657,0,0,0,0,0,0,0,0,0,-1,762,1681,0,0
-455,-657,0,0,0,0,0,0,0,0,0,-1,769,1681,0,0
-448,-657,0,0,0,0,0,0,0,0,0,-1,776,1681,0,0
-441,-657,0,0,0,0,0,0,0,0,0,-1,783,1681,0,0
-434,-657,0,0,0,0,0,0,0,0,0,-1,790,1681,0,0
-427,-657,0,0,0,0,0,0,0,0,0,-1,797,1681,0,0
-420,-657,0,0,0,0,0,0,0,0,0,-1,804,1681,0,0
-413,-657,0,0,0,0,0,0,0,0,0,-1,811,1681,0,0
-406,-657,0,0,0,0,0,0,0,0,0,-1,818,1681,0,0
-399,-657,0,0,0,0,0,0,0,0,0,-1,825,1681,0,0
-392,-657,0,0,0,0,0,0,0,0,0,-1,832,1681,0,0
-385,-657,1.09814,6.18896,0,0,0,0,0,0,0,-1,839,1681,1.09814,-6.18894
-378,-657,0.31488,4.46753,0,0,0,0,0,0,0,-1,846,1681,0.31487,-4.46755
-371,-657,-0.519043,2.69421,0,0,0,0,0,0,0,-1,853,1681,-0.519064,-2.69422
-364,-657,-3.42017,4.18323,0,0,0,0,0,0,0,-1,860,1681,-3.42019,-4.18319
-357,-657,5.03418,34.7598,0,0,0,0,0,0,0,-1,867,1681,5.03417,-34.7597
-350,-657,4.23431,35.8203,0,0,0,0,0,0,0,-1,874,1681,4.23429,-35.8203
-343,-657,3.60156,36.754,0,0,0,0,0,0,0,-1,881,1681,3.60154,-36.754
-336,-657,-0.500366,95.6331,0,0,0,0,0,0,0,-1,888,1681,-0.500383,-95.633
-329,-657,-0.586609,97.8975,0,0,0,0,0,0,0,-1,895,1681,-0.586639,-97.8975
-322,-657,-0.0598145,99.087,0,0,0,0,0,0,0,-1,902,1681,-0.0598425,-99.087
-315,-657,-2.04041,116.249,0,0,0,0,0,0,0,-1,909,1681,-2.04041,-116.249
-308,-657,-4.58478,139.846,0,0,0,0,0,0,0,-1,916,1681,-4.5848,-139.846
-301,-657,-5.34125,151.467,0,0,0,0,0,0,0,-1,923,1681,-5.34123,-151.467
-294,-657,-5.81219,154.087,-0.00627439,0.00237835,0.00368814,0.00373703,-0.00763307,1.21783,0.00669176,0.0377169,930,1681,-5.8122,-154.087
-287,-657,-6.29987,156.42,-0.00550553,0.00210001,0.00330126,0.00333305,-0.00673857,1.21334,0.00592462,0.0270436,937,1681,-6.29985,-156.42
-280,-657,-6.73151,158.622,-0.00476207,0.00168267,0.00298405,0.00285214,-0.00593153,1.19729,0.00517409,0.0244395,944,1681,-6.73148,-158.622
-273,-657,-7.09454,160.953,-0.00374615,0.00134869,0.00276012,0.00255728,-0.00495474,1.15807,0.00441008,0.0143093,951,1681,-7.09451,-160.953
-266,-657,-7.52686,163.216,-0.00235143,0.00130629,0.00269484,0.00273425,-0.00377939,1.08352,0.00377676,0.0184325,958,1681,-7.52686,-163.216
-259,-657,-7.84088,165.458,-0.000946473,0.00133797,0.0025634,0.00300211,-0.00261062,0.994988,0.00324314,0.0238567,965,1681,-7.8409,-165.458
-252,-657,-8.24628,167.715,0.000448716,0.00141413,0.00232596,0.00330694,-0.00144409,0.887712,0.00281242,0.0169157,972,1681,-8.24628,-167.715
-245,-657,-8.59082,169.95,0.00188071,0.00155217,0.00202577,0.00374886,-0.000315983,0.744942,0.00261095,0.0180582,979,1681,-8.5908,-169.95
-238,-657,-8.92157,172.224,0.00337348,0.00169998,0.001707,0.00443778,0.000635678,0.557515,0.00277104,0.0239196,986,1681,-8.92157,-172.224
-231,-657,-9.32648,174.501,0.00487961,0.00187507,0.00134801,0.00539574,0.00135894,0.365664,0.00324059,0.0245553,993,1681,-9.3265,-174.501
-224,-657,-9.66589,176.674,0.00639457,0.00191278,0.000828083,0.00654268,0.00176467,0.176984,0.00390868,0.0210186,1000,1681,-9.66589,-176.674
-217,-657,-9.89386,178.815,0.00792563,0.00181898,0.000256692,0.0079364,0.00180821,0.0419362,0.00480303,0.0151336,1007,1681,-9.89389,-178.815
-210,-657,-10.1266,180.915,0.00952271,0.00165279,-0.000353883,0.00953859,0.00163691,-0.0448459,0.00588974,0.0148282,1014,1681,-10.1266,-180.915
-203,-657,-10.4126,183.029,0.0113278,0.00144853,-0.000832082,0.0113974,0.00137893,-0.0834419,0.00718285,0.0162858,1021,1681,-10.4126,-183.029
-196,-657,-10.7041,185.099,0.0132157,0.00102042,-0.00135351,0.0133641,0.000872003,-0.109216,0.00863342,0.0170637,1028,1681,-10.7041,-185.099
-189,-657,-10.897,187.165,0.0152472,0.000270641,-0.00192106,0.0154897,2.8152e-05,-0.125563,0.0103171,0.0144408,1035,1681,-10.897,-187.165
-182,-657,-11.0925,189.258,0.0174302,-0.000528197,-0.0024543,0.0177596,-0.000857574,-0.133407,0.0121357,0.0150228,1042,1681,-11.0926,-189.258
-175,-657,-11.2815,191.263,0.0196592,-0.00147003,-0.00300692,0.0200788,-0.00188962,-0.138645,0.0140581,0.0312011,1049,1681,-11.2815,-191.263
-168,-657,-11.5414,193.251,0,0,0,0,0,0,0,-1,1056,1681,-11.5413,-193.251
-161,-657,-11.6842,195.344,0,0,0,0,0,0,0,-1,1063,1681,-11.6842,-195.344
-154,-657,-11.3948,197.433,0,0,0,0,0,0,0,-1,1070,1681,-11.3948,-197.433
-147,-657,-1.66064,123.423,0,0,0,0,0,0,0,-1,1077,1681,-1.6607,-123.423
-140,-657,1.80237,101.693,0,0,0,0,0,0,0,-1,1084,1681,1.80231,-101.693
-133,-657,2.60046,87.6388,0,0,0,0,0,0,0,-1,1091,1681,2.60048,-87.6388
-126,-657,3.6051,70.6309,0,0,0,0,0,0,0,-1,1098,1681,3.60516,-70.6309
-119,-657,5.64758,54.4952,0,0,0,0,0,0,0,-1,1105,1681,5.64753,-54.4952
-112,-657,6.24219,42.9092,0,0,0,0,0,0,0,-1,1112,1681,6.24217,-42.9092
-105,-657,7.37256,41.0361,0,0,0,0,0,0,0,-1,1119,1681,7.37254,-41.0362
-98,-657,8.14404,38.4435,0,0,0,0,0,0,0,-1,1126,1681,8.14405,-38.4435
-91,-657,3.6521,16.6017,0,0,0,0,0,0,0,-1,1133,1681,3.65215,-16.6017
-84,-657,4.08008,10.4579,0,0,0,0,0,0,0,-1,1140,1681,4.08006,-10.4579
-77,-657,-5.29846,0.396606,0,0,0,0,0,0,0,-1,1147,1681,-5.29842,-0.396573
-70,-657,-4.14893,2.14575,0,0,0,0,0,0,0,-1,1154,1681,-4.14893,-2.1458
-63,-657,-4.1239,3.177,0,0,0,0,0,0,0,-1,1161,1681,-4.12391,-3.17698
-56,-657,-6.40576,5.73987,0,0,0,0,0,0,0,-1,1168,1681,-6.40577,-5.7399
-49,-657,-5.98462,7.54053,0,0,0,0,0,0,0,-1,1175,1681,-5.98466,-7.5405
-42,-657,-5.71948,9.28955,0,0,0,0,0,0,0,-1,1182,1681,-5.71951,-9.2895
-35,-657,-5.44556,11.015,0,0,0,0,0,0,0,-1,1189,1681,-5.44555,-11.015
-28,-657,-1.3446,8.92847,0,0,0,0,0,0,0,-1,1196,1681,-1.34459,-8.92848
-21,-657,27.395,222.349,0,0,0,0,0,0,0,-1,1203,1681,27.395,-222.35
-14,-657,25.7158,222.756,0,0,0,0,0,0,0,-1,1210,1681,25.7158,-222.756
-7,-657,24.02,223.127,0,0,0,0,0,0,0,-1,1217,1681,24.02,-223.127
0,-657,22.3662,224.25,0,0,0,0,0,0,0,-1,1224,1681,22.3662,-224.25
7,-657,20.7595,224.289,0,0,0,0,0,0,0,-1,1231,1681,20.7595,-224.289
14,-657,19.1492,224.312,0,0,0,0,0,0,0,-1,1238,1681,19.1491,-224.312
21,-657,17.5657,224.215,0,0,0,0,0,0,0,-1,1245,1681,17.5657,-224.215
28,-657,16.3048,224.33,0,0,0,0,0,0,0,-1,1252,1681,16.3048,-224.33
35,-657,15.2732,224.845,0,0,0,0,0,0,0,-1,1259,1681,15.2731,-224.845
42,-657,13.8361,224.787,0,0,0,0,0,0,0,-1,1266,1681,13.8361,-224.787
49,-657,12.2926,224.544,0,0,0,0,0,0,0,-1,1273,1681,12.2925,-224.544
56,-657,10.8779,223.943,0,0,0,0,0,0,0,-1,1280,1681,10.8779,-223.943
63,-657,7.03455,224.169,0,0,0,0,0,0,0,-1,1287,1681,7.03451,-224.169
70,-657,8.87671,221.694,0,0,0,0,0,0,0,-1,1294,1681,8.87672,-221.694
77,-657,7.37024,221.862,0,0,0,0,0,0,0,-1,1301,1681,7.37028,-221.862
84,-657,5.85583,222.061,0,0,0,0,0,0,0,-1,1308,1681,5.85579,-222.061
91,-657,5.34058,221.666,0,0,0,0,0,0,0,-1,1315,1681,5.34052,-221.666
98,-657,5.35718,221.321,0,0,0,0,0,0,0,-1,1322,1681,5.35723,-221.321
105,-657,5.42969,221.015,0,0,0,0,0,0,0,-1,1329,1681,5.42973,-221.015
112,-657,3.87805,220.396,0,0,0,0,0,0,0,-1,1336,1681,3.87802,-220.396
119,-657,3.4209,219.026,0,0,0,0,0,0,0,-1,1343,1681,3.42094,-219.026
126,-657,2.99329,217.67,0,0,0,0,0,0,0,-1,1350,1681,2.99327,-217.67
133,-657,2.59668,216.198,0,0,0,0,0,0,0,-1,1357,1681,2.59672,-216.197
140,-657,2.15125,214.56,0,0,0,0,0,0,0,-1,1364,1681,2.15121,-214.56
147,-657,1.69189,212.96,0,0,0,0,0,0,0,-1,1371,1681,1.69192,-212.96
154,-657,-3.67017,179.552,0,0,0,0,0,0,0,-1,1378,1681,-3.67017,-179.552
161,-657,4.2926,24.9226,0,0,0,0,0,0,0,-1,1385,1681,4.29264,-24.9226
168,-657,5.21643,0.70105,0,0,0,0,0,0,0,-1,1392,1681,5.21648,-0.7011
175,-657,5.52771,0.649048,0,0,0,0,0,0,0,-1,1399,1681,5.52774,-0.649019
182,-657,5.73999,1.02612,0,0,0,0,0,0,0,-1,1406,1681,5.73995,-1.02611
189,-657,5.92126,1.44116,0,0,0,0,0,0,0,-1,1413,1681,5.92126,-1.44115
196,-657,4.92834,9.59021,0,0,0,0,0,0,0,-1,1420,1681,4.9284,-9.59018
203,-657,6.26343,5.16492,0,0,0,0,0,0,0,-1,1427,1681,6.26345,-5.16488
210,-657,3.9856,5.28088,0,0,0,0,0,0,0,-1,1434,1681,3.98555,-5.28084
217,-657,3.95178,5.2843,0,0,0,0,0,0,0,-1,1441,1681,3.95174,-5.28431
224,-657,6.66736,-0.250244,0,0,0,0,0,0,0,-1,1448,1681,6.66737,0.250229
231,-657,6.85498,-1.70752,0,0,0,0,0,0,0,-1,1455,1681,6.855,1.70758
238,-657,5.34143,-2.89819,0,0,0,0,0,0,0,-1,1462,1681,5.34143,2.89813
245,-657,8.66003,-0.102783,0,0,0,0,0,0,0,-1,1469,1681,8.66,0.102824
252,-657,4.78955,0.623779,0,0,0,0,0,0,0,-1,1476,1681,4.7895,-0.623826
259,-657,2.61523,4.31909,0,0,0,0,0,0,0,-1,1483,1681,2.61523,-4.31908
266,-657,5.35437,11.4742,0,0,0,0,0,0,0,-1,1490,1681,5.35441,-11.4742
273,-657,14.0199,72.9027,0,0,0,0,0,0,0,-1,1497,1681,14.0199,-72.9028
280,-657,14.3578,78.1829,0,0,0,0,0,0,0,-1,1504,1681,14.3578,-78.1828
287,-657,14.3231,79.979,0,0,0,0,0,0,0,-1,1511,1681,14.3232,-79.979
294,-657,16.139,139.461,0,0,0,0,0,0,0,-1,1518,1681,16.1391,-139.461
301,-657,17.3007,193.171,0,0,0,0,0,0,0,-1,1525,1681,17.3007,-193.17
308,-657,17.1638,191.174,0,0,0,0,0,0,0,-1,1532,1681,17.1638,-191.174
315,-657,16.9281,189.196,0.0142927,-0.00117534,0.00186745,0.0145149,-0.0013976,0.118462,0.0101745,0.0175848,1539,1681,16.9281,-189.196
322,-657,16.7402,187.095,0.0125178,5.32886e-05,0.0013711,0.0126669,-9.57497e-05,0.108275,0.00847668,0.0184448,1546,1681,16.7402,-187.095
329,-657,16.5223,185.029,0.0110217,0.000992246,0.000777441,0.0110816,0.00093234,0.0769036,0.0070974,0.0238186,1553,1681,16.5223,-185.029
336,-657,16.2249,182.917,0.00950974,0.00170851,0.00027227,0.00951923,0.00169902,0.0348444,0.00586246,0.022394,1560,1681,16.2248,-182.917
343,-657,15.9818,180.851,0.00813687,0.00239134,-0.000336608,0.00815653,0.00237168,-0.05832,0.00484466,0.0198893,1567,1681,15.9818,-180.851
350,-657,15.7349,178.751,0.00692027,0.0027223,-0.000959447,0.00712916,0.00251341,-0.214372,0.00417525,0.0213414,1574,1681,15.7349,-178.751
357,-657,15.4491,176.567,0.00572579,0.00266796,-0.00155742,0.00637933,0.00201442,-0.397317,0.00376552,0.0195056,1581,1681,15.4491,-176.567
364,-657,15.1478,174.366,0.00467822,0.00245808,-0.0020583,0.00590671,0.00122959,-0.538097,0.00359866,0.0143375,1588,1681,15.1479,-174.366
371,-657,14.8147,172.22,0.00384187,0.00213054,-0.00252535,0.00565258,0.000319833,-0.622052,0.00366643,0.0202814,1595,1681,14.8147,-172.22
378,-657,14.4034,170.03,0.00317242,0.00178617,-0.00298324,0.005542,-0.000583407,-0.671254,0.00390369,0.0207407,1602,1681,14.4035,-170.03
385,-657,14.0293,167.823,0.00266986,0.00160384,-0.00354781,0.00572448,-0.00145078,-0.710838,0.00438074,0.0168614,1609,1681,14.0294,-167.823
392,-657,13.666,165.543,0.00225349,0.00134208,-0.00403617,0.0058596,-0.00226403,-0.729183,0.00484089,0.0155203,1616,1681,13.666,-165.543
399,-657,13.3422,163.292,0.00205388,0.00133001,-0.00463419,0.00634025,-0.00295635,-0.746427,0.00548464,0.0165265,1623,1681,13.3422,-163.292
406,-657,12.9874,161.034,0.00205384,0.00164116,-0.00538993,0.00724138,-0.00354637,-0.766266,0.00634893,0.0184367,1630,1681,12.9874,-161.034
413,-657,12.5984,158.749,0.00217393,0.00206758,-0.00619952,0.0083205,-0.004079,-0.78111,0.00729713,0.0166263,1637,1681,12.5984,-158.749
420,-657,12.2012,156.46,0.00234029,0.00294589,-0.00715727,0.00980676,-0.00452059,-0.806539,0.00845749,0.0187268,1644,1681,12.2012,-156.46
427,-657,11.8035,154.142,0.00264551,0.00393385,-0.00821584,0.0115307,-0.00495137,-0.824521,0.0097654,0.0259786,1651,1681,11.8035,-154.142
434,-657,11.4636,151.697,0.00309789,0.00508985,-0.00932599,0.0134729,-0.00528516,-0.838595,0.0111686,0.0473907,1658,1681,11.4636,-151.697
441,-657,11.3809,149.116,0,0,0,0,0,0,0,-1,1665,1681,11.3809,-149.116
448,-657,12.9525,108.331,0,0,0,0,0,0,0,-1,1672,1681,12.9525,-108.331
455,-657,12.2253,107.353,0,0,0,0,0,0,0,-1,1679,1681,12.2253,-107.353
462,-657,14.8794,84.5696,0,0,0,0,0,0,0,-1,1686,1681,14.8794,-84.5695
469,-657,16.2104,82.9287,0,0,0,0,0,0,0,-1,1693,1681,16.2105,-82.9287
476,-657,13.2048,56.4302,0,0,0,0,0,0,0,-1,1700,1681,13.2048,-56.4302
483,-657,13.0665,56.2015,0,0,0,0,0,0,0,-1,1707,1681,13.0666,-56.2016
490,-657,11.6039,21.2185,0,0,0,0,0,0,0,-1,1714,1681,11.6038,-21.2185
497,-657,9.20862,17.8127,0,0,0,0,0,0,0,-1,1721,1681,9.2086,-17.8127
504,-657,0,0,0,0,0,0,0,0,0,-1,1728,1681,0,0
511,-657,0,0,0,0,0,0,0,0,0,-1,1735,1681,0,0
518,-657,0,0,0,0,0,0,0,0,0,-1,1742,1681,0,0
525,-657,0,0,0,0,0,0,0,0,0,-1,1749,1681,0,0
532,-657,0,0,0,0,0,0,0,0,0,-1,1756,1681,0,0
539,-657,0,0,0,0,0,0,0,0,0,-1,1763,1681,0,0
546,-657,0,0,0,0,0,0,0,0,0,-1,1770,1681,0,0
553,-657,0,0,0,0,0,0,0,0,0,-1,1777,1681,0,0
560,-657,0,0,0,0,0,0,0,0,0,-1,1784,1681,0,0
567,-657,0,0,0,0,0,0,0,0,0,-1,1791,1681,0,0
574,-657,0,0,0,0,0,0,0,0,0,-1,1798,1681,0,0
581,-657,0,0,0,0,0,0,0,0,0,-1,1805,1681,0,0
588,-657,0,0,0,0,0,0,0,0,0,-1,1812,1681,0,0
595,-657,0,0,0,0,0,0,0,0,0,-1,1819,1681,0,0
602,-657,0,0,0,0,0,0,0,0,0,-1,1826,1681,0,0
609,-657,0,0,0,0,0,0,0,0,0,-1,1833,1681,0,0
616,-657,0,0,0,0,0,0,0,0,0,-1,1840,1681,0,0
623,-657,0,0,0,0,0,0,0,0,0,-1,1847,1681,0,0
630,-657,0,0,0,0,0,0,0,0,0,-1,1854,1681,0,0
637,-657,0,0,0,0,0,0,0,0,0,-1,1861,1681,0,0
644,-657,0,0,0,0,0,0,0,0,0,-1,1868,1681,0,0
651,-657,0,0,0,0,0,0,0,0,0,-1,1875,1681,0,0
658,-657,0,0,0,0,0,0,0,0,0,-1,1882,1681,0,0
665,-657,0,0,0,0,0,0,0,0,0,-1,1889,1681,0,0
672,-657,0,0,0,0,0,0,0,0,0,-1,1896,1681,0,0
679,-657,0,0,0,0,0,0,0,0,0,-1,1903,1681,0,0
686,-657,0,0,0,0,0,0,0,0,0,-1,1910,1681,0,0
693,-657,0,0,0,0,0,0,0,0,0,-1,1917,1681,0,0
700,-657,0,0,0,0,0,0,0,0,0,-1,1924,1681,0,0
707,-657,0,0,0,0,0,0,0,0,0,-1,1931,1681,0,0
714,-657,0,0,0,0,0,0,0,0,0,-1,1938,1681,0,0
721,-657,0,0,0,0,0,0,0,0,0,-1,1945,1681,0,0
728,-657,0,0,0,0,0,0,0,0,0,-1,1952,1681,0,0
735,-657,0,0,0,0,0,0,0,0,0,-1,1959,1681,0,0
742,-657,0,0,0,0,0,0,0,0,0,-1,1966,1681,0,0
749,-657,0,0,0,0,0,0,0,0,0,-1,1973,1681,0,0
756,-657,0,0,0,0,0,0,0,0,0,-1,1980,1681,0,0
763,-657,0,0,0,0,0,0,0,0,0,-1,1987,1681,0,0
770,-657,0,0,0,0,0,0,0,0,0,-1,1994,1681,0,0
777,-657,0,0,0,0,0,0,0,0,0,-1,2001,1681,0,0
784,-657,0,0,0,0,0,0,0,0,0,-1,2008,1681,0,0
791,-657,0,0,0,0,0,0,0,0,0,-1,2015,1681,0,0
798,-657,0,0,0,0,0,0,0,0,0,-1,2022,1681,0,0
805,-657,0,0,0,0,0,0,0,0,0,-1,2029,1681,0,0
812,-657,0,0,0,0,0,0,0,0,0,-1,2036,1681,0,0
-700,-664,0,0,0,0,0,0,0,0,0,-1,524,1688,0,0
-693,-664,0,0,0,0,0,0,0,0,0,-1,531,1688,0,0
-686,-664,0,0,0,0,0,0,0,0,0,-1,538,1688,0,0
-679,-664,0,0,0,0,0,0,0,0,0,-1,545,1688,0,0
-672,-664,0,0,0,0,0,0,0,0,0,-1,552,1688,0,0
-665,-664,0,0,0,0,0,0,0,0,0,-1,559,1688,0,0
-658,-664,0,0,0,0,0,0,0,0,0,-1,566,1688,0,0
-651,-664,0,0,0,0,0,0,0,0,0,-1,573,1688,0,0
-644,-664,0,0,0,0,0,0,0,0,0,-1,580,1688,0,0
-637,-664,0,0,0,0,0,0,0,0,0,-1,587,1688,0,0
-630,-664,0,0,0,0,0,0,0,0,0,-1,594,1688,0,0
-623,-664,0,0,0,0,0,0,0,0,0,-1,601,1688,0,0
-616,-664,0,0,0,0,0,0,0,0,0,-1,608,1688,0,0
-609,-664,0,0,0,0,0,0,0,0,0,-1,615,1688,0,0
-602,-664,0,0,0,0,0,0,0,0,0,-1,622,1688,0,0
-595,-664,0,0,0,0,0,0,0,0,0,-1,629,1688,0,0
-588,-664,0,0,0,0,0,0,0,0,0,-1,636,1688,0,0
-581,-664,0,0,0,0,0,0,0,0,0,-1,643,1688,0,0
-574,-664,0,0,0,0,0,0,0,0,0,-1,650,1688,0,0
-567,-664,0,0,0,0,0,0,0,0,0,-1,657,1688,0,0
-560,-664,0,0,0,0,0,0,0,0,0,-1,664,1688,0,0
-553,-664,0,0,0,0,0,0,0,0,0,-1,671,1688,0,0
-546,-664,0,0,0,0,0,0,0,0,0,-1,678,1688,0,0
-539,-664,0,0,0,0,0,0,0,0,0,-1,685,1688,0,0
-532,-664,0,0,0,0,0,0,0,0,0,-1,692,1688,0,0
-525,-664,0,0,0,0,0,0,0,0,0,-1,699,1688,0,0
-518,-664,0,0,0,0,0,0,0,0,0,-1,706,1688,0,0
-511,-664,0,0,0,0,0,0,0,0,0,-1,713,1688,0,0
-504,-664,0,0,0,0,0,0,0,0,0,-1,720,1688,0,0
-497,-664,0,0,0,0,0,0,0,0,0,-1,727,1688,0,0
-490,-664,0,0,0,0,0,0,0,0,0,-1,734,1688,0,0
-483,-664,0,0,0,0,0,0,0,0,0,-1,741,1688,0,0
-476,-664,0,0,0,0,0,0,0,0,0,-1,748,1688,0,0
-469,-664,0,0,0,0,0,0,0,0,0,-1,755,1688,0,0
-462,-664,0,0,0,0,0,0,0,0,0,-1,762,1688,0,0
-455,-664,0,0,0,0,0,0,0,0,0,-1,769,1688,0,0
-448,-664,0,0,0,0,0,0,0,0,0,-1,776,1688,0,0
-441,-664,0,0,0,0,0,0,0,0,0,-1,783,1688,0,0
-434,-664,0,0,0,0,0,0,0,0,0,-1,790,1688,0,0
-427,-664,0,0,0,0,0,0,0,0,0,-1,797,1688,0,0
-420,-664,0,0,0,0,0,0,0,0,0,-1,804,1688,0,0
-413,-664,0,0,0,0,0,0,0,0,0,-1,811,1688,0,0
-406,-664,0,0,0,0,0,0,0,0,0,-1,818,1688,0,0
-399,-664,0,0,0,0,0,0,0,0,0,-1,825,1688,0,0
-392,-664,0,0,0,0,0,0,0,0,0,-1,832,1688,0,0
-385,-664,0,0,0,0,0,0,0,0,0,-1,839,1688,0,0
-378,-664,0,0,0,0,0,0,0,0,0,-1,846,1688,0,0
-371,-664,-1.61676,5.92737,0,0,0,0,0,0,0,-1,853,1688,-1.61675,-5.92735
-364,-664,-3.901,5.87024,0,0,0,0,0,0,0,-1,860,1688,-3.90097,-5.87027
-357,-664,-4.81012,4.53479,0,0,0,0,0,0,0,-1,867,1688,-4.81012,-4.5348
-350,-664,3.26105,36.0225,0,0,0,0,0,0,0,-1,874,1688,3.26104,-36.0224
-343,-664,3.36761,61.1754,0,0,0,0,0,0,0,-1,881,1688,3.36762,-61.1755
-336,-664,3.50519,61.7698,0,0,0,0,0,0,0,-1,888,1688,3.50521,-61.7698
-329,-664,0.881653,98.2546,0,0,0,0,0,0,0,-1,895,1688,0.881656,-98.2546
-322,-664,4.09424,63.087,0,0,0,0,0,0,0,-1,902,1688,4.09425,-63.087
-315,-664,5.4184,55.4478,0,0,0,0,0,0,0,-1,909,1688,5.41837,-55.4477
-308,-664,-0.557312,118.209,0,0,0,0,0,0,0,-1,916,1688,-0.557291,-118.209
-301,-664,-1.91498,130.912,0,0,0,0,0,0,0,-1,923,1688,-1.91496,-130.912
-294,-664,-3.41156,154.378,0,0,0,0,0,0,0,-1,930,1688,-3.41155,-154.378
-287,-664,-4.05243,156.679,0,0,0,0,0,0,0,-1,937,1688,-4.05245,-156.679
-280,-664,-4.47986,158.946,0,0,0,0,0,0,0,-1,944,1688,-4.47984,-158.946
-273,-664,-4.81622,161.223,-0.00594322,0.00220809,0.00380748,0.00370988,-0.00744501,1.1951,0.00655952,0.0347644,951,1688,-4.81621,-161.223
-266,-664,-5.29358,163.48,-0.00439218,0.00204003,0.00377107,0.00378016,-0.00613231,1.13847,0.00577643,0.0354668,958,1688,-5.29356,-163.48
-259,-664,-5.69122,165.798,-0.00292191,0.00197242,0.0036519,0.00392128,-0.00487076,1.08059,0.00508595,0.0241011,965,1688,-5.69125,-165.798
-252,-664,-6.00409,168.077,-0.00152601,0.00192323,0.00342398,0.0040324,-0.00363518,1.0187,0.00442886,0.0198147,972,1688,-6.0041,-168.077
-245,-664,-6.36401,170.358,-0.000154684,0.00198701,0.00316547,0.00425786,-0.00242553,0.948501,0.0039067,0.0236593,979,1688,-6.364,-170.358
-238,-664,-6.68231,172.634,0.00120968,0.00205903,0.00284454,0.00451042,-0.00124171,0.859498,0.00349517,0.0280102,986,1688,-6.6823,-172.634
-231,-664,-7.04559,174.838,0.00260056,0.00214591,0.00247783,0.00486147,-0.000115002,0.739654,0.00327999,0.0255259,993,1688,-7.04557,-174.838
-224,-664,-7.43066,176.997,0.00397705,0.00209331,0.00196717,0.00521621,0.000854154,0.562129,0.00323062,0.0188112,1000,1688,-7.43063,-176.997
-217,-664,-7.78223,179.157,0.00534089,0.00190828,0.00140503,0.00584265,0.00140652,0.343,0.00352118,0.0150679,1007,1688,-7.78223,-179.157
-210,-664,-8.04248,181.24,0.00673598,0.00167924,0.000806787,0.00686158,0.00155364,0.15444,0.0041545,0.0156573,1014,1688,-8.04246,-181.24
-203,-664,-8.3252,183.367,0.00826491,0.00133819,0.000295117,0.00827746,0.00132564,0.042503,0.0051338,0.0170458,1021,1688,-8.32521,-183.367
-196,-664,-8.55188,185.438,0.00987869,0.000833989,-0.00028106,0.00988741,0.000825264,-0.0310347,0.00633447,0.0179084,1028,1688,-8.55188,-185.438
-189,-664,-8.80579,187.51,0.0116433,3.9046e-05,-0.000919898,0.0117158,-3.34238e-05,-0.0786178,0.00782171,0.014477,1035,1688,-8.80575,-187.51
-182,-664,-9.05444,189.562,0.0135448,-0.000811191,-0.00153992,0.0137081,-0.000974516,-0.105665,0.0094803,0.0151984,1042,1688,-9.05448,-189.562
-175,-664,-9.29065,191.532,0.0155368,-0.0017291,-0.00217465,0.0158064,-0.00199879,-0.123384,0.0112632,0.0183443,1049,1688,-9.29069,-191.532
-168,-664,-9.49036,193.475,0.0177909,-0.00287298,-0.00285997,0.0181794,-0.00326151,-0.135023,0.0133403,0.0190288,1056,1688,-9.49036,-193.475
-161,-664,-9.70166,195.526,0.0205005,-0.00380067,-0.00337054,0.0209593,-0.0042595,-0.135297,0.0155879,0.0205572,1063,1688,-9.70163,-195.526
-154,-664,-9.62646,197.482,0.023046,-0.00441006,-0.00383284,0.023571,-0.00493508,-0.136133,0.0175913,0.0424598,1070,1688,-9.62646,-197.482
-147,-664,-9.76062,199.115,0,0,0,0,0,0,0,-1,1077,1688,-9.76068,-199.115
-140,-664,-9.72473,201.06,0,0,0,0,0,0,0,-1,1084,1688,-9.72474,-201.06
-133,-664,-7.02014,177.951,0,0,0,0,0,0,0,-1,1091,1688,-7.0202,-177.951
-126,-664,3.53955,87.8251,0,0,0,0,0,0,0,-1,1098,1688,3.53951,-87.8251
-119,-664,5.36035,67.1663,0,0,0,0,0,0,0,-1,1105,1688,5.36031,-67.1663
-112,-664,6.3916,51.1235,0,0,0,0,0,0,0,-1,1112,1688,6.39161,-51.1236
-105,-664,6.87256,43.2527,0,0,0,0,0,0,0,-1,1119,1688,6.87258,-43.2527
-98,-664,7.69324,41.3359,0,0,0,0,0,0,0,-1,1126,1688,7.69321,-41.3359
-91,-664,5.41931,25.6302,0,0,0,0,0,0,0,-1,1133,1688,5.41932,-25.6302
-84,-664,3.48389,16.6913,0,0,0,0,0,0,0,-1,1140,1688,3.4839,-16.6913
-77,-664,4.52014,11.2122,0,0,0,0,0,0,0,-1,1147,1688,4.5202,-11.2122
-70,-664,4.20374,8.24524,0,0,0,0,0,0,0,-1,1154,1688,4.20379,-8.24519
-63,-664,-4.677,2.40503,0,0,0,0,0,0,0,-1,1161,1688,-4.67702,-2.40498
-56,-664,-4.66504,3.32727,0,0,0,0,0,0,0,-1,1168,1688,-4.6651,-3.32724
-49,-664,-2.54297,3.31848,0,0,0,0,0,0,0,-1,1175,1688,-2.54297,-3.31852
-42,-664,-0.359253,4.38684,0,0,0,0,0,0,0,-1,1182,1688,-0.359261,-4.38685
-35,-664,-0.705566,3.55017,0,0,0,0,0,0,0,-1,1189,1688,-0.705567,-3.55023
-28,-664,-1.54236,10.2538,0,0,0,0,0,0,0,-1,1196,1688,-1.54236,-10.2538
-21,-664,27.3113,224.287,0,0,0,0,0,0,0,-1,1203,1688,27.3113,-224.287
-14,-664,25.6555,224.527,0,0,0,0,0,0,0,-1,1210,1688,25.6555,-224.527
-7,-664,23.8855,224.569,0,0,0,0,0,0,0,-1,1217,1688,23.8854,-224.569
0,-664,22.4005,224.974,0,0,0,0,0,0,0,-1,1224,1688,22.4005,-224.974
7,-664,20.7087,225.328,0,0,0,0,0,0,0,-1,1231,1688,20.7088,-225.328
14,-664,18.9828,225.383,0,0,0,0,0,0,0,-1,1238,1688,18.9828,-225.383
21,-664,17.5248,225.298,0,0,0,0,0,0,0,-1,1245,1688,17.5248,-225.298
28,-664,16.2604,225.358,0,0,0,0,0,0,0,-1,1252,1688,16.2604,-225.358
35,-664,14.951,225.457,0,0,0,0,0,0,0,-1,1259,1688,14.951,-225.457
42,-664,13.7516,225.64,0,0,0,0,0,0,0,-1,1266,1688,13.7516,-225.64
49,-664,7.03357,226.175,0,0,0,0,0,0,0,-1,1273,1688,7.03352,-226.175
56,-664,7.33191,226.229,0,0,0,0,0,0,0,-1,1280,1688,7.33191,-226.229
63,-664,6.90649,225.223,0,0,0,0,0,0,0,-1,1287,1688,6.90653,-225.222
70,-664,6.63745,224.359,0,0,0,0,0,0,0,-1,1294,1688,6.63749,-224.359
77,-664,6.52124,223.416,0,0,0,0,0,0,0,-1,1301,1688,6.52127,-223.416
84,-664,5.93823,223.007,0,0,0,0,0,0,0,-1,1308,1688,5.93823,-223.007
91,-664,5.54065,222.513,0,0,0,0,0,0,0,-1,1315,1688,5.5406,-222.513
98,-664,4.87708,221.865,0,0,0,0,0,0,0,-1,1322,1688,4.87712,-221.865
105,-664,4.28296,221.208,0,0,0,0,0,0,0,-1,1329,1688,4.28291,-221.208
112,-664,3.7229,220.568,0,0,0,0,0,0,0,-1,1336,1688,3.72289,-220.568
119,-664,3.48157,220.221,0,0,0,0,0,0,0,-1,1343,1688,3.48154,-220.221
126,-664,3.02124,219.121,0,0,0,0,0,0,0,-1,1350,1688,3.0213,-219.121
133,-664,2.05481,217.114,0,0,0,0,0,0,0,-1,1357,1688,2.05482,-217.114
140,-664,1.58643,215.189,0,0,0,0,0,0,0,-1,1364,1688,1.58637,-215.189
147,-664,1.06494,213.865,0,0,0,0,0,0,0,-1,1371,1688,1.0649,-213.865
154,-664,5.5072,197.497,0,0,0,0,0,0,0,-1,1378,1688,5.50723,-197.497
161,-664,4.60132,1.56238,0,0,0,0,0,0,0,-1,1385,1688,4.60134,-1.56233
168,-664,5.172,1.25488,0,0,0,0,0,0,0,-1,1392,1688,5.17203,-1.25484
175,-664,5.58313,1.16467,0,0,0,0,0,0,0,-1,1399,1688,5.58317,-1.16466
182,-664,5.74268,1.41113,0,0,0,0,0,0,0,-1,1406,1688,5.74263,-1.41115
189,-664,5.87744,1.87061,0,0,0,0,0,0,0,-1,1413,1688,5.87745,-1.87065
196,-664,6.7594,5.97473,0,0,0,0,0,0,0,-1,1420,1688,6.75943,-5.97478
203,-664,5.38452,5.22034,0,0,0,0,0,0,0,-1,1427,1688,5.38453,-5.2203
210,-664,5.25549,6.45715,0,0,0,0,0,0,0,-1,1434,1688,5.25549,-6.45721
217,-664,5.72009,6.73975,0,0,0,0,0,0,0,-1,1441,1688,5.72014,-6.73972
224,-664,5.05725,7.42908,0,0,0,0,0,0,0,-1,1448,1688,5.05723,-7.42912
231,-664,5.13318,7.60864,0,0,0,0,0,0,0,-1,1455,1688,5.13313,-7.60862
238,-664,4.23193,6.45471,0,0,0,0,0,0,0,-1,1462,1688,4.23197,-6.45476
245,-664,4.42004,6.80896,0,0,0,0,0,0,0,-1,1469,1688,4.4201,-6.80901
252,-664,3.67346,6.85461,0,0,0,0,0,0,0,-1,1476,1688,3.6734,-6.85462
259,-664,4.55823,11.7435,0,0,0,0,0,0,0,-1,1483,1688,4.55826,-11.7435
266,-664,13.2228,73.7821,0,0,0,0,0,0,0,-1,1490,1688,13.2228,-73.7821
273,-664,15.088,112.14,0,0,0,0,0,0,0,-1,1497,1688,15.088,-112.14
280,-664,15.5662,199.667,0,0,0,0,0,0,0,-1,1504,1688,15.5662,-199.667
287,-664,15.1652,197.069,0,0,0,0,0,0,0,-1,1511,1688,15.1652,-197.069
294,-664,14.983,195.169,0,0,0,0,0,0,0,-1,1518,1688,14.9831,-195.169
301,-664,15.1826,193.433,0.0157524,-0.00298077,0.00129398,0.0158413,-0.00306973,0.0686398,0.0117189,0.0241087,1525,1688,15.1826,-193.433
308,-664,15.0712,191.418,0.0136581,-0.00222742,0.00111812,0.0137364,-0.00230573,0.0699264,0.0100151,0.0182236,1532,1688,15.0711,-191.418
315,-664,14.8743,189.431,0.0116492,-0.00105794,0.000886015,0.0117107,-0.00111942,0.069279,0.00820575,0.0176466,1539,1688,14.8743,-189.431
322,-664,14.6782,187.398,0.00994873,-3.41116e-05,0.00045988,0.00996987,-5.52521e-05,0.0459373,0.00666508,0.0198605,1546,1688,14.6782,-187.398
329,-664,14.4375,185.401,0.00848047,0.000751686,-5.95935e-05,0.00848093,0.000751226,-0.00770998,0.00542092,0.0205801,1553,1688,14.4375,-185.401
336,-664,14.1448,183.312,0.00703959,0.00128332,-0.00049612,0.00708204,0.00124088,-0.085349,0.0043669,0.0174267,1560,1688,14.1448,-183.312
343,-664,13.8666,181.21,0.00578001,0.00183918,-0.00105671,0.00604547,0.00157371,-0.246128,0.00362157,0.0149895,1567,1688,13.8666,-181.21
350,-664,13.5996,179.091,0.00468485,0.00209355,-0.00164122,0.00548021,0.0012982,-0.451262,0.0033068,0.0185125,1574,1688,13.5996,-179.091
357,-664,13.3069,176.891,0.0036457,0.00203716,-0.0022392,0.00522068,0.000462176,-0.612985,0.00333708,0.0193497,1581,1688,13.3068,-176.891
364,-664,12.9967,174.71,0.00276935,0.00182663,-0.00275903,0.00509699,-0.000501015,-0.700794,0.00357672,0.0162353,1588,1688,12.9968,-174.71
371,-664,12.6659,172.573,0.00214401,0.00159693,-0.00331231,0.00519405,-0.00145311,-0.7442,0.00403525,0.0191917,1595,1688,12.6659,-172.573
378,-664,12.2449,170.386,0.00166006,0.00135847,-0.00386057,0.00537278,-0.00235425,-0.765878,0.00457326,0.0174678,1602,1688,12.2449,-170.386
385,-664,11.8141,168.171,0.00132871,0.00124233,-0.00452118,0.00580691,-0.00323587,-0.780622,0.00529072,0.0180836,1609,1688,11.8141,-168.171
392,-664,11.4091,165.975,0.00114466,0.00114412,-0.00516326,0.00630765,-0.00401887,-0.785372,0.00601063,0.0215638,1616,1688,11.4091,-165.975
399,-664,11.1298,163.683,0.001219,0.00138325,-0.00593373,0.00723542,-0.00463318,-0.792318,0.00690703,0.0188266,1623,1688,11.1297,-163.683
406,-664,10.7811,161.422,0.00152887,0.00199596,-0.00695396,0.0087203,-0.00519547,-0.802184,0.00811973,0.0161406,1630,1688,10.7811,-161.422
413,-664,10.3834,159.13,0.001949,0.00267349,-0.00798482,0.0103043,-0.00568179,-0.808066,0.00935729,0.0140809,1637,1688,10.3834,-159.13
420,-664,10.0712,156.694,0.00242809,0.00398225,-0.00920179,0.0124397,-0.00602937,-0.827523,0.0108751,0.0419877,1644,1688,10.0711,-156.694
427,-664,9.66565,154.324,0,0,0,0,0,0,0,-1,1651,1688,9.66562,-154.324
434,-664,9.20996,151.786,0,0,0,0,0,0,0,-1,1658,1688,9.20998,-151.786
441,-664,11.7097,109.925,0,0,0,0,0,0,0,-1,1665,1688,11.7097,-109.925
448,-664,14.7797,87.4095,0,0,0,0,0,0,0,-1,1672,1688,14.7797,-87.4095
455,-664,12.8,86.4729,0,0,0,0,0,0,0,-1,1679,1688,12.8,-86.4729
462,-664,14.3168,84.5027,0,0,0,0,0,0,0,-1,1686,1688,14.3168,-84.5026
469,-664,6.05469,7.49341,0,0,0,0,0,0,0,-1,1693,1688,6.05474,-7.49339
476,-664,10.2377,22.7128,0,0,0,0,0,0,0,-1,1700,1688,10.2377,-22.7128
483,-664,8.41895,10.9768,0,0,0,0,0,0,0,-1,1707,1688,8.41897,-10.9769
490,-664,3.90771,13.2842,0,0,0,0,0,0,0,-1,1714,1688,3.90776,-13.2841
497,-664,0,0,0,0,0,0,0,0,0,-1,1721,1688,0,0
504,-664,0,0,0,0,0,0,0,0,0,-1,1728,1688,0,0
511,-664,0,0,0,0,0,0,0,0,0,-1,1735,1688,0,0
518,-664,0,0,0,0,0,0,0,0,0,-1,1742,1688,0,0
525,-664,0,0,0,0,0,0,0,0,0,-1,1749,1688,0,0
532,-664,0,0,0,0,0,0,0,0,0,-1,1756,1688,0,0
539,-664,0,0,0,0,0,0,0,0,0,-1,1763,1688,0,0
546,-664,0,0,0,0,0,0,0,0,0,-1,1770,1688,0,0
553,-664,0,0,0,0,0,0,0,0,0,-1,1777,1688,0,0
560,-664,0,0,0,0,0,0,0,0,0,-1,1784,1688,0,0
567,-664,0,0,0,0,0,0,0,0,0,-1,1791,1688,0,0
574,-664,0,0,0,0,0,0,0,0,0,-1,1798,1688,0,0
581,-664,0,0,0,0,0,0,0,0,0,-1,1805,1688,0,0
588,-664,0,0,0,0,0,0,0,0,0,-1,1812,1688,0,0
595,-664,0,0,0,0,0,0,0,0,0,-1,1819,1688,0,0
602,-664,0,0,0,0,0,0,0,0,0,-1,1826,1688,0,0
609,-664,0,0,0,0,0,0,0,0,0,-1,1833,1688,0,0
616,-664,0,0,0,0,0,0,0,0,0,-1,1840,1688,0,0
623,-664,0,0,0,0,0,0,0,0,0,-1,1847,1688,0,0
630,-664,0,0,0,0,0,0,0,0,0,-1,1854,1688,0,0
637,-664,0,0,0,0,0,0,0,0,0,-1,1861,1688,0,0
644,-664,0,0,0,0,0,0,0,0,0,-1,1868,1688,0,0
651,-664,0,0,0,0,0,0,0,0,0,-1,1875,1688,0,0
658,-664,0,0,0,0,0,0,0,0,0,-1,1882,1688,0,0
665,-664,0,0,0,0,0,0,0,0,0,-1,1889,1688,0,0
672,-664,0,0,0,0,0,0,0,0,0,-1,1896,1688,0,0
679,-664,0,0,0,0,0,0,0,0,0,-1,1903,1688,0,0
686,-664,0,0,0,0,0,0,0,0,0,-1,1910,1688,0,0
693,-664,0,0,0,0,0,0,0,0,0,-1,1917,1688,0,0
700,-664,0,0,0,0,0,0,0,0,0,-1,1924,1688,0,0
707,-664,0,0,0,0,0,0,0,0,0,-1,1931,1688,0,0
714,-664,0,0,0,0,0,0,0,0,0,-1,1938,1688,0,0
721,-664,0,0,0,0,0,0,0,0,0,-1,1945,1688,0,0
728,-664,0,0,0,0,0,0,0,0,0,-1,1952,1688,0,0
735,-664,0,0,0,0,0,0,0,0,0,-1,1959,1688,0,0
742,-664,0,0,0,0,0,0,0,0,0,-1,1966,1688,0,0
749,-664,0,0,0,0,0,0,0,0,0,-1,1973,1688,0,0
756,-664,0,0,0,0,0,0,0,0,0,-1,1980,1688,0,0
763,-664,0,0,0,0,0,0,0,0,0,-1,1987,1688,0,0
770,-664,0,0,0,0,0,0,0,0,0,-1,1994,1688,0,0
777,-664,0,0,0,0,0,0,0,0,0,-1,2001,1688,0,0
784,-664,0,0,0,0,0,0,0,0,0,-1,2008,1688,0,0
791,-664,0,0,0,0,0,0,0,0,0,-1,2015,1688,0,0
798,-664,0,0,0,0,0,0,0,0,0,-1,2022,1688,0,0
805,-664,0,0,0,0,0,0,0,0,0,-1,2029,1688,0,0
812,-664,0,0,0,0,0,0,0,0,0,-1,2036,1688,0,0
-700,-671,0,0,0,0,0,0,0,0,0,-1,524,1695,0,0
-693,-671,0,0,0,0,0,0,0,0,0,-1,531,1695,0,0
-686,-671,0,0,0,0,0,0,0,0,0,-1,538,1695,0,0
-679,-671,0,0,0,0,0,0,0,0,0,-1,545,1695,0,0
-672,-671,0,0,0,0,0,0,0,0,0,-1,552,1695,0,0
-665,-671,0,0,0,0,0,0,0,0,0,-1,559,1695,0,0
-658,-671,0,0,0,0,0,0,0,0,0,-1,566,1695,0,0
-651,-671,0,0,0,0,0,0,0,0,0,-1,573,1695,0,0
-644,-671,0,0,0,0,0,0,0,0,0,-1,580,1695,0,0
-637,-671,0,0,0,0,0,0,0,0,0,-1,587,1695,0,0
-630,-671,0,0,0,0,0,0,0,0,0,-1,594,1695,0,0
-623,-671,0,0,0,0,0,0,0,0,0,-1,601,1695,0,0
-616,-671,0,0,0,0,0,0,0,0,0,-1,608,1695,0,0
-609,-671,0,0,0,0,0,0,0,0,0,-1,615,1695,0,0
-602,-671,0,0,0,0,0,0,0,0,0,-1,622,1695,0,0
-595,-671,0,0,0,0,0,0,0,0,0,-1,629,1695,0,0
-588,-671,0,0,0,0,0,0,0,0,0,-1,636,1695,0,0
-581,-671,0,0,0,0,0,0,0,0,0,-1,643,1695,0,0
-574,-671,0,0,0,0,0,0,0,0,0,-1,650,1695,0,0
-567,-671,0,0,0,0,0,0,0,0,0,-1,657,1695,0,0
-560,-671,0,0,0,0,0,0,0,0,0,-1,664,1695,0,0
-553,-671,0,0,0,0,0,0,0,0,0,-1,671,1695,0,0
-546,-671,0,0,0,0,0,0,0,0,0,-1,678,1695,0,0
-539,-671,0,0,0,0,0,0,0,0,0,-1,685,1695,0,0
-532,-671,0,0,0,0,0,0,0,0,0,-1,692,1695,0,0
-525,-671,0,0,0,0,0,0,0,0,0,-1,699,1695,0,0
-518,-671,0,0,0,0,0,0,0,0,0,-1,706,1695,0,0
-511,-671,0,0,0,0,0,0,0,0,0,-1,713,1695,0,0
-504,-671,0,0,0,0,0,0,0,0,0,-1,720,1695,0,0
-497,-671,0,0,0,0,0,0,0,0,0,-1,727,1695,0,0
-490,-671,0,0,0,0,0,0,0,0,0,-1,734,1695,0,0
-483,-671,0,0,0,0,0,0,0,0,0,-1,741,1695,0,0
-476,-671,0,0,0,0,0,0,0,0,0,-1,748,1695,0,0
-469,-671,0,0,0,0,0,0,0,0,0,-1,755,1695,0,0
-462,-671,0,0,0,0,0,0,0,0,0,-1,762,1695,0,0
-455,-671,0,0,0,0,0,0,0,0,0,-1,769,1695,0,0
-448,-671,0,0,0,0,0,0,0,0,0,-1,776,1695,0,0
-441,-671,0,0,0,0,0,0,0,0,0,-1,783,1695,0,0
-434,-671,0,0,0,0,0,0,0,0,0,-1,790,1695,0,0
-427,-671,0,0,0,0,0,0,0,0,0,-1,797,1695,0,0
-420,-671,0,0,0,0,0,0,0,0,0,-1,804,1695,0,0
-413,-671,0,0,0,0,0,0,0,0,0,-1,811,1695,0,0
-406,-671,0,0,0,0,0,0,0,0,0,-1,818,1695,0,0
-399,-671,0,0,0,0,0,0,0,0,0,-1,825,1695,0,0
-392,-671,0,0,0,0,0,0,0,0,0,-1,832,1695,0,0
-385,-671,0,0,0,0,0,0,0,0,0,-1,839,1695,0,0
-378,-671,0,0,0,0,0,0,0,0,0,-1,846,1695,0,0
-371,-671,0,0,0,0,0,0,0,0,0,-1,853,1695,0,0
-364,-671,-4.18738,7.51416,0,0,0,0,0,0,0,-1,860,1695,-4.18739,-7.51419
-357,-671,-5.02393,6.07129,0,0,0,0,0,0,0,-1,867,1695,-5.0239,-6.07135
-350,-671,8.03021,46.2139,0,0,0,0,0,0,0,-1,874,1695,8.03024,-46.2139
-343,-671,7.2002,45.9105,0,0,0,0,0,0,0,-1,881,1695,7.20021,-45.9105
-336,-671,3.61957,62.0797,0,0,0,0,0,0,0,-1,888,1695,3.61955,-62.0797
-329,-671,3.79718,62.5812,0,0,0,0,0,0,0,-1,895,1695,3.79718,-62.5812
-322,-671,5.74951,47.1416,0,0,0,0,0,0,0,-1,902,1695,5.74954,-47.1416
-315,-671,6.55444,54.9858,0,0,0,0,0,0,0,-1,909,1695,6.55444,-54.9858
-308,-671,5.88354,55.9731,0,0,0,0,0,0,0,-1,916,1695,5.88355,-55.9731
-301,-671,4.41486,57.2842,0,0,0,0,0,0,0,-1,923,1695,4.41487,-57.2842
-294,-671,1.25769,113.784,0,0,0,0,0,0,0,-1,930,1695,1.25769,-113.784
-287,-671,-0.879883,141.56,0,0,0,0,0,0,0,-1,937,1695,-0.879878,-141.56
-280,-671,-2.23846,158.361,0,0,0,0,0,0,0,-1,944,1695,-2.23846,-158.361
-273,-671,-2.58551,161.443,0,0,0,0,0,0,0,-1,951,1695,-2.58549,-161.443
-266,-671,-3.13812,163.76,0,0,0,0,0,0,0,-1,958,1695,-3.13815,-163.76
-259,-671,-3.4502,166.144,-0.00484248,0.0029844,0.00488796,0.00533252,-0.0071906,1.12296,0.00725671,0.0386467,965,1695,-3.45017,-166.144
-252,-671,-3.82776,168.43,-0.00339102,0.00286161,0.00472785,0.00540331,-0.00593272,1.07752,0.00654724,0.0227574,972,1695,-3.82774,-168.43
-245,-671,-4.26483,170.7,-0.00205253,0.00290404,0.00455041,0.00560727,-0.00475577,1.03475,0.00598983,0.0246175,979,1695,-4.26485,-170.7
-238,-671,-4.57739,172.956,-0.000784301,0.0029372,0.00424562,0.00571193,-0.00355903,0.991929,0.00540048,0.0250596,986,1695,-4.57739,-172.956
-231,-671,-4.89191,175.141,0.000520884,0.00295849,0.00388213,0.00580864,-0.00232927,0.937502,0.00483945,0.0206707,993,1695,-4.89189,-175.141
-224,-671,-5.2525,177.287,0.00178535,0.00284959,0.00338361,0.00574266,-0.00110773,0.863391,0.00424612,0.016526,1000,1695,-5.25251,-177.287
-217,-671,-5.61542,179.431,0.00299928,0.00261297,0.00281821,0.00563095,-1.86968e-05,0.751182,0.00376021,0.0164202,1007,1695,-5.61542,-179.431
-210,-671,-5.94666,181.569,0.0041838,0.00230413,0.00219562,0.00563228,0.000855657,0.583172,0.00350462,0.0161026,1014,1695,-5.94665,-181.569
-203,-671,-6.24738,183.727,0.0054372,0.00185527,0.00165231,0.00608297,0.0012095,0.372575,0.00371831,0.0241137,1021,1695,-6.24737,-183.727
-196,-671,-6.53784,185.781,0.00678276,0.00130384,0.00103216,0.00697075,0.00111584,0.180164,0.00432349,0.0218001,1028,1695,-6.53784,-185.781
-189,-671,-6.78198,187.946,0.00827275,0.000458445,0.000334705,0.00828706,0.000444136,0.0427281,0.00538277,0.0181424,1035,1695,-6.78194,-187.946
-182,-671,-7.07593,189.944,0.00989056,-0.000451762,-0.000349817,0.00990238,-0.00046358,-0.0337724,0.00676141,0.0147329,1042,1695,-7.07598,-189.944
-175,-671,-7.29578,191.908,0.0116208,-0.00136421,-0.00103424,0.0117026,-0.00144607,-0.0789854,0.00832574,0.0181297,1049,1695,-7.29583,-191.908
-168,-671,-7.48511,193.827,0.0135336,-0.00241847,-0.00173938,0.013721,-0.00260593,-0.107357,0.0101284,0.0180957,1056,1695,-7.48505,-193.827
-161,-671,-7.72974,195.785,0.0157599,-0.00333703,-0.00233862,0.0160421,-0.00361924,-0.120097,0.0120832,0.0141172,1063,1695,-7.7298,-195.785
-154,-671,-7.83826,197.722,0.0179673,-0.00394023,-0.00288355,0.0183405,-0.00431341,-0.128704,0.0138899,0.0152745,1070,1695,-7.8383,-197.722
-147,-671,-7.94324,199.57,0.0202045,-0.00473688,-0.00370948,0.0207445,-0.00527689,-0.144561,0.0158835,0.0182279,1077,1695,-7.94322,-199.57
-140,-671,-7.99475,201.357,0.0222792,-0.00549397,-0.00464971,0.023037,-0.00625173,-0.16155,0.0178115,0.0337764,1084,1695,-7.99472,-201.357
-133,-671,-8.04248,203.194,0,0,0,0,0,0,0,-1,1091,1695,-8.04254,-203.194
-126,-671,-8.19897,205.281,0,0,0,0,0,0,0,-1,1098,1695,-8.19893,-205.281
-119,-671,5.2262,74.2942,0,0,0,0,0,0,0,-1,1105,1695,5.22624,-74.2942
-112,-671,6.58704,44.6255,0,0,0,0,0,0,0,-1,1112,1695,6.58701,-44.6255
-105,-671,7.33252,41.3418,0,0,0,0,0,0,0,-1,1119,1695,7.33247,-41.3418
-98,-671,6.34534,45.6299,0,0,0,0,0,0,0,-1,1126,1695,6.34533,-45.6299
-91,-671,6.40063,38.2443,0,0,0,0,0,0,0,-1,1133,1695,6.40059,-38.2442
-84,-671,5.4209,26.2415,0,0,0,0,0,0,0,-1,1140,1695,5.42096,-26.2414
-77,-671,4.31763,16.489,0,0,0,0,0,0,0,-1,1147,1695,4.31757,-16.489
-70,-671,3.06067,10.7737,0,0,0,0,0,0,0,-1,1154,1695,3.0607,-10.7737
-63,-671,2.94592,6.90198,0,0,0,0,0,0,0,-1,1161,1695,2.94594,-6.90198
-56,-671,-3.07678,2.87976,0,0,0,0,0,0,0,-1,1168,1695,-3.07675,-2.87979
-49,-671,-1.05957,4.76917,0,0,0,0,0,0,0,-1,1175,1695,-1.05958,-4.76921
-42,-671,0.539307,3.7865,0,0,0,0,0,0,0,-1,1182,1695,0.539266,-3.78648
-35,-671,-0.272461,0.347534,0,0,0,0,0,0,0,-1,1189,1695,-0.272434,-0.347569
-28,-671,-10.4878,17.2009,0,0,0,0,0,0,0,-1,1196,1695,-10.4878,-17.2009
-21,-671,26.8003,226.032,0,0,0,0,0,0,0,-1,1203,1695,26.8003,-226.032
-14,-671,25.5067,226.344,0,0,0,0,0,0,0,-1,1210,1695,25.5067,-226.344
-7,-671,24.0757,226.142,0,0,0,0,0,0,0,-1,1217,1695,24.0757,-226.142
0,-671,22.5885,226.583,0,0,0,0,0,0,0,-1,1224,1695,22.5885,-226.583
7,-671,20.5792,226.853,0,0,0,0,0,0,0,-1,1231,1695,20.5792,-226.853
14,-671,18.9362,226.532,0,0,0,0,0,0,0,-1,1238,1695,18.9362,-226.532
21,-671,17.4746,226.412,0,0,0,0,0,0,0,-1,1245,1695,17.4746,-226.412
28,-671,16.2251,226.374,0,0,0,0,0,0,0,-1,1252,1695,16.2251,-226.374
35,-671,14.8831,226.474,0,0,0,0,0,0,0,-1,1259,1695,14.883,-226.473
42,-671,7.96387,227.093,0,0,0,0,0,0,0,-1,1266,1695,7.96384,-227.093
49,-671,7.63074,226.746,0,0,0,0,0,0,0,-1,1273,1695,7.63078,-226.746
56,-671,7.65369,226.469,0,0,0,0,0,0,0,-1,1280,1695,7.65367,-226.47
63,-671,7.09204,225.869,0,0,0,0,0,0,0,-1,1287,1695,7.09201,-225.869
70,-671,6.52356,225.182,0,0,0,0,0,0,0,-1,1294,1695,6.52352,-225.182
77,-671,6.3208,224.514,0,0,0,0,0,0,0,-1,1301,1695,6.32083,-224.514
84,-671,5.86499,224.106,0,0,0,0,0,0,0,-1,1308,1695,5.86504,-224.106
91,-671,5.41467,223.697,0,0,0,0,0,0,0,-1,1315,1695,5.41472,-223.697
98,-671,4.78137,223.13,0,0,0,0,0,0,0,-1,1322,1695,4.78133,-223.13
105,-671,4.15979,222.505,0,0,0,0,0,0,0,-1,1329,1695,4.15981,-222.505
112,-671,3.70898,221.991,0,0,0,0,0,0,0,-1,1336,1695,3.70901,-221.991
119,-671,3.42468,221.528,0,0,0,0,0,0,0,-1,1343,1695,3.42465,-221.528
126,-671,3.02686,221.018,0,0,0,0,0,0,0,-1,1350,1695,3.02687,-221.018
133,-671,2.198,216.832,0,0,0,0,0,0,0,-1,1357,1695,2.19799,-216.832
140,-671,1.20239,216.142,0,0,0,0,0,0,0,-1,1364,1695,1.20242,-216.142
147,-671,0.09729,215.209,0,0,0,0,0,0,0,-1,1371,1695,0.0972796,-215.209
154,-671,-0.980713,214.121,0,0,0,0,0,0,0,-1,1378,1695,-0.98069,-214.121
161,-671,4.49292,4.91272,0,0,0,0,0,0,0,-1,1385,1695,4.49297,-4.91273
168,-671,5.17639,6.1416,0,0,0,0,0,0,0,-1,1392,1695,5.1764,-6.14164
175,-671,5.6731,1.64685,0,0,0,0,0,0,0,-1,1399,1695,5.67313,-1.64691
182,-671,5.56812,1.71692,0,0,0,0,0,0,0,-1,1406,1695,5.56809,-1.71686
189,-671,6.98315,6.36169,0,0,0,0,0,0,0,-1,1413,1695,6.98312,-6.36175
196,-671,5.38123,5.69775,0,0,0,0,0,0,0,-1,1420,1695,5.38125,-5.69769
203,-671,5.95117,8.11658,0,0,0,0,0,0,0,-1,1427,1695,5.9512,-8.11662
210,-671,4.73596,8.39624,0,0,0,0,0,0,0,-1,1434,1695,4.736,-8.39618
217,-671,5.37097,11.863,0,0,0,0,0,0,0,-1,1441,1695,5.37094,-11.863
224,-671,5.08167,13.6694,0,0,0,0,0,0,0,-1,1448,1695,5.08165,-13.6695
231,-671,5.66663,15.3348,0,0,0,0,0,0,0,-1,1455,1695,5.66667,-15.3349
238,-671,6.32959,16.2036,0,0,0,0,0,0,0,-1,1462,1695,6.32961,-16.2037
245,-671,11.9244,57.5367,0,0,0,0,0,0,0,-1,1469,1695,11.9245,-57.5367
252,-671,14.2122,112.518,0,0,0,0,0,0,0,-1,1476,1695,14.2122,-112.518
259,-671,13.949,205.053,0,0,0,0,0,0,0,-1,1483,1695,13.949,-205.053
266,-671,13.8667,203.038,0,0,0,0,0,0,0,-1,1490,1695,13.8667,-203.038
273,-671,13.7576,201.329,0,0,0,0,0,0,0,-1,1497,1695,13.7575,-201.329
280,-671,13.6704,199.606,0.019208,-0.00438809,0.00094947,0.0192462,-0.00442624,0.0401519,0.0145326,0.0377189,1504,1695,13.6704,-199.606
287,-671,13.4991,197.485,0.0165986,-0.00394495,0.000872836,0.0166356,-0.00398196,0.0423853,0.0126287,0.0336355,1511,1695,13.4992,-197.485
294,-671,13.272,195.541,0.0144371,-0.00310494,0.000788345,0.0144724,-0.0031403,0.04482,0.0108476,0.0279895,1518,1695,13.272,-195.541
301,-671,13.1949,193.687,0.0124993,-0.00216134,0.000298508,0.0125054,-0.00216742,0.0203499,0.00914543,0.0167897,1525,1695,13.195,-193.687
308,-671,13.0543,191.741,0.0106034,-0.00149905,6.2442e-05,0.0106037,-0.00149937,0.00515927,0.00761829,0.0153116,1532,1695,13.0543,-191.741
315,-671,12.8588,189.734,0.00880905,-0.000587537,-0.000182215,0.00881258,-0.000591069,-0.0193819,0.00608166,0.0170361,1539,1695,12.8588,-189.734
322,-671,12.6111,187.747,0.00723482,0.000255562,-0.00057328,0.0072816,0.000208786,-0.0814133,0.00478632,0.0184692,1546,1695,12.6111,-187.747
329,-671,12.3209,185.763,0.00585283,0.000922243,-0.0010593,0.00607078,0.000704293,-0.202917,0.00383405,0.0174116,1553,1695,12.321,-185.763
336,-671,12.053,183.64,0.00452465,0.00129771,-0.001459,0.00508649,0.00073587,-0.367583,0.00317426,0.0144344,1560,1695,12.053,-183.64
343,-671,11.8204,181.475,0.00340333,0.0017307,-0.001996,0.00473114,0.000402893,-0.587011,0.00302874,0.0174815,1567,1695,11.8204,-181.475
350,-671,11.5248,179.42,0.00244468,0.00190272,-0.00255689,0.00474491,-0.000397515,-0.732605,0.00330376,0.0192259,1574,1695,11.5247,-179.42
357,-671,11.1569,177.221,0.00156458,0.00183179,-0.00315859,0.0048596,-0.00146323,-0.806535,0.00382201,0.0170627,1581,1695,11.1568,-177.221
364,-671,10.8159,175.033,0.000856613,0.00162384,-0.00370682,0.00496684,-0.00248639,-0.836959,0.00438183,0.0175174,1588,1695,10.8159,-175.033
371,-671,10.4547,172.915,0.000443366,0.00148533,-0.00434549,0.00534095,-0.00341226,-0.845058,0.0050944,0.0189324,1595,1695,10.4547,-172.915
378,-671,10.0657,170.738,0.000140771,0.0013482,-0.004986,0.0057669,-0.00427793,-0.845646,0.00582058,0.015786,1602,1695,10.0656,-170.738
385,-671,9.66418,168.496,-3.07474e-05,0.00127757,-0.00575511,0.00641559,-0.00516876,-0.841988,0.00670112,0.0195105,1609,1695,9.66416,-168.496
392,-671,9.27026,166.333,2.92345e-05,0.00134032,-0.00658555,0.00730288,-0.00593332,-0.835006,0.00765555,0.0278657,1616,1695,9.27024,-166.333
399,-671,8.96606,164.052,0.000417109,0.00186984,-0.00756608,0.00874433,-0.00645739,-0.833253,0.00880976,0.0228551,1623,1695,8.96608,-164.052
406,-671,8.60901,161.718,0.00110404,0.00283929,-0.0089316,0.0109453,-0.00700198,-0.833817,0.0104449,0.0349862,1630,1695,8.60907,-161.718
413,-671,8.18848,159.482,0,0,0,0,0,0,0,-1,1637,1695,8.1885,-159.482
420,-671,7.91309,156.925,0,0,0,0,0,0,0,-1,1644,1695,7.9131,-156.925
427,-671,12.4595,89.1311,0,0,0,0,0,0,0,-1,1651,1695,12.4595,-89.1311
434,-671,12.6877,85.8525,0,0,0,0,0,0,0,-1,1658,1695,12.6877,-85.8525
441,-671,12.4281,77.4683,0,0,0,0,0,0,0,-1,1665,1695,12.4281,-77.4682
448,-671,11.6979,39.1995,0,0,0,0,0,0,0,-1,1672,1695,11.6979,-39.1994
455,-671,11.5221,39.0929,0,0,0,0,0,0,0,-1,1679,1695,11.5221,-39.0929
462,-671,5.86255,4.47961,0,0,0,0,0,0,0,-1,1686,1695,5.8625,-4.4796
469,-671,3.71301,3.76978,0,0,0,0,0,0,0,-1,1693,1695,3.71297,-3.76974
476,-671,3.75574,3.18848,0,0,0,0,0,0,0,-1,1700,1695,3.7558,-3.18847
483,-671,7.81824,12.1041,0,0,0,0,0,0,0,-1,1707,1695,7.81826,-12.1041
490,-671,0,0,0,0,0,0,0,0,0,-1,1714,1695,0,0
497,-671,0,0,0,0,0,0,0,0,0,-1,1721,1695,0,0
504,-671,0,0,0,0,0,0,0,0,0,-1,1728,1695,0,0
511,-671,0,0,0,0,0,0,0,0,0,-1,1735,1695,0,0
518,-671,0,0,0,0,0,0,0,0,0,-1,1742,1695,0,0
525,-671,0,0,0,0,0,0,0,0,0,-1,1749,1695,0,0
532,-671,0,0,0,0,0,0,0,0,0,-1,1756,1695,0,0
539,-671,0,0,0,0,0,0,0,0,0,-1,1763,1695,0,0
546,-671,0,0,0,0,0,0,0,0,0,-1,1770,1695,0,0
553,-671,0,0,0,0,0,0,0,0,0,-1,1777,1695,0,0
560,-671,0,0,0,0,0,0,0,0,0,-1,1784,1695,0,0
567,-671,0,0,0,0,0,0,0,0,0,-1,1791,1695,0,0
574,-671,0,0,0,0,0,0,0,0,0,-1,1798,1695,0,0
581,-671,0,0,0,0,0,0,0,0,0,-1,1805,1695,0,0
588,-671,0,0,0,0,0,0,0,0,0,-1,1812,1695,0,0
595,-671,0,0,0,0,0,0,0,0,0,-1,1819,1695,0,0
602,-671,0,0,0,0,0,0,0,0,0,-1,1826,1695,0,0
609,-671,0,0,0,0,0,0,0,0,0,-1,1833,1695,0,0
616,-671,0,0,0,0,0,0,0,0,0,-1,1840,1695,0,0
623,-671,0,0,0,0,0,0,0,0,0,-1,1847,1695,0,0
630,-671,0,0,0,0,0,0,0,0,0,-1,1854,1695,0,0
637,-671,0,0,0,0,0,0,0,0,0,-1,1861,1695,0,0
644,-671,0,0,0,0,0,0,0,0,0,-1,1868,1695,0,0
651,-671,0,0,0,0,0,0,0,0,0,-1,1875,1695,0,0
658,-671,0,0,0,0,0,0,0,0,0,-1,1882,1695,0,0
665,-671,0,0,0,0,0,0,0,0,0,-1,1889,1695,0,0
672,-671,0,0,0,0,0,0,0,0,0,-1,1896,1695,0,0
679,-671,0,0,0,0,0,0,0,0,0,-1,1903,1695,0,0
686,-671,0,0,0,0,0,0,0,0,0,-1,1910,1695,0,0
693,-671,0,0,0,0,0,0,0,0,0,-1,1917,1695,0,0
700,-671,0,0,0,0,0,0,0,0,0,-1,1924,1695,0,0
707,-671,0,0,0,0,0,0,0,0,0,-1,1931,1695,0,0
714,-671,0,0,0,0,0,0,0,0,0,-1,1938,1695,0,0
721,-671,0,0,0,0,0,0,0,0,0,-1,1945,1695,0,0
728,-671,0,0,0,0,0,0,0,0,0,-1,1952,1695,0,0
735,-671,0,0,0,0,0,0,0,0,0,-1,1959,1695,0,0
742,-671,0,0,0,0,0,0,0,0,0,-1,1966,1695,0,0
749,-671,0,0,0,0,0,0,0,0,0,-1,1973,1695,0,0
756,-671,0,0,0,0,0,0,0,0,0,-1,1980,1695,0,0
763,-671,0,0,0,0,0,0,0,0,0,-1,1987,1695,0,0
770,-671,0,0,0,0,0,0,0,0,0,-1,1994,1695,0,0
777,-671,0,0,0,0,0,0,0,0,0,-1,2001,1695,0,0
784,-671,0,0,0,0,0,0,0,0,0,-1,2008,1695,0,0
791,-671,0,0,0,0,0,0,0,0,0,-1,2015,1695,0,0
798,-671,0,0,0,0,0,0,0,0,0,-1,2022,1695,0,0
805,-671,0,0,0,0,0,0,0,0,0,-1,2029,1695,0,0
812,-671,0,0,0,0,0,0,0,0,0,-1,2036,1695,0,0
-700,-678,0,0,0,0,0,0,0,0,0,-1,524,1702,0,0
-693,-678,0,0,0,0,0,0,0,0,0,-1,531,1702,0,0
-686,-678,0,0,0,0,0,0,0,0,0,-1,538,1702,0,0
-679,-678,0,0,0,0,0,0,0,0,0,-1,545,1702,0,0
-672,-678,0,0,0,0,0,0,0,0,0,-1,552,1702,0,0
-665,-678,0,0,0,0,0,0,0,0,0,-1,559,1702,0,0
-658,-678,0,0,0,0,0,0,0,0,0,-1,566,1702,0,0
-651,-678,0,0,0,0,0,0,0,0,0,-1,573,1702,0,0
-644,-678,0,0,0,0,0,0,0,0,0,-1,580,1702,0,0
-637,-678,0,0,0,0,0,0,0,0,0,-1,587,1702,0,0
-630,-678,0,0,0,0,0,0,0,0,0,-1,594,1702,0,0
-623,-678,0,0,0,0,0,0,0,0,0,-1,601,1702,0,0
-616,-678,0,0,0,0,0,0,0,0,0,-1,608,1702,0,0
-609,-678,0,0,0,0,0,0,0,0,0,-1,615,1702,0,0
-602,-678,0,0,0,0,0,0,0,0,0,-1,622,1702,0,0
-595,-678,0,0,0,0,0,0,0,0,0,-1,629,1702,0,0
-588,-678,0,0,0,0,0,0,0,0,0,-1,636,1702,0,0
-581,-678,0,0,0,0,0,0,0,0,0,-1,643,1702,0,0
-574,-678,0,0,0,0,0,0,0,0,0,-1,650,1702,0,0
-567,-678,0,0,0,0,0,0,0,0,0,-1,657,1702,0,0
-560,-678,0,0,0,0,0,0,0,0,0,-1,664,1702,0,0
-553,-678,0,0,0,0,0,0,0,0,0,-1,671,1702,0,0
-546,-678,0,0,0,0,0,0,0,0,0,-1,678,1702,0,0
-539,-678,0,0,0,0,0,0,0,0,0,-1,685,1702,0,0
-532,-678,0,0,0,0,0,0,0,0,0,-1,692,1702,0,0
-525,-678,0,0,0,0,0,0,0,0,0,-1,699,1702,0,0
-518,-678,0,0,0,0,0,0,0,0,0,-1,706,1702,0,0
-511,-678,0,0,0,0,0,0,0,0,0,-1,713,1702,0,0
-504,-678,0,0,0,0,0,0,0,0,0,-1,720,1702,0,0
-497,-678,0,0,0,0,0,0,0,0,0,-1,727,1702,0,0
-490,-678,0,0,0,0,0,0,0,0,0,-1,734,1702,0,0
-483,-678,0,0,0,0,0,0,0,0,0,-1,741,1702,0,0
-476,-678,0,0,0,0,0,0,0,0,0,-1,748,1702,0,0
-469,-678,0,0,0,0,0,0,0,0,0,-1,755,1702,0,0
-462,-678,0,0,0,0,0,0,0,0,0,-1,762,1702,0,0
-455,-678,0,0,0,0,0,0,0,0,0,-1,769,1702,0,0
-448,-678,0,0,0,0,0,0,0,0,0,-1,776,1702,0,0
-441,-678,0,0,0,0,0,0,0,0,0,-1,783,1702,0,0
-434,-678,0,0,0,0,0,0,0,0,0,-1,790,1702,0,0
-427,-678,0,0,0,0,0,0,0,0,0,-1,797,1702,0,0
-420,-678,0,0,0,0,0,0,0,0,0,-1,804,1702,0,0
-413,-678,0,0,0,0,0,0,0,0,0,-1,811,1702,0,0
-406,-678,0,0,0,0,0,0,0,0,0,-1,818,1702,0,0
-399,-678,0,0,0,0,0,0,0,0,0,-1,825,1702,0,0
-392,-678,0,0,0,0,0,0,0,0,0,-1,832,1702,0,0
-385,-678,0,0,0,0,0,0,0,0,0,-1,839,1702,0,0
-378,-678,0,0,0,0,0,0,0,0,0,-1,846,1702,0,0
-371,-678,0,0,0,0,0,0,0,0,0,-1,853,1702,0,0
-364,-678,0,0,0,0,0,0,0,0,0,-1,860,1702,0,0
-357,-678,0,0,0,0,0,0,0,0,0,-1,867,1702,0,0
-350,-678,-5.79944,6.11865,0,0,0,0,0,0,0,-1,874,1702,-5.79942,-6.11864
-343,-678,8.83331,46.1378,0,0,0,0,0,0,0,-1,881,1702,8.83334,-46.1378
-336,-678,7.73517,46.2286,0,0,0,0,0,0,0,-1,888,1702,7.73516,-46.2286
-329,-678,6.11768,46.3923,0,0,0,0,0,0,0,-1,895,1702,6.11768,-46.3923
-322,-678,8.50494,35.5048,0,0,0,0,0,0,0,-1,902,1702,8.50495,-35.5047
-315,-678,6.45313,55.4424,0,0,0,0,0,0,0,-1,909,1702,6.45314,-55.4424
-308,-678,6.78906,55.7052,0,0,0,0,0,0,0,-1,916,1702,6.78906,-55.7052
-301,-678,4.56702,57.2437,0,0,0,0,0,0,0,-1,923,1702,4.56702,-57.2436
-294,-678,4.51898,57.8069,0,0,0,0,0,0,0,-1,930,1702,4.51898,-57.8069
-287,-678,3.15588,110.075,0,0,0,0,0,0,0,-1,937,1702,3.15587,-110.075
-280,-678,2.88605,111.566,0,0,0,0,0,0,0,-1,944,1702,2.88607,-111.566
-273,-678,2.45282,112.753,0,0,0,0,0,0,0,-1,951,1702,2.45283,-112.753
-266,-678,-0.617981,164.01,0,0,0,0,0,0,0,-1,958,1702,-0.61798,-164.01
-259,-678,-1.09698,166.484,-0.00685673,0.00421283,0.00617908,0.00697352,-0.00961742,1.15062,0.00961924,0.0432463,965,1702,-1.097,-166.484
-252,-678,-1.56451,168.819,-0.00523055,0.00412794,0.00615275,0.00717861,-0.00828123,1.1105,0.00893331,0.0261931,972,1702,-1.56453,-168.819
-245,-678,-2.06665,171.037,-0.00384987,0.00424895,0.00610291,0.0075237,-0.00712462,1.07831,0.00845826,0.0243078,979,1702,-2.06662,-171.037
-238,-678,-2.48596,173.249,-0.00261082,0.00430619,0.00583815,0.00763335,-0.00593798,1.0528,0.00785576,0.019031,986,1702,-2.48594,-173.249
-231,-678,-2.82123,175.44,-0.00134555,0.00430606,0.005497,0.00766105,-0.00470054,1.02282,0.00720487,0.0165446,993,1702,-2.82121,-175.44
-224,-678,-3.16974,177.587,-0.000161917,0.00418362,0.00502405,0.00748461,-0.00346291,0.98949,0.00646115,0.0171882,1000,1702,-3.16975,-177.587
-217,-678,-3.50403,179.755,0.000923554,0.00393774,0.0044629,0.00714115,-0.00227985,0.948233,0.00567546,0.0191081,1007,1702,-3.504,-179.755
-210,-678,-3.84979,181.911,0.00189077,0.00355474,0.00381455,0.00662698,-0.00118147,0.892771,0.00485992,0.021161,1014,1702,-3.84978,-181.911
-203,-678,-4.15094,184.047,0.00285288,0.00300864,0.00323178,0.00616348,-0.000301955,0.797445,0.00421325,0.0287351,1021,1702,-4.15092,-184.047
-196,-678,-4.47522,186.131,0.0039196,0.00242571,0.00257639,0.00585514,0.00049017,0.644307,0.00375073,0.0269983,1028,1702,-4.47525,-186.131
-189,-678,-4.79089,188.209,0.00511685,0.00150677,0.00182978,0.00588207,0.000741543,0.396102,0.00369906,0.0155193,1035,1702,-4.79086,-188.209
-182,-678,-5.0575,190.27,0.00644243,0.000507118,0.00109089,0.00663658,0.000312969,0.17613,0.00432384,0.014058,1042,1702,-5.05755,-190.27
-175,-678,-5.28967,192.241,0.00788931,-0.00045073,0.000363074,0.00790508,-0.000466506,0.0434243,0.00543224,0.0149232,1049,1702,-5.28968,-192.241
-168,-678,-5.5249,194.145,0.00945408,-0.00147639,-0.000362003,0.00946606,-0.00148837,-0.0330704,0.00686086,0.0140591,1056,1702,-5.52494,-194.145
-161,-678,-5.76758,196.063,0.0112116,-0.00247281,-0.00104204,0.0112905,-0.00255171,-0.0755675,0.00850613,0.0129483,1063,1702,-5.76759,-196.063
-154,-678,-5.93457,198.03,0.0130936,-0.00316818,-0.00164737,0.0132588,-0.00333338,-0.0999505,0.0101347,0.0125941,1070,1702,-5.93463,-198.03
-147,-678,-6.13257,199.944,0.015145,-0.00394662,-0.00245509,0.0154557,-0.00425728,-0.125867,0.0119778,0.016334,1077,1702,-6.13255,-199.944
-140,-678,-6.19165,201.739,0.0171515,-0.00467178,-0.00336114,0.0176574,-0.00517772,-0.149405,0.0138246,0.0170562,1084,1702,-6.19169,-201.739
-133,-678,-6.27478,203.481,0.018902,-0.00545654,-0.00440141,0.0196729,-0.00622744,-0.173391,0.0156108,0.0190971,1091,1702,-6.27483,-203.481
-126,-678,-6.39392,205.297,0.0209778,-0.00632578,-0.00554634,0.0220615,-0.00740943,-0.192951,0.0177021,0.0315965,1098,1702,-6.39398,-205.297
-119,-678,-6.46362,207.414,0,0,0,0,0,0,0,-1,1105,1702,-6.46363,-207.414
-112,-678,-6.4187,208.625,0,0,0,0,0,0,0,-1,1112,1702,-6.41864,-208.625
-105,-678,-6.41174,210.479,0,0,0,0,0,0,0,-1,1119,1702,-6.41172,-210.479
-98,-678,-6.28076,210.951,0,0,0,0,0,0,0,-1,1126,1702,-6.28074,-210.951
-91,-678,1.9314,131.293,0,0,0,0,0,0,0,-1,1133,1702,1.93142,-131.293
-84,-678,6.58545,36.5073,0,0,0,0,0,0,0,-1,1140,1702,6.58544,-36.5073
-77,-678,5.95154,29.1879,0,0,0,0,0,0,0,-1,1147,1702,5.95156,-29.1878
-70,-678,4.75891,19.6552,0,0,0,0,0,0,0,-1,1154,1702,4.75895,-19.6551
-63,-678,3.41687,11.0365,0,0,0,0,0,0,0,-1,1161,1702,3.41682,-11.0365
-56,-678,1.72388,6.13159,0,0,0,0,0,0,0,-1,1168,1702,1.72388,-6.13157
-49,-678,-0.241699,5.29895,0,0,0,0,0,0,0,-1,1175,1702,-0.241682,-5.29897
-42,-678,0.297119,3.90649,0,0,0,0,0,0,0,-1,1182,1702,0.297139,-3.90655
-35,-678,0.498413,3.64038,0,0,0,0,0,0,0,-1,1189,1702,0.498471,-3.64038
-28,-678,0.132446,3.55994,0,0,0,0,0,0,0,-1,1196,1702,0.132432,-3.55993
-21,-678,5.26782,127.536,0,0,0,0,0,0,0,-1,1203,1702,5.26788,-127.536
-14,-678,25.0287,227.961,0,0,0,0,0,0,0,-1,1210,1702,25.0287,-227.961
-7,-678,24.2451,227.683,0,0,0,0,0,0,0,-1,1217,1702,24.2451,-227.683
0,-678,22.3427,227.877,0,0,0,0,0,0,0,-1,1224,1702,22.3426,-227.877
7,-678,20.7231,227.548,0,0,0,0,0,0,0,-1,1231,1702,20.7231,-227.548
14,-678,18.8862,227.519,0,0,0,0,0,0,0,-1,1238,1702,18.8863,-227.519
21,-678,17.5031,227.391,0,0,0,0,0,0,0,-1,1245,1702,17.5031,-227.391
28,-678,16.176,227.367,0,0,0,0,0,0,0,-1,1252,1702,16.176,-227.367
35,-678,8.66431,228.041,0,0,0,0,0,0,0,-1,1259,1702,8.66428,-228.041
42,-678,8.29163,227.843,0,0,0,0,0,0,0,-1,1266,1702,8.29157,-227.843
49,-678,7.92578,227.714,0,0,0,0,0,0,0,-1,1273,1702,7.92573,-227.714
56,-678,7.67798,227.472,0,0,0,0,0,0,0,-1,1280,1702,7.67801,-227.472
63,-678,7.2832,226.826,0,0,0,0,0,0,0,-1,1287,1702,7.28317,-226.826
70,-678,7.55676,226.063,0,0,0,0,0,0,0,-1,1294,1702,7.55681,-226.063
77,-678,6.80029,225.691,0,0,0,0,0,0,0,-1,1301,1702,6.8003,-225.691
84,-678,6.01819,225.3,0,0,0,0,0,0,0,-1,1308,1702,6.01814,-225.3
91,-678,5.19202,224.772,0,0,0,0,0,0,0,-1,1315,1702,5.19199,-224.772
98,-678,4.15833,227.494,0,0,0,0,0,0,0,-1,1322,1702,4.15836,-227.494
105,-678,4.2489,223.736,0,0,0,0,0,0,0,-1,1329,1702,4.24885,-223.736
112,-678,3.62524,223.465,0,0,0,0,0,0,0,-1,1336,1702,3.62519,-223.465
119,-678,3.31616,222.842,0,0,0,0,0,0,0,-1,1343,1702,3.31613,-222.842
126,-678,2.52649,222.414,0,0,0,0,0,0,0,-1,1350,1702,2.52649,-222.414
133,-678,1.78564,222.014,0,0,0,0,0,0,0,-1,1357,1702,1.78569,-222.014
140,-678,0.554688,217.163,0,0,0,0,0,0,0,-1,1364,1702,0.554666,-217.163
147,-678,-0.212891,216.406,0,0,0,0,0,0,0,-1,1371,1702,-0.212878,-216.406
154,-678,3.1123,208.876,0,0,0,0,0,0,0,-1,1378,1702,3.11225,-208.876
161,-678,8.81226,34.8624,0,0,0,0,0,0,0,-1,1385,1702,8.81229,-34.8624
168,-678,4.21863,5.25781,0,0,0,0,0,0,0,-1,1392,1702,4.21865,-5.25781
175,-678,5.21899,5.9635,0,0,0,0,0,0,0,-1,1399,1702,5.21894,-5.96346
182,-678,7.31262,6.75122,0,0,0,0,0,0,0,-1,1406,1702,7.3126,-6.75123
189,-678,5.96021,6.36853,0,0,0,0,0,0,0,-1,1413,1702,5.96018,-6.36851
196,-678,5.01599,8.15771,0,0,0,0,0,0,0,-1,1420,1702,5.01596,-8.15767
203,-678,4.64771,13.0559,0,0,0,0,0,0,0,-1,1427,1702,4.64766,-13.0559
210,-678,5.6532,18.5957,0,0,0,0,0,0,0,-1,1434,1702,5.65318,-18.5958
217,-678,6.88049,23.4835,0,0,0,0,0,0,0,-1,1441,1702,6.88047,-23.4835
224,-678,8.521,32.0977,0,0,0,0,0,0,0,-1,1448,1702,8.52098,-32.0977
231,-678,9.96838,42.3734,0,0,0,0,0,0,0,-1,1455,1702,9.96844,-42.3734
238,-678,11.9628,209.251,0,0,0,0,0,0,0,-1,1462,1702,11.9628,-209.251
245,-678,12.1951,208.488,0,0,0,0,0,0,0,-1,1469,1702,12.1951,-208.488
252,-678,12.2148,207.083,0,0,0,0,0,0,0,-1,1476,1702,12.2149,-207.083
259,-678,12.1539,205.123,0.0208632,-0.00547455,0.00178339,0.0209834,-0.00559476,0.0673031,0.0161795,0.0365721,1483,1702,12.154,-205.123
266,-678,12.0928,203.274,0.0192399,-0.00429405,0.000881866,0.0192729,-0.00432705,0.0374022,0.0145076,0.0225446,1490,1702,12.0927,-203.274
273,-678,11.9866,201.543,0.0173767,-0.00336369,0.000344931,0.0173824,-0.00336943,0.0166248,0.0128594,0.0156284,1497,1702,11.9866,-201.543
280,-678,11.8439,199.733,0.0148994,-0.0030709,0.000165384,0.0149009,-0.00307242,0.00920217,0.0111007,0.0202306,1504,1702,11.8439,-199.733
287,-678,11.729,197.849,0.0126869,-0.00259814,-7.33968e-05,0.0126873,-0.00259849,-0.00480171,0.00944428,0.0259569,1511,1702,11.7291,-197.849
294,-678,11.5066,195.903,0.0107746,-0.00188535,-0.000284601,0.010781,-0.00189174,-0.0224654,0.00789381,0.0246978,1518,1702,11.5066,-195.903
301,-678,11.3003,193.996,0.00902671,-0.0011137,-0.000735531,0.00907979,-0.00116677,-0.0720321,0.00647724,0.0165749,1525,1702,11.3003,-193.996
308,-678,11.073,192.041,0.00736336,-0.000514277,-0.00103813,0.00749787,-0.000648787,-0.128852,0.00522828,0.0171019,1532,1702,11.073,-192.041
315,-678,10.8407,190.039,0.00580134,0.000200469,-0.00132475,0.00609887,-9.70617e-05,-0.220928,0.00409865,0.018777,1539,1702,10.8407,-190.039
322,-678,10.5455,188.097,0.00438737,0.00089584,-0.00171209,0.00508679,0.000196415,-0.38783,0.00332766,0.0219337,1546,1702,10.5456,-188.097
329,-678,10.249,186.056,0.00313368,0.00147322,-0.00219506,0.00465027,-4.3371e-05,-0.604601,0.00311474,0.0207511,1553,1702,10.249,-186.056
336,-678,9.95142,183.943,0.00193841,0.00177211,-0.00261136,0.00446795,-0.000757429,-0.769482,0.00326056,0.0180415,1560,1702,9.95146,-183.943
343,-678,9.67566,181.825,0.000972572,0.00210735,-0.00316597,0.00475637,-0.00167645,-0.874064,0.00385328,0.020516,1567,1702,9.67566,-181.825
350,-678,9.39478,179.711,0.000164499,0.00220177,-0.00372687,0.00504671,-0.00268044,-0.918801,0.00453046,0.02123,1574,1702,9.39483,-179.711
357,-678,9.02148,177.579,-0.00053383,0.00211598,-0.00434659,0.00533511,-0.00375296,-0.933332,0.00527344,0.0153502,1581,1702,9.02147,-177.579
364,-678,8.69702,175.41,-0.00104578,0.00190227,-0.00493487,0.00557855,-0.00472207,-0.930528,0.00595391,0.0161627,1588,1702,8.697,-175.41
371,-678,8.27649,173.214,-0.00120798,0.00184049,-0.00565737,0.00617536,-0.00554286,-0.916986,0.0067688,0.0167624,1595,1702,8.27646,-173.214
378,-678,7.88342,171.051,-0.00128436,0.00178412,-0.006384,0.00681565,-0.00631589,-0.903325,0.00758333,0.0172436,1602,1702,7.88346,-171.051
385,-678,7.53979,168.85,-0.00124859,0.00170571,-0.00725829,0.00763564,-0.00717851,-0.885783,0.00855431,0.0182991,1609,1702,7.53985,-168.85
392,-678,7.19336,166.594,-0.000863455,0.0018826,-0.00829293,0.0089154,-0.00789625,-0.867437,0.00971215,0.0403755,1616,1702,7.19335,-166.594
399,-678,6.85339,164.365,0,0,0,0,0,0,0,-1,1623,1702,6.85344,-164.365
406,-678,6.47864,161.931,0,0,0,0,0,0,0,-1,1630,1702,6.47858,-161.931
413,-678,8.50085,130.524,0,0,0,0,0,0,0,-1,1637,1702,8.50083,-130.524
420,-678,11.8315,90.0081,0,0,0,0,0,0,0,-1,1644,1702,11.8316,-90.008
427,-678,10.0541,38.9548,0,0,0,0,0,0,0,-1,1651,1702,10.0541,-38.9548
434,-678,10.1094,38.722,0,0,0,0,0,0,0,-1,1658,1702,10.1094,-38.7221
441,-678,11.6007,39.4658,0,0,0,0,0,0,0,-1,1665,1702,11.6007,-39.4658
448,-678,11.344,38.9084,0,0,0,0,0,0,0,-1,1672,1702,11.344,-38.9084
455,-678,5.44678,5.54297,0,0,0,0,0,0,0,-1,1679,1702,5.44676,-5.54294
462,-678,3.86792,2.87402,0,0,0,0,0,0,0,-1,1686,1702,3.86796,-2.87406
469,-678,2.26587,1.98755,0,0,0,0,0,0,0,-1,1693,1702,2.26592,-1.98755
476,-678,0,0,0,0,0,0,0,0,0,-1,1700,1702,0,0
483,-678,0,0,0,0,0,0,0,0,0,-1,1707,1702,0,0
490,-678,0,0,0,0,0,0,0,0,0,-1,1714,1702,0,0
497,-678,0,0,0,0,0,0,0,0,0,-1,1721,1702,0,0
504,-678,0,0,0,0,0,0,0,0,0,-1,1728,1702,0,0
511,-678,0,0,0,0,0,0,0,0,0,-1,1735,1702,0,0
518,-678,0,0,0,0,0,0,0,0,0,-1,1742,1702,0,0
525,-678,0,0,0,0,0,0,0,0,0,-1,1749,1702,0,0
532,-678,0,0,0,0,0,0,0,0,0,-1,1756,1702,0,0
539,-678,0,0,0,0,0,0,0,0,0,-1,1763,1702,0,0
546,-678,0,0,0,0,0,0,0,0,0,-1,1770,1702,0,0
553,-678,0,0,0,0,0,0,0,0,0,-1,1777,1702,0,0
560,-678,0,0,0,0,0,0,0,0,0,-1,1784,1702,0,0
567,-678,0,0,0,0,0,0,0,0,0,-1,1791,1702,0,0
574,-678,0,0,0,0,0,0,0,0,0,-1,1798,1702,0,0
581,-678,0,0,0,0,0,0,0,0,0,-1,1805,1702,0,0
588,-678,0,0,0,0,0,0,0,0,0,-1,1812,1702,0,0
595,-678,0,0,0,0,0,0,0,0,0,-1,1819,1702,0,0
602,-678,0,0,0,0,0,0,0,0,0,-1,1826,1702,0,0
609,-678,0,0,0,0,0,0,0,0,0,-1,1833,1702,0,0
616,-678,0,0,0,0,0,0,0,0,0,-1,1840,1702,0,0
623,-678,0,0,0,0,0,0,0,0,0,-1,1847,1702,0,0
630,-678,0,0,0,0,0,0,0,0,0,-1,1854,1702,0,0
637,-678,0,0,0,0,0,0,0,0,0,-1,1861,1702,0,0
644,-678,0,0,0,0,0,0,0,0,0,-1,1868,1702,0,0
651,-678,0,0,0,0,0,0,0,0,0,-1,1875,1702,0,0
658,-678,0,0,0,0,0,0,0,0,0,-1,1882,1702,0,0
665,-678,0,0,0,0,0,0,0,0,0,-1,1889,1702,0,0
672,-678,0,0,0,0,0,0,0,0,0,-1,1896,1702,0,0
679,-678,0,0,0,0,0,0,0,0,0,-1,1903,1702,0,0
686,-678,0,0,0,0,0,0,0,0,0,-1,1910,1702,0,0
693,-678,0,0,0,0,0,0,0,0,0,-1,1917,1702,0,0
700,-678,0,0,0,0,0,0,0,0,0,-1,1924,1702,0,0
707,-678,0,0,0,0,0,0,0,0,0,-1,1931,1702,0,0
714,-678,0,0,0,0,0,0,0,0,0,-1,1938,1702,0,0
721,-678,0,0,0,0,0,0,0,0,0,-1,1945,1702,0,0
728,-678,0,0,0,0,0,0,0,0,0,-1,1952,1702,0,0
735,-678,0,0,0,0,0,0,0,0,0,-1,1959,1702,0,0
742,-678,0,0,0,0,0,0,0,0,0,-1,1966,1702,0,0
749,-678,0,0,0,0,0,0,0,0,0,-1,1973,1702,0,0
756,-678,0,0,0,0,0,0,0,0,0,-1,1980,1702,0,0
763,-678,0,0,0,0,0,0,0,0,0,-1,1987,1702,0,0
770,-678,0,0,0,0,0,0,0,0,0,-1,1994,1702,0,0
777,-678,0,0,0,0,0,0,0,0,0,-1,2001,1702,0,0
784,-678,0,0,0,0,0,0,0,0,0,-1,2008,1702,0,0
791,-678,0,0,0,0,0,0,0,0,0,-1,2015,1702,0,0
798,-678,0,0,0,0,0,0,0,0,0,-1,2022,1702,0,0
805,-678,0,0,0,0,0,0,0,0,0,-1,2029,1702,0,0
812,-678,0,0,0,0,0,0,0,0,0,-1,2036,1702,0,0
-700,-685,0,0,0,0,0,0,0,0,0,-1,524,1709,0,0
-693,-685,0,0,0,0,0,0,0,0,0,-1,531,1709,0,0
-686,-685,0,0,0,0,0,0,0,0,0,-1,538,1709,0,0
-679,-685,0,0,0,0,0,0,0,0,0,-1,545,1709,0,0
-672,-685,0,0,0,0,0,0,0,0,0,-1,552,1709,0,0
-665,-685,0,0,0,0,0,0,0,0,0,-1,559,1709,0,0
-658,-685,0,0,0,0,0,0,0,0,0,-1,566,1709,0,0
-651,-685,0,0,0,0,0,0,0,0,0,-1,573,1709,0,0
-644,-685,0,0,0,0,0,0,0,0,0,-1,580,1709,0,0
-637,-685,0,0,0,0,0,0,0,0,0,-1,587,1709,0,0
-630,-685,0,0,0,0,0,0,0,0,0,-1,594,1709,0,0
-623,-685,0,0,0,0,0,0,0,0,0,-1,601,1709,0,0
-616,-685,0,0,0,0,0,0,0,0,0,-1,608,1709,0,0
-609,-685,0,0,0,0,0,0,0,0,0,-1,615,1709,0,0
-602,-685,0,0,0,0,0,0,0,0,0,-1,622,1709,0,0
-595,-685,0,0,0,0,0,0,0,0,0,-1,629,1709,0,0
-588,-685,0,0,0,0,0,0,0,0,0,-1,636,1709,0,0
-581,-685,0,0,0,0,0,0,0,0,0,-1,643,1709,0,0
-574,-685,0,0,0,0,0,0,0,0,0,-1,650,1709,0,0
-567,-685,0,0,0,0,0,0,0,0,0,-1,657,1709,0,0
-560,-685,0,0,0,0,0,0,0,0,0,-1,664,1709,0,0
-553,-685,0,0,0,0,0,0,0,0,0,-1,671,1709,0,0
-546,-685,0,0,0,0,0,0,0,0,0,-1,678,1709,0,0
-539,-685,0,0,0,0,0,0,0,0,0,-1,685,1709,0,0
-532,-685,0,0,0,0,0,0,0,0,0,-1,692,1709,0,0
-525,-685,0,0,0,0,0,0,0,0,0,-1,699,1709,0,0
-518,-685,0,0,0,0,0,0,0,0,0,-1,706,1709,0,0
-511,-685,0,0,0,0,0,0,0,0,0,-1,713,1709,0,0
-504,-685,0,0,0,0,0,0,0,0,0,-1,720,1709,0,0
-497,-685,0,0,0,0,0,0,0,0,0,-1,727,1709,0,0
-490,-685,0,0,0,0,0,0,0,0,0,-1,734,1709,0,0
-483,-685,0,0,0,0,0,0,0,0,0,-1,741,1709,0,0
-476,-685,0,0,0,0,0,0,0,0,0,-1,748,1709,0,0
-469,-685,0,0,0,0,0,0,0,0,0,-1,755,1709,0,0
-462,-685,0,0,0,0,0,0,0,0,0,-1,762,1709,0,0
-455,-685,0,0,0,0,0,0,0,0,0,-1,769,1709,0,0
-448,-685,0,0,0,0,0,0,0,0,0,-1,776,1709,0,0
-441,-685,0,0,0,0,0,0,0,0,0,-1,783,1709,0,0
-434,-685,0,0,0,0,0,0,0,0,0,-1,790,1709,0,0
-427,-685,0,0,0,0,0,0,0,0,0,-1,797,1709,0,0
-420,-685,0,0,0,0,0,0,0,0,0,-1,804,1709,0,0
-413,-685,0,0,0,0,0,0,0,0,0,-1,811,1709,0,0
-406,-685,0,0,0,0,0,0,0,0,0,-1,818,1709,0,0
-399,-685,0,0,0,0,0,0,0,0,0,-1,825,1709,0,0
-392,-685,0,0,0,0,0,0,0,0,0,-1,832,1709,0,0
-385,-685,0,0,0,0,0,0,0,0,0,-1,839,1709,0,0
-378,-685,0,0,0,0,0,0,0,0,0,-1,846,1709,0,0
-371,-685,0,0,0,0,0,0,0,0,0,-1,853,1709,0,0
-364,-685,0,0,0,0,0,0,0,0,0,-1,860,1709,0,0
-357,-685,0,0,0,0,0,0,0,0,0,-1,867,1709,0,0
-350,-685,0,0,0,0,0,0,0,0,0,-1,874,1709,0,0
-343,-685,-5.98505,6.56335,0,0,0,0,0,0,0,-1,881,1709,-5.98505,-6.56329
-336,-685,-6.51312,5.10571,0,0,0,0,0,0,0,-1,888,1709,-6.51311,-5.10575
-329,-685,9.98907,36.2474,0,0,0,0,0,0,0,-1,895,1709,9.98909,-36.2475
-322,-685,3.83191,16.7219,0,0,0,0,0,0,0,-1,902,1709,3.8319,-16.7219
-315,-685,5.15784,21.4388,0,0,0,0,0,0,0,-1,909,1709,5.15783,-21.4389
-308,-685,6.64496,56.2472,0,0,0,0,0,0,0,-1,916,1709,6.64498,-56.2472
-301,-685,4.73218,57.2266,0,0,0,0,0,0,0,-1,923,1709,4.73221,-57.2266
-294,-685,4.73169,57.9741,0,0,0,0,0,0,0,-1,930,1709,4.7317,-57.9741
-287,-685,4.45001,58.1342,0,0,0,0,0,0,0,-1,937,1709,4.45004,-58.1341
-280,-685,5.01813,109.848,0,0,0,0,0,0,0,-1,944,1709,5.01814,-109.848
-273,-685,3.51721,109.913,0,0,0,0,0,0,0,-1,951,1709,3.51719,-109.913
-266,-685,4.68628,111.404,0,0,0,0,0,0,0,-1,958,1709,4.68625,-111.404
-259,-685,1.30096,166.856,0,0,0,0,0,0,0,-1,965,1709,1.30096,-166.856
-252,-685,0.719971,169.151,0,0,0,0,0,0,0,-1,972,1709,0.719997,-169.151
-245,-685,0.178162,171.414,0,0,0,0,0,0,0,-1,979,1709,0.178173,-171.414
-238,-685,-0.208252,173.554,-0.00381309,0.00661616,0.007827,0.0108065,-0.00800347,1.07925,0.0109001,0.0438531,986,1709,-0.208241,-173.554
-231,-685,-0.699158,175.807,-0.00266753,0.00653875,0.00747396,0.0107134,-0.00684214,1.06141,0.0102175,0.0231118,993,1709,-0.699128,-175.807
-224,-685,-1.09045,177.929,-0.00163413,0.00636094,0.00699922,0.0104238,-0.00569695,1.04486,0.00943972,0.0197299,1000,1709,-1.09048,-177.929
-217,-685,-1.43036,180.114,-0.000741638,0.00607646,0.00641435,0.0099314,-0.00459658,1.02965,0.00857417,0.0148523,1007,1709,-1.43037,-180.114
-210,-685,-1.72412,182.295,-5.86035e-05,0.00557475,0.0057132,0.00912787,-0.00361172,1.01442,0.00758155,0.024467,1014,1709,-1.7241,-182.295
-203,-685,-2.05829,184.378,0.000558001,0.00487891,0.00505981,0.00822021,-0.00278329,0.987173,0.00660632,0.0295552,1021,1709,-2.05828,-184.378
-196,-685,-2.41638,186.476,0.00130694,0.00423573,0.00436282,0.00737336,-0.00183069,0.947317,0.00562598,0.0204648,1028,1709,-2.41643,-186.476
-189,-685,-2.77771,188.505,0.00216775,0.00318353,0.00356674,0.00627836,-0.000927083,0.856121,0.00452636,0.0137916,1035,1709,-2.77769,-188.505
-182,-685,-3.0592,190.548,0.0031754,0.00203996,0.00277499,0.00544015,-0.000224787,0.684498,0.00370397,0.0206903,1042,1709,-3.05924,-190.548
-175,-685,-3.3114,192.537,0.00431188,0.000965459,0.00200463,0.00524983,2.75071e-05,0.437634,0.00349076,0.0194996,1049,1709,-3.31145,-192.537
-168,-685,-3.56555,194.434,0.00552373,-9.32529e-05,0.00126287,0.0057946,-0.000364123,0.211286,0.00398998,0.0147903,1056,1709,-3.56561,-194.434
-161,-685,-3.79614,196.338,0.00682193,-0.00124789,0.000504424,0.00685334,-0.0012793,0.0621849,0.00504964,0.0143161,1063,1709,-3.79611,-196.338
-154,-685,-4.01196,198.282,0.00838869,-0.00211532,-0.000154567,0.00839096,-0.0021176,-0.0147108,0.00641738,0.0135864,1070,1709,-4.01195,-198.282
-147,-685,-4.22449,200.199,0.010257,-0.00294995,-0.00092787,0.0103219,-0.00301482,-0.0697991,0.00807601,0.0142683,1077,1709,-4.22448,-200.199
-140,-685,-4.35632,201.982,0.0121687,-0.00369384,-0.00178274,0.0123666,-0.00389173,-0.11055,0.0098026,0.0178972,1084,1709,-4.35636,-201.982
-133,-685,-4.46838,203.767,0.0138577,-0.00435085,-0.00270247,0.0142503,-0.00474348,-0.144276,0.0114148,0.0170241,1091,1709,-4.46833,-203.767
-126,-685,-4.58728,205.529,0.0157593,-0.00502543,-0.00371808,0.0164044,-0.00567051,-0.17179,0.0132376,0.0137961,1098,1709,-4.58732,-205.529
-119,-685,-4.69995,207.208,0.0179514,-0.00538823,-0.00448052,0.018782,-0.00621879,-0.183293,0.0150294,0.0203483,1105,1709,-4.69995,-207.208
-112,-685,-4.79883,208.862,0.020102,-0.0059223,-0.0053128,0.0211448,-0.00696512,-0.193819,0.0169035,0.021055,1112,1709,-4.7988,-208.862
-105,-685,-4.88342,210.553,0.0219934,-0.00693734,-0.00629037,0.023302,-0.00824586,-0.205095,0.0188929,0.0241931,1119,1709,-4.8834,-210.553
-98,-685,-4.87927,211.964,0,0,0,0,0,0,0,-1,1126,1709,-4.87926,-211.964
-91,-685,-4.71106,213.307,0,0,0,0,0,0,0,-1,1133,1709,-4.71111,-213.307
-84,-685,-4.58948,213.873,0,0,0,0,0,0,0,-1,1140,1709,-4.58952,-213.873
-77,-685,-4.74939,216.578,0,0,0,0,0,0,0,-1,1147,1709,-4.74941,-216.578
-70,-685,-4.43542,218.274,0,0,0,0,0,0,0,-1,1154,1709,-4.43545,-218.274
-63,-685,6.03015,29.7728,0,0,0,0,0,0,0,-1,1161,1709,6.0302,-29.7728
-56,-685,3.93909,15.8704,0,0,0,0,0,0,0,-1,1168,1709,3.93905,-15.8704
-49,-685,3.07471,9.86011,0,0,0,0,0,0,0,-1,1175,1709,3.07467,-9.86009
-42,-685,2.70618,7.54504,0,0,0,0,0,0,0,-1,1182,1709,2.7062,-7.54504
-35,-685,2.95264,7.91516,0,0,0,0,0,0,0,-1,1189,1709,2.95262,-7.91517
-28,-685,8.11353,52.4509,0,0,0,0,0,0,0,-1,1196,1709,8.1135,-52.451
-21,-685,-1.98828,225.072,0,0,0,0,0,0,0,-1,1203,1709,-1.98825,-225.072
-14,-685,-1.94055,225.442,0,0,0,0,0,0,0,-1,1210,1709,-1.94056,-225.441
-7,-685,-1.65625,224.8,0,0,0,0,0,0,0,-1,1217,1709,-1.65629,-224.8
0,-685,-1.53638,226.567,0,0,0,0,0,0,0,-1,1224,1709,-1.53637,-226.567
7,-685,20.8312,228.15,0,0,0,0,0,0,0,-1,1231,1709,20.8312,-228.15
14,-685,3.60974,181.815,0,0,0,0,0,0,0,-1,1238,1709,3.6097,-181.815
21,-685,3.7085,182.172,0,0,0,0,0,0,0,-1,1245,1709,3.70848,-182.172
28,-685,3.16797,186.33,0,0,0,0,0,0,0,-1,1252,1709,3.16803,-186.33
35,-685,7.5907,211.012,0,0,0,0,0,0,0,-1,1259,1709,7.59068,-211.012
42,-685,8.61926,228.594,0,0,0,0,0,0,0,-1,1266,1709,8.6193,-228.594
49,-685,8.16577,228.583,0,0,0,0,0,0,0,-1,1273,1709,8.16578,-228.583
56,-685,7.92346,228.452,0,0,0,0,0,0,0,-1,1280,1709,7.92352,-228.452
63,-685,7.54651,227.724,0,0,0,0,0,0,0,-1,1287,1709,7.54655,-227.724
70,-685,5.24023,221.937,0,0,0,0,0,0,0,-1,1294,1709,5.2402,-221.937
77,-685,7.09863,227.102,0,0,0,0,0,0,0,-1,1301,1709,7.0986,-227.102
84,-685,6.31848,226.699,0,0,0,0,0,0,0,-1,1308,1709,6.31846,-226.699
91,-685,4.48596,228.264,0,0,0,0,0,0,0,-1,1315,1709,4.48598,-228.264
98,-685,4.30872,228.442,0,0,0,0,0,0,0,-1,1322,1709,4.3087,-228.442
105,-685,4.13147,228.621,0,0,0,0,0,0,0,-1,1329,1709,4.13142,-228.621
112,-685,3.45032,224.955,0,0,0,0,0,0,0,-1,1336,1709,3.45027,-224.955
119,-685,3.05945,224.316,0,0,0,0,0,0,0,-1,1343,1709,3.05947,-224.316
126,-685,2.26733,223.9,0,0,0,0,0,0,0,-1,1350,1709,2.26731,-223.9
133,-685,2.94568,209.336,0,0,0,0,0,0,0,-1,1357,1709,2.94563,-209.336
140,-685,3.16809,208.588,0,0,0,0,0,0,0,-1,1364,1709,3.16811,-208.588
147,-685,3.18018,208.159,0,0,0,0,0,0,0,-1,1371,1709,3.18021,-208.159
154,-685,10.0796,56.0078,0,0,0,0,0,0,0,-1,1378,1709,10.0796,-56.0079
161,-685,10.4932,55.8827,0,0,0,0,0,0,0,-1,1385,1709,10.4932,-55.8827
168,-685,4.37524,10.8778,0,0,0,0,0,0,0,-1,1392,1709,4.37525,-10.8778
175,-685,3.97522,8.94324,0,0,0,0,0,0,0,-1,1399,1709,3.97519,-8.94328
182,-685,3.98218,9.19739,0,0,0,0,0,0,0,-1,1406,1709,3.98221,-9.1974
189,-685,4.53479,15.2343,0,0,0,0,0,0,0,-1,1413,1709,4.53474,-15.2343
196,-685,9.96204,198.586,0,0,0,0,0,0,0,-1,1420,1709,9.96199,-198.586
203,-685,10.2123,197.143,0,0,0,0,0,0,0,-1,1427,1709,10.2123,-197.143
210,-685,10.6843,216.014,0,0,0,0,0,0,0,-1,1434,1709,10.6844,-216.014
217,-685,10.459,214.542,0,0,0,0,0,0,0,-1,1441,1709,10.459,-214.542
224,-685,10.3484,213.282,0,0,0,0,0,0,0,-1,1448,1709,10.3484,-213.282
231,-685,10.4415,211.881,0,0,0,0,0,0,0,-1,1455,1709,10.4416,-211.881
238,-685,10.5944,210.146,0,0,0,0,0,0,0,-1,1462,1709,10.5943,-210.146
245,-685,10.5326,208.645,0.0189907,-0.00510656,0.00247512,0.0192423,-0.00535817,0.101304,0.0149381,0.0382974,1469,1709,10.5326,-208.645
252,-685,10.4647,207.147,0.0174865,-0.00417979,0.00161611,0.0176064,-0.00429968,0.0740449,0.0134027,0.0266366,1476,1709,10.4647,-207.147
259,-685,10.4139,205.374,0.01585,-0.00348966,0.000842684,0.0158866,-0.00352631,0.0434631,0.0119414,0.0182605,1483,1709,10.414,-205.374
266,-685,10.3265,203.577,0.0142515,-0.00261232,6.2482e-05,0.0142517,-0.00261255,0.00370503,0.0104811,0.0192802,1490,1709,10.3266,-203.577
273,-685,10.1837,201.786,0.0125117,-0.00189776,-0.000460132,0.0125264,-0.00191244,-0.0318893,0.00905595,0.0202243,1497,1709,10.1837,-201.786
280,-685,9.98621,199.955,0.0104784,-0.00153524,-0.000772724,0.0105279,-0.00158474,-0.0639693,0.00760209,0.021887,1504,1709,9.98619,-199.955
287,-685,9.8053,198.117,0.00860755,-0.00107949,-0.00108491,0.00872757,-0.00119951,-0.110178,0.00625666,0.0174883,1511,1709,9.80526,-198.117
294,-685,9.5946,196.245,0.00692544,-0.000523468,-0.00137323,0.00717053,-0.000768562,-0.17662,0.00505605,0.01524,1518,1709,9.59456,-196.245
301,-685,9.38647,194.3,0.00538181,0.000144429,-0.00180876,0.00594575,-0.000419516,-0.302233,0.00411082,0.0165644,1525,1709,9.38649,-194.3
308,-685,9.16711,192.329,0.00396287,0.000711251,-0.00217672,0.00505393,-0.000379802,-0.464638,0.00350276,0.0173609,1532,1709,9.16708,-192.329
315,-685,8.89771,190.332,0.00264719,0.0012815,-0.00252761,0.00458257,-0.000653871,-0.65347,0.0032947,0.0157099,1539,1709,8.89769,-190.332
322,-685,8.52771,188.318,0.00141639,0.00186943,-0.00294162,0.00459324,-0.00130742,-0.823825,0.00357849,0.0264199,1546,1709,8.52768,-188.318
329,-685,8.25659,186.312,0.000327335,0.00242585,-0.00347609,0.00500758,-0.0022544,-0.931974,0.00429198,0.0232832,1553,1709,8.25664,-186.312
336,-685,7.94958,184.234,-0.000712464,0.00272162,-0.00395947,0.00532032,-0.00331117,-0.989987,0.00502819,0.0162554,1560,1709,7.94961,-184.234
343,-685,7.57837,182.142,-0.00151698,0.00301618,-0.00457974,0.00585953,-0.00436033,-1.01518,0.00592157,0.0156293,1567,1709,7.57837,-182.142
350,-685,7.24463,180.026,-0.00217206,0.0030861,-0.00518778,0.00627296,-0.00535892,-1.01993,0.00672258,0.0160913,1574,1709,7.24462,-180.025
357,-685,6.9248,177.909,-0.00267702,0.00303578,-0.00587084,0.00670822,-0.00634946,-1.01181,0.0075398,0.0140805,1581,1709,6.92484,-177.909
364,-685,6.57849,175.756,-0.00298389,0.00286241,-0.00654924,0.00711125,-0.00723273,-0.995299,0.0082816,0.0145242,1588,1709,6.5785,-175.756
371,-685,6.17554,173.519,-0.00287405,0.00292132,-0.00739391,0.00796507,-0.00791781,-0.972151,0.00916999,0.0245433,1595,1709,6.17554,-173.519
378,-685,5.83923,171.255,-0.00269897,0.00297709,-0.00824374,0.00885765,-0.00857953,-0.951176,0.0100678,0.0335027,1602,1709,5.83929,-171.255
385,-685,5.53113,168.971,0,0,0,0,0,0,0,-1,1609,1709,5.53113,-168.971
392,-685,5.15356,166.748,0,0,0,0,0,0,0,-1,1616,1709,5.1535,-166.748
399,-685,10.0272,109.278,0,0,0,0,0,0,0,-1,1623,1709,10.0272,-109.278
406,-685,9.95215,102.469,0,0,0,0,0,0,0,-1,1630,1709,9.95218,-102.469
413,-685,10.7178,91.3489,0,0,0,0,0,0,0,-1,1637,1709,10.7178,-91.3488
420,-685,10.3047,40.3569,0,0,0,0,0,0,0,-1,1644,1709,10.3047,-40.3569
427,-685,10.7286,38.6702,0,0,0,0,0,0,0,-1,1651,1709,10.7286,-38.6702
434,-685,4.87769,8.91418,0,0,0,0,0,0,0,-1,1658,1709,4.87768,-8.91413
441,-685,5.62,8.75549,0,0,0,0,0,0,0,-1,1665,1709,5.61996,-8.75545
448,-685,6.4043,8.58972,0,0,0,0,0,0,0,-1,1672,1709,6.40435,-8.58971
455,-685,2.31958,4.09802,0,0,0,0,0,0,0,-1,1679,1709,2.31957,-4.09803
462,-685,0,0,0,0,0,0,0,0,0,-1,1686,1709,0,0
469,-685,0,0,0,0,0,0,0,0,0,-1,1693,1709,0,0
476,-685,0,0,0,0,0,0,0,0,0,-1,1700,1709,0,0
483,-685,0,0,0,0,0,0,0,0,0,-1,1707,1709,0,0
490,-685,0,0,0,0,0,0,0,0,0,-1,1714,1709,0,0
497,-685,0,0,0,0,0,0,0,0,0,-1,1721,1709,0,0
504,-685,0,0,0,0,0,0,0,0,0,-1,1728,1709,0,0
511,-685,0,0,0,0,0,0,0,0,0,-1,1735,1709,0,0
518,-685,0,0,0,0,0,0,0,0,0,-1,1742,1709,0,0
525,-685,0,0,0,0,0,0,0,0,0,-1,1749,1709,0,0
532,-685,0,0,0,0,0,0,0,0,0,-1,1756,1709,0,0
539,-685,0,0,0,0,0,0,0,0,0,-1,1763,1709,0,0
546,-685,0,0,0,0,0,0,0,0,0,-1,1770,1709,0,0
553,-685,0,0,0,0,0,0,0,0,0,-1,1777,1709,0,0
560,-685,0,0,0,0,0,0,0,0,0,-1,1784,1709,0,0
567,-685,0,0,0,0,0,0,0,0,0,-1,1791,1709,0,0
574,-685,0,0,0,0,0,0,0,0,0,-1,1798,1709,0,0
581,-685,0,0,0,0,0,0,0,0,0,-1,1805,1709,0,0
588,-685,0,0,0,0,0,0,0,0,0,-1,1812,1709,0,0
595,-685,0,0,0,0,0,0,0,0,0,-1,1819,1709,0,0
602,-685,0,0,0,0,0,0,0,0,0,-1,1826,1709,0,0
609,-685,0,0,0,0,0,0,0,0,0,-1,1833,1709,0,0
616,-685,0,0,0,0,0,0,0,0,0,-1,1840,1709,0,0
623,-685,0,0,0,0,0,0,0,0,0,-1,1847,1709,0,0
630,-685,0,0,0,0,0,0,0,0,0,-1,1854,1709,0,0
637,-685,0,0,0,0,0,0,0,0,0,-1,1861,1709,0,0
644,-685,0,0,0,0,0,0,0,0,0,-1,1868,1709,0,0
651,-685,0,0,0,0,0,0,0,0,0,-1,1875,1709,0,0
658,-685,0,0,0,0,0,0,0,0,0,-1,1882,1709,0,0
665,-685,0,0,0,0,0,0,0,0,0,-1,1889,1709,0,0
672,-685,0,0,0,0,0,0,0,0,0,-1,1896,1709,0,0
679,-685,0,0,0,0,0,0,0,0,0,-1,1903,1709,0,0
686,-685,0,0,0,0,0,0,0,0,0,-1,1910,1709,0,0
693,-685,0,0,0,0,0,0,0,0,0,-1,1917,1709,0,0
700,-685,0,0,0,0,0,0,0,0,0,-1,1924,1709,0,0
707,-685,0,0,0,0,0,0,0,0,0,-1,1931,1709,0,0
714,-685,0,0,0,0,0,0,0,0,0,-1,1938,1709,0,0
721,-685,0,0,0,0,0,0,0,0,0,-1,1945,1709,0,0
728,-685,0,0,0,0,0,0,0,0,0,-1,1952,1709,0,0
735,-685,0,0,0,0,0,0,0,0,0,-1,1959,1709,0,0
742,-685,0,0,0,0,0,0,0,0,0,-1,1966,1709,0,0
749,-685,0,0,0,0,0,0,0,0,0,-1,1973,1709,0,0
756,-685,0,0,0,0,0,0,0,0,0,-1,1980,1709,0,0
763,-685,0,0,0,0,0,0,0,0,0,-1,1987,1709,0,0
770,-685,0,0,0,0,0,0,0,0,0,-1,1994,1709,0,0
777,-685,0,0,0,0,0,0,0,0,0,-1,2001,1709,0,0
784,-685,0,0,0,0,0,0,0,0,0,-1,2008,1709,0,0
791,-685,0,0,0,0,0,0,0,0,0,-1,2015,1709,0,0
798,-685,0,0,0,0,0,0,0,0,0,-1,2022,1709,0,0
805,-685,0,0,0,0,0,0,0,0,0,-1,2029,1709,0,0
812,-685,0,0,0,0,0,0,0,0,0,-1,2036,1709,0,0
-700,-692,0,0,0,0,0,0,0,0,0,-1,524,1716,0,0
-693,-692,0,0,0,0,0,0,0,0,0,-1,531,1716,0,0
-686,-692,0,0,0,0,0,0,0,0,0,-1,538,1716,0,0
-679,-692,0,0,0,0,0,0,0,0,0,-1,545,1716,0,0
-672,-692,0,0,0,0,0,0,0,0,0,-1,552,1716,0,0
-665,-692,0,0,0,0,0,0,0,0,0,-1,559,1716,0,0
-658,-692,0,0,0,0,0,0,0,0,0,-1,566,1716,0,0
-651,-692,0,0,0,0,0,0,0,0,0,-1,573,1716,0,0
-644,-692,0,0,0,0,0,0,0,0,0,-1,580,1716,0,0
-637,-692,0,0,0,0,0,0,0,0,0,-1,587,1716,0,0
-630,-692,0,0,0,0,0,0,0,0,0,-1,594,1716,0,0
-623,-692,0,0,0,0,0,0,0,0,0,-1,601,1716,0,0
-616,-692,0,0,0,0,0,0,0,0,0,-1,608,1716,0,0
-609,-692,0,0,0,0,0,0,0,0,0,-1,615,1716,0,0
-602,-692,0,0,0,0,0,0,0,0,0,-1,622,1716,0,0
-595,-692,0,0,0,0,0,0,0,0,0,-1,629,1716,0,0
-588,-692,0,0,0,0,0,0,0,0,0,-1,636,1716,0,0
-581,-692,0,0,0,0,0,0,0,0,0,-1,643,1716,0,0
-574,-692,0,0,0,0,0,0,0,0,0,-1,650,1716,0,0
-567,-692,0,0,0,0,0,0,0,0,0,-1,657,1716,0,0
-560,-692,0,0,0,0,0,0,0,0,0,-1,664,1716,0,0
-553,-692,0,0,0,0,0,0,0,0,0,-1,671,1716,0,0
-546,-692,0,0,0,0,0,0,0,0,0,-1,678,1716,0,0
-539,-692,0,0,0,0,0,0,0,0,0,-1,685,1716,0,0
-532,-692,0,0,0,0,0,0,0,0,0,-1,692,1716,0,0
-525,-692,0,0,0,0,0,0,0,0,0,-1,699,1716,0,0
-518,-692,0,0,0,0,0,0,0,0,0,-1,706,1716,0,0
-511,-692,0,0,0,0,0,0,0,0,0,-1,713,1716,0,0
-504,-692,0,0,0,0,0,0,0,0,0,-1,720,1716,0,0
-497,-692,0,0,0,0,0,0,0,0,0,-1,727,1716,0,0
-490,-692,0,0,0,0,0,0,0,0,0,-1,734,1716,0,0
-483,-692,0,0,0,0,0,0,0,0,0,-1,741,1716,0,0
-476,-692,0,0,0,0,0,0,0,0,0,-1,748,1716,0,0
-469,-692,0,0,0,0,0,0,0,0,0,-1,755,1716,0,0
-462,-692,0,0,0,0,0,0,0,0,0,-1,762,1716,0,0
-455,-692,0,0,0,0,0,0,0,0,0,-1,769,1716,0,0
-448,-692,0,0,0,0,0,0,0,0,0,-1,776,1716,0,0
-441,-692,0,0,0,0,0,0,0,0,0,-1,783,1716,0,0
-434,-692,0,0,0,0,0,0,0,0,0,-1,790,1716,0,0
-427,-692,0,0,0,0,0,0,0,0,0,-1,797,1716,0,0
-420,-692,0,0,0,0,0,0,0,0,0,-1,804,1716,0,0
-413,-692,0,0,0,0,0,0,0,0,0,-1,811,1716,0,0
-406,-692,0,0,0,0,0,0,0,0,0,-1,818,1716,0,0
-399,-692,0,0,0,0,0,0,0,0,0,-1,825,1716,0,0
-392,-692,0,0,0,0,0,0,0,0,0,-1,832,1716,0,0
-385,-692,0,0,0,0,0,0,0,0,0,-1,839,1716,0,0
-378,-692,0,0,0,0,0,0,0,0,0,-1,846,1716,0,0
-371,-692,0,0,0,0,0,0,0,0,0,-1,853,1716,0,0
-364,-692,0,0,0,0,0,0,0,0,0,-1,860,1716,0,0
-357,-692,0,0,0,0,0,0,0,0,0,-1,867,1716,0,0
-350,-692,0,0,0,0,0,0,0,0,0,-1,874,1716,0,0
-343,-692,0,0,0,0,0,0,0,0,0,-1,881,1716,0,0
-336,-692,0,0,0,0,0,0,0,0,0,-1,888,1716,0,0
-329,-692,3.03107,4.10266,0,0,0,0,0,0,0,-1,895,1716,3.03105,-4.10267
-322,-692,4.43713,18.5242,0,0,0,0,0,0,0,-1,902,1716,4.43711,-18.5241
-315,-692,5.38965,17.975,0,0,0,0,0,0,0,-1,909,1716,5.38963,-17.975
-308,-692,5.86938,17.4392,0,0,0,0,0,0,0,-1,916,1716,5.86937,-17.4392
-301,-692,12.015,41.2892,0,0,0,0,0,0,0,-1,923,1716,12.015,-41.2892
-294,-692,7.742,56.2694,0,0,0,0,0,0,0,-1,930,1716,7.74201,-56.2694
-287,-692,7.85974,56.4567,0,0,0,0,0,0,0,-1,937,1716,7.85974,-56.4566
-280,-692,7.31812,56.6891,0,0,0,0,0,0,0,-1,944,1716,7.3181,-56.689
-273,-692,9.02203,54.5182,0,0,0,0,0,0,0,-1,951,1716,9.02205,-54.5182
-266,-692,7.52716,51.7593,0,0,0,0,0,0,0,-1,958,1716,7.52717,-51.7593
-259,-692,7.95398,56.1954,0,0,0,0,0,0,0,-1,965,1716,7.954,-56.1954
-252,-692,7.40607,71.83,0,0,0,0,0,0,0,-1,972,1716,7.40609,-71.8299
-245,-692,2.81268,159.774,0,0,0,0,0,0,0,-1,979,1716,2.81271,-159.774
-238,-692,2.20953,173.842,0,0,0,0,0,0,0,-1,986,1716,2.20956,-173.842
-231,-692,1.43158,176.237,0,0,0,0,0,0,0,-1,993,1716,1.43156,-176.237
-224,-692,0.87915,178.257,-0.00288809,0.00959079,0.00942592,0.0146553,-0.00795256,1.07776,0.0132425,0.027165,1000,1716,0.87916,-178.257
-217,-692,0.602295,180.378,-0.00216912,0.00924911,0.00877722,0.0140106,-0.0069306,1.07374,0.0123186,0.0173963,1007,1716,0.602303,-180.378
-210,-692,0.324341,182.552,-0.00178294,0.00856863,0.00798217,0.0129062,-0.0061205,1.07303,0.0112155,0.0231,1014,1716,0.324363,-182.552
-203,-692,-0.015686,184.688,-0.0015322,0.00763448,0.00720949,0.0115942,-0.00549191,1.06854,0.0100722,0.0286708,1021,1716,-0.0156773,-184.688
-196,-692,-0.413086,186.793,-0.00112034,0.00686809,0.0064513,0.0104616,-0.00471381,1.06258,0.00896854,0.0260605,1028,1716,-0.413123,-186.794
-189,-692,-0.787354,188.77,-0.000617765,0.00558006,0.00559368,0.00887587,-0.00391358,1.03835,0.00756699,0.0133655,1035,1716,-0.787399,-188.77
-182,-692,-1.09106,190.818,5.91792e-05,0.0042003,0.00473789,0.00730032,-0.00304083,0.991403,0.00613697,0.0210562,1042,1716,-1.09106,-190.818
-175,-692,-1.39624,192.846,0.00086143,0.00288762,0.00391006,0.0059137,-0.00216465,0.91216,0.00482855,0.0222788,1049,1716,-1.3962,-192.846
-168,-692,-1.66479,194.749,0.00171366,0.00168294,0.00313146,0.0048298,-0.0014332,0.782945,0.00378905,0.0167087,1056,1716,-1.6648,-194.749
-161,-692,-1.90662,196.657,0.00256122,0.000280136,0.00229154,0.00398036,-0.00113901,0.554488,0.00310371,0.0178833,1063,1716,-1.90661,-196.657
-154,-692,-2.14636,198.57,0.00382159,-0.000843207,0.00157942,0.00430604,-0.00132766,0.297618,0.00340076,0.019426,1070,1716,-2.14641,-198.57
-147,-692,-2.34399,200.481,0.00550803,-0.00180562,0.000848289,0.00560513,-0.00190273,0.113971,0.00450693,0.022261,1077,1716,-2.34399,-200.481
-140,-692,-2.51013,202.268,0.00730643,-0.00262049,5.06244e-05,0.00730669,-0.00262075,0.00509953,0.00594063,0.0171802,1084,1716,-2.51011,-202.268
-133,-692,-2.69421,203.997,0.00890137,-0.00319259,-0.000779485,0.0089514,-0.00324262,-0.064099,0.00729286,0.0148061,1091,1716,-2.69419,-203.997
-126,-692,-2.81433,205.734,0.0106167,-0.00371131,-0.00169608,0.0108147,-0.00390935,-0.116235,0.00880707,0.0116498,1098,1716,-2.81436,-205.734
-119,-692,-3.05481,207.433,0.0125757,-0.00404173,-0.00242971,0.0129237,-0.00438971,-0.142248,0.0103928,0.0170368,1105,1716,-3.05485,-207.433
-112,-692,-3.14294,209.07,0.0145232,-0.00451347,-0.00320505,0.0150483,-0.0050386,-0.1624,0.0120676,0.016962,1112,1716,-3.14294,-209.07
-105,-692,-3.30762,210.706,0.0163141,-0.00530436,-0.00410463,0.0170672,-0.00605746,-0.181457,0.0138462,0.0274676,1119,1716,-3.30763,-210.706
-98,-692,-3.34778,212.204,0.0180663,-0.00618774,-0.00516022,0.0191185,-0.00723997,-0.201153,0.0157248,0.0372422,1126,1716,-3.34776,-212.204
-91,-692,-3.30811,213.68,0.020476,-0.00684547,-0.00619243,0.021814,-0.00818347,-0.212798,0.0179051,0.0350181,1133,1716,-3.30809,-213.68
-84,-692,-3.1759,215.181,0,0,0,0,0,0,0,-1,1140,1716,-3.17592,-215.181
-77,-692,-3.17554,216.625,0.0261662,-0.00855544,-0.00786326,0.0278639,-0.0102532,-0.212644,0.0227764,0.0280704,1147,1716,-3.17549,-216.625
-70,-692,-3.06555,218.039,0.0285974,-0.0104315,-0.00809158,0.0302085,-0.0120426,-0.196534,0.025134,0.0492212,1154,1716,-3.0656,-218.039
-63,-692,-2.84448,219.173,0,0,0,0,0,0,0,-1,1161,1716,-2.84447,-219.173
-56,-692,-2.89343,220.382,0,0,0,0,0,0,0,-1,1168,1716,-2.89348,-220.382
-49,-692,-2.93481,221.64,0,0,0,0,0,0,0,-1,1175,1716,-2.93479,-221.64
-42,-692,-2.89807,222.779,0,0,0,0,0,0,0,-1,1182,1716,-2.89807,-222.779
-35,-692,-2.40649,223.882,0,0,0,0,0,0,0,-1,1189,1716,-2.40648,-223.882
-28,-692,-1.66089,224.815,0,0,0,0,0,0,0,-1,1196,1716,-1.66085,-224.815
-21,-692,-1.42212,225.432,0.0449748,-0.0269087,-0.00437527,0.0452402,-0.027174,-0.060568,0.0422398,0.0466634,1203,1716,-1.42218,-225.432
-14,-692,-1.23816,226.085,0.0471333,-0.0299071,-0.00354792,0.0472963,-0.0300702,-0.0459232,0.0450351,0.0435549,1210,1716,-1.23814,-226.085
-7,-692,-1.15674,226.709,0,0,0,0,0,0,0,-1,1217,1716,-1.15673,-226.709
0,-692,-0.804565,227.348,0,0,0,0,0,0,0,-1,1224,1716,-0.804597,-227.348
7,-692,-0.452515,227.987,0,0,0,0,0,0,0,-1,1231,1716,-0.452459,-227.987
14,-692,0.163208,228.798,0,0,0,0,0,0,0,-1,1238,1716,0.163235,-228.798
21,-692,0.49585,229.223,0,0,0,0,0,0,0,-1,1245,1716,0.495901,-229.223
28,-692,0.852173,229.53,0,0,0,0,0,0,0,-1,1252,1716,0.852191,-229.53
35,-692,1.26392,230.01,0,0,0,0,0,0,0,-1,1259,1716,1.26396,-230.01
42,-692,1.65442,228.581,0,0,0,0,0,0,0,-1,1266,1716,1.65445,-228.581
49,-692,2.01526,228.662,0,0,0,0,0,0,0,-1,1273,1716,2.01528,-228.662
56,-692,2.62195,230.482,0,0,0,0,0,0,0,-1,1280,1716,2.62195,-230.482
63,-692,2.96033,230.441,0,0,0,0,0,0,0,-1,1287,1716,2.96029,-230.441
70,-692,3.12805,230.295,0,0,0,0,0,0,0,-1,1294,1716,3.12805,-230.295
77,-692,3.60278,230.561,0,0,0,0,0,0,0,-1,1301,1716,3.60282,-230.561
84,-692,3.84998,230.626,0,0,0,0,0,0,0,-1,1308,1716,3.84996,-230.626
91,-692,4.34497,229.793,0,0,0,0,0,0,0,-1,1315,1716,4.34494,-229.793
98,-692,4.49573,229.672,0,0,0,0,0,0,0,-1,1322,1716,4.49574,-229.672
105,-692,5.03699,229.902,0,0,0,0,0,0,0,-1,1329,1716,5.03694,-229.902
112,-692,5.86597,228.159,0,0,0,0,0,0,0,-1,1336,1716,5.86593,-228.159
119,-692,6.18506,228.508,0,0,0,0,0,0,0,-1,1343,1716,6.18509,-228.508
126,-692,6.8175,227.753,0,0,0,0,0,0,0,-1,1350,1716,6.81748,-227.753
133,-692,6.8645,227.568,0,0,0,0,0,0,0,-1,1357,1716,6.86456,-227.568
140,-692,6.89099,226.991,0,0,0,0,0,0,0,-1,1364,1716,6.89094,-226.991
147,-692,6.94702,224.401,0,0,0,0,0,0,0,-1,1371,1716,6.94698,-224.401
154,-692,9.92883,56.0276,0,0,0,0,0,0,0,-1,1378,1716,9.92887,-56.0276
161,-692,7.72937,224.665,0,0,0,0,0,0,0,-1,1385,1716,7.72939,-224.665
168,-692,8.38049,223.903,0,0,0,0,0,0,0,-1,1392,1716,8.38043,-223.903
175,-692,8.8468,222.853,0,0,0,0,0,0,0,-1,1399,1716,8.84683,-222.853
182,-692,8.7655,221.654,0,0,0,0,0,0,0,-1,1406,1716,8.76554,-221.654
189,-692,8.67297,220.41,0,0,0,0,0,0,0,-1,1413,1716,8.67297,-220.41
196,-692,8.89429,198.411,0,0,0,0,0,0,0,-1,1420,1716,8.89427,-198.411
203,-692,9.01855,217.797,0,0,0,0,0,0,0,-1,1427,1716,9.01854,-217.797
210,-692,9.10986,216.386,0.0223162,-0.00257268,0.00539739,0.0234363,-0.00369275,0.204616,0.0169894,0.042455,1434,1716,9.10987,-216.386
217,-692,8.98169,214.961,0.0198238,-0.0033037,0.00477725,0.0207718,-0.00425164,0.195884,0.0154612,0.0212736,1441,1716,8.98166,-214.961
224,-692,8.93005,213.589,0.0176932,-0.00365792,0.00383618,0.0183615,-0.00432625,0.172487,0.0139092,0.0186639,1448,1716,8.93005,-213.588
231,-692,8.95825,212.123,0.0162671,-0.00339069,0.0026016,0.0166056,-0.00372916,0.129377,0.0125003,0.0175739,1455,1716,8.95828,-212.123
238,-692,8.95276,210.455,0.0151138,-0.00302737,0.00170773,0.0152732,-0.00318672,0.0930461,0.0113939,0.0244851,1462,1716,8.95275,-210.455
245,-692,8.83789,208.853,0.0138006,-0.0025056,0.000972767,0.0138584,-0.00256343,0.0593757,0.0102013,0.0274748,1469,1716,8.83794,-208.853
252,-692,8.78687,207.307,0.012343,-0.00181732,0.00028178,0.0123486,-0.00182292,0.0198888,0.00890247,0.0251897,1476,1716,8.78683,-207.307
259,-692,8.69763,205.64,0.0107949,-0.0013154,-0.000336047,0.0108042,-0.00132472,-0.0277204,0.00768256,0.0138432,1483,1716,8.69761,-205.64
266,-692,8.53296,203.875,0.00923393,-0.000712046,-0.000973088,0.00932824,-0.000806357,-0.0966167,0.00650429,0.0141502,1490,1716,8.53301,-203.875
273,-692,8.36853,202.078,0.00762689,-0.000219263,-0.00146224,0.00789054,-0.000482914,-0.178389,0.0054285,0.019631,1497,1716,8.36849,-202.078
280,-692,8.16003,200.198,0.00595681,0.000143535,-0.00183059,0.00648522,-0.00038488,-0.28102,0.00445732,0.0181651,1504,1716,8.15997,-200.198
287,-692,7.96448,198.354,0.00438765,0.000582296,-0.00216376,0.0053663,-0.000396353,-0.424757,0.0037167,0.0157587,1511,1716,7.96442,-198.354
294,-692,7.72595,196.502,0.00292006,0.000970403,-0.00248695,0.00461641,-0.000725951,-0.598613,0.00334595,0.0153106,1518,1716,7.72598,-196.502
301,-692,7.49731,194.574,0.00159029,0.00159869,-0.00291994,0.00451443,-0.00132545,-0.786118,0.00353526,0.0168603,1525,1716,7.49733,-194.574
308,-692,7.26233,192.637,0.000433192,0.00218693,-0.00336361,0.00478608,-0.00216597,-0.912906,0.00410769,0.0196845,1532,1716,7.26235,-192.637
315,-692,6.92712,190.624,-0.000618365,0.00273012,-0.00383563,0.00524099,-0.00312923,-0.991183,0.00488355,0.0192481,1539,1716,6.92711,-190.624
322,-692,6.51855,188.572,-0.00162553,0.00330372,-0.00434222,0.00583202,-0.00415382,-1.04352,0.0057924,0.0263993,1546,1716,6.51854,-188.572
329,-692,6.26648,186.566,-0.00249831,0.00393667,-0.00499674,0.00666221,-0.00522385,-1.07144,0.00687915,0.0225602,1553,1716,6.26652,-186.566
336,-692,5.99365,184.527,-0.00332423,0.00434137,-0.00563149,0.00732063,-0.00630348,-1.08419,0.00787319,0.0153216,1560,1716,5.99365,-184.527
343,-692,5.59741,182.417,-0.00390899,0.00469642,-0.00640534,0.00811004,-0.0073226,-1.08115,0.00891391,0.0170888,1567,1716,5.59741,-182.417
350,-692,5.21265,180.312,-0.00434572,0.00482813,-0.00714673,0.0087333,-0.00825089,-1.0707,0.00980714,0.020699,1574,1716,5.21266,-180.312
357,-692,4.85132,178.156,-0.00456939,0.00488935,-0.00797424,0.0094312,-0.00911124,-1.05306,0.010706,0.0328975,1581,1716,4.85134,-178.156
364,-692,4.52454,176.073,0,0,0,0,0,0,0,-1,1588,1716,4.52449,-176.073
371,-692,4.06506,173.763,0,0,0,0,0,0,0,-1,1595,1716,4.06503,-173.763
378,-692,3.7876,171.483,0,0,0,0,0,0,0,-1,1602,1716,3.78758,-171.483
385,-692,5.94177,139.693,0,0,0,0,0,0,0,-1,1609,1716,5.94181,-139.693
392,-692,9.34058,106.317,0,0,0,0,0,0,0,-1,1616,1716,9.34055,-106.317
399,-692,9.19458,104.242,0,0,0,0,0,0,0,-1,1623,1716,9.19457,-104.242
406,-692,11.3221,42.7773,0,0,0,0,0,0,0,-1,1630,1716,11.3222,-42.7773
413,-692,11.4845,42.9004,0,0,0,0,0,0,0,-1,1637,1716,11.4845,-42.9004
420,-692,9.65894,40.2512,0,0,0,0,0,0,0,-1,1644,1716,9.65889,-40.2513
427,-692,3.79578,8.60339,0,0,0,0,0,0,0,-1,1651,1716,3.79577,-8.6034
434,-692,4.78516,8.64636,0,0,0,0,0,0,0,-1,1658,1716,4.78512,-8.64634
441,-692,5.8208,8.74036,0,0,0,0,0,0,0,-1,1665,1716,5.82084,-8.7404
448,-692,6.73792,8.51013,0,0,0,0,0,0,0,-1,1672,1716,6.73793,-8.5101
455,-692,0,0,0,0,0,0,0,0,0,-1,1679,1716,0,0
462,-692,0,0,0,0,0,0,0,0,0,-1,1686,1716,0,0
469,-692,0,0,0,0,0,0,0,0,0,-1,1693,1716,0,0
476,-692,0,0,0,0,0,0,0,0,0,-1,1700,1716,0,0
483,-692,0,0,0,0,0,0,0,0,0,-1,1707,1716,0,0
490,-692,0,0,0,0,0,0,0,0,0,-1,1714,1716,0,0
497,-692,0,0,0,0,0,0,0,0,0,-1,1721,1716,0,0
504,-692,0,0,0,0,0,0,0,0,0,-1,1728,1716,0,0
511,-692,0,0,0,0,0,0,0,0,0,-1,1735,1716,0,0
518,-692,0,0,0,0,0,0,0,0,0,-1,1742,1716,0,0
525,-692,0,0,0,0,0,0,0,0,0,-1,1749,1716,0,0
532,-692,0,0,0,0,0,0,0,0,0,-1,1756,1716,0,0
539,-692,0,0,0,0,0,0,0,0,0,-1,1763,1716,0,0
546,-692,0,0,0,0,0,0,0,0,0,-1,1770,1716,0,0
553,-692,0,0,0,0,0,0,0,0,0,-1,1777,1716,0,0
560,-692,0,0,0,0,0,0,0,0,0,-1,1784,1716,0,0
567,-692,0,0,0,0,0,0,0,0,0,-1,1791,1716,0,0
574,-692,0,0,0,0,0,0,0,0,0,-1,1798,1716,0,0
581,-692,0,0,0,0,0,0,0,0,0,-1,1805,1716,0,0
588,-692,0,0,0,0,0,0,0,0,0,-1,1812,1716,0,0
595,-692,0,0,0,0,0,0,0,0,0,-1,1819,1716,0,0
602,-692,0,0,0,0,0,0,0,0,0,-1,1826,1716,0,0
609,-692,0,0,0,0,0,0,0,0,0,-1,1833,1716,0,0
616,-692,0,0,0,0,0,0,0,0,0,-1,1840,1716,0,0
623,-692,0,0,0,0,0,0,0,0,0,-1,1847,1716,0,0
630,-692,0,0,0,0,0,0,0,0,0,-1,1854,1716,0,0
637,-692,0,0,0,0,0,0,0,0,0,-1,1861,1716,0,0
644,-692,0,0,0,0,0,0,0,0,0,-1,1868,1716,0,0
651,-692,0,0,0,0,0,0,0,0,0,-1,1875,1716,0,0
658,-692,0,0,0,0,0,0,0,0,0,-1,1882,1716,0,0
665,-692,0,0,0,0,0,0,0,0,0,-1,1889,1716,0,0
672,-692,0,0,0,0,0,0,0,0,0,-1,1896,1716,0,0
679,-692,0,0,0,0,0,0,0,0,0,-1,1903,1716,0,0
686,-692,0,0,0,0,0,0,0,0,0,-1,1910,1716,0,0
693,-692,0,0,0,0,0,0,0,0,0,-1,1917,1716,0,0
700,-692,0,0,0,0,0,0,0,0,0,-1,1924,1716,0,0
707,-692,0,0,0,0,0,0,0,0,0,-1,1931,1716,0,0
714,-692,0,0,0,0,0,0,0,0,0,-1,1938,1716,0,0
721,-692,0,0,0,0,0,0,0,0,0,-1,1945,1716,0,0
728,-692,0,0,0,0,0,0,0,0,0,-1,1952,1716,0,0
735,-692,0,0,0,0,0,0,0,0,0,-1,1959,1716,0,0
742,-692,0,0,0,0,0,0,0,0,0,-1,1966,1716,0,0
749,-692,0,0,0,0,0,0,0,0,0,-1,1973,1716,0,0
756,-692,0,0,0,0,0,0,0,0,0,-1,1980,1716,0,0
763,-692,0,0,0,0,0,0,0,0,0,-1,1987,1716,0,0
770,-692,0,0,0,0,0,0,0,0,0,-1,1994,1716,0,0
777,-692,0,0,0,0,0,0,0,0,0,-1,2001,1716,0,0
784,-692,0,0,0,0,0,0,0,0,0,-1,2008,1716,0,0
791,-692,0,0,0,0,0,0,0,0,0,-1,2015,1716,0,0
798,-692,0,0,0,0,0,0,0,0,0,-1,2022,1716,0,0
805,-692,0,0,0,0,0,0,0,0,0,-1,2029,1716,0,0
812,-692,0,0,0,0,0,0,0,0,0,-1,2036,1716,0,0
-700,-699,0,0,0,0,0,0,0,0,0,-1,524,1723,0,0
-693,-699,0,0,0,0,0,0,0,0,0,-1,531,1723,0,0
-686,-699,0,0,0,0,0,0,0,0,0,-1,538,1723,0,0
-679,-699,0,0,0,0,0,0,0,0,0,-1,545,1723,0,0
-672,-699,0,0,0,0,0,0,0,0,0,-1,552,1723,0,0
-665,-699,0,0,0,0,0,0,0,0,0,-1,559,1723,0,0
-658,-699,0,0,0,0,0,0,0,0,0,-1,566,1723,0,0
-651,-699,0,0,0,0,0,0,0,0,0,-1,573,1723,0,0
-644,-699,0,0,0,0,0,0,0,0,0,-1,580,1723,0,0
-637,-699,0,0,0,0,0,0,0,0,0,-1,587,1723,0,0
-630,-699,0,0,0,0,0,0,0,0,0,-1,594,1723,0,0
-623,-699,0,0,0,0,0,0,0,0,0,-1,601,1723,0,0
-616,-699,0,0,0,0,0,0,0,0,0,-1,608,1723,0,0
-609,-699,0,0,0,0,0,0,0,0,0,-1,615,1723,0,0
-602,-699,0,0,0,0,0,0,0,0,0,-1,622,1723,0,0
-595,-699,0,0,0,0,0,0,0,0,0,-1,629,1723,0,0
-588,-699,0,0,0,0,0,0,0,0,0,-1,636,1723,0,0
-581,-699,0,0,0,0,0,0,0,0,0,-1,643,1723,0,0
-574,-699,0,0,0,0,0,0,0,0,0,-1,650,1723,0,0
-567,-699,0,0,0,0,0,0,0,0,0,-1,657,1723,0,0
-560,-699,0,0,0,0,0,0,0,0,0,-1,664,1723,0,0
-553,-699,0,0,0,0,0,0,0,0,0,-1,671,1723,0,0
-546,-699,0,0,0,0,0,0,0,0,0,-1,678,1723,0,0
-539,-699,0,0,0,0,0,0,0,0,0,-1,685,1723,0,0
-532,-699,0,0,0,0,0,0,0,0,0,-1,692,1723,0,0
-525,-699,0,0,0,0,0,0,0,0,0,-1,699,1723,0,0
-518,-699,0,0,0,0,0,0,0,0,0,-1,706,1723,0,0
-511,-699,0,0,0,0,0,0,0,0,0,-1,713,1723,0,0
-504,-699,0,0,0,0,0,0,0,0,0,-1,720,1723,0,0
-497,-699,0,0,0,0,0,0,0,0,0,-1,727,1723,0,0
-490,-699,0,0,0,0,0,0,0,0,0,-1,734,1723,0,0
-483,-699,0,0,0,0,0,0,0,0,0,-1,741,1723,0,0
-476,-699,0,0,0,0,0,0,0,0,0,-1,748,1723,0,0
-469,-699,0,0,0,0,0,0,0,0,0,-1,755,1723,0,0
-462,-699,0,0,0,0,0,0,0,0,0,-1,762,1723,0,0
-455,-699,0,0,0,0,0,0,0,0,0,-1,769,1723,0,0
-448,-699,0,0,0,0,0,0,0,0,0,-1,776,1723,0,0
-441,-699,0,0,0,0,0,0,0,0,0,-1,783,1723,0,0
-434,-699,0,0,0,0,0,0,0,0,0,-1,790,1723,0,0
-427,-699,0,0,0,0,0,0,0,0,0,-1,797,1723,0,0
-420,-699,0,0,0,0,0,0,0,0,0,-1,804,1723,0,0
-413,-699,0,0,0,0,0,0,0,0,0,-1,811,1723,0,0
-406,-699,0,0,0,0,0,0,0,0,0,-1,818,1723,0,0
-399,-699,0,0,0,0,0,0,0,0,0,-1,825,1723,0,0
-392,-699,0,0,0,0,0,0,0,0,0,-1,832,1723,0,0
-385,-699,0,0,0,0,0,0,0,0,0,-1,839,1723,0,0
-378,-699,0,0,0,0,0,0,0,0,0,-1,846,1723,0,0
-371,-699,0,0,0,0,0,0,0,0,0,-1,853,1723,0,0
-364,-699,0,0,0,0,0,0,0,0,0,-1,860,1723,0,0
-357,-699,0,0,0,0,0,0,0,0,0,-1,867,1723,0,0
-350,-699,0,0,0,0,0,0,0,0,0,-1,874,1723,0,0
-343,-699,0,0,0,0,0,0,0,0,0,-1,881,1723,0,0
-336,-699,0,0,0,0,0,0,0,0,0,-1,888,1723,0,0
-329,-699,0,0,0,0,0,0,0,0,0,-1,895,1723,0,0
-322,-699,0,0,0,0,0,0,0,0,0,-1,902,1723,0,0
-315,-699,6.20001,19.5193,0,0,0,0,0,0,0,-1,909,1723,6.20001,-19.5193
-308,-699,6.98151,18.9218,0,0,0,0,0,0,0,-1,916,1723,6.98151,-18.9217
-301,-699,4.72729,12.8752,0,0,0,0,0,0,0,-1,923,1723,4.72732,-12.8752
-294,-699,6.90332,19.8601,0,0,0,0,0,0,0,-1,930,1723,6.90332,-19.8601
-287,-699,9.0968,36.3315,0,0,0,0,0,0,0,-1,937,1723,9.09678,-36.3315
-280,-699,9.53729,45.2391,0,0,0,0,0,0,0,-1,944,1723,9.53728,-45.2391
-273,-699,8.216,48.0923,0,0,0,0,0,0,0,-1,951,1723,8.21601,-48.0923
-266,-699,6.81915,20.8951,0,0,0,0,0,0,0,-1,958,1723,6.81914,-20.8952
-259,-699,5.39758,14.5466,0,0,0,0,0,0,0,-1,965,1723,5.39759,-14.5466
-252,-699,8.3866,31.6284,0,0,0,0,0,0,0,-1,972,1723,8.38657,-31.6284
-245,-699,7.94281,50.88,0,0,0,0,0,0,0,-1,979,1723,7.9428,-50.88
-238,-699,8.49646,67.9598,0,0,0,0,0,0,0,-1,986,1723,8.49646,-67.9598
-231,-699,4.8941,142.621,0,0,0,0,0,0,0,-1,993,1723,4.89409,-142.621
-224,-699,2.86035,178.571,0,0,0,0,0,0,0,-1,1000,1723,2.86034,-178.571
-217,-699,2.50409,180.402,-0.00252881,0.0141587,0.0115341,0.0200505,-0.00842069,1.09853,0.0168888,0.0433337,1007,1723,2.50407,-180.402
-210,-699,2.35144,182.621,-0.00261551,0.0131908,0.0106278,0.0185318,-0.00795657,1.1051,0.0156941,0.0349028,1014,1723,2.35144,-182.621
-203,-699,2.10394,184.795,-0.00291831,0.0118447,0.00969103,0.0166453,-0.00771886,1.11087,0.0143779,0.0430076,1021,1723,2.10394,-184.795
-196,-699,1.64612,186.835,-0.00300683,0.0108142,0.00887422,0.0151512,-0.00734385,1.11621,0.0132457,0.0462184,1028,1723,1.64609,-186.835
-189,-699,1.22778,189.012,-0.00300253,0.00906725,0.0079582,0.01302,-0.00695527,1.1098,0.0117086,0.0220939,1035,1723,1.22781,-189.012
-182,-699,0.8479,191.106,-0.00275986,0.00724984,0.0070257,0.0108711,-0.00638107,1.09489,0.0100723,0.0203291,1042,1723,0.847947,-191.106
-175,-699,0.529907,193.13,-0.00237715,0.0054802,0.00611893,0.0088231,-0.00572004,1.07078,0.00845996,0.0222698,1049,1723,0.529849,-193.13
-168,-699,0.263306,195.069,-0.00192694,0.00395338,0.00528778,0.00706343,-0.005037,1.03913,0.00701877,0.0247844,1056,1723,0.263327,-195.069
-161,-699,-0.0229492,196.957,-0.00154817,0.00213487,0.00434149,0.00500926,-0.00442255,0.985981,0.00544897,0.0212527,1063,1723,-0.0229641,-196.957
-154,-699,-0.305908,198.813,-0.000606711,0.00062594,0.00355653,0.00361915,-0.00359992,0.871193,0.00416794,0.0195633,1070,1723,-0.305952,-198.813
-147,-699,-0.556519,200.682,0.000875572,-0.000554634,0.00285828,0.00310684,-0.00278591,0.662821,0.00340386,0.0239141,1077,1723,-0.55649,-200.682
-140,-699,-0.751343,202.475,0.00252667,-0.00149053,0.00211082,0.00343184,-0.0023957,0.405104,0.00338221,0.0168067,1084,1723,-0.751387,-202.475
-133,-699,-0.954102,204.247,0.00399766,-0.00200537,0.00134,0.00428319,-0.0022909,0.209945,0.00385321,0.0139676,1091,1723,-0.954073,-204.247
-126,-699,-1.13013,205.975,0.00551329,-0.0023879,0.000495784,0.00554428,-0.00241889,0.0624217,0.0047141,0.0164852,1098,1723,-1.1301,-205.975
-119,-699,-1.34412,207.684,0.00722847,-0.00267735,-0.000223498,0.00723351,-0.0026824,-0.022547,0.00592254,0.0231002,1105,1723,-1.34412,-207.684
-112,-699,-1.53101,209.329,0.00896159,-0.00302323,-0.000943634,0.00903543,-0.00309707,-0.0780945,0.00727902,0.0161826,1112,1723,-1.53098,-209.329
-105,-699,-1.67163,210.973,0.0106236,-0.00355304,-0.00177224,0.0108418,-0.00377123,-0.1225,0.00875984,0.0206484,1119,1723,-1.67162,-210.973
-98,-699,-1.70337,212.544,0.0123015,-0.0041411,-0.0026871,0.0127295,-0.00456909,-0.157951,0.0103511,0.0278737,1126,1723,-1.7034,-212.544
-91,-699,-1.69824,214.037,0.0144052,-0.00474463,-0.00362567,0.0150686,-0.0054081,-0.18099,0.012253,0.0348916,1133,1723,-1.69822,-214.037
-84,-699,-1.63843,215.49,0.0169007,-0.00532437,-0.00449958,0.0177771,-0.00620078,-0.192366,0.0143714,0.0418294,1140,1723,-1.63837,-215.49
-77,-699,-1.69409,216.804,0.0192778,-0.0061122,-0.00518435,0.0202956,-0.00712999,-0.193853,0.0164311,0.02796,1147,1723,-1.69414,-216.804
-70,-699,-1.70239,218.106,0.0214972,-0.00756,-0.00555119,0.0225216,-0.0085844,-0.182485,0.0185502,0.0248276,1154,1723,-1.70235,-218.106
-63,-699,-1.65112,219.41,0.0238173,-0.00951619,-0.0056166,0.0247382,-0.0104371,-0.162521,0.0208605,0.0197082,1161,1723,-1.65118,-219.41
-56,-699,-1.65735,220.575,0.0262535,-0.0109896,-0.00563954,0.0270887,-0.0118248,-0.147035,0.0230357,0.0159807,1168,1723,-1.65737,-220.575
-49,-699,-1.65869,221.76,0.0284835,-0.0129127,-0.00564121,0.0292385,-0.0136677,-0.133042,0.0253098,0.035928,1175,1723,-1.65869,-221.76
-42,-699,-1.61353,222.871,0.0303719,-0.0148073,-0.00522587,0.0309685,-0.0154039,-0.11367,0.0272712,0.0418592,1182,1723,-1.6135,-222.871
-35,-699,-1.29297,223.932,0.03238,-0.0168762,-0.00463305,0.032812,-0.0173082,-0.0929736,0.0293947,0.0375101,1189,1723,-1.29294,-223.932
-28,-699,-0.884888,224.884,0.0345332,-0.0191396,-0.00420096,0.0348601,-0.0194664,-0.0776396,0.0317824,0.0257162,1196,1723,-0.884837,-224.884
-21,-699,-0.795532,225.658,0.0365866,-0.0216632,-0.00359626,0.0368078,-0.0218844,-0.0614276,0.0342492,0.0176245,1203,1723,-0.795511,-225.658
-14,-699,-0.61499,226.533,0.0384263,-0.0240842,-0.00297748,0.0385678,-0.0242258,-0.0474884,0.0365677,0.0261724,1210,1723,-0.615008,-226.533
-7,-699,-0.35144,227.365,0.0402076,-0.0258699,-0.00239181,0.040294,-0.0259563,-0.036134,0.0385471,0.0249202,1217,1723,-0.351381,-227.365
0,-699,-0.092041,228.05,0.0419451,-0.027391,-0.00177627,0.0419906,-0.0274364,-0.0255959,0.0403762,0.0208584,1224,1723,-0.0919899,-228.05
7,-699,0.198975,228.61,0.0434284,-0.0286711,-0.00106803,0.0434442,-0.0286869,-0.0148089,0.0419344,0.0294985,1231,1723,0.198915,-228.61
14,-699,0.571533,229.154,0.0444409,-0.0300317,-0.000262976,0.0444418,-0.0300327,-0.00353112,0.0432653,0.0321116,1238,1723,0.57155,-229.154
21,-699,0.841919,229.633,0.0451063,-0.0317265,0.000254235,0.0451071,-0.0317273,0.00330889,0.044584,0.0289939,1245,1723,0.84195,-229.633
28,-699,1.19189,230.015,0.0461372,-0.0329808,0.00071537,0.0461436,-0.0329873,0.00904083,0.0458963,0.0287128,1252,1723,1.19184,-230.015
35,-699,1.5459,230.434,0.0472623,-0.0337112,0.00110784,0.0472775,-0.0337264,0.0136781,0.0469852,0.0287731,1259,1723,1.54592,-230.434
42,-699,1.70789,230.799,0,0,0,0,0,0,0,-1,1266,1723,1.70786,-230.799
49,-699,2.13757,231.083,0,0,0,0,0,0,0,-1,1273,1723,2.13754,-231.083
56,-699,2.59753,231.015,0.0457309,-0.0345633,0.00234987,0.0457996,-0.034632,0.0292324,0.0465862,0.0334173,1280,1723,2.59758,-231.015
63,-699,2.87695,230.971,0.0445647,-0.0343059,0.00262732,0.0446521,-0.0343933,0.0332627,0.0457648,0.0293619,1287,1723,2.87693,-230.971
70,-699,3.06091,230.845,0.0437708,-0.0345011,0.00311129,0.0438943,-0.0346246,0.0396663,0.0454381,0.0274375,1294,1723,3.0609,-230.845
77,-699,3.42615,230.89,0.0426426,-0.033588,0.00329007,0.0427843,-0.0337297,0.0430528,0.0442784,0.0264696,1301,1723,3.42617,-230.89
84,-699,3.77966,230.917,0.04163,-0.0325517,0.00352961,0.0417976,-0.0327192,0.0474377,0.0431286,0.0329339,1308,1723,3.77966,-230.917
91,-699,4.11694,230.768,0.0407229,-0.0311559,0.00369794,0.0409127,-0.0313456,0.0512665,0.0418401,0.0311112,1315,1723,4.11692,-230.768
98,-699,4.33728,230.499,0.0400278,-0.0293257,0.00396202,0.0402534,-0.0295513,0.0568812,0.0404594,0.0204286,1322,1723,4.33723,-230.499
105,-699,4.50952,230.253,0.0395016,-0.0274079,0.00416213,0.0397595,-0.0276658,0.0618873,0.0391362,0.0270981,1329,1723,4.50954,-230.253
112,-699,4.66125,230.083,0,0,0,0,0,0,0,-1,1336,1723,4.66119,-230.083
119,-699,5.08557,229.382,0.0400349,-0.02242,0.00449249,0.0403564,-0.0227415,0.0714416,0.0368997,0.0384098,1343,1723,5.08559,-229.382
126,-699,5.61279,228.678,0,0,0,0,0,0,0,-1,1350,1723,5.61277,-228.678
133,-699,6.12805,228.015,0.039366,-0.0154367,0.00526602,0.0398675,-0.0159381,0.094933,0.0331921,0.039413,1357,1723,6.12807,-228.015
140,-699,6.30615,227.287,0.0384196,-0.0123939,0.00544252,0.038996,-0.0129703,0.105513,0.0312318,0.0311209,1364,1723,6.30619,-227.287
147,-699,6.45398,226.587,0,0,0,0,0,0,0,-1,1371,1723,6.45395,-226.587
154,-699,6.82825,225.808,0,0,0,0,0,0,0,-1,1378,1723,6.82823,-225.808
161,-699,6.86426,224.84,0.0359965,-0.00359714,0.00555082,0.03676,-0.00436061,0.136685,0.026082,0.0327321,1385,1723,6.8642,-224.84
168,-699,7.19739,223.87,0.0334159,-0.00202253,0.00561062,0.0342829,-0.00288959,0.153327,0.0238768,0.0169648,1392,1723,7.19738,-223.87
175,-699,7.47681,222.922,0.0299778,0.000279021,0.00516767,0.0308512,-0.000594474,0.167449,0.0207685,0.023421,1399,1723,7.47678,-222.922
182,-699,7.50806,221.767,0.0268364,0.000344236,0.005065,0.0277717,-0.00059111,0.182612,0.0187146,0.0242746,1406,1723,7.50806,-221.767
189,-699,7.45276,220.53,0.0238964,0.00081928,0.00476321,0.0248409,-0.000125211,0.195749,0.0166025,0.0196183,1413,1723,7.45278,-220.53
196,-699,7.39026,219.384,0,0,0,0,0,0,0,-1,1420,1723,7.3902,-219.384
203,-699,7.53979,218.047,0,0,0,0,0,0,0,-1,1427,1723,7.53985,-218.047
210,-699,7.57764,216.62,0.0166109,-0.00027373,0.00303589,0.0171401,-0.000802998,0.172603,0.0117036,0.0366283,1434,1723,7.57764,-216.619
217,-699,7.58801,215.251,0.0144103,-0.000659084,0.0024348,0.014794,-0.00104271,0.156276,0.0102279,0.0181386,1441,1723,7.58805,-215.251
224,-699,7.54517,213.79,0.0125114,-0.000796573,0.00160122,0.0127013,-0.000986523,0.118076,0.00881482,0.0215814,1448,1723,7.54515,-213.79
231,-699,7.46191,212.307,0.011106,-0.000537325,0.000604906,0.0111374,-0.000568667,0.0517671,0.00762155,0.0169808,1455,1723,7.46189,-212.307
238,-699,7.34363,210.701,0.00987735,-0.000197711,-0.000108424,0.00987852,-0.000198878,-0.0107599,0.00665296,0.0150902,1462,1723,7.34365,-210.701
245,-699,7.25696,209.099,0.00855392,0.000222209,-0.000707746,0.00861362,0.000162516,-0.0841427,0.00568901,0.0172671,1469,1723,7.257,-209.099
252,-699,7.14868,207.526,0.00715124,0.000711855,-0.0012545,0.00738701,0.00047609,-0.185769,0.0047739,0.0144821,1476,1723,7.14871,-207.526
259,-699,6.95801,205.87,0.00569826,0.00103902,-0.00172223,0.00626575,0.000471538,-0.318301,0.00402919,0.0144064,1483,1723,6.95801,-205.87
266,-699,6.74524,204.105,0.00418422,0.00139244,-0.00220862,0.00540109,0.00017557,-0.503583,0.00354365,0.0168073,1490,1723,6.74526,-204.105
273,-699,6.56091,202.323,0.00271459,0.00165969,-0.00264826,0.00488741,-0.000513132,-0.6871,0.00344209,0.0172577,1497,1723,6.56088,-202.323
280,-699,6.3667,200.456,0.00134068,0.00196698,-0.00301005,0.00468012,-0.00137247,-0.83723,0.00366427,0.0182378,1504,1723,6.36669,-200.456
287,-699,6.10852,198.557,8.8342e-06,0.00238183,-0.00330343,0.00470538,-0.00231471,-0.957809,0.00413065,0.0153948,1511,1723,6.10849,-198.557
294,-699,5.86145,196.679,-0.00130475,0.00258142,-0.0035943,0.00472423,-0.00344756,-1.0332,0.00473714,0.0152704,1518,1723,5.8614,-196.679
301,-699,5.62231,194.813,-0.00246975,0.00326459,-0.0040208,0.00533579,-0.00454095,-1.09512,0.00570849,0.0159121,1525,1723,5.62235,-194.813
308,-699,5.37488,192.891,-0.00343588,0.00393337,-0.00450251,0.00606674,-0.00556924,-1.12831,0.00672009,0.0201886,1532,1723,5.37484,-192.89
315,-699,4.98181,190.866,-0.004291,0.0045201,-0.0050754,0.0068353,-0.00660621,-1.14283,0.00776083,0.0248573,1539,1723,4.9818,-190.866
322,-699,4.60767,188.855,-0.00514066,0.00513111,-0.0056486,0.00762962,-0.00763917,-1.15434,0.00881544,0.0301555,1546,1723,4.60768,-188.855
329,-699,4.25403,186.747,-0.00586324,0.00590503,-0.0063996,0.00871445,-0.00867266,-1.15713,0.0100385,0.0330603,1553,1723,4.25409,-186.747
336,-699,3.89905,184.692,-0.00653181,0.00650541,-0.00718609,0.00968897,-0.00971538,-1.15376,0.0112031,0.0386296,1560,1723,3.89901,-184.692
343,-699,3.62695,182.671,0,0,0,0,0,0,0,-1,1567,1723,3.62697,-182.671
350,-699,3.24658,180.525,0,0,0,0,0,0,0,-1,1574,1723,3.24662,-180.525
357,-699,2.82422,178.428,0,0,0,0,0,0,0,-1,1581,1723,2.82426,-178.428
364,-699,4.60535,147.037,0,0,0,0,0,0,0,-1,1588,1723,4.6053,-147.037
371,-699,6.60791,123.792,0,0,0,0,0,0,0,-1,1595,1723,6.6079,-123.792
378,-699,9.63354,70.7234,0,0,0,0,0,0,0,-1,1602,1723,9.63356,-70.7234
385,-699,8.04944,42.8464,0,0,0,0,0,0,0,-1,1609,1723,8.04943,-42.8464
392,-699,8.04492,42.0624,0,0,0,0,0,0,0,-1,1616,1723,8.04492,-42.0623
399,-699,8.49963,41.4828,0,0,0,0,0,0,0,-1,1623,1723,8.49961,-41.4828
406,-699,11.7264,44.1525,0,0,0,0,0,0,0,-1,1630,1723,11.7264,-44.1525
413,-699,12.3215,44.3011,0,0,0,0,0,0,0,-1,1637,1723,12.3215,-44.3011
420,-699,8.41907,38.2246,0,0,0,0,0,0,0,-1,1644,1723,8.41902,-38.2247
427,-699,2.98743,11.8593,0,0,0,0,0,0,0,-1,1651,1723,2.98746,-11.8592
434,-699,4.66455,8.90222,0,0,0,0,0,0,0,-1,1658,1723,4.66456,-8.90223
441,-699,0,0,0,0,0,0,0,0,0,-1,1665,1723,0,0
448,-699,0,0,0,0,0,0,0,0,0,-1,1672,1723,0,0
455,-699,0,0,0,0,0,0,0,0,0,-1,1679,1723,0,0
462,-699,0,0,0,0,0,0,0,0,0,-1,1686,1723,0,0
469,-699,0,0,0,0,0,0,0,0,0,-1,1693,1723,0,0
476,-699,0,0,0,0,0,0,0,0,0,-1,1700,1723,0,0
483,-699,0,0,0,0,0,0,0,0,0,-1,1707,1723,0,0
490,-699,0,0,0,0,0,0,0,0,0,-1,1714,1723,0,0
497,-699,0,0,0,0,0,0,0,0,0,-1,1721,1723,0,0
504,-699,0,0,0,0,0,0,0,0,0,-1,1728,1723,0,0
511,-699,0,0,0,0,0,0,0,0,0,-1,1735,1723,0,0
518,-699,0,0,0,0,0,0,0,0,0,-1,1742,1723,0,0
525,-699,0,0,0,0,0,0,0,0,0,-1,1749,1723,0,0
532,-699,0,0,0,0,0,0,0,0,0,-1,1756,1723,0,0
539,-699,0,0,0,0,0,0,0,0,0,-1,1763,1723,0,0
546,-699,0,0,0,0,0,0,0,0,0,-1,1770,1723,0,0
553,-699,0,0,0,0,0,0,0,0,0,-1,1777,1723,0,0
560,-699,0,0,0,0,0,0,0,0,0,-1,1784,1723,0,0
567,-699,0,0,0,0,0,0,0,0,0,-1,1791,1723,0,0
574,-699,0,0,0,0,0,0,0,0,0,-1,1798,1723,0,0
581,-699,0,0,0,0,0,0,0,0,0,-1,1805,1723,0,0
588,-699,0,0,0,0,0,0,0,0,0,-1,1812,1723,0,0
595,-699,0,0,0,0,0,0,0,0,0,-1,1819,1723,0,0
602,-699,0,0,0,0,0,0,0,0,0,-1,1826,1723,0,0
609,-699,0,0,0,0,0,0,0,0,0,-1,1833,1723,0,0
616,-699,0,0,0,0,0,0,0,0,0,-1,1840,1723,0,0
623,-699,0,0,0,0,0,0,0,0,0,-1,1847,1723,0,0
630,-699,0,0,0,0,0,0,0,0,0,-1,1854,1723,0,0
637,-699,0,0,0,0,0,0,0,0,0,-1,1861,1723,0,0
644,-699,0,0,0,0,0,0,0,0,0,-1,1868,1723,0,0
651,-699,0,0,0,0,0,0,0,0,0,-1,1875,1723,0,0
658,-699,0,0,0,0,0,0,0,0,0,-1,1882,1723,0,0
665,-699,0,0,0,0,0,0,0,0,0,-1,1889,1723,0,0
672,-699,0,0,0,0,0,0,0,0,0,-1,1896,1723,0,0
679,-699,0,0,0,0,0,0,0,0,0,-1,1903,1723,0,0
686,-699,0,0,0,0,0,0,0,0,0,-1,1910,1723,0,0
693,-699,0,0,0,0,0,0,0,0,0,-1,1917,1723,0,0
700,-699,0,0,0,0,0,0,0,0,0,-1,1924,1723,0,0
707,-699,0,0,0,0,0,0,0,0,0,-1,1931,1723,0,0
714,-699,0,0,0,0,0,0,0,0,0,-1,1938,1723,0,0
721,-699,0,0,0,0,0,0,0,0,0,-1,1945,1723,0,0
728,-699,0,0,0,0,0,0,0,0,0,-1,1952,1723,0,0
735,-699,0,0,0,0,0,0,0,0,0,-1,1959,1723,0,0
742,-699,0,0,0,0,0,0,0,0,0,-1,1966,1723,0,0
749,-699,0,0,0,0,0,0,0,0,0,-1,1973,1723,0,0
756,-699,0,0,0,0,0,0,0,0,0,-1,1980,1723,0,0
763,-699,0,0,0,0,0,0,0,0,0,-1,1987,1723,0,0
770,-699,0,0,0,0,0,0,0,0,0,-1,1994,1723,0,0
777,-699,0,0,0,0,0,0,0,0,0,-1,2001,1723,0,0
784,-699,0,0,0,0,0,0,0,0,0,-1,2008,1723,0,0
791,-699,0,0,0,0,0,0,0,0,0,-1,2015,1723,0,0
798,-699,0,0,0,0,0,0,0,0,0,-1,2022,1723,0,0
805,-699,0,0,0,0,0,0,0,0,0,-1,2029,1723,0,0
812,-699,0,0,0,0,0,0,0,0,0,-1,2036,1723,0,0
-700,-706,0,0,0,0,0,0,0,0,0,-1,524,1730,0,0
-693,-706,0,0,0,0,0,0,0,0,0,-1,531,1730,0,0
-686,-706,0,0,0,0,0,0,0,0,0,-1,538,1730,0,0
-679,-706,0,0,0,0,0,0,0,0,0,-1,545,1730,0,0
-672,-706,0,0,0,0,0,0,0,0,0,-1,552,1730,0,0
-665,-706,0,0,0,0,0,0,0,0,0,-1,559,1730,0,0
-658,-706,0,0,0,0,0,0,0,0,0,-1,566,1730,0,0
-651,-706,0,0,0,0,0,0,0,0,0,-1,573,1730,0,0
-644,-706,0,0,0,0,0,0,0,0,0,-1,580,1730,0,0
-637,-706,0,0,0,0,0,0,0,0,0,-1,587,1730,0,0
-630,-706,0,0,0,0,0,0,0,0,0,-1,594,1730,0,0
-623,-706,0,0,0,0,0,0,0,0,0,-1,601,1730,0,0
-616,-706,0,0,0,0,0,0,0,0,0,-1,608,1730,0,0
-609,-706,0,0,0,0,0,0,0,0,0,-1,615,1730,0,0
-602,-706,0,0,0,0,0,0,0,0,0,-1,622,1730,0,0
-595,-706,0,0,0,0,0,0,0,0,0,-1,629,1730,0,0
-588,-706,0,0,0,0,0,0,0,0,0,-1,636,1730,0,0
-581,-706,0,0,0,0,0,0,0,0,0,-1,643,1730,0,0
-574,-706,0,0,0,0,0,0,0,0,0,-1,650,1730,0,0
-567,-706,0,0,0,0,0,0,0,0,0,-1,657,1730,0,0
-560,-706,0,0,0,0,0,0,0,0,0,-1,664,1730,0,0
-553,-706,0,0,0,0,0,0,0,0,0,-1,671,1730,0,0
-546,-706,0,0,0,0,0,0,0,0,0,-1,678,1730,0,0
-539,-706,0,0,0,0,0,0,0,0,0,-1,685,1730,0,0
-532,-706,0,0,0,0,0,0,0,0,0,-1,692,1730,0,0
-525,-706,0,0,0,0,0,0,0,0,0,-1,699,1730,0,0
-518,-706,0,0,0,0,0,0,0,0,0,-1,706,1730,0,0
-511,-706,0,0,0,0,0,0,0,0,0,-1,713,1730,0,0
-504,-706,0,0,0,0,0,0,0,0,0,-1,720,1730,0,0
-497,-706,0,0,0,0,0,0,0,0,0,-1,727,1730,0,0
-490,-706,0,0,0,0,0,0,0,0,0,-1,734,1730,0,0
-483,-706,0,0,0,0,0,0,0,0,0,-1,741,1730,0,0
-476,-706,0,0,0,0,0,0,0,0,0,-1,748,1730,0,0
-469,-706,0,0,0,0,0,0,0,0,0,-1,755,1730,0,0
-462,-706,0,0,0,0,0,0,0,0,0,-1,762,1730,0,0
-455,-706,0,0,0,0,0,0,0,0,0,-1,769,1730,0,0
-448,-706,0,0,0,0,0,0,0,0,0,-1,776,1730,0,0
-441,-706,0,0,0,0,0,0,0,0,0,-1,783,1730,0,0
-434,-706,0,0,0,0,0,0,0,0,0,-1,790,1730,0,0
-427,-706,0,0,0,0,0,0,0,0,0,-1,797,1730,0,0
-420,-706,0,0,0,0,0,0,0,0,0,-1,804,1730,0,0
-413,-706,0,0,0,0,0,0,0,0,0,-1,811,1730,0,0
-406,-706,0,0,0,0,0,0,0,0,0,-1,818,1730,0,0
-399,-706,0,0,0,0,0,0,0,0,0,-1,825,1730,0,0
-392,-706,0,0,0,0,0,0,0,0,0,-1,832,1730,0,0
-385,-706,0,0,0,0,0,0,0,0,0,-1,839,1730,0,0
-378,-706,0,0,0,0,0,0,0,0,0,-1,846,1730,0,0
-371,-706,0,0,0,0,0,0,0,0,0,-1,853,1730,0,0
-364,-706,0,0,0,0,0,0,0,0,0,-1,860,1730,0,0
-357,-706,0,0,0,0,0,0,0,0,0,-1,867,1730,0,0
-350,-706,0,0,0,0,0,0,0,0,0,-1,874,1730,0,0
-343,-706,0,0,0,0,0,0,0,0,0,-1,881,1730,0,0
-336,-706,0,0,0,0,0,0,0,0,0,-1,888,1730,0,0
-329,-706,0,0,0,0,0,0,0,0,0,-1,895,1730,0,0
-322,-706,0,0,0,0,0,0,0,0,0,-1,902,1730,0,0
-315,-706,0,0,0,0,0,0,0,0,0,-1,909,1730,0,0
-308,-706,5.08191,14.6245,0,0,0,0,0,0,0,-1,916,1730,5.08188,-14.6245
-301,-706,7.45007,21.1975,0,0,0,0,0,0,0,-1,923,1730,7.45005,-21.1976
-294,-706,11.8603,21.026,0,0,0,0,0,0,0,-1,930,1730,11.8603,-21.026
-287,-706,10.3292,20.8425,0,0,0,0,0,0,0,-1,937,1730,10.3292,-20.8425
-280,-706,7.9162,21.8951,0,0,0,0,0,0,0,-1,944,1730,7.9162,-21.8952
-273,-706,7.38953,20.6355,0,0,0,0,0,0,0,-1,951,1730,7.38955,-20.6355
-266,-706,9.66724,22.8231,0,0,0,0,0,0,0,-1,958,1730,9.66722,-22.8231
-259,-706,3.47852,20.7363,0,0,0,0,0,0,0,-1,965,1730,3.47851,-20.7364
-252,-706,3.84259,20.1979,0,0,0,0,0,0,0,-1,972,1730,3.84256,-20.1979
-245,-706,4.698,19.2992,0,0,0,0,0,0,0,-1,979,1730,4.69799,-19.2991
-238,-706,8.26819,61.1252,0,0,0,0,0,0,0,-1,986,1730,8.26817,-61.1253
-231,-706,6.17877,146.635,0,0,0,0,0,0,0,-1,993,1730,6.17878,-146.635
-224,-706,5.86743,147.823,0,0,0,0,0,0,0,-1,1000,1730,5.86742,-147.822
-217,-706,4.41241,180.446,0,0,0,0,0,0,0,-1,1007,1730,4.41244,-180.446
-210,-706,4.42627,182.309,0,0,0,0,0,0,0,-1,1014,1730,4.42629,-182.309
-203,-706,4.48389,184.736,0,0,0,0,0,0,0,-1,1021,1730,4.48389,-184.736
-196,-706,3.65613,187.035,0,0,0,0,0,0,0,-1,1028,1730,3.65614,-187.035
-189,-706,3.19336,189.171,0,0,0,0,0,0,0,-1,1035,1730,3.19337,-189.171
-182,-706,2.75146,191.382,0,0,0,0,0,0,0,-1,1042,1730,2.75147,-191.382
-175,-706,2.46753,193.444,0,0,0,0,0,0,0,-1,1049,1730,2.46756,-193.444
-168,-706,2.12817,195.184,-0.00551208,0.00674489,0.00787578,0.0105957,-0.00936289,1.11603,0.0115304,0.0433946,1056,1730,2.12822,-195.184
-161,-706,1.83569,197.155,-0.00559552,0.00436449,0.00676917,0.00778818,-0.00901921,1.10254,0.00971243,0.022965,1063,1730,1.83575,-197.155
-154,-706,1.479,199.09,-0.0049511,0.00232503,0.00585247,0.00557805,-0.00820411,1.06348,0.00800513,0.0172734,1070,1730,1.47899,-199.09
-147,-706,1.18994,200.924,-0.00367429,0.000822395,0.00514148,0.00418564,-0.00703753,0.991517,0.00654906,0.0147206,1077,1730,1.18995,-200.924
-140,-706,0.950317,202.736,-0.00219573,-0.000296807,0.00441227,0.003267,-0.00575953,0.891375,0.00527729,0.0158754,1084,1730,0.950307,-202.736
-133,-706,0.746216,204.47,-0.000884718,-0.000796869,0.00364019,0.00279966,-0.00448124,0.791431,0.00424084,0.0131302,1091,1730,0.746234,-204.47
-126,-706,0.538208,206.195,0.000415929,-0.00105922,0.00283269,0.00260549,-0.00324879,0.658036,0.00338677,0.0193797,1098,1730,0.538253,-206.195
-119,-706,0.302734,207.904,0.00187444,-0.00128966,0.00211303,0.00293205,-0.00234727,0.46406,0.00305424,0.0247118,1105,1730,0.302692,-207.904
-112,-706,0.135254,209.549,0.00338828,-0.00143581,0.00144794,0.0037895,-0.00183704,0.270318,0.00331304,0.0168144,1112,1730,0.135275,-209.549
-105,-706,-0.0429688,211.156,0.00490252,-0.0016644,0.000682494,0.0049727,-0.00173458,0.10247,0.00402007,0.0145764,1119,1730,-0.0429173,-211.156
-98,-706,-0.0805664,212.71,0.00646576,-0.00191787,-0.00011174,0.00646725,-0.00191936,-0.0133252,0.00507378,0.0184247,1126,1730,-0.080617,-212.71
-91,-706,-0.0822754,214.248,0.00827463,-0.00240495,-0.000952352,0.00835889,-0.00248921,-0.0882472,0.00656165,0.0248754,1133,1730,-0.0823151,-214.248
-84,-706,-0.211304,215.749,0.0103623,-0.00282963,-0.00177208,0.0105962,-0.00306353,-0.131231,0.00827652,0.0310824,1140,1730,-0.211331,-215.749
-77,-706,-0.353394,217.027,0.0123994,-0.0034198,-0.00245862,0.0127728,-0.00379311,-0.150686,0.0100217,0.0247919,1147,1730,-0.353447,-217.027
-70,-706,-0.401611,218.334,0.0143259,-0.00443895,-0.00296653,0.0147837,-0.00489675,-0.153116,0.0118308,0.0229932,1154,1730,-0.401644,-218.334
-63,-706,-0.419922,219.589,0.01639,-0.00588203,-0.00326069,0.0168575,-0.00634959,-0.142422,0.0138489,0.0176016,1161,1730,-0.419965,-219.589
-56,-706,-0.419189,220.771,0.0185299,-0.00711403,-0.00348876,0.018996,-0.00758019,-0.132831,0.0158086,0.0183278,1168,1730,-0.419191,-220.771
-49,-706,-0.414551,221.917,0.0205199,-0.00870762,-0.00363795,0.0209659,-0.00915362,-0.12199,0.0178297,0.0217654,1175,1730,-0.414574,-221.917
-42,-706,-0.3125,223.01,0.0222349,-0.0103424,-0.00351445,0.0226097,-0.0107172,-0.106252,0.0196454,0.030528,1182,1730,-0.312551,-223.01
-35,-706,-0.153076,224.016,0.0240215,-0.0121182,-0.00325236,0.0243119,-0.0124086,-0.0890407,0.0215687,0.0269231,1189,1730,-0.15306,-224.016
-28,-706,-0.0324707,224.999,0.0259296,-0.0139969,-0.00303373,0.0261588,-0.0142261,-0.0754058,0.0236531,0.0159923,1196,1730,-0.0324984,-224.999
-21,-706,0.0338135,225.835,0.0277296,-0.0160601,-0.00262742,0.0278866,-0.0162172,-0.0597154,0.0257588,0.0189055,1203,1730,0.0337651,-225.835
-14,-706,0.182495,226.7,0.0293238,-0.0179949,-0.00218949,0.0294249,-0.018096,-0.0461396,0.0276949,0.0179658,1210,1730,0.182445,-226.7
-7,-706,0.399658,227.535,0.0308444,-0.0194864,-0.00179846,0.0309086,-0.0195506,-0.035672,0.0293776,0.0133213,1217,1730,0.399642,-227.535
0,-706,0.620117,228.266,0.0323093,-0.0207529,-0.00135556,0.0323439,-0.0207875,-0.0255243,0.0309164,0.0169646,1224,1730,0.620107,-228.266
7,-706,0.755615,228.862,0.0335757,-0.0218766,-0.000849555,0.0335887,-0.0218896,-0.0153157,0.0322669,0.0186109,1231,1730,0.755673,-228.862
14,-706,0.967896,229.397,0.0345357,-0.0230117,-0.000254345,0.0345368,-0.0230128,-0.00441963,0.0334476,0.0214069,1238,1730,0.967949,-229.397
21,-706,1.24146,229.875,0.0352562,-0.0243215,0.000144429,0.0352566,-0.0243219,0.00242419,0.0345902,0.0181748,1245,1730,1.24144,-229.875
28,-706,1.51135,230.334,0.0362443,-0.0253082,0.000471023,0.0362479,-0.0253118,0.00765178,0.035728,0.0173664,1252,1730,1.51132,-230.334
35,-706,1.73523,230.665,0.0372875,-0.025842,0.000756553,0.0372965,-0.025851,0.0119819,0.0366573,0.0215324,1259,1730,1.7352,-230.665
42,-706,1.99158,230.897,0.037593,-0.0259275,0.000962192,0.0376076,-0.025942,0.0151431,0.0368959,0.0174571,1266,1730,1.99153,-230.897
49,-706,2.28503,231.104,0.0371552,-0.0262374,0.00124204,0.0371795,-0.0262617,0.0195828,0.0368082,0.0263568,1273,1730,2.28499,-231.104
56,-706,2.59094,231.206,0.0364408,-0.0261961,0.00170879,0.0364874,-0.0262427,0.0272539,0.0363779,0.0295431,1280,1730,2.59089,-231.206
63,-706,2.86682,231.317,0.035563,-0.0257629,0.00194645,0.0356247,-0.0258247,0.0316969,0.0356279,0.022774,1287,1730,2.86678,-231.317
70,-706,3.04846,231.331,0.0348831,-0.0255751,0.00228337,0.0349693,-0.0256612,0.0376961,0.0351422,0.0219854,1294,1730,3.04841,-231.331
77,-706,3.29114,231.219,0.0339566,-0.0244846,0.0023016,0.0340471,-0.0245752,0.0393019,0.0339925,0.0199915,1301,1730,3.29111,-231.219
84,-706,3.66333,231.148,0.0330812,-0.023307,0.00233073,0.0331774,-0.0234032,0.0412399,0.0328289,0.0141397,1308,1730,3.66333,-231.148
91,-706,3.90051,230.978,0.0322625,-0.0218541,0.00229847,0.03236,-0.0219516,0.0423708,0.0315481,0.0157924,1315,1730,3.90055,-230.978
98,-706,3.99524,230.728,0.0315842,-0.0200878,0.00235689,0.0316914,-0.0201951,0.0454866,0.0302008,0.0209534,1322,1730,3.99519,-230.728
105,-706,4.05798,230.495,0.0310713,-0.0182577,0.00235746,0.0311837,-0.0183701,0.0476458,0.028927,0.0237584,1329,1730,4.05792,-230.495
112,-706,4.08679,230.241,0.0309744,-0.016325,0.00220101,0.0310766,-0.0164272,0.0464,0.0278576,0.0237283,1336,1730,4.08685,-230.241
119,-706,4.21777,229.969,0.0310958,-0.0140846,0.00226121,0.0312087,-0.0141974,0.0498823,0.0268215,0.0320616,1343,1730,4.21776,-229.969
126,-706,4.53625,229.58,0,0,0,0,0,0,0,-1,1350,1730,4.5363,-229.58
133,-706,5.30151,228.309,0.0303565,-0.00890194,0.0026524,0.0305348,-0.00908033,0.0671559,0.0239638,0.0354896,1357,1730,5.30152,-228.309
140,-706,5.50122,227.429,0.0295288,-0.00676811,0.00276285,0.0297379,-0.00697721,0.0755381,0.0225143,0.0177055,1364,1730,5.50121,-227.429
147,-706,5.66223,226.678,0.0290511,-0.00468659,0.00292089,0.0293021,-0.0049376,0.0857266,0.0213716,0.0303243,1371,1730,5.66227,-226.678
154,-706,5.83228,225.876,0.0285583,-0.00259721,0.00293559,0.0288325,-0.0028714,0.0931315,0.0202468,0.0306044,1378,1730,5.8323,-225.876
161,-706,5.91797,224.879,0.0271947,-0.000823409,0.00287652,0.027487,-0.00111568,0.101259,0.0187077,0.0165345,1385,1730,5.91801,-224.879
168,-706,6.07776,223.896,0.0250194,0.000184573,0.00299155,0.0253747,-0.000170699,0.118205,0.0169736,0.0161184,1392,1730,6.07782,-223.896
175,-706,6.2843,222.902,0.0221661,0.00170813,0.00275126,0.0225297,0.00134459,0.131374,0.0145922,0.0147058,1399,1730,6.28433,-222.902
182,-706,6.24292,221.822,0.0194785,0.00171392,0.00269854,0.0198794,0.00131304,0.147475,0.0128377,0.016181,1406,1730,6.24294,-221.822
189,-706,6.21521,220.613,0.0169924,0.00221641,0.00239349,0.0173705,0.00183838,0.15665,0.0110188,0.0186801,1413,1730,6.21523,-220.613
196,-706,6.19116,219.434,0.0146614,0.00219464,0.00203677,0.0149858,0.00187032,0.157908,0.00942911,0.0216081,1420,1730,6.1912,-219.434
203,-706,6.20569,218.194,0.0126205,0.00204143,0.0014258,0.0128093,0.00185264,0.131647,0.00799386,0.0260404,1427,1730,6.2057,-218.194
210,-706,6.22729,216.746,0.0107914,0.00190803,0.000672236,0.010842,0.00185745,0.0751037,0.00669527,0.0205268,1434,1730,6.22727,-216.746
217,-706,6.1488,215.372,0.00888593,0.00187793,7.24821e-05,0.00888668,0.00187718,0.0103413,0.00540843,0.0198143,1441,1730,6.14886,-215.372
224,-706,6.09375,213.944,0.00723992,0.00199569,-0.00066424,0.00732275,0.00191287,-0.124052,0.00438554,0.0255913,1448,1730,6.09378,-213.944
231,-706,5.97937,212.423,0.0058773,0.00235415,-0.00146816,0.0064089,0.00182255,-0.347399,0.00381314,0.01841,1455,1730,5.97935,-212.423
238,-706,5.82007,210.887,0.00458638,0.00271676,-0.00204261,0.00589793,0.00140521,-0.570798,0.0035573,0.0124659,1462,1730,5.82012,-210.887
245,-706,5.68848,209.265,0.00326068,0.00306422,-0.00254219,0.00570653,0.000618367,-0.766088,0.0036159,0.0156531,1469,1730,5.68844,-209.265
252,-706,5.5199,207.659,0.00191758,0.00339662,-0.00296945,0.00571725,-0.000403056,-0.907437,0.00395271,0.0153311,1476,1730,5.51985,-207.659
259,-706,5.31738,205.998,0.000563505,0.00356719,-0.00329718,0.00568845,-0.00155776,-0.999105,0.00440436,0.0162022,1483,1730,5.31744,-205.998
266,-706,5.07214,204.285,-0.00089702,0.00369179,-0.00363013,0.00569182,-0.00289705,-1.06722,0.00504553,0.0180476,1490,1730,5.07215,-204.285
273,-706,4.81445,202.52,-0.00222961,0.00373208,-0.00400672,0.00574516,-0.00424268,-1.10521,0.00578819,0.0205878,1497,1730,4.81444,-202.52
280,-706,4.5835,200.712,-0.00338021,0.00393303,-0.00430658,0.00592597,-0.00537315,-1.13738,0.00652615,0.0159525,1504,1730,4.58348,-200.712
287,-706,4.28955,198.859,-0.00451063,0.00433224,-0.00452569,0.00623781,-0.0064162,-1.17227,0.00730604,0.0161565,1511,1730,4.28954,-198.859
294,-706,4.02258,196.968,-0.00568426,0.00431489,-0.00474075,0.0062052,-0.00757457,-1.19138,0.00796883,0.0166328,1518,1730,4.02259,-196.968
301,-706,3.71533,195.012,-0.00668118,0.00509157,-0.00515396,0.00702905,-0.00861866,-1.21122,0.00904974,0.0186491,1525,1730,3.71537,-195.012
308,-706,3.42139,193.091,-0.0074379,0.00587842,-0.00568005,0.00797206,-0.00953154,-1.21765,0.0101191,0.0444937,1532,1730,3.42138,-193.091
315,-706,3.06702,191.128,0,0,0,0,0,0,0,-1,1539,1730,3.06697,-191.128
322,-706,2.77576,189.106,0,0,0,0,0,0,0,-1,1546,1730,2.77578,-189.106
329,-706,2.17102,186.841,0,0,0,0,0,0,0,-1,1553,1730,2.17101,-186.841
336,-706,1.6731,184.865,0,0,0,0,0,0,0,-1,1560,1730,1.67313,-184.865
343,-706,7.05652,116.713,0,0,0,0,0,0,0,-1,1567,1730,7.05648,-116.713
350,-706,7.62781,110.214,0,0,0,0,0,0,0,-1,1574,1730,7.62775,-110.214
357,-706,9.70593,74.0184,0,0,0,0,0,0,0,-1,1581,1730,9.70594,-74.0184
364,-706,8.48877,66.5104,0,0,0,0,0,0,0,-1,1588,1730,8.48882,-66.5104
371,-706,8.6084,48.7302,0,0,0,0,0,0,0,-1,1595,1730,8.60844,-48.7303
378,-706,7.63867,44.0519,0,0,0,0,0,0,0,-1,1602,1730,7.63863,-44.0519
385,-706,7.3186,43.2451,0,0,0,0,0,0,0,-1,1609,1730,7.31862,-43.2451
392,-706,7.33728,42.4652,0,0,0,0,0,0,0,-1,1616,1730,7.3373,-42.4651
399,-706,7.51855,41.7692,0,0,0,0,0,0,0,-1,1623,1730,7.51855,-41.7691
406,-706,7.46301,40.9797,0,0,0,0,0,0,0,-1,1630,1730,7.46301,-40.9797
413,-706,8.43433,40.3345,0,0,0,0,0,0,0,-1,1637,1730,8.43428,-40.3344
420,-706,8.0636,39.6101,0,0,0,0,0,0,0,-1,1644,1730,8.06362,-39.6101
427,-706,0,0,0,0,0,0,0,0,0,-1,1651,1730,0,0
434,-706,0,0,0,0,0,0,0,0,0,-1,1658,1730,0,0
441,-706,0,0,0,0,0,0,0,0,0,-1,1665,1730,0,0
448,-706,0,0,0,0,0,0,0,0,0,-1,1672,1730,0,0
455,-706,0,0,0,0,0,0,0,0,0,-1,1679,1730,0,0
462,-706,0,0,0,0,0,0,0,0,0,-1,1686,1730,0,0
469,-706,0,0,0,0,0,0,0,0,0,-1,1693,1730,0,0
476,-706,0,0,0,0,0,0,0,0,0,-1,1700,1730,0,0
483,-706,0,0,0,0,0,0,0,0,0,-1,1707,1730,0,0
490,-706,0,0,0,0,0,0,0,0,0,-1,1714,1730,0,0
497,-706,0,0,0,0,0,0,0,0,0,-1,1721,1730,0,0
504,-706,0,0,0,0,0,0,0,0,0,-1,1728,1730,0,0
511,-706,0,0,0,0,0,0,0,0,0,-1,1735,1730,0,0
518,-706,0,0,0,0,0,0,0,0,0,-1,1742,1730,0,0
525,-706,0,0,0,0,0,0,0,0,0,-1,1749,1730,0,0
532,-706,0,0,0,0,0,0,0,0,0,-1,1756,1730,0,0
539,-706,0,0,0,0,0,0,0,0,0,-1,1763,1730,0,0
546,-706,0,0,0,0,0,0,0,0,0,-1,1770,1730,0,0
553,-706,0,0,0,0,0,0,0,0,0,-1,1777,1730,0,0
560,-706,0,0,0,0,0,0,0,0,0,-1,1784,1730,0,0
567,-706,0,0,0,0,0,0,0,0,0,-1,1791,1730,0,0
574,-706,0,0,0,0,0,0,0,0,0,-1,1798,1730,0,0
581,-706,0,0,0,0,0,0,0,0,0,-1,1805,1730,0,0
588,-706,0,0,0,0,0,0,0,0,0,-1,1812,1730,0,0
595,-706,0,0,0,0,0,0,0,0,0,-1,1819,1730,0,0
602,-706,0,0,0,0,0,0,0,0,0,-1,1826,1730,0,0
609,-706,0,0,0,0,0,0,0,0,0,-1,1833,1730,0,0
616,-706,0,0,0,0,0,0,0,0,0,-1,1840,1730,0,0
623,-706,0,0,0,0,0,0,0,0,0,-1,1847,1730,0,0
630,-706,0,0,0,0,0,0,0,0,0,-1,1854,1730,0,0
637,-706,0,0,0,0,0,0,0,0,0,-1,1861,1730,0,0
644,-706,0,0,0,0,0,0,0,0,0,-1,1868,1730,0,0
651,-706,0,0,0,0,0,0,0,0,0,-1,1875,1730,0,0
658,-706,0,0,0,0,0,0,0,0,0,-1,1882,1730,0,0
665,-706,0,0,0,0,0,0,0,0,0,-1,1889,1730,0,0
672,-706,0,0,0,0,0,0,0,0,0,-1,1896,1730,0,0
679,-706,0,0,0,0,0,0,0,0,0,-1,1903,1730,0,0
686,-706,0,0,0,0,0,0,0,0,0,-1,1910,1730,0,0
693,-706,0,0,0,0,0,0,0,0,0,-1,1917,1730,0,0
700,-706,0,0,0,0,0,0,0,0,0,-1,1924,1730,0,0
707,-706,0,0,0,0,0,0,0,0,0,-1,1931,1730,0,0
714,-706,0,0,0,0,0,0,0,0,0,-1,1938,1730,0,0
721,-706,0,0,0,0,0,0,0,0,0,-1,1945,1730,0,0
728,-706,0,0,0,0,0,0,0,0,0,-1,1952,1730,0,0
735,-706,0,0,0,0,0,0,0,0,0,-1,1959,1730,0,0
742,-706,0,0,0,0,0,0,0,0,0,-1,1966,1730,0,0
749,-706,0,0,0,0,0,0,0,0,0,-1,1973,1730,0,0
756,-706,0,0,0,0,0,0,0,0,0,-1,1980,1730,0,0
763,-706,0,0,0,0,0,0,0,0,0,-1,1987,1730,0,0
770,-706,0,0,0,0,0,0,0,0,0,-1,1994,1730,0,0
777,-706,0,0,0,0,0,0,0,0,0,-1,2001,1730,0,0
784,-706,0,0,0,0,0,0,0,0,0,-1,2008,1730,0,0
791,-706,0,0,0,0,0,0,0,0,0,-1,2015,1730,0,0
798,-706,0,0,0,0,0,0,0,0,0,-1,2022,1730,0,0
805,-706,0,0,0,0,0,0,0,0,0,-1,2029,1730,0,0
812,-706,0,0,0,0,0,0,0,0,0,-1,2036,1730,0,0
-700,-713,0,0,0,0,0,0,0,0,0,-1,524,1737,0,0
-693,-713,0,0,0,0,0,0,0,0,0,-1,531,1737,0,0
-686,-713,0,0,0,0,0,0,0,0,0,-1,538,1737,0,0
-679,-713,0,0,0,0,0,0,0,0,0,-1,545,1737,0,0
-672,-713,0,0,0,0,0,0,0,0,0,-1,552,1737,0,0
-665,-713,0,0,0,0,0,0,0,0,0,-1,559,1737,0,0
-658,-713,0,0,0,0,0,0,0,0,0,-1,566,1737,0,0
-651,-713,0,0,0,0,0,0,0,0,0,-1,573,1737,0,0
-644,-713,0,0,0,0,0,0,0,0,0,-1,580,1737,0,0
-637,-713,0,0,0,0,0,0,0,0,0,-1,587,1737,0,0
-630,-713,0,0,0,0,0,0,0,0,0,-1,594,1737,0,0
-623,-713,0,0,0,0,0,0,0,0,0,-1,601,1737,0,0
-616,-713,0,0,0,0,0,0,0,0,0,-1,608,1737,0,0
-609,-713,0,0,0,0,0,0,0,0,0,-1,615,1737,0,0
-602,-713,0,0,0,0,0,0,0,0,0,-1,622,1737,0,0
-595,-713,0,0,0,0,0,0,0,0,0,-1,629,1737,0,0
-588,-713,0,0,0,0,0,0,0,0,0,-1,636,1737,0,0
-581,-713,0,0,0,0,0,0,0,0,0,-1,643,1737,0,0
-574,-713,0,0,0,0,0,0,0,0,0,-1,650,1737,0,0
-567,-713,0,0,0,0,0,0,0,0,0,-1,657,1737,0,0
-560,-713,0,0,0,0,0,0,0,0,0,-1,664,1737,0,0
-553,-713,0,0,0,0,0,0,0,0,0,-1,671,1737,0,0
-546,-713,0,0,0,0,0,0,0,0,0,-1,678,1737,0,0
-539,-713,0,0,0,0,0,0,0,0,0,-1,685,1737,0,0
-532,-713,0,0,0,0,0,0,0,0,0,-1,692,1737,0,0
-525,-713,0,0,0,0,0,0,0,0,0,-1,699,1737,0,0
-518,-713,0,0,0,0,0,0,0,0,0,-1,706,1737,0,0
-511,-713,0,0,0,0,0,0,0,0,0,-1,713,1737,0,0
-504,-713,0,0,0,0,0,0,0,0,0,-1,720,1737,0,0
-497,-713,0,0,0,0,0,0,0,0,0,-1,727,1737,0,0
-490,-713,0,0,0,0,0,0,0,0,0,-1,734,1737,0,0
-483,-713,0,0,0,0,0,0,0,0,0,-1,741,1737,0,0
-476,-713,0,0,0,0,0,0,0,0,0,-1,748,1737,0,0
-469,-713,0,0,0,0,0,0,0,0,0,-1,755,1737,0,0
-462,-713,0,0,0,0,0,0,0,0,0,-1,762,1737,0,0
-455,-713,0,0,0,0,0,0,0,0,0,-1,769,1737,0,0
-448,-713,0,0,0,0,0,0,0,0,0,-1,776,1737,0,0
-441,-713,0,0,0,0,0,0,0,0,0,-1,783,1737,0,0
-434,-713,0,0,0,0,0,0,0,0,0,-1,790,1737,0,0
-427,-713,0,0,0,0,0,0,0,0,0,-1,797,1737,0,0
-420,-713,0,0,0,0,0,0,0,0,0,-1,804,1737,0,0
-413,-713,0,0,0,0,0,0,0,0,0,-1,811,1737,0,0
-406,-713,0,0,0,0,0,0,0,0,0,-1,818,1737,0,0
-399,-713,0,0,0,0,0,0,0,0,0,-1,825,1737,0,0
-392,-713,0,0,0,0,0,0,0,0,0,-1,832,1737,0,0
-385,-713,0,0,0,0,0,0,0,0,0,-1,839,1737,0,0
-378,-713,0,0,0,0,0,0,0,0,0,-1,846,1737,0,0
-371,-713,0,0,0,0,0,0,0,0,0,-1,853,1737,0,0
-364,-713,0,0,0,0,0,0,0,0,0,-1,860,1737,0,0
-357,-713,0,0,0,0,0,0,0,0,0,-1,867,1737,0,0
-350,-713,0,0,0,0,0,0,0,0,0,-1,874,1737,0,0
-343,-713,0,0,0,0,0,0,0,0,0,-1,881,1737,0,0
-336,-713,0,0,0,0,0,0,0,0,0,-1,888,1737,0,0
-329,-713,0,0,0,0,0,0,0,0,0,-1,895,1737,0,0
-322,-713,0,0,0,0,0,0,0,0,0,-1,902,1737,0,0
-315,-713,0,0,0,0,0,0,0,0,0,-1,909,1737,0,0
-308,-713,0,0,0,0,0,0,0,0,0,-1,916,1737,0,0
-301,-713,0,0,0,0,0,0,0,0,0,-1,923,1737,0,0
-294,-713,7.17883,22.0453,0,0,0,0,0,0,0,-1,930,1737,7.17881,-22.0453
-287,-713,11.8916,21.5834,0,0,0,0,0,0,0,-1,937,1737,11.8916,-21.5833
-280,-713,10.2786,21.3551,0,0,0,0,0,0,0,-1,944,1737,10.2787,-21.3551
-273,-713,11.1981,23.8683,0,0,0,0,0,0,0,-1,951,1737,11.198,-23.8683
-266,-713,3.17981,19.8851,0,0,0,0,0,0,0,-1,958,1737,3.17983,-19.8851
-259,-713,3.5921,19.6868,0,0,0,0,0,0,0,-1,965,1737,3.59207,-19.6868
-252,-713,4.55469,20.5758,0,0,0,0,0,0,0,-1,972,1737,4.55466,-20.5758
-245,-713,3.89014,25.9825,0,0,0,0,0,0,0,-1,979,1737,3.89013,-25.9826
-238,-713,6.62506,30.5463,0,0,0,0,0,0,0,-1,986,1737,6.62509,-30.5462
-231,-713,7.21271,66.0579,0,0,0,0,0,0,0,-1,993,1737,7.21272,-66.0579
-224,-713,7.43347,148.356,0,0,0,0,0,0,0,-1,1000,1737,7.43345,-148.356
-217,-713,6.81628,149.384,0,0,0,0,0,0,0,-1,1007,1737,6.81631,-149.384
-210,-713,7.06372,144.959,0,0,0,0,0,0,0,-1,1014,1737,7.06371,-144.959
-203,-713,6.74292,153.564,0,0,0,0,0,0,0,-1,1021,1737,6.74291,-153.564
-196,-713,6.07056,163.059,0,0,0,0,0,0,0,-1,1028,1737,6.0706,-163.059
-189,-713,5.66797,170.009,0,0,0,0,0,0,0,-1,1035,1737,5.66795,-170.009
-182,-713,5.18567,174.156,0,0,0,0,0,0,0,-1,1042,1737,5.18571,-174.156
-175,-713,4.99878,173.626,0,0,0,0,0,0,0,-1,1049,1737,4.99883,-173.626
-168,-713,3.97266,195.15,0,0,0,0,0,0,0,-1,1056,1737,3.97264,-195.15
-161,-713,3.68591,197.338,0,0,0,0,0,0,0,-1,1063,1737,3.68591,-197.338
-154,-713,3.24561,199.336,0,0,0,0,0,0,0,-1,1070,1737,3.24561,-199.336
-147,-713,3.00903,200.997,-0.00826327,0.00225464,0.00762717,0.00626015,-0.0122688,1.08722,0.0108836,0.0497874,1077,1737,3.00898,-200.997
-140,-713,2.66064,203.03,-0.00696142,0.000928911,0.00690784,0.00493878,-0.0109713,1.04485,0.0094032,0.0265645,1084,1737,2.66065,-203.03
-133,-713,2.40637,204.734,-0.00580772,0.000436454,0.00610511,0.00417146,-0.00954272,1.02176,0.00811779,0.0174017,1091,1737,2.40638,-204.734
-126,-713,2.20483,206.355,-0.00471846,0.000283228,0.00529732,0.00364036,-0.00807558,1.00594,0.00692388,0.0268255,1098,1737,2.20485,-206.355
-119,-713,1.98279,208.029,-0.0035167,0.000126008,0.00455355,0.00320895,-0.00659965,0.975645,0.00577468,0.0388755,1105,1737,1.98281,-208.029
-112,-713,1.73828,209.77,-0.00221934,0.000264015,0.00394587,0.00315896,-0.00511428,0.937832,0.00482082,0.0184858,1112,1737,1.73834,-209.77
-105,-713,1.53857,211.306,-0.000861441,0.000378689,0.0032358,0.00305329,-0.00353605,0.880064,0.00380776,0.0175158,1119,1737,1.53861,-211.306
-98,-713,1.36877,212.853,0.000563925,0.000495897,0.00254519,0.00307532,-0.0020155,0.778717,0.00296034,0.017114,1126,1737,1.3688,-212.853
-91,-713,1.25476,214.353,0.00209443,0.000173547,0.00180633,0.00317978,-0.000911803,0.541052,0.0024803,0.0161319,1133,1737,1.25473,-214.353
-84,-713,1.09802,215.805,0.00380324,-0.00010057,0.00101163,0.00404981,-0.000347147,0.239081,0.00282272,0.0159466,1140,1737,1.098,-215.805
-77,-713,0.945679,217.134,0.00554735,-0.000506495,0.000280638,0.00556033,-0.000519477,0.0462248,0.00389162,0.0214997,1147,1737,0.945709,-217.134
-70,-713,0.896362,218.437,0.00717304,-0.00112807,-0.000381185,0.00719051,-0.00114554,-0.0457913,0.00521761,0.0220428,1154,1737,0.896421,-218.437
-63,-713,0.821777,219.754,0.00894919,-0.00211877,-0.000901436,0.00902213,-0.00219171,-0.0807364,0.00686298,0.018148,1161,1737,0.821809,-219.754
-56,-713,0.759399,220.92,0.0107784,-0.00315041,-0.00135588,0.0109091,-0.00328117,-0.0961414,0.00857826,0.0180198,1168,1737,0.759413,-220.92
-49,-713,0.716309,222.066,0.0124239,-0.00432603,-0.00174015,0.0126028,-0.0045049,-0.102432,0.0102393,0.022285,1175,1737,0.716251,-222.066
-42,-713,0.744019,223.245,0.013889,-0.00551005,-0.00192068,0.0140774,-0.00569839,-0.0977444,0.0117542,0.0261816,1182,1737,0.744004,-223.246
-35,-713,0.867188,224.212,0.0153943,-0.00683044,-0.00198377,0.0155699,-0.00700612,-0.088329,0.0133432,0.0215812,1189,1737,0.867129,-224.212
-28,-713,0.912354,225.172,0.0169958,-0.00825596,-0.00197898,0.0171499,-0.00841011,-0.0777378,0.0150419,0.0195486,1196,1737,0.912322,-225.172
-21,-713,0.928101,226.028,0.0185151,-0.00978874,-0.00177694,0.0186262,-0.00989986,-0.062454,0.0167244,0.0152404,1203,1737,0.928106,-226.028
-14,-713,1,226.843,0.0198712,-0.0112018,-0.00153344,0.0199467,-0.0112773,-0.0491904,0.0182573,0.016436,1210,1737,0.999973,-226.843
-7,-713,1.14636,227.683,0.0211694,-0.0123483,-0.00130538,0.0212202,-0.012399,-0.0388676,0.0196315,0.0122791,1217,1737,1.14633,-227.683
0,-713,1.27405,228.369,0.0224324,-0.0133154,-0.000987522,0.0224597,-0.0133427,-0.0275966,0.0208927,0.0171943,1224,1737,1.27403,-228.369
7,-713,1.33606,228.954,0.0235543,-0.0142464,-0.000624123,0.0235646,-0.0142567,-0.0165049,0.0220555,0.0216587,1231,1737,1.33611,-228.954
14,-713,1.40808,229.521,0.0245031,-0.0152026,-0.000180119,0.0245039,-0.0152034,-0.00453622,0.0231337,0.0195554,1238,1737,1.40813,-229.521
21,-713,1.64124,230.02,0.0252981,-0.0162707,0.000131749,0.0252985,-0.0162711,0.00316937,0.0241881,0.0173135,1245,1737,1.64124,-230.02
28,-713,1.85339,230.48,0.0262691,-0.0171356,0.000367868,0.0262722,-0.0171387,0.00847449,0.0252476,0.0150375,1252,1737,1.85344,-230.48
35,-713,2.03601,230.786,0.0272664,-0.0176635,0.000577969,0.0272738,-0.0176709,0.012861,0.0261455,0.0160745,1259,1737,2.03597,-230.786
42,-713,2.25781,231.03,0.0276579,-0.0178602,0.000733612,0.0276697,-0.0178721,0.0161113,0.0264956,0.0146999,1266,1737,2.25781,-231.03
49,-713,2.4292,231.132,0.0274513,-0.0181734,0.0009375,0.0274705,-0.0181926,0.0205366,0.0265444,0.0314698,1273,1737,2.42922,-231.132
56,-713,2.57373,231.166,0.0270176,-0.0181803,0.00129951,0.027055,-0.0182177,0.02872,0.0263036,0.0428271,1280,1737,2.57376,-231.166
63,-713,2.83667,231.363,0.0263841,-0.0178196,0.00146872,0.0264329,-0.0178683,0.0331773,0.0257362,0.0327243,1287,1737,2.83666,-231.363
70,-713,3.05444,231.512,0.0258258,-0.0175051,0.00165601,0.025889,-0.0175683,0.0381435,0.0252429,0.0177228,1294,1737,3.05438,-231.512
77,-713,3.25464,231.467,0.0250748,-0.0164201,0.00153638,0.0251316,-0.0164769,0.0369583,0.0241953,0.0176928,1301,1737,3.25463,-231.467
84,-713,3.5199,231.338,0.0243082,-0.0152786,0.00142398,0.0243593,-0.0153298,0.0359092,0.0231114,0.0158407,1308,1737,3.51989,-231.338
91,-713,3.69275,231.138,0.0235601,-0.0139198,0.0012728,0.0236033,-0.013963,0.0339075,0.0219257,0.0160339,1315,1737,3.69278,-231.138
98,-713,3.75818,230.854,0.022903,-0.0123299,0.00119406,0.0229434,-0.0123704,0.0338388,0.0206908,0.0163605,1322,1737,3.75816,-230.854
105,-713,3.79968,230.557,0.0224013,-0.0107294,0.00108884,0.022437,-0.0107652,0.0328177,0.0195601,0.0185313,1329,1737,3.79968,-230.557
112,-713,3.86169,230.271,0.0221787,-0.00907008,0.000848723,0.0222017,-0.00909312,0.0271336,0.0185889,0.0188537,1336,1737,3.86172,-230.271
119,-713,3.92114,230.042,0.0220424,-0.00727461,0.000761236,0.0220621,-0.00729437,0.0259424,0.0176494,0.0270255,1343,1737,3.92116,-230.042
126,-713,4.22021,229.429,0.0218036,-0.00525064,0.000877842,0.021832,-0.00527909,0.0324021,0.0165967,0.0390264,1350,1737,4.2202,-229.429
133,-713,4.50916,228.491,0.0212305,-0.00352258,0.000916053,0.0212643,-0.00355643,0.0369403,0.0154983,0.0299542,1357,1737,4.50914,-228.491
140,-713,4.72888,227.559,0.020492,-0.00210084,0.000959553,0.0205327,-0.00214152,0.0423698,0.0144553,0.0186009,1364,1737,4.72887,-227.559
147,-713,4.83154,226.74,0.0199623,-0.000764019,0.00103123,0.0200135,-0.000815201,0.0495917,0.0136222,0.01817,1371,1737,4.8316,-226.74
154,-713,4.86646,225.972,0.019381,0.000555967,0.00101557,0.0194357,0.000501337,0.0537399,0.0127933,0.0193552,1378,1737,4.86651,-225.972
161,-713,4.94727,224.984,0.0181457,0.0015969,0.000931416,0.018198,0.00154464,0.056047,0.0116513,0.0164845,1385,1737,4.94727,-224.984
168,-713,5.03052,223.936,0.0162996,0.00211528,0.000986857,0.0163679,0.00204695,0.06913,0.0102977,0.0160983,1392,1737,5.03055,-223.936
175,-713,5.06116,222.919,0.0140043,0.00295042,0.000797017,0.0140615,0.00289325,0.0716093,0.00857418,0.0184538,1399,1737,5.06116,-222.919
182,-713,5.04248,221.874,0.0118401,0.00291326,0.000658583,0.0118884,0.00286493,0.0732471,0.00716419,0.0177065,1406,1737,5.04247,-221.874
189,-713,5.02124,220.715,0.00987819,0.00341935,0.000228719,0.00988628,0.00341126,0.0353527,0.00579849,0.0150242,1413,1737,5.02119,-220.715
196,-713,4.99597,219.495,0.00804049,0.00355419,-0.000266948,0.00805632,0.00353837,-0.0592245,0.00466277,0.0184597,1420,1737,4.99602,-219.495
203,-713,4.96387,218.258,0.00641562,0.00371084,-0.000965432,0.00672486,0.0034016,-0.309988,0.00388269,0.0267842,1427,1737,4.96387,-218.258
210,-713,4.89172,216.823,0.00486051,0.00398008,-0.00170374,0.00617999,0.0026606,-0.658972,0.00357949,0.024607,1434,1737,4.89172,-216.823
217,-713,4.75476,215.399,0.00326228,0.00430554,-0.00231429,0.00615626,0.00141156,-0.896243,0.00372392,0.0204132,1441,1737,4.75472,-215.399
224,-713,4.59705,214.073,0.00189008,0.00470993,-0.00296465,0.00658285,1.71603e-05,-1.00736,0.00438286,0.0179802,1448,1737,4.59707,-214.072
231,-713,4.45898,212.581,0.000590904,0.00526111,-0.00361099,0.00722624,-0.00137422,-1.07241,0.00533489,0.0150485,1455,1737,4.45895,-212.581
238,-713,4.27954,211.051,-0.000747084,0.00569904,-0.004081,0.00767624,-0.00272428,-1.11963,0.00622749,0.0110239,1462,1737,4.27952,-211.051
245,-713,4.11377,209.454,-0.00206619,0.00601004,-0.00451286,0.00802769,-0.00408384,-1.15037,0.0071151,0.0149584,1469,1737,4.11383,-209.454
252,-713,3.90771,207.802,-0.00334774,0.00622865,-0.00484505,0.00825231,-0.0053714,-1.17515,0.00792406,0.0169907,1476,1737,3.90767,-207.802
259,-713,3.69177,206.099,-0.00460157,0.0062658,-0.00504593,0.00824739,-0.00658316,-1.19659,0.00858038,0.0170613,1483,1737,3.69174,-206.099
266,-713,3.40967,204.435,-0.00601317,0.00621026,-0.00523417,0.00814526,-0.00794816,-1.21669,0.00929177,0.0171407,1490,1737,3.40962,-204.435
273,-713,3.08313,202.713,-0.00722677,0.00606249,-0.00554479,0.0080721,-0.00923638,-1.22309,0.0100006,0.0155753,1497,1737,3.08312,-202.713
280,-713,2.80542,200.868,-0.00819262,0.00617708,-0.00577187,0.00820833,-0.0102239,-1.23241,0.010663,0.0237385,1504,1737,2.80544,-200.868
287,-713,2.48547,198.946,0,0,0,0,0,0,0,-1,1511,1737,2.48551,-198.946
294,-713,2.2041,197.288,0,0,0,0,0,0,0,-1,1518,1737,2.20405,-197.288
301,-713,1.84265,195.2,0,0,0,0,0,0,0,-1,1525,1737,1.84271,-195.2
308,-713,1.47107,192.963,0,0,0,0,0,0,0,-1,1532,1737,1.47106,-192.963
315,-713,4.76782,141.305,0,0,0,0,0,0,0,-1,1539,1737,4.76787,-141.305
322,-713,4.67871,138.236,0,0,0,0,0,0,0,-1,1546,1737,4.67868,-138.236
329,-713,7.14905,111.23,0,0,0,0,0,0,0,-1,1553,1737,7.14908,-111.23
336,-713,8.6969,74.4496,0,0,0,0,0,0,0,-1,1560,1737,8.69687,-74.4496
343,-713,7.68018,74.9004,0,0,0,0,0,0,0,-1,1567,1737,7.68017,-74.9004
350,-713,7.80676,74.0605,0,0,0,0,0,0,0,-1,1574,1737,7.8068,-74.0605
357,-713,8.38928,70.3881,0,0,0,0,0,0,0,-1,1581,1737,8.38932,-70.3881
364,-713,7.52661,46.5348,0,0,0,0,0,0,0,-1,1588,1737,7.52664,-46.5347
371,-713,7.3302,45.0861,0,0,0,0,0,0,0,-1,1595,1737,7.33021,-45.0861
378,-713,6.73975,44.3853,0,0,0,0,0,0,0,-1,1602,1737,6.7397,-44.3853
385,-713,6.58777,43.6438,0,0,0,0,0,0,0,-1,1609,1737,6.58781,-43.6438
392,-713,6.62964,42.8679,0,0,0,0,0,0,0,-1,1616,1737,6.62968,-42.868
399,-713,6.53748,42.0555,0,0,0,0,0,0,0,-1,1623,1737,6.53749,-42.0555
406,-713,2.49878,27.8931,0,0,0,0,0,0,0,-1,1630,1737,2.49884,-27.893
413,-713,1.36597,29.459,0,0,0,0,0,0,0,-1,1637,1737,1.36593,-29.459
420,-713,0,0,0,0,0,0,0,0,0,-1,1644,1737,0,0
427,-713,0,0,0,0,0,0,0,0,0,-1,1651,1737,0,0
434,-713,0,0,0,0,0,0,0,0,0,-1,1658,1737,0,0
441,-713,0,0,0,0,0,0,0,0,0,-1,1665,1737,0,0
448,-713,0,0,0,0,0,0,0,0,0,-1,1672,1737,0,0
455,-713,0,0,0,0,0,0,0,0,0,-1,1679,1737,0,0
462,-713,0,0,0,0,0,0,0,0,0,-1,1686,1737,0,0
469,-713,0,0,0,0,0,0,0,0,0,-1,1693,1737,0,0
476,-713,0,0,0,0,0,0,0,0,0,-1,1700,1737,0,0
483,-713,0,0,0,0,0,0,0,0,0,-1,1707,1737,0,0
490,-713,0,0,0,0,0,0,0,0,0,-1,1714,1737,0,0
497,-713,0,0,0,0,0,0,0,0,0,-1,1721,1737,0,0
504,-713,0,0,0,0,0,0,0,0,0,-1,1728,1737,0,0
511,-713,0,0,0,0,0,0,0,0,0,-1,1735,1737,0,0
518,-713,0,0,0,0,0,0,0,0,0,-1,1742,1737,0,0
525,-713,0,0,0,0,0,0,0,0,0,-1,1749,1737,0,0
532,-713,0,0,0,0,0,0,0,0,0,-1,1756,1737,0,0
539,-713,0,0,0,0,0,0,0,0,0,-1,1763,1737,0,0
546,-713,0,0,0,0,0,0,0,0,0,-1,1770,1737,0,0
553,-713,0,0,0,0,0,0,0,0,0,-1,1777,1737,0,0
560,-713,0,0,0,0,0,0,0,0,0,-1,1784,1737,0,0
567,-713,0,0,0,0,0,0,0,0,0,-1,1791,1737,0,0
574,-713,0,0,0,0,0,0,0,0,0,-1,1798,1737,0,0
581,-713,0,0,0,0,0,0,0,0,0,-1,1805,1737,0,0
588,-713,0,0,0,0,0,0,0,0,0,-1,1812,1737,0,0
595,-713,0,0,0,0,0,0,0,0,0,-1,1819,1737,0,0
602,-713,0,0,0,0,0,0,0,0,0,-1,1826,1737,0,0
609,-713,0,0,0,0,0,0,0,0,0,-1,1833,1737,0,0
616,-713,0,0,0,0,0,0,0,0,0,-1,1840,1737,0,0
623,-713,0,0,0,0,0,0,0,0,0,-1,1847,1737,0,0
630,-713,0,0,0,0,0,0,0,0,0,-1,1854,1737,0,0
637,-713,0,0,0,0,0,0,0,0,0,-1,1861,1737,0,0
644,-713,0,0,0,0,0,0,0,0,0,-1,1868,1737,0,0
651,-713,0,0,0,0,0,0,0,0,0,-1,1875,1737,0,0
658,-713,0,0,0,0,0,0,0,0,0,-1,1882,1737,0,0
665,-713,0,0,0,0,0,0,0,0,0,-1,1889,1737,0,0
672,-713,0,0,0,0,0,0,0,0,0,-1,1896,1737,0,0
679,-713,0,0,0,0,0,0,0,0,0,-1,1903,1737,0,0
686,-713,0,0,0,0,0,0,0,0,0,-1,1910,1737,0,0
693,-713,0,0,0,0,0,0,0,0,0,-1,1917,1737,0,0
700,-713,0,0,0,0,0,0,0,0,0,-1,1924,1737,0,0
707,-713,0,0,0,0,0,0,0,0,0,-1,1931,1737,0,0
714,-713,0,0,0,0,0,0,0,0,0,-1,1938,1737,0,0
721,-713,0,0,0,0,0,0,0,0,0,-1,1945,1737,0,0
728,-713,0,0,0,0,0,0,0,0,0,-1,1952,1737,0,0
735,-713,0,0,0,0,0,0,0,0,0,-1,1959,1737,0,0
742,-713,0,0,0,0,0,0,0,0,0,-1,1966,1737,0,0
749,-713,0,0,0,0,0,0,0,0,0,-1,1973,1737,0,0
756,-713,0,0,0,0,0,0,0,0,0,-1,1980,1737,0,0
763,-713,0,0,0,0,0,0,0,0,0,-1,1987,1737,0,0
770,-713,0,0,0,0,0,0,0,0,0,-1,1994,1737,0,0
777,-713,0,0,0,0,0,0,0,0,0,-1,2001,1737,0,0
784,-713,0,0,0,0,0,0,0,0,0,-1,2008,1737,0,0
791,-713,0,0,0,0,0,0,0,0,0,-1,2015,1737,0,0
798,-713,0,0,0,0,0,0,0,0,0,-1,2022,1737,0,0
805,-713,0,0,0,0,0,0,0,0,0,-1,2029,1737,0,0
812,-713,0,0,0,0,0,0,0,0,0,-1,2036,1737,0,0
-700,-720,0,0,0,0,0,0,0,0,0,-1,524,1744,0,0
-693,-720,0,0,0,0,0,0,0,0,0,-1,531,1744,0,0
-686,-720,0,0,0,0,0,0,0,0,0,-1,538,1744,0,0
-679,-720,0,0,0,0,0,0,0,0,0,-1,545,1744,0,0
-672,-720,0,0,0,0,0,0,0,0,0,-1,552,1744,0,0
-665,-720,0,0,0,0,0,0,0,0,0,-1,559,1744,0,0
-658,-720,0,0,0,0,0,0,0,0,0,-1,566,1744,0,0
-651,-720,0,0,0,0,0,0,0,0,0,-1,573,1744,0,0
-644,-720,0,0,0,0,0,0,0,0,0,-1,580,1744,0,0
-637,-720,0,0,0,0,0,0,0,0,0,-1,587,1744,0,0
-630,-720,0,0,0,0,0,0,0,0,0,-1,594,1744,0,0
-623,-720,0,0,0,0,0,0,0,0,0,-1,601,1744,0,0
-616,-720,0,0,0,0,0,0,0,0,0,-1,608,1744,0,0
-609,-720,0,0,0,0,0,0,0,0,0,-1,615,1744,0,0
-602,-720,0,0,0,0,0,0,0,0,0,-1,622,1744,0,0
-595,-720,0,0,0,0,0,0,0,0,0,-1,629,1744,0,0
-588,-720,0,0,0,0,0,0,0,0,0,-1,636,1744,0,0
-581,-720,0,0,0,0,0,0,0,0,0,-1,643,1744,0,0
-574,-720,0,0,0,0,0,0,0,0,0,-1,650,1744,0,0
-567,-720,0,0,0,0,0,0,0,0,0,-1,657,1744,0,0
-560,-720,0,0,0,0,0,0,0,0,0,-1,664,1744,0,0
-553,-720,0,0,0,0,0,0,0,0,0,-1,671,1744,0,0
-546,-720,0,0,0,0,0,0,0,0,0,-1,678,1744,0,0
-539,-720,0,0,0,0,0,0,0,0,0,-1,685,1744,0,0
-532,-720,0,0,0,0,0,0,0,0,0,-1,692,1744,0,0
-525,-720,0,0,0,0,0,0,0,0,0,-1,699,1744,0,0
-518,-720,0,0,0,0,0,0,0,0,0,-1,706,1744,0,0
-511,-720,0,0,0,0,0,0,0,0,0,-1,713,1744,0,0
-504,-720,0,0,0,0,0,0,0,0,0,-1,720,1744,0,0
-497,-720,0,0,0,0,0,0,0,0,0,-1,727,1744,0,0
-490,-720,0,0,0,0,0,0,0,0,0,-1,734,1744,0,0
-483,-720,0,0,0,0,0,0,0,0,0,-1,741,1744,0,0
-476,-720,0,0,0,0,0,0,0,0,0,-1,748,1744,0,0
-469,-720,0,0,0,0,0,0,0,0,0,-1,755,1744,0,0
-462,-720,0,0,0,0,0,0,0,0,0,-1,762,1744,0,0
-455,-720,0,0,0,0,0,0,0,0,0,-1,769,1744,0,0
-448,-720,0,0,0,0,0,0,0,0,0,-1,776,1744,0,0
-441,-720,0,0,0,0,0,0,0,0,0,-1,783,1744,0,0
-434,-720,0,0,0,0,0,0,0,0,0,-1,790,1744,0,0
-427,-720,0,0,0,0,0,0,0,0,0,-1,797,1744,0,0
-420,-720,0,0,0,0,0,0,0,0,0,-1,804,1744,0,0
-413,-720,0,0,0,0,0,0,0,0,0,-1,811,1744,0,0
-406,-720,0,0,0,0,0,0,0,0,0,-1,818,1744,0,0
-399,-720,0,0,0,0,0,0,0,0,0,-1,825,1744,0,0
-392,-720,0,0,0,0,0,0,0,0,0,-1,832,1744,0,0
-385,-720,0,0,0,0,0,0,0,0,0,-1,839,1744,0,0
-378,-720,0,0,0,0,0,0,0,0,0,-1,846,1744,0,0
-371,-720,0,0,0,0,0,0,0,0,0,-1,853,1744,0,0
-364,-720,0,0,0,0,0,0,0,0,0,-1,860,1744,0,0
-357,-720,0,0,0,0,0,0,0,0,0,-1,867,1744,0,0
-350,-720,0,0,0,0,0,0,0,0,0,-1,874,1744,0,0
-343,-720,0,0,0,0,0,0,0,0,0,-1,881,1744,0,0
-336,-720,0,0,0,0,0,0,0,0,0,-1,888,1744,0,0
-329,-720,0,0,0,0,0,0,0,0,0,-1,895,1744,0,0
-322,-720,0,0,0,0,0,0,0,0,0,-1,902,1744,0,0
-315,-720,0,0,0,0,0,0,0,0,0,-1,909,1744,0,0
-308,-720,0,0,0,0,0,0,0,0,0,-1,916,1744,0,0
-301,-720,0,0,0,0,0,0,0,0,0,-1,923,1744,0,0
-294,-720,0,0,0,0,0,0,0,0,0,-1,930,1744,0,0
-287,-720,0,0,0,0,0,0,0,0,0,-1,937,1744,0,0
-280,-720,6.46796,22.6417,0,0,0,0,0,0,0,-1,944,1744,6.46793,-22.6417
-273,-720,8.54633,13.262,0,0,0,0,0,0,0,-1,951,1744,8.54636,-13.2619
-266,-720,7.28027,13.3165,0,0,0,0,0,0,0,-1,958,1744,7.28026,-13.3166
-259,-720,3.70563,18.6372,0,0,0,0,0,0,0,-1,965,1744,3.70564,-18.6372
-252,-720,4.00989,18.5059,0,0,0,0,0,0,0,-1,972,1744,4.00988,-18.5058
-245,-720,7.05634,33.8489,0,0,0,0,0,0,0,-1,979,1744,7.05634,-33.8489
-238,-720,5.02216,24.1455,0,0,0,0,0,0,0,-1,986,1744,5.02217,-24.1455
-231,-720,6.70276,67.9242,0,0,0,0,0,0,0,-1,993,1744,6.70275,-67.9241
-224,-720,6.97144,68.5684,0,0,0,0,0,0,0,-1,1000,1744,6.97145,-68.5683
-217,-720,7.24011,69.2125,0,0,0,0,0,0,0,-1,1007,1744,7.24014,-69.2125
-210,-720,10.3088,111.446,0,0,0,0,0,0,0,-1,1014,1744,10.3088,-111.446
-203,-720,9.59778,112.807,0,0,0,0,0,0,0,-1,1021,1744,9.59784,-112.807
-196,-720,8.09326,115.036,0,0,0,0,0,0,0,-1,1028,1744,8.0932,-115.036
-189,-720,8.34021,119.394,0,0,0,0,0,0,0,-1,1035,1744,8.34021,-119.394
-182,-720,7.50964,146.051,0,0,0,0,0,0,0,-1,1042,1744,7.50961,-146.051
-175,-720,7.68542,137.635,0,0,0,0,0,0,0,-1,1049,1744,7.68541,-137.635
-168,-720,7.77344,132.664,0,0,0,0,0,0,0,-1,1056,1744,7.77339,-132.664
-161,-720,7.3114,137.663,0,0,0,0,0,0,0,-1,1063,1744,7.31145,-137.663
-154,-720,7.31335,137.407,0,0,0,0,0,0,0,-1,1070,1744,7.31335,-137.407
-147,-720,4.82776,200.865,0,0,0,0,0,0,0,-1,1077,1744,4.82775,-200.865
-140,-720,4.34692,203.282,0,0,0,0,0,0,0,-1,1084,1744,4.34693,-203.282
-133,-720,3.98987,204.854,0,0,0,0,0,0,0,-1,1091,1744,3.98988,-204.854
-126,-720,3.77234,206.626,-0.00975078,0.00171825,0.00798809,0.00581706,-0.0138496,1.09671,0.011666,0.0239605,1098,1744,3.7723,-206.626
-119,-720,3.53943,208.266,-0.00886591,0.00164727,0.00716108,0.00527397,-0.0124926,1.10201,0.010536,0.0255452,1105,1744,3.53939,-208.266
-112,-720,3.271,209.931,-0.00780333,0.00214863,0.00658145,0.00542345,-0.0110782,1.10908,0.00971188,0.020587,1112,1744,3.27102,-209.931
-105,-720,3.03552,211.494,-0.00663824,0.00261366,0.005891,0.00547792,-0.00950251,1.11824,0.00875238,0.0193199,1119,1744,3.03555,-211.494
-98,-720,2.81653,213.006,-0.00539564,0.00311178,0.00526408,0.00562598,-0.00790985,1.12522,0.0078519,0.0153215,1126,1744,2.81653,-213.006
-91,-720,2.62048,214.475,-0.00412253,0.00298974,0.00463146,0.00527283,-0.00640562,1.1128,0.00675312,0.0135009,1133,1744,2.62047,-214.475
-84,-720,2.39282,215.949,-0.00275955,0.00284208,0.00382524,0.00478226,-0.00469973,1.1014,0.00547449,0.0194433,1140,1744,2.39281,-215.949
-77,-720,2.21008,217.324,-0.00126127,0.00260163,0.00300286,0.00424057,-0.00290021,1.07119,0.00414687,0.0297347,1147,1744,2.21011,-217.324
-70,-720,2.13977,218.587,4.33629e-05,0.00235536,0.00217764,0.00366481,-0.00126609,1.02941,0.00295701,0.0203632,1154,1744,2.13979,-218.587
-63,-720,2.03564,219.869,0.00149569,0.00176786,0.00144001,0.0030782,0.000185351,0.83251,0.00199322,0.016704,1161,1744,2.03568,-219.869
-56,-720,1.93628,220.998,0.00299859,0.000899135,0.000741208,0.0032339,0.000663826,0.307403,0.00197225,0.0211495,1168,1744,1.93626,-220.998
-49,-720,1.84827,222.181,0.00425847,0.000161442,8.61054e-05,0.00426028,0.000159633,0.0210042,0.0027885,0.0258281,1175,1744,1.84829,-222.181
-42,-720,1.81213,223.249,0.00544293,-0.000451368,-0.000385518,0.00546804,-0.000476476,-0.0650359,0.00381412,0.0271424,1182,1744,1.81215,-223.249
-35,-720,1.82178,224.296,0.00664892,-0.00126778,-0.000768728,0.00672287,-0.00134174,-0.0959082,0.00498966,0.0267069,1189,1744,1.82177,-224.296
-28,-720,1.8429,225.281,0.00793299,-0.00224305,-0.000969408,0.00802452,-0.00233458,-0.0941355,0.00627436,0.0172305,1196,1744,1.84284,-225.281
-21,-720,1.79724,226.201,0.00917851,-0.00323417,-0.000974033,0.00925448,-0.00331014,-0.0778359,0.00751993,0.0130251,1203,1744,1.79719,-226.201
-14,-720,1.86572,227.013,0.0103239,-0.00409395,-0.00093771,0.0103846,-0.00415468,-0.064675,0.00864733,0.0157804,1210,1744,1.86578,-227.013
-7,-720,1.94189,227.823,0.0114206,-0.00479258,-0.00087948,0.0114681,-0.00484015,-0.0540336,0.00967132,0.0171324,1217,1744,1.94191,-227.823
0,-720,1.90723,228.504,0.0124925,-0.00528099,-0.000714004,0.0125211,-0.00530963,-0.0400863,0.0105715,0.0171157,1224,1744,1.90721,-228.504
7,-720,1.93384,229.039,0.0134922,-0.00594855,-0.000488495,0.0135045,-0.00596082,-0.0251062,0.0115162,0.0205868,1231,1744,1.93382,-229.039
14,-720,1.98328,229.613,0.0144357,-0.00675738,-0.000217241,0.0144379,-0.00675961,-0.0102491,0.0125031,0.0209557,1238,1744,1.98334,-229.613
21,-720,2.10693,230.133,0.0152757,-0.00760345,-1.14142e-05,0.0152757,-0.00760346,-0.000498892,0.0134546,0.0187868,1245,1744,2.10688,-230.133
28,-720,2.22717,230.564,0.016212,-0.00848469,0.000138529,0.0162128,-0.00848547,0.00560898,0.0144903,0.0158345,1252,1744,2.22722,-230.564
35,-720,2.33459,230.869,0.0171809,-0.00921199,0.00027644,0.0171838,-0.00921488,0.0104725,0.015471,0.0150621,1259,1744,2.3346,-230.869
42,-720,2.45178,231.167,0.0176673,-0.00966464,0.000368444,0.0176722,-0.0096696,0.0134771,0.0160096,0.0145129,1266,1744,2.45181,-231.167
49,-720,2.573,231.342,0.017665,-0.0101067,0.000490691,0.0176737,-0.0101154,0.0176614,0.0162406,0.0320861,1273,1744,2.57295,-231.342
56,-720,2.63855,231.431,0.0174926,-0.010355,0.00068764,0.0175095,-0.0103719,0.024673,0.0162722,0.0352941,1280,1744,2.6386,-231.431
63,-720,2.82483,231.525,0.0170987,-0.010254,0.000746099,0.0171191,-0.0102743,0.02725,0.0159793,0.0315933,1287,1744,2.8248,-231.524
70,-720,3.04688,231.576,0.0166936,-0.00998145,0.000770701,0.0167158,-0.0100037,0.0288602,0.0155879,0.023047,1294,1744,3.04688,-231.576
77,-720,3.18896,231.523,0.0161302,-0.00913315,0.000536831,0.0161416,-0.00914456,0.0212366,0.0147841,0.0267746,1301,1744,3.18901,-231.523
84,-720,3.34424,231.284,0.0154912,-0.00816694,0.00030045,0.015495,-0.00817075,0.0126969,0.0138798,0.0248952,1308,1744,3.34425,-231.284
91,-720,3.51831,231.021,0.0148595,-0.00701525,4.74875e-05,0.0148596,-0.00701536,0.00217087,0.0128973,0.028694,1315,1744,3.51836,-231.021
98,-720,3.52161,230.804,0.0142913,-0.00568929,-0.000151014,0.0142924,-0.00569043,-0.00755748,0.0118881,0.0261474,1322,1744,3.52163,-230.804
105,-720,3.5293,230.551,0.0138513,-0.00432897,-0.000357335,0.0138583,-0.00433599,-0.019645,0.0109736,0.0197695,1329,1744,3.52934,-230.551
112,-720,3.55505,230.226,0.0135888,-0.0029218,-0.000652579,0.0136146,-0.00294755,-0.0394428,0.0102018,0.0153318,1336,1744,3.5551,-230.226
119,-720,3.58289,229.86,0.0133027,-0.00146075,-0.000801259,0.0133461,-0.00150411,-0.0540614,0.00943879,0.018836,1343,1744,3.58292,-229.86
126,-720,3.73645,229.175,0.0129925,-9.11474e-06,-0.000749308,0.0130355,-5.21569e-05,-0.0573788,0.00870779,0.0217103,1350,1744,3.73648,-229.175
133,-720,3.89551,228.37,0.0125037,0.00116298,-0.000738398,0.0125516,0.00111511,-0.0647459,0.0080219,0.0193186,1357,1744,3.89557,-228.37
140,-720,3.9718,227.656,0.0118406,0.0020575,-0.000711932,0.0118922,0.00200597,-0.0722641,0.00735125,0.0231452,1364,1744,3.97183,-227.656
147,-720,4.00354,226.784,0.0112496,0.00280381,-0.000651779,0.0112996,0.0027538,-0.0765674,0.00680354,0.023806,1371,1744,4.00357,-226.784
154,-720,4.01184,225.95,0.0105551,0.00351154,-0.000649477,0.0106145,0.00345215,-0.0911841,0.00625182,0.0171908,1378,1744,4.01182,-225.95
161,-720,4.04626,225.059,0.00935937,0.00401256,-0.000690111,0.009447,0.00392493,-0.126312,0.00548015,0.0145793,1385,1744,4.04623,-225.059
168,-720,4.03088,224.078,0.00772268,0.00408513,-0.000700255,0.00785283,0.00395498,-0.183761,0.00453387,0.0154462,1392,1744,4.03083,-224.078
175,-720,3.91968,223.02,0.00585855,0.00425089,-0.000899464,0.00626102,0.00384841,-0.420744,0.00364635,0.0214988,1399,1744,3.91969,-223.02
182,-720,3.91504,221.933,0.00415786,0.00412651,-0.00119685,0.00533914,0.00294523,-0.778849,0.00308803,0.0206441,1406,1744,3.91504,-221.933
189,-720,3.89026,220.788,0.00269232,0.00460235,-0.00181305,0.00569653,0.00159814,-1.02781,0.00339284,0.0174429,1413,1744,3.89032,-220.788
196,-720,3.8241,219.555,0.00131555,0.00483322,-0.00249107,0.0061238,2.49729e-05,-1.09279,0.00407424,0.0205197,1420,1744,3.82415,-219.555
203,-720,3.67603,218.29,0.000100652,0.00526686,-0.0033221,0.00689194,-0.00152442,-1.11585,0.00517811,0.024413,1427,1744,3.67603,-218.29
210,-720,3.56763,216.918,-0.00116261,0.00595669,-0.00409778,0.00782502,-0.00303093,-1.14302,0.0064682,0.0241966,1434,1744,3.56768,-216.918
217,-720,3.40369,215.502,-0.00244789,0.00662653,-0.00473135,0.00864462,-0.00446598,-1.16763,0.0076965,0.0221212,1441,1744,3.40373,-215.502
224,-720,3.14954,214.136,-0.00352572,0.00734084,-0.00530619,0.00950204,-0.00568693,-1.18401,0.00886109,0.0138843,1448,1744,3.14954,-214.136
231,-720,2.99475,212.662,-0.00474156,0.00816571,-0.0058216,0.0104035,-0.00697933,-1.20382,0.0101007,0.0123003,1455,1744,2.99478,-212.662
238,-720,2.79565,211.147,-0.00610877,0.00873516,-0.0062158,0.0109942,-0.00836781,-1.2222,0.0112129,0.0111997,1462,1744,2.79559,-211.147
245,-720,2.57434,209.622,-0.00741061,0.00905179,-0.00660846,0.0113764,-0.00973518,-1.23256,0.012201,0.0155609,1469,1744,2.57429,-209.622
252,-720,2.32593,207.961,-0.00862752,0.00922971,-0.00687552,0.0115702,-0.010968,-1.24269,0.013014,0.0179572,1476,1744,2.32587,-207.961
259,-720,2.00952,206.306,-0.00978407,0.00919517,-0.00696646,0.0114777,-0.0120666,-1.25417,0.0135948,0.0260086,1483,1744,2.00952,-206.306
266,-720,1.69287,204.599,0,0,0,0,0,0,0,-1,1490,1744,1.69285,-204.599
273,-720,1.40588,202.861,0,0,0,0,0,0,0,-1,1497,1744,1.40584,-202.861
280,-720,1.06604,200.934,0,0,0,0,0,0,0,-1,1504,1744,1.06607,-200.934
287,-720,5.17542,134.649,0,0,0,0,0,0,0,-1,1511,1744,5.17542,-134.649
294,-720,6.99695,110.857,0,0,0,0,0,0,0,-1,1518,1744,6.99699,-110.857
301,-720,6.64636,110.967,0,0,0,0,0,0,0,-1,1525,1744,6.64634,-110.967
308,-720,6.44629,112.353,0,0,0,0,0,0,0,-1,1532,1744,6.44625,-112.353
315,-720,8.33508,80.2484,0,0,0,0,0,0,0,-1,1539,1744,8.33509,-80.2484
322,-720,8.98181,43.5223,0,0,0,0,0,0,0,-1,1546,1744,8.98176,-43.5223
329,-720,9.15906,34.7668,0,0,0,0,0,0,0,-1,1553,1744,9.1591,-34.7669
336,-720,6.14148,26.5682,0,0,0,0,0,0,0,-1,1560,1744,6.14151,-26.5683
343,-720,6.78552,21.3625,0,0,0,0,0,0,0,-1,1567,1744,6.78551,-21.3625
350,-720,7.53918,71.5569,0,0,0,0,0,0,0,-1,1574,1744,7.53914,-71.5568
357,-720,6.90833,21.4504,0,0,0,0,0,0,0,-1,1581,1744,6.90827,-21.4505
364,-720,6.59497,44.1384,0,0,0,0,0,0,0,-1,1588,1744,6.59492,-44.1385
371,-720,6.67773,45.2386,0,0,0,0,0,0,0,-1,1595,1744,6.67779,-45.2386
378,-720,3.88257,25.5404,0,0,0,0,0,0,0,-1,1602,1744,3.88262,-25.5404
385,-720,4.672,37.3854,0,0,0,0,0,0,0,-1,1609,1744,4.67202,-37.3854
392,-720,4.89319,36.2684,0,0,0,0,0,0,0,-1,1616,1744,4.89323,-36.2684
399,-720,2.37317,24.7166,0,0,0,0,0,0,0,-1,1623,1744,2.37317,-24.7166
406,-720,0,0,0,0,0,0,0,0,0,-1,1630,1744,0,0
413,-720,0,0,0,0,0,0,0,0,0,-1,1637,1744,0,0
420,-720,0,0,0,0,0,0,0,0,0,-1,1644,1744,0,0
427,-720,0,0,0,0,0,0,0,0,0,-1,1651,1744,0,0
434,-720,0,0,0,0,0,0,0,0,0,-1,1658,1744,0,0
441,-720,0,0,0,0,0,0,0,0,0,-1,1665,1744,0,0
448,-720,0,0,0,0,0,0,0,0,0,-1,1672,1744,0,0
455,-720,0,0,0,0,0,0,0,0,0,-1,1679,1744,0,0
462,-720,0,0,0,0,0,0,0,0,0,-1,1686,1744,0,0
469,-720,0,0,0,0,0,0,0,0,0,-1,1693,1744,0,0
476,-720,0,0,0,0,0,0,0,0,0,-1,1700,1744,0,0
483,-720,0,0,0,0,0,0,0,0,0,-1,1707,1744,0,0
490,-720,0,0,0,0,0,0,0,0,0,-1,1714,1744,0,0
497,-720,0,0,0,0,0,0,0,0,0,-1,1721,1744,0,0
504,-720,0,0,0,0,0,0,0,0,0,-1,1728,1744,0,0
511,-720,0,0,0,0,0,0,0,0,0,-1,1735,1744,0,0
518,-720,0,0,0,0,0,0,0,0,0,-1,1742,1744,0,0
525,-720,0,0,0,0,0,0,0,0,0,-1,1749,1744,0,0
532,-720,0,0,0,0,0,0,0,0,0,-1,1756,1744,0,0
539,-720,0,0,0,0,0,0,0,0,0,-1,1763,1744,0,0
546,-720,0,0,0,0,0,0,0,0,0,-1,1770,1744,0,0
553,-720,0,0,0,0,0,0,0,0,0,-1,1777,1744,0,0
560,-720,0,0,0,0,0,0,0,0,0,-1,1784,1744,0,0
567,-720,0,0,0,0,0,0,0,0,0,-1,1791,1744,0,0
574,-720,0,0,0,0,0,0,0,0,0,-1,1798,1744,0,0
581,-720,0,0,0,0,0,0,0,0,0,-1,1805,1744,0,0
588,-720,0,0,0,0,0,0,0,0,0,-1,1812,1744,0,0
595,-720,0,0,0,0,0,0,0,0,0,-1,1819,1744,0,0
602,-720,0,0,0,0,0,0,0,0,0,-1,1826,1744,0,0
609,-720,0,0,0,0,0,0,0,0,0,-1,1833,1744,0,0
616,-720,0,0,0,0,0,0,0,0,0,-1,1840,1744,0,0
623,-720,0,0,0,0,0,0,0,0,0,-1,1847,1744,0,0
630,-720,0,0,0,0,0,0,0,0,0,-1,1854,1744,0,0
637,-720,0,0,0,0,0,0,0,0,0,-1,1861,1744,0,0
644,-720,0,0,0,0,0,0,0,0,0,-1,1868,1744,0,0
651,-720,0,0,0,0,0,0,0,0,0,-1,1875,1744,0,0
658,-720,0,0,0,0,0,0,0,0,0,-1,1882,1744,0,0
665,-720,0,0,0,0,0,0,0,0,0,-1,1889,1744,0,0
672,-720,0,0,0,0,0,0,0,0,0,-1,1896,1744,0,0
679,-720,0,0,0,0,0,0,0,0,0,-1,1903,1744,0,0
686,-720,0,0,0,0,0,0,0,0,0,-1,1910,1744,0,0
693,-720,0,0,0,0,0,0,0,0,0,-1,1917,1744,0,0
700,-720,0,0,0,0,0,0,0,0,0,-1,1924,1744,0,0
707,-720,0,0,0,0,0,0,0,0,0,-1,1931,1744,0,0
714,-720,0,0,0,0,0,0,0,0,0,-1,1938,1744,0,0
721,-720,0,0,0,0,0,0,0,0,0,-1,1945,1744,0,0
728,-720,0,0,0,0,0,0,0,0,0,-1,1952,1744,0,0
735,-720,0,0,0,0,0,0,0,0,0,-1,1959,1744,0,0
742,-720,0,0,0,0,0,0,0,0,0,-1,1966,1744,0,0
749,-720,0,0,0,0,0,0,0,0,0,-1,1973,1744,0,0
756,-720,0,0,0,0,0,0,0,0,0,-1,1980,1744,0,0
763,-720,0,0,0,0,0,0,0,0,0,-1,1987,1744,0,0
770,-720,0,0,0,0,0,0,0,0,0,-1,1994,1744,0,0
777,-720,0,0,0,0,0,0,0,0,0,-1,2001,1744,0,0
784,-720,0,0,0,0,0,0,0,0,0,-1,2008,1744,0,0
791,-720,0,0,0,0,0,0,0,0,0,-1,2015,1744,0,0
798,-720,0,0,0,0,0,0,0,0,0,-1,2022,1744,0,0
805,-720,0,0,0,0,0,0,0,0,0,-1,2029,1744,0,0
812,-720,0,0,0,0,0,0,0,0,0,-1,2036,1744,0,0
-700,-727,0,0,0,0,0,0,0,0,0,-1,524,1751,0,0
-693,-727,0,0,0,0,0,0,0,0,0,-1,531,1751,0,0
-686,-727,0,0,0,0,0,0,0,0,0,-1,538,1751,0,0
-679,-727,0,0,0,0,0,0,0,0,0,-1,545,1751,0,0
-672,-727,0,0,0,0,0,0,0,0,0,-1,552,1751,0,0
-665,-727,0,0,0,0,0,0,0,0,0,-1,559,1751,0,0
-658,-727,0,0,0,0,0,0,0,0,0,-1,566,1751,0,0
-651,-727,0,0,0,0,0,0,0,0,0,-1,573,1751,0,0
-644,-727,0,0,0,0,0,0,0,0,0,-1,580,1751,0,0
-637,-727,0,0,0,0,0,0,0,0,0,-1,587,1751,0,0
-630,-727,0,0,0,0,0,0,0,0,0,-1,594,1751,0,0
-623,-727,0,0,0,0,0,0,0,0,0,-1,601,1751,0,0
-616,-727,0,0,0,0,0,0,0,0,0,-1,608,1751,0,0
-609,-727,0,0,0,0,0,0,0,0,0,-1,615,1751,0,0
-602,-727,0,0,0,0,0,0,0,0,0,-1,622,1751,0,0
-595,-727,0,0,0,0,0,0,0,0,0,-1,629,1751,0,0
-588,-727,0,0,0,0,0,0,0,0,0,-1,636,1751,0,0
-581,-727,0,0,0,0,0,0,0,0,0,-1,643,1751,0,0
-574,-727,0,0,0,0,0,0,0,0,0,-1,650,1751,0,0
-567,-727,0,0,0,0,0,0,0,0,0,-1,657,1751,0,0
-560,-727,0,0,0,0,0,0,0,0,0,-1,664,1751,0,0
-553,-727,0,0,0,0,0,0,0,0,0,-1,671,1751,0,0
-546,-727,0,0,0,0,0,0,0,0,0,-1,678,1751,0,0
-539,-727,0,0,0,0,0,0,0,0,0,-1,685,1751,0,0
-532,-727,0,0,0,0,0,0,0,0,0,-1,692,1751,0,0
-525,-727,0,0,0,0,0,0,0,0,0,-1,699,1751,0,0
-518,-727,0,0,0,0,0,0,0,0,0,-1,706,1751,0,0
-511,-727,0,0,0,0,0,0,0,0,0,-1,713,1751,0,0
-504,-727,0,0,0,0,0,0,0,0,0,-1,720,1751,0,0
-497,-727,0,0,0,0,0,0,0,0,0,-1,727,1751,0,0
-490,-727,0,0,0,0,0,0,0,0,0,-1,734,1751,0,0
-483,-727,0,0,0,0,0,0,0,0,0,-1,741,1751,0,0
-476,-727,0,0,0,0,0,0,0,0,0,-1,748,1751,0,0
-469,-727,0,0,0,0,0,0,0,0,0,-1,755,1751,0,0
-462,-727,0,0,0,0,0,0,0,0,0,-1,762,1751,0,0
-455,-727,0,0,0,0,0,0,0,0,0,-1,769,1751,0,0
-448,-727,0,0,0,0,0,0,0,0,0,-1,776,1751,0,0
-441,-727,0,0,0,0,0,0,0,0,0,-1,783,1751,0,0
-434,-727,0,0,0,0,0,0,0,0,0,-1,790,1751,0,0
-427,-727,0,0,0,0,0,0,0,0,0,-1,797,1751,0,0
-420,-727,0,0,0,0,0,0,0,0,0,-1,804,1751,0,0
-413,-727,0,0,0,0,0,0,0,0,0,-1,811,1751,0,0
-406,-727,0,0,0,0,0,0,0,0,0,-1,818,1751,0,0
-399,-727,0,0,0,0,0,0,0,0,0,-1,825,1751,0,0
-392,-727,0,0,0,0,0,0,0,0,0,-1,832,1751,0,0
-385,-727,0,0,0,0,0,0,0,0,0,-1,839,1751,0,0
-378,-727,0,0,0,0,0,0,0,0,0,-1,846,1751,0,0
-371,-727,0,0,0,0,0,0,0,0,0,-1,853,1751,0,0
-364,-727,0,0,0,0,0,0,0,0,0,-1,860,1751,0,0
-357,-727,0,0,0,0,0,0,0,0,0,-1,867,1751,0,0
-350,-727,0,0,0,0,0,0,0,0,0,-1,874,1751,0,0
-343,-727,0,0,0,0,0,0,0,0,0,-1,881,1751,0,0
-336,-727,0,0,0,0,0,0,0,0,0,-1,888,1751,0,0
-329,-727,0,0,0,0,0,0,0,0,0,-1,895,1751,0,0
-322,-727,0,0,0,0,0,0,0,0,0,-1,902,1751,0,0
-315,-727,0,0,0,0,0,0,0,0,0,-1,909,1751,0,0
-308,-727,0,0,0,0,0,0,0,0,0,-1,916,1751,0,0
-301,-727,0,0,0,0,0,0,0,0,0,-1,923,1751,0,0
-294,-727,0,0,0,0,0,0,0,0,0,-1,930,1751,0,0
-287,-727,0,0,0,0,0,0,0,0,0,-1,937,1751,0,0
-280,-727,0,0,0,0,0,0,0,0,0,-1,944,1751,0,0
-273,-727,0,0,0,0,0,0,0,0,0,-1,951,1751,0,0
-266,-727,4.24805,7.61145,0,0,0,0,0,0,0,-1,958,1751,4.24802,-7.6115
-259,-727,3.65228,5.4082,0,0,0,0,0,0,0,-1,965,1751,3.65229,-5.40818
-252,-727,5.8797,32.9292,0,0,0,0,0,0,0,-1,972,1751,5.87972,-32.9292
-245,-727,6.59198,32.2588,0,0,0,0,0,0,0,-1,979,1751,6.59195,-32.2587
-238,-727,6.6189,30.4597,0,0,0,0,0,0,0,-1,986,1751,6.61889,-30.4598
-231,-727,10.3705,65.6537,0,0,0,0,0,0,0,-1,993,1751,10.3706,-65.6537
-224,-727,6.64417,70.2582,0,0,0,0,0,0,0,-1,1000,1751,6.64418,-70.2582
-217,-727,11.5642,66.4852,0,0,0,0,0,0,0,-1,1007,1751,11.5642,-66.4853
-210,-727,11.9247,66.7097,0,0,0,0,0,0,0,-1,1014,1751,11.9246,-66.7097
-203,-727,10.2913,113.322,0,0,0,0,0,0,0,-1,1021,1751,10.2912,-113.322
-196,-727,9.95496,113.302,0,0,0,0,0,0,0,-1,1028,1751,9.95494,-113.302
-189,-727,9.26709,79.3872,0,0,0,0,0,0,0,-1,1035,1751,9.26713,-79.3872
-182,-727,9.896,114.416,0,0,0,0,0,0,0,-1,1042,1751,9.89605,-114.416
-175,-727,9.45593,123.651,0,0,0,0,0,0,0,-1,1049,1751,9.45591,-123.651
-168,-727,8.81592,119.119,0,0,0,0,0,0,0,-1,1056,1751,8.81591,-119.119
-161,-727,9.19238,116.507,0,0,0,0,0,0,0,-1,1063,1751,9.19233,-116.507
-154,-727,9.53088,111.789,0,0,0,0,0,0,0,-1,1070,1751,9.53087,-111.789
-147,-727,9.88684,103.831,0,0,0,0,0,0,0,-1,1077,1751,9.88688,-103.831
-140,-727,9.77563,100.047,0,0,0,0,0,0,0,-1,1084,1751,9.77561,-100.047
-133,-727,9.11511,111.783,0,0,0,0,0,0,0,-1,1091,1751,9.11513,-111.783
-126,-727,5.27881,206.727,0,0,0,0,0,0,0,-1,1098,1751,5.27877,-206.727
-119,-727,5.07825,208.603,0,0,0,0,0,0,0,-1,1105,1751,5.07827,-208.603
-112,-727,4.75073,210.226,0,0,0,0,0,0,0,-1,1112,1751,4.75075,-210.226
-105,-727,4.51013,211.725,0,0,0,0,0,0,0,-1,1119,1751,4.51011,-211.725
-98,-727,4.22839,213.123,-0.0114173,0.00590973,0.00804709,0.00907043,-0.014578,1.19653,0.0137763,0.0262709,1126,1751,4.22844,-213.123
-91,-727,3.9552,214.545,-0.0103675,0.00603276,0.00751513,0.00895555,-0.0132903,1.19988,0.0129246,0.0182872,1133,1751,3.95514,-214.545
-84,-727,3.76611,215.959,-0.00930769,0.00597865,0.00664483,0.00846326,-0.0117923,1.21298,0.0117471,0.0204203,1140,1751,3.76615,-215.959
-77,-727,3.5592,217.295,-0.00800849,0.0058806,0.00567991,0.00790757,-0.0100355,1.22802,0.0103837,0.0290203,1147,1751,3.55915,-217.295
-70,-727,3.39624,218.675,-0.00706129,0.00599686,0.00468692,0.00750495,-0.00856939,1.25949,0.0092873,0.0235324,1154,1751,3.39629,-218.675
-63,-727,3.26538,219.992,-0.00597305,0.00577429,0.00374764,0.00686802,-0.00706679,1.28684,0.00804554,0.0161636,1161,1751,3.26533,-219.992
-56,-727,3.09338,221.09,-0.0048119,0.00503299,0.00278924,0.00576832,-0.00554723,1.31303,0.00653345,0.0173683,1168,1751,3.09341,-221.09
-49,-727,2.95276,222.209,-0.00398834,0.00477064,0.00182698,0.00513644,-0.00435414,1.37319,0.00548559,0.0182056,1175,1751,2.95275,-222.209
-42,-727,2.88403,223.322,-0.00301939,0.00496399,0.00110811,0.00511494,-0.00317034,1.4354,0.00482723,0.0217091,1182,1751,2.88401,-223.322
-35,-727,2.77698,224.346,-0.00208314,0.00477553,0.000400512,0.00479884,-0.00210645,1.51266,0.00408654,0.0208322,1189,1751,2.77702,-224.346
-28,-727,2.71582,225.34,-0.00104696,0.0041839,7.17041e-06,0.00418391,-0.00104697,1.56943,0.00319595,0.0141541,1196,1751,2.71588,-225.34
-21,-727,2.64673,226.261,7.74927e-05,0.0037728,-0.00027773,0.00379356,5.67357e-05,-1.4962,0.00251034,0.0150939,1203,1751,2.64679,-226.261
-14,-727,2.64661,227.078,0.00118365,0.00353348,-0.000548657,0.00365527,0.00106185,-1.35236,0.00217125,0.0167904,1210,1751,2.64665,-227.078
-7,-727,2.64526,227.868,0.00225014,0.00349409,-0.000774768,0.00386565,0.00187857,-1.12362,0.00223213,0.0211839,1217,1751,2.64525,-227.868
0,-727,2.57397,228.594,0.00329817,0.00389428,-0.000959139,0.00460061,0.00259184,-0.936043,0.00266326,0.0191623,1224,1751,2.57402,-228.594
7,-727,2.5708,229.114,0.00428039,0.0037487,-0.000978402,0.00502842,0.00300067,-0.652744,0.00292122,0.0190257,1231,1751,2.57084,-229.114
14,-727,2.58643,229.663,0.00524542,0.00337576,-0.000986566,0.00566972,0.00295147,-0.406159,0.00327434,0.0191108,1238,1751,2.58639,-229.663
21,-727,2.58411,230.166,0.00605647,0.00309959,-0.000878461,0.00629776,0.0028583,-0.268066,0.00364117,0.0178277,1245,1751,2.58406,-230.166
28,-727,2.63745,230.558,0.00687051,0.00244524,-0.000787655,0.00700653,0.00230923,-0.170996,0.0041228,0.0172231,1252,1751,2.63741,-230.558
35,-727,2.68616,230.898,0.00772596,0.00170222,-0.000674513,0.00780057,0.00162761,-0.110158,0.00475169,0.0176566,1259,1751,2.68622,-230.898
42,-727,2.66089,231.193,0.00821541,0.00103785,-0.000544409,0.00825647,0.000996789,-0.0752749,0.00520397,0.017245,1266,1751,2.66087,-231.193
49,-727,2.68347,231.455,0.00828999,0.000351617,-0.000356071,0.00830593,0.000335678,-0.0447347,0.00542886,0.0196388,1273,1751,2.68343,-231.455
56,-727,2.66614,231.635,0.00825661,-0.000396162,-0.00013557,0.00825873,-0.000398285,-0.0156627,0.00564327,0.0223744,1280,1751,2.66613,-231.635
63,-727,2.77417,231.661,0.00798184,-0.000894892,-1.1036e-05,0.00798185,-0.000894905,-0.00124324,0.00564324,0.022746,1287,1751,2.77415,-231.661
70,-727,3.0426,231.546,0.00769893,-0.00112983,5.17969e-05,0.00769924,-0.00113013,0.00586656,0.00554804,0.0235214,1294,1751,3.04261,-231.546
77,-727,3.11096,231.505,0.00726709,-0.000889305,-0.000137288,0.0072694,-0.000891615,-0.0168256,0.00516917,0.0292364,1301,1751,3.11102,-231.505
84,-727,3.18115,231.203,0.00673077,-0.000547655,-0.00035075,0.00674764,-0.000564519,-0.0480419,0.00469792,0.0339803,1308,1751,3.18118,-231.203
91,-727,3.27185,230.948,0.00621267,-8.77361e-06,-0.000614053,0.0062727,-6.8801e-05,-0.0974466,0.00420492,0.0445314,1315,1751,3.27186,-230.948
98,-727,3.2373,230.694,0.00576368,0.000687705,-0.000896151,0.00591725,0.000534138,-0.169715,0.00377939,0.0340186,1322,1751,3.23728,-230.694
105,-727,3.14563,230.493,0.00544935,0.00142387,-0.00116478,0.00576209,0.00111113,-0.262307,0.0035298,0.0212957,1329,1751,3.14569,-230.493
112,-727,3.17017,230.163,0.00521818,0.00261889,-0.00160939,0.00598716,0.00184991,-0.445737,0.00353978,0.0161769,1336,1751,3.17018,-230.163
119,-727,3.21838,229.705,0.00486884,0.0038291,-0.00188444,0.00630381,0.00239413,-0.650808,0.0036744,0.015348,1343,1751,3.21836,-229.705
126,-727,3.30164,229.035,0.00456883,0.00472911,-0.00202703,0.00667759,0.00262036,-0.805156,0.00388494,0.0175889,1350,1751,3.30162,-229.035
133,-727,3.27478,228.358,0.00415418,0.00550964,-0.00212426,0.00706167,0.00260216,-0.939815,0.0041238,0.0205543,1357,1751,3.27472,-228.358
140,-727,3.23926,227.622,0.00350239,0.00601743,-0.00214607,0.00724728,0.00227254,-1.05042,0.00428007,0.0303195,1364,1751,3.23931,-227.622
147,-727,3.245,226.794,0.00278885,0.006298,-0.00210745,0.00728566,0.00180118,-1.13254,0.0043819,0.0260604,1371,1751,3.24502,-226.794
154,-727,3.18689,225.944,0.00196767,0.0064413,-0.00206699,0.0072501,0.00115887,-1.19782,0.00449716,0.0165652,1378,1751,3.18693,-225.944
161,-727,3.1377,225.084,0.000762754,0.00646219,-0.00204945,0.00712262,0.000102326,-1.25906,0.00471468,0.0135767,1385,1751,3.13771,-225.084
168,-727,3.00928,224.169,-0.000737274,0.00609705,-0.00212937,0.0067062,-0.00134643,-1.29217,0.00498065,0.0163006,1392,1751,3.00926,-224.169
175,-727,2.87781,223.158,-0.00226446,0.00560411,-0.00237678,0.00626631,-0.00292666,-1.29907,0.00542305,0.0232056,1399,1751,2.87783,-223.158
182,-727,2.8573,222.043,-0.00354808,0.00533759,-0.00287963,0.00618919,-0.00439968,-1.28326,0.00614252,0.0253775,1406,1751,2.85735,-222.043
189,-727,2.71045,220.857,-0.00453473,0.00577527,-0.00373078,0.00698366,-0.00574312,-1.25756,0.00735943,0.01677,1413,1751,2.71047,-220.857
196,-727,2.57971,219.625,-0.00548085,0.00605831,-0.00462945,0.00768602,-0.00710856,-1.2327,0.00854382,0.0200011,1420,1751,2.57968,-219.625
203,-727,2.40881,218.338,-0.00629654,0.00672734,-0.00563979,0.00883007,-0.00839927,-1.21392,0.0099484,0.0246567,1427,1751,2.40887,-218.338
210,-727,2.23047,217.013,-0.00725616,0.00785821,-0.00651567,0.0102793,-0.0096772,-1.21503,0.0115236,0.0247217,1434,1751,2.23043,-217.013
217,-727,1.9873,215.666,-0.00823082,0.00884816,-0.00718537,0.011469,-0.0108516,-1.22105,0.0128885,0.0178855,1441,1751,1.98726,-215.666
224,-727,1.76428,214.218,-0.008994,0.00988689,-0.00769635,0.0126266,-0.0117337,-1.22881,0.0140676,0.0156222,1448,1751,1.76434,-214.218
231,-727,1.52393,212.736,-0.010111,0.0111054,-0.00815925,0.0138803,-0.0128859,-1.24297,0.015457,0.0141396,1455,1751,1.52389,-212.736
238,-727,1.31458,210.997,-0.0115047,0.0118821,-0.00858156,0.0146932,-0.0143157,-1.25424,0.0167488,0.042512,1462,1751,1.31456,-210.997
245,-727,1.09924,209.713,0,0,0,0,0,0,0,-1,1469,1751,1.09929,-209.713
252,-727,0.770386,208.078,0,0,0,0,0,0,0,-1,1476,1751,0.770416,-208.078
259,-727,0.327271,206.452,0,0,0,0,0,0,0,-1,1483,1751,0.327225,-206.452
266,-727,8.22925,99.0476,0,0,0,0,0,0,0,-1,1490,1751,8.2292,-99.0476
273,-727,8.31946,82.3387,0,0,0,0,0,0,0,-1,1497,1751,8.31948,-82.3387
280,-727,8.28369,85.8636,0,0,0,0,0,0,0,-1,1504,1751,8.28373,-85.8636
287,-727,7.65161,81.5585,0,0,0,0,0,0,0,-1,1511,1751,7.65165,-81.5585
294,-727,7.47607,71.4724,0,0,0,0,0,0,0,-1,1518,1751,7.47602,-71.4724
301,-727,8.44385,46.1619,0,0,0,0,0,0,0,-1,1525,1751,8.4439,-46.1619
308,-727,8.77002,44.8007,0,0,0,0,0,0,0,-1,1532,1751,8.76996,-44.8006
315,-727,8.10571,41.24,0,0,0,0,0,0,0,-1,1539,1751,8.10567,-41.2399
322,-727,8.24133,40.2081,0,0,0,0,0,0,0,-1,1546,1751,8.24136,-40.2082
329,-727,5.54419,31.0325,0,0,0,0,0,0,0,-1,1553,1751,5.54425,-31.0325
336,-727,5.55823,20.2439,0,0,0,0,0,0,0,-1,1560,1751,5.55829,-20.2438
343,-727,2.41699,8.72095,0,0,0,0,0,0,0,-1,1567,1751,2.41702,-8.72098
350,-727,3.89783,7.50195,0,0,0,0,0,0,0,-1,1574,1751,3.89782,-7.50193
357,-727,4.48462,10.2948,0,0,0,0,0,0,0,-1,1581,1751,4.48464,-10.2948
364,-727,6.96729,17.2365,0,0,0,0,0,0,0,-1,1588,1751,6.96732,-17.2365
371,-727,5.04565,23.2227,0,0,0,0,0,0,0,-1,1595,1751,5.04564,-23.2227
378,-727,4.56726,23.0574,0,0,0,0,0,0,0,-1,1602,1751,4.56727,-23.0574
385,-727,3.52307,22.6431,0,0,0,0,0,0,0,-1,1609,1751,3.52303,-22.643
392,-727,0,0,0,0,0,0,0,0,0,-1,1616,1751,0,0
399,-727,0,0,0,0,0,0,0,0,0,-1,1623,1751,0,0
406,-727,0,0,0,0,0,0,0,0,0,-1,1630,1751,0,0
413,-727,0,0,0,0,0,0,0,0,0,-1,1637,1751,0,0
420,-727,0,0,0,0,0,0,0,0,0,-1,1644,1751,0,0
427,-727,0,0,0,0,0,0,0,0,0,-1,1651,1751,0,0
434,-727,0,0,0,0,0,0,0,0,0,-1,1658,1751,0,0
441,-727,0,0,0,0,0,0,0,0,0,-1,1665,1751,0,0
448,-727,0,0,0,0,0,0,0,0,0,-1,1672,1751,0,0
455,-727,0,0,0,0,0,0,0,0,0,-1,1679,1751,0,0
462,-727,0,0,0,0,0,0,0,0,0,-1,1686,1751,0,0
469,-727,0,0,0,0,0,0,0,0,0,-1,1693,1751,0,0
476,-727,0,0,0,0,0,0,0,0,0,-1,1700,1751,0,0
483,-727,0,0,0,0,0,0,0,0,0,-1,1707,1751,0,0
490,-727,0,0,0,0,0,0,0,0,0,-1,1714,1751,0,0
497,-727,0,0,0,0,0,0,0,0,0,-1,1721,1751,0,0
504,-727,0,0,0,0,0,0,0,0,0,-1,1728,1751,0,0
511,-727,0,0,0,0,0,0,0,0,0,-1,1735,1751,0,0
518,-727,0,0,0,0,0,0,0,0,0,-1,1742,1751,0,0
525,-727,0,0,0,0,0,0,0,0,0,-1,1749,1751,0,0
532,-727,0,0,0,0,0,0,0,0,0,-1,1756,1751,0,0
539,-727,0,0,0,0,0,0,0,0,0,-1,1763,1751,0,0
546,-727,0,0,0,0,0,0,0,0,0,-1,1770,1751,0,0
553,-727,0,0,0,0,0,0,0,0,0,-1,1777,1751,0,0
560,-727,0,0,0,0,0,0,0,0,0,-1,1784,1751,0,0
567,-727,0,0,0,0,0,0,0,0,0,-1,1791,1751,0,0
574,-727,0,0,0,0,0,0,0,0,0,-1,1798,1751,0,0
581,-727,0,0,0,0,0,0,0,0,0,-1,1805,1751,0,0
588,-727,0,0,0,0,0,0,0,0,0,-1,1812,1751,0,0
595,-727,0,0,0,0,0,0,0,0,0,-1,1819,1751,0,0
602,-727,0,0,0,0,0,0,0,0,0,-1,1826,1751,0,0
609,-727,0,0,0,0,0,0,0,0,0,-1,1833,1751,0,0
616,-727,0,0,0,0,0,0,0,0,0,-1,1840,1751,0,0
623,-727,0,0,0,0,0,0,0,0,0,-1,1847,1751,0,0
630,-727,0,0,0,0,0,0,0,0,0,-1,1854,1751,0,0
637,-727,0,0,0,0,0,0,0,0,0,-1,1861,1751,0,0
644,-727,0,0,0,0,0,0,0,0,0,-1,1868,1751,0,0
651,-727,0,0,0,0,0,0,0,0,0,-1,1875,1751,0,0
658,-727,0,0,0,0,0,0,0,0,0,-1,1882,1751,0,0
665,-727,0,0,0,0,0,0,0,0,0,-1,1889,1751,0,0
672,-727,0,0,0,0,0,0,0,0,0,-1,1896,1751,0,0
679,-727,0,0,0,0,0,0,0,0,0,-1,1903,1751,0,0
686,-727,0,0,0,0,0,0,0,0,0,-1,1910,1751,0,0
693,-727,0,0,0,0,0,0,0,0,0,-1,1917,1751,0,0
700,-727,0,0,0,0,0,0,0,0,0,-1,1924,1751,0,0
707,-727,0,0,0,0,0,0,0,0,0,-1,1931,1751,0,0
714,-727,0,0,0,0,0,0,0,0,0,-1,1938,1751,0,0
721,-727,0,0,0,0,0,0,0,0,0,-1,1945,1751,0,0
728,-727,0,0,0,0,0,0,0,0,0,-1,1952,1751,0,0
735,-727,0,0,0,0,0,0,0,0,0,-1,1959,1751,0,0
742,-727,0,0,0,0,0,0,0,0,0,-1,1966,1751,0,0
749,-727,0,0,0,0,0,0,0,0,0,-1,1973,1751,0,0
756,-727,0,0,0,0,0,0,0,0,0,-1,1980,1751,0,0
763,-727,0,0,0,0,0,0,0,0,0,-1,1987,1751,0,0
770,-727,0,0,0,0,0,0,0,0,0,-1,1994,1751,0,0
777,-727,0,0,0,0,0,0,0,0,0,-1,2001,1751,0,0
784,-727,0,0,0,0,0,0,0,0,0,-1,2008,1751,0,0
791,-727,0,0,0,0,0,0,0,0,0,-1,2015,1751,0,0
798,-727,0,0,0,0,0,0,0,0,0,-1,2022,1751,0,0
805,-727,0,0,0,0,0,0,0,0,0,-1,2029,1751,0,0
812,-727,0,0,0,0,0,0,0,0,0,-1,2036,1751,0,0
-700,-734,0,0,0,0,0,0,0,0,0,-1,524,1758,0,0
-693,-734,0,0,0,0,0,0,0,0,0,-1,531,1758,0,0
-686,-734,0,0,0,0,0,0,0,0,0,-1,538,1758,0,0
-679,-734,0,0,0,0,0,0,0,0,0,-1,545,1758,0,0
-672,-734,0,0,0,0,0,0,0,0,0,-1,552,1758,0,0
-665,-734,0,0,0,0,0,0,0,0,0,-1,559,1758,0,0
-658,-734,0,0,0,0,0,0,0,0,0,-1,566,1758,0,0
-651,-734,0,0,0,0,0,0,0,0,0,-1,573,1758,0,0
-644,-734,0,0,0,0,0,0,0,0,0,-1,580,1758,0,0
-637,-734,0,0,0,0,0,0,0,0,0,-1,587,1758,0,0
-630,-734,0,0,0,0,0,0,0,0,0,-1,594,1758,0,0
-623,-734,0,0,0,0,0,0,0,0,0,-1,601,1758,0,0
-616,-734,0,0,0,0,0,0,0,0,0,-1,608,1758,0,0
-609,-734,0,0,0,0,0,0,0,0,0,-1,615,1758,0,0
-602,-734,0,0,0,0,0,0,0,0,0,-1,622,1758,0,0
-595,-734,0,0,0,0,0,0,0,0,0,-1,629,1758,0,0
-588,-734,0,0,0,0,0,0,0,0,0,-1,636,1758,0,0
-581,-734,0,0,0,0,0,0,0,0,0,-1,643,1758,0,0
-574,-734,0,0,0,0,0,0,0,0,0,-1,650,1758,0,0
-567,-734,0,0,0,0,0,0,0,0,0,-1,657,1758,0,0
-560,-734,0,0,0,0,0,0,0,0,0,-1,664,1758,0,0
-553,-734,0,0,0,0,0,0,0,0,0,-1,671,1758,0,0
-546,-734,0,0,0,0,0,0,0,0,0,-1,678,1758,0,0
-539,-734,0,0,0,0,0,0,0,0,0,-1,685,1758,0,0
-532,-734,0,0,0,0,0,0,0,0,0,-1,692,1758,0,0
-525,-734,0,0,0,0,0,0,0,0,0,-1,699,1758,0,0
-518,-734,0,0,0,0,0,0,0,0,0,-1,706,1758,0,0
-511,-734,0,0,0,0,0,0,0,0,0,-1,713,1758,0,0
-504,-734,0,0,0,0,0,0,0,0,0,-1,720,1758,0,0
-497,-734,0,0,0,0,0,0,0,0,0,-1,727,1758,0,0
-490,-734,0,0,0,0,0,0,0,0,0,-1,734,1758,0,0
-483,-734,0,0,0,0,0,0,0,0,0,-1,741,1758,0,0
-476,-734,0,0,0,0,0,0,0,0,0,-1,748,1758,0,0
-469,-734,0,0,0,0,0,0,0,0,0,-1,755,1758,0,0
-462,-734,0,0,0,0,0,0,0,0,0,-1,762,1758,0,0
-455,-734,0,0,0,0,0,0,0,0,0,-1,769,1758,0,0
-448,-734,0,0,0,0,0,0,0,0,0,-1,776,1758,0,0
-441,-734,0,0,0,0,0,0,0,0,0,-1,783,1758,0,0
-434,-734,0,0,0,0,0,0,0,0,0,-1,790,1758,0,0
-427,-734,0,0,0,0,0,0,0,0,0,-1,797,1758,0,0
-420,-734,0,0,0,0,0,0,0,0,0,-1,804,1758,0,0
-413,-734,0,0,0,0,0,0,0,0,0,-1,811,1758,0,0
-406,-734,0,0,0,0,0,0,0,0,0,-1,818,1758,0,0
-399,-734,0,0,0,0,0,0,0,0,0,-1,825,1758,0,0
-392,-734,0,0,0,0,0,0,0,0,0,-1,832,1758,0,0
-385,-734,0,0,0,0,0,0,0,0,0,-1,839,1758,0,0
-378,-734,0,0,0,0,0,0,0,0,0,-1,846,1758,0,0
-371,-734,0,0,0,0,0,0,0,0,0,-1,853,1758,0,0
-364,-734,0,0,0,0,0,0,0,0,0,-1,860,1758,0,0
-357,-734,0,0,0,0,0,0,0,0,0,-1,867,1758,0,0
-350,-734,0,0,0,0,0,0,0,0,0,-1,874,1758,0,0
-343,-734,0,0,0,0,0,0,0,0,0,-1,881,1758,0,0
-336,-734,0,0,0,0,0,0,0,0,0,-1,888,1758,0,0
-329,-734,0,0,0,0,0,0,0,0,0,-1,895,1758,0,0
-322,-734,0,0,0,0,0,0,0,0,0,-1,902,1758,0,0
-315,-734,0,0,0,0,0,0,0,0,0,-1,909,1758,0,0
-308,-734,0,0,0,0,0,0,0,0,0,-1,916,1758,0,0
-301,-734,0,0,0,0,0,0,0,0,0,-1,923,1758,0,0
-294,-734,0,0,0,0,0,0,0,0,0,-1,930,1758,0,0
-287,-734,0,0,0,0,0,0,0,0,0,-1,937,1758,0,0
-280,-734,0,0,0,0,0,0,0,0,0,-1,944,1758,0,0
-273,-734,0,0,0,0,0,0,0,0,0,-1,951,1758,0,0
-266,-734,0,0,0,0,0,0,0,0,0,-1,958,1758,0,0
-259,-734,0,0,0,0,0,0,0,0,0,-1,965,1758,0,0
-252,-734,5.73883,31.5245,0,0,0,0,0,0,0,-1,972,1758,5.73884,-31.5246
-245,-734,6.32513,30.9761,0,0,0,0,0,0,0,-1,979,1758,6.32511,-30.9761
-238,-734,6.82385,30.0449,0,0,0,0,0,0,0,-1,986,1758,6.82387,-30.0449
-231,-734,7.1958,29.1666,0,0,0,0,0,0,0,-1,993,1758,7.19578,-29.1666
-224,-734,11.9083,67.6753,0,0,0,0,0,0,0,-1,1000,1758,11.9083,-67.6753
-217,-734,12.5489,68.1686,0,0,0,0,0,0,0,-1,1007,1758,12.5489,-68.1685
-210,-734,12.8944,68.743,0,0,0,0,0,0,0,-1,1014,1758,12.8944,-68.7431
-203,-734,13.1958,69.3351,0,0,0,0,0,0,0,-1,1021,1758,13.1958,-69.3351
-196,-734,13.0366,49.6821,0,0,0,0,0,0,0,-1,1028,1758,13.0366,-49.6822
-189,-734,12.1746,77.9988,0,0,0,0,0,0,0,-1,1035,1758,12.1746,-77.9987
-182,-734,10.0289,81.2341,0,0,0,0,0,0,0,-1,1042,1758,10.0289,-81.2341
-175,-734,10.8186,80.3762,0,0,0,0,0,0,0,-1,1049,1758,10.8186,-80.3762
-168,-734,10.7595,63.7695,0,0,0,0,0,0,0,-1,1056,1758,10.7595,-63.7695
-161,-734,10.8724,64.5072,0,0,0,0,0,0,0,-1,1063,1758,10.8724,-64.5072
-154,-734,10.3014,52.4893,0,0,0,0,0,0,0,-1,1070,1758,10.3014,-52.4893
-147,-734,10.325,56.6101,0,0,0,0,0,0,0,-1,1077,1758,10.3249,-56.6101
-140,-734,9.97607,77.6641,0,0,0,0,0,0,0,-1,1084,1758,9.97611,-77.6641
-133,-734,9.90125,75.2577,0,0,0,0,0,0,0,-1,1091,1758,9.90126,-75.2577
-126,-734,9.74487,71.7767,0,0,0,0,0,0,0,-1,1098,1758,9.74489,-71.7767
-119,-734,9.82996,66.3767,0,0,0,0,0,0,0,-1,1105,1758,9.82997,-66.3767
-112,-734,9.52307,61.2794,0,0,0,0,0,0,0,-1,1112,1758,9.52313,-61.2794
-105,-734,9.39783,63.9799,0,0,0,0,0,0,0,-1,1119,1758,9.39786,-63.9798
-98,-734,5.56982,213.178,0,0,0,0,0,0,0,-1,1126,1758,5.56986,-213.178
-91,-734,5.28223,214.595,0,0,0,0,0,0,0,-1,1133,1758,5.28219,-214.595
-84,-734,5.13135,215.965,0,0,0,0,0,0,0,-1,1140,1758,5.13138,-215.965
-77,-734,4.89905,217.387,0,0,0,0,0,0,0,-1,1147,1758,4.89905,-217.387
-70,-734,4.646,218.845,0,0,0,0,0,0,0,-1,1154,1758,4.64601,-218.845
-63,-734,4.34521,219.85,-0.0134627,0.00989942,0.0060104,0.011355,-0.0149184,1.33319,0.0152154,0.0362917,1161,1758,4.34526,-219.85
-56,-734,4.23767,221.171,-0.0126576,0.00925052,0.00477926,0.0102477,-0.0136548,1.36509,0.0138468,0.0214108,1168,1758,4.23767,-221.171
-49,-734,4.03516,222.283,-0.0123319,0.00951905,0.00347011,0.0100569,-0.0128697,1.41703,0.0132699,0.0172052,1175,1758,4.03521,-222.283
-42,-734,3.85999,223.459,-0.0115627,0.0106839,0.00253078,0.0109682,-0.011847,1.45894,0.0131756,0.0178111,1182,1758,3.85998,-223.46
-35,-734,3.77222,224.506,-0.0111751,0.0113517,0.00168744,0.0114774,-0.0113008,1.49644,0.0131511,0.0194521,1189,1758,3.77221,-224.506
-28,-734,3.64624,225.364,-0.0102144,0.0108771,0.00118686,0.0109437,-0.0102809,1.51476,0.012256,0.0143537,1196,1758,3.64629,-225.364
-21,-734,3.57361,226.211,-0.00887765,0.0110182,0.000469164,0.0110293,-0.00888871,1.54723,0.0115218,0.0212873,1203,1758,3.57361,-226.211
-14,-734,3.41211,227.075,-0.007584,0.0113359,-0.000236277,0.0113388,-0.00758695,-1.55831,0.0109981,0.0214979,1210,1758,3.41216,-227.075
-7,-734,3.29578,227.822,-0.0062729,0.0119345,-0.000846541,0.0119738,-0.00631218,-1.52444,0.0107247,0.0233937,1217,1758,3.29572,-227.822
0,-734,3.21997,228.562,-0.00493329,0.0132267,-0.0014905,0.0133483,-0.00505481,-1.48945,0.0109788,0.0216308,1224,1758,3.21994,-228.562
7,-734,3.15698,229.198,-0.00388813,0.013661,-0.00180991,0.0138458,-0.00407285,-1.46909,0.0108461,0.015768,1231,1758,3.157,-229.198
14,-734,3.07971,229.692,-0.00276861,0.013794,-0.00217594,0.0140751,-0.0030497,-1.44232,0.010548,0.0171709,1238,1758,3.0797,-229.692
21,-734,2.94275,230.127,-0.00191052,0.0141472,-0.00224439,0.014455,-0.00221832,-1.43451,0.0104549,0.0175003,1245,1758,2.94271,-230.127
28,-734,2.97632,230.549,-0.00117033,0.0138297,-0.00226846,0.0141652,-0.00150588,-1.42394,0.00998338,0.0182632,1252,1758,2.97633,-230.549
35,-734,2.9939,230.954,-0.000392659,0.013084,-0.00219824,0.0134335,-0.000742159,-1.41312,0.00921301,0.0215552,1259,1758,2.99385,-230.954
42,-734,2.96228,231.243,1.95313e-05,0.0121287,-0.00192689,0.012428,-0.000279694,-1.41674,0.0083801,0.0173848,1266,1758,2.96223,-231.243
49,-734,2.90479,231.47,-3.76689e-05,0.0110563,-0.00146062,0.0112454,-0.000226751,-1.44206,0.00757365,0.0164853,1273,1758,2.90483,-231.47
56,-734,2.82788,231.612,-0.000142369,0.00966166,-0.00102522,0.00976772,-0.000248429,-1.46771,0.00659619,0.0178598,1280,1758,2.82788,-231.612
63,-734,2.81299,231.597,-0.000507188,0.00837146,-0.00062802,0.00841566,-0.00055139,-1.50053,0.00580298,0.0197703,1287,1758,2.81304,-231.597
70,-734,2.92151,231.573,-0.000785177,0.00731784,-0.000303162,0.00732917,-0.000796504,-1.53345,0.0051721,0.0170986,1294,1758,2.92148,-231.573
77,-734,2.97388,231.504,-0.00125058,0.0067518,-0.00021762,0.00675772,-0.00125649,-1.54363,0.00497713,0.0249503,1301,1758,2.9739,-231.504
84,-734,2.92664,231.32,-0.00185722,0.00616887,-0.000132299,0.00617105,-0.0018594,-1.55432,0.00485404,0.0302908,1308,1758,2.92664,-231.32
91,-734,2.89954,231.189,-0.00234668,0.00587013,-0.000208499,0.00587541,-0.00235196,-1.54544,0.00489312,0.0470439,1315,1758,2.8995,-231.189
98,-734,2.84851,230.912,-0.00272804,0.00577818,-0.000453663,0.00580231,-0.00275216,-1.51766,0.00504249,0.0310959,1322,1758,2.84847,-230.912
105,-734,2.79614,230.501,-0.00293773,0.00577061,-0.000714627,0.00582887,-0.00299599,-1.48946,0.0051818,0.0212083,1329,1758,2.79612,-230.501
112,-734,2.79224,230.11,-0.00295857,0.0068065,-0.00139913,0.00700301,-0.00315508,-1.43126,0.0060034,0.0167937,1336,1758,2.7922,-230.11
119,-734,2.80127,229.628,-0.00327046,0.00793107,-0.00188621,0.00824016,-0.00357955,-1.40837,0.00699872,0.0192627,1343,1758,2.80131,-229.628
126,-734,2.7218,228.983,-0.00346898,0.00845382,-0.0023441,0.00889813,-0.00391329,-1.38348,0.00758101,0.023216,1350,1758,2.72181,-228.983
133,-734,2.57813,228.291,-0.00377832,0.00907871,-0.00265864,0.00960679,-0.0043064,-1.37472,0.00822479,0.0240345,1357,1758,2.57808,-228.291
140,-734,2.50549,227.473,-0.00445231,0.00948476,-0.00281499,0.0100319,-0.00499941,-1.37884,0.00883894,0.0360318,1364,1758,2.50544,-227.473
147,-734,2.42712,226.752,-0.00524838,0.00960298,-0.00297395,0.0101764,-0.00582176,-1.38033,0.00934988,0.0247245,1371,1758,2.42712,-226.752
154,-734,2.33044,226.032,-0.00607889,0.0093393,-0.00311364,0.00994434,-0.00668393,-1.37887,0.00966166,0.0149387,1378,1758,2.33049,-226.032
161,-734,2.23157,225.167,-0.00734124,0.00897277,-0.00303985,0.00952078,-0.00788925,-1.39243,0.0100664,0.0133386,1385,1758,2.23159,-225.167
168,-734,2.06921,224.198,-0.00879555,0.00822975,-0.00320189,0.00881201,-0.00937781,-1.39091,0.0105036,0.0196996,1392,1758,2.06917,-224.198
175,-734,1.89355,223.22,-0.010186,0.00715513,-0.00362458,0.00788224,-0.0109131,-1.37282,0.0108984,0.024813,1399,1758,1.89352,-223.22
182,-734,1.81653,222.095,-0.011228,0.00655421,-0.00437044,0.0075703,-0.0122441,-1.34236,0.0115454,0.0222851,1406,1758,1.81647,-222.095
189,-734,1.57642,220.936,-0.0117595,0.00696213,-0.00550186,0.00845928,-0.0132567,-1.30511,0.0126393,0.0157049,1413,1758,1.57641,-220.936
196,-734,1.38928,219.699,-0.0123122,0.00725585,-0.0066652,0.0093104,-0.0143668,-1.27179,0.0137735,0.0187259,1420,1758,1.38928,-219.699
203,-734,1.20166,218.381,-0.0127463,0.00810961,-0.00790935,0.0107698,-0.0154065,-1.24635,0.0151918,0.0255433,1427,1758,1.20164,-218.381
210,-734,1.00342,217.058,-0.0133934,0.0097049,-0.00898772,0.01279,-0.0164786,-1.24014,0.0169429,0.0431013,1434,1758,1.00347,-217.058
217,-734,0.615356,215.795,0,0,0,0,0,0,0,-1,1441,1758,0.61534,-215.795
224,-734,0.374268,214.397,0,0,0,0,0,0,0,-1,1448,1758,0.374303,-214.397
231,-734,-0.0123291,212.813,0,0,0,0,0,0,0,-1,1455,1758,-0.0123746,-212.813
238,-734,-0.204712,210.62,0,0,0,0,0,0,0,-1,1462,1758,-0.204695,-210.62
245,-734,8.29065,60.4988,0,0,0,0,0,0,0,-1,1469,1758,8.29062,-60.4987
252,-734,8.17517,58.5679,0,0,0,0,0,0,0,-1,1476,1758,8.1752,-58.5678
259,-734,8.07666,59.5597,0,0,0,0,0,0,0,-1,1483,1758,8.07667,-59.5597
266,-734,7.97253,63.3893,0,0,0,0,0,0,0,-1,1490,1758,7.97259,-63.3893
273,-734,8.22437,62.0486,0,0,0,0,0,0,0,-1,1497,1758,8.22438,-62.0485
280,-734,7.90149,52.7294,0,0,0,0,0,0,0,-1,1504,1758,7.90153,-52.7294
287,-734,7.56177,50.5933,0,0,0,0,0,0,0,-1,1511,1758,7.56172,-50.5933
294,-734,7.42676,47.7545,0,0,0,0,0,0,0,-1,1518,1758,7.4268,-47.7545
301,-734,7.21814,42.6078,0,0,0,0,0,0,0,-1,1525,1758,7.21809,-42.6078
308,-734,8.0509,41.5156,0,0,0,0,0,0,0,-1,1532,1758,8.05087,-41.5157
315,-734,7.93787,40.8274,0,0,0,0,0,0,0,-1,1539,1758,7.93784,-40.8273
322,-734,7.82483,40.139,0,0,0,0,0,0,0,-1,1546,1758,7.82481,-40.139
329,-734,5.73267,19.656,0,0,0,0,0,0,0,-1,1553,1758,5.73262,-19.656
336,-734,6.71375,23.7469,0,0,0,0,0,0,0,-1,1560,1758,6.71372,-23.7469
343,-734,5.54968,5.14221,0,0,0,0,0,0,0,-1,1567,1758,5.54973,-5.14225
350,-734,5.07397,6.73242,0,0,0,0,0,0,0,-1,1574,1758,5.07402,-6.73243
357,-734,5.05542,7.19189,0,0,0,0,0,0,0,-1,1581,1758,5.05541,-7.19184
364,-734,4.43896,10.4904,0,0,0,0,0,0,0,-1,1588,1758,4.43893,-10.4904
371,-734,7.36975,17.4751,0,0,0,0,0,0,0,-1,1595,1758,7.36972,-17.4752
378,-734,0,0,0,0,0,0,0,0,0,-1,1602,1758,0,0
385,-734,0,0,0,0,0,0,0,0,0,-1,1609,1758,0,0
392,-734,0,0,0,0,0,0,0,0,0,-1,1616,1758,0,0
399,-734,0,0,0,0,0,0,0,0,0,-1,1623,1758,0,0
406,-734,0,0,0,0,0,0,0,0,0,-1,1630,1758,0,0
413,-734,0,0,0,0,0,0,0,0,0,-1,1637,1758,0,0
420,-734,0,0,0,0,0,0,0,0,0,-1,1644,1758,0,0
427,-734,0,0,0,0,0,0,0,0,0,-1,1651,1758,0,0
434,-734,0,0,0,0,0,0,0,0,0,-1,1658,1758,0,0
441,-734,0,0,0,0,0,0,0,0,0,-1,1665,1758,0,0
448,-734,0,0,0,0,0,0,0,0,0,-1,1672,1758,0,0
455,-734,0,0,0,0,0,0,0,0,0,-1,1679,1758,0,0
462,-734,0,0,0,0,0,0,0,0,0,-1,1686,1758,0,0
469,-734,0,0,0,0,0,0,0,0,0,-1,1693,1758,0,0
476,-734,0,0,0,0,0,0,0,0,0,-1,1700,1758,0,0
483,-734,0,0,0,0,0,0,0,0,0,-1,1707,1758,0,0
490,-734,0,0,0,0,0,0,0,0,0,-1,1714,1758,0,0
497,-734,0,0,0,0,0,0,0,0,0,-1,1721,1758,0,0
504,-734,0,0,0,0,0,0,0,0,0,-1,1728,1758,0,0
511,-734,0,0,0,0,0,0,0,0,0,-1,1735,1758,0,0
518,-734,0,0,0,0,0,0,0,0,0,-1,1742,1758,0,0
525,-734,0,0,0,0,0,0,0,0,0,-1,1749,1758,0,0
532,-734,0,0,0,0,0,0,0,0,0,-1,1756,1758,0,0
539,-734,0,0,0,0,0,0,0,0,0,-1,1763,1758,0,0
546,-734,0,0,0,0,0,0,0,0,0,-1,1770,1758,0,0
553,-734,0,0,0,0,0,0,0,0,0,-1,1777,1758,0,0
560,-734,0,0,0,0,0,0,0,0,0,-1,1784,1758,0,0
567,-734,0,0,0,0,0,0,0,0,0,-1,1791,1758,0,0
574,-734,0,0,0,0,0,0,0,0,0,-1,1798,1758,0,0
581,-734,0,0,0,0,0,0,0,0,0,-1,1805,1758,0,0
588,-734,0,0,0,0,0,0,0,0,0,-1,1812,1758,0,0
595,-734,0,0,0,0,0,0,0,0,0,-1,1819,1758,0,0
602,-734,0,0,0,0,0,0,0,0,0,-1,1826,1758,0,0
609,-734,0,0,0,0,0,0,0,0,0,-1,1833,1758,0,0
616,-734,0,0,0,0,0,0,0,0,0,-1,1840,1758,0,0
623,-734,0,0,0,0,0,0,0,0,0,-1,1847,1758,0,0
630,-734,0,0,0,0,0,0,0,0,0,-1,1854,1758,0,0
637,-734,0,0,0,0,0,0,0,0,0,-1,1861,1758,0,0
644,-734,0,0,0,0,0,0,0,0,0,-1,1868,1758,0,0
651,-734,0,0,0,0,0,0,0,0,0,-1,1875,1758,0,0
658,-734,0,0,0,0,0,0,0,0,0,-1,1882,1758,0,0
665,-734,0,0,0,0,0,0,0,0,0,-1,1889,1758,0,0
672,-734,0,0,0,0,0,0,0,0,0,-1,1896,1758,0,0
679,-734,0,0,0,0,0,0,0,0,0,-1,1903,1758,0,0
686,-734,0,0,0,0,0,0,0,0,0,-1,1910,1758,0,0
693,-734,0,0,0,0,0,0,0,0,0,-1,1917,1758,0,0
700,-734,0,0,0,0,0,0,0,0,0,-1,1924,1758,0,0
707,-734,0,0,0,0,0,0,0,0,0,-1,1931,1758,0,0
714,-734,0,0,0,0,0,0,0,0,0,-1,1938,1758,0,0
721,-734,0,0,0,0,0,0,0,0,0,-1,1945,1758,0,0
728,-734,0,0,0,0,0,0,0,0,0,-1,1952,1758,0,0
735,-734,0,0,0,0,0,0,0,0,0,-1,1959,1758,0,0
742,-734,0,0,0,0,0,0,0,0,0,-1,1966,1758,0,0
749,-734,0,0,0,0,0,0,0,0,0,-1,1973,1758,0,0
756,-734,0,0,0,0,0,0,0,0,0,-1,1980,1758,0,0
763,-734,0,0,0,0,0,0,0,0,0,-1,1987,1758,0,0
770,-734,0,0,0,0,0,0,0,0,0,-1,1994,1758,0,0
777,-734,0,0,0,0,0,0,0,0,0,-1,2001,1758,0,0
784,-734,0,0,0,0,0,0,0,0,0,-1,2008,1758,0,0
791,-734,0,0,0,0,0,0,0,0,0,-1,2015,1758,0,0
798,-734,0,0,0,0,0,0,0,0,0,-1,2022,1758,0,0
805,-734,0,0,0,0,0,0,0,0,0,-1,2029,1758,0,0
812,-734,0,0,0,0,0,0,0,0,0,-1,2036,1758,0,0
-700,-741,0,0,0,0,0,0,0,0,0,-1,524,1765,0,0
-693,-741,0,0,0,0,0,0,0,0,0,-1,531,1765,0,0
-686,-741,0,0,0,0,0,0,0,0,0,-1,538,1765,0,0
-679,-741,0,0,0,0,0,0,0,0,0,-1,545,1765,0,0
-672,-741,0,0,0,0,0,0,0,0,0,-1,552,1765,0,0
-665,-741,0,0,0,0,0,0,0,0,0,-1,559,1765,0,0
-658,-741,0,0,0,0,0,0,0,0,0,-1,566,1765,0,0
-651,-741,0,0,0,0,0,0,0,0,0,-1,573,1765,0,0
-644,-741,0,0,0,0,0,0,0,0,0,-1,580,1765,0,0
-637,-741,0,0,0,0,0,0,0,0,0,-1,587,1765,0,0
-630,-741,0,0,0,0,0,0,0,0,0,-1,594,1765,0,0
-623,-741,0,0,0,0,0,0,0,0,0,-1,601,1765,0,0
-616,-741,0,0,0,0,0,0,0,0,0,-1,608,1765,0,0
-609,-741,0,0,0,0,0,0,0,0,0,-1,615,1765,0,0
-602,-741,0,0,0,0,0,0,0,0,0,-1,622,1765,0,0
-595,-741,0,0,0,0,0,0,0,0,0,-1,629,1765,0,0
-588,-741,0,0,0,0,0,0,0,0,0,-1,636,1765,0,0
-581,-741,0,0,0,0,0,0,0,0,0,-1,643,1765,0,0
-574,-741,0,0,0,0,0,0,0,0,0,-1,650,1765,0,0
-567,-741,0,0,0,0,0,0,0,0,0,-1,657,1765,0,0
-560,-741,0,0,0,0,0,0,0,0,0,-1,664,1765,0,0
-553,-741,0,0,0,0,0,0,0,0,0,-1,671,1765,0,0
-546,-741,0,0,0,0,0,0,0,0,0,-1,678,1765,0,0
-539,-741,0,0,0,0,0,0,0,0,0,-1,685,1765,0,0
-532,-741,0,0,0,0,0,0,0,0,0,-1,692,1765,0,0
-525,-741,0,0,0,0,0,0,0,0,0,-1,699,1765,0,0
-518,-741,0,0,0,0,0,0,0,0,0,-1,706,1765,0,0
-511,-741,0,0,0,0,0,0,0,0,0,-1,713,1765,0,0
-504,-741,0,0,0,0,0,0,0,0,0,-1,720,1765,0,0
-497,-741,0,0,0,0,0,0,0,0,0,-1,727,1765,0,0
-490,-741,0,0,0,0,0,0,0,0,0,-1,734,1765,0,0
-483,-741,0,0,0,0,0,0,0,0,0,-1,741,1765,0,0
-476,-741,0,0,0,0,0,0,0,0,0,-1,748,1765,0,0
-469,-741,0,0,0,0,0,0,0,0,0,-1,755,1765,0,0
-462,-741,0,0,0,0,0,0,0,0,0,-1,762,1765,0,0
-455,-741,0,0,0,0,0,0,0,0,0,-1,769,1765,0,0
-448,-741,0,0,0,0,0,0,0,0,0,-1,776,1765,0,0
-441,-741,0,0,0,0,0,0,0,0,0,-1,783,1765,0,0
-434,-741,0,0,0,0,0,0,0,0,0,-1,790,1765,0,0
-427,-741,0,0,0,0,0,0,0,0,0,-1,797,1765,0,0
-420,-741,0,0,0,0,0,0,0,0,0,-1,804,1765,0,0
-413,-741,0,0,0,0,0,0,0,0,0,-1,811,1765,0,0
-406,-741,0,0,0,0,0,0,0,0,0,-1,818,1765,0,0
-399,-741,0,0,0,0,0,0,0,0,0,-1,825,1765,0,0
-392,-741,0,0,0,0,0,0,0,0,0,-1,832,1765,0,0
-385,-741,0,0,0,0,0,0,0,0,0,-1,839,1765,0,0
-378,-741,0,0,0,0,0,0,0,0,0,-1,846,1765,0,0
-371,-741,0,0,0,0,0,0,0,0,0,-1,853,1765,0,0
-364,-741,0,0,0,0,0,0,0,0,0,-1,860,1765,0,0
-357,-741,0,0,0,0,0,0,0,0,0,-1,867,1765,0,0
-350,-741,0,0,0,0,0,0,0,0,0,-1,874,1765,0,0
-343,-741,0,0,0,0,0,0,0,0,0,-1,881,1765,0,0
-336,-741,0,0,0,0,0,0,0,0,0,-1,888,1765,0,0
-329,-741,0,0,0,0,0,0,0,0,0,-1,895,1765,0,0
-322,-741,0,0,0,0,0,0,0,0,0,-1,902,1765,0,0
-315,-741,0,0,0,0,0,0,0,0,0,-1,909,1765,0,0
-308,-741,0,0,0,0,0,0,0,0,0,-1,916,1765,0,0
-301,-741,0,0,0,0,0,0,0,0,0,-1,923,1765,0,0
-294,-741,0,0,0,0,0,0,0,0,0,-1,930,1765,0,0
-287,-741,0,0,0,0,0,0,0,0,0,-1,937,1765,0,0
-280,-741,0,0,0,0,0,0,0,0,0,-1,944,1765,0,0
-273,-741,0,0,0,0,0,0,0,0,0,-1,951,1765,0,0
-266,-741,0,0,0,0,0,0,0,0,0,-1,958,1765,0,0
-259,-741,0,0,0,0,0,0,0,0,0,-1,965,1765,0,0
-252,-741,0,0,0,0,0,0,0,0,0,-1,972,1765,0,0
-245,-741,0,0,0,0,0,0,0,0,0,-1,979,1765,0,0
-238,-741,7.13855,29.8348,0,0,0,0,0,0,0,-1,986,1765,7.13856,-29.8348
-231,-741,7.74182,29.3066,0,0,0,0,0,0,0,-1,993,1765,7.74183,-29.3066
-224,-741,7.80078,29.0964,0,0,0,0,0,0,0,-1,1000,1765,7.80079,-29.0964
-217,-741,8.15863,29.113,0,0,0,0,0,0,0,-1,1007,1765,8.15863,-29.1131
-210,-741,8.37024,29.3896,0,0,0,0,0,0,0,-1,1014,1765,8.37022,-29.3896
-203,-741,7.703,44.0701,0,0,0,0,0,0,0,-1,1021,1765,7.70306,-44.0701
-196,-741,13.1698,50.7012,0,0,0,0,0,0,0,-1,1028,1765,13.1698,-50.7012
-189,-741,13.6135,77.9425,0,0,0,0,0,0,0,-1,1035,1765,13.6135,-77.9425
-182,-741,12.7972,79.3372,0,0,0,0,0,0,0,-1,1042,1765,12.7972,-79.3372
-175,-741,11.981,80.7318,0,0,0,0,0,0,0,-1,1049,1765,11.981,-80.7318
-168,-741,11.5565,64.798,0,0,0,0,0,0,0,-1,1056,1765,11.5566,-64.798
-161,-741,11.5831,65.5651,0,0,0,0,0,0,0,-1,1063,1765,11.5832,-65.5651
-154,-741,7.93201,50.9395,0,0,0,0,0,0,0,-1,1070,1765,7.93195,-50.9395
-147,-741,10.9515,48.8568,0,0,0,0,0,0,0,-1,1077,1765,10.9515,-48.8569
-140,-741,10.5068,51.2876,0,0,0,0,0,0,0,-1,1084,1765,10.5068,-51.2876
-133,-741,10.6208,54.5072,0,0,0,0,0,0,0,-1,1091,1765,10.6208,-54.5072
-126,-741,9.89746,52.7167,0,0,0,0,0,0,0,-1,1098,1765,9.8975,-52.7167
-119,-741,9.33801,50.1482,0,0,0,0,0,0,0,-1,1105,1765,9.33802,-50.1482
-112,-741,9.6283,47.2815,0,0,0,0,0,0,0,-1,1112,1765,9.62827,-47.2815
-105,-741,9.61792,45.9158,0,0,0,0,0,0,0,-1,1119,1765,9.61797,-45.9158
-98,-741,9.19971,40.25,0,0,0,0,0,0,0,-1,1126,1765,9.19971,-40.25
-91,-741,8.40002,36.3687,0,0,0,0,0,0,0,-1,1133,1765,8.40002,-36.3687
-84,-741,7.8877,35.0892,0,0,0,0,0,0,0,-1,1140,1765,7.88776,-35.0892
-77,-741,7.73303,34.1174,0,0,0,0,0,0,0,-1,1147,1765,7.73304,-34.1174
-70,-741,7.5437,32.0275,0,0,0,0,0,0,0,-1,1154,1765,7.5437,-32.0275
-63,-741,5.23914,219.52,0,0,0,0,0,0,0,-1,1161,1765,5.23915,-219.52
-56,-741,5.37952,221.236,0,0,0,0,0,0,0,-1,1168,1765,5.37953,-221.236
-49,-741,5.04431,222.469,0,0,0,0,0,0,0,-1,1175,1765,5.04427,-222.469
-42,-741,4.75269,223.704,0,0,0,0,0,0,0,-1,1182,1765,4.75267,-223.704
-35,-741,4.69629,224.624,-0.0202465,0.0183976,0.0029245,0.0186177,-0.0204666,1.49569,0.0225737,0.025605,1189,1765,4.69628,-224.624
-28,-741,4.59094,225.347,-0.0192848,0.0179212,0.00232987,0.0180665,-0.0194302,1.5085,0.0216535,0.0222732,1196,1765,4.59093,-225.347
-21,-741,4.50989,226.181,-0.0172228,0.0185991,0.0009609,0.0186249,-0.0172486,1.544,0.0207166,0.0271903,1203,1765,4.50992,-226.18
-14,-741,4.20911,227.064,-0.0153304,0.0194721,-0.000414882,0.019477,-0.0153353,-1.55888,0.0201463,0.023691,1210,1765,4.20915,-227.064
-7,-741,4.01465,227.799,-0.0136671,0.020722,-0.00146764,0.0207845,-0.0137296,-1.52822,0.020065,0.0202188,1217,1765,4.01464,-227.799
0,-741,3.89282,228.493,-0.0117687,0.0229795,-0.00271255,0.0231899,-0.0119792,-1.49336,0.0206459,0.0202088,1224,1765,3.89276,-228.493
7,-741,3.76257,229.118,-0.0103325,0.024039,-0.00346839,0.0243855,-0.010679,-1.47122,0.0207537,0.0226316,1231,1765,3.7626,-229.118
14,-741,3.55164,229.65,-0.00889251,0.0247609,-0.00427631,0.0252958,-0.00942739,-1.44636,0.0207335,0.0254907,1238,1765,3.55169,-229.65
21,-741,3.38416,230.061,-0.00771614,0.0259621,-0.00423063,0.0264854,-0.00823945,-1.44772,0.0209506,0.0247153,1245,1765,3.38411,-230.061
28,-741,3.27551,230.566,-0.00683552,0.025847,-0.00415904,0.0263679,-0.00735648,-1.44619,0.0204761,0.022948,1252,1765,3.27549,-230.566
35,-741,3.27881,230.924,-0.00604202,0.0249758,-0.00386933,0.0254512,-0.00651741,-1.44855,0.0195063,0.021105,1259,1765,3.27876,-230.924
42,-741,3.21057,231.212,-0.0056733,0.0234987,-0.00314788,0.0238346,-0.00600911,-1.46452,0.018226,0.0229319,1266,1765,3.21054,-231.212
49,-741,3.12708,231.425,-0.00587798,0.0217659,-0.00206231,0.0219189,-0.00603099,-1.49674,0.0169837,0.0151218,1273,1765,3.12712,-231.425
56,-741,3.02051,231.525,-0.00612012,0.0194729,-0.00104434,0.0195154,-0.00616266,-1.53008,0.015479,0.0140933,1280,1765,3.02045,-231.525
63,-741,2.91138,231.538,-0.00667687,0.0170969,-3.15085e-05,0.0170969,-0.00667692,-1.56947,0.0141585,0.0180586,1287,1765,2.91138,-231.538
70,-741,2.86389,231.531,-0.00703075,0.0148562,0.000841557,0.0148885,-0.00706306,1.53242,0.0129394,0.0205711,1294,1765,2.86384,-231.531
77,-741,2.80139,231.45,-0.00760396,0.0131785,0.0013519,0.0132661,-0.00769153,1.50611,0.0122418,0.0179534,1301,1765,2.80138,-231.45
84,-741,2.68677,231.326,-0.00846299,0.0113856,0.00186581,0.0115594,-0.00863686,1.47788,0.011701,0.0224187,1308,1765,2.68674,-231.326
91,-741,2.60718,231.169,-0.009093,0.0100401,0.00200547,0.010248,-0.00930095,1.46748,0.011291,0.0231489,1315,1765,2.60718,-231.169
98,-741,2.50513,230.86,-0.00946546,0.00907708,0.00166998,0.00922628,-0.00961466,1.48169,0.0108786,0.0169314,1322,1765,2.50512,-230.86
105,-741,2.4397,230.451,-0.00969174,0.00826051,0.00130343,0.00835465,-0.00978588,1.4987,0.0104843,0.014797,1329,1765,2.43973,-230.451
112,-741,2.39636,230.063,-0.0095734,0.00916989,0.00019977,0.00917202,-0.00957553,1.56014,0.0108247,0.014412,1336,1765,2.39635,-230.063
119,-741,2.16846,229.545,-0.00973955,0.0103768,-0.000752364,0.0104049,-0.00976765,-1.53347,0.0116486,0.0207519,1343,1765,2.16851,-229.545
126,-741,2.09265,228.92,-0.00985647,0.0105644,-0.00198109,0.0107548,-0.0100469,-1.47497,0.0120122,0.0305147,1350,1765,2.09271,-228.92
133,-741,1.97766,228.291,-0.0100352,0.0115166,-0.00271317,0.0118529,-0.0103715,-1.44747,0.0128408,0.0257396,1357,1765,1.97765,-228.291
140,-741,1.8418,227.502,-0.0106375,0.0121759,-0.00314396,0.0126012,-0.0110628,-1.43632,0.0136721,0.0226993,1364,1765,1.84179,-227.502
147,-741,1.65967,226.771,-0.0114715,0.0125362,-0.00360065,0.0130646,-0.0119999,-1.42509,0.0144753,0.0220663,1371,1765,1.65968,-226.771
154,-741,1.49561,226.042,-0.0123182,0.0120802,-0.0039699,0.0127099,-0.0129479,-1.41349,0.0148137,0.0153154,1378,1765,1.49558,-226.042
161,-741,1.37097,225.112,-0.0137662,0.0114217,-0.00384365,0.0119952,-0.0143397,-1.42269,0.0152245,0.0165616,1385,1765,1.37103,-225.112
168,-741,1.18176,224.139,-0.0153771,0.0103978,-0.00408112,0.0110285,-0.0160078,-1.41745,0.0156974,0.0301564,1392,1765,1.18171,-224.139
175,-741,0.916138,223.2,0,0,0,0,0,0,0,-1,1399,1765,0.916096,-223.2
182,-741,0.722778,222.125,0,0,0,0,0,0,0,-1,1406,1765,0.722725,-222.125
189,-741,0.433594,221.035,0,0,0,0,0,0,0,-1,1413,1765,0.433587,-221.035
196,-741,0.208374,219.783,0,0,0,0,0,0,0,-1,1420,1765,0.208314,-219.783
203,-741,-0.0625,218.385,0,0,0,0,0,0,0,-1,1427,1765,-0.0625374,-218.385
210,-741,-0.373535,216.864,0,0,0,0,0,0,0,-1,1434,1765,-0.373523,-216.864
217,-741,8.4032,40.1213,0,0,0,0,0,0,0,-1,1441,1765,8.40325,-40.1214
224,-741,8.0719,38.4249,0,0,0,0,0,0,0,-1,1448,1765,8.07187,-38.4249
231,-741,7.95923,39.0671,0,0,0,0,0,0,0,-1,1455,1765,7.9592,-39.0671
238,-741,7.96619,42.4865,0,0,0,0,0,0,0,-1,1462,1765,7.96621,-42.4864
245,-741,8.53577,45.7744,0,0,0,0,0,0,0,-1,1469,1765,8.53581,-45.7744
252,-741,8.59167,47.473,0,0,0,0,0,0,0,-1,1476,1765,8.59162,-47.473
259,-741,8.47412,48.5269,0,0,0,0,0,0,0,-1,1483,1765,8.47412,-48.5269
266,-741,8.50134,48.3838,0,0,0,0,0,0,0,-1,1490,1765,8.50132,-48.3838
273,-741,8.81421,49.1227,0,0,0,0,0,0,0,-1,1497,1765,8.81426,-49.1227
280,-741,7.33093,51.4729,0,0,0,0,0,0,0,-1,1504,1765,7.33092,-51.4729
287,-741,7.52783,49.7068,0,0,0,0,0,0,0,-1,1511,1765,7.52783,-49.7068
294,-741,5.91187,43.7742,0,0,0,0,0,0,0,-1,1518,1765,5.91188,-43.7742
301,-741,6.20667,38.5165,0,0,0,0,0,0,0,-1,1525,1765,6.20667,-38.5165
308,-741,7.99036,42.5969,0,0,0,0,0,0,0,-1,1532,1765,7.99037,-42.5969
315,-741,7.83838,41.6693,0,0,0,0,0,0,0,-1,1539,1765,7.83835,-41.6694
322,-741,7.68628,40.7418,0,0,0,0,0,0,0,-1,1546,1765,7.68633,-40.7418
329,-741,4.74414,17.928,0,0,0,0,0,0,0,-1,1553,1765,4.74414,-17.928
336,-741,5.74304,22.0945,0,0,0,0,0,0,0,-1,1560,1765,5.74306,-22.0945
343,-741,7.09888,26.501,0,0,0,0,0,0,0,-1,1567,1765,7.09885,-26.501
350,-741,4.90369,5.44666,0,0,0,0,0,0,0,-1,1574,1765,4.90368,-5.44664
357,-741,4.02063,5.16626,0,0,0,0,0,0,0,-1,1581,1765,4.02058,-5.1662
364,-741,0,0,0,0,0,0,0,0,0,-1,1588,1765,0,0
371,-741,0,0,0,0,0,0,0,0,0,-1,1595,1765,0,0
378,-741,0,0,0,0,0,0,0,0,0,-1,1602,1765,0,0
385,-741,0,0,0,0,0,0,0,0,0,-1,1609,1765,0,0
392,-741,0,0,0,0,0,0,0,0,0,-1,1616,1765,0,0
399,-741,0,0,0,0,0,0,0,0,0,-1,1623,1765,0,0
406,-741,0,0,0,0,0,0,0,0,0,-1,1630,1765,0,0
413,-741,0,0,0,0,0,0,0,0,0,-1,1637,1765,0,0
420,-741,0,0,0,0,0,0,0,0,0,-1,1644,1765,0,0
427,-741,0,0,0,0,0,0,0,0,0,-1,1651,1765,0,0
434,-741,0,0,0,0,0,0,0,0,0,-1,1658,1765,0,0
441,-741,0,0,0,0,0,0,0,0,0,-1,1665,1765,0,0
448,-741,0,0,0,0,0,0,0,0,0,-1,1672,1765,0,0
455,-741,0,0,0,0,0,0,0,0,0,-1,1679,1765,0,0
462,-741,0,0,0,0,0,0,0,0,0,-1,1686,1765,0,0
469,-741,0,0,0,0,0,0,0,0,0,-1,1693,1765,0,0
476,-741,0,0,0,0,0,0,0,0,0,-1,1700,1765,0,0
483,-741,0,0,0,0,0,0,0,0,0,-1,1707,1765,0,0
490,-741,0,0,0,0,0,0,0,0,0,-1,1714,1765,0,0
497,-741,0,0,0,0,0,0,0,0,0,-1,1721,1765,0,0
504,-741,0,0,0,0,0,0,0,0,0,-1,1728,1765,0,0
511,-741,0,0,0,0,0,0,0,0,0,-1,1735,1765,0,0
518,-741,0,0,0,0,0,0,0,0,0,-1,1742,1765,0,0
525,-741,0,0,0,0,0,0,0,0,0,-1,1749,1765,0,0
532,-741,0,0,0,0,0,0,0,0,0,-1,1756,1765,0,0
539,-741,0,0,0,0,0,0,0,0,0,-1,1763,1765,0,0
546,-741,0,0,0,0,0,0,0,0,0,-1,1770,1765,0,0
553,-741,0,0,0,0,0,0,0,0,0,-1,1777,1765,0,0
560,-741,0,0,0,0,0,0,0,0,0,-1,1784,1765,0,0
567,-741,0,0,0,0,0,0,0,0,0,-1,1791,1765,0,0
574,-741,0,0,0,0,0,0,0,0,0,-1,1798,1765,0,0
581,-741,0,0,0,0,0,0,0,0,0,-1,1805,1765,0,0
588,-741,0,0,0,0,0,0,0,0,0,-1,1812,1765,0,0
595,-741,0,0,0,0,0,0,0,0,0,-1,1819,1765,0,0
602,-741,0,0,0,0,0,0,0,0,0,-1,1826,1765,0,0
609,-741,0,0,0,0,0,0,0,0,0,-1,1833,1765,0,0
616,-741,0,0,0,0,0,0,0,0,0,-1,1840,1765,0,0
623,-741,0,0,0,0,0,0,0,0,0,-1,1847,1765,0,0
630,-741,0,0,0,0,0,0,0,0,0,-1,1854,1765,0,0
637,-741,0,0,0,0,0,0,0,0,0,-1,1861,1765,0,0
644,-741,0,0,0,0,0,0,0,0,0,-1,1868,1765,0,0
651,-741,0,0,0,0,0,0,0,0,0,-1,1875,1765,0,0
658,-741,0,0,0,0,0,0,0,0,0,-1,1882,1765,0,0
665,-741,0,0,0,0,0,0,0,0,0,-1,1889,1765,0,0
672,-741,0,0,0,0,0,0,0,0,0,-1,1896,1765,0,0
679,-741,0,0,0,0,0,0,0,0,0,-1,1903,1765,0,0
686,-741,0,0,0,0,0,0,0,0,0,-1,1910,1765,0,0
693,-741,0,0,0,0,0,0,0,0,0,-1,1917,1765,0,0
700,-741,0,0,0,0,0,0,0,0,0,-1,1924,1765,0,0
707,-741,0,0,0,0,0,0,0,0,0,-1,1931,1765,0,0
714,-741,0,0,0,0,0,0,0,0,0,-1,1938,1765,0,0
721,-741,0,0,0,0,0,0,0,0,0,-1,1945,1765,0,0
728,-741,0,0,0,0,0,0,0,0,0,-1,1952,1765,0,0
735,-741,0,0,0,0,0,0,0,0,0,-1,1959,1765,0,0
742,-741,0,0,0,0,0,0,0,0,0,-1,1966,1765,0,0
749,-741,0,0,0,0,0,0,0,0,0,-1,1973,1765,0,0
756,-741,0,0,0,0,0,0,0,0,0,-1,1980,1765,0,0
763,-741,0,0,0,0,0,0,0,0,0,-1,1987,1765,0,0
770,-741,0,0,0,0,0,0,0,0,0,-1,1994,1765,0,0
777,-741,0,0,0,0,0,0,0,0,0,-1,2001,1765,0,0
784,-741,0,0,0,0,0,0,0,0,0,-1,2008,1765,0,0
791,-741,0,0,0,0,0,0,0,0,0,-1,2015,1765,0,0
798,-741,0,0,0,0,0,0,0,0,0,-1,2022,1765,0,0
805,-741,0,0,0,0,0,0,0,0,0,-1,2029,1765,0,0
812,-741,0,0,0,0,0,0,0,0,0,-1,2036,1765,0,0
-700,-748,0,0,0,0,0,0,0,0,0,-1,524,1772,0,0
-693,-748,0,0,0,0,0,0,0,0,0,-1,531,1772,0,0
-686,-748,0,0,0,0,0,0,0,0,0,-1,538,1772,0,0
-679,-748,0,0,0,0,0,0,0,0,0,-1,545,1772,0,0
-672,-748,0,0,0,0,0,0,0,0,0,-1,552,1772,0,0
-665,-748,0,0,0,0,0,0,0,0,0,-1,559,1772,0,0
-658,-748,0,0,0,0,0,0,0,0,0,-1,566,1772,0,0
-651,-748,0,0,0,0,0,0,0,0,0,-1,573,1772,0,0
-644,-748,0,0,0,0,0,0,0,0,0,-1,580,1772,0,0
-637,-748,0,0,0,0,0,0,0,0,0,-1,587,1772,0,0
-630,-748,0,0,0,0,0,0,0,0,0,-1,594,1772,0,0
-623,-748,0,0,0,0,0,0,0,0,0,-1,601,1772,0,0
-616,-748,0,0,0,0,0,0,0,0,0,-1,608,1772,0,0
-609,-748,0,0,0,0,0,0,0,0,0,-1,615,1772,0,0
-602,-748,0,0,0,0,0,0,0,0,0,-1,622,1772,0,0
-595,-748,0,0,0,0,0,0,0,0,0,-1,629,1772,0,0
-588,-748,0,0,0,0,0,0,0,0,0,-1,636,1772,0,0
-581,-748,0,0,0,0,0,0,0,0,0,-1,643,1772,0,0
-574,-748,0,0,0,0,0,0,0,0,0,-1,650,1772,0,0
-567,-748,0,0,0,0,0,0,0,0,0,-1,657,1772,0,0
-560,-748,0,0,0,0,0,0,0,0,0,-1,664,1772,0,0
-553,-748,0,0,0,0,0,0,0,0,0,-1,671,1772,0,0
-546,-748,0,0,0,0,0,0,0,0,0,-1,678,1772,0,0
-539,-748,0,0,0,0,0,0,0,0,0,-1,685,1772,0,0
-532,-748,0,0,0,0,0,0,0,0,0,-1,692,1772,0,0
-525,-748,0,0,0,0,0,0,0,0,0,-1,699,1772,0,0
-518,-748,0,0,0,0,0,0,0,0,0,-1,706,1772,0,0
-511,-748,0,0,0,0,0,0,0,0,0,-1,713,1772,0,0
-504,-748,0,0,0,0,0,0,0,0,0,-1,720,1772,0,0
-497,-748,0,0,0,0,0,0,0,0,0,-1,727,1772,0,0
-490,-748,0,0,0,0,0,0,0,0,0,-1,734,1772,0,0
-483,-748,0,0,0,0,0,0,0,0,0,-1,741,1772,0,0
-476,-748,0,0,0,0,0,0,0,0,0,-1,748,1772,0,0
-469,-748,0,0,0,0,0,0,0,0,0,-1,755,1772,0,0
-462,-748,0,0,0,0,0,0,0,0,0,-1,762,1772,0,0
-455,-748,0,0,0,0,0,0,0,0,0,-1,769,1772,0,0
-448,-748,0,0,0,0,0,0,0,0,0,-1,776,1772,0,0
-441,-748,0,0,0,0,0,0,0,0,0,-1,783,1772,0,0
-434,-748,0,0,0,0,0,0,0,0,0,-1,790,1772,0,0
-427,-748,0,0,0,0,0,0,0,0,0,-1,797,1772,0,0
-420,-748,0,0,0,0,0,0,0,0,0,-1,804,1772,0,0
-413,-748,0,0,0,0,0,0,0,0,0,-1,811,1772,0,0
-406,-748,0,0,0,0,0,0,0,0,0,-1,818,1772,0,0
-399,-748,0,0,0,0,0,0,0,0,0,-1,825,1772,0,0
-392,-748,0,0,0,0,0,0,0,0,0,-1,832,1772,0,0
-385,-748,0,0,0,0,0,0,0,0,0,-1,839,1772,0,0
-378,-748,0,0,0,0,0,0,0,0,0,-1,846,1772,0,0
-371,-748,0,0,0,0,0,0,0,0,0,-1,853,1772,0,0
-364,-748,0,0,0,0,0,0,0,0,0,-1,860,1772,0,0
-357,-748,0,0,0,0,0,0,0,0,0,-1,867,1772,0,0
-350,-748,0,0,0,0,0,0,0,0,0,-1,874,1772,0,0
-343,-748,0,0,0,0,0,0,0,0,0,-1,881,1772,0,0
-336,-748,0,0,0,0,0,0,0,0,0,-1,888,1772,0,0
-329,-748,0,0,0,0,0,0,0,0,0,-1,895,1772,0,0
-322,-748,0,0,0,0,0,0,0,0,0,-1,902,1772,0,0
-315,-748,0,0,0,0,0,0,0,0,0,-1,909,1772,0,0
-308,-748,0,0,0,0,0,0,0,0,0,-1,916,1772,0,0
-301,-748,0,0,0,0,0,0,0,0,0,-1,923,1772,0,0
-294,-748,0,0,0,0,0,0,0,0,0,-1,930,1772,0,0
-287,-748,0,0,0,0,0,0,0,0,0,-1,937,1772,0,0
-280,-748,0,0,0,0,0,0,0,0,0,-1,944,1772,0,0
-273,-748,0,0,0,0,0,0,0,0,0,-1,951,1772,0,0
-266,-748,0,0,0,0,0,0,0,0,0,-1,958,1772,0,0
-259,-748,0,0,0,0,0,0,0,0,0,-1,965,1772,0,0
-252,-748,0,0,0,0,0,0,0,0,0,-1,972,1772,0,0
-245,-748,0,0,0,0,0,0,0,0,0,-1,979,1772,0,0
-238,-748,0,0,0,0,0,0,0,0,0,-1,986,1772,0,0
-231,-748,0,0,0,0,0,0,0,0,0,-1,993,1772,0,0
-224,-748,0,0,0,0,0,0,0,0,0,-1,1000,1772,0,0
-217,-748,8.97742,29.9884,0,0,0,0,0,0,0,-1,1007,1772,8.97744,-29.9884
-210,-748,8.8941,30.14,0,0,0,0,0,0,0,-1,1014,1772,8.8941,-30.14
-203,-748,7.88,43.3942,0,0,0,0,0,0,0,-1,1021,1772,7.87999,-43.3941
-196,-748,7.95483,43.9952,0,0,0,0,0,0,0,-1,1028,1772,7.95478,-43.9953
-189,-748,14.6794,78.3651,0,0,0,0,0,0,0,-1,1035,1772,14.6794,-78.3652
-182,-748,13.9248,79.833,0,0,0,0,0,0,0,-1,1042,1772,13.9248,-79.833
-175,-748,13.17,81.3008,0,0,0,0,0,0,0,-1,1049,1772,13.1701,-81.3008
-168,-748,12.4545,65.7625,0,0,0,0,0,0,0,-1,1056,1772,12.4545,-65.7625
-161,-748,12.5651,66.1248,0,0,0,0,0,0,0,-1,1063,1772,12.565,-66.1247
-154,-748,11.4552,48.7113,0,0,0,0,0,0,0,-1,1070,1772,11.4552,-48.7113
-147,-748,11.7789,49.4792,0,0,0,0,0,0,0,-1,1077,1772,11.7789,-49.4793
-140,-748,10.4108,44.9001,0,0,0,0,0,0,0,-1,1084,1772,10.4107,-44.9001
-133,-748,7.44727,22.0308,0,0,0,0,0,0,0,-1,1091,1772,7.44728,-22.0308
-126,-748,5.98035,22.6067,0,0,0,0,0,0,0,-1,1098,1772,5.9803,-22.6067
-119,-748,6.63342,26.309,0,0,0,0,0,0,0,-1,1105,1772,6.6334,-26.3089
-112,-748,6.91333,24.923,0,0,0,0,0,0,0,-1,1112,1772,6.91339,-24.923
-105,-748,6.83313,25.0537,0,0,0,0,0,0,0,-1,1119,1772,6.83311,-25.0537
-98,-748,8.13623,30.8743,0,0,0,0,0,0,0,-1,1126,1772,8.13628,-30.8742
-91,-748,4.85352,15.3033,0,0,0,0,0,0,0,-1,1133,1772,4.85351,-15.3033
-84,-748,-0.192017,7.26196,0,0,0,0,0,0,0,-1,1140,1772,-0.192047,-7.26201
-77,-748,4.42615,13.5537,0,0,0,0,0,0,0,-1,1147,1772,4.4261,-13.5538
-70,-748,4.46191,13.7446,0,0,0,0,0,0,0,-1,1154,1772,4.4619,-13.7446
-63,-748,4.49768,13.9355,0,0,0,0,0,0,0,-1,1161,1772,4.49769,-13.9355
-56,-748,3.05762,7.87817,0,0,0,0,0,0,0,-1,1168,1772,3.05768,-7.87822
-49,-748,3.04102,7.82471,0,0,0,0,0,0,0,-1,1175,1772,3.04096,-7.82468
-42,-748,0.793457,14.9474,0,0,0,0,0,0,0,-1,1182,1772,0.793413,-14.9474
-35,-748,5.60034,224.594,0,0,0,0,0,0,0,-1,1189,1772,5.60034,-224.594
-28,-748,5.53613,225.318,0,0,0,0,0,0,0,-1,1196,1772,5.53619,-225.318
-21,-748,5.27844,226.061,-0.0254184,0.0263598,0.00149334,0.0264028,-0.0254614,1.54199,0.0299455,0.0462302,1203,1772,5.27839,-226.061
-14,-748,4.90186,226.945,-0.0228346,0.0277959,-0.000603773,0.0278031,-0.0228418,-1.55887,0.0292866,0.0392389,1210,1772,4.90181,-226.945
-7,-748,4.80151,227.803,-0.0207158,0.0297127,-0.00214,0.0298033,-0.0208065,-1.52846,0.0293731,0.0381061,1217,1772,4.80156,-227.803
0,-748,4.52185,228.38,-0.0180442,0.0329643,-0.00406576,0.0332864,-0.0183662,-1.49175,0.0302335,0.0294318,1224,1772,4.52188,-228.38
7,-748,4.26233,228.958,-0.0160892,0.0346545,-0.00530029,0.0352022,-0.0166369,-1.46783,0.0305624,0.0249159,1231,1772,4.26227,-228.957
14,-748,4.07214,229.506,-0.0142311,0.0360823,-0.006616,0.0369377,-0.0150865,-1.44221,0.0309067,0.0308451,1238,1772,4.07218,-229.506
21,-748,3.89221,229.992,-0.01201,0.0384115,-0.00587676,0.0390874,-0.0126859,-1.45629,0.0311599,0.0225814,1245,1772,3.89219,-229.992
28,-748,3.69092,230.471,-0.0100342,0.0384397,-0.00514456,0.0389797,-0.0105742,-1.46622,0.0301361,0.0215476,1252,1772,3.69097,-230.471
35,-748,3.47949,230.766,-0.00864905,0.0375803,-0.004285,0.0379741,-0.00904287,-1.47915,0.0288074,0.0234232,1259,1772,3.4795,-230.766
42,-748,3.50671,231.026,-0.00778467,0.0355259,-0.00265029,0.0356874,-0.00794625,-1.50991,0.0268354,0.0245074,1266,1772,3.50676,-231.026
49,-748,3.34656,231.276,-0.00760934,0.0329891,-0.000429034,0.0329936,-0.00761387,-1.56023,0.0249244,0.0175575,1273,1772,3.34655,-231.276
56,-748,3.14392,231.423,-0.00747566,0.0296941,0.0016846,0.0297703,-0.00755186,1.5256,0.0227852,0.0144527,1280,1772,3.14389,-231.423
63,-748,2.97119,231.484,-0.00777855,0.0260893,0.00376464,0.0265028,-0.00819197,1.46142,0.0209403,0.0168073,1287,1772,2.97117,-231.484
70,-748,2.85828,231.438,-0.00804029,0.0225134,0.0054505,0.0234566,-0.00898349,1.39944,0.0193406,0.0214694,1294,1772,2.8583,-231.438
77,-748,2.70447,231.287,-0.00879944,0.0195665,0.00650514,0.0209871,-0.0102201,1.35578,0.0183715,0.0193609,1301,1772,2.70442,-231.287
84,-748,2.48926,231.183,-0.0100701,0.0163637,0.00747016,0.0183287,-0.0120351,1.31358,0.0176557,0.0217777,1308,1772,2.48924,-231.183
91,-748,2.3396,231.056,-0.0112235,0.013812,0.00766166,0.0159706,-0.0133821,1.29618,0.0169687,0.0193675,1315,1772,2.33964,-231.056
98,-748,2.18469,230.787,-0.0121842,0.011854,0.00695741,0.0137224,-0.0140527,1.30843,0.0160363,0.0179104,1322,1772,2.18466,-230.787
105,-748,2.1073,230.329,-0.0130941,0.0100679,0.00621458,0.01163,-0.0146561,1.32454,0.0152098,0.0171019,1329,1772,2.10733,-230.329
112,-748,1.93262,229.869,-0.013502,0.0107348,0.00430971,0.0114783,-0.0142455,1.39995,0.0148802,0.0207076,1336,1772,1.93263,-229.869
119,-748,1.70569,229.379,-0.0140966,0.0120363,0.00241951,0.0122584,-0.0143187,1.47925,0.0153597,0.0222269,1343,1772,1.70574,-229.379
126,-748,1.49158,228.833,-0.0151431,0.0116811,-0.000484868,0.0116899,-0.0151519,-1.55273,0.01554,0.0249973,1350,1772,1.49158,-228.833
133,-748,1.31592,228.176,-0.0160958,0.0133403,-0.00219,0.0135023,-0.0162579,-1.49694,0.0172066,0.014572,1357,1772,1.31589,-228.176
140,-748,1.14136,227.434,-0.0166201,0.014378,-0.00290993,0.0146488,-0.0168909,-1.478,0.0182248,0.0201981,1364,1772,1.14132,-227.434
147,-748,0.868164,226.74,-0.0174207,0.015253,-0.00380473,0.0156902,-0.0178579,-1.45639,0.0193825,0.0249941,1371,1772,0.868193,-226.74
154,-748,0.642456,225.974,-0.0181486,0.01485,-0.00458712,0.0154758,-0.0187744,-1.43521,0.0198049,0.0210602,1378,1772,0.642449,-225.974
161,-748,0.532104,225.06,-0.0197741,0.0139179,-0.00440373,0.014484,-0.0203402,-1.44295,0.0202003,0.0257568,1385,1772,0.532045,-225.06
168,-748,0.392456,224.109,0,0,0,0,0,0,0,-1,1392,1772,0.392431,-224.109
175,-748,11.6235,16.8242,0,0,0,0,0,0,0,-1,1399,1772,11.6236,-16.8242
182,-748,7.62476,10.3058,0,0,0,0,0,0,0,-1,1406,1772,7.62476,-10.3058
189,-748,6.15857,6.95898,0,0,0,0,0,0,0,-1,1413,1772,6.15862,-6.95896
196,-748,3.9425,8.46021,0,0,0,0,0,0,0,-1,1420,1772,3.9425,-8.46026
203,-748,3.9668,12.9835,0,0,0,0,0,0,0,-1,1427,1772,3.96678,-12.9836
210,-748,4.71472,16.8318,0,0,0,0,0,0,0,-1,1434,1772,4.71471,-16.8317
217,-748,5.38452,21.5551,0,0,0,0,0,0,0,-1,1441,1772,5.38455,-21.555
224,-748,6.14258,25.2345,0,0,0,0,0,0,0,-1,1448,1772,6.14263,-25.2345
231,-748,6.46045,29.7867,0,0,0,0,0,0,0,-1,1455,1772,6.46049,-29.7867
238,-748,7.41565,32.8574,0,0,0,0,0,0,0,-1,1462,1772,7.41562,-32.8574
245,-748,7.84912,32.0914,0,0,0,0,0,0,0,-1,1469,1772,7.84914,-32.0914
252,-748,7.57336,29.4369,0,0,0,0,0,0,0,-1,1476,1772,7.57337,-29.4369
259,-748,9.47351,46.1896,0,0,0,0,0,0,0,-1,1483,1772,9.4735,-46.1895
266,-748,8.36536,48.6908,0,0,0,0,0,0,0,-1,1490,1772,8.36541,-48.6909
273,-748,7.31421,46.6743,0,0,0,0,0,0,0,-1,1497,1772,7.31415,-46.6743
280,-748,8.76538,40.4501,0,0,0,0,0,0,0,-1,1504,1772,8.76537,-40.45
287,-748,14.161,8.32813,0,0,0,0,0,0,0,-1,1511,1772,14.161,-8.32808
294,-748,6.38525,32.4724,0,0,0,0,0,0,0,-1,1518,1772,6.38521,-32.4725
301,-748,5.40393,38.9807,0,0,0,0,0,0,0,-1,1525,1772,5.40397,-38.9807
308,-748,5.95227,37.1827,0,0,0,0,0,0,0,-1,1532,1772,5.95229,-37.1827
315,-748,7.71741,42.637,0,0,0,0,0,0,0,-1,1539,1772,7.71738,-42.637
322,-748,4.26538,29.0557,0,0,0,0,0,0,0,-1,1546,1772,4.26537,-29.0556
329,-748,3.87256,16.1473,0,0,0,0,0,0,0,-1,1553,1772,3.87259,-16.1474
336,-748,4.81006,19.6141,0,0,0,0,0,0,0,-1,1560,1772,4.81011,-19.6141
343,-748,0,0,0,0,0,0,0,0,0,-1,1567,1772,0,0
350,-748,0,0,0,0,0,0,0,0,0,-1,1574,1772,0,0
357,-748,0,0,0,0,0,0,0,0,0,-1,1581,1772,0,0
364,-748,0,0,0,0,0,0,0,0,0,-1,1588,1772,0,0
371,-748,0,0,0,0,0,0,0,0,0,-1,1595,1772,0,0
378,-748,0,0,0,0,0,0,0,0,0,-1,1602,1772,0,0
385,-748,0,0,0,0,0,0,0,0,0,-1,1609,1772,0,0
392,-748,0,0,0,0,0,0,0,0,0,-1,1616,1772,0,0
399,-748,0,0,0,0,0,0,0,0,0,-1,1623,1772,0,0
406,-748,0,0,0,0,0,0,0,0,0,-1,1630,1772,0,0
413,-748,0,0,0,0,0,0,0,0,0,-1,1637,1772,0,0
420,-748,0,0,0,0,0,0,0,0,0,-1,1644,1772,0,0
427,-748,0,0,0,0,0,0,0,0,0,-1,1651,1772,0,0
434,-748,0,0,0,0,0,0,0,0,0,-1,1658,1772,0,0
441,-748,0,0,0,0,0,0,0,0,0,-1,1665,1772,0,0
448,-748,0,0,0,0,0,0,0,0,0,-1,1672,1772,0,0
455,-748,0,0,0,0,0,0,0,0,0,-1,1679,1772,0,0
462,-748,0,0,0,0,0,0,0,0,0,-1,1686,1772,0,0
469,-748,0,0,0,0,0,0,0,0,0,-1,1693,1772,0,0
476,-748,0,0,0,0,0,0,0,0,0,-1,1700,1772,0,0
483,-748,0,0,0,0,0,0,0,0,0,-1,1707,1772,0,0
490,-748,0,0,0,0,0,0,0,0,0,-1,1714,1772,0,0
497,-748,0,0,0,0,0,0,0,0,0,-1,1721,1772,0,0
504,-748,0,0,0,0,0,0,0,0,0,-1,1728,1772,0,0
511,-748,0,0,0,0,0,0,0,0,0,-1,1735,1772,0,0
518,-748,0,0,0,0,0,0,0,0,0,-1,1742,1772,0,0
525,-748,0,0,0,0,0,0,0,0,0,-1,1749,1772,0,0
532,-748,0,0,0,0,0,0,0,0,0,-1,1756,1772,0,0
539,-748,0,0,0,0,0,0,0,0,0,-1,1763,1772,0,0
546,-748,0,0,0,0,0,0,0,0,0,-1,1770,1772,0,0
553,-748,0,0,0,0,0,0,0,0,0,-1,1777,1772,0,0
560,-748,0,0,0,0,0,0,0,0,0,-1,1784,1772,0,0
567,-748,0,0,0,0,0,0,0,0,0,-1,1791,1772,0,0
574,-748,0,0,0,0,0,0,0,0,0,-1,1798,1772,0,0
581,-748,0,0,0,0,0,0,0,0,0,-1,1805,1772,0,0
588,-748,0,0,0,0,0,0,0,0,0,-1,1812,1772,0,0
595,-748,0,0,0,0,0,0,0,0,0,-1,1819,1772,0,0
602,-748,0,0,0,0,0,0,0,0,0,-1,1826,1772,0,0
609,-748,0,0,0,0,0,0,0,0,0,-1,1833,1772,0,0
616,-748,0,0,0,0,0,0,0,0,0,-1,1840,1772,0,0
623,-748,0,0,0,0,0,0,0,0,0,-1,1847,1772,0,0
630,-748,0,0,0,0,0,0,0,0,0,-1,1854,1772,0,0
637,-748,0,0,0,0,0,0,0,0,0,-1,1861,1772,0,0
644,-748,0,0,0,0,0,0,0,0,0,-1,1868,1772,0,0
651,-748,0,0,0,0,0,0,0,0,0,-1,1875,1772,0,0
658,-748,0,0,0,0,0,0,0,0,0,-1,1882,1772,0,0
665,-748,0,0,0,0,0,0,0,0,0,-1,1889,1772,0,0
672,-748,0,0,0,0,0,0,0,0,0,-1,1896,1772,0,0
679,-748,0,0,0,0,0,0,0,0,0,-1,1903,1772,0,0
686,-748,0,0,0,0,0,0,0,0,0,-1,1910,1772,0,0
693,-748,0,0,0,0,0,0,0,0,0,-1,1917,1772,0,0
700,-748,0,0,0,0,0,0,0,0,0,-1,1924,1772,0,0
707,-748,0,0,0,0,0,0,0,0,0,-1,1931,1772,0,0
714,-748,0,0,0,0,0,0,0,0,0,-1,1938,1772,0,0
721,-748,0,0,0,0,0,0,0,0,0,-1,1945,1772,0,0
728,-748,0,0,0,0,0,0,0,0,0,-1,1952,1772,0,0
735,-748,0,0,0,0,0,0,0,0,0,-1,1959,1772,0,0
742,-748,0,0,0,0,0,0,0,0,0,-1,1966,1772,0,0
749,-748,0,0,0,0,0,0,0,0,0,-1,1973,1772,0,0
756,-748,0,0,0,0,0,0,0,0,0,-1,1980,1772,0,0
763,-748,0,0,0,0,0,0,0,0,0,-1,1987,1772,0,0
770,-748,0,0,0,0,0,0,0,0,0,-1,1994,1772,0,0
777,-748,0,0,0,0,0,0,0,0,0,-1,2001,1772,0,0
784,-748,0,0,0,0,0,0,0,0,0,-1,2008,1772,0,0
791,-748,0,0,0,0,0,0,0,0,0,-1,2015,1772,0,0
798,-748,0,0,0,0,0,0,0,0,0,-1,2022,1772,0,0
805,-748,0,0,0,0,0,0,0,0,0,-1,2029,1772,0,0
812,-748,0,0,0,0,0,0,0,0,0,-1,2036,1772,0,0
-700,-755,0,0,0,0,0,0,0,0,0,-1,524,1779,0,0
-693,-755,0,0,0,0,0,0,0,0,0,-1,531,1779,0,0
-686,-755,0,0,0,0,0,0,0,0,0,-1,538,1779,0,0
-679,-755,0,0,0,0,0,0,0,0,0,-1,545,1779,0,0
-672,-755,0,0,0,0,0,0,0,0,0,-1,552,1779,0,0
-665,-755,0,0,0,0,0,0,0,0,0,-1,559,1779,0,0
-658,-755,0,0,0,0,0,0,0,0,0,-1,566,1779,0,0
-651,-755,0,0,0,0,0,0,0,0,0,-1,573,1779,0,0
-644,-755,0,0,0,0,0,0,0,0,0,-1,580,1779,0,0
-637,-755,0,0,0,0,0,0,0,0,0,-1,587,1779,0,0
-630,-755,0,0,0,0,0,0,0,0,0,-1,594,1779,0,0
-623,-755,0,0,0,0,0,0,0,0,0,-1,601,1779,0,0
-616,-755,0,0,0,0,0,0,0,0,0,-1,608,1779,0,0
-609,-755,0,0,0,0,0,0,0,0,0,-1,615,1779,0,0
-602,-755,0,0,0,0,0,0,0,0,0,-1,622,1779,0,0
-595,-755,0,0,0,0,0,0,0,0,0,-1,629,1779,0,0
-588,-755,0,0,0,0,0,0,0,0,0,-1,636,1779,0,0
-581,-755,0,0,0,0,0,0,0,0,0,-1,643,1779,0,0
-574,-755,0,0,0,0,0,0,0,0,0,-1,650,1779,0,0
-567,-755,0,0,0,0,0,0,0,0,0,-1,657,1779,0,0
-560,-755,0,0,0,0,0,0,0,0,0,-1,664,1779,0,0
-553,-755,0,0,0,0,0,0,0,0,0,-1,671,1779,0,0
-546,-755,0,0,0,0,0,0,0,0,0,-1,678,1779,0,0
-539,-755,0,0,0,0,0,0,0,0,0,-1,685,1779,0,0
-532,-755,0,0,0,0,0,0,0,0,0,-1,692,1779,0,0
-525,-755,0,0,0,0,0,0,0,0,0,-1,699,1779,0,0
-518,-755,0,0,0,0,0,0,0,0,0,-1,706,1779,0,0
-511,-755,0,0,0,0,0,0,0,0,0,-1,713,1779,0,0
-504,-755,0,0,0,0,0,0,0,0,0,-1,720,1779,0,0
-497,-755,0,0,0,0,0,0,0,0,0,-1,727,1779,0,0
-490,-755,0,0,0,0,0,0,0,0,0,-1,734,1779,0,0
-483,-755,0,0,0,0,0,0,0,0,0,-1,741,1779,0,0
-476,-755,0,0,0,0,0,0,0,0,0,-1,748,1779,0,0
-469,-755,0,0,0,0,0,0,0,0,0,-1,755,1779,0,0
-462,-755,0,0,0,0,0,0,0,0,0,-1,762,1779,0,0
-455,-755,0,0,0,0,0,0,0,0,0,-1,769,1779,0,0
-448,-755,0,0,0,0,0,0,0,0,0,-1,776,1779,0,0
-441,-755,0,0,0,0,0,0,0,0,0,-1,783,1779,0,0
-434,-755,0,0,0,0,0,0,0,0,0,-1,790,1779,0,0
-427,-755,0,0,0,0,0,0,0,0,0,-1,797,1779,0,0
-420,-755,0,0,0,0,0,0,0,0,0,-1,804,1779,0,0
-413,-755,0,0,0,0,0,0,0,0,0,-1,811,1779,0,0
-406,-755,0,0,0,0,0,0,0,0,0,-1,818,1779,0,0
-399,-755,0,0,0,0,0,0,0,0,0,-1,825,1779,0,0
-392,-755,0,0,0,0,0,0,0,0,0,-1,832,1779,0,0
-385,-755,0,0,0,0,0,0,0,0,0,-1,839,1779,0,0
-378,-755,0,0,0,0,0,0,0,0,0,-1,846,1779,0,0
-371,-755,0,0,0,0,0,0,0,0,0,-1,853,1779,0,0
-364,-755,0,0,0,0,0,0,0,0,0,-1,860,1779,0,0
-357,-755,0,0,0,0,0,0,0,0,0,-1,867,1779,0,0
-350,-755,0,0,0,0,0,0,0,0,0,-1,874,1779,0,0
-343,-755,0,0,0,0,0,0,0,0,0,-1,881,1779,0,0
-336,-755,0,0,0,0,0,0,0,0,0,-1,888,1779,0,0
-329,-755,0,0,0,0,0,0,0,0,0,-1,895,1779,0,0
-322,-755,0,0,0,0,0,0,0,0,0,-1,902,1779,0,0
-315,-755,0,0,0,0,0,0,0,0,0,-1,909,1779,0,0
-308,-755,0,0,0,0,0,0,0,0,0,-1,916,1779,0,0
-301,-755,0,0,0,0,0,0,0,0,0,-1,923,1779,0,0
-294,-755,0,0,0,0,0,0,0,0,0,-1,930,1779,0,0
-287,-755,0,0,0,0,0,0,0,0,0,-1,937,1779,0,0
-280,-755,0,0,0,0,0,0,0,0,0,-1,944,1779,0,0
-273,-755,0,0,0,0,0,0,0,0,0,-1,951,1779,0,0
-266,-755,0,0,0,0,0,0,0,0,0,-1,958,1779,0,0
-259,-755,0,0,0,0,0,0,0,0,0,-1,965,1779,0,0
-252,-755,0,0,0,0,0,0,0,0,0,-1,972,1779,0,0
-245,-755,0,0,0,0,0,0,0,0,0,-1,979,1779,0,0
-238,-755,0,0,0,0,0,0,0,0,0,-1,986,1779,0,0
-231,-755,0,0,0,0,0,0,0,0,0,-1,993,1779,0,0
-224,-755,0,0,0,0,0,0,0,0,0,-1,1000,1779,0,0
-217,-755,0,0,0,0,0,0,0,0,0,-1,1007,1779,0,0
-210,-755,0,0,0,0,0,0,0,0,0,-1,1014,1779,0,0
-203,-755,8.97363,30.5414,0,0,0,0,0,0,0,-1,1021,1779,8.97362,-30.5414
-196,-755,8.08667,43.2203,0,0,0,0,0,0,0,-1,1028,1779,8.08666,-43.2204
-189,-755,0.725098,39.8892,0,0,0,0,0,0,0,-1,1035,1779,0.725055,-39.8891
-182,-755,14.9128,80.5583,0,0,0,0,0,0,0,-1,1042,1779,14.9128,-80.5583
-175,-755,13.1752,66.5742,0,0,0,0,0,0,0,-1,1049,1779,13.1752,-66.5742
-168,-755,13.4839,66.8397,0,0,0,0,0,0,0,-1,1056,1779,13.4839,-66.8397
-161,-755,13.7926,67.1051,0,0,0,0,0,0,0,-1,1063,1779,13.7926,-67.1051
-154,-755,7.71094,44.9023,0,0,0,0,0,0,0,-1,1070,1779,7.71089,-44.9023
-147,-755,-6.45593,10.2422,0,0,0,0,0,0,0,-1,1077,1779,-6.45594,-10.2422
-140,-755,1.33521,21.3856,0,0,0,0,0,0,0,-1,1084,1779,1.33522,-21.3857
-133,-755,2.89417,21.0964,0,0,0,0,0,0,0,-1,1091,1779,2.89422,-21.0964
-126,-755,3.26404,20.9304,0,0,0,0,0,0,0,-1,1098,1779,3.26399,-20.9305
-119,-755,5.17761,21.9325,0,0,0,0,0,0,0,-1,1105,1779,5.17761,-21.9325
-112,-755,5.40247,24.5646,0,0,0,0,0,0,0,-1,1112,1779,5.40244,-24.5646
-105,-755,7.01294,20.1539,0,0,0,0,0,0,0,-1,1119,1779,7.01295,-20.154
-98,-755,5.50708,16.9628,0,0,0,0,0,0,0,-1,1126,1779,5.5071,-16.9628
-91,-755,5.51025,12.0438,0,0,0,0,0,0,0,-1,1133,1779,5.51022,-12.0439
-84,-755,0.169312,8.66443,0,0,0,0,0,0,0,-1,1140,1779,0.16932,-8.66446
-77,-755,-0.0491943,6.87439,0,0,0,0,0,0,0,-1,1147,1779,-0.0491385,-6.87443
-70,-755,4.5686,13.2169,0,0,0,0,0,0,0,-1,1154,1779,4.56865,-13.2169
-63,-755,-1.36316,7.3147,0,0,0,0,0,0,0,-1,1161,1779,-1.36312,-7.31473
-56,-755,0.0483398,5.06079,0,0,0,0,0,0,0,-1,1168,1779,0.0483138,-5.06084
-49,-755,-1.32263,5.33716,0,0,0,0,0,0,0,-1,1175,1779,-1.32264,-5.33718
-42,-755,-2.03613,4.01672,0,0,0,0,0,0,0,-1,1182,1779,-2.0361,-4.01671
-35,-755,-2.72498,2.37476,0,0,0,0,0,0,0,-1,1189,1779,-2.72502,-2.37473
-28,-755,7.69934,180.947,0,0,0,0,0,0,0,-1,1196,1779,7.69932,-180.947
-21,-755,6.28186,225.944,0,0,0,0,0,0,0,-1,1203,1779,6.28185,-225.944
-14,-755,5.49646,226.522,0,0,0,0,0,0,0,-1,1210,1779,5.49649,-226.522
-7,-755,5.53564,227.552,0,0,0,0,0,0,0,-1,1217,1779,5.5356,-227.552
0,-755,5.27905,228.031,-0.0230656,0.0426636,-0.00559772,0.0431369,-0.0235389,-1.48644,0.0390457,0.0367094,1224,1779,5.27909,-228.031
7,-755,4.81738,228.469,-0.0207407,0.0450479,-0.00737368,0.0458642,-0.021557,-1.46054,0.03976,0.0241308,1231,1779,4.81741,-228.469
14,-755,4.69617,229.168,-0.0185067,0.0473564,-0.00929651,0.0486434,-0.0197938,-1.43323,0.0406657,0.0255842,1238,1779,4.6962,-229.168
21,-755,4.32532,229.853,-0.0136939,0.0512444,-0.00664441,0.0519173,-0.0143668,-1.46987,0.0402641,0.0363337,1245,1779,4.32534,-229.853
28,-755,4.05798,230.236,-0.00954553,0.0513556,-0.00450744,0.0516874,-0.00987733,-1.49732,0.038179,0.0384928,1252,1779,4.05801,-230.236
35,-755,3.87195,230.526,-0.00678999,0.050601,-0.00241931,0.0507028,-0.00689179,-1.52874,0.0363178,0.0339272,1259,1779,3.87189,-230.526
42,-755,3.65649,230.751,-0.00468017,0.048054,0.00079786,0.0480661,-0.00469224,1.55567,0.0337171,0.0227372,1266,1779,3.65653,-230.751
49,-755,3.47827,231.007,-0.0033992,0.0447453,0.00484457,0.0452279,-0.00388185,1.4715,0.0315257,0.0152866,1273,1779,3.47822,-231.007
56,-755,3.26941,231.227,-0.00216409,0.0404121,0.00875678,0.0421428,-0.00389477,1.37567,0.0294793,0.0179471,1280,1779,3.26941,-231.227
63,-755,3.03052,231.483,-0.00157851,0.0355076,0.0125035,0.0393293,-0.00540022,1.27416,0.0281926,0.0178326,1287,1779,3.03055,-231.483
70,-755,2.92505,231.319,-0.00147944,0.0304909,0.015282,0.0366205,-0.00760911,1.18934,0.0273058,0.0233988,1294,1779,2.92499,-231.319
77,-755,2.63196,231.056,-0.00243533,0.0261782,0.0169174,0.0340273,-0.0102844,1.13639,0.0267795,0.0188649,1301,1779,2.63191,-231.056
84,-755,2.29639,230.989,-0.00426796,0.0213911,0.0182953,0.0309069,-0.0137838,1.09118,0.0264259,0.0197314,1308,1779,2.29644,-230.989
91,-755,2.06067,230.863,-0.00635543,0.0174617,0.0182695,0.0273611,-0.0162548,1.07423,0.0254524,0.0210674,1315,1779,2.06069,-230.863
98,-755,1.86218,230.674,-0.00852686,0.014367,0.0167424,0.0232016,-0.0173615,1.08525,0.0234999,0.0218932,1322,1779,1.86218,-230.674
105,-755,1.7085,230.152,-0.0107214,0.0115145,0.015147,0.0191859,-0.0183928,1.10199,0.0216977,0.0225374,1329,1779,1.70853,-230.152
112,-755,1.55396,229.62,-0.0123825,0.0117534,0.0118589,0.0166049,-0.0172341,1.18247,0.0195381,0.0298476,1336,1779,1.55391,-229.62
119,-755,1.39355,229.115,-0.0142215,0.0130145,0.00835215,0.0153717,-0.0165787,1.29572,0.018451,0.0315816,1343,1779,1.39356,-229.115
126,-755,1.11963,228.668,-0.018269,0.011563,0.00213155,0.0117145,-0.0184205,1.49983,0.0175415,0.0367669,1350,1779,1.11959,-228.668
133,-755,0.685059,228.076,-0.0209291,0.0143164,-0.00106242,0.0143484,-0.0209611,-1.54069,0.0205047,0.0357395,1357,1779,0.685051,-228.076
140,-755,0.387085,227.507,-0.0211808,0.0157982,-0.00204786,0.0159113,-0.0212939,-1.51564,0.0215552,0.0422365,1364,1779,0.387087,-227.507
147,-755,0.117554,226.737,-0.0216748,0.0173244,-0.00334993,0.0176101,-0.0219604,-1.48573,0.022892,0.0414654,1371,1779,0.117596,-226.737
154,-755,-0.11145,226.107,-0.0219166,0.0171016,-0.0045931,0.017635,-0.02245,-1.45518,0.0231987,0.0415985,1378,1779,-0.111397,-226.107
161,-755,-0.27417,225.031,0,0,0,0,0,0,0,-1,1385,1779,-0.27423,-225.031
168,-755,3.98181,7.35901,0,0,0,0,0,0,0,-1,1392,1779,3.98184,-7.35904
175,-755,8.17065,1.34363,0,0,0,0,0,0,0,-1,1399,1779,8.1706,-1.34368
182,-755,8.09216,2.96924,0,0,0,0,0,0,0,-1,1406,1779,8.09213,-2.9693
189,-755,8.04419,4.68042,0,0,0,0,0,0,0,-1,1413,1779,8.04419,-4.68046
196,-755,7.74841,7.4541,0,0,0,0,0,0,0,-1,1420,1779,7.74842,-7.45405
203,-755,4.80554,6.88696,0,0,0,0,0,0,0,-1,1427,1779,4.80554,-6.88697
210,-755,25.1694,7.35693,0,0,0,0,0,0,0,-1,1434,1779,25.1694,-7.35688
217,-755,5.01648,16.411,0,0,0,0,0,0,0,-1,1441,1779,5.01646,-16.411
224,-755,5.18103,22.6283,0,0,0,0,0,0,0,-1,1448,1779,5.18101,-22.6283
231,-755,5.7489,30.15,0,0,0,0,0,0,0,-1,1455,1779,5.74885,-30.15
238,-755,6.56323,29.2726,0,0,0,0,0,0,0,-1,1462,1779,6.56327,-29.2726
245,-755,8.29639,28.2113,0,0,0,0,0,0,0,-1,1469,1779,8.29639,-28.2113
252,-755,6.8877,28.8699,0,0,0,0,0,0,0,-1,1476,1779,6.88774,-28.8698
259,-755,6.42676,30.8574,0,0,0,0,0,0,0,-1,1483,1779,6.42677,-30.8575
266,-755,17.255,7.86096,0,0,0,0,0,0,0,-1,1490,1779,17.255,-7.86092
273,-755,15.7932,7.59778,0,0,0,0,0,0,0,-1,1497,1779,15.7932,-7.59777
280,-755,14.6255,7.34802,0,0,0,0,0,0,0,-1,1504,1779,14.6254,-7.34806
287,-755,13.8279,7.83105,0,0,0,0,0,0,0,-1,1511,1779,13.8279,-7.83104
294,-755,12.5695,7.96814,0,0,0,0,0,0,0,-1,1518,1779,12.5694,-7.9682
301,-755,11.2659,8.27087,0,0,0,0,0,0,0,-1,1525,1779,11.2658,-8.27087
308,-755,5.17737,37.2896,0,0,0,0,0,0,0,-1,1532,1779,5.17742,-37.2896
315,-755,0.828613,31.032,0,0,0,0,0,0,0,-1,1539,1779,0.828668,-31.032
322,-755,0,0,0,0,0,0,0,0,0,-1,1546,1779,0,0
329,-755,0,0,0,0,0,0,0,0,0,-1,1553,1779,0,0
336,-755,0,0,0,0,0,0,0,0,0,-1,1560,1779,0,0
343,-755,0,0,0,0,0,0,0,0,0,-1,1567,1779,0,0
350,-755,0,0,0,0,0,0,0,0,0,-1,1574,1779,0,0
357,-755,0,0,0,0,0,0,0,0,0,-1,1581,1779,0,0
364,-755,0,0,0,0,0,0,0,0,0,-1,1588,1779,0,0
371,-755,0,0,0,0,0,0,0,0,0,-1,1595,1779,0,0
378,-755,0,0,0,0,0,0,0,0,0,-1,1602,1779,0,0
385,-755,0,0,0,0,0,0,0,0,0,-1,1609,1779,0,0
392,-755,0,0,0,0,0,0,0,0,0,-1,1616,1779,0,0
399,-755,0,0,0,0,0,0,0,0,0,-1,1623,1779,0,0
406,-755,0,0,0,0,0,0,0,0,0,-1,1630,1779,0,0
413,-755,0,0,0,0,0,0,0,0,0,-1,1637,1779,0,0
420,-755,0,0,0,0,0,0,0,0,0,-1,1644,1779,0,0
427,-755,0,0,0,0,0,0,0,0,0,-1,1651,1779,0,0
434,-755,0,0,0,0,0,0,0,0,0,-1,1658,1779,0,0
441,-755,0,0,0,0,0,0,0,0,0,-1,1665,1779,0,0
448,-755,0,0,0,0,0,0,0,0,0,-1,1672,1779,0,0
455,-755,0,0,0,0,0,0,0,0,0,-1,1679,1779,0,0
462,-755,0,0,0,0,0,0,0,0,0,-1,1686,1779,0,0
469,-755,0,0,0,0,0,0,0,0,0,-1,1693,1779,0,0
476,-755,0,0,0,0,0,0,0,0,0,-1,1700,1779,0,0
483,-755,0,0,0,0,0,0,0,0,0,-1,1707,1779,0,0
490,-755,0,0,0,0,0,0,0,0,0,-1,1714,1779,0,0
497,-755,0,0,0,0,0,0,0,0,0,-1,1721,1779,0,0
504,-755,0,0,0,0,0,0,0,0,0,-1,1728,1779,0,0
511,-755,0,0,0,0,0,0,0,0,0,-1,1735,1779,0,0
518,-755,0,0,0,0,0,0,0,0,0,-1,1742,1779,0,0
525,-755,0,0,0,0,0,0,0,0,0,-1,1749,1779,0,0
532,-755,0,0,0,0,0,0,0,0,0,-1,1756,1779,0,0
539,-755,0,0,0,0,0,0,0,0,0,-1,1763,1779,0,0
546,-755,0,0,0,0,0,0,0,0,0,-1,1770,1779,0,0
553,-755,0,0,0,0,0,0,0,0,0,-1,1777,1779,0,0
560,-755,0,0,0,0,0,0,0,0,0,-1,1784,1779,0,0
567,-755,0,0,0,0,0,0,0,0,0,-1,1791,1779,0,0
574,-755,0,0,0,0,0,0,0,0,0,-1,1798,1779,0,0
581,-755,0,0,0,0,0,0,0,0,0,-1,1805,1779,0,0
588,-755,0,0,0,0,0,0,0,0,0,-1,1812,1779,0,0
595,-755,0,0,0,0,0,0,0,0,0,-1,1819,1779,0,0
602,-755,0,0,0,0,0,0,0,0,0,-1,1826,1779,0,0
609,-755,0,0,0,0,0,0,0,0,0,-1,1833,1779,0,0
616,-755,0,0,0,0,0,0,0,0,0,-1,1840,1779,0,0
623,-755,0,0,0,0,0,0,0,0,0,-1,1847,1779,0,0
630,-755,0,0,0,0,0,0,0,0,0,-1,1854,1779,0,0
637,-755,0,0,0,0,0,0,0,0,0,-1,1861,1779,0,0
644,-755,0,0,0,0,0,0,0,0,0,-1,1868,1779,0,0
651,-755,0,0,0,0,0,0,0,0,0,-1,1875,1779,0,0
658,-755,0,0,0,0,0,0,0,0,0,-1,1882,1779,0,0
665,-755,0,0,0,0,0,0,0,0,0,-1,1889,1779,0,0
672,-755,0,0,0,0,0,0,0,0,0,-1,1896,1779,0,0
679,-755,0,0,0,0,0,0,0,0,0,-1,1903,1779,0,0
686,-755,0,0,0,0,0,0,0,0,0,-1,1910,1779,0,0
693,-755,0,0,0,0,0,0,0,0,0,-1,1917,1779,0,0
700,-755,0,0,0,0,0,0,0,0,0,-1,1924,1779,0,0
707,-755,0,0,0,0,0,0,0,0,0,-1,1931,1779,0,0
714,-755,0,0,0,0,0,0,0,0,0,-1,1938,1779,0,0
721,-755,0,0,0,0,0,0,0,0,0,-1,1945,1779,0,0
728,-755,0,0,0,0,0,0,0,0,0,-1,1952,1779,0,0
735,-755,0,0,0,0,0,0,0,0,0,-1,1959,1779,0,0
742,-755,0,0,0,0,0,0,0,0,0,-1,1966,1779,0,0
749,-755,0,0,0,0,0,0,0,0,0,-1,1973,1779,0,0
756,-755,0,0,0,0,0,0,0,0,0,-1,1980,1779,0,0
763,-755,0,0,0,0,0,0,0,0,0,-1,1987,1779,0,0
770,-755,0,0,0,0,0,0,0,0,0,-1,1994,1779,0,0
777,-755,0,0,0,0,0,0,0,0,0,-1,2001,1779,0,0
784,-755,0,0,0,0,0,0,0,0,0,-1,2008,1779,0,0
791,-755,0,0,0,0,0,0,0,0,0,-1,2015,1779,0,0
798,-755,0,0,0,0,0,0,0,0,0,-1,2022,1779,0,0
805,-755,0,0,0,0,0,0,0,0,0,-1,2029,1779,0,0
812,-755,0,0,0,0,0,0,0,0,0,-1,2036,1779,0,0
-700,-762,0,0,0,0,0,0,0,0,0,-1,524,1786,0,0
-693,-762,0,0,0,0,0,0,0,0,0,-1,531,1786,0,0
-686,-762,0,0,0,0,0,0,0,0,0,-1,538,1786,0,0
-679,-762,0,0,0,0,0,0,0,0,0,-1,545,1786,0,0
-672,-762,0,0,0,0,0,0,0,0,0,-1,552,1786,0,0
-665,-762,0,0,0,0,0,0,0,0,0,-1,559,1786,0,0
-658,-762,0,0,0,0,0,0,0,0,0,-1,566,1786,0,0
-651,-762,0,0,0,0,0,0,0,0,0,-1,573,1786,0,0
-644,-762,0,0,0,0,0,0,0,0,0,-1,580,1786,0,0
-637,-762,0,0,0,0,0,0,0,0,0,-1,587,1786,0,0
-630,-762,0,0,0,0,0,0,0,0,0,-1,594,1786,0,0
-623,-762,0,0,0,0,0,0,0,0,0,-1,601,1786,0,0
-616,-762,0,0,0,0,0,0,0,0,0,-1,608,1786,0,0
-609,-762,0,0,0,0,0,0,0,0,0,-1,615,1786,0,0
-602,-762,0,0,0,0,0,0,0,0,0,-1,622,1786,0,0
-595,-762,0,0,0,0,0,0,0,0,0,-1,629,1786,0,0
-588,-762,0,0,0,0,0,0,0,0,0,-1,636,1786,0,0
-581,-762,0,0,0,0,0,0,0,0,0,-1,643,1786,0,0
-574,-762,0,0,0,0,0,0,0,0,0,-1,650,1786,0,0
-567,-762,0,0,0,0,0,0,0,0,0,-1,657,1786,0,0
-560,-762,0,0,0,0,0,0,0,0,0,-1,664,1786,0,0
-553,-762,0,0,0,0,0,0,0,0,0,-1,671,1786,0,0
-546,-762,0,0,0,0,0,0,0,0,0,-1,678,1786,0,0
-539,-762,0,0,0,0,0,0,0,0,0,-1,685,1786,0,0
-532,-762,0,0,0,0,0,0,0,0,0,-1,692,1786,0,0
-525,-762,0,0,0,0,0,0,0,0,0,-1,699,1786,0,0
-518,-762,0,0,0,0,0,0,0,0,0,-1,706,1786,0,0
-511,-762,0,0,0,0,0,0,0,0,0,-1,713,1786,0,0
-504,-762,0,0,0,0,0,0,0,0,0,-1,720,1786,0,0
-497,-762,0,0,0,0,0,0,0,0,0,-1,727,1786,0,0
-490,-762,0,0,0,0,0,0,0,0,0,-1,734,1786,0,0
-483,-762,0,0,0,0,0,0,0,0,0,-1,741,1786,0,0
-476,-762,0,0,0,0,0,0,0,0,0,-1,748,1786,0,0
-469,-762,0,0,0,0,0,0,0,0,0,-1,755,1786,0,0
-462,-762,0,0,0,0,0,0,0,0,0,-1,762,1786,0,0
-455,-762,0,0,0,0,0,0,0,0,0,-1,769,1786,0,0
-448,-762,0,0,0,0,0,0,0,0,0,-1,776,1786,0,0
-441,-762,0,0,0,0,0,0,0,0,0,-1,783,1786,0,0
-434,-762,0,0,0,0,0,0,0,0,0,-1,790,1786,0,0
-427,-762,0,0,0,0,0,0,0,0,0,-1,797,1786,0,0
-420,-762,0,0,0,0,0,0,0,0,0,-1,804,1786,0,0
-413,-762,0,0,0,0,0,0,0,0,0,-1,811,1786,0,0
-406,-762,0,0,0,0,0,0,0,0,0,-1,818,1786,0,0
-399,-762,0,0,0,0,0,0,0,0,0,-1,825,1786,0,0
-392,-762,0,0,0,0,0,0,0,0,0,-1,832,1786,0,0
-385,-762,0,0,0,0,0,0,0,0,0,-1,839,1786,0,0
-378,-762,0,0,0,0,0,0,0,0,0,-1,846,1786,0,0
-371,-762,0,0,0,0,0,0,0,0,0,-1,853,1786,0,0
-364,-762,0,0,0,0,0,0,0,0,0,-1,860,1786,0,0
-357,-762,0,0,0,0,0,0,0,0,0,-1,867,1786,0,0
-350,-762,0,0,0,0,0,0,0,0,0,-1,874,1786,0,0
-343,-762,0,0,0,0,0,0,0,0,0,-1,881,1786,0,0
-336,-762,0,0,0,0,0,0,0,0,0,-1,888,1786,0,0
-329,-762,0,0,0,0,0,0,0,0,0,-1,895,1786,0,0
-322,-762,0,0,0,0,0,0,0,0,0,-1,902,1786,0,0
-315,-762,0,0,0,0,0,0,0,0,0,-1,909,1786,0,0
-308,-762,0,0,0,0,0,0,0,0,0,-1,916,1786,0,0
-301,-762,0,0,0,0,0,0,0,0,0,-1,923,1786,0,0
-294,-762,0,0,0,0,0,0,0,0,0,-1,930,1786,0,0
-287,-762,0,0,0,0,0,0,0,0,0,-1,937,1786,0,0
-280,-762,0,0,0,0,0,0,0,0,0,-1,944,1786,0,0
-273,-762,0,0,0,0,0,0,0,0,0,-1,951,1786,0,0
-266,-762,0,0,0,0,0,0,0,0,0,-1,958,1786,0,0
-259,-762,0,0,0,0,0,0,0,0,0,-1,965,1786,0,0
-252,-762,0,0,0,0,0,0,0,0,0,-1,972,1786,0,0
-245,-762,0,0,0,0,0,0,0,0,0,-1,979,1786,0,0
-238,-762,0,0,0,0,0,0,0,0,0,-1,986,1786,0,0
-231,-762,0,0,0,0,0,0,0,0,0,-1,993,1786,0,0
-224,-762,0,0,0,0,0,0,0,0,0,-1,1000,1786,0,0
-217,-762,0,0,0,0,0,0,0,0,0,-1,1007,1786,0,0
-210,-762,0,0,0,0,0,0,0,0,0,-1,1014,1786,0,0
-203,-762,0,0,0,0,0,0,0,0,0,-1,1021,1786,0,0
-196,-762,0,0,0,0,0,0,0,0,0,-1,1028,1786,0,0
-189,-762,0,0,0,0,0,0,0,0,0,-1,1035,1786,0,0
-182,-762,4.44226,13.2462,0,0,0,0,0,0,0,-1,1042,1786,4.44227,-13.2462
-175,-762,2.39929,44.7904,0,0,0,0,0,0,0,-1,1049,1786,2.39932,-44.7903
-168,-762,14.4796,67.9244,0,0,0,0,0,0,0,-1,1056,1786,14.4797,-67.9245
-161,-762,-3.29077,11.9508,0,0,0,0,0,0,0,-1,1063,1786,-3.29076,-11.9508
-154,-762,-4.55823,11.1176,0,0,0,0,0,0,0,-1,1070,1786,-4.55828,-11.1175
-147,-762,-6.52454,9.41418,0,0,0,0,0,0,0,-1,1077,1786,-6.52458,-9.41419
-140,-762,4.99792,5.28589,0,0,0,0,0,0,0,-1,1084,1786,4.99793,-5.28587
-133,-762,0.689819,19.2172,0,0,0,0,0,0,0,-1,1091,1786,0.689867,-19.2171
-126,-762,1.48743,19.9288,0,0,0,0,0,0,0,-1,1098,1786,1.48738,-19.9289
-119,-762,2.65637,20.208,0,0,0,0,0,0,0,-1,1105,1786,2.65632,-20.208
-112,-762,6.84705,25.5554,0,0,0,0,0,0,0,-1,1112,1786,6.84706,-25.5554
-105,-762,5.57947,21.618,0,0,0,0,0,0,0,-1,1119,1786,5.57948,-21.618
-98,-762,5.0636,17.9901,0,0,0,0,0,0,0,-1,1126,1786,5.06361,-17.9901
-91,-762,4.54773,14.3622,0,0,0,0,0,0,0,-1,1133,1786,4.54774,-14.3622
-84,-762,3.96375,10.4547,0,0,0,0,0,0,0,-1,1140,1786,3.96371,-10.4548
-77,-762,0.305054,8.49365,0,0,0,0,0,0,0,-1,1147,1786,0.305008,-8.49362
-70,-762,0.183716,6.74622,0,0,0,0,0,0,0,-1,1154,1786,0.183696,-6.74621
-63,-762,-0.883057,9.08813,0,0,0,0,0,0,0,-1,1161,1786,-0.88311,-9.08808
-56,-762,-0.578979,5.10254,0,0,0,0,0,0,0,-1,1168,1786,-0.578951,-5.10249
-49,-762,-2.04541,3.66321,0,0,0,0,0,0,0,-1,1175,1786,-2.0454,-3.66319
-42,-762,-2.23462,3.474,0,0,0,0,0,0,0,-1,1182,1786,-2.23459,-3.47399
-35,-762,-3.28992,1.68164,0,0,0,0,0,0,0,-1,1189,1786,-3.28998,-1.68164
-28,-762,-3.75378,1.37769,0,0,0,0,0,0,0,-1,1196,1786,-3.75373,-1.37767
-21,-762,9.78528,125.281,0,0,0,0,0,0,0,-1,1203,1786,9.78533,-125.281
-14,-762,5.03748,213.865,0,0,0,0,0,0,0,-1,1210,1786,5.03748,-213.865
-7,-762,5.19324,214.193,0,0,0,0,0,0,0,-1,1217,1786,5.1932,-214.193
0,-762,6.09888,227.609,0,0,0,0,0,0,0,-1,1224,1786,6.09887,-227.608
7,-762,5.57373,227.984,0,0,0,0,0,0,0,-1,1231,1786,5.57372,-227.984
14,-762,5.10889,228.724,0,0,0,0,0,0,0,-1,1238,1786,5.10883,-228.724
21,-762,4.64465,229.532,0,0,0,0,0,0,0,-1,1245,1786,4.64462,-229.532
28,-762,4.40613,229.947,0,0,0,0,0,0,0,-1,1252,1786,4.40615,-229.947
35,-762,4.13977,230.218,0,0,0,0,0,0,0,-1,1259,1786,4.13979,-230.218
42,-762,3.57654,230.442,0,0,0,0,0,0,0,-1,1266,1786,3.57659,-230.442
49,-762,3.5885,230.771,0,0,0,0,0,0,0,-1,1273,1786,3.5885,-230.771
56,-762,3.16211,231.355,0,0,0,0,0,0,0,-1,1280,1786,3.16213,-231.355
63,-762,3.20251,231.51,0.00452673,0.0443709,0.020892,0.0533169,-0.00441922,1.16622,0.0371055,0.0473857,1287,1786,3.20249,-231.51
70,-762,2.98474,231.308,0.00483471,0.0376281,0.0249566,0.0510925,-0.00862963,1.07604,0.0372727,0.0420169,1294,1786,2.9848,-231.308
77,-762,2.56702,231.066,0.0035902,0.0317078,0.0273641,0.0484133,-0.0131153,1.0227,0.0374214,0.0389459,1301,1786,2.56696,-231.066
84,-762,2.27661,231.148,0.00116147,0.0250313,0.0294095,0.0448353,-0.0186425,0.978154,0.0376746,0.0489161,1308,1786,2.27665,-231.148
91,-762,1.86096,230.986,0,0,0,0,0,0,0,-1,1315,1786,1.86101,-230.986
98,-762,1.45557,230.504,0,0,0,0,0,0,0,-1,1322,1786,1.45551,-230.504
105,-762,1.43494,230.362,-0.00820198,0.0113084,0.0247881,0.0281917,-0.0250853,0.972862,0.0307769,0.0494932,1329,1786,1.43495,-230.362
112,-762,1.14026,229.428,-0.0108051,0.0111464,0.0202128,0.0231712,-0.0228299,1.03413,0.0265589,0.046815,1336,1786,1.14026,-229.428
119,-762,0.974243,228.795,-0.0136086,0.012513,0.0150035,0.0193442,-0.0204397,1.14354,0.0229722,0.0483781,1343,1786,0.974186,-228.795
126,-762,0.707764,228.582,0,0,0,0,0,0,0,-1,1350,1786,0.707802,-228.582
133,-762,0.103882,228.031,0,0,0,0,0,0,0,-1,1357,1786,0.103907,-228.031
140,-762,-0.354004,227.391,-0.0241918,0.0164631,-0.000433113,0.0164678,-0.0241964,-1.56014,0.0236184,0.0462366,1364,1786,-0.354005,-227.391
147,-762,-0.57312,226.673,-0.0240233,0.0189473,-0.00220807,0.0190604,-0.0241364,-1.51959,0.0249971,0.0446675,1371,1786,-0.573081,-226.673
154,-762,-0.892822,226.391,0,0,0,0,0,0,0,-1,1378,1786,-0.89287,-226.391
161,-762,8.65051,34.8102,0,0,0,0,0,0,0,-1,1385,1786,8.65054,-34.8101
168,-762,8.19287,0.880615,0,0,0,0,0,0,0,-1,1392,1786,8.19291,-0.880603
175,-762,8.33997,1.95947,0,0,0,0,0,0,0,-1,1399,1786,8.33997,-1.95942
182,-762,8.28418,3.56482,0,0,0,0,0,0,0,-1,1406,1786,8.28415,-3.56485
189,-762,8.21179,5.23389,0,0,0,0,0,0,0,-1,1413,1786,8.21183,-5.23383
196,-762,8.05969,6.95483,0,0,0,0,0,0,0,-1,1420,1786,8.05972,-6.9548
203,-762,24.0077,7.10425,0,0,0,0,0,0,0,-1,1427,1786,24.0077,-7.10426
210,-762,23.8073,7.6499,0,0,0,0,0,0,0,-1,1434,1786,23.8073,-7.64987
217,-762,23.3193,8.24426,0,0,0,0,0,0,0,-1,1441,1786,23.3194,-8.2442
224,-762,2.65149,20.6106,0,0,0,0,0,0,0,-1,1448,1786,2.65153,-20.6106
231,-762,5.46655,23.521,0,0,0,0,0,0,0,-1,1455,1786,5.46653,-23.521
238,-762,5.35632,29.7203,0,0,0,0,0,0,0,-1,1462,1786,5.35629,-29.7203
245,-762,6.93054,27.8312,0,0,0,0,0,0,0,-1,1469,1786,6.93058,-27.8312
252,-762,6.20215,28.3027,0,0,0,0,0,0,0,-1,1476,1786,6.20211,-28.3027
259,-762,5.46472,28.8762,0,0,0,0,0,0,0,-1,1483,1786,5.46476,-28.8762
266,-762,16.451,7.67773,0,0,0,0,0,0,0,-1,1490,1786,16.4511,-7.67773
273,-762,15.287,7.5304,0,0,0,0,0,0,0,-1,1497,1786,15.2869,-7.53044
280,-762,14.1501,7.38379,0,0,0,0,0,0,0,-1,1504,1786,14.1502,-7.38376
287,-762,12.6891,7.99133,0,0,0,0,0,0,0,-1,1511,1786,12.6891,-7.99135
294,-762,12.6959,8.30371,0,0,0,0,0,0,0,-1,1518,1786,12.6959,-8.30368
301,-762,11.4222,8.84143,0,0,0,0,0,0,0,-1,1525,1786,11.4223,-8.84149
308,-762,0,0,0,0,0,0,0,0,0,-1,1532,1786,0,0
315,-762,0,0,0,0,0,0,0,0,0,-1,1539,1786,0,0
322,-762,0,0,0,0,0,0,0,0,0,-1,1546,1786,0,0
329,-762,0,0,0,0,0,0,0,0,0,-1,1553,1786,0,0
336,-762,0,0,0,0,0,0,0,0,0,-1,1560,1786,0,0
343,-762,0,0,0,0,0,0,0,0,0,-1,1567,1786,0,0
350,-762,0,0,0,0,0,0,0,0,0,-1,1574,1786,0,0
357,-762,0,0,0,0,0,0,0,0,0,-1,1581,1786,0,0
364,-762,0,0,0,0,0,0,0,0,0,-1,1588,1786,0,0
371,-762,0,0,0,0,0,0,0,0,0,-1,1595,1786,0,0
378,-762,0,0,0,0,0,0,0,0,0,-1,1602,1786,0,0
385,-762,0,0,0,0,0,0,0,0,0,-1,1609,1786,0,0
392,-762,0,0,0,0,0,0,0,0,0,-1,1616,1786,0,0
399,-762,0,0,0,0,0,0,0,0,0,-1,1623,1786,0,0
406,-762,0,0,0,0,0,0,0,0,0,-1,1630,1786,0,0
413,-762,0,0,0,0,0,0,0,0,0,-1,1637,1786,0,0
420,-762,0,0,0,0,0,0,0,0,0,-1,1644,1786,0,0
427,-762,0,0,0,0,0,0,0,0,0,-1,1651,1786,0,0
434,-762,0,0,0,0,0,0,0,0,0,-1,1658,1786,0,0
441,-762,0,0,0,0,0,0,0,0,0,-1,1665,1786,0,0
448,-762,0,0,0,0,0,0,0,0,0,-1,1672,1786,0,0
455,-762,0,0,0,0,0,0,0,0,0,-1,1679,1786,0,0
462,-762,0,0,0,0,0,0,0,0,0,-1,1686,1786,0,0
469,-762,0,0,0,0,0,0,0,0,0,-1,1693,1786,0,0
476,-762,0,0,0,0,0,0,0,0,0,-1,1700,1786,0,0
483,-762,0,0,0,0,0,0,0,0,0,-1,1707,1786,0,0
490,-762,0,0,0,0,0,0,0,0,0,-1,1714,1786,0,0
497,-762,0,0,0,0,0,0,0,0,0,-1,1721,1786,0,0
504,-762,0,0,0,0,0,0,0,0,0,-1,1728,1786,0,0
511,-762,0,0,0,0,0,0,0,0,0,-1,1735,1786,0,0
518,-762,0,0,0,0,0,0,0,0,0,-1,1742,1786,0,0
525,-762,0,0,0,0,0,0,0,0,0,-1,1749,1786,0,0
532,-762,0,0,0,0,0,0,0,0,0,-1,1756,1786,0,0
539,-762,0,0,0,0,0,0,0,0,0,-1,1763,1786,0,0
546,-762,0,0,0,0,0,0,0,0,0,-1,1770,1786,0,0
553,-762,0,0,0,0,0,0,0,0,0,-1,1777,1786,0,0
560,-762,0,0,0,0,0,0,0,0,0,-1,1784,1786,0,0
567,-762,0,0,0,0,0,0,0,0,0,-1,1791,1786,0,0
574,-762,0,0,0,0,0,0,0,0,0,-1,1798,1786,0,0
581,-762,0,0,0,0,0,0,0,0,0,-1,1805,1786,0,0
588,-762,0,0,0,0,0,0,0,0,0,-1,1812,1786,0,0
595,-762,0,0,0,0,0,0,0,0,0,-1,1819,1786,0,0
602,-762,0,0,0,0,0,0,0,0,0,-1,1826,1786,0,0
609,-762,0,0,0,0,0,0,0,0,0,-1,1833,1786,0,0
616,-762,0,0,0,0,0,0,0,0,0,-1,1840,1786,0,0
623,-762,0,0,0,0,0,0,0,0,0,-1,1847,1786,0,0
630,-762,0,0,0,0,0,0,0,0,0,-1,1854,1786,0,0
637,-762,0,0,0,0,0,0,0,0,0,-1,1861,1786,0,0
644,-762,0,0,0,0,0,0,0,0,0,-1,1868,1786,0,0
651,-762,0,0,0,0,0,0,0,0,0,-1,1875,1786,0,0
658,-762,0,0,0,0,0,0,0,0,0,-1,1882,1786,0,0
665,-762,0,0,0,0,0,0,0,0,0,-1,1889,1786,0,0
672,-762,0,0,0,0,0,0,0,0,0,-1,1896,1786,0,0
679,-762,0,0,0,0,0,0,0,0,0,-1,1903,1786,0,0
686,-762,0,0,0,0,0,0,0,0,0,-1,1910,1786,0,0
693,-762,0,0,0,0,0,0,0,0,0,-1,1917,1786,0,0
700,-762,0,0,0,0,0,0,0,0,0,-1,1924,1786,0,0
707,-762,0,0,0,0,0,0,0,0,0,-1,1931,1786,0,0
714,-762,0,0,0,0,0,0,0,0,0,-1,1938,1786,0,0
721,-762,0,0,0,0,0,0,0,0,0,-1,1945,1786,0,0
728,-762,0,0,0,0,0,0,0,0,0,-1,1952,1786,0,0
735,-762,0,0,0,0,0,0,0,0,0,-1,1959,1786,0,0
742,-762,0,0,0,0,0,0,0,0,0,-1,1966,1786,0,0
749,-762,0,0,0,0,0,0,0,0,0,-1,1973,1786,0,0
756,-762,0,0,0,0,0,0,0,0,0,-1,1980,1786,0,0
763,-762,0,0,0,0,0,0,0,0,0,-1,1987,1786,0,0
770,-762,0,0,0,0,0,0,0,0,0,-1,1994,1786,0,0
777,-762,0,0,0,0,0,0,0,0,0,-1,2001,1786,0,0
784,-762,0,0,0,0,0,0,0,0,0,-1,2008,1786,0,0
791,-762,0,0,0,0,0,0,0,0,0,-1,2015,1786,0,0
798,-762,0,0,0,0,0,0,0,0,0,-1,2022,1786,0,0
805,-762,0,0,0,0,0,0,0,0,0,-1,2029,1786,0,0
812,-762,0,0,0,0,0,0,0,0,0,-1,2036,1786,0,0
-700,-769,0,0,0,0,0,0,0,0,0,-1,524,1793,0,0
-693,-769,0,0,0,0,0,0,0,0,0,-1,531,1793,0,0
-686,-769,0,0,0,0,0,0,0,0,0,-1,538,1793,0,0
-679,-769,0,0,0,0,0,0,0,0,0,-1,545,1793,0,0
-672,-769,0,0,0,0,0,0,0,0,0,-1,552,1793,0,0
-665,-769,0,0,0,0,0,0,0,0,0,-1,559,1793,0,0
-658,-769,0,0,0,0,0,0,0,0,0,-1,566,1793,0,0
-651,-769,0,0,0,0,0,0,0,0,0,-1,573,1793,0,0
-644,-769,0,0,0,0,0,0,0,0,0,-1,580,1793,0,0
-637,-769,0,0,0,0,0,0,0,0,0,-1,587,1793,0,0
-630,-769,0,0,0,0,0,0,0,0,0,-1,594,1793,0,0
-623,-769,0,0,0,0,0,0,0,0,0,-1,601,1793,0,0
-616,-769,0,0,0,0,0,0,0,0,0,-1,608,1793,0,0
-609,-769,0,0,0,0,0,0,0,0,0,-1,615,1793,0,0
-602,-769,0,0,0,0,0,0,0,0,0,-1,622,1793,0,0
-595,-769,0,0,0,0,0,0,0,0,0,-1,629,1793,0,0
-588,-769,0,0,0,0,0,0,0,0,0,-1,636,1793,0,0
-581,-769,0,0,0,0,0,0,0,0,0,-1,643,1793,0,0
-574,-769,0,0,0,0,0,0,0,0,0,-1,650,1793,0,0
-567,-769,0,0,0,0,0,0,0,0,0,-1,657,1793,0,0
-560,-769,0,0,0,0,0,0,0,0,0,-1,664,1793,0,0
-553,-769,0,0,0,0,0,0,0,0,0,-1,671,1793,0,0
-546,-769,0,0,0,0,0,0,0,0,0,-1,678,1793,0,0
-539,-769,0,0,0,0,0,0,0,0,0,-1,685,1793,0,0
-532,-769,0,0,0,0,0,0,0,0,0,-1,692,1793,0,0
-525,-769,0,0,0,0,0,0,0,0,0,-1,699,1793,0,0
-518,-769,0,0,0,0,0,0,0,0,0,-1,706,1793,0,0
-511,-769,0,0,0,0,0,0,0,0,0,-1,713,1793,0,0
-504,-769,0,0,0,0,0,0,0,0,0,-1,720,1793,0,0
-497,-769,0,0,0,0,0,0,0,0,0,-1,727,1793,0,0
-490,-769,0,0,0,0,0,0,0,0,0,-1,734,1793,0,0
-483,-769,0,0,0,0,0,0,0,0,0,-1,741,1793,0,0
-476,-769,0,0,0,0,0,0,0,0,0,-1,748,1793,0,0
-469,-769,0,0,0,0,0,0,0,0,0,-1,755,1793,0,0
-462,-769,0,0,0,0,0,0,0,0,0,-1,762,1793,0,0
-455,-769,0,0,0,0,0,0,0,0,0,-1,769,1793,0,0
-448,-769,0,0,0,0,0,0,0,0,0,-1,776,1793,0,0
-441,-769,0,0,0,0,0,0,0,0,0,-1,783,1793,0,0
-434,-769,0,0,0,0,0,0,0,0,0,-1,790,1793,0,0
-427,-769,0,0,0,0,0,0,0,0,0,-1,797,1793,0,0
-420,-769,0,0,0,0,0,0,0,0,0,-1,804,1793,0,0
-413,-769,0,0,0,0,0,0,0,0,0,-1,811,1793,0,0
-406,-769,0,0,0,0,0,0,0,0,0,-1,818,1793,0,0
-399,-769,0,0,0,0,0,0,0,0,0,-1,825,1793,0,0
-392,-769,0,0,0,0,0,0,0,0,0,-1,832,1793,0,0
-385,-769,0,0,0,0,0,0,0,0,0,-1,839,1793,0,0
-378,-769,0,0,0,0,0,0,0,0,0,-1,846,1793,0,0
-371,-769,0,0,0,0,0,0,0,0,0,-1,853,1793,0,0
-364,-769,0,0,0,0,0,0,0,0,0,-1,860,1793,0,0
-357,-769,0,0,0,0,0,0,0,0,0,-1,867,1793,0,0
-350,-769,0,0,0,0,0,0,0,0,0,-1,874,1793,0,0
-343,-769,0,0,0,0,0,0,0,0,0,-1,881,1793,0,0
-336,-769,0,0,0,0,0,0,0,0,0,-1,888,1793,0,0
-329,-769,0,0,0,0,0,0,0,0,0,-1,895,1793,0,0
-322,-769,0,0,0,0,0,0,0,0,0,-1,902,1793,0,0
-315,-769,0,0,0,0,0,0,0,0,0,-1,909,1793,0,0
-308,-769,0,0,0,0,0,0,0,0,0,-1,916,1793,0,0
-301,-769,0,0,0,0,0,0,0,0,0,-1,923,1793,0,0
-294,-769,0,0,0,0,0,0,0,0,0,-1,930,1793,0,0
-287,-769,0,0,0,0,0,0,0,0,0,-1,937,1793,0,0
-280,-769,0,0,0,0,0,0,0,0,0,-1,944,1793,0,0
-273,-769,0,0,0,0,0,0,0,0,0,-1,951,1793,0,0
-266,-769,0,0,0,0,0,0,0,0,0,-1,958,1793,0,0
-259,-769,0,0,0,0,0,0,0,0,0,-1,965,1793,0,0
-252,-769,0,0,0,0,0,0,0,0,0,-1,972,1793,0,0
-245,-769,0,0,0,0,0,0,0,0,0,-1,979,1793,0,0
-238,-769,0,0,0,0,0,0,0,0,0,-1,986,1793,0,0
-231,-769,0,0,0,0,0,0,0,0,0,-1,993,1793,0,0
-224,-769,0,0,0,0,0,0,0,0,0,-1,1000,1793,0,0
-217,-769,0,0,0,0,0,0,0,0,0,-1,1007,1793,0,0
-210,-769,0,0,0,0,0,0,0,0,0,-1,1014,1793,0,0
-203,-769,0,0,0,0,0,0,0,0,0,-1,1021,1793,0,0
-196,-769,0,0,0,0,0,0,0,0,0,-1,1028,1793,0,0
-189,-769,0,0,0,0,0,0,0,0,0,-1,1035,1793,0,0
-182,-769,0,0,0,0,0,0,0,0,0,-1,1042,1793,0,0
-175,-769,0,0,0,0,0,0,0,0,0,-1,1049,1793,0,0
-168,-769,0,0,0,0,0,0,0,0,0,-1,1056,1793,0,0
-161,-769,-3.61145,12.4761,0,0,0,0,0,0,0,-1,1063,1793,-3.6114,-12.476
-154,-769,-0.813232,5.32874,0,0,0,0,0,0,0,-1,1070,1793,-0.813269,-5.32872
-147,-769,4.26587,4.7002,0,0,0,0,0,0,0,-1,1077,1793,4.26593,-4.70022
-140,-769,4.10376,5.28589,0,0,0,0,0,0,0,-1,1084,1793,4.10371,-5.28584
-133,-769,6.422,8.21777,0,0,0,0,0,0,0,-1,1091,1793,6.42198,-8.21773
-126,-769,-0.352295,19.326,0,0,0,0,0,0,0,-1,1098,1793,-0.352235,-19.326
-119,-769,6.01685,16.2577,0,0,0,0,0,0,0,-1,1105,1793,6.01689,-16.2576
-112,-769,5.76416,27.2615,0,0,0,0,0,0,0,-1,1112,1793,5.7642,-27.2615
-105,-769,4.97009,22.8479,0,0,0,0,0,0,0,-1,1119,1793,4.97006,-22.8479
-98,-769,4.69373,18.9142,0,0,0,0,0,0,0,-1,1126,1793,4.69376,-18.9142
-91,-769,4.41748,14.9805,0,0,0,0,0,0,0,-1,1133,1793,4.41746,-14.9805
-84,-769,3.2207,12.4565,0,0,0,0,0,0,0,-1,1140,1793,3.22066,-12.4565
-77,-769,2.48816,8.98486,0,0,0,0,0,0,0,-1,1147,1793,2.48815,-8.98489
-70,-769,1.04944,11.9852,0,0,0,0,0,0,0,-1,1154,1793,1.04947,-11.9852
-63,-769,-2.39709,9.60339,0,0,0,0,0,0,0,-1,1161,1793,-2.39706,-9.6034
-56,-769,-5.84363,7.22156,0,0,0,0,0,0,0,-1,1168,1793,-5.84359,-7.22157
-49,-769,-2.41443,3.95471,0,0,0,0,0,0,0,-1,1175,1793,-2.41446,-3.95471
-42,-769,-3.1991,2.64941,0,0,0,0,0,0,0,-1,1182,1793,-3.19914,-2.64944
-35,-769,-3.50183,1.73389,0,0,0,0,0,0,0,-1,1189,1793,-3.50189,-1.7339
-28,-769,-3.96985,1.14075,0,0,0,0,0,0,0,-1,1196,1793,-3.96985,-1.14078
-21,-769,5.65149,212.522,0,0,0,0,0,0,0,-1,1203,1793,5.65155,-212.522
-14,-769,7.27942,215.584,0,0,0,0,0,0,0,-1,1210,1793,7.27947,-215.584
-7,-769,6.15515,226.189,0,0,0,0,0,0,0,-1,1217,1793,6.1551,-226.189
0,-769,6.12073,226.977,0,0,0,0,0,0,0,-1,1224,1793,6.12074,-226.977
7,-769,6.24084,227.636,-0.0248458,0.0633331,-0.0121017,0.0649637,-0.0264765,-1.43686,0.0543295,0.0450286,1231,1793,6.24082,-227.636
14,-769,5.87964,228.066,-0.0214066,0.0683805,-0.015757,0.0710655,-0.0240915,-1.40202,0.0571267,0.042988,1238,1793,5.87965,-228.066
21,-769,5.50378,228.428,-0.0111207,0.0760311,-0.0096955,0.0770967,-0.0121863,-1.46133,0.0559044,0.0431826,1245,1793,5.50375,-228.428
28,-769,5.16199,228.894,-0.00200624,0.0770194,-0.00441362,0.0772651,-0.00225198,-1.51518,0.0522769,0.0408621,1252,1793,5.16203,-228.894
35,-769,4.82544,229.281,0.00399957,0.0769258,0.000853915,0.0769358,0.00398957,1.55909,0.0500137,0.0433123,1259,1793,4.8254,-229.281
42,-769,4.57678,229.982,0.00858327,0.0732737,0.00806042,0.0742629,0.00759407,1.44868,0.0471814,0.0437076,1266,1793,4.57675,-229.982
49,-769,3.55615,230.774,0.0116694,0.0680014,0.0165628,0.0725103,0.00716043,1.30501,0.046139,0.0479324,1273,1793,3.55619,-230.774
56,-769,3.69324,231.036,0,0,0,0,0,0,0,-1,1280,1793,3.69324,-231.036
63,-769,3.4314,231.528,0,0,0,0,0,0,0,-1,1287,1793,3.43135,-231.528
70,-769,3.14465,230.384,0.0173769,0.0440977,0.0389146,0.0718816,-0.0104069,0.950757,0.0517401,0.0499009,1294,1793,3.1446,-230.384
77,-769,2.36157,231.081,0.0156006,0.0362991,0.0421765,0.0693775,-0.0174778,0.905711,0.0530462,0.0464537,1301,1793,2.36162,-231.081
84,-769,2.09021,231.035,0.012271,0.0274364,0.0448887,0.0653784,-0.025671,0.86907,0.054208,0.0479785,1308,1793,2.09019,-231.035
91,-769,1.96631,230.99,0.00812528,0.0201124,0.0446298,0.0591493,-0.0309116,0.852147,0.0528418,0.0493768,1315,1793,1.96632,-230.99
98,-769,2.05139,230.666,0,0,0,0,0,0,0,-1,1322,1793,2.05135,-230.666
105,-769,1.62109,230.597,0,0,0,0,0,0,0,-1,1329,1793,1.62114,-230.597
112,-769,0.757813,229.135,0,0,0,0,0,0,0,-1,1336,1793,0.757868,-229.135
119,-769,0.610229,228.392,-0.00934111,0.0110562,0.0237435,0.0266987,-0.0249836,0.988251,0.0298443,0.0465717,1343,1793,0.610238,-228.392
126,-769,0.435303,227.874,-0.0192904,0.00807965,0.0100357,0.011365,-0.0225758,1.25442,0.0199489,0.04935,1350,1793,0.43532,-227.874
133,-769,0.339966,227.375,0,0,0,0,0,0,0,-1,1357,1793,0.339925,-227.375
140,-769,-1.02783,227.247,0,0,0,0,0,0,0,-1,1364,1793,-1.02785,-227.247
147,-769,-1.32263,226.686,0,0,0,0,0,0,0,-1,1371,1793,-1.32258,-226.686
154,-769,5.59106,129.725,0,0,0,0,0,0,0,-1,1378,1793,5.59102,-129.725
161,-769,6.57019,1.53223,0,0,0,0,0,0,0,-1,1385,1793,6.57019,-1.53226
168,-769,8.27637,0.756958,0,0,0,0,0,0,0,-1,1392,1793,8.27639,-0.756944
175,-769,8.47144,2.41174,0,0,0,0,0,0,0,-1,1399,1793,8.47147,-2.4118
182,-769,8.41479,4.05994,0,0,0,0,0,0,0,-1,1406,1793,8.41479,-4.05997
189,-769,8.25049,5.68433,0,0,0,0,0,0,0,-1,1413,1793,8.25054,-5.68428
196,-769,7.97729,7.42847,0,0,0,0,0,0,0,-1,1420,1793,7.9773,-7.42848
203,-769,22.0977,6.73889,0,0,0,0,0,0,0,-1,1427,1793,22.0977,-6.7389
210,-769,22.1115,7.77246,0,0,0,0,0,0,0,-1,1434,1793,22.1115,-7.77248
217,-769,22.4723,8.79102,0,0,0,0,0,0,0,-1,1441,1793,22.4723,-8.79099
224,-769,22.1348,9.35278,0,0,0,0,0,0,0,-1,1448,1793,22.1348,-9.35283
231,-769,3.13318,19.7184,0,0,0,0,0,0,0,-1,1455,1793,3.13323,-19.7184
238,-769,5.74512,18.6597,0,0,0,0,0,0,0,-1,1462,1793,5.74512,-18.6596
245,-769,5.80798,22.87,0,0,0,0,0,0,0,-1,1469,1793,5.80796,-22.87
252,-769,6.20837,28.394,0,0,0,0,0,0,0,-1,1476,1793,6.20833,-28.3941
259,-769,10.974,17.7698,0,0,0,0,0,0,0,-1,1483,1793,10.974,-17.7698
266,-769,15.8488,7.3905,0,0,0,0,0,0,0,-1,1490,1793,15.8488,-7.39046
273,-769,14.8075,7.56152,0,0,0,0,0,0,0,-1,1497,1793,14.8075,-7.56152
280,-769,13.6519,7.43054,0,0,0,0,0,0,0,-1,1504,1793,13.6518,-7.43058
287,-769,0,0,0,0,0,0,0,0,0,-1,1511,1793,0,0
294,-769,0,0,0,0,0,0,0,0,0,-1,1518,1793,0,0
301,-769,0,0,0,0,0,0,0,0,0,-1,1525,1793,0,0
308,-769,0,0,0,0,0,0,0,0,0,-1,1532,1793,0,0
315,-769,0,0,0,0,0,0,0,0,0,-1,1539,1793,0,0
322,-769,0,0,0,0,0,0,0,0,0,-1,1546,1793,0,0
329,-769,0,0,0,0,0,0,0,0,0,-1,1553,1793,0,0
336,-769,0,0,0,0,0,0,0,0,0,-1,1560,1793,0,0
343,-769,0,0,0,0,0,0,0,0,0,-1,1567,1793,0,0
350,-769,0,0,0,0,0,0,0,0,0,-1,1574,1793,0,0
357,-769,0,0,0,0,0,0,0,0,0,-1,1581,1793,0,0
364,-769,0,0,0,0,0,0,0,0,0,-1,1588,1793,0,0
371,-769,0,0,0,0,0,0,0,0,0,-1,1595,1793,0,0
378,-769,0,0,0,0,0,0,0,0,0,-1,1602,1793,0,0
385,-769,0,0,0,0,0,0,0,0,0,-1,1609,1793,0,0
392,-769,0,0,0,0,0,0,0,0,0,-1,1616,1793,0,0
399,-769,0,0,0,0,0,0,0,0,0,-1,1623,1793,0,0
406,-769,0,0,0,0,0,0,0,0,0,-1,1630,1793,0,0
413,-769,0,0,0,0,0,0,0,0,0,-1,1637,1793,0,0
420,-769,0,0,0,0,0,0,0,0,0,-1,1644,1793,0,0
427,-769,0,0,0,0,0,0,0,0,0,-1,1651,1793,0,0
434,-769,0,0,0,0,0,0,0,0,0,-1,1658,1793,0,0
441,-769,0,0,0,0,0,0,0,0,0,-1,1665,1793,0,0
448,-769,0,0,0,0,0,0,0,0,0,-1,1672,1793,0,0
455,-769,0,0,0,0,0,0,0,0,0,-1,1679,1793,0,0
462,-769,0,0,0,0,0,0,0,0,0,-1,1686,1793,0,0
469,-769,0,0,0,0,0,0,0,0,0,-1,1693,1793,0,0
476,-769,0,0,0,0,0,0,0,0,0,-1,1700,1793,0,0
483,-769,0,0,0,0,0,0,0,0,0,-1,1707,1793,0,0
490,-769,0,0,0,0,0,0,0,0,0,-1,1714,1793,0,0
497,-769,0,0,0,0,0,0,0,0,0,-1,1721,1793,0,0
504,-769,0,0,0,0,0,0,0,0,0,-1,1728,1793,0,0
511,-769,0,0,0,0,0,0,0,0,0,-1,1735,1793,0,0
518,-769,0,0,0,0,0,0,0,0,0,-1,1742,1793,0,0
525,-769,0,0,0,0,0,0,0,0,0,-1,1749,1793,0,0
532,-769,0,0,0,0,0,0,0,0,0,-1,1756,1793,0,0
539,-769,0,0,0,0,0,0,0,0,0,-1,1763,1793,0,0
546,-769,0,0,0,0,0,0,0,0,0,-1,1770,1793,0,0
553,-769,0,0,0,0,0,0,0,0,0,-1,1777,1793,0,0
560,-769,0,0,0,0,0,0,0,0,0,-1,1784,1793,0,0
567,-769,0,0,0,0,0,0,0,0,0,-1,1791,1793,0,0
574,-769,0,0,0,0,0,0,0,0,0,-1,1798,1793,0,0
581,-769,0,0,0,0,0,0,0,0,0,-1,1805,1793,0,0
588,-769,0,0,0,0,0,0,0,0,0,-1,1812,1793,0,0
595,-769,0,0,0,0,0,0,0,0,0,-1,1819,1793,0,0
602,-769,0,0,0,0,0,0,0,0,0,-1,1826,1793,0,0
609,-769,0,0,0,0,0,0,0,0,0,-1,1833,1793,0,0
616,-769,0,0,0,0,0,0,0,0,0,-1,1840,1793,0,0
623,-769,0,0,0,0,0,0,0,0,0,-1,1847,1793,0,0
630,-769,0,0,0,0,0,0,0,0,0,-1,1854,1793,0,0
637,-769,0,0,0,0,0,0,0,0,0,-1,1861,1793,0,0
644,-769,0,0,0,0,0,0,0,0,0,-1,1868,1793,0,0
651,-769,0,0,0,0,0,0,0,0,0,-1,1875,1793,0,0
658,-769,0,0,0,0,0,0,0,0,0,-1,1882,1793,0,0
665,-769,0,0,0,0,0,0,0,0,0,-1,1889,1793,0,0
672,-769,0,0,0,0,0,0,0,0,0,-1,1896,1793,0,0
679,-769,0,0,0,0,0,0,0,0,0,-1,1903,1793,0,0
686,-769,0,0,0,0,0,0,0,0,0,-1,1910,1793,0,0
693,-769,0,0,0,0,0,0,0,0,0,-1,1917,1793,0,0
700,-769,0,0,0,0,0,0,0,0,0,-1,1924,1793,0,0
707,-769,0,0,0,0,0,0,0,0,0,-1,1931,1793,0,0
714,-769,0,0,0,0,0,0,0,0,0,-1,1938,1793,0,0
721,-769,0,0,0,0,0,0,0,0,0,-1,1945,1793,0,0
728,-769,0,0,0,0,0,0,0,0,0,-1,1952,1793,0,0
735,-769,0,0,0,0,0,0,0,0,0,-1,1959,1793,0,0
742,-769,0,0,0,0,0,0,0,0,0,-1,1966,1793,0,0
749,-769,0,0,0,0,0,0,0,0,0,-1,1973,1793,0,0
756,-769,0,0,0,0,0,0,0,0,0,-1,1980,1793,0,0
763,-769,0,0,0,0,0,0,0,0,0,-1,1987,1793,0,0
770,-769,0,0,0,0,0,0,0,0,0,-1,1994,1793,0,0
777,-769,0,0,0,0,0,0,0,0,0,-1,2001,1793,0,0
784,-769,0,0,0,0,0,0,0,0,0,-1,2008,1793,0,0
791,-769,0,0,0,0,0,0,0,0,0,-1,2015,1793,0,0
798,-769,0,0,0,0,0,0,0,0,0,-1,2022,1793,0,0
805,-769,0,0,0,0,0,0,0,0,0,-1,2029,1793,0,0
812,-769,0,0,0,0,0,0,0,0,0,-1,2036,1793,0,0
-700,-776,0,0,0,0,0,0,0,0,0,-1,524,1800,0,0
-693,-776,0,0,0,0,0,0,0,0,0,-1,531,1800,0,0
-686,-776,0,0,0,0,0,0,0,0,0,-1,538,1800,0,0
-679,-776,0,0,0,0,0,0,0,0,0,-1,545,1800,0,0
-672,-776,0,0,0,0,0,0,0,0,0,-1,552,1800,0,0
-665,-776,0,0,0,0,0,0,0,0,0,-1,559,1800,0,0
-658,-776,0,0,0,0,0,0,0,0,0,-1,566,1800,0,0
-651,-776,0,0,0,0,0,0,0,0,0,-1,573,1800,0,0
-644,-776,0,0,0,0,0,0,0,0,0,-1,580,1800,0,0
-637,-776,0,0,0,0,0,0,0,0,0,-1,587,1800,0,0
-630,-776,0,0,0,0,0,0,0,0,0,-1,594,1800,0,0
-623,-776,0,0,0,0,0,0,0,0,0,-1,601,1800,0,0
-616,-776,0,0,0,0,0,0,0,0,0,-1,608,1800,0,0
-609,-776,0,0,0,0,0,0,0,0,0,-1,615,1800,0,0
-602,-776,0,0,0,0,0,0,0,0,0,-1,622,1800,0,0
-595,-776,0,0,0,0,0,0,0,0,0,-1,629,1800,0,0
-588,-776,0,0,0,0,0,0,0,0,0,-1,636,1800,0,0
-581,-776,0,0,0,0,0,0,0,0,0,-1,643,1800,0,0
-574,-776,0,0,0,0,0,0,0,0,0,-1,650,1800,0,0
-567,-776,0,0,0,0,0,0,0,0,0,-1,657,1800,0,0
-560,-776,0,0,0,0,0,0,0,0,0,-1,664,1800,0,0
-553,-776,0,0,0,0,0,0,0,0,0,-1,671,1800,0,0
-546,-776,0,0,0,0,0,0,0,0,0,-1,678,1800,0,0
-539,-776,0,0,0,0,0,0,0,0,0,-1,685,1800,0,0
-532,-776,0,0,0,0,0,0,0,0,0,-1,692,1800,0,0
-525,-776,0,0,0,0,0,0,0,0,0,-1,699,1800,0,0
-518,-776,0,0,0,0,0,0,0,0,0,-1,706,1800,0,0
-511,-776,0,0,0,0,0,0,0,0,0,-1,713,1800,0,0
-504,-776,0,0,0,0,0,0,0,0,0,-1,720,1800,0,0
-497,-776,0,0,0,0,0,0,0,0,0,-1,727,1800,0,0
-490,-776,0,0,0,0,0,0,0,0,0,-1,734,1800,0,0
-483,-776,0,0,0,0,0,0,0,0,0,-1,741,1800,0,0
-476,-776,0,0,0,0,0,0,0,0,0,-1,748,1800,0,0
-469,-776,0,0,0,0,0,0,0,0,0,-1,755,1800,0,0
-462,-776,0,0,0,0,0,0,0,0,0,-1,762,1800,0,0
-455,-776,0,0,0,0,0,0,0,0,0,-1,769,1800,0,0
-448,-776,0,0,0,0,0,0,0,0,0,-1,776,1800,0,0
-441,-776,0,0,0,0,0,0,0,0,0,-1,783,1800,0,0
-434,-776,0,0,0,0,0,0,0,0,0,-1,790,1800,0,0
-427,-776,0,0,0,0,0,0,0,0,0,-1,797,1800,0,0
-420,-776,0,0,0,0,0,0,0,0,0,-1,804,1800,0,0
-413,-776,0,0,0,0,0,0,0,0,0,-1,811,1800,0,0
-406,-776,0,0,0,0,0,0,0,0,0,-1,818,1800,0,0
-399,-776,0,0,0,0,0,0,0,0,0,-1,825,1800,0,0
-392,-776,0,0,0,0,0,0,0,0,0,-1,832,1800,0,0
-385,-776,0,0,0,0,0,0,0,0,0,-1,839,1800,0,0
-378,-776,0,0,0,0,0,0,0,0,0,-1,846,1800,0,0
-371,-776,0,0,0,0,0,0,0,0,0,-1,853,1800,0,0
-364,-776,0,0,0,0,0,0,0,0,0,-1,860,1800,0,0
-357,-776,0,0,0,0,0,0,0,0,0,-1,867,1800,0,0
-350,-776,0,0,0,0,0,0,0,0,0,-1,874,1800,0,0
-343,-776,0,0,0,0,0,0,0,0,0,-1,881,1800,0,0
-336,-776,0,0,0,0,0,0,0,0,0,-1,888,1800,0,0
-329,-776,0,0,0,0,0,0,0,0,0,-1,895,1800,0,0
-322,-776,0,0,0,0,0,0,0,0,0,-1,902,1800,0,0
-315,-776,0,0,0,0,0,0,0,0,0,-1,909,1800,0,0
-308,-776,0,0,0,0,0,0,0,0,0,-1,916,1800,0,0
-301,-776,0,0,0,0,0,0,0,0,0,-1,923,1800,0,0
-294,-776,0,0,0,0,0,0,0,0,0,-1,930,1800,0,0
-287,-776,0,0,0,0,0,0,0,0,0,-1,937,1800,0,0
-280,-776,0,0,0,0,0,0,0,0,0,-1,944,1800,0,0
-273,-776,0,0,0,0,0,0,0,0,0,-1,951,1800,0,0
-266,-776,0,0,0,0,0,0,0,0,0,-1,958,1800,0,0
-259,-776,0,0,0,0,0,0,0,0,0,-1,965,1800,0,0
-252,-776,0,0,0,0,0,0,0,0,0,-1,972,1800,0,0
-245,-776,0,0,0,0,0,0,0,0,0,-1,979,1800,0,0
-238,-776,0,0,0,0,0,0,0,0,0,-1,986,1800,0,0
-231,-776,0,0,0,0,0,0,0,0,0,-1,993,1800,0,0
-224,-776,0,0,0,0,0,0,0,0,0,-1,1000,1800,0,0
-217,-776,0,0,0,0,0,0,0,0,0,-1,1007,1800,0,0
-210,-776,0,0,0,0,0,0,0,0,0,-1,1014,1800,0,0
-203,-776,0,0,0,0,0,0,0,0,0,-1,1021,1800,0,0
-196,-776,0,0,0,0,0,0,0,0,0,-1,1028,1800,0,0
-189,-776,0,0,0,0,0,0,0,0,0,-1,1035,1800,0,0
-182,-776,0,0,0,0,0,0,0,0,0,-1,1042,1800,0,0
-175,-776,0,0,0,0,0,0,0,0,0,-1,1049,1800,0,0
-168,-776,0,0,0,0,0,0,0,0,0,-1,1056,1800,0,0
-161,-776,0,0,0,0,0,0,0,0,0,-1,1063,1800,0,0
-154,-776,0,0,0,0,0,0,0,0,0,-1,1070,1800,0,0
-147,-776,0,0,0,0,0,0,0,0,0,-1,1077,1800,0,0
-140,-776,2.98499,5.20911,0,0,0,0,0,0,0,-1,1084,1800,2.98493,-5.2091
-133,-776,6.72363,9.35828,0,0,0,0,0,0,0,-1,1091,1800,6.72358,-9.35824
-126,-776,6.55029,13.7832,0,0,0,0,0,0,0,-1,1098,1800,6.55029,-13.7832
-119,-776,5.72107,13.7787,0,0,0,0,0,0,0,-1,1105,1800,5.72106,-13.7787
-112,-776,6.84998,20.4421,0,0,0,0,0,0,0,-1,1112,1800,6.84993,-20.4421
-105,-776,4.46863,24.6742,0,0,0,0,0,0,0,-1,1119,1800,4.46868,-24.6742
-98,-776,4.31616,19.7659,0,0,0,0,0,0,0,-1,1126,1800,4.31619,-19.7659
-91,-776,3.30225,18.134,0,0,0,0,0,0,0,-1,1133,1800,3.30222,-18.134
-84,-776,2.67932,14.3162,0,0,0,0,0,0,0,-1,1140,1800,2.67926,-14.3161
-77,-776,0.580078,11.1272,0,0,0,0,0,0,0,-1,1147,1800,0.58002,-11.1272
-70,-776,-0.562866,12.3163,0,0,0,0,0,0,0,-1,1154,1800,-0.562897,-12.3163
-63,-776,-3.96106,9.97656,0,0,0,0,0,0,0,-1,1161,1800,-3.961,-9.97654
-56,-776,-7.35913,7.63672,0,0,0,0,0,0,0,-1,1168,1800,-7.3591,-7.63676
-49,-776,-7.62952,3.1908,0,0,0,0,0,0,0,-1,1175,1800,-7.62955,-3.19076
-42,-776,-3.41272,3.0249,0,0,0,0,0,0,0,-1,1182,1800,-3.41269,-3.02488
-35,-776,-3.71753,1.63635,0,0,0,0,0,0,0,-1,1189,1800,-3.71755,-1.63631
-28,-776,-4.03979,0.716064,0,0,0,0,0,0,0,-1,1196,1800,-4.03977,-0.716055
-21,-776,8.11609,214.681,0,0,0,0,0,0,0,-1,1203,1800,8.11609,-214.681
-14,-776,4.34778,215.473,0,0,0,0,0,0,0,-1,1210,1800,4.34778,-215.473
-7,-776,8.60278,223.321,0,0,0,0,0,0,0,-1,1217,1800,8.60273,-223.321
0,-776,6.87036,226.504,0,0,0,0,0,0,0,-1,1224,1800,6.87032,-226.504
7,-776,6.67175,227.14,-0.0243124,0.0688547,-0.0141331,0.0709515,-0.0264091,-1.42351,0.058139,0.0482924,1231,1800,6.67177,-227.14
14,-776,6.46118,227.764,-0.0197792,0.0761827,-0.019135,0.0798575,-0.0234541,-1.38106,0.0625399,0.0472135,1238,1800,6.46115,-227.764
21,-776,5.87109,228.157,-0.00480658,0.0867029,-0.0106549,0.0879271,-0.00603081,-1.4564,0.0607283,0.0424563,1245,1800,5.87114,-228.157
28,-776,5.90051,228.306,0.00866242,0.0887384,-0.00272076,0.0888308,0.00857009,-1.53687,0.0565806,0.0406391,1252,1800,5.90051,-228.306
35,-776,6.08948,228.358,0.0178031,0.0895896,0.00538754,0.0899917,0.017401,1.4963,0.0551175,0.0426108,1259,1800,6.08948,-228.358
42,-776,6.26038,228.453,0.0246909,0.0856118,0.015767,0.0894506,0.0208521,1.33197,0.0540411,0.0434161,1266,1800,6.26038,-228.453
49,-776,6.58521,228.593,0.0293814,0.0793537,0.0274974,0.0915214,0.0172136,1.15419,0.0561627,0.0463704,1273,1800,6.58521,-228.593
56,-776,6.84033,228.697,0,0,0,0,0,0,0,-1,1280,1800,6.84031,-228.697
63,-776,2.43726,230.15,0,0,0,0,0,0,0,-1,1287,1800,2.4372,-230.15
70,-776,3.00415,229.411,0.038065,0.049864,0.0583946,0.102656,-0.0147274,0.835741,0.0738379,0.0478196,1294,1800,3.0041,-229.411
77,-776,2.16431,230.994,0.0354642,0.0399865,0.0625139,0.10028,-0.0248294,0.803475,0.0764853,0.0499284,1301,1800,2.16427,-230.994
84,-776,1.73767,231.108,0.0308114,0.0286899,0.0657356,0.0954948,-0.0359935,0.77733,0.078463,0.0481292,1308,1800,1.73772,-231.108
91,-776,1.75146,231.267,0.0248481,0.0193823,0.0648145,0.0869873,-0.0427568,0.764328,0.0763449,0.0467835,1315,1800,1.75143,-231.267
98,-776,1.85938,231.343,0,0,0,0,0,0,0,-1,1322,1800,1.85937,-231.343
105,-776,1.72815,230.797,0,0,0,0,0,0,0,-1,1329,1800,1.72813,-230.797
112,-776,1.33496,230.57,0,0,0,0,0,0,0,-1,1336,1800,1.33501,-230.57
119,-776,0.911011,230.286,0,0,0,0,0,0,0,-1,1343,1800,0.911023,-230.286
126,-776,0.0355225,227.321,0,0,0,0,0,0,0,-1,1350,1800,0.0354737,-227.321
133,-776,-0.0130615,226.817,0,0,0,0,0,0,0,-1,1357,1800,-0.0130893,-226.817
140,-776,-0.530029,221.647,0,0,0,0,0,0,0,-1,1364,1800,-0.52997,-221.647
147,-776,0.258057,195.998,0,0,0,0,0,0,0,-1,1371,1800,0.258033,-195.998
154,-776,38.4338,21.854,0,0,0,0,0,0,0,-1,1378,1800,38.4339,-21.854
161,-776,6.50293,1.1731,0,0,0,0,0,0,0,-1,1385,1800,6.5029,-1.17313
168,-776,8.44971,1.22913,0,0,0,0,0,0,0,-1,1392,1800,8.44974,-1.22915
175,-776,8.61523,2.87061,0,0,0,0,0,0,0,-1,1399,1800,8.6152,-2.87063
182,-776,8.54065,4.60645,0,0,0,0,0,0,0,-1,1406,1800,8.5407,-4.60643
189,-776,8.35303,6.28223,0,0,0,0,0,0,0,-1,1413,1800,8.35297,-6.28225
196,-776,8.0387,8.21704,0,0,0,0,0,0,0,-1,1420,1800,8.03865,-8.217
203,-776,7.91736,9.79919,0,0,0,0,0,0,0,-1,1427,1800,7.91735,-9.79922
210,-776,20.2479,7.85718,0,0,0,0,0,0,0,-1,1434,1800,20.248,-7.85719
217,-776,21.5171,9.3418,0,0,0,0,0,0,0,-1,1441,1800,21.5171,-9.34182
224,-776,3.09253,14.9313,0,0,0,0,0,0,0,-1,1448,1800,3.09254,-14.9313
231,-776,20.8671,9.21057,0,0,0,0,0,0,0,-1,1455,1800,20.867,-9.21054
238,-776,20.7511,9.05847,0,0,0,0,0,0,0,-1,1462,1800,20.7511,-9.05848
245,-776,3.80823,15.4108,0,0,0,0,0,0,0,-1,1469,1800,3.80826,-15.4108
252,-776,8.57837,20.2009,0,0,0,0,0,0,0,-1,1476,1800,8.57841,-20.2009
259,-776,14.1882,7.69055,0,0,0,0,0,0,0,-1,1483,1800,14.1882,-7.69061
266,-776,0,0,0,0,0,0,0,0,0,-1,1490,1800,0,0
273,-776,0,0,0,0,0,0,0,0,0,-1,1497,1800,0,0
280,-776,0,0,0,0,0,0,0,0,0,-1,1504,1800,0,0
287,-776,0,0,0,0,0,0,0,0,0,-1,1511,1800,0,0
294,-776,0,0,0,0,0,0,0,0,0,-1,1518,1800,0,0
301,-776,0,0,0,0,0,0,0,0,0,-1,1525,1800,0,0
308,-776,0,0,0,0,0,0,0,0,0,-1,1532,1800,0,0
315,-776,0,0,0,0,0,0,0,0,0,-1,1539,1800,0,0
322,-776,0,0,0,0,0,0,0,0,0,-1,1546,1800,0,0
329,-776,0,0,0,0,0,0,0,0,0,-1,1553,1800,0,0
336,-776,0,0,0,0,0,0,0,0,0,-1,1560,1800,0,0
343,-776,0,0,0,0,0,0,0,0,0,-1,1567,1800,0,0
350,-776,0,0,0,0,0,0,0,0,0,-1,1574,1800,0,0
357,-776,0,0,0,0,0,0,0,0,0,-1,1581,1800,0,0
364,-776,0,0,0,0,0,0,0,0,0,-1,1588,1800,0,0
371,-776,0,0,0,0,0,0,0,0,0,-1,1595,1800,0,0
378,-776,0,0,0,0,0,0,0,0,0,-1,1602,1800,0,0
385,-776,0,0,0,0,0,0,0,0,0,-1,1609,1800,0,0
392,-776,0,0,0,0,0,0,0,0,0,-1,1616,1800,0,0
399,-776,0,0,0,0,0,0,0,0,0,-1,1623,1800,0,0
406,-776,0,0,0,0,0,0,0,0,0,-1,1630,1800,0,0
413,-776,0,0,0,0,0,0,0,0,0,-1,1637,1800,0,0
420,-776,0,0,0,0,0,0,0,0,0,-1,1644,1800,0,0
427,-776,0,0,0,0,0,0,0,0,0,-1,1651,1800,0,0
434,-776,0,0,0,0,0,0,0,0,0,-1,1658,1800,0,0
441,-776,0,0,0,0,0,0,0,0,0,-1,1665,1800,0,0
448,-776,0,0,0,0,0,0,0,0,0,-1,1672,1800,0,0
455,-776,0,0,0,0,0,0,0,0,0,-1,1679,1800,0,0
462,-776,0,0,0,0,0,0,0,0,0,-1,1686,1800,0,0
469,-776,0,0,0,0,0,0,0,0,0,-1,1693,1800,0,0
476,-776,0,0,0,0,0,0,0,0,0,-1,1700,1800,0,0
483,-776,0,0,0,0,0,0,0,0,0,-1,1707,1800,0,0
490,-776,0,0,0,0,0,0,0,0,0,-1,1714,1800,0,0
497,-776,0,0,0,0,0,0,0,0,0,-1,1721,1800,0,0
504,-776,0,0,0,0,0,0,0,0,0,-1,1728,1800,0,0
511,-776,0,0,0,0,0,0,0,0,0,-1,1735,1800,0,0
518,-776,0,0,0,0,0,0,0,0,0,-1,1742,1800,0,0
525,-776,0,0,0,0,0,0,0,0,0,-1,1749,1800,0,0
532,-776,0,0,0,0,0,0,0,0,0,-1,1756,1800,0,0
539,-776,0,0,0,0,0,0,0,0,0,-1,1763,1800,0,0
546,-776,0,0,0,0,0,0,0,0,0,-1,1770,1800,0,0
553,-776,0,0,0,0,0,0,0,0,0,-1,1777,1800,0,0
560,-776,0,0,0,0,0,0,0,0,0,-1,1784,1800,0,0
567,-776,0,0,0,0,0,0,0,0,0,-1,1791,1800,0,0
574,-776,0,0,0,0,0,0,0,0,0,-1,1798,1800,0,0
581,-776,0,0,0,0,0,0,0,0,0,-1,1805,1800,0,0
588,-776,0,0,0,0,0,0,0,0,0,-1,1812,1800,0,0
595,-776,0,0,0,0,0,0,0,0,0,-1,1819,1800,0,0
602,-776,0,0,0,0,0,0,0,0,0,-1,1826,1800,0,0
609,-776,0,0,0,0,0,0,0,0,0,-1,1833,1800,0,0
616,-776,0,0,0,0,0,0,0,0,0,-1,1840,1800,0,0
623,-776,0,0,0,0,0,0,0,0,0,-1,1847,1800,0,0
630,-776,0,0,0,0,0,0,0,0,0,-1,1854,1800,0,0
637,-776,0,0,0,0,0,0,0,0,0,-1,1861,1800,0,0
644,-776,0,0,0,0,0,0,0,0,0,-1,1868,1800,0,0
651,-776,0,0,0,0,0,0,0,0,0,-1,1875,1800,0,0
658,-776,0,0,0,0,0,0,0,0,0,-1,1882,1800,0,0
665,-776,0,0,0,0,0,0,0,0,0,-1,1889,1800,0,0
672,-776,0,0,0,0,0,0,0,0,0,-1,1896,1800,0,0
679,-776,0,0,0,0,0,0,0,0,0,-1,1903,1800,0,0
686,-776,0,0,0,0,0,0,0,0,0,-1,1910,1800,0,0
693,-776,0,0,0,0,0,0,0,0,0,-1,1917,1800,0,0
700,-776,0,0,0,0,0,0,0,0,0,-1,1924,1800,0,0
707,-776,0,0,0,0,0,0,0,0,0,-1,1931,1800,0,0
714,-776,0,0,0,0,0,0,0,0,0,-1,1938,1800,0,0
721,-776,0,0,0,0,0,0,0,0,0,-1,1945,1800,0,0
728,-776,0,0,0,0,0,0,0,0,0,-1,1952,1800,0,0
735,-776,0,0,0,0,0,0,0,0,0,-1,1959,1800,0,0
742,-776,0,0,0,0,0,0,0,0,0,-1,1966,1800,0,0
749,-776,0,0,0,0,0,0,0,0,0,-1,1973,1800,0,0
756,-776,0,0,0,0,0,0,0,0,0,-1,1980,1800,0,0
763,-776,0,0,0,0,0,0,0,0,0,-1,1987,1800,0,0
770,-776,0,0,0,0,0,0,0,0,0,-1,1994,1800,0,0
777,-776,0,0,0,0,0,0,0,0,0,-1,2001,1800,0,0
784,-776,0,0,0,0,0,0,0,0,0,-1,2008,1800,0,0
791,-776,0,0,0,0,0,0,0,0,0,-1,2015,1800,0,0
798,-776,0,0,0,0,0,0,0,0,0,-1,2022,1800,0,0
805,-776,0,0,0,0,0,0,0,0,0,-1,2029,1800,0,0
812,-776,0,0,0,0,0,0,0,0,0,-1,2036,1800,0,0
-700,-783,0,0,0,0,0,0,0,0,0,-1,524,1807,0,0
-693,-783,0,0,0,0,0,0,0,0,0,-1,531,1807,0,0
-686,-783,0,0,0,0,0,0,0,0,0,-1,538,1807,0,0
-679,-783,0,0,0,0,0,0,0,0,0,-1,545,1807,0,0
-672,-783,0,0,0,0,0,0,0,0,0,-1,552,1807,0,0
-665,-783,0,0,0,0,0,0,0,0,0,-1,559,1807,0,0
-658,-783,0,0,0,0,0,0,0,0,0,-1,566,1807,0,0
-651,-783,0,0,0,0,0,0,0,0,0,-1,573,1807,0,0
-644,-783,0,0,0,0,0,0,0,0,0,-1,580,1807,0,0
-637,-783,0,0,0,0,0,0,0,0,0,-1,587,1807,0,0
-630,-783,0,0,0,0,0,0,0,0,0,-1,594,1807,0,0
-623,-783,0,0,0,0,0,0,0,0,0,-1,601,1807,0,0
-616,-783,0,0,0,0,0,0,0,0,0,-1,608,1807,0,0
-609,-783,0,0,0,0,0,0,0,0,0,-1,615,1807,0,0
-602,-783,0,0,0,0,0,0,0,0,0,-1,622,1807,0,0
-595,-783,0,0,0,0,0,0,0,0,0,-1,629,1807,0,0
-588,-783,0,0,0,0,0,0,0,0,0,-1,636,1807,0,0
-581,-783,0,0,0,0,0,0,0,0,0,-1,643,1807,0,0
-574,-783,0,0,0,0,0,0,0,0,0,-1,650,1807,0,0
-567,-783,0,0,0,0,0,0,0,0,0,-1,657,1807,0,0
-560,-783,0,0,0,0,0,0,0,0,0,-1,664,1807,0,0
-553,-783,0,0,0,0,0,0,0,0,0,-1,671,1807,0,0
-546,-783,0,0,0,0,0,0,0,0,0,-1,678,1807,0,0
-539,-783,0,0,0,0,0,0,0,0,0,-1,685,1807,0,0
-532,-783,0,0,0,0,0,0,0,0,0,-1,692,1807,0,0
-525,-783,0,0,0,0,0,0,0,0,0,-1,699,1807,0,0
-518,-783,0,0,0,0,0,0,0,0,0,-1,706,1807,0,0
-511,-783,0,0,0,0,0,0,0,0,0,-1,713,1807,0,0
-504,-783,0,0,0,0,0,0,0,0,0,-1,720,1807,0,0
-497,-783,0,0,0,0,0,0,0,0,0,-1,727,1807,0,0
-490,-783,0,0,0,0,0,0,0,0,0,-1,734,1807,0,0
-483,-783,0,0,0,0,0,0,0,0,0,-1,741,1807,0,0
-476,-783,0,0,0,0,0,0,0,0,0,-1,748,1807,0,0
-469,-783,0,0,0,0,0,0,0,0,0,-1,755,1807,0,0
-462,-783,0,0,0,0,0,0,0,0,0,-1,762,1807,0,0
-455,-783,0,0,0,0,0,0,0,0,0,-1,769,1807,0,0
-448,-783,0,0,0,0,0,0,0,0,0,-1,776,1807,0,0
-441,-783,0,0,0,0,0,0,0,0,0,-1,783,1807,0,0
-434,-783,0,0,0,0,0,0,0,0,0,-1,790,1807,0,0
-427,-783,0,0,0,0,0,0,0,0,0,-1,797,1807,0,0
-420,-783,0,0,0,0,0,0,0,0,0,-1,804,1807,0,0
-413,-783,0,0,0,0,0,0,0,0,0,-1,811,1807,0,0
-406,-783,0,0,0,0,0,0,0,0,0,-1,818,1807,0,0
-399,-783,0,0,0,0,0,0,0,0,0,-1,825,1807,0,0
-392,-783,0,0,0,0,0,0,0,0,0,-1,832,1807,0,0
-385,-783,0,0,0,0,0,0,0,0,0,-1,839,1807,0,0
-378,-783,0,0,0,0,0,0,0,0,0,-1,846,1807,0,0
-371,-783,0,0,0,0,0,0,0,0,0,-1,853,1807,0,0
-364,-783,0,0,0,0,0,0,0,0,0,-1,860,1807,0,0
-357,-783,0,0,0,0,0,0,0,0,0,-1,867,1807,0,0
-350,-783,0,0,0,0,0,0,0,0,0,-1,874,1807,0,0
-343,-783,0,0,0,0,0,0,0,0,0,-1,881,1807,0,0
-336,-783,0,0,0,0,0,0,0,0,0,-1,888,1807,0,0
-329,-783,0,0,0,0,0,0,0,0,0,-1,895,1807,0,0
-322,-783,0,0,0,0,0,0,0,0,0,-1,902,1807,0,0
-315,-783,0,0,0,0,0,0,0,0,0,-1,909,1807,0,0
-308,-783,0,0,0,0,0,0,0,0,0,-1,916,1807,0,0
-301,-783,0,0,0,0,0,0,0,0,0,-1,923,1807,0,0
-294,-783,0,0,0,0,0,0,0,0,0,-1,930,1807,0,0
-287,-783,0,0,0,0,0,0,0,0,0,-1,937,1807,0,0
-280,-783,0,0,0,0,0,0,0,0,0,-1,944,1807,0,0
-273,-783,0,0,0,0,0,0,0,0,0,-1,951,1807,0,0
-266,-783,0,0,0,0,0,0,0,0,0,-1,958,1807,0,0
-259,-783,0,0,0,0,0,0,0,0,0,-1,965,1807,0,0
-252,-783,0,0,0,0,0,0,0,0,0,-1,972,1807,0,0
-245,-783,0,0,0,0,0,0,0,0,0,-1,979,1807,0,0
-238,-783,0,0,0,0,0,0,0,0,0,-1,986,1807,0,0
-231,-783,0,0,0,0,0,0,0,0,0,-1,993,1807,0,0
-224,-783,0,0,0,0,0,0,0,0,0,-1,1000,1807,0,0
-217,-783,0,0,0,0,0,0,0,0,0,-1,1007,1807,0,0
-210,-783,0,0,0,0,0,0,0,0,0,-1,1014,1807,0,0
-203,-783,0,0,0,0,0,0,0,0,0,-1,1021,1807,0,0
-196,-783,0,0,0,0,0,0,0,0,0,-1,1028,1807,0,0
-189,-783,0,0,0,0,0,0,0,0,0,-1,1035,1807,0,0
-182,-783,0,0,0,0,0,0,0,0,0,-1,1042,1807,0,0
-175,-783,0,0,0,0,0,0,0,0,0,-1,1049,1807,0,0
-168,-783,0,0,0,0,0,0,0,0,0,-1,1056,1807,0,0
-161,-783,0,0,0,0,0,0,0,0,0,-1,1063,1807,0,0
-154,-783,0,0,0,0,0,0,0,0,0,-1,1070,1807,0,0
-147,-783,0,0,0,0,0,0,0,0,0,-1,1077,1807,0,0
-140,-783,0,0,0,0,0,0,0,0,0,-1,1084,1807,0,0
-133,-783,0,0,0,0,0,0,0,0,0,-1,1091,1807,0,0
-126,-783,0,0,0,0,0,0,0,0,0,-1,1098,1807,0,0
-119,-783,0,0,0,0,0,0,0,0,0,-1,1105,1807,0,0
-112,-783,5.33936,14.7699,0,0,0,0,0,0,0,-1,1112,1807,5.33931,-14.7699
-105,-783,6.44263,21.2224,0,0,0,0,0,0,0,-1,1119,1807,6.44263,-21.2224
-98,-783,5.54773,20.5695,0,0,0,0,0,0,0,-1,1126,1807,5.54772,-20.5695
-91,-783,2.6106,20.2491,0,0,0,0,0,0,0,-1,1133,1807,2.61056,-20.2492
-84,-783,-0.0491943,14.5743,0,0,0,0,0,0,0,-1,1140,1807,-0.0491562,-14.5743
-77,-783,0.332764,12.7788,0,0,0,0,0,0,0,-1,1147,1807,0.332743,-12.7788
-70,-783,-1.93176,5.12817,0,0,0,0,0,0,0,-1,1154,1807,-1.93171,-5.12813
-63,-783,-5.31702,10.54,0,0,0,0,0,0,0,-1,1161,1807,-5.31703,-10.54
-56,-783,-6.26135,6.9679,0,0,0,0,0,0,0,-1,1168,1807,-6.26136,-6.96785
-49,-783,-3.17688,4.59705,0,0,0,0,0,0,0,-1,1175,1807,-3.17685,-4.5971
-42,-783,-3.72876,3.1405,0,0,0,0,0,0,0,-1,1182,1807,-3.72874,-3.14055
-35,-783,-3.97046,1.59399,0,0,0,0,0,0,0,-1,1189,1807,-3.97041,-1.59401
-28,-783,-4.12195,0.270386,0,0,0,0,0,0,0,-1,1196,1807,-4.12197,-0.270408
-21,-783,6.29895,214.023,0,0,0,0,0,0,0,-1,1203,1807,6.29898,-214.023
-14,-783,6.15283,214.678,0,0,0,0,0,0,0,-1,1210,1807,6.15285,-214.678
-7,-783,4.42297,218.2,0,0,0,0,0,0,0,-1,1217,1807,4.42298,-218.2
0,-783,4.23975,219.18,0,0,0,0,0,0,0,-1,1224,1807,4.23976,-219.18
7,-783,7.32947,226.533,0,0,0,0,0,0,0,-1,1231,1807,7.32948,-226.533
14,-783,7.1239,227.13,-0.0158308,0.0805435,-0.0220937,0.085367,-0.0206543,-1.35585,0.064901,0.0476746,1238,1807,7.12395,-227.129
21,-783,5.92029,228.336,0.00599426,0.0949031,-0.0106373,0.0961581,0.00473929,-1.45336,0.0625855,0.0464164,1245,1807,5.92029,-228.336
28,-783,6.73975,227.83,0.0258146,0.0986625,0.00109311,0.0986789,0.0257982,1.5558,0.0590944,0.043538,1252,1807,6.73977,-227.83
35,-783,6.71509,228.098,0.0397698,0.101116,0.0134034,0.103916,0.0369691,1.36481,0.0608227,0.0437098,1259,1807,6.71503,-228.098
42,-783,6.85376,227.907,0.0501108,0.0971479,0.0280793,0.110257,0.0370019,1.13402,0.0647936,0.0448461,1266,1807,6.85377,-227.907
49,-783,7.38098,227.967,0.0571238,0.0900596,0.0438293,0.120413,0.0267708,0.965103,0.0730063,0.0460899,1273,1807,7.38094,-227.967
56,-783,7.77441,227.999,0.0641997,0.0804607,0.0602761,0.133152,0.0115082,0.852437,0.0851916,0.0490323,1280,1807,7.77436,-227.999
63,-783,2.04907,229.319,0,0,0,0,0,0,0,-1,1287,1807,2.04902,-229.319
70,-783,2.62061,228.42,0,0,0,0,0,0,0,-1,1294,1807,2.62056,-228.42
77,-783,2.03052,230.92,0,0,0,0,0,0,0,-1,1301,1807,2.03048,-230.92
84,-783,1.53906,231.389,0.0590888,0.0286943,0.0934162,0.138536,-0.0507528,0.704763,0.113135,0.0472283,1308,1807,1.53903,-231.389
91,-783,1.52637,231.229,0.0503908,0.0171665,0.0911217,0.126402,-0.0588449,0.695235,0.109298,0.0468395,1315,1807,1.52631,-231.229
98,-783,-0.386597,234.062,0.0402037,0.00912234,0.083162,0.109265,-0.0599385,0.693027,0.0990635,0.0438042,1322,1807,-0.386546,-234.062
105,-783,1.66895,230.99,0,0,0,0,0,0,0,-1,1329,1807,1.66896,-230.99
112,-783,1.22363,230.787,0,0,0,0,0,0,0,-1,1336,1807,1.22358,-230.787
119,-783,-0.172607,227.241,0.0125762,0.00569682,0.0471933,0.056455,-0.038182,0.74902,0.0549771,0.0441467,1343,1807,-0.172577,-227.241
126,-783,-0.349487,226.756,-0.00822058,0.0023236,0.0214042,0.0190954,-0.0249924,0.90615,0.0255299,0.0488933,1350,1807,-0.349527,-226.757
133,-783,-0.311279,226.206,0,0,0,0,0,0,0,-1,1357,1807,-0.311258,-226.206
140,-783,-2.28064,221.948,0,0,0,0,0,0,0,-1,1364,1807,-2.28067,-221.948
147,-783,2.1687,196.922,0,0,0,0,0,0,0,-1,1371,1807,2.16865,-196.922
154,-783,38.2109,17.545,0,0,0,0,0,0,0,-1,1378,1807,38.2109,-17.545
161,-783,39.5087,17.5449,0,0,0,0,0,0,0,-1,1385,1807,39.5087,-17.545
168,-783,8.62561,1.79944,0,0,0,0,0,0,0,-1,1392,1807,8.62561,-1.79946
175,-783,8.78699,3.40857,0,0,0,0,0,0,0,-1,1399,1807,8.78697,-3.40854
182,-783,8.70984,5.14661,0,0,0,0,0,0,0,-1,1406,1807,8.70989,-5.14666
189,-783,8.55762,6.79871,0,0,0,0,0,0,0,-1,1413,1807,8.55766,-6.79872
196,-783,8.25488,8.66626,0,0,0,0,0,0,0,-1,1420,1807,8.25492,-8.66628
203,-783,7.86755,10.5735,0,0,0,0,0,0,0,-1,1427,1807,7.8676,-10.5734
210,-783,5.6969,8.99231,0,0,0,0,0,0,0,-1,1434,1807,5.69693,-8.99234
217,-783,5.28503,3.80872,0,0,0,0,0,0,0,-1,1441,1807,5.285,-3.80868
224,-783,3.22571,6.62903,0,0,0,0,0,0,0,-1,1448,1807,3.2257,-6.62907
231,-783,4.27942,4.56262,0,0,0,0,0,0,0,-1,1455,1807,4.27948,-4.56267
238,-783,0,0,0,0,0,0,0,0,0,-1,1462,1807,0,0
245,-783,0,0,0,0,0,0,0,0,0,-1,1469,1807,0,0
252,-783,0,0,0,0,0,0,0,0,0,-1,1476,1807,0,0
259,-783,0,0,0,0,0,0,0,0,0,-1,1483,1807,0,0
266,-783,0,0,0,0,0,0,0,0,0,-1,1490,1807,0,0
273,-783,0,0,0,0,0,0,0,0,0,-1,1497,1807,0,0
280,-783,0,0,0,0,0,0,0,0,0,-1,1504,1807,0,0
287,-783,0,0,0,0,0,0,0,0,0,-1,1511,1807,0,0
294,-783,0,0,0,0,0,0,0,0,0,-1,1518,1807,0,0
301,-783,0,0,0,0,0,0,0,0,0,-1,1525,1807,0,0
308,-783,0,0,0,0,0,0,0,0,0,-1,1532,1807,0,0
315,-783,0,0,0,0,0,0,0,0,0,-1,1539,1807,0,0
322,-783,0,0,0,0,0,0,0,0,0,-1,1546,1807,0,0
329,-783,0,0,0,0,0,0,0,0,0,-1,1553,1807,0,0
336,-783,0,0,0,0,0,0,0,0,0,-1,1560,1807,0,0
343,-783,0,0,0,0,0,0,0,0,0,-1,1567,1807,0,0
350,-783,0,0,0,0,0,0,0,0,0,-1,1574,1807,0,0
357,-783,0,0,0,0,0,0,0,0,0,-1,1581,1807,0,0
364,-783,0,0,0,0,0,0,0,0,0,-1,1588,1807,0,0
371,-783,0,0,0,0,0,0,0,0,0,-1,1595,1807,0,0
378,-783,0,0,0,0,0,0,0,0,0,-1,1602,1807,0,0
385,-783,0,0,0,0,0,0,0,0,0,-1,1609,1807,0,0
392,-783,0,0,0,0,0,0,0,0,0,-1,1616,1807,0,0
399,-783,0,0,0,0,0,0,0,0,0,-1,1623,1807,0,0
406,-783,0,0,0,0,0,0,0,0,0,-1,1630,1807,0,0
413,-783,0,0,0,0,0,0,0,0,0,-1,1637,1807,0,0
420,-783,0,0,0,0,0,0,0,0,0,-1,1644,1807,0,0
427,-783,0,0,0,0,0,0,0,0,0,-1,1651,1807,0,0
434,-783,0,0,0,0,0,0,0,0,0,-1,1658,1807,0,0
441,-783,0,0,0,0,0,0,0,0,0,-1,1665,1807,0,0
448,-783,0,0,0,0,0,0,0,0,0,-1,1672,1807,0,0
455,-783,0,0,0,0,0,0,0,0,0,-1,1679,1807,0,0
462,-783,0,0,0,0,0,0,0,0,0,-1,1686,1807,0,0
469,-783,0,0,0,0,0,0,0,0,0,-1,1693,1807,0,0
476,-783,0,0,0,0,0,0,0,0,0,-1,1700,1807,0,0
483,-783,0,0,0,0,0,0,0,0,0,-1,1707,1807,0,0
490,-783,0,0,0,0,0,0,0,0,0,-1,1714,1807,0,0
497,-783,0,0,0,0,0,0,0,0,0,-1,1721,1807,0,0
504,-783,0,0,0,0,0,0,0,0,0,-1,1728,1807,0,0
511,-783,0,0,0,0,0,0,0,0,0,-1,1735,1807,0,0
518,-783,0,0,0,0,0,0,0,0,0,-1,1742,1807,0,0
525,-783,0,0,0,0,0,0,0,0,0,-1,1749,1807,0,0
532,-783,0,0,0,0,0,0,0,0,0,-1,1756,1807,0,0
539,-783,0,0,0,0,0,0,0,0,0,-1,1763,1807,0,0
546,-783,0,0,0,0,0,0,0,0,0,-1,1770,1807,0,0
553,-783,0,0,0,0,0,0,0,0,0,-1,1777,1807,0,0
560,-783,0,0,0,0,0,0,0,0,0,-1,1784,1807,0,0
567,-783,0,0,0,0,0,0,0,0,0,-1,1791,1807,0,0
574,-783,0,0,0,0,0,0,0,0,0,-1,1798,1807,0,0
581,-783,0,0,0,0,0,0,0,0,0,-1,1805,1807,0,0
588,-783,0,0,0,0,0,0,0,0,0,-1,1812,1807,0,0
595,-783,0,0,0,0,0,0,0,0,0,-1,1819,1807,0,0
602,-783,0,0,0,0,0,0,0,0,0,-1,1826,1807,0,0
609,-783,0,0,0,0,0,0,0,0,0,-1,1833,1807,0,0
616,-783,0,0,0,0,0,0,0,0,0,-1,1840,1807,0,0
623,-783,0,0,0,0,0,0,0,0,0,-1,1847,1807,0,0
630,-783,0,0,0,0,0,0,0,0,0,-1,1854,1807,0,0
637,-783,0,0,0,0,0,0,0,0,0,-1,1861,1807,0,0
644,-783,0,0,0,0,0,0,0,0,0,-1,1868,1807,0,0
651,-783,0,0,0,0,0,0,0,0,0,-1,1875,1807,0,0
658,-783,0,0,0,0,0,0,0,0,0,-1,1882,1807,0,0
665,-783,0,0,0,0,0,0,0,0,0,-1,1889,1807,0,0
672,-783,0,0,0,0,0,0,0,0,0,-1,1896,1807,0,0
679,-783,0,0,0,0,0,0,0,0,0,-1,1903,1807,0,0
686,-783,0,0,0,0,0,0,0,0,0,-1,1910,1807,0,0
693,-783,0,0,0,0,0,0,0,0,0,-1,1917,1807,0,0
700,-783,0,0,0,0,0,0,0,0,0,-1,1924,1807,0,0
707,-783,0,0,0,0,0,0,0,0,0,-1,1931,1807,0,0
714,-783,0,0,0,0,0,0,0,0,0,-1,1938,1807,0,0
721,-783,0,0,0,0,0,0,0,0,0,-1,1945,1807,0,0
728,-783,0,0,0,0,0,0,0,0,0,-1,1952,1807,0,0
735,-783,0,0,0,0,0,0,0,0,0,-1,1959,1807,0,0
742,-783,0,0,0,0,0,0,0,0,0,-1,1966,1807,0,0
749,-783,0,0,0,0,0,0,0,0,0,-1,1973,1807,0,0
756,-783,0,0,0,0,0,0,0,0,0,-1,1980,1807,0,0
763,-783,0,0,0,0,0,0,0,0,0,-1,1987,1807,0,0
770,-783,0,0,0,0,0,0,0,0,0,-1,1994,1807,0,0
777,-783,0,0,0,0,0,0,0,0,0,-1,2001,1807,0,0
784,-783,0,0,0,0,0,0,0,0,0,-1,2008,1807,0,0
791,-783,0,0,0,0,0,0,0,0,0,-1,2015,1807,0,0
798,-783,0,0,0,0,0,0,0,0,0,-1,2022,1807,0,0
805,-783,0,0,0,0,0,0,0,0,0,-1,2029,1807,0,0
812,-783,0,0,0,0,0,0,0,0,0,-1,2036,1807,0,0
-700,-790,0,0,0,0,0,0,0,0,0,-1,524,1814,0,0
-693,-790,0,0,0,0,0,0,0,0,0,-1,531,1814,0,0
-686,-790,0,0,0,0,0,0,0,0,0,-1,538,1814,0,0
-679,-790,0,0,0,0,0,0,0,0,0,-1,545,1814,0,0
-672,-790,0,0,0,0,0,0,0,0,0,-1,552,1814,0,0
-665,-790,0,0,0,0,0,0,0,0,0,-1,559,1814,0,0
-658,-790,0,0,0,0,0,0,0,0,0,-1,566,1814,0,0
-651,-790,0,0,0,0,0,0,0,0,0,-1,573,1814,0,0
-644,-790,0,0,0,0,0,0,0,0,0,-1,580,1814,0,0
-637,-790,0,0,0,0,0,0,0,0,0,-1,587,1814,0,0
-630,-790,0,0,0,0,0,0,0,0,0,-1,594,1814,0,0
-623,-790,0,0,0,0,0,0,0,0,0,-1,601,1814,0,0
-616,-790,0,0,0,0,0,0,0,0,0,-1,608,1814,0,0
-609,-790,0,0,0,0,0,0,0,0,0,-1,615,1814,0,0
-602,-790,0,0,0,0,0,0,0,0,0,-1,622,1814,0,0
-595,-790,0,0,0,0,0,0,0,0,0,-1,629,1814,0,0
-588,-790,0,0,0,0,0,0,0,0,0,-1,636,1814,0,0
-581,-790,0,0,0,0,0,0,0,0,0,-1,643,1814,0,0
-574,-790,0,0,0,0,0,0,0,0,0,-1,650,1814,0,0
-567,-790,0,0,0,0,0,0,0,0,0,-1,657,1814,0,0
-560,-790,0,0,0,0,0,0,0,0,0,-1,664,1814,0,0
-553,-790,0,0,0,0,0,0,0,0,0,-1,671,1814,0,0
-546,-790,0,0,0,0,0,0,0,0,0,-1,678,1814,0,0
-539,-790,0,0,0,0,0,0,0,0,0,-1,685,1814,0,0
-532,-790,0,0,0,0,0,0,0,0,0,-1,692,1814,0,0
-525,-790,0,0,0,0,0,0,0,0,0,-1,699,1814,0,0
-518,-790,0,0,0,0,0,0,0,0,0,-1,706,1814,0,0
-511,-790,0,0,0,0,0,0,0,0,0,-1,713,1814,0,0
-504,-790,0,0,0,0,0,0,0,0,0,-1,720,1814,0,0
-497,-790,0,0,0,0,0,0,0,0,0,-1,727,1814,0,0
-490,-790,0,0,0,0,0,0,0,0,0,-1,734,1814,0,0
-483,-790,0,0,0,0,0,0,0,0,0,-1,741,1814,0,0
-476,-790,0,0,0,0,0,0,0,0,0,-1,748,1814,0,0
-469,-790,0,0,0,0,0,0,0,0,0,-1,755,1814,0,0
-462,-790,0,0,0,0,0,0,0,0,0,-1,762,1814,0,0
-455,-790,0,0,0,0,0,0,0,0,0,-1,769,1814,0,0
-448,-790,0,0,0,0,0,0,0,0,0,-1,776,1814,0,0
-441,-790,0,0,0,0,0,0,0,0,0,-1,783,1814,0,0
-434,-790,0,0,0,0,0,0,0,0,0,-1,790,1814,0,0
-427,-790,0,0,0,0,0,0,0,0,0,-1,797,1814,0,0
-420,-790,0,0,0,0,0,0,0,0,0,-1,804,1814,0,0
-413,-790,0,0,0,0,0,0,0,0,0,-1,811,1814,0,0
-406,-790,0,0,0,0,0,0,0,0,0,-1,818,1814,0,0
-399,-790,0,0,0,0,0,0,0,0,0,-1,825,1814,0,0
-392,-790,0,0,0,0,0,0,0,0,0,-1,832,1814,0,0
-385,-790,0,0,0,0,0,0,0,0,0,-1,839,1814,0,0
-378,-790,0,0,0,0,0,0,0,0,0,-1,846,1814,0,0
-371,-790,0,0,0,0,0,0,0,0,0,-1,853,1814,0,0
-364,-790,0,0,0,0,0,0,0,0,0,-1,860,1814,0,0
-357,-790,0,0,0,0,0,0,0,0,0,-1,867,1814,0,0
-350,-790,0,0,0,0,0,0,0,0,0,-1,874,1814,0,0
-343,-790,0,0,0,0,0,0,0,0,0,-1,881,1814,0,0
-336,-790,0,0,0,0,0,0,0,0,0,-1,888,1814,0,0
-329,-790,0,0,0,0,0,0,0,0,0,-1,895,1814,0,0
-322,-790,0,0,0,0,0,0,0,0,0,-1,902,1814,0,0
-315,-790,0,0,0,0,0,0,0,0,0,-1,909,1814,0,0
-308,-790,0,0,0,0,0,0,0,0,0,-1,916,1814,0,0
-301,-790,0,0,0,0,0,0,0,0,0,-1,923,1814,0,0
-294,-790,0,0,0,0,0,0,0,0,0,-1,930,1814,0,0
-287,-790,0,0,0,0,0,0,0,0,0,-1,937,1814,0,0
-280,-790,0,0,0,0,0,0,0,0,0,-1,944,1814,0,0
-273,-790,0,0,0,0,0,0,0,0,0,-1,951,1814,0,0
-266,-790,0,0,0,0,0,0,0,0,0,-1,958,1814,0,0
-259,-790,0,0,0,0,0,0,0,0,0,-1,965,1814,0,0
-252,-790,0,0,0,0,0,0,0,0,0,-1,972,1814,0,0
-245,-790,0,0,0,0,0,0,0,0,0,-1,979,1814,0,0
-238,-790,0,0,0,0,0,0,0,0,0,-1,986,1814,0,0
-231,-790,0,0,0,0,0,0,0,0,0,-1,993,1814,0,0
-224,-790,0,0,0,0,0,0,0,0,0,-1,1000,1814,0,0
-217,-790,0,0,0,0,0,0,0,0,0,-1,1007,1814,0,0
-210,-790,0,0,0,0,0,0,0,0,0,-1,1014,1814,0,0
-203,-790,0,0,0,0,0,0,0,0,0,-1,1021,1814,0,0
-196,-790,0,0,0,0,0,0,0,0,0,-1,1028,1814,0,0
-189,-790,0,0,0,0,0,0,0,0,0,-1,1035,1814,0,0
-182,-790,0,0,0,0,0,0,0,0,0,-1,1042,1814,0,0
-175,-790,0,0,0,0,0,0,0,0,0,-1,1049,1814,0,0
-168,-790,0,0,0,0,0,0,0,0,0,-1,1056,1814,0,0
-161,-790,0,0,0,0,0,0,0,0,0,-1,1063,1814,0,0
-154,-790,0,0,0,0,0,0,0,0,0,-1,1070,1814,0,0
-147,-790,0,0,0,0,0,0,0,0,0,-1,1077,1814,0,0
-140,-790,0,0,0,0,0,0,0,0,0,-1,1084,1814,0,0
-133,-790,0,0,0,0,0,0,0,0,0,-1,1091,1814,0,0
-126,-790,0,0,0,0,0,0,0,0,0,-1,1098,1814,0,0
-119,-790,0,0,0,0,0,0,0,0,0,-1,1105,1814,0,0
-112,-790,0,0,0,0,0,0,0,0,0,-1,1112,1814,0,0
-105,-790,0,0,0,0,0,0,0,0,0,-1,1119,1814,0,0
-98,-790,0,0,0,0,0,0,0,0,0,-1,1126,1814,0,0
-91,-790,0,0,0,0,0,0,0,0,0,-1,1133,1814,0,0
-84,-790,0,0,0,0,0,0,0,0,0,-1,1140,1814,0,0
-77,-790,-0.969238,5.30847,0,0,0,0,0,0,0,-1,1147,1814,-0.969277,-5.3085
-70,-790,-1.23169,4.98914,0,0,0,0,0,0,0,-1,1154,1814,-1.23163,-4.98916
-63,-790,-1.69128,4.32263,0,0,0,0,0,0,0,-1,1161,1814,-1.69128,-4.32258
-56,-790,-2.24756,3.75305,0,0,0,0,0,0,0,-1,1168,1814,-2.24758,-3.75302
-49,-790,-3.11011,3.35779,0,0,0,0,0,0,0,-1,1175,1814,-3.11006,-3.35781
-42,-790,0.593262,1.19165,0,0,0,0,0,0,0,-1,1182,1814,0.593225,-1.19165
-35,-790,0.307129,-0.20105,0,0,0,0,0,0,0,-1,1189,1814,0.307178,0.201006
-28,-790,-2.78467,0.785156,0,0,0,0,0,0,0,-1,1196,1814,-2.78471,-0.785183
-21,-790,8.00635,213.17,0,0,0,0,0,0,0,-1,1203,1814,8.00634,-213.17
-14,-790,7.96802,213.748,0,0,0,0,0,0,0,-1,1210,1814,7.96799,-213.748
-7,-790,5.82751,218.256,0,0,0,0,0,0,0,-1,1217,1814,5.8275,-218.256
0,-790,5.53052,219.018,0,0,0,0,0,0,0,-1,1224,1814,5.53047,-219.018
7,-790,8.1344,225.928,0,0,0,0,0,0,0,-1,1231,1814,8.13443,-225.928
14,-790,7.83276,226.508,0,0,0,0,0,0,0,-1,1238,1814,7.83277,-226.508
21,-790,7.29956,227.179,0,0,0,0,0,0,0,-1,1245,1814,7.29951,-227.179
28,-790,7.64514,227.431,0.0523563,0.105364,0.00875296,0.106772,0.0509484,1.41131,0.0616662,0.0447664,1252,1814,7.64511,-227.431
35,-790,8.01624,227.698,0.0734991,0.110503,0.0272683,0.124954,0.0590484,1.08348,0.0721783,0.0479961,1259,1814,8.01623,-227.698
42,-790,7.56531,227.344,0,0,0,0,0,0,0,-1,1266,1814,7.56531,-227.344
49,-790,8.07996,227.269,0.0991728,0.0996879,0.0683229,0.167754,0.031107,0.787283,0.103044,0.0469933,1273,1814,8.08001,-227.269
56,-790,8.49731,227.189,0.109175,0.0890485,0.0900734,0.189746,0.00847799,0.729767,0.123768,0.0470118,1280,1814,8.49727,-227.189
63,-790,1.80872,228.297,0,0,0,0,0,0,0,-1,1287,1814,1.80876,-228.297
70,-790,2.4314,227.397,0.116148,0.0588192,0.121954,0.212761,-0.0377933,0.669971,0.155972,0.0437598,1294,1814,2.43137,-227.397
77,-790,2.37671,230.696,0.110374,0.0440719,0.127432,0.208897,-0.054451,0.658146,0.160523,0.0416904,1301,1814,2.37668,-230.696
84,-790,1.68835,232.04,0.100721,0.0272267,0.130278,0.199335,-0.0713872,0.647936,0.162016,0.0441886,1308,1814,1.68839,-232.04
91,-790,1.11279,233.207,0.0878657,0.0131944,0.125489,0.181456,-0.0803955,0.640808,0.154887,0.0420228,1315,1814,1.11275,-233.207
98,-790,0.391724,234.305,0.0727845,0.00381953,0.113313,0.156746,-0.0801416,0.637694,0.13913,0.0448567,1322,1814,0.391674,-234.305
105,-790,-0.336182,235.53,0,0,0,0,0,0,0,-1,1329,1814,-0.336192,-235.53
112,-790,-0.754517,227.579,0,0,0,0,0,0,0,-1,1336,1814,-0.754512,-227.579
119,-790,-1.03345,227.182,0.0317306,0.00106094,0.0617175,0.0799898,-0.0471983,0.66363,0.0742411,0.0447772,1343,1814,-1.03344,-227.182
126,-790,-0.726563,226.364,0.00287461,-0.00142423,0.0277575,0.0285657,-0.0271154,0.746757,0.0321511,0.0483189,1350,1814,-0.726586,-226.364
133,-790,-0.0925293,225.689,0,0,0,0,0,0,0,-1,1357,1814,-0.0924725,-225.689
140,-790,-0.889038,221.564,0,0,0,0,0,0,0,-1,1364,1814,-0.889012,-221.564
147,-790,-2.16724,223.013,0,0,0,0,0,0,0,-1,1371,1814,-2.16721,-223.013
154,-790,40.215,13.2396,0,0,0,0,0,0,0,-1,1378,1814,40.2149,-13.2396
161,-790,39.3429,13.0336,0,0,0,0,0,0,0,-1,1385,1814,39.3429,-13.0336
168,-790,7.04077,2.23279,0,0,0,0,0,0,0,-1,1392,1814,7.04082,-2.23275
175,-790,9.03918,3.98535,0,0,0,0,0,0,0,-1,1399,1814,9.0392,-3.98535
182,-790,8.96997,5.67896,0,0,0,0,0,0,0,-1,1406,1814,8.97001,-5.6789
189,-790,8.59729,6.86975,0,0,0,0,0,0,0,-1,1413,1814,8.59728,-6.86972
196,-790,8.21924,9.29053,0,0,0,0,0,0,0,-1,1420,1814,8.21924,-9.29048
203,-790,0,0,0,0,0,0,0,0,0,-1,1427,1814,0,0
210,-790,0,0,0,0,0,0,0,0,0,-1,1434,1814,0,0
217,-790,0,0,0,0,0,0,0,0,0,-1,1441,1814,0,0
224,-790,0,0,0,0,0,0,0,0,0,-1,1448,1814,0,0
231,-790,0,0,0,0,0,0,0,0,0,-1,1455,1814,0,0
238,-790,0,0,0,0,0,0,0,0,0,-1,1462,1814,0,0
245,-790,0,0,0,0,0,0,0,0,0,-1,1469,1814,0,0
252,-790,0,0,0,0,0,0,0,0,0,-1,1476,1814,0,0
259,-790,0,0,0,0,0,0,0,0,0,-1,1483,1814,0,0
266,-790,0,0,0,0,0,0,0,0,0,-1,1490,1814,0,0
273,-790,0,0,0,0,0,0,0,0,0,-1,1497,1814,0,0
280,-790,0,0,0,0,0,0,0,0,0,-1,1504,1814,0,0
287,-790,0,0,0,0,0,0,0,0,0,-1,1511,1814,0,0
294,-790,0,0,0,0,0,0,0,0,0,-1,1518,1814,0,0
301,-790,0,0,0,0,0,0,0,0,0,-1,1525,1814,0,0
308,-790,0,0,0,0,0,0,0,0,0,-1,1532,1814,0,0
315,-790,0,0,0,0,0,0,0,0,0,-1,1539,1814,0,0
322,-790,0,0,0,0,0,0,0,0,0,-1,1546,1814,0,0
329,-790,0,0,0,0,0,0,0,0,0,-1,1553,1814,0,0
336,-790,0,0,0,0,0,0,0,0,0,-1,1560,1814,0,0
343,-790,0,0,0,0,0,0,0,0,0,-1,1567,1814,0,0
350,-790,0,0,0,0,0,0,0,0,0,-1,1574,1814,0,0
357,-790,0,0,0,0,0,0,0,0,0,-1,1581,1814,0,0
364,-790,0,0,0,0,0,0,0,0,0,-1,1588,1814,0,0
371,-790,0,0,0,0,0,0,0,0,0,-1,1595,1814,0,0
378,-790,0,0,0,0,0,0,0,0,0,-1,1602,1814,0,0
385,-790,0,0,0,0,0,0,0,0,0,-1,1609,1814,0,0
392,-790,0,0,0,0,0,0,0,0,0,-1,1616,1814,0,0
399,-790,0,0,0,0,0,0,0,0,0,-1,1623,1814,0,0
406,-790,0,0,0,0,0,0,0,0,0,-1,1630,1814,0,0
413,-790,0,0,0,0,0,0,0,0,0,-1,1637,1814,0,0
420,-790,0,0,0,0,0,0,0,0,0,-1,1644,1814,0,0
427,-790,0,0,0,0,0,0,0,0,0,-1,1651,1814,0,0
434,-790,0,0,0,0,0,0,0,0,0,-1,1658,1814,0,0
441,-790,0,0,0,0,0,0,0,0,0,-1,1665,1814,0,0
448,-790,0,0,0,0,0,0,0,0,0,-1,1672,1814,0,0
455,-790,0,0,0,0,0,0,0,0,0,-1,1679,1814,0,0
462,-790,0,0,0,0,0,0,0,0,0,-1,1686,1814,0,0
469,-790,0,0,0,0,0,0,0,0,0,-1,1693,1814,0,0
476,-790,0,0,0,0,0,0,0,0,0,-1,1700,1814,0,0
483,-790,0,0,0,0,0,0,0,0,0,-1,1707,1814,0,0
490,-790,0,0,0,0,0,0,0,0,0,-1,1714,1814,0,0
497,-790,0,0,0,0,0,0,0,0,0,-1,1721,1814,0,0
504,-790,0,0,0,0,0,0,0,0,0,-1,1728,1814,0,0
511,-790,0,0,0,0,0,0,0,0,0,-1,1735,1814,0,0
518,-790,0,0,0,0,0,0,0,0,0,-1,1742,1814,0,0
525,-790,0,0,0,0,0,0,0,0,0,-1,1749,1814,0,0
532,-790,0,0,0,0,0,0,0,0,0,-1,1756,1814,0,0
539,-790,0,0,0,0,0,0,0,0,0,-1,1763,1814,0,0
546,-790,0,0,0,0,0,0,0,0,0,-1,1770,1814,0,0
553,-790,0,0,0,0,0,0,0,0,0,-1,1777,1814,0,0
560,-790,0,0,0,0,0,0,0,0,0,-1,1784,1814,0,0
567,-790,0,0,0,0,0,0,0,0,0,-1,1791,1814,0,0
574,-790,0,0,0,0,0,0,0,0,0,-1,1798,1814,0,0
581,-790,0,0,0,0,0,0,0,0,0,-1,1805,1814,0,0
588,-790,0,0,0,0,0,0,0,0,0,-1,1812,1814,0,0
595,-790,0,0,0,0,0,0,0,0,0,-1,1819,1814,0,0
602,-790,0,0,0,0,0,0,0,0,0,-1,1826,1814,0,0
609,-790,0,0,0,0,0,0,0,0,0,-1,1833,1814,0,0
616,-790,0,0,0,0,0,0,0,0,0,-1,1840,1814,0,0
623,-790,0,0,0,0,0,0,0,0,0,-1,1847,1814,0,0
630,-790,0,0,0,0,0,0,0,0,0,-1,1854,1814,0,0
637,-790,0,0,0,0,0,0,0,0,0,-1,1861,1814,0,0
644,-790,0,0,0,0,0,0,0,0,0,-1,1868,1814,0,0
651,-790,0,0,0,0,0,0,0,0,0,-1,1875,1814,0,0
658,-790,0,0,0,0,0,0,0,0,0,-1,1882,1814,0,0
665,-790,0,0,0,0,0,0,0,0,0,-1,1889,1814,0,0
672,-790,0,0,0,0,0,0,0,0,0,-1,1896,1814,0,0
679,-790,0,0,0,0,0,0,0,0,0,-1,1903,1814,0,0
686,-790,0,0,0,0,0,0,0,0,0,-1,1910,1814,0,0
693,-790,0,0,0,0,0,0,0,0,0,-1,1917,1814,0,0
700,-790,0,0,0,0,0,0,0,0,0,-1,1924,1814,0,0
707,-790,0,0,0,0,0,0,0,0,0,-1,1931,1814,0,0
714,-790,0,0,0,0,0,0,0,0,0,-1,1938,1814,0,0
721,-790,0,0,0,0,0,0,0,0,0,-1,1945,1814,0,0
728,-790,0,0,0,0,0,0,0,0,0,-1,1952,1814,0,0
735,-790,0,0,0,0,0,0,0,0,0,-1,1959,1814,0,0
742,-790,0,0,0,0,0,0,0,0,0,-1,1966,1814,0,0
749,-790,0,0,0,0,0,0,0,0,0,-1,1973,1814,0,0
756,-790,0,0,0,0,0,0,0,0,0,-1,1980,1814,0,0
763,-790,0,0,0,0,0,0,0,0,0,-1,1987,1814,0,0
770,-790,0,0,0,0,0,0,0,0,0,-1,1994,1814,0,0
777,-790,0,0,0,0,0,0,0,0,0,-1,2001,1814,0,0
784,-790,0,0,0,0,0,0,0,0,0,-1,2008,1814,0,0
791,-790,0,0,0,0,0,0,0,0,0,-1,2015,1814,0,0
798,-790,0,0,0,0,0,0,0,0,0,-1,2022,1814,0,0
805,-790,0,0,0,0,0,0,0,0,0,-1,2029,1814,0,0
812,-790,0,0,0,0,0,0,0,0,0,-1,2036,1814,0,0
-700,-797,0,0,0,0,0,0,0,0,0,-1,524,1821,0,0
-693,-797,0,0,0,0,0,0,0,0,0,-1,531,1821,0,0
-686,-797,0,0,0,0,0,0,0,0,0,-1,538,1821,0,0
-679,-797,0,0,0,0,0,0,0,0,0,-1,545,1821,0,0
-672,-797,0,0,0,0,0,0,0,0,0,-1,552,1821,0,0
-665,-797,0,0,0,0,0,0,0,0,0,-1,559,1821,0,0
-658,-797,0,0,0,0,0,0,0,0,0,-1,566,1821,0,0
-651,-797,0,0,0,0,0,0,0,0,0,-1,573,1821,0,0
-644,-797,0,0,0,0,0,0,0,0,0,-1,580,1821,0,0
-637,-797,0,0,0,0,0,0,0,0,0,-1,587,1821,0,0
-630,-797,0,0,0,0,0,0,0,0,0,-1,594,1821,0,0
-623,-797,0,0,0,0,0,0,0,0,0,-1,601,1821,0,0
-616,-797,0,0,0,0,0,0,0,0,0,-1,608,1821,0,0
-609,-797,0,0,0,0,0,0,0,0,0,-1,615,1821,0,0
-602,-797,0,0,0,0,0,0,0,0,0,-1,622,1821,0,0
-595,-797,0,0,0,0,0,0,0,0,0,-1,629,1821,0,0
-588,-797,0,0,0,0,0,0,0,0,0,-1,636,1821,0,0
-581,-797,0,0,0,0,0,0,0,0,0,-1,643,1821,0,0
-574,-797,0,0,0,0,0,0,0,0,0,-1,650,1821,0,0
-567,-797,0,0,0,0,0,0,0,0,0,-1,657,1821,0,0
-560,-797,0,0,0,0,0,0,0,0,0,-1,664,1821,0,0
-553,-797,0,0,0,0,0,0,0,0,0,-1,671,1821,0,0
-546,-797,0,0,0,0,0,0,0,0,0,-1,678,1821,0,0
-539,-797,0,0,0,0,0,0,0,0,0,-1,685,1821,0,0
-532,-797,0,0,0,0,0,0,0,0,0,-1,692,1821,0,0
-525,-797,0,0,0,0,0,0,0,0,0,-1,699,1821,0,0
-518,-797,0,0,0,0,0,0,0,0,0,-1,706,1821,0,0
-511,-797,0,0,0,0,0,0,0,0,0,-1,713,1821,0,0
-504,-797,0,0,0,0,0,0,0,0,0,-1,720,1821,0,0
-497,-797,0,0,0,0,0,0,0,0,0,-1,727,1821,0,0
-490,-797,0,0,0,0,0,0,0,0,0,-1,734,1821,0,0
-483,-797,0,0,0,0,0,0,0,0,0,-1,741,1821,0,0
-476,-797,0,0,0,0,0,0,0,0,0,-1,748,1821,0,0
-469,-797,0,0,0,0,0,0,0,0,0,-1,755,1821,0,0
-462,-797,0,0,0,0,0,0,0,0,0,-1,762,1821,0,0
-455,-797,0,0,0,0,0,0,0,0,0,-1,769,1821,0,0
-448,-797,0,0,0,0,0,0,0,0,0,-1,776,1821,0,0
-441,-797,0,0,0,0,0,0,0,0,0,-1,783,1821,0,0
-434,-797,0,0,0,0,0,0,0,0,0,-1,790,1821,0,0
-427,-797,0,0,0,0,0,0,0,0,0,-1,797,1821,0,0
-420,-797,0,0,0,0,0,0,0,0,0,-1,804,1821,0,0
-413,-797,0,0,0,0,0,0,0,0,0,-1,811,1821,0,0
-406,-797,0,0,0,0,0,0,0,0,0,-1,818,1821,0,0
-399,-797,0,0,0,0,0,0,0,0,0,-1,825,1821,0,0
-392,-797,0,0,0,0,0,0,0,0,0,-1,832,1821,0,0
-385,-797,0,0,0,0,0,0,0,0,0,-1,839,1821,0,0
-378,-797,0,0,0,0,0,0,0,0,0,-1,846,1821,0,0
-371,-797,0,0,0,0,0,0,0,0,0,-1,853,1821,0,0
-364,-797,0,0,0,0,0,0,0,0,0,-1,860,1821,0,0
-357,-797,0,0,0,0,0,0,0,0,0,-1,867,1821,0,0
-350,-797,0,0,0,0,0,0,0,0,0,-1,874,1821,0,0
-343,-797,0,0,0,0,0,0,0,0,0,-1,881,1821,0,0
-336,-797,0,0,0,0,0,0,0,0,0,-1,888,1821,0,0
-329,-797,0,0,0,0,0,0,0,0,0,-1,895,1821,0,0
-322,-797,0,0,0,0,0,0,0,0,0,-1,902,1821,0,0
-315,-797,0,0,0,0,0,0,0,0,0,-1,909,1821,0,0
-308,-797,0,0,0,0,0,0,0,0,0,-1,916,1821,0,0
-301,-797,0,0,0,0,0,0,0,0,0,-1,923,1821,0,0
-294,-797,0,0,0,0,0,0,0,0,0,-1,930,1821,0,0
-287,-797,0,0,0,0,0,0,0,0,0,-1,937,1821,0,0
-280,-797,0,0,0,0,0,0,0,0,0,-1,944,1821,0,0
-273,-797,0,0,0,0,0,0,0,0,0,-1,951,1821,0,0
-266,-797,0,0,0,0,0,0,0,0,0,-1,958,1821,0,0
-259,-797,0,0,0,0,0,0,0,0,0,-1,965,1821,0,0
-252,-797,0,0,0,0,0,0,0,0,0,-1,972,1821,0,0
-245,-797,0,0,0,0,0,0,0,0,0,-1,979,1821,0,0
-238,-797,0,0,0,0,0,0,0,0,0,-1,986,1821,0,0
-231,-797,0,0,0,0,0,0,0,0,0,-1,993,1821,0,0
-224,-797,0,0,0,0,0,0,0,0,0,-1,1000,1821,0,0
-217,-797,0,0,0,0,0,0,0,0,0,-1,1007,1821,0,0
-210,-797,0,0,0,0,0,0,0,0,0,-1,1014,1821,0,0
-203,-797,0,0,0,0,0,0,0,0,0,-1,1021,1821,0,0
-196,-797,0,0,0,0,0,0,0,0,0,-1,1028,1821,0,0
-189,-797,0,0,0,0,0,0,0,0,0,-1,1035,1821,0,0
-182,-797,0,0,0,0,0,0,0,0,0,-1,1042,1821,0,0
-175,-797,0,0,0,0,0,0,0,0,0,-1,1049,1821,0,0
-168,-797,0,0,0,0,0,0,0,0,0,-1,1056,1821,0,0
-161,-797,0,0,0,0,0,0,0,0,0,-1,1063,1821,0,0
-154,-797,0,0,0,0,0,0,0,0,0,-1,1070,1821,0,0
-147,-797,0,0,0,0,0,0,0,0,0,-1,1077,1821,0,0
-140,-797,0,0,0,0,0,0,0,0,0,-1,1084,1821,0,0
-133,-797,0,0,0,0,0,0,0,0,0,-1,1091,1821,0,0
-126,-797,0,0,0,0,0,0,0,0,0,-1,1098,1821,0,0
-119,-797,0,0,0,0,0,0,0,0,0,-1,1105,1821,0,0
-112,-797,0,0,0,0,0,0,0,0,0,-1,1112,1821,0,0
-105,-797,0,0,0,0,0,0,0,0,0,-1,1119,1821,0,0
-98,-797,0,0,0,0,0,0,0,0,0,-1,1126,1821,0,0
-91,-797,0,0,0,0,0,0,0,0,0,-1,1133,1821,0,0
-84,-797,0,0,0,0,0,0,0,0,0,-1,1140,1821,0,0
-77,-797,0,0,0,0,0,0,0,0,0,-1,1147,1821,0,0
-70,-797,0,0,0,0,0,0,0,0,0,-1,1154,1821,0,0
-63,-797,0,0,0,0,0,0,0,0,0,-1,1161,1821,0,0
-56,-797,0,0,0,0,0,0,0,0,0,-1,1168,1821,0,0
-49,-797,0,0,0,0,0,0,0,0,0,-1,1175,1821,0,0
-42,-797,0.579834,0.692871,0,0,0,0,0,0,0,-1,1182,1821,0.579856,-0.692816
-35,-797,-0.185425,5.55396,0,0,0,0,0,0,0,-1,1189,1821,-0.18542,-5.55396
-28,-797,-0.310181,4.71509,0,0,0,0,0,0,0,-1,1196,1821,-0.310228,-4.71503
-21,-797,9.22607,212.226,0,0,0,0,0,0,0,-1,1203,1821,9.22613,-212.226
-14,-797,9.69128,212.808,0,0,0,0,0,0,0,-1,1210,1821,9.69129,-212.808
-7,-797,7.08142,219.311,0,0,0,0,0,0,0,-1,1217,1821,7.08137,-219.311
0,-797,9.99365,225.431,0,0,0,0,0,0,0,-1,1224,1821,9.9936,-225.431
7,-797,9.38977,226.124,0,0,0,0,0,0,0,-1,1231,1821,9.38973,-226.124
14,-797,8.52881,226.619,0,0,0,0,0,0,0,-1,1238,1821,8.52877,-226.619
21,-797,8.02856,227.344,0,0,0,0,0,0,0,-1,1245,1821,8.02859,-227.344
28,-797,8.45923,227.011,0,0,0,0,0,0,0,-1,1252,1821,8.45922,-227.011
35,-797,8.89832,227.26,0,0,0,0,0,0,0,-1,1259,1821,8.89832,-227.26
42,-797,9.12805,226.709,0,0,0,0,0,0,0,-1,1266,1821,9.12803,-226.709
49,-797,9.00989,226.473,0.163235,0.107946,0.105906,0.245045,0.0261367,0.657732,0.155386,0.0481646,1273,1821,9.00988,-226.473
56,-797,9.21667,226.675,0.176786,0.0969363,0.133781,0.276473,-0.00275074,0.640389,0.185239,0.0457411,1280,1821,9.21666,-226.675
63,-797,9.41626,226.857,0,0,0,0,0,0,0,-1,1287,1821,9.4163,-226.857
70,-797,2.21643,225.702,0.184875,0.0622912,0.173369,0.307467,-0.0603012,0.615488,0.227755,0.0405466,1294,1821,2.21649,-225.702
77,-797,2.98999,231.881,0.176248,0.044606,0.179112,0.30125,-0.0803958,0.609314,0.232316,0.0388303,1301,1821,2.98995,-231.881
84,-797,2.09497,232.65,0,0,0,0,0,0,0,-1,1308,1821,2.09497,-232.65
91,-797,1.71143,233.452,0.142929,0.00786793,0.171273,0.259504,-0.108707,0.597613,0.218449,0.0429066,1315,1821,1.71148,-233.452
98,-797,1.13013,234.547,0.120483,-0.00281754,0.152726,0.223533,-0.105867,0.593567,0.194182,0.0447658,1322,1821,1.13007,-234.547
105,-797,0.606201,235.89,0,0,0,0,0,0,0,-1,1329,1821,0.606251,-235.89
112,-797,-1.84961,227.707,0,0,0,0,0,0,0,-1,1336,1821,-1.84957,-227.707
119,-797,-2.08081,227.588,0,0,0,0,0,0,0,-1,1343,1821,-2.08077,-227.588
126,-797,-1.16895,225.681,0,0,0,0,0,0,0,-1,1350,1821,-1.16891,-225.681
133,-797,5.17664,234.488,0,0,0,0,0,0,0,-1,1357,1821,5.17663,-234.488
140,-797,-1.67883,221.598,0,0,0,0,0,0,0,-1,1364,1821,-1.67882,-221.598
147,-797,-2.12183,220.955,0,0,0,0,0,0,0,-1,1371,1821,-2.12189,-220.955
154,-797,40.2623,8.88733,0,0,0,0,0,0,0,-1,1378,1821,40.2623,-8.88731
161,-797,42.2798,8.17371,0,0,0,0,0,0,0,-1,1385,1821,42.2798,-8.17367
168,-797,0,0,0,0,0,0,0,0,0,-1,1392,1821,0,0
175,-797,0,0,0,0,0,0,0,0,0,-1,1399,1821,0,0
182,-797,0,0,0,0,0,0,0,0,0,-1,1406,1821,0,0
189,-797,0,0,0,0,0,0,0,0,0,-1,1413,1821,0,0
196,-797,0,0,0,0,0,0,0,0,0,-1,1420,1821,0,0
203,-797,0,0,0,0,0,0,0,0,0,-1,1427,1821,0,0
210,-797,0,0,0,0,0,0,0,0,0,-1,1434,1821,0,0
217,-797,0,0,0,0,0,0,0,0,0,-1,1441,1821,0,0
224,-797,0,0,0,0,0,0,0,0,0,-1,1448,1821,0,0
231,-797,0,0,0,0,0,0,0,0,0,-1,1455,1821,0,0
238,-797,0,0,0,0,0,0,0,0,0,-1,1462,1821,0,0
245,-797,0,0,0,0,0,0,0,0,0,-1,1469,1821,0,0
252,-797,0,0,0,0,0,0,0,0,0,-1,1476,1821,0,0
259,-797,0,0,0,0,0,0,0,0,0,-1,1483,1821,0,0
266,-797,0,0,0,0,0,0,0,0,0,-1,1490,1821,0,0
273,-797,0,0,0,0,0,0,0,0,0,-1,1497,1821,0,0
280,-797,0,0,0,0,0,0,0,0,0,-1,1504,1821,0,0
287,-797,0,0,0,0,0,0,0,0,0,-1,1511,1821,0,0
294,-797,0,0,0,0,0,0,0,0,0,-1,1518,1821,0,0
301,-797,0,0,0,0,0,0,0,0,0,-1,1525,1821,0,0
308,-797,0,0,0,0,0,0,0,0,0,-1,1532,1821,0,0
315,-797,0,0,0,0,0,0,0,0,0,-1,1539,1821,0,0
322,-797,0,0,0,0,0,0,0,0,0,-1,1546,1821,0,0
329,-797,0,0,0,0,0,0,0,0,0,-1,1553,1821,0,0
336,-797,0,0,0,0,0,0,0,0,0,-1,1560,1821,0,0
343,-797,0,0,0,0,0,0,0,0,0,-1,1567,1821,0,0
350,-797,0,0,0,0,0,0,0,0,0,-1,1574,1821,0,0
357,-797,0,0,0,0,0,0,0,0,0,-1,1581,1821,0,0
364,-797,0,0,0,0,0,0,0,0,0,-1,1588,1821,0,0
371,-797,0,0,0,0,0,0,0,0,0,-1,1595,1821,0,0
378,-797,0,0,0,0,0,0,0,0,0,-1,1602,1821,0,0
385,-797,0,0,0,0,0,0,0,0,0,-1,1609,1821,0,0
392,-797,0,0,0,0,0,0,0,0,0,-1,1616,1821,0,0
399,-797,0,0,0,0,0,0,0,0,0,-1,1623,1821,0,0
406,-797,0,0,0,0,0,0,0,0,0,-1,1630,1821,0,0
413,-797,0,0,0,0,0,0,0,0,0,-1,1637,1821,0,0
420,-797,0,0,0,0,0,0,0,0,0,-1,1644,1821,0,0
427,-797,0,0,0,0,0,0,0,0,0,-1,1651,1821,0,0
434,-797,0,0,0,0,0,0,0,0,0,-1,1658,1821,0,0
441,-797,0,0,0,0,0,0,0,0,0,-1,1665,1821,0,0
448,-797,0,0,0,0,0,0,0,0,0,-1,1672,1821,0,0
455,-797,0,0,0,0,0,0,0,0,0,-1,1679,1821,0,0
462,-797,0,0,0,0,0,0,0,0,0,-1,1686,1821,0,0
469,-797,0,0,0,0,0,0,0,0,0,-1,1693,1821,0,0
476,-797,0,0,0,0,0,0,0,0,0,-1,1700,1821,0,0
483,-797,0,0,0,0,0,0,0,0,0,-1,1707,1821,0,0
490,-797,0,0,0,0,0,0,0,0,0,-1,1714,1821,0,0
497,-797,0,0,0,0,0,0,0,0,0,-1,1721,1821,0,0
504,-797,0,0,0,0,0,0,0,0,0,-1,1728,1821,0,0
511,-797,0,0,0,0,0,0,0,0,0,-1,1735,1821,0,0
518,-797,0,0,0,0,0,0,0,0,0,-1,1742,1821,0,0
525,-797,0,0,0,0,0,0,0,0,0,-1,1749,1821,0,0
532,-797,0,0,0,0,0,0,0,0,0,-1,1756,1821,0,0
539,-797,0,0,0,0,0,0,0,0,0,-1,1763,1821,0,0
546,-797,0,0,0,0,0,0,0,0,0,-1,1770,1821,0,0
553,-797,0,0,0,0,0,0,0,0,0,-1,1777,1821,0,0
560,-797,0,0,0,0,0,0,0,0,0,-1,1784,1821,0,0
567,-797,0,0,0,0,0,0,0,0,0,-1,1791,1821,0,0
574,-797,0,0,0,0,0,0,0,0,0,-1,1798,1821,0,0
581,-797,0,0,0,0,0,0,0,0,0,-1,1805,1821,0,0
588,-797,0,0,0,0,0,0,0,0,0,-1,1812,1821,0,0
595,-797,0,0,0,0,0,0,0,0,0,-1,1819,1821,0,0
602,-797,0,0,0,0,0,0,0,0,0,-1,1826,1821,0,0
609,-797,0,0,0,0,0,0,0,0,0,-1,1833,1821,0,0
616,-797,0,0,0,0,0,0,0,0,0,-1,1840,1821,0,0
623,-797,0,0,0,0,0,0,0,0,0,-1,1847,1821,0,0
630,-797,0,0,0,0,0,0,0,0,0,-1,1854,1821,0,0
637,-797,0,0,0,0,0,0,0,0,0,-1,1861,1821,0,0
644,-797,0,0,0,0,0,0,0,0,0,-1,1868,1821,0,0
651,-797,0,0,0,0,0,0,0,0,0,-1,1875,1821,0,0
658,-797,0,0,0,0,0,0,0,0,0,-1,1882,1821,0,0
665,-797,0,0,0,0,0,0,0,0,0,-1,1889,1821,0,0
672,-797,0,0,0,0,0,0,0,0,0,-1,1896,1821,0,0
679,-797,0,0,0,0,0,0,0,0,0,-1,1903,1821,0,0
686,-797,0,0,0,0,0,0,0,0,0,-1,1910,1821,0,0
693,-797,0,0,0,0,0,0,0,0,0,-1,1917,1821,0,0
700,-797,0,0,0,0,0,0,0,0,0,-1,1924,1821,0,0
707,-797,0,0,0,0,0,0,0,0,0,-1,1931,1821,0,0
714,-797,0,0,0,0,0,0,0,0,0,-1,1938,1821,0,0
721,-797,0,0,0,0,0,0,0,0,0,-1,1945,1821,0,0
728,-797,0,0,0,0,0,0,0,0,0,-1,1952,1821,0,0
735,-797,0,0,0,0,0,0,0,0,0,-1,1959,1821,0,0
742,-797,0,0,0,0,0,0,0,0,0,-1,1966,1821,0,0
749,-797,0,0,0,0,0,0,0,0,0,-1,1973,1821,0,0
756,-797,0,0,0,0,0,0,0,0,0,-1,1980,1821,0,0
763,-797,0,0,0,0,0,0,0,0,0,-1,1987,1821,0,0
770,-797,0,0,0,0,0,0,0,0,0,-1,1994,1821,0,0
777,-797,0,0,0,0,0,0,0,0,0,-1,2001,1821,0,0
784,-797,0,0,0,0,0,0,0,0,0,-1,2008,1821,0,0
791,-797,0,0,0,0,0,0,0,0,0,-1,2015,1821,0,0
798,-797,0,0,0,0,0,0,0,0,0,-1,2022,1821,0,0
805,-797,0,0,0,0,0,0,0,0,0,-1,2029,1821,0,0
812,-797,0,0,0,0,0,0,0,0,0,-1,2036,1821,0,0
-700,-804,0,0,0,0,0,0,0,0,0,-1,524,1828,0,0
-693,-804,0,0,0,0,0,0,0,0,0,-1,531,1828,0,0
-686,-804,0,0,0,0,0,0,0,0,0,-1,538,1828,0,0
-679,-804,0,0,0,0,0,0,0,0,0,-1,545,1828,0,0
-672,-804,0,0,0,0,0,0,0,0,0,-1,552,1828,0,0
-665,-804,0,0,0,0,0,0,0,0,0,-1,559,1828,0,0
-658,-804,0,0,0,0,0,0,0,0,0,-1,566,1828,0,0
-651,-804,0,0,0,0,0,0,0,0,0,-1,573,1828,0,0
-644,-804,0,0,0,0,0,0,0,0,0,-1,580,1828,0,0
-637,-804,0,0,0,0,0,0,0,0,0,-1,587,1828,0,0
-630,-804,0,0,0,0,0,0,0,0,0,-1,594,1828,0,0
-623,-804,0,0,0,0,0,0,0,0,0,-1,601,1828,0,0
-616,-804,0,0,0,0,0,0,0,0,0,-1,608,1828,0,0
-609,-804,0,0,0,0,0,0,0,0,0,-1,615,1828,0,0
-602,-804,0,0,0,0,0,0,0,0,0,-1,622,1828,0,0
-595,-804,0,0,0,0,0,0,0,0,0,-1,629,1828,0,0
-588,-804,0,0,0,0,0,0,0,0,0,-1,636,1828,0,0
-581,-804,0,0,0,0,0,0,0,0,0,-1,643,1828,0,0
-574,-804,0,0,0,0,0,0,0,0,0,-1,650,1828,0,0
-567,-804,0,0,0,0,0,0,0,0,0,-1,657,1828,0,0
-560,-804,0,0,0,0,0,0,0,0,0,-1,664,1828,0,0
-553,-804,0,0,0,0,0,0,0,0,0,-1,671,1828,0,0
-546,-804,0,0,0,0,0,0,0,0,0,-1,678,1828,0,0
-539,-804,0,0,0,0,0,0,0,0,0,-1,685,1828,0,0
-532,-804,0,0,0,0,0,0,0,0,0,-1,692,1828,0,0
-525,-804,0,0,0,0,0,0,0,0,0,-1,699,1828,0,0
-518,-804,0,0,0,0,0,0,0,0,0,-1,706,1828,0,0
-511,-804,0,0,0,0,0,0,0,0,0,-1,713,1828,0,0
-504,-804,0,0,0,0,0,0,0,0,0,-1,720,1828,0,0
-497,-804,0,0,0,0,0,0,0,0,0,-1,727,1828,0,0
-490,-804,0,0,0,0,0,0,0,0,0,-1,734,1828,0,0
-483,-804,0,0,0,0,0,0,0,0,0,-1,741,1828,0,0
-476,-804,0,0,0,0,0,0,0,0,0,-1,748,1828,0,0
-469,-804,0,0,0,0,0,0,0,0,0,-1,755,1828,0,0
-462,-804,0,0,0,0,0,0,0,0,0,-1,762,1828,0,0
-455,-804,0,0,0,0,0,0,0,0,0,-1,769,1828,0,0
-448,-804,0,0,0,0,0,0,0,0,0,-1,776,1828,0,0
-441,-804,0,0,0,0,0,0,0,0,0,-1,783,1828,0,0
-434,-804,0,0,0,0,0,0,0,0,0,-1,790,1828,0,0
-427,-804,0,0,0,0,0,0,0,0,0,-1,797,1828,0,0
-420,-804,0,0,0,0,0,0,0,0,0,-1,804,1828,0,0
-413,-804,0,0,0,0,0,0,0,0,0,-1,811,1828,0,0
-406,-804,0,0,0,0,0,0,0,0,0,-1,818,1828,0,0
-399,-804,0,0,0,0,0,0,0,0,0,-1,825,1828,0,0
-392,-804,0,0,0,0,0,0,0,0,0,-1,832,1828,0,0
-385,-804,0,0,0,0,0,0,0,0,0,-1,839,1828,0,0
-378,-804,0,0,0,0,0,0,0,0,0,-1,846,1828,0,0
-371,-804,0,0,0,0,0,0,0,0,0,-1,853,1828,0,0
-364,-804,0,0,0,0,0,0,0,0,0,-1,860,1828,0,0
-357,-804,0,0,0,0,0,0,0,0,0,-1,867,1828,0,0
-350,-804,0,0,0,0,0,0,0,0,0,-1,874,1828,0,0
-343,-804,0,0,0,0,0,0,0,0,0,-1,881,1828,0,0
-336,-804,0,0,0,0,0,0,0,0,0,-1,888,1828,0,0
-329,-804,0,0,0,0,0,0,0,0,0,-1,895,1828,0,0
-322,-804,0,0,0,0,0,0,0,0,0,-1,902,1828,0,0
-315,-804,0,0,0,0,0,0,0,0,0,-1,909,1828,0,0
-308,-804,0,0,0,0,0,0,0,0,0,-1,916,1828,0,0
-301,-804,0,0,0,0,0,0,0,0,0,-1,923,1828,0,0
-294,-804,0,0,0,0,0,0,0,0,0,-1,930,1828,0,0
-287,-804,0,0,0,0,0,0,0,0,0,-1,937,1828,0,0
-280,-804,0,0,0,0,0,0,0,0,0,-1,944,1828,0,0
-273,-804,0,0,0,0,0,0,0,0,0,-1,951,1828,0,0
-266,-804,0,0,0,0,0,0,0,0,0,-1,958,1828,0,0
-259,-804,0,0,0,0,0,0,0,0,0,-1,965,1828,0,0
-252,-804,0,0,0,0,0,0,0,0,0,-1,972,1828,0,0
-245,-804,0,0,0,0,0,0,0,0,0,-1,979,1828,0,0
-238,-804,0,0,0,0,0,0,0,0,0,-1,986,1828,0,0
-231,-804,0,0,0,0,0,0,0,0,0,-1,993,1828,0,0
-224,-804,0,0,0,0,0,0,0,0,0,-1,1000,1828,0,0
-217,-804,0,0,0,0,0,0,0,0,0,-1,1007,1828,0,0
-210,-804,0,0,0,0,0,0,0,0,0,-1,1014,1828,0,0
-203,-804,0,0,0,0,0,0,0,0,0,-1,1021,1828,0,0
-196,-804,0,0,0,0,0,0,0,0,0,-1,1028,1828,0,0
-189,-804,0,0,0,0,0,0,0,0,0,-1,1035,1828,0,0
-182,-804,0,0,0,0,0,0,0,0,0,-1,1042,1828,0,0
-175,-804,0,0,0,0,0,0,0,0,0,-1,1049,1828,0,0
-168,-804,0,0,0,0,0,0,0,0,0,-1,1056,1828,0,0
-161,-804,0,0,0,0,0,0,0,0,0,-1,1063,1828,0,0
-154,-804,0,0,0,0,0,0,0,0,0,-1,1070,1828,0,0
-147,-804,0,0,0,0,0,0,0,0,0,-1,1077,1828,0,0
-140,-804,0,0,0,0,0,0,0,0,0,-1,1084,1828,0,0
-133,-804,0,0,0,0,0,0,0,0,0,-1,1091,1828,0,0
-126,-804,0,0,0,0,0,0,0,0,0,-1,1098,1828,0,0
-119,-804,0,0,0,0,0,0,0,0,0,-1,1105,1828,0,0
-112,-804,0,0,0,0,0,0,0,0,0,-1,1112,1828,0,0
-105,-804,0,0,0,0,0,0,0,0,0,-1,1119,1828,0,0
-98,-804,0,0,0,0,0,0,0,0,0,-1,1126,1828,0,0
-91,-804,0,0,0,0,0,0,0,0,0,-1,1133,1828,0,0
-84,-804,0,0,0,0,0,0,0,0,0,-1,1140,1828,0,0
-77,-804,0,0,0,0,0,0,0,0,0,-1,1147,1828,0,0
-70,-804,0,0,0,0,0,0,0,0,0,-1,1154,1828,0,0
-63,-804,0,0,0,0,0,0,0,0,0,-1,1161,1828,0,0
-56,-804,0,0,0,0,0,0,0,0,0,-1,1168,1828,0,0
-49,-804,0,0,0,0,0,0,0,0,0,-1,1175,1828,0,0
-42,-804,0,0,0,0,0,0,0,0,0,-1,1182,1828,0,0
-35,-804,0,0,0,0,0,0,0,0,0,-1,1189,1828,0,0
-28,-804,0,0,0,0,0,0,0,0,0,-1,1196,1828,0,0
-21,-804,0,0,0,0,0,0,0,0,0,-1,1203,1828,0,0
-14,-804,0,0,0,0,0,0,0,0,0,-1,1210,1828,0,0
-7,-804,0,0,0,0,0,0,0,0,0,-1,1217,1828,0,0
0,-804,0,0,0,0,0,0,0,0,0,-1,1224,1828,0,0
7,-804,0,0,0,0,0,0,0,0,0,-1,1231,1828,0,0
14,-804,0,0,0,0,0,0,0,0,0,-1,1238,1828,0,0
21,-804,0,0,0,0,0,0,0,0,0,-1,1245,1828,0,0
28,-804,0,0,0,0,0,0,0,0,0,-1,1252,1828,0,0
35,-804,7.15845,222.534,0,0,0,0,0,0,0,-1,1259,1828,7.15851,-222.534
42,-804,10.3446,225.621,0,0,0,0,0,0,0,-1,1266,1828,10.3446,-225.621
49,-804,9.84509,225.647,0,0,0,0,0,0,0,-1,1273,1828,9.84514,-225.647
56,-804,10.0527,225.81,0,0,0,0,0,0,0,-1,1280,1828,10.0527,-225.81
63,-804,2.61011,223.93,0,0,0,0,0,0,0,-1,1287,1828,2.61016,-223.93
70,-804,2.33142,223.237,0.289949,0.0661569,0.248489,0.450573,-0.0944674,0.573844,0.336323,0.0431932,1294,1828,2.3314,-223.237
77,-804,3.23474,233.102,0.277009,0.0450653,0.253877,0.440148,-0.118074,0.571149,0.3397,0.0421549,1301,1828,3.23478,-233.102
84,-804,2.80249,234.075,0,0,0,0,0,0,0,-1,1308,1828,2.80244,-234.075
91,-804,0,0,0,0,0,0,0,0,0,-1,1315,1828,0,0
98,-804,0,0,0,0,0,0,0,0,0,-1,1322,1828,0,0
105,-804,0,0,0,0,0,0,0,0,0,-1,1329,1828,0,0
112,-804,0,0,0,0,0,0,0,0,0,-1,1336,1828,0,0
119,-804,0,0,0,0,0,0,0,0,0,-1,1343,1828,0,0
126,-804,0,0,0,0,0,0,0,0,0,-1,1350,1828,0,0
133,-804,0,0,0,0,0,0,0,0,0,-1,1357,1828,0,0
140,-804,0,0,0,0,0,0,0,0,0,-1,1364,1828,0,0
147,-804,0,0,0,0,0,0,0,0,0,-1,1371,1828,0,0
154,-804,0,0,0,0,0,0,0,0,0,-1,1378,1828,0,0
161,-804,0,0,0,0,0,0,0,0,0,-1,1385,1828,0,0
168,-804,0,0,0,0,0,0,0,0,0,-1,1392,1828,0,0
175,-804,0,0,0,0,0,0,0,0,0,-1,1399,1828,0,0
182,-804,0,0,0,0,0,0,0,0,0,-1,1406,1828,0,0
189,-804,0,0,0,0,0,0,0,0,0,-1,1413,1828,0,0
196,-804,0,0,0,0,0,0,0,0,0,-1,1420,1828,0,0
203,-804,0,0,0,0,0,0,0,0,0,-1,1427,1828,0,0
210,-804,0,0,0,0,0,0,0,0,0,-1,1434,1828,0,0
217,-804,0,0,0,0,0,0,0,0,0,-1,1441,1828,0,0
224,-804,0,0,0,0,0,0,0,0,0,-1,1448,1828,0,0
231,-804,0,0,0,0,0,0,0,0,0,-1,1455,1828,0,0
238,-804,0,0,0,0,0,0,0,0,0,-1,1462,1828,0,0
245,-804,0,0,0,0,0,0,0,0,0,-1,1469,1828,0,0
252,-804,0,0,0,0,0,0,0,0,0,-1,1476,1828,0,0
259,-804,0,0,0,0,0,0,0,0,0,-1,1483,1828,0,0
266,-804,0,0,0,0,0,0,0,0,0,-1,1490,1828,0,0
273,-804,0,0,0,0,0,0,0,0,0,-1,1497,1828,0,0
280,-804,0,0,0,0,0,0,0,0,0,-1,1504,1828,0,0
287,-804,0,0,0,0,0,0,0,0,0,-1,1511,1828,0,0
294,-804,0,0,0,0,0,0,0,0,0,-1,1518,1828,0,0
301,-804,0,0,0,0,0,0,0,0,0,-1,1525,1828,0,0
308,-804,0,0,0,0,0,0,0,0,0,-1,1532,1828,0,0
315,-804,0,0,0,0,0,0,0,0,0,-1,1539,1828,0,0
322,-804,0,0,0,0,0,0,0,0,0,-1,1546,1828,0,0
329,-804,0,0,0,0,0,0,0,0,0,-1,1553,1828,0,0
336,-804,0,0,0,0,0,0,0,0,0,-1,1560,1828,0,0
343,-804,0,0,0,0,0,0,0,0,0,-1,1567,1828,0,0
350,-804,0,0,0,0,0,0,0,0,0,-1,1574,1828,0,0
357,-804,0,0,0,0,0,0,0,0,0,-1,1581,1828,0,0
364,-804,0,0,0,0,0,0,0,0,0,-1,1588,1828,0,0
371,-804,0,0,0,0,0,0,0,0,0,-1,1595,1828,0,0
378,-804,0,0,0,0,0,0,0,0,0,-1,1602,1828,0,0
385,-804,0,0,0,0,0,0,0,0,0,-1,1609,1828,0,0
392,-804,0,0,0,0,0,0,0,0,0,-1,1616,1828,0,0
399,-804,0,0,0,0,0,0,0,0,0,-1,1623,1828,0,0
406,-804,0,0,0,0,0,0,0,0,0,-1,1630,1828,0,0
413,-804,0,0,0,0,0,0,0,0,0,-1,1637,1828,0,0
420,-804,0,0,0,0,0,0,0,0,0,-1,1644,1828,0,0
427,-804,0,0,0,0,0,0,0,0,0,-1,1651,1828,0,0
434,-804,0,0,0,0,0,0,0,0,0,-1,1658,1828,0,0
441,-804,0,0,0,0,0,0,0,0,0,-1,1665,1828,0,0
448,-804,0,0,0,0,0,0,0,0,0,-1,1672,1828,0,0
455,-804,0,0,0,0,0,0,0,0,0,-1,1679,1828,0,0
462,-804,0,0,0,0,0,0,0,0,0,-1,1686,1828,0,0
469,-804,0,0,0,0,0,0,0,0,0,-1,1693,1828,0,0
476,-804,0,0,0,0,0,0,0,0,0,-1,1700,1828,0,0
483,-804,0,0,0,0,0,0,0,0,0,-1,1707,1828,0,0
490,-804,0,0,0,0,0,0,0,0,0,-1,1714,1828,0,0
497,-804,0,0,0,0,0,0,0,0,0,-1,1721,1828,0,0
504,-804,0,0,0,0,0,0,0,0,0,-1,1728,1828,0,0
511,-804,0,0,0,0,0,0,0,0,0,-1,1735,1828,0,0
518,-804,0,0,0,0,0,0,0,0,0,-1,1742,1828,0,0
525,-804,0,0,0,0,0,0,0,0,0,-1,1749,1828,0,0
532,-804,0,0,0,0,0,0,0,0,0,-1,1756,1828,0,0
539,-804,0,0,0,0,0,0,0,0,0,-1,1763,1828,0,0
546,-804,0,0,0,0,0,0,0,0,0,-1,1770,1828,0,0
553,-804,0,0,0,0,0,0,0,0,0,-1,1777,1828,0,0
560,-804,0,0,0,0,0,0,0,0,0,-1,1784,1828,0,0
567,-804,0,0,0,0,0,0,0,0,0,-1,1791,1828,0,0
574,-804,0,0,0,0,0,0,0,0,0,-1,1798,1828,0,0
581,-804,0,0,0,0,0,0,0,0,0,-1,1805,1828,0,0
588,-804,0,0,0,0,0,0,0,0,0,-1,1812,1828,0,0
595,-804,0,0,0,0,0,0,0,0,0,-1,1819,1828,0,0
602,-804,0,0,0,0,0,0,0,0,0,-1,1826,1828,0,0
609,-804,0,0,0,0,0,0,0,0,0,-1,1833,1828,0,0
616,-804,0,0,0,0,0,0,0,0,0,-1,1840,1828,0,0
623,-804,0,0,0,0,0,0,0,0,0,-1,1847,1828,0,0
630,-804,0,0,0,0,0,0,0,0,0,-1,1854,1828,0,0
637,-804,0,0,0,0,0,0,0,0,0,-1,1861,1828,0,0
644,-804,0,0,0,0,0,0,0,0,0,-1,1868,1828,0,0
651,-804,0,0,0,0,0,0,0,0,0,-1,1875,1828,0,0
658,-804,0,0,0,0,0,0,0,0,0,-1,1882,1828,0,0
665,-804,0,0,0,0,0,0,0,0,0,-1,1889,1828,0,0
672,-804,0,0,0,0,0,0,0,0,0,-1,1896,1828,0,0
679,-804,0,0,0,0,0,0,0,0,0,-1,1903,1828,0,0
686,-804,0,0,0,0,0,0,0,0,0,-1,1910,1828,0,0
693,-804,0,0,0,0,0,0,0,0,0,-1,1917,1828,0,0
700,-804,0,0,0,0,0,0,0,0,0,-1,1924,1828,0,0
707,-804,0,0,0,0,0,0,0,0,0,-1,1931,1828,0,0
714,-804,0,0,0,0,0,0,0,0,0,-1,1938,1828,0,0
721,-804,0,0,0,0,0,0,0,0,0,-1,1945,1828,0,0
728,-804,0,0,0,0,0,0,0,0,0,-1,1952,1828,0,0
735,-804,0,0,0,0,0,0,0,0,0,-1,1959,1828,0,0
742,-804,0,0,0,0,0,0,0,0,0,-1,1966,1828,0,0
749,-804,0,0,0,0,0,0,0,0,0,-1,1973,1828,0,0
756,-804,0,0,0,0,0,0,0,0,0,-1,1980,1828,0,0
763,-804,0,0,0,0,0,0,0,0,0,-1,1987,1828,0,0
770,-804,0,0,0,0,0,0,0,0,0,-1,1994,1828,0,0
777,-804,0,0,0,0,0,0,0,0,0,-1,2001,1828,0,0
784,-804,0,0,0,0,0,0,0,0,0,-1,2008,1828,0,0
791,-804,0,0,0,0,0,0,0,0,0,-1,2015,1828,0,0
798,-804,0,0,0,0,0,0,0,0,0,-1,2022,1828,0,0
805,-804,0,0,0,0,0,0,0,0,0,-1,2029,1828,0,0
812,-804,0,0,0,0,0,0,0,0,0,-1,2036,1828,0,0

