 "x_c",  "y_c",  "u_c",  "v_c",  "exx",  "eyy",  "exy",  "e1",  "e2",  "gamma",  "e_vonmises",  "sigma",  "x",  "y",  "u",  "v"
-700,715,0,0,0,0,0,0,0,0,0,-1,524,309,0,0
-693,715,0,0,0,0,0,0,0,0,0,-1,531,309,0,0
-686,715,0,0,0,0,0,0,0,0,0,-1,538,309,0,0
-679,715,0,0,0,0,0,0,0,0,0,-1,545,309,0,0
-672,715,0,0,0,0,0,0,0,0,0,-1,552,309,0,0
-665,715,0,0,0,0,0,0,0,0,0,-1,559,309,0,0
-658,715,0,0,0,0,0,0,0,0,0,-1,566,309,0,0
-651,715,0,0,0,0,0,0,0,0,0,-1,573,309,0,0
-644,715,0,0,0,0,0,0,0,0,0,-1,580,309,0,0
-637,715,0,0,0,0,0,0,0,0,0,-1,587,309,0,0
-630,715,0,0,0,0,0,0,0,0,0,-1,594,309,0,0
-623,715,0,0,0,0,0,0,0,0,0,-1,601,309,0,0
-616,715,0,0,0,0,0,0,0,0,0,-1,608,309,0,0
-609,715,0,0,0,0,0,0,0,0,0,-1,615,309,0,0
-602,715,0,0,0,0,0,0,0,0,0,-1,622,309,0,0
-595,715,0,0,0,0,0,0,0,0,0,-1,629,309,0,0
-588,715,0,0,0,0,0,0,0,0,0,-1,636,309,0,0
-581,715,0,0,0,0,0,0,0,0,0,-1,643,309,0,0
-574,715,0,0,0,0,0,0,0,0,0,-1,650,309,0,0
-567,715,0,0,0,0,0,0,0,0,0,-1,657,309,0,0
-560,715,0,0,0,0,0,0,0,0,0,-1,664,309,0,0
-553,715,0,0,0,0,0,0,0,0,0,-1,671,309,0,0
-546,715,0,0,0,0,0,0,0,0,0,-1,678,309,0,0
-539,715,0,0,0,0,0,0,0,0,0,-1,685,309,0,0
-532,715,0,0,0,0,0,0,0,0,0,-1,692,309,0,0
-525,715,0,0,0,0,0,0,0,0,0,-1,699,309,0,0
-518,715,0,0,0,0,0,0,0,0,0,-1,706,309,0,0
-511,715,0,0,0,0,0,0,0,0,0,-1,713,309,0,0
-504,715,0,0,0,0,0,0,0,0,0,-1,720,309,0,0
-497,715,0,0,0,0,0,0,0,0,0,-1,727,309,0,0
-490,715,0,0,0,0,0,0,0,0,0,-1,734,309,0,0
-483,715,0,0,0,0,0,0,0,0,0,-1,741,309,0,0
-476,715,0,0,0,0,0,0,0,0,0,-1,748,309,0,0
-469,715,0,0,0,0,0,0,0,0,0,-1,755,309,0,0
-462,715,0,0,0,0,0,0,0,0,0,-1,762,309,0,0
-455,715,0,0,0,0,0,0,0,0,0,-1,769,309,0,0
-448,715,0,0,0,0,0,0,0,0,0,-1,776,309,0,0
-441,715,0,0,0,0,0,0,0,0,0,-1,783,309,0,0
-434,715,0,0,0,0,0,0,0,0,0,-1,790,309,0,0
-427,715,0,0,0,0,0,0,0,0,0,-1,797,309,0,0
-420,715,0,0,0,0,0,0,0,0,0,-1,804,309,0,0
-413,715,0,0,0,0,0,0,0,0,0,-1,811,309,0,0
-406,715,0,0,0,0,0,0,0,0,0,-1,818,309,0,0
-399,715,0,0,0,0,0,0,0,0,0,-1,825,309,0,0
-392,715,0,0,0,0,0,0,0,0,0,-1,832,309,0,0
-385,715,0,0,0,0,0,0,0,0,0,-1,839,309,0,0
-378,715,0,0,0,0,0,0,0,0,0,-1,846,309,0,0
-371,715,0,0,0,0,0,0,0,0,0,-1,853,309,0,0
-364,715,0,0,0,0,0,0,0,0,0,-1,860,309,0,0
-357,715,0,0,0,0,0,0,0,0,0,-1,867,309,0,0
-350,715,0,0,0,0,0,0,0,0,0,-1,874,309,0,0
-343,715,0,0,0,0,0,0,0,0,0,-1,881,309,0,0
-336,715,0,0,0,0,0,0,0,0,0,-1,888,309,0,0
-329,715,0,0,0,0,0,0,0,0,0,-1,895,309,0,0
-322,715,0,0,0,0,0,0,0,0,0,-1,902,309,0,0
-315,715,0,0,0,0,0,0,0,0,0,-1,909,309,0,0
-308,715,0,0,0,0,0,0,0,0,0,-1,916,309,0,0
-301,715,0,0,0,0,0,0,0,0,0,-1,923,309,0,0
-294,715,0,0,0,0,0,0,0,0,0,-1,930,309,0,0
-287,715,0,0,0,0,0,0,0,0,0,-1,937,309,0,0
-280,715,0,0,0,0,0,0,0,0,0,-1,944,309,0,0
-273,715,0,0,0,0,0,0,0,0,0,-1,951,309,0,0
-266,715,0,0,0,0,0,0,0,0,0,-1,958,309,0,0
-259,715,0,0,0,0,0,0,0,0,0,-1,965,309,0,0
-252,715,0,0,0,0,0,0,0,0,0,-1,972,309,0,0
-245,715,0,0,0,0,0,0,0,0,0,-1,979,309,0,0
-238,715,0,0,0,0,0,0,0,0,0,-1,986,309,0,0
-231,715,0,0,0,0,0,0,0,0,0,-1,993,309,0,0
-224,715,0,0,0,0,0,0,0,0,0,-1,1000,309,0,0
-217,715,0,0,0,0,0,0,0,0,0,-1,1007,309,0,0
-210,715,0,0,0,0,0,0,0,0,0,-1,1014,309,0,0
-203,715,0,0,0,0,0,0,0,0,0,-1,1021,309,0,0
-196,715,0,0,0,0,0,0,0,0,0,-1,1028,309,0,0
-189,715,0,0,0,0,0,0,0,0,0,-1,1035,309,0,0
-182,715,0,0,0,0,0,0,0,0,0,-1,1042,309,0,0
-175,715,0,0,0,0,0,0,0,0,0,-1,1049,309,0,0
-168,715,0,0,0,0,0,0,0,0,0,-1,1056,309,0,0
-161,715,0,0,0,0,0,0,0,0,0,-1,1063,309,0,0
-154,715,0,0,0,0,0,0,0,0,0,-1,1070,309,0,0
-147,715,0,0,0,0,0,0,0,0,0,-1,1077,309,0,0
-140,715,0,0,0,0,0,0,0,0,0,-1,1084,309,0,0
-133,715,0,0,0,0,0,0,0,0,0,-1,1091,309,0,0
-126,715,0,0,0,0,0,0,0,0,0,-1,1098,309,0,0
-119,715,0,0,0,0,0,0,0,0,0,-1,1105,309,0,0
-112,715,0,0,0,0,0,0,0,0,0,-1,1112,309,0,0
-105,715,0,0,0,0,0,0,0,0,0,-1,1119,309,0,0
-98,715,0,0,0,0,0,0,0,0,0,-1,1126,309,0,0
-91,715,0,0,0,0,0,0,0,0,0,-1,1133,309,0,0
-84,715,0,0,0,0,0,0,0,0,0,-1,1140,309,0,0
-77,715,0,0,0,0,0,0,0,0,0,-1,1147,309,0,0
-70,715,0,0,0,0,0,0,0,0,0,-1,1154,309,0,0
-63,715,0,0,0,0,0,0,0,0,0,-1,1161,309,0,0
-56,715,0,0,0,0,0,0,0,0,0,-1,1168,309,0,0
-49,715,0,0,0,0,0,0,0,0,0,-1,1175,309,0,0
-42,715,0,0,0,0,0,0,0,0,0,-1,1182,309,0,0
-35,715,0,0,0,0,0,0,0,0,0,-1,1189,309,0,0
-28,715,0,0,0,0,0,0,0,0,0,-1,1196,309,0,0
-21,715,0,0,0,0,0,0,0,0,0,-1,1203,309,0,0
-14,715,0,0,0,0,0,0,0,0,0,-1,1210,309,0,0
-7,715,0,0,0,0,0,0,0,0,0,-1,1217,309,0,0
0,715,0,0,0,0,0,0,0,0,0,-1,1224,309,0,0
7,715,0,0,0,0,0,0,0,0,0,-1,1231,309,0,0
14,715,0,0,0,0,0,0,0,0,0,-1,1238,309,0,0
21,715,0,0,0,0,0,0,0,0,0,-1,1245,309,0,0
28,715,0,0,0,0,0,0,0,0,0,-1,1252,309,0,0
35,715,0,0,0,0,0,0,0,0,0,-1,1259,309,0,0
42,715,0,0,0,0,0,0,0,0,0,-1,1266,309,0,0
49,715,0,0,0,0,0,0,0,0,0,-1,1273,309,0,0
56,715,0,0,0,0,0,0,0,0,0,-1,1280,309,0,0
63,715,1.21265,-4.90988,0.143812,-0.0486251,-0.0958858,0.183432,-0.088245,-0.391833,0.16003,0.0453374,1287,309,1.21263,4.90988
70,715,1.90247,-5.49774,0.142044,-0.0434654,-0.0993787,0.185229,-0.0866502,-0.40993,0.160372,0.0429547,1294,309,1.90251,5.49773
77,715,0,0,0,0,0,0,0,0,0,-1,1301,309,0,0
84,715,0,0,0,0,0,0,0,0,0,-1,1308,309,0,0
91,715,0,0,0,0,0,0,0,0,0,-1,1315,309,0,0
98,715,0,0,0,0,0,0,0,0,0,-1,1322,309,0,0
105,715,0,0,0,0,0,0,0,0,0,-1,1329,309,0,0
112,715,0,0,0,0,0,0,0,0,0,-1,1336,309,0,0
119,715,0,0,0,0,0,0,0,0,0,-1,1343,309,0,0
126,715,0,0,0,0,0,0,0,0,0,-1,1350,309,0,0
133,715,0,0,0,0,0,0,0,0,0,-1,1357,309,0,0
140,715,0,0,0,0,0,0,0,0,0,-1,1364,309,0,0
147,715,0,0,0,0,0,0,0,0,0,-1,1371,309,0,0
154,715,0,0,0,0,0,0,0,0,0,-1,1378,309,0,0
161,715,0,0,0,0,0,0,0,0,0,-1,1385,309,0,0
168,715,0,0,0,0,0,0,0,0,0,-1,1392,309,0,0
175,715,0,0,0,0,0,0,0,0,0,-1,1399,309,0,0
182,715,0,0,0,0,0,0,0,0,0,-1,1406,309,0,0
189,715,0,0,0,0,0,0,0,0,0,-1,1413,309,0,0
196,715,0,0,0,0,0,0,0,0,0,-1,1420,309,0,0
203,715,0,0,0,0,0,0,0,0,0,-1,1427,309,0,0
210,715,0,0,0,0,0,0,0,0,0,-1,1434,309,0,0
217,715,0,0,0,0,0,0,0,0,0,-1,1441,309,0,0
224,715,0,0,0,0,0,0,0,0,0,-1,1448,309,0,0
231,715,0,0,0,0,0,0,0,0,0,-1,1455,309,0,0
238,715,0,0,0,0,0,0,0,0,0,-1,1462,309,0,0
245,715,0,0,0,0,0,0,0,0,0,-1,1469,309,0,0
252,715,0,0,0,0,0,0,0,0,0,-1,1476,309,0,0
259,715,0,0,0,0,0,0,0,0,0,-1,1483,309,0,0
266,715,0,0,0,0,0,0,0,0,0,-1,1490,309,0,0
273,715,0,0,0,0,0,0,0,0,0,-1,1497,309,0,0
280,715,0,0,0,0,0,0,0,0,0,-1,1504,309,0,0
287,715,0,0,0,0,0,0,0,0,0,-1,1511,309,0,0
294,715,0,0,0,0,0,0,0,0,0,-1,1518,309,0,0
301,715,0,0,0,0,0,0,0,0,0,-1,1525,309,0,0
308,715,0,0,0,0,0,0,0,0,0,-1,1532,309,0,0
315,715,0,0,0,0,0,0,0,0,0,-1,1539,309,0,0
322,715,0,0,0,0,0,0,0,0,0,-1,1546,309,0,0
329,715,0,0,0,0,0,0,0,0,0,-1,1553,309,0,0
336,715,0,0,0,0,0,0,0,0,0,-1,1560,309,0,0
343,715,0,0,0,0,0,0,0,0,0,-1,1567,309,0,0
350,715,0,0,0,0,0,0,0,0,0,-1,1574,309,0,0
357,715,0,0,0,0,0,0,0,0,0,-1,1581,309,0,0
364,715,0,0,0,0,0,0,0,0,0,-1,1588,309,0,0
371,715,0,0,0,0,0,0,0,0,0,-1,1595,309,0,0
378,715,0,0,0,0,0,0,0,0,0,-1,1602,309,0,0
385,715,0,0,0,0,0,0,0,0,0,-1,1609,309,0,0
392,715,0,0,0,0,0,0,0,0,0,-1,1616,309,0,0
399,715,0,0,0,0,0,0,0,0,0,-1,1623,309,0,0
406,715,0,0,0,0,0,0,0,0,0,-1,1630,309,0,0
413,715,0,0,0,0,0,0,0,0,0,-1,1637,309,0,0
420,715,0,0,0,0,0,0,0,0,0,-1,1644,309,0,0
427,715,0,0,0,0,0,0,0,0,0,-1,1651,309,0,0
434,715,0,0,0,0,0,0,0,0,0,-1,1658,309,0,0
441,715,0,0,0,0,0,0,0,0,0,-1,1665,309,0,0
448,715,0,0,0,0,0,0,0,0,0,-1,1672,309,0,0
455,715,0,0,0,0,0,0,0,0,0,-1,1679,309,0,0
462,715,0,0,0,0,0,0,0,0,0,-1,1686,309,0,0
469,715,0,0,0,0,0,0,0,0,0,-1,1693,309,0,0
476,715,0,0,0,0,0,0,0,0,0,-1,1700,309,0,0
483,715,0,0,0,0,0,0,0,0,0,-1,1707,309,0,0
490,715,0,0,0,0,0,0,0,0,0,-1,1714,309,0,0
497,715,0,0,0,0,0,0,0,0,0,-1,1721,309,0,0
504,715,0,0,0,0,0,0,0,0,0,-1,1728,309,0,0
511,715,0,0,0,0,0,0,0,0,0,-1,1735,309,0,0
518,715,0,0,0,0,0,0,0,0,0,-1,1742,309,0,0
525,715,0,0,0,0,0,0,0,0,0,-1,1749,309,0,0
532,715,0,0,0,0,0,0,0,0,0,-1,1756,309,0,0
539,715,0,0,0,0,0,0,0,0,0,-1,1763,309,0,0
546,715,0,0,0,0,0,0,0,0,0,-1,1770,309,0,0
553,715,0,0,0,0,0,0,0,0,0,-1,1777,309,0,0
560,715,0,0,0,0,0,0,0,0,0,-1,1784,309,0,0
567,715,0,0,0,0,0,0,0,0,0,-1,1791,309,0,0
574,715,0,0,0,0,0,0,0,0,0,-1,1798,309,0,0
581,715,0,0,0,0,0,0,0,0,0,-1,1805,309,0,0
588,715,0,0,0,0,0,0,0,0,0,-1,1812,309,0,0
595,715,0,0,0,0,0,0,0,0,0,-1,1819,309,0,0
602,715,0,0,0,0,0,0,0,0,0,-1,1826,309,0,0
609,715,0,0,0,0,0,0,0,0,0,-1,1833,309,0,0
616,715,0,0,0,0,0,0,0,0,0,-1,1840,309,0,0
623,715,0,0,0,0,0,0,0,0,0,-1,1847,309,0,0
630,715,0,0,0,0,0,0,0,0,0,-1,1854,309,0,0
637,715,0,0,0,0,0,0,0,0,0,-1,1861,309,0,0
644,715,0,0,0,0,0,0,0,0,0,-1,1868,309,0,0
651,715,0,0,0,0,0,0,0,0,0,-1,1875,309,0,0
658,715,0,0,0,0,0,0,0,0,0,-1,1882,309,0,0
665,715,0,0,0,0,0,0,0,0,0,-1,1889,309,0,0
672,715,0,0,0,0,0,0,0,0,0,-1,1896,309,0,0
679,715,0,0,0,0,0,0,0,0,0,-1,1903,309,0,0
686,715,0,0,0,0,0,0,0,0,0,-1,1910,309,0,0
693,715,0,0,0,0,0,0,0,0,0,-1,1917,309,0,0
700,715,0,0,0,0,0,0,0,0,0,-1,1924,309,0,0
707,715,0,0,0,0,0,0,0,0,0,-1,1931,309,0,0
714,715,0,0,0,0,0,0,0,0,0,-1,1938,309,0,0
721,715,0,0,0,0,0,0,0,0,0,-1,1945,309,0,0
728,715,0,0,0,0,0,0,0,0,0,-1,1952,309,0,0
735,715,0,0,0,0,0,0,0,0,0,-1,1959,309,0,0
742,715,0,0,0,0,0,0,0,0,0,-1,1966,309,0,0
749,715,0,0,0,0,0,0,0,0,0,-1,1973,309,0,0
756,715,0,0,0,0,0,0,0,0,0,-1,1980,309,0,0
763,715,0,0,0,0,0,0,0,0,0,-1,1987,309,0,0
770,715,0,0,0,0,0,0,0,0,0,-1,1994,309,0,0
777,715,0,0,0,0,0,0,0,0,0,-1,2001,309,0,0
784,715,0,0,0,0,0,0,0,0,0,-1,2008,309,0,0
791,715,0,0,0,0,0,0,0,0,0,-1,2015,309,0,0
798,715,0,0,0,0,0,0,0,0,0,-1,2022,309,0,0
805,715,0,0,0,0,0,0,0,0,0,-1,2029,309,0,0
812,715,0,0,0,0,0,0,0,0,0,-1,2036,309,0,0
-700,708,0,0,0,0,0,0,0,0,0,-1,524,316,0,0
-693,708,0,0,0,0,0,0,0,0,0,-1,531,316,0,0
-686,708,0,0,0,0,0,0,0,0,0,-1,538,316,0,0
-679,708,0,0,0,0,0,0,0,0,0,-1,545,316,0,0
-672,708,0,0,0,0,0,0,0,0,0,-1,552,316,0,0
-665,708,0,0,0,0,0,0,0,0,0,-1,559,316,0,0
-658,708,0,0,0,0,0,0,0,0,0,-1,566,316,0,0
-651,708,0,0,0,0,0,0,0,0,0,-1,573,316,0,0
-644,708,0,0,0,0,0,0,0,0,0,-1,580,316,0,0
-637,708,0,0,0,0,0,0,0,0,0,-1,587,316,0,0
-630,708,0,0,0,0,0,0,0,0,0,-1,594,316,0,0
-623,708,0,0,0,0,0,0,0,0,0,-1,601,316,0,0
-616,708,0,0,0,0,0,0,0,0,0,-1,608,316,0,0
-609,708,0,0,0,0,0,0,0,0,0,-1,615,316,0,0
-602,708,0,0,0,0,0,0,0,0,0,-1,622,316,0,0
-595,708,0,0,0,0,0,0,0,0,0,-1,629,316,0,0
-588,708,0,0,0,0,0,0,0,0,0,-1,636,316,0,0
-581,708,0,0,0,0,0,0,0,0,0,-1,643,316,0,0
-574,708,0,0,0,0,0,0,0,0,0,-1,650,316,0,0
-567,708,0,0,0,0,0,0,0,0,0,-1,657,316,0,0
-560,708,0,0,0,0,0,0,0,0,0,-1,664,316,0,0
-553,708,0,0,0,0,0,0,0,0,0,-1,671,316,0,0
-546,708,0,0,0,0,0,0,0,0,0,-1,678,316,0,0
-539,708,0,0,0,0,0,0,0,0,0,-1,685,316,0,0
-532,708,0,0,0,0,0,0,0,0,0,-1,692,316,0,0
-525,708,0,0,0,0,0,0,0,0,0,-1,699,316,0,0
-518,708,0,0,0,0,0,0,0,0,0,-1,706,316,0,0
-511,708,0,0,0,0,0,0,0,0,0,-1,713,316,0,0
-504,708,0,0,0,0,0,0,0,0,0,-1,720,316,0,0
-497,708,0,0,0,0,0,0,0,0,0,-1,727,316,0,0
-490,708,0,0,0,0,0,0,0,0,0,-1,734,316,0,0
-483,708,0,0,0,0,0,0,0,0,0,-1,741,316,0,0
-476,708,0,0,0,0,0,0,0,0,0,-1,748,316,0,0
-469,708,0,0,0,0,0,0,0,0,0,-1,755,316,0,0
-462,708,0,0,0,0,0,0,0,0,0,-1,762,316,0,0
-455,708,0,0,0,0,0,0,0,0,0,-1,769,316,0,0
-448,708,0,0,0,0,0,0,0,0,0,-1,776,316,0,0
-441,708,0,0,0,0,0,0,0,0,0,-1,783,316,0,0
-434,708,0,0,0,0,0,0,0,0,0,-1,790,316,0,0
-427,708,0,0,0,0,0,0,0,0,0,-1,797,316,0,0
-420,708,0,0,0,0,0,0,0,0,0,-1,804,316,0,0
-413,708,0,0,0,0,0,0,0,0,0,-1,811,316,0,0
-406,708,0,0,0,0,0,0,0,0,0,-1,818,316,0,0
-399,708,0,0,0,0,0,0,0,0,0,-1,825,316,0,0
-392,708,0,0,0,0,0,0,0,0,0,-1,832,316,0,0
-385,708,0,0,0,0,0,0,0,0,0,-1,839,316,0,0
-378,708,0,0,0,0,0,0,0,0,0,-1,846,316,0,0
-371,708,0,0,0,0,0,0,0,0,0,-1,853,316,0,0
-364,708,0,0,0,0,0,0,0,0,0,-1,860,316,0,0
-357,708,0,0,0,0,0,0,0,0,0,-1,867,316,0,0
-350,708,0,0,0,0,0,0,0,0,0,-1,874,316,0,0
-343,708,0,0,0,0,0,0,0,0,0,-1,881,316,0,0
-336,708,0,0,0,0,0,0,0,0,0,-1,888,316,0,0
-329,708,0,0,0,0,0,0,0,0,0,-1,895,316,0,0
-322,708,0,0,0,0,0,0,0,0,0,-1,902,316,0,0
-315,708,0,0,0,0,0,0,0,0,0,-1,909,316,0,0
-308,708,0,0,0,0,0,0,0,0,0,-1,916,316,0,0
-301,708,0,0,0,0,0,0,0,0,0,-1,923,316,0,0
-294,708,0,0,0,0,0,0,0,0,0,-1,930,316,0,0
-287,708,0,0,0,0,0,0,0,0,0,-1,937,316,0,0
-280,708,0,0,0,0,0,0,0,0,0,-1,944,316,0,0
-273,708,0,0,0,0,0,0,0,0,0,-1,951,316,0,0
-266,708,0,0,0,0,0,0,0,0,0,-1,958,316,0,0
-259,708,0,0,0,0,0,0,0,0,0,-1,965,316,0,0
-252,708,0,0,0,0,0,0,0,0,0,-1,972,316,0,0
-245,708,0,0,0,0,0,0,0,0,0,-1,979,316,0,0
-238,708,0,0,0,0,0,0,0,0,0,-1,986,316,0,0
-231,708,0,0,0,0,0,0,0,0,0,-1,993,316,0,0
-224,708,0,0,0,0,0,0,0,0,0,-1,1000,316,0,0
-217,708,0,0,0,0,0,0,0,0,0,-1,1007,316,0,0
-210,708,0,0,0,0,0,0,0,0,0,-1,1014,316,0,0
-203,708,0,0,0,0,0,0,0,0,0,-1,1021,316,0,0
-196,708,0,0,0,0,0,0,0,0,0,-1,1028,316,0,0
-189,708,0,0,0,0,0,0,0,0,0,-1,1035,316,0,0
-182,708,0,0,0,0,0,0,0,0,0,-1,1042,316,0,0
-175,708,0,0,0,0,0,0,0,0,0,-1,1049,316,0,0
-168,708,0,0,0,0,0,0,0,0,0,-1,1056,316,0,0
-161,708,0,0,0,0,0,0,0,0,0,-1,1063,316,0,0
-154,708,0,0,0,0,0,0,0,0,0,-1,1070,316,0,0
-147,708,0,0,0,0,0,0,0,0,0,-1,1077,316,0,0
-140,708,0,0,0,0,0,0,0,0,0,-1,1084,316,0,0
-133,708,0,0,0,0,0,0,0,0,0,-1,1091,316,0,0
-126,708,0,0,0,0,0,0,0,0,0,-1,1098,316,0,0
-119,708,0,0,0,0,0,0,0,0,0,-1,1105,316,0,0
-112,708,0,0,0,0,0,0,0,0,0,-1,1112,316,0,0
-105,708,0,0,0,0,0,0,0,0,0,-1,1119,316,0,0
-98,708,0,0,0,0,0,0,0,0,0,-1,1126,316,0,0
-91,708,0,0,0,0,0,0,0,0,0,-1,1133,316,0,0
-84,708,0,0,0,0,0,0,0,0,0,-1,1140,316,0,0
-77,708,0,0,0,0,0,0,0,0,0,-1,1147,316,0,0
-70,708,0,0,0,0,0,0,0,0,0,-1,1154,316,0,0
-63,708,0,0,0,0,0,0,0,0,0,-1,1161,316,0,0
-56,708,0,0,0,0,0,0,0,0,0,-1,1168,316,0,0
-49,708,0,0,0,0,0,0,0,0,0,-1,1175,316,0,0
-42,708,0,0,0,0,0,0,0,0,0,-1,1182,316,0,0
-35,708,-2.71204,-6.31558,0,0,0,0,0,0,0,-1,1189,316,-2.712,6.3156
-28,708,-2.92371,-5.53253,0,0,0,0,0,0,0,-1,1196,316,-2.92375,5.53254
-21,708,-0.64563,-2.92654,0,0,0,0,0,0,0,-1,1203,316,-0.645672,2.92656
-14,708,1.13635,-4.39722,0,0,0,0,0,0,0,-1,1210,316,1.13629,4.39721
-7,708,1.56665,-3.85022,0,0,0,0,0,0,0,-1,1217,316,1.56666,3.85023
0,708,2.23938,-3.59674,0,0,0,0,0,0,0,-1,1224,316,2.23932,3.59675
7,708,3.82605,-1.8353,0,0,0,0,0,0,0,-1,1231,316,3.82605,1.83531
14,708,3.703,-1.89645,0,0,0,0,0,0,0,-1,1238,316,3.70297,1.89645
21,708,3.48303,-1.74792,0,0,0,0,0,0,0,-1,1245,316,3.48307,1.74794
28,708,0.204346,-2.56302,0,0,0,0,0,0,0,-1,1252,316,0.204364,2.56301
35,708,0.144531,-3.01242,0,0,0,0,0,0,0,-1,1259,316,0.144508,3.01243
42,708,0.414063,-2.98981,0,0,0,0,0,0,0,-1,1266,316,0.414049,2.98982
49,708,0.910889,-3.56113,0,0,0,0,0,0,0,-1,1273,316,0.910905,3.56114
56,708,1.44006,-4.09631,0.111283,-0.0316428,-0.0638501,0.135652,-0.0560119,-0.364598,0.113797,0.0438621,1280,316,1.44003,4.09632
63,708,2.0531,-4.63525,0.120614,-0.0352334,-0.0734472,0.149773,-0.0643919,-0.377917,0.126881,0.0419503,1287,316,2.05304,4.63526
70,708,2.76294,-5.22128,0.119273,-0.031055,-0.076764,0.151544,-0.0633263,-0.397965,0.127493,0.0406254,1294,316,2.76297,5.22127
77,708,3.32971,-5.90665,0.112134,-0.0251125,-0.0778666,0.1473,-0.0602793,-0.424207,0.123307,0.0425023,1301,316,3.32971,5.90666
84,708,3.84387,-6.5752,0,0,0,0,0,0,0,-1,1308,316,3.84383,6.57521
91,708,5.45544,-8.18591,0,0,0,0,0,0,0,-1,1315,316,5.45538,8.18592
98,708,6.38782,-9.32394,0,0,0,0,0,0,0,-1,1322,316,6.38787,9.32393
105,708,1.09827,-3.07806,0,0,0,0,0,0,0,-1,1329,316,1.09824,3.07807
112,708,1.65002,-2.3736,0,0,0,0,0,0,0,-1,1336,316,1.65001,2.37361
119,708,1.07886,-2.53714,0.0200302,0.022626,-0.0410943,0.0624429,-0.0197867,-0.801185,0.0495588,0.0425477,1343,316,1.07882,2.53714
126,708,0.630737,-2.8436,0.00198473,0.0285779,-0.0330042,0.0508632,-0.0203007,-0.976889,0.0423307,0.0456496,1350,316,0.630726,2.8436
133,708,1.48865,-3.52576,0,0,0,0,0,0,0,-1,1357,316,1.48869,3.52577
140,708,1.68005,-3.56256,0,0,0,0,0,0,0,-1,1364,316,1.68011,3.56255
147,708,1.79749,-3.54187,0,0,0,0,0,0,0,-1,1371,316,1.79752,3.54188
154,708,0,0,0,0,0,0,0,0,0,-1,1378,316,0,0
161,708,0,0,0,0,0,0,0,0,0,-1,1385,316,0,0
168,708,0,0,0,0,0,0,0,0,0,-1,1392,316,0,0
175,708,0,0,0,0,0,0,0,0,0,-1,1399,316,0,0
182,708,0,0,0,0,0,0,0,0,0,-1,1406,316,0,0
189,708,0,0,0,0,0,0,0,0,0,-1,1413,316,0,0
196,708,0,0,0,0,0,0,0,0,0,-1,1420,316,0,0
203,708,0,0,0,0,0,0,0,0,0,-1,1427,316,0,0
210,708,0,0,0,0,0,0,0,0,0,-1,1434,316,0,0
217,708,0,0,0,0,0,0,0,0,0,-1,1441,316,0,0
224,708,0,0,0,0,0,0,0,0,0,-1,1448,316,0,0
231,708,0,0,0,0,0,0,0,0,0,-1,1455,316,0,0
238,708,0,0,0,0,0,0,0,0,0,-1,1462,316,0,0
245,708,0,0,0,0,0,0,0,0,0,-1,1469,316,0,0
252,708,0,0,0,0,0,0,0,0,0,-1,1476,316,0,0
259,708,0,0,0,0,0,0,0,0,0,-1,1483,316,0,0
266,708,0,0,0,0,0,0,0,0,0,-1,1490,316,0,0
273,708,0,0,0,0,0,0,0,0,0,-1,1497,316,0,0
280,708,0,0,0,0,0,0,0,0,0,-1,1504,316,0,0
287,708,0,0,0,0,0,0,0,0,0,-1,1511,316,0,0
294,708,0,0,0,0,0,0,0,0,0,-1,1518,316,0,0
301,708,0,0,0,0,0,0,0,0,0,-1,1525,316,0,0
308,708,0,0,0,0,0,0,0,0,0,-1,1532,316,0,0
315,708,0,0,0,0,0,0,0,0,0,-1,1539,316,0,0
322,708,0,0,0,0,0,0,0,0,0,-1,1546,316,0,0
329,708,0,0,0,0,0,0,0,0,0,-1,1553,316,0,0
336,708,0,0,0,0,0,0,0,0,0,-1,1560,316,0,0
343,708,0,0,0,0,0,0,0,0,0,-1,1567,316,0,0
350,708,0,0,0,0,0,0,0,0,0,-1,1574,316,0,0
357,708,0,0,0,0,0,0,0,0,0,-1,1581,316,0,0
364,708,0,0,0,0,0,0,0,0,0,-1,1588,316,0,0
371,708,0,0,0,0,0,0,0,0,0,-1,1595,316,0,0
378,708,0,0,0,0,0,0,0,0,0,-1,1602,316,0,0
385,708,0,0,0,0,0,0,0,0,0,-1,1609,316,0,0
392,708,0,0,0,0,0,0,0,0,0,-1,1616,316,0,0
399,708,0,0,0,0,0,0,0,0,0,-1,1623,316,0,0
406,708,0,0,0,0,0,0,0,0,0,-1,1630,316,0,0
413,708,0,0,0,0,0,0,0,0,0,-1,1637,316,0,0
420,708,0,0,0,0,0,0,0,0,0,-1,1644,316,0,0
427,708,0,0,0,0,0,0,0,0,0,-1,1651,316,0,0
434,708,0,0,0,0,0,0,0,0,0,-1,1658,316,0,0
441,708,0,0,0,0,0,0,0,0,0,-1,1665,316,0,0
448,708,0,0,0,0,0,0,0,0,0,-1,1672,316,0,0
455,708,0,0,0,0,0,0,0,0,0,-1,1679,316,0,0
462,708,0,0,0,0,0,0,0,0,0,-1,1686,316,0,0
469,708,0,0,0,0,0,0,0,0,0,-1,1693,316,0,0
476,708,0,0,0,0,0,0,0,0,0,-1,1700,316,0,0
483,708,0,0,0,0,0,0,0,0,0,-1,1707,316,0,0
490,708,0,0,0,0,0,0,0,0,0,-1,1714,316,0,0
497,708,0,0,0,0,0,0,0,0,0,-1,1721,316,0,0
504,708,0,0,0,0,0,0,0,0,0,-1,1728,316,0,0
511,708,0,0,0,0,0,0,0,0,0,-1,1735,316,0,0
518,708,0,0,0,0,0,0,0,0,0,-1,1742,316,0,0
525,708,0,0,0,0,0,0,0,0,0,-1,1749,316,0,0
532,708,0,0,0,0,0,0,0,0,0,-1,1756,316,0,0
539,708,0,0,0,0,0,0,0,0,0,-1,1763,316,0,0
546,708,0,0,0,0,0,0,0,0,0,-1,1770,316,0,0
553,708,0,0,0,0,0,0,0,0,0,-1,1777,316,0,0
560,708,0,0,0,0,0,0,0,0,0,-1,1784,316,0,0
567,708,0,0,0,0,0,0,0,0,0,-1,1791,316,0,0
574,708,0,0,0,0,0,0,0,0,0,-1,1798,316,0,0
581,708,0,0,0,0,0,0,0,0,0,-1,1805,316,0,0
588,708,0,0,0,0,0,0,0,0,0,-1,1812,316,0,0
595,708,0,0,0,0,0,0,0,0,0,-1,1819,316,0,0
602,708,0,0,0,0,0,0,0,0,0,-1,1826,316,0,0
609,708,0,0,0,0,0,0,0,0,0,-1,1833,316,0,0
616,708,0,0,0,0,0,0,0,0,0,-1,1840,316,0,0
623,708,0,0,0,0,0,0,0,0,0,-1,1847,316,0,0
630,708,0,0,0,0,0,0,0,0,0,-1,1854,316,0,0
637,708,0,0,0,0,0,0,0,0,0,-1,1861,316,0,0
644,708,0,0,0,0,0,0,0,0,0,-1,1868,316,0,0
651,708,0,0,0,0,0,0,0,0,0,-1,1875,316,0,0
658,708,0,0,0,0,0,0,0,0,0,-1,1882,316,0,0
665,708,0,0,0,0,0,0,0,0,0,-1,1889,316,0,0
672,708,0,0,0,0,0,0,0,0,0,-1,1896,316,0,0
679,708,0,0,0,0,0,0,0,0,0,-1,1903,316,0,0
686,708,0,0,0,0,0,0,0,0,0,-1,1910,316,0,0
693,708,0,0,0,0,0,0,0,0,0,-1,1917,316,0,0
700,708,0,0,0,0,0,0,0,0,0,-1,1924,316,0,0
707,708,0,0,0,0,0,0,0,0,0,-1,1931,316,0,0
714,708,0,0,0,0,0,0,0,0,0,-1,1938,316,0,0
721,708,0,0,0,0,0,0,0,0,0,-1,1945,316,0,0
728,708,0,0,0,0,0,0,0,0,0,-1,1952,316,0,0
735,708,0,0,0,0,0,0,0,0,0,-1,1959,316,0,0
742,708,0,0,0,0,0,0,0,0,0,-1,1966,316,0,0
749,708,0,0,0,0,0,0,0,0,0,-1,1973,316,0,0
756,708,0,0,0,0,0,0,0,0,0,-1,1980,316,0,0
763,708,0,0,0,0,0,0,0,0,0,-1,1987,316,0,0
770,708,0,0,0,0,0,0,0,0,0,-1,1994,316,0,0
777,708,0,0,0,0,0,0,0,0,0,-1,2001,316,0,0
784,708,0,0,0,0,0,0,0,0,0,-1,2008,316,0,0
791,708,0,0,0,0,0,0,0,0,0,-1,2015,316,0,0
798,708,0,0,0,0,0,0,0,0,0,-1,2022,316,0,0
805,708,0,0,0,0,0,0,0,0,0,-1,2029,316,0,0
812,708,0,0,0,0,0,0,0,0,0,-1,2036,316,0,0
-700,701,0,0,0,0,0,0,0,0,0,-1,524,323,0,0
-693,701,0,0,0,0,0,0,0,0,0,-1,531,323,0,0
-686,701,0,0,0,0,0,0,0,0,0,-1,538,323,0,0
-679,701,0,0,0,0,0,0,0,0,0,-1,545,323,0,0
-672,701,0,0,0,0,0,0,0,0,0,-1,552,323,0,0
-665,701,0,0,0,0,0,0,0,0,0,-1,559,323,0,0
-658,701,0,0,0,0,0,0,0,0,0,-1,566,323,0,0
-651,701,0,0,0,0,0,0,0,0,0,-1,573,323,0,0
-644,701,0,0,0,0,0,0,0,0,0,-1,580,323,0,0
-637,701,0,0,0,0,0,0,0,0,0,-1,587,323,0,0
-630,701,0,0,0,0,0,0,0,0,0,-1,594,323,0,0
-623,701,0,0,0,0,0,0,0,0,0,-1,601,323,0,0
-616,701,0,0,0,0,0,0,0,0,0,-1,608,323,0,0
-609,701,0,0,0,0,0,0,0,0,0,-1,615,323,0,0
-602,701,0,0,0,0,0,0,0,0,0,-1,622,323,0,0
-595,701,0,0,0,0,0,0,0,0,0,-1,629,323,0,0
-588,701,0,0,0,0,0,0,0,0,0,-1,636,323,0,0
-581,701,0,0,0,0,0,0,0,0,0,-1,643,323,0,0
-574,701,0,0,0,0,0,0,0,0,0,-1,650,323,0,0
-567,701,0,0,0,0,0,0,0,0,0,-1,657,323,0,0
-560,701,0,0,0,0,0,0,0,0,0,-1,664,323,0,0
-553,701,0,0,0,0,0,0,0,0,0,-1,671,323,0,0
-546,701,0,0,0,0,0,0,0,0,0,-1,678,323,0,0
-539,701,0,0,0,0,0,0,0,0,0,-1,685,323,0,0
-532,701,0,0,0,0,0,0,0,0,0,-1,692,323,0,0
-525,701,0,0,0,0,0,0,0,0,0,-1,699,323,0,0
-518,701,0,0,0,0,0,0,0,0,0,-1,706,323,0,0
-511,701,0,0,0,0,0,0,0,0,0,-1,713,323,0,0
-504,701,0,0,0,0,0,0,0,0,0,-1,720,323,0,0
-497,701,0,0,0,0,0,0,0,0,0,-1,727,323,0,0
-490,701,0,0,0,0,0,0,0,0,0,-1,734,323,0,0
-483,701,0,0,0,0,0,0,0,0,0,-1,741,323,0,0
-476,701,0,0,0,0,0,0,0,0,0,-1,748,323,0,0
-469,701,0,0,0,0,0,0,0,0,0,-1,755,323,0,0
-462,701,0,0,0,0,0,0,0,0,0,-1,762,323,0,0
-455,701,0,0,0,0,0,0,0,0,0,-1,769,323,0,0
-448,701,0,0,0,0,0,0,0,0,0,-1,776,323,0,0
-441,701,0,0,0,0,0,0,0,0,0,-1,783,323,0,0
-434,701,0,0,0,0,0,0,0,0,0,-1,790,323,0,0
-427,701,0,0,0,0,0,0,0,0,0,-1,797,323,0,0
-420,701,0,0,0,0,0,0,0,0,0,-1,804,323,0,0
-413,701,0,0,0,0,0,0,0,0,0,-1,811,323,0,0
-406,701,0,0,0,0,0,0,0,0,0,-1,818,323,0,0
-399,701,0,0,0,0,0,0,0,0,0,-1,825,323,0,0
-392,701,0,0,0,0,0,0,0,0,0,-1,832,323,0,0
-385,701,0,0,0,0,0,0,0,0,0,-1,839,323,0,0
-378,701,0,0,0,0,0,0,0,0,0,-1,846,323,0,0
-371,701,0,0,0,0,0,0,0,0,0,-1,853,323,0,0
-364,701,0,0,0,0,0,0,0,0,0,-1,860,323,0,0
-357,701,0,0,0,0,0,0,0,0,0,-1,867,323,0,0
-350,701,0,0,0,0,0,0,0,0,0,-1,874,323,0,0
-343,701,0,0,0,0,0,0,0,0,0,-1,881,323,0,0
-336,701,0,0,0,0,0,0,0,0,0,-1,888,323,0,0
-329,701,0,0,0,0,0,0,0,0,0,-1,895,323,0,0
-322,701,0,0,0,0,0,0,0,0,0,-1,902,323,0,0
-315,701,0,0,0,0,0,0,0,0,0,-1,909,323,0,0
-308,701,0,0,0,0,0,0,0,0,0,-1,916,323,0,0
-301,701,0,0,0,0,0,0,0,0,0,-1,923,323,0,0
-294,701,0,0,0,0,0,0,0,0,0,-1,930,323,0,0
-287,701,0,0,0,0,0,0,0,0,0,-1,937,323,0,0
-280,701,0,0,0,0,0,0,0,0,0,-1,944,323,0,0
-273,701,0,0,0,0,0,0,0,0,0,-1,951,323,0,0
-266,701,0,0,0,0,0,0,0,0,0,-1,958,323,0,0
-259,701,0,0,0,0,0,0,0,0,0,-1,965,323,0,0
-252,701,0,0,0,0,0,0,0,0,0,-1,972,323,0,0
-245,701,0,0,0,0,0,0,0,0,0,-1,979,323,0,0
-238,701,0,0,0,0,0,0,0,0,0,-1,986,323,0,0
-231,701,0,0,0,0,0,0,0,0,0,-1,993,323,0,0
-224,701,0,0,0,0,0,0,0,0,0,-1,1000,323,0,0
-217,701,0,0,0,0,0,0,0,0,0,-1,1007,323,0,0
-210,701,0,0,0,0,0,0,0,0,0,-1,1014,323,0,0
-203,701,0,0,0,0,0,0,0,0,0,-1,1021,323,0,0
-196,701,0,0,0,0,0,0,0,0,0,-1,1028,323,0,0
-189,701,0,0,0,0,0,0,0,0,0,-1,1035,323,0,0
-182,701,0,0,0,0,0,0,0,0,0,-1,1042,323,0,0
-175,701,0,0,0,0,0,0,0,0,0,-1,1049,323,0,0
-168,701,0,0,0,0,0,0,0,0,0,-1,1056,323,0,0
-161,701,0,0,0,0,0,0,0,0,0,-1,1063,323,0,0
-154,701,0,0,0,0,0,0,0,0,0,-1,1070,323,0,0
-147,701,0,0,0,0,0,0,0,0,0,-1,1077,323,0,0
-140,701,0,0,0,0,0,0,0,0,0,-1,1084,323,0,0
-133,701,0,0,0,0,0,0,0,0,0,-1,1091,323,0,0
-126,701,0,0,0,0,0,0,0,0,0,-1,1098,323,0,0
-119,701,0,0,0,0,0,0,0,0,0,-1,1105,323,0,0
-112,701,0,0,0,0,0,0,0,0,0,-1,1112,323,0,0
-105,701,0,0,0,0,0,0,0,0,0,-1,1119,323,0,0
-98,701,0,0,0,0,0,0,0,0,0,-1,1126,323,0,0
-91,701,0,0,0,0,0,0,0,0,0,-1,1133,323,0,0
-84,701,0,0,0,0,0,0,0,0,0,-1,1140,323,0,0
-77,701,0,0,0,0,0,0,0,0,0,-1,1147,323,0,0
-70,701,1.85474,3.32529,0,0,0,0,0,0,0,-1,1154,323,1.85476,-3.32529
-63,701,0.876099,3.67996,0,0,0,0,0,0,0,-1,1161,323,0.876153,-3.67996
-56,701,-0.420166,-0.101776,0,0,0,0,0,0,0,-1,1168,323,-0.420119,0.101777
-49,701,-1.09021,-0.155762,0,0,0,0,0,0,0,-1,1175,323,-1.09024,0.155768
-42,701,-0.210327,-0.299133,0,0,0,0,0,0,0,-1,1182,323,-0.210379,0.29914
-35,701,-2.9635,-7.98676,0,0,0,0,0,0,0,-1,1189,323,-2.9635,7.98676
-28,701,-2.70447,-6.22244,0,0,0,0,0,0,0,-1,1196,323,-2.70451,6.22244
-21,701,0.231323,-4.31726,0,0,0,0,0,0,0,-1,1203,323,0.231323,4.31726
-14,701,1.15234,-4.13046,0,0,0,0,0,0,0,-1,1210,323,1.15239,4.13047
-7,701,1.83862,-3.81992,0.0577203,0.00740882,0.0322306,0.0734501,-0.00832096,0.454032,0.0519629,0.0480174,1217,323,1.83867,3.81993
0,701,2.48804,-3.52585,0.0462996,0.0100952,0.03086,0.0639749,-0.00758002,0.520147,0.0453881,0.0492986,1224,323,2.48801,3.52584
7,701,3.41992,-2.3183,0.0382348,0.00976224,0.0263992,0.0539917,-0.0059946,0.538114,0.03815,0.0462685,1231,323,3.41987,2.31828
14,701,3.25513,-2.44748,0,0,0,0,0,0,0,-1,1238,323,3.25516,2.44748
21,701,3.05457,-2.53549,0,0,0,0,0,0,0,-1,1245,323,3.05454,2.53548
28,701,2.64795,-2.82037,0,0,0,0,0,0,0,-1,1252,323,2.64797,2.82036
35,701,0.843872,-3.31085,0,0,0,0,0,0,0,-1,1259,323,0.843887,3.31085
42,701,1.72437,-3.54111,0,0,0,0,0,0,0,-1,1266,323,1.72438,3.54112
49,701,1.77393,-3.45883,0,0,0,0,0,0,0,-1,1273,323,1.77392,3.45882
56,701,1.86926,-3.68118,0,0,0,0,0,0,0,-1,1280,323,1.86931,3.68119
63,701,1.91101,-3.70261,0,0,0,0,0,0,0,-1,1287,323,1.91107,3.7026
70,701,3.82068,-4.87601,0.0964605,-0.0210869,-0.0583013,0.120472,-0.0450984,-0.390682,0.0988387,0.040084,1294,323,3.82071,4.87602
77,701,4.49292,-5.42242,0.0911903,-0.0166606,-0.0599329,0.117887,-0.0433571,-0.419056,0.0963521,0.0413563,1301,323,4.49298,5.42243
84,701,5.1626,-6.34146,0,0,0,0,0,0,0,-1,1308,323,5.16255,6.34147
91,701,6.39124,-7.54568,0.0734,-0.00545447,-0.0564334,0.102815,-0.0348693,-0.480488,0.0826555,0.0455343,1315,323,6.39121,7.54569
98,701,7.22351,-8.62717,0,0,0,0,0,0,0,-1,1322,323,7.22349,8.62717
105,701,1.72058,-3.17307,0,0,0,0,0,0,0,-1,1329,323,1.72053,3.17307
112,701,1.65198,-2.80832,0.030527,0.0140108,-0.0405543,0.0636555,-0.0191176,-0.684956,0.050042,0.0439096,1336,323,1.65198,2.80831
119,701,1.21375,-2.95502,0.0163674,0.0184664,-0.033407,0.0508404,-0.0160066,-0.8011,0.0403029,0.0428385,1343,323,1.21372,2.95502
126,701,0.733398,-3.1925,0.0019137,0.0217832,-0.0274656,0.0410556,-0.0173587,-0.958935,0.0346382,0.0470692,1350,323,0.733413,3.1925
133,701,1.44714,-3.49222,-0.00538484,0.024017,-0.0203601,0.0344289,-0.0157967,-1.09808,0.0296554,0.0478338,1357,323,1.44713,3.4922
140,701,1.62927,-3.48886,-0.00272259,0.0187954,-0.0189937,0.0298657,-0.0137929,-1.04309,0.0257694,0.0464038,1364,323,1.62929,3.48887
147,701,1.74524,-3.45905,-0.00343302,0.013269,-0.0158746,0.0228552,-0.0130192,-1.02754,0.02097,0.0457336,1371,323,1.74527,3.45903
154,701,1.86987,-3.41891,0,0,0,0,0,0,0,-1,1378,323,1.86991,3.41893
161,701,6.75403,0.52298,0,0,0,0,0,0,0,-1,1385,323,6.75401,-0.522979
168,701,6.88513,-0.0237427,0,0,0,0,0,0,0,-1,1392,323,6.88517,0.0237498
175,701,6.94556,0.0693054,0,0,0,0,0,0,0,-1,1399,323,6.94555,-0.0692958
182,701,7.12598,0.785126,0,0,0,0,0,0,0,-1,1406,323,7.12599,-0.785134
189,701,7.36389,-0.652069,0,0,0,0,0,0,0,-1,1413,323,7.36388,0.652066
196,701,0,0,0,0,0,0,0,0,0,-1,1420,323,0,0
203,701,0,0,0,0,0,0,0,0,0,-1,1427,323,0,0
210,701,0,0,0,0,0,0,0,0,0,-1,1434,323,0,0
217,701,0,0,0,0,0,0,0,0,0,-1,1441,323,0,0
224,701,0,0,0,0,0,0,0,0,0,-1,1448,323,0,0
231,701,0,0,0,0,0,0,0,0,0,-1,1455,323,0,0
238,701,0,0,0,0,0,0,0,0,0,-1,1462,323,0,0
245,701,0,0,0,0,0,0,0,0,0,-1,1469,323,0,0
252,701,0,0,0,0,0,0,0,0,0,-1,1476,323,0,0
259,701,0,0,0,0,0,0,0,0,0,-1,1483,323,0,0
266,701,0,0,0,0,0,0,0,0,0,-1,1490,323,0,0
273,701,0,0,0,0,0,0,0,0,0,-1,1497,323,0,0
280,701,0,0,0,0,0,0,0,0,0,-1,1504,323,0,0
287,701,0,0,0,0,0,0,0,0,0,-1,1511,323,0,0
294,701,0,0,0,0,0,0,0,0,0,-1,1518,323,0,0
301,701,0,0,0,0,0,0,0,0,0,-1,1525,323,0,0
308,701,0,0,0,0,0,0,0,0,0,-1,1532,323,0,0
315,701,0,0,0,0,0,0,0,0,0,-1,1539,323,0,0
322,701,0,0,0,0,0,0,0,0,0,-1,1546,323,0,0
329,701,0,0,0,0,0,0,0,0,0,-1,1553,323,0,0
336,701,0,0,0,0,0,0,0,0,0,-1,1560,323,0,0
343,701,0,0,0,0,0,0,0,0,0,-1,1567,323,0,0
350,701,0,0,0,0,0,0,0,0,0,-1,1574,323,0,0
357,701,0,0,0,0,0,0,0,0,0,-1,1581,323,0,0
364,701,0,0,0,0,0,0,0,0,0,-1,1588,323,0,0
371,701,0,0,0,0,0,0,0,0,0,-1,1595,323,0,0
378,701,0,0,0,0,0,0,0,0,0,-1,1602,323,0,0
385,701,0,0,0,0,0,0,0,0,0,-1,1609,323,0,0
392,701,0,0,0,0,0,0,0,0,0,-1,1616,323,0,0
399,701,0,0,0,0,0,0,0,0,0,-1,1623,323,0,0
406,701,0,0,0,0,0,0,0,0,0,-1,1630,323,0,0
413,701,0,0,0,0,0,0,0,0,0,-1,1637,323,0,0
420,701,0,0,0,0,0,0,0,0,0,-1,1644,323,0,0
427,701,0,0,0,0,0,0,0,0,0,-1,1651,323,0,0
434,701,0,0,0,0,0,0,0,0,0,-1,1658,323,0,0
441,701,0,0,0,0,0,0,0,0,0,-1,1665,323,0,0
448,701,0,0,0,0,0,0,0,0,0,-1,1672,323,0,0
455,701,0,0,0,0,0,0,0,0,0,-1,1679,323,0,0
462,701,0,0,0,0,0,0,0,0,0,-1,1686,323,0,0
469,701,0,0,0,0,0,0,0,0,0,-1,1693,323,0,0
476,701,0,0,0,0,0,0,0,0,0,-1,1700,323,0,0
483,701,0,0,0,0,0,0,0,0,0,-1,1707,323,0,0
490,701,0,0,0,0,0,0,0,0,0,-1,1714,323,0,0
497,701,0,0,0,0,0,0,0,0,0,-1,1721,323,0,0
504,701,0,0,0,0,0,0,0,0,0,-1,1728,323,0,0
511,701,0,0,0,0,0,0,0,0,0,-1,1735,323,0,0
518,701,0,0,0,0,0,0,0,0,0,-1,1742,323,0,0
525,701,0,0,0,0,0,0,0,0,0,-1,1749,323,0,0
532,701,0,0,0,0,0,0,0,0,0,-1,1756,323,0,0
539,701,0,0,0,0,0,0,0,0,0,-1,1763,323,0,0
546,701,0,0,0,0,0,0,0,0,0,-1,1770,323,0,0
553,701,0,0,0,0,0,0,0,0,0,-1,1777,323,0,0
560,701,0,0,0,0,0,0,0,0,0,-1,1784,323,0,0
567,701,0,0,0,0,0,0,0,0,0,-1,1791,323,0,0
574,701,0,0,0,0,0,0,0,0,0,-1,1798,323,0,0
581,701,0,0,0,0,0,0,0,0,0,-1,1805,323,0,0
588,701,0,0,0,0,0,0,0,0,0,-1,1812,323,0,0
595,701,0,0,0,0,0,0,0,0,0,-1,1819,323,0,0
602,701,0,0,0,0,0,0,0,0,0,-1,1826,323,0,0
609,701,0,0,0,0,0,0,0,0,0,-1,1833,323,0,0
616,701,0,0,0,0,0,0,0,0,0,-1,1840,323,0,0
623,701,0,0,0,0,0,0,0,0,0,-1,1847,323,0,0
630,701,0,0,0,0,0,0,0,0,0,-1,1854,323,0,0
637,701,0,0,0,0,0,0,0,0,0,-1,1861,323,0,0
644,701,0,0,0,0,0,0,0,0,0,-1,1868,323,0,0
651,701,0,0,0,0,0,0,0,0,0,-1,1875,323,0,0
658,701,0,0,0,0,0,0,0,0,0,-1,1882,323,0,0
665,701,0,0,0,0,0,0,0,0,0,-1,1889,323,0,0
672,701,0,0,0,0,0,0,0,0,0,-1,1896,323,0,0
679,701,0,0,0,0,0,0,0,0,0,-1,1903,323,0,0
686,701,0,0,0,0,0,0,0,0,0,-1,1910,323,0,0
693,701,0,0,0,0,0,0,0,0,0,-1,1917,323,0,0
700,701,0,0,0,0,0,0,0,0,0,-1,1924,323,0,0
707,701,0,0,0,0,0,0,0,0,0,-1,1931,323,0,0
714,701,0,0,0,0,0,0,0,0,0,-1,1938,323,0,0
721,701,0,0,0,0,0,0,0,0,0,-1,1945,323,0,0
728,701,0,0,0,0,0,0,0,0,0,-1,1952,323,0,0
735,701,0,0,0,0,0,0,0,0,0,-1,1959,323,0,0
742,701,0,0,0,0,0,0,0,0,0,-1,1966,323,0,0
749,701,0,0,0,0,0,0,0,0,0,-1,1973,323,0,0
756,701,0,0,0,0,0,0,0,0,0,-1,1980,323,0,0
763,701,0,0,0,0,0,0,0,0,0,-1,1987,323,0,0
770,701,0,0,0,0,0,0,0,0,0,-1,1994,323,0,0
777,701,0,0,0,0,0,0,0,0,0,-1,2001,323,0,0
784,701,0,0,0,0,0,0,0,0,0,-1,2008,323,0,0
791,701,0,0,0,0,0,0,0,0,0,-1,2015,323,0,0
798,701,0,0,0,0,0,0,0,0,0,-1,2022,323,0,0
805,701,0,0,0,0,0,0,0,0,0,-1,2029,323,0,0
812,701,0,0,0,0,0,0,0,0,0,-1,2036,323,0,0
-700,694,0,0,0,0,0,0,0,0,0,-1,524,330,0,0
-693,694,0,0,0,0,0,0,0,0,0,-1,531,330,0,0
-686,694,0,0,0,0,0,0,0,0,0,-1,538,330,0,0
-679,694,0,0,0,0,0,0,0,0,0,-1,545,330,0,0
-672,694,0,0,0,0,0,0,0,0,0,-1,552,330,0,0
-665,694,0,0,0,0,0,0,0,0,0,-1,559,330,0,0
-658,694,0,0,0,0,0,0,0,0,0,-1,566,330,0,0
-651,694,0,0,0,0,0,0,0,0,0,-1,573,330,0,0
-644,694,0,0,0,0,0,0,0,0,0,-1,580,330,0,0
-637,694,0,0,0,0,0,0,0,0,0,-1,587,330,0,0
-630,694,0,0,0,0,0,0,0,0,0,-1,594,330,0,0
-623,694,0,0,0,0,0,0,0,0,0,-1,601,330,0,0
-616,694,0,0,0,0,0,0,0,0,0,-1,608,330,0,0
-609,694,0,0,0,0,0,0,0,0,0,-1,615,330,0,0
-602,694,0,0,0,0,0,0,0,0,0,-1,622,330,0,0
-595,694,0,0,0,0,0,0,0,0,0,-1,629,330,0,0
-588,694,0,0,0,0,0,0,0,0,0,-1,636,330,0,0
-581,694,0,0,0,0,0,0,0,0,0,-1,643,330,0,0
-574,694,0,0,0,0,0,0,0,0,0,-1,650,330,0,0
-567,694,0,0,0,0,0,0,0,0,0,-1,657,330,0,0
-560,694,0,0,0,0,0,0,0,0,0,-1,664,330,0,0
-553,694,0,0,0,0,0,0,0,0,0,-1,671,330,0,0
-546,694,0,0,0,0,0,0,0,0,0,-1,678,330,0,0
-539,694,0,0,0,0,0,0,0,0,0,-1,685,330,0,0
-532,694,0,0,0,0,0,0,0,0,0,-1,692,330,0,0
-525,694,0,0,0,0,0,0,0,0,0,-1,699,330,0,0
-518,694,0,0,0,0,0,0,0,0,0,-1,706,330,0,0
-511,694,0,0,0,0,0,0,0,0,0,-1,713,330,0,0
-504,694,0,0,0,0,0,0,0,0,0,-1,720,330,0,0
-497,694,0,0,0,0,0,0,0,0,0,-1,727,330,0,0
-490,694,0,0,0,0,0,0,0,0,0,-1,734,330,0,0
-483,694,0,0,0,0,0,0,0,0,0,-1,741,330,0,0
-476,694,0,0,0,0,0,0,0,0,0,-1,748,330,0,0
-469,694,0,0,0,0,0,0,0,0,0,-1,755,330,0,0
-462,694,0,0,0,0,0,0,0,0,0,-1,762,330,0,0
-455,694,0,0,0,0,0,0,0,0,0,-1,769,330,0,0
-448,694,0,0,0,0,0,0,0,0,0,-1,776,330,0,0
-441,694,0,0,0,0,0,0,0,0,0,-1,783,330,0,0
-434,694,0,0,0,0,0,0,0,0,0,-1,790,330,0,0
-427,694,0,0,0,0,0,0,0,0,0,-1,797,330,0,0
-420,694,0,0,0,0,0,0,0,0,0,-1,804,330,0,0
-413,694,0,0,0,0,0,0,0,0,0,-1,811,330,0,0
-406,694,0,0,0,0,0,0,0,0,0,-1,818,330,0,0
-399,694,0,0,0,0,0,0,0,0,0,-1,825,330,0,0
-392,694,0,0,0,0,0,0,0,0,0,-1,832,330,0,0
-385,694,0,0,0,0,0,0,0,0,0,-1,839,330,0,0
-378,694,0,0,0,0,0,0,0,0,0,-1,846,330,0,0
-371,694,0,0,0,0,0,0,0,0,0,-1,853,330,0,0
-364,694,0,0,0,0,0,0,0,0,0,-1,860,330,0,0
-357,694,0,0,0,0,0,0,0,0,0,-1,867,330,0,0
-350,694,0,0,0,0,0,0,0,0,0,-1,874,330,0,0
-343,694,0,0,0,0,0,0,0,0,0,-1,881,330,0,0
-336,694,0,0,0,0,0,0,0,0,0,-1,888,330,0,0
-329,694,0,0,0,0,0,0,0,0,0,-1,895,330,0,0
-322,694,0,0,0,0,0,0,0,0,0,-1,902,330,0,0
-315,694,0,0,0,0,0,0,0,0,0,-1,909,330,0,0
-308,694,0,0,0,0,0,0,0,0,0,-1,916,330,0,0
-301,694,0,0,0,0,0,0,0,0,0,-1,923,330,0,0
-294,694,0,0,0,0,0,0,0,0,0,-1,930,330,0,0
-287,694,0,0,0,0,0,0,0,0,0,-1,937,330,0,0
-280,694,0,0,0,0,0,0,0,0,0,-1,944,330,0,0
-273,694,0,0,0,0,0,0,0,0,0,-1,951,330,0,0
-266,694,0,0,0,0,0,0,0,0,0,-1,958,330,0,0
-259,694,0,0,0,0,0,0,0,0,0,-1,965,330,0,0
-252,694,0,0,0,0,0,0,0,0,0,-1,972,330,0,0
-245,694,0,0,0,0,0,0,0,0,0,-1,979,330,0,0
-238,694,0,0,0,0,0,0,0,0,0,-1,986,330,0,0
-231,694,0,0,0,0,0,0,0,0,0,-1,993,330,0,0
-224,694,0,0,0,0,0,0,0,0,0,-1,1000,330,0,0
-217,694,0,0,0,0,0,0,0,0,0,-1,1007,330,0,0
-210,694,0,0,0,0,0,0,0,0,0,-1,1014,330,0,0
-203,694,0,0,0,0,0,0,0,0,0,-1,1021,330,0,0
-196,694,0,0,0,0,0,0,0,0,0,-1,1028,330,0,0
-189,694,0,0,0,0,0,0,0,0,0,-1,1035,330,0,0
-182,694,0,0,0,0,0,0,0,0,0,-1,1042,330,0,0
-175,694,0,0,0,0,0,0,0,0,0,-1,1049,330,0,0
-168,694,0,0,0,0,0,0,0,0,0,-1,1056,330,0,0
-161,694,0,0,0,0,0,0,0,0,0,-1,1063,330,0,0
-154,694,0,0,0,0,0,0,0,0,0,-1,1070,330,0,0
-147,694,0,0,0,0,0,0,0,0,0,-1,1077,330,0,0
-140,694,0,0,0,0,0,0,0,0,0,-1,1084,330,0,0
-133,694,0,0,0,0,0,0,0,0,0,-1,1091,330,0,0
-126,694,0,0,0,0,0,0,0,0,0,-1,1098,330,0,0
-119,694,0,0,0,0,0,0,0,0,0,-1,1105,330,0,0
-112,694,0,0,0,0,0,0,0,0,0,-1,1112,330,0,0
-105,694,0.415405,-7.23172,0,0,0,0,0,0,0,-1,1119,330,0.415389,7.23173
-98,694,0.395752,-5.58823,0,0,0,0,0,0,0,-1,1126,330,0.395776,5.58822
-91,694,3.87122,-4.72232,0,0,0,0,0,0,0,-1,1133,330,3.87117,4.72232
-84,694,3.43335,1.70316,0,0,0,0,0,0,0,-1,1140,330,3.43329,-1.70316
-77,694,3.01807,1.8587,0,0,0,0,0,0,0,-1,1147,330,3.01807,-1.8587
-70,694,2.43774,2.11508,0,0,0,0,0,0,0,-1,1154,330,2.43777,-2.11507
-63,694,2.01135,2.13467,0,0,0,0,0,0,0,-1,1161,330,2.0113,-2.13469
-56,694,-0.661011,-0.22757,0,0,0,0,0,0,0,-1,1168,330,-0.660971,0.227584
-49,694,-1.11426,0.0341797,0,0,0,0,0,0,0,-1,1175,330,-1.11424,-0.0341846
-42,694,-0.346313,-0.709595,0,0,0,0,0,0,0,-1,1182,330,-0.346298,0.709581
-35,694,-0.459106,-1.24713,0,0,0,0,0,0,0,-1,1189,330,-0.459142,1.24714
-28,694,-3.0719,-6.67059,0,0,0,0,0,0,0,-1,1196,330,-3.07195,6.6706
-21,694,-1.88098,-6.02283,0,0,0,0,0,0,0,-1,1203,330,-1.881,6.02282
-14,694,1.38989,-4.29623,0,0,0,0,0,0,0,-1,1210,330,1.38989,4.29622
-7,694,2.14404,-3.75864,0.0402839,0.00645606,0.0258384,0.054252,-0.00751207,0.495595,0.0389145,0.0463512,1217,330,2.14403,3.75865
0,694,2.90588,-3.26599,0.0321024,0.00844677,0.024616,0.0475848,-0.00703561,0.561438,0.0343097,0.0439114,1224,330,2.90589,3.26601
7,694,3.02686,-2.84451,0.0260093,0.00849841,0.0213393,0.0403195,-0.00581179,0.590723,0.0290116,0.0439944,1231,330,3.02691,2.84451
14,694,2.66638,-3.63327,0,0,0,0,0,0,0,-1,1238,330,2.66634,3.63328
21,694,2.65076,-3.31573,0.0279349,0.00345445,0.00847154,0.0305806,0.000808773,0.302704,0.0201229,0.0468968,1245,330,2.65079,3.31573
28,694,2.29236,-3.48788,0.0363952,-0.000807914,-0.00157048,0.0364614,-0.000874093,-0.0421138,0.0246041,0.0476175,1252,330,2.29239,3.48788
35,694,1.69617,-3.55252,0.0433078,-0.00449516,-0.00935748,0.0450742,-0.00626162,-0.18658,0.0323394,0.0475053,1259,330,1.69617,3.55254
42,694,1.8042,-3.48889,0.05228,-0.00810313,-0.0185135,0.0575043,-0.0133274,-0.275034,0.0434651,0.0492747,1266,330,1.80422,3.48888
49,694,1.84973,-3.44501,0.0609018,-0.0112756,-0.026973,0.0698679,-0.0202417,-0.320921,0.0545914,0.0493259,1273,330,1.84979,3.44501
56,694,1.90381,-3.46365,0.0692202,-0.0138944,-0.0344505,0.0816429,-0.0263172,-0.346084,0.0650018,0.0481621,1280,330,1.90384,3.46366
63,694,2.01343,-3.52249,0,0,0,0,0,0,0,-1,1287,330,2.01346,3.52249
70,694,2.00281,-3.56635,0.0752623,-0.0132811,-0.0434006,0.0929873,-0.0310062,-0.387731,0.0745094,0.0431654,1294,330,2.00278,3.56634
77,694,5.63611,-4.82462,0.0714825,-0.0100541,-0.0452424,0.0916152,-0.0301868,-0.418685,0.0732428,0.0444305,1301,330,5.63615,4.82461
84,694,1.72388,-3.38702,0,0,0,0,0,0,0,-1,1308,330,1.72389,3.38703
91,694,7.76611,-7.20166,0,0,0,0,0,0,0,-1,1315,330,7.76609,7.20167
98,694,2.05505,-3.31805,0,0,0,0,0,0,0,-1,1322,330,2.05501,3.31806
105,694,1.82849,-3.35306,0.035735,0.00756852,-0.0364883,0.0607635,-0.01746,-0.601223,0.047413,0.0472748,1329,330,1.82853,3.35305
112,694,1.59045,-3.38159,0.023883,0.0123361,-0.0319542,0.0505811,-0.014362,-0.696023,0.0393907,0.0447567,1336,330,1.59044,3.38158
119,694,1.63086,-3.68652,0.0128132,0.0149513,-0.0267964,0.0407,-0.0129355,-0.805335,0.0323199,0.0441188,1343,330,1.63092,3.68653
126,694,1.3656,-3.75659,0.00156615,0.0166221,-0.0225422,0.0328601,-0.0146718,-0.946551,0.0281043,0.0451163,1350,330,1.36561,3.7566
133,694,1.59558,-3.62497,-0.00409171,0.0178352,-0.0173913,0.0274303,-0.0136868,-1.06664,0.024177,0.0462247,1357,330,1.59562,3.62496
140,694,1.54663,-3.50009,-0.00218382,0.0133412,-0.0165026,0.0238158,-0.0126584,-1.00523,0.0213843,0.0441308,1364,330,1.54659,3.50009
147,694,1.66772,-3.45627,-0.00295417,0.00848001,-0.0141585,0.0180321,-0.0125062,-0.977284,0.0177273,0.0446562,1371,330,1.66771,3.45628
154,694,1.79138,-3.4205,0,0,0,0,0,0,0,-1,1378,330,1.79143,3.42051
161,694,6.66199,1.10468,0,0,0,0,0,0,0,-1,1385,330,6.66201,-1.10467
168,694,6.77161,1.01288,0,0,0,0,0,0,0,-1,1392,330,6.77156,-1.01287
175,694,6.72839,0.473175,-0.0117026,-0.00760821,-0.00806306,-0.0013365,-0.0179743,-0.909719,0.0115631,0.0496574,1399,330,6.72838,-0.473182
182,694,6.87488,1.28955,-0.0171387,-0.0123752,-0.00464688,-0.00953527,-0.0199787,-1.02221,0.0115387,0.0485166,1406,330,6.87487,-1.28954
189,694,7.13855,-0.639862,-0.0269052,-0.0143426,-0.00198636,-0.014036,-0.0272118,-1.41765,0.0157134,0.0413317,1413,330,7.13856,0.639864
196,694,6.82397,-1.10928,-0.0369732,-0.0150279,0.00123419,-0.0149587,-0.0370424,1.51479,0.0215179,0.0385973,1420,330,6.82396,1.10929
203,694,6.36169,-0.998688,-0.048031,-0.0154639,0.00618249,-0.0143298,-0.0491652,1.38936,0.0291969,0.0416267,1427,330,6.3617,0.998676
210,694,5.80127,-0.976715,0,0,0,0,0,0,0,-1,1434,330,5.80131,0.976711
217,694,5.01782,-1.0264,0,0,0,0,0,0,0,-1,1441,330,5.01787,1.02641
224,694,4.97949,-2.07901,0,0,0,0,0,0,0,-1,1448,330,4.9795,2.07903
231,694,0,0,0,0,0,0,0,0,0,-1,1455,330,0,0
238,694,0,0,0,0,0,0,0,0,0,-1,1462,330,0,0
245,694,0,0,0,0,0,0,0,0,0,-1,1469,330,0,0
252,694,0,0,0,0,0,0,0,0,0,-1,1476,330,0,0
259,694,0,0,0,0,0,0,0,0,0,-1,1483,330,0,0
266,694,0,0,0,0,0,0,0,0,0,-1,1490,330,0,0
273,694,0,0,0,0,0,0,0,0,0,-1,1497,330,0,0
280,694,0,0,0,0,0,0,0,0,0,-1,1504,330,0,0
287,694,0,0,0,0,0,0,0,0,0,-1,1511,330,0,0
294,694,0,0,0,0,0,0,0,0,0,-1,1518,330,0,0
301,694,0,0,0,0,0,0,0,0,0,-1,1525,330,0,0
308,694,0,0,0,0,0,0,0,0,0,-1,1532,330,0,0
315,694,0,0,0,0,0,0,0,0,0,-1,1539,330,0,0
322,694,0,0,0,0,0,0,0,0,0,-1,1546,330,0,0
329,694,0,0,0,0,0,0,0,0,0,-1,1553,330,0,0
336,694,0,0,0,0,0,0,0,0,0,-1,1560,330,0,0
343,694,0,0,0,0,0,0,0,0,0,-1,1567,330,0,0
350,694,0,0,0,0,0,0,0,0,0,-1,1574,330,0,0
357,694,0,0,0,0,0,0,0,0,0,-1,1581,330,0,0
364,694,0,0,0,0,0,0,0,0,0,-1,1588,330,0,0
371,694,0,0,0,0,0,0,0,0,0,-1,1595,330,0,0
378,694,0,0,0,0,0,0,0,0,0,-1,1602,330,0,0
385,694,0,0,0,0,0,0,0,0,0,-1,1609,330,0,0
392,694,0,0,0,0,0,0,0,0,0,-1,1616,330,0,0
399,694,0,0,0,0,0,0,0,0,0,-1,1623,330,0,0
406,694,0,0,0,0,0,0,0,0,0,-1,1630,330,0,0
413,694,0,0,0,0,0,0,0,0,0,-1,1637,330,0,0
420,694,0,0,0,0,0,0,0,0,0,-1,1644,330,0,0
427,694,0,0,0,0,0,0,0,0,0,-1,1651,330,0,0
434,694,0,0,0,0,0,0,0,0,0,-1,1658,330,0,0
441,694,0,0,0,0,0,0,0,0,0,-1,1665,330,0,0
448,694,0,0,0,0,0,0,0,0,0,-1,1672,330,0,0
455,694,0,0,0,0,0,0,0,0,0,-1,1679,330,0,0
462,694,0,0,0,0,0,0,0,0,0,-1,1686,330,0,0
469,694,0,0,0,0,0,0,0,0,0,-1,1693,330,0,0
476,694,0,0,0,0,0,0,0,0,0,-1,1700,330,0,0
483,694,0,0,0,0,0,0,0,0,0,-1,1707,330,0,0
490,694,0,0,0,0,0,0,0,0,0,-1,1714,330,0,0
497,694,0,0,0,0,0,0,0,0,0,-1,1721,330,0,0
504,694,0,0,0,0,0,0,0,0,0,-1,1728,330,0,0
511,694,0,0,0,0,0,0,0,0,0,-1,1735,330,0,0
518,694,0,0,0,0,0,0,0,0,0,-1,1742,330,0,0
525,694,0,0,0,0,0,0,0,0,0,-1,1749,330,0,0
532,694,0,0,0,0,0,0,0,0,0,-1,1756,330,0,0
539,694,0,0,0,0,0,0,0,0,0,-1,1763,330,0,0
546,694,0,0,0,0,0,0,0,0,0,-1,1770,330,0,0
553,694,0,0,0,0,0,0,0,0,0,-1,1777,330,0,0
560,694,0,0,0,0,0,0,0,0,0,-1,1784,330,0,0
567,694,0,0,0,0,0,0,0,0,0,-1,1791,330,0,0
574,694,0,0,0,0,0,0,0,0,0,-1,1798,330,0,0
581,694,0,0,0,0,0,0,0,0,0,-1,1805,330,0,0
588,694,0,0,0,0,0,0,0,0,0,-1,1812,330,0,0
595,694,0,0,0,0,0,0,0,0,0,-1,1819,330,0,0
602,694,0,0,0,0,0,0,0,0,0,-1,1826,330,0,0
609,694,0,0,0,0,0,0,0,0,0,-1,1833,330,0,0
616,694,0,0,0,0,0,0,0,0,0,-1,1840,330,0,0
623,694,0,0,0,0,0,0,0,0,0,-1,1847,330,0,0
630,694,0,0,0,0,0,0,0,0,0,-1,1854,330,0,0
637,694,0,0,0,0,0,0,0,0,0,-1,1861,330,0,0
644,694,0,0,0,0,0,0,0,0,0,-1,1868,330,0,0
651,694,0,0,0,0,0,0,0,0,0,-1,1875,330,0,0
658,694,0,0,0,0,0,0,0,0,0,-1,1882,330,0,0
665,694,0,0,0,0,0,0,0,0,0,-1,1889,330,0,0
672,694,0,0,0,0,0,0,0,0,0,-1,1896,330,0,0
679,694,0,0,0,0,0,0,0,0,0,-1,1903,330,0,0
686,694,0,0,0,0,0,0,0,0,0,-1,1910,330,0,0
693,694,0,0,0,0,0,0,0,0,0,-1,1917,330,0,0
700,694,0,0,0,0,0,0,0,0,0,-1,1924,330,0,0
707,694,0,0,0,0,0,0,0,0,0,-1,1931,330,0,0
714,694,0,0,0,0,0,0,0,0,0,-1,1938,330,0,0
721,694,0,0,0,0,0,0,0,0,0,-1,1945,330,0,0
728,694,0,0,0,0,0,0,0,0,0,-1,1952,330,0,0
735,694,0,0,0,0,0,0,0,0,0,-1,1959,330,0,0
742,694,0,0,0,0,0,0,0,0,0,-1,1966,330,0,0
749,694,0,0,0,0,0,0,0,0,0,-1,1973,330,0,0
756,694,0,0,0,0,0,0,0,0,0,-1,1980,330,0,0
763,694,0,0,0,0,0,0,0,0,0,-1,1987,330,0,0
770,694,0,0,0,0,0,0,0,0,0,-1,1994,330,0,0
777,694,0,0,0,0,0,0,0,0,0,-1,2001,330,0,0
784,694,0,0,0,0,0,0,0,0,0,-1,2008,330,0,0
791,694,0,0,0,0,0,0,0,0,0,-1,2015,330,0,0
798,694,0,0,0,0,0,0,0,0,0,-1,2022,330,0,0
805,694,0,0,0,0,0,0,0,0,0,-1,2029,330,0,0
812,694,0,0,0,0,0,0,0,0,0,-1,2036,330,0,0
-700,687,0,0,0,0,0,0,0,0,0,-1,524,337,0,0
-693,687,0,0,0,0,0,0,0,0,0,-1,531,337,0,0
-686,687,0,0,0,0,0,0,0,0,0,-1,538,337,0,0
-679,687,0,0,0,0,0,0,0,0,0,-1,545,337,0,0
-672,687,0,0,0,0,0,0,0,0,0,-1,552,337,0,0
-665,687,0,0,0,0,0,0,0,0,0,-1,559,337,0,0
-658,687,0,0,0,0,0,0,0,0,0,-1,566,337,0,0
-651,687,0,0,0,0,0,0,0,0,0,-1,573,337,0,0
-644,687,0,0,0,0,0,0,0,0,0,-1,580,337,0,0
-637,687,0,0,0,0,0,0,0,0,0,-1,587,337,0,0
-630,687,0,0,0,0,0,0,0,0,0,-1,594,337,0,0
-623,687,0,0,0,0,0,0,0,0,0,-1,601,337,0,0
-616,687,0,0,0,0,0,0,0,0,0,-1,608,337,0,0
-609,687,0,0,0,0,0,0,0,0,0,-1,615,337,0,0
-602,687,0,0,0,0,0,0,0,0,0,-1,622,337,0,0
-595,687,0,0,0,0,0,0,0,0,0,-1,629,337,0,0
-588,687,0,0,0,0,0,0,0,0,0,-1,636,337,0,0
-581,687,0,0,0,0,0,0,0,0,0,-1,643,337,0,0
-574,687,0,0,0,0,0,0,0,0,0,-1,650,337,0,0
-567,687,0,0,0,0,0,0,0,0,0,-1,657,337,0,0
-560,687,0,0,0,0,0,0,0,0,0,-1,664,337,0,0
-553,687,0,0,0,0,0,0,0,0,0,-1,671,337,0,0
-546,687,0,0,0,0,0,0,0,0,0,-1,678,337,0,0
-539,687,0,0,0,0,0,0,0,0,0,-1,685,337,0,0
-532,687,0,0,0,0,0,0,0,0,0,-1,692,337,0,0
-525,687,0,0,0,0,0,0,0,0,0,-1,699,337,0,0
-518,687,0,0,0,0,0,0,0,0,0,-1,706,337,0,0
-511,687,0,0,0,0,0,0,0,0,0,-1,713,337,0,0
-504,687,0,0,0,0,0,0,0,0,0,-1,720,337,0,0
-497,687,0,0,0,0,0,0,0,0,0,-1,727,337,0,0
-490,687,0,0,0,0,0,0,0,0,0,-1,734,337,0,0
-483,687,0,0,0,0,0,0,0,0,0,-1,741,337,0,0
-476,687,0,0,0,0,0,0,0,0,0,-1,748,337,0,0
-469,687,0,0,0,0,0,0,0,0,0,-1,755,337,0,0
-462,687,0,0,0,0,0,0,0,0,0,-1,762,337,0,0
-455,687,0,0,0,0,0,0,0,0,0,-1,769,337,0,0
-448,687,0,0,0,0,0,0,0,0,0,-1,776,337,0,0
-441,687,0,0,0,0,0,0,0,0,0,-1,783,337,0,0
-434,687,0,0,0,0,0,0,0,0,0,-1,790,337,0,0
-427,687,0,0,0,0,0,0,0,0,0,-1,797,337,0,0
-420,687,0,0,0,0,0,0,0,0,0,-1,804,337,0,0
-413,687,0,0,0,0,0,0,0,0,0,-1,811,337,0,0
-406,687,0,0,0,0,0,0,0,0,0,-1,818,337,0,0
-399,687,0,0,0,0,0,0,0,0,0,-1,825,337,0,0
-392,687,0,0,0,0,0,0,0,0,0,-1,832,337,0,0
-385,687,0,0,0,0,0,0,0,0,0,-1,839,337,0,0
-378,687,0,0,0,0,0,0,0,0,0,-1,846,337,0,0
-371,687,0,0,0,0,0,0,0,0,0,-1,853,337,0,0
-364,687,0,0,0,0,0,0,0,0,0,-1,860,337,0,0
-357,687,0,0,0,0,0,0,0,0,0,-1,867,337,0,0
-350,687,0,0,0,0,0,0,0,0,0,-1,874,337,0,0
-343,687,0,0,0,0,0,0,0,0,0,-1,881,337,0,0
-336,687,0,0,0,0,0,0,0,0,0,-1,888,337,0,0
-329,687,0,0,0,0,0,0,0,0,0,-1,895,337,0,0
-322,687,0,0,0,0,0,0,0,0,0,-1,902,337,0,0
-315,687,0,0,0,0,0,0,0,0,0,-1,909,337,0,0
-308,687,0,0,0,0,0,0,0,0,0,-1,916,337,0,0
-301,687,0,0,0,0,0,0,0,0,0,-1,923,337,0,0
-294,687,0,0,0,0,0,0,0,0,0,-1,930,337,0,0
-287,687,0,0,0,0,0,0,0,0,0,-1,937,337,0,0
-280,687,0,0,0,0,0,0,0,0,0,-1,944,337,0,0
-273,687,0,0,0,0,0,0,0,0,0,-1,951,337,0,0
-266,687,0,0,0,0,0,0,0,0,0,-1,958,337,0,0
-259,687,0,0,0,0,0,0,0,0,0,-1,965,337,0,0
-252,687,0,0,0,0,0,0,0,0,0,-1,972,337,0,0
-245,687,0,0,0,0,0,0,0,0,0,-1,979,337,0,0
-238,687,0,0,0,0,0,0,0,0,0,-1,986,337,0,0
-231,687,0,0,0,0,0,0,0,0,0,-1,993,337,0,0
-224,687,0,0,0,0,0,0,0,0,0,-1,1000,337,0,0
-217,687,0,0,0,0,0,0,0,0,0,-1,1007,337,0,0
-210,687,0,0,0,0,0,0,0,0,0,-1,1014,337,0,0
-203,687,0,0,0,0,0,0,0,0,0,-1,1021,337,0,0
-196,687,0,0,0,0,0,0,0,0,0,-1,1028,337,0,0
-189,687,0,0,0,0,0,0,0,0,0,-1,1035,337,0,0
-182,687,0,0,0,0,0,0,0,0,0,-1,1042,337,0,0
-175,687,0,0,0,0,0,0,0,0,0,-1,1049,337,0,0
-168,687,0,0,0,0,0,0,0,0,0,-1,1056,337,0,0
-161,687,0,0,0,0,0,0,0,0,0,-1,1063,337,0,0
-154,687,0,0,0,0,0,0,0,0,0,-1,1070,337,0,0
-147,687,0,0,0,0,0,0,0,0,0,-1,1077,337,0,0
-140,687,0,0,0,0,0,0,0,0,0,-1,1084,337,0,0
-133,687,1.87244,-6.40857,-0.0639794,-0.0720159,-0.00736048,-0.0596118,-0.0763835,-0.535545,0.0463544,0.0479753,1091,337,1.87243,6.40857
-126,687,1.7323,-5.8262,-0.065452,-0.0734672,-0.0157112,-0.0532454,-0.0856738,-0.660521,0.0499481,0.0452573,1098,337,1.73235,5.82619
-119,687,-2.16443,-5.54053,-0.0658313,-0.0726813,-0.0252736,-0.0437517,-0.094761,-0.71805,0.0547637,0.0415449,1105,337,-2.16438,5.54053
-112,687,-2.08789,-5.50687,-0.064361,-0.0700408,-0.0358431,-0.0312454,-0.103156,-0.745866,0.0610804,0.0465965,1112,337,-2.08783,5.50686
-105,687,-1.83264,-5.2587,0,0,0,0,0,0,0,-1,1119,337,-1.83262,5.2587
-98,687,5.28455,-6.63138,0,0,0,0,0,0,0,-1,1126,337,5.28449,6.63136
-91,687,-2.06226,-5.14767,0,0,0,0,0,0,0,-1,1133,337,-2.06222,5.14769
-84,687,-2.58203,-4.65417,0,0,0,0,0,0,0,-1,1140,337,-2.58206,4.65417
-77,687,2.99451,1.29453,0,0,0,0,0,0,0,-1,1147,337,2.99451,-1.29453
-70,687,2.55017,1.10449,0,0,0,0,0,0,0,-1,1154,337,2.55013,-1.10448
-63,687,2.10571,0.914429,0,0,0,0,0,0,0,-1,1161,337,2.10575,-0.914431
-56,687,-0.759521,-0.605804,0,0,0,0,0,0,0,-1,1168,337,-0.759463,0.605803
-49,687,-1.03284,-0.0333862,0,0,0,0,0,0,0,-1,1175,337,-1.03285,0.0333943
-42,687,-1.02563,0.562653,0,0,0,0,0,0,0,-1,1182,337,-1.02564,-0.562649
-35,687,-0.2771,-0.134583,0,0,0,0,0,0,0,-1,1189,337,-0.277127,0.134571
-28,687,-1.14038,-1.39072,0,0,0,0,0,0,0,-1,1196,337,-1.14035,1.3907
-21,687,1.77332,-1.7753,0,0,0,0,0,0,0,-1,1203,337,1.77327,1.77529
-14,687,1.96277,-4.55762,0,0,0,0,0,0,0,-1,1210,337,1.96274,4.55763
-7,687,2.3064,-3.65628,0.0273771,0.00549949,0.0200915,0.0393146,-0.00643802,0.536112,0.0285983,0.0471141,1217,337,2.30635,3.65628
0,687,2.66467,-3.1293,0.0217108,0.00696941,0.0190884,0.0348022,-0.0061219,0.601149,0.0254883,0.045538,1224,337,2.66473,3.1293
7,687,2.52344,-3.14154,0.017327,0.00718014,0.0167011,0.0297083,-0.00520115,0.637938,0.0217476,0.0455757,1231,337,2.52338,3.14154
14,687,2.2821,-3.38092,0.014563,0.00679342,0.0125058,0.0237735,-0.0024171,0.634805,0.016713,0.0438846,1238,337,2.28213,3.38092
21,687,2.08118,-3.52045,0.0185094,0.00404846,0.00792625,0.0220076,0.000550213,0.415637,0.0144918,0.0472003,1245,337,2.08122,3.52043
28,687,1.91736,-3.45654,0.0252919,0.00104277,0.000512882,0.0253028,0.00103192,0.0211379,0.0165353,0.0473419,1252,337,1.91734,3.45655
35,687,1.76367,-3.65732,0.0307144,-0.00151492,-0.00521337,0.0315367,-0.00233725,-0.156445,0.0218453,0.0481792,1259,337,1.76363,3.65732
42,687,1.82996,-3.50677,0.0378139,-0.00399663,-0.0121229,0.0410746,-0.00725737,-0.262754,0.0300953,0.0488455,1266,337,1.83,3.50676
49,687,1.92969,-3.47638,0.0447617,-0.00613294,-0.018689,0.0508872,-0.0122585,-0.316727,0.0386642,0.0493647,1273,337,1.92963,3.47639
56,687,2.06116,-3.32983,0.0513514,-0.00796561,-0.0244059,0.0601023,-0.0167164,-0.344274,0.0466496,0.0478992,1280,337,2.06114,3.32984
63,687,2.26221,-3.23383,0,0,0,0,0,0,0,-1,1287,337,2.26218,3.23383
70,687,1.21521,-3.46198,0,0,0,0,0,0,0,-1,1294,337,1.21521,3.46197
77,687,1.4519,-3.50217,0,0,0,0,0,0,0,-1,1301,337,1.45196,3.50217
84,687,1.64954,-3.30167,0,0,0,0,0,0,0,-1,1308,337,1.64953,3.30166
91,687,1.58459,-3.22964,0,0,0,0,0,0,0,-1,1315,337,1.58453,3.22963
98,687,1.53137,-3.75958,0,0,0,0,0,0,0,-1,1322,337,1.53131,3.75958
105,687,1.89539,-3.42532,0.0269388,0.00745161,-0.027983,0.046826,-0.0124357,-0.617865,0.0360841,0.0474592,1329,337,1.89535,3.42534
112,687,1.77112,-3.35294,0.0179273,0.0106669,-0.0247696,0.0393314,-0.0107371,-0.712637,0.0304379,0.045377,1336,337,1.7711,3.35295
119,687,1.71497,-3.35785,0.00965404,0.0120202,-0.02121,0.0320801,-0.0104059,-0.813259,0.0255711,0.0442511,1343,337,1.71492,3.35786
126,687,1.29846,-3.63409,0.00114939,0.0126932,-0.018255,0.026067,-0.0122244,-0.938516,0.022584,0.0446342,1350,337,1.29846,3.6341
133,687,1.32764,-3.40811,0,0,0,0,0,0,0,-1,1357,337,1.32758,3.40812
140,687,1.4884,-3.34174,-0.00183979,0.00952416,-0.0139796,0.0189324,-0.011248,-0.978424,0.0176119,0.0477581,1364,337,1.48838,3.34175
147,687,1.61951,-3.3067,-0.00257932,0.00542422,-0.0122195,0.0142805,-0.0114356,-0.94364,0.0148775,0.0466823,1371,337,1.61953,3.3067
154,687,1.77441,-3.25879,0,0,0,0,0,0,0,-1,1378,337,1.77446,3.2588
161,687,6.5564,1.68158,0,0,0,0,0,0,0,-1,1385,337,6.55636,-1.68157
168,687,6.66968,1.37039,-0.00834556,-0.00356145,-0.00911572,0.00347084,-0.0153778,-0.91371,0.0115835,0.0447219,1392,337,6.6697,-1.37039
175,687,6.64075,0.771606,-0.0115275,-0.00678384,-0.00677894,-0.00197379,-0.0163376,-0.953684,0.010297,0.0473543,1399,337,6.64073,-0.771595
182,687,6.67249,0.289917,-0.0163023,-0.0099552,-0.00368065,-0.00826886,-0.0179887,-1.14117,0.010397,0.0484467,1406,337,6.67247,-0.289916
189,687,6.70422,-0.236023,-0.0240076,-0.0110405,-0.0011107,-0.010946,-0.024102,-1.48597,0.0139348,0.0421404,1413,337,6.70428,0.236028
196,687,6.6217,-0.636475,-0.0320018,-0.0108021,0.00190111,-0.010633,-0.0321709,1.48206,0.0189262,0.0411457,1420,337,6.62174,0.636473
203,687,6.19202,-0.80307,-0.0404748,-0.010431,0.00609606,-0.00924122,-0.0416646,1.37804,0.0252657,0.0447375,1427,337,6.19196,0.80308
210,687,5.58691,-0.778076,0,0,0,0,0,0,0,-1,1434,337,5.58694,0.778075
217,687,5.20911,-1.33051,0,0,0,0,0,0,0,-1,1441,337,5.20906,1.33051
224,687,4.47156,-1.73187,-0.060484,-0.00505378,0.0240958,0.00395624,-0.069494,1.21297,0.0477028,0.046653,1448,337,4.4715,1.73188
231,687,3.86426,-1.92059,-0.0641408,2.81119e-05,0.0300101,0.0118756,-0.0759884,1.19479,0.0550461,0.0422194,1455,337,3.86422,1.92058
238,687,3.3302,-1.89178,0,0,0,0,0,0,0,-1,1462,337,3.33016,1.89179
245,687,2.75842,-1.87259,0,0,0,0,0,0,0,-1,1469,337,2.75839,1.87258
252,687,2.2124,-1.83636,0,0,0,0,0,0,0,-1,1476,337,2.2124,1.83638
259,687,0,0,0,0,0,0,0,0,0,-1,1483,337,0,0
266,687,0,0,0,0,0,0,0,0,0,-1,1490,337,0,0
273,687,0,0,0,0,0,0,0,0,0,-1,1497,337,0,0
280,687,0,0,0,0,0,0,0,0,0,-1,1504,337,0,0
287,687,0,0,0,0,0,0,0,0,0,-1,1511,337,0,0
294,687,0,0,0,0,0,0,0,0,0,-1,1518,337,0,0
301,687,0,0,0,0,0,0,0,0,0,-1,1525,337,0,0
308,687,0,0,0,0,0,0,0,0,0,-1,1532,337,0,0
315,687,0,0,0,0,0,0,0,0,0,-1,1539,337,0,0
322,687,0,0,0,0,0,0,0,0,0,-1,1546,337,0,0
329,687,0,0,0,0,0,0,0,0,0,-1,1553,337,0,0
336,687,0,0,0,0,0,0,0,0,0,-1,1560,337,0,0
343,687,0,0,0,0,0,0,0,0,0,-1,1567,337,0,0
350,687,0,0,0,0,0,0,0,0,0,-1,1574,337,0,0
357,687,0,0,0,0,0,0,0,0,0,-1,1581,337,0,0
364,687,0,0,0,0,0,0,0,0,0,-1,1588,337,0,0
371,687,0,0,0,0,0,0,0,0,0,-1,1595,337,0,0
378,687,0,0,0,0,0,0,0,0,0,-1,1602,337,0,0
385,687,0,0,0,0,0,0,0,0,0,-1,1609,337,0,0
392,687,0,0,0,0,0,0,0,0,0,-1,1616,337,0,0
399,687,0,0,0,0,0,0,0,0,0,-1,1623,337,0,0
406,687,0,0,0,0,0,0,0,0,0,-1,1630,337,0,0
413,687,0,0,0,0,0,0,0,0,0,-1,1637,337,0,0
420,687,0,0,0,0,0,0,0,0,0,-1,1644,337,0,0
427,687,0,0,0,0,0,0,0,0,0,-1,1651,337,0,0
434,687,0,0,0,0,0,0,0,0,0,-1,1658,337,0,0
441,687,0,0,0,0,0,0,0,0,0,-1,1665,337,0,0
448,687,0,0,0,0,0,0,0,0,0,-1,1672,337,0,0
455,687,0,0,0,0,0,0,0,0,0,-1,1679,337,0,0
462,687,0,0,0,0,0,0,0,0,0,-1,1686,337,0,0
469,687,0,0,0,0,0,0,0,0,0,-1,1693,337,0,0
476,687,0,0,0,0,0,0,0,0,0,-1,1700,337,0,0
483,687,0,0,0,0,0,0,0,0,0,-1,1707,337,0,0
490,687,0,0,0,0,0,0,0,0,0,-1,1714,337,0,0
497,687,0,0,0,0,0,0,0,0,0,-1,1721,337,0,0
504,687,0,0,0,0,0,0,0,0,0,-1,1728,337,0,0
511,687,0,0,0,0,0,0,0,0,0,-1,1735,337,0,0
518,687,0,0,0,0,0,0,0,0,0,-1,1742,337,0,0
525,687,0,0,0,0,0,0,0,0,0,-1,1749,337,0,0
532,687,0,0,0,0,0,0,0,0,0,-1,1756,337,0,0
539,687,0,0,0,0,0,0,0,0,0,-1,1763,337,0,0
546,687,0,0,0,0,0,0,0,0,0,-1,1770,337,0,0
553,687,0,0,0,0,0,0,0,0,0,-1,1777,337,0,0
560,687,0,0,0,0,0,0,0,0,0,-1,1784,337,0,0
567,687,0,0,0,0,0,0,0,0,0,-1,1791,337,0,0
574,687,0,0,0,0,0,0,0,0,0,-1,1798,337,0,0
581,687,0,0,0,0,0,0,0,0,0,-1,1805,337,0,0
588,687,0,0,0,0,0,0,0,0,0,-1,1812,337,0,0
595,687,0,0,0,0,0,0,0,0,0,-1,1819,337,0,0
602,687,0,0,0,0,0,0,0,0,0,-1,1826,337,0,0
609,687,0,0,0,0,0,0,0,0,0,-1,1833,337,0,0
616,687,0,0,0,0,0,0,0,0,0,-1,1840,337,0,0
623,687,0,0,0,0,0,0,0,0,0,-1,1847,337,0,0
630,687,0,0,0,0,0,0,0,0,0,-1,1854,337,0,0
637,687,0,0,0,0,0,0,0,0,0,-1,1861,337,0,0
644,687,0,0,0,0,0,0,0,0,0,-1,1868,337,0,0
651,687,0,0,0,0,0,0,0,0,0,-1,1875,337,0,0
658,687,0,0,0,0,0,0,0,0,0,-1,1882,337,0,0
665,687,0,0,0,0,0,0,0,0,0,-1,1889,337,0,0
672,687,0,0,0,0,0,0,0,0,0,-1,1896,337,0,0
679,687,0,0,0,0,0,0,0,0,0,-1,1903,337,0,0
686,687,0,0,0,0,0,0,0,0,0,-1,1910,337,0,0
693,687,0,0,0,0,0,0,0,0,0,-1,1917,337,0,0
700,687,0,0,0,0,0,0,0,0,0,-1,1924,337,0,0
707,687,0,0,0,0,0,0,0,0,0,-1,1931,337,0,0
714,687,0,0,0,0,0,0,0,0,0,-1,1938,337,0,0
721,687,0,0,0,0,0,0,0,0,0,-1,1945,337,0,0
728,687,0,0,0,0,0,0,0,0,0,-1,1952,337,0,0
735,687,0,0,0,0,0,0,0,0,0,-1,1959,337,0,0
742,687,0,0,0,0,0,0,0,0,0,-1,1966,337,0,0
749,687,0,0,0,0,0,0,0,0,0,-1,1973,337,0,0
756,687,0,0,0,0,0,0,0,0,0,-1,1980,337,0,0
763,687,0,0,0,0,0,0,0,0,0,-1,1987,337,0,0
770,687,0,0,0,0,0,0,0,0,0,-1,1994,337,0,0
777,687,0,0,0,0,0,0,0,0,0,-1,2001,337,0,0
784,687,0,0,0,0,0,0,0,0,0,-1,2008,337,0,0
791,687,0,0,0,0,0,0,0,0,0,-1,2015,337,0,0
798,687,0,0,0,0,0,0,0,0,0,-1,2022,337,0,0
805,687,0,0,0,0,0,0,0,0,0,-1,2029,337,0,0
812,687,0,0,0,0,0,0,0,0,0,-1,2036,337,0,0
-700,680,0,0,0,0,0,0,0,0,0,-1,524,344,0,0
-693,680,0,0,0,0,0,0,0,0,0,-1,531,344,0,0
-686,680,0,0,0,0,0,0,0,0,0,-1,538,344,0,0
-679,680,0,0,0,0,0,0,0,0,0,-1,545,344,0,0
-672,680,0,0,0,0,0,0,0,0,0,-1,552,344,0,0
-665,680,0,0,0,0,0,0,0,0,0,-1,559,344,0,0
-658,680,0,0,0,0,0,0,0,0,0,-1,566,344,0,0
-651,680,0,0,0,0,0,0,0,0,0,-1,573,344,0,0
-644,680,0,0,0,0,0,0,0,0,0,-1,580,344,0,0
-637,680,0,0,0,0,0,0,0,0,0,-1,587,344,0,0
-630,680,0,0,0,0,0,0,0,0,0,-1,594,344,0,0
-623,680,0,0,0,0,0,0,0,0,0,-1,601,344,0,0
-616,680,0,0,0,0,0,0,0,0,0,-1,608,344,0,0
-609,680,0,0,0,0,0,0,0,0,0,-1,615,344,0,0
-602,680,0,0,0,0,0,0,0,0,0,-1,622,344,0,0
-595,680,0,0,0,0,0,0,0,0,0,-1,629,344,0,0
-588,680,0,0,0,0,0,0,0,0,0,-1,636,344,0,0
-581,680,0,0,0,0,0,0,0,0,0,-1,643,344,0,0
-574,680,0,0,0,0,0,0,0,0,0,-1,650,344,0,0
-567,680,0,0,0,0,0,0,0,0,0,-1,657,344,0,0
-560,680,0,0,0,0,0,0,0,0,0,-1,664,344,0,0
-553,680,0,0,0,0,0,0,0,0,0,-1,671,344,0,0
-546,680,0,0,0,0,0,0,0,0,0,-1,678,344,0,0
-539,680,0,0,0,0,0,0,0,0,0,-1,685,344,0,0
-532,680,0,0,0,0,0,0,0,0,0,-1,692,344,0,0
-525,680,0,0,0,0,0,0,0,0,0,-1,699,344,0,0
-518,680,0,0,0,0,0,0,0,0,0,-1,706,344,0,0
-511,680,0,0,0,0,0,0,0,0,0,-1,713,344,0,0
-504,680,0,0,0,0,0,0,0,0,0,-1,720,344,0,0
-497,680,0,0,0,0,0,0,0,0,0,-1,727,344,0,0
-490,680,0,0,0,0,0,0,0,0,0,-1,734,344,0,0
-483,680,0,0,0,0,0,0,0,0,0,-1,741,344,0,0
-476,680,0,0,0,0,0,0,0,0,0,-1,748,344,0,0
-469,680,0,0,0,0,0,0,0,0,0,-1,755,344,0,0
-462,680,0,0,0,0,0,0,0,0,0,-1,762,344,0,0
-455,680,0,0,0,0,0,0,0,0,0,-1,769,344,0,0
-448,680,0,0,0,0,0,0,0,0,0,-1,776,344,0,0
-441,680,0,0,0,0,0,0,0,0,0,-1,783,344,0,0
-434,680,0,0,0,0,0,0,0,0,0,-1,790,344,0,0
-427,680,0,0,0,0,0,0,0,0,0,-1,797,344,0,0
-420,680,0,0,0,0,0,0,0,0,0,-1,804,344,0,0
-413,680,0,0,0,0,0,0,0,0,0,-1,811,344,0,0
-406,680,0,0,0,0,0,0,0,0,0,-1,818,344,0,0
-399,680,0,0,0,0,0,0,0,0,0,-1,825,344,0,0
-392,680,0,0,0,0,0,0,0,0,0,-1,832,344,0,0
-385,680,0,0,0,0,0,0,0,0,0,-1,839,344,0,0
-378,680,0,0,0,0,0,0,0,0,0,-1,846,344,0,0
-371,680,0,0,0,0,0,0,0,0,0,-1,853,344,0,0
-364,680,0,0,0,0,0,0,0,0,0,-1,860,344,0,0
-357,680,0,0,0,0,0,0,0,0,0,-1,867,344,0,0
-350,680,0,0,0,0,0,0,0,0,0,-1,874,344,0,0
-343,680,0,0,0,0,0,0,0,0,0,-1,881,344,0,0
-336,680,0,0,0,0,0,0,0,0,0,-1,888,344,0,0
-329,680,0,0,0,0,0,0,0,0,0,-1,895,344,0,0
-322,680,0,0,0,0,0,0,0,0,0,-1,902,344,0,0
-315,680,0,0,0,0,0,0,0,0,0,-1,909,344,0,0
-308,680,0,0,0,0,0,0,0,0,0,-1,916,344,0,0
-301,680,0,0,0,0,0,0,0,0,0,-1,923,344,0,0
-294,680,0,0,0,0,0,0,0,0,0,-1,930,344,0,0
-287,680,0,0,0,0,0,0,0,0,0,-1,937,344,0,0
-280,680,0,0,0,0,0,0,0,0,0,-1,944,344,0,0
-273,680,0,0,0,0,0,0,0,0,0,-1,951,344,0,0
-266,680,0,0,0,0,0,0,0,0,0,-1,958,344,0,0
-259,680,0,0,0,0,0,0,0,0,0,-1,965,344,0,0
-252,680,0,0,0,0,0,0,0,0,0,-1,972,344,0,0
-245,680,0,0,0,0,0,0,0,0,0,-1,979,344,0,0
-238,680,0,0,0,0,0,0,0,0,0,-1,986,344,0,0
-231,680,0,0,0,0,0,0,0,0,0,-1,993,344,0,0
-224,680,0,0,0,0,0,0,0,0,0,-1,1000,344,0,0
-217,680,0,0,0,0,0,0,0,0,0,-1,1007,344,0,0
-210,680,0,0,0,0,0,0,0,0,0,-1,1014,344,0,0
-203,680,0,0,0,0,0,0,0,0,0,-1,1021,344,0,0
-196,680,0,0,0,0,0,0,0,0,0,-1,1028,344,0,0
-189,680,0,0,0,0,0,0,0,0,0,-1,1035,344,0,0
-182,680,0,0,0,0,0,0,0,0,0,-1,1042,344,0,0
-175,680,0,0,0,0,0,0,0,0,0,-1,1049,344,0,0
-168,680,0,0,0,0,0,0,0,0,0,-1,1056,344,0,0
-161,680,0,0,0,0,0,0,0,0,0,-1,1063,344,0,0
-154,680,-1.22534,-3.19229,-0.0354405,-0.0601125,0.00385541,-0.034852,-0.060701,0.151457,0.035174,0.0404505,1070,344,-1.22529,3.1923
-147,680,-1.74683,-3.56219,0,0,0,0,0,0,0,-1,1077,344,-1.74686,3.5622
-140,680,1.47595,-6.47455,0,0,0,0,0,0,0,-1,1084,344,1.47597,6.47456
-133,680,1.53552,-6.02216,-0.0424,-0.0628037,-0.00836504,-0.039409,-0.0657947,-0.343395,0.0382339,0.0431102,1091,344,1.53555,6.02214
-126,680,1.5282,-5.39008,-0.0441921,-0.0627387,-0.0146114,-0.0361597,-0.0707711,-0.502639,0.0408629,0.0407288,1098,344,1.52821,5.39008
-119,680,-0.844238,-4.85022,-0.0452627,-0.0611238,-0.0218886,-0.0299123,-0.0764743,-0.611597,0.0444999,0.0415418,1105,344,-0.844279,4.85023
-112,680,-0.72522,-4.771,-0.0447847,-0.0581542,-0.0299789,-0.0207543,-0.0821846,-0.675702,0.0493485,0.0430993,1112,344,-0.72518,4.77099
-105,680,-0.901489,-4.67874,-0.0426897,-0.0531137,-0.037797,-0.00974704,-0.0860563,-0.716883,0.0544136,0.04499,1119,344,-0.901477,4.67875
-98,680,-1.26477,-4.54108,0,0,0,0,0,0,0,-1,1126,344,-1.26477,4.54107
-91,680,-1.29565,-4.51953,-0.037343,-0.0426032,-0.0488855,0.00898313,-0.0889293,-0.758523,0.0624962,0.0441267,1133,344,-1.2956,4.51953
-84,680,-1.59998,-4.05093,-0.035092,-0.0371015,-0.0511196,0.0150328,-0.0872263,-0.775572,0.0637553,0.0432838,1140,344,-1.60003,4.05092
-77,680,-1.83533,-3.58664,0,0,0,0,0,0,0,-1,1147,344,-1.8353,3.58664
-70,680,2.62341,-0.49176,0,0,0,0,0,0,0,-1,1154,344,2.62335,0.491749
-63,680,2.06177,-0.639954,0,0,0,0,0,0,0,-1,1161,344,2.06182,0.639947
-56,680,-0.549072,-0.73291,0,0,0,0,0,0,0,-1,1168,344,-0.549091,0.732904
-49,680,-0.902832,-0.00689697,0,0,0,0,0,0,0,-1,1175,344,-0.902841,0.00689904
-42,680,-1.02368,0.618805,0,0,0,0,0,0,0,-1,1182,344,-1.0237,-0.618797
-35,680,-0.947876,-0.942719,0,0,0,0,0,0,0,-1,1189,344,-0.947842,0.942731
-28,680,-1.46118,-1.10574,0,0,0,0,0,0,0,-1,1196,344,-1.4612,1.10575
-21,680,2.65613,-3.492,0,0,0,0,0,0,0,-1,1203,344,2.65614,3.49199
-14,680,2.43176,-3.68359,0.0207978,0.00351721,0.0146889,0.0291992,-0.00488412,0.519541,0.0212818,0.0466328,1210,344,2.43181,3.6836
-7,680,2.19751,-3.60297,0.0180449,0.0045981,0.0151605,0.027906,-0.00526297,0.576688,0.0205838,0.0458617,1217,344,2.19751,3.60296
0,680,2.34399,-3.5101,0.0142576,0.00567095,0.0144027,0.0249933,-0.00506474,0.640546,0.018582,0.0452975,1224,344,2.34401,3.51009
7,680,2.43896,-3.34073,0.0112368,0.00592591,0.0127028,0.0215588,-0.00439608,0.682361,0.0160399,0.0438974,1231,344,2.43896,3.34073
14,680,2.19995,-3.17853,0.00912899,0.00586749,0.00991761,0.017549,-0.00255255,0.703912,0.0126364,0.0433119,1238,344,2.19993,3.17851
21,680,2.14722,-3.16907,0,0,0,0,0,0,0,-1,1245,344,2.14719,3.16906
28,680,1.47961,-3.43747,0,0,0,0,0,0,0,-1,1252,344,1.47962,3.43746
35,680,1.75122,-3.52881,0.0210459,0.000358011,-0.00264282,0.0213782,2.57362e-05,-0.125071,0.0142436,0.0429342,1259,344,1.75123,3.52882
42,680,1.802,-3.54486,0.0263325,-0.00124499,-0.0076933,0.0283335,-0.003246,-0.25446,0.0200587,0.0421953,1266,344,1.80194,3.54487
49,680,1.97974,-3.53073,0.0315671,-0.00257481,-0.0126205,0.0357256,-0.0067334,-0.318307,0.0263499,0.0421224,1273,344,1.97979,3.53074
56,680,2.01697,-3.40527,0.0365528,-0.00379067,-0.0168784,0.0426827,-0.00992061,-0.348371,0.0322743,0.0412001,1280,344,2.017,3.40526
63,680,2.03381,-3.32364,0.0403158,-0.00462823,-0.0204949,0.0482581,-0.0125706,-0.369709,0.0370795,0.0424447,1287,344,2.03381,3.32363
70,680,1.56677,-3.49463,0.0409183,-0.00333175,-0.0225432,0.0503798,-0.0127933,-0.397379,0.0385649,0.0393282,1294,344,1.56672,3.49464
77,680,1.6543,-3.40787,0.0391718,-0.00173295,-0.0241948,0.0504005,-0.0129616,-0.434513,0.0386522,0.0413405,1301,344,1.65429,3.40788
84,680,1.61414,-3.34436,0.0365178,0.000572429,-0.0248166,0.0491863,-0.0120961,-0.472,0.0374793,0.0440134,1308,344,1.61412,3.34436
91,680,1.49524,-3.24026,0.0319099,0.00265727,-0.0240876,0.0454641,-0.0108969,-0.512545,0.0345199,0.0454405,1315,344,1.49524,3.24027
98,680,0.983887,-3.24402,0.026016,0.00478664,-0.0227081,0.0404679,-0.00966519,-0.566767,0.0307115,0.0427171,1322,344,0.983844,3.24403
105,680,1.96277,-3.47998,0.0194793,0.00698282,-0.0210236,0.0351636,-0.00870138,-0.640954,0.0268176,0.0482511,1329,344,1.9628,3.47998
112,680,1.95105,-3.39511,0.012924,0.00904339,-0.0188342,0.0299176,-0.0079502,-0.734069,0.0230567,0.0481344,1336,344,1.95099,3.39511
119,680,1.84534,-3.3237,0.0070025,0.00958419,-0.0164861,0.0248299,-0.00824321,-0.824468,0.0198791,0.0451146,1343,344,1.84534,3.3237
126,680,1.56995,-3.66254,0.000762981,0.00968466,-0.0144975,0.0203921,-0.00994448,-0.93465,0.0178577,0.0451566,1350,344,1.56997,3.66253
133,680,1.42688,-3.94531,0,0,0,0,0,0,0,-1,1357,344,1.42689,3.94532
140,680,1.71765,-3.42545,0,0,0,0,0,0,0,-1,1364,344,1.7177,3.42544
147,680,1.67041,-3.40396,0,0,0,0,0,0,0,-1,1371,344,1.67043,3.40398
154,680,1.77979,-3.25949,0,0,0,0,0,0,0,-1,1378,344,1.77982,3.25948
161,680,7.16345,2.39545,0,0,0,0,0,0,0,-1,1385,344,7.1635,-2.39543
168,680,6.85046,1.69257,-0.00761508,-0.00340528,-0.00743023,0.00221245,-0.0132328,-0.923426,0.00964432,0.0447538,1392,344,6.85045,-1.69257
175,680,6.66541,0.942078,-0.0105503,-0.00566258,-0.0054135,-0.00216686,-0.014046,-0.997421,0.00873178,0.0444749,1399,344,6.66538,-0.942088
182,680,6.52917,0.532379,-0.0145401,-0.00771418,-0.0027006,-0.00677495,-0.0154793,-1.2361,0.0089601,0.0477926,1406,344,6.52922,-0.532385
189,680,6.41675,0.0169373,-0.0204927,-0.00822539,-0.000360597,-0.0082148,-0.0205033,-1.54144,0.0119152,0.0440586,1413,344,6.41673,-0.0169375
196,680,6.05139,-0.389008,-0.0267253,-0.0074668,0.00231523,-0.00719237,-0.0269997,1.45282,0.0161455,0.0445906,1420,344,6.05138,0.389022
203,680,5.43115,-0.562012,-0.0331073,-0.00668041,0.0057822,-0.00547065,-0.0343171,1.36455,0.0212901,0.0452723,1427,344,5.43119,0.562016
210,680,4.75354,-0.930176,-0.0383863,-0.00476904,0.0103068,-0.00186067,-0.0412946,1.29577,0.026931,0.0445839,1434,344,4.75349,0.930175
217,680,4.34949,-1.40048,-0.0430301,-0.00239724,0.0150445,0.00256666,-0.047994,1.2521,0.0328849,0.0448963,1441,344,4.34943,1.40049
224,680,3.70081,-1.5473,-0.0468445,0.000286007,0.0201803,0.00774597,-0.0543045,1.21671,0.039042,0.0442547,1448,344,3.70079,1.54731
231,680,3.15771,-1.55765,-0.049121,0.00592998,0.0252566,0.0157615,-0.0589526,1.19958,0.0454753,0.0422965,1455,344,3.15766,1.55765
238,680,2.2373,-0.44928,0,0,0,0,0,0,0,-1,1462,344,2.23733,0.449279
245,680,2.24341,0.381073,0,0,0,0,0,0,0,-1,1469,344,2.2434,-0.381079
252,680,2.3999,0.88031,0,0,0,0,0,0,0,-1,1476,344,2.39987,-0.880316
259,680,4.08716,1.00424,0,0,0,0,0,0,0,-1,1483,344,4.08714,-1.00425
266,680,5.80139,1.1601,0,0,0,0,0,0,0,-1,1490,344,5.80135,-1.16009
273,680,2.38562,-0.368774,0,0,0,0,0,0,0,-1,1497,344,2.38558,0.368769
280,680,0,0,0,0,0,0,0,0,0,-1,1504,344,0,0
287,680,0,0,0,0,0,0,0,0,0,-1,1511,344,0,0
294,680,0,0,0,0,0,0,0,0,0,-1,1518,344,0,0
301,680,0,0,0,0,0,0,0,0,0,-1,1525,344,0,0
308,680,0,0,0,0,0,0,0,0,0,-1,1532,344,0,0
315,680,0,0,0,0,0,0,0,0,0,-1,1539,344,0,0
322,680,0,0,0,0,0,0,0,0,0,-1,1546,344,0,0
329,680,0,0,0,0,0,0,0,0,0,-1,1553,344,0,0
336,680,0,0,0,0,0,0,0,0,0,-1,1560,344,0,0
343,680,0,0,0,0,0,0,0,0,0,-1,1567,344,0,0
350,680,0,0,0,0,0,0,0,0,0,-1,1574,344,0,0
357,680,0,0,0,0,0,0,0,0,0,-1,1581,344,0,0
364,680,0,0,0,0,0,0,0,0,0,-1,1588,344,0,0
371,680,0,0,0,0,0,0,0,0,0,-1,1595,344,0,0
378,680,0,0,0,0,0,0,0,0,0,-1,1602,344,0,0
385,680,0,0,0,0,0,0,0,0,0,-1,1609,344,0,0
392,680,0,0,0,0,0,0,0,0,0,-1,1616,344,0,0
399,680,0,0,0,0,0,0,0,0,0,-1,1623,344,0,0
406,680,0,0,0,0,0,0,0,0,0,-1,1630,344,0,0
413,680,0,0,0,0,0,0,0,0,0,-1,1637,344,0,0
420,680,0,0,0,0,0,0,0,0,0,-1,1644,344,0,0
427,680,0,0,0,0,0,0,0,0,0,-1,1651,344,0,0
434,680,0,0,0,0,0,0,0,0,0,-1,1658,344,0,0
441,680,0,0,0,0,0,0,0,0,0,-1,1665,344,0,0
448,680,0,0,0,0,0,0,0,0,0,-1,1672,344,0,0
455,680,0,0,0,0,0,0,0,0,0,-1,1679,344,0,0
462,680,0,0,0,0,0,0,0,0,0,-1,1686,344,0,0
469,680,0,0,0,0,0,0,0,0,0,-1,1693,344,0,0
476,680,0,0,0,0,0,0,0,0,0,-1,1700,344,0,0
483,680,0,0,0,0,0,0,0,0,0,-1,1707,344,0,0
490,680,0,0,0,0,0,0,0,0,0,-1,1714,344,0,0
497,680,0,0,0,0,0,0,0,0,0,-1,1721,344,0,0
504,680,0,0,0,0,0,0,0,0,0,-1,1728,344,0,0
511,680,0,0,0,0,0,0,0,0,0,-1,1735,344,0,0
518,680,0,0,0,0,0,0,0,0,0,-1,1742,344,0,0
525,680,0,0,0,0,0,0,0,0,0,-1,1749,344,0,0
532,680,0,0,0,0,0,0,0,0,0,-1,1756,344,0,0
539,680,0,0,0,0,0,0,0,0,0,-1,1763,344,0,0
546,680,0,0,0,0,0,0,0,0,0,-1,1770,344,0,0
553,680,0,0,0,0,0,0,0,0,0,-1,1777,344,0,0
560,680,0,0,0,0,0,0,0,0,0,-1,1784,344,0,0
567,680,0,0,0,0,0,0,0,0,0,-1,1791,344,0,0
574,680,0,0,0,0,0,0,0,0,0,-1,1798,344,0,0
581,680,0,0,0,0,0,0,0,0,0,-1,1805,344,0,0
588,680,0,0,0,0,0,0,0,0,0,-1,1812,344,0,0
595,680,0,0,0,0,0,0,0,0,0,-1,1819,344,0,0
602,680,0,0,0,0,0,0,0,0,0,-1,1826,344,0,0
609,680,0,0,0,0,0,0,0,0,0,-1,1833,344,0,0
616,680,0,0,0,0,0,0,0,0,0,-1,1840,344,0,0
623,680,0,0,0,0,0,0,0,0,0,-1,1847,344,0,0
630,680,0,0,0,0,0,0,0,0,0,-1,1854,344,0,0
637,680,0,0,0,0,0,0,0,0,0,-1,1861,344,0,0
644,680,0,0,0,0,0,0,0,0,0,-1,1868,344,0,0
651,680,0,0,0,0,0,0,0,0,0,-1,1875,344,0,0
658,680,0,0,0,0,0,0,0,0,0,-1,1882,344,0,0
665,680,0,0,0,0,0,0,0,0,0,-1,1889,344,0,0
672,680,0,0,0,0,0,0,0,0,0,-1,1896,344,0,0
679,680,0,0,0,0,0,0,0,0,0,-1,1903,344,0,0
686,680,0,0,0,0,0,0,0,0,0,-1,1910,344,0,0
693,680,0,0,0,0,0,0,0,0,0,-1,1917,344,0,0
700,680,0,0,0,0,0,0,0,0,0,-1,1924,344,0,0
707,680,0,0,0,0,0,0,0,0,0,-1,1931,344,0,0
714,680,0,0,0,0,0,0,0,0,0,-1,1938,344,0,0
721,680,0,0,0,0,0,0,0,0,0,-1,1945,344,0,0
728,680,0,0,0,0,0,0,0,0,0,-1,1952,344,0,0
735,680,0,0,0,0,0,0,0,0,0,-1,1959,344,0,0
742,680,0,0,0,0,0,0,0,0,0,-1,1966,344,0,0
749,680,0,0,0,0,0,0,0,0,0,-1,1973,344,0,0
756,680,0,0,0,0,0,0,0,0,0,-1,1980,344,0,0
763,680,0,0,0,0,0,0,0,0,0,-1,1987,344,0,0
770,680,0,0,0,0,0,0,0,0,0,-1,1994,344,0,0
777,680,0,0,0,0,0,0,0,0,0,-1,2001,344,0,0
784,680,0,0,0,0,0,0,0,0,0,-1,2008,344,0,0
791,680,0,0,0,0,0,0,0,0,0,-1,2015,344,0,0
798,680,0,0,0,0,0,0,0,0,0,-1,2022,344,0,0
805,680,0,0,0,0,0,0,0,0,0,-1,2029,344,0,0
812,680,0,0,0,0,0,0,0,0,0,-1,2036,344,0,0
-700,673,0,0,0,0,0,0,0,0,0,-1,524,351,0,0
-693,673,0,0,0,0,0,0,0,0,0,-1,531,351,0,0
-686,673,0,0,0,0,0,0,0,0,0,-1,538,351,0,0
-679,673,0,0,0,0,0,0,0,0,0,-1,545,351,0,0
-672,673,0,0,0,0,0,0,0,0,0,-1,552,351,0,0
-665,673,0,0,0,0,0,0,0,0,0,-1,559,351,0,0
-658,673,0,0,0,0,0,0,0,0,0,-1,566,351,0,0
-651,673,0,0,0,0,0,0,0,0,0,-1,573,351,0,0
-644,673,0,0,0,0,0,0,0,0,0,-1,580,351,0,0
-637,673,0,0,0,0,0,0,0,0,0,-1,587,351,0,0
-630,673,0,0,0,0,0,0,0,0,0,-1,594,351,0,0
-623,673,0,0,0,0,0,0,0,0,0,-1,601,351,0,0
-616,673,0,0,0,0,0,0,0,0,0,-1,608,351,0,0
-609,673,0,0,0,0,0,0,0,0,0,-1,615,351,0,0
-602,673,0,0,0,0,0,0,0,0,0,-1,622,351,0,0
-595,673,0,0,0,0,0,0,0,0,0,-1,629,351,0,0
-588,673,0,0,0,0,0,0,0,0,0,-1,636,351,0,0
-581,673,0,0,0,0,0,0,0,0,0,-1,643,351,0,0
-574,673,0,0,0,0,0,0,0,0,0,-1,650,351,0,0
-567,673,0,0,0,0,0,0,0,0,0,-1,657,351,0,0
-560,673,0,0,0,0,0,0,0,0,0,-1,664,351,0,0
-553,673,0,0,0,0,0,0,0,0,0,-1,671,351,0,0
-546,673,0,0,0,0,0,0,0,0,0,-1,678,351,0,0
-539,673,0,0,0,0,0,0,0,0,0,-1,685,351,0,0
-532,673,0,0,0,0,0,0,0,0,0,-1,692,351,0,0
-525,673,0,0,0,0,0,0,0,0,0,-1,699,351,0,0
-518,673,0,0,0,0,0,0,0,0,0,-1,706,351,0,0
-511,673,0,0,0,0,0,0,0,0,0,-1,713,351,0,0
-504,673,0,0,0,0,0,0,0,0,0,-1,720,351,0,0
-497,673,0,0,0,0,0,0,0,0,0,-1,727,351,0,0
-490,673,0,0,0,0,0,0,0,0,0,-1,734,351,0,0
-483,673,0,0,0,0,0,0,0,0,0,-1,741,351,0,0
-476,673,0,0,0,0,0,0,0,0,0,-1,748,351,0,0
-469,673,0,0,0,0,0,0,0,0,0,-1,755,351,0,0
-462,673,0,0,0,0,0,0,0,0,0,-1,762,351,0,0
-455,673,0,0,0,0,0,0,0,0,0,-1,769,351,0,0
-448,673,0,0,0,0,0,0,0,0,0,-1,776,351,0,0
-441,673,0,0,0,0,0,0,0,0,0,-1,783,351,0,0
-434,673,0,0,0,0,0,0,0,0,0,-1,790,351,0,0
-427,673,0,0,0,0,0,0,0,0,0,-1,797,351,0,0
-420,673,0,0,0,0,0,0,0,0,0,-1,804,351,0,0
-413,673,0,0,0,0,0,0,0,0,0,-1,811,351,0,0
-406,673,0,0,0,0,0,0,0,0,0,-1,818,351,0,0
-399,673,0,0,0,0,0,0,0,0,0,-1,825,351,0,0
-392,673,0,0,0,0,0,0,0,0,0,-1,832,351,0,0
-385,673,0,0,0,0,0,0,0,0,0,-1,839,351,0,0
-378,673,0,0,0,0,0,0,0,0,0,-1,846,351,0,0
-371,673,0,0,0,0,0,0,0,0,0,-1,853,351,0,0
-364,673,0,0,0,0,0,0,0,0,0,-1,860,351,0,0
-357,673,0,0,0,0,0,0,0,0,0,-1,867,351,0,0
-350,673,0,0,0,0,0,0,0,0,0,-1,874,351,0,0
-343,673,0,0,0,0,0,0,0,0,0,-1,881,351,0,0
-336,673,0,0,0,0,0,0,0,0,0,-1,888,351,0,0
-329,673,0,0,0,0,0,0,0,0,0,-1,895,351,0,0
-322,673,0,0,0,0,0,0,0,0,0,-1,902,351,0,0
-315,673,0,0,0,0,0,0,0,0,0,-1,909,351,0,0
-308,673,0,0,0,0,0,0,0,0,0,-1,916,351,0,0
-301,673,0,0,0,0,0,0,0,0,0,-1,923,351,0,0
-294,673,0,0,0,0,0,0,0,0,0,-1,930,351,0,0
-287,673,0,0,0,0,0,0,0,0,0,-1,937,351,0,0
-280,673,0,0,0,0,0,0,0,0,0,-1,944,351,0,0
-273,673,0,0,0,0,0,0,0,0,0,-1,951,351,0,0
-266,673,0,0,0,0,0,0,0,0,0,-1,958,351,0,0
-259,673,0,0,0,0,0,0,0,0,0,-1,965,351,0,0
-252,673,0,0,0,0,0,0,0,0,0,-1,972,351,0,0
-245,673,0,0,0,0,0,0,0,0,0,-1,979,351,0,0
-238,673,0,0,0,0,0,0,0,0,0,-1,986,351,0,0
-231,673,0,0,0,0,0,0,0,0,0,-1,993,351,0,0
-224,673,0,0,0,0,0,0,0,0,0,-1,1000,351,0,0
-217,673,0,0,0,0,0,0,0,0,0,-1,1007,351,0,0
-210,673,0,0,0,0,0,0,0,0,0,-1,1014,351,0,0
-203,673,0,0,0,0,0,0,0,0,0,-1,1021,351,0,0
-196,673,0,0,0,0,0,0,0,0,0,-1,1028,351,0,0
-189,673,0,0,0,0,0,0,0,0,0,-1,1035,351,0,0
-182,673,0,0,0,0,0,0,0,0,0,-1,1042,351,0,0
-175,673,-0.492798,-4.35629,0,0,0,0,0,0,0,-1,1049,351,-0.492845,4.35629
-168,673,-0.223755,-3.69739,-0.0163386,-0.052941,0.00483062,-0.0157118,-0.0535678,0.129033,0.031796,0.0484562,1056,351,-0.223815,3.69739
-161,673,-0.345459,-3.36862,0,0,0,0,0,0,0,-1,1063,351,-0.345422,3.36861
-154,673,-0.551392,-3.68719,0,0,0,0,0,0,0,-1,1070,351,-0.55145,3.68719
-147,673,1.60034,-6.31897,0,0,0,0,0,0,0,-1,1077,351,1.6003,6.31897
-140,673,1.57556,-5.96143,-0.0260093,-0.0553606,-0.00385215,-0.0255122,-0.0558578,-0.128347,0.0322897,0.0425701,1084,351,1.57553,5.96143
-133,673,1.55151,-5.47421,-0.0271579,-0.0530372,-0.00847711,-0.0246283,-0.0555668,-0.289985,0.0321504,0.0422305,1091,351,1.55157,5.47421
-126,673,1.48193,-4.96219,-0.028961,-0.052034,-0.0131145,-0.0230309,-0.057964,-0.424661,0.0336999,0.0422101,1098,351,1.48189,4.96218
-119,673,1.08203,-4.23181,0,0,0,0,0,0,0,-1,1105,351,1.08198,4.23181
-112,673,1.29614,-3.78607,0,0,0,0,0,0,0,-1,1112,351,1.29614,3.78608
-105,673,0.0510254,-4.12225,-0.0293846,-0.0422348,-0.0303907,-0.00474718,-0.0668722,-0.681224,0.0430863,0.0414409,1119,351,0.05101,4.12227
-98,673,-0.353027,-4.06238,-0.0275511,-0.0379449,-0.0350154,0.00265094,-0.068147,-0.711727,0.0463403,0.0425086,1126,351,-0.353078,4.06237
-91,673,-0.786865,-3.9772,-0.0255646,-0.0326987,-0.038401,0.00943466,-0.067698,-0.739086,0.0485832,0.0441717,1133,351,-0.786806,3.97719
-84,673,-1.01465,-3.8045,-0.0238593,-0.0276529,-0.0400137,0.0143026,-0.0658148,-0.761714,0.0493399,0.0424832,1140,351,-1.01462,3.8045
-77,673,2.28076,-3.04514,0,0,0,0,0,0,0,-1,1147,351,2.28071,3.04515
-70,673,2.19861,-2.94849,0,0,0,0,0,0,0,-1,1154,351,2.1986,2.9485
-63,673,1.57336,-1.20746,0,0,0,0,0,0,0,-1,1161,351,1.57334,1.20747
-56,673,-0.416016,-0.689301,0,0,0,0,0,0,0,-1,1168,351,-0.416043,0.689298
-49,673,-0.926758,-0.115448,0,0,0,0,0,0,0,-1,1175,351,-0.926732,0.115444
-42,673,-1.15015,0.289917,0,0,0,0,0,0,0,-1,1182,351,-1.15017,-0.289932
-35,673,-0.919556,-1.00711,0,0,0,0,0,0,0,-1,1189,351,-0.919514,1.00711
-28,673,1.03564,-2.58228,0,0,0,0,0,0,0,-1,1196,351,1.0356,2.58229
-21,673,2.01709,-3.55948,0,0,0,0,0,0,0,-1,1203,351,2.01713,3.55946
-14,673,2.05127,-3.58295,0.0130857,0.00299907,0.0106141,0.0197938,-0.00370899,0.563612,0.0145902,0.045482,1210,351,2.05122,3.58296
-7,673,2.12903,-3.57397,0.0115179,0.00372582,0.01109,0.0193763,-0.0041326,0.616477,0.0144928,0.0406458,1217,351,2.12906,3.57398
0,673,2.30835,-3.50473,0.00907054,0.00449693,0.0105672,0.0175956,-0.00402809,0.678839,0.0132783,0.0404759,1224,351,2.30832,3.50474
7,673,2.28772,-3.47687,0.00707013,0.00474719,0.00939904,0.0153792,-0.00356187,0.723923,0.0116234,0.0406928,1231,351,2.28772,3.47688
14,673,2.146,-3.47263,0.00553556,0.00485707,0.00758472,0.0127886,-0.00239599,0.763049,0.00942646,0.0368516,1238,351,2.14598,3.47263
21,673,2.09387,-3.55414,0.0074813,0.00373644,0.00546687,0.0113875,-0.000169769,0.620407,0.00764889,0.0244488,1245,351,2.09387,3.55414
28,673,2.08875,-3.56509,0.011148,0.00243358,0.00173624,0.0114812,0.0021004,0.189596,0.00705894,0.0170539,1252,351,2.0888,3.56509
35,673,2.06458,-3.57101,0.0139134,0.00137943,-0.00113612,0.0140156,0.00127728,-0.0896696,0.00894839,0.0239247,1259,351,2.06462,3.571
42,673,2.04492,-3.56171,0.0176371,0.000422302,-0.00472395,0.0188482,-0.000788803,-0.25097,0.0128365,0.0255969,1266,351,2.04489,3.56169
49,673,2.0282,-3.5657,0.0213486,-0.000322883,-0.00831377,0.0241705,-0.00314481,-0.327226,0.0172577,0.0162085,1273,351,2.02821,3.56571
56,673,2.04138,-3.5712,0.0249493,-0.0010773,-0.0114049,0.0292397,-0.00536772,-0.359813,0.0215069,0.0133995,1280,351,2.04136,3.5712
63,673,2.07129,-3.56018,0.0277476,-0.00159111,-0.0140723,0.033406,-0.00724955,-0.382314,0.0250395,0.0166829,1287,351,2.07131,3.56019
70,673,2.0365,-3.5864,0.0284186,-0.000664956,-0.0157012,0.0352776,-0.00752392,-0.411859,0.0263864,0.0267516,1294,351,2.03655,3.5864
77,673,1.94226,-3.53433,0.0272993,0.000427132,-0.0170937,0.0356054,-0.007879,-0.452318,0.0267529,0.0338769,1301,351,1.94229,3.53433
84,673,1.77771,-3.56439,0.0254956,0.00206503,-0.0177155,0.0350191,-0.00745848,-0.493258,0.0261887,0.0358695,1308,351,1.77767,3.56438
91,673,1.65906,-3.54929,0.0222644,0.00347416,-0.0173526,0.032602,-0.00686346,-0.53728,0.0243471,0.0413994,1315,351,1.65912,3.54928
98,673,1.67651,-3.59338,0.0180878,0.0048631,-0.0165139,0.029264,-0.00631306,-0.594967,0.0219189,0.0446638,1322,351,1.67657,3.59338
105,673,1.96021,-3.52295,0.0135057,0.00625304,-0.0154428,0.0257422,-0.00598349,-0.670076,0.019465,0.0420411,1329,351,1.96024,3.52295
112,673,1.95959,-3.41931,0.0089405,0.00749526,-0.0140066,0.0222431,-0.00580739,-0.759625,0.0170966,0.0424123,1336,351,1.95957,3.41931
119,673,2.03381,-3.35297,0.00488043,0.00755864,-0.0125261,0.018817,-0.00637791,-0.838649,0.0151257,0.0407742,1343,351,2.03385,3.35296
126,673,1.92273,-3.40479,0.000452073,0.00736247,-0.0112293,0.0156561,-0.00784155,-0.934649,0.0138142,0.0405971,1350,351,1.92276,3.40477
133,673,1.82983,-3.32449,-0.00192504,0.00727352,-0.0094261,0.0131626,-0.00781408,-1.01237,0.0122414,0.0427414,1357,351,1.82978,3.32448
140,673,1.82471,-3.45081,-0.00132951,0.00492408,-0.00915512,0.0114716,-0.00787706,-0.949955,0.011235,0.0439837,1364,351,1.82468,3.45079
147,673,1.80005,-3.46127,-0.00188394,0.00228541,-0.0081868,0.00864878,-0.00824731,-0.910068,0.00975588,0.042735,1371,351,1.80002,3.46128
154,673,1.85767,-3.37869,-0.00313802,-0.000336009,-0.00721761,0.00561531,-0.00908934,-0.881261,0.00856835,0.0420159,1378,351,1.85765,3.37868
161,673,1.80518,-3.36661,0,0,0,0,0,0,0,-1,1385,351,1.80519,3.36661
168,673,6.87061,1.83954,0,0,0,0,0,0,0,-1,1392,351,6.87063,-1.83953
175,673,6.6228,1.1459,0,0,0,0,0,0,0,-1,1399,351,6.62276,-1.14591
182,673,6.37244,0.796112,0,0,0,0,0,0,0,-1,1406,351,6.3724,-0.796102
189,673,6.12097,0.265472,0,0,0,0,0,0,0,-1,1413,351,6.121,-0.265482
196,673,5.52942,-0.0288696,0,0,0,0,0,0,0,-1,1420,351,5.52943,0.0288647
203,673,4.63843,-0.285431,0,0,0,0,0,0,0,-1,1427,351,4.63841,0.285429
210,673,4.30444,-1.40207,-0.029924,-0.00188151,0.00886424,0.000685496,-0.032491,1.28892,0.0218927,0.0434641,1434,351,4.30443,1.40206
217,673,3.83289,-1.58896,-0.0329867,0.000611472,0.0125373,0.0047741,-0.0371493,1.25023,0.0265013,0.0426558,1441,351,3.83292,1.58895
224,673,2.92334,-1.293,0,0,0,0,0,0,0,-1,1448,351,2.92329,1.29301
231,673,2.84106,-1.21011,0,0,0,0,0,0,0,-1,1455,351,2.84107,1.21011
238,673,2.4021,-0.884003,0,0,0,0,0,0,0,-1,1462,351,2.40213,0.883988
245,673,2.20886,-0.465424,0,0,0,0,0,0,0,-1,1469,351,2.20886,0.465432
252,673,1.96436,0.0391846,0,0,0,0,0,0,0,-1,1476,351,1.96438,-0.0391984
259,673,2.40918,0.384491,0,0,0,0,0,0,0,-1,1483,351,2.40917,-0.38448
266,673,4.79993,0.762909,0,0,0,0,0,0,0,-1,1490,351,4.79997,-0.762899
273,673,2.20386,-0.244995,0,0,0,0,0,0,0,-1,1497,351,2.20387,0.244998
280,673,2.55981,-0.679382,0,0,0,0,0,0,0,-1,1504,351,2.55983,0.679369
287,673,2.83179,-1.64041,0,0,0,0,0,0,0,-1,1511,351,2.83184,1.6404
294,673,3.03003,-2.29312,0,0,0,0,0,0,0,-1,1518,351,3.02997,2.29311
301,673,0,0,0,0,0,0,0,0,0,-1,1525,351,0,0
308,673,0,0,0,0,0,0,0,0,0,-1,1532,351,0,0
315,673,0,0,0,0,0,0,0,0,0,-1,1539,351,0,0
322,673,0,0,0,0,0,0,0,0,0,-1,1546,351,0,0
329,673,0,0,0,0,0,0,0,0,0,-1,1553,351,0,0
336,673,0,0,0,0,0,0,0,0,0,-1,1560,351,0,0
343,673,0,0,0,0,0,0,0,0,0,-1,1567,351,0,0
350,673,0,0,0,0,0,0,0,0,0,-1,1574,351,0,0
357,673,0,0,0,0,0,0,0,0,0,-1,1581,351,0,0
364,673,0,0,0,0,0,0,0,0,0,-1,1588,351,0,0
371,673,0,0,0,0,0,0,0,0,0,-1,1595,351,0,0
378,673,0,0,0,0,0,0,0,0,0,-1,1602,351,0,0
385,673,0,0,0,0,0,0,0,0,0,-1,1609,351,0,0
392,673,0,0,0,0,0,0,0,0,0,-1,1616,351,0,0
399,673,0,0,0,0,0,0,0,0,0,-1,1623,351,0,0
406,673,0,0,0,0,0,0,0,0,0,-1,1630,351,0,0
413,673,0,0,0,0,0,0,0,0,0,-1,1637,351,0,0
420,673,0,0,0,0,0,0,0,0,0,-1,1644,351,0,0
427,673,0,0,0,0,0,0,0,0,0,-1,1651,351,0,0
434,673,0,0,0,0,0,0,0,0,0,-1,1658,351,0,0
441,673,0,0,0,0,0,0,0,0,0,-1,1665,351,0,0
448,673,0,0,0,0,0,0,0,0,0,-1,1672,351,0,0
455,673,0,0,0,0,0,0,0,0,0,-1,1679,351,0,0
462,673,0,0,0,0,0,0,0,0,0,-1,1686,351,0,0
469,673,0,0,0,0,0,0,0,0,0,-1,1693,351,0,0
476,673,0,0,0,0,0,0,0,0,0,-1,1700,351,0,0
483,673,0,0,0,0,0,0,0,0,0,-1,1707,351,0,0
490,673,0,0,0,0,0,0,0,0,0,-1,1714,351,0,0
497,673,0,0,0,0,0,0,0,0,0,-1,1721,351,0,0
504,673,0,0,0,0,0,0,0,0,0,-1,1728,351,0,0
511,673,0,0,0,0,0,0,0,0,0,-1,1735,351,0,0
518,673,0,0,0,0,0,0,0,0,0,-1,1742,351,0,0
525,673,0,0,0,0,0,0,0,0,0,-1,1749,351,0,0
532,673,0,0,0,0,0,0,0,0,0,-1,1756,351,0,0
539,673,0,0,0,0,0,0,0,0,0,-1,1763,351,0,0
546,673,0,0,0,0,0,0,0,0,0,-1,1770,351,0,0
553,673,0,0,0,0,0,0,0,0,0,-1,1777,351,0,0
560,673,0,0,0,0,0,0,0,0,0,-1,1784,351,0,0
567,673,0,0,0,0,0,0,0,0,0,-1,1791,351,0,0
574,673,0,0,0,0,0,0,0,0,0,-1,1798,351,0,0
581,673,0,0,0,0,0,0,0,0,0,-1,1805,351,0,0
588,673,0,0,0,0,0,0,0,0,0,-1,1812,351,0,0
595,673,0,0,0,0,0,0,0,0,0,-1,1819,351,0,0
602,673,0,0,0,0,0,0,0,0,0,-1,1826,351,0,0
609,673,0,0,0,0,0,0,0,0,0,-1,1833,351,0,0
616,673,0,0,0,0,0,0,0,0,0,-1,1840,351,0,0
623,673,0,0,0,0,0,0,0,0,0,-1,1847,351,0,0
630,673,0,0,0,0,0,0,0,0,0,-1,1854,351,0,0
637,673,0,0,0,0,0,0,0,0,0,-1,1861,351,0,0
644,673,0,0,0,0,0,0,0,0,0,-1,1868,351,0,0
651,673,0,0,0,0,0,0,0,0,0,-1,1875,351,0,0
658,673,0,0,0,0,0,0,0,0,0,-1,1882,351,0,0
665,673,0,0,0,0,0,0,0,0,0,-1,1889,351,0,0
672,673,0,0,0,0,0,0,0,0,0,-1,1896,351,0,0
679,673,0,0,0,0,0,0,0,0,0,-1,1903,351,0,0
686,673,0,0,0,0,0,0,0,0,0,-1,1910,351,0,0
693,673,0,0,0,0,0,0,0,0,0,-1,1917,351,0,0
700,673,0,0,0,0,0,0,0,0,0,-1,1924,351,0,0
707,673,0,0,0,0,0,0,0,0,0,-1,1931,351,0,0
714,673,0,0,0,0,0,0,0,0,0,-1,1938,351,0,0
721,673,0,0,0,0,0,0,0,0,0,-1,1945,351,0,0
728,673,0,0,0,0,0,0,0,0,0,-1,1952,351,0,0
735,673,0,0,0,0,0,0,0,0,0,-1,1959,351,0,0
742,673,0,0,0,0,0,0,0,0,0,-1,1966,351,0,0
749,673,0,0,0,0,0,0,0,0,0,-1,1973,351,0,0
756,673,0,0,0,0,0,0,0,0,0,-1,1980,351,0,0
763,673,0,0,0,0,0,0,0,0,0,-1,1987,351,0,0
770,673,0,0,0,0,0,0,0,0,0,-1,1994,351,0,0
777,673,0,0,0,0,0,0,0,0,0,-1,2001,351,0,0
784,673,0,0,0,0,0,0,0,0,0,-1,2008,351,0,0
791,673,0,0,0,0,0,0,0,0,0,-1,2015,351,0,0
798,673,0,0,0,0,0,0,0,0,0,-1,2022,351,0,0
805,673,0,0,0,0,0,0,0,0,0,-1,2029,351,0,0
812,673,0,0,0,0,0,0,0,0,0,-1,2036,351,0,0
-700,666,0,0,0,0,0,0,0,0,0,-1,524,358,0,0
-693,666,0,0,0,0,0,0,0,0,0,-1,531,358,0,0
-686,666,0,0,0,0,0,0,0,0,0,-1,538,358,0,0
-679,666,0,0,0,0,0,0,0,0,0,-1,545,358,0,0
-672,666,0,0,0,0,0,0,0,0,0,-1,552,358,0,0
-665,666,0,0,0,0,0,0,0,0,0,-1,559,358,0,0
-658,666,0,0,0,0,0,0,0,0,0,-1,566,358,0,0
-651,666,0,0,0,0,0,0,0,0,0,-1,573,358,0,0
-644,666,0,0,0,0,0,0,0,0,0,-1,580,358,0,0
-637,666,0,0,0,0,0,0,0,0,0,-1,587,358,0,0
-630,666,0,0,0,0,0,0,0,0,0,-1,594,358,0,0
-623,666,0,0,0,0,0,0,0,0,0,-1,601,358,0,0
-616,666,0,0,0,0,0,0,0,0,0,-1,608,358,0,0
-609,666,0,0,0,0,0,0,0,0,0,-1,615,358,0,0
-602,666,0,0,0,0,0,0,0,0,0,-1,622,358,0,0
-595,666,0,0,0,0,0,0,0,0,0,-1,629,358,0,0
-588,666,0,0,0,0,0,0,0,0,0,-1,636,358,0,0
-581,666,0,0,0,0,0,0,0,0,0,-1,643,358,0,0
-574,666,0,0,0,0,0,0,0,0,0,-1,650,358,0,0
-567,666,0,0,0,0,0,0,0,0,0,-1,657,358,0,0
-560,666,0,0,0,0,0,0,0,0,0,-1,664,358,0,0
-553,666,0,0,0,0,0,0,0,0,0,-1,671,358,0,0
-546,666,0,0,0,0,0,0,0,0,0,-1,678,358,0,0
-539,666,0,0,0,0,0,0,0,0,0,-1,685,358,0,0
-532,666,0,0,0,0,0,0,0,0,0,-1,692,358,0,0
-525,666,0,0,0,0,0,0,0,0,0,-1,699,358,0,0
-518,666,0,0,0,0,0,0,0,0,0,-1,706,358,0,0
-511,666,0,0,0,0,0,0,0,0,0,-1,713,358,0,0
-504,666,0,0,0,0,0,0,0,0,0,-1,720,358,0,0
-497,666,0,0,0,0,0,0,0,0,0,-1,727,358,0,0
-490,666,0,0,0,0,0,0,0,0,0,-1,734,358,0,0
-483,666,0,0,0,0,0,0,0,0,0,-1,741,358,0,0
-476,666,0,0,0,0,0,0,0,0,0,-1,748,358,0,0
-469,666,0,0,0,0,0,0,0,0,0,-1,755,358,0,0
-462,666,0,0,0,0,0,0,0,0,0,-1,762,358,0,0
-455,666,0,0,0,0,0,0,0,0,0,-1,769,358,0,0
-448,666,0,0,0,0,0,0,0,0,0,-1,776,358,0,0
-441,666,0,0,0,0,0,0,0,0,0,-1,783,358,0,0
-434,666,0,0,0,0,0,0,0,0,0,-1,790,358,0,0
-427,666,0,0,0,0,0,0,0,0,0,-1,797,358,0,0
-420,666,0,0,0,0,0,0,0,0,0,-1,804,358,0,0
-413,666,0,0,0,0,0,0,0,0,0,-1,811,358,0,0
-406,666,0,0,0,0,0,0,0,0,0,-1,818,358,0,0
-399,666,0,0,0,0,0,0,0,0,0,-1,825,358,0,0
-392,666,0,0,0,0,0,0,0,0,0,-1,832,358,0,0
-385,666,0,0,0,0,0,0,0,0,0,-1,839,358,0,0
-378,666,0,0,0,0,0,0,0,0,0,-1,846,358,0,0
-371,666,0,0,0,0,0,0,0,0,0,-1,853,358,0,0
-364,666,0,0,0,0,0,0,0,0,0,-1,860,358,0,0
-357,666,0,0,0,0,0,0,0,0,0,-1,867,358,0,0
-350,666,0,0,0,0,0,0,0,0,0,-1,874,358,0,0
-343,666,0,0,0,0,0,0,0,0,0,-1,881,358,0,0
-336,666,0,0,0,0,0,0,0,0,0,-1,888,358,0,0
-329,666,0,0,0,0,0,0,0,0,0,-1,895,358,0,0
-322,666,0,0,0,0,0,0,0,0,0,-1,902,358,0,0
-315,666,0,0,0,0,0,0,0,0,0,-1,909,358,0,0
-308,666,0,0,0,0,0,0,0,0,0,-1,916,358,0,0
-301,666,0,0,0,0,0,0,0,0,0,-1,923,358,0,0
-294,666,0,0,0,0,0,0,0,0,0,-1,930,358,0,0
-287,666,0,0,0,0,0,0,0,0,0,-1,937,358,0,0
-280,666,0,0,0,0,0,0,0,0,0,-1,944,358,0,0
-273,666,0,0,0,0,0,0,0,0,0,-1,951,358,0,0
-266,666,0,0,0,0,0,0,0,0,0,-1,958,358,0,0
-259,666,0,0,0,0,0,0,0,0,0,-1,965,358,0,0
-252,666,0,0,0,0,0,0,0,0,0,-1,972,358,0,0
-245,666,0,0,0,0,0,0,0,0,0,-1,979,358,0,0
-238,666,0,0,0,0,0,0,0,0,0,-1,986,358,0,0
-231,666,0,0,0,0,0,0,0,0,0,-1,993,358,0,0
-224,666,0,0,0,0,0,0,0,0,0,-1,1000,358,0,0
-217,666,0,0,0,0,0,0,0,0,0,-1,1007,358,0,0
-210,666,0,0,0,0,0,0,0,0,0,-1,1014,358,0,0
-203,666,0,0,0,0,0,0,0,0,0,-1,1021,358,0,0
-196,666,0.438721,-6.08539,0,0,0,0,0,0,0,-1,1028,358,0.438698,6.08538
-189,666,0.228638,-6.0062,-0.00393602,-0.0489392,-0.00458546,-0.00347355,-0.0494016,-0.100516,0.0318398,0.0488097,1035,358,0.228625,6.00619
-182,666,-0.375977,-4.86539,-0.000294261,-0.0486386,-0.00190328,-0.000219446,-0.0487134,-0.0392882,0.0324027,0.0423502,1042,358,-0.375959,4.8654
-175,666,-0.182617,-4.25949,-0.00227876,-0.0482771,0.00101736,-0.00225627,-0.0482996,0.0221029,0.0314746,0.0434507,1049,358,-0.18264,4.25948
-168,666,0.0247803,-3.63632,-0.00567641,-0.0478664,0.00146256,-0.00562576,-0.047917,0.0346106,0.0302444,0.0472502,1056,358,0.0247416,3.63632
-161,666,1.56824,-3.99786,0,0,0,0,0,0,0,-1,1063,358,1.56823,3.99786
-154,666,2.01111,-4.49869,0,0,0,0,0,0,0,-1,1070,358,2.01106,4.4987
-147,666,1.6344,-5.35947,0,0,0,0,0,0,0,-1,1077,358,1.63444,5.35947
-140,666,1.62976,-5.16125,-0.0154235,-0.046366,-0.0043733,-0.0148173,-0.0469722,-0.137743,0.0277284,0.0428966,1084,358,1.6297,5.16125
-133,666,1.56494,-4.82465,-0.0164561,-0.0435006,-0.00801602,-0.0142587,-0.045698,-0.267555,0.0269981,0.0401267,1091,358,1.56498,4.82466
-126,666,1.38989,-4.22986,-0.0181241,-0.0419648,-0.0113937,-0.0135547,-0.0465342,-0.381406,0.0276358,0.0422272,1098,358,1.38983,4.22985
-119,666,1.1355,-3.76508,-0.019581,-0.0397091,-0.0154604,-0.0111975,-0.0480925,-0.496875,0.0290575,0.0425319,1105,358,1.13545,3.76509
-112,666,1.46313,-3.53021,-0.0201138,-0.0368115,-0.0198971,-0.00688496,-0.0500404,-0.586753,0.0313185,0.0427144,1112,358,1.46309,3.53021
-105,666,1.11755,-3.72382,-0.0197176,-0.0326741,-0.0239791,-0.00135707,-0.0510346,-0.653467,0.0335799,0.0430421,1119,358,1.11754,3.7238
-98,666,1.38403,-3.48132,-0.0185884,-0.028822,-0.0272731,0.00404376,-0.0514542,-0.69267,0.0357271,0.0436401,1126,358,1.38398,3.48133
-91,666,2.18384,-3.23251,-0.0171457,-0.0244078,-0.0295581,0.00900351,-0.050557,-0.724282,0.0370721,0.0462718,1133,358,2.18381,3.23252
-84,666,2.30469,-3.26953,-0.0158973,-0.0200492,-0.0306143,0.0127113,-0.0486578,-0.751545,0.0374027,0.045232,1140,358,2.30471,3.26952
-77,666,2.19592,-3.20636,-0.0148739,-0.0162715,-0.031306,0.0157411,-0.0468865,-0.774239,0.037619,0.0416902,1147,358,2.1959,3.20635
-70,666,2.09607,-3.19528,-0.0113765,-0.0124932,-0.0305947,0.0186649,-0.0425347,-0.776274,0.0362184,0.048124,1154,358,2.09609,3.19528
-63,666,1.87268,-2.67697,0,0,0,0,0,0,0,-1,1161,358,1.87266,2.67697
-56,666,0.424683,-2.04132,0,0,0,0,0,0,0,-1,1168,358,0.424665,2.04132
-49,666,0.754395,-2.23169,0,0,0,0,0,0,0,-1,1175,358,0.754383,2.23169
-42,666,1.34473,-3.53897,0,0,0,0,0,0,0,-1,1182,358,1.34476,3.53896
-35,666,1.9176,-3.65536,0,0,0,0,0,0,0,-1,1189,358,1.91761,3.65535
-28,666,2.06921,-3.61261,0,0,0,0,0,0,0,-1,1196,358,2.06924,3.61261
-21,666,2.08826,-3.49771,0.00810623,0.00225357,0.00681159,0.0125935,-0.00223368,0.582514,0.00923074,0.0321622,1203,358,2.08826,3.4977
-14,666,2.09656,-3.54498,0.00793979,0.0023867,0.00738646,0.0130543,-0.00272782,0.60562,0.00974032,0.0238597,1210,358,2.09652,3.54499
-7,666,2.10376,-3.55655,0.00710912,0.00288489,0.00785785,0.0131338,-0.00313976,0.654106,0.00996863,0.0160262,1217,358,2.10371,3.55655
0,666,2.11572,-3.53177,0.00558024,0.00344425,0.00753195,0.0121195,-0.00309505,0.71497,0.00928495,0.0110505,1224,358,2.11574,3.53176
7,666,2.10596,-3.54767,0.00430691,0.00367773,0.00676192,0.0107615,-0.00277691,0.762153,0.00825715,0.0138954,1231,358,2.10593,3.54768
14,666,2.09753,-3.58344,0.00323178,0.00386484,0.00560971,0.00916694,-0.00207033,0.813581,0.00690564,0.0145195,1238,358,2.0975,3.58345
21,666,2.08337,-3.56802,0.0045331,0.00320391,0.00419463,0.00811546,-0.000378446,0.706831,0.00554076,0.0106159,1245,358,2.08338,3.56803
28,666,2.06689,-3.5675,0.00704518,0.00241204,0.00164077,0.00756738,0.00188983,0.30813,0.0045478,0.0108723,1252,358,2.06684,3.56749
35,666,2.06763,-3.57001,0.00886999,0.00179067,-0.000334672,0.00888577,0.00177488,-0.0471345,0.00542979,0.0100508,1259,358,2.06766,3.57
42,666,2.0498,-3.5788,0.0113632,0.00127225,-0.00282289,0.0120992,0.000536241,-0.25505,0.00789346,0.0111033,1266,358,2.04981,3.5788
49,666,2.03918,-3.58252,0.0138535,0.000911318,-0.0053746,0.0157944,-0.00102957,-0.346548,0.010889,0.0096146,1273,358,2.03915,3.58252
56,666,2.06079,-3.58466,0.0163375,0.000475945,-0.00756717,0.0193684,-0.00255501,-0.380971,0.0138428,0.0106814,1280,358,2.06084,3.58465
63,666,2.04639,-3.59808,0.0183355,0.000187582,-0.0094798,0.0223841,-0.00386109,-0.403634,0.0163624,0.0125454,1287,358,2.04639,3.59807
70,666,2.02844,-3.61258,0.0189558,0.000842204,-0.0107184,0.0239314,-0.00413346,-0.434614,0.0174956,0.0130105,1294,358,2.02843,3.61259
77,666,2.01819,-3.61758,0.018266,0.00157456,-0.0118215,0.024391,-0.00455036,-0.478035,0.0179705,0.014555,1301,358,2.01814,3.61759
84,666,2.00244,-3.61761,0.017083,0.00270991,-0.012369,0.0242016,-0.0044087,-0.522227,0.017787,0.0189349,1308,358,2.0024,3.61761
91,666,2.03625,-3.60861,0.0149029,0.00363425,-0.0122273,0.0227316,-0.00419447,-0.5695,0.0167288,0.0192734,1315,358,2.03631,3.60862
98,666,2.02515,-3.59341,0.0120675,0.00450226,-0.0117488,0.0206276,-0.00405781,-0.629659,0.0152849,0.0163387,1322,358,2.02513,3.59343
105,666,1.97998,-3.55161,0.00898292,0.00534235,-0.0110904,0.0184014,-0.00407616,-0.704058,0.0138281,0.0174254,1329,358,1.97993,3.55159
112,666,1.9823,-3.51904,0.00593342,0.00604482,-0.0101748,0.0161641,-0.00418586,-0.788135,0.012409,0.0216411,1336,358,1.98227,3.51904
119,666,2.01563,-3.50272,0.00326521,0.0058735,-0.00927752,0.0139381,-0.00479937,-0.855226,0.0112388,0.0236462,1343,358,2.01558,3.50273
126,666,2.01343,-3.45758,0.000233569,0.00556093,-0.00845313,0.0117601,-0.00596562,-0.93803,0.0104146,0.0242435,1350,358,2.01348,3.45757
133,666,1.9657,-3.4295,-0.00145149,0.00534791,-0.0072253,0.00993337,-0.00603696,-1.00529,0.0093115,0.0222737,1357,358,1.96565,3.42951
140,666,1.93896,-3.48022,-0.00108193,0.00356679,-0.00702527,0.00864223,-0.00615737,-0.945158,0.00858461,0.0211661,1364,358,1.9389,3.48021
147,666,1.9613,-3.46451,-0.00152379,0.0015503,-0.00632168,0.00651911,-0.0064926,-0.904653,0.00751232,0.020159,1371,358,1.96136,3.46449
154,666,1.94397,-3.42084,-0.0025262,-0.00044944,-0.00554285,0.00415145,-0.00712709,-0.877993,0.00658678,0.0173636,1378,358,1.94401,3.42083
161,666,1.95435,-3.41797,-0.0037405,-0.00124041,-0.00510014,0.00276064,-0.00774155,-0.905579,0.00628665,0.0230314,1385,358,1.95437,3.41797
168,666,1.97229,-3.41187,0,0,0,0,0,0,0,-1,1392,358,1.97223,3.41186
175,666,2.18237,-3.58371,0,0,0,0,0,0,0,-1,1399,358,2.18243,3.58371
182,666,2.39209,-3.54199,0,0,0,0,0,0,0,-1,1406,358,2.39212,3.54199
189,666,2.26416,-3.39099,0,0,0,0,0,0,0,-1,1413,358,2.26417,3.39099
196,666,2.10986,-3.24103,0,0,0,0,0,0,0,-1,1420,358,2.10991,3.24102
203,666,2.25085,-3.01959,0,0,0,0,0,0,0,-1,1427,358,2.25091,3.01958
210,666,2.54175,-3.27637,0,0,0,0,0,0,0,-1,1434,358,2.54181,3.27636
217,666,2.45471,-3.25076,0,0,0,0,0,0,0,-1,1441,358,2.45472,3.25075
224,666,1.37036,-2.81424,0,0,0,0,0,0,0,-1,1448,358,1.37038,2.81423
231,666,1.69397,-2.3775,0,0,0,0,0,0,0,-1,1455,358,1.69392,2.37749
238,666,2.69824,-2.5799,0,0,0,0,0,0,0,-1,1462,358,2.69819,2.5799
245,666,2.29541,-1.66901,0,0,0,0,0,0,0,-1,1469,358,2.29543,1.66901
252,666,2.04675,-1.24115,0,0,0,0,0,0,0,-1,1476,358,2.0467,1.24116
259,666,3.547,-0.30719,0,0,0,0,0,0,0,-1,1483,358,3.54697,0.30718
266,666,3.07361,0.639465,0,0,0,0,0,0,0,-1,1490,358,3.07367,-0.639454
273,666,2.37659,-0.824799,0,0,0,0,0,0,0,-1,1497,358,2.37661,0.824793
280,666,2.6626,-0.498291,0,0,0,0,0,0,0,-1,1504,358,2.66259,0.49828
287,666,2.67957,-0.603058,0,0,0,0,0,0,0,-1,1511,358,2.67959,0.603072
294,666,3.35364,-1.41989,0,0,0,0,0,0,0,-1,1518,358,3.35367,1.41988
301,666,2.8064,-3.51654,0,0,0,0,0,0,0,-1,1525,358,2.80635,3.51654
308,666,1.08496,-1.87576,0,0,0,0,0,0,0,-1,1532,358,1.08491,1.87575
315,666,1.76294,-0.284027,0,0,0,0,0,0,0,-1,1539,358,1.76291,0.284016
322,666,0,0,0,0,0,0,0,0,0,-1,1546,358,0,0
329,666,0,0,0,0,0,0,0,0,0,-1,1553,358,0,0
336,666,0,0,0,0,0,0,0,0,0,-1,1560,358,0,0
343,666,0,0,0,0,0,0,0,0,0,-1,1567,358,0,0
350,666,0,0,0,0,0,0,0,0,0,-1,1574,358,0,0
357,666,0,0,0,0,0,0,0,0,0,-1,1581,358,0,0
364,666,0,0,0,0,0,0,0,0,0,-1,1588,358,0,0
371,666,0,0,0,0,0,0,0,0,0,-1,1595,358,0,0
378,666,0,0,0,0,0,0,0,0,0,-1,1602,358,0,0
385,666,0,0,0,0,0,0,0,0,0,-1,1609,358,0,0
392,666,0,0,0,0,0,0,0,0,0,-1,1616,358,0,0
399,666,0,0,0,0,0,0,0,0,0,-1,1623,358,0,0
406,666,0,0,0,0,0,0,0,0,0,-1,1630,358,0,0
413,666,0,0,0,0,0,0,0,0,0,-1,1637,358,0,0
420,666,0,0,0,0,0,0,0,0,0,-1,1644,358,0,0
427,666,0,0,0,0,0,0,0,0,0,-1,1651,358,0,0
434,666,0,0,0,0,0,0,0,0,0,-1,1658,358,0,0
441,666,0,0,0,0,0,0,0,0,0,-1,1665,358,0,0
448,666,0,0,0,0,0,0,0,0,0,-1,1672,358,0,0
455,666,0,0,0,0,0,0,0,0,0,-1,1679,358,0,0
462,666,0,0,0,0,0,0,0,0,0,-1,1686,358,0,0
469,666,0,0,0,0,0,0,0,0,0,-1,1693,358,0,0
476,666,0,0,0,0,0,0,0,0,0,-1,1700,358,0,0
483,666,0,0,0,0,0,0,0,0,0,-1,1707,358,0,0
490,666,0,0,0,0,0,0,0,0,0,-1,1714,358,0,0
497,666,0,0,0,0,0,0,0,0,0,-1,1721,358,0,0
504,666,0,0,0,0,0,0,0,0,0,-1,1728,358,0,0
511,666,0,0,0,0,0,0,0,0,0,-1,1735,358,0,0
518,666,0,0,0,0,0,0,0,0,0,-1,1742,358,0,0
525,666,0,0,0,0,0,0,0,0,0,-1,1749,358,0,0
532,666,0,0,0,0,0,0,0,0,0,-1,1756,358,0,0
539,666,0,0,0,0,0,0,0,0,0,-1,1763,358,0,0
546,666,0,0,0,0,0,0,0,0,0,-1,1770,358,0,0
553,666,0,0,0,0,0,0,0,0,0,-1,1777,358,0,0
560,666,0,0,0,0,0,0,0,0,0,-1,1784,358,0,0
567,666,0,0,0,0,0,0,0,0,0,-1,1791,358,0,0
574,666,0,0,0,0,0,0,0,0,0,-1,1798,358,0,0
581,666,0,0,0,0,0,0,0,0,0,-1,1805,358,0,0
588,666,0,0,0,0,0,0,0,0,0,-1,1812,358,0,0
595,666,0,0,0,0,0,0,0,0,0,-1,1819,358,0,0
602,666,0,0,0,0,0,0,0,0,0,-1,1826,358,0,0
609,666,0,0,0,0,0,0,0,0,0,-1,1833,358,0,0
616,666,0,0,0,0,0,0,0,0,0,-1,1840,358,0,0
623,666,0,0,0,0,0,0,0,0,0,-1,1847,358,0,0
630,666,0,0,0,0,0,0,0,0,0,-1,1854,358,0,0
637,666,0,0,0,0,0,0,0,0,0,-1,1861,358,0,0
644,666,0,0,0,0,0,0,0,0,0,-1,1868,358,0,0
651,666,0,0,0,0,0,0,0,0,0,-1,1875,358,0,0
658,666,0,0,0,0,0,0,0,0,0,-1,1882,358,0,0
665,666,0,0,0,0,0,0,0,0,0,-1,1889,358,0,0
672,666,0,0,0,0,0,0,0,0,0,-1,1896,358,0,0
679,666,0,0,0,0,0,0,0,0,0,-1,1903,358,0,0
686,666,0,0,0,0,0,0,0,0,0,-1,1910,358,0,0
693,666,0,0,0,0,0,0,0,0,0,-1,1917,358,0,0
700,666,0,0,0,0,0,0,0,0,0,-1,1924,358,0,0
707,666,0,0,0,0,0,0,0,0,0,-1,1931,358,0,0
714,666,0,0,0,0,0,0,0,0,0,-1,1938,358,0,0
721,666,0,0,0,0,0,0,0,0,0,-1,1945,358,0,0
728,666,0,0,0,0,0,0,0,0,0,-1,1952,358,0,0
735,666,0,0,0,0,0,0,0,0,0,-1,1959,358,0,0
742,666,0,0,0,0,0,0,0,0,0,-1,1966,358,0,0
749,666,0,0,0,0,0,0,0,0,0,-1,1973,358,0,0
756,666,0,0,0,0,0,0,0,0,0,-1,1980,358,0,0
763,666,0,0,0,0,0,0,0,0,0,-1,1987,358,0,0
770,666,0,0,0,0,0,0,0,0,0,-1,1994,358,0,0
777,666,0,0,0,0,0,0,0,0,0,-1,2001,358,0,0
784,666,0,0,0,0,0,0,0,0,0,-1,2008,358,0,0
791,666,0,0,0,0,0,0,0,0,0,-1,2015,358,0,0
798,666,0,0,0,0,0,0,0,0,0,-1,2022,358,0,0
805,666,0,0,0,0,0,0,0,0,0,-1,2029,358,0,0
812,666,0,0,0,0,0,0,0,0,0,-1,2036,358,0,0
-700,659,0,0,0,0,0,0,0,0,0,-1,524,365,0,0
-693,659,0,0,0,0,0,0,0,0,0,-1,531,365,0,0
-686,659,0,0,0,0,0,0,0,0,0,-1,538,365,0,0
-679,659,0,0,0,0,0,0,0,0,0,-1,545,365,0,0
-672,659,0,0,0,0,0,0,0,0,0,-1,552,365,0,0
-665,659,0,0,0,0,0,0,0,0,0,-1,559,365,0,0
-658,659,0,0,0,0,0,0,0,0,0,-1,566,365,0,0
-651,659,0,0,0,0,0,0,0,0,0,-1,573,365,0,0
-644,659,0,0,0,0,0,0,0,0,0,-1,580,365,0,0
-637,659,0,0,0,0,0,0,0,0,0,-1,587,365,0,0
-630,659,0,0,0,0,0,0,0,0,0,-1,594,365,0,0
-623,659,0,0,0,0,0,0,0,0,0,-1,601,365,0,0
-616,659,0,0,0,0,0,0,0,0,0,-1,608,365,0,0
-609,659,0,0,0,0,0,0,0,0,0,-1,615,365,0,0
-602,659,0,0,0,0,0,0,0,0,0,-1,622,365,0,0
-595,659,0,0,0,0,0,0,0,0,0,-1,629,365,0,0
-588,659,0,0,0,0,0,0,0,0,0,-1,636,365,0,0
-581,659,0,0,0,0,0,0,0,0,0,-1,643,365,0,0
-574,659,0,0,0,0,0,0,0,0,0,-1,650,365,0,0
-567,659,0,0,0,0,0,0,0,0,0,-1,657,365,0,0
-560,659,0,0,0,0,0,0,0,0,0,-1,664,365,0,0
-553,659,0,0,0,0,0,0,0,0,0,-1,671,365,0,0
-546,659,0,0,0,0,0,0,0,0,0,-1,678,365,0,0
-539,659,0,0,0,0,0,0,0,0,0,-1,685,365,0,0
-532,659,0,0,0,0,0,0,0,0,0,-1,692,365,0,0
-525,659,0,0,0,0,0,0,0,0,0,-1,699,365,0,0
-518,659,0,0,0,0,0,0,0,0,0,-1,706,365,0,0
-511,659,0,0,0,0,0,0,0,0,0,-1,713,365,0,0
-504,659,0,0,0,0,0,0,0,0,0,-1,720,365,0,0
-497,659,0,0,0,0,0,0,0,0,0,-1,727,365,0,0
-490,659,0,0,0,0,0,0,0,0,0,-1,734,365,0,0
-483,659,0,0,0,0,0,0,0,0,0,-1,741,365,0,0
-476,659,0,0,0,0,0,0,0,0,0,-1,748,365,0,0
-469,659,0,0,0,0,0,0,0,0,0,-1,755,365,0,0
-462,659,0,0,0,0,0,0,0,0,0,-1,762,365,0,0
-455,659,0,0,0,0,0,0,0,0,0,-1,769,365,0,0
-448,659,0,0,0,0,0,0,0,0,0,-1,776,365,0,0
-441,659,0,0,0,0,0,0,0,0,0,-1,783,365,0,0
-434,659,0,0,0,0,0,0,0,0,0,-1,790,365,0,0
-427,659,0,0,0,0,0,0,0,0,0,-1,797,365,0,0
-420,659,0,0,0,0,0,0,0,0,0,-1,804,365,0,0
-413,659,0,0,0,0,0,0,0,0,0,-1,811,365,0,0
-406,659,0,0,0,0,0,0,0,0,0,-1,818,365,0,0
-399,659,0,0,0,0,0,0,0,0,0,-1,825,365,0,0
-392,659,0,0,0,0,0,0,0,0,0,-1,832,365,0,0
-385,659,0,0,0,0,0,0,0,0,0,-1,839,365,0,0
-378,659,0,0,0,0,0,0,0,0,0,-1,846,365,0,0
-371,659,0,0,0,0,0,0,0,0,0,-1,853,365,0,0
-364,659,0,0,0,0,0,0,0,0,0,-1,860,365,0,0
-357,659,0,0,0,0,0,0,0,0,0,-1,867,365,0,0
-350,659,0,0,0,0,0,0,0,0,0,-1,874,365,0,0
-343,659,0,0,0,0,0,0,0,0,0,-1,881,365,0,0
-336,659,0,0,0,0,0,0,0,0,0,-1,888,365,0,0
-329,659,0,0,0,0,0,0,0,0,0,-1,895,365,0,0
-322,659,0,0,0,0,0,0,0,0,0,-1,902,365,0,0
-315,659,0,0,0,0,0,0,0,0,0,-1,909,365,0,0
-308,659,0,0,0,0,0,0,0,0,0,-1,916,365,0,0
-301,659,0,0,0,0,0,0,0,0,0,-1,923,365,0,0
-294,659,0,0,0,0,0,0,0,0,0,-1,930,365,0,0
-287,659,0,0,0,0,0,0,0,0,0,-1,937,365,0,0
-280,659,0,0,0,0,0,0,0,0,0,-1,944,365,0,0
-273,659,0,0,0,0,0,0,0,0,0,-1,951,365,0,0
-266,659,0,0,0,0,0,0,0,0,0,-1,958,365,0,0
-259,659,0,0,0,0,0,0,0,0,0,-1,965,365,0,0
-252,659,0,0,0,0,0,0,0,0,0,-1,972,365,0,0
-245,659,0,0,0,0,0,0,0,0,0,-1,979,365,0,0
-238,659,0,0,0,0,0,0,0,0,0,-1,986,365,0,0
-231,659,0,0,0,0,0,0,0,0,0,-1,993,365,0,0
-224,659,0,0,0,0,0,0,0,0,0,-1,1000,365,0,0
-217,659,1.66943,-1.72791,0,0,0,0,0,0,0,-1,1007,365,1.66942,1.72791
-210,659,1.31042,-2.73889,0,0,0,0,0,0,0,-1,1014,365,1.31039,2.7389
-203,659,0.722351,-3.72879,0,0,0,0,0,0,0,-1,1021,365,0.72237,3.7288
-196,659,0.806885,-5.11267,0,0,0,0,0,0,0,-1,1028,365,0.806848,5.11266
-189,659,0.481689,-5.12439,0.00336397,-0.0420667,-0.0072817,0.00450256,-0.0432053,-0.155107,0.0304156,0.0444831,1035,365,0.481712,5.12439
-182,659,0.0516357,-4.66687,0.00542214,-0.0422234,-0.0047185,0.00588494,-0.0426862,-0.0977681,0.0306083,0.039813,1042,365,0.0515921,4.66686
-175,659,0.281128,-4.19748,0.00370491,-0.0419226,-0.0019214,0.00378568,-0.0420034,-0.0420115,0.0293456,0.0385669,1049,365,0.281139,4.19747
-168,659,0.60791,-3.83435,0,0,0,0,0,0,0,-1,1056,365,0.607928,3.83435
-161,659,1.56775,-3.7724,-0.000532014,-0.0405225,-0.00104188,-0.000504887,-0.0405497,-0.0260297,0.0268664,0.0488059,1063,365,1.5678,3.7724
-154,659,2.13672,-4.04239,-0.00315115,-0.0397517,-0.00151887,-0.00308822,-0.0398147,-0.0414036,0.0255759,0.0490375,1070,365,2.13666,4.04239
-147,659,2.77515,-4.36325,0,0,0,0,0,0,0,-1,1077,365,2.77509,4.36324
-140,659,1.47327,-4.22479,0,0,0,0,0,0,0,-1,1084,365,1.47321,4.22479
-133,659,2.25989,-3.13095,0,0,0,0,0,0,0,-1,1091,365,2.25989,3.13094
-126,659,2.229,-3.13892,0,0,0,0,0,0,0,-1,1098,365,2.22901,3.13891
-119,659,1.45325,-3.55206,-0.0119945,-0.0306592,-0.0125437,-0.00569239,-0.0369613,-0.465578,0.0229796,0.0419758,1105,365,1.45325,3.55206
-112,659,1.71216,-3.44363,-0.0127228,-0.0280391,-0.015697,-0.00291541,-0.0378464,-0.558449,0.0243175,0.0379996,1112,365,1.71221,3.44365
-105,659,1.8125,-3.35892,-0.012797,-0.0245524,-0.0185215,0.000757072,-0.0381065,-0.631752,0.0256604,0.0382389,1119,365,1.81247,3.35891
-98,659,1.86938,-3.34302,-0.0121866,-0.0212503,-0.0207991,0.00456863,-0.0380055,-0.678131,0.0269891,0.0406373,1126,365,1.86936,3.34303
-91,659,2.1416,-3.26556,-0.0111934,-0.0176912,-0.0222686,0.00806205,-0.0369466,-0.712962,0.0277121,0.0405475,1133,365,2.14166,3.26557
-84,659,2.23108,-3.25345,-0.0103189,-0.0141273,-0.0228902,0.0107462,-0.0351924,-0.7439,0.0277462,0.039568,1140,365,2.23112,3.25345
-77,659,2.11938,-3.27301,-0.00958733,-0.011049,-0.0231549,0.0128482,-0.0334846,-0.769622,0.0276205,0.0350356,1147,365,2.11942,3.273
-70,659,2.06006,-3.31815,-0.00727572,-0.00805769,-0.0223599,0.0146966,-0.03003,-0.776656,0.0263239,0.0335148,1154,365,2.06011,3.31813
-63,659,1.62549,-3.35037,-0.00526057,-0.00575751,-0.0185522,0.0130448,-0.0240629,-0.778702,0.0217367,0.0445819,1161,365,1.62547,3.35036
-56,659,1.4917,-3.21802,0,0,0,0,0,0,0,-1,1168,365,1.49175,3.21803
-49,659,2.08435,-3.45807,0,0,0,0,0,0,0,-1,1175,365,2.08432,3.45807
-42,659,1.87317,-3.52859,0.00193386,0.000561047,-0.00324271,0.00456202,-0.00206711,-0.681099,0.00391664,0.0483736,1182,365,1.87318,3.52858
-35,659,2.05688,-3.56842,0.00293467,0.0016187,0.000380913,0.00303697,0.0015164,0.262384,0.0017534,0.0296183,1189,365,2.05688,3.56842
-28,659,2.09192,-3.55994,0.00428933,0.00183398,0.00369338,0.00695373,-0.000830421,0.624943,0.00493597,0.0149227,1196,365,2.09196,3.55994
-21,659,2.09265,-3.54929,0.00464442,0.00173844,0.0044701,0.00789174,-0.00150888,0.628261,0.00582958,0.0107869,1203,365,2.09266,3.54927
-14,659,2.08301,-3.54944,0.00464581,0.00181561,0.00496086,0.00838945,-0.00192803,0.646462,0.00633422,0.00778732,1210,365,2.08296,3.54944
-7,659,2.07251,-3.5527,0.00425174,0.00215524,0.00539954,0.00870384,-0.00229687,0.689522,0.00670071,0.00778032,1217,365,2.07251,3.5527
0,659,2.08167,-3.55945,0.00333186,0.0025512,0.00521325,0.00816937,-0.00228631,0.748032,0.00634712,0.00761005,1224,365,2.08171,3.55946
7,659,2.08264,-3.56781,0.00255357,0.00274748,0.0047207,0.00737222,-0.00207117,0.795666,0.00573134,0.00739403,1231,365,2.08267,3.56782
14,659,2.08228,-3.56717,0.001753,0.00297717,0.00408898,0.00649963,-0.00176945,0.859692,0.00502778,0.0099634,1238,365,2.08233,3.56718
21,659,2.08167,-3.58087,0.00251266,0.00264464,0.00326231,0.00584163,-0.000684332,0.795511,0.00414142,0.0104476,1245,365,2.08168,3.58087
28,659,2.06348,-3.59235,0.00413868,0.0022042,0.00160674,0.00504685,0.00129603,0.514457,0.00302651,0.00950756,1252,365,2.06342,3.59235
35,659,2.06714,-3.5979,0.00524937,0.00188044,0.000341265,0.00528359,0.00184622,0.0999453,0.00309625,0.00975886,1259,365,2.06717,3.59789
42,659,2.0603,-3.60004,0.00681254,0.00165925,-0.00128354,0.00711454,0.00135725,-0.231081,0.00436158,0.0104986,1266,365,2.06029,3.60004
49,659,2.05139,-3.59271,0.0083759,0.00155509,-0.00299626,0.00950515,0.000425845,-0.360423,0.0061997,0.0106246,1273,365,2.05135,3.5927
56,659,2.05493,-3.59964,0.0100021,0.00134274,-0.0044767,0.0119004,-0.000555485,-0.401044,0.00812508,0.0138305,1280,365,2.05492,3.59964
63,659,2.05347,-3.61371,0.0113685,0.00121132,-0.00579595,0.0139961,-0.00141626,-0.425634,0.00983686,0.0151945,1287,365,2.05347,3.61372
70,659,2.04834,-3.61133,0.0118805,0.00168291,-0.00670755,0.0152072,-0.00164379,-0.460413,0.0107281,0.015794,1294,365,2.04831,3.61131
77,659,2.047,-3.61691,0.0114847,0.00216755,-0.00756924,0.0157141,-0.00206183,-0.509542,0.0112266,0.0153696,1301,365,2.04695,3.61692
84,659,2.0448,-3.62173,0.0107582,0.00293614,-0.00805675,0.015803,-0.00210868,-0.559434,0.011304,0.0111571,1308,365,2.04476,3.62173
91,659,2.02905,-3.61081,0.00936198,0.0035128,-0.00808656,0.0150366,-0.00216178,-0.611886,0.0108172,0.00978219,1315,365,2.02905,3.6108
98,659,2.0249,-3.59436,0.00753827,0.00401508,-0.00789044,0.0138614,-0.00230802,-0.675571,0.0100986,0.00715479,1322,365,2.02485,3.59436
105,659,2.01746,-3.57727,0.00556691,0.00447698,-0.00755541,0.012597,-0.00255309,-0.749396,0.00936574,0.00874125,1329,365,2.01744,3.57728
112,659,2.02405,-3.55481,0.00363939,0.00481957,-0.00703885,0.011293,-0.00283406,-0.827217,0.0086299,0.0107381,1336,365,2.02403,3.5548
119,659,2.05054,-3.53168,0.00203309,0.00451524,-0.00659582,0.00998573,-0.00343739,-0.878391,0.00805137,0.0119854,1343,365,2.05051,3.53168
126,659,2.04907,-3.51517,9.86458e-05,0.00415176,-0.0061439,0.0085947,-0.00434429,-0.944704,0.0076035,0.0126053,1350,365,2.04905,3.51516
133,659,2.02295,-3.50128,-0.00104974,0.00389024,-0.00532899,0.00729383,-0.00445333,-1.00241,0.006848,0.0112318,1357,365,2.02297,3.50127
140,659,2.01294,-3.50021,-0.000830077,0.0025783,-0.00517517,0.00632265,-0.00457443,-0.944457,0.00631836,0.008972,1364,365,2.01294,3.50021
147,659,2.01392,-3.48245,-0.0011619,0.00108699,-0.00467381,0.00476972,-0.00484463,-0.903447,0.0055509,0.00789179,1371,365,2.01392,3.48244
154,659,2.01648,-3.45142,-0.00191693,-0.000388628,-0.00406793,0.0029863,-0.00529185,-0.87824,0.00484079,0.00773672,1378,365,2.01647,3.45142
161,659,2.00952,-3.44196,-0.00286141,-0.00094413,-0.00369032,0.00191004,-0.00571557,-0.912475,0.00458175,0.00955236,1385,365,2.00955,3.44196
168,659,2.02991,-3.44083,-0.00417148,-0.00169034,-0.00296695,0.000284956,-0.00614678,-0.983417,0.00419606,0.0162548,1392,365,2.02995,3.44083
175,659,2.04785,-3.44983,-0.00579978,-0.00233073,-0.00188698,-0.00150219,-0.00662831,-1.15706,0.00401299,0.0268588,1399,365,2.04779,3.44982
182,659,2.14746,-3.42557,-0.00759705,-0.0026381,-0.000415457,-0.00260354,-0.00763161,-1.48779,0.00447962,0.0378864,1406,365,2.1475,3.42557
189,659,2.1311,-3.36395,-0.00992569,-0.00240269,0.00098713,-0.00227532,-0.0100531,1.44247,0.00608704,0.0325126,1413,365,2.13108,3.36394
196,659,2.02905,-3.30341,-0.012466,-0.00127195,0.00252808,-0.00072749,-0.0130104,1.35867,0.00844159,0.0279039,1420,365,2.02903,3.3034
203,659,2.09094,-3.25037,-0.0147614,-0.00029182,0.00424351,0.000860851,-0.0159141,1.30556,0.0109077,0.035429,1427,365,2.09088,3.25035
210,659,2.23132,-3.31583,-0.0163334,0.00146156,0.00628495,0.00345746,-0.0183293,1.2633,0.0135202,0.0387198,1434,365,2.23136,3.31584
217,659,2.27332,-3.28409,-0.0174547,0.00364059,0.00840194,0.00657795,-0.0203921,1.23447,0.0162377,0.0413543,1441,365,2.27329,3.28408
224,659,1.69568,-3.01993,-0.0180953,0.00630594,0.0109529,0.0105011,-0.0222904,1.20501,0.0193358,0.0443475,1448,365,1.69563,3.01993
231,659,1.98315,-2.80466,-0.0179269,0.0108652,0.0137215,0.016357,-0.0234188,1.19009,0.0230849,0.0436949,1455,365,1.98311,2.80465
238,659,2.45959,-2.92041,-0.0174337,0.0141797,0.01647,0.0212009,-0.0244549,1.16782,0.0263817,0.0460325,1462,365,2.45956,2.9204
245,659,2.16565,-2.573,-0.0161952,0.0194732,0.019404,0.0279938,-0.0247158,1.15703,0.0304515,0.048607,1469,365,2.16568,2.57301
252,659,1.9939,-3.20212,0,0,0,0,0,0,0,-1,1476,365,1.9939,3.20212
259,659,2.84668,-1.5882,0,0,0,0,0,0,0,-1,1483,365,2.84672,1.58819
266,659,2.9032,-2.18607,0,0,0,0,0,0,0,-1,1490,365,2.90324,2.18607
273,659,2.61255,-1.61969,0,0,0,0,0,0,0,-1,1497,365,2.61256,1.61967
280,659,2.66992,-1.39001,0.00371716,0.0442644,0.0178834,0.0510248,-0.0030432,1.20938,0.0350749,0.0419518,1504,365,2.66991,1.39
287,659,2.7478,-0.982361,0,0,0,0,0,0,0,-1,1511,365,2.7478,0.982374
294,659,3.06091,-1.06262,0,0,0,0,0,0,0,-1,1518,365,3.06091,1.06263
301,659,3.29773,-1.30573,0,0,0,0,0,0,0,-1,1525,365,3.2977,1.30574
308,659,2.80115,-0.633514,0,0,0,0,0,0,0,-1,1532,365,2.80113,0.633519
315,659,2.56055,-0.251129,0,0,0,0,0,0,0,-1,1539,365,2.5605,0.251135
322,659,2.88672,-0.266174,0,0,0,0,0,0,0,-1,1546,365,2.88671,0.266163
329,659,3.5647,-1.00171,0,0,0,0,0,0,0,-1,1553,365,3.56475,1.0017
336,659,2.09851,-1.17941,0,0,0,0,0,0,0,-1,1560,365,2.09857,1.17942
343,659,0,0,0,0,0,0,0,0,0,-1,1567,365,0,0
350,659,0,0,0,0,0,0,0,0,0,-1,1574,365,0,0
357,659,0,0,0,0,0,0,0,0,0,-1,1581,365,0,0
364,659,0,0,0,0,0,0,0,0,0,-1,1588,365,0,0
371,659,0,0,0,0,0,0,0,0,0,-1,1595,365,0,0
378,659,0,0,0,0,0,0,0,0,0,-1,1602,365,0,0
385,659,0,0,0,0,0,0,0,0,0,-1,1609,365,0,0
392,659,0,0,0,0,0,0,0,0,0,-1,1616,365,0,0
399,659,0,0,0,0,0,0,0,0,0,-1,1623,365,0,0
406,659,0,0,0,0,0,0,0,0,0,-1,1630,365,0,0
413,659,0,0,0,0,0,0,0,0,0,-1,1637,365,0,0
420,659,0,0,0,0,0,0,0,0,0,-1,1644,365,0,0
427,659,0,0,0,0,0,0,0,0,0,-1,1651,365,0,0
434,659,0,0,0,0,0,0,0,0,0,-1,1658,365,0,0
441,659,0,0,0,0,0,0,0,0,0,-1,1665,365,0,0
448,659,0,0,0,0,0,0,0,0,0,-1,1672,365,0,0
455,659,0,0,0,0,0,0,0,0,0,-1,1679,365,0,0
462,659,0,0,0,0,0,0,0,0,0,-1,1686,365,0,0
469,659,0,0,0,0,0,0,0,0,0,-1,1693,365,0,0
476,659,0,0,0,0,0,0,0,0,0,-1,1700,365,0,0
483,659,0,0,0,0,0,0,0,0,0,-1,1707,365,0,0
490,659,0,0,0,0,0,0,0,0,0,-1,1714,365,0,0
497,659,0,0,0,0,0,0,0,0,0,-1,1721,365,0,0
504,659,0,0,0,0,0,0,0,0,0,-1,1728,365,0,0
511,659,0,0,0,0,0,0,0,0,0,-1,1735,365,0,0
518,659,0,0,0,0,0,0,0,0,0,-1,1742,365,0,0
525,659,0,0,0,0,0,0,0,0,0,-1,1749,365,0,0
532,659,0,0,0,0,0,0,0,0,0,-1,1756,365,0,0
539,659,0,0,0,0,0,0,0,0,0,-1,1763,365,0,0
546,659,0,0,0,0,0,0,0,0,0,-1,1770,365,0,0
553,659,0,0,0,0,0,0,0,0,0,-1,1777,365,0,0
560,659,0,0,0,0,0,0,0,0,0,-1,1784,365,0,0
567,659,0,0,0,0,0,0,0,0,0,-1,1791,365,0,0
574,659,0,0,0,0,0,0,0,0,0,-1,1798,365,0,0
581,659,0,0,0,0,0,0,0,0,0,-1,1805,365,0,0
588,659,0,0,0,0,0,0,0,0,0,-1,1812,365,0,0
595,659,0,0,0,0,0,0,0,0,0,-1,1819,365,0,0
602,659,0,0,0,0,0,0,0,0,0,-1,1826,365,0,0
609,659,0,0,0,0,0,0,0,0,0,-1,1833,365,0,0
616,659,0,0,0,0,0,0,0,0,0,-1,1840,365,0,0
623,659,0,0,0,0,0,0,0,0,0,-1,1847,365,0,0
630,659,0,0,0,0,0,0,0,0,0,-1,1854,365,0,0
637,659,0,0,0,0,0,0,0,0,0,-1,1861,365,0,0
644,659,0,0,0,0,0,0,0,0,0,-1,1868,365,0,0
651,659,0,0,0,0,0,0,0,0,0,-1,1875,365,0,0
658,659,0,0,0,0,0,0,0,0,0,-1,1882,365,0,0
665,659,0,0,0,0,0,0,0,0,0,-1,1889,365,0,0
672,659,0,0,0,0,0,0,0,0,0,-1,1896,365,0,0
679,659,0,0,0,0,0,0,0,0,0,-1,1903,365,0,0
686,659,0,0,0,0,0,0,0,0,0,-1,1910,365,0,0
693,659,0,0,0,0,0,0,0,0,0,-1,1917,365,0,0
700,659,0,0,0,0,0,0,0,0,0,-1,1924,365,0,0
707,659,0,0,0,0,0,0,0,0,0,-1,1931,365,0,0
714,659,0,0,0,0,0,0,0,0,0,-1,1938,365,0,0
721,659,0,0,0,0,0,0,0,0,0,-1,1945,365,0,0
728,659,0,0,0,0,0,0,0,0,0,-1,1952,365,0,0
735,659,0,0,0,0,0,0,0,0,0,-1,1959,365,0,0
742,659,0,0,0,0,0,0,0,0,0,-1,1966,365,0,0
749,659,0,0,0,0,0,0,0,0,0,-1,1973,365,0,0
756,659,0,0,0,0,0,0,0,0,0,-1,1980,365,0,0
763,659,0,0,0,0,0,0,0,0,0,-1,1987,365,0,0
770,659,0,0,0,0,0,0,0,0,0,-1,1994,365,0,0
777,659,0,0,0,0,0,0,0,0,0,-1,2001,365,0,0
784,659,0,0,0,0,0,0,0,0,0,-1,2008,365,0,0
791,659,0,0,0,0,0,0,0,0,0,-1,2015,365,0,0
798,659,0,0,0,0,0,0,0,0,0,-1,2022,365,0,0
805,659,0,0,0,0,0,0,0,0,0,-1,2029,365,0,0
812,659,0,0,0,0,0,0,0,0,0,-1,2036,365,0,0
-700,652,0,0,0,0,0,0,0,0,0,-1,524,372,0,0
-693,652,0,0,0,0,0,0,0,0,0,-1,531,372,0,0
-686,652,0,0,0,0,0,0,0,0,0,-1,538,372,0,0
-679,652,0,0,0,0,0,0,0,0,0,-1,545,372,0,0
-672,652,0,0,0,0,0,0,0,0,0,-1,552,372,0,0
-665,652,0,0,0,0,0,0,0,0,0,-1,559,372,0,0
-658,652,0,0,0,0,0,0,0,0,0,-1,566,372,0,0
-651,652,0,0,0,0,0,0,0,0,0,-1,573,372,0,0
-644,652,0,0,0,0,0,0,0,0,0,-1,580,372,0,0
-637,652,0,0,0,0,0,0,0,0,0,-1,587,372,0,0
-630,652,0,0,0,0,0,0,0,0,0,-1,594,372,0,0
-623,652,0,0,0,0,0,0,0,0,0,-1,601,372,0,0
-616,652,0,0,0,0,0,0,0,0,0,-1,608,372,0,0
-609,652,0,0,0,0,0,0,0,0,0,-1,615,372,0,0
-602,652,0,0,0,0,0,0,0,0,0,-1,622,372,0,0
-595,652,0,0,0,0,0,0,0,0,0,-1,629,372,0,0
-588,652,0,0,0,0,0,0,0,0,0,-1,636,372,0,0
-581,652,0,0,0,0,0,0,0,0,0,-1,643,372,0,0
-574,652,0,0,0,0,0,0,0,0,0,-1,650,372,0,0
-567,652,0,0,0,0,0,0,0,0,0,-1,657,372,0,0
-560,652,0,0,0,0,0,0,0,0,0,-1,664,372,0,0
-553,652,0,0,0,0,0,0,0,0,0,-1,671,372,0,0
-546,652,0,0,0,0,0,0,0,0,0,-1,678,372,0,0
-539,652,0,0,0,0,0,0,0,0,0,-1,685,372,0,0
-532,652,0,0,0,0,0,0,0,0,0,-1,692,372,0,0
-525,652,0,0,0,0,0,0,0,0,0,-1,699,372,0,0
-518,652,0,0,0,0,0,0,0,0,0,-1,706,372,0,0
-511,652,0,0,0,0,0,0,0,0,0,-1,713,372,0,0
-504,652,0,0,0,0,0,0,0,0,0,-1,720,372,0,0
-497,652,0,0,0,0,0,0,0,0,0,-1,727,372,0,0
-490,652,0,0,0,0,0,0,0,0,0,-1,734,372,0,0
-483,652,0,0,0,0,0,0,0,0,0,-1,741,372,0,0
-476,652,0,0,0,0,0,0,0,0,0,-1,748,372,0,0
-469,652,0,0,0,0,0,0,0,0,0,-1,755,372,0,0
-462,652,0,0,0,0,0,0,0,0,0,-1,762,372,0,0
-455,652,0,0,0,0,0,0,0,0,0,-1,769,372,0,0
-448,652,0,0,0,0,0,0,0,0,0,-1,776,372,0,0
-441,652,0,0,0,0,0,0,0,0,0,-1,783,372,0,0
-434,652,0,0,0,0,0,0,0,0,0,-1,790,372,0,0
-427,652,0,0,0,0,0,0,0,0,0,-1,797,372,0,0
-420,652,0,0,0,0,0,0,0,0,0,-1,804,372,0,0
-413,652,0,0,0,0,0,0,0,0,0,-1,811,372,0,0
-406,652,0,0,0,0,0,0,0,0,0,-1,818,372,0,0
-399,652,0,0,0,0,0,0,0,0,0,-1,825,372,0,0
-392,652,0,0,0,0,0,0,0,0,0,-1,832,372,0,0
-385,652,0,0,0,0,0,0,0,0,0,-1,839,372,0,0
-378,652,0,0,0,0,0,0,0,0,0,-1,846,372,0,0
-371,652,0,0,0,0,0,0,0,0,0,-1,853,372,0,0
-364,652,0,0,0,0,0,0,0,0,0,-1,860,372,0,0
-357,652,0,0,0,0,0,0,0,0,0,-1,867,372,0,0
-350,652,0,0,0,0,0,0,0,0,0,-1,874,372,0,0
-343,652,0,0,0,0,0,0,0,0,0,-1,881,372,0,0
-336,652,0,0,0,0,0,0,0,0,0,-1,888,372,0,0
-329,652,0,0,0,0,0,0,0,0,0,-1,895,372,0,0
-322,652,0,0,0,0,0,0,0,0,0,-1,902,372,0,0
-315,652,0,0,0,0,0,0,0,0,0,-1,909,372,0,0
-308,652,0,0,0,0,0,0,0,0,0,-1,916,372,0,0
-301,652,0,0,0,0,0,0,0,0,0,-1,923,372,0,0
-294,652,0,0,0,0,0,0,0,0,0,-1,930,372,0,0
-287,652,0,0,0,0,0,0,0,0,0,-1,937,372,0,0
-280,652,0,0,0,0,0,0,0,0,0,-1,944,372,0,0
-273,652,0,0,0,0,0,0,0,0,0,-1,951,372,0,0
-266,652,0,0,0,0,0,0,0,0,0,-1,958,372,0,0
-259,652,0,0,0,0,0,0,0,0,0,-1,965,372,0,0
-252,652,0,0,0,0,0,0,0,0,0,-1,972,372,0,0
-245,652,0,0,0,0,0,0,0,0,0,-1,979,372,0,0
-238,652,0,0,0,0,0,0,0,0,0,-1,986,372,0,0
-231,652,3.76361,-1.11682,0,0,0,0,0,0,0,-1,993,372,3.76364,1.11681
-224,652,4.60126,-0.311584,0,0,0,0,0,0,0,-1,1000,372,4.60125,0.311588
-217,652,1.84064,-2.35153,0,0,0,0,0,0,0,-1,1007,372,1.84065,2.35153
-210,652,1.54089,-3.28671,0,0,0,0,0,0,0,-1,1014,372,1.54088,3.28671
-203,652,1.16437,-4.0238,0.00187483,-0.0305615,-0.0118635,0.00575071,-0.0344374,-0.315776,0.0250957,0.0405038,1021,372,1.16436,4.02382
-196,652,1.11707,-4.45432,0.00551591,-0.0328426,-0.0103197,0.00811599,-0.0354427,-0.246816,0.0267474,0.0443084,1028,372,1.11703,4.4543
-189,652,0.805664,-4.40866,0.00758399,-0.03451,-0.00857099,0.00926227,-0.0361882,-0.193362,0.0277334,0.043598,1035,372,0.805676,4.40866
-182,652,0.602417,-4.28799,0.00857864,-0.0350074,-0.00622264,0.00944962,-0.0358783,-0.139067,0.0276131,0.0420891,1042,372,0.602468,4.28798
-175,652,0.832764,-3.92102,0.00702216,-0.0348723,-0.0036805,0.00734304,-0.0351932,-0.086964,0.0262543,0.0399356,1049,372,0.832814,3.92101
-168,652,1.03967,-3.45367,0.00472845,-0.0341793,-0.00251351,0.00489016,-0.0343411,-0.0642457,0.0246861,0.0402235,1056,372,1.03968,3.45368
-161,652,1.6012,-3.37015,0.00339508,-0.0332794,-0.00214271,0.00351985,-0.0334041,-0.0581614,0.0235306,0.0434076,1063,372,1.60117,3.37014
-154,652,1.64917,-3.39606,0.00109203,-0.0322252,-0.00217918,0.00123396,-0.0323671,-0.0650379,0.0220009,0.0431121,1070,372,1.64912,3.39605
-147,652,1.83044,-3.29263,-0.00184101,-0.0315266,-0.00251987,-0.00162863,-0.031739,-0.0840834,0.0206379,0.0422947,1077,372,1.83047,3.29262
-140,652,2.1366,-2.95633,0,0,0,0,0,0,0,-1,1084,372,2.13659,2.95634
-133,652,2.20642,-3.08136,-0.00439334,-0.0267746,-0.00616775,-0.0028062,-0.0283617,-0.251864,0.0180453,0.0436813,1091,372,2.20641,3.08135
-126,652,2.19324,-3.14291,-0.00560302,-0.0249932,-0.00780846,-0.00284955,-0.0277467,-0.339013,0.0176249,0.0400418,1098,372,2.19324,3.1429
-119,652,2.12024,-3.13126,-0.00683002,-0.0229475,-0.00990766,-0.0021175,-0.02766,-0.443974,0.0177763,0.0343481,1105,372,2.1202,3.13125
-112,652,2.08679,-3.27081,-0.00761574,-0.02069,-0.0120749,-0.000422005,-0.0278837,-0.537297,0.0184501,0.0226477,1112,372,2.08683,3.27081
-105,652,2.07629,-3.26166,-0.00796244,-0.0178591,-0.0139592,0.00189954,-0.0277211,-0.615065,0.0191454,0.0194375,1119,372,2.07633,3.26166
-98,652,2.07654,-3.27124,-0.00770905,-0.0151338,-0.0154776,0.0044952,-0.027338,-0.667695,0.0198938,0.0229472,1126,372,2.07656,3.27125
-91,652,2.09534,-3.29959,-0.00706616,-0.0123665,-0.0163664,0.00686325,-0.0262959,-0.705131,0.0202106,0.0215666,1133,372,2.09529,3.29959
-84,652,2.10693,-3.3241,-0.00648644,-0.00958885,-0.0166747,0.00870906,-0.0247844,-0.739018,0.0200661,0.0189263,1140,372,2.10699,3.3241
-77,652,2.1123,-3.34766,-0.0060004,-0.00721644,-0.0166797,0.0100824,-0.0232992,-0.76718,0.01977,0.0152625,1147,372,2.11228,3.34764
-70,652,2.08228,-3.39377,-0.00452769,-0.00498414,-0.0159348,0.0111805,-0.0206924,-0.778237,0.018673,0.0115535,1154,372,2.08222,3.39378
-63,652,2.09851,-3.40704,-0.00337969,-0.0033546,-0.0132321,0.00986497,-0.0165993,-0.785872,0.0154431,0.0145384,1161,372,2.09852,3.40704
-56,652,2.08728,-3.43954,-0.00190393,-0.00204219,-0.00979437,0.00782155,-0.0117677,-0.781869,0.0113861,0.0165274,1168,372,2.08727,3.43953
-49,652,2.08838,-3.45486,4.60879e-05,-0.000669756,-0.00620541,0.00590389,-0.00652756,-0.756591,0.00718031,0.0119183,1175,372,2.08837,3.45488
-42,652,2.07422,-3.47751,0.000760133,0.000650138,-0.00271665,0.00342234,-0.00201207,-0.775277,0.00317258,0.0100044,1182,372,2.07426,3.47751
-35,652,2.0708,-3.50775,0.00136805,0.00129213,-0.000110125,0.00144657,0.00121361,-0.619438,0.000896869,0.0088222,1189,372,2.07078,3.50774
-28,652,2.07764,-3.51996,0.00226227,0.00139691,0.00223184,0.00410299,-0.000443807,0.689653,0.00289463,0.00737286,1196,372,2.07763,3.51995
-21,652,2.06824,-3.54031,0.0025639,0.00132846,0.0028711,0.00488298,-0.000990617,0.679438,0.00363085,0.00712026,1203,372,2.06821,3.54033
-14,652,2.07214,-3.56204,0.00265006,0.00135337,0.00328281,0.00534794,-0.00134451,0.687904,0.00408784,0.00852325,1210,372,2.07214,3.56203
-7,652,2.0697,-3.56714,0.00250247,0.00154977,0.0036584,0.0057154,-0.00166316,0.720659,0.00446903,0.0108359,1217,372,2.06973,3.56713
0,652,2.06714,-3.55927,0.00197005,0.00177007,0.0035464,0.00541787,-0.00167775,0.771304,0.00428216,0.011424,1224,372,2.0671,3.55926
7,652,2.05676,-3.54196,0.00145297,0.00190872,0.00328415,0.00497289,-0.00161121,0.820036,0.00396305,0.0128051,1231,372,2.05681,3.54197
14,652,2.05994,-3.56561,0.000842367,0.00210095,0.00297863,0.00451603,-0.00157271,0.889502,0.00364968,0.0107664,1238,372,2.05991,3.56562
21,652,2.06177,-3.58813,0.00121729,0.00196091,0.00255269,0.00416873,-0.000990527,0.857716,0.00316148,0.0100631,1245,372,2.06171,3.58814
28,652,2.052,-3.61169,0.00213658,0.00177299,0.00162954,0.00359444,0.000315139,0.729847,0.00229846,0.00928648,1252,372,2.05196,3.61169
35,652,2.04321,-3.60742,0.00271207,0.00166201,0.000930181,0.00325517,0.00111892,0.528467,0.00190972,0.00903649,1259,372,2.0432,3.60743
42,652,2.04053,-3.59802,0.00358572,0.00166417,-9.26947e-06,0.00358576,0.00166413,-0.00482381,0.00207202,0.0105764,1266,372,2.04047,3.59802
49,652,2.05139,-3.59927,0.0044713,0.00174784,-0.00102615,0.00481465,0.00140449,-0.322888,0.00285901,0.0131073,1273,372,2.05136,3.59926
56,652,2.05469,-3.60141,0.00546592,0.00171743,-0.00191987,0.00627472,0.000908637,-0.398712,0.00391557,0.0149517,1280,372,2.05468,3.60141
63,652,2.05066,-3.60135,0.0063605,0.00170298,-0.00274825,0.00763396,0.000429516,-0.433919,0.00495235,0.0186757,1287,372,2.05068,3.60135
70,652,2.05615,-3.59143,0.00682963,0.00202703,-0.00335498,0.00855412,0.000302542,-0.474792,0.00560462,0.0157628,1294,372,2.05619,3.59143
77,652,2.06897,-3.6066,0.00673702,0.00230543,-0.00398988,0.00908509,-4.26415e-05,-0.531926,0.00607099,0.0147214,1301,372,2.06903,3.6066
84,652,2.04004,-3.63428,0.00640884,0.00278237,-0.00442252,0.00937541,-0.000184189,-0.590849,0.00631256,0.0122611,1308,372,2.04001,3.63428
91,652,1.99817,-3.6301,0.00563842,0.00306691,-0.00458064,0.00911034,-0.000405009,-0.648572,0.00621297,0.0144381,1315,372,1.99817,3.63009
98,652,2.03589,-3.59344,0.00459614,0.00327203,-0.00460143,0.0085829,-0.000714732,-0.713948,0.00597445,0.0121201,1322,372,2.0359,3.59346
105,652,2.05273,-3.56561,0.0034643,0.00343068,-0.00451175,0.00795927,-0.00106429,-0.783535,0.0056942,0.0109879,1329,372,2.05271,3.5656
112,652,2.04858,-3.56198,0.00238932,0.0034693,-0.00432208,0.00728499,-0.00142638,-0.847545,0.00539534,0.00977633,1336,372,2.04857,3.56199
119,652,2.04858,-3.54147,0.00151544,0.0030933,-0.00420339,0.00658116,-0.00197242,-0.878163,0.00517184,0.0106743,1343,372,2.04862,3.54148
126,652,2.02832,-3.52512,0.000338497,0.0027168,-0.00404014,0.00573915,-0.00268386,-0.928524,0.00496852,0.0126512,1350,372,2.02829,3.5251
133,652,2.01624,-3.5014,-0.000395886,0.00243447,-0.00359301,0.00488096,-0.00284237,-0.973003,0.00451055,0.0128713,1357,372,2.01623,3.50142
140,652,2.01868,-3.4859,-0.000303035,0.00152407,-0.00351108,0.0042385,-0.00301746,-0.912672,0.00420896,0.00979942,1364,372,2.0187,3.4859
147,652,2.02344,-3.47687,-0.000580025,0.000492178,-0.00318837,0.00318921,-0.00327705,-0.86869,0.00373341,0.00858768,1371,372,2.02338,3.47685
154,652,2.02673,-3.45319,-0.00116271,-0.00051067,-0.00276618,0.00194864,-0.00362202,-0.844057,0.00326423,0.0083131,1378,372,2.02672,3.45319
161,652,2.01917,-3.43143,-0.00189533,-0.000843666,-0.00248161,0.00116721,-0.00390621,-0.8898,0.00306813,0.0100882,1385,372,2.01913,3.43142
168,652,2.01294,-3.42749,-0.00291905,-0.00130064,-0.00190532,-3.98129e-05,-0.00417988,-0.98621,0.00277341,0.0110293,1392,372,2.01299,3.42749
175,652,2.00745,-3.40384,-0.00418513,-0.00160052,-0.00112191,-0.00118147,-0.00460418,-1.21333,0.00276121,0.00958437,1399,372,2.00751,3.40384
182,652,1.995,-3.38,-0.00548652,-0.00161001,-4.02023e-05,-0.0016096,-0.00548694,-1.56043,0.00325682,0.0119481,1406,372,1.99494,3.38
189,652,2.0033,-3.34833,-0.00707557,-0.00130751,0.00105785,-0.00111962,-0.00726346,1.39502,0.0045156,0.0119091,1413,372,2.0033,3.34832
196,652,1.9978,-3.32108,-0.00883238,-0.00026399,0.00226107,0.000296068,-0.00939243,1.32799,0.00636261,0.0106563,1420,372,1.99785,3.32108
203,652,1.99927,-3.31775,-0.0103274,0.000614272,0.00355196,0.0016662,-0.0113794,1.28287,0.00819828,0.0132856,1427,372,1.99932,3.31775
210,652,2.03333,-3.28384,-0.0112699,0.00214387,0.00507813,0.00384946,-0.0129755,1.24677,0.0101791,0.0167414,1434,372,2.03338,3.28385
217,652,2.07593,-3.2193,-0.0118631,0.00401424,0.00665979,0.00643777,-0.0142866,1.22179,0.0122479,0.016185,1441,372,2.07589,3.21929
224,652,2.06921,-3.20563,-0.012064,0.00628465,0.0085786,0.00967061,-0.0154499,1.19487,0.0146307,0.0191597,1448,372,2.06926,3.20563
231,652,2.05823,-3.14923,-0.0116197,0.0100696,0.0107155,0.0144705,-0.0160207,1.18109,0.0176117,0.0249686,1455,372,2.05824,3.14924
238,652,2.08557,-3.09314,-0.0108794,0.0129671,0.0127222,0.0184799,-0.0163923,1.16189,0.0201455,0.0281041,1462,372,2.08559,3.09314
245,652,1.98621,-3.15317,-0.00964027,0.0170859,0.0148143,0.0236736,-0.0162281,1.15237,0.0231706,0.0267815,1469,372,1.98625,3.15316
252,652,2.00183,-3.10449,-0.00783444,0.0215993,0.0166293,0.0290888,-0.0153239,1.14763,0.0260489,0.0320937,1476,372,2.00179,3.1045
259,652,2.32019,-2.5401,-0.00532995,0.025298,0.016939,0.0328193,-0.0128512,1.15293,0.027195,0.044023,1483,372,2.32023,2.54011
266,652,2.47827,-2.55115,-0.00259938,0.027648,0.0159712,0.0345199,-0.00947129,1.16447,0.0267356,0.0393304,1490,372,2.47824,2.55116
273,652,2.38586,-2.59641,0.000424233,0.0307951,0.0151148,0.0370352,-0.00581587,1.17926,0.0268396,0.0396463,1497,372,2.38586,2.5964
280,652,2.41382,-2.17847,0.00381373,0.0342063,0.013239,0.0391644,-0.00114436,1.21246,0.0264993,0.0398491,1504,372,2.41382,2.17845
287,652,2.29431,-2.37152,0,0,0,0,0,0,0,-1,1511,372,2.29432,2.37151
294,652,3.3252,-0.785156,0,0,0,0,0,0,0,-1,1518,372,3.32522,0.785149
301,652,3.33521,-0.634399,0,0,0,0,0,0,0,-1,1525,372,3.33522,0.634404
308,652,3.30762,-0.568176,0.0113822,0.0324468,-0.00490829,0.0335343,0.0102946,-1.35275,0.0198361,0.0443595,1532,372,3.30767,0.568163
315,652,3.30823,-0.409119,0.0140874,0.0299391,-0.0133593,0.0375468,0.00647973,-1.05313,0.0231753,0.0453593,1539,372,3.30824,0.409104
322,652,3.55017,-0.362,0,0,0,0,0,0,0,-1,1546,372,3.55022,0.361988
329,652,3.98853,-0.777832,0,0,0,0,0,0,0,-1,1553,372,3.98851,0.77784
336,652,4.36035,-1.07068,0,0,0,0,0,0,0,-1,1560,372,4.36037,1.07066
343,652,1.15771,-3.57877,0,0,0,0,0,0,0,-1,1567,372,1.15775,3.57875
350,652,3.27209,-5.25958,0,0,0,0,0,0,0,-1,1574,372,3.2721,5.25958
357,652,0,0,0,0,0,0,0,0,0,-1,1581,372,0,0
364,652,0,0,0,0,0,0,0,0,0,-1,1588,372,0,0
371,652,0,0,0,0,0,0,0,0,0,-1,1595,372,0,0
378,652,0,0,0,0,0,0,0,0,0,-1,1602,372,0,0
385,652,0,0,0,0,0,0,0,0,0,-1,1609,372,0,0
392,652,0,0,0,0,0,0,0,0,0,-1,1616,372,0,0
399,652,0,0,0,0,0,0,0,0,0,-1,1623,372,0,0
406,652,0,0,0,0,0,0,0,0,0,-1,1630,372,0,0
413,652,0,0,0,0,0,0,0,0,0,-1,1637,372,0,0
420,652,0,0,0,0,0,0,0,0,0,-1,1644,372,0,0
427,652,0,0,0,0,0,0,0,0,0,-1,1651,372,0,0
434,652,0,0,0,0,0,0,0,0,0,-1,1658,372,0,0
441,652,0,0,0,0,0,0,0,0,0,-1,1665,372,0,0
448,652,0,0,0,0,0,0,0,0,0,-1,1672,372,0,0
455,652,0,0,0,0,0,0,0,0,0,-1,1679,372,0,0
462,652,0,0,0,0,0,0,0,0,0,-1,1686,372,0,0
469,652,0,0,0,0,0,0,0,0,0,-1,1693,372,0,0
476,652,0,0,0,0,0,0,0,0,0,-1,1700,372,0,0
483,652,0,0,0,0,0,0,0,0,0,-1,1707,372,0,0
490,652,0,0,0,0,0,0,0,0,0,-1,1714,372,0,0
497,652,0,0,0,0,0,0,0,0,0,-1,1721,372,0,0
504,652,0,0,0,0,0,0,0,0,0,-1,1728,372,0,0
511,652,0,0,0,0,0,0,0,0,0,-1,1735,372,0,0
518,652,0,0,0,0,0,0,0,0,0,-1,1742,372,0,0
525,652,0,0,0,0,0,0,0,0,0,-1,1749,372,0,0
532,652,0,0,0,0,0,0,0,0,0,-1,1756,372,0,0
539,652,0,0,0,0,0,0,0,0,0,-1,1763,372,0,0
546,652,0,0,0,0,0,0,0,0,0,-1,1770,372,0,0
553,652,0,0,0,0,0,0,0,0,0,-1,1777,372,0,0
560,652,0,0,0,0,0,0,0,0,0,-1,1784,372,0,0
567,652,0,0,0,0,0,0,0,0,0,-1,1791,372,0,0
574,652,0,0,0,0,0,0,0,0,0,-1,1798,372,0,0
581,652,0,0,0,0,0,0,0,0,0,-1,1805,372,0,0
588,652,0,0,0,0,0,0,0,0,0,-1,1812,372,0,0
595,652,0,0,0,0,0,0,0,0,0,-1,1819,372,0,0
602,652,0,0,0,0,0,0,0,0,0,-1,1826,372,0,0
609,652,0,0,0,0,0,0,0,0,0,-1,1833,372,0,0
616,652,0,0,0,0,0,0,0,0,0,-1,1840,372,0,0
623,652,0,0,0,0,0,0,0,0,0,-1,1847,372,0,0
630,652,0,0,0,0,0,0,0,0,0,-1,1854,372,0,0
637,652,0,0,0,0,0,0,0,0,0,-1,1861,372,0,0
644,652,0,0,0,0,0,0,0,0,0,-1,1868,372,0,0
651,652,0,0,0,0,0,0,0,0,0,-1,1875,372,0,0
658,652,0,0,0,0,0,0,0,0,0,-1,1882,372,0,0
665,652,0,0,0,0,0,0,0,0,0,-1,1889,372,0,0
672,652,0,0,0,0,0,0,0,0,0,-1,1896,372,0,0
679,652,0,0,0,0,0,0,0,0,0,-1,1903,372,0,0
686,652,0,0,0,0,0,0,0,0,0,-1,1910,372,0,0
693,652,0,0,0,0,0,0,0,0,0,-1,1917,372,0,0
700,652,0,0,0,0,0,0,0,0,0,-1,1924,372,0,0
707,652,0,0,0,0,0,0,0,0,0,-1,1931,372,0,0
714,652,0,0,0,0,0,0,0,0,0,-1,1938,372,0,0
721,652,0,0,0,0,0,0,0,0,0,-1,1945,372,0,0
728,652,0,0,0,0,0,0,0,0,0,-1,1952,372,0,0
735,652,0,0,0,0,0,0,0,0,0,-1,1959,372,0,0
742,652,0,0,0,0,0,0,0,0,0,-1,1966,372,0,0
749,652,0,0,0,0,0,0,0,0,0,-1,1973,372,0,0
756,652,0,0,0,0,0,0,0,0,0,-1,1980,372,0,0
763,652,0,0,0,0,0,0,0,0,0,-1,1987,372,0,0
770,652,0,0,0,0,0,0,0,0,0,-1,1994,372,0,0
777,652,0,0,0,0,0,0,0,0,0,-1,2001,372,0,0
784,652,0,0,0,0,0,0,0,0,0,-1,2008,372,0,0
791,652,0,0,0,0,0,0,0,0,0,-1,2015,372,0,0
798,652,0,0,0,0,0,0,0,0,0,-1,2022,372,0,0
805,652,0,0,0,0,0,0,0,0,0,-1,2029,372,0,0
812,652,0,0,0,0,0,0,0,0,0,-1,2036,372,0,0
-700,645,0,0,0,0,0,0,0,0,0,-1,524,379,0,0
-693,645,0,0,0,0,0,0,0,0,0,-1,531,379,0,0
-686,645,0,0,0,0,0,0,0,0,0,-1,538,379,0,0
-679,645,0,0,0,0,0,0,0,0,0,-1,545,379,0,0
-672,645,0,0,0,0,0,0,0,0,0,-1,552,379,0,0
-665,645,0,0,0,0,0,0,0,0,0,-1,559,379,0,0
-658,645,0,0,0,0,0,0,0,0,0,-1,566,379,0,0
-651,645,0,0,0,0,0,0,0,0,0,-1,573,379,0,0
-644,645,0,0,0,0,0,0,0,0,0,-1,580,379,0,0
-637,645,0,0,0,0,0,0,0,0,0,-1,587,379,0,0
-630,645,0,0,0,0,0,0,0,0,0,-1,594,379,0,0
-623,645,0,0,0,0,0,0,0,0,0,-1,601,379,0,0
-616,645,0,0,0,0,0,0,0,0,0,-1,608,379,0,0
-609,645,0,0,0,0,0,0,0,0,0,-1,615,379,0,0
-602,645,0,0,0,0,0,0,0,0,0,-1,622,379,0,0
-595,645,0,0,0,0,0,0,0,0,0,-1,629,379,0,0
-588,645,0,0,0,0,0,0,0,0,0,-1,636,379,0,0
-581,645,0,0,0,0,0,0,0,0,0,-1,643,379,0,0
-574,645,0,0,0,0,0,0,0,0,0,-1,650,379,0,0
-567,645,0,0,0,0,0,0,0,0,0,-1,657,379,0,0
-560,645,0,0,0,0,0,0,0,0,0,-1,664,379,0,0
-553,645,0,0,0,0,0,0,0,0,0,-1,671,379,0,0
-546,645,0,0,0,0,0,0,0,0,0,-1,678,379,0,0
-539,645,0,0,0,0,0,0,0,0,0,-1,685,379,0,0
-532,645,0,0,0,0,0,0,0,0,0,-1,692,379,0,0
-525,645,0,0,0,0,0,0,0,0,0,-1,699,379,0,0
-518,645,0,0,0,0,0,0,0,0,0,-1,706,379,0,0
-511,645,0,0,0,0,0,0,0,0,0,-1,713,379,0,0
-504,645,0,0,0,0,0,0,0,0,0,-1,720,379,0,0
-497,645,0,0,0,0,0,0,0,0,0,-1,727,379,0,0
-490,645,0,0,0,0,0,0,0,0,0,-1,734,379,0,0
-483,645,0,0,0,0,0,0,0,0,0,-1,741,379,0,0
-476,645,0,0,0,0,0,0,0,0,0,-1,748,379,0,0
-469,645,0,0,0,0,0,0,0,0,0,-1,755,379,0,0
-462,645,0,0,0,0,0,0,0,0,0,-1,762,379,0,0
-455,645,0,0,0,0,0,0,0,0,0,-1,769,379,0,0
-448,645,0,0,0,0,0,0,0,0,0,-1,776,379,0,0
-441,645,0,0,0,0,0,0,0,0,0,-1,783,379,0,0
-434,645,0,0,0,0,0,0,0,0,0,-1,790,379,0,0
-427,645,0,0,0,0,0,0,0,0,0,-1,797,379,0,0
-420,645,0,0,0,0,0,0,0,0,0,-1,804,379,0,0
-413,645,0,0,0,0,0,0,0,0,0,-1,811,379,0,0
-406,645,0,0,0,0,0,0,0,0,0,-1,818,379,0,0
-399,645,0,0,0,0,0,0,0,0,0,-1,825,379,0,0
-392,645,0,0,0,0,0,0,0,0,0,-1,832,379,0,0
-385,645,0,0,0,0,0,0,0,0,0,-1,839,379,0,0
-378,645,0,0,0,0,0,0,0,0,0,-1,846,379,0,0
-371,645,0,0,0,0,0,0,0,0,0,-1,853,379,0,0
-364,645,0,0,0,0,0,0,0,0,0,-1,860,379,0,0
-357,645,0,0,0,0,0,0,0,0,0,-1,867,379,0,0
-350,645,0,0,0,0,0,0,0,0,0,-1,874,379,0,0
-343,645,0,0,0,0,0,0,0,0,0,-1,881,379,0,0
-336,645,0,0,0,0,0,0,0,0,0,-1,888,379,0,0
-329,645,0,0,0,0,0,0,0,0,0,-1,895,379,0,0
-322,645,0,0,0,0,0,0,0,0,0,-1,902,379,0,0
-315,645,0,0,0,0,0,0,0,0,0,-1,909,379,0,0
-308,645,0,0,0,0,0,0,0,0,0,-1,916,379,0,0
-301,645,0,0,0,0,0,0,0,0,0,-1,923,379,0,0
-294,645,0,0,0,0,0,0,0,0,0,-1,930,379,0,0
-287,645,0,0,0,0,0,0,0,0,0,-1,937,379,0,0
-280,645,0,0,0,0,0,0,0,0,0,-1,944,379,0,0
-273,645,0,0,0,0,0,0,0,0,0,-1,951,379,0,0
-266,645,0,0,0,0,0,0,0,0,0,-1,958,379,0,0
-259,645,0,0,0,0,0,0,0,0,0,-1,965,379,0,0
-252,645,1.61957,-2.97324,0,0,0,0,0,0,0,-1,972,379,1.61959,2.97322
-245,645,2.50232,-2.31174,0,0,0,0,0,0,0,-1,979,379,2.5023,2.31175
-238,645,3.42328,-1.6438,0,0,0,0,0,0,0,-1,986,379,3.42327,1.64379
-231,645,4.26416,-0.983612,0,0,0,0,0,0,0,-1,993,379,4.26417,0.983608
-224,645,5.164,-0.0204163,0,0,0,0,0,0,0,-1,1000,379,5.164,0.0204075
-217,645,0.979431,-1.49814,0,0,0,0,0,0,0,-1,1007,379,0.979423,1.49814
-210,645,1.71753,-4.21509,0,0,0,0,0,0,0,-1,1014,379,1.71755,4.21509
-203,645,1.34613,-4.31271,0.00607488,-0.0231552,-0.0121004,0.010434,-0.0275143,-0.345773,0.0226371,0.0395014,1021,379,1.34616,4.31271
-196,645,1.40149,-3.98727,0.00850725,-0.025342,-0.0105832,0.0115437,-0.0283784,-0.279412,0.0237224,0.042738,1028,379,1.40146,3.98727
-189,645,1.44067,-3.7951,0.00962437,-0.0270593,-0.0088615,0.0116528,-0.0290877,-0.225031,0.0242289,0.0422632,1035,379,1.44068,3.79511
-182,645,1.36243,-3.84323,0.00993102,-0.0278066,-0.00677516,0.0111105,-0.0289861,-0.172365,0.0239043,0.043591,1042,379,1.3624,3.84323
-175,645,1.91284,-3.39334,0,0,0,0,0,0,0,-1,1049,379,1.91282,3.39336
-168,645,1.60352,-3.14389,0.00655447,-0.0273009,-0.00331844,0.00687667,-0.0276231,-0.0967906,0.0210848,0.0426116,1056,379,1.60351,3.14388
-161,645,1.81909,-3.20413,0.00540174,-0.0264255,-0.00272149,0.00563277,-0.0266566,-0.0846888,0.0199159,0.0408216,1063,379,1.81908,3.20414
-154,645,2.15527,-3.13809,0.0034327,-0.0252916,-0.00244299,0.003639,-0.0254979,-0.0842432,0.0183324,0.0385953,1070,379,2.15533,3.13808
-147,645,2.07458,-3.02798,0.000671165,-0.0244406,-0.00242924,0.000904004,-0.0246735,-0.0955565,0.0167584,0.0378443,1077,379,2.07464,3.02798
-140,645,2.10107,-3.01205,-0.00094122,-0.0226195,-0.00363861,-0.000346796,-0.0232139,-0.161936,0.0153617,0.0367395,1084,379,2.10113,3.01205
-133,645,2.11816,-3.11011,-0.00149617,-0.0200476,-0.00507631,-0.000197965,-0.0213458,-0.250372,0.014165,0.0296613,1091,379,2.11813,3.11012
-126,645,2.13379,-3.17511,-0.00246069,-0.0184021,-0.00615645,-0.000359945,-0.0205028,-0.328837,0.0135502,0.022085,1098,379,2.13382,3.17512
-119,645,2.11658,-3.19409,-0.00348523,-0.0166252,-0.00761075,-9.49949e-07,-0.0201095,-0.429329,0.013406,0.0154343,1105,379,2.11653,3.19408
-112,645,2.12402,-3.24084,-0.00425254,-0.0147637,-0.00904381,0.000951887,-0.0199681,-0.522186,0.0136404,0.0109059,1112,379,2.12407,3.24084
-105,645,2.0907,-3.26978,-0.00476658,-0.0125317,-0.0102351,0.00229762,-0.0195959,-0.604114,0.0138933,0.0111367,1119,379,2.09068,3.26977
-98,645,2.06128,-3.27866,-0.00476746,-0.0103412,-0.0111975,0.00398474,-0.0190934,-0.663435,0.0142442,0.012379,1126,379,2.06124,3.27866
-91,645,2.0708,-3.31033,-0.00441095,-0.00822993,-0.0116749,0.00550961,-0.0181505,-0.704339,0.0142953,0.0119337,1133,379,2.07082,3.31032
-84,645,2.07227,-3.34827,-0.00406602,-0.00612338,-0.0117425,0.00669279,-0.0168822,-0.741708,0.0140284,0.01184,1140,379,2.07222,3.34827
-77,645,2.05957,-3.37778,-0.00375505,-0.00435022,-0.0115638,0.00751504,-0.0156203,-0.772534,0.0136277,0.011314,1147,379,2.05959,3.37779
-70,645,2.05981,-3.3989,-0.0028316,-0.00275456,-0.0108979,0.00810485,-0.013691,-0.787166,0.0127209,0.0101105,1154,379,2.05982,3.3989
-63,645,2.08545,-3.41342,-0.00217943,-0.00164234,-0.00900446,0.00709758,-0.0109194,-0.800305,0.0104798,0.00988693,1161,379,2.08542,3.41342
-56,645,2.08826,-3.41736,-0.00153302,-0.000821637,-0.00674992,0.00558196,-0.00793662,-0.811722,0.00784432,0.0114304,1168,379,2.08828,3.41735
-49,645,2.0769,-3.43683,-0.000604282,8.02178e-05,-0.00435439,0.00410578,-0.00462985,-0.824617,0.00504654,0.00995423,1175,379,2.07696,3.43684
-42,645,2.06287,-3.48163,-0.000390808,0.000757132,-0.0020776,0.00233859,-0.00197227,-0.920169,0.00249187,0.00939482,1182,379,2.06288,3.48162
-35,645,2.06299,-3.52194,-0.000166103,0.00109383,-0.000293694,0.00115893,-0.0002312,-1.35267,0.000860106,0.00938664,1189,379,2.06301,3.52193
-28,645,2.05615,-3.54083,0.000313311,0.0011009,0.00128553,0.0020516,-0.000637385,0.934025,0.00162248,0.00740558,1196,379,2.05621,3.54083
-21,645,2.05432,-3.534,0.000517742,0.00100762,0.00174836,0.00252812,-0.00100276,0.854993,0.002101,0.00882049,1203,379,2.05428,3.534
-14,645,2.07019,-3.54779,0.000658658,0.000969207,0.00204579,0.0028656,-0.00123774,0.823275,0.00243041,0.00906492,1210,379,2.07023,3.54779
-7,645,2.07678,-3.57971,0.000728139,0.00102506,0.00236316,0.00324442,-0.00149122,0.816768,0.00279588,0.0119614,1217,379,2.07677,3.5797
0,645,2.0863,-3.55179,0.000548395,0.00105893,0.00231308,0.00313079,-0.00152346,0.840355,0.00274003,0.0221454,1224,379,2.08625,3.55178
7,645,2.06042,-3.57083,0.000321201,0.00105488,0.00220426,0.00292262,-0.00154654,0.867854,0.00262072,0.0156483,1231,379,2.06045,3.57082
14,645,2.0553,-3.58438,-3.03652e-06,0.00110479,0.00208137,0.0027047,-0.00160294,0.915448,0.00251399,0.0148701,1238,379,2.05526,3.58438
21,645,2.04858,-3.59375,0.000256061,0.00104889,0.00189245,0.002586,-0.00128105,0.888641,0.00227462,0.0104721,1245,379,2.04856,3.59376
28,645,2.03711,-3.59811,0.000820549,0.000956835,0.00144762,0.00233791,-0.000560526,0.808917,0.0017752,0.00907607,1252,379,2.03712,3.59811
35,645,2.03198,-3.60364,0.00114772,0.000893144,0.00109315,0.00212097,-8.00972e-05,0.727437,0.00144142,0.00827998,1259,379,2.03193,3.60364
42,645,2.04248,-3.61783,0.0015952,0.00100191,0.000661161,0.00202322,0.000573894,0.574522,0.001204,0.00884383,1266,379,2.04253,3.61783
49,645,2.06201,-3.61096,0.00208269,0.00116852,0.00010931,0.00209558,0.00115563,0.117369,0.00121202,0.0119123,1273,379,2.06205,3.61095
56,645,2.06799,-3.60391,0.0026386,0.00125908,-0.000356173,0.00272513,0.00117255,-0.23833,0.00157845,0.0116849,1280,379,2.06804,3.6039
63,645,2.05969,-3.60223,0.00316087,0.00131395,-0.000778203,0.00344504,0.00102978,-0.350122,0.00204191,0.0118051,1287,379,2.05969,3.60222
70,645,2.05481,-3.60291,0.00344676,0.0015434,-0.00112066,0.00396531,0.00102485,-0.433379,0.00237675,0.0155408,1294,379,2.05476,3.60291
77,645,2.06262,-3.62683,0.0034124,0.00170682,-0.00149947,0.00428462,0.000834602,-0.526845,0.00262286,0.0185116,1301,379,2.0626,3.62682
84,645,2.04126,-3.6214,0.00324783,0.0019966,-0.00182565,0.00455208,0.000692349,-0.620328,0.00283229,0.0131178,1308,379,2.04128,3.62139
91,645,2.02002,-3.62402,0.00279724,0.00208111,-0.00203079,0.00450129,0.000377053,-0.698135,0.00288341,0.0138939,1315,379,2.02004,3.62403
98,645,2.05896,-3.58755,0.0021761,0.00208878,-0.00216866,0.00430154,-3.66624e-05,-0.775333,0.00287999,0.0134,1322,379,2.05891,3.58754
105,645,2.07495,-3.56967,0.00155481,0.00206687,-0.00217619,0.00400204,-0.000380366,-0.843954,0.00280343,0.0102176,1329,379,2.07498,3.56967
112,645,2.06104,-3.57315,0.00103941,0.00195523,-0.00215644,0.00370184,-0.0007072,-0.890018,0.00273428,0.00846808,1336,379,2.06099,3.57314
119,645,2.05798,-3.56021,0.000626265,0.00157523,-0.00220423,0.00335547,-0.00115397,-0.891411,0.00270497,0.00873107,1343,379,2.05799,3.56022
126,645,2.03882,-3.53574,7.33435e-06,0.00117967,-0.00221627,0.00288598,-0.00169897,-0.91468,0.00267653,0.0113274,1350,379,2.0388,3.53572
133,645,2.04272,-3.49225,-0.000367671,0.000944719,-0.00204488,0.00243611,-0.00185906,-0.940656,0.00248727,0.0120101,1357,379,2.04271,3.49226
140,645,2.05115,-3.48282,-0.000302353,0.000410568,-0.00205973,0.00214446,-0.00203624,-0.87108,0.002414,0.0116326,1364,379,2.0512,3.48283
147,645,2.04028,-3.48535,-0.000451141,-0.000237779,-0.00196887,0.0016273,-0.00231622,-0.812464,0.00228834,0.0120072,1371,379,2.04033,3.48536
154,645,2.04114,-3.47095,-0.000872294,-0.000818984,-0.00171655,0.000871123,-0.0025624,-0.793162,0.00206095,0.0112267,1378,379,2.04111,3.47094
161,645,2.04565,-3.42999,-0.00139798,-0.00092704,-0.001536,0.000391438,-0.00271646,-0.861457,0.00195456,0.0134369,1385,379,2.04566,3.42999
168,645,2.03918,-3.4147,-0.00215609,-0.00105617,-0.00111448,-0.00036334,-0.00284891,-1.0146,0.00179049,0.0157072,1392,379,2.0392,3.41469
175,645,2.04504,-3.41565,-0.003047,-0.00109249,-0.000605718,-0.000919993,-0.00321949,-1.29337,0.00191481,0.0139037,1399,379,2.04505,3.41565
182,645,2.03967,-3.38364,-0.00387629,-0.000911641,0.000102147,-0.000908126,-0.00387981,1.5364,0.00234324,0.00988804,1406,379,2.03964,3.38364
189,645,2.02576,-3.35287,-0.00487783,-0.000565062,0.000895582,-0.000386481,-0.00505641,1.37398,0.00324978,0.0104543,1413,379,2.02576,3.35288
196,645,2.01917,-3.32166,-0.00601303,0.000349291,0.00179366,0.000820113,-0.00648386,1.31409,0.00462027,0.0112059,1420,379,2.01918,3.32167
203,645,2.01062,-3.29218,-0.00690305,0.00109994,0.00272683,0.00194072,-0.00774382,1.27171,0.00591652,0.0111244,1427,379,2.01063,3.29217
210,645,2.03894,-3.2916,-0.007435,0.00237252,0.00384401,0.00369959,-0.00876207,1.23838,0.00738999,0.0129192,1434,379,2.03889,3.29159
217,645,2.03845,-3.26758,-0.00770368,0.00389491,0.00503202,0.0057737,-0.00958247,1.21346,0.00895633,0.0115407,1441,379,2.03842,3.26759
224,645,2.03223,-3.20966,-0.00763905,0.00571646,0.00646113,0.00833056,-0.0102532,1.18634,0.0107484,0.0107509,1448,379,2.03219,3.20965
231,645,2.0332,-3.14795,-0.00709063,0.00871045,0.00808648,0.0121152,-0.0104954,1.17228,0.0130654,0.0119611,1455,379,2.03319,3.14794
238,645,2.0083,-3.12872,-0.00630658,0.0110737,0.00953564,0.015285,-0.0105179,1.15492,0.0149818,0.0100869,1462,379,2.00828,3.12874
245,645,2.00806,-3.0965,-0.00526489,0.0141224,0.0110204,0.0191058,-0.0102483,1.14611,0.0172029,0.0111839,1469,379,2.00807,3.09651
252,645,2.02344,-3.04819,-0.00400234,0.0173333,0.0123092,0.0229541,-0.00962313,1.14244,0.0193263,0.0147813,1476,379,2.02348,3.04818
259,645,2.03149,-3.00479,-0.00238382,0.0198935,0.012497,0.0254953,-0.00798563,1.1494,0.0201922,0.0236167,1483,379,2.03144,3.00479
266,645,2.05249,-2.92529,-0.00064589,0.0216214,0.011732,0.0266617,-0.00568621,1.16502,0.019942,0.0225765,1490,379,2.05251,2.92529
273,645,2.07129,-2.91003,0.0012554,0.0237004,0.0110237,0.028209,-0.00325316,1.18257,0.0199789,0.0207147,1497,379,2.07135,2.91004
280,645,2.16479,-2.70407,0.00333037,0.0257079,0.0096691,0.029307,-0.000268697,1.21446,0.0196282,0.0317945,1504,379,2.16485,2.70408
287,645,2.20508,-2.55203,0.00503718,0.0268069,0.00766423,0.0292345,0.00260962,1.26405,0.0186806,0.0414108,1511,379,2.20505,2.55203
294,645,2.26147,-2.44656,0,0,0,0,0,0,0,-1,1518,379,2.2615,2.44655
301,645,3.77649,-0.588837,0,0,0,0,0,0,0,-1,1525,379,3.77644,0.588825
308,645,3.92517,-0.497009,0.00912903,0.0247349,-0.00229236,0.0250646,0.00879927,-1.42793,0.0146835,0.0457165,1532,379,3.92515,0.497002
315,645,4.05908,-0.491425,0.0114594,0.023382,-0.00848411,0.0277897,0.00705164,-1.09165,0.0166804,0.0404175,1539,379,4.05911,0.491411
322,645,1.9469,-2.38379,0,0,0,0,0,0,0,-1,1546,379,1.94694,2.3838
329,645,4.41223,-0.553986,0,0,0,0,0,0,0,-1,1553,379,4.41227,0.55398
336,645,2.04053,-1.871,0,0,0,0,0,0,0,-1,1560,379,2.0405,1.871
343,645,1.46448,-2.72284,0,0,0,0,0,0,0,-1,1567,379,1.46443,2.72285
350,645,0.441162,-2.79074,0,0,0,0,0,0,0,-1,1574,379,0.441102,2.79073
357,645,1.71863,-1.06467,0,0,0,0,0,0,0,-1,1581,379,1.71862,1.06467
364,645,2.12476,-1.44281,0,0,0,0,0,0,0,-1,1588,379,2.1247,1.4428
371,645,0,0,0,0,0,0,0,0,0,-1,1595,379,0,0
378,645,0,0,0,0,0,0,0,0,0,-1,1602,379,0,0
385,645,0,0,0,0,0,0,0,0,0,-1,1609,379,0,0
392,645,0,0,0,0,0,0,0,0,0,-1,1616,379,0,0
399,645,0,0,0,0,0,0,0,0,0,-1,1623,379,0,0
406,645,0,0,0,0,0,0,0,0,0,-1,1630,379,0,0
413,645,0,0,0,0,0,0,0,0,0,-1,1637,379,0,0
420,645,0,0,0,0,0,0,0,0,0,-1,1644,379,0,0
427,645,0,0,0,0,0,0,0,0,0,-1,1651,379,0,0
434,645,0,0,0,0,0,0,0,0,0,-1,1658,379,0,0
441,645,0,0,0,0,0,0,0,0,0,-1,1665,379,0,0
448,645,0,0,0,0,0,0,0,0,0,-1,1672,379,0,0
455,645,0,0,0,0,0,0,0,0,0,-1,1679,379,0,0
462,645,0,0,0,0,0,0,0,0,0,-1,1686,379,0,0
469,645,0,0,0,0,0,0,0,0,0,-1,1693,379,0,0
476,645,0,0,0,0,0,0,0,0,0,-1,1700,379,0,0
483,645,0,0,0,0,0,0,0,0,0,-1,1707,379,0,0
490,645,0,0,0,0,0,0,0,0,0,-1,1714,379,0,0
497,645,0,0,0,0,0,0,0,0,0,-1,1721,379,0,0
504,645,0,0,0,0,0,0,0,0,0,-1,1728,379,0,0
511,645,0,0,0,0,0,0,0,0,0,-1,1735,379,0,0
518,645,0,0,0,0,0,0,0,0,0,-1,1742,379,0,0
525,645,0,0,0,0,0,0,0,0,0,-1,1749,379,0,0
532,645,0,0,0,0,0,0,0,0,0,-1,1756,379,0,0
539,645,0,0,0,0,0,0,0,0,0,-1,1763,379,0,0
546,645,0,0,0,0,0,0,0,0,0,-1,1770,379,0,0
553,645,0,0,0,0,0,0,0,0,0,-1,1777,379,0,0
560,645,0,0,0,0,0,0,0,0,0,-1,1784,379,0,0
567,645,0,0,0,0,0,0,0,0,0,-1,1791,379,0,0
574,645,0,0,0,0,0,0,0,0,0,-1,1798,379,0,0
581,645,0,0,0,0,0,0,0,0,0,-1,1805,379,0,0
588,645,0,0,0,0,0,0,0,0,0,-1,1812,379,0,0
595,645,0,0,0,0,0,0,0,0,0,-1,1819,379,0,0
602,645,0,0,0,0,0,0,0,0,0,-1,1826,379,0,0
609,645,0,0,0,0,0,0,0,0,0,-1,1833,379,0,0
616,645,0,0,0,0,0,0,0,0,0,-1,1840,379,0,0
623,645,0,0,0,0,0,0,0,0,0,-1,1847,379,0,0
630,645,0,0,0,0,0,0,0,0,0,-1,1854,379,0,0
637,645,0,0,0,0,0,0,0,0,0,-1,1861,379,0,0
644,645,0,0,0,0,0,0,0,0,0,-1,1868,379,0,0
651,645,0,0,0,0,0,0,0,0,0,-1,1875,379,0,0
658,645,0,0,0,0,0,0,0,0,0,-1,1882,379,0,0
665,645,0,0,0,0,0,0,0,0,0,-1,1889,379,0,0
672,645,0,0,0,0,0,0,0,0,0,-1,1896,379,0,0
679,645,0,0,0,0,0,0,0,0,0,-1,1903,379,0,0
686,645,0,0,0,0,0,0,0,0,0,-1,1910,379,0,0
693,645,0,0,0,0,0,0,0,0,0,-1,1917,379,0,0
700,645,0,0,0,0,0,0,0,0,0,-1,1924,379,0,0
707,645,0,0,0,0,0,0,0,0,0,-1,1931,379,0,0
714,645,0,0,0,0,0,0,0,0,0,-1,1938,379,0,0
721,645,0,0,0,0,0,0,0,0,0,-1,1945,379,0,0
728,645,0,0,0,0,0,0,0,0,0,-1,1952,379,0,0
735,645,0,0,0,0,0,0,0,0,0,-1,1959,379,0,0
742,645,0,0,0,0,0,0,0,0,0,-1,1966,379,0,0
749,645,0,0,0,0,0,0,0,0,0,-1,1973,379,0,0
756,645,0,0,0,0,0,0,0,0,0,-1,1980,379,0,0
763,645,0,0,0,0,0,0,0,0,0,-1,1987,379,0,0
770,645,0,0,0,0,0,0,0,0,0,-1,1994,379,0,0
777,645,0,0,0,0,0,0,0,0,0,-1,2001,379,0,0
784,645,0,0,0,0,0,0,0,0,0,-1,2008,379,0,0
791,645,0,0,0,0,0,0,0,0,0,-1,2015,379,0,0
798,645,0,0,0,0,0,0,0,0,0,-1,2022,379,0,0
805,645,0,0,0,0,0,0,0,0,0,-1,2029,379,0,0
812,645,0,0,0,0,0,0,0,0,0,-1,2036,379,0,0
-700,638,0,0,0,0,0,0,0,0,0,-1,524,386,0,0
-693,638,0,0,0,0,0,0,0,0,0,-1,531,386,0,0
-686,638,0,0,0,0,0,0,0,0,0,-1,538,386,0,0
-679,638,0,0,0,0,0,0,0,0,0,-1,545,386,0,0
-672,638,0,0,0,0,0,0,0,0,0,-1,552,386,0,0
-665,638,0,0,0,0,0,0,0,0,0,-1,559,386,0,0
-658,638,0,0,0,0,0,0,0,0,0,-1,566,386,0,0
-651,638,0,0,0,0,0,0,0,0,0,-1,573,386,0,0
-644,638,0,0,0,0,0,0,0,0,0,-1,580,386,0,0
-637,638,0,0,0,0,0,0,0,0,0,-1,587,386,0,0
-630,638,0,0,0,0,0,0,0,0,0,-1,594,386,0,0
-623,638,0,0,0,0,0,0,0,0,0,-1,601,386,0,0
-616,638,0,0,0,0,0,0,0,0,0,-1,608,386,0,0
-609,638,0,0,0,0,0,0,0,0,0,-1,615,386,0,0
-602,638,0,0,0,0,0,0,0,0,0,-1,622,386,0,0
-595,638,0,0,0,0,0,0,0,0,0,-1,629,386,0,0
-588,638,0,0,0,0,0,0,0,0,0,-1,636,386,0,0
-581,638,0,0,0,0,0,0,0,0,0,-1,643,386,0,0
-574,638,0,0,0,0,0,0,0,0,0,-1,650,386,0,0
-567,638,0,0,0,0,0,0,0,0,0,-1,657,386,0,0
-560,638,0,0,0,0,0,0,0,0,0,-1,664,386,0,0
-553,638,0,0,0,0,0,0,0,0,0,-1,671,386,0,0
-546,638,0,0,0,0,0,0,0,0,0,-1,678,386,0,0
-539,638,0,0,0,0,0,0,0,0,0,-1,685,386,0,0
-532,638,0,0,0,0,0,0,0,0,0,-1,692,386,0,0
-525,638,0,0,0,0,0,0,0,0,0,-1,699,386,0,0
-518,638,0,0,0,0,0,0,0,0,0,-1,706,386,0,0
-511,638,0,0,0,0,0,0,0,0,0,-1,713,386,0,0
-504,638,0,0,0,0,0,0,0,0,0,-1,720,386,0,0
-497,638,0,0,0,0,0,0,0,0,0,-1,727,386,0,0
-490,638,0,0,0,0,0,0,0,0,0,-1,734,386,0,0
-483,638,0,0,0,0,0,0,0,0,0,-1,741,386,0,0
-476,638,0,0,0,0,0,0,0,0,0,-1,748,386,0,0
-469,638,0,0,0,0,0,0,0,0,0,-1,755,386,0,0
-462,638,0,0,0,0,0,0,0,0,0,-1,762,386,0,0
-455,638,0,0,0,0,0,0,0,0,0,-1,769,386,0,0
-448,638,0,0,0,0,0,0,0,0,0,-1,776,386,0,0
-441,638,0,0,0,0,0,0,0,0,0,-1,783,386,0,0
-434,638,0,0,0,0,0,0,0,0,0,-1,790,386,0,0
-427,638,0,0,0,0,0,0,0,0,0,-1,797,386,0,0
-420,638,0,0,0,0,0,0,0,0,0,-1,804,386,0,0
-413,638,0,0,0,0,0,0,0,0,0,-1,811,386,0,0
-406,638,0,0,0,0,0,0,0,0,0,-1,818,386,0,0
-399,638,0,0,0,0,0,0,0,0,0,-1,825,386,0,0
-392,638,0,0,0,0,0,0,0,0,0,-1,832,386,0,0
-385,638,0,0,0,0,0,0,0,0,0,-1,839,386,0,0
-378,638,0,0,0,0,0,0,0,0,0,-1,846,386,0,0
-371,638,0,0,0,0,0,0,0,0,0,-1,853,386,0,0
-364,638,0,0,0,0,0,0,0,0,0,-1,860,386,0,0
-357,638,0,0,0,0,0,0,0,0,0,-1,867,386,0,0
-350,638,0,0,0,0,0,0,0,0,0,-1,874,386,0,0
-343,638,0,0,0,0,0,0,0,0,0,-1,881,386,0,0
-336,638,0,0,0,0,0,0,0,0,0,-1,888,386,0,0
-329,638,0,0,0,0,0,0,0,0,0,-1,895,386,0,0
-322,638,0,0,0,0,0,0,0,0,0,-1,902,386,0,0
-315,638,0,0,0,0,0,0,0,0,0,-1,909,386,0,0
-308,638,0,0,0,0,0,0,0,0,0,-1,916,386,0,0
-301,638,0,0,0,0,0,0,0,0,0,-1,923,386,0,0
-294,638,0,0,0,0,0,0,0,0,0,-1,930,386,0,0
-287,638,0,0,0,0,0,0,0,0,0,-1,937,386,0,0
-280,638,0,0,0,0,0,0,0,0,0,-1,944,386,0,0
-273,638,0,0,0,0,0,0,0,0,0,-1,951,386,0,0
-266,638,2.3606,-3.24744,0,0,0,0,0,0,0,-1,958,386,2.36062,3.24743
-259,638,3.12671,-2.88864,0,0,0,0,0,0,0,-1,965,386,3.12672,2.88863
-252,638,2.81293,-2.89685,0,0,0,0,0,0,0,-1,972,386,2.81292,2.89685
-245,638,2.50916,-2.103,0,0,0,0,0,0,0,-1,979,386,2.50917,2.10301
-238,638,3.43225,-1.53983,0,0,0,0,0,0,0,-1,986,386,3.43222,1.53983
-231,638,4.27435,-0.896973,0,0,0,0,0,0,0,-1,993,386,4.27436,0.896974
-224,638,1.45276,-1.31796,0,0,0,0,0,0,0,-1,1000,386,1.45275,1.31795
-217,638,1.04449,-1.98676,0,0,0,0,0,0,0,-1,1007,386,1.04451,1.98676
-210,638,1.5274,-2.21857,0,0,0,0,0,0,0,-1,1014,386,1.52743,2.21857
-203,638,-0.720764,-3.34067,0,0,0,0,0,0,0,-1,1021,386,-0.720785,3.34067
-196,638,3.28955,-3.49588,0,0,0,0,0,0,0,-1,1028,386,3.28956,3.49588
-189,638,2.50488,-3.29721,0,0,0,0,0,0,0,-1,1035,386,2.50494,3.29722
-182,638,2.17273,-2.97723,0,0,0,0,0,0,0,-1,1042,386,2.1727,2.97723
-175,638,2.17139,-3.20465,0.00871256,-0.0214095,-0.00474638,0.00944275,-0.0221397,-0.152645,0.0187189,0.0418604,1049,386,2.1714,3.20466
-168,638,1.9436,-2.9798,0.00704784,-0.0210193,-0.00357383,0.00749575,-0.0214672,-0.124681,0.0173582,0.0322908,1056,386,1.9436,2.97979
-161,638,2.01831,-2.98972,0.00608346,-0.0202838,-0.00289231,0.006397,-0.0205974,-0.107983,0.0162882,0.0266966,1063,386,2.01826,2.98973
-154,638,2.10779,-3.0163,0.00443938,-0.0192127,-0.00241368,0.00468318,-0.0194565,-0.100667,0.0147815,0.0206291,1070,386,2.10775,3.0163
-147,638,2.09094,-3.06131,0.00190174,-0.0183435,-0.00215519,0.00212863,-0.0185704,-0.104888,0.0131473,0.0171559,1077,386,2.09098,3.06129
-140,638,2.06909,-3.09625,0.000516552,-0.0167216,-0.00305045,0.00104043,-0.0172455,-0.17008,0.011859,0.0142716,1084,386,2.06912,3.09624
-133,638,2.07312,-3.15341,0.000106601,-0.0145602,-0.00402462,0.00113838,-0.015592,-0.250963,0.0107942,0.0113133,1091,386,2.07316,3.1534
-126,638,2.06616,-3.17908,-0.000630015,-0.0131724,-0.00471007,0.000941795,-0.0147442,-0.322091,0.010158,0.0120854,1098,386,2.06612,3.17907
-119,638,2.0614,-3.2027,-0.00143583,-0.0117212,-0.00569931,0.00109802,-0.0142551,-0.418345,0.00988974,0.0143807,1105,386,2.06138,3.20268
-112,638,2.08264,-3.23218,-0.00211569,-0.0102616,-0.00661152,0.00157673,-0.0139541,-0.509332,0.00987035,0.0138671,1112,386,2.08266,3.23216
-105,638,2.05383,-3.26703,-0.00266729,-0.00855917,-0.00731505,0.00227274,-0.0134992,-0.593972,0.00984489,0.0162369,1119,386,2.05379,3.26703
-98,638,2.06421,-3.2869,-0.00280222,-0.00685552,-0.00787909,0.00330669,-0.0129644,-0.659517,0.00993042,0.0159483,1126,386,2.06417,3.2869
-91,638,2.04932,-3.32382,-0.00264878,-0.00528038,-0.0080679,0.00420992,-0.0121391,-0.704564,0.00980215,0.0115501,1133,386,2.04933,3.32383
-84,638,2.03357,-3.36133,-0.00250549,-0.00372074,-0.00794801,0.00485809,-0.0110843,-0.747247,0.00943544,0.0129232,1140,386,2.03355,3.36134
-77,638,2.02734,-3.38586,-0.00238238,-0.00240567,-0.00762265,0.00522864,-0.0100167,-0.784634,0.00894542,0.0107424,1147,386,2.02735,3.38586
-70,638,2.03992,-3.39279,-0.00190495,-0.00126709,-0.00699454,0.00541579,-0.00858783,-0.808181,0.00815383,0.00943779,1154,386,2.03989,3.39278
-63,638,2.06165,-3.4162,-0.00160977,-0.000502561,-0.00564522,0.00461614,-0.00672846,-0.834275,0.00658755,0.0096787,1161,386,2.06162,3.41621
-56,638,2.07629,-3.4444,-0.00137644,1.63226e-05,-0.00417818,0.00355575,-0.00491588,-0.867975,0.00491206,0.0129173,1168,386,2.07628,3.44439
-49,638,2.05383,-3.44711,-0.000900213,0.000569041,-0.00264898,0.00258337,-0.00291454,-0.920661,0.00317614,0.0118589,1175,386,2.0538,3.44711
-42,638,2.05554,-3.49347,-0.000848769,0.000888061,-0.00129378,0.00157786,-0.00153857,-1.08097,0.00179932,0.0107267,1182,386,2.05554,3.49348
-35,638,2.05408,-3.52087,-0.000777347,0.00103003,-0.000204636,0.00105291,-0.000800226,-1.45945,0.00107322,0.00967516,1189,386,2.05409,3.52089
-28,638,2.04456,-3.54251,-0.000514658,0.000970141,0.000737723,0.00127435,-0.000818868,1.17968,0.00121802,0.00920293,1196,386,2.04461,3.5425
-21,638,2.04395,-3.52029,-0.000383138,0.000849723,0.00101151,0.00141783,-0.000951245,1.05906,0.0013766,0.0104348,1203,386,2.04397,3.52031
-14,638,2.05286,-3.52411,-0.000358439,0.00076967,0.0012175,0.00154743,-0.0011362,1.00232,0.00155545,0.0109581,1210,386,2.05284,3.5241
-7,638,2.04224,-3.6012,-0.00030746,0.000741462,0.00155879,0.00186165,-0.00142765,0.947677,0.00190458,0.0164904,1217,386,2.04222,3.6012
0,638,2.08057,-3.60358,-0.000343174,0.000625905,0.00161206,0.00182467,-0.00154194,0.931389,0.00194599,0.029279,1224,386,2.08055,3.60358
7,638,2.05225,-3.5903,-0.000461846,0.00069392,0.00168846,0.00190065,-0.00166858,0.950277,0.00206215,0.0223243,1231,386,2.05221,3.59031
14,638,2.05298,-3.5741,-0.000615243,0.000739237,0.00178614,0.00197221,-0.00184822,0.966607,0.00220612,0.012472,1238,386,2.05293,3.5741
21,638,2.05042,-3.5863,-0.000619818,0.000898097,0.00184704,0.00213603,-0.00185775,0.980334,0.00230767,0.0110661,1245,386,2.05043,3.5863
28,638,2.03125,-3.58807,-0.000534953,0.00100509,0.00186122,0.00224928,-0.00177915,0.981536,0.00233109,0.00865849,1252,386,2.03122,3.58806
35,638,2.03918,-3.60925,-0.000461354,0.00101239,0.00185753,0.00227387,-0.00172283,0.974225,0.0023148,0.00951072,1259,386,2.03918,3.60925
42,638,2.0636,-3.62985,-0.000346201,0.00122217,0.00174187,0.00234824,-0.00147227,0.996907,0.00222501,0.00938608,1266,386,2.06354,3.62985
49,638,2.07385,-3.60825,-0.00022188,0.00115017,0.00153971,0.00214977,-0.00122148,0.994974,0.00197084,0.00845159,1273,386,2.07385,3.60825
56,638,2.06824,-3.59116,-7.10238e-05,0.00115648,0.0013464,0.00202242,-0.000936961,0.999251,0.00174649,0.0108857,1280,386,2.06829,3.59114
63,638,2.06323,-3.60605,0.000122532,0.00102026,0.00116335,0.00181834,-0.000675547,0.969517,0.00148939,0.0128879,1287,386,2.06318,3.60606
70,638,2.05676,-3.60635,0.000222183,0.000946169,0.000951981,0.00160266,-0.000434307,0.967082,0.00123885,0.0178396,1294,386,2.05677,3.60637
77,638,2.04797,-3.61023,0.000224664,0.000783235,0.000682174,0.00124108,-0.000233181,0.979692,0.000915072,0.0185398,1301,386,2.04794,3.61023
84,638,2.05823,-3.58981,0.000193321,0.000701873,0.000350708,0.000880786,1.44084e-05,1.09906,0.000582447,0.0125405,1308,386,2.05818,3.58982
91,638,2.07397,-3.57593,0.000110061,0.000447366,2.21987e-05,0.000448821,0.000108606,1.50536,0.000270383,0.0128608,1315,386,2.07393,3.57593
98,638,2.08582,-3.57877,-0.000191539,0.000214684,-0.000283871,0.000360624,-0.000337479,-1.09593,0.000403124,0.012573,1322,386,2.08587,3.57875
105,638,2.0769,-3.58908,-0.000360231,9.30924e-05,-0.000356931,0.000289249,-0.000556387,-1.06829,0.000496282,0.00989304,1329,386,2.07693,3.58908
112,638,2.07751,-3.58667,-0.000175148,-0.000175809,-0.000472805,0.000297326,-0.000648283,-0.785049,0.000558341,0.00881228,1336,386,2.07753,3.58667
119,638,2.07349,-3.5722,-2.05697e-05,-0.000351292,-0.00063162,0.000466976,-0.000838838,-0.657369,0.000764034,0.0108264,1343,386,2.07346,3.5722
126,638,2.07397,-3.54019,0.000141176,-0.000574527,-0.000795572,0.000655674,-0.00108902,-0.574053,0.00101761,0.0141536,1350,386,2.07396,3.5402
133,638,2.09009,-3.50842,0.000296019,-0.000644608,-0.000872197,0.000816626,-0.00116521,-0.53813,0.0011501,0.0146678,1357,386,2.0901,3.50843
140,638,2.06262,-3.50775,0.000358996,-0.00067907,-0.000961396,0.000932519,-0.00125259,-0.53788,0.00126608,0.0156578,1364,386,2.06263,3.50776
147,638,2.04944,-3.51248,0.000276501,-0.000900704,-0.000964726,0.000818009,-0.00144221,-0.511483,0.00132142,0.0167527,1371,386,2.0494,3.51248
154,638,2.0614,-3.49716,-2.62481e-05,-0.000949647,-0.000922467,0.000543611,-0.00151951,-0.553373,0.00123476,0.0154935,1378,386,2.06141,3.49715
161,638,2.07263,-3.44864,-0.000456976,-0.000939954,-0.000864385,0.000199019,-0.00159595,-0.649183,0.00113613,0.017576,1385,386,2.07263,3.44863
168,638,2.07593,-3.40421,-0.00105375,-0.000883215,-0.000607613,-0.000354917,-0.00158205,-0.85511,0.000958553,0.0225529,1392,386,2.0759,3.4042
175,638,2.08362,-3.39987,-0.00174043,-0.00078333,-0.000330715,-0.000680173,-0.00184359,-1.26844,0.00107652,0.0196015,1399,386,2.08357,3.39989
182,638,2.06824,-3.37433,-0.00236979,-0.000512078,8.67194e-05,-0.000508039,-0.00237383,1.52425,0.00144333,0.0132748,1406,386,2.06828,3.37434
189,638,2.03418,-3.36447,-0.00310948,-0.000144096,0.000633604,-1.43891e-05,-0.00323919,1.36887,0.00215468,0.0112357,1413,386,2.03413,3.36448
196,638,2.0321,-3.33218,-0.00390039,0.000648667,0.00127467,0.000981484,-0.00423321,1.3154,0.00319987,0.0134118,1420,386,2.03212,3.33217
203,638,2.03442,-3.3049,-0.00443172,0.00129841,0.00190715,0.00187512,-0.00500843,1.27715,0.00410917,0.0202674,1427,386,2.03448,3.3049
210,638,2.04907,-3.29446,-0.00477856,0.00236331,0.00270178,0.00327023,-0.00568549,1.24694,0.00523289,0.0159994,1434,386,2.04906,3.29447
217,638,2.05493,-3.27225,-0.00494695,0.00358876,0.00361135,0.00491165,-0.00626984,1.21966,0.00647149,0.0110729,1441,386,2.05496,3.27226
224,638,2.05957,-3.22604,-0.00473406,0.0050179,0.00468499,0.0069039,-0.00662006,1.18808,0.00780863,0.0102454,1448,386,2.05959,3.22604
231,638,2.05054,-3.17242,-0.00414042,0.00728271,0.00594363,0.00981424,-0.00667195,1.16814,0.00957577,0.0111557,1455,386,2.05059,3.17242
238,638,2.02246,-3.15112,-0.00336217,0.00921465,0.00695914,0.0123057,-0.00645319,1.1528,0.0110047,0.0125984,1462,386,2.02247,3.15112
245,638,2.01648,-3.0997,-0.00249823,0.0112916,0.00798492,0.0149465,-0.00615313,1.14154,0.0125296,0.0145211,1469,386,2.01645,3.0997
252,638,2.01208,-3.05994,-0.00169628,0.0134098,0.00889598,0.0175266,-0.00581316,1.13737,0.0140295,0.0153096,1476,386,2.0121,3.05994
259,638,2.05273,-3.02377,-0.00079292,0.0150817,0.00902221,0.0191611,-0.00487231,1.14616,0.0146704,0.0146615,1483,386,2.05278,3.02378
266,638,2.04089,-2.97626,0.000240559,0.0163086,0.00844325,0.0199294,-0.0033802,1.16568,0.0145445,0.0111282,1490,386,2.04094,2.97627
273,638,2.03491,-2.95395,0.00138965,0.0176693,0.00789892,0.0208719,-0.0018129,1.18561,0.0145566,0.00984269,1497,386,2.03497,2.95395
280,638,2.03918,-2.87137,0.00267676,0.0189012,0.00696422,0.0214805,9.74666e-05,1.2161,0.014288,0.0160092,1504,386,2.03913,2.87136
287,638,2.14661,-2.78284,0.0038159,0.0193697,0.00571063,0.0212412,0.0019444,1.25411,0.0135592,0.0291033,1511,386,2.14656,2.78285
294,638,2.20044,-2.78802,0.00465281,0.0190255,0.00370442,0.0199241,0.00375422,1.33282,0.012225,0.0390219,1518,386,2.20049,2.78803
301,638,1.99109,-2.7374,0.0060427,0.018241,0.00158536,0.0184436,0.00584002,1.44364,0.0108845,0.0451799,1525,386,1.99106,2.73738
308,638,4.65259,-0.25473,0,0,0,0,0,0,0,-1,1532,386,4.65255,0.254722
315,638,1.53369,-2.77606,0,0,0,0,0,0,0,-1,1539,386,1.53366,2.77605
322,638,1.96838,-2.30695,0,0,0,0,0,0,0,-1,1546,386,1.96832,2.30693
329,638,2.14209,-2.14536,0,0,0,0,0,0,0,-1,1553,386,2.14208,2.14536
336,638,3.03284,-2.29492,0,0,0,0,0,0,0,-1,1560,386,3.0328,2.29492
343,638,1.80139,-2.85394,0,0,0,0,0,0,0,-1,1567,386,1.80143,2.85395
350,638,0.886963,-1.98822,0,0,0,0,0,0,0,-1,1574,386,0.886965,1.98823
357,638,1.77625,-1.60391,0,0,0,0,0,0,0,-1,1581,386,1.77623,1.6039
364,638,2.14099,-1.87643,0.0330662,0.0315918,-0.0431936,0.0755289,-0.0108709,-0.776865,0.0543399,0.0467842,1588,386,2.14094,1.87645
371,638,2.50842,-2.15811,0.0396182,0.028733,-0.0534617,0.0879136,-0.0195624,-0.734671,0.0661019,0.041083,1595,386,2.50837,2.1581
378,638,2.73938,-2.34021,0,0,0,0,0,0,0,-1,1602,386,2.73942,2.34022
385,638,0,0,0,0,0,0,0,0,0,-1,1609,386,0,0
392,638,0,0,0,0,0,0,0,0,0,-1,1616,386,0,0
399,638,0,0,0,0,0,0,0,0,0,-1,1623,386,0,0
406,638,0,0,0,0,0,0,0,0,0,-1,1630,386,0,0
413,638,0,0,0,0,0,0,0,0,0,-1,1637,386,0,0
420,638,0,0,0,0,0,0,0,0,0,-1,1644,386,0,0
427,638,0,0,0,0,0,0,0,0,0,-1,1651,386,0,0
434,638,0,0,0,0,0,0,0,0,0,-1,1658,386,0,0
441,638,0,0,0,0,0,0,0,0,0,-1,1665,386,0,0
448,638,0,0,0,0,0,0,0,0,0,-1,1672,386,0,0
455,638,0,0,0,0,0,0,0,0,0,-1,1679,386,0,0
462,638,0,0,0,0,0,0,0,0,0,-1,1686,386,0,0
469,638,0,0,0,0,0,0,0,0,0,-1,1693,386,0,0
476,638,0,0,0,0,0,0,0,0,0,-1,1700,386,0,0
483,638,0,0,0,0,0,0,0,0,0,-1,1707,386,0,0
490,638,0,0,0,0,0,0,0,0,0,-1,1714,386,0,0
497,638,0,0,0,0,0,0,0,0,0,-1,1721,386,0,0
504,638,0,0,0,0,0,0,0,0,0,-1,1728,386,0,0
511,638,0,0,0,0,0,0,0,0,0,-1,1735,386,0,0
518,638,0,0,0,0,0,0,0,0,0,-1,1742,386,0,0
525,638,0,0,0,0,0,0,0,0,0,-1,1749,386,0,0
532,638,0,0,0,0,0,0,0,0,0,-1,1756,386,0,0
539,638,0,0,0,0,0,0,0,0,0,-1,1763,386,0,0
546,638,0,0,0,0,0,0,0,0,0,-1,1770,386,0,0
553,638,0,0,0,0,0,0,0,0,0,-1,1777,386,0,0
560,638,0,0,0,0,0,0,0,0,0,-1,1784,386,0,0
567,638,0,0,0,0,0,0,0,0,0,-1,1791,386,0,0
574,638,0,0,0,0,0,0,0,0,0,-1,1798,386,0,0
581,638,0,0,0,0,0,0,0,0,0,-1,1805,386,0,0
588,638,0,0,0,0,0,0,0,0,0,-1,1812,386,0,0
595,638,0,0,0,0,0,0,0,0,0,-1,1819,386,0,0
602,638,0,0,0,0,0,0,0,0,0,-1,1826,386,0,0
609,638,0,0,0,0,0,0,0,0,0,-1,1833,386,0,0
616,638,0,0,0,0,0,0,0,0,0,-1,1840,386,0,0
623,638,0,0,0,0,0,0,0,0,0,-1,1847,386,0,0
630,638,0,0,0,0,0,0,0,0,0,-1,1854,386,0,0
637,638,0,0,0,0,0,0,0,0,0,-1,1861,386,0,0
644,638,0,0,0,0,0,0,0,0,0,-1,1868,386,0,0
651,638,0,0,0,0,0,0,0,0,0,-1,1875,386,0,0
658,638,0,0,0,0,0,0,0,0,0,-1,1882,386,0,0
665,638,0,0,0,0,0,0,0,0,0,-1,1889,386,0,0
672,638,0,0,0,0,0,0,0,0,0,-1,1896,386,0,0
679,638,0,0,0,0,0,0,0,0,0,-1,1903,386,0,0
686,638,0,0,0,0,0,0,0,0,0,-1,1910,386,0,0
693,638,0,0,0,0,0,0,0,0,0,-1,1917,386,0,0
700,638,0,0,0,0,0,0,0,0,0,-1,1924,386,0,0
707,638,0,0,0,0,0,0,0,0,0,-1,1931,386,0,0
714,638,0,0,0,0,0,0,0,0,0,-1,1938,386,0,0
721,638,0,0,0,0,0,0,0,0,0,-1,1945,386,0,0
728,638,0,0,0,0,0,0,0,0,0,-1,1952,386,0,0
735,638,0,0,0,0,0,0,0,0,0,-1,1959,386,0,0
742,638,0,0,0,0,0,0,0,0,0,-1,1966,386,0,0
749,638,0,0,0,0,0,0,0,0,0,-1,1973,386,0,0
756,638,0,0,0,0,0,0,0,0,0,-1,1980,386,0,0
763,638,0,0,0,0,0,0,0,0,0,-1,1987,386,0,0
770,638,0,0,0,0,0,0,0,0,0,-1,1994,386,0,0
777,638,0,0,0,0,0,0,0,0,0,-1,2001,386,0,0
784,638,0,0,0,0,0,0,0,0,0,-1,2008,386,0,0
791,638,0,0,0,0,0,0,0,0,0,-1,2015,386,0,0
798,638,0,0,0,0,0,0,0,0,0,-1,2022,386,0,0
805,638,0,0,0,0,0,0,0,0,0,-1,2029,386,0,0
812,638,0,0,0,0,0,0,0,0,0,-1,2036,386,0,0
-700,631,0,0,0,0,0,0,0,0,0,-1,524,393,0,0
-693,631,0,0,0,0,0,0,0,0,0,-1,531,393,0,0
-686,631,0,0,0,0,0,0,0,0,0,-1,538,393,0,0
-679,631,0,0,0,0,0,0,0,0,0,-1,545,393,0,0
-672,631,0,0,0,0,0,0,0,0,0,-1,552,393,0,0
-665,631,0,0,0,0,0,0,0,0,0,-1,559,393,0,0
-658,631,0,0,0,0,0,0,0,0,0,-1,566,393,0,0
-651,631,0,0,0,0,0,0,0,0,0,-1,573,393,0,0
-644,631,0,0,0,0,0,0,0,0,0,-1,580,393,0,0
-637,631,0,0,0,0,0,0,0,0,0,-1,587,393,0,0
-630,631,0,0,0,0,0,0,0,0,0,-1,594,393,0,0
-623,631,0,0,0,0,0,0,0,0,0,-1,601,393,0,0
-616,631,0,0,0,0,0,0,0,0,0,-1,608,393,0,0
-609,631,0,0,0,0,0,0,0,0,0,-1,615,393,0,0
-602,631,0,0,0,0,0,0,0,0,0,-1,622,393,0,0
-595,631,0,0,0,0,0,0,0,0,0,-1,629,393,0,0
-588,631,0,0,0,0,0,0,0,0,0,-1,636,393,0,0
-581,631,0,0,0,0,0,0,0,0,0,-1,643,393,0,0
-574,631,0,0,0,0,0,0,0,0,0,-1,650,393,0,0
-567,631,0,0,0,0,0,0,0,0,0,-1,657,393,0,0
-560,631,0,0,0,0,0,0,0,0,0,-1,664,393,0,0
-553,631,0,0,0,0,0,0,0,0,0,-1,671,393,0,0
-546,631,0,0,0,0,0,0,0,0,0,-1,678,393,0,0
-539,631,0,0,0,0,0,0,0,0,0,-1,685,393,0,0
-532,631,0,0,0,0,0,0,0,0,0,-1,692,393,0,0
-525,631,0,0,0,0,0,0,0,0,0,-1,699,393,0,0
-518,631,0,0,0,0,0,0,0,0,0,-1,706,393,0,0
-511,631,0,0,0,0,0,0,0,0,0,-1,713,393,0,0
-504,631,0,0,0,0,0,0,0,0,0,-1,720,393,0,0
-497,631,0,0,0,0,0,0,0,0,0,-1,727,393,0,0
-490,631,0,0,0,0,0,0,0,0,0,-1,734,393,0,0
-483,631,0,0,0,0,0,0,0,0,0,-1,741,393,0,0
-476,631,0,0,0,0,0,0,0,0,0,-1,748,393,0,0
-469,631,0,0,0,0,0,0,0,0,0,-1,755,393,0,0
-462,631,0,0,0,0,0,0,0,0,0,-1,762,393,0,0
-455,631,0,0,0,0,0,0,0,0,0,-1,769,393,0,0
-448,631,0,0,0,0,0,0,0,0,0,-1,776,393,0,0
-441,631,0,0,0,0,0,0,0,0,0,-1,783,393,0,0
-434,631,0,0,0,0,0,0,0,0,0,-1,790,393,0,0
-427,631,0,0,0,0,0,0,0,0,0,-1,797,393,0,0
-420,631,0,0,0,0,0,0,0,0,0,-1,804,393,0,0
-413,631,0,0,0,0,0,0,0,0,0,-1,811,393,0,0
-406,631,0,0,0,0,0,0,0,0,0,-1,818,393,0,0
-399,631,0,0,0,0,0,0,0,0,0,-1,825,393,0,0
-392,631,0,0,0,0,0,0,0,0,0,-1,832,393,0,0
-385,631,0,0,0,0,0,0,0,0,0,-1,839,393,0,0
-378,631,0,0,0,0,0,0,0,0,0,-1,846,393,0,0
-371,631,0,0,0,0,0,0,0,0,0,-1,853,393,0,0
-364,631,0,0,0,0,0,0,0,0,0,-1,860,393,0,0
-357,631,0,0,0,0,0,0,0,0,0,-1,867,393,0,0
-350,631,0,0,0,0,0,0,0,0,0,-1,874,393,0,0
-343,631,0,0,0,0,0,0,0,0,0,-1,881,393,0,0
-336,631,0,0,0,0,0,0,0,0,0,-1,888,393,0,0
-329,631,0,0,0,0,0,0,0,0,0,-1,895,393,0,0
-322,631,0,0,0,0,0,0,0,0,0,-1,902,393,0,0
-315,631,0,0,0,0,0,0,0,0,0,-1,909,393,0,0
-308,631,0,0,0,0,0,0,0,0,0,-1,916,393,0,0
-301,631,0,0,0,0,0,0,0,0,0,-1,923,393,0,0
-294,631,0,0,0,0,0,0,0,0,0,-1,930,393,0,0
-287,631,0,0,0,0,0,0,0,0,0,-1,937,393,0,0
-280,631,3.21155,-3.91116,0,0,0,0,0,0,0,-1,944,393,3.21154,3.91116
-273,631,2.43817,-3.03851,0,0,0,0,0,0,0,-1,951,393,2.43818,3.03851
-266,631,2.53784,-2.70053,0,0,0,0,0,0,0,-1,958,393,2.53784,2.70054
-259,631,2.95166,-2.75818,0,0,0,0,0,0,0,-1,965,393,2.95163,2.75819
-252,631,2.56934,-2.42886,0,0,0,0,0,0,0,-1,972,393,2.56931,2.42888
-245,631,2.35394,-2.19775,0,0,0,0,0,0,0,-1,979,393,2.35395,2.19775
-238,631,2.62775,-1.80988,0,0,0,0,0,0,0,-1,986,393,2.62775,1.80987
-231,631,1.28876,-1.63452,0,0,0,0,0,0,0,-1,993,393,1.28878,1.63453
-224,631,1.63245,-1.4957,0,0,0,0,0,0,0,-1,1000,393,1.63244,1.49571
-217,631,3.22504,-1.83496,0,0,0,0,0,0,0,-1,1007,393,3.22505,1.83495
-210,631,0.282532,-2.42853,0,0,0,0,0,0,0,-1,1014,393,0.28254,2.42854
-203,631,0.161133,-2.93063,0.00824031,-0.0109216,-0.0102486,0.0126889,-0.0153702,-0.409527,0.0162246,0.0459587,1021,393,0.161143,2.93062
-196,631,2.65442,-2.87451,0.00933326,-0.0128061,-0.00899807,0.012529,-0.0160019,-0.341266,0.016513,0.0476565,1028,393,2.65446,2.8745
-189,631,2.23816,-2.9906,0.00951484,-0.014347,-0.00763362,0.0117479,-0.0165801,-0.284592,0.0164343,0.0476884,1035,393,2.23813,2.99061
-182,631,2.11511,-2.90897,0.00926771,-0.0153445,-0.00619164,0.0107376,-0.0168144,-0.233076,0.0160356,0.0413488,1042,393,2.11514,2.90896
-175,631,2.08044,-2.89905,0.00831885,-0.0157494,-0.00462879,0.00917836,-0.016609,-0.183597,0.0150929,0.0318368,1049,393,2.08047,2.89905
-168,631,2.047,-2.93741,0.00712405,-0.0155359,-0.00354701,0.0076663,-0.0160782,-0.151699,0.0139927,0.0177175,1056,393,2.04694,2.93742
-161,631,2.02197,-2.98605,0.00646467,-0.0149522,-0.00281711,0.00682903,-0.0153165,-0.128623,0.013095,0.00910512,1063,393,2.02194,2.98606
-154,631,2.04285,-3.03055,0.00525196,-0.013999,-0.00223198,0.00550735,-0.0142544,-0.113928,0.0117761,0.00831338,1070,393,2.04287,3.03056
-147,631,2.0481,-3.07172,0.00312155,-0.0131617,-0.00182311,0.00332317,-0.0133633,-0.110145,0.0101987,0.00937985,1077,393,2.04812,3.07173
-140,631,2.04163,-3.12531,0.0020555,-0.0117759,-0.00246546,0.00248183,-0.0122022,-0.171227,0.00907593,0.00950561,1084,393,2.04161,3.12531
-133,631,2.03894,-3.16412,0.00182808,-0.0100319,-0.0030931,0.00258629,-0.0107901,-0.240391,0.0081927,0.00807752,1091,393,2.03896,3.16412
-126,631,2.04309,-3.16687,0.00129124,-0.00894983,-0.00348716,0.00236588,-0.0100245,-0.298935,0.00759544,0.0118603,1098,393,2.0431,3.16686
-119,631,2.03528,-3.19244,0.00064039,-0.00782911,-0.0041258,0.00231794,-0.00950666,-0.386183,0.00723526,0.0157114,1105,393,2.03527,3.19244
-112,631,2.02661,-3.23889,-1.48719e-05,-0.00676154,-0.00466161,0.00236592,-0.00914234,-0.472189,0.00701775,0.0138458,1112,393,2.02659,3.2389
-105,631,2.05139,-3.27188,-0.000668384,-0.0055442,-0.00501357,0.00246858,-0.00868117,-0.5591,0.00676221,0.0174344,1119,393,2.05137,3.27189
-98,631,2.06323,-3.29782,-0.00100768,-0.00432569,-0.00529508,0.0028822,-0.00821558,-0.633587,0.00664937,0.0157518,1126,393,2.06325,3.29784
-91,631,2.02527,-3.35806,-0.00114573,-0.00325254,-0.00529056,0.00319528,-0.00759355,-0.687128,0.00639914,0.0162023,1133,393,2.02523,3.35805
-84,631,2.01819,-3.39276,-0.00129148,-0.00219487,-0.00504506,0.00332206,-0.00680841,-0.740751,0.00596317,0.015558,1140,393,2.01823,3.39276
-77,631,2.00464,-3.39349,-0.0014287,-0.00129888,-0.00459387,0.00323054,-0.00595812,-0.792462,0.00538242,0.0103149,1147,393,2.00459,3.3935
-70,631,2.01892,-3.38663,-0.00140709,-0.000541999,-0.00397161,0.00302055,-0.00496965,-0.839639,0.00465867,0.0100407,1154,393,2.01893,3.38663
-63,631,2.04456,-3.41483,-0.00144005,-4.19684e-05,-0.00299765,0.00233707,-0.00381909,-0.899949,0.00358842,0.00912961,1161,393,2.04455,3.41482
-56,631,2.04761,-3.46628,-0.00134146,0.000296925,-0.00205724,0.00169207,-0.00273661,-0.974876,0.0025805,0.0101208,1168,393,2.04758,3.46627
-49,631,2.03467,-3.48438,-0.00104089,0.000631597,-0.00111152,0.00118632,-0.00159561,-1.1079,0.00161193,0.00971914,1175,393,2.03471,3.48436
-42,631,2.0354,-3.48196,-0.00106243,0.000838755,-0.000372403,0.000909098,-0.00113278,-1.38411,0.00118123,0.00850093,1182,393,2.03544,3.48196
-35,631,2.0365,-3.4986,-0.00111175,0.000987311,0.000192413,0.0010048,-0.00112924,1.48014,0.00123279,0.0099256,1189,393,2.03648,3.49861
-28,631,2.01941,-3.51855,-0.00110909,0.00104163,0.000701603,0.00125026,-0.00131773,1.28175,0.0014828,0.0126516,1196,393,2.01935,3.51855
-21,631,2.0127,-3.52493,-0.00118129,0.000991458,0.000871574,0.00129787,-0.0014877,1.23273,0.00160949,0.0112398,1203,393,2.01267,3.52493
-14,631,1.99292,-3.56259,-0.00151012,0.000962061,0.0010946,0.00137705,-0.0019251,1.20841,0.00191523,0.0133393,1210,393,1.99293,3.56259
-7,631,2.00671,-3.61148,-0.00164423,0.000899089,0.00152169,0.00161052,-0.00235566,1.13346,0.00230331,0.0204814,1217,393,2.0067,3.61147
0,631,2.05029,-3.62265,-0.00167125,0.000746475,0.00158889,0.00153409,-0.00245886,1.11059,0.00232585,0.022087,1224,393,2.05034,3.62264
7,631,2.04932,-3.5979,-0.00182888,0.00103935,0.00183448,0.00193375,-0.00272328,1.11716,0.00270159,0.0179066,1231,393,2.04935,3.59791
14,631,2.05066,-3.58093,-0.0019538,0.00123872,0.00212759,0.00230228,-0.00301737,1.10723,0.00308054,0.0105399,1238,393,2.05063,3.58093
21,631,2.03955,-3.5809,-0.00180693,0.00165145,0.00247872,0.00294453,-0.00310002,1.08996,0.00349021,0.0127078,1245,393,2.03961,3.58092
28,631,2.01038,-3.59052,-0.00150165,0.00196194,0.00283207,0.00354974,-0.00308945,1.05981,0.00383621,0.0138923,1252,393,2.01038,3.59051
35,631,2.03601,-3.60193,-0.00115559,0.0020553,0.00319188,0.00402275,-0.00312304,1.01841,0.00413651,0.0122673,1259,393,2.03606,3.60193
42,631,2.06763,-3.61639,-0.000716149,0.00235814,0.00344469,0.0045931,-0.0029511,0.995258,0.0043899,0.0107281,1266,393,2.06765,3.61638
49,631,2.05383,-3.60971,-0.000274381,0.00199434,0.00364632,0.00467868,-0.00295871,0.936202,0.00444657,0.0102305,1273,393,2.05382,3.60972
56,631,2.05396,-3.59448,0.000132596,0.00184859,0.00379148,0.00487794,-0.00289676,0.896672,0.00453704,0.0120582,1280,393,2.05391,3.59448
63,631,2.0636,-3.60867,0.000542041,0.00139278,0.00388509,0.00487571,-0.00294089,0.839925,0.00455877,0.0139431,1287,393,2.06362,3.60869
70,631,2.05603,-3.59869,0.000815457,0.000895266,0.00387554,0.00473111,-0.00302038,0.790546,0.00451151,0.0144854,1294,393,2.05598,3.59869
77,631,2.04199,-3.60605,0.000992431,0.00028858,0.00373749,0.00439453,-0.00311352,0.738456,0.00435576,0.0142135,1301,393,2.04196,3.60603
84,631,2.05627,-3.60559,0.0010159,-0.000273904,0.00338758,0.00381942,-0.00307742,0.691337,0.00398957,0.0113949,1308,393,2.05631,3.60558
91,631,2.06763,-3.58243,0.000910989,-0.000972999,0.00300974,0.00312271,-0.00318472,0.633736,0.00364165,0.0136509,1315,393,2.0676,3.58242
98,631,2.05713,-3.57996,0.000350004,-0.00146563,0.00268345,0.00227503,-0.00339066,0.62229,0.00329216,0.0122792,1322,393,2.05711,3.57997
105,631,2.05103,-3.59955,-4.52326e-05,-0.00177231,0.00264008,0.00186895,-0.0036865,0.627338,0.00326416,0.0106703,1329,393,2.05098,3.59955
112,631,2.07373,-3.5965,0.000174588,-0.00224253,0.00234414,0.00160337,-0.00367132,0.547386,0.00312239,0.0107127,1336,393,2.07368,3.59651
119,631,2.06836,-3.58646,0.000347914,-0.00222781,0.00206991,0.00149791,-0.00337781,0.507113,0.0028839,0.0113828,1343,393,2.06837,3.58647
126,631,2.07019,-3.55389,0.000540733,-0.00225145,0.00176181,0.00139254,-0.00310326,0.450347,0.00265755,0.0159761,1350,393,2.07025,3.55389
133,631,2.08069,-3.51505,0.000766668,-0.00202067,0.0015468,0.00145504,-0.00270904,0.418714,0.0024402,0.018091,1357,393,2.08063,3.51504
140,631,2.04858,-3.51144,0.000908116,-0.00155589,0.00128598,0.00145701,-0.00210478,0.403417,0.0020677,0.0195882,1364,393,2.04852,3.51144
147,631,2.04565,-3.50565,0.000927104,-0.00138264,0.00111727,0.0013791,-0.00183463,0.384425,0.00186165,0.0208964,1371,393,2.04566,3.50565
154,631,2.07361,-3.4761,0.000764577,-0.000835606,0.000878924,0.00115304,-0.00122406,0.416158,0.00137262,0.0198067,1378,393,2.07363,3.47609
161,631,2.04333,-3.4599,0.000429217,-0.000776582,0.00065619,0.000717425,-0.00106479,0.413849,0.00103546,0.0225199,1385,393,2.04338,3.45989
168,631,2.08936,-3.40564,-3.23902e-05,-0.000591845,0.000564226,0.000317643,-0.000941879,0.555268,0.00075637,0.0274097,1392,393,2.08941,3.40564
175,631,2.10388,-3.39178,-0.00054625,-0.000431013,0.000427168,-5.75949e-05,-0.000919669,0.852436,0.000594844,0.0215567,1399,393,2.10386,3.39179
182,631,2.06897,-3.39191,-0.00105131,-0.000131791,0.000348857,-1.44202e-05,-0.00116868,1.24625,0.00077436,0.0115064,1406,393,2.06896,3.3919
189,631,2.07129,-3.34,-0.0016277,0.000201465,0.000466793,0.000313701,-0.00173994,1.33483,0.00127743,0.0103878,1413,393,2.07135,3.34001
196,631,2.07813,-3.32449,-0.00213641,0.00082619,0.000619397,0.000950474,-0.0022607,1.37277,0.00190472,0.0108137,1420,393,2.07807,3.32448
203,631,2.0802,-3.29889,-0.00240962,0.00136295,0.000809658,0.00152937,-0.00257604,1.36807,0.0023958,0.0138499,1427,393,2.08018,3.29888
210,631,2.07251,-3.27856,-0.00267813,0.00222677,0.00128952,0.00254513,-0.00299649,1.32876,0.00320299,0.0155518,1434,393,2.07251,3.27856
217,631,2.07373,-3.26434,-0.0028592,0.00318992,0.00197228,0.00377615,-0.00344543,1.28188,0.00417084,0.0154222,1441,393,2.07376,3.26434
224,631,2.07031,-3.23361,-0.00256186,0.00426593,0.00275316,0.00523775,-0.00353369,1.23146,0.00509595,0.0123572,1448,393,2.07034,3.23362
231,631,2.06213,-3.189,-0.00201396,0.00595721,0.00371621,0.00742094,-0.00347769,1.19558,0.00642815,0.0113188,1455,393,2.06216,3.18899
238,631,2.04224,-3.14124,-0.00133984,0.00744166,0.00451716,0.00935039,-0.00324857,1.171,0.00755302,0.0174031,1462,393,2.04221,3.14125
245,631,2.0553,-3.11026,-0.000659423,0.0088567,0.0053541,0.0112614,-0.00306415,1.14866,0.00871055,0.0186393,1469,393,2.05527,3.11024
252,631,2.03613,-3.07031,-0.000164735,0.0102684,0.00607912,0.0130624,-0.00295867,1.13999,0.00984382,0.0176122,1476,393,2.03609,3.07032
259,631,2.06665,-3.03473,0.00031047,0.01135,0.00624883,0.0141678,-0.00250738,1.14716,0.0103824,0.0127823,1483,393,2.06667,3.03474
266,631,2.09595,-2.98245,0.00086349,0.0121892,0.00586682,0.0146804,-0.00162763,1.16925,0.0103721,0.0113525,1490,393,2.09596,2.98245
273,631,2.08167,-2.92987,0.00148382,0.0130399,0.00549253,0.0152339,-0.000710187,1.19076,0.0104008,0.0135851,1497,393,2.08169,2.92988
280,631,2.05164,-2.91849,0.00216854,0.0137316,0.00490153,0.0155297,0.000370417,1.21919,0.0102319,0.0119889,1504,393,2.05167,2.9185
287,631,2.08179,-2.87827,0.00286705,0.0138176,0.00420543,0.0152462,0.00143839,1.24331,0.00972024,0.012334,1511,393,2.08176,2.87828
294,631,2.10681,-2.83392,0.00354062,0.013637,0.00295038,0.0144359,0.00274167,1.30635,0.00885273,0.0156545,1518,393,2.10678,2.83392
301,631,2.06921,-2.77808,0.00461661,0.0132611,0.00169675,0.0135822,0.0042955,1.38376,0.00801622,0.0235594,1525,393,2.06918,2.77809
308,631,1.99011,-2.69553,0.00554406,0.0138344,0.000419826,0.0138556,0.00552285,1.52033,0.00805419,0.0309566,1532,393,1.99013,2.69554
315,631,1.90808,-2.66708,0.00710418,0.0136893,-0.00265745,0.0146279,0.00616555,-1.23127,0.00848007,0.0349238,1539,393,1.90811,2.66707
322,631,1.97339,-2.52158,0.00897143,0.0145127,-0.00609462,0.0184369,0.00504723,-0.998736,0.0110018,0.0396808,1546,393,1.97334,2.52158
329,631,2.1333,-2.3028,0.010506,0.0152994,-0.00927516,0.0224825,0.0033229,-0.911831,0.0140126,0.0453259,1553,393,2.13331,2.3028
336,631,2.24951,-2.06509,0,0,0,0,0,0,0,-1,1560,393,2.24946,2.06508
343,631,2.74878,-2.32996,0,0,0,0,0,0,0,-1,1567,393,2.74874,2.32995
350,631,1.53174,-1.17929,0,0,0,0,0,0,0,-1,1574,393,1.53179,1.1793
357,631,2.63489,-1.33075,0,0,0,0,0,0,0,-1,1581,393,2.6349,1.33074
364,631,2.54968,-1.79788,0.0275251,0.0256292,-0.0325364,0.0591274,-0.00597309,-0.770835,0.0415526,0.0440207,1588,393,2.54966,1.79787
371,631,2.50488,-2.59845,0.0342369,0.02274,-0.042117,0.0709959,-0.0140191,-0.717573,0.0526297,0.0458066,1595,393,2.50485,2.59844
378,631,2.78345,-3.19324,0,0,0,0,0,0,0,-1,1602,393,2.78341,3.19324
385,631,-0.134521,-3.57809,0,0,0,0,0,0,0,-1,1609,393,-0.134506,3.57811
392,631,-0.12915,-1.9212,0,0,0,0,0,0,0,-1,1616,393,-0.129153,1.92121
399,631,0,0,0,0,0,0,0,0,0,-1,1623,393,0,0
406,631,0,0,0,0,0,0,0,0,0,-1,1630,393,0,0
413,631,0,0,0,0,0,0,0,0,0,-1,1637,393,0,0
420,631,0,0,0,0,0,0,0,0,0,-1,1644,393,0,0
427,631,0,0,0,0,0,0,0,0,0,-1,1651,393,0,0
434,631,0,0,0,0,0,0,0,0,0,-1,1658,393,0,0
441,631,0,0,0,0,0,0,0,0,0,-1,1665,393,0,0
448,631,0,0,0,0,0,0,0,0,0,-1,1672,393,0,0
455,631,0,0,0,0,0,0,0,0,0,-1,1679,393,0,0
462,631,0,0,0,0,0,0,0,0,0,-1,1686,393,0,0
469,631,0,0,0,0,0,0,0,0,0,-1,1693,393,0,0
476,631,0,0,0,0,0,0,0,0,0,-1,1700,393,0,0
483,631,0,0,0,0,0,0,0,0,0,-1,1707,393,0,0
490,631,0,0,0,0,0,0,0,0,0,-1,1714,393,0,0
497,631,0,0,0,0,0,0,0,0,0,-1,1721,393,0,0
504,631,0,0,0,0,0,0,0,0,0,-1,1728,393,0,0
511,631,0,0,0,0,0,0,0,0,0,-1,1735,393,0,0
518,631,0,0,0,0,0,0,0,0,0,-1,1742,393,0,0
525,631,0,0,0,0,0,0,0,0,0,-1,1749,393,0,0
532,631,0,0,0,0,0,0,0,0,0,-1,1756,393,0,0
539,631,0,0,0,0,0,0,0,0,0,-1,1763,393,0,0
546,631,0,0,0,0,0,0,0,0,0,-1,1770,393,0,0
553,631,0,0,0,0,0,0,0,0,0,-1,1777,393,0,0
560,631,0,0,0,0,0,0,0,0,0,-1,1784,393,0,0
567,631,0,0,0,0,0,0,0,0,0,-1,1791,393,0,0
574,631,0,0,0,0,0,0,0,0,0,-1,1798,393,0,0
581,631,0,0,0,0,0,0,0,0,0,-1,1805,393,0,0
588,631,0,0,0,0,0,0,0,0,0,-1,1812,393,0,0
595,631,0,0,0,0,0,0,0,0,0,-1,1819,393,0,0
602,631,0,0,0,0,0,0,0,0,0,-1,1826,393,0,0
609,631,0,0,0,0,0,0,0,0,0,-1,1833,393,0,0
616,631,0,0,0,0,0,0,0,0,0,-1,1840,393,0,0
623,631,0,0,0,0,0,0,0,0,0,-1,1847,393,0,0
630,631,0,0,0,0,0,0,0,0,0,-1,1854,393,0,0
637,631,0,0,0,0,0,0,0,0,0,-1,1861,393,0,0
644,631,0,0,0,0,0,0,0,0,0,-1,1868,393,0,0
651,631,0,0,0,0,0,0,0,0,0,-1,1875,393,0,0
658,631,0,0,0,0,0,0,0,0,0,-1,1882,393,0,0
665,631,0,0,0,0,0,0,0,0,0,-1,1889,393,0,0
672,631,0,0,0,0,0,0,0,0,0,-1,1896,393,0,0
679,631,0,0,0,0,0,0,0,0,0,-1,1903,393,0,0
686,631,0,0,0,0,0,0,0,0,0,-1,1910,393,0,0
693,631,0,0,0,0,0,0,0,0,0,-1,1917,393,0,0
700,631,0,0,0,0,0,0,0,0,0,-1,1924,393,0,0
707,631,0,0,0,0,0,0,0,0,0,-1,1931,393,0,0
714,631,0,0,0,0,0,0,0,0,0,-1,1938,393,0,0
721,631,0,0,0,0,0,0,0,0,0,-1,1945,393,0,0
728,631,0,0,0,0,0,0,0,0,0,-1,1952,393,0,0
735,631,0,0,0,0,0,0,0,0,0,-1,1959,393,0,0
742,631,0,0,0,0,0,0,0,0,0,-1,1966,393,0,0
749,631,0,0,0,0,0,0,0,0,0,-1,1973,393,0,0
756,631,0,0,0,0,0,0,0,0,0,-1,1980,393,0,0
763,631,0,0,0,0,0,0,0,0,0,-1,1987,393,0,0
770,631,0,0,0,0,0,0,0,0,0,-1,1994,393,0,0
777,631,0,0,0,0,0,0,0,0,0,-1,2001,393,0,0
784,631,0,0,0,0,0,0,0,0,0,-1,2008,393,0,0
791,631,0,0,0,0,0,0,0,0,0,-1,2015,393,0,0
798,631,0,0,0,0,0,0,0,0,0,-1,2022,393,0,0
805,631,0,0,0,0,0,0,0,0,0,-1,2029,393,0,0
812,631,0,0,0,0,0,0,0,0,0,-1,2036,393,0,0
-700,624,0,0,0,0,0,0,0,0,0,-1,524,400,0,0
-693,624,0,0,0,0,0,0,0,0,0,-1,531,400,0,0
-686,624,0,0,0,0,0,0,0,0,0,-1,538,400,0,0
-679,624,0,0,0,0,0,0,0,0,0,-1,545,400,0,0
-672,624,0,0,0,0,0,0,0,0,0,-1,552,400,0,0
-665,624,0,0,0,0,0,0,0,0,0,-1,559,400,0,0
-658,624,0,0,0,0,0,0,0,0,0,-1,566,400,0,0
-651,624,0,0,0,0,0,0,0,0,0,-1,573,400,0,0
-644,624,0,0,0,0,0,0,0,0,0,-1,580,400,0,0
-637,624,0,0,0,0,0,0,0,0,0,-1,587,400,0,0
-630,624,0,0,0,0,0,0,0,0,0,-1,594,400,0,0
-623,624,0,0,0,0,0,0,0,0,0,-1,601,400,0,0
-616,624,0,0,0,0,0,0,0,0,0,-1,608,400,0,0
-609,624,0,0,0,0,0,0,0,0,0,-1,615,400,0,0
-602,624,0,0,0,0,0,0,0,0,0,-1,622,400,0,0
-595,624,0,0,0,0,0,0,0,0,0,-1,629,400,0,0
-588,624,0,0,0,0,0,0,0,0,0,-1,636,400,0,0
-581,624,0,0,0,0,0,0,0,0,0,-1,643,400,0,0
-574,624,0,0,0,0,0,0,0,0,0,-1,650,400,0,0
-567,624,0,0,0,0,0,0,0,0,0,-1,657,400,0,0
-560,624,0,0,0,0,0,0,0,0,0,-1,664,400,0,0
-553,624,0,0,0,0,0,0,0,0,0,-1,671,400,0,0
-546,624,0,0,0,0,0,0,0,0,0,-1,678,400,0,0
-539,624,0,0,0,0,0,0,0,0,0,-1,685,400,0,0
-532,624,0,0,0,0,0,0,0,0,0,-1,692,400,0,0
-525,624,0,0,0,0,0,0,0,0,0,-1,699,400,0,0
-518,624,0,0,0,0,0,0,0,0,0,-1,706,400,0,0
-511,624,0,0,0,0,0,0,0,0,0,-1,713,400,0,0
-504,624,0,0,0,0,0,0,0,0,0,-1,720,400,0,0
-497,624,0,0,0,0,0,0,0,0,0,-1,727,400,0,0
-490,624,0,0,0,0,0,0,0,0,0,-1,734,400,0,0
-483,624,0,0,0,0,0,0,0,0,0,-1,741,400,0,0
-476,624,0,0,0,0,0,0,0,0,0,-1,748,400,0,0
-469,624,0,0,0,0,0,0,0,0,0,-1,755,400,0,0
-462,624,0,0,0,0,0,0,0,0,0,-1,762,400,0,0
-455,624,0,0,0,0,0,0,0,0,0,-1,769,400,0,0
-448,624,0,0,0,0,0,0,0,0,0,-1,776,400,0,0
-441,624,0,0,0,0,0,0,0,0,0,-1,783,400,0,0
-434,624,0,0,0,0,0,0,0,0,0,-1,790,400,0,0
-427,624,0,0,0,0,0,0,0,0,0,-1,797,400,0,0
-420,624,0,0,0,0,0,0,0,0,0,-1,804,400,0,0
-413,624,0,0,0,0,0,0,0,0,0,-1,811,400,0,0
-406,624,0,0,0,0,0,0,0,0,0,-1,818,400,0,0
-399,624,0,0,0,0,0,0,0,0,0,-1,825,400,0,0
-392,624,0,0,0,0,0,0,0,0,0,-1,832,400,0,0
-385,624,0,0,0,0,0,0,0,0,0,-1,839,400,0,0
-378,624,0,0,0,0,0,0,0,0,0,-1,846,400,0,0
-371,624,0,0,0,0,0,0,0,0,0,-1,853,400,0,0
-364,624,0,0,0,0,0,0,0,0,0,-1,860,400,0,0
-357,624,0,0,0,0,0,0,0,0,0,-1,867,400,0,0
-350,624,0,0,0,0,0,0,0,0,0,-1,874,400,0,0
-343,624,0,0,0,0,0,0,0,0,0,-1,881,400,0,0
-336,624,0,0,0,0,0,0,0,0,0,-1,888,400,0,0
-329,624,0,0,0,0,0,0,0,0,0,-1,895,400,0,0
-322,624,0,0,0,0,0,0,0,0,0,-1,902,400,0,0
-315,624,0,0,0,0,0,0,0,0,0,-1,909,400,0,0
-308,624,0,0,0,0,0,0,0,0,0,-1,916,400,0,0
-301,624,0,0,0,0,0,0,0,0,0,-1,923,400,0,0
-294,624,3.27704,-2.37469,0,0,0,0,0,0,0,-1,930,400,3.27703,2.37469
-287,624,4.58771,-3.41449,0,0,0,0,0,0,0,-1,937,400,4.58769,3.41448
-280,624,5.72296,-3.8125,0,0,0,0,0,0,0,-1,944,400,5.72297,3.8125
-273,624,3.07904,-3.55011,0,0,0,0,0,0,0,-1,951,400,3.07904,3.55011
-266,624,2.71484,-2.26083,0,0,0,0,0,0,0,-1,958,400,2.71487,2.26083
-259,624,2.1347,-2.36301,0,0,0,0,0,0,0,-1,965,400,2.13471,2.363
-252,624,2.80878,-1.77002,0,0,0,0,0,0,0,-1,972,400,2.80878,1.77003
-245,624,2.42444,-0.987427,0,0,0,0,0,0,0,-1,979,400,2.42443,0.987417
-238,624,2.04602,-2.11157,0,0,0,0,0,0,0,-1,986,400,2.04599,2.11156
-231,624,1.68048,-1.82108,0,0,0,0,0,0,0,-1,993,400,1.6805,1.82109
-224,624,1.81989,-1.79041,0,0,0,0,0,0,0,-1,1000,400,1.81988,1.79039
-217,624,2.54291,-2.11002,0.000183991,-0.0015888,-0.0110613,0.0103943,-0.0117991,-0.745416,0.012822,0.0454878,1007,400,2.54289,2.11
-210,624,1.02795,-2.60062,0.00522583,-0.00440553,-0.0100664,0.0115691,-0.0107488,-0.562292,0.0128882,0.0405398,1014,400,1.02795,2.60062
-203,624,1.25665,-2.61896,0.0075785,-0.00657259,-0.00866843,0.0116925,-0.0106865,-0.443115,0.0129249,0.0357497,1021,400,1.25665,2.61897
-196,624,1.47314,-2.67398,0.00839171,-0.0083103,-0.00759176,0.0113267,-0.0112453,-0.368906,0.013032,0.0344698,1028,400,1.47311,2.67399
-189,624,1.93237,-2.70404,0.00844729,-0.00974837,-0.0064452,0.010499,-0.0118,-0.308182,0.0128816,0.0339442,1035,400,1.93232,2.70403
-182,624,1.98059,-2.85297,0.00817635,-0.0107898,-0.00527693,0.00954568,-0.0121592,-0.253894,0.0125615,0.0274678,1042,400,1.98055,2.85297
-175,624,2.03882,-2.91275,0.00745015,-0.0113203,-0.00399604,0.00826545,-0.0121356,-0.201265,0.011849,0.0162288,1049,400,2.03887,2.91274
-168,624,2.04187,-2.94586,0.00651859,-0.0112944,-0.00301938,0.00701647,-0.0117923,-0.163424,0.0109753,0.0113218,1056,400,2.04189,2.94586
-161,624,2.01318,-2.99203,0.00605252,-0.0108905,-0.00231414,0.00636291,-0.0112009,-0.133331,0.0102679,0.0102505,1063,400,2.0132,2.99205
-154,624,2.01379,-3.03351,0.0051654,-0.0100464,-0.00166311,0.0053451,-0.0102261,-0.107636,0.00913607,0.00929323,1070,400,2.01378,3.03351
-147,624,2.00879,-3.07489,0.0033952,-0.00923589,-0.00116842,0.00350237,-0.00934306,-0.0914694,0.0076676,0.00991938,1077,400,2.00873,3.07488
-140,624,1.99316,-3.12564,0.00259723,-0.00801177,-0.00162613,0.00284089,-0.00825542,-0.148731,0.00665584,0.00939629,1084,400,1.99313,3.12564
-133,624,2.0022,-3.15378,0.00252623,-0.00657838,-0.00202521,0.00295639,-0.00700855,-0.209292,0.00590969,0.0101771,1091,400,2.00223,3.15377
-126,624,2.02271,-3.17236,0.00217363,-0.00569227,-0.0022537,0.00277358,-0.00629223,-0.260176,0.00536395,0.0120028,1098,400,2.02272,3.17237
-119,624,2.01074,-3.19211,0.00171043,-0.00476949,-0.00267686,0.0026732,-0.00573225,-0.345257,0.00495886,0.0146305,1105,400,2.01079,3.19212
-112,624,1.99011,-3.23798,0.00116389,-0.00394425,-0.00299018,0.00254231,-0.00532267,-0.431948,0.00463446,0.0153495,1112,400,1.99013,3.23797
-105,624,2.00159,-3.27979,0.000534023,-0.00304228,-0.00312589,0.00234707,-0.00485533,-0.525592,0.00424153,0.0108776,1119,400,2.00155,3.27978
-98,624,2.01233,-3.31827,0.000105345,-0.00216181,-0.00325169,0.00241538,-0.00447185,-0.617679,0.004035,0.0125859,1126,400,2.0123,3.31826
-91,624,1.98254,-3.36011,-0.000190137,-0.00149567,-0.00313169,0.00235609,-0.0040419,-0.68265,0.00373638,0.0181011,1133,400,1.9826,3.36011
-84,624,1.9812,-3.39474,-0.000534463,-0.000886185,-0.0028141,0.00210927,-0.00352992,-0.754192,0.00329005,0.0166086,1140,400,1.9812,3.39475
-77,624,2.00049,-3.41519,-0.000877043,-0.000390166,-0.00231339,0.00169256,-0.00295977,-0.83782,0.00271904,0.0126475,1147,400,2.00053,3.41519
-70,624,2.00439,-3.41855,-0.00114032,1.99387e-05,-0.00170616,0.0012419,-0.00236228,-0.949276,0.00211413,0.0118385,1154,400,2.00439,3.41856
-63,624,2.01831,-3.42566,-0.00135486,0.000312834,-0.000971924,0.000759586,-0.00180162,-1.13994,0.00151896,0.0104062,1161,400,2.01831,3.42567
-56,624,2.02014,-3.47723,-0.00135427,0.000539448,-0.000287452,0.00058212,-0.00139695,-1.42343,0.00117445,0.00887258,1168,400,2.02016,3.47722
-49,624,2.02612,-3.49344,-0.00132809,0.000697585,0.000255913,0.000729416,-0.00135992,1.44705,0.00122445,0.0091004,1175,400,2.02609,3.49345
-42,624,2.02258,-3.48407,-0.00168933,0.000888266,0.000488217,0.00097764,-0.0017787,1.38974,0.00161362,0.00954066,1182,400,2.02259,3.48407
-35,624,2.01282,-3.48816,-0.00201042,0.00111565,0.000639288,0.00124133,-0.0021361,1.37667,0.00197264,0.0153116,1189,400,2.01286,3.48815
-28,624,1.9939,-3.52789,-0.00252644,0.00133744,0.000878354,0.00152774,-0.00271674,1.35744,0.0024824,0.0193877,1196,400,1.99384,3.52788
-21,624,2.00513,-3.54477,-0.00306872,0.00133687,0.000984068,0.00154669,-0.00327853,1.36073,0.00284503,0.0134789,1203,400,2.00515,3.54477
-14,624,1.9917,-3.55685,-0.0039068,0.00131917,0.00121429,0.00158753,-0.00417517,1.35329,0.00343708,0.0140913,1210,400,1.99169,3.55687
-7,624,1.99695,-3.54697,-0.00430097,0.00116766,0.00172917,0.00166855,-0.00480185,1.28885,0.00387894,0.0180113,1217,400,1.99692,3.54697
0,624,2.04321,-3.56128,-0.00440275,0.000970281,0.0019276,0.00159028,-0.00502275,1.25961,0.00398578,0.0187081,1224,400,2.04316,3.56128
7,624,2.04443,-3.58081,-0.00417375,0.00130961,0.00247244,0.00225978,-0.00512392,1.20389,0.00436858,0.0142498,1231,400,2.04443,3.58082
14,624,2.03833,-3.59418,-0.0035841,0.00158642,0.00295775,0.0029295,-0.00492718,1.14455,0.00458467,0.0118365,1238,400,2.03828,3.59418
21,624,2.0238,-3.60086,-0.00278337,0.00219516,0.00373649,0.00419564,-0.00478385,1.07924,0.00518802,0.0118574,1245,400,2.0238,3.60086
28,624,2.01648,-3.59335,-0.00166368,0.00262094,0.00459535,0.00554881,-0.00459155,1.00352,0.00586323,0.0110734,1252,400,2.01651,3.59337
35,624,2.02759,-3.59814,-0.000419082,0.00275459,0.0054508,0.00684484,-0.00450933,0.927043,0.0066014,0.0144877,1259,400,2.02757,3.59815
42,624,2.03955,-3.60568,0.000978825,0.00311869,0.00621151,0.00835174,-0.00425422,0.870686,0.00740511,0.0164679,1266,400,2.03957,3.60567
49,624,2.03345,-3.59158,0.00222421,0.00247894,0.00689643,0.00924918,-0.00454603,0.794631,0.00811749,0.0175577,1273,400,2.03346,3.59157
56,624,2.04102,-3.60132,0.00333209,0.00221852,0.0074647,0.0102607,-0.00471013,0.748173,0.00883925,0.0173382,1280,400,2.04101,3.60131
63,624,2.05969,-3.61575,0.00420635,0.00150802,0.00787501,0.0108469,-0.00513256,0.700561,0.00942034,0.0134746,1287,400,2.05973,3.61574
70,624,2.04749,-3.62268,0.00460969,0.000684521,0.00805401,0.0109368,-0.00564258,0.665888,0.00973342,0.0120266,1294,400,2.04752,3.62267
77,624,2.04675,-3.61435,0.00482441,-0.000335656,0.00810252,0.0107478,-0.006259,0.631262,0.0099322,0.0121022,1301,400,2.0467,3.61434
84,624,2.06091,-3.62387,0.00461275,-0.00130179,0.00775688,0.00995697,-0.00664601,0.603281,0.00964906,0.0111199,1308,400,2.06091,3.62389
91,624,2.06519,-3.61066,0.00403796,-0.00244513,0.0073187,0.00880085,-0.00720802,0.576926,0.00925797,0.0115916,1315,400,2.06514,3.61066
98,624,2.04956,-3.60287,0.00278373,-0.00326927,0.00689005,0.00728268,-0.00776822,0.578456,0.00869115,0.0119258,1322,400,2.04951,3.60287
105,624,2.03748,-3.62006,0.00183874,-0.003907,0.0067191,0.00627338,-0.00834164,0.583377,0.00846611,0.0133375,1329,400,2.03748,3.62007
112,624,2.05969,-3.60324,0.00140721,-0.00460742,0.00615815,0.00525313,-0.00845334,0.558257,0.00798501,0.014489,1336,400,2.05969,3.60323
119,624,2.0813,-3.59799,0.00103442,-0.00464578,0.00577995,0.00463436,-0.00824571,0.557038,0.00753311,0.0144017,1343,400,2.08126,3.598
126,624,2.09644,-3.53073,0.00126312,-0.00469082,0.00512468,0.00421276,-0.00764046,0.522267,0.00693818,0.0170197,1350,400,2.09649,3.53073
133,624,2.08911,-3.49219,0.00157961,-0.00419209,0.00453455,0.00406873,-0.00668121,0.502016,0.00626727,0.0183861,1357,400,2.08905,3.4922
140,624,2.0719,-3.48367,0.00181643,-0.00325734,0.00390319,0.00393472,-0.00537564,0.497227,0.00539675,0.0180758,1364,400,2.07192,3.48367
147,624,2.06592,-3.47324,0.00194287,-0.00268288,0.00339376,0.00373694,-0.00447695,0.486295,0.0047487,0.0212589,1371,400,2.06589,3.47325
154,624,2.08923,-3.46863,0.00190087,-0.00141213,0.00272147,0.00343034,-0.0029416,0.51201,0.00368245,0.0227037,1378,400,2.08929,3.46863
161,624,2.05139,-3.44876,0.00166416,-0.00126346,0.00211323,0.00277105,-0.00237034,0.482497,0.00297138,0.0216684,1385,400,2.05141,3.44877
168,624,2.07043,-3.423,0.0012995,-0.00089486,0.00159013,0.00213424,-0.0017296,0.483408,0.00223486,0.022288,1392,400,2.07038,3.42301
175,624,2.1228,-3.41452,0.000844698,-0.000628463,0.000997829,0.00134837,-0.00113213,0.46745,0.00143393,0.0177439,1399,400,2.12282,3.41453
182,624,2.11328,-3.4061,0.000309251,-0.000226841,0.000333404,0.000468998,-0.000386587,0.44682,0.000494736,0.0105337,1406,400,2.11325,3.40611
189,624,2.11328,-3.35043,-0.000237715,7.87135e-05,7.34139e-05,9.49164e-05,-0.000253918,1.35357,0.000208257,0.00989407,1413,400,2.11326,3.35044
196,624,2.0979,-3.33197,-0.000605937,0.000540187,-0.000175207,0.000566373,-0.000632122,-1.42244,0.000692298,0.0101666,1420,400,2.09791,3.33196
203,624,2.09741,-3.30814,-0.000742242,0.000942034,-0.000337188,0.00100703,-0.000807238,-1.38037,0.00104958,0.0135866,1427,400,2.09737,3.30813
210,624,2.10547,-3.29669,-0.00105129,0.00156695,-9.13875e-05,0.00157014,-0.00105448,-1.53595,0.00152504,0.0172511,1434,400,2.10541,3.29671
217,624,2.08191,-3.25034,-0.00137865,0.00223789,0.000464872,0.00229669,-0.00143745,1.44498,0.00217485,0.0193057,1441,400,2.08196,3.25033
224,624,2.08459,-3.19766,-0.00107546,0.002972,0.00105472,0.00323035,-0.00133382,1.33057,0.0027099,0.0153827,1448,400,2.08453,3.19765
231,624,2.09729,-3.20282,-0.000638019,0.00416039,0.00181832,0.00477158,-0.00124921,1.24653,0.00366904,0.0118939,1455,400,2.09734,3.20283
238,624,2.08862,-3.16113,-0.000127048,0.00521314,0.00249218,0.00619549,-0.0011094,1.19532,0.00454548,0.0165609,1462,400,2.08868,3.16113
245,624,2.09827,-3.13052,0.000355136,0.00616864,0.00321538,0.00759639,-0.00107261,1.15291,0.00545705,0.017378,1469,400,2.09828,3.13052
252,624,2.10303,-3.08331,0.000602486,0.00714508,0.00383022,0.00891084,-0.00116328,1.13883,0.00636386,0.013341,1476,400,2.10309,3.08331
259,624,2.1062,-3.04831,0.000795114,0.00789681,0.00406656,0.00974461,-0.00105269,1.1443,0.00687422,0.00958782,1483,400,2.10619,3.0483
266,624,2.12549,-2.98322,0.00101657,0.008572,0.00386408,0.0101982,-0.00060963,1.17245,0.00701085,0.0132126,1490,400,2.1255,2.9832
273,624,2.11633,-2.93176,0.00128642,0.00915291,0.00364638,0.0105831,-0.000143773,1.19701,0.00710381,0.0160316,1497,400,2.11639,2.93177
280,624,2.09985,-2.93338,0.00166297,0.00961842,0.00331721,0.0108201,0.000461301,1.22325,0.00706465,0.0142537,1504,400,2.09986,2.93337
287,624,2.08984,-2.91394,0.00213765,0.00963421,0.00300978,0.010693,0.00107881,1.23252,0.00679769,0.0102992,1511,400,2.08984,2.91395
294,624,2.10327,-2.84818,0.00266876,0.00960979,0.00228973,0.0102971,0.00198147,1.27919,0.00630882,0.00881073,1518,400,2.10325,2.84819
301,624,2.09509,-2.78854,0.00347988,0.00952201,0.00162842,0.00993294,0.00306895,1.32361,0.00587265,0.01079,1525,400,2.09505,2.78855
308,624,2.08264,-2.71924,0.00421491,0.0101504,0.00093926,0.0102955,0.00406982,1.41754,0.00598739,0.0139809,1532,400,2.08269,2.71923
315,624,2.06592,-2.66116,0.00544156,0.0102308,-0.00114862,0.010492,0.00518033,-1.34717,0.00605774,0.0153175,1539,400,2.06589,2.66116
322,624,2.06616,-2.65176,0.00688187,0.0108644,-0.00358653,0.0129754,0.00477091,-1.03882,0.00757828,0.0220285,1546,400,2.06613,2.65177
329,624,2.28699,-2.63626,0.00794241,0.0115247,-0.00579407,0.0157982,0.00366896,-0.935306,0.00954709,0.0336186,1553,400,2.287,2.63627
336,624,2.77283,-2.61548,0.0092638,0.0120684,-0.00853922,0.0193197,0.00201251,-0.866782,0.0122641,0.0356917,1560,400,2.77288,2.61549
343,624,2.22852,-2.43304,0,0,0,0,0,0,0,-1,1567,400,2.22847,2.43304
350,624,2.39746,-1.92294,0,0,0,0,0,0,0,-1,1574,400,2.39752,1.92293
357,624,2.53015,-1.72409,0.0175064,0.0208049,-0.0181288,0.0373593,0.000951957,-0.83076,0.024595,0.0461159,1581,400,2.53016,1.7241
364,624,2.44495,-2.21686,0.0223837,0.0203387,-0.0238797,0.0452628,-0.00254037,-0.764001,0.0310566,0.0464697,1588,400,2.44498,2.21687
371,624,2.58337,-2.95435,0.0286574,0.0178645,-0.0320723,0.0557841,-0.00926221,-0.702049,0.0406303,0.0456287,1595,400,2.58336,2.95435
378,624,2.797,-3.79834,0,0,0,0,0,0,0,-1,1602,400,2.79701,3.79835
385,624,0.530518,-0.503235,0,0,0,0,0,0,0,-1,1609,400,0.530516,0.503234
392,624,0.51355,-0.022644,0,0,0,0,0,0,0,-1,1616,400,0.513573,0.0226363
399,624,-1.61401,-1.61334,0,0,0,0,0,0,0,-1,1623,400,-1.61405,1.61335
406,624,-1.52515,-1.58566,0,0,0,0,0,0,0,-1,1630,400,-1.52514,1.58567
413,624,0,0,0,0,0,0,0,0,0,-1,1637,400,0,0
420,624,0,0,0,0,0,0,0,0,0,-1,1644,400,0,0
427,624,0,0,0,0,0,0,0,0,0,-1,1651,400,0,0
434,624,0,0,0,0,0,0,0,0,0,-1,1658,400,0,0
441,624,0,0,0,0,0,0,0,0,0,-1,1665,400,0,0
448,624,0,0,0,0,0,0,0,0,0,-1,1672,400,0,0
455,624,0,0,0,0,0,0,0,0,0,-1,1679,400,0,0
462,624,0,0,0,0,0,0,0,0,0,-1,1686,400,0,0
469,624,0,0,0,0,0,0,0,0,0,-1,1693,400,0,0
476,624,0,0,0,0,0,0,0,0,0,-1,1700,400,0,0
483,624,0,0,0,0,0,0,0,0,0,-1,1707,400,0,0
490,624,0,0,0,0,0,0,0,0,0,-1,1714,400,0,0
497,624,0,0,0,0,0,0,0,0,0,-1,1721,400,0,0
504,624,0,0,0,0,0,0,0,0,0,-1,1728,400,0,0
511,624,0,0,0,0,0,0,0,0,0,-1,1735,400,0,0
518,624,0,0,0,0,0,0,0,0,0,-1,1742,400,0,0
525,624,0,0,0,0,0,0,0,0,0,-1,1749,400,0,0
532,624,0,0,0,0,0,0,0,0,0,-1,1756,400,0,0
539,624,0,0,0,0,0,0,0,0,0,-1,1763,400,0,0
546,624,0,0,0,0,0,0,0,0,0,-1,1770,400,0,0
553,624,0,0,0,0,0,0,0,0,0,-1,1777,400,0,0
560,624,0,0,0,0,0,0,0,0,0,-1,1784,400,0,0
567,624,0,0,0,0,0,0,0,0,0,-1,1791,400,0,0
574,624,0,0,0,0,0,0,0,0,0,-1,1798,400,0,0
581,624,0,0,0,0,0,0,0,0,0,-1,1805,400,0,0
588,624,0,0,0,0,0,0,0,0,0,-1,1812,400,0,0
595,624,0,0,0,0,0,0,0,0,0,-1,1819,400,0,0
602,624,0,0,0,0,0,0,0,0,0,-1,1826,400,0,0
609,624,0,0,0,0,0,0,0,0,0,-1,1833,400,0,0
616,624,0,0,0,0,0,0,0,0,0,-1,1840,400,0,0
623,624,0,0,0,0,0,0,0,0,0,-1,1847,400,0,0
630,624,0,0,0,0,0,0,0,0,0,-1,1854,400,0,0
637,624,0,0,0,0,0,0,0,0,0,-1,1861,400,0,0
644,624,0,0,0,0,0,0,0,0,0,-1,1868,400,0,0
651,624,0,0,0,0,0,0,0,0,0,-1,1875,400,0,0
658,624,0,0,0,0,0,0,0,0,0,-1,1882,400,0,0
665,624,0,0,0,0,0,0,0,0,0,-1,1889,400,0,0
672,624,0,0,0,0,0,0,0,0,0,-1,1896,400,0,0
679,624,0,0,0,0,0,0,0,0,0,-1,1903,400,0,0
686,624,0,0,0,0,0,0,0,0,0,-1,1910,400,0,0
693,624,0,0,0,0,0,0,0,0,0,-1,1917,400,0,0
700,624,0,0,0,0,0,0,0,0,0,-1,1924,400,0,0
707,624,0,0,0,0,0,0,0,0,0,-1,1931,400,0,0
714,624,0,0,0,0,0,0,0,0,0,-1,1938,400,0,0
721,624,0,0,0,0,0,0,0,0,0,-1,1945,400,0,0
728,624,0,0,0,0,0,0,0,0,0,-1,1952,400,0,0
735,624,0,0,0,0,0,0,0,0,0,-1,1959,400,0,0
742,624,0,0,0,0,0,0,0,0,0,-1,1966,400,0,0
749,624,0,0,0,0,0,0,0,0,0,-1,1973,400,0,0
756,624,0,0,0,0,0,0,0,0,0,-1,1980,400,0,0
763,624,0,0,0,0,0,0,0,0,0,-1,1987,400,0,0
770,624,0,0,0,0,0,0,0,0,0,-1,1994,400,0,0
777,624,0,0,0,0,0,0,0,0,0,-1,2001,400,0,0
784,624,0,0,0,0,0,0,0,0,0,-1,2008,400,0,0
791,624,0,0,0,0,0,0,0,0,0,-1,2015,400,0,0
798,624,0,0,0,0,0,0,0,0,0,-1,2022,400,0,0
805,624,0,0,0,0,0,0,0,0,0,-1,2029,400,0,0
812,624,0,0,0,0,0,0,0,0,0,-1,2036,400,0,0
-700,617,0,0,0,0,0,0,0,0,0,-1,524,407,0,0
-693,617,0,0,0,0,0,0,0,0,0,-1,531,407,0,0
-686,617,0,0,0,0,0,0,0,0,0,-1,538,407,0,0
-679,617,0,0,0,0,0,0,0,0,0,-1,545,407,0,0
-672,617,0,0,0,0,0,0,0,0,0,-1,552,407,0,0
-665,617,0,0,0,0,0,0,0,0,0,-1,559,407,0,0
-658,617,0,0,0,0,0,0,0,0,0,-1,566,407,0,0
-651,617,0,0,0,0,0,0,0,0,0,-1,573,407,0,0
-644,617,0,0,0,0,0,0,0,0,0,-1,580,407,0,0
-637,617,0,0,0,0,0,0,0,0,0,-1,587,407,0,0
-630,617,0,0,0,0,0,0,0,0,0,-1,594,407,0,0
-623,617,0,0,0,0,0,0,0,0,0,-1,601,407,0,0
-616,617,0,0,0,0,0,0,0,0,0,-1,608,407,0,0
-609,617,0,0,0,0,0,0,0,0,0,-1,615,407,0,0
-602,617,0,0,0,0,0,0,0,0,0,-1,622,407,0,0
-595,617,0,0,0,0,0,0,0,0,0,-1,629,407,0,0
-588,617,0,0,0,0,0,0,0,0,0,-1,636,407,0,0
-581,617,0,0,0,0,0,0,0,0,0,-1,643,407,0,0
-574,617,0,0,0,0,0,0,0,0,0,-1,650,407,0,0
-567,617,0,0,0,0,0,0,0,0,0,-1,657,407,0,0
-560,617,0,0,0,0,0,0,0,0,0,-1,664,407,0,0
-553,617,0,0,0,0,0,0,0,0,0,-1,671,407,0,0
-546,617,0,0,0,0,0,0,0,0,0,-1,678,407,0,0
-539,617,0,0,0,0,0,0,0,0,0,-1,685,407,0,0
-532,617,0,0,0,0,0,0,0,0,0,-1,692,407,0,0
-525,617,0,0,0,0,0,0,0,0,0,-1,699,407,0,0
-518,617,0,0,0,0,0,0,0,0,0,-1,706,407,0,0
-511,617,0,0,0,0,0,0,0,0,0,-1,713,407,0,0
-504,617,0,0,0,0,0,0,0,0,0,-1,720,407,0,0
-497,617,0,0,0,0,0,0,0,0,0,-1,727,407,0,0
-490,617,0,0,0,0,0,0,0,0,0,-1,734,407,0,0
-483,617,0,0,0,0,0,0,0,0,0,-1,741,407,0,0
-476,617,0,0,0,0,0,0,0,0,0,-1,748,407,0,0
-469,617,0,0,0,0,0,0,0,0,0,-1,755,407,0,0
-462,617,0,0,0,0,0,0,0,0,0,-1,762,407,0,0
-455,617,0,0,0,0,0,0,0,0,0,-1,769,407,0,0
-448,617,0,0,0,0,0,0,0,0,0,-1,776,407,0,0
-441,617,0,0,0,0,0,0,0,0,0,-1,783,407,0,0
-434,617,0,0,0,0,0,0,0,0,0,-1,790,407,0,0
-427,617,0,0,0,0,0,0,0,0,0,-1,797,407,0,0
-420,617,0,0,0,0,0,0,0,0,0,-1,804,407,0,0
-413,617,0,0,0,0,0,0,0,0,0,-1,811,407,0,0
-406,617,0,0,0,0,0,0,0,0,0,-1,818,407,0,0
-399,617,0,0,0,0,0,0,0,0,0,-1,825,407,0,0
-392,617,0,0,0,0,0,0,0,0,0,-1,832,407,0,0
-385,617,0,0,0,0,0,0,0,0,0,-1,839,407,0,0
-378,617,0,0,0,0,0,0,0,0,0,-1,846,407,0,0
-371,617,0,0,0,0,0,0,0,0,0,-1,853,407,0,0
-364,617,0,0,0,0,0,0,0,0,0,-1,860,407,0,0
-357,617,0,0,0,0,0,0,0,0,0,-1,867,407,0,0
-350,617,0,0,0,0,0,0,0,0,0,-1,874,407,0,0
-343,617,0,0,0,0,0,0,0,0,0,-1,881,407,0,0
-336,617,0,0,0,0,0,0,0,0,0,-1,888,407,0,0
-329,617,0,0,0,0,0,0,0,0,0,-1,895,407,0,0
-322,617,0,0,0,0,0,0,0,0,0,-1,902,407,0,0
-315,617,0,0,0,0,0,0,0,0,0,-1,909,407,0,0
-308,617,0,0,0,0,0,0,0,0,0,-1,916,407,0,0
-301,617,4.11761,-2.04526,0,0,0,0,0,0,0,-1,923,407,4.11764,2.04525
-294,617,3.31873,-2.189,0,0,0,0,0,0,0,-1,930,407,3.31874,2.189
-287,617,4.40021,-2.5282,0,0,0,0,0,0,0,-1,937,407,4.40018,2.52819
-280,617,5.49133,-2.8526,0,0,0,0,0,0,0,-1,944,407,5.49135,2.8526
-273,617,6.5921,-3.17212,0,0,0,0,0,0,0,-1,951,407,6.59208,3.17212
-266,617,2.74835,-1.62076,0,0,0,0,0,0,0,-1,958,407,2.74832,1.62075
-259,617,2.05225,-2.5231,0,0,0,0,0,0,0,-1,965,407,2.05227,2.52309
-252,617,2.22369,-2.75089,0,0,0,0,0,0,0,-1,972,407,2.22366,2.75087
-245,617,2.07153,-2.64722,0,0,0,0,0,0,0,-1,979,407,2.07154,2.64723
-238,617,2.01727,-2.21866,-0.0198044,0.0240738,-0.00450434,0.0245314,-0.020262,-1.46955,0.0259006,0.0471826,986,407,2.01729,2.21866
-231,617,1.79541,-2.13129,-0.0119237,0.0152613,-0.00635158,0.0166721,-0.0133345,-1.35223,0.01736,0.0424734,993,407,1.7954,2.13128
-224,617,1.841,-2.11307,-0.00555969,0.00898606,-0.00705543,0.011846,-0.00841962,-1.18568,0.011756,0.0410597,1000,407,1.84099,2.11308
-217,617,2.08722,-2.51666,0.000202457,0.00111058,-0.00901499,0.00968293,-0.0083699,-0.81056,0.010432,0.0349292,1007,407,2.08721,2.51666
-210,617,2.02484,-2.67108,0.00434776,-0.00137229,-0.00827477,0.0102428,-0.00726736,-0.619009,0.010158,0.024439,1014,407,2.02486,2.67107
-203,617,1.948,-2.77673,0.00627707,-0.00324421,-0.00714259,0.0101001,-0.00706729,-0.49145,0.00996305,0.0196388,1021,407,1.94801,2.77674
-196,617,1.96008,-2.78339,0.00691971,-0.00475432,-0.00627694,0.0096542,-0.00748881,-0.410849,0.00992381,0.0148315,1028,407,1.96004,2.78338
-189,617,1.97192,-2.81116,0.00693866,-0.00596073,-0.00539724,0.00889901,-0.00792108,-0.348396,0.00971655,0.0126626,1035,407,1.97196,2.81116
-182,617,1.97656,-2.86456,0.00669053,-0.00692042,-0.00447955,0.0080325,-0.00826239,-0.291069,0.00940817,0.013381,1042,407,1.97662,2.86456
-175,617,1.99146,-2.9025,0.00605508,-0.00745464,-0.00345363,0.00688676,-0.00828633,-0.236316,0.0087726,0.0107281,1049,407,1.99147,2.90251
-168,617,1.99622,-2.94656,0.00519525,-0.00755051,-0.002636,0.0057189,-0.00807416,-0.1961,0.00800203,0.00887952,1056,407,1.99625,2.94655
-161,617,1.98352,-2.9982,0.00477092,-0.00730453,-0.00205001,0.00510945,-0.00764306,-0.16366,0.00741094,0.01033,1063,407,1.98348,2.9982
-154,617,1.97913,-3.03485,0.00407507,-0.00661464,-0.00141299,0.00425869,-0.00679826,-0.129226,0.00643961,0.0101295,1070,407,1.97915,3.03485
-147,617,1.97644,-3.07843,0.00262865,-0.00586251,-0.000830582,0.00270913,-0.00594299,-0.0965973,0.00511029,0.0133645,1077,407,1.97642,3.07844
-140,617,1.96631,-3.12073,0.00203294,-0.00489006,-0.0010525,0.00218942,-0.00504653,-0.147589,0.00428486,0.0104873,1084,407,1.9663,3.12073
-133,617,1.9718,-3.15866,0.00205996,-0.00387083,-0.00116446,0.0022804,-0.00409127,-0.187092,0.00372788,0.0127106,1091,407,1.97178,3.15866
-126,617,1.98999,-3.1687,0.00187185,-0.00331284,-0.00118423,0.00212954,-0.00357052,-0.214254,0.0033258,0.012946,1098,407,1.98995,3.16869
-119,617,1.95886,-3.20358,0.00162516,-0.00270304,-0.00133658,0.00200464,-0.00308252,-0.276635,0.00295897,0.012939,1105,407,1.95882,3.20358
-112,617,1.95923,-3.25052,0.001249,-0.00220538,-0.00138773,0.00173743,-0.00269381,-0.338423,0.00257816,0.0142426,1112,407,1.95919,3.25053
-105,617,1.96326,-3.28198,0.000735073,-0.00165343,-0.00128195,0.00129286,-0.00221122,-0.4104,0.00204611,0.0151254,1119,407,1.96328,3.28199
-98,617,1.97876,-3.33145,0.000356579,-0.0011634,-0.00122979,0.00104226,-0.00184909,-0.50863,0.00169085,0.0127204,1126,407,1.97879,3.33145
-91,617,1.95972,-3.35278,-5.55724e-06,-0.000830282,-0.00104957,0.000709748,-0.00154559,-0.598218,0.00133159,0.0172145,1133,407,1.95975,3.35279
-84,617,1.97961,-3.37793,-0.0004773,-0.000566234,-0.000742457,0.000222021,-0.00126555,-0.755488,0.000926619,0.0170227,1140,407,1.97964,3.37792
-77,617,1.99609,-3.40839,-0.000979295,-0.000313987,-0.000323093,-0.000182909,-0.00111037,-1.18539,0.000687439,0.0136773,1147,407,1.99613,3.4084
-70,617,1.99231,-3.43561,-0.00142439,-0.000106168,0.000181688,-8.15845e-05,-0.00144897,1.43631,0.000939966,0.0132315,1154,407,1.99227,3.4356
-63,617,2.00244,-3.44858,-0.00176982,0.000107654,0.000737497,0.000362705,-0.00202487,1.23784,0.00148565,0.0128062,1161,407,2.00243,3.44858
-56,617,1.99731,-3.47034,-0.00185179,0.000354894,0.00127492,0.000937604,-0.0024345,1.14209,0.00200981,0.00988179,1168,407,1.99734,3.47035
-49,617,2.0105,-3.47827,-0.00222765,0.000537034,0.00148475,0.00118333,-0.00287394,1.16025,0.0024093,0.00914793,1175,407,2.01056,3.47826
-42,617,2.02051,-3.5054,-0.00331298,0.000642042,0.00131385,0.00103871,-0.00370965,1.27758,0.00288242,0.0119666,1182,407,2.0205,3.5054
-35,617,2.00452,-3.51053,-0.00434129,0.000871834,0.00120411,0.00113652,-0.00460597,1.35442,0.00351134,0.0177308,1189,407,2.00448,3.51054
-28,617,1.99231,-3.53247,-0.00569241,0.00118299,0.00135796,0.00144148,-0.0059509,1.38269,0.00452495,0.0184626,1196,407,1.99225,3.53248
-21,617,2.02405,-3.53918,-0.00699609,0.00108063,0.00148647,0.00134552,-0.00726098,1.39445,0.00534591,0.0127547,1203,407,2.02403,3.53917
-14,617,1.98889,-3.52167,-0.00860659,0.000873224,0.0017999,0.00120346,-0.00893683,1.38934,0.00639688,0.0142568,1210,407,1.98886,3.52168
-7,617,1.95813,-3.52048,-0.00944992,0.000501239,0.00243598,0.00106555,-0.0100142,1.34315,0.0070582,0.0172735,1217,407,1.95812,3.52049
0,617,1.9989,-3.53607,-0.00970307,0.000149887,0.00271527,0.000848607,-0.0104018,1.31893,0.00723401,0.0150424,1224,407,1.99884,3.53606
7,617,2.01685,-3.56616,-0.0093359,0.000476934,0.00349641,0.00159528,-0.0104543,1.26122,0.00755759,0.0108837,1231,407,2.01683,3.56616
14,617,2.00659,-3.5816,-0.008367,0.00080257,0.00416981,0.00241517,-0.0099796,1.20178,0.00758736,0.0126814,1238,407,2.00659,3.5816
21,617,2.01465,-3.59695,-0.00706729,0.0016216,0.0052631,0.0041017,-0.0095474,1.13043,0.00808667,0.0117413,1245,407,2.01468,3.59695
28,617,2.03809,-3.61237,-0.0052556,0.00227012,0.00649129,0.00601032,-0.0089958,1.04807,0.00872076,0.010537,1252,407,2.03814,3.61237
35,617,2.0354,-3.60483,-0.00317912,0.00259207,0.00778231,0.00800654,-0.00859358,0.962935,0.00958608,0.0135183,1259,407,2.03536,3.60484
42,617,2.02222,-3.60214,-0.000839702,0.00321161,0.00902096,0.0104315,-0.00805964,0.895841,0.0107051,0.0200872,1266,407,2.02225,3.60213
49,617,2.0249,-3.60001,0.00131131,0.00248234,0.0101439,0.0120576,-0.00826395,0.814227,0.0118006,0.0192827,1273,407,2.02495,3.59999
56,617,2.03687,-3.59961,0.00334806,0.00226595,0.0111798,0.0139999,-0.00838592,0.761219,0.0130592,0.0135089,1280,407,2.03691,3.5996
63,617,2.03174,-3.61749,0.00499865,0.00147213,0.0119526,0.0153173,-0.00884654,0.712166,0.0141168,0.00927837,1287,407,2.03175,3.61748
70,617,2.03809,-3.61203,0.00596583,0.000467808,0.0124072,0.0159249,-0.00949127,0.676376,0.0148299,0.013287,1294,407,2.03809,3.61204
77,617,2.06396,-3.60056,0.00660085,-0.00091722,0.0126819,0.0160691,-0.0103855,0.641318,0.0153906,0.0125113,1301,407,2.06397,3.60056
84,617,2.07092,-3.62552,0.00660147,-0.00230041,0.0124168,0.015341,-0.0110399,0.613302,0.0152984,0.0095895,1308,407,2.07094,3.62552
91,617,2.073,-3.61542,0.00603486,-0.00392289,0.0119889,0.0140376,-0.0119257,0.58859,0.0150065,0.00934602,1315,407,2.073,3.61542
98,617,2.08496,-3.60309,0.00429685,-0.00505778,0.01161,0.0121363,-0.0128972,0.593909,0.0144553,0.0102947,1322,407,2.0849,3.60309
105,617,2.08557,-3.59799,0.0028659,-0.00590718,0.0115465,0.0108311,-0.0138723,0.603868,0.0142985,0.0120846,1329,407,2.08558,3.59799
112,617,2.09119,-3.57593,0.00205987,-0.00682258,0.0108441,0.00933695,-0.0140997,0.591041,0.013624,0.0166062,1336,407,2.09115,3.57593
119,617,2.11646,-3.54822,0.00115914,-0.00684746,0.0104012,0.00830082,-0.0139891,0.601692,0.013008,0.0189234,1343,407,2.11652,3.54821
126,617,2.11523,-3.53076,0.00122143,-0.00685842,0.00954029,0.00754191,-0.0131789,0.585116,0.0121098,0.0205269,1350,407,2.11529,3.53076
133,617,2.11743,-3.49887,0.00143757,-0.00596283,0.0088559,0.00733521,-0.0118605,0.58751,0.0111848,0.018605,1357,407,2.11738,3.49888
140,617,2.11523,-3.50476,0.00158633,-0.00443557,0.00808495,0.00720279,-0.010052,0.607147,0.0100072,0.0151933,1364,407,2.11521,3.50476
147,617,2.09314,-3.46863,0.0016997,-0.00333002,0.00754624,0.0071391,-0.00876942,0.624556,0.00920085,0.0181164,1371,407,2.09314,3.46863
154,617,2.07593,-3.47165,0.00167008,-0.00117689,0.00677637,0.00717087,-0.00667768,0.68187,0.00799715,0.0203355,1378,407,2.07593,3.47166
161,617,2.07825,-3.46457,0.00147745,-0.000899253,0.0059353,0.00634219,-0.00576399,0.686596,0.00699217,0.0209404,1385,407,2.07828,3.46457
168,617,2.11536,-3.45645,0.00120947,-0.000316194,0.00510535,0.00560866,-0.00471539,0.711238,0.00596802,0.0205572,1392,407,2.11532,3.45645
175,617,2.14441,-3.44244,0.000801009,1.61286e-05,0.00410935,0.00453662,-0.00371948,0.737793,0.00477444,0.0178687,1399,407,2.14435,3.44245
182,617,2.1582,-3.4079,0.000199514,0.000419589,0.00284126,0.00315294,-0.00253384,0.804753,0.00328974,0.0114821,1406,407,2.15826,3.40791
189,617,2.13733,-3.37469,-0.000383898,0.000585964,0.00198736,0.0021467,-0.00194464,0.905063,0.0023631,0.0106763,1413,407,2.13728,3.37469
196,617,2.11487,-3.35577,-0.00070409,0.00076494,0.00105247,0.00131386,-0.00125301,1.09005,0.00148212,0.0138994,1420,407,2.11488,3.35577
203,617,2.11548,-3.33286,-0.000686171,0.000845566,0.000127656,0.000856132,-0.000696737,1.48821,0.000898122,0.0144622,1427,407,2.11552,3.33287
210,617,2.12646,-3.31177,-0.00106227,0.00101733,-0.000216121,0.00103955,-0.00108449,-1.46833,0.00122641,0.013754,1434,407,2.12644,3.31177
217,617,2.10364,-3.23889,-0.00161211,0.00125893,5.57195e-06,0.00125894,-0.00161212,1.56886,0.00166178,0.0173778,1441,407,2.10362,3.2389
224,617,2.11475,-3.1908,-0.00124484,0.001566,0.000226786,0.00158418,-0.00126302,1.4908,0.00164731,0.0169945,1448,407,2.11474,3.19079
231,617,2.14734,-3.19711,-0.000802641,0.00222854,0.000652944,0.00236321,-0.000937308,1.3674,0.00196394,0.0128985,1455,407,2.14739,3.19711
238,617,2.14832,-3.18396,-0.000305134,0.00282416,0.00100965,0.00312164,-0.000602615,1.28427,0.00230834,0.013064,1462,407,2.14826,3.18396
245,617,2.13989,-3.16388,0.000181497,0.0033755,0.00150994,0.0039763,-0.000419304,1.1921,0.00280111,0.0117366,1469,407,2.13993,3.16389
252,617,2.15344,-3.10873,0.000430403,0.00403169,0.00194529,0.0048818,-0.000419704,1.1588,0.00340307,0.0132193,1476,407,2.15341,3.10875
259,617,2.15088,-3.06259,0.000621733,0.00462336,0.00222623,0.00561577,-0.000370675,1.15146,0.00387332,0.0114018,1483,407,2.15094,3.06258
266,617,2.1499,-3.00562,0.000743651,0.00523553,0.00219196,0.00612789,-0.000148711,1.18418,0.00413572,0.0138291,1490,407,2.14994,3.00561
273,617,2.15088,-2.95789,0.000879553,0.00570796,0.00211511,0.00650344,8.40696e-05,1.21107,0.00430788,0.0139478,1497,407,2.15089,2.95789
280,617,2.13745,-2.93723,0.00115885,0.00614005,0.00196731,0.00682331,0.000475587,1.23652,0.00439892,0.0118589,1504,407,2.1375,2.93721
287,617,2.11597,-2.90137,0.00154739,0.00624739,0.0019184,0.006931,0.000863784,1.22848,0.00436134,0.0111113,1511,407,2.11596,2.90137
294,617,2.12976,-2.85434,0.00196,0.00637715,0.00160234,0.00689719,0.00143996,1.25698,0.00420122,0.00950326,1518,407,2.1298,2.85435
301,617,2.13489,-2.79913,0.00257213,0.00653234,0.00135933,0.00695402,0.00215045,1.26999,0.00411115,0.00765825,1525,407,2.13487,2.79912
308,617,2.12891,-2.74939,0.00315448,0.00722753,0.00107541,0.00749404,0.00288798,1.32787,0.00436442,0.00812941,1532,407,2.12894,2.7494
315,617,2.11609,-2.69119,0.00410212,0.00748968,-0.000269691,0.00751102,0.00408078,-1.49185,0.00434191,0.0089927,1539,407,2.11604,2.69118
322,617,2.11511,-2.65451,0.00518547,0.00798428,-0.00194258,0.00897902,0.00419073,-1.09754,0.00518786,0.0116609,1546,407,2.11512,2.65451
329,617,2.13416,-2.63422,0.00586978,0.00850948,-0.00343903,0.0108732,0.00350603,-0.968624,0.00640824,0.0117473,1553,407,2.13418,2.63421
336,617,2.20251,-2.565,0.00676667,0.00916173,-0.00523578,0.0133352,0.00259322,-0.897825,0.00816417,0.021134,1560,407,2.20246,2.565
343,617,2.17871,-2.46149,0.00832391,0.011513,-0.00708669,0.0171823,0.00265459,-0.896059,0.0106806,0.0340021,1567,407,2.1787,2.46148
350,617,2.24133,-2.20963,0.0105142,0.0142771,-0.00951441,0.0220943,0.00269702,-0.883013,0.0139179,0.0388126,1574,407,2.24139,2.20963
357,617,2.28271,-2.07565,0.0135751,0.0163048,-0.0124681,0.0274826,0.00239736,-0.839915,0.0175772,0.0427797,1581,407,2.28273,2.07564
364,617,2.44617,-2.3457,0.0177933,0.0158399,-0.0170759,0.0339204,-0.000287248,-0.75683,0.02271,0.0424195,1588,407,2.44617,2.34569
371,617,2.63574,-3.15836,0.0233244,0.0139297,-0.0236938,0.042782,-0.00552785,-0.687541,0.0305312,0.0415456,1595,407,2.63575,3.15834
378,617,2.8252,-4.04495,0,0,0,0,0,0,0,-1,1602,407,2.82523,4.04494
385,617,1.97083,-1.57431,0,0,0,0,0,0,0,-1,1609,407,1.97077,1.5743
392,617,2.10889,-0.0643311,0,0,0,0,0,0,0,-1,1616,407,2.10885,0.0643188
399,617,2.46545,-0.91687,0,0,0,0,0,0,0,-1,1623,407,2.46543,0.916865
406,617,2.60559,-2.19522,0,0,0,0,0,0,0,-1,1630,407,2.60557,2.19521
413,617,2.92786,-3.80649,0.0761405,-0.0423527,-0.097137,0.130673,-0.0968855,-0.511554,0.131863,0.0472424,1637,407,2.92788,3.8065
420,617,3.42737,-4.47391,0.085954,-0.0602299,-0.11506,0.149175,-0.123451,-0.502429,0.157634,0.0448496,1644,407,3.42737,4.47391
427,617,0,0,0,0,0,0,0,0,0,-1,1651,407,0,0
434,617,0,0,0,0,0,0,0,0,0,-1,1658,407,0,0
441,617,0,0,0,0,0,0,0,0,0,-1,1665,407,0,0
448,617,0,0,0,0,0,0,0,0,0,-1,1672,407,0,0
455,617,0,0,0,0,0,0,0,0,0,-1,1679,407,0,0
462,617,0,0,0,0,0,0,0,0,0,-1,1686,407,0,0
469,617,0,0,0,0,0,0,0,0,0,-1,1693,407,0,0
476,617,0,0,0,0,0,0,0,0,0,-1,1700,407,0,0
483,617,0,0,0,0,0,0,0,0,0,-1,1707,407,0,0
490,617,0,0,0,0,0,0,0,0,0,-1,1714,407,0,0
497,617,0,0,0,0,0,0,0,0,0,-1,1721,407,0,0
504,617,0,0,0,0,0,0,0,0,0,-1,1728,407,0,0
511,617,0,0,0,0,0,0,0,0,0,-1,1735,407,0,0
518,617,0,0,0,0,0,0,0,0,0,-1,1742,407,0,0
525,617,0,0,0,0,0,0,0,0,0,-1,1749,407,0,0
532,617,0,0,0,0,0,0,0,0,0,-1,1756,407,0,0
539,617,0,0,0,0,0,0,0,0,0,-1,1763,407,0,0
546,617,0,0,0,0,0,0,0,0,0,-1,1770,407,0,0
553,617,0,0,0,0,0,0,0,0,0,-1,1777,407,0,0
560,617,0,0,0,0,0,0,0,0,0,-1,1784,407,0,0
567,617,0,0,0,0,0,0,0,0,0,-1,1791,407,0,0
574,617,0,0,0,0,0,0,0,0,0,-1,1798,407,0,0
581,617,0,0,0,0,0,0,0,0,0,-1,1805,407,0,0
588,617,0,0,0,0,0,0,0,0,0,-1,1812,407,0,0
595,617,0,0,0,0,0,0,0,0,0,-1,1819,407,0,0
602,617,0,0,0,0,0,0,0,0,0,-1,1826,407,0,0
609,617,0,0,0,0,0,0,0,0,0,-1,1833,407,0,0
616,617,0,0,0,0,0,0,0,0,0,-1,1840,407,0,0
623,617,0,0,0,0,0,0,0,0,0,-1,1847,407,0,0
630,617,0,0,0,0,0,0,0,0,0,-1,1854,407,0,0
637,617,0,0,0,0,0,0,0,0,0,-1,1861,407,0,0
644,617,0,0,0,0,0,0,0,0,0,-1,1868,407,0,0
651,617,0,0,0,0,0,0,0,0,0,-1,1875,407,0,0
658,617,0,0,0,0,0,0,0,0,0,-1,1882,407,0,0
665,617,0,0,0,0,0,0,0,0,0,-1,1889,407,0,0
672,617,0,0,0,0,0,0,0,0,0,-1,1896,407,0,0
679,617,0,0,0,0,0,0,0,0,0,-1,1903,407,0,0
686,617,0,0,0,0,0,0,0,0,0,-1,1910,407,0,0
693,617,0,0,0,0,0,0,0,0,0,-1,1917,407,0,0
700,617,0,0,0,0,0,0,0,0,0,-1,1924,407,0,0
707,617,0,0,0,0,0,0,0,0,0,-1,1931,407,0,0
714,617,0,0,0,0,0,0,0,0,0,-1,1938,407,0,0
721,617,0,0,0,0,0,0,0,0,0,-1,1945,407,0,0
728,617,0,0,0,0,0,0,0,0,0,-1,1952,407,0,0
735,617,0,0,0,0,0,0,0,0,0,-1,1959,407,0,0
742,617,0,0,0,0,0,0,0,0,0,-1,1966,407,0,0
749,617,0,0,0,0,0,0,0,0,0,-1,1973,407,0,0
756,617,0,0,0,0,0,0,0,0,0,-1,1980,407,0,0
763,617,0,0,0,0,0,0,0,0,0,-1,1987,407,0,0
770,617,0,0,0,0,0,0,0,0,0,-1,1994,407,0,0
777,617,0,0,0,0,0,0,0,0,0,-1,2001,407,0,0
784,617,0,0,0,0,0,0,0,0,0,-1,2008,407,0,0
791,617,0,0,0,0,0,0,0,0,0,-1,2015,407,0,0
798,617,0,0,0,0,0,0,0,0,0,-1,2022,407,0,0
805,617,0,0,0,0,0,0,0,0,0,-1,2029,407,0,0
812,617,0,0,0,0,0,0,0,0,0,-1,2036,407,0,0
-700,610,0,0,0,0,0,0,0,0,0,-1,524,414,0,0
-693,610,0,0,0,0,0,0,0,0,0,-1,531,414,0,0
-686,610,0,0,0,0,0,0,0,0,0,-1,538,414,0,0
-679,610,0,0,0,0,0,0,0,0,0,-1,545,414,0,0
-672,610,0,0,0,0,0,0,0,0,0,-1,552,414,0,0
-665,610,0,0,0,0,0,0,0,0,0,-1,559,414,0,0
-658,610,0,0,0,0,0,0,0,0,0,-1,566,414,0,0
-651,610,0,0,0,0,0,0,0,0,0,-1,573,414,0,0
-644,610,0,0,0,0,0,0,0,0,0,-1,580,414,0,0
-637,610,0,0,0,0,0,0,0,0,0,-1,587,414,0,0
-630,610,0,0,0,0,0,0,0,0,0,-1,594,414,0,0
-623,610,0,0,0,0,0,0,0,0,0,-1,601,414,0,0
-616,610,0,0,0,0,0,0,0,0,0,-1,608,414,0,0
-609,610,0,0,0,0,0,0,0,0,0,-1,615,414,0,0
-602,610,0,0,0,0,0,0,0,0,0,-1,622,414,0,0
-595,610,0,0,0,0,0,0,0,0,0,-1,629,414,0,0
-588,610,0,0,0,0,0,0,0,0,0,-1,636,414,0,0
-581,610,0,0,0,0,0,0,0,0,0,-1,643,414,0,0
-574,610,0,0,0,0,0,0,0,0,0,-1,650,414,0,0
-567,610,0,0,0,0,0,0,0,0,0,-1,657,414,0,0
-560,610,0,0,0,0,0,0,0,0,0,-1,664,414,0,0
-553,610,0,0,0,0,0,0,0,0,0,-1,671,414,0,0
-546,610,0,0,0,0,0,0,0,0,0,-1,678,414,0,0
-539,610,0,0,0,0,0,0,0,0,0,-1,685,414,0,0
-532,610,0,0,0,0,0,0,0,0,0,-1,692,414,0,0
-525,610,0,0,0,0,0,0,0,0,0,-1,699,414,0,0
-518,610,0,0,0,0,0,0,0,0,0,-1,706,414,0,0
-511,610,0,0,0,0,0,0,0,0,0,-1,713,414,0,0
-504,610,0,0,0,0,0,0,0,0,0,-1,720,414,0,0
-497,610,0,0,0,0,0,0,0,0,0,-1,727,414,0,0
-490,610,0,0,0,0,0,0,0,0,0,-1,734,414,0,0
-483,610,0,0,0,0,0,0,0,0,0,-1,741,414,0,0
-476,610,0,0,0,0,0,0,0,0,0,-1,748,414,0,0
-469,610,0,0,0,0,0,0,0,0,0,-1,755,414,0,0
-462,610,0,0,0,0,0,0,0,0,0,-1,762,414,0,0
-455,610,0,0,0,0,0,0,0,0,0,-1,769,414,0,0
-448,610,0,0,0,0,0,0,0,0,0,-1,776,414,0,0
-441,610,0,0,0,0,0,0,0,0,0,-1,783,414,0,0
-434,610,0,0,0,0,0,0,0,0,0,-1,790,414,0,0
-427,610,0,0,0,0,0,0,0,0,0,-1,797,414,0,0
-420,610,0,0,0,0,0,0,0,0,0,-1,804,414,0,0
-413,610,0,0,0,0,0,0,0,0,0,-1,811,414,0,0
-406,610,0,0,0,0,0,0,0,0,0,-1,818,414,0,0
-399,610,0,0,0,0,0,0,0,0,0,-1,825,414,0,0
-392,610,0,0,0,0,0,0,0,0,0,-1,832,414,0,0
-385,610,0,0,0,0,0,0,0,0,0,-1,839,414,0,0
-378,610,0,0,0,0,0,0,0,0,0,-1,846,414,0,0
-371,610,0,0,0,0,0,0,0,0,0,-1,853,414,0,0
-364,610,0,0,0,0,0,0,0,0,0,-1,860,414,0,0
-357,610,0,0,0,0,0,0,0,0,0,-1,867,414,0,0
-350,610,0,0,0,0,0,0,0,0,0,-1,874,414,0,0
-343,610,0,0,0,0,0,0,0,0,0,-1,881,414,0,0
-336,610,0,0,0,0,0,0,0,0,0,-1,888,414,0,0
-329,610,0,0,0,0,0,0,0,0,0,-1,895,414,0,0
-322,610,0,0,0,0,0,0,0,0,0,-1,902,414,0,0
-315,610,6.01733,-0.204773,0,0,0,0,0,0,0,-1,909,414,6.01732,0.204766
-308,610,5.06427,-1.34662,-0.114452,0.0575226,0.00115761,0.0575304,-0.11446,1.56407,0.101096,0.0442982,916,414,5.06427,1.34661
-301,610,3.68427,-2.42151,0,0,0,0,0,0,0,-1,923,414,3.68428,2.42152
-294,610,3.21777,-1.01056,0,0,0,0,0,0,0,-1,930,414,3.21777,1.01055
-287,610,4.11902,-1.43445,0,0,0,0,0,0,0,-1,937,414,4.119,1.43446
-280,610,5.20618,-1.86475,0,0,0,0,0,0,0,-1,944,414,5.20616,1.86476
-273,610,3.33234,-1.27283,0,0,0,0,0,0,0,-1,951,414,3.33235,1.27281
-266,610,2.92621,-1.57446,-0.0551798,0.0516983,0.00849018,0.0523685,-0.05585,1.49202,0.0624908,0.0454302,958,414,2.9262,1.57447
-259,610,2.13043,-2.20709,-0.0460441,0.0457621,0.00610527,0.0461663,-0.0464483,1.50468,0.0534712,0.0454667,965,414,2.13041,2.20709
-252,610,2.09015,-2.48608,-0.0302639,0.0399865,0.00299378,0.0401138,-0.0303913,1.52828,0.040835,0.0427077,972,414,2.09015,2.48609
-245,610,2.05286,-2.5787,-0.0209925,0.0301598,5.22551e-06,0.0301598,-0.0209925,1.57069,0.0296905,0.0431369,979,414,2.05285,2.5787
-238,610,2.03705,-2.3476,-0.0158941,0.0214564,-0.00266502,0.0216456,-0.0160833,-1.49992,0.0218616,0.0382361,986,414,2.03705,2.34759
-231,610,1.96729,-2.44116,-0.00956299,0.0146002,-0.00462918,0.0154567,-0.0104195,-1.38784,0.0150337,0.0297657,993,414,1.96729,2.44117
-224,610,1.92792,-2.50772,-0.00451714,0.00957864,-0.0055381,0.0114942,-0.00643269,-1.23779,0.0104867,0.0225972,1000,414,1.92792,2.50771
-217,610,1.95563,-2.5994,0.000128177,0.00298838,-0.00746699,0.00916098,-0.00604442,-0.880014,0.0088401,0.0152124,1007,414,1.95565,2.59939
-210,610,1.94824,-2.68439,0.00350865,0.000896377,-0.00698,0.00930367,-0.00489865,-0.692905,0.00833014,0.0106581,1014,414,1.94824,2.68439
-203,610,1.95343,-2.73352,0.00509613,-0.000671616,-0.00610474,0.0089639,-0.00453938,-0.564736,0.0079344,0.0133568,1021,414,1.95343,2.73353
-196,610,1.96704,-2.79663,0.00560017,-0.00196127,-0.00541954,0.00842742,-0.00478852,-0.480838,0.00772603,0.0131014,1028,414,1.96702,2.79665
-189,610,1.9718,-2.81546,0.00557404,-0.00297609,-0.00472651,0.00767205,-0.00507409,-0.417754,0.00740977,0.0106525,1035,414,1.97182,2.81546
-182,610,1.95154,-2.86469,0.00532621,-0.00387371,-0.00396562,0.00679961,-0.00534712,-0.355738,0.00702961,0.0110718,1042,414,1.95157,2.86469
-175,610,1.94458,-2.90512,0.00475041,-0.00442137,-0.00308775,0.00569305,-0.005364,-0.296295,0.00638473,0.0109362,1049,414,1.94463,2.90511
-168,610,1.94714,-2.94958,0.00395702,-0.00465971,-0.00234552,0.00455411,-0.0052568,-0.249271,0.00566917,0.0104838,1056,414,1.94711,2.94957
-161,610,1.93665,-3.01166,0.00356005,-0.00458973,-0.00179674,0.00393859,-0.00496827,-0.207643,0.00515382,0.01042,1063,414,1.93662,3.01164
-154,610,1.92224,-3.05249,0.00297294,-0.00411625,-0.0011754,0.00316275,-0.00430605,-0.160096,0.00432892,0.0123649,1070,414,1.92227,3.05248
-147,610,1.93762,-3.07303,0.00175092,-0.00352728,-0.000577046,0.00181327,-0.00358963,-0.107632,0.00317507,0.0135276,1077,414,1.93766,3.07304
-140,610,1.9386,-3.10812,0.0012393,-0.00286041,-0.000642369,0.00133759,-0.0029587,-0.15184,0.00253864,0.0105407,1084,414,1.9386,3.10812
-133,610,1.93262,-3.16074,0.00123765,-0.00229765,-0.000591347,0.00133394,-0.00239394,-0.161418,0.0021811,0.0122658,1091,414,1.93265,3.16075
-126,610,1.94141,-3.18808,0.00110673,-0.00210845,-0.000542092,0.00119567,-0.00219738,-0.162617,0.00198724,0.0118509,1098,414,1.94142,3.18807
-119,610,1.92322,-3.21338,0.000978083,-0.00185639,-0.000605177,0.00110188,-0.0019802,-0.201787,0.00180336,0.0100189,1105,414,1.92317,3.21339
-112,610,1.93274,-3.24081,0.000693039,-0.00171822,-0.000589762,0.000829558,-0.00185474,-0.227475,0.00158701,0.0161403,1112,414,1.93274,3.24081
-105,610,1.94226,-3.27548,0.000222183,-0.00151548,-0.000423324,0.000319825,-0.00161313,-0.226691,0.00119636,0.0163343,1119,414,1.9423,3.27547
-98,610,1.95728,-3.3259,-0.000113354,-0.0013983,-0.000344743,-2.67045e-05,-0.00148495,-0.246244,0.000981184,0.011574,1126,414,1.95727,3.32591
-91,610,1.95959,-3.32779,-0.000480996,-0.00136504,-0.000205758,-0.000435452,-0.00141058,-0.217832,0.00083403,0.0127332,1133,414,1.95957,3.32778
-84,610,1.97815,-3.34641,-0.000997493,-0.00131877,1.76932e-05,-0.000996522,-0.00131974,0.0548508,0.000794318,0.0139757,1140,414,1.97809,3.3464
-77,610,1.95825,-3.3999,-0.00156817,-0.00118661,0.000357087,-0.000972532,-0.00178225,1.03074,0.00103041,0.0107756,1147,414,1.9582,3.39991
-70,610,1.97034,-3.44568,-0.00210833,-0.00102521,0.000846025,-0.00056226,-0.00257129,1.0701,0.0015609,0.012648,1154,414,1.97034,3.44569
-63,610,1.98865,-3.45438,-0.00254886,-0.000766879,0.00141853,1.72695e-05,-0.00333301,1.06581,0.00222779,0.011853,1161,414,1.98863,3.45438
-56,610,1.97937,-3.46359,-0.00264573,-0.000400346,0.00205086,0.000815011,-0.00386109,1.03583,0.00288437,0.00946628,1168,414,1.97934,3.4636
-49,610,1.99097,-3.47238,-0.00342781,3.06798e-05,0.00222922,0.00112273,-0.00451986,1.11528,0.00344895,0.00993948,1175,414,1.99092,3.47238
-42,610,2.00317,-3.49808,-0.005637,1.84176e-05,0.00190388,0.000599622,-0.0062182,1.27451,0.00435911,0.0144477,1182,414,2.00311,3.49807
-35,610,1.99121,-3.51938,-0.00767001,0.000130564,0.00168517,0.000479046,-0.00801849,1.36688,0.00551228,0.0148737,1189,414,1.99115,3.51938
-28,610,1.98254,-3.53604,-0.0100446,0.000454519,0.00192267,0.000795535,-0.0103856,1.39526,0.00720355,0.011793,1196,414,1.98253,3.53606
-21,610,1.98999,-3.53488,-0.0121959,0.000173868,0.00212153,0.000527614,-0.0125496,1.40558,0.00854773,0.0097024,1203,414,1.99003,3.53489
-14,610,1.97571,-3.52954,-0.0145705,-0.000352589,0.00250999,7.75065e-05,-0.0150006,1.40109,0.0100263,0.0116333,1210,414,1.97572,3.52954
-7,610,1.97156,-3.53494,-0.0158458,-0.000949306,0.00317271,-0.000301719,-0.0164934,1.36945,0.0108964,0.013644,1217,414,1.97155,3.53494
0,610,1.99023,-3.54626,-0.0162691,-0.00138566,0.00347354,-0.000614912,-0.0170399,1.35244,0.0111606,0.00968146,1224,414,1.99023,3.54628
7,610,2.00781,-3.56323,-0.0156937,-0.000995101,0.004468,0.000256486,-0.0169453,1.29767,0.0113833,0.00964904,1231,414,2.00785,3.56322
14,610,2.00696,-3.57251,-0.0142408,-0.000465692,0.00539002,0.00139265,-0.0160991,1.23878,0.0112258,0.011959,1238,414,2.00698,3.5725
21,610,2.02393,-3.60178,-0.0123616,0.00069238,0.00680965,0.00359793,-0.0152672,1.1675,0.0115655,0.0113135,1245,414,2.02398,3.60177
28,610,2.03625,-3.6203,-0.00975533,0.00172911,0.00845691,0.00620904,-0.0142353,1.08364,0.0121029,0.0118345,1252,414,2.03625,3.6203
35,610,2.05029,-3.60614,-0.00673803,0.00241987,0.0102328,0.00905149,-0.0133697,0.995775,0.0130246,0.0159616,1259,414,2.05033,3.60615
42,610,2.04114,-3.60513,-0.00332539,0.00347696,0.0120046,0.0125529,-0.0124013,0.923442,0.0144074,0.0150632,1266,414,2.04116,3.60513
49,610,2.03564,-3.61475,-0.000106637,0.00278362,0.0136495,0.0150642,-0.0123872,0.838139,0.0158742,0.0141082,1273,414,2.03563,3.61475
56,610,2.05627,-3.61328,0.00299915,0.00283372,0.0152334,0.01815,-0.0123171,0.782683,0.0176973,0.0123196,1280,414,2.05631,3.61328
63,610,2.05042,-3.6041,0.00556847,0.00209724,0.0164554,0.0203796,-0.0127139,0.732856,0.0192766,0.0147424,1287,414,2.05039,3.6041
70,610,2.05371,-3.56314,0.00727344,0.00100497,0.0173015,0.0217223,-0.0134439,0.695793,0.0204899,0.0208602,1294,414,2.05373,3.56315
77,610,2.10925,-3.59067,0.00846067,-0.000713447,0.0179647,0.0224146,-0.0146674,0.6604,0.0215645,0.0271009,1301,414,2.10929,3.59067
84,610,2.18665,-3.57764,0.00877706,-0.00243402,0.0179681,0.0219937,-0.0156506,0.634196,0.0218366,0.0274934,1308,414,2.18659,3.57763
91,610,2.14417,-3.61392,0.00831695,-0.00448939,0.0177296,0.0207642,-0.0169366,0.612108,0.0218039,0.0238143,1315,414,2.14422,3.61393
98,610,2.17322,-3.61185,0.00605723,-0.00587171,0.0176038,0.0186795,-0.018494,0.622059,0.0214622,0.0210473,1322,414,2.17321,3.61186
105,610,2.12793,-3.59195,0.00413799,-0.00689977,0.0178335,0.0172871,-0.0200489,0.635339,0.0215756,0.0167272,1329,414,2.12793,3.59195
112,610,2.08911,-3.56104,0.00268505,-0.00804668,0.0171676,0.0153058,-0.0206674,0.633929,0.0208459,0.0120551,1336,414,2.08917,3.56105
119,610,2.0481,-3.54596,0.00108982,-0.00816014,0.0168296,0.0139184,-0.0209887,0.651303,0.020291,0.0170651,1343,414,2.04811,3.54597
126,610,2.03394,-3.54901,0.000835286,-0.00814021,0.015995,0.0129602,-0.0202651,0.648629,0.0193366,0.0236885,1350,414,2.03392,3.54901
133,610,2.13025,-3.52139,0.000857172,-0.00684785,0.0154719,0.012949,-0.0189397,0.66338,0.0185189,0.0200611,1357,414,2.13023,3.52138
140,610,2.15747,-3.51608,0.000857561,-0.00476881,0.0148365,0.0131453,-0.0170565,0.691704,0.0174857,0.014826,1364,414,2.15743,3.51607
147,610,2.10437,-3.49234,0.000902136,-0.00313624,0.0144428,0.0134662,-0.0157003,0.715945,0.0168557,0.0148929,1371,414,2.10436,3.49234
154,610,2.06958,-3.46527,0.000817453,-4.35117e-05,0.0137737,0.0141674,-0.0133935,0.769776,0.0159144,0.0194841,1378,414,2.06962,3.46528
161,610,2.08728,-3.44577,0.000655237,0.000325344,0.0127595,0.0132509,-0.0122703,0.778935,0.0147383,0.0248574,1385,414,2.08733,3.44577
168,610,2.12915,-3.44778,0.000486884,0.00128238,0.0117074,0.0125987,-0.0108295,0.802379,0.0135391,0.0257504,1392,414,2.12914,3.44777
175,610,2.15845,-3.44025,0.000210997,0.001864,0.0103121,0.0113827,-0.00930771,0.825387,0.0119656,0.0215192,1399,414,2.1585,3.44025
182,610,2.18774,-3.40765,-0.000342514,0.00251698,0.00835342,0.00956212,-0.00738766,0.870155,0.00981277,0.0147414,1406,414,2.18773,3.40767
189,610,2.17297,-3.37009,-0.000883637,0.00265849,0.00673264,0.00784911,-0.00607426,0.914013,0.00806041,0.0125771,1413,414,2.17299,3.37007
196,610,2.16394,-3.33694,-0.0011414,0.00263998,0.0049209,0.00602091,-0.00452234,0.968811,0.00610761,0.013076,1420,414,2.16396,3.33695
203,610,2.16113,-3.3176,-0.000886361,0.00240628,0.00293852,0.00412823,-0.00260831,1.04074,0.00392221,0.0141112,1427,414,2.16113,3.31759
210,610,2.15674,-3.28873,-0.00131531,0.00211774,0.0016086,0.00275367,-0.00195124,1.19432,0.00272952,0.0102518,1434,414,2.15677,3.28872
217,610,2.12561,-3.24753,-0.00208412,0.00187275,0.00101772,0.00211917,-0.00233053,1.33324,0.00257,0.0139357,1441,414,2.12563,3.24754
224,610,2.14185,-3.21213,-0.00165972,0.0015758,0.000514311,0.00165559,-0.0017395,1.41689,0.00196036,0.0169528,1448,414,2.14184,3.21212
231,610,2.16675,-3.19205,-0.00115539,0.0015757,0.000307089,0.0016098,-0.00118949,1.46019,0.00162223,0.0135647,1455,414,2.1667,3.19204
238,610,2.17725,-3.17422,-0.000591053,0.00152281,4.25202e-05,0.00152366,-0.000591908,1.55069,0.00126029,0.00981623,1462,414,2.17719,3.17422
245,610,2.17078,-3.15073,1.12295e-05,0.00151853,0.00012281,0.00152847,1.28889e-06,1.49003,0.00101855,0.0114534,1469,414,2.17076,3.15073
252,610,2.15979,-3.11887,0.000385599,0.00173873,0.000275381,0.00179263,0.000331702,1.37752,0.0011013,0.0133206,1476,414,2.15985,3.11888
259,610,2.19446,-3.06387,0.000702056,0.00204813,0.000508915,0.00221888,0.000531307,1.24708,0.00133779,0.0118166,1483,414,2.19452,3.06388
266,610,2.18384,-3.00739,0.000857604,0.00255722,0.000612088,0.0027547,0.000660117,1.2587,0.00166075,0.011895,1490,414,2.18381,3.00738
273,610,2.18042,-2.96783,0.000947399,0.00291732,0.000656012,0.00311578,0.000748932,1.27702,0.001878,0.00951207,1497,414,2.18043,2.96782
280,610,2.17676,-2.92654,0.00111125,0.00329543,0.000659803,0.00347927,0.000927412,1.29906,0.00208046,0.00953665,1504,414,2.17672,2.92654
287,610,2.15393,-2.88904,0.00136004,0.00346036,0.000796344,0.00372815,0.00109225,1.2464,0.0022131,0.0125766,1511,414,2.15389,2.88905
294,610,2.17603,-2.84589,0.00160714,0.00371405,0.000772254,0.00396679,0.0013544,1.25451,0.0023283,0.0107952,1518,414,2.17605,2.84589
301,610,2.1803,-2.81232,0.0019994,0.00404673,0.000812337,0.00432988,0.00171624,1.2354,0.00251769,0.00991979,1525,414,2.18028,2.81233
308,610,2.18994,-2.76016,0.00238925,0.00480114,0.000813608,0.00504994,0.00214046,1.27404,0.00292683,0.0120827,1532,414,2.18992,2.76017
315,610,2.17798,-2.69751,0.00304717,0.00522122,4.84116e-05,0.0052223,0.00304609,1.54854,0.003029,0.0132361,1539,414,2.17801,2.69753
322,610,2.16406,-2.65079,0.0038008,0.00566326,-0.000993378,0.00609364,0.00337042,-1.16196,0.00352477,0.0124397,1546,414,2.16405,2.65079
329,610,2.16296,-2.60361,0.00421756,0.00610483,-0.00192211,0.00730245,0.00301994,-1.01358,0.00423702,0.0105645,1553,414,2.16301,2.60361
336,610,2.17749,-2.53595,0.00481856,0.00675702,-0.00304555,0.00898385,0.00259173,-0.939453,0.00533929,0.00933918,1560,414,2.1775,2.53594
343,610,2.17981,-2.47839,0.00601148,0.00870936,-0.00431673,0.011883,0.00283783,-0.936837,0.00716588,0.0134289,1567,414,2.17985,2.47838
350,610,2.11206,-2.47333,0.00777464,0.0109332,-0.00610549,0.0156604,0.00304749,-0.911958,0.00958725,0.0182088,1574,414,2.11208,2.47333
357,610,2.16309,-2.41089,0.0103124,0.0124849,-0.00831373,0.019783,0.00301424,-0.850359,0.0123076,0.0255982,1581,414,2.16312,2.4109
364,610,2.20508,-2.32376,0.0138359,0.0121143,-0.0118545,0.0248608,0.00108937,-0.749154,0.0162229,0.0286183,1588,414,2.20511,2.32376
371,610,2.12219,-2.44955,0.0184898,0.0107667,-0.0169544,0.0320169,-0.00276039,-0.673428,0.0223217,0.0395262,1595,414,2.12225,2.44956
378,610,1.67969,-2.35007,0.0236761,0.00799648,-0.023659,0.0407604,-0.00908787,-0.625409,0.0306553,0.0423933,1602,414,1.67972,2.35007
385,610,1.95154,-1.45499,0,0,0,0,0,0,0,-1,1609,414,1.95148,1.455
392,610,2.29199,-0.780945,0.037038,-0.00100673,-0.0394034,0.0617704,-0.0257391,-0.560518,0.0519316,0.0473474,1616,414,2.29195,0.780951
399,610,2.88135,-1.10431,0.0449331,-0.00820116,-0.0488217,0.0739481,-0.0372161,-0.536221,0.0653382,0.0474479,1623,414,2.8814,1.1043
406,610,3.4519,-1.84393,0.0531212,-0.0177393,-0.0598211,0.087217,-0.0518351,-0.51804,0.0811434,0.0472447,1630,414,3.45192,1.84393
413,610,3.91821,-2.72385,0.0610089,-0.0291759,-0.0720421,0.100907,-0.069074,-0.505769,0.0987106,0.0469905,1637,414,3.91825,2.72385
420,610,4.78149,-3.64041,0.0684071,-0.0417449,-0.0849143,0.114543,-0.0878806,-0.4977,0.117207,0.0460992,1644,414,4.78152,3.64042
427,610,5.20764,-4.67545,0.0757996,-0.0563718,-0.0968408,0.126955,-0.107527,-0.485985,0.135533,0.0426275,1651,414,5.20759,4.67545
434,610,5.39233,-5.45441,0,0,0,0,0,0,0,-1,1658,414,5.39228,5.4544
441,610,0,0,0,0,0,0,0,0,0,-1,1665,414,0,0
448,610,0,0,0,0,0,0,0,0,0,-1,1672,414,0,0
455,610,0,0,0,0,0,0,0,0,0,-1,1679,414,0,0
462,610,0,0,0,0,0,0,0,0,0,-1,1686,414,0,0
469,610,0,0,0,0,0,0,0,0,0,-1,1693,414,0,0
476,610,0,0,0,0,0,0,0,0,0,-1,1700,414,0,0
483,610,0,0,0,0,0,0,0,0,0,-1,1707,414,0,0
490,610,0,0,0,0,0,0,0,0,0,-1,1714,414,0,0
497,610,0,0,0,0,0,0,0,0,0,-1,1721,414,0,0
504,610,0,0,0,0,0,0,0,0,0,-1,1728,414,0,0
511,610,0,0,0,0,0,0,0,0,0,-1,1735,414,0,0
518,610,0,0,0,0,0,0,0,0,0,-1,1742,414,0,0
525,610,0,0,0,0,0,0,0,0,0,-1,1749,414,0,0
532,610,0,0,0,0,0,0,0,0,0,-1,1756,414,0,0
539,610,0,0,0,0,0,0,0,0,0,-1,1763,414,0,0
546,610,0,0,0,0,0,0,0,0,0,-1,1770,414,0,0
553,610,0,0,0,0,0,0,0,0,0,-1,1777,414,0,0
560,610,0,0,0,0,0,0,0,0,0,-1,1784,414,0,0
567,610,0,0,0,0,0,0,0,0,0,-1,1791,414,0,0
574,610,0,0,0,0,0,0,0,0,0,-1,1798,414,0,0
581,610,0,0,0,0,0,0,0,0,0,-1,1805,414,0,0
588,610,0,0,0,0,0,0,0,0,0,-1,1812,414,0,0
595,610,0,0,0,0,0,0,0,0,0,-1,1819,414,0,0
602,610,0,0,0,0,0,0,0,0,0,-1,1826,414,0,0
609,610,0,0,0,0,0,0,0,0,0,-1,1833,414,0,0
616,610,0,0,0,0,0,0,0,0,0,-1,1840,414,0,0
623,610,0,0,0,0,0,0,0,0,0,-1,1847,414,0,0
630,610,0,0,0,0,0,0,0,0,0,-1,1854,414,0,0
637,610,0,0,0,0,0,0,0,0,0,-1,1861,414,0,0
644,610,0,0,0,0,0,0,0,0,0,-1,1868,414,0,0
651,610,0,0,0,0,0,0,0,0,0,-1,1875,414,0,0
658,610,0,0,0,0,0,0,0,0,0,-1,1882,414,0,0
665,610,0,0,0,0,0,0,0,0,0,-1,1889,414,0,0
672,610,0,0,0,0,0,0,0,0,0,-1,1896,414,0,0
679,610,0,0,0,0,0,0,0,0,0,-1,1903,414,0,0
686,610,0,0,0,0,0,0,0,0,0,-1,1910,414,0,0
693,610,0,0,0,0,0,0,0,0,0,-1,1917,414,0,0
700,610,0,0,0,0,0,0,0,0,0,-1,1924,414,0,0
707,610,0,0,0,0,0,0,0,0,0,-1,1931,414,0,0
714,610,0,0,0,0,0,0,0,0,0,-1,1938,414,0,0
721,610,0,0,0,0,0,0,0,0,0,-1,1945,414,0,0
728,610,0,0,0,0,0,0,0,0,0,-1,1952,414,0,0
735,610,0,0,0,0,0,0,0,0,0,-1,1959,414,0,0
742,610,0,0,0,0,0,0,0,0,0,-1,1966,414,0,0
749,610,0,0,0,0,0,0,0,0,0,-1,1973,414,0,0
756,610,0,0,0,0,0,0,0,0,0,-1,1980,414,0,0
763,610,0,0,0,0,0,0,0,0,0,-1,1987,414,0,0
770,610,0,0,0,0,0,0,0,0,0,-1,1994,414,0,0
777,610,0,0,0,0,0,0,0,0,0,-1,2001,414,0,0
784,610,0,0,0,0,0,0,0,0,0,-1,2008,414,0,0
791,610,0,0,0,0,0,0,0,0,0,-1,2015,414,0,0
798,610,0,0,0,0,0,0,0,0,0,-1,2022,414,0,0
805,610,0,0,0,0,0,0,0,0,0,-1,2029,414,0,0
812,610,0,0,0,0,0,0,0,0,0,-1,2036,414,0,0
-700,603,0,0,0,0,0,0,0,0,0,-1,524,421,0,0
-693,603,0,0,0,0,0,0,0,0,0,-1,531,421,0,0
-686,603,0,0,0,0,0,0,0,0,0,-1,538,421,0,0
-679,603,0,0,0,0,0,0,0,0,0,-1,545,421,0,0
-672,603,0,0,0,0,0,0,0,0,0,-1,552,421,0,0
-665,603,0,0,0,0,0,0,0,0,0,-1,559,421,0,0
-658,603,0,0,0,0,0,0,0,0,0,-1,566,421,0,0
-651,603,0,0,0,0,0,0,0,0,0,-1,573,421,0,0
-644,603,0,0,0,0,0,0,0,0,0,-1,580,421,0,0
-637,603,0,0,0,0,0,0,0,0,0,-1,587,421,0,0
-630,603,0,0,0,0,0,0,0,0,0,-1,594,421,0,0
-623,603,0,0,0,0,0,0,0,0,0,-1,601,421,0,0
-616,603,0,0,0,0,0,0,0,0,0,-1,608,421,0,0
-609,603,0,0,0,0,0,0,0,0,0,-1,615,421,0,0
-602,603,0,0,0,0,0,0,0,0,0,-1,622,421,0,0
-595,603,0,0,0,0,0,0,0,0,0,-1,629,421,0,0
-588,603,0,0,0,0,0,0,0,0,0,-1,636,421,0,0
-581,603,0,0,0,0,0,0,0,0,0,-1,643,421,0,0
-574,603,0,0,0,0,0,0,0,0,0,-1,650,421,0,0
-567,603,0,0,0,0,0,0,0,0,0,-1,657,421,0,0
-560,603,0,0,0,0,0,0,0,0,0,-1,664,421,0,0
-553,603,0,0,0,0,0,0,0,0,0,-1,671,421,0,0
-546,603,0,0,0,0,0,0,0,0,0,-1,678,421,0,0
-539,603,0,0,0,0,0,0,0,0,0,-1,685,421,0,0
-532,603,0,0,0,0,0,0,0,0,0,-1,692,421,0,0
-525,603,0,0,0,0,0,0,0,0,0,-1,699,421,0,0
-518,603,0,0,0,0,0,0,0,0,0,-1,706,421,0,0
-511,603,0,0,0,0,0,0,0,0,0,-1,713,421,0,0
-504,603,0,0,0,0,0,0,0,0,0,-1,720,421,0,0
-497,603,0,0,0,0,0,0,0,0,0,-1,727,421,0,0
-490,603,0,0,0,0,0,0,0,0,0,-1,734,421,0,0
-483,603,0,0,0,0,0,0,0,0,0,-1,741,421,0,0
-476,603,0,0,0,0,0,0,0,0,0,-1,748,421,0,0
-469,603,0,0,0,0,0,0,0,0,0,-1,755,421,0,0
-462,603,0,0,0,0,0,0,0,0,0,-1,762,421,0,0
-455,603,0,0,0,0,0,0,0,0,0,-1,769,421,0,0
-448,603,0,0,0,0,0,0,0,0,0,-1,776,421,0,0
-441,603,0,0,0,0,0,0,0,0,0,-1,783,421,0,0
-434,603,0,0,0,0,0,0,0,0,0,-1,790,421,0,0
-427,603,0,0,0,0,0,0,0,0,0,-1,797,421,0,0
-420,603,0,0,0,0,0,0,0,0,0,-1,804,421,0,0
-413,603,0,0,0,0,0,0,0,0,0,-1,811,421,0,0
-406,603,0,0,0,0,0,0,0,0,0,-1,818,421,0,0
-399,603,0,0,0,0,0,0,0,0,0,-1,825,421,0,0
-392,603,0,0,0,0,0,0,0,0,0,-1,832,421,0,0
-385,603,0,0,0,0,0,0,0,0,0,-1,839,421,0,0
-378,603,0,0,0,0,0,0,0,0,0,-1,846,421,0,0
-371,603,0,0,0,0,0,0,0,0,0,-1,853,421,0,0
-364,603,0,0,0,0,0,0,0,0,0,-1,860,421,0,0
-357,603,0,0,0,0,0,0,0,0,0,-1,867,421,0,0
-350,603,0,0,0,0,0,0,0,0,0,-1,874,421,0,0
-343,603,0,0,0,0,0,0,0,0,0,-1,881,421,0,0
-336,603,0,0,0,0,0,0,0,0,0,-1,888,421,0,0
-329,603,6.17908,0.648315,0,0,0,0,0,0,0,-1,895,421,6.17906,-0.648324
-322,603,5.612,0.247528,0,0,0,0,0,0,0,-1,902,421,5.61202,-0.247538
-315,603,5.08081,-0.381775,-0.10083,0.0514532,0.00281788,0.0515053,-0.100882,1.5523,0.0895069,0.0468,909,421,5.08082,0.381785
-308,603,4.21173,-1.30542,-0.090932,0.0541514,0.00478956,0.0543093,-0.0910899,1.53783,0.0848368,0.0448905,916,421,4.21174,1.30543
-301,603,2.24664,-0.757874,0,0,0,0,0,0,0,-1,923,421,2.24665,0.757876
-294,603,2.83746,-0.698517,-0.0731548,0.0560871,0.00940667,0.0567682,-0.0738358,1.49852,0.0756186,0.0498434,930,421,2.83746,0.698531
-287,603,3.78778,-0.717255,0,0,0,0,0,0,0,-1,937,421,3.7878,0.717247
-280,603,4.92444,-0.973114,0,0,0,0,0,0,0,-1,944,421,4.92446,0.973124
-273,603,6.09076,-0.963928,-0.0486349,0.0482391,0.0100537,0.0492714,-0.0496673,1.46847,0.0571225,0.0413857,951,421,6.09073,0.963941
-266,603,3.07251,-1.55249,-0.0415091,0.0429234,0.00892496,0.0438565,-0.0424422,1.46662,0.0498268,0.04447,958,421,3.07253,1.55249
-259,603,2.41376,-1.98978,-0.034114,0.0372202,0.00677134,0.0378573,-0.0347511,1.47699,0.0419332,0.0421639,965,421,2.41374,1.98978
-252,603,2.01605,-2.36578,-0.0231118,0.0319292,0.00407778,0.0322296,-0.0234123,1.49725,0.0322591,0.035852,972,421,2.01605,2.36579
-245,603,1.96381,-2.44672,-0.0165202,0.0243646,0.00130572,0.0244063,-0.0165619,1.5389,0.023797,0.0282634,979,421,1.96381,2.4467
-238,603,1.96271,-2.45111,-0.0125722,0.0179448,-0.00111736,0.0179856,-0.0126131,-1.53425,0.0177567,0.0171342,986,421,1.96268,2.45111
-231,603,1.93927,-2.52451,-0.00774246,0.0127475,-0.00287773,0.013144,-0.00813895,-1.43388,0.0124005,0.0114274,993,421,1.93928,2.52451
-224,603,1.90192,-2.5896,-0.00388285,0.0089345,-0.00379291,0.00997278,-0.00492114,-1.3036,0.00876233,0.0120093,1000,421,1.9019,2.5896
-217,603,1.89832,-2.63129,-0.000234362,0.00364604,-0.0055187,0.00755566,-0.00414398,-0.954434,0.00684985,0.011573,1007,421,1.89831,2.63128
-210,603,1.89807,-2.65939,0.00240554,0.002043,-0.00521036,0.00743778,-0.00298925,-0.76801,0.00619998,0.00955327,1014,421,1.89807,2.65941
-203,603,1.90948,-2.72189,0.0036197,0.000886803,-0.0045711,0.00702422,-0.00251771,-0.640159,0.00571017,0.0146013,1021,421,1.90946,2.7219
-196,603,1.93945,-2.81241,0.00395235,-0.000115137,-0.00404239,0.00644376,-0.00260655,-0.552334,0.00537947,0.0167114,1028,421,1.93951,2.8124
-189,603,1.94751,-2.84155,0.00382525,-0.000944311,-0.00349122,0.00566845,-0.00278751,-0.485759,0.0049756,0.0135711,1035,421,1.94749,2.84155
-182,603,1.91406,-2.89047,0.0035095,-0.00175195,-0.00286994,0.00477201,-0.00301446,-0.41443,0.00453353,0.0104203,1042,421,1.91406,2.89046
-175,603,1.90771,-2.9346,0.00291616,-0.00231423,-0.00214642,0.00368421,-0.00308228,-0.343633,0.00391178,0.0111373,1049,421,1.9077,2.93459
-168,603,1.89673,-2.95752,0.00214931,-0.00266607,-0.00152919,0.00259388,-0.00311064,-0.282924,0.003298,0.0139437,1056,421,1.89676,2.95752
-161,603,1.88062,-3.01474,0.00173455,-0.00276053,-0.00108669,0.00198347,-0.00300946,-0.225181,0.00290289,0.0132168,1063,421,1.88058,3.01475
-154,603,1.87451,-3.05719,0.0012586,-0.00253778,-0.000580833,0.00134547,-0.00262466,-0.148473,0.00233148,0.0121798,1070,421,1.87456,3.05718
-147,603,1.88806,-3.09036,0.000380785,-0.00220776,-7.11517e-05,0.000382739,-0.00220971,-0.0274595,0.0016159,0.0130207,1077,421,1.8881,3.09035
-140,603,1.91052,-3.09549,7.77944e-05,-0.00188804,-0.000124171,8.56066e-05,-0.00189585,-0.0628319,0.00129338,0.0107009,1084,421,1.91058,3.0955
-133,603,1.90552,-3.14609,0.000191747,-0.00176081,-0.000127205,0.000199999,-0.00176906,-0.0647826,0.00125138,0.0111624,1091,421,1.90553,3.14608
-126,603,1.90552,-3.1796,0.000250592,-0.00193177,-0.000158392,0.000262028,-0.00194321,-0.0720748,0.00139106,0.0102548,1098,421,1.90555,3.1796
-119,603,1.92114,-3.2135,0.000381618,-0.00200498,-0.000272348,0.000412302,-0.00203566,-0.112194,0.00151338,0.0101763,1105,421,1.9211,3.2135
-112,603,1.91565,-3.24808,0.000344029,-0.00216285,-0.000307638,0.000381229,-0.00220005,-0.120339,0.0016089,0.0138342,1112,421,1.91564,3.24807
-105,603,1.92615,-3.29218,5.51618e-05,-0.00223883,-0.00017333,6.81843e-05,-0.00225185,-0.0749911,0.00152447,0.0140277,1119,421,1.92613,3.29218
-98,603,1.92456,-3.30786,-0.00011994,-0.00241749,-0.000109891,-0.000114696,-0.00242273,-0.0476847,0.00157831,0.0115698,1126,421,1.92451,3.30787
-91,603,1.94055,-3.32193,-0.000454815,-0.0025942,2.17173e-05,-0.000454594,-0.00259442,0.0101498,0.00159976,0.00861378,1133,421,1.94058,3.32193
-84,603,1.95813,-3.37134,-0.00107998,-0.00269373,0.000224852,-0.00104924,-0.00272447,0.135888,0.00158676,0.0087938,1140,421,1.95808,3.37133
-77,603,1.94653,-3.40759,-0.00183402,-0.00265181,0.000585766,-0.00152855,-0.00295728,0.480692,0.00170771,0.0081405,1147,421,1.94652,3.40758
-70,603,1.94495,-3.43643,-0.00261679,-0.0025133,0.0011718,-0.0013921,-0.00373798,0.807463,0.00218142,0.0110994,1154,421,1.94497,3.43642
-63,603,1.95459,-3.45102,-0.00334072,-0.00219112,0.00188612,-0.000794165,-0.00473768,0.933303,0.00292983,0.0157361,1161,421,1.95464,3.45103
-56,603,1.93872,-3.55658,-0.00358984,-0.00171435,0.00271301,0.000218413,-0.0055226,0.951794,0.00375665,0.0202791,1168,421,1.93873,3.55658
-49,603,1.91699,-3.58752,-0.00523089,-0.000959645,0.00276611,0.000399339,-0.00658987,1.11414,0.00453223,0.025332,1175,421,1.91698,3.58753
-42,603,1.95557,-3.5275,-0.00938962,-0.00102453,0.00217626,-0.000492227,-0.00992192,1.33091,0.0064568,0.035096,1182,421,1.9556,3.52749
-35,603,1.92969,-3.47995,-0.0127873,-0.00115638,0.0018714,-0.000862693,-0.013081,1.41513,0.00844781,0.0257797,1189,421,1.92966,3.47995
-28,603,1.88525,-3.5022,-0.0163415,-0.000799508,0.00230533,-0.00046477,-0.0166762,1.4266,0.0109658,0.019372,1196,421,1.88528,3.5022
-21,603,1.90161,-3.53137,-0.0193562,-0.00121858,0.00266144,-0.000836112,-0.0197386,1.42807,0.0128894,0.0181349,1203,421,1.90164,3.53138
-14,603,1.94922,-3.53299,-0.0222872,-0.00216381,0.00312032,-0.00169108,-0.02276,1.42044,0.0146422,0.0191365,1210,421,1.94925,3.53299
-7,603,1.96606,-3.54962,-0.0238836,-0.00294649,0.00371227,-0.00230777,-0.0245223,1.40041,0.0156358,0.0216488,1217,421,1.96601,3.54962
0,603,2.0127,-3.59024,-0.0227486,-0.00343692,0.00340378,-0.00285455,-0.0233309,1.40134,0.0146952,0.0225847,1224,421,2.01265,3.59024
7,603,2.03162,-3.55191,-0.0214764,-0.0030358,0.00445801,-0.00201463,-0.0224976,1.34562,0.014374,0.0264668,1231,421,2.03157,3.5519
14,603,2.08521,-3.52786,-0.0188403,-0.00231871,0.00542398,-0.000697186,-0.0204619,1.2803,0.0134149,0.0254079,1238,421,2.08519,3.52786
21,603,2.07874,-3.57748,-0.0155573,-0.000834001,0.00697509,0.00194564,-0.0183369,1.19158,0.0129221,0.0199787,1245,421,2.07869,3.57749
28,603,2.02881,-3.51511,-0.0112809,0.000631788,0.0088715,0.00536102,-0.0160101,1.08104,0.0128391,0.0236451,1252,421,2.02876,3.5151
35,603,1.80017,-3.50552,0,0,0,0,0,0,0,-1,1259,421,1.80014,3.50551
42,603,2.04309,-3.5871,-0.0013389,0.00332429,0.0132683,0.0144643,-0.0124789,0.872374,0.0155697,0.0274955,1266,421,2.04303,3.58711
49,603,2.03455,-3.57306,0.00341516,0.00270375,0.0154682,0.0185317,-0.0124128,0.773902,0.0179819,0.0144478,1273,421,2.0345,3.57307
56,603,2.03101,-3.55759,0.00790394,0.00316463,0.0177677,0.0234593,-0.0123907,0.719105,0.0210243,0.0250523,1280,421,2.03096,3.55757
63,603,2.00806,-3.59906,0.0113869,0.00267961,0.0197309,0.0272388,-0.0131723,0.676812,0.0237979,0.0354129,1287,421,2.00802,3.59907
70,603,1.95239,-3.59277,0.0136089,0.00170851,0.0213612,0.0298331,-0.0145157,0.649566,0.0261089,0.0391274,1294,421,1.95243,3.59277
77,603,1.8905,-3.59171,0.0148271,-0.000146458,0.0229027,0.0314357,-0.0167551,0.627426,0.02825,0.0418449,1301,421,1.89055,3.59171
84,603,1.88855,-3.67163,0.0147845,-0.00190032,0.0237065,0.0315736,-0.0186894,0.616213,0.0293354,0.0465991,1308,421,1.88852,3.67164
91,603,1.95886,-3.68427,0.0137203,-0.00409623,0.0241896,0.0305898,-0.0209658,0.608971,0.029938,0.0475024,1315,421,1.95887,3.68426
98,603,1.98547,-3.67984,0.010021,-0.00546433,0.024748,0.0282093,-0.0236526,0.633792,0.029981,0.0454429,1322,421,1.98551,3.67984
105,603,2.13843,-3.54718,0.00569564,-0.00646221,0.0261226,0.0264373,-0.0272039,0.671079,0.0309708,0.0373093,1329,421,2.13845,3.54718
112,603,2.1123,-3.49963,0.00328646,-0.00775817,0.0255445,0.0238988,-0.0283705,0.678944,0.0302145,0.0293465,1336,421,2.11227,3.49963
119,603,2.06055,-3.55496,0.000735841,-0.00790076,0.0253933,0.0221754,-0.0293404,0.701176,0.0298384,0.0307649,1343,421,2.0605,3.55496
126,603,2.11658,-3.52414,-2.62796e-05,-0.00785412,0.0245936,0.0209629,-0.0288433,0.706488,0.0288753,0.0358337,1350,421,2.11656,3.52414
133,603,2.20032,-3.50204,-0.000407208,-0.00632852,0.0241246,0.0209378,-0.0276735,0.724342,0.0281554,0.0339087,1357,421,2.20028,3.50206
140,603,2.18884,-3.50177,-0.000745451,-0.00397269,0.0235151,0.0212114,-0.0259295,0.751142,0.0272622,0.0218821,1364,421,2.18883,3.50178
147,603,2.09595,-3.49026,-0.000906669,-0.00209457,0.0231126,0.0216196,-0.0246208,0.772552,0.0267156,0.0156243,1371,421,2.09598,3.49027
154,603,2.07007,-3.45883,-0.00111144,0.00150626,0.0223505,0.0225862,-0.0221914,0.814645,0.0258527,0.0235205,1378,421,2.07008,3.45883
161,603,2.15491,-3.43378,-0.00132577,0.0016654,0.0209417,0.0211649,-0.0208253,0.821046,0.0242433,0.0287391,1385,421,2.1549,3.43377
168,603,2.17786,-3.42175,-0.0014288,0.00272317,0.0194711,0.0202286,-0.0189343,0.838507,0.0226148,0.0259197,1392,421,2.17791,3.42176
175,603,2.22205,-3.39139,-0.00147252,0.00348815,0.0175098,0.0186924,-0.0166768,0.855757,0.0204315,0.0231703,1399,421,2.22209,3.39139
182,603,2.27014,-3.37555,-0.00181239,0.00444677,0.0147623,0.0164076,-0.0137732,0.889851,0.017447,0.0210878,1406,421,2.27014,3.37555
189,603,2.23755,-3.3298,-0.00210675,0.00456275,0.0122232,0.013898,-0.011442,0.918568,0.0146529,0.0161909,1413,421,2.23749,3.32982
196,603,2.20398,-3.29916,-0.00213245,0.0043808,0.00937734,0.0110509,-0.00880256,0.952526,0.0114869,0.0142979,1420,421,2.20392,3.29917
203,603,2.19775,-3.29279,-0.00139165,0.00382931,0.00613196,0.00788333,-0.00544566,0.986637,0.00773828,0.00900194,1427,421,2.19771,3.2928
210,603,2.18872,-3.29373,-0.00169982,0.00314959,0.00366037,0.0051155,-0.00366573,1.07793,0.00509282,0.00912121,1434,421,2.18866,3.29373
217,603,2.1687,-3.26083,-0.0026689,0.00251291,0.00215896,0.00329452,-0.00345052,1.22344,0.0038946,0.0122936,1441,421,2.16874,3.26084
224,603,2.17639,-3.22473,-0.00216872,0.00157557,0.000893185,0.00177772,-0.00237088,1.34822,0.00240334,0.0158584,1448,421,2.17645,3.22474
231,603,2.19165,-3.17923,-0.00158615,0.000908586,4.66386e-05,0.000909458,-0.00158702,1.55211,0.00145893,0.0138412,1455,421,2.1916,3.17924
238,603,2.18604,-3.15338,-0.000947951,0.000205936,-0.000849741,0.000656088,-0.0013981,-1.08363,0.0012115,0.00994757,1462,421,2.18601,3.15338
245,603,2.19824,-3.13785,-0.000227144,-0.000346623,-0.00119224,0.000906848,-0.00148061,-0.760365,0.00139161,0.01111,1469,421,2.1983,3.13784
252,603,2.20837,-3.1012,0.000275561,-0.000554991,-0.00133082,0.00125439,-0.00153382,-0.634163,0.00161247,0.0101564,1476,421,2.20833,3.1012
259,603,2.2135,-3.05652,0.000743705,-0.000498525,-0.00119119,0.00146599,-0.00122081,-0.545079,0.00155338,0.0099025,1483,421,2.21351,3.05652
266,603,2.20508,-3.01669,0.000942615,-4.15583e-05,-0.00101912,0.00158223,-0.000681173,-0.560479,0.00134085,0.0104857,1490,421,2.20505,3.0167
273,603,2.21094,-2.9841,0.0009732,0.000249119,-0.000900965,0.00158214,-0.000359825,-0.594354,0.00119293,0.0105298,1497,421,2.21097,2.98409
280,603,2.2262,-2.93634,0.00102938,0.000626817,-0.000810078,0.00166281,-6.61e-06,-0.663627,0.00111075,0.0128778,1504,421,2.22619,2.93634
287,603,2.22693,-2.88535,0.00116776,0.000896555,-0.000567518,0.00161565,0.000448662,-0.668129,0.000963036,0.0119709,1511,421,2.22698,2.88535
294,603,2.21655,-2.8591,0.00128618,0.00131037,-0.000377209,0.00167568,0.000920872,-0.801425,0.000969035,0.00957214,1518,421,2.21653,2.85911
301,603,2.21521,-2.81863,0.00150786,0.00184265,-0.00013246,0.00188872,0.0014618,-1.23608,0.00114371,0.0107833,1525,421,2.21515,2.81864
308,603,2.2345,-2.77264,0.00176003,0.0026652,8.52658e-05,0.00267316,0.00175207,1.47769,0.00156801,0.0157234,1532,421,2.23454,2.77263
315,603,2.22974,-2.71579,0.0021749,0.00322634,-0.000204267,0.00326463,0.00213661,-1.3855,0.00191459,0.0148705,1539,421,2.22971,2.71579
322,603,2.23352,-2.65079,0.00265188,0.00369245,-0.000709679,0.00405213,0.0022922,-1.1017,0.00234622,0.0141134,1546,421,2.23355,2.65078
329,603,2.21582,-2.59601,0.00292267,0.00410973,-0.00118229,0.0048391,0.00219329,-1.01803,0.00279793,0.0101872,1553,421,2.21585,2.596
336,603,2.20837,-2.54251,0.003347,0.00479956,-0.00178169,0.00599731,0.00214925,-0.978934,0.00350855,0.00826829,1560,421,2.20836,2.54252
343,603,2.22937,-2.5051,0.00423603,0.00642012,-0.0025976,0.0081459,0.00251026,-0.984385,0.00481704,0.00996028,1567,421,2.22936,2.5051
350,603,2.23145,-2.45377,0.00563018,0.00819863,-0.00383777,0.0109613,0.00286747,-0.946856,0.00656394,0.0115868,1574,421,2.23141,2.45376
357,603,2.21155,-2.39227,0.00769242,0.00936319,-0.00540239,0.0139944,0.00306121,-0.862107,0.00849508,0.0118048,1581,421,2.21156,2.39228
364,603,2.19873,-2.32285,0.0105468,0.0091198,-0.00798846,0.0178535,0.00181303,-0.740859,0.0113464,0.0132251,1588,421,2.19872,2.32286
371,603,2.20557,-2.26947,0.0142994,0.00824509,-0.0117248,0.0233815,-0.00083705,-0.659065,0.0158741,0.0184061,1595,421,2.20552,2.26946
378,603,2.20471,-2.19733,0.0184395,0.00634393,-0.0166764,0.0301308,-0.00534741,-0.611446,0.0220865,0.0291894,1602,421,2.20474,2.19732
385,603,2.11951,-1.78336,0.0233447,0.00387944,-0.0218705,0.0375503,-0.0103262,-0.576049,0.029093,0.0419543,1609,421,2.11948,1.78335
392,603,2.45813,-1.46381,0.0289097,0.000317783,-0.0280712,0.0461156,-0.0168881,-0.549878,0.0376573,0.0443803,1616,421,2.45814,1.46381
399,603,2.99841,-1.58493,0.0349724,-0.00445549,-0.0347921,0.0552476,-0.0247306,-0.52764,0.0472826,0.0455802,1623,421,2.99842,1.58492
406,603,3.64832,-1.70801,0.0412834,-0.0109476,-0.0426378,0.0651679,-0.0348321,-0.51062,0.0586139,0.0473066,1630,421,3.64833,1.70802
413,603,4.15906,-1.65021,0,0,0,0,0,0,0,-1,1637,421,4.15908,1.65021
420,603,6.48157,-2.25803,0,0,0,0,0,0,0,-1,1644,421,6.48162,2.25803
427,603,7.11548,-3.35352,0,0,0,0,0,0,0,-1,1651,421,7.11549,3.35351
434,603,7.32153,-4.50525,0,0,0,0,0,0,0,-1,1658,421,7.32149,4.50525
441,603,3.18213,-0.250946,0,0,0,0,0,0,0,-1,1665,421,3.18212,0.250944
448,603,2.95667,-0.066925,0,0,0,0,0,0,0,-1,1672,421,2.95662,0.0669226
455,603,0,0,0,0,0,0,0,0,0,-1,1679,421,0,0
462,603,0,0,0,0,0,0,0,0,0,-1,1686,421,0,0
469,603,0,0,0,0,0,0,0,0,0,-1,1693,421,0,0
476,603,0,0,0,0,0,0,0,0,0,-1,1700,421,0,0
483,603,0,0,0,0,0,0,0,0,0,-1,1707,421,0,0
490,603,0,0,0,0,0,0,0,0,0,-1,1714,421,0,0
497,603,0,0,0,0,0,0,0,0,0,-1,1721,421,0,0
504,603,0,0,0,0,0,0,0,0,0,-1,1728,421,0,0
511,603,0,0,0,0,0,0,0,0,0,-1,1735,421,0,0
518,603,0,0,0,0,0,0,0,0,0,-1,1742,421,0,0
525,603,0,0,0,0,0,0,0,0,0,-1,1749,421,0,0
532,603,0,0,0,0,0,0,0,0,0,-1,1756,421,0,0
539,603,0,0,0,0,0,0,0,0,0,-1,1763,421,0,0
546,603,0,0,0,0,0,0,0,0,0,-1,1770,421,0,0
553,603,0,0,0,0,0,0,0,0,0,-1,1777,421,0,0
560,603,0,0,0,0,0,0,0,0,0,-1,1784,421,0,0
567,603,0,0,0,0,0,0,0,0,0,-1,1791,421,0,0
574,603,0,0,0,0,0,0,0,0,0,-1,1798,421,0,0
581,603,0,0,0,0,0,0,0,0,0,-1,1805,421,0,0
588,603,0,0,0,0,0,0,0,0,0,-1,1812,421,0,0
595,603,0,0,0,0,0,0,0,0,0,-1,1819,421,0,0
602,603,0,0,0,0,0,0,0,0,0,-1,1826,421,0,0
609,603,0,0,0,0,0,0,0,0,0,-1,1833,421,0,0
616,603,0,0,0,0,0,0,0,0,0,-1,1840,421,0,0
623,603,0,0,0,0,0,0,0,0,0,-1,1847,421,0,0
630,603,0,0,0,0,0,0,0,0,0,-1,1854,421,0,0
637,603,0,0,0,0,0,0,0,0,0,-1,1861,421,0,0
644,603,0,0,0,0,0,0,0,0,0,-1,1868,421,0,0
651,603,0,0,0,0,0,0,0,0,0,-1,1875,421,0,0
658,603,0,0,0,0,0,0,0,0,0,-1,1882,421,0,0
665,603,0,0,0,0,0,0,0,0,0,-1,1889,421,0,0
672,603,0,0,0,0,0,0,0,0,0,-1,1896,421,0,0
679,603,0,0,0,0,0,0,0,0,0,-1,1903,421,0,0
686,603,0,0,0,0,0,0,0,0,0,-1,1910,421,0,0
693,603,0,0,0,0,0,0,0,0,0,-1,1917,421,0,0
700,603,0,0,0,0,0,0,0,0,0,-1,1924,421,0,0
707,603,0,0,0,0,0,0,0,0,0,-1,1931,421,0,0
714,603,0,0,0,0,0,0,0,0,0,-1,1938,421,0,0
721,603,0,0,0,0,0,0,0,0,0,-1,1945,421,0,0
728,603,0,0,0,0,0,0,0,0,0,-1,1952,421,0,0
735,603,0,0,0,0,0,0,0,0,0,-1,1959,421,0,0
742,603,0,0,0,0,0,0,0,0,0,-1,1966,421,0,0
749,603,0,0,0,0,0,0,0,0,0,-1,1973,421,0,0
756,603,0,0,0,0,0,0,0,0,0,-1,1980,421,0,0
763,603,0,0,0,0,0,0,0,0,0,-1,1987,421,0,0
770,603,0,0,0,0,0,0,0,0,0,-1,1994,421,0,0
777,603,0,0,0,0,0,0,0,0,0,-1,2001,421,0,0
784,603,0,0,0,0,0,0,0,0,0,-1,2008,421,0,0
791,603,0,0,0,0,0,0,0,0,0,-1,2015,421,0,0
798,603,0,0,0,0,0,0,0,0,0,-1,2022,421,0,0
805,603,0,0,0,0,0,0,0,0,0,-1,2029,421,0,0
812,603,0,0,0,0,0,0,0,0,0,-1,2036,421,0,0
-700,596,0,0,0,0,0,0,0,0,0,-1,524,428,0,0
-693,596,0,0,0,0,0,0,0,0,0,-1,531,428,0,0
-686,596,0,0,0,0,0,0,0,0,0,-1,538,428,0,0
-679,596,0,0,0,0,0,0,0,0,0,-1,545,428,0,0
-672,596,0,0,0,0,0,0,0,0,0,-1,552,428,0,0
-665,596,0,0,0,0,0,0,0,0,0,-1,559,428,0,0
-658,596,0,0,0,0,0,0,0,0,0,-1,566,428,0,0
-651,596,0,0,0,0,0,0,0,0,0,-1,573,428,0,0
-644,596,0,0,0,0,0,0,0,0,0,-1,580,428,0,0
-637,596,0,0,0,0,0,0,0,0,0,-1,587,428,0,0
-630,596,0,0,0,0,0,0,0,0,0,-1,594,428,0,0
-623,596,0,0,0,0,0,0,0,0,0,-1,601,428,0,0
-616,596,0,0,0,0,0,0,0,0,0,-1,608,428,0,0
-609,596,0,0,0,0,0,0,0,0,0,-1,615,428,0,0
-602,596,0,0,0,0,0,0,0,0,0,-1,622,428,0,0
-595,596,0,0,0,0,0,0,0,0,0,-1,629,428,0,0
-588,596,0,0,0,0,0,0,0,0,0,-1,636,428,0,0
-581,596,0,0,0,0,0,0,0,0,0,-1,643,428,0,0
-574,596,0,0,0,0,0,0,0,0,0,-1,650,428,0,0
-567,596,0,0,0,0,0,0,0,0,0,-1,657,428,0,0
-560,596,0,0,0,0,0,0,0,0,0,-1,664,428,0,0
-553,596,0,0,0,0,0,0,0,0,0,-1,671,428,0,0
-546,596,0,0,0,0,0,0,0,0,0,-1,678,428,0,0
-539,596,0,0,0,0,0,0,0,0,0,-1,685,428,0,0
-532,596,0,0,0,0,0,0,0,0,0,-1,692,428,0,0
-525,596,0,0,0,0,0,0,0,0,0,-1,699,428,0,0
-518,596,0,0,0,0,0,0,0,0,0,-1,706,428,0,0
-511,596,0,0,0,0,0,0,0,0,0,-1,713,428,0,0
-504,596,0,0,0,0,0,0,0,0,0,-1,720,428,0,0
-497,596,0,0,0,0,0,0,0,0,0,-1,727,428,0,0
-490,596,0,0,0,0,0,0,0,0,0,-1,734,428,0,0
-483,596,0,0,0,0,0,0,0,0,0,-1,741,428,0,0
-476,596,0,0,0,0,0,0,0,0,0,-1,748,428,0,0
-469,596,0,0,0,0,0,0,0,0,0,-1,755,428,0,0
-462,596,0,0,0,0,0,0,0,0,0,-1,762,428,0,0
-455,596,0,0,0,0,0,0,0,0,0,-1,769,428,0,0
-448,596,0,0,0,0,0,0,0,0,0,-1,776,428,0,0
-441,596,0,0,0,0,0,0,0,0,0,-1,783,428,0,0
-434,596,0,0,0,0,0,0,0,0,0,-1,790,428,0,0
-427,596,0,0,0,0,0,0,0,0,0,-1,797,428,0,0
-420,596,0,0,0,0,0,0,0,0,0,-1,804,428,0,0
-413,596,0,0,0,0,0,0,0,0,0,-1,811,428,0,0
-406,596,0,0,0,0,0,0,0,0,0,-1,818,428,0,0
-399,596,0,0,0,0,0,0,0,0,0,-1,825,428,0,0
-392,596,0,0,0,0,0,0,0,0,0,-1,832,428,0,0
-385,596,0,0,0,0,0,0,0,0,0,-1,839,428,0,0
-378,596,0,0,0,0,0,0,0,0,0,-1,846,428,0,0
-371,596,0,0,0,0,0,0,0,0,0,-1,853,428,0,0
-364,596,0,0,0,0,0,0,0,0,0,-1,860,428,0,0
-357,596,0,0,0,0,0,0,0,0,0,-1,867,428,0,0
-350,596,0,0,0,0,0,0,0,0,0,-1,874,428,0,0
-343,596,0,0,0,0,0,0,0,0,0,-1,881,428,0,0
-336,596,5.92877,-0.101807,0,0,0,0,0,0,0,-1,888,428,5.92879,0.101817
-329,596,5.60712,0.493561,0,0,0,0,0,0,0,-1,895,428,5.60711,-0.493573
-322,596,4.96301,0.11319,0,0,0,0,0,0,0,-1,902,428,4.96301,-0.113194
-315,596,4.3736,-0.324432,-0.0809965,0.0474107,0.00526284,0.0476261,-0.0812119,1.5299,0.0752224,0.0476644,909,428,4.3736,0.324443
-308,596,3.57361,-1.11951,-0.0713572,0.0479781,0.00632879,0.0483128,-0.0716919,1.51796,0.0697216,0.045191,916,428,3.57358,1.1195
-301,596,2.56348,-0.52655,0,0,0,0,0,0,0,-1,923,428,2.5635,0.526562
-294,596,2.70532,-0.680389,0,0,0,0,0,0,0,-1,930,428,2.70532,0.680386
-287,596,2.53333,-1.03036,0,0,0,0,0,0,0,-1,937,428,2.53335,1.03038
-280,596,4.64081,-0.0710754,0,0,0,0,0,0,0,-1,944,428,4.6408,0.0710603
-273,596,1.35339,-2.83499,-0.0365715,0.0393728,0.00942297,0.0405245,-0.0377232,1.44918,0.045186,0.0407955,951,428,1.35337,2.83498
-266,596,2.01831,-2.12753,-0.0307231,0.0345466,0.00834395,0.0355964,-0.0317728,1.44564,0.0389166,0.0412351,958,428,2.01833,2.12753
-259,596,1.97211,-2.26675,-0.0248697,0.0294421,0.00648965,0.0302068,-0.0256343,1.45351,0.0322759,0.0333163,965,428,1.97212,2.26675
-252,596,1.92267,-2.37607,-0.017218,0.0248533,0.00433088,0.0252945,-0.0176592,1.46927,0.0249296,0.0157754,972,428,1.92266,2.37606
-245,596,1.88104,-2.44199,-0.0125794,0.0192017,0.00200662,0.0193279,-0.0127056,1.50799,0.0186258,0.0118348,979,428,1.88107,2.44199
-238,596,1.87421,-2.48599,-0.00965671,0.0143944,2.94907e-05,0.0143944,-0.00965675,1.56957,0.0139755,0.0109471,986,428,1.8742,2.48599
-231,596,1.86603,-2.56348,-0.00610841,0.0105028,-0.00137637,0.0106161,-0.00622168,-1.48869,0.00983104,0.0125215,993,428,1.86604,2.56347
-224,596,1.86371,-2.62775,-0.00327245,0.00770439,-0.00214371,0.00810819,-0.00367625,-1.38461,0.00696228,0.0128584,1000,428,1.86373,2.62776
-217,596,1.86401,-2.67114,-0.000539986,0.00360042,-0.00358706,0.00567181,-0.00261137,-1.04712,0.00488989,0.0135361,1007,428,1.86399,2.67113
-210,596,1.86743,-2.68936,0.00145512,0.00242165,-0.00337687,0.00534966,-0.00147289,-0.856471,0.00414556,0.0105058,1014,428,1.86744,2.68935
-203,596,1.85773,-2.71695,0.00233245,0.00162058,-0.00289257,0.0048909,-0.000937876,-0.72418,0.00361402,0.0123983,1021,428,1.85774,2.71696
-196,596,1.87073,-2.80276,0.00246993,0.000886928,-0.00249077,0.00429194,-0.000935079,-0.631557,0.00321858,0.0134104,1028,428,1.87079,2.80277
-189,596,1.854,-2.86169,0.00224646,0.000207489,-0.00206605,0.00353087,-0.00107692,-0.556202,0.00278322,0.0108272,1035,428,1.85401,2.8617
-182,596,1.86157,-2.89014,0.00188656,-0.000523716,-0.00158024,0.00266876,-0.00130592,-0.459631,0.00233931,0.0108046,1042,428,1.86157,2.89013
-175,596,1.87378,-2.92075,0.00136371,-0.00105585,-0.00117587,0.00184101,-0.00153316,-0.385593,0.00195078,0.0134132,1049,428,1.87374,2.92075
-168,596,1.85291,-2.95462,0.000771929,-0.00147878,-0.000808904,0.00103248,-0.00173933,-0.311616,0.00161756,0.0160323,1056,428,1.85286,2.95461
-161,596,1.85535,-3.00229,0.000464218,-0.00168106,-0.000613064,0.000627056,-0.00184389,-0.259618,0.00148314,0.0143174,1063,428,1.85534,3.00228
-154,596,1.84204,-3.06555,0.000199147,-0.001647,-0.000378043,0.000273561,-0.00172142,-0.194355,0.00124883,0.0118967,1070,428,1.84198,3.06557
-147,596,1.8512,-3.07471,-0.0002888,-0.00148308,-8.09907e-05,-0.000283332,-0.00148855,-0.0674041,0.0009127,0.0122368,1077,428,1.85121,3.0747
-140,596,1.87561,-3.09219,-0.00035016,-0.00134232,-0.000201528,-0.000310787,-0.00138169,-0.192938,0.000836991,0.0124454,1084,428,1.87555,3.0922
-133,596,1.88171,-3.14581,-5.40954e-05,-0.00144765,-0.000326458,1.85902e-05,-0.00152034,-0.219076,0.00101981,0.012984,1091,428,1.88168,3.1458
-126,596,1.88086,-3.16058,0.000176267,-0.00179717,-0.000439276,0.00026963,-0.00189053,-0.209423,0.00135918,0.0107549,1098,428,1.88081,3.16058
-119,596,1.88818,-3.1926,0.000442542,-0.00202902,-0.000552254,0.000560327,-0.0021468,-0.210131,0.00165,0.013799,1105,428,1.88816,3.19258
-112,596,1.89282,-3.24518,0.000475776,-0.00232435,-0.000527608,0.00057189,-0.00242047,-0.180194,0.00183424,0.0150087,1112,428,1.89284,3.24517
-105,596,1.9021,-3.28531,0.000155284,-0.00251454,-0.000269499,0.000182216,-0.00254147,-0.0996037,0.00175821,0.0152739,1119,428,1.90215,3.2853
-98,596,1.89832,-3.29239,-0.000110167,-0.00283244,-5.73297e-05,-0.00010896,-0.00283365,-0.0210471,0.00185384,0.0102861,1126,428,1.89832,3.29239
-91,596,1.92749,-3.31442,-0.000622017,-0.00307718,0.00027397,-0.000591816,-0.00310738,0.10979,0.0019052,0.00946808,1133,428,1.92745,3.31443
-84,596,1.94714,-3.37805,-0.00152176,-0.0032292,0.000676196,-0.00128641,-0.00346455,0.334939,0.00202222,0.0138859,1140,428,1.94718,3.37804
-77,596,1.95129,-3.41678,-0.0025906,-0.00326186,0.0012204,-0.00166051,-0.00419194,0.651207,0.00243757,0.0146625,1147,428,1.9513,3.41677
-70,596,1.91931,-3.48495,-0.00375314,-0.0033352,0.00232399,-0.00121081,-0.00587753,0.830237,0.0035836,0.0196886,1154,428,1.91932,3.48496
-63,596,1.69849,-3.54269,-0.00484741,-0.0030642,0.00318965,-0.000643878,-0.00726773,0.921685,0.00464542,0.0361658,1161,428,1.69852,3.54269
-56,596,1.16895,-3.72104,-0.00512554,-0.00260532,0.0041663,0.000487259,-0.00821813,0.932251,0.00564818,0.0459385,1168,428,1.16893,3.72104
-49,596,1.80334,-3.89813,0,0,0,0,0,0,0,-1,1175,428,1.80338,3.89814
-42,596,1.76782,-3.65619,0,0,0,0,0,0,0,-1,1182,428,1.76786,3.6562
-35,596,1.77527,-3.38113,0,0,0,0,0,0,0,-1,1189,428,1.7753,3.38113
-28,596,1.75964,-3.45447,0,0,0,0,0,0,0,-1,1196,428,1.75963,3.45446
-21,596,1.75806,-3.49576,-0.0289037,-0.0034154,0.00320262,-0.00301915,-0.0292999,1.44769,0.0186087,0.0424288,1203,428,1.75809,3.49575
-14,596,1.69897,-3.54285,-0.0320685,-0.00475857,0.00369614,-0.00426717,-0.0325599,1.43862,0.0204332,0.0434889,1210,428,1.69894,3.54286
-7,596,1.6842,-3.65842,-0.0338718,-0.00565069,0.00412567,-0.00505992,-0.0344625,1.42857,0.0214879,0.0468151,1217,428,1.68415,3.65842
0,596,1.97363,-3.67554,-0.0319288,-0.00606928,0.00350531,-0.00560255,-0.0323955,1.43843,0.0199929,0.0483698,1224,428,1.97363,3.67555
7,596,2.26819,-3.55841,-0.0301583,-0.00561648,0.00477877,-0.00471879,-0.031056,1.38511,0.0193241,0.0436321,1231,428,2.26818,3.55843
14,596,2.37805,-3.3743,-0.026385,-0.00455462,0.00599066,-0.00301873,-0.0279209,1.31982,0.0176937,0.0410452,1238,428,2.37805,3.3743
21,596,2.14246,-3.45432,-0.0216208,-0.00259305,0.00784202,0.000222351,-0.0244362,1.22611,0.0163654,0.0431353,1245,428,2.14249,3.4543
28,596,1.77979,-3.21475,-0.0154882,-0.000525795,0.010164,0.00461346,-0.0206275,1.10265,0.0155198,0.0431775,1252,428,1.77981,3.21474
35,596,1.64331,-3.10217,-0.00875095,0.00119047,0.0128563,0.0100036,-0.0175641,0.969864,0.0161145,0.0431458,1259,428,1.64327,3.10218
42,596,1.60388,-3.20569,-0.00147416,0.00340959,0.0157738,0.0169294,-0.014994,0.862192,0.0184423,0.0449219,1266,428,1.6039,3.20568
49,596,1.92859,-3.27408,0.00515085,0.0029144,0.0186682,0.0227343,-0.014669,0.755484,0.0217615,0.0409514,1273,428,1.92855,3.27408
56,596,2.00232,-3.47656,0.0112892,0.00401389,0.0218329,0.0297854,-0.0144823,0.70285,0.0260621,0.0404,1280,428,2.00233,3.47655
63,596,1.80603,-4.07925,0,0,0,0,0,0,0,-1,1287,428,1.80609,4.07924
70,596,1.61487,-3.92773,0.0189019,0.00356071,0.0270855,0.0393821,-0.0169194,0.647412,0.0333569,0.0439441,1294,428,1.61485,3.92772
77,596,1.62744,-3.56409,0.0203916,0.00182453,0.0295094,0.0420432,-0.0198272,0.633002,0.0364804,0.0432454,1301,428,1.62739,3.56409
84,596,1.27283,-3.63635,0.020168,0.000397152,0.0311497,0.0429632,-0.0223981,0.631749,0.0383539,0.0453334,1308,428,1.27287,3.63634
91,596,1.77124,-3.78091,0,0,0,0,0,0,0,-1,1315,428,1.77124,3.78092
98,596,1.40027,-3.37711,0,0,0,0,0,0,0,-1,1322,428,1.40029,3.37711
105,596,2.13647,-3.51346,0,0,0,0,0,0,0,-1,1329,428,2.13648,3.51347
112,596,2.20166,-3.0571,0.00420024,-0.00494162,0.0352246,0.0351493,-0.0358907,0.720876,0.0410157,0.0411881,1336,428,2.20165,3.05711
119,596,2.07471,-3.42938,0.000607335,-0.00516592,0.0352726,0.0331112,-0.0376698,0.74457,0.0408936,0.0455022,1343,428,2.07469,3.42939
126,596,1.86877,-3.50604,-0.000728669,-0.00518753,0.0345221,0.0316359,-0.0375521,0.753153,0.0399943,0.0464251,1350,428,1.86877,3.50603
133,596,2.21655,-3.51334,-0.00158224,-0.00364703,0.034142,0.031543,-0.0367723,0.770284,0.0394803,0.047788,1357,428,2.21654,3.51335
140,596,2.2522,-3.4444,-0.00232706,-0.00130223,0.0336443,0.0318336,-0.0354629,0.793013,0.0388725,0.0443955,1364,428,2.25216,3.44439
147,596,1.85986,-3.33612,-0.00277409,0.000561055,0.0333447,0.0322798,-0.0344929,0.810382,0.0385583,0.0378414,1371,428,1.85983,3.33613
154,596,1.54919,-3.29242,-0.00316629,0.00430185,0.0326261,0.0334069,-0.0322713,0.842375,0.0379212,0.0410025,1378,428,1.54916,3.29241
161,596,2.21631,-3.40582,-0.003552,0.00404148,0.0310728,0.0315487,-0.0310592,0.846191,0.036147,0.0457209,1385,428,2.21637,3.40583
168,596,2.23743,-3.38879,0,0,0,0,0,0,0,-1,1392,428,2.23739,3.3888
175,596,2.30701,-3.28214,0,0,0,0,0,0,0,-1,1399,428,2.30703,3.28215
182,596,2.33911,-3.3204,0,0,0,0,0,0,0,-1,1406,428,2.33914,3.32039
189,596,2.81653,-3.47879,-0.00375196,0.00711232,0.0200534,0.0224563,-0.0190959,0.917666,0.0240163,0.0477243,1413,428,2.81653,3.47879
196,596,2.4281,-3.32278,-0.00356148,0.00653439,0.0159307,0.0181978,-0.0152249,0.938828,0.019322,0.0345736,1420,428,2.42806,3.32279
203,596,2.26306,-3.29541,-0.00232728,0.00535017,0.0111112,0.0132671,-0.0102442,0.95172,0.0136116,0.0165064,1427,428,2.26301,3.2954
210,596,2.20642,-3.31094,-0.0024295,0.0041638,0.00712599,0.00871875,-0.00698445,1.00205,0.00908466,0.0115424,1434,428,2.20647,3.31094
217,596,2.21484,-3.27286,-0.00378955,0.00309338,0.00436059,0.00520695,-0.00590312,1.11946,0.0064186,0.0100669,1441,428,2.2149,3.27285
224,596,2.22546,-3.23407,-0.00350634,0.00128867,0.00209229,0.00207326,-0.00429093,1.21203,0.00374799,0.0116057,1448,428,2.22547,3.23406
231,596,2.22437,-3.17981,-0.00301326,-0.00013668,0.000426108,-7.48883e-05,-0.00307505,1.42679,0.00202553,0.0124735,1455,428,2.22442,3.17981
238,596,2.22668,-3.15317,-0.00244525,-0.00155635,-0.00125337,-0.000670965,-0.00333064,-0.955783,0.002034,0.0147902,1462,428,2.22665,3.15316
245,596,2.25,-3.13831,-0.00169448,-0.00263922,-0.00207232,-4.13749e-05,-0.00429233,-0.673342,0.00284786,0.0130649,1469,428,2.24998,3.13831
252,596,2.26855,-3.1037,-0.00109693,-0.00320643,-0.00249145,0.000553834,-0.00485719,-0.585162,0.00343764,0.00998752,1476,428,2.2685,3.10371
259,596,2.26611,-3.06097,-0.000452385,-0.00330504,-0.0024168,0.000927586,-0.00468501,-0.518817,0.00347406,0.00820398,1483,428,2.26609,3.06096
266,596,2.24487,-3.01898,-0.000119915,-0.00278675,-0.00216089,0.00108585,-0.00399252,-0.508961,0.00308794,0.00872086,1490,428,2.2449,3.01897
273,596,2.25562,-2.99219,1.78734e-05,-0.00243473,-0.0019734,0.00111496,-0.00353181,-0.50739,0.00280116,0.0122072,1497,428,2.25558,2.9922
280,596,2.27405,-2.95294,0.000151259,-0.00195971,-0.00181737,0.00119742,-0.00300586,-0.522317,0.00250052,0.0138899,1504,428,2.27406,2.95294
287,596,2.27563,-2.90634,0.000335021,-0.00153323,-0.0015146,0.00118039,-0.0023786,-0.509077,0.00209324,0.0118863,1511,428,2.27569,2.90636
294,596,2.25,-2.86261,0.000532359,-0.000886836,-0.00119124,0.00120933,-0.00156381,-0.51678,0.00160543,0.00898657,1518,428,2.24999,2.86261
301,596,2.24768,-2.81146,0.000795782,-0.000140837,-0.000847616,0.00129586,-0.000640911,-0.533017,0.00113931,0.00986322,1525,428,2.24765,2.81145
308,596,2.28149,-2.78052,0.00105292,0.00080045,-0.000495526,0.00143803,0.000415331,-0.660678,0.000854578,0.0153222,1532,428,2.28153,2.78051
315,596,2.26831,-2.72198,0.00132489,0.00151596,-0.000442267,0.0018729,0.00096796,-0.891772,0.00108152,0.0151569,1539,428,2.26836,2.72199
322,596,2.26501,-2.64996,0.00164161,0.00206823,-0.000573677,0.00246697,0.00124287,-0.963392,0.00142432,0.0130201,1546,428,2.26503,2.64995
329,596,2.25537,-2.60168,0.00187605,0.00251317,-0.000733307,0.00299412,0.0013951,-0.990309,0.00172999,0.0101907,1553,428,2.2554,2.60167
336,596,2.24768,-2.56003,0.00218856,0.00317425,-0.00101394,0.00380878,0.00155403,-1.01162,0.00221137,0.00892164,1560,428,2.24767,2.56003
343,596,2.26819,-2.52734,0.00283321,0.00452908,-0.00151972,0.00542141,0.00194088,-1.03986,0.00317185,0.0119328,1567,428,2.26814,2.52736
350,596,2.28223,-2.46399,0.00392162,0.00595905,-0.00234929,0.00750099,0.00237968,-0.989974,0.00442607,0.0121276,1574,428,2.28225,2.46399
357,596,2.2688,-2.39474,0.00557311,0.00684446,-0.00342197,0.00968929,0.00272827,-0.877233,0.0057693,0.00915761,1581,428,2.26879,2.39476
364,596,2.25073,-2.33188,0.0078122,0.00671792,-0.00520936,0.0125031,0.00202705,-0.733075,0.00774859,0.00868266,1588,428,2.25073,2.33189
371,596,2.23267,-2.27869,0.0107506,0.00620248,-0.00780802,0.016609,0.000344119,-0.643694,0.0109598,0.00890511,1595,428,2.23262,2.2787
378,596,2.2605,-2.20502,0.0139463,0.00498386,-0.0113037,0.0216247,-0.0026945,-0.596682,0.0153934,0.0128916,1602,428,2.26052,2.20501
385,596,2.28638,-2.11398,0.0176706,0.00344948,-0.0149042,0.0270735,-0.00595345,-0.562825,0.0203262,0.0225684,1609,428,2.28634,2.11398
392,596,2.30505,-2.0134,0.0218291,0.00118905,-0.0191727,0.0332828,-0.0102646,-0.538502,0.0262868,0.0336905,1616,428,2.3051,2.01339
399,596,3.31226,-2.00693,0,0,0,0,0,0,0,-1,1623,428,3.31226,2.00693
406,596,4.09131,-1.90591,0,0,0,0,0,0,0,-1,1630,428,4.09126,1.90592
413,596,2.87634,-2.38672,0,0,0,0,0,0,0,-1,1637,428,2.87637,2.38673
420,596,3.25183,-1.66821,0,0,0,0,0,0,0,-1,1644,428,3.25188,1.6682
427,596,9.21277,-2.07031,0,0,0,0,0,0,0,-1,1651,428,9.2128,2.07032
434,596,3.80896,-0.253998,0,0,0,0,0,0,0,-1,1658,428,3.80902,0.254004
441,596,3.86401,-0.131622,0,0,0,0,0,0,0,-1,1665,428,3.86406,0.131613
448,596,1.0769,0.0083313,0,0,0,0,0,0,0,-1,1672,428,1.07684,-0.00832231
455,596,1.54016,-0.974152,0,0,0,0,0,0,0,-1,1679,428,1.5402,0.974158
462,596,0,0,0,0,0,0,0,0,0,-1,1686,428,0,0
469,596,0,0,0,0,0,0,0,0,0,-1,1693,428,0,0
476,596,0,0,0,0,0,0,0,0,0,-1,1700,428,0,0
483,596,0,0,0,0,0,0,0,0,0,-1,1707,428,0,0
490,596,0,0,0,0,0,0,0,0,0,-1,1714,428,0,0
497,596,0,0,0,0,0,0,0,0,0,-1,1721,428,0,0
504,596,0,0,0,0,0,0,0,0,0,-1,1728,428,0,0
511,596,0,0,0,0,0,0,0,0,0,-1,1735,428,0,0
518,596,0,0,0,0,0,0,0,0,0,-1,1742,428,0,0
525,596,0,0,0,0,0,0,0,0,0,-1,1749,428,0,0
532,596,0,0,0,0,0,0,0,0,0,-1,1756,428,0,0
539,596,0,0,0,0,0,0,0,0,0,-1,1763,428,0,0
546,596,0,0,0,0,0,0,0,0,0,-1,1770,428,0,0
553,596,0,0,0,0,0,0,0,0,0,-1,1777,428,0,0
560,596,0,0,0,0,0,0,0,0,0,-1,1784,428,0,0
567,596,0,0,0,0,0,0,0,0,0,-1,1791,428,0,0
574,596,0,0,0,0,0,0,0,0,0,-1,1798,428,0,0
581,596,0,0,0,0,0,0,0,0,0,-1,1805,428,0,0
588,596,0,0,0,0,0,0,0,0,0,-1,1812,428,0,0
595,596,0,0,0,0,0,0,0,0,0,-1,1819,428,0,0
602,596,0,0,0,0,0,0,0,0,0,-1,1826,428,0,0
609,596,0,0,0,0,0,0,0,0,0,-1,1833,428,0,0
616,596,0,0,0,0,0,0,0,0,0,-1,1840,428,0,0
623,596,0,0,0,0,0,0,0,0,0,-1,1847,428,0,0
630,596,0,0,0,0,0,0,0,0,0,-1,1854,428,0,0
637,596,0,0,0,0,0,0,0,0,0,-1,1861,428,0,0
644,596,0,0,0,0,0,0,0,0,0,-1,1868,428,0,0
651,596,0,0,0,0,0,0,0,0,0,-1,1875,428,0,0
658,596,0,0,0,0,0,0,0,0,0,-1,1882,428,0,0
665,596,0,0,0,0,0,0,0,0,0,-1,1889,428,0,0
672,596,0,0,0,0,0,0,0,0,0,-1,1896,428,0,0
679,596,0,0,0,0,0,0,0,0,0,-1,1903,428,0,0
686,596,0,0,0,0,0,0,0,0,0,-1,1910,428,0,0
693,596,0,0,0,0,0,0,0,0,0,-1,1917,428,0,0
700,596,0,0,0,0,0,0,0,0,0,-1,1924,428,0,0
707,596,0,0,0,0,0,0,0,0,0,-1,1931,428,0,0
714,596,0,0,0,0,0,0,0,0,0,-1,1938,428,0,0
721,596,0,0,0,0,0,0,0,0,0,-1,1945,428,0,0
728,596,0,0,0,0,0,0,0,0,0,-1,1952,428,0,0
735,596,0,0,0,0,0,0,0,0,0,-1,1959,428,0,0
742,596,0,0,0,0,0,0,0,0,0,-1,1966,428,0,0
749,596,0,0,0,0,0,0,0,0,0,-1,1973,428,0,0
756,596,0,0,0,0,0,0,0,0,0,-1,1980,428,0,0
763,596,0,0,0,0,0,0,0,0,0,-1,1987,428,0,0
770,596,0,0,0,0,0,0,0,0,0,-1,1994,428,0,0
777,596,0,0,0,0,0,0,0,0,0,-1,2001,428,0,0
784,596,0,0,0,0,0,0,0,0,0,-1,2008,428,0,0
791,596,0,0,0,0,0,0,0,0,0,-1,2015,428,0,0
798,596,0,0,0,0,0,0,0,0,0,-1,2022,428,0,0
805,596,0,0,0,0,0,0,0,0,0,-1,2029,428,0,0
812,596,0,0,0,0,0,0,0,0,0,-1,2036,428,0,0
-700,589,0,0,0,0,0,0,0,0,0,-1,524,435,0,0
-693,589,0,0,0,0,0,0,0,0,0,-1,531,435,0,0
-686,589,0,0,0,0,0,0,0,0,0,-1,538,435,0,0
-679,589,0,0,0,0,0,0,0,0,0,-1,545,435,0,0
-672,589,0,0,0,0,0,0,0,0,0,-1,552,435,0,0
-665,589,0,0,0,0,0,0,0,0,0,-1,559,435,0,0
-658,589,0,0,0,0,0,0,0,0,0,-1,566,435,0,0
-651,589,0,0,0,0,0,0,0,0,0,-1,573,435,0,0
-644,589,0,0,0,0,0,0,0,0,0,-1,580,435,0,0
-637,589,0,0,0,0,0,0,0,0,0,-1,587,435,0,0
-630,589,0,0,0,0,0,0,0,0,0,-1,594,435,0,0
-623,589,0,0,0,0,0,0,0,0,0,-1,601,435,0,0
-616,589,0,0,0,0,0,0,0,0,0,-1,608,435,0,0
-609,589,0,0,0,0,0,0,0,0,0,-1,615,435,0,0
-602,589,0,0,0,0,0,0,0,0,0,-1,622,435,0,0
-595,589,0,0,0,0,0,0,0,0,0,-1,629,435,0,0
-588,589,0,0,0,0,0,0,0,0,0,-1,636,435,0,0
-581,589,0,0,0,0,0,0,0,0,0,-1,643,435,0,0
-574,589,0,0,0,0,0,0,0,0,0,-1,650,435,0,0
-567,589,0,0,0,0,0,0,0,0,0,-1,657,435,0,0
-560,589,0,0,0,0,0,0,0,0,0,-1,664,435,0,0
-553,589,0,0,0,0,0,0,0,0,0,-1,671,435,0,0
-546,589,0,0,0,0,0,0,0,0,0,-1,678,435,0,0
-539,589,0,0,0,0,0,0,0,0,0,-1,685,435,0,0
-532,589,0,0,0,0,0,0,0,0,0,-1,692,435,0,0
-525,589,0,0,0,0,0,0,0,0,0,-1,699,435,0,0
-518,589,0,0,0,0,0,0,0,0,0,-1,706,435,0,0
-511,589,0,0,0,0,0,0,0,0,0,-1,713,435,0,0
-504,589,0,0,0,0,0,0,0,0,0,-1,720,435,0,0
-497,589,0,0,0,0,0,0,0,0,0,-1,727,435,0,0
-490,589,0,0,0,0,0,0,0,0,0,-1,734,435,0,0
-483,589,0,0,0,0,0,0,0,0,0,-1,741,435,0,0
-476,589,0,0,0,0,0,0,0,0,0,-1,748,435,0,0
-469,589,0,0,0,0,0,0,0,0,0,-1,755,435,0,0
-462,589,0,0,0,0,0,0,0,0,0,-1,762,435,0,0
-455,589,0,0,0,0,0,0,0,0,0,-1,769,435,0,0
-448,589,0,0,0,0,0,0,0,0,0,-1,776,435,0,0
-441,589,0,0,0,0,0,0,0,0,0,-1,783,435,0,0
-434,589,0,0,0,0,0,0,0,0,0,-1,790,435,0,0
-427,589,0,0,0,0,0,0,0,0,0,-1,797,435,0,0
-420,589,0,0,0,0,0,0,0,0,0,-1,804,435,0,0
-413,589,0,0,0,0,0,0,0,0,0,-1,811,435,0,0
-406,589,0,0,0,0,0,0,0,0,0,-1,818,435,0,0
-399,589,0,0,0,0,0,0,0,0,0,-1,825,435,0,0
-392,589,0,0,0,0,0,0,0,0,0,-1,832,435,0,0
-385,589,0,0,0,0,0,0,0,0,0,-1,839,435,0,0
-378,589,0,0,0,0,0,0,0,0,0,-1,846,435,0,0
-371,589,0,0,0,0,0,0,0,0,0,-1,853,435,0,0
-364,589,0,0,0,0,0,0,0,0,0,-1,860,435,0,0
-357,589,0,0,0,0,0,0,0,0,0,-1,867,435,0,0
-350,589,7.8819,-0.982025,0,0,0,0,0,0,0,-1,874,435,7.88192,0.982018
-343,589,6.81946,-0.575134,-0.127355,0.0541752,0.0118225,0.054942,-0.128122,1.50603,0.10847,0.0443596,881,435,6.81948,0.575119
-336,589,5.81311,0.0271606,0,0,0,0,0,0,0,-1,888,435,5.81312,-0.0271474
-329,589,5.14441,0.238647,0,0,0,0,0,0,0,-1,895,435,5.14444,-0.238637
-322,589,4.38171,-0.304688,-0.0748932,0.0429108,0.00625234,0.0432417,-0.0752241,1.51792,0.0692221,0.0464948,902,435,4.38169,0.304693
-315,589,3.78052,-0.751984,-0.0640186,0.0414031,0.00618636,0.0417649,-0.0643803,1.51238,0.0617449,0.046055,909,435,3.78052,0.751981
-308,589,3.17438,-1.26245,-0.0550413,0.0406512,0.00660683,0.0411052,-0.0554953,1.50219,0.0559782,0.0463602,916,435,3.17439,1.26244
-301,589,2.67169,-1.46457,-0.0475739,0.0396979,0.00744659,0.0403287,-0.0482047,1.48628,0.0511822,0.0460817,923,435,2.67172,1.46457
-294,589,2.4101,-1.24774,-0.0414282,0.0385775,0.00841594,0.0394532,-0.0423039,1.46712,0.047212,0.0467696,930,435,2.41008,1.24773
-287,589,2.23761,-1.45203,-0.0357993,0.0371453,0.00888578,0.0382121,-0.0368661,1.45131,0.0433488,0.0416633,937,435,2.23762,1.45204
-280,589,2.03186,-1.79599,0,0,0,0,0,0,0,-1,944,435,2.03187,1.796
-273,589,1.81464,-2.23666,-0.026973,0.0312148,0.00817726,0.0323421,-0.0281004,1.4338,0.0349251,0.0191369,951,435,1.81465,2.23665
-266,589,1.84259,-2.25803,-0.0223118,0.0270758,0.00724778,0.0281174,-0.0233535,1.42805,0.0297592,0.0158988,958,435,1.84258,2.25802
-259,589,1.83936,-2.30685,-0.0177898,0.022733,0.00572167,0.0235254,-0.0185822,1.43318,0.0243666,0.014427,965,435,1.83935,2.30686
-252,589,1.83844,-2.37454,-0.0124799,0.0189171,0.00397448,0.0194124,-0.0129752,1.44681,0.0188217,0.010074,972,435,1.83847,2.37455
-245,589,1.83209,-2.42819,-0.00929656,0.0147106,0.00205751,0.0148856,-0.00947162,1.48592,0.014178,0.0100916,979,435,1.83211,2.42818
-238,589,1.82062,-2.49405,-0.00726169,0.0111145,0.000492576,0.0111277,-0.00727488,1.54402,0.0107021,0.0134106,986,435,1.82063,2.49403
-231,589,1.81635,-2.55621,-0.00475354,0.0082241,-0.000575763,0.00824959,-0.00477903,-1.52655,0.00761052,0.0141533,993,435,1.81637,2.55623
-224,589,1.81329,-2.62695,-0.00271895,0.00620528,-0.00117485,0.00635735,-0.00287103,-1.44207,0.00545327,0.0137633,1000,435,1.81327,2.62694
-217,589,1.82318,-2.69357,-0.000737793,0.00312038,-0.00232191,0.00421001,-0.00182742,-1.13202,0.00357505,0.0147493,1007,435,1.82316,2.69357
-210,589,1.81836,-2.72266,0.000688427,0.00225689,-0.00216471,0.00377505,-0.000829733,-0.959184,0.00283406,0.0135125,1014,435,1.81838,2.72266
-203,589,1.82532,-2.73474,0.00124765,0.00170944,-0.00178559,0.00327901,-0.000321912,-0.849696,0.00230083,0.00987573,1021,435,1.8253,2.73475
-196,589,1.80774,-2.79166,0.0012001,0.00113283,-0.00148679,0.00265364,-0.000320703,-0.774088,0.00188511,0.0120527,1028,435,1.80776,2.79166
-189,589,1.7594,-2.85089,0.000877257,0.000492605,-0.00115824,0.00185904,-0.000489173,-0.703124,0.00143057,0.0151183,1035,435,1.75944,2.8509
-182,589,1.80676,-2.87292,0.000470148,-0.000272638,-0.000787591,0.00096952,-0.00077201,-0.565081,0.00100763,0.0115962,1042,435,1.80671,2.87291
-175,589,1.83484,-2.89441,1.77009e-05,-0.0008182,-0.000715085,0.000428019,-0.00122852,-0.520935,0.000992927,0.0148738,1049,435,1.83488,2.89441
-168,589,1.82996,-2.94543,-0.000440002,-0.00137627,-0.000597005,-0.000149477,-0.0016668,-0.452901,0.00106487,0.0127905,1056,435,1.82995,2.94545
-161,589,1.83374,-2.99951,-0.000664333,-0.00173093,-0.00064898,-0.000357642,-0.00203762,-0.441468,0.00125628,0.011589,1063,435,1.83377,2.99952
-154,589,1.8241,-3.05341,-0.000753534,-0.0018916,-0.000691494,-0.000427044,-0.00221809,-0.441122,0.00135893,0.0111815,1070,435,1.82412,3.05341
-147,589,1.82935,-3.08609,-0.000883674,-0.00188833,-0.000610332,-0.000595535,-0.00217647,-0.441082,0.0012988,0.0115249,1077,435,1.8293,3.08609
-140,589,1.84912,-3.1048,-0.000704154,-0.00187061,-0.000844715,-0.000260883,-0.00231388,-0.483257,0.0014634,0.0124696,1084,435,1.84908,3.10481
-133,589,1.85242,-3.13373,-0.000190027,-0.00209262,-0.00111439,0.00032388,-0.00260653,-0.432093,0.0018551,0.0124558,1091,435,1.8524,3.13374
-126,589,1.8584,-3.1694,0.000230226,-0.00251992,-0.00132932,0.00076772,-0.00305742,-0.38424,0.00233661,0.0104801,1098,435,1.85843,3.16941
-119,589,1.85132,-3.20035,0.000660353,-0.00280748,-0.00146085,0.00119371,-0.00334084,-0.350066,0.0027141,0.0172076,1105,435,1.85133,3.20034
-112,589,1.83789,-3.24963,0.000834818,-0.00314646,-0.001381,0.00126695,-0.00357859,-0.303258,0.00290175,0.0179259,1112,435,1.83795,3.24965
-105,589,1.84692,-3.2832,0.000533505,-0.00335088,-0.00100194,0.000776718,-0.00359409,-0.238136,0.00269257,0.017045,1119,435,1.84692,3.2832
-98,589,1.92017,-3.25967,0.000160317,-0.00378143,-0.000621386,0.000255953,-0.00387707,-0.15271,0.00267412,0.0168254,1126,435,1.92014,3.25969
-91,589,1.97192,-3.25882,-0.00056129,-0.00408931,-4.28911e-05,-0.000560769,-0.00408983,-0.0121549,0.00256019,0.0204738,1133,435,1.97197,3.25881
-84,589,1.98535,-3.31021,-0.00181668,-0.00431365,0.000637943,-0.00166314,-0.00446719,0.236194,0.00260702,0.0292407,1140,435,1.98538,3.31022
-77,589,1.96802,-3.37332,-0.00334361,-0.00439618,0.00149701,-0.00228307,-0.00545672,0.616366,0.00316439,0.0349158,1147,435,1.96799,3.37333
-70,589,1.86975,-3.53815,0,0,0,0,0,0,0,-1,1154,435,1.86974,3.53814
-63,589,1.09204,-4.0686,0,0,0,0,0,0,0,-1,1161,435,1.09209,4.06861
-56,589,-0.313721,-4.37546,0,0,0,0,0,0,0,-1,1168,435,-0.313691,4.37546
-49,589,-0.525757,-2.76703,0,0,0,0,0,0,0,-1,1175,435,-0.525771,2.76702
-42,589,-2.7738,-2.87921,0,0,0,0,0,0,0,-1,1182,435,-2.77383,2.87922
-35,589,-2.55225,-3.27551,0,0,0,0,0,0,0,-1,1189,435,-2.55223,3.27552
-28,589,1.47083,-3.00238,0,0,0,0,0,0,0,-1,1196,435,1.47077,3.00238
-21,589,1.62268,-3.41724,0,0,0,0,0,0,0,-1,1203,435,1.62273,3.41723
-14,589,1.48132,-3.5372,0,0,0,0,0,0,0,-1,1210,435,1.48129,3.53719
-7,589,1.45508,-3.72775,0,0,0,0,0,0,0,-1,1217,435,1.4551,3.72775
0,589,1.98364,-3.74188,0,0,0,0,0,0,0,-1,1224,435,1.98364,3.74188
7,589,3.42456,-3.69516,-0.040575,-0.00964695,0.00448763,-0.00900896,-0.041213,1.42958,0.025019,0.0445282,1231,435,3.42459,3.69514
14,589,2.62793,-3.53381,-0.0354768,-0.00814529,0.00598837,-0.00689081,-0.0367313,1.3643,0.0225444,0.044051,1238,435,2.62789,3.5338
21,589,2.16101,-3.44141,-0.0287762,-0.00561889,0.00809218,-0.00307138,-0.0313237,1.26581,0.0199377,0.0440667,1245,435,2.16096,3.44141
28,589,1.75781,-3.41937,0,0,0,0,0,0,0,-1,1252,435,1.75785,3.41938
35,589,0.956787,-3.00684,-0.0109548,-0.000291285,0.0140183,0.00937501,-0.0206211,0.967121,0.0177193,0.0464059,1259,435,0.956841,3.00682
42,589,-0.243408,-3.06491,-0.00108186,0.00274229,0.017646,0.0185795,-0.0169191,0.839366,0.0205026,0.0479017,1266,435,-0.24336,3.06491
49,589,1.74353,-2.72745,0.00786247,0.00254633,0.0213136,0.0266831,-0.0162743,0.723362,0.025043,0.042039,1273,435,1.74349,2.72743
56,589,1.94153,-3.11423,0.0159216,0.00451651,0.0254755,0.036325,-0.0158869,0.675291,0.0309048,0.0439783,1280,435,1.94157,3.11424
63,589,1.36584,-5.25211,0,0,0,0,0,0,0,-1,1287,435,1.36578,5.25211
70,589,1.49963,-4.46713,0.0256536,0.00549685,0.0327718,0.0498617,-0.0187113,0.636222,0.0409297,0.0419259,1294,435,1.49961,4.46713
77,589,1.64893,-3.67624,0.0273286,0.00400909,0.0363617,0.0538542,-0.0225165,0.630247,0.0453131,0.0418699,1301,435,1.64894,3.67624
84,589,1.64893,-2.79156,0.0268205,0.00302193,0.0391033,0.055795,-0.0259526,0.637698,0.0482339,0.0436735,1308,435,1.64894,2.79157
91,589,1.59766,-1.88364,0,0,0,0,0,0,0,-1,1315,435,1.5976,1.88363
98,589,0.875977,-3.21475,0.0183819,0.000373949,0.0432854,0.0535899,-0.0348341,0.682853,0.051433,0.0442592,1322,435,0.876011,3.21475
105,589,0.917358,-2.04376,0,0,0,0,0,0,0,-1,1329,435,0.917386,2.04377
112,589,2.39172,-2.78067,0,0,0,0,0,0,0,-1,1336,435,2.39177,2.78066
119,589,2.06812,-3.31406,0,0,0,0,0,0,0,-1,1343,435,2.06814,3.31406
126,589,1.58008,-3.63397,0,0,0,0,0,0,0,-1,1350,435,1.58013,3.63397
133,589,2.23499,-3.55548,0,0,0,0,0,0,0,-1,1357,435,2.23502,3.55547
140,589,2.20935,-3.34845,0,0,0,0,0,0,0,-1,1364,435,2.20929,3.34845
147,589,1.45496,-3.19061,-0.0052954,0.00322167,0.0445805,0.0437466,-0.0458203,0.833016,0.0517161,0.0454484,1371,435,1.45492,3.19061
154,589,1.11548,-3.177,-0.00585172,0.00729961,0.044001,0.0452136,-0.0437657,0.859571,0.0513745,0.0450886,1378,435,1.11543,3.17701
161,589,2.33313,-3.3165,-0.00636939,0.00684123,0.0424788,0.0432252,-0.0427533,0.862529,0.0496399,0.0481574,1385,435,2.33313,3.31649
168,589,2.50818,-3.31458,0,0,0,0,0,0,0,-1,1392,435,2.50815,3.31458
175,589,3.64526,-2.59567,0,0,0,0,0,0,0,-1,1399,435,3.64523,2.59568
182,589,3.8136,-2.45389,0,0,0,0,0,0,0,-1,1406,435,3.81363,2.4539
189,589,3.69983,-3.68149,0,0,0,0,0,0,0,-1,1413,435,3.69987,3.68147
196,589,2.81006,-3.47232,0,0,0,0,0,0,0,-1,1420,435,2.81003,3.47231
203,589,2.70276,-3.27103,-0.00360261,0.0069366,0.0176366,0.020074,-0.01674,0.930571,0.0212836,0.048817,1427,435,2.70275,3.27103
210,589,2.2594,-3.30844,-0.00345439,0.00503584,0.0120211,0.0135393,-0.0119579,0.955133,0.0147302,0.0277841,1434,435,2.25945,3.30846
217,589,2.27808,-3.27377,-0.00537849,0.00339401,0.00779334,0.00795065,-0.00993513,1.04171,0.0103475,0.0217894,1441,435,2.27811,3.27376
224,589,2.23682,-3.24719,-0.00555533,0.000542369,0.00402635,0.00254396,-0.00755692,1.10945,0.00606642,0.0201773,1448,435,2.2368,3.24719
231,589,2.25122,-3.22382,-0.0053048,-0.00172389,0.00112,-0.00140244,-0.00562624,1.2913,0.00338171,0.0178898,1455,435,2.25125,3.22381
238,589,2.2782,-3.18103,-0.004826,-0.00385564,-0.0016268,-0.00264322,-0.00603843,-0.93032,0.00349529,0.0184935,1462,435,2.2782,3.18103
245,589,2.28943,-3.11563,-0.00406814,-0.0053997,-0.00310973,-0.00155372,-0.00791412,-0.679942,0.00484199,0.0176843,1469,435,2.28948,3.11562
252,589,2.30054,-3.0853,-0.00335163,-0.00620703,-0.00390833,-0.000618391,-0.00894027,-0.61028,0.00576511,0.0124835,1476,435,2.30055,3.08529
259,589,2.30334,-3.06503,-0.00246955,-0.00631163,-0.00396675,1.68439e-05,-0.00879802,-0.559899,0.00587097,0.00888706,1483,435,2.3033,3.06502
266,589,2.28992,-3.01291,-0.00192419,-0.00557535,-0.0036823,0.000360227,-0.00785977,-0.555269,0.00536395,0.00889724,1490,435,2.28992,3.01292
273,589,2.29028,-2.99435,-0.00158191,-0.00501959,-0.0034435,0.000547898,-0.0071494,-0.553913,0.004959,0.0118943,1497,435,2.29028,2.99436
280,589,2.30664,-2.96637,-0.00128515,-0.00434615,-0.00322985,0.000758477,-0.00638978,-0.564139,0.00453388,0.013307,1504,435,2.30665,2.96637
287,589,2.31482,-2.92609,-0.000971228,-0.00371656,-0.00287041,0.000837842,-0.00552563,-0.562365,0.00399245,0.0115981,1511,435,2.31481,2.92609
294,589,2.30322,-2.86108,-0.000582118,-0.0027892,-0.00242041,0.000974449,-0.00434576,-0.57151,0.00327074,0.0102733,1518,435,2.30319,2.86109
301,589,2.29761,-2.80417,-0.000182034,-0.00184286,-0.00197582,0.00113078,-0.00315568,-0.586461,0.00256518,0.0107652,1525,435,2.29764,2.80416
308,589,2.30444,-2.76193,0.000136032,-0.000780788,-0.00148903,0.00123562,-0.00188038,-0.636073,0.00181181,0.0108433,1532,435,2.30444,2.76195
315,589,2.30408,-2.71689,0.00030782,9.50243e-06,-0.00114436,0.0013127,-0.000995375,-0.720592,0.00133676,0.0103704,1539,435,2.30411,2.71688
322,589,2.31274,-2.67148,0.000581696,0.000629451,-0.000978904,0.00158477,-0.000373622,-0.797592,0.00120059,0.011384,1546,435,2.31276,2.67149
329,589,2.31653,-2.61292,0.000909608,0.0010968,-0.000814863,0.00182343,0.000182985,-0.842579,0.00115945,0.0105019,1553,435,2.31648,2.61291
336,589,2.3158,-2.56857,0.00117634,0.00170112,-0.000806789,0.00228712,0.000590346,-0.942618,0.00137101,0.00986935,1560,435,2.31581,2.56856
343,589,2.3219,-2.52765,0.00159799,0.0028432,-0.00105522,0.0034458,0.000995396,-1.05192,0.0020477,0.0122806,1567,435,2.32185,2.52765
350,589,2.31519,-2.46811,0.00246056,0.0040048,-0.00153486,0.00495081,0.00151455,-1.01844,0.00292925,0.0180019,1574,435,2.31522,2.4681
357,589,2.3136,-2.41284,0.00379421,0.00470456,-0.00220007,0.00649605,0.00200273,-0.887405,0.00384128,0.0136786,1581,435,2.31362,2.41284
364,589,2.32434,-2.33792,0.00555051,0.00471299,-0.00333012,0.0084881,0.0017754,-0.722852,0.00516957,0.0113378,1588,435,2.3243,2.33791
371,589,2.31152,-2.28558,0.00781562,0.00447991,-0.00501539,0.0114332,0.000862325,-0.624877,0.00735157,0.010657,1595,435,2.3115,2.28557
378,589,2.30615,-2.23325,0.0102214,0.00378746,-0.00735468,0.0150319,-0.00102303,-0.579232,0.0103791,0.0115411,1602,435,2.3062,2.23326
385,589,2.30615,-2.15665,0.0129544,0.00293665,-0.00970844,0.01887,-0.00297888,-0.547243,0.0136815,0.0133931,1609,435,2.30619,2.15664
392,589,2.30237,-2.09686,0.0159429,0.0016179,-0.012485,0.0231741,-0.00561325,-0.524974,0.017621,0.0141598,1616,435,2.3024,2.09687
399,589,2.30469,-2.08603,0.0191419,-8.21585e-05,-0.0154181,0.0276988,-0.00863906,-0.506666,0.0219205,0.0183901,1623,435,2.30473,2.08602
406,589,2.45496,-2.15952,0.0224927,-0.00260549,-0.0188021,0.0325489,-0.0126617,-0.491133,0.0269309,0.0372277,1630,435,2.455,2.15951
413,589,2.66943,-1.92862,0.0255212,-0.00567316,-0.0224662,0.0372737,-0.0174256,-0.48197,0.0322662,0.0466059,1637,435,2.66947,1.92861
420,589,2.86987,-1.73022,0.0280555,-0.00891395,-0.0258986,0.0413893,-0.0222478,-0.475455,0.0372908,0.0467798,1644,435,2.8699,1.73024
427,589,2.27319,-1.54547,0,0,0,0,0,0,0,-1,1651,435,2.27319,1.54548
434,589,2.19543,-1.42136,0,0,0,0,0,0,0,-1,1658,435,2.19548,1.42136
441,589,2.20886,-1.38742,0,0,0,0,0,0,0,-1,1665,435,2.20884,1.38743
448,589,2.05127,-1.12378,0,0,0,0,0,0,0,-1,1672,435,2.0513,1.12379
455,589,2.04529,-0.83136,0,0,0,0,0,0,0,-1,1679,435,2.04529,0.831366
462,589,3.61682,-3.43707,0,0,0,0,0,0,0,-1,1686,435,3.61681,3.43707
469,589,4.09985,-2.89212,0,0,0,0,0,0,0,-1,1693,435,4.09983,2.89212
476,589,0,0,0,0,0,0,0,0,0,-1,1700,435,0,0
483,589,0,0,0,0,0,0,0,0,0,-1,1707,435,0,0
490,589,0,0,0,0,0,0,0,0,0,-1,1714,435,0,0
497,589,0,0,0,0,0,0,0,0,0,-1,1721,435,0,0
504,589,0,0,0,0,0,0,0,0,0,-1,1728,435,0,0
511,589,0,0,0,0,0,0,0,0,0,-1,1735,435,0,0
518,589,0,0,0,0,0,0,0,0,0,-1,1742,435,0,0
525,589,0,0,0,0,0,0,0,0,0,-1,1749,435,0,0
532,589,0,0,0,0,0,0,0,0,0,-1,1756,435,0,0
539,589,0,0,0,0,0,0,0,0,0,-1,1763,435,0,0
546,589,0,0,0,0,0,0,0,0,0,-1,1770,435,0,0
553,589,0,0,0,0,0,0,0,0,0,-1,1777,435,0,0
560,589,0,0,0,0,0,0,0,0,0,-1,1784,435,0,0
567,589,0,0,0,0,0,0,0,0,0,-1,1791,435,0,0
574,589,0,0,0,0,0,0,0,0,0,-1,1798,435,0,0
581,589,0,0,0,0,0,0,0,0,0,-1,1805,435,0,0
588,589,0,0,0,0,0,0,0,0,0,-1,1812,435,0,0
595,589,0,0,0,0,0,0,0,0,0,-1,1819,435,0,0
602,589,0,0,0,0,0,0,0,0,0,-1,1826,435,0,0
609,589,0,0,0,0,0,0,0,0,0,-1,1833,435,0,0
616,589,0,0,0,0,0,0,0,0,0,-1,1840,435,0,0
623,589,0,0,0,0,0,0,0,0,0,-1,1847,435,0,0
630,589,0,0,0,0,0,0,0,0,0,-1,1854,435,0,0
637,589,0,0,0,0,0,0,0,0,0,-1,1861,435,0,0
644,589,0,0,0,0,0,0,0,0,0,-1,1868,435,0,0
651,589,0,0,0,0,0,0,0,0,0,-1,1875,435,0,0
658,589,0,0,0,0,0,0,0,0,0,-1,1882,435,0,0
665,589,0,0,0,0,0,0,0,0,0,-1,1889,435,0,0
672,589,0,0,0,0,0,0,0,0,0,-1,1896,435,0,0
679,589,0,0,0,0,0,0,0,0,0,-1,1903,435,0,0
686,589,0,0,0,0,0,0,0,0,0,-1,1910,435,0,0
693,589,0,0,0,0,0,0,0,0,0,-1,1917,435,0,0
700,589,0,0,0,0,0,0,0,0,0,-1,1924,435,0,0
707,589,0,0,0,0,0,0,0,0,0,-1,1931,435,0,0
714,589,0,0,0,0,0,0,0,0,0,-1,1938,435,0,0
721,589,0,0,0,0,0,0,0,0,0,-1,1945,435,0,0
728,589,0,0,0,0,0,0,0,0,0,-1,1952,435,0,0
735,589,0,0,0,0,0,0,0,0,0,-1,1959,435,0,0
742,589,0,0,0,0,0,0,0,0,0,-1,1966,435,0,0
749,589,0,0,0,0,0,0,0,0,0,-1,1973,435,0,0
756,589,0,0,0,0,0,0,0,0,0,-1,1980,435,0,0
763,589,0,0,0,0,0,0,0,0,0,-1,1987,435,0,0
770,589,0,0,0,0,0,0,0,0,0,-1,1994,435,0,0
777,589,0,0,0,0,0,0,0,0,0,-1,2001,435,0,0
784,589,0,0,0,0,0,0,0,0,0,-1,2008,435,0,0
791,589,0,0,0,0,0,0,0,0,0,-1,2015,435,0,0
798,589,0,0,0,0,0,0,0,0,0,-1,2022,435,0,0
805,589,0,0,0,0,0,0,0,0,0,-1,2029,435,0,0
812,589,0,0,0,0,0,0,0,0,0,-1,2036,435,0,0
-700,582,0,0,0,0,0,0,0,0,0,-1,524,442,0,0
-693,582,0,0,0,0,0,0,0,0,0,-1,531,442,0,0
-686,582,0,0,0,0,0,0,0,0,0,-1,538,442,0,0
-679,582,0,0,0,0,0,0,0,0,0,-1,545,442,0,0
-672,582,0,0,0,0,0,0,0,0,0,-1,552,442,0,0
-665,582,0,0,0,0,0,0,0,0,0,-1,559,442,0,0
-658,582,0,0,0,0,0,0,0,0,0,-1,566,442,0,0
-651,582,0,0,0,0,0,0,0,0,0,-1,573,442,0,0
-644,582,0,0,0,0,0,0,0,0,0,-1,580,442,0,0
-637,582,0,0,0,0,0,0,0,0,0,-1,587,442,0,0
-630,582,0,0,0,0,0,0,0,0,0,-1,594,442,0,0
-623,582,0,0,0,0,0,0,0,0,0,-1,601,442,0,0
-616,582,0,0,0,0,0,0,0,0,0,-1,608,442,0,0
-609,582,0,0,0,0,0,0,0,0,0,-1,615,442,0,0
-602,582,0,0,0,0,0,0,0,0,0,-1,622,442,0,0
-595,582,0,0,0,0,0,0,0,0,0,-1,629,442,0,0
-588,582,0,0,0,0,0,0,0,0,0,-1,636,442,0,0
-581,582,0,0,0,0,0,0,0,0,0,-1,643,442,0,0
-574,582,0,0,0,0,0,0,0,0,0,-1,650,442,0,0
-567,582,0,0,0,0,0,0,0,0,0,-1,657,442,0,0
-560,582,0,0,0,0,0,0,0,0,0,-1,664,442,0,0
-553,582,0,0,0,0,0,0,0,0,0,-1,671,442,0,0
-546,582,0,0,0,0,0,0,0,0,0,-1,678,442,0,0
-539,582,0,0,0,0,0,0,0,0,0,-1,685,442,0,0
-532,582,0,0,0,0,0,0,0,0,0,-1,692,442,0,0
-525,582,0,0,0,0,0,0,0,0,0,-1,699,442,0,0
-518,582,0,0,0,0,0,0,0,0,0,-1,706,442,0,0
-511,582,0,0,0,0,0,0,0,0,0,-1,713,442,0,0
-504,582,0,0,0,0,0,0,0,0,0,-1,720,442,0,0
-497,582,0,0,0,0,0,0,0,0,0,-1,727,442,0,0
-490,582,0,0,0,0,0,0,0,0,0,-1,734,442,0,0
-483,582,0,0,0,0,0,0,0,0,0,-1,741,442,0,0
-476,582,0,0,0,0,0,0,0,0,0,-1,748,442,0,0
-469,582,0,0,0,0,0,0,0,0,0,-1,755,442,0,0
-462,582,0,0,0,0,0,0,0,0,0,-1,762,442,0,0
-455,582,0,0,0,0,0,0,0,0,0,-1,769,442,0,0
-448,582,0,0,0,0,0,0,0,0,0,-1,776,442,0,0
-441,582,0,0,0,0,0,0,0,0,0,-1,783,442,0,0
-434,582,0,0,0,0,0,0,0,0,0,-1,790,442,0,0
-427,582,0,0,0,0,0,0,0,0,0,-1,797,442,0,0
-420,582,0,0,0,0,0,0,0,0,0,-1,804,442,0,0
-413,582,0,0,0,0,0,0,0,0,0,-1,811,442,0,0
-406,582,0,0,0,0,0,0,0,0,0,-1,818,442,0,0
-399,582,0,0,0,0,0,0,0,0,0,-1,825,442,0,0
-392,582,0,0,0,0,0,0,0,0,0,-1,832,442,0,0
-385,582,0,0,0,0,0,0,0,0,0,-1,839,442,0,0
-378,582,0,0,0,0,0,0,0,0,0,-1,846,442,0,0
-371,582,0,0,0,0,0,0,0,0,0,-1,853,442,0,0
-364,582,0,0,0,0,0,0,0,0,0,-1,860,442,0,0
-357,582,9.49475,-1.20901,0,0,0,0,0,0,0,-1,867,442,9.49475,1.20903
-350,582,8.31299,-0.880493,0,0,0,0,0,0,0,-1,874,442,8.31297,0.880493
-343,582,7.0459,-0.444702,0,0,0,0,0,0,0,-1,881,442,7.0459,0.444717
-336,582,2.24091,-2.05045,0,0,0,0,0,0,0,-1,888,442,2.24089,2.05044
-329,582,2.5694,-2.16534,0,0,0,0,0,0,0,-1,895,442,2.56939,2.16536
-322,582,3.82397,-0.707306,-0.059727,0.0370977,0.00663694,0.0375505,-0.0601798,1.50268,0.0569266,0.0480386,902,442,3.824,0.707294
-315,582,2.8562,-1.52527,-0.049715,0.0347073,0.00617097,0.035156,-0.0501637,1.49821,0.0495127,0.0460375,909,442,2.85618,1.52526
-308,582,2.6076,-1.69424,-0.0416458,0.0332055,0.00616479,0.0337098,-0.0421501,1.48917,0.043888,0.047035,916,442,2.6076,1.69426
-301,582,2.19055,-1.83911,-0.0351594,0.031676,0.0065117,0.0323045,-0.0357879,1.47457,0.0393303,0.0422191,923,442,2.19056,1.83911
-294,582,1.86249,-1.88184,-0.0301672,0.0303736,0.00707408,0.0311892,-0.0309828,1.45601,0.0358951,0.0403069,930,442,1.86246,1.88184
-287,582,1.77008,-1.96991,-0.0258735,0.0289882,0.00735833,0.029958,-0.0268433,1.43976,0.0328107,0.0313833,937,442,1.7701,1.96992
-280,582,1.76361,-2.13086,-0.0227233,0.0266201,0.0074586,0.0277229,-0.0238261,1.42401,0.0297902,0.0148378,944,442,1.76363,2.13086
-273,582,1.78156,-2.20309,-0.0194699,0.0240394,0.00670755,0.0250499,-0.0204804,1.42126,0.0263311,0.00986572,951,442,1.78155,2.20311
-266,582,1.78235,-2.27686,-0.0158555,0.020646,0.00594271,0.0215891,-0.0167986,1.4134,0.0222206,0.00947036,958,442,1.78237,2.27685
-259,582,1.78638,-2.33368,-0.012439,0.0171071,0.0047161,0.0178416,-0.0131736,1.41629,0.0179741,0.00855874,965,442,1.78636,2.33368
-252,582,1.79437,-2.38098,-0.00872186,0.0140819,0.00335514,0.0145653,-0.00920526,1.4277,0.0138398,0.00806336,972,442,1.79438,2.38099
-245,582,1.79333,-2.42987,-0.00650419,0.0109648,0.00184125,0.0111568,-0.00669615,1.46692,0.0104141,0.0110101,979,442,1.79334,2.42988
-238,582,1.77203,-2.4841,-0.00510067,0.00824018,0.000613512,0.00826834,-0.00512882,1.52494,0.00780533,0.0148838,986,442,1.77205,2.48411
-231,582,1.76898,-2.53998,-0.00344752,0.00606055,-0.000199554,0.00606474,-0.00345171,-1.54982,0.00556293,0.0117709,993,442,1.76898,2.53999
-224,582,1.7804,-2.59595,-0.00214597,0.00465219,-0.000654642,0.00471465,-0.00220844,-1.47566,0.00408342,0.0101262,1000,442,1.78037,2.59596
-217,582,1.78119,-2.67004,-0.000937973,0.00237996,-0.00154648,0.00298898,-0.001547,-1.19564,0.00266259,0.0123239,1007,442,1.78119,2.67003
-210,582,1.77167,-2.70078,-0.000201924,0.00167646,-0.00143113,0.00244905,-0.000974515,-1.07578,0.00203679,0.0128692,1014,442,1.77169,2.70077
-203,582,1.78748,-2.74402,-0.000127069,0.00125789,-0.00114445,0.00190305,-0.000772233,-1.05747,0.00158991,0.0100342,1021,442,1.78746,2.74402
-196,582,1.79675,-2.80957,-0.000566523,0.000720556,-0.000927513,0.00120592,-0.00105189,-1.08869,0.00130456,0.014538,1028,442,1.79672,2.80957
-189,582,1.75488,-2.8533,-0.00119345,4.66349e-05,-0.000651909,0.00032628,-0.0014731,-1.16557,0.00110697,0.020423,1035,442,1.75487,2.85331
-182,582,1.77332,-2.87723,-0.00181638,-0.000831635,-0.000418026,-0.000678116,-0.0019699,-1.21884,0.00115557,0.0141173,1042,442,1.77327,2.87722
-175,582,1.77759,-2.90762,-0.00232546,-0.00136124,-0.00071335,-0.000982365,-0.00270433,-1.08256,0.00158069,0.0119891,1049,442,1.77762,2.90762
-168,582,1.79358,-2.96237,-0.00270874,-0.00201069,-0.000847826,-0.00144286,-0.00327657,-0.98066,0.00189621,0.0103636,1056,442,1.79363,2.96238
-161,582,1.7948,-2.9946,-0.0028388,-0.00246708,-0.00117082,-0.00146746,-0.00383842,-0.864112,0.00223648,0.0113977,1063,442,1.79485,2.99459
-154,582,1.79346,-3.02908,-0.00268283,-0.00275918,-0.00153025,-0.00119028,-0.00425173,-0.772928,0.00253274,0.0114568,1070,442,1.79352,3.02909
-147,582,1.80518,-3.06702,-0.00237372,-0.00287814,-0.0017126,-0.000894866,-0.004357,-0.71229,0.00265709,0.0112283,1077,442,1.80518,3.06702
-140,582,1.80847,-3.08884,-0.00183875,-0.00286747,-0.00212453,-0.000167202,-0.00453902,-0.666631,0.00297185,0.0111423,1084,442,1.80851,3.08883
-133,582,1.81458,-3.12668,-0.000963651,-0.0030667,-0.00255546,0.000748166,-0.00477852,-0.590215,0.00346212,0.0118988,1091,442,1.81452,3.12668
-126,582,1.82532,-3.15555,-0.000144771,-0.00345059,-0.00288433,0.00152669,-0.00512205,-0.525209,0.00402139,0.0113543,1098,442,1.82533,3.15555
-119,582,1.80188,-3.16672,0.000614099,-0.00372115,-0.00304531,0.00218446,-0.00529152,-0.4761,0.00443877,0.0165218,1105,442,1.80191,3.16671
-112,582,1.74451,-3.23355,0.00103702,-0.0040234,-0.00286818,0.00233152,-0.0053179,-0.423961,0.0045272,0.0249072,1112,442,1.74451,3.23354
-105,582,1.77734,-3.26392,0.000835032,-0.00418008,-0.00230591,0.0017341,-0.00507914,-0.371766,0.0040886,0.0327319,1119,442,1.77735,3.26391
-98,582,2.01062,-3.2511,0.000323323,-0.00471321,-0.00164532,0.000813168,-0.00520305,-0.289364,0.00376911,0.0337049,1126,442,2.01058,3.2511
-91,582,2.17114,-3.13876,-0.000673171,-0.00509713,-0.000691878,-0.00056749,-0.00520281,-0.151573,0.00329571,0.0357096,1133,442,2.17117,3.13877
-84,582,2.25415,-2.81329,-0.00236887,-0.00540762,0.000426931,-0.00231002,-0.00546646,0.136963,0.00316865,0.0394789,1140,442,2.2541,2.8133
-77,582,2.0061,-2.78641,-0.00443443,-0.00542057,0.00195202,-0.00291418,-0.00694083,0.661688,0.00402441,0.0439987,1147,442,2.0061,2.78639
-70,582,1.73352,-2.88486,0,0,0,0,0,0,0,-1,1154,442,1.73346,2.88486
-63,582,-0.234375,-1.98166,0,0,0,0,0,0,0,-1,1161,442,-0.234317,1.98166
-56,582,-0.503296,-2.82614,0,0,0,0,0,0,0,-1,1168,442,-0.503296,2.82614
-49,582,-0.232422,-3.29642,0,0,0,0,0,0,0,-1,1175,442,-0.232478,3.2964
-42,582,-0.948975,1.13968,0,0,0,0,0,0,0,-1,1182,442,-0.949003,-1.13969
-35,582,-2.58435,-3.86911,0,0,0,0,0,0,0,-1,1189,442,-2.58437,3.86912
-28,582,-0.69751,-3.54932,0,0,0,0,0,0,0,-1,1196,442,-0.697549,3.54932
-21,582,1.44812,-3.27789,0,0,0,0,0,0,0,-1,1203,442,1.44814,3.27788
-14,582,3.72876,-2.91452,0,0,0,0,0,0,0,-1,1210,442,3.7288,2.91453
-7,582,-0.163818,-3.84705,0,0,0,0,0,0,0,-1,1217,442,-0.163784,3.84704
0,582,3.78906,-3.71539,0,0,0,0,0,0,0,-1,1224,442,3.78905,3.71538
7,582,3.14063,-3.87411,-0.0524818,-0.0154813,0.00335267,-0.0151799,-0.0527832,1.48116,0.0313776,0.0484951,1231,442,3.14068,3.87412
14,582,2.72546,-3.78625,-0.0459163,-0.0134705,0.00515303,-0.0126718,-0.046715,1.41702,0.0278959,0.0472766,1238,442,2.72545,3.78624
21,582,1.7666,-3.81522,-0.036716,-0.0103035,0.00739033,-0.00837627,-0.0386433,1.3157,0.0234737,0.04307,1245,442,1.76661,3.81523
28,582,0.825317,-3.68365,-0.0251101,-0.00657549,0.0103161,-0.00197538,-0.0297102,1.15135,0.0191823,0.0460101,1252,442,0.825312,3.68366
35,582,-0.24353,-3.46231,-0.0126234,-0.00309111,0.0139832,0.0069159,-0.0226304,0.949648,0.0178447,0.0481835,1259,442,-0.243475,3.46231
42,582,-1.38879,-3.2952,0,0,0,0,0,0,0,-1,1266,442,-1.3888,3.29519
49,582,1.32483,-2.23593,0.0121581,0.0012136,0.0227375,0.0300726,-0.0167009,0.667309,0.0273701,0.0435032,1273,442,1.32481,2.23595
56,582,1.15344,-6.2467,0.0222256,0.00451429,0.0280287,0.0427644,-0.0160245,0.632386,0.0350926,0.0452497,1280,442,1.15343,6.24672
63,582,1.34167,-5.55206,0.0290777,0.00680577,0.0328964,0.0526719,-0.0167884,0.622194,0.0418487,0.0438962,1287,442,1.34161,5.55208
70,582,1.46704,-4.87799,0.0339639,0.00808221,0.0378366,0.0610115,-0.0189653,0.620624,0.0482548,0.0414517,1294,442,1.467,4.878
77,582,1.67749,-4.0636,0.0356291,0.00735141,0.0429243,0.0666832,-0.0237027,0.6263,0.0541153,0.0458003,1301,442,1.67751,4.0636
84,582,1.35938,-2.06778,0.0346689,0.00736191,0.0471457,0.0700983,-0.0280675,0.644453,0.058382,0.0466235,1308,442,1.35937,2.06779
91,582,1.27258,-0.71405,0.0320279,0.00628333,0.0506154,0.0713822,-0.033071,0.66088,0.0616434,0.0475965,1315,442,1.27256,0.714038
98,582,0.978516,0.824677,0.0238692,0.00573261,0.053672,0.0692335,-0.0396318,0.70171,0.0636232,0.0461348,1322,442,0.978542,-0.824666
105,582,0.709106,2.36636,0,0,0,0,0,0,0,-1,1329,442,0.709116,-2.36637
112,582,0.560669,3.55835,0.00602846,0.00283738,0.0577011,0.0621561,-0.0532903,0.771576,0.0667185,0.0421774,1336,442,0.560673,-3.55835
119,582,0.436523,4.42557,0,0,0,0,0,0,0,-1,1343,442,0.436568,-4.42556
126,582,1.34253,-3.75232,0,0,0,0,0,0,0,-1,1350,442,1.34257,3.75231
133,582,1.44873,-6.29471,0,0,0,0,0,0,0,-1,1357,442,1.44872,6.29472
140,582,1.20642,-4.78467,-0.00729422,0.00483238,0.056702,0.0557943,-0.0582562,0.838662,0.0658522,0.047203,1364,442,1.20642,4.78467
147,582,0.855591,-3.16177,-0.00842849,0.00680849,0.0567723,0.0564711,-0.0580911,0.852097,0.0661448,0.0465477,1371,442,0.855647,3.16179
154,582,0.981201,-2.82779,0,0,0,0,0,0,0,-1,1378,442,0.98118,2.8278
161,582,2.49719,-3.2374,0,0,0,0,0,0,0,-1,1385,442,2.4972,3.23738
168,582,4.89771,-2.27808,0,0,0,0,0,0,0,-1,1392,442,4.89775,2.27806
175,582,6.50549,-2.00424,0,0,0,0,0,0,0,-1,1399,442,6.50546,2.00425
182,582,5.18958,-2.18652,0,0,0,0,0,0,0,-1,1406,442,5.1896,2.18652
189,582,6.19751,-0.880951,0,0,0,0,0,0,0,-1,1413,442,6.19754,0.88096
196,582,4.87354,-2.22327,0,0,0,0,0,0,0,-1,1420,442,4.87348,2.22325
203,582,2.78149,-2.79633,0,0,0,0,0,0,0,-1,1427,442,2.78146,2.79632
210,582,2.64563,-2.85736,-0.00450925,0.00465932,0.0173926,0.0180616,-0.0179116,0.914256,0.0207692,0.0401735,1434,442,2.64567,2.85737
217,582,2.39111,-3.25287,-0.00686843,0.00245257,0.0115191,0.0102183,-0.0146341,0.977626,0.0144239,0.0394255,1441,442,2.39111,3.25287
224,582,2.24438,-3.32053,-0.00753713,-0.00151947,0.00610882,0.00228131,-0.0113379,1.01423,0.00842266,0.0385519,1448,442,2.24441,3.32051
231,582,2.35974,-3.2399,-0.0074543,-0.00460358,0.00186651,-0.00368043,-0.00837745,1.11149,0.00484858,0.0368174,1455,442,2.35968,3.23989
238,582,2.32458,-3.15817,-0.00703252,-0.00733146,-0.00204062,-0.00513591,-0.00922808,-0.74884,0.00533918,0.0326241,1462,442,2.32456,3.15818
245,582,2.38477,-3.14844,-0.0062376,-0.00919047,-0.00421572,-0.00324725,-0.0121808,-0.616962,0.00728355,0.0279654,1469,442,2.38471,3.14844
252,582,2.37756,-3.06802,-0.0053345,-0.0100539,-0.00536156,-0.00183633,-0.0135521,-0.578097,0.00848906,0.016746,1476,442,2.37756,3.06803
259,582,2.34387,-3.06989,-0.00413014,-0.0099539,-0.00552045,-0.000800676,-0.0132834,-0.542707,0.00860112,0.0123109,1483,442,2.34386,3.06989
266,582,2.33582,-3.02338,-0.00329472,-0.00879076,-0.00519466,-0.000165992,-0.0119195,-0.542106,0.00789157,0.00982179,1490,442,2.33577,3.02337
273,582,2.32788,-2.98117,-0.00269721,-0.00784388,-0.00489651,0.000260994,-0.0108021,-0.543461,0.00728994,0.00978254,1497,442,2.32791,2.98117
280,582,2.34497,-2.95752,-0.00219696,-0.00681646,-0.00464125,0.000677512,-0.00969093,-0.554512,0.00669789,0.0103306,1504,442,2.34499,2.95753
287,582,2.35901,-2.9104,-0.00175068,-0.00583044,-0.00425463,0.000927809,-0.00850892,-0.561862,0.00600582,0.0106448,1511,442,2.35902,2.9104
294,582,2.35828,-2.85645,-0.00114264,-0.00451975,-0.0037225,0.00125638,-0.00691877,-0.572473,0.00508332,0.009192,1518,442,2.3583,2.85643
301,582,2.36768,-2.8028,-0.000563416,-0.00329659,-0.00327621,0.0016198,-0.00547981,-0.587807,0.00429616,0.0101766,1525,442,2.36763,2.80278
308,582,2.375,-2.75702,-0.000205991,-0.00209714,-0.00274216,0.00174905,-0.00405218,-0.619368,0.0034362,0.0127422,1532,442,2.375,2.75701
315,582,2.36658,-2.70776,-0.000179239,-0.00123063,-0.00219281,0.00155001,-0.00295988,-0.667751,0.00264586,0.0128344,1539,442,2.36656,2.70777
322,582,2.36963,-2.65347,2.49603e-05,-0.00053029,-0.00180889,0.0015774,-0.00208273,-0.709253,0.00211988,0.0101541,1546,442,2.36959,2.65346
329,582,2.37109,-2.60284,0.000417757,-2.62682e-05,-0.00137395,0.00158751,-0.00119602,-0.705297,0.00161236,0.00986495,1553,442,2.37109,2.60285
336,582,2.3717,-2.55878,0.000561523,0.000531138,-0.00109048,0.00163692,-0.000544255,-0.778433,0.00131091,0.0107067,1560,442,2.37168,2.55878
343,582,2.37524,-2.5065,0.000702407,0.00147907,-0.00108733,0.00224533,-6.38573e-05,-0.956909,0.00151862,0.013764,1567,442,2.37526,2.50651
350,582,2.36768,-2.45013,0.00131203,0.00242555,-0.00122135,0.00321105,0.000526524,-0.999256,0.00198856,0.0168246,1574,442,2.36763,2.45013
357,582,2.36597,-2.39752,0.00231503,0.00298349,-0.00151525,0.00420093,0.00109758,-0.893949,0.00251587,0.0143588,1581,442,2.36598,2.39752
364,582,2.38049,-2.34116,0.00363244,0.0030885,-0.00208072,0.0054589,0.00126205,-0.720412,0.00330003,0.0111591,1588,442,2.38048,2.34115
371,582,2.37915,-2.29419,0.00533393,0.00302196,-0.00304829,0.00743806,0.00091783,-0.604163,0.00468284,0.0138816,1595,442,2.37918,2.29419
378,582,2.36316,-2.25305,0.00711109,0.0026737,-0.00454171,0.00994707,-0.000162281,-0.558189,0.00668613,0.0144191,1602,442,2.36319,2.25306
385,582,2.35925,-2.19229,0.00908071,0.00226089,-0.0059945,0.0125673,-0.00122569,-0.526802,0.0088152,0.0102006,1609,442,2.35927,2.1923
392,582,2.35181,-2.13559,0.0111844,0.00156251,-0.00770247,0.0154549,-0.00270803,-0.506244,0.0113145,0.0090105,1616,442,2.35185,2.13558
399,582,2.36328,-2.07074,0.0134173,0.000701766,-0.00947514,0.01847,-0.00435096,-0.489901,0.013991,0.0109629,1623,442,2.36332,2.07075
406,582,2.38,-2.01251,0.0157562,-0.000687268,-0.011485,0.021659,-0.00659008,-0.474751,0.0170656,0.016081,1630,442,2.38006,2.01252
413,582,2.46729,-1.91449,0.0177776,-0.00237903,-0.0136164,0.0246397,-0.00924112,-0.46681,0.0202233,0.0281235,1637,442,2.46731,1.9145
420,582,2.4895,-1.7901,0.0193702,-0.00415981,-0.0154988,0.0270636,-0.0118532,-0.460752,0.0230336,0.0329623,1644,442,2.48956,1.79009
427,582,2.29651,-1.70129,0.0211529,-0.00618706,-0.0159794,0.0285118,-0.0135459,-0.431566,0.0247891,0.0353015,1651,442,2.29654,1.70131
434,582,2.28149,-1.57349,0.0224275,-0.00782248,-0.0163695,0.0295898,-0.0149848,-0.412446,0.0261916,0.0426302,1658,442,2.28153,1.5735
441,582,2.30237,-1.48755,0.0233714,-0.00959898,-0.0156799,0.0296376,-0.0158651,-0.380184,0.0266691,0.0450828,1665,442,2.30242,1.48754
448,582,2.17615,-1.21759,0.0237244,-0.0124089,-0.0138264,0.0284079,-0.0170925,-0.32661,0.0265391,0.0486678,1672,442,2.17615,1.21759
455,582,2.19043,-0.909119,0,0,0,0,0,0,0,-1,1679,442,2.1904,0.909113
462,582,2.23901,-0.693848,0,0,0,0,0,0,0,-1,1686,442,2.23896,0.693854
469,582,3.3927,-2.53851,0,0,0,0,0,0,0,-1,1693,442,3.39266,2.53853
476,582,3.82898,-2.07132,0,0,0,0,0,0,0,-1,1700,442,3.82899,2.07131
483,582,0,0,0,0,0,0,0,0,0,-1,1707,442,0,0
490,582,0,0,0,0,0,0,0,0,0,-1,1714,442,0,0
497,582,0,0,0,0,0,0,0,0,0,-1,1721,442,0,0
504,582,0,0,0,0,0,0,0,0,0,-1,1728,442,0,0
511,582,0,0,0,0,0,0,0,0,0,-1,1735,442,0,0
518,582,0,0,0,0,0,0,0,0,0,-1,1742,442,0,0
525,582,0,0,0,0,0,0,0,0,0,-1,1749,442,0,0
532,582,0,0,0,0,0,0,0,0,0,-1,1756,442,0,0
539,582,0,0,0,0,0,0,0,0,0,-1,1763,442,0,0
546,582,0,0,0,0,0,0,0,0,0,-1,1770,442,0,0
553,582,0,0,0,0,0,0,0,0,0,-1,1777,442,0,0
560,582,0,0,0,0,0,0,0,0,0,-1,1784,442,0,0
567,582,0,0,0,0,0,0,0,0,0,-1,1791,442,0,0
574,582,0,0,0,0,0,0,0,0,0,-1,1798,442,0,0
581,582,0,0,0,0,0,0,0,0,0,-1,1805,442,0,0
588,582,0,0,0,0,0,0,0,0,0,-1,1812,442,0,0
595,582,0,0,0,0,0,0,0,0,0,-1,1819,442,0,0
602,582,0,0,0,0,0,0,0,0,0,-1,1826,442,0,0
609,582,0,0,0,0,0,0,0,0,0,-1,1833,442,0,0
616,582,0,0,0,0,0,0,0,0,0,-1,1840,442,0,0
623,582,0,0,0,0,0,0,0,0,0,-1,1847,442,0,0
630,582,0,0,0,0,0,0,0,0,0,-1,1854,442,0,0
637,582,0,0,0,0,0,0,0,0,0,-1,1861,442,0,0
644,582,0,0,0,0,0,0,0,0,0,-1,1868,442,0,0
651,582,0,0,0,0,0,0,0,0,0,-1,1875,442,0,0
658,582,0,0,0,0,0,0,0,0,0,-1,1882,442,0,0
665,582,0,0,0,0,0,0,0,0,0,-1,1889,442,0,0
672,582,0,0,0,0,0,0,0,0,0,-1,1896,442,0,0
679,582,0,0,0,0,0,0,0,0,0,-1,1903,442,0,0
686,582,0,0,0,0,0,0,0,0,0,-1,1910,442,0,0
693,582,0,0,0,0,0,0,0,0,0,-1,1917,442,0,0
700,582,0,0,0,0,0,0,0,0,0,-1,1924,442,0,0
707,582,0,0,0,0,0,0,0,0,0,-1,1931,442,0,0
714,582,0,0,0,0,0,0,0,0,0,-1,1938,442,0,0
721,582,0,0,0,0,0,0,0,0,0,-1,1945,442,0,0
728,582,0,0,0,0,0,0,0,0,0,-1,1952,442,0,0
735,582,0,0,0,0,0,0,0,0,0,-1,1959,442,0,0
742,582,0,0,0,0,0,0,0,0,0,-1,1966,442,0,0
749,582,0,0,0,0,0,0,0,0,0,-1,1973,442,0,0
756,582,0,0,0,0,0,0,0,0,0,-1,1980,442,0,0
763,582,0,0,0,0,0,0,0,0,0,-1,1987,442,0,0
770,582,0,0,0,0,0,0,0,0,0,-1,1994,442,0,0
777,582,0,0,0,0,0,0,0,0,0,-1,2001,442,0,0
784,582,0,0,0,0,0,0,0,0,0,-1,2008,442,0,0
791,582,0,0,0,0,0,0,0,0,0,-1,2015,442,0,0
798,582,0,0,0,0,0,0,0,0,0,-1,2022,442,0,0
805,582,0,0,0,0,0,0,0,0,0,-1,2029,442,0,0
812,582,0,0,0,0,0,0,0,0,0,-1,2036,442,0,0
-700,575,0,0,0,0,0,0,0,0,0,-1,524,449,0,0
-693,575,0,0,0,0,0,0,0,0,0,-1,531,449,0,0
-686,575,0,0,0,0,0,0,0,0,0,-1,538,449,0,0
-679,575,0,0,0,0,0,0,0,0,0,-1,545,449,0,0
-672,575,0,0,0,0,0,0,0,0,0,-1,552,449,0,0
-665,575,0,0,0,0,0,0,0,0,0,-1,559,449,0,0
-658,575,0,0,0,0,0,0,0,0,0,-1,566,449,0,0
-651,575,0,0,0,0,0,0,0,0,0,-1,573,449,0,0
-644,575,0,0,0,0,0,0,0,0,0,-1,580,449,0,0
-637,575,0,0,0,0,0,0,0,0,0,-1,587,449,0,0
-630,575,0,0,0,0,0,0,0,0,0,-1,594,449,0,0
-623,575,0,0,0,0,0,0,0,0,0,-1,601,449,0,0
-616,575,0,0,0,0,0,0,0,0,0,-1,608,449,0,0
-609,575,0,0,0,0,0,0,0,0,0,-1,615,449,0,0
-602,575,0,0,0,0,0,0,0,0,0,-1,622,449,0,0
-595,575,0,0,0,0,0,0,0,0,0,-1,629,449,0,0
-588,575,0,0,0,0,0,0,0,0,0,-1,636,449,0,0
-581,575,0,0,0,0,0,0,0,0,0,-1,643,449,0,0
-574,575,0,0,0,0,0,0,0,0,0,-1,650,449,0,0
-567,575,0,0,0,0,0,0,0,0,0,-1,657,449,0,0
-560,575,0,0,0,0,0,0,0,0,0,-1,664,449,0,0
-553,575,0,0,0,0,0,0,0,0,0,-1,671,449,0,0
-546,575,0,0,0,0,0,0,0,0,0,-1,678,449,0,0
-539,575,0,0,0,0,0,0,0,0,0,-1,685,449,0,0
-532,575,0,0,0,0,0,0,0,0,0,-1,692,449,0,0
-525,575,0,0,0,0,0,0,0,0,0,-1,699,449,0,0
-518,575,0,0,0,0,0,0,0,0,0,-1,706,449,0,0
-511,575,0,0,0,0,0,0,0,0,0,-1,713,449,0,0
-504,575,0,0,0,0,0,0,0,0,0,-1,720,449,0,0
-497,575,0,0,0,0,0,0,0,0,0,-1,727,449,0,0
-490,575,0,0,0,0,0,0,0,0,0,-1,734,449,0,0
-483,575,0,0,0,0,0,0,0,0,0,-1,741,449,0,0
-476,575,0,0,0,0,0,0,0,0,0,-1,748,449,0,0
-469,575,0,0,0,0,0,0,0,0,0,-1,755,449,0,0
-462,575,0,0,0,0,0,0,0,0,0,-1,762,449,0,0
-455,575,0,0,0,0,0,0,0,0,0,-1,769,449,0,0
-448,575,0,0,0,0,0,0,0,0,0,-1,776,449,0,0
-441,575,0,0,0,0,0,0,0,0,0,-1,783,449,0,0
-434,575,0,0,0,0,0,0,0,0,0,-1,790,449,0,0
-427,575,0,0,0,0,0,0,0,0,0,-1,797,449,0,0
-420,575,0,0,0,0,0,0,0,0,0,-1,804,449,0,0
-413,575,0,0,0,0,0,0,0,0,0,-1,811,449,0,0
-406,575,0,0,0,0,0,0,0,0,0,-1,818,449,0,0
-399,575,0,0,0,0,0,0,0,0,0,-1,825,449,0,0
-392,575,0,0,0,0,0,0,0,0,0,-1,832,449,0,0
-385,575,0,0,0,0,0,0,0,0,0,-1,839,449,0,0
-378,575,0,0,0,0,0,0,0,0,0,-1,846,449,0,0
-371,575,7.91681,-2.22058,0,0,0,0,0,0,0,-1,853,449,7.91684,2.22059
-364,575,6.51013,-2.20682,0,0,0,0,0,0,0,-1,860,449,6.51011,2.20683
-357,575,5.23364,-2.39859,0,0,0,0,0,0,0,-1,867,449,5.23362,2.39859
-350,575,8.4682,-0.782471,0,0,0,0,0,0,0,-1,874,449,8.46822,0.782481
-343,575,0.321533,-1.33307,0,0,0,0,0,0,0,-1,881,449,0.321554,1.33308
-336,575,1.28082,-1.65912,-0.0707459,0.0374282,0.00862716,0.0381119,-0.0714296,1.49171,0.0642116,0.0489755,888,449,1.28083,1.65911
-329,575,1.97797,-1.93539,-0.0570053,0.0320055,0.00625735,0.0324432,-0.057443,1.50096,0.0525606,0.0497628,895,449,1.97795,1.93539
-322,575,1.60638,-1.86987,0,0,0,0,0,0,0,-1,902,449,1.60637,1.86989
-315,575,1.77771,-1.88086,0,0,0,0,0,0,0,-1,909,449,1.77773,1.88085
-308,575,2.04132,-2.00198,0,0,0,0,0,0,0,-1,916,449,2.04131,2.00197
-301,575,1.7735,-1.94272,-0.0253495,0.0243964,0.00536591,0.0249686,-0.0259218,1.46456,0.0293833,0.0290282,923,449,1.77349,1.94272
-294,575,1.74518,-2.00858,-0.0214017,0.0231017,0.00564703,0.023807,-0.022107,1.44653,0.0265146,0.0213938,930,449,1.74515,2.00857
-287,575,1.7392,-2.09683,-0.0182305,0.0218656,0.00580591,0.0226894,-0.0190543,1.42985,0.0241312,0.0147996,937,449,1.73919,2.09683
-280,575,1.74353,-2.15933,-0.0159966,0.0199485,0.00586748,0.0208821,-0.0169301,1.41302,0.0218706,0.011446,944,449,1.74355,2.15934
-273,575,1.74744,-2.21494,-0.0136768,0.0179108,0.00523843,0.0187568,-0.0145229,1.41067,0.0192658,0.0110409,951,449,1.74746,2.21494
-266,575,1.73633,-2.28854,-0.0109267,0.0152415,0.00460289,0.0160275,-0.0117128,1.40166,0.0160803,0.0123607,958,449,1.73633,2.28856
-259,575,1.73712,-2.34637,-0.00838164,0.0124633,0.00361671,0.0130729,-0.00899132,1.40379,0.0128113,0.0120638,965,449,1.73714,2.34636
-252,575,1.73499,-2.40793,-0.00602199,0.0101797,0.00261085,0.01059,-0.00643233,1.41491,0.00992509,0.0106534,972,449,1.73498,2.40793
-245,575,1.71735,-2.44696,-0.00460945,0.00795055,0.00139072,0.00810269,-0.0047616,1.46183,0.00751024,0.0132531,979,449,1.71735,2.44697
-238,575,1.69867,-2.48456,-0.00371323,0.00596095,0.00041333,0.00597858,-0.00373086,1.52817,0.00565559,0.0133965,986,449,1.69868,2.48455
-231,575,1.70618,-2.53448,-0.00285011,0.00436222,-0.000203823,0.00436798,-0.00285587,-1.54257,0.00420104,0.0114641,993,449,1.70617,2.53448
-224,575,1.72028,-2.58942,-0.00231401,0.0034185,-0.000507285,0.00346305,-0.00235855,-1.48321,0.00338121,0.011926,1000,449,1.72029,2.58941
-217,575,1.73956,-2.63846,-0.00196206,0.00178731,-0.00114382,0.00210871,-0.00228345,-1.29688,0.00253648,0.0104891,1007,449,1.73954,2.63847
-210,575,1.74628,-2.70175,-0.00204167,0.0011464,-0.00102161,0.00144568,-0.00234094,-1.28582,0.00220648,0.00900389,1014,449,1.74629,2.70176
-203,575,1.75043,-2.75677,-0.00255764,0.000776856,-0.000768852,0.000945595,-0.00272638,-1.35475,0.00220155,0.011133,1021,449,1.7504,2.75679
-196,575,1.76624,-2.82724,-0.00348653,0.000187868,-0.00058194,0.000277831,-0.00357649,-1.41742,0.00248213,0.0133764,1028,449,1.76627,2.82726
-189,575,1.75391,-2.86749,-0.00449152,-0.000635485,-0.000432733,-0.000587519,-0.00453948,-1.4604,0.00285073,0.0142724,1035,449,1.75395,2.86749
-182,575,1.73621,-2.88113,-0.00536539,-0.00175499,-0.000428255,-0.00170488,-0.00541549,-1.45433,0.00319732,0.0129273,1042,449,1.73617,2.88112
-175,575,1.7478,-2.9068,-0.00592579,-0.00237257,-0.00115743,-0.0020288,-0.00626956,-1.28209,0.00369406,0.0113641,1049,449,1.74786,2.90679
-168,575,1.74475,-2.95911,-0.00621418,-0.00319868,-0.00162934,-0.00248651,-0.00692635,-1.15873,0.00405159,0.00982883,1056,449,1.74476,2.95912
-161,575,1.74988,-3.00522,-0.00619985,-0.00385151,-0.00233699,-0.0024103,-0.00764105,-1.01819,0.00451063,0.012707,1063,449,1.74994,3.00521
-154,575,1.76294,-3.02972,-0.00569471,-0.00432614,-0.00314464,-0.00179219,-0.00822866,-0.89253,0.00499668,0.0136242,1070,449,1.76299,3.02972
-147,575,1.77417,-3.05219,-0.00481404,-0.00461621,-0.00373322,-0.000980587,-0.00844966,-0.798643,0.00533636,0.0123582,1077,449,1.77414,3.05218
-140,575,1.74573,-3.08136,-0.00379925,-0.00461328,-0.00443821,0.000250561,-0.0086631,-0.739672,0.0058607,0.019134,1084,449,1.74578,3.08136
-133,575,1.73499,-3.13956,-0.00241685,-0.0047721,-0.00513313,0.00167201,-0.00886095,-0.672641,0.00653631,0.0286054,1091,449,1.73498,3.13955
-126,575,1.74426,-3.10184,-0.00100771,-0.00506637,-0.00564317,0.00295992,-0.009034,-0.612794,0.00721462,0.0325972,1098,449,1.74427,3.10182
-119,575,1.72241,-3.07657,0.000245352,-0.00525464,-0.00583977,0.00395023,-0.00895952,-0.565346,0.00763819,0.0373008,1105,449,1.72238,3.07657
-112,575,1.58691,-3.15106,0.00104547,-0.00541342,-0.00548509,0.0041812,-0.00854915,-0.519338,0.0074927,0.0428591,1112,449,1.58693,3.15105
-105,575,1.65295,-3.63715,0.00104307,-0.00544216,-0.0046029,0.00343084,-0.00782993,-0.478538,0.00666473,0.0422251,1119,449,1.653,3.63716
-98,575,1.96655,-3.57199,0.000346506,-0.00598505,-0.00342766,0.00184667,-0.00748521,-0.412548,0.00570619,0.042576,1126,449,1.96655,3.572
-91,575,2.32153,-3.02704,0,0,0,0,0,0,0,-1,1133,449,2.32154,3.02705
-84,575,2.6958,-2.28958,0,0,0,0,0,0,0,-1,1140,449,2.69576,2.28958
-77,575,2.38086,-2.267,0,0,0,0,0,0,0,-1,1147,449,2.38087,2.267
-70,575,1.82507,-3.27472,0,0,0,0,0,0,0,-1,1154,449,1.82508,3.27473
-63,575,0.256958,-2.33072,0,0,0,0,0,0,0,-1,1161,449,0.256993,2.33071
-56,575,-0.513672,-2.09262,0,0,0,0,0,0,0,-1,1168,449,-0.513615,2.09262
-49,575,-1.19238,-3.28647,0,0,0,0,0,0,0,-1,1175,449,-1.19232,3.28646
-42,575,-0.830322,0.773499,0,0,0,0,0,0,0,-1,1182,449,-0.83038,-0.77351
-35,575,-0.62085,0.205139,0,0,0,0,0,0,0,-1,1189,449,-0.620855,-0.205126
-28,575,0.49292,-3.87988,0,0,0,0,0,0,0,-1,1196,449,0.492941,3.87989
-21,575,1.62073,-3.29654,0,0,0,0,0,0,0,-1,1203,449,1.62076,3.29654
-14,575,5.42847,-1.7164,0,0,0,0,0,0,0,-1,1210,449,5.42847,1.7164
-7,575,4.77844,-2.8447,0,0,0,0,0,0,0,-1,1217,449,4.77839,2.8447
0,575,3.82104,-3.32468,-0.0679236,-0.0237909,-0.000470538,-0.0237859,-0.0679286,-1.56014,0.0398013,0.0456506,1224,449,3.821,3.32468
7,575,2.93079,-3.83496,-0.0654709,-0.0234507,0.0011863,-0.0234172,-0.0655044,1.54259,0.0383276,0.0467752,1231,449,2.9308,3.83496
14,575,2.82324,-4.02133,0,0,0,0,0,0,0,-1,1238,449,2.82324,4.02134
21,575,1.23743,-3.94608,-0.0448632,-0.0170465,0.00537235,-0.016045,-0.0458648,1.38649,0.0268752,0.0435454,1245,449,1.23738,3.94609
28,575,0.300903,-3.86615,-0.0293755,-0.0123023,0.00823614,-0.0089769,-0.032701,1.18705,0.0195094,0.0454964,1252,449,0.300938,3.86616
35,575,-0.660278,-3.80341,0,0,0,0,0,0,0,-1,1259,449,-0.660241,3.8034
42,575,-2.39832,-2.95337,0,0,0,0,0,0,0,-1,1266,449,-2.39833,2.95338
49,575,-3.17969,-2.53152,0.0190189,-0.00157451,0.0220313,0.0330409,-0.0155965,0.566797,0.0286765,0.0417566,1273,449,-3.17971,2.53152
56,575,-3.75867,-2.04022,0.0308766,0.0037058,0.0285627,0.0489202,-0.0143378,0.563415,0.0382981,0.0414364,1280,449,-3.75864,2.04023
63,575,1.28113,-6.06433,0.0383467,0.00813812,0.0347626,0.0611446,-0.0146598,0.580454,0.0464276,0.0429667,1287,449,1.28117,6.06433
70,575,1.28186,-5.45386,0.0440562,0.0114777,0.0413829,0.0722403,-0.0167065,0.5979,0.0545879,0.04234,1294,449,1.28183,5.45386
77,575,1.20117,-3.97427,0.045414,0.0122188,0.0483418,0.0799282,-0.0222954,0.620034,0.0620667,0.0449321,1301,449,1.20118,3.97426
84,575,1.40173,-2.34073,0.043859,0.0139467,0.054501,0.0854188,-0.0276131,0.651485,0.0680442,0.0474035,1308,449,1.4017,2.34072
91,575,1.5177,-0.756317,0.0405114,0.014133,0.0597059,0.0884675,-0.0338232,0.676692,0.0729162,0.0472526,1315,449,1.51771,0.756325
98,575,1.61584,0.931976,0.0304681,0.0139524,0.0641164,0.0868562,-0.0424358,0.721353,0.0761011,0.0440945,1322,449,1.61588,-0.931978
105,575,1.30737,2.5925,0,0,0,0,0,0,0,-1,1329,449,1.30732,-2.59251
112,575,1.04065,3.68576,0,0,0,0,0,0,0,-1,1336,449,1.04062,-3.68577
119,575,0.755249,4.76825,0,0,0,0,0,0,0,-1,1343,449,0.755281,-4.76826
126,575,0.467407,-8.59113,-0.00495366,0.00721385,0.0694312,0.0708273,-0.0685671,0.829098,0.0804829,0.0470333,1350,449,0.467435,8.59114
133,575,0.520508,-6.85959,0,0,0,0,0,0,0,-1,1357,449,0.52051,6.85959
140,575,0.503906,-4.87347,0,0,0,0,0,0,0,-1,1364,449,0.503956,4.87349
147,575,0.192871,-3.12506,0,0,0,0,0,0,0,-1,1371,449,0.192918,3.12507
154,575,3.14734,-3.25128,0,0,0,0,0,0,0,-1,1378,449,3.14736,3.25127
161,575,2.28821,-3.35773,0,0,0,0,0,0,0,-1,1385,449,2.2882,3.35774
168,575,5.30933,-2.13431,0,0,0,0,0,0,0,-1,1392,449,5.30937,2.13431
175,575,4.32617,1.93634,0,0,0,0,0,0,0,-1,1399,449,4.32612,-1.93634
182,575,6.3147,-2.88345,0,0,0,0,0,0,0,-1,1406,449,6.31466,2.88346
189,575,6.10449,-1.30817,0,0,0,0,0,0,0,-1,1413,449,6.10455,1.30817
196,575,5.79895,0.818359,0,0,0,0,0,0,0,-1,1420,449,5.79895,-0.81837
203,575,3.29724,-1.46378,0,0,0,0,0,0,0,-1,1427,449,3.29722,1.46377
210,575,2.85376,-2.52502,0,0,0,0,0,0,0,-1,1434,449,2.85375,2.52503
217,575,2.49622,-3.26077,0,0,0,0,0,0,0,-1,1441,449,2.49623,3.26078
224,575,2.36267,-3.57394,0,0,0,0,0,0,0,-1,1448,449,2.36267,3.57393
231,575,2.48401,-3.47144,-0.0106126,-0.00871744,0.00236879,-0.00711372,-0.0122163,0.97566,0.00708486,0.0477133,1455,449,2.48402,3.47144
238,575,2.52832,-3.19946,-0.0104202,-0.0119957,-0.00267589,-0.00841853,-0.0139974,-0.642255,0.00813664,0.04545,1462,449,2.52833,3.19947
245,575,2.53748,-3.08551,-0.00969451,-0.014091,-0.00552464,-0.00594683,-0.0178386,-0.596053,0.0104881,0.0427686,1469,449,2.53747,3.08551
252,575,2.38098,-2.79669,-0.00866166,-0.0149122,-0.00698187,-0.00413751,-0.0194364,-0.574958,0.0118223,0.0366801,1476,449,2.38103,2.7967
259,575,2.39758,-2.96854,-0.00714346,-0.0144846,-0.00723051,-0.00270518,-0.0189229,-0.550525,0.0118172,0.0327603,1483,449,2.39763,2.96852
266,575,2.41846,-3.02414,-0.0059663,-0.012767,-0.00686848,-0.00170254,-0.0170307,-0.555553,0.010831,0.0255723,1490,449,2.41851,3.02414
273,575,2.43237,-2.9852,-0.00501334,-0.0112701,-0.00650196,-0.000926284,-0.0153571,-0.561175,0.0099437,0.0178636,1497,449,2.43236,2.98519
280,575,2.39429,-2.95132,-0.0041734,-0.00973713,-0.00620017,-0.000159613,-0.0137509,-0.574522,0.00911454,0.0137044,1504,449,2.39427,2.95133
287,575,2.40271,-2.90515,-0.00346952,-0.00823458,-0.00576664,0.000387387,-0.0120915,-0.5895,0.00819318,0.0109391,1511,449,2.40274,2.90514
294,575,2.39612,-2.84653,-0.00244017,-0.0063972,-0.00514218,0.00109099,-0.00992837,-0.601747,0.00701093,0.00992079,1518,449,2.39617,2.84652
301,575,2.40881,-2.81525,-0.00149728,-0.00473556,-0.00474713,0.00189925,-0.00813209,-0.621046,0.00615297,0.00979533,1525,449,2.40876,2.81526
308,575,2.42798,-2.76996,-0.00104823,-0.00329859,-0.00418077,0.00215612,-0.00650294,-0.653947,0.00520505,0.0101437,1532,449,2.42797,2.76995
315,575,2.41382,-2.71509,-0.00110835,-0.00231638,-0.00348263,0.00182226,-0.00524699,-0.699534,0.00423808,0.0103563,1539,449,2.41378,2.71509
322,575,2.42163,-2.65237,-0.000873961,-0.00146977,-0.00296277,0.00180584,-0.00414957,-0.735292,0.003526,0.00961663,1546,449,2.4216,2.65239
329,575,2.42322,-2.61288,-0.000322535,-0.000881012,-0.00228111,0.00169636,-0.00289991,-0.724494,0.00268381,0.00975136,1553,449,2.42326,2.61288
336,575,2.41077,-2.55783,-0.000233068,-0.000337936,-0.00173955,0.00145484,-0.00202584,-0.770332,0.00201857,0.0115007,1560,449,2.41076,2.55782
343,575,2.42151,-2.49783,-0.00030908,0.000451823,-0.0015263,0.00164437,-0.00150163,-0.907541,0.00181696,0.011387,1567,449,2.42148,2.49785
350,575,2.4325,-2.45361,0.00017131,0.00122756,-0.00134014,0.00213988,-0.000741013,-0.973095,0.00172741,0.0110262,1574,449,2.43255,2.4536
357,575,2.44055,-2.40659,0.000997778,0.00168138,-0.00129402,0.00267798,1.17882e-06,-0.914519,0.00178493,0.011515,1581,449,2.44055,2.4066
364,575,2.42639,-2.34674,0.0020358,0.00185,-0.00137782,0.00332384,0.00056195,-0.751736,0.00205436,0.0108938,1588,449,2.42639,2.34673
371,575,2.41345,-2.30814,0.00337117,0.00187896,-0.00177134,0.00454713,0.000703005,-0.586071,0.00282638,0.0186371,1595,449,2.41347,2.30814
378,575,2.43726,-2.25604,0.00474232,0.00176867,-0.00260181,0.00625217,0.000258817,-0.525814,0.00408458,0.0180947,1602,449,2.43723,2.25605
385,575,2.42761,-2.1868,0.00619882,0.00165023,-0.00338567,0.00800315,-0.000154096,-0.489644,0.00538753,0.0113409,1609,449,2.42762,2.18681
392,575,2.41577,-2.13306,0.00767953,0.00134014,-0.00434303,0.00988653,-0.000866863,-0.470163,0.00689815,0.00949581,1616,449,2.41573,2.13307
399,575,2.41943,-2.0748,0.00919715,0.00100334,-0.00533027,0.0118231,-0.00162258,-0.457745,0.00847484,0.0102664,1623,449,2.41943,2.0748
406,575,2.4209,-1.99484,0.010771,0.000339855,-0.00640434,0.0138148,-0.00270398,-0.443674,0.010231,0.0107046,1630,449,2.42086,1.99485
413,575,2.41638,-1.93405,0.0120415,-0.000458835,-0.00752434,0.0155729,-0.0039903,-0.43882,0.0119365,0.0108528,1637,449,2.41644,1.93404
420,575,2.39404,-1.84961,0.0129429,-0.00130913,-0.00847789,0.0168918,-0.00525808,-0.435911,0.0133633,0.0112479,1644,449,2.39404,1.8496
427,575,2.3717,-1.78192,0.01405,-0.00239441,-0.00831389,0.0175208,-0.00586516,-0.395471,0.0140498,0.0145945,1651,449,2.37169,1.78192
434,575,2.3584,-1.7287,0.0149243,-0.00324717,-0.00807293,0.0179927,-0.00631556,-0.36322,0.0145642,0.0192524,1658,449,2.35845,1.72868
441,575,2.41174,-1.61456,0.0157146,-0.00425999,-0.0070242,0.0179374,-0.00648275,-0.306473,0.0146068,0.0330037,1665,449,2.41168,1.61455
448,575,2.52649,-1.40625,0.0160675,-0.00604473,-0.00516174,0.017213,-0.0071903,-0.218396,0.01448,0.0478657,1672,449,2.52647,1.40624
455,575,2.68115,-1.29834,0,0,0,0,0,0,0,-1,1679,449,2.68112,1.29833
462,575,0.998047,-0.339935,0,0,0,0,0,0,0,-1,1686,449,0.99803,0.339922
469,575,2.70337,-1.81784,0,0,0,0,0,0,0,-1,1693,449,2.70336,1.81784
476,575,3.25012,-1.92508,0.0300119,-0.00649003,0.0214079,0.0398926,-0.0163708,0.432416,0.0334166,0.0439083,1700,449,3.25007,1.92507
483,575,3.74817,-1.41547,0,0,0,0,0,0,0,-1,1707,449,3.7482,1.41545
490,575,4.26257,-0.975128,0,0,0,0,0,0,0,-1,1714,449,4.26262,0.975133
497,575,0,0,0,0,0,0,0,0,0,-1,1721,449,0,0
504,575,0,0,0,0,0,0,0,0,0,-1,1728,449,0,0
511,575,0,0,0,0,0,0,0,0,0,-1,1735,449,0,0
518,575,0,0,0,0,0,0,0,0,0,-1,1742,449,0,0
525,575,0,0,0,0,0,0,0,0,0,-1,1749,449,0,0
532,575,0,0,0,0,0,0,0,0,0,-1,1756,449,0,0
539,575,0,0,0,0,0,0,0,0,0,-1,1763,449,0,0
546,575,0,0,0,0,0,0,0,0,0,-1,1770,449,0,0
553,575,0,0,0,0,0,0,0,0,0,-1,1777,449,0,0
560,575,0,0,0,0,0,0,0,0,0,-1,1784,449,0,0
567,575,0,0,0,0,0,0,0,0,0,-1,1791,449,0,0
574,575,0,0,0,0,0,0,0,0,0,-1,1798,449,0,0
581,575,0,0,0,0,0,0,0,0,0,-1,1805,449,0,0
588,575,0,0,0,0,0,0,0,0,0,-1,1812,449,0,0
595,575,0,0,0,0,0,0,0,0,0,-1,1819,449,0,0
602,575,0,0,0,0,0,0,0,0,0,-1,1826,449,0,0
609,575,0,0,0,0,0,0,0,0,0,-1,1833,449,0,0
616,575,0,0,0,0,0,0,0,0,0,-1,1840,449,0,0
623,575,0,0,0,0,0,0,0,0,0,-1,1847,449,0,0
630,575,0,0,0,0,0,0,0,0,0,-1,1854,449,0,0
637,575,0,0,0,0,0,0,0,0,0,-1,1861,449,0,0
644,575,0,0,0,0,0,0,0,0,0,-1,1868,449,0,0
651,575,0,0,0,0,0,0,0,0,0,-1,1875,449,0,0
658,575,0,0,0,0,0,0,0,0,0,-1,1882,449,0,0
665,575,0,0,0,0,0,0,0,0,0,-1,1889,449,0,0
672,575,0,0,0,0,0,0,0,0,0,-1,1896,449,0,0
679,575,0,0,0,0,0,0,0,0,0,-1,1903,449,0,0
686,575,0,0,0,0,0,0,0,0,0,-1,1910,449,0,0
693,575,0,0,0,0,0,0,0,0,0,-1,1917,449,0,0
700,575,0,0,0,0,0,0,0,0,0,-1,1924,449,0,0
707,575,0,0,0,0,0,0,0,0,0,-1,1931,449,0,0
714,575,0,0,0,0,0,0,0,0,0,-1,1938,449,0,0
721,575,0,0,0,0,0,0,0,0,0,-1,1945,449,0,0
728,575,0,0,0,0,0,0,0,0,0,-1,1952,449,0,0
735,575,0,0,0,0,0,0,0,0,0,-1,1959,449,0,0
742,575,0,0,0,0,0,0,0,0,0,-1,1966,449,0,0
749,575,0,0,0,0,0,0,0,0,0,-1,1973,449,0,0
756,575,0,0,0,0,0,0,0,0,0,-1,1980,449,0,0
763,575,0,0,0,0,0,0,0,0,0,-1,1987,449,0,0
770,575,0,0,0,0,0,0,0,0,0,-1,1994,449,0,0
777,575,0,0,0,0,0,0,0,0,0,-1,2001,449,0,0
784,575,0,0,0,0,0,0,0,0,0,-1,2008,449,0,0
791,575,0,0,0,0,0,0,0,0,0,-1,2015,449,0,0
798,575,0,0,0,0,0,0,0,0,0,-1,2022,449,0,0
805,575,0,0,0,0,0,0,0,0,0,-1,2029,449,0,0
812,575,0,0,0,0,0,0,0,0,0,-1,2036,449,0,0
-700,568,0,0,0,0,0,0,0,0,0,-1,524,456,0,0
-693,568,0,0,0,0,0,0,0,0,0,-1,531,456,0,0
-686,568,0,0,0,0,0,0,0,0,0,-1,538,456,0,0
-679,568,0,0,0,0,0,0,0,0,0,-1,545,456,0,0
-672,568,0,0,0,0,0,0,0,0,0,-1,552,456,0,0
-665,568,0,0,0,0,0,0,0,0,0,-1,559,456,0,0
-658,568,0,0,0,0,0,0,0,0,0,-1,566,456,0,0
-651,568,0,0,0,0,0,0,0,0,0,-1,573,456,0,0
-644,568,0,0,0,0,0,0,0,0,0,-1,580,456,0,0
-637,568,0,0,0,0,0,0,0,0,0,-1,587,456,0,0
-630,568,0,0,0,0,0,0,0,0,0,-1,594,456,0,0
-623,568,0,0,0,0,0,0,0,0,0,-1,601,456,0,0
-616,568,0,0,0,0,0,0,0,0,0,-1,608,456,0,0
-609,568,0,0,0,0,0,0,0,0,0,-1,615,456,0,0
-602,568,0,0,0,0,0,0,0,0,0,-1,622,456,0,0
-595,568,0,0,0,0,0,0,0,0,0,-1,629,456,0,0
-588,568,0,0,0,0,0,0,0,0,0,-1,636,456,0,0
-581,568,0,0,0,0,0,0,0,0,0,-1,643,456,0,0
-574,568,0,0,0,0,0,0,0,0,0,-1,650,456,0,0
-567,568,0,0,0,0,0,0,0,0,0,-1,657,456,0,0
-560,568,0,0,0,0,0,0,0,0,0,-1,664,456,0,0
-553,568,0,0,0,0,0,0,0,0,0,-1,671,456,0,0
-546,568,0,0,0,0,0,0,0,0,0,-1,678,456,0,0
-539,568,0,0,0,0,0,0,0,0,0,-1,685,456,0,0
-532,568,0,0,0,0,0,0,0,0,0,-1,692,456,0,0
-525,568,0,0,0,0,0,0,0,0,0,-1,699,456,0,0
-518,568,0,0,0,0,0,0,0,0,0,-1,706,456,0,0
-511,568,0,0,0,0,0,0,0,0,0,-1,713,456,0,0
-504,568,0,0,0,0,0,0,0,0,0,-1,720,456,0,0
-497,568,0,0,0,0,0,0,0,0,0,-1,727,456,0,0
-490,568,0,0,0,0,0,0,0,0,0,-1,734,456,0,0
-483,568,0,0,0,0,0,0,0,0,0,-1,741,456,0,0
-476,568,0,0,0,0,0,0,0,0,0,-1,748,456,0,0
-469,568,0,0,0,0,0,0,0,0,0,-1,755,456,0,0
-462,568,0,0,0,0,0,0,0,0,0,-1,762,456,0,0
-455,568,0,0,0,0,0,0,0,0,0,-1,769,456,0,0
-448,568,0,0,0,0,0,0,0,0,0,-1,776,456,0,0
-441,568,0,0,0,0,0,0,0,0,0,-1,783,456,0,0
-434,568,0,0,0,0,0,0,0,0,0,-1,790,456,0,0
-427,568,0,0,0,0,0,0,0,0,0,-1,797,456,0,0
-420,568,0,0,0,0,0,0,0,0,0,-1,804,456,0,0
-413,568,0,0,0,0,0,0,0,0,0,-1,811,456,0,0
-406,568,0,0,0,0,0,0,0,0,0,-1,818,456,0,0
-399,568,0,0,0,0,0,0,0,0,0,-1,825,456,0,0
-392,568,0,0,0,0,0,0,0,0,0,-1,832,456,0,0
-385,568,0,0,0,0,0,0,0,0,0,-1,839,456,0,0
-378,568,8.78973,-2.73801,0,0,0,0,0,0,0,-1,846,456,8.78972,2.738
-371,568,7.58063,-2.98709,-0.128329,0.0521093,0.0167755,0.0536557,-0.129875,1.47888,0.108965,0.0479491,853,456,7.58064,2.98708
-364,568,6.24854,-3.09851,-0.115399,0.0515787,0.0162431,0.0531441,-0.116964,1.47472,0.10049,0.0467732,860,456,6.24854,3.0985
-357,568,4.90015,-2.93863,-0.101843,0.0484511,0.0147824,0.0498913,-0.103283,1.47368,0.090208,0.0459026,867,456,4.90014,2.93864
-350,568,3.7309,-2.71976,-0.0882097,0.0449353,0.0137072,0.0463318,-0.0896062,1.46927,0.0797984,0.049389,874,456,3.7309,2.71975
-343,568,2.77087,-2.35199,0,0,0,0,0,0,0,-1,881,456,2.77087,2.35199
-336,568,2.01361,-2.017,-0.0561326,0.0313471,0.00773061,0.032025,-0.0568105,1.48333,0.0519504,0.0482614,888,456,2.01361,2.01699
-329,568,1.62048,-1.77579,-0.0446203,0.0264551,0.00576416,0.0269196,-0.0450848,1.4904,0.0420104,0.0463911,895,456,1.6205,1.77578
-322,568,1.62286,-1.83813,-0.0359295,0.0246228,0.00547462,0.0251138,-0.0364205,1.48135,0.0357262,0.0414762,902,456,1.62287,1.83812
-315,568,1.68518,-1.83994,-0.0282816,0.0218204,0.00476495,0.0222695,-0.0287307,1.47681,0.0295236,0.0358482,909,456,1.68517,1.83994
-308,568,1.71777,-1.89349,-0.0223341,0.0199119,0.00438579,0.0203624,-0.0227846,1.46844,0.024924,0.0235617,916,456,1.71777,1.89348
-301,568,1.71588,-1.9873,-0.0177859,0.0181296,0.00421199,0.0186169,-0.0182733,1.4556,0.0212989,0.0126708,923,456,1.7159,1.9873
-294,568,1.69568,-2.03098,-0.0147335,0.0169598,0.00431041,0.0175355,-0.0153092,1.438,0.0189775,0.0103071,930,456,1.69571,2.03098
-287,568,1.68567,-2.10666,-0.0124644,0.0159185,0.00437891,0.0165787,-0.0131246,1.42115,0.0171878,0.00977149,937,456,1.6857,2.10665
-280,568,1.68622,-2.17374,-0.0109202,0.0144213,0.00440359,0.0151647,-0.0116636,1.40356,0.0155332,0.0101055,944,456,1.68622,2.17374
-273,568,1.6947,-2.22531,-0.00928255,0.0128458,0.00387148,0.0135036,-0.00994034,1.4025,0.0135874,0.0111627,951,456,1.69471,2.22531
-266,568,1.68774,-2.28207,-0.00712554,0.0107831,0.00332557,0.0113807,-0.00772315,1.39299,0.0110968,0.0109108,958,456,1.68773,2.28208
-259,568,1.68329,-2.35028,-0.00520049,0.0086493,0.00256639,0.00910956,-0.00566075,1.39334,0.00860478,0.0123056,965,456,1.68327,2.35029
-252,568,1.67517,-2.41321,-0.00350335,0.00694655,0.00179919,0.00724765,-0.00380445,1.40498,0.00648333,0.012124,972,456,1.67517,2.4132
-245,568,1.67035,-2.45096,-0.00243081,0.00538079,0.000885205,0.00547985,-0.00252987,1.45936,0.0047278,0.0133896,979,456,1.67038,2.45097
-238,568,1.6684,-2.48511,-0.00189302,0.00395211,0.000153542,0.00395614,-0.00189705,1.54455,0.00344834,0.0121975,986,456,1.66841,2.48511
-231,568,1.67615,-2.53519,-0.00169719,0.00277354,-0.000254583,0.00278799,-0.00171164,-1.5141,0.00262252,0.01062,993,456,1.67617,2.53519
-224,568,1.67413,-2.58698,-0.00191228,0.00216331,-0.000391179,0.00220052,-0.00194948,-1.47597,0.00239747,0.0125453,1000,456,1.67415,2.58697
-217,568,1.6936,-2.63498,-0.00241247,0.00101192,-0.000790091,0.00118542,-0.00258597,-1.35463,0.0022269,0.011152,1007,456,1.69359,2.63498
-210,568,1.69257,-2.69974,-0.00340687,0.000385354,-0.000640141,0.000490497,-0.00351202,-1.408,0.0025208,0.0107523,1014,456,1.69254,2.69974
-203,568,1.68744,-2.75836,-0.00474354,3.74715e-05,-0.000411505,7.26313e-05,-0.0047787,-1.48556,0.00321029,0.0098815,1021,456,1.68745,2.75836
-196,568,1.70361,-2.7951,-0.00643511,-0.000624588,-0.000261451,-0.000612848,-0.00644685,-1.52592,0.00410888,0.0121077,1028,456,1.70359,2.79511
-189,568,1.70178,-2.83249,-0.00808089,-0.00162821,-0.000353558,-0.0016089,-0.0081002,-1.51622,0.00495174,0.011544,1035,456,1.70175,2.8325
-182,568,1.70032,-2.8569,-0.00941514,-0.00303239,-0.000739838,-0.00294776,-0.00949978,-1.4569,0.00561474,0.0129162,1042,456,1.70035,2.85689
-175,568,1.71777,-2.89896,-0.0101967,-0.00373562,-0.00206844,-0.00313017,-0.0108021,-1.28604,0.00641774,0.012058,1049,456,1.71772,2.89896
-168,568,1.71472,-2.94812,-0.0104832,-0.00475559,-0.00304885,-0.00343647,-0.0118023,-1.16245,0.00700938,0.0153709,1056,456,1.71476,2.94812
-161,568,1.72437,-2.97382,-0.0103493,-0.00562242,-0.00434991,-0.00303535,-0.0129364,-1.03425,0.00781158,0.0214402,1063,456,1.72433,2.97383
-154,568,1.75269,-3.02255,-0.00944641,-0.00631618,-0.00577622,-0.00189679,-0.0138658,-0.9177,0.00868096,0.0280482,1070,456,1.75267,3.02254
-147,568,1.72229,-3.06207,-0.00802765,-0.00682131,-0.00689424,-0.000503905,-0.0143451,-0.829032,0.00939991,0.0326753,1077,456,1.72234,3.06208
-140,568,1.53748,-3.16077,-0.00642961,-0.00684157,-0.00807189,0.00143893,-0.0147101,-0.772642,0.0103199,0.0377843,1084,456,1.53743,3.16078
-133,568,1.43835,-3.19397,-0.00425152,-0.00695934,-0.00914937,0.00364357,-0.0148544,-0.711942,0.0113147,0.0409195,1091,456,1.43833,3.19397
-126,568,1.31482,-3.11551,0,0,0,0,0,0,0,-1,1098,456,1.31477,3.11551
-119,568,1.63562,-2.84393,0,0,0,0,0,0,0,-1,1105,456,1.63559,2.84394
-112,568,1.84839,-3.06485,0,0,0,0,0,0,0,-1,1112,456,1.84843,3.06484
-105,568,1.69995,-3.91803,0.00108428,-0.00694843,-0.00807864,0.00608988,-0.011954,-0.554713,0.0105994,0.0459525,1119,456,1.7,3.91802
-98,568,1.63855,-3.918,0.000121623,-0.00736314,-0.00608823,0.00352571,-0.0107672,-0.509822,0.00859782,0.0432462,1126,456,1.63851,3.91801
-91,568,1.76086,-3.70752,0,0,0,0,0,0,0,-1,1133,456,1.76086,3.70751
-84,568,0.928955,-2.75778,0,0,0,0,0,0,0,-1,1140,456,0.928906,2.75777
-77,568,1.45227,-3.08649,0,0,0,0,0,0,0,-1,1147,456,1.45224,3.0865
-70,568,1.92114,-3.43353,0,0,0,0,0,0,0,-1,1154,456,1.9211,3.43355
-63,568,-0.152222,-4.4194,0,0,0,0,0,0,0,-1,1161,456,-0.152252,4.41941
-56,568,-0.700684,-5.88092,0,0,0,0,0,0,0,-1,1168,456,-0.700632,5.88093
-49,568,-1.05188,-7.59601,0,0,0,0,0,0,0,-1,1175,456,-1.05193,7.59599
-42,568,-0.664795,0.521973,0,0,0,0,0,0,0,-1,1182,456,-0.664829,-0.521984
-35,568,-0.153076,-1.67731,0,0,0,0,0,0,0,-1,1189,456,-0.153068,1.67731
-28,568,1.25439,-4.48798,0,0,0,0,0,0,0,-1,1196,456,1.2544,4.48797
-21,568,6.09729,-1.56949,0,0,0,0,0,0,0,-1,1203,456,6.09725,1.56949
-14,568,5.32117,-2.1713,0,0,0,0,0,0,0,-1,1210,456,5.32113,2.1713
-7,568,4.60693,-2.72034,0,0,0,0,0,0,0,-1,1217,456,4.6069,2.72032
0,568,3.7887,-3.36606,-0.0812058,-0.0340723,-0.00371472,-0.0337813,-0.0814967,-1.49263,0.0472809,0.0470454,1224,456,3.78865,3.36605
7,568,2.86121,-3.85132,-0.0789246,-0.0338672,-0.00222485,-0.0337576,-0.0790342,-1.52158,0.0457917,0.0462816,1231,456,2.86118,3.85132
14,568,1.53149,-3.90573,-0.0688367,-0.0308442,-0.000108452,-0.0308439,-0.068837,-1.56794,0.0398144,0.0439188,1238,456,1.5315,3.90574
21,568,0.865112,-3.59299,-0.0522241,-0.0263006,0.00152345,-0.0262114,-0.0523133,1.5123,0.0302031,0.0398076,1245,456,0.865094,3.59298
28,568,0.230957,-3.46515,-0.0318281,-0.0204913,0.00382479,-0.0193216,-0.0329978,1.274,0.019144,0.0429734,1252,456,0.230979,3.46514
35,568,-0.57605,-3.1297,-0.0103456,-0.014609,0.00741835,-0.00475876,-0.0201959,0.64549,0.0121913,0.0421071,1259,456,-0.576093,3.1297
42,568,-1.58801,-2.66742,0.0109558,-0.00844929,0.012339,0.0169501,-0.0144436,0.452222,0.0181444,0.0426016,1266,456,-1.58798,2.66741
49,568,-2.46545,-2.33456,0.0300392,-0.00644225,0.0178245,0.0373021,-0.0137052,0.38693,0.0304815,0.0439867,1273,456,-2.46543,2.33456
56,568,-3.15051,-1.60181,0.0429141,0.00173579,0.0257076,0.0552612,-0.0106113,0.447754,0.04084,0.0414023,1280,456,-3.15047,1.60179
63,568,1.28992,-7.1283,0,0,0,0,0,0,0,-1,1287,456,1.28992,7.12828
70,568,1.229,-5.79568,0,0,0,0,0,0,0,-1,1294,456,1.22904,5.79568
77,568,1.16821,-4.46307,0,0,0,0,0,0,0,-1,1301,456,1.16817,4.46307
84,568,1.56091,-2.48691,0.0547321,0.0233364,0.0599821,0.101036,-0.022968,0.657414,0.0761767,0.0462245,1308,456,1.56088,2.48691
91,568,1.64685,-0.877716,0.0507549,0.0255534,0.0675149,0.106835,-0.0305265,0.693141,0.0832849,0.0449184,1315,456,1.64688,0.877708
98,568,1.70056,0.727966,0,0,0,0,0,0,0,-1,1322,456,1.70052,-0.72796
105,568,1.31946,2.54379,0,0,0,0,0,0,0,-1,1329,456,1.3194,-2.5438
112,568,1.33337,3.45706,0,0,0,0,0,0,0,-1,1336,456,1.33334,-3.45707
119,568,1.25476,4.47171,0,0,0,0,0,0,0,-1,1343,456,1.25477,-4.47171
126,568,0.0704346,-7.96085,0,0,0,0,0,0,0,-1,1350,456,0.0704059,7.96085
133,568,0.450073,-6.17563,0,0,0,0,0,0,0,-1,1357,456,0.450057,6.17564
140,568,-0.129395,-4.91794,0,0,0,0,0,0,0,-1,1364,456,-0.129441,4.91794
147,568,1.80286,-4.18668,-0.0162005,0.0165376,0.0826319,0.0844062,-0.084069,0.88318,0.0972693,0.0462545,1371,456,1.80282,4.18666
154,568,0.991821,-3.89572,-0.0174317,0.0197137,0.0829637,0.0861581,-0.0838761,0.895515,0.0981723,0.0435828,1378,456,0.991808,3.89573
161,568,0.126587,-3.6636,0,0,0,0,0,0,0,-1,1385,456,0.126538,3.66359
168,568,4.63586,-0.333038,0,0,0,0,0,0,0,-1,1392,456,4.63589,0.333025
175,568,6.39026,-5.55472,0,0,0,0,0,0,0,-1,1399,456,6.39023,5.55471
182,568,6.35095,-3.63361,-0.0144374,0.0235427,0.0725831,0.0795789,-0.0704735,0.913346,0.0866859,0.0489903,1406,456,6.35093,3.63359
189,568,6.17493,-1.70911,-0.0137118,0.0178615,0.0616499,0.0657139,-0.0615642,0.910739,0.0734971,0.0463958,1413,456,6.17497,1.70911
196,568,6.04724,0.200836,-0.0131829,0.0113807,0.0497433,0.050336,-0.0521382,0.90643,0.0591665,0.0433395,1420,456,6.04724,-0.200835
203,568,5.9281,2.08649,0,0,0,0,0,0,0,-1,1427,456,5.92812,-2.08648
210,568,5.1626,3.40146,0,0,0,0,0,0,0,-1,1434,456,5.16254,-3.40145
217,568,4.68774,5.07867,0,0,0,0,0,0,0,-1,1441,456,4.68771,-5.07869
224,568,4.24548,6.79688,0,0,0,0,0,0,0,-1,1448,456,4.24545,-6.79688
231,568,2.57275,-3.52347,0,0,0,0,0,0,0,-1,1455,456,2.57271,3.52347
238,568,2.70386,-3.24176,0,0,0,0,0,0,0,-1,1462,456,2.70388,3.24176
245,568,2.54724,-2.91751,-0.0137438,-0.0196744,-0.00682584,-0.00926703,-0.0241513,-0.580486,0.0140689,0.0485477,1469,456,2.54729,2.91751
252,568,2.40222,-2.45639,-0.0126383,-0.0204519,-0.00865622,-0.00704811,-0.0260421,-0.573419,0.0155538,0.0450574,1476,456,2.4022,2.45638
259,568,2.49402,-2.38544,-0.0108354,-0.0196302,-0.00902388,-0.00519448,-0.0252711,-0.558678,0.0154105,0.0444484,1483,456,2.49396,2.38543
266,568,2.76843,-2.47305,-0.00932024,-0.0172701,-0.00865737,-0.00376888,-0.0228215,-0.570184,0.0141266,0.0416775,1490,456,2.76843,2.47306
273,568,3.02173,-2.77148,-0.00798782,-0.0151201,-0.00824516,-0.00257065,-0.0205373,-0.581289,0.0129202,0.0471282,1497,456,3.02169,2.7715
280,568,2.41357,-2.95276,-0.00675794,-0.0129797,-0.00792544,-0.00135471,-0.0183829,-0.598378,0.0118296,0.0392779,1504,456,2.41352,2.95274
287,568,2.40393,-2.89984,-0.00573106,-0.0108816,-0.0074627,-0.000411775,-0.0162009,-0.619254,0.010666,0.0234199,1511,456,2.40397,2.89983
294,568,2.45544,-2.86566,-0.00415302,-0.00842044,-0.00674181,0.000784677,-0.0133581,-0.632141,0.00917817,0.0198357,1518,456,2.45549,2.86567
301,568,2.44519,-2.81497,-0.00268813,-0.00623181,-0.00639214,0.0021732,-0.0110931,-0.650198,0.00821619,0.0154027,1525,456,2.44521,2.81497
308,568,2.45557,-2.76694,-0.00201257,-0.00449112,-0.00578615,0.00266553,-0.00916922,-0.679902,0.00716847,0.0105044,1532,456,2.45553,2.76693
315,568,2.4552,-2.7077,-0.00213027,-0.00334519,-0.00493309,0.00223262,-0.00770808,-0.724136,0.00602249,0.00763833,1539,456,2.45524,2.70771
322,568,2.46924,-2.66064,-0.00178442,-0.00230758,-0.00434151,0.00230338,-0.00639538,-0.755309,0.00520416,0.00992544,1546,456,2.4693,2.66065
329,568,2.48328,-2.61423,-0.00102167,-0.00158702,-0.00339882,0.00210621,-0.00471491,-0.74391,0.00403303,0.011193,1553,456,2.48326,2.61423
336,568,2.46851,-2.55505,-0.00103319,-0.00107682,-0.00256697,0.00151206,-0.00362207,-0.78115,0.00304649,0.0117645,1560,456,2.46845,2.55504
343,568,2.47437,-2.49231,-0.00137744,-0.000459932,-0.00217654,0.00130567,-0.00314304,-0.889264,0.00264048,0.011719,1567,456,2.47442,2.49232
350,568,2.48694,-2.47461,-0.00100851,0.000152459,-0.00171345,0.00138108,-0.00223713,-0.948721,0.00210837,0.0104304,1574,456,2.48698,2.47461
357,568,2.49304,-2.41653,-0.00031735,0.000507441,-0.00138902,0.00154399,-0.0013539,-0.929702,0.0016743,0.00965501,1581,456,2.49301,2.41653
364,568,2.47046,-2.35068,0.000516376,0.000700555,-0.0011037,0.001716,-0.000499073,-0.82702,0.00134167,0.0120751,1588,456,2.47049,2.35067
371,568,2.47498,-2.27255,0.00159713,0.000775255,-0.00109241,0.00235333,1.90508e-05,-0.605497,0.00156258,0.0211668,1595,456,2.47501,2.27257
378,568,2.51074,-2.22855,0.00269894,0.000827477,-0.00147101,0.00350662,1.97993e-05,-0.502123,0.00233117,0.019433,1602,456,2.51076,2.22856
385,568,2.49817,-2.18869,0.0038295,0.000904517,-0.00181598,0.00469867,3.53446e-05,-0.446402,0.00312073,0.00946067,1609,456,2.49814,2.1887
392,568,2.47217,-2.11462,0.00492339,0.000862177,-0.0022737,0.00594124,-0.000155672,-0.420908,0.00401372,0.0104159,1616,456,2.47211,2.11464
399,568,2.45154,-2.05634,0.00596494,0.000868395,-0.0027793,0.00718737,-0.000354038,-0.414368,0.00491385,0.0172153,1623,456,2.45159,2.05635
406,568,2.47083,-2.00278,0.00704377,0.000670215,-0.00326029,0.00841605,-0.000702065,-0.3984,0.00585876,0.0154637,1630,456,2.47082,2.00278
413,568,2.48572,-1.93265,0.00783475,0.000461503,-0.00375196,0.00940821,-0.00111195,-0.397091,0.00667374,0.0112738,1637,456,2.48573,1.93265
420,568,2.47607,-1.87006,0.00835674,0.000164628,-0.00414924,0.0100911,-0.00156974,-0.395924,0.00730707,0.00965777,1644,456,2.47603,1.87006
427,568,2.46741,-1.79007,0.0090845,-0.000387377,-0.00372776,0.0103756,-0.00167849,-0.33342,0.00753911,0.0105264,1651,456,2.46745,1.79005
434,568,2.46057,-1.74512,0.009685,-0.000772673,-0.00321546,0.0105946,-0.00168223,-0.275669,0.00768541,0.012043,1658,456,2.46059,1.74513
441,568,2.47742,-1.7001,0.0103663,-0.00135502,-0.00210021,0.0107312,-0.00171997,-0.17205,0.00779101,0.0175467,1665,456,2.47743,1.70011
448,568,2.55518,-1.57986,0.0107637,-0.00250308,-0.000486724,0.0107816,-0.00252091,-0.0366217,0.00815889,0.0356224,1672,456,2.55519,1.57987
455,568,2.72522,-1.46896,0.0113755,-0.0036789,0.00199536,0.0116355,-0.00393888,0.129563,0.00935069,0.0466466,1679,456,2.72517,1.46896
462,568,2.88257,-1.41782,0,0,0,0,0,0,0,-1,1686,456,2.88261,1.41783
469,568,2.5918,-1.62137,0.0167973,-0.00609735,0.0102278,0.0207008,-0.0100009,0.364597,0.0180809,0.0405674,1693,456,2.59176,1.62136
476,568,2.7616,-1.58356,0.0243849,-0.00390798,0.0185173,0.0335411,-0.0130642,0.459211,0.0277598,0.0436952,1700,456,2.76165,1.58357
483,568,2.92139,-1.53354,0,0,0,0,0,0,0,-1,1707,456,2.92137,1.53355
490,568,3.85693,-0.770538,0,0,0,0,0,0,0,-1,1714,456,3.8569,0.770551
497,568,6.52258,-1.06821,0,0,0,0,0,0,0,-1,1721,456,6.52261,1.06822
504,568,0,0,0,0,0,0,0,0,0,-1,1728,456,0,0
511,568,0,0,0,0,0,0,0,0,0,-1,1735,456,0,0
518,568,0,0,0,0,0,0,0,0,0,-1,1742,456,0,0
525,568,0,0,0,0,0,0,0,0,0,-1,1749,456,0,0
532,568,0,0,0,0,0,0,0,0,0,-1,1756,456,0,0
539,568,0,0,0,0,0,0,0,0,0,-1,1763,456,0,0
546,568,0,0,0,0,0,0,0,0,0,-1,1770,456,0,0
553,568,0,0,0,0,0,0,0,0,0,-1,1777,456,0,0
560,568,0,0,0,0,0,0,0,0,0,-1,1784,456,0,0
567,568,0,0,0,0,0,0,0,0,0,-1,1791,456,0,0
574,568,0,0,0,0,0,0,0,0,0,-1,1798,456,0,0
581,568,0,0,0,0,0,0,0,0,0,-1,1805,456,0,0
588,568,0,0,0,0,0,0,0,0,0,-1,1812,456,0,0
595,568,0,0,0,0,0,0,0,0,0,-1,1819,456,0,0
602,568,0,0,0,0,0,0,0,0,0,-1,1826,456,0,0
609,568,0,0,0,0,0,0,0,0,0,-1,1833,456,0,0
616,568,0,0,0,0,0,0,0,0,0,-1,1840,456,0,0
623,568,0,0,0,0,0,0,0,0,0,-1,1847,456,0,0
630,568,0,0,0,0,0,0,0,0,0,-1,1854,456,0,0
637,568,0,0,0,0,0,0,0,0,0,-1,1861,456,0,0
644,568,0,0,0,0,0,0,0,0,0,-1,1868,456,0,0
651,568,0,0,0,0,0,0,0,0,0,-1,1875,456,0,0
658,568,0,0,0,0,0,0,0,0,0,-1,1882,456,0,0
665,568,0,0,0,0,0,0,0,0,0,-1,1889,456,0,0
672,568,0,0,0,0,0,0,0,0,0,-1,1896,456,0,0
679,568,0,0,0,0,0,0,0,0,0,-1,1903,456,0,0
686,568,0,0,0,0,0,0,0,0,0,-1,1910,456,0,0
693,568,0,0,0,0,0,0,0,0,0,-1,1917,456,0,0
700,568,0,0,0,0,0,0,0,0,0,-1,1924,456,0,0
707,568,0,0,0,0,0,0,0,0,0,-1,1931,456,0,0
714,568,0,0,0,0,0,0,0,0,0,-1,1938,456,0,0
721,568,0,0,0,0,0,0,0,0,0,-1,1945,456,0,0
728,568,0,0,0,0,0,0,0,0,0,-1,1952,456,0,0
735,568,0,0,0,0,0,0,0,0,0,-1,1959,456,0,0
742,568,0,0,0,0,0,0,0,0,0,-1,1966,456,0,0
749,568,0,0,0,0,0,0,0,0,0,-1,1973,456,0,0
756,568,0,0,0,0,0,0,0,0,0,-1,1980,456,0,0
763,568,0,0,0,0,0,0,0,0,0,-1,1987,456,0,0
770,568,0,0,0,0,0,0,0,0,0,-1,1994,456,0,0
777,568,0,0,0,0,0,0,0,0,0,-1,2001,456,0,0
784,568,0,0,0,0,0,0,0,0,0,-1,2008,456,0,0
791,568,0,0,0,0,0,0,0,0,0,-1,2015,456,0,0
798,568,0,0,0,0,0,0,0,0,0,-1,2022,456,0,0
805,568,0,0,0,0,0,0,0,0,0,-1,2029,456,0,0
812,568,0,0,0,0,0,0,0,0,0,-1,2036,456,0,0
-700,561,0,0,0,0,0,0,0,0,0,-1,524,463,0,0
-693,561,0,0,0,0,0,0,0,0,0,-1,531,463,0,0
-686,561,0,0,0,0,0,0,0,0,0,-1,538,463,0,0
-679,561,0,0,0,0,0,0,0,0,0,-1,545,463,0,0
-672,561,0,0,0,0,0,0,0,0,0,-1,552,463,0,0
-665,561,0,0,0,0,0,0,0,0,0,-1,559,463,0,0
-658,561,0,0,0,0,0,0,0,0,0,-1,566,463,0,0
-651,561,0,0,0,0,0,0,0,0,0,-1,573,463,0,0
-644,561,0,0,0,0,0,0,0,0,0,-1,580,463,0,0
-637,561,0,0,0,0,0,0,0,0,0,-1,587,463,0,0
-630,561,0,0,0,0,0,0,0,0,0,-1,594,463,0,0
-623,561,0,0,0,0,0,0,0,0,0,-1,601,463,0,0
-616,561,0,0,0,0,0,0,0,0,0,-1,608,463,0,0
-609,561,0,0,0,0,0,0,0,0,0,-1,615,463,0,0
-602,561,0,0,0,0,0,0,0,0,0,-1,622,463,0,0
-595,561,0,0,0,0,0,0,0,0,0,-1,629,463,0,0
-588,561,0,0,0,0,0,0,0,0,0,-1,636,463,0,0
-581,561,0,0,0,0,0,0,0,0,0,-1,643,463,0,0
-574,561,0,0,0,0,0,0,0,0,0,-1,650,463,0,0
-567,561,0,0,0,0,0,0,0,0,0,-1,657,463,0,0
-560,561,0,0,0,0,0,0,0,0,0,-1,664,463,0,0
-553,561,0,0,0,0,0,0,0,0,0,-1,671,463,0,0
-546,561,0,0,0,0,0,0,0,0,0,-1,678,463,0,0
-539,561,0,0,0,0,0,0,0,0,0,-1,685,463,0,0
-532,561,0,0,0,0,0,0,0,0,0,-1,692,463,0,0
-525,561,0,0,0,0,0,0,0,0,0,-1,699,463,0,0
-518,561,0,0,0,0,0,0,0,0,0,-1,706,463,0,0
-511,561,0,0,0,0,0,0,0,0,0,-1,713,463,0,0
-504,561,0,0,0,0,0,0,0,0,0,-1,720,463,0,0
-497,561,0,0,0,0,0,0,0,0,0,-1,727,463,0,0
-490,561,0,0,0,0,0,0,0,0,0,-1,734,463,0,0
-483,561,0,0,0,0,0,0,0,0,0,-1,741,463,0,0
-476,561,0,0,0,0,0,0,0,0,0,-1,748,463,0,0
-469,561,0,0,0,0,0,0,0,0,0,-1,755,463,0,0
-462,561,0,0,0,0,0,0,0,0,0,-1,762,463,0,0
-455,561,0,0,0,0,0,0,0,0,0,-1,769,463,0,0
-448,561,0,0,0,0,0,0,0,0,0,-1,776,463,0,0
-441,561,0,0,0,0,0,0,0,0,0,-1,783,463,0,0
-434,561,0,0,0,0,0,0,0,0,0,-1,790,463,0,0
-427,561,0,0,0,0,0,0,0,0,0,-1,797,463,0,0
-420,561,0,0,0,0,0,0,0,0,0,-1,804,463,0,0
-413,561,0,0,0,0,0,0,0,0,0,-1,811,463,0,0
-406,561,0,0,0,0,0,0,0,0,0,-1,818,463,0,0
-399,561,0,0,0,0,0,0,0,0,0,-1,825,463,0,0
-392,561,3.11993,-3.7681,0,0,0,0,0,0,0,-1,832,463,3.11991,3.76809
-385,561,8.67126,-3.26062,0,0,0,0,0,0,0,-1,839,463,8.67128,3.26061
-378,561,7.68768,-3.48135,0,0,0,0,0,0,0,-1,846,463,7.68769,3.48134
-371,561,6.77686,-3.47974,-0.100247,0.0391433,0.0112972,0.040053,-0.101156,1.49045,0.084033,0.0455913,853,463,6.77687,3.47975
-364,561,5.67108,-3.54764,-0.0906907,0.0401756,0.0119081,0.0412504,-0.0917655,1.48079,0.0786211,0.0436873,860,463,5.67108,3.54765
-357,561,4.54456,-3.52951,-0.0802614,0.0389913,0.0115241,0.0400947,-0.0813649,1.47534,0.0714613,0.0483501,867,463,4.54455,3.52952
-350,561,3.64008,-3.1109,-0.0695992,0.0368222,0.0111622,0.0379803,-0.0707574,1.46741,0.0637234,0.0472023,874,463,3.6401,3.11091
-343,561,1.51508,-1.82269,0,0,0,0,0,0,0,-1,881,463,1.51506,1.8227
-336,561,1.53455,-1.82205,-0.043493,0.0253355,0.00644784,0.0259343,-0.0440918,1.47819,0.0408801,0.0457893,888,463,1.53452,1.82206
-329,561,1.55939,-1.80499,-0.0341307,0.0210937,0.00490095,0.0215253,-0.0345623,1.48296,0.0326725,0.0344742,895,463,1.55939,1.805
-322,561,1.58563,-1.82684,-0.0269958,0.0190445,0.0044874,0.0194778,-0.0274291,1.47454,0.0272111,0.0269464,902,463,1.58565,1.82686
-315,561,1.63812,-1.84082,-0.0206485,0.0164187,0.00383201,0.0168107,-0.0210405,1.46885,0.0218988,0.0185904,909,463,1.63812,1.84083
-308,561,1.65063,-1.90125,-0.0157756,0.0146298,0.00343177,0.0150123,-0.0161581,1.45979,0.0180003,0.0137332,916,463,1.65064,1.90125
-301,561,1.64404,-1.99561,-0.0121064,0.0130014,0.00315777,0.0133925,-0.0124975,1.44758,0.0149505,0.010756,923,463,1.64402,1.99559
-294,561,1.63177,-2.04453,-0.00978964,0.0120091,0.00314234,0.012453,-0.0102336,1.43045,0.013119,0.00945119,930,463,1.63176,2.04453
-287,561,1.612,-2.10913,-0.00821459,0.0111749,0.00314251,0.0116715,-0.00871118,1.41407,0.0118092,0.00884423,937,463,1.61198,2.10912
-280,561,1.61414,-2.16864,-0.00715905,0.010015,0.00313041,0.0105678,-0.00771185,1.39601,0.0105966,0.011852,944,463,1.61412,2.16865
-273,561,1.61859,-2.21915,-0.00600206,0.00877248,0.00267949,0.00924342,-0.006473,1.39682,0.00912075,0.0142141,951,463,1.61858,2.21915
-266,561,1.63202,-2.28568,-0.00442941,0.00720903,0.00216282,0.00759796,-0.00481834,1.39287,0.00722819,0.00905352,958,463,1.63201,2.28568
-259,561,1.6192,-2.33411,-0.0030621,0.0056064,0.00152367,0.00586642,-0.00332212,1.40177,0.00537237,0.0102081,965,463,1.61921,2.33409
-252,561,1.6073,-2.38409,-0.00188209,0.00436913,0.000883571,0.00449161,-0.00200457,1.43305,0.0038411,0.0141015,972,463,1.60733,2.38409
-245,561,1.61652,-2.46536,-0.00104916,0.00332918,0.000201001,0.00333839,-0.00105837,1.52502,0.0026498,0.01604,979,463,1.6165,2.46536
-238,561,1.6264,-2.49969,-0.000907888,0.00234712,-0.000341798,0.00238263,-0.000943391,-1.46729,0.0019793,0.0128468,986,463,1.62643,2.49968
-231,561,1.63483,-2.54126,-0.00146236,0.00148051,-0.000591311,0.00159488,-0.00157672,-1.37974,0.00183113,0.0104781,993,463,1.63485,2.54127
-224,561,1.63849,-2.60254,-0.00254312,0.00112489,-0.000618759,0.00122646,-0.00264468,-1.4081,0.00228445,0.010666,1000,463,1.63846,2.60253
-217,561,1.64624,-2.64627,-0.00399227,0.000328001,-0.000824765,0.000480099,-0.00414437,-1.38843,0.00293606,0.0107693,1007,463,1.64625,2.64628
-210,561,1.64471,-2.69763,-0.00601877,-0.000361177,-0.000629084,-0.000292071,-0.00608787,-1.46138,0.00396481,0.0118969,1014,463,1.64471,2.69762
-203,561,1.63483,-2.75284,-0.00830708,-0.000752261,-0.000395439,-0.000731619,-0.00832772,-1.51864,0.00532472,0.0133436,1021,463,1.63485,2.75283
-196,561,1.62756,-2.79126,-0.0108911,-0.0015406,-0.000263608,-0.00153317,-0.0108985,-1.54263,0.00681235,0.0125068,1028,463,1.62753,2.79126
-189,561,1.63464,-2.81467,-0.0132566,-0.00277729,-0.000556899,-0.00274778,-0.0132861,-1.51785,0.00809837,0.014051,1035,463,1.63458,2.81466
-182,561,1.65967,-2.85626,-0.0150849,-0.00452716,-0.00130412,-0.00436846,-0.0152436,-1.4497,0.00906423,0.0163935,1042,463,1.65971,2.85625
-175,561,1.6853,-2.90704,-0.0160606,-0.00533929,-0.00323078,-0.00444099,-0.0169589,-1.2996,0.0101546,0.0262669,1049,463,1.68528,2.90704
-168,561,1.70422,-2.95221,-0.0162796,-0.00657231,-0.00472818,-0.00465,-0.0182019,-1.18464,0.0109198,0.0390042,1056,463,1.70417,2.9522
-161,561,1.74451,-2.95193,-0.0158496,-0.0076828,-0.00665543,-0.00395795,-0.0195745,-1.06056,0.0119508,0.0415776,1063,463,1.74445,2.95193
-154,561,1.78491,-3.03723,-0.0143616,-0.00859158,-0.00874631,-0.00226674,-0.0206864,-0.944706,0.0131009,0.0450206,1070,463,1.78492,3.03724
-147,561,1.4895,-3.08923,-0.0122533,-0.00931607,-0.0104749,-0.000207329,-0.0213621,-0.855046,0.0141728,0.0485956,1077,463,1.48956,3.08923
-140,561,1.24561,-2.98593,-0.0098477,-0.00931816,-0.0122298,0.00264973,-0.0218156,-0.796221,0.0155026,0.0495265,1084,463,1.24555,2.98593
-133,561,1.18494,-2.69348,-0.00654951,-0.0093355,-0.0138406,0.00596799,-0.021853,-0.735244,0.0169127,0.0463274,1091,463,1.18499,2.69348
-126,561,1.14771,-2.16437,0,0,0,0,0,0,0,-1,1098,463,1.14769,2.16436
-119,561,1.4364,-2.70181,-0.000546633,-0.00918864,-0.0152062,0.0109406,-0.0206758,-0.646967,0.01854,0.0446828,1105,463,1.43641,2.7018
-112,561,1.60339,-2.84534,0.00104384,-0.00876074,-0.0141657,0.0111316,-0.0188485,-0.618815,0.0174991,0.0481347,1112,463,1.60339,2.84533
-105,561,1.47681,-3.27017,0.00136397,-0.0082178,-0.0120708,0.00955987,-0.0164137,-0.596483,0.0151689,0.0498773,1119,463,1.47683,3.27016
-98,561,0.99939,-4.23746,-1.99698e-05,-0.0083436,-0.00888036,0.00562544,-0.013989,-0.566269,0.0116625,0.0430779,1126,463,0.999439,4.23747
-91,561,1.16602,-3.91245,0,0,0,0,0,0,0,-1,1133,463,1.16605,3.91245
-84,561,1.12695,-3.34967,0,0,0,0,0,0,0,-1,1140,463,1.1269,3.34968
-77,561,0.867432,-3.13251,0,0,0,0,0,0,0,-1,1147,463,0.867398,3.13251
-70,561,1.52454,-3.77023,0,0,0,0,0,0,0,-1,1154,463,1.52448,3.77023
-63,561,0.0893555,-4.62836,0,0,0,0,0,0,0,-1,1161,463,0.0893472,4.62835
-56,561,-0.478394,-6.08743,0,0,0,0,0,0,0,-1,1168,463,-0.478428,6.08744
-49,561,-3.12085,-6.89383,0,0,0,0,0,0,0,-1,1175,463,-3.12085,6.89383
-42,561,-1.72644,-5.63065,0,0,0,0,0,0,0,-1,1182,463,-1.72648,5.63064
-35,561,-1.65674,-4.87994,0,0,0,0,0,0,0,-1,1189,463,-1.6567,4.87993
-28,561,-1.91418,-3.86896,0,0,0,0,0,0,0,-1,1196,463,-1.91414,3.86895
-21,561,2.21448,-4.48065,0,0,0,0,0,0,0,-1,1203,463,2.21452,4.48066
-14,561,5.21375,-2.62619,0,0,0,0,0,0,0,-1,1210,463,5.21379,2.6262
-7,561,4.58923,-2.94617,0,0,0,0,0,0,0,-1,1217,463,4.58927,2.94616
0,561,3.77966,-3.53577,0,0,0,0,0,0,0,-1,1224,463,3.77963,3.53577
7,561,1.79675,-2.51083,-0.091734,-0.047015,-0.00723174,-0.0458746,-0.0928744,-1.41439,0.0536224,0.0436181,1231,463,1.79673,2.51083
14,561,1.323,-2.91293,-0.079122,-0.043734,-0.00546914,-0.042908,-0.079948,-1.42091,0.0461994,0.039563,1238,463,1.32297,2.91295
21,561,0.546143,-3.01349,-0.0570052,-0.0386276,-0.00503042,-0.0373408,-0.058292,-1.32035,0.0340955,0.0402522,1245,463,0.546182,3.0135
28,561,0.243896,-2.89859,-0.0303824,-0.0318007,-0.00411482,-0.0269161,-0.035267,-0.70007,0.0212811,0.0446447,1252,463,0.243888,2.89858
35,561,-0.489868,-2.83075,-0.00261504,-0.0246416,-0.00160375,-0.00249889,-0.0247578,-0.0723015,0.0157385,0.0409253,1259,463,-0.489808,2.83075
42,561,-1.29773,-2.75412,0.0240623,-0.0174876,0.00268657,0.0242353,-0.0176606,0.064302,0.0242877,0.0422655,1266,463,-1.29768,2.75411
49,561,-2.36011,-2.71985,0.0479545,-0.0143077,0.00783675,0.0489258,-0.015279,0.123305,0.0387282,0.0421653,1273,463,-2.36007,2.71984
56,561,1.84985,-9.32333,0,0,0,0,0,0,0,-1,1280,463,1.84981,9.32334
63,561,1.64697,-7.83578,0.0650357,0.0102193,0.0269309,0.0760525,-0.000797551,0.388308,0.0509696,0.0465881,1287,463,1.64692,7.83578
70,561,1.3252,-6.31763,0,0,0,0,0,0,0,-1,1294,463,1.32516,6.31764
77,561,1.22412,-4.96048,0,0,0,0,0,0,0,-1,1301,463,1.22415,4.96047
84,561,1.72253,-2.67029,0,0,0,0,0,0,0,-1,1308,463,1.7225,2.67028
91,561,1.79309,-1.13354,0,0,0,0,0,0,0,-1,1315,463,1.79309,1.13356
98,561,1.53918,0.747894,0,0,0,0,0,0,0,-1,1322,463,1.53917,-0.747893
105,561,1.32959,1.98553,0.0227308,0.0408159,0.0945756,0.12678,-0.0632335,0.833059,0.111731,0.0497598,1329,463,1.32957,-1.98555
112,561,1.44788,2.68561,0.0101181,0.0350591,0.0941851,0.117596,-0.0724185,0.851217,0.110734,0.0496865,1336,463,1.44782,-2.6856
119,561,1.57898,3.39551,0,0,0,0,0,0,0,-1,1343,463,1.57893,-3.3955
126,561,-0.523315,-7.50851,-0.00789653,0.0258696,0.0939116,0.104404,-0.0864306,0.874336,0.110341,0.0430719,1350,463,-0.52335,7.50852
133,561,-0.55481,-6.40921,-0.0134384,0.0238462,0.0940104,0.101045,-0.0906371,0.883279,0.110722,0.0486276,1357,463,-0.554839,6.40921
140,561,-0.460938,-5.21838,0,0,0,0,0,0,0,-1,1364,463,-0.460893,5.21839
147,561,0.326538,-4.34549,-0.0207591,0.0228486,0.0956772,0.0991749,-0.0970854,0.89743,0.113313,0.0457622,1371,463,0.326512,4.34549
154,561,-0.516602,-4.17648,-0.0223462,0.0247809,0.0965151,0.100567,-0.0981326,0.905128,0.114722,0.0413087,1378,463,-0.516649,4.17649
161,561,-0.713989,-4.04807,-0.0235482,0.023473,0.0966264,0.0994079,-0.0994831,0.904736,0.11483,0.0490524,1385,463,-0.713933,4.04805
168,561,-0.685425,-3.44531,0,0,0,0,0,0,0,-1,1392,463,-0.685369,3.44533
175,561,6.37012,-5.92093,0,0,0,0,0,0,0,-1,1399,463,6.37014,5.92094
182,561,6.45703,-4.02127,-0.017407,0.0275069,0.0856875,0.0936313,-0.0835314,0.913556,0.10234,0.0467548,1406,463,6.45704,4.02127
189,561,6.50854,-2.08685,-0.0168959,0.01811,0.0710638,0.0737946,-0.0725805,0.906144,0.0845107,0.0465519,1413,463,6.50851,2.08686
196,561,6.44775,-0.27182,-0.016667,0.00937613,0.0569205,0.0547455,-0.0620364,0.897847,0.0674678,0.0441109,1420,463,6.44773,0.271814
203,561,6.18591,1.1301,-0.0126401,0.00219476,0.0448329,0.0402197,-0.050665,0.867378,0.0525877,0.0465787,1427,463,6.18592,-1.13009
210,561,5.68713,2.68427,0,0,0,0,0,0,0,-1,1434,463,5.6871,-2.68425
217,561,5.16663,4.28879,0,0,0,0,0,0,0,-1,1441,463,5.16663,-4.2888
224,561,4.66248,5.90509,0,0,0,0,0,0,0,-1,1448,463,4.66244,-5.90509
231,561,4.22998,7.57202,0,0,0,0,0,0,0,-1,1455,463,4.23001,-7.57203
238,561,3.19995,-3.63437,0,0,0,0,0,0,0,-1,1462,463,3.19991,3.63436
245,561,3.05188,-3.07883,-0.0185626,-0.0264545,-0.00835456,-0.013269,-0.0317481,-0.564773,0.0184118,0.0490883,1469,463,3.05189,3.07883
252,561,2.94666,-2.54379,-0.0174514,-0.0270066,-0.0104637,-0.0107262,-0.0337318,-0.571239,0.0199005,0.0477294,1476,463,2.9467,2.54378
259,561,2.96582,-2.49057,-0.0154246,-0.0256046,-0.0109052,-0.00848002,-0.0325492,-0.56705,0.0194975,0.0466285,1483,463,2.96586,2.49056
266,561,3.46094,-2.33807,-0.0135789,-0.0224697,-0.0105521,-0.00657404,-0.0294745,-0.586041,0.0178662,0.0489456,1490,463,3.46089,2.33809
273,561,3.59973,-2.34906,0,0,0,0,0,0,0,-1,1497,463,3.59968,2.34907
280,561,2.43604,-2.94156,0,0,0,0,0,0,0,-1,1504,463,2.43599,2.94157
287,561,2.2489,-2.64783,-0.00873986,-0.0138664,-0.0093007,-0.00165569,-0.0209506,-0.650935,0.0134492,0.0417547,1511,463,2.24891,2.64784
294,561,2.53381,-2.65948,-0.00645289,-0.0106744,-0.00846473,0.000160296,-0.0172876,-0.663211,0.0115788,0.0359107,1518,463,2.53383,2.6595
301,561,2.47754,-2.75229,-0.00426223,-0.00779941,-0.00820072,0.00235844,-0.0144201,-0.679193,0.0104883,0.032789,1525,463,2.47754,2.7523
308,561,2.49146,-2.75897,-0.00322685,-0.00565362,-0.00756955,0.00322594,-0.0121064,-0.705925,0.00933397,0.0211454,1532,463,2.49149,2.75898
315,561,2.50098,-2.74402,-0.0032725,-0.00430953,-0.00660173,0.00283105,-0.0104131,-0.746207,0.00805335,0.0134296,1539,463,2.50099,2.74401
322,561,2.50098,-2.67938,-0.00262322,-0.00305897,-0.00605747,0.00322029,-0.00890248,-0.767422,0.00725084,0.0140614,1546,463,2.501,2.67939
329,561,2.51526,-2.61002,-0.00151623,-0.00214786,-0.00485186,0.00303009,-0.00669417,-0.752898,0.00574562,0.012516,1553,463,2.51528,2.61002
336,561,2.52527,-2.54544,-0.00159953,-0.00167208,-0.00372572,0.00209009,-0.00536171,-0.78053,0.00443836,0.0118963,1560,463,2.52524,2.54546
343,561,2.53162,-2.50629,-0.002219,-0.0012462,-0.00322898,0.00153281,-0.004998,-0.860154,0.00394352,0.0106302,1567,463,2.53157,2.50629
350,561,2.53186,-2.46609,-0.00192006,-0.000796218,-0.00254568,0.00124882,-0.0039651,-0.894024,0.00314348,0.00971902,1574,463,2.5318,2.46609
357,561,2.53845,-2.40402,-0.00133368,-0.000552179,-0.00199805,0.00109297,-0.00297883,-0.881963,0.00243345,0.00967226,1581,463,2.53843,2.40403
364,561,2.53149,-2.35794,-0.000678659,-0.00034301,-0.00139165,0.000890902,-0.00191257,-0.845405,0.00165402,0.00950681,1588,463,2.53151,2.35794
371,561,2.52844,-2.30826,0.000176861,-0.000214856,-0.000998309,0.000998343,-0.00103634,-0.688533,0.00117479,0.0165987,1595,463,2.52841,2.30825
378,561,2.55249,-2.25504,0.00105056,-1.65093e-05,-0.00096462,0.00161936,-0.000585314,-0.532787,0.00131871,0.0122361,1602,463,2.55251,2.25504
385,561,2.55127,-2.18372,0.00190681,0.000245042,-0.000891807,0.00229481,-0.000142962,-0.410374,0.00157969,0.00988106,1609,463,2.55128,2.18372
392,561,2.54175,-2.09457,0.00268158,0.000468615,-0.000905928,0.00300514,0.00014506,-0.343033,0.00195686,0.0131392,1616,463,2.5418,2.09458
399,561,2.52112,-2.05334,0.00337213,0.000784662,-0.000974624,0.00369816,0.000458631,-0.322818,0.00232767,0.0201622,1623,463,2.52111,2.05335
406,561,2.53601,-2.00308,0.00409936,0.000997314,-0.000943829,0.00436396,0.000732715,-0.27333,0.00269844,0.0186288,1630,463,2.53603,2.00308
413,561,2.55066,-1.94354,0.00458878,0.00125394,-0.000941616,0.00483628,0.00100643,-0.257035,0.00294657,0.0162721,1637,463,2.5507,1.94354
420,561,2.53113,-1.88098,0.00489345,0.00135284,-0.000953117,0.00513372,0.00111257,-0.246943,0.0031185,0.0122208,1644,463,2.53114,1.88097
427,561,2.53577,-1.80316,0.005387,0.00114932,-0.000419684,0.00542816,0.00110815,-0.0977707,0.00331178,0.00898609,1651,463,2.5358,1.80316
434,561,2.54834,-1.74936,0.0057926,0.00109415,0.000203368,0.00580139,0.00108536,0.0431764,0.00356137,0.0100339,1658,463,2.54836,1.74935
441,561,2.54443,-1.70395,0.00639948,0.000810185,0.00121948,0.00665396,0.000555703,0.205728,0.00426283,0.0120617,1665,463,2.54443,1.70394
448,561,2.55396,-1.62759,0.00685847,2.6038e-05,0.00246486,0.00765486,-0.000770357,0.312511,0.00537845,0.0166456,1672,463,2.55394,1.62759
455,561,2.71863,-1.5195,0.00754816,-0.000952238,0.00421664,0.00928496,-0.00268904,0.390717,0.0072544,0.0337423,1679,463,2.71863,1.5195
462,561,2.77234,-1.47354,0.00875986,-0.00212264,0.00626458,0.0116163,-0.00497911,0.427809,0.0098335,0.0348954,1686,463,2.77228,1.47353
469,561,2.50854,-1.45435,0.0127614,-0.0039844,0.00967465,0.0171832,-0.0084062,0.428701,0.0150609,0.0224769,1693,463,2.50854,1.45435
476,561,2.29492,-1.40842,0.0196943,-0.00252848,0.0152639,0.0274628,-0.0102969,0.470777,0.022539,0.0398902,1700,463,2.29493,1.40843
483,561,2.08752,-1.37247,0,0,0,0,0,0,0,-1,1707,463,2.08746,1.37247
490,561,3.59448,-0.899506,0,0,0,0,0,0,0,-1,1714,463,3.5945,0.899497
497,561,3.81677,-0.765594,0,0,0,0,0,0,0,-1,1721,463,3.81676,0.765601
504,561,4.78943,-1.81924,0,0,0,0,0,0,0,-1,1728,463,4.78949,1.81925
511,561,0,0,0,0,0,0,0,0,0,-1,1735,463,0,0
518,561,0,0,0,0,0,0,0,0,0,-1,1742,463,0,0
525,561,0,0,0,0,0,0,0,0,0,-1,1749,463,0,0
532,561,0,0,0,0,0,0,0,0,0,-1,1756,463,0,0
539,561,0,0,0,0,0,0,0,0,0,-1,1763,463,0,0
546,561,0,0,0,0,0,0,0,0,0,-1,1770,463,0,0
553,561,0,0,0,0,0,0,0,0,0,-1,1777,463,0,0
560,561,0,0,0,0,0,0,0,0,0,-1,1784,463,0,0
567,561,0,0,0,0,0,0,0,0,0,-1,1791,463,0,0
574,561,0,0,0,0,0,0,0,0,0,-1,1798,463,0,0
581,561,0,0,0,0,0,0,0,0,0,-1,1805,463,0,0
588,561,0,0,0,0,0,0,0,0,0,-1,1812,463,0,0
595,561,0,0,0,0,0,0,0,0,0,-1,1819,463,0,0
602,561,0,0,0,0,0,0,0,0,0,-1,1826,463,0,0
609,561,0,0,0,0,0,0,0,0,0,-1,1833,463,0,0
616,561,0,0,0,0,0,0,0,0,0,-1,1840,463,0,0
623,561,0,0,0,0,0,0,0,0,0,-1,1847,463,0,0
630,561,0,0,0,0,0,0,0,0,0,-1,1854,463,0,0
637,561,0,0,0,0,0,0,0,0,0,-1,1861,463,0,0
644,561,0,0,0,0,0,0,0,0,0,-1,1868,463,0,0
651,561,0,0,0,0,0,0,0,0,0,-1,1875,463,0,0
658,561,0,0,0,0,0,0,0,0,0,-1,1882,463,0,0
665,561,0,0,0,0,0,0,0,0,0,-1,1889,463,0,0
672,561,0,0,0,0,0,0,0,0,0,-1,1896,463,0,0
679,561,0,0,0,0,0,0,0,0,0,-1,1903,463,0,0
686,561,0,0,0,0,0,0,0,0,0,-1,1910,463,0,0
693,561,0,0,0,0,0,0,0,0,0,-1,1917,463,0,0
700,561,0,0,0,0,0,0,0,0,0,-1,1924,463,0,0
707,561,0,0,0,0,0,0,0,0,0,-1,1931,463,0,0
714,561,0,0,0,0,0,0,0,0,0,-1,1938,463,0,0
721,561,0,0,0,0,0,0,0,0,0,-1,1945,463,0,0
728,561,0,0,0,0,0,0,0,0,0,-1,1952,463,0,0
735,561,0,0,0,0,0,0,0,0,0,-1,1959,463,0,0
742,561,0,0,0,0,0,0,0,0,0,-1,1966,463,0,0
749,561,0,0,0,0,0,0,0,0,0,-1,1973,463,0,0
756,561,0,0,0,0,0,0,0,0,0,-1,1980,463,0,0
763,561,0,0,0,0,0,0,0,0,0,-1,1987,463,0,0
770,561,0,0,0,0,0,0,0,0,0,-1,1994,463,0,0
777,561,0,0,0,0,0,0,0,0,0,-1,2001,463,0,0
784,561,0,0,0,0,0,0,0,0,0,-1,2008,463,0,0
791,561,0,0,0,0,0,0,0,0,0,-1,2015,463,0,0
798,561,0,0,0,0,0,0,0,0,0,-1,2022,463,0,0
805,561,0,0,0,0,0,0,0,0,0,-1,2029,463,0,0
812,561,0,0,0,0,0,0,0,0,0,-1,2036,463,0,0
-700,554,0,0,0,0,0,0,0,0,0,-1,524,470,0,0
-693,554,0,0,0,0,0,0,0,0,0,-1,531,470,0,0
-686,554,0,0,0,0,0,0,0,0,0,-1,538,470,0,0
-679,554,0,0,0,0,0,0,0,0,0,-1,545,470,0,0
-672,554,0,0,0,0,0,0,0,0,0,-1,552,470,0,0
-665,554,0,0,0,0,0,0,0,0,0,-1,559,470,0,0
-658,554,0,0,0,0,0,0,0,0,0,-1,566,470,0,0
-651,554,0,0,0,0,0,0,0,0,0,-1,573,470,0,0
-644,554,0,0,0,0,0,0,0,0,0,-1,580,470,0,0
-637,554,0,0,0,0,0,0,0,0,0,-1,587,470,0,0
-630,554,0,0,0,0,0,0,0,0,0,-1,594,470,0,0
-623,554,0,0,0,0,0,0,0,0,0,-1,601,470,0,0
-616,554,0,0,0,0,0,0,0,0,0,-1,608,470,0,0
-609,554,0,0,0,0,0,0,0,0,0,-1,615,470,0,0
-602,554,0,0,0,0,0,0,0,0,0,-1,622,470,0,0
-595,554,0,0,0,0,0,0,0,0,0,-1,629,470,0,0
-588,554,0,0,0,0,0,0,0,0,0,-1,636,470,0,0
-581,554,0,0,0,0,0,0,0,0,0,-1,643,470,0,0
-574,554,0,0,0,0,0,0,0,0,0,-1,650,470,0,0
-567,554,0,0,0,0,0,0,0,0,0,-1,657,470,0,0
-560,554,0,0,0,0,0,0,0,0,0,-1,664,470,0,0
-553,554,0,0,0,0,0,0,0,0,0,-1,671,470,0,0
-546,554,0,0,0,0,0,0,0,0,0,-1,678,470,0,0
-539,554,0,0,0,0,0,0,0,0,0,-1,685,470,0,0
-532,554,0,0,0,0,0,0,0,0,0,-1,692,470,0,0
-525,554,0,0,0,0,0,0,0,0,0,-1,699,470,0,0
-518,554,0,0,0,0,0,0,0,0,0,-1,706,470,0,0
-511,554,0,0,0,0,0,0,0,0,0,-1,713,470,0,0
-504,554,0,0,0,0,0,0,0,0,0,-1,720,470,0,0
-497,554,0,0,0,0,0,0,0,0,0,-1,727,470,0,0
-490,554,0,0,0,0,0,0,0,0,0,-1,734,470,0,0
-483,554,0,0,0,0,0,0,0,0,0,-1,741,470,0,0
-476,554,0,0,0,0,0,0,0,0,0,-1,748,470,0,0
-469,554,0,0,0,0,0,0,0,0,0,-1,755,470,0,0
-462,554,0,0,0,0,0,0,0,0,0,-1,762,470,0,0
-455,554,0,0,0,0,0,0,0,0,0,-1,769,470,0,0
-448,554,0,0,0,0,0,0,0,0,0,-1,776,470,0,0
-441,554,0,0,0,0,0,0,0,0,0,-1,783,470,0,0
-434,554,0,0,0,0,0,0,0,0,0,-1,790,470,0,0
-427,554,0,0,0,0,0,0,0,0,0,-1,797,470,0,0
-420,554,0,0,0,0,0,0,0,0,0,-1,804,470,0,0
-413,554,0,0,0,0,0,0,0,0,0,-1,811,470,0,0
-406,554,0,0,0,0,0,0,0,0,0,-1,818,470,0,0
-399,554,-0.977661,-3.42831,0,0,0,0,0,0,0,-1,825,470,-0.977669,3.42833
-392,554,-0.986084,-2.99109,0,0,0,0,0,0,0,-1,832,470,-0.986106,2.99108
-385,554,2.69263,-3.96948,0,0,0,0,0,0,0,-1,839,470,2.6926,3.96949
-378,554,7.29321,-3.78912,0,0,0,0,0,0,0,-1,846,470,7.29319,3.78912
-371,554,6.44843,-4.02579,-0.0763393,0.0278374,0.00703522,0.0283104,-0.0768122,1.50367,0.062809,0.0472767,853,470,6.44844,4.02577
-364,554,5.24329,-3.95074,-0.0692059,0.0299073,0.00819891,0.0305809,-0.0698795,1.48882,0.0594618,0.0450253,860,470,5.24329,3.95075
-357,554,3.8949,-4.12802,-0.0612782,0.0302724,0.00855097,0.0310642,-0.06207,1.47846,0.0547553,0.0492137,867,470,3.89488,4.12804
-350,554,1.49164,-1.56216,0,0,0,0,0,0,0,-1,874,470,1.49163,1.56216
-343,554,1.60962,-1.69769,0,0,0,0,0,0,0,-1,881,470,1.60961,1.6977
-336,554,1.5799,-1.72803,-0.0324696,0.0199207,0.0051581,0.0204237,-0.0329726,1.47358,0.0311108,0.0315327,888,470,1.57989,1.72803
-329,554,1.5506,-1.75906,-0.0250781,0.0163785,0.00402043,0.0167648,-0.0254644,1.47501,0.0245529,0.0163345,895,470,1.55062,1.75907
-322,554,1.55896,-1.80969,-0.0194222,0.0143825,0.00360837,0.0147634,-0.0198031,1.46563,0.0200275,0.0105698,902,470,1.55894,1.8097
-315,554,1.58197,-1.8761,-0.0142755,0.0120659,0.00309561,0.0124248,-0.0146344,1.45537,0.01564,0.0103191,909,470,1.58195,1.87609
-308,554,1.57355,-1.9447,-0.0103783,0.0105121,0.00277073,0.0108733,-0.0107396,1.44115,0.0124783,0.0129189,916,470,1.57353,1.94469
-301,554,1.57648,-2.00064,-0.00749103,0.0091135,0.00248991,0.00947883,-0.00785636,1.42511,0.0100231,0.0131927,923,470,1.5765,2.00063
-294,554,1.56635,-2.05069,-0.0057833,0.00830872,0.00242755,0.00871517,-0.00618976,1.4049,0.00864644,0.0105024,930,470,1.56633,2.05068
-287,554,1.55383,-2.11362,-0.00474896,0.00761924,0.00237897,0.00806105,-0.00519076,1.38718,0.00771052,0.0103427,937,470,1.55383,2.11363
-280,554,1.56207,-2.15805,-0.00405655,0.00669591,0.00232123,0.00717561,-0.00453625,1.36701,0.00681884,0.0111216,944,470,1.56205,2.15806
-273,554,1.56482,-2.21893,-0.00324053,0.00568937,0.00189866,0.0060763,-0.00362746,1.36976,0.00566162,0.0143829,951,470,1.56484,2.21894
-266,554,1.57135,-2.28348,-0.00212042,0.00453228,0.00134591,0.00479425,-0.0023824,1.37855,0.00422072,0.0114877,958,470,1.57138,2.28347
-259,554,1.55719,-2.29779,-0.00120773,0.00337183,0.000721326,0.00348276,-0.00131866,1.41821,0.00286442,0.0115059,965,470,1.5572,2.2978
-252,554,1.54675,-2.34268,-0.00048619,0.00252525,8.14864e-05,0.00252746,-0.000488393,1.54376,0.00186916,0.0136831,972,470,1.54677,2.34267
-245,554,1.56134,-2.41608,0.000160187,0.00192369,-0.000509047,0.00206008,2.3796e-05,-1.30901,0.00136553,0.0154458,979,470,1.56135,2.41609
-238,554,1.56665,-2.48691,-8.28097e-05,0.00133259,-0.000995912,0.00184664,-0.000596863,-1.0943,0.00147098,0.0117653,986,470,1.56662,2.48691
-231,554,1.5722,-2.54633,-0.00140063,0.000724041,-0.00119182,0.00125826,-0.00193485,-1.14941,0.00185729,0.00990388,993,470,1.57219,2.54631
-224,554,1.59058,-2.59238,-0.00338591,0.000584341,-0.00117613,0.000906598,-0.00370816,-1.30336,0.00282325,0.0101571,1000,470,1.59059,2.59237
-217,554,1.59985,-2.62991,-0.00587998,6.05176e-05,-0.00123593,0.000307397,-0.00612686,-1.37364,0.0041908,0.0100836,1007,470,1.59987,2.62992
-210,554,1.60651,-2.68796,-0.00910389,-0.000745096,-0.000991118,-0.000629184,-0.0092198,-1.45438,0.00594791,0.012768,1014,470,1.60651,2.68797
-203,554,1.59314,-2.75333,-0.0125311,-0.00124286,-0.000716608,-0.00119755,-0.0125764,-1.50765,0.00801497,0.0186797,1021,470,1.59316,2.75331
-196,554,1.58337,-2.79892,-0.0161874,-0.00225108,-0.000546249,-0.0022297,-0.0162088,-1.53168,0.0101447,0.0237201,1028,470,1.58333,2.79891
-189,554,1.60803,-2.78552,-0.0193828,-0.00384918,-0.00108467,-0.0037738,-0.0194582,-1.50142,0.0119151,0.029911,1035,470,1.60808,2.78552
-182,554,1.60059,-2.81458,-0.0217219,-0.00610509,-0.00229555,-0.00577466,-0.0220524,-1.42783,0.0132045,0.0373989,1042,470,1.60055,2.81458
-175,554,1.54504,-2.94077,-0.0228896,-0.00713221,-0.00490126,-0.0057321,-0.0242897,-1.29254,0.0146608,0.0438775,1049,470,1.54499,2.94075
-168,554,1.68713,-2.94443,0,0,0,0,0,0,0,-1,1056,470,1.68718,2.94442
-161,554,1.74634,-2.9245,0,0,0,0,0,0,0,-1,1063,470,1.74634,2.9245
-154,554,1.82336,-3.02942,-0.0200801,-0.0114028,-0.0126689,-0.00235022,-0.0291328,-0.950371,0.0186878,0.0455084,1070,470,1.8234,3.02942
-147,554,1.43945,-3.14987,-0.0171737,-0.0124256,-0.0152229,0.000607233,-0.0302065,-0.86275,0.0203431,0.0490252,1077,470,1.43948,3.14987
-140,554,1.07043,-3.07291,0,0,0,0,0,0,0,-1,1084,470,1.07041,3.07291
-133,554,1.4834,-2.91885,0,0,0,0,0,0,0,-1,1091,470,1.4834,2.91885
-126,554,1.41077,-2.40649,0,0,0,0,0,0,0,-1,1098,470,1.41082,2.4065
-119,554,1.43433,-2.61945,-0.00099472,-0.0116766,-0.0220145,0.0163174,-0.0289887,-0.666392,0.0264963,0.043529,1105,470,1.43438,2.61945
-112,554,1.51147,-2.95172,0.00110998,-0.0107151,-0.0204744,0.0165085,-0.0261136,-0.644834,0.0248153,0.046756,1112,470,1.51145,2.95173
-105,554,1.53198,-3.06128,0.00159712,-0.00964404,-0.0173756,0.0142386,-0.0222855,-0.628972,0.0212571,0.0466135,1119,470,1.53204,3.06127
-98,554,1.63184,-2.98984,-0.000389787,-0.00920336,-0.0123463,0.0083126,-0.0179057,-0.61398,0.0154712,0.0428559,1126,470,1.63183,2.98984
-91,554,1.69385,-2.89673,0,0,0,0,0,0,0,-1,1133,470,1.69389,2.89672
-84,554,-0.151733,-2.96994,0,0,0,0,0,0,0,-1,1140,470,-0.151788,2.96995
-77,554,0.373901,-3.25113,0,0,0,0,0,0,0,-1,1147,470,0.373962,3.25111
-70,554,1.30786,-4.28668,0,0,0,0,0,0,0,-1,1154,470,1.30785,4.28669
-63,554,0.214478,-4.39279,0,0,0,0,0,0,0,-1,1161,470,0.21443,4.3928
-56,554,-1.38074,-7.92398,0,0,0,0,0,0,0,-1,1168,470,-1.38078,7.92398
-49,554,-1.86462,-6.87109,0,0,0,0,0,0,0,-1,1175,470,-1.86457,6.87108
-42,554,-2.15833,-5.60507,0,0,0,0,0,0,0,-1,1182,470,-2.15835,5.60506
-35,554,-2.40173,-4.59482,0,0,0,0,0,0,0,-1,1189,470,-2.40169,4.59481
-28,554,-0.760132,-1.65555,0,0,0,0,0,0,0,-1,1196,470,-0.760095,1.65556
-21,554,-0.326904,-1.55664,0,0,0,0,0,0,0,-1,1203,470,-0.326898,1.55664
-14,554,0.0753174,-1.46579,0,0,0,0,0,0,0,-1,1210,470,0.0753386,1.46579
-7,554,2.07837,-2.513,0,0,0,0,0,0,0,-1,1217,470,2.07841,2.513
0,554,2.13953,-2.23398,0,0,0,0,0,0,0,-1,1224,470,2.13957,2.23397
7,554,1.67712,-2.42746,-0.101449,-0.0635581,-0.0146414,-0.0585599,-0.106447,-1.24182,0.0615602,0.0489026,1231,470,1.67713,2.42747
14,554,1.27344,-2.6236,-0.0849651,-0.0604394,-0.0140894,-0.0540237,-0.0913808,-1.1435,0.0530504,0.0431112,1238,470,1.2734,2.62361
21,554,0.849854,-2.72055,-0.0555242,-0.0550591,-0.0160058,-0.0392841,-0.0712991,-0.792662,0.0412358,0.0423086,1245,470,0.849816,2.72056
28,554,0.115479,-2.43066,-0.0209685,-0.0474243,-0.0178025,-0.0120174,-0.0563754,-0.465883,0.0342871,0.043931,1252,470,0.11551,2.43068
35,554,-0.682983,-2.19879,0.0147938,-0.0391126,-0.0177383,0.020107,-0.0444258,-0.291029,0.0381297,0.039371,1259,470,-0.682957,2.1988
42,554,-1.44482,-1.98044,0,0,0,0,0,0,0,-1,1266,470,-1.44486,1.98044
49,554,-2.46936,-2.4437,0.0777918,-0.0268164,-0.0118645,0.0791205,-0.0281452,-0.111532,0.0642186,0.0441321,1273,470,-2.46931,2.44369
56,554,1.30603,-10.0115,0,0,0,0,0,0,0,-1,1280,470,1.306,10.0115
63,554,1.67566,-8.15005,0,0,0,0,0,0,0,-1,1287,470,1.67569,8.15004
70,554,1.27466,-6.63193,0,0,0,0,0,0,0,-1,1294,470,1.27471,6.63194
77,554,1.91602,-4.54654,0,0,0,0,0,0,0,-1,1301,470,1.916,4.54655
84,554,1.80835,-3.06912,0,0,0,0,0,0,0,-1,1308,470,1.80837,3.06914
91,554,1.91797,-1.79364,0,0,0,0,0,0,0,-1,1315,470,1.91801,1.79365
98,554,1.8551,-0.330383,0,0,0,0,0,0,0,-1,1322,470,1.85512,0.330396
105,554,1.57495,1.09634,0.0277747,0.0642279,0.104262,0.151844,-0.0598417,0.871932,0.126006,0.0471493,1329,470,1.57497,-1.09633
112,554,1.63086,2.68631,0.0127102,0.0558754,0.104457,0.140956,-0.0723705,0.887273,0.125268,0.0438132,1336,470,1.63092,-2.6863
119,554,1.80029,4.33884,0,0,0,0,0,0,0,-1,1343,470,1.80031,-4.33884
126,554,-0.923218,-7.26431,-0.00855358,0.0409764,0.104742,0.123841,-0.091418,0.901486,0.124749,0.0424431,1350,470,-0.923276,7.26431
133,554,-1.07581,-6.45984,-0.0159621,0.0362093,0.105145,0.118457,-0.0982094,0.906989,0.125274,0.0456889,1357,470,-1.07576,6.45983
140,554,-1.04712,-5.55209,0,0,0,0,0,0,0,-1,1364,470,-1.04714,5.55209
147,554,-0.855713,-4.64026,-0.0257835,0.0306804,0.107841,0.113924,-0.109027,0.913421,0.128731,0.0498722,1371,470,-0.855712,4.64027
154,554,-1.34814,-4.04169,-0.0278927,0.0303488,0.109313,0.114353,-0.111897,0.915574,0.130628,0.0448857,1378,470,-1.34811,4.04169
161,554,-1.74951,-3.66162,-0.0292507,0.0287208,0.110218,0.113701,-0.114231,0.91398,0.131596,0.0453296,1385,470,-1.74955,3.66161
168,554,-1.71631,-2.99802,0,0,0,0,0,0,0,-1,1392,470,-1.71628,2.99803
175,554,5.73792,0.997528,0,0,0,0,0,0,0,-1,1399,470,5.73787,-0.997528
182,554,6.71106,-4.50217,0,0,0,0,0,0,0,-1,1406,470,6.71107,4.50215
189,554,6.90479,-2.50348,0,0,0,0,0,0,0,-1,1413,470,6.90477,2.50348
196,554,6.96216,-0.740906,0,0,0,0,0,0,0,-1,1420,470,6.96214,0.740912
203,554,6.43518,0.414154,0,0,0,0,0,0,0,-1,1427,470,6.43523,-0.414141
210,554,6.21167,1.96707,0,0,0,0,0,0,0,-1,1434,470,6.21165,-1.96706
217,554,5.64551,3.4989,0,0,0,0,0,0,0,-1,1441,470,5.64555,-3.49891
224,554,5.07947,5.01331,0,0,0,0,0,0,0,-1,1448,470,5.07943,-5.01329
231,554,2.83533,-2.74036,0,0,0,0,0,0,0,-1,1455,470,2.83533,2.74036
238,554,4.28625,-3.25253,0,0,0,0,0,0,0,-1,1462,470,4.28622,3.25252
245,554,4.0752,-2.90033,0,0,0,0,0,0,0,-1,1469,470,4.07515,2.90032
252,554,3.86414,-2.54813,0,0,0,0,0,0,0,-1,1476,470,3.86409,2.54813
259,554,3.68628,-2.00473,0,0,0,0,0,0,0,-1,1483,470,3.68626,2.00472
266,554,4.19714,-2.49173,0,0,0,0,0,0,0,-1,1490,470,4.19715,2.49173
273,554,2.94336,0.57605,0,0,0,0,0,0,0,-1,1497,470,2.94342,-0.576055
280,554,2.83301,-0.991699,0,0,0,0,0,0,0,-1,1504,470,2.83303,0.991704
287,554,2.23938,-2.4169,0,0,0,0,0,0,0,-1,1511,470,2.23937,2.41689
294,554,2.66992,-2.31055,0,0,0,0,0,0,0,-1,1518,470,2.66987,2.31055
301,554,2.4928,-2.64053,0,0,0,0,0,0,0,-1,1525,470,2.49274,2.64054
308,554,2.95007,-2.64316,-0.00486163,-0.00678918,-0.009608,0.00383081,-0.0154816,-0.735411,0.011807,0.0454723,1532,470,2.95007,2.64315
315,554,3.03284,-2.87177,-0.00480258,-0.00523261,-0.00851751,0.00350263,-0.0135378,-0.772779,0.0103914,0.0349727,1539,470,3.03288,2.87175
322,554,2.62646,-2.69382,-0.00375985,-0.00382042,-0.00807827,0.00428819,-0.0118685,-0.783524,0.00966421,0.0291709,1546,470,2.62647,2.69381
329,554,2.56396,-2.61444,-0.00227467,-0.0030385,-0.00661951,0.00397393,-0.0092871,-0.756582,0.00785843,0.0172671,1553,470,2.56391,2.61443
336,554,2.56604,-2.56683,-0.00245748,-0.00266234,-0.00508044,0.00252157,-0.00764139,-0.775319,0.00611073,0.0105664,1560,470,2.56603,2.56683
343,554,2.58154,-2.51968,-0.00331455,-0.00249479,-0.0044704,0.00158448,-0.00739382,-0.831114,0.00553352,0.00898114,1567,470,2.58149,2.51967
350,554,2.58936,-2.45709,-0.00293084,-0.00227553,-0.00354448,0.00095641,-0.00616277,-0.831488,0.00446162,0.00905445,1574,470,2.58942,2.45708
357,554,2.59924,-2.39783,-0.00230362,-0.00223907,-0.0027698,0.000498648,-0.00504133,-0.791225,0.00353883,0.0105794,1581,470,2.59924,2.39783
364,554,2.60107,-2.36038,-0.00168208,-0.00216107,-0.00190572,-8.69855e-07,-0.00384228,-0.722891,0.00256123,0.00870116,1588,470,2.6011,2.36038
371,554,2.60339,-2.30713,-0.000939576,-0.00212056,-0.00121831,-0.000176203,-0.00288393,-0.559739,0.00186666,0.00868615,1595,470,2.60344,2.30712
378,554,2.60254,-2.23459,-0.000238611,-0.0018474,-0.000773747,7.31199e-05,-0.00215913,-0.382991,0.0014644,0.0101972,1602,470,2.60248,2.23459
385,554,2.60474,-2.17328,0.000391136,-0.00146063,-0.000304923,0.000440054,-0.00150955,-0.159072,0.00118071,0.00949037,1609,470,2.60478,2.17329
392,554,2.59741,-2.10922,0.000888311,-0.00100446,8.72035e-05,0.00089232,-0.00100847,0.045942,0.00109811,0.0129732,1616,470,2.59738,2.10921
399,554,2.59583,-2.0426,0.00127107,-0.000396904,0.000406399,0.00136482,-0.000490653,0.226716,0.00111018,0.0178349,1623,470,2.59583,2.04261
406,554,2.59424,-1.99725,0.00170594,0.000189957,0.000859822,0.00209418,-0.000198282,0.424129,0.00146669,0.0168006,1630,470,2.59422,1.99727
413,554,2.59009,-1.94214,0.00196302,0.000880378,0.00124867,0.00278266,6.07462e-05,0.580865,0.00183519,0.0152603,1637,470,2.59006,1.94215
420,554,2.58899,-1.8895,0.0021239,0.00136815,0.00151052,0.0033031,0.000188951,0.662832,0.00214186,0.0150166,1644,470,2.58904,1.88948
427,554,2.58948,-1.82367,0.00245973,0.00152293,0.00206563,0.0041094,-0.000126736,0.673904,0.00278281,0.0107102,1651,470,2.58954,1.82368
434,554,2.58557,-1.75961,0.00274097,0.00179661,0.00266024,0.00497061,-0.000433036,0.697565,0.00346711,0.0101144,1658,470,2.58554,1.75963
441,554,2.59363,-1.69537,0.00332964,0.00183834,0.00349097,0.00615371,-0.000985728,0.680182,0.00446745,0.0109518,1665,470,2.59361,1.69536
448,554,2.59839,-1.63272,0.00392837,0.00145239,0.00432778,0.00719175,-0.00181099,0.64609,0.00549849,0.0117359,1672,470,2.59842,1.63271
455,554,2.60242,-1.564,0.00475307,0.00068011,0.00540686,0.00849425,-0.00306108,0.605291,0.00691292,0.0141901,1679,470,2.60236,1.56401
462,554,2.62341,-1.48413,0.00603718,-0.00052772,0.0065947,0.0101212,-0.00461172,0.554479,0.00870203,0.0176001,1686,470,2.6234,1.48412
469,554,2.56909,-1.4234,0.00965259,-0.00252855,0.00881081,0.014273,-0.00714898,0.48298,0.0125939,0.0223591,1693,470,2.56905,1.4234
476,554,2.53149,-1.46429,0.0156652,-0.00149429,0.0126941,0.0224071,-0.00823619,0.48822,0.0183117,0.0400662,1700,470,2.53145,1.46428
483,554,2.50037,-1.52374,0,0,0,0,0,0,0,-1,1707,470,2.50033,1.52376
490,554,3.2749,-1.01782,0.0308535,-0.00123855,0.0220383,0.0420684,-0.0124535,0.470731,0.0329899,0.0473263,1714,470,3.27492,1.01783
497,554,3.58667,-1.0788,0,0,0,0,0,0,0,-1,1721,470,3.58662,1.07878
504,554,3.70349,-0.908325,0,0,0,0,0,0,0,-1,1728,470,3.70349,0.908331
511,554,3.83594,-0.580566,0,0,0,0,0,0,0,-1,1735,470,3.83598,0.580571
518,554,3.19824,-2.38416,0,0,0,0,0,0,0,-1,1742,470,3.19823,2.38414
525,554,0,0,0,0,0,0,0,0,0,-1,1749,470,0,0
532,554,0,0,0,0,0,0,0,0,0,-1,1756,470,0,0
539,554,0,0,0,0,0,0,0,0,0,-1,1763,470,0,0
546,554,0,0,0,0,0,0,0,0,0,-1,1770,470,0,0
553,554,0,0,0,0,0,0,0,0,0,-1,1777,470,0,0
560,554,0,0,0,0,0,0,0,0,0,-1,1784,470,0,0
567,554,0,0,0,0,0,0,0,0,0,-1,1791,470,0,0
574,554,0,0,0,0,0,0,0,0,0,-1,1798,470,0,0
581,554,0,0,0,0,0,0,0,0,0,-1,1805,470,0,0
588,554,0,0,0,0,0,0,0,0,0,-1,1812,470,0,0
595,554,0,0,0,0,0,0,0,0,0,-1,1819,470,0,0
602,554,0,0,0,0,0,0,0,0,0,-1,1826,470,0,0
609,554,0,0,0,0,0,0,0,0,0,-1,1833,470,0,0
616,554,0,0,0,0,0,0,0,0,0,-1,1840,470,0,0
623,554,0,0,0,0,0,0,0,0,0,-1,1847,470,0,0
630,554,0,0,0,0,0,0,0,0,0,-1,1854,470,0,0
637,554,0,0,0,0,0,0,0,0,0,-1,1861,470,0,0
644,554,0,0,0,0,0,0,0,0,0,-1,1868,470,0,0
651,554,0,0,0,0,0,0,0,0,0,-1,1875,470,0,0
658,554,0,0,0,0,0,0,0,0,0,-1,1882,470,0,0
665,554,0,0,0,0,0,0,0,0,0,-1,1889,470,0,0
672,554,0,0,0,0,0,0,0,0,0,-1,1896,470,0,0
679,554,0,0,0,0,0,0,0,0,0,-1,1903,470,0,0
686,554,0,0,0,0,0,0,0,0,0,-1,1910,470,0,0
693,554,0,0,0,0,0,0,0,0,0,-1,1917,470,0,0
700,554,0,0,0,0,0,0,0,0,0,-1,1924,470,0,0
707,554,0,0,0,0,0,0,0,0,0,-1,1931,470,0,0
714,554,0,0,0,0,0,0,0,0,0,-1,1938,470,0,0
721,554,0,0,0,0,0,0,0,0,0,-1,1945,470,0,0
728,554,0,0,0,0,0,0,0,0,0,-1,1952,470,0,0
735,554,0,0,0,0,0,0,0,0,0,-1,1959,470,0,0
742,554,0,0,0,0,0,0,0,0,0,-1,1966,470,0,0
749,554,0,0,0,0,0,0,0,0,0,-1,1973,470,0,0
756,554,0,0,0,0,0,0,0,0,0,-1,1980,470,0,0
763,554,0,0,0,0,0,0,0,0,0,-1,1987,470,0,0
770,554,0,0,0,0,0,0,0,0,0,-1,1994,470,0,0
777,554,0,0,0,0,0,0,0,0,0,-1,2001,470,0,0
784,554,0,0,0,0,0,0,0,0,0,-1,2008,470,0,0
791,554,0,0,0,0,0,0,0,0,0,-1,2015,470,0,0
798,554,0,0,0,0,0,0,0,0,0,-1,2022,470,0,0
805,554,0,0,0,0,0,0,0,0,0,-1,2029,470,0,0
812,554,0,0,0,0,0,0,0,0,0,-1,2036,470,0,0
-700,547,0,0,0,0,0,0,0,0,0,-1,524,477,0,0
-693,547,0,0,0,0,0,0,0,0,0,-1,531,477,0,0
-686,547,0,0,0,0,0,0,0,0,0,-1,538,477,0,0
-679,547,0,0,0,0,0,0,0,0,0,-1,545,477,0,0
-672,547,0,0,0,0,0,0,0,0,0,-1,552,477,0,0
-665,547,0,0,0,0,0,0,0,0,0,-1,559,477,0,0
-658,547,0,0,0,0,0,0,0,0,0,-1,566,477,0,0
-651,547,0,0,0,0,0,0,0,0,0,-1,573,477,0,0
-644,547,0,0,0,0,0,0,0,0,0,-1,580,477,0,0
-637,547,0,0,0,0,0,0,0,0,0,-1,587,477,0,0
-630,547,0,0,0,0,0,0,0,0,0,-1,594,477,0,0
-623,547,0,0,0,0,0,0,0,0,0,-1,601,477,0,0
-616,547,0,0,0,0,0,0,0,0,0,-1,608,477,0,0
-609,547,0,0,0,0,0,0,0,0,0,-1,615,477,0,0
-602,547,0,0,0,0,0,0,0,0,0,-1,622,477,0,0
-595,547,0,0,0,0,0,0,0,0,0,-1,629,477,0,0
-588,547,0,0,0,0,0,0,0,0,0,-1,636,477,0,0
-581,547,0,0,0,0,0,0,0,0,0,-1,643,477,0,0
-574,547,0,0,0,0,0,0,0,0,0,-1,650,477,0,0
-567,547,0,0,0,0,0,0,0,0,0,-1,657,477,0,0
-560,547,0,0,0,0,0,0,0,0,0,-1,664,477,0,0
-553,547,0,0,0,0,0,0,0,0,0,-1,671,477,0,0
-546,547,0,0,0,0,0,0,0,0,0,-1,678,477,0,0
-539,547,0,0,0,0,0,0,0,0,0,-1,685,477,0,0
-532,547,0,0,0,0,0,0,0,0,0,-1,692,477,0,0
-525,547,0,0,0,0,0,0,0,0,0,-1,699,477,0,0
-518,547,0,0,0,0,0,0,0,0,0,-1,706,477,0,0
-511,547,0,0,0,0,0,0,0,0,0,-1,713,477,0,0
-504,547,0,0,0,0,0,0,0,0,0,-1,720,477,0,0
-497,547,0,0,0,0,0,0,0,0,0,-1,727,477,0,0
-490,547,0,0,0,0,0,0,0,0,0,-1,734,477,0,0
-483,547,0,0,0,0,0,0,0,0,0,-1,741,477,0,0
-476,547,0,0,0,0,0,0,0,0,0,-1,748,477,0,0
-469,547,0,0,0,0,0,0,0,0,0,-1,755,477,0,0
-462,547,0,0,0,0,0,0,0,0,0,-1,762,477,0,0
-455,547,0,0,0,0,0,0,0,0,0,-1,769,477,0,0
-448,547,0,0,0,0,0,0,0,0,0,-1,776,477,0,0
-441,547,0,0,0,0,0,0,0,0,0,-1,783,477,0,0
-434,547,0,0,0,0,0,0,0,0,0,-1,790,477,0,0
-427,547,0,0,0,0,0,0,0,0,0,-1,797,477,0,0
-420,547,0,0,0,0,0,0,0,0,0,-1,804,477,0,0
-413,547,0,0,0,0,0,0,0,0,0,-1,811,477,0,0
-406,547,-0.50885,-3.79712,-0.0467552,-0.0236211,-0.00441415,-0.0228074,-0.0475688,-1.38852,0.0274716,0.0457033,818,477,-0.508839,3.79713
-399,547,-0.720459,-3.56689,0,0,0,0,0,0,0,-1,825,477,-0.720444,3.56688
-392,547,-0.596924,-3.24698,0,0,0,0,0,0,0,-1,832,477,-0.596894,3.24698
-385,547,2.03473,-3.42935,0,0,0,0,0,0,0,-1,839,477,2.03474,3.42935
-378,547,7.10431,-4.74048,0,0,0,0,0,0,0,-1,846,477,7.10433,4.74047
-371,547,6.15796,-4.59714,0,0,0,0,0,0,0,-1,853,477,6.15796,4.59715
-364,547,1.15851,-1.41379,0,0,0,0,0,0,0,-1,860,477,1.15853,1.41379
-357,547,1.46167,-1.33105,0,0,0,0,0,0,0,-1,867,477,1.46164,1.33104
-350,547,1.45947,-1.49075,-0.0390899,0.0224976,0.00639218,0.023154,-0.0397464,1.46846,0.0367343,0.0498435,874,477,1.45945,1.49076
-343,547,1.4978,-1.60272,-0.0306505,0.0186585,0.00498632,0.0191577,-0.0311496,1.47102,0.0293187,0.0344039,881,477,1.4978,1.60271
-336,547,1.52625,-1.68295,-0.0236642,0.0152749,0.0039098,0.0156636,-0.0240529,1.47171,0.0231002,0.0146893,888,477,1.52625,1.68295
-329,547,1.51056,-1.74283,-0.0181165,0.012404,0.00313137,0.0127219,-0.0184345,1.4696,0.0180887,0.0092152,895,477,1.51054,1.74283
-322,547,1.50073,-1.80453,-0.0136335,0.0102641,0.00269308,0.0105638,-0.0139332,1.45996,0.0141879,0.0104139,902,477,1.50071,1.80455
-315,547,1.51367,-1.87607,-0.0094929,0.008123,0.00225509,0.0084071,-0.009777,1.44547,0.0105085,0.00961451,909,477,1.51367,1.87607
-308,547,1.52142,-1.93845,-0.00637288,0.00662923,0.00193731,0.00691175,-0.0066554,1.42599,0.00783346,0.0116717,916,477,1.52143,1.93845
-301,547,1.5293,-1.99554,-0.00401907,0.00535626,0.00161272,0.00562592,-0.00428873,1.40512,0.00574156,0.0112101,923,477,1.5293,1.99553
-294,547,1.5213,-2.0582,-0.00263531,0.00465057,0.00148234,0.00494061,-0.00292535,1.37757,0.00459083,0.00890387,930,477,1.52129,2.0582
-287,547,1.50653,-2.11285,-0.00185222,0.00407218,0.00136039,0.00436963,-0.00214966,1.35554,0.00383597,0.010444,937,477,1.50652,2.11287
-280,547,1.51013,-2.15979,-0.00130648,0.0034018,0.00124113,0.00370893,-0.00161361,1.32821,0.00315134,0.0122899,944,477,1.51012,2.15979
-273,547,1.50684,-2.20816,-0.000650647,0.00275357,0.000841139,0.00295006,-0.00084714,1.34131,0.00230166,0.0115424,951,477,1.50686,2.20817
-266,547,1.5108,-2.27084,0.00017073,0.00216707,0.000269845,0.0022029,0.000134898,1.43878,0.00142577,0.0111026,958,477,1.51083,2.27083
-259,547,1.51532,-2.31638,0.000712318,0.0016625,-0.000315221,0.00175756,0.000617255,-1.27789,0.0010296,0.0107009,965,477,1.51532,2.31639
-252,547,1.52094,-2.37427,0.00107203,0.00142576,-0.000908254,0.00217421,0.000323582,-0.881559,0.00135456,0.0107497,972,477,1.52092,2.37426
-245,547,1.53601,-2.43921,0.00149723,0.00144167,-0.00139622,0.00286595,7.29576e-05,-0.775451,0.00188678,0.0119238,979,477,1.53601,2.43922
-238,547,1.53101,-2.49332,0.000727892,0.0013547,-0.00181575,0.0028839,-0.000801303,-0.870858,0.00223804,0.00848148,986,477,1.53098,2.49332
-231,547,1.51587,-2.56036,-0.00156098,0.000967928,-0.00195443,0.00203127,-0.00262433,-1.07252,0.00269517,0.0081075,993,477,1.5159,2.56037
-224,547,1.53101,-2.57593,-0.00470797,0.000922102,-0.00190684,0.00150713,-0.005293,-1.27311,0.00412389,0.0104262,1000,477,1.53103,2.57593
-217,547,1.54639,-2.61108,-0.00851776,0.000471026,-0.00184807,0.000836154,-0.00888288,-1.37574,0.0062194,0.013864,1007,477,1.54641,2.61109
-210,547,1.52094,-2.71255,-0.0131991,-0.000630714,-0.00154121,-0.000444481,-0.0133853,-1.45054,0.00877913,0.0210752,1014,477,1.52096,2.71256
-203,547,1.53247,-2.68903,-0.0180839,-0.00140209,-0.00121688,-0.00131379,-0.0181722,-1.49836,0.0117015,0.0338348,1021,477,1.53249,2.68903
-196,547,1.5896,-2.75702,-0.0232083,-0.00291486,-0.00101519,-0.00286421,-0.023259,-1.52094,0.0146449,0.0423237,1028,477,1.58955,2.75703
-189,547,1.57654,-2.71689,-0.0274869,-0.00504067,-0.00192026,-0.00487758,-0.02765,-1.48607,0.0170417,0.044336,1035,477,1.57649,2.7169
-182,547,0.973877,-2.54858,-0.0303379,-0.00787922,-0.00372269,-0.00727824,-0.0309388,-1.41074,0.0186786,0.0470876,1042,477,0.973885,2.54859
-175,547,0.882813,-2.92456,-0.031683,-0.00918815,-0.00705263,-0.00715987,-0.0337112,-1.29076,0.0205085,0.0472587,1049,477,0.882761,2.92455
-168,547,1.91724,-3.09818,0,0,0,0,0,0,0,-1,1056,477,1.91729,3.09816
-161,547,1.44006,-3.91473,0,0,0,0,0,0,0,-1,1063,477,1.44006,3.91472
-154,547,2.01111,-3.15552,-0.0273244,-0.0147469,-0.0176042,-0.0023419,-0.0397294,-0.956949,0.0257412,0.0421971,1070,477,2.01107,3.15551
-147,547,2.01721,-2.83707,-0.0233805,-0.0161424,-0.0212446,0.00178923,-0.0413121,-0.869764,0.0281568,0.0448537,1077,477,2.01726,2.83707
-140,547,1.97498,-2.68411,-0.0187526,-0.016211,-0.0247872,0.0073379,-0.0423015,-0.811009,0.0309384,0.0492461,1084,477,1.97494,2.68411
-133,547,1.80774,-3.17548,0,0,0,0,0,0,0,-1,1091,477,1.8078,3.17548
-126,547,0.605713,-2.20557,-0.00659146,-0.0155674,-0.0304191,0.019669,-0.0418278,-0.712158,0.0362653,0.0405759,1098,477,0.605772,2.20558
-119,547,1.01294,-2.68085,-0.00160351,-0.0148484,-0.0309461,0.0234208,-0.0398727,-0.679988,0.0369517,0.0423432,1105,477,1.0129,2.68083
-112,547,1.34863,-2.98572,0,0,0,0,0,0,0,-1,1112,477,1.34861,2.9857
-105,547,1.32471,-3.05386,0.00166496,-0.0114047,-0.0243627,0.020354,-0.0300938,-0.654367,0.0293064,0.0417031,1119,477,1.32475,3.05386
-98,547,1.2793,-2.89301,-0.00115975,-0.0100382,-0.0166218,0.0116054,-0.0228034,-0.654908,0.0202136,0.0419883,1126,477,1.27934,2.89301
-91,547,0.99585,-2.54395,-0.00741857,-0.00913243,-0.00604765,-0.00216744,-0.0143836,-0.715018,0.00895443,0.0444826,1133,477,0.995819,2.54395
-84,547,0.817627,-2.11639,0,0,0,0,0,0,0,-1,1140,477,0.817655,2.1164
-77,547,-0.0939941,-3.61392,0,0,0,0,0,0,0,-1,1147,477,-0.0939855,3.61391
-70,547,0.205322,-2.35114,0,0,0,0,0,0,0,-1,1154,477,0.205344,2.35113
-63,547,-0.948486,-8.68182,0,0,0,0,0,0,0,-1,1161,477,-0.948483,8.68182
-56,547,-1.62732,-7.8277,0,0,0,0,0,0,0,-1,1168,477,-1.62728,7.82769
-49,547,-2.07422,-6.7627,0,0,0,0,0,0,0,-1,1175,477,-2.07421,6.76268
-42,547,-2.41736,-5.53012,0,0,0,0,0,0,0,-1,1182,477,-2.41734,5.53011
-35,547,-2.96838,-4.45734,0,0,0,0,0,0,0,-1,1189,477,-2.96839,4.45734
-28,547,-0.869141,-1.29901,0,0,0,0,0,0,0,-1,1196,477,-0.869135,1.29901
-21,547,-0.411865,-1.11679,0,0,0,0,0,0,0,-1,1203,477,-0.411879,1.11679
-14,547,-0.275513,-0.974152,0,0,0,0,0,0,0,-1,1210,477,-0.275491,0.974154
-7,547,0.854004,-1.66354,0,0,0,0,0,0,0,-1,1217,477,0.853963,1.66354
0,547,1.96411,-2.05548,0,0,0,0,0,0,0,-1,1224,477,1.96411,2.05547
7,547,1.34656,-2.0415,0,0,0,0,0,0,0,-1,1231,477,1.34654,2.04151
14,547,0,0,0,0,0,0,0,0,0,-1,1238,477,0,0
21,547,0,0,0,0,0,0,0,0,0,-1,1245,477,0,0
28,547,0,0,0,0,0,0,0,0,0,-1,1252,477,0,0
35,547,0,0,0,0,0,0,0,0,0,-1,1259,477,0,0
42,547,0,0,0,0,0,0,0,0,0,-1,1266,477,0,0
49,547,0,0,0,0,0,0,0,0,0,-1,1273,477,0,0
56,547,0,0,0,0,0,0,0,0,0,-1,1280,477,0,0
63,547,0,0,0,0,0,0,0,0,0,-1,1287,477,0,0
70,547,0,0,0,0,0,0,0,0,0,-1,1294,477,0,0
77,547,0,0,0,0,0,0,0,0,0,-1,1301,477,0,0
84,547,0,0,0,0,0,0,0,0,0,-1,1308,477,0,0
91,547,0,0,0,0,0,0,0,0,0,-1,1315,477,0,0
98,547,0,0,0,0,0,0,0,0,0,-1,1322,477,0,0
105,547,1.82703,0.20816,0.0350603,0.100653,0.108922,0.18161,-0.045896,0.931631,0.138922,0.0450836,1329,477,1.82708,-0.208154
112,547,1.88281,1.56461,0.0172242,0.0879683,0.110456,0.168578,-0.063385,0.940357,0.138438,0.045816,1336,477,1.88278,-1.5646
119,547,1.99292,3.0162,0,0,0,0,0,0,0,-1,1343,477,1.99286,-3.0162
126,547,1.99841,4.12885,0,0,0,0,0,0,0,-1,1350,477,1.99839,-4.12886
133,547,-1.9021,-6.68378,-0.0173069,0.0547256,0.112452,0.136788,-0.0993695,0.940377,0.136915,0.047283,1357,477,-1.90205,6.68379
140,547,-1.86011,-5.8064,0,0,0,0,0,0,0,-1,1364,477,-1.86008,5.80641
147,547,-1.77246,-4.94449,-0.0310552,0.0408207,0.116195,0.126508,-0.116743,0.935378,0.140479,0.0475827,1371,477,-1.77249,4.94447
154,547,-1.98914,-4.12543,-0.0341288,0.0358343,0.118221,0.124141,-0.122436,0.929243,0.142362,0.0464063,1378,477,-1.98912,4.12543
161,547,-2.30579,-3.38657,-0.0358273,0.0335111,0.120262,0.124001,-0.126318,0.925733,0.144524,0.0495198,1385,477,-2.30574,3.38657
168,547,-2.4115,-2.71188,0,0,0,0,0,0,0,-1,1392,477,-2.41151,2.71189
175,547,3.35034,-0.26532,0,0,0,0,0,0,0,-1,1399,477,3.3503,0.265306
182,547,4.26038,3.72672,0,0,0,0,0,0,0,-1,1406,477,4.26039,-3.7267
189,547,3.40454,1.28671,0,0,0,0,0,0,0,-1,1413,477,3.40457,-1.28673
196,547,3.53931,1.87793,0,0,0,0,0,0,0,-1,1420,477,3.53928,-1.87794
203,547,6.49414,-0.425842,0,0,0,0,0,0,0,-1,1427,477,6.4941,0.425844
210,547,4.82092,0.53595,0,0,0,0,0,0,0,-1,1434,477,4.82096,-0.535942
217,547,4.68579,0.480072,0,0,0,0,0,0,0,-1,1441,477,4.68577,-0.480069
224,547,4.55615,0.739807,0,0,0,0,0,0,0,-1,1448,477,4.55613,-0.73981
231,547,5.90869,-3.57721,0,0,0,0,0,0,0,-1,1455,477,5.90871,3.57722
238,547,5.50049,-3.15356,-0.0292458,-0.0412292,-0.00704918,-0.025986,-0.0444891,-0.433156,0.0258066,0.0445838,1462,477,5.50045,3.15356
245,547,5.13708,-2.65213,-0.0298399,-0.0434498,-0.0123558,-0.0225391,-0.0507506,-0.533691,0.0293618,0.046314,1469,477,5.13708,2.65212
252,547,4.80505,-2.0181,-0.0289221,-0.042661,-0.014422,-0.0198171,-0.051766,-0.563137,0.0301595,0.0466486,1476,477,4.80504,2.01809
259,547,4.37952,-1.32056,0,0,0,0,0,0,0,-1,1483,477,4.3795,1.32056
266,547,3.84338,-0.497314,-0.0242344,-0.0342195,-0.0144192,-0.0139679,-0.044486,-0.618736,0.0262698,0.0436529,1490,477,3.84338,0.49732
273,547,3.05737,0.495789,-0.0216295,-0.0293537,-0.0139585,-0.0110086,-0.0399745,-0.650433,0.0238429,0.0484642,1497,477,3.05742,-0.49578
280,547,2.0885,1.47797,0,0,0,0,0,0,0,-1,1504,477,2.08848,-1.47795
287,547,2.31177,-2.21716,0,0,0,0,0,0,0,-1,1511,477,2.31174,2.21717
294,547,2.61328,-2.50293,0,0,0,0,0,0,0,-1,1518,477,2.61332,2.50294
301,547,3.29602,-2.13519,0,0,0,0,0,0,0,-1,1525,477,3.29606,2.13518
308,547,3.70007,-2.71295,0,0,0,0,0,0,0,-1,1532,477,3.70002,2.71296
315,547,2.85608,-2.75421,0,0,0,0,0,0,0,-1,1539,477,2.8561,2.75421
322,547,2.76453,-2.59955,-0.00517651,-0.00452727,-0.0105104,0.00566356,-0.0153673,-0.800836,0.0125656,0.0444252,1546,477,2.76455,2.59954
329,547,2.67957,-2.54694,-0.00348916,-0.00421288,-0.00894288,0.00509918,-0.0128012,-0.765177,0.0106489,0.0359825,1553,477,2.67951,2.54694
336,547,2.64038,-2.53143,-0.00401636,-0.00415997,-0.00692921,0.00284142,-0.0110177,-0.780217,0.00845302,0.0257042,1560,477,2.64034,2.53145
343,547,2.64038,-2.52686,-0.00525506,-0.0043795,-0.0061648,0.00136305,-0.0109976,-0.820845,0.00782576,0.0182654,1567,477,2.64042,2.52685
350,547,2.64001,-2.47083,-0.00469199,-0.00447301,-0.0049723,0.000391013,-0.009556,-0.796406,0.00650493,0.0141037,1574,477,2.63997,2.47083
357,547,2.63513,-2.39282,-0.00387705,-0.00474817,-0.00401089,-0.000278143,-0.00834707,-0.731313,0.00547436,0.0116454,1581,477,2.63509,2.39281
364,547,2.64539,-2.33868,-0.0031838,-0.00491715,-0.00297652,-0.000950351,-0.0071506,-0.64373,0.00448398,0.00975372,1588,477,2.64536,2.33867
371,547,2.65247,-2.28842,-0.00237056,-0.00508196,-0.00218026,-0.00115888,-0.00629365,-0.507249,0.00386779,0.00881243,1595,477,2.6525,2.28842
378,547,2.65466,-2.2298,-0.00160683,-0.00490142,-0.00164916,-0.00092318,-0.00558508,-0.392983,0.00345699,0.00974774,1602,477,2.65464,2.22981
385,547,2.65515,-2.17923,-0.000929555,-0.00452246,-0.00108033,-0.000629734,-0.00482228,-0.270714,0.00302686,0.0105854,1609,477,2.65517,2.17922
392,547,2.6377,-2.1275,-0.000396757,-0.00397848,-0.000622435,-0.000291673,-0.00408356,-0.167251,0.00263055,0.0120473,1616,477,2.63774,2.12749
399,547,2.63879,-2.03677,-2.46562e-06,-0.00323092,-0.000264947,1.9133e-05,-0.00325252,-0.0813408,0.00217475,0.0133523,1623,477,2.63883,2.03676
406,547,2.66504,-1.96588,0.000464581,-0.00244749,0.00023671,0.000483696,-0.00246661,0.080581,0.0018271,0.012599,1630,477,2.66504,1.96589
413,547,2.65808,-1.93445,0.000790749,-0.0014912,0.000640135,0.000958054,-0.0016585,0.255641,0.00152861,0.0124907,1637,477,2.6581,1.93445
420,547,2.65466,-1.89072,0.00104318,-0.000711528,0.000892123,0.00141708,-0.00108543,0.396872,0.00144905,0.0144261,1644,477,2.65462,1.89071
427,547,2.66162,-1.81772,0.00138266,-0.000178717,0.00132631,0.00214099,-0.000937041,0.519393,0.00182185,0.0136179,1651,477,2.66156,1.81771
434,547,2.65576,-1.74747,0.00168198,0.000468634,0.00186105,0.00303275,-0.000882134,0.627838,0.00237122,0.00959303,1658,477,2.65576,1.74747
441,547,2.65149,-1.69559,0.00220669,0.000902721,0.00256632,0.00420255,-0.00109314,0.661002,0.00322837,0.0103662,1665,477,2.65148,1.6956
448,547,2.65735,-1.63519,0.00276793,0.000922624,0.00322723,0.00520181,-0.00151126,0.646165,0.00406634,0.0112681,1672,477,2.65735,1.6352
455,547,2.64197,-1.56497,0.00352898,0.000450999,0.00403427,0.00630784,-0.00232786,0.603179,0.00515931,0.0118708,1679,477,2.64203,1.56499
462,547,2.62927,-1.48611,0.00468601,-0.000577625,0.00490942,0.00762455,-0.00351616,0.539354,0.00657627,0.0118162,1686,477,2.62933,1.48612
469,547,2.6427,-1.40802,0.00759378,-0.00226467,0.0067019,0.010984,-0.00565486,0.468321,0.00976929,0.0182783,1693,477,2.64267,1.40803
476,547,2.75537,-1.36194,0.0124162,-0.00131636,0.00980166,0.0175173,-0.00641747,0.47986,0.0143055,0.0311599,1700,477,2.75533,1.36195
483,547,2.92676,-1.27255,0.0175569,-0.00150592,0.012938,0.0240954,-0.00804436,0.467931,0.0193118,0.0442332,1707,477,2.92678,1.27256
490,547,3.06433,-1.09937,0.0243858,-0.00107853,0.0170379,0.0329233,-0.009616,0.464517,0.0257596,0.0465762,1714,477,3.06427,1.09935
497,547,3.19897,-0.938782,0,0,0,0,0,0,0,-1,1721,477,3.19898,0.938794
504,547,2.74365,-0.0509644,0,0,0,0,0,0,0,-1,1728,477,2.74369,0.0509605
511,547,3.34534,-1.91104,0,0,0,0,0,0,0,-1,1735,477,3.34534,1.91103
518,547,3.44885,-1.98892,0.0733844,0.0137096,0.0452746,0.0977694,-0.0106753,0.494049,0.0690138,0.0464442,1742,477,3.44881,1.98891
525,547,4.46716,-0.733582,0.0916838,0.0232594,0.0561953,0.123262,-0.00831884,0.511962,0.0850833,0.0493401,1749,477,4.46722,0.733591
532,547,0,0,0,0,0,0,0,0,0,-1,1756,477,0,0
539,547,0,0,0,0,0,0,0,0,0,-1,1763,477,0,0
546,547,0,0,0,0,0,0,0,0,0,-1,1770,477,0,0
553,547,0,0,0,0,0,0,0,0,0,-1,1777,477,0,0
560,547,0,0,0,0,0,0,0,0,0,-1,1784,477,0,0
567,547,0,0,0,0,0,0,0,0,0,-1,1791,477,0,0
574,547,0,0,0,0,0,0,0,0,0,-1,1798,477,0,0
581,547,0,0,0,0,0,0,0,0,0,-1,1805,477,0,0
588,547,0,0,0,0,0,0,0,0,0,-1,1812,477,0,0
595,547,0,0,0,0,0,0,0,0,0,-1,1819,477,0,0
602,547,0,0,0,0,0,0,0,0,0,-1,1826,477,0,0
609,547,0,0,0,0,0,0,0,0,0,-1,1833,477,0,0
616,547,0,0,0,0,0,0,0,0,0,-1,1840,477,0,0
623,547,0,0,0,0,0,0,0,0,0,-1,1847,477,0,0
630,547,0,0,0,0,0,0,0,0,0,-1,1854,477,0,0
637,547,0,0,0,0,0,0,0,0,0,-1,1861,477,0,0
644,547,0,0,0,0,0,0,0,0,0,-1,1868,477,0,0
651,547,0,0,0,0,0,0,0,0,0,-1,1875,477,0,0
658,547,0,0,0,0,0,0,0,0,0,-1,1882,477,0,0
665,547,0,0,0,0,0,0,0,0,0,-1,1889,477,0,0
672,547,0,0,0,0,0,0,0,0,0,-1,1896,477,0,0
679,547,0,0,0,0,0,0,0,0,0,-1,1903,477,0,0
686,547,0,0,0,0,0,0,0,0,0,-1,1910,477,0,0
693,547,0,0,0,0,0,0,0,0,0,-1,1917,477,0,0
700,547,0,0,0,0,0,0,0,0,0,-1,1924,477,0,0
707,547,0,0,0,0,0,0,0,0,0,-1,1931,477,0,0
714,547,0,0,0,0,0,0,0,0,0,-1,1938,477,0,0
721,547,0,0,0,0,0,0,0,0,0,-1,1945,477,0,0
728,547,0,0,0,0,0,0,0,0,0,-1,1952,477,0,0
735,547,0,0,0,0,0,0,0,0,0,-1,1959,477,0,0
742,547,0,0,0,0,0,0,0,0,0,-1,1966,477,0,0
749,547,0,0,0,0,0,0,0,0,0,-1,1973,477,0,0
756,547,0,0,0,0,0,0,0,0,0,-1,1980,477,0,0
763,547,0,0,0,0,0,0,0,0,0,-1,1987,477,0,0
770,547,0,0,0,0,0,0,0,0,0,-1,1994,477,0,0
777,547,0,0,0,0,0,0,0,0,0,-1,2001,477,0,0
784,547,0,0,0,0,0,0,0,0,0,-1,2008,477,0,0
791,547,0,0,0,0,0,0,0,0,0,-1,2015,477,0,0
798,547,0,0,0,0,0,0,0,0,0,-1,2022,477,0,0
805,547,0,0,0,0,0,0,0,0,0,-1,2029,477,0,0
812,547,0,0,0,0,0,0,0,0,0,-1,2036,477,0,0
-700,540,0,0,0,0,0,0,0,0,0,-1,524,484,0,0
-693,540,0,0,0,0,0,0,0,0,0,-1,531,484,0,0
-686,540,0,0,0,0,0,0,0,0,0,-1,538,484,0,0
-679,540,0,0,0,0,0,0,0,0,0,-1,545,484,0,0
-672,540,0,0,0,0,0,0,0,0,0,-1,552,484,0,0
-665,540,0,0,0,0,0,0,0,0,0,-1,559,484,0,0
-658,540,0,0,0,0,0,0,0,0,0,-1,566,484,0,0
-651,540,0,0,0,0,0,0,0,0,0,-1,573,484,0,0
-644,540,0,0,0,0,0,0,0,0,0,-1,580,484,0,0
-637,540,0,0,0,0,0,0,0,0,0,-1,587,484,0,0
-630,540,0,0,0,0,0,0,0,0,0,-1,594,484,0,0
-623,540,0,0,0,0,0,0,0,0,0,-1,601,484,0,0
-616,540,0,0,0,0,0,0,0,0,0,-1,608,484,0,0
-609,540,0,0,0,0,0,0,0,0,0,-1,615,484,0,0
-602,540,0,0,0,0,0,0,0,0,0,-1,622,484,0,0
-595,540,0,0,0,0,0,0,0,0,0,-1,629,484,0,0
-588,540,0,0,0,0,0,0,0,0,0,-1,636,484,0,0
-581,540,0,0,0,0,0,0,0,0,0,-1,643,484,0,0
-574,540,0,0,0,0,0,0,0,0,0,-1,650,484,0,0
-567,540,0,0,0,0,0,0,0,0,0,-1,657,484,0,0
-560,540,0,0,0,0,0,0,0,0,0,-1,664,484,0,0
-553,540,0,0,0,0,0,0,0,0,0,-1,671,484,0,0
-546,540,0,0,0,0,0,0,0,0,0,-1,678,484,0,0
-539,540,0,0,0,0,0,0,0,0,0,-1,685,484,0,0
-532,540,0,0,0,0,0,0,0,0,0,-1,692,484,0,0
-525,540,0,0,0,0,0,0,0,0,0,-1,699,484,0,0
-518,540,0,0,0,0,0,0,0,0,0,-1,706,484,0,0
-511,540,0,0,0,0,0,0,0,0,0,-1,713,484,0,0
-504,540,0,0,0,0,0,0,0,0,0,-1,720,484,0,0
-497,540,0,0,0,0,0,0,0,0,0,-1,727,484,0,0
-490,540,0,0,0,0,0,0,0,0,0,-1,734,484,0,0
-483,540,0,0,0,0,0,0,0,0,0,-1,741,484,0,0
-476,540,0,0,0,0,0,0,0,0,0,-1,748,484,0,0
-469,540,0,0,0,0,0,0,0,0,0,-1,755,484,0,0
-462,540,0,0,0,0,0,0,0,0,0,-1,762,484,0,0
-455,540,0,0,0,0,0,0,0,0,0,-1,769,484,0,0
-448,540,0,0,0,0,0,0,0,0,0,-1,776,484,0,0
-441,540,0,0,0,0,0,0,0,0,0,-1,783,484,0,0
-434,540,0,0,0,0,0,0,0,0,0,-1,790,484,0,0
-427,540,0,0,0,0,0,0,0,0,0,-1,797,484,0,0
-420,540,0.843384,-3.26273,-0.00372653,-0.0630197,-0.0040133,-0.00345612,-0.0632901,-0.0672767,0.0410899,0.0454986,804,484,0.843408,3.26272
-413,540,0.361023,-3.35892,-0.0162838,-0.0473962,-0.00375221,-0.0158377,-0.0478423,-0.118341,0.0281426,0.0449112,811,484,0.361017,3.35891
-406,540,0.178467,-3.47293,-0.0267836,-0.0322633,-0.00199617,-0.0261336,-0.0329133,-0.314824,0.0200678,0.045214,818,484,0.178472,3.47293
-399,540,0.950562,-3.7644,0,0,0,0,0,0,0,-1,825,484,0.950567,3.7644
-392,540,0.420105,-2.58612,0,0,0,0,0,0,0,-1,832,484,0.420105,2.58611
-385,540,1.27521,-2.76709,0,0,0,0,0,0,0,-1,839,484,1.2752,2.7671
-378,540,0.882324,-1.02405,0,0,0,0,0,0,0,-1,846,484,0.882351,1.02404
-371,540,1.04639,-1.18219,-0.0399329,0.0110056,0.00179183,0.0110685,-0.0399958,1.53568,0.0310188,0.0494869,853,484,1.04639,1.18219
-364,540,1.22406,-1.31546,-0.0360733,0.014111,0.00307452,0.0142987,-0.036261,1.50984,0.0300946,0.0478072,860,484,1.22405,1.31545
-357,540,1.43036,-1.43771,-0.0318856,0.0160504,0.00383756,0.0163556,-0.0321908,1.49141,0.028521,0.0422464,867,484,1.43038,1.43772
-350,540,1.42737,-1.50424,-0.0275596,0.0165071,0.00437999,0.0169383,-0.0279908,1.47268,0.0262001,0.0263527,874,484,1.42738,1.50424
-343,540,1.44293,-1.59204,-0.021404,0.013671,0.00343783,0.0140047,-0.0217378,1.47401,0.0207963,0.0119148,881,484,1.44294,1.59203
-336,540,1.46356,-1.69019,-0.0163264,0.0110232,0.0027521,0.0112974,-0.0166005,1.4715,0.0162036,0.0111692,888,484,1.46354,1.6902
-329,540,1.44812,-1.73944,-0.0123033,0.0087404,0.00227223,0.00898295,-0.0125459,1.46445,0.0124863,0.0104007,895,484,1.44812,1.73943
-322,540,1.43951,-1.80499,-0.00910248,0.00685828,0.00183116,0.00706567,-0.00930988,1.45802,0.00948398,0.0134949,902,484,1.4395,1.805
-315,540,1.44324,-1.86664,-0.00609519,0.0050211,0.00141285,0.00519786,-0.00627195,1.44634,0.00663177,0.0120027,909,484,1.44327,1.86664
-308,540,1.44855,-1.92487,-0.00387287,0.00381275,0.00106377,0.00395727,-0.00401739,1.43577,0.00460421,0.0112831,916,484,1.44855,1.92486
-301,540,1.44336,-1.9808,-0.00220411,0.00299221,0.000682622,0.00308038,-0.00229228,1.44233,0.00311301,0.010808,923,484,1.44337,1.98079
-294,540,1.46448,-2.05353,-0.00127085,0.00287335,0.000512586,0.00293581,-0.00133331,1.44954,0.002522,0.0104232,930,484,1.46446,2.05352
-287,540,1.47247,-2.12769,-0.000829432,0.00280934,0.000331174,0.00283924,-0.000859327,1.48077,0.00223503,0.00832999,937,484,1.47246,2.12769
-280,540,1.45209,-2.17929,-0.000572998,0.00284249,0.000199209,0.00285407,-0.000584578,1.51273,0.00212455,0.00950387,944,484,1.45207,2.17929
-273,540,1.45599,-2.23022,-9.41329e-05,0.00297617,-0.000109431,0.00298007,-9.80283e-05,-1.53521,0.00202018,0.0115011,951,484,1.45598,2.23021
-266,540,1.45624,-2.28992,0.000527145,0.00333757,-0.000590713,0.00345669,0.000408033,-1.37182,0.00218121,0.0122285,958,484,1.45624,2.28992
-259,540,1.46838,-2.3381,0.000904785,0.00384689,-0.000997605,0.00415325,0.00059842,-1.27284,0.00259249,0.011291,965,484,1.46837,2.3381
-252,540,1.474,-2.39178,0.00113173,0.0044709,-0.00142142,0.00499402,0.000608613,-1.21816,0.00314616,0.0113939,972,484,1.47402,2.39178
-245,540,1.47589,-2.45993,0.00153185,0.00526218,-0.00172525,0.00593775,0.000856278,-1.19757,0.0037062,0.0120199,979,484,1.47587,2.45993
-238,540,1.46588,-2.50153,0.000286674,0.00567081,-0.00201672,0.00634243,-0.000384942,-1.24932,0.00436226,0.00881687,986,484,1.46591,2.50153
-231,540,1.4472,-2.54544,-0.00297995,0.00525189,-0.00208785,0.00575116,-0.00347921,-1.33608,0.0053827,0.0108665,993,484,1.44721,2.54546
-224,540,1.47485,-2.55508,-0.00737284,0.00485045,-0.0020519,0.00518571,-0.0077081,-1.40884,0.00749157,0.0158506,1000,484,1.47486,2.55508
-217,540,1.47772,-2.63687,-0.012547,0.00375437,-0.00207483,0.00401431,-0.0128069,-1.44616,0.0101444,0.0264676,1007,484,1.47773,2.63687
-210,540,1.46143,-2.80533,-0.0187997,0.00178067,-0.00183592,0.00194316,-0.0189622,-1.48252,0.0133365,0.0389123,1014,484,1.46145,2.80534
-203,540,1.52728,-2.858,-0.0253654,4.0734e-05,-0.00160125,0.000141256,-0.0254659,-1.5081,0.0170245,0.0445606,1021,484,1.52727,2.858
-196,540,1.84302,-2.76245,-0.0322562,-0.00266018,-0.00150634,-0.00258371,-0.0323326,-1.52007,0.0207475,0.0474649,1028,484,1.84301,2.76244
-189,540,1.5658,-2.68768,0,0,0,0,0,0,0,-1,1035,484,1.56575,2.68768
-182,540,0.7948,-2.41107,0,0,0,0,0,0,0,-1,1042,484,0.794779,2.41106
-175,540,0.382813,-2.68021,0,0,0,0,0,0,0,-1,1049,484,0.382854,2.6802
-168,540,-0.809082,-2.63873,-0.0426094,-0.0140246,-0.0134173,-0.00871352,-0.0479205,-1.19388,0.029475,0.0482281,1056,484,-0.809135,2.63872
-161,540,-1.30835,-3.13647,-0.0406545,-0.0165877,-0.018236,-0.0067727,-0.0504695,-1.07704,0.0316314,0.046097,1063,484,-1.30829,3.13648
-154,540,1.96802,-3.5014,0,0,0,0,0,0,0,-1,1070,484,1.96797,3.50141
-147,540,2.43604,-2.54846,-0.0310157,-0.0205135,-0.0287009,0.00341276,-0.0549419,-0.875877,0.0378169,0.0477175,1077,484,2.43598,2.54846
-140,540,2.45947,-2.37549,-0.024775,-0.0207259,-0.0335731,0.0108837,-0.0563845,-0.815513,0.0416938,0.0470331,1084,484,2.45945,2.37549
-133,540,2.57495,-2.10443,-0.0167089,-0.0206533,-0.0382583,0.019628,-0.0569902,-0.759647,0.0459553,0.0446403,1091,484,2.57498,2.10442
-126,540,2.94519,-2.3299,-0.00893745,-0.0199749,-0.0415991,0.0275074,-0.0564197,-0.719451,0.0494045,0.0426355,1098,484,2.94521,2.32988
-119,540,0.524292,-2.70084,0,0,0,0,0,0,0,-1,1105,484,0.524335,2.70082
-112,540,3.21814,-2.02133,0,0,0,0,0,0,0,-1,1112,484,3.21812,2.02133
-105,540,1.11438,-3.3819,0,0,0,0,0,0,0,-1,1119,484,1.11437,3.38189
-98,540,0.73877,-3.08093,0,0,0,0,0,0,0,-1,1126,484,0.738754,3.08092
-91,540,0.563965,-3.05609,0,0,0,0,0,0,0,-1,1133,484,0.563971,3.05608
-84,540,0.598145,-2.53299,0,0,0,0,0,0,0,-1,1140,484,0.59811,2.533
-77,540,-1.39355,-4.96735,0,0,0,0,0,0,0,-1,1147,484,-1.39358,4.96735
-70,540,-1.33228,-5.27542,0,0,0,0,0,0,0,-1,1154,484,-1.3323,5.27543
-63,540,-0.0715332,-3.00568,0,0,0,0,0,0,0,-1,1161,484,-0.0715666,3.00568
-56,540,-1.87378,-7.73138,0,0,0,0,0,0,0,-1,1168,484,-1.87377,7.7314
-49,540,-2.3103,-6.60565,0,0,0,0,0,0,0,-1,1175,484,-2.31028,6.60564
-42,540,0,0,0,0,0,0,0,0,0,-1,1182,484,0,0
-35,540,0,0,0,0,0,0,0,0,0,-1,1189,484,0,0
-28,540,0,0,0,0,0,0,0,0,0,-1,1196,484,0,0
-21,540,0,0,0,0,0,0,0,0,0,-1,1203,484,0,0
-14,540,0,0,0,0,0,0,0,0,0,-1,1210,484,0,0
-7,540,0,0,0,0,0,0,0,0,0,-1,1217,484,0,0
0,540,0,0,0,0,0,0,0,0,0,-1,1224,484,0,0
7,540,0,0,0,0,0,0,0,0,0,-1,1231,484,0,0
14,540,0,0,0,0,0,0,0,0,0,-1,1238,484,0,0
21,540,0,0,0,0,0,0,0,0,0,-1,1245,484,0,0
28,540,0,0,0,0,0,0,0,0,0,-1,1252,484,0,0
35,540,0,0,0,0,0,0,0,0,0,-1,1259,484,0,0
42,540,0,0,0,0,0,0,0,0,0,-1,1266,484,0,0
49,540,0,0,0,0,0,0,0,0,0,-1,1273,484,0,0
56,540,0,0,0,0,0,0,0,0,0,-1,1280,484,0,0
63,540,0,0,0,0,0,0,0,0,0,-1,1287,484,0,0
70,540,0,0,0,0,0,0,0,0,0,-1,1294,484,0,0
77,540,0,0,0,0,0,0,0,0,0,-1,1301,484,0,0
84,540,0,0,0,0,0,0,0,0,0,-1,1308,484,0,0
91,540,0,0,0,0,0,0,0,0,0,-1,1315,484,0,0
98,540,0,0,0,0,0,0,0,0,0,-1,1322,484,0,0
105,540,0,0,0,0,0,0,0,0,0,-1,1329,484,0,0
112,540,0,0,0,0,0,0,0,0,0,-1,1336,484,0,0
119,540,0,0,0,0,0,0,0,0,0,-1,1343,484,0,0
126,540,0,0,0,0,0,0,0,0,0,-1,1350,484,0,0
133,540,0,0,0,0,0,0,0,0,0,-1,1357,484,0,0
140,540,0,0,0,0,0,0,0,0,0,-1,1364,484,0,0
147,540,0,0,0,0,0,0,0,0,0,-1,1371,484,0,0
154,540,0,0,0,0,0,0,0,0,0,-1,1378,484,0,0
161,540,0,0,0,0,0,0,0,0,0,-1,1385,484,0,0
168,540,3.05078,-0.0010376,0,0,0,0,0,0,0,-1,1392,484,3.05084,0.00102554
175,540,3.37708,0.617035,0,0,0,0,0,0,0,-1,1399,484,3.37707,-0.617046
182,540,3.32678,1.23267,0,0,0,0,0,0,0,-1,1406,484,3.32678,-1.23266
189,540,3.5813,2.15619,0,0,0,0,0,0,0,-1,1413,484,3.58129,-2.1562
196,540,1.84448,-0.801483,0,0,0,0,0,0,0,-1,1420,484,1.84446,0.80148
203,540,4.14648,0.702087,0,0,0,0,0,0,0,-1,1427,484,4.14645,-0.702089
210,540,4.50671,-0.56076,0,0,0,0,0,0,0,-1,1434,484,4.50667,0.560771
217,540,5.00452,-0.278717,0,0,0,0,0,0,0,-1,1441,484,5.00452,0.278709
224,540,6.44458,-2.83527,0,0,0,0,0,0,0,-1,1448,484,6.44457,2.83525
231,540,6.9231,-3.10504,0,0,0,0,0,0,0,-1,1455,484,6.92307,3.10505
238,540,6.4823,-2.58365,-0.0347763,-0.0521525,-0.0097961,-0.0303707,-0.0565581,-0.422636,0.0326836,0.0455289,1462,484,6.48225,2.58363
245,540,6.02087,-1.97916,-0.0359912,-0.0535185,-0.0149967,-0.0273853,-0.0621245,-0.520975,0.0359513,0.0452834,1469,484,6.02088,1.97915
252,540,5.73181,-1.38864,-0.035227,-0.051311,-0.0165454,-0.0248727,-0.0616653,-0.559183,0.0358235,0.0439631,1476,484,5.73178,1.38864
259,540,5.07275,-0.636414,0,0,0,0,0,0,0,-1,1483,484,5.07273,0.636405
266,540,4.03625,-0.433716,-0.030131,-0.0400858,-0.0162743,-0.01809,-0.0521268,-0.636993,0.0305612,0.0449419,1490,484,4.03622,0.433722
273,540,3.28076,0.572479,-0.0270468,-0.0341302,-0.0158237,-0.0143733,-0.0468037,-0.675301,0.0276844,0.0499027,1497,484,3.28081,-0.572476
280,540,1.62903,-2.14609,-0.0239977,-0.0289344,-0.0157537,-0.0105201,-0.042412,-0.707688,0.0255018,0.0492443,1504,484,1.62906,2.1461
287,540,1.97156,-2.45053,-0.0218525,-0.0237748,-0.015183,-0.00760024,-0.0380271,-0.753788,0.0232361,0.0486009,1511,484,1.97159,2.45053
294,540,2.44165,-2.6185,0,0,0,0,0,0,0,-1,1518,484,2.44167,2.6185
301,540,4.36169,-2.54272,0,0,0,0,0,0,0,-1,1525,484,4.36165,2.54272
308,540,4.74451,-3.11285,0,0,0,0,0,0,0,-1,1532,484,4.74447,3.11284
315,540,4.88928,-3.62448,0,0,0,0,0,0,0,-1,1539,484,4.88929,3.62448
322,540,2.81006,-2.47989,0,0,0,0,0,0,0,-1,1546,484,2.81008,2.47989
329,540,3.02661,-2.40829,-0.00526678,-0.00574792,-0.0115981,0.00609328,-0.017108,-0.775029,0.0138893,0.0497579,1553,484,3.02664,2.40831
336,540,2.76929,-2.40314,-0.00642453,-0.00666504,-0.00902999,0.00248601,-0.0155756,-0.77874,0.0113039,0.0482163,1560,484,2.76926,2.40314
343,540,2.68359,-2.43524,-0.00825902,-0.00755253,-0.00809036,0.000192296,-0.0160038,-0.807216,0.0107339,0.0423647,1567,484,2.68358,2.43525
350,540,2.72363,-2.40781,-0.00746284,-0.00809403,-0.00653456,-0.00123625,-0.0143206,-0.761269,0.00916283,0.0328345,1574,484,2.72366,2.40782
357,540,2.70801,-2.3436,-0.00635417,-0.00866384,-0.00533444,-0.00205099,-0.012967,-0.6788,0.0080486,0.0203737,1581,484,2.70802,2.3436
364,540,2.68115,-2.31342,-0.00541398,-0.00904185,-0.00410994,-0.00273548,-0.0117204,-0.577578,0.00708014,0.0123858,1588,484,2.68118,2.31341
371,540,2.68518,-2.2821,-0.00432673,-0.00932653,-0.00319715,-0.00276815,-0.0108851,-0.45359,0.00653254,0.0108487,1595,484,2.68518,2.28209
378,540,2.7041,-2.23819,-0.00336842,-0.00908656,-0.00260674,-0.00235847,-0.0100965,-0.369633,0.00609881,0.0111451,1602,484,2.7041,2.2382
385,540,2.72302,-2.18088,-0.00249589,-0.0085603,-0.00196166,-0.00191667,-0.00913952,-0.28711,0.00556525,0.0138424,1609,484,2.72301,2.18088
392,540,2.6864,-2.11603,-0.00177066,-0.00774322,-0.00146105,-0.0014324,-0.00808148,-0.227506,0.00497934,0.0126166,1616,484,2.68636,2.11602
399,540,2.68384,-2.04874,-0.0012409,-0.00666521,-0.00108176,-0.00103312,-0.00687298,-0.189761,0.00427939,0.0158191,1623,484,2.68381,2.04872
406,540,2.72131,-1.98685,-0.000647426,-0.00549949,-0.000546735,-0.000586582,-0.00556033,-0.110829,0.00352766,0.0156797,1630,484,2.72131,1.98686
413,540,2.72339,-1.94638,-0.000186568,-0.00410053,-0.000135742,-0.000181866,-0.00410523,-0.0346261,0.00267826,0.0119601,1637,484,2.72341,1.94637
420,540,2.71667,-1.86462,0.000188403,-0.00287858,0.000116553,0.000192826,-0.00288301,0.0379294,0.0019894,0.0106801,1644,484,2.71672,1.86464
427,540,2.71753,-1.79828,0.000556804,-0.00185111,0.000480292,0.00064907,-0.00194337,0.189791,0.00155769,0.0115537,1651,484,2.71754,1.79827
434,540,2.7262,-1.73367,0.000939515,-0.00071757,0.00101186,0.00141877,-0.00119683,0.442339,0.00151193,0.0149689,1658,484,2.72619,1.73368
441,540,2.745,-1.67688,0.0014234,0.0001551,0.00163836,0.00254606,-0.000967561,0.600747,0.00209571,0.0190709,1665,484,2.74496,1.67687
448,540,2.73291,-1.63879,0.00193296,0.000521112,0.00219185,0.00352976,-0.00107568,0.629609,0.00278194,0.0121144,1672,484,2.73287,1.6388
455,540,2.71289,-1.56223,0.00260411,0.000285205,0.00283756,0.00450996,-0.00162065,0.591446,0.0036682,0.0110096,1679,484,2.71285,1.56223
462,540,2.69263,-1.4841,0.00357956,-0.000537374,0.00354376,0.00561932,-0.00257714,0.522281,0.00483966,0.0107853,1686,484,2.69257,1.4841
469,540,2.69678,-1.43472,0.00593339,-0.00197665,0.00500365,0.00835636,-0.00439962,0.45096,0.00748183,0.0129335,1693,484,2.69675,1.43473
476,540,2.72034,-1.38861,0.00974951,-0.00118303,0.00743975,0.0135152,-0.00494877,0.468567,0.011036,0.015981,1700,484,2.72036,1.3886
483,540,2.7948,-1.2962,0.0136851,-0.00136532,0.00981929,0.0185311,-0.00621133,0.45845,0.0148636,0.0237336,1707,484,2.79478,1.29622
490,540,2.81201,-0.950745,0.0189005,-0.00107638,0.012963,0.0252769,-0.00745281,0.457141,0.0198085,0.038973,1714,484,2.81204,0.950743
497,540,2.72241,-0.592255,0,0,0,0,0,0,0,-1,1721,484,2.72238,0.592265
504,540,3.13489,-1.51569,0,0,0,0,0,0,0,-1,1728,484,3.1349,1.5157
511,540,3.23853,-1.74753,0.0444562,0.00490009,0.0279785,0.0589414,-0.00958504,0.477726,0.0428481,0.0479185,1735,484,3.23847,1.74753
518,540,3.50366,-1.87167,0.056628,0.0099751,0.0351631,0.0754984,-0.00889526,0.492537,0.0535442,0.0455655,1742,484,3.50366,1.87167
525,540,4.04651,-1.36874,0.0707596,0.0172741,0.0439227,0.0954404,-0.00740669,0.511944,0.066234,0.0499324,1749,484,4.04647,1.36875
532,540,4.46851,-1.03177,0,0,0,0,0,0,0,-1,1756,484,4.46851,1.03176
539,540,0,0,0,0,0,0,0,0,0,-1,1763,484,0,0
546,540,0,0,0,0,0,0,0,0,0,-1,1770,484,0,0
553,540,0,0,0,0,0,0,0,0,0,-1,1777,484,0,0
560,540,0,0,0,0,0,0,0,0,0,-1,1784,484,0,0
567,540,0,0,0,0,0,0,0,0,0,-1,1791,484,0,0
574,540,0,0,0,0,0,0,0,0,0,-1,1798,484,0,0
581,540,0,0,0,0,0,0,0,0,0,-1,1805,484,0,0
588,540,0,0,0,0,0,0,0,0,0,-1,1812,484,0,0
595,540,0,0,0,0,0,0,0,0,0,-1,1819,484,0,0
602,540,0,0,0,0,0,0,0,0,0,-1,1826,484,0,0
609,540,0,0,0,0,0,0,0,0,0,-1,1833,484,0,0
616,540,0,0,0,0,0,0,0,0,0,-1,1840,484,0,0
623,540,0,0,0,0,0,0,0,0,0,-1,1847,484,0,0
630,540,0,0,0,0,0,0,0,0,0,-1,1854,484,0,0
637,540,0,0,0,0,0,0,0,0,0,-1,1861,484,0,0
644,540,0,0,0,0,0,0,0,0,0,-1,1868,484,0,0
651,540,0,0,0,0,0,0,0,0,0,-1,1875,484,0,0
658,540,0,0,0,0,0,0,0,0,0,-1,1882,484,0,0
665,540,0,0,0,0,0,0,0,0,0,-1,1889,484,0,0
672,540,0,0,0,0,0,0,0,0,0,-1,1896,484,0,0
679,540,0,0,0,0,0,0,0,0,0,-1,1903,484,0,0
686,540,0,0,0,0,0,0,0,0,0,-1,1910,484,0,0
693,540,0,0,0,0,0,0,0,0,0,-1,1917,484,0,0
700,540,0,0,0,0,0,0,0,0,0,-1,1924,484,0,0
707,540,0,0,0,0,0,0,0,0,0,-1,1931,484,0,0
714,540,0,0,0,0,0,0,0,0,0,-1,1938,484,0,0
721,540,0,0,0,0,0,0,0,0,0,-1,1945,484,0,0
728,540,0,0,0,0,0,0,0,0,0,-1,1952,484,0,0
735,540,0,0,0,0,0,0,0,0,0,-1,1959,484,0,0
742,540,0,0,0,0,0,0,0,0,0,-1,1966,484,0,0
749,540,0,0,0,0,0,0,0,0,0,-1,1973,484,0,0
756,540,0,0,0,0,0,0,0,0,0,-1,1980,484,0,0
763,540,0,0,0,0,0,0,0,0,0,-1,1987,484,0,0
770,540,0,0,0,0,0,0,0,0,0,-1,1994,484,0,0
777,540,0,0,0,0,0,0,0,0,0,-1,2001,484,0,0
784,540,0,0,0,0,0,0,0,0,0,-1,2008,484,0,0
791,540,0,0,0,0,0,0,0,0,0,-1,2015,484,0,0
798,540,0,0,0,0,0,0,0,0,0,-1,2022,484,0,0
805,540,0,0,0,0,0,0,0,0,0,-1,2029,484,0,0
812,540,0,0,0,0,0,0,0,0,0,-1,2036,484,0,0
-700,533,0,0,0,0,0,0,0,0,0,-1,524,491,0,0
-693,533,0,0,0,0,0,0,0,0,0,-1,531,491,0,0
-686,533,0,0,0,0,0,0,0,0,0,-1,538,491,0,0
-679,533,0,0,0,0,0,0,0,0,0,-1,545,491,0,0
-672,533,0,0,0,0,0,0,0,0,0,-1,552,491,0,0
-665,533,0,0,0,0,0,0,0,0,0,-1,559,491,0,0
-658,533,0,0,0,0,0,0,0,0,0,-1,566,491,0,0
-651,533,0,0,0,0,0,0,0,0,0,-1,573,491,0,0
-644,533,0,0,0,0,0,0,0,0,0,-1,580,491,0,0
-637,533,0,0,0,0,0,0,0,0,0,-1,587,491,0,0
-630,533,0,0,0,0,0,0,0,0,0,-1,594,491,0,0
-623,533,0,0,0,0,0,0,0,0,0,-1,601,491,0,0
-616,533,0,0,0,0,0,0,0,0,0,-1,608,491,0,0
-609,533,0,0,0,0,0,0,0,0,0,-1,615,491,0,0
-602,533,0,0,0,0,0,0,0,0,0,-1,622,491,0,0
-595,533,0,0,0,0,0,0,0,0,0,-1,629,491,0,0
-588,533,0,0,0,0,0,0,0,0,0,-1,636,491,0,0
-581,533,0,0,0,0,0,0,0,0,0,-1,643,491,0,0
-574,533,0,0,0,0,0,0,0,0,0,-1,650,491,0,0
-567,533,0,0,0,0,0,0,0,0,0,-1,657,491,0,0
-560,533,0,0,0,0,0,0,0,0,0,-1,664,491,0,0
-553,533,0,0,0,0,0,0,0,0,0,-1,671,491,0,0
-546,533,0,0,0,0,0,0,0,0,0,-1,678,491,0,0
-539,533,0,0,0,0,0,0,0,0,0,-1,685,491,0,0
-532,533,0,0,0,0,0,0,0,0,0,-1,692,491,0,0
-525,533,0,0,0,0,0,0,0,0,0,-1,699,491,0,0
-518,533,0,0,0,0,0,0,0,0,0,-1,706,491,0,0
-511,533,0,0,0,0,0,0,0,0,0,-1,713,491,0,0
-504,533,0,0,0,0,0,0,0,0,0,-1,720,491,0,0
-497,533,0,0,0,0,0,0,0,0,0,-1,727,491,0,0
-490,533,0,0,0,0,0,0,0,0,0,-1,734,491,0,0
-483,533,0,0,0,0,0,0,0,0,0,-1,741,491,0,0
-476,533,0,0,0,0,0,0,0,0,0,-1,748,491,0,0
-469,533,0,0,0,0,0,0,0,0,0,-1,755,491,0,0
-462,533,0,0,0,0,0,0,0,0,0,-1,762,491,0,0
-455,533,0,0,0,0,0,0,0,0,0,-1,769,491,0,0
-448,533,0,0,0,0,0,0,0,0,0,-1,776,491,0,0
-441,533,0,0,0,0,0,0,0,0,0,-1,783,491,0,0
-434,533,0,0,0,0,0,0,0,0,0,-1,790,491,0,0
-427,533,2.81171,-3.815,0,0,0,0,0,0,0,-1,797,491,2.81172,3.815
-420,533,1.17975,-3.134,0.0104051,-0.0658134,0.0044256,0.0106612,-0.0660695,0.0578057,0.0479964,0.0485525,804,491,1.17974,3.13401
-413,533,1.04602,-2.95438,-0.00183042,-0.0510791,0.00160106,-0.00177843,-0.0511311,0.032464,0.0335103,0.0485263,811,491,1.046,2.95438
-406,533,0.883179,-2.98291,-0.0117805,-0.0369763,0.00085108,-0.0117518,-0.037005,0.0337275,0.0218337,0.0446733,818,491,0.883191,2.98292
-399,533,1.96313,-3.36884,0,0,0,0,0,0,0,-1,825,491,1.96316,3.36883
-392,533,3.27466,-3.78082,0,0,0,0,0,0,0,-1,832,491,3.27464,3.78083
-385,533,0.504028,-1.81915,0,0,0,0,0,0,0,-1,839,491,0.504048,1.81915
-378,533,0.977478,-1.22919,0,0,0,0,0,0,0,-1,846,491,0.977448,1.22918
-371,533,1.10803,-1.2814,-0.0270399,0.00556508,0.000374816,0.00556939,-0.0270442,1.5593,0.0201442,0.04758,853,491,1.10806,1.28141
-364,533,1.27435,-1.36673,-0.0241984,0.00865667,0.00141684,0.00871766,-0.0242594,1.52778,0.0197315,0.0364781,860,491,1.27437,1.36673
-357,533,1.40631,-1.46741,-0.0212359,0.0107812,0.00210061,0.0109185,-0.0213731,1.50556,0.0189665,0.01899,867,491,1.40633,1.46742
-350,533,1.37396,-1.53403,-0.0182107,0.01154,0.00264929,0.0117741,-0.0184448,1.48267,0.017588,0.0100752,874,491,1.37398,1.53402
-343,533,1.41119,-1.62912,-0.0138966,0.00938849,0.00204046,0.00956594,-0.0140741,1.48405,0.013731,0.00998144,881,491,1.4112,1.62913
-336,533,1.38721,-1.72498,-0.0103659,0.00721076,0.00164053,0.00736257,-0.0105177,1.47852,0.0103766,0.0148726,888,491,1.3872,1.72497
-329,533,1.38757,-1.76306,-0.00757575,0.00530531,0.00139039,0.00545368,-0.00772412,1.46449,0.00764575,0.0139472,895,491,1.38757,1.76307
-322,533,1.38757,-1.80881,-0.00533165,0.00371787,0.00114587,0.00386071,-0.00547449,1.44678,0.00541646,0.0110063,902,491,1.38756,1.8088
-315,533,1.38879,-1.88,-0.00322953,0.00222136,0.000852227,0.00235149,-0.00335967,1.41927,0.00331442,0.0115264,909,491,1.38881,1.88002
-308,533,1.37891,-1.9267,-0.00175574,0.00141543,0.000560165,0.00151148,-0.00185178,1.401,0.00194509,0.0110473,916,491,1.37889,1.92668
-301,533,1.36621,-1.97525,-0.000657832,0.00132985,0.000180614,0.00134613,-0.000674111,1.48091,0.0011877,0.0120905,923,491,1.36623,1.97525
-294,533,1.38739,-2.04901,-9.97059e-05,0.00246625,-5.70593e-05,0.00246752,-0.000100974,-1.54857,0.00167968,0.0110638,930,491,1.38741,2.04901
-287,533,1.40479,-2.11981,8.58407e-06,0.00349984,-0.000349877,0.00353456,-2.61337e-05,-1.47189,0.00236513,0.00936936,937,491,1.40479,2.11982
-280,533,1.40491,-2.17743,-1.74214e-06,0.00483743,-0.000629046,0.00491787,-8.2175e-05,-1.44362,0.00330631,0.00884833,944,491,1.40493,2.17742
-273,533,1.39886,-2.24551,0.0002613,0.00648292,-0.00108644,0.00666718,7.70374e-05,-1.40279,0.00441933,0.0120296,951,491,1.39886,2.24551
-266,533,1.39575,-2.30109,0.000651686,0.008527,-0.00177987,0.00891058,0.00026811,-1.35853,0.00585306,0.0117793,958,491,1.39578,2.30109
-259,533,1.40863,-2.35364,0.000845378,0.0107669,-0.0023843,0.0113101,0.000302136,-1.34678,0.00744143,0.0114838,965,491,1.40864,2.35363
-252,533,1.40552,-2.39948,0.000913362,0.0128508,-0.00298584,0.0135559,0.000208188,-1.33887,0.0089687,0.0131844,972,491,1.4055,2.39947
-245,533,1.40918,-2.45361,0.0012305,0.01498,-0.00342098,0.0157842,0.000426366,-1.33993,0.0103836,0.0166399,979,491,1.40919,2.4536
-238,533,1.41309,-2.45428,-0.000653125,0.0161026,-0.00380813,0.0169275,-0.001478,-1.35748,0.0118085,0.0171564,986,491,1.41306,2.45427
-231,533,1.46295,-2.45349,-0.00506053,0.015446,-0.00383061,0.0161382,-0.00575273,-1.39202,0.0131042,0.0245131,993,491,1.46297,2.45349
-224,533,1.51788,-2.52798,-0.0109218,0.014307,-0.00372181,0.0148446,-0.0114594,-1.42734,0.0152285,0.0320661,1000,491,1.51786,2.52799
-217,533,1.72821,-2.82843,-0.0176727,0.0118453,-0.00363631,0.0122867,-0.018114,-1.45001,0.017659,0.0374396,1007,491,1.72824,2.82843
-210,533,1.4928,-2.94626,-0.0256517,0.00807419,-0.00320124,0.00837536,-0.0259528,-1.47699,0.0206673,0.0467519,1014,491,1.49279,2.94626
-203,533,1.51154,-3.04147,-0.0341924,0.0044207,-0.00280191,0.00462296,-0.0343946,-1.49874,0.0246159,0.0486141,1021,491,1.51154,3.04147
-196,533,1.4873,-3.01627,-0.0433522,-0.000742099,-0.00255485,-0.000589462,-0.0435049,-1.51112,0.0288088,0.0496819,1028,491,1.48725,3.01628
-189,533,1.47461,-2.98669,0,0,0,0,0,0,0,-1,1035,491,1.47462,2.98669
-182,533,0.667725,-2.40619,-0.0544421,-0.0115656,-0.00797286,-0.010131,-0.0558767,-1.39277,0.0343754,0.0440681,1042,491,0.667772,2.4062
-175,533,-0.158813,-2.46527,-0.0563545,-0.0139991,-0.012792,-0.0104355,-0.0599181,-1.29911,0.0369612,0.0460387,1049,491,-0.158833,2.46527
-168,533,-0.941772,-2.52997,-0.0559918,-0.0171553,-0.0175528,-0.0103978,-0.0627492,-1.2033,0.0388337,0.0464267,1056,491,-0.941729,2.52998
-161,533,-1.67822,-2.63602,-0.0531403,-0.0204461,-0.0237585,-0.00795412,-0.0656323,-1.08673,0.0413593,0.0459861,1063,491,-1.67826,2.63601
-154,533,-2.45862,-2.72647,0,0,0,0,0,0,0,-1,1070,491,-2.45867,2.72648
-147,533,2.79932,-2.23337,0,0,0,0,0,0,0,-1,1077,491,2.79929,2.23336
-140,533,2.54529,-1.98245,0,0,0,0,0,0,0,-1,1084,491,2.54528,1.98245
-133,533,2.9054,-1.69144,-0.021705,-0.0262547,-0.0509883,0.0270591,-0.0750189,-0.763105,0.0610646,0.0460557,1091,491,2.90538,1.69145
-126,533,2.89612,-2.59003,-0.0119389,-0.0255772,-0.0558077,0.0374647,-0.0749809,-0.724605,0.0661139,0.0461197,1098,491,2.89608,2.59003
-119,533,2.87903,-3.47372,0,0,0,0,0,0,0,-1,1105,491,2.87905,3.47373
-112,533,3.04395,-2.39413,0,0,0,0,0,0,0,-1,1112,491,3.04395,2.39414
-105,533,3.84839,1.12769,0,0,0,0,0,0,0,-1,1119,491,3.84843,-1.12769
-98,533,-1.39392,-5.16367,0,0,0,0,0,0,0,-1,1126,491,-1.39394,5.16367
-91,533,0.487061,-3.47952,0,0,0,0,0,0,0,-1,1133,491,0.487096,3.47952
-84,533,-1.5658,-5.49057,0,0,0,0,0,0,0,-1,1140,491,-1.56577,5.49058
-77,533,0,0,0,0,0,0,0,0,0,-1,1147,491,0,0
-70,533,0,0,0,0,0,0,0,0,0,-1,1154,491,0,0
-63,533,0,0,0,0,0,0,0,0,0,-1,1161,491,0,0
-56,533,0,0,0,0,0,0,0,0,0,-1,1168,491,0,0
-49,533,0,0,0,0,0,0,0,0,0,-1,1175,491,0,0
-42,533,0,0,0,0,0,0,0,0,0,-1,1182,491,0,0
-35,533,0,0,0,0,0,0,0,0,0,-1,1189,491,0,0
-28,533,0,0,0,0,0,0,0,0,0,-1,1196,491,0,0
-21,533,0,0,0,0,0,0,0,0,0,-1,1203,491,0,0
-14,533,0,0,0,0,0,0,0,0,0,-1,1210,491,0,0
-7,533,0,0,0,0,0,0,0,0,0,-1,1217,491,0,0
0,533,0,0,0,0,0,0,0,0,0,-1,1224,491,0,0
7,533,0,0,0,0,0,0,0,0,0,-1,1231,491,0,0
14,533,0,0,0,0,0,0,0,0,0,-1,1238,491,0,0
21,533,0,0,0,0,0,0,0,0,0,-1,1245,491,0,0
28,533,0,0,0,0,0,0,0,0,0,-1,1252,491,0,0
35,533,0,0,0,0,0,0,0,0,0,-1,1259,491,0,0
42,533,0,0,0,0,0,0,0,0,0,-1,1266,491,0,0
49,533,0,0,0,0,0,0,0,0,0,-1,1273,491,0,0
56,533,0,0,0,0,0,0,0,0,0,-1,1280,491,0,0
63,533,0,0,0,0,0,0,0,0,0,-1,1287,491,0,0
70,533,0,0,0,0,0,0,0,0,0,-1,1294,491,0,0
77,533,0,0,0,0,0,0,0,0,0,-1,1301,491,0,0
84,533,0,0,0,0,0,0,0,0,0,-1,1308,491,0,0
91,533,0,0,0,0,0,0,0,0,0,-1,1315,491,0,0
98,533,0,0,0,0,0,0,0,0,0,-1,1322,491,0,0
105,533,0,0,0,0,0,0,0,0,0,-1,1329,491,0,0
112,533,0,0,0,0,0,0,0,0,0,-1,1336,491,0,0
119,533,0,0,0,0,0,0,0,0,0,-1,1343,491,0,0
126,533,0,0,0,0,0,0,0,0,0,-1,1350,491,0,0
133,533,0,0,0,0,0,0,0,0,0,-1,1357,491,0,0
140,533,0,0,0,0,0,0,0,0,0,-1,1364,491,0,0
147,533,0,0,0,0,0,0,0,0,0,-1,1371,491,0,0
154,533,0,0,0,0,0,0,0,0,0,-1,1378,491,0,0
161,533,0,0,0,0,0,0,0,0,0,-1,1385,491,0,0
168,533,0,0,0,0,0,0,0,0,0,-1,1392,491,0,0
175,533,0,0,0,0,0,0,0,0,0,-1,1399,491,0,0
182,533,0,0,0,0,0,0,0,0,0,-1,1406,491,0,0
189,533,0,0,0,0,0,0,0,0,0,-1,1413,491,0,0
196,533,0,0,0,0,0,0,0,0,0,-1,1420,491,0,0
203,533,3.7887,1.16193,0,0,0,0,0,0,0,-1,1427,491,3.78872,-1.16193
210,533,5.09558,-0.216034,0,0,0,0,0,0,0,-1,1434,491,5.09559,0.216028
217,533,6.91614,-2.46814,0,0,0,0,0,0,0,-1,1441,491,6.91618,2.46814
224,533,7.23621,-2.1857,0,0,0,0,0,0,0,-1,1448,491,7.23621,2.1857
231,533,7.23474,-1.92282,-0.0370708,-0.0607561,-0.0047562,-0.0361514,-0.0616755,-0.190949,0.0357841,0.0496286,1455,491,7.2347,1.92282
238,533,7.23535,-1.67258,-0.040765,-0.064734,-0.0140542,-0.0342793,-0.0712197,-0.432358,0.0411283,0.0440867,1462,491,7.23539,1.67258
245,533,6.86682,-1.2301,-0.0424531,-0.0644059,-0.0182904,-0.0320983,-0.0747606,-0.515144,0.0433065,0.0443484,1469,491,6.86686,1.23011
252,533,6.48694,-0.777252,0,0,0,0,0,0,0,-1,1476,491,6.48697,0.777258
259,533,4.9165,-1.46271,0,0,0,0,0,0,0,-1,1483,491,4.91648,1.4627
266,533,4.25037,-0.352661,0,0,0,0,0,0,0,-1,1490,491,4.2504,0.352667
273,533,3.58435,0.757355,0,0,0,0,0,0,0,-1,1497,491,3.58431,-0.757363
280,533,1.41089,-1.97946,-0.0287306,-0.0323136,-0.017619,-0.0128123,-0.0482319,-0.734732,0.0288484,0.0484544,1504,491,1.41087,1.97946
287,533,1.6814,-2.44443,-0.0266862,-0.0265703,-0.0169947,-0.00963349,-0.043623,-0.787102,0.026462,0.0490245,1511,491,1.6814,2.44444
294,533,2.2384,-2.57626,0,0,0,0,0,0,0,-1,1518,491,2.23839,2.57625
301,533,3.39941,-4.0817,0,0,0,0,0,0,0,-1,1525,491,3.3994,4.08171
308,533,5.49133,-3.27472,0,0,0,0,0,0,0,-1,1532,491,5.49139,3.27473
315,533,6.0553,-3.63608,0,0,0,0,0,0,0,-1,1539,491,6.05531,3.63607
322,533,2.57214,-2.60373,0,0,0,0,0,0,0,-1,1546,491,2.57212,2.60373
329,533,3.04724,-2.2626,0,0,0,0,0,0,0,-1,1553,491,3.04724,2.26261
336,533,2.67993,-2.30621,0,0,0,0,0,0,0,-1,1560,491,2.67994,2.3062
343,533,2.6095,-2.36169,-0.0121617,-0.0117891,-0.0105446,-0.00142919,-0.0225216,-0.794233,0.0145614,0.0494202,1567,491,2.60948,2.3617
350,533,2.78564,-2.30206,-0.0109219,-0.0127475,-0.0085474,-0.00323871,-0.0204307,-0.732204,0.0126795,0.0478534,1574,491,2.7857,2.30205
357,533,2.85425,-2.25922,-0.00930345,-0.0135977,-0.00702219,-0.00410747,-0.0187937,-0.637029,0.0114092,0.0366047,1581,491,2.85426,2.25922
364,533,2.74866,-2.30133,-0.00793885,-0.0141133,-0.00551704,-0.004704,-0.0173482,-0.530312,0.0103598,0.0266275,1588,491,2.74871,2.30133
371,533,2.70288,-2.26556,-0.00643569,-0.0143973,-0.0044078,-0.00447717,-0.0163558,-0.41813,0.00975999,0.0205038,1595,491,2.70285,2.26556
378,533,2.73877,-2.23492,-0.00515776,-0.0139656,-0.00370087,-0.00380921,-0.0153141,-0.349435,0.00920623,0.0161184,1602,491,2.73881,2.23492
385,533,2.797,-2.18689,-0.0040224,-0.0131239,-0.00296647,-0.00314091,-0.0140054,-0.288843,0.00848597,0.0170592,1609,491,2.79696,2.18689
392,533,2.74414,-2.10681,-0.00307937,-0.0118504,-0.00240916,-0.00246121,-0.0124685,-0.251171,0.00762552,0.0129266,1616,491,2.74411,2.10681
399,533,2.74329,-2.06082,-0.00240615,-0.01028,-0.00199302,-0.00193042,-0.0107557,-0.234314,0.00662146,0.0107705,1623,491,2.7433,2.06083
406,533,2.76306,-2.00644,-0.00169659,-0.00861811,-0.00142321,-0.00141537,-0.00889933,-0.19508,0.00552189,0.0136314,1630,491,2.76312,2.00644
413,533,2.76526,-1.94293,-0.00112712,-0.00670229,-0.00100324,-0.000952087,-0.00687732,-0.172731,0.00430278,0.011824,1637,491,2.76528,1.94294
420,533,2.78455,-1.866,-0.000658096,-0.00499232,-0.000743484,-0.000534107,-0.00511631,-0.165247,0.00324751,0.0106048,1644,491,2.78453,1.86599
427,533,2.7782,-1.79745,-0.000274358,-0.00344785,-0.000418342,-0.000220137,-0.00350208,-0.128891,0.00226491,0.0114648,1651,491,2.77819,1.79745
434,533,2.78308,-1.74011,0.000177223,-0.00180585,0.000139938,0.00018705,-0.00181568,0.070103,0.00127738,0.0119422,1658,491,2.78314,1.74012
441,533,2.80347,-1.68887,0.000615844,-0.000503634,0.000714423,0.000963689,-0.000851479,0.453104,0.00104865,0.0149654,1665,491,2.8035,1.68887
448,533,2.79431,-1.64816,0.00107625,0.000187165,0.00119824,0.00190974,-0.000646334,0.60777,0.00153467,0.016132,1672,491,2.79432,1.64817
455,533,2.77405,-1.58197,0.00167522,0.000205731,0.00174462,0.00283351,-0.000952555,0.586096,0.00227403,0.0158207,1679,491,2.77409,1.58198
462,533,2.75488,-1.46265,0.00250184,-0.000424055,0.00236495,0.00381976,-0.00174198,0.508409,0.00328491,0.0149491,1686,491,2.75486,1.46266
469,533,2.76257,-1.43356,0.0044033,-0.00164911,0.00358679,0.00606997,-0.00331577,0.434983,0.00549608,0.00974653,1693,491,2.76255,1.43355
476,533,2.7804,-1.38647,0.00740174,-0.00103511,0.00550954,0.0101223,-0.00375572,0.458674,0.00828878,0.0100607,1700,491,2.78045,1.38647
483,533,2.79395,-1.29684,0.0104294,-0.00124529,0.00732619,0.0139594,-0.00477531,0.449011,0.0112414,0.0118311,1707,491,2.79396,1.29686
490,533,2.81592,-1.21869,0.0143611,-0.00107792,0.00969295,0.0190329,-0.00574971,0.449126,0.0149776,0.0260654,1714,491,2.81595,1.2187
497,533,2.88513,-1.19516,0.0194596,-0.000460708,0.0127432,0.0256733,-0.00667445,0.453687,0.0197205,0.0434955,1721,491,2.88516,1.19515
504,533,3.02014,-1.41852,0.0257893,0.000764489,0.0167045,0.0341479,-0.00759413,0.463953,0.0256738,0.0430126,1728,491,3.0201,1.41852
511,533,3.08423,-1.62311,0.0333598,0.00324436,0.0213188,0.0444024,-0.00779823,0.477923,0.0325142,0.0442675,1735,491,3.08429,1.62312
518,533,3.22314,-1.96817,0.042411,0.00703694,0.0269805,0.0569851,-0.00753711,0.495265,0.0407355,0.0445579,1742,491,3.22311,1.96817
525,533,3.71948,-1.98981,0.0529007,0.0125623,0.0339471,0.0722182,-0.00675519,0.51735,0.0505479,0.0460216,1749,491,3.71947,1.98979
532,533,4.15527,-1.75531,0,0,0,0,0,0,0,-1,1756,491,4.15528,1.7553
539,533,2.99707,1.47668,0,0,0,0,0,0,0,-1,1763,491,2.99702,-1.47669
546,533,2.97583,1.52045,0,0,0,0,0,0,0,-1,1770,491,2.97588,-1.52046
553,533,0,0,0,0,0,0,0,0,0,-1,1777,491,0,0
560,533,0,0,0,0,0,0,0,0,0,-1,1784,491,0,0
567,533,0,0,0,0,0,0,0,0,0,-1,1791,491,0,0
574,533,0,0,0,0,0,0,0,0,0,-1,1798,491,0,0
581,533,0,0,0,0,0,0,0,0,0,-1,1805,491,0,0
588,533,0,0,0,0,0,0,0,0,0,-1,1812,491,0,0
595,533,0,0,0,0,0,0,0,0,0,-1,1819,491,0,0
602,533,0,0,0,0,0,0,0,0,0,-1,1826,491,0,0
609,533,0,0,0,0,0,0,0,0,0,-1,1833,491,0,0
616,533,0,0,0,0,0,0,0,0,0,-1,1840,491,0,0
623,533,0,0,0,0,0,0,0,0,0,-1,1847,491,0,0
630,533,0,0,0,0,0,0,0,0,0,-1,1854,491,0,0
637,533,0,0,0,0,0,0,0,0,0,-1,1861,491,0,0
644,533,0,0,0,0,0,0,0,0,0,-1,1868,491,0,0
651,533,0,0,0,0,0,0,0,0,0,-1,1875,491,0,0
658,533,0,0,0,0,0,0,0,0,0,-1,1882,491,0,0
665,533,0,0,0,0,0,0,0,0,0,-1,1889,491,0,0
672,533,0,0,0,0,0,0,0,0,0,-1,1896,491,0,0
679,533,0,0,0,0,0,0,0,0,0,-1,1903,491,0,0
686,533,0,0,0,0,0,0,0,0,0,-1,1910,491,0,0
693,533,0,0,0,0,0,0,0,0,0,-1,1917,491,0,0
700,533,0,0,0,0,0,0,0,0,0,-1,1924,491,0,0
707,533,0,0,0,0,0,0,0,0,0,-1,1931,491,0,0
714,533,0,0,0,0,0,0,0,0,0,-1,1938,491,0,0
721,533,0,0,0,0,0,0,0,0,0,-1,1945,491,0,0
728,533,0,0,0,0,0,0,0,0,0,-1,1952,491,0,0
735,533,0,0,0,0,0,0,0,0,0,-1,1959,491,0,0
742,533,0,0,0,0,0,0,0,0,0,-1,1966,491,0,0
749,533,0,0,0,0,0,0,0,0,0,-1,1973,491,0,0
756,533,0,0,0,0,0,0,0,0,0,-1,1980,491,0,0
763,533,0,0,0,0,0,0,0,0,0,-1,1987,491,0,0
770,533,0,0,0,0,0,0,0,0,0,-1,1994,491,0,0
777,533,0,0,0,0,0,0,0,0,0,-1,2001,491,0,0
784,533,0,0,0,0,0,0,0,0,0,-1,2008,491,0,0
791,533,0,0,0,0,0,0,0,0,0,-1,2015,491,0,0
798,533,0,0,0,0,0,0,0,0,0,-1,2022,491,0,0
805,533,0,0,0,0,0,0,0,0,0,-1,2029,491,0,0
812,533,0,0,0,0,0,0,0,0,0,-1,2036,491,0,0
-700,526,0,0,0,0,0,0,0,0,0,-1,524,498,0,0
-693,526,0,0,0,0,0,0,0,0,0,-1,531,498,0,0
-686,526,0,0,0,0,0,0,0,0,0,-1,538,498,0,0
-679,526,0,0,0,0,0,0,0,0,0,-1,545,498,0,0
-672,526,0,0,0,0,0,0,0,0,0,-1,552,498,0,0
-665,526,0,0,0,0,0,0,0,0,0,-1,559,498,0,0
-658,526,0,0,0,0,0,0,0,0,0,-1,566,498,0,0
-651,526,0,0,0,0,0,0,0,0,0,-1,573,498,0,0
-644,526,0,0,0,0,0,0,0,0,0,-1,580,498,0,0
-637,526,0,0,0,0,0,0,0,0,0,-1,587,498,0,0
-630,526,0,0,0,0,0,0,0,0,0,-1,594,498,0,0
-623,526,0,0,0,0,0,0,0,0,0,-1,601,498,0,0
-616,526,0,0,0,0,0,0,0,0,0,-1,608,498,0,0
-609,526,0,0,0,0,0,0,0,0,0,-1,615,498,0,0
-602,526,0,0,0,0,0,0,0,0,0,-1,622,498,0,0
-595,526,0,0,0,0,0,0,0,0,0,-1,629,498,0,0
-588,526,0,0,0,0,0,0,0,0,0,-1,636,498,0,0
-581,526,0,0,0,0,0,0,0,0,0,-1,643,498,0,0
-574,526,0,0,0,0,0,0,0,0,0,-1,650,498,0,0
-567,526,0,0,0,0,0,0,0,0,0,-1,657,498,0,0
-560,526,0,0,0,0,0,0,0,0,0,-1,664,498,0,0
-553,526,0,0,0,0,0,0,0,0,0,-1,671,498,0,0
-546,526,0,0,0,0,0,0,0,0,0,-1,678,498,0,0
-539,526,0,0,0,0,0,0,0,0,0,-1,685,498,0,0
-532,526,0,0,0,0,0,0,0,0,0,-1,692,498,0,0
-525,526,0,0,0,0,0,0,0,0,0,-1,699,498,0,0
-518,526,0,0,0,0,0,0,0,0,0,-1,706,498,0,0
-511,526,0,0,0,0,0,0,0,0,0,-1,713,498,0,0
-504,526,0,0,0,0,0,0,0,0,0,-1,720,498,0,0
-497,526,0,0,0,0,0,0,0,0,0,-1,727,498,0,0
-490,526,0,0,0,0,0,0,0,0,0,-1,734,498,0,0
-483,526,0,0,0,0,0,0,0,0,0,-1,741,498,0,0
-476,526,0,0,0,0,0,0,0,0,0,-1,748,498,0,0
-469,526,0,0,0,0,0,0,0,0,0,-1,755,498,0,0
-462,526,0,0,0,0,0,0,0,0,0,-1,762,498,0,0
-455,526,0,0,0,0,0,0,0,0,0,-1,769,498,0,0
-448,526,0,0,0,0,0,0,0,0,0,-1,776,498,0,0
-441,526,0,0,0,0,0,0,0,0,0,-1,783,498,0,0
-434,526,2.09131,-3.50253,0.0528564,-0.0907001,0.0272937,0.0578705,-0.0957142,0.181683,0.089565,0.0492744,790,498,2.0913,3.50254
-427,526,2.40875,-3.17709,0.0343774,-0.0784236,0.016789,0.0368233,-0.0808694,0.144661,0.069518,0.0496612,797,498,2.40876,3.17709
-420,526,1.59418,-2.98877,0.0193211,-0.0638715,0.00998813,0.0205034,-0.0650539,0.11783,0.0515805,0.0473419,804,498,1.59416,2.98878
-413,526,1.50623,-2.68494,0.00791544,-0.0508437,0.00572464,0.00846797,-0.0513962,0.0962199,0.0374077,0.0479163,811,498,1.50624,2.68494
-406,526,1.50879,-2.44476,-0.00130292,-0.0382599,0.00341683,-0.00098967,-0.0385731,0.0914217,0.0253919,0.0427333,818,498,1.50882,2.44477
-399,526,2.18604,-2.42136,0,0,0,0,0,0,0,-1,825,498,2.18605,2.42137
-392,526,0.854492,-1.04718,0,0,0,0,0,0,0,-1,832,498,0.85449,1.04717
-385,526,0.995361,-1.20715,0,0,0,0,0,0,0,-1,839,498,0.995369,1.20716
-378,526,1.12146,-1.29816,-0.0181262,-0.0030122,-0.000622065,-0.00298664,-0.0181518,-1.52973,0.0112387,0.0453346,846,498,1.12148,1.29816
-371,526,1.18762,-1.36148,-0.0175062,0.00138672,-0.000281114,0.0013909,-0.0175104,-1.55592,0.0121638,0.0333891,853,498,1.18762,1.36149
-364,526,1.29034,-1.4071,-0.0154778,0.0043505,0.000485865,0.0043624,-0.0154897,1.54631,0.0120468,0.0176593,860,498,1.29035,1.40711
-357,526,1.3075,-1.47214,-0.0134799,0.00646868,0.00102904,0.00652162,-0.0135328,1.51939,0.0118119,0.0115147,867,498,1.30747,1.47215
-350,526,1.32642,-1.54037,-0.011438,0.00737413,0.00154983,0.00750096,-0.0115649,1.48915,0.0110907,0.0108654,874,498,1.32645,1.54036
-343,526,1.32861,-1.61127,-0.00851183,0.0058244,0.00125604,0.00593361,-0.00862104,1.48406,0.00845075,0.0157376,881,498,1.3286,1.61126
-336,526,1.30994,-1.71317,-0.00614518,0.00408092,0.00110972,0.00419996,-0.00626422,1.46394,0.00608056,0.0159472,888,498,1.30991,1.71316
-329,526,1.31116,-1.77322,-0.00432916,0.00264151,0.00103759,0.00279267,-0.00448033,1.42612,0.00423659,0.0144536,895,498,1.31115,1.77321
-322,526,1.33112,-1.79681,-0.00287455,0.00146558,0.000919335,0.00165229,-0.00306125,1.37044,0.00276159,0.00927244,902,498,1.33109,1.7968
-315,526,1.33917,-1.86926,-0.00158487,0.000487896,0.000676916,0.000689377,-0.00178635,1.2815,0.00147539,0.00794752,909,498,1.33917,1.86927
-308,526,1.32886,-1.93799,-0.000777469,0.000246378,0.000370543,0.00036641,-0.000897501,1.25753,0.000750886,0.00825437,916,498,1.32888,1.93798
-301,526,1.31665,-1.98227,-0.000213407,0.00105168,-7.61522e-05,0.00105625,-0.000217975,-1.51089,0.000786953,0.00980144,923,498,1.31665,1.98228
-294,526,1.32196,-2.04428,-2.42701e-05,0.00347918,-0.000432298,0.00353174,-7.68238e-05,-1.44982,0.00238051,0.00879192,930,498,1.32196,2.04428
-287,526,1.32178,-2.10562,-0.000243632,0.00568829,-0.000907241,0.00582394,-0.000379286,-1.42237,0.00401503,0.00917681,937,498,1.32176,2.10562
-280,526,1.32043,-2.15594,-0.000602969,0.00837534,-0.00136727,0.00857894,-0.000806567,-1.42297,0.00600623,0.0120551,944,498,1.32043,2.15595
-273,526,1.32367,-2.23428,-0.000614016,0.0115633,-0.00200058,0.0118836,-0.000934262,-1.41207,0.00825146,0.0103032,951,498,1.32368,2.23429
-266,526,1.31915,-2.29642,-0.000437344,0.0152719,-0.00289969,0.0157901,-0.000955494,-1.39397,0.0108592,0.00955304,958,498,1.31917,2.29643
-259,526,1.36035,-2.32529,-0.000411176,0.0192115,-0.0036866,0.0198813,-0.00108093,-1.39108,0.0136288,0.015076,965,498,1.36037,2.32528
-252,526,1.34387,-2.32388,-0.00050884,0.0227452,-0.00445444,0.0235693,-0.00133291,-1.38787,0.0161755,0.0266807,972,498,1.34388,2.32387
-245,526,1.36707,-2.40063,-0.00025407,0.0263777,-0.00498451,0.0272801,-0.00115642,-1.39171,0.0185842,0.0360938,979,498,1.36707,2.40065
-238,526,1.51245,-2.36832,-0.00282144,0.0280989,-0.00537677,0.0290072,-0.00372973,-1.40345,0.0206937,0.0367416,986,498,1.51247,2.36832
-231,526,1.50598,-2.36017,-0.0085275,0.0271036,-0.00530646,0.0278771,-0.00930099,-1.42605,0.02234,0.0401077,993,498,1.50596,2.36016
-224,526,1.51282,-2.45538,-0.0158736,0.0250096,-0.00506876,0.0256286,-0.0164926,-1.44927,0.0245086,0.0428425,1000,498,1.51283,2.4554
-217,526,1.86346,-2.94235,-0.0242047,0.0210521,-0.00488967,0.0215743,-0.024727,-1.46439,0.0267527,0.0449545,1007,498,1.86343,2.94236
-210,526,1.48633,-2.98245,0,0,0,0,0,0,0,-1,1014,498,1.48634,2.98246
-203,526,1.41113,-3.05573,0,0,0,0,0,0,0,-1,1021,498,1.41113,3.05572
-196,526,1.33057,-2.97864,0,0,0,0,0,0,0,-1,1028,498,1.33055,2.97863
-189,526,1.55969,-1.90814,0,0,0,0,0,0,0,-1,1035,498,1.55965,1.90815
-182,526,0.541138,-2.25595,-0.0704381,-0.0133548,-0.010902,-0.0113436,-0.0724493,-1.38836,0.0449975,0.0458203,1042,498,0.541133,2.25596
-175,526,-0.372925,-2.36307,-0.0729671,-0.0165985,-0.0163712,-0.0121887,-0.0773769,-1.30768,0.0480399,0.0445913,1049,498,-0.372912,2.36307
-168,526,-1.10071,-2.28043,-0.0722812,-0.0204906,-0.0223289,-0.0121931,-0.0805787,-1.21501,0.0501513,0.0453346,1056,498,-1.10077,2.28041
-161,526,-1.79138,-2.21063,-0.0682763,-0.0246512,-0.0301955,-0.00921388,-0.0837136,-1.09819,0.0530054,0.0457889,1063,498,-1.79135,2.21064
-154,526,-2.55005,-2.09418,0,0,0,0,0,0,0,-1,1070,498,-2.54999,2.09419
-147,526,-3.31079,-2.06256,0,0,0,0,0,0,0,-1,1077,498,-3.31081,2.06256
-140,526,3.77466,0.0353699,-0.0403964,-0.0322635,-0.0577462,0.0215593,-0.0942191,-0.82055,0.0710973,0.0481535,1084,498,3.77461,-0.0353646
-133,526,3.5448,-0.995819,-0.0277369,-0.0331271,-0.0668319,0.0364542,-0.0973182,-0.765246,0.0798538,0.0467415,1091,498,3.54482,0.99583
-126,526,3.42529,-2.36053,0,0,0,0,0,0,0,-1,1098,498,3.42523,2.36052
-119,526,2.7771,-0.764099,0,0,0,0,0,0,0,-1,1105,498,2.7771,0.764107
-112,526,2.57715,-1.1893,0,0,0,0,0,0,0,-1,1112,498,2.57718,1.1893
-105,526,0,0,0,0,0,0,0,0,0,-1,1119,498,0,0
-98,526,0,0,0,0,0,0,0,0,0,-1,1126,498,0,0
-91,526,0,0,0,0,0,0,0,0,0,-1,1133,498,0,0
-84,526,0,0,0,0,0,0,0,0,0,-1,1140,498,0,0
-77,526,0,0,0,0,0,0,0,0,0,-1,1147,498,0,0
-70,526,0,0,0,0,0,0,0,0,0,-1,1154,498,0,0
-63,526,0,0,0,0,0,0,0,0,0,-1,1161,498,0,0
-56,526,0,0,0,0,0,0,0,0,0,-1,1168,498,0,0
-49,526,0,0,0,0,0,0,0,0,0,-1,1175,498,0,0
-42,526,0,0,0,0,0,0,0,0,0,-1,1182,498,0,0
-35,526,0,0,0,0,0,0,0,0,0,-1,1189,498,0,0
-28,526,0,0,0,0,0,0,0,0,0,-1,1196,498,0,0
-21,526,0,0,0,0,0,0,0,0,0,-1,1203,498,0,0
-14,526,0,0,0,0,0,0,0,0,0,-1,1210,498,0,0
-7,526,0,0,0,0,0,0,0,0,0,-1,1217,498,0,0
0,526,0,0,0,0,0,0,0,0,0,-1,1224,498,0,0
7,526,0,0,0,0,0,0,0,0,0,-1,1231,498,0,0
14,526,0,0,0,0,0,0,0,0,0,-1,1238,498,0,0
21,526,0,0,0,0,0,0,0,0,0,-1,1245,498,0,0
28,526,0,0,0,0,0,0,0,0,0,-1,1252,498,0,0
35,526,0,0,0,0,0,0,0,0,0,-1,1259,498,0,0
42,526,0,0,0,0,0,0,0,0,0,-1,1266,498,0,0
49,526,0,0,0,0,0,0,0,0,0,-1,1273,498,0,0
56,526,0,0,0,0,0,0,0,0,0,-1,1280,498,0,0
63,526,0,0,0,0,0,0,0,0,0,-1,1287,498,0,0
70,526,0,0,0,0,0,0,0,0,0,-1,1294,498,0,0
77,526,0,0,0,0,0,0,0,0,0,-1,1301,498,0,0
84,526,0,0,0,0,0,0,0,0,0,-1,1308,498,0,0
91,526,0,0,0,0,0,0,0,0,0,-1,1315,498,0,0
98,526,0,0,0,0,0,0,0,0,0,-1,1322,498,0,0
105,526,0,0,0,0,0,0,0,0,0,-1,1329,498,0,0
112,526,0,0,0,0,0,0,0,0,0,-1,1336,498,0,0
119,526,0,0,0,0,0,0,0,0,0,-1,1343,498,0,0
126,526,0,0,0,0,0,0,0,0,0,-1,1350,498,0,0
133,526,0,0,0,0,0,0,0,0,0,-1,1357,498,0,0
140,526,0,0,0,0,0,0,0,0,0,-1,1364,498,0,0
147,526,0,0,0,0,0,0,0,0,0,-1,1371,498,0,0
154,526,0,0,0,0,0,0,0,0,0,-1,1378,498,0,0
161,526,0,0,0,0,0,0,0,0,0,-1,1385,498,0,0
168,526,0,0,0,0,0,0,0,0,0,-1,1392,498,0,0
175,526,0,0,0,0,0,0,0,0,0,-1,1399,498,0,0
182,526,0,0,0,0,0,0,0,0,0,-1,1406,498,0,0
189,526,0,0,0,0,0,0,0,0,0,-1,1413,498,0,0
196,526,0,0,0,0,0,0,0,0,0,-1,1420,498,0,0
203,526,0,0,0,0,0,0,0,0,0,-1,1427,498,0,0
210,526,0,0,0,0,0,0,0,0,0,-1,1434,498,0,0
217,526,0,0,0,0,0,0,0,0,0,-1,1441,498,0,0
224,526,0,0,0,0,0,0,0,0,0,-1,1448,498,0,0
231,526,7.93237,-1.30618,-0.043072,-0.0782246,-0.0142297,-0.038034,-0.0832627,-0.340282,0.0481315,0.0421862,1455,498,7.93238,1.30618
238,526,7.97717,-1.08197,-0.047427,-0.0795527,-0.0211736,-0.0369129,-0.0900669,-0.460899,0.0522812,0.0398286,1462,498,7.97723,1.08196
245,526,7.2793,-0.792938,-0.0492295,-0.0758339,-0.0230606,-0.0359095,-0.0891539,-0.523792,0.0517964,0.0431131,1469,498,7.27931,0.792926
252,526,6.59546,-0.453247,0,0,0,0,0,0,0,-1,1476,498,6.59545,0.453256
259,526,5.3446,-1.18347,0,0,0,0,0,0,0,-1,1483,498,5.34456,1.18346
266,526,4.84216,-0.345856,0,0,0,0,0,0,0,-1,1490,498,4.84218,0.345869
273,526,4.33984,0.49173,0,0,0,0,0,0,0,-1,1497,498,4.33979,-0.491727
280,526,1.4585,-1.59897,0,0,0,0,0,0,0,-1,1504,498,1.45846,1.59895
287,526,1.46411,-2.40134,0,0,0,0,0,0,0,-1,1511,498,1.46406,2.40133
294,526,5.57471,-4.59085,0,0,0,0,0,0,0,-1,1518,498,5.57466,4.59084
301,526,4.42786,-3.99677,0,0,0,0,0,0,0,-1,1525,498,4.42788,3.99676
308,526,3.07959,-3.3428,0,0,0,0,0,0,0,-1,1532,498,3.07963,3.3428
315,526,2.6554,-2.93027,0,0,0,0,0,0,0,-1,1539,498,2.65542,2.93028
322,526,5.0166,0.190674,0,0,0,0,0,0,0,-1,1546,498,5.01655,-0.190666
329,526,3.45923,-1.51968,0,0,0,0,0,0,0,-1,1553,498,3.45917,1.5197
336,526,2.85144,-0.713654,0,0,0,0,0,0,0,-1,1560,498,2.85149,0.713659
343,526,2.48462,-2.2258,0,0,0,0,0,0,0,-1,1567,498,2.4846,2.22581
350,526,3.51013,-2.50037,-0.0120491,-0.0160517,-0.0108648,-0.00300276,-0.025098,-0.694319,0.0158263,0.0475583,1574,498,3.51019,2.50037
357,526,3.17456,-2.39917,-0.0100913,-0.0172763,-0.0089874,-0.00400504,-0.0233627,-0.595263,0.0144266,0.0444605,1581,498,3.17461,2.39918
364,526,2.93945,-2.46747,-0.00844263,-0.0181261,-0.00717235,-0.00463077,-0.021938,-0.488503,0.0133522,0.0411719,1588,498,2.93949,2.46747
371,526,2.8092,-2.26694,-0.00669805,-0.0186503,-0.00582335,-0.00432999,-0.0210184,-0.386225,0.0128151,0.0394006,1595,498,2.80924,2.26693
378,526,2.71069,-2.2052,-0.005267,-0.0182823,-0.00495924,-0.00359275,-0.0199566,-0.325588,0.0122832,0.0388619,1602,498,2.7107,2.2052
385,526,2.83594,-2.25729,-0.00402141,-0.0173441,-0.00409576,-0.00286299,-0.0185026,-0.275634,0.0115001,0.0296697,1609,498,2.83591,2.25731
392,526,2.83313,-2.11942,-0.00301204,-0.0157981,-0.0034373,-0.00214657,-0.0166635,-0.246662,0.0104671,0.0170656,1616,498,2.8331,2.11943
399,526,2.80383,-2.06079,-0.00230731,-0.0138111,-0.00292561,-0.00160602,-0.0145124,-0.235266,0.00918649,0.0117747,1623,498,2.80378,2.06078
406,526,2.81458,-1.98837,-0.00161562,-0.0116743,-0.00228396,-0.0011213,-0.0121686,-0.213141,0.00776565,0.0115828,1630,498,2.81457,1.98838
413,526,2.82727,-1.92029,-0.00109391,-0.00926502,-0.00180963,-0.000711078,-0.00964786,-0.208481,0.00620847,0.0125693,1637,498,2.82727,1.9203
420,526,2.82935,-1.8671,-0.000673389,-0.00707576,-0.00149738,-0.000340495,-0.00740866,-0.218761,0.00482961,0.0124753,1644,498,2.82935,1.86708
427,526,2.84595,-1.80679,-0.000439826,-0.00510747,-0.00114885,-0.000172382,-0.00537491,-0.228719,0.00352722,0.0120916,1651,498,2.84592,1.80679
434,526,2.84985,-1.73019,2.22218e-05,-0.00292551,-0.000532112,0.000115335,-0.00301862,-0.173234,0.00205194,0.0109058,1658,498,2.84985,1.7302
441,526,2.84534,-1.68243,0.000330317,-0.00119073,4.66555e-06,0.000330331,-0.00119075,0.00306729,0.000923841,0.0101159,1665,498,2.8453,1.68243
448,526,2.83032,-1.63782,0.00064384,-0.000176316,0.000440987,0.000835952,-0.000368429,0.41085,0.000712599,0.00960624,1672,498,2.83029,1.6378
455,526,2.82129,-1.58508,0.00108307,0.000115125,0.000918031,0.00163689,-0.000438693,0.542818,0.00126315,0.0128124,1679,498,2.82133,1.58509
462,526,2.83398,-1.5025,0.00173094,-0.000324097,0.00147639,0.00250218,-0.00109534,0.481391,0.00212931,0.0103761,1686,498,2.83396,1.50251
469,526,2.84241,-1.44467,0.00321384,-0.00135978,0.00248686,0.00430549,-0.00245143,0.41364,0.00394976,0.00785835,1693,498,2.84236,1.44467
476,526,2.83923,-1.37927,0.00550079,-0.000931572,0.00397422,0.00739717,-0.00282794,0.445217,0.00609678,0.00963093,1700,498,2.83928,1.37929
483,526,2.85132,-1.28888,0.00780302,-0.00116537,0.0053642,0.0103104,-0.00367279,0.437258,0.00837092,0.00987569,1707,498,2.85129,1.28888
490,526,2.85791,-1.20258,0.0107137,-0.00105759,0.00713046,0.0140738,-0.00441772,0.440372,0.0111508,0.013411,1714,498,2.8579,1.20258
497,526,2.85388,-1.18097,0.0144094,-0.000655209,0.00941162,0.0189318,-0.00517753,0.44793,0.0146551,0.0208668,1721,498,2.85393,1.18098
504,526,2.87646,-1.17947,0.0190112,0.000192935,0.0124684,0.0252223,-0.00601817,0.462166,0.019139,0.0280174,1728,498,2.8765,1.17949
511,526,3.11438,-1.34793,0.0245178,0.00210059,0.0159837,0.0328313,-0.00621288,0.479615,0.0242255,0.0367743,1735,498,3.11442,1.34794
518,526,2.98218,-0.872314,0.0310923,0.00497737,0.0203779,0.0422372,-0.00616753,0.50047,0.0304231,0.0448257,1742,498,2.98218,0.872319
525,526,2.64685,-0.556366,0,0,0,0,0,0,0,-1,1749,498,2.64691,0.556353
532,526,2.84448,0.707642,0,0,0,0,0,0,0,-1,1756,498,2.84444,-0.707646
539,526,3.1543,0.425964,0,0,0,0,0,0,0,-1,1763,498,3.15427,-0.425974
546,526,3.49377,0.153442,0,0,0,0,0,0,0,-1,1770,498,3.49375,-0.153429
553,526,3.78699,-0.192535,0,0,0,0,0,0,0,-1,1777,498,3.78694,0.192533
560,526,0,0,0,0,0,0,0,0,0,-1,1784,498,0,0
567,526,0,0,0,0,0,0,0,0,0,-1,1791,498,0,0
574,526,0,0,0,0,0,0,0,0,0,-1,1798,498,0,0
581,526,0,0,0,0,0,0,0,0,0,-1,1805,498,0,0
588,526,0,0,0,0,0,0,0,0,0,-1,1812,498,0,0
595,526,0,0,0,0,0,0,0,0,0,-1,1819,498,0,0
602,526,0,0,0,0,0,0,0,0,0,-1,1826,498,0,0
609,526,0,0,0,0,0,0,0,0,0,-1,1833,498,0,0
616,526,0,0,0,0,0,0,0,0,0,-1,1840,498,0,0
623,526,0,0,0,0,0,0,0,0,0,-1,1847,498,0,0
630,526,0,0,0,0,0,0,0,0,0,-1,1854,498,0,0
637,526,0,0,0,0,0,0,0,0,0,-1,1861,498,0,0
644,526,0,0,0,0,0,0,0,0,0,-1,1868,498,0,0
651,526,0,0,0,0,0,0,0,0,0,-1,1875,498,0,0
658,526,0,0,0,0,0,0,0,0,0,-1,1882,498,0,0
665,526,0,0,0,0,0,0,0,0,0,-1,1889,498,0,0
672,526,0,0,0,0,0,0,0,0,0,-1,1896,498,0,0
679,526,0,0,0,0,0,0,0,0,0,-1,1903,498,0,0
686,526,0,0,0,0,0,0,0,0,0,-1,1910,498,0,0
693,526,0,0,0,0,0,0,0,0,0,-1,1917,498,0,0
700,526,0,0,0,0,0,0,0,0,0,-1,1924,498,0,0
707,526,0,0,0,0,0,0,0,0,0,-1,1931,498,0,0
714,526,0,0,0,0,0,0,0,0,0,-1,1938,498,0,0
721,526,0,0,0,0,0,0,0,0,0,-1,1945,498,0,0
728,526,0,0,0,0,0,0,0,0,0,-1,1952,498,0,0
735,526,0,0,0,0,0,0,0,0,0,-1,1959,498,0,0
742,526,0,0,0,0,0,0,0,0,0,-1,1966,498,0,0
749,526,0,0,0,0,0,0,0,0,0,-1,1973,498,0,0
756,526,0,0,0,0,0,0,0,0,0,-1,1980,498,0,0
763,526,0,0,0,0,0,0,0,0,0,-1,1987,498,0,0
770,526,0,0,0,0,0,0,0,0,0,-1,1994,498,0,0
777,526,0,0,0,0,0,0,0,0,0,-1,2001,498,0,0
784,526,0,0,0,0,0,0,0,0,0,-1,2008,498,0,0
791,526,0,0,0,0,0,0,0,0,0,-1,2015,498,0,0
798,526,0,0,0,0,0,0,0,0,0,-1,2022,498,0,0
805,526,0,0,0,0,0,0,0,0,0,-1,2029,498,0,0
812,526,0,0,0,0,0,0,0,0,0,-1,2036,498,0,0
-700,519,0,0,0,0,0,0,0,0,0,-1,524,505,0,0
-693,519,0,0,0,0,0,0,0,0,0,-1,531,505,0,0
-686,519,0,0,0,0,0,0,0,0,0,-1,538,505,0,0
-679,519,0,0,0,0,0,0,0,0,0,-1,545,505,0,0
-672,519,0,0,0,0,0,0,0,0,0,-1,552,505,0,0
-665,519,0,0,0,0,0,0,0,0,0,-1,559,505,0,0
-658,519,0,0,0,0,0,0,0,0,0,-1,566,505,0,0
-651,519,0,0,0,0,0,0,0,0,0,-1,573,505,0,0
-644,519,0,0,0,0,0,0,0,0,0,-1,580,505,0,0
-637,519,0,0,0,0,0,0,0,0,0,-1,587,505,0,0
-630,519,0,0,0,0,0,0,0,0,0,-1,594,505,0,0
-623,519,0,0,0,0,0,0,0,0,0,-1,601,505,0,0
-616,519,0,0,0,0,0,0,0,0,0,-1,608,505,0,0
-609,519,0,0,0,0,0,0,0,0,0,-1,615,505,0,0
-602,519,0,0,0,0,0,0,0,0,0,-1,622,505,0,0
-595,519,0,0,0,0,0,0,0,0,0,-1,629,505,0,0
-588,519,0,0,0,0,0,0,0,0,0,-1,636,505,0,0
-581,519,0,0,0,0,0,0,0,0,0,-1,643,505,0,0
-574,519,0,0,0,0,0,0,0,0,0,-1,650,505,0,0
-567,519,0,0,0,0,0,0,0,0,0,-1,657,505,0,0
-560,519,0,0,0,0,0,0,0,0,0,-1,664,505,0,0
-553,519,0,0,0,0,0,0,0,0,0,-1,671,505,0,0
-546,519,0,0,0,0,0,0,0,0,0,-1,678,505,0,0
-539,519,0,0,0,0,0,0,0,0,0,-1,685,505,0,0
-532,519,0,0,0,0,0,0,0,0,0,-1,692,505,0,0
-525,519,0,0,0,0,0,0,0,0,0,-1,699,505,0,0
-518,519,0,0,0,0,0,0,0,0,0,-1,706,505,0,0
-511,519,0,0,0,0,0,0,0,0,0,-1,713,505,0,0
-504,519,0,0,0,0,0,0,0,0,0,-1,720,505,0,0
-497,519,0,0,0,0,0,0,0,0,0,-1,727,505,0,0
-490,519,0,0,0,0,0,0,0,0,0,-1,734,505,0,0
-483,519,0,0,0,0,0,0,0,0,0,-1,741,505,0,0
-476,519,0,0,0,0,0,0,0,0,0,-1,748,505,0,0
-469,519,0,0,0,0,0,0,0,0,0,-1,755,505,0,0
-462,519,0,0,0,0,0,0,0,0,0,-1,762,505,0,0
-455,519,0,0,0,0,0,0,0,0,0,-1,769,505,0,0
-448,519,0,0,0,0,0,0,0,0,0,-1,776,505,0,0
-441,519,0.63031,-2.7095,0.0718767,-0.0912369,0.0358862,0.0794228,-0.098783,0.20726,0.103089,0.0447349,783,505,0.630306,2.70951
-434,519,1.51031,-2.52432,0.0533596,-0.0802771,0.0267049,0.0584985,-0.085416,0.190109,0.0835721,0.0460273,790,505,1.51033,2.52432
-427,519,1.95447,-2.53784,0.0373884,-0.0699249,0.0185905,0.0405177,-0.0730542,0.166764,0.0664616,0.0499499,797,505,1.95446,2.53783
-420,519,1.83466,-2.35818,0,0,0,0,0,0,0,-1,804,505,1.83464,2.35819
-413,519,1.7926,-2.28125,0.0137388,-0.0472494,0.00808902,0.0147934,-0.048304,0.129647,0.0381034,0.0464125,811,505,1.79259,2.28126
-406,519,1.8952,-2.04263,0.00536715,-0.0365721,0.00520767,0.00600412,-0.0372091,0.121709,0.0270306,0.0443583,818,505,1.89523,2.04263
-399,519,1.99622,-1.78421,0,0,0,0,0,0,0,-1,825,505,1.99625,1.78422
-392,519,0.858948,-1.1806,0,0,0,0,0,0,0,-1,832,505,0.858958,1.18059
-385,519,0.949707,-1.18552,-0.0105052,-0.0109898,-0.000443105,-0.0102425,-0.0112526,-0.535194,0.00718871,0.0423684,839,505,0.949728,1.18551
-378,519,1.10486,-1.26782,-0.011371,-0.00519123,-0.000525239,-0.0051469,-0.0114154,-1.48661,0.00660126,0.0300149,846,505,1.10487,1.26782
-371,519,1.24365,-1.33499,-0.0112968,-0.00124125,-0.00039396,-0.00122584,-0.0113122,-1.5317,0.00716789,0.0165571,853,505,1.24368,1.335
-364,519,1.24701,-1.4021,-0.010019,0.00153024,0.000151451,0.00153222,-0.010021,1.55769,0.00724559,0.0102544,860,505,1.24701,1.40211
-357,519,1.26709,-1.48044,-0.00881137,0.00353546,0.000575638,0.00356224,-0.00883815,1.52431,0.0073722,0.00958478,867,505,1.26709,1.48044
-350,519,1.27734,-1.53766,-0.0075816,0.00444494,0.00104143,0.00453446,-0.00767112,1.48505,0.00712403,0.0120851,874,505,1.27732,1.53765
-343,519,1.26837,-1.5881,-0.00573514,0.00336111,0.000961245,0.00346158,-0.00583561,1.46665,0.00542576,0.0162554,881,505,1.26839,1.58809
-336,519,1.2486,-1.67789,-0.00426726,0.00198335,0.000973489,0.00213145,-0.00441537,1.41982,0.00385572,0.0148004,888,505,1.24858,1.67788
-329,519,1.25092,-1.74213,-0.00322371,0.00102351,0.000984714,0.00124071,-0.00344091,1.3537,0.00280066,0.0120141,895,505,1.25094,1.74213
-322,519,1.27466,-1.80582,-0.00239296,0.000306225,0.000932667,0.000597141,-0.00268387,1.26844,0.00201796,0.00989423,902,505,1.27463,1.80581
-315,519,1.28754,-1.88129,-0.00177347,-3.63986e-05,0.000684292,0.000200782,-0.00201065,1.23715,0.00141213,0.00856012,909,505,1.28751,1.8813
-308,519,1.27032,-1.93866,-0.00146629,0.000397381,0.000311524,0.000448075,-0.00151699,1.40948,0.00118916,0.00783419,916,505,1.27031,1.93867
-301,519,1.25159,-1.98273,-0.00125721,0.00226987,-0.000250704,0.0022876,-0.00127494,-1.50019,0.00208435,0.0115249,923,505,1.25159,1.98273
-294,519,1.25562,-2.02884,-0.00125239,0.00629702,-0.000768676,0.00637449,-0.00132986,-1.47035,0.00475534,0.0134542,930,505,1.25561,2.02883
-287,519,1.23804,-2.11823,-0.00163192,0.00992544,-0.00146443,0.0101081,-0.00181459,-1.4467,0.00741796,0.0097364,937,505,1.23801,2.11823
-280,519,1.22693,-2.17361,-0.00221889,0.0142555,-0.00213456,0.0145276,-0.00249097,-1.44402,0.0106133,0.0120012,944,505,1.22694,2.1736
-273,519,1.24866,-2.24493,-0.00242208,0.0193324,-0.0029634,0.0197288,-0.00281853,-1.4378,0.0141857,0.0140669,951,505,1.24864,2.24493
-266,519,1.26367,-2.28061,-0.00238767,0.0250804,-0.00405657,0.0256669,-0.00297423,-1.4272,0.018184,0.0187712,958,505,1.26366,2.28061
-259,519,1.30682,-2.24844,-0.00248051,0.0311448,-0.0050466,0.0318859,-0.00322159,-1.42499,0.0224085,0.03416,965,505,1.3068,2.24845
-252,519,1.34583,-2.41919,-0.00274618,0.0365146,-0.00596826,0.0374018,-0.0036334,-1.42322,0.0262297,0.0462682,972,505,1.34581,2.41919
-245,519,1.35638,-2.37888,0,0,0,0,0,0,0,-1,979,505,1.35637,2.37887
-238,519,1.66357,-2.2446,-0.00595646,0.0445791,-0.00699027,0.0455282,-0.00690556,-1.43585,0.0328965,0.0458738,986,505,1.66356,2.24461
-231,519,1.49591,-2.27734,-0.0130959,0.0433178,-0.0068208,0.0441308,-0.0139089,-1.45217,0.0349907,0.0481654,993,505,1.49589,2.27735
-224,519,1.30688,-2.56097,0,0,0,0,0,0,0,-1,1000,505,1.30688,2.56097
-217,519,1.93848,-2.94342,0,0,0,0,0,0,0,-1,1007,505,1.93846,2.94343
-210,519,3.09149,-0.850037,0,0,0,0,0,0,0,-1,1014,505,3.09149,0.850021
-203,519,2.54547,-1.26785,-0.0565271,0.0195852,-0.00530849,0.0199537,-0.0568955,-1.5015,0.046046,0.0487413,1021,505,2.54544,1.26786
-196,519,2.10522,-1.66849,0,0,0,0,0,0,0,-1,1028,505,2.10518,1.66849
-189,519,1.4541,-1.72589,-0.084629,-0.00950339,-0.00912923,-0.00840992,-0.0857225,-1.45159,0.0545615,0.0496123,1035,505,1.45416,1.72589
-182,519,0.345703,-2.13263,-0.0893892,-0.0147422,-0.0143271,-0.0120868,-0.0920446,-1.38754,0.0577572,0.0456153,1042,505,0.345705,2.13264
-175,519,-0.622314,-2.44693,-0.093126,-0.0191432,-0.0202994,-0.0139395,-0.0983297,-1.31985,0.0614361,0.046942,1049,505,-0.622356,2.44692
-168,519,-1.34387,-2.34326,0,0,0,0,0,0,0,-1,1056,505,-1.34389,2.34325
-161,519,-1.95496,-2.26813,0,0,0,0,0,0,0,-1,1063,505,-1.95492,2.26813
-154,519,-2.73474,-2.2269,0,0,0,0,0,0,0,-1,1070,505,-2.73472,2.2269
-147,519,4.86804,1.50809,0,0,0,0,0,0,0,-1,1077,505,4.86802,-1.5081
-140,519,4.60083,0.485077,-0.0501954,-0.0392668,-0.0740056,0.0294759,-0.118938,-0.822249,0.0907277,0.0488196,1084,505,4.60082,-0.48508
-133,519,4.29602,-0.444275,-0.0349694,-0.0412822,-0.0864886,0.0484204,-0.124672,-0.767159,0.103117,0.0447687,1091,505,4.29599,0.444265
-126,519,0,0,0,0,0,0,0,0,0,-1,1098,505,0,0
-119,519,0,0,0,0,0,0,0,0,0,-1,1105,505,0,0
-112,519,0,0,0,0,0,0,0,0,0,-1,1112,505,0,0
-105,519,0,0,0,0,0,0,0,0,0,-1,1119,505,0,0
-98,519,0,0,0,0,0,0,0,0,0,-1,1126,505,0,0
-91,519,0,0,0,0,0,0,0,0,0,-1,1133,505,0,0
-84,519,0,0,0,0,0,0,0,0,0,-1,1140,505,0,0
-77,519,0,0,0,0,0,0,0,0,0,-1,1147,505,0,0
-70,519,0,0,0,0,0,0,0,0,0,-1,1154,505,0,0
-63,519,0,0,0,0,0,0,0,0,0,-1,1161,505,0,0
-56,519,0,0,0,0,0,0,0,0,0,-1,1168,505,0,0
-49,519,0,0,0,0,0,0,0,0,0,-1,1175,505,0,0
-42,519,0,0,0,0,0,0,0,0,0,-1,1182,505,0,0
-35,519,0,0,0,0,0,0,0,0,0,-1,1189,505,0,0
-28,519,0,0,0,0,0,0,0,0,0,-1,1196,505,0,0
-21,519,0,0,0,0,0,0,0,0,0,-1,1203,505,0,0
-14,519,0,0,0,0,0,0,0,0,0,-1,1210,505,0,0
-7,519,0,0,0,0,0,0,0,0,0,-1,1217,505,0,0
0,519,0,0,0,0,0,0,0,0,0,-1,1224,505,0,0
7,519,0,0,0,0,0,0,0,0,0,-1,1231,505,0,0
14,519,0,0,0,0,0,0,0,0,0,-1,1238,505,0,0
21,519,0,0,0,0,0,0,0,0,0,-1,1245,505,0,0
28,519,0,0,0,0,0,0,0,0,0,-1,1252,505,0,0
35,519,0,0,0,0,0,0,0,0,0,-1,1259,505,0,0
42,519,0,0,0,0,0,0,0,0,0,-1,1266,505,0,0
49,519,0,0,0,0,0,0,0,0,0,-1,1273,505,0,0
56,519,0,0,0,0,0,0,0,0,0,-1,1280,505,0,0
63,519,0,0,0,0,0,0,0,0,0,-1,1287,505,0,0
70,519,0,0,0,0,0,0,0,0,0,-1,1294,505,0,0
77,519,0,0,0,0,0,0,0,0,0,-1,1301,505,0,0
84,519,0,0,0,0,0,0,0,0,0,-1,1308,505,0,0
91,519,0,0,0,0,0,0,0,0,0,-1,1315,505,0,0
98,519,0,0,0,0,0,0,0,0,0,-1,1322,505,0,0
105,519,0,0,0,0,0,0,0,0,0,-1,1329,505,0,0
112,519,0,0,0,0,0,0,0,0,0,-1,1336,505,0,0
119,519,0,0,0,0,0,0,0,0,0,-1,1343,505,0,0
126,519,0,0,0,0,0,0,0,0,0,-1,1350,505,0,0
133,519,0,0,0,0,0,0,0,0,0,-1,1357,505,0,0
140,519,0,0,0,0,0,0,0,0,0,-1,1364,505,0,0
147,519,0,0,0,0,0,0,0,0,0,-1,1371,505,0,0
154,519,0,0,0,0,0,0,0,0,0,-1,1378,505,0,0
161,519,0,0,0,0,0,0,0,0,0,-1,1385,505,0,0
168,519,0,0,0,0,0,0,0,0,0,-1,1392,505,0,0
175,519,0,0,0,0,0,0,0,0,0,-1,1399,505,0,0
182,519,0,0,0,0,0,0,0,0,0,-1,1406,505,0,0
189,519,0,0,0,0,0,0,0,0,0,-1,1413,505,0,0
196,519,0,0,0,0,0,0,0,0,0,-1,1420,505,0,0
203,519,0,0,0,0,0,0,0,0,0,-1,1427,505,0,0
210,519,0,0,0,0,0,0,0,0,0,-1,1434,505,0,0
217,519,0,0,0,0,0,0,0,0,0,-1,1441,505,0,0
224,519,0,0,0,0,0,0,0,0,0,-1,1448,505,0,0
231,519,0,0,0,0,0,0,0,0,0,-1,1455,505,0,0
238,519,0,0,0,0,0,0,0,0,0,-1,1462,505,0,0
245,519,0,0,0,0,0,0,0,0,0,-1,1469,505,0,0
252,519,5.26208,0.0938416,0,0,0,0,0,0,0,-1,1476,505,5.26207,-0.0938493
259,519,4.54407,-0.121582,0,0,0,0,0,0,0,-1,1483,505,4.5441,0.12159
266,519,5.31909,-0.400787,0,0,0,0,0,0,0,-1,1490,505,5.31912,0.400773
273,519,4.02393,0.325531,0,0,0,0,0,0,0,-1,1497,505,4.0239,-0.325522
280,519,4.68848,0.53006,0,0,0,0,0,0,0,-1,1504,505,4.68842,-0.530073
287,519,7.9519,-3.80801,0,0,0,0,0,0,0,-1,1511,505,7.95193,3.808
294,519,6.92273,-3.38889,0,0,0,0,0,0,0,-1,1518,505,6.92268,3.38888
301,519,5.35669,-2.92661,0,0,0,0,0,0,0,-1,1525,505,5.35675,2.9266
308,519,3.33252,-2.83395,0,0,0,0,0,0,0,-1,1532,505,3.33246,2.83395
315,519,2.3822,-2.11487,0,0,0,0,0,0,0,-1,1539,505,2.38219,2.11487
322,519,1.69629,-1.40433,0,0,0,0,0,0,0,-1,1546,505,1.69624,1.40433
329,519,4.92407,0.62384,0,0,0,0,0,0,0,-1,1553,505,4.92403,-0.623832
336,519,3.10095,-0.329285,0,0,0,0,0,0,0,-1,1560,505,3.1009,0.329283
343,519,4.05688,-0.436768,0,0,0,0,0,0,0,-1,1567,505,4.05693,0.436766
350,519,3.06921,-2.60999,0,0,0,0,0,0,0,-1,1574,505,3.06926,2.60998
357,519,3.15588,-2.62515,0,0,0,0,0,0,0,-1,1581,505,3.15592,2.62516
364,519,3.08557,-2.56244,-0.00883933,-0.0228389,-0.0085065,-0.00482288,-0.0268554,-0.44113,0.0165321,0.0454297,1588,505,3.08562,2.56244
371,519,2.84229,-2.2117,-0.00678667,-0.0236664,-0.00692314,-0.00431044,-0.0261426,-0.343495,0.0161841,0.0402696,1595,505,2.84231,2.21171
378,519,2.84961,-2.25464,-0.00512767,-0.0233894,-0.00590304,-0.0033857,-0.0251313,-0.286953,0.0157475,0.0411915,1602,505,2.84956,2.25463
385,519,2.93079,-2.15399,-0.00373485,-0.0223178,-0.00493951,-0.00250348,-0.0235491,-0.244311,0.014935,0.0402633,1609,505,2.93077,2.15399
392,519,2.92163,-2.0889,-0.00264889,-0.0204101,-0.0042084,-0.00170219,-0.0213568,-0.22127,0.0137057,0.0311414,1616,505,2.92168,2.08889
399,519,2.87927,-2.0455,-0.00194515,-0.0179008,-0.00363535,-0.00115591,-0.01869,-0.213784,0.0120932,0.0204391,1623,505,2.87928,2.04551
406,519,2.90479,-1.98843,-0.00133984,-0.0151068,-0.00294451,-0.000736502,-0.0157101,-0.202105,0.0102367,0.0162229,1630,505,2.90477,1.98842
413,519,2.89795,-1.90118,-0.000947482,-0.012054,-0.00242879,-0.000439578,-0.0125619,-0.206147,0.00823202,0.0132652,1637,505,2.89795,1.90118
420,519,2.87854,-1.85123,-0.000662053,-0.00924355,-0.00207975,-0.000184584,-0.00972101,-0.225669,0.00642003,0.0147209,1644,505,2.87849,1.85123
427,519,2.90417,-1.82785,-0.000642693,-0.00671277,-0.00171956,-0.000189416,-0.00716605,-0.257738,0.0047155,0.0126479,1651,505,2.90412,1.82786
434,519,2.90759,-1.75061,-0.000212466,-0.00388636,-0.00104979,6.63439e-05,-0.00416517,-0.259594,0.00279916,0.0112478,1658,505,2.90754,1.75062
441,519,2.89648,-1.68231,-9.50873e-05,-0.00164711,-0.000581524,9.86253e-05,-0.00184082,-0.321551,0.00126137,0.0110302,1665,505,2.8965,1.6823
448,519,2.90112,-1.62515,9.22464e-06,-0.000256066,-0.000211013,0.000125821,-0.000372662,-0.504802,0.00029933,0.00868375,1672,505,2.90115,1.62517
455,519,2.91064,-1.57635,0.000244963,0.000363337,0.000188866,0.000502072,0.000106228,0.937241,0.000305525,0.0100087,1679,505,2.91067,1.57635
462,519,2.91907,-1.51523,0.000741415,0.000120373,0.000680745,0.00117912,-0.000317329,0.571421,0.000910478,0.00996812,1686,505,2.91903,1.51522
469,519,2.92603,-1.42181,0.0018984,-0.000751526,0.00148476,0.00256342,-0.00141654,0.421104,0.00232942,0.0102788,1693,505,2.92598,1.42183
476,519,2.92456,-1.35477,0.00364504,-0.000509683,0.00259603,0.00489256,-0.0017572,0.447965,0.00397895,0.0125166,1700,505,2.92458,1.35476
483,519,2.9386,-1.29843,0.0054355,-0.000786008,0.0036514,0.00712157,-0.00247208,0.43259,0.00575164,0.0132294,1707,505,2.93861,1.29844
490,519,2.91589,-1.20041,0.00760644,-0.000747038,0.00495615,0.0099111,-0.0030517,0.435266,0.00782556,0.0108904,1714,505,2.91593,1.2004
497,519,2.90149,-1.15131,0.0102837,-0.000533049,0.00665677,0.0134523,-0.00370156,0.44425,0.0104235,0.0128147,1721,505,2.90155,1.15131
504,519,2.89709,-1.08102,0.0135755,-2.47492e-05,0.00901951,0.0180711,-0.00452035,0.462391,0.0138031,0.0131166,1728,505,2.89705,1.08103
511,519,2.95227,-1.00916,0.017479,0.0014051,0.0116913,0.0236293,-0.00474519,0.484277,0.0175498,0.0184124,1735,505,2.95227,1.00916
518,519,2.91492,-0.920166,0.0221503,0.0035165,0.0150944,0.0305716,-0.00490484,0.508898,0.0221974,0.0374048,1742,505,2.91487,0.920162
525,519,2.76746,-0.68103,0.0275913,0.00666154,0.019301,0.0390819,-0.00482908,0.536984,0.0278044,0.0475823,1749,505,2.76751,0.681037
532,519,2.86804,-0.451202,0,0,0,0,0,0,0,-1,1756,505,2.86804,0.451208
539,519,3.2959,-0.737213,0,0,0,0,0,0,0,-1,1763,505,3.29585,0.737225
546,519,2.25098,-1.77811,0,0,0,0,0,0,0,-1,1770,505,2.25099,1.77812
553,519,2.54858,-0.91922,0,0,0,0,0,0,0,-1,1777,505,2.54861,0.919224
560,519,2.24304,-0.36319,0,0,0,0,0,0,0,-1,1784,505,2.24306,0.363197
567,519,0,0,0,0,0,0,0,0,0,-1,1791,505,0,0
574,519,0,0,0,0,0,0,0,0,0,-1,1798,505,0,0
581,519,0,0,0,0,0,0,0,0,0,-1,1805,505,0,0
588,519,0,0,0,0,0,0,0,0,0,-1,1812,505,0,0
595,519,0,0,0,0,0,0,0,0,0,-1,1819,505,0,0
602,519,0,0,0,0,0,0,0,0,0,-1,1826,505,0,0
609,519,0,0,0,0,0,0,0,0,0,-1,1833,505,0,0
616,519,0,0,0,0,0,0,0,0,0,-1,1840,505,0,0
623,519,0,0,0,0,0,0,0,0,0,-1,1847,505,0,0
630,519,0,0,0,0,0,0,0,0,0,-1,1854,505,0,0
637,519,0,0,0,0,0,0,0,0,0,-1,1861,505,0,0
644,519,0,0,0,0,0,0,0,0,0,-1,1868,505,0,0
651,519,0,0,0,0,0,0,0,0,0,-1,1875,505,0,0
658,519,0,0,0,0,0,0,0,0,0,-1,1882,505,0,0
665,519,0,0,0,0,0,0,0,0,0,-1,1889,505,0,0
672,519,0,0,0,0,0,0,0,0,0,-1,1896,505,0,0
679,519,0,0,0,0,0,0,0,0,0,-1,1903,505,0,0
686,519,0,0,0,0,0,0,0,0,0,-1,1910,505,0,0
693,519,0,0,0,0,0,0,0,0,0,-1,1917,505,0,0
700,519,0,0,0,0,0,0,0,0,0,-1,1924,505,0,0
707,519,0,0,0,0,0,0,0,0,0,-1,1931,505,0,0
714,519,0,0,0,0,0,0,0,0,0,-1,1938,505,0,0
721,519,0,0,0,0,0,0,0,0,0,-1,1945,505,0,0
728,519,0,0,0,0,0,0,0,0,0,-1,1952,505,0,0
735,519,0,0,0,0,0,0,0,0,0,-1,1959,505,0,0
742,519,0,0,0,0,0,0,0,0,0,-1,1966,505,0,0
749,519,0,0,0,0,0,0,0,0,0,-1,1973,505,0,0
756,519,0,0,0,0,0,0,0,0,0,-1,1980,505,0,0
763,519,0,0,0,0,0,0,0,0,0,-1,1987,505,0,0
770,519,0,0,0,0,0,0,0,0,0,-1,1994,505,0,0
777,519,0,0,0,0,0,0,0,0,0,-1,2001,505,0,0
784,519,0,0,0,0,0,0,0,0,0,-1,2008,505,0,0
791,519,0,0,0,0,0,0,0,0,0,-1,2015,505,0,0
798,519,0,0,0,0,0,0,0,0,0,-1,2022,505,0,0
805,519,0,0,0,0,0,0,0,0,0,-1,2029,505,0,0
812,519,0,0,0,0,0,0,0,0,0,-1,2036,505,0,0
-700,512,0,0,0,0,0,0,0,0,0,-1,524,512,0,0
-693,512,0,0,0,0,0,0,0,0,0,-1,531,512,0,0
-686,512,0,0,0,0,0,0,0,0,0,-1,538,512,0,0
-679,512,0,0,0,0,0,0,0,0,0,-1,545,512,0,0
-672,512,0,0,0,0,0,0,0,0,0,-1,552,512,0,0
-665,512,0,0,0,0,0,0,0,0,0,-1,559,512,0,0
-658,512,0,0,0,0,0,0,0,0,0,-1,566,512,0,0
-651,512,0,0,0,0,0,0,0,0,0,-1,573,512,0,0
-644,512,0,0,0,0,0,0,0,0,0,-1,580,512,0,0
-637,512,0,0,0,0,0,0,0,0,0,-1,587,512,0,0
-630,512,0,0,0,0,0,0,0,0,0,-1,594,512,0,0
-623,512,0,0,0,0,0,0,0,0,0,-1,601,512,0,0
-616,512,0,0,0,0,0,0,0,0,0,-1,608,512,0,0
-609,512,0,0,0,0,0,0,0,0,0,-1,615,512,0,0
-602,512,0,0,0,0,0,0,0,0,0,-1,622,512,0,0
-595,512,0,0,0,0,0,0,0,0,0,-1,629,512,0,0
-588,512,0,0,0,0,0,0,0,0,0,-1,636,512,0,0
-581,512,0,0,0,0,0,0,0,0,0,-1,643,512,0,0
-574,512,0,0,0,0,0,0,0,0,0,-1,650,512,0,0
-567,512,0,0,0,0,0,0,0,0,0,-1,657,512,0,0
-560,512,0,0,0,0,0,0,0,0,0,-1,664,512,0,0
-553,512,0,0,0,0,0,0,0,0,0,-1,671,512,0,0
-546,512,0,0,0,0,0,0,0,0,0,-1,678,512,0,0
-539,512,0,0,0,0,0,0,0,0,0,-1,685,512,0,0
-532,512,0,0,0,0,0,0,0,0,0,-1,692,512,0,0
-525,512,0,0,0,0,0,0,0,0,0,-1,699,512,0,0
-518,512,0,0,0,0,0,0,0,0,0,-1,706,512,0,0
-511,512,0,0,0,0,0,0,0,0,0,-1,713,512,0,0
-504,512,0,0,0,0,0,0,0,0,0,-1,720,512,0,0
-497,512,0,0,0,0,0,0,0,0,0,-1,727,512,0,0
-490,512,0,0,0,0,0,0,0,0,0,-1,734,512,0,0
-483,512,0,0,0,0,0,0,0,0,0,-1,741,512,0,0
-476,512,0,0,0,0,0,0,0,0,0,-1,748,512,0,0
-469,512,0,0,0,0,0,0,0,0,0,-1,755,512,0,0
-462,512,0,0,0,0,0,0,0,0,0,-1,762,512,0,0
-455,512,0,0,0,0,0,0,0,0,0,-1,769,512,0,0
-448,512,-1.28577,-1.92889,0.0823475,-0.085892,0.0366904,0.090001,-0.0935455,0.205646,0.105977,0.0425979,776,512,-1.28578,1.92888
-441,512,-0.237488,-1.78387,0.066257,-0.0767846,0.0298461,0.0722346,-0.0827623,0.197668,0.0895563,0.0434241,783,512,-0.237488,1.78387
-434,512,1.64917,-2.07855,0,0,0,0,0,0,0,-1,790,512,1.64914,2.07857
-427,512,1.71863,-2.00275,0.0372568,-0.0596124,0.0175201,0.0403282,-0.0626837,0.173542,0.059939,0.0496432,797,512,1.7186,2.00273
-420,512,1.78101,-1.91925,0.0258424,-0.0503981,0.0125255,0.0278475,-0.0524032,0.158733,0.0470502,0.0478506,804,512,1.78098,1.91927
-413,512,1.79919,-1.77228,0.0170869,-0.0420209,0.00876323,0.0183588,-0.0432927,0.144129,0.036552,0.0428782,811,512,1.79918,1.7723
-406,512,1.82117,-1.66699,0.00988896,-0.0334699,0.00582587,0.0106581,-0.0342391,0.131263,0.0270869,0.0427732,818,512,1.82119,1.66699
-399,512,1.44855,-1.51794,0.00373641,-0.0253605,0.00319019,0.00408208,-0.0257061,0.107932,0.0186476,0.0430625,825,512,1.44856,1.51795
-392,512,1.23639,-1.26917,-0.000768785,-0.0181295,0.00101816,-0.000709276,-0.018189,0.0583808,0.0118966,0.0345235,832,512,1.23638,1.26913
-385,512,1.18176,-1.21399,-0.00410663,-0.0118938,-0.000510751,-0.00407327,-0.0119272,-0.0652164,0.00700051,0.0176056,839,512,1.18175,1.214
-378,512,1.1944,-1.26355,-0.00480507,-0.00693138,-0.000839743,-0.00451343,-0.00722302,-0.334263,0.00421334,0.014035,846,512,1.19441,1.26352
-371,512,1.19946,-1.34009,-0.00499317,-0.00349578,-0.000888565,-0.00308254,-0.00540641,-1.13549,0.00313162,0.0114195,853,512,1.19944,1.34009
-364,512,1.20514,-1.43799,-0.00422006,-0.000947208,-0.000515773,-0.000867851,-0.00429942,-1.41813,0.00262526,0.00924928,860,512,1.20517,1.43798
-357,512,1.21478,-1.50586,-0.00356323,0.000929145,-0.000160964,0.000934905,-0.00356899,-1.53503,0.00274456,0.0107553,867,512,1.21477,1.50588
-350,512,1.21637,-1.56439,-0.00294087,0.00181133,0.000306673,0.00183104,-0.00296057,1.50662,0.00279194,0.0119183,874,512,1.21637,1.5644
-343,512,1.20935,-1.6214,-0.00201901,0.00111495,0.000465766,0.00118271,-0.00208677,1.42634,0.00191153,0.0121853,881,512,1.20935,1.62142
-336,512,1.20819,-1.67377,-0.00139911,8.23174e-05,0.000656464,0.000331352,-0.00164814,1.20821,0.00122425,0.0114495,888,512,1.20821,1.67376
-329,512,1.19598,-1.73889,-0.0011503,-0.000387082,0.000755239,7.7483e-05,-0.00161487,1.01933,0.00110331,0.0115483,895,512,1.19598,1.7389
-322,512,1.20203,-1.82245,-0.00106086,-0.000557591,0.00077751,7.98982e-06,-0.00162644,0.9419,0.00108697,0.00943015,902,512,1.20202,1.82246
-315,512,1.21417,-1.90112,-0.00123508,-0.000133577,0.000535797,8.40498e-05,-0.00145271,1.18498,0.00099767,0.00934927,909,512,1.21416,1.90114
-308,512,1.20673,-1.95087,-0.00157012,0.00108752,8.72616e-05,0.00109039,-0.00157298,1.53801,0.00154609,0.0102584,916,512,1.20676,1.95086
-301,512,1.20557,-1.99109,-0.00185758,0.00413745,-0.000614896,0.00419987,-0.00192,-1.46963,0.00361411,0.0142475,923,512,1.20557,1.99112
-294,512,1.1969,-2.0481,-0.0021938,0.0099208,-0.00132731,0.0100645,-0.00233752,-1.46294,0.00760948,0.0138941,930,512,1.19687,2.04812
-287,512,1.15582,-2.09973,-0.00288549,0.0151845,-0.00227048,0.0154654,-0.00316641,-1.4477,0.0115118,0.0147538,937,512,1.15585,2.0997
-280,512,1.17206,-2.19055,-0.00383668,0.0213781,-0.00316095,0.0217683,-0.00422691,-1.44797,0.0161071,0.0162757,944,512,1.17208,2.19053
-273,512,1.26221,-2.18604,-0.00434269,0.0286462,-0.00421777,0.029177,-0.00487341,-1.44562,0.0212628,0.0281266,951,512,1.26218,2.18601
-266,512,1.30475,-2.13788,-0.00453692,0.0367563,-0.00550201,0.0374768,-0.00525745,-1.44058,0.0269088,0.0356168,958,512,1.30472,2.13786
-259,512,1.16425,-2.4245,-0.00480319,0.0452513,-0.00664146,0.0461175,-0.00566942,-1.4411,0.0327985,0.0474962,965,512,1.16423,2.4245
-252,512,1.24384,-2.55042,0,0,0,0,0,0,0,-1,972,512,1.24382,2.55039
-245,512,1.14343,-2.39392,0,0,0,0,0,0,0,-1,979,512,1.14341,2.39392
-238,512,1.68939,-2.08313,0,0,0,0,0,0,0,-1,986,512,1.68937,2.08311
-231,512,1.42737,-2.07629,0,0,0,0,0,0,0,-1,993,512,1.42735,2.07628
-224,512,-4.97754,-3.32196,0,0,0,0,0,0,0,-1,1000,512,-4.97754,3.32195
-217,512,-5.11389,-3.12781,0,0,0,0,0,0,0,-1,1007,512,-5.11387,3.12783
-210,512,2.86957,-0.714722,0,0,0,0,0,0,0,-1,1014,512,2.86957,0.714706
-203,512,2.35767,-1.12775,0,0,0,0,0,0,0,-1,1021,512,2.35764,1.12772
-196,512,1.94995,-1.79895,0,0,0,0,0,0,0,-1,1028,512,1.94996,1.79892
-189,512,1.15894,-1.73602,-0.105927,-0.00967577,-0.0120314,-0.00819464,-0.107408,-1.44831,0.0690363,0.0483981,1035,512,1.15892,1.73603
-182,512,0.0657959,-1.94952,-0.111585,-0.0153342,-0.0181345,-0.0120308,-0.114888,-1.39061,0.0729134,0.0482149,1042,512,0.0658537,1.94954
-175,512,-0.863403,-2.5459,-0.117702,-0.0216042,-0.0244604,-0.0157364,-0.12357,-1.33536,0.0776677,0.0478043,1049,512,-0.863378,2.54592
-168,512,-1.39746,-2.46259,0,0,0,0,0,0,0,-1,1056,512,-1.39741,2.46259
-161,512,-2.16956,-2.27972,0,0,0,0,0,0,0,-1,1063,512,-2.16961,2.27975
-154,512,3.11609,3.08133,0,0,0,0,0,0,0,-1,1070,512,3.11606,-3.08132
-147,512,0,0,0,0,0,0,0,0,0,-1,1077,512,0,0
-140,512,0,0,0,0,0,0,0,0,0,-1,1084,512,0,0
-133,512,0,0,0,0,0,0,0,0,0,-1,1091,512,0,0
-126,512,0,0,0,0,0,0,0,0,0,-1,1098,512,0,0
-119,512,0,0,0,0,0,0,0,0,0,-1,1105,512,0,0
-112,512,0,0,0,0,0,0,0,0,0,-1,1112,512,0,0
-105,512,0,0,0,0,0,0,0,0,0,-1,1119,512,0,0
-98,512,0,0,0,0,0,0,0,0,0,-1,1126,512,0,0
-91,512,0,0,0,0,0,0,0,0,0,-1,1133,512,0,0
-84,512,0,0,0,0,0,0,0,0,0,-1,1140,512,0,0
-77,512,0,0,0,0,0,0,0,0,0,-1,1147,512,0,0
-70,512,0,0,0,0,0,0,0,0,0,-1,1154,512,0,0
-63,512,0,0,0,0,0,0,0,0,0,-1,1161,512,0,0
-56,512,0,0,0,0,0,0,0,0,0,-1,1168,512,0,0
-49,512,0,0,0,0,0,0,0,0,0,-1,1175,512,0,0
-42,512,0,0,0,0,0,0,0,0,0,-1,1182,512,0,0
-35,512,0,0,0,0,0,0,0,0,0,-1,1189,512,0,0
-28,512,0,0,0,0,0,0,0,0,0,-1,1196,512,0,0
-21,512,0,0,0,0,0,0,0,0,0,-1,1203,512,0,0
-14,512,0,0,0,0,0,0,0,0,0,-1,1210,512,0,0
-7,512,0,0,0,0,0,0,0,0,0,-1,1217,512,0,0
0,512,0,0,0,0,0,0,0,0,0,-1,1224,512,0,0
7,512,0,0,0,0,0,0,0,0,0,-1,1231,512,0,0
14,512,0,0,0,0,0,0,0,0,0,-1,1238,512,0,0
21,512,0,0,0,0,0,0,0,0,0,-1,1245,512,0,0
28,512,0,0,0,0,0,0,0,0,0,-1,1252,512,0,0
35,512,0,0,0,0,0,0,0,0,0,-1,1259,512,0,0
42,512,0,0,0,0,0,0,0,0,0,-1,1266,512,0,0
49,512,0,0,0,0,0,0,0,0,0,-1,1273,512,0,0
56,512,0,0,0,0,0,0,0,0,0,-1,1280,512,0,0
63,512,0,0,0,0,0,0,0,0,0,-1,1287,512,0,0
70,512,0,0,0,0,0,0,0,0,0,-1,1294,512,0,0
77,512,0,0,0,0,0,0,0,0,0,-1,1301,512,0,0
84,512,0,0,0,0,0,0,0,0,0,-1,1308,512,0,0
91,512,0,0,0,0,0,0,0,0,0,-1,1315,512,0,0
98,512,0,0,0,0,0,0,0,0,0,-1,1322,512,0,0
105,512,0,0,0,0,0,0,0,0,0,-1,1329,512,0,0
112,512,0,0,0,0,0,0,0,0,0,-1,1336,512,0,0
119,512,0,0,0,0,0,0,0,0,0,-1,1343,512,0,0
126,512,0,0,0,0,0,0,0,0,0,-1,1350,512,0,0
133,512,0,0,0,0,0,0,0,0,0,-1,1357,512,0,0
140,512,0,0,0,0,0,0,0,0,0,-1,1364,512,0,0
147,512,0,0,0,0,0,0,0,0,0,-1,1371,512,0,0
154,512,0,0,0,0,0,0,0,0,0,-1,1378,512,0,0
161,512,0,0,0,0,0,0,0,0,0,-1,1385,512,0,0
168,512,0,0,0,0,0,0,0,0,0,-1,1392,512,0,0
175,512,0,0,0,0,0,0,0,0,0,-1,1399,512,0,0
182,512,0,0,0,0,0,0,0,0,0,-1,1406,512,0,0
189,512,0,0,0,0,0,0,0,0,0,-1,1413,512,0,0
196,512,0,0,0,0,0,0,0,0,0,-1,1420,512,0,0
203,512,0,0,0,0,0,0,0,0,0,-1,1427,512,0,0
210,512,0,0,0,0,0,0,0,0,0,-1,1434,512,0,0
217,512,0,0,0,0,0,0,0,0,0,-1,1441,512,0,0
224,512,0,0,0,0,0,0,0,0,0,-1,1448,512,0,0
231,512,0,0,0,0,0,0,0,0,0,-1,1455,512,0,0
238,512,0,0,0,0,0,0,0,0,0,-1,1462,512,0,0
245,512,0,0,0,0,0,0,0,0,0,-1,1469,512,0,0
252,512,0,0,0,0,0,0,0,0,0,-1,1476,512,0,0
259,512,0,0,0,0,0,0,0,0,0,-1,1483,512,0,0
266,512,0,0,0,0,0,0,0,0,0,-1,1490,512,0,0
273,512,4.00745,0.618622,0,0,0,0,0,0,0,-1,1497,512,4.00747,-0.618611
280,512,4.49609,0.649841,0,0,0,0,0,0,0,-1,1504,512,4.49612,-0.649834
287,512,4.77234,0.458069,0,0,0,0,0,0,0,-1,1511,512,4.77233,-0.458083
294,512,8.54956,-2.36273,0,0,0,0,0,0,0,-1,1518,512,8.54952,2.36274
301,512,6.302,-1.69092,0,0,0,0,0,0,0,-1,1525,512,6.30196,1.69093
308,512,3.54944,-2.3241,0,0,0,0,0,0,0,-1,1532,512,3.54944,2.32411
315,512,2.8999,-1.72278,0,0,0,0,0,0,0,-1,1539,512,2.8999,1.7228
322,512,2.3092,-0.953674,0,0,0,0,0,0,0,-1,1546,512,2.30915,0.953657
329,512,4.38147,-0.329651,0,0,0,0,0,0,0,-1,1553,512,4.38144,0.329662
336,512,4.41467,-0.741455,0,0,0,0,0,0,0,-1,1560,512,4.41467,0.741442
343,512,4.44727,-1.21667,0,0,0,0,0,0,0,-1,1567,512,4.44732,1.21666
350,512,4.55469,-1.65082,0,0,0,0,0,0,0,-1,1574,512,4.5547,1.65083
357,512,5.04651,-2.1897,0,0,0,0,0,0,0,-1,1581,512,5.04653,2.18971
364,512,3.04285,-2.58514,0,0,0,0,0,0,0,-1,1588,512,3.04283,2.58513
371,512,2.82654,-2.19409,0,0,0,0,0,0,0,-1,1595,512,2.82657,2.19406
378,512,2.93591,-1.01685,0,0,0,0,0,0,0,-1,1602,512,2.93591,1.01682
385,512,2.87659,-1.34595,-0.00138589,-0.0265016,-0.00498808,-0.000431508,-0.027456,-0.189049,0.0181619,0.0441437,1609,512,2.87665,1.34594
392,512,3.02661,-1.72919,-0.000434403,-0.0243993,-0.00429095,0.000310728,-0.0251445,-0.171937,0.0168675,0.0451521,1616,512,3.02655,1.72917
399,512,3.0127,-1.96936,4.60549e-05,-0.0214789,-0.00375898,0.000683615,-0.0221164,-0.168011,0.0149774,0.0365755,1623,512,3.01264,1.96936
406,512,2.98145,-1.99048,0.000301904,-0.0181287,-0.00314995,0.000825386,-0.0186522,-0.164683,0.0127188,0.0274698,1630,512,2.98144,1.99047
413,512,2.9668,-1.93854,0.000342406,-0.0144499,-0.00270865,0.000822793,-0.0149303,-0.175528,0.0102388,0.0216438,1637,512,2.96685,1.93852
420,512,2.96875,-1.87775,0.000258552,-0.0110419,-0.00242127,0.000755487,-0.0115389,-0.202426,0.00795638,0.0158998,1644,512,2.96872,1.87777
427,512,2.96448,-1.84369,-0.000132177,-0.00805345,-0.0020847,0.000382966,-0.00856859,-0.242254,0.00584424,0.0136869,1651,512,2.96448,1.84366
434,512,2.96619,-1.77716,0.00015724,-0.00460426,-0.00140369,0.000540242,-0.00498726,-0.266369,0.00351877,0.0105358,1658,512,2.96619,1.77715
441,512,2.96167,-1.6925,-4.41579e-05,-0.00186949,-0.00105277,0.000436477,-0.00235012,-0.428281,0.00173069,0.0128187,1665,512,2.96171,1.69253
448,512,2.96484,-1.62671,-0.000261603,-0.000119903,-0.000764732,0.000577254,-0.00095876,-0.83159,0.00089589,0.00924586,1672,512,2.9649,1.62669
455,512,2.96985,-1.55817,-0.000307457,0.000829334,-0.000402102,0.000957186,-0.000435308,-1.26295,0.000822562,0.00852813,1679,512,2.96985,1.55817
462,512,2.97534,-1.4942,8.91367e-05,0.000749381,9.1771e-05,0.000761899,7.66183e-05,1.43522,0.000484417,0.00945723,1686,512,2.9754,1.49417
469,512,2.974,-1.41595,0.00101467,-1.04022e-05,0.000768167,0.00142559,-0.000421322,0.491204,0.00111763,0.0105564,1693,512,2.97403,1.41595
476,512,2.98303,-1.36261,0.00234992,2.83414e-05,0.00161789,0.00318036,-0.000802098,0.47422,0.0024321,0.0132373,1700,512,2.98299,1.36262
483,512,2.99768,-1.30005,0.00376794,-0.00032099,0.00246195,0.00492364,-0.00147669,0.438888,0.00386974,0.0125289,1707,512,2.99774,1.30006
490,512,2.99377,-1.21191,0.00538306,-0.000367392,0.00344427,0.00699447,-0.0019788,0.437601,0.00544381,0.00989956,1714,512,2.99371,1.21194
497,512,2.99609,-1.14807,0.00728071,-0.000321927,0.00471539,0.0095362,-0.00257742,0.446158,0.00736843,0.0112979,1721,512,2.99609,1.14805
504,512,2.98889,-1.0567,0.0095784,-9.33801e-05,0.00655582,0.012889,-0.00340394,0.467624,0.00992382,0.0128141,1728,512,2.98894,1.05673
511,512,2.97693,-0.974182,0.0122435,0.000962917,0.00853951,0.0168373,-0.00363086,0.49354,0.0126106,0.0126546,1735,512,2.97691,0.974165
518,512,3.00183,-0.921814,0.0154729,0.00252358,0.0111085,0.0218559,-0.00385945,0.52154,0.0160129,0.0162173,1742,512,3.00179,0.921827
525,512,3.01013,-0.816101,0.0192118,0.00484894,0.0142618,0.0279982,-0.00393743,0.552158,0.0201069,0.0390742,1749,512,3.01008,0.816092
532,512,3.14441,-0.617981,0,0,0,0,0,0,0,-1,1756,512,3.14442,0.617974
539,512,3.09668,-0.327881,0,0,0,0,0,0,0,-1,1763,512,3.09664,0.327865
546,512,2.46375,-1.58063,0,0,0,0,0,0,0,-1,1770,512,2.46381,1.58063
553,512,2.61462,-0.936401,0,0,0,0,0,0,0,-1,1777,512,2.61461,0.936418
560,512,2.76282,-0.829956,0,0,0,0,0,0,0,-1,1784,512,2.7628,0.829952
567,512,2.85413,-0.353516,0,0,0,0,0,0,0,-1,1791,512,2.85417,0.353536
574,512,0,0,0,0,0,0,0,0,0,-1,1798,512,0,0
581,512,0,0,0,0,0,0,0,0,0,-1,1805,512,0,0
588,512,0,0,0,0,0,0,0,0,0,-1,1812,512,0,0
595,512,0,0,0,0,0,0,0,0,0,-1,1819,512,0,0
602,512,0,0,0,0,0,0,0,0,0,-1,1826,512,0,0
609,512,0,0,0,0,0,0,0,0,0,-1,1833,512,0,0
616,512,0,0,0,0,0,0,0,0,0,-1,1840,512,0,0
623,512,0,0,0,0,0,0,0,0,0,-1,1847,512,0,0
630,512,0,0,0,0,0,0,0,0,0,-1,1854,512,0,0
637,512,0,0,0,0,0,0,0,0,0,-1,1861,512,0,0
644,512,0,0,0,0,0,0,0,0,0,-1,1868,512,0,0
651,512,0,0,0,0,0,0,0,0,0,-1,1875,512,0,0
658,512,0,0,0,0,0,0,0,0,0,-1,1882,512,0,0
665,512,0,0,0,0,0,0,0,0,0,-1,1889,512,0,0
672,512,0,0,0,0,0,0,0,0,0,-1,1896,512,0,0
679,512,0,0,0,0,0,0,0,0,0,-1,1903,512,0,0
686,512,0,0,0,0,0,0,0,0,0,-1,1910,512,0,0
693,512,0,0,0,0,0,0,0,0,0,-1,1917,512,0,0
700,512,0,0,0,0,0,0,0,0,0,-1,1924,512,0,0
707,512,0,0,0,0,0,0,0,0,0,-1,1931,512,0,0
714,512,0,0,0,0,0,0,0,0,0,-1,1938,512,0,0
721,512,0,0,0,0,0,0,0,0,0,-1,1945,512,0,0
728,512,0,0,0,0,0,0,0,0,0,-1,1952,512,0,0
735,512,0,0,0,0,0,0,0,0,0,-1,1959,512,0,0
742,512,0,0,0,0,0,0,0,0,0,-1,1966,512,0,0
749,512,0,0,0,0,0,0,0,0,0,-1,1973,512,0,0
756,512,0,0,0,0,0,0,0,0,0,-1,1980,512,0,0
763,512,0,0,0,0,0,0,0,0,0,-1,1987,512,0,0
770,512,0,0,0,0,0,0,0,0,0,-1,1994,512,0,0
777,512,0,0,0,0,0,0,0,0,0,-1,2001,512,0,0
784,512,0,0,0,0,0,0,0,0,0,-1,2008,512,0,0
791,512,0,0,0,0,0,0,0,0,0,-1,2015,512,0,0
798,512,0,0,0,0,0,0,0,0,0,-1,2022,512,0,0
805,512,0,0,0,0,0,0,0,0,0,-1,2029,512,0,0
812,512,0,0,0,0,0,0,0,0,0,-1,2036,512,0,0
-700,505,0,0,0,0,0,0,0,0,0,-1,524,519,0,0
-693,505,0,0,0,0,0,0,0,0,0,-1,531,519,0,0
-686,505,0,0,0,0,0,0,0,0,0,-1,538,519,0,0
-679,505,0,0,0,0,0,0,0,0,0,-1,545,519,0,0
-672,505,0,0,0,0,0,0,0,0,0,-1,552,519,0,0
-665,505,0,0,0,0,0,0,0,0,0,-1,559,519,0,0
-658,505,0,0,0,0,0,0,0,0,0,-1,566,519,0,0
-651,505,0,0,0,0,0,0,0,0,0,-1,573,519,0,0
-644,505,0,0,0,0,0,0,0,0,0,-1,580,519,0,0
-637,505,0,0,0,0,0,0,0,0,0,-1,587,519,0,0
-630,505,0,0,0,0,0,0,0,0,0,-1,594,519,0,0
-623,505,0,0,0,0,0,0,0,0,0,-1,601,519,0,0
-616,505,0,0,0,0,0,0,0,0,0,-1,608,519,0,0
-609,505,0,0,0,0,0,0,0,0,0,-1,615,519,0,0
-602,505,0,0,0,0,0,0,0,0,0,-1,622,519,0,0
-595,505,0,0,0,0,0,0,0,0,0,-1,629,519,0,0
-588,505,0,0,0,0,0,0,0,0,0,-1,636,519,0,0
-581,505,0,0,0,0,0,0,0,0,0,-1,643,519,0,0
-574,505,0,0,0,0,0,0,0,0,0,-1,650,519,0,0
-567,505,0,0,0,0,0,0,0,0,0,-1,657,519,0,0
-560,505,0,0,0,0,0,0,0,0,0,-1,664,519,0,0
-553,505,0,0,0,0,0,0,0,0,0,-1,671,519,0,0
-546,505,0,0,0,0,0,0,0,0,0,-1,678,519,0,0
-539,505,0,0,0,0,0,0,0,0,0,-1,685,519,0,0
-532,505,0,0,0,0,0,0,0,0,0,-1,692,519,0,0
-525,505,0,0,0,0,0,0,0,0,0,-1,699,519,0,0
-518,505,0,0,0,0,0,0,0,0,0,-1,706,519,0,0
-511,505,0,0,0,0,0,0,0,0,0,-1,713,519,0,0
-504,505,0,0,0,0,0,0,0,0,0,-1,720,519,0,0
-497,505,0,0,0,0,0,0,0,0,0,-1,727,519,0,0
-490,505,0,0,0,0,0,0,0,0,0,-1,734,519,0,0
-483,505,0,0,0,0,0,0,0,0,0,-1,741,519,0,0
-476,505,0,0,0,0,0,0,0,0,0,-1,748,519,0,0
-469,505,0,0,0,0,0,0,0,0,0,-1,755,519,0,0
-462,505,0,0,0,0,0,0,0,0,0,-1,762,519,0,0
-455,505,-3.77655,-0.615356,0.0842404,-0.075371,0.0310324,0.0900615,-0.0811922,0.185428,0.0989176,0.0438798,769,519,-3.77657,0.615361
-448,505,-2.65283,-0.856079,0.0722321,-0.0686972,0.0272258,0.0773089,-0.073774,0.184353,0.0872357,0.0423371,776,519,-2.65286,0.856078
-441,505,-1.46698,-0.955261,0.0592645,-0.0621075,0.0231801,0.0635409,-0.0663839,0.182433,0.0750181,0.0454707,783,519,-1.46698,0.955277
-434,505,-0.414063,-0.955139,0,0,0,0,0,0,0,-1,790,519,-0.414062,0.955164
-427,505,0.876343,-0.458862,0,0,0,0,0,0,0,-1,797,519,0.876334,0.45886
-420,505,1.92572,-0.96875,0.0253549,-0.0417312,0.0112839,0.027202,-0.0435783,0.162254,0.041228,0.0418828,804,519,1.92573,0.968774
-413,505,1.73438,-1.22284,0.0178637,-0.0353877,0.00840612,0.0191591,-0.0366832,0.152905,0.0327655,0.0429781,811,519,1.7344,1.22285
-406,505,1.74152,-1.23364,0.0116331,-0.0287113,0.00585804,0.0124665,-0.0295447,0.141314,0.0249143,0.0444496,818,519,1.74152,1.23364
-399,505,1.15961,-1.1535,0.00615669,-0.022291,0.00334507,0.00654473,-0.0226791,0.115488,0.0177088,0.0410814,825,519,1.15962,1.15352
-392,505,1.17163,-1.16699,0.00220478,-0.0164121,0.00125863,0.00228949,-0.0164968,0.0671993,0.0118351,0.0198899,832,519,1.17161,1.16701
-385,505,1.12494,-1.20679,-0.000687981,-0.01128,-0.000284272,-0.000680357,-0.0112876,-0.0268126,0.00730886,0.00853874,839,519,1.12495,1.20678
-378,505,1.12,-1.26685,-0.00123865,-0.00727292,-0.00074529,-0.00114796,-0.00736361,-0.121086,0.00457468,0.00982298,846,519,1.11999,1.26684
-371,505,1.13391,-1.34857,-0.00155435,-0.00447843,-0.0009256,-0.00128599,-0.0047468,-0.282197,0.00283482,0.0127365,853,519,1.1339,1.34858
-364,505,1.13354,-1.42877,-0.00111193,-0.00228368,-0.000697209,-0.000787118,-0.00260849,-0.435977,0.00154497,0.0141523,860,519,1.13354,1.4288
-357,505,1.15826,-1.50891,-0.000760221,-0.000676659,-0.00040264,-0.000313638,-0.00112324,-0.837097,0.000669245,0.0122382,867,519,1.15829,1.5089
-350,505,1.14624,-1.57007,-0.00046456,2.60451e-05,6.14293e-05,3.36198e-05,-0.000472135,1.44811,0.000326541,0.0115286,874,519,1.14627,1.57008
-343,505,1.13135,-1.62903,-9.53951e-06,-0.000447243,0.000386194,0.000215503,-0.000672285,0.527615,0.000534702,0.00820789,881,519,1.13136,1.62902
-336,505,1.13373,-1.67279,0.000217683,-0.00123571,0.000661688,0.000473798,-0.00149183,0.369304,0.0011845,0.00969215,888,519,1.13376,1.67281
-329,505,1.1261,-1.72662,5.85656e-05,-0.00127328,0.000767678,0.000408903,-0.00162361,0.42813,0.00124136,0.0121345,895,519,1.12611,1.7266
-322,505,1.11023,-1.79999,-0.000241734,-0.000940524,0.000781009,0.000264472,-0.00144673,0.575069,0.00106366,0.0126879,902,519,1.11025,1.80001
-315,505,1.1214,-1.89148,-0.000893622,0.000217357,0.000436401,0.000368277,-0.00104454,1.23784,0.000846267,0.0115788,909,519,1.1214,1.8915
-308,505,1.13812,-1.96094,-0.00161654,0.00224745,-0.000193299,0.00225709,-0.00162619,-1.52094,0.00225186,0.0113968,916,519,1.13812,1.96094
-301,505,1.15234,-2.00122,-0.00222699,0.00654791,-0.00113843,0.00669321,-0.00237228,-1.44386,0.00542852,0.0142115,923,519,1.15233,2.0012
-294,505,1.13892,-2.02325,-0.00281774,0.0143065,-0.00214104,0.0145701,-0.00308137,-1.44828,0.0108869,0.0166702,930,519,1.13889,2.02325
-287,505,1.09393,-2.08362,-0.003816,0.0214653,-0.00342801,0.0219219,-0.00427257,-1.43839,0.0162274,0.0229104,937,519,1.09391,2.08362
-280,505,1.05157,-2.14496,-0.0051731,0.0298422,-0.00462701,0.0304433,-0.00577421,-1.44161,0.022469,0.0361991,944,519,1.05156,2.14498
-273,505,1.11804,-2.19812,0,0,0,0,0,0,0,-1,951,519,1.11801,2.19813
-266,505,1.38574,-2.47803,0,0,0,0,0,0,0,-1,958,519,1.38574,2.47803
-259,505,1.08826,-2.51733,0,0,0,0,0,0,0,-1,965,519,1.08829,2.51734
-252,505,3.60657,-0.854675,0,0,0,0,0,0,0,-1,972,519,3.60657,0.854683
-245,505,3.65924,-1.30896,0,0,0,0,0,0,0,-1,979,519,3.65923,1.30898
-238,505,-3.34003,-3.31708,0,0,0,0,0,0,0,-1,986,519,-3.34005,3.31707
-231,505,-3.69366,-3.46277,0,0,0,0,0,0,0,-1,993,519,-3.69364,3.46274
-224,505,-4.17529,-3.26904,0,0,0,0,0,0,0,-1,1000,519,-4.17528,3.26903
-217,505,-5.11328,-2.79138,0,0,0,0,0,0,0,-1,1007,519,-5.1133,2.79136
-210,505,2.65466,-0.561279,0,0,0,0,0,0,0,-1,1014,519,2.65467,0.561281
-203,505,2.17792,-0.984497,0,0,0,0,0,0,0,-1,1021,519,2.17793,0.984525
-196,505,1.70117,-1.40778,0,0,0,0,0,0,0,-1,1028,519,1.70119,1.40777
-189,505,0.616455,-1.35193,0,0,0,0,0,0,0,-1,1035,519,0.616454,1.35195
-182,505,-0.14502,-1.78284,0,0,0,0,0,0,0,-1,1042,519,-0.144973,1.78283
-175,505,-0.75647,-2.44763,0,0,0,0,0,0,0,-1,1049,519,-0.756432,2.44764
-168,505,0,0,0,0,0,0,0,0,0,-1,1056,519,0,0
-161,505,0,0,0,0,0,0,0,0,0,-1,1063,519,0,0
-154,505,0,0,0,0,0,0,0,0,0,-1,1070,519,0,0
-147,505,0,0,0,0,0,0,0,0,0,-1,1077,519,0,0
-140,505,0,0,0,0,0,0,0,0,0,-1,1084,519,0,0
-133,505,0,0,0,0,0,0,0,0,0,-1,1091,519,0,0
-126,505,0,0,0,0,0,0,0,0,0,-1,1098,519,0,0
-119,505,0,0,0,0,0,0,0,0,0,-1,1105,519,0,0
-112,505,0,0,0,0,0,0,0,0,0,-1,1112,519,0,0
-105,505,0,0,0,0,0,0,0,0,0,-1,1119,519,0,0
-98,505,0,0,0,0,0,0,0,0,0,-1,1126,519,0,0
-91,505,0,0,0,0,0,0,0,0,0,-1,1133,519,0,0
-84,505,0,0,0,0,0,0,0,0,0,-1,1140,519,0,0
-77,505,0,0,0,0,0,0,0,0,0,-1,1147,519,0,0
-70,505,0,0,0,0,0,0,0,0,0,-1,1154,519,0,0
-63,505,0,0,0,0,0,0,0,0,0,-1,1161,519,0,0
-56,505,0,0,0,0,0,0,0,0,0,-1,1168,519,0,0
-49,505,0,0,0,0,0,0,0,0,0,-1,1175,519,0,0
-42,505,0,0,0,0,0,0,0,0,0,-1,1182,519,0,0
-35,505,0,0,0,0,0,0,0,0,0,-1,1189,519,0,0
-28,505,0,0,0,0,0,0,0,0,0,-1,1196,519,0,0
-21,505,0,0,0,0,0,0,0,0,0,-1,1203,519,0,0
-14,505,0,0,0,0,0,0,0,0,0,-1,1210,519,0,0
-7,505,0,0,0,0,0,0,0,0,0,-1,1217,519,0,0
0,505,0,0,0,0,0,0,0,0,0,-1,1224,519,0,0
7,505,0,0,0,0,0,0,0,0,0,-1,1231,519,0,0
14,505,0,0,0,0,0,0,0,0,0,-1,1238,519,0,0
21,505,0,0,0,0,0,0,0,0,0,-1,1245,519,0,0
28,505,0,0,0,0,0,0,0,0,0,-1,1252,519,0,0
35,505,0,0,0,0,0,0,0,0,0,-1,1259,519,0,0
42,505,0,0,0,0,0,0,0,0,0,-1,1266,519,0,0
49,505,0,0,0,0,0,0,0,0,0,-1,1273,519,0,0
56,505,0,0,0,0,0,0,0,0,0,-1,1280,519,0,0
63,505,0,0,0,0,0,0,0,0,0,-1,1287,519,0,0
70,505,0,0,0,0,0,0,0,0,0,-1,1294,519,0,0
77,505,0,0,0,0,0,0,0,0,0,-1,1301,519,0,0
84,505,0,0,0,0,0,0,0,0,0,-1,1308,519,0,0
91,505,0,0,0,0,0,0,0,0,0,-1,1315,519,0,0
98,505,0,0,0,0,0,0,0,0,0,-1,1322,519,0,0
105,505,0,0,0,0,0,0,0,0,0,-1,1329,519,0,0
112,505,0,0,0,0,0,0,0,0,0,-1,1336,519,0,0
119,505,0,0,0,0,0,0,0,0,0,-1,1343,519,0,0
126,505,0,0,0,0,0,0,0,0,0,-1,1350,519,0,0
133,505,0,0,0,0,0,0,0,0,0,-1,1357,519,0,0
140,505,0,0,0,0,0,0,0,0,0,-1,1364,519,0,0
147,505,0,0,0,0,0,0,0,0,0,-1,1371,519,0,0
154,505,0,0,0,0,0,0,0,0,0,-1,1378,519,0,0
161,505,0,0,0,0,0,0,0,0,0,-1,1385,519,0,0
168,505,0,0,0,0,0,0,0,0,0,-1,1392,519,0,0
175,505,0,0,0,0,0,0,0,0,0,-1,1399,519,0,0
182,505,0,0,0,0,0,0,0,0,0,-1,1406,519,0,0
189,505,0,0,0,0,0,0,0,0,0,-1,1413,519,0,0
196,505,0,0,0,0,0,0,0,0,0,-1,1420,519,0,0
203,505,0,0,0,0,0,0,0,0,0,-1,1427,519,0,0
210,505,0,0,0,0,0,0,0,0,0,-1,1434,519,0,0
217,505,0,0,0,0,0,0,0,0,0,-1,1441,519,0,0
224,505,0,0,0,0,0,0,0,0,0,-1,1448,519,0,0
231,505,0,0,0,0,0,0,0,0,0,-1,1455,519,0,0
238,505,0,0,0,0,0,0,0,0,0,-1,1462,519,0,0
245,505,0,0,0,0,0,0,0,0,0,-1,1469,519,0,0
252,505,0,0,0,0,0,0,0,0,0,-1,1476,519,0,0
259,505,0,0,0,0,0,0,0,0,0,-1,1483,519,0,0
266,505,0,0,0,0,0,0,0,0,0,-1,1490,519,0,0
273,505,0,0,0,0,0,0,0,0,0,-1,1497,519,0,0
280,505,0,0,0,0,0,0,0,0,0,-1,1504,519,0,0
287,505,4.39478,0.499512,0,0,0,0,0,0,0,-1,1511,519,4.39476,-0.499506
294,505,4.88867,0.0822754,0,0,0,0,0,0,0,-1,1518,519,4.88871,-0.0822748
301,505,4.82153,-0.0704346,0,0,0,0,0,0,0,-1,1525,519,4.82156,0.0704312
308,505,4.67761,-0.29187,0,0,0,0,0,0,0,-1,1532,519,4.67762,0.291845
315,505,3.42969,-1.26953,0,0,0,0,0,0,0,-1,1539,519,3.4297,1.26956
322,505,4.78955,-0.594116,0,0,0,0,0,0,0,-1,1546,519,4.78957,0.594096
329,505,5.16321,0.434631,0,0,0,0,0,0,0,-1,1553,519,5.16316,-0.434614
336,505,4.94495,-0.920471,0,0,0,0,0,0,0,-1,1560,519,4.945,0.920495
343,505,5.01855,-1.4823,0,0,0,0,0,0,0,-1,1567,519,5.01851,1.48227
350,505,5.33154,-1.77838,0,0,0,0,0,0,0,-1,1574,519,5.33152,1.77838
357,505,5.56567,-1.9425,0,0,0,0,0,0,0,-1,1581,519,5.56562,1.94248
364,505,3.1322,-2.62305,0,0,0,0,0,0,0,-1,1588,519,3.13224,2.62304
371,505,2.76392,-2.35376,0,0,0,0,0,0,0,-1,1595,519,2.7639,2.35377
378,505,2.96887,-0.919373,0.00206978,-0.0296919,-0.00512715,0.00287692,-0.0304991,-0.156144,0.0213564,0.0460228,1602,519,2.96882,0.919384
385,505,2.80676,-0.997437,0.00335608,-0.0291044,-0.00419095,0.00388844,-0.0296367,-0.126349,0.0211733,0.0454539,1609,519,2.80671,0.997435
392,505,2.90649,-1.18774,0.00410019,-0.0269469,-0.00357106,0.00450564,-0.0273523,-0.113054,0.0199075,0.048007,1616,519,2.90645,1.18773
399,505,2.77905,-1.47626,0.00433112,-0.0236204,-0.00306917,0.00466415,-0.0239534,-0.108088,0.0177293,0.0453128,1623,519,2.77905,1.47627
406,505,2.84216,-1.6709,0.00414214,-0.019622,-0.0025033,0.00440298,-0.0198828,-0.103821,0.0149407,0.0410618,1630,519,2.8422,1.67087
413,505,3.01965,-1.97729,0.0036508,-0.0152766,-0.0020489,0.00387005,-0.0154959,-0.106605,0.0118335,0.040753,1637,519,3.01961,1.9773
420,505,3.05896,-1.93774,0.00299831,-0.0113606,-0.00181423,0.00322399,-0.0115862,-0.123758,0.00899355,0.0268177,1644,519,3.05898,1.93773
427,505,3.02588,-1.8493,0.00201269,-0.0080797,-0.00149144,0.00222848,-0.00829549,-0.143688,0.00640373,0.0128632,1651,519,3.02586,1.84931
434,505,3.02527,-1.77155,0.00201493,-0.00411351,-0.000834767,0.0021266,-0.00422518,-0.132985,0.00373332,0.00994909,1658,519,3.02525,1.77154
441,505,3.02954,-1.69202,0.00140278,-0.000974231,-0.000607509,0.00154904,-0.0011205,-0.236265,0.00154786,0.0107359,1665,519,3.02956,1.69201
448,505,3.03723,-1.62354,0.000613334,0.00100511,-0.000485749,0.00133298,0.000285462,-0.977059,0.000810435,0.0103713,1672,519,3.03726,1.62351
455,505,3.0332,-1.54956,9.37306e-05,0.00216002,-0.000227752,0.00218482,6.89251e-05,-1.46231,0.00143413,0.0105971,1679,519,3.03317,1.54959
462,505,3.01611,-1.48004,0.00037643,0.00205609,0.000196754,0.00207883,0.000353691,1.45573,0.00128433,0.0112813,1686,519,3.01616,1.48004
469,505,3.02466,-1.41577,0.00107269,0.00121279,0.000677418,0.00182377,0.000461712,0.836919,0.00109489,0.0108172,1693,519,3.02467,1.41579
476,505,3.0387,-1.35962,0.0020189,0.000919712,0.00123567,0.00282168,0.000116924,0.576149,0.00184338,0.0110893,1700,519,3.03873,1.35963
483,505,3.05908,-1.30609,0.00306866,0.000362115,0.00183189,0.00399293,-0.000562148,0.467274,0.00286776,0.0124194,1707,519,3.05906,1.30607
490,505,3.06543,-1.22437,0.00417121,0.000131695,0.00249192,0.00535911,-0.00105621,0.444835,0.0039719,0.0117682,1714,519,3.06538,1.22437
497,505,3.07568,-1.15613,0.00538439,-4.10924e-05,0.00336749,0.00699588,-0.00165258,0.446335,0.00530135,0.0114144,1721,519,3.07572,1.15616
504,505,3.0531,-1.07269,0.00684721,-8.47504e-05,0.00475357,0.00926422,-0.00250175,0.470393,0.00715732,0.012387,1728,519,3.05316,1.07267
511,505,3.0575,-1.02203,0.00856371,0.000690605,0.00620777,0.0119779,-0.00272354,0.502828,0.00903103,0.0136413,1735,519,3.05755,1.02201
518,505,3.10559,-0.969666,0.0106656,0.00188602,0.00816944,0.01555,-0.00299835,0.538862,0.0114972,0.0193602,1742,519,3.10555,0.969673
525,505,3.05542,-0.877808,0.0130946,0.00362395,0.0105281,0.0199033,-0.00318473,0.574063,0.0144479,0.0264899,1749,519,3.05536,0.877785
532,505,3.15137,-0.737854,0.01589,0.00591868,0.0135103,0.0253052,-0.0034965,0.608636,0.0181482,0.0430594,1756,519,3.15137,0.737864
539,505,3.34192,-0.588867,0.0191439,0.00934891,0.0171574,0.0320891,-0.00359628,0.646372,0.0226867,0.0499265,1763,519,3.34191,0.588853
546,505,3.50476,-0.311707,0,0,0,0,0,0,0,-1,1770,519,3.50479,0.311706
553,505,4.42078,-0.495972,0,0,0,0,0,0,0,-1,1777,519,4.42076,0.495963
560,505,4.86096,-0.524353,0,0,0,0,0,0,0,-1,1784,519,4.86094,0.524337
567,505,2.91797,-0.292603,0,0,0,0,0,0,0,-1,1791,519,2.91797,0.292604
574,505,3.34192,-0.101196,0,0,0,0,0,0,0,-1,1798,519,3.3419,0.101211
581,505,0,0,0,0,0,0,0,0,0,-1,1805,519,0,0
588,505,0,0,0,0,0,0,0,0,0,-1,1812,519,0,0
595,505,0,0,0,0,0,0,0,0,0,-1,1819,519,0,0
602,505,0,0,0,0,0,0,0,0,0,-1,1826,519,0,0
609,505,0,0,0,0,0,0,0,0,0,-1,1833,519,0,0
616,505,0,0,0,0,0,0,0,0,0,-1,1840,519,0,0
623,505,0,0,0,0,0,0,0,0,0,-1,1847,519,0,0
630,505,0,0,0,0,0,0,0,0,0,-1,1854,519,0,0
637,505,0,0,0,0,0,0,0,0,0,-1,1861,519,0,0
644,505,0,0,0,0,0,0,0,0,0,-1,1868,519,0,0
651,505,0,0,0,0,0,0,0,0,0,-1,1875,519,0,0
658,505,0,0,0,0,0,0,0,0,0,-1,1882,519,0,0
665,505,0,0,0,0,0,0,0,0,0,-1,1889,519,0,0
672,505,0,0,0,0,0,0,0,0,0,-1,1896,519,0,0
679,505,0,0,0,0,0,0,0,0,0,-1,1903,519,0,0
686,505,0,0,0,0,0,0,0,0,0,-1,1910,519,0,0
693,505,0,0,0,0,0,0,0,0,0,-1,1917,519,0,0
700,505,0,0,0,0,0,0,0,0,0,-1,1924,519,0,0
707,505,0,0,0,0,0,0,0,0,0,-1,1931,519,0,0
714,505,0,0,0,0,0,0,0,0,0,-1,1938,519,0,0
721,505,0,0,0,0,0,0,0,0,0,-1,1945,519,0,0
728,505,0,0,0,0,0,0,0,0,0,-1,1952,519,0,0
735,505,0,0,0,0,0,0,0,0,0,-1,1959,519,0,0
742,505,0,0,0,0,0,0,0,0,0,-1,1966,519,0,0
749,505,0,0,0,0,0,0,0,0,0,-1,1973,519,0,0
756,505,0,0,0,0,0,0,0,0,0,-1,1980,519,0,0
763,505,0,0,0,0,0,0,0,0,0,-1,1987,519,0,0
770,505,0,0,0,0,0,0,0,0,0,-1,1994,519,0,0
777,505,0,0,0,0,0,0,0,0,0,-1,2001,519,0,0
784,505,0,0,0,0,0,0,0,0,0,-1,2008,519,0,0
791,505,0,0,0,0,0,0,0,0,0,-1,2015,519,0,0
798,505,0,0,0,0,0,0,0,0,0,-1,2022,519,0,0
805,505,0,0,0,0,0,0,0,0,0,-1,2029,519,0,0
812,505,0,0,0,0,0,0,0,0,0,-1,2036,519,0,0
-700,498,0,0,0,0,0,0,0,0,0,-1,524,526,0,0
-693,498,0,0,0,0,0,0,0,0,0,-1,531,526,0,0
-686,498,0,0,0,0,0,0,0,0,0,-1,538,526,0,0
-679,498,0,0,0,0,0,0,0,0,0,-1,545,526,0,0
-672,498,0,0,0,0,0,0,0,0,0,-1,552,526,0,0
-665,498,0,0,0,0,0,0,0,0,0,-1,559,526,0,0
-658,498,0,0,0,0,0,0,0,0,0,-1,566,526,0,0
-651,498,0,0,0,0,0,0,0,0,0,-1,573,526,0,0
-644,498,0,0,0,0,0,0,0,0,0,-1,580,526,0,0
-637,498,0,0,0,0,0,0,0,0,0,-1,587,526,0,0
-630,498,0,0,0,0,0,0,0,0,0,-1,594,526,0,0
-623,498,0,0,0,0,0,0,0,0,0,-1,601,526,0,0
-616,498,0,0,0,0,0,0,0,0,0,-1,608,526,0,0
-609,498,0,0,0,0,0,0,0,0,0,-1,615,526,0,0
-602,498,0,0,0,0,0,0,0,0,0,-1,622,526,0,0
-595,498,0,0,0,0,0,0,0,0,0,-1,629,526,0,0
-588,498,0,0,0,0,0,0,0,0,0,-1,636,526,0,0
-581,498,0,0,0,0,0,0,0,0,0,-1,643,526,0,0
-574,498,0,0,0,0,0,0,0,0,0,-1,650,526,0,0
-567,498,0,0,0,0,0,0,0,0,0,-1,657,526,0,0
-560,498,0,0,0,0,0,0,0,0,0,-1,664,526,0,0
-553,498,0,0,0,0,0,0,0,0,0,-1,671,526,0,0
-546,498,0,0,0,0,0,0,0,0,0,-1,678,526,0,0
-539,498,0,0,0,0,0,0,0,0,0,-1,685,526,0,0
-532,498,0,0,0,0,0,0,0,0,0,-1,692,526,0,0
-525,498,0,0,0,0,0,0,0,0,0,-1,699,526,0,0
-518,498,0,0,0,0,0,0,0,0,0,-1,706,526,0,0
-511,498,0,0,0,0,0,0,0,0,0,-1,713,526,0,0
-504,498,0,0,0,0,0,0,0,0,0,-1,720,526,0,0
-497,498,0,0,0,0,0,0,0,0,0,-1,727,526,0,0
-490,498,0,0,0,0,0,0,0,0,0,-1,734,526,0,0
-483,498,0,0,0,0,0,0,0,0,0,-1,741,526,0,0
-476,498,0,0,0,0,0,0,0,0,0,-1,748,526,0,0
-469,498,0,0,0,0,0,0,0,0,0,-1,755,526,0,0
-462,498,-5.82678,0.829102,0,0,0,0,0,0,0,-1,762,526,-5.82681,-0.82909
-455,498,-4.76868,0.55603,0.071466,-0.0566137,0.0189923,0.0742229,-0.0593706,0.144153,0.077289,0.0453113,769,526,-4.76867,-0.556029
-448,498,-3.67249,0.271301,0.0620974,-0.0524944,0.0179126,0.0648322,-0.0552292,0.151503,0.0693913,0.0440721,776,526,-3.67249,-0.271274
-441,498,-2.71149,0.00494385,0.0516601,-0.0480272,0.0161536,0.0542124,-0.0505794,0.156703,0.0605137,0.0457484,783,526,-2.71152,-0.00492382
-434,498,0.364258,-0.437866,0,0,0,0,0,0,0,-1,790,526,0.364273,0.43788
-427,498,0.665527,-0.570007,0.0315815,-0.0381739,0.011442,0.0334103,-0.0400027,0.158499,0.042442,0.0477596,797,526,0.665547,0.569983
-420,498,1.30981,-0.981873,0.0234464,-0.0329349,0.0090974,0.0248779,-0.0343665,0.15608,0.0343507,0.0440168,804,526,1.30984,0.981856
-413,498,1.31122,-0.930786,0.0171032,-0.0283244,0.0072345,0.0182275,-0.0294486,0.154174,0.0277788,0.0426583,811,526,1.31125,0.93079
-406,498,1.11115,-1.00806,0.0118071,-0.0232542,0.00532849,0.012599,-0.0240461,0.14754,0.0214984,0.0399074,818,526,1.11116,1.00804
-399,498,1.08063,-1.08051,0.00695555,-0.0183261,0.00324422,0.00736522,-0.0187358,0.125612,0.0155387,0.0231393,825,526,1.08063,1.08053
-392,498,1.08209,-1.12585,0.0035418,-0.0137016,0.00147344,0.0036668,-0.0138266,0.0846319,0.0106525,0.01124,832,526,1.0821,1.12586
-385,498,1.0636,-1.19714,0.00112035,-0.00964615,0.00013968,0.00112216,-0.00964796,0.0129707,0.00683679,0.0083464,839,526,1.0636,1.19712
-378,498,1.0553,-1.26306,0.000704297,-0.00654169,-0.000312821,0.000717777,-0.00655517,-0.0430649,0.00462796,0.00937739,846,526,1.05529,1.26306
-371,498,1.08093,-1.34393,0.000349649,-0.00439791,-0.000520642,0.000406075,-0.00445434,-0.107956,0.00311376,0.0141142,853,526,1.08092,1.34395
-364,498,1.0741,-1.43457,0.000576967,-0.00260737,-0.000355631,0.000616201,-0.0026466,-0.109878,0.00200167,0.0157783,860,526,1.07411,1.43459
-357,498,1.07581,-1.50909,0.000763766,-0.00134379,-7.39239e-05,0.000766356,-0.00134638,-0.0350183,0.00123501,0.0115521,867,526,1.07581,1.50911
-350,498,1.0708,-1.56384,0.000891937,-0.000931679,0.000404478,0.000977624,-0.00101737,0.208759,0.00115188,0.0099777,874,526,1.07081,1.56381
-343,498,1.05835,-1.63892,0.00117882,-0.00130237,0.000811039,0.0014204,-0.00154396,0.289504,0.00171197,0.0104996,881,526,1.05834,1.63893
-336,498,1.0498,-1.70563,0.00131935,-0.00190902,0.00108181,0.00164833,-0.00223801,0.295219,0.00225237,0.0136622,888,526,1.04982,1.70561
-329,498,1.05487,-1.73688,0.000975855,-0.00151244,0.00109983,0.00139229,-0.00192887,0.361952,0.0019258,0.0172255,895,526,1.05487,1.7369
-322,498,1.05194,-1.8045,0.000481551,-0.000610868,0.00100908,0.00108277,-0.00121208,0.537331,0.00132563,0.0166595,902,526,1.05196,1.80451
-315,498,1.05707,-1.87817,-0.000466095,0.00136614,0.000475267,0.00148209,-0.000582038,1.33152,0.00122891,0.0148237,909,526,1.05708,1.8782
-308,498,1.06934,-1.9411,-0.00142265,0.00428381,-0.000411291,0.0043133,-0.00145215,-1.49921,0.00346261,0.0120835,916,526,1.06932,1.94112
-301,498,1.10767,-2.01471,-0.00227102,0.00986203,-0.00166761,0.0100871,-0.00249605,-1.43667,0.00769291,0.0155799,923,526,1.10766,2.01469
-294,498,1.13647,-1.94141,-0.00310426,0.0196105,-0.00301533,0.0200039,-0.00349772,-1.44104,0.0146418,0.0282611,930,526,1.13649,1.94142
-287,498,1.13013,-1.92773,-0.004446,0.0288185,-0.0046821,0.029465,-0.00509246,-1.43359,0.0215424,0.0392739,937,526,1.13013,1.92771
-280,498,1.10303,-1.97491,-0.00625918,0.039517,-0.00621987,0.0403471,-0.00708926,-1.43812,0.029546,0.0485977,944,526,1.10302,1.97492
-273,498,1.07117,-2.09814,0,0,0,0,0,0,0,-1,951,526,1.07119,2.09814
-266,498,1.32367,-2.74622,0,0,0,0,0,0,0,-1,958,526,1.32368,2.74624
-259,498,1.39386,-3.15735,0,0,0,0,0,0,0,-1,965,526,1.39389,3.15735
-252,498,3.08246,-1.65802,-0.0107878,0.0950777,-0.0122913,0.096486,-0.0121962,-1.45672,0.0687509,0.0434438,972,526,3.08243,1.65804
-245,498,3.35657,-2.06219,-0.0113248,0.108772,-0.012867,0.110135,-0.0126879,-1.46525,0.0779977,0.0495288,979,526,3.35659,2.06221
-238,498,3.74133,-2.39655,0,0,0,0,0,0,0,-1,986,526,3.74136,2.39655
-231,498,3.92297,-7.99072,0,0,0,0,0,0,0,-1,993,526,3.92299,7.99071
-224,498,3.18927,-9.10999,0,0,0,0,0,0,0,-1,1000,526,3.18928,9.11001
-217,498,-3.87292,-3.04803,0,0,0,0,0,0,0,-1,1007,526,-3.8729,3.04801
-210,498,-4.79077,-2.38507,0,0,0,0,0,0,0,-1,1014,526,-4.79075,2.38508
-203,498,2.01465,-0.869141,0,0,0,0,0,0,0,-1,1021,526,2.01464,0.869151
-196,498,0.94873,-0.722595,0,0,0,0,0,0,0,-1,1028,526,0.948746,0.722567
-189,498,-0.166626,-0.85144,0,0,0,0,0,0,0,-1,1035,526,-0.166632,0.851454
-182,498,0,0,0,0,0,0,0,0,0,-1,1042,526,0,0
-175,498,0,0,0,0,0,0,0,0,0,-1,1049,526,0,0
-168,498,0,0,0,0,0,0,0,0,0,-1,1056,526,0,0
-161,498,0,0,0,0,0,0,0,0,0,-1,1063,526,0,0
-154,498,0,0,0,0,0,0,0,0,0,-1,1070,526,0,0
-147,498,0,0,0,0,0,0,0,0,0,-1,1077,526,0,0
-140,498,0,0,0,0,0,0,0,0,0,-1,1084,526,0,0
-133,498,0,0,0,0,0,0,0,0,0,-1,1091,526,0,0
-126,498,0,0,0,0,0,0,0,0,0,-1,1098,526,0,0
-119,498,0,0,0,0,0,0,0,0,0,-1,1105,526,0,0
-112,498,0,0,0,0,0,0,0,0,0,-1,1112,526,0,0
-105,498,0,0,0,0,0,0,0,0,0,-1,1119,526,0,0
-98,498,0,0,0,0,0,0,0,0,0,-1,1126,526,0,0
-91,498,0,0,0,0,0,0,0,0,0,-1,1133,526,0,0
-84,498,0,0,0,0,0,0,0,0,0,-1,1140,526,0,0
-77,498,0,0,0,0,0,0,0,0,0,-1,1147,526,0,0
-70,498,0,0,0,0,0,0,0,0,0,-1,1154,526,0,0
-63,498,0,0,0,0,0,0,0,0,0,-1,1161,526,0,0
-56,498,0,0,0,0,0,0,0,0,0,-1,1168,526,0,0
-49,498,0,0,0,0,0,0,0,0,0,-1,1175,526,0,0
-42,498,0,0,0,0,0,0,0,0,0,-1,1182,526,0,0
-35,498,0,0,0,0,0,0,0,0,0,-1,1189,526,0,0
-28,498,0,0,0,0,0,0,0,0,0,-1,1196,526,0,0
-21,498,0,0,0,0,0,0,0,0,0,-1,1203,526,0,0
-14,498,0,0,0,0,0,0,0,0,0,-1,1210,526,0,0
-7,498,0,0,0,0,0,0,0,0,0,-1,1217,526,0,0
0,498,0,0,0,0,0,0,0,0,0,-1,1224,526,0,0
7,498,0,0,0,0,0,0,0,0,0,-1,1231,526,0,0
14,498,0,0,0,0,0,0,0,0,0,-1,1238,526,0,0
21,498,0,0,0,0,0,0,0,0,0,-1,1245,526,0,0
28,498,0,0,0,0,0,0,0,0,0,-1,1252,526,0,0
35,498,0,0,0,0,0,0,0,0,0,-1,1259,526,0,0
42,498,0,0,0,0,0,0,0,0,0,-1,1266,526,0,0
49,498,0,0,0,0,0,0,0,0,0,-1,1273,526,0,0
56,498,0,0,0,0,0,0,0,0,0,-1,1280,526,0,0
63,498,0,0,0,0,0,0,0,0,0,-1,1287,526,0,0
70,498,0,0,0,0,0,0,0,0,0,-1,1294,526,0,0
77,498,0,0,0,0,0,0,0,0,0,-1,1301,526,0,0
84,498,0,0,0,0,0,0,0,0,0,-1,1308,526,0,0
91,498,0,0,0,0,0,0,0,0,0,-1,1315,526,0,0
98,498,0,0,0,0,0,0,0,0,0,-1,1322,526,0,0
105,498,0,0,0,0,0,0,0,0,0,-1,1329,526,0,0
112,498,0,0,0,0,0,0,0,0,0,-1,1336,526,0,0
119,498,0,0,0,0,0,0,0,0,0,-1,1343,526,0,0
126,498,0,0,0,0,0,0,0,0,0,-1,1350,526,0,0
133,498,0,0,0,0,0,0,0,0,0,-1,1357,526,0,0
140,498,0,0,0,0,0,0,0,0,0,-1,1364,526,0,0
147,498,0,0,0,0,0,0,0,0,0,-1,1371,526,0,0
154,498,0,0,0,0,0,0,0,0,0,-1,1378,526,0,0
161,498,0,0,0,0,0,0,0,0,0,-1,1385,526,0,0
168,498,0,0,0,0,0,0,0,0,0,-1,1392,526,0,0
175,498,0,0,0,0,0,0,0,0,0,-1,1399,526,0,0
182,498,0,0,0,0,0,0,0,0,0,-1,1406,526,0,0
189,498,0,0,0,0,0,0,0,0,0,-1,1413,526,0,0
196,498,0,0,0,0,0,0,0,0,0,-1,1420,526,0,0
203,498,0,0,0,0,0,0,0,0,0,-1,1427,526,0,0
210,498,0,0,0,0,0,0,0,0,0,-1,1434,526,0,0
217,498,0,0,0,0,0,0,0,0,0,-1,1441,526,0,0
224,498,0,0,0,0,0,0,0,0,0,-1,1448,526,0,0
231,498,0,0,0,0,0,0,0,0,0,-1,1455,526,0,0
238,498,0,0,0,0,0,0,0,0,0,-1,1462,526,0,0
245,498,0,0,0,0,0,0,0,0,0,-1,1469,526,0,0
252,498,0,0,0,0,0,0,0,0,0,-1,1476,526,0,0
259,498,0,0,0,0,0,0,0,0,0,-1,1483,526,0,0
266,498,0,0,0,0,0,0,0,0,0,-1,1490,526,0,0
273,498,0,0,0,0,0,0,0,0,0,-1,1497,526,0,0
280,498,0,0,0,0,0,0,0,0,0,-1,1504,526,0,0
287,498,0,0,0,0,0,0,0,0,0,-1,1511,526,0,0
294,498,0,0,0,0,0,0,0,0,0,-1,1518,526,0,0
301,498,0,0,0,0,0,0,0,0,0,-1,1525,526,0,0
308,498,4.77942,-0.293884,0,0,0,0,0,0,0,-1,1532,526,4.77939,0.293899
315,498,4.56091,-0.564148,0,0,0,0,0,0,0,-1,1539,526,4.56097,0.564142
322,498,4.52344,-0.447266,0,0,0,0,0,0,0,-1,1546,526,4.52341,0.447295
329,498,4.63232,-0.156982,0,0,0,0,0,0,0,-1,1553,526,4.63238,0.156991
336,498,5.22644,0.0925903,0,0,0,0,0,0,0,-1,1560,526,5.22648,-0.0926188
343,498,6.22607,-1.67615,0,0,0,0,0,0,0,-1,1567,526,6.22605,1.67617
350,498,6.19373,-1.59906,0,0,0,0,0,0,0,-1,1574,526,6.19367,1.59906
357,498,6.21472,-1.58929,0,0,0,0,0,0,0,-1,1581,526,6.21476,1.58927
364,498,5.73547,-1.2019,0,0,0,0,0,0,0,-1,1588,526,5.73547,1.20192
371,498,4.39612,0.622192,0,0,0,0,0,0,0,-1,1595,526,4.39608,-0.622174
378,498,3.3877,0.361084,0.0074104,-0.0311477,-0.00429869,0.00788383,-0.0316211,-0.109692,0.0241417,0.0484637,1602,526,3.38768,-0.361094
385,498,2.54419,-0.793823,0.00879977,-0.0310176,-0.00334014,0.00907802,-0.0312958,-0.0831126,0.0244581,0.0472375,1609,526,2.54423,0.793816
392,498,2.41467,-0.647034,0.00942352,-0.0287762,-0.002775,0.00962406,-0.0289767,-0.0721397,0.023201,0.0463975,1616,526,2.41471,0.647025
399,498,2.34509,-0.964661,0.00938523,-0.0249463,-0.00229621,0.00953813,-0.0250992,-0.0664889,0.0206596,0.043902,1623,526,2.34511,0.96465
406,498,2.75549,-1.32245,0.00866806,-0.020161,-0.00172698,0.00877114,-0.0202641,-0.05962,0.0171957,0.046083,1630,526,2.75546,1.32243
413,498,3.08618,-2.01141,0,0,0,0,0,0,0,-1,1637,526,3.08616,2.01144
420,498,3.15662,-1.90985,0.0062719,-0.0105711,-0.000994405,0.0063304,-0.0106296,-0.0587677,0.00989615,0.0439525,1644,526,3.15656,1.90988
427,498,3.11487,-1.87378,0.00459741,-0.00702856,-0.000659242,0.00463467,-0.00706582,-0.056463,0.00680372,0.0280215,1651,526,3.11491,1.87376
434,498,3.12036,-1.7735,0.00423732,-0.00257771,-5.06202e-05,0.00423769,-0.00257809,-0.00742718,0.00397379,0.0146454,1658,526,3.1203,1.77349
441,498,3.09961,-1.69098,0.00312433,0.000934589,5.38043e-05,0.00312565,0.000933268,0.0245514,0.00185276,0.00898992,1665,526,3.09957,1.691
448,498,3.11169,-1.62152,0.00167925,0.00312495,3.68159e-05,0.00312588,0.00167832,1.54535,0.00180637,0.00951119,1672,526,3.11175,1.62155
455,498,3.09412,-1.54614,0.000585161,0.00443617,0.000214623,0.00444809,0.000573237,1.51529,0.00279399,0.0134254,1679,526,3.09408,1.54616
462,498,3.09326,-1.49316,0.000682658,0.00411484,0.000559633,0.00420379,0.000593712,1.41318,0.00262708,0.014781,1686,526,3.09321,1.49318
469,498,3.10071,-1.42456,0.00112155,0.00299808,0.000850637,0.00332627,0.000793351,1.20257,0.00200606,0.0124877,1693,526,3.10076,1.42456
476,498,3.11829,-1.35272,0.00170113,0.00225216,0.00115277,0.00316189,0.000791411,0.902699,0.00189988,0.00963675,1700,526,3.11832,1.35275
483,498,3.12708,-1.28851,0.00242114,0.00136367,0.00153132,0.00351244,0.000272373,0.619166,0.00225632,0.00882547,1707,526,3.12703,1.28852
490,498,3.11694,-1.22437,0.0031189,0.000850694,0.00192307,0.00421737,-0.000247777,0.518979,0.00289771,0.0108059,1714,526,3.1169,1.22439
497,498,3.1261,-1.15247,0.00383119,0.000399703,0.00247671,0.0051284,-0.000897507,0.482476,0.00375404,0.0111248,1721,526,3.12607,1.15244
504,498,3.12708,-1.0835,0.00468229,5.82705e-05,0.00347987,0.00654818,-0.00180763,0.492184,0.00507643,0.0129975,1728,526,3.12712,1.08352
511,498,3.1416,-1.02045,0.00575362,0.000529133,0.00450468,0.00834867,-0.00206592,0.522645,0.00636714,0.0144745,1735,526,3.14156,1.02046
518,498,3.1582,-0.944336,0.00711822,0.00140284,0.00597577,0.0108844,-0.00236339,0.562365,0.008159,0.014874,1742,526,3.15817,0.944329
525,498,3.14954,-0.882019,0.00873292,0.00274451,0.0077596,0.014056,-0.00257854,0.601264,0.0103379,0.0183519,1749,526,3.14954,0.882007
532,498,3.18909,-0.897217,0.0105846,0.00446561,0.0100071,0.0179895,-0.00293926,0.637044,0.0130833,0.0277002,1756,526,3.18904,0.897205
539,498,3.21997,-0.882568,0.012918,0.00727804,0.0128768,0.02328,-0.00308401,0.677603,0.0166435,0.0377112,1763,526,3.21999,0.882551
546,498,3.50952,-0.610107,0.0157273,0.0108432,0.0163659,0.0298324,-0.00326188,0.711336,0.0210599,0.0440874,1770,526,3.50952,0.610114
553,498,3.91345,-0.555908,0.0198861,0.0168246,0.0210994,0.0395102,-0.0027995,0.749187,0.0273211,0.0471048,1777,526,3.91347,0.555883
560,498,4.07715,-0.654175,0,0,0,0,0,0,0,-1,1784,526,4.07719,0.654201
567,498,4.34888,-0.569092,0,0,0,0,0,0,0,-1,1791,526,4.34886,0.569093
574,498,3.88,0.0286255,0,0,0,0,0,0,0,-1,1798,526,3.87999,-0.0286535
581,498,4.03894,0.0759888,0,0,0,0,0,0,0,-1,1805,526,4.03899,-0.0760118
588,498,0,0,0,0,0,0,0,0,0,-1,1812,526,0,0
595,498,0,0,0,0,0,0,0,0,0,-1,1819,526,0,0
602,498,0,0,0,0,0,0,0,0,0,-1,1826,526,0,0
609,498,0,0,0,0,0,0,0,0,0,-1,1833,526,0,0
616,498,0,0,0,0,0,0,0,0,0,-1,1840,526,0,0
623,498,0,0,0,0,0,0,0,0,0,-1,1847,526,0,0
630,498,0,0,0,0,0,0,0,0,0,-1,1854,526,0,0
637,498,0,0,0,0,0,0,0,0,0,-1,1861,526,0,0
644,498,0,0,0,0,0,0,0,0,0,-1,1868,526,0,0
651,498,0,0,0,0,0,0,0,0,0,-1,1875,526,0,0
658,498,0,0,0,0,0,0,0,0,0,-1,1882,526,0,0
665,498,0,0,0,0,0,0,0,0,0,-1,1889,526,0,0
672,498,0,0,0,0,0,0,0,0,0,-1,1896,526,0,0
679,498,0,0,0,0,0,0,0,0,0,-1,1903,526,0,0
686,498,0,0,0,0,0,0,0,0,0,-1,1910,526,0,0
693,498,0,0,0,0,0,0,0,0,0,-1,1917,526,0,0
700,498,0,0,0,0,0,0,0,0,0,-1,1924,526,0,0
707,498,0,0,0,0,0,0,0,0,0,-1,1931,526,0,0
714,498,0,0,0,0,0,0,0,0,0,-1,1938,526,0,0
721,498,0,0,0,0,0,0,0,0,0,-1,1945,526,0,0
728,498,0,0,0,0,0,0,0,0,0,-1,1952,526,0,0
735,498,0,0,0,0,0,0,0,0,0,-1,1959,526,0,0
742,498,0,0,0,0,0,0,0,0,0,-1,1966,526,0,0
749,498,0,0,0,0,0,0,0,0,0,-1,1973,526,0,0
756,498,0,0,0,0,0,0,0,0,0,-1,1980,526,0,0
763,498,0,0,0,0,0,0,0,0,0,-1,1987,526,0,0
770,498,0,0,0,0,0,0,0,0,0,-1,1994,526,0,0
777,498,0,0,0,0,0,0,0,0,0,-1,2001,526,0,0
784,498,0,0,0,0,0,0,0,0,0,-1,2008,526,0,0
791,498,0,0,0,0,0,0,0,0,0,-1,2015,526,0,0
798,498,0,0,0,0,0,0,0,0,0,-1,2022,526,0,0
805,498,0,0,0,0,0,0,0,0,0,-1,2029,526,0,0
812,498,0,0,0,0,0,0,0,0,0,-1,2036,526,0,0
-700,491,0,0,0,0,0,0,0,0,0,-1,524,533,0,0
-693,491,0,0,0,0,0,0,0,0,0,-1,531,533,0,0
-686,491,0,0,0,0,0,0,0,0,0,-1,538,533,0,0
-679,491,0,0,0,0,0,0,0,0,0,-1,545,533,0,0
-672,491,0,0,0,0,0,0,0,0,0,-1,552,533,0,0
-665,491,0,0,0,0,0,0,0,0,0,-1,559,533,0,0
-658,491,0,0,0,0,0,0,0,0,0,-1,566,533,0,0
-651,491,0,0,0,0,0,0,0,0,0,-1,573,533,0,0
-644,491,0,0,0,0,0,0,0,0,0,-1,580,533,0,0
-637,491,0,0,0,0,0,0,0,0,0,-1,587,533,0,0
-630,491,0,0,0,0,0,0,0,0,0,-1,594,533,0,0
-623,491,0,0,0,0,0,0,0,0,0,-1,601,533,0,0
-616,491,0,0,0,0,0,0,0,0,0,-1,608,533,0,0
-609,491,0,0,0,0,0,0,0,0,0,-1,615,533,0,0
-602,491,0,0,0,0,0,0,0,0,0,-1,622,533,0,0
-595,491,0,0,0,0,0,0,0,0,0,-1,629,533,0,0
-588,491,0,0,0,0,0,0,0,0,0,-1,636,533,0,0
-581,491,0,0,0,0,0,0,0,0,0,-1,643,533,0,0
-574,491,0,0,0,0,0,0,0,0,0,-1,650,533,0,0
-567,491,0,0,0,0,0,0,0,0,0,-1,657,533,0,0
-560,491,0,0,0,0,0,0,0,0,0,-1,664,533,0,0
-553,491,0,0,0,0,0,0,0,0,0,-1,671,533,0,0
-546,491,0,0,0,0,0,0,0,0,0,-1,678,533,0,0
-539,491,0,0,0,0,0,0,0,0,0,-1,685,533,0,0
-532,491,0,0,0,0,0,0,0,0,0,-1,692,533,0,0
-525,491,0,0,0,0,0,0,0,0,0,-1,699,533,0,0
-518,491,0,0,0,0,0,0,0,0,0,-1,706,533,0,0
-511,491,0,0,0,0,0,0,0,0,0,-1,713,533,0,0
-504,491,0,0,0,0,0,0,0,0,0,-1,720,533,0,0
-497,491,0,0,0,0,0,0,0,0,0,-1,727,533,0,0
-490,491,0,0,0,0,0,0,0,0,0,-1,734,533,0,0
-483,491,0,0,0,0,0,0,0,0,0,-1,741,533,0,0
-476,491,0,0,0,0,0,0,0,0,0,-1,748,533,0,0
-469,491,-0.12384,0.698486,0.0664167,-0.0434821,0.00233775,0.0664665,-0.0435318,0.021259,0.063966,0.0430963,755,533,-0.123852,-0.698461
-462,491,-0.282349,0.457825,0.0650136,-0.0428073,0.00680936,0.0654419,-0.0432356,0.0628217,0.0631801,0.0420808,762,533,-0.282347,-0.457855
-455,491,-5.71924,1.70062,0,0,0,0,0,0,0,-1,769,533,-5.71923,-1.70064
-448,491,-4.62775,1.27875,0,0,0,0,0,0,0,-1,776,533,-4.62775,-1.27874
-441,491,-0.508972,0.124817,0,0,0,0,0,0,0,-1,783,533,-0.509001,-0.124847
-434,491,-0.136963,-0.229736,0,0,0,0,0,0,0,-1,790,533,-0.136979,0.229758
-427,491,0.490967,-0.709595,0.0275593,-0.0286547,0.00791994,0.0286538,-0.0297492,0.137329,0.033721,0.0453675,797,533,0.490939,0.709571
-420,491,0.841431,-0.820007,0.0207444,-0.024779,0.00672608,0.0217174,-0.025752,0.143662,0.0274394,0.0441989,804,533,0.841442,0.819994
-413,491,0.976929,-0.843933,0.0152952,-0.021485,0.00577906,0.0161818,-0.0223716,0.152239,0.0223543,0.0351337,811,533,0.976929,0.84392
-406,491,1.01147,-0.958618,0.010647,-0.0175824,0.00453659,0.0113582,-0.0182935,0.15549,0.0172748,0.0186755,818,533,1.01145,0.958609
-399,491,1.02209,-1.04779,0.00630411,-0.013886,0.00296696,0.00673108,-0.014313,0.142927,0.0124099,0.0103545,825,533,1.0221,1.04777
-392,491,1.00592,-1.12354,0.00326887,-0.0102913,0.00159531,0.00345403,-0.0104765,0.115545,0.00837648,0.00948996,832,533,1.00592,1.12351
-385,491,0.98761,-1.21375,0.00117494,-0.00713018,0.000551947,0.00121146,-0.0071667,0.0660714,0.00522861,0.00925218,839,533,0.987598,1.21377
-378,491,0.987061,-1.28076,0.000787045,-0.0047714,0.000165244,0.000791953,-0.0047763,0.0296935,0.00347837,0.0125099,846,533,0.987042,1.28079
-371,491,1.00275,-1.33392,0.000434786,-0.00320645,-1.18707e-05,0.000434825,-0.00320649,-0.00326002,0.00229637,0.0130612,853,533,1.00272,1.33395
-364,491,1.00427,-1.41345,0.00058015,-0.00182489,0.000139482,0.000588212,-0.00183295,0.0577376,0.00145814,0.0129189,860,533,1.00429,1.41343
-357,491,0.988708,-1.48474,0.00079458,-0.000944784,0.000440786,0.000899905,-0.00105011,0.23455,0.00112695,0.0117415,867,533,0.988734,1.48477
-350,491,0.991699,-1.56091,0.00100672,-0.00091467,0.000945346,0.00139385,-0.00130179,0.388672,0.00155663,0.0126225,874,533,0.991703,1.5609
-343,491,0.978943,-1.64435,0.00148527,-0.00134602,0.00140736,0.0020658,-0.00192655,0.391233,0.00230545,0.021016,881,533,0.978971,1.64433
-336,491,0.978394,-1.70074,0.00187904,-0.00193065,0.00164308,0.00248977,-0.00254138,0.355876,0.00290479,0.0219,888,533,0.978412,1.70077
-329,491,0.982849,-1.74561,0.00159714,-0.00119502,0.00154573,0.00228392,-0.00188181,0.418112,0.00240882,0.0224383,895,533,0.982855,1.74558
-322,491,0.99762,-1.81097,0.00107904,0.000231589,0.0013215,0.00204308,-0.000732457,0.630257,0.00166094,0.0196077,902,533,0.997612,1.811
-315,491,0.998352,-1.85181,-4.90166e-05,0.00301482,0.000577137,0.00311993,-0.000154127,1.39065,0.00213318,0.0131432,909,533,0.998374,1.85179
-308,491,1.07697,-1.87683,-0.00120519,0.00684304,-0.000578096,0.00688435,-0.0012465,-1.49946,0.00505654,0.0226396,916,533,1.07697,1.87685
-301,491,1.05237,-1.79718,-0.00236095,0.0136996,-0.00217614,0.0139892,-0.00265058,-1.43848,0.0103237,0.0361847,923,533,1.05238,1.79721
-294,491,1.15302,-1.66284,-0.00359899,0.0254932,-0.00392724,0.026014,-0.00411982,-1.43895,0.0188665,0.0380136,930,533,1.15301,1.66286
-287,491,1.31183,-1.80017,-0.00544499,0.0369472,-0.00602368,0.0377865,-0.0062843,-1.43235,0.027526,0.0445586,937,533,1.31185,1.80019
-280,491,1.31744,-2.18787,-0.00785921,0.0501997,-0.00795874,0.0512709,-0.00893043,-1.437,0.0375135,0.0492239,944,533,1.31747,2.18786
-273,491,1.25507,-2.8139,0,0,0,0,0,0,0,-1,951,533,1.2551,2.81391
-266,491,1.44562,-3.09497,0,0,0,0,0,0,0,-1,958,533,1.44564,3.09495
-259,491,2.73346,-1.9715,-0.0132129,0.103286,-0.0138461,0.104909,-0.014836,-1.45411,0.0753728,0.0438328,965,533,2.73346,1.97149
-252,491,2.60736,-2.49927,-0.0146858,0.120927,-0.0149345,0.122552,-0.016311,-1.4624,0.0876456,0.0437267,972,533,2.60737,2.49925
-245,491,2.79114,-2.505,-0.0154712,0.138604,-0.0153098,0.14011,-0.0169777,-1.47271,0.0995497,0.0448311,979,533,2.79115,2.505
-238,491,2.60114,-6.862,0,0,0,0,0,0,0,-1,986,533,2.60117,6.86201
-231,491,2.59839,-8.34265,-0.0394185,0.148787,-0.0142868,0.149866,-0.0404968,-1.49546,0.115795,0.0468475,993,533,2.59842,8.34264
-224,491,1.99664,-9.42151,0,0,0,0,0,0,0,-1,1000,533,1.99661,9.4215
-217,491,1.15521,-10.5829,0,0,0,0,0,0,0,-1,1007,533,1.15523,10.5829
-210,491,-3.53186,-2.72791,0,0,0,0,0,0,0,-1,1014,533,-3.53186,2.72793
-203,491,-4.41589,-2.10065,0,0,0,0,0,0,0,-1,1021,533,-4.41592,2.10064
-196,491,0,0,0,0,0,0,0,0,0,-1,1028,533,0,0
-189,491,0,0,0,0,0,0,0,0,0,-1,1035,533,0,0
-182,491,0,0,0,0,0,0,0,0,0,-1,1042,533,0,0
-175,491,0,0,0,0,0,0,0,0,0,-1,1049,533,0,0
-168,491,0,0,0,0,0,0,0,0,0,-1,1056,533,0,0
-161,491,0,0,0,0,0,0,0,0,0,-1,1063,533,0,0
-154,491,0,0,0,0,0,0,0,0,0,-1,1070,533,0,0
-147,491,0,0,0,0,0,0,0,0,0,-1,1077,533,0,0
-140,491,0,0,0,0,0,0,0,0,0,-1,1084,533,0,0
-133,491,0,0,0,0,0,0,0,0,0,-1,1091,533,0,0
-126,491,0,0,0,0,0,0,0,0,0,-1,1098,533,0,0
-119,491,0,0,0,0,0,0,0,0,0,-1,1105,533,0,0
-112,491,0,0,0,0,0,0,0,0,0,-1,1112,533,0,0
-105,491,0,0,0,0,0,0,0,0,0,-1,1119,533,0,0
-98,491,0,0,0,0,0,0,0,0,0,-1,1126,533,0,0
-91,491,0,0,0,0,0,0,0,0,0,-1,1133,533,0,0
-84,491,0,0,0,0,0,0,0,0,0,-1,1140,533,0,0
-77,491,0,0,0,0,0,0,0,0,0,-1,1147,533,0,0
-70,491,0,0,0,0,0,0,0,0,0,-1,1154,533,0,0
-63,491,0,0,0,0,0,0,0,0,0,-1,1161,533,0,0
-56,491,0,0,0,0,0,0,0,0,0,-1,1168,533,0,0
-49,491,0,0,0,0,0,0,0,0,0,-1,1175,533,0,0
-42,491,0,0,0,0,0,0,0,0,0,-1,1182,533,0,0
-35,491,0,0,0,0,0,0,0,0,0,-1,1189,533,0,0
-28,491,0,0,0,0,0,0,0,0,0,-1,1196,533,0,0
-21,491,0,0,0,0,0,0,0,0,0,-1,1203,533,0,0
-14,491,0,0,0,0,0,0,0,0,0,-1,1210,533,0,0
-7,491,0,0,0,0,0,0,0,0,0,-1,1217,533,0,0
0,491,0,0,0,0,0,0,0,0,0,-1,1224,533,0,0
7,491,0,0,0,0,0,0,0,0,0,-1,1231,533,0,0
14,491,0,0,0,0,0,0,0,0,0,-1,1238,533,0,0
21,491,0,0,0,0,0,0,0,0,0,-1,1245,533,0,0
28,491,0,0,0,0,0,0,0,0,0,-1,1252,533,0,0
35,491,0,0,0,0,0,0,0,0,0,-1,1259,533,0,0
42,491,0,0,0,0,0,0,0,0,0,-1,1266,533,0,0
49,491,0,0,0,0,0,0,0,0,0,-1,1273,533,0,0
56,491,0,0,0,0,0,0,0,0,0,-1,1280,533,0,0
63,491,0,0,0,0,0,0,0,0,0,-1,1287,533,0,0
70,491,0,0,0,0,0,0,0,0,0,-1,1294,533,0,0
77,491,0,0,0,0,0,0,0,0,0,-1,1301,533,0,0
84,491,0,0,0,0,0,0,0,0,0,-1,1308,533,0,0
91,491,0,0,0,0,0,0,0,0,0,-1,1315,533,0,0
98,491,0,0,0,0,0,0,0,0,0,-1,1322,533,0,0
105,491,0,0,0,0,0,0,0,0,0,-1,1329,533,0,0
112,491,0,0,0,0,0,0,0,0,0,-1,1336,533,0,0
119,491,0,0,0,0,0,0,0,0,0,-1,1343,533,0,0
126,491,0,0,0,0,0,0,0,0,0,-1,1350,533,0,0
133,491,0,0,0,0,0,0,0,0,0,-1,1357,533,0,0
140,491,0,0,0,0,0,0,0,0,0,-1,1364,533,0,0
147,491,0,0,0,0,0,0,0,0,0,-1,1371,533,0,0
154,491,0,0,0,0,0,0,0,0,0,-1,1378,533,0,0
161,491,0,0,0,0,0,0,0,0,0,-1,1385,533,0,0
168,491,0,0,0,0,0,0,0,0,0,-1,1392,533,0,0
175,491,0,0,0,0,0,0,0,0,0,-1,1399,533,0,0
182,491,0,0,0,0,0,0,0,0,0,-1,1406,533,0,0
189,491,0,0,0,0,0,0,0,0,0,-1,1413,533,0,0
196,491,0,0,0,0,0,0,0,0,0,-1,1420,533,0,0
203,491,0,0,0,0,0,0,0,0,0,-1,1427,533,0,0
210,491,0,0,0,0,0,0,0,0,0,-1,1434,533,0,0
217,491,0,0,0,0,0,0,0,0,0,-1,1441,533,0,0
224,491,0,0,0,0,0,0,0,0,0,-1,1448,533,0,0
231,491,0,0,0,0,0,0,0,0,0,-1,1455,533,0,0
238,491,0,0,0,0,0,0,0,0,0,-1,1462,533,0,0
245,491,0,0,0,0,0,0,0,0,0,-1,1469,533,0,0
252,491,0,0,0,0,0,0,0,0,0,-1,1476,533,0,0
259,491,0,0,0,0,0,0,0,0,0,-1,1483,533,0,0
266,491,0,0,0,0,0,0,0,0,0,-1,1490,533,0,0
273,491,0,0,0,0,0,0,0,0,0,-1,1497,533,0,0
280,491,0,0,0,0,0,0,0,0,0,-1,1504,533,0,0
287,491,0,0,0,0,0,0,0,0,0,-1,1511,533,0,0
294,491,0,0,0,0,0,0,0,0,0,-1,1518,533,0,0
301,491,0,0,0,0,0,0,0,0,0,-1,1525,533,0,0
308,491,0,0,0,0,0,0,0,0,0,-1,1532,533,0,0
315,491,0,0,0,0,0,0,0,0,0,-1,1539,533,0,0
322,491,4.26331,-0.734314,0,0,0,0,0,0,0,-1,1546,533,4.26326,0.734324
329,491,4.25354,-0.783752,0,0,0,0,0,0,0,-1,1553,533,4.25359,0.783734
336,491,4.81604,-0.722107,0,0,0,0,0,0,0,-1,1560,533,4.81605,0.722115
343,491,6.14478,-1.44281,0,0,0,0,0,0,0,-1,1567,533,6.14474,1.44281
350,491,6.36353,-1.30792,0,0,0,0,0,0,0,-1,1574,533,6.36352,1.3079
357,491,6.69482,-1.06018,0,0,0,0,0,0,0,-1,1581,533,6.69489,1.06018
364,491,7.10815,-0.729858,0,0,0,0,0,0,0,-1,1588,533,7.10813,0.729843
371,491,3.50537,1.07898,0,0,0,0,0,0,0,-1,1595,533,3.50537,-1.07896
378,491,2.97815,0.893555,0.0148137,-0.0303055,-0.00267009,0.0149711,-0.030463,-0.0589045,0.0267349,0.0475571,1602,533,2.9782,-0.893575
385,491,2.35425,0.399414,0.0166068,-0.0306888,-0.00164205,0.0166637,-0.0307457,-0.0346632,0.0277714,0.0462942,1609,533,2.35423,-0.399418
392,491,2.11609,-0.0429077,0.0172126,-0.0283334,-0.00112379,0.0172403,-0.0283611,-0.0246538,0.0265877,0.0465658,1616,533,2.11604,0.0429089
399,491,1.92529,-0.41394,0.0168326,-0.0241496,-0.000695361,0.0168444,-0.0241614,-0.0169609,0.0238,0.0498455,1623,533,1.92527,0.413949
406,491,1.83167,-0.71814,0,0,0,0,0,0,0,-1,1630,533,1.83171,0.718125
413,491,4.15674,-1.75726,0,0,0,0,0,0,0,-1,1637,533,4.15668,1.75727
420,491,3.34143,-1.85651,0,0,0,0,0,0,0,-1,1644,533,3.34137,1.85648
427,491,3.90869,-2.01056,0.00862641,-0.00444075,0.000783645,0.00867324,-0.00448758,0.0596855,0.00772543,0.0407463,1651,533,3.9087,2.01053
434,491,3.22815,-1.85699,0.00767591,0.000317192,0.00126234,0.00788643,0.000106669,0.165251,0.00522243,0.0296294,1658,533,3.22811,1.85701
441,491,3.18176,-1.75128,0.00590528,0.00406297,0.00121354,0.00650767,0.00346058,0.460761,0.00375973,0.0184763,1665,533,3.18171,1.75128
448,491,3.1886,-1.61475,0.00357568,0.00638676,0.000996343,0.00670408,0.00325836,1.26247,0.00387111,0.0113621,1672,533,3.18856,1.61477
455,491,3.17444,-1.54498,0.00167981,0.00778327,0.00104834,0.00795831,0.00150476,1.40535,0.00488188,0.0113649,1679,533,3.17442,1.54496
462,491,3.17017,-1.51129,0.00151773,0.00701404,0.00124218,0.00728174,0.00125004,1.35854,0.00449612,0.0138285,1686,533,3.17012,1.51128
469,491,3.17297,-1.43201,0.00163689,0.00541064,0.00127926,0.00580341,0.00124412,1.2729,0.00352813,0.0132024,1693,533,3.17291,1.43201
476,491,3.20313,-1.34991,0.00176626,0.0040413,0.00125414,0.00459695,0.00121061,1.15374,0.00275136,0.00972771,1700,533,3.20316,1.34992
483,491,3.20129,-1.27301,0.00206272,0.00266487,0.0013373,0.00373456,0.000993027,0.89612,0.00223354,0.011728,1707,533,3.20124,1.27301
490,491,3.198,-1.22534,0.0022769,0.00173224,0.00139653,0.00342741,0.000581734,0.689104,0.00211783,0.010478,1714,533,3.19803,1.22537
497,491,3.19922,-1.16638,0.00242638,0.000899995,0.00157057,0.00340937,-8.29955e-05,0.559233,0.00230108,0.010664,1721,533,3.1992,1.16641
504,491,3.18945,-1.09021,0.00262576,0.000195009,0.00213972,0.00387118,-0.00105042,0.527117,0.00299301,0.0118987,1728,533,3.18944,1.09023
511,491,3.19788,-1.00659,0.00301664,0.000270632,0.00269019,0.00466394,-0.00137667,0.549442,0.00365564,0.0109429,1735,533,3.19786,1.00661
518,491,3.18848,-0.936035,0.0036401,0.000768558,0.00363511,0.00611271,-0.00170406,0.597315,0.00474625,0.00872175,1742,533,3.18843,0.936028
525,491,3.19885,-0.861633,0.00449598,0.00178832,0.00487201,0.00819876,-0.00191446,0.649878,0.00620326,0.0089472,1749,533,3.19882,0.861639
532,491,3.21082,-0.799988,0.00552377,0.00307673,0.00646734,0.0108823,-0.00228181,0.691911,0.00812302,0.0135037,1756,533,3.21083,0.799987
539,491,3.17859,-0.742554,0.00694361,0.0053597,0.0086281,0.014816,-0.00251271,0.739632,0.0108127,0.0200305,1763,533,3.17858,0.742558
546,491,3.09717,-0.648254,0.00895747,0.00824242,0.0114022,0.0200077,-0.00280785,0.769725,0.0143662,0.0349933,1770,533,3.0972,0.64828
553,491,3.23608,-0.74646,0.01262,0.0134959,0.0152628,0.0283271,-0.00221115,0.799742,0.0196633,0.0469798,1777,533,3.23607,0.746483
560,491,3.1582,-0.813965,0,0,0,0,0,0,0,-1,1784,533,3.15817,0.813939
567,491,4.6781,-0.670044,0,0,0,0,0,0,0,-1,1791,533,4.6781,0.67003
574,491,4.38721,0.111084,0,0,0,0,0,0,0,-1,1798,533,4.38717,-0.11108
581,491,4.06189,2.02264,0,0,0,0,0,0,0,-1,1805,533,4.06195,-2.02264
588,491,2.5033,2.04108,0,0,0,0,0,0,0,-1,1812,533,2.5033,-2.04107
595,491,0,0,0,0,0,0,0,0,0,-1,1819,533,0,0
602,491,0,0,0,0,0,0,0,0,0,-1,1826,533,0,0
609,491,0,0,0,0,0,0,0,0,0,-1,1833,533,0,0
616,491,0,0,0,0,0,0,0,0,0,-1,1840,533,0,0
623,491,0,0,0,0,0,0,0,0,0,-1,1847,533,0,0
630,491,0,0,0,0,0,0,0,0,0,-1,1854,533,0,0
637,491,0,0,0,0,0,0,0,0,0,-1,1861,533,0,0
644,491,0,0,0,0,0,0,0,0,0,-1,1868,533,0,0
651,491,0,0,0,0,0,0,0,0,0,-1,1875,533,0,0
658,491,0,0,0,0,0,0,0,0,0,-1,1882,533,0,0
665,491,0,0,0,0,0,0,0,0,0,-1,1889,533,0,0
672,491,0,0,0,0,0,0,0,0,0,-1,1896,533,0,0
679,491,0,0,0,0,0,0,0,0,0,-1,1903,533,0,0
686,491,0,0,0,0,0,0,0,0,0,-1,1910,533,0,0
693,491,0,0,0,0,0,0,0,0,0,-1,1917,533,0,0
700,491,0,0,0,0,0,0,0,0,0,-1,1924,533,0,0
707,491,0,0,0,0,0,0,0,0,0,-1,1931,533,0,0
714,491,0,0,0,0,0,0,0,0,0,-1,1938,533,0,0
721,491,0,0,0,0,0,0,0,0,0,-1,1945,533,0,0
728,491,0,0,0,0,0,0,0,0,0,-1,1952,533,0,0
735,491,0,0,0,0,0,0,0,0,0,-1,1959,533,0,0
742,491,0,0,0,0,0,0,0,0,0,-1,1966,533,0,0
749,491,0,0,0,0,0,0,0,0,0,-1,1973,533,0,0
756,491,0,0,0,0,0,0,0,0,0,-1,1980,533,0,0
763,491,0,0,0,0,0,0,0,0,0,-1,1987,533,0,0
770,491,0,0,0,0,0,0,0,0,0,-1,1994,533,0,0
777,491,0,0,0,0,0,0,0,0,0,-1,2001,533,0,0
784,491,0,0,0,0,0,0,0,0,0,-1,2008,533,0,0
791,491,0,0,0,0,0,0,0,0,0,-1,2015,533,0,0
798,491,0,0,0,0,0,0,0,0,0,-1,2022,533,0,0
805,491,0,0,0,0,0,0,0,0,0,-1,2029,533,0,0
812,491,0,0,0,0,0,0,0,0,0,-1,2036,533,0,0
-700,484,0,0,0,0,0,0,0,0,0,-1,524,540,0,0
-693,484,0,0,0,0,0,0,0,0,0,-1,531,540,0,0
-686,484,0,0,0,0,0,0,0,0,0,-1,538,540,0,0
-679,484,0,0,0,0,0,0,0,0,0,-1,545,540,0,0
-672,484,0,0,0,0,0,0,0,0,0,-1,552,540,0,0
-665,484,0,0,0,0,0,0,0,0,0,-1,559,540,0,0
-658,484,0,0,0,0,0,0,0,0,0,-1,566,540,0,0
-651,484,0,0,0,0,0,0,0,0,0,-1,573,540,0,0
-644,484,0,0,0,0,0,0,0,0,0,-1,580,540,0,0
-637,484,0,0,0,0,0,0,0,0,0,-1,587,540,0,0
-630,484,0,0,0,0,0,0,0,0,0,-1,594,540,0,0
-623,484,0,0,0,0,0,0,0,0,0,-1,601,540,0,0
-616,484,0,0,0,0,0,0,0,0,0,-1,608,540,0,0
-609,484,0,0,0,0,0,0,0,0,0,-1,615,540,0,0
-602,484,0,0,0,0,0,0,0,0,0,-1,622,540,0,0
-595,484,0,0,0,0,0,0,0,0,0,-1,629,540,0,0
-588,484,0,0,0,0,0,0,0,0,0,-1,636,540,0,0
-581,484,0,0,0,0,0,0,0,0,0,-1,643,540,0,0
-574,484,0,0,0,0,0,0,0,0,0,-1,650,540,0,0
-567,484,0,0,0,0,0,0,0,0,0,-1,657,540,0,0
-560,484,0,0,0,0,0,0,0,0,0,-1,664,540,0,0
-553,484,0,0,0,0,0,0,0,0,0,-1,671,540,0,0
-546,484,0,0,0,0,0,0,0,0,0,-1,678,540,0,0
-539,484,0,0,0,0,0,0,0,0,0,-1,685,540,0,0
-532,484,0,0,0,0,0,0,0,0,0,-1,692,540,0,0
-525,484,0,0,0,0,0,0,0,0,0,-1,699,540,0,0
-518,484,0,0,0,0,0,0,0,0,0,-1,706,540,0,0
-511,484,0,0,0,0,0,0,0,0,0,-1,713,540,0,0
-504,484,0,0,0,0,0,0,0,0,0,-1,720,540,0,0
-497,484,0,0,0,0,0,0,0,0,0,-1,727,540,0,0
-490,484,0,0,0,0,0,0,0,0,0,-1,734,540,0,0
-483,484,0,0,0,0,0,0,0,0,0,-1,741,540,0,0
-476,484,-0.309509,0.489136,0,0,0,0,0,0,0,-1,748,540,-0.309535,-0.489127
-469,484,-0.290283,0.691284,0.0554701,-0.0289947,-0.00802713,0.0562262,-0.0297508,-0.093915,0.0504172,0.0448347,755,540,-0.290277,-0.691265
-462,484,-0.190918,0.555847,0.054185,-0.029078,-0.00243918,0.0542564,-0.0291494,-0.0292614,0.0488762,0.041567,762,540,-0.19093,-0.555862
-455,484,0.485291,0.459167,0,0,0,0,0,0,0,-1,769,540,0.485288,-0.459178
-448,484,0.216797,-0.136536,0.0440265,-0.0271203,0.00341973,0.0441905,-0.0272843,0.0479185,0.041649,0.0429854,776,540,0.216815,0.136533
-441,484,-0.271179,-0.470764,0.0372949,-0.0253655,0.00471354,0.0376475,-0.0257181,0.0746637,0.0367996,0.0423669,783,540,-0.271206,0.470768
-434,484,-0.63739,-0.925354,0,0,0,0,0,0,0,-1,790,540,-0.637407,0.925344
-427,484,0.331543,-0.840027,0,0,0,0,0,0,0,-1,797,540,0.33157,0.84005
-420,484,0.820496,-0.860291,0.0182014,-0.0178611,0.00477643,0.0188233,-0.0184831,0.129475,0.0215391,0.0283284,804,540,0.820519,0.86029
-413,484,0.910217,-0.892273,0.0135414,-0.0156843,0.00455214,0.014234,-0.0163769,0.150994,0.0176876,0.0170848,811,540,0.910208,0.892288
-406,484,0.945679,-0.993835,0.00950812,-0.0128002,0.00383727,0.0101497,-0.0134418,0.165669,0.0136647,0.0112169,818,540,0.945704,0.993856
-399,484,0.938049,-1.08557,0.00571365,-0.010171,0.0027072,0.00616236,-0.0106197,0.164253,0.00980238,0.0153186,825,540,0.938047,1.08559
-392,484,0.904297,-1.14032,0.00307573,-0.00749765,0.00168232,0.00333695,-0.00775887,0.154043,0.00657356,0.0177622,832,540,0.904273,1.14031
-385,484,0.90448,-1.21045,0.0013065,-0.00514808,0.000889461,0.00142683,-0.00526841,0.134465,0.00407207,0.0121988,839,540,0.904475,1.21045
-378,484,0.917114,-1.29425,0.000943156,-0.00345127,0.000555123,0.0010122,-0.00352031,0.123735,0.00274715,0.012843,846,540,0.917131,1.29426
-371,484,0.916931,-1.34174,0.000617725,-0.0023918,0.000420283,0.000675316,-0.00244939,0.136181,0.0018985,0.0150539,853,540,0.916924,1.34172
-364,484,0.926636,-1.38123,0.000691946,-0.00138932,0.000581386,0.000843339,-0.00154071,0.254744,0.00139592,0.0108209,860,540,0.926626,1.38122
-357,484,0.918762,-1.46118,0.000931658,-0.000861578,0.000919994,0.00131968,-0.0012496,0.399133,0.00148356,0.0113836,867,540,0.918754,1.4612
-350,484,0.920593,-1.53223,0.00123178,-0.00115002,0.0014859,0.00194512,-0.00186336,0.44758,0.002199,0.0134716,874,540,0.920618,1.5322
-343,484,0.901978,-1.62402,0.00191059,-0.00159454,0.00198428,0.00280545,-0.0024894,0.423663,0.0030588,0.0201969,881,540,0.901953,1.62399
-336,484,0.944519,-1.6922,0.00259532,-0.00206356,0.00215538,0.00343952,-0.00290775,0.373303,0.00366888,0.0230483,888,540,0.944521,1.69222
-329,484,0.930908,-1.71985,0.00238409,-0.000843141,0.0019142,0.00327406,-0.00173311,0.435199,0.00293617,0.0239415,895,540,0.930882,1.71983
-322,484,0.979736,-1.80432,0.00183782,0.00132333,0.00151061,0.00311293,4.8215e-05,0.701061,0.00205941,0.0211039,902,540,0.979762,1.8043
-315,484,0.912048,-1.83356,0.000520932,0.00513719,0.000528201,0.00519686,0.000461266,1.45831,0.00332151,0.0231439,909,540,0.912076,1.83356
-308,484,0.987305,-1.63721,-0.000820687,0.0100738,-0.000922612,0.0101514,-0.000898267,-1.48691,0.00708604,0.0397952,916,540,0.987316,1.63719
-301,484,0.698608,-1.72864,-0.00227494,0.0182445,-0.00288757,0.0186431,-0.00267355,-1.43362,0.0134091,0.0457731,923,540,0.69861,1.72861
-294,484,0.95929,-1.51404,-0.00392902,0.0319535,-0.00506069,0.0326536,-0.0046291,-1.43333,0.0234648,0.0454577,930,540,0.95928,1.51401
-287,484,1.4209,-1.5777,0,0,0,0,0,0,0,-1,937,540,1.42087,1.57767
-280,484,1.26044,-2.64355,0,0,0,0,0,0,0,-1,944,540,1.26042,2.64356
-273,484,0.817871,-3.96631,0,0,0,0,0,0,0,-1,951,540,0.817893,3.96632
-266,484,2.53021,-1.33716,-0.0148007,0.102398,-0.0149195,0.104267,-0.0166702,-1.44614,0.0756826,0.0452942,958,540,2.53022,1.33718
-259,484,2.04279,-2.66669,-0.0170987,0.126494,-0.0167229,0.128416,-0.0190206,-1.45638,0.0926041,0.0455884,965,540,2.04279,2.66667
-252,484,1.76996,-3.9588,-0.0191189,0.149262,-0.017679,0.151098,-0.0209551,-1.46731,0.108394,0.0465438,972,540,1.76997,3.95879
-245,484,1.55804,-5.64886,-0.0204473,0.172134,-0.0177324,0.173754,-0.0220665,-1.47974,0.123848,0.0486046,979,540,1.55802,5.64884
-238,484,1.33209,-7.26416,0,0,0,0,0,0,0,-1,986,540,1.33207,7.26415
-231,484,1.26703,-8.7196,0,0,0,0,0,0,0,-1,993,540,1.26702,8.71957
-224,484,1.14026,-10.1454,0,0,0,0,0,0,0,-1,1000,540,1.14028,10.1454
-217,484,-1.97418,-4.13556,0,0,0,0,0,0,0,-1,1007,540,-1.97419,4.13557
-210,484,0,0,0,0,0,0,0,0,0,-1,1014,540,0,0
-203,484,0,0,0,0,0,0,0,0,0,-1,1021,540,0,0
-196,484,0,0,0,0,0,0,0,0,0,-1,1028,540,0,0
-189,484,0,0,0,0,0,0,0,0,0,-1,1035,540,0,0
-182,484,0,0,0,0,0,0,0,0,0,-1,1042,540,0,0
-175,484,0,0,0,0,0,0,0,0,0,-1,1049,540,0,0
-168,484,0,0,0,0,0,0,0,0,0,-1,1056,540,0,0
-161,484,0,0,0,0,0,0,0,0,0,-1,1063,540,0,0
-154,484,0,0,0,0,0,0,0,0,0,-1,1070,540,0,0
-147,484,0,0,0,0,0,0,0,0,0,-1,1077,540,0,0
-140,484,0,0,0,0,0,0,0,0,0,-1,1084,540,0,0
-133,484,0,0,0,0,0,0,0,0,0,-1,1091,540,0,0
-126,484,0,0,0,0,0,0,0,0,0,-1,1098,540,0,0
-119,484,0,0,0,0,0,0,0,0,0,-1,1105,540,0,0
-112,484,0,0,0,0,0,0,0,0,0,-1,1112,540,0,0
-105,484,0,0,0,0,0,0,0,0,0,-1,1119,540,0,0
-98,484,0,0,0,0,0,0,0,0,0,-1,1126,540,0,0
-91,484,0,0,0,0,0,0,0,0,0,-1,1133,540,0,0
-84,484,0,0,0,0,0,0,0,0,0,-1,1140,540,0,0
-77,484,0,0,0,0,0,0,0,0,0,-1,1147,540,0,0
-70,484,0,0,0,0,0,0,0,0,0,-1,1154,540,0,0
-63,484,0,0,0,0,0,0,0,0,0,-1,1161,540,0,0
-56,484,0,0,0,0,0,0,0,0,0,-1,1168,540,0,0
-49,484,0,0,0,0,0,0,0,0,0,-1,1175,540,0,0
-42,484,0,0,0,0,0,0,0,0,0,-1,1182,540,0,0
-35,484,0,0,0,0,0,0,0,0,0,-1,1189,540,0,0
-28,484,0,0,0,0,0,0,0,0,0,-1,1196,540,0,0
-21,484,0,0,0,0,0,0,0,0,0,-1,1203,540,0,0
-14,484,0,0,0,0,0,0,0,0,0,-1,1210,540,0,0
-7,484,0,0,0,0,0,0,0,0,0,-1,1217,540,0,0
0,484,0,0,0,0,0,0,0,0,0,-1,1224,540,0,0
7,484,0,0,0,0,0,0,0,0,0,-1,1231,540,0,0
14,484,0,0,0,0,0,0,0,0,0,-1,1238,540,0,0
21,484,0,0,0,0,0,0,0,0,0,-1,1245,540,0,0
28,484,0,0,0,0,0,0,0,0,0,-1,1252,540,0,0
35,484,0,0,0,0,0,0,0,0,0,-1,1259,540,0,0
42,484,0,0,0,0,0,0,0,0,0,-1,1266,540,0,0
49,484,0,0,0,0,0,0,0,0,0,-1,1273,540,0,0
56,484,0,0,0,0,0,0,0,0,0,-1,1280,540,0,0
63,484,0,0,0,0,0,0,0,0,0,-1,1287,540,0,0
70,484,0,0,0,0,0,0,0,0,0,-1,1294,540,0,0
77,484,0,0,0,0,0,0,0,0,0,-1,1301,540,0,0
84,484,0,0,0,0,0,0,0,0,0,-1,1308,540,0,0
91,484,0,0,0,0,0,0,0,0,0,-1,1315,540,0,0
98,484,0,0,0,0,0,0,0,0,0,-1,1322,540,0,0
105,484,0,0,0,0,0,0,0,0,0,-1,1329,540,0,0
112,484,0,0,0,0,0,0,0,0,0,-1,1336,540,0,0
119,484,0,0,0,0,0,0,0,0,0,-1,1343,540,0,0
126,484,0,0,0,0,0,0,0,0,0,-1,1350,540,0,0
133,484,0,0,0,0,0,0,0,0,0,-1,1357,540,0,0
140,484,0,0,0,0,0,0,0,0,0,-1,1364,540,0,0
147,484,0,0,0,0,0,0,0,0,0,-1,1371,540,0,0
154,484,0,0,0,0,0,0,0,0,0,-1,1378,540,0,0
161,484,0,0,0,0,0,0,0,0,0,-1,1385,540,0,0
168,484,0,0,0,0,0,0,0,0,0,-1,1392,540,0,0
175,484,0,0,0,0,0,0,0,0,0,-1,1399,540,0,0
182,484,0,0,0,0,0,0,0,0,0,-1,1406,540,0,0
189,484,0,0,0,0,0,0,0,0,0,-1,1413,540,0,0
196,484,0,0,0,0,0,0,0,0,0,-1,1420,540,0,0
203,484,0,0,0,0,0,0,0,0,0,-1,1427,540,0,0
210,484,0,0,0,0,0,0,0,0,0,-1,1434,540,0,0
217,484,0,0,0,0,0,0,0,0,0,-1,1441,540,0,0
224,484,0,0,0,0,0,0,0,0,0,-1,1448,540,0,0
231,484,0,0,0,0,0,0,0,0,0,-1,1455,540,0,0
238,484,0,0,0,0,0,0,0,0,0,-1,1462,540,0,0
245,484,0,0,0,0,0,0,0,0,0,-1,1469,540,0,0
252,484,0,0,0,0,0,0,0,0,0,-1,1476,540,0,0
259,484,0,0,0,0,0,0,0,0,0,-1,1483,540,0,0
266,484,0,0,0,0,0,0,0,0,0,-1,1490,540,0,0
273,484,0,0,0,0,0,0,0,0,0,-1,1497,540,0,0
280,484,0,0,0,0,0,0,0,0,0,-1,1504,540,0,0
287,484,0,0,0,0,0,0,0,0,0,-1,1511,540,0,0
294,484,0,0,0,0,0,0,0,0,0,-1,1518,540,0,0
301,484,0,0,0,0,0,0,0,0,0,-1,1525,540,0,0
308,484,0,0,0,0,0,0,0,0,0,-1,1532,540,0,0
315,484,0,0,0,0,0,0,0,0,0,-1,1539,540,0,0
322,484,0,0,0,0,0,0,0,0,0,-1,1546,540,0,0
329,484,0,0,0,0,0,0,0,0,0,-1,1553,540,0,0
336,484,4.38708,-1.64136,0,0,0,0,0,0,0,-1,1560,540,4.38704,1.64138
343,484,6.18762,-1.08832,0,0,0,0,0,0,0,-1,1567,540,6.18761,1.08833
350,484,6.31775,-0.979492,0,0,0,0,0,0,0,-1,1574,540,6.31773,0.979463
357,484,6.97571,-0.693237,0,0,0,0,0,0,0,-1,1581,540,6.97572,0.693264
364,484,3.6012,-0.318359,0,0,0,0,0,0,0,-1,1588,540,3.60116,0.318362
371,484,4.30786,0.1875,0,0,0,0,0,0,0,-1,1595,540,4.3079,-0.187478
378,484,2.60474,1.74591,0,0,0,0,0,0,0,-1,1602,540,2.60475,-1.74588
385,484,2.05298,1.03748,0,0,0,0,0,0,0,-1,1609,540,2.05292,-1.03747
392,484,1.80273,0.575012,0,0,0,0,0,0,0,-1,1616,540,1.80278,-0.575022
399,484,1.74048,0.243774,0,0,0,0,0,0,0,-1,1623,540,1.7405,-0.243773
406,484,5.14209,-0.403381,0,0,0,0,0,0,0,-1,1630,540,5.14211,0.403401
413,484,4.4895,-1.08673,0,0,0,0,0,0,0,-1,1637,540,4.48952,1.08674
420,484,3.94885,-2.2373,0,0,0,0,0,0,0,-1,1644,540,3.94885,2.23731
427,484,3.70313,-1.90411,0,0,0,0,0,0,0,-1,1651,540,3.70316,1.90411
434,484,3.49792,-1.69397,0.0125337,0.00427853,0.00328008,0.0136783,0.00313394,0.335741,0.00827449,0.049757,1658,540,3.49797,1.69399
441,484,3.30884,-1.81921,0.00987934,0.00809766,0.00300914,0.0121267,0.00585026,0.641487,0.00700282,0.0484098,1665,540,3.30883,1.81923
448,484,3.24512,-1.63312,0.00637012,0.0104376,0.00252426,0.0116455,0.00516226,1.1245,0.00673792,0.032927,1672,540,3.24515,1.63314
455,484,3.22839,-1.55725,0.00337659,0.0118548,0.00238945,0.0124819,0.00274954,1.31416,0.00757298,0.0183395,1679,540,3.22836,1.55727
462,484,3.24304,-1.51044,0.0029128,0.0103932,0.00233764,0.0110636,0.00224237,1.29149,0.00675352,0.0137837,1686,540,3.24304,1.51045
469,484,3.27869,-1.42914,0.00273386,0.00810586,0.00207516,0.00881411,0.00202562,1.2419,0.00533073,0.0160583,1693,540,3.2787,1.42914
476,484,3.2688,-1.33813,0.0025055,0.00601652,0.0017539,0.00674254,0.00177949,1.17833,0.00403485,0.0143,1700,540,3.26875,1.33813
483,484,3.26538,-1.27185,0.0024689,0.00406532,0.00157587,0.0050336,0.00150062,1.01982,0.00298407,0.0110965,1707,540,3.26543,1.27185
490,484,3.27686,-1.21375,0.00233925,0.0026604,0.001378,0.00388715,0.0011125,0.843401,0.00231163,0.0115964,1714,540,3.2768,1.21373
497,484,3.2677,-1.17157,0.0021246,0.00144113,0.00128999,0.00311735,0.000448381,0.655916,0.00194607,0.013151,1721,540,3.26776,1.17158
504,484,3.25525,-1.09564,0.0019038,0.000403061,0.00156036,0.00288484,-0.000577976,0.561274,0.00214204,0.0149504,1728,540,3.25528,1.09564
511,484,3.27039,-1,0.00191369,0.000101874,0.00182458,0.00304488,-0.00102931,0.554975,0.0024463,0.0168219,1735,540,3.27044,0.999989
518,484,3.26196,-0.937134,0.00213258,0.000250695,0.00245555,0.00382129,-0.00143802,0.602432,0.00313867,0.0137907,1742,540,3.26197,0.937138
525,484,3.26892,-0.860474,0.00260816,0.00106283,0.00340497,0.00532703,-0.00165604,0.673826,0.00421328,0.0123105,1749,540,3.26887,0.860469
532,484,3.28064,-0.802429,0.00323251,0.00208825,0.00463746,0.007333,-0.00201224,0.724023,0.00567951,0.0151122,1756,540,3.28061,0.802423
539,484,3.26355,-0.702881,0.00420028,0.00403375,0.00640273,0.0105203,-0.00228625,0.778896,0.00788685,0.017764,1763,540,3.2635,0.702873
546,484,3.23462,-0.611206,0.00573509,0.00645433,0.00866828,0.0147704,-0.00258103,0.80613,0.0108105,0.0199846,1770,540,3.23462,0.611205
553,484,2.90662,-0.281006,0.00895346,0.0110827,0.0119764,0.0220417,-0.00200556,0.829728,0.0154066,0.0345123,1777,540,2.90659,0.280998
560,484,2.86572,0.106995,0.0138662,0.0205236,0.0162176,0.0337506,0.000639241,0.886619,0.0222903,0.0463161,1784,540,2.86573,-0.107021
567,484,3.47046,-0.0336304,0,0,0,0,0,0,0,-1,1791,540,3.4704,0.0336468
574,484,3.22534,0.831055,0,0,0,0,0,0,0,-1,1798,540,3.22535,-0.831058
581,484,3.57397,1.11139,0,0,0,0,0,0,0,-1,1805,540,3.57394,-1.11139
588,484,2.66064,1.18994,0,0,0,0,0,0,0,-1,1812,540,2.66069,-1.18993
595,484,1.80994,0.959167,0,0,0,0,0,0,0,-1,1819,540,1.80995,-0.959147
602,484,0,0,0,0,0,0,0,0,0,-1,1826,540,0,0
609,484,0,0,0,0,0,0,0,0,0,-1,1833,540,0,0
616,484,0,0,0,0,0,0,0,0,0,-1,1840,540,0,0
623,484,0,0,0,0,0,0,0,0,0,-1,1847,540,0,0
630,484,0,0,0,0,0,0,0,0,0,-1,1854,540,0,0
637,484,0,0,0,0,0,0,0,0,0,-1,1861,540,0,0
644,484,0,0,0,0,0,0,0,0,0,-1,1868,540,0,0
651,484,0,0,0,0,0,0,0,0,0,-1,1875,540,0,0
658,484,0,0,0,0,0,0,0,0,0,-1,1882,540,0,0
665,484,0,0,0,0,0,0,0,0,0,-1,1889,540,0,0
672,484,0,0,0,0,0,0,0,0,0,-1,1896,540,0,0
679,484,0,0,0,0,0,0,0,0,0,-1,1903,540,0,0
686,484,0,0,0,0,0,0,0,0,0,-1,1910,540,0,0
693,484,0,0,0,0,0,0,0,0,0,-1,1917,540,0,0
700,484,0,0,0,0,0,0,0,0,0,-1,1924,540,0,0
707,484,0,0,0,0,0,0,0,0,0,-1,1931,540,0,0
714,484,0,0,0,0,0,0,0,0,0,-1,1938,540,0,0
721,484,0,0,0,0,0,0,0,0,0,-1,1945,540,0,0
728,484,0,0,0,0,0,0,0,0,0,-1,1952,540,0,0
735,484,0,0,0,0,0,0,0,0,0,-1,1959,540,0,0
742,484,0,0,0,0,0,0,0,0,0,-1,1966,540,0,0
749,484,0,0,0,0,0,0,0,0,0,-1,1973,540,0,0
756,484,0,0,0,0,0,0,0,0,0,-1,1980,540,0,0
763,484,0,0,0,0,0,0,0,0,0,-1,1987,540,0,0
770,484,0,0,0,0,0,0,0,0,0,-1,1994,540,0,0
777,484,0,0,0,0,0,0,0,0,0,-1,2001,540,0,0
784,484,0,0,0,0,0,0,0,0,0,-1,2008,540,0,0
791,484,0,0,0,0,0,0,0,0,0,-1,2015,540,0,0
798,484,0,0,0,0,0,0,0,0,0,-1,2022,540,0,0
805,484,0,0,0,0,0,0,0,0,0,-1,2029,540,0,0
812,484,0,0,0,0,0,0,0,0,0,-1,2036,540,0,0
-700,477,0,0,0,0,0,0,0,0,0,-1,524,547,0,0
-693,477,0,0,0,0,0,0,0,0,0,-1,531,547,0,0
-686,477,0,0,0,0,0,0,0,0,0,-1,538,547,0,0
-679,477,0,0,0,0,0,0,0,0,0,-1,545,547,0,0
-672,477,0,0,0,0,0,0,0,0,0,-1,552,547,0,0
-665,477,0,0,0,0,0,0,0,0,0,-1,559,547,0,0
-658,477,0,0,0,0,0,0,0,0,0,-1,566,547,0,0
-651,477,0,0,0,0,0,0,0,0,0,-1,573,547,0,0
-644,477,0,0,0,0,0,0,0,0,0,-1,580,547,0,0
-637,477,0,0,0,0,0,0,0,0,0,-1,587,547,0,0
-630,477,0,0,0,0,0,0,0,0,0,-1,594,547,0,0
-623,477,0,0,0,0,0,0,0,0,0,-1,601,547,0,0
-616,477,0,0,0,0,0,0,0,0,0,-1,608,547,0,0
-609,477,0,0,0,0,0,0,0,0,0,-1,615,547,0,0
-602,477,0,0,0,0,0,0,0,0,0,-1,622,547,0,0
-595,477,0,0,0,0,0,0,0,0,0,-1,629,547,0,0
-588,477,0,0,0,0,0,0,0,0,0,-1,636,547,0,0
-581,477,0,0,0,0,0,0,0,0,0,-1,643,547,0,0
-574,477,0,0,0,0,0,0,0,0,0,-1,650,547,0,0
-567,477,0,0,0,0,0,0,0,0,0,-1,657,547,0,0
-560,477,0,0,0,0,0,0,0,0,0,-1,664,547,0,0
-553,477,0,0,0,0,0,0,0,0,0,-1,671,547,0,0
-546,477,0,0,0,0,0,0,0,0,0,-1,678,547,0,0
-539,477,0,0,0,0,0,0,0,0,0,-1,685,547,0,0
-532,477,0,0,0,0,0,0,0,0,0,-1,692,547,0,0
-525,477,0,0,0,0,0,0,0,0,0,-1,699,547,0,0
-518,477,0,0,0,0,0,0,0,0,0,-1,706,547,0,0
-511,477,0,0,0,0,0,0,0,0,0,-1,713,547,0,0
-504,477,0,0,0,0,0,0,0,0,0,-1,720,547,0,0
-497,477,0,0,0,0,0,0,0,0,0,-1,727,547,0,0
-490,477,0,0,0,0,0,0,0,0,0,-1,734,547,0,0
-483,477,0.0456543,0.21228,0,0,0,0,0,0,0,-1,741,547,0.0456632,-0.212287
-476,477,-0.229187,1.17242,0,0,0,0,0,0,0,-1,748,547,-0.229213,-1.17241
-469,477,0.012207,0.97467,0.0462646,-0.0175171,-0.0155312,0.0498454,-0.021098,-0.226601,0.0420652,0.0450105,755,547,0.0121802,-0.974686
-462,477,0.247253,0.777405,0.044721,-0.0179931,-0.00940603,0.0461013,-0.0193735,-0.145712,0.0388376,0.0424313,762,547,0.247257,-0.777405
-455,477,0.378174,0.374878,0.041038,-0.0179844,-0.00496195,0.0414522,-0.0183987,-0.0832899,0.0353991,0.0431005,769,547,0.378147,-0.374893
-448,477,0.356506,-0.401123,0.0360728,-0.0175306,-0.00177412,0.0361315,-0.0175892,-0.0330489,0.0316255,0.0451412,776,547,0.356516,0.401105
-441,477,0.404724,-0.623169,0.0305395,-0.0166421,0.000387623,0.0305427,-0.0166453,0.00821481,0.0276351,0.0430128,783,547,0.4047,0.623141
-434,477,0.690002,-0.754028,0.0249106,-0.0153429,0.00166895,0.0249797,-0.015412,0.0413663,0.0235372,0.035557,790,547,0.689991,0.754021
-427,477,0.822815,-0.790833,0.0195655,-0.013724,0.0023412,0.0197293,-0.0138879,0.06987,0.0195063,0.0177873,797,547,0.822844,0.790805
-420,477,0.817444,-0.829773,0.0149222,-0.0119591,0.00276989,0.0152047,-0.0122415,0.101619,0.0158768,0.0150341,804,547,0.817468,0.829763
-413,477,0.83197,-0.906616,0.0110544,-0.0107241,0.00313673,0.0114972,-0.0111668,0.140233,0.0130855,0.0141516,811,547,0.83194,0.9066
-406,477,0.845825,-1.00134,0.00773891,-0.00876634,0.00290701,0.00823595,-0.00926338,0.16934,0.010109,0.0106923,818,547,0.845854,1.00136
-399,477,0.847595,-1.09424,0.00464889,-0.00707855,0.00223432,0.00506015,-0.00748981,0.182028,0.00729085,0.0177684,825,547,0.847589,1.09421
-392,477,0.844421,-1.15082,0.00255372,-0.00525056,0.00159137,0.00286575,-0.00556258,0.193615,0.00494843,0.0165018,832,547,0.844437,1.15079
-385,477,0.856506,-1.1936,0.00123966,-0.00365062,0.0010963,0.00147418,-0.00388514,0.210744,0.00319687,0.0133565,839,547,0.85653,1.19362
-378,477,0.856567,-1.27765,0.00103585,-0.00255465,0.000894049,0.00124615,-0.00276496,0.231026,0.00237051,0.0118451,846,547,0.856539,1.27766
-371,477,0.856018,-1.3313,0.000872603,-0.00193819,0.000875988,0.00112325,-0.00218884,0.278689,0.00194495,0.0125079,853,547,0.856022,1.33128
-364,477,0.855347,-1.37152,0.00102379,-0.00128374,0.00113265,0.00148684,-0.00174678,0.388083,0.00186894,0.0127299,860,547,0.855365,1.3715
-357,477,0.84845,-1.45728,0.00136881,-0.00105839,0.00158446,0.00215105,-0.00184062,0.458586,0.00230691,0.0103623,867,547,0.848463,1.45725
-350,477,0.840637,-1.53223,0.00180096,-0.00160296,0.002266,0.00293297,-0.00273497,0.463301,0.00327305,0.00963278,874,547,0.840636,1.5322
-343,477,0.860413,-1.60718,0.00271334,-0.00199546,0.00277719,0.00399982,-0.00328194,0.433801,0.00421093,0.016804,881,547,0.86043,1.60716
-336,477,0.889404,-1.68127,0.00374491,-0.00222698,0.00283621,0.00487721,-0.00335928,0.379843,0.00478218,0.0217286,888,547,0.889421,1.68126
-329,477,0.884277,-1.77777,0.00364836,-0.000381666,0.00240198,0.0047686,-0.0015019,0.436392,0.00378049,0.0291438,895,547,0.884275,1.77774
-322,477,0.74762,-1.74884,0.00311024,0.0027137,0.00174143,0.00466465,0.00115929,0.728716,0.00280438,0.0318858,902,547,0.74764,1.74883
-315,477,0.506165,-1.8526,0.00165157,0.0076881,0.000459898,0.00772294,0.00161674,1.49519,0.00470327,0.0389856,909,547,0.506146,1.85262
-308,477,0.755066,-1.57538,0.000215293,0.0138655,-0.00133361,0.0139946,8.62204e-05,-1.47431,0.00930114,0.0444366,916,547,0.75505,1.5754
-301,477,0.925171,-1.07568,-0.00147151,0.0233249,-0.00370767,0.0238675,-0.00201403,-1.4255,0.0166237,0.0480725,923,547,0.925154,1.07569
-294,477,0.701965,-1.51166,0,0,0,0,0,0,0,-1,930,547,0.701988,1.51166
-287,477,3.54364,2.15399,0,0,0,0,0,0,0,-1,937,547,3.54362,-2.15396
-280,477,3.11652,0.627502,-0.0103161,0.0724689,-0.0121341,0.0742108,-0.012058,-1.42822,0.0539443,0.0477743,944,547,3.1165,-0.627514
-273,477,2.31177,-0.823792,-0.0140818,0.0948112,-0.0150914,0.096864,-0.0161346,-1.4356,0.0705717,0.0458045,951,547,2.31176,0.82379
-266,477,1.60217,-1.90796,-0.0178043,0.120703,-0.0178534,0.122967,-0.0200685,-1.44464,0.0894215,0.047319,958,547,1.60215,1.90799
-259,477,1.09613,-2.43524,0,0,0,0,0,0,0,-1,965,547,1.09613,2.43525
-252,477,0.733521,-4.50873,0,0,0,0,0,0,0,-1,972,547,0.733518,4.50876
-245,477,0.473267,-6.1778,0,0,0,0,0,0,0,-1,979,547,0.473246,6.17777
-238,477,0.0629883,-7.66632,0,0,0,0,0,0,0,-1,986,547,0.0629759,7.66629
-231,477,-0.0889893,-9.08801,0,0,0,0,0,0,0,-1,993,547,-0.0889821,9.08804
-224,477,0,0,0,0,0,0,0,0,0,-1,1000,547,0,0
-217,477,0,0,0,0,0,0,0,0,0,-1,1007,547,0,0
-210,477,0,0,0,0,0,0,0,0,0,-1,1014,547,0,0
-203,477,0,0,0,0,0,0,0,0,0,-1,1021,547,0,0
-196,477,0,0,0,0,0,0,0,0,0,-1,1028,547,0,0
-189,477,0,0,0,0,0,0,0,0,0,-1,1035,547,0,0
-182,477,0,0,0,0,0,0,0,0,0,-1,1042,547,0,0
-175,477,0,0,0,0,0,0,0,0,0,-1,1049,547,0,0
-168,477,0,0,0,0,0,0,0,0,0,-1,1056,547,0,0
-161,477,0,0,0,0,0,0,0,0,0,-1,1063,547,0,0
-154,477,0,0,0,0,0,0,0,0,0,-1,1070,547,0,0
-147,477,0,0,0,0,0,0,0,0,0,-1,1077,547,0,0
-140,477,0,0,0,0,0,0,0,0,0,-1,1084,547,0,0
-133,477,0,0,0,0,0,0,0,0,0,-1,1091,547,0,0
-126,477,0,0,0,0,0,0,0,0,0,-1,1098,547,0,0
-119,477,0,0,0,0,0,0,0,0,0,-1,1105,547,0,0
-112,477,0,0,0,0,0,0,0,0,0,-1,1112,547,0,0
-105,477,0,0,0,0,0,0,0,0,0,-1,1119,547,0,0
-98,477,0,0,0,0,0,0,0,0,0,-1,1126,547,0,0
-91,477,0,0,0,0,0,0,0,0,0,-1,1133,547,0,0
-84,477,0,0,0,0,0,0,0,0,0,-1,1140,547,0,0
-77,477,0,0,0,0,0,0,0,0,0,-1,1147,547,0,0
-70,477,0,0,0,0,0,0,0,0,0,-1,1154,547,0,0
-63,477,0,0,0,0,0,0,0,0,0,-1,1161,547,0,0
-56,477,0,0,0,0,0,0,0,0,0,-1,1168,547,0,0
-49,477,0,0,0,0,0,0,0,0,0,-1,1175,547,0,0
-42,477,0,0,0,0,0,0,0,0,0,-1,1182,547,0,0
-35,477,0,0,0,0,0,0,0,0,0,-1,1189,547,0,0
-28,477,0,0,0,0,0,0,0,0,0,-1,1196,547,0,0
-21,477,0,0,0,0,0,0,0,0,0,-1,1203,547,0,0
-14,477,0,0,0,0,0,0,0,0,0,-1,1210,547,0,0
-7,477,0,0,0,0,0,0,0,0,0,-1,1217,547,0,0
0,477,0,0,0,0,0,0,0,0,0,-1,1224,547,0,0
7,477,0,0,0,0,0,0,0,0,0,-1,1231,547,0,0
14,477,0,0,0,0,0,0,0,0,0,-1,1238,547,0,0
21,477,0,0,0,0,0,0,0,0,0,-1,1245,547,0,0
28,477,0,0,0,0,0,0,0,0,0,-1,1252,547,0,0
35,477,0,0,0,0,0,0,0,0,0,-1,1259,547,0,0
42,477,0,0,0,0,0,0,0,0,0,-1,1266,547,0,0
49,477,0,0,0,0,0,0,0,0,0,-1,1273,547,0,0
56,477,0,0,0,0,0,0,0,0,0,-1,1280,547,0,0
63,477,0,0,0,0,0,0,0,0,0,-1,1287,547,0,0
70,477,0,0,0,0,0,0,0,0,0,-1,1294,547,0,0
77,477,0,0,0,0,0,0,0,0,0,-1,1301,547,0,0
84,477,0,0,0,0,0,0,0,0,0,-1,1308,547,0,0
91,477,0,0,0,0,0,0,0,0,0,-1,1315,547,0,0
98,477,0,0,0,0,0,0,0,0,0,-1,1322,547,0,0
105,477,0,0,0,0,0,0,0,0,0,-1,1329,547,0,0
112,477,0,0,0,0,0,0,0,0,0,-1,1336,547,0,0
119,477,0,0,0,0,0,0,0,0,0,-1,1343,547,0,0
126,477,0,0,0,0,0,0,0,0,0,-1,1350,547,0,0
133,477,0,0,0,0,0,0,0,0,0,-1,1357,547,0,0
140,477,0,0,0,0,0,0,0,0,0,-1,1364,547,0,0
147,477,0,0,0,0,0,0,0,0,0,-1,1371,547,0,0
154,477,0,0,0,0,0,0,0,0,0,-1,1378,547,0,0
161,477,0,0,0,0,0,0,0,0,0,-1,1385,547,0,0
168,477,0,0,0,0,0,0,0,0,0,-1,1392,547,0,0
175,477,0,0,0,0,0,0,0,0,0,-1,1399,547,0,0
182,477,0,0,0,0,0,0,0,0,0,-1,1406,547,0,0
189,477,0,0,0,0,0,0,0,0,0,-1,1413,547,0,0
196,477,0,0,0,0,0,0,0,0,0,-1,1420,547,0,0
203,477,0,0,0,0,0,0,0,0,0,-1,1427,547,0,0
210,477,0,0,0,0,0,0,0,0,0,-1,1434,547,0,0
217,477,0,0,0,0,0,0,0,0,0,-1,1441,547,0,0
224,477,0,0,0,0,0,0,0,0,0,-1,1448,547,0,0
231,477,0,0,0,0,0,0,0,0,0,-1,1455,547,0,0
238,477,0,0,0,0,0,0,0,0,0,-1,1462,547,0,0
245,477,0,0,0,0,0,0,0,0,0,-1,1469,547,0,0
252,477,0,0,0,0,0,0,0,0,0,-1,1476,547,0,0
259,477,0,0,0,0,0,0,0,0,0,-1,1483,547,0,0
266,477,0,0,0,0,0,0,0,0,0,-1,1490,547,0,0
273,477,0,0,0,0,0,0,0,0,0,-1,1497,547,0,0
280,477,0,0,0,0,0,0,0,0,0,-1,1504,547,0,0
287,477,0,0,0,0,0,0,0,0,0,-1,1511,547,0,0
294,477,0,0,0,0,0,0,0,0,0,-1,1518,547,0,0
301,477,0,0,0,0,0,0,0,0,0,-1,1525,547,0,0
308,477,0,0,0,0,0,0,0,0,0,-1,1532,547,0,0
315,477,0,0,0,0,0,0,0,0,0,-1,1539,547,0,0
322,477,0,0,0,0,0,0,0,0,0,-1,1546,547,0,0
329,477,0,0,0,0,0,0,0,0,0,-1,1553,547,0,0
336,477,0,0,0,0,0,0,0,0,0,-1,1560,547,0,0
343,477,0,0,0,0,0,0,0,0,0,-1,1567,547,0,0
350,477,1.39404,-2.80219,0,0,0,0,0,0,0,-1,1574,547,1.39404,2.80221
357,477,2.32336,-2.41675,0,0,0,0,0,0,0,-1,1581,547,2.32334,2.41673
364,477,4.42456,-0.44104,0,0,0,0,0,0,0,-1,1588,547,4.42458,0.441057
371,477,4.9762,-0.18457,0.0262612,-0.0146778,-0.000719656,0.0262739,-0.0146905,-0.0175715,0.0239639,0.0470376,1595,547,4.97615,0.184554
378,477,5.5437,0.311646,0,0,0,0,0,0,0,-1,1602,547,5.54369,-0.31165
385,477,5.63318,0.690735,0.0400481,-0.0221913,0.00499385,0.0404462,-0.0225895,0.0795578,0.0368772,0.0456868,1609,547,5.63314,-0.690717
392,477,5.87158,1.00006,0.0416014,-0.0185162,0.00557979,0.0421149,-0.0190297,0.09177,0.0361308,0.0435582,1616,547,5.87158,-1.00004
399,477,6.45154,0.973816,0.0402867,-0.0138208,0.00584448,0.0409108,-0.0144449,0.106381,0.0331549,0.0451629,1623,547,6.45156,-0.973799
406,477,7.02502,0.969604,0,0,0,0,0,0,0,-1,1630,547,7.02506,-0.969625
413,477,4.88171,-0.336426,0,0,0,0,0,0,0,-1,1637,547,4.88169,0.336398
420,477,3.34875,0.102722,0,0,0,0,0,0,0,-1,1644,547,3.34871,-0.1027
427,477,1.66772,-0.373108,0,0,0,0,0,0,0,-1,1651,547,1.66768,0.373104
434,477,3.65637,-1.51178,0,0,0,0,0,0,0,-1,1658,547,3.65631,1.51176
441,477,3.17517,-1.72253,0,0,0,0,0,0,0,-1,1665,547,3.1752,1.72255
448,477,3.24487,-1.67804,0.0105872,0.0161091,0.00483114,0.0189126,0.0077837,1.045,0.010976,0.0476917,1672,547,3.24493,1.67802
455,477,3.39282,-1.57806,0.00630772,0.0174462,0.00447243,0.0190197,0.00473419,1.23249,0.0114333,0.0384475,1679,547,3.39284,1.57809
462,477,3.33789,-1.53772,0.00544439,0.0148652,0.00406937,0.0163796,0.00393004,1.21454,0.00987396,0.0257867,1686,547,3.33793,1.53772
469,477,3.33789,-1.44189,0.00490179,0.0115247,0.00344112,0.0129889,0.00343758,1.1685,0.00777115,0.0169447,1693,547,3.33786,1.44191
476,477,3.33704,-1.36761,0.00428818,0.00851073,0.00280535,0.00991051,0.00288841,1.10798,0.0058854,0.0155317,1700,547,3.33706,1.36761
483,477,3.34338,-1.28302,0.00387621,0.00582047,0.00235274,0.00739401,0.00230268,0.981311,0.00436896,0.0110647,1707,547,3.34337,1.28301
490,477,3.33252,-1.21881,0.00337928,0.00383728,0.00190212,0.00552413,0.00169243,0.845306,0.00326811,0.0112642,1714,547,3.3325,1.2188
497,477,3.32642,-1.15759,0.00279385,0.00219037,0.00157103,0.00409185,0.000892361,0.690522,0.00248445,0.0128739,1721,547,3.32641,1.15761
504,477,3.32239,-1.07416,0.00215189,0.000830474,0.00155687,0.00318245,-0.000200086,0.584725,0.00219137,0.0175432,1728,547,3.32236,1.07416
511,477,3.3584,-1.00494,0.00178751,0.000153943,0.001565,0.00273605,-0.000794593,0.544889,0.00213868,0.0218179,1735,547,3.35836,1.00493
518,477,3.34802,-0.920471,0.00161319,-1.34911e-05,0.00191787,0.00288306,-0.00128336,0.584851,0.00246387,0.0183955,1742,547,3.34802,0.920495
525,477,3.3429,-0.848267,0.00172301,0.000688634,0.00263493,0.00389103,-0.00147939,0.688489,0.00320313,0.0155633,1749,547,3.34288,0.848294
532,477,3.35046,-0.828735,0.00197616,0.00156614,0.0035681,0.00534514,-0.00180284,0.756701,0.00429248,0.0187441,1756,547,3.35043,0.828736
539,477,3.32898,-0.706421,0.00254882,0.00328662,0.00500853,0.00793982,-0.00210437,0.822159,0.00611655,0.0161294,1763,547,3.32892,0.706415
546,477,3.34973,-0.642517,0.00369951,0.00539325,0.00684388,0.0114425,-0.0023497,0.846956,0.00852023,0.0169856,1770,547,3.3497,0.642516
553,477,3.30371,-0.593262,0,0,0,0,0,0,0,-1,1777,547,3.30371,0.593253
560,477,3.37463,-0.414978,0.011073,0.0179901,0.0132033,0.0281803,0.000882809,0.913493,0.0184997,0.0302986,1784,547,3.37462,0.414981
567,477,3.43066,-0.19104,0.0167358,0.0293448,0.0190351,0.0430923,0.00298837,0.945314,0.0277857,0.0399352,1791,547,3.43064,0.191028
574,477,3.42285,-0.00531006,0,0,0,0,0,0,0,-1,1798,547,3.42281,0.00532484
581,477,3.37732,0.607422,0,0,0,0,0,0,0,-1,1805,547,3.37731,-0.607428
588,477,2.86206,0.54541,0,0,0,0,0,0,0,-1,1812,547,2.86202,-0.545422
595,477,2.94165,0.786316,0,0,0,0,0,0,0,-1,1819,547,2.94168,-0.786327
602,477,6.5271,-0.964417,0,0,0,0,0,0,0,-1,1826,547,6.52706,0.964427
609,477,0,0,0,0,0,0,0,0,0,-1,1833,547,0,0
616,477,0,0,0,0,0,0,0,0,0,-1,1840,547,0,0
623,477,0,0,0,0,0,0,0,0,0,-1,1847,547,0,0
630,477,0,0,0,0,0,0,0,0,0,-1,1854,547,0,0
637,477,0,0,0,0,0,0,0,0,0,-1,1861,547,0,0
644,477,0,0,0,0,0,0,0,0,0,-1,1868,547,0,0
651,477,0,0,0,0,0,0,0,0,0,-1,1875,547,0,0
658,477,0,0,0,0,0,0,0,0,0,-1,1882,547,0,0
665,477,0,0,0,0,0,0,0,0,0,-1,1889,547,0,0
672,477,0,0,0,0,0,0,0,0,0,-1,1896,547,0,0
679,477,0,0,0,0,0,0,0,0,0,-1,1903,547,0,0
686,477,0,0,0,0,0,0,0,0,0,-1,1910,547,0,0
693,477,0,0,0,0,0,0,0,0,0,-1,1917,547,0,0
700,477,0,0,0,0,0,0,0,0,0,-1,1924,547,0,0
707,477,0,0,0,0,0,0,0,0,0,-1,1931,547,0,0
714,477,0,0,0,0,0,0,0,0,0,-1,1938,547,0,0
721,477,0,0,0,0,0,0,0,0,0,-1,1945,547,0,0
728,477,0,0,0,0,0,0,0,0,0,-1,1952,547,0,0
735,477,0,0,0,0,0,0,0,0,0,-1,1959,547,0,0
742,477,0,0,0,0,0,0,0,0,0,-1,1966,547,0,0
749,477,0,0,0,0,0,0,0,0,0,-1,1973,547,0,0
756,477,0,0,0,0,0,0,0,0,0,-1,1980,547,0,0
763,477,0,0,0,0,0,0,0,0,0,-1,1987,547,0,0
770,477,0,0,0,0,0,0,0,0,0,-1,1994,547,0,0
777,477,0,0,0,0,0,0,0,0,0,-1,2001,547,0,0
784,477,0,0,0,0,0,0,0,0,0,-1,2008,547,0,0
791,477,0,0,0,0,0,0,0,0,0,-1,2015,547,0,0
798,477,0,0,0,0,0,0,0,0,0,-1,2022,547,0,0
805,477,0,0,0,0,0,0,0,0,0,-1,2029,547,0,0
812,477,0,0,0,0,0,0,0,0,0,-1,2036,547,0,0
-700,470,0,0,0,0,0,0,0,0,0,-1,524,554,0,0
-693,470,0,0,0,0,0,0,0,0,0,-1,531,554,0,0
-686,470,0,0,0,0,0,0,0,0,0,-1,538,554,0,0
-679,470,0,0,0,0,0,0,0,0,0,-1,545,554,0,0
-672,470,0,0,0,0,0,0,0,0,0,-1,552,554,0,0
-665,470,0,0,0,0,0,0,0,0,0,-1,559,554,0,0
-658,470,0,0,0,0,0,0,0,0,0,-1,566,554,0,0
-651,470,0,0,0,0,0,0,0,0,0,-1,573,554,0,0
-644,470,0,0,0,0,0,0,0,0,0,-1,580,554,0,0
-637,470,0,0,0,0,0,0,0,0,0,-1,587,554,0,0
-630,470,0,0,0,0,0,0,0,0,0,-1,594,554,0,0
-623,470,0,0,0,0,0,0,0,0,0,-1,601,554,0,0
-616,470,0,0,0,0,0,0,0,0,0,-1,608,554,0,0
-609,470,0,0,0,0,0,0,0,0,0,-1,615,554,0,0
-602,470,0,0,0,0,0,0,0,0,0,-1,622,554,0,0
-595,470,0,0,0,0,0,0,0,0,0,-1,629,554,0,0
-588,470,0,0,0,0,0,0,0,0,0,-1,636,554,0,0
-581,470,0,0,0,0,0,0,0,0,0,-1,643,554,0,0
-574,470,0,0,0,0,0,0,0,0,0,-1,650,554,0,0
-567,470,0,0,0,0,0,0,0,0,0,-1,657,554,0,0
-560,470,0,0,0,0,0,0,0,0,0,-1,664,554,0,0
-553,470,0,0,0,0,0,0,0,0,0,-1,671,554,0,0
-546,470,0,0,0,0,0,0,0,0,0,-1,678,554,0,0
-539,470,0,0,0,0,0,0,0,0,0,-1,685,554,0,0
-532,470,0,0,0,0,0,0,0,0,0,-1,692,554,0,0
-525,470,0,0,0,0,0,0,0,0,0,-1,699,554,0,0
-518,470,0,0,0,0,0,0,0,0,0,-1,706,554,0,0
-511,470,0,0,0,0,0,0,0,0,0,-1,713,554,0,0
-504,470,0,0,0,0,0,0,0,0,0,-1,720,554,0,0
-497,470,0,0,0,0,0,0,0,0,0,-1,727,554,0,0
-490,470,0.640869,0.11438,0,0,0,0,0,0,0,-1,734,554,0.640877,-0.114351
-483,470,0.671753,0.228577,0,0,0,0,0,0,0,-1,741,554,0.671773,-0.228604
-476,470,0.654053,0.34436,0.0406949,-0.0104781,-0.0253511,0.0511271,-0.0209103,-0.390388,0.042793,0.0437854,748,554,0.654029,-0.344386
-469,470,0.710693,0.648254,0.0399832,-0.0102084,-0.018653,0.0461561,-0.0163813,-0.319591,0.0374453,0.0433486,755,554,0.710683,-0.648242
-462,470,0.00567627,-0.405701,0,0,0,0,0,0,0,-1,762,554,0.00570107,0.405723
-455,470,0.194763,-0.506836,0.0341558,-0.0102041,-0.00883023,0.0358489,-0.0118972,-0.189441,0.0286991,0.0495542,769,554,0.194743,0.506853
-448,470,0.385254,-0.566833,0.0298155,-0.0100247,-0.00547785,0.0305549,-0.0107641,-0.134179,0.0247509,0.0464303,776,554,0.385245,0.566805
-441,470,0.734924,-0.665283,0.0251643,-0.00960806,-0.00299031,0.0254196,-0.00986334,-0.0851635,0.0210202,0.0386509,783,554,0.734931,0.665256
-434,470,0.797119,-0.749634,0.02049,-0.00889185,-0.00130659,0.020548,-0.00894984,-0.0443527,0.0174639,0.0202397,790,554,0.797098,0.749639
-427,470,0.792969,-0.79303,0.0161018,-0.00802591,-0.000139617,0.0161026,-0.00802672,-0.00578634,0.0141888,0.0101265,797,554,0.792968,0.793014
-420,470,0.790833,-0.852051,0.012331,-0.00700803,0.000835163,0.012367,-0.00704403,0.0430785,0.0113465,0.0114096,804,554,0.790848,0.852066
-413,470,0.784729,-0.918762,0.00913829,-0.0065473,0.00169298,0.00931894,-0.00672795,0.106301,0.00930485,0.0119884,811,554,0.784721,0.918788
-406,470,0.766968,-0.996094,0.0063869,-0.00540657,0.00190341,0.00668649,-0.00570616,0.156116,0.00716235,0.00921443,818,554,0.766952,0.99611
-399,470,0.78656,-1.08875,0.00388647,-0.00450523,0.00170307,0.00421893,-0.0048377,0.192789,0.00523291,0.0118269,825,554,0.786574,1.08875
-392,470,0.800171,-1.16125,0.00214279,-0.00340993,0.00149312,0.00251882,-0.00378596,0.246713,0.00366449,0.0127783,832,554,0.80016,1.16127
-385,470,0.836731,-1.18518,0.00101504,-0.00244875,0.00136593,0.00148887,-0.00292258,0.333903,0.0025914,0.0100956,839,554,0.836743,1.18515
-378,470,0.826965,-1.26349,0.00074676,-0.00188262,0.00141705,0.00136506,-0.00250092,0.411426,0.00226391,0.0142887,846,554,0.826991,1.26352
-371,470,0.814758,-1.34094,0.000518659,-0.00161561,0.00159382,0.00136961,-0.00246656,0.490402,0.00224479,0.0126837,853,554,0.814743,1.34092
-364,470,0.808838,-1.40094,0.000515913,-0.00121237,0.00199891,0.00182947,-0.00252593,0.581376,0.00252528,0.0129544,860,554,0.808814,1.40093
-357,470,0.789368,-1.47284,0.000682715,-0.0011793,0.00260236,0.00251559,-0.00301217,0.613615,0.00319574,0.0125925,867,554,0.789383,1.47286
-350,470,0.780273,-1.5545,0.000931098,-0.00184075,0.00341642,0.00323201,-0.00414166,0.592708,0.00426797,0.0085944,874,554,0.780267,1.55452
-343,470,0.810547,-1.60999,0.00189338,-0.00208379,0.00388891,0.00427264,-0.00446306,0.549056,0.00504396,0.0168374,881,554,0.810554,1.60996
-336,470,0.758423,-1.65002,0.00318507,-0.00196727,0.00377689,0.00518072,-0.00396292,0.486097,0.00529467,0.0261917,888,554,0.758418,1.65005
-329,470,0.658081,-1.70306,0.00323486,0.000541119,0.003107,0.00527435,-0.00149838,0.580876,0.00410782,0.0346394,895,554,0.658061,1.70307
-322,470,0.509827,-1.68829,0.00286517,0.00462298,0.00211101,0.00603074,0.00145741,0.982656,0.00363346,0.0385124,902,554,0.50985,1.6883
-315,470,0.213196,-1.8374,0.00155386,0.0106446,0.000383665,0.0106608,0.0015377,1.52869,0.00665412,0.0434422,909,554,0.213207,1.83742
-308,470,0.41803,-1.71405,0,0,0,0,0,0,0,-1,916,554,0.418031,1.71403
-301,470,0.613525,-1.28723,0,0,0,0,0,0,0,-1,923,554,0.613537,1.28723
-294,470,2.47375,1.89734,0,0,0,0,0,0,0,-1,930,554,2.47375,-1.89732
-287,470,2.45172,0.4823,0,0,0,0,0,0,0,-1,937,554,2.45169,-0.482285
-280,470,1.88489,-0.58606,-0.0100219,0.0824361,-0.0143808,0.0846212,-0.0122071,-1.42,0.0608924,0.0452902,944,554,1.88488,0.586031
-273,470,1.33478,-1.7149,-0.0148805,0.107663,-0.0177912,0.110193,-0.0174112,-1.4295,0.0799008,0.0435001,951,554,1.33476,1.71492
-266,470,0.837402,-2.57971,-0.0201118,0.137492,-0.0208979,0.140216,-0.0228357,-1.44118,0.101945,0.0495435,958,554,0.8374,2.5797
-259,470,0.294617,-3.08191,0,0,0,0,0,0,0,-1,965,554,0.294627,3.08193
-252,470,-0.489258,-1.25421,0,0,0,0,0,0,0,-1,972,554,-0.489243,1.2542
-245,470,-0.519409,-1.7298,0,0,0,0,0,0,0,-1,979,554,-0.519404,1.7298
-238,470,0,0,0,0,0,0,0,0,0,-1,986,554,0,0
-231,470,0,0,0,0,0,0,0,0,0,-1,993,554,0,0
-224,470,0,0,0,0,0,0,0,0,0,-1,1000,554,0,0
-217,470,0,0,0,0,0,0,0,0,0,-1,1007,554,0,0
-210,470,0,0,0,0,0,0,0,0,0,-1,1014,554,0,0
-203,470,0,0,0,0,0,0,0,0,0,-1,1021,554,0,0
-196,470,0,0,0,0,0,0,0,0,0,-1,1028,554,0,0
-189,470,0,0,0,0,0,0,0,0,0,-1,1035,554,0,0
-182,470,0,0,0,0,0,0,0,0,0,-1,1042,554,0,0
-175,470,0,0,0,0,0,0,0,0,0,-1,1049,554,0,0
-168,470,0,0,0,0,0,0,0,0,0,-1,1056,554,0,0
-161,470,0,0,0,0,0,0,0,0,0,-1,1063,554,0,0
-154,470,0,0,0,0,0,0,0,0,0,-1,1070,554,0,0
-147,470,0,0,0,0,0,0,0,0,0,-1,1077,554,0,0
-140,470,0,0,0,0,0,0,0,0,0,-1,1084,554,0,0
-133,470,0,0,0,0,0,0,0,0,0,-1,1091,554,0,0
-126,470,0,0,0,0,0,0,0,0,0,-1,1098,554,0,0
-119,470,0,0,0,0,0,0,0,0,0,-1,1105,554,0,0
-112,470,0,0,0,0,0,0,0,0,0,-1,1112,554,0,0
-105,470,0,0,0,0,0,0,0,0,0,-1,1119,554,0,0
-98,470,0,0,0,0,0,0,0,0,0,-1,1126,554,0,0
-91,470,0,0,0,0,0,0,0,0,0,-1,1133,554,0,0
-84,470,0,0,0,0,0,0,0,0,0,-1,1140,554,0,0
-77,470,0,0,0,0,0,0,0,0,0,-1,1147,554,0,0
-70,470,0,0,0,0,0,0,0,0,0,-1,1154,554,0,0
-63,470,0,0,0,0,0,0,0,0,0,-1,1161,554,0,0
-56,470,0,0,0,0,0,0,0,0,0,-1,1168,554,0,0
-49,470,0,0,0,0,0,0,0,0,0,-1,1175,554,0,0
-42,470,0,0,0,0,0,0,0,0,0,-1,1182,554,0,0
-35,470,0,0,0,0,0,0,0,0,0,-1,1189,554,0,0
-28,470,0,0,0,0,0,0,0,0,0,-1,1196,554,0,0
-21,470,0,0,0,0,0,0,0,0,0,-1,1203,554,0,0
-14,470,0,0,0,0,0,0,0,0,0,-1,1210,554,0,0
-7,470,0,0,0,0,0,0,0,0,0,-1,1217,554,0,0
0,470,0,0,0,0,0,0,0,0,0,-1,1224,554,0,0
7,470,0,0,0,0,0,0,0,0,0,-1,1231,554,0,0
14,470,0,0,0,0,0,0,0,0,0,-1,1238,554,0,0
21,470,0,0,0,0,0,0,0,0,0,-1,1245,554,0,0
28,470,0,0,0,0,0,0,0,0,0,-1,1252,554,0,0
35,470,0,0,0,0,0,0,0,0,0,-1,1259,554,0,0
42,470,0,0,0,0,0,0,0,0,0,-1,1266,554,0,0
49,470,0,0,0,0,0,0,0,0,0,-1,1273,554,0,0
56,470,0,0,0,0,0,0,0,0,0,-1,1280,554,0,0
63,470,0,0,0,0,0,0,0,0,0,-1,1287,554,0,0
70,470,0,0,0,0,0,0,0,0,0,-1,1294,554,0,0
77,470,0,0,0,0,0,0,0,0,0,-1,1301,554,0,0
84,470,0,0,0,0,0,0,0,0,0,-1,1308,554,0,0
91,470,0,0,0,0,0,0,0,0,0,-1,1315,554,0,0
98,470,0,0,0,0,0,0,0,0,0,-1,1322,554,0,0
105,470,0,0,0,0,0,0,0,0,0,-1,1329,554,0,0
112,470,0,0,0,0,0,0,0,0,0,-1,1336,554,0,0
119,470,0,0,0,0,0,0,0,0,0,-1,1343,554,0,0
126,470,0,0,0,0,0,0,0,0,0,-1,1350,554,0,0
133,470,0,0,0,0,0,0,0,0,0,-1,1357,554,0,0
140,470,0,0,0,0,0,0,0,0,0,-1,1364,554,0,0
147,470,0,0,0,0,0,0,0,0,0,-1,1371,554,0,0
154,470,0,0,0,0,0,0,0,0,0,-1,1378,554,0,0
161,470,0,0,0,0,0,0,0,0,0,-1,1385,554,0,0
168,470,0,0,0,0,0,0,0,0,0,-1,1392,554,0,0
175,470,0,0,0,0,0,0,0,0,0,-1,1399,554,0,0
182,470,0,0,0,0,0,0,0,0,0,-1,1406,554,0,0
189,470,0,0,0,0,0,0,0,0,0,-1,1413,554,0,0
196,470,0,0,0,0,0,0,0,0,0,-1,1420,554,0,0
203,470,0,0,0,0,0,0,0,0,0,-1,1427,554,0,0
210,470,0,0,0,0,0,0,0,0,0,-1,1434,554,0,0
217,470,0,0,0,0,0,0,0,0,0,-1,1441,554,0,0
224,470,0,0,0,0,0,0,0,0,0,-1,1448,554,0,0
231,470,0,0,0,0,0,0,0,0,0,-1,1455,554,0,0
238,470,0,0,0,0,0,0,0,0,0,-1,1462,554,0,0
245,470,0,0,0,0,0,0,0,0,0,-1,1469,554,0,0
252,470,0,0,0,0,0,0,0,0,0,-1,1476,554,0,0
259,470,0,0,0,0,0,0,0,0,0,-1,1483,554,0,0
266,470,0,0,0,0,0,0,0,0,0,-1,1490,554,0,0
273,470,0,0,0,0,0,0,0,0,0,-1,1497,554,0,0
280,470,0,0,0,0,0,0,0,0,0,-1,1504,554,0,0
287,470,0,0,0,0,0,0,0,0,0,-1,1511,554,0,0
294,470,0,0,0,0,0,0,0,0,0,-1,1518,554,0,0
301,470,0,0,0,0,0,0,0,0,0,-1,1525,554,0,0
308,470,0,0,0,0,0,0,0,0,0,-1,1532,554,0,0
315,470,0,0,0,0,0,0,0,0,0,-1,1539,554,0,0
322,470,0,0,0,0,0,0,0,0,0,-1,1546,554,0,0
329,470,0,0,0,0,0,0,0,0,0,-1,1553,554,0,0
336,470,0,0,0,0,0,0,0,0,0,-1,1560,554,0,0
343,470,0,0,0,0,0,0,0,0,0,-1,1567,554,0,0
350,470,0,0,0,0,0,0,0,0,0,-1,1574,554,0,0
357,470,0,0,0,0,0,0,0,0,0,-1,1581,554,0,0
364,470,5.1261,-0.874939,0,0,0,0,0,0,0,-1,1588,554,5.12609,0.87495
371,470,5.71423,-0.665833,0,0,0,0,0,0,0,-1,1595,554,5.71424,0.665809
378,470,5.65356,0.278564,0,0,0,0,0,0,0,-1,1602,554,5.65358,-0.278567
385,470,5.91992,0.573975,0.0572379,-0.0127854,0.0105439,0.0587911,-0.0143386,0.146258,0.0447461,0.0470534,1609,554,5.9199,-0.573983
392,470,6.17322,0.901428,0.0593255,-0.00725544,0.0111986,0.0611586,-0.00908852,0.16225,0.0441151,0.0455106,1616,554,6.17318,-0.901431
399,470,6.6333,1.08191,0.0568385,-0.00299987,0.0112275,0.0588757,-0.00503713,0.1795,0.0410327,0.0439347,1623,554,6.63328,-1.08193
406,470,7.19458,1.104,0,0,0,0,0,0,0,-1,1630,554,7.19456,-1.10401
413,470,5.49695,0.964417,0,0,0,0,0,0,0,-1,1637,554,5.497,-0.964408
420,470,4.47095,0.845703,0,0,0,0,0,0,0,-1,1644,554,4.47098,-0.845718
427,470,3.51038,1.19684,0,0,0,0,0,0,0,-1,1651,554,3.51039,-1.19684
434,470,3.31775,-1.37427,0,0,0,0,0,0,0,-1,1658,554,3.31781,1.37426
441,470,3.44556,-1.55933,0,0,0,0,0,0,0,-1,1665,554,3.44556,1.55931
448,470,3.31787,-1.77039,0,0,0,0,0,0,0,-1,1672,554,3.31786,1.7704
455,470,3.45483,-1.78998,0.0101979,0.0249101,0.00731365,0.0279272,0.00718089,1.17954,0.0167458,0.0454197,1679,554,3.4548,1.78999
462,470,3.42615,-1.53583,0.00873649,0.0206863,0.00637203,0.0234465,0.00597629,1.16202,0.0140686,0.0388537,1686,554,3.42615,1.5358
469,470,3.46655,-1.47095,0.00761789,0.0158358,0.00520976,0.018362,0.00509172,1.11931,0.0109462,0.0306551,1693,554,3.46653,1.47094
476,470,3.39001,-1.39374,0.00647122,0.0115623,0.00408683,0.0138315,0.00420199,1.06393,0.00818801,0.0172715,1700,554,3.38997,1.39371
483,470,3.40564,-1.2951,0.00559387,0.00791168,0.00321781,0.0101729,0.00333263,0.958243,0.00598858,0.0119026,1707,554,3.40567,1.29511
490,470,3.39233,-1.23004,0.00470439,0.0051922,0.00241101,0.00737161,0.00252498,0.835808,0.00432579,0.0119467,1714,554,3.39228,1.23005
497,470,3.39758,-1.1712,0.00378551,0.00302985,0.00176442,0.0052121,0.00160326,0.679921,0.00308257,0.0119982,1721,554,3.39753,1.1712
504,470,3.41687,-1.09967,0.00278986,0.00132231,0.00140865,0.00364439,0.000467772,0.545282,0.00228965,0.0190721,1728,554,3.41692,1.09968
511,470,3.46301,-1.04163,0.00216717,0.00022707,0.00114161,0.00269521,-0.000300971,0.433233,0.00190507,0.0257425,1735,554,3.46296,1.04161
518,470,3.49756,-0.949036,0.00175212,-0.000255207,0.00123286,0.00233821,-0.000841289,0.443761,0.00190229,0.0242787,1742,554,3.49752,0.949028
525,470,3.41821,-0.835449,0.00167302,0.000420823,0.00178247,0.00293615,-0.000842313,0.616503,0.00229043,0.0149576,1749,554,3.41819,0.835433
532,470,3.40198,-0.778748,0.00172915,0.00123962,0.00250568,0.00400199,-0.00103322,0.73671,0.0030709,0.0130219,1756,554,3.40196,0.778734
539,470,3.42029,-0.716797,0.00206944,0.00280441,0.00372612,0.00618113,-0.00130727,0.834551,0.00461859,0.015395,1763,554,3.42026,0.716785
546,470,3.4314,-0.654297,0.00298329,0.00466794,0.00526053,0.00915315,-0.00150192,0.864785,0.00665944,0.014347,1770,554,3.43145,0.654279
553,470,3.42554,-0.583679,0.00552081,0.00835167,0.00764513,0.0147113,-0.000838814,0.876932,0.0100988,0.0110748,1777,554,3.42557,0.583679
560,470,3.41553,-0.48999,0.00944443,0.0158841,0.0105917,0.0237346,0.00159395,0.932958,0.0153194,0.0119938,1784,554,3.41557,0.489994
567,470,3.39392,-0.397766,0.0144985,0.0256884,0.0155747,0.0366427,0.00354429,0.957836,0.0233369,0.0149386,1791,554,3.3939,0.397744
574,470,3.46008,-0.257263,0.0209575,0.040124,0.0225712,0.0550622,0.00601934,0.986155,0.0348753,0.0393584,1798,554,3.46014,0.257252
581,470,3.51782,-0.0112915,0,0,0,0,0,0,0,-1,1805,554,3.51785,0.0112808
588,470,3.42761,0.122314,0,0,0,0,0,0,0,-1,1812,554,3.42765,-0.122286
595,470,5.90479,-1.80054,0,0,0,0,0,0,0,-1,1819,554,5.90482,1.80056
602,470,5.97839,-0.708557,0,0,0,0,0,0,0,-1,1826,554,5.97833,0.708572
609,470,8.05164,3.48499,0,0,0,0,0,0,0,-1,1833,554,8.05163,-3.48498
616,470,0,0,0,0,0,0,0,0,0,-1,1840,554,0,0
623,470,0,0,0,0,0,0,0,0,0,-1,1847,554,0,0
630,470,0,0,0,0,0,0,0,0,0,-1,1854,554,0,0
637,470,0,0,0,0,0,0,0,0,0,-1,1861,554,0,0
644,470,0,0,0,0,0,0,0,0,0,-1,1868,554,0,0
651,470,0,0,0,0,0,0,0,0,0,-1,1875,554,0,0
658,470,0,0,0,0,0,0,0,0,0,-1,1882,554,0,0
665,470,0,0,0,0,0,0,0,0,0,-1,1889,554,0,0
672,470,0,0,0,0,0,0,0,0,0,-1,1896,554,0,0
679,470,0,0,0,0,0,0,0,0,0,-1,1903,554,0,0
686,470,0,0,0,0,0,0,0,0,0,-1,1910,554,0,0
693,470,0,0,0,0,0,0,0,0,0,-1,1917,554,0,0
700,470,0,0,0,0,0,0,0,0,0,-1,1924,554,0,0
707,470,0,0,0,0,0,0,0,0,0,-1,1931,554,0,0
714,470,0,0,0,0,0,0,0,0,0,-1,1938,554,0,0
721,470,0,0,0,0,0,0,0,0,0,-1,1945,554,0,0
728,470,0,0,0,0,0,0,0,0,0,-1,1952,554,0,0
735,470,0,0,0,0,0,0,0,0,0,-1,1959,554,0,0
742,470,0,0,0,0,0,0,0,0,0,-1,1966,554,0,0
749,470,0,0,0,0,0,0,0,0,0,-1,1973,554,0,0
756,470,0,0,0,0,0,0,0,0,0,-1,1980,554,0,0
763,470,0,0,0,0,0,0,0,0,0,-1,1987,554,0,0
770,470,0,0,0,0,0,0,0,0,0,-1,1994,554,0,0
777,470,0,0,0,0,0,0,0,0,0,-1,2001,554,0,0
784,470,0,0,0,0,0,0,0,0,0,-1,2008,554,0,0
791,470,0,0,0,0,0,0,0,0,0,-1,2015,554,0,0
798,470,0,0,0,0,0,0,0,0,0,-1,2022,554,0,0
805,470,0,0,0,0,0,0,0,0,0,-1,2029,554,0,0
812,470,0,0,0,0,0,0,0,0,0,-1,2036,554,0,0
-700,463,0,0,0,0,0,0,0,0,0,-1,524,561,0,0
-693,463,0,0,0,0,0,0,0,0,0,-1,531,561,0,0
-686,463,0,0,0,0,0,0,0,0,0,-1,538,561,0,0
-679,463,0,0,0,0,0,0,0,0,0,-1,545,561,0,0
-672,463,0,0,0,0,0,0,0,0,0,-1,552,561,0,0
-665,463,0,0,0,0,0,0,0,0,0,-1,559,561,0,0
-658,463,0,0,0,0,0,0,0,0,0,-1,566,561,0,0
-651,463,0,0,0,0,0,0,0,0,0,-1,573,561,0,0
-644,463,0,0,0,0,0,0,0,0,0,-1,580,561,0,0
-637,463,0,0,0,0,0,0,0,0,0,-1,587,561,0,0
-630,463,0,0,0,0,0,0,0,0,0,-1,594,561,0,0
-623,463,0,0,0,0,0,0,0,0,0,-1,601,561,0,0
-616,463,0,0,0,0,0,0,0,0,0,-1,608,561,0,0
-609,463,0,0,0,0,0,0,0,0,0,-1,615,561,0,0
-602,463,0,0,0,0,0,0,0,0,0,-1,622,561,0,0
-595,463,0,0,0,0,0,0,0,0,0,-1,629,561,0,0
-588,463,0,0,0,0,0,0,0,0,0,-1,636,561,0,0
-581,463,0,0,0,0,0,0,0,0,0,-1,643,561,0,0
-574,463,0,0,0,0,0,0,0,0,0,-1,650,561,0,0
-567,463,0,0,0,0,0,0,0,0,0,-1,657,561,0,0
-560,463,0,0,0,0,0,0,0,0,0,-1,664,561,0,0
-553,463,0,0,0,0,0,0,0,0,0,-1,671,561,0,0
-546,463,0,0,0,0,0,0,0,0,0,-1,678,561,0,0
-539,463,0,0,0,0,0,0,0,0,0,-1,685,561,0,0
-532,463,0,0,0,0,0,0,0,0,0,-1,692,561,0,0
-525,463,0,0,0,0,0,0,0,0,0,-1,699,561,0,0
-518,463,0,0,0,0,0,0,0,0,0,-1,706,561,0,0
-511,463,0,0,0,0,0,0,0,0,0,-1,713,561,0,0
-504,463,0,0,0,0,0,0,0,0,0,-1,720,561,0,0
-497,463,3.48773,0.195496,0,0,0,0,0,0,0,-1,727,561,3.48774,-0.195516
-490,463,-1.32202,1.8551,0,0,0,0,0,0,0,-1,734,561,-1.32202,-1.85513
-483,463,-0.962341,-0.721375,0,0,0,0,0,0,0,-1,741,561,-0.962348,0.721367
-476,463,1.3537,0.500427,0.0352525,-0.00778722,-0.023738,0.0457732,-0.0183079,-0.417185,0.0381131,0.0468582,748,561,1.35372,-0.500407
-469,463,1.56012,0.483643,0.0334477,-0.0058177,-0.019278,0.0413302,-0.0137002,-0.388141,0.0330797,0.0469137,755,561,1.56015,-0.48364
-462,463,-0.237671,-0.477844,0,0,0,0,0,0,0,-1,762,561,-0.237658,0.477847
-455,463,0.11731,-0.534607,0.0271584,-0.00468599,-0.0110365,0.0306094,-0.008137,-0.303058,0.0235911,0.0465401,769,561,0.11729,0.534612
-448,463,0.519287,-0.611267,0.0232752,-0.00449713,-0.00786649,0.0253486,-0.00657052,-0.257711,0.0194625,0.040558,776,561,0.51928,0.611269
-441,463,0.709045,-0.629822,0.0193725,-0.00425462,-0.00538892,0.0205436,-0.00542569,-0.213984,0.0158176,0.0266866,783,561,0.709042,0.629811
-434,463,0.718262,-0.719299,0.0155337,-0.00397319,-0.00348151,0.0161365,-0.00457593,-0.171427,0.0125639,0.0110624,790,561,0.71829,0.719277
-427,463,0.731445,-0.77478,0.0119746,-0.00366303,-0.00199804,0.0122259,-0.00391428,-0.125094,0.00972165,0.00899116,797,561,0.731425,0.774787
-420,463,0.74823,-0.833618,0.00904927,-0.00317709,-0.000606314,0.00907926,-0.00320708,-0.0494291,0.00735863,0.00955769,804,561,0.748257,0.833588
-413,463,0.737915,-0.919739,0.00661199,-0.00320311,0.000704246,0.00666226,-0.00325338,0.0712648,0.00583648,0.00869785,811,561,0.73794,0.919749
-406,463,0.71344,-0.998901,0.00455049,-0.00267986,0.00136029,0.00479794,-0.00292731,0.179943,0.00450355,0.00788991,818,561,0.713448,0.998904
-399,463,0.729065,-1.08136,0.0027827,-0.00229397,0.00166965,0.0032826,-0.00279387,0.29091,0.00351203,0.0086363,825,561,0.729094,1.08136
-392,463,0.745422,-1.14801,0.00150548,-0.00167676,0.00197454,0.0024502,-0.00262148,0.446259,0.00292869,0.0086823,832,561,0.745437,1.14804
-385,463,0.742249,-1.20209,0.000687698,-0.00111996,0.00234482,0.00229685,-0.00272911,0.601444,0.00290532,0.00955369,839,561,0.742274,1.20209
-378,463,0.75354,-1.2804,0.00039009,-0.00071693,0.00278612,0.00267715,-0.00300399,0.687341,0.00328181,0.0115179,846,561,0.753542,1.28038
-371,463,0.773376,-1.35962,0.000140602,-0.000544174,0.00327865,0.0030947,-0.00349827,0.733372,0.00380883,0.0116498,853,561,0.773355,1.35962
-364,463,0.783997,-1.41022,-3.94885e-05,-0.000160813,0.00394201,0.00384232,-0.00404263,0.777704,0.00455287,0.0133602,860,561,0.784022,1.41022
-357,463,0.756165,-1.48041,-0.000202542,-5.41344e-05,0.00477497,0.00464721,-0.00490388,0.793168,0.00551499,0.0138602,867,561,0.756161,1.48039
-350,463,0.716675,-1.57452,-0.00038905,-0.000523934,0.00573982,0.00528373,-0.00619671,0.779524,0.00663522,0.0140234,874,561,0.71668,1.57453
-343,463,0.77417,-1.57361,0.000316188,-0.000404648,0.00611085,0.00607724,-0.0061657,0.755942,0.00706852,0.0274889,881,561,0.774193,1.57363
-336,463,0.810059,-1.65155,0.00152995,0.000209029,0.00573324,0.00664065,-0.00490167,0.728052,0.00668912,0.0390411,888,561,0.810086,1.65157
-329,463,0.989136,-1.57288,0.00145882,0.00336581,0.00473392,0.0072413,-0.00241668,0.884777,0.00580332,0.0463721,895,561,0.989129,1.57286
-322,463,1.02582,-1.13037,0.00115782,0.00829804,0.0032943,0.00958572,-0.000129856,1.19818,0.0064342,0.0478817,902,561,1.02584,1.13036
-315,463,1.07007,-1.02777,0,0,0,0,0,0,0,-1,909,561,1.07007,1.02779
-308,463,1.92157,5.21509,0,0,0,0,0,0,0,-1,916,561,1.92158,-5.21509
-301,463,1.40369,3.85132,0,0,0,0,0,0,0,-1,923,561,1.4037,-3.85132
-294,463,0.968445,2.3335,-0.00327732,0.0519441,-0.00883731,0.0533239,-0.00465711,-1.41591,0.037199,0.0469966,930,561,0.968452,-2.33352
-287,463,0.828125,0.731262,-0.00513016,0.0698541,-0.0128131,0.0719831,-0.00725917,-1.40614,0.0505824,0.0466633,937,561,0.828131,-0.731245
-280,463,0.639404,-0.885864,-0.00838208,0.09093,-0.0166237,0.0936388,-0.0110908,-1.40927,0.0664321,0.0427519,944,561,0.639378,0.885855
-273,463,0.0469971,-2.21179,-0.013322,0.117247,-0.0204872,0.120386,-0.0164611,-1.41876,0.0862696,0.0428436,951,561,0.046997,2.21178
-266,463,-0.0855713,-3.29742,-0.019793,0.149131,-0.0240524,0.152489,-0.023151,-1.43208,0.11019,0.0478618,958,561,-0.0855993,3.29741
-259,463,-0.305908,-3.43616,0,0,0,0,0,0,0,-1,965,561,-0.305897,3.43618
-252,463,0,0,0,0,0,0,0,0,0,-1,972,561,0,0
-245,463,0,0,0,0,0,0,0,0,0,-1,979,561,0,0
-238,463,0,0,0,0,0,0,0,0,0,-1,986,561,0,0
-231,463,0,0,0,0,0,0,0,0,0,-1,993,561,0,0
-224,463,0,0,0,0,0,0,0,0,0,-1,1000,561,0,0
-217,463,0,0,0,0,0,0,0,0,0,-1,1007,561,0,0
-210,463,0,0,0,0,0,0,0,0,0,-1,1014,561,0,0
-203,463,0,0,0,0,0,0,0,0,0,-1,1021,561,0,0
-196,463,0,0,0,0,0,0,0,0,0,-1,1028,561,0,0
-189,463,0,0,0,0,0,0,0,0,0,-1,1035,561,0,0
-182,463,0,0,0,0,0,0,0,0,0,-1,1042,561,0,0
-175,463,0,0,0,0,0,0,0,0,0,-1,1049,561,0,0
-168,463,0,0,0,0,0,0,0,0,0,-1,1056,561,0,0
-161,463,0,0,0,0,0,0,0,0,0,-1,1063,561,0,0
-154,463,0,0,0,0,0,0,0,0,0,-1,1070,561,0,0
-147,463,0,0,0,0,0,0,0,0,0,-1,1077,561,0,0
-140,463,0,0,0,0,0,0,0,0,0,-1,1084,561,0,0
-133,463,0,0,0,0,0,0,0,0,0,-1,1091,561,0,0
-126,463,0,0,0,0,0,0,0,0,0,-1,1098,561,0,0
-119,463,0,0,0,0,0,0,0,0,0,-1,1105,561,0,0
-112,463,0,0,0,0,0,0,0,0,0,-1,1112,561,0,0
-105,463,0,0,0,0,0,0,0,0,0,-1,1119,561,0,0
-98,463,0,0,0,0,0,0,0,0,0,-1,1126,561,0,0
-91,463,0,0,0,0,0,0,0,0,0,-1,1133,561,0,0
-84,463,0,0,0,0,0,0,0,0,0,-1,1140,561,0,0
-77,463,0,0,0,0,0,0,0,0,0,-1,1147,561,0,0
-70,463,0,0,0,0,0,0,0,0,0,-1,1154,561,0,0
-63,463,0,0,0,0,0,0,0,0,0,-1,1161,561,0,0
-56,463,0,0,0,0,0,0,0,0,0,-1,1168,561,0,0
-49,463,0,0,0,0,0,0,0,0,0,-1,1175,561,0,0
-42,463,0,0,0,0,0,0,0,0,0,-1,1182,561,0,0
-35,463,0,0,0,0,0,0,0,0,0,-1,1189,561,0,0
-28,463,0,0,0,0,0,0,0,0,0,-1,1196,561,0,0
-21,463,0,0,0,0,0,0,0,0,0,-1,1203,561,0,0
-14,463,0,0,0,0,0,0,0,0,0,-1,1210,561,0,0
-7,463,0,0,0,0,0,0,0,0,0,-1,1217,561,0,0
0,463,0,0,0,0,0,0,0,0,0,-1,1224,561,0,0
7,463,0,0,0,0,0,0,0,0,0,-1,1231,561,0,0
14,463,0,0,0,0,0,0,0,0,0,-1,1238,561,0,0
21,463,0,0,0,0,0,0,0,0,0,-1,1245,561,0,0
28,463,0,0,0,0,0,0,0,0,0,-1,1252,561,0,0
35,463,0,0,0,0,0,0,0,0,0,-1,1259,561,0,0
42,463,0,0,0,0,0,0,0,0,0,-1,1266,561,0,0
49,463,0,0,0,0,0,0,0,0,0,-1,1273,561,0,0
56,463,0,0,0,0,0,0,0,0,0,-1,1280,561,0,0
63,463,0,0,0,0,0,0,0,0,0,-1,1287,561,0,0
70,463,0,0,0,0,0,0,0,0,0,-1,1294,561,0,0
77,463,0,0,0,0,0,0,0,0,0,-1,1301,561,0,0
84,463,0,0,0,0,0,0,0,0,0,-1,1308,561,0,0
91,463,0,0,0,0,0,0,0,0,0,-1,1315,561,0,0
98,463,0,0,0,0,0,0,0,0,0,-1,1322,561,0,0
105,463,0,0,0,0,0,0,0,0,0,-1,1329,561,0,0
112,463,0,0,0,0,0,0,0,0,0,-1,1336,561,0,0
119,463,0,0,0,0,0,0,0,0,0,-1,1343,561,0,0
126,463,0,0,0,0,0,0,0,0,0,-1,1350,561,0,0
133,463,0,0,0,0,0,0,0,0,0,-1,1357,561,0,0
140,463,0,0,0,0,0,0,0,0,0,-1,1364,561,0,0
147,463,0,0,0,0,0,0,0,0,0,-1,1371,561,0,0
154,463,0,0,0,0,0,0,0,0,0,-1,1378,561,0,0
161,463,0,0,0,0,0,0,0,0,0,-1,1385,561,0,0
168,463,0,0,0,0,0,0,0,0,0,-1,1392,561,0,0
175,463,0,0,0,0,0,0,0,0,0,-1,1399,561,0,0
182,463,0,0,0,0,0,0,0,0,0,-1,1406,561,0,0
189,463,0,0,0,0,0,0,0,0,0,-1,1413,561,0,0
196,463,0,0,0,0,0,0,0,0,0,-1,1420,561,0,0
203,463,0,0,0,0,0,0,0,0,0,-1,1427,561,0,0
210,463,0,0,0,0,0,0,0,0,0,-1,1434,561,0,0
217,463,0,0,0,0,0,0,0,0,0,-1,1441,561,0,0
224,463,0,0,0,0,0,0,0,0,0,-1,1448,561,0,0
231,463,0,0,0,0,0,0,0,0,0,-1,1455,561,0,0
238,463,0,0,0,0,0,0,0,0,0,-1,1462,561,0,0
245,463,0,0,0,0,0,0,0,0,0,-1,1469,561,0,0
252,463,0,0,0,0,0,0,0,0,0,-1,1476,561,0,0
259,463,0,0,0,0,0,0,0,0,0,-1,1483,561,0,0
266,463,0,0,0,0,0,0,0,0,0,-1,1490,561,0,0
273,463,0,0,0,0,0,0,0,0,0,-1,1497,561,0,0
280,463,0,0,0,0,0,0,0,0,0,-1,1504,561,0,0
287,463,0,0,0,0,0,0,0,0,0,-1,1511,561,0,0
294,463,0,0,0,0,0,0,0,0,0,-1,1518,561,0,0
301,463,0,0,0,0,0,0,0,0,0,-1,1525,561,0,0
308,463,0,0,0,0,0,0,0,0,0,-1,1532,561,0,0
315,463,0,0,0,0,0,0,0,0,0,-1,1539,561,0,0
322,463,0,0,0,0,0,0,0,0,0,-1,1546,561,0,0
329,463,0,0,0,0,0,0,0,0,0,-1,1553,561,0,0
336,463,0,0,0,0,0,0,0,0,0,-1,1560,561,0,0
343,463,0,0,0,0,0,0,0,0,0,-1,1567,561,0,0
350,463,0,0,0,0,0,0,0,0,0,-1,1574,561,0,0
357,463,0,0,0,0,0,0,0,0,0,-1,1581,561,0,0
364,463,0,0,0,0,0,0,0,0,0,-1,1588,561,0,0
371,463,5.02734,0.0275879,0,0,0,0,0,0,0,-1,1595,561,5.02735,-0.02758
378,463,5.44678,0.469849,0,0,0,0,0,0,0,-1,1602,561,5.44683,-0.469872
385,463,5.7395,0.66217,0.0793035,0.00323655,0.0183054,0.0834794,-0.000939365,0.224287,0.0559687,0.0493071,1609,561,5.73945,-0.662161
392,463,6.22522,0.941772,0.0820343,0.00958913,0.0194183,0.086911,0.00471251,0.246047,0.0564354,0.0478849,1616,561,6.22521,-0.941781
399,463,6.84058,1.2558,0.0772776,0.0117905,0.0187832,0.0822825,0.00678557,0.260407,0.0527389,0.0431046,1623,561,6.84052,-1.25582
406,463,7.5022,1.2876,0,0,0,0,0,0,0,-1,1630,561,7.50223,-1.28759
413,463,8.22766,1.2912,0,0,0,0,0,0,0,-1,1637,561,8.22764,-1.29122
420,463,5.49805,1.5166,0,0,0,0,0,0,0,-1,1644,561,5.49804,-1.51663
427,463,5.12207,1.69183,0,0,0,0,0,0,0,-1,1651,561,5.12206,-1.69184
434,463,4.59814,1.81995,0,0,0,0,0,0,0,-1,1658,561,4.59812,-1.81994
441,463,1.76392,-5.99225,0,0,0,0,0,0,0,-1,1665,561,1.7639,5.99225
448,463,2.49939,-4.30536,0,0,0,0,0,0,0,-1,1672,561,2.49941,4.30536
455,463,3.79346,-2.04224,0,0,0,0,0,0,0,-1,1679,561,3.79341,2.04224
462,463,3.3551,-1.59296,0.0130958,0.0280318,0.00939841,0.032568,0.00855962,1.12112,0.0194956,0.0462162,1686,561,3.35513,1.59296
469,463,3.66833,-1.5835,0.0112337,0.0212828,0.0075653,0.0253401,0.00717641,1.07853,0.0150816,0.0474783,1693,561,3.66835,1.58351
476,463,3.45313,-1.43536,0.00937092,0.0153567,0.0058156,0.0189043,0.00582327,1.02304,0.0111793,0.0346274,1700,561,3.45307,1.43535
483,463,3.40942,-1.36975,0.00786739,0.0103956,0.00441312,0.0137221,0.00454088,0.924882,0.00807203,0.0167014,1707,561,3.40942,1.36975
490,463,3.47363,-1.24713,0.00645997,0.00665933,0.00318386,0.00974507,0.00337422,0.801047,0.0057143,0.0129606,1714,561,3.47359,1.24716
497,463,3.48486,-1.15802,0.0051243,0.00377572,0.00218291,0.00673469,0.00216533,0.6356,0.00396999,0.0119495,1721,561,3.48492,1.158
504,463,3.50085,-1.08179,0.00371568,0.00158773,0.001463,0.00446069,0.000842721,0.471006,0.00273649,0.016025,1728,561,3.50087,1.08178
511,463,3.50635,-1.00647,0.00279555,-5.76611e-05,0.000915395,0.00306398,-0.000326093,0.285245,0.00215957,0.0222659,1735,561,3.50639,1.00646
518,463,3.56201,-0.929993,0.00212279,-0.000936195,0.000758941,0.00230074,-0.00111414,0.230303,0.00201086,0.0224893,1742,561,3.56197,0.930012
525,463,3.49963,-0.846069,0.00185189,-0.000293815,0.00117119,0.00236733,-0.000809262,0.414596,0.00190613,0.0176286,1749,561,3.4996,0.846069
532,463,3.48596,-0.772034,0.0017247,0.000482358,0.00172237,0.00293448,-0.000727427,0.612333,0.00223855,0.0146985,1756,561,3.48602,0.772039
539,463,3.49854,-0.695862,0.00186056,0.00190466,0.00275588,0.00463858,-0.000873358,0.789399,0.00342087,0.0150638,1763,561,3.49854,0.695869
546,463,3.50623,-0.640381,0.00257418,0.00357958,0.00403521,0.00714328,-0.000989524,0.847368,0.00512398,0.0123892,1770,561,3.50623,0.640403
553,463,3.49841,-0.569458,0.00473242,0.0068491,0.0060312,0.0119141,-0.000332597,0.872253,0.0080559,0.0112682,1777,561,3.49838,0.569485
560,463,3.49402,-0.465271,0.00815534,0.0135417,0.00848147,0.0197473,0.00194973,0.939132,0.0125655,0.0112799,1784,561,3.49402,0.465298
567,463,3.46362,-0.39325,0.012566,0.0219591,0.0126757,0.0307803,0.00374482,0.962815,0.0193928,0.011522,1791,561,3.46366,0.393258
574,463,3.4718,-0.394104,0.0182295,0.0343015,0.0185401,0.0464722,0.0060588,0.989897,0.0291724,0.0276072,1798,561,3.47183,0.394096
581,463,3.68835,-0.36969,0,0,0,0,0,0,0,-1,1805,561,3.68838,0.369701
588,463,3.95898,1.05511,0,0,0,0,0,0,0,-1,1812,561,3.95894,-1.05509
595,463,5.29712,-1.64508,0,0,0,0,0,0,0,-1,1819,561,5.29708,1.64505
602,463,5.70374,2.51379,0,0,0,0,0,0,0,-1,1826,561,5.70368,-2.51382
609,463,6.8075,2.75293,0,0,0,0,0,0,0,-1,1833,561,6.80753,-2.75295
616,463,7.66663,2.80597,0,0,0,0,0,0,0,-1,1840,561,7.66664,-2.80596
623,463,0,0,0,0,0,0,0,0,0,-1,1847,561,0,0
630,463,0,0,0,0,0,0,0,0,0,-1,1854,561,0,0
637,463,0,0,0,0,0,0,0,0,0,-1,1861,561,0,0
644,463,0,0,0,0,0,0,0,0,0,-1,1868,561,0,0
651,463,0,0,0,0,0,0,0,0,0,-1,1875,561,0,0
658,463,0,0,0,0,0,0,0,0,0,-1,1882,561,0,0
665,463,0,0,0,0,0,0,0,0,0,-1,1889,561,0,0
672,463,0,0,0,0,0,0,0,0,0,-1,1896,561,0,0
679,463,0,0,0,0,0,0,0,0,0,-1,1903,561,0,0
686,463,0,0,0,0,0,0,0,0,0,-1,1910,561,0,0
693,463,0,0,0,0,0,0,0,0,0,-1,1917,561,0,0
700,463,0,0,0,0,0,0,0,0,0,-1,1924,561,0,0
707,463,0,0,0,0,0,0,0,0,0,-1,1931,561,0,0
714,463,0,0,0,0,0,0,0,0,0,-1,1938,561,0,0
721,463,0,0,0,0,0,0,0,0,0,-1,1945,561,0,0
728,463,0,0,0,0,0,0,0,0,0,-1,1952,561,0,0
735,463,0,0,0,0,0,0,0,0,0,-1,1959,561,0,0
742,463,0,0,0,0,0,0,0,0,0,-1,1966,561,0,0
749,463,0,0,0,0,0,0,0,0,0,-1,1973,561,0,0
756,463,0,0,0,0,0,0,0,0,0,-1,1980,561,0,0
763,463,0,0,0,0,0,0,0,0,0,-1,1987,561,0,0
770,463,0,0,0,0,0,0,0,0,0,-1,1994,561,0,0
777,463,0,0,0,0,0,0,0,0,0,-1,2001,561,0,0
784,463,0,0,0,0,0,0,0,0,0,-1,2008,561,0,0
791,463,0,0,0,0,0,0,0,0,0,-1,2015,561,0,0
798,463,0,0,0,0,0,0,0,0,0,-1,2022,561,0,0
805,463,0,0,0,0,0,0,0,0,0,-1,2029,561,0,0
812,463,0,0,0,0,0,0,0,0,0,-1,2036,561,0,0
-700,456,0,0,0,0,0,0,0,0,0,-1,524,568,0,0
-693,456,0,0,0,0,0,0,0,0,0,-1,531,568,0,0
-686,456,0,0,0,0,0,0,0,0,0,-1,538,568,0,0
-679,456,0,0,0,0,0,0,0,0,0,-1,545,568,0,0
-672,456,0,0,0,0,0,0,0,0,0,-1,552,568,0,0
-665,456,0,0,0,0,0,0,0,0,0,-1,559,568,0,0
-658,456,0,0,0,0,0,0,0,0,0,-1,566,568,0,0
-651,456,0,0,0,0,0,0,0,0,0,-1,573,568,0,0
-644,456,0,0,0,0,0,0,0,0,0,-1,580,568,0,0
-637,456,0,0,0,0,0,0,0,0,0,-1,587,568,0,0
-630,456,0,0,0,0,0,0,0,0,0,-1,594,568,0,0
-623,456,0,0,0,0,0,0,0,0,0,-1,601,568,0,0
-616,456,0,0,0,0,0,0,0,0,0,-1,608,568,0,0
-609,456,0,0,0,0,0,0,0,0,0,-1,615,568,0,0
-602,456,0,0,0,0,0,0,0,0,0,-1,622,568,0,0
-595,456,0,0,0,0,0,0,0,0,0,-1,629,568,0,0
-588,456,0,0,0,0,0,0,0,0,0,-1,636,568,0,0
-581,456,0,0,0,0,0,0,0,0,0,-1,643,568,0,0
-574,456,0,0,0,0,0,0,0,0,0,-1,650,568,0,0
-567,456,0,0,0,0,0,0,0,0,0,-1,657,568,0,0
-560,456,0,0,0,0,0,0,0,0,0,-1,664,568,0,0
-553,456,0,0,0,0,0,0,0,0,0,-1,671,568,0,0
-546,456,0,0,0,0,0,0,0,0,0,-1,678,568,0,0
-539,456,0,0,0,0,0,0,0,0,0,-1,685,568,0,0
-532,456,0,0,0,0,0,0,0,0,0,-1,692,568,0,0
-525,456,0,0,0,0,0,0,0,0,0,-1,699,568,0,0
-518,456,0,0,0,0,0,0,0,0,0,-1,706,568,0,0
-511,456,0,0,0,0,0,0,0,0,0,-1,713,568,0,0
-504,456,3.29395,0.944458,0,0,0,0,0,0,0,-1,720,568,3.29397,-0.944431
-497,456,2.67767,0.42041,0,0,0,0,0,0,0,-1,727,568,2.67767,-0.42042
-490,456,-0.986572,-0.312439,0,0,0,0,0,0,0,-1,734,568,-0.986583,0.312459
-483,456,-0.778137,-0.508911,0,0,0,0,0,0,0,-1,741,568,-0.778162,0.508895
-476,456,-0.569763,-0.705322,0,0,0,0,0,0,0,-1,748,568,-0.569742,0.705331
-469,456,-0.520081,0.130371,0,0,0,0,0,0,0,-1,755,568,-0.520058,-0.13035
-462,456,0.293823,-0.493469,0,0,0,0,0,0,0,-1,762,568,0.293835,0.493447
-455,456,0.471436,-0.546875,0.0213497,-0.000927432,-0.0121841,0.0267193,-0.00629708,-0.4151,0.0202411,0.0449624,769,568,0.471462,0.546887
-448,456,0.611267,-0.587341,0.0180073,-0.000714311,-0.00924355,0.021802,-0.00450903,-0.389548,0.0162476,0.0288297,776,568,0.611271,0.587351
-441,456,0.647827,-0.660339,0.0148544,-0.0005631,-0.00685806,0.0174635,-0.00317219,-0.363532,0.0128311,0.0127995,783,568,0.647812,0.66037
-434,456,0.644348,-0.716431,0.0117941,-0.000513257,-0.00488434,0.0134969,-0.00221608,-0.335452,0.00982034,0.00861904,790,568,0.644369,0.716433
-427,456,0.658203,-0.773254,0.00894874,-0.000477521,-0.00325872,0.00996561,-0.00149439,-0.30247,0.00719379,0.00833793,797,568,0.658174,0.773262
-420,456,0.673584,-0.841064,0.0066917,-0.000277523,-0.00164149,0.00705897,-0.000644794,-0.220117,0.00493497,0.00925011,804,568,0.673588,0.841086
-413,456,0.668823,-0.915039,0.00480444,-0.000476443,-6.63663e-05,0.00480527,-0.000477277,-0.0125646,0.00337388,0.00857304,811,568,0.668845,0.915035
-406,456,0.644714,-0.994446,0.00317995,-0.00028725,0.00085284,0.00337837,-0.000485671,0.228593,0.00243037,0.00848843,818,568,0.644699,0.994447
-399,456,0.654541,-1.08276,0.00184064,-0.000148051,0.00153815,0.00267786,-0.000985271,0.498459,0.00218887,0.00948577,825,568,0.654554,1.08279
-392,456,0.676392,-1.14362,0.000750169,0.000207056,0.00226498,0.00275981,-0.00180259,0.725736,0.00265336,0.00852055,832,568,0.676392,1.14363
-385,456,0.659607,-1.20306,-0.000157083,0.00062029,0.00298657,0.00324336,-0.00278015,0.850107,0.0034811,0.0088235,839,568,0.659584,1.20309
-378,456,0.658081,-1.29431,-0.000882282,0.00111999,0.00369394,0.00394605,-0.00370834,0.91773,0.00441998,0.0106483,846,568,0.658062,1.29431
-371,456,0.678955,-1.37061,-0.00146625,0.00135356,0.00446959,0.00463035,-0.00474304,0.93818,0.00541186,0.0116504,853,568,0.678978,1.37058
-364,456,0.700928,-1.42407,-0.00208556,0.00184957,0.00536392,0.0055954,-0.00583139,0.961186,0.00659773,0.0145575,860,568,0.700927,1.42408
-357,456,0.673279,-1.50629,-0.00286516,0.00222092,0.00638051,0.0065465,-0.00719075,0.975032,0.00793411,0.015162,867,568,0.673248,1.50627
-350,456,0.697388,-1.50775,-0.00373965,0.00216923,0.00743265,0.0072131,-0.00878352,0.974571,0.00925047,0.0273611,874,568,0.697366,1.50778
-343,456,0.752441,-1.5368,-0.0034575,0.00280556,0.00767167,0.00796023,-0.00861216,0.979173,0.00957054,0.0399566,881,568,0.752462,1.53682
-336,456,0.726318,-1.6131,-0.00243203,0.00398611,0.00703751,0.00851168,-0.0069576,0.999312,0.0089462,0.0455822,888,568,0.726293,1.61311
-329,456,0.848022,-1.59766,-0.00265454,0.00772357,0.00575702,0.010285,-0.00521594,1.15218,0.00910756,0.0458653,895,568,0.847996,1.59766
-322,456,0.976074,-1.41626,-0.00284673,0.0133169,0.00394738,0.0142294,-0.00375922,1.34362,0.0109565,0.0455518,902,568,0.976084,1.41626
-315,456,1.08246,-1.32172,0,0,0,0,0,0,0,-1,909,568,1.08247,1.32174
-308,456,0.670776,-2.51398,0,0,0,0,0,0,0,-1,916,568,0.670773,2.51395
-301,456,-0.482483,4.51691,0,0,0,0,0,0,0,-1,923,568,-0.482471,-4.5169
-294,456,-0.481079,2.50659,-0.00485992,0.0596328,-0.0105258,0.0613072,-0.00653435,-1.41304,0.0432146,0.0454382,930,568,-0.481098,-2.5066
-287,456,-0.328125,0.711243,-0.00461928,0.0774565,-0.0150611,0.080133,-0.00729574,-1.39492,0.0560125,0.0457986,937,568,-0.328109,-0.711256
-280,456,-0.659973,-1.91644,0,0,0,0,0,0,0,-1,944,568,-0.659995,1.91647
-273,456,-1.20093,-3.04755,0,0,0,0,0,0,0,-1,951,568,-1.20094,3.04758
-266,456,-0.833313,-3.87616,0,0,0,0,0,0,0,-1,958,568,-0.833335,3.87617
-259,456,0,0,0,0,0,0,0,0,0,-1,965,568,0,0
-252,456,0,0,0,0,0,0,0,0,0,-1,972,568,0,0
-245,456,0,0,0,0,0,0,0,0,0,-1,979,568,0,0
-238,456,0,0,0,0,0,0,0,0,0,-1,986,568,0,0
-231,456,0,0,0,0,0,0,0,0,0,-1,993,568,0,0
-224,456,0,0,0,0,0,0,0,0,0,-1,1000,568,0,0
-217,456,0,0,0,0,0,0,0,0,0,-1,1007,568,0,0
-210,456,0,0,0,0,0,0,0,0,0,-1,1014,568,0,0
-203,456,0,0,0,0,0,0,0,0,0,-1,1021,568,0,0
-196,456,0,0,0,0,0,0,0,0,0,-1,1028,568,0,0
-189,456,0,0,0,0,0,0,0,0,0,-1,1035,568,0,0
-182,456,0,0,0,0,0,0,0,0,0,-1,1042,568,0,0
-175,456,0,0,0,0,0,0,0,0,0,-1,1049,568,0,0
-168,456,0,0,0,0,0,0,0,0,0,-1,1056,568,0,0
-161,456,0,0,0,0,0,0,0,0,0,-1,1063,568,0,0
-154,456,0,0,0,0,0,0,0,0,0,-1,1070,568,0,0
-147,456,0,0,0,0,0,0,0,0,0,-1,1077,568,0,0
-140,456,0,0,0,0,0,0,0,0,0,-1,1084,568,0,0
-133,456,0,0,0,0,0,0,0,0,0,-1,1091,568,0,0
-126,456,0,0,0,0,0,0,0,0,0,-1,1098,568,0,0
-119,456,0,0,0,0,0,0,0,0,0,-1,1105,568,0,0
-112,456,0,0,0,0,0,0,0,0,0,-1,1112,568,0,0
-105,456,0,0,0,0,0,0,0,0,0,-1,1119,568,0,0
-98,456,0,0,0,0,0,0,0,0,0,-1,1126,568,0,0
-91,456,0,0,0,0,0,0,0,0,0,-1,1133,568,0,0
-84,456,0,0,0,0,0,0,0,0,0,-1,1140,568,0,0
-77,456,0,0,0,0,0,0,0,0,0,-1,1147,568,0,0
-70,456,0,0,0,0,0,0,0,0,0,-1,1154,568,0,0
-63,456,0,0,0,0,0,0,0,0,0,-1,1161,568,0,0
-56,456,0,0,0,0,0,0,0,0,0,-1,1168,568,0,0
-49,456,0,0,0,0,0,0,0,0,0,-1,1175,568,0,0
-42,456,0,0,0,0,0,0,0,0,0,-1,1182,568,0,0
-35,456,0,0,0,0,0,0,0,0,0,-1,1189,568,0,0
-28,456,0,0,0,0,0,0,0,0,0,-1,1196,568,0,0
-21,456,0,0,0,0,0,0,0,0,0,-1,1203,568,0,0
-14,456,0,0,0,0,0,0,0,0,0,-1,1210,568,0,0
-7,456,0,0,0,0,0,0,0,0,0,-1,1217,568,0,0
0,456,0,0,0,0,0,0,0,0,0,-1,1224,568,0,0
7,456,0,0,0,0,0,0,0,0,0,-1,1231,568,0,0
14,456,0,0,0,0,0,0,0,0,0,-1,1238,568,0,0
21,456,0,0,0,0,0,0,0,0,0,-1,1245,568,0,0
28,456,0,0,0,0,0,0,0,0,0,-1,1252,568,0,0
35,456,0,0,0,0,0,0,0,0,0,-1,1259,568,0,0
42,456,0,0,0,0,0,0,0,0,0,-1,1266,568,0,0
49,456,0,0,0,0,0,0,0,0,0,-1,1273,568,0,0
56,456,0,0,0,0,0,0,0,0,0,-1,1280,568,0,0
63,456,0,0,0,0,0,0,0,0,0,-1,1287,568,0,0
70,456,0,0,0,0,0,0,0,0,0,-1,1294,568,0,0
77,456,0,0,0,0,0,0,0,0,0,-1,1301,568,0,0
84,456,0,0,0,0,0,0,0,0,0,-1,1308,568,0,0
91,456,0,0,0,0,0,0,0,0,0,-1,1315,568,0,0
98,456,0,0,0,0,0,0,0,0,0,-1,1322,568,0,0
105,456,0,0,0,0,0,0,0,0,0,-1,1329,568,0,0
112,456,0,0,0,0,0,0,0,0,0,-1,1336,568,0,0
119,456,0,0,0,0,0,0,0,0,0,-1,1343,568,0,0
126,456,0,0,0,0,0,0,0,0,0,-1,1350,568,0,0
133,456,0,0,0,0,0,0,0,0,0,-1,1357,568,0,0
140,456,0,0,0,0,0,0,0,0,0,-1,1364,568,0,0
147,456,0,0,0,0,0,0,0,0,0,-1,1371,568,0,0
154,456,0,0,0,0,0,0,0,0,0,-1,1378,568,0,0
161,456,0,0,0,0,0,0,0,0,0,-1,1385,568,0,0
168,456,0,0,0,0,0,0,0,0,0,-1,1392,568,0,0
175,456,0,0,0,0,0,0,0,0,0,-1,1399,568,0,0
182,456,0,0,0,0,0,0,0,0,0,-1,1406,568,0,0
189,456,0,0,0,0,0,0,0,0,0,-1,1413,568,0,0
196,456,0,0,0,0,0,0,0,0,0,-1,1420,568,0,0
203,456,0,0,0,0,0,0,0,0,0,-1,1427,568,0,0
210,456,0,0,0,0,0,0,0,0,0,-1,1434,568,0,0
217,456,0,0,0,0,0,0,0,0,0,-1,1441,568,0,0
224,456,0,0,0,0,0,0,0,0,0,-1,1448,568,0,0
231,456,0,0,0,0,0,0,0,0,0,-1,1455,568,0,0
238,456,0,0,0,0,0,0,0,0,0,-1,1462,568,0,0
245,456,0,0,0,0,0,0,0,0,0,-1,1469,568,0,0
252,456,0,0,0,0,0,0,0,0,0,-1,1476,568,0,0
259,456,0,0,0,0,0,0,0,0,0,-1,1483,568,0,0
266,456,0,0,0,0,0,0,0,0,0,-1,1490,568,0,0
273,456,0,0,0,0,0,0,0,0,0,-1,1497,568,0,0
280,456,0,0,0,0,0,0,0,0,0,-1,1504,568,0,0
287,456,0,0,0,0,0,0,0,0,0,-1,1511,568,0,0
294,456,0,0,0,0,0,0,0,0,0,-1,1518,568,0,0
301,456,0,0,0,0,0,0,0,0,0,-1,1525,568,0,0
308,456,0,0,0,0,0,0,0,0,0,-1,1532,568,0,0
315,456,0,0,0,0,0,0,0,0,0,-1,1539,568,0,0
322,456,0,0,0,0,0,0,0,0,0,-1,1546,568,0,0
329,456,0,0,0,0,0,0,0,0,0,-1,1553,568,0,0
336,456,0,0,0,0,0,0,0,0,0,-1,1560,568,0,0
343,456,0,0,0,0,0,0,0,0,0,-1,1567,568,0,0
350,456,0,0,0,0,0,0,0,0,0,-1,1574,568,0,0
357,456,0,0,0,0,0,0,0,0,0,-1,1581,568,0,0
364,456,0,0,0,0,0,0,0,0,0,-1,1588,568,0,0
371,456,0,0,0,0,0,0,0,0,0,-1,1595,568,0,0
378,456,0,0,0,0,0,0,0,0,0,-1,1602,568,0,0
385,456,5.23877,0.759033,0,0,0,0,0,0,0,-1,1609,568,5.23882,-0.75901
392,456,5.78467,0.77478,0.109891,0.0272814,0.0293623,0.119264,0.0179085,0.308992,0.074263,0.0449885,1616,568,5.78462,-0.774806
399,456,6.6438,1.06775,0.101899,0.027115,0.0277372,0.111064,0.0179505,0.319113,0.0688436,0.0442732,1623,568,6.64374,-1.06772
406,456,7.7373,1.47168,0,0,0,0,0,0,0,-1,1630,568,7.73725,-1.47166
413,456,6.49451,1.33069,0,0,0,0,0,0,0,-1,1637,568,6.49445,-1.33068
420,456,6.33875,1.88824,0,0,0,0,0,0,0,-1,1644,568,6.33876,-1.88827
427,456,6.21375,2.02905,0,0,0,0,0,0,0,-1,1651,568,6.21372,-2.02904
434,456,3.0719,-4.86285,0,0,0,0,0,0,0,-1,1658,568,3.07184,4.86287
441,456,2.90344,-4.70459,0,0,0,0,0,0,0,-1,1665,568,2.90346,4.7046
448,456,3.06995,-4.93689,0.0312434,0.0449091,0.0168715,0.0562788,0.0198736,0.9778,0.0329565,0.0463464,1672,568,3.06991,4.93687
455,456,3.46582,-3.43701,0.0218388,0.0460476,0.0156661,0.0537408,0.0141456,1.11432,0.032166,0.044396,1679,568,3.46585,3.43698
462,456,3.54932,-2.14648,0.0186519,0.0369597,0.0131264,0.0438088,0.0118027,1.08988,0.0261742,0.046354,1686,568,3.54938,2.1465
469,456,3.75342,-1.7179,0,0,0,0,0,0,0,-1,1693,568,3.75348,1.71788
476,456,3.43274,-1.20483,0.0131813,0.0199076,0.00795853,0.0251844,0.00790451,0.98531,0.0148723,0.042241,1700,568,3.43278,1.20485
483,456,3.49292,-1.2912,0.0108085,0.0132793,0.00589233,0.0180644,0.00602346,0.888735,0.0106206,0.0423118,1707,568,3.49289,1.29119
490,456,3.5791,-1.35217,0.00869012,0.00827325,0.00415427,0.0126412,0.00432219,0.760332,0.00741899,0.0266469,1714,568,3.57911,1.35218
497,456,3.56165,-1.17657,0.00679074,0.00451213,0.00274862,0.00862683,0.00267604,0.588926,0.00509891,0.0143082,1721,568,3.56168,1.17657
504,456,3.57227,-1.07037,0.00485755,0.00176362,0.00164036,0.00556533,0.00105584,0.407346,0.00341315,0.010247,1728,568,3.57228,1.07036
511,456,3.56323,-0.988647,0.0035463,-0.000497604,0.000800976,0.00369918,-0.000650474,0.188587,0.0027091,0.0130592,1735,568,3.56328,0.988623
518,456,3.56653,-0.899597,0.00254961,-0.00178279,0.000403918,0.00258694,-0.00182013,0.0921734,0.00255723,0.0153518,1742,568,3.56656,0.899582
525,456,3.56201,-0.839355,0.00203756,-0.00112336,0.000692786,0.00218274,-0.00126853,0.206559,0.00201576,0.0151573,1749,568,3.56203,0.839356
532,456,3.56079,-0.771301,0.00170519,-0.000331161,0.00109437,0.00218178,-0.000807751,0.410725,0.00178574,0.0138458,1756,568,3.56076,0.771325
539,456,3.5636,-0.694458,0.00163952,0.000985355,0.00195176,0.00329142,-0.000666539,0.702378,0.00244691,0.0161627,1763,568,3.56357,0.694467
546,456,3.58838,-0.657227,0.0021671,0.00252839,0.00299775,0.00535093,-0.000655448,0.815492,0.00380464,0.0180522,1770,568,3.58839,0.657252
553,456,3.58899,-0.563965,0.00393587,0.00541258,0.00463105,0.00936377,-1.53147e-05,0.864451,0.00624762,0.012451,1777,568,3.58903,0.563951
560,456,3.58179,-0.472168,0.00688419,0.0112761,0.00665343,0.0160866,0.0020737,0.944794,0.0101043,0.0103097,1784,568,3.5818,0.472191
567,456,3.57288,-0.396118,0.0107144,0.0184259,0.0101413,0.0254197,0.00372055,0.96706,0.0158525,0.0101589,1791,568,3.57287,0.396095
574,456,3.56433,-0.375305,0.0156537,0.0287898,0.014995,0.0385921,0.00585141,0.991819,0.0240164,0.0172468,1798,568,3.56433,0.375318
581,456,3.61633,-0.321594,0.0218419,0.0414509,0.0205661,0.05443,0.00886283,1.00783,0.0337228,0.0364264,1805,568,3.61637,0.321571
588,456,3.771,0.611145,0.0292431,0.0577786,0.0276547,0.0746292,0.0123926,1.02355,0.0461796,0.046803,1812,568,3.77102,-0.611136
595,456,3.85376,1.30835,0,0,0,0,0,0,0,-1,1819,568,3.85382,-1.30833
602,456,5.15039,1.57446,0.047565,0.101668,0.0466376,0.128532,0.0207014,1.0482,0.0796888,0.0415667,1826,568,5.15036,-1.57446
609,456,5.91809,1.96783,0.0574137,0.128677,0.0580498,0.161159,0.0249323,1.06066,0.100168,0.0439303,1833,568,5.91806,-1.96785
616,456,6.40125,2.02795,0.0664466,0.155666,0.0711516,0.195036,0.0270766,1.0654,0.122004,0.0487013,1840,568,6.4012,-2.02795
623,456,6.69336,2.3103,0.0725535,0.182763,0.0842095,0.228295,0.0270214,1.07512,0.144037,0.0476282,1847,568,6.6934,-2.31029
630,456,0,0,0,0,0,0,0,0,0,-1,1854,568,0,0
637,456,0,0,0,0,0,0,0,0,0,-1,1861,568,0,0
644,456,0,0,0,0,0,0,0,0,0,-1,1868,568,0,0
651,456,0,0,0,0,0,0,0,0,0,-1,1875,568,0,0
658,456,0,0,0,0,0,0,0,0,0,-1,1882,568,0,0
665,456,0,0,0,0,0,0,0,0,0,-1,1889,568,0,0
672,456,0,0,0,0,0,0,0,0,0,-1,1896,568,0,0
679,456,0,0,0,0,0,0,0,0,0,-1,1903,568,0,0
686,456,0,0,0,0,0,0,0,0,0,-1,1910,568,0,0
693,456,0,0,0,0,0,0,0,0,0,-1,1917,568,0,0
700,456,0,0,0,0,0,0,0,0,0,-1,1924,568,0,0
707,456,0,0,0,0,0,0,0,0,0,-1,1931,568,0,0
714,456,0,0,0,0,0,0,0,0,0,-1,1938,568,0,0
721,456,0,0,0,0,0,0,0,0,0,-1,1945,568,0,0
728,456,0,0,0,0,0,0,0,0,0,-1,1952,568,0,0
735,456,0,0,0,0,0,0,0,0,0,-1,1959,568,0,0
742,456,0,0,0,0,0,0,0,0,0,-1,1966,568,0,0
749,456,0,0,0,0,0,0,0,0,0,-1,1973,568,0,0
756,456,0,0,0,0,0,0,0,0,0,-1,1980,568,0,0
763,456,0,0,0,0,0,0,0,0,0,-1,1987,568,0,0
770,456,0,0,0,0,0,0,0,0,0,-1,1994,568,0,0
777,456,0,0,0,0,0,0,0,0,0,-1,2001,568,0,0
784,456,0,0,0,0,0,0,0,0,0,-1,2008,568,0,0
791,456,0,0,0,0,0,0,0,0,0,-1,2015,568,0,0
798,456,0,0,0,0,0,0,0,0,0,-1,2022,568,0,0
805,456,0,0,0,0,0,0,0,0,0,-1,2029,568,0,0
812,456,0,0,0,0,0,0,0,0,0,-1,2036,568,0,0
-700,449,0,0,0,0,0,0,0,0,0,-1,524,575,0,0
-693,449,0,0,0,0,0,0,0,0,0,-1,531,575,0,0
-686,449,0,0,0,0,0,0,0,0,0,-1,538,575,0,0
-679,449,0,0,0,0,0,0,0,0,0,-1,545,575,0,0
-672,449,0,0,0,0,0,0,0,0,0,-1,552,575,0,0
-665,449,0,0,0,0,0,0,0,0,0,-1,559,575,0,0
-658,449,0,0,0,0,0,0,0,0,0,-1,566,575,0,0
-651,449,0,0,0,0,0,0,0,0,0,-1,573,575,0,0
-644,449,0,0,0,0,0,0,0,0,0,-1,580,575,0,0
-637,449,0,0,0,0,0,0,0,0,0,-1,587,575,0,0
-630,449,0,0,0,0,0,0,0,0,0,-1,594,575,0,0
-623,449,0,0,0,0,0,0,0,0,0,-1,601,575,0,0
-616,449,0,0,0,0,0,0,0,0,0,-1,608,575,0,0
-609,449,0,0,0,0,0,0,0,0,0,-1,615,575,0,0
-602,449,0,0,0,0,0,0,0,0,0,-1,622,575,0,0
-595,449,0,0,0,0,0,0,0,0,0,-1,629,575,0,0
-588,449,0,0,0,0,0,0,0,0,0,-1,636,575,0,0
-581,449,0,0,0,0,0,0,0,0,0,-1,643,575,0,0
-574,449,0,0,0,0,0,0,0,0,0,-1,650,575,0,0
-567,449,0,0,0,0,0,0,0,0,0,-1,657,575,0,0
-560,449,0,0,0,0,0,0,0,0,0,-1,664,575,0,0
-553,449,0,0,0,0,0,0,0,0,0,-1,671,575,0,0
-546,449,0,0,0,0,0,0,0,0,0,-1,678,575,0,0
-539,449,0,0,0,0,0,0,0,0,0,-1,685,575,0,0
-532,449,0,0,0,0,0,0,0,0,0,-1,692,575,0,0
-525,449,0,0,0,0,0,0,0,0,0,-1,699,575,0,0
-518,449,0,0,0,0,0,0,0,0,0,-1,706,575,0,0
-511,449,3.17346,1.76904,0,0,0,0,0,0,0,-1,713,575,3.17349,-1.76901
-504,449,2.51068,1.14069,0,0,0,0,0,0,0,-1,720,575,2.51066,-1.14067
-497,449,1.75238,0.601746,0,0,0,0,0,0,0,-1,727,575,1.75237,-0.601744
-490,449,-0.780457,-0.0761719,0,0,0,0,0,0,0,-1,734,575,-0.780474,0.0761595
-483,449,-0.6026,-0.264832,0,0,0,0,0,0,0,-1,741,575,-0.60257,0.264809
-476,449,-0.708618,-0.0708618,0,0,0,0,0,0,0,-1,748,575,-0.708645,0.0708436
-469,449,-0.337097,-0.0858154,0.0217377,-0.000319922,-0.018002,0.0318206,-0.0104028,-0.510566,0.0254016,0.0453195,755,575,-0.337082,0.0858153
-462,449,0.215881,-0.392395,0.0189779,0.000948772,-0.0150339,0.0274927,-0.00756607,-0.51533,0.0213032,0.0429121,762,575,0.215901,0.39239
-455,449,0.44574,-0.513428,0.0161163,0.00154621,-0.0121111,0.0229645,-0.00530205,-0.514631,0.0173492,0.032286,769,575,0.445726,0.513443
-448,449,0.574158,-0.576294,0.0133446,0.00162237,-0.00944958,0.0186032,-0.00363618,-0.507809,0.0137751,0.0174314,776,575,0.574154,0.576274
-441,449,0.597839,-0.68988,0.0108813,0.00163954,-0.00724752,0.0148558,-0.00233486,-0.5016,0.0107668,0.0124702,783,575,0.597866,0.689879
-434,449,0.582642,-0.721008,0.00851235,0.00154093,-0.00534642,0.011409,-0.00135571,-0.496518,0.00809582,0.0114933,790,575,0.582655,0.721019
-427,449,0.57428,-0.779907,0.00628608,0.00145526,-0.00373177,0.00831593,-0.000574588,-0.498176,0.00574507,0.0122862,797,575,0.574266,0.779928
-420,449,0.586304,-0.857056,0.00462145,0.00155799,-0.00200859,0.00561571,0.000563721,-0.459644,0.00357076,0.0129741,804,575,0.586305,0.857034
-413,449,0.586426,-0.922241,0.00323863,0.00132943,-0.000296623,0.00328366,0.00128441,-0.150636,0.00191074,0.0100226,811,575,0.586429,0.922255
-406,449,0.565186,-1.00421,0.00198243,0.00132572,0.000757029,0.00247925,0.000828905,0.580774,0.00145735,0.00930181,818,575,0.565166,1.00421
-399,449,0.560425,-1.08813,0.00105176,0.00134692,0.00169527,0.00290102,-0.000502339,0.828816,0.00212138,0.00918996,825,575,0.560447,1.08813
-392,449,0.586121,-1.1521,5.66252e-05,0.00160096,0.00267032,0.00360852,-0.00195093,0.926143,0.00325696,0.00968033,832,575,0.586121,1.1521
-385,449,0.588806,-1.21558,-0.00100031,0.00195334,0.00361147,0.00437827,-0.00342524,0.979487,0.00451655,0.0101501,839,575,0.58879,1.2156
-378,449,0.567322,-1.27594,-0.00212553,0.00251416,0.00448732,0.00524583,-0.00485719,1.02397,0.00583442,0.00958298,846,575,0.567311,1.27595
-371,449,0.564087,-1.34894,-0.0030736,0.00276458,0.00544943,0.0060275,-0.00633653,1.03129,0.00713912,0.0107561,853,575,0.564067,1.34895
-364,449,0.592712,-1.44604,-0.004169,0.00328469,0.00649188,0.00704342,-0.00792773,1.04597,0.00864862,0.0203711,860,575,0.592698,1.44606
-357,449,0.620239,-1.51953,-0.0055996,0.00377302,0.00759756,0.00801333,-0.00983991,1.06175,0.0103255,0.0324167,867,575,0.620264,1.51956
-350,449,0.739014,-1.3606,-0.00720354,0.00399148,0.00865833,0.0087041,-0.0119162,1.07235,0.0119532,0.0439681,874,575,0.739042,1.3606
-343,449,0.909363,-1.25854,0,0,0,0,0,0,0,-1,881,575,0.909386,1.25854
-336,449,0.571838,-1.59998,0,0,0,0,0,0,0,-1,888,575,0.571808,1.59998
-329,449,0.740662,-1.77753,0,0,0,0,0,0,0,-1,895,575,0.740654,1.77754
-322,449,0.92627,-1.49365,-0.00727741,0.0174257,0.00425273,0.0181373,-0.00798903,1.405,0.0154587,0.0451573,902,575,0.926265,1.49367
-315,449,1.07654,-1.46411,-0.0084154,0.026045,0.000876153,0.0260673,-0.00843766,1.54539,0.0207701,0.043962,909,575,1.07654,1.46411
-308,449,1.21448,-1.48724,0,0,0,0,0,0,0,-1,916,575,1.21447,1.48723
-301,449,-1.91193,4.51648,0,0,0,0,0,0,0,-1,923,575,-1.91191,-4.51645
-294,449,-1.75946,2.22076,-0.00694379,0.0674156,-0.0122674,0.0693871,-0.00891534,-1.41145,0.0494982,0.0468508,930,575,-1.75949,-2.22075
-287,449,-1.51166,0.437561,-0.00396534,0.0849632,-0.0175521,0.0883021,-0.0073043,-1.38281,0.0614477,0.0492247,937,575,-1.51164,-0.437574
-280,449,-1.1792,-0.357605,0,0,0,0,0,0,0,-1,944,575,-1.17921,0.357613
-273,449,0,0,0,0,0,0,0,0,0,-1,951,575,0,0
-266,449,0,0,0,0,0,0,0,0,0,-1,958,575,0,0
-259,449,0,0,0,0,0,0,0,0,0,-1,965,575,0,0
-252,449,0,0,0,0,0,0,0,0,0,-1,972,575,0,0
-245,449,0,0,0,0,0,0,0,0,0,-1,979,575,0,0
-238,449,0,0,0,0,0,0,0,0,0,-1,986,575,0,0
-231,449,0,0,0,0,0,0,0,0,0,-1,993,575,0,0
-224,449,0,0,0,0,0,0,0,0,0,-1,1000,575,0,0
-217,449,0,0,0,0,0,0,0,0,0,-1,1007,575,0,0
-210,449,0,0,0,0,0,0,0,0,0,-1,1014,575,0,0
-203,449,0,0,0,0,0,0,0,0,0,-1,1021,575,0,0
-196,449,0,0,0,0,0,0,0,0,0,-1,1028,575,0,0
-189,449,0,0,0,0,0,0,0,0,0,-1,1035,575,0,0
-182,449,0,0,0,0,0,0,0,0,0,-1,1042,575,0,0
-175,449,0,0,0,0,0,0,0,0,0,-1,1049,575,0,0
-168,449,0,0,0,0,0,0,0,0,0,-1,1056,575,0,0
-161,449,0,0,0,0,0,0,0,0,0,-1,1063,575,0,0
-154,449,0,0,0,0,0,0,0,0,0,-1,1070,575,0,0
-147,449,0,0,0,0,0,0,0,0,0,-1,1077,575,0,0
-140,449,0,0,0,0,0,0,0,0,0,-1,1084,575,0,0
-133,449,0,0,0,0,0,0,0,0,0,-1,1091,575,0,0
-126,449,0,0,0,0,0,0,0,0,0,-1,1098,575,0,0
-119,449,0,0,0,0,0,0,0,0,0,-1,1105,575,0,0
-112,449,0,0,0,0,0,0,0,0,0,-1,1112,575,0,0
-105,449,0,0,0,0,0,0,0,0,0,-1,1119,575,0,0
-98,449,0,0,0,0,0,0,0,0,0,-1,1126,575,0,0
-91,449,0,0,0,0,0,0,0,0,0,-1,1133,575,0,0
-84,449,0,0,0,0,0,0,0,0,0,-1,1140,575,0,0
-77,449,0,0,0,0,0,0,0,0,0,-1,1147,575,0,0
-70,449,0,0,0,0,0,0,0,0,0,-1,1154,575,0,0
-63,449,0,0,0,0,0,0,0,0,0,-1,1161,575,0,0
-56,449,0,0,0,0,0,0,0,0,0,-1,1168,575,0,0
-49,449,0,0,0,0,0,0,0,0,0,-1,1175,575,0,0
-42,449,0,0,0,0,0,0,0,0,0,-1,1182,575,0,0
-35,449,0,0,0,0,0,0,0,0,0,-1,1189,575,0,0
-28,449,0,0,0,0,0,0,0,0,0,-1,1196,575,0,0
-21,449,0,0,0,0,0,0,0,0,0,-1,1203,575,0,0
-14,449,0,0,0,0,0,0,0,0,0,-1,1210,575,0,0
-7,449,0,0,0,0,0,0,0,0,0,-1,1217,575,0,0
0,449,0,0,0,0,0,0,0,0,0,-1,1224,575,0,0
7,449,0,0,0,0,0,0,0,0,0,-1,1231,575,0,0
14,449,0,0,0,0,0,0,0,0,0,-1,1238,575,0,0
21,449,0,0,0,0,0,0,0,0,0,-1,1245,575,0,0
28,449,0,0,0,0,0,0,0,0,0,-1,1252,575,0,0
35,449,0,0,0,0,0,0,0,0,0,-1,1259,575,0,0
42,449,0,0,0,0,0,0,0,0,0,-1,1266,575,0,0
49,449,0,0,0,0,0,0,0,0,0,-1,1273,575,0,0
56,449,0,0,0,0,0,0,0,0,0,-1,1280,575,0,0
63,449,0,0,0,0,0,0,0,0,0,-1,1287,575,0,0
70,449,0,0,0,0,0,0,0,0,0,-1,1294,575,0,0
77,449,0,0,0,0,0,0,0,0,0,-1,1301,575,0,0
84,449,0,0,0,0,0,0,0,0,0,-1,1308,575,0,0
91,449,0,0,0,0,0,0,0,0,0,-1,1315,575,0,0
98,449,0,0,0,0,0,0,0,0,0,-1,1322,575,0,0
105,449,0,0,0,0,0,0,0,0,0,-1,1329,575,0,0
112,449,0,0,0,0,0,0,0,0,0,-1,1336,575,0,0
119,449,0,0,0,0,0,0,0,0,0,-1,1343,575,0,0
126,449,0,0,0,0,0,0,0,0,0,-1,1350,575,0,0
133,449,0,0,0,0,0,0,0,0,0,-1,1357,575,0,0
140,449,0,0,0,0,0,0,0,0,0,-1,1364,575,0,0
147,449,0,0,0,0,0,0,0,0,0,-1,1371,575,0,0
154,449,0,0,0,0,0,0,0,0,0,-1,1378,575,0,0
161,449,0,0,0,0,0,0,0,0,0,-1,1385,575,0,0
168,449,0,0,0,0,0,0,0,0,0,-1,1392,575,0,0
175,449,0,0,0,0,0,0,0,0,0,-1,1399,575,0,0
182,449,0,0,0,0,0,0,0,0,0,-1,1406,575,0,0
189,449,0,0,0,0,0,0,0,0,0,-1,1413,575,0,0
196,449,0,0,0,0,0,0,0,0,0,-1,1420,575,0,0
203,449,0,0,0,0,0,0,0,0,0,-1,1427,575,0,0
210,449,0,0,0,0,0,0,0,0,0,-1,1434,575,0,0
217,449,0,0,0,0,0,0,0,0,0,-1,1441,575,0,0
224,449,0,0,0,0,0,0,0,0,0,-1,1448,575,0,0
231,449,0,0,0,0,0,0,0,0,0,-1,1455,575,0,0
238,449,0,0,0,0,0,0,0,0,0,-1,1462,575,0,0
245,449,0,0,0,0,0,0,0,0,0,-1,1469,575,0,0
252,449,0,0,0,0,0,0,0,0,0,-1,1476,575,0,0
259,449,0,0,0,0,0,0,0,0,0,-1,1483,575,0,0
266,449,0,0,0,0,0,0,0,0,0,-1,1490,575,0,0
273,449,0,0,0,0,0,0,0,0,0,-1,1497,575,0,0
280,449,0,0,0,0,0,0,0,0,0,-1,1504,575,0,0
287,449,0,0,0,0,0,0,0,0,0,-1,1511,575,0,0
294,449,0,0,0,0,0,0,0,0,0,-1,1518,575,0,0
301,449,0,0,0,0,0,0,0,0,0,-1,1525,575,0,0
308,449,0,0,0,0,0,0,0,0,0,-1,1532,575,0,0
315,449,0,0,0,0,0,0,0,0,0,-1,1539,575,0,0
322,449,0,0,0,0,0,0,0,0,0,-1,1546,575,0,0
329,449,0,0,0,0,0,0,0,0,0,-1,1553,575,0,0
336,449,0,0,0,0,0,0,0,0,0,-1,1560,575,0,0
343,449,0,0,0,0,0,0,0,0,0,-1,1567,575,0,0
350,449,0,0,0,0,0,0,0,0,0,-1,1574,575,0,0
357,449,0,0,0,0,0,0,0,0,0,-1,1581,575,0,0
364,449,0,0,0,0,0,0,0,0,0,-1,1588,575,0,0
371,449,0,0,0,0,0,0,0,0,0,-1,1595,575,0,0
378,449,0,0,0,0,0,0,0,0,0,-1,1602,575,0,0
385,449,0,0,0,0,0,0,0,0,0,-1,1609,575,0,0
392,449,5.19556,0.554199,0,0,0,0,0,0,0,-1,1616,575,5.1956,-0.554221
399,449,6.32532,0.979004,0,0,0,0,0,0,0,-1,1623,575,6.32529,-0.979024
406,449,6.0885,2.41937,0,0,0,0,0,0,0,-1,1630,575,6.08846,-2.41938
413,449,6.79773,1.49658,0,0,0,0,0,0,0,-1,1637,575,6.79772,-1.49658
420,449,4.70264,2.21893,0,0,0,0,0,0,0,-1,1644,575,4.70263,-2.21894
427,449,8.96924,-4.53351,0,0,0,0,0,0,0,-1,1651,575,8.96925,4.53353
434,449,4.12927,-7.06952,0,0,0,0,0,0,0,-1,1658,575,4.12932,7.06952
441,449,3.89856,-6.06458,0,0,0,0,0,0,0,-1,1665,575,3.89855,6.06459
448,449,4.03198,-5.18207,0.0407662,0.0588727,0.0227017,0.0742598,0.0253791,0.975131,0.0435837,0.0476949,1672,575,4.03197,5.18207
455,449,4.21948,-4.09467,0.029679,0.0598028,0.0212007,0.0707473,0.0187345,1.09425,0.0423254,0.0453129,1679,575,4.21952,4.09465
462,449,4.23181,-2.96924,0.0254898,0.0473319,0.017529,0.0570636,0.0157581,1.06399,0.0340285,0.0466535,1686,575,4.23185,2.96926
469,449,4.26147,-1.85266,0,0,0,0,0,0,0,-1,1693,575,4.26154,1.85266
476,449,3.40735,-1.01984,0,0,0,0,0,0,0,-1,1700,575,3.40739,1.01983
483,449,3.80737,-1.23022,0.0145126,0.0164862,0.0076306,0.0231935,0.00780524,0.849703,0.0136273,0.0461906,1707,575,3.80734,1.23025
490,449,3.85107,-1.18945,0.0114738,0.0100196,0.00527211,0.0160687,0.00542471,0.716872,0.00943901,0.0412208,1714,575,3.8511,1.18946
497,449,3.64929,-1.0849,0.0088113,0.00520317,0.00336206,0.0108227,0.00319173,0.539152,0.00642134,0.0280668,1721,575,3.64925,1.08488
504,449,3.60486,-1.07758,0.00621073,0.00179653,0.00180957,0.00685772,0.00114954,0.343376,0.00424089,0.016013,1728,575,3.60489,1.07756
511,449,3.63635,-1.0174,0.00439106,-0.0011469,0.000640507,0.00446417,-0.00122002,0.113658,0.00345534,0.0101511,1735,575,3.63641,1.01737
518,449,3.62927,-0.926147,0.00298761,-0.00284406,-5.71574e-06,0.00298761,-0.00284406,-0.000980119,0.00336726,0.0122111,1742,575,3.62929,0.926124
525,449,3.62085,-0.852539,0.00216806,-0.00214309,0.00016083,0.00217406,-0.00214908,0.0372366,0.00249598,0.0116647,1749,575,3.62088,0.852547
532,449,3.61853,-0.797363,0.00159907,-0.0013064,0.000433341,0.00166232,-0.00136965,0.144945,0.00175323,0.00995074,1756,575,3.61854,0.797348
539,449,3.62488,-0.704651,0.00132896,-7.7567e-05,0.00113601,0.00196177,-0.000710377,0.508238,0.00159816,0.0114891,1763,575,3.62488,0.704643
546,449,3.64331,-0.644165,0.00167365,0.00136907,0.0019922,0.00351937,-0.000476652,0.747251,0.0025202,0.0190522,1770,575,3.64328,0.644142
553,449,3.64417,-0.558594,0.0030448,0.00389863,0.00331632,0.00681539,0.000128032,0.849412,0.00450153,0.0144165,1777,575,3.64415,0.558581
560,449,3.65393,-0.489075,0.00553874,0.0089566,0.00499626,0.0125281,0.00196723,0.950182,0.00777969,0.0133374,1784,575,3.65398,0.489096
567,449,3.63892,-0.409729,0.0088378,0.0149479,0.00787952,0.0203439,0.00344181,0.970336,0.0125734,0.00988126,1791,575,3.63889,0.409747
574,449,3.63904,-0.331482,0.0130925,0.0235008,0.0118638,0.0312517,0.00534161,0.992088,0.0193019,0.0116783,1798,575,3.63905,0.33149
581,449,3.63025,-0.253174,0.0182925,0.0337839,0.0163451,0.0441257,0.00795067,1.00667,0.0271577,0.0201405,1805,575,3.63021,0.253147
588,449,3.62646,-0.139893,0.0243579,0.0469587,0.0219628,0.0603578,0.0109588,1.023,0.0371287,0.0329132,1812,575,3.6265,0.139864
595,449,4.19275,0.391602,0.0314697,0.063237,0.0287943,0.080238,0.0144687,1.03744,0.0493808,0.0396063,1819,575,4.19269,-0.391588
602,449,4.73962,0.698303,0.0393199,0.0824779,0.0369417,0.103681,0.0181163,1.04973,0.0639434,0.0426138,1826,575,4.73968,-0.698276
609,449,4.99341,0.868774,0.04716,0.104214,0.0460736,0.129877,0.0214969,1.06259,0.080383,0.0454963,1833,575,4.99345,-0.868754
616,449,5.31897,1.15198,0.0539693,0.126473,0.0563622,0.157236,0.0232071,1.07119,0.0980082,0.0482798,1840,575,5.31901,-1.15196
623,449,5.5387,1.22491,0.0579495,0.148876,0.0666713,0.18411,0.0227161,1.08464,0.115912,0.0461726,1847,575,5.53867,-1.22493
630,449,5.87805,1.35144,0,0,0,0,0,0,0,-1,1854,575,5.87803,-1.35144
637,449,0,0,0,0,0,0,0,0,0,-1,1861,575,0,0
644,449,0,0,0,0,0,0,0,0,0,-1,1868,575,0,0
651,449,0,0,0,0,0,0,0,0,0,-1,1875,575,0,0
658,449,0,0,0,0,0,0,0,0,0,-1,1882,575,0,0
665,449,0,0,0,0,0,0,0,0,0,-1,1889,575,0,0
672,449,0,0,0,0,0,0,0,0,0,-1,1896,575,0,0
679,449,0,0,0,0,0,0,0,0,0,-1,1903,575,0,0
686,449,0,0,0,0,0,0,0,0,0,-1,1910,575,0,0
693,449,0,0,0,0,0,0,0,0,0,-1,1917,575,0,0
700,449,0,0,0,0,0,0,0,0,0,-1,1924,575,0,0
707,449,0,0,0,0,0,0,0,0,0,-1,1931,575,0,0
714,449,0,0,0,0,0,0,0,0,0,-1,1938,575,0,0
721,449,0,0,0,0,0,0,0,0,0,-1,1945,575,0,0
728,449,0,0,0,0,0,0,0,0,0,-1,1952,575,0,0
735,449,0,0,0,0,0,0,0,0,0,-1,1959,575,0,0
742,449,0,0,0,0,0,0,0,0,0,-1,1966,575,0,0
749,449,0,0,0,0,0,0,0,0,0,-1,1973,575,0,0
756,449,0,0,0,0,0,0,0,0,0,-1,1980,575,0,0
763,449,0,0,0,0,0,0,0,0,0,-1,1987,575,0,0
770,449,0,0,0,0,0,0,0,0,0,-1,1994,575,0,0
777,449,0,0,0,0,0,0,0,0,0,-1,2001,575,0,0
784,449,0,0,0,0,0,0,0,0,0,-1,2008,575,0,0
791,449,0,0,0,0,0,0,0,0,0,-1,2015,575,0,0
798,449,0,0,0,0,0,0,0,0,0,-1,2022,575,0,0
805,449,0,0,0,0,0,0,0,0,0,-1,2029,575,0,0
812,449,0,0,0,0,0,0,0,0,0,-1,2036,575,0,0
-700,442,0,0,0,0,0,0,0,0,0,-1,524,582,0,0
-693,442,0,0,0,0,0,0,0,0,0,-1,531,582,0,0
-686,442,0,0,0,0,0,0,0,0,0,-1,538,582,0,0
-679,442,0,0,0,0,0,0,0,0,0,-1,545,582,0,0
-672,442,0,0,0,0,0,0,0,0,0,-1,552,582,0,0
-665,442,0,0,0,0,0,0,0,0,0,-1,559,582,0,0
-658,442,0,0,0,0,0,0,0,0,0,-1,566,582,0,0
-651,442,0,0,0,0,0,0,0,0,0,-1,573,582,0,0
-644,442,0,0,0,0,0,0,0,0,0,-1,580,582,0,0
-637,442,0,0,0,0,0,0,0,0,0,-1,587,582,0,0
-630,442,0,0,0,0,0,0,0,0,0,-1,594,582,0,0
-623,442,0,0,0,0,0,0,0,0,0,-1,601,582,0,0
-616,442,0,0,0,0,0,0,0,0,0,-1,608,582,0,0
-609,442,0,0,0,0,0,0,0,0,0,-1,615,582,0,0
-602,442,0,0,0,0,0,0,0,0,0,-1,622,582,0,0
-595,442,0,0,0,0,0,0,0,0,0,-1,629,582,0,0
-588,442,0,0,0,0,0,0,0,0,0,-1,636,582,0,0
-581,442,0,0,0,0,0,0,0,0,0,-1,643,582,0,0
-574,442,0,0,0,0,0,0,0,0,0,-1,650,582,0,0
-567,442,0,0,0,0,0,0,0,0,0,-1,657,582,0,0
-560,442,0,0,0,0,0,0,0,0,0,-1,664,582,0,0
-553,442,0,0,0,0,0,0,0,0,0,-1,671,582,0,0
-546,442,0,0,0,0,0,0,0,0,0,-1,678,582,0,0
-539,442,0,0,0,0,0,0,0,0,0,-1,685,582,0,0
-532,442,0,0,0,0,0,0,0,0,0,-1,692,582,0,0
-525,442,0,0,0,0,0,0,0,0,0,-1,699,582,0,0
-518,442,3.12354,1.36334,0,0,0,0,0,0,0,-1,706,582,3.12353,-1.36332
-511,442,2.47906,1.1308,0,0,0,0,0,0,0,-1,713,582,2.47908,-1.13083
-504,442,0.677246,-0.319153,0,0,0,0,0,0,0,-1,720,582,0.677231,0.319182
-497,442,0.83667,0.538025,0,0,0,0,0,0,0,-1,727,582,0.836689,-0.538042
-490,442,-0.526184,0.126099,0,0,0,0,0,0,0,-1,734,582,-0.526196,-0.126128
-483,442,-0.335693,-0.0126343,0.0203859,-0.00495028,-0.0187745,0.0303665,-0.0149309,-0.48861,0.0266538,0.0450321,741,582,-0.335722,0.0126352
-476,442,-0.0942383,-0.164063,0.019189,-0.00164096,-0.017751,0.0293548,-0.0118068,-0.520097,0.0244739,0.0392135,748,582,-0.0942421,0.164042
-469,442,0.0809937,-0.254578,0.0169804,0.000885601,-0.0157172,0.0265906,-0.00872458,-0.548792,0.0212412,0.0372469,755,582,0.0809921,0.254556
-462,442,0.319458,-0.413269,0.0144431,0.0020027,-0.0133538,0.0229543,-0.00650854,-0.567441,0.0178719,0.0311291,762,582,0.319482,0.413249
-455,442,0.478149,-0.513916,0.0119419,0.00253416,-0.0109182,0.0191264,-0.00465036,-0.582,0.0145509,0.0177011,769,582,0.478153,0.513927
-448,442,0.520813,-0.591248,0.00958993,0.00250866,-0.00863686,0.0153837,-0.00328512,-0.590873,0.0115082,0.0118782,776,582,0.520794,0.591273
-441,442,0.536682,-0.664673,0.00758885,0.00252152,-0.00674594,0.0122612,-0.00215087,-0.605757,0.00897741,0.0133657,783,582,0.536693,0.664642
-434,442,0.522766,-0.718811,0.0056484,0.00242318,-0.00505781,0.00934446,-0.00127288,-0.631075,0.00669439,0.0127705,790,582,0.52276,0.718793
-427,442,0.491028,-0.785034,0.00377818,0.00237816,-0.00358767,0.00673349,-0.000577157,-0.68905,0.00469323,0.0125726,797,582,0.491015,0.785058
-420,442,0.490845,-0.850708,0.00249696,0.0025419,-0.00186075,0.00438031,0.000658539,-0.791436,0.00272733,0.013069,804,582,0.490848,0.850731
-413,442,0.513062,-0.92334,0.00147566,0.00243973,-9.44403e-05,0.0024489,0.00146649,-1.47406,0.00142305,0.0107461,811,582,0.513084,0.923344
-406,442,0.510803,-1.00903,0.000456104,0.00235675,0.00101412,0.00279623,1.66193e-05,1.16186,0.00185864,0.00915567,818,582,0.510788,1.00901
-399,442,0.508484,-1.08026,-0.000192415,0.0024018,0.00211538,0.00358609,-0.0013767,1.06042,0.0029584,0.00846128,825,582,0.50851,1.08025
-392,442,0.501099,-1.1402,-0.00117906,0.00266483,0.00327966,0.00454421,-0.00305844,1.05044,0.00441724,0.0105436,832,582,0.501073,1.14018
-385,442,0.500854,-1.20868,-0.00244368,0.00302611,0.00438699,0.00546087,-0.00487844,1.06413,0.00597256,0.0119782,839,582,0.500841,1.20869
-378,442,0.498047,-1.27246,-0.00396933,0.00368354,0.00538524,0.00646335,-0.00674914,1.09428,0.00762883,0.0114718,846,582,0.498054,1.27244
-371,442,0.493408,-1.34576,-0.00530884,0.0039531,0.00647245,0.00728068,-0.00863642,1.09592,0.00920085,0.0220186,853,582,0.493416,1.34576
-364,442,0.496704,-1.50903,-0.0069295,0.00449137,0.00756316,0.00825777,-0.0106959,1.10876,0.010973,0.0384077,860,582,0.496693,1.50904
-357,442,0.561462,-1.8559,-0.00908715,0.00507905,0.00861732,0.00915071,-0.0131588,1.12939,0.0129495,0.0465955,867,582,0.56144,1.85592
-350,442,0.792358,-1.70264,-0.0115263,0.00557065,0.00951318,0.00981189,-0.0157676,1.15142,0.0149011,0.0487688,874,582,0.792355,1.70261
-343,442,1.02319,-1.17078,0,0,0,0,0,0,0,-1,881,582,1.02321,1.17079
-336,442,1.24225,-0.176208,0,0,0,0,0,0,0,-1,888,582,1.24223,0.176218
-329,442,1.33588,0.842896,0,0,0,0,0,0,0,-1,895,582,1.33585,-0.842909
-322,442,0.615723,-1.48114,-0.0132233,0.0214845,0.0038309,0.0219023,-0.0136411,1.46216,0.0207049,0.0492894,902,582,0.615695,1.48116
-315,442,0.870728,-1.57813,-0.014475,0.0310365,5.43863e-05,0.0310365,-0.0144751,1.5696,0.0268498,0.046181,909,582,0.870752,1.5781
-308,442,1.0802,-1.77789,0,0,0,0,0,0,0,-1,916,582,1.08019,1.77792
-301,442,-2.40161,-3.76801,0,0,0,0,0,0,0,-1,923,582,-2.40161,3.76802
-294,442,-3.0968,1.90643,0,0,0,0,0,0,0,-1,930,582,-3.09678,-1.90641
-287,442,-2.55713,-0.143311,0,0,0,0,0,0,0,-1,937,582,-2.55711,0.143336
-280,442,0,0,0,0,0,0,0,0,0,-1,944,582,0,0
-273,442,0,0,0,0,0,0,0,0,0,-1,951,582,0,0
-266,442,0,0,0,0,0,0,0,0,0,-1,958,582,0,0
-259,442,0,0,0,0,0,0,0,0,0,-1,965,582,0,0
-252,442,0,0,0,0,0,0,0,0,0,-1,972,582,0,0
-245,442,0,0,0,0,0,0,0,0,0,-1,979,582,0,0
-238,442,0,0,0,0,0,0,0,0,0,-1,986,582,0,0
-231,442,0,0,0,0,0,0,0,0,0,-1,993,582,0,0
-224,442,0,0,0,0,0,0,0,0,0,-1,1000,582,0,0
-217,442,0,0,0,0,0,0,0,0,0,-1,1007,582,0,0
-210,442,0,0,0,0,0,0,0,0,0,-1,1014,582,0,0
-203,442,0,0,0,0,0,0,0,0,0,-1,1021,582,0,0
-196,442,0,0,0,0,0,0,0,0,0,-1,1028,582,0,0
-189,442,0,0,0,0,0,0,0,0,0,-1,1035,582,0,0
-182,442,0,0,0,0,0,0,0,0,0,-1,1042,582,0,0
-175,442,0,0,0,0,0,0,0,0,0,-1,1049,582,0,0
-168,442,0,0,0,0,0,0,0,0,0,-1,1056,582,0,0
-161,442,0,0,0,0,0,0,0,0,0,-1,1063,582,0,0
-154,442,0,0,0,0,0,0,0,0,0,-1,1070,582,0,0
-147,442,0,0,0,0,0,0,0,0,0,-1,1077,582,0,0
-140,442,0,0,0,0,0,0,0,0,0,-1,1084,582,0,0
-133,442,0,0,0,0,0,0,0,0,0,-1,1091,582,0,0
-126,442,0,0,0,0,0,0,0,0,0,-1,1098,582,0,0
-119,442,0,0,0,0,0,0,0,0,0,-1,1105,582,0,0
-112,442,0,0,0,0,0,0,0,0,0,-1,1112,582,0,0
-105,442,0,0,0,0,0,0,0,0,0,-1,1119,582,0,0
-98,442,0,0,0,0,0,0,0,0,0,-1,1126,582,0,0
-91,442,0,0,0,0,0,0,0,0,0,-1,1133,582,0,0
-84,442,0,0,0,0,0,0,0,0,0,-1,1140,582,0,0
-77,442,0,0,0,0,0,0,0,0,0,-1,1147,582,0,0
-70,442,0,0,0,0,0,0,0,0,0,-1,1154,582,0,0
-63,442,0,0,0,0,0,0,0,0,0,-1,1161,582,0,0
-56,442,0,0,0,0,0,0,0,0,0,-1,1168,582,0,0
-49,442,0,0,0,0,0,0,0,0,0,-1,1175,582,0,0
-42,442,0,0,0,0,0,0,0,0,0,-1,1182,582,0,0
-35,442,0,0,0,0,0,0,0,0,0,-1,1189,582,0,0
-28,442,0,0,0,0,0,0,0,0,0,-1,1196,582,0,0
-21,442,0,0,0,0,0,0,0,0,0,-1,1203,582,0,0
-14,442,0,0,0,0,0,0,0,0,0,-1,1210,582,0,0
-7,442,0,0,0,0,0,0,0,0,0,-1,1217,582,0,0
0,442,0,0,0,0,0,0,0,0,0,-1,1224,582,0,0
7,442,0,0,0,0,0,0,0,0,0,-1,1231,582,0,0
14,442,0,0,0,0,0,0,0,0,0,-1,1238,582,0,0
21,442,0,0,0,0,0,0,0,0,0,-1,1245,582,0,0
28,442,0,0,0,0,0,0,0,0,0,-1,1252,582,0,0
35,442,0,0,0,0,0,0,0,0,0,-1,1259,582,0,0
42,442,0,0,0,0,0,0,0,0,0,-1,1266,582,0,0
49,442,0,0,0,0,0,0,0,0,0,-1,1273,582,0,0
56,442,0,0,0,0,0,0,0,0,0,-1,1280,582,0,0
63,442,0,0,0,0,0,0,0,0,0,-1,1287,582,0,0
70,442,0,0,0,0,0,0,0,0,0,-1,1294,582,0,0
77,442,0,0,0,0,0,0,0,0,0,-1,1301,582,0,0
84,442,0,0,0,0,0,0,0,0,0,-1,1308,582,0,0
91,442,0,0,0,0,0,0,0,0,0,-1,1315,582,0,0
98,442,0,0,0,0,0,0,0,0,0,-1,1322,582,0,0
105,442,0,0,0,0,0,0,0,0,0,-1,1329,582,0,0
112,442,0,0,0,0,0,0,0,0,0,-1,1336,582,0,0
119,442,0,0,0,0,0,0,0,0,0,-1,1343,582,0,0
126,442,0,0,0,0,0,0,0,0,0,-1,1350,582,0,0
133,442,0,0,0,0,0,0,0,0,0,-1,1357,582,0,0
140,442,0,0,0,0,0,0,0,0,0,-1,1364,582,0,0
147,442,0,0,0,0,0,0,0,0,0,-1,1371,582,0,0
154,442,0,0,0,0,0,0,0,0,0,-1,1378,582,0,0
161,442,0,0,0,0,0,0,0,0,0,-1,1385,582,0,0
168,442,0,0,0,0,0,0,0,0,0,-1,1392,582,0,0
175,442,0,0,0,0,0,0,0,0,0,-1,1399,582,0,0
182,442,0,0,0,0,0,0,0,0,0,-1,1406,582,0,0
189,442,0,0,0,0,0,0,0,0,0,-1,1413,582,0,0
196,442,0,0,0,0,0,0,0,0,0,-1,1420,582,0,0
203,442,0,0,0,0,0,0,0,0,0,-1,1427,582,0,0
210,442,0,0,0,0,0,0,0,0,0,-1,1434,582,0,0
217,442,0,0,0,0,0,0,0,0,0,-1,1441,582,0,0
224,442,0,0,0,0,0,0,0,0,0,-1,1448,582,0,0
231,442,0,0,0,0,0,0,0,0,0,-1,1455,582,0,0
238,442,0,0,0,0,0,0,0,0,0,-1,1462,582,0,0
245,442,0,0,0,0,0,0,0,0,0,-1,1469,582,0,0
252,442,0,0,0,0,0,0,0,0,0,-1,1476,582,0,0
259,442,0,0,0,0,0,0,0,0,0,-1,1483,582,0,0
266,442,0,0,0,0,0,0,0,0,0,-1,1490,582,0,0
273,442,0,0,0,0,0,0,0,0,0,-1,1497,582,0,0
280,442,0,0,0,0,0,0,0,0,0,-1,1504,582,0,0
287,442,0,0,0,0,0,0,0,0,0,-1,1511,582,0,0
294,442,0,0,0,0,0,0,0,0,0,-1,1518,582,0,0
301,442,0,0,0,0,0,0,0,0,0,-1,1525,582,0,0
308,442,0,0,0,0,0,0,0,0,0,-1,1532,582,0,0
315,442,0,0,0,0,0,0,0,0,0,-1,1539,582,0,0
322,442,0,0,0,0,0,0,0,0,0,-1,1546,582,0,0
329,442,0,0,0,0,0,0,0,0,0,-1,1553,582,0,0
336,442,0,0,0,0,0,0,0,0,0,-1,1560,582,0,0
343,442,0,0,0,0,0,0,0,0,0,-1,1567,582,0,0
350,442,0,0,0,0,0,0,0,0,0,-1,1574,582,0,0
357,442,0,0,0,0,0,0,0,0,0,-1,1581,582,0,0
364,442,0,0,0,0,0,0,0,0,0,-1,1588,582,0,0
371,442,0,0,0,0,0,0,0,0,0,-1,1595,582,0,0
378,442,0,0,0,0,0,0,0,0,0,-1,1602,582,0,0
385,442,0,0,0,0,0,0,0,0,0,-1,1609,582,0,0
392,442,0,0,0,0,0,0,0,0,0,-1,1616,582,0,0
399,442,0,0,0,0,0,0,0,0,0,-1,1623,582,0,0
406,442,3.7196,2.52588,0,0,0,0,0,0,0,-1,1630,582,3.71965,-2.52587
413,442,3.66699,2.87408,0,0,0,0,0,0,0,-1,1637,582,3.66703,-2.87408
420,442,4.69055,3.09448,0,0,0,0,0,0,0,-1,1644,582,4.69054,-3.0945
427,442,2.44519,-1.35358,0,0,0,0,0,0,0,-1,1651,582,2.44514,1.35361
434,442,8.45898,-3.86719,0,0,0,0,0,0,0,-1,1658,582,8.45904,3.86719
441,442,4.89368,-7.42456,0,0,0,0,0,0,0,-1,1665,582,4.89365,7.42457
448,442,4.7749,-5.88562,0,0,0,0,0,0,0,-1,1672,582,4.7749,5.8856
455,442,4.87024,-4.60687,0.0389867,0.0750991,0.0274665,0.0899129,0.0241729,1.07617,0.0537286,0.0478965,1679,582,4.87019,4.60686
462,442,5.02307,-3.72821,0.0336564,0.0582215,0.0214342,0.0706429,0.021235,1.04558,0.0418529,0.0489284,1686,582,5.02311,3.7282
469,442,5.12976,-2.98834,0,0,0,0,0,0,0,-1,1693,582,5.12971,2.98834
476,442,3.29858,-1.68524,0,0,0,0,0,0,0,-1,1700,582,3.29859,1.68526
483,442,4.01428,-1.17035,0,0,0,0,0,0,0,-1,1707,582,4.01427,1.17037
490,442,3.61218,-1.03851,0.0152493,0.0113026,0.00450971,0.0181985,0.00835336,0.57916,0.0105187,0.0483083,1714,582,3.61214,1.03848
497,442,3.70752,-0.96106,0.0117597,0.00543195,0.00221856,0.0124601,0.00473162,0.305769,0.00726286,0.0414497,1721,582,3.70755,0.961067
504,442,3.73706,-1.02698,0.00844318,0.00139764,0.000408886,0.00846683,0.00137399,0.0577762,0.00524687,0.0286209,1728,582,3.73701,1.027
511,442,3.67944,-1.02716,0.00599347,-0.00216362,-0.000927753,0.00609766,-0.00226781,-0.111833,0.00499567,0.0139019,1735,582,3.67942,1.02716
518,442,3.70239,-0.9375,0.00404601,-0.00415789,-0.00161785,0.00435353,-0.00446541,-0.187839,0.00509175,0.0104204,1742,582,3.70241,0.937471
525,442,3.69751,-0.866211,0.0027409,-0.00334645,-0.00135972,0.00303081,-0.00363636,-0.210068,0.00385458,0.00966214,1749,582,3.69756,0.86619
532,442,3.71533,-0.802368,0.00178014,-0.00240354,-0.00100638,0.00200963,-0.00263303,-0.224206,0.00268849,0.0103652,1756,582,3.71537,0.802349
539,442,3.7135,-0.711853,0.0011761,-0.00120732,-0.000271777,0.0012067,-0.00123791,-0.112111,0.00141144,0.01087,1763,582,3.71349,0.71185
546,442,3.71631,-0.628296,0.00122073,0.000197893,0.000576984,0.00148032,-6.17011e-05,0.422783,0.00100808,0.0135196,1770,582,3.7163,0.62829
553,442,3.71472,-0.561707,0.0021181,0.00243412,0.00175632,0.00403952,0.000512698,0.830261,0.00253942,0.0149928,1777,582,3.71472,0.561685
560,442,3.71875,-0.488525,0.0041178,0.00675889,0.0032539,0.00895,0.00192669,0.978161,0.00543939,0.0139804,1784,582,3.71878,0.488545
567,442,3.70508,-0.39917,0.00687557,0.0117234,0.00570066,0.0154941,0.00310491,0.986419,0.00946572,0.00951393,1791,582,3.70505,0.39919
574,442,3.70276,-0.32959,0.0104935,0.0186787,0.00898574,0.02446,0.00471228,0.999087,0.0149849,0.0111385,1798,582,3.70279,0.329608
581,442,3.71008,-0.247498,0.0147833,0.0268645,0.0125716,0.0347714,0.00687632,1.00936,0.0212628,0.0121133,1805,582,3.71005,0.247523
588,442,3.68811,-0.194641,0.0196109,0.0371785,0.0169163,0.0474555,0.00933379,1.02486,0.0290303,0.0141897,1812,582,3.68811,0.194643
595,442,3.65869,-0.0897827,0.0252003,0.049826,0.022078,0.0627924,0.0122338,1.03977,0.0384382,0.0302217,1819,582,3.65869,0.089761
602,442,4.41736,-0.0407715,0.0313382,0.0648311,0.0283446,0.0810067,0.0151626,1.05222,0.0497269,0.0447755,1826,582,4.41736,0.040761
609,442,5.13635,-0.715515,0.0372865,0.0817625,0.0353874,0.101319,0.0177298,1.06592,0.0624804,0.0440265,1833,582,5.13633,0.715519
616,442,5.72888,-1.27686,0,0,0,0,0,0,0,-1,1840,582,5.72882,1.27688
623,442,4.96057,0.378235,0,0,0,0,0,0,0,-1,1847,582,4.96059,-0.378254
630,442,5.35559,0.344299,0,0,0,0,0,0,0,-1,1854,582,5.35562,-0.344283
637,442,5.87805,1.84027,0,0,0,0,0,0,0,-1,1861,582,5.87807,-1.84025
644,442,0,0,0,0,0,0,0,0,0,-1,1868,582,0,0
651,442,0,0,0,0,0,0,0,0,0,-1,1875,582,0,0
658,442,0,0,0,0,0,0,0,0,0,-1,1882,582,0,0
665,442,0,0,0,0,0,0,0,0,0,-1,1889,582,0,0
672,442,0,0,0,0,0,0,0,0,0,-1,1896,582,0,0
679,442,0,0,0,0,0,0,0,0,0,-1,1903,582,0,0
686,442,0,0,0,0,0,0,0,0,0,-1,1910,582,0,0
693,442,0,0,0,0,0,0,0,0,0,-1,1917,582,0,0
700,442,0,0,0,0,0,0,0,0,0,-1,1924,582,0,0
707,442,0,0,0,0,0,0,0,0,0,-1,1931,582,0,0
714,442,0,0,0,0,0,0,0,0,0,-1,1938,582,0,0
721,442,0,0,0,0,0,0,0,0,0,-1,1945,582,0,0
728,442,0,0,0,0,0,0,0,0,0,-1,1952,582,0,0
735,442,0,0,0,0,0,0,0,0,0,-1,1959,582,0,0
742,442,0,0,0,0,0,0,0,0,0,-1,1966,582,0,0
749,442,0,0,0,0,0,0,0,0,0,-1,1973,582,0,0
756,442,0,0,0,0,0,0,0,0,0,-1,1980,582,0,0
763,442,0,0,0,0,0,0,0,0,0,-1,1987,582,0,0
770,442,0,0,0,0,0,0,0,0,0,-1,1994,582,0,0
777,442,0,0,0,0,0,0,0,0,0,-1,2001,582,0,0
784,442,0,0,0,0,0,0,0,0,0,-1,2008,582,0,0
791,442,0,0,0,0,0,0,0,0,0,-1,2015,582,0,0
798,442,0,0,0,0,0,0,0,0,0,-1,2022,582,0,0
805,442,0,0,0,0,0,0,0,0,0,-1,2029,582,0,0
812,442,0,0,0,0,0,0,0,0,0,-1,2036,582,0,0
-700,435,0,0,0,0,0,0,0,0,0,-1,524,589,0,0
-693,435,0,0,0,0,0,0,0,0,0,-1,531,589,0,0
-686,435,0,0,0,0,0,0,0,0,0,-1,538,589,0,0
-679,435,0,0,0,0,0,0,0,0,0,-1,545,589,0,0
-672,435,0,0,0,0,0,0,0,0,0,-1,552,589,0,0
-665,435,0,0,0,0,0,0,0,0,0,-1,559,589,0,0
-658,435,0,0,0,0,0,0,0,0,0,-1,566,589,0,0
-651,435,0,0,0,0,0,0,0,0,0,-1,573,589,0,0
-644,435,0,0,0,0,0,0,0,0,0,-1,580,589,0,0
-637,435,0,0,0,0,0,0,0,0,0,-1,587,589,0,0
-630,435,0,0,0,0,0,0,0,0,0,-1,594,589,0,0
-623,435,0,0,0,0,0,0,0,0,0,-1,601,589,0,0
-616,435,0,0,0,0,0,0,0,0,0,-1,608,589,0,0
-609,435,0,0,0,0,0,0,0,0,0,-1,615,589,0,0
-602,435,0,0,0,0,0,0,0,0,0,-1,622,589,0,0
-595,435,0,0,0,0,0,0,0,0,0,-1,629,589,0,0
-588,435,0,0,0,0,0,0,0,0,0,-1,636,589,0,0
-581,435,0,0,0,0,0,0,0,0,0,-1,643,589,0,0
-574,435,0,0,0,0,0,0,0,0,0,-1,650,589,0,0
-567,435,0,0,0,0,0,0,0,0,0,-1,657,589,0,0
-560,435,0,0,0,0,0,0,0,0,0,-1,664,589,0,0
-553,435,0,0,0,0,0,0,0,0,0,-1,671,589,0,0
-546,435,0,0,0,0,0,0,0,0,0,-1,678,589,0,0
-539,435,0,0,0,0,0,0,0,0,0,-1,685,589,0,0
-532,435,0,0,0,0,0,0,0,0,0,-1,692,589,0,0
-525,435,3.57715,0.445557,0,0,0,0,0,0,0,-1,699,589,3.57713,-0.445554
-518,435,2.8429,0.29718,0,0,0,0,0,0,0,-1,706,589,2.84287,-0.297178
-511,435,1.54205,0.169983,0,0,0,0,0,0,0,-1,713,589,1.54208,-0.169995
-504,435,0.973389,-0.265625,0,0,0,0,0,0,0,-1,720,589,0.973386,0.265655
-497,435,0.153503,-0.320618,0,0,0,0,0,0,0,-1,727,589,0.153521,0.320621
-490,435,-0.198181,-0.549316,0,0,0,0,0,0,0,-1,734,589,-0.198208,0.549337
-483,435,-0.0497437,0.0533447,0.0186869,-0.00516866,-0.0144504,0.0254964,-0.0119782,-0.44037,0.0221002,0.0429892,741,589,-0.0497262,-0.053316
-476,435,0.227661,0.00537109,0.0172294,-0.00223401,-0.0137179,0.024317,-0.00932157,-0.47689,0.0200541,0.040209,748,589,0.227654,-0.00538916
-469,435,0.409485,-0.286987,0.0149993,8.18233e-05,-0.012136,0.0217854,-0.00670431,-0.509858,0.0171996,0.0249146,755,589,0.409458,0.286979
-462,435,0.451111,-0.404358,0.0125593,0.0010078,-0.0103555,0.0186409,-0.00507376,-0.531013,0.0144192,0.0128958,762,589,0.451097,0.404332
-455,435,0.438904,-0.496033,0.0102504,0.00147478,-0.0084492,0.0153832,-0.003658,-0.545907,0.0116675,0.011444,769,589,0.438887,0.496002
-448,435,0.446228,-0.584778,0.00811373,0.00148736,-0.00665062,0.0122308,-0.00262966,-0.554304,0.00915713,0.0126305,776,589,0.446254,0.584753
-441,435,0.444763,-0.659851,0.0063361,0.00172637,-0.00523929,0.0097551,-0.00169262,-0.578178,0.00713485,0.0112608,783,589,0.444752,0.659829
-434,435,0.434143,-0.700195,0.0045511,0.00187976,-0.00394699,0.0073823,-0.000951437,-0.622245,0.0052674,0.0120962,790,589,0.434144,0.700183
-427,435,0.433105,-0.783142,0.00275971,0.0021462,-0.00281162,0.00528126,-0.000375343,-0.731062,0.00365239,0.00922394,797,589,0.43313,0.783125
-420,435,0.432312,-0.844788,0.0016047,0.0026281,-0.00125569,0.00347234,0.000760452,-0.978877,0.00210765,0.00889074,804,589,0.432322,0.84477
-413,435,0.441956,-0.917114,0.000720418,0.00288883,0.000398656,0.00295979,0.000649449,1.39462,0.00179628,0.00944537,811,589,0.441937,0.917128
-406,435,0.450562,-0.998474,-0.000304865,0.00290346,0.00136631,0.00340647,-0.000807867,1.21805,0.00258273,0.0097252,818,589,0.450563,0.998492
-399,435,0.439331,-1.06421,-0.000956465,0.00320573,0.00246085,0.00434748,-0.00209821,1.13639,0.0037962,0.00860798,825,589,0.439359,1.0642
-392,435,0.4328,-1.12531,-0.00215572,0.0036375,0.0036776,0.00542224,-0.00394046,1.11898,0.00542808,0.0100637,832,589,0.43282,1.1253
-385,435,0.428528,-1.20496,-0.00380389,0.0040941,0.00483921,0.00639111,-0.00610089,1.12762,0.00721291,0.0121653,839,589,0.428503,1.20499
-378,435,0.451843,-1.26105,-0.00584253,0.00486166,0.0058974,0.0074735,-0.00845437,1.15388,0.00920177,0.017598,846,589,0.451851,1.26104
-371,435,0.492004,-1.25659,-0.00771962,0.0051243,0.00704871,0.00823785,-0.0108332,1.15485,0.0110446,0.034575,853,589,0.492017,1.2566
-364,435,0.643005,-1.25366,-0.0100119,0.00564634,0.00812758,0.00910229,-0.0134679,1.16875,0.0131119,0.0436675,860,589,0.643021,1.25367
-357,435,0.77063,-1.45898,0,0,0,0,0,0,0,-1,867,589,0.770618,1.45897
-350,435,0.606079,-2.34387,0,0,0,0,0,0,0,-1,874,589,0.606051,2.34384
-343,435,0.979675,-1.6795,0,0,0,0,0,0,0,-1,881,589,0.979682,1.67948
-336,435,1.15259,-0.522034,0,0,0,0,0,0,0,-1,888,589,1.15261,0.522048
-329,435,-1.15051,-1.52972,0,0,0,0,0,0,0,-1,895,589,-1.15053,1.52971
-322,435,0.253296,-1.51959,0,0,0,0,0,0,0,-1,902,589,0.253321,1.51959
-315,435,0.503845,-1.63104,0,0,0,0,0,0,0,-1,909,589,0.503826,1.63106
-308,435,-1.33936,0.44165,0,0,0,0,0,0,0,-1,916,589,-1.33936,-0.441665
-301,435,-1.97314,0.755493,0,0,0,0,0,0,0,-1,923,589,-1.97312,-0.755488
-294,435,-2.33508,1.51563,0,0,0,0,0,0,0,-1,930,589,-2.33511,-1.51564
-287,435,0,0,0,0,0,0,0,0,0,-1,937,589,0,0
-280,435,0,0,0,0,0,0,0,0,0,-1,944,589,0,0
-273,435,0,0,0,0,0,0,0,0,0,-1,951,589,0,0
-266,435,0,0,0,0,0,0,0,0,0,-1,958,589,0,0
-259,435,0,0,0,0,0,0,0,0,0,-1,965,589,0,0
-252,435,0,0,0,0,0,0,0,0,0,-1,972,589,0,0
-245,435,0,0,0,0,0,0,0,0,0,-1,979,589,0,0
-238,435,0,0,0,0,0,0,0,0,0,-1,986,589,0,0
-231,435,0,0,0,0,0,0,0,0,0,-1,993,589,0,0
-224,435,0,0,0,0,0,0,0,0,0,-1,1000,589,0,0
-217,435,0,0,0,0,0,0,0,0,0,-1,1007,589,0,0
-210,435,0,0,0,0,0,0,0,0,0,-1,1014,589,0,0
-203,435,0,0,0,0,0,0,0,0,0,-1,1021,589,0,0
-196,435,0,0,0,0,0,0,0,0,0,-1,1028,589,0,0
-189,435,0,0,0,0,0,0,0,0,0,-1,1035,589,0,0
-182,435,0,0,0,0,0,0,0,0,0,-1,1042,589,0,0
-175,435,0,0,0,0,0,0,0,0,0,-1,1049,589,0,0
-168,435,0,0,0,0,0,0,0,0,0,-1,1056,589,0,0
-161,435,0,0,0,0,0,0,0,0,0,-1,1063,589,0,0
-154,435,0,0,0,0,0,0,0,0,0,-1,1070,589,0,0
-147,435,0,0,0,0,0,0,0,0,0,-1,1077,589,0,0
-140,435,0,0,0,0,0,0,0,0,0,-1,1084,589,0,0
-133,435,0,0,0,0,0,0,0,0,0,-1,1091,589,0,0
-126,435,0,0,0,0,0,0,0,0,0,-1,1098,589,0,0
-119,435,0,0,0,0,0,0,0,0,0,-1,1105,589,0,0
-112,435,0,0,0,0,0,0,0,0,0,-1,1112,589,0,0
-105,435,0,0,0,0,0,0,0,0,0,-1,1119,589,0,0
-98,435,0,0,0,0,0,0,0,0,0,-1,1126,589,0,0
-91,435,0,0,0,0,0,0,0,0,0,-1,1133,589,0,0
-84,435,0,0,0,0,0,0,0,0,0,-1,1140,589,0,0
-77,435,0,0,0,0,0,0,0,0,0,-1,1147,589,0,0
-70,435,0,0,0,0,0,0,0,0,0,-1,1154,589,0,0
-63,435,0,0,0,0,0,0,0,0,0,-1,1161,589,0,0
-56,435,0,0,0,0,0,0,0,0,0,-1,1168,589,0,0
-49,435,0,0,0,0,0,0,0,0,0,-1,1175,589,0,0
-42,435,0,0,0,0,0,0,0,0,0,-1,1182,589,0,0
-35,435,0,0,0,0,0,0,0,0,0,-1,1189,589,0,0
-28,435,0,0,0,0,0,0,0,0,0,-1,1196,589,0,0
-21,435,0,0,0,0,0,0,0,0,0,-1,1203,589,0,0
-14,435,0,0,0,0,0,0,0,0,0,-1,1210,589,0,0
-7,435,0,0,0,0,0,0,0,0,0,-1,1217,589,0,0
0,435,0,0,0,0,0,0,0,0,0,-1,1224,589,0,0
7,435,0,0,0,0,0,0,0,0,0,-1,1231,589,0,0
14,435,0,0,0,0,0,0,0,0,0,-1,1238,589,0,0
21,435,0,0,0,0,0,0,0,0,0,-1,1245,589,0,0
28,435,0,0,0,0,0,0,0,0,0,-1,1252,589,0,0
35,435,0,0,0,0,0,0,0,0,0,-1,1259,589,0,0
42,435,0,0,0,0,0,0,0,0,0,-1,1266,589,0,0
49,435,0,0,0,0,0,0,0,0,0,-1,1273,589,0,0
56,435,0,0,0,0,0,0,0,0,0,-1,1280,589,0,0
63,435,0,0,0,0,0,0,0,0,0,-1,1287,589,0,0
70,435,0,0,0,0,0,0,0,0,0,-1,1294,589,0,0
77,435,0,0,0,0,0,0,0,0,0,-1,1301,589,0,0
84,435,0,0,0,0,0,0,0,0,0,-1,1308,589,0,0
91,435,0,0,0,0,0,0,0,0,0,-1,1315,589,0,0
98,435,0,0,0,0,0,0,0,0,0,-1,1322,589,0,0
105,435,0,0,0,0,0,0,0,0,0,-1,1329,589,0,0
112,435,0,0,0,0,0,0,0,0,0,-1,1336,589,0,0
119,435,0,0,0,0,0,0,0,0,0,-1,1343,589,0,0
126,435,0,0,0,0,0,0,0,0,0,-1,1350,589,0,0
133,435,0,0,0,0,0,0,0,0,0,-1,1357,589,0,0
140,435,0,0,0,0,0,0,0,0,0,-1,1364,589,0,0
147,435,0,0,0,0,0,0,0,0,0,-1,1371,589,0,0
154,435,0,0,0,0,0,0,0,0,0,-1,1378,589,0,0
161,435,0,0,0,0,0,0,0,0,0,-1,1385,589,0,0
168,435,0,0,0,0,0,0,0,0,0,-1,1392,589,0,0
175,435,0,0,0,0,0,0,0,0,0,-1,1399,589,0,0
182,435,0,0,0,0,0,0,0,0,0,-1,1406,589,0,0
189,435,0,0,0,0,0,0,0,0,0,-1,1413,589,0,0
196,435,0,0,0,0,0,0,0,0,0,-1,1420,589,0,0
203,435,0,0,0,0,0,0,0,0,0,-1,1427,589,0,0
210,435,0,0,0,0,0,0,0,0,0,-1,1434,589,0,0
217,435,0,0,0,0,0,0,0,0,0,-1,1441,589,0,0
224,435,0,0,0,0,0,0,0,0,0,-1,1448,589,0,0
231,435,0,0,0,0,0,0,0,0,0,-1,1455,589,0,0
238,435,0,0,0,0,0,0,0,0,0,-1,1462,589,0,0
245,435,0,0,0,0,0,0,0,0,0,-1,1469,589,0,0
252,435,0,0,0,0,0,0,0,0,0,-1,1476,589,0,0
259,435,0,0,0,0,0,0,0,0,0,-1,1483,589,0,0
266,435,0,0,0,0,0,0,0,0,0,-1,1490,589,0,0
273,435,0,0,0,0,0,0,0,0,0,-1,1497,589,0,0
280,435,0,0,0,0,0,0,0,0,0,-1,1504,589,0,0
287,435,0,0,0,0,0,0,0,0,0,-1,1511,589,0,0
294,435,0,0,0,0,0,0,0,0,0,-1,1518,589,0,0
301,435,0,0,0,0,0,0,0,0,0,-1,1525,589,0,0
308,435,0,0,0,0,0,0,0,0,0,-1,1532,589,0,0
315,435,0,0,0,0,0,0,0,0,0,-1,1539,589,0,0
322,435,0,0,0,0,0,0,0,0,0,-1,1546,589,0,0
329,435,0,0,0,0,0,0,0,0,0,-1,1553,589,0,0
336,435,0,0,0,0,0,0,0,0,0,-1,1560,589,0,0
343,435,0,0,0,0,0,0,0,0,0,-1,1567,589,0,0
350,435,0,0,0,0,0,0,0,0,0,-1,1574,589,0,0
357,435,0,0,0,0,0,0,0,0,0,-1,1581,589,0,0
364,435,0,0,0,0,0,0,0,0,0,-1,1588,589,0,0
371,435,0,0,0,0,0,0,0,0,0,-1,1595,589,0,0
378,435,0,0,0,0,0,0,0,0,0,-1,1602,589,0,0
385,435,0,0,0,0,0,0,0,0,0,-1,1609,589,0,0
392,435,0,0,0,0,0,0,0,0,0,-1,1616,589,0,0
399,435,0,0,0,0,0,0,0,0,0,-1,1623,589,0,0
406,435,0,0,0,0,0,0,0,0,0,-1,1630,589,0,0
413,435,3.62073,3.42682,0,0,0,0,0,0,0,-1,1637,589,3.62069,-3.4268
420,435,3.6062,3.71564,0,0,0,0,0,0,0,-1,1644,589,3.60616,-3.71562
427,435,3.11963,0.640198,0,0,0,0,0,0,0,-1,1651,589,3.11967,-0.640192
434,435,2.72107,-1.34802,0,0,0,0,0,0,0,-1,1658,589,2.7211,1.34803
441,435,7.33191,-1.57452,0,0,0,0,0,0,0,-1,1665,589,7.33193,1.57452
448,435,7.4585,-0.00292969,0,0,0,0,0,0,0,-1,1672,589,7.45848,0.00294131
455,435,5.49915,-5.047,0,0,0,0,0,0,0,-1,1679,589,5.49914,5.04703
462,435,5.60669,-4.71466,0,0,0,0,0,0,0,-1,1686,589,5.60675,4.71469
469,435,5.24414,-1.18372,0,0,0,0,0,0,0,-1,1693,589,5.24412,1.18371
476,435,4.42139,-0.293091,0,0,0,0,0,0,0,-1,1700,589,4.4214,0.293096
483,435,3.86243,0.610962,0,0,0,0,0,0,0,-1,1707,589,3.86242,-0.610991
490,435,3.45081,-1.02893,0,0,0,0,0,0,0,-1,1714,589,3.45077,1.02893
497,435,3.5686,-0.860779,0.0145162,0.00523788,-0.000554635,0.0145493,0.00520484,-0.059495,0.0085126,0.0463717,1721,589,3.56856,0.860805
504,435,3.80554,-0.89624,0.0105199,0.000541441,-0.00235374,0.0110472,1.41049e-05,-0.220402,0.00736013,0.0410782,1728,589,3.80556,0.896259
511,435,3.69336,-0.986877,0.00747827,-0.00352833,-0.00361609,0.00855999,-0.00461005,-0.290667,0.00771688,0.0248772,1735,589,3.6934,0.986895
518,435,3.76489,-0.945435,0.00504052,-0.00568423,-0.0040932,0.00642421,-0.00706792,-0.325985,0.00779264,0.0113275,1742,589,3.76494,0.945433
525,435,3.78223,-0.859253,0.00331772,-0.00468803,-0.00350901,0.00463802,-0.00600832,-0.359874,0.00616361,0.0108752,1749,589,3.78227,0.859274
532,435,3.79224,-0.774475,0.00204945,-0.00357081,-0.00286176,0.00325012,-0.00477148,-0.39725,0.00465895,0.0125057,1756,589,3.79225,0.774505
539,435,3.78137,-0.713928,0.00119719,-0.00234194,-0.00191586,0.00203566,-0.00318042,-0.412536,0.00303558,0.0147034,1763,589,3.78133,0.713958
546,435,3.77893,-0.654358,0.00100974,-0.000924225,-0.000917609,0.00137582,-0.00129031,-0.379602,0.00153956,0.0143546,1770,589,3.77893,0.65436
553,435,3.78369,-0.562805,0.00149761,0.00107423,0.000252708,0.00161558,0.000956263,0.436746,0.000937992,0.0108505,1777,589,3.78363,0.562777
560,435,3.78601,-0.484131,0.00305419,0.00472771,0.0016931,0.00577953,0.00200236,1.0149,0.00338885,0.00894915,1784,589,3.78607,0.48411
567,435,3.80029,-0.395752,0.00528838,0.00877326,0.00385096,0.0112576,0.002804,0.997851,0.00676693,0.00782526,1791,589,3.80031,0.395781
574,435,3.78381,-0.319336,0.00827091,0.0142999,0.00658482,0.0185275,0.00404339,1.00006,0.0112488,0.00896761,1798,589,3.78387,0.319358
581,435,3.76733,-0.249878,0.0117028,0.0206545,0.00943061,0.0266175,0.00573981,1.00696,0.0161749,0.0149781,1805,589,3.76728,0.249857
588,435,3.76758,-0.182129,0.0153553,0.0284857,0.0127159,0.0362312,0.00760978,1.0237,0.0220595,0.0152997,1812,589,3.76761,0.182101
595,435,3.75208,-0.101013,0.0195178,0.0379361,0.0164496,0.0475789,0.00987498,1.04058,0.0289937,0.0184493,1819,589,3.75203,0.101021
602,435,3.72778,-0.0596924,0.0240794,0.0491538,0.0210305,0.0611005,0.0121327,1.05419,0.0373521,0.0399107,1826,589,3.72772,0.0596818
609,435,3.73438,-0.178162,0,0,0,0,0,0,0,-1,1833,589,3.73441,0.178173
616,435,4.0061,-0.755737,0,0,0,0,0,0,0,-1,1840,589,4.0061,0.755754
623,435,4.3667,-0.815674,0,0,0,0,0,0,0,-1,1847,589,4.36675,0.815695
630,435,4.72742,-0.87561,0,0,0,0,0,0,0,-1,1854,589,4.7274,0.875636
637,435,5.05286,1.48792,0,0,0,0,0,0,0,-1,1861,589,5.05291,-1.48792
644,435,0,0,0,0,0,0,0,0,0,-1,1868,589,0,0
651,435,0,0,0,0,0,0,0,0,0,-1,1875,589,0,0
658,435,0,0,0,0,0,0,0,0,0,-1,1882,589,0,0
665,435,0,0,0,0,0,0,0,0,0,-1,1889,589,0,0
672,435,0,0,0,0,0,0,0,0,0,-1,1896,589,0,0
679,435,0,0,0,0,0,0,0,0,0,-1,1903,589,0,0
686,435,0,0,0,0,0,0,0,0,0,-1,1910,589,0,0
693,435,0,0,0,0,0,0,0,0,0,-1,1917,589,0,0
700,435,0,0,0,0,0,0,0,0,0,-1,1924,589,0,0
707,435,0,0,0,0,0,0,0,0,0,-1,1931,589,0,0
714,435,0,0,0,0,0,0,0,0,0,-1,1938,589,0,0
721,435,0,0,0,0,0,0,0,0,0,-1,1945,589,0,0
728,435,0,0,0,0,0,0,0,0,0,-1,1952,589,0,0
735,435,0,0,0,0,0,0,0,0,0,-1,1959,589,0,0
742,435,0,0,0,0,0,0,0,0,0,-1,1966,589,0,0
749,435,0,0,0,0,0,0,0,0,0,-1,1973,589,0,0
756,435,0,0,0,0,0,0,0,0,0,-1,1980,589,0,0
763,435,0,0,0,0,0,0,0,0,0,-1,1987,589,0,0
770,435,0,0,0,0,0,0,0,0,0,-1,1994,589,0,0
777,435,0,0,0,0,0,0,0,0,0,-1,2001,589,0,0
784,435,0,0,0,0,0,0,0,0,0,-1,2008,589,0,0
791,435,0,0,0,0,0,0,0,0,0,-1,2015,589,0,0
798,435,0,0,0,0,0,0,0,0,0,-1,2022,589,0,0
805,435,0,0,0,0,0,0,0,0,0,-1,2029,589,0,0
812,435,0,0,0,0,0,0,0,0,0,-1,2036,589,0,0
-700,428,0,0,0,0,0,0,0,0,0,-1,524,596,0,0
-693,428,0,0,0,0,0,0,0,0,0,-1,531,596,0,0
-686,428,0,0,0,0,0,0,0,0,0,-1,538,596,0,0
-679,428,0,0,0,0,0,0,0,0,0,-1,545,596,0,0
-672,428,0,0,0,0,0,0,0,0,0,-1,552,596,0,0
-665,428,0,0,0,0,0,0,0,0,0,-1,559,596,0,0
-658,428,0,0,0,0,0,0,0,0,0,-1,566,596,0,0
-651,428,0,0,0,0,0,0,0,0,0,-1,573,596,0,0
-644,428,0,0,0,0,0,0,0,0,0,-1,580,596,0,0
-637,428,0,0,0,0,0,0,0,0,0,-1,587,596,0,0
-630,428,0,0,0,0,0,0,0,0,0,-1,594,596,0,0
-623,428,0,0,0,0,0,0,0,0,0,-1,601,596,0,0
-616,428,0,0,0,0,0,0,0,0,0,-1,608,596,0,0
-609,428,0,0,0,0,0,0,0,0,0,-1,615,596,0,0
-602,428,0,0,0,0,0,0,0,0,0,-1,622,596,0,0
-595,428,0,0,0,0,0,0,0,0,0,-1,629,596,0,0
-588,428,0,0,0,0,0,0,0,0,0,-1,636,596,0,0
-581,428,0,0,0,0,0,0,0,0,0,-1,643,596,0,0
-574,428,0,0,0,0,0,0,0,0,0,-1,650,596,0,0
-567,428,0,0,0,0,0,0,0,0,0,-1,657,596,0,0
-560,428,0,0,0,0,0,0,0,0,0,-1,664,596,0,0
-553,428,0,0,0,0,0,0,0,0,0,-1,671,596,0,0
-546,428,0,0,0,0,0,0,0,0,0,-1,678,596,0,0
-539,428,0,0,0,0,0,0,0,0,0,-1,685,596,0,0
-532,428,0,0,0,0,0,0,0,0,0,-1,692,596,0,0
-525,428,3.68121,-0.294739,0,0,0,0,0,0,0,-1,699,596,3.68123,0.294727
-518,428,2.93823,-0.430664,0,0,0,0,0,0,0,-1,706,596,2.93823,0.430652
-511,428,1.95319,-0.317322,0,0,0,0,0,0,0,-1,713,596,1.95321,0.317302
-504,428,1.10962,-0.328491,0,0,0,0,0,0,0,-1,720,596,1.10964,0.328489
-497,428,1.27643,-0.925964,0,0,0,0,0,0,0,-1,727,596,1.2764,0.925955
-490,428,-0.180237,-0.699951,0,0,0,0,0,0,0,-1,734,596,-0.180226,0.699977
-483,428,0.431152,0.218872,0,0,0,0,0,0,0,-1,741,596,0.43117,-0.218872
-476,428,0.288818,-0.00598145,0.0146101,-0.00270647,-0.00985793,0.0190722,-0.00716857,-0.425048,0.0156611,0.0337823,748,596,0.288833,0.00600284
-469,428,0.361206,-0.301575,0.0126511,-0.000639197,-0.00869142,0.0169466,-0.00493475,-0.45902,0.0132525,0.0172114,755,596,0.361229,0.301573
-462,428,0.378052,-0.390198,0.0105964,9.59642e-05,-0.00738598,0.0144081,-0.00371569,-0.476418,0.0110541,0.0146125,762,596,0.378054,0.390217
-455,428,0.355103,-0.483826,0.00869569,0.000425114,-0.00592914,0.0117892,-0.00266838,-0.480891,0.00888352,0.0122984,769,596,0.355103,0.483807
-448,428,0.356873,-0.563477,0.00693814,0.000407179,-0.00455041,0.00927352,-0.0019282,-0.47417,0.00691528,0.0112539,776,596,0.356887,0.563504
-441,428,0.356567,-0.663269,0.00546808,0.00078399,-0.00354145,0.00737186,-0.00111979,-0.49325,0.00532721,0.0132779,783,596,0.356562,0.663289
-434,428,0.366821,-0.745361,0.00388019,0.00110281,-0.0025882,0.00542871,-0.000445722,-0.53917,0.00377649,0.00995108,790,596,0.366792,0.745358
-427,428,0.380554,-0.80365,0.00216618,0.00162989,-0.00176114,0.00367947,0.000116605,-0.70985,0.00241505,0.0100519,797,596,0.380571,0.803637
-420,428,0.382507,-0.849426,0.00108948,0.00240407,-0.000380381,0.0025062,0.000987353,-1.30849,0.00145776,0.0096349,804,596,0.382524,0.849449
-413,428,0.37262,-0.916992,0.000283919,0.00308814,0.00115747,0.00350418,-0.000132118,1.22574,0.00238138,0.0114861,811,596,0.37262,0.916967
-406,428,0.373657,-0.989929,-0.000851113,0.00326301,0.00198322,0.00406334,-0.00165144,1.18723,0.00339597,0.0141796,818,596,0.373665,0.989948
-399,428,0.374084,-1.05145,-0.00166366,0.00389331,0.00305217,0.00524226,-0.00301261,1.15465,0.00482355,0.0126446,825,596,0.374111,1.05143
-392,428,0.380493,-1.12732,-0.00326071,0.00462351,0.00430832,0.00652108,-0.00515828,1.15592,0.00675837,0.0107203,832,596,0.380519,1.12731
-385,428,0.375061,-1.21466,-0.0054876,0.00531323,0.00550335,0.00762329,-0.00779765,1.17338,0.00890347,0.0163986,839,596,0.375049,1.21468
-378,428,0.390259,-1.26746,-0.0082238,0.00635115,0.00660079,0.00889616,-0.0107688,1.2028,0.0113707,0.0313824,846,596,0.39025,1.26746
-371,428,0.485901,-1.20013,-0.0108442,0.00672531,0.00779352,0.0096841,-0.013803,1.20796,0.0136296,0.0418063,853,596,0.485928,1.2001
-364,428,0.558899,-0.735718,-0.0140018,0.00731341,0.00882794,0.0104948,-0.0171832,1.22491,0.0161346,0.0432657,860,596,0.558876,0.735742
-357,428,0.548401,-0.558533,-0.0180723,0.00810738,0.00964443,0.0112767,-0.0212415,1.2533,0.019066,0.0483998,867,596,0.5484,0.558558
-350,428,0.528381,-0.457397,0,0,0,0,0,0,0,-1,874,596,0.528381,0.457423
-343,428,-3.33142,-0.752075,0,0,0,0,0,0,0,-1,881,596,-3.3314,0.752069
-336,428,-4.2052,-0.0921631,0,0,0,0,0,0,0,-1,888,596,-4.2052,0.0921625
-329,428,-1.42255,-0.917175,0,0,0,0,0,0,0,-1,895,596,-1.42256,0.917168
-322,428,-3.16382,-1.65302,0,0,0,0,0,0,0,-1,902,596,-3.16382,1.65303
-315,428,-0.813782,0.548645,0,0,0,0,0,0,0,-1,909,596,-0.8138,-0.548646
-308,428,-1.80176,0.330383,0,0,0,0,0,0,0,-1,916,596,-1.80178,-0.330386
-301,428,0,0,0,0,0,0,0,0,0,-1,923,596,0,0
-294,428,0,0,0,0,0,0,0,0,0,-1,930,596,0,0
-287,428,0,0,0,0,0,0,0,0,0,-1,937,596,0,0
-280,428,0,0,0,0,0,0,0,0,0,-1,944,596,0,0
-273,428,0,0,0,0,0,0,0,0,0,-1,951,596,0,0
-266,428,0,0,0,0,0,0,0,0,0,-1,958,596,0,0
-259,428,0,0,0,0,0,0,0,0,0,-1,965,596,0,0
-252,428,0,0,0,0,0,0,0,0,0,-1,972,596,0,0
-245,428,0,0,0,0,0,0,0,0,0,-1,979,596,0,0
-238,428,0,0,0,0,0,0,0,0,0,-1,986,596,0,0
-231,428,0,0,0,0,0,0,0,0,0,-1,993,596,0,0
-224,428,0,0,0,0,0,0,0,0,0,-1,1000,596,0,0
-217,428,0,0,0,0,0,0,0,0,0,-1,1007,596,0,0
-210,428,0,0,0,0,0,0,0,0,0,-1,1014,596,0,0
-203,428,0,0,0,0,0,0,0,0,0,-1,1021,596,0,0
-196,428,0,0,0,0,0,0,0,0,0,-1,1028,596,0,0
-189,428,0,0,0,0,0,0,0,0,0,-1,1035,596,0,0
-182,428,0,0,0,0,0,0,0,0,0,-1,1042,596,0,0
-175,428,0,0,0,0,0,0,0,0,0,-1,1049,596,0,0
-168,428,0,0,0,0,0,0,0,0,0,-1,1056,596,0,0
-161,428,0,0,0,0,0,0,0,0,0,-1,1063,596,0,0
-154,428,0,0,0,0,0,0,0,0,0,-1,1070,596,0,0
-147,428,0,0,0,0,0,0,0,0,0,-1,1077,596,0,0
-140,428,0,0,0,0,0,0,0,0,0,-1,1084,596,0,0
-133,428,0,0,0,0,0,0,0,0,0,-1,1091,596,0,0
-126,428,0,0,0,0,0,0,0,0,0,-1,1098,596,0,0
-119,428,0,0,0,0,0,0,0,0,0,-1,1105,596,0,0
-112,428,0,0,0,0,0,0,0,0,0,-1,1112,596,0,0
-105,428,0,0,0,0,0,0,0,0,0,-1,1119,596,0,0
-98,428,0,0,0,0,0,0,0,0,0,-1,1126,596,0,0
-91,428,0,0,0,0,0,0,0,0,0,-1,1133,596,0,0
-84,428,0,0,0,0,0,0,0,0,0,-1,1140,596,0,0
-77,428,0,0,0,0,0,0,0,0,0,-1,1147,596,0,0
-70,428,0,0,0,0,0,0,0,0,0,-1,1154,596,0,0
-63,428,0,0,0,0,0,0,0,0,0,-1,1161,596,0,0
-56,428,0,0,0,0,0,0,0,0,0,-1,1168,596,0,0
-49,428,0,0,0,0,0,0,0,0,0,-1,1175,596,0,0
-42,428,0,0,0,0,0,0,0,0,0,-1,1182,596,0,0
-35,428,0,0,0,0,0,0,0,0,0,-1,1189,596,0,0
-28,428,0,0,0,0,0,0,0,0,0,-1,1196,596,0,0
-21,428,0,0,0,0,0,0,0,0,0,-1,1203,596,0,0
-14,428,0,0,0,0,0,0,0,0,0,-1,1210,596,0,0
-7,428,0,0,0,0,0,0,0,0,0,-1,1217,596,0,0
0,428,0,0,0,0,0,0,0,0,0,-1,1224,596,0,0
7,428,0,0,0,0,0,0,0,0,0,-1,1231,596,0,0
14,428,0,0,0,0,0,0,0,0,0,-1,1238,596,0,0
21,428,0,0,0,0,0,0,0,0,0,-1,1245,596,0,0
28,428,0,0,0,0,0,0,0,0,0,-1,1252,596,0,0
35,428,0,0,0,0,0,0,0,0,0,-1,1259,596,0,0
42,428,0,0,0,0,0,0,0,0,0,-1,1266,596,0,0
49,428,0,0,0,0,0,0,0,0,0,-1,1273,596,0,0
56,428,0,0,0,0,0,0,0,0,0,-1,1280,596,0,0
63,428,0,0,0,0,0,0,0,0,0,-1,1287,596,0,0
70,428,0,0,0,0,0,0,0,0,0,-1,1294,596,0,0
77,428,0,0,0,0,0,0,0,0,0,-1,1301,596,0,0
84,428,0,0,0,0,0,0,0,0,0,-1,1308,596,0,0
91,428,0,0,0,0,0,0,0,0,0,-1,1315,596,0,0
98,428,0,0,0,0,0,0,0,0,0,-1,1322,596,0,0
105,428,0,0,0,0,0,0,0,0,0,-1,1329,596,0,0
112,428,0,0,0,0,0,0,0,0,0,-1,1336,596,0,0
119,428,0,0,0,0,0,0,0,0,0,-1,1343,596,0,0
126,428,0,0,0,0,0,0,0,0,0,-1,1350,596,0,0
133,428,0,0,0,0,0,0,0,0,0,-1,1357,596,0,0
140,428,0,0,0,0,0,0,0,0,0,-1,1364,596,0,0
147,428,0,0,0,0,0,0,0,0,0,-1,1371,596,0,0
154,428,0,0,0,0,0,0,0,0,0,-1,1378,596,0,0
161,428,0,0,0,0,0,0,0,0,0,-1,1385,596,0,0
168,428,0,0,0,0,0,0,0,0,0,-1,1392,596,0,0
175,428,0,0,0,0,0,0,0,0,0,-1,1399,596,0,0
182,428,0,0,0,0,0,0,0,0,0,-1,1406,596,0,0
189,428,0,0,0,0,0,0,0,0,0,-1,1413,596,0,0
196,428,0,0,0,0,0,0,0,0,0,-1,1420,596,0,0
203,428,0,0,0,0,0,0,0,0,0,-1,1427,596,0,0
210,428,0,0,0,0,0,0,0,0,0,-1,1434,596,0,0
217,428,0,0,0,0,0,0,0,0,0,-1,1441,596,0,0
224,428,0,0,0,0,0,0,0,0,0,-1,1448,596,0,0
231,428,0,0,0,0,0,0,0,0,0,-1,1455,596,0,0
238,428,0,0,0,0,0,0,0,0,0,-1,1462,596,0,0
245,428,0,0,0,0,0,0,0,0,0,-1,1469,596,0,0
252,428,0,0,0,0,0,0,0,0,0,-1,1476,596,0,0
259,428,0,0,0,0,0,0,0,0,0,-1,1483,596,0,0
266,428,0,0,0,0,0,0,0,0,0,-1,1490,596,0,0
273,428,0,0,0,0,0,0,0,0,0,-1,1497,596,0,0
280,428,0,0,0,0,0,0,0,0,0,-1,1504,596,0,0
287,428,0,0,0,0,0,0,0,0,0,-1,1511,596,0,0
294,428,0,0,0,0,0,0,0,0,0,-1,1518,596,0,0
301,428,0,0,0,0,0,0,0,0,0,-1,1525,596,0,0
308,428,0,0,0,0,0,0,0,0,0,-1,1532,596,0,0
315,428,0,0,0,0,0,0,0,0,0,-1,1539,596,0,0
322,428,0,0,0,0,0,0,0,0,0,-1,1546,596,0,0
329,428,0,0,0,0,0,0,0,0,0,-1,1553,596,0,0
336,428,0,0,0,0,0,0,0,0,0,-1,1560,596,0,0
343,428,0,0,0,0,0,0,0,0,0,-1,1567,596,0,0
350,428,0,0,0,0,0,0,0,0,0,-1,1574,596,0,0
357,428,0,0,0,0,0,0,0,0,0,-1,1581,596,0,0
364,428,0,0,0,0,0,0,0,0,0,-1,1588,596,0,0
371,428,0,0,0,0,0,0,0,0,0,-1,1595,596,0,0
378,428,0,0,0,0,0,0,0,0,0,-1,1602,596,0,0
385,428,0,0,0,0,0,0,0,0,0,-1,1609,596,0,0
392,428,0,0,0,0,0,0,0,0,0,-1,1616,596,0,0
399,428,0,0,0,0,0,0,0,0,0,-1,1623,596,0,0
406,428,0,0,0,0,0,0,0,0,0,-1,1630,596,0,0
413,428,0,0,0,0,0,0,0,0,0,-1,1637,596,0,0
420,428,2.95886,0.551819,0,0,0,0,0,0,0,-1,1644,596,2.9589,-0.551797
427,428,3.19385,0.384705,0,0,0,0,0,0,0,-1,1651,596,3.19383,-0.384692
434,428,8.18152,1.80432,0,0,0,0,0,0,0,-1,1658,596,8.18148,-1.80434
441,428,8.17993,0.607483,0,0,0,0,0,0,0,-1,1665,596,8.17997,-0.607513
448,428,7.84338,-0.385986,0,0,0,0,0,0,0,-1,1672,596,7.84336,0.385978
455,428,4.61658,3.0882,0,0,0,0,0,0,0,-1,1679,596,4.61658,-3.08817
462,428,4.84106,4.12341,0,0,0,0,0,0,0,-1,1686,596,4.84107,-4.12339
469,428,6.13611,-2.36658,0,0,0,0,0,0,0,-1,1693,596,6.13616,2.36655
476,428,6.72449,4.34363,0,0,0,0,0,0,0,-1,1700,596,6.72445,-4.34363
483,428,4.14575,-0.753235,0,0,0,0,0,0,0,-1,1707,596,4.1458,0.753258
490,428,2.828,-1.328,0,0,0,0,0,0,0,-1,1714,596,2.82802,1.32803
497,428,2.9707,-0.909058,0.0183293,0.00719249,-0.00618669,0.0210845,0.0044373,-0.418974,0.0128355,0.0448795,1721,596,2.97075,0.909076
504,428,3.76575,-0.832458,0.0136606,0.00153477,-0.00731187,0.0170962,-0.00190087,-0.439255,0.0120811,0.0441529,1728,596,3.76569,0.832456
511,428,3.72839,-0.832703,0.00995898,-0.00307251,-0.0079869,0.0137508,-0.00686431,-0.443246,0.0121215,0.0433201,1735,596,3.72834,0.832718
518,428,3.83752,-0.933838,0.00685077,-0.00563864,-0.00779742,0.0105959,-0.00938374,-0.447763,0.0115423,0.030887,1742,596,3.83752,0.933831
525,428,3.82275,-0.872925,0.00447988,-0.00493304,-0.00654681,0.00783639,-0.00828955,-0.473751,0.00931154,0.0170881,1749,596,3.82279,0.872906
532,428,3.84143,-0.742737,0.00272007,-0.00401281,-0.00532633,0.00565464,-0.00694738,-0.503576,0.00728852,0.0156286,1756,596,3.84137,0.742754
539,428,3.8501,-0.696411,0.00150139,-0.00299443,-0.00394758,0.00379622,-0.00528926,-0.526575,0.00526906,0.019913,1763,596,3.8501,0.696438
546,428,3.85254,-0.653931,0.00100528,-0.00175706,-0.00262887,0.00259372,-0.0033455,-0.543524,0.00343816,0.0161514,1770,596,3.85256,0.653937
553,428,3.85608,-0.556152,0.00105451,-0.000142619,-0.00129727,0.00188464,-0.000972756,-0.569251,0.00167749,0.010898,1777,596,3.85613,0.556146
560,428,3.86487,-0.46759,0.00217188,0.00282618,0.000188877,0.00287679,0.00212127,1.309,0.00172218,0.011172,1784,596,3.86492,0.467584
567,428,3.88684,-0.396484,0.00391352,0.00604128,0.00218,0.00740315,0.00255165,1.01241,0.00434241,0.00985017,1791,596,3.88686,0.39651
574,428,3.88135,-0.32666,0.00630675,0.0103221,0.00451435,0.0132551,0.00337378,0.994632,0.00795432,0.0116984,1798,596,3.88138,0.32667
581,428,3.86206,-0.259399,0.00899102,0.0151339,0.00677862,0.0195045,0.00462045,0.998116,0.0117691,0.0108701,1805,596,3.86207,0.259403
588,428,3.85803,-0.172485,0.0116387,0.0209532,0.00924107,0.0266443,0.00594768,1.01881,0.0161496,0.0145189,1812,596,3.85798,0.172465
595,428,3.83093,-0.108276,0.0145745,0.0277811,0.0118433,0.0347376,0.00761799,1.03971,0.021083,0.00940284,1819,596,3.83096,0.108296
602,428,3.82483,-0.0397949,0.017753,0.0358395,0.0150473,0.0443519,0.0092406,1.05597,0.0270197,0.01927,1826,596,3.82481,0.0398163
609,428,3.82288,-0.0401611,0.0206169,0.0448334,0.0190352,0.055285,0.0101652,1.06867,0.033979,0.0427244,1833,596,3.82284,0.0401431
616,428,3.98486,0.113892,0,0,0,0,0,0,0,-1,1840,596,3.98487,-0.113902
623,428,4.79907,0.434326,0,0,0,0,0,0,0,-1,1847,596,4.79909,-0.434305
630,428,4.94434,0.773193,0,0,0,0,0,0,0,-1,1854,596,4.9443,-0.773171
637,428,4.41064,0.811401,0,0,0,0,0,0,0,-1,1861,596,4.41065,-0.811417
644,428,5.75476,0.888977,0,0,0,0,0,0,0,-1,1868,596,5.75472,-0.888955
651,428,0,0,0,0,0,0,0,0,0,-1,1875,596,0,0
658,428,0,0,0,0,0,0,0,0,0,-1,1882,596,0,0
665,428,0,0,0,0,0,0,0,0,0,-1,1889,596,0,0
672,428,0,0,0,0,0,0,0,0,0,-1,1896,596,0,0
679,428,0,0,0,0,0,0,0,0,0,-1,1903,596,0,0
686,428,0,0,0,0,0,0,0,0,0,-1,1910,596,0,0
693,428,0,0,0,0,0,0,0,0,0,-1,1917,596,0,0
700,428,0,0,0,0,0,0,0,0,0,-1,1924,596,0,0
707,428,0,0,0,0,0,0,0,0,0,-1,1931,596,0,0
714,428,0,0,0,0,0,0,0,0,0,-1,1938,596,0,0
721,428,0,0,0,0,0,0,0,0,0,-1,1945,596,0,0
728,428,0,0,0,0,0,0,0,0,0,-1,1952,596,0,0
735,428,0,0,0,0,0,0,0,0,0,-1,1959,596,0,0
742,428,0,0,0,0,0,0,0,0,0,-1,1966,596,0,0
749,428,0,0,0,0,0,0,0,0,0,-1,1973,596,0,0
756,428,0,0,0,0,0,0,0,0,0,-1,1980,596,0,0
763,428,0,0,0,0,0,0,0,0,0,-1,1987,596,0,0
770,428,0,0,0,0,0,0,0,0,0,-1,1994,596,0,0
777,428,0,0,0,0,0,0,0,0,0,-1,2001,596,0,0
784,428,0,0,0,0,0,0,0,0,0,-1,2008,596,0,0
791,428,0,0,0,0,0,0,0,0,0,-1,2015,596,0,0
798,428,0,0,0,0,0,0,0,0,0,-1,2022,596,0,0
805,428,0,0,0,0,0,0,0,0,0,-1,2029,596,0,0
812,428,0,0,0,0,0,0,0,0,0,-1,2036,596,0,0
-700,421,0,0,0,0,0,0,0,0,0,-1,524,603,0,0
-693,421,0,0,0,0,0,0,0,0,0,-1,531,603,0,0
-686,421,0,0,0,0,0,0,0,0,0,-1,538,603,0,0
-679,421,0,0,0,0,0,0,0,0,0,-1,545,603,0,0
-672,421,0,0,0,0,0,0,0,0,0,-1,552,603,0,0
-665,421,0,0,0,0,0,0,0,0,0,-1,559,603,0,0
-658,421,0,0,0,0,0,0,0,0,0,-1,566,603,0,0
-651,421,0,0,0,0,0,0,0,0,0,-1,573,603,0,0
-644,421,0,0,0,0,0,0,0,0,0,-1,580,603,0,0
-637,421,0,0,0,0,0,0,0,0,0,-1,587,603,0,0
-630,421,0,0,0,0,0,0,0,0,0,-1,594,603,0,0
-623,421,0,0,0,0,0,0,0,0,0,-1,601,603,0,0
-616,421,0,0,0,0,0,0,0,0,0,-1,608,603,0,0
-609,421,0,0,0,0,0,0,0,0,0,-1,615,603,0,0
-602,421,0,0,0,0,0,0,0,0,0,-1,622,603,0,0
-595,421,0,0,0,0,0,0,0,0,0,-1,629,603,0,0
-588,421,0,0,0,0,0,0,0,0,0,-1,636,603,0,0
-581,421,0,0,0,0,0,0,0,0,0,-1,643,603,0,0
-574,421,0,0,0,0,0,0,0,0,0,-1,650,603,0,0
-567,421,0,0,0,0,0,0,0,0,0,-1,657,603,0,0
-560,421,0,0,0,0,0,0,0,0,0,-1,664,603,0,0
-553,421,0,0,0,0,0,0,0,0,0,-1,671,603,0,0
-546,421,0,0,0,0,0,0,0,0,0,-1,678,603,0,0
-539,421,0,0,0,0,0,0,0,0,0,-1,685,603,0,0
-532,421,0.699768,0.220581,0,0,0,0,0,0,0,-1,692,603,0.699791,-0.220572
-525,421,0.538452,-0.161621,0,0,0,0,0,0,0,-1,699,603,0.538454,0.161596
-518,421,1.6673,-0.923279,0,0,0,0,0,0,0,-1,706,603,1.66732,0.923252
-511,421,0.232971,-0.290283,0,0,0,0,0,0,0,-1,713,603,0.232979,0.290311
-504,421,0.987122,-0.525085,0,0,0,0,0,0,0,-1,720,603,0.987124,0.52509
-497,421,-0.271912,-1.0578,0,0,0,0,0,0,0,-1,727,603,-0.271933,1.05779
-490,421,-0.081665,-0.633789,0.0125418,-0.00921257,-0.00496033,0.0136194,-0.0102902,-0.213929,0.0138488,0.0427675,734,603,-0.0816896,0.633773
-483,421,0.254883,-0.203613,0.0125865,-0.0059178,-0.00648086,0.0146305,-0.00796184,-0.305521,0.0132318,0.0360266,741,603,0.254908,0.203631
-476,421,0.238892,-0.258911,0.0113688,-0.00352303,-0.00632311,0.0136914,-0.00584561,-0.352017,0.0115789,0.0186279,748,603,0.238873,0.258912
-469,421,0.277283,-0.336304,0.00972878,-0.00168,-0.00555179,0.0119844,-0.00393567,-0.385921,0.00957504,0.0141426,755,603,0.277275,0.336318
-462,421,0.287231,-0.421814,0.00807369,-0.00107867,-0.0046754,0.0100397,-0.00304473,-0.398061,0.00790598,0.0162725,762,603,0.28724,0.421795
-455,421,0.267212,-0.479309,0.00658591,-0.000794792,-0.00360004,0.00805103,-0.00225992,-0.386505,0.00625819,0.018523,769,603,0.267208,0.479293
-448,421,0.253906,-0.570496,0.00522085,-0.000755165,-0.00257233,0.00617556,-0.00170988,-0.35539,0.00478984,0.0181148,776,603,0.253919,0.570476
-441,421,0.284058,-0.675476,0.00408129,-0.000168215,-0.00189201,0.00480158,-0.000888509,-0.36376,0.00353465,0.0136988,783,603,0.284038,0.675476
-434,421,0.286743,-0.752319,0.00274777,0.000375179,-0.00121781,0.00326158,-0.000138633,-0.399254,0.00222204,0.00986523,790,603,0.286761,0.752307
-427,421,0.300903,-0.799011,0.00118037,0.00123067,-0.000658721,0.00186472,0.000546317,-0.804479,0.00110693,0.00928283,797,603,0.300878,0.798995
-420,421,0.306091,-0.849182,0.00023809,0.00236511,0.000555449,0.00250143,0.000101777,1.33014,0.00163475,0.0108533,804,603,0.306067,0.849173
-413,421,0.300476,-0.921448,-0.000447877,0.00352886,0.00194653,0.00432304,-0.00124206,1.18341,0.00337316,0.0126027,811,603,0.300481,0.921437
-406,421,0.299133,-0.999329,-0.00165205,0.00389398,0.00258093,0.00490921,-0.00266728,1.19603,0.00443767,0.0169545,818,603,0.29915,0.999354
-399,421,0.310913,-1.0639,-0.00263156,0.00486515,0.00354716,0.00627746,-0.00404387,1.19188,0.00600536,0.014184,825,603,0.310917,1.06388
-392,421,0.303772,-1.1156,-0.00460943,0.00587413,0.00475358,0.00770857,-0.00644386,1.2025,0.00818178,0.0142068,832,603,0.30376,1.11561
-385,421,0.288635,-1.16199,-0.0074217,0.00677433,0.00586712,0.00888527,-0.00953264,1.22542,0.0106358,0.0330703,839,603,0.288608,1.16198
-378,421,0.265808,-1.29358,-0.0108975,0.00806406,0.00684494,0.0102768,-0.0131103,1.25813,0.0135355,0.044207,846,603,0.265784,1.29361
-371,421,0.335388,-1.43042,-0.014318,0.00849414,0.00793823,0.0109846,-0.0168084,1.26679,0.0161633,0.0468596,853,603,0.335396,1.43042
-364,421,0.482422,-0.371887,-0.0184059,0.00903141,0.00880184,0.0116123,-0.0209868,1.28557,0.0190787,0.0464035,860,603,0.482399,0.371894
-357,421,0.262512,0.062561,-0.0236046,0.00978826,0.00939486,0.01225,-0.0260663,1.31453,0.0225962,0.0448034,867,603,0.262517,-0.0625583
-350,421,-1.85065,-1.73145,0,0,0,0,0,0,0,-1,874,603,-1.85062,1.73145
-343,421,-2.8075,-0.881104,-0.0341568,0.0141064,0.00791884,0.0153725,-0.0354229,1.41226,0.0300787,0.0477125,881,603,-2.80752,0.881088
-336,421,-3.68591,-0.209351,-0.0369956,0.0187998,0.00524823,0.0192892,-0.037485,1.47782,0.033335,0.0481472,888,603,-3.6859,0.209345
-329,421,-4.23706,0.772583,0,0,0,0,0,0,0,-1,895,603,-4.23707,-0.772612
-322,421,-0.973755,0.84729,0,0,0,0,0,0,0,-1,902,603,-0.973732,-0.847296
-315,421,-1.29059,1.97131,0,0,0,0,0,0,0,-1,909,603,-1.29056,-1.97131
-308,421,0,0,0,0,0,0,0,0,0,-1,916,603,0,0
-301,421,0,0,0,0,0,0,0,0,0,-1,923,603,0,0
-294,421,0,0,0,0,0,0,0,0,0,-1,930,603,0,0
-287,421,0,0,0,0,0,0,0,0,0,-1,937,603,0,0
-280,421,0,0,0,0,0,0,0,0,0,-1,944,603,0,0
-273,421,0,0,0,0,0,0,0,0,0,-1,951,603,0,0
-266,421,0,0,0,0,0,0,0,0,0,-1,958,603,0,0
-259,421,0,0,0,0,0,0,0,0,0,-1,965,603,0,0
-252,421,0,0,0,0,0,0,0,0,0,-1,972,603,0,0
-245,421,0,0,0,0,0,0,0,0,0,-1,979,603,0,0
-238,421,0,0,0,0,0,0,0,0,0,-1,986,603,0,0
-231,421,0,0,0,0,0,0,0,0,0,-1,993,603,0,0
-224,421,0,0,0,0,0,0,0,0,0,-1,1000,603,0,0
-217,421,0,0,0,0,0,0,0,0,0,-1,1007,603,0,0
-210,421,0,0,0,0,0,0,0,0,0,-1,1014,603,0,0
-203,421,0,0,0,0,0,0,0,0,0,-1,1021,603,0,0
-196,421,0,0,0,0,0,0,0,0,0,-1,1028,603,0,0
-189,421,0,0,0,0,0,0,0,0,0,-1,1035,603,0,0
-182,421,0,0,0,0,0,0,0,0,0,-1,1042,603,0,0
-175,421,0,0,0,0,0,0,0,0,0,-1,1049,603,0,0
-168,421,0,0,0,0,0,0,0,0,0,-1,1056,603,0,0
-161,421,0,0,0,0,0,0,0,0,0,-1,1063,603,0,0
-154,421,0,0,0,0,0,0,0,0,0,-1,1070,603,0,0
-147,421,0,0,0,0,0,0,0,0,0,-1,1077,603,0,0
-140,421,0,0,0,0,0,0,0,0,0,-1,1084,603,0,0
-133,421,0,0,0,0,0,0,0,0,0,-1,1091,603,0,0
-126,421,0,0,0,0,0,0,0,0,0,-1,1098,603,0,0
-119,421,0,0,0,0,0,0,0,0,0,-1,1105,603,0,0
-112,421,0,0,0,0,0,0,0,0,0,-1,1112,603,0,0
-105,421,0,0,0,0,0,0,0,0,0,-1,1119,603,0,0
-98,421,0,0,0,0,0,0,0,0,0,-1,1126,603,0,0
-91,421,0,0,0,0,0,0,0,0,0,-1,1133,603,0,0
-84,421,0,0,0,0,0,0,0,0,0,-1,1140,603,0,0
-77,421,0,0,0,0,0,0,0,0,0,-1,1147,603,0,0
-70,421,0,0,0,0,0,0,0,0,0,-1,1154,603,0,0
-63,421,0,0,0,0,0,0,0,0,0,-1,1161,603,0,0
-56,421,0,0,0,0,0,0,0,0,0,-1,1168,603,0,0
-49,421,0,0,0,0,0,0,0,0,0,-1,1175,603,0,0
-42,421,0,0,0,0,0,0,0,0,0,-1,1182,603,0,0
-35,421,0,0,0,0,0,0,0,0,0,-1,1189,603,0,0
-28,421,0,0,0,0,0,0,0,0,0,-1,1196,603,0,0
-21,421,0,0,0,0,0,0,0,0,0,-1,1203,603,0,0
-14,421,0,0,0,0,0,0,0,0,0,-1,1210,603,0,0
-7,421,0,0,0,0,0,0,0,0,0,-1,1217,603,0,0
0,421,0,0,0,0,0,0,0,0,0,-1,1224,603,0,0
7,421,0,0,0,0,0,0,0,0,0,-1,1231,603,0,0
14,421,0,0,0,0,0,0,0,0,0,-1,1238,603,0,0
21,421,0,0,0,0,0,0,0,0,0,-1,1245,603,0,0
28,421,0,0,0,0,0,0,0,0,0,-1,1252,603,0,0
35,421,0,0,0,0,0,0,0,0,0,-1,1259,603,0,0
42,421,0,0,0,0,0,0,0,0,0,-1,1266,603,0,0
49,421,0,0,0,0,0,0,0,0,0,-1,1273,603,0,0
56,421,0,0,0,0,0,0,0,0,0,-1,1280,603,0,0
63,421,0,0,0,0,0,0,0,0,0,-1,1287,603,0,0
70,421,0,0,0,0,0,0,0,0,0,-1,1294,603,0,0
77,421,0,0,0,0,0,0,0,0,0,-1,1301,603,0,0
84,421,0,0,0,0,0,0,0,0,0,-1,1308,603,0,0
91,421,0,0,0,0,0,0,0,0,0,-1,1315,603,0,0
98,421,0,0,0,0,0,0,0,0,0,-1,1322,603,0,0
105,421,0,0,0,0,0,0,0,0,0,-1,1329,603,0,0
112,421,0,0,0,0,0,0,0,0,0,-1,1336,603,0,0
119,421,0,0,0,0,0,0,0,0,0,-1,1343,603,0,0
126,421,0,0,0,0,0,0,0,0,0,-1,1350,603,0,0
133,421,0,0,0,0,0,0,0,0,0,-1,1357,603,0,0
140,421,0,0,0,0,0,0,0,0,0,-1,1364,603,0,0
147,421,0,0,0,0,0,0,0,0,0,-1,1371,603,0,0
154,421,0,0,0,0,0,0,0,0,0,-1,1378,603,0,0
161,421,0,0,0,0,0,0,0,0,0,-1,1385,603,0,0
168,421,0,0,0,0,0,0,0,0,0,-1,1392,603,0,0
175,421,0,0,0,0,0,0,0,0,0,-1,1399,603,0,0
182,421,0,0,0,0,0,0,0,0,0,-1,1406,603,0,0
189,421,0,0,0,0,0,0,0,0,0,-1,1413,603,0,0
196,421,0,0,0,0,0,0,0,0,0,-1,1420,603,0,0
203,421,0,0,0,0,0,0,0,0,0,-1,1427,603,0,0
210,421,0,0,0,0,0,0,0,0,0,-1,1434,603,0,0
217,421,0,0,0,0,0,0,0,0,0,-1,1441,603,0,0
224,421,0,0,0,0,0,0,0,0,0,-1,1448,603,0,0
231,421,0,0,0,0,0,0,0,0,0,-1,1455,603,0,0
238,421,0,0,0,0,0,0,0,0,0,-1,1462,603,0,0
245,421,0,0,0,0,0,0,0,0,0,-1,1469,603,0,0
252,421,0,0,0,0,0,0,0,0,0,-1,1476,603,0,0
259,421,0,0,0,0,0,0,0,0,0,-1,1483,603,0,0
266,421,0,0,0,0,0,0,0,0,0,-1,1490,603,0,0
273,421,0,0,0,0,0,0,0,0,0,-1,1497,603,0,0
280,421,0,0,0,0,0,0,0,0,0,-1,1504,603,0,0
287,421,0,0,0,0,0,0,0,0,0,-1,1511,603,0,0
294,421,0,0,0,0,0,0,0,0,0,-1,1518,603,0,0
301,421,0,0,0,0,0,0,0,0,0,-1,1525,603,0,0
308,421,0,0,0,0,0,0,0,0,0,-1,1532,603,0,0
315,421,0,0,0,0,0,0,0,0,0,-1,1539,603,0,0
322,421,0,0,0,0,0,0,0,0,0,-1,1546,603,0,0
329,421,0,0,0,0,0,0,0,0,0,-1,1553,603,0,0
336,421,0,0,0,0,0,0,0,0,0,-1,1560,603,0,0
343,421,0,0,0,0,0,0,0,0,0,-1,1567,603,0,0
350,421,0,0,0,0,0,0,0,0,0,-1,1574,603,0,0
357,421,0,0,0,0,0,0,0,0,0,-1,1581,603,0,0
364,421,0,0,0,0,0,0,0,0,0,-1,1588,603,0,0
371,421,0,0,0,0,0,0,0,0,0,-1,1595,603,0,0
378,421,0,0,0,0,0,0,0,0,0,-1,1602,603,0,0
385,421,0,0,0,0,0,0,0,0,0,-1,1609,603,0,0
392,421,0,0,0,0,0,0,0,0,0,-1,1616,603,0,0
399,421,0,0,0,0,0,0,0,0,0,-1,1623,603,0,0
406,421,0,0,0,0,0,0,0,0,0,-1,1630,603,0,0
413,421,0,0,0,0,0,0,0,0,0,-1,1637,603,0,0
420,421,0,0,0,0,0,0,0,0,0,-1,1644,603,0,0
427,421,0,0,0,0,0,0,0,0,0,-1,1651,603,0,0
434,421,3.68176,-0.0327759,0,0,0,0,0,0,0,-1,1658,603,3.6818,0.0328037
441,421,8.06689,0.527832,0,0,0,0,0,0,0,-1,1665,603,8.06693,-0.527851
448,421,4.64221,1.95422,0,0,0,0,0,0,0,-1,1672,603,4.64217,-1.95422
455,421,4.83276,2.82635,0,0,0,0,0,0,0,-1,1679,603,4.83282,-2.82638
462,421,5.03223,3.32697,0,0,0,0,0,0,0,-1,1686,603,5.03225,-3.32696
469,421,5.80798,3.56537,0,0,0,0,0,0,0,-1,1693,603,5.80797,-3.56536
476,421,6.59766,3.39417,0,0,0,0,0,0,0,-1,1700,603,6.5976,-3.39415
483,421,6.68274,2.5625,0,0,0,0,0,0,0,-1,1707,603,6.68278,-2.56252
490,421,3.88794,-1.64453,0,0,0,0,0,0,0,-1,1714,603,3.88788,1.64453
497,421,2.2821,-1.10364,0,0,0,0,0,0,0,-1,1721,603,2.28208,1.10364
504,421,3.71875,-0.776794,0,0,0,0,0,0,0,-1,1728,603,3.71876,0.77682
511,421,3.84448,-0.711548,0.0114705,-0.00365172,-0.0124222,0.0184518,-0.010633,-0.512011,0.0169932,0.0444599,1735,603,3.84452,0.71155
518,421,3.97107,-0.785034,0.00825693,-0.00603637,-0.0118257,0.0149277,-0.0127071,-0.513598,0.0159721,0.0432917,1742,603,3.97104,0.785064
525,421,3.96912,-0.817383,0.0055752,-0.00541364,-0.0100787,0.0115599,-0.0113983,-0.535842,0.013255,0.0317154,1749,603,3.96913,0.817378
532,421,3.88379,-0.772522,0.00347386,-0.00457713,-0.00829601,0.00866945,-0.00977272,-0.559516,0.0106539,0.0195189,1756,603,3.88382,0.772498
539,421,3.92432,-0.695068,0.00192874,-0.00366919,-0.00640476,0.00611942,-0.00785987,-0.579397,0.00809177,0.019191,1763,603,3.92433,0.695051
546,421,3.93164,-0.635742,0.00111939,-0.00249346,-0.00467357,0.00432349,-0.00569756,-0.600982,0.00580376,0.0124462,1770,603,3.93163,0.635769
553,421,3.92834,-0.545959,0.000722105,-0.00121221,-0.00303544,0.00294075,-0.00343085,-0.631172,0.00368227,0.0110442,1777,603,3.92833,0.545977
560,421,3.93774,-0.468018,0.00135686,0.00112666,-0.00136314,0.00260975,-0.000126231,-0.74328,0.0017834,0.0132683,1784,603,3.93779,0.46799
567,421,3.95325,-0.404236,0.00256988,0.0036442,0.000629081,0.00393425,0.00227982,1.13877,0.00228099,0.0152943,1791,603,3.95321,0.404222
574,421,3.96228,-0.331055,0.00437674,0.00689581,0.00273948,0.00865143,0.00262112,1.00087,0.00512254,0.01668,1798,603,3.96225,0.331045
581,421,3.96228,-0.252563,0.00640538,0.0104715,0.00459816,0.013466,0.00341087,0.993549,0.00808391,0.0159595,1805,603,3.96223,0.252542
588,421,3.92871,-0.194885,0.00828149,0.0147647,0.00645772,0.0187487,0.00429743,1.01801,0.0113414,0.0121233,1812,603,3.92873,0.194858
595,421,3.91248,-0.0981445,0.0103045,0.0195495,0.00821516,0.0243533,0.00550063,1.04166,0.014748,0.0142975,1819,603,3.9125,0.0981296
602,421,3.90845,-0.0435791,0.0124573,0.0251116,0.0103528,0.0309176,0.00665129,1.05969,0.0187912,0.0129302,1826,603,3.90842,0.0435547
609,421,3.88245,0.0393677,0.0142122,0.0312823,0.0131593,0.0384321,0.00706245,1.07309,0.0236218,0.0218609,1833,603,3.88246,-0.0393534
616,421,4.04382,0.0553589,0.0157159,0.0382135,0.0161585,0.0466531,0.00727628,1.08947,0.0289827,0.038548,1840,603,4.04385,-0.0553633
623,421,4.52759,0.321228,0.0178925,0.0461794,0.0191712,0.0558597,0.00821221,1.1032,0.0348267,0.045366,1847,603,4.52761,-0.321252
630,421,4.71423,0.723816,0,0,0,0,0,0,0,-1,1854,603,4.71429,-0.723822
637,421,3.32166,0.987793,0,0,0,0,0,0,0,-1,1861,603,3.32168,-0.987813
644,421,5.42896,0.344788,0,0,0,0,0,0,0,-1,1868,603,5.42895,-0.344795
651,421,6.12769,0.499023,0,0,0,0,0,0,0,-1,1875,603,6.12766,-0.499029
658,421,0,0,0,0,0,0,0,0,0,-1,1882,603,0,0
665,421,0,0,0,0,0,0,0,0,0,-1,1889,603,0,0
672,421,0,0,0,0,0,0,0,0,0,-1,1896,603,0,0
679,421,0,0,0,0,0,0,0,0,0,-1,1903,603,0,0
686,421,0,0,0,0,0,0,0,0,0,-1,1910,603,0,0
693,421,0,0,0,0,0,0,0,0,0,-1,1917,603,0,0
700,421,0,0,0,0,0,0,0,0,0,-1,1924,603,0,0
707,421,0,0,0,0,0,0,0,0,0,-1,1931,603,0,0
714,421,0,0,0,0,0,0,0,0,0,-1,1938,603,0,0
721,421,0,0,0,0,0,0,0,0,0,-1,1945,603,0,0
728,421,0,0,0,0,0,0,0,0,0,-1,1952,603,0,0
735,421,0,0,0,0,0,0,0,0,0,-1,1959,603,0,0
742,421,0,0,0,0,0,0,0,0,0,-1,1966,603,0,0
749,421,0,0,0,0,0,0,0,0,0,-1,1973,603,0,0
756,421,0,0,0,0,0,0,0,0,0,-1,1980,603,0,0
763,421,0,0,0,0,0,0,0,0,0,-1,1987,603,0,0
770,421,0,0,0,0,0,0,0,0,0,-1,1994,603,0,0
777,421,0,0,0,0,0,0,0,0,0,-1,2001,603,0,0
784,421,0,0,0,0,0,0,0,0,0,-1,2008,603,0,0
791,421,0,0,0,0,0,0,0,0,0,-1,2015,603,0,0
798,421,0,0,0,0,0,0,0,0,0,-1,2022,603,0,0
805,421,0,0,0,0,0,0,0,0,0,-1,2029,603,0,0
812,421,0,0,0,0,0,0,0,0,0,-1,2036,603,0,0
-700,414,0,0,0,0,0,0,0,0,0,-1,524,610,0,0
-693,414,0,0,0,0,0,0,0,0,0,-1,531,610,0,0
-686,414,0,0,0,0,0,0,0,0,0,-1,538,610,0,0
-679,414,0,0,0,0,0,0,0,0,0,-1,545,610,0,0
-672,414,0,0,0,0,0,0,0,0,0,-1,552,610,0,0
-665,414,0,0,0,0,0,0,0,0,0,-1,559,610,0,0
-658,414,0,0,0,0,0,0,0,0,0,-1,566,610,0,0
-651,414,0,0,0,0,0,0,0,0,0,-1,573,610,0,0
-644,414,0,0,0,0,0,0,0,0,0,-1,580,610,0,0
-637,414,0,0,0,0,0,0,0,0,0,-1,587,610,0,0
-630,414,0,0,0,0,0,0,0,0,0,-1,594,610,0,0
-623,414,0,0,0,0,0,0,0,0,0,-1,601,610,0,0
-616,414,0,0,0,0,0,0,0,0,0,-1,608,610,0,0
-609,414,0,0,0,0,0,0,0,0,0,-1,615,610,0,0
-602,414,0,0,0,0,0,0,0,0,0,-1,622,610,0,0
-595,414,0,0,0,0,0,0,0,0,0,-1,629,610,0,0
-588,414,0,0,0,0,0,0,0,0,0,-1,636,610,0,0
-581,414,0,0,0,0,0,0,0,0,0,-1,643,610,0,0
-574,414,0,0,0,0,0,0,0,0,0,-1,650,610,0,0
-567,414,0,0,0,0,0,0,0,0,0,-1,657,610,0,0
-560,414,0,0,0,0,0,0,0,0,0,-1,664,610,0,0
-553,414,0,0,0,0,0,0,0,0,0,-1,671,610,0,0
-546,414,0,0,0,0,0,0,0,0,0,-1,678,610,0,0
-539,414,0.704163,0.286621,-0.00344346,-0.0370887,0.0143529,0.0018474,-0.0423795,0.353172,0.0288885,0.0475575,685,610,0.704191,-0.28664
-532,414,0.38855,0.411926,0.000582606,-0.032828,0.0104462,0.00357986,-0.0358253,0.279416,0.0251618,0.0476556,692,610,0.38857,-0.41192
-525,414,0.458069,0.0515137,0.00397958,-0.0276527,0.00528441,0.00483903,-0.0285121,0.161227,0.0208095,0.0464296,699,610,0.45808,-0.0515321
-518,414,0.00738525,0.0836182,0,0,0,0,0,0,0,-1,706,610,0.00738621,-0.0835997
-511,414,0.164856,-0.219421,0,0,0,0,0,0,0,-1,713,610,0.16486,0.219436
-504,414,0.677002,-1.16931,0,0,0,0,0,0,0,-1,720,610,0.67698,1.1693
-497,414,0.313354,-0.82196,0.00952683,-0.0121889,-0.000741476,0.00955212,-0.0122142,-0.0340918,0.0125981,0.0460722,727,610,0.313326,0.821938
-490,414,0.0866699,-0.296631,0.00968588,-0.00875222,-0.00251161,0.0100219,-0.00908823,-0.132991,0.0110376,0.0353814,734,610,0.0866693,0.296626
-483,414,0.185547,-0.220459,0.00966923,-0.00578662,-0.00404741,0.010665,-0.00678236,-0.241229,0.010156,0.0152389,741,610,0.185575,0.220463
-476,414,0.197632,-0.27179,0.00862205,-0.00373335,-0.00406908,0.00984174,-0.00495304,-0.291224,0.00869582,0.00999706,748,610,0.197616,0.271773
-469,414,0.193298,-0.349121,0.00725373,-0.00218519,-0.00354094,0.00843441,-0.00336587,-0.321842,0.00701925,0.0103517,755,610,0.193302,0.349105
-462,414,0.213806,-0.436279,0.00591927,-0.00178397,-0.00294493,0.00691611,-0.00278081,-0.326388,0.00576571,0.0195519,762,610,0.213795,0.436293
-455,414,0.190613,-0.501953,0.00477434,-0.0016203,-0.00210453,0.0054048,-0.00225077,-0.291065,0.00454326,0.0231186,769,610,0.190613,0.501935
-448,414,0.173096,-0.574585,0.00374599,-0.00158832,-0.00128561,0.00403966,-0.001882,-0.224578,0.0034937,0.0227375,776,610,0.173073,0.574594
-441,414,0.221008,-0.670593,0.00289063,-0.000853431,-0.000801319,0.00305492,-0.00101772,-0.202225,0.00244744,0.0161152,783,610,0.220979,0.670593
-434,414,0.210022,-0.747681,0.00179374,-0.000150288,-0.000292472,0.00183679,-0.000193336,-0.146138,0.00129379,0.00889918,790,610,0.209996,0.747707
-427,414,0.206482,-0.801147,0.000367261,0.00100946,8.43504e-05,0.00102036,0.000356367,1.44235,0.000597962,0.00929941,797,610,0.206503,0.801173
-420,414,0.213501,-0.845703,-0.000461896,0.00249954,0.0011813,0.00291302,-0.000875377,1.2341,0.00229026,0.00982463,804,610,0.213472,0.845719
-413,414,0.213501,-0.926208,-0.00107371,0.00412656,0.00243948,0.00509178,-0.00203893,1.19403,0.00424082,0.0102875,811,610,0.213529,0.926238
-406,414,0.215088,-1.0141,-0.00238929,0.00464679,0.00284928,0.0056559,-0.00339839,1.23042,0.00528138,0.0133771,818,610,0.215095,1.01412
-399,414,0.221191,-1.04236,-0.00360683,0.00587041,0.00363945,0.00710675,-0.00484317,1.24332,0.00694042,0.0175562,825,610,0.221201,1.04235
-392,414,0.230835,-1.10327,-0.00600834,0.0071365,0.00468132,0.00863324,-0.00750508,1.26134,0.00932505,0.0250677,832,610,0.230852,1.10329
-385,414,0.236633,-1.2218,-0.00942692,0.0082393,0.00554447,0.00983524,-0.0110229,1.29053,0.0120489,0.0438658,839,610,0.236606,1.22182
-378,414,-0.225586,-1.14526,-0.0136409,0.00976627,0.00620999,0.0113118,-0.0151864,1.32688,0.0153532,0.0474701,846,610,-0.225598,1.14527
-371,414,-1.26099,-2.20898,-0.0178865,0.0101926,0.00705887,0.0118673,-0.0195611,1.33786,0.0183256,0.0425965,853,610,-1.26101,2.20897
-364,414,0.0830688,0.411438,-0.0228979,0.0105925,0.00767964,0.0122696,-0.024575,1.3558,0.0216641,0.0417643,860,610,0.0830758,-0.411425
-357,414,0.0355835,0.823303,-0.0291196,0.0112086,0.00811015,0.0127785,-0.0306894,1.37959,0.0257966,0.0431422,867,610,0.0355811,-0.823278
-350,414,-1.59882,-2.18372,0,0,0,0,0,0,0,-1,874,610,-1.59881,2.18374
-343,414,-2.25354,-1.03625,-0.0425484,0.0156277,0.00611407,0.0162634,-0.043184,1.46721,0.0354756,0.0420113,881,610,-2.25352,1.03624
-336,414,-3.09296,-0.398804,-0.0472761,0.0210473,0.00287532,0.021168,-0.0473969,1.52881,0.04054,0.0454254,888,610,-3.09299,0.398779
-329,414,-3.95587,0.136475,-0.0521384,0.0291629,-0.00168953,0.029198,-0.0521735,-1.55003,0.0475999,0.0491777,895,610,-3.95585,-0.136481
-322,414,-4.82507,0.604736,0,0,0,0,0,0,0,-1,902,610,-4.82505,-0.60472
-315,414,0,0,0,0,0,0,0,0,0,-1,909,610,0,0
-308,414,0,0,0,0,0,0,0,0,0,-1,916,610,0,0
-301,414,0,0,0,0,0,0,0,0,0,-1,923,610,0,0
-294,414,0,0,0,0,0,0,0,0,0,-1,930,610,0,0
-287,414,0,0,0,0,0,0,0,0,0,-1,937,610,0,0
-280,414,0,0,0,0,0,0,0,0,0,-1,944,610,0,0
-273,414,0,0,0,0,0,0,0,0,0,-1,951,610,0,0
-266,414,0,0,0,0,0,0,0,0,0,-1,958,610,0,0
-259,414,0,0,0,0,0,0,0,0,0,-1,965,610,0,0
-252,414,0,0,0,0,0,0,0,0,0,-1,972,610,0,0
-245,414,0,0,0,0,0,0,0,0,0,-1,979,610,0,0
-238,414,0,0,0,0,0,0,0,0,0,-1,986,610,0,0
-231,414,0,0,0,0,0,0,0,0,0,-1,993,610,0,0
-224,414,0,0,0,0,0,0,0,0,0,-1,1000,610,0,0
-217,414,0,0,0,0,0,0,0,0,0,-1,1007,610,0,0
-210,414,0,0,0,0,0,0,0,0,0,-1,1014,610,0,0
-203,414,0,0,0,0,0,0,0,0,0,-1,1021,610,0,0
-196,414,0,0,0,0,0,0,0,0,0,-1,1028,610,0,0
-189,414,0,0,0,0,0,0,0,0,0,-1,1035,610,0,0
-182,414,0,0,0,0,0,0,0,0,0,-1,1042,610,0,0
-175,414,0,0,0,0,0,0,0,0,0,-1,1049,610,0,0
-168,414,0,0,0,0,0,0,0,0,0,-1,1056,610,0,0
-161,414,0,0,0,0,0,0,0,0,0,-1,1063,610,0,0
-154,414,0,0,0,0,0,0,0,0,0,-1,1070,610,0,0
-147,414,0,0,0,0,0,0,0,0,0,-1,1077,610,0,0
-140,414,0,0,0,0,0,0,0,0,0,-1,1084,610,0,0
-133,414,0,0,0,0,0,0,0,0,0,-1,1091,610,0,0
-126,414,0,0,0,0,0,0,0,0,0,-1,1098,610,0,0
-119,414,0,0,0,0,0,0,0,0,0,-1,1105,610,0,0
-112,414,0,0,0,0,0,0,0,0,0,-1,1112,610,0,0
-105,414,0,0,0,0,0,0,0,0,0,-1,1119,610,0,0
-98,414,0,0,0,0,0,0,0,0,0,-1,1126,610,0,0
-91,414,0,0,0,0,0,0,0,0,0,-1,1133,610,0,0
-84,414,0,0,0,0,0,0,0,0,0,-1,1140,610,0,0
-77,414,0,0,0,0,0,0,0,0,0,-1,1147,610,0,0
-70,414,0,0,0,0,0,0,0,0,0,-1,1154,610,0,0
-63,414,0,0,0,0,0,0,0,0,0,-1,1161,610,0,0
-56,414,0,0,0,0,0,0,0,0,0,-1,1168,610,0,0
-49,414,0,0,0,0,0,0,0,0,0,-1,1175,610,0,0
-42,414,0,0,0,0,0,0,0,0,0,-1,1182,610,0,0
-35,414,0,0,0,0,0,0,0,0,0,-1,1189,610,0,0
-28,414,0,0,0,0,0,0,0,0,0,-1,1196,610,0,0
-21,414,0,0,0,0,0,0,0,0,0,-1,1203,610,0,0
-14,414,0,0,0,0,0,0,0,0,0,-1,1210,610,0,0
-7,414,0,0,0,0,0,0,0,0,0,-1,1217,610,0,0
0,414,0,0,0,0,0,0,0,0,0,-1,1224,610,0,0
7,414,0,0,0,0,0,0,0,0,0,-1,1231,610,0,0
14,414,0,0,0,0,0,0,0,0,0,-1,1238,610,0,0
21,414,0,0,0,0,0,0,0,0,0,-1,1245,610,0,0
28,414,0,0,0,0,0,0,0,0,0,-1,1252,610,0,0
35,414,0,0,0,0,0,0,0,0,0,-1,1259,610,0,0
42,414,0,0,0,0,0,0,0,0,0,-1,1266,610,0,0
49,414,0,0,0,0,0,0,0,0,0,-1,1273,610,0,0
56,414,0,0,0,0,0,0,0,0,0,-1,1280,610,0,0
63,414,0,0,0,0,0,0,0,0,0,-1,1287,610,0,0
70,414,0,0,0,0,0,0,0,0,0,-1,1294,610,0,0
77,414,0,0,0,0,0,0,0,0,0,-1,1301,610,0,0
84,414,0,0,0,0,0,0,0,0,0,-1,1308,610,0,0
91,414,0,0,0,0,0,0,0,0,0,-1,1315,610,0,0
98,414,0,0,0,0,0,0,0,0,0,-1,1322,610,0,0
105,414,0,0,0,0,0,0,0,0,0,-1,1329,610,0,0
112,414,0,0,0,0,0,0,0,0,0,-1,1336,610,0,0
119,414,0,0,0,0,0,0,0,0,0,-1,1343,610,0,0
126,414,0,0,0,0,0,0,0,0,0,-1,1350,610,0,0
133,414,0,0,0,0,0,0,0,0,0,-1,1357,610,0,0
140,414,0,0,0,0,0,0,0,0,0,-1,1364,610,0,0
147,414,0,0,0,0,0,0,0,0,0,-1,1371,610,0,0
154,414,0,0,0,0,0,0,0,0,0,-1,1378,610,0,0
161,414,0,0,0,0,0,0,0,0,0,-1,1385,610,0,0
168,414,0,0,0,0,0,0,0,0,0,-1,1392,610,0,0
175,414,0,0,0,0,0,0,0,0,0,-1,1399,610,0,0
182,414,0,0,0,0,0,0,0,0,0,-1,1406,610,0,0
189,414,0,0,0,0,0,0,0,0,0,-1,1413,610,0,0
196,414,0,0,0,0,0,0,0,0,0,-1,1420,610,0,0
203,414,0,0,0,0,0,0,0,0,0,-1,1427,610,0,0
210,414,0,0,0,0,0,0,0,0,0,-1,1434,610,0,0
217,414,0,0,0,0,0,0,0,0,0,-1,1441,610,0,0
224,414,0,0,0,0,0,0,0,0,0,-1,1448,610,0,0
231,414,0,0,0,0,0,0,0,0,0,-1,1455,610,0,0
238,414,0,0,0,0,0,0,0,0,0,-1,1462,610,0,0
245,414,0,0,0,0,0,0,0,0,0,-1,1469,610,0,0
252,414,0,0,0,0,0,0,0,0,0,-1,1476,610,0,0
259,414,0,0,0,0,0,0,0,0,0,-1,1483,610,0,0
266,414,0,0,0,0,0,0,0,0,0,-1,1490,610,0,0
273,414,0,0,0,0,0,0,0,0,0,-1,1497,610,0,0
280,414,0,0,0,0,0,0,0,0,0,-1,1504,610,0,0
287,414,0,0,0,0,0,0,0,0,0,-1,1511,610,0,0
294,414,0,0,0,0,0,0,0,0,0,-1,1518,610,0,0
301,414,0,0,0,0,0,0,0,0,0,-1,1525,610,0,0
308,414,0,0,0,0,0,0,0,0,0,-1,1532,610,0,0
315,414,0,0,0,0,0,0,0,0,0,-1,1539,610,0,0
322,414,0,0,0,0,0,0,0,0,0,-1,1546,610,0,0
329,414,0,0,0,0,0,0,0,0,0,-1,1553,610,0,0
336,414,0,0,0,0,0,0,0,0,0,-1,1560,610,0,0
343,414,0,0,0,0,0,0,0,0,0,-1,1567,610,0,0
350,414,0,0,0,0,0,0,0,0,0,-1,1574,610,0,0
357,414,0,0,0,0,0,0,0,0,0,-1,1581,610,0,0
364,414,0,0,0,0,0,0,0,0,0,-1,1588,610,0,0
371,414,0,0,0,0,0,0,0,0,0,-1,1595,610,0,0
378,414,0,0,0,0,0,0,0,0,0,-1,1602,610,0,0
385,414,0,0,0,0,0,0,0,0,0,-1,1609,610,0,0
392,414,0,0,0,0,0,0,0,0,0,-1,1616,610,0,0
399,414,0,0,0,0,0,0,0,0,0,-1,1623,610,0,0
406,414,0,0,0,0,0,0,0,0,0,-1,1630,610,0,0
413,414,0,0,0,0,0,0,0,0,0,-1,1637,610,0,0
420,414,0,0,0,0,0,0,0,0,0,-1,1644,610,0,0
427,414,0,0,0,0,0,0,0,0,0,-1,1651,610,0,0
434,414,0,0,0,0,0,0,0,0,0,-1,1658,610,0,0
441,414,4.49573,0.445007,0,0,0,0,0,0,0,-1,1665,610,4.49578,-0.445009
448,414,4.64734,1.46417,0,0,0,0,0,0,0,-1,1672,610,4.6474,-1.46418
455,414,4.94629,2.08722,0,0,0,0,0,0,0,-1,1679,610,4.94634,-2.08724
462,414,5.38013,2.51221,0,0,0,0,0,0,0,-1,1686,610,5.38008,-2.51218
469,414,5.95166,2.70459,0,0,0,0,0,0,0,-1,1693,610,5.95172,-2.70456
476,414,6.57373,2.67828,0,0,0,0,0,0,0,-1,1700,610,6.57378,-2.67829
483,414,6.8988,2.00946,0,0,0,0,0,0,0,-1,1707,610,6.89878,-2.00943
490,414,6.9502,1.362,0,0,0,0,0,0,0,-1,1714,610,6.95014,-1.36203
497,414,3.7522,-0.682068,0,0,0,0,0,0,0,-1,1721,610,3.7522,0.682094
504,414,3.27722,-0.103394,0,0,0,0,0,0,0,-1,1728,610,3.27724,0.103382
511,414,3.85303,-0.383057,0,0,0,0,0,0,0,-1,1735,610,3.85304,0.383055
518,414,3.96533,-0.714539,0,0,0,0,0,0,0,-1,1742,610,3.96536,0.71454
525,414,4.07422,-0.800354,0.00709141,-0.0064259,-0.0143039,0.0161531,-0.0154876,-0.564694,0.0182691,0.0410528,1749,610,4.07425,0.800367
532,414,4.05042,-0.920471,0.00463007,-0.00538998,-0.0119255,0.0125552,-0.0133151,-0.586537,0.0149383,0.0366571,1756,610,4.05038,0.920445
539,414,3.98718,-0.745728,0.00274364,-0.00435015,-0.00941746,0.00925999,-0.0108665,-0.605299,0.0116324,0.0189606,1763,610,3.98721,0.745755
546,414,3.99292,-0.632813,0.00161071,-0.00301842,-0.00716681,0.00682744,-0.00823515,-0.629207,0.00870904,0.0115013,1770,610,3.99298,0.632827
553,414,3.99634,-0.551575,0.000789376,-0.00188393,-0.00506003,0.00468632,-0.00578088,-0.656268,0.00605424,0.0109788,1777,610,3.99635,0.551603
560,414,4.01392,-0.44873,0.000952055,-8.27465e-06,-0.00304055,0.00355012,-0.00260634,-0.707085,0.00356833,0.0126595,1784,610,4.01396,0.448732
567,414,4.03833,-0.365417,0.00163197,0.00196836,-0.000850905,0.00266754,0.000932799,-0.882973,0.00156313,0.0210581,1791,610,4.03837,0.365418
574,414,4.021,-0.3125,0.00287109,0.0044157,0.00122309,0.00508992,0.00219688,1.06701,0.00294781,0.0186179,1798,610,4.02098,0.312476
581,414,4.03101,-0.232971,0.00431562,0.00701175,0.00284785,0.00881448,0.00251289,1.00645,0.0052434,0.0161656,1805,610,4.03095,0.232964
588,414,4.0061,-0.189758,0.00560138,0.0101528,0.00429538,0.0127381,0.00301611,1.029,0.00768652,0.016836,1812,610,4.00612,0.189783
595,414,3.99487,-0.0855713,0.00694099,0.0133725,0.00545927,0.0164927,0.00382076,1.05156,0.0099687,0.0211077,1819,610,3.99486,0.0855722
602,414,4.01404,-0.0406494,0.00831217,0.0170285,0.00681548,0.0207601,0.00458056,1.06986,0.012594,0.021353,1826,610,4.01402,0.0406557
609,414,3.9845,0.0394897,0.00919157,0.0210179,0.0087261,0.0256456,0.00456383,1.08318,0.0157971,0.0141126,1833,610,3.98449,-0.0394953
616,414,4.03613,0.0715332,0.00994228,0.0255965,0.0107105,0.0310351,0.00450373,1.10095,0.0193642,0.0228999,1840,610,4.0361,-0.071516
623,414,4.24939,0.114868,0.0116405,0.0313034,0.0126927,0.0375269,0.00541701,1.11492,0.023422,0.0349037,1847,610,4.24944,-0.114893
630,414,3.91211,0.574341,0,0,0,0,0,0,0,-1,1854,610,3.91211,-0.574336
637,414,3.34753,0.709595,0,0,0,0,0,0,0,-1,1861,610,3.3475,-0.709586
644,414,2.78284,0.844849,0,0,0,0,0,0,0,-1,1868,610,2.78289,-0.844835
651,414,5.65076,-0.0264893,0,0,0,0,0,0,0,-1,1875,610,5.6507,0.0265009
658,414,6.71509,0.589355,0,0,0,0,0,0,0,-1,1882,610,6.71511,-0.589377
665,414,0,0,0,0,0,0,0,0,0,-1,1889,610,0,0
672,414,0,0,0,0,0,0,0,0,0,-1,1896,610,0,0
679,414,0,0,0,0,0,0,0,0,0,-1,1903,610,0,0
686,414,0,0,0,0,0,0,0,0,0,-1,1910,610,0,0
693,414,0,0,0,0,0,0,0,0,0,-1,1917,610,0,0
700,414,0,0,0,0,0,0,0,0,0,-1,1924,610,0,0
707,414,0,0,0,0,0,0,0,0,0,-1,1931,610,0,0
714,414,0,0,0,0,0,0,0,0,0,-1,1938,610,0,0
721,414,0,0,0,0,0,0,0,0,0,-1,1945,610,0,0
728,414,0,0,0,0,0,0,0,0,0,-1,1952,610,0,0
735,414,0,0,0,0,0,0,0,0,0,-1,1959,610,0,0
742,414,0,0,0,0,0,0,0,0,0,-1,1966,610,0,0
749,414,0,0,0,0,0,0,0,0,0,-1,1973,610,0,0
756,414,0,0,0,0,0,0,0,0,0,-1,1980,610,0,0
763,414,0,0,0,0,0,0,0,0,0,-1,1987,610,0,0
770,414,0,0,0,0,0,0,0,0,0,-1,1994,610,0,0
777,414,0,0,0,0,0,0,0,0,0,-1,2001,610,0,0
784,414,0,0,0,0,0,0,0,0,0,-1,2008,610,0,0
791,414,0,0,0,0,0,0,0,0,0,-1,2015,610,0,0
798,414,0,0,0,0,0,0,0,0,0,-1,2022,610,0,0
805,414,0,0,0,0,0,0,0,0,0,-1,2029,610,0,0
812,414,0,0,0,0,0,0,0,0,0,-1,2036,610,0,0
-700,407,0,0,0,0,0,0,0,0,0,-1,524,617,0,0
-693,407,0,0,0,0,0,0,0,0,0,-1,531,617,0,0
-686,407,0,0,0,0,0,0,0,0,0,-1,538,617,0,0
-679,407,0,0,0,0,0,0,0,0,0,-1,545,617,0,0
-672,407,0,0,0,0,0,0,0,0,0,-1,552,617,0,0
-665,407,0,0,0,0,0,0,0,0,0,-1,559,617,0,0
-658,407,0,0,0,0,0,0,0,0,0,-1,566,617,0,0
-651,407,0,0,0,0,0,0,0,0,0,-1,573,617,0,0
-644,407,0,0,0,0,0,0,0,0,0,-1,580,617,0,0
-637,407,0,0,0,0,0,0,0,0,0,-1,587,617,0,0
-630,407,0,0,0,0,0,0,0,0,0,-1,594,617,0,0
-623,407,0,0,0,0,0,0,0,0,0,-1,601,617,0,0
-616,407,0,0,0,0,0,0,0,0,0,-1,608,617,0,0
-609,407,0,0,0,0,0,0,0,0,0,-1,615,617,0,0
-602,407,0,0,0,0,0,0,0,0,0,-1,622,617,0,0
-595,407,0,0,0,0,0,0,0,0,0,-1,629,617,0,0
-588,407,0,0,0,0,0,0,0,0,0,-1,636,617,0,0
-581,407,0,0,0,0,0,0,0,0,0,-1,643,617,0,0
-574,407,0,0,0,0,0,0,0,0,0,-1,650,617,0,0
-567,407,0,0,0,0,0,0,0,0,0,-1,657,617,0,0
-560,407,0,0,0,0,0,0,0,0,0,-1,664,617,0,0
-553,407,0,0,0,0,0,0,0,0,0,-1,671,617,0,0
-546,407,0.239746,0.673218,0.00296257,-0.0234662,-0.00543397,0.00403622,-0.0245399,-0.195069,0.017858,0.0462516,678,617,0.239759,-0.673232
-539,407,0.328613,0.476135,0.00281785,-0.0252539,0.000564049,0.00282918,-0.0252652,0.0200823,0.0178614,0.0474179,685,617,0.328636,-0.476148
-532,407,0.188843,0.590942,0.00404858,-0.0237055,0.00186228,0.00417298,-0.0238299,0.0667007,0.0174448,0.04744,692,617,0.188869,-0.590927
-525,407,0.282227,0.311584,0.00517728,-0.0209821,0.00130815,0.00524254,-0.0210474,0.0498411,0.0160668,0.0454918,699,617,0.282197,-0.311592
-518,407,0.162231,0.218933,0,0,0,0,0,0,0,-1,706,617,0.162214,-0.218958
-511,407,0.0879517,-0.144287,0,0,0,0,0,0,0,-1,713,617,0.0879276,0.14431
-504,407,0.208923,-0.438477,0,0,0,0,0,0,0,-1,720,617,0.208934,0.438474
-497,407,0.154724,-0.273926,0.00686634,-0.0103133,0.000895351,0.00691287,-0.0103598,0.0519296,0.0100383,0.0370426,727,617,0.154707,0.273928
-490,407,0.117615,-0.183167,0.00694077,-0.00741435,-0.000668264,0.00697181,-0.00744539,-0.0464185,0.00832527,0.0198652,734,617,0.117629,0.183173
-483,407,0.13501,-0.206482,0.00689421,-0.00494059,-0.00205186,0.00723986,-0.00528623,-0.166889,0.0072612,0.0104589,741,617,0.135002,0.2065
-476,407,0.146851,-0.264282,0.00605714,-0.00335595,-0.00213365,0.00651819,-0.003817,-0.212813,0.00603457,0.00948702,748,617,0.146856,0.264281
-469,407,0.143616,-0.340759,0.00497963,-0.00221655,-0.00176202,0.00538791,-0.00262483,-0.227691,0.00471695,0.0118022,755,617,0.143644,0.340739
-462,407,0.164368,-0.442017,0.00395151,-0.00213682,-0.00138847,0.00425321,-0.00243852,-0.213961,0.00391054,0.0186788,762,617,0.164389,0.441988
-455,407,0.166077,-0.515015,0.00313328,-0.0022222,-0.000743405,0.00323455,-0.00232348,-0.135402,0.00322327,0.0201607,769,617,0.166072,0.51499
-448,407,0.161865,-0.569214,0.00242604,-0.00231191,-9.93885e-05,0.00242812,-0.00231399,-0.0209648,0.00273813,0.0168712,776,617,0.161859,0.569207
-441,407,0.162415,-0.637329,0.00183715,-0.00154632,0.00023069,0.00185281,-0.00156198,0.0677636,0.00197391,0.013054,783,617,0.162424,0.63734
-434,407,0.150574,-0.71344,0.000984054,-0.000790383,0.000604481,0.00117041,-0.000976735,0.29904,0.00124133,0.0095647,790,617,0.150584,0.713437
-427,407,0.140808,-0.792114,-0.000284245,0.000613096,0.000819319,0.00109855,-0.0007697,1.0359,0.00108419,0.00959644,797,617,0.140817,0.792105
-420,407,0.144714,-0.843567,-0.00100751,0.0024385,0.00178656,0.00319754,-0.00176655,1.16904,0.00290544,0.00925725,804,617,0.144716,0.843594
-413,407,0.158386,-0.916321,-0.00157962,0.00446622,0.00285137,0.00559882,-0.00271223,1.19269,0.00489391,0.0095368,811,617,0.158385,0.916348
-406,407,0.14447,-0.958923,-0.00302269,0.00510508,0.00291968,0.00604516,-0.00396277,1.2593,0.00581962,0.0165432,818,617,0.144495,0.95895
-399,407,0.145996,-0.958008,-0.00453351,0.00651402,0.00338161,0.00746693,-0.00548642,1.29613,0.0075077,0.0310744,825,617,0.145993,0.958011
-392,407,0.199646,-1.20245,-0.00735913,0.00801934,0.00404278,0.00901736,-0.00835715,1.32877,0.0100336,0.0417067,832,617,0.199648,1.20245
-385,407,0.147644,-1.50317,-0.0113367,0.00933832,0.00437072,0.0102243,-0.0122227,1.37079,0.0129769,0.0462712,839,617,0.147651,1.50316
-378,407,-0.398315,-1.86035,-0.0162238,0.0110726,0.00435657,0.0117511,-0.0169023,1.41631,0.0166319,0.0471653,846,617,-0.39832,1.86037
-371,407,-1.15729,-1.93793,-0.0212816,0.0113973,0.00461169,0.0120357,-0.0219199,1.43325,0.0198792,0.0455087,853,617,-1.15727,1.93792
-364,407,-1.53052,-1.93311,-0.0272334,0.0115317,0.00466847,0.012086,-0.0277877,1.45262,0.0236086,0.045196,860,617,-1.53052,1.9331
-357,407,-1.82166,-2.12549,0,0,0,0,0,0,0,-1,867,617,-1.82165,2.12551
-350,407,-1.74329,-2.02112,-0.0430706,0.0125588,0.00426118,0.0128833,-0.0433951,1.49479,0.0340469,0.0470519,874,617,-1.74328,2.02113
-343,407,-2.02026,-1.19513,-0.0514533,0.0156055,0.00222694,0.0156794,-0.0515272,1.53764,0.0406,0.0449925,881,617,-2.02028,1.19511
-336,407,-2.52551,-0.723572,-0.0587872,0.0218241,-0.00146234,0.0218507,-0.0588137,-1.55266,0.0481739,0.0440125,888,617,-2.52553,0.723555
-329,407,-3.26874,-0.587952,-0.0663733,0.032198,-0.00709867,0.0327066,-0.0668819,-1.49927,0.0586151,0.0444995,895,617,-3.26873,0.587967
-322,407,0,0,0,0,0,0,0,0,0,-1,902,617,0,0
-315,407,0,0,0,0,0,0,0,0,0,-1,909,617,0,0
-308,407,0,0,0,0,0,0,0,0,0,-1,916,617,0,0
-301,407,0,0,0,0,0,0,0,0,0,-1,923,617,0,0
-294,407,0,0,0,0,0,0,0,0,0,-1,930,617,0,0
-287,407,0,0,0,0,0,0,0,0,0,-1,937,617,0,0
-280,407,0,0,0,0,0,0,0,0,0,-1,944,617,0,0
-273,407,0,0,0,0,0,0,0,0,0,-1,951,617,0,0
-266,407,0,0,0,0,0,0,0,0,0,-1,958,617,0,0
-259,407,0,0,0,0,0,0,0,0,0,-1,965,617,0,0
-252,407,0,0,0,0,0,0,0,0,0,-1,972,617,0,0
-245,407,0,0,0,0,0,0,0,0,0,-1,979,617,0,0
-238,407,0,0,0,0,0,0,0,0,0,-1,986,617,0,0
-231,407,0,0,0,0,0,0,0,0,0,-1,993,617,0,0
-224,407,0,0,0,0,0,0,0,0,0,-1,1000,617,0,0
-217,407,0,0,0,0,0,0,0,0,0,-1,1007,617,0,0
-210,407,0,0,0,0,0,0,0,0,0,-1,1014,617,0,0
-203,407,0,0,0,0,0,0,0,0,0,-1,1021,617,0,0
-196,407,0,0,0,0,0,0,0,0,0,-1,1028,617,0,0
-189,407,0,0,0,0,0,0,0,0,0,-1,1035,617,0,0
-182,407,0,0,0,0,0,0,0,0,0,-1,1042,617,0,0
-175,407,0,0,0,0,0,0,0,0,0,-1,1049,617,0,0
-168,407,0,0,0,0,0,0,0,0,0,-1,1056,617,0,0
-161,407,0,0,0,0,0,0,0,0,0,-1,1063,617,0,0
-154,407,0,0,0,0,0,0,0,0,0,-1,1070,617,0,0
-147,407,0,0,0,0,0,0,0,0,0,-1,1077,617,0,0
-140,407,0,0,0,0,0,0,0,0,0,-1,1084,617,0,0
-133,407,0,0,0,0,0,0,0,0,0,-1,1091,617,0,0
-126,407,0,0,0,0,0,0,0,0,0,-1,1098,617,0,0
-119,407,0,0,0,0,0,0,0,0,0,-1,1105,617,0,0
-112,407,0,0,0,0,0,0,0,0,0,-1,1112,617,0,0
-105,407,0,0,0,0,0,0,0,0,0,-1,1119,617,0,0
-98,407,0,0,0,0,0,0,0,0,0,-1,1126,617,0,0
-91,407,0,0,0,0,0,0,0,0,0,-1,1133,617,0,0
-84,407,0,0,0,0,0,0,0,0,0,-1,1140,617,0,0
-77,407,0,0,0,0,0,0,0,0,0,-1,1147,617,0,0
-70,407,0,0,0,0,0,0,0,0,0,-1,1154,617,0,0
-63,407,0,0,0,0,0,0,0,0,0,-1,1161,617,0,0
-56,407,0,0,0,0,0,0,0,0,0,-1,1168,617,0,0
-49,407,0,0,0,0,0,0,0,0,0,-1,1175,617,0,0
-42,407,0,0,0,0,0,0,0,0,0,-1,1182,617,0,0
-35,407,0,0,0,0,0,0,0,0,0,-1,1189,617,0,0
-28,407,0,0,0,0,0,0,0,0,0,-1,1196,617,0,0
-21,407,0,0,0,0,0,0,0,0,0,-1,1203,617,0,0
-14,407,0,0,0,0,0,0,0,0,0,-1,1210,617,0,0
-7,407,0,0,0,0,0,0,0,0,0,-1,1217,617,0,0
0,407,0,0,0,0,0,0,0,0,0,-1,1224,617,0,0
7,407,0,0,0,0,0,0,0,0,0,-1,1231,617,0,0
14,407,0,0,0,0,0,0,0,0,0,-1,1238,617,0,0
21,407,0,0,0,0,0,0,0,0,0,-1,1245,617,0,0
28,407,0,0,0,0,0,0,0,0,0,-1,1252,617,0,0
35,407,0,0,0,0,0,0,0,0,0,-1,1259,617,0,0
42,407,0,0,0,0,0,0,0,0,0,-1,1266,617,0,0
49,407,0,0,0,0,0,0,0,0,0,-1,1273,617,0,0
56,407,0,0,0,0,0,0,0,0,0,-1,1280,617,0,0
63,407,0,0,0,0,0,0,0,0,0,-1,1287,617,0,0
70,407,0,0,0,0,0,0,0,0,0,-1,1294,617,0,0
77,407,0,0,0,0,0,0,0,0,0,-1,1301,617,0,0
84,407,0,0,0,0,0,0,0,0,0,-1,1308,617,0,0
91,407,0,0,0,0,0,0,0,0,0,-1,1315,617,0,0
98,407,0,0,0,0,0,0,0,0,0,-1,1322,617,0,0
105,407,0,0,0,0,0,0,0,0,0,-1,1329,617,0,0
112,407,0,0,0,0,0,0,0,0,0,-1,1336,617,0,0
119,407,0,0,0,0,0,0,0,0,0,-1,1343,617,0,0
126,407,0,0,0,0,0,0,0,0,0,-1,1350,617,0,0
133,407,0,0,0,0,0,0,0,0,0,-1,1357,617,0,0
140,407,0,0,0,0,0,0,0,0,0,-1,1364,617,0,0
147,407,0,0,0,0,0,0,0,0,0,-1,1371,617,0,0
154,407,0,0,0,0,0,0,0,0,0,-1,1378,617,0,0
161,407,0,0,0,0,0,0,0,0,0,-1,1385,617,0,0
168,407,0,0,0,0,0,0,0,0,0,-1,1392,617,0,0
175,407,0,0,0,0,0,0,0,0,0,-1,1399,617,0,0
182,407,0,0,0,0,0,0,0,0,0,-1,1406,617,0,0
189,407,0,0,0,0,0,0,0,0,0,-1,1413,617,0,0
196,407,0,0,0,0,0,0,0,0,0,-1,1420,617,0,0
203,407,0,0,0,0,0,0,0,0,0,-1,1427,617,0,0
210,407,0,0,0,0,0,0,0,0,0,-1,1434,617,0,0
217,407,0,0,0,0,0,0,0,0,0,-1,1441,617,0,0
224,407,0,0,0,0,0,0,0,0,0,-1,1448,617,0,0
231,407,0,0,0,0,0,0,0,0,0,-1,1455,617,0,0
238,407,0,0,0,0,0,0,0,0,0,-1,1462,617,0,0
245,407,0,0,0,0,0,0,0,0,0,-1,1469,617,0,0
252,407,0,0,0,0,0,0,0,0,0,-1,1476,617,0,0
259,407,0,0,0,0,0,0,0,0,0,-1,1483,617,0,0
266,407,0,0,0,0,0,0,0,0,0,-1,1490,617,0,0
273,407,0,0,0,0,0,0,0,0,0,-1,1497,617,0,0
280,407,0,0,0,0,0,0,0,0,0,-1,1504,617,0,0
287,407,0,0,0,0,0,0,0,0,0,-1,1511,617,0,0
294,407,0,0,0,0,0,0,0,0,0,-1,1518,617,0,0
301,407,0,0,0,0,0,0,0,0,0,-1,1525,617,0,0
308,407,0,0,0,0,0,0,0,0,0,-1,1532,617,0,0
315,407,0,0,0,0,0,0,0,0,0,-1,1539,617,0,0
322,407,0,0,0,0,0,0,0,0,0,-1,1546,617,0,0
329,407,0,0,0,0,0,0,0,0,0,-1,1553,617,0,0
336,407,0,0,0,0,0,0,0,0,0,-1,1560,617,0,0
343,407,0,0,0,0,0,0,0,0,0,-1,1567,617,0,0
350,407,0,0,0,0,0,0,0,0,0,-1,1574,617,0,0
357,407,0,0,0,0,0,0,0,0,0,-1,1581,617,0,0
364,407,0,0,0,0,0,0,0,0,0,-1,1588,617,0,0
371,407,0,0,0,0,0,0,0,0,0,-1,1595,617,0,0
378,407,0,0,0,0,0,0,0,0,0,-1,1602,617,0,0
385,407,0,0,0,0,0,0,0,0,0,-1,1609,617,0,0
392,407,0,0,0,0,0,0,0,0,0,-1,1616,617,0,0
399,407,0,0,0,0,0,0,0,0,0,-1,1623,617,0,0
406,407,0,0,0,0,0,0,0,0,0,-1,1630,617,0,0
413,407,0,0,0,0,0,0,0,0,0,-1,1637,617,0,0
420,407,0,0,0,0,0,0,0,0,0,-1,1644,617,0,0
427,407,0,0,0,0,0,0,0,0,0,-1,1651,617,0,0
434,407,0,0,0,0,0,0,0,0,0,-1,1658,617,0,0
441,407,0,0,0,0,0,0,0,0,0,-1,1665,617,0,0
448,407,5.85828,0.485901,0,0,0,0,0,0,0,-1,1672,617,5.85825,-0.485886
455,407,5.85071,0.961426,0,0,0,0,0,0,0,-1,1679,617,5.85072,-0.961413
462,407,5.83008,1.5127,0,0,0,0,0,0,0,-1,1686,617,5.83006,-1.51272
469,407,6.02295,1.93658,0,0,0,0,0,0,0,-1,1693,617,6.02295,-1.93658
476,407,6.33704,2.23602,0,0,0,0,0,0,0,-1,1700,617,6.33698,-2.236
483,407,6.41101,2.22729,0,0,0,0,0,0,0,-1,1707,617,6.411,-2.22727
490,407,6.34375,2.12726,0,0,0,0,0,0,0,-1,1714,617,6.34374,-2.12723
497,407,5.59375,0.506409,0,0,0,0,0,0,0,-1,1721,617,5.59378,-0.506423
504,407,5.7196,-0.117676,0,0,0,0,0,0,0,-1,1728,617,5.71961,0.117665
511,407,5.41907,0.693176,0,0,0,0,0,0,0,-1,1735,617,5.41913,-0.693179
518,407,5.11865,1.50403,0,0,0,0,0,0,0,-1,1742,617,5.11865,-1.50402
525,407,4.36389,-0.964233,0,0,0,0,0,0,0,-1,1749,617,4.3639,0.964225
532,407,4.24341,-0.825745,0.00511375,-0.006342,-0.0157321,0.0161282,-0.0173565,-0.610813,0.0193367,0.0432835,1756,617,4.24335,0.825752
539,407,4.07996,-0.728088,0.00297949,-0.00529034,-0.0126401,0.0121439,-0.0144547,-0.627321,0.015376,0.0240861,1763,617,4.07992,0.72811
546,407,4.06726,-0.643494,0.00164781,-0.00387107,-0.00986418,0.00913124,-0.0113545,-0.649013,0.0118506,0.0115622,1770,617,4.06732,0.643469
553,407,4.07654,-0.546387,0.00057584,-0.00283859,-0.00723429,0.00630163,-0.00856438,-0.669524,0.00861597,0.013297,1777,617,4.07659,0.546386
560,407,4.09619,-0.43927,0.000411132,-0.00126803,-0.00480604,0.00445037,-0.00530727,-0.698924,0.00564082,0.0134137,1784,617,4.09622,0.439243
567,407,4.08557,-0.376221,0.000672236,0.000340925,-0.00230295,0.00281548,-0.00180232,-0.749494,0.00268739,0.025223,1791,617,4.08557,0.376225
574,407,4.07959,-0.325928,0.0014525,0.00223534,-0.000111054,0.00225079,0.00143705,-1.43257,0.001316,0.0224946,1798,617,4.07964,0.325955
581,407,4.08716,-0.236938,0.00246266,0.00416317,0.00143234,0.00497861,0.00164722,1.05325,0.00292871,0.0158789,1805,617,4.08713,0.236917
588,407,4.07739,-0.18219,0.00338797,0.00655031,0.00262811,0.00803623,0.00190205,1.05621,0.00484945,0.0104679,1812,617,4.07742,0.182171
595,407,4.08203,-0.114319,0.00432407,0.00871413,0.0034184,0.0105816,0.00245664,1.07081,0.00639477,0.0183925,1819,617,4.08204,0.114292
602,407,4.10205,-0.0430908,0.00520319,0.0110859,0.00424448,0.0133085,0.00298051,1.0884,0.00806458,0.0161611,1826,617,4.102,0.0431083
609,407,4.09521,0.0513306,0.0055071,0.0136084,0.00553622,0.0164176,0.00269791,1.10123,0.0101658,0.0123434,1833,617,4.09527,-0.0513311
616,407,4.11255,0.180847,0.00572106,0.0164932,0.00679794,0.0197802,0.00243408,1.12041,0.0124549,0.0152407,1840,617,4.11255,-0.18083
623,407,4.18201,0.260742,0.00698749,0.0204522,0.00804962,0.0242137,0.00322598,1.13366,0.0151818,0.0250206,1847,617,4.18205,-0.260733
630,407,4.2146,0.295105,0.00752698,0.0243243,0.00948349,0.0285935,0.00325781,1.1478,0.0180745,0.0396824,1854,617,4.21455,-0.295113
637,407,3.58545,0.530884,0.00859051,0.0288535,0.0111135,0.0337605,0.00368351,1.155,0.0213852,0.0465018,1861,617,3.58539,-0.530914
644,407,3.12561,0.688293,0,0,0,0,0,0,0,-1,1868,617,3.12557,-0.688295
651,407,2.63538,0.281128,0,0,0,0,0,0,0,-1,1875,617,2.6354,-0.281151
658,407,2.61694,0.310303,0,0,0,0,0,0,0,-1,1882,617,2.617,-0.31028
665,407,3.99426,2.36218,0,0,0,0,0,0,0,-1,1889,617,3.99427,-2.36217
672,407,0,0,0,0,0,0,0,0,0,-1,1896,617,0,0
679,407,0,0,0,0,0,0,0,0,0,-1,1903,617,0,0
686,407,0,0,0,0,0,0,0,0,0,-1,1910,617,0,0
693,407,0,0,0,0,0,0,0,0,0,-1,1917,617,0,0
700,407,0,0,0,0,0,0,0,0,0,-1,1924,617,0,0
707,407,0,0,0,0,0,0,0,0,0,-1,1931,617,0,0
714,407,0,0,0,0,0,0,0,0,0,-1,1938,617,0,0
721,407,0,0,0,0,0,0,0,0,0,-1,1945,617,0,0
728,407,0,0,0,0,0,0,0,0,0,-1,1952,617,0,0
735,407,0,0,0,0,0,0,0,0,0,-1,1959,617,0,0
742,407,0,0,0,0,0,0,0,0,0,-1,1966,617,0,0
749,407,0,0,0,0,0,0,0,0,0,-1,1973,617,0,0
756,407,0,0,0,0,0,0,0,0,0,-1,1980,617,0,0
763,407,0,0,0,0,0,0,0,0,0,-1,1987,617,0,0
770,407,0,0,0,0,0,0,0,0,0,-1,1994,617,0,0
777,407,0,0,0,0,0,0,0,0,0,-1,2001,617,0,0
784,407,0,0,0,0,0,0,0,0,0,-1,2008,617,0,0
791,407,0,0,0,0,0,0,0,0,0,-1,2015,617,0,0
798,407,0,0,0,0,0,0,0,0,0,-1,2022,617,0,0
805,407,0,0,0,0,0,0,0,0,0,-1,2029,617,0,0
812,407,0,0,0,0,0,0,0,0,0,-1,2036,617,0,0
-700,400,0,0,0,0,0,0,0,0,0,-1,524,624,0,0
-693,400,0,0,0,0,0,0,0,0,0,-1,531,624,0,0
-686,400,0,0,0,0,0,0,0,0,0,-1,538,624,0,0
-679,400,0,0,0,0,0,0,0,0,0,-1,545,624,0,0
-672,400,0,0,0,0,0,0,0,0,0,-1,552,624,0,0
-665,400,0,0,0,0,0,0,0,0,0,-1,559,624,0,0
-658,400,0,0,0,0,0,0,0,0,0,-1,566,624,0,0
-651,400,0,0,0,0,0,0,0,0,0,-1,573,624,0,0
-644,400,0,0,0,0,0,0,0,0,0,-1,580,624,0,0
-637,400,0,0,0,0,0,0,0,0,0,-1,587,624,0,0
-630,400,0,0,0,0,0,0,0,0,0,-1,594,624,0,0
-623,400,0,0,0,0,0,0,0,0,0,-1,601,624,0,0
-616,400,0,0,0,0,0,0,0,0,0,-1,608,624,0,0
-609,400,0,0,0,0,0,0,0,0,0,-1,615,624,0,0
-602,400,0,0,0,0,0,0,0,0,0,-1,622,624,0,0
-595,400,0,0,0,0,0,0,0,0,0,-1,629,624,0,0
-588,400,0,0,0,0,0,0,0,0,0,-1,636,624,0,0
-581,400,0,0,0,0,0,0,0,0,0,-1,643,624,0,0
-574,400,0,0,0,0,0,0,0,0,0,-1,650,624,0,0
-567,400,0,0,0,0,0,0,0,0,0,-1,657,624,0,0
-560,400,0,0,0,0,0,0,0,0,0,-1,664,624,0,0
-553,400,0,0,0,0,0,0,0,0,0,-1,671,624,0,0
-546,400,-0.243713,1.00244,0.00768431,-0.0119939,-0.0185036,0.0188021,-0.0231117,-0.54104,0.0242415,0.0491653,678,624,-0.24373,-1.00247
-539,400,-0.293579,0.84259,0.00646721,-0.0148752,-0.0103319,0.0106494,-0.0190574,-0.384622,0.0173787,0.0476688,685,624,-0.293609,-0.842602
-532,400,-0.0805664,0.736816,0.00620358,-0.0151739,-0.0058846,0.00771638,-0.0166867,-0.25163,0.0144029,0.0457872,692,624,-0.0805824,-0.736843
-525,400,0.128601,0.586548,0.00611364,-0.0141575,-0.00365125,0.00675125,-0.0147951,-0.172884,0.0127255,0.0469172,699,624,0.128574,-0.586521
-518,400,0.0427246,0.447327,0.00624507,-0.0128055,-0.0024107,0.00654539,-0.0131058,-0.12394,0.0115544,0.0474492,706,624,0.0427044,-0.447314
-511,400,-0.0162964,0.185791,0.006196,-0.0112181,-0.00143458,0.00631339,-0.0113355,-0.0816468,0.0103262,0.0478222,713,624,-0.0163139,-0.185799
-504,400,-0.003479,-0.0964966,0,0,0,0,0,0,0,-1,720,624,-0.00346119,0.0964897
-497,400,-0.0192871,-0.188843,0.00513024,-0.00804551,0.00113112,0.00522664,-0.00814191,0.0850195,0.00777927,0.0287834,727,624,-0.0192827,0.188839
-490,400,0.0772705,-0.131348,0.00512486,-0.00581137,-9.77818e-05,0.00512574,-0.00581224,-0.00894014,0.00631919,0.0147311,734,624,0.0772525,0.131325
-483,400,0.0667114,-0.195862,0.00506306,-0.00393652,-0.00118459,0.00521637,-0.00408983,-0.128708,0.00538605,0.0137838,741,624,0.0666935,0.195841
-476,400,0.0706177,-0.257568,0.0044167,-0.00288015,-0.00116226,0.00459736,-0.00306081,-0.1542,0.00445101,0.0122533,748,624,0.0705947,0.257555
-469,400,0.0825806,-0.335571,0.00358903,-0.00221292,-0.000757616,0.00368633,-0.00231022,-0.127727,0.00349236,0.0140134,755,624,0.0825508,0.335564
-462,400,0.103333,-0.430115,0.00281039,-0.00251007,-0.000409256,0.00284169,-0.00254136,-0.0763228,0.00310952,0.0186472,762,624,0.103314,0.430091
-455,400,0.118774,-0.504333,0.00224983,-0.00290968,0.000215843,0.00225885,-0.00291869,0.0417369,0.00299733,0.018756,769,624,0.118773,0.504335
-448,400,0.090271,-0.582153,0.00178452,-0.00317556,0.000839723,0.00192283,-0.00331386,0.163238,0.00305875,0.0139352,776,624,0.0902561,0.582164
-441,400,0.0709229,-0.637329,0.00138184,-0.00244918,0.00115017,0.00170063,-0.00276796,0.270376,0.00260436,0.013394,783,624,0.0709198,0.637303
-434,400,0.0733032,-0.696106,0.000711433,-0.00170028,0.00149476,0.0014261,-0.00241494,0.445985,0.00224198,0.0113966,790,624,0.0733311,0.696105
-427,400,0.0758057,-0.769104,-0.000444637,-8.15367e-05,0.00162396,0.00137099,-0.00189716,0.841064,0.001895,0.0104616,797,624,0.0758081,0.769124
-420,400,0.085022,-0.853271,-0.00113192,0.00207992,0.00248631,0.00343385,-0.00248585,1.07214,0.00343232,0.00951472,804,624,0.0850135,0.853263
-413,400,0.0925903,-0.909424,-0.00174259,0.00443156,0.00328501,0.0058524,-0.00316343,1.16257,0.0052819,0.0160623,811,624,0.0925869,0.90944
-406,400,-0.000671387,-0.8255,-0.00335201,0.00510756,0.00286068,0.0059841,-0.00422856,1.27347,0.00592525,0.0272263,818,624,-0.000660925,0.825485
-399,400,0.0812378,-0.912415,-0.00520472,0.00658592,0.00279316,0.00721414,-0.00583294,1.34956,0.00754679,0.0380252,825,624,0.0812146,0.912412
-392,400,-0.186829,-1.49426,-0.00843133,0.00821664,0.00275546,0.00866085,-0.00887555,1.41096,0.0101249,0.0445647,832,624,-0.186821,1.49426
-385,400,-0.169067,-2.03247,-0.0128683,0.00966412,0.00212322,0.00986245,-0.0130666,1.47766,0.0132811,0.0476291,839,624,-0.169078,2.03244
-378,400,-0.216675,-2.55975,-0.0181828,0.011411,0.000926205,0.01144,-0.0182118,1.53954,0.0172676,0.0482775,846,624,-0.216667,2.55978
-371,400,-0.272522,-3.11163,0,0,0,0,0,0,0,-1,853,624,-0.272547,3.11161
-364,400,-1.27869,-1.71008,-0.0304114,0.0111929,-0.00102532,0.0112182,-0.0304367,-1.54617,0.024888,0.0486845,860,624,-1.27869,1.71006
-357,400,-1.55792,-1.96594,-0.0383439,0.0109162,-0.00158195,0.010967,-0.0383947,-1.53873,0.0299295,0.0479302,867,624,-1.55795,1.96592
-350,400,-1.83167,-1.90668,-0.0480411,0.0105841,-0.00252324,0.0106925,-0.0481495,-1.52786,0.0361942,0.0468093,874,624,-1.83168,1.90668
-343,400,-2.08875,-1.50922,0,0,0,0,0,0,0,-1,881,624,-2.08875,1.50923
-336,400,0,0,0,0,0,0,0,0,0,-1,888,624,0,0
-329,400,0,0,0,0,0,0,0,0,0,-1,895,624,0,0
-322,400,0,0,0,0,0,0,0,0,0,-1,902,624,0,0
-315,400,0,0,0,0,0,0,0,0,0,-1,909,624,0,0
-308,400,0,0,0,0,0,0,0,0,0,-1,916,624,0,0
-301,400,0,0,0,0,0,0,0,0,0,-1,923,624,0,0
-294,400,0,0,0,0,0,0,0,0,0,-1,930,624,0,0
-287,400,0,0,0,0,0,0,0,0,0,-1,937,624,0,0
-280,400,0,0,0,0,0,0,0,0,0,-1,944,624,0,0
-273,400,0,0,0,0,0,0,0,0,0,-1,951,624,0,0
-266,400,0,0,0,0,0,0,0,0,0,-1,958,624,0,0
-259,400,0,0,0,0,0,0,0,0,0,-1,965,624,0,0
-252,400,0,0,0,0,0,0,0,0,0,-1,972,624,0,0
-245,400,0,0,0,0,0,0,0,0,0,-1,979,624,0,0
-238,400,0,0,0,0,0,0,0,0,0,-1,986,624,0,0
-231,400,0,0,0,0,0,0,0,0,0,-1,993,624,0,0
-224,400,0,0,0,0,0,0,0,0,0,-1,1000,624,0,0
-217,400,0,0,0,0,0,0,0,0,0,-1,1007,624,0,0
-210,400,0,0,0,0,0,0,0,0,0,-1,1014,624,0,0
-203,400,0,0,0,0,0,0,0,0,0,-1,1021,624,0,0
-196,400,0,0,0,0,0,0,0,0,0,-1,1028,624,0,0
-189,400,0,0,0,0,0,0,0,0,0,-1,1035,624,0,0
-182,400,0,0,0,0,0,0,0,0,0,-1,1042,624,0,0
-175,400,0,0,0,0,0,0,0,0,0,-1,1049,624,0,0
-168,400,0,0,0,0,0,0,0,0,0,-1,1056,624,0,0
-161,400,0,0,0,0,0,0,0,0,0,-1,1063,624,0,0
-154,400,0,0,0,0,0,0,0,0,0,-1,1070,624,0,0
-147,400,0,0,0,0,0,0,0,0,0,-1,1077,624,0,0
-140,400,0,0,0,0,0,0,0,0,0,-1,1084,624,0,0
-133,400,0,0,0,0,0,0,0,0,0,-1,1091,624,0,0
-126,400,0,0,0,0,0,0,0,0,0,-1,1098,624,0,0
-119,400,0,0,0,0,0,0,0,0,0,-1,1105,624,0,0
-112,400,0,0,0,0,0,0,0,0,0,-1,1112,624,0,0
-105,400,0,0,0,0,0,0,0,0,0,-1,1119,624,0,0
-98,400,0,0,0,0,0,0,0,0,0,-1,1126,624,0,0
-91,400,0,0,0,0,0,0,0,0,0,-1,1133,624,0,0
-84,400,0,0,0,0,0,0,0,0,0,-1,1140,624,0,0
-77,400,0,0,0,0,0,0,0,0,0,-1,1147,624,0,0
-70,400,0,0,0,0,0,0,0,0,0,-1,1154,624,0,0
-63,400,0,0,0,0,0,0,0,0,0,-1,1161,624,0,0
-56,400,0,0,0,0,0,0,0,0,0,-1,1168,624,0,0
-49,400,0,0,0,0,0,0,0,0,0,-1,1175,624,0,0
-42,400,0,0,0,0,0,0,0,0,0,-1,1182,624,0,0
-35,400,0,0,0,0,0,0,0,0,0,-1,1189,624,0,0
-28,400,0,0,0,0,0,0,0,0,0,-1,1196,624,0,0
-21,400,0,0,0,0,0,0,0,0,0,-1,1203,624,0,0
-14,400,0,0,0,0,0,0,0,0,0,-1,1210,624,0,0
-7,400,0,0,0,0,0,0,0,0,0,-1,1217,624,0,0
0,400,0,0,0,0,0,0,0,0,0,-1,1224,624,0,0
7,400,0,0,0,0,0,0,0,0,0,-1,1231,624,0,0
14,400,0,0,0,0,0,0,0,0,0,-1,1238,624,0,0
21,400,0,0,0,0,0,0,0,0,0,-1,1245,624,0,0
28,400,0,0,0,0,0,0,0,0,0,-1,1252,624,0,0
35,400,0,0,0,0,0,0,0,0,0,-1,1259,624,0,0
42,400,0,0,0,0,0,0,0,0,0,-1,1266,624,0,0
49,400,0,0,0,0,0,0,0,0,0,-1,1273,624,0,0
56,400,0,0,0,0,0,0,0,0,0,-1,1280,624,0,0
63,400,0,0,0,0,0,0,0,0,0,-1,1287,624,0,0
70,400,0,0,0,0,0,0,0,0,0,-1,1294,624,0,0
77,400,0,0,0,0,0,0,0,0,0,-1,1301,624,0,0
84,400,0,0,0,0,0,0,0,0,0,-1,1308,624,0,0
91,400,0,0,0,0,0,0,0,0,0,-1,1315,624,0,0
98,400,0,0,0,0,0,0,0,0,0,-1,1322,624,0,0
105,400,0,0,0,0,0,0,0,0,0,-1,1329,624,0,0
112,400,0,0,0,0,0,0,0,0,0,-1,1336,624,0,0
119,400,0,0,0,0,0,0,0,0,0,-1,1343,624,0,0
126,400,0,0,0,0,0,0,0,0,0,-1,1350,624,0,0
133,400,0,0,0,0,0,0,0,0,0,-1,1357,624,0,0
140,400,0,0,0,0,0,0,0,0,0,-1,1364,624,0,0
147,400,0,0,0,0,0,0,0,0,0,-1,1371,624,0,0
154,400,0,0,0,0,0,0,0,0,0,-1,1378,624,0,0
161,400,0,0,0,0,0,0,0,0,0,-1,1385,624,0,0
168,400,0,0,0,0,0,0,0,0,0,-1,1392,624,0,0
175,400,0,0,0,0,0,0,0,0,0,-1,1399,624,0,0
182,400,0,0,0,0,0,0,0,0,0,-1,1406,624,0,0
189,400,0,0,0,0,0,0,0,0,0,-1,1413,624,0,0
196,400,0,0,0,0,0,0,0,0,0,-1,1420,624,0,0
203,400,0,0,0,0,0,0,0,0,0,-1,1427,624,0,0
210,400,0,0,0,0,0,0,0,0,0,-1,1434,624,0,0
217,400,0,0,0,0,0,0,0,0,0,-1,1441,624,0,0
224,400,0,0,0,0,0,0,0,0,0,-1,1448,624,0,0
231,400,0,0,0,0,0,0,0,0,0,-1,1455,624,0,0
238,400,0,0,0,0,0,0,0,0,0,-1,1462,624,0,0
245,400,0,0,0,0,0,0,0,0,0,-1,1469,624,0,0
252,400,0,0,0,0,0,0,0,0,0,-1,1476,624,0,0
259,400,0,0,0,0,0,0,0,0,0,-1,1483,624,0,0
266,400,0,0,0,0,0,0,0,0,0,-1,1490,624,0,0
273,400,0,0,0,0,0,0,0,0,0,-1,1497,624,0,0
280,400,0,0,0,0,0,0,0,0,0,-1,1504,624,0,0
287,400,0,0,0,0,0,0,0,0,0,-1,1511,624,0,0
294,400,0,0,0,0,0,0,0,0,0,-1,1518,624,0,0
301,400,0,0,0,0,0,0,0,0,0,-1,1525,624,0,0
308,400,0,0,0,0,0,0,0,0,0,-1,1532,624,0,0
315,400,0,0,0,0,0,0,0,0,0,-1,1539,624,0,0
322,400,0,0,0,0,0,0,0,0,0,-1,1546,624,0,0
329,400,0,0,0,0,0,0,0,0,0,-1,1553,624,0,0
336,400,0,0,0,0,0,0,0,0,0,-1,1560,624,0,0
343,400,0,0,0,0,0,0,0,0,0,-1,1567,624,0,0
350,400,0,0,0,0,0,0,0,0,0,-1,1574,624,0,0
357,400,0,0,0,0,0,0,0,0,0,-1,1581,624,0,0
364,400,0,0,0,0,0,0,0,0,0,-1,1588,624,0,0
371,400,0,0,0,0,0,0,0,0,0,-1,1595,624,0,0
378,400,0,0,0,0,0,0,0,0,0,-1,1602,624,0,0
385,400,0,0,0,0,0,0,0,0,0,-1,1609,624,0,0
392,400,0,0,0,0,0,0,0,0,0,-1,1616,624,0,0
399,400,0,0,0,0,0,0,0,0,0,-1,1623,624,0,0
406,400,0,0,0,0,0,0,0,0,0,-1,1630,624,0,0
413,400,0,0,0,0,0,0,0,0,0,-1,1637,624,0,0
420,400,0,0,0,0,0,0,0,0,0,-1,1644,624,0,0
427,400,0,0,0,0,0,0,0,0,0,-1,1651,624,0,0
434,400,0,0,0,0,0,0,0,0,0,-1,1658,624,0,0
441,400,0,0,0,0,0,0,0,0,0,-1,1665,624,0,0
448,400,0,0,0,0,0,0,0,0,0,-1,1672,624,0,0
455,400,5.79663,0.783508,0,0,0,0,0,0,0,-1,1679,624,5.79657,-0.783501
462,400,5.75513,1.08313,0,0,0,0,0,0,0,-1,1686,624,5.75518,-1.08311
469,400,5.91589,1.27502,0,0,0,0,0,0,0,-1,1693,624,5.91586,-1.27505
476,400,6.06726,1.53815,0,0,0,0,0,0,0,-1,1700,624,6.0673,-1.53815
483,400,5.91345,2.02094,0,0,0,0,0,0,0,-1,1707,624,5.91351,-2.02092
490,400,5.72803,2.18439,0,0,0,0,0,0,0,-1,1714,624,5.72806,-2.18436
497,400,5.47876,-0.264404,0,0,0,0,0,0,0,-1,1721,624,5.47876,0.264412
504,400,5.18884,0.220764,0,0,0,0,0,0,0,-1,1728,624,5.1888,-0.220766
511,400,4.92603,0.747986,0,0,0,0,0,0,0,-1,1735,624,4.92603,-0.748008
518,400,4.93481,0.877075,0,0,0,0,0,0,0,-1,1742,624,4.93481,-0.877083
525,400,4.85315,-0.701355,0,0,0,0,0,0,0,-1,1749,624,4.85319,0.701378
532,400,4.46777,-0.664978,0.00491331,-0.00725685,-0.019563,0.0193158,-0.0216593,-0.634617,0.0236699,0.0454544,1756,624,4.46772,0.664991
539,400,4.21936,-0.679016,0.0025652,-0.00624227,-0.0160325,0.0147878,-0.0184649,-0.651366,0.0192375,0.0276252,1763,624,4.2194,0.679041
546,400,4.16882,-0.661377,0.00108523,-0.00476828,-0.0128565,0.0113439,-0.0150269,-0.673481,0.0152746,0.0131421,1770,624,4.16883,0.661365
553,400,4.15076,-0.557556,-0.000168233,-0.00386174,-0.0097799,0.00793775,-0.0119677,-0.692081,0.0115707,0.0118616,1777,624,4.15078,0.55757
560,400,4.1665,-0.454102,-0.00059258,-0.00259105,-0.00700517,0.00548427,-0.00866789,-0.714555,0.00823938,0.0122187,1784,624,4.16655,0.45408
567,400,4.1676,-0.382202,-0.000670227,-0.00131495,-0.00423286,0.00325253,-0.00523771,-0.747393,0.0049463,0.0163586,1791,624,4.16758,0.382217
574,400,4.16895,-0.323425,-0.000262587,5.42637e-05,-0.00191445,0.00181684,-0.00202516,-0.82668,0.00221926,0.0181878,1798,624,4.16893,0.323397
581,400,4.1438,-0.245117,0.00039735,0.00136521,-0.00043629,0.00153284,0.000229714,-1.20396,0.000954582,0.0156831,1805,624,4.14384,0.24509
588,400,4.15051,-0.183105,0.00107032,0.00304971,0.000523632,0.00317969,0.000940333,1.32747,0.00188617,0.0103289,1812,624,4.15051,0.183095
595,400,4.16479,-0.113647,0.00172882,0.00425688,0.001007,0.00460896,0.00137674,1.23445,0.00273192,0.00973847,1819,624,4.16482,0.113655
602,400,4.16736,-0.0314941,0.00223694,0.00548009,0.0013427,0.00596383,0.0017532,1.225,0.00353931,0.010652,1826,624,4.16739,0.0315089
609,400,4.14294,0.0606689,0.00208261,0.00668466,0.00206028,0.00747224,0.00129503,1.20567,0.00461084,0.0123536,1833,624,4.14289,-0.0606391
616,400,4.125,0.164368,0.0018737,0.00807374,0.00267212,0.00906644,0.000880999,1.2151,0.00577308,0.0170263,1840,624,4.125,-0.164389
623,400,4.21008,0.261047,0.00276437,0.0105009,0.00328911,0.0117102,0.00155507,1.21847,0.00734355,0.0231658,1847,624,4.21004,-0.261077
630,400,4.10681,0.305786,0.00294955,0.0127272,0.00396265,0.0141315,0.00154527,1.23023,0.00895049,0.02863,1854,624,4.10679,-0.305795
637,400,3.77246,0.408508,0.00368986,0.0154786,0.00484357,0.0172134,0.00195508,1.22687,0.0108826,0.0440659,1861,624,3.77248,-0.408504
644,400,3.28711,0.378845,0.0055463,0.0189243,0.00600109,0.0212217,0.00324888,1.20518,0.0131988,0.0486239,1868,624,3.28716,-0.378851
651,400,2.95007,0.329407,0,0,0,0,0,0,0,-1,1875,624,2.9501,-0.329431
658,400,2.89697,0.379639,0,0,0,0,0,0,0,-1,1882,624,2.89703,-0.379608
665,400,2.83057,0.433472,0,0,0,0,0,0,0,-1,1889,624,2.83058,-0.433498
672,400,0,0,0,0,0,0,0,0,0,-1,1896,624,0,0
679,400,0,0,0,0,0,0,0,0,0,-1,1903,624,0,0
686,400,0,0,0,0,0,0,0,0,0,-1,1910,624,0,0
693,400,0,0,0,0,0,0,0,0,0,-1,1917,624,0,0
700,400,0,0,0,0,0,0,0,0,0,-1,1924,624,0,0
707,400,0,0,0,0,0,0,0,0,0,-1,1931,624,0,0
714,400,0,0,0,0,0,0,0,0,0,-1,1938,624,0,0
721,400,0,0,0,0,0,0,0,0,0,-1,1945,624,0,0
728,400,0,0,0,0,0,0,0,0,0,-1,1952,624,0,0
735,400,0,0,0,0,0,0,0,0,0,-1,1959,624,0,0
742,400,0,0,0,0,0,0,0,0,0,-1,1966,624,0,0
749,400,0,0,0,0,0,0,0,0,0,-1,1973,624,0,0
756,400,0,0,0,0,0,0,0,0,0,-1,1980,624,0,0
763,400,0,0,0,0,0,0,0,0,0,-1,1987,624,0,0
770,400,0,0,0,0,0,0,0,0,0,-1,1994,624,0,0
777,400,0,0,0,0,0,0,0,0,0,-1,2001,624,0,0
784,400,0,0,0,0,0,0,0,0,0,-1,2008,624,0,0
791,400,0,0,0,0,0,0,0,0,0,-1,2015,624,0,0
798,400,0,0,0,0,0,0,0,0,0,-1,2022,624,0,0
805,400,0,0,0,0,0,0,0,0,0,-1,2029,624,0,0
812,400,0,0,0,0,0,0,0,0,0,-1,2036,624,0,0
-700,393,0,0,0,0,0,0,0,0,0,-1,524,631,0,0
-693,393,0,0,0,0,0,0,0,0,0,-1,531,631,0,0
-686,393,0,0,0,0,0,0,0,0,0,-1,538,631,0,0
-679,393,0,0,0,0,0,0,0,0,0,-1,545,631,0,0
-672,393,0,0,0,0,0,0,0,0,0,-1,552,631,0,0
-665,393,0,0,0,0,0,0,0,0,0,-1,559,631,0,0
-658,393,0,0,0,0,0,0,0,0,0,-1,566,631,0,0
-651,393,0,0,0,0,0,0,0,0,0,-1,573,631,0,0
-644,393,0,0,0,0,0,0,0,0,0,-1,580,631,0,0
-637,393,0,0,0,0,0,0,0,0,0,-1,587,631,0,0
-630,393,0,0,0,0,0,0,0,0,0,-1,594,631,0,0
-623,393,0,0,0,0,0,0,0,0,0,-1,601,631,0,0
-616,393,0,0,0,0,0,0,0,0,0,-1,608,631,0,0
-609,393,0,0,0,0,0,0,0,0,0,-1,615,631,0,0
-602,393,0,0,0,0,0,0,0,0,0,-1,622,631,0,0
-595,393,0,0,0,0,0,0,0,0,0,-1,629,631,0,0
-588,393,0,0,0,0,0,0,0,0,0,-1,636,631,0,0
-581,393,0,0,0,0,0,0,0,0,0,-1,643,631,0,0
-574,393,0,0,0,0,0,0,0,0,0,-1,650,631,0,0
-567,393,0,0,0,0,0,0,0,0,0,-1,657,631,0,0
-560,393,0,0,0,0,0,0,0,0,0,-1,664,631,0,0
-553,393,-0.982361,1.11542,0,0,0,0,0,0,0,-1,671,631,-0.982359,-1.11542
-546,393,-0.8396,1.17023,0.0100926,-0.00127722,-0.0288168,0.0337799,-0.0249645,-0.68801,0.0340431,0.0479477,678,631,-0.839576,-1.17023
-539,393,-0.961182,1.00439,0.0082715,-0.00529606,-0.0190994,0.0217561,-0.0187807,-0.614756,0.0234249,0.0480376,685,631,-0.961187,-1.00441
-532,393,-0.354309,0.889526,0,0,0,0,0,0,0,-1,692,631,-0.354325,-0.889555
-525,393,-0.238525,0.581421,0,0,0,0,0,0,0,-1,699,631,-0.238501,-0.581401
-518,393,-0.126404,0.534485,0.00580084,-0.00787503,-0.00518564,0.00754476,-0.00961895,-0.324416,0.00993356,0.0471047,706,631,-0.126413,-0.534457
-511,393,0.0861206,0.445129,0.00521216,-0.00749154,-0.00289171,0.00583942,-0.0081188,-0.213607,0.00809452,0.0437993,713,631,0.0860924,-0.44513
-504,393,-0.0454102,0.104187,0.00432258,-0.00694464,-5.84043e-05,0.00432289,-0.00694495,-0.00518337,0.00656394,0.0368559,720,631,-0.0454049,-0.104165
-497,393,-0.0408936,-0.0128784,0.00361273,-0.00603408,0.00121849,0.00376426,-0.00618561,0.123722,0.00580098,0.0187642,727,631,-0.0408847,0.0128768
-490,393,0.00134277,-0.123291,0.00353316,-0.00445422,0.00034825,0.00354831,-0.00446937,0.04349,0.00463918,0.0133164,734,631,0.00131278,0.123286
-483,393,0.00726318,-0.198547,0.00345582,-0.00315298,-0.000415763,0.00348188,-0.00317904,-0.0625816,0.00384701,0.0184628,741,631,0.00727025,0.19855
-476,393,0.00341797,-0.258911,0.00299227,-0.00257028,-0.000254287,0.00300387,-0.00258188,-0.0455873,0.003228,0.0151902,748,631,0.00342682,0.258908
-469,393,-0.00280762,-0.323547,0.00241371,-0.00231653,0.000226355,0.00242452,-0.00232734,0.0477075,0.00274368,0.0123566,755,631,-0.00278074,0.323565
-462,393,0.00714111,-0.433777,0.00191003,-0.00293246,0.00059447,0.00198194,-0.00300437,0.12038,0.00289895,0.0149825,762,631,0.00711263,0.433785
-455,393,0.00640869,-0.519043,0.00165672,-0.00361406,0.00123372,0.0019312,-0.00388854,0.218916,0.00342279,0.0136028,769,631,0.0064056,0.51907
-448,393,-0.0195923,-0.603882,0.0014938,-0.00405428,0.00186837,0.00206433,-0.0046248,0.296366,0.00395516,0.013002,776,631,-0.0195805,0.603883
-441,393,-0.0314331,-0.65387,0.0013416,-0.00341517,0.00219921,0.00220254,-0.00427611,0.373138,0.00380377,0.0113776,783,631,-0.0314633,0.653845
-434,393,-0.010498,-0.679199,0.000935983,-0.00272141,0.00254986,0.00224511,-0.00403053,0.474318,0.00367179,0.0105308,790,631,-0.0105039,0.679211
-427,393,0.0203857,-0.762817,-2.10463e-05,-0.000930127,0.00262928,0.00219269,-0.00314386,0.699806,0.00309733,0.0133195,797,631,0.0203555,0.762846
-420,393,0.0161133,-0.835022,-0.00062091,0.00155373,0.00338413,0.00402093,-0.0030881,0.940839,0.00411616,0.0179368,804,631,0.0161262,0.83502
-413,393,-0.100342,-0.792175,-0.0013264,0.00407681,0.0038629,0.00608908,-0.00333867,1.09055,0.00551979,0.0301725,811,631,-0.100313,0.792179
-406,393,-0.56134,-0.4375,0,0,0,0,0,0,0,-1,818,631,-0.561357,0.437511
-399,393,-0.862671,-1.30756,-0.00533431,0.00585965,0.00197968,0.00619944,-0.0056741,1.40081,0.00685743,0.041415,825,631,-0.862699,1.30757
-392,393,-1.02332,-1.9809,-0.00891081,0.00731708,0.000863576,0.00736291,-0.00895663,1.51778,0.00943706,0.0453411,832,631,-1.02329,1.98089
-385,393,-0.638733,-2.76691,0,0,0,0,0,0,0,-1,839,631,-0.638714,2.76688
-378,393,-0.947876,-2.70807,0,0,0,0,0,0,0,-1,846,631,-0.947853,2.70808
-371,393,-1.07605,-3.06,0,0,0,0,0,0,0,-1,853,631,-1.07604,3.06001
-364,393,-1.10638,-1.39984,-0.0314159,0.0088535,-0.0103652,0.0113648,-0.0339273,-1.33309,0.0272095,0.0481909,860,631,-1.1064,1.39986
-357,393,-1.25562,-1.7702,-0.0392634,0.00783402,-0.0122102,0.0108114,-0.0422407,-1.33162,0.0323718,0.049343,867,631,-1.25559,1.77022
-350,393,-1.41296,-1.75262,-0.0494549,0.0057004,-0.0139361,0.00902164,-0.0527762,-1.33684,0.0385449,0.0466507,874,631,-1.41298,1.7526
-343,393,0,0,0,0,0,0,0,0,0,-1,881,631,0,0
-336,393,0,0,0,0,0,0,0,0,0,-1,888,631,0,0
-329,393,0,0,0,0,0,0,0,0,0,-1,895,631,0,0
-322,393,0,0,0,0,0,0,0,0,0,-1,902,631,0,0
-315,393,0,0,0,0,0,0,0,0,0,-1,909,631,0,0
-308,393,0,0,0,0,0,0,0,0,0,-1,916,631,0,0
-301,393,0,0,0,0,0,0,0,0,0,-1,923,631,0,0
-294,393,0,0,0,0,0,0,0,0,0,-1,930,631,0,0
-287,393,0,0,0,0,0,0,0,0,0,-1,937,631,0,0
-280,393,0,0,0,0,0,0,0,0,0,-1,944,631,0,0
-273,393,0,0,0,0,0,0,0,0,0,-1,951,631,0,0
-266,393,0,0,0,0,0,0,0,0,0,-1,958,631,0,0
-259,393,0,0,0,0,0,0,0,0,0,-1,965,631,0,0
-252,393,0,0,0,0,0,0,0,0,0,-1,972,631,0,0
-245,393,0,0,0,0,0,0,0,0,0,-1,979,631,0,0
-238,393,0,0,0,0,0,0,0,0,0,-1,986,631,0,0
-231,393,0,0,0,0,0,0,0,0,0,-1,993,631,0,0
-224,393,0,0,0,0,0,0,0,0,0,-1,1000,631,0,0
-217,393,0,0,0,0,0,0,0,0,0,-1,1007,631,0,0
-210,393,0,0,0,0,0,0,0,0,0,-1,1014,631,0,0
-203,393,0,0,0,0,0,0,0,0,0,-1,1021,631,0,0
-196,393,0,0,0,0,0,0,0,0,0,-1,1028,631,0,0
-189,393,0,0,0,0,0,0,0,0,0,-1,1035,631,0,0
-182,393,0,0,0,0,0,0,0,0,0,-1,1042,631,0,0
-175,393,0,0,0,0,0,0,0,0,0,-1,1049,631,0,0
-168,393,0,0,0,0,0,0,0,0,0,-1,1056,631,0,0
-161,393,0,0,0,0,0,0,0,0,0,-1,1063,631,0,0
-154,393,0,0,0,0,0,0,0,0,0,-1,1070,631,0,0
-147,393,0,0,0,0,0,0,0,0,0,-1,1077,631,0,0
-140,393,0,0,0,0,0,0,0,0,0,-1,1084,631,0,0
-133,393,0,0,0,0,0,0,0,0,0,-1,1091,631,0,0
-126,393,0,0,0,0,0,0,0,0,0,-1,1098,631,0,0
-119,393,0,0,0,0,0,0,0,0,0,-1,1105,631,0,0
-112,393,0,0,0,0,0,0,0,0,0,-1,1112,631,0,0
-105,393,0,0,0,0,0,0,0,0,0,-1,1119,631,0,0
-98,393,0,0,0,0,0,0,0,0,0,-1,1126,631,0,0
-91,393,0,0,0,0,0,0,0,0,0,-1,1133,631,0,0
-84,393,0,0,0,0,0,0,0,0,0,-1,1140,631,0,0
-77,393,0,0,0,0,0,0,0,0,0,-1,1147,631,0,0
-70,393,0,0,0,0,0,0,0,0,0,-1,1154,631,0,0
-63,393,0,0,0,0,0,0,0,0,0,-1,1161,631,0,0
-56,393,0,0,0,0,0,0,0,0,0,-1,1168,631,0,0
-49,393,0,0,0,0,0,0,0,0,0,-1,1175,631,0,0
-42,393,0,0,0,0,0,0,0,0,0,-1,1182,631,0,0
-35,393,0,0,0,0,0,0,0,0,0,-1,1189,631,0,0
-28,393,0,0,0,0,0,0,0,0,0,-1,1196,631,0,0
-21,393,0,0,0,0,0,0,0,0,0,-1,1203,631,0,0
-14,393,0,0,0,0,0,0,0,0,0,-1,1210,631,0,0
-7,393,0,0,0,0,0,0,0,0,0,-1,1217,631,0,0
0,393,0,0,0,0,0,0,0,0,0,-1,1224,631,0,0
7,393,0,0,0,0,0,0,0,0,0,-1,1231,631,0,0
14,393,0,0,0,0,0,0,0,0,0,-1,1238,631,0,0
21,393,0,0,0,0,0,0,0,0,0,-1,1245,631,0,0
28,393,0,0,0,0,0,0,0,0,0,-1,1252,631,0,0
35,393,0,0,0,0,0,0,0,0,0,-1,1259,631,0,0
42,393,0,0,0,0,0,0,0,0,0,-1,1266,631,0,0
49,393,0,0,0,0,0,0,0,0,0,-1,1273,631,0,0
56,393,0,0,0,0,0,0,0,0,0,-1,1280,631,0,0
63,393,0,0,0,0,0,0,0,0,0,-1,1287,631,0,0
70,393,0,0,0,0,0,0,0,0,0,-1,1294,631,0,0
77,393,0,0,0,0,0,0,0,0,0,-1,1301,631,0,0
84,393,0,0,0,0,0,0,0,0,0,-1,1308,631,0,0
91,393,0,0,0,0,0,0,0,0,0,-1,1315,631,0,0
98,393,0,0,0,0,0,0,0,0,0,-1,1322,631,0,0
105,393,0,0,0,0,0,0,0,0,0,-1,1329,631,0,0
112,393,0,0,0,0,0,0,0,0,0,-1,1336,631,0,0
119,393,0,0,0,0,0,0,0,0,0,-1,1343,631,0,0
126,393,0,0,0,0,0,0,0,0,0,-1,1350,631,0,0
133,393,0,0,0,0,0,0,0,0,0,-1,1357,631,0,0
140,393,0,0,0,0,0,0,0,0,0,-1,1364,631,0,0
147,393,0,0,0,0,0,0,0,0,0,-1,1371,631,0,0
154,393,0,0,0,0,0,0,0,0,0,-1,1378,631,0,0
161,393,0,0,0,0,0,0,0,0,0,-1,1385,631,0,0
168,393,0,0,0,0,0,0,0,0,0,-1,1392,631,0,0
175,393,0,0,0,0,0,0,0,0,0,-1,1399,631,0,0
182,393,0,0,0,0,0,0,0,0,0,-1,1406,631,0,0
189,393,0,0,0,0,0,0,0,0,0,-1,1413,631,0,0
196,393,0,0,0,0,0,0,0,0,0,-1,1420,631,0,0
203,393,0,0,0,0,0,0,0,0,0,-1,1427,631,0,0
210,393,0,0,0,0,0,0,0,0,0,-1,1434,631,0,0
217,393,0,0,0,0,0,0,0,0,0,-1,1441,631,0,0
224,393,0,0,0,0,0,0,0,0,0,-1,1448,631,0,0
231,393,0,0,0,0,0,0,0,0,0,-1,1455,631,0,0
238,393,0,0,0,0,0,0,0,0,0,-1,1462,631,0,0
245,393,0,0,0,0,0,0,0,0,0,-1,1469,631,0,0
252,393,0,0,0,0,0,0,0,0,0,-1,1476,631,0,0
259,393,0,0,0,0,0,0,0,0,0,-1,1483,631,0,0
266,393,0,0,0,0,0,0,0,0,0,-1,1490,631,0,0
273,393,0,0,0,0,0,0,0,0,0,-1,1497,631,0,0
280,393,0,0,0,0,0,0,0,0,0,-1,1504,631,0,0
287,393,0,0,0,0,0,0,0,0,0,-1,1511,631,0,0
294,393,0,0,0,0,0,0,0,0,0,-1,1518,631,0,0
301,393,0,0,0,0,0,0,0,0,0,-1,1525,631,0,0
308,393,0,0,0,0,0,0,0,0,0,-1,1532,631,0,0
315,393,0,0,0,0,0,0,0,0,0,-1,1539,631,0,0
322,393,0,0,0,0,0,0,0,0,0,-1,1546,631,0,0
329,393,0,0,0,0,0,0,0,0,0,-1,1553,631,0,0
336,393,0,0,0,0,0,0,0,0,0,-1,1560,631,0,0
343,393,0,0,0,0,0,0,0,0,0,-1,1567,631,0,0
350,393,0,0,0,0,0,0,0,0,0,-1,1574,631,0,0
357,393,0,0,0,0,0,0,0,0,0,-1,1581,631,0,0
364,393,0,0,0,0,0,0,0,0,0,-1,1588,631,0,0
371,393,0,0,0,0,0,0,0,0,0,-1,1595,631,0,0
378,393,0,0,0,0,0,0,0,0,0,-1,1602,631,0,0
385,393,0,0,0,0,0,0,0,0,0,-1,1609,631,0,0
392,393,0,0,0,0,0,0,0,0,0,-1,1616,631,0,0
399,393,0,0,0,0,0,0,0,0,0,-1,1623,631,0,0
406,393,0,0,0,0,0,0,0,0,0,-1,1630,631,0,0
413,393,0,0,0,0,0,0,0,0,0,-1,1637,631,0,0
420,393,0,0,0,0,0,0,0,0,0,-1,1644,631,0,0
427,393,0,0,0,0,0,0,0,0,0,-1,1651,631,0,0
434,393,0,0,0,0,0,0,0,0,0,-1,1658,631,0,0
441,393,0,0,0,0,0,0,0,0,0,-1,1665,631,0,0
448,393,0,0,0,0,0,0,0,0,0,-1,1672,631,0,0
455,393,0,0,0,0,0,0,0,0,0,-1,1679,631,0,0
462,393,5.67554,1.31165,0,0,0,0,0,0,0,-1,1686,631,5.67552,-1.31163
469,393,6.05151,0.673279,0,0,0,0,0,0,0,-1,1693,631,6.05154,-0.673276
476,393,6.31189,0.946045,0,0,0,0,0,0,0,-1,1700,631,6.3119,-0.94605
483,393,5.62476,1.72644,0,0,0,0,0,0,0,-1,1707,631,5.62474,-1.72642
490,393,5.26318,1.38354,0,0,0,0,0,0,0,-1,1714,631,5.26317,-1.38355
497,393,4.90674,0.692322,0,0,0,0,0,0,0,-1,1721,631,4.90672,-0.692305
504,393,4.78186,1.66852,0,0,0,0,0,0,0,-1,1728,631,4.78191,-1.66851
511,393,5.0387,1.35529,0.0177911,-0.00927292,-0.0318343,0.0388501,-0.0303319,-0.58443,0.040043,0.0485201,1735,631,5.03869,-1.35527
518,393,5.33655,1.01904,0.0128932,-0.0093643,-0.0303339,0.0340754,-0.0305464,-0.609584,0.037328,0.0488473,1742,631,5.33657,-1.01907
525,393,4.89478,0.549255,0,0,0,0,0,0,0,-1,1749,631,4.8948,-0.549253
532,393,4.57031,0.0283203,0.00457994,-0.00778488,-0.0236634,0.0228552,-0.0260601,-0.657622,0.0282615,0.045121,1756,631,4.57031,-0.0283458
539,393,4.53625,-0.592224,0.00164388,-0.00681974,-0.0197012,0.0175626,-0.0227385,-0.679606,0.0233317,0.0431986,1763,631,4.5363,0.592214
546,393,4.3175,-0.666748,-0.000285193,-0.00534454,-0.0161479,0.01353,-0.0191597,-0.707701,0.0189664,0.0239559,1770,631,4.31745,0.666768
553,393,4.24451,-0.59375,-0.00187255,-0.00458181,-0.0126203,0.00946561,-0.01592,-0.731934,0.0148134,0.0130169,1777,631,4.24453,0.593762
560,393,4.23633,-0.476074,-0.00257399,-0.00358824,-0.00943087,0.00636338,-0.0125256,-0.758537,0.0110973,0.0119019,1784,631,4.23634,0.476054
567,393,4.24109,-0.389893,-0.00290734,-0.00257449,-0.0062831,0.00354439,-0.00902622,-0.798639,0.00748414,0.0134901,1791,631,4.24107,0.389878
574,393,4.23486,-0.323792,-0.00268961,-0.00154923,-0.00366048,0.00158521,-0.00582404,-0.862662,0.00450504,0.0145319,1798,631,4.23486,0.323813
581,393,4.21631,-0.254761,-0.00209471,-0.000641113,-0.00201317,0.000772438,-0.00350826,-0.958628,0.00263434,0.0133734,1805,631,4.21626,0.254742
588,393,4.22754,-0.190796,-0.00136161,0.000578998,-0.000991497,0.000995978,-0.00177859,-1.1727,0.001623,0.0130107,1812,631,4.22752,0.190813
595,393,4.24023,-0.105225,-0.000511917,0.00118067,-0.000523368,0.00132943,-0.000660675,-1.29387,0.00117041,0.0107386,1819,631,4.24019,0.105244
602,393,4.23877,-0.0349121,0.000187508,0.0017187,-0.000363928,0.0018008,0.000105413,-1.34893,0.00116698,0.0129248,1826,631,4.23871,0.0348917
609,393,4.22522,0.0461426,-1.34366e-05,0.00214928,9.61956e-05,0.00215355,-1.77069e-05,1.52643,0.00144164,0.0141116,1833,631,4.22521,-0.0461305
616,393,4.20618,0.131958,-0.000239778,0.00268091,0.00043808,0.0027452,-0.000304071,1.42508,0.00193945,0.0155284,1840,631,4.20618,-0.131988
623,393,4.23328,0.229736,0.000556491,0.00424083,0.000840064,0.00442334,0.000373989,1.35687,0.00283247,0.0172284,1847,631,4.23333,-0.229717
630,393,4.25269,0.293213,0.00069478,0.00559045,0.0012607,0.00589602,0.000389207,1.333,0.00380758,0.0207371,1854,631,4.25274,-0.293206
637,393,4.03662,0.331665,0.00136799,0.00739751,0.00190575,0.00794935,0.000816145,1.28894,0.00504955,0.0330466,1861,631,4.03665,-0.331635
644,393,3.96057,0.367676,0.00311432,0.00997262,0.00289738,0.0110328,0.00205417,1.22003,0.00677507,0.0431353,1868,631,3.96051,-0.367704
651,393,3.26477,0.377686,0,0,0,0,0,0,0,-1,1875,631,3.26479,-0.377711
658,393,3.177,0.448914,0,0,0,0,0,0,0,-1,1882,631,3.17706,-0.448936
665,393,4.00513,3.81494,0,0,0,0,0,0,0,-1,1889,631,4.00517,-3.81492
672,393,4.35522,3.02454,0,0,0,0,0,0,0,-1,1896,631,4.35517,-3.02455
679,393,0,0,0,0,0,0,0,0,0,-1,1903,631,0,0
686,393,0,0,0,0,0,0,0,0,0,-1,1910,631,0,0
693,393,0,0,0,0,0,0,0,0,0,-1,1917,631,0,0
700,393,0,0,0,0,0,0,0,0,0,-1,1924,631,0,0
707,393,0,0,0,0,0,0,0,0,0,-1,1931,631,0,0
714,393,0,0,0,0,0,0,0,0,0,-1,1938,631,0,0
721,393,0,0,0,0,0,0,0,0,0,-1,1945,631,0,0
728,393,0,0,0,0,0,0,0,0,0,-1,1952,631,0,0
735,393,0,0,0,0,0,0,0,0,0,-1,1959,631,0,0
742,393,0,0,0,0,0,0,0,0,0,-1,1966,631,0,0
749,393,0,0,0,0,0,0,0,0,0,-1,1973,631,0,0
756,393,0,0,0,0,0,0,0,0,0,-1,1980,631,0,0
763,393,0,0,0,0,0,0,0,0,0,-1,1987,631,0,0
770,393,0,0,0,0,0,0,0,0,0,-1,1994,631,0,0
777,393,0,0,0,0,0,0,0,0,0,-1,2001,631,0,0
784,393,0,0,0,0,0,0,0,0,0,-1,2008,631,0,0
791,393,0,0,0,0,0,0,0,0,0,-1,2015,631,0,0
798,393,0,0,0,0,0,0,0,0,0,-1,2022,631,0,0
805,393,0,0,0,0,0,0,0,0,0,-1,2029,631,0,0
812,393,0,0,0,0,0,0,0,0,0,-1,2036,631,0,0
-700,386,0,0,0,0,0,0,0,0,0,-1,524,638,0,0
-693,386,0,0,0,0,0,0,0,0,0,-1,531,638,0,0
-686,386,0,0,0,0,0,0,0,0,0,-1,538,638,0,0
-679,386,0,0,0,0,0,0,0,0,0,-1,545,638,0,0
-672,386,0,0,0,0,0,0,0,0,0,-1,552,638,0,0
-665,386,0,0,0,0,0,0,0,0,0,-1,559,638,0,0
-658,386,0,0,0,0,0,0,0,0,0,-1,566,638,0,0
-651,386,0,0,0,0,0,0,0,0,0,-1,573,638,0,0
-644,386,0,0,0,0,0,0,0,0,0,-1,580,638,0,0
-637,386,0,0,0,0,0,0,0,0,0,-1,587,638,0,0
-630,386,0,0,0,0,0,0,0,0,0,-1,594,638,0,0
-623,386,0,0,0,0,0,0,0,0,0,-1,601,638,0,0
-616,386,0,0,0,0,0,0,0,0,0,-1,608,638,0,0
-609,386,0,0,0,0,0,0,0,0,0,-1,615,638,0,0
-602,386,0,0,0,0,0,0,0,0,0,-1,622,638,0,0
-595,386,0,0,0,0,0,0,0,0,0,-1,629,638,0,0
-588,386,0,0,0,0,0,0,0,0,0,-1,636,638,0,0
-581,386,0,0,0,0,0,0,0,0,0,-1,643,638,0,0
-574,386,0,0,0,0,0,0,0,0,0,-1,650,638,0,0
-567,386,0,0,0,0,0,0,0,0,0,-1,657,638,0,0
-560,386,-1.38409,3.81561,0.0167979,0.0234693,-0.0652608,0.0854796,-0.0452124,-0.810933,0.0766396,0.0458783,664,638,-1.3841,-3.81561
-553,386,-1.34442,2.75006,0.0133118,0.0142613,-0.0482911,0.06208,-0.0345069,-0.790313,0.0565168,0.04954,671,638,-1.34444,-2.75004
-546,386,-1.68024,1.50061,0,0,0,0,0,0,0,-1,678,638,-1.68025,-1.50061
-539,386,-1.63745,1.28967,0.00857333,0.0025531,-0.0245045,0.0302519,-0.0191255,-0.724285,0.0287483,0.0468464,685,638,-1.63746,-1.2897
-532,386,-1.60364,0.964417,0,0,0,0,0,0,0,-1,692,638,-1.60366,-0.964417
-525,386,-0.373047,0.250977,0,0,0,0,0,0,0,-1,699,638,-0.373056,-0.25098
-518,386,-0.339417,0.196594,0.0051661,-0.00357988,-0.00706108,0.00909864,-0.00751243,-0.50815,0.00960497,0.048986,706,638,-0.339417,-0.196594
-511,386,-0.120178,0.343567,0.00437756,-0.00417279,-0.00389847,0.00588816,-0.00568339,-0.369672,0.00668118,0.0406963,713,638,-0.120205,-0.343596
-504,386,-0.079895,0.0582275,0.00336433,-0.00451814,-0.000451025,0.00339006,-0.00454386,-0.0569709,0.00459677,0.0194496,720,638,-0.0798706,-0.0582183
-497,386,-0.0966797,-0.06073,0.00259787,-0.00418985,0.00120137,0.00280422,-0.00439621,0.170109,0.0041909,0.0098845,727,638,-0.0966628,0.0607302
-490,386,-0.0892334,-0.150696,0.00251644,-0.00321248,0.000669646,0.00259367,-0.00328972,0.114827,0.00340469,0.0112943,734,638,-0.0892532,0.150726
-483,386,-0.0628052,-0.229614,0.00243262,-0.00240737,0.000183239,0.00243954,-0.00241429,0.0377874,0.00280238,0.0149346,741,638,-0.0627827,0.229636
-476,386,-0.0629883,-0.282776,0.00209236,-0.00222005,0.000442271,0.00213725,-0.00226494,0.101155,0.00254196,0.0142495,748,638,-0.0629814,0.282779
-469,386,-0.083252,-0.341675,0.00165825,-0.00230501,0.000964382,0.00188046,-0.00252722,0.22646,0.00255389,0.011276,755,638,-0.0832572,0.341701
-462,386,-0.0803223,-0.436218,0.001296,-0.00316483,0.00131969,0.00165717,-0.00352601,0.267139,0.00305666,0.0111958,762,638,-0.0803059,0.436226
-455,386,-0.0842285,-0.522095,0.00118998,-0.00406516,0.00192784,0.00182135,-0.00469653,0.316493,0.00388323,0.0119511,769,638,-0.084224,0.522108
-448,386,-0.0839844,-0.59613,0.0011756,-0.0046414,0.0025319,0.00212325,-0.00558905,0.358143,0.00460013,0.0110856,776,638,-0.0839897,0.596147
-441,386,-0.0977173,-0.63324,0.00115079,-0.00409135,0.00285967,0.00240886,-0.00534942,0.414452,0.00458523,0.0109881,783,638,-0.0977342,0.63327
-434,386,-0.0933228,-0.70166,0.000903707,-0.00343809,0.00319544,0.00259592,-0.0051303,0.487024,0.00454003,0.0147394,790,638,-0.0933155,0.701635
-427,386,-0.0480957,-0.785583,6.11371e-05,-0.00145833,0.0032277,0.00261731,-0.00401451,0.669813,0.0038571,0.0268756,797,638,-0.0481164,0.785554
-420,386,-0.0483398,-0.6828,-0.00053206,0.00139757,0.00386975,0.00442097,-0.00355546,0.907569,0.00461422,0.0319772,804,638,-0.0483667,0.682774
-413,386,0.0240479,-0.663818,-0.00134117,0.00398189,0.00399164,0.00611795,-0.00347724,1.07944,0.00560928,0.0429238,811,638,0.0240509,0.663795
-406,386,-1.44489,-0.244995,0,0,0,0,0,0,0,-1,818,638,-1.44489,0.24501
-399,386,-1.81299,-1.53619,-0.00564022,0.00473743,0.000468773,0.00475856,-0.00566135,1.52575,0.00602346,0.0415511,825,638,-1.81296,1.53618
-392,386,-1.74902,-2.64697,-0.00924802,0.00546697,-0.00197664,0.00572787,-0.00950891,-1.43957,0.00888679,0.047213,832,638,-1.74902,2.64699
-385,386,-1.66223,-3.46179,0,0,0,0,0,0,0,-1,839,638,-1.66221,3.46181
-378,386,-1.6474,-2.60846,0,0,0,0,0,0,0,-1,846,638,-1.64743,2.60843
-371,386,-0.127197,0.0864868,0,0,0,0,0,0,0,-1,853,638,-0.127206,-0.0864842
-364,386,-0.930298,-0.753296,-0.0282328,0.00325037,-0.0252728,0.0172831,-0.0422656,-1.06393,0.0353746,0.0444415,860,638,-0.930273,0.753318
-357,386,-0.979187,-1.32489,-0.0343656,0.00131862,-0.029633,0.0180663,-0.0511133,-1.05638,0.041432,0.0456025,867,638,-0.979168,1.32487
-350,386,0,0,0,0,0,0,0,0,0,-1,874,638,0,0
-343,386,0,0,0,0,0,0,0,0,0,-1,881,638,0,0
-336,386,0,0,0,0,0,0,0,0,0,-1,888,638,0,0
-329,386,0,0,0,0,0,0,0,0,0,-1,895,638,0,0
-322,386,0,0,0,0,0,0,0,0,0,-1,902,638,0,0
-315,386,0,0,0,0,0,0,0,0,0,-1,909,638,0,0
-308,386,0,0,0,0,0,0,0,0,0,-1,916,638,0,0
-301,386,0,0,0,0,0,0,0,0,0,-1,923,638,0,0
-294,386,0,0,0,0,0,0,0,0,0,-1,930,638,0,0
-287,386,0,0,0,0,0,0,0,0,0,-1,937,638,0,0
-280,386,0,0,0,0,0,0,0,0,0,-1,944,638,0,0
-273,386,0,0,0,0,0,0,0,0,0,-1,951,638,0,0
-266,386,0,0,0,0,0,0,0,0,0,-1,958,638,0,0
-259,386,0,0,0,0,0,0,0,0,0,-1,965,638,0,0
-252,386,0,0,0,0,0,0,0,0,0,-1,972,638,0,0
-245,386,0,0,0,0,0,0,0,0,0,-1,979,638,0,0
-238,386,0,0,0,0,0,0,0,0,0,-1,986,638,0,0
-231,386,0,0,0,0,0,0,0,0,0,-1,993,638,0,0
-224,386,0,0,0,0,0,0,0,0,0,-1,1000,638,0,0
-217,386,0,0,0,0,0,0,0,0,0,-1,1007,638,0,0
-210,386,0,0,0,0,0,0,0,0,0,-1,1014,638,0,0
-203,386,0,0,0,0,0,0,0,0,0,-1,1021,638,0,0
-196,386,0,0,0,0,0,0,0,0,0,-1,1028,638,0,0
-189,386,0,0,0,0,0,0,0,0,0,-1,1035,638,0,0
-182,386,0,0,0,0,0,0,0,0,0,-1,1042,638,0,0
-175,386,0,0,0,0,0,0,0,0,0,-1,1049,638,0,0
-168,386,0,0,0,0,0,0,0,0,0,-1,1056,638,0,0
-161,386,0,0,0,0,0,0,0,0,0,-1,1063,638,0,0
-154,386,0,0,0,0,0,0,0,0,0,-1,1070,638,0,0
-147,386,0,0,0,0,0,0,0,0,0,-1,1077,638,0,0
-140,386,0,0,0,0,0,0,0,0,0,-1,1084,638,0,0
-133,386,0,0,0,0,0,0,0,0,0,-1,1091,638,0,0
-126,386,0,0,0,0,0,0,0,0,0,-1,1098,638,0,0
-119,386,0,0,0,0,0,0,0,0,0,-1,1105,638,0,0
-112,386,0,0,0,0,0,0,0,0,0,-1,1112,638,0,0
-105,386,0,0,0,0,0,0,0,0,0,-1,1119,638,0,0
-98,386,0,0,0,0,0,0,0,0,0,-1,1126,638,0,0
-91,386,0,0,0,0,0,0,0,0,0,-1,1133,638,0,0
-84,386,0,0,0,0,0,0,0,0,0,-1,1140,638,0,0
-77,386,0,0,0,0,0,0,0,0,0,-1,1147,638,0,0
-70,386,0,0,0,0,0,0,0,0,0,-1,1154,638,0,0
-63,386,0,0,0,0,0,0,0,0,0,-1,1161,638,0,0
-56,386,0,0,0,0,0,0,0,0,0,-1,1168,638,0,0
-49,386,0,0,0,0,0,0,0,0,0,-1,1175,638,0,0
-42,386,0,0,0,0,0,0,0,0,0,-1,1182,638,0,0
-35,386,0,0,0,0,0,0,0,0,0,-1,1189,638,0,0
-28,386,0,0,0,0,0,0,0,0,0,-1,1196,638,0,0
-21,386,0,0,0,0,0,0,0,0,0,-1,1203,638,0,0
-14,386,0,0,0,0,0,0,0,0,0,-1,1210,638,0,0
-7,386,0,0,0,0,0,0,0,0,0,-1,1217,638,0,0
0,386,0,0,0,0,0,0,0,0,0,-1,1224,638,0,0
7,386,0,0,0,0,0,0,0,0,0,-1,1231,638,0,0
14,386,0,0,0,0,0,0,0,0,0,-1,1238,638,0,0
21,386,0,0,0,0,0,0,0,0,0,-1,1245,638,0,0
28,386,0,0,0,0,0,0,0,0,0,-1,1252,638,0,0
35,386,0,0,0,0,0,0,0,0,0,-1,1259,638,0,0
42,386,0,0,0,0,0,0,0,0,0,-1,1266,638,0,0
49,386,0,0,0,0,0,0,0,0,0,-1,1273,638,0,0
56,386,0,0,0,0,0,0,0,0,0,-1,1280,638,0,0
63,386,0,0,0,0,0,0,0,0,0,-1,1287,638,0,0
70,386,0,0,0,0,0,0,0,0,0,-1,1294,638,0,0
77,386,0,0,0,0,0,0,0,0,0,-1,1301,638,0,0
84,386,0,0,0,0,0,0,0,0,0,-1,1308,638,0,0
91,386,0,0,0,0,0,0,0,0,0,-1,1315,638,0,0
98,386,0,0,0,0,0,0,0,0,0,-1,1322,638,0,0
105,386,0,0,0,0,0,0,0,0,0,-1,1329,638,0,0
112,386,0,0,0,0,0,0,0,0,0,-1,1336,638,0,0
119,386,0,0,0,0,0,0,0,0,0,-1,1343,638,0,0
126,386,0,0,0,0,0,0,0,0,0,-1,1350,638,0,0
133,386,0,0,0,0,0,0,0,0,0,-1,1357,638,0,0
140,386,0,0,0,0,0,0,0,0,0,-1,1364,638,0,0
147,386,0,0,0,0,0,0,0,0,0,-1,1371,638,0,0
154,386,0,0,0,0,0,0,0,0,0,-1,1378,638,0,0
161,386,0,0,0,0,0,0,0,0,0,-1,1385,638,0,0
168,386,0,0,0,0,0,0,0,0,0,-1,1392,638,0,0
175,386,0,0,0,0,0,0,0,0,0,-1,1399,638,0,0
182,386,0,0,0,0,0,0,0,0,0,-1,1406,638,0,0
189,386,0,0,0,0,0,0,0,0,0,-1,1413,638,0,0
196,386,0,0,0,0,0,0,0,0,0,-1,1420,638,0,0
203,386,0,0,0,0,0,0,0,0,0,-1,1427,638,0,0
210,386,0,0,0,0,0,0,0,0,0,-1,1434,638,0,0
217,386,0,0,0,0,0,0,0,0,0,-1,1441,638,0,0
224,386,0,0,0,0,0,0,0,0,0,-1,1448,638,0,0
231,386,0,0,0,0,0,0,0,0,0,-1,1455,638,0,0
238,386,0,0,0,0,0,0,0,0,0,-1,1462,638,0,0
245,386,0,0,0,0,0,0,0,0,0,-1,1469,638,0,0
252,386,0,0,0,0,0,0,0,0,0,-1,1476,638,0,0
259,386,0,0,0,0,0,0,0,0,0,-1,1483,638,0,0
266,386,0,0,0,0,0,0,0,0,0,-1,1490,638,0,0
273,386,0,0,0,0,0,0,0,0,0,-1,1497,638,0,0
280,386,0,0,0,0,0,0,0,0,0,-1,1504,638,0,0
287,386,0,0,0,0,0,0,0,0,0,-1,1511,638,0,0
294,386,0,0,0,0,0,0,0,0,0,-1,1518,638,0,0
301,386,0,0,0,0,0,0,0,0,0,-1,1525,638,0,0
308,386,0,0,0,0,0,0,0,0,0,-1,1532,638,0,0
315,386,0,0,0,0,0,0,0,0,0,-1,1539,638,0,0
322,386,0,0,0,0,0,0,0,0,0,-1,1546,638,0,0
329,386,0,0,0,0,0,0,0,0,0,-1,1553,638,0,0
336,386,0,0,0,0,0,0,0,0,0,-1,1560,638,0,0
343,386,0,0,0,0,0,0,0,0,0,-1,1567,638,0,0
350,386,0,0,0,0,0,0,0,0,0,-1,1574,638,0,0
357,386,0,0,0,0,0,0,0,0,0,-1,1581,638,0,0
364,386,0,0,0,0,0,0,0,0,0,-1,1588,638,0,0
371,386,0,0,0,0,0,0,0,0,0,-1,1595,638,0,0
378,386,0,0,0,0,0,0,0,0,0,-1,1602,638,0,0
385,386,0,0,0,0,0,0,0,0,0,-1,1609,638,0,0
392,386,0,0,0,0,0,0,0,0,0,-1,1616,638,0,0
399,386,0,0,0,0,0,0,0,0,0,-1,1623,638,0,0
406,386,0,0,0,0,0,0,0,0,0,-1,1630,638,0,0
413,386,0,0,0,0,0,0,0,0,0,-1,1637,638,0,0
420,386,0,0,0,0,0,0,0,0,0,-1,1644,638,0,0
427,386,0,0,0,0,0,0,0,0,0,-1,1651,638,0,0
434,386,0,0,0,0,0,0,0,0,0,-1,1658,638,0,0
441,386,0,0,0,0,0,0,0,0,0,-1,1665,638,0,0
448,386,0,0,0,0,0,0,0,0,0,-1,1672,638,0,0
455,386,0,0,0,0,0,0,0,0,0,-1,1679,638,0,0
462,386,0,0,0,0,0,0,0,0,0,-1,1686,638,0,0
469,386,5.59155,1.25,0,0,0,0,0,0,0,-1,1693,638,5.59158,-1.25002
476,386,6.64233,0.408508,0,0,0,0,0,0,0,-1,1700,638,6.64227,-0.408503
483,386,5.44617,1.59418,0,0,0,0,0,0,0,-1,1707,638,5.44621,-1.5942
490,386,4.86646,1.72162,0,0,0,0,0,0,0,-1,1714,638,4.86649,-1.72162
497,386,5.85132,1.44958,0,0,0,0,0,0,0,-1,1721,638,5.85132,-1.44961
504,386,5.77148,1.6886,0,0,0,0,0,0,0,-1,1728,638,5.77153,-1.68858
511,386,5.82617,1.43323,0.0184644,-0.0103438,-0.0371141,0.0438715,-0.035751,-0.600294,0.0460497,0.0426336,1735,638,5.82621,-1.43321
518,386,5.93469,1.11774,0.0125935,-0.00937817,-0.0353174,0.0385942,-0.0353789,-0.634612,0.0427218,0.0435876,1742,638,5.93465,-1.11771
525,386,4.9353,0.892334,0,0,0,0,0,0,0,-1,1749,638,4.93528,-0.892351
532,386,4.69141,0.403992,0.00272238,-0.00750447,-0.0280341,0.0261055,-0.0308876,-0.69519,0.0329436,0.0450116,1756,638,4.69144,-0.404017
539,386,4.77405,-0.314819,-0.000668208,-0.00654618,-0.0236749,0.0202494,-0.0274638,-0.723644,0.027652,0.0440432,1763,638,4.77402,0.314817
546,386,4.41919,-0.575867,-0.00283261,-0.00505853,-0.0197604,0.0158461,-0.0237373,-0.757266,0.0230044,0.0388361,1770,638,4.41918,0.575859
553,386,4.24658,-0.514465,-0.00448093,-0.00443169,-0.0157817,0.0113254,-0.0202381,-0.786178,0.0184638,0.0312919,1777,638,4.24654,0.514476
560,386,4.29785,-0.426575,-0.0051602,-0.00372003,-0.0121018,0.00768306,-0.0165633,-0.815114,0.0143082,0.022449,1784,638,4.29789,0.426596
567,386,4.30066,-0.36676,-0.00546168,-0.0029157,-0.00845976,0.00436631,-0.0127437,-0.860076,0.0102656,0.0173742,1791,638,4.30065,0.36676
574,386,4.31201,-0.310547,-0.00518045,-0.00209672,-0.00533292,0.00191275,-0.00918992,-0.926122,0.00685375,0.013865,1798,638,4.31204,0.310539
581,386,4.30481,-0.271484,-0.00443239,-0.00139192,-0.00324323,0.000669695,-0.00649401,-1.00456,0.00456896,0.0131718,1805,638,4.30476,0.2715
588,386,4.31726,-0.18573,-0.00338412,-0.000430845,-0.00180369,0.000423557,-0.00423852,-1.12841,0.00297693,0.0118548,1812,638,4.31723,0.185731
595,386,4.31116,-0.0969849,-0.00216607,-4.81185e-05,-0.00101889,0.000362449,-0.00257664,-1.18774,0.00185045,0.011963,1819,638,4.31116,0.0969552
602,386,4.31348,-0.0333252,-0.00113533,0.000297385,-0.000668787,0.00056105,-0.00139899,-1.19526,0.00116559,0.0130362,1826,638,4.31348,0.0333102
609,386,4.31543,0.0305786,-0.0012773,0.000514152,-0.000167381,0.000529657,-0.0012928,-1.47843,0.00108251,0.0133969,1833,638,4.31537,-0.0305657
616,386,4.29639,0.111328,-0.00147684,0.000793625,0.000212734,0.000813386,-0.0014966,1.47817,0.00135298,0.0113627,1840,638,4.29642,-0.111345
623,386,4.30212,0.187012,-0.000696768,0.00210103,0.000706982,0.00226953,-0.000865268,1.33682,0.00186943,0.00991989,1847,638,4.30217,-0.186998
630,386,4.33069,0.248535,-0.000438296,0.003231,0.00122183,0.00360062,-0.000807917,1.27703,0.00271016,0.014238,1854,638,4.3307,-0.248551
637,386,4.29993,0.323059,0.000293966,0.00479281,0.00196481,0.00553009,-0.000443313,1.21181,0.00384303,0.0200371,1861,638,4.29996,-0.323064
644,386,4.20715,0.408813,0.00192727,0.00703338,0.00299508,0.00841588,0.000544765,1.13835,0.0054381,0.0315701,1868,638,4.20713,-0.408824
651,386,4.47058,0.370789,0.00505647,0.0100803,0.00461743,0.0128248,0.00231193,1.03451,0.00789294,0.0431818,1875,638,4.47061,-0.370793
658,386,4.81445,0.277588,0.0101855,0.0141927,0.00696431,0.0194359,0.00494231,0.925461,0.0116642,0.0476757,1882,638,4.81451,-0.277565
665,386,3.46912,3.04126,0,0,0,0,0,0,0,-1,1889,638,3.46914,-3.04125
672,386,4.28625,2.40442,0.0288894,0.0269089,0.0141478,0.0420815,0.0137168,0.750459,0.0247815,0.0458324,1896,638,4.28625,-2.4044
679,386,5.33667,1.89398,0,0,0,0,0,0,0,-1,1903,638,5.33664,-1.89401
686,386,0,0,0,0,0,0,0,0,0,-1,1910,638,0,0
693,386,0,0,0,0,0,0,0,0,0,-1,1917,638,0,0
700,386,0,0,0,0,0,0,0,0,0,-1,1924,638,0,0
707,386,0,0,0,0,0,0,0,0,0,-1,1931,638,0,0
714,386,0,0,0,0,0,0,0,0,0,-1,1938,638,0,0
721,386,0,0,0,0,0,0,0,0,0,-1,1945,638,0,0
728,386,0,0,0,0,0,0,0,0,0,-1,1952,638,0,0
735,386,0,0,0,0,0,0,0,0,0,-1,1959,638,0,0
742,386,0,0,0,0,0,0,0,0,0,-1,1966,638,0,0
749,386,0,0,0,0,0,0,0,0,0,-1,1973,638,0,0
756,386,0,0,0,0,0,0,0,0,0,-1,1980,638,0,0
763,386,0,0,0,0,0,0,0,0,0,-1,1987,638,0,0
770,386,0,0,0,0,0,0,0,0,0,-1,1994,638,0,0
777,386,0,0,0,0,0,0,0,0,0,-1,2001,638,0,0
784,386,0,0,0,0,0,0,0,0,0,-1,2008,638,0,0
791,386,0,0,0,0,0,0,0,0,0,-1,2015,638,0,0
798,386,0,0,0,0,0,0,0,0,0,-1,2022,638,0,0
805,386,0,0,0,0,0,0,0,0,0,-1,2029,638,0,0
812,386,0,0,0,0,0,0,0,0,0,-1,2036,638,0,0
-700,379,0,0,0,0,0,0,0,0,0,-1,524,645,0,0
-693,379,0,0,0,0,0,0,0,0,0,-1,531,645,0,0
-686,379,0,0,0,0,0,0,0,0,0,-1,538,645,0,0
-679,379,0,0,0,0,0,0,0,0,0,-1,545,645,0,0
-672,379,0,0,0,0,0,0,0,0,0,-1,552,645,0,0
-665,379,0,0,0,0,0,0,0,0,0,-1,559,645,0,0
-658,379,0,0,0,0,0,0,0,0,0,-1,566,645,0,0
-651,379,0,0,0,0,0,0,0,0,0,-1,573,645,0,0
-644,379,0,0,0,0,0,0,0,0,0,-1,580,645,0,0
-637,379,0,0,0,0,0,0,0,0,0,-1,587,645,0,0
-630,379,0,0,0,0,0,0,0,0,0,-1,594,645,0,0
-623,379,0,0,0,0,0,0,0,0,0,-1,601,645,0,0
-616,379,0,0,0,0,0,0,0,0,0,-1,608,645,0,0
-609,379,0,0,0,0,0,0,0,0,0,-1,615,645,0,0
-602,379,0,0,0,0,0,0,0,0,0,-1,622,645,0,0
-595,379,0,0,0,0,0,0,0,0,0,-1,629,645,0,0
-588,379,0,0,0,0,0,0,0,0,0,-1,636,645,0,0
-581,379,0,0,0,0,0,0,0,0,0,-1,643,645,0,0
-574,379,0,0,0,0,0,0,0,0,0,-1,650,645,0,0
-567,379,-1.11279,4.85443,0,0,0,0,0,0,0,-1,657,645,-1.11281,-4.85441
-560,379,-1.08984,3.72345,0.015549,0.0287468,-0.0645265,0.0870109,-0.0427151,-0.836354,0.0763389,0.0489889,664,645,-1.08986,-3.72343
-553,379,-0.908936,2.31445,0.0124455,0.0202175,-0.0496231,0.0661065,-0.0334436,-0.824474,0.0584974,0.0471809,671,645,-0.908954,-2.31445
-546,379,-0.56311,0.889832,0,0,0,0,0,0,0,-1,678,645,-0.563082,-0.889823
-539,379,-2.12555,1.58478,0,0,0,0,0,0,0,-1,685,645,-2.12554,-1.58477
-532,379,-0.491577,0.381836,0,0,0,0,0,0,0,-1,692,645,-0.491584,-0.381806
-525,379,-0.378845,0.252014,0.00535428,0.00206596,-0.0131723,0.0169846,-0.00956439,-0.72331,0.0155264,0.0467349,699,645,-0.378854,-0.252044
-518,379,-0.282593,0.162537,0.00441782,-0.000112043,-0.0084539,0.0109049,-0.00659916,-0.654514,0.0102074,0.0416085,706,645,-0.28258,-0.16251
-511,379,-0.172913,0.086731,0.00360696,-0.00147001,-0.0047715,0.0064732,-0.00433625,-0.540935,0.00628136,0.0237641,713,645,-0.172935,-0.0867221
-504,379,-0.132385,-0.00372314,0.00260921,-0.00252115,-0.000951684,0.00278006,-0.002692,-0.17763,0.00315943,0.0118878,720,645,-0.132415,0.00369765
-497,379,-0.147522,-0.0784912,0.00187939,-0.00269645,0.000953056,0.00206996,-0.00288701,0.19735,0.00287484,0.0091579,727,645,-0.147541,0.0785041
-490,379,-0.141785,-0.151428,0.00184496,-0.00226111,0.000719104,0.00196726,-0.00238341,0.168455,0.00251569,0.00977083,734,645,-0.141778,0.151426
-483,379,-0.124695,-0.215698,0.00179529,-0.00188062,0.000467423,0.0018538,-0.00193912,0.124519,0.00219003,0.0113516,741,645,-0.124686,0.215675
-476,379,-0.128784,-0.266296,0.00157295,-0.00199549,0.000793894,0.0017416,-0.00216414,0.209325,0.00225938,0.011853,748,645,-0.128774,0.266273
-469,379,-0.137878,-0.335022,0.00123549,-0.00226611,0.00131821,0.00167626,-0.00270688,0.322683,0.00255382,0.0113622,755,645,-0.137897,0.334993
-462,379,-0.140442,-0.433289,0.000960801,-0.0032029,0.0016313,0.0015238,-0.0037659,0.332324,0.00314413,0.00932587,762,645,-0.140425,0.43329
-455,379,-0.150146,-0.502258,0.000912628,-0.0041031,0.00213986,0.00170149,-0.00489196,0.353192,0.00395249,0.00907162,769,645,-0.15012,0.502241
-448,379,-0.143738,-0.555603,0.000932486,-0.00457323,0.00260979,0.00197294,-0.00561369,0.379364,0.00454515,0.0101186,776,645,-0.143741,0.555622
-441,379,-0.14563,-0.621155,0.000909442,-0.00385821,0.00279618,0.00220002,-0.00514879,0.432417,0.0043552,0.0121528,783,645,-0.145605,0.621171
-434,379,-0.105347,-0.688843,0.000659308,-0.0028933,0.00292581,0.00230581,-0.0045398,0.51258,0.00402186,0.0238014,790,645,-0.105343,0.688841
-427,379,-0.139648,-0.593567,-0.000250284,-0.000352949,0.00268954,0.00238842,-0.00299165,0.775856,0.00311269,0.0349818,797,645,-0.139649,0.593567
-420,379,0.192688,-0.17688,-0.00106695,0.0033253,0.00292774,0.00478905,-0.00253069,1.10718,0.00429258,0.0391577,804,645,0.192658,0.176868
-413,379,0.240173,-0.136475,-0.00214548,0.00638686,0.0024616,0.0070461,-0.00280472,1.30913,0.00586046,0.0476014,811,645,0.240146,0.136446
-406,379,0.245361,-0.315063,0,0,0,0,0,0,0,-1,818,645,0.245334,0.315035
-399,379,-2.79608,-2.10132,0,0,0,0,0,0,0,-1,825,645,-2.79608,2.10131
-392,379,-2.41187,-3.4223,0,0,0,0,0,0,0,-1,832,645,-2.41186,3.42232
-385,379,-1.21338,-1.72406,0,0,0,0,0,0,0,-1,839,645,-1.2134,1.72409
-378,379,1.43274,0.843445,0,0,0,0,0,0,0,-1,846,645,1.43272,-0.843439
-371,379,0.493774,-0.749329,0,0,0,0,0,0,0,-1,853,645,0.493803,0.749307
-364,379,-0.997253,-0.272278,0,0,0,0,0,0,0,-1,860,645,-0.997243,0.27227
-357,379,0,0,0,0,0,0,0,0,0,-1,867,645,0,0
-350,379,0,0,0,0,0,0,0,0,0,-1,874,645,0,0
-343,379,0,0,0,0,0,0,0,0,0,-1,881,645,0,0
-336,379,0,0,0,0,0,0,0,0,0,-1,888,645,0,0
-329,379,0,0,0,0,0,0,0,0,0,-1,895,645,0,0
-322,379,0,0,0,0,0,0,0,0,0,-1,902,645,0,0
-315,379,0,0,0,0,0,0,0,0,0,-1,909,645,0,0
-308,379,0,0,0,0,0,0,0,0,0,-1,916,645,0,0
-301,379,0,0,0,0,0,0,0,0,0,-1,923,645,0,0
-294,379,0,0,0,0,0,0,0,0,0,-1,930,645,0,0
-287,379,0,0,0,0,0,0,0,0,0,-1,937,645,0,0
-280,379,0,0,0,0,0,0,0,0,0,-1,944,645,0,0
-273,379,0,0,0,0,0,0,0,0,0,-1,951,645,0,0
-266,379,0,0,0,0,0,0,0,0,0,-1,958,645,0,0
-259,379,0,0,0,0,0,0,0,0,0,-1,965,645,0,0
-252,379,0,0,0,0,0,0,0,0,0,-1,972,645,0,0
-245,379,0,0,0,0,0,0,0,0,0,-1,979,645,0,0
-238,379,0,0,0,0,0,0,0,0,0,-1,986,645,0,0
-231,379,0,0,0,0,0,0,0,0,0,-1,993,645,0,0
-224,379,0,0,0,0,0,0,0,0,0,-1,1000,645,0,0
-217,379,0,0,0,0,0,0,0,0,0,-1,1007,645,0,0
-210,379,0,0,0,0,0,0,0,0,0,-1,1014,645,0,0
-203,379,0,0,0,0,0,0,0,0,0,-1,1021,645,0,0
-196,379,0,0,0,0,0,0,0,0,0,-1,1028,645,0,0
-189,379,0,0,0,0,0,0,0,0,0,-1,1035,645,0,0
-182,379,0,0,0,0,0,0,0,0,0,-1,1042,645,0,0
-175,379,0,0,0,0,0,0,0,0,0,-1,1049,645,0,0
-168,379,0,0,0,0,0,0,0,0,0,-1,1056,645,0,0
-161,379,0,0,0,0,0,0,0,0,0,-1,1063,645,0,0
-154,379,0,0,0,0,0,0,0,0,0,-1,1070,645,0,0
-147,379,0,0,0,0,0,0,0,0,0,-1,1077,645,0,0
-140,379,0,0,0,0,0,0,0,0,0,-1,1084,645,0,0
-133,379,0,0,0,0,0,0,0,0,0,-1,1091,645,0,0
-126,379,0,0,0,0,0,0,0,0,0,-1,1098,645,0,0
-119,379,0,0,0,0,0,0,0,0,0,-1,1105,645,0,0
-112,379,0,0,0,0,0,0,0,0,0,-1,1112,645,0,0
-105,379,0,0,0,0,0,0,0,0,0,-1,1119,645,0,0
-98,379,0,0,0,0,0,0,0,0,0,-1,1126,645,0,0
-91,379,0,0,0,0,0,0,0,0,0,-1,1133,645,0,0
-84,379,0,0,0,0,0,0,0,0,0,-1,1140,645,0,0
-77,379,0,0,0,0,0,0,0,0,0,-1,1147,645,0,0
-70,379,0,0,0,0,0,0,0,0,0,-1,1154,645,0,0
-63,379,0,0,0,0,0,0,0,0,0,-1,1161,645,0,0
-56,379,0,0,0,0,0,0,0,0,0,-1,1168,645,0,0
-49,379,0,0,0,0,0,0,0,0,0,-1,1175,645,0,0
-42,379,0,0,0,0,0,0,0,0,0,-1,1182,645,0,0
-35,379,0,0,0,0,0,0,0,0,0,-1,1189,645,0,0
-28,379,0,0,0,0,0,0,0,0,0,-1,1196,645,0,0
-21,379,0,0,0,0,0,0,0,0,0,-1,1203,645,0,0
-14,379,0,0,0,0,0,0,0,0,0,-1,1210,645,0,0
-7,379,0,0,0,0,0,0,0,0,0,-1,1217,645,0,0
0,379,0,0,0,0,0,0,0,0,0,-1,1224,645,0,0
7,379,0,0,0,0,0,0,0,0,0,-1,1231,645,0,0
14,379,0,0,0,0,0,0,0,0,0,-1,1238,645,0,0
21,379,0,0,0,0,0,0,0,0,0,-1,1245,645,0,0
28,379,0,0,0,0,0,0,0,0,0,-1,1252,645,0,0
35,379,0,0,0,0,0,0,0,0,0,-1,1259,645,0,0
42,379,0,0,0,0,0,0,0,0,0,-1,1266,645,0,0
49,379,0,0,0,0,0,0,0,0,0,-1,1273,645,0,0
56,379,0,0,0,0,0,0,0,0,0,-1,1280,645,0,0
63,379,0,0,0,0,0,0,0,0,0,-1,1287,645,0,0
70,379,0,0,0,0,0,0,0,0,0,-1,1294,645,0,0
77,379,0,0,0,0,0,0,0,0,0,-1,1301,645,0,0
84,379,0,0,0,0,0,0,0,0,0,-1,1308,645,0,0
91,379,0,0,0,0,0,0,0,0,0,-1,1315,645,0,0
98,379,0,0,0,0,0,0,0,0,0,-1,1322,645,0,0
105,379,0,0,0,0,0,0,0,0,0,-1,1329,645,0,0
112,379,0,0,0,0,0,0,0,0,0,-1,1336,645,0,0
119,379,0,0,0,0,0,0,0,0,0,-1,1343,645,0,0
126,379,0,0,0,0,0,0,0,0,0,-1,1350,645,0,0
133,379,0,0,0,0,0,0,0,0,0,-1,1357,645,0,0
140,379,0,0,0,0,0,0,0,0,0,-1,1364,645,0,0
147,379,0,0,0,0,0,0,0,0,0,-1,1371,645,0,0
154,379,0,0,0,0,0,0,0,0,0,-1,1378,645,0,0
161,379,0,0,0,0,0,0,0,0,0,-1,1385,645,0,0
168,379,0,0,0,0,0,0,0,0,0,-1,1392,645,0,0
175,379,0,0,0,0,0,0,0,0,0,-1,1399,645,0,0
182,379,0,0,0,0,0,0,0,0,0,-1,1406,645,0,0
189,379,0,0,0,0,0,0,0,0,0,-1,1413,645,0,0
196,379,0,0,0,0,0,0,0,0,0,-1,1420,645,0,0
203,379,0,0,0,0,0,0,0,0,0,-1,1427,645,0,0
210,379,0,0,0,0,0,0,0,0,0,-1,1434,645,0,0
217,379,0,0,0,0,0,0,0,0,0,-1,1441,645,0,0
224,379,0,0,0,0,0,0,0,0,0,-1,1448,645,0,0
231,379,0,0,0,0,0,0,0,0,0,-1,1455,645,0,0
238,379,0,0,0,0,0,0,0,0,0,-1,1462,645,0,0
245,379,0,0,0,0,0,0,0,0,0,-1,1469,645,0,0
252,379,0,0,0,0,0,0,0,0,0,-1,1476,645,0,0
259,379,0,0,0,0,0,0,0,0,0,-1,1483,645,0,0
266,379,0,0,0,0,0,0,0,0,0,-1,1490,645,0,0
273,379,0,0,0,0,0,0,0,0,0,-1,1497,645,0,0
280,379,0,0,0,0,0,0,0,0,0,-1,1504,645,0,0
287,379,0,0,0,0,0,0,0,0,0,-1,1511,645,0,0
294,379,0,0,0,0,0,0,0,0,0,-1,1518,645,0,0
301,379,0,0,0,0,0,0,0,0,0,-1,1525,645,0,0
308,379,0,0,0,0,0,0,0,0,0,-1,1532,645,0,0
315,379,0,0,0,0,0,0,0,0,0,-1,1539,645,0,0
322,379,0,0,0,0,0,0,0,0,0,-1,1546,645,0,0
329,379,0,0,0,0,0,0,0,0,0,-1,1553,645,0,0
336,379,0,0,0,0,0,0,0,0,0,-1,1560,645,0,0
343,379,0,0,0,0,0,0,0,0,0,-1,1567,645,0,0
350,379,0,0,0,0,0,0,0,0,0,-1,1574,645,0,0
357,379,0,0,0,0,0,0,0,0,0,-1,1581,645,0,0
364,379,0,0,0,0,0,0,0,0,0,-1,1588,645,0,0
371,379,0,0,0,0,0,0,0,0,0,-1,1595,645,0,0
378,379,0,0,0,0,0,0,0,0,0,-1,1602,645,0,0
385,379,0,0,0,0,0,0,0,0,0,-1,1609,645,0,0
392,379,0,0,0,0,0,0,0,0,0,-1,1616,645,0,0
399,379,0,0,0,0,0,0,0,0,0,-1,1623,645,0,0
406,379,0,0,0,0,0,0,0,0,0,-1,1630,645,0,0
413,379,0,0,0,0,0,0,0,0,0,-1,1637,645,0,0
420,379,0,0,0,0,0,0,0,0,0,-1,1644,645,0,0
427,379,0,0,0,0,0,0,0,0,0,-1,1651,645,0,0
434,379,0,0,0,0,0,0,0,0,0,-1,1658,645,0,0
441,379,0,0,0,0,0,0,0,0,0,-1,1665,645,0,0
448,379,0,0,0,0,0,0,0,0,0,-1,1672,645,0,0
455,379,0,0,0,0,0,0,0,0,0,-1,1679,645,0,0
462,379,0,0,0,0,0,0,0,0,0,-1,1686,645,0,0
469,379,0,0,0,0,0,0,0,0,0,-1,1693,645,0,0
476,379,4.97302,2.43231,0,0,0,0,0,0,0,-1,1700,645,4.97302,-2.43234
483,379,4.7749,2.0036,0,0,0,0,0,0,0,-1,1707,645,4.77491,-2.00363
490,379,5.2113,1.11011,0,0,0,0,0,0,0,-1,1714,645,5.21128,-1.11009
497,379,5.6825,1.21582,0.0288216,-0.0165353,-0.0371699,0.0496852,-0.037399,-0.511481,0.0504446,0.0473094,1721,645,5.68252,-1.2158
504,379,6.04248,1.3678,0.0245483,-0.0125456,-0.0410724,0.0510672,-0.0390645,-0.57332,0.0521911,0.046328,1728,645,6.04248,-1.36782
511,379,6.21777,1.50073,0.0175523,-0.0104712,-0.0415756,0.0474138,-0.0403327,-0.622866,0.0507154,0.04542,1735,645,6.2178,-1.50076
518,379,6.48132,1.15405,0.0107295,-0.00883388,-0.0393396,0.0414853,-0.0395897,-0.663546,0.0468129,0.0428243,1742,645,6.48134,-1.15406
525,379,6.79553,0.758179,0.0043259,-0.00762237,-0.0356466,0.0344955,-0.037792,-0.702373,0.0417497,0.0461583,1749,645,6.7955,-0.758188
532,379,5.42871,0.393188,0,0,0,0,0,0,0,-1,1756,645,5.42877,-0.393195
539,379,4.80237,-0.35376,-0.00517277,-0.00587384,-0.0265455,0.0210245,-0.0320711,-0.778796,0.0308751,0.0408178,1763,645,4.80242,0.353782
546,379,4.3656,-0.45697,-0.00763696,-0.00454693,-0.0224076,0.0163689,-0.0285527,-0.819819,0.0262516,0.0480697,1770,645,4.36562,0.456951
553,379,4.15051,-0.391602,-0.00928739,-0.0041891,-0.0181492,0.0115891,-0.0250656,-0.855169,0.0216342,0.04698,1777,645,4.1505,0.391608
560,379,4.37634,-0.40448,-0.00974736,-0.00378595,-0.0142352,0.00777729,-0.0213106,-0.888602,0.0173892,0.0294495,1784,645,4.37633,0.404462
567,379,4.35071,-0.362122,-0.00975723,-0.00321679,-0.0103558,0.00437289,-0.0173469,-0.938336,0.0132647,0.0166149,1791,645,4.35077,0.362131
574,379,4.40771,-0.310242,-0.009076,-0.00255543,-0.00695832,0.00186853,-0.0135,-1.00448,0.0096831,0.0122058,1798,645,4.40768,0.31022
581,379,4.39868,-0.251953,-0.00778317,-0.00190297,-0.00459191,0.000609438,-0.0102956,-1.07015,0.00707562,0.0144752,1805,645,4.39867,0.251958
588,379,4.40125,-0.161743,-0.00594212,-0.00109162,-0.00286069,0.000233519,-0.00726725,-1.137,0.00492452,0.0168068,1812,645,4.40122,0.161731
595,379,4.40063,-0.0826416,-0.00386997,-0.000643637,-0.00178462,0.000148852,-0.00466246,-1.15289,0.00315909,0.0136463,1819,645,4.40058,0.0826284
602,379,4.3938,-0.0258179,-0.00200186,-0.000122473,-0.00123314,0.000488203,-0.00261254,-1.11098,0.00192517,0.0131242,1826,645,4.39385,0.0258021
609,379,4.38086,0.0391235,-0.00165387,0.000211655,-0.000682363,0.000434602,-0.00187682,-1.255,0.00141845,0.0133578,1833,645,4.38089,-0.0391435
616,379,4.36975,0.12384,-0.00154277,0.00051408,-0.000259116,0.000546221,-0.00157491,-1.44739,0.00127173,0.0112055,1840,645,4.36972,-0.123836
623,379,4.38208,0.206543,-0.000644472,0.00171925,0.000316635,0.00176093,-0.000686152,1.43991,0.00145754,0.010378,1847,645,4.38209,-0.20655
630,379,4.3905,0.263977,-0.00023597,0.00272622,0.00089696,0.00297665,-0.0004864,1.29853,0.00216486,0.0116064,1854,645,4.39045,-0.26396
637,379,4.4021,0.337036,0.000489291,0.00412773,0.00161646,0.00474213,-0.000125111,1.20757,0.00320394,0.0123521,1861,645,4.40206,-0.337048
644,379,4.39233,0.441345,0.00184855,0.0059088,0.00252423,0.00711798,0.000639363,1.12406,0.00454721,0.0190935,1868,645,4.39235,-0.441374
651,379,4.4375,0.369324,0.00449057,0.00822507,0.0041094,0.0108716,0.00184408,0.998645,0.00671791,0.0414338,1875,645,4.43747,-0.36932
658,379,4.57666,0.279236,0.00882712,0.0112365,0.00652882,0.0166708,0.00339276,0.87663,0.0101733,0.0491588,1882,645,4.57661,-0.279225
665,379,4.76672,0.319336,0,0,0,0,0,0,0,-1,1889,645,4.76674,-0.31936
672,379,4.3092,1.83252,0,0,0,0,0,0,0,-1,1896,645,4.30921,-1.83252
679,379,4.51611,2.47083,0,0,0,0,0,0,0,-1,1903,645,4.51611,-2.47082
686,379,0,0,0,0,0,0,0,0,0,-1,1910,645,0,0
693,379,0,0,0,0,0,0,0,0,0,-1,1917,645,0,0
700,379,0,0,0,0,0,0,0,0,0,-1,1924,645,0,0
707,379,0,0,0,0,0,0,0,0,0,-1,1931,645,0,0
714,379,0,0,0,0,0,0,0,0,0,-1,1938,645,0,0
721,379,0,0,0,0,0,0,0,0,0,-1,1945,645,0,0
728,379,0,0,0,0,0,0,0,0,0,-1,1952,645,0,0
735,379,0,0,0,0,0,0,0,0,0,-1,1959,645,0,0
742,379,0,0,0,0,0,0,0,0,0,-1,1966,645,0,0
749,379,0,0,0,0,0,0,0,0,0,-1,1973,645,0,0
756,379,0,0,0,0,0,0,0,0,0,-1,1980,645,0,0
763,379,0,0,0,0,0,0,0,0,0,-1,1987,645,0,0
770,379,0,0,0,0,0,0,0,0,0,-1,1994,645,0,0
777,379,0,0,0,0,0,0,0,0,0,-1,2001,645,0,0
784,379,0,0,0,0,0,0,0,0,0,-1,2008,645,0,0
791,379,0,0,0,0,0,0,0,0,0,-1,2015,645,0,0
798,379,0,0,0,0,0,0,0,0,0,-1,2022,645,0,0
805,379,0,0,0,0,0,0,0,0,0,-1,2029,645,0,0
812,379,0,0,0,0,0,0,0,0,0,-1,2036,645,0,0
-700,372,0,0,0,0,0,0,0,0,0,-1,524,652,0,0
-693,372,0,0,0,0,0,0,0,0,0,-1,531,652,0,0
-686,372,0,0,0,0,0,0,0,0,0,-1,538,652,0,0
-679,372,0,0,0,0,0,0,0,0,0,-1,545,652,0,0
-672,372,0,0,0,0,0,0,0,0,0,-1,552,652,0,0
-665,372,0,0,0,0,0,0,0,0,0,-1,559,652,0,0
-658,372,0,0,0,0,0,0,0,0,0,-1,566,652,0,0
-651,372,0,0,0,0,0,0,0,0,0,-1,573,652,0,0
-644,372,0,0,0,0,0,0,0,0,0,-1,580,652,0,0
-637,372,0,0,0,0,0,0,0,0,0,-1,587,652,0,0
-630,372,0,0,0,0,0,0,0,0,0,-1,594,652,0,0
-623,372,0,0,0,0,0,0,0,0,0,-1,601,652,0,0
-616,372,0,0,0,0,0,0,0,0,0,-1,608,652,0,0
-609,372,0,0,0,0,0,0,0,0,0,-1,615,652,0,0
-602,372,0,0,0,0,0,0,0,0,0,-1,622,652,0,0
-595,372,0,0,0,0,0,0,0,0,0,-1,629,652,0,0
-588,372,0,0,0,0,0,0,0,0,0,-1,636,652,0,0
-581,372,0,0,0,0,0,0,0,0,0,-1,643,652,0,0
-574,372,0,0,0,0,0,0,0,0,0,-1,650,652,0,0
-567,372,-0.908508,4.8327,0,0,0,0,0,0,0,-1,657,652,-0.908482,-4.83269
-560,372,-0.852051,3.76331,0.012731,0.0323803,-0.0609178,0.0842607,-0.0391493,-0.865349,0.0728203,0.0481606,664,652,-0.85205,-3.76333
-553,372,-0.702576,2.46552,0.0103469,0.0244293,-0.0481963,0.066096,-0.0313199,-0.857932,0.0574252,0.049787,671,652,-0.702565,-2.46551
-546,372,-0.377014,1.16333,0,0,0,0,0,0,0,-1,678,652,-0.377017,-1.16331
-539,372,-0.306946,0.478821,0,0,0,0,0,0,0,-1,685,652,-0.306916,-0.478812
-532,372,-0.597656,0.309631,0,0,0,0,0,0,0,-1,692,652,-0.597683,-0.309657
-525,372,-0.40741,0.264893,0.00442985,0.00526166,-0.0140558,0.0189077,-0.0092162,-0.800189,0.0165556,0.043382,699,652,-0.407435,-0.264864
-518,372,-0.223083,0.169983,0.00362505,0.00251707,-0.00920868,0.0122964,-0.00615427,-0.755354,0.0108475,0.0258184,706,652,-0.22311,-0.169959
-511,372,-0.219482,0.0588379,0.00294291,0.000576921,-0.00532917,0.0072188,-0.00369897,-0.676177,0.00641165,0.0121673,713,652,-0.219484,-0.0588085
-504,372,-0.221619,-0.00708008,0.00207872,-0.00106531,-0.00139395,0.00260773,-0.00159433,-0.362718,0.00244947,0.010116,720,652,-0.221621,0.00707754
-497,372,-0.216064,-0.1026,0.00147255,-0.00164529,0.000609747,0.00158755,-0.0017603,0.18642,0.00193374,0.0107515,727,652,-0.21607,0.102624
-490,372,-0.218567,-0.152588,0.00154383,-0.00168571,0.000579401,0.00164463,-0.00178652,0.172252,0.00198154,0.0110279,734,652,-0.218594,0.152602
-483,372,-0.220337,-0.20575,0.00156743,-0.00167357,0.000484821,0.0016384,-0.00174454,0.145352,0.00195346,0.011236,741,652,-0.220326,0.205749
-476,372,-0.215759,-0.257202,0.0014465,-0.0020269,0.000795137,0.00161987,-0.00220027,0.214679,0.00221403,0.0126335,748,652,-0.215767,0.257218
-469,372,-0.216187,-0.327148,0.0011825,-0.00240567,0.00123321,0.00156546,-0.00278863,0.301101,0.00254669,0.0106125,755,652,-0.216169,0.327173
-462,372,-0.214722,-0.426575,0.000959948,-0.00335846,0.00143118,0.00139119,-0.00378971,0.292669,0.0030962,0.00965298,762,652,-0.214748,0.426554
-455,372,-0.224487,-0.489502,0.000908306,-0.0042012,0.00173901,0.00144401,-0.0047369,0.298826,0.00373354,0.0097912,769,652,-0.224515,0.489497
-448,372,-0.220642,-0.548828,0.000886995,-0.00452305,0.00195325,0.00151849,-0.00515454,0.312697,0.00403882,0.00941894,776,652,-0.220652,0.548805
-441,372,-0.181458,-0.647461,0.00079219,-0.00359881,0.00184589,0.00146506,-0.00427167,0.349553,0.00344169,0.014908,783,652,-0.181478,0.64749
-434,372,-0.191223,-0.552734,0.000453615,-0.00223387,0.00157668,0.00118148,-0.00296174,0.432495,0.00246459,0.0279851,790,652,-0.191227,0.55276
-427,372,-0.171387,-0.38855,-0.000578383,0.000942419,0.000833341,0.00131014,-0.000946107,1.15523,0.00130829,0.0405514,797,652,-0.171375,0.388533
-420,372,-0.214172,-0.152588,-0.00168008,0.00552313,0.000361324,0.00554121,-0.00169816,1.5208,0.00437155,0.0437378,804,652,-0.214157,0.152585
-413,372,0.448242,0.560669,0,0,0,0,0,0,0,-1,811,652,0.448261,-0.560693
-406,372,-0.885437,-0.583923,0,0,0,0,0,0,0,-1,818,652,-0.885437,0.5839
-399,372,-1.83783,-1.78491,0,0,0,0,0,0,0,-1,825,652,-1.83783,1.78492
-392,372,-0.857422,-0.0527344,0,0,0,0,0,0,0,-1,832,652,-0.857433,0.0527321
-385,372,-3.75891,0.635803,0,0,0,0,0,0,0,-1,839,652,-3.75891,-0.635786
-378,372,-3.8941,0.686523,0,0,0,0,0,0,0,-1,846,652,-3.89409,-0.686508
-371,372,-3.8764,0.855408,0,0,0,0,0,0,0,-1,853,652,-3.87642,-0.855434
-364,372,0,0,0,0,0,0,0,0,0,-1,860,652,0,0
-357,372,0,0,0,0,0,0,0,0,0,-1,867,652,0,0
-350,372,0,0,0,0,0,0,0,0,0,-1,874,652,0,0
-343,372,0,0,0,0,0,0,0,0,0,-1,881,652,0,0
-336,372,0,0,0,0,0,0,0,0,0,-1,888,652,0,0
-329,372,0,0,0,0,0,0,0,0,0,-1,895,652,0,0
-322,372,0,0,0,0,0,0,0,0,0,-1,902,652,0,0
-315,372,0,0,0,0,0,0,0,0,0,-1,909,652,0,0
-308,372,0,0,0,0,0,0,0,0,0,-1,916,652,0,0
-301,372,0,0,0,0,0,0,0,0,0,-1,923,652,0,0
-294,372,0,0,0,0,0,0,0,0,0,-1,930,652,0,0
-287,372,0,0,0,0,0,0,0,0,0,-1,937,652,0,0
-280,372,0,0,0,0,0,0,0,0,0,-1,944,652,0,0
-273,372,0,0,0,0,0,0,0,0,0,-1,951,652,0,0
-266,372,0,0,0,0,0,0,0,0,0,-1,958,652,0,0
-259,372,0,0,0,0,0,0,0,0,0,-1,965,652,0,0
-252,372,0,0,0,0,0,0,0,0,0,-1,972,652,0,0
-245,372,0,0,0,0,0,0,0,0,0,-1,979,652,0,0
-238,372,0,0,0,0,0,0,0,0,0,-1,986,652,0,0
-231,372,0,0,0,0,0,0,0,0,0,-1,993,652,0,0
-224,372,0,0,0,0,0,0,0,0,0,-1,1000,652,0,0
-217,372,0,0,0,0,0,0,0,0,0,-1,1007,652,0,0
-210,372,0,0,0,0,0,0,0,0,0,-1,1014,652,0,0
-203,372,0,0,0,0,0,0,0,0,0,-1,1021,652,0,0
-196,372,0,0,0,0,0,0,0,0,0,-1,1028,652,0,0
-189,372,0,0,0,0,0,0,0,0,0,-1,1035,652,0,0
-182,372,0,0,0,0,0,0,0,0,0,-1,1042,652,0,0
-175,372,0,0,0,0,0,0,0,0,0,-1,1049,652,0,0
-168,372,0,0,0,0,0,0,0,0,0,-1,1056,652,0,0
-161,372,0,0,0,0,0,0,0,0,0,-1,1063,652,0,0
-154,372,0,0,0,0,0,0,0,0,0,-1,1070,652,0,0
-147,372,0,0,0,0,0,0,0,0,0,-1,1077,652,0,0
-140,372,0,0,0,0,0,0,0,0,0,-1,1084,652,0,0
-133,372,0,0,0,0,0,0,0,0,0,-1,1091,652,0,0
-126,372,0,0,0,0,0,0,0,0,0,-1,1098,652,0,0
-119,372,0,0,0,0,0,0,0,0,0,-1,1105,652,0,0
-112,372,0,0,0,0,0,0,0,0,0,-1,1112,652,0,0
-105,372,0,0,0,0,0,0,0,0,0,-1,1119,652,0,0
-98,372,0,0,0,0,0,0,0,0,0,-1,1126,652,0,0
-91,372,0,0,0,0,0,0,0,0,0,-1,1133,652,0,0
-84,372,0,0,0,0,0,0,0,0,0,-1,1140,652,0,0
-77,372,0,0,0,0,0,0,0,0,0,-1,1147,652,0,0
-70,372,0,0,0,0,0,0,0,0,0,-1,1154,652,0,0
-63,372,0,0,0,0,0,0,0,0,0,-1,1161,652,0,0
-56,372,0,0,0,0,0,0,0,0,0,-1,1168,652,0,0
-49,372,0,0,0,0,0,0,0,0,0,-1,1175,652,0,0
-42,372,0,0,0,0,0,0,0,0,0,-1,1182,652,0,0
-35,372,0,0,0,0,0,0,0,0,0,-1,1189,652,0,0
-28,372,0,0,0,0,0,0,0,0,0,-1,1196,652,0,0
-21,372,0,0,0,0,0,0,0,0,0,-1,1203,652,0,0
-14,372,0,0,0,0,0,0,0,0,0,-1,1210,652,0,0
-7,372,0,0,0,0,0,0,0,0,0,-1,1217,652,0,0
0,372,0,0,0,0,0,0,0,0,0,-1,1224,652,0,0
7,372,0,0,0,0,0,0,0,0,0,-1,1231,652,0,0
14,372,0,0,0,0,0,0,0,0,0,-1,1238,652,0,0
21,372,0,0,0,0,0,0,0,0,0,-1,1245,652,0,0
28,372,0,0,0,0,0,0,0,0,0,-1,1252,652,0,0
35,372,0,0,0,0,0,0,0,0,0,-1,1259,652,0,0
42,372,0,0,0,0,0,0,0,0,0,-1,1266,652,0,0
49,372,0,0,0,0,0,0,0,0,0,-1,1273,652,0,0
56,372,0,0,0,0,0,0,0,0,0,-1,1280,652,0,0
63,372,0,0,0,0,0,0,0,0,0,-1,1287,652,0,0
70,372,0,0,0,0,0,0,0,0,0,-1,1294,652,0,0
77,372,0,0,0,0,0,0,0,0,0,-1,1301,652,0,0
84,372,0,0,0,0,0,0,0,0,0,-1,1308,652,0,0
91,372,0,0,0,0,0,0,0,0,0,-1,1315,652,0,0
98,372,0,0,0,0,0,0,0,0,0,-1,1322,652,0,0
105,372,0,0,0,0,0,0,0,0,0,-1,1329,652,0,0
112,372,0,0,0,0,0,0,0,0,0,-1,1336,652,0,0
119,372,0,0,0,0,0,0,0,0,0,-1,1343,652,0,0
126,372,0,0,0,0,0,0,0,0,0,-1,1350,652,0,0
133,372,0,0,0,0,0,0,0,0,0,-1,1357,652,0,0
140,372,0,0,0,0,0,0,0,0,0,-1,1364,652,0,0
147,372,0,0,0,0,0,0,0,0,0,-1,1371,652,0,0
154,372,0,0,0,0,0,0,0,0,0,-1,1378,652,0,0
161,372,0,0,0,0,0,0,0,0,0,-1,1385,652,0,0
168,372,0,0,0,0,0,0,0,0,0,-1,1392,652,0,0
175,372,0,0,0,0,0,0,0,0,0,-1,1399,652,0,0
182,372,0,0,0,0,0,0,0,0,0,-1,1406,652,0,0
189,372,0,0,0,0,0,0,0,0,0,-1,1413,652,0,0
196,372,0,0,0,0,0,0,0,0,0,-1,1420,652,0,0
203,372,0,0,0,0,0,0,0,0,0,-1,1427,652,0,0
210,372,0,0,0,0,0,0,0,0,0,-1,1434,652,0,0
217,372,0,0,0,0,0,0,0,0,0,-1,1441,652,0,0
224,372,0,0,0,0,0,0,0,0,0,-1,1448,652,0,0
231,372,0,0,0,0,0,0,0,0,0,-1,1455,652,0,0
238,372,0,0,0,0,0,0,0,0,0,-1,1462,652,0,0
245,372,0,0,0,0,0,0,0,0,0,-1,1469,652,0,0
252,372,0,0,0,0,0,0,0,0,0,-1,1476,652,0,0
259,372,0,0,0,0,0,0,0,0,0,-1,1483,652,0,0
266,372,0,0,0,0,0,0,0,0,0,-1,1490,652,0,0
273,372,0,0,0,0,0,0,0,0,0,-1,1497,652,0,0
280,372,0,0,0,0,0,0,0,0,0,-1,1504,652,0,0
287,372,0,0,0,0,0,0,0,0,0,-1,1511,652,0,0
294,372,0,0,0,0,0,0,0,0,0,-1,1518,652,0,0
301,372,0,0,0,0,0,0,0,0,0,-1,1525,652,0,0
308,372,0,0,0,0,0,0,0,0,0,-1,1532,652,0,0
315,372,0,0,0,0,0,0,0,0,0,-1,1539,652,0,0
322,372,0,0,0,0,0,0,0,0,0,-1,1546,652,0,0
329,372,0,0,0,0,0,0,0,0,0,-1,1553,652,0,0
336,372,0,0,0,0,0,0,0,0,0,-1,1560,652,0,0
343,372,0,0,0,0,0,0,0,0,0,-1,1567,652,0,0
350,372,0,0,0,0,0,0,0,0,0,-1,1574,652,0,0
357,372,0,0,0,0,0,0,0,0,0,-1,1581,652,0,0
364,372,0,0,0,0,0,0,0,0,0,-1,1588,652,0,0
371,372,0,0,0,0,0,0,0,0,0,-1,1595,652,0,0
378,372,0,0,0,0,0,0,0,0,0,-1,1602,652,0,0
385,372,0,0,0,0,0,0,0,0,0,-1,1609,652,0,0
392,372,0,0,0,0,0,0,0,0,0,-1,1616,652,0,0
399,372,0,0,0,0,0,0,0,0,0,-1,1623,652,0,0
406,372,0,0,0,0,0,0,0,0,0,-1,1630,652,0,0
413,372,0,0,0,0,0,0,0,0,0,-1,1637,652,0,0
420,372,0,0,0,0,0,0,0,0,0,-1,1644,652,0,0
427,372,0,0,0,0,0,0,0,0,0,-1,1651,652,0,0
434,372,0,0,0,0,0,0,0,0,0,-1,1658,652,0,0
441,372,0,0,0,0,0,0,0,0,0,-1,1665,652,0,0
448,372,0,0,0,0,0,0,0,0,0,-1,1672,652,0,0
455,372,0,0,0,0,0,0,0,0,0,-1,1679,652,0,0
462,372,0,0,0,0,0,0,0,0,0,-1,1686,652,0,0
469,372,0,0,0,0,0,0,0,0,0,-1,1693,652,0,0
476,372,0,0,0,0,0,0,0,0,0,-1,1700,652,0,0
483,372,7.17102,0.394653,0,0,0,0,0,0,0,-1,1707,652,7.17102,-0.394664
490,372,6.99146,0.605347,0.0183184,-0.0294781,-0.0326833,0.0349087,-0.0460684,-0.469715,0.0468999,0.0469905,1714,652,6.99143,-0.605352
497,372,6.80005,0.797302,0.0245917,-0.0187824,-0.0414114,0.0496511,-0.0438418,-0.544185,0.0540129,0.0432093,1721,652,6.80006,-0.797309
504,372,6.67273,1.24438,0.0208025,-0.0128802,-0.0450769,0.0520814,-0.044159,-0.606621,0.0556272,0.0479909,1728,652,6.6727,-1.24441
511,372,6.63391,1.53528,0.0136534,-0.00940095,-0.045116,0.0486915,-0.0444391,-0.660324,0.0537876,0.0479004,1735,652,6.63394,-1.53531
518,372,6.8811,1.09491,0.00632499,-0.00694286,-0.042323,0.0425308,-0.0431487,-0.707658,0.0494675,0.0438274,1742,652,6.88106,-1.0949
525,372,7.30652,0.705322,-0.000729342,-0.00542914,-0.0381483,0.0351414,-0.0412999,-0.754637,0.0441811,0.0461072,1749,652,7.30657,-0.705306
532,372,5.69629,0.364502,0,0,0,0,0,0,0,-1,1756,652,5.69634,-0.364482
539,372,4.93188,-0.595398,0,0,0,0,0,0,0,-1,1763,652,4.93185,0.595388
546,372,4.16736,-1.55524,0,0,0,0,0,0,0,-1,1770,652,4.16737,1.55526
553,372,4.20007,-0.354004,0,0,0,0,0,0,0,-1,1777,652,4.2001,0.353998
560,372,4.38428,-0.517761,-0.0152786,-0.00323821,-0.0157352,0.00758914,-0.0261059,-0.968104,0.0204095,0.0337173,1784,652,4.38424,0.517734
567,372,4.43884,-0.406616,-0.0148537,-0.00308943,-0.0118113,0.00422339,-0.0221665,-1.01642,0.0163681,0.0167359,1791,652,4.43887,0.406587
574,372,4.49268,-0.310181,-0.0136612,-0.00276531,-0.00833019,0.00174026,-0.0181667,-1.07499,0.0127309,0.012575,1798,652,4.49269,0.310164
581,372,4.46777,-0.251038,-0.0117665,-0.00232583,-0.00583035,0.000455474,-0.0145478,-1.12569,0.00985386,0.0143968,1805,652,4.46775,0.251014
588,372,4.47266,-0.167542,-0.00905834,-0.00194214,-0.00391685,-0.00020857,-0.0107919,-1.15412,0.0071261,0.015481,1812,652,4.47266,0.167555
595,372,4.49036,-0.0925293,-0.00601768,-0.00152624,-0.00260973,-0.000329009,-0.00721491,-1.14068,0.00470411,0.0133367,1819,652,4.4904,0.0925292
602,372,4.47644,-0.0265503,-0.00324038,-0.000797611,-0.00182054,0.000173293,-0.00421128,-1.08086,0.00286703,0.0129948,1826,652,4.47646,0.0265624
609,372,4.45154,0.0527344,-0.00227867,-0.000283841,-0.00119573,0.000275857,-0.00283837,-1.13301,0.00199058,0.012549,1833,652,4.45152,-0.0527474
616,372,4.45618,0.125061,-0.00178509,0.000122577,-0.000682407,0.000341551,-0.00200407,-1.26029,0.00146324,0.0121714,1840,652,4.45614,-0.125033
623,372,4.46411,0.195007,-0.000727426,0.0012859,5.39804e-06,0.00128591,-0.000727441,1.56812,0.00117722,0.0111188,1847,652,4.46414,-0.194987
630,372,4.46069,0.265747,-0.000147912,0.00222019,0.000672448,0.00239781,-0.000325538,1.31255,0.00171737,0.016194,1854,652,4.46065,-0.26576
637,372,4.47827,0.341003,0.000525183,0.00348271,0.00137184,0.00402104,-1.315e-05,1.19684,0.00268509,0.0195509,1861,652,4.47827,-0.341023
644,372,4.49939,0.438232,0.00157666,0.00486414,0.00216395,0.00593785,0.000502941,1.11021,0.00380203,0.0154624,1868,652,4.4994,-0.438263
651,372,4.5249,0.559814,0.00371921,0.00654215,0.00362929,0.00902478,0.00123658,0.970853,0.00564962,0.0322405,1875,652,4.52487,-0.559796
658,372,4.70581,0.430298,0,0,0,0,0,0,0,-1,1882,652,4.70585,-0.430292
665,372,4.1925,0.797791,0.0121708,0.0120218,0.00861977,0.0207164,0.00347622,0.781078,0.0128104,0.0492782,1889,652,4.19248,-0.797763
672,372,4.57996,1.38873,0.0191192,0.0157292,0.0123269,0.0298672,0.00498129,0.717074,0.0184762,0.0484931,1896,652,4.5799,-1.38874
679,372,4.71252,1.9588,0,0,0,0,0,0,0,-1,1903,652,4.71258,-1.95881
686,372,4.83081,2.64319,0,0,0,0,0,0,0,-1,1910,652,4.83081,-2.64319
693,372,0,0,0,0,0,0,0,0,0,-1,1917,652,0,0
700,372,0,0,0,0,0,0,0,0,0,-1,1924,652,0,0
707,372,0,0,0,0,0,0,0,0,0,-1,1931,652,0,0
714,372,0,0,0,0,0,0,0,0,0,-1,1938,652,0,0
721,372,0,0,0,0,0,0,0,0,0,-1,1945,652,0,0
728,372,0,0,0,0,0,0,0,0,0,-1,1952,652,0,0
735,372,0,0,0,0,0,0,0,0,0,-1,1959,652,0,0
742,372,0,0,0,0,0,0,0,0,0,-1,1966,652,0,0
749,372,0,0,0,0,0,0,0,0,0,-1,1973,652,0,0
756,372,0,0,0,0,0,0,0,0,0,-1,1980,652,0,0
763,372,0,0,0,0,0,0,0,0,0,-1,1987,652,0,0
770,372,0,0,0,0,0,0,0,0,0,-1,1994,652,0,0
777,372,0,0,0,0,0,0,0,0,0,-1,2001,652,0,0
784,372,0,0,0,0,0,0,0,0,0,-1,2008,652,0,0
791,372,0,0,0,0,0,0,0,0,0,-1,2015,652,0,0
798,372,0,0,0,0,0,0,0,0,0,-1,2022,652,0,0
805,372,0,0,0,0,0,0,0,0,0,-1,2029,652,0,0
812,372,0,0,0,0,0,0,0,0,0,-1,2036,652,0,0
-700,365,0,0,0,0,0,0,0,0,0,-1,524,659,0,0
-693,365,0,0,0,0,0,0,0,0,0,-1,531,659,0,0
-686,365,0,0,0,0,0,0,0,0,0,-1,538,659,0,0
-679,365,0,0,0,0,0,0,0,0,0,-1,545,659,0,0
-672,365,0,0,0,0,0,0,0,0,0,-1,552,659,0,0
-665,365,0,0,0,0,0,0,0,0,0,-1,559,659,0,0
-658,365,0,0,0,0,0,0,0,0,0,-1,566,659,0,0
-651,365,0,0,0,0,0,0,0,0,0,-1,573,659,0,0
-644,365,0,0,0,0,0,0,0,0,0,-1,580,659,0,0
-637,365,0,0,0,0,0,0,0,0,0,-1,587,659,0,0
-630,365,0,0,0,0,0,0,0,0,0,-1,594,659,0,0
-623,365,0,0,0,0,0,0,0,0,0,-1,601,659,0,0
-616,365,0,0,0,0,0,0,0,0,0,-1,608,659,0,0
-609,365,0,0,0,0,0,0,0,0,0,-1,615,659,0,0
-602,365,0,0,0,0,0,0,0,0,0,-1,622,659,0,0
-595,365,0,0,0,0,0,0,0,0,0,-1,629,659,0,0
-588,365,0,0,0,0,0,0,0,0,0,-1,636,659,0,0
-581,365,0,0,0,0,0,0,0,0,0,-1,643,659,0,0
-574,365,-0.138977,6.09845,0.0159618,0.0518892,-0.0806437,0.116546,-0.0486947,-0.894986,0.0980459,0.0458309,650,659,-0.139003,-6.09844
-567,365,-0.255737,4.86255,0.0128426,0.0427435,-0.0686269,0.0980295,-0.0424435,-0.892648,0.0831917,0.0456394,657,659,-0.255729,-4.86256
-560,365,-0.351685,3.53613,0.0103827,0.0342717,-0.05661,0.0801836,-0.0355292,-0.889371,0.0684449,0.049422,664,659,-0.351697,-3.5361
-553,365,-0.351563,2.39282,0,0,0,0,0,0,0,-1,671,659,-0.351535,-2.39285
-546,365,0.0612183,0.5047,0,0,0,0,0,0,0,-1,678,659,0.0612205,-0.504691
-539,365,0.0750732,0.759644,0,0,0,0,0,0,0,-1,685,659,0.0750474,-0.759661
-532,365,-0.58252,0.15271,0,0,0,0,0,0,0,-1,692,659,-0.582546,-0.152691
-525,365,-0.396301,0.17688,0.00326418,0.00732988,-0.0139485,0.0193929,-0.00879885,-0.857759,0.0166552,0.0343964,699,659,-0.396316,-0.176879
-518,365,-0.255432,0.129456,0.00264742,0.00429782,-0.00929555,0.0128047,-0.00585949,-0.829669,0.0110217,0.0189487,706,659,-0.255403,-0.129468
-511,365,-0.291931,0.0424194,0.00215524,0.00199214,-0.00549101,0.0075653,-0.00341792,-0.777973,0.00649012,0.0157792,713,659,-0.291947,-0.0423975
-504,365,-0.291565,-0.0199585,0.00148532,-7.72748e-05,-0.00167702,0.00255411,-0.00114606,-0.567406,0.00218724,0.01198,720,659,-0.291541,0.0199614
-497,365,-0.301758,-0.0915527,0.00106768,-0.000964848,0.000282524,0.00110622,-0.00100339,0.135578,0.00121847,0.0119464,727,659,-0.301743,0.0915817
-490,365,-0.29248,-0.1521,0.00127885,-0.00139832,0.000356089,0.0013254,-0.00144488,0.129999,0.00159992,0.0123075,734,659,-0.292509,0.152111
-483,365,-0.288513,-0.226257,0.00142827,-0.00167872,0.000335951,0.00146418,-0.00171463,0.106488,0.00183719,0.011885,741,659,-0.288488,0.226229
-476,365,-0.286499,-0.281738,0.00144947,-0.00220748,0.000547231,0.0015296,-0.00228761,0.1454,0.0022183,0.0125835,748,659,-0.286526,0.28175
-469,365,-0.286987,-0.347168,0.00128356,-0.00262366,0.000797112,0.00143992,-0.00278002,0.1937,0.002477,0.0120797,755,659,-0.286958,0.347153
-462,365,-0.276245,-0.418457,0.0011469,-0.00353338,0.000788761,0.00127625,-0.00366274,0.162549,0.00296041,0.0129947,762,659,-0.276225,0.418485
-455,365,-0.285706,-0.478699,0.00110631,-0.00425275,0.00077128,0.00121511,-0.00436154,0.140133,0.0033862,0.0138513,769,659,-0.285695,0.47871
-448,365,-0.277466,-0.577209,0.00103053,-0.00437854,0.000567899,0.00108951,-0.00443752,0.103487,0.00338056,0.0116404,776,659,-0.277492,0.57722
-441,365,-0.320251,-0.602722,0.000819777,-0.00320667,-4.3992e-05,0.000820258,-0.00320715,-0.010924,0.00245758,0.0223411,783,659,-0.320226,0.602699
-434,365,-0.341797,-0.491821,0.000283648,-0.00138153,-0.000966828,0.000726974,-0.00182486,-0.429931,0.00151807,0.0340038,790,659,-0.341815,0.491823
-427,365,-0.164307,-0.232605,0,0,0,0,0,0,0,-1,797,659,-0.164315,0.232583
-420,365,-0.449097,-0.0547485,0,0,0,0,0,0,0,-1,804,659,-0.449104,0.0547246
-413,365,-1.26013,0.567688,0,0,0,0,0,0,0,-1,811,659,-1.26011,-0.567694
-406,365,-2.01263,0.311829,0,0,0,0,0,0,0,-1,818,659,-2.01265,-0.311823
-399,365,-2.58185,0.522034,0,0,0,0,0,0,0,-1,825,659,-2.58184,-0.522017
-392,365,-0.70929,-0.330078,0,0,0,0,0,0,0,-1,832,659,-0.709269,0.330048
-385,365,-1.67584,-0.403625,0,0,0,0,0,0,0,-1,839,659,-1.67584,0.403641
-378,365,-4.64185,-0.173157,0,0,0,0,0,0,0,-1,846,659,-4.64182,0.173144
-371,365,0,0,0,0,0,0,0,0,0,-1,853,659,0,0
-364,365,0,0,0,0,0,0,0,0,0,-1,860,659,0,0
-357,365,0,0,0,0,0,0,0,0,0,-1,867,659,0,0
-350,365,0,0,0,0,0,0,0,0,0,-1,874,659,0,0
-343,365,0,0,0,0,0,0,0,0,0,-1,881,659,0,0
-336,365,0,0,0,0,0,0,0,0,0,-1,888,659,0,0
-329,365,0,0,0,0,0,0,0,0,0,-1,895,659,0,0
-322,365,0,0,0,0,0,0,0,0,0,-1,902,659,0,0
-315,365,0,0,0,0,0,0,0,0,0,-1,909,659,0,0
-308,365,0,0,0,0,0,0,0,0,0,-1,916,659,0,0
-301,365,0,0,0,0,0,0,0,0,0,-1,923,659,0,0
-294,365,0,0,0,0,0,0,0,0,0,-1,930,659,0,0
-287,365,0,0,0,0,0,0,0,0,0,-1,937,659,0,0
-280,365,0,0,0,0,0,0,0,0,0,-1,944,659,0,0
-273,365,0,0,0,0,0,0,0,0,0,-1,951,659,0,0
-266,365,0,0,0,0,0,0,0,0,0,-1,958,659,0,0
-259,365,0,0,0,0,0,0,0,0,0,-1,965,659,0,0
-252,365,0,0,0,0,0,0,0,0,0,-1,972,659,0,0
-245,365,0,0,0,0,0,0,0,0,0,-1,979,659,0,0
-238,365,0,0,0,0,0,0,0,0,0,-1,986,659,0,0
-231,365,0,0,0,0,0,0,0,0,0,-1,993,659,0,0
-224,365,0,0,0,0,0,0,0,0,0,-1,1000,659,0,0
-217,365,0,0,0,0,0,0,0,0,0,-1,1007,659,0,0
-210,365,0,0,0,0,0,0,0,0,0,-1,1014,659,0,0
-203,365,0,0,0,0,0,0,0,0,0,-1,1021,659,0,0
-196,365,0,0,0,0,0,0,0,0,0,-1,1028,659,0,0
-189,365,0,0,0,0,0,0,0,0,0,-1,1035,659,0,0
-182,365,0,0,0,0,0,0,0,0,0,-1,1042,659,0,0
-175,365,0,0,0,0,0,0,0,0,0,-1,1049,659,0,0
-168,365,0,0,0,0,0,0,0,0,0,-1,1056,659,0,0
-161,365,0,0,0,0,0,0,0,0,0,-1,1063,659,0,0
-154,365,0,0,0,0,0,0,0,0,0,-1,1070,659,0,0
-147,365,0,0,0,0,0,0,0,0,0,-1,1077,659,0,0
-140,365,0,0,0,0,0,0,0,0,0,-1,1084,659,0,0
-133,365,0,0,0,0,0,0,0,0,0,-1,1091,659,0,0
-126,365,0,0,0,0,0,0,0,0,0,-1,1098,659,0,0
-119,365,0,0,0,0,0,0,0,0,0,-1,1105,659,0,0
-112,365,0,0,0,0,0,0,0,0,0,-1,1112,659,0,0
-105,365,0,0,0,0,0,0,0,0,0,-1,1119,659,0,0
-98,365,0,0,0,0,0,0,0,0,0,-1,1126,659,0,0
-91,365,0,0,0,0,0,0,0,0,0,-1,1133,659,0,0
-84,365,0,0,0,0,0,0,0,0,0,-1,1140,659,0,0
-77,365,0,0,0,0,0,0,0,0,0,-1,1147,659,0,0
-70,365,0,0,0,0,0,0,0,0,0,-1,1154,659,0,0
-63,365,0,0,0,0,0,0,0,0,0,-1,1161,659,0,0
-56,365,0,0,0,0,0,0,0,0,0,-1,1168,659,0,0
-49,365,0,0,0,0,0,0,0,0,0,-1,1175,659,0,0
-42,365,0,0,0,0,0,0,0,0,0,-1,1182,659,0,0
-35,365,0,0,0,0,0,0,0,0,0,-1,1189,659,0,0
-28,365,0,0,0,0,0,0,0,0,0,-1,1196,659,0,0
-21,365,0,0,0,0,0,0,0,0,0,-1,1203,659,0,0
-14,365,0,0,0,0,0,0,0,0,0,-1,1210,659,0,0
-7,365,0,0,0,0,0,0,0,0,0,-1,1217,659,0,0
0,365,0,0,0,0,0,0,0,0,0,-1,1224,659,0,0
7,365,0,0,0,0,0,0,0,0,0,-1,1231,659,0,0
14,365,0,0,0,0,0,0,0,0,0,-1,1238,659,0,0
21,365,0,0,0,0,0,0,0,0,0,-1,1245,659,0,0
28,365,0,0,0,0,0,0,0,0,0,-1,1252,659,0,0
35,365,0,0,0,0,0,0,0,0,0,-1,1259,659,0,0
42,365,0,0,0,0,0,0,0,0,0,-1,1266,659,0,0
49,365,0,0,0,0,0,0,0,0,0,-1,1273,659,0,0
56,365,0,0,0,0,0,0,0,0,0,-1,1280,659,0,0
63,365,0,0,0,0,0,0,0,0,0,-1,1287,659,0,0
70,365,0,0,0,0,0,0,0,0,0,-1,1294,659,0,0
77,365,0,0,0,0,0,0,0,0,0,-1,1301,659,0,0
84,365,0,0,0,0,0,0,0,0,0,-1,1308,659,0,0
91,365,0,0,0,0,0,0,0,0,0,-1,1315,659,0,0
98,365,0,0,0,0,0,0,0,0,0,-1,1322,659,0,0
105,365,0,0,0,0,0,0,0,0,0,-1,1329,659,0,0
112,365,0,0,0,0,0,0,0,0,0,-1,1336,659,0,0
119,365,0,0,0,0,0,0,0,0,0,-1,1343,659,0,0
126,365,0,0,0,0,0,0,0,0,0,-1,1350,659,0,0
133,365,0,0,0,0,0,0,0,0,0,-1,1357,659,0,0
140,365,0,0,0,0,0,0,0,0,0,-1,1364,659,0,0
147,365,0,0,0,0,0,0,0,0,0,-1,1371,659,0,0
154,365,0,0,0,0,0,0,0,0,0,-1,1378,659,0,0
161,365,0,0,0,0,0,0,0,0,0,-1,1385,659,0,0
168,365,0,0,0,0,0,0,0,0,0,-1,1392,659,0,0
175,365,0,0,0,0,0,0,0,0,0,-1,1399,659,0,0
182,365,0,0,0,0,0,0,0,0,0,-1,1406,659,0,0
189,365,0,0,0,0,0,0,0,0,0,-1,1413,659,0,0
196,365,0,0,0,0,0,0,0,0,0,-1,1420,659,0,0
203,365,0,0,0,0,0,0,0,0,0,-1,1427,659,0,0
210,365,0,0,0,0,0,0,0,0,0,-1,1434,659,0,0
217,365,0,0,0,0,0,0,0,0,0,-1,1441,659,0,0
224,365,0,0,0,0,0,0,0,0,0,-1,1448,659,0,0
231,365,0,0,0,0,0,0,0,0,0,-1,1455,659,0,0
238,365,0,0,0,0,0,0,0,0,0,-1,1462,659,0,0
245,365,0,0,0,0,0,0,0,0,0,-1,1469,659,0,0
252,365,0,0,0,0,0,0,0,0,0,-1,1476,659,0,0
259,365,0,0,0,0,0,0,0,0,0,-1,1483,659,0,0
266,365,0,0,0,0,0,0,0,0,0,-1,1490,659,0,0
273,365,0,0,0,0,0,0,0,0,0,-1,1497,659,0,0
280,365,0,0,0,0,0,0,0,0,0,-1,1504,659,0,0
287,365,0,0,0,0,0,0,0,0,0,-1,1511,659,0,0
294,365,0,0,0,0,0,0,0,0,0,-1,1518,659,0,0
301,365,0,0,0,0,0,0,0,0,0,-1,1525,659,0,0
308,365,0,0,0,0,0,0,0,0,0,-1,1532,659,0,0
315,365,0,0,0,0,0,0,0,0,0,-1,1539,659,0,0
322,365,0,0,0,0,0,0,0,0,0,-1,1546,659,0,0
329,365,0,0,0,0,0,0,0,0,0,-1,1553,659,0,0
336,365,0,0,0,0,0,0,0,0,0,-1,1560,659,0,0
343,365,0,0,0,0,0,0,0,0,0,-1,1567,659,0,0
350,365,0,0,0,0,0,0,0,0,0,-1,1574,659,0,0
357,365,0,0,0,0,0,0,0,0,0,-1,1581,659,0,0
364,365,0,0,0,0,0,0,0,0,0,-1,1588,659,0,0
371,365,0,0,0,0,0,0,0,0,0,-1,1595,659,0,0
378,365,0,0,0,0,0,0,0,0,0,-1,1602,659,0,0
385,365,0,0,0,0,0,0,0,0,0,-1,1609,659,0,0
392,365,0,0,0,0,0,0,0,0,0,-1,1616,659,0,0
399,365,0,0,0,0,0,0,0,0,0,-1,1623,659,0,0
406,365,0,0,0,0,0,0,0,0,0,-1,1630,659,0,0
413,365,0,0,0,0,0,0,0,0,0,-1,1637,659,0,0
420,365,0,0,0,0,0,0,0,0,0,-1,1644,659,0,0
427,365,0,0,0,0,0,0,0,0,0,-1,1651,659,0,0
434,365,0,0,0,0,0,0,0,0,0,-1,1658,659,0,0
441,365,0,0,0,0,0,0,0,0,0,-1,1665,659,0,0
448,365,0,0,0,0,0,0,0,0,0,-1,1672,659,0,0
455,365,0,0,0,0,0,0,0,0,0,-1,1679,659,0,0
462,365,0,0,0,0,0,0,0,0,0,-1,1686,659,0,0
469,365,0,0,0,0,0,0,0,0,0,-1,1693,659,0,0
476,365,0,0,0,0,0,0,0,0,0,-1,1700,659,0,0
483,365,0,0,0,0,0,0,0,0,0,-1,1707,659,0,0
490,365,7.0968,1.30072,0.0116729,-0.0292,-0.029584,0.0271928,-0.0447199,-0.483138,0.0419279,0.046003,1714,659,7.09682,-1.30074
497,365,7.052,1.39557,0.0187061,-0.0168698,-0.0402049,0.0448823,-0.043046,-0.577127,0.0507691,0.047311,1721,659,7.05195,-1.39558
504,365,7.08154,1.80841,0,0,0,0,0,0,0,-1,1728,659,7.08154,-1.8084
511,365,7.30298,1.5448,0.00805817,-0.00648454,-0.0460152,0.047373,-0.0457994,-0.707036,0.0537957,0.0471559,1735,659,7.30295,-1.54477
518,365,7.55994,1.11475,0.000418676,-0.00412179,-0.0437185,0.0419258,-0.0456289,-0.759457,0.0505648,0.0420721,1742,659,7.55997,-1.11472
525,365,7.88733,0.750977,-0.00703411,-0.00295813,-0.0398683,0.0349242,-0.0449165,-0.810935,0.0462162,0.0464078,1749,659,7.88738,-0.75098
532,365,8.36621,0.40155,0,0,0,0,0,0,0,-1,1756,659,8.36619,-0.401576
539,365,4.95996,-0.712463,0,0,0,0,0,0,0,-1,1763,659,4.95994,0.71247
546,365,3.75696,-1.19324,0,0,0,0,0,0,0,-1,1770,659,3.75698,1.19325
553,365,4.10376,-0.81958,0,0,0,0,0,0,0,-1,1777,659,4.10379,0.819571
560,365,4.42053,-0.784729,-0.0215802,-0.00314607,-0.0176397,0.00753944,-0.0322658,-1.02615,0.0244148,0.0455165,1784,659,4.42057,0.784751
567,365,4.67236,-0.649719,-0.0206362,-0.0033545,-0.0136498,0.00415952,-0.0281502,-1.06758,0.0202959,0.0367211,1791,659,4.67235,0.649706
574,365,4.60791,-0.382263,-0.0188681,-0.00330995,-0.0100692,0.00163508,-0.0238131,-1.11429,0.0164476,0.0205783,1798,659,4.60787,0.382248
581,365,4.53662,-0.288025,-0.0163483,-0.00302777,-0.00740845,0.000274102,-0.0196502,-1.15153,0.0131924,0.0128309,1805,659,4.5366,0.288052
588,365,4.54041,-0.196472,-0.0128154,-0.00301118,-0.00524067,-0.000737274,-0.0150893,-1.16141,0.00982303,0.011182,1812,659,4.5404,0.196502
595,365,4.55505,-0.102722,-0.00878921,-0.00261136,-0.00366108,-0.000910201,-0.0104904,-1.13582,0.00671079,0.0116344,1819,659,4.55509,0.1027
602,365,4.53455,-0.0235596,-0.00500169,-0.00169888,-0.00259887,-0.000271115,-0.00642945,-1.06843,0.00419885,0.0127908,1826,659,4.53449,0.0235478
609,365,4.50757,0.0439453,-0.00334413,-0.000998722,-0.00186393,3.07288e-05,-0.00437358,-1.06619,0.00292602,0.0133691,1833,659,4.50755,-0.0439277
616,365,4.52478,0.0998535,-0.00239746,-0.000461798,-0.00124586,0.000147987,-0.00300724,-1.11563,0.00205593,0.0142815,1840,659,4.52478,-0.0998648
623,365,4.55359,0.182495,-0.00113777,0.000689918,-0.000452333,0.000795739,-0.00124359,-1.34098,0.00118683,0.010487,1847,659,4.55361,-0.182515
630,365,4.56274,0.273254,-0.000379556,0.00157727,0.000306952,0.00162429,-0.000426575,1.4188,0.00124956,0.0151615,1854,659,4.56275,-0.273273
637,365,4.56055,0.329956,0.000199203,0.002717,0.000977569,0.00305199,-0.000135782,1.24067,0.0020814,0.0208514,1861,659,4.56056,-0.329927
644,365,4.5531,0.384949,0.000945923,0.00377989,0.00164566,0.00453455,0.00019126,1.14083,0.00296134,0.0137872,1868,659,4.55315,-0.384955
651,365,4.58447,0.487183,0.00264198,0.00496765,0.00293487,0.00696165,0.000647979,0.974017,0.0044409,0.0191432,1875,659,4.58453,-0.487168
658,365,4.45349,0.569458,0.00559249,0.00664907,0.00492018,0.0110692,0.00117232,0.83888,0.00702142,0.0346412,1882,659,4.45343,-0.569459
665,365,4.36328,0.608459,0.00950998,0.00939508,0.00718209,0.0166349,0.00227021,0.781399,0.010416,0.0457592,1889,659,4.3633,-0.608468
672,365,4.45081,0.949524,0.0149969,0.0127981,0.0103078,0.0242637,0.00353129,0.732271,0.0151367,0.049139,1896,659,4.45079,-0.949527
679,365,4.11487,0.849976,0,0,0,0,0,0,0,-1,1903,659,4.1149,-0.849973
686,365,3.83264,1.00238,0,0,0,0,0,0,0,-1,1910,659,3.83258,-1.00238
693,365,3.60266,1.16534,0,0,0,0,0,0,0,-1,1917,659,3.60263,-1.16537
700,365,0,0,0,0,0,0,0,0,0,-1,1924,659,0,0
707,365,0,0,0,0,0,0,0,0,0,-1,1931,659,0,0
714,365,0,0,0,0,0,0,0,0,0,-1,1938,659,0,0
721,365,0,0,0,0,0,0,0,0,0,-1,1945,659,0,0
728,365,0,0,0,0,0,0,0,0,0,-1,1952,659,0,0
735,365,0,0,0,0,0,0,0,0,0,-1,1959,659,0,0
742,365,0,0,0,0,0,0,0,0,0,-1,1966,659,0,0
749,365,0,0,0,0,0,0,0,0,0,-1,1973,659,0,0
756,365,0,0,0,0,0,0,0,0,0,-1,1980,659,0,0
763,365,0,0,0,0,0,0,0,0,0,-1,1987,659,0,0
770,365,0,0,0,0,0,0,0,0,0,-1,1994,659,0,0
777,365,0,0,0,0,0,0,0,0,0,-1,2001,659,0,0
784,365,0,0,0,0,0,0,0,0,0,-1,2008,659,0,0
791,365,0,0,0,0,0,0,0,0,0,-1,2015,659,0,0
798,365,0,0,0,0,0,0,0,0,0,-1,2022,659,0,0
805,365,0,0,0,0,0,0,0,0,0,-1,2029,659,0,0
812,365,0,0,0,0,0,0,0,0,0,-1,2036,659,0,0
-700,358,0,0,0,0,0,0,0,0,0,-1,524,666,0,0
-693,358,0,0,0,0,0,0,0,0,0,-1,531,666,0,0
-686,358,0,0,0,0,0,0,0,0,0,-1,538,666,0,0
-679,358,0,0,0,0,0,0,0,0,0,-1,545,666,0,0
-672,358,0,0,0,0,0,0,0,0,0,-1,552,666,0,0
-665,358,0,0,0,0,0,0,0,0,0,-1,559,666,0,0
-658,358,0,0,0,0,0,0,0,0,0,-1,566,666,0,0
-651,358,0,0,0,0,0,0,0,0,0,-1,573,666,0,0
-644,358,0,0,0,0,0,0,0,0,0,-1,580,666,0,0
-637,358,0,0,0,0,0,0,0,0,0,-1,587,666,0,0
-630,358,0,0,0,0,0,0,0,0,0,-1,594,666,0,0
-623,358,0,0,0,0,0,0,0,0,0,-1,601,666,0,0
-616,358,0,0,0,0,0,0,0,0,0,-1,608,666,0,0
-609,358,0,0,0,0,0,0,0,0,0,-1,615,666,0,0
-602,358,0,0,0,0,0,0,0,0,0,-1,622,666,0,0
-595,358,0,0,0,0,0,0,0,0,0,-1,629,666,0,0
-588,358,0,0,0,0,0,0,0,0,0,-1,636,666,0,0
-581,358,-0.418152,6.38477,0,0,0,0,0,0,0,-1,643,666,-0.418152,-6.38477
-574,358,-0.285583,5.36115,0.00783425,0.0511723,-0.0716857,0.104392,-0.0453859,-0.932171,0.0886833,0.047213,650,666,-0.285607,-5.36112
-567,358,-0.137634,4.27734,0.00684047,0.0430116,-0.061677,0.0892,-0.0393479,-0.928015,0.0760548,0.0480368,657,666,-0.137655,-4.27734
-560,358,0.0186157,3.14771,0.00592741,0.0352409,-0.0515078,0.0741367,-0.0329684,-0.924012,0.0633415,0.047955,664,666,0.0185932,-3.14771
-553,358,0.326477,1.46265,0.00504884,0.0282147,-0.0418387,0.0600442,-0.0267806,-0.92044,0.05134,0.0476073,671,666,0.326498,-1.46262
-546,358,0.233887,1.0014,0.00410178,0.0220127,-0.0330481,0.0472972,-0.0211828,-0.917712,0.0404839,0.0487498,678,666,0.23386,-1.00141
-539,358,0.0543213,0.746094,0.00341089,0.0167051,-0.0252503,0.0361685,-0.0160525,-0.914103,0.0308865,0.0467799,685,666,0.0543452,-0.746092
-532,358,-0.182495,0.504333,0.00302755,0.0123399,-0.0187033,0.0269578,-0.0115904,-0.907393,0.0228377,0.0397568,692,666,-0.182471,-0.504314
-525,358,-0.393555,0.135498,0.00249892,0.00880183,-0.013399,0.019415,-0.0081142,-0.9009,0.0163343,0.0226536,699,666,-0.393574,-0.135504
-518,358,-0.337646,0.135986,0.00205121,0.00563412,-0.00904946,0.0130677,-0.00538241,-0.883116,0.0109559,0.0161918,706,666,-0.337672,-0.136003
-511,358,-0.35614,0.041626,0.00174673,0.00308161,-0.00540937,0.00786456,-0.00303621,-0.846781,0.0064961,0.0144614,713,666,-0.356146,-0.0416047
-504,358,-0.355225,-0.0197754,0.00126819,0.000679604,-0.00180004,0.00279783,-0.000850045,-0.704369,0.00220391,0.0107691,720,666,-0.355205,0.0197751
-497,358,-0.355286,-0.0804443,0.00100087,-0.000477461,6.74605e-05,0.00100395,-0.000480533,0.0455067,0.000874643,0.0103543,727,666,-0.355294,0.0804574
-490,358,-0.348633,-0.141235,0.00128302,-0.00126279,0.000221142,0.00130208,-0.00128185,0.086007,0.00149185,0.00990362,734,666,-0.348658,0.141233
-483,358,-0.350647,-0.200378,0.00146721,-0.00181463,0.000261855,0.00148798,-0.00183539,0.0791221,0.00192224,0.00970692,741,666,-0.350618,0.200376
-476,358,-0.346191,-0.265808,0.00152436,-0.00248547,0.000367967,0.00155785,-0.00251896,0.0907561,0.00237545,0.0107944,748,666,-0.346209,0.265814
-469,358,-0.34552,-0.344604,0.00137006,-0.00288335,0.000419883,0.00141111,-0.0029244,0.0974635,0.00255343,0.0122217,755,666,-0.345524,0.34459
-462,358,-0.351929,-0.415344,0.00122679,-0.00367181,0.000203689,0.00123524,-0.00368027,0.0414856,0.00295268,0.0147076,762,666,-0.351924,0.41535
-455,358,-0.334045,-0.48114,0.00109818,-0.00415603,-0.000143571,0.0011021,-0.00415995,-0.0272979,0.00320447,0.0147531,769,666,-0.33405,0.481145
-448,358,-0.290466,-0.558105,0.000870761,-0.00394958,-0.000778435,0.000993352,-0.00407217,-0.156202,0.00309942,0.0240929,776,666,-0.290448,0.558081
-441,358,-0.462891,-0.410767,0.000459897,-0.00236962,-0.00191976,0.00142988,-0.00333961,-0.467851,0.00282629,0.0373132,783,666,-0.462867,0.410751
-434,358,-0.491333,-0.368774,-0.000277474,4.96172e-05,-0.0035056,0.00339548,-0.00362334,-0.808708,0.00405303,0.0411121,790,666,-0.491359,0.368761
-427,358,-0.517639,-0.357239,0,0,0,0,0,0,0,-1,797,666,-0.517635,0.357257
-420,358,-0.106201,0.618591,0,0,0,0,0,0,0,-1,804,666,-0.106226,-0.61862
-413,358,-0.732361,0.385376,0,0,0,0,0,0,0,-1,811,666,-0.732382,-0.385404
-406,358,-1.06079,0.204834,0,0,0,0,0,0,0,-1,818,666,-1.06081,-0.204847
-399,358,-1.32294,0.151306,0,0,0,0,0,0,0,-1,825,666,-1.32294,-0.151287
-392,358,-1.63049,0.0847168,0,0,0,0,0,0,0,-1,832,666,-1.63052,-0.084733
-385,358,-0.337708,1.10236,0,0,0,0,0,0,0,-1,839,666,-0.337725,-1.10237
-378,358,0,0,0,0,0,0,0,0,0,-1,846,666,0,0
-371,358,0,0,0,0,0,0,0,0,0,-1,853,666,0,0
-364,358,0,0,0,0,0,0,0,0,0,-1,860,666,0,0
-357,358,0,0,0,0,0,0,0,0,0,-1,867,666,0,0
-350,358,0,0,0,0,0,0,0,0,0,-1,874,666,0,0
-343,358,0,0,0,0,0,0,0,0,0,-1,881,666,0,0
-336,358,0,0,0,0,0,0,0,0,0,-1,888,666,0,0
-329,358,0,0,0,0,0,0,0,0,0,-1,895,666,0,0
-322,358,0,0,0,0,0,0,0,0,0,-1,902,666,0,0
-315,358,0,0,0,0,0,0,0,0,0,-1,909,666,0,0
-308,358,0,0,0,0,0,0,0,0,0,-1,916,666,0,0
-301,358,0,0,0,0,0,0,0,0,0,-1,923,666,0,0
-294,358,0,0,0,0,0,0,0,0,0,-1,930,666,0,0
-287,358,0,0,0,0,0,0,0,0,0,-1,937,666,0,0
-280,358,0,0,0,0,0,0,0,0,0,-1,944,666,0,0
-273,358,0,0,0,0,0,0,0,0,0,-1,951,666,0,0
-266,358,0,0,0,0,0,0,0,0,0,-1,958,666,0,0
-259,358,0,0,0,0,0,0,0,0,0,-1,965,666,0,0
-252,358,0,0,0,0,0,0,0,0,0,-1,972,666,0,0
-245,358,0,0,0,0,0,0,0,0,0,-1,979,666,0,0
-238,358,0,0,0,0,0,0,0,0,0,-1,986,666,0,0
-231,358,0,0,0,0,0,0,0,0,0,-1,993,666,0,0
-224,358,0,0,0,0,0,0,0,0,0,-1,1000,666,0,0
-217,358,0,0,0,0,0,0,0,0,0,-1,1007,666,0,0
-210,358,0,0,0,0,0,0,0,0,0,-1,1014,666,0,0
-203,358,0,0,0,0,0,0,0,0,0,-1,1021,666,0,0
-196,358,0,0,0,0,0,0,0,0,0,-1,1028,666,0,0
-189,358,0,0,0,0,0,0,0,0,0,-1,1035,666,0,0
-182,358,0,0,0,0,0,0,0,0,0,-1,1042,666,0,0
-175,358,0,0,0,0,0,0,0,0,0,-1,1049,666,0,0
-168,358,0,0,0,0,0,0,0,0,0,-1,1056,666,0,0
-161,358,0,0,0,0,0,0,0,0,0,-1,1063,666,0,0
-154,358,0,0,0,0,0,0,0,0,0,-1,1070,666,0,0
-147,358,0,0,0,0,0,0,0,0,0,-1,1077,666,0,0
-140,358,0,0,0,0,0,0,0,0,0,-1,1084,666,0,0
-133,358,0,0,0,0,0,0,0,0,0,-1,1091,666,0,0
-126,358,0,0,0,0,0,0,0,0,0,-1,1098,666,0,0
-119,358,0,0,0,0,0,0,0,0,0,-1,1105,666,0,0
-112,358,0,0,0,0,0,0,0,0,0,-1,1112,666,0,0
-105,358,0,0,0,0,0,0,0,0,0,-1,1119,666,0,0
-98,358,0,0,0,0,0,0,0,0,0,-1,1126,666,0,0
-91,358,0,0,0,0,0,0,0,0,0,-1,1133,666,0,0
-84,358,0,0,0,0,0,0,0,0,0,-1,1140,666,0,0
-77,358,0,0,0,0,0,0,0,0,0,-1,1147,666,0,0
-70,358,0,0,0,0,0,0,0,0,0,-1,1154,666,0,0
-63,358,0,0,0,0,0,0,0,0,0,-1,1161,666,0,0
-56,358,0,0,0,0,0,0,0,0,0,-1,1168,666,0,0
-49,358,0,0,0,0,0,0,0,0,0,-1,1175,666,0,0
-42,358,0,0,0,0,0,0,0,0,0,-1,1182,666,0,0
-35,358,0,0,0,0,0,0,0,0,0,-1,1189,666,0,0
-28,358,0,0,0,0,0,0,0,0,0,-1,1196,666,0,0
-21,358,0,0,0,0,0,0,0,0,0,-1,1203,666,0,0
-14,358,0,0,0,0,0,0,0,0,0,-1,1210,666,0,0
-7,358,0,0,0,0,0,0,0,0,0,-1,1217,666,0,0
0,358,0,0,0,0,0,0,0,0,0,-1,1224,666,0,0
7,358,0,0,0,0,0,0,0,0,0,-1,1231,666,0,0
14,358,0,0,0,0,0,0,0,0,0,-1,1238,666,0,0
21,358,0,0,0,0,0,0,0,0,0,-1,1245,666,0,0
28,358,0,0,0,0,0,0,0,0,0,-1,1252,666,0,0
35,358,0,0,0,0,0,0,0,0,0,-1,1259,666,0,0
42,358,0,0,0,0,0,0,0,0,0,-1,1266,666,0,0
49,358,0,0,0,0,0,0,0,0,0,-1,1273,666,0,0
56,358,0,0,0,0,0,0,0,0,0,-1,1280,666,0,0
63,358,0,0,0,0,0,0,0,0,0,-1,1287,666,0,0
70,358,0,0,0,0,0,0,0,0,0,-1,1294,666,0,0
77,358,0,0,0,0,0,0,0,0,0,-1,1301,666,0,0
84,358,0,0,0,0,0,0,0,0,0,-1,1308,666,0,0
91,358,0,0,0,0,0,0,0,0,0,-1,1315,666,0,0
98,358,0,0,0,0,0,0,0,0,0,-1,1322,666,0,0
105,358,0,0,0,0,0,0,0,0,0,-1,1329,666,0,0
112,358,0,0,0,0,0,0,0,0,0,-1,1336,666,0,0
119,358,0,0,0,0,0,0,0,0,0,-1,1343,666,0,0
126,358,0,0,0,0,0,0,0,0,0,-1,1350,666,0,0
133,358,0,0,0,0,0,0,0,0,0,-1,1357,666,0,0
140,358,0,0,0,0,0,0,0,0,0,-1,1364,666,0,0
147,358,0,0,0,0,0,0,0,0,0,-1,1371,666,0,0
154,358,0,0,0,0,0,0,0,0,0,-1,1378,666,0,0
161,358,0,0,0,0,0,0,0,0,0,-1,1385,666,0,0
168,358,0,0,0,0,0,0,0,0,0,-1,1392,666,0,0
175,358,0,0,0,0,0,0,0,0,0,-1,1399,666,0,0
182,358,0,0,0,0,0,0,0,0,0,-1,1406,666,0,0
189,358,0,0,0,0,0,0,0,0,0,-1,1413,666,0,0
196,358,0,0,0,0,0,0,0,0,0,-1,1420,666,0,0
203,358,0,0,0,0,0,0,0,0,0,-1,1427,666,0,0
210,358,0,0,0,0,0,0,0,0,0,-1,1434,666,0,0
217,358,0,0,0,0,0,0,0,0,0,-1,1441,666,0,0
224,358,0,0,0,0,0,0,0,0,0,-1,1448,666,0,0
231,358,0,0,0,0,0,0,0,0,0,-1,1455,666,0,0
238,358,0,0,0,0,0,0,0,0,0,-1,1462,666,0,0
245,358,0,0,0,0,0,0,0,0,0,-1,1469,666,0,0
252,358,0,0,0,0,0,0,0,0,0,-1,1476,666,0,0
259,358,0,0,0,0,0,0,0,0,0,-1,1483,666,0,0
266,358,0,0,0,0,0,0,0,0,0,-1,1490,666,0,0
273,358,0,0,0,0,0,0,0,0,0,-1,1497,666,0,0
280,358,0,0,0,0,0,0,0,0,0,-1,1504,666,0,0
287,358,0,0,0,0,0,0,0,0,0,-1,1511,666,0,0
294,358,0,0,0,0,0,0,0,0,0,-1,1518,666,0,0
301,358,0,0,0,0,0,0,0,0,0,-1,1525,666,0,0
308,358,0,0,0,0,0,0,0,0,0,-1,1532,666,0,0
315,358,0,0,0,0,0,0,0,0,0,-1,1539,666,0,0
322,358,0,0,0,0,0,0,0,0,0,-1,1546,666,0,0
329,358,0,0,0,0,0,0,0,0,0,-1,1553,666,0,0
336,358,0,0,0,0,0,0,0,0,0,-1,1560,666,0,0
343,358,0,0,0,0,0,0,0,0,0,-1,1567,666,0,0
350,358,0,0,0,0,0,0,0,0,0,-1,1574,666,0,0
357,358,0,0,0,0,0,0,0,0,0,-1,1581,666,0,0
364,358,0,0,0,0,0,0,0,0,0,-1,1588,666,0,0
371,358,0,0,0,0,0,0,0,0,0,-1,1595,666,0,0
378,358,0,0,0,0,0,0,0,0,0,-1,1602,666,0,0
385,358,0,0,0,0,0,0,0,0,0,-1,1609,666,0,0
392,358,0,0,0,0,0,0,0,0,0,-1,1616,666,0,0
399,358,0,0,0,0,0,0,0,0,0,-1,1623,666,0,0
406,358,0,0,0,0,0,0,0,0,0,-1,1630,666,0,0
413,358,0,0,0,0,0,0,0,0,0,-1,1637,666,0,0
420,358,0,0,0,0,0,0,0,0,0,-1,1644,666,0,0
427,358,0,0,0,0,0,0,0,0,0,-1,1651,666,0,0
434,358,0,0,0,0,0,0,0,0,0,-1,1658,666,0,0
441,358,0,0,0,0,0,0,0,0,0,-1,1665,666,0,0
448,358,0,0,0,0,0,0,0,0,0,-1,1672,666,0,0
455,358,0,0,0,0,0,0,0,0,0,-1,1679,666,0,0
462,358,0,0,0,0,0,0,0,0,0,-1,1686,666,0,0
469,358,0,0,0,0,0,0,0,0,0,-1,1693,666,0,0
476,358,0,0,0,0,0,0,0,0,0,-1,1700,666,0,0
483,358,0,0,0,0,0,0,0,0,0,-1,1707,666,0,0
490,358,0,0,0,0,0,0,0,0,0,-1,1714,666,0,0
497,358,7.47559,1.89941,0,0,0,0,0,0,0,-1,1721,666,7.47559,-1.8994
504,358,8.03137,1.46375,0,0,0,0,0,0,0,-1,1728,666,8.03134,-1.46374
511,358,7.99316,1.53113,0.00279283,-0.000630399,-0.0457038,0.046817,-0.0446546,-0.766682,0.0528161,0.045759,1735,666,7.99312,-1.5311
518,358,8.15417,1.36359,-0.00297045,0.00121719,-0.0443889,0.0435617,-0.0453149,-0.808966,0.0513162,0.0434509,1742,666,8.15415,-1.36358
525,358,8.29907,0.867798,-0.00870933,0.00168921,-0.0411702,0.0379871,-0.0450073,-0.848209,0.0479739,0.0454783,1749,666,8.29902,-0.867782
532,358,8.37231,0.532654,-0.0136525,0.00141102,-0.0369211,0.0315608,-0.0438023,-0.886016,0.0437018,0.044165,1756,666,8.37228,-0.532651
539,358,7.96252,0.428101,-0.0169616,0.000650391,-0.0322267,0.0252526,-0.0415638,-0.918768,0.0389577,0.0441757,1763,666,7.96251,-0.428082
546,358,7.67468,0.053833,-0.0184736,0.000410449,-0.0280482,0.0205632,-0.0386264,-0.947758,0.0346995,0.0479015,1770,666,7.67466,-0.0538596
553,358,4.34375,-0.636414,0,0,0,0,0,0,0,-1,1777,666,4.34373,0.636414
560,358,4.57129,-1.02246,0,0,0,0,0,0,0,-1,1784,666,4.57128,1.02245
567,358,5.45227,-0.707825,0,0,0,0,0,0,0,-1,1791,666,5.45226,0.707827
574,358,5.09277,-0.573303,0,0,0,0,0,0,0,-1,1798,666,5.09279,0.57333
581,358,4.59631,-0.253418,-0.0139041,-0.00335834,-0.00918274,0.00195773,-0.0192202,-1.04602,0.0135134,0.0185112,1805,666,4.59625,0.253446
588,358,4.60303,-0.176758,-0.0109204,-0.00396827,-0.00675267,0.000150503,-0.0150392,-1.02309,0.0100767,0.0121602,1812,666,4.60306,0.176761
595,358,4.62354,-0.0951538,-0.00733167,-0.00376395,-0.0048856,-0.000346727,-0.0107489,-0.960441,0.0070532,0.0109121,1819,666,4.62352,0.0951505
602,358,4.59717,-0.032959,-0.00387624,-0.00287543,-0.00344584,0.000106148,-0.00685782,-0.857504,0.00460767,0.0112206,1826,666,4.59718,0.0329798
609,358,4.56848,0.00909424,-0.00296985,-0.00201466,-0.00243463,-1.12208e-05,-0.00497329,-0.882252,0.00331179,0.0146634,1833,666,4.56842,-0.00907691
616,358,4.578,0.0964966,-0.00275358,-0.00125619,-0.00178629,-6.80364e-05,-0.00394173,-0.983844,0.00260544,0.015112,1840,666,4.57803,-0.0965271
623,358,4.60938,0.18042,-0.0012882,-3.47711e-05,-0.000858202,0.00040119,-0.00172417,-1.10077,0.00130391,0.0144235,1847,666,4.60933,-0.180433
630,358,4.62646,0.257141,-0.000359914,0.000881954,2.89284e-05,0.000882627,-0.000360587,1.54752,0.000738563,0.018125,1854,666,4.6265,-0.257153
637,358,4.61499,0.309448,0.000101702,0.00197821,0.000696358,0.00220838,-0.000128477,1.25156,0.0015169,0.024856,1861,666,4.61503,-0.309459
644,358,4.61682,0.382874,0.000551395,0.00282143,0.00125503,0.00337856,-5.73893e-06,1.15301,0.00225429,0.0192149,1868,666,4.61683,-0.382854
651,358,4.65051,0.485229,0.00185679,0.00362773,0.00235145,0.0052549,0.000229614,0.965469,0.0034293,0.0167366,1875,666,4.65047,-0.485253
658,358,4.54614,0.549683,0.00430085,0.00482769,0.00395297,0.00852601,0.000602526,0.818668,0.00549419,0.0238337,1882,666,4.54619,-0.549677
665,358,4.44788,0.547546,0.00741778,0.00720314,0.00558445,0.0128959,0.00172498,0.77579,0.00808388,0.035838,1889,666,4.44789,-0.54756
672,358,4.42932,0.657104,0.0116329,0.0103058,0.00792573,0.0189228,0.00301591,0.743635,0.0117398,0.0427427,1896,666,4.42928,-0.657088
679,358,4.3418,0.901489,0.0176604,0.013881,0.0111369,0.0270668,0.00447465,0.701357,0.0167533,0.0408434,1903,666,4.34179,-0.901489
686,358,4.29736,1.16949,0,0,0,0,0,0,0,-1,1910,666,4.29732,-1.16952
693,358,4.13318,1.28284,0,0,0,0,0,0,0,-1,1917,666,4.13315,-1.28283
700,358,0,0,0,0,0,0,0,0,0,-1,1924,666,0,0
707,358,0,0,0,0,0,0,0,0,0,-1,1931,666,0,0
714,358,0,0,0,0,0,0,0,0,0,-1,1938,666,0,0
721,358,0,0,0,0,0,0,0,0,0,-1,1945,666,0,0
728,358,0,0,0,0,0,0,0,0,0,-1,1952,666,0,0
735,358,0,0,0,0,0,0,0,0,0,-1,1959,666,0,0
742,358,0,0,0,0,0,0,0,0,0,-1,1966,666,0,0
749,358,0,0,0,0,0,0,0,0,0,-1,1973,666,0,0
756,358,0,0,0,0,0,0,0,0,0,-1,1980,666,0,0
763,358,0,0,0,0,0,0,0,0,0,-1,1987,666,0,0
770,358,0,0,0,0,0,0,0,0,0,-1,1994,666,0,0
777,358,0,0,0,0,0,0,0,0,0,-1,2001,666,0,0
784,358,0,0,0,0,0,0,0,0,0,-1,2008,666,0,0
791,358,0,0,0,0,0,0,0,0,0,-1,2015,666,0,0
798,358,0,0,0,0,0,0,0,0,0,-1,2022,666,0,0
805,358,0,0,0,0,0,0,0,0,0,-1,2029,666,0,0
812,358,0,0,0,0,0,0,0,0,0,-1,2036,666,0,0
-700,351,0,0,0,0,0,0,0,0,0,-1,524,673,0,0
-693,351,0,0,0,0,0,0,0,0,0,-1,531,673,0,0
-686,351,0,0,0,0,0,0,0,0,0,-1,538,673,0,0
-679,351,0,0,0,0,0,0,0,0,0,-1,545,673,0,0
-672,351,0,0,0,0,0,0,0,0,0,-1,552,673,0,0
-665,351,0,0,0,0,0,0,0,0,0,-1,559,673,0,0
-658,351,0,0,0,0,0,0,0,0,0,-1,566,673,0,0
-651,351,0,0,0,0,0,0,0,0,0,-1,573,673,0,0
-644,351,0,0,0,0,0,0,0,0,0,-1,580,673,0,0
-637,351,0,0,0,0,0,0,0,0,0,-1,587,673,0,0
-630,351,0,0,0,0,0,0,0,0,0,-1,594,673,0,0
-623,351,0,0,0,0,0,0,0,0,0,-1,601,673,0,0
-616,351,0,0,0,0,0,0,0,0,0,-1,608,673,0,0
-609,351,0,0,0,0,0,0,0,0,0,-1,615,673,0,0
-602,351,0,0,0,0,0,0,0,0,0,-1,622,673,0,0
-595,351,0,0,0,0,0,0,0,0,0,-1,629,673,0,0
-588,351,0,0,0,0,0,0,0,0,0,-1,636,673,0,0
-581,351,0.292664,-0.496094,0,0,0,0,0,0,0,-1,643,673,0.292691,0.496089
-574,351,-0.182251,4.55896,0,0,0,0,0,0,0,-1,650,673,-0.182248,-4.55894
-567,351,-0.109863,3.66803,0.00220178,0.0419224,-0.0540927,0.0796855,-0.0355613,-0.961335,0.068144,0.0465996,657,673,-0.109889,-3.66805
-560,351,-0.0065918,2.59515,0.00214883,0.0348717,-0.045575,0.0669331,-0.0299126,-0.957733,0.0572595,0.0419713,664,673,-0.00658515,-2.59517
-553,351,0.0930176,1.4231,0.00197885,0.0283518,-0.0373288,0.0547547,-0.024424,-0.955183,0.0468185,0.0426928,671,673,0.0930454,-1.42311
-546,351,0.170532,0.815002,0.00159815,0.0224778,-0.029696,0.0435156,-0.0194397,-0.954429,0.0372227,0.0443699,678,673,0.170548,-0.814996
-539,351,-0.0592651,0.660706,0.00141207,0.0173137,-0.0227867,0.0334969,-0.0147712,-0.953255,0.0285581,0.0407189,685,673,-0.0592399,-0.660726
-532,351,-0.306824,0.415955,0.0015295,0.0129406,-0.016909,0.0250807,-0.0106106,-0.948113,0.0211633,0.027503,692,673,-0.3068,-0.415933
-525,351,-0.409241,0.209961,0.00134626,0.00934808,-0.012149,0.018138,-0.00744366,-0.944465,0.0151937,0.0149168,699,673,-0.409215,-0.209976
-518,351,-0.424988,0.144653,0.00115919,0.006154,-0.00821307,0.012241,-0.00492778,-0.932994,0.0102077,0.0101881,706,673,-0.424964,-0.144676
-511,351,-0.411133,0.0652466,0.00112269,0.00348431,-0.00486654,0.00731124,-0.00270424,-0.904417,0.00598288,0.0102688,713,673,-0.411131,-0.0652524
-504,351,-0.4151,-0.000854492,0.000923079,0.000908458,-0.00162009,0.00253587,-0.000704337,-0.783142,0.00196784,0.00969588,720,673,-0.415109,0.00087105
-497,351,-0.416687,-0.0673218,0.000886867,-0.000392169,4.69587e-05,0.000888589,-0.000393891,0.0366484,0.00075858,0.00993376,727,673,-0.416692,0.0673338
-490,351,-0.4198,-0.131775,0.00131549,-0.00139136,0.000189341,0.00132867,-0.00140454,0.0694979,0.00157822,0.00938592,734,673,-0.419815,0.131777
-483,351,-0.424255,-0.192383,0.00162435,-0.00204352,0.000181161,0.00163327,-0.00205245,0.0492315,0.00213254,0.0107044,741,673,-0.424275,0.192379
-476,351,-0.429993,-0.262817,0.0017766,-0.00265408,6.55318e-05,0.00177757,-0.00265505,0.0147862,0.00257583,0.010124,748,673,-0.429966,0.262825
-469,351,-0.42572,-0.32843,0.00168304,-0.00282461,-0.000211063,0.0016929,-0.00283447,-0.0466871,0.00264143,0.012367,755,673,-0.42572,0.328436
-462,351,-0.41217,-0.399231,0.00158627,-0.00327371,-0.000774763,0.00170679,-0.00339423,-0.154322,0.00299831,0.0142575,762,673,-0.41219,0.399256
-455,351,-0.382629,-0.477722,0.00141634,-0.00328592,-0.00160136,0.00190989,-0.00377947,-0.298965,0.00334335,0.0150781,769,673,-0.382611,0.477717
-448,351,-0.364197,-0.30835,0.00106324,-0.0025332,-0.00280565,0.00259748,-0.00406743,-0.500413,0.00387906,0.0338268,776,673,-0.364223,0.308347
-441,351,-0.230225,0.0492554,0.000439511,-0.000415056,-0.00458208,0.00461419,-0.00458974,-0.738907,0.0053139,0.0430788,783,673,-0.23021,-0.0492473
-434,351,-0.189087,0.3479,0,0,0,0,0,0,0,-1,790,673,-0.189109,-0.34789
-427,351,-1.38837,-0.572571,0,0,0,0,0,0,0,-1,797,673,-1.38839,0.57257
-420,351,-1.61292,-0.821594,0,0,0,0,0,0,0,-1,804,673,-1.61289,0.821569
-413,351,0.328247,-0.0844727,0,0,0,0,0,0,0,-1,811,673,0.328241,0.0844744
-406,351,0.0228271,-0.0193481,0,0,0,0,0,0,0,-1,818,673,0.0227975,0.0193786
-399,351,-0.0640259,-0.219421,0,0,0,0,0,0,0,-1,825,673,-0.0640447,0.219442
-392,351,0.0448608,1.15027,0,0,0,0,0,0,0,-1,832,673,0.0448323,-1.15028
-385,351,-4.24969,0.373901,0,0,0,0,0,0,0,-1,839,673,-4.24969,-0.373917
-378,351,0,0,0,0,0,0,0,0,0,-1,846,673,0,0
-371,351,0,0,0,0,0,0,0,0,0,-1,853,673,0,0
-364,351,0,0,0,0,0,0,0,0,0,-1,860,673,0,0
-357,351,0,0,0,0,0,0,0,0,0,-1,867,673,0,0
-350,351,0,0,0,0,0,0,0,0,0,-1,874,673,0,0
-343,351,0,0,0,0,0,0,0,0,0,-1,881,673,0,0
-336,351,0,0,0,0,0,0,0,0,0,-1,888,673,0,0
-329,351,0,0,0,0,0,0,0,0,0,-1,895,673,0,0
-322,351,0,0,0,0,0,0,0,0,0,-1,902,673,0,0
-315,351,0,0,0,0,0,0,0,0,0,-1,909,673,0,0
-308,351,0,0,0,0,0,0,0,0,0,-1,916,673,0,0
-301,351,0,0,0,0,0,0,0,0,0,-1,923,673,0,0
-294,351,0,0,0,0,0,0,0,0,0,-1,930,673,0,0
-287,351,0,0,0,0,0,0,0,0,0,-1,937,673,0,0
-280,351,0,0,0,0,0,0,0,0,0,-1,944,673,0,0
-273,351,0,0,0,0,0,0,0,0,0,-1,951,673,0,0
-266,351,0,0,0,0,0,0,0,0,0,-1,958,673,0,0
-259,351,0,0,0,0,0,0,0,0,0,-1,965,673,0,0
-252,351,0,0,0,0,0,0,0,0,0,-1,972,673,0,0
-245,351,0,0,0,0,0,0,0,0,0,-1,979,673,0,0
-238,351,0,0,0,0,0,0,0,0,0,-1,986,673,0,0
-231,351,0,0,0,0,0,0,0,0,0,-1,993,673,0,0
-224,351,0,0,0,0,0,0,0,0,0,-1,1000,673,0,0
-217,351,0,0,0,0,0,0,0,0,0,-1,1007,673,0,0
-210,351,0,0,0,0,0,0,0,0,0,-1,1014,673,0,0
-203,351,0,0,0,0,0,0,0,0,0,-1,1021,673,0,0
-196,351,0,0,0,0,0,0,0,0,0,-1,1028,673,0,0
-189,351,0,0,0,0,0,0,0,0,0,-1,1035,673,0,0
-182,351,0,0,0,0,0,0,0,0,0,-1,1042,673,0,0
-175,351,0,0,0,0,0,0,0,0,0,-1,1049,673,0,0
-168,351,0,0,0,0,0,0,0,0,0,-1,1056,673,0,0
-161,351,0,0,0,0,0,0,0,0,0,-1,1063,673,0,0
-154,351,0,0,0,0,0,0,0,0,0,-1,1070,673,0,0
-147,351,0,0,0,0,0,0,0,0,0,-1,1077,673,0,0
-140,351,0,0,0,0,0,0,0,0,0,-1,1084,673,0,0
-133,351,0,0,0,0,0,0,0,0,0,-1,1091,673,0,0
-126,351,0,0,0,0,0,0,0,0,0,-1,1098,673,0,0
-119,351,0,0,0,0,0,0,0,0,0,-1,1105,673,0,0
-112,351,0,0,0,0,0,0,0,0,0,-1,1112,673,0,0
-105,351,0,0,0,0,0,0,0,0,0,-1,1119,673,0,0
-98,351,0,0,0,0,0,0,0,0,0,-1,1126,673,0,0
-91,351,0,0,0,0,0,0,0,0,0,-1,1133,673,0,0
-84,351,0,0,0,0,0,0,0,0,0,-1,1140,673,0,0
-77,351,0,0,0,0,0,0,0,0,0,-1,1147,673,0,0
-70,351,0,0,0,0,0,0,0,0,0,-1,1154,673,0,0
-63,351,0,0,0,0,0,0,0,0,0,-1,1161,673,0,0
-56,351,0,0,0,0,0,0,0,0,0,-1,1168,673,0,0
-49,351,0,0,0,0,0,0,0,0,0,-1,1175,673,0,0
-42,351,0,0,0,0,0,0,0,0,0,-1,1182,673,0,0
-35,351,0,0,0,0,0,0,0,0,0,-1,1189,673,0,0
-28,351,0,0,0,0,0,0,0,0,0,-1,1196,673,0,0
-21,351,0,0,0,0,0,0,0,0,0,-1,1203,673,0,0
-14,351,0,0,0,0,0,0,0,0,0,-1,1210,673,0,0
-7,351,0,0,0,0,0,0,0,0,0,-1,1217,673,0,0
0,351,0,0,0,0,0,0,0,0,0,-1,1224,673,0,0
7,351,0,0,0,0,0,0,0,0,0,-1,1231,673,0,0
14,351,0,0,0,0,0,0,0,0,0,-1,1238,673,0,0
21,351,0,0,0,0,0,0,0,0,0,-1,1245,673,0,0
28,351,0,0,0,0,0,0,0,0,0,-1,1252,673,0,0
35,351,0,0,0,0,0,0,0,0,0,-1,1259,673,0,0
42,351,0,0,0,0,0,0,0,0,0,-1,1266,673,0,0
49,351,0,0,0,0,0,0,0,0,0,-1,1273,673,0,0
56,351,0,0,0,0,0,0,0,0,0,-1,1280,673,0,0
63,351,0,0,0,0,0,0,0,0,0,-1,1287,673,0,0
70,351,0,0,0,0,0,0,0,0,0,-1,1294,673,0,0
77,351,0,0,0,0,0,0,0,0,0,-1,1301,673,0,0
84,351,0,0,0,0,0,0,0,0,0,-1,1308,673,0,0
91,351,0,0,0,0,0,0,0,0,0,-1,1315,673,0,0
98,351,0,0,0,0,0,0,0,0,0,-1,1322,673,0,0
105,351,0,0,0,0,0,0,0,0,0,-1,1329,673,0,0
112,351,0,0,0,0,0,0,0,0,0,-1,1336,673,0,0
119,351,0,0,0,0,0,0,0,0,0,-1,1343,673,0,0
126,351,0,0,0,0,0,0,0,0,0,-1,1350,673,0,0
133,351,0,0,0,0,0,0,0,0,0,-1,1357,673,0,0
140,351,0,0,0,0,0,0,0,0,0,-1,1364,673,0,0
147,351,0,0,0,0,0,0,0,0,0,-1,1371,673,0,0
154,351,0,0,0,0,0,0,0,0,0,-1,1378,673,0,0
161,351,0,0,0,0,0,0,0,0,0,-1,1385,673,0,0
168,351,0,0,0,0,0,0,0,0,0,-1,1392,673,0,0
175,351,0,0,0,0,0,0,0,0,0,-1,1399,673,0,0
182,351,0,0,0,0,0,0,0,0,0,-1,1406,673,0,0
189,351,0,0,0,0,0,0,0,0,0,-1,1413,673,0,0
196,351,0,0,0,0,0,0,0,0,0,-1,1420,673,0,0
203,351,0,0,0,0,0,0,0,0,0,-1,1427,673,0,0
210,351,0,0,0,0,0,0,0,0,0,-1,1434,673,0,0
217,351,0,0,0,0,0,0,0,0,0,-1,1441,673,0,0
224,351,0,0,0,0,0,0,0,0,0,-1,1448,673,0,0
231,351,0,0,0,0,0,0,0,0,0,-1,1455,673,0,0
238,351,0,0,0,0,0,0,0,0,0,-1,1462,673,0,0
245,351,0,0,0,0,0,0,0,0,0,-1,1469,673,0,0
252,351,0,0,0,0,0,0,0,0,0,-1,1476,673,0,0
259,351,0,0,0,0,0,0,0,0,0,-1,1483,673,0,0
266,351,0,0,0,0,0,0,0,0,0,-1,1490,673,0,0
273,351,0,0,0,0,0,0,0,0,0,-1,1497,673,0,0
280,351,0,0,0,0,0,0,0,0,0,-1,1504,673,0,0
287,351,0,0,0,0,0,0,0,0,0,-1,1511,673,0,0
294,351,0,0,0,0,0,0,0,0,0,-1,1518,673,0,0
301,351,0,0,0,0,0,0,0,0,0,-1,1525,673,0,0
308,351,0,0,0,0,0,0,0,0,0,-1,1532,673,0,0
315,351,0,0,0,0,0,0,0,0,0,-1,1539,673,0,0
322,351,0,0,0,0,0,0,0,0,0,-1,1546,673,0,0
329,351,0,0,0,0,0,0,0,0,0,-1,1553,673,0,0
336,351,0,0,0,0,0,0,0,0,0,-1,1560,673,0,0
343,351,0,0,0,0,0,0,0,0,0,-1,1567,673,0,0
350,351,0,0,0,0,0,0,0,0,0,-1,1574,673,0,0
357,351,0,0,0,0,0,0,0,0,0,-1,1581,673,0,0
364,351,0,0,0,0,0,0,0,0,0,-1,1588,673,0,0
371,351,0,0,0,0,0,0,0,0,0,-1,1595,673,0,0
378,351,0,0,0,0,0,0,0,0,0,-1,1602,673,0,0
385,351,0,0,0,0,0,0,0,0,0,-1,1609,673,0,0
392,351,0,0,0,0,0,0,0,0,0,-1,1616,673,0,0
399,351,0,0,0,0,0,0,0,0,0,-1,1623,673,0,0
406,351,0,0,0,0,0,0,0,0,0,-1,1630,673,0,0
413,351,0,0,0,0,0,0,0,0,0,-1,1637,673,0,0
420,351,0,0,0,0,0,0,0,0,0,-1,1644,673,0,0
427,351,0,0,0,0,0,0,0,0,0,-1,1651,673,0,0
434,351,0,0,0,0,0,0,0,0,0,-1,1658,673,0,0
441,351,0,0,0,0,0,0,0,0,0,-1,1665,673,0,0
448,351,0,0,0,0,0,0,0,0,0,-1,1672,673,0,0
455,351,0,0,0,0,0,0,0,0,0,-1,1679,673,0,0
462,351,0,0,0,0,0,0,0,0,0,-1,1686,673,0,0
469,351,0,0,0,0,0,0,0,0,0,-1,1693,673,0,0
476,351,0,0,0,0,0,0,0,0,0,-1,1700,673,0,0
483,351,0,0,0,0,0,0,0,0,0,-1,1707,673,0,0
490,351,0,0,0,0,0,0,0,0,0,-1,1714,673,0,0
497,351,0,0,0,0,0,0,0,0,0,-1,1721,673,0,0
504,351,7.67847,1.11139,0,0,0,0,0,0,0,-1,1728,673,7.6785,-1.11141
511,351,8.7467,1.55829,0,0,0,0,0,0,0,-1,1735,673,8.74674,-1.55828
518,351,8.5105,1.3255,-0.00654772,0.00995354,-0.0437321,0.0462065,-0.0428007,-0.878634,0.0514008,0.0464234,1742,673,8.51053,-1.32552
525,351,8.36475,0.983826,-0.0114683,0.00926716,-0.0411736,0.0413583,-0.0435594,-0.908737,0.0490327,0.0481384,1749,673,8.36471,-0.983822
532,351,8.39063,0.674255,-0.0158622,0.00777589,-0.03735,0.0351323,-0.0432186,-0.938634,0.0453161,0.0461554,1756,673,8.39061,-0.67423
539,351,8.02356,0.707153,-0.0186984,0.00587052,-0.0328888,0.0286942,-0.041522,-0.964132,0.0407642,0.0443601,1763,673,8.02355,-0.707137
546,351,7.60815,0.484619,-0.0197675,0.00455347,-0.0288001,0.0236552,-0.0388692,-0.985162,0.036453,0.0470647,1770,673,7.60818,-0.484606
553,351,7.18652,0.0192261,0,0,0,0,0,0,0,-1,1777,673,7.18648,-0.0192004
560,351,6.52173,-0.488098,0,0,0,0,0,0,0,-1,1784,673,6.52177,0.488101
567,351,5.92383,-0.862427,0,0,0,0,0,0,0,-1,1791,673,5.92385,0.862403
574,351,5.04248,0.0378418,-0.0160562,-0.00241784,-0.0134219,0.00581787,-0.0242919,-1.02044,0.0184424,0.0434358,1798,673,5.0425,-0.0378493
581,351,4.69617,-0.152161,-0.0141472,-0.00306839,-0.010681,0.00342421,-0.0206398,-1.02462,0.0150319,0.0342726,1805,673,4.69618,0.15215
588,351,4.68652,-0.145447,-0.0111915,-0.0045137,-0.00819219,0.000993887,-0.016699,-0.978905,0.0114783,0.0185492,1812,673,4.68656,0.145444
595,351,4.68518,-0.105774,-0.00755093,-0.00470343,-0.00623175,0.000265142,-0.0125195,-0.897704,0.0084361,0.0132472,1819,673,4.68516,0.10578
602,351,4.6593,-0.0505371,-0.00397103,-0.0040814,-0.00453014,0.000504263,-0.00855669,-0.779308,0.00587976,0.0169702,1826,673,4.65931,0.0505147
609,351,4.67639,-0.0149536,-0.0032134,-0.00322468,-0.0032948,7.5765e-05,-0.00651384,-0.784543,0.00436804,0.0163891,1833,673,4.67638,0.0149566
616,351,4.66858,0.0699463,-0.00326648,-0.00225766,-0.00267525,-3.96855e-05,-0.00548446,-0.878578,0.00364315,0.0148742,1840,673,4.66858,-0.0699572
623,351,4.68311,0.185425,-0.0014423,-0.000916273,-0.00156986,0.000412457,-0.00277103,-0.868397,0.00199907,0.01548,1847,673,4.68315,-0.185416
630,351,4.70129,0.23584,-0.000223997,6.75697e-05,-0.000509874,0.000452092,-0.00060852,-0.924643,0.000614561,0.0244833,1854,673,4.70133,-0.235851
637,351,4.70764,0.314148,0.000229437,0.00116147,0.000205842,0.0012049,0.000186001,1.36283,0.000749007,0.0280062,1861,673,4.70767,-0.314159
644,351,4.68188,0.403381,0.00053312,0.00185517,0.000720857,0.0021722,0.000216092,1.15646,0.00138175,0.0201246,1868,673,4.68191,-0.403357
651,351,4.70618,0.470276,0.00162715,0.00239328,0.00166952,0.00372312,0.000297312,0.89817,0.00238915,0.015023,1875,673,4.70618,-0.470261
658,351,4.67505,0.565491,0.00375463,0.00322591,0.00287346,0.00637587,0.000604672,0.739527,0.00406404,0.0157167,1882,673,4.67506,-0.565512
665,351,4.57581,0.575928,0.00624758,0.00539742,0.00385218,0.00969806,0.00194694,0.730446,0.00592402,0.0201178,1889,673,4.57583,-0.575927
672,351,4.5885,0.670593,0.00948362,0.00828536,0.00539785,0.0143155,0.00345349,0.730127,0.0086261,0.025635,1896,673,4.58853,-0.670599
679,351,4.55078,0.905396,0.0141663,0.0116591,0.00746854,0.0204857,0.00533969,0.702247,0.0122708,0.0338045,1903,673,4.55084,-0.905384
686,351,4.53784,1.21729,0.0206098,0.016363,0.0104741,0.0291735,0.00779924,0.685387,0.0174406,0.042298,1910,673,4.53789,-1.2173
693,351,4.62744,1.51721,0,0,0,0,0,0,0,-1,1917,673,4.62745,-1.51721
700,351,4.69092,1.83435,0,0,0,0,0,0,0,-1,1924,673,4.69089,-1.83435
707,351,0,0,0,0,0,0,0,0,0,-1,1931,673,0,0
714,351,0,0,0,0,0,0,0,0,0,-1,1938,673,0,0
721,351,0,0,0,0,0,0,0,0,0,-1,1945,673,0,0
728,351,0,0,0,0,0,0,0,0,0,-1,1952,673,0,0
735,351,0,0,0,0,0,0,0,0,0,-1,1959,673,0,0
742,351,0,0,0,0,0,0,0,0,0,-1,1966,673,0,0
749,351,0,0,0,0,0,0,0,0,0,-1,1973,673,0,0
756,351,0,0,0,0,0,0,0,0,0,-1,1980,673,0,0
763,351,0,0,0,0,0,0,0,0,0,-1,1987,673,0,0
770,351,0,0,0,0,0,0,0,0,0,-1,1994,673,0,0
777,351,0,0,0,0,0,0,0,0,0,-1,2001,673,0,0
784,351,0,0,0,0,0,0,0,0,0,-1,2008,673,0,0
791,351,0,0,0,0,0,0,0,0,0,-1,2015,673,0,0
798,351,0,0,0,0,0,0,0,0,0,-1,2022,673,0,0
805,351,0,0,0,0,0,0,0,0,0,-1,2029,673,0,0
812,351,0,0,0,0,0,0,0,0,0,-1,2036,673,0,0
-700,344,0,0,0,0,0,0,0,0,0,-1,524,680,0,0
-693,344,0,0,0,0,0,0,0,0,0,-1,531,680,0,0
-686,344,0,0,0,0,0,0,0,0,0,-1,538,680,0,0
-679,344,0,0,0,0,0,0,0,0,0,-1,545,680,0,0
-672,344,0,0,0,0,0,0,0,0,0,-1,552,680,0,0
-665,344,0,0,0,0,0,0,0,0,0,-1,559,680,0,0
-658,344,0,0,0,0,0,0,0,0,0,-1,566,680,0,0
-651,344,0,0,0,0,0,0,0,0,0,-1,573,680,0,0
-644,344,0,0,0,0,0,0,0,0,0,-1,580,680,0,0
-637,344,0,0,0,0,0,0,0,0,0,-1,587,680,0,0
-630,344,0,0,0,0,0,0,0,0,0,-1,594,680,0,0
-623,344,0,0,0,0,0,0,0,0,0,-1,601,680,0,0
-616,344,0,0,0,0,0,0,0,0,0,-1,608,680,0,0
-609,344,0,0,0,0,0,0,0,0,0,-1,615,680,0,0
-602,344,0,0,0,0,0,0,0,0,0,-1,622,680,0,0
-595,344,0,0,0,0,0,0,0,0,0,-1,629,680,0,0
-588,344,-0.0616455,-0.955933,0,0,0,0,0,0,0,-1,636,680,-0.0616457,0.955954
-581,344,-0.0448608,-0.604858,0,0,0,0,0,0,0,-1,643,680,-0.0448636,0.604852
-574,344,0.312866,0.23938,0,0,0,0,0,0,0,-1,650,680,0.31287,-0.239376
-567,344,0.0670166,0.204346,0,0,0,0,0,0,0,-1,657,680,0.0670076,-0.204341
-560,344,0.0720825,2.19983,-0.00137145,0.0324621,-0.037892,0.0570421,-0.0259514,-0.995346,0.0490243,0.0410666,664,680,0.0721048,-2.19984
-553,344,-0.268188,0.288086,-0.000864883,0.0266811,-0.0312932,0.0470982,-0.021282,-0.992705,0.0404063,0.0460773,671,680,-0.268184,-0.288106
-546,344,0.0847778,0.590027,0,0,0,0,0,0,0,-1,678,680,0.0847633,-0.590029
-539,344,-0.322998,0.477478,-0.000405598,0.0166369,-0.0193225,0.0292337,-0.0130024,-0.99307,0.024978,0.0356534,685,680,-0.322981,-0.477493
-532,344,-0.436218,0.315796,0.000179795,0.012497,-0.0143914,0.0219921,-0.00931537,-0.987576,0.0185628,0.0183224,692,680,-0.436212,-0.315779
-525,344,-0.49646,0.20575,0.000304478,0.00903788,-0.0103679,0.0159212,-0.0065788,-0.984711,0.0133584,0.0148326,699,680,-0.496458,-0.205754
-518,344,-0.516968,0.0997314,0.000343382,0.00594669,-0.00695912,0.0106469,-0.00435687,-0.976766,0.00891259,0.0177547,706,680,-0.516939,-0.0997163
-511,344,-0.489319,0.0546875,0.000547736,0.00325888,-0.00397988,0.00610772,-0.0023011,-0.949539,0.00501791,0.0147105,713,680,-0.489337,-0.0546714
-504,344,-0.473206,-0.0297241,0.000596361,0.000604869,-0.00113999,0.00174061,-0.00053938,-0.787264,0.0013759,0.0146568,720,680,-0.473176,0.0297022
-497,344,-0.475586,-0.0848999,0.000756444,-0.00082762,0.000305346,0.000813265,-0.00088444,0.183982,0.000980458,0.0137501,727,680,-0.475577,0.0848896
-490,344,-0.501038,-0.137268,0.00128972,-0.00198818,0.00039242,0.00133604,-0.00203451,0.117505,0.00195987,0.0129184,734,680,-0.501063,0.137258
-483,344,-0.497314,-0.193665,0.00171331,-0.0027299,0.000298476,0.00173327,-0.00274986,0.0667759,0.00261042,0.0121334,741,680,-0.497299,0.193676
-476,344,-0.510376,-0.26062,0.00195425,-0.00326603,-7.76967e-05,0.00195541,-0.00326718,-0.0148792,0.0030468,0.012531,748,680,-0.510379,0.260593
-469,344,-0.504517,-0.347473,0.00192429,-0.00317345,-0.000746459,0.00203134,-0.00328051,-0.142446,0.00309494,0.011164,755,680,-0.504523,0.347468
-462,344,-0.491516,-0.413391,0.00189437,-0.00322114,-0.00175773,0.00244012,-0.00376689,-0.301046,0.0036108,0.0123368,762,680,-0.49149,0.413361
-455,344,-0.47876,-0.336487,0.00171311,-0.00265482,-0.0031817,0.00338827,-0.00432999,-0.484623,0.00446718,0.0250898,769,680,-0.478746,0.336512
-448,344,-0.409485,-0.177551,0.00127259,-0.00125786,-0.00510588,0.00526767,-0.00525294,-0.663946,0.00607408,0.0408384,776,680,-0.40949,0.177548
-441,344,-0.0488281,0.17865,0.000453861,0.00146062,-0.00767353,0.00864727,-0.00673278,-0.818151,0.00890257,0.044485,783,680,-0.0488501,-0.178652
-434,344,-0.213257,0.161194,0,0,0,0,0,0,0,-1,790,680,-0.213282,-0.161176
-427,344,-1.79321,-0.666199,0,0,0,0,0,0,0,-1,797,680,-1.79321,0.66619
-420,344,-1.00085,-1.07379,0,0,0,0,0,0,0,-1,804,680,-1.00087,1.07377
-413,344,1.32819,-0.4422,0,0,0,0,0,0,0,-1,811,680,1.32816,0.442179
-406,344,1.28223,0.207092,0,0,0,0,0,0,0,-1,818,680,1.28224,-0.207081
-399,344,0.722717,-0.0296631,0,0,0,0,0,0,0,-1,825,680,0.722717,0.0296552
-392,344,0.145996,-0.378296,0,0,0,0,0,0,0,-1,832,680,0.146013,0.37828
-385,344,0,0,0,0,0,0,0,0,0,-1,839,680,0,0
-378,344,0,0,0,0,0,0,0,0,0,-1,846,680,0,0
-371,344,0,0,0,0,0,0,0,0,0,-1,853,680,0,0
-364,344,0,0,0,0,0,0,0,0,0,-1,860,680,0,0
-357,344,0,0,0,0,0,0,0,0,0,-1,867,680,0,0
-350,344,0,0,0,0,0,0,0,0,0,-1,874,680,0,0
-343,344,0,0,0,0,0,0,0,0,0,-1,881,680,0,0
-336,344,0,0,0,0,0,0,0,0,0,-1,888,680,0,0
-329,344,0,0,0,0,0,0,0,0,0,-1,895,680,0,0
-322,344,0,0,0,0,0,0,0,0,0,-1,902,680,0,0
-315,344,0,0,0,0,0,0,0,0,0,-1,909,680,0,0
-308,344,0,0,0,0,0,0,0,0,0,-1,916,680,0,0
-301,344,0,0,0,0,0,0,0,0,0,-1,923,680,0,0
-294,344,0,0,0,0,0,0,0,0,0,-1,930,680,0,0
-287,344,0,0,0,0,0,0,0,0,0,-1,937,680,0,0
-280,344,0,0,0,0,0,0,0,0,0,-1,944,680,0,0
-273,344,0,0,0,0,0,0,0,0,0,-1,951,680,0,0
-266,344,0,0,0,0,0,0,0,0,0,-1,958,680,0,0
-259,344,0,0,0,0,0,0,0,0,0,-1,965,680,0,0
-252,344,0,0,0,0,0,0,0,0,0,-1,972,680,0,0
-245,344,0,0,0,0,0,0,0,0,0,-1,979,680,0,0
-238,344,0,0,0,0,0,0,0,0,0,-1,986,680,0,0
-231,344,0,0,0,0,0,0,0,0,0,-1,993,680,0,0
-224,344,0,0,0,0,0,0,0,0,0,-1,1000,680,0,0
-217,344,0,0,0,0,0,0,0,0,0,-1,1007,680,0,0
-210,344,0,0,0,0,0,0,0,0,0,-1,1014,680,0,0
-203,344,0,0,0,0,0,0,0,0,0,-1,1021,680,0,0
-196,344,0,0,0,0,0,0,0,0,0,-1,1028,680,0,0
-189,344,0,0,0,0,0,0,0,0,0,-1,1035,680,0,0
-182,344,0,0,0,0,0,0,0,0,0,-1,1042,680,0,0
-175,344,0,0,0,0,0,0,0,0,0,-1,1049,680,0,0
-168,344,0,0,0,0,0,0,0,0,0,-1,1056,680,0,0
-161,344,0,0,0,0,0,0,0,0,0,-1,1063,680,0,0
-154,344,0,0,0,0,0,0,0,0,0,-1,1070,680,0,0
-147,344,0,0,0,0,0,0,0,0,0,-1,1077,680,0,0
-140,344,0,0,0,0,0,0,0,0,0,-1,1084,680,0,0
-133,344,0,0,0,0,0,0,0,0,0,-1,1091,680,0,0
-126,344,0,0,0,0,0,0,0,0,0,-1,1098,680,0,0
-119,344,0,0,0,0,0,0,0,0,0,-1,1105,680,0,0
-112,344,0,0,0,0,0,0,0,0,0,-1,1112,680,0,0
-105,344,0,0,0,0,0,0,0,0,0,-1,1119,680,0,0
-98,344,0,0,0,0,0,0,0,0,0,-1,1126,680,0,0
-91,344,0,0,0,0,0,0,0,0,0,-1,1133,680,0,0
-84,344,0,0,0,0,0,0,0,0,0,-1,1140,680,0,0
-77,344,0,0,0,0,0,0,0,0,0,-1,1147,680,0,0
-70,344,0,0,0,0,0,0,0,0,0,-1,1154,680,0,0
-63,344,0,0,0,0,0,0,0,0,0,-1,1161,680,0,0
-56,344,0,0,0,0,0,0,0,0,0,-1,1168,680,0,0
-49,344,0,0,0,0,0,0,0,0,0,-1,1175,680,0,0
-42,344,0,0,0,0,0,0,0,0,0,-1,1182,680,0,0
-35,344,0,0,0,0,0,0,0,0,0,-1,1189,680,0,0
-28,344,0,0,0,0,0,0,0,0,0,-1,1196,680,0,0
-21,344,0,0,0,0,0,0,0,0,0,-1,1203,680,0,0
-14,344,0,0,0,0,0,0,0,0,0,-1,1210,680,0,0
-7,344,0,0,0,0,0,0,0,0,0,-1,1217,680,0,0
0,344,0,0,0,0,0,0,0,0,0,-1,1224,680,0,0
7,344,0,0,0,0,0,0,0,0,0,-1,1231,680,0,0
14,344,0,0,0,0,0,0,0,0,0,-1,1238,680,0,0
21,344,0,0,0,0,0,0,0,0,0,-1,1245,680,0,0
28,344,0,0,0,0,0,0,0,0,0,-1,1252,680,0,0
35,344,0,0,0,0,0,0,0,0,0,-1,1259,680,0,0
42,344,0,0,0,0,0,0,0,0,0,-1,1266,680,0,0
49,344,0,0,0,0,0,0,0,0,0,-1,1273,680,0,0
56,344,0,0,0,0,0,0,0,0,0,-1,1280,680,0,0
63,344,0,0,0,0,0,0,0,0,0,-1,1287,680,0,0
70,344,0,0,0,0,0,0,0,0,0,-1,1294,680,0,0
77,344,0,0,0,0,0,0,0,0,0,-1,1301,680,0,0
84,344,0,0,0,0,0,0,0,0,0,-1,1308,680,0,0
91,344,0,0,0,0,0,0,0,0,0,-1,1315,680,0,0
98,344,0,0,0,0,0,0,0,0,0,-1,1322,680,0,0
105,344,0,0,0,0,0,0,0,0,0,-1,1329,680,0,0
112,344,0,0,0,0,0,0,0,0,0,-1,1336,680,0,0
119,344,0,0,0,0,0,0,0,0,0,-1,1343,680,0,0
126,344,0,0,0,0,0,0,0,0,0,-1,1350,680,0,0
133,344,0,0,0,0,0,0,0,0,0,-1,1357,680,0,0
140,344,0,0,0,0,0,0,0,0,0,-1,1364,680,0,0
147,344,0,0,0,0,0,0,0,0,0,-1,1371,680,0,0
154,344,0,0,0,0,0,0,0,0,0,-1,1378,680,0,0
161,344,0,0,0,0,0,0,0,0,0,-1,1385,680,0,0
168,344,0,0,0,0,0,0,0,0,0,-1,1392,680,0,0
175,344,0,0,0,0,0,0,0,0,0,-1,1399,680,0,0
182,344,0,0,0,0,0,0,0,0,0,-1,1406,680,0,0
189,344,0,0,0,0,0,0,0,0,0,-1,1413,680,0,0
196,344,0,0,0,0,0,0,0,0,0,-1,1420,680,0,0
203,344,0,0,0,0,0,0,0,0,0,-1,1427,680,0,0
210,344,0,0,0,0,0,0,0,0,0,-1,1434,680,0,0
217,344,0,0,0,0,0,0,0,0,0,-1,1441,680,0,0
224,344,0,0,0,0,0,0,0,0,0,-1,1448,680,0,0
231,344,0,0,0,0,0,0,0,0,0,-1,1455,680,0,0
238,344,0,0,0,0,0,0,0,0,0,-1,1462,680,0,0
245,344,0,0,0,0,0,0,0,0,0,-1,1469,680,0,0
252,344,0,0,0,0,0,0,0,0,0,-1,1476,680,0,0
259,344,0,0,0,0,0,0,0,0,0,-1,1483,680,0,0
266,344,0,0,0,0,0,0,0,0,0,-1,1490,680,0,0
273,344,0,0,0,0,0,0,0,0,0,-1,1497,680,0,0
280,344,0,0,0,0,0,0,0,0,0,-1,1504,680,0,0
287,344,0,0,0,0,0,0,0,0,0,-1,1511,680,0,0
294,344,0,0,0,0,0,0,0,0,0,-1,1518,680,0,0
301,344,0,0,0,0,0,0,0,0,0,-1,1525,680,0,0
308,344,0,0,0,0,0,0,0,0,0,-1,1532,680,0,0
315,344,0,0,0,0,0,0,0,0,0,-1,1539,680,0,0
322,344,0,0,0,0,0,0,0,0,0,-1,1546,680,0,0
329,344,0,0,0,0,0,0,0,0,0,-1,1553,680,0,0
336,344,0,0,0,0,0,0,0,0,0,-1,1560,680,0,0
343,344,0,0,0,0,0,0,0,0,0,-1,1567,680,0,0
350,344,0,0,0,0,0,0,0,0,0,-1,1574,680,0,0
357,344,0,0,0,0,0,0,0,0,0,-1,1581,680,0,0
364,344,0,0,0,0,0,0,0,0,0,-1,1588,680,0,0
371,344,0,0,0,0,0,0,0,0,0,-1,1595,680,0,0
378,344,0,0,0,0,0,0,0,0,0,-1,1602,680,0,0
385,344,0,0,0,0,0,0,0,0,0,-1,1609,680,0,0
392,344,0,0,0,0,0,0,0,0,0,-1,1616,680,0,0
399,344,0,0,0,0,0,0,0,0,0,-1,1623,680,0,0
406,344,0,0,0,0,0,0,0,0,0,-1,1630,680,0,0
413,344,0,0,0,0,0,0,0,0,0,-1,1637,680,0,0
420,344,0,0,0,0,0,0,0,0,0,-1,1644,680,0,0
427,344,0,0,0,0,0,0,0,0,0,-1,1651,680,0,0
434,344,0,0,0,0,0,0,0,0,0,-1,1658,680,0,0
441,344,0,0,0,0,0,0,0,0,0,-1,1665,680,0,0
448,344,0,0,0,0,0,0,0,0,0,-1,1672,680,0,0
455,344,0,0,0,0,0,0,0,0,0,-1,1679,680,0,0
462,344,0,0,0,0,0,0,0,0,0,-1,1686,680,0,0
469,344,0,0,0,0,0,0,0,0,0,-1,1693,680,0,0
476,344,0,0,0,0,0,0,0,0,0,-1,1700,680,0,0
483,344,0,0,0,0,0,0,0,0,0,-1,1707,680,0,0
490,344,0,0,0,0,0,0,0,0,0,-1,1714,680,0,0
497,344,0,0,0,0,0,0,0,0,0,-1,1721,680,0,0
504,344,0,0,0,0,0,0,0,0,0,-1,1728,680,0,0
511,344,8.13904,1.15338,0,0,0,0,0,0,0,-1,1735,680,8.13903,-1.15339
518,344,8.46973,1.34534,0,0,0,0,0,0,0,-1,1742,680,8.46971,-1.34534
525,344,8.28149,1.11926,-0.0115209,0.0202898,-0.0408874,0.0482566,-0.0394876,-0.970893,0.0507434,0.0474164,1749,680,8.28152,-1.11925
532,344,8.33862,0.860229,-0.0154112,0.0168567,-0.0376889,0.0417197,-0.0402743,-0.987638,0.0473417,0.0467728,1756,680,8.33861,-0.860241
539,344,10.1526,0.885193,-0.017865,0.0132677,-0.0336474,0.034775,-0.0393724,-1.00205,0.0428364,0.045327,1763,680,10.1526,-0.885199
546,344,7.47791,1.04047,-0.0186262,0.0105209,-0.0297336,0.0290604,-0.0371657,-1.01326,0.038331,0.0416924,1770,680,7.47791,-1.04045
553,344,7.30115,-0.27887,0,0,0,0,0,0,0,-1,1777,680,7.3012,0.278873
560,344,6.84216,-0.18042,0,0,0,0,0,0,0,-1,1784,680,6.84211,0.180413
567,344,6.35034,-0.0848999,-0.0157829,0.00159285,-0.0183193,0.01318,-0.02737,-1.00681,0.0238846,0.044525,1791,680,6.35029,0.0848698
574,344,5.65881,0.19519,-0.0142089,-0.000272036,-0.0150132,0.00931117,-0.0237921,-1.00268,0.0197123,0.0455847,1798,680,5.65883,-0.195218
581,344,4.93213,-0.0509033,-0.0125132,-0.00160229,-0.0123348,0.00642963,-0.0205451,-0.993607,0.0162691,0.0434855,1805,680,4.93212,0.0508772
588,344,4.82324,-0.0521851,-0.00983196,-0.00393205,-0.00981661,0.00336827,-0.0171323,-0.931359,0.0126941,0.0340974,1812,680,4.82323,0.0521896
595,344,4.79944,-0.0811768,-0.00651855,-0.00471857,-0.00778326,0.00221656,-0.0134537,-0.842958,0.00979196,0.0190148,1819,680,4.79949,0.0811953
602,344,4.8064,-0.0289917,-0.00322077,-0.00473183,-0.00577075,0.0018437,-0.0097963,-0.720307,0.00722428,0.0185619,1826,680,4.80634,0.0289861
609,344,4.77075,0.00415039,-0.00296198,-0.00421724,-0.00423696,0.000693579,-0.0078728,-0.711866,0.00549434,0.0155578,1833,680,4.77075,-0.00413441
616,344,4.76563,0.0697021,-0.0036322,-0.00325939,-0.003547,0.000106104,-0.00699769,-0.811651,0.0047009,0.0208439,1840,680,4.76561,-0.0697117
623,344,4.7821,0.182007,-0.0015556,-0.00188616,-0.00221691,0.000502188,-0.00394394,-0.748189,0.00281168,0.0178731,1847,680,4.78207,-0.182014
630,344,4.77246,0.235596,-0.000130706,-0.000871963,-0.00096081,0.000528482,-0.00153115,-0.601319,0.00123521,0.0229904,1854,680,4.77242,-0.235608
637,344,4.79395,0.290161,0.000286415,0.000237007,-0.000172175,0.000435649,8.77728e-05,-0.714143,0.000266046,0.0223303,1861,680,4.79397,-0.290175
644,344,4.77588,0.39093,0.000456257,0.00083087,0.000340709,0.00103237,0.000254762,1.03673,0.000620994,0.0149305,1868,680,4.77588,-0.390905
651,344,4.78442,0.480347,0.00134032,0.00122597,0.00116713,0.00245168,0.000114612,0.760923,0.00159762,0.0106509,1875,680,4.78437,-0.480374
658,344,4.76074,0.569702,0.00318691,0.00186369,0.00208136,0.00470929,0.000341314,0.631511,0.00303216,0.013854,1882,680,4.76074,-0.569708
665,344,4.74695,0.642822,0.00522428,0.00395936,0.00265537,0.00732147,0.00186217,0.668485,0.00439382,0.0184218,1889,680,4.74697,-0.642809
672,344,4.74414,0.671936,0.00777014,0.00668944,0.00360954,0.0108796,0.00358003,0.7111,0.00640251,0.0132794,1896,680,4.74419,-0.671932
679,344,4.68384,0.765381,0.0115357,0.00983382,0.00480788,0.0155674,0.00580216,0.697811,0.00908438,0.0273278,1903,680,4.68387,-0.765365
686,344,4.828,1.16907,0.0167032,0.0143553,0.0066409,0.0222731,0.00878541,0.697915,0.0129546,0.0403881,1910,680,4.82803,-1.16905
693,344,5.03149,1.53729,0,0,0,0,0,0,0,-1,1917,680,5.03152,-1.53728
700,344,5.49231,-0.324219,0,0,0,0,0,0,0,-1,1924,680,5.49232,0.324231
707,344,5.79614,0.364746,0,0,0,0,0,0,0,-1,1931,680,5.79613,-0.364765
714,344,0,0,0,0,0,0,0,0,0,-1,1938,680,0,0
721,344,0,0,0,0,0,0,0,0,0,-1,1945,680,0,0
728,344,0,0,0,0,0,0,0,0,0,-1,1952,680,0,0
735,344,0,0,0,0,0,0,0,0,0,-1,1959,680,0,0
742,344,0,0,0,0,0,0,0,0,0,-1,1966,680,0,0
749,344,0,0,0,0,0,0,0,0,0,-1,1973,680,0,0
756,344,0,0,0,0,0,0,0,0,0,-1,1980,680,0,0
763,344,0,0,0,0,0,0,0,0,0,-1,1987,680,0,0
770,344,0,0,0,0,0,0,0,0,0,-1,1994,680,0,0
777,344,0,0,0,0,0,0,0,0,0,-1,2001,680,0,0
784,344,0,0,0,0,0,0,0,0,0,-1,2008,680,0,0
791,344,0,0,0,0,0,0,0,0,0,-1,2015,680,0,0
798,344,0,0,0,0,0,0,0,0,0,-1,2022,680,0,0
805,344,0,0,0,0,0,0,0,0,0,-1,2029,680,0,0
812,344,0,0,0,0,0,0,0,0,0,-1,2036,680,0,0
-700,337,0,0,0,0,0,0,0,0,0,-1,524,687,0,0
-693,337,0,0,0,0,0,0,0,0,0,-1,531,687,0,0
-686,337,0,0,0,0,0,0,0,0,0,-1,538,687,0,0
-679,337,0,0,0,0,0,0,0,0,0,-1,545,687,0,0
-672,337,0,0,0,0,0,0,0,0,0,-1,552,687,0,0
-665,337,0,0,0,0,0,0,0,0,0,-1,559,687,0,0
-658,337,0,0,0,0,0,0,0,0,0,-1,566,687,0,0
-651,337,0,0,0,0,0,0,0,0,0,-1,573,687,0,0
-644,337,0,0,0,0,0,0,0,0,0,-1,580,687,0,0
-637,337,0,0,0,0,0,0,0,0,0,-1,587,687,0,0
-630,337,0,0,0,0,0,0,0,0,0,-1,594,687,0,0
-623,337,0,0,0,0,0,0,0,0,0,-1,601,687,0,0
-616,337,0,0,0,0,0,0,0,0,0,-1,608,687,0,0
-609,337,0,0,0,0,0,0,0,0,0,-1,615,687,0,0
-602,337,0,0,0,0,0,0,0,0,0,-1,622,687,0,0
-595,337,0,0,0,0,0,0,0,0,0,-1,629,687,0,0
-588,337,-0.849182,0.845154,0,0,0,0,0,0,0,-1,636,687,-0.849174,-0.84518
-581,337,-0.731567,1.57794,0,0,0,0,0,0,0,-1,643,687,-0.73158,-1.57796
-574,337,0.0146484,0.672974,-0.00804601,0.0388407,-0.0400116,0.061771,-0.0309764,-1.0504,0.0545227,0.0496305,650,687,0.0146189,-0.673004
-567,337,-0.16449,0.55188,-0.00590289,0.0334596,-0.0348028,0.0537607,-0.026204,-1.04273,0.0470725,0.0454529,657,687,-0.164517,-0.551858
-560,337,-0.48584,0.284851,-0.00415987,0.0282321,-0.0295334,0.0457189,-0.0216467,-1.0362,0.0397126,0.0439057,664,687,-0.485811,-0.284848
-553,337,-0.520569,0.484558,-0.0029459,0.0232731,-0.0244316,0.0378902,-0.0175629,-1.03164,0.032725,0.0460055,671,687,-0.520549,-0.484528
-546,337,-0.580627,0.467957,-0.00235753,0.0186634,-0.01965,0.0304373,-0.0141314,-1.03098,0.0262996,0.0383385,678,687,-0.580643,-0.467959
-539,337,-0.575562,0.360352,-0.00168375,0.0144764,-0.0151518,0.0235679,-0.0107753,-1.03035,0.0202814,0.0225842,685,687,-0.575569,-0.360325
-532,337,-0.559814,0.27655,-0.000787251,0.0107336,-0.0112556,0.0176172,-0.0076709,-1.02191,0.0149718,0.0125918,692,687,-0.559822,-0.276533
-525,337,-0.590881,0.17218,-0.000471182,0.00761716,-0.00808382,0.012612,-0.005466,-1.01733,0.0107057,0.0140672,699,687,-0.590858,-0.17215
-518,337,-0.623779,0.0789185,-0.000282153,0.00482925,-0.00529081,0.00814928,-0.00360219,-1.01039,0.00695196,0.0209802,706,687,-0.623787,-0.0788929
-511,337,-0.572815,0.052124,9.1381e-05,0.00234767,-0.0027904,0.00422935,-0.0017903,-0.9775,0.00356927,0.0204289,713,687,-0.572788,-0.0521284
-504,337,-0.552795,-0.0288086,0.000333526,-0.000148927,-0.0004307,0.000585952,-0.000401353,-0.530124,0.000573332,0.0197074,720,687,-0.552777,0.0288201
-497,337,-0.549561,-0.09198,0.000657007,-0.001524,0.000768594,0.000900645,-0.00176764,0.306972,0.00156741,0.0144332,727,687,-0.549536,0.0919906
-490,337,-0.581909,-0.143127,0.00125015,-0.00266746,0.000773892,0.00139748,-0.00281479,0.188131,0.00247742,0.0131271,734,687,-0.581891,0.143154
-483,337,-0.580872,-0.205505,0.00176389,-0.00335586,0.000581622,0.00182914,-0.0034211,0.111707,0.00307732,0.0134483,741,687,-0.580871,0.205535
-476,337,-0.571045,-0.279297,0.00209657,-0.00371371,-5.5866e-05,0.00209711,-0.00371425,-0.00961383,0.00339821,0.0118972,748,687,-0.571054,0.279284
-469,337,-0.564392,-0.371643,0.00218085,-0.00329551,-0.00112366,0.00240244,-0.00351711,-0.194706,0.00343779,0.0114515,755,687,-0.564366,0.371617
-462,337,-0.585388,-0.418152,0.00229437,-0.00289414,-0.00259937,0.00337256,-0.00397233,-0.393191,0.00424529,0.0223137,762,687,-0.585392,0.41818
-455,337,-0.582153,-0.236694,0.00218555,-0.00174277,-0.00463781,0.00525797,-0.00481519,-0.585094,0.00581762,0.0399363,769,687,-0.582181,0.236704
-448,337,0.175659,0.400574,0,0,0,0,0,0,0,-1,776,687,0.175686,-0.400568
-441,337,-0.0870972,0.0227051,0.000812574,0.00359452,-0.0107809,0.0130738,-0.00866672,-0.849555,0.0126376,0.048173,783,687,-0.0871179,-0.0226811
-434,337,-0.306091,-0.308411,-0.000817254,0.00802271,-0.0149004,0.0191448,-0.0119394,-0.929582,0.0181065,0.0452932,790,687,-0.30609,0.30839
-427,337,-0.477173,-0.75238,0,0,0,0,0,0,0,-1,797,687,-0.477203,0.752383
-420,337,-0.783875,-1.30902,0,0,0,0,0,0,0,-1,804,687,-0.783889,1.30902
-413,337,-1.14246,-1.09131,0,0,0,0,0,0,0,-1,811,687,-1.14243,1.09132
-406,337,2.46368,0.559753,0,0,0,0,0,0,0,-1,818,687,2.46369,-0.559753
-399,337,1.46704,0.0298462,0,0,0,0,0,0,0,-1,825,687,1.46703,-0.0298169
-392,337,0,0,0,0,0,0,0,0,0,-1,832,687,0,0
-385,337,0,0,0,0,0,0,0,0,0,-1,839,687,0,0
-378,337,0,0,0,0,0,0,0,0,0,-1,846,687,0,0
-371,337,0,0,0,0,0,0,0,0,0,-1,853,687,0,0
-364,337,0,0,0,0,0,0,0,0,0,-1,860,687,0,0
-357,337,0,0,0,0,0,0,0,0,0,-1,867,687,0,0
-350,337,0,0,0,0,0,0,0,0,0,-1,874,687,0,0
-343,337,0,0,0,0,0,0,0,0,0,-1,881,687,0,0
-336,337,0,0,0,0,0,0,0,0,0,-1,888,687,0,0
-329,337,0,0,0,0,0,0,0,0,0,-1,895,687,0,0
-322,337,0,0,0,0,0,0,0,0,0,-1,902,687,0,0
-315,337,0,0,0,0,0,0,0,0,0,-1,909,687,0,0
-308,337,0,0,0,0,0,0,0,0,0,-1,916,687,0,0
-301,337,0,0,0,0,0,0,0,0,0,-1,923,687,0,0
-294,337,0,0,0,0,0,0,0,0,0,-1,930,687,0,0
-287,337,0,0,0,0,0,0,0,0,0,-1,937,687,0,0
-280,337,0,0,0,0,0,0,0,0,0,-1,944,687,0,0
-273,337,0,0,0,0,0,0,0,0,0,-1,951,687,0,0
-266,337,0,0,0,0,0,0,0,0,0,-1,958,687,0,0
-259,337,0,0,0,0,0,0,0,0,0,-1,965,687,0,0
-252,337,0,0,0,0,0,0,0,0,0,-1,972,687,0,0
-245,337,0,0,0,0,0,0,0,0,0,-1,979,687,0,0
-238,337,0,0,0,0,0,0,0,0,0,-1,986,687,0,0
-231,337,0,0,0,0,0,0,0,0,0,-1,993,687,0,0
-224,337,0,0,0,0,0,0,0,0,0,-1,1000,687,0,0
-217,337,0,0,0,0,0,0,0,0,0,-1,1007,687,0,0
-210,337,0,0,0,0,0,0,0,0,0,-1,1014,687,0,0
-203,337,0,0,0,0,0,0,0,0,0,-1,1021,687,0,0
-196,337,0,0,0,0,0,0,0,0,0,-1,1028,687,0,0
-189,337,0,0,0,0,0,0,0,0,0,-1,1035,687,0,0
-182,337,0,0,0,0,0,0,0,0,0,-1,1042,687,0,0
-175,337,0,0,0,0,0,0,0,0,0,-1,1049,687,0,0
-168,337,0,0,0,0,0,0,0,0,0,-1,1056,687,0,0
-161,337,0,0,0,0,0,0,0,0,0,-1,1063,687,0,0
-154,337,0,0,0,0,0,0,0,0,0,-1,1070,687,0,0
-147,337,0,0,0,0,0,0,0,0,0,-1,1077,687,0,0
-140,337,0,0,0,0,0,0,0,0,0,-1,1084,687,0,0
-133,337,0,0,0,0,0,0,0,0,0,-1,1091,687,0,0
-126,337,0,0,0,0,0,0,0,0,0,-1,1098,687,0,0
-119,337,0,0,0,0,0,0,0,0,0,-1,1105,687,0,0
-112,337,0,0,0,0,0,0,0,0,0,-1,1112,687,0,0
-105,337,0,0,0,0,0,0,0,0,0,-1,1119,687,0,0
-98,337,0,0,0,0,0,0,0,0,0,-1,1126,687,0,0
-91,337,0,0,0,0,0,0,0,0,0,-1,1133,687,0,0
-84,337,0,0,0,0,0,0,0,0,0,-1,1140,687,0,0
-77,337,0,0,0,0,0,0,0,0,0,-1,1147,687,0,0
-70,337,0,0,0,0,0,0,0,0,0,-1,1154,687,0,0
-63,337,0,0,0,0,0,0,0,0,0,-1,1161,687,0,0
-56,337,0,0,0,0,0,0,0,0,0,-1,1168,687,0,0
-49,337,0,0,0,0,0,0,0,0,0,-1,1175,687,0,0
-42,337,0,0,0,0,0,0,0,0,0,-1,1182,687,0,0
-35,337,0,0,0,0,0,0,0,0,0,-1,1189,687,0,0
-28,337,0,0,0,0,0,0,0,0,0,-1,1196,687,0,0
-21,337,0,0,0,0,0,0,0,0,0,-1,1203,687,0,0
-14,337,0,0,0,0,0,0,0,0,0,-1,1210,687,0,0
-7,337,0,0,0,0,0,0,0,0,0,-1,1217,687,0,0
0,337,0,0,0,0,0,0,0,0,0,-1,1224,687,0,0
7,337,0,0,0,0,0,0,0,0,0,-1,1231,687,0,0
14,337,0,0,0,0,0,0,0,0,0,-1,1238,687,0,0
21,337,0,0,0,0,0,0,0,0,0,-1,1245,687,0,0
28,337,0,0,0,0,0,0,0,0,0,-1,1252,687,0,0
35,337,0,0,0,0,0,0,0,0,0,-1,1259,687,0,0
42,337,0,0,0,0,0,0,0,0,0,-1,1266,687,0,0
49,337,0,0,0,0,0,0,0,0,0,-1,1273,687,0,0
56,337,0,0,0,0,0,0,0,0,0,-1,1280,687,0,0
63,337,0,0,0,0,0,0,0,0,0,-1,1287,687,0,0
70,337,0,0,0,0,0,0,0,0,0,-1,1294,687,0,0
77,337,0,0,0,0,0,0,0,0,0,-1,1301,687,0,0
84,337,0,0,0,0,0,0,0,0,0,-1,1308,687,0,0
91,337,0,0,0,0,0,0,0,0,0,-1,1315,687,0,0
98,337,0,0,0,0,0,0,0,0,0,-1,1322,687,0,0
105,337,0,0,0,0,0,0,0,0,0,-1,1329,687,0,0
112,337,0,0,0,0,0,0,0,0,0,-1,1336,687,0,0
119,337,0,0,0,0,0,0,0,0,0,-1,1343,687,0,0
126,337,0,0,0,0,0,0,0,0,0,-1,1350,687,0,0
133,337,0,0,0,0,0,0,0,0,0,-1,1357,687,0,0
140,337,0,0,0,0,0,0,0,0,0,-1,1364,687,0,0
147,337,0,0,0,0,0,0,0,0,0,-1,1371,687,0,0
154,337,0,0,0,0,0,0,0,0,0,-1,1378,687,0,0
161,337,0,0,0,0,0,0,0,0,0,-1,1385,687,0,0
168,337,0,0,0,0,0,0,0,0,0,-1,1392,687,0,0
175,337,0,0,0,0,0,0,0,0,0,-1,1399,687,0,0
182,337,0,0,0,0,0,0,0,0,0,-1,1406,687,0,0
189,337,0,0,0,0,0,0,0,0,0,-1,1413,687,0,0
196,337,0,0,0,0,0,0,0,0,0,-1,1420,687,0,0
203,337,0,0,0,0,0,0,0,0,0,-1,1427,687,0,0
210,337,0,0,0,0,0,0,0,0,0,-1,1434,687,0,0
217,337,0,0,0,0,0,0,0,0,0,-1,1441,687,0,0
224,337,0,0,0,0,0,0,0,0,0,-1,1448,687,0,0
231,337,0,0,0,0,0,0,0,0,0,-1,1455,687,0,0
238,337,0,0,0,0,0,0,0,0,0,-1,1462,687,0,0
245,337,0,0,0,0,0,0,0,0,0,-1,1469,687,0,0
252,337,0,0,0,0,0,0,0,0,0,-1,1476,687,0,0
259,337,0,0,0,0,0,0,0,0,0,-1,1483,687,0,0
266,337,0,0,0,0,0,0,0,0,0,-1,1490,687,0,0
273,337,0,0,0,0,0,0,0,0,0,-1,1497,687,0,0
280,337,0,0,0,0,0,0,0,0,0,-1,1504,687,0,0
287,337,0,0,0,0,0,0,0,0,0,-1,1511,687,0,0
294,337,0,0,0,0,0,0,0,0,0,-1,1518,687,0,0
301,337,0,0,0,0,0,0,0,0,0,-1,1525,687,0,0
308,337,0,0,0,0,0,0,0,0,0,-1,1532,687,0,0
315,337,0,0,0,0,0,0,0,0,0,-1,1539,687,0,0
322,337,0,0,0,0,0,0,0,0,0,-1,1546,687,0,0
329,337,0,0,0,0,0,0,0,0,0,-1,1553,687,0,0
336,337,0,0,0,0,0,0,0,0,0,-1,1560,687,0,0
343,337,0,0,0,0,0,0,0,0,0,-1,1567,687,0,0
350,337,0,0,0,0,0,0,0,0,0,-1,1574,687,0,0
357,337,0,0,0,0,0,0,0,0,0,-1,1581,687,0,0
364,337,0,0,0,0,0,0,0,0,0,-1,1588,687,0,0
371,337,0,0,0,0,0,0,0,0,0,-1,1595,687,0,0
378,337,0,0,0,0,0,0,0,0,0,-1,1602,687,0,0
385,337,0,0,0,0,0,0,0,0,0,-1,1609,687,0,0
392,337,0,0,0,0,0,0,0,0,0,-1,1616,687,0,0
399,337,0,0,0,0,0,0,0,0,0,-1,1623,687,0,0
406,337,0,0,0,0,0,0,0,0,0,-1,1630,687,0,0
413,337,0,0,0,0,0,0,0,0,0,-1,1637,687,0,0
420,337,0,0,0,0,0,0,0,0,0,-1,1644,687,0,0
427,337,0,0,0,0,0,0,0,0,0,-1,1651,687,0,0
434,337,0,0,0,0,0,0,0,0,0,-1,1658,687,0,0
441,337,0,0,0,0,0,0,0,0,0,-1,1665,687,0,0
448,337,0,0,0,0,0,0,0,0,0,-1,1672,687,0,0
455,337,0,0,0,0,0,0,0,0,0,-1,1679,687,0,0
462,337,0,0,0,0,0,0,0,0,0,-1,1686,687,0,0
469,337,0,0,0,0,0,0,0,0,0,-1,1693,687,0,0
476,337,0,0,0,0,0,0,0,0,0,-1,1700,687,0,0
483,337,0,0,0,0,0,0,0,0,0,-1,1707,687,0,0
490,337,0,0,0,0,0,0,0,0,0,-1,1714,687,0,0
497,337,0,0,0,0,0,0,0,0,0,-1,1721,687,0,0
504,337,0,0,0,0,0,0,0,0,0,-1,1728,687,0,0
511,337,0,0,0,0,0,0,0,0,0,-1,1735,687,0,0
518,337,10.3623,1.35291,0,0,0,0,0,0,0,-1,1742,687,10.3623,-1.35289
525,337,11.6083,0.0722046,0,0,0,0,0,0,0,-1,1749,687,11.6083,-0.0722204
532,337,10.7448,1.03729,-0.0114513,0.027889,-0.037158,0.0502621,-0.0338243,-1.02883,0.0488555,0.0417517,1756,687,10.7447,-1.03732
539,337,10.2637,0.735046,-0.0140012,0.0219045,-0.0335867,0.0420354,-0.0341321,-1.03084,0.0440542,0.0429187,1763,687,10.2637,-0.735054
546,337,9.37659,0.605286,-0.0147101,0.0172569,-0.0299187,0.0351939,-0.0326472,-1.03073,0.0391773,0.0434644,1770,687,9.37656,-0.6053
553,337,8.50122,0.432922,-0.0141973,0.0126217,-0.0259013,0.0283789,-0.0299544,-1.02426,0.0336828,0.043161,1777,687,8.50123,-0.432911
560,337,7.19031,0.164429,0,0,0,0,0,0,0,-1,1784,687,7.19033,-0.164426
567,337,6.96289,0.357178,0,0,0,0,0,0,0,-1,1791,687,6.96291,-0.357169
574,337,6.10449,0.446106,0,0,0,0,0,0,0,-1,1798,687,6.10449,-0.446106
581,337,5.04443,0.251221,0,0,0,0,0,0,0,-1,1805,687,5.04443,-0.251241
588,337,4.80762,0.0334473,-0.00667354,-0.00301725,-0.0111439,0.00644749,-0.0161383,-0.866698,0.013434,0.0490815,1812,687,4.80762,-0.0334332
595,337,4.88745,-0.0359497,-0.00408615,-0.00441215,-0.00914473,0.00489704,-0.0133953,-0.776487,0.0109344,0.0386302,1819,687,4.88746,0.0359309
602,337,4.84583,-0.0357056,-0.00151117,-0.00510212,-0.00692884,0.00385105,-0.0104643,-0.658622,0.00855392,0.0171874,1826,687,4.84579,0.035721
609,337,4.83789,0.041748,-0.00220869,-0.00508569,-0.00512243,0.0016734,-0.00896777,-0.648512,0.00660733,0.0174112,1833,687,4.83787,-0.0417665
616,337,4.83008,0.124268,-0.00397967,-0.00425088,-0.00445272,0.000339508,-0.00857006,-0.770176,0.00582984,0.0160236,1840,687,4.83014,-0.124252
623,337,4.84741,0.177979,-0.00177134,-0.00287357,-0.0029254,0.00065441,-0.00529931,-0.692295,0.00376999,0.0134175,1847,687,4.84746,-0.177965
630,337,4.84961,0.245728,-0.000237779,-0.00184568,-0.00150948,0.000668491,-0.00275195,-0.540704,0.00209335,0.0179143,1854,687,4.8496,-0.245756
637,337,4.87891,0.325439,9.94604e-05,-0.000678397,-0.000662427,0.000478695,-0.00105763,-0.519948,0.000907749,0.0162612,1861,687,4.87895,-0.325434
644,337,4.8623,0.406067,0.000140255,-0.000108545,-0.000148966,0.000209932,-0.000178222,-0.437511,0.00022435,0.0104304,1868,687,4.86236,-0.406077
651,337,4.84802,0.472168,0.000834476,0.000233485,0.000543018,0.0011546,-8.66373e-05,0.532681,0.000800176,0.00935386,1875,687,4.84806,-0.472168
658,337,4.84155,0.542786,0.00243749,0.000778211,0.00115709,0.00303164,0.000184066,0.474374,0.00196262,0.0108606,1882,687,4.84153,-0.542763
665,337,4.85364,0.606628,0.00413211,0.00288826,0.00136071,0.00500628,0.00201408,0.571044,0.00290871,0.0127439,1889,687,4.85367,-0.606625
672,337,4.83887,0.6745,0.00614815,0.00559384,0.00178227,0.00767468,0.00406731,0.708264,0.00443363,0.0117943,1896,687,4.83892,-0.674495
679,337,4.68896,0.780579,0.00922738,0.00863877,0.00216838,0.0111213,0.00674482,0.717947,0.00646926,0.0268347,1903,687,4.68895,-0.780591
686,337,4.60559,1.36218,0.0134685,0.0131168,0.0028763,0.0161743,0.010411,0.754872,0.00946588,0.0397124,1910,687,4.60562,-1.36216
693,337,4.51587,-0.608032,0,0,0,0,0,0,0,-1,1917,687,4.51593,0.608028
700,337,4.93542,0.130249,0.0257181,0.029421,0.00583117,0.0336876,0.0214515,0.939119,0.0196906,0.0409867,1924,687,4.93538,-0.130261
707,337,5.4989,0.882141,0.0336302,0.0430642,0.00871355,0.0482556,0.0284388,1.03348,0.0280082,0.0421856,1931,687,5.49888,-0.88214
714,337,0,0,0,0,0,0,0,0,0,-1,1938,687,0,0
721,337,0,0,0,0,0,0,0,0,0,-1,1945,687,0,0
728,337,0,0,0,0,0,0,0,0,0,-1,1952,687,0,0
735,337,0,0,0,0,0,0,0,0,0,-1,1959,687,0,0
742,337,0,0,0,0,0,0,0,0,0,-1,1966,687,0,0
749,337,0,0,0,0,0,0,0,0,0,-1,1973,687,0,0
756,337,0,0,0,0,0,0,0,0,0,-1,1980,687,0,0
763,337,0,0,0,0,0,0,0,0,0,-1,1987,687,0,0
770,337,0,0,0,0,0,0,0,0,0,-1,1994,687,0,0
777,337,0,0,0,0,0,0,0,0,0,-1,2001,687,0,0
784,337,0,0,0,0,0,0,0,0,0,-1,2008,687,0,0
791,337,0,0,0,0,0,0,0,0,0,-1,2015,687,0,0
798,337,0,0,0,0,0,0,0,0,0,-1,2022,687,0,0
805,337,0,0,0,0,0,0,0,0,0,-1,2029,687,0,0
812,337,0,0,0,0,0,0,0,0,0,-1,2036,687,0,0
-700,330,0,0,0,0,0,0,0,0,0,-1,524,694,0,0
-693,330,0,0,0,0,0,0,0,0,0,-1,531,694,0,0
-686,330,0,0,0,0,0,0,0,0,0,-1,538,694,0,0
-679,330,0,0,0,0,0,0,0,0,0,-1,545,694,0,0
-672,330,0,0,0,0,0,0,0,0,0,-1,552,694,0,0
-665,330,0,0,0,0,0,0,0,0,0,-1,559,694,0,0
-658,330,0,0,0,0,0,0,0,0,0,-1,566,694,0,0
-651,330,0,0,0,0,0,0,0,0,0,-1,573,694,0,0
-644,330,0,0,0,0,0,0,0,0,0,-1,580,694,0,0
-637,330,0,0,0,0,0,0,0,0,0,-1,587,694,0,0
-630,330,0,0,0,0,0,0,0,0,0,-1,594,694,0,0
-623,330,0,0,0,0,0,0,0,0,0,-1,601,694,0,0
-616,330,0,0,0,0,0,0,0,0,0,-1,608,694,0,0
-609,330,0,0,0,0,0,0,0,0,0,-1,615,694,0,0
-602,330,0,0,0,0,0,0,0,0,0,-1,622,694,0,0
-595,330,-0.291687,0.969727,-0.0266283,0.0416049,-0.047971,0.0663539,-0.0513773,-1.0945,0.0681552,0.0471636,629,694,-0.291684,-0.969703
-588,330,-0.236633,0.982056,-0.0205715,0.0391332,-0.0408974,0.0599144,-0.0413528,-1.10067,0.0587931,0.0481668,636,694,-0.23664,-0.982079
-581,330,-0.258362,0.956238,-0.0157036,0.0357531,-0.0350273,0.0534858,-0.0334362,-1.10216,0.0506275,0.0493658,643,694,-0.258355,-0.956264
-574,330,-0.331604,0.902344,-0.0119011,0.0317741,-0.03002,0.047059,-0.027186,-1.09985,0.0433742,0.0460191,650,694,-0.331634,-0.902329
-567,330,-0.481079,0.618347,-0.00891602,0.0278465,-0.0256534,0.0410242,-0.0220937,-1.09626,0.0369835,0.0438702,657,694,-0.481099,-0.618346
-560,330,-0.66449,0.500732,-0.0064493,0.0233894,-0.021368,0.0345311,-0.017591,-1.09016,0.0306179,0.0385314,664,694,-0.664515,-0.500724
-553,330,-0.70874,0.483582,-0.00470984,0.0192322,-0.0174756,0.0284438,-0.0139214,-1.0857,0.024934,0.0340171,671,694,-0.70871,-0.483587
-546,330,-0.632935,0.383667,-0.00378386,0.0153231,-0.0139413,0.0226702,-0.0111309,-1.08578,0.0198905,0.0222876,678,694,-0.63291,-0.383639
-539,330,-0.626648,0.336426,-0.00281423,0.0117471,-0.0106787,0.0173909,-0.00845804,-1.0846,0.015218,0.0102479,685,694,-0.626631,-0.336438
-532,330,-0.651611,0.268677,-0.00165054,0.00847274,-0.00784254,0.0127452,-0.00592301,-1.07197,0.0110154,0.00998644,692,694,-0.651636,-0.268666
-525,330,-0.657532,0.165649,-0.00116188,0.00579738,-0.00559908,0.00890998,-0.00427449,-1.06342,0.0077673,0.0112544,699,694,-0.657546,-0.165631
-518,330,-0.679016,0.110657,-0.00083794,0.00338261,-0.00349208,0.00535251,-0.00280785,-1.05719,0.00478713,0.0141877,706,694,-0.679018,-0.110638
-511,330,-0.635437,0.0683594,-0.000323102,0.00120867,-0.00156888,0.00218863,-0.00130306,-1.01247,0.00203742,0.0180726,713,694,-0.635433,-0.0683786
-504,330,-0.632874,-0.0169067,8.32758e-05,-0.00100278,0.000214765,0.000124203,-0.00104371,0.188309,0.000740686,0.0172349,720,694,-0.632872,0.0169266
-497,330,-0.657288,-0.0767212,0.0005317,-0.00219388,0.00108563,0.000911261,-0.00257344,0.336339,0.00208679,0.0123631,727,694,-0.657271,0.0767112
-490,330,-0.654846,-0.138672,0.00114672,-0.00320273,0.000948609,0.00134461,-0.00340062,0.205658,0.00282408,0.0120142,734,694,-0.654865,0.138669
-483,330,-0.649414,-0.211487,0.00169588,-0.00374938,0.00063428,0.00176879,-0.00382228,0.114442,0.00329978,0.0128304,741,694,-0.649411,0.211491
-476,330,-0.645813,-0.294922,0.00204305,-0.00385951,-0.000253443,0.00205391,-0.00387037,-0.0428327,0.00347356,0.0138441,748,694,-0.645794,0.294907
-469,330,-0.574829,-0.297119,0.00215722,-0.00306744,-0.00167923,0.00265038,-0.0035606,-0.285652,0.00359872,0.0198432,755,694,-0.574808,0.29711
-462,330,-0.575439,-0.226257,0.00229727,-0.00215271,-0.00356132,0.00427151,-0.00412696,-0.506183,0.0048491,0.0365243,762,694,-0.575419,0.226251
-455,330,-0.620911,-0.104065,0.00216446,-0.000376992,-0.00613594,0.00715987,-0.00537241,-0.683294,0.00726,0.0425945,769,694,-0.620882,0.104093
-448,330,-0.688232,0.067627,0.0015761,0.00241813,-0.00948919,0.0114956,-0.00750141,-0.807568,0.0110485,0.0499248,776,694,-0.688245,-0.0676396
-441,330,-0.152466,-0.138916,0,0,0,0,0,0,0,-1,783,694,-0.152466,0.138889
-434,330,-0.258789,-0.661865,-0.00203271,0.0118967,-0.0186259,0.0248174,-0.0149535,-0.964312,0.023196,0.0468215,790,694,-0.258814,0.661843
-427,330,-0.309631,-1.20953,-0.00553462,0.0187756,-0.0242139,0.033714,-0.020473,-1.01802,0.0315947,0.0458572,797,694,-0.309611,1.20955
-420,330,-0.564697,-1.55017,-0.0106838,0.02672,-0.0304081,0.043717,-0.0276808,-1.0611,0.0415667,0.0485976,804,694,-0.564679,1.55018
-413,330,-0.812317,-1.86255,0,0,0,0,0,0,0,-1,811,694,-0.812331,1.86253
-406,330,-0.585327,0.0992432,0,0,0,0,0,0,0,-1,818,694,-0.585348,-0.0992186
-399,330,0,0,0,0,0,0,0,0,0,-1,825,694,0,0
-392,330,0,0,0,0,0,0,0,0,0,-1,832,694,0,0
-385,330,0,0,0,0,0,0,0,0,0,-1,839,694,0,0
-378,330,0,0,0,0,0,0,0,0,0,-1,846,694,0,0
-371,330,0,0,0,0,0,0,0,0,0,-1,853,694,0,0
-364,330,0,0,0,0,0,0,0,0,0,-1,860,694,0,0
-357,330,0,0,0,0,0,0,0,0,0,-1,867,694,0,0
-350,330,0,0,0,0,0,0,0,0,0,-1,874,694,0,0
-343,330,0,0,0,0,0,0,0,0,0,-1,881,694,0,0
-336,330,0,0,0,0,0,0,0,0,0,-1,888,694,0,0
-329,330,0,0,0,0,0,0,0,0,0,-1,895,694,0,0
-322,330,0,0,0,0,0,0,0,0,0,-1,902,694,0,0
-315,330,0,0,0,0,0,0,0,0,0,-1,909,694,0,0
-308,330,0,0,0,0,0,0,0,0,0,-1,916,694,0,0
-301,330,0,0,0,0,0,0,0,0,0,-1,923,694,0,0
-294,330,0,0,0,0,0,0,0,0,0,-1,930,694,0,0
-287,330,0,0,0,0,0,0,0,0,0,-1,937,694,0,0
-280,330,0,0,0,0,0,0,0,0,0,-1,944,694,0,0
-273,330,0,0,0,0,0,0,0,0,0,-1,951,694,0,0
-266,330,0,0,0,0,0,0,0,0,0,-1,958,694,0,0
-259,330,0,0,0,0,0,0,0,0,0,-1,965,694,0,0
-252,330,0,0,0,0,0,0,0,0,0,-1,972,694,0,0
-245,330,0,0,0,0,0,0,0,0,0,-1,979,694,0,0
-238,330,0,0,0,0,0,0,0,0,0,-1,986,694,0,0
-231,330,0,0,0,0,0,0,0,0,0,-1,993,694,0,0
-224,330,0,0,0,0,0,0,0,0,0,-1,1000,694,0,0
-217,330,0,0,0,0,0,0,0,0,0,-1,1007,694,0,0
-210,330,0,0,0,0,0,0,0,0,0,-1,1014,694,0,0
-203,330,0,0,0,0,0,0,0,0,0,-1,1021,694,0,0
-196,330,0,0,0,0,0,0,0,0,0,-1,1028,694,0,0
-189,330,0,0,0,0,0,0,0,0,0,-1,1035,694,0,0
-182,330,0,0,0,0,0,0,0,0,0,-1,1042,694,0,0
-175,330,0,0,0,0,0,0,0,0,0,-1,1049,694,0,0
-168,330,0,0,0,0,0,0,0,0,0,-1,1056,694,0,0
-161,330,0,0,0,0,0,0,0,0,0,-1,1063,694,0,0
-154,330,0,0,0,0,0,0,0,0,0,-1,1070,694,0,0
-147,330,0,0,0,0,0,0,0,0,0,-1,1077,694,0,0
-140,330,0,0,0,0,0,0,0,0,0,-1,1084,694,0,0
-133,330,0,0,0,0,0,0,0,0,0,-1,1091,694,0,0
-126,330,0,0,0,0,0,0,0,0,0,-1,1098,694,0,0
-119,330,0,0,0,0,0,0,0,0,0,-1,1105,694,0,0
-112,330,0,0,0,0,0,0,0,0,0,-1,1112,694,0,0
-105,330,0,0,0,0,0,0,0,0,0,-1,1119,694,0,0
-98,330,0,0,0,0,0,0,0,0,0,-1,1126,694,0,0
-91,330,0,0,0,0,0,0,0,0,0,-1,1133,694,0,0
-84,330,0,0,0,0,0,0,0,0,0,-1,1140,694,0,0
-77,330,0,0,0,0,0,0,0,0,0,-1,1147,694,0,0
-70,330,0,0,0,0,0,0,0,0,0,-1,1154,694,0,0
-63,330,0,0,0,0,0,0,0,0,0,-1,1161,694,0,0
-56,330,0,0,0,0,0,0,0,0,0,-1,1168,694,0,0
-49,330,0,0,0,0,0,0,0,0,0,-1,1175,694,0,0
-42,330,0,0,0,0,0,0,0,0,0,-1,1182,694,0,0
-35,330,0,0,0,0,0,0,0,0,0,-1,1189,694,0,0
-28,330,0,0,0,0,0,0,0,0,0,-1,1196,694,0,0
-21,330,0,0,0,0,0,0,0,0,0,-1,1203,694,0,0
-14,330,0,0,0,0,0,0,0,0,0,-1,1210,694,0,0
-7,330,0,0,0,0,0,0,0,0,0,-1,1217,694,0,0
0,330,0,0,0,0,0,0,0,0,0,-1,1224,694,0,0
7,330,0,0,0,0,0,0,0,0,0,-1,1231,694,0,0
14,330,0,0,0,0,0,0,0,0,0,-1,1238,694,0,0
21,330,0,0,0,0,0,0,0,0,0,-1,1245,694,0,0
28,330,0,0,0,0,0,0,0,0,0,-1,1252,694,0,0
35,330,0,0,0,0,0,0,0,0,0,-1,1259,694,0,0
42,330,0,0,0,0,0,0,0,0,0,-1,1266,694,0,0
49,330,0,0,0,0,0,0,0,0,0,-1,1273,694,0,0
56,330,0,0,0,0,0,0,0,0,0,-1,1280,694,0,0
63,330,0,0,0,0,0,0,0,0,0,-1,1287,694,0,0
70,330,0,0,0,0,0,0,0,0,0,-1,1294,694,0,0
77,330,0,0,0,0,0,0,0,0,0,-1,1301,694,0,0
84,330,0,0,0,0,0,0,0,0,0,-1,1308,694,0,0
91,330,0,0,0,0,0,0,0,0,0,-1,1315,694,0,0
98,330,0,0,0,0,0,0,0,0,0,-1,1322,694,0,0
105,330,0,0,0,0,0,0,0,0,0,-1,1329,694,0,0
112,330,0,0,0,0,0,0,0,0,0,-1,1336,694,0,0
119,330,0,0,0,0,0,0,0,0,0,-1,1343,694,0,0
126,330,0,0,0,0,0,0,0,0,0,-1,1350,694,0,0
133,330,0,0,0,0,0,0,0,0,0,-1,1357,694,0,0
140,330,0,0,0,0,0,0,0,0,0,-1,1364,694,0,0
147,330,0,0,0,0,0,0,0,0,0,-1,1371,694,0,0
154,330,0,0,0,0,0,0,0,0,0,-1,1378,694,0,0
161,330,0,0,0,0,0,0,0,0,0,-1,1385,694,0,0
168,330,0,0,0,0,0,0,0,0,0,-1,1392,694,0,0
175,330,0,0,0,0,0,0,0,0,0,-1,1399,694,0,0
182,330,0,0,0,0,0,0,0,0,0,-1,1406,694,0,0
189,330,0,0,0,0,0,0,0,0,0,-1,1413,694,0,0
196,330,0,0,0,0,0,0,0,0,0,-1,1420,694,0,0
203,330,0,0,0,0,0,0,0,0,0,-1,1427,694,0,0
210,330,0,0,0,0,0,0,0,0,0,-1,1434,694,0,0
217,330,0,0,0,0,0,0,0,0,0,-1,1441,694,0,0
224,330,0,0,0,0,0,0,0,0,0,-1,1448,694,0,0
231,330,0,0,0,0,0,0,0,0,0,-1,1455,694,0,0
238,330,0,0,0,0,0,0,0,0,0,-1,1462,694,0,0
245,330,0,0,0,0,0,0,0,0,0,-1,1469,694,0,0
252,330,0,0,0,0,0,0,0,0,0,-1,1476,694,0,0
259,330,0,0,0,0,0,0,0,0,0,-1,1483,694,0,0
266,330,0,0,0,0,0,0,0,0,0,-1,1490,694,0,0
273,330,0,0,0,0,0,0,0,0,0,-1,1497,694,0,0
280,330,0,0,0,0,0,0,0,0,0,-1,1504,694,0,0
287,330,0,0,0,0,0,0,0,0,0,-1,1511,694,0,0
294,330,0,0,0,0,0,0,0,0,0,-1,1518,694,0,0
301,330,0,0,0,0,0,0,0,0,0,-1,1525,694,0,0
308,330,0,0,0,0,0,0,0,0,0,-1,1532,694,0,0
315,330,0,0,0,0,0,0,0,0,0,-1,1539,694,0,0
322,330,0,0,0,0,0,0,0,0,0,-1,1546,694,0,0
329,330,0,0,0,0,0,0,0,0,0,-1,1553,694,0,0
336,330,0,0,0,0,0,0,0,0,0,-1,1560,694,0,0
343,330,0,0,0,0,0,0,0,0,0,-1,1567,694,0,0
350,330,0,0,0,0,0,0,0,0,0,-1,1574,694,0,0
357,330,0,0,0,0,0,0,0,0,0,-1,1581,694,0,0
364,330,0,0,0,0,0,0,0,0,0,-1,1588,694,0,0
371,330,0,0,0,0,0,0,0,0,0,-1,1595,694,0,0
378,330,0,0,0,0,0,0,0,0,0,-1,1602,694,0,0
385,330,0,0,0,0,0,0,0,0,0,-1,1609,694,0,0
392,330,0,0,0,0,0,0,0,0,0,-1,1616,694,0,0
399,330,0,0,0,0,0,0,0,0,0,-1,1623,694,0,0
406,330,0,0,0,0,0,0,0,0,0,-1,1630,694,0,0
413,330,0,0,0,0,0,0,0,0,0,-1,1637,694,0,0
420,330,0,0,0,0,0,0,0,0,0,-1,1644,694,0,0
427,330,0,0,0,0,0,0,0,0,0,-1,1651,694,0,0
434,330,0,0,0,0,0,0,0,0,0,-1,1658,694,0,0
441,330,0,0,0,0,0,0,0,0,0,-1,1665,694,0,0
448,330,0,0,0,0,0,0,0,0,0,-1,1672,694,0,0
455,330,0,0,0,0,0,0,0,0,0,-1,1679,694,0,0
462,330,0,0,0,0,0,0,0,0,0,-1,1686,694,0,0
469,330,0,0,0,0,0,0,0,0,0,-1,1693,694,0,0
476,330,0,0,0,0,0,0,0,0,0,-1,1700,694,0,0
483,330,0,0,0,0,0,0,0,0,0,-1,1707,694,0,0
490,330,0,0,0,0,0,0,0,0,0,-1,1714,694,0,0
497,330,0,0,0,0,0,0,0,0,0,-1,1721,694,0,0
504,330,0,0,0,0,0,0,0,0,0,-1,1728,694,0,0
511,330,0,0,0,0,0,0,0,0,0,-1,1735,694,0,0
518,330,0,0,0,0,0,0,0,0,0,-1,1742,694,0,0
525,330,12.3951,-0.891418,0,0,0,0,0,0,0,-1,1749,694,12.3952,0.891405
532,330,11.5381,0.171448,-0.00357132,0.0420273,-0.036492,0.0622567,-0.0238008,-1.06462,0.0513122,0.0434447,1756,694,11.5381,-0.171446
539,330,10.5828,0.624939,-0.00692158,0.0325592,-0.0334694,0.051676,-0.0260384,-1.05184,0.0456751,0.0437421,1763,694,10.5828,-0.624916
546,330,9.67932,0.584778,-0.00801884,0.0252908,-0.0301066,0.0430423,-0.0257703,-1.03804,0.0401439,0.0443423,1770,694,9.67936,-0.584784
553,330,8.80603,0.558472,-0.00745501,0.0188059,-0.0262939,0.0350655,-0.0237146,-1.01697,0.034147,0.0446807,1777,694,8.80598,-0.558501
560,330,8.02136,0.885864,-0.0059837,0.0130734,-0.0230708,0.0285059,-0.0214163,-0.981235,0.0289193,0.0476537,1784,694,8.02139,-0.885867
567,330,7.54028,0.967468,-0.00472111,0.00862364,-0.0200701,0.0231014,-0.0191989,-0.945878,0.0244567,0.0467649,1791,694,7.54026,-0.967466
574,330,6.82104,1.06512,-0.00378559,0.00508992,-0.0172634,0.0184768,-0.0171725,-0.911205,0.0205867,0.0456067,1798,694,6.82102,-1.06515
581,330,5.89758,0.844482,0,0,0,0,0,0,0,-1,1805,694,5.89757,-0.844511
588,330,4.8075,0.229492,0,0,0,0,0,0,0,-1,1812,694,4.80744,-0.229515
595,330,4.98083,-0.11377,-0.000591498,-0.00341974,-0.010587,0.00867544,-0.0126867,-0.719006,0.0124057,0.0460421,1819,694,4.98081,0.11376
602,330,4.95642,-0.0230713,0.000957965,-0.00489514,-0.00821278,0.00675004,-0.0106872,-0.614242,0.0101526,0.0320676,1826,694,4.95637,0.0230964
609,330,4.87964,0.0391846,-0.000944716,-0.00550748,-0.00613844,0.00332258,-0.00977477,-0.607481,0.00786167,0.0163989,1833,694,4.87965,-0.0391806
616,330,4.90784,0.117249,-0.00418815,-0.00498154,-0.00553841,0.000967755,-0.0101374,-0.749646,0.00710289,0.0103309,1840,694,4.90779,-0.117261
623,330,4.91333,0.168274,-0.0019714,-0.00368886,-0.00380652,0.00107206,-0.00673231,-0.674458,0.00488493,0.0118832,1847,694,4.91328,-0.168291
630,330,4.91589,0.25293,-0.000430188,-0.00271766,-0.00224039,0.000941525,-0.00408937,-0.549389,0.00308831,0.0129311,1854,694,4.91591,-0.252953
637,330,4.93652,0.335571,-0.000233927,-0.00149199,-0.00134138,0.000618588,-0.00234451,-0.56615,0.00180489,0.0125656,1861,694,4.93649,-0.33559
644,330,4.91321,0.408203,-0.000360044,-0.000930611,-0.00081602,0.000219123,-0.00150978,-0.617237,0.00108695,0.0080388,1868,694,4.91315,-0.408187
651,330,4.90088,0.472473,0.000100975,-0.000618989,-0.000253079,0.000181033,-0.000699048,-0.306379,0.000536653,0.0103792,1875,694,4.90088,-0.472461
658,330,4.90088,0.529541,0.00142214,-0.000175933,8.51678e-05,0.00142667,-0.000180459,0.0530936,0.00101662,0.0118309,1882,694,4.90091,-0.52953
665,330,4.91223,0.612305,0.0027867,0.00192094,-3.44268e-06,0.00278671,0.00192092,-0.00397639,0.0016469,0.0107236,1889,694,4.91221,-0.612333
672,330,4.89746,0.703003,0.00439405,0.00459995,3.29132e-05,0.00460508,0.00438891,1.41608,0.00300059,0.0114414,1896,694,4.89743,-0.703011
679,330,4.80798,0.801941,0.00693064,0.00761604,-0.000161074,0.00765201,0.00689467,-1.35111,0.00486857,0.0237645,1903,694,4.80794,-0.801932
686,330,4.70837,0.957825,0.0104592,0.0120508,-0.000271957,0.012096,0.010414,-1.40615,0.00756591,0.043072,1910,694,4.70841,-0.957824
693,330,4.54724,-0.0650635,0.0150409,0.0187218,-0.000246914,0.0187383,0.0150244,-1.50411,0.0114567,0.048992,1917,694,4.54727,0.0650572
700,330,4.61755,0.474487,0.0206497,0.0284313,5.3746e-05,0.0284316,0.0206493,1.56389,0.0169661,0.0440705,1924,694,4.61751,-0.47447
707,330,5.10864,1.08093,0.0271719,0.0421902,0.000845767,0.0422377,0.0271244,1.51472,0.0247124,0.0410792,1931,694,5.1086,-1.08091
714,330,5.41907,1.43835,0,0,0,0,0,0,0,-1,1938,694,5.41905,-1.43838
721,330,0,0,0,0,0,0,0,0,0,-1,1945,694,0,0
728,330,0,0,0,0,0,0,0,0,0,-1,1952,694,0,0
735,330,0,0,0,0,0,0,0,0,0,-1,1959,694,0,0
742,330,0,0,0,0,0,0,0,0,0,-1,1966,694,0,0
749,330,0,0,0,0,0,0,0,0,0,-1,1973,694,0,0
756,330,0,0,0,0,0,0,0,0,0,-1,1980,694,0,0
763,330,0,0,0,0,0,0,0,0,0,-1,1987,694,0,0
770,330,0,0,0,0,0,0,0,0,0,-1,1994,694,0,0
777,330,0,0,0,0,0,0,0,0,0,-1,2001,694,0,0
784,330,0,0,0,0,0,0,0,0,0,-1,2008,694,0,0
791,330,0,0,0,0,0,0,0,0,0,-1,2015,694,0,0
798,330,0,0,0,0,0,0,0,0,0,-1,2022,694,0,0
805,330,0,0,0,0,0,0,0,0,0,-1,2029,694,0,0
812,330,0,0,0,0,0,0,0,0,0,-1,2036,694,0,0
-700,323,0,0,0,0,0,0,0,0,0,-1,524,701,0,0
-693,323,0,0,0,0,0,0,0,0,0,-1,531,701,0,0
-686,323,0,0,0,0,0,0,0,0,0,-1,538,701,0,0
-679,323,0,0,0,0,0,0,0,0,0,-1,545,701,0,0
-672,323,0,0,0,0,0,0,0,0,0,-1,552,701,0,0
-665,323,0,0,0,0,0,0,0,0,0,-1,559,701,0,0
-658,323,0,0,0,0,0,0,0,0,0,-1,566,701,0,0
-651,323,0,0,0,0,0,0,0,0,0,-1,573,701,0,0
-644,323,0,0,0,0,0,0,0,0,0,-1,580,701,0,0
-637,323,0,0,0,0,0,0,0,0,0,-1,587,701,0,0
-630,323,0,0,0,0,0,0,0,0,0,-1,594,701,0,0
-623,323,0,0,0,0,0,0,0,0,0,-1,601,701,0,0
-616,323,0,0,0,0,0,0,0,0,0,-1,608,701,0,0
-609,323,0,0,0,0,0,0,0,0,0,-1,615,701,0,0
-602,323,0.425964,0.539185,-0.0388552,0.0328762,-0.051093,0.0594352,-0.0654142,-1.09142,0.0721093,0.0475541,622,701,0.425938,-0.539193
-595,323,0.580994,0.686646,-0.0302623,0.0327201,-0.0414568,0.05329,-0.0508322,-1.11021,0.0601206,0.0435539,629,701,0.580966,-0.686654
-588,323,-0.141602,1.10284,-0.0232374,0.0310046,-0.0335822,0.0470497,-0.0392825,-1.12508,0.0499111,0.046035,636,701,-0.141617,-1.10285
-581,323,-0.13208,0.768372,-0.0178251,0.02837,-0.0272448,0.0409905,-0.0304456,-1.137,0.0413931,0.0467015,643,701,-0.132086,-0.768369
-574,323,-0.353271,0.57373,-0.0136645,0.0251753,-0.0222079,0.0352567,-0.0237458,-1.14466,0.0342805,0.0430697,650,701,-0.353273,-0.573747
-567,323,-0.601868,0.524109,-0.0103867,0.0221905,-0.0182636,0.0303738,-0.0185701,-1.14955,0.0285304,0.0442451,657,701,-0.601897,-0.524131
-560,323,-0.890991,0.501099,-0.00761014,0.0185179,-0.0146452,0.0250792,-0.0141714,-1.1496,0.0229511,0.040143,664,701,-0.890988,-0.50111
-553,323,-0.771912,0.461914,-0.00564777,0.0151917,-0.0115776,0.0203479,-0.010804,-1.1518,0.0182648,0.0225497,671,701,-0.771885,-0.461887
-546,323,-0.705811,0.403687,-0.00458667,0.0120005,-0.00899087,0.0159388,-0.00852498,-1.15794,0.0143387,0.0100395,678,701,-0.705803,-0.403691
-539,323,-0.708618,0.340759,-0.00349397,0.00907592,-0.00672619,0.0119965,-0.00641458,-1.16115,0.0107913,0.0106499,685,701,-0.708595,-0.340758
-532,323,-0.714844,0.269958,-0.00218344,0.00628465,-0.00480007,0.00845121,-0.00435001,-1.14681,0.00751616,0.0103004,692,701,-0.714829,-0.269929
-525,323,-0.71814,0.198975,-0.00158438,0.0040335,-0.00335139,0.00559743,-0.0031483,-1.13418,0.00511492,0.00879091,699,701,-0.71817,-0.198951
-518,323,-0.733398,0.139832,-0.00116367,0.00193746,-0.00183507,0.00278934,-0.00201555,-1.13618,0.00278607,0.0101349,706,701,-0.733395,-0.139827
-511,323,-0.729431,0.0636597,-0.000615356,4.12437e-05,-0.000417441,0.000244016,-0.000818128,-1.11861,0.000642396,0.0130162,713,701,-0.729441,-0.063673
-504,323,-0.717773,-0.0195923,-0.000158605,-0.00189519,0.000899566,0.000223364,-0.00227715,0.401544,0.00159777,0.0148334,720,701,-0.717779,0.0195821
-497,323,-0.726501,-0.081665,0.00030196,-0.00295891,0.00152301,0.000902643,-0.0035596,0.375673,0.00272426,0.0126359,727,701,-0.726499,0.0816767
-490,323,-0.726318,-0.138855,0.000825056,-0.00384239,0.00127988,0.00115298,-0.00417031,0.250818,0.00323379,0.0137798,734,701,-0.726321,0.138828
-483,323,-0.721436,-0.197266,0.00126925,-0.0042532,0.000885961,0.0014079,-0.00439185,0.155241,0.0034931,0.013568,741,701,-0.72142,0.197242
-476,323,-0.661194,-0.278992,0.00148182,-0.00414142,-0.000169934,0.00148695,-0.00414655,-0.0301832,0.00337116,0.0164256,748,701,-0.661172,0.279018
-469,323,-0.56604,-0.171692,0.00147281,-0.00303469,-0.00186423,0.00214391,-0.00370579,-0.345544,0.00341722,0.0369863,755,701,-0.566069,0.171672
-462,323,-0.50238,-0.0657349,0.00148434,-0.00164006,-0.00405774,0.00427021,-0.00442593,-0.601647,0.00502099,0.0427796,762,701,-0.502369,0.0657293
-455,323,-0.377319,0.0617676,0.00120919,0.000712729,-0.00707075,0.00803607,-0.00611415,-0.767852,0.00819471,0.0463409,769,701,-0.377319,-0.061773
-448,323,-0.4646,-0.13147,0.000456566,0.00428577,-0.0110304,0.0135665,-0.00882415,-0.87133,0.0130235,0.0473186,776,701,-0.464611,0.131445
-441,323,-0.429565,-0.386475,-0.00106529,0.00936523,-0.0160194,0.020997,-0.012697,-0.942766,0.019649,0.0488196,783,701,-0.429557,0.386448
-434,323,-0.232544,-1.03802,0,0,0,0,0,0,0,-1,790,701,-0.232526,1.03801
-427,323,-0.288452,-1.55981,-0.0077052,0.0249153,-0.0288737,0.041767,-0.0245569,-1.0425,0.0387195,0.0445253,797,701,-0.288467,1.55981
-420,323,-0.501587,-2.06421,-0.0135791,0.0352496,-0.0366246,0.0548514,-0.033181,-1.07938,0.0513362,0.0447759,804,701,-0.501601,2.06418
-413,323,-0.365173,-2.32709,0,0,0,0,0,0,0,-1,811,701,-0.365176,2.32711
-406,323,0,0,0,0,0,0,0,0,0,-1,818,701,0,0
-399,323,0,0,0,0,0,0,0,0,0,-1,825,701,0,0
-392,323,0,0,0,0,0,0,0,0,0,-1,832,701,0,0
-385,323,0,0,0,0,0,0,0,0,0,-1,839,701,0,0
-378,323,0,0,0,0,0,0,0,0,0,-1,846,701,0,0
-371,323,0,0,0,0,0,0,0,0,0,-1,853,701,0,0
-364,323,0,0,0,0,0,0,0,0,0,-1,860,701,0,0
-357,323,0,0,0,0,0,0,0,0,0,-1,867,701,0,0
-350,323,0,0,0,0,0,0,0,0,0,-1,874,701,0,0
-343,323,0,0,0,0,0,0,0,0,0,-1,881,701,0,0
-336,323,0,0,0,0,0,0,0,0,0,-1,888,701,0,0
-329,323,0,0,0,0,0,0,0,0,0,-1,895,701,0,0
-322,323,0,0,0,0,0,0,0,0,0,-1,902,701,0,0
-315,323,0,0,0,0,0,0,0,0,0,-1,909,701,0,0
-308,323,0,0,0,0,0,0,0,0,0,-1,916,701,0,0
-301,323,0,0,0,0,0,0,0,0,0,-1,923,701,0,0
-294,323,0,0,0,0,0,0,0,0,0,-1,930,701,0,0
-287,323,0,0,0,0,0,0,0,0,0,-1,937,701,0,0
-280,323,0,0,0,0,0,0,0,0,0,-1,944,701,0,0
-273,323,0,0,0,0,0,0,0,0,0,-1,951,701,0,0
-266,323,0,0,0,0,0,0,0,0,0,-1,958,701,0,0
-259,323,0,0,0,0,0,0,0,0,0,-1,965,701,0,0
-252,323,0,0,0,0,0,0,0,0,0,-1,972,701,0,0
-245,323,0,0,0,0,0,0,0,0,0,-1,979,701,0,0
-238,323,0,0,0,0,0,0,0,0,0,-1,986,701,0,0
-231,323,0,0,0,0,0,0,0,0,0,-1,993,701,0,0
-224,323,0,0,0,0,0,0,0,0,0,-1,1000,701,0,0
-217,323,0,0,0,0,0,0,0,0,0,-1,1007,701,0,0
-210,323,0,0,0,0,0,0,0,0,0,-1,1014,701,0,0
-203,323,0,0,0,0,0,0,0,0,0,-1,1021,701,0,0
-196,323,0,0,0,0,0,0,0,0,0,-1,1028,701,0,0
-189,323,0,0,0,0,0,0,0,0,0,-1,1035,701,0,0
-182,323,0,0,0,0,0,0,0,0,0,-1,1042,701,0,0
-175,323,0,0,0,0,0,0,0,0,0,-1,1049,701,0,0
-168,323,0,0,0,0,0,0,0,0,0,-1,1056,701,0,0
-161,323,0,0,0,0,0,0,0,0,0,-1,1063,701,0,0
-154,323,0,0,0,0,0,0,0,0,0,-1,1070,701,0,0
-147,323,0,0,0,0,0,0,0,0,0,-1,1077,701,0,0
-140,323,0,0,0,0,0,0,0,0,0,-1,1084,701,0,0
-133,323,0,0,0,0,0,0,0,0,0,-1,1091,701,0,0
-126,323,0,0,0,0,0,0,0,0,0,-1,1098,701,0,0
-119,323,0,0,0,0,0,0,0,0,0,-1,1105,701,0,0
-112,323,0,0,0,0,0,0,0,0,0,-1,1112,701,0,0
-105,323,0,0,0,0,0,0,0,0,0,-1,1119,701,0,0
-98,323,0,0,0,0,0,0,0,0,0,-1,1126,701,0,0
-91,323,0,0,0,0,0,0,0,0,0,-1,1133,701,0,0
-84,323,0,0,0,0,0,0,0,0,0,-1,1140,701,0,0
-77,323,0,0,0,0,0,0,0,0,0,-1,1147,701,0,0
-70,323,0,0,0,0,0,0,0,0,0,-1,1154,701,0,0
-63,323,0,0,0,0,0,0,0,0,0,-1,1161,701,0,0
-56,323,0,0,0,0,0,0,0,0,0,-1,1168,701,0,0
-49,323,0,0,0,0,0,0,0,0,0,-1,1175,701,0,0
-42,323,0,0,0,0,0,0,0,0,0,-1,1182,701,0,0
-35,323,0,0,0,0,0,0,0,0,0,-1,1189,701,0,0
-28,323,0,0,0,0,0,0,0,0,0,-1,1196,701,0,0
-21,323,0,0,0,0,0,0,0,0,0,-1,1203,701,0,0
-14,323,0,0,0,0,0,0,0,0,0,-1,1210,701,0,0
-7,323,0,0,0,0,0,0,0,0,0,-1,1217,701,0,0
0,323,0,0,0,0,0,0,0,0,0,-1,1224,701,0,0
7,323,0,0,0,0,0,0,0,0,0,-1,1231,701,0,0
14,323,0,0,0,0,0,0,0,0,0,-1,1238,701,0,0
21,323,0,0,0,0,0,0,0,0,0,-1,1245,701,0,0
28,323,0,0,0,0,0,0,0,0,0,-1,1252,701,0,0
35,323,0,0,0,0,0,0,0,0,0,-1,1259,701,0,0
42,323,0,0,0,0,0,0,0,0,0,-1,1266,701,0,0
49,323,0,0,0,0,0,0,0,0,0,-1,1273,701,0,0
56,323,0,0,0,0,0,0,0,0,0,-1,1280,701,0,0
63,323,0,0,0,0,0,0,0,0,0,-1,1287,701,0,0
70,323,0,0,0,0,0,0,0,0,0,-1,1294,701,0,0
77,323,0,0,0,0,0,0,0,0,0,-1,1301,701,0,0
84,323,0,0,0,0,0,0,0,0,0,-1,1308,701,0,0
91,323,0,0,0,0,0,0,0,0,0,-1,1315,701,0,0
98,323,0,0,0,0,0,0,0,0,0,-1,1322,701,0,0
105,323,0,0,0,0,0,0,0,0,0,-1,1329,701,0,0
112,323,0,0,0,0,0,0,0,0,0,-1,1336,701,0,0
119,323,0,0,0,0,0,0,0,0,0,-1,1343,701,0,0
126,323,0,0,0,0,0,0,0,0,0,-1,1350,701,0,0
133,323,0,0,0,0,0,0,0,0,0,-1,1357,701,0,0
140,323,0,0,0,0,0,0,0,0,0,-1,1364,701,0,0
147,323,0,0,0,0,0,0,0,0,0,-1,1371,701,0,0
154,323,0,0,0,0,0,0,0,0,0,-1,1378,701,0,0
161,323,0,0,0,0,0,0,0,0,0,-1,1385,701,0,0
168,323,0,0,0,0,0,0,0,0,0,-1,1392,701,0,0
175,323,0,0,0,0,0,0,0,0,0,-1,1399,701,0,0
182,323,0,0,0,0,0,0,0,0,0,-1,1406,701,0,0
189,323,0,0,0,0,0,0,0,0,0,-1,1413,701,0,0
196,323,0,0,0,0,0,0,0,0,0,-1,1420,701,0,0
203,323,0,0,0,0,0,0,0,0,0,-1,1427,701,0,0
210,323,0,0,0,0,0,0,0,0,0,-1,1434,701,0,0
217,323,0,0,0,0,0,0,0,0,0,-1,1441,701,0,0
224,323,0,0,0,0,0,0,0,0,0,-1,1448,701,0,0
231,323,0,0,0,0,0,0,0,0,0,-1,1455,701,0,0
238,323,0,0,0,0,0,0,0,0,0,-1,1462,701,0,0
245,323,0,0,0,0,0,0,0,0,0,-1,1469,701,0,0
252,323,0,0,0,0,0,0,0,0,0,-1,1476,701,0,0
259,323,0,0,0,0,0,0,0,0,0,-1,1483,701,0,0
266,323,0,0,0,0,0,0,0,0,0,-1,1490,701,0,0
273,323,0,0,0,0,0,0,0,0,0,-1,1497,701,0,0
280,323,0,0,0,0,0,0,0,0,0,-1,1504,701,0,0
287,323,0,0,0,0,0,0,0,0,0,-1,1511,701,0,0
294,323,0,0,0,0,0,0,0,0,0,-1,1518,701,0,0
301,323,0,0,0,0,0,0,0,0,0,-1,1525,701,0,0
308,323,0,0,0,0,0,0,0,0,0,-1,1532,701,0,0
315,323,0,0,0,0,0,0,0,0,0,-1,1539,701,0,0
322,323,0,0,0,0,0,0,0,0,0,-1,1546,701,0,0
329,323,0,0,0,0,0,0,0,0,0,-1,1553,701,0,0
336,323,0,0,0,0,0,0,0,0,0,-1,1560,701,0,0
343,323,0,0,0,0,0,0,0,0,0,-1,1567,701,0,0
350,323,0,0,0,0,0,0,0,0,0,-1,1574,701,0,0
357,323,0,0,0,0,0,0,0,0,0,-1,1581,701,0,0
364,323,0,0,0,0,0,0,0,0,0,-1,1588,701,0,0
371,323,0,0,0,0,0,0,0,0,0,-1,1595,701,0,0
378,323,0,0,0,0,0,0,0,0,0,-1,1602,701,0,0
385,323,0,0,0,0,0,0,0,0,0,-1,1609,701,0,0
392,323,0,0,0,0,0,0,0,0,0,-1,1616,701,0,0
399,323,0,0,0,0,0,0,0,0,0,-1,1623,701,0,0
406,323,0,0,0,0,0,0,0,0,0,-1,1630,701,0,0
413,323,0,0,0,0,0,0,0,0,0,-1,1637,701,0,0
420,323,0,0,0,0,0,0,0,0,0,-1,1644,701,0,0
427,323,0,0,0,0,0,0,0,0,0,-1,1651,701,0,0
434,323,0,0,0,0,0,0,0,0,0,-1,1658,701,0,0
441,323,0,0,0,0,0,0,0,0,0,-1,1665,701,0,0
448,323,0,0,0,0,0,0,0,0,0,-1,1672,701,0,0
455,323,0,0,0,0,0,0,0,0,0,-1,1679,701,0,0
462,323,0,0,0,0,0,0,0,0,0,-1,1686,701,0,0
469,323,0,0,0,0,0,0,0,0,0,-1,1693,701,0,0
476,323,0,0,0,0,0,0,0,0,0,-1,1700,701,0,0
483,323,0,0,0,0,0,0,0,0,0,-1,1707,701,0,0
490,323,0,0,0,0,0,0,0,0,0,-1,1714,701,0,0
497,323,0,0,0,0,0,0,0,0,0,-1,1721,701,0,0
504,323,0,0,0,0,0,0,0,0,0,-1,1728,701,0,0
511,323,0,0,0,0,0,0,0,0,0,-1,1735,701,0,0
518,323,0,0,0,0,0,0,0,0,0,-1,1742,701,0,0
525,323,0,0,0,0,0,0,0,0,0,-1,1749,701,0,0
532,323,12.1112,-0.922424,0.00553275,0.0588902,-0.0356978,0.076777,-0.0123541,-1.1063,0.0557608,0.0435754,1756,701,12.1112,0.922404
539,323,10.976,-0.10437,0.00148888,0.0448526,-0.0334536,0.0630361,-0.0166946,-1.07292,0.0485552,0.0444457,1763,701,10.9759,0.104349
546,323,9.91553,0.431519,0,0,0,0,0,0,0,-1,1770,701,9.91558,-0.431518
553,323,9.09216,0.70929,0.000253757,0.025392,-0.026831,0.0424521,-0.0168063,-1.00445,0.0352646,0.0495135,1777,701,9.09222,-0.709309
560,323,8.51282,1.46771,0.00143796,0.0181484,-0.0236523,0.0348779,-0.0152915,-0.955182,0.029692,0.0496554,1784,701,8.51285,-1.46774
567,323,8.00317,1.41382,0.00218791,0.0126339,-0.0207297,0.0287885,-0.0139667,-0.908808,0.0251743,0.0466389,1791,701,8.00317,-1.4138
574,323,7.4491,1.23553,0.00238329,0.00825514,-0.0179713,0.0235288,-0.0128904,-0.866366,0.0213236,0.0479479,1798,701,7.44912,-1.23555
581,323,6.95654,1.15747,0,0,0,0,0,0,0,-1,1805,701,6.95649,-1.15747
588,323,6.03284,0.808044,0,0,0,0,0,0,0,-1,1812,701,6.0328,-0.808067
595,323,5.0144,-0.185669,0,0,0,0,0,0,0,-1,1819,701,5.01435,0.185672
602,323,4.98584,0.13208,0.00320752,-0.0041311,-0.00872011,0.00899887,-0.00992246,-0.58625,0.0109286,0.0422437,1826,701,4.9859,-0.132067
609,323,4.93286,0.102051,0.00031991,-0.00545821,-0.00643148,0.00448142,-0.00961972,-0.574301,0.00831951,0.023677,1833,701,4.9328,-0.102021
616,323,4.98425,0.114319,-0.00414051,-0.00547934,-0.00591771,0.00114553,-0.0107654,-0.729077,0.00758764,0.0118613,1840,701,4.9842,-0.114312
623,323,4.98926,0.176392,-0.00200265,-0.0044437,-0.00411297,0.00106707,-0.00751342,-0.641162,0.0053999,0.0124425,1847,701,4.98925,-0.176393
630,323,4.97803,0.263306,-0.000483258,-0.00359934,-0.00250987,0.000912841,-0.00499544,-0.507624,0.00367258,0.0133323,1854,701,4.978,-0.263296
637,323,4.98718,0.343689,-0.000304086,-0.00236433,-0.00156746,0.000541444,-0.00320986,-0.494691,0.00234135,0.0107908,1861,701,4.98719,-0.343713
644,323,4.99536,0.402832,-0.000387375,-0.00165465,-0.00108542,0.000235821,-0.00227785,-0.521197,0.00160296,0.00820084,1868,701,4.99536,-0.402814
651,323,4.974,0.478394,3.98916e-05,-0.00119789,-0.000715262,0.000366848,-0.00152485,-0.428754,0.00115837,0.00928197,1875,701,4.97402,-0.478402
658,323,4.96643,0.548645,0.00121321,-0.0007046,-0.000664714,0.00142107,-0.000912461,-0.303074,0.00135789,0.0110972,1882,701,4.96649,-0.548654
665,323,4.9762,0.621826,0.00238179,0.00145116,-0.000990771,0.00301107,0.000821877,-0.56586,0.0017972,0.0106433,1889,701,4.97619,-0.621837
672,323,4.96851,0.702087,0.00374297,0.00417188,-0.00129878,0.00527379,0.00264106,-0.86722,0.00304483,0.00965976,1896,701,4.96852,-0.70209
679,323,4.94373,0.778625,0.0059413,0.00724666,-0.00199973,0.00869753,0.00449043,-0.94314,0.00502241,0.0178916,1903,701,4.94369,-0.77862
686,323,4.88403,0.691162,0.0089782,0.0116506,-0.00282515,0.0134396,0.0071892,-1.00629,0.00776568,0.0400359,1910,701,4.88398,-0.691181
693,323,4.81909,0.549866,0.0128841,0.0182754,-0.00373313,0.0201844,0.0109751,-1.0981,0.0116683,0.0492839,1917,701,4.81905,-0.549866
700,323,4.77942,0.683838,0.0176195,0.027904,-0.00463604,0.0296853,0.0158382,-1.20396,0.0171517,0.0473332,1924,701,4.77944,-0.68385
707,323,5.09692,0.807068,0.0230456,0.0414855,-0.00538292,0.0429419,0.0215892,-1.30657,0.0247926,0.0421529,1931,701,5.09691,-0.807061
714,323,5.3988,0.854797,0.0288316,0.0602007,-0.00580697,0.0612412,0.0277911,-1.3935,0.0354079,0.0412873,1938,701,5.39878,-0.854802
721,323,0,0,0,0,0,0,0,0,0,-1,1945,701,0,0
728,323,0,0,0,0,0,0,0,0,0,-1,1952,701,0,0
735,323,0,0,0,0,0,0,0,0,0,-1,1959,701,0,0
742,323,0,0,0,0,0,0,0,0,0,-1,1966,701,0,0
749,323,0,0,0,0,0,0,0,0,0,-1,1973,701,0,0
756,323,0,0,0,0,0,0,0,0,0,-1,1980,701,0,0
763,323,0,0,0,0,0,0,0,0,0,-1,1987,701,0,0
770,323,0,0,0,0,0,0,0,0,0,-1,1994,701,0,0
777,323,0,0,0,0,0,0,0,0,0,-1,2001,701,0,0
784,323,0,0,0,0,0,0,0,0,0,-1,2008,701,0,0
791,323,0,0,0,0,0,0,0,0,0,-1,2015,701,0,0
798,323,0,0,0,0,0,0,0,0,0,-1,2022,701,0,0
805,323,0,0,0,0,0,0,0,0,0,-1,2029,701,0,0
812,323,0,0,0,0,0,0,0,0,0,-1,2036,701,0,0
-700,316,0,0,0,0,0,0,0,0,0,-1,524,708,0,0
-693,316,0,0,0,0,0,0,0,0,0,-1,531,708,0,0
-686,316,0,0,0,0,0,0,0,0,0,-1,538,708,0,0
-679,316,0,0,0,0,0,0,0,0,0,-1,545,708,0,0
-672,316,0,0,0,0,0,0,0,0,0,-1,552,708,0,0
-665,316,0,0,0,0,0,0,0,0,0,-1,559,708,0,0
-658,316,0,0,0,0,0,0,0,0,0,-1,566,708,0,0
-651,316,0,0,0,0,0,0,0,0,0,-1,573,708,0,0
-644,316,0,0,0,0,0,0,0,0,0,-1,580,708,0,0
-637,316,0,0,0,0,0,0,0,0,0,-1,587,708,0,0
-630,316,0,0,0,0,0,0,0,0,0,-1,594,708,0,0
-623,316,0,0,0,0,0,0,0,0,0,-1,601,708,0,0
-616,316,0,0,0,0,0,0,0,0,0,-1,608,708,0,0
-609,316,0,0,0,0,0,0,0,0,0,-1,615,708,0,0
-602,316,1.31158,0.0949707,0,0,0,0,0,0,0,-1,622,708,1.31157,-0.0949808
-595,316,1.41486,0.198059,0,0,0,0,0,0,0,-1,629,708,1.41488,-0.198075
-588,316,-0.863831,0.766907,-0.0220798,0.0240594,-0.0297228,0.038615,-0.0366354,-1.11541,0.0434508,0.04714,636,708,-0.863822,-0.766935
-581,316,-0.538269,0.682251,-0.0173574,0.0219801,-0.0225661,0.0322461,-0.0276234,-1.14385,0.0346,0.0452537,643,708,-0.538284,-0.682268
-574,316,-0.470337,0.562439,-0.0137534,0.019406,-0.017012,0.0265812,-0.0209285,-1.17166,0.0274944,0.0434634,650,708,-0.470322,-0.562429
-567,316,-0.699097,0.513062,-0.0106575,0.0172615,-0.0130782,0.0224307,-0.0158267,-1.19439,0.0221974,0.0450138,657,708,-0.699109,-0.51307
-560,316,-0.819824,0.503113,-0.00783951,0.0143073,-0.00975092,0.0179885,-0.0115208,-1.20981,0.0171731,0.0404485,664,708,-0.819811,-0.503102
-553,316,-0.758545,0.531616,-0.00582333,0.011698,-0.00718974,0.0142705,-0.00839588,-1.22718,0.0132321,0.0236761,671,708,-0.758528,-0.531647
-546,316,-0.790344,0.45105,-0.00475182,0.00909121,-0.00525108,0.0108577,-0.0065183,-1.24629,0.0101358,0.0154311,678,708,-0.790354,-0.451076
-539,316,-0.786011,0.336121,-0.00364521,0.00672415,-0.00373615,0.00793006,-0.00485112,-1.25858,0.00745025,0.0130141,685,708,-0.786001,-0.336103
-532,316,-0.799561,0.26416,-0.00232477,0.004368,-0.00250167,0.00519973,-0.0031565,-1.24982,0.00487231,0.0104644,692,708,-0.79956,-0.264146
-525,316,-0.784546,0.211426,-0.00175115,0.00248472,-0.00164942,0.00305123,-0.00231765,-1.23996,0.00310936,0.00935168,699,708,-0.784557,-0.211445
-518,316,-0.781128,0.1427,-0.00133232,0.00065894,-0.000591767,0.000821527,-0.00149491,-1.30266,0.0013561,0.00934632,706,708,-0.781131,-0.142714
-511,316,-0.797913,0.0637817,-0.00083591,-0.000999735,0.000418566,-0.000491317,-0.00134433,0.68877,0.000785456,0.0101904,713,708,-0.797886,-0.0637545
-504,316,-0.78125,-0.0303955,-0.000401095,-0.00267062,0.00135738,0.000233369,-0.00330509,0.437244,0.00228516,0.0131071,720,708,-0.781253,0.0303721
-497,316,-0.77887,-0.0859375,2.83953e-05,-0.00363221,0.00177727,0.00074931,-0.00435313,0.38535,0.00318141,0.0123406,727,708,-0.778855,0.0859354
-490,316,-0.781921,-0.152588,0.000456376,-0.00438319,0.00140611,0.000835253,-0.00476207,0.2632,0.00348664,0.0138823,734,708,-0.781901,0.152599
-483,316,-0.74231,-0.227173,0.000810677,-0.00466079,0.000897231,0.000954052,-0.00480416,0.158457,0.00356362,0.0177719,741,708,-0.742335,0.227191
-476,316,-0.701172,-0.232056,0.000950476,-0.00433397,-0.000336873,0.000971864,-0.00435535,-0.0634061,0.00327593,0.0355884,748,708,-0.7012,0.232044
-469,316,-0.748413,-0.00762939,0.000919947,-0.00295175,-0.00230431,0.00199364,-0.00402545,-0.436039,0.00354051,0.0472398,755,708,-0.748427,0.00761046
-462,316,-0.53772,-0.0130005,0.000942092,-0.00119674,-0.00479481,0.0047853,-0.00503994,-0.675676,0.00567324,0.0451932,762,708,-0.537727,0.0130121
-455,316,-0.286865,0.0184937,0.000721146,0.0016012,-0.0081971,0.00937007,-0.00704772,-0.812213,0.00951038,0.0473037,769,708,-0.286853,-0.0184747
-448,316,-0.0553589,-0.0285645,6.01945e-05,0.00571149,-0.0126738,0.0158708,-0.0100992,-0.89508,0.0151167,0.0476586,776,708,-0.0553684,0.028547
-441,316,0.164551,-0.198792,-0.00133661,0.0114197,-0.0183185,0.0244386,-0.0143556,-0.952925,0.0226486,0.0477575,783,708,0.164568,0.19877
-434,316,-0.33844,-0.959473,0,0,0,0,0,0,0,-1,790,708,-0.338416,0.959459
-427,316,-0.315552,-1.59253,-0.00783836,0.0283368,-0.0331073,0.0479753,-0.0274768,-1.03541,0.0440949,0.0432006,797,708,-0.315543,1.59255
-420,316,-0.448364,-2.21973,-0.0139257,0.0393478,-0.0422484,0.0626555,-0.0372333,-1.06666,0.0582901,0.0449175,804,708,-0.448385,2.2197
-413,316,0,0,0,0,0,0,0,0,0,-1,811,708,0,0
-406,316,0,0,0,0,0,0,0,0,0,-1,818,708,0,0
-399,316,0,0,0,0,0,0,0,0,0,-1,825,708,0,0
-392,316,0,0,0,0,0,0,0,0,0,-1,832,708,0,0
-385,316,0,0,0,0,0,0,0,0,0,-1,839,708,0,0
-378,316,0,0,0,0,0,0,0,0,0,-1,846,708,0,0
-371,316,0,0,0,0,0,0,0,0,0,-1,853,708,0,0
-364,316,0,0,0,0,0,0,0,0,0,-1,860,708,0,0
-357,316,0,0,0,0,0,0,0,0,0,-1,867,708,0,0
-350,316,0,0,0,0,0,0,0,0,0,-1,874,708,0,0
-343,316,0,0,0,0,0,0,0,0,0,-1,881,708,0,0
-336,316,0,0,0,0,0,0,0,0,0,-1,888,708,0,0
-329,316,0,0,0,0,0,0,0,0,0,-1,895,708,0,0
-322,316,0,0,0,0,0,0,0,0,0,-1,902,708,0,0
-315,316,0,0,0,0,0,0,0,0,0,-1,909,708,0,0
-308,316,0,0,0,0,0,0,0,0,0,-1,916,708,0,0
-301,316,0,0,0,0,0,0,0,0,0,-1,923,708,0,0
-294,316,0,0,0,0,0,0,0,0,0,-1,930,708,0,0
-287,316,0,0,0,0,0,0,0,0,0,-1,937,708,0,0
-280,316,0,0,0,0,0,0,0,0,0,-1,944,708,0,0
-273,316,0,0,0,0,0,0,0,0,0,-1,951,708,0,0
-266,316,0,0,0,0,0,0,0,0,0,-1,958,708,0,0
-259,316,0,0,0,0,0,0,0,0,0,-1,965,708,0,0
-252,316,0,0,0,0,0,0,0,0,0,-1,972,708,0,0
-245,316,0,0,0,0,0,0,0,0,0,-1,979,708,0,0
-238,316,0,0,0,0,0,0,0,0,0,-1,986,708,0,0
-231,316,0,0,0,0,0,0,0,0,0,-1,993,708,0,0
-224,316,0,0,0,0,0,0,0,0,0,-1,1000,708,0,0
-217,316,0,0,0,0,0,0,0,0,0,-1,1007,708,0,0
-210,316,0,0,0,0,0,0,0,0,0,-1,1014,708,0,0
-203,316,0,0,0,0,0,0,0,0,0,-1,1021,708,0,0
-196,316,0,0,0,0,0,0,0,0,0,-1,1028,708,0,0
-189,316,0,0,0,0,0,0,0,0,0,-1,1035,708,0,0
-182,316,0,0,0,0,0,0,0,0,0,-1,1042,708,0,0
-175,316,0,0,0,0,0,0,0,0,0,-1,1049,708,0,0
-168,316,0,0,0,0,0,0,0,0,0,-1,1056,708,0,0
-161,316,0,0,0,0,0,0,0,0,0,-1,1063,708,0,0
-154,316,0,0,0,0,0,0,0,0,0,-1,1070,708,0,0
-147,316,0,0,0,0,0,0,0,0,0,-1,1077,708,0,0
-140,316,0,0,0,0,0,0,0,0,0,-1,1084,708,0,0
-133,316,0,0,0,0,0,0,0,0,0,-1,1091,708,0,0
-126,316,0,0,0,0,0,0,0,0,0,-1,1098,708,0,0
-119,316,0,0,0,0,0,0,0,0,0,-1,1105,708,0,0
-112,316,0,0,0,0,0,0,0,0,0,-1,1112,708,0,0
-105,316,0,0,0,0,0,0,0,0,0,-1,1119,708,0,0
-98,316,0,0,0,0,0,0,0,0,0,-1,1126,708,0,0
-91,316,0,0,0,0,0,0,0,0,0,-1,1133,708,0,0
-84,316,0,0,0,0,0,0,0,0,0,-1,1140,708,0,0
-77,316,0,0,0,0,0,0,0,0,0,-1,1147,708,0,0
-70,316,0,0,0,0,0,0,0,0,0,-1,1154,708,0,0
-63,316,0,0,0,0,0,0,0,0,0,-1,1161,708,0,0
-56,316,0,0,0,0,0,0,0,0,0,-1,1168,708,0,0
-49,316,0,0,0,0,0,0,0,0,0,-1,1175,708,0,0
-42,316,0,0,0,0,0,0,0,0,0,-1,1182,708,0,0
-35,316,0,0,0,0,0,0,0,0,0,-1,1189,708,0,0
-28,316,0,0,0,0,0,0,0,0,0,-1,1196,708,0,0
-21,316,0,0,0,0,0,0,0,0,0,-1,1203,708,0,0
-14,316,0,0,0,0,0,0,0,0,0,-1,1210,708,0,0
-7,316,0,0,0,0,0,0,0,0,0,-1,1217,708,0,0
0,316,0,0,0,0,0,0,0,0,0,-1,1224,708,0,0
7,316,0,0,0,0,0,0,0,0,0,-1,1231,708,0,0
14,316,0,0,0,0,0,0,0,0,0,-1,1238,708,0,0
21,316,0,0,0,0,0,0,0,0,0,-1,1245,708,0,0
28,316,0,0,0,0,0,0,0,0,0,-1,1252,708,0,0
35,316,0,0,0,0,0,0,0,0,0,-1,1259,708,0,0
42,316,0,0,0,0,0,0,0,0,0,-1,1266,708,0,0
49,316,0,0,0,0,0,0,0,0,0,-1,1273,708,0,0
56,316,0,0,0,0,0,0,0,0,0,-1,1280,708,0,0
63,316,0,0,0,0,0,0,0,0,0,-1,1287,708,0,0
70,316,0,0,0,0,0,0,0,0,0,-1,1294,708,0,0
77,316,0,0,0,0,0,0,0,0,0,-1,1301,708,0,0
84,316,0,0,0,0,0,0,0,0,0,-1,1308,708,0,0
91,316,0,0,0,0,0,0,0,0,0,-1,1315,708,0,0
98,316,0,0,0,0,0,0,0,0,0,-1,1322,708,0,0
105,316,0,0,0,0,0,0,0,0,0,-1,1329,708,0,0
112,316,0,0,0,0,0,0,0,0,0,-1,1336,708,0,0
119,316,0,0,0,0,0,0,0,0,0,-1,1343,708,0,0
126,316,0,0,0,0,0,0,0,0,0,-1,1350,708,0,0
133,316,0,0,0,0,0,0,0,0,0,-1,1357,708,0,0
140,316,0,0,0,0,0,0,0,0,0,-1,1364,708,0,0
147,316,0,0,0,0,0,0,0,0,0,-1,1371,708,0,0
154,316,0,0,0,0,0,0,0,0,0,-1,1378,708,0,0
161,316,0,0,0,0,0,0,0,0,0,-1,1385,708,0,0
168,316,0,0,0,0,0,0,0,0,0,-1,1392,708,0,0
175,316,0,0,0,0,0,0,0,0,0,-1,1399,708,0,0
182,316,0,0,0,0,0,0,0,0,0,-1,1406,708,0,0
189,316,0,0,0,0,0,0,0,0,0,-1,1413,708,0,0
196,316,0,0,0,0,0,0,0,0,0,-1,1420,708,0,0
203,316,0,0,0,0,0,0,0,0,0,-1,1427,708,0,0
210,316,0,0,0,0,0,0,0,0,0,-1,1434,708,0,0
217,316,0,0,0,0,0,0,0,0,0,-1,1441,708,0,0
224,316,0,0,0,0,0,0,0,0,0,-1,1448,708,0,0
231,316,0,0,0,0,0,0,0,0,0,-1,1455,708,0,0
238,316,0,0,0,0,0,0,0,0,0,-1,1462,708,0,0
245,316,0,0,0,0,0,0,0,0,0,-1,1469,708,0,0
252,316,0,0,0,0,0,0,0,0,0,-1,1476,708,0,0
259,316,0,0,0,0,0,0,0,0,0,-1,1483,708,0,0
266,316,0,0,0,0,0,0,0,0,0,-1,1490,708,0,0
273,316,0,0,0,0,0,0,0,0,0,-1,1497,708,0,0
280,316,0,0,0,0,0,0,0,0,0,-1,1504,708,0,0
287,316,0,0,0,0,0,0,0,0,0,-1,1511,708,0,0
294,316,0,0,0,0,0,0,0,0,0,-1,1518,708,0,0
301,316,0,0,0,0,0,0,0,0,0,-1,1525,708,0,0
308,316,0,0,0,0,0,0,0,0,0,-1,1532,708,0,0
315,316,0,0,0,0,0,0,0,0,0,-1,1539,708,0,0
322,316,0,0,0,0,0,0,0,0,0,-1,1546,708,0,0
329,316,0,0,0,0,0,0,0,0,0,-1,1553,708,0,0
336,316,0,0,0,0,0,0,0,0,0,-1,1560,708,0,0
343,316,0,0,0,0,0,0,0,0,0,-1,1567,708,0,0
350,316,0,0,0,0,0,0,0,0,0,-1,1574,708,0,0
357,316,0,0,0,0,0,0,0,0,0,-1,1581,708,0,0
364,316,0,0,0,0,0,0,0,0,0,-1,1588,708,0,0
371,316,0,0,0,0,0,0,0,0,0,-1,1595,708,0,0
378,316,0,0,0,0,0,0,0,0,0,-1,1602,708,0,0
385,316,0,0,0,0,0,0,0,0,0,-1,1609,708,0,0
392,316,0,0,0,0,0,0,0,0,0,-1,1616,708,0,0
399,316,0,0,0,0,0,0,0,0,0,-1,1623,708,0,0
406,316,0,0,0,0,0,0,0,0,0,-1,1630,708,0,0
413,316,0,0,0,0,0,0,0,0,0,-1,1637,708,0,0
420,316,0,0,0,0,0,0,0,0,0,-1,1644,708,0,0
427,316,0,0,0,0,0,0,0,0,0,-1,1651,708,0,0
434,316,0,0,0,0,0,0,0,0,0,-1,1658,708,0,0
441,316,0,0,0,0,0,0,0,0,0,-1,1665,708,0,0
448,316,0,0,0,0,0,0,0,0,0,-1,1672,708,0,0
455,316,0,0,0,0,0,0,0,0,0,-1,1679,708,0,0
462,316,0,0,0,0,0,0,0,0,0,-1,1686,708,0,0
469,316,0,0,0,0,0,0,0,0,0,-1,1693,708,0,0
476,316,0,0,0,0,0,0,0,0,0,-1,1700,708,0,0
483,316,0,0,0,0,0,0,0,0,0,-1,1707,708,0,0
490,316,0,0,0,0,0,0,0,0,0,-1,1714,708,0,0
497,316,0,0,0,0,0,0,0,0,0,-1,1721,708,0,0
504,316,0,0,0,0,0,0,0,0,0,-1,1728,708,0,0
511,316,0,0,0,0,0,0,0,0,0,-1,1735,708,0,0
518,316,0,0,0,0,0,0,0,0,0,-1,1742,708,0,0
525,316,0,0,0,0,0,0,0,0,0,-1,1749,708,0,0
532,316,12.6835,-2.46008,0,0,0,0,0,0,0,-1,1756,708,12.6835,2.46008
539,316,11.2472,-0.920715,0,0,0,0,0,0,0,-1,1763,708,11.2471,0.92074
546,316,2.25488,3.57391,0,0,0,0,0,0,0,-1,1770,708,2.25484,-3.57389
553,316,9.47046,1.00323,0,0,0,0,0,0,0,-1,1777,708,9.47048,-1.00326
560,316,8.79236,1.586,0.0104908,0.0230803,-0.0234771,0.041092,-0.00752082,-0.916379,0.0302152,0.0457718,1784,708,8.79233,-1.58598
567,316,8.24646,1.58191,0.0101162,0.0160991,-0.0204631,0.0337882,-0.00757294,-0.857979,0.0254285,0.045934,1791,708,8.24647,-1.58192
574,316,7.68152,1.40686,0.00903208,0.0106197,-0.0176191,0.0274628,-0.00781104,-0.80791,0.021393,0.046987,1798,708,7.68153,-1.40687
581,316,7.18884,1.30676,0,0,0,0,0,0,0,-1,1805,708,7.18881,-1.30675
588,316,6.13391,0.782227,0,0,0,0,0,0,0,-1,1812,708,6.13388,-0.782238
595,316,5.44861,2.14392,0,0,0,0,0,0,0,-1,1819,708,5.44858,-2.1439
602,316,4.9552,0.211487,0,0,0,0,0,0,0,-1,1826,708,4.95522,-0.21147
609,316,5.01538,0.171814,0.00143989,-0.00584314,-0.00567004,0.00453707,-0.00894032,-0.499949,0.00791839,0.0362424,1833,708,5.01535,-0.171799
616,316,5.06885,0.119385,-0.00405338,-0.00631566,-0.00527635,0.000211721,-0.0105808,-0.679807,0.00712546,0.0134988,1840,708,5.06881,-0.119407
623,316,5.06055,0.183289,-0.00221965,-0.00554048,-0.00361126,9.462e-05,-0.00785475,-0.569916,0.00526833,0.0106653,1847,708,5.06053,-0.18326
630,316,5.04077,0.25708,-0.000947172,-0.0048076,-0.00219836,4.81049e-05,-0.00580288,-0.425127,0.00388472,0.0121597,1854,708,5.04072,-0.25711
637,316,5.06042,0.346558,-0.000734118,-0.003482,-0.00147524,-9.21099e-05,-0.00412401,-0.410469,0.00271915,0.0118885,1861,708,5.06041,-0.34656
644,316,5.09241,0.401123,-0.000637377,-0.00256199,-0.00118966,-6.95422e-05,-0.00312982,-0.445329,0.00206376,0.0121859,1868,708,5.09237,-0.401127
651,316,5.05957,0.462708,-0.00013757,-0.00190807,-0.00112762,0.000410772,-0.00245641,-0.452615,0.00179031,0.0124907,1875,708,5.05956,-0.4627
658,316,5.06335,0.549011,0.000937797,-0.00132138,-0.00139736,0.00160504,-0.00198862,-0.445486,0.00207873,0.0167715,1882,708,5.06331,-0.548999
665,316,5.0592,0.628906,0.00195207,0.000862326,-0.00193725,0.00341961,-0.000605223,-0.64831,0.00250597,0.0143892,1889,708,5.05922,-0.628899
672,316,5.05762,0.709717,0.00309325,0.00355676,-0.00248427,0.00582007,0.000829947,-0.831908,0.00363511,0.0124026,1896,708,5.05758,-0.709707
679,316,5.05237,0.780518,0.00495858,0.00661492,-0.0035338,0.00941629,0.0021572,-0.900499,0.00569628,0.017058,1903,708,5.05237,-0.780533
686,316,5.00256,0.825256,0.00752786,0.0108802,-0.00476306,0.0142534,0.00415465,-0.954586,0.00846438,0.0294632,1910,708,5.00261,-0.825275
693,316,4.90271,0.874268,0.0108073,0.0172738,-0.00608125,0.0209279,0.00715323,-1.02973,0.0122827,0.04392,1917,708,4.90272,-0.874275
700,316,4.8512,0.653564,0.0147722,0.026468,-0.0075066,0.0301357,0.0111045,-1.11631,0.0175983,0.0452504,1924,708,4.85125,-0.653541
707,316,4.896,0.139771,0.0192511,0.0392708,-0.00878932,0.042582,0.01594,-1.21051,0.0248422,0.0454904,1931,708,4.896,-0.139763
714,316,5.40076,-0.184387,0.0239487,0.0566007,-0.0096627,0.0592459,0.0213035,-1.30359,0.0346523,0.0443827,1938,708,5.40073,0.184399
721,316,5.42151,-0.213623,0.0283474,0.0794966,-0.0097418,0.0812892,0.0265548,-1.38882,0.0478631,0.0435389,1945,708,5.42153,0.21365
728,316,0,0,0,0,0,0,0,0,0,-1,1952,708,0,0
735,316,0,0,0,0,0,0,0,0,0,-1,1959,708,0,0
742,316,0,0,0,0,0,0,0,0,0,-1,1966,708,0,0
749,316,0,0,0,0,0,0,0,0,0,-1,1973,708,0,0
756,316,0,0,0,0,0,0,0,0,0,-1,1980,708,0,0
763,316,0,0,0,0,0,0,0,0,0,-1,1987,708,0,0
770,316,0,0,0,0,0,0,0,0,0,-1,1994,708,0,0
777,316,0,0,0,0,0,0,0,0,0,-1,2001,708,0,0
784,316,0,0,0,0,0,0,0,0,0,-1,2008,708,0,0
791,316,0,0,0,0,0,0,0,0,0,-1,2015,708,0,0
798,316,0,0,0,0,0,0,0,0,0,-1,2022,708,0,0
805,316,0,0,0,0,0,0,0,0,0,-1,2029,708,0,0
812,316,0,0,0,0,0,0,0,0,0,-1,2036,708,0,0
-700,309,0,0,0,0,0,0,0,0,0,-1,524,715,0,0
-693,309,0,0,0,0,0,0,0,0,0,-1,531,715,0,0
-686,309,0,0,0,0,0,0,0,0,0,-1,538,715,0,0
-679,309,0,0,0,0,0,0,0,0,0,-1,545,715,0,0
-672,309,0,0,0,0,0,0,0,0,0,-1,552,715,0,0
-665,309,0,0,0,0,0,0,0,0,0,-1,559,715,0,0
-658,309,0,0,0,0,0,0,0,0,0,-1,566,715,0,0
-651,309,0,0,0,0,0,0,0,0,0,-1,573,715,0,0
-644,309,0,0,0,0,0,0,0,0,0,-1,580,715,0,0
-637,309,0,0,0,0,0,0,0,0,0,-1,587,715,0,0
-630,309,0,0,0,0,0,0,0,0,0,-1,594,715,0,0
-623,309,0,0,0,0,0,0,0,0,0,-1,601,715,0,0
-616,309,0,0,0,0,0,0,0,0,0,-1,608,715,0,0
-609,309,2.58356,-0.791931,0,0,0,0,0,0,0,-1,615,715,2.58357,0.791959
-602,309,2.51697,-0.0144653,-0.0307483,0.0171945,-0.0477584,0.0466599,-0.0602137,-1.01799,0.0618687,0.0441712,622,715,2.51695,0.0144623
-595,309,2.61987,0.791016,0,0,0,0,0,0,0,-1,629,715,2.6199,-0.791036
-588,309,2.841,1.60046,-0.0198798,0.0169447,-0.0265303,0.0308259,-0.033761,-1.08874,0.0373021,0.0446065,636,715,2.841,-1.60047
-581,309,-0.998352,0.679443,-0.0157756,0.0155136,-0.0189202,0.0244195,-0.0246815,-1.13086,0.0283486,0.0475879,643,715,-0.998373,-0.679471
-574,309,-0.525024,0.706177,-0.0127537,0.0136099,-0.0130512,0.0189779,-0.0181216,-1.18059,0.0214213,0.0457389,650,715,-0.525031,-0.706164
-567,309,-0.568481,0.591858,-0.00995055,0.0123322,-0.00911332,0.0155847,-0.013203,-1.22799,0.0166395,0.0409833,657,715,-0.568475,-0.591883
-560,309,-0.677246,0.458435,-0.0072426,0.0101106,-0.00598634,0.0119754,-0.00910733,-1.26883,0.0122096,0.0356704,664,715,-0.677264,-0.45845
-553,309,-0.836609,0.51947,-0.0053075,0.00821291,-0.0037661,0.00919118,-0.00628576,-1.31666,0.00898795,0.0220175,671,715,-0.836615,-0.519441
-546,309,-0.859375,0.437744,-0.00427698,0.00619962,-0.00233324,0.00669576,-0.00477312,-1.36128,0.0066525,0.0146508,678,715,-0.859374,-0.437731
-539,309,-0.862976,0.332764,-0.00320668,0.00440418,-0.00150544,0.00469114,-0.00349364,-1.38244,0.00474231,0.0141875,685,715,-0.862989,-0.332783
-532,309,-0.878235,0.262085,-0.00196727,0.00253462,-0.000905751,0.00271001,-0.00214267,-1.37951,0.00280807,0.0111772,692,715,-0.878252,-0.262111
-525,309,-0.85144,0.193909,-0.00145039,0.00104789,-0.000592768,0.0011814,-0.0015839,-1.34926,0.00160218,0.0137482,699,715,-0.851453,-0.193901
-518,309,-0.857422,0.133545,-0.00103191,-0.000450706,1.52337e-05,-0.000450307,-0.00103231,1.54461,0.00059762,0.0141376,706,715,-0.857392,-0.133523
-511,309,-0.864319,0.0696411,-0.000609678,-0.00182791,0.000606657,-0.000359111,-0.00207848,0.391687,0.00128282,0.0114541,713,715,-0.864337,-0.0696359
-504,309,-0.845886,-0.00360107,-0.000235602,-0.00321389,0.00120971,0.000193835,-0.00364333,0.341114,0.00249601,0.00925218,720,715,-0.845865,0.00358645
-497,309,-0.840088,-0.0799561,0.00013516,-0.00404929,0.00146938,0.00059959,-0.00451372,0.306136,0.00322763,0.012781,727,715,-0.840108,0.0799408
-490,309,-0.83551,-0.147644,0.000459183,-0.00464763,0.000954596,0.000631788,-0.00482024,0.178882,0.00344346,0.0148366,734,715,-0.835515,0.147673
-483,309,-0.778442,-0.0421753,0.00068919,-0.00479507,0.000329217,0.000708882,-0.00481477,0.0597435,0.00347036,0.0284934,741,715,-0.778449,0.0421683
-476,309,-0.657471,0.295471,0.000688365,-0.00429798,-0.00100686,0.000883997,-0.00449361,-0.191908,0.00332975,0.0377442,748,715,-0.657462,-0.295481
-469,309,-0.864746,0.120911,0.000530195,-0.00271833,-0.00305747,0.00236806,-0.0045562,-0.541233,0.00406371,0.048605,755,715,-0.864772,-0.120921
-462,309,-0.696472,0.113831,0,0,0,0,0,0,0,-1,762,715,-0.696469,-0.113826
-455,309,-0.435852,0.116882,0,0,0,0,0,0,0,-1,769,715,-0.435855,-0.116903
-448,309,-0.211365,0.0418701,0,0,0,0,0,0,0,-1,776,715,-0.211384,-0.0418401
-441,309,0.0501099,-0.108398,0,0,0,0,0,0,0,-1,783,715,0.0501193,0.108423
-434,309,-0.279236,-1.19568,0,0,0,0,0,0,0,-1,790,715,-0.279209,1.19566
-427,309,-0.312073,-1.88965,0,0,0,0,0,0,0,-1,797,715,-0.312046,1.88967
-420,309,-0.449463,-2.55292,0,0,0,0,0,0,0,-1,804,715,-0.449448,2.55293
-413,309,0,0,0,0,0,0,0,0,0,-1,811,715,0,0
-406,309,0,0,0,0,0,0,0,0,0,-1,818,715,0,0
-399,309,0,0,0,0,0,0,0,0,0,-1,825,715,0,0
-392,309,0,0,0,0,0,0,0,0,0,-1,832,715,0,0
-385,309,0,0,0,0,0,0,0,0,0,-1,839,715,0,0
-378,309,0,0,0,0,0,0,0,0,0,-1,846,715,0,0
-371,309,0,0,0,0,0,0,0,0,0,-1,853,715,0,0
-364,309,0,0,0,0,0,0,0,0,0,-1,860,715,0,0
-357,309,0,0,0,0,0,0,0,0,0,-1,867,715,0,0
-350,309,0,0,0,0,0,0,0,0,0,-1,874,715,0,0
-343,309,0,0,0,0,0,0,0,0,0,-1,881,715,0,0
-336,309,0,0,0,0,0,0,0,0,0,-1,888,715,0,0
-329,309,0,0,0,0,0,0,0,0,0,-1,895,715,0,0
-322,309,0,0,0,0,0,0,0,0,0,-1,902,715,0,0
-315,309,0,0,0,0,0,0,0,0,0,-1,909,715,0,0
-308,309,0,0,0,0,0,0,0,0,0,-1,916,715,0,0
-301,309,0,0,0,0,0,0,0,0,0,-1,923,715,0,0
-294,309,0,0,0,0,0,0,0,0,0,-1,930,715,0,0
-287,309,0,0,0,0,0,0,0,0,0,-1,937,715,0,0
-280,309,0,0,0,0,0,0,0,0,0,-1,944,715,0,0
-273,309,0,0,0,0,0,0,0,0,0,-1,951,715,0,0
-266,309,0,0,0,0,0,0,0,0,0,-1,958,715,0,0
-259,309,0,0,0,0,0,0,0,0,0,-1,965,715,0,0
-252,309,0,0,0,0,0,0,0,0,0,-1,972,715,0,0
-245,309,0,0,0,0,0,0,0,0,0,-1,979,715,0,0
-238,309,0,0,0,0,0,0,0,0,0,-1,986,715,0,0
-231,309,0,0,0,0,0,0,0,0,0,-1,993,715,0,0
-224,309,0,0,0,0,0,0,0,0,0,-1,1000,715,0,0
-217,309,0,0,0,0,0,0,0,0,0,-1,1007,715,0,0
-210,309,0,0,0,0,0,0,0,0,0,-1,1014,715,0,0
-203,309,0,0,0,0,0,0,0,0,0,-1,1021,715,0,0
-196,309,0,0,0,0,0,0,0,0,0,-1,1028,715,0,0
-189,309,0,0,0,0,0,0,0,0,0,-1,1035,715,0,0
-182,309,0,0,0,0,0,0,0,0,0,-1,1042,715,0,0
-175,309,0,0,0,0,0,0,0,0,0,-1,1049,715,0,0
-168,309,0,0,0,0,0,0,0,0,0,-1,1056,715,0,0
-161,309,0,0,0,0,0,0,0,0,0,-1,1063,715,0,0
-154,309,0,0,0,0,0,0,0,0,0,-1,1070,715,0,0
-147,309,0,0,0,0,0,0,0,0,0,-1,1077,715,0,0
-140,309,0,0,0,0,0,0,0,0,0,-1,1084,715,0,0
-133,309,0,0,0,0,0,0,0,0,0,-1,1091,715,0,0
-126,309,0,0,0,0,0,0,0,0,0,-1,1098,715,0,0
-119,309,0,0,0,0,0,0,0,0,0,-1,1105,715,0,0
-112,309,0,0,0,0,0,0,0,0,0,-1,1112,715,0,0
-105,309,0,0,0,0,0,0,0,0,0,-1,1119,715,0,0
-98,309,0,0,0,0,0,0,0,0,0,-1,1126,715,0,0
-91,309,0,0,0,0,0,0,0,0,0,-1,1133,715,0,0
-84,309,0,0,0,0,0,0,0,0,0,-1,1140,715,0,0
-77,309,0,0,0,0,0,0,0,0,0,-1,1147,715,0,0
-70,309,0,0,0,0,0,0,0,0,0,-1,1154,715,0,0
-63,309,0,0,0,0,0,0,0,0,0,-1,1161,715,0,0
-56,309,0,0,0,0,0,0,0,0,0,-1,1168,715,0,0
-49,309,0,0,0,0,0,0,0,0,0,-1,1175,715,0,0
-42,309,0,0,0,0,0,0,0,0,0,-1,1182,715,0,0
-35,309,0,0,0,0,0,0,0,0,0,-1,1189,715,0,0
-28,309,0,0,0,0,0,0,0,0,0,-1,1196,715,0,0
-21,309,0,0,0,0,0,0,0,0,0,-1,1203,715,0,0
-14,309,0,0,0,0,0,0,0,0,0,-1,1210,715,0,0
-7,309,0,0,0,0,0,0,0,0,0,-1,1217,715,0,0
0,309,0,0,0,0,0,0,0,0,0,-1,1224,715,0,0
7,309,0,0,0,0,0,0,0,0,0,-1,1231,715,0,0
14,309,0,0,0,0,0,0,0,0,0,-1,1238,715,0,0
21,309,0,0,0,0,0,0,0,0,0,-1,1245,715,0,0
28,309,0,0,0,0,0,0,0,0,0,-1,1252,715,0,0
35,309,0,0,0,0,0,0,0,0,0,-1,1259,715,0,0
42,309,0,0,0,0,0,0,0,0,0,-1,1266,715,0,0
49,309,0,0,0,0,0,0,0,0,0,-1,1273,715,0,0
56,309,0,0,0,0,0,0,0,0,0,-1,1280,715,0,0
63,309,0,0,0,0,0,0,0,0,0,-1,1287,715,0,0
70,309,0,0,0,0,0,0,0,0,0,-1,1294,715,0,0
77,309,0,0,0,0,0,0,0,0,0,-1,1301,715,0,0
84,309,0,0,0,0,0,0,0,0,0,-1,1308,715,0,0
91,309,0,0,0,0,0,0,0,0,0,-1,1315,715,0,0
98,309,0,0,0,0,0,0,0,0,0,-1,1322,715,0,0
105,309,0,0,0,0,0,0,0,0,0,-1,1329,715,0,0
112,309,0,0,0,0,0,0,0,0,0,-1,1336,715,0,0
119,309,0,0,0,0,0,0,0,0,0,-1,1343,715,0,0
126,309,0,0,0,0,0,0,0,0,0,-1,1350,715,0,0
133,309,0,0,0,0,0,0,0,0,0,-1,1357,715,0,0
140,309,0,0,0,0,0,0,0,0,0,-1,1364,715,0,0
147,309,0,0,0,0,0,0,0,0,0,-1,1371,715,0,0
154,309,0,0,0,0,0,0,0,0,0,-1,1378,715,0,0
161,309,0,0,0,0,0,0,0,0,0,-1,1385,715,0,0
168,309,0,0,0,0,0,0,0,0,0,-1,1392,715,0,0
175,309,0,0,0,0,0,0,0,0,0,-1,1399,715,0,0
182,309,0,0,0,0,0,0,0,0,0,-1,1406,715,0,0
189,309,0,0,0,0,0,0,0,0,0,-1,1413,715,0,0
196,309,0,0,0,0,0,0,0,0,0,-1,1420,715,0,0
203,309,0,0,0,0,0,0,0,0,0,-1,1427,715,0,0
210,309,0,0,0,0,0,0,0,0,0,-1,1434,715,0,0
217,309,0,0,0,0,0,0,0,0,0,-1,1441,715,0,0
224,309,0,0,0,0,0,0,0,0,0,-1,1448,715,0,0
231,309,0,0,0,0,0,0,0,0,0,-1,1455,715,0,0
238,309,0,0,0,0,0,0,0,0,0,-1,1462,715,0,0
245,309,0,0,0,0,0,0,0,0,0,-1,1469,715,0,0
252,309,0,0,0,0,0,0,0,0,0,-1,1476,715,0,0
259,309,0,0,0,0,0,0,0,0,0,-1,1483,715,0,0
266,309,0,0,0,0,0,0,0,0,0,-1,1490,715,0,0
273,309,0,0,0,0,0,0,0,0,0,-1,1497,715,0,0
280,309,0,0,0,0,0,0,0,0,0,-1,1504,715,0,0
287,309,0,0,0,0,0,0,0,0,0,-1,1511,715,0,0
294,309,0,0,0,0,0,0,0,0,0,-1,1518,715,0,0
301,309,0,0,0,0,0,0,0,0,0,-1,1525,715,0,0
308,309,0,0,0,0,0,0,0,0,0,-1,1532,715,0,0
315,309,0,0,0,0,0,0,0,0,0,-1,1539,715,0,0
322,309,0,0,0,0,0,0,0,0,0,-1,1546,715,0,0
329,309,0,0,0,0,0,0,0,0,0,-1,1553,715,0,0
336,309,0,0,0,0,0,0,0,0,0,-1,1560,715,0,0
343,309,0,0,0,0,0,0,0,0,0,-1,1567,715,0,0
350,309,0,0,0,0,0,0,0,0,0,-1,1574,715,0,0
357,309,0,0,0,0,0,0,0,0,0,-1,1581,715,0,0
364,309,0,0,0,0,0,0,0,0,0,-1,1588,715,0,0
371,309,0,0,0,0,0,0,0,0,0,-1,1595,715,0,0
378,309,0,0,0,0,0,0,0,0,0,-1,1602,715,0,0
385,309,0,0,0,0,0,0,0,0,0,-1,1609,715,0,0
392,309,0,0,0,0,0,0,0,0,0,-1,1616,715,0,0
399,309,0,0,0,0,0,0,0,0,0,-1,1623,715,0,0
406,309,0,0,0,0,0,0,0,0,0,-1,1630,715,0,0
413,309,0,0,0,0,0,0,0,0,0,-1,1637,715,0,0
420,309,0,0,0,0,0,0,0,0,0,-1,1644,715,0,0
427,309,0,0,0,0,0,0,0,0,0,-1,1651,715,0,0
434,309,0,0,0,0,0,0,0,0,0,-1,1658,715,0,0
441,309,0,0,0,0,0,0,0,0,0,-1,1665,715,0,0
448,309,0,0,0,0,0,0,0,0,0,-1,1672,715,0,0
455,309,0,0,0,0,0,0,0,0,0,-1,1679,715,0,0
462,309,0,0,0,0,0,0,0,0,0,-1,1686,715,0,0
469,309,0,0,0,0,0,0,0,0,0,-1,1693,715,0,0
476,309,0,0,0,0,0,0,0,0,0,-1,1700,715,0,0
483,309,0,0,0,0,0,0,0,0,0,-1,1707,715,0,0
490,309,0,0,0,0,0,0,0,0,0,-1,1714,715,0,0
497,309,0,0,0,0,0,0,0,0,0,-1,1721,715,0,0
504,309,0,0,0,0,0,0,0,0,0,-1,1728,715,0,0
511,309,0,0,0,0,0,0,0,0,0,-1,1735,715,0,0
518,309,0,0,0,0,0,0,0,0,0,-1,1742,715,0,0
525,309,0,0,0,0,0,0,0,0,0,-1,1749,715,0,0
532,309,0,0,0,0,0,0,0,0,0,-1,1756,715,0,0
539,309,3.3949,2.73547,0,0,0,0,0,0,0,-1,1763,715,3.39492,-2.73545
546,309,3.44238,3.02594,0.0213706,0.057505,-0.0306949,0.0750552,0.00382036,-1.0514,0.0488132,0.0444269,1770,715,3.44239,-3.02591
553,309,3.53418,3.35028,0.0212743,0.0407107,-0.0268981,0.0595923,0.00239263,-0.95875,0.0389552,0.0432199,1777,715,3.53414,-3.35026
560,309,9.06689,1.54889,0.0199604,0.028475,-0.023207,0.047812,0.00062342,-0.876115,0.0316689,0.0451244,1784,715,9.06691,-1.54889
567,309,8.51379,1.85309,0,0,0,0,0,0,0,-1,1791,715,8.51377,-1.85309
574,309,7.93909,1.61597,0,0,0,0,0,0,0,-1,1798,715,7.93908,-1.61597
581,309,6.36096,0.445496,0,0,0,0,0,0,0,-1,1805,715,6.36095,-0.445523
588,309,4.53394,3.28522,0,0,0,0,0,0,0,-1,1812,715,4.53389,-3.28523
595,309,4.82019,2.30756,0.00838348,-0.000920982,-0.0101615,0.0149071,-0.00744463,-0.570726,0.0131423,0.0469784,1819,715,4.82023,-2.30755
602,309,4.78955,1.4408,0,0,0,0,0,0,0,-1,1826,715,4.7895,-1.44081
609,309,4.96069,0.489929,0.0023465,-0.00678068,-0.00509924,0.00462605,-0.00906023,-0.420387,0.00803883,0.0405614,1833,715,4.96071,-0.489935
616,309,5.11743,0.152405,-0.00398112,-0.00776554,-0.0047423,-0.000767465,-0.0109792,-0.595573,0.00707752,0.019097,1840,715,5.11743,-0.152379
623,309,5.14209,0.185303,-0.00252583,-0.00725603,-0.00314419,-0.00095651,-0.00882534,-0.46294,0.00559206,0.0100453,1847,715,5.14204,-0.185293
630,309,5.11646,0.257324,-0.00154762,-0.00662419,-0.00183647,-0.000952935,-0.00721888,-0.313165,0.00452849,0.00965709,1854,715,5.11644,-0.257294
637,309,5.10913,0.337524,-0.00120706,-0.0050258,-0.00125425,-0.000831948,-0.00540091,-0.290602,0.00335782,0.012493,1861,715,5.10918,-0.337542
644,309,5.10144,0.400879,-0.00081497,-0.00371331,-0.00106316,-0.000466807,-0.00406147,-0.316473,0.00256624,0.0137124,1868,715,5.10147,-0.400904
651,309,5.10962,0.467468,-0.000154645,-0.00270906,-0.00119868,0.000319748,-0.00318345,-0.376847,0.00223651,0.0126564,1875,715,5.10958,-0.467447
658,309,5.13733,0.572632,0.000895033,-0.00190076,-0.00167933,0.00168214,-0.00268787,-0.438301,0.0025452,0.0176586,1882,715,5.13736,-0.572625
665,309,5.14148,0.643433,0.00184295,0.00035528,-0.00234879,0.00356287,-0.00136464,-0.63205,0.00293775,0.0164308,1889,715,5.14144,-0.643406
672,309,5.13086,0.708618,0.00281815,0.00303475,-0.00300852,0.00593692,-8.40272e-05,-0.803389,0.00398625,0.0147659,1896,715,5.13081,-0.708646
679,309,5.12622,0.792786,0.00431824,0.00605719,-0.0041844,0.00946149,0.000913939,-0.887835,0.00602616,0.0149953,1903,715,5.12624,-0.792803
686,309,5.11914,0.831482,0.00633879,0.0100754,-0.00555109,0.0140642,0.00235004,-0.947727,0.00869923,0.0190962,1910,715,5.11909,-0.831461
693,309,5.0531,0.851318,0.00887598,0.0160284,-0.00692903,0.0202497,0.00465471,-1.02363,0.0122467,0.0301194,1917,715,5.05305,-0.851343
700,309,5.08142,0.56665,0.0119327,0.0244885,-0.00841532,0.0287096,0.00771157,-1.10587,0.017157,0.0440631,1924,715,5.08142,-0.566651
707,309,5.20691,0.0996704,0.0152885,0.0361119,-0.00967346,0.0399121,0.0114882,-1.19647,0.0237247,0.0474143,1931,715,5.20685,-0.0996738
714,309,5.4624,-1.17224,0.0186733,0.051581,-0.0103769,0.0545799,0.0156744,-1.28947,0.0324492,0.0446171,1938,715,5.46238,1.17224
721,309,5.1676,-1.29883,0.0216581,0.0716107,-0.0100641,0.0735621,0.0197067,-1.37927,0.04397,0.0444416,1945,715,5.16764,1.29883
728,309,0,0,0,0,0,0,0,0,0,-1,1952,715,0,0
735,309,0,0,0,0,0,0,0,0,0,-1,1959,715,0,0
742,309,0,0,0,0,0,0,0,0,0,-1,1966,715,0,0
749,309,0,0,0,0,0,0,0,0,0,-1,1973,715,0,0
756,309,0,0,0,0,0,0,0,0,0,-1,1980,715,0,0
763,309,0,0,0,0,0,0,0,0,0,-1,1987,715,0,0
770,309,0,0,0,0,0,0,0,0,0,-1,1994,715,0,0
777,309,0,0,0,0,0,0,0,0,0,-1,2001,715,0,0
784,309,0,0,0,0,0,0,0,0,0,-1,2008,715,0,0
791,309,0,0,0,0,0,0,0,0,0,-1,2015,715,0,0
798,309,0,0,0,0,0,0,0,0,0,-1,2022,715,0,0
805,309,0,0,0,0,0,0,0,0,0,-1,2029,715,0,0
812,309,0,0,0,0,0,0,0,0,0,-1,2036,715,0,0
-700,302,0,0,0,0,0,0,0,0,0,-1,524,722,0,0
-693,302,0,0,0,0,0,0,0,0,0,-1,531,722,0,0
-686,302,0,0,0,0,0,0,0,0,0,-1,538,722,0,0
-679,302,0,0,0,0,0,0,0,0,0,-1,545,722,0,0
-672,302,0,0,0,0,0,0,0,0,0,-1,552,722,0,0
-665,302,0,0,0,0,0,0,0,0,0,-1,559,722,0,0
-658,302,0,0,0,0,0,0,0,0,0,-1,566,722,0,0
-651,302,0,0,0,0,0,0,0,0,0,-1,573,722,0,0
-644,302,0,0,0,0,0,0,0,0,0,-1,580,722,0,0
-637,302,0,0,0,0,0,0,0,0,0,-1,587,722,0,0
-630,302,0,0,0,0,0,0,0,0,0,-1,594,722,0,0
-623,302,0,0,0,0,0,0,0,0,0,-1,601,722,0,0
-616,302,0,0,0,0,0,0,0,0,0,-1,608,722,0,0
-609,302,3.18817,-1.14697,0,0,0,0,0,0,0,-1,615,722,3.18818,1.147
-602,302,3.34625,0.103821,0,0,0,0,0,0,0,-1,622,722,3.34626,-0.103803
-595,302,3.58392,1.17542,0,0,0,0,0,0,0,-1,629,722,3.58392,-1.17542
-588,302,-0.284424,-0.113159,0,0,0,0,0,0,0,-1,636,722,-0.284447,0.113167
-581,302,-0.707153,0.288574,0,0,0,0,0,0,0,-1,643,722,-0.707162,-0.288597
-574,302,-0.553162,0.782227,-0.0115763,0.00858922,-0.0103638,0.0129658,-0.0159528,-1.17122,0.0167258,0.0449941,650,722,-0.553148,-0.782205
-567,302,-0.575928,0.588135,-0.00926251,0.00814148,-0.00639612,0.0102393,-0.0113603,-1.25387,0.0124761,0.038514,657,722,-0.575934,-0.588155
-560,302,-0.806274,0.529236,-0.00665787,0.00660753,-0.00339658,0.00742663,-0.00747698,-1.33416,0.00860462,0.028064,664,722,-0.806276,-0.52921
-553,302,-0.931396,0.490479,-0.00485592,0.00535409,-0.00130901,0.00551924,-0.00502108,-1.44529,0.00608772,0.0132496,671,722,-0.931366,-0.490454
-546,302,-0.939636,0.412231,-0.0037753,0.0038958,-0.000173815,0.00389973,-0.00377924,-1.54815,0.00443364,0.0141379,678,722,-0.939661,-0.412258
-539,302,-0.960693,0.355469,-0.00267086,0.00263835,0.000119647,0.00264105,-0.00267356,1.54828,0.00306841,0.0138451,685,722,-0.960706,-0.355441
-532,302,-0.976624,0.279236,-0.00155988,0.00118769,0.000201909,0.00120245,-0.00157464,1.49783,0.00160815,0.01304,692,722,-0.976623,-0.279227
-525,302,-0.95929,0.208008,-0.00116066,2.15737e-05,0.000124525,3.45478e-05,-0.00117363,1.46698,0.000794188,0.018763,699,722,-0.959302,-0.208027
-518,302,-0.976074,0.145264,-0.000771648,-0.00119194,0.000356913,-0.000567612,-0.00139598,0.519329,0.000810643,0.0193494,706,722,-0.976081,-0.145284
-511,302,-0.935242,0.0682373,-0.000496862,-0.00231144,0.000592425,-0.000320573,-0.00248773,0.289227,0.00156263,0.00979009,713,722,-0.935223,-0.0682274
-504,302,-0.928894,0.0166626,-0.000280899,-0.00344257,0.00092084,-3.22575e-05,-0.00369121,0.263727,0.00245013,0.00894002,720,722,-0.928923,-0.0166861
-497,302,-0.928589,-0.0570679,-6.89846e-05,-0.00414514,0.00103724,0.000179776,-0.0043939,0.235384,0.00299099,0.0129728,727,722,-0.928572,0.0570864
-490,302,-0.897095,-0.109619,4.33744e-05,-0.00456872,0.0004269,8.25559e-05,-0.00460791,0.0915247,0.00309982,0.0175826,734,722,-0.897121,0.109638
-483,302,-0.81958,0.27594,0,0,0,0,0,0,0,-1,741,722,-0.819587,-0.275967
-476,302,-0.307373,0.498413,0,0,0,0,0,0,0,-1,748,722,-0.307377,-0.498395
-469,302,-0.800598,0.478394,0,0,0,0,0,0,0,-1,755,722,-0.800604,-0.478409
-462,302,-2.70905,0.470764,0,0,0,0,0,0,0,-1,762,722,-2.70905,-0.470757
-455,302,-2.66199,0.581238,-0.00125278,0.00337032,-0.00935604,0.0106961,-0.0085786,-0.906505,0.0111506,0.0458615,769,722,-2.66199,-0.581246
-448,302,-2.4848,0.728882,-0.00199411,0.00805841,-0.0136285,0.017558,-0.0114937,-0.962062,0.0168943,0.045116,776,722,-2.48483,-0.728895
-441,302,-2.41901,0.889832,-0.0033668,0.0142475,-0.0188803,0.0262738,-0.0153931,-1.00363,0.0243282,0.0457256,783,722,-2.41898,-0.88982
-434,302,-2.14313,0.933472,0,0,0,0,0,0,0,-1,790,722,-2.1431,-0.933497
-427,302,-1.91217,1.17114,0,0,0,0,0,0,0,-1,797,722,-1.91214,-1.17113
-420,302,0,0,0,0,0,0,0,0,0,-1,804,722,0,0
-413,302,0,0,0,0,0,0,0,0,0,-1,811,722,0,0
-406,302,0,0,0,0,0,0,0,0,0,-1,818,722,0,0
-399,302,0,0,0,0,0,0,0,0,0,-1,825,722,0,0
-392,302,0,0,0,0,0,0,0,0,0,-1,832,722,0,0
-385,302,0,0,0,0,0,0,0,0,0,-1,839,722,0,0
-378,302,0,0,0,0,0,0,0,0,0,-1,846,722,0,0
-371,302,0,0,0,0,0,0,0,0,0,-1,853,722,0,0
-364,302,0,0,0,0,0,0,0,0,0,-1,860,722,0,0
-357,302,0,0,0,0,0,0,0,0,0,-1,867,722,0,0
-350,302,0,0,0,0,0,0,0,0,0,-1,874,722,0,0
-343,302,0,0,0,0,0,0,0,0,0,-1,881,722,0,0
-336,302,0,0,0,0,0,0,0,0,0,-1,888,722,0,0
-329,302,0,0,0,0,0,0,0,0,0,-1,895,722,0,0
-322,302,0,0,0,0,0,0,0,0,0,-1,902,722,0,0
-315,302,0,0,0,0,0,0,0,0,0,-1,909,722,0,0
-308,302,0,0,0,0,0,0,0,0,0,-1,916,722,0,0
-301,302,0,0,0,0,0,0,0,0,0,-1,923,722,0,0
-294,302,0,0,0,0,0,0,0,0,0,-1,930,722,0,0
-287,302,0,0,0,0,0,0,0,0,0,-1,937,722,0,0
-280,302,0,0,0,0,0,0,0,0,0,-1,944,722,0,0
-273,302,0,0,0,0,0,0,0,0,0,-1,951,722,0,0
-266,302,0,0,0,0,0,0,0,0,0,-1,958,722,0,0
-259,302,0,0,0,0,0,0,0,0,0,-1,965,722,0,0
-252,302,0,0,0,0,0,0,0,0,0,-1,972,722,0,0
-245,302,0,0,0,0,0,0,0,0,0,-1,979,722,0,0
-238,302,0,0,0,0,0,0,0,0,0,-1,986,722,0,0
-231,302,0,0,0,0,0,0,0,0,0,-1,993,722,0,0
-224,302,0,0,0,0,0,0,0,0,0,-1,1000,722,0,0
-217,302,0,0,0,0,0,0,0,0,0,-1,1007,722,0,0
-210,302,0,0,0,0,0,0,0,0,0,-1,1014,722,0,0
-203,302,0,0,0,0,0,0,0,0,0,-1,1021,722,0,0
-196,302,0,0,0,0,0,0,0,0,0,-1,1028,722,0,0
-189,302,0,0,0,0,0,0,0,0,0,-1,1035,722,0,0
-182,302,0,0,0,0,0,0,0,0,0,-1,1042,722,0,0
-175,302,0,0,0,0,0,0,0,0,0,-1,1049,722,0,0
-168,302,0,0,0,0,0,0,0,0,0,-1,1056,722,0,0
-161,302,0,0,0,0,0,0,0,0,0,-1,1063,722,0,0
-154,302,0,0,0,0,0,0,0,0,0,-1,1070,722,0,0
-147,302,0,0,0,0,0,0,0,0,0,-1,1077,722,0,0
-140,302,0,0,0,0,0,0,0,0,0,-1,1084,722,0,0
-133,302,0,0,0,0,0,0,0,0,0,-1,1091,722,0,0
-126,302,0,0,0,0,0,0,0,0,0,-1,1098,722,0,0
-119,302,0,0,0,0,0,0,0,0,0,-1,1105,722,0,0
-112,302,0,0,0,0,0,0,0,0,0,-1,1112,722,0,0
-105,302,0,0,0,0,0,0,0,0,0,-1,1119,722,0,0
-98,302,0,0,0,0,0,0,0,0,0,-1,1126,722,0,0
-91,302,0,0,0,0,0,0,0,0,0,-1,1133,722,0,0
-84,302,0,0,0,0,0,0,0,0,0,-1,1140,722,0,0
-77,302,0,0,0,0,0,0,0,0,0,-1,1147,722,0,0
-70,302,0,0,0,0,0,0,0,0,0,-1,1154,722,0,0
-63,302,0,0,0,0,0,0,0,0,0,-1,1161,722,0,0
-56,302,0,0,0,0,0,0,0,0,0,-1,1168,722,0,0
-49,302,0,0,0,0,0,0,0,0,0,-1,1175,722,0,0
-42,302,0,0,0,0,0,0,0,0,0,-1,1182,722,0,0
-35,302,0,0,0,0,0,0,0,0,0,-1,1189,722,0,0
-28,302,0,0,0,0,0,0,0,0,0,-1,1196,722,0,0
-21,302,0,0,0,0,0,0,0,0,0,-1,1203,722,0,0
-14,302,0,0,0,0,0,0,0,0,0,-1,1210,722,0,0
-7,302,0,0,0,0,0,0,0,0,0,-1,1217,722,0,0
0,302,0,0,0,0,0,0,0,0,0,-1,1224,722,0,0
7,302,0,0,0,0,0,0,0,0,0,-1,1231,722,0,0
14,302,0,0,0,0,0,0,0,0,0,-1,1238,722,0,0
21,302,0,0,0,0,0,0,0,0,0,-1,1245,722,0,0
28,302,0,0,0,0,0,0,0,0,0,-1,1252,722,0,0
35,302,0,0,0,0,0,0,0,0,0,-1,1259,722,0,0
42,302,0,0,0,0,0,0,0,0,0,-1,1266,722,0,0
49,302,0,0,0,0,0,0,0,0,0,-1,1273,722,0,0
56,302,0,0,0,0,0,0,0,0,0,-1,1280,722,0,0
63,302,0,0,0,0,0,0,0,0,0,-1,1287,722,0,0
70,302,0,0,0,0,0,0,0,0,0,-1,1294,722,0,0
77,302,0,0,0,0,0,0,0,0,0,-1,1301,722,0,0
84,302,0,0,0,0,0,0,0,0,0,-1,1308,722,0,0
91,302,0,0,0,0,0,0,0,0,0,-1,1315,722,0,0
98,302,0,0,0,0,0,0,0,0,0,-1,1322,722,0,0
105,302,0,0,0,0,0,0,0,0,0,-1,1329,722,0,0
112,302,0,0,0,0,0,0,0,0,0,-1,1336,722,0,0
119,302,0,0,0,0,0,0,0,0,0,-1,1343,722,0,0
126,302,0,0,0,0,0,0,0,0,0,-1,1350,722,0,0
133,302,0,0,0,0,0,0,0,0,0,-1,1357,722,0,0
140,302,0,0,0,0,0,0,0,0,0,-1,1364,722,0,0
147,302,0,0,0,0,0,0,0,0,0,-1,1371,722,0,0
154,302,0,0,0,0,0,0,0,0,0,-1,1378,722,0,0
161,302,0,0,0,0,0,0,0,0,0,-1,1385,722,0,0
168,302,0,0,0,0,0,0,0,0,0,-1,1392,722,0,0
175,302,0,0,0,0,0,0,0,0,0,-1,1399,722,0,0
182,302,0,0,0,0,0,0,0,0,0,-1,1406,722,0,0
189,302,0,0,0,0,0,0,0,0,0,-1,1413,722,0,0
196,302,0,0,0,0,0,0,0,0,0,-1,1420,722,0,0
203,302,0,0,0,0,0,0,0,0,0,-1,1427,722,0,0
210,302,0,0,0,0,0,0,0,0,0,-1,1434,722,0,0
217,302,0,0,0,0,0,0,0,0,0,-1,1441,722,0,0
224,302,0,0,0,0,0,0,0,0,0,-1,1448,722,0,0
231,302,0,0,0,0,0,0,0,0,0,-1,1455,722,0,0
238,302,0,0,0,0,0,0,0,0,0,-1,1462,722,0,0
245,302,0,0,0,0,0,0,0,0,0,-1,1469,722,0,0
252,302,0,0,0,0,0,0,0,0,0,-1,1476,722,0,0
259,302,0,0,0,0,0,0,0,0,0,-1,1483,722,0,0
266,302,0,0,0,0,0,0,0,0,0,-1,1490,722,0,0
273,302,0,0,0,0,0,0,0,0,0,-1,1497,722,0,0
280,302,0,0,0,0,0,0,0,0,0,-1,1504,722,0,0
287,302,0,0,0,0,0,0,0,0,0,-1,1511,722,0,0
294,302,0,0,0,0,0,0,0,0,0,-1,1518,722,0,0
301,302,0,0,0,0,0,0,0,0,0,-1,1525,722,0,0
308,302,0,0,0,0,0,0,0,0,0,-1,1532,722,0,0
315,302,0,0,0,0,0,0,0,0,0,-1,1539,722,0,0
322,302,0,0,0,0,0,0,0,0,0,-1,1546,722,0,0
329,302,0,0,0,0,0,0,0,0,0,-1,1553,722,0,0
336,302,0,0,0,0,0,0,0,0,0,-1,1560,722,0,0
343,302,0,0,0,0,0,0,0,0,0,-1,1567,722,0,0
350,302,0,0,0,0,0,0,0,0,0,-1,1574,722,0,0
357,302,0,0,0,0,0,0,0,0,0,-1,1581,722,0,0
364,302,0,0,0,0,0,0,0,0,0,-1,1588,722,0,0
371,302,0,0,0,0,0,0,0,0,0,-1,1595,722,0,0
378,302,0,0,0,0,0,0,0,0,0,-1,1602,722,0,0
385,302,0,0,0,0,0,0,0,0,0,-1,1609,722,0,0
392,302,0,0,0,0,0,0,0,0,0,-1,1616,722,0,0
399,302,0,0,0,0,0,0,0,0,0,-1,1623,722,0,0
406,302,0,0,0,0,0,0,0,0,0,-1,1630,722,0,0
413,302,0,0,0,0,0,0,0,0,0,-1,1637,722,0,0
420,302,0,0,0,0,0,0,0,0,0,-1,1644,722,0,0
427,302,0,0,0,0,0,0,0,0,0,-1,1651,722,0,0
434,302,0,0,0,0,0,0,0,0,0,-1,1658,722,0,0
441,302,0,0,0,0,0,0,0,0,0,-1,1665,722,0,0
448,302,0,0,0,0,0,0,0,0,0,-1,1672,722,0,0
455,302,0,0,0,0,0,0,0,0,0,-1,1679,722,0,0
462,302,0,0,0,0,0,0,0,0,0,-1,1686,722,0,0
469,302,0,0,0,0,0,0,0,0,0,-1,1693,722,0,0
476,302,0,0,0,0,0,0,0,0,0,-1,1700,722,0,0
483,302,0,0,0,0,0,0,0,0,0,-1,1707,722,0,0
490,302,0,0,0,0,0,0,0,0,0,-1,1714,722,0,0
497,302,0,0,0,0,0,0,0,0,0,-1,1721,722,0,0
504,302,0,0,0,0,0,0,0,0,0,-1,1728,722,0,0
511,302,0,0,0,0,0,0,0,0,0,-1,1735,722,0,0
518,302,0,0,0,0,0,0,0,0,0,-1,1742,722,0,0
525,302,0,0,0,0,0,0,0,0,0,-1,1749,722,0,0
532,302,0,0,0,0,0,0,0,0,0,-1,1756,722,0,0
539,302,0,0,0,0,0,0,0,0,0,-1,1763,722,0,0
546,302,4.76904,2.43262,0.0302865,0.0702282,-0.0316387,0.0876718,0.0128429,-1.06693,0.0546721,0.0462038,1770,722,4.76907,-2.43259
553,302,4.87866,3.06055,0.0309755,0.0495375,-0.0275475,0.0693254,0.0111876,-0.947881,0.0429759,0.0439679,1777,722,4.87869,-3.06055
560,302,5.3689,2.71204,0.0283747,0.0341487,-0.0230138,0.0544559,0.00806753,-0.847795,0.0339359,0.0458083,1784,722,5.36884,-2.71202
567,302,5.59424,1.92468,0,0,0,0,0,0,0,-1,1791,722,5.59427,-1.9247
574,302,5.34912,2.44604,0,0,0,0,0,0,0,-1,1798,722,5.34908,-2.44603
581,302,6.27148,0.493896,0,0,0,0,0,0,0,-1,1805,722,6.27148,-0.493918
588,302,3.86438,3.64465,0,0,0,0,0,0,0,-1,1812,722,3.86438,-3.64462
595,302,3.93127,2.69495,0,0,0,0,0,0,0,-1,1819,722,3.93127,-2.69496
602,302,4.75769,1.43628,0,0,0,0,0,0,0,-1,1826,722,4.75771,-1.4363
609,302,5.49512,0.875488,0.00307257,-0.0081795,-0.00368956,0.00417447,-0.0092814,-0.290221,0.00795307,0.0409661,1833,722,5.49506,-0.875501
616,302,5.13135,0.160583,-0.0035476,-0.00971904,-0.00326869,-0.00213822,-0.0111284,-0.407092,0.00681889,0.0324032,1840,722,5.13137,-0.16061
623,302,5.21777,0.180725,-0.00262361,-0.00963105,-0.00175101,-0.00221043,-0.0100442,-0.231727,0.00609446,0.0128791,1847,722,5.21782,-0.180748
630,302,5.18933,0.270935,-0.00209995,-0.00924994,-0.000599385,-0.00205006,-0.00929984,-0.0830577,0.00564208,0.0101814,1854,722,5.18932,-0.270933
637,302,5.15027,0.35144,-0.0017083,-0.00738465,-0.00023789,-0.00169835,-0.00739461,-0.0418112,0.00447243,0.0131189,1861,722,5.15025,-0.351469
644,302,5.14343,0.4021,-0.00103078,-0.00548739,-0.000299521,-0.00101074,-0.00550743,-0.0668079,0.00338538,0.0137384,1868,722,5.14349,-0.402078
651,302,5.16321,0.475342,-0.00016891,-0.00393753,-0.00073708,-2.98789e-05,-0.00407656,-0.186434,0.0027078,0.0126707,1875,722,5.16322,-0.475356
658,302,5.19031,0.568909,0.000880057,-0.00272582,-0.00146293,0.00139892,-0.00324468,-0.34083,0.00275067,0.0142264,1882,722,5.19027,-0.568932
665,302,5.19556,0.643799,0.00175634,-0.000328036,-0.00225838,0.00320141,-0.00177311,-0.56922,0.00291123,0.0137367,1889,722,5.19556,-0.64377
672,302,5.18616,0.692749,0.00259143,0.00238352,-0.00300794,0.00549721,-0.000522257,-0.768125,0.00385072,0.0112871,1896,722,5.18611,-0.692719
679,302,5.19812,0.787842,0.00375734,0.00541106,-0.00422591,0.00889024,0.000278158,-0.88201,0.00583632,0.00942681,1903,722,5.19816,-0.787854
686,302,5.19934,0.828247,0.00526296,0.00925504,-0.0056078,0.0132114,0.00130655,-0.956377,0.00840603,0.0114984,1910,722,5.19936,-0.828276
693,302,5.15491,0.850525,0.00710848,0.0146744,-0.00687281,0.0187366,0.0030463,-1.03698,0.0116096,0.0205031,1917,722,5.15497,-0.850547
700,302,5.39868,0.717163,0.0093296,0.0222639,-0.00821463,0.0262516,0.00534188,-1.11886,0.0160201,0.039599,1924,722,5.3987,-0.717149
707,302,5.81982,0.52002,0.011669,0.032578,-0.00923935,0.0360756,0.00817137,-1.20891,0.0218422,0.0455738,1931,722,5.81985,-0.520027
714,302,5.46472,-2.00793,0.0138856,0.0461513,-0.00962355,0.0488036,0.0112334,-1.30187,0.0295127,0.0429219,1938,722,5.46471,2.00795
721,302,5.24268,-2.06232,0.0156309,0.0635079,-0.00892028,0.0651158,0.0140229,-1.39245,0.0395733,0.04528,1945,722,5.24263,2.06234
728,302,5.19128,-2.15479,0.0164065,0.0851633,-0.00641351,0.0857565,0.0158134,-1.47858,0.0526968,0.0477464,1952,722,5.19129,2.15476
735,302,0,0,0,0,0,0,0,0,0,-1,1959,722,0,0
742,302,0,0,0,0,0,0,0,0,0,-1,1966,722,0,0
749,302,0,0,0,0,0,0,0,0,0,-1,1973,722,0,0
756,302,0,0,0,0,0,0,0,0,0,-1,1980,722,0,0
763,302,0,0,0,0,0,0,0,0,0,-1,1987,722,0,0
770,302,0,0,0,0,0,0,0,0,0,-1,1994,722,0,0
777,302,0,0,0,0,0,0,0,0,0,-1,2001,722,0,0
784,302,0,0,0,0,0,0,0,0,0,-1,2008,722,0,0
791,302,0,0,0,0,0,0,0,0,0,-1,2015,722,0,0
798,302,0,0,0,0,0,0,0,0,0,-1,2022,722,0,0
805,302,0,0,0,0,0,0,0,0,0,-1,2029,722,0,0
812,302,0,0,0,0,0,0,0,0,0,-1,2036,722,0,0
-700,295,0,0,0,0,0,0,0,0,0,-1,524,729,0,0
-693,295,0,0,0,0,0,0,0,0,0,-1,531,729,0,0
-686,295,0,0,0,0,0,0,0,0,0,-1,538,729,0,0
-679,295,0,0,0,0,0,0,0,0,0,-1,545,729,0,0
-672,295,0,0,0,0,0,0,0,0,0,-1,552,729,0,0
-665,295,0,0,0,0,0,0,0,0,0,-1,559,729,0,0
-658,295,0,0,0,0,0,0,0,0,0,-1,566,729,0,0
-651,295,0,0,0,0,0,0,0,0,0,-1,573,729,0,0
-644,295,0,0,0,0,0,0,0,0,0,-1,580,729,0,0
-637,295,0,0,0,0,0,0,0,0,0,-1,587,729,0,0
-630,295,0,0,0,0,0,0,0,0,0,-1,594,729,0,0
-623,295,0,0,0,0,0,0,0,0,0,-1,601,729,0,0
-616,295,-4.53589,0.254211,0,0,0,0,0,0,0,-1,608,729,-4.5359,-0.254218
-609,295,-5.80853,0.0513306,0,0,0,0,0,0,0,-1,615,729,-5.80855,-0.0513334
-602,295,4.06531,0.167358,0,0,0,0,0,0,0,-1,622,729,4.06528,-0.167383
-595,295,-1.24646,-0.467224,0,0,0,0,0,0,0,-1,629,729,-1.24648,0.467202
-588,295,-1.0683,-0.153748,-0.0120263,0.00593843,-0.022437,0.0211243,-0.0272122,-0.975797,0.0279807,0.048341,636,729,-1.06827,0.153757
-581,295,-0.9151,0.214233,-0.0101024,0.005586,-0.0147169,0.0144187,-0.0189351,-1.03025,0.0193155,0.0496957,643,729,-0.915094,-0.214244
-574,295,-0.714722,0.584351,-0.00912992,0.0048402,-0.00869383,0.00900744,-0.0132972,-1.12382,0.0129567,0.0447414,650,729,-0.714713,-0.584381
-567,295,-0.812256,0.602722,-0.00760321,0.00485536,-0.00489048,0.00654572,-0.00929357,-1.23801,0.00919057,0.0345779,657,729,-0.812277,-0.602695
-560,295,-0.993469,0.538025,-0.00534529,0.00385032,-0.00191422,0.00423288,-0.00572785,-1.37354,0.00577238,0.0158245,664,729,-0.993489,-0.538049
-553,295,-1.00134,0.461121,-0.00383392,0.003079,0.000138758,0.00308179,-0.0038367,1.55073,0.00400231,0.0149356,671,729,-1.00132,-0.461131
-546,295,-1.01373,0.439575,-0.00291077,0.00205378,0.00114527,0.00230525,-0.00316223,1.35466,0.00316955,0.0194092,678,729,-1.01375,-0.439597
-539,295,-1.03168,0.401794,-0.00199738,0.00127893,0.00110784,0.00161837,-0.00233682,1.27349,0.00229605,0.0172871,685,729,-1.03168,-0.401803
-532,295,-1.04584,0.2901,-0.0011501,0.000202425,0.000866585,0.00062539,-0.00157306,1.11673,0.00130799,0.0145501,692,729,-1.04585,-0.29009
-525,295,-1.03558,0.209717,-0.000938278,-0.000666767,0.000554519,-0.000231628,-0.00137342,0.905445,0.000849,0.0146758,699,729,-1.03556,-0.209741
-518,295,-1.01605,0.142517,-0.00067125,-0.00161596,0.000567067,-0.000405577,-0.00188163,0.438134,0.00114346,0.0106063,706,729,-1.01607,-0.142502
-511,295,-0.982666,0.0769653,-0.000633958,-0.00243621,0.000541214,-0.000483922,-0.00258625,0.27043,0.00158763,0.00828513,713,729,-0.982691,-0.0769772
-504,295,-0.99292,0.0220337,-0.000654844,-0.00326586,0.000664565,-0.00049543,-0.00342528,0.235429,0.0021376,0.00996711,720,729,-0.992928,-0.0220451
-497,295,-1.0144,-0.0388184,-0.000661796,-0.00376275,0.000665769,-0.000524901,-0.00389964,0.202794,0.00244366,0.0141333,727,729,-1.01443,0.0388403
-490,295,-0.982544,0.0151978,-0.00082336,-0.0039716,-2.66149e-05,-0.000823135,-0.00397182,-0.0084531,0.00242061,0.0286094,734,729,-0.982563,-0.0152028
-483,295,-1.1026,0.167175,-0.00114684,-0.00382302,-0.000752578,-0.00094972,-0.00402013,-0.256167,0.00242629,0.0467684,741,729,-1.10259,-0.167185
-476,295,-1.21008,0.397522,-0.00167123,-0.00301516,-0.00209219,-0.000145739,-0.00454064,-0.630013,0.0029797,0.0446193,748,729,-1.21011,-0.39754
-469,295,-1.04224,0.406433,0,0,0,0,0,0,0,-1,755,729,-1.04225,-0.406428
-462,295,-2.71484,0.51062,0,0,0,0,0,0,0,-1,762,729,-2.71482,-0.510643
-455,295,-2.32306,0.419189,-0.00350002,0.00465678,-0.00926528,0.0107016,-0.0095448,-0.992728,0.0116956,0.0489483,769,729,-2.32306,-0.419171
-448,295,-2.14587,0.562988,-0.00438299,0.00941019,-0.0130557,0.0172789,-0.0122517,-1.02839,0.0171316,0.0483972,776,729,-2.14589,-0.562989
-441,295,-2.06323,0.691223,-0.00581756,0.0154364,-0.0175578,0.0253328,-0.015714,-1.05754,0.0239143,0.0479636,783,729,-2.06321,-0.691206
-434,295,-1.99756,0.852234,0,0,0,0,0,0,0,-1,790,729,-1.99756,-0.852258
-427,295,0,0,0,0,0,0,0,0,0,-1,797,729,0,0
-420,295,0,0,0,0,0,0,0,0,0,-1,804,729,0,0
-413,295,0,0,0,0,0,0,0,0,0,-1,811,729,0,0
-406,295,0,0,0,0,0,0,0,0,0,-1,818,729,0,0
-399,295,0,0,0,0,0,0,0,0,0,-1,825,729,0,0
-392,295,0,0,0,0,0,0,0,0,0,-1,832,729,0,0
-385,295,0,0,0,0,0,0,0,0,0,-1,839,729,0,0
-378,295,0,0,0,0,0,0,0,0,0,-1,846,729,0,0
-371,295,0,0,0,0,0,0,0,0,0,-1,853,729,0,0
-364,295,0,0,0,0,0,0,0,0,0,-1,860,729,0,0
-357,295,0,0,0,0,0,0,0,0,0,-1,867,729,0,0
-350,295,0,0,0,0,0,0,0,0,0,-1,874,729,0,0
-343,295,0,0,0,0,0,0,0,0,0,-1,881,729,0,0
-336,295,0,0,0,0,0,0,0,0,0,-1,888,729,0,0
-329,295,0,0,0,0,0,0,0,0,0,-1,895,729,0,0
-322,295,0,0,0,0,0,0,0,0,0,-1,902,729,0,0
-315,295,0,0,0,0,0,0,0,0,0,-1,909,729,0,0
-308,295,0,0,0,0,0,0,0,0,0,-1,916,729,0,0
-301,295,0,0,0,0,0,0,0,0,0,-1,923,729,0,0
-294,295,0,0,0,0,0,0,0,0,0,-1,930,729,0,0
-287,295,0,0,0,0,0,0,0,0,0,-1,937,729,0,0
-280,295,0,0,0,0,0,0,0,0,0,-1,944,729,0,0
-273,295,0,0,0,0,0,0,0,0,0,-1,951,729,0,0
-266,295,0,0,0,0,0,0,0,0,0,-1,958,729,0,0
-259,295,0,0,0,0,0,0,0,0,0,-1,965,729,0,0
-252,295,0,0,0,0,0,0,0,0,0,-1,972,729,0,0
-245,295,0,0,0,0,0,0,0,0,0,-1,979,729,0,0
-238,295,0,0,0,0,0,0,0,0,0,-1,986,729,0,0
-231,295,0,0,0,0,0,0,0,0,0,-1,993,729,0,0
-224,295,0,0,0,0,0,0,0,0,0,-1,1000,729,0,0
-217,295,0,0,0,0,0,0,0,0,0,-1,1007,729,0,0
-210,295,0,0,0,0,0,0,0,0,0,-1,1014,729,0,0
-203,295,0,0,0,0,0,0,0,0,0,-1,1021,729,0,0
-196,295,0,0,0,0,0,0,0,0,0,-1,1028,729,0,0
-189,295,0,0,0,0,0,0,0,0,0,-1,1035,729,0,0
-182,295,0,0,0,0,0,0,0,0,0,-1,1042,729,0,0
-175,295,0,0,0,0,0,0,0,0,0,-1,1049,729,0,0
-168,295,0,0,0,0,0,0,0,0,0,-1,1056,729,0,0
-161,295,0,0,0,0,0,0,0,0,0,-1,1063,729,0,0
-154,295,0,0,0,0,0,0,0,0,0,-1,1070,729,0,0
-147,295,0,0,0,0,0,0,0,0,0,-1,1077,729,0,0
-140,295,0,0,0,0,0,0,0,0,0,-1,1084,729,0,0
-133,295,0,0,0,0,0,0,0,0,0,-1,1091,729,0,0
-126,295,0,0,0,0,0,0,0,0,0,-1,1098,729,0,0
-119,295,0,0,0,0,0,0,0,0,0,-1,1105,729,0,0
-112,295,0,0,0,0,0,0,0,0,0,-1,1112,729,0,0
-105,295,0,0,0,0,0,0,0,0,0,-1,1119,729,0,0
-98,295,0,0,0,0,0,0,0,0,0,-1,1126,729,0,0
-91,295,0,0,0,0,0,0,0,0,0,-1,1133,729,0,0
-84,295,0,0,0,0,0,0,0,0,0,-1,1140,729,0,0
-77,295,0,0,0,0,0,0,0,0,0,-1,1147,729,0,0
-70,295,0,0,0,0,0,0,0,0,0,-1,1154,729,0,0
-63,295,0,0,0,0,0,0,0,0,0,-1,1161,729,0,0
-56,295,0,0,0,0,0,0,0,0,0,-1,1168,729,0,0
-49,295,0,0,0,0,0,0,0,0,0,-1,1175,729,0,0
-42,295,0,0,0,0,0,0,0,0,0,-1,1182,729,0,0
-35,295,0,0,0,0,0,0,0,0,0,-1,1189,729,0,0
-28,295,0,0,0,0,0,0,0,0,0,-1,1196,729,0,0
-21,295,0,0,0,0,0,0,0,0,0,-1,1203,729,0,0
-14,295,0,0,0,0,0,0,0,0,0,-1,1210,729,0,0
-7,295,0,0,0,0,0,0,0,0,0,-1,1217,729,0,0
0,295,0,0,0,0,0,0,0,0,0,-1,1224,729,0,0
7,295,0,0,0,0,0,0,0,0,0,-1,1231,729,0,0
14,295,0,0,0,0,0,0,0,0,0,-1,1238,729,0,0
21,295,0,0,0,0,0,0,0,0,0,-1,1245,729,0,0
28,295,0,0,0,0,0,0,0,0,0,-1,1252,729,0,0
35,295,0,0,0,0,0,0,0,0,0,-1,1259,729,0,0
42,295,0,0,0,0,0,0,0,0,0,-1,1266,729,0,0
49,295,0,0,0,0,0,0,0,0,0,-1,1273,729,0,0
56,295,0,0,0,0,0,0,0,0,0,-1,1280,729,0,0
63,295,0,0,0,0,0,0,0,0,0,-1,1287,729,0,0
70,295,0,0,0,0,0,0,0,0,0,-1,1294,729,0,0
77,295,0,0,0,0,0,0,0,0,0,-1,1301,729,0,0
84,295,0,0,0,0,0,0,0,0,0,-1,1308,729,0,0
91,295,0,0,0,0,0,0,0,0,0,-1,1315,729,0,0
98,295,0,0,0,0,0,0,0,0,0,-1,1322,729,0,0
105,295,0,0,0,0,0,0,0,0,0,-1,1329,729,0,0
112,295,0,0,0,0,0,0,0,0,0,-1,1336,729,0,0
119,295,0,0,0,0,0,0,0,0,0,-1,1343,729,0,0
126,295,0,0,0,0,0,0,0,0,0,-1,1350,729,0,0
133,295,0,0,0,0,0,0,0,0,0,-1,1357,729,0,0
140,295,0,0,0,0,0,0,0,0,0,-1,1364,729,0,0
147,295,0,0,0,0,0,0,0,0,0,-1,1371,729,0,0
154,295,0,0,0,0,0,0,0,0,0,-1,1378,729,0,0
161,295,0,0,0,0,0,0,0,0,0,-1,1385,729,0,0
168,295,0,0,0,0,0,0,0,0,0,-1,1392,729,0,0
175,295,0,0,0,0,0,0,0,0,0,-1,1399,729,0,0
182,295,0,0,0,0,0,0,0,0,0,-1,1406,729,0,0
189,295,0,0,0,0,0,0,0,0,0,-1,1413,729,0,0
196,295,0,0,0,0,0,0,0,0,0,-1,1420,729,0,0
203,295,0,0,0,0,0,0,0,0,0,-1,1427,729,0,0
210,295,0,0,0,0,0,0,0,0,0,-1,1434,729,0,0
217,295,0,0,0,0,0,0,0,0,0,-1,1441,729,0,0
224,295,0,0,0,0,0,0,0,0,0,-1,1448,729,0,0
231,295,0,0,0,0,0,0,0,0,0,-1,1455,729,0,0
238,295,0,0,0,0,0,0,0,0,0,-1,1462,729,0,0
245,295,0,0,0,0,0,0,0,0,0,-1,1469,729,0,0
252,295,0,0,0,0,0,0,0,0,0,-1,1476,729,0,0
259,295,0,0,0,0,0,0,0,0,0,-1,1483,729,0,0
266,295,0,0,0,0,0,0,0,0,0,-1,1490,729,0,0
273,295,0,0,0,0,0,0,0,0,0,-1,1497,729,0,0
280,295,0,0,0,0,0,0,0,0,0,-1,1504,729,0,0
287,295,0,0,0,0,0,0,0,0,0,-1,1511,729,0,0
294,295,0,0,0,0,0,0,0,0,0,-1,1518,729,0,0
301,295,0,0,0,0,0,0,0,0,0,-1,1525,729,0,0
308,295,0,0,0,0,0,0,0,0,0,-1,1532,729,0,0
315,295,0,0,0,0,0,0,0,0,0,-1,1539,729,0,0
322,295,0,0,0,0,0,0,0,0,0,-1,1546,729,0,0
329,295,0,0,0,0,0,0,0,0,0,-1,1553,729,0,0
336,295,0,0,0,0,0,0,0,0,0,-1,1560,729,0,0
343,295,0,0,0,0,0,0,0,0,0,-1,1567,729,0,0
350,295,0,0,0,0,0,0,0,0,0,-1,1574,729,0,0
357,295,0,0,0,0,0,0,0,0,0,-1,1581,729,0,0
364,295,0,0,0,0,0,0,0,0,0,-1,1588,729,0,0
371,295,0,0,0,0,0,0,0,0,0,-1,1595,729,0,0
378,295,0,0,0,0,0,0,0,0,0,-1,1602,729,0,0
385,295,0,0,0,0,0,0,0,0,0,-1,1609,729,0,0
392,295,0,0,0,0,0,0,0,0,0,-1,1616,729,0,0
399,295,0,0,0,0,0,0,0,0,0,-1,1623,729,0,0
406,295,0,0,0,0,0,0,0,0,0,-1,1630,729,0,0
413,295,0,0,0,0,0,0,0,0,0,-1,1637,729,0,0
420,295,0,0,0,0,0,0,0,0,0,-1,1644,729,0,0
427,295,0,0,0,0,0,0,0,0,0,-1,1651,729,0,0
434,295,0,0,0,0,0,0,0,0,0,-1,1658,729,0,0
441,295,0,0,0,0,0,0,0,0,0,-1,1665,729,0,0
448,295,0,0,0,0,0,0,0,0,0,-1,1672,729,0,0
455,295,0,0,0,0,0,0,0,0,0,-1,1679,729,0,0
462,295,0,0,0,0,0,0,0,0,0,-1,1686,729,0,0
469,295,0,0,0,0,0,0,0,0,0,-1,1693,729,0,0
476,295,0,0,0,0,0,0,0,0,0,-1,1700,729,0,0
483,295,0,0,0,0,0,0,0,0,0,-1,1707,729,0,0
490,295,0,0,0,0,0,0,0,0,0,-1,1714,729,0,0
497,295,0,0,0,0,0,0,0,0,0,-1,1721,729,0,0
504,295,0,0,0,0,0,0,0,0,0,-1,1728,729,0,0
511,295,0,0,0,0,0,0,0,0,0,-1,1735,729,0,0
518,295,0,0,0,0,0,0,0,0,0,-1,1742,729,0,0
525,295,0,0,0,0,0,0,0,0,0,-1,1749,729,0,0
532,295,0,0,0,0,0,0,0,0,0,-1,1756,729,0,0
539,295,0,0,0,0,0,0,0,0,0,-1,1763,729,0,0
546,295,5.81714,1.88202,0.0388584,0.0829964,-0.0340706,0.101521,0.0203337,-1.07279,0.062024,0.0415058,1770,729,5.81713,-1.88204
553,295,5.63977,2.01453,0.0406908,0.0583645,-0.0290086,0.0798524,0.0192029,-0.933247,0.0481284,0.045143,1777,729,5.63975,-2.01453
560,295,5.73499,2.09796,0.0364016,0.0396847,-0.0228648,0.0609668,0.0151195,-0.821234,0.0366592,0.0442121,1784,729,5.735,-2.09799
567,295,5.98694,1.73767,0.030224,0.0259962,-0.0183649,0.0465963,0.00962395,-0.728098,0.028405,0.0474854,1791,729,5.98699,-1.73765
574,295,6.27222,1.99176,0.0242264,0.0159103,-0.0148664,0.0355053,0.00463144,-0.649035,0.0222873,0.0485922,1798,729,6.27218,-1.99174
581,295,3.11926,4.64569,0,0,0,0,0,0,0,-1,1805,729,3.11928,-4.64567
588,295,3.03027,3.71948,0.0148043,0.0022246,-0.00911756,0.0195911,-0.0025622,-0.483454,0.0139932,0.0469977,1812,729,3.03028,-3.7195
595,295,2.88257,2.84906,0,0,0,0,0,0,0,-1,1819,729,2.88252,-2.84903
602,295,2.60461,1.90344,0,0,0,0,0,0,0,-1,1826,729,2.60467,-1.90346
609,295,5.20947,0.784424,0,0,0,0,0,0,0,-1,1833,729,5.20946,-0.784442
616,295,5.24939,0.500854,-0.00310246,-0.0116852,-0.00164026,-0.00279967,-0.011988,-0.182543,0.0072415,0.0443781,1840,729,5.24934,-0.500852
623,295,5.26062,0.170532,-0.00265049,-0.0120138,-0.000259216,-0.00264331,-0.012021,-0.0276559,0.00729433,0.0230693,1847,729,5.26065,-0.170513
630,295,5.24658,0.278198,-0.00258676,-0.0119159,0.000673298,-0.00253842,-0.0119643,0.0716764,0.00727909,0.0113245,1854,729,5.24652,-0.278189
637,295,5.23669,0.35907,-0.00216339,-0.0099291,0.000786272,-0.00208458,-0.0100079,0.0998984,0.00609705,0.0127994,1861,729,5.23671,-0.359085
644,295,5.245,0.427979,-0.00121248,-0.00750158,0.000460359,-0.00117896,-0.0075351,0.0726832,0.00468018,0.0115859,1868,729,5.24497,-0.42799
651,295,5.28442,0.505737,-0.000154394,-0.00540211,-0.000253042,-0.00014222,-0.00541428,-0.0480708,0.00356306,0.0112173,1875,729,5.28441,-0.505722
658,295,5.28503,0.578003,0.000900823,-0.00373328,-0.00116166,0.00117572,-0.00400817,-0.232365,0.00313831,0.0113444,1882,729,5.28502,-0.578011
665,295,5.26404,0.624207,0.00170507,-0.00118141,-0.00202078,0.00274507,-0.00222141,-0.475302,0.00287271,0.0103306,1889,729,5.26399,-0.624204
672,295,5.25745,0.686157,0.00238203,0.00155709,-0.00277925,0.00477925,-0.000840135,-0.71173,0.00349999,0.0111286,1896,729,5.25745,-0.68615
679,295,5.25659,0.781128,0.00320696,0.00459177,-0.00393821,0.00789798,-9.92576e-05,-0.872417,0.00529872,0.00884454,1903,729,5.25655,-0.7811
686,295,5.2533,0.830261,0.00419488,0.0082658,-0.00527542,0.0118848,0.000575861,-0.969518,0.00773841,0.00842433,1910,729,5.25328,-0.830275
693,295,5.25256,0.889038,0.00544761,0.0131174,-0.00637978,0.0167261,0.00183884,-1.05601,0.0105912,0.0151049,1917,729,5.25259,-0.88906
700,295,5.41284,0.834106,0,0,0,0,0,0,0,-1,1924,729,5.4128,-0.834133
707,295,5.8844,-2.59058,0,0,0,0,0,0,0,-1,1931,729,5.88436,2.5906
714,295,5.61108,-2.74243,0,0,0,0,0,0,0,-1,1938,729,5.61111,2.74245
721,295,5.33789,-2.89429,0,0,0,0,0,0,0,-1,1945,729,5.33786,2.8943
728,295,5.71753,-2.64691,0,0,0,0,0,0,0,-1,1952,729,5.71757,2.64688
735,295,0,0,0,0,0,0,0,0,0,-1,1959,729,0,0
742,295,0,0,0,0,0,0,0,0,0,-1,1966,729,0,0
749,295,0,0,0,0,0,0,0,0,0,-1,1973,729,0,0
756,295,0,0,0,0,0,0,0,0,0,-1,1980,729,0,0
763,295,0,0,0,0,0,0,0,0,0,-1,1987,729,0,0
770,295,0,0,0,0,0,0,0,0,0,-1,1994,729,0,0
777,295,0,0,0,0,0,0,0,0,0,-1,2001,729,0,0
784,295,0,0,0,0,0,0,0,0,0,-1,2008,729,0,0
791,295,0,0,0,0,0,0,0,0,0,-1,2015,729,0,0
798,295,0,0,0,0,0,0,0,0,0,-1,2022,729,0,0
805,295,0,0,0,0,0,0,0,0,0,-1,2029,729,0,0
812,295,0,0,0,0,0,0,0,0,0,-1,2036,729,0,0
-700,288,0,0,0,0,0,0,0,0,0,-1,524,736,0,0
-693,288,0,0,0,0,0,0,0,0,0,-1,531,736,0,0
-686,288,0,0,0,0,0,0,0,0,0,-1,538,736,0,0
-679,288,0,0,0,0,0,0,0,0,0,-1,545,736,0,0
-672,288,0,0,0,0,0,0,0,0,0,-1,552,736,0,0
-665,288,0,0,0,0,0,0,0,0,0,-1,559,736,0,0
-658,288,0,0,0,0,0,0,0,0,0,-1,566,736,0,0
-651,288,0,0,0,0,0,0,0,0,0,-1,573,736,0,0
-644,288,0,0,0,0,0,0,0,0,0,-1,580,736,0,0
-637,288,0,0,0,0,0,0,0,0,0,-1,587,736,0,0
-630,288,0,0,0,0,0,0,0,0,0,-1,594,736,0,0
-623,288,0,0,0,0,0,0,0,0,0,-1,601,736,0,0
-616,288,-3.34595,0.303894,-0.0154469,0.000795865,-0.067105,0.0602691,-0.0749201,-0.845618,0.0782042,0.0476895,608,736,-3.34594,-0.303895
-609,288,-4.53595,0.245789,-0.0141838,0.00237358,-0.0538536,0.0485811,-0.0603913,-0.861664,0.0630383,0.0480371,615,736,-4.53595,-0.245805
-602,288,-4.65283,0.0567627,0,0,0,0,0,0,0,-1,622,736,-4.65282,-0.0567927
-595,288,-2.55585,-0.277405,0,0,0,0,0,0,0,-1,629,736,-2.55586,0.277392
-588,288,-1.92145,-0.098999,-0.00896418,0.00286853,-0.0208386,0.0186144,-0.02471,-0.923715,0.0250957,0.0463767,636,736,-1.92148,0.0989736
-581,288,-1.09711,0.172119,-0.00734743,0.00253374,-0.0133559,0.0118336,-0.0166473,-0.962552,0.0165215,0.0472417,643,736,-1.09708,-0.172095
-574,288,-0.93103,0.581055,-0.00656806,0.00176163,-0.00750948,0.00618388,-0.0109903,-1.03859,0.0100441,0.0349445,650,736,-0.931048,-0.581032
-567,288,-1.01666,0.584412,-0.00537713,0.0020245,-0.00383589,0.0036538,-0.00700643,-1.16914,0.00625532,0.0196557,657,736,-1.01669,-0.584399
-560,288,-1.08142,0.518127,-0.00366729,0.00154872,-0.000903704,0.00170086,-0.00381942,-1.40401,0.00326443,0.0107208,664,736,-1.08145,-0.51813
-553,288,-1.06396,0.480286,-0.00263597,0.00128789,0.00110843,0.00157936,-0.00292744,1.31366,0.00264052,0.016411,671,736,-1.06393,-0.480311
-546,288,-1.06512,0.452881,-0.00196878,0.000665925,0.00201884,0.0017592,-0.00306206,1.07447,0.00281723,0.017762,678,736,-1.06513,-0.452868
-539,288,-1.06006,0.371033,-0.00130179,0.000254381,0.00170286,0.0013485,-0.00239591,0.999699,0.00218985,0.014772,685,736,-1.06003,-0.371062
-532,288,-1.05713,0.277283,-0.000761416,-0.000509576,0.00116758,0.000538858,-0.00180985,0.839114,0.00142067,0.0118045,692,736,-1.05715,-0.277299
-525,288,-1.05933,0.213745,-0.00075177,-0.00116159,0.000653316,-0.000271983,-0.00164138,0.633433,0.0010158,0.0118805,699,736,-1.05931,-0.213723
-518,288,-1.06659,0.148804,-0.00061702,-0.00190725,0.000444666,-0.000478616,-0.00204565,0.301748,0.00123553,0.0109213,706,736,-1.06662,-0.148774
-511,288,-1.05994,0.0690308,-0.000832016,-0.00251161,0.000162066,-0.000816521,-0.0025271,0.0953195,0.00148915,0.00804764,713,736,-1.05994,-0.069041
-504,288,-1.0578,-0.00274658,-0.0011039,-0.00307203,5.12818e-05,-0.00110256,-0.00307336,0.0260325,0.00179786,0.00962952,720,736,-1.05781,0.00274772
-497,288,-1.07306,-0.0422363,-0.00134988,-0.0034005,-7.82899e-05,-0.00134689,-0.00340348,-0.0381048,0.00197919,0.0179042,727,736,-1.07309,0.0422296
-490,288,-1.17474,0.204346,-0.00181918,-0.0034343,-0.000848863,-0.0014551,-0.00379837,-0.405164,0.00221288,0.0400124,734,736,-1.17472,-0.204347
-483,288,-1.31714,0.446167,-0.00250847,-0.00313092,-0.00161229,-0.00117764,-0.00446175,-0.690055,0.00266997,0.0437741,741,736,-1.31711,-0.446144
-476,288,-1.5191,0.81781,-0.00341541,-0.00217771,-0.00288576,0.000154809,-0.00574793,-0.891024,0.00388458,0.0461252,748,736,-1.51912,-0.817829
-469,288,-1.70947,1.01569,0,0,0,0,0,0,0,-1,755,736,-1.7095,-1.01569
-462,288,-2.18665,0.295471,-0.00541297,0.00226624,-0.00658486,0.00604916,-0.0091959,-1.04935,0.00886402,0.0492089,762,736,-2.18663,-0.295456
-455,288,-2.18469,0.49054,-0.00643236,0.00581181,-0.00901948,0.0105907,-0.0112112,-1.08356,0.012589,0.0479547,769,736,-2.18471,-0.490563
-448,288,-1.86737,1.07672,-0.00762027,0.0106496,-0.0120266,0.0166171,-0.0135878,-1.11019,0.017468,0.0478162,776,736,-1.86739,-1.07671
-441,288,-1.74036,0.497681,0,0,0,0,0,0,0,-1,783,736,-1.74033,-0.497705
-434,288,0.33136,-0.229675,0,0,0,0,0,0,0,-1,790,736,0.331379,0.229678
-427,288,0,0,0,0,0,0,0,0,0,-1,797,736,0,0
-420,288,0,0,0,0,0,0,0,0,0,-1,804,736,0,0
-413,288,0,0,0,0,0,0,0,0,0,-1,811,736,0,0
-406,288,0,0,0,0,0,0,0,0,0,-1,818,736,0,0
-399,288,0,0,0,0,0,0,0,0,0,-1,825,736,0,0
-392,288,0,0,0,0,0,0,0,0,0,-1,832,736,0,0
-385,288,0,0,0,0,0,0,0,0,0,-1,839,736,0,0
-378,288,0,0,0,0,0,0,0,0,0,-1,846,736,0,0
-371,288,0,0,0,0,0,0,0,0,0,-1,853,736,0,0
-364,288,0,0,0,0,0,0,0,0,0,-1,860,736,0,0
-357,288,0,0,0,0,0,0,0,0,0,-1,867,736,0,0
-350,288,0,0,0,0,0,0,0,0,0,-1,874,736,0,0
-343,288,0,0,0,0,0,0,0,0,0,-1,881,736,0,0
-336,288,0,0,0,0,0,0,0,0,0,-1,888,736,0,0
-329,288,0,0,0,0,0,0,0,0,0,-1,895,736,0,0
-322,288,0,0,0,0,0,0,0,0,0,-1,902,736,0,0
-315,288,0,0,0,0,0,0,0,0,0,-1,909,736,0,0
-308,288,0,0,0,0,0,0,0,0,0,-1,916,736,0,0
-301,288,0,0,0,0,0,0,0,0,0,-1,923,736,0,0
-294,288,0,0,0,0,0,0,0,0,0,-1,930,736,0,0
-287,288,0,0,0,0,0,0,0,0,0,-1,937,736,0,0
-280,288,0,0,0,0,0,0,0,0,0,-1,944,736,0,0
-273,288,0,0,0,0,0,0,0,0,0,-1,951,736,0,0
-266,288,0,0,0,0,0,0,0,0,0,-1,958,736,0,0
-259,288,0,0,0,0,0,0,0,0,0,-1,965,736,0,0
-252,288,0,0,0,0,0,0,0,0,0,-1,972,736,0,0
-245,288,0,0,0,0,0,0,0,0,0,-1,979,736,0,0
-238,288,0,0,0,0,0,0,0,0,0,-1,986,736,0,0
-231,288,0,0,0,0,0,0,0,0,0,-1,993,736,0,0
-224,288,0,0,0,0,0,0,0,0,0,-1,1000,736,0,0
-217,288,0,0,0,0,0,0,0,0,0,-1,1007,736,0,0
-210,288,0,0,0,0,0,0,0,0,0,-1,1014,736,0,0
-203,288,0,0,0,0,0,0,0,0,0,-1,1021,736,0,0
-196,288,0,0,0,0,0,0,0,0,0,-1,1028,736,0,0
-189,288,0,0,0,0,0,0,0,0,0,-1,1035,736,0,0
-182,288,0,0,0,0,0,0,0,0,0,-1,1042,736,0,0
-175,288,0,0,0,0,0,0,0,0,0,-1,1049,736,0,0
-168,288,0,0,0,0,0,0,0,0,0,-1,1056,736,0,0
-161,288,0,0,0,0,0,0,0,0,0,-1,1063,736,0,0
-154,288,0,0,0,0,0,0,0,0,0,-1,1070,736,0,0
-147,288,0,0,0,0,0,0,0,0,0,-1,1077,736,0,0
-140,288,0,0,0,0,0,0,0,0,0,-1,1084,736,0,0
-133,288,0,0,0,0,0,0,0,0,0,-1,1091,736,0,0
-126,288,0,0,0,0,0,0,0,0,0,-1,1098,736,0,0
-119,288,0,0,0,0,0,0,0,0,0,-1,1105,736,0,0
-112,288,0,0,0,0,0,0,0,0,0,-1,1112,736,0,0
-105,288,0,0,0,0,0,0,0,0,0,-1,1119,736,0,0
-98,288,0,0,0,0,0,0,0,0,0,-1,1126,736,0,0
-91,288,0,0,0,0,0,0,0,0,0,-1,1133,736,0,0
-84,288,0,0,0,0,0,0,0,0,0,-1,1140,736,0,0
-77,288,0,0,0,0,0,0,0,0,0,-1,1147,736,0,0
-70,288,0,0,0,0,0,0,0,0,0,-1,1154,736,0,0
-63,288,0,0,0,0,0,0,0,0,0,-1,1161,736,0,0
-56,288,0,0,0,0,0,0,0,0,0,-1,1168,736,0,0
-49,288,0,0,0,0,0,0,0,0,0,-1,1175,736,0,0
-42,288,0,0,0,0,0,0,0,0,0,-1,1182,736,0,0
-35,288,0,0,0,0,0,0,0,0,0,-1,1189,736,0,0
-28,288,0,0,0,0,0,0,0,0,0,-1,1196,736,0,0
-21,288,0,0,0,0,0,0,0,0,0,-1,1203,736,0,0
-14,288,0,0,0,0,0,0,0,0,0,-1,1210,736,0,0
-7,288,0,0,0,0,0,0,0,0,0,-1,1217,736,0,0
0,288,0,0,0,0,0,0,0,0,0,-1,1224,736,0,0
7,288,0,0,0,0,0,0,0,0,0,-1,1231,736,0,0
14,288,0,0,0,0,0,0,0,0,0,-1,1238,736,0,0
21,288,0,0,0,0,0,0,0,0,0,-1,1245,736,0,0
28,288,0,0,0,0,0,0,0,0,0,-1,1252,736,0,0
35,288,0,0,0,0,0,0,0,0,0,-1,1259,736,0,0
42,288,0,0,0,0,0,0,0,0,0,-1,1266,736,0,0
49,288,0,0,0,0,0,0,0,0,0,-1,1273,736,0,0
56,288,0,0,0,0,0,0,0,0,0,-1,1280,736,0,0
63,288,0,0,0,0,0,0,0,0,0,-1,1287,736,0,0
70,288,0,0,0,0,0,0,0,0,0,-1,1294,736,0,0
77,288,0,0,0,0,0,0,0,0,0,-1,1301,736,0,0
84,288,0,0,0,0,0,0,0,0,0,-1,1308,736,0,0
91,288,0,0,0,0,0,0,0,0,0,-1,1315,736,0,0
98,288,0,0,0,0,0,0,0,0,0,-1,1322,736,0,0
105,288,0,0,0,0,0,0,0,0,0,-1,1329,736,0,0
112,288,0,0,0,0,0,0,0,0,0,-1,1336,736,0,0
119,288,0,0,0,0,0,0,0,0,0,-1,1343,736,0,0
126,288,0,0,0,0,0,0,0,0,0,-1,1350,736,0,0
133,288,0,0,0,0,0,0,0,0,0,-1,1357,736,0,0
140,288,0,0,0,0,0,0,0,0,0,-1,1364,736,0,0
147,288,0,0,0,0,0,0,0,0,0,-1,1371,736,0,0
154,288,0,0,0,0,0,0,0,0,0,-1,1378,736,0,0
161,288,0,0,0,0,0,0,0,0,0,-1,1385,736,0,0
168,288,0,0,0,0,0,0,0,0,0,-1,1392,736,0,0
175,288,0,0,0,0,0,0,0,0,0,-1,1399,736,0,0
182,288,0,0,0,0,0,0,0,0,0,-1,1406,736,0,0
189,288,0,0,0,0,0,0,0,0,0,-1,1413,736,0,0
196,288,0,0,0,0,0,0,0,0,0,-1,1420,736,0,0
203,288,0,0,0,0,0,0,0,0,0,-1,1427,736,0,0
210,288,0,0,0,0,0,0,0,0,0,-1,1434,736,0,0
217,288,0,0,0,0,0,0,0,0,0,-1,1441,736,0,0
224,288,0,0,0,0,0,0,0,0,0,-1,1448,736,0,0
231,288,0,0,0,0,0,0,0,0,0,-1,1455,736,0,0
238,288,0,0,0,0,0,0,0,0,0,-1,1462,736,0,0
245,288,0,0,0,0,0,0,0,0,0,-1,1469,736,0,0
252,288,0,0,0,0,0,0,0,0,0,-1,1476,736,0,0
259,288,0,0,0,0,0,0,0,0,0,-1,1483,736,0,0
266,288,0,0,0,0,0,0,0,0,0,-1,1490,736,0,0
273,288,0,0,0,0,0,0,0,0,0,-1,1497,736,0,0
280,288,0,0,0,0,0,0,0,0,0,-1,1504,736,0,0
287,288,0,0,0,0,0,0,0,0,0,-1,1511,736,0,0
294,288,0,0,0,0,0,0,0,0,0,-1,1518,736,0,0
301,288,0,0,0,0,0,0,0,0,0,-1,1525,736,0,0
308,288,0,0,0,0,0,0,0,0,0,-1,1532,736,0,0
315,288,0,0,0,0,0,0,0,0,0,-1,1539,736,0,0
322,288,0,0,0,0,0,0,0,0,0,-1,1546,736,0,0
329,288,0,0,0,0,0,0,0,0,0,-1,1553,736,0,0
336,288,0,0,0,0,0,0,0,0,0,-1,1560,736,0,0
343,288,0,0,0,0,0,0,0,0,0,-1,1567,736,0,0
350,288,0,0,0,0,0,0,0,0,0,-1,1574,736,0,0
357,288,0,0,0,0,0,0,0,0,0,-1,1581,736,0,0
364,288,0,0,0,0,0,0,0,0,0,-1,1588,736,0,0
371,288,0,0,0,0,0,0,0,0,0,-1,1595,736,0,0
378,288,0,0,0,0,0,0,0,0,0,-1,1602,736,0,0
385,288,0,0,0,0,0,0,0,0,0,-1,1609,736,0,0
392,288,0,0,0,0,0,0,0,0,0,-1,1616,736,0,0
399,288,0,0,0,0,0,0,0,0,0,-1,1623,736,0,0
406,288,0,0,0,0,0,0,0,0,0,-1,1630,736,0,0
413,288,0,0,0,0,0,0,0,0,0,-1,1637,736,0,0
420,288,0,0,0,0,0,0,0,0,0,-1,1644,736,0,0
427,288,0,0,0,0,0,0,0,0,0,-1,1651,736,0,0
434,288,0,0,0,0,0,0,0,0,0,-1,1658,736,0,0
441,288,0,0,0,0,0,0,0,0,0,-1,1665,736,0,0
448,288,0,0,0,0,0,0,0,0,0,-1,1672,736,0,0
455,288,0,0,0,0,0,0,0,0,0,-1,1679,736,0,0
462,288,0,0,0,0,0,0,0,0,0,-1,1686,736,0,0
469,288,0,0,0,0,0,0,0,0,0,-1,1693,736,0,0
476,288,0,0,0,0,0,0,0,0,0,-1,1700,736,0,0
483,288,0,0,0,0,0,0,0,0,0,-1,1707,736,0,0
490,288,0,0,0,0,0,0,0,0,0,-1,1714,736,0,0
497,288,0,0,0,0,0,0,0,0,0,-1,1721,736,0,0
504,288,0,0,0,0,0,0,0,0,0,-1,1728,736,0,0
511,288,0,0,0,0,0,0,0,0,0,-1,1735,736,0,0
518,288,0,0,0,0,0,0,0,0,0,-1,1742,736,0,0
525,288,0,0,0,0,0,0,0,0,0,-1,1749,736,0,0
532,288,0,0,0,0,0,0,0,0,0,-1,1756,736,0,0
539,288,0,0,0,0,0,0,0,0,0,-1,1763,736,0,0
546,288,0,0,0,0,0,0,0,0,0,-1,1770,736,0,0
553,288,5.93506,1.74078,0.0464192,0.0651238,-0.0312319,0.0883736,0.0231694,-0.930873,0.0529114,0.0397068,1777,736,5.93503,-1.74076
560,288,6.0752,1.62311,0.0429305,0.0439723,-0.0230279,0.0664852,0.0204175,-0.796706,0.0393259,0.0403356,1784,736,6.07525,-1.6231
567,288,6.32935,1.51257,0.0355414,0.0284276,-0.0174003,0.0497446,0.0142245,-0.684578,0.0295843,0.0435182,1791,736,6.3293,-1.51258
574,288,6.69092,1.83289,0.0282259,0.0169848,-0.0134702,0.0372011,0.00800959,-0.587751,0.0226088,0.0486056,1798,736,6.69094,-1.83286
581,288,2.7594,4.25195,0,0,0,0,0,0,0,-1,1805,736,2.75943,-4.25197
588,288,2.57764,3.51709,0,0,0,0,0,0,0,-1,1812,736,2.57766,-3.51711
595,288,1.9928,2.80707,0,0,0,0,0,0,0,-1,1819,736,1.99278,-2.80706
602,288,10.1245,0.0704346,0,0,0,0,0,0,0,-1,1826,736,10.1245,-0.0704648
609,288,9.81152,-0.0335693,0,0,0,0,0,0,0,-1,1833,736,9.81158,0.0335407
616,288,5.25244,0.445923,0,0,0,0,0,0,0,-1,1840,736,5.25245,-0.445896
623,288,5.24792,0.409668,-0.00206916,-0.0140644,0.000980062,-0.00198961,-0.014144,0.0809883,0.00884105,0.0376356,1847,736,5.24787,-0.409663
630,288,5.29272,0.314636,-0.00244959,-0.0142415,0.00172272,-0.00220306,-0.0144881,0.142137,0.00901454,0.0174773,1854,736,5.29267,-0.314607
637,288,5.30896,0.353088,-0.00208407,-0.0122976,0.00162431,-0.00183197,-0.0125497,0.153975,0.00782761,0.00998862,1861,736,5.30895,-0.353079
644,288,5.33179,0.422974,-0.00095598,-0.00950917,0.00107629,-0.000822625,-0.00964252,0.123275,0.00617244,0.00938586,1868,736,5.3318,-0.422957
651,288,5.35242,0.498962,0.000235585,-0.00695012,0.000126454,0.000237809,-0.00695235,0.0175908,0.00471617,0.0104628,1875,736,5.3524,-0.49895
658,288,5.34692,0.59259,0.00123494,-0.00484051,-0.000907427,0.00136757,-0.00497315,-0.145141,0.00385305,0.0150342,1882,736,5.3469,-0.592616
665,288,5.34241,0.637024,0.00189117,-0.00214574,-0.00177514,0.0025607,-0.00281527,-0.360674,0.00310498,0.0151694,1889,736,5.34243,-0.637035
672,288,5.33948,0.68103,0.00234043,0.000601739,-0.0024784,0.00409753,-0.00115536,-0.616718,0.00318739,0.0122901,1896,736,5.33947,-0.68103
679,288,5.33838,0.780212,0.00277834,0.00363797,-0.00348363,0.0067182,-0.000301892,-0.846779,0.00458274,0.0101834,1903,736,5.3384,-0.780204
686,288,5.33386,0.815125,0.00323079,0.00708846,-0.00469474,0.0102351,8.41003e-05,-0.98031,0.00679557,0.00797313,1910,736,5.33388,-0.815118
693,288,5.33667,0.878723,0.00388474,0.0112247,-0.00561283,0.0142609,0.000848557,-1.07494,0.00923739,0.00992419,1917,736,5.3367,-0.878749
700,288,5.33411,0.960388,0.00471651,0.0168861,-0.00654925,0.019741,0.00186165,-1.15972,0.0125861,0.0214804,1924,736,5.33414,-0.960381
707,288,5.31238,1.0423,0.00551182,0.0244306,-0.00714318,0.0268247,0.00311773,-1.24741,0.0169398,0.0364514,1931,736,5.31244,-1.04231
714,288,5.83044,-3.49506,0,0,0,0,0,0,0,-1,1938,736,5.83041,3.49505
721,288,4.66296,1.35089,0,0,0,0,0,0,0,-1,1945,736,4.66292,-1.35087
728,288,6.22192,-3.1427,0,0,0,0,0,0,0,-1,1952,736,6.22197,3.14271
735,288,5.27087,2.02692,0,0,0,0,0,0,0,-1,1959,736,5.27084,-2.02694
742,288,0,0,0,0,0,0,0,0,0,-1,1966,736,0,0
749,288,0,0,0,0,0,0,0,0,0,-1,1973,736,0,0
756,288,0,0,0,0,0,0,0,0,0,-1,1980,736,0,0
763,288,0,0,0,0,0,0,0,0,0,-1,1987,736,0,0
770,288,0,0,0,0,0,0,0,0,0,-1,1994,736,0,0
777,288,0,0,0,0,0,0,0,0,0,-1,2001,736,0,0
784,288,0,0,0,0,0,0,0,0,0,-1,2008,736,0,0
791,288,0,0,0,0,0,0,0,0,0,-1,2015,736,0,0
798,288,0,0,0,0,0,0,0,0,0,-1,2022,736,0,0
805,288,0,0,0,0,0,0,0,0,0,-1,2029,736,0,0
812,288,0,0,0,0,0,0,0,0,0,-1,2036,736,0,0
-700,281,0,0,0,0,0,0,0,0,0,-1,524,743,0,0
-693,281,0,0,0,0,0,0,0,0,0,-1,531,743,0,0
-686,281,0,0,0,0,0,0,0,0,0,-1,538,743,0,0
-679,281,0,0,0,0,0,0,0,0,0,-1,545,743,0,0
-672,281,0,0,0,0,0,0,0,0,0,-1,552,743,0,0
-665,281,0,0,0,0,0,0,0,0,0,-1,559,743,0,0
-658,281,0,0,0,0,0,0,0,0,0,-1,566,743,0,0
-651,281,0,0,0,0,0,0,0,0,0,-1,573,743,0,0
-644,281,0,0,0,0,0,0,0,0,0,-1,580,743,0,0
-637,281,0,0,0,0,0,0,0,0,0,-1,587,743,0,0
-630,281,0,0,0,0,0,0,0,0,0,-1,594,743,0,0
-623,281,-1.70026,0.172424,-0.00418172,0.00733361,-0.0713012,0.0731092,-0.0699573,-0.825686,0.0826062,0.0467418,601,743,-1.70024,-0.1724
-616,281,-2.23816,0.281982,-0.00494065,0.0062455,-0.0595848,0.0604991,-0.0591943,-0.832195,0.0691064,0.0483336,608,743,-2.23817,-0.281996
-609,281,-3.28589,0.463684,-0.00513825,0.00502306,-0.0478365,0.048048,-0.0481631,-0.838304,0.0555475,0.0455266,615,743,-3.28588,-0.463694
-602,281,-3.45935,0.207153,-0.00487795,0.00381177,-0.0368658,0.0365878,-0.037654,-0.844056,0.042865,0.0485552,622,743,-3.45933,-0.207172
-595,281,-1.87146,-0.741211,0,0,0,0,0,0,0,-1,629,743,-1.87146,0.741197
-588,281,-1.62848,-0.335938,-0.00383952,0.0018653,-0.0188416,0.0180692,-0.0200434,-0.860522,0.0220142,0.0482458,636,743,-1.62849,0.335931
-581,281,-1.31622,0.0895386,-0.00329619,0.00122069,-0.0122191,0.0113884,-0.0134639,-0.876781,0.0143651,0.0432911,643,743,-1.3162,-0.089521
-574,281,-1.06543,0.577332,-0.00342071,-8.71335e-05,-0.00722445,0.00566031,-0.00916815,-0.898772,0.00864069,0.0262368,650,743,-1.06546,-0.577358
-567,281,-1.138,0.593994,-0.00305964,0.000272382,-0.00383574,0.00278829,-0.00557556,-0.990276,0.00491744,0.0118512,657,743,-1.13802,-0.593984
-560,281,-1.14191,0.524231,-0.00207572,0.000160251,-0.00103611,0.000566541,-0.00248201,-1.19709,0.00187231,0.00821688,664,743,-1.14188,-0.524223
-553,281,-1.11682,0.463867,-0.00158747,0.000279705,0.00099287,0.000708973,-0.00201674,1.16272,0.00163295,0.0125308,671,743,-1.11682,-0.463848
-546,281,-1.11279,0.40979,-0.00118597,-2.60653e-05,0.00194716,0.00142567,-0.00263771,0.930138,0.00238053,0.013615,678,743,-1.11278,-0.409815
-539,281,-1.10968,0.343994,-0.000744157,-0.000178224,0.0015361,0.00110075,-0.00202314,0.876483,0.0018296,0.0122427,685,743,-1.10967,-0.343967
-532,281,-1.11157,0.286194,-0.000471535,-0.00071225,0.000859145,0.000275642,-0.00145943,0.715806,0.00107666,0.0112578,692,743,-1.11156,-0.286221
-525,281,-1.11902,0.223755,-0.000650992,-0.00122038,0.000272728,-0.000541438,-0.00132993,0.381968,0.000772239,0.0127746,699,743,-1.11901,-0.223766
-518,281,-1.12732,0.134521,-0.000653377,-0.00182996,-4.08589e-05,-0.00065196,-0.00183137,-0.0346712,0.00107186,0.010893,706,743,-1.12729,-0.134519
-511,281,-1.14081,0.0448608,-0.00109027,-0.00226108,-0.000484022,-0.000916082,-0.00243526,-0.345439,0.0014203,0.0097412,713,743,-1.14079,-0.0448828
-504,281,-1.14044,-0.0401001,-0.00159318,-0.00264102,-0.000735738,-0.00121388,-0.00302032,-0.475996,0.00175493,0.0115067,720,743,-1.14044,0.0400744
-497,281,-1.07397,-0.0160522,0,0,0,0,0,0,0,-1,727,743,-1.07399,0.0160572
-490,281,-1.37006,0.217651,-0.00276527,-0.00276142,-0.0017457,-0.00101765,-0.00450905,-0.785949,0.00273077,0.039773,734,743,-1.37004,-0.217663
-483,281,-1.52319,0.31665,-0.00375395,-0.00241998,-0.00248088,-0.000517985,-0.00565594,-0.916718,0.00361037,0.0392127,741,743,-1.52317,-0.316637
-476,281,-1.29968,0.465759,-0.00499296,-0.00144103,-0.00361226,0.000808237,-0.00724223,-1.01387,0.00511888,0.0437989,748,743,-1.29966,-0.46578
-469,281,-1.16394,0.392273,0,0,0,0,0,0,0,-1,755,743,-1.16392,-0.392288
-462,281,-1.4527,0.223694,-0.00774247,0.00294099,-0.00664384,0.0061242,-0.0109257,-1.12399,0.00997302,0.0444155,762,743,-1.4527,-0.223686
-455,281,-1.76428,0.375183,-0.00919423,0.00647335,-0.0084727,0.0101788,-0.0128997,-1.15852,0.0133552,0.0431356,769,743,-1.76429,-0.37521
-448,281,-1.81152,0.665527,-0.0108291,0.0113001,-0.0105654,0.0155343,-0.0150633,-1.18963,0.0176662,0.0455383,776,743,-1.81152,-0.665512
-441,281,-1.81836,0.944519,0,0,0,0,0,0,0,-1,783,743,-1.81833,-0.944511
-434,281,0,0,0,0,0,0,0,0,0,-1,790,743,0,0
-427,281,0,0,0,0,0,0,0,0,0,-1,797,743,0,0
-420,281,0,0,0,0,0,0,0,0,0,-1,804,743,0,0
-413,281,0,0,0,0,0,0,0,0,0,-1,811,743,0,0
-406,281,0,0,0,0,0,0,0,0,0,-1,818,743,0,0
-399,281,0,0,0,0,0,0,0,0,0,-1,825,743,0,0
-392,281,0,0,0,0,0,0,0,0,0,-1,832,743,0,0
-385,281,0,0,0,0,0,0,0,0,0,-1,839,743,0,0
-378,281,0,0,0,0,0,0,0,0,0,-1,846,743,0,0
-371,281,0,0,0,0,0,0,0,0,0,-1,853,743,0,0
-364,281,0,0,0,0,0,0,0,0,0,-1,860,743,0,0
-357,281,0,0,0,0,0,0,0,0,0,-1,867,743,0,0
-350,281,0,0,0,0,0,0,0,0,0,-1,874,743,0,0
-343,281,0,0,0,0,0,0,0,0,0,-1,881,743,0,0
-336,281,0,0,0,0,0,0,0,0,0,-1,888,743,0,0
-329,281,0,0,0,0,0,0,0,0,0,-1,895,743,0,0
-322,281,0,0,0,0,0,0,0,0,0,-1,902,743,0,0
-315,281,0,0,0,0,0,0,0,0,0,-1,909,743,0,0
-308,281,0,0,0,0,0,0,0,0,0,-1,916,743,0,0
-301,281,0,0,0,0,0,0,0,0,0,-1,923,743,0,0
-294,281,0,0,0,0,0,0,0,0,0,-1,930,743,0,0
-287,281,0,0,0,0,0,0,0,0,0,-1,937,743,0,0
-280,281,0,0,0,0,0,0,0,0,0,-1,944,743,0,0
-273,281,0,0,0,0,0,0,0,0,0,-1,951,743,0,0
-266,281,0,0,0,0,0,0,0,0,0,-1,958,743,0,0
-259,281,0,0,0,0,0,0,0,0,0,-1,965,743,0,0
-252,281,0,0,0,0,0,0,0,0,0,-1,972,743,0,0
-245,281,0,0,0,0,0,0,0,0,0,-1,979,743,0,0
-238,281,0,0,0,0,0,0,0,0,0,-1,986,743,0,0
-231,281,0,0,0,0,0,0,0,0,0,-1,993,743,0,0
-224,281,0,0,0,0,0,0,0,0,0,-1,1000,743,0,0
-217,281,0,0,0,0,0,0,0,0,0,-1,1007,743,0,0
-210,281,0,0,0,0,0,0,0,0,0,-1,1014,743,0,0
-203,281,0,0,0,0,0,0,0,0,0,-1,1021,743,0,0
-196,281,0,0,0,0,0,0,0,0,0,-1,1028,743,0,0
-189,281,0,0,0,0,0,0,0,0,0,-1,1035,743,0,0
-182,281,0,0,0,0,0,0,0,0,0,-1,1042,743,0,0
-175,281,0,0,0,0,0,0,0,0,0,-1,1049,743,0,0
-168,281,0,0,0,0,0,0,0,0,0,-1,1056,743,0,0
-161,281,0,0,0,0,0,0,0,0,0,-1,1063,743,0,0
-154,281,0,0,0,0,0,0,0,0,0,-1,1070,743,0,0
-147,281,0,0,0,0,0,0,0,0,0,-1,1077,743,0,0
-140,281,0,0,0,0,0,0,0,0,0,-1,1084,743,0,0
-133,281,0,0,0,0,0,0,0,0,0,-1,1091,743,0,0
-126,281,0,0,0,0,0,0,0,0,0,-1,1098,743,0,0
-119,281,0,0,0,0,0,0,0,0,0,-1,1105,743,0,0
-112,281,0,0,0,0,0,0,0,0,0,-1,1112,743,0,0
-105,281,0,0,0,0,0,0,0,0,0,-1,1119,743,0,0
-98,281,0,0,0,0,0,0,0,0,0,-1,1126,743,0,0
-91,281,0,0,0,0,0,0,0,0,0,-1,1133,743,0,0
-84,281,0,0,0,0,0,0,0,0,0,-1,1140,743,0,0
-77,281,0,0,0,0,0,0,0,0,0,-1,1147,743,0,0
-70,281,0,0,0,0,0,0,0,0,0,-1,1154,743,0,0
-63,281,0,0,0,0,0,0,0,0,0,-1,1161,743,0,0
-56,281,0,0,0,0,0,0,0,0,0,-1,1168,743,0,0
-49,281,0,0,0,0,0,0,0,0,0,-1,1175,743,0,0
-42,281,0,0,0,0,0,0,0,0,0,-1,1182,743,0,0
-35,281,0,0,0,0,0,0,0,0,0,-1,1189,743,0,0
-28,281,0,0,0,0,0,0,0,0,0,-1,1196,743,0,0
-21,281,0,0,0,0,0,0,0,0,0,-1,1203,743,0,0
-14,281,0,0,0,0,0,0,0,0,0,-1,1210,743,0,0
-7,281,0,0,0,0,0,0,0,0,0,-1,1217,743,0,0
0,281,0,0,0,0,0,0,0,0,0,-1,1224,743,0,0
7,281,0,0,0,0,0,0,0,0,0,-1,1231,743,0,0
14,281,0,0,0,0,0,0,0,0,0,-1,1238,743,0,0
21,281,0,0,0,0,0,0,0,0,0,-1,1245,743,0,0
28,281,0,0,0,0,0,0,0,0,0,-1,1252,743,0,0
35,281,0,0,0,0,0,0,0,0,0,-1,1259,743,0,0
42,281,0,0,0,0,0,0,0,0,0,-1,1266,743,0,0
49,281,0,0,0,0,0,0,0,0,0,-1,1273,743,0,0
56,281,0,0,0,0,0,0,0,0,0,-1,1280,743,0,0
63,281,0,0,0,0,0,0,0,0,0,-1,1287,743,0,0
70,281,0,0,0,0,0,0,0,0,0,-1,1294,743,0,0
77,281,0,0,0,0,0,0,0,0,0,-1,1301,743,0,0
84,281,0,0,0,0,0,0,0,0,0,-1,1308,743,0,0
91,281,0,0,0,0,0,0,0,0,0,-1,1315,743,0,0
98,281,0,0,0,0,0,0,0,0,0,-1,1322,743,0,0
105,281,0,0,0,0,0,0,0,0,0,-1,1329,743,0,0
112,281,0,0,0,0,0,0,0,0,0,-1,1336,743,0,0
119,281,0,0,0,0,0,0,0,0,0,-1,1343,743,0,0
126,281,0,0,0,0,0,0,0,0,0,-1,1350,743,0,0
133,281,0,0,0,0,0,0,0,0,0,-1,1357,743,0,0
140,281,0,0,0,0,0,0,0,0,0,-1,1364,743,0,0
147,281,0,0,0,0,0,0,0,0,0,-1,1371,743,0,0
154,281,0,0,0,0,0,0,0,0,0,-1,1378,743,0,0
161,281,0,0,0,0,0,0,0,0,0,-1,1385,743,0,0
168,281,0,0,0,0,0,0,0,0,0,-1,1392,743,0,0
175,281,0,0,0,0,0,0,0,0,0,-1,1399,743,0,0
182,281,0,0,0,0,0,0,0,0,0,-1,1406,743,0,0
189,281,0,0,0,0,0,0,0,0,0,-1,1413,743,0,0
196,281,0,0,0,0,0,0,0,0,0,-1,1420,743,0,0
203,281,0,0,0,0,0,0,0,0,0,-1,1427,743,0,0
210,281,0,0,0,0,0,0,0,0,0,-1,1434,743,0,0
217,281,0,0,0,0,0,0,0,0,0,-1,1441,743,0,0
224,281,0,0,0,0,0,0,0,0,0,-1,1448,743,0,0
231,281,0,0,0,0,0,0,0,0,0,-1,1455,743,0,0
238,281,0,0,0,0,0,0,0,0,0,-1,1462,743,0,0
245,281,0,0,0,0,0,0,0,0,0,-1,1469,743,0,0
252,281,0,0,0,0,0,0,0,0,0,-1,1476,743,0,0
259,281,0,0,0,0,0,0,0,0,0,-1,1483,743,0,0
266,281,0,0,0,0,0,0,0,0,0,-1,1490,743,0,0
273,281,0,0,0,0,0,0,0,0,0,-1,1497,743,0,0
280,281,0,0,0,0,0,0,0,0,0,-1,1504,743,0,0
287,281,0,0,0,0,0,0,0,0,0,-1,1511,743,0,0
294,281,0,0,0,0,0,0,0,0,0,-1,1518,743,0,0
301,281,0,0,0,0,0,0,0,0,0,-1,1525,743,0,0
308,281,0,0,0,0,0,0,0,0,0,-1,1532,743,0,0
315,281,0,0,0,0,0,0,0,0,0,-1,1539,743,0,0
322,281,0,0,0,0,0,0,0,0,0,-1,1546,743,0,0
329,281,0,0,0,0,0,0,0,0,0,-1,1553,743,0,0
336,281,0,0,0,0,0,0,0,0,0,-1,1560,743,0,0
343,281,0,0,0,0,0,0,0,0,0,-1,1567,743,0,0
350,281,0,0,0,0,0,0,0,0,0,-1,1574,743,0,0
357,281,0,0,0,0,0,0,0,0,0,-1,1581,743,0,0
364,281,0,0,0,0,0,0,0,0,0,-1,1588,743,0,0
371,281,0,0,0,0,0,0,0,0,0,-1,1595,743,0,0
378,281,0,0,0,0,0,0,0,0,0,-1,1602,743,0,0
385,281,0,0,0,0,0,0,0,0,0,-1,1609,743,0,0
392,281,0,0,0,0,0,0,0,0,0,-1,1616,743,0,0
399,281,0,0,0,0,0,0,0,0,0,-1,1623,743,0,0
406,281,0,0,0,0,0,0,0,0,0,-1,1630,743,0,0
413,281,0,0,0,0,0,0,0,0,0,-1,1637,743,0,0
420,281,0,0,0,0,0,0,0,0,0,-1,1644,743,0,0
427,281,0,0,0,0,0,0,0,0,0,-1,1651,743,0,0
434,281,0,0,0,0,0,0,0,0,0,-1,1658,743,0,0
441,281,0,0,0,0,0,0,0,0,0,-1,1665,743,0,0
448,281,0,0,0,0,0,0,0,0,0,-1,1672,743,0,0
455,281,0,0,0,0,0,0,0,0,0,-1,1679,743,0,0
462,281,0,0,0,0,0,0,0,0,0,-1,1686,743,0,0
469,281,0,0,0,0,0,0,0,0,0,-1,1693,743,0,0
476,281,0,0,0,0,0,0,0,0,0,-1,1700,743,0,0
483,281,0,0,0,0,0,0,0,0,0,-1,1707,743,0,0
490,281,0,0,0,0,0,0,0,0,0,-1,1714,743,0,0
497,281,0,0,0,0,0,0,0,0,0,-1,1721,743,0,0
504,281,0,0,0,0,0,0,0,0,0,-1,1728,743,0,0
511,281,0,0,0,0,0,0,0,0,0,-1,1735,743,0,0
518,281,0,0,0,0,0,0,0,0,0,-1,1742,743,0,0
525,281,0,0,0,0,0,0,0,0,0,-1,1749,743,0,0
532,281,0,0,0,0,0,0,0,0,0,-1,1756,743,0,0
539,281,0,0,0,0,0,0,0,0,0,-1,1763,743,0,0
546,281,0,0,0,0,0,0,0,0,0,-1,1770,743,0,0
553,281,0,0,0,0,0,0,0,0,0,-1,1777,743,0,0
560,281,6.55457,1.42731,0.0485738,0.0467245,-0.0236783,0.0713454,0.0239528,-0.765883,0.0419258,0.0381133,1784,743,6.55458,-1.42732
567,281,6.69275,1.37048,0.0397144,0.030023,-0.016695,0.0522527,0.0174847,-0.644155,0.0307133,0.040707,1791,743,6.69272,-1.37049
574,281,6.90308,1.31305,0.0306871,0.0173997,-0.0120938,0.0378418,0.0102449,-0.534227,0.0226007,0.0451036,1798,743,6.90308,-1.31303
581,281,2.44617,4.01624,0,0,0,0,0,0,0,-1,1805,743,2.4462,-4.01626
588,281,2.42419,3.42249,0,0,0,0,0,0,0,-1,1812,743,2.42417,-3.42248
595,281,2.4021,2.82867,0,0,0,0,0,0,0,-1,1819,743,2.40213,-2.8287
602,281,9.24829,0.110718,0,0,0,0,0,0,0,-1,1826,743,9.24834,-0.110737
609,281,8.776,0.0689087,0,0,0,0,0,0,0,-1,1833,743,8.77599,-0.0688849
616,281,5.21045,1.41675,0,0,0,0,0,0,0,-1,1840,743,5.21046,-1.41676
623,281,5.19324,0.574951,0,0,0,0,0,0,0,-1,1847,743,5.19319,-0.574949
630,281,5.36133,0.308289,-0.00211656,-0.0161586,0.00272219,-0.00160731,-0.0166678,0.184938,0.0106168,0.0302136,1854,743,5.36136,-0.308289
637,281,5.3905,0.325867,-0.00158809,-0.014337,0.00241865,-0.00114466,-0.0147804,0.181324,0.00949507,0.0129454,1861,743,5.39051,-0.325875
644,281,5.39368,0.403931,-0.0002145,-0.0113655,0.00165087,2.47741e-05,-0.0116047,0.143935,0.00774477,0.0103442,1868,743,5.39363,-0.403949
651,281,5.39038,0.472412,0.00112293,-0.00844859,0.000449766,0.00114401,-0.00846967,0.0468525,0.00606387,0.0110669,1875,743,5.39041,-0.472401
658,281,5.39978,0.549377,0.0020364,-0.00593323,-0.000734581,0.00210354,-0.00600037,-0.0911492,0.00485576,0.0182715,1882,743,5.39977,-0.549397
665,281,5.39343,0.603271,0.00247747,-0.00309709,-0.00164407,0.00292622,-0.00354584,-0.26646,0.00374235,0.0200266,1889,743,5.39349,-0.603247
672,281,5.39648,0.693665,0.00257887,-0.000331861,-0.00232578,0.00386711,-0.0016201,-0.505828,0.00325538,0.0112528,1896,743,5.39648,-0.693678
679,281,5.39954,0.779419,0.00252155,0.00271753,-0.00322372,0.00584475,-0.000605668,-0.800592,0.00411328,0.0156046,1903,743,5.39948,-0.779417
686,281,5.40601,0.821594,0.00236419,0.00602406,-0.00436298,0.00892532,-0.000537069,-0.983967,0.00613708,0.0106857,1910,743,5.40602,-0.821599
693,281,5.40466,0.871704,0.00238349,0.00954443,-0.00517193,0.0122543,-0.0003264,-1.08816,0.00828049,0.00904616,1917,743,5.40468,-0.87171
700,281,5.40076,0.944458,0.00250474,0.0143409,-0.00596953,0.0168287,1.69221e-05,-1.17593,0.0112135,0.0166336,1924,743,5.40079,-0.944475
707,281,5.35339,0.873657,0.00262358,0.0206241,-0.00645259,0.0226982,0.000549521,-1.2598,0.0149523,0.0321662,1931,743,5.35338,-0.873642
714,281,4.66785,0.685669,0,0,0,0,0,0,0,-1,1938,743,4.6679,-0.685663
721,281,5.16699,1.27014,0.00180224,0.0388228,-0.00553211,0.0396318,0.000993233,-1.42559,0.0260964,0.0425219,1945,743,5.16699,-1.27016
728,281,5.62878,2.00366,0.000488492,0.051133,-0.00341387,0.051362,0.000259405,-1.50379,0.0341552,0.0450245,1952,743,5.62883,-2.00366
735,281,5.73376,2.388,0,0,0,0,0,0,0,-1,1959,743,5.7338,-2.388
742,281,0,0,0,0,0,0,0,0,0,-1,1966,743,0,0
749,281,0,0,0,0,0,0,0,0,0,-1,1973,743,0,0
756,281,0,0,0,0,0,0,0,0,0,-1,1980,743,0,0
763,281,0,0,0,0,0,0,0,0,0,-1,1987,743,0,0
770,281,0,0,0,0,0,0,0,0,0,-1,1994,743,0,0
777,281,0,0,0,0,0,0,0,0,0,-1,2001,743,0,0
784,281,0,0,0,0,0,0,0,0,0,-1,2008,743,0,0
791,281,0,0,0,0,0,0,0,0,0,-1,2015,743,0,0
798,281,0,0,0,0,0,0,0,0,0,-1,2022,743,0,0
805,281,0,0,0,0,0,0,0,0,0,-1,2029,743,0,0
812,281,0,0,0,0,0,0,0,0,0,-1,2036,743,0,0
-700,274,0,0,0,0,0,0,0,0,0,-1,524,750,0,0
-693,274,0,0,0,0,0,0,0,0,0,-1,531,750,0,0
-686,274,0,0,0,0,0,0,0,0,0,-1,538,750,0,0
-679,274,0,0,0,0,0,0,0,0,0,-1,545,750,0,0
-672,274,0,0,0,0,0,0,0,0,0,-1,552,750,0,0
-665,274,0,0,0,0,0,0,0,0,0,-1,559,750,0,0
-658,274,0,0,0,0,0,0,0,0,0,-1,566,750,0,0
-651,274,0,0,0,0,0,0,0,0,0,-1,573,750,0,0
-644,274,0,0,0,0,0,0,0,0,0,-1,580,750,0,0
-637,274,0,0,0,0,0,0,0,0,0,-1,587,750,0,0
-630,274,0,0,0,0,0,0,0,0,0,-1,594,750,0,0
-623,274,-2.6189,2.31488,0,0,0,0,0,0,0,-1,601,750,-2.61892,-2.31489
-616,274,-2.17249,1.08124,0,0,0,0,0,0,0,-1,608,750,-2.17251,-1.08122
-609,274,-2.16461,0.697266,0.00159802,0.00639554,-0.041934,0.0459993,-0.0380058,-0.813969,0.0485735,0.0468418,615,750,-2.1646,-0.697273
-602,274,-2.13727,0.285278,0.00105287,0.00399592,-0.0323499,0.0349078,-0.029859,-0.808126,0.037431,0.0426139,622,750,-2.13729,-0.285272
-595,274,-1.83984,-0.0709229,0.00060932,0.00222243,-0.023815,0.0252445,-0.0224127,-0.802325,0.0275311,0.0492091,629,750,-1.83985,0.0708985
-588,274,-1.68402,-0.0876465,0.000334225,0.000959924,-0.0166453,0.0172953,-0.0160012,-0.794795,0.0192286,0.0457699,636,750,-1.68401,0.0876324
-581,274,-1.40448,0.302368,5.16403e-05,0.000154182,-0.0108268,0.0109299,-0.010724,-0.787766,0.0125021,0.0373909,643,750,-1.40447,-0.302343
-574,274,-1.14648,0.654785,-0.000826724,-0.0012864,-0.00642017,0.00536772,-0.00748085,-0.767506,0.00745149,0.0193101,650,750,-1.14646,-0.654768
-567,274,-1.20807,0.604309,-0.00124494,-0.000891131,-0.0034032,0.00233976,-0.00447584,-0.811366,0.00399889,0.0161211,657,750,-1.20808,-0.604308
-560,274,-1.20825,0.540649,-0.000995044,-0.000743579,-0.000844942,-1.50661e-05,-0.00172356,-0.859259,0.00114405,0.0148173,664,750,-1.20827,-0.540635
-553,274,-1.17377,0.44104,-0.00104808,-0.000335638,0.00108663,0.00045167,-0.00183539,0.943789,0.00139867,0.00922979,671,750,-1.17374,-0.441028
-546,274,-1.17816,0.375305,-0.000826847,-0.000422139,0.00203295,0.0014185,-0.00266749,0.835003,0.0023955,0.0100135,678,750,-1.17818,-0.375297
-539,274,-1.18103,0.333374,-0.000555345,-0.000382532,0.00151011,0.00104364,-0.00198152,0.813976,0.00177434,0.0106783,685,750,-1.18101,-0.33338
-532,274,-1.18433,0.294434,-0.000509404,-0.000767192,0.000717047,9.02413e-05,-0.00136684,0.69647,0.000942746,0.01093,692,750,-1.18431,-0.294412
-525,274,-1.1889,0.213745,-0.000854556,-0.00119622,6.77102e-05,-0.000841627,-0.00120915,0.188682,0.000715765,0.0106343,699,750,-1.18891,-0.213757
-518,274,-1.1889,0.12439,-0.000979079,-0.00173685,-0.00035033,-0.000841936,-0.00187399,-0.373129,0.0010838,0.0106909,706,750,-1.18892,-0.124371
-511,274,-1.19696,0.0379028,-0.00157576,-0.00207091,-0.000942698,-0.00084867,-0.002798,-0.656985,0.00165657,0.0105403,713,750,-1.19699,-0.0379228
-504,274,-1.20239,-0.0462646,-0.00224459,-0.00237239,-0.00133444,-0.000972524,-0.00364447,-0.761474,0.00217905,0.0178592,720,750,-1.20241,0.0462595
-497,274,-1.14648,0.0574951,-0.00286876,-0.00253192,-0.00164119,-0.00105053,-0.00435015,-0.836529,0.00262107,0.0402346,727,750,-1.14651,-0.0574997
-490,274,-1.41553,0.31012,-0.00377416,-0.00239379,-0.00247073,-0.000518655,-0.0056493,-0.921598,0.00360577,0.0421892,734,750,-1.41556,-0.310133
-483,274,-1.36389,0.453552,-0.00502131,-0.00208985,-0.00316216,-7.0232e-05,-0.00704093,-1.00242,0.00467072,0.0397782,741,750,-1.36387,-0.453569
-476,274,-1.04443,0.465576,-0.00652099,-0.00126611,-0.0040822,0.000961121,-0.00874822,-1.07134,0.00617749,0.0441709,748,750,-1.04441,-0.465591
-469,274,-1.64874,0.501709,0,0,0,0,0,0,0,-1,755,750,-1.64877,-0.501722
-462,274,-0.900757,0.125244,-0.00982985,0.00245477,-0.00623934,0.00506788,-0.012443,-1.17418,0.0104045,0.0469508,762,750,-0.900787,-0.125243
-455,274,-1.73901,0.544495,-0.0115506,0.00556997,-0.00735568,0.00829616,-0.0142768,-1.21587,0.0131841,0.0432582,769,750,-1.73904,-0.544481
-448,274,-1.97089,0.737,-0.0134934,0.00979986,-0.00825358,0.0124279,-0.0161215,-1.26254,0.0165289,0.0429658,776,750,-1.97088,-0.737
-441,274,0,0,0,0,0,0,0,0,0,-1,783,750,0,0
-434,274,0,0,0,0,0,0,0,0,0,-1,790,750,0,0
-427,274,0,0,0,0,0,0,0,0,0,-1,797,750,0,0
-420,274,0,0,0,0,0,0,0,0,0,-1,804,750,0,0
-413,274,0,0,0,0,0,0,0,0,0,-1,811,750,0,0
-406,274,0,0,0,0,0,0,0,0,0,-1,818,750,0,0
-399,274,0,0,0,0,0,0,0,0,0,-1,825,750,0,0
-392,274,0,0,0,0,0,0,0,0,0,-1,832,750,0,0
-385,274,0,0,0,0,0,0,0,0,0,-1,839,750,0,0
-378,274,0,0,0,0,0,0,0,0,0,-1,846,750,0,0
-371,274,0,0,0,0,0,0,0,0,0,-1,853,750,0,0
-364,274,0,0,0,0,0,0,0,0,0,-1,860,750,0,0
-357,274,0,0,0,0,0,0,0,0,0,-1,867,750,0,0
-350,274,0,0,0,0,0,0,0,0,0,-1,874,750,0,0
-343,274,0,0,0,0,0,0,0,0,0,-1,881,750,0,0
-336,274,0,0,0,0,0,0,0,0,0,-1,888,750,0,0
-329,274,0,0,0,0,0,0,0,0,0,-1,895,750,0,0
-322,274,0,0,0,0,0,0,0,0,0,-1,902,750,0,0
-315,274,0,0,0,0,0,0,0,0,0,-1,909,750,0,0
-308,274,0,0,0,0,0,0,0,0,0,-1,916,750,0,0
-301,274,0,0,0,0,0,0,0,0,0,-1,923,750,0,0
-294,274,0,0,0,0,0,0,0,0,0,-1,930,750,0,0
-287,274,0,0,0,0,0,0,0,0,0,-1,937,750,0,0
-280,274,0,0,0,0,0,0,0,0,0,-1,944,750,0,0
-273,274,0,0,0,0,0,0,0,0,0,-1,951,750,0,0
-266,274,0,0,0,0,0,0,0,0,0,-1,958,750,0,0
-259,274,0,0,0,0,0,0,0,0,0,-1,965,750,0,0
-252,274,0,0,0,0,0,0,0,0,0,-1,972,750,0,0
-245,274,0,0,0,0,0,0,0,0,0,-1,979,750,0,0
-238,274,0,0,0,0,0,0,0,0,0,-1,986,750,0,0
-231,274,0,0,0,0,0,0,0,0,0,-1,993,750,0,0
-224,274,0,0,0,0,0,0,0,0,0,-1,1000,750,0,0
-217,274,0,0,0,0,0,0,0,0,0,-1,1007,750,0,0
-210,274,0,0,0,0,0,0,0,0,0,-1,1014,750,0,0
-203,274,0,0,0,0,0,0,0,0,0,-1,1021,750,0,0
-196,274,0,0,0,0,0,0,0,0,0,-1,1028,750,0,0
-189,274,0,0,0,0,0,0,0,0,0,-1,1035,750,0,0
-182,274,0,0,0,0,0,0,0,0,0,-1,1042,750,0,0
-175,274,0,0,0,0,0,0,0,0,0,-1,1049,750,0,0
-168,274,0,0,0,0,0,0,0,0,0,-1,1056,750,0,0
-161,274,0,0,0,0,0,0,0,0,0,-1,1063,750,0,0
-154,274,0,0,0,0,0,0,0,0,0,-1,1070,750,0,0
-147,274,0,0,0,0,0,0,0,0,0,-1,1077,750,0,0
-140,274,0,0,0,0,0,0,0,0,0,-1,1084,750,0,0
-133,274,0,0,0,0,0,0,0,0,0,-1,1091,750,0,0
-126,274,0,0,0,0,0,0,0,0,0,-1,1098,750,0,0
-119,274,0,0,0,0,0,0,0,0,0,-1,1105,750,0,0
-112,274,0,0,0,0,0,0,0,0,0,-1,1112,750,0,0
-105,274,0,0,0,0,0,0,0,0,0,-1,1119,750,0,0
-98,274,0,0,0,0,0,0,0,0,0,-1,1126,750,0,0
-91,274,0,0,0,0,0,0,0,0,0,-1,1133,750,0,0
-84,274,0,0,0,0,0,0,0,0,0,-1,1140,750,0,0
-77,274,0,0,0,0,0,0,0,0,0,-1,1147,750,0,0
-70,274,0,0,0,0,0,0,0,0,0,-1,1154,750,0,0
-63,274,0,0,0,0,0,0,0,0,0,-1,1161,750,0,0
-56,274,0,0,0,0,0,0,0,0,0,-1,1168,750,0,0
-49,274,0,0,0,0,0,0,0,0,0,-1,1175,750,0,0
-42,274,0,0,0,0,0,0,0,0,0,-1,1182,750,0,0
-35,274,0,0,0,0,0,0,0,0,0,-1,1189,750,0,0
-28,274,0,0,0,0,0,0,0,0,0,-1,1196,750,0,0
-21,274,0,0,0,0,0,0,0,0,0,-1,1203,750,0,0
-14,274,0,0,0,0,0,0,0,0,0,-1,1210,750,0,0
-7,274,0,0,0,0,0,0,0,0,0,-1,1217,750,0,0
0,274,0,0,0,0,0,0,0,0,0,-1,1224,750,0,0
7,274,0,0,0,0,0,0,0,0,0,-1,1231,750,0,0
14,274,0,0,0,0,0,0,0,0,0,-1,1238,750,0,0
21,274,0,0,0,0,0,0,0,0,0,-1,1245,750,0,0
28,274,0,0,0,0,0,0,0,0,0,-1,1252,750,0,0
35,274,0,0,0,0,0,0,0,0,0,-1,1259,750,0,0
42,274,0,0,0,0,0,0,0,0,0,-1,1266,750,0,0
49,274,0,0,0,0,0,0,0,0,0,-1,1273,750,0,0
56,274,0,0,0,0,0,0,0,0,0,-1,1280,750,0,0
63,274,0,0,0,0,0,0,0,0,0,-1,1287,750,0,0
70,274,0,0,0,0,0,0,0,0,0,-1,1294,750,0,0
77,274,0,0,0,0,0,0,0,0,0,-1,1301,750,0,0
84,274,0,0,0,0,0,0,0,0,0,-1,1308,750,0,0
91,274,0,0,0,0,0,0,0,0,0,-1,1315,750,0,0
98,274,0,0,0,0,0,0,0,0,0,-1,1322,750,0,0
105,274,0,0,0,0,0,0,0,0,0,-1,1329,750,0,0
112,274,0,0,0,0,0,0,0,0,0,-1,1336,750,0,0
119,274,0,0,0,0,0,0,0,0,0,-1,1343,750,0,0
126,274,0,0,0,0,0,0,0,0,0,-1,1350,750,0,0
133,274,0,0,0,0,0,0,0,0,0,-1,1357,750,0,0
140,274,0,0,0,0,0,0,0,0,0,-1,1364,750,0,0
147,274,0,0,0,0,0,0,0,0,0,-1,1371,750,0,0
154,274,0,0,0,0,0,0,0,0,0,-1,1378,750,0,0
161,274,0,0,0,0,0,0,0,0,0,-1,1385,750,0,0
168,274,0,0,0,0,0,0,0,0,0,-1,1392,750,0,0
175,274,0,0,0,0,0,0,0,0,0,-1,1399,750,0,0
182,274,0,0,0,0,0,0,0,0,0,-1,1406,750,0,0
189,274,0,0,0,0,0,0,0,0,0,-1,1413,750,0,0
196,274,0,0,0,0,0,0,0,0,0,-1,1420,750,0,0
203,274,0,0,0,0,0,0,0,0,0,-1,1427,750,0,0
210,274,0,0,0,0,0,0,0,0,0,-1,1434,750,0,0
217,274,0,0,0,0,0,0,0,0,0,-1,1441,750,0,0
224,274,0,0,0,0,0,0,0,0,0,-1,1448,750,0,0
231,274,0,0,0,0,0,0,0,0,0,-1,1455,750,0,0
238,274,0,0,0,0,0,0,0,0,0,-1,1462,750,0,0
245,274,0,0,0,0,0,0,0,0,0,-1,1469,750,0,0
252,274,0,0,0,0,0,0,0,0,0,-1,1476,750,0,0
259,274,0,0,0,0,0,0,0,0,0,-1,1483,750,0,0
266,274,0,0,0,0,0,0,0,0,0,-1,1490,750,0,0
273,274,0,0,0,0,0,0,0,0,0,-1,1497,750,0,0
280,274,0,0,0,0,0,0,0,0,0,-1,1504,750,0,0
287,274,0,0,0,0,0,0,0,0,0,-1,1511,750,0,0
294,274,0,0,0,0,0,0,0,0,0,-1,1518,750,0,0
301,274,0,0,0,0,0,0,0,0,0,-1,1525,750,0,0
308,274,0,0,0,0,0,0,0,0,0,-1,1532,750,0,0
315,274,0,0,0,0,0,0,0,0,0,-1,1539,750,0,0
322,274,0,0,0,0,0,0,0,0,0,-1,1546,750,0,0
329,274,0,0,0,0,0,0,0,0,0,-1,1553,750,0,0
336,274,0,0,0,0,0,0,0,0,0,-1,1560,750,0,0
343,274,0,0,0,0,0,0,0,0,0,-1,1567,750,0,0
350,274,0,0,0,0,0,0,0,0,0,-1,1574,750,0,0
357,274,0,0,0,0,0,0,0,0,0,-1,1581,750,0,0
364,274,0,0,0,0,0,0,0,0,0,-1,1588,750,0,0
371,274,0,0,0,0,0,0,0,0,0,-1,1595,750,0,0
378,274,0,0,0,0,0,0,0,0,0,-1,1602,750,0,0
385,274,0,0,0,0,0,0,0,0,0,-1,1609,750,0,0
392,274,0,0,0,0,0,0,0,0,0,-1,1616,750,0,0
399,274,0,0,0,0,0,0,0,0,0,-1,1623,750,0,0
406,274,0,0,0,0,0,0,0,0,0,-1,1630,750,0,0
413,274,0,0,0,0,0,0,0,0,0,-1,1637,750,0,0
420,274,0,0,0,0,0,0,0,0,0,-1,1644,750,0,0
427,274,0,0,0,0,0,0,0,0,0,-1,1651,750,0,0
434,274,0,0,0,0,0,0,0,0,0,-1,1658,750,0,0
441,274,0,0,0,0,0,0,0,0,0,-1,1665,750,0,0
448,274,0,0,0,0,0,0,0,0,0,-1,1672,750,0,0
455,274,0,0,0,0,0,0,0,0,0,-1,1679,750,0,0
462,274,0,0,0,0,0,0,0,0,0,-1,1686,750,0,0
469,274,0,0,0,0,0,0,0,0,0,-1,1693,750,0,0
476,274,0,0,0,0,0,0,0,0,0,-1,1700,750,0,0
483,274,0,0,0,0,0,0,0,0,0,-1,1707,750,0,0
490,274,0,0,0,0,0,0,0,0,0,-1,1714,750,0,0
497,274,0,0,0,0,0,0,0,0,0,-1,1721,750,0,0
504,274,0,0,0,0,0,0,0,0,0,-1,1728,750,0,0
511,274,0,0,0,0,0,0,0,0,0,-1,1735,750,0,0
518,274,0,0,0,0,0,0,0,0,0,-1,1742,750,0,0
525,274,0,0,0,0,0,0,0,0,0,-1,1749,750,0,0
532,274,0,0,0,0,0,0,0,0,0,-1,1756,750,0,0
539,274,0,0,0,0,0,0,0,0,0,-1,1763,750,0,0
546,274,0,0,0,0,0,0,0,0,0,-1,1770,750,0,0
553,274,0,0,0,0,0,0,0,0,0,-1,1777,750,0,0
560,274,7.04297,1.21796,0.051095,0.047025,-0.0266587,0.0757963,0.0223238,-0.747304,0.0449759,0.0374848,1784,750,7.04299,-1.21798
567,274,7.00989,1.26331,0.043542,0.0313823,-0.0174848,0.0559739,0.0189505,-0.618077,0.0328732,0.0384818,1791,750,7.00986,-1.26332
574,274,7.1333,1.09906,0.0336868,0.0184802,-0.011598,0.0399516,0.0122154,-0.495257,0.0236391,0.043005,1798,750,7.13335,-1.09906
581,274,7.55664,0.905579,0.0251517,0.00811092,-0.0074677,0.0279611,0.00530155,-0.359826,0.0171489,0.0424102,1805,750,7.55662,-0.905581
588,274,2.42798,3.34546,0,0,0,0,0,0,0,-1,1812,750,2.42796,-3.34547
595,274,9.09302,0.38208,0.0126361,-0.00542764,-0.00209489,0.0128758,-0.00566741,-0.113957,0.0109723,0.0484281,1819,750,9.09305,-0.38205
602,274,8.51965,0.337708,0.00839108,-0.010272,1.3884e-05,0.00839109,-0.010272,0.00074393,0.0107934,0.0460353,1826,750,8.51961,-0.337706
609,274,7.90942,0.399109,0,0,0,0,0,0,0,-1,1833,750,7.90942,-0.399111
616,274,4.70764,-0.41449,0,0,0,0,0,0,0,-1,1840,750,4.70765,0.414497
623,274,5.12183,-0.0646362,-0.001365,-0.0173594,0.00319636,-0.000749886,-0.0179745,0.190118,0.011741,0.0490812,1847,750,5.12188,0.0646608
630,274,5.43884,0.270447,-0.00190871,-0.0176685,0.00353718,-0.00115122,-0.018426,0.210964,0.0119188,0.0384687,1854,750,5.43887,-0.27043
637,274,5.46924,0.318481,-0.00130986,-0.0159899,0.00310226,-0.000681196,-0.0166185,0.199939,0.0108591,0.013544,1861,750,5.46928,-0.318459
644,274,5.46863,0.393982,0.0001887,-0.0130121,0.00224059,0.000558632,-0.013382,0.163629,0.00911325,0.0120553,1868,750,5.46862,-0.393962
651,274,5.45313,0.458923,0.00165003,-0.00990656,0.000930127,0.00172441,-0.00998094,0.0798,0.007297,0.0129047,1875,750,5.45317,-0.458937
658,274,5.43652,0.50592,0.00256015,-0.0070953,-0.000276165,0.00256804,-0.00710319,-0.0285709,0.00578471,0.0147013,1882,750,5.43656,-0.505917
665,274,5.45337,0.601929,0.00290272,-0.0041279,-0.00112165,0.00307733,-0.00430251,-0.154433,0.00428028,0.0163757,1889,750,5.45339,-0.60191
672,274,5.46362,0.691528,0.00277244,-0.00132519,-0.00167354,0.00336907,-0.00192182,-0.342461,0.00309256,0.0143038,1896,750,5.46366,-0.691544
679,274,5.48938,0.754578,0.00236414,0.00174038,-0.00236772,0.00444044,-0.000335913,-0.719914,0.00307838,0.0143076,1903,750,5.48932,-0.754573
686,274,5.49353,0.820435,0.00178045,0.00494762,-0.00335335,0.0070725,-0.000344431,-1.006,0.0048339,0.0127343,1910,750,5.49355,-0.820422
693,274,5.48633,0.885864,0.00135726,0.00794657,-0.00397268,0.00981301,-0.000509185,-1.13158,0.00671817,0.0112227,1917,750,5.48635,-0.885876
700,274,5.47229,0.973389,0.000940693,0.0119928,-0.0045572,0.0136295,-0.000696027,-1.22599,0.00932701,0.0138519,1924,750,5.47233,-0.973387
707,274,5.45679,1.01855,0.00051423,0.0171623,-0.00484437,0.0184693,-0.000792803,-1.30727,0.0125855,0.0198873,1931,750,5.45683,-1.01853
714,274,5.41614,0.96991,-0.000199611,0.0237531,-0.00467697,0.0246339,-0.00108044,-1.38464,0.0167944,0.0356438,1938,750,5.41611,-0.96992
721,274,5.56494,1.08307,-0.00145612,0.0319569,-0.00379607,0.0323828,-0.00188196,-1.45908,0.0222424,0.0446474,1945,750,5.56491,-1.08305
728,274,5.89185,1.51666,-0.00336928,0.0418698,-0.00184537,0.041945,-0.00344443,-1.53009,0.0291793,0.0463053,1952,750,5.89179,-1.51663
735,274,6.08557,2.00952,0,0,0,0,0,0,0,-1,1959,750,6.08558,-2.0095
742,274,5.07434,3.35797,0,0,0,0,0,0,0,-1,1966,750,5.07431,-3.35794
749,274,0,0,0,0,0,0,0,0,0,-1,1973,750,0,0
756,274,0,0,0,0,0,0,0,0,0,-1,1980,750,0,0
763,274,0,0,0,0,0,0,0,0,0,-1,1987,750,0,0
770,274,0,0,0,0,0,0,0,0,0,-1,1994,750,0,0
777,274,0,0,0,0,0,0,0,0,0,-1,2001,750,0,0
784,274,0,0,0,0,0,0,0,0,0,-1,2008,750,0,0
791,274,0,0,0,0,0,0,0,0,0,-1,2015,750,0,0
798,274,0,0,0,0,0,0,0,0,0,-1,2022,750,0,0
805,274,0,0,0,0,0,0,0,0,0,-1,2029,750,0,0
812,274,0,0,0,0,0,0,0,0,0,-1,2036,750,0,0
-700,267,0,0,0,0,0,0,0,0,0,-1,524,757,0,0
-693,267,0,0,0,0,0,0,0,0,0,-1,531,757,0,0
-686,267,0,0,0,0,0,0,0,0,0,-1,538,757,0,0
-679,267,0,0,0,0,0,0,0,0,0,-1,545,757,0,0
-672,267,0,0,0,0,0,0,0,0,0,-1,552,757,0,0
-665,267,0,0,0,0,0,0,0,0,0,-1,559,757,0,0
-658,267,0,0,0,0,0,0,0,0,0,-1,566,757,0,0
-651,267,0,0,0,0,0,0,0,0,0,-1,573,757,0,0
-644,267,0,0,0,0,0,0,0,0,0,-1,580,757,0,0
-637,267,0,0,0,0,0,0,0,0,0,-1,587,757,0,0
-630,267,-2.33636,3.11353,0.00949081,0.0305235,-0.0583227,0.0792704,-0.039256,-0.874596,0.069719,0.0401372,594,757,-2.33637,-3.11354
-623,267,-1.73816,2.42218,0.0093666,0.0212708,-0.05164,0.0673006,-0.0366632,-0.842776,0.0608861,0.0408913,601,757,-1.73814,-2.42217
-616,267,-1.42114,1.46173,0.00857718,0.0141354,-0.0436689,0.0551136,-0.032401,-0.817175,0.0510906,0.043637,608,757,-1.42116,-1.46175
-609,267,-1.15564,0.682251,0.00734369,0.00875454,-0.0355244,0.0435805,-0.0274823,-0.795326,0.0413775,0.0428492,615,757,-1.15561,-0.682248
-602,267,-0.99408,0.282471,0.00605749,0.00482318,-0.0277096,0.0331568,-0.0222761,-0.774264,0.0322091,0.0421861,622,757,-0.994096,-0.282462
-595,267,-0.946533,0.219421,0.00484447,0.00204423,-0.0206524,0.0241441,-0.0172554,-0.751553,0.0240121,0.0432459,629,757,-0.94652,-0.219426
-588,267,-1.22791,0.256348,0.00384658,0.000191136,-0.0146147,0.0167474,-0.0127097,-0.723191,0.0170602,0.0415698,636,757,-1.22788,-0.256359
-581,267,-1.26465,0.610718,0,0,0,0,0,0,0,-1,643,757,-1.26466,-0.610696
-574,267,-1.2428,0.65979,0.00137245,-0.00250443,-0.00577983,0.00553024,-0.00666222,-0.623602,0.00704942,0.0138015,650,757,-1.24281,-0.659772
-567,267,-1.26923,0.632141,0.000314637,-0.00210684,-0.00307481,0.00240849,-0.0042007,-0.59784,0.0038623,0.0201995,657,757,-1.26925,-0.632167
-560,267,-1.27356,0.543335,-0.000105128,-0.00169198,-0.000704065,0.000162216,-0.00195932,-0.362898,0.00136351,0.021694,664,757,-1.27358,-0.543339
-553,267,-1.27563,0.480103,-0.000670896,-0.00101217,0.00115278,0.000323802,-0.00200687,0.71192,0.00145789,0.0174307,671,757,-1.27561,-0.480089
-546,267,-1.25201,0.38739,-0.000678085,-0.000859558,0.00207986,0.00131302,-0.00285066,0.763599,0.00245794,0.0109297,678,757,-1.25203,-0.387392
-539,267,-1.24414,0.325439,-0.000639237,-0.000660972,0.00152772,0.000877659,-0.00217787,0.781841,0.00181657,0.00978892,685,757,-1.24413,-0.325456
-532,267,-1.24402,0.280701,-0.000831285,-0.00090977,0.000702036,-0.000167396,-0.00157366,0.757478,0.000997999,0.00960188,692,757,-1.24399,-0.28073
-525,267,-1.2525,0.213989,-0.00133757,-0.0012675,3.96084e-05,-0.00124966,-0.00135541,1.14748,0.0008705,0.00920917,699,757,-1.25248,-0.213964
-518,267,-1.25598,0.133911,-0.00159822,-0.00170993,-0.000464543,-0.00118619,-0.00212197,-0.725565,0.00122796,0.0091931,706,757,-1.25599,-0.133939
-511,267,-1.25079,0.0447998,-0.00233956,-0.00194172,-0.0011827,-0.000941336,-0.00333995,-0.868715,0.00198856,0.0129909,713,757,-1.25081,-0.044827
-504,267,-1.26917,-0.0484009,-0.00315347,-0.00215411,-0.00170669,-0.000875455,-0.00443213,-0.927807,0.00271048,0.0256799,720,757,-1.26917,0.0484164
-497,267,-1.13104,0.5448,-0.0039266,-0.00223299,-0.00209651,-0.000818727,-0.00534086,-0.977335,0.00332147,0.0419335,727,757,-1.13103,-0.544807
-490,267,-1.0979,0.593872,-0.00500968,-0.00201278,-0.002896,-0.000250533,-0.00677193,-1.02414,0.00443347,0.0450185,734,757,-1.09793,-0.593852
-483,267,-1.20074,0.381165,-0.00647924,-0.00163517,-0.00354983,0.000240182,-0.00835459,-1.08477,0.00565149,0.0427996,741,757,-1.20072,-0.381163
-476,267,-1.37762,0.303467,-0.0082,-0.000845017,-0.00420246,0.00106181,-0.0101068,-1.14484,0.00711827,0.0429064,748,757,-1.37764,-0.303444
-469,267,-1.7807,0.309814,0,0,0,0,0,0,0,-1,755,757,-1.78068,-0.309795
-462,267,-2.20422,0.286011,0,0,0,0,0,0,0,-1,762,757,-2.20423,-0.286017
-455,267,-2.05292,0.529602,0,0,0,0,0,0,0,-1,769,757,-2.05289,-0.529599
-448,267,-2.68286,0.521179,0,0,0,0,0,0,0,-1,776,757,-2.68287,-0.521199
-441,267,0,0,0,0,0,0,0,0,0,-1,783,757,0,0
-434,267,0,0,0,0,0,0,0,0,0,-1,790,757,0,0
-427,267,0,0,0,0,0,0,0,0,0,-1,797,757,0,0
-420,267,0,0,0,0,0,0,0,0,0,-1,804,757,0,0
-413,267,0,0,0,0,0,0,0,0,0,-1,811,757,0,0
-406,267,0,0,0,0,0,0,0,0,0,-1,818,757,0,0
-399,267,0,0,0,0,0,0,0,0,0,-1,825,757,0,0
-392,267,0,0,0,0,0,0,0,0,0,-1,832,757,0,0
-385,267,0,0,0,0,0,0,0,0,0,-1,839,757,0,0
-378,267,0,0,0,0,0,0,0,0,0,-1,846,757,0,0
-371,267,0,0,0,0,0,0,0,0,0,-1,853,757,0,0
-364,267,0,0,0,0,0,0,0,0,0,-1,860,757,0,0
-357,267,0,0,0,0,0,0,0,0,0,-1,867,757,0,0
-350,267,0,0,0,0,0,0,0,0,0,-1,874,757,0,0
-343,267,0,0,0,0,0,0,0,0,0,-1,881,757,0,0
-336,267,0,0,0,0,0,0,0,0,0,-1,888,757,0,0
-329,267,0,0,0,0,0,0,0,0,0,-1,895,757,0,0
-322,267,0,0,0,0,0,0,0,0,0,-1,902,757,0,0
-315,267,0,0,0,0,0,0,0,0,0,-1,909,757,0,0
-308,267,0,0,0,0,0,0,0,0,0,-1,916,757,0,0
-301,267,0,0,0,0,0,0,0,0,0,-1,923,757,0,0
-294,267,0,0,0,0,0,0,0,0,0,-1,930,757,0,0
-287,267,0,0,0,0,0,0,0,0,0,-1,937,757,0,0
-280,267,0,0,0,0,0,0,0,0,0,-1,944,757,0,0
-273,267,0,0,0,0,0,0,0,0,0,-1,951,757,0,0
-266,267,0,0,0,0,0,0,0,0,0,-1,958,757,0,0
-259,267,0,0,0,0,0,0,0,0,0,-1,965,757,0,0
-252,267,0,0,0,0,0,0,0,0,0,-1,972,757,0,0
-245,267,0,0,0,0,0,0,0,0,0,-1,979,757,0,0
-238,267,0,0,0,0,0,0,0,0,0,-1,986,757,0,0
-231,267,0,0,0,0,0,0,0,0,0,-1,993,757,0,0
-224,267,0,0,0,0,0,0,0,0,0,-1,1000,757,0,0
-217,267,0,0,0,0,0,0,0,0,0,-1,1007,757,0,0
-210,267,0,0,0,0,0,0,0,0,0,-1,1014,757,0,0
-203,267,0,0,0,0,0,0,0,0,0,-1,1021,757,0,0
-196,267,0,0,0,0,0,0,0,0,0,-1,1028,757,0,0
-189,267,0,0,0,0,0,0,0,0,0,-1,1035,757,0,0
-182,267,0,0,0,0,0,0,0,0,0,-1,1042,757,0,0
-175,267,0,0,0,0,0,0,0,0,0,-1,1049,757,0,0
-168,267,0,0,0,0,0,0,0,0,0,-1,1056,757,0,0
-161,267,0,0,0,0,0,0,0,0,0,-1,1063,757,0,0
-154,267,0,0,0,0,0,0,0,0,0,-1,1070,757,0,0
-147,267,0,0,0,0,0,0,0,0,0,-1,1077,757,0,0
-140,267,0,0,0,0,0,0,0,0,0,-1,1084,757,0,0
-133,267,0,0,0,0,0,0,0,0,0,-1,1091,757,0,0
-126,267,0,0,0,0,0,0,0,0,0,-1,1098,757,0,0
-119,267,0,0,0,0,0,0,0,0,0,-1,1105,757,0,0
-112,267,0,0,0,0,0,0,0,0,0,-1,1112,757,0,0
-105,267,0,0,0,0,0,0,0,0,0,-1,1119,757,0,0
-98,267,0,0,0,0,0,0,0,0,0,-1,1126,757,0,0
-91,267,0,0,0,0,0,0,0,0,0,-1,1133,757,0,0
-84,267,0,0,0,0,0,0,0,0,0,-1,1140,757,0,0
-77,267,0,0,0,0,0,0,0,0,0,-1,1147,757,0,0
-70,267,0,0,0,0,0,0,0,0,0,-1,1154,757,0,0
-63,267,0,0,0,0,0,0,0,0,0,-1,1161,757,0,0
-56,267,0,0,0,0,0,0,0,0,0,-1,1168,757,0,0
-49,267,0,0,0,0,0,0,0,0,0,-1,1175,757,0,0
-42,267,0,0,0,0,0,0,0,0,0,-1,1182,757,0,0
-35,267,0,0,0,0,0,0,0,0,0,-1,1189,757,0,0
-28,267,0,0,0,0,0,0,0,0,0,-1,1196,757,0,0
-21,267,0,0,0,0,0,0,0,0,0,-1,1203,757,0,0
-14,267,0,0,0,0,0,0,0,0,0,-1,1210,757,0,0
-7,267,0,0,0,0,0,0,0,0,0,-1,1217,757,0,0
0,267,0,0,0,0,0,0,0,0,0,-1,1224,757,0,0
7,267,0,0,0,0,0,0,0,0,0,-1,1231,757,0,0
14,267,0,0,0,0,0,0,0,0,0,-1,1238,757,0,0
21,267,0,0,0,0,0,0,0,0,0,-1,1245,757,0,0
28,267,0,0,0,0,0,0,0,0,0,-1,1252,757,0,0
35,267,0,0,0,0,0,0,0,0,0,-1,1259,757,0,0
42,267,0,0,0,0,0,0,0,0,0,-1,1266,757,0,0
49,267,0,0,0,0,0,0,0,0,0,-1,1273,757,0,0
56,267,0,0,0,0,0,0,0,0,0,-1,1280,757,0,0
63,267,0,0,0,0,0,0,0,0,0,-1,1287,757,0,0
70,267,0,0,0,0,0,0,0,0,0,-1,1294,757,0,0
77,267,0,0,0,0,0,0,0,0,0,-1,1301,757,0,0
84,267,0,0,0,0,0,0,0,0,0,-1,1308,757,0,0
91,267,0,0,0,0,0,0,0,0,0,-1,1315,757,0,0
98,267,0,0,0,0,0,0,0,0,0,-1,1322,757,0,0
105,267,0,0,0,0,0,0,0,0,0,-1,1329,757,0,0
112,267,0,0,0,0,0,0,0,0,0,-1,1336,757,0,0
119,267,0,0,0,0,0,0,0,0,0,-1,1343,757,0,0
126,267,0,0,0,0,0,0,0,0,0,-1,1350,757,0,0
133,267,0,0,0,0,0,0,0,0,0,-1,1357,757,0,0
140,267,0,0,0,0,0,0,0,0,0,-1,1364,757,0,0
147,267,0,0,0,0,0,0,0,0,0,-1,1371,757,0,0
154,267,0,0,0,0,0,0,0,0,0,-1,1378,757,0,0
161,267,0,0,0,0,0,0,0,0,0,-1,1385,757,0,0
168,267,0,0,0,0,0,0,0,0,0,-1,1392,757,0,0
175,267,0,0,0,0,0,0,0,0,0,-1,1399,757,0,0
182,267,0,0,0,0,0,0,0,0,0,-1,1406,757,0,0
189,267,0,0,0,0,0,0,0,0,0,-1,1413,757,0,0
196,267,0,0,0,0,0,0,0,0,0,-1,1420,757,0,0
203,267,0,0,0,0,0,0,0,0,0,-1,1427,757,0,0
210,267,0,0,0,0,0,0,0,0,0,-1,1434,757,0,0
217,267,0,0,0,0,0,0,0,0,0,-1,1441,757,0,0
224,267,0,0,0,0,0,0,0,0,0,-1,1448,757,0,0
231,267,0,0,0,0,0,0,0,0,0,-1,1455,757,0,0
238,267,0,0,0,0,0,0,0,0,0,-1,1462,757,0,0
245,267,0,0,0,0,0,0,0,0,0,-1,1469,757,0,0
252,267,0,0,0,0,0,0,0,0,0,-1,1476,757,0,0
259,267,0,0,0,0,0,0,0,0,0,-1,1483,757,0,0
266,267,0,0,0,0,0,0,0,0,0,-1,1490,757,0,0
273,267,0,0,0,0,0,0,0,0,0,-1,1497,757,0,0
280,267,0,0,0,0,0,0,0,0,0,-1,1504,757,0,0
287,267,0,0,0,0,0,0,0,0,0,-1,1511,757,0,0
294,267,0,0,0,0,0,0,0,0,0,-1,1518,757,0,0
301,267,0,0,0,0,0,0,0,0,0,-1,1525,757,0,0
308,267,0,0,0,0,0,0,0,0,0,-1,1532,757,0,0
315,267,0,0,0,0,0,0,0,0,0,-1,1539,757,0,0
322,267,0,0,0,0,0,0,0,0,0,-1,1546,757,0,0
329,267,0,0,0,0,0,0,0,0,0,-1,1553,757,0,0
336,267,0,0,0,0,0,0,0,0,0,-1,1560,757,0,0
343,267,0,0,0,0,0,0,0,0,0,-1,1567,757,0,0
350,267,0,0,0,0,0,0,0,0,0,-1,1574,757,0,0
357,267,0,0,0,0,0,0,0,0,0,-1,1581,757,0,0
364,267,0,0,0,0,0,0,0,0,0,-1,1588,757,0,0
371,267,0,0,0,0,0,0,0,0,0,-1,1595,757,0,0
378,267,0,0,0,0,0,0,0,0,0,-1,1602,757,0,0
385,267,0,0,0,0,0,0,0,0,0,-1,1609,757,0,0
392,267,0,0,0,0,0,0,0,0,0,-1,1616,757,0,0
399,267,0,0,0,0,0,0,0,0,0,-1,1623,757,0,0
406,267,0,0,0,0,0,0,0,0,0,-1,1630,757,0,0
413,267,0,0,0,0,0,0,0,0,0,-1,1637,757,0,0
420,267,0,0,0,0,0,0,0,0,0,-1,1644,757,0,0
427,267,0,0,0,0,0,0,0,0,0,-1,1651,757,0,0
434,267,0,0,0,0,0,0,0,0,0,-1,1658,757,0,0
441,267,0,0,0,0,0,0,0,0,0,-1,1665,757,0,0
448,267,0,0,0,0,0,0,0,0,0,-1,1672,757,0,0
455,267,0,0,0,0,0,0,0,0,0,-1,1679,757,0,0
462,267,0,0,0,0,0,0,0,0,0,-1,1686,757,0,0
469,267,0,0,0,0,0,0,0,0,0,-1,1693,757,0,0
476,267,0,0,0,0,0,0,0,0,0,-1,1700,757,0,0
483,267,0,0,0,0,0,0,0,0,0,-1,1707,757,0,0
490,267,0,0,0,0,0,0,0,0,0,-1,1714,757,0,0
497,267,0,0,0,0,0,0,0,0,0,-1,1721,757,0,0
504,267,0,0,0,0,0,0,0,0,0,-1,1728,757,0,0
511,267,0,0,0,0,0,0,0,0,0,-1,1735,757,0,0
518,267,0,0,0,0,0,0,0,0,0,-1,1742,757,0,0
525,267,0,0,0,0,0,0,0,0,0,-1,1749,757,0,0
532,267,0,0,0,0,0,0,0,0,0,-1,1756,757,0,0
539,267,0,0,0,0,0,0,0,0,0,-1,1763,757,0,0
546,267,0,0,0,0,0,0,0,0,0,-1,1770,757,0,0
553,267,0,0,0,0,0,0,0,0,0,-1,1777,757,0,0
560,267,0,0,0,0,0,0,0,0,0,-1,1784,757,0,0
567,267,7.11951,1.18445,0.044699,0.0305109,-0.019526,0.0583797,0.0168301,-0.611156,0.0346981,0.0343862,1791,757,7.11951,-1.18445
574,267,7.17712,1.07037,0.0345024,0.0185255,-0.011614,0.0406101,0.0124178,-0.484144,0.0240286,0.0376851,1798,757,7.17708,-1.0704
581,267,8.60413,0.314636,0.0253531,0.0079692,-0.00663519,0.0275962,0.00572609,-0.326002,0.0168169,0.0407654,1805,757,8.60417,-0.314662
588,267,8.50061,0.493958,0,0,0,0,0,0,0,-1,1812,757,8.50057,-0.493931
595,267,8.0155,0.598145,0.0114372,-0.00639455,-0.000358797,0.0114445,-0.00640177,-0.0201104,0.0104397,0.0499784,1819,757,8.01554,-0.598136
602,267,7.48364,0.710388,0.00720231,-0.0114243,0.00168002,0.00735262,-0.0115747,0.0892349,0.0110179,0.0473971,1826,757,7.48361,-0.710401
609,267,6.91687,0.822693,0.00288231,-0.0151057,0.0033152,0.00347385,-0.0156972,0.176575,0.0117945,0.0457358,1833,757,6.91688,-0.822712
616,267,5.28809,0.152954,0,0,0,0,0,0,0,-1,1840,757,5.28813,-0.152957
623,267,5.37744,0.205322,-0.00134745,-0.0183084,0.00426834,-0.000333863,-0.019322,0.233147,0.0127715,0.0459585,1847,757,5.37745,-0.205292
630,267,5.49878,0.355957,-0.00184396,-0.0184542,0.00435484,-0.000771464,-0.0195267,0.241471,0.0127684,0.038615,1854,757,5.49883,-0.355954
637,267,5.53174,0.377136,-0.00119658,-0.0168417,0.00376762,-0.00033655,-0.0177017,0.224424,0.0116906,0.026012,1861,757,5.53175,-0.377142
644,267,5.54883,0.404968,0.000366376,-0.0139527,0.00280082,0.000894726,-0.014481,0.18645,0.00996565,0.0124094,1868,757,5.54878,-0.404942
651,267,5.52759,0.479553,0.00192659,-0.010916,0.00143194,0.00208432,-0.0110737,0.109704,0.00816641,0.0141323,1875,757,5.52757,-0.479544
658,267,5.50891,0.519592,0.00291375,-0.00804385,0.000218187,0.00291809,-0.00804819,0.0199014,0.00655825,0.0142435,1882,757,5.5089,-0.519564
665,267,5.52588,0.581909,0.00325897,-0.00513428,-0.000590539,0.00330031,-0.00517562,-0.0698999,0.00493335,0.0150476,1889,757,5.52588,-0.581909
672,267,5.54858,0.672241,0.00299205,-0.0024128,-0.00102838,0.00318111,-0.00260185,-0.181809,0.00334437,0.0134295,1896,757,5.54859,-0.672263
679,267,5.57043,0.736755,0.00232368,0.000548203,-0.00152873,0.00320374,-0.000331852,-0.522343,0.0022546,0.0128933,1903,757,5.57046,-0.736764
686,267,5.56714,0.819458,0.00144174,0.00354927,-0.00235875,0.00507893,-8.79257e-05,-0.995471,0.00341564,0.0113403,1910,757,5.56712,-0.819474
693,267,5.54614,0.894653,0.000722918,0.00591689,-0.00276709,0.00711479,-0.000474981,-1.16225,0.00490918,0.0113616,1917,757,5.54615,-0.894677
700,267,5.54248,0.965332,-0.000139249,0.00916107,-0.00311447,0.0101077,-0.00108586,-1.27573,0.00712803,0.0141815,1924,757,5.54245,-0.96532
707,267,5.52893,1.0152,-0.00092944,0.0130359,-0.00319137,0.0137306,-0.00162418,-1.35645,0.00974038,0.0142125,1931,757,5.52895,-1.0152
714,267,5.53857,1.00934,-0.00189929,0.017817,-0.00293393,0.0182443,-0.00232662,-1.42616,0.0130079,0.0263389,1938,757,5.53857,-1.00935
721,267,5.67822,1.06769,-0.00334677,0.0237971,-0.00211391,0.0239607,-0.00351041,-1.49354,0.0172633,0.0441229,1945,757,5.67817,-1.06769
728,267,5.7926,1.12604,0,0,0,0,0,0,0,-1,1952,757,5.79261,-1.12607
735,267,4.86511,2.51947,-0.00772499,0.038606,0.00218406,0.0387087,-0.00782772,1.5238,0.0287722,0.0497376,1959,757,4.86513,-2.51949
742,267,4.87708,2.87384,-0.0108948,0.0466143,0.00615811,0.0472664,-0.0115469,1.46531,0.0359828,0.0499277,1966,757,4.87708,-2.87382
749,267,0,0,0,0,0,0,0,0,0,-1,1973,757,0,0
756,267,0,0,0,0,0,0,0,0,0,-1,1980,757,0,0
763,267,0,0,0,0,0,0,0,0,0,-1,1987,757,0,0
770,267,0,0,0,0,0,0,0,0,0,-1,1994,757,0,0
777,267,0,0,0,0,0,0,0,0,0,-1,2001,757,0,0
784,267,0,0,0,0,0,0,0,0,0,-1,2008,757,0,0
791,267,0,0,0,0,0,0,0,0,0,-1,2015,757,0,0
798,267,0,0,0,0,0,0,0,0,0,-1,2022,757,0,0
805,267,0,0,0,0,0,0,0,0,0,-1,2029,757,0,0
812,267,0,0,0,0,0,0,0,0,0,-1,2036,757,0,0
-700,260,0,0,0,0,0,0,0,0,0,-1,524,764,0,0
-693,260,0,0,0,0,0,0,0,0,0,-1,531,764,0,0
-686,260,0,0,0,0,0,0,0,0,0,-1,538,764,0,0
-679,260,0,0,0,0,0,0,0,0,0,-1,545,764,0,0
-672,260,0,0,0,0,0,0,0,0,0,-1,552,764,0,0
-665,260,0,0,0,0,0,0,0,0,0,-1,559,764,0,0
-658,260,0,0,0,0,0,0,0,0,0,-1,566,764,0,0
-651,260,0,0,0,0,0,0,0,0,0,-1,573,764,0,0
-644,260,0,0,0,0,0,0,0,0,0,-1,580,764,0,0
-637,260,0,0,0,0,0,0,0,0,0,-1,587,764,0,0
-630,260,-1.67419,2.9538,0.0126058,0.0419552,-0.0430385,0.0727519,-0.018191,-0.949701,0.0555665,0.043586,594,764,-1.67422,-2.95381
-623,260,-1.15344,2.37573,0.0135707,0.0293904,-0.0381668,0.0604584,-0.0174973,-0.887574,0.047231,0.0418339,601,764,-1.15342,-2.37572
-616,260,-0.859741,1.64746,0.0129744,0.0195088,-0.0326306,0.0490354,-0.0165522,-0.835295,0.0393846,0.0430416,608,764,-0.859722,-1.64745
-609,260,-0.543213,0.75885,0.0114708,0.0120145,-0.0269042,0.0386483,-0.015163,-0.79045,0.0320391,0.040392,615,764,-0.543208,-0.758834
-602,260,-0.469116,-0.266174,0.00963144,0.00658145,-0.0212609,0.029422,-0.0132091,-0.749596,0.0251994,0.0449124,622,764,-0.469127,0.266153
-595,260,-0.709534,-0.0265503,0.00784221,0.00279125,-0.0160222,0.0215368,-0.0109033,-0.707229,0.0190617,0.0421261,629,764,-0.709515,0.0265286
-588,260,-1.04395,0.356567,0.00628187,0.000265053,-0.011458,0.0151198,-0.00857289,-0.657016,0.013852,0.0389289,636,764,-1.04393,-0.356569
-581,260,-1.30695,0.716492,0.00472033,-0.00110552,-0.00754619,0.00989629,-0.00628148,-0.601203,0.00941764,0.0213803,643,764,-1.30692,-0.716486
-574,260,-1.32355,0.655579,0.00276972,-0.00301299,-0.0046425,0.00534761,-0.00559088,-0.50689,0.00631586,0.0149218,650,764,-1.32358,-0.655559
-567,260,-1.31934,0.613403,0.00119872,-0.00275763,-0.00243245,0.00235583,-0.00391473,-0.444016,0.00365741,0.0167463,657,764,-1.31931,-0.61342
-560,260,-1.3324,0.551392,0.000188127,-0.00224853,-0.000391898,0.000249606,-0.00231001,-0.155608,0.00162959,0.0186449,664,764,-1.33239,-0.551366
-553,260,-1.33533,0.477844,-0.00078642,-0.00144172,0.00126826,0.000195829,-0.00242397,0.658989,0.00168505,0.0164166,671,764,-1.3353,-0.477854
-546,260,-1.30194,0.411865,-0.000950318,-0.00116874,0.00215912,0.00110235,-0.00322141,0.760129,0.00259433,0.0109123,678,764,-1.30195,-0.411848
-539,260,-1.30688,0.334473,-0.0010548,-0.000884853,0.0016155,0.000647913,-0.00258756,0.811673,0.00197673,0.0104007,685,764,-1.3069,-0.334463
-532,260,-1.32422,0.267944,-0.0013755,-0.00102413,0.000757924,-0.000421798,-0.00197784,0.899286,0.00120287,0.0119053,692,764,-1.32424,-0.267915
-525,260,-1.31445,0.217163,-0.00195861,-0.00128126,0.000126624,-0.00125836,-0.00198151,1.3919,0.00115785,0.0120489,699,764,-1.31447,-0.217159
-518,260,-1.31427,0.151733,-0.00229563,-0.00159405,-0.000433178,-0.00138744,-0.00250224,-1.12574,0.00144753,0.0119996,706,764,-1.31429,-0.151753
-511,260,-1.32715,0.0449219,-0.00309082,-0.00168202,-0.00123353,-0.000965941,-0.0038069,-1.04483,0.00228505,0.0178458,713,764,-1.32713,-0.0449055
-504,260,-1.49866,0.184021,0,0,0,0,0,0,0,-1,720,764,-1.49867,-0.183992
-497,260,-1.28687,0.673218,-0.00483224,-0.00170874,-0.00234537,-0.000452719,-0.00608826,-1.07913,0.00391666,0.0463389,727,764,-1.28684,-0.673208
-490,260,-0.606079,0.720703,-0.00599376,-0.001381,-0.00310128,0.0001775,-0.00755226,-1.10512,0.00509504,0.0464819,734,764,-0.606067,-0.720723
-483,260,-0.640198,0.489197,-0.00760317,-0.000928393,-0.00369612,0.000714127,-0.00924569,-1.15262,0.0064151,0.0412131,741,764,-0.640216,-0.489214
-476,260,-0.792114,0.297607,-0.00953586,-0.000151644,-0.00402892,0.00134075,-0.0110283,-1.21605,0.00783741,0.0457896,748,764,-0.792123,-0.297602
-469,260,-0.96051,0.13855,0,0,0,0,0,0,0,-1,755,764,-0.9605,-0.138535
-462,260,-2.73291,0.926941,0,0,0,0,0,0,0,-1,762,764,-2.73288,-0.926949
-455,260,-2.48212,0.484619,0,0,0,0,0,0,0,-1,769,764,-2.48209,-0.484637
-448,260,0,0,0,0,0,0,0,0,0,-1,776,764,0,0
-441,260,0,0,0,0,0,0,0,0,0,-1,783,764,0,0
-434,260,0,0,0,0,0,0,0,0,0,-1,790,764,0,0
-427,260,0,0,0,0,0,0,0,0,0,-1,797,764,0,0
-420,260,0,0,0,0,0,0,0,0,0,-1,804,764,0,0
-413,260,0,0,0,0,0,0,0,0,0,-1,811,764,0,0
-406,260,0,0,0,0,0,0,0,0,0,-1,818,764,0,0
-399,260,0,0,0,0,0,0,0,0,0,-1,825,764,0,0
-392,260,0,0,0,0,0,0,0,0,0,-1,832,764,0,0
-385,260,0,0,0,0,0,0,0,0,0,-1,839,764,0,0
-378,260,0,0,0,0,0,0,0,0,0,-1,846,764,0,0
-371,260,0,0,0,0,0,0,0,0,0,-1,853,764,0,0
-364,260,0,0,0,0,0,0,0,0,0,-1,860,764,0,0
-357,260,0,0,0,0,0,0,0,0,0,-1,867,764,0,0
-350,260,0,0,0,0,0,0,0,0,0,-1,874,764,0,0
-343,260,0,0,0,0,0,0,0,0,0,-1,881,764,0,0
-336,260,0,0,0,0,0,0,0,0,0,-1,888,764,0,0
-329,260,0,0,0,0,0,0,0,0,0,-1,895,764,0,0
-322,260,0,0,0,0,0,0,0,0,0,-1,902,764,0,0
-315,260,0,0,0,0,0,0,0,0,0,-1,909,764,0,0
-308,260,0,0,0,0,0,0,0,0,0,-1,916,764,0,0
-301,260,0,0,0,0,0,0,0,0,0,-1,923,764,0,0
-294,260,0,0,0,0,0,0,0,0,0,-1,930,764,0,0
-287,260,0,0,0,0,0,0,0,0,0,-1,937,764,0,0
-280,260,0,0,0,0,0,0,0,0,0,-1,944,764,0,0
-273,260,0,0,0,0,0,0,0,0,0,-1,951,764,0,0
-266,260,0,0,0,0,0,0,0,0,0,-1,958,764,0,0
-259,260,0,0,0,0,0,0,0,0,0,-1,965,764,0,0
-252,260,0,0,0,0,0,0,0,0,0,-1,972,764,0,0
-245,260,0,0,0,0,0,0,0,0,0,-1,979,764,0,0
-238,260,0,0,0,0,0,0,0,0,0,-1,986,764,0,0
-231,260,0,0,0,0,0,0,0,0,0,-1,993,764,0,0
-224,260,0,0,0,0,0,0,0,0,0,-1,1000,764,0,0
-217,260,0,0,0,0,0,0,0,0,0,-1,1007,764,0,0
-210,260,0,0,0,0,0,0,0,0,0,-1,1014,764,0,0
-203,260,0,0,0,0,0,0,0,0,0,-1,1021,764,0,0
-196,260,0,0,0,0,0,0,0,0,0,-1,1028,764,0,0
-189,260,0,0,0,0,0,0,0,0,0,-1,1035,764,0,0
-182,260,0,0,0,0,0,0,0,0,0,-1,1042,764,0,0
-175,260,0,0,0,0,0,0,0,0,0,-1,1049,764,0,0
-168,260,0,0,0,0,0,0,0,0,0,-1,1056,764,0,0
-161,260,0,0,0,0,0,0,0,0,0,-1,1063,764,0,0
-154,260,0,0,0,0,0,0,0,0,0,-1,1070,764,0,0
-147,260,0,0,0,0,0,0,0,0,0,-1,1077,764,0,0
-140,260,0,0,0,0,0,0,0,0,0,-1,1084,764,0,0
-133,260,0,0,0,0,0,0,0,0,0,-1,1091,764,0,0
-126,260,0,0,0,0,0,0,0,0,0,-1,1098,764,0,0
-119,260,0,0,0,0,0,0,0,0,0,-1,1105,764,0,0
-112,260,0,0,0,0,0,0,0,0,0,-1,1112,764,0,0
-105,260,0,0,0,0,0,0,0,0,0,-1,1119,764,0,0
-98,260,0,0,0,0,0,0,0,0,0,-1,1126,764,0,0
-91,260,0,0,0,0,0,0,0,0,0,-1,1133,764,0,0
-84,260,0,0,0,0,0,0,0,0,0,-1,1140,764,0,0
-77,260,0,0,0,0,0,0,0,0,0,-1,1147,764,0,0
-70,260,0,0,0,0,0,0,0,0,0,-1,1154,764,0,0
-63,260,0,0,0,0,0,0,0,0,0,-1,1161,764,0,0
-56,260,0,0,0,0,0,0,0,0,0,-1,1168,764,0,0
-49,260,0,0,0,0,0,0,0,0,0,-1,1175,764,0,0
-42,260,0,0,0,0,0,0,0,0,0,-1,1182,764,0,0
-35,260,0,0,0,0,0,0,0,0,0,-1,1189,764,0,0
-28,260,0,0,0,0,0,0,0,0,0,-1,1196,764,0,0
-21,260,0,0,0,0,0,0,0,0,0,-1,1203,764,0,0
-14,260,0,0,0,0,0,0,0,0,0,-1,1210,764,0,0
-7,260,0,0,0,0,0,0,0,0,0,-1,1217,764,0,0
0,260,0,0,0,0,0,0,0,0,0,-1,1224,764,0,0
7,260,0,0,0,0,0,0,0,0,0,-1,1231,764,0,0
14,260,0,0,0,0,0,0,0,0,0,-1,1238,764,0,0
21,260,0,0,0,0,0,0,0,0,0,-1,1245,764,0,0
28,260,0,0,0,0,0,0,0,0,0,-1,1252,764,0,0
35,260,0,0,0,0,0,0,0,0,0,-1,1259,764,0,0
42,260,0,0,0,0,0,0,0,0,0,-1,1266,764,0,0
49,260,0,0,0,0,0,0,0,0,0,-1,1273,764,0,0
56,260,0,0,0,0,0,0,0,0,0,-1,1280,764,0,0
63,260,0,0,0,0,0,0,0,0,0,-1,1287,764,0,0
70,260,0,0,0,0,0,0,0,0,0,-1,1294,764,0,0
77,260,0,0,0,0,0,0,0,0,0,-1,1301,764,0,0
84,260,0,0,0,0,0,0,0,0,0,-1,1308,764,0,0
91,260,0,0,0,0,0,0,0,0,0,-1,1315,764,0,0
98,260,0,0,0,0,0,0,0,0,0,-1,1322,764,0,0
105,260,0,0,0,0,0,0,0,0,0,-1,1329,764,0,0
112,260,0,0,0,0,0,0,0,0,0,-1,1336,764,0,0
119,260,0,0,0,0,0,0,0,0,0,-1,1343,764,0,0
126,260,0,0,0,0,0,0,0,0,0,-1,1350,764,0,0
133,260,0,0,0,0,0,0,0,0,0,-1,1357,764,0,0
140,260,0,0,0,0,0,0,0,0,0,-1,1364,764,0,0
147,260,0,0,0,0,0,0,0,0,0,-1,1371,764,0,0
154,260,0,0,0,0,0,0,0,0,0,-1,1378,764,0,0
161,260,0,0,0,0,0,0,0,0,0,-1,1385,764,0,0
168,260,0,0,0,0,0,0,0,0,0,-1,1392,764,0,0
175,260,0,0,0,0,0,0,0,0,0,-1,1399,764,0,0
182,260,0,0,0,0,0,0,0,0,0,-1,1406,764,0,0
189,260,0,0,0,0,0,0,0,0,0,-1,1413,764,0,0
196,260,0,0,0,0,0,0,0,0,0,-1,1420,764,0,0
203,260,0,0,0,0,0,0,0,0,0,-1,1427,764,0,0
210,260,0,0,0,0,0,0,0,0,0,-1,1434,764,0,0
217,260,0,0,0,0,0,0,0,0,0,-1,1441,764,0,0
224,260,0,0,0,0,0,0,0,0,0,-1,1448,764,0,0
231,260,0,0,0,0,0,0,0,0,0,-1,1455,764,0,0
238,260,0,0,0,0,0,0,0,0,0,-1,1462,764,0,0
245,260,0,0,0,0,0,0,0,0,0,-1,1469,764,0,0
252,260,0,0,0,0,0,0,0,0,0,-1,1476,764,0,0
259,260,0,0,0,0,0,0,0,0,0,-1,1483,764,0,0
266,260,0,0,0,0,0,0,0,0,0,-1,1490,764,0,0
273,260,0,0,0,0,0,0,0,0,0,-1,1497,764,0,0
280,260,0,0,0,0,0,0,0,0,0,-1,1504,764,0,0
287,260,0,0,0,0,0,0,0,0,0,-1,1511,764,0,0
294,260,0,0,0,0,0,0,0,0,0,-1,1518,764,0,0
301,260,0,0,0,0,0,0,0,0,0,-1,1525,764,0,0
308,260,0,0,0,0,0,0,0,0,0,-1,1532,764,0,0
315,260,0,0,0,0,0,0,0,0,0,-1,1539,764,0,0
322,260,0,0,0,0,0,0,0,0,0,-1,1546,764,0,0
329,260,0,0,0,0,0,0,0,0,0,-1,1553,764,0,0
336,260,0,0,0,0,0,0,0,0,0,-1,1560,764,0,0
343,260,0,0,0,0,0,0,0,0,0,-1,1567,764,0,0
350,260,0,0,0,0,0,0,0,0,0,-1,1574,764,0,0
357,260,0,0,0,0,0,0,0,0,0,-1,1581,764,0,0
364,260,0,0,0,0,0,0,0,0,0,-1,1588,764,0,0
371,260,0,0,0,0,0,0,0,0,0,-1,1595,764,0,0
378,260,0,0,0,0,0,0,0,0,0,-1,1602,764,0,0
385,260,0,0,0,0,0,0,0,0,0,-1,1609,764,0,0
392,260,0,0,0,0,0,0,0,0,0,-1,1616,764,0,0
399,260,0,0,0,0,0,0,0,0,0,-1,1623,764,0,0
406,260,0,0,0,0,0,0,0,0,0,-1,1630,764,0,0
413,260,0,0,0,0,0,0,0,0,0,-1,1637,764,0,0
420,260,0,0,0,0,0,0,0,0,0,-1,1644,764,0,0
427,260,0,0,0,0,0,0,0,0,0,-1,1651,764,0,0
434,260,0,0,0,0,0,0,0,0,0,-1,1658,764,0,0
441,260,0,0,0,0,0,0,0,0,0,-1,1665,764,0,0
448,260,0,0,0,0,0,0,0,0,0,-1,1672,764,0,0
455,260,0,0,0,0,0,0,0,0,0,-1,1679,764,0,0
462,260,0,0,0,0,0,0,0,0,0,-1,1686,764,0,0
469,260,0,0,0,0,0,0,0,0,0,-1,1693,764,0,0
476,260,0,0,0,0,0,0,0,0,0,-1,1700,764,0,0
483,260,0,0,0,0,0,0,0,0,0,-1,1707,764,0,0
490,260,0,0,0,0,0,0,0,0,0,-1,1714,764,0,0
497,260,0,0,0,0,0,0,0,0,0,-1,1721,764,0,0
504,260,0,0,0,0,0,0,0,0,0,-1,1728,764,0,0
511,260,0,0,0,0,0,0,0,0,0,-1,1735,764,0,0
518,260,0,0,0,0,0,0,0,0,0,-1,1742,764,0,0
525,260,0,0,0,0,0,0,0,0,0,-1,1749,764,0,0
532,260,0,0,0,0,0,0,0,0,0,-1,1756,764,0,0
539,260,0,0,0,0,0,0,0,0,0,-1,1763,764,0,0
546,260,0,0,0,0,0,0,0,0,0,-1,1770,764,0,0
553,260,0,0,0,0,0,0,0,0,0,-1,1777,764,0,0
560,260,0,0,0,0,0,0,0,0,0,-1,1784,764,0,0
567,260,0,0,0,0,0,0,0,0,0,-1,1791,764,0,0
574,260,7.22913,1.00616,0.0320761,0.0188116,-0.011152,0.038419,0.0124687,-0.517137,0.0226319,0.0345397,1798,764,7.22917,-1.00618
581,260,7.44226,0.870667,0.0232604,0.00824678,-0.00558804,0.0251119,0.00639526,-0.319952,0.0150689,0.0382921,1805,764,7.44223,-0.870642
588,260,6.84253,1.07501,0,0,0,0,0,0,0,-1,1812,764,6.84256,-1.07498
595,260,6.49182,0.917542,0,0,0,0,0,0,0,-1,1819,764,6.49184,-0.917526
602,260,6.53296,1.4306,0,0,0,0,0,0,0,-1,1826,764,6.53296,-1.4306
609,260,6.09082,1.31238,0.00195154,-0.0158815,0.00436654,0.00296331,-0.0168933,0.227692,0.0123689,0.0429692,1833,764,6.09087,-1.3124
616,260,5.65759,1.00049,-0.000969785,-0.018014,0.00470266,0.000241625,-0.0192254,0.25212,0.0128982,0.0437433,1840,764,5.65763,-1.00046
623,260,5.56189,0.805847,-0.0011926,-0.0186072,0.00484021,6.22654e-05,-0.0198621,0.253673,0.0132622,0.0445225,1847,764,5.56193,-0.805848
630,260,5.59375,0.491089,0,0,0,0,0,0,0,-1,1854,764,5.5938,-0.491082
637,260,5.63464,-0.0838013,-0.000739677,-0.016919,0.00394899,0.000172726,-0.0178314,0.227063,0.0119456,0.0442963,1861,764,5.63459,0.0838314
644,260,5.62817,0.405457,0.000820592,-0.0142196,0.00293574,0.00137332,-0.0147723,0.186096,0.0103364,0.0247291,1868,764,5.62817,-0.405433
651,260,5.63196,0.465393,0.00240428,-0.0114323,0.00160454,0.00258791,-0.0116159,0.11395,0.00873529,0.0139465,1875,764,5.63191,-0.465419
658,260,5.61157,0.525757,0.00344552,-0.00868701,0.0004599,0.00346293,-0.00870442,0.037834,0.00723883,0.0157254,1882,764,5.61154,-0.525741
665,260,5.60999,0.587708,0.00380984,-0.00595282,-0.000267088,0.00381714,-0.00596012,-0.0273309,0.00568992,0.0147729,1889,764,5.60995,-0.58769
672,260,5.62085,0.667053,0.00341076,-0.0034191,-0.000567274,0.00345755,-0.0034659,-0.0823064,0.00399726,0.0122472,1896,764,5.62085,-0.66706
679,260,5.62354,0.749207,0.00251751,-0.000620404,-0.000852312,0.00273407,-0.000836961,-0.248817,0.00215653,0.0116844,1903,764,5.62348,-0.749197
686,260,5.60657,0.828979,0.00139412,0.00214467,-0.00150361,0.00331913,0.000219658,-0.90769,0.00214329,0.0114973,1910,764,5.60652,-0.828992
693,260,5.59668,0.888184,0.000435729,0.00389137,-0.00169002,0.00458048,-0.000253374,-1.18363,0.00314152,0.0113685,1917,764,5.59664,-0.888164
700,260,5.60706,0.951599,-0.000823864,0.00639494,-0.00181162,0.00682407,-0.001253,-1.33821,0.00501945,0.0117595,1924,764,5.60702,-0.951625
707,260,5.58447,1.01324,-0.00187278,0.00906279,-0.00172492,0.00932841,-0.00213841,-1.418,0.00704084,0.0127841,1931,764,5.5845,-1.01326
714,260,5.58972,1.02386,-0.00294409,0.0121761,-0.00144344,0.0123126,-0.00308065,-1.47647,0.00940501,0.0215316,1938,764,5.58974,-1.02386
721,260,5.68164,1.08496,-0.00440772,0.0161423,-0.000771402,0.0161712,-0.00443663,-1.53333,0.0125244,0.0387678,1945,764,5.68163,-1.08497
728,260,5.25488,1.59283,-0.00619118,0.0205714,0.000438247,0.0205786,-0.00619836,1.55443,0.0161858,0.042074,1952,764,5.25493,-1.59284
735,260,4.75439,2.17255,-0.0081335,0.0250828,0.00229884,0.0252411,-0.00829184,1.50203,0.0201678,0.0422121,1959,764,4.75445,-2.17254
742,260,4.57141,2.50836,-0.0102008,0.0289038,0.00489838,0.029508,-0.010805,1.44806,0.0240952,0.0467709,1966,764,4.57143,-2.50836
749,260,4.3833,2.79913,0,0,0,0,0,0,0,-1,1973,764,4.38332,-2.79911
756,260,0,0,0,0,0,0,0,0,0,-1,1980,764,0,0
763,260,0,0,0,0,0,0,0,0,0,-1,1987,764,0,0
770,260,0,0,0,0,0,0,0,0,0,-1,1994,764,0,0
777,260,0,0,0,0,0,0,0,0,0,-1,2001,764,0,0
784,260,0,0,0,0,0,0,0,0,0,-1,2008,764,0,0
791,260,0,0,0,0,0,0,0,0,0,-1,2015,764,0,0
798,260,0,0,0,0,0,0,0,0,0,-1,2022,764,0,0
805,260,0,0,0,0,0,0,0,0,0,-1,2029,764,0,0
812,260,0,0,0,0,0,0,0,0,0,-1,2036,764,0,0
-700,253,0,0,0,0,0,0,0,0,0,-1,524,771,0,0
-693,253,0,0,0,0,0,0,0,0,0,-1,531,771,0,0
-686,253,0,0,0,0,0,0,0,0,0,-1,538,771,0,0
-679,253,0,0,0,0,0,0,0,0,0,-1,545,771,0,0
-672,253,0,0,0,0,0,0,0,0,0,-1,552,771,0,0
-665,253,0,0,0,0,0,0,0,0,0,-1,559,771,0,0
-658,253,0,0,0,0,0,0,0,0,0,-1,566,771,0,0
-651,253,0,0,0,0,0,0,0,0,0,-1,573,771,0,0
-644,253,0,0,0,0,0,0,0,0,0,-1,580,771,0,0
-637,253,-2.03839,3.20569,0,0,0,0,0,0,0,-1,587,771,-2.03836,-3.20567
-630,253,-1.13226,2.82794,0.0107131,0.0472653,-0.0289065,0.0631886,-0.00521023,-1.06729,0.0439655,0.0460858,594,771,-1.13228,-2.82793
-623,253,0.0139771,2.71954,0.013633,0.0333606,-0.0254918,0.0508304,-0.00383685,-0.969997,0.0352356,0.0460089,601,771,0.0139815,-2.71953
-616,253,-0.328979,1.79608,0,0,0,0,0,0,0,-1,608,771,-0.328989,-1.79607
-609,253,0.0510254,0.817993,0.0138891,0.0136901,-0.0183712,0.032161,-0.00458188,-0.78269,0.0231198,0.0408378,615,771,0.051,-0.818009
-602,253,0.749573,0.109375,0.0125041,0.00741752,-0.0147473,0.0249258,-0.00500418,-0.700009,0.0185121,0.0456528,622,771,0.749563,-0.10938
-595,253,-1.15485,0.0252686,0.0108199,0.00303164,-0.0112467,0.0188276,-0.00497601,-0.618734,0.0144979,0.0402263,629,771,-1.15485,-0.0252919
-588,253,-1.38007,0.794983,0.00916237,9.23631e-05,-0.00815553,0.013959,-0.00470424,-0.531654,0.0112081,0.0354554,636,771,-1.38006,-0.794974
-581,253,-1.38428,0.702026,0.00740325,-0.00152347,-0.00539519,0.00994201,-0.00406223,-0.439819,0.00831951,0.0208874,643,771,-1.38425,-0.702042
-574,253,-1.38702,0.635986,0.00513321,-0.00361456,-0.00341306,0.00630728,-0.00478864,-0.331315,0.0064262,0.0190687,650,771,-1.38705,-0.635982
-567,253,-1.39374,0.585083,0.00288856,-0.00345896,-0.00169689,0.00331371,-0.00388411,-0.245495,0.00416001,0.0157861,657,771,-1.39376,-0.585064
-560,253,-1.36273,0.526855,0.00106587,-0.00289289,-6.23959e-06,0.00106588,-0.0028929,-0.00157614,0.00236535,0.0125114,664,771,-1.36274,-0.526855
-553,253,-1.35638,0.469543,-0.000547682,-0.00199055,0.00143729,0.000339072,-0.00287731,0.552799,0.00204064,0.0118043,671,771,-1.3564,-0.469554
-546,253,-1.36108,0.431213,-0.00111629,-0.00162141,0.00229618,0.000941179,-0.00367887,0.730622,0.00281917,0.00997465,678,771,-1.36111,-0.431197
-539,253,-1.38055,0.356812,-0.00154861,-0.00127712,0.00182265,0.000414828,-0.00324056,0.822567,0.00231109,0.0103348,685,771,-1.38055,-0.356793
-532,253,-1.40704,0.291748,-0.00219944,-0.00129673,0.00101741,-0.000635049,-0.00286112,0.994172,0.00173492,0.0136697,692,771,-1.40707,-0.291744
-525,253,-1.3775,0.226074,-0.00292941,-0.00148738,0.000442756,-0.00136229,-0.00305451,1.29545,0.00176695,0.0121743,699,771,-1.37752,-0.226051
-518,253,-1.39258,0.165833,-0.00330094,-0.0016864,-0.000123697,-0.00167698,-0.00331036,-1.49477,0.0019113,0.0146454,706,771,-1.3926,-0.165857
-511,253,-1.46008,0.0291138,-0.00405439,-0.00164476,-0.000951078,-0.00131461,-0.00438454,-1.23667,0.00259816,0.0295114,713,771,-1.46007,-0.0291377
-504,253,-0.960327,0.147888,0,0,0,0,0,0,0,-1,720,771,-0.960336,-0.147886
-497,253,-0.358582,0.376404,-0.00559084,-0.00138727,-0.00224686,-0.000412385,-0.00656573,-1.16142,0.00424637,0.0433113,727,771,-0.358586,-0.376408
-490,253,0.0460815,0.646912,-0.00658841,-0.000969019,-0.00307004,0.000382963,-0.00794039,-1.15597,0.00542576,0.0441952,734,771,0.0460777,-0.646935
-483,253,-0.0720215,0.597717,-0.00800928,-0.000464398,-0.00371676,0.00105898,-0.00953266,-1.18181,0.0067359,0.0466401,741,771,-0.0720238,-0.597725
-476,253,-0.367065,0.417175,-0.00981196,0.000240666,-0.0040133,0.00164634,-0.0112176,-1.2339,0.00808328,0.0497055,748,771,-0.367049,-0.417156
-469,253,-1.16321,0.723572,0,0,0,0,0,0,0,-1,755,771,-1.16322,-0.723572
-462,253,-1.92841,1.06512,0,0,0,0,0,0,0,-1,762,771,-1.92841,-1.06514
-455,253,-2.59003,0.755981,0,0,0,0,0,0,0,-1,769,771,-2.59,-0.756001
-448,253,0,0,0,0,0,0,0,0,0,-1,776,771,0,0
-441,253,0,0,0,0,0,0,0,0,0,-1,783,771,0,0
-434,253,0,0,0,0,0,0,0,0,0,-1,790,771,0,0
-427,253,0,0,0,0,0,0,0,0,0,-1,797,771,0,0
-420,253,0,0,0,0,0,0,0,0,0,-1,804,771,0,0
-413,253,0,0,0,0,0,0,0,0,0,-1,811,771,0,0
-406,253,0,0,0,0,0,0,0,0,0,-1,818,771,0,0
-399,253,0,0,0,0,0,0,0,0,0,-1,825,771,0,0
-392,253,0,0,0,0,0,0,0,0,0,-1,832,771,0,0
-385,253,0,0,0,0,0,0,0,0,0,-1,839,771,0,0
-378,253,0,0,0,0,0,0,0,0,0,-1,846,771,0,0
-371,253,0,0,0,0,0,0,0,0,0,-1,853,771,0,0
-364,253,0,0,0,0,0,0,0,0,0,-1,860,771,0,0
-357,253,0,0,0,0,0,0,0,0,0,-1,867,771,0,0
-350,253,0,0,0,0,0,0,0,0,0,-1,874,771,0,0
-343,253,0,0,0,0,0,0,0,0,0,-1,881,771,0,0
-336,253,0,0,0,0,0,0,0,0,0,-1,888,771,0,0
-329,253,0,0,0,0,0,0,0,0,0,-1,895,771,0,0
-322,253,0,0,0,0,0,0,0,0,0,-1,902,771,0,0
-315,253,0,0,0,0,0,0,0,0,0,-1,909,771,0,0
-308,253,0,0,0,0,0,0,0,0,0,-1,916,771,0,0
-301,253,0,0,0,0,0,0,0,0,0,-1,923,771,0,0
-294,253,0,0,0,0,0,0,0,0,0,-1,930,771,0,0
-287,253,0,0,0,0,0,0,0,0,0,-1,937,771,0,0
-280,253,0,0,0,0,0,0,0,0,0,-1,944,771,0,0
-273,253,0,0,0,0,0,0,0,0,0,-1,951,771,0,0
-266,253,0,0,0,0,0,0,0,0,0,-1,958,771,0,0
-259,253,0,0,0,0,0,0,0,0,0,-1,965,771,0,0
-252,253,0,0,0,0,0,0,0,0,0,-1,972,771,0,0
-245,253,0,0,0,0,0,0,0,0,0,-1,979,771,0,0
-238,253,0,0,0,0,0,0,0,0,0,-1,986,771,0,0
-231,253,0,0,0,0,0,0,0,0,0,-1,993,771,0,0
-224,253,0,0,0,0,0,0,0,0,0,-1,1000,771,0,0
-217,253,0,0,0,0,0,0,0,0,0,-1,1007,771,0,0
-210,253,0,0,0,0,0,0,0,0,0,-1,1014,771,0,0
-203,253,0,0,0,0,0,0,0,0,0,-1,1021,771,0,0
-196,253,0,0,0,0,0,0,0,0,0,-1,1028,771,0,0
-189,253,0,0,0,0,0,0,0,0,0,-1,1035,771,0,0
-182,253,0,0,0,0,0,0,0,0,0,-1,1042,771,0,0
-175,253,0,0,0,0,0,0,0,0,0,-1,1049,771,0,0
-168,253,0,0,0,0,0,0,0,0,0,-1,1056,771,0,0
-161,253,0,0,0,0,0,0,0,0,0,-1,1063,771,0,0
-154,253,0,0,0,0,0,0,0,0,0,-1,1070,771,0,0
-147,253,0,0,0,0,0,0,0,0,0,-1,1077,771,0,0
-140,253,0,0,0,0,0,0,0,0,0,-1,1084,771,0,0
-133,253,0,0,0,0,0,0,0,0,0,-1,1091,771,0,0
-126,253,0,0,0,0,0,0,0,0,0,-1,1098,771,0,0
-119,253,0,0,0,0,0,0,0,0,0,-1,1105,771,0,0
-112,253,0,0,0,0,0,0,0,0,0,-1,1112,771,0,0
-105,253,0,0,0,0,0,0,0,0,0,-1,1119,771,0,0
-98,253,0,0,0,0,0,0,0,0,0,-1,1126,771,0,0
-91,253,0,0,0,0,0,0,0,0,0,-1,1133,771,0,0
-84,253,0,0,0,0,0,0,0,0,0,-1,1140,771,0,0
-77,253,0,0,0,0,0,0,0,0,0,-1,1147,771,0,0
-70,253,0,0,0,0,0,0,0,0,0,-1,1154,771,0,0
-63,253,0,0,0,0,0,0,0,0,0,-1,1161,771,0,0
-56,253,0,0,0,0,0,0,0,0,0,-1,1168,771,0,0
-49,253,0,0,0,0,0,0,0,0,0,-1,1175,771,0,0
-42,253,0,0,0,0,0,0,0,0,0,-1,1182,771,0,0
-35,253,0,0,0,0,0,0,0,0,0,-1,1189,771,0,0
-28,253,0,0,0,0,0,0,0,0,0,-1,1196,771,0,0
-21,253,0,0,0,0,0,0,0,0,0,-1,1203,771,0,0
-14,253,0,0,0,0,0,0,0,0,0,-1,1210,771,0,0
-7,253,0,0,0,0,0,0,0,0,0,-1,1217,771,0,0
0,253,0,0,0,0,0,0,0,0,0,-1,1224,771,0,0
7,253,0,0,0,0,0,0,0,0,0,-1,1231,771,0,0
14,253,0,0,0,0,0,0,0,0,0,-1,1238,771,0,0
21,253,0,0,0,0,0,0,0,0,0,-1,1245,771,0,0
28,253,0,0,0,0,0,0,0,0,0,-1,1252,771,0,0
35,253,0,0,0,0,0,0,0,0,0,-1,1259,771,0,0
42,253,0,0,0,0,0,0,0,0,0,-1,1266,771,0,0
49,253,0,0,0,0,0,0,0,0,0,-1,1273,771,0,0
56,253,0,0,0,0,0,0,0,0,0,-1,1280,771,0,0
63,253,0,0,0,0,0,0,0,0,0,-1,1287,771,0,0
70,253,0,0,0,0,0,0,0,0,0,-1,1294,771,0,0
77,253,0,0,0,0,0,0,0,0,0,-1,1301,771,0,0
84,253,0,0,0,0,0,0,0,0,0,-1,1308,771,0,0
91,253,0,0,0,0,0,0,0,0,0,-1,1315,771,0,0
98,253,0,0,0,0,0,0,0,0,0,-1,1322,771,0,0
105,253,0,0,0,0,0,0,0,0,0,-1,1329,771,0,0
112,253,0,0,0,0,0,0,0,0,0,-1,1336,771,0,0
119,253,0,0,0,0,0,0,0,0,0,-1,1343,771,0,0
126,253,0,0,0,0,0,0,0,0,0,-1,1350,771,0,0
133,253,0,0,0,0,0,0,0,0,0,-1,1357,771,0,0
140,253,0,0,0,0,0,0,0,0,0,-1,1364,771,0,0
147,253,0,0,0,0,0,0,0,0,0,-1,1371,771,0,0
154,253,0,0,0,0,0,0,0,0,0,-1,1378,771,0,0
161,253,0,0,0,0,0,0,0,0,0,-1,1385,771,0,0
168,253,0,0,0,0,0,0,0,0,0,-1,1392,771,0,0
175,253,0,0,0,0,0,0,0,0,0,-1,1399,771,0,0
182,253,0,0,0,0,0,0,0,0,0,-1,1406,771,0,0
189,253,0,0,0,0,0,0,0,0,0,-1,1413,771,0,0
196,253,0,0,0,0,0,0,0,0,0,-1,1420,771,0,0
203,253,0,0,0,0,0,0,0,0,0,-1,1427,771,0,0
210,253,0,0,0,0,0,0,0,0,0,-1,1434,771,0,0
217,253,0,0,0,0,0,0,0,0,0,-1,1441,771,0,0
224,253,0,0,0,0,0,0,0,0,0,-1,1448,771,0,0
231,253,0,0,0,0,0,0,0,0,0,-1,1455,771,0,0
238,253,0,0,0,0,0,0,0,0,0,-1,1462,771,0,0
245,253,0,0,0,0,0,0,0,0,0,-1,1469,771,0,0
252,253,0,0,0,0,0,0,0,0,0,-1,1476,771,0,0
259,253,0,0,0,0,0,0,0,0,0,-1,1483,771,0,0
266,253,0,0,0,0,0,0,0,0,0,-1,1490,771,0,0
273,253,0,0,0,0,0,0,0,0,0,-1,1497,771,0,0
280,253,0,0,0,0,0,0,0,0,0,-1,1504,771,0,0
287,253,0,0,0,0,0,0,0,0,0,-1,1511,771,0,0
294,253,0,0,0,0,0,0,0,0,0,-1,1518,771,0,0
301,253,0,0,0,0,0,0,0,0,0,-1,1525,771,0,0
308,253,0,0,0,0,0,0,0,0,0,-1,1532,771,0,0
315,253,0,0,0,0,0,0,0,0,0,-1,1539,771,0,0
322,253,0,0,0,0,0,0,0,0,0,-1,1546,771,0,0
329,253,0,0,0,0,0,0,0,0,0,-1,1553,771,0,0
336,253,0,0,0,0,0,0,0,0,0,-1,1560,771,0,0
343,253,0,0,0,0,0,0,0,0,0,-1,1567,771,0,0
350,253,0,0,0,0,0,0,0,0,0,-1,1574,771,0,0
357,253,0,0,0,0,0,0,0,0,0,-1,1581,771,0,0
364,253,0,0,0,0,0,0,0,0,0,-1,1588,771,0,0
371,253,0,0,0,0,0,0,0,0,0,-1,1595,771,0,0
378,253,0,0,0,0,0,0,0,0,0,-1,1602,771,0,0
385,253,0,0,0,0,0,0,0,0,0,-1,1609,771,0,0
392,253,0,0,0,0,0,0,0,0,0,-1,1616,771,0,0
399,253,0,0,0,0,0,0,0,0,0,-1,1623,771,0,0
406,253,0,0,0,0,0,0,0,0,0,-1,1630,771,0,0
413,253,0,0,0,0,0,0,0,0,0,-1,1637,771,0,0
420,253,0,0,0,0,0,0,0,0,0,-1,1644,771,0,0
427,253,0,0,0,0,0,0,0,0,0,-1,1651,771,0,0
434,253,0,0,0,0,0,0,0,0,0,-1,1658,771,0,0
441,253,0,0,0,0,0,0,0,0,0,-1,1665,771,0,0
448,253,0,0,0,0,0,0,0,0,0,-1,1672,771,0,0
455,253,0,0,0,0,0,0,0,0,0,-1,1679,771,0,0
462,253,0,0,0,0,0,0,0,0,0,-1,1686,771,0,0
469,253,0,0,0,0,0,0,0,0,0,-1,1693,771,0,0
476,253,0,0,0,0,0,0,0,0,0,-1,1700,771,0,0
483,253,0,0,0,0,0,0,0,0,0,-1,1707,771,0,0
490,253,0,0,0,0,0,0,0,0,0,-1,1714,771,0,0
497,253,0,0,0,0,0,0,0,0,0,-1,1721,771,0,0
504,253,0,0,0,0,0,0,0,0,0,-1,1728,771,0,0
511,253,0,0,0,0,0,0,0,0,0,-1,1735,771,0,0
518,253,0,0,0,0,0,0,0,0,0,-1,1742,771,0,0
525,253,0,0,0,0,0,0,0,0,0,-1,1749,771,0,0
532,253,0,0,0,0,0,0,0,0,0,-1,1756,771,0,0
539,253,0,0,0,0,0,0,0,0,0,-1,1763,771,0,0
546,253,0,0,0,0,0,0,0,0,0,-1,1770,771,0,0
553,253,0,0,0,0,0,0,0,0,0,-1,1777,771,0,0
560,253,0,0,0,0,0,0,0,0,0,-1,1784,771,0,0
567,253,0,0,0,0,0,0,0,0,0,-1,1791,771,0,0
574,253,7.27209,0.933472,0.0229733,0.0187702,-0.0110749,0.0321443,0.00959925,-0.691635,0.0190536,0.0367397,1798,771,7.27211,-0.933485
581,253,7.39197,0.865784,0.0140788,0.00874403,-0.00501055,0.0170878,0.00573511,-0.5408,0.0100418,0.0392143,1805,771,7.39199,-0.865777
588,253,7.65112,0.681458,0.00763522,-0.000637661,-0.00066802,0.00768881,-0.000691256,-0.080057,0.00537114,0.0432479,1812,771,7.65116,-0.681446
595,253,7.68445,0.537109,0.00332063,-0.00757926,0.00219873,0.00374745,-0.00800608,0.191735,0.00693279,0.0461902,1819,771,7.68449,-0.537103
602,253,7.46631,0.764954,0.00084213,-0.0126657,0.00397726,0.0019262,-0.0137497,0.266103,0.0098714,0.0442568,1826,771,7.46634,-0.764944
609,253,5.89856,1.97339,0,0,0,0,0,0,0,-1,1833,771,5.89853,-1.9734
616,253,5.52222,1.76831,0,0,0,0,0,0,0,-1,1840,771,5.52218,-1.76831
623,253,5.60046,1.58777,0,0,0,0,0,0,0,-1,1847,771,5.60041,-1.58774
630,253,5.80859,-0.390015,-0.00103898,-0.0179706,0.00472459,0.000190138,-0.0191997,0.254512,0.0128637,0.0491678,1854,771,5.80865,0.390037
637,253,5.75305,0.116882,-0.000212462,-0.0164159,0.00387649,0.000667189,-0.0172955,0.223141,0.0117591,0.0467969,1861,771,5.75301,-0.116867
644,253,5.70422,0.391174,0.00128186,-0.0139634,0.00284886,0.00179683,-0.0144783,0.178832,0.0103035,0.0386522,1868,771,5.70421,-0.391148
651,253,5.68372,0.455505,0.00280073,-0.0114791,0.00158867,0.00297534,-0.0116537,0.109469,0.00892772,0.022887,1875,771,5.68366,-0.455536
658,253,5.69434,0.551514,0.00385053,-0.00898175,0.000549271,0.003874,-0.00900522,0.0426998,0.00763,0.018141,1882,771,5.69429,-0.551522
665,253,5.63086,0.612,0.00425499,-0.00650774,-0.00010424,0.004256,-0.00650875,-0.00968409,0.00626023,0.0188357,1889,771,5.63084,-0.612026
672,253,5.62109,0.673157,0.00378211,-0.00414919,-0.000269108,0.00379123,-0.00415831,-0.033878,0.0045913,0.0145757,1896,771,5.62106,-0.673133
679,253,5.66919,0.771484,0.00274236,-0.00147772,-0.000343887,0.0027702,-0.00150556,-0.0807781,0.00250434,0.0122658,1903,771,5.66919,-0.771509
686,253,5.69006,0.836975,0.00148587,0.00114299,-0.000807545,0.00213997,0.000488886,-0.6808,0.00129483,0.0155029,1910,771,5.69002,-0.836999
693,253,5.67505,0.901917,0.000399526,0.00244439,-0.000777103,0.00270619,0.000137724,-1.24584,0.00176002,0.0148363,1917,771,5.67503,-0.901901
700,253,5.67834,0.954285,-0.00111037,0.00444145,-0.000685518,0.00452484,-0.00119376,-1.44974,0.00348335,0.0144126,1924,771,5.67835,-0.95431
707,253,5.66577,1.00903,-0.0022532,0.00620388,-0.000465414,0.00622941,-0.00227874,-1.51598,0.00508564,0.014317,1931,771,5.66577,-1.00905
714,253,5.6394,1.05725,-0.00325401,0.00802094,-0.000187454,0.00802406,-0.00325713,-1.55418,0.00670422,0.0180794,1938,771,5.63943,-1.05723
721,253,5.68604,1.11932,-0.00454237,0.0103859,0.000294429,0.0103917,-0.00454818,1.55108,0.00884273,0.0299732,1945,771,5.68604,-1.11933
728,253,5.36975,1.42035,-0.00598561,0.0127501,0.00104469,0.0128082,-0.00604369,1.51527,0.0111152,0.0382647,1952,771,5.36978,-1.42033
735,253,4.87427,1.8902,-0.00735717,0.0146477,0.00212042,0.0148501,-0.00755963,1.4756,0.0131645,0.0429076,1959,771,4.87422,-1.89018
742,253,4.61316,2.18494,-0.00852472,0.0152854,0.00352878,0.0157974,-0.00903669,1.42672,0.014514,0.047642,1966,771,4.61319,-2.18494
749,253,4.38684,2.46082,0,0,0,0,0,0,0,-1,1973,771,4.38689,-2.46083
756,253,0,0,0,0,0,0,0,0,0,-1,1980,771,0,0
763,253,0,0,0,0,0,0,0,0,0,-1,1987,771,0,0
770,253,0,0,0,0,0,0,0,0,0,-1,1994,771,0,0
777,253,0,0,0,0,0,0,0,0,0,-1,2001,771,0,0
784,253,0,0,0,0,0,0,0,0,0,-1,2008,771,0,0
791,253,0,0,0,0,0,0,0,0,0,-1,2015,771,0,0
798,253,0,0,0,0,0,0,0,0,0,-1,2022,771,0,0
805,253,0,0,0,0,0,0,0,0,0,-1,2029,771,0,0
812,253,0,0,0,0,0,0,0,0,0,-1,2036,771,0,0
-700,246,0,0,0,0,0,0,0,0,0,-1,524,778,0,0
-693,246,0,0,0,0,0,0,0,0,0,-1,531,778,0,0
-686,246,0,0,0,0,0,0,0,0,0,-1,538,778,0,0
-679,246,0,0,0,0,0,0,0,0,0,-1,545,778,0,0
-672,246,0,0,0,0,0,0,0,0,0,-1,552,778,0,0
-665,246,0,0,0,0,0,0,0,0,0,-1,559,778,0,0
-658,246,0,0,0,0,0,0,0,0,0,-1,566,778,0,0
-651,246,0,0,0,0,0,0,0,0,0,-1,573,778,0,0
-644,246,0,0,0,0,0,0,0,0,0,-1,580,778,0,0
-637,246,-1.29358,3.22363,0,0,0,0,0,0,0,-1,587,778,-1.29356,-3.22362
-630,246,-0.42572,2.92792,0.00767158,0.0501221,-0.0158274,0.0553736,0.00242011,-1.25043,0.0361361,0.0492723,594,778,-0.425721,-2.92792
-623,246,0.621582,2.80341,0.0116632,0.0364007,-0.0134721,0.0423208,0.00574303,-1.15676,0.0265077,0.0493563,601,778,0.621578,-2.8034
-616,246,1.85413,2.47339,0,0,0,0,0,0,0,-1,608,778,1.85414,-2.47342
-609,246,-2.69745,0.18689,0,0,0,0,0,0,0,-1,615,778,-2.69746,-0.186878
-602,246,-1.62494,1.00745,0,0,0,0,0,0,0,-1,622,778,-1.62492,-1.00746
-595,246,-1.53003,0.932861,0.0112951,0.0043158,-0.00639952,0.0150946,0.000516314,-0.535784,0.00989545,0.0429681,629,778,-1.53003,-0.932849
-588,246,-1.45886,0.770508,0.00974725,0.000914351,-0.0048134,0.0118633,-0.00120172,-0.41419,0.00833837,0.0278806,636,778,-1.45887,-0.770483
-581,246,-1.46002,0.699097,0.0079738,-0.00108991,-0.00323608,0.0090106,-0.00212671,-0.310054,0.00682729,0.0160361,643,778,-1.46004,-0.699072
-574,246,-1.4624,0.602356,0.00560699,-0.00345235,-0.00219735,0.00611183,-0.00395718,-0.225829,0.00585755,0.0187852,650,778,-1.46242,-0.602328
-567,246,-1.46527,0.565979,0.0030481,-0.00351303,-0.000983466,0.00319235,-0.00365727,-0.14563,0.00395767,0.0151844,657,778,-1.46527,-0.565952
-560,246,-1.42969,0.521179,0.000771456,-0.00304919,0.000347011,0.000802717,-0.00308046,0.0898453,0.00236702,0.012301,664,778,-1.4297,-0.521188
-553,246,-1.40356,0.484253,-0.00112441,-0.00220223,0.00156391,-9.16666e-06,-0.00331748,0.619474,0.0022086,0.0125664,671,778,-1.40355,-0.484273
-546,246,-1.43036,0.435791,-0.00185765,-0.00184718,0.00239769,0.00054528,-0.00425011,0.786489,0.00303156,0.0101225,678,778,-1.43038,-0.435798
-539,246,-1.43738,0.360413,-0.0024322,-0.00153267,0.00205294,0.000119196,-0.00408407,0.893235,0.0027633,0.00996241,685,778,-1.43735,-0.360386
-532,246,-1.45734,0.281982,-0.0031428,-0.00157558,0.00139331,-0.000760642,-0.00395773,1.04156,0.00242504,0.0115511,692,778,-1.45733,-0.281962
-525,246,-1.44659,0.237305,-0.00392727,-0.00175141,0.000902593,-0.00142574,-0.00425294,1.22452,0.00249948,0.0121471,699,778,-1.44657,-0.237314
-518,246,-1.46246,0.187622,-0.00437904,-0.00189517,0.000354929,-0.00184545,-0.00442876,1.43161,0.00256875,0.0176664,706,778,-1.46245,-0.187648
-511,246,-1.45325,0.517029,0,0,0,0,0,0,0,-1,713,778,-1.45325,-0.517023
-504,246,-1.41541,0.716919,0,0,0,0,0,0,0,-1,720,778,-1.41541,-0.716939
-497,246,0.61377,0.315369,-0.00646716,-0.00144629,-0.00196241,-0.000770298,-0.00714316,-1.23905,0.00452724,0.0461429,727,778,0.61377,-0.315359
-490,246,0.304504,0.236877,-0.00735269,-0.00107336,-0.00286947,4.03663e-05,-0.00846641,-1.20056,0.00565778,0.0459775,734,778,0.304485,-0.236856
-483,246,0.367432,0.577271,0,0,0,0,0,0,0,-1,741,778,0.367457,-0.577262
-476,246,-1.40643,0.807434,0,0,0,0,0,0,0,-1,748,778,-1.40641,-0.807446
-469,246,-2.05194,0.77594,0,0,0,0,0,0,0,-1,755,778,-2.05193,-0.775947
-462,246,-2.97821,0.84552,0,0,0,0,0,0,0,-1,762,778,-2.97823,-0.845504
-455,246,0,0,0,0,0,0,0,0,0,-1,769,778,0,0
-448,246,0,0,0,0,0,0,0,0,0,-1,776,778,0,0
-441,246,0,0,0,0,0,0,0,0,0,-1,783,778,0,0
-434,246,0,0,0,0,0,0,0,0,0,-1,790,778,0,0
-427,246,0,0,0,0,0,0,0,0,0,-1,797,778,0,0
-420,246,0,0,0,0,0,0,0,0,0,-1,804,778,0,0
-413,246,0,0,0,0,0,0,0,0,0,-1,811,778,0,0
-406,246,0,0,0,0,0,0,0,0,0,-1,818,778,0,0
-399,246,0,0,0,0,0,0,0,0,0,-1,825,778,0,0
-392,246,0,0,0,0,0,0,0,0,0,-1,832,778,0,0
-385,246,0,0,0,0,0,0,0,0,0,-1,839,778,0,0
-378,246,0,0,0,0,0,0,0,0,0,-1,846,778,0,0
-371,246,0,0,0,0,0,0,0,0,0,-1,853,778,0,0
-364,246,0,0,0,0,0,0,0,0,0,-1,860,778,0,0
-357,246,0,0,0,0,0,0,0,0,0,-1,867,778,0,0
-350,246,0,0,0,0,0,0,0,0,0,-1,874,778,0,0
-343,246,0,0,0,0,0,0,0,0,0,-1,881,778,0,0
-336,246,0,0,0,0,0,0,0,0,0,-1,888,778,0,0
-329,246,0,0,0,0,0,0,0,0,0,-1,895,778,0,0
-322,246,0,0,0,0,0,0,0,0,0,-1,902,778,0,0
-315,246,0,0,0,0,0,0,0,0,0,-1,909,778,0,0
-308,246,0,0,0,0,0,0,0,0,0,-1,916,778,0,0
-301,246,0,0,0,0,0,0,0,0,0,-1,923,778,0,0
-294,246,0,0,0,0,0,0,0,0,0,-1,930,778,0,0
-287,246,0,0,0,0,0,0,0,0,0,-1,937,778,0,0
-280,246,0,0,0,0,0,0,0,0,0,-1,944,778,0,0
-273,246,0,0,0,0,0,0,0,0,0,-1,951,778,0,0
-266,246,0,0,0,0,0,0,0,0,0,-1,958,778,0,0
-259,246,0,0,0,0,0,0,0,0,0,-1,965,778,0,0
-252,246,0,0,0,0,0,0,0,0,0,-1,972,778,0,0
-245,246,0,0,0,0,0,0,0,0,0,-1,979,778,0,0
-238,246,0,0,0,0,0,0,0,0,0,-1,986,778,0,0
-231,246,0,0,0,0,0,0,0,0,0,-1,993,778,0,0
-224,246,0,0,0,0,0,0,0,0,0,-1,1000,778,0,0
-217,246,0,0,0,0,0,0,0,0,0,-1,1007,778,0,0
-210,246,0,0,0,0,0,0,0,0,0,-1,1014,778,0,0
-203,246,0,0,0,0,0,0,0,0,0,-1,1021,778,0,0
-196,246,0,0,0,0,0,0,0,0,0,-1,1028,778,0,0
-189,246,0,0,0,0,0,0,0,0,0,-1,1035,778,0,0
-182,246,0,0,0,0,0,0,0,0,0,-1,1042,778,0,0
-175,246,0,0,0,0,0,0,0,0,0,-1,1049,778,0,0
-168,246,0,0,0,0,0,0,0,0,0,-1,1056,778,0,0
-161,246,0,0,0,0,0,0,0,0,0,-1,1063,778,0,0
-154,246,0,0,0,0,0,0,0,0,0,-1,1070,778,0,0
-147,246,0,0,0,0,0,0,0,0,0,-1,1077,778,0,0
-140,246,0,0,0,0,0,0,0,0,0,-1,1084,778,0,0
-133,246,0,0,0,0,0,0,0,0,0,-1,1091,778,0,0
-126,246,0,0,0,0,0,0,0,0,0,-1,1098,778,0,0
-119,246,0,0,0,0,0,0,0,0,0,-1,1105,778,0,0
-112,246,0,0,0,0,0,0,0,0,0,-1,1112,778,0,0
-105,246,0,0,0,0,0,0,0,0,0,-1,1119,778,0,0
-98,246,0,0,0,0,0,0,0,0,0,-1,1126,778,0,0
-91,246,0,0,0,0,0,0,0,0,0,-1,1133,778,0,0
-84,246,0,0,0,0,0,0,0,0,0,-1,1140,778,0,0
-77,246,0,0,0,0,0,0,0,0,0,-1,1147,778,0,0
-70,246,0,0,0,0,0,0,0,0,0,-1,1154,778,0,0
-63,246,0,0,0,0,0,0,0,0,0,-1,1161,778,0,0
-56,246,0,0,0,0,0,0,0,0,0,-1,1168,778,0,0
-49,246,0,0,0,0,0,0,0,0,0,-1,1175,778,0,0
-42,246,0,0,0,0,0,0,0,0,0,-1,1182,778,0,0
-35,246,0,0,0,0,0,0,0,0,0,-1,1189,778,0,0
-28,246,0,0,0,0,0,0,0,0,0,-1,1196,778,0,0
-21,246,0,0,0,0,0,0,0,0,0,-1,1203,778,0,0
-14,246,0,0,0,0,0,0,0,0,0,-1,1210,778,0,0
-7,246,0,0,0,0,0,0,0,0,0,-1,1217,778,0,0
0,246,0,0,0,0,0,0,0,0,0,-1,1224,778,0,0
7,246,0,0,0,0,0,0,0,0,0,-1,1231,778,0,0
14,246,0,0,0,0,0,0,0,0,0,-1,1238,778,0,0
21,246,0,0,0,0,0,0,0,0,0,-1,1245,778,0,0
28,246,0,0,0,0,0,0,0,0,0,-1,1252,778,0,0
35,246,0,0,0,0,0,0,0,0,0,-1,1259,778,0,0
42,246,0,0,0,0,0,0,0,0,0,-1,1266,778,0,0
49,246,0,0,0,0,0,0,0,0,0,-1,1273,778,0,0
56,246,0,0,0,0,0,0,0,0,0,-1,1280,778,0,0
63,246,0,0,0,0,0,0,0,0,0,-1,1287,778,0,0
70,246,0,0,0,0,0,0,0,0,0,-1,1294,778,0,0
77,246,0,0,0,0,0,0,0,0,0,-1,1301,778,0,0
84,246,0,0,0,0,0,0,0,0,0,-1,1308,778,0,0
91,246,0,0,0,0,0,0,0,0,0,-1,1315,778,0,0
98,246,0,0,0,0,0,0,0,0,0,-1,1322,778,0,0
105,246,0,0,0,0,0,0,0,0,0,-1,1329,778,0,0
112,246,0,0,0,0,0,0,0,0,0,-1,1336,778,0,0
119,246,0,0,0,0,0,0,0,0,0,-1,1343,778,0,0
126,246,0,0,0,0,0,0,0,0,0,-1,1350,778,0,0
133,246,0,0,0,0,0,0,0,0,0,-1,1357,778,0,0
140,246,0,0,0,0,0,0,0,0,0,-1,1364,778,0,0
147,246,0,0,0,0,0,0,0,0,0,-1,1371,778,0,0
154,246,0,0,0,0,0,0,0,0,0,-1,1378,778,0,0
161,246,0,0,0,0,0,0,0,0,0,-1,1385,778,0,0
168,246,0,0,0,0,0,0,0,0,0,-1,1392,778,0,0
175,246,0,0,0,0,0,0,0,0,0,-1,1399,778,0,0
182,246,0,0,0,0,0,0,0,0,0,-1,1406,778,0,0
189,246,0,0,0,0,0,0,0,0,0,-1,1413,778,0,0
196,246,0,0,0,0,0,0,0,0,0,-1,1420,778,0,0
203,246,0,0,0,0,0,0,0,0,0,-1,1427,778,0,0
210,246,0,0,0,0,0,0,0,0,0,-1,1434,778,0,0
217,246,0,0,0,0,0,0,0,0,0,-1,1441,778,0,0
224,246,0,0,0,0,0,0,0,0,0,-1,1448,778,0,0
231,246,0,0,0,0,0,0,0,0,0,-1,1455,778,0,0
238,246,0,0,0,0,0,0,0,0,0,-1,1462,778,0,0
245,246,0,0,0,0,0,0,0,0,0,-1,1469,778,0,0
252,246,0,0,0,0,0,0,0,0,0,-1,1476,778,0,0
259,246,0,0,0,0,0,0,0,0,0,-1,1483,778,0,0
266,246,0,0,0,0,0,0,0,0,0,-1,1490,778,0,0
273,246,0,0,0,0,0,0,0,0,0,-1,1497,778,0,0
280,246,0,0,0,0,0,0,0,0,0,-1,1504,778,0,0
287,246,0,0,0,0,0,0,0,0,0,-1,1511,778,0,0
294,246,0,0,0,0,0,0,0,0,0,-1,1518,778,0,0
301,246,0,0,0,0,0,0,0,0,0,-1,1525,778,0,0
308,246,0,0,0,0,0,0,0,0,0,-1,1532,778,0,0
315,246,0,0,0,0,0,0,0,0,0,-1,1539,778,0,0
322,246,0,0,0,0,0,0,0,0,0,-1,1546,778,0,0
329,246,0,0,0,0,0,0,0,0,0,-1,1553,778,0,0
336,246,0,0,0,0,0,0,0,0,0,-1,1560,778,0,0
343,246,0,0,0,0,0,0,0,0,0,-1,1567,778,0,0
350,246,0,0,0,0,0,0,0,0,0,-1,1574,778,0,0
357,246,0,0,0,0,0,0,0,0,0,-1,1581,778,0,0
364,246,0,0,0,0,0,0,0,0,0,-1,1588,778,0,0
371,246,0,0,0,0,0,0,0,0,0,-1,1595,778,0,0
378,246,0,0,0,0,0,0,0,0,0,-1,1602,778,0,0
385,246,0,0,0,0,0,0,0,0,0,-1,1609,778,0,0
392,246,0,0,0,0,0,0,0,0,0,-1,1616,778,0,0
399,246,0,0,0,0,0,0,0,0,0,-1,1623,778,0,0
406,246,0,0,0,0,0,0,0,0,0,-1,1630,778,0,0
413,246,0,0,0,0,0,0,0,0,0,-1,1637,778,0,0
420,246,0,0,0,0,0,0,0,0,0,-1,1644,778,0,0
427,246,0,0,0,0,0,0,0,0,0,-1,1651,778,0,0
434,246,0,0,0,0,0,0,0,0,0,-1,1658,778,0,0
441,246,0,0,0,0,0,0,0,0,0,-1,1665,778,0,0
448,246,0,0,0,0,0,0,0,0,0,-1,1672,778,0,0
455,246,0,0,0,0,0,0,0,0,0,-1,1679,778,0,0
462,246,0,0,0,0,0,0,0,0,0,-1,1686,778,0,0
469,246,0,0,0,0,0,0,0,0,0,-1,1693,778,0,0
476,246,0,0,0,0,0,0,0,0,0,-1,1700,778,0,0
483,246,0,0,0,0,0,0,0,0,0,-1,1707,778,0,0
490,246,0,0,0,0,0,0,0,0,0,-1,1714,778,0,0
497,246,0,0,0,0,0,0,0,0,0,-1,1721,778,0,0
504,246,0,0,0,0,0,0,0,0,0,-1,1728,778,0,0
511,246,0,0,0,0,0,0,0,0,0,-1,1735,778,0,0
518,246,0,0,0,0,0,0,0,0,0,-1,1742,778,0,0
525,246,0,0,0,0,0,0,0,0,0,-1,1749,778,0,0
532,246,0,0,0,0,0,0,0,0,0,-1,1756,778,0,0
539,246,0,0,0,0,0,0,0,0,0,-1,1763,778,0,0
546,246,0,0,0,0,0,0,0,0,0,-1,1770,778,0,0
553,246,0,0,0,0,0,0,0,0,0,-1,1777,778,0,0
560,246,0,0,0,0,0,0,0,0,0,-1,1784,778,0,0
567,246,0,0,0,0,0,0,0,0,0,-1,1791,778,0,0
574,246,0,0,0,0,0,0,0,0,0,-1,1798,778,0,0
581,246,7.29175,0.890991,0.0137893,0.00994993,-0.00613445,0.0182974,0.00544182,-0.633756,0.0108492,0.0394307,1805,778,7.29174,-0.891017
588,246,7.23035,1.04926,0.00709809,-2.10002e-05,-0.00103166,0.00724458,-0.00016749,-0.14105,0.00488651,0.0428896,1812,778,7.23031,-1.04927
595,246,7.40295,0.947937,0.00242519,-0.00714998,0.00232845,0.00296139,-0.00768618,0.226334,0.00634591,0.0413644,1819,778,7.403,-0.947946
602,246,7.43958,0.997009,5.7366e-05,-0.01221,0.00424541,0.00138327,-0.0135359,0.302717,0.00951862,0.0401645,1826,778,7.4396,-0.997009
609,246,7.20532,1.03741,-0.00100205,-0.0153442,0.00506198,0.000604573,-0.0169508,0.307334,0.0115074,0.0431147,1833,778,7.20531,-1.03741
616,246,5.43555,2.43719,0,0,0,0,0,0,0,-1,1840,778,5.43554,-2.43718
623,246,5.02747,1.89752,-0.000860954,-0.0173648,0.00504532,0.000559224,-0.0187849,0.274384,0.0127138,0.0433549,1847,778,5.0275,-1.8975
630,246,4.97351,1.50677,-0.000565955,-0.0169969,0.00457743,0.000623188,-0.0181861,0.254166,0.012337,0.0451269,1854,778,4.97351,-1.50678
637,246,5.85718,0.30365,0,0,0,0,0,0,0,-1,1861,778,5.85713,-0.30367
644,246,5.43933,0.703613,0.0014975,-0.0133896,0.00271225,0.00197625,-0.0138684,0.174712,0.00996983,0.041237,1868,778,5.43931,-0.703623
651,246,5.6239,0.594604,0.00279394,-0.0112327,0.00157796,0.00296926,-0.011408,0.110655,0.00876438,0.0280029,1875,778,5.62393,-0.594592
658,246,5.73547,0.574768,0.0037539,-0.00903971,0.000669333,0.00378882,-0.00907463,0.0521281,0.00763286,0.0188162,1882,778,5.73553,-0.57475
665,246,5.69324,0.627625,0.00413877,-0.0068555,6.3999e-05,0.00413914,-0.00685588,0.00582086,0.00641225,0.0194597,1889,778,5.69324,-0.627621
672,246,5.68665,0.712402,0.00365662,-0.00467678,-2.36601e-05,0.00365669,-0.00467685,-0.00283916,0.00482337,0.0192411,1896,778,5.68659,-0.712429
679,246,5.70203,0.768921,0.00260125,-0.00214754,5.59051e-05,0.00260191,-0.0021482,0.0117703,0.00274664,0.0195928,1903,778,5.70205,-0.768893
686,246,5.76807,0.839172,0.00134786,0.000347217,-0.000265431,0.00141391,0.000281168,-0.243884,0.000864263,0.0208058,1910,778,5.76802,-0.839184
693,246,5.76904,0.897339,0.000267482,0.00133003,-7.73349e-05,0.00133563,0.000261883,-1.49852,0.000817232,0.0161739,1917,778,5.76904,-0.897323
700,246,5.76538,0.964355,-0.0013611,0.0029633,0.000187889,0.00297145,-0.00136925,1.52746,0.00256238,0.0146317,1924,778,5.76539,-0.964383
707,246,5.74646,1.01233,-0.00247714,0.00400165,0.000520376,0.00404318,-0.00251867,1.49116,0.00382242,0.0138041,1931,778,5.74643,-1.01233
714,246,5.71387,1.06683,-0.00332806,0.00476291,0.000832269,0.00484764,-0.00341279,1.46935,0.00479308,0.0124333,1938,778,5.71386,-1.06683
721,246,5.7041,1.13257,-0.0043515,0.00581395,0.00121789,0.00595783,-0.00449537,1.45321,0.00605481,0.0162158,1945,778,5.70413,-1.13257
728,246,5.65259,1.41809,-0.00540308,0.00648038,0.00170332,0.0067197,-0.00564241,1.4312,0.0071463,0.0327902,1952,778,5.65262,-1.41806
735,246,5.17346,1.02643,-0.00625254,0.00627665,0.00232977,0.00669584,-0.00667173,1.39277,0.00771778,0.0441736,1959,778,5.17346,-1.0264
742,246,4.7699,1.99261,0,0,0,0,0,0,0,-1,1966,778,4.76984,-1.99264
749,246,4.84717,0.750122,0,0,0,0,0,0,0,-1,1973,778,4.84711,-0.750137
756,246,4.78894,0.804382,0,0,0,0,0,0,0,-1,1980,778,4.78892,-0.804404
763,246,0,0,0,0,0,0,0,0,0,-1,1987,778,0,0
770,246,0,0,0,0,0,0,0,0,0,-1,1994,778,0,0
777,246,0,0,0,0,0,0,0,0,0,-1,2001,778,0,0
784,246,0,0,0,0,0,0,0,0,0,-1,2008,778,0,0
791,246,0,0,0,0,0,0,0,0,0,-1,2015,778,0,0
798,246,0,0,0,0,0,0,0,0,0,-1,2022,778,0,0
805,246,0,0,0,0,0,0,0,0,0,-1,2029,778,0,0
812,246,0,0,0,0,0,0,0,0,0,-1,2036,778,0,0
-700,239,0,0,0,0,0,0,0,0,0,-1,524,785,0,0
-693,239,0,0,0,0,0,0,0,0,0,-1,531,785,0,0
-686,239,0,0,0,0,0,0,0,0,0,-1,538,785,0,0
-679,239,0,0,0,0,0,0,0,0,0,-1,545,785,0,0
-672,239,0,0,0,0,0,0,0,0,0,-1,552,785,0,0
-665,239,0,0,0,0,0,0,0,0,0,-1,559,785,0,0
-658,239,0,0,0,0,0,0,0,0,0,-1,566,785,0,0
-651,239,0,0,0,0,0,0,0,0,0,-1,573,785,0,0
-644,239,0,0,0,0,0,0,0,0,0,-1,580,785,0,0
-637,239,-0.661865,3.24774,0,0,0,0,0,0,0,-1,587,785,-0.66185,-3.24773
-630,239,0.271973,3.03912,0.00421865,0.0500914,-0.00542399,0.050724,0.00358604,-1.45469,0.0326863,0.0499138,594,785,0.271994,-3.03913
-623,239,-3.61517,2.37054,0.00892129,0.0368762,-0.00422601,0.0375011,0.0082964,-1.42399,0.0227454,0.0432411,601,785,-3.61519,-2.37056
-616,239,-2.79877,0.511475,0,0,0,0,0,0,0,-1,608,785,-2.79875,-0.511467
-609,239,-2.50574,0.598572,0.0123834,0.0168875,-0.00343879,0.018746,0.0105249,-1.0753,0.0108502,0.0451176,615,785,-2.50577,-0.598549
-602,239,-2.20038,0.70752,0.0120492,0.0100996,-0.00310387,0.0143277,0.00782104,-0.633245,0.00828371,0.0449829,622,785,-2.20037,-0.707525
-595,239,-1.70038,0.824524,0.011004,0.00501247,-0.00259729,0.0119731,0.00404332,-0.357137,0.00703305,0.0413516,629,785,-1.70038,-0.824535
-588,239,-1.51666,0.744446,0.00971044,0.00141184,-0.00220799,0.0102613,0.000860936,-0.244512,0.00657274,0.0190882,636,785,-1.51665,-0.74445
-581,239,-1.51495,0.689514,0.00809572,-0.000776025,-0.00163593,0.00838777,-0.00106807,-0.17666,0.00597975,0.0119152,643,785,-1.51495,-0.689544
-574,239,-1.51569,0.626343,0.0057551,-0.00323341,-0.00138801,0.00596455,-0.00344287,-0.149774,0.00549603,0.0127231,650,785,-1.51572,-0.626339
-567,239,-1.53607,0.553467,0.00296605,-0.00342748,-0.000606815,0.00302313,-0.00348457,-0.0937949,0.00376037,0.0122673,657,785,-1.53609,-0.55349
-560,239,-1.50366,0.512878,0.000339649,-0.0030829,0.000428608,0.000392507,-0.00313576,0.122706,0.00223287,0.0118519,664,785,-1.50363,-0.512904
-553,239,-1.48682,0.472229,-0.00177003,-0.00231627,0.00145584,-0.000561911,-0.00352439,0.692673,0.00218649,0.0125937,671,785,-1.4868,-0.472249
-546,239,-1.51953,0.40686,-0.00266955,-0.00201378,0.00226776,-5.0318e-05,-0.00463301,0.857193,0.00307204,0.0129794,678,785,-1.51952,-0.406879
-539,239,-1.50708,0.330017,-0.00337124,-0.00177699,0.00204024,-0.000383683,-0.00476455,0.97163,0.00305651,0.0142405,685,785,-1.50707,-0.330022
-532,239,-1.49396,0.274231,-0.00411474,-0.00185357,0.00153987,-0.00107381,-0.00489451,1.10206,0.00297048,0.0118054,692,785,-1.49394,-0.274252
-525,239,-1.49652,0.244995,-0.00489793,-0.00200662,0.00109923,-0.00163618,-0.00526838,1.24574,0.00311362,0.0128923,699,785,-1.49655,-0.244967
-518,239,-1.54114,0.183777,-0.00537622,-0.00212151,0.000548985,-0.0020314,-0.00546633,1.40812,0.00319047,0.0322901,706,785,-1.54116,-0.183802
-511,239,-1.87146,0.0965576,-0.00598632,-0.00198819,-0.000314336,-0.00196363,-0.00601088,-1.49281,0.0035392,0.0405337,713,785,-1.87147,-0.0965339
-504,239,-1.89813,0.284058,0,0,0,0,0,0,0,-1,720,785,-1.89814,-0.28407
-497,239,-2.04956,0.189636,0,0,0,0,0,0,0,-1,727,785,-2.04955,-0.189654
-490,239,0.306763,-0.25946,0,0,0,0,0,0,0,-1,734,785,0.306791,0.259454
-483,239,-2.79724,1.03735,0,0,0,0,0,0,0,-1,741,785,-2.79724,-1.03736
-476,239,-2.20612,0.987305,0,0,0,0,0,0,0,-1,748,785,-2.20614,-0.987313
-469,239,-2.99365,0.851135,-0.0129339,-0.000215204,-0.00320676,0.00054757,-0.0136967,-1.33727,0.009319,0.0434555,755,785,-2.99364,-0.851119
-462,239,-3.06433,0.78717,0,0,0,0,0,0,0,-1,762,785,-3.0643,-0.787148
-455,239,0,0,0,0,0,0,0,0,0,-1,769,785,0,0
-448,239,0,0,0,0,0,0,0,0,0,-1,776,785,0,0
-441,239,0,0,0,0,0,0,0,0,0,-1,783,785,0,0
-434,239,0,0,0,0,0,0,0,0,0,-1,790,785,0,0
-427,239,0,0,0,0,0,0,0,0,0,-1,797,785,0,0
-420,239,0,0,0,0,0,0,0,0,0,-1,804,785,0,0
-413,239,0,0,0,0,0,0,0,0,0,-1,811,785,0,0
-406,239,0,0,0,0,0,0,0,0,0,-1,818,785,0,0
-399,239,0,0,0,0,0,0,0,0,0,-1,825,785,0,0
-392,239,0,0,0,0,0,0,0,0,0,-1,832,785,0,0
-385,239,0,0,0,0,0,0,0,0,0,-1,839,785,0,0
-378,239,0,0,0,0,0,0,0,0,0,-1,846,785,0,0
-371,239,0,0,0,0,0,0,0,0,0,-1,853,785,0,0
-364,239,0,0,0,0,0,0,0,0,0,-1,860,785,0,0
-357,239,0,0,0,0,0,0,0,0,0,-1,867,785,0,0
-350,239,0,0,0,0,0,0,0,0,0,-1,874,785,0,0
-343,239,0,0,0,0,0,0,0,0,0,-1,881,785,0,0
-336,239,0,0,0,0,0,0,0,0,0,-1,888,785,0,0
-329,239,0,0,0,0,0,0,0,0,0,-1,895,785,0,0
-322,239,0,0,0,0,0,0,0,0,0,-1,902,785,0,0
-315,239,0,0,0,0,0,0,0,0,0,-1,909,785,0,0
-308,239,0,0,0,0,0,0,0,0,0,-1,916,785,0,0
-301,239,0,0,0,0,0,0,0,0,0,-1,923,785,0,0
-294,239,0,0,0,0,0,0,0,0,0,-1,930,785,0,0
-287,239,0,0,0,0,0,0,0,0,0,-1,937,785,0,0
-280,239,0,0,0,0,0,0,0,0,0,-1,944,785,0,0
-273,239,0,0,0,0,0,0,0,0,0,-1,951,785,0,0
-266,239,0,0,0,0,0,0,0,0,0,-1,958,785,0,0
-259,239,0,0,0,0,0,0,0,0,0,-1,965,785,0,0
-252,239,0,0,0,0,0,0,0,0,0,-1,972,785,0,0
-245,239,0,0,0,0,0,0,0,0,0,-1,979,785,0,0
-238,239,0,0,0,0,0,0,0,0,0,-1,986,785,0,0
-231,239,0,0,0,0,0,0,0,0,0,-1,993,785,0,0
-224,239,0,0,0,0,0,0,0,0,0,-1,1000,785,0,0
-217,239,0,0,0,0,0,0,0,0,0,-1,1007,785,0,0
-210,239,0,0,0,0,0,0,0,0,0,-1,1014,785,0,0
-203,239,0,0,0,0,0,0,0,0,0,-1,1021,785,0,0
-196,239,0,0,0,0,0,0,0,0,0,-1,1028,785,0,0
-189,239,0,0,0,0,0,0,0,0,0,-1,1035,785,0,0
-182,239,0,0,0,0,0,0,0,0,0,-1,1042,785,0,0
-175,239,0,0,0,0,0,0,0,0,0,-1,1049,785,0,0
-168,239,0,0,0,0,0,0,0,0,0,-1,1056,785,0,0
-161,239,0,0,0,0,0,0,0,0,0,-1,1063,785,0,0
-154,239,0,0,0,0,0,0,0,0,0,-1,1070,785,0,0
-147,239,0,0,0,0,0,0,0,0,0,-1,1077,785,0,0
-140,239,0,0,0,0,0,0,0,0,0,-1,1084,785,0,0
-133,239,0,0,0,0,0,0,0,0,0,-1,1091,785,0,0
-126,239,0,0,0,0,0,0,0,0,0,-1,1098,785,0,0
-119,239,0,0,0,0,0,0,0,0,0,-1,1105,785,0,0
-112,239,0,0,0,0,0,0,0,0,0,-1,1112,785,0,0
-105,239,0,0,0,0,0,0,0,0,0,-1,1119,785,0,0
-98,239,0,0,0,0,0,0,0,0,0,-1,1126,785,0,0
-91,239,0,0,0,0,0,0,0,0,0,-1,1133,785,0,0
-84,239,0,0,0,0,0,0,0,0,0,-1,1140,785,0,0
-77,239,0,0,0,0,0,0,0,0,0,-1,1147,785,0,0
-70,239,0,0,0,0,0,0,0,0,0,-1,1154,785,0,0
-63,239,0,0,0,0,0,0,0,0,0,-1,1161,785,0,0
-56,239,0,0,0,0,0,0,0,0,0,-1,1168,785,0,0
-49,239,0,0,0,0,0,0,0,0,0,-1,1175,785,0,0
-42,239,0,0,0,0,0,0,0,0,0,-1,1182,785,0,0
-35,239,0,0,0,0,0,0,0,0,0,-1,1189,785,0,0
-28,239,0,0,0,0,0,0,0,0,0,-1,1196,785,0,0
-21,239,0,0,0,0,0,0,0,0,0,-1,1203,785,0,0
-14,239,0,0,0,0,0,0,0,0,0,-1,1210,785,0,0
-7,239,0,0,0,0,0,0,0,0,0,-1,1217,785,0,0
0,239,0,0,0,0,0,0,0,0,0,-1,1224,785,0,0
7,239,0,0,0,0,0,0,0,0,0,-1,1231,785,0,0
14,239,0,0,0,0,0,0,0,0,0,-1,1238,785,0,0
21,239,0,0,0,0,0,0,0,0,0,-1,1245,785,0,0
28,239,0,0,0,0,0,0,0,0,0,-1,1252,785,0,0
35,239,0,0,0,0,0,0,0,0,0,-1,1259,785,0,0
42,239,0,0,0,0,0,0,0,0,0,-1,1266,785,0,0
49,239,0,0,0,0,0,0,0,0,0,-1,1273,785,0,0
56,239,0,0,0,0,0,0,0,0,0,-1,1280,785,0,0
63,239,0,0,0,0,0,0,0,0,0,-1,1287,785,0,0
70,239,0,0,0,0,0,0,0,0,0,-1,1294,785,0,0
77,239,0,0,0,0,0,0,0,0,0,-1,1301,785,0,0
84,239,0,0,0,0,0,0,0,0,0,-1,1308,785,0,0
91,239,0,0,0,0,0,0,0,0,0,-1,1315,785,0,0
98,239,0,0,0,0,0,0,0,0,0,-1,1322,785,0,0
105,239,0,0,0,0,0,0,0,0,0,-1,1329,785,0,0
112,239,0,0,0,0,0,0,0,0,0,-1,1336,785,0,0
119,239,0,0,0,0,0,0,0,0,0,-1,1343,785,0,0
126,239,0,0,0,0,0,0,0,0,0,-1,1350,785,0,0
133,239,0,0,0,0,0,0,0,0,0,-1,1357,785,0,0
140,239,0,0,0,0,0,0,0,0,0,-1,1364,785,0,0
147,239,0,0,0,0,0,0,0,0,0,-1,1371,785,0,0
154,239,0,0,0,0,0,0,0,0,0,-1,1378,785,0,0
161,239,0,0,0,0,0,0,0,0,0,-1,1385,785,0,0
168,239,0,0,0,0,0,0,0,0,0,-1,1392,785,0,0
175,239,0,0,0,0,0,0,0,0,0,-1,1399,785,0,0
182,239,0,0,0,0,0,0,0,0,0,-1,1406,785,0,0
189,239,0,0,0,0,0,0,0,0,0,-1,1413,785,0,0
196,239,0,0,0,0,0,0,0,0,0,-1,1420,785,0,0
203,239,0,0,0,0,0,0,0,0,0,-1,1427,785,0,0
210,239,0,0,0,0,0,0,0,0,0,-1,1434,785,0,0
217,239,0,0,0,0,0,0,0,0,0,-1,1441,785,0,0
224,239,0,0,0,0,0,0,0,0,0,-1,1448,785,0,0
231,239,0,0,0,0,0,0,0,0,0,-1,1455,785,0,0
238,239,0,0,0,0,0,0,0,0,0,-1,1462,785,0,0
245,239,0,0,0,0,0,0,0,0,0,-1,1469,785,0,0
252,239,0,0,0,0,0,0,0,0,0,-1,1476,785,0,0
259,239,0,0,0,0,0,0,0,0,0,-1,1483,785,0,0
266,239,0,0,0,0,0,0,0,0,0,-1,1490,785,0,0
273,239,0,0,0,0,0,0,0,0,0,-1,1497,785,0,0
280,239,0,0,0,0,0,0,0,0,0,-1,1504,785,0,0
287,239,0,0,0,0,0,0,0,0,0,-1,1511,785,0,0
294,239,0,0,0,0,0,0,0,0,0,-1,1518,785,0,0
301,239,0,0,0,0,0,0,0,0,0,-1,1525,785,0,0
308,239,0,0,0,0,0,0,0,0,0,-1,1532,785,0,0
315,239,0,0,0,0,0,0,0,0,0,-1,1539,785,0,0
322,239,0,0,0,0,0,0,0,0,0,-1,1546,785,0,0
329,239,0,0,0,0,0,0,0,0,0,-1,1553,785,0,0
336,239,0,0,0,0,0,0,0,0,0,-1,1560,785,0,0
343,239,0,0,0,0,0,0,0,0,0,-1,1567,785,0,0
350,239,0,0,0,0,0,0,0,0,0,-1,1574,785,0,0
357,239,0,0,0,0,0,0,0,0,0,-1,1581,785,0,0
364,239,0,0,0,0,0,0,0,0,0,-1,1588,785,0,0
371,239,0,0,0,0,0,0,0,0,0,-1,1595,785,0,0
378,239,0,0,0,0,0,0,0,0,0,-1,1602,785,0,0
385,239,0,0,0,0,0,0,0,0,0,-1,1609,785,0,0
392,239,0,0,0,0,0,0,0,0,0,-1,1616,785,0,0
399,239,0,0,0,0,0,0,0,0,0,-1,1623,785,0,0
406,239,0,0,0,0,0,0,0,0,0,-1,1630,785,0,0
413,239,0,0,0,0,0,0,0,0,0,-1,1637,785,0,0
420,239,0,0,0,0,0,0,0,0,0,-1,1644,785,0,0
427,239,0,0,0,0,0,0,0,0,0,-1,1651,785,0,0
434,239,0,0,0,0,0,0,0,0,0,-1,1658,785,0,0
441,239,0,0,0,0,0,0,0,0,0,-1,1665,785,0,0
448,239,0,0,0,0,0,0,0,0,0,-1,1672,785,0,0
455,239,0,0,0,0,0,0,0,0,0,-1,1679,785,0,0
462,239,0,0,0,0,0,0,0,0,0,-1,1686,785,0,0
469,239,0,0,0,0,0,0,0,0,0,-1,1693,785,0,0
476,239,0,0,0,0,0,0,0,0,0,-1,1700,785,0,0
483,239,0,0,0,0,0,0,0,0,0,-1,1707,785,0,0
490,239,0,0,0,0,0,0,0,0,0,-1,1714,785,0,0
497,239,0,0,0,0,0,0,0,0,0,-1,1721,785,0,0
504,239,0,0,0,0,0,0,0,0,0,-1,1728,785,0,0
511,239,0,0,0,0,0,0,0,0,0,-1,1735,785,0,0
518,239,0,0,0,0,0,0,0,0,0,-1,1742,785,0,0
525,239,0,0,0,0,0,0,0,0,0,-1,1749,785,0,0
532,239,0,0,0,0,0,0,0,0,0,-1,1756,785,0,0
539,239,0,0,0,0,0,0,0,0,0,-1,1763,785,0,0
546,239,0,0,0,0,0,0,0,0,0,-1,1770,785,0,0
553,239,0,0,0,0,0,0,0,0,0,-1,1777,785,0,0
560,239,0,0,0,0,0,0,0,0,0,-1,1784,785,0,0
567,239,0,0,0,0,0,0,0,0,0,-1,1791,785,0,0
574,239,0,0,0,0,0,0,0,0,0,-1,1798,785,0,0
581,239,7.09021,1.1756,0.0141416,0.0114461,-0.00632027,0.0192562,0.00633146,-0.680349,0.0113327,0.0385891,1805,785,7.09022,-1.17558
588,239,7.11133,1.15015,0.00706495,0.00105282,-0.00105799,0.0072457,0.000872072,-0.169206,0.00456761,0.0382339,1812,785,7.11129,-1.15013
595,239,7.23816,0.998962,0.00161798,-0.00607932,0.00243031,0.00232109,-0.00678243,0.281619,0.00546225,0.0338002,1819,785,7.2382,-0.998985
602,239,7.30579,0.996216,-0.000900741,-0.0110965,0.00426487,0.000647988,-0.0126453,0.348329,0.00865426,0.0364667,1826,785,7.30577,-0.996231
609,239,7.3324,1.01678,-0.00176675,-0.0141265,0.00496482,-1.94404e-05,-0.0158738,0.3384,0.0105761,0.0438675,1833,785,7.33241,-1.01678
616,239,5.06372,3.03387,0,0,0,0,0,0,0,-1,1840,785,5.0637,-3.03389
623,239,4.67712,2.52795,-0.00105898,-0.0159536,0.00463887,0.000267625,-0.0172802,0.278541,0.0116104,0.0431952,1847,785,4.67708,-2.52798
630,239,4.55457,1.84735,-0.000505537,-0.0155338,0.00411783,0.000548804,-0.0165881,0.250658,0.0112461,0.043093,1854,785,4.55455,-1.84732
637,239,4.78955,1.41754,0,0,0,0,0,0,0,-1,1861,785,4.78951,-1.41756
644,239,5.08679,1.0697,0.00138613,-0.0123435,0.00242151,0.0018007,-0.0127581,0.169558,0.00916478,0.0435559,1868,785,5.08673,-1.06971
651,239,5.64233,0.510864,0.00249641,-0.0105321,0.00146977,0.00266016,-0.0106959,0.110954,0.00816307,0.035085,1875,785,5.64238,-0.510857
658,239,5.79749,0.603455,0.00338335,-0.00869887,0.000681389,0.00342166,-0.00873717,0.0561587,0.00724006,0.0165486,1882,785,5.79748,-0.603433
665,239,5.79321,0.660217,0.00380609,-0.00682326,0.000109247,0.00380721,-0.00682438,0.0102764,0.00622,0.0128985,1889,785,5.79325,-0.660244
672,239,5.76917,0.722534,0.00341034,-0.00485707,-3.06497e-05,0.00341045,-0.00485718,-0.00370722,0.00479762,0.0183524,1896,785,5.76912,-0.722544
679,239,5.79431,0.786987,0.00247105,-0.00248921,1.04412e-05,0.00247107,-0.00248923,0.00210496,0.00286384,0.0192704,1903,785,5.79432,-0.787005
686,239,5.83569,0.842407,0.00138155,-0.000136683,-0.000357417,0.00146148,-0.000216617,-0.220021,0.00105397,0.0196901,1910,785,5.83564,-0.842399
693,239,5.82642,0.887695,0.000469106,0.000634269,-0.000255431,0.000820136,0.000283239,-0.941745,0.000480996,0.0137356,1917,785,5.82646,-0.88772
700,239,5.81543,0.951538,-0.00112226,0.00206767,-9.35195e-05,0.00207041,-0.001125,-1.54151,0.00187159,0.0117139,1924,785,5.81545,-0.951561
707,239,5.80798,1.01385,-0.00208839,0.00263006,8.38157e-05,0.00263155,-0.00208988,1.55304,0.00273189,0.0112124,1931,785,5.80793,-1.01385
714,239,5.79248,1.07465,-0.00271721,0.00267476,0.000194962,0.0026818,-0.00272425,1.5347,0.00312122,0.0102162,1938,785,5.79243,-1.07462
721,239,5.77856,1.13275,-0.00346629,0.00281758,0.000282852,0.00283029,-0.00347899,1.52591,0.00364908,0.0171614,1945,785,5.7786,-1.13273
728,239,5.72791,1.20581,-0.00413971,0.00229441,0.000385959,0.00231748,-0.00416278,1.5111,0.00379161,0.0336945,1952,785,5.72796,-1.20584
735,239,5.44861,0.903503,-0.00460306,0.000648944,0.000523335,0.000700584,-0.0046547,1.47244,0.00336109,0.0449446,1959,785,5.44856,-0.90348
742,239,5.22839,0.618713,-0.00475517,-0.00275329,0.000679904,-0.00254421,-0.00496425,1.27246,0.00286641,0.0418209,1966,785,5.2284,-0.618717
749,239,5.05884,0.385681,0,0,0,0,0,0,0,-1,1973,785,5.05885,-0.385665
756,239,4.89502,0.160156,0,0,0,0,0,0,0,-1,1980,785,4.89496,-0.160127
763,239,0,0,0,0,0,0,0,0,0,-1,1987,785,0,0
770,239,0,0,0,0,0,0,0,0,0,-1,1994,785,0,0
777,239,0,0,0,0,0,0,0,0,0,-1,2001,785,0,0
784,239,0,0,0,0,0,0,0,0,0,-1,2008,785,0,0
791,239,0,0,0,0,0,0,0,0,0,-1,2015,785,0,0
798,239,0,0,0,0,0,0,0,0,0,-1,2022,785,0,0
805,239,0,0,0,0,0,0,0,0,0,-1,2029,785,0,0
812,239,0,0,0,0,0,0,0,0,0,-1,2036,785,0,0
-700,232,0,0,0,0,0,0,0,0,0,-1,524,792,0,0
-693,232,0,0,0,0,0,0,0,0,0,-1,531,792,0,0
-686,232,0,0,0,0,0,0,0,0,0,-1,538,792,0,0
-679,232,0,0,0,0,0,0,0,0,0,-1,545,792,0,0
-672,232,0,0,0,0,0,0,0,0,0,-1,552,792,0,0
-665,232,0,0,0,0,0,0,0,0,0,-1,559,792,0,0
-658,232,0,0,0,0,0,0,0,0,0,-1,566,792,0,0
-651,232,0,0,0,0,0,0,0,0,0,-1,573,792,0,0
-644,232,-1.11469,3.73914,0,0,0,0,0,0,0,-1,580,792,-1.1147,-3.73915
-637,232,-5.75153,1.53027,0,0,0,0,0,0,0,-1,587,792,-5.75153,-1.53027
-630,232,-5.08008,1.30646,0.00340067,0.0480855,0.00288647,0.0482712,0.00321499,1.50656,0.0311645,0.0473625,594,792,-5.0801,-1.30645
-623,232,-4.69122,1.3067,0.00833932,0.0356091,0.00300965,0.0359374,0.0080111,1.46217,0.0217845,0.0432959,601,792,-4.6912,-1.30669
-616,232,-3.68066,1.19977,0.0111249,0.0251351,0.00252463,0.0255761,0.0106838,1.39784,0.0148329,0.0431408,608,792,-3.68064,-1.19978
-609,232,-2.91052,1.40454,0.0121846,0.0166303,0.00178922,0.017261,0.011554,1.23193,0.0101544,0.0457347,615,792,-2.91054,-1.40456
-602,232,-2.27435,1.27979,0.0119651,0.0101359,0.00116024,0.0125279,0.00957314,0.451617,0.00756195,0.0464773,622,792,-2.27434,-1.27977
-595,232,-1.71057,0.92865,0.0109996,0.00517421,0.000768698,0.0110993,0.00507448,0.129015,0.00641603,0.0342946,629,792,-1.71055,-0.928628
-588,232,-1.58734,0.757813,0.00974611,0.00161316,0.000281895,0.00975587,0.0016034,0.0346055,0.0060408,0.0121065,636,792,-1.58735,-0.757784
-581,232,-1.55273,0.699768,0.00806895,-0.000609061,8.97978e-05,0.00806988,-0.00060999,0.0103463,0.00559434,0.00884276,643,792,-1.55274,-0.699787
-574,232,-1.55328,0.644714,0.00569388,-0.00298437,-0.00031392,0.00570522,-0.00299571,-0.0361102,0.00510403,0.0089304,650,792,-1.55329,-0.644728
-567,232,-1.58112,0.572144,0.00272897,-0.00324598,6.58967e-05,0.0027297,-0.00324671,0.011027,0.00345478,0.00951979,657,792,-1.58112,-0.572124
-560,232,-1.58392,0.519714,-0.000216255,-0.00304797,0.000780443,-1.54048e-05,-0.00324882,0.251888,0.00216077,0.011299,664,792,-1.58393,-0.519686
-553,232,-1.59229,0.464661,-0.0024826,-0.00242052,0.00158347,-0.000867781,-0.00403534,0.795199,0.00245268,0.0118986,671,792,-1.59228,-0.464668
-546,232,-1.64502,0.409668,-0.00346379,-0.00221687,0.0023433,-0.000415506,-0.00526515,0.915417,0.00338012,0.0188721,678,792,-1.64502,-0.409682
-539,232,-1.62238,0.342163,-0.00420921,-0.00209314,0.00221924,-0.000692626,-0.00560973,1.00784,0.00353166,0.0227608,685,792,-1.62236,-0.342155
-532,232,-1.56537,0.280823,-0.00489734,-0.00224012,0.0018644,-0.00127937,-0.00585809,1.09497,0.00355649,0.0139995,692,792,-1.56537,-0.280804
-525,232,-1.56049,0.252075,-0.00559672,-0.00243593,0.00149146,-0.00184328,-0.00618937,1.19257,0.00366953,0.0212556,699,792,-1.56046,-0.252095
-518,232,-1.59802,0.21936,-0.0060357,-0.00257936,0.000954474,-0.00233329,-0.00628176,1.31849,0.00366652,0.0425631,706,792,-1.59803,-0.219332
-511,232,-1.71136,0.133057,-0.00645824,-0.00247546,8.69489e-05,-0.00247357,-0.00646014,1.54898,0.00376371,0.0441857,713,792,-1.71135,-0.133032
-504,232,-1.74384,0.0775146,0,0,0,0,0,0,0,-1,720,792,-1.74386,-0.0775083
-497,232,-2.21857,0.105713,0,0,0,0,0,0,0,-1,727,792,-2.21856,-0.105704
-490,232,-2.88751,0.933105,-0.00718766,-0.00141056,-0.00337097,0.000140164,-0.00873839,-1.13964,0.00587287,0.0452221,734,792,-2.88749,-0.933108
-483,232,-2.89178,0.893372,-0.00773028,-0.000911159,-0.00450592,0.0013298,-0.00997124,-1.10928,0.0071322,0.0469052,741,792,-2.89179,-0.89338
-476,232,-2.9472,0.839294,-0.00900181,-0.000481567,-0.00500352,0.00182975,-0.0113131,-1.13806,0.00822017,0.0368908,748,792,-2.94718,-0.839298
-469,232,-3.05237,0.794922,-0.0117682,-0.000793397,-0.00381383,0.000401781,-0.0129634,-1.26711,0.00877923,0.0331135,755,792,-3.05235,-0.794894
-462,232,0,0,0,0,0,0,0,0,0,-1,762,792,0,0
-455,232,0,0,0,0,0,0,0,0,0,-1,769,792,0,0
-448,232,0,0,0,0,0,0,0,0,0,-1,776,792,0,0
-441,232,0,0,0,0,0,0,0,0,0,-1,783,792,0,0
-434,232,0,0,0,0,0,0,0,0,0,-1,790,792,0,0
-427,232,0,0,0,0,0,0,0,0,0,-1,797,792,0,0
-420,232,0,0,0,0,0,0,0,0,0,-1,804,792,0,0
-413,232,0,0,0,0,0,0,0,0,0,-1,811,792,0,0
-406,232,0,0,0,0,0,0,0,0,0,-1,818,792,0,0
-399,232,0,0,0,0,0,0,0,0,0,-1,825,792,0,0
-392,232,0,0,0,0,0,0,0,0,0,-1,832,792,0,0
-385,232,0,0,0,0,0,0,0,0,0,-1,839,792,0,0
-378,232,0,0,0,0,0,0,0,0,0,-1,846,792,0,0
-371,232,0,0,0,0,0,0,0,0,0,-1,853,792,0,0
-364,232,0,0,0,0,0,0,0,0,0,-1,860,792,0,0
-357,232,0,0,0,0,0,0,0,0,0,-1,867,792,0,0
-350,232,0,0,0,0,0,0,0,0,0,-1,874,792,0,0
-343,232,0,0,0,0,0,0,0,0,0,-1,881,792,0,0
-336,232,0,0,0,0,0,0,0,0,0,-1,888,792,0,0
-329,232,0,0,0,0,0,0,0,0,0,-1,895,792,0,0
-322,232,0,0,0,0,0,0,0,0,0,-1,902,792,0,0
-315,232,0,0,0,0,0,0,0,0,0,-1,909,792,0,0
-308,232,0,0,0,0,0,0,0,0,0,-1,916,792,0,0
-301,232,0,0,0,0,0,0,0,0,0,-1,923,792,0,0
-294,232,0,0,0,0,0,0,0,0,0,-1,930,792,0,0
-287,232,0,0,0,0,0,0,0,0,0,-1,937,792,0,0
-280,232,0,0,0,0,0,0,0,0,0,-1,944,792,0,0
-273,232,0,0,0,0,0,0,0,0,0,-1,951,792,0,0
-266,232,0,0,0,0,0,0,0,0,0,-1,958,792,0,0
-259,232,0,0,0,0,0,0,0,0,0,-1,965,792,0,0
-252,232,0,0,0,0,0,0,0,0,0,-1,972,792,0,0
-245,232,0,0,0,0,0,0,0,0,0,-1,979,792,0,0
-238,232,0,0,0,0,0,0,0,0,0,-1,986,792,0,0
-231,232,0,0,0,0,0,0,0,0,0,-1,993,792,0,0
-224,232,0,0,0,0,0,0,0,0,0,-1,1000,792,0,0
-217,232,0,0,0,0,0,0,0,0,0,-1,1007,792,0,0
-210,232,0,0,0,0,0,0,0,0,0,-1,1014,792,0,0
-203,232,0,0,0,0,0,0,0,0,0,-1,1021,792,0,0
-196,232,0,0,0,0,0,0,0,0,0,-1,1028,792,0,0
-189,232,0,0,0,0,0,0,0,0,0,-1,1035,792,0,0
-182,232,0,0,0,0,0,0,0,0,0,-1,1042,792,0,0
-175,232,0,0,0,0,0,0,0,0,0,-1,1049,792,0,0
-168,232,0,0,0,0,0,0,0,0,0,-1,1056,792,0,0
-161,232,0,0,0,0,0,0,0,0,0,-1,1063,792,0,0
-154,232,0,0,0,0,0,0,0,0,0,-1,1070,792,0,0
-147,232,0,0,0,0,0,0,0,0,0,-1,1077,792,0,0
-140,232,0,0,0,0,0,0,0,0,0,-1,1084,792,0,0
-133,232,0,0,0,0,0,0,0,0,0,-1,1091,792,0,0
-126,232,0,0,0,0,0,0,0,0,0,-1,1098,792,0,0
-119,232,0,0,0,0,0,0,0,0,0,-1,1105,792,0,0
-112,232,0,0,0,0,0,0,0,0,0,-1,1112,792,0,0
-105,232,0,0,0,0,0,0,0,0,0,-1,1119,792,0,0
-98,232,0,0,0,0,0,0,0,0,0,-1,1126,792,0,0
-91,232,0,0,0,0,0,0,0,0,0,-1,1133,792,0,0
-84,232,0,0,0,0,0,0,0,0,0,-1,1140,792,0,0
-77,232,0,0,0,0,0,0,0,0,0,-1,1147,792,0,0
-70,232,0,0,0,0,0,0,0,0,0,-1,1154,792,0,0
-63,232,0,0,0,0,0,0,0,0,0,-1,1161,792,0,0
-56,232,0,0,0,0,0,0,0,0,0,-1,1168,792,0,0
-49,232,0,0,0,0,0,0,0,0,0,-1,1175,792,0,0
-42,232,0,0,0,0,0,0,0,0,0,-1,1182,792,0,0
-35,232,0,0,0,0,0,0,0,0,0,-1,1189,792,0,0
-28,232,0,0,0,0,0,0,0,0,0,-1,1196,792,0,0
-21,232,0,0,0,0,0,0,0,0,0,-1,1203,792,0,0
-14,232,0,0,0,0,0,0,0,0,0,-1,1210,792,0,0
-7,232,0,0,0,0,0,0,0,0,0,-1,1217,792,0,0
0,232,0,0,0,0,0,0,0,0,0,-1,1224,792,0,0
7,232,0,0,0,0,0,0,0,0,0,-1,1231,792,0,0
14,232,0,0,0,0,0,0,0,0,0,-1,1238,792,0,0
21,232,0,0,0,0,0,0,0,0,0,-1,1245,792,0,0
28,232,0,0,0,0,0,0,0,0,0,-1,1252,792,0,0
35,232,0,0,0,0,0,0,0,0,0,-1,1259,792,0,0
42,232,0,0,0,0,0,0,0,0,0,-1,1266,792,0,0
49,232,0,0,0,0,0,0,0,0,0,-1,1273,792,0,0
56,232,0,0,0,0,0,0,0,0,0,-1,1280,792,0,0
63,232,0,0,0,0,0,0,0,0,0,-1,1287,792,0,0
70,232,0,0,0,0,0,0,0,0,0,-1,1294,792,0,0
77,232,0,0,0,0,0,0,0,0,0,-1,1301,792,0,0
84,232,0,0,0,0,0,0,0,0,0,-1,1308,792,0,0
91,232,0,0,0,0,0,0,0,0,0,-1,1315,792,0,0
98,232,0,0,0,0,0,0,0,0,0,-1,1322,792,0,0
105,232,0,0,0,0,0,0,0,0,0,-1,1329,792,0,0
112,232,0,0,0,0,0,0,0,0,0,-1,1336,792,0,0
119,232,0,0,0,0,0,0,0,0,0,-1,1343,792,0,0
126,232,0,0,0,0,0,0,0,0,0,-1,1350,792,0,0
133,232,0,0,0,0,0,0,0,0,0,-1,1357,792,0,0
140,232,0,0,0,0,0,0,0,0,0,-1,1364,792,0,0
147,232,0,0,0,0,0,0,0,0,0,-1,1371,792,0,0
154,232,0,0,0,0,0,0,0,0,0,-1,1378,792,0,0
161,232,0,0,0,0,0,0,0,0,0,-1,1385,792,0,0
168,232,0,0,0,0,0,0,0,0,0,-1,1392,792,0,0
175,232,0,0,0,0,0,0,0,0,0,-1,1399,792,0,0
182,232,0,0,0,0,0,0,0,0,0,-1,1406,792,0,0
189,232,0,0,0,0,0,0,0,0,0,-1,1413,792,0,0
196,232,0,0,0,0,0,0,0,0,0,-1,1420,792,0,0
203,232,0,0,0,0,0,0,0,0,0,-1,1427,792,0,0
210,232,0,0,0,0,0,0,0,0,0,-1,1434,792,0,0
217,232,0,0,0,0,0,0,0,0,0,-1,1441,792,0,0
224,232,0,0,0,0,0,0,0,0,0,-1,1448,792,0,0
231,232,0,0,0,0,0,0,0,0,0,-1,1455,792,0,0
238,232,0,0,0,0,0,0,0,0,0,-1,1462,792,0,0
245,232,0,0,0,0,0,0,0,0,0,-1,1469,792,0,0
252,232,0,0,0,0,0,0,0,0,0,-1,1476,792,0,0
259,232,0,0,0,0,0,0,0,0,0,-1,1483,792,0,0
266,232,0,0,0,0,0,0,0,0,0,-1,1490,792,0,0
273,232,0,0,0,0,0,0,0,0,0,-1,1497,792,0,0
280,232,0,0,0,0,0,0,0,0,0,-1,1504,792,0,0
287,232,0,0,0,0,0,0,0,0,0,-1,1511,792,0,0
294,232,0,0,0,0,0,0,0,0,0,-1,1518,792,0,0
301,232,0,0,0,0,0,0,0,0,0,-1,1525,792,0,0
308,232,0,0,0,0,0,0,0,0,0,-1,1532,792,0,0
315,232,0,0,0,0,0,0,0,0,0,-1,1539,792,0,0
322,232,0,0,0,0,0,0,0,0,0,-1,1546,792,0,0
329,232,0,0,0,0,0,0,0,0,0,-1,1553,792,0,0
336,232,0,0,0,0,0,0,0,0,0,-1,1560,792,0,0
343,232,0,0,0,0,0,0,0,0,0,-1,1567,792,0,0
350,232,0,0,0,0,0,0,0,0,0,-1,1574,792,0,0
357,232,0,0,0,0,0,0,0,0,0,-1,1581,792,0,0
364,232,0,0,0,0,0,0,0,0,0,-1,1588,792,0,0
371,232,0,0,0,0,0,0,0,0,0,-1,1595,792,0,0
378,232,0,0,0,0,0,0,0,0,0,-1,1602,792,0,0
385,232,0,0,0,0,0,0,0,0,0,-1,1609,792,0,0
392,232,0,0,0,0,0,0,0,0,0,-1,1616,792,0,0
399,232,0,0,0,0,0,0,0,0,0,-1,1623,792,0,0
406,232,0,0,0,0,0,0,0,0,0,-1,1630,792,0,0
413,232,0,0,0,0,0,0,0,0,0,-1,1637,792,0,0
420,232,0,0,0,0,0,0,0,0,0,-1,1644,792,0,0
427,232,0,0,0,0,0,0,0,0,0,-1,1651,792,0,0
434,232,0,0,0,0,0,0,0,0,0,-1,1658,792,0,0
441,232,0,0,0,0,0,0,0,0,0,-1,1665,792,0,0
448,232,0,0,0,0,0,0,0,0,0,-1,1672,792,0,0
455,232,0,0,0,0,0,0,0,0,0,-1,1679,792,0,0
462,232,0,0,0,0,0,0,0,0,0,-1,1686,792,0,0
469,232,0,0,0,0,0,0,0,0,0,-1,1693,792,0,0
476,232,0,0,0,0,0,0,0,0,0,-1,1700,792,0,0
483,232,0,0,0,0,0,0,0,0,0,-1,1707,792,0,0
490,232,0,0,0,0,0,0,0,0,0,-1,1714,792,0,0
497,232,0,0,0,0,0,0,0,0,0,-1,1721,792,0,0
504,232,0,0,0,0,0,0,0,0,0,-1,1728,792,0,0
511,232,0,0,0,0,0,0,0,0,0,-1,1735,792,0,0
518,232,0,0,0,0,0,0,0,0,0,-1,1742,792,0,0
525,232,0,0,0,0,0,0,0,0,0,-1,1749,792,0,0
532,232,0,0,0,0,0,0,0,0,0,-1,1756,792,0,0
539,232,0,0,0,0,0,0,0,0,0,-1,1763,792,0,0
546,232,0,0,0,0,0,0,0,0,0,-1,1770,792,0,0
553,232,0,0,0,0,0,0,0,0,0,-1,1777,792,0,0
560,232,0,0,0,0,0,0,0,0,0,-1,1784,792,0,0
567,232,0,0,0,0,0,0,0,0,0,-1,1791,792,0,0
574,232,0,0,0,0,0,0,0,0,0,-1,1798,792,0,0
581,232,0,0,0,0,0,0,0,0,0,-1,1805,792,0,0
588,232,7.18677,1.16919,0.00646885,0.00377487,-0.00142091,0.00707976,0.00316396,-0.406049,0.00409518,0.0364639,1812,792,7.18678,-1.16918
595,232,7.24243,1.11768,0.00045377,-0.00320265,0.00197117,0.00131403,-0.00406291,0.411505,0.00323678,0.0351194,1819,792,7.24243,-1.11767
602,232,7.20154,1.05353,-0.00203582,-0.00837441,0.00377959,-0.000272601,-0.0101376,0.4365,0.00666941,0.0344301,1826,792,7.2015,-1.05353
609,232,7.19714,1.03998,-0.00264604,-0.0114977,0.00439741,-0.00083287,-0.0133109,0.391088,0.00860975,0.0372082,1833,792,7.19714,-1.03998
616,232,7.08862,1.1272,-0.0022944,-0.0130822,0.00435952,-0.00075292,-0.0146237,0.33987,0.00950809,0.0397139,1840,792,7.08864,-1.12723
623,232,4.23083,3.29901,0,0,0,0,0,0,0,-1,1847,792,4.23089,-3.299
630,232,4.13403,2.21564,0,0,0,0,0,0,0,-1,1854,792,4.13399,-2.21563
637,232,4.41785,1.76617,0,0,0,0,0,0,0,-1,1861,792,4.4178,-1.76619
644,232,4.745,1.38336,0.00103318,-0.0104712,0.00197703,0.00136345,-0.0108015,0.165526,0.00769582,0.0441708,1868,792,4.74504,-1.38335
651,232,5.65784,0.565491,0.00197772,-0.00899289,0.00119154,0.00210564,-0.00912081,0.10695,0.00689051,0.0401949,1875,792,5.65779,-0.565488
658,232,5.86499,0.645569,0.00277119,-0.00749721,0.00052326,0.00279779,-0.00752381,0.0507829,0.00616388,0.021945,1882,792,5.86503,-0.645587
665,232,5.85693,0.655823,0.00319401,-0.00597249,-1.70481e-05,0.00319404,-0.00597252,-0.00185982,0.00537275,0.0112678,1889,792,5.85689,-0.655845
672,232,5.84448,0.705017,0.00290448,-0.00434317,-0.000174587,0.00290868,-0.00434737,-0.0240701,0.00421665,0.0164254,1896,792,5.84444,-0.705016
679,232,5.88501,0.778625,0.00212771,-0.00232191,-0.000147717,0.00213261,-0.00232681,-0.033149,0.00257546,0.0174607,1903,792,5.88505,-0.778628
686,232,5.90637,0.842712,0.00126575,-0.000257083,-0.000508632,0.00142001,-0.000411342,-0.294465,0.0011095,0.0165994,1910,792,5.90637,-0.842688
693,232,5.88367,0.890625,0.000606305,0.000245315,-0.000430106,0.000892254,-4.06341e-05,-0.586732,0.000608833,0.0103162,1917,792,5.88372,-0.890635
700,232,5.87219,0.945679,-0.000817042,0.00141429,-0.00031954,0.00145915,-0.0008619,-1.43132,0.00135476,0.0129878,1924,792,5.87224,-0.945671
707,232,5.87158,1.02118,-0.00153757,0.00155528,-0.000235363,0.00157309,-0.00155538,-1.49528,0.00180623,0.0126149,1931,792,5.87161,-1.02118
714,232,5.86951,1.09045,-0.00187459,0.00106965,-0.000233684,0.00108808,-0.00189302,-1.49208,0.00174193,0.0126154,1938,792,5.8695,-1.09047
721,232,5.86267,1.13983,-0.00229343,0.000611288,-0.000299295,0.000641806,-0.00232395,-1.46918,0.00180175,0.015615,1945,792,5.86266,-1.13985
728,232,5.78467,1.15625,-0.00254697,-0.000642486,-0.000412301,-0.000557059,-0.00263239,-1.36649,0.00160186,0.0295526,1952,792,5.78466,-1.15623
735,232,5.70654,1.16107,-0.00256655,-0.00311151,-0.000553179,-0.00222238,-0.00345568,-0.556553,0.00202219,0.0439049,1959,792,5.70656,-1.16109
742,232,5.73071,1.14581,-0.00228071,-0.00732694,-0.000748719,-0.00217197,-0.00743569,-0.144233,0.00441497,0.0455955,1966,792,5.73069,-1.14579
749,232,5.71582,1.1615,0,0,0,0,0,0,0,-1,1973,792,5.71588,-1.16149
756,232,5.72791,-1.78357,0,0,0,0,0,0,0,-1,1980,792,5.72792,1.78354
763,232,6.1272,-1.57727,0,0,0,0,0,0,0,-1,1987,792,6.12716,1.57729
770,232,0,0,0,0,0,0,0,0,0,-1,1994,792,0,0
777,232,0,0,0,0,0,0,0,0,0,-1,2001,792,0,0
784,232,0,0,0,0,0,0,0,0,0,-1,2008,792,0,0
791,232,0,0,0,0,0,0,0,0,0,-1,2015,792,0,0
798,232,0,0,0,0,0,0,0,0,0,-1,2022,792,0,0
805,232,0,0,0,0,0,0,0,0,0,-1,2029,792,0,0
812,232,0,0,0,0,0,0,0,0,0,-1,2036,792,0,0
-700,225,0,0,0,0,0,0,0,0,0,-1,524,799,0,0
-693,225,0,0,0,0,0,0,0,0,0,-1,531,799,0,0
-686,225,0,0,0,0,0,0,0,0,0,-1,538,799,0,0
-679,225,0,0,0,0,0,0,0,0,0,-1,545,799,0,0
-672,225,0,0,0,0,0,0,0,0,0,-1,552,799,0,0
-665,225,0,0,0,0,0,0,0,0,0,-1,559,799,0,0
-658,225,0,0,0,0,0,0,0,0,0,-1,566,799,0,0
-651,225,0,0,0,0,0,0,0,0,0,-1,573,799,0,0
-644,225,-1.2207,3.15454,-0.0164343,0.0736157,0.00453241,0.0738433,-0.0166618,1.52063,0.055621,0.0475217,580,799,-1.22068,-3.15454
-637,225,-1.97107,3.42267,-0.00584578,0.0588525,0.00685828,0.0595715,-0.0065648,1.46634,0.0420737,0.0462008,587,799,-1.97106,-3.42264
-630,225,-6.41852,0.96814,0,0,0,0,0,0,0,-1,594,799,-6.41855,-0.968136
-623,225,-5.50958,0.961182,0.00682484,0.0340705,0.00729756,0.035902,0.00499335,1.3249,0.022456,0.0485339,601,799,-5.50961,-0.961173
-616,225,-4.54559,0.865417,0.00985018,0.0243247,0.00642017,0.026762,0.00741292,1.20798,0.0159551,0.0452406,608,799,-4.54557,-0.865391
-609,225,-3.62427,1.52838,0.0111761,0.0163526,0.00525646,0.0196235,0.00790525,1.01417,0.0114007,0.0458283,615,799,-3.62425,-1.5284
-602,225,-2.29224,1.48676,0,0,0,0,0,0,0,-1,622,799,-2.29223,-1.48676
-595,225,-1.72632,0.835388,0.0105119,0.00545643,0.003329,0.0121641,0.00380425,0.460682,0.00718523,0.0278357,629,799,-1.72631,-0.835386
-588,225,-1.64862,0.74762,0.00939003,0.0019544,0.00230438,0.0100463,0.00129816,0.277434,0.00630946,0.0118853,636,799,-1.64859,-0.747631
-581,225,-1.60455,0.698975,0.00777036,-0.000327645,0.00161723,0.00808138,-0.000638672,0.190001,0.0056126,0.0101808,643,799,-1.60454,-0.698971
-574,225,-1.60199,0.633667,0.00542086,-0.00257336,0.000762425,0.00549292,-0.00264542,0.09424,0.00479358,0.00825044,650,799,-1.60196,-0.633658
-567,225,-1.62097,0.55896,0.00229701,-0.0029929,0.000885821,0.0024414,-0.00313729,0.161585,0.0032292,0.0100456,657,799,-1.62097,-0.558979
-560,225,-1.638,0.502808,-0.000848388,-0.00295429,0.00134754,-0.000191198,-0.00361148,0.453755,0.00234652,0.0104512,664,799,-1.63798,-0.502788
-553,225,-1.65656,0.451294,-0.00322621,-0.00248483,0.00195472,-0.000865959,-0.00484508,0.879105,0.00298359,0.0107154,671,799,-1.65655,-0.451321
-546,225,-1.7207,0.407959,-0.0043412,-0.00237004,0.00262974,-0.000547261,-0.00616398,0.964688,0.00393959,0.0192456,678,799,-1.72072,-0.407978
-539,225,-1.7124,0.379089,-0.0051493,-0.00234104,0.00262027,-0.000772391,-0.00671795,1.03136,0.00424466,0.0216338,685,799,-1.71239,-0.379096
-532,225,-1.64087,0.298401,-0.00584196,-0.00253137,0.00243221,-0.00124462,-0.00712871,1.08418,0.00439672,0.0140542,692,799,-1.64085,-0.298389
-525,225,-1.65875,0.260559,-0.00648672,-0.00274288,0.00217832,-0.00174267,-0.00748693,1.14034,0.00452371,0.0312818,699,799,-1.65874,-0.260537
-518,225,-1.6593,0.261108,-0.00686073,-0.00287565,0.00169903,-0.00224962,-0.00748676,1.21777,0.00443572,0.0405068,706,799,-1.65929,-0.261097
-511,225,-1.74481,0.254883,-0.00704181,-0.00276399,0.000873883,-0.00259236,-0.00721344,1.37686,0.00421923,0.0437968,713,799,-1.74481,-0.254858
-504,225,-3.31158,0.805969,0,0,0,0,0,0,0,-1,720,799,-3.31158,-0.805957
-497,225,-3.10791,0.860046,-0.00666532,-0.00210048,-0.00151594,-0.00164292,-0.00712289,-1.27766,0.00430671,0.0417932,727,799,-3.10793,-0.860028
-490,225,-2.91248,0.890503,-0.00623379,-0.00160346,-0.00299318,-0.000134562,-0.00770268,-1.11458,0.00509086,0.0384627,734,799,-2.91245,-0.890477
-483,225,-2.91785,0.878479,-0.00590014,-0.00111734,-0.00440125,0.00150024,-0.00851772,-1.03426,0.00623897,0.0345896,741,799,-2.91782,-0.878484
-476,225,-2.974,0.89978,-0.00613629,-0.000769555,-0.00521099,0.00240838,-0.00931422,-1.02316,0.00714881,0.0318251,748,799,-2.974,-0.899762
-469,225,-3.04065,0.976807,-0.00769197,-0.00157215,-0.00411738,0.000497842,-0.00976196,-1.10496,0.00668011,0.0353541,755,799,-3.04063,-0.976837
-462,225,0,0,0,0,0,0,0,0,0,-1,762,799,0,0
-455,225,0,0,0,0,0,0,0,0,0,-1,769,799,0,0
-448,225,0,0,0,0,0,0,0,0,0,-1,776,799,0,0
-441,225,0,0,0,0,0,0,0,0,0,-1,783,799,0,0
-434,225,0,0,0,0,0,0,0,0,0,-1,790,799,0,0
-427,225,0,0,0,0,0,0,0,0,0,-1,797,799,0,0
-420,225,0,0,0,0,0,0,0,0,0,-1,804,799,0,0
-413,225,0,0,0,0,0,0,0,0,0,-1,811,799,0,0
-406,225,0,0,0,0,0,0,0,0,0,-1,818,799,0,0
-399,225,0,0,0,0,0,0,0,0,0,-1,825,799,0,0
-392,225,0,0,0,0,0,0,0,0,0,-1,832,799,0,0
-385,225,0,0,0,0,0,0,0,0,0,-1,839,799,0,0
-378,225,0,0,0,0,0,0,0,0,0,-1,846,799,0,0
-371,225,0,0,0,0,0,0,0,0,0,-1,853,799,0,0
-364,225,0,0,0,0,0,0,0,0,0,-1,860,799,0,0
-357,225,0,0,0,0,0,0,0,0,0,-1,867,799,0,0
-350,225,0,0,0,0,0,0,0,0,0,-1,874,799,0,0
-343,225,0,0,0,0,0,0,0,0,0,-1,881,799,0,0
-336,225,0,0,0,0,0,0,0,0,0,-1,888,799,0,0
-329,225,0,0,0,0,0,0,0,0,0,-1,895,799,0,0
-322,225,0,0,0,0,0,0,0,0,0,-1,902,799,0,0
-315,225,0,0,0,0,0,0,0,0,0,-1,909,799,0,0
-308,225,0,0,0,0,0,0,0,0,0,-1,916,799,0,0
-301,225,0,0,0,0,0,0,0,0,0,-1,923,799,0,0
-294,225,0,0,0,0,0,0,0,0,0,-1,930,799,0,0
-287,225,0,0,0,0,0,0,0,0,0,-1,937,799,0,0
-280,225,0,0,0,0,0,0,0,0,0,-1,944,799,0,0
-273,225,0,0,0,0,0,0,0,0,0,-1,951,799,0,0
-266,225,0,0,0,0,0,0,0,0,0,-1,958,799,0,0
-259,225,0,0,0,0,0,0,0,0,0,-1,965,799,0,0
-252,225,0,0,0,0,0,0,0,0,0,-1,972,799,0,0
-245,225,0,0,0,0,0,0,0,0,0,-1,979,799,0,0
-238,225,0,0,0,0,0,0,0,0,0,-1,986,799,0,0
-231,225,0,0,0,0,0,0,0,0,0,-1,993,799,0,0
-224,225,0,0,0,0,0,0,0,0,0,-1,1000,799,0,0
-217,225,0,0,0,0,0,0,0,0,0,-1,1007,799,0,0
-210,225,0,0,0,0,0,0,0,0,0,-1,1014,799,0,0
-203,225,0,0,0,0,0,0,0,0,0,-1,1021,799,0,0
-196,225,0,0,0,0,0,0,0,0,0,-1,1028,799,0,0
-189,225,0,0,0,0,0,0,0,0,0,-1,1035,799,0,0
-182,225,0,0,0,0,0,0,0,0,0,-1,1042,799,0,0
-175,225,0,0,0,0,0,0,0,0,0,-1,1049,799,0,0
-168,225,0,0,0,0,0,0,0,0,0,-1,1056,799,0,0
-161,225,0,0,0,0,0,0,0,0,0,-1,1063,799,0,0
-154,225,0,0,0,0,0,0,0,0,0,-1,1070,799,0,0
-147,225,0,0,0,0,0,0,0,0,0,-1,1077,799,0,0
-140,225,0,0,0,0,0,0,0,0,0,-1,1084,799,0,0
-133,225,0,0,0,0,0,0,0,0,0,-1,1091,799,0,0
-126,225,0,0,0,0,0,0,0,0,0,-1,1098,799,0,0
-119,225,0,0,0,0,0,0,0,0,0,-1,1105,799,0,0
-112,225,0,0,0,0,0,0,0,0,0,-1,1112,799,0,0
-105,225,0,0,0,0,0,0,0,0,0,-1,1119,799,0,0
-98,225,0,0,0,0,0,0,0,0,0,-1,1126,799,0,0
-91,225,0,0,0,0,0,0,0,0,0,-1,1133,799,0,0
-84,225,0,0,0,0,0,0,0,0,0,-1,1140,799,0,0
-77,225,0,0,0,0,0,0,0,0,0,-1,1147,799,0,0
-70,225,0,0,0,0,0,0,0,0,0,-1,1154,799,0,0
-63,225,0,0,0,0,0,0,0,0,0,-1,1161,799,0,0
-56,225,0,0,0,0,0,0,0,0,0,-1,1168,799,0,0
-49,225,0,0,0,0,0,0,0,0,0,-1,1175,799,0,0
-42,225,0,0,0,0,0,0,0,0,0,-1,1182,799,0,0
-35,225,0,0,0,0,0,0,0,0,0,-1,1189,799,0,0
-28,225,0,0,0,0,0,0,0,0,0,-1,1196,799,0,0
-21,225,0,0,0,0,0,0,0,0,0,-1,1203,799,0,0
-14,225,0,0,0,0,0,0,0,0,0,-1,1210,799,0,0
-7,225,0,0,0,0,0,0,0,0,0,-1,1217,799,0,0
0,225,0,0,0,0,0,0,0,0,0,-1,1224,799,0,0
7,225,0,0,0,0,0,0,0,0,0,-1,1231,799,0,0
14,225,0,0,0,0,0,0,0,0,0,-1,1238,799,0,0
21,225,0,0,0,0,0,0,0,0,0,-1,1245,799,0,0
28,225,0,0,0,0,0,0,0,0,0,-1,1252,799,0,0
35,225,0,0,0,0,0,0,0,0,0,-1,1259,799,0,0
42,225,0,0,0,0,0,0,0,0,0,-1,1266,799,0,0
49,225,0,0,0,0,0,0,0,0,0,-1,1273,799,0,0
56,225,0,0,0,0,0,0,0,0,0,-1,1280,799,0,0
63,225,0,0,0,0,0,0,0,0,0,-1,1287,799,0,0
70,225,0,0,0,0,0,0,0,0,0,-1,1294,799,0,0
77,225,0,0,0,0,0,0,0,0,0,-1,1301,799,0,0
84,225,0,0,0,0,0,0,0,0,0,-1,1308,799,0,0
91,225,0,0,0,0,0,0,0,0,0,-1,1315,799,0,0
98,225,0,0,0,0,0,0,0,0,0,-1,1322,799,0,0
105,225,0,0,0,0,0,0,0,0,0,-1,1329,799,0,0
112,225,0,0,0,0,0,0,0,0,0,-1,1336,799,0,0
119,225,0,0,0,0,0,0,0,0,0,-1,1343,799,0,0
126,225,0,0,0,0,0,0,0,0,0,-1,1350,799,0,0
133,225,0,0,0,0,0,0,0,0,0,-1,1357,799,0,0
140,225,0,0,0,0,0,0,0,0,0,-1,1364,799,0,0
147,225,0,0,0,0,0,0,0,0,0,-1,1371,799,0,0
154,225,0,0,0,0,0,0,0,0,0,-1,1378,799,0,0
161,225,0,0,0,0,0,0,0,0,0,-1,1385,799,0,0
168,225,0,0,0,0,0,0,0,0,0,-1,1392,799,0,0
175,225,0,0,0,0,0,0,0,0,0,-1,1399,799,0,0
182,225,0,0,0,0,0,0,0,0,0,-1,1406,799,0,0
189,225,0,0,0,0,0,0,0,0,0,-1,1413,799,0,0
196,225,0,0,0,0,0,0,0,0,0,-1,1420,799,0,0
203,225,0,0,0,0,0,0,0,0,0,-1,1427,799,0,0
210,225,0,0,0,0,0,0,0,0,0,-1,1434,799,0,0
217,225,0,0,0,0,0,0,0,0,0,-1,1441,799,0,0
224,225,0,0,0,0,0,0,0,0,0,-1,1448,799,0,0
231,225,0,0,0,0,0,0,0,0,0,-1,1455,799,0,0
238,225,0,0,0,0,0,0,0,0,0,-1,1462,799,0,0
245,225,0,0,0,0,0,0,0,0,0,-1,1469,799,0,0
252,225,0,0,0,0,0,0,0,0,0,-1,1476,799,0,0
259,225,0,0,0,0,0,0,0,0,0,-1,1483,799,0,0
266,225,0,0,0,0,0,0,0,0,0,-1,1490,799,0,0
273,225,0,0,0,0,0,0,0,0,0,-1,1497,799,0,0
280,225,0,0,0,0,0,0,0,0,0,-1,1504,799,0,0
287,225,0,0,0,0,0,0,0,0,0,-1,1511,799,0,0
294,225,0,0,0,0,0,0,0,0,0,-1,1518,799,0,0
301,225,0,0,0,0,0,0,0,0,0,-1,1525,799,0,0
308,225,0,0,0,0,0,0,0,0,0,-1,1532,799,0,0
315,225,0,0,0,0,0,0,0,0,0,-1,1539,799,0,0
322,225,0,0,0,0,0,0,0,0,0,-1,1546,799,0,0
329,225,0,0,0,0,0,0,0,0,0,-1,1553,799,0,0
336,225,0,0,0,0,0,0,0,0,0,-1,1560,799,0,0
343,225,0,0,0,0,0,0,0,0,0,-1,1567,799,0,0
350,225,0,0,0,0,0,0,0,0,0,-1,1574,799,0,0
357,225,0,0,0,0,0,0,0,0,0,-1,1581,799,0,0
364,225,0,0,0,0,0,0,0,0,0,-1,1588,799,0,0
371,225,0,0,0,0,0,0,0,0,0,-1,1595,799,0,0
378,225,0,0,0,0,0,0,0,0,0,-1,1602,799,0,0
385,225,0,0,0,0,0,0,0,0,0,-1,1609,799,0,0
392,225,0,0,0,0,0,0,0,0,0,-1,1616,799,0,0
399,225,0,0,0,0,0,0,0,0,0,-1,1623,799,0,0
406,225,0,0,0,0,0,0,0,0,0,-1,1630,799,0,0
413,225,0,0,0,0,0,0,0,0,0,-1,1637,799,0,0
420,225,0,0,0,0,0,0,0,0,0,-1,1644,799,0,0
427,225,0,0,0,0,0,0,0,0,0,-1,1651,799,0,0
434,225,0,0,0,0,0,0,0,0,0,-1,1658,799,0,0
441,225,0,0,0,0,0,0,0,0,0,-1,1665,799,0,0
448,225,0,0,0,0,0,0,0,0,0,-1,1672,799,0,0
455,225,0,0,0,0,0,0,0,0,0,-1,1679,799,0,0
462,225,0,0,0,0,0,0,0,0,0,-1,1686,799,0,0
469,225,0,0,0,0,0,0,0,0,0,-1,1693,799,0,0
476,225,0,0,0,0,0,0,0,0,0,-1,1700,799,0,0
483,225,0,0,0,0,0,0,0,0,0,-1,1707,799,0,0
490,225,0,0,0,0,0,0,0,0,0,-1,1714,799,0,0
497,225,0,0,0,0,0,0,0,0,0,-1,1721,799,0,0
504,225,0,0,0,0,0,0,0,0,0,-1,1728,799,0,0
511,225,0,0,0,0,0,0,0,0,0,-1,1735,799,0,0
518,225,0,0,0,0,0,0,0,0,0,-1,1742,799,0,0
525,225,0,0,0,0,0,0,0,0,0,-1,1749,799,0,0
532,225,0,0,0,0,0,0,0,0,0,-1,1756,799,0,0
539,225,0,0,0,0,0,0,0,0,0,-1,1763,799,0,0
546,225,0,0,0,0,0,0,0,0,0,-1,1770,799,0,0
553,225,0,0,0,0,0,0,0,0,0,-1,1777,799,0,0
560,225,0,0,0,0,0,0,0,0,0,-1,1784,799,0,0
567,225,0,0,0,0,0,0,0,0,0,-1,1791,799,0,0
574,225,0,0,0,0,0,0,0,0,0,-1,1798,799,0,0
581,225,0,0,0,0,0,0,0,0,0,-1,1805,799,0,0
588,225,7.34131,1.14459,0.00588663,0.00678353,-0.0016438,0.00803895,0.0046312,-0.918564,0.00465918,0.0354711,1812,799,7.34128,-1.14461
595,225,7.29309,1.11658,-0.000520234,0.000375146,0.00144203,0.00143738,-0.00158247,0.93591,0.00174418,0.0336504,1819,799,7.29311,-1.11656
602,225,7.23633,1.10486,-0.00297319,-0.00480903,0.00313507,-0.000624418,-0.0071578,0.642984,0.00457794,0.033059,1826,799,7.23633,-1.10485
609,225,7.18311,1.09039,-0.00340866,-0.00813818,0.00370767,-0.00137582,-0.010171,0.501522,0.00637178,0.030267,1833,799,7.18312,-1.09038
616,225,7.10693,1.12476,-0.00290314,-0.00987129,0.00359686,-0.00137961,-0.0113948,0.400662,0.00718099,0.0343751,1840,799,7.10689,-1.12476
623,225,7.22083,0.992065,-0.00205703,-0.0104242,0.00315904,-0.00099829,-0.0114829,0.32338,0.00734518,0.0366144,1847,799,7.22078,-0.992072
630,225,7.18982,0.918518,-0.00122988,-0.010259,0.00265837,-0.000505331,-0.0109835,0.266089,0.00715984,0.0416122,1854,799,7.18984,-0.918499
637,225,3.89819,1.75153,0,0,0,0,0,0,0,-1,1861,799,3.89821,-1.75151
644,225,4.47034,1.46204,0,0,0,0,0,0,0,-1,1868,799,4.47038,-1.46202
651,225,5.84888,0.773682,0,0,0,0,0,0,0,-1,1875,799,5.84887,-0.773668
658,225,5.89526,0.689453,0.00178216,-0.00597398,0.000214894,0.00178811,-0.00597993,0.027678,0.0046975,0.0343109,1882,799,5.89525,-0.689447
665,225,5.92236,0.601929,0.00214279,-0.00476947,-0.000265841,0.002153,-0.00477968,-0.0383838,0.00409723,0.0126529,1889,799,5.92239,-0.601943
672,225,5.89771,0.691345,0.0019058,-0.00351991,-0.00042226,0.00193847,-0.00355257,-0.0772061,0.00321559,0.0160753,1896,799,5.89771,-0.691353
679,225,5.92798,0.767578,0.00128404,-0.00187744,-0.000412205,0.0013369,-0.0019303,-0.127543,0.00189666,0.0159574,1903,799,5.92804,-0.767608
686,225,5.93616,0.837341,0.000665023,-0.000187034,-0.000731241,0.00108529,-0.0006073,-0.521631,0.00099012,0.0103626,1910,799,5.93612,-0.837362
693,225,5.9137,0.886902,0.000309369,5.24466e-05,-0.000630212,0.000824079,-0.000462263,-0.684856,0.000752399,0.0107296,1917,799,5.91372,-0.88692
700,225,5.91724,0.94281,-0.000835128,0.000926633,-0.000541902,0.00107997,-0.000988466,-1.29504,0.0011946,0.0122791,1924,799,5.91727,-0.94278
707,225,5.92444,1.01324,-0.00127372,0.000685984,-0.000519525,0.000815193,-0.00140293,-1.32704,0.00129553,0.0114073,1931,799,5.92443,-1.01322
714,225,5.91467,1.0625,-0.00133465,-0.000209217,-0.000566125,2.62807e-05,-0.00157015,-1.17659,0.00105564,0.0119861,1938,799,5.91472,-1.06252
721,225,5.92712,1.12164,-0.00145316,-0.00109017,-0.000703151,-0.000545472,-0.00199787,-0.9117,0.00119243,0.0132219,1945,799,5.92718,-1.12161
728,225,5.92822,1.18152,-0.00136564,-0.00267271,-0.000949819,-0.000866241,-0.00317212,-0.484063,0.00189325,0.0212427,1952,799,5.92826,-1.1815
735,225,5.90735,1.18829,-0.00105587,-0.00544833,-0.00125381,-0.000723172,-0.00578102,-0.259371,0.003637,0.0403698,1959,799,5.90733,-1.18829
742,225,6.49304,1.38684,0,0,0,0,0,0,0,-1,1966,799,6.49302,-1.38682
749,225,4.13098,1.63068,0,0,0,0,0,0,0,-1,1973,799,4.13102,-1.63065
756,225,6.31494,-1.00116,0,0,0,0,0,0,0,-1,1980,799,6.3149,1.00114
763,225,6.22681,-1.06525,0,0,0,0,0,0,0,-1,1987,799,6.22676,1.06523
770,225,0,0,0,0,0,0,0,0,0,-1,1994,799,0,0
777,225,0,0,0,0,0,0,0,0,0,-1,2001,799,0,0
784,225,0,0,0,0,0,0,0,0,0,-1,2008,799,0,0
791,225,0,0,0,0,0,0,0,0,0,-1,2015,799,0,0
798,225,0,0,0,0,0,0,0,0,0,-1,2022,799,0,0
805,225,0,0,0,0,0,0,0,0,0,-1,2029,799,0,0
812,225,0,0,0,0,0,0,0,0,0,-1,2036,799,0,0
-700,218,0,0,0,0,0,0,0,0,0,-1,524,806,0,0
-693,218,0,0,0,0,0,0,0,0,0,-1,531,806,0,0
-686,218,0,0,0,0,0,0,0,0,0,-1,538,806,0,0
-679,218,0,0,0,0,0,0,0,0,0,-1,545,806,0,0
-672,218,0,0,0,0,0,0,0,0,0,-1,552,806,0,0
-665,218,0,0,0,0,0,0,0,0,0,-1,559,806,0,0
-658,218,0,0,0,0,0,0,0,0,0,-1,566,806,0,0
-651,218,-1.37695,2.65741,-0.0324158,0.0744062,0.00307789,0.0744948,-0.0325044,1.54201,0.0633418,0.0485741,573,806,-1.37695,-2.65744
-644,218,-1.44287,2.78082,-0.0191831,0.0620537,0.00783462,0.0628024,-0.0199318,1.47552,0.0498584,0.048337,580,806,-1.4429,-2.78079
-637,218,-1.8938,2.76843,-0.00912183,0.0500157,0.00996466,0.0516496,-0.0107557,1.40827,0.0385221,0.0484943,587,806,-1.89378,-2.76846
-630,218,-6.37927,0.674133,0,0,0,0,0,0,0,-1,594,806,-6.37929,-0.674155
-623,218,-5.65741,1.09998,0,0,0,0,0,0,0,-1,601,806,-5.6574,-1.09999
-616,218,-5.28925,0.592651,0,0,0,0,0,0,0,-1,608,806,-5.28925,-0.592654
-609,218,-4.11121,1.70093,0,0,0,0,0,0,0,-1,615,806,-4.11118,-1.70094
-602,218,-1.69592,0.819458,0.00909635,0.0090303,0.00636331,0.0154267,0.00269992,0.782803,0.00951309,0.0411055,622,806,-1.6959,-0.819461
-595,218,-1.72717,0.790222,0.00878193,0.00487248,0.00528025,0.0124577,0.00119676,0.608122,0.00793632,0.0169654,629,806,-1.72716,-0.790204
-588,218,-1.70526,0.738953,0.00795816,0.00179439,0.00395092,0.00988704,-0.00013449,0.454172,0.00663664,0.0104495,636,806,-1.70524,-0.738956
-581,218,-1.68787,0.701233,0.00659767,-0.000287281,0.00295382,0.00769123,-0.00138085,0.354575,0.00564436,0.00977901,643,806,-1.68789,-0.701233
-574,218,-1.68201,0.637634,0.00445503,-0.00219856,0.00182735,0.00492386,-0.00266738,0.251146,0.00444688,0.00956755,650,806,-1.68201,-0.637648
-567,218,-1.64258,0.550232,0.00143123,-0.00256215,0.00172615,0.00207393,-0.00320485,0.356427,0.00307093,0.0158187,657,806,-1.6426,-0.550241
-560,218,-1.67468,0.520874,-0.00165502,-0.00268681,0.00199961,-0.00010583,-0.004236,0.659152,0.00278939,0.0166669,664,806,-1.67468,-0.520905
-553,218,-1.65082,0.465393,-0.00399732,-0.00238426,0.00240954,-0.000649854,-0.00573173,0.946898,0.00362401,0.0175743,671,806,-1.65081,-0.465398
-546,218,-1.70184,0.396851,-0.00518106,-0.00233825,0.00296647,-0.00047023,-0.00704908,1.00881,0.00455075,0.0144818,678,806,-1.70182,-0.396866
-539,218,-1.71869,0.3573,-0.00603895,-0.00239676,0.00300866,-0.000700979,-0.00773473,1.05755,0.00493944,0.0144298,685,806,-1.71866,-0.357299
-532,218,-1.69885,0.281799,-0.00674335,-0.00260661,0.00295241,-0.00107014,-0.00827983,1.09095,0.00520001,0.0152768,692,806,-1.69886,-0.281826
-525,218,-1.89307,0.366272,-0.00733714,-0.00278353,0.00277635,-0.0014698,-0.00865087,1.12883,0.00534511,0.0409517,699,806,-1.89306,-0.366287
-518,218,-2.05005,0.455566,-0.00763993,-0.0028558,0.0023386,-0.00190256,-0.00859316,1.18375,0.00521166,0.0438292,706,806,-2.05005,-0.455543
-511,218,-2.24799,0.517578,-0.00754908,-0.00268381,0.00152231,-0.00224675,-0.00798614,1.29121,0.00475551,0.0432501,713,806,-2.24801,-0.51758
-504,218,-2.56549,0.587708,0,0,0,0,0,0,0,-1,720,806,-2.56548,-0.587724
-497,218,-2.74023,1.0343,-0.00612849,-0.00181465,-0.00115491,-0.00152492,-0.00641823,-1.325,0.00387194,0.0454003,727,806,-2.74021,-1.0343
-490,218,-2.89349,0.895325,-0.00483465,-0.0012366,-0.00289353,0.000371569,-0.00644282,-1.06352,0.00442428,0.0346286,734,806,-2.89349,-0.895316
-483,218,-2.9184,0.905151,-0.00326487,-0.000720114,-0.00471131,0.00288761,-0.00687259,-0.917286,0.0057895,0.0323679,741,806,-2.91841,-0.905142
-476,218,-2.87769,1.04883,-0.00175114,-0.000392846,-0.00610856,0.0050742,-0.00721819,-0.84076,0.00713291,0.0348965,748,806,-2.8777,-1.04882
-469,218,0,0,0,0,0,0,0,0,0,-1,755,806,0,0
-462,218,0,0,0,0,0,0,0,0,0,-1,762,806,0,0
-455,218,0,0,0,0,0,0,0,0,0,-1,769,806,0,0
-448,218,0,0,0,0,0,0,0,0,0,-1,776,806,0,0
-441,218,0,0,0,0,0,0,0,0,0,-1,783,806,0,0
-434,218,0,0,0,0,0,0,0,0,0,-1,790,806,0,0
-427,218,0,0,0,0,0,0,0,0,0,-1,797,806,0,0
-420,218,0,0,0,0,0,0,0,0,0,-1,804,806,0,0
-413,218,0,0,0,0,0,0,0,0,0,-1,811,806,0,0
-406,218,0,0,0,0,0,0,0,0,0,-1,818,806,0,0
-399,218,0,0,0,0,0,0,0,0,0,-1,825,806,0,0
-392,218,0,0,0,0,0,0,0,0,0,-1,832,806,0,0
-385,218,0,0,0,0,0,0,0,0,0,-1,839,806,0,0
-378,218,0,0,0,0,0,0,0,0,0,-1,846,806,0,0
-371,218,0,0,0,0,0,0,0,0,0,-1,853,806,0,0
-364,218,0,0,0,0,0,0,0,0,0,-1,860,806,0,0
-357,218,0,0,0,0,0,0,0,0,0,-1,867,806,0,0
-350,218,0,0,0,0,0,0,0,0,0,-1,874,806,0,0
-343,218,0,0,0,0,0,0,0,0,0,-1,881,806,0,0
-336,218,0,0,0,0,0,0,0,0,0,-1,888,806,0,0
-329,218,0,0,0,0,0,0,0,0,0,-1,895,806,0,0
-322,218,0,0,0,0,0,0,0,0,0,-1,902,806,0,0
-315,218,0,0,0,0,0,0,0,0,0,-1,909,806,0,0
-308,218,0,0,0,0,0,0,0,0,0,-1,916,806,0,0
-301,218,0,0,0,0,0,0,0,0,0,-1,923,806,0,0
-294,218,0,0,0,0,0,0,0,0,0,-1,930,806,0,0
-287,218,0,0,0,0,0,0,0,0,0,-1,937,806,0,0
-280,218,0,0,0,0,0,0,0,0,0,-1,944,806,0,0
-273,218,0,0,0,0,0,0,0,0,0,-1,951,806,0,0
-266,218,0,0,0,0,0,0,0,0,0,-1,958,806,0,0
-259,218,0,0,0,0,0,0,0,0,0,-1,965,806,0,0
-252,218,0,0,0,0,0,0,0,0,0,-1,972,806,0,0
-245,218,0,0,0,0,0,0,0,0,0,-1,979,806,0,0
-238,218,0,0,0,0,0,0,0,0,0,-1,986,806,0,0
-231,218,0,0,0,0,0,0,0,0,0,-1,993,806,0,0
-224,218,0,0,0,0,0,0,0,0,0,-1,1000,806,0,0
-217,218,0,0,0,0,0,0,0,0,0,-1,1007,806,0,0
-210,218,0,0,0,0,0,0,0,0,0,-1,1014,806,0,0
-203,218,0,0,0,0,0,0,0,0,0,-1,1021,806,0,0
-196,218,0,0,0,0,0,0,0,0,0,-1,1028,806,0,0
-189,218,0,0,0,0,0,0,0,0,0,-1,1035,806,0,0
-182,218,0,0,0,0,0,0,0,0,0,-1,1042,806,0,0
-175,218,0,0,0,0,0,0,0,0,0,-1,1049,806,0,0
-168,218,0,0,0,0,0,0,0,0,0,-1,1056,806,0,0
-161,218,0,0,0,0,0,0,0,0,0,-1,1063,806,0,0
-154,218,0,0,0,0,0,0,0,0,0,-1,1070,806,0,0
-147,218,0,0,0,0,0,0,0,0,0,-1,1077,806,0,0
-140,218,0,0,0,0,0,0,0,0,0,-1,1084,806,0,0
-133,218,0,0,0,0,0,0,0,0,0,-1,1091,806,0,0
-126,218,0,0,0,0,0,0,0,0,0,-1,1098,806,0,0
-119,218,0,0,0,0,0,0,0,0,0,-1,1105,806,0,0
-112,218,0,0,0,0,0,0,0,0,0,-1,1112,806,0,0
-105,218,0,0,0,0,0,0,0,0,0,-1,1119,806,0,0
-98,218,0,0,0,0,0,0,0,0,0,-1,1126,806,0,0
-91,218,0,0,0,0,0,0,0,0,0,-1,1133,806,0,0
-84,218,0,0,0,0,0,0,0,0,0,-1,1140,806,0,0
-77,218,0,0,0,0,0,0,0,0,0,-1,1147,806,0,0
-70,218,0,0,0,0,0,0,0,0,0,-1,1154,806,0,0
-63,218,0,0,0,0,0,0,0,0,0,-1,1161,806,0,0
-56,218,0,0,0,0,0,0,0,0,0,-1,1168,806,0,0
-49,218,0,0,0,0,0,0,0,0,0,-1,1175,806,0,0
-42,218,0,0,0,0,0,0,0,0,0,-1,1182,806,0,0
-35,218,0,0,0,0,0,0,0,0,0,-1,1189,806,0,0
-28,218,0,0,0,0,0,0,0,0,0,-1,1196,806,0,0
-21,218,0,0,0,0,0,0,0,0,0,-1,1203,806,0,0
-14,218,0,0,0,0,0,0,0,0,0,-1,1210,806,0,0
-7,218,0,0,0,0,0,0,0,0,0,-1,1217,806,0,0
0,218,0,0,0,0,0,0,0,0,0,-1,1224,806,0,0
7,218,0,0,0,0,0,0,0,0,0,-1,1231,806,0,0
14,218,0,0,0,0,0,0,0,0,0,-1,1238,806,0,0
21,218,0,0,0,0,0,0,0,0,0,-1,1245,806,0,0
28,218,0,0,0,0,0,0,0,0,0,-1,1252,806,0,0
35,218,0,0,0,0,0,0,0,0,0,-1,1259,806,0,0
42,218,0,0,0,0,0,0,0,0,0,-1,1266,806,0,0
49,218,0,0,0,0,0,0,0,0,0,-1,1273,806,0,0
56,218,0,0,0,0,0,0,0,0,0,-1,1280,806,0,0
63,218,0,0,0,0,0,0,0,0,0,-1,1287,806,0,0
70,218,0,0,0,0,0,0,0,0,0,-1,1294,806,0,0
77,218,0,0,0,0,0,0,0,0,0,-1,1301,806,0,0
84,218,0,0,0,0,0,0,0,0,0,-1,1308,806,0,0
91,218,0,0,0,0,0,0,0,0,0,-1,1315,806,0,0
98,218,0,0,0,0,0,0,0,0,0,-1,1322,806,0,0
105,218,0,0,0,0,0,0,0,0,0,-1,1329,806,0,0
112,218,0,0,0,0,0,0,0,0,0,-1,1336,806,0,0
119,218,0,0,0,0,0,0,0,0,0,-1,1343,806,0,0
126,218,0,0,0,0,0,0,0,0,0,-1,1350,806,0,0
133,218,0,0,0,0,0,0,0,0,0,-1,1357,806,0,0
140,218,0,0,0,0,0,0,0,0,0,-1,1364,806,0,0
147,218,0,0,0,0,0,0,0,0,0,-1,1371,806,0,0
154,218,0,0,0,0,0,0,0,0,0,-1,1378,806,0,0
161,218,0,0,0,0,0,0,0,0,0,-1,1385,806,0,0
168,218,0,0,0,0,0,0,0,0,0,-1,1392,806,0,0
175,218,0,0,0,0,0,0,0,0,0,-1,1399,806,0,0
182,218,0,0,0,0,0,0,0,0,0,-1,1406,806,0,0
189,218,0,0,0,0,0,0,0,0,0,-1,1413,806,0,0
196,218,0,0,0,0,0,0,0,0,0,-1,1420,806,0,0
203,218,0,0,0,0,0,0,0,0,0,-1,1427,806,0,0
210,218,0,0,0,0,0,0,0,0,0,-1,1434,806,0,0
217,218,0,0,0,0,0,0,0,0,0,-1,1441,806,0,0
224,218,0,0,0,0,0,0,0,0,0,-1,1448,806,0,0
231,218,0,0,0,0,0,0,0,0,0,-1,1455,806,0,0
238,218,0,0,0,0,0,0,0,0,0,-1,1462,806,0,0
245,218,0,0,0,0,0,0,0,0,0,-1,1469,806,0,0
252,218,0,0,0,0,0,0,0,0,0,-1,1476,806,0,0
259,218,0,0,0,0,0,0,0,0,0,-1,1483,806,0,0
266,218,0,0,0,0,0,0,0,0,0,-1,1490,806,0,0
273,218,0,0,0,0,0,0,0,0,0,-1,1497,806,0,0
280,218,0,0,0,0,0,0,0,0,0,-1,1504,806,0,0
287,218,0,0,0,0,0,0,0,0,0,-1,1511,806,0,0
294,218,0,0,0,0,0,0,0,0,0,-1,1518,806,0,0
301,218,0,0,0,0,0,0,0,0,0,-1,1525,806,0,0
308,218,0,0,0,0,0,0,0,0,0,-1,1532,806,0,0
315,218,0,0,0,0,0,0,0,0,0,-1,1539,806,0,0
322,218,0,0,0,0,0,0,0,0,0,-1,1546,806,0,0
329,218,0,0,0,0,0,0,0,0,0,-1,1553,806,0,0
336,218,0,0,0,0,0,0,0,0,0,-1,1560,806,0,0
343,218,0,0,0,0,0,0,0,0,0,-1,1567,806,0,0
350,218,0,0,0,0,0,0,0,0,0,-1,1574,806,0,0
357,218,0,0,0,0,0,0,0,0,0,-1,1581,806,0,0
364,218,0,0,0,0,0,0,0,0,0,-1,1588,806,0,0
371,218,0,0,0,0,0,0,0,0,0,-1,1595,806,0,0
378,218,0,0,0,0,0,0,0,0,0,-1,1602,806,0,0
385,218,0,0,0,0,0,0,0,0,0,-1,1609,806,0,0
392,218,0,0,0,0,0,0,0,0,0,-1,1616,806,0,0
399,218,0,0,0,0,0,0,0,0,0,-1,1623,806,0,0
406,218,0,0,0,0,0,0,0,0,0,-1,1630,806,0,0
413,218,0,0,0,0,0,0,0,0,0,-1,1637,806,0,0
420,218,0,0,0,0,0,0,0,0,0,-1,1644,806,0,0
427,218,0,0,0,0,0,0,0,0,0,-1,1651,806,0,0
434,218,0,0,0,0,0,0,0,0,0,-1,1658,806,0,0
441,218,0,0,0,0,0,0,0,0,0,-1,1665,806,0,0
448,218,0,0,0,0,0,0,0,0,0,-1,1672,806,0,0
455,218,0,0,0,0,0,0,0,0,0,-1,1679,806,0,0
462,218,0,0,0,0,0,0,0,0,0,-1,1686,806,0,0
469,218,0,0,0,0,0,0,0,0,0,-1,1693,806,0,0
476,218,0,0,0,0,0,0,0,0,0,-1,1700,806,0,0
483,218,0,0,0,0,0,0,0,0,0,-1,1707,806,0,0
490,218,0,0,0,0,0,0,0,0,0,-1,1714,806,0,0
497,218,0,0,0,0,0,0,0,0,0,-1,1721,806,0,0
504,218,0,0,0,0,0,0,0,0,0,-1,1728,806,0,0
511,218,0,0,0,0,0,0,0,0,0,-1,1735,806,0,0
518,218,0,0,0,0,0,0,0,0,0,-1,1742,806,0,0
525,218,0,0,0,0,0,0,0,0,0,-1,1749,806,0,0
532,218,0,0,0,0,0,0,0,0,0,-1,1756,806,0,0
539,218,0,0,0,0,0,0,0,0,0,-1,1763,806,0,0
546,218,0,0,0,0,0,0,0,0,0,-1,1770,806,0,0
553,218,0,0,0,0,0,0,0,0,0,-1,1777,806,0,0
560,218,0,0,0,0,0,0,0,0,0,-1,1784,806,0,0
567,218,0,0,0,0,0,0,0,0,0,-1,1791,806,0,0
574,218,0,0,0,0,0,0,0,0,0,-1,1798,806,0,0
581,218,0,0,0,0,0,0,0,0,0,-1,1805,806,0,0
588,218,0,0,0,0,0,0,0,0,0,-1,1812,806,0,0
595,218,7.28674,1.02484,-0.00117651,0.0030228,0.0019324,0.00377669,-0.0019304,1.19883,0.00335197,0.0371991,1819,806,7.28671,-1.02487
602,218,7.24158,0.997437,-0.00354005,-0.00182397,0.00312245,0.000556187,-0.00592021,0.919486,0.00414466,0.0339296,1826,806,7.24158,-0.997446
609,218,7.21521,1.00677,-0.00387028,-0.00517552,0.00343395,-0.00102749,-0.00801831,0.691494,0.00503809,0.0284814,1833,806,7.21527,-1.00679
616,218,7.11328,1.08881,-0.00336346,-0.00699895,0.00318193,-0.00151666,-0.00884575,0.525884,0.00546225,0.0298923,1840,806,7.11332,-1.08881
623,218,7.16602,1.06726,-0.0026214,-0.00774082,0.00268024,-0.00147493,-0.00888729,0.404198,0.00549955,0.0347758,1847,806,7.166,-1.06723
630,218,7.12988,1.10248,-0.00188109,-0.00779751,0.00215235,-0.00118093,-0.00849766,0.314501,0.00531537,0.0386743,1854,806,7.12987,-1.10249
637,218,6.50757,1.69135,-0.0011787,-0.00722561,0.00148575,-0.000833365,-0.00757095,0.228375,0.00479372,0.042326,1861,806,6.50759,-1.69132
644,218,4.13916,1.58038,0,0,0,0,0,0,0,-1,1868,806,4.13915,-1.58039
651,218,5.79102,0.85614,0,0,0,0,0,0,0,-1,1875,806,5.79098,-0.856161
658,218,5.83569,0.746765,0.000502735,-0.00468816,2.00772e-05,0.000502813,-0.00468824,0.0038677,0.00330587,0.039917,1882,806,5.83565,-0.746744
665,218,5.98877,0.596619,0.000797098,-0.00375212,-0.000438436,0.000838967,-0.00379399,-0.0952086,0.00285044,0.0244691,1889,806,5.98874,-0.596611
672,218,5.98572,0.678467,0.000607227,-0.00280192,-0.00065212,0.000727709,-0.0029224,-0.182696,0.00223076,0.0105776,1896,806,5.98569,-0.678451
679,218,5.97644,0.752563,0.00014201,-0.00149089,-0.000655494,0.000372586,-0.00172147,-0.338241,0.0012899,0.010534,1903,806,5.97642,-0.752562
686,218,5.96619,0.82135,-0.000223314,-0.000147397,-0.000899245,0.00071469,-0.0010854,-0.806491,0.0010466,0.0109591,1910,806,5.96616,-0.82132
693,218,5.96216,0.888916,-0.000231898,-6.78072e-05,-0.000765359,0.000619891,-0.000919596,-0.838794,0.00089442,0.0122033,1917,806,5.96218,-0.88891
700,218,5.9729,0.945129,-0.000971542,0.000596099,-0.000660246,0.00083712,-0.00121256,-1.22078,0.00118998,0.010696,1924,806,5.97292,-0.945157
707,218,5.96741,0.999573,-0.00104944,0.000120032,-0.000638634,0.000401188,-0.0013306,-1.15608,0.00104674,0.00771206,1931,806,5.96735,-0.999545
714,218,5.97217,1.04053,-0.000785115,-0.00102521,-0.000667762,-0.000226695,-0.00158363,-0.69646,0.000988888,0.00908646,1938,806,5.97218,-1.04052
721,218,5.99817,1.09851,-0.000530967,-0.00213098,-0.000799895,-0.000199671,-0.00246227,-0.392665,0.00157917,0.0113235,1945,806,5.99822,-1.09849
728,218,6.01904,1.16107,-2.21004e-05,-0.00381073,-0.00108448,0.000266362,-0.00409919,-0.259973,0.00282577,0.0165508,1952,806,6.01906,-1.16109
735,218,6.01123,1.21533,0.000643075,-0.00662767,-0.00145639,0.000923951,-0.00690854,-0.190519,0.00494255,0.0344851,1959,806,6.01126,-1.21535
742,218,6.34106,1.56598,0.00162788,-0.0107719,-0.0019463,0.0019262,-0.0110702,-0.152091,0.00809895,0.0479939,1966,806,6.34102,-1.56597
749,218,6.55615,2.10443,0,0,0,0,0,0,0,-1,1973,806,6.5562,-2.10442
756,218,6.19971,-0.440796,0.00471941,-0.0245027,-0.00348655,0.00512964,-0.0249129,-0.117122,0.0185564,0.0447827,1980,806,6.19967,0.440766
763,218,6.33252,-0.463074,0.00697284,-0.0348806,-0.00470581,0.00749542,-0.0354032,-0.110596,0.0264569,0.0428318,1987,806,6.33251,0.463072
770,218,0,0,0,0,0,0,0,0,0,-1,1994,806,0,0
777,218,0,0,0,0,0,0,0,0,0,-1,2001,806,0,0
784,218,0,0,0,0,0,0,0,0,0,-1,2008,806,0,0
791,218,0,0,0,0,0,0,0,0,0,-1,2015,806,0,0
798,218,0,0,0,0,0,0,0,0,0,-1,2022,806,0,0
805,218,0,0,0,0,0,0,0,0,0,-1,2029,806,0,0
812,218,0,0,0,0,0,0,0,0,0,-1,2036,806,0,0
-700,211,0,0,0,0,0,0,0,0,0,-1,524,813,0,0
-693,211,0,0,0,0,0,0,0,0,0,-1,531,813,0,0
-686,211,0,0,0,0,0,0,0,0,0,-1,538,813,0,0
-679,211,0,0,0,0,0,0,0,0,0,-1,545,813,0,0
-672,211,0,0,0,0,0,0,0,0,0,-1,552,813,0,0
-665,211,0,0,0,0,0,0,0,0,0,-1,559,813,0,0
-658,211,0,0,0,0,0,0,0,0,0,-1,566,813,0,0
-651,211,-1.44897,2.11597,-0.0323713,0.0602552,0.00558993,0.0605913,-0.0327074,1.51074,0.054662,0.0464806,573,813,-1.44895,-2.11599
-644,211,-1.68127,1.58777,-0.0210212,0.0510967,0.0101189,0.0524896,-0.0224141,1.434,0.0443925,0.0448953,580,813,-1.6813,-1.5878
-637,211,-6.16602,1.14587,0,0,0,0,0,0,0,-1,587,813,-6.16602,-1.14586
-630,211,-5.80304,1.32495,-0.00474613,0.0326864,0.0127748,0.0366305,-0.00869024,1.27134,0.027774,0.0474112,594,813,-5.80302,-1.32494
-623,211,-5.6618,1.71094,0.000488121,0.0246296,0.0122901,0.0297853,-0.00466758,1.17359,0.0215816,0.0452417,601,813,-5.6618,-1.71096
-616,211,-1.89343,0.367371,0,0,0,0,0,0,0,-1,608,813,-1.89346,-0.367357
-609,211,-1.81433,0.611633,0.00613802,0.0119855,0.00957065,0.019069,-0.000945508,0.933641,0.0130393,0.0385755,615,813,-1.81433,-0.611659
-602,211,-1.73413,0.825012,0.00699215,0.00750876,0.00801004,0.0152647,-0.000763754,0.801516,0.0104403,0.0198288,622,813,-1.73414,-0.825011
-595,211,-1.74896,0.784241,0.00705755,0.00391243,0.00674661,0.0124124,-0.00144247,0.670898,0.00879531,0.0104398,629,813,-1.74896,-0.784265
-588,211,-1.74597,0.758362,0.00654126,0.00127216,0.00520734,0.00974257,-0.00192915,0.551208,0.00722447,0.00983468,636,813,-1.74598,-0.758366
-581,211,-1.74835,0.696899,0.00543091,-0.000566301,0.00398682,0.00742093,-0.00255632,0.462967,0.00598425,0.0107659,643,813,-1.74838,-0.696896
-574,211,-1.75696,0.631104,0.00352458,-0.0020451,0.00266633,0.00459521,-0.00311573,0.381831,0.00447915,0.0130409,650,813,-1.75696,-0.631085
-567,211,-1.72266,0.567688,0.000653108,-0.00229666,0.00239397,0.00199005,-0.0036336,0.509317,0.00329271,0.0194646,657,813,-1.72266,-0.567717
-560,211,-1.70325,0.532227,-0.00231253,-0.00250272,0.00252355,0.000117719,-0.00493297,0.766566,0.00332858,0.0216655,664,813,-1.70322,-0.532216
-553,211,-1.69012,0.484009,-0.00458212,-0.00226264,0.00279449,-0.00039679,-0.00644797,0.982087,0.00417268,0.0185596,671,813,-1.69009,-0.483982
-546,211,-1.73932,0.444885,-0.00584527,-0.00224728,0.00323644,-0.000343446,-0.0077491,1.03906,0.00505548,0.0181631,678,813,-1.73933,-0.44489
-539,211,-1.75195,0.377502,-0.00677665,-0.00234223,0.00331954,-0.000567528,-0.00855135,1.07984,0.00552145,0.0117574,685,813,-1.75197,-0.377511
-532,211,-1.78876,0.318542,-0.0074846,-0.00253864,0.00335633,-0.00084262,-0.00918062,1.1029,0.00585977,0.0323075,692,813,-1.78876,-0.318523
-525,211,-2.08203,0.431458,-0.00795059,-0.00265714,0.00323327,-0.00112545,-0.00948228,1.12839,0.00598177,0.046011,699,813,-2.08205,-0.431463
-518,211,-2.28442,0.554382,-0.00810617,-0.00266246,0.00283023,-0.00145765,-0.00931098,1.16834,0.005783,0.0437083,706,813,-2.28444,-0.554371
-511,211,-2.47296,0.664124,0,0,0,0,0,0,0,-1,713,813,-2.47299,-0.664153
-504,211,-2.87854,0.896423,-0.00693407,-0.00198087,0.000902192,-0.00182166,-0.00709328,1.39612,0.0042537,0.0443536,720,813,-2.87852,-0.896415
-497,211,-2.80792,0.968445,-0.0055315,-0.00139626,-0.000579573,-0.00131657,-0.0056112,-1.43415,0.0033883,0.0447326,727,813,-2.80794,-0.968452
-490,211,-2.90466,0.887024,-0.00360665,-0.000754345,-0.00231968,0.000542516,-0.00490351,-1.06102,0.00346404,0.0322432,734,813,-2.90463,-0.887049
-483,211,-2.93329,0.891357,-0.00125309,-0.000214097,-0.00415251,0.00345128,-0.00491847,-0.847627,0.00485696,0.030798,741,813,-2.93326,-0.89135
-476,211,-2.84863,0.933899,0.00122271,9.31247e-05,-0.00556985,0.00625632,-0.00494049,-0.73487,0.00647935,0.0357063,748,813,-2.84864,-0.933909
-469,211,0,0,0,0,0,0,0,0,0,-1,755,813,0,0
-462,211,0,0,0,0,0,0,0,0,0,-1,762,813,0,0
-455,211,0,0,0,0,0,0,0,0,0,-1,769,813,0,0
-448,211,0,0,0,0,0,0,0,0,0,-1,776,813,0,0
-441,211,0,0,0,0,0,0,0,0,0,-1,783,813,0,0
-434,211,0,0,0,0,0,0,0,0,0,-1,790,813,0,0
-427,211,0,0,0,0,0,0,0,0,0,-1,797,813,0,0
-420,211,0,0,0,0,0,0,0,0,0,-1,804,813,0,0
-413,211,0,0,0,0,0,0,0,0,0,-1,811,813,0,0
-406,211,0,0,0,0,0,0,0,0,0,-1,818,813,0,0
-399,211,0,0,0,0,0,0,0,0,0,-1,825,813,0,0
-392,211,0,0,0,0,0,0,0,0,0,-1,832,813,0,0
-385,211,0,0,0,0,0,0,0,0,0,-1,839,813,0,0
-378,211,0,0,0,0,0,0,0,0,0,-1,846,813,0,0
-371,211,0,0,0,0,0,0,0,0,0,-1,853,813,0,0
-364,211,0,0,0,0,0,0,0,0,0,-1,860,813,0,0
-357,211,0,0,0,0,0,0,0,0,0,-1,867,813,0,0
-350,211,0,0,0,0,0,0,0,0,0,-1,874,813,0,0
-343,211,0,0,0,0,0,0,0,0,0,-1,881,813,0,0
-336,211,0,0,0,0,0,0,0,0,0,-1,888,813,0,0
-329,211,0,0,0,0,0,0,0,0,0,-1,895,813,0,0
-322,211,0,0,0,0,0,0,0,0,0,-1,902,813,0,0
-315,211,0,0,0,0,0,0,0,0,0,-1,909,813,0,0
-308,211,0,0,0,0,0,0,0,0,0,-1,916,813,0,0
-301,211,0,0,0,0,0,0,0,0,0,-1,923,813,0,0
-294,211,0,0,0,0,0,0,0,0,0,-1,930,813,0,0
-287,211,0,0,0,0,0,0,0,0,0,-1,937,813,0,0
-280,211,0,0,0,0,0,0,0,0,0,-1,944,813,0,0
-273,211,0,0,0,0,0,0,0,0,0,-1,951,813,0,0
-266,211,0,0,0,0,0,0,0,0,0,-1,958,813,0,0
-259,211,0,0,0,0,0,0,0,0,0,-1,965,813,0,0
-252,211,0,0,0,0,0,0,0,0,0,-1,972,813,0,0
-245,211,0,0,0,0,0,0,0,0,0,-1,979,813,0,0
-238,211,0,0,0,0,0,0,0,0,0,-1,986,813,0,0
-231,211,0,0,0,0,0,0,0,0,0,-1,993,813,0,0
-224,211,0,0,0,0,0,0,0,0,0,-1,1000,813,0,0
-217,211,0,0,0,0,0,0,0,0,0,-1,1007,813,0,0
-210,211,0,0,0,0,0,0,0,0,0,-1,1014,813,0,0
-203,211,0,0,0,0,0,0,0,0,0,-1,1021,813,0,0
-196,211,0,0,0,0,0,0,0,0,0,-1,1028,813,0,0
-189,211,0,0,0,0,0,0,0,0,0,-1,1035,813,0,0
-182,211,0,0,0,0,0,0,0,0,0,-1,1042,813,0,0
-175,211,0,0,0,0,0,0,0,0,0,-1,1049,813,0,0
-168,211,0,0,0,0,0,0,0,0,0,-1,1056,813,0,0
-161,211,0,0,0,0,0,0,0,0,0,-1,1063,813,0,0
-154,211,0,0,0,0,0,0,0,0,0,-1,1070,813,0,0
-147,211,0,0,0,0,0,0,0,0,0,-1,1077,813,0,0
-140,211,0,0,0,0,0,0,0,0,0,-1,1084,813,0,0
-133,211,0,0,0,0,0,0,0,0,0,-1,1091,813,0,0
-126,211,0,0,0,0,0,0,0,0,0,-1,1098,813,0,0
-119,211,0,0,0,0,0,0,0,0,0,-1,1105,813,0,0
-112,211,0,0,0,0,0,0,0,0,0,-1,1112,813,0,0
-105,211,0,0,0,0,0,0,0,0,0,-1,1119,813,0,0
-98,211,0,0,0,0,0,0,0,0,0,-1,1126,813,0,0
-91,211,0,0,0,0,0,0,0,0,0,-1,1133,813,0,0
-84,211,0,0,0,0,0,0,0,0,0,-1,1140,813,0,0
-77,211,0,0,0,0,0,0,0,0,0,-1,1147,813,0,0
-70,211,0,0,0,0,0,0,0,0,0,-1,1154,813,0,0
-63,211,0,0,0,0,0,0,0,0,0,-1,1161,813,0,0
-56,211,0,0,0,0,0,0,0,0,0,-1,1168,813,0,0
-49,211,0,0,0,0,0,0,0,0,0,-1,1175,813,0,0
-42,211,0,0,0,0,0,0,0,0,0,-1,1182,813,0,0
-35,211,0,0,0,0,0,0,0,0,0,-1,1189,813,0,0
-28,211,0,0,0,0,0,0,0,0,0,-1,1196,813,0,0
-21,211,0,0,0,0,0,0,0,0,0,-1,1203,813,0,0
-14,211,0,0,0,0,0,0,0,0,0,-1,1210,813,0,0
-7,211,0,0,0,0,0,0,0,0,0,-1,1217,813,0,0
0,211,0,0,0,0,0,0,0,0,0,-1,1224,813,0,0
7,211,0,0,0,0,0,0,0,0,0,-1,1231,813,0,0
14,211,0,0,0,0,0,0,0,0,0,-1,1238,813,0,0
21,211,0,0,0,0,0,0,0,0,0,-1,1245,813,0,0
28,211,0,0,0,0,0,0,0,0,0,-1,1252,813,0,0
35,211,0,0,0,0,0,0,0,0,0,-1,1259,813,0,0
42,211,0,0,0,0,0,0,0,0,0,-1,1266,813,0,0
49,211,0,0,0,0,0,0,0,0,0,-1,1273,813,0,0
56,211,0,0,0,0,0,0,0,0,0,-1,1280,813,0,0
63,211,0,0,0,0,0,0,0,0,0,-1,1287,813,0,0
70,211,0,0,0,0,0,0,0,0,0,-1,1294,813,0,0
77,211,0,0,0,0,0,0,0,0,0,-1,1301,813,0,0
84,211,0,0,0,0,0,0,0,0,0,-1,1308,813,0,0
91,211,0,0,0,0,0,0,0,0,0,-1,1315,813,0,0
98,211,0,0,0,0,0,0,0,0,0,-1,1322,813,0,0
105,211,0,0,0,0,0,0,0,0,0,-1,1329,813,0,0
112,211,0,0,0,0,0,0,0,0,0,-1,1336,813,0,0
119,211,0,0,0,0,0,0,0,0,0,-1,1343,813,0,0
126,211,0,0,0,0,0,0,0,0,0,-1,1350,813,0,0
133,211,0,0,0,0,0,0,0,0,0,-1,1357,813,0,0
140,211,0,0,0,0,0,0,0,0,0,-1,1364,813,0,0
147,211,0,0,0,0,0,0,0,0,0,-1,1371,813,0,0
154,211,0,0,0,0,0,0,0,0,0,-1,1378,813,0,0
161,211,0,0,0,0,0,0,0,0,0,-1,1385,813,0,0
168,211,0,0,0,0,0,0,0,0,0,-1,1392,813,0,0
175,211,0,0,0,0,0,0,0,0,0,-1,1399,813,0,0
182,211,0,0,0,0,0,0,0,0,0,-1,1406,813,0,0
189,211,0,0,0,0,0,0,0,0,0,-1,1413,813,0,0
196,211,0,0,0,0,0,0,0,0,0,-1,1420,813,0,0
203,211,0,0,0,0,0,0,0,0,0,-1,1427,813,0,0
210,211,0,0,0,0,0,0,0,0,0,-1,1434,813,0,0
217,211,0,0,0,0,0,0,0,0,0,-1,1441,813,0,0
224,211,0,0,0,0,0,0,0,0,0,-1,1448,813,0,0
231,211,0,0,0,0,0,0,0,0,0,-1,1455,813,0,0
238,211,0,0,0,0,0,0,0,0,0,-1,1462,813,0,0
245,211,0,0,0,0,0,0,0,0,0,-1,1469,813,0,0
252,211,0,0,0,0,0,0,0,0,0,-1,1476,813,0,0
259,211,0,0,0,0,0,0,0,0,0,-1,1483,813,0,0
266,211,0,0,0,0,0,0,0,0,0,-1,1490,813,0,0
273,211,0,0,0,0,0,0,0,0,0,-1,1497,813,0,0
280,211,0,0,0,0,0,0,0,0,0,-1,1504,813,0,0
287,211,0,0,0,0,0,0,0,0,0,-1,1511,813,0,0
294,211,0,0,0,0,0,0,0,0,0,-1,1518,813,0,0
301,211,0,0,0,0,0,0,0,0,0,-1,1525,813,0,0
308,211,0,0,0,0,0,0,0,0,0,-1,1532,813,0,0
315,211,0,0,0,0,0,0,0,0,0,-1,1539,813,0,0
322,211,0,0,0,0,0,0,0,0,0,-1,1546,813,0,0
329,211,0,0,0,0,0,0,0,0,0,-1,1553,813,0,0
336,211,0,0,0,0,0,0,0,0,0,-1,1560,813,0,0
343,211,0,0,0,0,0,0,0,0,0,-1,1567,813,0,0
350,211,0,0,0,0,0,0,0,0,0,-1,1574,813,0,0
357,211,0,0,0,0,0,0,0,0,0,-1,1581,813,0,0
364,211,0,0,0,0,0,0,0,0,0,-1,1588,813,0,0
371,211,0,0,0,0,0,0,0,0,0,-1,1595,813,0,0
378,211,0,0,0,0,0,0,0,0,0,-1,1602,813,0,0
385,211,0,0,0,0,0,0,0,0,0,-1,1609,813,0,0
392,211,0,0,0,0,0,0,0,0,0,-1,1616,813,0,0
399,211,0,0,0,0,0,0,0,0,0,-1,1623,813,0,0
406,211,0,0,0,0,0,0,0,0,0,-1,1630,813,0,0
413,211,0,0,0,0,0,0,0,0,0,-1,1637,813,0,0
420,211,0,0,0,0,0,0,0,0,0,-1,1644,813,0,0
427,211,0,0,0,0,0,0,0,0,0,-1,1651,813,0,0
434,211,0,0,0,0,0,0,0,0,0,-1,1658,813,0,0
441,211,0,0,0,0,0,0,0,0,0,-1,1665,813,0,0
448,211,0,0,0,0,0,0,0,0,0,-1,1672,813,0,0
455,211,0,0,0,0,0,0,0,0,0,-1,1679,813,0,0
462,211,0,0,0,0,0,0,0,0,0,-1,1686,813,0,0
469,211,0,0,0,0,0,0,0,0,0,-1,1693,813,0,0
476,211,0,0,0,0,0,0,0,0,0,-1,1700,813,0,0
483,211,0,0,0,0,0,0,0,0,0,-1,1707,813,0,0
490,211,0,0,0,0,0,0,0,0,0,-1,1714,813,0,0
497,211,0,0,0,0,0,0,0,0,0,-1,1721,813,0,0
504,211,0,0,0,0,0,0,0,0,0,-1,1728,813,0,0
511,211,0,0,0,0,0,0,0,0,0,-1,1735,813,0,0
518,211,0,0,0,0,0,0,0,0,0,-1,1742,813,0,0
525,211,0,0,0,0,0,0,0,0,0,-1,1749,813,0,0
532,211,0,0,0,0,0,0,0,0,0,-1,1756,813,0,0
539,211,0,0,0,0,0,0,0,0,0,-1,1763,813,0,0
546,211,0,0,0,0,0,0,0,0,0,-1,1770,813,0,0
553,211,0,0,0,0,0,0,0,0,0,-1,1777,813,0,0
560,211,0,0,0,0,0,0,0,0,0,-1,1784,813,0,0
567,211,0,0,0,0,0,0,0,0,0,-1,1791,813,0,0
574,211,0,0,0,0,0,0,0,0,0,-1,1798,813,0,0
581,211,0,0,0,0,0,0,0,0,0,-1,1805,813,0,0
588,211,0,0,0,0,0,0,0,0,0,-1,1812,813,0,0
595,211,7.32434,0.834045,-0.00285757,0.00553618,0.00218172,0.00606938,-0.00339077,1.3311,0.00553432,0.0400207,1819,813,7.32435,-0.834031
602,211,7.23486,0.809448,-0.00441654,0.00128367,0.0028127,0.00243786,-0.00557073,1.1814,0.00474022,0.0371223,1826,813,7.23485,-0.809447
609,211,7.12964,0.866211,-0.0042654,-0.00201299,0.00289241,-3.52676e-05,-0.00624312,0.971051,0.00415037,0.0342052,1833,813,7.12964,-0.866233
616,211,7.09253,1.05212,-0.00361735,-0.00400463,0.00263075,-0.00117312,-0.00644886,0.748661,0.00396645,0.0298613,1840,813,7.09251,-1.05212
623,211,7.13525,1.12311,-0.00294715,-0.00497723,0.00214005,-0.00159362,-0.00633076,0.563957,0.0038023,0.0321947,1847,813,7.13527,-1.12314
630,211,7.11365,1.16223,-0.00231922,-0.00531519,0.0016343,-0.00160024,-0.00603416,0.414445,0.0036096,0.0362747,1854,813,7.11362,-1.16226
637,211,6.86792,1.40753,-0.00178442,-0.00506617,0.00104325,-0.00148085,-0.00536974,0.28316,0.00320245,0.0400517,1861,813,6.86796,-1.40751
644,211,6.58118,1.14581,0,0,0,0,0,0,0,-1,1868,813,6.58122,-1.1458
651,211,6.22864,0.828064,0,0,0,0,0,0,0,-1,1875,813,6.22864,-0.828039
658,211,5.79297,0.757874,-0.000736927,-0.00350585,-0.00014606,-0.000729244,-0.00351354,-0.0525554,0.00214108,0.0437089,1882,813,5.79293,-0.757853
665,211,6.03491,0.587463,-0.000594767,-0.00285271,-0.00055962,-0.000463679,-0.00298379,-0.230097,0.00185407,0.0351663,1889,813,6.03496,-0.587484
672,211,6.04504,0.703857,-0.000783289,-0.00216946,-0.000824204,-0.000399491,-0.00255326,-0.4358,0.00158587,0.0138607,1896,813,6.04499,-0.703865
679,211,6.04761,0.760132,-0.00112599,-0.00119513,-0.00085764,-0.000302227,-0.0020189,-0.765255,0.00125736,0.0116855,1903,813,6.04761,-0.760124
686,211,6.03845,0.836121,-0.00126258,-0.000177305,-0.00106438,0.000474784,-0.00191467,-1.02113,0.00146066,0.0112992,1910,813,6.03848,-0.836127
693,211,6.03503,0.883667,-0.000939383,-0.000196591,-0.000936378,0.000439355,-0.00157533,-0.974197,0.00122326,0.0122943,1917,813,6.03507,-0.883647
700,211,5.98022,0.929932,-0.0012195,0.000303033,-0.000829211,0.00066743,-0.0015839,-1.15675,0.00133522,0.0150315,1924,813,5.98021,-0.929956
707,211,5.98987,1.00812,-0.000909555,-0.00029174,-0.000812019,0.000268144,-0.00146944,-0.967155,0.00108016,0.0203036,1931,813,5.98987,-1.00814
714,211,6.05701,1.07141,-0.000308932,-0.00153782,-0.000822491,0.000103284,-0.00195004,-0.464591,0.00133579,0.0189739,1938,813,6.05706,-1.07142
721,211,6.03467,1.08496,0.00030087,-0.0027604,-0.000943748,0.000568429,-0.00302796,-0.276258,0.00223237,0.0137586,1945,813,6.03462,-1.08496
728,211,6.06982,1.15344,0.00118472,-0.00445943,-0.00124525,0.00144724,-0.00472196,-0.207779,0.0037253,0.013959,1952,813,6.06978,-1.15344
735,211,6.07312,1.23138,0.00213931,-0.00723089,-0.00166577,0.00242663,-0.00751821,-0.170803,0.00598724,0.0256706,1959,813,6.07316,-1.23138
742,211,6.31628,1.40393,0.00337246,-0.0111724,-0.0022364,0.00370856,-0.0115085,-0.14917,0.00916223,0.0459785,1966,813,6.31633,-1.40395
749,211,6.41589,1.13196,0,0,0,0,0,0,0,-1,1973,813,6.41588,-1.13194
756,211,6.15771,0.318542,0.00689277,-0.023498,-0.0039948,0.0074091,-0.0240143,-0.128539,0.0189679,0.0445034,1980,813,6.15773,-0.318525
763,211,6.41516,0.272705,0.00926497,-0.0322961,-0.00535592,0.00994409,-0.0329752,-0.126124,0.0259415,0.0432691,1987,813,6.41513,-0.272676
770,211,6.64343,0.31665,0,0,0,0,0,0,0,-1,1994,813,6.64338,-0.316644
777,211,0,0,0,0,0,0,0,0,0,-1,2001,813,0,0
784,211,0,0,0,0,0,0,0,0,0,-1,2008,813,0,0
791,211,0,0,0,0,0,0,0,0,0,-1,2015,813,0,0
798,211,0,0,0,0,0,0,0,0,0,-1,2022,813,0,0
805,211,0,0,0,0,0,0,0,0,0,-1,2029,813,0,0
812,211,0,0,0,0,0,0,0,0,0,-1,2036,813,0,0
-700,204,0,0,0,0,0,0,0,0,0,-1,524,820,0,0
-693,204,0,0,0,0,0,0,0,0,0,-1,531,820,0,0
-686,204,0,0,0,0,0,0,0,0,0,-1,538,820,0,0
-679,204,0,0,0,0,0,0,0,0,0,-1,545,820,0,0
-672,204,0,0,0,0,0,0,0,0,0,-1,552,820,0,0
-665,204,0,0,0,0,0,0,0,0,0,-1,559,820,0,0
-658,204,0,0,0,0,0,0,0,0,0,-1,566,820,0,0
-651,204,-1.6084,2.00464,-0.0303327,0.0469951,0.00349836,0.047153,-0.0304906,1.52568,0.0451704,0.0452579,573,820,-1.60842,-2.00461
-644,204,-1.54889,1.7193,-0.0209036,0.0406295,0.00867623,0.0418295,-0.0221035,1.43336,0.0374928,0.0458609,580,820,-1.5489,-1.71931
-637,204,-1.81238,1.83618,-0.0128954,0.0335155,0.0113619,0.0361477,-0.0155276,1.34314,0.0306163,0.0477801,587,820,-1.8124,-1.8362
-630,204,-6.01398,2.14117,-0.00640197,0.0265112,0.0123743,0.0306445,-0.0105353,1.24843,0.024702,0.043578,594,820,-6.01399,-2.14115
-623,204,-5.63989,2.41162,-0.00144395,0.0200405,0.0122108,0.0255617,-0.00696517,1.14615,0.019776,0.0408055,601,820,-5.6399,-2.4116
-616,204,-1.88977,0.373291,0,0,0,0,0,0,0,-1,608,820,-1.88975,-0.373308
-609,204,-1.83234,0.625549,0.00431012,0.00972831,0.0097589,0.0171472,-0.00310873,0.92079,0.0125962,0.0329412,615,820,-1.83232,-0.625566
-602,204,-1.78827,0.838562,0.00536684,0.00601814,0.0082401,0.013939,-0.00255405,0.805148,0.0102506,0.0133745,622,820,-1.78828,-0.838563
-595,204,-1.79303,0.806519,0.00563552,0.00298802,0.00700677,0.0114425,-0.00281895,0.692036,0.00872118,0.0133418,629,820,-1.79303,-0.806492
-588,204,-1.7934,0.746765,0.00524736,0.000794364,0.00546586,0.0089228,-0.00288108,0.591987,0.00710632,0.011647,636,820,-1.7934,-0.746735
-581,204,-1.78833,0.697083,0.0042315,-0.000794229,0.00424122,0.00664839,-0.00321111,0.51796,0.00580655,0.0118948,643,820,-1.78833,-0.69707
-574,204,-1.81537,0.629822,0.00248508,-0.00189242,0.0029681,0.00398418,-0.00339152,0.467696,0.00426294,0.0136747,650,820,-1.81537,-0.629798
-567,204,-1.79065,0.582031,-0.000201777,-0.0020913,0.00267648,0.00169179,-0.00398487,0.615732,0.00336538,0.0133208,657,820,-1.79068,-0.582012
-560,204,-1.78601,0.515198,-0.00296484,-0.00236786,0.00276087,0.000110609,-0.00544331,0.839247,0.0036663,0.0127819,664,820,-1.78601,-0.515219
-553,204,-1.76825,0.450317,-0.00506388,-0.00218539,0.00294634,-0.000345555,-0.00690372,1.0126,0.00449173,0.00966883,671,820,-1.76824,-0.450328
-546,204,-1.77228,0.417847,-0.00637077,-0.00223891,0.00332929,-0.000386648,-0.00822303,1.06309,0.00535779,0.0110881,678,820,-1.77226,-0.417861
-539,204,-1.78467,0.377441,-0.00734447,-0.00238673,0.00346785,-0.000602875,-0.00912832,1.0957,0.00589487,0.0175364,685,820,-1.78467,-0.377426
-532,204,-1.83398,0.413574,-0.00802455,-0.00258125,0.00358498,-0.000801844,-0.00980395,1.11007,0.00628576,0.0441232,692,820,-1.83401,-0.413581
-525,204,-1.99274,0.642883,-0.00837561,-0.00264789,0.00351069,-0.00098112,-0.0100424,1.12753,0.00639303,0.0466983,699,820,-1.99274,-0.642868
-518,204,-2.4798,0.826111,-0.00837089,-0.0025953,0.0031184,-0.00123295,-0.00973325,1.15891,0.00611939,0.0428964,706,820,-2.47979,-0.826125
-511,204,-2.85327,0.862183,-0.00781445,-0.00228404,0.00235794,-0.00141521,-0.00868329,1.21776,0.00537954,0.0434383,713,820,-2.85326,-0.862162
-504,204,-2.92535,0.846252,-0.00662786,-0.00175732,0.0012109,-0.00147288,-0.0069123,1.34008,0.00420414,0.0465373,720,820,-2.92537,-0.846226
-497,204,-2.94849,0.851501,-0.00472786,-0.00104046,-0.000319371,-0.001013,-0.00475532,-1.48504,0.00289229,0.0402106,727,820,-2.94847,-0.851506
-490,204,-2.96356,0.813171,-0.00211887,-0.000211871,-0.00219347,0.00122638,-0.00355712,-0.990427,0.00286895,0.0336073,734,820,-2.96359,-0.813158
-483,204,-2.82501,0.954346,0.00114396,0.000584084,-0.00429729,0.00517042,-0.00344238,-0.752873,0.00500585,0.0381282,741,820,-2.82501,-0.954346
-476,204,0,0,0,0,0,0,0,0,0,-1,748,820,0,0
-469,204,0,0,0,0,0,0,0,0,0,-1,755,820,0,0
-462,204,0,0,0,0,0,0,0,0,0,-1,762,820,0,0
-455,204,0,0,0,0,0,0,0,0,0,-1,769,820,0,0
-448,204,0,0,0,0,0,0,0,0,0,-1,776,820,0,0
-441,204,0,0,0,0,0,0,0,0,0,-1,783,820,0,0
-434,204,0,0,0,0,0,0,0,0,0,-1,790,820,0,0
-427,204,0,0,0,0,0,0,0,0,0,-1,797,820,0,0
-420,204,0,0,0,0,0,0,0,0,0,-1,804,820,0,0
-413,204,0,0,0,0,0,0,0,0,0,-1,811,820,0,0
-406,204,0,0,0,0,0,0,0,0,0,-1,818,820,0,0
-399,204,0,0,0,0,0,0,0,0,0,-1,825,820,0,0
-392,204,0,0,0,0,0,0,0,0,0,-1,832,820,0,0
-385,204,0,0,0,0,0,0,0,0,0,-1,839,820,0,0
-378,204,0,0,0,0,0,0,0,0,0,-1,846,820,0,0
-371,204,0,0,0,0,0,0,0,0,0,-1,853,820,0,0
-364,204,0,0,0,0,0,0,0,0,0,-1,860,820,0,0
-357,204,0,0,0,0,0,0,0,0,0,-1,867,820,0,0
-350,204,0,0,0,0,0,0,0,0,0,-1,874,820,0,0
-343,204,0,0,0,0,0,0,0,0,0,-1,881,820,0,0
-336,204,0,0,0,0,0,0,0,0,0,-1,888,820,0,0
-329,204,0,0,0,0,0,0,0,0,0,-1,895,820,0,0
-322,204,0,0,0,0,0,0,0,0,0,-1,902,820,0,0
-315,204,0,0,0,0,0,0,0,0,0,-1,909,820,0,0
-308,204,0,0,0,0,0,0,0,0,0,-1,916,820,0,0
-301,204,0,0,0,0,0,0,0,0,0,-1,923,820,0,0
-294,204,0,0,0,0,0,0,0,0,0,-1,930,820,0,0
-287,204,0,0,0,0,0,0,0,0,0,-1,937,820,0,0
-280,204,0,0,0,0,0,0,0,0,0,-1,944,820,0,0
-273,204,0,0,0,0,0,0,0,0,0,-1,951,820,0,0
-266,204,0,0,0,0,0,0,0,0,0,-1,958,820,0,0
-259,204,0,0,0,0,0,0,0,0,0,-1,965,820,0,0
-252,204,0,0,0,0,0,0,0,0,0,-1,972,820,0,0
-245,204,0,0,0,0,0,0,0,0,0,-1,979,820,0,0
-238,204,0,0,0,0,0,0,0,0,0,-1,986,820,0,0
-231,204,0,0,0,0,0,0,0,0,0,-1,993,820,0,0
-224,204,0,0,0,0,0,0,0,0,0,-1,1000,820,0,0
-217,204,0,0,0,0,0,0,0,0,0,-1,1007,820,0,0
-210,204,0,0,0,0,0,0,0,0,0,-1,1014,820,0,0
-203,204,0,0,0,0,0,0,0,0,0,-1,1021,820,0,0
-196,204,0,0,0,0,0,0,0,0,0,-1,1028,820,0,0
-189,204,0,0,0,0,0,0,0,0,0,-1,1035,820,0,0
-182,204,0,0,0,0,0,0,0,0,0,-1,1042,820,0,0
-175,204,0,0,0,0,0,0,0,0,0,-1,1049,820,0,0
-168,204,0,0,0,0,0,0,0,0,0,-1,1056,820,0,0
-161,204,0,0,0,0,0,0,0,0,0,-1,1063,820,0,0
-154,204,0,0,0,0,0,0,0,0,0,-1,1070,820,0,0
-147,204,0,0,0,0,0,0,0,0,0,-1,1077,820,0,0
-140,204,0,0,0,0,0,0,0,0,0,-1,1084,820,0,0
-133,204,0,0,0,0,0,0,0,0,0,-1,1091,820,0,0
-126,204,0,0,0,0,0,0,0,0,0,-1,1098,820,0,0
-119,204,0,0,0,0,0,0,0,0,0,-1,1105,820,0,0
-112,204,0,0,0,0,0,0,0,0,0,-1,1112,820,0,0
-105,204,0,0,0,0,0,0,0,0,0,-1,1119,820,0,0
-98,204,0,0,0,0,0,0,0,0,0,-1,1126,820,0,0
-91,204,0,0,0,0,0,0,0,0,0,-1,1133,820,0,0
-84,204,0,0,0,0,0,0,0,0,0,-1,1140,820,0,0
-77,204,0,0,0,0,0,0,0,0,0,-1,1147,820,0,0
-70,204,0,0,0,0,0,0,0,0,0,-1,1154,820,0,0
-63,204,0,0,0,0,0,0,0,0,0,-1,1161,820,0,0
-56,204,0,0,0,0,0,0,0,0,0,-1,1168,820,0,0
-49,204,0,0,0,0,0,0,0,0,0,-1,1175,820,0,0
-42,204,0,0,0,0,0,0,0,0,0,-1,1182,820,0,0
-35,204,0,0,0,0,0,0,0,0,0,-1,1189,820,0,0
-28,204,0,0,0,0,0,0,0,0,0,-1,1196,820,0,0
-21,204,0,0,0,0,0,0,0,0,0,-1,1203,820,0,0
-14,204,0,0,0,0,0,0,0,0,0,-1,1210,820,0,0
-7,204,0,0,0,0,0,0,0,0,0,-1,1217,820,0,0
0,204,0,0,0,0,0,0,0,0,0,-1,1224,820,0,0
7,204,0,0,0,0,0,0,0,0,0,-1,1231,820,0,0
14,204,0,0,0,0,0,0,0,0,0,-1,1238,820,0,0
21,204,0,0,0,0,0,0,0,0,0,-1,1245,820,0,0
28,204,0,0,0,0,0,0,0,0,0,-1,1252,820,0,0
35,204,0,0,0,0,0,0,0,0,0,-1,1259,820,0,0
42,204,0,0,0,0,0,0,0,0,0,-1,1266,820,0,0
49,204,0,0,0,0,0,0,0,0,0,-1,1273,820,0,0
56,204,0,0,0,0,0,0,0,0,0,-1,1280,820,0,0
63,204,0,0,0,0,0,0,0,0,0,-1,1287,820,0,0
70,204,0,0,0,0,0,0,0,0,0,-1,1294,820,0,0
77,204,0,0,0,0,0,0,0,0,0,-1,1301,820,0,0
84,204,0,0,0,0,0,0,0,0,0,-1,1308,820,0,0
91,204,0,0,0,0,0,0,0,0,0,-1,1315,820,0,0
98,204,0,0,0,0,0,0,0,0,0,-1,1322,820,0,0
105,204,0,0,0,0,0,0,0,0,0,-1,1329,820,0,0
112,204,0,0,0,0,0,0,0,0,0,-1,1336,820,0,0
119,204,0,0,0,0,0,0,0,0,0,-1,1343,820,0,0
126,204,0,0,0,0,0,0,0,0,0,-1,1350,820,0,0
133,204,0,0,0,0,0,0,0,0,0,-1,1357,820,0,0
140,204,0,0,0,0,0,0,0,0,0,-1,1364,820,0,0
147,204,0,0,0,0,0,0,0,0,0,-1,1371,820,0,0
154,204,0,0,0,0,0,0,0,0,0,-1,1378,820,0,0
161,204,0,0,0,0,0,0,0,0,0,-1,1385,820,0,0
168,204,0,0,0,0,0,0,0,0,0,-1,1392,820,0,0
175,204,0,0,0,0,0,0,0,0,0,-1,1399,820,0,0
182,204,0,0,0,0,0,0,0,0,0,-1,1406,820,0,0
189,204,0,0,0,0,0,0,0,0,0,-1,1413,820,0,0
196,204,0,0,0,0,0,0,0,0,0,-1,1420,820,0,0
203,204,0,0,0,0,0,0,0,0,0,-1,1427,820,0,0
210,204,0,0,0,0,0,0,0,0,0,-1,1434,820,0,0
217,204,0,0,0,0,0,0,0,0,0,-1,1441,820,0,0
224,204,0,0,0,0,0,0,0,0,0,-1,1448,820,0,0
231,204,0,0,0,0,0,0,0,0,0,-1,1455,820,0,0
238,204,0,0,0,0,0,0,0,0,0,-1,1462,820,0,0
245,204,0,0,0,0,0,0,0,0,0,-1,1469,820,0,0
252,204,0,0,0,0,0,0,0,0,0,-1,1476,820,0,0
259,204,0,0,0,0,0,0,0,0,0,-1,1483,820,0,0
266,204,0,0,0,0,0,0,0,0,0,-1,1490,820,0,0
273,204,0,0,0,0,0,0,0,0,0,-1,1497,820,0,0
280,204,0,0,0,0,0,0,0,0,0,-1,1504,820,0,0
287,204,0,0,0,0,0,0,0,0,0,-1,1511,820,0,0
294,204,0,0,0,0,0,0,0,0,0,-1,1518,820,0,0
301,204,0,0,0,0,0,0,0,0,0,-1,1525,820,0,0
308,204,0,0,0,0,0,0,0,0,0,-1,1532,820,0,0
315,204,0,0,0,0,0,0,0,0,0,-1,1539,820,0,0
322,204,0,0,0,0,0,0,0,0,0,-1,1546,820,0,0
329,204,0,0,0,0,0,0,0,0,0,-1,1553,820,0,0
336,204,0,0,0,0,0,0,0,0,0,-1,1560,820,0,0
343,204,0,0,0,0,0,0,0,0,0,-1,1567,820,0,0
350,204,0,0,0,0,0,0,0,0,0,-1,1574,820,0,0
357,204,0,0,0,0,0,0,0,0,0,-1,1581,820,0,0
364,204,0,0,0,0,0,0,0,0,0,-1,1588,820,0,0
371,204,0,0,0,0,0,0,0,0,0,-1,1595,820,0,0
378,204,0,0,0,0,0,0,0,0,0,-1,1602,820,0,0
385,204,0,0,0,0,0,0,0,0,0,-1,1609,820,0,0
392,204,0,0,0,0,0,0,0,0,0,-1,1616,820,0,0
399,204,0,0,0,0,0,0,0,0,0,-1,1623,820,0,0
406,204,0,0,0,0,0,0,0,0,0,-1,1630,820,0,0
413,204,0,0,0,0,0,0,0,0,0,-1,1637,820,0,0
420,204,0,0,0,0,0,0,0,0,0,-1,1644,820,0,0
427,204,0,0,0,0,0,0,0,0,0,-1,1651,820,0,0
434,204,0,0,0,0,0,0,0,0,0,-1,1658,820,0,0
441,204,0,0,0,0,0,0,0,0,0,-1,1665,820,0,0
448,204,0,0,0,0,0,0,0,0,0,-1,1672,820,0,0
455,204,0,0,0,0,0,0,0,0,0,-1,1679,820,0,0
462,204,0,0,0,0,0,0,0,0,0,-1,1686,820,0,0
469,204,0,0,0,0,0,0,0,0,0,-1,1693,820,0,0
476,204,0,0,0,0,0,0,0,0,0,-1,1700,820,0,0
483,204,0,0,0,0,0,0,0,0,0,-1,1707,820,0,0
490,204,0,0,0,0,0,0,0,0,0,-1,1714,820,0,0
497,204,0,0,0,0,0,0,0,0,0,-1,1721,820,0,0
504,204,0,0,0,0,0,0,0,0,0,-1,1728,820,0,0
511,204,0,0,0,0,0,0,0,0,0,-1,1735,820,0,0
518,204,0,0,0,0,0,0,0,0,0,-1,1742,820,0,0
525,204,0,0,0,0,0,0,0,0,0,-1,1749,820,0,0
532,204,0,0,0,0,0,0,0,0,0,-1,1756,820,0,0
539,204,0,0,0,0,0,0,0,0,0,-1,1763,820,0,0
546,204,0,0,0,0,0,0,0,0,0,-1,1770,820,0,0
553,204,0,0,0,0,0,0,0,0,0,-1,1777,820,0,0
560,204,0,0,0,0,0,0,0,0,0,-1,1784,820,0,0
567,204,0,0,0,0,0,0,0,0,0,-1,1791,820,0,0
574,204,0,0,0,0,0,0,0,0,0,-1,1798,820,0,0
581,204,0,0,0,0,0,0,0,0,0,-1,1805,820,0,0
588,204,0,0,0,0,0,0,0,0,0,-1,1812,820,0,0
595,204,0,0,0,0,0,0,0,0,0,-1,1819,820,0,0
602,204,7.33984,0.723999,-0.00469326,0.00355071,0.00284239,0.00443571,-0.00557827,1.26895,0.0057941,0.0388731,1826,820,7.3398,-0.723985
609,204,7.21033,0.688843,-0.00433893,0.000791185,0.00285855,0.00206681,-0.00561455,1.15107,0.0045898,0.0388922,1833,820,7.21032,-0.688852
616,204,7.11633,0.945313,-0.00373866,-0.00108543,0.00259998,0.000506824,-0.00533091,1.0213,0.00373436,0.0377411,1840,820,7.11637,-0.945322
623,204,7.13281,1.1012,-0.0032435,-0.00214992,0.00205914,-0.000566209,-0.0048272,0.915175,0.00304699,0.0295849,1847,820,7.13285,-1.10123
630,204,7.14575,1.10651,-0.00285835,-0.00268605,0.00147449,-0.0012952,-0.0042492,0.814579,0.00251482,0.0267896,1854,820,7.14577,-1.10649
637,204,7.16101,1.11047,-0.00257137,-0.00276036,0.000867514,-0.00179322,-0.00353851,0.73115,0.00204302,0.0317463,1861,820,7.161,-1.11049
644,204,7.11292,0.760193,0,0,0,0,0,0,0,-1,1868,820,7.11297,-0.760181
651,204,6.86206,0.47113,0,0,0,0,0,0,0,-1,1875,820,6.86206,-0.471112
658,204,5.80298,0.730896,0,0,0,0,0,0,0,-1,1882,820,5.80297,-0.730906
665,204,6.14722,0.761841,-0.00199334,-0.00177141,-0.000783284,-0.00109127,-0.00267348,-0.855762,0.00155219,0.0423617,1889,820,6.14724,-0.761817
672,204,6.11499,0.700439,-0.00220453,-0.00141382,-0.0010862,-0.000653261,-0.00296509,-0.959937,0.00179895,0.0189495,1896,820,6.11497,-0.700459
679,204,6.11353,0.746277,-0.00242072,-0.000793728,-0.00116455,-0.000186674,-0.00302777,-1.09027,0.00195926,0.0123482,1903,820,6.1135,-0.746256
686,204,6.10303,0.836487,-0.00231697,-0.000100716,-0.00133968,0.000529746,-0.00294744,-1.13094,0.00216327,0.0106609,1910,820,6.10307,-0.83649
693,204,6.05945,0.875793,-0.00167427,-0.000225496,-0.00119897,0.000450927,-0.00235069,-1.05714,0.00173706,0.0156396,1917,820,6.05944,-0.875791
700,204,6.0918,0.938721,-0.00147651,0.000105439,-0.00107969,0.000652889,-0.00202396,-1.10153,0.00161164,0.0163335,1924,820,6.09178,-0.938738
707,204,6.08765,1.01904,-0.000767714,-0.000546384,-0.00106084,0.000409552,-0.00172365,-0.837369,0.00130718,0.0137445,1931,820,6.08768,-1.01902
714,204,6.11829,1.09735,0.000181754,-0.00180936,-0.00106562,0.000644515,-0.00227212,-0.40969,0.00176916,0.0209946,1938,820,6.11824,-1.09738
721,204,6.08972,1.10168,0.00117507,-0.00296772,-0.00115446,0.00147505,-0.00326771,-0.254228,0.00280268,0.0196204,1945,820,6.08968,-1.10167
728,204,6.10083,1.14093,0.0024469,-0.00438411,-0.0014215,0.0027309,-0.00466811,-0.197192,0.00432035,0.0129839,1952,820,6.10078,-1.14092
735,204,6.10217,1.22314,0.00368359,-0.00669574,-0.00180221,0.00398761,-0.00699976,-0.16712,0.00642253,0.0155038,1959,820,6.10213,-1.22317
742,204,6.17871,1.23572,0.0051128,-0.00990346,-0.0023333,0.005467,-0.0102577,-0.150654,0.00921802,0.0292119,1966,820,6.17874,-1.23573
749,204,6.3219,1.21021,0.00681336,-0.0140738,-0.00300363,0.00723671,-0.0144972,-0.140023,0.0127793,0.0437066,1973,820,6.32192,-1.2102
756,204,6.45129,0.940247,0.00881146,-0.0192547,-0.00384349,0.00932828,-0.0197716,-0.133666,0.0171577,0.04863,1980,820,6.45123,-0.940233
763,204,6.55103,0.969055,0.0111208,-0.0254147,-0.00491314,0.01177,-0.0260639,-0.131367,0.022357,0.044435,1987,820,6.55108,-0.969035
770,204,6.7063,0.837524,0,0,0,0,0,0,0,-1,1994,820,6.7063,-0.837533
777,204,0,0,0,0,0,0,0,0,0,-1,2001,820,0,0
784,204,0,0,0,0,0,0,0,0,0,-1,2008,820,0,0
791,204,0,0,0,0,0,0,0,0,0,-1,2015,820,0,0
798,204,0,0,0,0,0,0,0,0,0,-1,2022,820,0,0
805,204,0,0,0,0,0,0,0,0,0,-1,2029,820,0,0
812,204,0,0,0,0,0,0,0,0,0,-1,2036,820,0,0
-700,197,0,0,0,0,0,0,0,0,0,-1,524,827,0,0
-693,197,0,0,0,0,0,0,0,0,0,-1,531,827,0,0
-686,197,0,0,0,0,0,0,0,0,0,-1,538,827,0,0
-679,197,0,0,0,0,0,0,0,0,0,-1,545,827,0,0
-672,197,0,0,0,0,0,0,0,0,0,-1,552,827,0,0
-665,197,0,0,0,0,0,0,0,0,0,-1,559,827,0,0
-658,197,-1.53955,1.94611,-0.0343153,0.0367502,-0.00865863,0.03779,-0.035355,-1.45129,0.0422381,0.0472077,566,827,-1.53954,-1.94609
-651,197,-1.65594,1.90668,-0.0272569,0.0353797,-0.000804418,0.03539,-0.0272673,-1.55796,0.0362764,0.048428,573,827,-1.65596,-1.90666
-644,197,-1.69525,1.88348,-0.0199741,0.0312398,0.0048371,0.0316926,-0.0204269,1.47745,0.0303246,0.0490633,580,827,-1.69527,-1.88346
-637,197,-1.82556,1.76312,-0.0132874,0.0261435,0.00810075,0.0277428,-0.0148868,1.37587,0.0249825,0.0475871,587,827,-1.82557,-1.76312
-630,197,-1.90045,1.49091,0,0,0,0,0,0,0,-1,594,827,-1.90047,-1.49092
-623,197,-5.21918,3.4483,0,0,0,0,0,0,0,-1,601,827,-5.21918,-3.44829
-616,197,-2.00726,0.880859,0,0,0,0,0,0,0,-1,608,827,-2.00728,-0.880838
-609,197,-1.90002,0.705261,0.00255581,0.00784835,0.00843173,0.0140393,-0.00363516,0.937454,0.0107776,0.0298785,615,827,-1.90004,-0.705266
-602,197,-1.8515,0.839111,0.00373354,0.00487716,0.00725177,0.0115796,-0.00296893,0.824742,0.00887647,0.0146392,622,827,-1.85152,-0.839137
-595,197,-1.84137,0.803589,0.00414333,0.0023935,0.00628787,0.00961686,-0.00308003,0.716271,0.00764754,0.01587,629,827,-1.84134,-0.803603
-588,197,-1.83826,0.738464,0.00382124,0.000607331,0.00499635,0.00746269,-0.00303412,0.62981,0.00623753,0.0183291,636,827,-1.83825,-0.738456
-581,197,-1.84686,0.685913,0.00285075,-0.000775237,0.00399742,0.0054271,-0.00335159,0.572501,0.00511537,0.0108844,643,827,-1.84684,-0.68593
-574,197,-1.85144,0.644287,0.00128083,-0.0015952,0.00299504,0.00316519,-0.00347956,0.561585,0.00383778,0.0117465,650,827,-1.85146,-0.644297
-567,197,-1.85358,0.578247,-0.00112508,-0.00180222,0.00281933,0.00137594,-0.00430324,0.72564,0.00342099,0.0129748,657,827,-1.8536,-0.578239
-560,197,-1.86841,0.526367,-0.00361517,-0.00215378,0.0029623,0.000166612,-0.00593556,0.906316,0.00401373,0.0111603,664,827,-1.8684,-0.526372
-553,197,-1.83582,0.466614,-0.00546178,-0.00207386,0.00311061,-0.000225878,-0.00730977,1.03473,0.00479966,0.00932376,671,827,-1.83581,-0.466625
-546,197,-1.81635,0.404602,-0.00671779,-0.00223388,0.00344834,-0.000362755,-0.00858891,1.07364,0.00560893,0.0156617,678,827,-1.81637,-0.404593
-539,197,-1.88904,0.385803,-0.00763207,-0.00247563,0.00360211,-0.000624129,-0.00948357,1.09601,0.00612495,0.0324165,685,827,-1.88907,-0.385785
-532,197,-2.20422,0.532959,-0.00814914,-0.00267593,0.00374318,-0.000775681,-0.0100494,1.10104,0.00645658,0.046552,692,827,-2.2042,-0.532957
-525,197,-2.22339,0.851807,-0.00823458,-0.00270807,0.00360713,-0.000927432,-0.0100152,1.11225,0.00639014,0.046888,699,827,-2.2234,-0.851784
-518,197,-2.48761,1.03094,0,0,0,0,0,0,0,-1,706,827,-2.48764,-1.03093
-511,197,-2.85382,0.929382,-0.00697323,-0.00228759,0.00227404,-0.00136544,-0.00789539,1.18555,0.00487264,0.0416856,713,827,-2.85381,-0.929394
-504,197,-2.91199,0.901917,-0.00527865,-0.00171014,0.000959437,-0.00146854,-0.00552025,1.32411,0.00330138,0.03911,720,827,-2.912,-0.901908
-497,197,-3.01508,0.786499,-0.00273559,-0.000892036,-0.000832568,-0.000571701,-0.00305592,-1.2035,0.00187598,0.0412978,727,827,-3.01505,-0.786473
-490,197,-3.12079,0.666382,0,0,0,0,0,0,0,-1,734,827,-3.1208,-0.66641
-483,197,-2.85559,0.917664,0,0,0,0,0,0,0,-1,741,827,-2.85561,-0.917672
-476,197,0,0,0,0,0,0,0,0,0,-1,748,827,0,0
-469,197,0,0,0,0,0,0,0,0,0,-1,755,827,0,0
-462,197,0,0,0,0,0,0,0,0,0,-1,762,827,0,0
-455,197,0,0,0,0,0,0,0,0,0,-1,769,827,0,0
-448,197,0,0,0,0,0,0,0,0,0,-1,776,827,0,0
-441,197,0,0,0,0,0,0,0,0,0,-1,783,827,0,0
-434,197,0,0,0,0,0,0,0,0,0,-1,790,827,0,0
-427,197,0,0,0,0,0,0,0,0,0,-1,797,827,0,0
-420,197,0,0,0,0,0,0,0,0,0,-1,804,827,0,0
-413,197,0,0,0,0,0,0,0,0,0,-1,811,827,0,0
-406,197,0,0,0,0,0,0,0,0,0,-1,818,827,0,0
-399,197,0,0,0,0,0,0,0,0,0,-1,825,827,0,0
-392,197,0,0,0,0,0,0,0,0,0,-1,832,827,0,0
-385,197,0,0,0,0,0,0,0,0,0,-1,839,827,0,0
-378,197,0,0,0,0,0,0,0,0,0,-1,846,827,0,0
-371,197,0,0,0,0,0,0,0,0,0,-1,853,827,0,0
-364,197,0,0,0,0,0,0,0,0,0,-1,860,827,0,0
-357,197,0,0,0,0,0,0,0,0,0,-1,867,827,0,0
-350,197,0,0,0,0,0,0,0,0,0,-1,874,827,0,0
-343,197,0,0,0,0,0,0,0,0,0,-1,881,827,0,0
-336,197,0,0,0,0,0,0,0,0,0,-1,888,827,0,0
-329,197,0,0,0,0,0,0,0,0,0,-1,895,827,0,0
-322,197,0,0,0,0,0,0,0,0,0,-1,902,827,0,0
-315,197,0,0,0,0,0,0,0,0,0,-1,909,827,0,0
-308,197,0,0,0,0,0,0,0,0,0,-1,916,827,0,0
-301,197,0,0,0,0,0,0,0,0,0,-1,923,827,0,0
-294,197,0,0,0,0,0,0,0,0,0,-1,930,827,0,0
-287,197,0,0,0,0,0,0,0,0,0,-1,937,827,0,0
-280,197,0,0,0,0,0,0,0,0,0,-1,944,827,0,0
-273,197,0,0,0,0,0,0,0,0,0,-1,951,827,0,0
-266,197,0,0,0,0,0,0,0,0,0,-1,958,827,0,0
-259,197,0,0,0,0,0,0,0,0,0,-1,965,827,0,0
-252,197,0,0,0,0,0,0,0,0,0,-1,972,827,0,0
-245,197,0,0,0,0,0,0,0,0,0,-1,979,827,0,0
-238,197,0,0,0,0,0,0,0,0,0,-1,986,827,0,0
-231,197,0,0,0,0,0,0,0,0,0,-1,993,827,0,0
-224,197,0,0,0,0,0,0,0,0,0,-1,1000,827,0,0
-217,197,0,0,0,0,0,0,0,0,0,-1,1007,827,0,0
-210,197,0,0,0,0,0,0,0,0,0,-1,1014,827,0,0
-203,197,0,0,0,0,0,0,0,0,0,-1,1021,827,0,0
-196,197,0,0,0,0,0,0,0,0,0,-1,1028,827,0,0
-189,197,0,0,0,0,0,0,0,0,0,-1,1035,827,0,0
-182,197,0,0,0,0,0,0,0,0,0,-1,1042,827,0,0
-175,197,0,0,0,0,0,0,0,0,0,-1,1049,827,0,0
-168,197,0,0,0,0,0,0,0,0,0,-1,1056,827,0,0
-161,197,0,0,0,0,0,0,0,0,0,-1,1063,827,0,0
-154,197,0,0,0,0,0,0,0,0,0,-1,1070,827,0,0
-147,197,0,0,0,0,0,0,0,0,0,-1,1077,827,0,0
-140,197,0,0,0,0,0,0,0,0,0,-1,1084,827,0,0
-133,197,0,0,0,0,0,0,0,0,0,-1,1091,827,0,0
-126,197,0,0,0,0,0,0,0,0,0,-1,1098,827,0,0
-119,197,0,0,0,0,0,0,0,0,0,-1,1105,827,0,0
-112,197,0,0,0,0,0,0,0,0,0,-1,1112,827,0,0
-105,197,0,0,0,0,0,0,0,0,0,-1,1119,827,0,0
-98,197,0,0,0,0,0,0,0,0,0,-1,1126,827,0,0
-91,197,0,0,0,0,0,0,0,0,0,-1,1133,827,0,0
-84,197,0,0,0,0,0,0,0,0,0,-1,1140,827,0,0
-77,197,0,0,0,0,0,0,0,0,0,-1,1147,827,0,0
-70,197,0,0,0,0,0,0,0,0,0,-1,1154,827,0,0
-63,197,0,0,0,0,0,0,0,0,0,-1,1161,827,0,0
-56,197,0,0,0,0,0,0,0,0,0,-1,1168,827,0,0
-49,197,0,0,0,0,0,0,0,0,0,-1,1175,827,0,0
-42,197,0,0,0,0,0,0,0,0,0,-1,1182,827,0,0
-35,197,0,0,0,0,0,0,0,0,0,-1,1189,827,0,0
-28,197,0,0,0,0,0,0,0,0,0,-1,1196,827,0,0
-21,197,0,0,0,0,0,0,0,0,0,-1,1203,827,0,0
-14,197,0,0,0,0,0,0,0,0,0,-1,1210,827,0,0
-7,197,0,0,0,0,0,0,0,0,0,-1,1217,827,0,0
0,197,0,0,0,0,0,0,0,0,0,-1,1224,827,0,0
7,197,0,0,0,0,0,0,0,0,0,-1,1231,827,0,0
14,197,0,0,0,0,0,0,0,0,0,-1,1238,827,0,0
21,197,0,0,0,0,0,0,0,0,0,-1,1245,827,0,0
28,197,0,0,0,0,0,0,0,0,0,-1,1252,827,0,0
35,197,0,0,0,0,0,0,0,0,0,-1,1259,827,0,0
42,197,0,0,0,0,0,0,0,0,0,-1,1266,827,0,0
49,197,0,0,0,0,0,0,0,0,0,-1,1273,827,0,0
56,197,0,0,0,0,0,0,0,0,0,-1,1280,827,0,0
63,197,0,0,0,0,0,0,0,0,0,-1,1287,827,0,0
70,197,0,0,0,0,0,0,0,0,0,-1,1294,827,0,0
77,197,0,0,0,0,0,0,0,0,0,-1,1301,827,0,0
84,197,0,0,0,0,0,0,0,0,0,-1,1308,827,0,0
91,197,0,0,0,0,0,0,0,0,0,-1,1315,827,0,0
98,197,0,0,0,0,0,0,0,0,0,-1,1322,827,0,0
105,197,0,0,0,0,0,0,0,0,0,-1,1329,827,0,0
112,197,0,0,0,0,0,0,0,0,0,-1,1336,827,0,0
119,197,0,0,0,0,0,0,0,0,0,-1,1343,827,0,0
126,197,0,0,0,0,0,0,0,0,0,-1,1350,827,0,0
133,197,0,0,0,0,0,0,0,0,0,-1,1357,827,0,0
140,197,0,0,0,0,0,0,0,0,0,-1,1364,827,0,0
147,197,0,0,0,0,0,0,0,0,0,-1,1371,827,0,0
154,197,0,0,0,0,0,0,0,0,0,-1,1378,827,0,0
161,197,0,0,0,0,0,0,0,0,0,-1,1385,827,0,0
168,197,0,0,0,0,0,0,0,0,0,-1,1392,827,0,0
175,197,0,0,0,0,0,0,0,0,0,-1,1399,827,0,0
182,197,0,0,0,0,0,0,0,0,0,-1,1406,827,0,0
189,197,0,0,0,0,0,0,0,0,0,-1,1413,827,0,0
196,197,0,0,0,0,0,0,0,0,0,-1,1420,827,0,0
203,197,0,0,0,0,0,0,0,0,0,-1,1427,827,0,0
210,197,0,0,0,0,0,0,0,0,0,-1,1434,827,0,0
217,197,0,0,0,0,0,0,0,0,0,-1,1441,827,0,0
224,197,0,0,0,0,0,0,0,0,0,-1,1448,827,0,0
231,197,0,0,0,0,0,0,0,0,0,-1,1455,827,0,0
238,197,0,0,0,0,0,0,0,0,0,-1,1462,827,0,0
245,197,0,0,0,0,0,0,0,0,0,-1,1469,827,0,0
252,197,0,0,0,0,0,0,0,0,0,-1,1476,827,0,0
259,197,0,0,0,0,0,0,0,0,0,-1,1483,827,0,0
266,197,0,0,0,0,0,0,0,0,0,-1,1490,827,0,0
273,197,0,0,0,0,0,0,0,0,0,-1,1497,827,0,0
280,197,0,0,0,0,0,0,0,0,0,-1,1504,827,0,0
287,197,0,0,0,0,0,0,0,0,0,-1,1511,827,0,0
294,197,0,0,0,0,0,0,0,0,0,-1,1518,827,0,0
301,197,0,0,0,0,0,0,0,0,0,-1,1525,827,0,0
308,197,0,0,0,0,0,0,0,0,0,-1,1532,827,0,0
315,197,0,0,0,0,0,0,0,0,0,-1,1539,827,0,0
322,197,0,0,0,0,0,0,0,0,0,-1,1546,827,0,0
329,197,0,0,0,0,0,0,0,0,0,-1,1553,827,0,0
336,197,0,0,0,0,0,0,0,0,0,-1,1560,827,0,0
343,197,0,0,0,0,0,0,0,0,0,-1,1567,827,0,0
350,197,0,0,0,0,0,0,0,0,0,-1,1574,827,0,0
357,197,0,0,0,0,0,0,0,0,0,-1,1581,827,0,0
364,197,0,0,0,0,0,0,0,0,0,-1,1588,827,0,0
371,197,0,0,0,0,0,0,0,0,0,-1,1595,827,0,0
378,197,0,0,0,0,0,0,0,0,0,-1,1602,827,0,0
385,197,0,0,0,0,0,0,0,0,0,-1,1609,827,0,0
392,197,0,0,0,0,0,0,0,0,0,-1,1616,827,0,0
399,197,0,0,0,0,0,0,0,0,0,-1,1623,827,0,0
406,197,0,0,0,0,0,0,0,0,0,-1,1630,827,0,0
413,197,0,0,0,0,0,0,0,0,0,-1,1637,827,0,0
420,197,0,0,0,0,0,0,0,0,0,-1,1644,827,0,0
427,197,0,0,0,0,0,0,0,0,0,-1,1651,827,0,0
434,197,0,0,0,0,0,0,0,0,0,-1,1658,827,0,0
441,197,0,0,0,0,0,0,0,0,0,-1,1665,827,0,0
448,197,0,0,0,0,0,0,0,0,0,-1,1672,827,0,0
455,197,0,0,0,0,0,0,0,0,0,-1,1679,827,0,0
462,197,0,0,0,0,0,0,0,0,0,-1,1686,827,0,0
469,197,0,0,0,0,0,0,0,0,0,-1,1693,827,0,0
476,197,0,0,0,0,0,0,0,0,0,-1,1700,827,0,0
483,197,0,0,0,0,0,0,0,0,0,-1,1707,827,0,0
490,197,0,0,0,0,0,0,0,0,0,-1,1714,827,0,0
497,197,0,0,0,0,0,0,0,0,0,-1,1721,827,0,0
504,197,0,0,0,0,0,0,0,0,0,-1,1728,827,0,0
511,197,0,0,0,0,0,0,0,0,0,-1,1735,827,0,0
518,197,0,0,0,0,0,0,0,0,0,-1,1742,827,0,0
525,197,0,0,0,0,0,0,0,0,0,-1,1749,827,0,0
532,197,0,0,0,0,0,0,0,0,0,-1,1756,827,0,0
539,197,0,0,0,0,0,0,0,0,0,-1,1763,827,0,0
546,197,0,0,0,0,0,0,0,0,0,-1,1770,827,0,0
553,197,0,0,0,0,0,0,0,0,0,-1,1777,827,0,0
560,197,0,0,0,0,0,0,0,0,0,-1,1784,827,0,0
567,197,0,0,0,0,0,0,0,0,0,-1,1791,827,0,0
574,197,0,0,0,0,0,0,0,0,0,-1,1798,827,0,0
581,197,0,0,0,0,0,0,0,0,0,-1,1805,827,0,0
588,197,0,0,0,0,0,0,0,0,0,-1,1812,827,0,0
595,197,0,0,0,0,0,0,0,0,0,-1,1819,827,0,0
602,197,7.31372,0.870544,-0.00484326,0.00389636,0.00384139,0.00534475,-0.00629165,1.21023,0.00672569,0.0408231,1826,827,7.3137,-0.870516
609,197,7.21313,0.823914,-0.00438814,0.00222632,0.0033434,0.00362186,-0.00578368,1.17538,0.0054779,0.0407747,1833,827,7.21311,-0.82392
616,197,7.24451,0.929504,-0.00391905,0.000919296,0.00281514,0.00221192,-0.00521167,1.14035,0.00440111,0.0406012,1840,827,7.24452,-0.929512
623,197,7.15637,0.998901,-0.00361345,0.000163107,0.00204171,0.00105586,-0.0045062,1.15859,0.00341101,0.0377811,1847,827,7.15638,-0.998916
630,197,7.1825,0.992615,-0.00350988,-0.000298373,0.00127662,0.000147264,-0.00395551,1.23495,0.00268744,0.0303116,1854,827,7.18255,-0.992615
637,197,7.16516,1.07214,-0.00350168,-0.000490601,0.000566413,-0.000387578,-0.00360471,1.39088,0.00228493,0.0274785,1861,827,7.16511,-1.07212
644,197,7.20398,1.03082,-0.00352849,-0.000585209,4.61159e-05,-0.000584487,-0.00352921,1.55513,0.0021842,0.0321604,1868,827,7.20395,-1.03085
651,197,7.18848,0.974854,-0.00351644,-0.000665563,-0.000379452,-0.000615923,-0.00356608,-1.44071,0.002201,0.0419215,1875,827,7.1885,-0.974854
658,197,6.77002,1.28125,-0.00341838,-0.000612244,-0.000732919,-0.000432349,-0.00359827,-1.3301,0.00226851,0.044056,1882,827,6.77005,-1.28126
665,197,6.58618,1.83112,0,0,0,0,0,0,0,-1,1889,827,6.58622,-1.83109
672,197,6.27319,0.729431,-0.00362511,-0.000415414,-0.00142035,0.000122849,-0.00416337,-1.20855,0.00281742,0.0281978,1896,827,6.27319,-0.729442
679,197,6.18408,0.77063,-0.00371377,-0.000125074,-0.0014921,0.000414254,-0.0042531,-1.22395,0.00298309,0.0135351,1903,827,6.1841,-0.770613
686,197,6.15967,0.823059,-0.00344041,0.000114285,-0.00157132,0.000709283,-0.00403541,-1.20882,0.00295521,0.0108586,1910,827,6.1597,-0.823079
693,197,6.14954,0.899658,-0.0025765,-0.000135234,-0.00140182,0.000502907,-0.00321464,-1.14361,0.0023289,0.0142121,1917,827,6.14958,-0.899632
700,197,6.13904,0.953613,-0.00199592,1.39518e-05,-0.00123842,0.000603879,-0.00258585,-1.12624,0.00195651,0.0185308,1924,827,6.13905,-0.953622
707,197,6.18298,1.00989,-0.000976452,-0.000659416,-0.0011708,0.000363548,-0.00199942,-0.852686,0.0014692,0.00811898,1931,827,6.18293,-1.00986
714,197,6.17456,1.06659,0.000237302,-0.00186756,-0.00113787,0.000734827,-0.00236509,-0.412193,0.00187042,0.0106871,1938,827,6.17461,-1.06661
721,197,6.1449,1.10156,0.00151642,-0.00286287,-0.00116451,0.00180683,-0.00315327,-0.244392,0.00289867,0.0117657,1945,827,6.14484,-1.10158
728,197,6.14246,1.15253,0.00308114,-0.00386514,-0.0013336,0.00332838,-0.00411237,-0.183308,0.00430386,0.0107412,1952,827,6.14245,-1.15254
735,197,6.14026,1.22644,0.00450266,-0.00579287,-0.00159464,0.00474399,-0.0060342,-0.150199,0.00623764,0.0114707,1959,827,6.14029,-1.22642
742,197,6.17297,1.30316,0.00600631,-0.00826236,-0.00201434,0.00628523,-0.00854127,-0.13759,0.00859305,0.0187134,1966,827,6.17302,-1.30318
749,197,6.3988,1.33618,0.00768374,-0.0113631,-0.00253821,0.00801619,-0.0116956,-0.130234,0.0114465,0.0397832,1973,827,6.39876,-1.33617
756,197,6.50989,1.23456,0.0095877,-0.0150641,-0.0031533,0.00998466,-0.0154611,-0.125227,0.0148041,0.0468814,1980,827,6.50991,-1.23456
763,197,6.50879,1.28003,0.0117104,-0.0192643,-0.00387194,0.0121871,-0.019741,-0.122492,0.0186049,0.0472375,1987,827,6.50875,-1.28006
770,197,5.93567,1.32843,0,0,0,0,0,0,0,-1,1994,827,5.93572,-1.32845
777,197,0,0,0,0,0,0,0,0,0,-1,2001,827,0,0
784,197,0,0,0,0,0,0,0,0,0,-1,2008,827,0,0
791,197,0,0,0,0,0,0,0,0,0,-1,2015,827,0,0
798,197,0,0,0,0,0,0,0,0,0,-1,2022,827,0,0
805,197,0,0,0,0,0,0,0,0,0,-1,2029,827,0,0
812,197,0,0,0,0,0,0,0,0,0,-1,2036,827,0,0
-700,190,0,0,0,0,0,0,0,0,0,-1,524,834,0,0
-693,190,0,0,0,0,0,0,0,0,0,-1,531,834,0,0
-686,190,0,0,0,0,0,0,0,0,0,-1,538,834,0,0
-679,190,0,0,0,0,0,0,0,0,0,-1,545,834,0,0
-672,190,0,0,0,0,0,0,0,0,0,-1,552,834,0,0
-665,190,0,0,0,0,0,0,0,0,0,-1,559,834,0,0
-658,190,-1.53479,1.80957,-0.0253548,0.0253363,-0.00984161,0.02718,-0.0271985,-1.38561,0.0313954,0.0480924,566,834,-1.53481,-1.80959
-651,190,-1.55579,1.64905,-0.0209363,0.0252477,-0.00366747,0.0255371,-0.0212257,-1.49204,0.0270367,0.0467166,573,834,-1.55578,-1.64907
-644,190,-1.83411,1.29492,0,0,0,0,0,0,0,-1,580,834,-1.83411,-1.29495
-637,190,-1.90283,1.21594,-0.01122,0.0189464,0.00401575,0.0194718,-0.0117455,1.44069,0.0182064,0.0490052,587,834,-1.90281,-1.21596
-630,190,-1.96454,1.18542,-0.00694769,0.015093,0.00571584,0.0164871,-0.0083418,1.33156,0.0145899,0.0467517,594,834,-1.96451,-1.18544
-623,190,-2.14856,0.953979,0,0,0,0,0,0,0,-1,601,834,-2.14854,-0.953977
-616,190,-2.05499,0.905701,-0.00068633,0.00809433,0.00637715,0.0114463,-0.00403829,1.08686,0.00927479,0.0418657,608,834,-2.055,-0.9057
-609,190,-1.9635,0.867249,0.0012515,0.00549477,0.0057694,0.00952027,-0.002774,0.961593,0.0074458,0.022813,615,834,-1.96351,-0.867259
-602,190,-1.90625,0.825745,0.00219033,0.00330701,0.00515204,0.00793087,-0.00243354,0.839374,0.00625818,0.0142615,622,834,-1.90627,-0.825773
-595,190,-1.89923,0.775146,0.00248737,0.00145182,0.00468198,0.00668012,-0.00274093,0.730327,0.00559549,0.017263,629,834,-1.89921,-0.775128
-588,190,-1.90491,0.729248,0.00209537,9.90833e-05,0.00387932,0.0051029,-0.00290845,0.65948,0.00468284,0.0154621,636,834,-1.90493,-0.729249
-581,190,-1.90723,0.689087,0.00110405,-0.0010238,0.00331459,0.00352129,-0.00344103,0.630101,0.00401979,0.0106701,643,834,-1.90725,-0.689072
-574,190,-1.89355,0.644409,-0.00029865,-0.00156797,0.00274875,0.00188776,-0.00375437,0.671941,0.00331637,0.00940509,650,834,-1.89356,-0.64438
-567,190,-1.89813,0.588928,-0.00236499,-0.00168151,0.00284941,0.000846579,-0.00489307,0.84508,0.00357779,0.01047,657,834,-1.89815,-0.588948
-560,190,-1.93329,0.531372,-0.0044906,-0.00200918,0.00305885,5.10034e-05,-0.00655079,0.978066,0.00438429,0.0117261,664,834,-1.93332,-0.531344
-553,190,-1.91937,0.486633,-0.00604762,-0.0019445,0.00321074,-0.000185848,-0.00780628,1.06969,0.00514336,0.0104499,671,834,-1.91935,-0.486629
-546,190,-1.85236,0.429382,-0.00707734,-0.0021218,0.00346238,-0.000341938,-0.0088572,1.09597,0.00579419,0.0213859,678,834,-1.85237,-0.429359
-539,190,-1.80591,0.332458,-0.00773582,-0.00237326,0.00353216,-0.000619967,-0.00948911,1.11005,0.00612987,0.0391054,685,834,-1.80593,-0.332475
-532,190,-2.0191,0.268433,-0.00798366,-0.00250599,0.0035472,-0.000763317,-0.00972633,1.11415,0.00624535,0.0471855,692,834,-2.01907,-0.268445
-525,190,-2.1947,0.467896,0,0,0,0,0,0,0,-1,699,834,-2.19473,-0.467893
-518,190,-2.87128,0.901794,-0.0070103,-0.00231553,0.00261389,-0.00114971,-0.00817612,1.15127,0.0051108,0.0494128,706,834,-2.8713,-0.901823
-511,190,-2.9071,0.906921,-0.00556038,-0.00192034,0.00152948,-0.00136301,-0.00611771,1.22136,0.00370859,0.0416478,713,834,-2.90711,-0.906902
-504,190,-2.85895,0.930298,-0.00330041,-0.00128555,-4.19315e-05,-0.00128468,-0.00330128,-1.55,0.00192155,0.0404784,720,834,-2.85897,-0.930278
-497,190,-2.90826,0.792908,-0.00016038,-0.000393867,-0.00212087,0.00184696,-0.0024012,-0.757903,0.00245963,0.0420855,727,834,-2.90826,-0.792918
-490,190,-2.99963,0.615662,0.00372826,0.00072698,-0.00468298,0.00714516,-0.00268992,-0.630344,0.00586927,0.0412722,734,834,-2.99963,-0.615675
-483,190,0,0,0,0,0,0,0,0,0,-1,741,834,0,0
-476,190,0,0,0,0,0,0,0,0,0,-1,748,834,0,0
-469,190,0,0,0,0,0,0,0,0,0,-1,755,834,0,0
-462,190,0,0,0,0,0,0,0,0,0,-1,762,834,0,0
-455,190,0,0,0,0,0,0,0,0,0,-1,769,834,0,0
-448,190,0,0,0,0,0,0,0,0,0,-1,776,834,0,0
-441,190,0,0,0,0,0,0,0,0,0,-1,783,834,0,0
-434,190,0,0,0,0,0,0,0,0,0,-1,790,834,0,0
-427,190,0,0,0,0,0,0,0,0,0,-1,797,834,0,0
-420,190,0,0,0,0,0,0,0,0,0,-1,804,834,0,0
-413,190,0,0,0,0,0,0,0,0,0,-1,811,834,0,0
-406,190,0,0,0,0,0,0,0,0,0,-1,818,834,0,0
-399,190,0,0,0,0,0,0,0,0,0,-1,825,834,0,0
-392,190,0,0,0,0,0,0,0,0,0,-1,832,834,0,0
-385,190,0,0,0,0,0,0,0,0,0,-1,839,834,0,0
-378,190,0,0,0,0,0,0,0,0,0,-1,846,834,0,0
-371,190,0,0,0,0,0,0,0,0,0,-1,853,834,0,0
-364,190,0,0,0,0,0,0,0,0,0,-1,860,834,0,0
-357,190,0,0,0,0,0,0,0,0,0,-1,867,834,0,0
-350,190,0,0,0,0,0,0,0,0,0,-1,874,834,0,0
-343,190,0,0,0,0,0,0,0,0,0,-1,881,834,0,0
-336,190,0,0,0,0,0,0,0,0,0,-1,888,834,0,0
-329,190,0,0,0,0,0,0,0,0,0,-1,895,834,0,0
-322,190,0,0,0,0,0,0,0,0,0,-1,902,834,0,0
-315,190,0,0,0,0,0,0,0,0,0,-1,909,834,0,0
-308,190,0,0,0,0,0,0,0,0,0,-1,916,834,0,0
-301,190,0,0,0,0,0,0,0,0,0,-1,923,834,0,0
-294,190,0,0,0,0,0,0,0,0,0,-1,930,834,0,0
-287,190,0,0,0,0,0,0,0,0,0,-1,937,834,0,0
-280,190,0,0,0,0,0,0,0,0,0,-1,944,834,0,0
-273,190,0,0,0,0,0,0,0,0,0,-1,951,834,0,0
-266,190,0,0,0,0,0,0,0,0,0,-1,958,834,0,0
-259,190,0,0,0,0,0,0,0,0,0,-1,965,834,0,0
-252,190,0,0,0,0,0,0,0,0,0,-1,972,834,0,0
-245,190,0,0,0,0,0,0,0,0,0,-1,979,834,0,0
-238,190,0,0,0,0,0,0,0,0,0,-1,986,834,0,0
-231,190,0,0,0,0,0,0,0,0,0,-1,993,834,0,0
-224,190,0,0,0,0,0,0,0,0,0,-1,1000,834,0,0
-217,190,0,0,0,0,0,0,0,0,0,-1,1007,834,0,0
-210,190,0,0,0,0,0,0,0,0,0,-1,1014,834,0,0
-203,190,0,0,0,0,0,0,0,0,0,-1,1021,834,0,0
-196,190,0,0,0,0,0,0,0,0,0,-1,1028,834,0,0
-189,190,0,0,0,0,0,0,0,0,0,-1,1035,834,0,0
-182,190,0,0,0,0,0,0,0,0,0,-1,1042,834,0,0
-175,190,0,0,0,0,0,0,0,0,0,-1,1049,834,0,0
-168,190,0,0,0,0,0,0,0,0,0,-1,1056,834,0,0
-161,190,0,0,0,0,0,0,0,0,0,-1,1063,834,0,0
-154,190,0,0,0,0,0,0,0,0,0,-1,1070,834,0,0
-147,190,0,0,0,0,0,0,0,0,0,-1,1077,834,0,0
-140,190,0,0,0,0,0,0,0,0,0,-1,1084,834,0,0
-133,190,0,0,0,0,0,0,0,0,0,-1,1091,834,0,0
-126,190,0,0,0,0,0,0,0,0,0,-1,1098,834,0,0
-119,190,0,0,0,0,0,0,0,0,0,-1,1105,834,0,0
-112,190,0,0,0,0,0,0,0,0,0,-1,1112,834,0,0
-105,190,0,0,0,0,0,0,0,0,0,-1,1119,834,0,0
-98,190,0,0,0,0,0,0,0,0,0,-1,1126,834,0,0
-91,190,0,0,0,0,0,0,0,0,0,-1,1133,834,0,0
-84,190,0,0,0,0,0,0,0,0,0,-1,1140,834,0,0
-77,190,0,0,0,0,0,0,0,0,0,-1,1147,834,0,0
-70,190,0,0,0,0,0,0,0,0,0,-1,1154,834,0,0
-63,190,0,0,0,0,0,0,0,0,0,-1,1161,834,0,0
-56,190,0,0,0,0,0,0,0,0,0,-1,1168,834,0,0
-49,190,0,0,0,0,0,0,0,0,0,-1,1175,834,0,0
-42,190,0,0,0,0,0,0,0,0,0,-1,1182,834,0,0
-35,190,0,0,0,0,0,0,0,0,0,-1,1189,834,0,0
-28,190,0,0,0,0,0,0,0,0,0,-1,1196,834,0,0
-21,190,0,0,0,0,0,0,0,0,0,-1,1203,834,0,0
-14,190,0,0,0,0,0,0,0,0,0,-1,1210,834,0,0
-7,190,0,0,0,0,0,0,0,0,0,-1,1217,834,0,0
0,190,0,0,0,0,0,0,0,0,0,-1,1224,834,0,0
7,190,0,0,0,0,0,0,0,0,0,-1,1231,834,0,0
14,190,0,0,0,0,0,0,0,0,0,-1,1238,834,0,0
21,190,0,0,0,0,0,0,0,0,0,-1,1245,834,0,0
28,190,0,0,0,0,0,0,0,0,0,-1,1252,834,0,0
35,190,0,0,0,0,0,0,0,0,0,-1,1259,834,0,0
42,190,0,0,0,0,0,0,0,0,0,-1,1266,834,0,0
49,190,0,0,0,0,0,0,0,0,0,-1,1273,834,0,0
56,190,0,0,0,0,0,0,0,0,0,-1,1280,834,0,0
63,190,0,0,0,0,0,0,0,0,0,-1,1287,834,0,0
70,190,0,0,0,0,0,0,0,0,0,-1,1294,834,0,0
77,190,0,0,0,0,0,0,0,0,0,-1,1301,834,0,0
84,190,0,0,0,0,0,0,0,0,0,-1,1308,834,0,0
91,190,0,0,0,0,0,0,0,0,0,-1,1315,834,0,0
98,190,0,0,0,0,0,0,0,0,0,-1,1322,834,0,0
105,190,0,0,0,0,0,0,0,0,0,-1,1329,834,0,0
112,190,0,0,0,0,0,0,0,0,0,-1,1336,834,0,0
119,190,0,0,0,0,0,0,0,0,0,-1,1343,834,0,0
126,190,0,0,0,0,0,0,0,0,0,-1,1350,834,0,0
133,190,0,0,0,0,0,0,0,0,0,-1,1357,834,0,0
140,190,0,0,0,0,0,0,0,0,0,-1,1364,834,0,0
147,190,0,0,0,0,0,0,0,0,0,-1,1371,834,0,0
154,190,0,0,0,0,0,0,0,0,0,-1,1378,834,0,0
161,190,0,0,0,0,0,0,0,0,0,-1,1385,834,0,0
168,190,0,0,0,0,0,0,0,0,0,-1,1392,834,0,0
175,190,0,0,0,0,0,0,0,0,0,-1,1399,834,0,0
182,190,0,0,0,0,0,0,0,0,0,-1,1406,834,0,0
189,190,0,0,0,0,0,0,0,0,0,-1,1413,834,0,0
196,190,0,0,0,0,0,0,0,0,0,-1,1420,834,0,0
203,190,0,0,0,0,0,0,0,0,0,-1,1427,834,0,0
210,190,0,0,0,0,0,0,0,0,0,-1,1434,834,0,0
217,190,0,0,0,0,0,0,0,0,0,-1,1441,834,0,0
224,190,0,0,0,0,0,0,0,0,0,-1,1448,834,0,0
231,190,0,0,0,0,0,0,0,0,0,-1,1455,834,0,0
238,190,0,0,0,0,0,0,0,0,0,-1,1462,834,0,0
245,190,0,0,0,0,0,0,0,0,0,-1,1469,834,0,0
252,190,0,0,0,0,0,0,0,0,0,-1,1476,834,0,0
259,190,0,0,0,0,0,0,0,0,0,-1,1483,834,0,0
266,190,0,0,0,0,0,0,0,0,0,-1,1490,834,0,0
273,190,0,0,0,0,0,0,0,0,0,-1,1497,834,0,0
280,190,0,0,0,0,0,0,0,0,0,-1,1504,834,0,0
287,190,0,0,0,0,0,0,0,0,0,-1,1511,834,0,0
294,190,0,0,0,0,0,0,0,0,0,-1,1518,834,0,0
301,190,0,0,0,0,0,0,0,0,0,-1,1525,834,0,0
308,190,0,0,0,0,0,0,0,0,0,-1,1532,834,0,0
315,190,0,0,0,0,0,0,0,0,0,-1,1539,834,0,0
322,190,0,0,0,0,0,0,0,0,0,-1,1546,834,0,0
329,190,0,0,0,0,0,0,0,0,0,-1,1553,834,0,0
336,190,0,0,0,0,0,0,0,0,0,-1,1560,834,0,0
343,190,0,0,0,0,0,0,0,0,0,-1,1567,834,0,0
350,190,0,0,0,0,0,0,0,0,0,-1,1574,834,0,0
357,190,0,0,0,0,0,0,0,0,0,-1,1581,834,0,0
364,190,0,0,0,0,0,0,0,0,0,-1,1588,834,0,0
371,190,0,0,0,0,0,0,0,0,0,-1,1595,834,0,0
378,190,0,0,0,0,0,0,0,0,0,-1,1602,834,0,0
385,190,0,0,0,0,0,0,0,0,0,-1,1609,834,0,0
392,190,0,0,0,0,0,0,0,0,0,-1,1616,834,0,0
399,190,0,0,0,0,0,0,0,0,0,-1,1623,834,0,0
406,190,0,0,0,0,0,0,0,0,0,-1,1630,834,0,0
413,190,0,0,0,0,0,0,0,0,0,-1,1637,834,0,0
420,190,0,0,0,0,0,0,0,0,0,-1,1644,834,0,0
427,190,0,0,0,0,0,0,0,0,0,-1,1651,834,0,0
434,190,0,0,0,0,0,0,0,0,0,-1,1658,834,0,0
441,190,0,0,0,0,0,0,0,0,0,-1,1665,834,0,0
448,190,0,0,0,0,0,0,0,0,0,-1,1672,834,0,0
455,190,0,0,0,0,0,0,0,0,0,-1,1679,834,0,0
462,190,0,0,0,0,0,0,0,0,0,-1,1686,834,0,0
469,190,0,0,0,0,0,0,0,0,0,-1,1693,834,0,0
476,190,0,0,0,0,0,0,0,0,0,-1,1700,834,0,0
483,190,0,0,0,0,0,0,0,0,0,-1,1707,834,0,0
490,190,0,0,0,0,0,0,0,0,0,-1,1714,834,0,0
497,190,0,0,0,0,0,0,0,0,0,-1,1721,834,0,0
504,190,0,0,0,0,0,0,0,0,0,-1,1728,834,0,0
511,190,0,0,0,0,0,0,0,0,0,-1,1735,834,0,0
518,190,0,0,0,0,0,0,0,0,0,-1,1742,834,0,0
525,190,0,0,0,0,0,0,0,0,0,-1,1749,834,0,0
532,190,0,0,0,0,0,0,0,0,0,-1,1756,834,0,0
539,190,0,0,0,0,0,0,0,0,0,-1,1763,834,0,0
546,190,0,0,0,0,0,0,0,0,0,-1,1770,834,0,0
553,190,0,0,0,0,0,0,0,0,0,-1,1777,834,0,0
560,190,0,0,0,0,0,0,0,0,0,-1,1784,834,0,0
567,190,0,0,0,0,0,0,0,0,0,-1,1791,834,0,0
574,190,0,0,0,0,0,0,0,0,0,-1,1798,834,0,0
581,190,0,0,0,0,0,0,0,0,0,-1,1805,834,0,0
588,190,0,0,0,0,0,0,0,0,0,-1,1812,834,0,0
595,190,0,0,0,0,0,0,0,0,0,-1,1819,834,0,0
602,190,7.2738,0.886963,-0.00356622,0.00314306,0.00432399,0.00526113,-0.00568429,1.11531,0.00632091,0.042515,1826,834,7.2738,-0.886978
609,190,7.22925,0.942688,-0.00327981,0.00249226,0.00371262,0.00430864,-0.00509619,1.11579,0.00543622,0.041056,1833,834,7.22924,-0.942685
616,190,7.33191,1.12769,-0.00319411,0.00177517,0.00318541,0.00333037,-0.00474931,1.11661,0.00468872,0.0395897,1840,834,7.33195,-1.12771
623,190,7.22192,1.12158,-0.00328281,0.00145318,0.00234179,0.00241556,-0.00424519,1.18088,0.00389365,0.0388527,1847,834,7.22196,-1.12159
630,190,7.27051,0.981506,-0.00365642,0.00118777,0.00147715,0.00160266,-0.00407131,1.29698,0.00337764,0.0405723,1854,834,7.27051,-0.981508
637,190,7.21252,1.04333,-0.00411007,0.000992026,0.000679208,0.0010809,-0.00419894,1.44069,0.00322063,0.0336071,1861,834,7.21248,-1.04332
644,190,7.16455,1.10425,-0.00448746,0.000800845,6.74038e-05,0.000801704,-0.00448832,1.55805,0.00329215,0.0256184,1868,834,7.16451,-1.10425
651,190,7.12793,1.20123,-0.00471731,0.000576335,-0.000428297,0.000610763,-0.00475174,-1.49058,0.0033898,0.0345782,1875,834,7.12793,-1.20123
658,190,6.79321,1.58954,-0.00478594,0.000466421,-0.000832403,0.000595185,-0.0049147,-1.41732,0.00349181,0.0402398,1882,834,6.79317,-1.58953
665,190,6.53821,1.80151,0,0,0,0,0,0,0,-1,1889,834,6.53826,-1.8015
672,190,6.21729,0.782776,-0.0050712,0.000296793,-0.00159376,0.000734321,-0.00550873,-1.30287,0.00394014,0.0355426,1896,834,6.21735,-0.782803
679,190,6.21851,0.801758,-0.00506463,0.000297955,-0.00167907,0.000780302,-0.00554698,-1.29106,0.00398364,0.0181938,1903,834,6.21853,-0.801755
686,190,6.21631,0.841553,-0.0046601,0.000270862,-0.00170389,0.000802354,-0.00519159,-1.26843,0.00375718,0.00995223,1910,834,6.21625,-0.841559
693,190,6.21924,0.894836,-0.00366014,-1.19562e-05,-0.00151079,0.000532455,-0.00420455,-1.22493,0.00299633,0.0112737,1917,834,6.21919,-0.894832
700,190,6.22266,0.958557,-0.00279029,-4.86763e-06,-0.00128776,0.000499252,-0.00329441,-1.19766,0.00238021,0.0103377,1924,834,6.22267,-0.958555
707,190,6.22375,1.00708,-0.00156509,-0.000620064,-0.0011479,0.000148773,-0.00233392,-0.980644,0.00160784,0.0117575,1931,834,6.2238,-1.00708
714,190,6.21838,1.04327,-0.000163069,-0.00167585,-0.00102851,0.00035724,-0.00219616,-0.468345,0.00159656,0.0111305,1938,834,6.21844,-1.04328
721,190,6.2041,1.09485,0.00131067,-0.00242662,-0.000929775,0.00152921,-0.00264515,-0.230849,0.0024386,0.010557,1945,834,6.20412,-1.09483
728,190,6.18335,1.14606,0.00306288,-0.00295147,-0.000940593,0.00320655,-0.00309514,-0.151571,0.00363847,0.0124065,1952,834,6.18339,-1.14606
735,190,6.1958,1.21307,0.00465378,-0.00467892,-0.00104934,0.00477031,-0.00479545,-0.110597,0.0055228,0.0114312,1959,834,6.19579,-1.21305
742,190,6.22485,1.30334,0.00629046,-0.00641704,-0.00135873,0.00643412,-0.0065607,-0.105337,0.00750268,0.014372,1966,834,6.22489,-1.30332
749,190,6.35291,1.39978,0.0080075,-0.00865961,-0.0017853,0.00819659,-0.0088487,-0.10552,0.0098435,0.0364124,1973,834,6.35288,-1.39979
756,190,6.42578,1.53107,0.00998601,-0.0113002,-0.00231707,0.0102353,-0.0115495,-0.107181,0.0125851,0.0457371,1980,834,6.42579,-1.53108
763,190,6.24146,1.58698,0.0122807,-0.0142723,-0.00296731,0.0126082,-0.0145999,-0.109943,0.0157227,0.0478251,1987,834,6.24146,-1.58697
770,190,6.02185,1.63074,0.0148506,-0.0174656,-0.0037443,0.0152787,-0.0178937,-0.113855,0.019172,0.0480795,1994,834,6.02182,-1.63072
777,190,5.76318,1.47327,0,0,0,0,0,0,0,-1,2001,834,5.76313,-1.4733
784,190,0,0,0,0,0,0,0,0,0,-1,2008,834,0,0
791,190,0,0,0,0,0,0,0,0,0,-1,2015,834,0,0
798,190,0,0,0,0,0,0,0,0,0,-1,2022,834,0,0
805,190,0,0,0,0,0,0,0,0,0,-1,2029,834,0,0
812,190,0,0,0,0,0,0,0,0,0,-1,2036,834,0,0
-700,183,0,0,0,0,0,0,0,0,0,-1,524,841,0,0
-693,183,0,0,0,0,0,0,0,0,0,-1,531,841,0,0
-686,183,0,0,0,0,0,0,0,0,0,-1,538,841,0,0
-679,183,0,0,0,0,0,0,0,0,0,-1,545,841,0,0
-672,183,0,0,0,0,0,0,0,0,0,-1,552,841,0,0
-665,183,0,0,0,0,0,0,0,0,0,-1,559,841,0,0
-658,183,-1.54388,1.65869,0,0,0,0,0,0,0,-1,566,841,-1.54387,-1.65866
-651,183,-2.30359,1.09515,0,0,0,0,0,0,0,-1,573,841,-2.30357,-1.09515
-644,183,-2.81311,1.61761,0,0,0,0,0,0,0,-1,580,841,-2.81312,-1.61762
-637,183,-2.92041,1.46185,-0.0046541,0.0114461,0.00111765,0.0115233,-0.00473132,1.50182,0.00965386,0.0466014,587,841,-2.92041,-1.46186
-630,183,-1.89093,1.05121,-0.00164437,0.009014,0.00276878,0.00969035,-0.00232071,1.33121,0.00735684,0.0467226,594,841,-1.89093,-1.05119
-623,183,-2.0174,1.00757,0.000591847,0.0066732,0.00363426,0.00837104,-0.001106,1.13375,0.00598353,0.0469047,601,841,-2.0174,-1.00756
-616,183,-2.04675,0.919922,0.00207883,0.00461903,0.00389492,0.00744571,-0.000747843,0.943008,0.00523094,0.0397853,608,841,-2.04673,-0.919892
-609,183,-1.96881,0.872437,0.00295153,0.0030941,0.00365765,0.00668116,-0.000635531,0.795141,0.00468036,0.0164062,615,841,-1.96881,-0.872435
-602,183,-1.96533,0.83844,0.00295213,0.00174824,0.00348326,0.00588507,-0.0011847,0.699837,0.00437212,0.0107817,622,841,-1.96533,-0.838451
-595,183,-1.96429,0.785339,0.00253574,0.000558607,0.00339864,0.00508666,-0.00199232,0.643868,0.00421519,0.0104651,629,841,-1.96429,-0.785368
-588,183,-1.96265,0.737976,0.00153216,-0.000342915,0.00300911,0.0037464,-0.00255716,0.634381,0.00366089,0.00976142,636,841,-1.96265,-0.737985
-581,183,-1.95715,0.673218,0.000122852,-0.0012104,0.00278721,0.00232205,-0.0034096,0.668017,0.00332897,0.0107359,643,841,-1.95717,-0.673204
-574,183,-1.95703,0.630859,-0.00159084,-0.00146413,0.0025931,0.00106639,-0.00412136,0.797612,0.00316353,0.0107657,650,841,-1.95705,-0.630845
-567,183,-1.94098,0.603577,-0.00359061,-0.00152699,0.00284545,0.000467949,-0.00558555,0.959334,0.00388908,0.0121025,657,841,-1.94098,-0.603574
-560,183,-1.99347,0.562439,-0.005329,-0.00183725,0.0031031,-2.26009e-05,-0.00714365,1.04164,0.00475492,0.0129804,664,841,-1.99349,-0.56242
-553,183,-1.97888,0.480042,-0.00658644,-0.00181737,0.00326759,-0.000156761,-0.00824704,1.10061,0.00544653,0.0111015,671,841,-1.97888,-0.480069
-546,183,-1.90942,0.451965,-0.00737584,-0.0019718,0.00346982,-0.000276027,-0.00907161,1.11621,0.00595786,0.0249997,678,841,-1.90942,-0.451945
-539,183,-1.96588,0.179993,-0.00777695,-0.00210426,0.00343908,-0.000482793,-0.00939842,1.13022,0.00611104,0.0410039,685,841,-1.9659,-0.180004
-532,183,-1.98895,-0.0300903,0,0,0,0,0,0,0,-1,692,841,-1.98897,0.0301142
-525,183,-2.85809,0.847473,-0.00718024,-0.00187748,0.00287914,-0.000614882,-0.00844284,1.15752,0.00543521,0.046513,699,841,-2.85808,-0.847458
-518,183,-2.79846,1.05115,-0.00603677,-0.00152848,0.00204142,-0.000741477,-0.00682377,1.20284,0.00432327,0.0422582,706,841,-2.79849,-1.05115
-511,183,-2.89868,0.959839,-0.0041094,-0.000936191,0.000728066,-0.000777117,-0.00426847,1.35569,0.00262523,0.0386698,713,841,-2.8987,-0.959815
-504,183,-2.95435,1.0119,-0.00131733,-0.00011914,-0.00112346,0.000554983,-0.00199145,-1.03035,0.00154619,0.04064,720,841,-2.95436,-1.01192
-497,183,-2.75684,1.04474,0.00236222,0.000898393,-0.00352041,0.005226,-0.00196539,-0.682905,0.00429185,0.0426529,727,841,-2.75683,-1.04476
-490,183,-2.66962,0.814636,0.00665339,0.00205277,-0.00642381,0.0111763,-0.00247017,-0.613466,0.00839628,0.0414147,734,841,-2.6696,-0.814614
-483,183,0,0,0,0,0,0,0,0,0,-1,741,841,0,0
-476,183,0,0,0,0,0,0,0,0,0,-1,748,841,0,0
-469,183,0,0,0,0,0,0,0,0,0,-1,755,841,0,0
-462,183,0,0,0,0,0,0,0,0,0,-1,762,841,0,0
-455,183,0,0,0,0,0,0,0,0,0,-1,769,841,0,0
-448,183,0,0,0,0,0,0,0,0,0,-1,776,841,0,0
-441,183,0,0,0,0,0,0,0,0,0,-1,783,841,0,0
-434,183,0,0,0,0,0,0,0,0,0,-1,790,841,0,0
-427,183,0,0,0,0,0,0,0,0,0,-1,797,841,0,0
-420,183,0,0,0,0,0,0,0,0,0,-1,804,841,0,0
-413,183,0,0,0,0,0,0,0,0,0,-1,811,841,0,0
-406,183,0,0,0,0,0,0,0,0,0,-1,818,841,0,0
-399,183,0,0,0,0,0,0,0,0,0,-1,825,841,0,0
-392,183,0,0,0,0,0,0,0,0,0,-1,832,841,0,0
-385,183,0,0,0,0,0,0,0,0,0,-1,839,841,0,0
-378,183,0,0,0,0,0,0,0,0,0,-1,846,841,0,0
-371,183,0,0,0,0,0,0,0,0,0,-1,853,841,0,0
-364,183,0,0,0,0,0,0,0,0,0,-1,860,841,0,0
-357,183,0,0,0,0,0,0,0,0,0,-1,867,841,0,0
-350,183,0,0,0,0,0,0,0,0,0,-1,874,841,0,0
-343,183,0,0,0,0,0,0,0,0,0,-1,881,841,0,0
-336,183,0,0,0,0,0,0,0,0,0,-1,888,841,0,0
-329,183,0,0,0,0,0,0,0,0,0,-1,895,841,0,0
-322,183,0,0,0,0,0,0,0,0,0,-1,902,841,0,0
-315,183,0,0,0,0,0,0,0,0,0,-1,909,841,0,0
-308,183,0,0,0,0,0,0,0,0,0,-1,916,841,0,0
-301,183,0,0,0,0,0,0,0,0,0,-1,923,841,0,0
-294,183,0,0,0,0,0,0,0,0,0,-1,930,841,0,0
-287,183,0,0,0,0,0,0,0,0,0,-1,937,841,0,0
-280,183,0,0,0,0,0,0,0,0,0,-1,944,841,0,0
-273,183,0,0,0,0,0,0,0,0,0,-1,951,841,0,0
-266,183,0,0,0,0,0,0,0,0,0,-1,958,841,0,0
-259,183,0,0,0,0,0,0,0,0,0,-1,965,841,0,0
-252,183,0,0,0,0,0,0,0,0,0,-1,972,841,0,0
-245,183,0,0,0,0,0,0,0,0,0,-1,979,841,0,0
-238,183,0,0,0,0,0,0,0,0,0,-1,986,841,0,0
-231,183,0,0,0,0,0,0,0,0,0,-1,993,841,0,0
-224,183,0,0,0,0,0,0,0,0,0,-1,1000,841,0,0
-217,183,0,0,0,0,0,0,0,0,0,-1,1007,841,0,0
-210,183,0,0,0,0,0,0,0,0,0,-1,1014,841,0,0
-203,183,0,0,0,0,0,0,0,0,0,-1,1021,841,0,0
-196,183,0,0,0,0,0,0,0,0,0,-1,1028,841,0,0
-189,183,0,0,0,0,0,0,0,0,0,-1,1035,841,0,0
-182,183,0,0,0,0,0,0,0,0,0,-1,1042,841,0,0
-175,183,0,0,0,0,0,0,0,0,0,-1,1049,841,0,0
-168,183,0,0,0,0,0,0,0,0,0,-1,1056,841,0,0
-161,183,0,0,0,0,0,0,0,0,0,-1,1063,841,0,0
-154,183,0,0,0,0,0,0,0,0,0,-1,1070,841,0,0
-147,183,0,0,0,0,0,0,0,0,0,-1,1077,841,0,0
-140,183,0,0,0,0,0,0,0,0,0,-1,1084,841,0,0
-133,183,0,0,0,0,0,0,0,0,0,-1,1091,841,0,0
-126,183,0,0,0,0,0,0,0,0,0,-1,1098,841,0,0
-119,183,0,0,0,0,0,0,0,0,0,-1,1105,841,0,0
-112,183,0,0,0,0,0,0,0,0,0,-1,1112,841,0,0
-105,183,0,0,0,0,0,0,0,0,0,-1,1119,841,0,0
-98,183,0,0,0,0,0,0,0,0,0,-1,1126,841,0,0
-91,183,0,0,0,0,0,0,0,0,0,-1,1133,841,0,0
-84,183,0,0,0,0,0,0,0,0,0,-1,1140,841,0,0
-77,183,0,0,0,0,0,0,0,0,0,-1,1147,841,0,0
-70,183,0,0,0,0,0,0,0,0,0,-1,1154,841,0,0
-63,183,0,0,0,0,0,0,0,0,0,-1,1161,841,0,0
-56,183,0,0,0,0,0,0,0,0,0,-1,1168,841,0,0
-49,183,0,0,0,0,0,0,0,0,0,-1,1175,841,0,0
-42,183,0,0,0,0,0,0,0,0,0,-1,1182,841,0,0
-35,183,0,0,0,0,0,0,0,0,0,-1,1189,841,0,0
-28,183,0,0,0,0,0,0,0,0,0,-1,1196,841,0,0
-21,183,0,0,0,0,0,0,0,0,0,-1,1203,841,0,0
-14,183,0,0,0,0,0,0,0,0,0,-1,1210,841,0,0
-7,183,0,0,0,0,0,0,0,0,0,-1,1217,841,0,0
0,183,0,0,0,0,0,0,0,0,0,-1,1224,841,0,0
7,183,0,0,0,0,0,0,0,0,0,-1,1231,841,0,0
14,183,0,0,0,0,0,0,0,0,0,-1,1238,841,0,0
21,183,0,0,0,0,0,0,0,0,0,-1,1245,841,0,0
28,183,0,0,0,0,0,0,0,0,0,-1,1252,841,0,0
35,183,0,0,0,0,0,0,0,0,0,-1,1259,841,0,0
42,183,0,0,0,0,0,0,0,0,0,-1,1266,841,0,0
49,183,0,0,0,0,0,0,0,0,0,-1,1273,841,0,0
56,183,0,0,0,0,0,0,0,0,0,-1,1280,841,0,0
63,183,0,0,0,0,0,0,0,0,0,-1,1287,841,0,0
70,183,0,0,0,0,0,0,0,0,0,-1,1294,841,0,0
77,183,0,0,0,0,0,0,0,0,0,-1,1301,841,0,0
84,183,0,0,0,0,0,0,0,0,0,-1,1308,841,0,0
91,183,0,0,0,0,0,0,0,0,0,-1,1315,841,0,0
98,183,0,0,0,0,0,0,0,0,0,-1,1322,841,0,0
105,183,0,0,0,0,0,0,0,0,0,-1,1329,841,0,0
112,183,0,0,0,0,0,0,0,0,0,-1,1336,841,0,0
119,183,0,0,0,0,0,0,0,0,0,-1,1343,841,0,0
126,183,0,0,0,0,0,0,0,0,0,-1,1350,841,0,0
133,183,0,0,0,0,0,0,0,0,0,-1,1357,841,0,0
140,183,0,0,0,0,0,0,0,0,0,-1,1364,841,0,0
147,183,0,0,0,0,0,0,0,0,0,-1,1371,841,0,0
154,183,0,0,0,0,0,0,0,0,0,-1,1378,841,0,0
161,183,0,0,0,0,0,0,0,0,0,-1,1385,841,0,0
168,183,0,0,0,0,0,0,0,0,0,-1,1392,841,0,0
175,183,0,0,0,0,0,0,0,0,0,-1,1399,841,0,0
182,183,0,0,0,0,0,0,0,0,0,-1,1406,841,0,0
189,183,0,0,0,0,0,0,0,0,0,-1,1413,841,0,0
196,183,0,0,0,0,0,0,0,0,0,-1,1420,841,0,0
203,183,0,0,0,0,0,0,0,0,0,-1,1427,841,0,0
210,183,0,0,0,0,0,0,0,0,0,-1,1434,841,0,0
217,183,0,0,0,0,0,0,0,0,0,-1,1441,841,0,0
224,183,0,0,0,0,0,0,0,0,0,-1,1448,841,0,0
231,183,0,0,0,0,0,0,0,0,0,-1,1455,841,0,0
238,183,0,0,0,0,0,0,0,0,0,-1,1462,841,0,0
245,183,0,0,0,0,0,0,0,0,0,-1,1469,841,0,0
252,183,0,0,0,0,0,0,0,0,0,-1,1476,841,0,0
259,183,0,0,0,0,0,0,0,0,0,-1,1483,841,0,0
266,183,0,0,0,0,0,0,0,0,0,-1,1490,841,0,0
273,183,0,0,0,0,0,0,0,0,0,-1,1497,841,0,0
280,183,0,0,0,0,0,0,0,0,0,-1,1504,841,0,0
287,183,0,0,0,0,0,0,0,0,0,-1,1511,841,0,0
294,183,0,0,0,0,0,0,0,0,0,-1,1518,841,0,0
301,183,0,0,0,0,0,0,0,0,0,-1,1525,841,0,0
308,183,0,0,0,0,0,0,0,0,0,-1,1532,841,0,0
315,183,0,0,0,0,0,0,0,0,0,-1,1539,841,0,0
322,183,0,0,0,0,0,0,0,0,0,-1,1546,841,0,0
329,183,0,0,0,0,0,0,0,0,0,-1,1553,841,0,0
336,183,0,0,0,0,0,0,0,0,0,-1,1560,841,0,0
343,183,0,0,0,0,0,0,0,0,0,-1,1567,841,0,0
350,183,0,0,0,0,0,0,0,0,0,-1,1574,841,0,0
357,183,0,0,0,0,0,0,0,0,0,-1,1581,841,0,0
364,183,0,0,0,0,0,0,0,0,0,-1,1588,841,0,0
371,183,0,0,0,0,0,0,0,0,0,-1,1595,841,0,0
378,183,0,0,0,0,0,0,0,0,0,-1,1602,841,0,0
385,183,0,0,0,0,0,0,0,0,0,-1,1609,841,0,0
392,183,0,0,0,0,0,0,0,0,0,-1,1616,841,0,0
399,183,0,0,0,0,0,0,0,0,0,-1,1623,841,0,0
406,183,0,0,0,0,0,0,0,0,0,-1,1630,841,0,0
413,183,0,0,0,0,0,0,0,0,0,-1,1637,841,0,0
420,183,0,0,0,0,0,0,0,0,0,-1,1644,841,0,0
427,183,0,0,0,0,0,0,0,0,0,-1,1651,841,0,0
434,183,0,0,0,0,0,0,0,0,0,-1,1658,841,0,0
441,183,0,0,0,0,0,0,0,0,0,-1,1665,841,0,0
448,183,0,0,0,0,0,0,0,0,0,-1,1672,841,0,0
455,183,0,0,0,0,0,0,0,0,0,-1,1679,841,0,0
462,183,0,0,0,0,0,0,0,0,0,-1,1686,841,0,0
469,183,0,0,0,0,0,0,0,0,0,-1,1693,841,0,0
476,183,0,0,0,0,0,0,0,0,0,-1,1700,841,0,0
483,183,0,0,0,0,0,0,0,0,0,-1,1707,841,0,0
490,183,0,0,0,0,0,0,0,0,0,-1,1714,841,0,0
497,183,0,0,0,0,0,0,0,0,0,-1,1721,841,0,0
504,183,0,0,0,0,0,0,0,0,0,-1,1728,841,0,0
511,183,0,0,0,0,0,0,0,0,0,-1,1735,841,0,0
518,183,0,0,0,0,0,0,0,0,0,-1,1742,841,0,0
525,183,0,0,0,0,0,0,0,0,0,-1,1749,841,0,0
532,183,0,0,0,0,0,0,0,0,0,-1,1756,841,0,0
539,183,0,0,0,0,0,0,0,0,0,-1,1763,841,0,0
546,183,0,0,0,0,0,0,0,0,0,-1,1770,841,0,0
553,183,0,0,0,0,0,0,0,0,0,-1,1777,841,0,0
560,183,0,0,0,0,0,0,0,0,0,-1,1784,841,0,0
567,183,0,0,0,0,0,0,0,0,0,-1,1791,841,0,0
574,183,0,0,0,0,0,0,0,0,0,-1,1798,841,0,0
581,183,0,0,0,0,0,0,0,0,0,-1,1805,841,0,0
588,183,0,0,0,0,0,0,0,0,0,-1,1812,841,0,0
595,183,0,0,0,0,0,0,0,0,0,-1,1819,841,0,0
602,183,0,0,0,0,0,0,0,0,0,-1,1826,841,0,0
609,183,7.22583,0.949829,-0.00161264,0.00196532,0.00398119,0.00454101,-0.00418833,0.996558,0.00504125,0.0395273,1833,841,7.22587,-0.949826
616,183,7.24377,1.28754,-0.00204108,0.0016374,0.00355945,0.00380472,-0.00420839,1.02387,0.00462833,0.0382982,1840,841,7.24381,-1.28751
623,183,7.18823,1.25928,-0.00261858,0.00173751,0.00274416,0.00306293,-0.003944,1.12084,0.0040561,0.0432958,1847,841,7.18823,-1.25926
630,183,7.27905,1.2254,-0.00355322,0.00173831,0.00183597,0.00231293,-0.00412784,1.26748,0.00376747,0.0406306,1854,841,7.27907,-1.22537
637,183,7.22412,1.0993,-0.00453684,0.00162789,0.000963985,0.00177512,-0.00468407,1.41924,0.00385321,0.0335153,1861,841,7.22413,-1.09933
644,183,7.1311,1.09149,-0.0053438,0.00146643,0.000242343,0.00147504,-0.00535241,1.53527,0.00414831,0.0266635,1868,841,7.13112,-1.09147
651,183,7.16174,1.09045,-0.00587592,0.00122027,-0.000344285,0.00123693,-0.00589258,-1.52243,0.00439905,0.0239336,1875,841,7.1618,-1.09047
658,183,7.04004,1.32416,-0.00613242,0.00104781,-0.000819622,0.00114018,-0.0062248,-1.45857,0.0045775,0.0388974,1882,841,7.04004,-1.32414
665,183,6.8573,1.4939,-0.00633157,0.000912863,-0.00128946,0.00113554,-0.00655424,-1.3998,0.00479306,0.040312,1889,841,6.8573,-1.49389
672,183,6.26843,1.27673,0,0,0,0,0,0,0,-1,1896,841,6.26838,-1.27676
679,183,6.20447,0.853455,-0.00639318,0.0005091,-0.00180876,0.000954368,-0.00683845,-1.32942,0.00490811,0.0272473,1903,841,6.20443,-0.853445
686,183,6.27161,0.845825,-0.0058846,0.000395303,-0.00182784,0.000888573,-0.00637787,-1.30721,0.00457695,0.0122362,1910,841,6.2716,-0.845796
693,183,6.2782,0.897034,-0.00479455,0.00015504,-0.0016096,0.000632434,-0.00527195,-1.28247,0.00374329,0.0104578,1917,841,6.27815,-0.897005
700,183,6.27051,0.954346,-0.00370268,9.15142e-05,-0.00135636,0.000526516,-0.00413768,-1.26045,0.00294966,0.0143404,1924,841,6.27052,-0.954317
707,183,6.26404,1.00928,-0.0023419,-0.000400949,-0.00117125,0.000149647,-0.0028925,-1.13136,0.0019801,0.0117087,1931,841,6.26404,-1.00928
714,183,6.2699,1.03345,-0.000818357,-0.00124569,-0.000985855,-2.32791e-05,-0.00204076,-0.678683,0.00135282,0.0141521,1938,841,6.26985,-1.03345
721,183,6.27429,1.08594,0.000788541,-0.00169308,-0.000794619,0.00102117,-0.00192571,-0.2848,0.00172789,0.0127992,1945,841,6.27434,-1.08594
728,183,6.24609,1.1579,0.00266878,-0.00171194,-0.000675562,0.0027706,-0.00181375,-0.149584,0.00266592,0.0114876,1952,841,6.24608,-1.15792
735,183,6.25305,1.20056,0.00436505,-0.00302279,-0.000646944,0.00442128,-0.00307902,-0.0866895,0.00435335,0.0113537,1959,841,6.25299,-1.20057
742,183,6.27869,1.26105,0.00606426,-0.00401356,-0.000849559,0.00613538,-0.00408468,-0.0835144,0.00594001,0.010656,1966,841,6.27873,-1.26104
749,183,6.30945,1.36609,0.00775949,-0.00536185,-0.001191,0.00786672,-0.00546908,-0.0897907,0.00774079,0.0308829,1973,841,6.30951,-1.3661
756,183,6.37109,1.49036,0.00971188,-0.00693038,-0.00164567,0.00987305,-0.00709155,-0.0976254,0.0098383,0.0441397,1980,841,6.37107,-1.49033
763,183,6.4093,1.54138,0.0120418,-0.00868306,-0.00220814,0.0122744,-0.00891572,-0.104976,0.0122852,0.04696,1987,841,6.40933,-1.54137
770,183,6.39124,1.72449,0.0147621,-0.0105833,-0.00286482,0.0150818,-0.0109031,-0.111163,0.0150669,0.0471123,1994,841,6.3912,-1.7245
777,183,6.38416,1.83508,0,0,0,0,0,0,0,-1,2001,841,6.38417,-1.83507
784,183,0,0,0,0,0,0,0,0,0,-1,2008,841,0,0
791,183,0,0,0,0,0,0,0,0,0,-1,2015,841,0,0
798,183,0,0,0,0,0,0,0,0,0,-1,2022,841,0,0
805,183,0,0,0,0,0,0,0,0,0,-1,2029,841,0,0
812,183,0,0,0,0,0,0,0,0,0,-1,2036,841,0,0
-700,176,0,0,0,0,0,0,0,0,0,-1,524,848,0,0
-693,176,0,0,0,0,0,0,0,0,0,-1,531,848,0,0
-686,176,0,0,0,0,0,0,0,0,0,-1,538,848,0,0
-679,176,0,0,0,0,0,0,0,0,0,-1,545,848,0,0
-672,176,0,0,0,0,0,0,0,0,0,-1,552,848,0,0
-665,176,-0.912415,1.10522,0,0,0,0,0,0,0,-1,559,848,-0.912397,-1.10523
-658,176,-1.84412,1.64459,0,0,0,0,0,0,0,-1,566,848,-1.84409,-1.64462
-651,176,-1.96417,1.36169,-0.00693315,0.00828827,-0.00775593,0.0115439,-0.0101888,-1.17337,0.0125555,0.0458258,573,848,-1.96418,-1.36172
-644,176,-2.30396,1.36133,0,0,0,0,0,0,0,-1,580,848,-2.30396,-1.36135
-637,176,-2.30499,1.09485,-0.00260154,0.00500621,-0.00299333,0.00604273,-0.00363806,-1.23744,0.00564639,0.0450092,587,848,-2.30499,-1.09488
-630,176,-2.05872,1.0777,-0.00106261,0.00353789,-0.00135636,0.00390801,-0.00143273,-1.30441,0.00319196,0.0444697,594,848,-2.05869,-1.07771
-623,176,-2.06873,0.996582,7.82067e-05,0.00220176,-0.000192266,0.00221903,6.09395e-05,-1.48123,0.00145947,0.0406121,601,848,-2.06873,-0.996559
-616,176,-2.04547,0.930359,0.000850315,0.00120034,0.000573198,0.00162465,0.000426008,0.933567,0.000972706,0.027817,608,848,-2.04549,-0.930344
-609,176,-2.01794,0.870178,0.00133988,0.000665546,0.000936748,0.0019983,7.13544e-06,0.612649,0.00132982,0.0115983,615,848,-2.01794,-0.870153
-602,176,-2.0213,0.81842,0.00110435,0.000101169,0.00140272,0.00209247,-0.000886946,0.61369,0.00176648,0.0120054,622,848,-2.02129,-0.81844
-595,176,-2.01776,0.776428,0.000581973,-0.000461915,0.00185782,0.00198978,-0.00186972,0.648456,0.00222864,0.0110765,629,848,-2.01777,-0.776408
-588,176,-1.99475,0.724121,-0.000421206,-0.000958143,0.00201065,0.00133882,-0.00271817,0.719029,0.002387,0.0101933,636,848,-1.99477,-0.724097
-581,176,-1.992,0.676575,-0.00176494,-0.00158362,0.00220227,0.000529855,-0.00387841,0.80597,0.00277911,0.00974002,643,848,-1.992,-0.676576
-574,176,-2.00458,0.633301,-0.00321436,-0.00153313,0.00250297,0.000266609,-0.0050141,0.947404,0.00343505,0.0117608,650,848,-2.0046,-0.633308
-567,176,-1.98584,0.608215,-0.00478366,-0.00160976,0.0028721,8.46579e-05,-0.00647808,1.03779,0.00434721,0.0139834,657,848,-1.98586,-0.608216
-560,176,-2.04114,0.562317,-0.00609665,-0.00185573,0.00316241,-0.000168669,-0.00778371,1.08073,0.00513384,0.0119207,664,848,-2.04113,-0.562288
-553,176,-2.02985,0.475647,-0.00705126,-0.00183745,0.00330693,-0.000233443,-0.00865526,1.11919,0.00569396,0.0190376,671,848,-2.02982,-0.475621
-546,176,-2.01422,0.445313,-0.00760178,-0.001954,0.00342853,-0.000336137,-0.00921964,1.12989,0.0060375,0.0308849,678,848,-2.01421,-0.44529
-539,176,-2.37671,0.352539,-0.00774512,-0.00197365,0.00327715,-0.000492792,-0.00922598,1.14638,0.00599315,0.0336104,685,848,-2.37671,-0.352532
-532,176,-2.9259,0.558044,-0.00741566,-0.00181232,0.00301179,-0.000500568,-0.00872741,1.16003,0.0056588,0.0394879,692,848,-2.92588,-0.558025
-525,176,-2.97211,0.723816,-0.0064715,-0.00143801,0.00239509,-0.000480498,-0.00742901,1.19048,0.00480053,0.0467088,699,848,-2.9721,-0.723827
-518,176,-2.8219,1.02386,-0.00484814,-0.000893376,0.00135783,-0.000472061,-0.00526945,1.26993,0.00336666,0.0390678,706,848,-2.82188,-1.02388
-511,176,-2.80017,1.13562,-0.00236264,-0.00011945,-0.000182823,-0.000104647,-0.00237744,-1.49001,0.00155125,0.038938,713,848,-2.80014,-1.13562
-504,176,-3.08557,0.864929,0.00104244,0.000846699,-0.00229203,0.00323869,-0.00134955,-0.764061,0.00272284,0.0424834,720,848,-3.08558,-0.8649
-497,176,-2.89362,1.00555,0.00530139,0.00191833,-0.00493347,0.00882526,-0.00160554,-0.620244,0.00648528,0.0434121,727,848,-2.89363,-1.00556
-490,176,-2.77191,0.76825,0.0099763,0.00303136,-0.00804881,0.0152698,-0.0022621,-0.581747,0.0110116,0.0409722,734,848,-2.77194,-0.768259
-483,176,0,0,0,0,0,0,0,0,0,-1,741,848,0,0
-476,176,0,0,0,0,0,0,0,0,0,-1,748,848,0,0
-469,176,0,0,0,0,0,0,0,0,0,-1,755,848,0,0
-462,176,0,0,0,0,0,0,0,0,0,-1,762,848,0,0
-455,176,0,0,0,0,0,0,0,0,0,-1,769,848,0,0
-448,176,0,0,0,0,0,0,0,0,0,-1,776,848,0,0
-441,176,0,0,0,0,0,0,0,0,0,-1,783,848,0,0
-434,176,0,0,0,0,0,0,0,0,0,-1,790,848,0,0
-427,176,0,0,0,0,0,0,0,0,0,-1,797,848,0,0
-420,176,0,0,0,0,0,0,0,0,0,-1,804,848,0,0
-413,176,0,0,0,0,0,0,0,0,0,-1,811,848,0,0
-406,176,0,0,0,0,0,0,0,0,0,-1,818,848,0,0
-399,176,0,0,0,0,0,0,0,0,0,-1,825,848,0,0
-392,176,0,0,0,0,0,0,0,0,0,-1,832,848,0,0
-385,176,0,0,0,0,0,0,0,0,0,-1,839,848,0,0
-378,176,0,0,0,0,0,0,0,0,0,-1,846,848,0,0
-371,176,0,0,0,0,0,0,0,0,0,-1,853,848,0,0
-364,176,0,0,0,0,0,0,0,0,0,-1,860,848,0,0
-357,176,0,0,0,0,0,0,0,0,0,-1,867,848,0,0
-350,176,0,0,0,0,0,0,0,0,0,-1,874,848,0,0
-343,176,0,0,0,0,0,0,0,0,0,-1,881,848,0,0
-336,176,0,0,0,0,0,0,0,0,0,-1,888,848,0,0
-329,176,0,0,0,0,0,0,0,0,0,-1,895,848,0,0
-322,176,0,0,0,0,0,0,0,0,0,-1,902,848,0,0
-315,176,0,0,0,0,0,0,0,0,0,-1,909,848,0,0
-308,176,0,0,0,0,0,0,0,0,0,-1,916,848,0,0
-301,176,0,0,0,0,0,0,0,0,0,-1,923,848,0,0
-294,176,0,0,0,0,0,0,0,0,0,-1,930,848,0,0
-287,176,0,0,0,0,0,0,0,0,0,-1,937,848,0,0
-280,176,0,0,0,0,0,0,0,0,0,-1,944,848,0,0
-273,176,0,0,0,0,0,0,0,0,0,-1,951,848,0,0
-266,176,0,0,0,0,0,0,0,0,0,-1,958,848,0,0
-259,176,0,0,0,0,0,0,0,0,0,-1,965,848,0,0
-252,176,0,0,0,0,0,0,0,0,0,-1,972,848,0,0
-245,176,0,0,0,0,0,0,0,0,0,-1,979,848,0,0
-238,176,0,0,0,0,0,0,0,0,0,-1,986,848,0,0
-231,176,0,0,0,0,0,0,0,0,0,-1,993,848,0,0
-224,176,0,0,0,0,0,0,0,0,0,-1,1000,848,0,0
-217,176,0,0,0,0,0,0,0,0,0,-1,1007,848,0,0
-210,176,0,0,0,0,0,0,0,0,0,-1,1014,848,0,0
-203,176,0,0,0,0,0,0,0,0,0,-1,1021,848,0,0
-196,176,0,0,0,0,0,0,0,0,0,-1,1028,848,0,0
-189,176,0,0,0,0,0,0,0,0,0,-1,1035,848,0,0
-182,176,0,0,0,0,0,0,0,0,0,-1,1042,848,0,0
-175,176,0,0,0,0,0,0,0,0,0,-1,1049,848,0,0
-168,176,0,0,0,0,0,0,0,0,0,-1,1056,848,0,0
-161,176,0,0,0,0,0,0,0,0,0,-1,1063,848,0,0
-154,176,0,0,0,0,0,0,0,0,0,-1,1070,848,0,0
-147,176,0,0,0,0,0,0,0,0,0,-1,1077,848,0,0
-140,176,0,0,0,0,0,0,0,0,0,-1,1084,848,0,0
-133,176,0,0,0,0,0,0,0,0,0,-1,1091,848,0,0
-126,176,0,0,0,0,0,0,0,0,0,-1,1098,848,0,0
-119,176,0,0,0,0,0,0,0,0,0,-1,1105,848,0,0
-112,176,0,0,0,0,0,0,0,0,0,-1,1112,848,0,0
-105,176,0,0,0,0,0,0,0,0,0,-1,1119,848,0,0
-98,176,0,0,0,0,0,0,0,0,0,-1,1126,848,0,0
-91,176,0,0,0,0,0,0,0,0,0,-1,1133,848,0,0
-84,176,0,0,0,0,0,0,0,0,0,-1,1140,848,0,0
-77,176,0,0,0,0,0,0,0,0,0,-1,1147,848,0,0
-70,176,0,0,0,0,0,0,0,0,0,-1,1154,848,0,0
-63,176,0,0,0,0,0,0,0,0,0,-1,1161,848,0,0
-56,176,0,0,0,0,0,0,0,0,0,-1,1168,848,0,0
-49,176,0,0,0,0,0,0,0,0,0,-1,1175,848,0,0
-42,176,0,0,0,0,0,0,0,0,0,-1,1182,848,0,0
-35,176,0,0,0,0,0,0,0,0,0,-1,1189,848,0,0
-28,176,0,0,0,0,0,0,0,0,0,-1,1196,848,0,0
-21,176,0,0,0,0,0,0,0,0,0,-1,1203,848,0,0
-14,176,0,0,0,0,0,0,0,0,0,-1,1210,848,0,0
-7,176,0,0,0,0,0,0,0,0,0,-1,1217,848,0,0
0,176,0,0,0,0,0,0,0,0,0,-1,1224,848,0,0
7,176,0,0,0,0,0,0,0,0,0,-1,1231,848,0,0
14,176,0,0,0,0,0,0,0,0,0,-1,1238,848,0,0
21,176,0,0,0,0,0,0,0,0,0,-1,1245,848,0,0
28,176,0,0,0,0,0,0,0,0,0,-1,1252,848,0,0
35,176,0,0,0,0,0,0,0,0,0,-1,1259,848,0,0
42,176,0,0,0,0,0,0,0,0,0,-1,1266,848,0,0
49,176,0,0,0,0,0,0,0,0,0,-1,1273,848,0,0
56,176,0,0,0,0,0,0,0,0,0,-1,1280,848,0,0
63,176,0,0,0,0,0,0,0,0,0,-1,1287,848,0,0
70,176,0,0,0,0,0,0,0,0,0,-1,1294,848,0,0
77,176,0,0,0,0,0,0,0,0,0,-1,1301,848,0,0
84,176,0,0,0,0,0,0,0,0,0,-1,1308,848,0,0
91,176,0,0,0,0,0,0,0,0,0,-1,1315,848,0,0
98,176,0,0,0,0,0,0,0,0,0,-1,1322,848,0,0
105,176,0,0,0,0,0,0,0,0,0,-1,1329,848,0,0
112,176,0,0,0,0,0,0,0,0,0,-1,1336,848,0,0
119,176,0,0,0,0,0,0,0,0,0,-1,1343,848,0,0
126,176,0,0,0,0,0,0,0,0,0,-1,1350,848,0,0
133,176,0,0,0,0,0,0,0,0,0,-1,1357,848,0,0
140,176,0,0,0,0,0,0,0,0,0,-1,1364,848,0,0
147,176,0,0,0,0,0,0,0,0,0,-1,1371,848,0,0
154,176,0,0,0,0,0,0,0,0,0,-1,1378,848,0,0
161,176,0,0,0,0,0,0,0,0,0,-1,1385,848,0,0
168,176,0,0,0,0,0,0,0,0,0,-1,1392,848,0,0
175,176,0,0,0,0,0,0,0,0,0,-1,1399,848,0,0
182,176,0,0,0,0,0,0,0,0,0,-1,1406,848,0,0
189,176,0,0,0,0,0,0,0,0,0,-1,1413,848,0,0
196,176,0,0,0,0,0,0,0,0,0,-1,1420,848,0,0
203,176,0,0,0,0,0,0,0,0,0,-1,1427,848,0,0
210,176,0,0,0,0,0,0,0,0,0,-1,1434,848,0,0
217,176,0,0,0,0,0,0,0,0,0,-1,1441,848,0,0
224,176,0,0,0,0,0,0,0,0,0,-1,1448,848,0,0
231,176,0,0,0,0,0,0,0,0,0,-1,1455,848,0,0
238,176,0,0,0,0,0,0,0,0,0,-1,1462,848,0,0
245,176,0,0,0,0,0,0,0,0,0,-1,1469,848,0,0
252,176,0,0,0,0,0,0,0,0,0,-1,1476,848,0,0
259,176,0,0,0,0,0,0,0,0,0,-1,1483,848,0,0
266,176,0,0,0,0,0,0,0,0,0,-1,1490,848,0,0
273,176,0,0,0,0,0,0,0,0,0,-1,1497,848,0,0
280,176,0,0,0,0,0,0,0,0,0,-1,1504,848,0,0
287,176,0,0,0,0,0,0,0,0,0,-1,1511,848,0,0
294,176,0,0,0,0,0,0,0,0,0,-1,1518,848,0,0
301,176,0,0,0,0,0,0,0,0,0,-1,1525,848,0,0
308,176,0,0,0,0,0,0,0,0,0,-1,1532,848,0,0
315,176,0,0,0,0,0,0,0,0,0,-1,1539,848,0,0
322,176,0,0,0,0,0,0,0,0,0,-1,1546,848,0,0
329,176,0,0,0,0,0,0,0,0,0,-1,1553,848,0,0
336,176,0,0,0,0,0,0,0,0,0,-1,1560,848,0,0
343,176,0,0,0,0,0,0,0,0,0,-1,1567,848,0,0
350,176,0,0,0,0,0,0,0,0,0,-1,1574,848,0,0
357,176,0,0,0,0,0,0,0,0,0,-1,1581,848,0,0
364,176,0,0,0,0,0,0,0,0,0,-1,1588,848,0,0
371,176,0,0,0,0,0,0,0,0,0,-1,1595,848,0,0
378,176,0,0,0,0,0,0,0,0,0,-1,1602,848,0,0
385,176,0,0,0,0,0,0,0,0,0,-1,1609,848,0,0
392,176,0,0,0,0,0,0,0,0,0,-1,1616,848,0,0
399,176,0,0,0,0,0,0,0,0,0,-1,1623,848,0,0
406,176,0,0,0,0,0,0,0,0,0,-1,1630,848,0,0
413,176,0,0,0,0,0,0,0,0,0,-1,1637,848,0,0
420,176,0,0,0,0,0,0,0,0,0,-1,1644,848,0,0
427,176,0,0,0,0,0,0,0,0,0,-1,1651,848,0,0
434,176,0,0,0,0,0,0,0,0,0,-1,1658,848,0,0
441,176,0,0,0,0,0,0,0,0,0,-1,1665,848,0,0
448,176,0,0,0,0,0,0,0,0,0,-1,1672,848,0,0
455,176,0,0,0,0,0,0,0,0,0,-1,1679,848,0,0
462,176,0,0,0,0,0,0,0,0,0,-1,1686,848,0,0
469,176,0,0,0,0,0,0,0,0,0,-1,1693,848,0,0
476,176,0,0,0,0,0,0,0,0,0,-1,1700,848,0,0
483,176,0,0,0,0,0,0,0,0,0,-1,1707,848,0,0
490,176,0,0,0,0,0,0,0,0,0,-1,1714,848,0,0
497,176,0,0,0,0,0,0,0,0,0,-1,1721,848,0,0
504,176,0,0,0,0,0,0,0,0,0,-1,1728,848,0,0
511,176,0,0,0,0,0,0,0,0,0,-1,1735,848,0,0
518,176,0,0,0,0,0,0,0,0,0,-1,1742,848,0,0
525,176,0,0,0,0,0,0,0,0,0,-1,1749,848,0,0
532,176,0,0,0,0,0,0,0,0,0,-1,1756,848,0,0
539,176,0,0,0,0,0,0,0,0,0,-1,1763,848,0,0
546,176,0,0,0,0,0,0,0,0,0,-1,1770,848,0,0
553,176,0,0,0,0,0,0,0,0,0,-1,1777,848,0,0
560,176,0,0,0,0,0,0,0,0,0,-1,1784,848,0,0
567,176,0,0,0,0,0,0,0,0,0,-1,1791,848,0,0
574,176,0,0,0,0,0,0,0,0,0,-1,1798,848,0,0
581,176,0,0,0,0,0,0,0,0,0,-1,1805,848,0,0
588,176,0,0,0,0,0,0,0,0,0,-1,1812,848,0,0
595,176,0,0,0,0,0,0,0,0,0,-1,1819,848,0,0
602,176,0,0,0,0,0,0,0,0,0,-1,1826,848,0,0
609,176,7.22278,0.99176,0.00106855,0.00124604,0.00406151,0.00521977,-0.00290518,0.796322,0.00475397,0.0363872,1833,848,7.22278,-0.991785
616,176,7.20984,0.87915,5.06655e-05,0.00102002,0.00366503,0.00423228,-0.0031616,0.851138,0.00428375,0.0373192,1840,848,7.20986,-0.879134
623,176,7.20715,0.693665,-0.00109217,0.00138397,0.002904,0.0033028,-0.003011,0.986898,0.00364657,0.0464241,1847,848,7.20718,-0.693691
630,176,7.18152,1.30627,-0.00267351,0.00160271,0.00200217,0.0023938,-0.00346459,1.19451,0.00340113,0.0409538,1854,848,7.18156,-1.30626
637,176,7.28491,1.07111,-0.0042983,0.00162694,0.00110023,0.00182464,-0.004496,1.393,0.00375629,0.0316679,1861,848,7.2849,-1.07108
644,176,7.13269,1.07184,-0.00566442,0.0015384,0.00030479,0.00155127,-0.00567729,1.52858,0.0043942,0.0311402,1868,848,7.13272,-1.07182
651,176,7.17017,1.04138,-0.00661946,0.00133461,-0.00034603,0.00134964,-0.00663448,-1.5274,0.00493478,0.0315491,1875,848,7.17022,-1.04137
658,176,7.26868,0.962646,-0.00715996,0.00116248,-0.000874205,0.00125332,-0.0072508,-1.46726,0.00530125,0.035983,1882,848,7.26867,-0.962647
665,176,7.24585,1.01752,-0.00750498,0.00100374,-0.00136753,0.00121813,-0.00771937,-1.41529,0.00559665,0.043655,1889,848,7.24583,-1.01751
672,176,6.69824,1.00623,-0.00769942,0.000749496,-0.00178136,0.00110972,-0.00805964,-1.37127,0.00577863,0.0471546,1896,848,6.69823,-1.00625
679,176,6.28125,1.10095,0,0,0,0,0,0,0,-1,1903,848,6.28123,-1.10093
686,176,6.33008,0.836609,-0.00700467,0.000378512,-0.00196401,0.000868451,-0.00749461,-1.32633,0.00530962,0.0163734,1910,848,6.33009,-0.836613
693,176,6.33313,0.910095,-0.00590766,0.000192708,-0.00174902,0.000658585,-0.00637353,-1.31048,0.0044847,0.0100776,1917,848,6.33308,-0.910067
700,176,6.3374,0.946838,-0.00467284,9.90239e-05,-0.00150302,0.000532973,-0.00510679,-1.28972,0.00359538,0.0143084,1924,848,6.33743,-0.946851
707,176,6.32678,0.996765,-0.00325055,-0.000269588,-0.00131893,0.000230187,-0.00375032,-1.20859,0.00258037,0.0124023,1931,848,6.32676,-0.996789
714,176,6.32959,1.04974,-0.00167415,-0.00090942,-0.00111128,-0.000116558,-0.00246701,-0.951091,0.00160723,0.0104504,1938,848,6.32964,-1.04977
721,176,6.323,1.09167,9.96735e-06,-0.00104275,-0.000851277,0.000484472,-0.00151725,-0.50851,0.00120588,0.0102412,1945,848,6.32306,-1.09169
728,176,6.32275,1.16284,0.00195692,-0.000626591,-0.000641391,0.00210739,-0.000777062,-0.230433,0.00172337,0.012384,1952,848,6.32273,-1.16287
735,176,6.31177,1.19812,0.00373603,-0.00153227,-0.000497138,0.00378253,-0.00157877,-0.0932672,0.00318132,0.0131311,1959,848,6.31172,-1.1981
742,176,6.33252,1.23102,0.00551185,-0.00170064,-0.000592925,0.00556027,-0.00174906,-0.0814791,0.00440712,0.0170538,1966,848,6.33256,-1.231
749,176,6.38745,1.25043,0.00722387,-0.00215157,-0.000823128,0.00729559,-0.00222329,-0.0869102,0.00574993,0.0272663,1973,848,6.38745,-1.25042
756,176,6.40503,1.26489,0.00919097,-0.00261418,-0.00115238,0.00930241,-0.00272562,-0.0964039,0.00728221,0.0414364,1980,848,6.40499,-1.26492
763,176,6.35962,1.21887,0.0115947,-0.00304182,-0.00154986,0.011757,-0.00320414,-0.104348,0.00909615,0.047305,1987,848,6.35963,-1.21887
770,176,6.5022,1.62933,0.0144812,-0.0034048,-0.0019972,0.0147015,-0.0036251,-0.10986,0.0112065,0.0486474,1994,848,6.50214,-1.62935
777,176,6.70801,1.50867,0.0179065,-0.00372468,-0.00240002,0.0181696,-0.00398776,-0.109183,0.0136381,0.0457181,2001,848,6.70802,-1.50866
784,176,0,0,0,0,0,0,0,0,0,-1,2008,848,0,0
791,176,0,0,0,0,0,0,0,0,0,-1,2015,848,0,0
798,176,0,0,0,0,0,0,0,0,0,-1,2022,848,0,0
805,176,0,0,0,0,0,0,0,0,0,-1,2029,848,0,0
812,176,0,0,0,0,0,0,0,0,0,-1,2036,848,0,0
-700,169,0,0,0,0,0,0,0,0,0,-1,524,855,0,0
-693,169,0,0,0,0,0,0,0,0,0,-1,531,855,0,0
-686,169,0,0,0,0,0,0,0,0,0,-1,538,855,0,0
-679,169,0,0,0,0,0,0,0,0,0,-1,545,855,0,0
-672,169,0,0,0,0,0,0,0,0,0,-1,552,855,0,0
-665,169,-1.40259,1.22089,0,0,0,0,0,0,0,-1,559,855,-1.4026,-1.22087
-658,169,-1.25586,1.7312,0,0,0,0,0,0,0,-1,566,855,-1.25584,-1.73119
-651,169,-1.39337,1.40448,0,0,0,0,0,0,0,-1,573,855,-1.39335,-1.40449
-644,169,-2.11707,1.07434,0,0,0,0,0,0,0,-1,580,855,-2.11706,-1.07435
-637,169,-2.10132,1.05457,0.000387448,0.00187567,-0.00434425,0.00553908,-0.00327596,-0.870218,0.00514497,0.0458497,587,855,-2.10133,-1.05454
-630,169,-2.12122,1.04919,0.000743178,0.00119144,-0.00285708,0.00383317,-0.00189855,-0.824542,0.00337146,0.0475717,594,855,-2.12123,-1.04918
-623,169,-2.1405,0.988892,0.000920081,0.000479373,-0.0017088,0.00242268,-0.00102322,-0.721276,0.00204345,0.0369895,601,855,-2.14048,-0.988905
-616,169,-2.10095,0.929016,0.000942557,2.79534e-05,-0.000826104,0.00142949,-0.000458976,-0.53261,0.00113729,0.020767,608,855,-2.10095,-0.929037
-609,169,-2.07599,0.880493,0.00090715,-6.53446e-05,-0.000271922,0.000978019,-0.000136213,-0.25495,0.000701837,0.0132041,615,855,-2.07597,-0.880515
-602,169,-2.07562,0.817566,0.000273277,-0.000335089,0.000465205,0.00052492,-0.000586732,0.495853,0.000642143,0.0130198,622,855,-2.07561,-0.817568
-595,169,-2.07434,0.762085,-0.000509983,-0.000666922,0.00115006,0.000564284,-0.00174119,0.751336,0.00138767,0.0117853,629,855,-2.07434,-0.762113
-588,169,-2.0517,0.722412,-0.00169853,-0.00106574,0.00159198,0.000240984,-0.00300526,0.883492,0.00208847,0.00914373,636,855,-2.05173,-0.722403
-581,169,-2.05719,0.693848,-0.00311174,-0.00162424,0.00198274,-0.00025034,-0.00448564,0.964832,0.00291057,0.00889851,643,855,-2.05721,-0.693831
-574,169,-2.08331,0.643799,-0.00442767,-0.00169507,0.00239625,-0.000302963,-0.00581978,1.0445,0.00378291,0.011065,650,855,-2.08331,-0.643807
-567,169,-2.05719,0.595642,-0.00566894,-0.00179657,0.00281495,-0.000316206,-0.0071493,1.08665,0.00466437,0.0122216,657,855,-2.05717,-0.595614
-560,169,-2.07703,0.564148,-0.00659961,-0.00196925,0.0030931,-0.000420838,-0.00814802,1.10667,0.00529731,0.0110372,664,855,-2.07702,-0.564119
-553,169,-2.0733,0.488098,-0.00728029,-0.00191917,0.00320813,-0.000419119,-0.00878034,1.13342,0.00571897,0.0182222,671,855,-2.07328,-0.488072
-546,169,-2.33179,0.613281,-0.00765285,-0.00196035,0.00324075,-0.000493407,-0.00911979,1.14574,0.00592225,0.0280111,678,855,-2.33176,-0.613265
-539,169,-2.7077,0.747864,-0.00754027,-0.00188777,0.00295091,-0.000627998,-0.00880004,1.16731,0.00566897,0.0345153,685,855,-2.70769,-0.747854
-532,169,-2.94666,0.732788,-0.00687262,-0.00162289,0.00250782,-0.000617454,-0.00787805,1.1895,0.00505879,0.0364143,692,855,-2.94665,-0.732778
-525,169,-3.00983,0.673645,-0.00552305,-0.00113587,0.00169987,-0.000554324,-0.0061046,1.24116,0.00389812,0.0443971,699,855,-3.00986,-0.673645
-518,169,-3.00146,0.770264,-0.00340346,-0.000454762,0.000462182,-0.000384016,-0.00347421,1.41891,0.00219934,0.042355,706,855,-3.00148,-0.770246
-511,169,-2.86182,0.644043,-0.000368118,0.000415446,-0.00126606,0.00134895,-0.00130163,-0.93545,0.00153039,0.0434216,713,855,-2.86184,-0.64406
-504,169,-2.93445,0.773621,0.00356434,0.00141299,-0.00352739,0.00617642,-0.00119909,-0.637402,0.00457005,0.0443979,720,855,-2.93444,-0.773649
-497,169,-3.00293,0.872742,0.00818388,0.00237305,-0.00621511,0.0121392,-0.00158223,-0.566752,0.00866845,0.0444245,727,855,-3.00292,-0.872757
-490,169,0,0,0,0,0,0,0,0,0,-1,734,855,0,0
-483,169,0,0,0,0,0,0,0,0,0,-1,741,855,0,0
-476,169,0,0,0,0,0,0,0,0,0,-1,748,855,0,0
-469,169,0,0,0,0,0,0,0,0,0,-1,755,855,0,0
-462,169,0,0,0,0,0,0,0,0,0,-1,762,855,0,0
-455,169,0,0,0,0,0,0,0,0,0,-1,769,855,0,0
-448,169,0,0,0,0,0,0,0,0,0,-1,776,855,0,0
-441,169,0,0,0,0,0,0,0,0,0,-1,783,855,0,0
-434,169,0,0,0,0,0,0,0,0,0,-1,790,855,0,0
-427,169,0,0,0,0,0,0,0,0,0,-1,797,855,0,0
-420,169,0,0,0,0,0,0,0,0,0,-1,804,855,0,0
-413,169,0,0,0,0,0,0,0,0,0,-1,811,855,0,0
-406,169,0,0,0,0,0,0,0,0,0,-1,818,855,0,0
-399,169,0,0,0,0,0,0,0,0,0,-1,825,855,0,0
-392,169,0,0,0,0,0,0,0,0,0,-1,832,855,0,0
-385,169,0,0,0,0,0,0,0,0,0,-1,839,855,0,0
-378,169,0,0,0,0,0,0,0,0,0,-1,846,855,0,0
-371,169,0,0,0,0,0,0,0,0,0,-1,853,855,0,0
-364,169,0,0,0,0,0,0,0,0,0,-1,860,855,0,0
-357,169,0,0,0,0,0,0,0,0,0,-1,867,855,0,0
-350,169,0,0,0,0,0,0,0,0,0,-1,874,855,0,0
-343,169,0,0,0,0,0,0,0,0,0,-1,881,855,0,0
-336,169,0,0,0,0,0,0,0,0,0,-1,888,855,0,0
-329,169,0,0,0,0,0,0,0,0,0,-1,895,855,0,0
-322,169,0,0,0,0,0,0,0,0,0,-1,902,855,0,0
-315,169,0,0,0,0,0,0,0,0,0,-1,909,855,0,0
-308,169,0,0,0,0,0,0,0,0,0,-1,916,855,0,0
-301,169,0,0,0,0,0,0,0,0,0,-1,923,855,0,0
-294,169,0,0,0,0,0,0,0,0,0,-1,930,855,0,0
-287,169,0,0,0,0,0,0,0,0,0,-1,937,855,0,0
-280,169,0,0,0,0,0,0,0,0,0,-1,944,855,0,0
-273,169,0,0,0,0,0,0,0,0,0,-1,951,855,0,0
-266,169,0,0,0,0,0,0,0,0,0,-1,958,855,0,0
-259,169,0,0,0,0,0,0,0,0,0,-1,965,855,0,0
-252,169,0,0,0,0,0,0,0,0,0,-1,972,855,0,0
-245,169,0,0,0,0,0,0,0,0,0,-1,979,855,0,0
-238,169,0,0,0,0,0,0,0,0,0,-1,986,855,0,0
-231,169,0,0,0,0,0,0,0,0,0,-1,993,855,0,0
-224,169,0,0,0,0,0,0,0,0,0,-1,1000,855,0,0
-217,169,0,0,0,0,0,0,0,0,0,-1,1007,855,0,0
-210,169,0,0,0,0,0,0,0,0,0,-1,1014,855,0,0
-203,169,0,0,0,0,0,0,0,0,0,-1,1021,855,0,0
-196,169,0,0,0,0,0,0,0,0,0,-1,1028,855,0,0
-189,169,0,0,0,0,0,0,0,0,0,-1,1035,855,0,0
-182,169,0,0,0,0,0,0,0,0,0,-1,1042,855,0,0
-175,169,0,0,0,0,0,0,0,0,0,-1,1049,855,0,0
-168,169,0,0,0,0,0,0,0,0,0,-1,1056,855,0,0
-161,169,0,0,0,0,0,0,0,0,0,-1,1063,855,0,0
-154,169,0,0,0,0,0,0,0,0,0,-1,1070,855,0,0
-147,169,0,0,0,0,0,0,0,0,0,-1,1077,855,0,0
-140,169,0,0,0,0,0,0,0,0,0,-1,1084,855,0,0
-133,169,0,0,0,0,0,0,0,0,0,-1,1091,855,0,0
-126,169,0,0,0,0,0,0,0,0,0,-1,1098,855,0,0
-119,169,0,0,0,0,0,0,0,0,0,-1,1105,855,0,0
-112,169,0,0,0,0,0,0,0,0,0,-1,1112,855,0,0
-105,169,0,0,0,0,0,0,0,0,0,-1,1119,855,0,0
-98,169,0,0,0,0,0,0,0,0,0,-1,1126,855,0,0
-91,169,0,0,0,0,0,0,0,0,0,-1,1133,855,0,0
-84,169,0,0,0,0,0,0,0,0,0,-1,1140,855,0,0
-77,169,0,0,0,0,0,0,0,0,0,-1,1147,855,0,0
-70,169,0,0,0,0,0,0,0,0,0,-1,1154,855,0,0
-63,169,0,0,0,0,0,0,0,0,0,-1,1161,855,0,0
-56,169,0,0,0,0,0,0,0,0,0,-1,1168,855,0,0
-49,169,0,0,0,0,0,0,0,0,0,-1,1175,855,0,0
-42,169,0,0,0,0,0,0,0,0,0,-1,1182,855,0,0
-35,169,0,0,0,0,0,0,0,0,0,-1,1189,855,0,0
-28,169,0,0,0,0,0,0,0,0,0,-1,1196,855,0,0
-21,169,0,0,0,0,0,0,0,0,0,-1,1203,855,0,0
-14,169,0,0,0,0,0,0,0,0,0,-1,1210,855,0,0
-7,169,0,0,0,0,0,0,0,0,0,-1,1217,855,0,0
0,169,0,0,0,0,0,0,0,0,0,-1,1224,855,0,0
7,169,0,0,0,0,0,0,0,0,0,-1,1231,855,0,0
14,169,0,0,0,0,0,0,0,0,0,-1,1238,855,0,0
21,169,0,0,0,0,0,0,0,0,0,-1,1245,855,0,0
28,169,0,0,0,0,0,0,0,0,0,-1,1252,855,0,0
35,169,0,0,0,0,0,0,0,0,0,-1,1259,855,0,0
42,169,0,0,0,0,0,0,0,0,0,-1,1266,855,0,0
49,169,0,0,0,0,0,0,0,0,0,-1,1273,855,0,0
56,169,0,0,0,0,0,0,0,0,0,-1,1280,855,0,0
63,169,0,0,0,0,0,0,0,0,0,-1,1287,855,0,0
70,169,0,0,0,0,0,0,0,0,0,-1,1294,855,0,0
77,169,0,0,0,0,0,0,0,0,0,-1,1301,855,0,0
84,169,0,0,0,0,0,0,0,0,0,-1,1308,855,0,0
91,169,0,0,0,0,0,0,0,0,0,-1,1315,855,0,0
98,169,0,0,0,0,0,0,0,0,0,-1,1322,855,0,0
105,169,0,0,0,0,0,0,0,0,0,-1,1329,855,0,0
112,169,0,0,0,0,0,0,0,0,0,-1,1336,855,0,0
119,169,0,0,0,0,0,0,0,0,0,-1,1343,855,0,0
126,169,0,0,0,0,0,0,0,0,0,-1,1350,855,0,0
133,169,0,0,0,0,0,0,0,0,0,-1,1357,855,0,0
140,169,0,0,0,0,0,0,0,0,0,-1,1364,855,0,0
147,169,0,0,0,0,0,0,0,0,0,-1,1371,855,0,0
154,169,0,0,0,0,0,0,0,0,0,-1,1378,855,0,0
161,169,0,0,0,0,0,0,0,0,0,-1,1385,855,0,0
168,169,0,0,0,0,0,0,0,0,0,-1,1392,855,0,0
175,169,0,0,0,0,0,0,0,0,0,-1,1399,855,0,0
182,169,0,0,0,0,0,0,0,0,0,-1,1406,855,0,0
189,169,0,0,0,0,0,0,0,0,0,-1,1413,855,0,0
196,169,0,0,0,0,0,0,0,0,0,-1,1420,855,0,0
203,169,0,0,0,0,0,0,0,0,0,-1,1427,855,0,0
210,169,0,0,0,0,0,0,0,0,0,-1,1434,855,0,0
217,169,0,0,0,0,0,0,0,0,0,-1,1441,855,0,0
224,169,0,0,0,0,0,0,0,0,0,-1,1448,855,0,0
231,169,0,0,0,0,0,0,0,0,0,-1,1455,855,0,0
238,169,0,0,0,0,0,0,0,0,0,-1,1462,855,0,0
245,169,0,0,0,0,0,0,0,0,0,-1,1469,855,0,0
252,169,0,0,0,0,0,0,0,0,0,-1,1476,855,0,0
259,169,0,0,0,0,0,0,0,0,0,-1,1483,855,0,0
266,169,0,0,0,0,0,0,0,0,0,-1,1490,855,0,0
273,169,0,0,0,0,0,0,0,0,0,-1,1497,855,0,0
280,169,0,0,0,0,0,0,0,0,0,-1,1504,855,0,0
287,169,0,0,0,0,0,0,0,0,0,-1,1511,855,0,0
294,169,0,0,0,0,0,0,0,0,0,-1,1518,855,0,0
301,169,0,0,0,0,0,0,0,0,0,-1,1525,855,0,0
308,169,0,0,0,0,0,0,0,0,0,-1,1532,855,0,0
315,169,0,0,0,0,0,0,0,0,0,-1,1539,855,0,0
322,169,0,0,0,0,0,0,0,0,0,-1,1546,855,0,0
329,169,0,0,0,0,0,0,0,0,0,-1,1553,855,0,0
336,169,0,0,0,0,0,0,0,0,0,-1,1560,855,0,0
343,169,0,0,0,0,0,0,0,0,0,-1,1567,855,0,0
350,169,0,0,0,0,0,0,0,0,0,-1,1574,855,0,0
357,169,0,0,0,0,0,0,0,0,0,-1,1581,855,0,0
364,169,0,0,0,0,0,0,0,0,0,-1,1588,855,0,0
371,169,0,0,0,0,0,0,0,0,0,-1,1595,855,0,0
378,169,0,0,0,0,0,0,0,0,0,-1,1602,855,0,0
385,169,0,0,0,0,0,0,0,0,0,-1,1609,855,0,0
392,169,0,0,0,0,0,0,0,0,0,-1,1616,855,0,0
399,169,0,0,0,0,0,0,0,0,0,-1,1623,855,0,0
406,169,0,0,0,0,0,0,0,0,0,-1,1630,855,0,0
413,169,0,0,0,0,0,0,0,0,0,-1,1637,855,0,0
420,169,0,0,0,0,0,0,0,0,0,-1,1644,855,0,0
427,169,0,0,0,0,0,0,0,0,0,-1,1651,855,0,0
434,169,0,0,0,0,0,0,0,0,0,-1,1658,855,0,0
441,169,0,0,0,0,0,0,0,0,0,-1,1665,855,0,0
448,169,0,0,0,0,0,0,0,0,0,-1,1672,855,0,0
455,169,0,0,0,0,0,0,0,0,0,-1,1679,855,0,0
462,169,0,0,0,0,0,0,0,0,0,-1,1686,855,0,0
469,169,0,0,0,0,0,0,0,0,0,-1,1693,855,0,0
476,169,0,0,0,0,0,0,0,0,0,-1,1700,855,0,0
483,169,0,0,0,0,0,0,0,0,0,-1,1707,855,0,0
490,169,0,0,0,0,0,0,0,0,0,-1,1714,855,0,0
497,169,0,0,0,0,0,0,0,0,0,-1,1721,855,0,0
504,169,0,0,0,0,0,0,0,0,0,-1,1728,855,0,0
511,169,0,0,0,0,0,0,0,0,0,-1,1735,855,0,0
518,169,0,0,0,0,0,0,0,0,0,-1,1742,855,0,0
525,169,0,0,0,0,0,0,0,0,0,-1,1749,855,0,0
532,169,0,0,0,0,0,0,0,0,0,-1,1756,855,0,0
539,169,0,0,0,0,0,0,0,0,0,-1,1763,855,0,0
546,169,0,0,0,0,0,0,0,0,0,-1,1770,855,0,0
553,169,0,0,0,0,0,0,0,0,0,-1,1777,855,0,0
560,169,0,0,0,0,0,0,0,0,0,-1,1784,855,0,0
567,169,0,0,0,0,0,0,0,0,0,-1,1791,855,0,0
574,169,0,0,0,0,0,0,0,0,0,-1,1798,855,0,0
581,169,0,0,0,0,0,0,0,0,0,-1,1805,855,0,0
588,169,0,0,0,0,0,0,0,0,0,-1,1812,855,0,0
595,169,0,0,0,0,0,0,0,0,0,-1,1819,855,0,0
602,169,0,0,0,0,0,0,0,0,0,-1,1826,855,0,0
609,169,0,0,0,0,0,0,0,0,0,-1,1833,855,0,0
616,169,7.22742,0.537842,0.00139759,-0.000107468,0.00397167,0.00468739,-0.00339727,0.691771,0.00468745,0.0406137,1840,855,7.22739,-0.537815
623,169,7.21362,1.28168,0.000298728,0.000559205,0.00319139,0.00362301,-0.00276508,0.805792,0.00369923,0.0485247,1847,855,7.21357,-1.28168
630,169,7.39038,0.959839,-0.00141472,0.00102756,0.00224329,0.00236054,-0.0027477,1.03465,0.00295207,0.043804,1854,855,7.39036,-0.959849
637,169,7.36487,1.08203,-0.00333008,0.00121771,0.00127244,0.00154953,-0.0036619,1.31571,0.00309011,0.034099,1861,855,7.36488,-1.08202
644,169,7.19104,1.151,-0.00508794,0.00122286,0.000368982,0.00124436,-0.00510944,1.51259,0.00388804,0.0342722,1868,855,7.19099,-1.15103
651,169,7.17261,1.08508,-0.00642254,0.00108637,-0.000373288,0.00110488,-0.00644105,-1.52125,0.00470576,0.0376429,1875,855,7.17258,-1.08505
658,169,7.28247,0.949097,-0.00728395,0.000942132,-0.000972664,0.00105558,-0.0073974,-1.45469,0.00531849,0.0367655,1882,855,7.28243,-0.94912
665,169,7.32788,0.836975,-0.00786194,0.000786212,-0.00149905,0.00103868,-0.00811442,-1.40394,0.00578699,0.0461396,1889,855,7.32791,-0.837004
672,169,7.06567,0.816223,-0.00820456,0.000531983,-0.00193254,0.000940375,-0.00861295,-1.36254,0.00607971,0.0494144,1896,855,7.06565,-0.816208
679,169,6.67725,0.922852,-0.00812527,0.000279406,-0.00210288,0.00077619,-0.00862205,-1.33881,0.00602346,0.0453031,1903,855,6.67729,-0.922848
686,169,6.37219,0.832764,-0.00766649,0.000135441,-0.00213232,0.000680181,-0.00821123,-1.32068,0.00571439,0.0208455,1910,855,6.37222,-0.832755
693,169,6.38147,0.906006,-0.00667924,-9.60757e-06,-0.00193819,0.000512723,-0.00720157,-1.30756,0.00498076,0.0112244,1917,855,6.38147,-0.906031
700,169,6.38721,0.964539,-0.00549355,-0.000100892,-0.00169942,0.000389975,-0.00598441,-1.28961,0.00412575,0.0111972,1924,855,6.38716,-0.964524
707,169,6.37354,0.999695,-0.00411621,-0.000355057,-0.00152637,0.000186423,-0.00465769,-1.2299,0.0031691,0.0123282,1931,855,6.37351,-0.999676
714,169,6.37097,1.03754,-0.00253505,-0.000835295,-0.00133601,-0.000101758,-0.00326859,-1.06868,0.00214594,0.0120695,1938,855,6.37092,-1.03751
721,169,6.36755,1.08173,-0.000808278,-0.000731214,-0.00105038,0.000281344,-0.00182084,-0.803732,0.00131772,0.0138148,1945,855,6.3676,-1.08172
728,169,6.37585,1.13702,0.00117486,-1.48194e-05,-0.000794424,0.00157246,-0.000412423,-0.464042,0.00120945,0.011188,1952,855,6.37582,-1.13702
735,169,6.37439,1.20978,0.00304942,-0.000706745,-0.000572763,0.00313481,-0.000792142,-0.148006,0.00239794,0.0172606,1959,855,6.37441,-1.20979
742,169,6.39453,1.24054,0.00493915,-0.000302232,-0.000588208,0.00500435,-0.000367432,-0.110394,0.00346521,0.0147705,1966,855,6.39449,-1.24056
749,169,6.44507,1.24799,0.00670696,-4.04849e-05,-0.000683098,0.00677542,-0.000108946,-0.0998876,0.0045537,0.0233658,1973,855,6.44511,-1.24797
756,169,6.39661,1.26025,0.00871564,0.000297482,-0.00085745,0.00880209,0.000211033,-0.100482,0.005799,0.0430526,1980,855,6.39663,-1.26027
763,169,6.14258,1.19031,0,0,0,0,0,0,0,-1,1987,855,6.14259,-1.19032
770,169,6.41968,1.28406,0.0141532,0.00169077,-0.00113032,0.0142549,0.00158909,-0.0897227,0.00902035,0.0495964,1994,855,6.41967,-1.28407
777,169,6.72998,1.13281,0.0176648,0.00281602,-0.00109051,0.0177445,0.00273636,-0.0729193,0.0110313,0.0452126,2001,855,6.73002,-1.13283
784,169,7.12463,0.963135,0,0,0,0,0,0,0,-1,2008,855,7.12465,-0.963125
791,169,0,0,0,0,0,0,0,0,0,-1,2015,855,0,0
798,169,0,0,0,0,0,0,0,0,0,-1,2022,855,0,0
805,169,0,0,0,0,0,0,0,0,0,-1,2029,855,0,0
812,169,0,0,0,0,0,0,0,0,0,-1,2036,855,0,0
-700,162,0,0,0,0,0,0,0,0,0,-1,524,862,0,0
-693,162,0,0,0,0,0,0,0,0,0,-1,531,862,0,0
-686,162,0,0,0,0,0,0,0,0,0,-1,538,862,0,0
-679,162,0,0,0,0,0,0,0,0,0,-1,545,862,0,0
-672,162,0,0,0,0,0,0,0,0,0,-1,552,862,0,0
-665,162,-1.79321,1.37018,0.00216024,-0.000762425,-0.0115477,0.0123387,-0.0109409,-0.722459,0.0134485,0.0437182,559,862,-1.79322,-1.37015
-658,162,-2.17456,1.43042,0,0,0,0,0,0,0,-1,566,862,-2.17459,-1.4304
-651,162,-1.69775,0.229736,0,0,0,0,0,0,0,-1,573,862,-1.69777,-0.229761
-644,162,-1.72528,0.486572,0.0040795,-0.00212735,-0.0067646,0.0084186,-0.00646644,-0.570335,0.00861848,0.0456169,580,862,-1.72526,-0.486572
-637,162,-1.81403,0.789063,0.00378733,-0.00177378,-0.0049539,0.00668767,-0.00467412,-0.529665,0.00659398,0.0434516,587,862,-1.81405,-0.789042
-630,162,-2.10107,1.02362,0.0032986,-0.00139638,-0.00338936,0.00507403,-0.00317181,-0.482525,0.00480278,0.0431775,594,862,-2.10105,-1.02359
-623,162,-2.12756,0.964111,0.00269666,-0.00125639,-0.00216718,0.00365328,-0.002213,-0.415687,0.00342075,0.0312989,601,862,-2.12754,-0.964082
-616,162,-2.12622,0.911377,0.00207511,-0.00102667,-0.00117177,0.00246801,-0.00141957,-0.323522,0.00227154,0.0173092,608,862,-2.12619,-0.911353
-609,162,-2.11963,0.882446,0.00155274,-0.000660608,-0.00049312,0.00165764,-0.000765501,-0.209589,0.00143026,0.0123193,615,862,-2.11964,-0.88245
-602,162,-2.13074,0.819031,0.000458894,-0.000605817,0.000384347,0.00058314,-0.000730062,0.312661,0.000759758,0.0110812,622,862,-2.13076,-0.819008
-595,162,-2.12463,0.784546,-0.000706044,-0.000657873,0.00115144,0.000469731,-0.00183365,0.795855,0.00140542,0.0105907,629,862,-2.12465,-0.784526
-588,162,-2.10553,0.736145,-0.00213928,-0.000952906,0.00169095,0.000245882,-0.00333807,0.954092,0.0023117,0.01029,636,862,-2.10554,-0.736166
-581,162,-2.13477,0.660217,-0.0037048,-0.00144075,0.00210865,-0.000179476,-0.00496607,1.03174,0.00325254,0.0107105,643,862,-2.13475,-0.660236
-574,162,-2.19165,0.580078,-0.00504757,-0.00159469,0.00249573,-0.000286458,-0.00635581,1.08799,0.00414502,0.0147555,650,862,-2.19164,-0.580094
-567,162,-2.16132,0.562073,-0.00615685,-0.00169769,0.00284586,-0.000312035,-0.00754251,1.11768,0.00492762,0.0172863,657,862,-2.16133,-0.562052
-560,162,-2.12958,0.520874,-0.00689797,-0.00184974,0.0030329,-0.000428018,-0.00831969,1.13245,0.00540944,0.0123535,664,862,-2.12956,-0.520872
-553,162,-2.12988,0.481384,-0.00741569,-0.0017779,0.00306051,-0.000435915,-0.00875768,1.15756,0.00569871,0.0211976,671,862,-2.12987,-0.481385
-546,162,-2.44098,0.651794,-0.00759393,-0.00177626,0.00300098,-0.000505724,-0.00886447,1.1703,0.00574849,0.0318823,678,862,-2.44098,-0.651772
-539,162,-2.84851,0.915649,-0.007219,-0.00165706,0.00259403,-0.000635033,-0.00824103,1.19548,0.00529505,0.0410432,685,862,-2.84848,-0.91564
-532,162,-2.89105,0.812866,-0.00621895,-0.00136186,0.00199451,-0.000647807,-0.006933,1.22701,0.00442191,0.0384027,692,862,-2.89108,-0.812856
-525,162,-2.95746,0.707458,-0.004478,-0.000878503,0.00102913,-0.00060504,-0.00475146,1.31108,0.00298646,0.0392893,699,862,-2.95747,-0.707437
-518,162,-3.04218,0.575317,-0.00188742,-0.000249487,-0.000344819,-0.000179856,-0.00195705,-1.37154,0.00124907,0.0409868,706,862,-3.04218,-0.575314
-511,162,-2.87079,0.545959,0.00165439,0.000488297,-0.00215973,0.00330839,-0.00116571,-0.65356,0.00268004,0.0439329,713,862,-2.87077,-0.545983
-504,162,-2.91217,0.885315,0.00600124,0.00120275,-0.00439884,0.0086126,-0.00140861,-0.535736,0.00626429,0.0440846,720,862,-2.91217,-0.885335
-497,162,-3.00922,0.967529,0.0107552,0.00162284,-0.00685987,0.0144296,-0.0020516,-0.491754,0.0103715,0.0465447,727,862,-3.00921,-0.96754
-490,162,0,0,0,0,0,0,0,0,0,-1,734,862,0,0
-483,162,0,0,0,0,0,0,0,0,0,-1,741,862,0,0
-476,162,0,0,0,0,0,0,0,0,0,-1,748,862,0,0
-469,162,0,0,0,0,0,0,0,0,0,-1,755,862,0,0
-462,162,0,0,0,0,0,0,0,0,0,-1,762,862,0,0
-455,162,0,0,0,0,0,0,0,0,0,-1,769,862,0,0
-448,162,0,0,0,0,0,0,0,0,0,-1,776,862,0,0
-441,162,0,0,0,0,0,0,0,0,0,-1,783,862,0,0
-434,162,0,0,0,0,0,0,0,0,0,-1,790,862,0,0
-427,162,0,0,0,0,0,0,0,0,0,-1,797,862,0,0
-420,162,0,0,0,0,0,0,0,0,0,-1,804,862,0,0
-413,162,0,0,0,0,0,0,0,0,0,-1,811,862,0,0
-406,162,0,0,0,0,0,0,0,0,0,-1,818,862,0,0
-399,162,0,0,0,0,0,0,0,0,0,-1,825,862,0,0
-392,162,0,0,0,0,0,0,0,0,0,-1,832,862,0,0
-385,162,0,0,0,0,0,0,0,0,0,-1,839,862,0,0
-378,162,0,0,0,0,0,0,0,0,0,-1,846,862,0,0
-371,162,0,0,0,0,0,0,0,0,0,-1,853,862,0,0
-364,162,0,0,0,0,0,0,0,0,0,-1,860,862,0,0
-357,162,0,0,0,0,0,0,0,0,0,-1,867,862,0,0
-350,162,0,0,0,0,0,0,0,0,0,-1,874,862,0,0
-343,162,0,0,0,0,0,0,0,0,0,-1,881,862,0,0
-336,162,0,0,0,0,0,0,0,0,0,-1,888,862,0,0
-329,162,0,0,0,0,0,0,0,0,0,-1,895,862,0,0
-322,162,0,0,0,0,0,0,0,0,0,-1,902,862,0,0
-315,162,0,0,0,0,0,0,0,0,0,-1,909,862,0,0
-308,162,0,0,0,0,0,0,0,0,0,-1,916,862,0,0
-301,162,0,0,0,0,0,0,0,0,0,-1,923,862,0,0
-294,162,0,0,0,0,0,0,0,0,0,-1,930,862,0,0
-287,162,0,0,0,0,0,0,0,0,0,-1,937,862,0,0
-280,162,0,0,0,0,0,0,0,0,0,-1,944,862,0,0
-273,162,0,0,0,0,0,0,0,0,0,-1,951,862,0,0
-266,162,0,0,0,0,0,0,0,0,0,-1,958,862,0,0
-259,162,0,0,0,0,0,0,0,0,0,-1,965,862,0,0
-252,162,0,0,0,0,0,0,0,0,0,-1,972,862,0,0
-245,162,0,0,0,0,0,0,0,0,0,-1,979,862,0,0
-238,162,0,0,0,0,0,0,0,0,0,-1,986,862,0,0
-231,162,0,0,0,0,0,0,0,0,0,-1,993,862,0,0
-224,162,0,0,0,0,0,0,0,0,0,-1,1000,862,0,0
-217,162,0,0,0,0,0,0,0,0,0,-1,1007,862,0,0
-210,162,0,0,0,0,0,0,0,0,0,-1,1014,862,0,0
-203,162,0,0,0,0,0,0,0,0,0,-1,1021,862,0,0
-196,162,0,0,0,0,0,0,0,0,0,-1,1028,862,0,0
-189,162,0,0,0,0,0,0,0,0,0,-1,1035,862,0,0
-182,162,0,0,0,0,0,0,0,0,0,-1,1042,862,0,0
-175,162,0,0,0,0,0,0,0,0,0,-1,1049,862,0,0
-168,162,0,0,0,0,0,0,0,0,0,-1,1056,862,0,0
-161,162,0,0,0,0,0,0,0,0,0,-1,1063,862,0,0
-154,162,0,0,0,0,0,0,0,0,0,-1,1070,862,0,0
-147,162,0,0,0,0,0,0,0,0,0,-1,1077,862,0,0
-140,162,0,0,0,0,0,0,0,0,0,-1,1084,862,0,0
-133,162,0,0,0,0,0,0,0,0,0,-1,1091,862,0,0
-126,162,0,0,0,0,0,0,0,0,0,-1,1098,862,0,0
-119,162,0,0,0,0,0,0,0,0,0,-1,1105,862,0,0
-112,162,0,0,0,0,0,0,0,0,0,-1,1112,862,0,0
-105,162,0,0,0,0,0,0,0,0,0,-1,1119,862,0,0
-98,162,0,0,0,0,0,0,0,0,0,-1,1126,862,0,0
-91,162,0,0,0,0,0,0,0,0,0,-1,1133,862,0,0
-84,162,0,0,0,0,0,0,0,0,0,-1,1140,862,0,0
-77,162,0,0,0,0,0,0,0,0,0,-1,1147,862,0,0
-70,162,0,0,0,0,0,0,0,0,0,-1,1154,862,0,0
-63,162,0,0,0,0,0,0,0,0,0,-1,1161,862,0,0
-56,162,0,0,0,0,0,0,0,0,0,-1,1168,862,0,0
-49,162,0,0,0,0,0,0,0,0,0,-1,1175,862,0,0
-42,162,0,0,0,0,0,0,0,0,0,-1,1182,862,0,0
-35,162,0,0,0,0,0,0,0,0,0,-1,1189,862,0,0
-28,162,0,0,0,0,0,0,0,0,0,-1,1196,862,0,0
-21,162,0,0,0,0,0,0,0,0,0,-1,1203,862,0,0
-14,162,0,0,0,0,0,0,0,0,0,-1,1210,862,0,0
-7,162,0,0,0,0,0,0,0,0,0,-1,1217,862,0,0
0,162,0,0,0,0,0,0,0,0,0,-1,1224,862,0,0
7,162,0,0,0,0,0,0,0,0,0,-1,1231,862,0,0
14,162,0,0,0,0,0,0,0,0,0,-1,1238,862,0,0
21,162,0,0,0,0,0,0,0,0,0,-1,1245,862,0,0
28,162,0,0,0,0,0,0,0,0,0,-1,1252,862,0,0
35,162,0,0,0,0,0,0,0,0,0,-1,1259,862,0,0
42,162,0,0,0,0,0,0,0,0,0,-1,1266,862,0,0
49,162,0,0,0,0,0,0,0,0,0,-1,1273,862,0,0
56,162,0,0,0,0,0,0,0,0,0,-1,1280,862,0,0
63,162,0,0,0,0,0,0,0,0,0,-1,1287,862,0,0
70,162,0,0,0,0,0,0,0,0,0,-1,1294,862,0,0
77,162,0,0,0,0,0,0,0,0,0,-1,1301,862,0,0
84,162,0,0,0,0,0,0,0,0,0,-1,1308,862,0,0
91,162,0,0,0,0,0,0,0,0,0,-1,1315,862,0,0
98,162,0,0,0,0,0,0,0,0,0,-1,1322,862,0,0
105,162,0,0,0,0,0,0,0,0,0,-1,1329,862,0,0
112,162,0,0,0,0,0,0,0,0,0,-1,1336,862,0,0
119,162,0,0,0,0,0,0,0,0,0,-1,1343,862,0,0
126,162,0,0,0,0,0,0,0,0,0,-1,1350,862,0,0
133,162,0,0,0,0,0,0,0,0,0,-1,1357,862,0,0
140,162,0,0,0,0,0,0,0,0,0,-1,1364,862,0,0
147,162,0,0,0,0,0,0,0,0,0,-1,1371,862,0,0
154,162,0,0,0,0,0,0,0,0,0,-1,1378,862,0,0
161,162,0,0,0,0,0,0,0,0,0,-1,1385,862,0,0
168,162,0,0,0,0,0,0,0,0,0,-1,1392,862,0,0
175,162,0,0,0,0,0,0,0,0,0,-1,1399,862,0,0
182,162,0,0,0,0,0,0,0,0,0,-1,1406,862,0,0
189,162,0,0,0,0,0,0,0,0,0,-1,1413,862,0,0
196,162,0,0,0,0,0,0,0,0,0,-1,1420,862,0,0
203,162,0,0,0,0,0,0,0,0,0,-1,1427,862,0,0
210,162,0,0,0,0,0,0,0,0,0,-1,1434,862,0,0
217,162,0,0,0,0,0,0,0,0,0,-1,1441,862,0,0
224,162,0,0,0,0,0,0,0,0,0,-1,1448,862,0,0
231,162,0,0,0,0,0,0,0,0,0,-1,1455,862,0,0
238,162,0,0,0,0,0,0,0,0,0,-1,1462,862,0,0
245,162,0,0,0,0,0,0,0,0,0,-1,1469,862,0,0
252,162,0,0,0,0,0,0,0,0,0,-1,1476,862,0,0
259,162,0,0,0,0,0,0,0,0,0,-1,1483,862,0,0
266,162,0,0,0,0,0,0,0,0,0,-1,1490,862,0,0
273,162,0,0,0,0,0,0,0,0,0,-1,1497,862,0,0
280,162,0,0,0,0,0,0,0,0,0,-1,1504,862,0,0
287,162,0,0,0,0,0,0,0,0,0,-1,1511,862,0,0
294,162,0,0,0,0,0,0,0,0,0,-1,1518,862,0,0
301,162,0,0,0,0,0,0,0,0,0,-1,1525,862,0,0
308,162,0,0,0,0,0,0,0,0,0,-1,1532,862,0,0
315,162,0,0,0,0,0,0,0,0,0,-1,1539,862,0,0
322,162,0,0,0,0,0,0,0,0,0,-1,1546,862,0,0
329,162,0,0,0,0,0,0,0,0,0,-1,1553,862,0,0
336,162,0,0,0,0,0,0,0,0,0,-1,1560,862,0,0
343,162,0,0,0,0,0,0,0,0,0,-1,1567,862,0,0
350,162,0,0,0,0,0,0,0,0,0,-1,1574,862,0,0
357,162,0,0,0,0,0,0,0,0,0,-1,1581,862,0,0
364,162,0,0,0,0,0,0,0,0,0,-1,1588,862,0,0
371,162,0,0,0,0,0,0,0,0,0,-1,1595,862,0,0
378,162,0,0,0,0,0,0,0,0,0,-1,1602,862,0,0
385,162,0,0,0,0,0,0,0,0,0,-1,1609,862,0,0
392,162,0,0,0,0,0,0,0,0,0,-1,1616,862,0,0
399,162,0,0,0,0,0,0,0,0,0,-1,1623,862,0,0
406,162,0,0,0,0,0,0,0,0,0,-1,1630,862,0,0
413,162,0,0,0,0,0,0,0,0,0,-1,1637,862,0,0
420,162,0,0,0,0,0,0,0,0,0,-1,1644,862,0,0
427,162,0,0,0,0,0,0,0,0,0,-1,1651,862,0,0
434,162,0,0,0,0,0,0,0,0,0,-1,1658,862,0,0
441,162,0,0,0,0,0,0,0,0,0,-1,1665,862,0,0
448,162,0,0,0,0,0,0,0,0,0,-1,1672,862,0,0
455,162,0,0,0,0,0,0,0,0,0,-1,1679,862,0,0
462,162,0,0,0,0,0,0,0,0,0,-1,1686,862,0,0
469,162,0,0,0,0,0,0,0,0,0,-1,1693,862,0,0
476,162,0,0,0,0,0,0,0,0,0,-1,1700,862,0,0
483,162,0,0,0,0,0,0,0,0,0,-1,1707,862,0,0
490,162,0,0,0,0,0,0,0,0,0,-1,1714,862,0,0
497,162,0,0,0,0,0,0,0,0,0,-1,1721,862,0,0
504,162,0,0,0,0,0,0,0,0,0,-1,1728,862,0,0
511,162,0,0,0,0,0,0,0,0,0,-1,1735,862,0,0
518,162,0,0,0,0,0,0,0,0,0,-1,1742,862,0,0
525,162,0,0,0,0,0,0,0,0,0,-1,1749,862,0,0
532,162,0,0,0,0,0,0,0,0,0,-1,1756,862,0,0
539,162,0,0,0,0,0,0,0,0,0,-1,1763,862,0,0
546,162,0,0,0,0,0,0,0,0,0,-1,1770,862,0,0
553,162,0,0,0,0,0,0,0,0,0,-1,1777,862,0,0
560,162,0,0,0,0,0,0,0,0,0,-1,1784,862,0,0
567,162,0,0,0,0,0,0,0,0,0,-1,1791,862,0,0
574,162,0,0,0,0,0,0,0,0,0,-1,1798,862,0,0
581,162,0,0,0,0,0,0,0,0,0,-1,1805,862,0,0
588,162,0,0,0,0,0,0,0,0,0,-1,1812,862,0,0
595,162,0,0,0,0,0,0,0,0,0,-1,1819,862,0,0
602,162,0,0,0,0,0,0,0,0,0,-1,1826,862,0,0
609,162,0,0,0,0,0,0,0,0,0,-1,1833,862,0,0
616,162,7.10425,0.94104,0.0023876,-0.00115219,0.00404151,0.00502978,-0.00379436,0.579013,0.00511124,0.0444244,1840,862,7.10428,-0.941014
623,162,7.22681,1.10449,0.00163039,-0.000312837,0.0032301,0.00403184,-0.00271429,0.639303,0.00391956,0.0460885,1847,862,7.22684,-1.10451
630,162,7.24243,1.02094,4.4237e-05,0.000318292,0.0022622,0.00244761,-0.00208509,0.815647,0.00261974,0.0414405,1854,862,7.2424,-1.02092
637,162,7.27197,1.11731,-0.0019718,0.000639149,0.00126988,0.0011549,-0.00248755,1.18501,0.00214938,0.0364525,1861,862,7.27197,-1.11734
644,162,7.19653,1.16888,-0.00402416,0.00073294,0.000320709,0.000754463,-0.00404568,1.50378,0.00298061,0.0361391,1868,862,7.19659,-1.16887
651,162,7.18457,1.13922,-0.00572724,0.000676424,-0.000483765,0.000712764,-0.00576358,-1.49582,0.00410067,0.0360612,1875,862,7.18458,-1.13925
658,162,7.2345,1.06604,-0.00693999,0.000585904,-0.00113012,0.000751945,-0.00710603,-1.42492,0.00500686,0.0358533,1882,862,7.23456,-1.06603
665,162,7.23022,0.970581,-0.00780103,0.000465593,-0.00166892,0.00078981,-0.00812525,-1.37892,0.00569838,0.0421298,1889,862,7.23026,-0.970559
672,162,7.21155,0.988647,-0.00835172,0.000246923,-0.00210276,0.000733598,-0.00883839,-1.34336,0.00615139,0.0445616,1896,862,7.2115,-0.988653
679,162,6.82043,0.94574,-0.00841205,1.04729e-05,-0.00228165,0.000588851,-0.00899043,-1.32253,0.00619923,0.0437879,1903,862,6.82047,-0.945759
686,162,6.45605,0.885925,-0.00812356,-0.000114165,-0.00231479,0.000506704,-0.00874442,-1.30875,0.00600565,0.0241796,1910,862,6.45606,-0.885939
693,162,6.42139,0.901245,-0.00733982,-0.000204158,-0.00215031,0.000393737,-0.00793772,-1.2996,0.00542782,0.0144648,1917,862,6.42137,-0.901238
700,162,6.41956,0.948853,-0.00624192,-0.000278326,-0.00193315,0.000293491,-0.00681374,-1.2832,0.00464342,0.0138341,1924,862,6.41961,-0.94888
707,162,6.42456,0.988464,-0.0049365,-0.000392535,-0.00177808,0.000220529,-0.00554956,-1.23877,0.00377537,0.0104705,1931,862,6.42455,-0.988455
714,162,6.44312,1.00494,-0.0033893,-0.000691244,-0.00160319,5.49797e-05,-0.00413552,-1.13516,0.00277552,0.0139842,1938,862,6.44316,-1.00493
721,162,6.42065,1.08057,-0.00167054,-0.00037185,-0.00129794,0.000430111,-0.0024725,-1.01734,0.00180883,0.0265335,1945,862,6.42065,-1.08057
728,162,6.38586,1.13702,0.000298031,0.000609701,-0.000998811,0.00146476,-0.000557029,-0.862785,0.00120586,0.0201823,1952,862,6.3859,-1.13699
735,162,6.43506,1.20343,0.00223381,9.11061e-05,-0.000704931,0.00244493,-0.000120009,-0.290983,0.00167139,0.0106047,1959,862,6.43509,-1.20345
742,162,6.42993,1.25574,0.00421725,0.000966695,-0.000657997,0.00434539,0.000838551,-0.192341,0.00266181,0.0119894,1966,862,6.42999,-1.25574
749,162,6.42102,1.29327,0.00602681,0.00176113,-0.00068794,0.00613501,0.00165292,-0.156005,0.00366545,0.0156963,1973,862,6.42103,-1.29327
756,162,6.39465,1.33057,0.00805449,0.0026704,-0.000779214,0.00816499,0.00255989,-0.140875,0.00482211,0.0349691,1980,862,6.3946,-1.33056
763,162,6.18811,0.815491,0,0,0,0,0,0,0,-1,1987,862,6.18809,-0.815504
770,162,6.43579,0.952698,0,0,0,0,0,0,0,-1,1994,862,6.43575,-0.9527
777,162,6.68347,1.0899,0,0,0,0,0,0,0,-1,2001,862,6.68341,-1.0899
784,162,6.52991,1.54993,0,0,0,0,0,0,0,-1,2008,862,6.52988,-1.54994
791,162,0,0,0,0,0,0,0,0,0,-1,2015,862,0,0
798,162,0,0,0,0,0,0,0,0,0,-1,2022,862,0,0
805,162,0,0,0,0,0,0,0,0,0,-1,2029,862,0,0
812,162,0,0,0,0,0,0,0,0,0,-1,2036,862,0,0
-700,155,0,0,0,0,0,0,0,0,0,-1,524,869,0,0
-693,155,0,0,0,0,0,0,0,0,0,-1,531,869,0,0
-686,155,0,0,0,0,0,0,0,0,0,-1,538,869,0,0
-679,155,0,0,0,0,0,0,0,0,0,-1,545,869,0,0
-672,155,0,0,0,0,0,0,0,0,0,-1,552,869,0,0
-665,155,-2.26141,1.76697,0,0,0,0,0,0,0,-1,559,869,-2.26142,-1.76695
-658,155,-1.4115,-0.20105,0,0,0,0,0,0,0,-1,566,869,-1.41149,0.201066
-651,155,-1.4845,0.0640869,0,0,0,0,0,0,0,-1,573,869,-1.48448,-0.0640737
-644,155,-1.55402,0.313843,0,0,0,0,0,0,0,-1,580,869,-1.55403,-0.31384
-637,155,-2.0957,1.08282,0,0,0,0,0,0,0,-1,587,869,-2.09569,-1.08283
-630,155,-2.10352,1.03333,0.00473883,-0.00214024,-0.00356673,0.00625429,-0.00365569,-0.401775,0.00578673,0.0402154,594,869,-2.10353,-1.03331
-623,155,-2.12787,0.955505,0.00360481,-0.00158435,-0.00236771,0.00452277,-0.00250231,-0.369856,0.00411146,0.0233553,601,869,-2.12786,-0.955477
-616,155,-2.15448,0.899719,0.00254833,-0.00103556,-0.0013752,0.0030152,-0.00150243,-0.327284,0.00265655,0.0129236,608,869,-2.15449,-0.899707
-609,155,-2.15063,0.866516,0.00167743,-0.000485639,-0.000644952,0.00185514,-0.000663343,-0.268858,0.00150734,0.0118863,615,869,-2.15061,-0.866495
-602,155,-2.17456,0.826355,0.000273364,-0.000326988,0.000318541,0.00041088,-0.000464504,0.407536,0.000505719,0.0103638,622,869,-2.17458,-0.826375
-595,155,-2.17487,0.782532,-0.00113922,-0.000301387,0.00110495,0.00046139,-0.001902,0.966591,0.00144653,0.00931185,629,869,-2.17484,-0.782533
-588,155,-2.16632,0.737671,-0.00265419,-0.000622529,0.00169124,0.000334506,-0.00361122,1.05584,0.00252638,0.0107252,636,869,-2.16633,-0.737666
-581,155,-2.20605,0.664246,-0.00422412,-0.00111669,0.00213308,-3.1454e-05,-0.00530936,1.10016,0.00352913,0.0133172,643,869,-2.20607,-0.664219
-574,155,-2.23291,0.60675,-0.00555129,-0.0013751,0.00250718,-0.000200357,-0.00672603,1.13262,0.00441875,0.0174514,650,869,-2.23289,-0.606762
-567,155,-2.20032,0.579041,-0.00653042,-0.00149485,0.00279285,-0.000252414,-0.00777285,1.15222,0.00509984,0.019735,657,869,-2.2003,-0.579041
-560,155,-2.18451,0.550781,-0.00710624,-0.00163037,0.00291589,-0.000368468,-0.00836814,1.16236,0.00546008,0.0204022,664,869,-2.1845,-0.550803
-553,155,-2.24603,0.547058,-0.007472,-0.00154632,0.00287219,-0.000382673,-0.00863565,1.18586,0.00563388,0.0320307,671,869,-2.24605,-0.547053
-546,155,-2.58618,0.627991,-0.00747529,-0.0015116,0.00270999,-0.000464122,-0.00852278,1.20196,0.00553363,0.0357045,678,869,-2.58615,-0.62802
-539,155,-2.87885,0.801086,-0.00687203,-0.0013612,0.00218534,-0.000599794,-0.00763343,1.23553,0.00490127,0.0461573,685,869,-2.87887,-0.801117
-532,155,-2.87817,0.862427,-0.0055912,-0.00105747,0.00143119,-0.000643476,-0.00600519,1.28922,0.00380714,0.0384159,692,869,-2.87819,-0.862406
-525,155,-2.90448,0.798767,-0.0035239,-0.000627088,0.000302894,-0.000595756,-0.00355523,1.46772,0.00219864,0.0397584,699,869,-2.90448,-0.798769
-518,155,-2.93219,0.750977,-0.000540228,-0.000107131,-0.00122495,0.000920264,-0.00156762,-0.872885,0.0014525,0.0433174,706,869,-2.93218,-0.750974
-511,155,-2.69489,0.253723,0.0033985,0.000425019,-0.00315007,0.00539506,-0.00157154,-0.564912,0.00421926,0.0418536,713,869,-2.69486,-0.253693
-504,155,-2.5899,-0.0128174,0.00798271,0.000755337,-0.00538412,0.0108534,-0.00211538,-0.48984,0.00803412,0.0429534,720,869,-2.58993,0.0128248
-497,155,0,0,0,0,0,0,0,0,0,-1,727,869,0,0
-490,155,0,0,0,0,0,0,0,0,0,-1,734,869,0,0
-483,155,0,0,0,0,0,0,0,0,0,-1,741,869,0,0
-476,155,0,0,0,0,0,0,0,0,0,-1,748,869,0,0
-469,155,0,0,0,0,0,0,0,0,0,-1,755,869,0,0
-462,155,0,0,0,0,0,0,0,0,0,-1,762,869,0,0
-455,155,0,0,0,0,0,0,0,0,0,-1,769,869,0,0
-448,155,0,0,0,0,0,0,0,0,0,-1,776,869,0,0
-441,155,0,0,0,0,0,0,0,0,0,-1,783,869,0,0
-434,155,0,0,0,0,0,0,0,0,0,-1,790,869,0,0
-427,155,0,0,0,0,0,0,0,0,0,-1,797,869,0,0
-420,155,0,0,0,0,0,0,0,0,0,-1,804,869,0,0
-413,155,0,0,0,0,0,0,0,0,0,-1,811,869,0,0
-406,155,0,0,0,0,0,0,0,0,0,-1,818,869,0,0
-399,155,0,0,0,0,0,0,0,0,0,-1,825,869,0,0
-392,155,0,0,0,0,0,0,0,0,0,-1,832,869,0,0
-385,155,0,0,0,0,0,0,0,0,0,-1,839,869,0,0
-378,155,0,0,0,0,0,0,0,0,0,-1,846,869,0,0
-371,155,0,0,0,0,0,0,0,0,0,-1,853,869,0,0
-364,155,0,0,0,0,0,0,0,0,0,-1,860,869,0,0
-357,155,0,0,0,0,0,0,0,0,0,-1,867,869,0,0
-350,155,0,0,0,0,0,0,0,0,0,-1,874,869,0,0
-343,155,0,0,0,0,0,0,0,0,0,-1,881,869,0,0
-336,155,0,0,0,0,0,0,0,0,0,-1,888,869,0,0
-329,155,0,0,0,0,0,0,0,0,0,-1,895,869,0,0
-322,155,0,0,0,0,0,0,0,0,0,-1,902,869,0,0
-315,155,0,0,0,0,0,0,0,0,0,-1,909,869,0,0
-308,155,0,0,0,0,0,0,0,0,0,-1,916,869,0,0
-301,155,0,0,0,0,0,0,0,0,0,-1,923,869,0,0
-294,155,0,0,0,0,0,0,0,0,0,-1,930,869,0,0
-287,155,0,0,0,0,0,0,0,0,0,-1,937,869,0,0
-280,155,0,0,0,0,0,0,0,0,0,-1,944,869,0,0
-273,155,0,0,0,0,0,0,0,0,0,-1,951,869,0,0
-266,155,0,0,0,0,0,0,0,0,0,-1,958,869,0,0
-259,155,0,0,0,0,0,0,0,0,0,-1,965,869,0,0
-252,155,0,0,0,0,0,0,0,0,0,-1,972,869,0,0
-245,155,0,0,0,0,0,0,0,0,0,-1,979,869,0,0
-238,155,0,0,0,0,0,0,0,0,0,-1,986,869,0,0
-231,155,0,0,0,0,0,0,0,0,0,-1,993,869,0,0
-224,155,0,0,0,0,0,0,0,0,0,-1,1000,869,0,0
-217,155,0,0,0,0,0,0,0,0,0,-1,1007,869,0,0
-210,155,0,0,0,0,0,0,0,0,0,-1,1014,869,0,0
-203,155,0,0,0,0,0,0,0,0,0,-1,1021,869,0,0
-196,155,0,0,0,0,0,0,0,0,0,-1,1028,869,0,0
-189,155,0,0,0,0,0,0,0,0,0,-1,1035,869,0,0
-182,155,0,0,0,0,0,0,0,0,0,-1,1042,869,0,0
-175,155,0,0,0,0,0,0,0,0,0,-1,1049,869,0,0
-168,155,0,0,0,0,0,0,0,0,0,-1,1056,869,0,0
-161,155,0,0,0,0,0,0,0,0,0,-1,1063,869,0,0
-154,155,0,0,0,0,0,0,0,0,0,-1,1070,869,0,0
-147,155,0,0,0,0,0,0,0,0,0,-1,1077,869,0,0
-140,155,0,0,0,0,0,0,0,0,0,-1,1084,869,0,0
-133,155,0,0,0,0,0,0,0,0,0,-1,1091,869,0,0
-126,155,0,0,0,0,0,0,0,0,0,-1,1098,869,0,0
-119,155,0,0,0,0,0,0,0,0,0,-1,1105,869,0,0
-112,155,0,0,0,0,0,0,0,0,0,-1,1112,869,0,0
-105,155,0,0,0,0,0,0,0,0,0,-1,1119,869,0,0
-98,155,0,0,0,0,0,0,0,0,0,-1,1126,869,0,0
-91,155,0,0,0,0,0,0,0,0,0,-1,1133,869,0,0
-84,155,0,0,0,0,0,0,0,0,0,-1,1140,869,0,0
-77,155,0,0,0,0,0,0,0,0,0,-1,1147,869,0,0
-70,155,0,0,0,0,0,0,0,0,0,-1,1154,869,0,0
-63,155,0,0,0,0,0,0,0,0,0,-1,1161,869,0,0
-56,155,0,0,0,0,0,0,0,0,0,-1,1168,869,0,0
-49,155,0,0,0,0,0,0,0,0,0,-1,1175,869,0,0
-42,155,0,0,0,0,0,0,0,0,0,-1,1182,869,0,0
-35,155,0,0,0,0,0,0,0,0,0,-1,1189,869,0,0
-28,155,0,0,0,0,0,0,0,0,0,-1,1196,869,0,0
-21,155,0,0,0,0,0,0,0,0,0,-1,1203,869,0,0
-14,155,0,0,0,0,0,0,0,0,0,-1,1210,869,0,0
-7,155,0,0,0,0,0,0,0,0,0,-1,1217,869,0,0
0,155,0,0,0,0,0,0,0,0,0,-1,1224,869,0,0
7,155,0,0,0,0,0,0,0,0,0,-1,1231,869,0,0
14,155,0,0,0,0,0,0,0,0,0,-1,1238,869,0,0
21,155,0,0,0,0,0,0,0,0,0,-1,1245,869,0,0
28,155,0,0,0,0,0,0,0,0,0,-1,1252,869,0,0
35,155,0,0,0,0,0,0,0,0,0,-1,1259,869,0,0
42,155,0,0,0,0,0,0,0,0,0,-1,1266,869,0,0
49,155,0,0,0,0,0,0,0,0,0,-1,1273,869,0,0
56,155,0,0,0,0,0,0,0,0,0,-1,1280,869,0,0
63,155,0,0,0,0,0,0,0,0,0,-1,1287,869,0,0
70,155,0,0,0,0,0,0,0,0,0,-1,1294,869,0,0
77,155,0,0,0,0,0,0,0,0,0,-1,1301,869,0,0
84,155,0,0,0,0,0,0,0,0,0,-1,1308,869,0,0
91,155,0,0,0,0,0,0,0,0,0,-1,1315,869,0,0
98,155,0,0,0,0,0,0,0,0,0,-1,1322,869,0,0
105,155,0,0,0,0,0,0,0,0,0,-1,1329,869,0,0
112,155,0,0,0,0,0,0,0,0,0,-1,1336,869,0,0
119,155,0,0,0,0,0,0,0,0,0,-1,1343,869,0,0
126,155,0,0,0,0,0,0,0,0,0,-1,1350,869,0,0
133,155,0,0,0,0,0,0,0,0,0,-1,1357,869,0,0
140,155,0,0,0,0,0,0,0,0,0,-1,1364,869,0,0
147,155,0,0,0,0,0,0,0,0,0,-1,1371,869,0,0
154,155,0,0,0,0,0,0,0,0,0,-1,1378,869,0,0
161,155,0,0,0,0,0,0,0,0,0,-1,1385,869,0,0
168,155,0,0,0,0,0,0,0,0,0,-1,1392,869,0,0
175,155,0,0,0,0,0,0,0,0,0,-1,1399,869,0,0
182,155,0,0,0,0,0,0,0,0,0,-1,1406,869,0,0
189,155,0,0,0,0,0,0,0,0,0,-1,1413,869,0,0
196,155,0,0,0,0,0,0,0,0,0,-1,1420,869,0,0
203,155,0,0,0,0,0,0,0,0,0,-1,1427,869,0,0
210,155,0,0,0,0,0,0,0,0,0,-1,1434,869,0,0
217,155,0,0,0,0,0,0,0,0,0,-1,1441,869,0,0
224,155,0,0,0,0,0,0,0,0,0,-1,1448,869,0,0
231,155,0,0,0,0,0,0,0,0,0,-1,1455,869,0,0
238,155,0,0,0,0,0,0,0,0,0,-1,1462,869,0,0
245,155,0,0,0,0,0,0,0,0,0,-1,1469,869,0,0
252,155,0,0,0,0,0,0,0,0,0,-1,1476,869,0,0
259,155,0,0,0,0,0,0,0,0,0,-1,1483,869,0,0
266,155,0,0,0,0,0,0,0,0,0,-1,1490,869,0,0
273,155,0,0,0,0,0,0,0,0,0,-1,1497,869,0,0
280,155,0,0,0,0,0,0,0,0,0,-1,1504,869,0,0
287,155,0,0,0,0,0,0,0,0,0,-1,1511,869,0,0
294,155,0,0,0,0,0,0,0,0,0,-1,1518,869,0,0
301,155,0,0,0,0,0,0,0,0,0,-1,1525,869,0,0
308,155,0,0,0,0,0,0,0,0,0,-1,1532,869,0,0
315,155,0,0,0,0,0,0,0,0,0,-1,1539,869,0,0
322,155,0,0,0,0,0,0,0,0,0,-1,1546,869,0,0
329,155,0,0,0,0,0,0,0,0,0,-1,1553,869,0,0
336,155,0,0,0,0,0,0,0,0,0,-1,1560,869,0,0
343,155,0,0,0,0,0,0,0,0,0,-1,1567,869,0,0
350,155,0,0,0,0,0,0,0,0,0,-1,1574,869,0,0
357,155,0,0,0,0,0,0,0,0,0,-1,1581,869,0,0
364,155,0,0,0,0,0,0,0,0,0,-1,1588,869,0,0
371,155,0,0,0,0,0,0,0,0,0,-1,1595,869,0,0
378,155,0,0,0,0,0,0,0,0,0,-1,1602,869,0,0
385,155,0,0,0,0,0,0,0,0,0,-1,1609,869,0,0
392,155,0,0,0,0,0,0,0,0,0,-1,1616,869,0,0
399,155,0,0,0,0,0,0,0,0,0,-1,1623,869,0,0
406,155,0,0,0,0,0,0,0,0,0,-1,1630,869,0,0
413,155,0,0,0,0,0,0,0,0,0,-1,1637,869,0,0
420,155,0,0,0,0,0,0,0,0,0,-1,1644,869,0,0
427,155,0,0,0,0,0,0,0,0,0,-1,1651,869,0,0
434,155,0,0,0,0,0,0,0,0,0,-1,1658,869,0,0
441,155,0,0,0,0,0,0,0,0,0,-1,1665,869,0,0
448,155,0,0,0,0,0,0,0,0,0,-1,1672,869,0,0
455,155,0,0,0,0,0,0,0,0,0,-1,1679,869,0,0
462,155,0,0,0,0,0,0,0,0,0,-1,1686,869,0,0
469,155,0,0,0,0,0,0,0,0,0,-1,1693,869,0,0
476,155,0,0,0,0,0,0,0,0,0,-1,1700,869,0,0
483,155,0,0,0,0,0,0,0,0,0,-1,1707,869,0,0
490,155,0,0,0,0,0,0,0,0,0,-1,1714,869,0,0
497,155,0,0,0,0,0,0,0,0,0,-1,1721,869,0,0
504,155,0,0,0,0,0,0,0,0,0,-1,1728,869,0,0
511,155,0,0,0,0,0,0,0,0,0,-1,1735,869,0,0
518,155,0,0,0,0,0,0,0,0,0,-1,1742,869,0,0
525,155,0,0,0,0,0,0,0,0,0,-1,1749,869,0,0
532,155,0,0,0,0,0,0,0,0,0,-1,1756,869,0,0
539,155,0,0,0,0,0,0,0,0,0,-1,1763,869,0,0
546,155,0,0,0,0,0,0,0,0,0,-1,1770,869,0,0
553,155,0,0,0,0,0,0,0,0,0,-1,1777,869,0,0
560,155,0,0,0,0,0,0,0,0,0,-1,1784,869,0,0
567,155,0,0,0,0,0,0,0,0,0,-1,1791,869,0,0
574,155,0,0,0,0,0,0,0,0,0,-1,1798,869,0,0
581,155,0,0,0,0,0,0,0,0,0,-1,1805,869,0,0
588,155,0,0,0,0,0,0,0,0,0,-1,1812,869,0,0
595,155,0,0,0,0,0,0,0,0,0,-1,1819,869,0,0
602,155,0,0,0,0,0,0,0,0,0,-1,1826,869,0,0
609,155,0,0,0,0,0,0,0,0,0,-1,1833,869,0,0
616,155,7.28821,0.963562,0.00369514,-0.00162511,0.0038523,0.00571653,-0.00364649,0.483228,0.0054496,0.0444566,1840,869,7.28815,-0.963582
623,155,7.38501,0.895874,0.00299484,-0.00067308,0.00313863,0.00479604,-0.00247428,0.520993,0.00426827,0.0422653,1847,869,7.38498,-0.89586
630,155,7.30701,0.901306,0.00144246,5.75636e-05,0.00225657,0.00311043,-0.00161041,0.63653,0.00277106,0.0427965,1854,869,7.30706,-0.901301
637,155,7.12158,1.06671,-0.000654508,0.00045314,0.00132054,0.00133128,-0.00153265,0.983954,0.00165486,0.0429094,1861,869,7.1216,-1.06674
644,155,7.19836,1.12006,-0.00295218,0.000593198,0.000372172,0.000631845,-0.00299083,1.46733,0.00223448,0.0374212,1868,869,7.19839,-1.12003
651,155,7.24353,1.14679,-0.00498277,0.000577269,-0.000476212,0.000617762,-0.00502327,-1.48597,0.00357261,0.0345098,1875,869,7.24358,-1.14678
658,155,7.19934,1.15198,-0.00651912,0.000497751,-0.00116937,0.000687497,-0.00670887,-1.40993,0.00471847,0.0296462,1882,869,7.19935,-1.15196
665,155,7.16382,1.10773,-0.00763666,0.000380591,-0.00173096,0.000738349,-0.00799442,-1.36698,0.005592,0.032902,1889,869,7.16376,-1.10773
672,155,7.16248,1.07068,-0.0083751,0.000176733,-0.00217677,0.000698918,-0.00889729,-1.33536,0.00617769,0.0376456,1896,869,7.16243,-1.07069
679,155,7.00439,0.976929,-0.00857129,-5.86243e-05,-0.00238541,0.000564237,-0.00919415,-1.31539,0.0063259,0.0360009,1903,869,7.00435,-0.97695
686,155,6.68628,0.977051,-0.00842843,-0.00018364,-0.00245109,0.000490004,-0.00910207,-1.30258,0.0062378,0.0252874,1910,869,6.68627,-0.977077
693,155,6.47449,0.943848,-0.00781245,-0.000259265,-0.00233287,0.000403165,-0.00847488,-1.29412,0.00578899,0.0148258,1917,869,6.47451,-0.943861
700,155,6.47388,0.954285,-0.0068042,-0.000339715,-0.00212579,0.000296681,-0.0074406,-1.27992,0.00506219,0.0138455,1924,869,6.47389,-0.954297
707,155,6.51184,1.02747,-0.00558128,-0.000382553,-0.00197027,0.000279776,-0.00624361,-1.2465,0.00425873,0.0106004,1931,869,6.51185,-1.02745
714,155,6.49548,1.00464,-0.00408952,-0.000563054,-0.00179534,0.000190103,-0.00484268,-1.17359,0.00329365,0.0180278,1938,869,6.49549,-1.00464
721,155,6.44971,1.04901,-0.00240026,-0.000105215,-0.00145996,0.000604223,-0.0031097,-1.11847,0.00230114,0.0241907,1945,869,6.44969,-1.04899
728,155,6.44775,1.13995,-0.000452919,0.00100989,-0.00111063,0.00160832,-0.00105134,-1.07658,0.00154674,0.0186607,1952,869,6.4477,-1.13997
735,155,6.47119,1.19751,0.00154319,0.000583054,-0.000737999,0.00194352,0.000182719,-0.497036,0.00123927,0.0157809,1959,869,6.47117,-1.19751
742,155,6.49561,1.24646,0.00360471,0.00176025,-0.000614625,0.00379075,0.0015742,-0.293928,0.00219904,0.0166712,1966,869,6.49563,-1.24647
749,155,6.48547,1.29486,0.00543973,0.0028156,-0.000568838,0.00555773,0.00269759,-0.204543,0.00320921,0.012971,1973,869,6.4855,-1.29488
756,155,6.49487,1.3089,0.00745664,0.0040018,-0.000578383,0.0075509,0.00390754,-0.161546,0.0043604,0.0229358,1980,869,6.49492,-1.30891
763,155,6.37231,0.914917,0.00986114,0.00549173,-0.000588897,0.00993912,0.00541375,-0.131648,0.00574599,0.0419311,1987,869,6.3723,-0.914921
770,155,6.47034,0.696228,0.0127566,0.00731425,-0.000566103,0.0128149,0.00725599,-0.102555,0.00742026,0.0475097,1994,869,6.47029,-0.696207
777,155,6.52124,1.00702,0.0161454,0.00947476,-0.000497031,0.0161822,0.00943793,-0.0739657,0.00938587,0.0462044,2001,869,6.5212,-1.00701
784,155,6.58301,1.30017,0.0200033,0.0119968,-0.000450312,0.0200285,0.0119715,-0.0560076,0.0116369,0.0457004,2008,869,6.58296,-1.3002
791,155,0,0,0,0,0,0,0,0,0,-1,2015,869,0,0
798,155,0,0,0,0,0,0,0,0,0,-1,2022,869,0,0
805,155,0,0,0,0,0,0,0,0,0,-1,2029,869,0,0
812,155,0,0,0,0,0,0,0,0,0,-1,2036,869,0,0
-700,148,0,0,0,0,0,0,0,0,0,-1,524,876,0,0
-693,148,0,0,0,0,0,0,0,0,0,-1,531,876,0,0
-686,148,0,0,0,0,0,0,0,0,0,-1,538,876,0,0
-679,148,0,0,0,0,0,0,0,0,0,-1,545,876,0,0
-672,148,-3.86743,2.10913,0,0,0,0,0,0,0,-1,552,876,-3.86743,-2.10915
-665,148,-3.11884,1.74182,0,0,0,0,0,0,0,-1,559,876,-3.11882,-1.7418
-658,148,-2.24225,1.19861,0,0,0,0,0,0,0,-1,566,876,-2.24223,-1.19858
-651,148,-1.21857,0.0252075,0,0,0,0,0,0,0,-1,573,876,-1.21857,-0.0251926
-644,148,-1.37646,0.195007,0,0,0,0,0,0,0,-1,580,876,-1.37648,-0.195002
-637,148,-2.62415,0.951172,0,0,0,0,0,0,0,-1,587,876,-2.62416,-0.951169
-630,148,-2.32867,0.934265,0.00681847,-0.00232092,-0.00364859,0.00809637,-0.00359882,-0.336892,0.00691665,0.0401093,594,876,-2.32868,-0.934292
-623,148,-2.14807,0.948547,0.00519761,-0.00167025,-0.00243049,0.00597072,-0.00244336,-0.307967,0.00499814,0.0203859,601,876,-2.14806,-0.948527
-616,148,-2.18781,0.897095,0.00363043,-0.000989123,-0.00143614,0.0040405,-0.00139919,-0.278135,0.00326169,0.0117529,608,876,-2.18783,-0.897099
-609,148,-2.19391,0.858032,0.00227909,-0.000345657,-0.000662349,0.00243677,-0.000503328,-0.233698,0.00181569,0.0107397,615,876,-2.19388,-0.858052
-602,148,-2.20386,0.828003,0.000469726,-0.000118481,0.000357681,0.000638691,-0.000287447,0.441318,0.000547374,0.0103822,622,876,-2.20385,-0.827999
-595,148,-2.20844,0.787781,-0.00122704,-5.15536e-05,0.00113357,0.000637589,-0.00191618,1.02456,0.00153478,0.00885574,629,876,-2.20842,-0.787808
-588,148,-2.21985,0.726685,-0.00287004,-0.000405209,0.00172783,0.000484697,-0.00375994,1.09519,0.00268283,0.0118246,636,876,-2.21987,-0.726701
-581,148,-2.24243,0.682617,-0.00456079,-0.000855848,0.002159,0.000136489,-0.00555313,1.13996,0.00374841,0.0158496,643,876,-2.24246,-0.682628
-574,148,-2.20911,0.620667,-0.00594097,-0.00116963,0.00248394,-0.000111267,-0.00699934,1.16801,0.00462958,0.0207596,650,876,-2.20912,-0.620641
-567,148,-2.20966,0.577454,-0.00677056,-0.00130711,0.00268226,-0.000210407,-0.00786727,1.18267,0.00517613,0.0258662,657,876,-2.20963,-0.577466
-560,148,-2.20471,0.575562,-0.00718123,-0.00144689,0.00274688,-0.000343417,-0.0082847,1.18881,0.00541229,0.0261756,664,876,-2.20471,-0.575545
-553,148,-2.49457,0.68634,-0.00737813,-0.00136867,0.00263759,-0.00037524,-0.00837156,1.21059,0.00546026,0.0326675,671,876,-2.49457,-0.68633
-546,148,-2.83508,0.898315,0,0,0,0,0,0,0,-1,678,876,-2.8351,-0.898343
-539,148,-2.88153,0.788208,-0.00634077,-0.0011778,0.0017545,-0.000638009,-0.00688056,1.27233,0.00438985,0.0361063,685,876,-2.88155,-0.788189
-532,148,-2.85596,0.856201,-0.00478008,-0.000919063,0.000868613,-0.000732651,-0.00496649,1.35939,0.00309581,0.0356659,692,876,-2.85595,-0.856221
-525,148,-2.88025,0.930115,-0.00238897,-0.000596798,-0.000381179,-0.000519093,-0.00246667,-1.3697,0.00150163,0.0385085,699,876,-2.88026,-0.930109
-518,148,-2.97437,0.946777,0.000946653,-0.00027446,-0.00200794,0.00243481,-0.00176262,-0.637804,0.00243372,0.0437146,706,876,-2.97433,-0.946778
-511,148,-2.72546,0.644531,0.00516496,-7.1299e-05,-0.00395729,0.0072918,-0.00219814,-0.493156,0.00573607,0.0405397,713,876,-2.72545,-0.644549
-504,148,-2.65338,0.547852,0.00973173,-0.000294807,-0.00605825,0.012582,-0.00314508,-0.439752,0.00960948,0.0423418,720,876,-2.65338,-0.547877
-497,148,0,0,0,0,0,0,0,0,0,-1,727,876,0,0
-490,148,0,0,0,0,0,0,0,0,0,-1,734,876,0,0
-483,148,0,0,0,0,0,0,0,0,0,-1,741,876,0,0
-476,148,0,0,0,0,0,0,0,0,0,-1,748,876,0,0
-469,148,0,0,0,0,0,0,0,0,0,-1,755,876,0,0
-462,148,0,0,0,0,0,0,0,0,0,-1,762,876,0,0
-455,148,0,0,0,0,0,0,0,0,0,-1,769,876,0,0
-448,148,0,0,0,0,0,0,0,0,0,-1,776,876,0,0
-441,148,0,0,0,0,0,0,0,0,0,-1,783,876,0,0
-434,148,0,0,0,0,0,0,0,0,0,-1,790,876,0,0
-427,148,0,0,0,0,0,0,0,0,0,-1,797,876,0,0
-420,148,0,0,0,0,0,0,0,0,0,-1,804,876,0,0
-413,148,0,0,0,0,0,0,0,0,0,-1,811,876,0,0
-406,148,0,0,0,0,0,0,0,0,0,-1,818,876,0,0
-399,148,0,0,0,0,0,0,0,0,0,-1,825,876,0,0
-392,148,0,0,0,0,0,0,0,0,0,-1,832,876,0,0
-385,148,0,0,0,0,0,0,0,0,0,-1,839,876,0,0
-378,148,0,0,0,0,0,0,0,0,0,-1,846,876,0,0
-371,148,0,0,0,0,0,0,0,0,0,-1,853,876,0,0
-364,148,0,0,0,0,0,0,0,0,0,-1,860,876,0,0
-357,148,0,0,0,0,0,0,0,0,0,-1,867,876,0,0
-350,148,0,0,0,0,0,0,0,0,0,-1,874,876,0,0
-343,148,0,0,0,0,0,0,0,0,0,-1,881,876,0,0
-336,148,0,0,0,0,0,0,0,0,0,-1,888,876,0,0
-329,148,0,0,0,0,0,0,0,0,0,-1,895,876,0,0
-322,148,0,0,0,0,0,0,0,0,0,-1,902,876,0,0
-315,148,0,0,0,0,0,0,0,0,0,-1,909,876,0,0
-308,148,0,0,0,0,0,0,0,0,0,-1,916,876,0,0
-301,148,0,0,0,0,0,0,0,0,0,-1,923,876,0,0
-294,148,0,0,0,0,0,0,0,0,0,-1,930,876,0,0
-287,148,0,0,0,0,0,0,0,0,0,-1,937,876,0,0
-280,148,0,0,0,0,0,0,0,0,0,-1,944,876,0,0
-273,148,0,0,0,0,0,0,0,0,0,-1,951,876,0,0
-266,148,0,0,0,0,0,0,0,0,0,-1,958,876,0,0
-259,148,0,0,0,0,0,0,0,0,0,-1,965,876,0,0
-252,148,0,0,0,0,0,0,0,0,0,-1,972,876,0,0
-245,148,0,0,0,0,0,0,0,0,0,-1,979,876,0,0
-238,148,0,0,0,0,0,0,0,0,0,-1,986,876,0,0
-231,148,0,0,0,0,0,0,0,0,0,-1,993,876,0,0
-224,148,0,0,0,0,0,0,0,0,0,-1,1000,876,0,0
-217,148,0,0,0,0,0,0,0,0,0,-1,1007,876,0,0
-210,148,0,0,0,0,0,0,0,0,0,-1,1014,876,0,0
-203,148,0,0,0,0,0,0,0,0,0,-1,1021,876,0,0
-196,148,0,0,0,0,0,0,0,0,0,-1,1028,876,0,0
-189,148,0,0,0,0,0,0,0,0,0,-1,1035,876,0,0
-182,148,0,0,0,0,0,0,0,0,0,-1,1042,876,0,0
-175,148,0,0,0,0,0,0,0,0,0,-1,1049,876,0,0
-168,148,0,0,0,0,0,0,0,0,0,-1,1056,876,0,0
-161,148,0,0,0,0,0,0,0,0,0,-1,1063,876,0,0
-154,148,0,0,0,0,0,0,0,0,0,-1,1070,876,0,0
-147,148,0,0,0,0,0,0,0,0,0,-1,1077,876,0,0
-140,148,0,0,0,0,0,0,0,0,0,-1,1084,876,0,0
-133,148,0,0,0,0,0,0,0,0,0,-1,1091,876,0,0
-126,148,0,0,0,0,0,0,0,0,0,-1,1098,876,0,0
-119,148,0,0,0,0,0,0,0,0,0,-1,1105,876,0,0
-112,148,0,0,0,0,0,0,0,0,0,-1,1112,876,0,0
-105,148,0,0,0,0,0,0,0,0,0,-1,1119,876,0,0
-98,148,0,0,0,0,0,0,0,0,0,-1,1126,876,0,0
-91,148,0,0,0,0,0,0,0,0,0,-1,1133,876,0,0
-84,148,0,0,0,0,0,0,0,0,0,-1,1140,876,0,0
-77,148,0,0,0,0,0,0,0,0,0,-1,1147,876,0,0
-70,148,0,0,0,0,0,0,0,0,0,-1,1154,876,0,0
-63,148,0,0,0,0,0,0,0,0,0,-1,1161,876,0,0
-56,148,0,0,0,0,0,0,0,0,0,-1,1168,876,0,0
-49,148,0,0,0,0,0,0,0,0,0,-1,1175,876,0,0
-42,148,0,0,0,0,0,0,0,0,0,-1,1182,876,0,0
-35,148,0,0,0,0,0,0,0,0,0,-1,1189,876,0,0
-28,148,0,0,0,0,0,0,0,0,0,-1,1196,876,0,0
-21,148,0,0,0,0,0,0,0,0,0,-1,1203,876,0,0
-14,148,0,0,0,0,0,0,0,0,0,-1,1210,876,0,0
-7,148,0,0,0,0,0,0,0,0,0,-1,1217,876,0,0
0,148,0,0,0,0,0,0,0,0,0,-1,1224,876,0,0
7,148,0,0,0,0,0,0,0,0,0,-1,1231,876,0,0
14,148,0,0,0,0,0,0,0,0,0,-1,1238,876,0,0
21,148,0,0,0,0,0,0,0,0,0,-1,1245,876,0,0
28,148,0,0,0,0,0,0,0,0,0,-1,1252,876,0,0
35,148,0,0,0,0,0,0,0,0,0,-1,1259,876,0,0
42,148,0,0,0,0,0,0,0,0,0,-1,1266,876,0,0
49,148,0,0,0,0,0,0,0,0,0,-1,1273,876,0,0
56,148,0,0,0,0,0,0,0,0,0,-1,1280,876,0,0
63,148,0,0,0,0,0,0,0,0,0,-1,1287,876,0,0
70,148,0,0,0,0,0,0,0,0,0,-1,1294,876,0,0
77,148,0,0,0,0,0,0,0,0,0,-1,1301,876,0,0
84,148,0,0,0,0,0,0,0,0,0,-1,1308,876,0,0
91,148,0,0,0,0,0,0,0,0,0,-1,1315,876,0,0
98,148,0,0,0,0,0,0,0,0,0,-1,1322,876,0,0
105,148,0,0,0,0,0,0,0,0,0,-1,1329,876,0,0
112,148,0,0,0,0,0,0,0,0,0,-1,1336,876,0,0
119,148,0,0,0,0,0,0,0,0,0,-1,1343,876,0,0
126,148,0,0,0,0,0,0,0,0,0,-1,1350,876,0,0
133,148,0,0,0,0,0,0,0,0,0,-1,1357,876,0,0
140,148,0,0,0,0,0,0,0,0,0,-1,1364,876,0,0
147,148,0,0,0,0,0,0,0,0,0,-1,1371,876,0,0
154,148,0,0,0,0,0,0,0,0,0,-1,1378,876,0,0
161,148,0,0,0,0,0,0,0,0,0,-1,1385,876,0,0
168,148,0,0,0,0,0,0,0,0,0,-1,1392,876,0,0
175,148,0,0,0,0,0,0,0,0,0,-1,1399,876,0,0
182,148,0,0,0,0,0,0,0,0,0,-1,1406,876,0,0
189,148,0,0,0,0,0,0,0,0,0,-1,1413,876,0,0
196,148,0,0,0,0,0,0,0,0,0,-1,1420,876,0,0
203,148,0,0,0,0,0,0,0,0,0,-1,1427,876,0,0
210,148,0,0,0,0,0,0,0,0,0,-1,1434,876,0,0
217,148,0,0,0,0,0,0,0,0,0,-1,1441,876,0,0
224,148,0,0,0,0,0,0,0,0,0,-1,1448,876,0,0
231,148,0,0,0,0,0,0,0,0,0,-1,1455,876,0,0
238,148,0,0,0,0,0,0,0,0,0,-1,1462,876,0,0
245,148,0,0,0,0,0,0,0,0,0,-1,1469,876,0,0
252,148,0,0,0,0,0,0,0,0,0,-1,1476,876,0,0
259,148,0,0,0,0,0,0,0,0,0,-1,1483,876,0,0
266,148,0,0,0,0,0,0,0,0,0,-1,1490,876,0,0
273,148,0,0,0,0,0,0,0,0,0,-1,1497,876,0,0
280,148,0,0,0,0,0,0,0,0,0,-1,1504,876,0,0
287,148,0,0,0,0,0,0,0,0,0,-1,1511,876,0,0
294,148,0,0,0,0,0,0,0,0,0,-1,1518,876,0,0
301,148,0,0,0,0,0,0,0,0,0,-1,1525,876,0,0
308,148,0,0,0,0,0,0,0,0,0,-1,1532,876,0,0
315,148,0,0,0,0,0,0,0,0,0,-1,1539,876,0,0
322,148,0,0,0,0,0,0,0,0,0,-1,1546,876,0,0
329,148,0,0,0,0,0,0,0,0,0,-1,1553,876,0,0
336,148,0,0,0,0,0,0,0,0,0,-1,1560,876,0,0
343,148,0,0,0,0,0,0,0,0,0,-1,1567,876,0,0
350,148,0,0,0,0,0,0,0,0,0,-1,1574,876,0,0
357,148,0,0,0,0,0,0,0,0,0,-1,1581,876,0,0
364,148,0,0,0,0,0,0,0,0,0,-1,1588,876,0,0
371,148,0,0,0,0,0,0,0,0,0,-1,1595,876,0,0
378,148,0,0,0,0,0,0,0,0,0,-1,1602,876,0,0
385,148,0,0,0,0,0,0,0,0,0,-1,1609,876,0,0
392,148,0,0,0,0,0,0,0,0,0,-1,1616,876,0,0
399,148,0,0,0,0,0,0,0,0,0,-1,1623,876,0,0
406,148,0,0,0,0,0,0,0,0,0,-1,1630,876,0,0
413,148,0,0,0,0,0,0,0,0,0,-1,1637,876,0,0
420,148,0,0,0,0,0,0,0,0,0,-1,1644,876,0,0
427,148,0,0,0,0,0,0,0,0,0,-1,1651,876,0,0
434,148,0,0,0,0,0,0,0,0,0,-1,1658,876,0,0
441,148,0,0,0,0,0,0,0,0,0,-1,1665,876,0,0
448,148,0,0,0,0,0,0,0,0,0,-1,1672,876,0,0
455,148,0,0,0,0,0,0,0,0,0,-1,1679,876,0,0
462,148,0,0,0,0,0,0,0,0,0,-1,1686,876,0,0
469,148,0,0,0,0,0,0,0,0,0,-1,1693,876,0,0
476,148,0,0,0,0,0,0,0,0,0,-1,1700,876,0,0
483,148,0,0,0,0,0,0,0,0,0,-1,1707,876,0,0
490,148,0,0,0,0,0,0,0,0,0,-1,1714,876,0,0
497,148,0,0,0,0,0,0,0,0,0,-1,1721,876,0,0
504,148,0,0,0,0,0,0,0,0,0,-1,1728,876,0,0
511,148,0,0,0,0,0,0,0,0,0,-1,1735,876,0,0
518,148,0,0,0,0,0,0,0,0,0,-1,1742,876,0,0
525,148,0,0,0,0,0,0,0,0,0,-1,1749,876,0,0
532,148,0,0,0,0,0,0,0,0,0,-1,1756,876,0,0
539,148,0,0,0,0,0,0,0,0,0,-1,1763,876,0,0
546,148,0,0,0,0,0,0,0,0,0,-1,1770,876,0,0
553,148,0,0,0,0,0,0,0,0,0,-1,1777,876,0,0
560,148,0,0,0,0,0,0,0,0,0,-1,1784,876,0,0
567,148,0,0,0,0,0,0,0,0,0,-1,1791,876,0,0
574,148,0,0,0,0,0,0,0,0,0,-1,1798,876,0,0
581,148,0,0,0,0,0,0,0,0,0,-1,1805,876,0,0
588,148,0,0,0,0,0,0,0,0,0,-1,1812,876,0,0
595,148,0,0,0,0,0,0,0,0,0,-1,1819,876,0,0
602,148,0,0,0,0,0,0,0,0,0,-1,1826,876,0,0
609,148,0,0,0,0,0,0,0,0,0,-1,1833,876,0,0
616,148,0,0,0,0,0,0,0,0,0,-1,1840,876,0,0
623,148,7.36804,0.923889,0.00401886,-0.000898892,0.00312023,0.00553263,-0.00241266,0.451695,0.00470363,0.0415608,1847,876,7.36799,-0.923906
630,148,7.13782,1.01306,0.00255548,-0.00018547,0.00238233,0.0039334,-0.00156339,0.524381,0.00327043,0.0452261,1854,876,7.13781,-1.01308
637,148,7.1582,1.03711,0.000534202,0.000233146,0.00155499,0.00194594,-0.00117859,0.737147,0.00182199,0.0409328,1861,876,7.15825,-1.03709
644,148,7.23254,1.01788,-0.00183649,0.000403598,0.000646766,0.000576924,-0.00200981,1.30896,0.00156797,0.036881,1868,876,7.23254,-1.0179
651,148,7.27136,0.968811,-0.00405853,0.000415563,-0.000219807,0.000426336,-0.00406931,-1.52182,0.00286557,0.0378103,1875,876,7.27135,-0.9688
658,148,7.25183,1.0249,-0.00584047,0.000351997,-0.000959879,0.000497373,-0.00598585,-1.42049,0.00416626,0.034718,1882,876,7.25182,-1.02492
665,148,7.18018,1.15851,-0.00717025,0.000246368,-0.00155737,0.000560117,-0.007484,-1.372,0.00518613,0.0240895,1889,876,7.1802,-1.15848
672,148,7.17407,1.06921,-0.00807974,7.32718e-05,-0.00202922,0.000550404,-0.00855687,-1.33986,0.00589662,0.0252854,1896,876,7.17408,-1.06922
679,148,7.20349,0.952332,-0.00842043,-0.000140645,-0.002286,0.000448578,-0.00900965,-1.31854,0.0061614,0.0319343,1903,876,7.20351,-0.952314
686,148,6.78247,1.02948,-0.00841983,-0.000253119,-0.00239885,0.000399378,-0.00907233,-1.30522,0.00618565,0.0269949,1910,876,6.78241,-1.0295
693,148,6.52991,0.961121,-0.00797585,-0.000314634,-0.00232848,0.000337545,-0.00862803,-1.29771,0.00586777,0.0197641,1917,876,6.52988,-0.96112
700,148,6.52551,0.970154,-0.00710477,-0.000373699,-0.00215642,0.000257887,-0.00773636,-1.28588,0.00524565,0.0129777,1924,876,6.52546,-0.970126
707,148,6.5542,1.04047,-0.00596987,-0.000376798,-0.00201769,0.000275096,-0.00662176,-1.25829,0.00450901,0.01133,1931,876,6.55417,-1.04048
714,148,6.54517,1.05481,-0.00455936,-0.000487973,-0.00184877,0.000226242,-0.00527357,-1.20214,0.00359351,0.0111063,1938,876,6.54512,-1.05478
721,148,6.51013,1.08002,-0.00292405,4.67549e-05,-0.00148217,0.000659743,-0.00353704,-1.17864,0.00260593,0.0151362,1945,876,6.51012,-1.07999
728,148,6.51892,1.14636,-0.00101258,0.00119196,-0.00107635,0.00163031,-0.00145093,-1.18405,0.00177996,0.0181395,1952,876,6.51894,-1.14636
735,148,6.53845,1.1969,0.00104606,0.000814597,-0.000597965,0.00153939,0.000321266,-0.68981,0.000937698,0.0175165,1959,876,6.53843,-1.19692
742,148,6.52551,1.25702,0.00322254,0.00216385,-0.000353149,0.00332953,0.00205686,-0.294165,0.00194,0.0191438,1966,876,6.52555,-1.25699
749,148,6.53076,1.28802,0.00517653,0.00332293,-0.000204878,0.00519891,0.00330056,-0.10878,0.00303776,0.0151296,1973,876,6.53071,-1.28801
756,148,6.55933,1.2865,0.00726973,0.00462142,-8.91119e-05,0.00727273,0.00461842,-0.0335979,0.00424965,0.019019,1980,876,6.55928,-1.28647
763,148,6.76074,1.224,0.00970908,0.00619968,3.63413e-06,0.00970908,0.00619967,0.00103554,0.00567682,0.0406615,1987,876,6.76075,-1.22403
770,148,6.48706,0.373535,0.0126325,0.00807729,0.000100375,0.0126347,0.00807508,0.0220212,0.00738817,0.0449243,1994,876,6.48707,-0.373522
777,148,6.64636,0.516846,0.0160577,0.0102576,0.000178083,0.0160632,0.0102521,0.0306646,0.00939148,0.0453848,2001,876,6.64637,-0.516842
784,148,6.64685,1.11871,0.0199237,0.0127578,0.000125684,0.0199259,0.0127556,0.0175319,0.0116539,0.0485382,2008,876,6.64683,-1.11872
791,148,7.05933,4.76556,0,0,0,0,0,0,0,-1,2015,876,7.0593,-4.76556
798,148,0,0,0,0,0,0,0,0,0,-1,2022,876,0,0
805,148,0,0,0,0,0,0,0,0,0,-1,2029,876,0,0
812,148,0,0,0,0,0,0,0,0,0,-1,2036,876,0,0
-700,141,0,0,0,0,0,0,0,0,0,-1,524,883,0,0
-693,141,0,0,0,0,0,0,0,0,0,-1,531,883,0,0
-686,141,0,0,0,0,0,0,0,0,0,-1,538,883,0,0
-679,141,0,0,0,0,0,0,0,0,0,-1,545,883,0,0
-672,141,-0.337891,1.37195,0,0,0,0,0,0,0,-1,552,883,-0.337877,-1.37193
-665,141,-3.5462,1.54266,0,0,0,0,0,0,0,-1,559,883,-3.54623,-1.54268
-658,141,-2.97174,1.14642,0.0167333,-0.00827737,-0.0107124,0.0206943,-0.0122383,-0.354165,0.0192214,0.0462465,566,883,-2.97174,-1.14643
-651,141,-2.65546,0.580872,0.014221,-0.00770192,-0.00875113,0.0172857,-0.0107667,-0.336869,0.0163412,0.0433278,573,883,-2.65547,-0.580896
-644,141,-2.55078,0.335876,0,0,0,0,0,0,0,-1,580,883,-2.55075,-0.335856
-637,141,-2.27887,0.754211,0,0,0,0,0,0,0,-1,587,883,-2.2789,-0.754225
-630,141,-2.23163,0.826782,0.00700225,-0.00369327,-0.00346941,0.00802907,-0.00472009,-0.287751,0.00744291,0.0369516,594,883,-2.23162,-0.826812
-623,141,-2.20782,0.905457,0.00503524,-0.00279882,-0.00223178,0.00562642,-0.00339,-0.258945,0.00525874,0.0187528,601,883,-2.20784,-0.905462
-616,141,-2.22772,0.887024,0.00333304,-0.00182283,-0.00126006,0.00362451,-0.0021143,-0.227318,0.00335133,0.0107257,608,883,-2.22771,-0.88705
-609,141,-2.23529,0.856445,0.00185282,-0.000951542,-0.000478455,0.0019322,-0.00103092,-0.164417,0.00173694,0.0119479,615,883,-2.23526,-0.856435
-602,141,-2.24988,0.824219,-4.85639e-05,-0.000513485,0.00053154,0.000299125,-0.000861173,0.579263,0.000695603,0.0107177,622,883,-2.2499,-0.824249
-595,141,-2.25903,0.788452,-0.00173261,-0.000282264,0.00123307,0.000423068,-0.00243794,1.05121,0.00178312,0.0095363,629,883,-2.25903,-0.788441
-588,141,-2.29364,0.726013,-0.00328039,-0.000544208,0.00178844,0.00033941,-0.00416401,1.1119,0.00289578,0.0126312,636,883,-2.29366,-0.726029
-581,141,-2.28912,0.688965,-0.00486349,-0.000880343,0.00217531,7.73794e-05,-0.00582121,1.15606,0.00390685,0.0173932,643,883,-2.28912,-0.68896
-574,141,-2.22528,0.669678,-0.00617617,-0.00116133,0.00242153,-0.000182927,-0.00715457,1.18681,0.00470993,0.0209221,650,883,-2.22527,-0.669653
-567,141,-2.23413,0.641357,-0.00690969,-0.00129197,0.00254348,-0.000311506,-0.00789015,1.20287,0.0051594,0.0252805,657,883,-2.23412,-0.641362
-560,141,-2.30939,0.604492,-0.0071956,-0.00148007,0.0025597,-0.000501318,-0.00817435,1.20558,0.00529039,0.0281786,664,883,-2.30938,-0.604463
-553,141,-2.61719,0.696594,-0.00725094,-0.00145411,0.00239843,-0.000590442,-0.00811461,1.22515,0.00522406,0.0368242,671,883,-2.61722,-0.696604
-546,141,-2.8811,0.851379,-0.00688423,-0.00143908,0.00207487,-0.000738575,-0.00758474,1.2452,0.00482917,0.0334961,678,883,-2.88111,-0.851373
-539,141,-2.8446,0.81604,-0.00583552,-0.00134596,0.00139899,-0.000945707,-0.00623578,1.29214,0.00388055,0.0294933,685,883,-2.84459,-0.816048
-532,141,-2.86084,0.792542,-0.00402592,-0.00118556,0.000461576,-0.00111243,-0.00409905,1.41367,0.00244766,0.0293008,692,883,-2.86084,-0.792532
-525,141,-2.86188,0.781006,-0.00134441,-0.00101731,-0.000808015,-0.00035646,-0.00200526,-0.885256,0.00123529,0.036918,699,883,-2.86187,-0.781027
-518,141,-2.96423,0.826355,0.00232919,-0.000925574,-0.00239705,0.00359909,-0.00219547,-0.487182,0.00337805,0.0418837,706,883,-2.96425,-0.826344
-511,141,-2.9234,0.740356,0.00684248,-0.00106754,-0.00417667,0.00863957,-0.00286463,-0.406325,0.00691528,0.0398792,713,883,-2.9234,-0.740327
-504,141,-2.75159,0.638123,0.011459,-0.00183193,-0.00587634,0.0136844,-0.00405741,-0.362027,0.0107342,0.0414764,720,883,-2.75156,-0.638097
-497,141,0,0,0,0,0,0,0,0,0,-1,727,883,0,0
-490,141,0,0,0,0,0,0,0,0,0,-1,734,883,0,0
-483,141,0,0,0,0,0,0,0,0,0,-1,741,883,0,0
-476,141,0,0,0,0,0,0,0,0,0,-1,748,883,0,0
-469,141,0,0,0,0,0,0,0,0,0,-1,755,883,0,0
-462,141,0,0,0,0,0,0,0,0,0,-1,762,883,0,0
-455,141,0,0,0,0,0,0,0,0,0,-1,769,883,0,0
-448,141,0,0,0,0,0,0,0,0,0,-1,776,883,0,0
-441,141,0,0,0,0,0,0,0,0,0,-1,783,883,0,0
-434,141,0,0,0,0,0,0,0,0,0,-1,790,883,0,0
-427,141,0,0,0,0,0,0,0,0,0,-1,797,883,0,0
-420,141,0,0,0,0,0,0,0,0,0,-1,804,883,0,0
-413,141,0,0,0,0,0,0,0,0,0,-1,811,883,0,0
-406,141,0,0,0,0,0,0,0,0,0,-1,818,883,0,0
-399,141,0,0,0,0,0,0,0,0,0,-1,825,883,0,0
-392,141,0,0,0,0,0,0,0,0,0,-1,832,883,0,0
-385,141,0,0,0,0,0,0,0,0,0,-1,839,883,0,0
-378,141,0,0,0,0,0,0,0,0,0,-1,846,883,0,0
-371,141,0,0,0,0,0,0,0,0,0,-1,853,883,0,0
-364,141,0,0,0,0,0,0,0,0,0,-1,860,883,0,0
-357,141,0,0,0,0,0,0,0,0,0,-1,867,883,0,0
-350,141,0,0,0,0,0,0,0,0,0,-1,874,883,0,0
-343,141,0,0,0,0,0,0,0,0,0,-1,881,883,0,0
-336,141,0,0,0,0,0,0,0,0,0,-1,888,883,0,0
-329,141,0,0,0,0,0,0,0,0,0,-1,895,883,0,0
-322,141,0,0,0,0,0,0,0,0,0,-1,902,883,0,0
-315,141,0,0,0,0,0,0,0,0,0,-1,909,883,0,0
-308,141,0,0,0,0,0,0,0,0,0,-1,916,883,0,0
-301,141,0,0,0,0,0,0,0,0,0,-1,923,883,0,0
-294,141,0,0,0,0,0,0,0,0,0,-1,930,883,0,0
-287,141,0,0,0,0,0,0,0,0,0,-1,937,883,0,0
-280,141,0,0,0,0,0,0,0,0,0,-1,944,883,0,0
-273,141,0,0,0,0,0,0,0,0,0,-1,951,883,0,0
-266,141,0,0,0,0,0,0,0,0,0,-1,958,883,0,0
-259,141,0,0,0,0,0,0,0,0,0,-1,965,883,0,0
-252,141,0,0,0,0,0,0,0,0,0,-1,972,883,0,0
-245,141,0,0,0,0,0,0,0,0,0,-1,979,883,0,0
-238,141,0,0,0,0,0,0,0,0,0,-1,986,883,0,0
-231,141,0,0,0,0,0,0,0,0,0,-1,993,883,0,0
-224,141,0,0,0,0,0,0,0,0,0,-1,1000,883,0,0
-217,141,0,0,0,0,0,0,0,0,0,-1,1007,883,0,0
-210,141,0,0,0,0,0,0,0,0,0,-1,1014,883,0,0
-203,141,0,0,0,0,0,0,0,0,0,-1,1021,883,0,0
-196,141,0,0,0,0,0,0,0,0,0,-1,1028,883,0,0
-189,141,0,0,0,0,0,0,0,0,0,-1,1035,883,0,0
-182,141,0,0,0,0,0,0,0,0,0,-1,1042,883,0,0
-175,141,0,0,0,0,0,0,0,0,0,-1,1049,883,0,0
-168,141,0,0,0,0,0,0,0,0,0,-1,1056,883,0,0
-161,141,0,0,0,0,0,0,0,0,0,-1,1063,883,0,0
-154,141,0,0,0,0,0,0,0,0,0,-1,1070,883,0,0
-147,141,0,0,0,0,0,0,0,0,0,-1,1077,883,0,0
-140,141,0,0,0,0,0,0,0,0,0,-1,1084,883,0,0
-133,141,0,0,0,0,0,0,0,0,0,-1,1091,883,0,0
-126,141,0,0,0,0,0,0,0,0,0,-1,1098,883,0,0
-119,141,0,0,0,0,0,0,0,0,0,-1,1105,883,0,0
-112,141,0,0,0,0,0,0,0,0,0,-1,1112,883,0,0
-105,141,0,0,0,0,0,0,0,0,0,-1,1119,883,0,0
-98,141,0,0,0,0,0,0,0,0,0,-1,1126,883,0,0
-91,141,0,0,0,0,0,0,0,0,0,-1,1133,883,0,0
-84,141,0,0,0,0,0,0,0,0,0,-1,1140,883,0,0
-77,141,0,0,0,0,0,0,0,0,0,-1,1147,883,0,0
-70,141,0,0,0,0,0,0,0,0,0,-1,1154,883,0,0
-63,141,0,0,0,0,0,0,0,0,0,-1,1161,883,0,0
-56,141,0,0,0,0,0,0,0,0,0,-1,1168,883,0,0
-49,141,0,0,0,0,0,0,0,0,0,-1,1175,883,0,0
-42,141,0,0,0,0,0,0,0,0,0,-1,1182,883,0,0
-35,141,0,0,0,0,0,0,0,0,0,-1,1189,883,0,0
-28,141,0,0,0,0,0,0,0,0,0,-1,1196,883,0,0
-21,141,0,0,0,0,0,0,0,0,0,-1,1203,883,0,0
-14,141,0,0,0,0,0,0,0,0,0,-1,1210,883,0,0
-7,141,0,0,0,0,0,0,0,0,0,-1,1217,883,0,0
0,141,0,0,0,0,0,0,0,0,0,-1,1224,883,0,0
7,141,0,0,0,0,0,0,0,0,0,-1,1231,883,0,0
14,141,0,0,0,0,0,0,0,0,0,-1,1238,883,0,0
21,141,0,0,0,0,0,0,0,0,0,-1,1245,883,0,0
28,141,0,0,0,0,0,0,0,0,0,-1,1252,883,0,0
35,141,0,0,0,0,0,0,0,0,0,-1,1259,883,0,0
42,141,0,0,0,0,0,0,0,0,0,-1,1266,883,0,0
49,141,0,0,0,0,0,0,0,0,0,-1,1273,883,0,0
56,141,0,0,0,0,0,0,0,0,0,-1,1280,883,0,0
63,141,0,0,0,0,0,0,0,0,0,-1,1287,883,0,0
70,141,0,0,0,0,0,0,0,0,0,-1,1294,883,0,0
77,141,0,0,0,0,0,0,0,0,0,-1,1301,883,0,0
84,141,0,0,0,0,0,0,0,0,0,-1,1308,883,0,0
91,141,0,0,0,0,0,0,0,0,0,-1,1315,883,0,0
98,141,0,0,0,0,0,0,0,0,0,-1,1322,883,0,0
105,141,0,0,0,0,0,0,0,0,0,-1,1329,883,0,0
112,141,0,0,0,0,0,0,0,0,0,-1,1336,883,0,0
119,141,0,0,0,0,0,0,0,0,0,-1,1343,883,0,0
126,141,0,0,0,0,0,0,0,0,0,-1,1350,883,0,0
133,141,0,0,0,0,0,0,0,0,0,-1,1357,883,0,0
140,141,0,0,0,0,0,0,0,0,0,-1,1364,883,0,0
147,141,0,0,0,0,0,0,0,0,0,-1,1371,883,0,0
154,141,0,0,0,0,0,0,0,0,0,-1,1378,883,0,0
161,141,0,0,0,0,0,0,0,0,0,-1,1385,883,0,0
168,141,0,0,0,0,0,0,0,0,0,-1,1392,883,0,0
175,141,0,0,0,0,0,0,0,0,0,-1,1399,883,0,0
182,141,0,0,0,0,0,0,0,0,0,-1,1406,883,0,0
189,141,0,0,0,0,0,0,0,0,0,-1,1413,883,0,0
196,141,0,0,0,0,0,0,0,0,0,-1,1420,883,0,0
203,141,0,0,0,0,0,0,0,0,0,-1,1427,883,0,0
210,141,0,0,0,0,0,0,0,0,0,-1,1434,883,0,0
217,141,0,0,0,0,0,0,0,0,0,-1,1441,883,0,0
224,141,0,0,0,0,0,0,0,0,0,-1,1448,883,0,0
231,141,0,0,0,0,0,0,0,0,0,-1,1455,883,0,0
238,141,0,0,0,0,0,0,0,0,0,-1,1462,883,0,0
245,141,0,0,0,0,0,0,0,0,0,-1,1469,883,0,0
252,141,0,0,0,0,0,0,0,0,0,-1,1476,883,0,0
259,141,0,0,0,0,0,0,0,0,0,-1,1483,883,0,0
266,141,0,0,0,0,0,0,0,0,0,-1,1490,883,0,0
273,141,0,0,0,0,0,0,0,0,0,-1,1497,883,0,0
280,141,0,0,0,0,0,0,0,0,0,-1,1504,883,0,0
287,141,0,0,0,0,0,0,0,0,0,-1,1511,883,0,0
294,141,0,0,0,0,0,0,0,0,0,-1,1518,883,0,0
301,141,0,0,0,0,0,0,0,0,0,-1,1525,883,0,0
308,141,0,0,0,0,0,0,0,0,0,-1,1532,883,0,0
315,141,0,0,0,0,0,0,0,0,0,-1,1539,883,0,0
322,141,0,0,0,0,0,0,0,0,0,-1,1546,883,0,0
329,141,0,0,0,0,0,0,0,0,0,-1,1553,883,0,0
336,141,0,0,0,0,0,0,0,0,0,-1,1560,883,0,0
343,141,0,0,0,0,0,0,0,0,0,-1,1567,883,0,0
350,141,0,0,0,0,0,0,0,0,0,-1,1574,883,0,0
357,141,0,0,0,0,0,0,0,0,0,-1,1581,883,0,0
364,141,0,0,0,0,0,0,0,0,0,-1,1588,883,0,0
371,141,0,0,0,0,0,0,0,0,0,-1,1595,883,0,0
378,141,0,0,0,0,0,0,0,0,0,-1,1602,883,0,0
385,141,0,0,0,0,0,0,0,0,0,-1,1609,883,0,0
392,141,0,0,0,0,0,0,0,0,0,-1,1616,883,0,0
399,141,0,0,0,0,0,0,0,0,0,-1,1623,883,0,0
406,141,0,0,0,0,0,0,0,0,0,-1,1630,883,0,0
413,141,0,0,0,0,0,0,0,0,0,-1,1637,883,0,0
420,141,0,0,0,0,0,0,0,0,0,-1,1644,883,0,0
427,141,0,0,0,0,0,0,0,0,0,-1,1651,883,0,0
434,141,0,0,0,0,0,0,0,0,0,-1,1658,883,0,0
441,141,0,0,0,0,0,0,0,0,0,-1,1665,883,0,0
448,141,0,0,0,0,0,0,0,0,0,-1,1672,883,0,0
455,141,0,0,0,0,0,0,0,0,0,-1,1679,883,0,0
462,141,0,0,0,0,0,0,0,0,0,-1,1686,883,0,0
469,141,0,0,0,0,0,0,0,0,0,-1,1693,883,0,0
476,141,0,0,0,0,0,0,0,0,0,-1,1700,883,0,0
483,141,0,0,0,0,0,0,0,0,0,-1,1707,883,0,0
490,141,0,0,0,0,0,0,0,0,0,-1,1714,883,0,0
497,141,0,0,0,0,0,0,0,0,0,-1,1721,883,0,0
504,141,0,0,0,0,0,0,0,0,0,-1,1728,883,0,0
511,141,0,0,0,0,0,0,0,0,0,-1,1735,883,0,0
518,141,0,0,0,0,0,0,0,0,0,-1,1742,883,0,0
525,141,0,0,0,0,0,0,0,0,0,-1,1749,883,0,0
532,141,0,0,0,0,0,0,0,0,0,-1,1756,883,0,0
539,141,0,0,0,0,0,0,0,0,0,-1,1763,883,0,0
546,141,0,0,0,0,0,0,0,0,0,-1,1770,883,0,0
553,141,0,0,0,0,0,0,0,0,0,-1,1777,883,0,0
560,141,0,0,0,0,0,0,0,0,0,-1,1784,883,0,0
567,141,0,0,0,0,0,0,0,0,0,-1,1791,883,0,0
574,141,0,0,0,0,0,0,0,0,0,-1,1798,883,0,0
581,141,0,0,0,0,0,0,0,0,0,-1,1805,883,0,0
588,141,0,0,0,0,0,0,0,0,0,-1,1812,883,0,0
595,141,0,0,0,0,0,0,0,0,0,-1,1819,883,0,0
602,141,0,0,0,0,0,0,0,0,0,-1,1826,883,0,0
609,141,0,0,0,0,0,0,0,0,0,-1,1833,883,0,0
616,141,0,0,0,0,0,0,0,0,0,-1,1840,883,0,0
623,141,7.2655,0.877991,0,0,0,0,0,0,0,-1,1847,883,7.26547,-0.878004
630,141,7.08728,1.1358,0.00327696,-0.000653161,0.00274479,0.00468759,-0.00206379,0.474731,0.00399483,0.0477698,1854,883,7.08725,-1.13577
637,141,7.16882,1.08954,0.00152227,-0.000164861,0.00193875,0.00279302,-0.00143562,0.580198,0.00248298,0.0439384,1861,883,7.16876,-1.08956
644,141,7.22937,0.88147,-0.000721753,8.01872e-05,0.00102316,0.000778142,-0.00141971,0.972147,0.00128682,0.0393538,1868,883,7.22936,-0.88148
651,141,7.27283,0.880676,-0.00297918,0.000153229,0.00011192,0.000157223,-0.00298317,1.53513,0.00204321,0.0387644,1875,883,7.27284,-0.880655
658,141,7.30908,0.996155,-0.00490148,0.000129859,-0.000689168,0.00022255,-0.00499417,-1.4371,0.00340605,0.0370965,1882,883,7.30914,-0.996164
665,141,7.21631,1.0943,-0.00638079,5.06369e-05,-0.00133534,0.000316868,-0.00664702,-1.374,0.00454066,0.0255108,1889,883,7.21632,-1.0943
672,141,7.16821,1.10522,-0.00743901,-8.57953e-05,-0.00184433,0.000350868,-0.00787568,-1.33832,0.00537123,0.0180767,1896,883,7.16816,-1.10521
679,141,7.11475,1.06311,-0.00794064,-0.000271111,-0.00214907,0.000290022,-0.00850177,-1.31539,0.00576695,0.0202279,1903,883,7.1148,-1.06313
686,141,6.96338,1.00482,-0.00810699,-0.000374407,-0.00230279,0.000259417,-0.00874081,-1.3022,0.00591558,0.0428591,1910,883,6.96336,-1.0048
693,141,6.61267,0.962769,-0.00786445,-0.000416479,-0.00226959,0.000220624,-0.00850156,-1.29713,0.00574266,0.0289519,1917,883,6.61267,-0.962788
700,141,6.56531,0.980042,-0.00715615,-0.000444016,-0.00214279,0.000181716,-0.00778188,-1.28668,0.00524954,0.0135823,1924,883,6.56527,-0.980039
707,141,6.57019,0.995605,-0.0061389,-0.000421554,-0.00203065,0.000226273,-0.00678673,-1.26198,0.00460176,0.0114177,1931,883,6.57014,-0.995633
714,141,6.56848,1.02606,-0.00484877,-0.000508549,-0.00186974,0.000185828,-0.00554315,-1.21521,0.00375891,0.0116779,1938,883,6.5685,-1.02608
721,141,6.58997,1.09406,-0.00332175,6.45637e-05,-0.00148767,0.000625277,-0.00388246,-1.21035,0.00281994,0.010857,1945,883,6.59,-1.09407
728,141,6.58838,1.12817,-0.00150267,0.00117136,-0.00105654,0.00153843,-0.00186973,-1.23642,0.0019708,0.0128003,1952,883,6.58842,-1.1282
735,141,6.55249,1.18073,0.000563939,0.000872687,-0.000514282,0.00125526,0.000181361,-0.931206,0.000783419,0.0131698,1959,883,6.55252,-1.18071
742,141,6.55164,1.24432,0.00280232,0.00234673,-0.00017347,0.00286085,0.0022882,-0.325415,0.00174791,0.014821,1966,883,6.55166,-1.24435
749,141,6.56555,1.28009,0.00481852,0.00361144,6.01263e-05,0.00482151,0.00360845,0.0496476,0.00289595,0.0131768,1973,883,6.5655,-1.28007
756,141,6.59009,1.32959,0.00694201,0.00503636,0.000291318,0.00698555,0.00499282,0.148358,0.00415524,0.0175744,1980,883,6.59006,-1.32961
763,141,6.82166,1.34601,0.00934862,0.00675782,0.000488635,0.00943772,0.00666872,0.180352,0.00560178,0.0381415,1987,883,6.82171,-1.346
770,141,7.04553,1.37714,0,0,0,0,0,0,0,-1,1994,883,7.04552,-1.37713
777,141,6.33984,4.86523,0,0,0,0,0,0,0,-1,2001,883,6.33981,-4.86522
784,141,6.68506,4.64557,0.0193186,0.0139482,0.000786186,0.0194313,0.0138355,0.142412,0.01155,0.0458678,2008,883,6.68509,-4.64558
791,141,7.14966,4.2085,0.0233391,0.0171692,0.000426051,0.0233684,0.0171399,0.0686189,0.0139734,0.0456789,2015,883,7.14966,-4.20851
798,141,0,0,0,0,0,0,0,0,0,-1,2022,883,0,0
805,141,0,0,0,0,0,0,0,0,0,-1,2029,883,0,0
812,141,0,0,0,0,0,0,0,0,0,-1,2036,883,0,0
-700,134,0,0,0,0,0,0,0,0,0,-1,524,890,0,0
-693,134,0,0,0,0,0,0,0,0,0,-1,531,890,0,0
-686,134,0,0,0,0,0,0,0,0,0,-1,538,890,0,0
-679,134,0,0,0,0,0,0,0,0,0,-1,545,890,0,0
-672,134,-3.03638,2.50787,0,0,0,0,0,0,0,-1,552,890,-3.03638,-2.50788
-665,134,-2.94214,2.07965,0,0,0,0,0,0,0,-1,559,890,-2.94216,-2.07965
-658,134,-3.14691,1.44812,0.0195381,-0.0102466,-0.0106088,0.0229304,-0.0136389,-0.309488,0.0213393,0.040499,566,890,-3.14692,-1.44811
-651,134,-2.91144,1.00043,0.0157901,-0.00939039,-0.00846495,0.0183712,-0.0119715,-0.295961,0.0176478,0.0410418,573,890,-2.91145,-1.00042
-644,134,-2.74066,0.674255,0.0123988,-0.00797069,-0.0064428,0.0142656,-0.00983744,-0.282021,0.0139939,0.0427787,580,890,-2.74064,-0.674262
-637,134,-2.43353,0.594238,0.00942383,-0.00630407,-0.00465123,0.0106964,-0.00757662,-0.267059,0.0106011,0.0436394,587,890,-2.43354,-0.594247
-630,134,-2.26276,0.844116,0.00666432,-0.00472347,-0.0031159,0.00746113,-0.00552028,-0.250359,0.00752269,0.0347363,594,890,-2.26276,-0.844123
-623,134,-2.26697,0.891968,0.00446193,-0.00364708,-0.0018946,0.00488275,-0.0040679,-0.218567,0.00517479,0.0174539,601,890,-2.26699,-0.89198
-616,134,-2.28625,0.887878,0.0027519,-0.00245216,-0.000978324,0.00292974,-0.00263,-0.179817,0.00321147,0.0100618,608,890,-2.28624,-0.887884
-609,134,-2.30585,0.849548,0.00124961,-0.00142896,-0.000212035,0.0012663,-0.00144564,-0.0785083,0.00156688,0.00997305,615,890,-2.30583,-0.849544
-602,134,-2.30286,0.797668,-0.000624557,-0.000848452,0.0007515,2.32884e-05,-0.0014963,0.711459,0.00100538,0.0101677,622,890,-2.30283,-0.797648
-595,134,-2.29822,0.772583,-0.00221407,-0.000501328,0.0013533,0.000243799,-0.00295919,1.06749,0.00205888,0.0102482,629,890,-2.29823,-0.772576
-588,134,-2.34674,0.708069,-0.00362017,-0.000700715,0.00185511,0.000200117,-0.004521,1.11874,0.00308287,0.0164224,636,890,-2.34675,-0.708079
-581,134,-2.3186,0.654663,-0.00507402,-0.000980788,0.00222375,-5.2012e-06,-0.0060496,1.15737,0.00403134,0.0209869,643,890,-2.31861,-0.654661
-574,134,-2.2738,0.653259,-0.00630856,-0.00124679,0.00240939,-0.000283309,-0.00727203,1.19039,0.0047564,0.021684,650,890,-2.27379,-0.653235
-567,134,-2.2782,0.616211,-0.00695781,-0.00137082,0.00246848,-0.00043645,-0.00789218,1.20894,0.00512217,0.0198354,657,890,-2.27823,-0.616219
-560,134,-2.42578,0.722717,-0.00713809,-0.00161982,0.0024458,-0.000691848,-0.00806607,1.20816,0.00516224,0.029996,664,890,-2.42576,-0.722729
-553,134,-2.74475,0.90332,-0.0070764,-0.00165476,0.00223681,-0.000851051,-0.0078801,1.22585,0.00499395,0.0414488,671,890,-2.74475,-0.903326
-546,134,-2.85059,0.801758,-0.00656636,-0.00167026,0.00185983,-0.00104391,-0.0071927,1.24595,0.00448782,0.025039,678,890,-2.85059,-0.801733
-539,134,-2.85327,0.816589,-0.00534381,-0.0016044,0.00116758,-0.00126978,-0.00567842,1.29169,0.00344135,0.0179088,685,890,-2.85326,-0.81657
-532,134,-2.87622,0.791077,-0.00333263,-0.00149658,0.000201306,-0.00147476,-0.00335444,1.46286,0.00194138,0.0240277,692,890,-2.87623,-0.791055
-525,134,-2.88501,0.731995,-0.000410023,-0.0013954,-0.00107362,0.00027856,-0.00208398,-0.570282,0.00149087,0.0353752,699,890,-2.885,-0.732005
-518,134,-2.87122,0.676331,0.00353916,-0.00139238,-0.00261886,0.0046704,-0.00252361,-0.407749,0.00421466,0.0435498,706,890,-2.87119,-0.676342
-511,134,-2.83069,0.675476,0.00825302,-0.00165811,-0.00421336,0.00980207,-0.00320717,-0.352313,0.00782598,0.045524,713,890,-2.83068,-0.675457
-504,134,0,0,0,0,0,0,0,0,0,-1,720,890,0,0
-497,134,0,0,0,0,0,0,0,0,0,-1,727,890,0,0
-490,134,0,0,0,0,0,0,0,0,0,-1,734,890,0,0
-483,134,0,0,0,0,0,0,0,0,0,-1,741,890,0,0
-476,134,0,0,0,0,0,0,0,0,0,-1,748,890,0,0
-469,134,0,0,0,0,0,0,0,0,0,-1,755,890,0,0
-462,134,0,0,0,0,0,0,0,0,0,-1,762,890,0,0
-455,134,0,0,0,0,0,0,0,0,0,-1,769,890,0,0
-448,134,0,0,0,0,0,0,0,0,0,-1,776,890,0,0
-441,134,0,0,0,0,0,0,0,0,0,-1,783,890,0,0
-434,134,0,0,0,0,0,0,0,0,0,-1,790,890,0,0
-427,134,0,0,0,0,0,0,0,0,0,-1,797,890,0,0
-420,134,0,0,0,0,0,0,0,0,0,-1,804,890,0,0
-413,134,0,0,0,0,0,0,0,0,0,-1,811,890,0,0
-406,134,0,0,0,0,0,0,0,0,0,-1,818,890,0,0
-399,134,0,0,0,0,0,0,0,0,0,-1,825,890,0,0
-392,134,0,0,0,0,0,0,0,0,0,-1,832,890,0,0
-385,134,0,0,0,0,0,0,0,0,0,-1,839,890,0,0
-378,134,0,0,0,0,0,0,0,0,0,-1,846,890,0,0
-371,134,0,0,0,0,0,0,0,0,0,-1,853,890,0,0
-364,134,0,0,0,0,0,0,0,0,0,-1,860,890,0,0
-357,134,0,0,0,0,0,0,0,0,0,-1,867,890,0,0
-350,134,0,0,0,0,0,0,0,0,0,-1,874,890,0,0
-343,134,0,0,0,0,0,0,0,0,0,-1,881,890,0,0
-336,134,0,0,0,0,0,0,0,0,0,-1,888,890,0,0
-329,134,0,0,0,0,0,0,0,0,0,-1,895,890,0,0
-322,134,0,0,0,0,0,0,0,0,0,-1,902,890,0,0
-315,134,0,0,0,0,0,0,0,0,0,-1,909,890,0,0
-308,134,0,0,0,0,0,0,0,0,0,-1,916,890,0,0
-301,134,0,0,0,0,0,0,0,0,0,-1,923,890,0,0
-294,134,0,0,0,0,0,0,0,0,0,-1,930,890,0,0
-287,134,0,0,0,0,0,0,0,0,0,-1,937,890,0,0
-280,134,0,0,0,0,0,0,0,0,0,-1,944,890,0,0
-273,134,0,0,0,0,0,0,0,0,0,-1,951,890,0,0
-266,134,0,0,0,0,0,0,0,0,0,-1,958,890,0,0
-259,134,0,0,0,0,0,0,0,0,0,-1,965,890,0,0
-252,134,0,0,0,0,0,0,0,0,0,-1,972,890,0,0
-245,134,0,0,0,0,0,0,0,0,0,-1,979,890,0,0
-238,134,0,0,0,0,0,0,0,0,0,-1,986,890,0,0
-231,134,0,0,0,0,0,0,0,0,0,-1,993,890,0,0
-224,134,0,0,0,0,0,0,0,0,0,-1,1000,890,0,0
-217,134,0,0,0,0,0,0,0,0,0,-1,1007,890,0,0
-210,134,0,0,0,0,0,0,0,0,0,-1,1014,890,0,0
-203,134,0,0,0,0,0,0,0,0,0,-1,1021,890,0,0
-196,134,0,0,0,0,0,0,0,0,0,-1,1028,890,0,0
-189,134,0,0,0,0,0,0,0,0,0,-1,1035,890,0,0
-182,134,0,0,0,0,0,0,0,0,0,-1,1042,890,0,0
-175,134,0,0,0,0,0,0,0,0,0,-1,1049,890,0,0
-168,134,0,0,0,0,0,0,0,0,0,-1,1056,890,0,0
-161,134,0,0,0,0,0,0,0,0,0,-1,1063,890,0,0
-154,134,0,0,0,0,0,0,0,0,0,-1,1070,890,0,0
-147,134,0,0,0,0,0,0,0,0,0,-1,1077,890,0,0
-140,134,0,0,0,0,0,0,0,0,0,-1,1084,890,0,0
-133,134,0,0,0,0,0,0,0,0,0,-1,1091,890,0,0
-126,134,0,0,0,0,0,0,0,0,0,-1,1098,890,0,0
-119,134,0,0,0,0,0,0,0,0,0,-1,1105,890,0,0
-112,134,0,0,0,0,0,0,0,0,0,-1,1112,890,0,0
-105,134,0,0,0,0,0,0,0,0,0,-1,1119,890,0,0
-98,134,0,0,0,0,0,0,0,0,0,-1,1126,890,0,0
-91,134,0,0,0,0,0,0,0,0,0,-1,1133,890,0,0
-84,134,0,0,0,0,0,0,0,0,0,-1,1140,890,0,0
-77,134,0,0,0,0,0,0,0,0,0,-1,1147,890,0,0
-70,134,0,0,0,0,0,0,0,0,0,-1,1154,890,0,0
-63,134,0,0,0,0,0,0,0,0,0,-1,1161,890,0,0
-56,134,0,0,0,0,0,0,0,0,0,-1,1168,890,0,0
-49,134,0,0,0,0,0,0,0,0,0,-1,1175,890,0,0
-42,134,0,0,0,0,0,0,0,0,0,-1,1182,890,0,0
-35,134,0,0,0,0,0,0,0,0,0,-1,1189,890,0,0
-28,134,0,0,0,0,0,0,0,0,0,-1,1196,890,0,0
-21,134,0,0,0,0,0,0,0,0,0,-1,1203,890,0,0
-14,134,0,0,0,0,0,0,0,0,0,-1,1210,890,0,0
-7,134,0,0,0,0,0,0,0,0,0,-1,1217,890,0,0
0,134,0,0,0,0,0,0,0,0,0,-1,1224,890,0,0
7,134,0,0,0,0,0,0,0,0,0,-1,1231,890,0,0
14,134,0,0,0,0,0,0,0,0,0,-1,1238,890,0,0
21,134,0,0,0,0,0,0,0,0,0,-1,1245,890,0,0
28,134,0,0,0,0,0,0,0,0,0,-1,1252,890,0,0
35,134,0,0,0,0,0,0,0,0,0,-1,1259,890,0,0
42,134,0,0,0,0,0,0,0,0,0,-1,1266,890,0,0
49,134,0,0,0,0,0,0,0,0,0,-1,1273,890,0,0
56,134,0,0,0,0,0,0,0,0,0,-1,1280,890,0,0
63,134,0,0,0,0,0,0,0,0,0,-1,1287,890,0,0
70,134,0,0,0,0,0,0,0,0,0,-1,1294,890,0,0
77,134,0,0,0,0,0,0,0,0,0,-1,1301,890,0,0
84,134,0,0,0,0,0,0,0,0,0,-1,1308,890,0,0
91,134,0,0,0,0,0,0,0,0,0,-1,1315,890,0,0
98,134,0,0,0,0,0,0,0,0,0,-1,1322,890,0,0
105,134,0,0,0,0,0,0,0,0,0,-1,1329,890,0,0
112,134,0,0,0,0,0,0,0,0,0,-1,1336,890,0,0
119,134,0,0,0,0,0,0,0,0,0,-1,1343,890,0,0
126,134,0,0,0,0,0,0,0,0,0,-1,1350,890,0,0
133,134,0,0,0,0,0,0,0,0,0,-1,1357,890,0,0
140,134,0,0,0,0,0,0,0,0,0,-1,1364,890,0,0
147,134,0,0,0,0,0,0,0,0,0,-1,1371,890,0,0
154,134,0,0,0,0,0,0,0,0,0,-1,1378,890,0,0
161,134,0,0,0,0,0,0,0,0,0,-1,1385,890,0,0
168,134,0,0,0,0,0,0,0,0,0,-1,1392,890,0,0
175,134,0,0,0,0,0,0,0,0,0,-1,1399,890,0,0
182,134,0,0,0,0,0,0,0,0,0,-1,1406,890,0,0
189,134,0,0,0,0,0,0,0,0,0,-1,1413,890,0,0
196,134,0,0,0,0,0,0,0,0,0,-1,1420,890,0,0
203,134,0,0,0,0,0,0,0,0,0,-1,1427,890,0,0
210,134,0,0,0,0,0,0,0,0,0,-1,1434,890,0,0
217,134,0,0,0,0,0,0,0,0,0,-1,1441,890,0,0
224,134,0,0,0,0,0,0,0,0,0,-1,1448,890,0,0
231,134,0,0,0,0,0,0,0,0,0,-1,1455,890,0,0
238,134,0,0,0,0,0,0,0,0,0,-1,1462,890,0,0
245,134,0,0,0,0,0,0,0,0,0,-1,1469,890,0,0
252,134,0,0,0,0,0,0,0,0,0,-1,1476,890,0,0
259,134,0,0,0,0,0,0,0,0,0,-1,1483,890,0,0
266,134,0,0,0,0,0,0,0,0,0,-1,1490,890,0,0
273,134,0,0,0,0,0,0,0,0,0,-1,1497,890,0,0
280,134,0,0,0,0,0,0,0,0,0,-1,1504,890,0,0
287,134,0,0,0,0,0,0,0,0,0,-1,1511,890,0,0
294,134,0,0,0,0,0,0,0,0,0,-1,1518,890,0,0
301,134,0,0,0,0,0,0,0,0,0,-1,1525,890,0,0
308,134,0,0,0,0,0,0,0,0,0,-1,1532,890,0,0
315,134,0,0,0,0,0,0,0,0,0,-1,1539,890,0,0
322,134,0,0,0,0,0,0,0,0,0,-1,1546,890,0,0
329,134,0,0,0,0,0,0,0,0,0,-1,1553,890,0,0
336,134,0,0,0,0,0,0,0,0,0,-1,1560,890,0,0
343,134,0,0,0,0,0,0,0,0,0,-1,1567,890,0,0
350,134,0,0,0,0,0,0,0,0,0,-1,1574,890,0,0
357,134,0,0,0,0,0,0,0,0,0,-1,1581,890,0,0
364,134,0,0,0,0,0,0,0,0,0,-1,1588,890,0,0
371,134,0,0,0,0,0,0,0,0,0,-1,1595,890,0,0
378,134,0,0,0,0,0,0,0,0,0,-1,1602,890,0,0
385,134,0,0,0,0,0,0,0,0,0,-1,1609,890,0,0
392,134,0,0,0,0,0,0,0,0,0,-1,1616,890,0,0
399,134,0,0,0,0,0,0,0,0,0,-1,1623,890,0,0
406,134,0,0,0,0,0,0,0,0,0,-1,1630,890,0,0
413,134,0,0,0,0,0,0,0,0,0,-1,1637,890,0,0
420,134,0,0,0,0,0,0,0,0,0,-1,1644,890,0,0
427,134,0,0,0,0,0,0,0,0,0,-1,1651,890,0,0
434,134,0,0,0,0,0,0,0,0,0,-1,1658,890,0,0
441,134,0,0,0,0,0,0,0,0,0,-1,1665,890,0,0
448,134,0,0,0,0,0,0,0,0,0,-1,1672,890,0,0
455,134,0,0,0,0,0,0,0,0,0,-1,1679,890,0,0
462,134,0,0,0,0,0,0,0,0,0,-1,1686,890,0,0
469,134,0,0,0,0,0,0,0,0,0,-1,1693,890,0,0
476,134,0,0,0,0,0,0,0,0,0,-1,1700,890,0,0
483,134,0,0,0,0,0,0,0,0,0,-1,1707,890,0,0
490,134,0,0,0,0,0,0,0,0,0,-1,1714,890,0,0
497,134,0,0,0,0,0,0,0,0,0,-1,1721,890,0,0
504,134,0,0,0,0,0,0,0,0,0,-1,1728,890,0,0
511,134,0,0,0,0,0,0,0,0,0,-1,1735,890,0,0
518,134,0,0,0,0,0,0,0,0,0,-1,1742,890,0,0
525,134,0,0,0,0,0,0,0,0,0,-1,1749,890,0,0
532,134,0,0,0,0,0,0,0,0,0,-1,1756,890,0,0
539,134,0,0,0,0,0,0,0,0,0,-1,1763,890,0,0
546,134,0,0,0,0,0,0,0,0,0,-1,1770,890,0,0
553,134,0,0,0,0,0,0,0,0,0,-1,1777,890,0,0
560,134,0,0,0,0,0,0,0,0,0,-1,1784,890,0,0
567,134,0,0,0,0,0,0,0,0,0,-1,1791,890,0,0
574,134,0,0,0,0,0,0,0,0,0,-1,1798,890,0,0
581,134,0,0,0,0,0,0,0,0,0,-1,1805,890,0,0
588,134,0,0,0,0,0,0,0,0,0,-1,1812,890,0,0
595,134,0,0,0,0,0,0,0,0,0,-1,1819,890,0,0
602,134,0,0,0,0,0,0,0,0,0,-1,1826,890,0,0
609,134,0,0,0,0,0,0,0,0,0,-1,1833,890,0,0
616,134,0,0,0,0,0,0,0,0,0,-1,1840,890,0,0
623,134,7.25806,1.33582,0,0,0,0,0,0,0,-1,1847,890,7.25801,-1.3358
630,134,7.13538,1.33453,0.0037267,-0.000699295,0.00310496,0.0053266,-0.00229919,0.475789,0.00451692,0.049029,1854,890,7.13542,-1.3345
637,134,7.12891,1.24609,0.00227544,-0.000322036,0.00228939,0.00360881,-0.00165541,0.52739,0.00310827,0.0446139,1861,890,7.1289,-1.24609
644,134,7.22437,0.810364,0.000234551,-0.000125221,0.00136761,0.00143406,-0.00132473,0.720007,0.0015932,0.0398013,1868,890,7.22436,-0.810346
651,134,7.23132,0.855591,-0.00198412,-7.42175e-05,0.000425312,1.62128e-05,-0.00207455,1.3613,0.00138847,0.0429606,1875,890,7.23138,-0.855584
658,134,7.23108,1.0033,-0.00398923,-0.000104932,-0.000421936,-5.96275e-05,-0.00403454,-1.46383,0.00267004,0.0403524,1882,890,7.23111,-1.00327
665,134,7.22559,1.02026,-0.00558107,-0.000177396,-0.00110785,4.09137e-05,-0.00579938,-1.37623,0.00387996,0.0304125,1889,890,7.22555,-1.02025
672,134,7.20862,1.06073,-0.0067578,-0.000290393,-0.00164364,0.000103355,-0.00715155,-1.33567,0.00480252,0.019605,1896,890,7.2086,-1.06076
679,134,7.17529,1.04987,-0.00740468,-0.000443178,-0.00199062,8.58335e-05,-0.00793369,-1.31105,0.00531797,0.0149773,1903,890,7.17526,-1.04989
686,134,7.10901,1.07764,-0.00772556,-0.000535906,-0.00218255,7.47754e-05,-0.00833624,-1.29797,0.00558259,0.0412204,1910,890,7.10902,-1.07765
693,134,6.8075,1.00989,-0.00766319,-0.000545902,-0.00218849,7.31861e-05,-0.00828228,-1.29512,0.00554607,0.0218728,1917,890,6.80753,-1.0099
700,134,6.57568,0.986084,-0.0071022,-0.000529417,-0.00211564,9.2682e-05,-0.0077243,-1.28481,0.0051807,0.016232,1924,890,6.57563,-0.986089
707,134,6.5863,0.990723,-0.00619068,-0.000488346,-0.00202973,0.000160338,-0.00683937,-1.26146,0.00461395,0.0145048,1931,890,6.5863,-0.990704
714,134,6.60144,1.0365,-0.00500616,-0.000554842,-0.00186169,0.00012113,-0.00568213,-1.2225,0.0038291,0.0137149,1938,890,6.6015,-1.03651
721,134,6.63013,1.10046,-0.00357579,1.57106e-05,-0.00145966,0.00053412,-0.0040942,-1.22953,0.00292381,0.0127153,1945,890,6.63013,-1.10044
728,134,6.61658,1.14166,-0.00184242,0.00102893,-0.00101792,0.00135317,-0.00216666,-1.26242,0.00205019,0.0135126,1952,890,6.61652,-1.14166
735,134,6.59131,1.15576,0.000221291,0.000818546,-0.000431621,0.00104478,-4.93869e-06,-1.08802,0.000698169,0.0185061,1959,890,6.59131,-1.15574
742,134,6.58301,1.21472,0.00252637,0.00234429,-1.81013e-05,0.00252815,0.00234251,-0.0981343,0.00162709,0.0140335,1966,890,6.58302,-1.2147
749,134,6.61279,1.27081,0.00462806,0.00364752,0.000286268,0.00470552,0.00357006,0.264247,0.00283535,0.0124004,1973,890,6.61277,-1.27084
756,134,6.61877,1.31903,0.00682661,0.00514137,0.000624695,0.00703292,0.00493506,0.318978,0.00416914,0.014885,1980,890,6.6188,-1.31901
763,134,6.72888,1.40167,0.00925243,0.00695074,0.000919668,0.00957476,0.00662841,0.337103,0.0056626,0.0328048,1987,890,6.72889,-1.40168
770,134,6.84204,1.49463,0,0,0,0,0,0,0,-1,1994,890,6.84205,-1.49465
777,134,7.00488,2.83325,0,0,0,0,0,0,0,-1,2001,890,7.00494,-2.83328
784,134,6.93469,3.30231,0,0,0,0,0,0,0,-1,2008,890,6.93471,-3.30229
791,134,7.01489,3.59027,0,0,0,0,0,0,0,-1,2015,890,7.01492,-3.59026
798,134,0,0,0,0,0,0,0,0,0,-1,2022,890,0,0
805,134,0,0,0,0,0,0,0,0,0,-1,2029,890,0,0
812,134,0,0,0,0,0,0,0,0,0,-1,2036,890,0,0
-700,127,0,0,0,0,0,0,0,0,0,-1,524,897,0,0
-693,127,0,0,0,0,0,0,0,0,0,-1,531,897,0,0
-686,127,0,0,0,0,0,0,0,0,0,-1,538,897,0,0
-679,127,-2.99994,2.43372,0.0355931,-0.00578787,-0.0163948,0.0413012,-0.011496,-0.335039,0.0320607,0.0477208,545,897,-2.99995,-2.43372
-672,127,-2.91296,2.36493,0.0291161,-0.00957992,-0.0142644,0.033806,-0.0142698,-0.317647,0.0285102,0.0481779,552,897,-2.91297,-2.36495
-665,127,-2.81085,2.1507,0.0235067,-0.0109671,-0.0119414,0.027239,-0.0146994,-0.302933,0.0245713,0.0474197,559,897,-2.81087,-2.15071
-658,127,-2.84619,1.73663,0.0185834,-0.010926,-0.00964672,0.0214571,-0.0137997,-0.289524,0.0205149,0.0436492,566,897,-2.84619,-1.73661
-651,127,-2.84644,1.35461,0.014313,-0.0099867,-0.00749088,0.0164366,-0.0121103,-0.276247,0.0165445,0.0423871,573,897,-2.84644,-1.35464
-644,127,-2.6709,0.989685,0.0107086,-0.00851087,-0.00554197,0.0121921,-0.0099944,-0.261557,0.0128303,0.0434668,580,897,-2.67088,-0.989697
-637,127,-2.5094,0.854736,0.0077467,-0.00679387,-0.00387269,0.00871381,-0.00776098,-0.244722,0.00951703,0.0413308,587,897,-2.5094,-0.854714
-630,127,-2.27258,0.899292,0.00507385,-0.00518018,-0.00245703,0.00563219,-0.00573852,-0.223448,0.00656498,0.029741,594,897,-2.2726,-0.899269
-623,127,-2.29346,0.902954,0.00300953,-0.00404609,-0.00133017,0.00325197,-0.00428853,-0.180284,0.0043672,0.0125425,601,897,-2.29345,-0.902967
-616,127,-2.3219,0.888489,0.00154927,-0.00272707,-0.000512521,0.00160984,-0.00278764,-0.117631,0.00256906,0.00904133,608,897,-2.32187,-0.888475
-609,127,-2.33496,0.839172,0.000225385,-0.00167847,0.000179467,0.000242155,-0.00169524,0.0931718,0.00121892,0.0114126,615,897,-2.33497,-0.839169
-602,127,-2.32867,0.788208,-0.00142775,-0.00105658,0.00104296,-0.000182819,-0.00230151,0.873446,0.00147717,0.0126455,622,897,-2.32864,-0.788197
-595,127,-2.32684,0.754272,-0.00276123,-0.000657405,0.001518,0.000137531,-0.00355617,1.08839,0.00241793,0.0124026,629,897,-2.32687,-0.754243
-588,127,-2.35687,0.709473,-0.0039462,-0.000788327,0.00193655,0.000131391,-0.00486592,1.12741,0.00328862,0.0166855,636,897,-2.35689,-0.709494
-581,127,-2.33997,0.674805,-0.00518039,-0.000982841,0.00223429,-1.61792e-05,-0.00614705,1.16247,0.00409265,0.0225264,643,897,-2.33994,-0.674811
-574,127,-2.30859,0.69043,-0.00629627,-0.00120125,0.00233566,-0.000292585,-0.00720493,1.19978,0.00470879,0.0226531,650,897,-2.30856,-0.690439
-567,127,-2.29565,0.659485,-0.00686547,-0.00127166,0.00230128,-0.000446607,-0.00769052,1.22655,0.00498482,0.0300707,657,897,-2.29567,-0.659484
-560,127,-2.52173,0.79425,-0.00695294,-0.00152351,0.00221302,-0.000735779,-0.00774067,1.22883,0.00493351,0.0309096,664,897,-2.52173,-0.794273
-553,127,-2.90973,0.874084,-0.00678778,-0.00156584,0.0019133,-0.000939856,-0.00741376,1.2546,0.00466092,0.0378952,671,897,-2.90975,-0.874092
-546,127,-2.90662,0.843384,-0.00616602,-0.00156981,0.00142638,-0.00116313,-0.0065727,1.29305,0.00405015,0.0235365,678,897,-2.9066,-0.843397
-539,127,-2.89093,0.797668,-0.00483109,-0.00150953,0.000645517,-0.00138849,-0.00495213,1.38544,0.00294962,0.0207586,685,897,-2.89094,-0.79768
-532,127,-2.88745,0.820923,-0.00270018,-0.00143239,-0.000415816,-0.00130818,-0.0028244,-1.28052,0.00163214,0.0173344,692,897,-2.88744,-0.820933
-525,127,-2.95764,0.770874,0.000346078,-0.00139575,-0.00176041,0.00143922,-0.0024889,-0.555689,0.00229474,0.0330424,699,897,-2.95761,-0.770894
-518,127,-2.92578,0.587402,0.00438717,-0.00150374,-0.00331602,0.005877,-0.00299356,-0.422256,0.00521083,0.0408693,706,897,-2.92579,-0.587407
-511,127,-2.79163,0.493774,0.00902428,-0.00194044,-0.00475037,0.010796,-0.0037122,-0.356993,0.0087028,0.0439086,713,897,-2.79162,-0.493784
-504,127,0,0,0,0,0,0,0,0,0,-1,720,897,0,0
-497,127,0,0,0,0,0,0,0,0,0,-1,727,897,0,0
-490,127,0,0,0,0,0,0,0,0,0,-1,734,897,0,0
-483,127,0,0,0,0,0,0,0,0,0,-1,741,897,0,0
-476,127,0,0,0,0,0,0,0,0,0,-1,748,897,0,0
-469,127,0,0,0,0,0,0,0,0,0,-1,755,897,0,0
-462,127,0,0,0,0,0,0,0,0,0,-1,762,897,0,0
-455,127,0,0,0,0,0,0,0,0,0,-1,769,897,0,0
-448,127,0,0,0,0,0,0,0,0,0,-1,776,897,0,0
-441,127,0,0,0,0,0,0,0,0,0,-1,783,897,0,0
-434,127,0,0,0,0,0,0,0,0,0,-1,790,897,0,0
-427,127,0,0,0,0,0,0,0,0,0,-1,797,897,0,0
-420,127,0,0,0,0,0,0,0,0,0,-1,804,897,0,0
-413,127,0,0,0,0,0,0,0,0,0,-1,811,897,0,0
-406,127,0,0,0,0,0,0,0,0,0,-1,818,897,0,0
-399,127,0,0,0,0,0,0,0,0,0,-1,825,897,0,0
-392,127,0,0,0,0,0,0,0,0,0,-1,832,897,0,0
-385,127,0,0,0,0,0,0,0,0,0,-1,839,897,0,0
-378,127,0,0,0,0,0,0,0,0,0,-1,846,897,0,0
-371,127,0,0,0,0,0,0,0,0,0,-1,853,897,0,0
-364,127,0,0,0,0,0,0,0,0,0,-1,860,897,0,0
-357,127,0,0,0,0,0,0,0,0,0,-1,867,897,0,0
-350,127,0,0,0,0,0,0,0,0,0,-1,874,897,0,0
-343,127,0,0,0,0,0,0,0,0,0,-1,881,897,0,0
-336,127,0,0,0,0,0,0,0,0,0,-1,888,897,0,0
-329,127,0,0,0,0,0,0,0,0,0,-1,895,897,0,0
-322,127,0,0,0,0,0,0,0,0,0,-1,902,897,0,0
-315,127,0,0,0,0,0,0,0,0,0,-1,909,897,0,0
-308,127,0,0,0,0,0,0,0,0,0,-1,916,897,0,0
-301,127,0,0,0,0,0,0,0,0,0,-1,923,897,0,0
-294,127,0,0,0,0,0,0,0,0,0,-1,930,897,0,0
-287,127,0,0,0,0,0,0,0,0,0,-1,937,897,0,0
-280,127,0,0,0,0,0,0,0,0,0,-1,944,897,0,0
-273,127,0,0,0,0,0,0,0,0,0,-1,951,897,0,0
-266,127,0,0,0,0,0,0,0,0,0,-1,958,897,0,0
-259,127,0,0,0,0,0,0,0,0,0,-1,965,897,0,0
-252,127,0,0,0,0,0,0,0,0,0,-1,972,897,0,0
-245,127,0,0,0,0,0,0,0,0,0,-1,979,897,0,0
-238,127,0,0,0,0,0,0,0,0,0,-1,986,897,0,0
-231,127,0,0,0,0,0,0,0,0,0,-1,993,897,0,0
-224,127,0,0,0,0,0,0,0,0,0,-1,1000,897,0,0
-217,127,0,0,0,0,0,0,0,0,0,-1,1007,897,0,0
-210,127,0,0,0,0,0,0,0,0,0,-1,1014,897,0,0
-203,127,0,0,0,0,0,0,0,0,0,-1,1021,897,0,0
-196,127,0,0,0,0,0,0,0,0,0,-1,1028,897,0,0
-189,127,0,0,0,0,0,0,0,0,0,-1,1035,897,0,0
-182,127,0,0,0,0,0,0,0,0,0,-1,1042,897,0,0
-175,127,0,0,0,0,0,0,0,0,0,-1,1049,897,0,0
-168,127,0,0,0,0,0,0,0,0,0,-1,1056,897,0,0
-161,127,0,0,0,0,0,0,0,0,0,-1,1063,897,0,0
-154,127,0,0,0,0,0,0,0,0,0,-1,1070,897,0,0
-147,127,0,0,0,0,0,0,0,0,0,-1,1077,897,0,0
-140,127,0,0,0,0,0,0,0,0,0,-1,1084,897,0,0
-133,127,0,0,0,0,0,0,0,0,0,-1,1091,897,0,0
-126,127,0,0,0,0,0,0,0,0,0,-1,1098,897,0,0
-119,127,0,0,0,0,0,0,0,0,0,-1,1105,897,0,0
-112,127,0,0,0,0,0,0,0,0,0,-1,1112,897,0,0
-105,127,0,0,0,0,0,0,0,0,0,-1,1119,897,0,0
-98,127,0,0,0,0,0,0,0,0,0,-1,1126,897,0,0
-91,127,0,0,0,0,0,0,0,0,0,-1,1133,897,0,0
-84,127,0,0,0,0,0,0,0,0,0,-1,1140,897,0,0
-77,127,0,0,0,0,0,0,0,0,0,-1,1147,897,0,0
-70,127,0,0,0,0,0,0,0,0,0,-1,1154,897,0,0
-63,127,0,0,0,0,0,0,0,0,0,-1,1161,897,0,0
-56,127,0,0,0,0,0,0,0,0,0,-1,1168,897,0,0
-49,127,0,0,0,0,0,0,0,0,0,-1,1175,897,0,0
-42,127,0,0,0,0,0,0,0,0,0,-1,1182,897,0,0
-35,127,0,0,0,0,0,0,0,0,0,-1,1189,897,0,0
-28,127,0,0,0,0,0,0,0,0,0,-1,1196,897,0,0
-21,127,0,0,0,0,0,0,0,0,0,-1,1203,897,0,0
-14,127,0,0,0,0,0,0,0,0,0,-1,1210,897,0,0
-7,127,0,0,0,0,0,0,0,0,0,-1,1217,897,0,0
0,127,0,0,0,0,0,0,0,0,0,-1,1224,897,0,0
7,127,0,0,0,0,0,0,0,0,0,-1,1231,897,0,0
14,127,0,0,0,0,0,0,0,0,0,-1,1238,897,0,0
21,127,0,0,0,0,0,0,0,0,0,-1,1245,897,0,0
28,127,0,0,0,0,0,0,0,0,0,-1,1252,897,0,0
35,127,0,0,0,0,0,0,0,0,0,-1,1259,897,0,0
42,127,0,0,0,0,0,0,0,0,0,-1,1266,897,0,0
49,127,0,0,0,0,0,0,0,0,0,-1,1273,897,0,0
56,127,0,0,0,0,0,0,0,0,0,-1,1280,897,0,0
63,127,0,0,0,0,0,0,0,0,0,-1,1287,897,0,0
70,127,0,0,0,0,0,0,0,0,0,-1,1294,897,0,0
77,127,0,0,0,0,0,0,0,0,0,-1,1301,897,0,0
84,127,0,0,0,0,0,0,0,0,0,-1,1308,897,0,0
91,127,0,0,0,0,0,0,0,0,0,-1,1315,897,0,0
98,127,0,0,0,0,0,0,0,0,0,-1,1322,897,0,0
105,127,0,0,0,0,0,0,0,0,0,-1,1329,897,0,0
112,127,0,0,0,0,0,0,0,0,0,-1,1336,897,0,0
119,127,0,0,0,0,0,0,0,0,0,-1,1343,897,0,0
126,127,0,0,0,0,0,0,0,0,0,-1,1350,897,0,0
133,127,0,0,0,0,0,0,0,0,0,-1,1357,897,0,0
140,127,0,0,0,0,0,0,0,0,0,-1,1364,897,0,0
147,127,0,0,0,0,0,0,0,0,0,-1,1371,897,0,0
154,127,0,0,0,0,0,0,0,0,0,-1,1378,897,0,0
161,127,0,0,0,0,0,0,0,0,0,-1,1385,897,0,0
168,127,0,0,0,0,0,0,0,0,0,-1,1392,897,0,0
175,127,0,0,0,0,0,0,0,0,0,-1,1399,897,0,0
182,127,0,0,0,0,0,0,0,0,0,-1,1406,897,0,0
189,127,0,0,0,0,0,0,0,0,0,-1,1413,897,0,0
196,127,0,0,0,0,0,0,0,0,0,-1,1420,897,0,0
203,127,0,0,0,0,0,0,0,0,0,-1,1427,897,0,0
210,127,0,0,0,0,0,0,0,0,0,-1,1434,897,0,0
217,127,0,0,0,0,0,0,0,0,0,-1,1441,897,0,0
224,127,0,0,0,0,0,0,0,0,0,-1,1448,897,0,0
231,127,0,0,0,0,0,0,0,0,0,-1,1455,897,0,0
238,127,0,0,0,0,0,0,0,0,0,-1,1462,897,0,0
245,127,0,0,0,0,0,0,0,0,0,-1,1469,897,0,0
252,127,0,0,0,0,0,0,0,0,0,-1,1476,897,0,0
259,127,0,0,0,0,0,0,0,0,0,-1,1483,897,0,0
266,127,0,0,0,0,0,0,0,0,0,-1,1490,897,0,0
273,127,0,0,0,0,0,0,0,0,0,-1,1497,897,0,0
280,127,0,0,0,0,0,0,0,0,0,-1,1504,897,0,0
287,127,0,0,0,0,0,0,0,0,0,-1,1511,897,0,0
294,127,0,0,0,0,0,0,0,0,0,-1,1518,897,0,0
301,127,0,0,0,0,0,0,0,0,0,-1,1525,897,0,0
308,127,0,0,0,0,0,0,0,0,0,-1,1532,897,0,0
315,127,0,0,0,0,0,0,0,0,0,-1,1539,897,0,0
322,127,0,0,0,0,0,0,0,0,0,-1,1546,897,0,0
329,127,0,0,0,0,0,0,0,0,0,-1,1553,897,0,0
336,127,0,0,0,0,0,0,0,0,0,-1,1560,897,0,0
343,127,0,0,0,0,0,0,0,0,0,-1,1567,897,0,0
350,127,0,0,0,0,0,0,0,0,0,-1,1574,897,0,0
357,127,0,0,0,0,0,0,0,0,0,-1,1581,897,0,0
364,127,0,0,0,0,0,0,0,0,0,-1,1588,897,0,0
371,127,0,0,0,0,0,0,0,0,0,-1,1595,897,0,0
378,127,0,0,0,0,0,0,0,0,0,-1,1602,897,0,0
385,127,0,0,0,0,0,0,0,0,0,-1,1609,897,0,0
392,127,0,0,0,0,0,0,0,0,0,-1,1616,897,0,0
399,127,0,0,0,0,0,0,0,0,0,-1,1623,897,0,0
406,127,0,0,0,0,0,0,0,0,0,-1,1630,897,0,0
413,127,0,0,0,0,0,0,0,0,0,-1,1637,897,0,0
420,127,0,0,0,0,0,0,0,0,0,-1,1644,897,0,0
427,127,0,0,0,0,0,0,0,0,0,-1,1651,897,0,0
434,127,0,0,0,0,0,0,0,0,0,-1,1658,897,0,0
441,127,0,0,0,0,0,0,0,0,0,-1,1665,897,0,0
448,127,0,0,0,0,0,0,0,0,0,-1,1672,897,0,0
455,127,0,0,0,0,0,0,0,0,0,-1,1679,897,0,0
462,127,0,0,0,0,0,0,0,0,0,-1,1686,897,0,0
469,127,0,0,0,0,0,0,0,0,0,-1,1693,897,0,0
476,127,0,0,0,0,0,0,0,0,0,-1,1700,897,0,0
483,127,0,0,0,0,0,0,0,0,0,-1,1707,897,0,0
490,127,0,0,0,0,0,0,0,0,0,-1,1714,897,0,0
497,127,0,0,0,0,0,0,0,0,0,-1,1721,897,0,0
504,127,0,0,0,0,0,0,0,0,0,-1,1728,897,0,0
511,127,0,0,0,0,0,0,0,0,0,-1,1735,897,0,0
518,127,0,0,0,0,0,0,0,0,0,-1,1742,897,0,0
525,127,0,0,0,0,0,0,0,0,0,-1,1749,897,0,0
532,127,0,0,0,0,0,0,0,0,0,-1,1756,897,0,0
539,127,0,0,0,0,0,0,0,0,0,-1,1763,897,0,0
546,127,0,0,0,0,0,0,0,0,0,-1,1770,897,0,0
553,127,0,0,0,0,0,0,0,0,0,-1,1777,897,0,0
560,127,0,0,0,0,0,0,0,0,0,-1,1784,897,0,0
567,127,0,0,0,0,0,0,0,0,0,-1,1791,897,0,0
574,127,0,0,0,0,0,0,0,0,0,-1,1798,897,0,0
581,127,0,0,0,0,0,0,0,0,0,-1,1805,897,0,0
588,127,0,0,0,0,0,0,0,0,0,-1,1812,897,0,0
595,127,0,0,0,0,0,0,0,0,0,-1,1819,897,0,0
602,127,0,0,0,0,0,0,0,0,0,-1,1826,897,0,0
609,127,0,0,0,0,0,0,0,0,0,-1,1833,897,0,0
616,127,0,0,0,0,0,0,0,0,0,-1,1840,897,0,0
623,127,0,0,0,0,0,0,0,0,0,-1,1847,897,0,0
630,127,7.07397,1.35101,0.00374202,-0.000432154,0.00286759,0.00520162,-0.00189176,0.470822,0.00424138,0.0443697,1854,897,7.07393,-1.351
637,127,7.15381,1.24652,0.00258844,-0.000367292,0.00227092,0.00382003,-0.00159889,0.496937,0.00321502,0.0411271,1861,897,7.15381,-1.24653
644,127,7.23889,0.792603,0.000819985,-0.000358034,0.00152292,0.00186383,-0.00140188,0.600876,0.00189173,0.039226,1868,897,7.23884,-0.792606
651,127,7.1073,0.97937,-0.00125291,-0.000415486,0.000687696,-2.9061e-05,-0.00163934,1.05885,0.00108333,0.0461566,1875,897,7.10727,-0.979387
658,127,7.12036,1.08905,-0.00323345,-0.000503543,-0.000118937,-0.000498371,-0.00323862,-1.52734,0.00201362,0.0445269,1882,897,7.12039,-1.08906
665,127,7.16125,1.00592,-0.0048668,-0.000591528,-0.000789292,-0.000450464,-0.00500786,-1.39394,0.00319901,0.037269,1889,897,7.16128,-1.00591
672,127,7.16028,0.988647,-0.00610431,-0.00066886,-0.00132811,-0.000361704,-0.00641147,-1.34352,0.00415899,0.0310139,1896,897,7.16033,-0.988649
679,127,7.22693,1.02631,-0.00685003,-0.00075973,-0.00170875,-0.000313065,-0.00729669,-1.31512,0.00476354,0.0214574,1903,897,7.22698,-1.02628
686,127,7.22888,1.01471,-0.00729359,-0.000827489,-0.00194363,-0.000288229,-0.00783285,-1.30015,0.00512852,0.0200952,1910,897,7.22883,-1.01471
693,127,6.92712,0.970642,-0.00737596,-0.000782517,-0.00200196,-0.000222266,-0.00793621,-1.29793,0.0052183,0.0216507,1917,897,6.92715,-0.970614
700,127,6.64856,0.935608,-0.00694491,-0.000699873,-0.00199669,-0.000116059,-0.00752872,-1.28633,0.00498091,0.0190579,1924,897,6.64853,-0.935626
707,127,6.63123,1.01233,-0.00614456,-0.000643921,-0.00194842,-2.36887e-05,-0.00676479,-1.26261,0.00450198,0.0179834,1931,897,6.63117,-1.01234
714,127,6.63757,1.08325,-0.0050902,-0.000675901,-0.0017831,-4.56281e-05,-0.00572047,-1.23103,0.00379853,0.0156802,1938,897,6.63758,-1.08323
721,127,6.67297,1.13562,-0.00381461,-0.000116779,-0.00138907,0.000346881,-0.00427827,-1.24863,0.00297456,0.0126869,1945,897,6.67291,-1.13564
728,127,6.66321,1.13782,-0.00222498,0.000764678,-0.000957898,0.00104526,-0.00250556,-1.28585,0.00210706,0.0128558,1952,897,6.6632,-1.13784
735,127,6.65271,1.16467,-0.000248464,0.00064214,-0.000349032,0.000762627,-0.000368951,-1.2384,0.000666366,0.0185506,1959,897,6.65274,-1.16467
742,127,6.65198,1.21674,0.00198768,0.0021242,0.000113177,0.00218811,0.00192377,1.05674,0.0013791,0.0166187,1966,897,6.65198,-1.21671
749,127,6.64624,1.25818,0.00405716,0.00337239,0.000462144,0.00428993,0.00313962,0.466584,0.00256402,0.0123597,1973,897,6.64625,-1.25815
756,127,6.63391,1.28021,0.00620105,0.00485013,0.000877193,0.00663271,0.00441847,0.457302,0.00389925,0.0138803,1980,897,6.63395,-1.28022
763,127,6.64795,1.29596,0.00850212,0.0066626,0.00123168,0.00911956,0.00604516,0.464687,0.00535749,0.0202196,1987,897,6.648,-1.29597
770,127,6.85803,1.83197,0.0111405,0.00887612,0.00154669,0.0119251,0.00809151,0.469454,0.00702974,0.0361575,1994,897,6.85802,-1.83199
777,127,6.89587,2.38574,0,0,0,0,0,0,0,-1,2001,897,6.89584,-2.38572
784,127,6.86536,2.60553,0.0176786,0.0147291,0.00182849,0.0185529,0.0138547,0.44604,0.0111379,0.0483674,2008,897,6.86541,-2.60554
791,127,6.91248,2.85455,0.0213,0.0185308,0.00146507,0.0219312,0.0178996,0.406815,0.0134794,0.0435343,2015,897,6.91243,-2.85453
798,127,0,0,0,0,0,0,0,0,0,-1,2022,897,0,0
805,127,0,0,0,0,0,0,0,0,0,-1,2029,897,0,0
812,127,0,0,0,0,0,0,0,0,0,-1,2036,897,0,0
-700,120,0,0,0,0,0,0,0,0,0,-1,524,904,0,0
-693,120,0,0,0,0,0,0,0,0,0,-1,531,904,0,0
-686,120,0,0,0,0,0,0,0,0,0,-1,538,904,0,0
-679,120,-2.88062,1.92834,0.0400408,-0.00701307,-0.0156286,0.0447587,-0.011731,-0.293176,0.0344223,0.0455704,545,904,-2.8806,-1.92832
-672,120,-2.83386,1.94244,0.0313774,-0.0102503,-0.0130096,0.0351087,-0.0139817,-0.279316,0.0292042,0.0442475,552,904,-2.83388,-1.94246
-665,120,-2.67242,2.21832,0.0243325,-0.0113912,-0.0105022,0.0271912,-0.0142499,-0.265763,0.0243118,0.0459358,559,904,-2.67242,-2.21832
-658,120,-2.52917,1.81226,0,0,0,0,0,0,0,-1,566,904,-2.52919,-1.81228
-651,120,-2.62604,1.60553,0,0,0,0,0,0,0,-1,573,904,-2.62602,-1.60556
-644,120,-2.54181,1.04968,0.00981885,-0.0087832,-0.00434216,0.0107825,-0.00974685,-0.218388,0.0118576,0.0426819,580,904,-2.54182,-1.04968
-637,120,-2.35327,0.933777,0.00679237,-0.00706327,-0.00287585,0.00736556,-0.00763646,-0.196735,0.0086619,0.0372102,587,904,-2.35325,-0.933781
-630,120,-2.34155,0.930969,0.00408644,-0.00546498,-0.00164394,0.00436147,-0.00574,-0.165763,0.00585016,0.0211655,594,904,-2.34156,-0.930974
-623,120,-2.36072,0.908386,0.00205302,-0.00430576,-0.000658732,0.00212055,-0.00437328,-0.102149,0.00382367,0.0104302,601,904,-2.36075,-0.908367
-616,120,-2.35236,0.882751,0.000748976,-0.00292813,1.01973e-06,0.000748976,-0.00292813,0.00027732,0.00224381,0.00920474,608,904,-2.35234,-0.88278
-609,120,-2.35974,0.84314,-0.000462236,-0.00187783,0.000573338,-0.000259158,-0.0020809,0.340415,0.00130946,0.0112173,615,904,-2.35973,-0.84314
-602,120,-2.37451,0.800354,-0.0019073,-0.00120944,0.00129812,-0.000214171,-0.00290257,0.916692,0.00186775,0.0121686,622,904,-2.37454,-0.800326
-595,120,-2.37067,0.768066,-0.00303133,-0.000766751,0.00159433,5.64602e-05,-0.00385454,1.09417,0.00258872,0.0159509,629,904,-2.37067,-0.768058
-588,120,-2.38586,0.721985,-0.00400977,-0.000808456,0.00190957,8.2589e-05,-0.00490081,1.13421,0.00329508,0.0194865,636,904,-2.38589,-0.721975
-581,120,-2.42474,0.693359,-0.00508158,-0.000891975,0.00212,-6.40727e-06,-0.00596715,1.17511,0.00397597,0.0225384,643,904,-2.42475,-0.693357
-574,120,-2.35785,0.705017,-0.00605945,-0.00103933,0.00213177,-0.00025624,-0.00684254,1.21876,0.00447872,0.0198636,650,904,-2.35788,-0.705034
-567,120,-2.38281,0.746277,-0.00651473,-0.00105157,0.00198845,-0.000404475,-0.00716182,1.25618,0.0046456,0.0359515,657,904,-2.38282,-0.746289
-560,120,-2.61865,1.04956,-0.00648305,-0.00129435,0.00181352,-0.000723335,-0.00705406,1.26576,0.0044811,0.0453663,664,904,-2.61868,-1.04959
-553,120,-2.92548,1.1554,-0.00618386,-0.00133943,0.001413,-0.000957416,-0.00656587,1.30675,0.00409558,0.0397095,671,904,-2.92548,-1.15542
-546,120,-2.89752,0.896973,-0.00543355,-0.00137079,0.000800163,-0.00121888,-0.00558546,1.38318,0.00339117,0.0333624,678,904,-2.89752,-0.89696
-539,120,-2.92334,0.812622,-0.00400106,-0.00139855,-8.79904e-05,-0.00139558,-0.00400403,-1.53704,0.00234681,0.0264801,685,904,-2.92333,-0.812626
-532,120,-2.87683,0.786194,-0.00180936,-0.0014854,-0.00124094,-0.00039591,-0.00289885,-0.850296,0.00181505,0.0266187,692,904,-2.87682,-0.786176
-525,120,-2.96838,0.770081,0.00124294,-0.00172539,-0.00263732,0.00278503,-0.00326748,-0.529106,0.00349812,0.0340524,699,904,-2.96836,-0.770076
-518,120,-3.08099,0.742615,0.00516324,-0.00226472,-0.00416583,0.00703028,-0.00413176,-0.421339,0.00651643,0.038341,706,904,-3.08096,-0.74262
-511,120,-2.90552,0.663696,0.00939869,-0.00334059,-0.00537861,0.0113658,-0.00530772,-0.350621,0.00983599,0.0388393,713,904,-2.90555,-0.663674
-504,120,0,0,0,0,0,0,0,0,0,-1,720,904,0,0
-497,120,0,0,0,0,0,0,0,0,0,-1,727,904,0,0
-490,120,0,0,0,0,0,0,0,0,0,-1,734,904,0,0
-483,120,0,0,0,0,0,0,0,0,0,-1,741,904,0,0
-476,120,0,0,0,0,0,0,0,0,0,-1,748,904,0,0
-469,120,0,0,0,0,0,0,0,0,0,-1,755,904,0,0
-462,120,0,0,0,0,0,0,0,0,0,-1,762,904,0,0
-455,120,0,0,0,0,0,0,0,0,0,-1,769,904,0,0
-448,120,0,0,0,0,0,0,0,0,0,-1,776,904,0,0
-441,120,0,0,0,0,0,0,0,0,0,-1,783,904,0,0
-434,120,0,0,0,0,0,0,0,0,0,-1,790,904,0,0
-427,120,0,0,0,0,0,0,0,0,0,-1,797,904,0,0
-420,120,0,0,0,0,0,0,0,0,0,-1,804,904,0,0
-413,120,0,0,0,0,0,0,0,0,0,-1,811,904,0,0
-406,120,0,0,0,0,0,0,0,0,0,-1,818,904,0,0
-399,120,0,0,0,0,0,0,0,0,0,-1,825,904,0,0
-392,120,0,0,0,0,0,0,0,0,0,-1,832,904,0,0
-385,120,0,0,0,0,0,0,0,0,0,-1,839,904,0,0
-378,120,0,0,0,0,0,0,0,0,0,-1,846,904,0,0
-371,120,0,0,0,0,0,0,0,0,0,-1,853,904,0,0
-364,120,0,0,0,0,0,0,0,0,0,-1,860,904,0,0
-357,120,0,0,0,0,0,0,0,0,0,-1,867,904,0,0
-350,120,0,0,0,0,0,0,0,0,0,-1,874,904,0,0
-343,120,0,0,0,0,0,0,0,0,0,-1,881,904,0,0
-336,120,0,0,0,0,0,0,0,0,0,-1,888,904,0,0
-329,120,0,0,0,0,0,0,0,0,0,-1,895,904,0,0
-322,120,0,0,0,0,0,0,0,0,0,-1,902,904,0,0
-315,120,0,0,0,0,0,0,0,0,0,-1,909,904,0,0
-308,120,0,0,0,0,0,0,0,0,0,-1,916,904,0,0
-301,120,0,0,0,0,0,0,0,0,0,-1,923,904,0,0
-294,120,0,0,0,0,0,0,0,0,0,-1,930,904,0,0
-287,120,0,0,0,0,0,0,0,0,0,-1,937,904,0,0
-280,120,0,0,0,0,0,0,0,0,0,-1,944,904,0,0
-273,120,0,0,0,0,0,0,0,0,0,-1,951,904,0,0
-266,120,0,0,0,0,0,0,0,0,0,-1,958,904,0,0
-259,120,0,0,0,0,0,0,0,0,0,-1,965,904,0,0
-252,120,0,0,0,0,0,0,0,0,0,-1,972,904,0,0
-245,120,0,0,0,0,0,0,0,0,0,-1,979,904,0,0
-238,120,0,0,0,0,0,0,0,0,0,-1,986,904,0,0
-231,120,0,0,0,0,0,0,0,0,0,-1,993,904,0,0
-224,120,0,0,0,0,0,0,0,0,0,-1,1000,904,0,0
-217,120,0,0,0,0,0,0,0,0,0,-1,1007,904,0,0
-210,120,0,0,0,0,0,0,0,0,0,-1,1014,904,0,0
-203,120,0,0,0,0,0,0,0,0,0,-1,1021,904,0,0
-196,120,0,0,0,0,0,0,0,0,0,-1,1028,904,0,0
-189,120,0,0,0,0,0,0,0,0,0,-1,1035,904,0,0
-182,120,0,0,0,0,0,0,0,0,0,-1,1042,904,0,0
-175,120,0,0,0,0,0,0,0,0,0,-1,1049,904,0,0
-168,120,0,0,0,0,0,0,0,0,0,-1,1056,904,0,0
-161,120,0,0,0,0,0,0,0,0,0,-1,1063,904,0,0
-154,120,0,0,0,0,0,0,0,0,0,-1,1070,904,0,0
-147,120,0,0,0,0,0,0,0,0,0,-1,1077,904,0,0
-140,120,0,0,0,0,0,0,0,0,0,-1,1084,904,0,0
-133,120,0,0,0,0,0,0,0,0,0,-1,1091,904,0,0
-126,120,0,0,0,0,0,0,0,0,0,-1,1098,904,0,0
-119,120,0,0,0,0,0,0,0,0,0,-1,1105,904,0,0
-112,120,0,0,0,0,0,0,0,0,0,-1,1112,904,0,0
-105,120,0,0,0,0,0,0,0,0,0,-1,1119,904,0,0
-98,120,0,0,0,0,0,0,0,0,0,-1,1126,904,0,0
-91,120,0,0,0,0,0,0,0,0,0,-1,1133,904,0,0
-84,120,0,0,0,0,0,0,0,0,0,-1,1140,904,0,0
-77,120,0,0,0,0,0,0,0,0,0,-1,1147,904,0,0
-70,120,0,0,0,0,0,0,0,0,0,-1,1154,904,0,0
-63,120,0,0,0,0,0,0,0,0,0,-1,1161,904,0,0
-56,120,0,0,0,0,0,0,0,0,0,-1,1168,904,0,0
-49,120,0,0,0,0,0,0,0,0,0,-1,1175,904,0,0
-42,120,0,0,0,0,0,0,0,0,0,-1,1182,904,0,0
-35,120,0,0,0,0,0,0,0,0,0,-1,1189,904,0,0
-28,120,0,0,0,0,0,0,0,0,0,-1,1196,904,0,0
-21,120,0,0,0,0,0,0,0,0,0,-1,1203,904,0,0
-14,120,0,0,0,0,0,0,0,0,0,-1,1210,904,0,0
-7,120,0,0,0,0,0,0,0,0,0,-1,1217,904,0,0
0,120,0,0,0,0,0,0,0,0,0,-1,1224,904,0,0
7,120,0,0,0,0,0,0,0,0,0,-1,1231,904,0,0
14,120,0,0,0,0,0,0,0,0,0,-1,1238,904,0,0
21,120,0,0,0,0,0,0,0,0,0,-1,1245,904,0,0
28,120,0,0,0,0,0,0,0,0,0,-1,1252,904,0,0
35,120,0,0,0,0,0,0,0,0,0,-1,1259,904,0,0
42,120,0,0,0,0,0,0,0,0,0,-1,1266,904,0,0
49,120,0,0,0,0,0,0,0,0,0,-1,1273,904,0,0
56,120,0,0,0,0,0,0,0,0,0,-1,1280,904,0,0
63,120,0,0,0,0,0,0,0,0,0,-1,1287,904,0,0
70,120,0,0,0,0,0,0,0,0,0,-1,1294,904,0,0
77,120,0,0,0,0,0,0,0,0,0,-1,1301,904,0,0
84,120,0,0,0,0,0,0,0,0,0,-1,1308,904,0,0
91,120,0,0,0,0,0,0,0,0,0,-1,1315,904,0,0
98,120,0,0,0,0,0,0,0,0,0,-1,1322,904,0,0
105,120,0,0,0,0,0,0,0,0,0,-1,1329,904,0,0
112,120,0,0,0,0,0,0,0,0,0,-1,1336,904,0,0
119,120,0,0,0,0,0,0,0,0,0,-1,1343,904,0,0
126,120,0,0,0,0,0,0,0,0,0,-1,1350,904,0,0
133,120,0,0,0,0,0,0,0,0,0,-1,1357,904,0,0
140,120,0,0,0,0,0,0,0,0,0,-1,1364,904,0,0
147,120,0,0,0,0,0,0,0,0,0,-1,1371,904,0,0
154,120,0,0,0,0,0,0,0,0,0,-1,1378,904,0,0
161,120,0,0,0,0,0,0,0,0,0,-1,1385,904,0,0
168,120,0,0,0,0,0,0,0,0,0,-1,1392,904,0,0
175,120,0,0,0,0,0,0,0,0,0,-1,1399,904,0,0
182,120,0,0,0,0,0,0,0,0,0,-1,1406,904,0,0
189,120,0,0,0,0,0,0,0,0,0,-1,1413,904,0,0
196,120,0,0,0,0,0,0,0,0,0,-1,1420,904,0,0
203,120,0,0,0,0,0,0,0,0,0,-1,1427,904,0,0
210,120,0,0,0,0,0,0,0,0,0,-1,1434,904,0,0
217,120,0,0,0,0,0,0,0,0,0,-1,1441,904,0,0
224,120,0,0,0,0,0,0,0,0,0,-1,1448,904,0,0
231,120,0,0,0,0,0,0,0,0,0,-1,1455,904,0,0
238,120,0,0,0,0,0,0,0,0,0,-1,1462,904,0,0
245,120,0,0,0,0,0,0,0,0,0,-1,1469,904,0,0
252,120,0,0,0,0,0,0,0,0,0,-1,1476,904,0,0
259,120,0,0,0,0,0,0,0,0,0,-1,1483,904,0,0
266,120,0,0,0,0,0,0,0,0,0,-1,1490,904,0,0
273,120,0,0,0,0,0,0,0,0,0,-1,1497,904,0,0
280,120,0,0,0,0,0,0,0,0,0,-1,1504,904,0,0
287,120,0,0,0,0,0,0,0,0,0,-1,1511,904,0,0
294,120,0,0,0,0,0,0,0,0,0,-1,1518,904,0,0
301,120,0,0,0,0,0,0,0,0,0,-1,1525,904,0,0
308,120,0,0,0,0,0,0,0,0,0,-1,1532,904,0,0
315,120,0,0,0,0,0,0,0,0,0,-1,1539,904,0,0
322,120,0,0,0,0,0,0,0,0,0,-1,1546,904,0,0
329,120,0,0,0,0,0,0,0,0,0,-1,1553,904,0,0
336,120,0,0,0,0,0,0,0,0,0,-1,1560,904,0,0
343,120,0,0,0,0,0,0,0,0,0,-1,1567,904,0,0
350,120,0,0,0,0,0,0,0,0,0,-1,1574,904,0,0
357,120,0,0,0,0,0,0,0,0,0,-1,1581,904,0,0
364,120,0,0,0,0,0,0,0,0,0,-1,1588,904,0,0
371,120,0,0,0,0,0,0,0,0,0,-1,1595,904,0,0
378,120,0,0,0,0,0,0,0,0,0,-1,1602,904,0,0
385,120,0,0,0,0,0,0,0,0,0,-1,1609,904,0,0
392,120,0,0,0,0,0,0,0,0,0,-1,1616,904,0,0
399,120,0,0,0,0,0,0,0,0,0,-1,1623,904,0,0
406,120,0,0,0,0,0,0,0,0,0,-1,1630,904,0,0
413,120,0,0,0,0,0,0,0,0,0,-1,1637,904,0,0
420,120,0,0,0,0,0,0,0,0,0,-1,1644,904,0,0
427,120,0,0,0,0,0,0,0,0,0,-1,1651,904,0,0
434,120,0,0,0,0,0,0,0,0,0,-1,1658,904,0,0
441,120,0,0,0,0,0,0,0,0,0,-1,1665,904,0,0
448,120,0,0,0,0,0,0,0,0,0,-1,1672,904,0,0
455,120,0,0,0,0,0,0,0,0,0,-1,1679,904,0,0
462,120,0,0,0,0,0,0,0,0,0,-1,1686,904,0,0
469,120,0,0,0,0,0,0,0,0,0,-1,1693,904,0,0
476,120,0,0,0,0,0,0,0,0,0,-1,1700,904,0,0
483,120,0,0,0,0,0,0,0,0,0,-1,1707,904,0,0
490,120,0,0,0,0,0,0,0,0,0,-1,1714,904,0,0
497,120,0,0,0,0,0,0,0,0,0,-1,1721,904,0,0
504,120,0,0,0,0,0,0,0,0,0,-1,1728,904,0,0
511,120,0,0,0,0,0,0,0,0,0,-1,1735,904,0,0
518,120,0,0,0,0,0,0,0,0,0,-1,1742,904,0,0
525,120,0,0,0,0,0,0,0,0,0,-1,1749,904,0,0
532,120,0,0,0,0,0,0,0,0,0,-1,1756,904,0,0
539,120,0,0,0,0,0,0,0,0,0,-1,1763,904,0,0
546,120,0,0,0,0,0,0,0,0,0,-1,1770,904,0,0
553,120,0,0,0,0,0,0,0,0,0,-1,1777,904,0,0
560,120,0,0,0,0,0,0,0,0,0,-1,1784,904,0,0
567,120,0,0,0,0,0,0,0,0,0,-1,1791,904,0,0
574,120,0,0,0,0,0,0,0,0,0,-1,1798,904,0,0
581,120,0,0,0,0,0,0,0,0,0,-1,1805,904,0,0
588,120,0,0,0,0,0,0,0,0,0,-1,1812,904,0,0
595,120,0,0,0,0,0,0,0,0,0,-1,1819,904,0,0
602,120,0,0,0,0,0,0,0,0,0,-1,1826,904,0,0
609,120,0,0,0,0,0,0,0,0,0,-1,1833,904,0,0
616,120,0,0,0,0,0,0,0,0,0,-1,1840,904,0,0
623,120,0,0,0,0,0,0,0,0,0,-1,1847,904,0,0
630,120,7.06641,1.13239,0,0,0,0,0,0,0,-1,1854,904,7.0664,-1.13238
637,120,7.06433,1.24329,0,0,0,0,0,0,0,-1,1861,904,7.06431,-1.24327
644,120,7.32202,0.849304,0.00114422,-0.000832295,0.00194512,0.00233773,-0.00202581,0.550357,0.00252144,0.0441405,1868,904,7.32207,-0.849294
651,120,7.06433,1.05157,-0.000664312,-0.000923279,0.00117324,0.00038657,-0.00197416,0.730439,0.0014621,0.0458701,1875,904,7.06431,-1.0516
658,120,6.99548,1.19159,-0.00250032,-0.0010107,0.000377273,-0.000920599,-0.00259042,1.33637,0.00151629,0.0433731,1882,904,6.99553,-1.19161
665,120,7.09448,1.09839,-0.00408369,-0.00107513,-0.000324989,-0.00104043,-0.00411839,-1.46441,0.00247285,0.0382634,1889,904,7.09445,-1.0984
672,120,7.15955,1.02301,-0.00531312,-0.00108067,-0.000899829,-0.000897304,-0.00549648,-1.36977,0.00340486,0.0370663,1896,904,7.15958,-1.02304
679,120,7.18738,1.03107,-0.00611628,-0.0011127,-0.00132259,-0.000784612,-0.00644437,-1.32764,0.00406006,0.0311922,1903,904,7.18739,-1.03105
686,120,7.19165,1.05072,-0.00665402,-0.00113009,-0.00161168,-0.000694252,-0.00708986,-1.30669,0.00451299,0.0169288,1910,904,7.19168,-1.05071
693,120,7.04614,1.03271,-0.00686689,-0.00103708,-0.00174103,-0.000556721,-0.00734726,-1.30159,0.00472354,0.025508,1917,904,7.04609,-1.03274
700,120,6.77173,0.994934,-0.0065826,-0.000876149,-0.00181037,-0.000350273,-0.00710847,-1.2881,0.00462665,0.0181371,1924,904,6.77173,-0.994937
707,120,6.67932,1.02924,-0.00591485,-0.000796326,-0.00180263,-0.000225202,-0.00648597,-1.26397,0.0042509,0.0175907,1931,904,6.67929,-1.02925
714,120,6.68958,1.08551,-0.0050156,-0.000803209,-0.00164938,-0.00023424,-0.00558457,-1.23862,0.00364748,0.015135,1938,904,6.68952,-1.08553
721,120,6.70447,1.13751,-0.00394269,-0.000286453,-0.00128054,0.000117422,-0.00434656,-1.26528,0.00293763,0.0132743,1945,904,6.70452,-1.13752
728,120,6.7301,1.17334,-0.00256232,0.000469034,-0.00086767,0.000699818,-0.00279311,-1.31083,0.00213394,0.00972626,1952,904,6.73004,-1.17332
735,120,6.71423,1.18829,-0.00073307,0.000449137,-0.000232454,0.000493201,-0.000777135,-1.38346,0.00073951,0.0121654,1959,904,6.71428,-1.18832
742,120,6.70251,1.23126,0.00138444,0.00183837,0.000278505,0.00197068,0.00125213,1.12729,0.00115159,0.0131643,1966,904,6.70251,-1.23126
749,120,6.68884,1.25726,0.00338283,0.0029862,0.000660215,0.00387387,0.00249516,0.639494,0.00226733,0.0105423,1973,904,6.68889,-1.25728
756,120,6.67004,1.27563,0.00544908,0.0043962,0.00114094,0.00617918,0.0036661,0.569247,0.00358819,0.0121429,1980,904,6.67,-1.27566
763,120,6.64832,1.27258,0.00761778,0.00614899,0.00155148,0.0085999,0.00516687,0.564348,0.00499868,0.0206222,1987,904,6.64827,-1.27261
770,120,6.76794,1.45044,0.0100503,0.00831456,0.00189773,0.0112692,0.00709568,0.570933,0.00657879,0.0395294,1994,904,6.768,-1.45042
777,120,6.8949,1.64435,0,0,0,0,0,0,0,-1,2001,904,6.89484,-1.64436
784,120,7.06702,1.80945,0.0161071,0.0141761,0.00220387,0.0175477,0.0127355,0.578945,0.0104697,0.0467205,2008,904,7.06697,-1.80943
791,120,7.18481,1.96857,0.0194981,0.0180361,0.00182586,0.0207338,0.0168003,0.594992,0.0127158,0.0449457,2015,904,7.18483,-1.96855
798,120,7.18884,2.07263,0.0228998,0.0227079,0.000734993,0.0235451,0.0220626,0.720482,0.0152267,0.0461499,2022,904,7.18889,-2.07265
805,120,0,0,0,0,0,0,0,0,0,-1,2029,904,0,0
812,120,0,0,0,0,0,0,0,0,0,-1,2036,904,0,0
-700,113,0,0,0,0,0,0,0,0,0,-1,524,911,0,0
-693,113,0,0,0,0,0,0,0,0,0,-1,531,911,0,0
-686,113,0,0,0,0,0,0,0,0,0,-1,538,911,0,0
-679,113,-3.10968,2.12146,0.0415873,-0.00882821,-0.0126207,0.0445702,-0.0118111,-0.232091,0.0343345,0.048018,545,911,-3.10969,-2.12148
-672,113,-2.6181,2.19482,0.0313605,-0.0111537,-0.0096702,0.0334567,-0.0132499,-0.213467,0.0277946,0.0491679,552,911,-2.6181,-2.19484
-665,113,-1.88171,1.21033,0,0,0,0,0,0,0,-1,559,911,-1.88173,-1.2103
-658,113,-2.03302,1.10083,0,0,0,0,0,0,0,-1,566,911,-2.03299,-1.10085
-651,113,-2.16223,0.961487,0,0,0,0,0,0,0,-1,573,911,-2.16223,-0.961512
-644,113,-2.38123,0.936707,0.00833557,-0.00859419,-0.00235395,0.00865678,-0.00891539,-0.135616,0.0101457,0.0404891,580,911,-2.38125,-0.936677
-637,113,-2.44275,0.919983,0.00548488,-0.00688335,-0.00136527,0.00563379,-0.00703226,-0.108643,0.00732759,0.0314347,587,911,-2.44277,-0.920004
-630,113,-2.39496,0.926208,0.00290832,-0.00535154,-0.000512393,0.00293998,-0.00538321,-0.0617187,0.00487392,0.0142105,594,911,-2.39498,-0.926212
-623,113,-2.38159,0.90094,0.00101739,-0.00421441,0.00020041,0.00102506,-0.00422207,0.0382314,0.00321141,0.00944231,601,911,-2.3816,-0.900931
-616,113,-2.38556,0.871887,-5.89797e-05,-0.00274884,0.000511431,3.49784e-05,-0.00284279,0.18169,0.00190696,0.00878805,608,911,-2.38556,-0.871868
-609,113,-2.38824,0.84021,-0.00109577,-0.00190486,0.000830725,-0.000576325,-0.00242431,0.55881,0.00146245,0.010029,615,911,-2.38822,-0.840186
-602,113,-2.41431,0.820557,-0.00229197,-0.00122147,0.00144006,-0.000220409,-0.00329304,0.963329,0.0021257,0.0136861,622,911,-2.41429,-0.820566
-595,113,-2.41284,0.798035,-0.00316229,-0.000771959,0.00159213,2.36784e-05,-0.00395793,1.10736,0.00264655,0.0175124,629,911,-2.41286,-0.798039
-588,113,-2.40515,0.745667,-0.00395721,-0.000767313,0.00181465,5.36917e-05,-0.00477821,1.14592,0.00320352,0.017143,636,911,-2.40517,-0.745656
-581,113,-2.41748,0.710327,-0.00489576,-0.000785601,0.00196689,3.96557e-06,-0.00568533,1.18906,0.00379154,0.0181378,643,911,-2.41748,-0.710346
-574,113,-2.38318,0.665161,-0.00572928,-0.000878735,0.00191301,-0.000215069,-0.00639295,1.23687,0.00419212,0.0165737,650,911,-2.38319,-0.665151
-567,113,-2.52783,0.737854,-0.00607078,-0.000849225,0.00169421,-0.000347689,-0.00657232,1.28299,0.00427037,0.0298907,657,911,-2.52785,-0.737836
-560,113,-2.80505,0.990723,-0.00595113,-0.00108892,0.00145695,-0.000685779,-0.00635427,1.30085,0.0040271,0.0466021,664,911,-2.80506,-0.99071
-553,113,-2.82892,0.909058,-0.00554556,-0.00113878,0.000990405,-0.000926422,-0.00575791,1.35958,0.00357009,0.0385962,671,911,-2.82893,-0.909042
-546,113,-2.88544,0.835266,-0.004681,-0.00120314,0.000298688,-0.00117768,-0.00470646,1.48574,0.00282804,0.0354349,678,911,-2.88544,-0.835267
-539,113,-2.80902,0.705933,-0.00317108,-0.00131405,-0.000650804,-0.00110869,-0.00337645,-1.26513,0.00198731,0.0376904,685,911,-2.80901,-0.705954
-532,113,-2.72925,0.779663,-0.000951784,-0.00155,-0.00185081,0.000623928,-0.00312572,-0.705286,0.00231992,0.0371341,692,911,-2.72927,-0.779666
-525,113,-2.89667,0.815369,0.00207229,-0.00202973,-0.00327312,0.00388392,-0.00384135,-0.505516,0.00446021,0.035695,699,911,-2.89667,-0.815365
-518,113,-3.01086,0.855957,0.00583133,-0.00293273,-0.00478773,0.00793965,-0.00504104,-0.414806,0.00755643,0.0393419,706,911,-3.01088,-0.855979
-511,113,-2.95227,1.1264,0.00966064,-0.00452646,-0.00587806,0.0117796,-0.0066454,-0.345984,0.0107745,0.0409062,713,911,-2.95227,-1.12639
-504,113,0,0,0,0,0,0,0,0,0,-1,720,911,0,0
-497,113,0,0,0,0,0,0,0,0,0,-1,727,911,0,0
-490,113,0,0,0,0,0,0,0,0,0,-1,734,911,0,0
-483,113,0,0,0,0,0,0,0,0,0,-1,741,911,0,0
-476,113,0,0,0,0,0,0,0,0,0,-1,748,911,0,0
-469,113,0,0,0,0,0,0,0,0,0,-1,755,911,0,0
-462,113,0,0,0,0,0,0,0,0,0,-1,762,911,0,0
-455,113,0,0,0,0,0,0,0,0,0,-1,769,911,0,0
-448,113,0,0,0,0,0,0,0,0,0,-1,776,911,0,0
-441,113,0,0,0,0,0,0,0,0,0,-1,783,911,0,0
-434,113,0,0,0,0,0,0,0,0,0,-1,790,911,0,0
-427,113,0,0,0,0,0,0,0,0,0,-1,797,911,0,0
-420,113,0,0,0,0,0,0,0,0,0,-1,804,911,0,0
-413,113,0,0,0,0,0,0,0,0,0,-1,811,911,0,0
-406,113,0,0,0,0,0,0,0,0,0,-1,818,911,0,0
-399,113,0,0,0,0,0,0,0,0,0,-1,825,911,0,0
-392,113,0,0,0,0,0,0,0,0,0,-1,832,911,0,0
-385,113,0,0,0,0,0,0,0,0,0,-1,839,911,0,0
-378,113,0,0,0,0,0,0,0,0,0,-1,846,911,0,0
-371,113,0,0,0,0,0,0,0,0,0,-1,853,911,0,0
-364,113,0,0,0,0,0,0,0,0,0,-1,860,911,0,0
-357,113,0,0,0,0,0,0,0,0,0,-1,867,911,0,0
-350,113,0,0,0,0,0,0,0,0,0,-1,874,911,0,0
-343,113,0,0,0,0,0,0,0,0,0,-1,881,911,0,0
-336,113,0,0,0,0,0,0,0,0,0,-1,888,911,0,0
-329,113,0,0,0,0,0,0,0,0,0,-1,895,911,0,0
-322,113,0,0,0,0,0,0,0,0,0,-1,902,911,0,0
-315,113,0,0,0,0,0,0,0,0,0,-1,909,911,0,0
-308,113,0,0,0,0,0,0,0,0,0,-1,916,911,0,0
-301,113,0,0,0,0,0,0,0,0,0,-1,923,911,0,0
-294,113,0,0,0,0,0,0,0,0,0,-1,930,911,0,0
-287,113,0,0,0,0,0,0,0,0,0,-1,937,911,0,0
-280,113,0,0,0,0,0,0,0,0,0,-1,944,911,0,0
-273,113,0,0,0,0,0,0,0,0,0,-1,951,911,0,0
-266,113,0,0,0,0,0,0,0,0,0,-1,958,911,0,0
-259,113,0,0,0,0,0,0,0,0,0,-1,965,911,0,0
-252,113,0,0,0,0,0,0,0,0,0,-1,972,911,0,0
-245,113,0,0,0,0,0,0,0,0,0,-1,979,911,0,0
-238,113,0,0,0,0,0,0,0,0,0,-1,986,911,0,0
-231,113,0,0,0,0,0,0,0,0,0,-1,993,911,0,0
-224,113,0,0,0,0,0,0,0,0,0,-1,1000,911,0,0
-217,113,0,0,0,0,0,0,0,0,0,-1,1007,911,0,0
-210,113,0,0,0,0,0,0,0,0,0,-1,1014,911,0,0
-203,113,0,0,0,0,0,0,0,0,0,-1,1021,911,0,0
-196,113,0,0,0,0,0,0,0,0,0,-1,1028,911,0,0
-189,113,0,0,0,0,0,0,0,0,0,-1,1035,911,0,0
-182,113,0,0,0,0,0,0,0,0,0,-1,1042,911,0,0
-175,113,0,0,0,0,0,0,0,0,0,-1,1049,911,0,0
-168,113,0,0,0,0,0,0,0,0,0,-1,1056,911,0,0
-161,113,0,0,0,0,0,0,0,0,0,-1,1063,911,0,0
-154,113,0,0,0,0,0,0,0,0,0,-1,1070,911,0,0
-147,113,0,0,0,0,0,0,0,0,0,-1,1077,911,0,0
-140,113,0,0,0,0,0,0,0,0,0,-1,1084,911,0,0
-133,113,0,0,0,0,0,0,0,0,0,-1,1091,911,0,0
-126,113,0,0,0,0,0,0,0,0,0,-1,1098,911,0,0
-119,113,0,0,0,0,0,0,0,0,0,-1,1105,911,0,0
-112,113,0,0,0,0,0,0,0,0,0,-1,1112,911,0,0
-105,113,0,0,0,0,0,0,0,0,0,-1,1119,911,0,0
-98,113,0,0,0,0,0,0,0,0,0,-1,1126,911,0,0
-91,113,0,0,0,0,0,0,0,0,0,-1,1133,911,0,0
-84,113,0,0,0,0,0,0,0,0,0,-1,1140,911,0,0
-77,113,0,0,0,0,0,0,0,0,0,-1,1147,911,0,0
-70,113,0,0,0,0,0,0,0,0,0,-1,1154,911,0,0
-63,113,0,0,0,0,0,0,0,0,0,-1,1161,911,0,0
-56,113,0,0,0,0,0,0,0,0,0,-1,1168,911,0,0
-49,113,0,0,0,0,0,0,0,0,0,-1,1175,911,0,0
-42,113,0,0,0,0,0,0,0,0,0,-1,1182,911,0,0
-35,113,0,0,0,0,0,0,0,0,0,-1,1189,911,0,0
-28,113,0,0,0,0,0,0,0,0,0,-1,1196,911,0,0
-21,113,0,0,0,0,0,0,0,0,0,-1,1203,911,0,0
-14,113,0,0,0,0,0,0,0,0,0,-1,1210,911,0,0
-7,113,0,0,0,0,0,0,0,0,0,-1,1217,911,0,0
0,113,0,0,0,0,0,0,0,0,0,-1,1224,911,0,0
7,113,0,0,0,0,0,0,0,0,0,-1,1231,911,0,0
14,113,0,0,0,0,0,0,0,0,0,-1,1238,911,0,0
21,113,0,0,0,0,0,0,0,0,0,-1,1245,911,0,0
28,113,0,0,0,0,0,0,0,0,0,-1,1252,911,0,0
35,113,0,0,0,0,0,0,0,0,0,-1,1259,911,0,0
42,113,0,0,0,0,0,0,0,0,0,-1,1266,911,0,0
49,113,0,0,0,0,0,0,0,0,0,-1,1273,911,0,0
56,113,0,0,0,0,0,0,0,0,0,-1,1280,911,0,0
63,113,0,0,0,0,0,0,0,0,0,-1,1287,911,0,0
70,113,0,0,0,0,0,0,0,0,0,-1,1294,911,0,0
77,113,0,0,0,0,0,0,0,0,0,-1,1301,911,0,0
84,113,0,0,0,0,0,0,0,0,0,-1,1308,911,0,0
91,113,0,0,0,0,0,0,0,0,0,-1,1315,911,0,0
98,113,0,0,0,0,0,0,0,0,0,-1,1322,911,0,0
105,113,0,0,0,0,0,0,0,0,0,-1,1329,911,0,0
112,113,0,0,0,0,0,0,0,0,0,-1,1336,911,0,0
119,113,0,0,0,0,0,0,0,0,0,-1,1343,911,0,0
126,113,0,0,0,0,0,0,0,0,0,-1,1350,911,0,0
133,113,0,0,0,0,0,0,0,0,0,-1,1357,911,0,0
140,113,0,0,0,0,0,0,0,0,0,-1,1364,911,0,0
147,113,0,0,0,0,0,0,0,0,0,-1,1371,911,0,0
154,113,0,0,0,0,0,0,0,0,0,-1,1378,911,0,0
161,113,0,0,0,0,0,0,0,0,0,-1,1385,911,0,0
168,113,0,0,0,0,0,0,0,0,0,-1,1392,911,0,0
175,113,0,0,0,0,0,0,0,0,0,-1,1399,911,0,0
182,113,0,0,0,0,0,0,0,0,0,-1,1406,911,0,0
189,113,0,0,0,0,0,0,0,0,0,-1,1413,911,0,0
196,113,0,0,0,0,0,0,0,0,0,-1,1420,911,0,0
203,113,0,0,0,0,0,0,0,0,0,-1,1427,911,0,0
210,113,0,0,0,0,0,0,0,0,0,-1,1434,911,0,0
217,113,0,0,0,0,0,0,0,0,0,-1,1441,911,0,0
224,113,0,0,0,0,0,0,0,0,0,-1,1448,911,0,0
231,113,0,0,0,0,0,0,0,0,0,-1,1455,911,0,0
238,113,0,0,0,0,0,0,0,0,0,-1,1462,911,0,0
245,113,0,0,0,0,0,0,0,0,0,-1,1469,911,0,0
252,113,0,0,0,0,0,0,0,0,0,-1,1476,911,0,0
259,113,0,0,0,0,0,0,0,0,0,-1,1483,911,0,0
266,113,0,0,0,0,0,0,0,0,0,-1,1490,911,0,0
273,113,0,0,0,0,0,0,0,0,0,-1,1497,911,0,0
280,113,0,0,0,0,0,0,0,0,0,-1,1504,911,0,0
287,113,0,0,0,0,0,0,0,0,0,-1,1511,911,0,0
294,113,0,0,0,0,0,0,0,0,0,-1,1518,911,0,0
301,113,0,0,0,0,0,0,0,0,0,-1,1525,911,0,0
308,113,0,0,0,0,0,0,0,0,0,-1,1532,911,0,0
315,113,0,0,0,0,0,0,0,0,0,-1,1539,911,0,0
322,113,0,0,0,0,0,0,0,0,0,-1,1546,911,0,0
329,113,0,0,0,0,0,0,0,0,0,-1,1553,911,0,0
336,113,0,0,0,0,0,0,0,0,0,-1,1560,911,0,0
343,113,0,0,0,0,0,0,0,0,0,-1,1567,911,0,0
350,113,0,0,0,0,0,0,0,0,0,-1,1574,911,0,0
357,113,0,0,0,0,0,0,0,0,0,-1,1581,911,0,0
364,113,0,0,0,0,0,0,0,0,0,-1,1588,911,0,0
371,113,0,0,0,0,0,0,0,0,0,-1,1595,911,0,0
378,113,0,0,0,0,0,0,0,0,0,-1,1602,911,0,0
385,113,0,0,0,0,0,0,0,0,0,-1,1609,911,0,0
392,113,0,0,0,0,0,0,0,0,0,-1,1616,911,0,0
399,113,0,0,0,0,0,0,0,0,0,-1,1623,911,0,0
406,113,0,0,0,0,0,0,0,0,0,-1,1630,911,0,0
413,113,0,0,0,0,0,0,0,0,0,-1,1637,911,0,0
420,113,0,0,0,0,0,0,0,0,0,-1,1644,911,0,0
427,113,0,0,0,0,0,0,0,0,0,-1,1651,911,0,0
434,113,0,0,0,0,0,0,0,0,0,-1,1658,911,0,0
441,113,0,0,0,0,0,0,0,0,0,-1,1665,911,0,0
448,113,0,0,0,0,0,0,0,0,0,-1,1672,911,0,0
455,113,0,0,0,0,0,0,0,0,0,-1,1679,911,0,0
462,113,0,0,0,0,0,0,0,0,0,-1,1686,911,0,0
469,113,0,0,0,0,0,0,0,0,0,-1,1693,911,0,0
476,113,0,0,0,0,0,0,0,0,0,-1,1700,911,0,0
483,113,0,0,0,0,0,0,0,0,0,-1,1707,911,0,0
490,113,0,0,0,0,0,0,0,0,0,-1,1714,911,0,0
497,113,0,0,0,0,0,0,0,0,0,-1,1721,911,0,0
504,113,0,0,0,0,0,0,0,0,0,-1,1728,911,0,0
511,113,0,0,0,0,0,0,0,0,0,-1,1735,911,0,0
518,113,0,0,0,0,0,0,0,0,0,-1,1742,911,0,0
525,113,0,0,0,0,0,0,0,0,0,-1,1749,911,0,0
532,113,0,0,0,0,0,0,0,0,0,-1,1756,911,0,0
539,113,0,0,0,0,0,0,0,0,0,-1,1763,911,0,0
546,113,0,0,0,0,0,0,0,0,0,-1,1770,911,0,0
553,113,0,0,0,0,0,0,0,0,0,-1,1777,911,0,0
560,113,0,0,0,0,0,0,0,0,0,-1,1784,911,0,0
567,113,0,0,0,0,0,0,0,0,0,-1,1791,911,0,0
574,113,0,0,0,0,0,0,0,0,0,-1,1798,911,0,0
581,113,0,0,0,0,0,0,0,0,0,-1,1805,911,0,0
588,113,0,0,0,0,0,0,0,0,0,-1,1812,911,0,0
595,113,0,0,0,0,0,0,0,0,0,-1,1819,911,0,0
602,113,0,0,0,0,0,0,0,0,0,-1,1826,911,0,0
609,113,0,0,0,0,0,0,0,0,0,-1,1833,911,0,0
616,113,0,0,0,0,0,0,0,0,0,-1,1840,911,0,0
623,113,0,0,0,0,0,0,0,0,0,-1,1847,911,0,0
630,113,7.20337,0.861511,0.00342548,-0.000582522,0.00272656,0.00480528,-0.00196232,0.468484,0.00402056,0.037985,1854,911,7.20339,-0.861518
637,113,7.28394,0.904907,0.00269487,-0.000918695,0.00248401,0.0039597,-0.00218352,0.47097,0.00359587,0.0402829,1861,911,7.28399,-0.90491
644,113,7.26709,1.05151,0.00159395,-0.00105321,0.00198438,0.00265567,-0.00211492,0.491282,0.00276019,0.0410696,1868,911,7.26706,-1.05153
651,113,7.06323,1.27283,7.1976e-05,-0.00111062,0.00132172,0.000928631,-0.00196728,0.575065,0.00170742,0.0419074,1875,911,7.06317,-1.27286
658,113,7.02551,1.23541,-0.00160105,-0.00114809,0.000579328,-0.000752543,-0.00199659,0.971734,0.00116432,0.0409603,1882,911,7.02549,-1.23539
665,113,7.13757,1.12646,-0.00312553,-0.00116972,-0.000107725,-0.0011638,-0.00313144,-1.51594,0.00182769,0.0380535,1889,911,7.13763,-1.12645
672,113,7.11292,1.18365,-0.00435329,-0.00114277,-0.000656674,-0.00101365,-0.00448241,-1.37664,0.00271423,0.0380215,1896,911,7.11296,-1.18364
679,113,7.18164,1.05707,-0.00522235,-0.00114687,-0.00109365,-0.000871934,-0.00549728,-1.32451,0.00341156,0.0328665,1903,911,7.18165,-1.05706
686,113,7.19287,1.01874,-0.00586616,-0.00115127,-0.00141138,-0.000761074,-0.00625635,-1.30107,0.00394178,0.0234296,1910,911,7.19287,-1.01873
693,113,7.10376,1.13995,-0.00622259,-0.0010559,-0.0015728,-0.000614785,-0.00666371,-1.29736,0.00425239,0.024119,1917,911,7.10375,-1.13997
700,113,6.89954,1.06061,-0.00610713,-0.000868025,-0.00168535,-0.000372699,-0.00660245,-1.28494,0.00428281,0.0235459,1924,911,6.89952,-1.0606
707,113,6.71899,0.989014,-0.00559982,-0.000797953,-0.00168962,-0.000263022,-0.00613475,-1.26418,0.00400504,0.0171682,1931,911,6.71905,-0.989039
714,113,6.70142,1.02765,-0.00487692,-0.000798671,-0.00151845,-0.00029541,-0.00538018,-1.25076,0.00349248,0.0152382,1938,911,6.70139,-1.02766
721,113,6.7229,1.10248,-0.00400702,-0.000361023,-0.00115569,-2.55627e-05,-0.00434249,-1.28829,0.00288651,0.0143323,1945,911,6.72292,-1.10246
728,113,6.76123,1.17694,-0.00284796,0.000277562,-0.00075298,0.000449506,-0.0030199,-1.34629,0.00217862,0.0140133,1952,911,6.76128,-1.17697
735,113,6.75232,1.1983,-0.00124695,0.000398122,-8.88472e-05,0.000402906,-0.00125173,-1.517,0.000996327,0.0140433,1959,911,6.75228,-1.19832
742,113,6.74268,1.23657,0.000664542,0.00171195,0.000481422,0.0018996,0.000476886,1.19912,0.00114115,0.0120587,1966,911,6.74268,-1.23655
749,113,6.74048,1.26471,0.00252405,0.00279761,0.000903666,0.00357479,0.00174687,0.860507,0.00206408,0.00884014,1973,911,6.74048,-1.26469
756,113,6.73169,1.28583,0.0044434,0.00417466,0.00146874,0.0057839,0.00283416,0.739781,0.00333956,0.01019,1980,911,6.73167,-1.28585
763,113,6.70325,1.35352,0.00641649,0.00589215,0.00197488,0.00814652,0.00416212,0.719409,0.00470377,0.0192874,1987,911,6.70326,-1.3535
770,113,6.69556,1.45801,0.00857535,0.00800233,0.00240788,0.0107137,0.00586398,0.726183,0.00619479,0.0389402,1994,911,6.69551,-1.458
777,113,6.67627,1.61835,0.0111164,0.0105814,0.00274631,0.0136082,0.00808959,0.736851,0.0079033,0.0462961,2001,911,6.67631,-1.61835
784,113,6.79907,1.78564,0.0140331,0.0136936,0.00286935,0.0167377,0.010989,0.755847,0.00982011,0.0446863,2008,911,6.79906,-1.78562
791,113,6.98901,1.87683,0.0171971,0.0174064,0.00255198,0.0198559,0.0147476,0.805889,0.0119056,0.0447956,2015,911,6.98899,-1.87685
798,113,6.9856,1.43463,0.0204699,0.0218258,0.00148928,0.0227842,0.0195115,0.998999,0.0142246,0.0408219,2022,911,6.98559,-1.43465
805,113,0,0,0,0,0,0,0,0,0,-1,2029,911,0,0
812,113,0,0,0,0,0,0,0,0,0,-1,2036,911,0,0
-700,106,0,0,0,0,0,0,0,0,0,-1,524,918,0,0
-693,106,0,0,0,0,0,0,0,0,0,-1,531,918,0,0
-686,106,0,0,0,0,0,0,0,0,0,-1,538,918,0,0
-679,106,-2.77289,2.60822,0.0425491,-0.00506908,-0.0102733,0.0446709,-0.00719091,-0.203676,0.0324443,0.0459541,545,918,-2.7729,-2.60824
-672,106,-2.54895,2.66498,0.0312095,-0.00782665,-0.00750443,0.0326025,-0.00921962,-0.183531,0.0253728,0.0487009,552,918,-2.54892,-2.66495
-665,106,-2.46631,2.70551,0.0225567,-0.00892302,-0.00531903,0.0234312,-0.00979747,-0.162942,0.0197155,0.0487789,559,918,-2.46632,-2.70548
-658,106,-1.5368,0.389404,0,0,0,0,0,0,0,-1,566,918,-1.5368,-0.38943
-651,106,-2.18848,0.655762,0,0,0,0,0,0,0,-1,573,918,-2.18847,-0.655767
-644,106,-2.31726,0.814331,0.00693834,-0.00719372,-0.00121333,0.00704176,-0.00729714,-0.0850276,0.008279,0.0402358,580,918,-2.31724,-0.814321
-637,106,-2.48358,0.958496,0.00422254,-0.005869,-0.000474698,0.00424482,-0.00589128,-0.0469011,0.00587776,0.0262783,587,918,-2.48361,-0.958508
-630,106,-2.43231,0.943481,0.00172183,-0.00478415,0.000170384,0.00172629,-0.00478861,0.0261649,0.00389743,0.010703,594,918,-2.43229,-0.94349
-623,106,-2.41217,0.90448,-2.66579e-05,-0.00387446,0.000727701,0.000106367,-0.00400748,0.180805,0.00270781,0.00960074,601,918,-2.41217,-0.904457
-616,106,-2.41547,0.861633,-0.000845184,-0.00241619,0.00086826,-0.000459837,-0.00280154,0.417699,0.00173485,0.0101199,608,918,-2.41547,-0.861661
-609,106,-2.42542,0.835205,-0.00169139,-0.00178387,0.00109446,-0.000642195,-0.00283307,0.764287,0.0017152,0.010511,615,918,-2.42539,-0.83522
-602,106,-2.45605,0.812073,-0.00260677,-0.00110195,0.00155431,-0.000127508,-0.00358121,1.01081,0.00234613,0.0118821,622,918,-2.45605,-0.812096
-595,106,-2.47546,0.798157,-0.0031912,-0.000671909,0.00155786,7.18532e-05,-0.00393496,1.12537,0.00264758,0.0145068,629,918,-2.47546,-0.798159
-588,106,-2.44745,0.753296,-0.00382157,-0.000637494,0.00170472,0.000102988,-0.00456205,1.16101,0.00307627,0.0148659,636,918,-2.44743,-0.753304
-581,106,-2.40973,0.712097,-0.00464679,-0.000600202,0.00182118,9.87134e-05,-0.00534571,1.20436,0.00359716,0.0141664,643,918,-2.40973,-0.712126
-574,106,-2.40643,0.672058,-0.0053348,-0.000637354,0.00172424,-7.24017e-05,-0.00589975,1.25417,0.00390926,0.0148952,650,918,-2.40644,-0.672046
-567,106,-2.61322,0.744141,-0.00557309,-0.000551668,0.00145815,-0.000158956,-0.0059658,1.30772,0.00392529,0.0245003,657,918,-2.6132,-0.744114
-560,106,-2.83643,0.905701,-0.0053859,-0.000748201,0.00118011,-0.000465181,-0.00566892,1.33542,0.00363416,0.0346679,664,918,-2.83645,-0.905681
-553,106,-2.91876,0.871094,-0.00489584,-0.000798794,0.000676953,-0.000689839,-0.0050048,1.41122,0.00313201,0.0344145,671,918,-2.91876,-0.871105
-546,106,-2.90979,0.561096,-0.00394234,-0.000853311,-5.17527e-05,-0.000852445,-0.00394321,-1.55405,0.00239575,0.0363651,678,918,-2.90979,-0.561116
-539,106,-2.77814,0.571472,-0.00238051,-0.000987683,-0.00102168,-0.00044764,-0.00292055,-1.08454,0.0018163,0.0410568,685,918,-2.77812,-0.571487
-532,106,-2.61774,0.74292,-0.000152643,-0.00128504,-0.00223009,0.001582,-0.00301968,-0.661079,0.00269966,0.0393369,692,918,-2.61775,-0.742892
-525,106,-2.77155,0.802551,0.00282693,-0.00188554,-0.00364714,0.00481276,-0.00387136,-0.498602,0.00502359,0.0358989,699,918,-2.77157,-0.802523
-518,106,-2.92645,0.638733,0.0064065,-0.00299234,-0.00513664,0.00866909,-0.00525493,-0.41491,0.00811919,0.0390645,706,918,-2.92645,-0.638706
-511,106,0,0,0,0,0,0,0,0,0,-1,713,918,0,0
-504,106,0,0,0,0,0,0,0,0,0,-1,720,918,0,0
-497,106,0,0,0,0,0,0,0,0,0,-1,727,918,0,0
-490,106,0,0,0,0,0,0,0,0,0,-1,734,918,0,0
-483,106,0,0,0,0,0,0,0,0,0,-1,741,918,0,0
-476,106,0,0,0,0,0,0,0,0,0,-1,748,918,0,0
-469,106,0,0,0,0,0,0,0,0,0,-1,755,918,0,0
-462,106,0,0,0,0,0,0,0,0,0,-1,762,918,0,0
-455,106,0,0,0,0,0,0,0,0,0,-1,769,918,0,0
-448,106,0,0,0,0,0,0,0,0,0,-1,776,918,0,0
-441,106,0,0,0,0,0,0,0,0,0,-1,783,918,0,0
-434,106,0,0,0,0,0,0,0,0,0,-1,790,918,0,0
-427,106,0,0,0,0,0,0,0,0,0,-1,797,918,0,0
-420,106,0,0,0,0,0,0,0,0,0,-1,804,918,0,0
-413,106,0,0,0,0,0,0,0,0,0,-1,811,918,0,0
-406,106,0,0,0,0,0,0,0,0,0,-1,818,918,0,0
-399,106,0,0,0,0,0,0,0,0,0,-1,825,918,0,0
-392,106,0,0,0,0,0,0,0,0,0,-1,832,918,0,0
-385,106,0,0,0,0,0,0,0,0,0,-1,839,918,0,0
-378,106,0,0,0,0,0,0,0,0,0,-1,846,918,0,0
-371,106,0,0,0,0,0,0,0,0,0,-1,853,918,0,0
-364,106,0,0,0,0,0,0,0,0,0,-1,860,918,0,0
-357,106,0,0,0,0,0,0,0,0,0,-1,867,918,0,0
-350,106,0,0,0,0,0,0,0,0,0,-1,874,918,0,0
-343,106,0,0,0,0,0,0,0,0,0,-1,881,918,0,0
-336,106,0,0,0,0,0,0,0,0,0,-1,888,918,0,0
-329,106,0,0,0,0,0,0,0,0,0,-1,895,918,0,0
-322,106,0,0,0,0,0,0,0,0,0,-1,902,918,0,0
-315,106,0,0,0,0,0,0,0,0,0,-1,909,918,0,0
-308,106,0,0,0,0,0,0,0,0,0,-1,916,918,0,0
-301,106,0,0,0,0,0,0,0,0,0,-1,923,918,0,0
-294,106,0,0,0,0,0,0,0,0,0,-1,930,918,0,0
-287,106,0,0,0,0,0,0,0,0,0,-1,937,918,0,0
-280,106,0,0,0,0,0,0,0,0,0,-1,944,918,0,0
-273,106,0,0,0,0,0,0,0,0,0,-1,951,918,0,0
-266,106,0,0,0,0,0,0,0,0,0,-1,958,918,0,0
-259,106,0,0,0,0,0,0,0,0,0,-1,965,918,0,0
-252,106,0,0,0,0,0,0,0,0,0,-1,972,918,0,0
-245,106,0,0,0,0,0,0,0,0,0,-1,979,918,0,0
-238,106,0,0,0,0,0,0,0,0,0,-1,986,918,0,0
-231,106,0,0,0,0,0,0,0,0,0,-1,993,918,0,0
-224,106,0,0,0,0,0,0,0,0,0,-1,1000,918,0,0
-217,106,0,0,0,0,0,0,0,0,0,-1,1007,918,0,0
-210,106,0,0,0,0,0,0,0,0,0,-1,1014,918,0,0
-203,106,0,0,0,0,0,0,0,0,0,-1,1021,918,0,0
-196,106,0,0,0,0,0,0,0,0,0,-1,1028,918,0,0
-189,106,0,0,0,0,0,0,0,0,0,-1,1035,918,0,0
-182,106,0,0,0,0,0,0,0,0,0,-1,1042,918,0,0
-175,106,0,0,0,0,0,0,0,0,0,-1,1049,918,0,0
-168,106,0,0,0,0,0,0,0,0,0,-1,1056,918,0,0
-161,106,0,0,0,0,0,0,0,0,0,-1,1063,918,0,0
-154,106,0,0,0,0,0,0,0,0,0,-1,1070,918,0,0
-147,106,0,0,0,0,0,0,0,0,0,-1,1077,918,0,0
-140,106,0,0,0,0,0,0,0,0,0,-1,1084,918,0,0
-133,106,0,0,0,0,0,0,0,0,0,-1,1091,918,0,0
-126,106,0,0,0,0,0,0,0,0,0,-1,1098,918,0,0
-119,106,0,0,0,0,0,0,0,0,0,-1,1105,918,0,0
-112,106,0,0,0,0,0,0,0,0,0,-1,1112,918,0,0
-105,106,0,0,0,0,0,0,0,0,0,-1,1119,918,0,0
-98,106,0,0,0,0,0,0,0,0,0,-1,1126,918,0,0
-91,106,0,0,0,0,0,0,0,0,0,-1,1133,918,0,0
-84,106,0,0,0,0,0,0,0,0,0,-1,1140,918,0,0
-77,106,0,0,0,0,0,0,0,0,0,-1,1147,918,0,0
-70,106,0,0,0,0,0,0,0,0,0,-1,1154,918,0,0
-63,106,0,0,0,0,0,0,0,0,0,-1,1161,918,0,0
-56,106,0,0,0,0,0,0,0,0,0,-1,1168,918,0,0
-49,106,0,0,0,0,0,0,0,0,0,-1,1175,918,0,0
-42,106,0,0,0,0,0,0,0,0,0,-1,1182,918,0,0
-35,106,0,0,0,0,0,0,0,0,0,-1,1189,918,0,0
-28,106,0,0,0,0,0,0,0,0,0,-1,1196,918,0,0
-21,106,0,0,0,0,0,0,0,0,0,-1,1203,918,0,0
-14,106,0,0,0,0,0,0,0,0,0,-1,1210,918,0,0
-7,106,0,0,0,0,0,0,0,0,0,-1,1217,918,0,0
0,106,0,0,0,0,0,0,0,0,0,-1,1224,918,0,0
7,106,0,0,0,0,0,0,0,0,0,-1,1231,918,0,0
14,106,0,0,0,0,0,0,0,0,0,-1,1238,918,0,0
21,106,0,0,0,0,0,0,0,0,0,-1,1245,918,0,0
28,106,0,0,0,0,0,0,0,0,0,-1,1252,918,0,0
35,106,0,0,0,0,0,0,0,0,0,-1,1259,918,0,0
42,106,0,0,0,0,0,0,0,0,0,-1,1266,918,0,0
49,106,0,0,0,0,0,0,0,0,0,-1,1273,918,0,0
56,106,0,0,0,0,0,0,0,0,0,-1,1280,918,0,0
63,106,0,0,0,0,0,0,0,0,0,-1,1287,918,0,0
70,106,0,0,0,0,0,0,0,0,0,-1,1294,918,0,0
77,106,0,0,0,0,0,0,0,0,0,-1,1301,918,0,0
84,106,0,0,0,0,0,0,0,0,0,-1,1308,918,0,0
91,106,0,0,0,0,0,0,0,0,0,-1,1315,918,0,0
98,106,0,0,0,0,0,0,0,0,0,-1,1322,918,0,0
105,106,0,0,0,0,0,0,0,0,0,-1,1329,918,0,0
112,106,0,0,0,0,0,0,0,0,0,-1,1336,918,0,0
119,106,0,0,0,0,0,0,0,0,0,-1,1343,918,0,0
126,106,0,0,0,0,0,0,0,0,0,-1,1350,918,0,0
133,106,0,0,0,0,0,0,0,0,0,-1,1357,918,0,0
140,106,0,0,0,0,0,0,0,0,0,-1,1364,918,0,0
147,106,0,0,0,0,0,0,0,0,0,-1,1371,918,0,0
154,106,0,0,0,0,0,0,0,0,0,-1,1378,918,0,0
161,106,0,0,0,0,0,0,0,0,0,-1,1385,918,0,0
168,106,0,0,0,0,0,0,0,0,0,-1,1392,918,0,0
175,106,0,0,0,0,0,0,0,0,0,-1,1399,918,0,0
182,106,0,0,0,0,0,0,0,0,0,-1,1406,918,0,0
189,106,0,0,0,0,0,0,0,0,0,-1,1413,918,0,0
196,106,0,0,0,0,0,0,0,0,0,-1,1420,918,0,0
203,106,0,0,0,0,0,0,0,0,0,-1,1427,918,0,0
210,106,0,0,0,0,0,0,0,0,0,-1,1434,918,0,0
217,106,0,0,0,0,0,0,0,0,0,-1,1441,918,0,0
224,106,0,0,0,0,0,0,0,0,0,-1,1448,918,0,0
231,106,0,0,0,0,0,0,0,0,0,-1,1455,918,0,0
238,106,0,0,0,0,0,0,0,0,0,-1,1462,918,0,0
245,106,0,0,0,0,0,0,0,0,0,-1,1469,918,0,0
252,106,0,0,0,0,0,0,0,0,0,-1,1476,918,0,0
259,106,0,0,0,0,0,0,0,0,0,-1,1483,918,0,0
266,106,0,0,0,0,0,0,0,0,0,-1,1490,918,0,0
273,106,0,0,0,0,0,0,0,0,0,-1,1497,918,0,0
280,106,0,0,0,0,0,0,0,0,0,-1,1504,918,0,0
287,106,0,0,0,0,0,0,0,0,0,-1,1511,918,0,0
294,106,0,0,0,0,0,0,0,0,0,-1,1518,918,0,0
301,106,0,0,0,0,0,0,0,0,0,-1,1525,918,0,0
308,106,0,0,0,0,0,0,0,0,0,-1,1532,918,0,0
315,106,0,0,0,0,0,0,0,0,0,-1,1539,918,0,0
322,106,0,0,0,0,0,0,0,0,0,-1,1546,918,0,0
329,106,0,0,0,0,0,0,0,0,0,-1,1553,918,0,0
336,106,0,0,0,0,0,0,0,0,0,-1,1560,918,0,0
343,106,0,0,0,0,0,0,0,0,0,-1,1567,918,0,0
350,106,0,0,0,0,0,0,0,0,0,-1,1574,918,0,0
357,106,0,0,0,0,0,0,0,0,0,-1,1581,918,0,0
364,106,0,0,0,0,0,0,0,0,0,-1,1588,918,0,0
371,106,0,0,0,0,0,0,0,0,0,-1,1595,918,0,0
378,106,0,0,0,0,0,0,0,0,0,-1,1602,918,0,0
385,106,0,0,0,0,0,0,0,0,0,-1,1609,918,0,0
392,106,0,0,0,0,0,0,0,0,0,-1,1616,918,0,0
399,106,0,0,0,0,0,0,0,0,0,-1,1623,918,0,0
406,106,0,0,0,0,0,0,0,0,0,-1,1630,918,0,0
413,106,0,0,0,0,0,0,0,0,0,-1,1637,918,0,0
420,106,0,0,0,0,0,0,0,0,0,-1,1644,918,0,0
427,106,0,0,0,0,0,0,0,0,0,-1,1651,918,0,0
434,106,0,0,0,0,0,0,0,0,0,-1,1658,918,0,0
441,106,0,0,0,0,0,0,0,0,0,-1,1665,918,0,0
448,106,0,0,0,0,0,0,0,0,0,-1,1672,918,0,0
455,106,0,0,0,0,0,0,0,0,0,-1,1679,918,0,0
462,106,0,0,0,0,0,0,0,0,0,-1,1686,918,0,0
469,106,0,0,0,0,0,0,0,0,0,-1,1693,918,0,0
476,106,0,0,0,0,0,0,0,0,0,-1,1700,918,0,0
483,106,0,0,0,0,0,0,0,0,0,-1,1707,918,0,0
490,106,0,0,0,0,0,0,0,0,0,-1,1714,918,0,0
497,106,0,0,0,0,0,0,0,0,0,-1,1721,918,0,0
504,106,0,0,0,0,0,0,0,0,0,-1,1728,918,0,0
511,106,0,0,0,0,0,0,0,0,0,-1,1735,918,0,0
518,106,0,0,0,0,0,0,0,0,0,-1,1742,918,0,0
525,106,0,0,0,0,0,0,0,0,0,-1,1749,918,0,0
532,106,0,0,0,0,0,0,0,0,0,-1,1756,918,0,0
539,106,0,0,0,0,0,0,0,0,0,-1,1763,918,0,0
546,106,0,0,0,0,0,0,0,0,0,-1,1770,918,0,0
553,106,0,0,0,0,0,0,0,0,0,-1,1777,918,0,0
560,106,0,0,0,0,0,0,0,0,0,-1,1784,918,0,0
567,106,0,0,0,0,0,0,0,0,0,-1,1791,918,0,0
574,106,0,0,0,0,0,0,0,0,0,-1,1798,918,0,0
581,106,0,0,0,0,0,0,0,0,0,-1,1805,918,0,0
588,106,0,0,0,0,0,0,0,0,0,-1,1812,918,0,0
595,106,0,0,0,0,0,0,0,0,0,-1,1819,918,0,0
602,106,0,0,0,0,0,0,0,0,0,-1,1826,918,0,0
609,106,0,0,0,0,0,0,0,0,0,-1,1833,918,0,0
616,106,0,0,0,0,0,0,0,0,0,-1,1840,918,0,0
623,106,0,0,0,0,0,0,0,0,0,-1,1847,918,0,0
630,106,7.21301,0.714478,0.00323382,-0.000328001,0.00307746,0.00500852,-0.00210271,0.523095,0.00421838,0.0390256,1854,918,7.21296,-0.7145
637,106,7.2854,0.879822,0.00261619,-0.000816292,0.00273672,0.00413029,-0.00233039,0.505338,0.00377802,0.0390867,1861,918,7.28535,-0.879845
644,106,7.25708,1.21936,0,0,0,0,0,0,0,-1,1868,918,7.25704,-1.21935
651,106,7.21436,1.19165,0.000620325,-0.00101304,0.00154472,0.00155096,-0.00194368,0.542228,0.00202187,0.0395548,1875,918,7.21438,-1.19162
658,106,7.16345,1.07086,-0.000850665,-0.00101558,0.000830946,-9.80942e-05,-0.00176815,0.735944,0.00114747,0.0401854,1882,918,7.16344,-1.07089
665,106,7.25757,0.95105,-0.00228293,-0.00101884,0.000163459,-0.000998048,-0.00230372,1.44426,0.001334,0.0394809,1889,918,7.25755,-0.951033
672,106,7.20813,1.20013,-0.00347557,-0.00100129,-0.000373183,-0.000946232,-0.00353063,-1.42431,0.00211028,0.0404566,1896,918,7.20819,-1.20015
679,106,7.16663,1.1637,-0.00438833,-0.000984789,-0.000800351,-0.000805979,-0.00456714,-1.35099,0.00281483,0.0355056,1903,918,7.16657,-1.1637
686,106,7.20593,1.03186,-0.00511268,-0.00101447,-0.0011187,-0.000728987,-0.00539817,-1.32093,0.00338207,0.0270193,1910,918,7.2059,-1.03188
693,106,7.13977,1.1181,-0.00557332,-0.000943158,-0.00129942,-0.000603415,-0.00591306,-1.31506,0.00375709,0.0183072,1917,918,7.13982,-1.11811
700,106,7.047,1.09033,-0.00560899,-0.000769848,-0.00144867,-0.000369317,-0.00600952,-1.30105,0.00388909,0.0274213,1924,918,7.04696,-1.09034
707,106,6.8313,0.991028,-0.0052584,-0.000740308,-0.00146894,-0.000304717,-0.00569399,-1.28252,0.00369861,0.0206872,1931,918,6.83127,-0.991
714,106,6.7655,1.01617,-0.00469716,-0.00075271,-0.00130653,-0.000359203,-0.00509067,-1.27825,0.00328061,0.0139994,1938,918,6.76545,-1.01615
721,106,6.76404,1.08423,-0.00398691,-0.000379512,-0.000989896,-0.000125731,-0.00424069,-1.31983,0.00278616,0.0131209,1945,918,6.76406,-1.08425
728,106,6.79126,1.15289,-0.00301782,0.000194808,-0.000647048,0.000320232,-0.00314325,-1.37933,0.00220999,0.0126938,1952,918,6.79128,-1.15292
735,106,6.78601,1.18433,-0.00168335,0.000447944,-1.78459e-05,0.000448093,-0.0016835,-1.56242,0.00129775,0.0124717,1959,918,6.78598,-1.18434
742,106,6.78406,1.22949,-4.49307e-05,0.00168428,0.000545126,0.00184178,-0.000202434,1.28953,0.00130059,0.0103037,1966,918,6.78402,-1.22949
749,106,6.78418,1.26233,0.00162218,0.00271912,0.00095108,0.00326854,0.00107276,1.04695,0.00192387,0.00819948,1973,918,6.78416,-1.26234
756,106,6.78357,1.28534,0.00333869,0.00407559,0.00152833,0.00527925,0.00213503,0.903682,0.00306649,0.00954988,1980,918,6.78356,-1.28534
763,106,6.76233,1.3576,0.00505734,0.00576673,0.00206837,0.00751059,0.00331347,0.870315,0.00434624,0.0169416,1987,918,6.76232,-1.35762
770,106,6.7323,1.44922,0.00686359,0.00781624,0.00254151,0.00992568,0.00475415,0.878033,0.00573228,0.0338371,1994,918,6.73227,-1.44921
777,106,6.75037,1.49939,0.00898132,0.0102806,0.00291939,0.0126217,0.00664014,0.894875,0.00729047,0.0413338,2001,918,6.75042,-1.49939
784,106,7.08789,1.54492,0.0114586,0.0132095,0.00310025,0.0155555,0.00911259,0.923001,0.00902498,0.0429792,2008,918,7.08785,-1.54495
791,106,7.17249,1.61603,0.0142021,0.0166215,0.00286245,0.0185194,0.0123042,0.985324,0.0108831,0.0438111,2015,918,7.17249,-1.61602
798,106,7.13367,1.6488,0.0171107,0.0205383,0.00190573,0.0213875,0.0162615,1.15161,0.0128939,0.0425423,2022,918,7.13361,-1.64879
805,106,0,0,0,0,0,0,0,0,0,-1,2029,918,0,0
812,106,0,0,0,0,0,0,0,0,0,-1,2036,918,0,0
-700,99,0,0,0,0,0,0,0,0,0,-1,524,925,0,0
-693,99,0,0,0,0,0,0,0,0,0,-1,531,925,0,0
-686,99,0,0,0,0,0,0,0,0,0,-1,538,925,0,0
-679,99,-2.2243,2.66125,0.0401896,0.00342,-0.00953042,0.042513,0.00109659,-0.239124,0.0279836,0.0430817,545,925,-2.22427,-2.66127
-672,99,-2.54254,2.78857,0.0286564,-0.00120722,-0.00600484,0.0298186,-0.00236942,-0.19118,0.0207141,0.0491197,552,925,-2.54257,-2.78856
-665,99,-2.49451,2.88965,0.0199142,-0.00380699,-0.00350853,0.0204222,-0.00431504,-0.143806,0.0152579,0.0495719,559,925,-2.49449,-2.88966
-658,99,-2.08051,0.440857,0,0,0,0,0,0,0,-1,566,925,-2.08053,-0.440837
-651,99,-2.20563,0.566895,0.00832938,-0.0053697,-0.00053427,0.00835018,-0.00539051,-0.0389216,0.0079943,0.0464381,573,925,-2.20562,-0.566891
-644,99,-2.34558,0.721924,0.0048139,-0.0050416,0.00025177,0.00482033,-0.00504802,0.0255239,0.005698,0.0443351,580,925,-2.34561,-0.721905
-637,99,-2.49091,0.932251,0.00244277,-0.00447802,0.000859312,0.00254787,-0.00458311,0.121702,0.0041726,0.0277398,587,925,-2.49091,-0.932238
-630,99,-2.47437,0.915771,0.000211422,-0.00395293,0.00114747,0.00050667,-0.00424818,0.251841,0.00301523,0.0123052,594,925,-2.47439,-0.915746
-623,99,-2.47888,0.894104,-0.00126475,-0.00335876,0.00143722,-0.000533604,-0.0040899,0.4706,0.00256728,0.0074874,601,925,-2.47891,-0.894082
-616,99,-2.47821,0.864014,-0.00173666,-0.00202826,0.00135313,-0.000521496,-0.00324342,0.73173,0.00201111,0.00869529,608,925,-2.47821,-0.863994
-609,99,-2.4823,0.834106,-0.0022864,-0.0015368,0.00138718,-0.00047468,-0.00334853,0.917341,0.00209215,0.010053,615,925,-2.48232,-0.834132
-602,99,-2.48322,0.816284,-0.00290169,-0.000856725,0.00166792,7.71735e-05,-0.00383559,1.06037,0.00258317,0.0103791,622,925,-2.48323,-0.816271
-595,99,-2.49634,0.794739,-0.0032145,-0.000473923,0.00152319,0.000204645,-0.00389307,1.1517,0.00266621,0.012791,629,925,-2.49633,-0.794748
-588,99,-2.48547,0.760559,-0.00367905,-0.000425369,0.0015909,0.000223219,-0.00432764,1.18368,0.0029623,0.0117546,636,925,-2.48548,-0.760543
-581,99,-2.44745,0.71814,-0.00437191,-0.000343697,0.00167549,0.000262096,-0.00497771,1.22386,0.0034092,0.0105475,643,925,-2.44744,-0.718168
-574,99,-2.47205,0.67926,-0.00490311,-0.000301346,0.00154771,0.00017076,-0.00537521,1.27473,0.00364173,0.0118351,650,925,-2.47203,-0.679232
-567,99,-2.66467,0.678223,-0.00505709,-0.000128031,0.00125507,0.00017314,-0.00535826,1.33529,0.00363126,0.0246097,657,925,-2.66468,-0.678209
-560,99,-2.85956,0.700378,-0.00483086,-0.000212453,0.000968017,-1.77647e-05,-0.00502555,1.37232,0.00334446,0.0327974,664,925,-2.85958,-0.700355
-553,99,-2.9585,0.697266,-0.00430184,-0.000167694,0.000476092,-0.000113575,-0.00435596,1.45761,0.00286686,0.0378067,671,925,-2.95848,-0.697262
-546,99,-2.89508,0.67395,-0.0033211,-0.000115431,-0.000231373,-9.88179e-05,-0.00333771,-1.49912,0.00219294,0.0412771,678,925,-2.89507,-0.673954
-539,99,-2.78833,0.570313,-0.00177714,-0.000133001,-0.00114826,0.00045713,-0.00236727,-1.09606,0.00175057,0.0408552,685,925,-2.78835,-0.570324
-532,99,-2.68835,0.715576,0.000373821,-0.000303685,-0.00226118,0.00232148,-0.00225135,-0.711045,0.00264023,0.0404768,692,925,-2.68838,-0.715587
-525,99,-2.8501,0.805603,0.00318486,-0.000771018,-0.00352561,0.00524947,-0.00283562,-0.529766,0.00473677,0.039372,699,925,-2.85007,-0.805618
-518,99,-2.87994,0.602722,0.00641373,-0.00173877,-0.00477576,0.00861631,-0.00394135,-0.432128,0.00741574,0.0406109,706,925,-2.87992,-0.602705
-511,99,0,0,0,0,0,0,0,0,0,-1,713,925,0,0
-504,99,0,0,0,0,0,0,0,0,0,-1,720,925,0,0
-497,99,0,0,0,0,0,0,0,0,0,-1,727,925,0,0
-490,99,0,0,0,0,0,0,0,0,0,-1,734,925,0,0
-483,99,0,0,0,0,0,0,0,0,0,-1,741,925,0,0
-476,99,0,0,0,0,0,0,0,0,0,-1,748,925,0,0
-469,99,0,0,0,0,0,0,0,0,0,-1,755,925,0,0
-462,99,0,0,0,0,0,0,0,0,0,-1,762,925,0,0
-455,99,0,0,0,0,0,0,0,0,0,-1,769,925,0,0
-448,99,0,0,0,0,0,0,0,0,0,-1,776,925,0,0
-441,99,0,0,0,0,0,0,0,0,0,-1,783,925,0,0
-434,99,0,0,0,0,0,0,0,0,0,-1,790,925,0,0
-427,99,0,0,0,0,0,0,0,0,0,-1,797,925,0,0
-420,99,0,0,0,0,0,0,0,0,0,-1,804,925,0,0
-413,99,0,0,0,0,0,0,0,0,0,-1,811,925,0,0
-406,99,0,0,0,0,0,0,0,0,0,-1,818,925,0,0
-399,99,0,0,0,0,0,0,0,0,0,-1,825,925,0,0
-392,99,0,0,0,0,0,0,0,0,0,-1,832,925,0,0
-385,99,0,0,0,0,0,0,0,0,0,-1,839,925,0,0
-378,99,0,0,0,0,0,0,0,0,0,-1,846,925,0,0
-371,99,0,0,0,0,0,0,0,0,0,-1,853,925,0,0
-364,99,0,0,0,0,0,0,0,0,0,-1,860,925,0,0
-357,99,0,0,0,0,0,0,0,0,0,-1,867,925,0,0
-350,99,0,0,0,0,0,0,0,0,0,-1,874,925,0,0
-343,99,0,0,0,0,0,0,0,0,0,-1,881,925,0,0
-336,99,0,0,0,0,0,0,0,0,0,-1,888,925,0,0
-329,99,0,0,0,0,0,0,0,0,0,-1,895,925,0,0
-322,99,0,0,0,0,0,0,0,0,0,-1,902,925,0,0
-315,99,0,0,0,0,0,0,0,0,0,-1,909,925,0,0
-308,99,0,0,0,0,0,0,0,0,0,-1,916,925,0,0
-301,99,0,0,0,0,0,0,0,0,0,-1,923,925,0,0
-294,99,0,0,0,0,0,0,0,0,0,-1,930,925,0,0
-287,99,0,0,0,0,0,0,0,0,0,-1,937,925,0,0
-280,99,0,0,0,0,0,0,0,0,0,-1,944,925,0,0
-273,99,0,0,0,0,0,0,0,0,0,-1,951,925,0,0
-266,99,0,0,0,0,0,0,0,0,0,-1,958,925,0,0
-259,99,0,0,0,0,0,0,0,0,0,-1,965,925,0,0
-252,99,0,0,0,0,0,0,0,0,0,-1,972,925,0,0
-245,99,0,0,0,0,0,0,0,0,0,-1,979,925,0,0
-238,99,0,0,0,0,0,0,0,0,0,-1,986,925,0,0
-231,99,0,0,0,0,0,0,0,0,0,-1,993,925,0,0
-224,99,0,0,0,0,0,0,0,0,0,-1,1000,925,0,0
-217,99,0,0,0,0,0,0,0,0,0,-1,1007,925,0,0
-210,99,0,0,0,0,0,0,0,0,0,-1,1014,925,0,0
-203,99,0,0,0,0,0,0,0,0,0,-1,1021,925,0,0
-196,99,0,0,0,0,0,0,0,0,0,-1,1028,925,0,0
-189,99,0,0,0,0,0,0,0,0,0,-1,1035,925,0,0
-182,99,0,0,0,0,0,0,0,0,0,-1,1042,925,0,0
-175,99,0,0,0,0,0,0,0,0,0,-1,1049,925,0,0
-168,99,0,0,0,0,0,0,0,0,0,-1,1056,925,0,0
-161,99,0,0,0,0,0,0,0,0,0,-1,1063,925,0,0
-154,99,0,0,0,0,0,0,0,0,0,-1,1070,925,0,0
-147,99,0,0,0,0,0,0,0,0,0,-1,1077,925,0,0
-140,99,0,0,0,0,0,0,0,0,0,-1,1084,925,0,0
-133,99,0,0,0,0,0,0,0,0,0,-1,1091,925,0,0
-126,99,0,0,0,0,0,0,0,0,0,-1,1098,925,0,0
-119,99,0,0,0,0,0,0,0,0,0,-1,1105,925,0,0
-112,99,0,0,0,0,0,0,0,0,0,-1,1112,925,0,0
-105,99,0,0,0,0,0,0,0,0,0,-1,1119,925,0,0
-98,99,0,0,0,0,0,0,0,0,0,-1,1126,925,0,0
-91,99,0,0,0,0,0,0,0,0,0,-1,1133,925,0,0
-84,99,0,0,0,0,0,0,0,0,0,-1,1140,925,0,0
-77,99,0,0,0,0,0,0,0,0,0,-1,1147,925,0,0
-70,99,0,0,0,0,0,0,0,0,0,-1,1154,925,0,0
-63,99,0,0,0,0,0,0,0,0,0,-1,1161,925,0,0
-56,99,0,0,0,0,0,0,0,0,0,-1,1168,925,0,0
-49,99,0,0,0,0,0,0,0,0,0,-1,1175,925,0,0
-42,99,0,0,0,0,0,0,0,0,0,-1,1182,925,0,0
-35,99,0,0,0,0,0,0,0,0,0,-1,1189,925,0,0
-28,99,0,0,0,0,0,0,0,0,0,-1,1196,925,0,0
-21,99,0,0,0,0,0,0,0,0,0,-1,1203,925,0,0
-14,99,0,0,0,0,0,0,0,0,0,-1,1210,925,0,0
-7,99,0,0,0,0,0,0,0,0,0,-1,1217,925,0,0
0,99,0,0,0,0,0,0,0,0,0,-1,1224,925,0,0
7,99,0,0,0,0,0,0,0,0,0,-1,1231,925,0,0
14,99,0,0,0,0,0,0,0,0,0,-1,1238,925,0,0
21,99,0,0,0,0,0,0,0,0,0,-1,1245,925,0,0
28,99,0,0,0,0,0,0,0,0,0,-1,1252,925,0,0
35,99,0,0,0,0,0,0,0,0,0,-1,1259,925,0,0
42,99,0,0,0,0,0,0,0,0,0,-1,1266,925,0,0
49,99,0,0,0,0,0,0,0,0,0,-1,1273,925,0,0
56,99,0,0,0,0,0,0,0,0,0,-1,1280,925,0,0
63,99,0,0,0,0,0,0,0,0,0,-1,1287,925,0,0
70,99,0,0,0,0,0,0,0,0,0,-1,1294,925,0,0
77,99,0,0,0,0,0,0,0,0,0,-1,1301,925,0,0
84,99,0,0,0,0,0,0,0,0,0,-1,1308,925,0,0
91,99,0,0,0,0,0,0,0,0,0,-1,1315,925,0,0
98,99,0,0,0,0,0,0,0,0,0,-1,1322,925,0,0
105,99,0,0,0,0,0,0,0,0,0,-1,1329,925,0,0
112,99,0,0,0,0,0,0,0,0,0,-1,1336,925,0,0
119,99,0,0,0,0,0,0,0,0,0,-1,1343,925,0,0
126,99,0,0,0,0,0,0,0,0,0,-1,1350,925,0,0
133,99,0,0,0,0,0,0,0,0,0,-1,1357,925,0,0
140,99,0,0,0,0,0,0,0,0,0,-1,1364,925,0,0
147,99,0,0,0,0,0,0,0,0,0,-1,1371,925,0,0
154,99,0,0,0,0,0,0,0,0,0,-1,1378,925,0,0
161,99,0,0,0,0,0,0,0,0,0,-1,1385,925,0,0
168,99,0,0,0,0,0,0,0,0,0,-1,1392,925,0,0
175,99,0,0,0,0,0,0,0,0,0,-1,1399,925,0,0
182,99,0,0,0,0,0,0,0,0,0,-1,1406,925,0,0
189,99,0,0,0,0,0,0,0,0,0,-1,1413,925,0,0
196,99,0,0,0,0,0,0,0,0,0,-1,1420,925,0,0
203,99,0,0,0,0,0,0,0,0,0,-1,1427,925,0,0
210,99,0,0,0,0,0,0,0,0,0,-1,1434,925,0,0
217,99,0,0,0,0,0,0,0,0,0,-1,1441,925,0,0
224,99,0,0,0,0,0,0,0,0,0,-1,1448,925,0,0
231,99,0,0,0,0,0,0,0,0,0,-1,1455,925,0,0
238,99,0,0,0,0,0,0,0,0,0,-1,1462,925,0,0
245,99,0,0,0,0,0,0,0,0,0,-1,1469,925,0,0
252,99,0,0,0,0,0,0,0,0,0,-1,1476,925,0,0
259,99,0,0,0,0,0,0,0,0,0,-1,1483,925,0,0
266,99,0,0,0,0,0,0,0,0,0,-1,1490,925,0,0
273,99,0,0,0,0,0,0,0,0,0,-1,1497,925,0,0
280,99,0,0,0,0,0,0,0,0,0,-1,1504,925,0,0
287,99,0,0,0,0,0,0,0,0,0,-1,1511,925,0,0
294,99,0,0,0,0,0,0,0,0,0,-1,1518,925,0,0
301,99,0,0,0,0,0,0,0,0,0,-1,1525,925,0,0
308,99,0,0,0,0,0,0,0,0,0,-1,1532,925,0,0
315,99,0,0,0,0,0,0,0,0,0,-1,1539,925,0,0
322,99,0,0,0,0,0,0,0,0,0,-1,1546,925,0,0
329,99,0,0,0,0,0,0,0,0,0,-1,1553,925,0,0
336,99,0,0,0,0,0,0,0,0,0,-1,1560,925,0,0
343,99,0,0,0,0,0,0,0,0,0,-1,1567,925,0,0
350,99,0,0,0,0,0,0,0,0,0,-1,1574,925,0,0
357,99,0,0,0,0,0,0,0,0,0,-1,1581,925,0,0
364,99,0,0,0,0,0,0,0,0,0,-1,1588,925,0,0
371,99,0,0,0,0,0,0,0,0,0,-1,1595,925,0,0
378,99,0,0,0,0,0,0,0,0,0,-1,1602,925,0,0
385,99,0,0,0,0,0,0,0,0,0,-1,1609,925,0,0
392,99,0,0,0,0,0,0,0,0,0,-1,1616,925,0,0
399,99,0,0,0,0,0,0,0,0,0,-1,1623,925,0,0
406,99,0,0,0,0,0,0,0,0,0,-1,1630,925,0,0
413,99,0,0,0,0,0,0,0,0,0,-1,1637,925,0,0
420,99,0,0,0,0,0,0,0,0,0,-1,1644,925,0,0
427,99,0,0,0,0,0,0,0,0,0,-1,1651,925,0,0
434,99,0,0,0,0,0,0,0,0,0,-1,1658,925,0,0
441,99,0,0,0,0,0,0,0,0,0,-1,1665,925,0,0
448,99,0,0,0,0,0,0,0,0,0,-1,1672,925,0,0
455,99,0,0,0,0,0,0,0,0,0,-1,1679,925,0,0
462,99,0,0,0,0,0,0,0,0,0,-1,1686,925,0,0
469,99,0,0,0,0,0,0,0,0,0,-1,1693,925,0,0
476,99,0,0,0,0,0,0,0,0,0,-1,1700,925,0,0
483,99,0,0,0,0,0,0,0,0,0,-1,1707,925,0,0
490,99,0,0,0,0,0,0,0,0,0,-1,1714,925,0,0
497,99,0,0,0,0,0,0,0,0,0,-1,1721,925,0,0
504,99,0,0,0,0,0,0,0,0,0,-1,1728,925,0,0
511,99,0,0,0,0,0,0,0,0,0,-1,1735,925,0,0
518,99,0,0,0,0,0,0,0,0,0,-1,1742,925,0,0
525,99,0,0,0,0,0,0,0,0,0,-1,1749,925,0,0
532,99,0,0,0,0,0,0,0,0,0,-1,1756,925,0,0
539,99,0,0,0,0,0,0,0,0,0,-1,1763,925,0,0
546,99,0,0,0,0,0,0,0,0,0,-1,1770,925,0,0
553,99,0,0,0,0,0,0,0,0,0,-1,1777,925,0,0
560,99,0,0,0,0,0,0,0,0,0,-1,1784,925,0,0
567,99,0,0,0,0,0,0,0,0,0,-1,1791,925,0,0
574,99,0,0,0,0,0,0,0,0,0,-1,1798,925,0,0
581,99,0,0,0,0,0,0,0,0,0,-1,1805,925,0,0
588,99,0,0,0,0,0,0,0,0,0,-1,1812,925,0,0
595,99,0,0,0,0,0,0,0,0,0,-1,1819,925,0,0
602,99,0,0,0,0,0,0,0,0,0,-1,1826,925,0,0
609,99,0,0,0,0,0,0,0,0,0,-1,1833,925,0,0
616,99,0,0,0,0,0,0,0,0,0,-1,1840,925,0,0
623,99,0,0,0,0,0,0,0,0,0,-1,1847,925,0,0
630,99,0,0,0,0,0,0,0,0,0,-1,1854,925,0,0
637,99,7.25525,0.697083,0.00266065,-0.000696255,0.00310559,0.00451234,-0.00254794,0.537653,0.00412851,0.0414114,1861,925,7.25523,-0.69708
644,99,7.38989,0.782288,0.00204273,-0.000964813,0.00242128,0.00338921,-0.00231129,0.507516,0.00331074,0.038285,1868,925,7.38983,-0.782267
651,99,7.39587,0.879211,0.00110039,-0.00102276,0.00175981,0.00209402,-0.00201639,0.514002,0.00237329,0.0386362,1875,925,7.39583,-0.879192
658,99,7.22546,0.911926,-0.000176382,-0.00102327,0.0010857,0.000565528,-0.00176518,0.599461,0.0014038,0.0381736,1882,925,7.22551,-0.911914
665,99,7.20532,0.894592,-0.00151009,-0.00101444,0.000458757,-0.000740851,-0.00178369,1.03305,0.00103472,0.0380344,1889,925,7.20531,-0.894571
672,99,7.2981,1.03796,-0.0026612,-0.000981892,-5.80425e-05,-0.000979888,-0.00266321,-1.53629,0.00155538,0.0381216,1896,925,7.29805,-1.03794
679,99,7.26074,1.04541,-0.00359795,-0.000937293,-0.000456815,-0.000861046,-0.00367419,-1.40541,0.00221885,0.0363003,1903,925,7.2607,-1.04541
686,99,7.20288,1.05457,-0.00438025,-0.00095689,-0.000763233,-0.000794437,-0.0045427,-1.36108,0.00280146,0.0283558,1910,925,7.20287,-1.05458
693,99,7.19604,1.09155,-0.00491638,-0.000873434,-0.000960275,-0.000656943,-0.00513287,-1.34906,0.00322531,0.0214101,1917,925,7.19599,-1.09158
700,99,7.15588,1.08783,-0.00507891,-0.000688234,-0.00113909,-0.000410309,-0.00535683,-1.33148,0.00344261,0.0300591,1924,925,7.15588,-1.08783
707,99,6.9209,1.01306,-0.00487478,-0.000670988,-0.00117531,-0.000364705,-0.00518107,-1.31587,0.00333912,0.0261283,1931,925,6.92089,-1.01308
714,99,6.82239,1.0387,-0.00446765,-0.000647276,-0.00101823,-0.000392838,-0.00472209,-1.32593,0.00302563,0.012725,1938,925,6.82235,-1.03868
721,99,6.79993,1.08319,-0.00390538,-0.000334741,-0.000759067,-0.000180074,-0.00406004,-1.36979,0.00264871,0.0144093,1945,925,6.79989,-1.08319
728,99,6.83435,1.14233,-0.00312112,0.000158572,-0.000480062,0.000227397,-0.00318994,-1.4284,0.00220634,0.0123954,1952,925,6.83431,-1.14234
735,99,6.83423,1.18414,-0.00206275,0.000456499,8.24816e-05,0.000459197,-0.00206545,1.5381,0.00155283,0.0114539,1959,925,6.83418,-1.18415
742,99,6.82141,1.21509,-0.000730221,0.00155727,0.000606289,0.00170802,-0.00088098,1.32708,0.00151997,0.0105081,1966,925,6.8214,-1.21507
749,99,6.80725,1.2525,0.000695395,0.0024648,0.000968011,0.00289149,0.000268707,1.15563,0.00184463,0.00895383,1973,925,6.80729,-1.25252
756,99,6.80518,1.27789,0.00216135,0.00369096,0.00150845,0.00461741,0.00123489,1.02002,0.00276031,0.0106491,1980,925,6.80523,-1.27787
763,99,6.82092,1.29376,0.00357879,0.00522386,0.00202181,0.00658405,0.00221861,0.978589,0.00386807,0.0135627,1987,925,6.82096,-1.29373
770,99,6.80798,1.37231,0.00498469,0.00707176,0.00245962,0.00870005,0.00335639,0.986024,0.00506647,0.0260759,1994,925,6.80801,-1.37233
777,99,6.86792,1.5495,0.00660863,0.00927729,0.00277872,0.0110254,0.00486047,1.00924,0.00638038,0.0407724,2001,925,6.86795,-1.54952
784,99,6.93127,1.71844,0.0085267,0.0118805,0.0028933,0.0135477,0.00685946,1.04803,0.00782197,0.0434729,2008,925,6.93128,-1.71845
791,99,7.21838,1.92188,0.0106606,0.0148703,0.00258929,0.0161023,0.00942857,1.12668,0.00934193,0.0443095,2015,925,7.21834,-1.9219
798,99,7.53845,2.00537,0.0129105,0.0182238,0.00157069,0.0186534,0.0124809,1.30382,0.0109729,0.0433045,2022,925,7.53842,-2.00538
805,99,0,0,0,0,0,0,0,0,0,-1,2029,925,0,0
812,99,0,0,0,0,0,0,0,0,0,-1,2036,925,0,0
-700,92,0,0,0,0,0,0,0,0,0,-1,524,932,0,0
-693,92,0,0,0,0,0,0,0,0,0,-1,531,932,0,0
-686,92,-2.70337,2.46735,0.0408075,0.0208996,-0.0133566,0.0475112,0.0141959,-0.465173,0.0281613,0.0417293,538,932,-2.70338,-2.46737
-679,92,-1.86194,2.57257,0.029214,0.0115149,-0.00756204,0.0320049,0.00872406,-0.353553,0.0191045,0.043111,545,932,-1.86191,-2.57256
-672,92,-2.51154,2.90814,0,0,0,0,0,0,0,-1,552,932,-2.51151,-2.90816
-665,92,-2.49603,3.06519,0,0,0,0,0,0,0,-1,559,932,-2.49605,-3.06518
-658,92,-2.03436,0.50238,0,0,0,0,0,0,0,-1,566,932,-2.03435,-0.50241
-651,92,-2.18872,0.648071,0.00447516,-0.00232766,0.00124912,0.00469727,-0.00254976,0.175973,0.00424487,0.0492489,573,932,-2.18875,-0.648077
-644,92,-2.5957,0.97644,0.00184517,-0.00283496,0.00172541,0.0024125,-0.00340229,0.317673,0.00337334,0.0441547,580,932,-2.59569,-0.976455
-637,92,-2.50983,0.949036,0.000453977,-0.00300678,0.00209907,0.00144395,-0.00399676,0.44069,0.00325441,0.0242045,587,932,-2.50985,-0.949051
-630,92,-2.49908,0.913757,-0.00127571,-0.00308307,0.00206897,7.83277e-05,-0.0044371,0.579496,0.00298452,0.011732,594,932,-2.49906,-0.91373
-623,92,-2.505,0.886719,-0.0024584,-0.00289583,0.00206175,-0.000603796,-0.00475044,0.732554,0.00298611,0.00811182,601,932,-2.50501,-0.886725
-616,92,-2.51379,0.862732,-0.002597,-0.00175836,0.00173914,-0.000388703,-0.00396666,0.903694,0.00252486,0.00785375,608,932,-2.51377,-0.862736
-609,92,-2.53345,0.829712,-0.00284538,-0.00136985,0.00157896,-0.000364798,-0.00385043,1.00395,0.00245441,0.00844366,615,932,-2.53346,-0.82973
-602,92,-2.51752,0.803528,-0.00315878,-0.000670503,0.00169892,0.000191117,-0.00402039,1.10144,0.00274619,0.00905685,622,932,-2.51753,-0.803517
-595,92,-2.47937,0.785095,-0.00323196,-0.000309212,0.00143119,0.00027488,-0.00381605,1.18331,0.00264043,0.014231,629,932,-2.47937,-0.785109
-588,92,-2.47614,0.760132,-0.00355769,-0.000242247,0.0014244,0.000285657,-0.0040856,1.21588,0.00282377,0.0158469,636,932,-2.47611,-0.760107
-581,92,-2.48743,0.717468,-0.00412448,-0.000128901,0.00147345,0.000355691,-0.00460907,1.25306,0.00319788,0.0126458,643,932,-2.48745,-0.717455
-574,92,-2.55756,0.707581,-0.00448653,-1.52023e-05,0.00132153,0.000346179,-0.00484791,1.30387,0.0033533,0.015417,650,932,-2.55755,-0.7076
-567,92,-2.72144,0.70813,-0.00455956,0.000225006,0.00100524,0.000427629,-0.00476218,1.3719,0.00332651,0.0279402,657,932,-2.72144,-0.708135
-560,92,-2.7738,0.653137,-0.00430314,0.000262423,0.000687273,0.000363637,-0.00440435,1.42458,0.00306465,0.0339692,664,932,-2.77379,-0.653157
-553,92,-2.9754,0.733887,-0.00373747,0.000451641,0.000170464,0.000458566,-0.0037444,1.53019,0.00266232,0.0376607,671,932,-2.9754,-0.733894
-546,92,-2.93311,0.799744,-0.00272814,0.000655552,-0.000554794,0.000744194,-0.00281678,-1.41236,0.0021689,0.0407147,678,932,-2.93313,-0.799766
-539,92,-2.86786,0.613159,-0.00118213,0.000835069,-0.00148213,0.00161923,-0.00196629,-1.08416,0.00207333,0.0392555,685,932,-2.86786,-0.613142
-532,92,-2.89063,0.695862,0.000939557,0.000929991,-0.0025952,0.00352998,-0.00166043,-0.784477,0.00306079,0.0406273,692,932,-2.89061,-0.695845
-525,92,-2.93536,0.852051,0.00365125,0.000826522,-0.00384541,0.00633546,-0.00185769,-0.609403,0.00496021,0.0388938,699,932,-2.93538,-0.852039
-518,92,-2.80206,0.804504,0.00665742,0.000372246,-0.00506336,0.00947415,-0.00244449,-0.507665,0.00726925,0.0408001,706,932,-2.80204,-0.804483
-511,92,0,0,0,0,0,0,0,0,0,-1,713,932,0,0
-504,92,0,0,0,0,0,0,0,0,0,-1,720,932,0,0
-497,92,0,0,0,0,0,0,0,0,0,-1,727,932,0,0
-490,92,0,0,0,0,0,0,0,0,0,-1,734,932,0,0
-483,92,0,0,0,0,0,0,0,0,0,-1,741,932,0,0
-476,92,0,0,0,0,0,0,0,0,0,-1,748,932,0,0
-469,92,0,0,0,0,0,0,0,0,0,-1,755,932,0,0
-462,92,0,0,0,0,0,0,0,0,0,-1,762,932,0,0
-455,92,0,0,0,0,0,0,0,0,0,-1,769,932,0,0
-448,92,0,0,0,0,0,0,0,0,0,-1,776,932,0,0
-441,92,0,0,0,0,0,0,0,0,0,-1,783,932,0,0
-434,92,0,0,0,0,0,0,0,0,0,-1,790,932,0,0
-427,92,0,0,0,0,0,0,0,0,0,-1,797,932,0,0
-420,92,0,0,0,0,0,0,0,0,0,-1,804,932,0,0
-413,92,0,0,0,0,0,0,0,0,0,-1,811,932,0,0
-406,92,0,0,0,0,0,0,0,0,0,-1,818,932,0,0
-399,92,0,0,0,0,0,0,0,0,0,-1,825,932,0,0
-392,92,0,0,0,0,0,0,0,0,0,-1,832,932,0,0
-385,92,0,0,0,0,0,0,0,0,0,-1,839,932,0,0
-378,92,0,0,0,0,0,0,0,0,0,-1,846,932,0,0
-371,92,0,0,0,0,0,0,0,0,0,-1,853,932,0,0
-364,92,0,0,0,0,0,0,0,0,0,-1,860,932,0,0
-357,92,0,0,0,0,0,0,0,0,0,-1,867,932,0,0
-350,92,0,0,0,0,0,0,0,0,0,-1,874,932,0,0
-343,92,0,0,0,0,0,0,0,0,0,-1,881,932,0,0
-336,92,0,0,0,0,0,0,0,0,0,-1,888,932,0,0
-329,92,0,0,0,0,0,0,0,0,0,-1,895,932,0,0
-322,92,0,0,0,0,0,0,0,0,0,-1,902,932,0,0
-315,92,0,0,0,0,0,0,0,0,0,-1,909,932,0,0
-308,92,0,0,0,0,0,0,0,0,0,-1,916,932,0,0
-301,92,0,0,0,0,0,0,0,0,0,-1,923,932,0,0
-294,92,0,0,0,0,0,0,0,0,0,-1,930,932,0,0
-287,92,0,0,0,0,0,0,0,0,0,-1,937,932,0,0
-280,92,0,0,0,0,0,0,0,0,0,-1,944,932,0,0
-273,92,0,0,0,0,0,0,0,0,0,-1,951,932,0,0
-266,92,0,0,0,0,0,0,0,0,0,-1,958,932,0,0
-259,92,0,0,0,0,0,0,0,0,0,-1,965,932,0,0
-252,92,0,0,0,0,0,0,0,0,0,-1,972,932,0,0
-245,92,0,0,0,0,0,0,0,0,0,-1,979,932,0,0
-238,92,0,0,0,0,0,0,0,0,0,-1,986,932,0,0
-231,92,0,0,0,0,0,0,0,0,0,-1,993,932,0,0
-224,92,0,0,0,0,0,0,0,0,0,-1,1000,932,0,0
-217,92,0,0,0,0,0,0,0,0,0,-1,1007,932,0,0
-210,92,0,0,0,0,0,0,0,0,0,-1,1014,932,0,0
-203,92,0,0,0,0,0,0,0,0,0,-1,1021,932,0,0
-196,92,0,0,0,0,0,0,0,0,0,-1,1028,932,0,0
-189,92,0,0,0,0,0,0,0,0,0,-1,1035,932,0,0
-182,92,0,0,0,0,0,0,0,0,0,-1,1042,932,0,0
-175,92,0,0,0,0,0,0,0,0,0,-1,1049,932,0,0
-168,92,0,0,0,0,0,0,0,0,0,-1,1056,932,0,0
-161,92,0,0,0,0,0,0,0,0,0,-1,1063,932,0,0
-154,92,0,0,0,0,0,0,0,0,0,-1,1070,932,0,0
-147,92,0,0,0,0,0,0,0,0,0,-1,1077,932,0,0
-140,92,0,0,0,0,0,0,0,0,0,-1,1084,932,0,0
-133,92,0,0,0,0,0,0,0,0,0,-1,1091,932,0,0
-126,92,0,0,0,0,0,0,0,0,0,-1,1098,932,0,0
-119,92,0,0,0,0,0,0,0,0,0,-1,1105,932,0,0
-112,92,0,0,0,0,0,0,0,0,0,-1,1112,932,0,0
-105,92,0,0,0,0,0,0,0,0,0,-1,1119,932,0,0
-98,92,0,0,0,0,0,0,0,0,0,-1,1126,932,0,0
-91,92,0,0,0,0,0,0,0,0,0,-1,1133,932,0,0
-84,92,0,0,0,0,0,0,0,0,0,-1,1140,932,0,0
-77,92,0,0,0,0,0,0,0,0,0,-1,1147,932,0,0
-70,92,0,0,0,0,0,0,0,0,0,-1,1154,932,0,0
-63,92,0,0,0,0,0,0,0,0,0,-1,1161,932,0,0
-56,92,0,0,0,0,0,0,0,0,0,-1,1168,932,0,0
-49,92,0,0,0,0,0,0,0,0,0,-1,1175,932,0,0
-42,92,0,0,0,0,0,0,0,0,0,-1,1182,932,0,0
-35,92,0,0,0,0,0,0,0,0,0,-1,1189,932,0,0
-28,92,0,0,0,0,0,0,0,0,0,-1,1196,932,0,0
-21,92,0,0,0,0,0,0,0,0,0,-1,1203,932,0,0
-14,92,0,0,0,0,0,0,0,0,0,-1,1210,932,0,0
-7,92,0,0,0,0,0,0,0,0,0,-1,1217,932,0,0
0,92,0,0,0,0,0,0,0,0,0,-1,1224,932,0,0
7,92,0,0,0,0,0,0,0,0,0,-1,1231,932,0,0
14,92,0,0,0,0,0,0,0,0,0,-1,1238,932,0,0
21,92,0,0,0,0,0,0,0,0,0,-1,1245,932,0,0
28,92,0,0,0,0,0,0,0,0,0,-1,1252,932,0,0
35,92,0,0,0,0,0,0,0,0,0,-1,1259,932,0,0
42,92,0,0,0,0,0,0,0,0,0,-1,1266,932,0,0
49,92,0,0,0,0,0,0,0,0,0,-1,1273,932,0,0
56,92,0,0,0,0,0,0,0,0,0,-1,1280,932,0,0
63,92,0,0,0,0,0,0,0,0,0,-1,1287,932,0,0
70,92,0,0,0,0,0,0,0,0,0,-1,1294,932,0,0
77,92,0,0,0,0,0,0,0,0,0,-1,1301,932,0,0
84,92,0,0,0,0,0,0,0,0,0,-1,1308,932,0,0
91,92,0,0,0,0,0,0,0,0,0,-1,1315,932,0,0
98,92,0,0,0,0,0,0,0,0,0,-1,1322,932,0,0
105,92,0,0,0,0,0,0,0,0,0,-1,1329,932,0,0
112,92,0,0,0,0,0,0,0,0,0,-1,1336,932,0,0
119,92,0,0,0,0,0,0,0,0,0,-1,1343,932,0,0
126,92,0,0,0,0,0,0,0,0,0,-1,1350,932,0,0
133,92,0,0,0,0,0,0,0,0,0,-1,1357,932,0,0
140,92,0,0,0,0,0,0,0,0,0,-1,1364,932,0,0
147,92,0,0,0,0,0,0,0,0,0,-1,1371,932,0,0
154,92,0,0,0,0,0,0,0,0,0,-1,1378,932,0,0
161,92,0,0,0,0,0,0,0,0,0,-1,1385,932,0,0
168,92,0,0,0,0,0,0,0,0,0,-1,1392,932,0,0
175,92,0,0,0,0,0,0,0,0,0,-1,1399,932,0,0
182,92,0,0,0,0,0,0,0,0,0,-1,1406,932,0,0
189,92,0,0,0,0,0,0,0,0,0,-1,1413,932,0,0
196,92,0,0,0,0,0,0,0,0,0,-1,1420,932,0,0
203,92,0,0,0,0,0,0,0,0,0,-1,1427,932,0,0
210,92,0,0,0,0,0,0,0,0,0,-1,1434,932,0,0
217,92,0,0,0,0,0,0,0,0,0,-1,1441,932,0,0
224,92,0,0,0,0,0,0,0,0,0,-1,1448,932,0,0
231,92,0,0,0,0,0,0,0,0,0,-1,1455,932,0,0
238,92,0,0,0,0,0,0,0,0,0,-1,1462,932,0,0
245,92,0,0,0,0,0,0,0,0,0,-1,1469,932,0,0
252,92,0,0,0,0,0,0,0,0,0,-1,1476,932,0,0
259,92,0,0,0,0,0,0,0,0,0,-1,1483,932,0,0
266,92,0,0,0,0,0,0,0,0,0,-1,1490,932,0,0
273,92,0,0,0,0,0,0,0,0,0,-1,1497,932,0,0
280,92,0,0,0,0,0,0,0,0,0,-1,1504,932,0,0
287,92,0,0,0,0,0,0,0,0,0,-1,1511,932,0,0
294,92,0,0,0,0,0,0,0,0,0,-1,1518,932,0,0
301,92,0,0,0,0,0,0,0,0,0,-1,1525,932,0,0
308,92,0,0,0,0,0,0,0,0,0,-1,1532,932,0,0
315,92,0,0,0,0,0,0,0,0,0,-1,1539,932,0,0
322,92,0,0,0,0,0,0,0,0,0,-1,1546,932,0,0
329,92,0,0,0,0,0,0,0,0,0,-1,1553,932,0,0
336,92,0,0,0,0,0,0,0,0,0,-1,1560,932,0,0
343,92,0,0,0,0,0,0,0,0,0,-1,1567,932,0,0
350,92,0,0,0,0,0,0,0,0,0,-1,1574,932,0,0
357,92,0,0,0,0,0,0,0,0,0,-1,1581,932,0,0
364,92,0,0,0,0,0,0,0,0,0,-1,1588,932,0,0
371,92,0,0,0,0,0,0,0,0,0,-1,1595,932,0,0
378,92,0,0,0,0,0,0,0,0,0,-1,1602,932,0,0
385,92,0,0,0,0,0,0,0,0,0,-1,1609,932,0,0
392,92,0,0,0,0,0,0,0,0,0,-1,1616,932,0,0
399,92,0,0,0,0,0,0,0,0,0,-1,1623,932,0,0
406,92,0,0,0,0,0,0,0,0,0,-1,1630,932,0,0
413,92,0,0,0,0,0,0,0,0,0,-1,1637,932,0,0
420,92,0,0,0,0,0,0,0,0,0,-1,1644,932,0,0
427,92,0,0,0,0,0,0,0,0,0,-1,1651,932,0,0
434,92,0,0,0,0,0,0,0,0,0,-1,1658,932,0,0
441,92,0,0,0,0,0,0,0,0,0,-1,1665,932,0,0
448,92,0,0,0,0,0,0,0,0,0,-1,1672,932,0,0
455,92,0,0,0,0,0,0,0,0,0,-1,1679,932,0,0
462,92,0,0,0,0,0,0,0,0,0,-1,1686,932,0,0
469,92,0,0,0,0,0,0,0,0,0,-1,1693,932,0,0
476,92,0,0,0,0,0,0,0,0,0,-1,1700,932,0,0
483,92,0,0,0,0,0,0,0,0,0,-1,1707,932,0,0
490,92,0,0,0,0,0,0,0,0,0,-1,1714,932,0,0
497,92,0,0,0,0,0,0,0,0,0,-1,1721,932,0,0
504,92,0,0,0,0,0,0,0,0,0,-1,1728,932,0,0
511,92,0,0,0,0,0,0,0,0,0,-1,1735,932,0,0
518,92,0,0,0,0,0,0,0,0,0,-1,1742,932,0,0
525,92,0,0,0,0,0,0,0,0,0,-1,1749,932,0,0
532,92,0,0,0,0,0,0,0,0,0,-1,1756,932,0,0
539,92,0,0,0,0,0,0,0,0,0,-1,1763,932,0,0
546,92,0,0,0,0,0,0,0,0,0,-1,1770,932,0,0
553,92,0,0,0,0,0,0,0,0,0,-1,1777,932,0,0
560,92,0,0,0,0,0,0,0,0,0,-1,1784,932,0,0
567,92,0,0,0,0,0,0,0,0,0,-1,1791,932,0,0
574,92,0,0,0,0,0,0,0,0,0,-1,1798,932,0,0
581,92,0,0,0,0,0,0,0,0,0,-1,1805,932,0,0
588,92,0,0,0,0,0,0,0,0,0,-1,1812,932,0,0
595,92,0,0,0,0,0,0,0,0,0,-1,1819,932,0,0
602,92,0,0,0,0,0,0,0,0,0,-1,1826,932,0,0
609,92,0,0,0,0,0,0,0,0,0,-1,1833,932,0,0
616,92,0,0,0,0,0,0,0,0,0,-1,1840,932,0,0
623,92,0,0,0,0,0,0,0,0,0,-1,1847,932,0,0
630,92,0,0,0,0,0,0,0,0,0,-1,1854,932,0,0
637,92,7.17493,0.839539,0.00273638,-0.000766675,0.00309156,0.0045381,-0.00256839,0.527667,0.00415514,0.0441625,1861,932,7.17498,-0.839527
644,92,7.27344,0.877502,0.00214085,-0.00135443,0.00233718,0.00331155,-0.00252513,0.464367,0.00337998,0.0370492,1868,932,7.27342,-0.877528
651,92,7.32104,1.01971,0.00140752,-0.00157742,0.00169238,0.00217151,-0.00234141,0.424043,0.00260615,0.0369865,1875,932,7.32106,-1.0197
658,92,7.06396,0.972168,0.000330343,-0.00163364,0.00107883,0.000807182,-0.00211048,0.416177,0.00173963,0.0422499,1882,932,7.06401,-0.972169
665,92,7.09387,0.944153,-0.000877622,-0.00161728,0.000510171,-0.000617333,-0.00187757,0.471773,0.001105,0.0408228,1889,932,7.09387,-0.944166
672,92,7.20044,1.04474,-0.00196329,-0.00153438,4.14095e-05,-0.00153042,-0.00196725,1.47543,0.00119286,0.0389714,1896,932,7.20043,-1.04471
679,92,7.23267,1.00494,-0.00289408,-0.00141223,-0.000309376,-0.00135024,-0.00295608,-1.37302,0.00170882,0.0382613,1903,932,7.23261,-1.00491
686,92,7.16565,0.997559,-0.00368479,-0.00134682,-0.000584155,-0.00120899,-0.00382262,-1.33909,0.00225611,0.0307464,1910,932,7.16561,-0.997534
693,92,7.20813,1.05182,-0.00425345,-0.001186,-0.000777694,-0.0010001,-0.00443936,-1.33616,0.00268893,0.0229553,1917,932,7.20817,-1.05181
700,92,7.21973,1.07739,-0.00451036,-0.000921365,-0.000952754,-0.000684124,-0.0047476,-1.32675,0.00296347,0.0313399,1924,932,7.21971,-1.0774
707,92,6.97046,1.05499,-0.00444711,-0.000837689,-0.000993009,-0.000582534,-0.00470227,-1.31929,0.00295984,0.0288933,1931,932,6.97047,-1.05497
714,92,6.83533,1.07874,-0.00419109,-0.000720625,-0.000838131,-0.000528815,-0.0043829,-1.34582,0.00276258,0.0180704,1938,932,6.83528,-1.07875
721,92,6.87122,1.12494,-0.00376858,-0.000392266,-0.00061166,-0.000284872,-0.00387598,-1.39699,0.00249446,0.0199166,1945,932,6.8712,-1.12493
728,92,6.87671,1.18854,-0.00316241,7.28601e-05,-0.00038393,0.000117797,-0.00320734,-1.45428,0.00217856,0.0158555,1952,932,6.87668,-1.18852
735,92,6.85303,1.19983,-0.0023764,0.000514431,0.000119772,0.000519385,-0.00238135,1.52946,0.00178605,0.0146076,1959,932,6.85303,-1.19984
742,92,6.86768,1.21179,-0.0013494,0.00154372,0.000604253,0.00166485,-0.00147053,1.37295,0.00181137,0.0154882,1966,932,6.86769,-1.21177
749,92,6.84338,1.2514,-0.000209713,0.00236707,0.000942381,0.00267494,-0.000517578,1.25504,0.00197851,0.0132518,1973,932,6.84343,-1.25142
756,92,6.82434,1.29199,0.000943322,0.00347965,0.00149637,0.00417295,0.000250017,1.13692,0.00270249,0.013397,1980,932,6.82429,-1.29199
763,92,6.8584,1.30652,0.00200969,0.00490037,0.00204113,0.00595608,0.000953984,1.09347,0.00369402,0.015789,1987,932,6.85836,-1.30652
770,92,6.83911,1.36987,0.00294865,0.00656986,0.0025538,0.00788978,0.00162873,1.09376,0.00480976,0.025471,1994,932,6.83911,-1.36985
777,92,6.76648,1.45569,0.00396512,0.00848322,0.00300022,0.00997979,0.00246856,1.1081,0.00600201,0.0429718,2001,932,6.76647,-1.45572
784,92,6.72827,1.56824,0.00513963,0.0106079,0.00335362,0.0122007,0.00354684,1.12739,0.00724685,0.0471467,2008,932,6.72826,-1.56822
791,92,6.93042,1.8175,0.00639479,0.0128054,0.00348429,0.0143344,0.00486572,1.15726,0.00841702,0.0454678,2015,932,6.93036,-1.81751
798,92,7.19202,1.79657,0,0,0,0,0,0,0,-1,2022,932,7.19198,-1.79654
805,92,0,0,0,0,0,0,0,0,0,-1,2029,932,0,0
812,92,0,0,0,0,0,0,0,0,0,-1,2036,932,0,0
-700,85,0,0,0,0,0,0,0,0,0,-1,524,939,0,0
-693,85,0,0,0,0,0,0,0,0,0,-1,531,939,0,0
-686,85,-2.21033,2.3822,0.0284646,0.0250155,-0.0117233,0.0385895,0.0148906,-0.71237,0.0224723,0.0436943,538,939,-2.21034,-2.38223
-679,85,-1.38568,2.5542,0.0197971,0.0159488,-0.00566046,0.0238515,0.0118944,-0.621561,0.0137707,0.0431972,545,939,-1.38568,-2.55419
-672,85,-3.06342,-1.90656,0,0,0,0,0,0,0,-1,552,939,-3.06341,1.90654
-665,85,-3.02191,-1.63605,0,0,0,0,0,0,0,-1,559,939,-3.02193,1.63605
-658,85,-1.98352,0.469238,0,0,0,0,0,0,0,-1,566,939,-1.98352,-0.469246
-651,85,-2.17993,0.692017,0.000850179,7.103e-05,0.00277213,0.00325997,-0.00233876,0.715589,0.00324698,0.045509,573,939,-2.17993,-0.692009
-644,85,-2.39441,0.960022,-0.000957664,-0.00100438,0.00297362,0.00199269,-0.00395473,0.781471,0.00349548,0.0335717,580,939,-2.39441,-0.960047
-637,85,-2.49829,0.98291,-0.00150123,-0.00164886,0.00313897,0.00156479,-0.00471488,0.773643,0.00377456,0.0159062,587,939,-2.49829,-0.982928
-630,85,-2.52386,0.900574,-0.00270901,-0.00221248,0.00285997,0.000409984,-0.00533147,0.828693,0.00369856,0.0100691,594,939,-2.52387,-0.900596
-623,85,-2.53497,0.8703,-0.003558,-0.00236997,0.00256542,-0.000330691,-0.00559728,0.899167,0.00362632,0.0089831,601,939,-2.535,-0.870284
-616,85,-2.54858,0.872498,-0.00334756,-0.00138381,0.0020099,-0.00012877,-0.0046026,1.01261,0.00302639,0.00902844,608,939,-2.54857,-0.872468
-609,85,-2.57269,0.834167,-0.00328294,-0.00114279,0.00167516,-0.000225094,-0.00420064,1.06963,0.00272849,0.0109923,615,939,-2.57267,-0.834174
-602,85,-2.55695,0.786926,-0.00329159,-0.000477199,0.00165114,0.000285047,-0.00405383,1.1383,0.00280241,0.0148272,622,939,-2.55696,-0.786897
-595,85,-2.52991,0.782715,-0.00313153,-0.000163508,0.00127324,0.000307837,-0.00360287,1.21624,0.00251082,0.0160045,629,939,-2.52988,-0.782734
-588,85,-2.53479,0.745972,-0.00334223,-8.72949e-05,0.00120351,0.000309362,-0.00373888,1.25242,0.00260185,0.015596,636,939,-2.53481,-0.745946
-581,85,-2.54077,0.711304,-0.00379697,3.97757e-05,0.00121185,0.000390483,-0.00414768,1.28909,0.00290405,0.0137511,643,939,-2.54074,-0.711321
-574,85,-2.60638,0.757324,-0.00401594,0.000193716,0.00102546,0.000430228,-0.00425245,1.34412,0.00298872,0.0200121,650,939,-2.60638,-0.757313
-567,85,-2.74585,0.83374,-0.00400997,0.000470057,0.000684059,0.000572178,-0.00411209,1.4226,0.00295067,0.0311717,657,939,-2.74583,-0.833767
-560,85,-2.71637,0.859009,-0.0037166,0.000580813,0.000323278,0.000604996,-0.00374078,1.49613,0.00271806,0.0352805,664,939,-2.71637,-0.859012
-553,85,-2.81836,0.903259,-0.00312545,0.000837297,-0.000234166,0.000851086,-0.00313924,-1.51198,0.00242679,0.0406263,671,939,-2.81838,-0.903284
-546,85,-2.89337,0.900696,-0.00210379,0.00111514,-0.00100018,0.0014006,-0.00238925,-1.29278,0.00221275,0.0400625,678,939,-2.89335,-0.900705
-539,85,-2.88324,0.809998,-0.000579181,0.00139002,-0.00197396,0.00261131,-0.00180047,-1.01674,0.00256144,0.0369616,685,939,-2.88323,-0.810015
-532,85,-2.94421,0.85614,0.00147683,0.00161757,-0.00314009,0.00468808,-0.00159368,-0.796602,0.0037706,0.0389952,692,939,-2.94419,-0.856151
-525,85,-2.91296,0.847534,0.00402641,0.00170279,-0.00445519,0.00746878,-0.00173958,-0.65785,0.00564905,0.0371062,699,939,-2.91294,-0.847545
-518,85,-2.84784,0.788574,0.00674831,0.00153075,-0.00578437,0.010485,-0.00220592,-0.573553,0.00782957,0.0364733,706,939,-2.84785,-0.788586
-511,85,0,0,0,0,0,0,0,0,0,-1,713,939,0,0
-504,85,0,0,0,0,0,0,0,0,0,-1,720,939,0,0
-497,85,0,0,0,0,0,0,0,0,0,-1,727,939,0,0
-490,85,0,0,0,0,0,0,0,0,0,-1,734,939,0,0
-483,85,0,0,0,0,0,0,0,0,0,-1,741,939,0,0
-476,85,0,0,0,0,0,0,0,0,0,-1,748,939,0,0
-469,85,0,0,0,0,0,0,0,0,0,-1,755,939,0,0
-462,85,0,0,0,0,0,0,0,0,0,-1,762,939,0,0
-455,85,0,0,0,0,0,0,0,0,0,-1,769,939,0,0
-448,85,0,0,0,0,0,0,0,0,0,-1,776,939,0,0
-441,85,0,0,0,0,0,0,0,0,0,-1,783,939,0,0
-434,85,0,0,0,0,0,0,0,0,0,-1,790,939,0,0
-427,85,0,0,0,0,0,0,0,0,0,-1,797,939,0,0
-420,85,0,0,0,0,0,0,0,0,0,-1,804,939,0,0
-413,85,0,0,0,0,0,0,0,0,0,-1,811,939,0,0
-406,85,0,0,0,0,0,0,0,0,0,-1,818,939,0,0
-399,85,0,0,0,0,0,0,0,0,0,-1,825,939,0,0
-392,85,0,0,0,0,0,0,0,0,0,-1,832,939,0,0
-385,85,0,0,0,0,0,0,0,0,0,-1,839,939,0,0
-378,85,0,0,0,0,0,0,0,0,0,-1,846,939,0,0
-371,85,0,0,0,0,0,0,0,0,0,-1,853,939,0,0
-364,85,0,0,0,0,0,0,0,0,0,-1,860,939,0,0
-357,85,0,0,0,0,0,0,0,0,0,-1,867,939,0,0
-350,85,0,0,0,0,0,0,0,0,0,-1,874,939,0,0
-343,85,0,0,0,0,0,0,0,0,0,-1,881,939,0,0
-336,85,0,0,0,0,0,0,0,0,0,-1,888,939,0,0
-329,85,0,0,0,0,0,0,0,0,0,-1,895,939,0,0
-322,85,0,0,0,0,0,0,0,0,0,-1,902,939,0,0
-315,85,0,0,0,0,0,0,0,0,0,-1,909,939,0,0
-308,85,0,0,0,0,0,0,0,0,0,-1,916,939,0,0
-301,85,0,0,0,0,0,0,0,0,0,-1,923,939,0,0
-294,85,0,0,0,0,0,0,0,0,0,-1,930,939,0,0
-287,85,0,0,0,0,0,0,0,0,0,-1,937,939,0,0
-280,85,0,0,0,0,0,0,0,0,0,-1,944,939,0,0
-273,85,0,0,0,0,0,0,0,0,0,-1,951,939,0,0
-266,85,0,0,0,0,0,0,0,0,0,-1,958,939,0,0
-259,85,0,0,0,0,0,0,0,0,0,-1,965,939,0,0
-252,85,0,0,0,0,0,0,0,0,0,-1,972,939,0,0
-245,85,0,0,0,0,0,0,0,0,0,-1,979,939,0,0
-238,85,0,0,0,0,0,0,0,0,0,-1,986,939,0,0
-231,85,0,0,0,0,0,0,0,0,0,-1,993,939,0,0
-224,85,0,0,0,0,0,0,0,0,0,-1,1000,939,0,0
-217,85,0,0,0,0,0,0,0,0,0,-1,1007,939,0,0
-210,85,0,0,0,0,0,0,0,0,0,-1,1014,939,0,0
-203,85,0,0,0,0,0,0,0,0,0,-1,1021,939,0,0
-196,85,0,0,0,0,0,0,0,0,0,-1,1028,939,0,0
-189,85,0,0,0,0,0,0,0,0,0,-1,1035,939,0,0
-182,85,0,0,0,0,0,0,0,0,0,-1,1042,939,0,0
-175,85,0,0,0,0,0,0,0,0,0,-1,1049,939,0,0
-168,85,0,0,0,0,0,0,0,0,0,-1,1056,939,0,0
-161,85,0,0,0,0,0,0,0,0,0,-1,1063,939,0,0
-154,85,0,0,0,0,0,0,0,0,0,-1,1070,939,0,0
-147,85,0,0,0,0,0,0,0,0,0,-1,1077,939,0,0
-140,85,0,0,0,0,0,0,0,0,0,-1,1084,939,0,0
-133,85,0,0,0,0,0,0,0,0,0,-1,1091,939,0,0
-126,85,0,0,0,0,0,0,0,0,0,-1,1098,939,0,0
-119,85,0,0,0,0,0,0,0,0,0,-1,1105,939,0,0
-112,85,0,0,0,0,0,0,0,0,0,-1,1112,939,0,0
-105,85,0,0,0,0,0,0,0,0,0,-1,1119,939,0,0
-98,85,0,0,0,0,0,0,0,0,0,-1,1126,939,0,0
-91,85,0,0,0,0,0,0,0,0,0,-1,1133,939,0,0
-84,85,0,0,0,0,0,0,0,0,0,-1,1140,939,0,0
-77,85,0,0,0,0,0,0,0,0,0,-1,1147,939,0,0
-70,85,0,0,0,0,0,0,0,0,0,-1,1154,939,0,0
-63,85,0,0,0,0,0,0,0,0,0,-1,1161,939,0,0
-56,85,0,0,0,0,0,0,0,0,0,-1,1168,939,0,0
-49,85,0,0,0,0,0,0,0,0,0,-1,1175,939,0,0
-42,85,0,0,0,0,0,0,0,0,0,-1,1182,939,0,0
-35,85,0,0,0,0,0,0,0,0,0,-1,1189,939,0,0
-28,85,0,0,0,0,0,0,0,0,0,-1,1196,939,0,0
-21,85,0,0,0,0,0,0,0,0,0,-1,1203,939,0,0
-14,85,0,0,0,0,0,0,0,0,0,-1,1210,939,0,0
-7,85,0,0,0,0,0,0,0,0,0,-1,1217,939,0,0
0,85,0,0,0,0,0,0,0,0,0,-1,1224,939,0,0
7,85,0,0,0,0,0,0,0,0,0,-1,1231,939,0,0
14,85,0,0,0,0,0,0,0,0,0,-1,1238,939,0,0
21,85,0,0,0,0,0,0,0,0,0,-1,1245,939,0,0
28,85,0,0,0,0,0,0,0,0,0,-1,1252,939,0,0
35,85,0,0,0,0,0,0,0,0,0,-1,1259,939,0,0
42,85,0,0,0,0,0,0,0,0,0,-1,1266,939,0,0
49,85,0,0,0,0,0,0,0,0,0,-1,1273,939,0,0
56,85,0,0,0,0,0,0,0,0,0,-1,1280,939,0,0
63,85,0,0,0,0,0,0,0,0,0,-1,1287,939,0,0
70,85,0,0,0,0,0,0,0,0,0,-1,1294,939,0,0
77,85,0,0,0,0,0,0,0,0,0,-1,1301,939,0,0
84,85,0,0,0,0,0,0,0,0,0,-1,1308,939,0,0
91,85,0,0,0,0,0,0,0,0,0,-1,1315,939,0,0
98,85,0,0,0,0,0,0,0,0,0,-1,1322,939,0,0
105,85,0,0,0,0,0,0,0,0,0,-1,1329,939,0,0
112,85,0,0,0,0,0,0,0,0,0,-1,1336,939,0,0
119,85,0,0,0,0,0,0,0,0,0,-1,1343,939,0,0
126,85,0,0,0,0,0,0,0,0,0,-1,1350,939,0,0
133,85,0,0,0,0,0,0,0,0,0,-1,1357,939,0,0
140,85,0,0,0,0,0,0,0,0,0,-1,1364,939,0,0
147,85,0,0,0,0,0,0,0,0,0,-1,1371,939,0,0
154,85,0,0,0,0,0,0,0,0,0,-1,1378,939,0,0
161,85,0,0,0,0,0,0,0,0,0,-1,1385,939,0,0
168,85,0,0,0,0,0,0,0,0,0,-1,1392,939,0,0
175,85,0,0,0,0,0,0,0,0,0,-1,1399,939,0,0
182,85,0,0,0,0,0,0,0,0,0,-1,1406,939,0,0
189,85,0,0,0,0,0,0,0,0,0,-1,1413,939,0,0
196,85,0,0,0,0,0,0,0,0,0,-1,1420,939,0,0
203,85,0,0,0,0,0,0,0,0,0,-1,1427,939,0,0
210,85,0,0,0,0,0,0,0,0,0,-1,1434,939,0,0
217,85,0,0,0,0,0,0,0,0,0,-1,1441,939,0,0
224,85,0,0,0,0,0,0,0,0,0,-1,1448,939,0,0
231,85,0,0,0,0,0,0,0,0,0,-1,1455,939,0,0
238,85,0,0,0,0,0,0,0,0,0,-1,1462,939,0,0
245,85,0,0,0,0,0,0,0,0,0,-1,1469,939,0,0
252,85,0,0,0,0,0,0,0,0,0,-1,1476,939,0,0
259,85,0,0,0,0,0,0,0,0,0,-1,1483,939,0,0
266,85,0,0,0,0,0,0,0,0,0,-1,1490,939,0,0
273,85,0,0,0,0,0,0,0,0,0,-1,1497,939,0,0
280,85,0,0,0,0,0,0,0,0,0,-1,1504,939,0,0
287,85,0,0,0,0,0,0,0,0,0,-1,1511,939,0,0
294,85,0,0,0,0,0,0,0,0,0,-1,1518,939,0,0
301,85,0,0,0,0,0,0,0,0,0,-1,1525,939,0,0
308,85,0,0,0,0,0,0,0,0,0,-1,1532,939,0,0
315,85,0,0,0,0,0,0,0,0,0,-1,1539,939,0,0
322,85,0,0,0,0,0,0,0,0,0,-1,1546,939,0,0
329,85,0,0,0,0,0,0,0,0,0,-1,1553,939,0,0
336,85,0,0,0,0,0,0,0,0,0,-1,1560,939,0,0
343,85,0,0,0,0,0,0,0,0,0,-1,1567,939,0,0
350,85,0,0,0,0,0,0,0,0,0,-1,1574,939,0,0
357,85,0,0,0,0,0,0,0,0,0,-1,1581,939,0,0
364,85,0,0,0,0,0,0,0,0,0,-1,1588,939,0,0
371,85,0,0,0,0,0,0,0,0,0,-1,1595,939,0,0
378,85,0,0,0,0,0,0,0,0,0,-1,1602,939,0,0
385,85,0,0,0,0,0,0,0,0,0,-1,1609,939,0,0
392,85,0,0,0,0,0,0,0,0,0,-1,1616,939,0,0
399,85,0,0,0,0,0,0,0,0,0,-1,1623,939,0,0
406,85,0,0,0,0,0,0,0,0,0,-1,1630,939,0,0
413,85,0,0,0,0,0,0,0,0,0,-1,1637,939,0,0
420,85,0,0,0,0,0,0,0,0,0,-1,1644,939,0,0
427,85,0,0,0,0,0,0,0,0,0,-1,1651,939,0,0
434,85,0,0,0,0,0,0,0,0,0,-1,1658,939,0,0
441,85,0,0,0,0,0,0,0,0,0,-1,1665,939,0,0
448,85,0,0,0,0,0,0,0,0,0,-1,1672,939,0,0
455,85,0,0,0,0,0,0,0,0,0,-1,1679,939,0,0
462,85,0,0,0,0,0,0,0,0,0,-1,1686,939,0,0
469,85,0,0,0,0,0,0,0,0,0,-1,1693,939,0,0
476,85,0,0,0,0,0,0,0,0,0,-1,1700,939,0,0
483,85,0,0,0,0,0,0,0,0,0,-1,1707,939,0,0
490,85,0,0,0,0,0,0,0,0,0,-1,1714,939,0,0
497,85,0,0,0,0,0,0,0,0,0,-1,1721,939,0,0
504,85,0,0,0,0,0,0,0,0,0,-1,1728,939,0,0
511,85,0,0,0,0,0,0,0,0,0,-1,1735,939,0,0
518,85,0,0,0,0,0,0,0,0,0,-1,1742,939,0,0
525,85,0,0,0,0,0,0,0,0,0,-1,1749,939,0,0
532,85,0,0,0,0,0,0,0,0,0,-1,1756,939,0,0
539,85,0,0,0,0,0,0,0,0,0,-1,1763,939,0,0
546,85,0,0,0,0,0,0,0,0,0,-1,1770,939,0,0
553,85,0,0,0,0,0,0,0,0,0,-1,1777,939,0,0
560,85,0,0,0,0,0,0,0,0,0,-1,1784,939,0,0
567,85,0,0,0,0,0,0,0,0,0,-1,1791,939,0,0
574,85,0,0,0,0,0,0,0,0,0,-1,1798,939,0,0
581,85,0,0,0,0,0,0,0,0,0,-1,1805,939,0,0
588,85,0,0,0,0,0,0,0,0,0,-1,1812,939,0,0
595,85,0,0,0,0,0,0,0,0,0,-1,1819,939,0,0
602,85,0,0,0,0,0,0,0,0,0,-1,1826,939,0,0
609,85,0,0,0,0,0,0,0,0,0,-1,1833,939,0,0
616,85,0,0,0,0,0,0,0,0,0,-1,1840,939,0,0
623,85,0,0,0,0,0,0,0,0,0,-1,1847,939,0,0
630,85,0,0,0,0,0,0,0,0,0,-1,1854,939,0,0
637,85,7.12537,0.900269,0.00208813,-0.00124532,0.00309941,0.00394054,-0.00309773,0.538701,0.00407324,0.0491817,1861,939,7.12533,-0.900293
644,85,7.12744,1.10986,0.00176759,-0.00212563,0.00221044,0.00276637,-0.00312441,0.42439,0.00340314,0.0407573,1868,939,7.12743,-1.10987
651,85,7.16675,1.32898,0.00139381,-0.00246526,0.00153798,0.00193176,-0.00300321,0.336477,0.0028715,0.0418857,1875,939,7.16674,-1.32897
658,85,7.10706,1.03467,0.000618067,-0.002521,0.00096976,0.000893491,-0.00279643,0.276726,0.0022228,0.0442294,1882,939,7.10711,-1.03468
665,85,7.14136,0.969788,-0.000395579,-0.00244342,0.000462834,-0.000295832,-0.00254317,0.212267,0.00160594,0.0428026,1889,939,7.14137,-0.969817
672,85,7.21167,1.05823,-0.00137592,-0.00226247,5.16637e-05,-0.00137292,-0.00226547,0.0580134,0.00131774,0.0414562,1896,939,7.21168,-1.05821
679,85,7.19507,0.920105,-0.00225684,-0.00202,-0.000240153,-0.00187066,-0.00240618,-1.01445,0.00145876,0.0405668,1903,939,7.19501,-0.92008
686,85,7.14758,1.01404,-0.0030295,-0.00183119,-0.000469803,-0.00166896,-0.00319173,-1.23831,0.00184339,0.0352459,1910,939,7.14758,-1.01404
693,85,7.17664,1.07996,-0.00361866,-0.00157405,-0.000638272,-0.00139115,-0.00380155,-1.29173,0.00222096,0.0255794,1917,939,7.17667,-1.07996
700,85,7.19482,1.12976,-0.00395367,-0.00121682,-0.000788965,-0.00100567,-0.00416482,-1.3093,0.00250942,0.022682,1924,939,7.19479,-1.12975
707,85,7.01062,1.09259,-0.00401973,-0.0010419,-0.00082158,-0.000830265,-0.00423137,-1.31869,0.00258892,0.0266905,1931,939,7.01056,-1.09258
714,85,6.81189,1.09857,-0.00391663,-0.000839701,-0.000694227,-0.000690319,-0.00406601,-1.35885,0.00251238,0.0253859,1938,939,6.81188,-1.09856
721,85,6.89001,1.12854,-0.00362846,-0.000467589,-0.000524912,-0.000382699,-0.00371335,-1.41046,0.00235837,0.0208883,1945,939,6.89005,-1.12851
728,85,6.90552,1.18896,-0.00321087,1.93531e-05,-0.000367345,6.06012e-05,-0.00325212,-1.45898,0.00218856,0.0165611,1952,939,6.90556,-1.18894
735,85,6.8822,1.20471,-0.00272056,0.000635425,6.58424e-05,0.000636716,-0.00272186,1.55119,0.00205988,0.0157326,1959,939,6.88215,-1.20468
742,85,6.89282,1.21216,-0.00205967,0.00158891,0.000488611,0.00165321,-0.00212397,1.43995,0.0021864,0.014497,1966,939,6.89282,-1.21214
749,85,6.87988,1.24725,-0.00132202,0.00233602,0.000807537,0.00250636,-0.00149236,1.36291,0.00233327,0.0129961,1973,939,6.87985,-1.24724
756,85,6.87158,1.2829,-0.000656852,0.00333836,0.00138834,0.00377343,-0.00109192,1.26711,0.00294779,0.0124211,1980,939,6.8716,-1.28292
763,85,6.87402,1.31915,-0.000212414,0.00464069,0.00201891,0.00537074,-0.000942466,1.22382,0.00393248,0.0125153,1987,939,6.87408,-1.31917
770,85,6.86328,1.34808,-4.15682e-05,0.00610309,0.00271755,0.00713251,-0.00107098,1.2087,0.00514926,0.0184281,1994,939,6.86328,-1.34806
777,85,6.81775,1.3443,-4.35608e-05,0.00765805,0.00348601,0.00900156,-0.00138708,1.20294,0.00651282,0.0397271,2001,939,6.81777,-1.34431
784,85,6.77783,1.3681,-0.000165846,0.00919772,0.00438403,0.0109299,-0.00189801,1.19451,0.00799472,0.0477741,2008,939,6.77785,-1.36812
791,85,6.85754,1.63556,-0.000512768,0.0104769,0.00539759,0.0126845,-0.00272035,1.18256,0.00949391,0.0465451,2015,939,6.85754,-1.63557
798,85,7.3396,1.45941,0,0,0,0,0,0,0,-1,2022,939,7.33957,-1.45943
805,85,7.50977,1.21216,0,0,0,0,0,0,0,-1,2029,939,7.50981,-1.21214
812,85,0,0,0,0,0,0,0,0,0,-1,2036,939,0,0
-700,78,0,0,0,0,0,0,0,0,0,-1,524,946,0,0
-693,78,0,0,0,0,0,0,0,0,0,-1,531,946,0,0
-686,78,-1.75323,2.45996,0,0,0,0,0,0,0,-1,538,946,-1.7532,-2.45999
-679,78,-2.3407,-1.91901,0,0,0,0,0,0,0,-1,545,946,-2.3407,1.91901
-672,78,-2.3927,-1.30322,0.0054312,0.011663,0.000868302,0.0117817,0.00531247,1.43491,0.00681308,0.0488508,552,946,-2.3927,1.30324
-665,78,-2.48279,-0.863953,0,0,0,0,0,0,0,-1,559,946,-2.48277,0.863925
-658,78,-2.09003,0.570129,0,0,0,0,0,0,0,-1,566,946,-2.09005,-0.570115
-651,78,-2.29926,0.787781,-0.00266235,0.00162937,0.00450835,0.0044765,-0.00550948,1.00752,0.00577568,0.046565,573,946,-2.29927,-0.787756
-644,78,-2.53815,0.99884,-0.00361491,0.000285386,0.00434433,0.0030972,-0.00642672,0.996365,0.00560952,0.0273315,580,946,-2.53817,-0.998841
-637,78,-2.54663,0.946838,-0.00331606,-0.000586616,0.00425737,0.00251942,-0.00642209,0.940502,0.00532377,0.012881,587,946,-2.54661,-0.946852
-630,78,-2.55817,0.882324,-0.00398854,-0.00143746,0.00366038,0.00116326,-0.00658926,0.953055,0.00482754,0.0113498,594,946,-2.55817,-0.882295
-623,78,-2.57239,0.865784,-0.00450869,-0.00187936,0.00305645,0.000133167,-0.00652122,0.988501,0.00439254,0.0110355,601,946,-2.57236,-0.865787
-616,78,-2.57434,0.862671,-0.0039974,-0.000971429,0.00224759,0.000224972,-0.0051938,1.08164,0.00353991,0.00968592,608,946,-2.57433,-0.862683
-609,78,-2.5697,0.822693,-0.00364879,-0.000858689,0.00173506,-2.73937e-05,-0.00448009,1.124,0.00297763,0.0105638,615,946,-2.56971,-0.82272
-602,78,-2.56921,0.773132,-0.00339167,-0.000246499,0.00159668,0.000421993,-0.00406016,1.17429,0.00285784,0.0137455,622,946,-2.5692,-0.773158
-595,78,-2.55316,0.759338,-0.00302697,9.08091e-06,0.00113026,0.000383644,-0.00340153,1.25079,0.00240579,0.0136096,629,946,-2.55314,-0.759367
-588,78,-2.5661,0.756592,-0.00311647,6.71948e-05,0.00100446,0.000357612,-0.00340689,1.28934,0.00239936,0.0123339,636,946,-2.5661,-0.756571
-581,78,-2.59253,0.754822,-0.00344818,0.000205538,0.000983838,0.000453613,-0.00369625,1.32379,0.00262845,0.0144372,643,946,-2.59254,-0.754804
-574,78,-2.67871,0.774475,-0.00352771,0.000395849,0.000770958,0.000541901,-0.00367376,1.38357,0.00264835,0.0198863,650,946,-2.67869,-0.774447
-567,78,-2.80646,0.810791,-0.00345435,0.000718679,0.000413318,0.000759223,-0.00349489,1.47302,0.00261993,0.030369,657,946,-2.80649,-0.810799
-560,78,-2.81635,0.947021,-0.00312252,0.000915,2.07275e-05,0.000915106,-0.00312263,1.56566,0.00244456,0.0328082,664,946,-2.81633,-0.947012
-553,78,-2.85229,1.02374,-0.00249122,0.00125306,-0.000563809,0.00133611,-0.00257427,-1.42454,0.00229508,0.0411382,671,946,-2.85229,-1.02377
-546,78,-2.84442,1.05023,-0.00145237,0.00162565,-0.00135484,0.00213704,-0.00196376,-1.20988,0.0023683,0.040824,678,946,-2.84439,-1.05023
-539,78,-2.76801,1.03674,6.66682e-05,0.00201071,-0.00235569,0.00358704,-0.00150966,-0.981071,0.00302296,0.0377456,685,946,-2.76803,-1.03676
-532,78,-2.8797,0.972595,0.00208937,0.00236717,-0.00355021,0.0057812,-0.00132465,-0.80495,0.00436323,0.0390475,692,946,-2.87969,-0.972589
-525,78,-2.78619,0.645081,0.00454197,0.00260745,-0.0049046,0.00857378,-0.00142436,-0.68804,0.00624502,0.0364077,699,946,-2.78617,-0.645057
-518,78,-2.72137,0.534851,0.00714564,0.00261972,-0.00634019,0.0116146,-0.00184926,-0.613984,0.0084274,0.0369395,706,946,-2.72134,-0.534859
-511,78,0,0,0,0,0,0,0,0,0,-1,713,946,0,0
-504,78,0,0,0,0,0,0,0,0,0,-1,720,946,0,0
-497,78,0,0,0,0,0,0,0,0,0,-1,727,946,0,0
-490,78,0,0,0,0,0,0,0,0,0,-1,734,946,0,0
-483,78,0,0,0,0,0,0,0,0,0,-1,741,946,0,0
-476,78,0,0,0,0,0,0,0,0,0,-1,748,946,0,0
-469,78,0,0,0,0,0,0,0,0,0,-1,755,946,0,0
-462,78,0,0,0,0,0,0,0,0,0,-1,762,946,0,0
-455,78,0,0,0,0,0,0,0,0,0,-1,769,946,0,0
-448,78,0,0,0,0,0,0,0,0,0,-1,776,946,0,0
-441,78,0,0,0,0,0,0,0,0,0,-1,783,946,0,0
-434,78,0,0,0,0,0,0,0,0,0,-1,790,946,0,0
-427,78,0,0,0,0,0,0,0,0,0,-1,797,946,0,0
-420,78,0,0,0,0,0,0,0,0,0,-1,804,946,0,0
-413,78,0,0,0,0,0,0,0,0,0,-1,811,946,0,0
-406,78,0,0,0,0,0,0,0,0,0,-1,818,946,0,0
-399,78,0,0,0,0,0,0,0,0,0,-1,825,946,0,0
-392,78,0,0,0,0,0,0,0,0,0,-1,832,946,0,0
-385,78,0,0,0,0,0,0,0,0,0,-1,839,946,0,0
-378,78,0,0,0,0,0,0,0,0,0,-1,846,946,0,0
-371,78,0,0,0,0,0,0,0,0,0,-1,853,946,0,0
-364,78,0,0,0,0,0,0,0,0,0,-1,860,946,0,0
-357,78,0,0,0,0,0,0,0,0,0,-1,867,946,0,0
-350,78,0,0,0,0,0,0,0,0,0,-1,874,946,0,0
-343,78,0,0,0,0,0,0,0,0,0,-1,881,946,0,0
-336,78,0,0,0,0,0,0,0,0,0,-1,888,946,0,0
-329,78,0,0,0,0,0,0,0,0,0,-1,895,946,0,0
-322,78,0,0,0,0,0,0,0,0,0,-1,902,946,0,0
-315,78,0,0,0,0,0,0,0,0,0,-1,909,946,0,0
-308,78,0,0,0,0,0,0,0,0,0,-1,916,946,0,0
-301,78,0,0,0,0,0,0,0,0,0,-1,923,946,0,0
-294,78,0,0,0,0,0,0,0,0,0,-1,930,946,0,0
-287,78,0,0,0,0,0,0,0,0,0,-1,937,946,0,0
-280,78,0,0,0,0,0,0,0,0,0,-1,944,946,0,0
-273,78,0,0,0,0,0,0,0,0,0,-1,951,946,0,0
-266,78,0,0,0,0,0,0,0,0,0,-1,958,946,0,0
-259,78,0,0,0,0,0,0,0,0,0,-1,965,946,0,0
-252,78,0,0,0,0,0,0,0,0,0,-1,972,946,0,0
-245,78,0,0,0,0,0,0,0,0,0,-1,979,946,0,0
-238,78,0,0,0,0,0,0,0,0,0,-1,986,946,0,0
-231,78,0,0,0,0,0,0,0,0,0,-1,993,946,0,0
-224,78,0,0,0,0,0,0,0,0,0,-1,1000,946,0,0
-217,78,0,0,0,0,0,0,0,0,0,-1,1007,946,0,0
-210,78,0,0,0,0,0,0,0,0,0,-1,1014,946,0,0
-203,78,0,0,0,0,0,0,0,0,0,-1,1021,946,0,0
-196,78,0,0,0,0,0,0,0,0,0,-1,1028,946,0,0
-189,78,0,0,0,0,0,0,0,0,0,-1,1035,946,0,0
-182,78,0,0,0,0,0,0,0,0,0,-1,1042,946,0,0
-175,78,0,0,0,0,0,0,0,0,0,-1,1049,946,0,0
-168,78,0,0,0,0,0,0,0,0,0,-1,1056,946,0,0
-161,78,0,0,0,0,0,0,0,0,0,-1,1063,946,0,0
-154,78,0,0,0,0,0,0,0,0,0,-1,1070,946,0,0
-147,78,0,0,0,0,0,0,0,0,0,-1,1077,946,0,0
-140,78,0,0,0,0,0,0,0,0,0,-1,1084,946,0,0
-133,78,0,0,0,0,0,0,0,0,0,-1,1091,946,0,0
-126,78,0,0,0,0,0,0,0,0,0,-1,1098,946,0,0
-119,78,0,0,0,0,0,0,0,0,0,-1,1105,946,0,0
-112,78,0,0,0,0,0,0,0,0,0,-1,1112,946,0,0
-105,78,0,0,0,0,0,0,0,0,0,-1,1119,946,0,0
-98,78,0,0,0,0,0,0,0,0,0,-1,1126,946,0,0
-91,78,0,0,0,0,0,0,0,0,0,-1,1133,946,0,0
-84,78,0,0,0,0,0,0,0,0,0,-1,1140,946,0,0
-77,78,0,0,0,0,0,0,0,0,0,-1,1147,946,0,0
-70,78,0,0,0,0,0,0,0,0,0,-1,1154,946,0,0
-63,78,0,0,0,0,0,0,0,0,0,-1,1161,946,0,0
-56,78,0,0,0,0,0,0,0,0,0,-1,1168,946,0,0
-49,78,0,0,0,0,0,0,0,0,0,-1,1175,946,0,0
-42,78,0,0,0,0,0,0,0,0,0,-1,1182,946,0,0
-35,78,0,0,0,0,0,0,0,0,0,-1,1189,946,0,0
-28,78,0,0,0,0,0,0,0,0,0,-1,1196,946,0,0
-21,78,0,0,0,0,0,0,0,0,0,-1,1203,946,0,0
-14,78,0,0,0,0,0,0,0,0,0,-1,1210,946,0,0
-7,78,0,0,0,0,0,0,0,0,0,-1,1217,946,0,0
0,78,0,0,0,0,0,0,0,0,0,-1,1224,946,0,0
7,78,0,0,0,0,0,0,0,0,0,-1,1231,946,0,0
14,78,0,0,0,0,0,0,0,0,0,-1,1238,946,0,0
21,78,0,0,0,0,0,0,0,0,0,-1,1245,946,0,0
28,78,0,0,0,0,0,0,0,0,0,-1,1252,946,0,0
35,78,0,0,0,0,0,0,0,0,0,-1,1259,946,0,0
42,78,0,0,0,0,0,0,0,0,0,-1,1266,946,0,0
49,78,0,0,0,0,0,0,0,0,0,-1,1273,946,0,0
56,78,0,0,0,0,0,0,0,0,0,-1,1280,946,0,0
63,78,0,0,0,0,0,0,0,0,0,-1,1287,946,0,0
70,78,0,0,0,0,0,0,0,0,0,-1,1294,946,0,0
77,78,0,0,0,0,0,0,0,0,0,-1,1301,946,0,0
84,78,0,0,0,0,0,0,0,0,0,-1,1308,946,0,0
91,78,0,0,0,0,0,0,0,0,0,-1,1315,946,0,0
98,78,0,0,0,0,0,0,0,0,0,-1,1322,946,0,0
105,78,0,0,0,0,0,0,0,0,0,-1,1329,946,0,0
112,78,0,0,0,0,0,0,0,0,0,-1,1336,946,0,0
119,78,0,0,0,0,0,0,0,0,0,-1,1343,946,0,0
126,78,0,0,0,0,0,0,0,0,0,-1,1350,946,0,0
133,78,0,0,0,0,0,0,0,0,0,-1,1357,946,0,0
140,78,0,0,0,0,0,0,0,0,0,-1,1364,946,0,0
147,78,0,0,0,0,0,0,0,0,0,-1,1371,946,0,0
154,78,0,0,0,0,0,0,0,0,0,-1,1378,946,0,0
161,78,0,0,0,0,0,0,0,0,0,-1,1385,946,0,0
168,78,0,0,0,0,0,0,0,0,0,-1,1392,946,0,0
175,78,0,0,0,0,0,0,0,0,0,-1,1399,946,0,0
182,78,0,0,0,0,0,0,0,0,0,-1,1406,946,0,0
189,78,0,0,0,0,0,0,0,0,0,-1,1413,946,0,0
196,78,0,0,0,0,0,0,0,0,0,-1,1420,946,0,0
203,78,0,0,0,0,0,0,0,0,0,-1,1427,946,0,0
210,78,0,0,0,0,0,0,0,0,0,-1,1434,946,0,0
217,78,0,0,0,0,0,0,0,0,0,-1,1441,946,0,0
224,78,0,0,0,0,0,0,0,0,0,-1,1448,946,0,0
231,78,0,0,0,0,0,0,0,0,0,-1,1455,946,0,0
238,78,0,0,0,0,0,0,0,0,0,-1,1462,946,0,0
245,78,0,0,0,0,0,0,0,0,0,-1,1469,946,0,0
252,78,0,0,0,0,0,0,0,0,0,-1,1476,946,0,0
259,78,0,0,0,0,0,0,0,0,0,-1,1483,946,0,0
266,78,0,0,0,0,0,0,0,0,0,-1,1490,946,0,0
273,78,0,0,0,0,0,0,0,0,0,-1,1497,946,0,0
280,78,0,0,0,0,0,0,0,0,0,-1,1504,946,0,0
287,78,0,0,0,0,0,0,0,0,0,-1,1511,946,0,0
294,78,0,0,0,0,0,0,0,0,0,-1,1518,946,0,0
301,78,0,0,0,0,0,0,0,0,0,-1,1525,946,0,0
308,78,0,0,0,0,0,0,0,0,0,-1,1532,946,0,0
315,78,0,0,0,0,0,0,0,0,0,-1,1539,946,0,0
322,78,0,0,0,0,0,0,0,0,0,-1,1546,946,0,0
329,78,0,0,0,0,0,0,0,0,0,-1,1553,946,0,0
336,78,0,0,0,0,0,0,0,0,0,-1,1560,946,0,0
343,78,0,0,0,0,0,0,0,0,0,-1,1567,946,0,0
350,78,0,0,0,0,0,0,0,0,0,-1,1574,946,0,0
357,78,0,0,0,0,0,0,0,0,0,-1,1581,946,0,0
364,78,0,0,0,0,0,0,0,0,0,-1,1588,946,0,0
371,78,0,0,0,0,0,0,0,0,0,-1,1595,946,0,0
378,78,0,0,0,0,0,0,0,0,0,-1,1602,946,0,0
385,78,0,0,0,0,0,0,0,0,0,-1,1609,946,0,0
392,78,0,0,0,0,0,0,0,0,0,-1,1616,946,0,0
399,78,0,0,0,0,0,0,0,0,0,-1,1623,946,0,0
406,78,0,0,0,0,0,0,0,0,0,-1,1630,946,0,0
413,78,0,0,0,0,0,0,0,0,0,-1,1637,946,0,0
420,78,0,0,0,0,0,0,0,0,0,-1,1644,946,0,0
427,78,0,0,0,0,0,0,0,0,0,-1,1651,946,0,0
434,78,0,0,0,0,0,0,0,0,0,-1,1658,946,0,0
441,78,0,0,0,0,0,0,0,0,0,-1,1665,946,0,0
448,78,0,0,0,0,0,0,0,0,0,-1,1672,946,0,0
455,78,0,0,0,0,0,0,0,0,0,-1,1679,946,0,0
462,78,0,0,0,0,0,0,0,0,0,-1,1686,946,0,0
469,78,0,0,0,0,0,0,0,0,0,-1,1693,946,0,0
476,78,0,0,0,0,0,0,0,0,0,-1,1700,946,0,0
483,78,0,0,0,0,0,0,0,0,0,-1,1707,946,0,0
490,78,0,0,0,0,0,0,0,0,0,-1,1714,946,0,0
497,78,0,0,0,0,0,0,0,0,0,-1,1721,946,0,0
504,78,0,0,0,0,0,0,0,0,0,-1,1728,946,0,0
511,78,0,0,0,0,0,0,0,0,0,-1,1735,946,0,0
518,78,0,0,0,0,0,0,0,0,0,-1,1742,946,0,0
525,78,0,0,0,0,0,0,0,0,0,-1,1749,946,0,0
532,78,0,0,0,0,0,0,0,0,0,-1,1756,946,0,0
539,78,0,0,0,0,0,0,0,0,0,-1,1763,946,0,0
546,78,0,0,0,0,0,0,0,0,0,-1,1770,946,0,0
553,78,0,0,0,0,0,0,0,0,0,-1,1777,946,0,0
560,78,0,0,0,0,0,0,0,0,0,-1,1784,946,0,0
567,78,0,0,0,0,0,0,0,0,0,-1,1791,946,0,0
574,78,0,0,0,0,0,0,0,0,0,-1,1798,946,0,0
581,78,0,0,0,0,0,0,0,0,0,-1,1805,946,0,0
588,78,0,0,0,0,0,0,0,0,0,-1,1812,946,0,0
595,78,0,0,0,0,0,0,0,0,0,-1,1819,946,0,0
602,78,0,0,0,0,0,0,0,0,0,-1,1826,946,0,0
609,78,0,0,0,0,0,0,0,0,0,-1,1833,946,0,0
616,78,0,0,0,0,0,0,0,0,0,-1,1840,946,0,0
623,78,0,0,0,0,0,0,0,0,0,-1,1847,946,0,0
630,78,0,0,0,0,0,0,0,0,0,-1,1854,946,0,0
637,78,7.24792,1.05573,0.0016985,-0.00172229,0.00314217,0.00356563,-0.00358942,0.536156,0.00413098,0.0447538,1861,946,7.2479,-1.05576
644,78,7.16248,0.975403,0.00147887,-0.00283573,0.00206356,0.0023069,-0.00366377,0.381596,0.00347671,0.0406932,1868,946,7.16244,-0.975384
651,78,7.19751,1.05597,0.00134473,-0.00324352,0.00131934,0.00169706,-0.00359584,0.260954,0.00312071,0.0414928,1875,946,7.19749,-1.05598
658,78,7.23193,1.04181,0.000810217,-0.00326879,0.000785099,0.000956109,-0.00341468,0.183731,0.00265322,0.0403419,1882,946,7.23188,-1.04179
665,78,7.22327,1.0069,-2.98776e-05,-0.00311006,0.000348729,9.11113e-06,-0.00314905,0.11134,0.00210241,0.0404792,1889,946,7.2233,-1.00688
672,78,7.15869,1.0163,-0.000906994,-0.00282329,8.27819e-06,-0.000906958,-0.00282333,0.00431977,0.00166442,0.0419967,1896,946,7.15867,-1.0163
679,78,7.18823,1.02301,-0.00172509,-0.00246295,-0.000208737,-0.00167013,-0.00251791,-0.257442,0.00147933,0.0409617,1903,946,7.18819,-1.02298
686,78,7.20044,1.00372,-0.00246071,-0.00215253,-0.000372638,-0.00190338,-0.00270986,-0.98145,0.00160669,0.0371402,1910,946,7.20046,-1.00375
693,78,7.20129,1.05115,-0.00304328,-0.00180737,-0.000495807,-0.00163306,-0.00321759,-1.23271,0.00185775,0.0289315,1917,946,7.20128,-1.05115
700,78,7.17834,1.13062,-0.00342719,-0.0013979,-0.00061079,-0.00122824,-0.00359685,-1.29986,0.00211115,0.0211218,1924,946,7.1784,-1.13064
707,78,7.09778,1.14014,-0.00358992,-0.00112773,-0.000618347,-0.00098117,-0.00373649,-1.33806,0.00223685,0.0255495,1931,946,7.09778,-1.14011
714,78,6.92761,1.08508,-0.00359279,-0.00086726,-0.000509265,-0.000775213,-0.00368484,-1.39198,0.00224326,0.0208148,1938,946,6.92757,-1.08509
721,78,6.90967,1.10339,-0.00339981,-0.000476546,-0.000388723,-0.000425738,-0.00345062,-1.44083,0.00217245,0.0171694,1945,946,6.90966,-1.10341
728,78,6.94409,1.14771,-0.00314593,4.18968e-06,-0.000291871,3.10047e-05,-0.00317274,-1.47918,0.00212557,0.0175486,1952,946,6.94413,-1.14768
735,78,6.92859,1.19568,-0.00291923,0.000486722,5.31133e-05,0.000487551,-0.00292006,1.55521,0.00212793,0.0121834,1959,946,6.92864,-1.1957
742,78,6.92676,1.21649,-0.00256817,0.0012755,0.000386242,0.00131392,-0.0026066,1.47163,0.00230416,0.0119211,1966,946,6.92676,-1.21649
749,78,6.92493,1.24359,-0.00221544,0.00175661,0.00067389,0.00186782,-0.00232666,1.40723,0.00242651,0.012609,1973,946,6.92498,-1.24362
756,78,6.92725,1.25787,-0.00199343,0.00236846,0.00125066,0.00270161,-0.00232658,1.31046,0.00290572,0.0135876,1980,946,6.9273,-1.25787
763,78,6.93616,1.31317,-0.00207228,0.00319133,0.00194318,0.00383097,-0.00271192,1.2528,0.00379591,0.0117399,1987,946,6.93615,-1.3132
770,78,6.9325,1.34222,-0.00254727,0.00402787,0.00280068,0.00505908,-0.00357849,1.218,0.00501127,0.0156105,1994,946,6.93252,-1.3422
777,78,6.92029,1.35706,-0.00337981,0.00475198,0.00386232,0.00629403,-0.00492186,1.19093,0.00649163,0.0359113,2001,946,6.92024,-1.35707
784,78,6.94568,1.52167,-0.0044971,0.00521903,0.00526087,0.0075218,-0.00679987,1.1582,0.00827212,0.0452231,2008,946,6.94568,-1.52166
791,78,6.83057,1.52759,-0.00591757,0.00516211,0.00707976,0.00861187,-0.00936733,1.11738,0.0103833,0.0451454,2015,946,6.83055,-1.52761
798,78,6.80823,1.27637,0,0,0,0,0,0,0,-1,2022,946,6.80828,-1.27636
805,78,7.41943,1.03595,0,0,0,0,0,0,0,-1,2029,946,7.41941,-1.03597
812,78,0,0,0,0,0,0,0,0,0,-1,2036,946,0,0
-700,71,0,0,0,0,0,0,0,0,0,-1,524,953,0,0
-693,71,0,0,0,0,0,0,0,0,0,-1,531,953,0,0
-686,71,-1.10822,-2.48419,0,0,0,0,0,0,0,-1,538,953,-1.10821,2.48419
-679,71,-1.38593,-1.59039,0,0,0,0,0,0,0,-1,545,953,-1.38593,1.5904
-672,71,-1.63037,-0.698914,0,0,0,0,0,0,0,-1,552,953,-1.6304,0.698938
-665,71,-1.71564,-0.349426,0,0,0,0,0,0,0,-1,559,953,-1.71562,0.34942
-658,71,-1.88544,0.227783,-0.00513556,0.00443193,0.00596853,0.00729721,-0.00800084,1.12322,0.00883545,0.0474003,566,953,-1.88544,-0.22779
-651,71,-2.40106,0.929443,-0.0057789,0.00222693,0.00602161,0.00545473,-0.00900669,1.07874,0.00843284,0.048869,573,953,-2.40109,-0.929446
-644,71,-2.58466,1.06305,-0.00583961,0.00082511,0.00554775,0.00396439,-0.0089789,1.05585,0.00765747,0.035063,580,953,-2.58467,-1.06305
-637,71,-2.58997,0.92218,-0.00467127,-7.65759e-05,0.0052725,0.00337734,-0.00812519,0.990857,0.00682697,0.0142142,587,953,-2.58999,-0.922197
-630,71,-2.5979,0.902466,-0.0047855,-0.00105497,0.00439287,0.00185224,-0.00769272,0.986169,0.00584456,0.0120974,594,953,-2.59788,-0.902468
-623,71,-2.6062,0.876892,-0.00501851,-0.00164213,0.00348255,0.000539833,-0.00720048,1.01109,0.00499001,0.0120813,601,953,-2.60622,-0.876863
-616,71,-2.60297,0.861328,-0.00429994,-0.000711037,0.00245388,0.00053451,-0.00554549,1.1011,0.00388743,0.0116833,608,953,-2.60299,-0.86132
-609,71,-2.60181,0.840759,-0.0037644,-0.000653794,0.00178961,0.00016191,-0.00458011,1.14313,0.00310878,0.0133084,615,953,-2.60181,-0.840776
-602,71,-2.56262,0.781738,-0.00335315,-5.18201e-05,0.00154401,0.000557748,-0.00396272,1.19478,0.002846,0.0151199,622,953,-2.56264,-0.781728
-595,71,-2.56671,0.760681,-0.00286659,0.0001835,0.00100563,0.000485217,-0.00316831,1.27931,0.00229114,0.0151759,629,953,-2.56673,-0.760677
-588,71,-2.57953,0.789307,-0.00287551,0.000251101,0.000826325,0.000456054,-0.00308046,1.32767,0.00222132,0.0153704,636,953,-2.57951,-0.789324
-581,71,-2.63666,0.814575,-0.00310469,0.000412455,0.000761725,0.000570338,-0.00326257,1.36642,0.00238797,0.0208405,643,953,-2.63665,-0.814557
-574,71,-2.77136,0.81311,-0.00306179,0.000646472,0.00052914,0.000720498,-0.00313582,1.4318,0.00236754,0.0250104,650,953,-2.77135,-0.813097
-567,71,-2.81616,0.772034,-0.00293657,0.00102176,0.000163995,0.00102854,-0.00294336,1.52946,0.00238035,0.0199924,657,953,-2.81619,-0.772059
-560,71,-2.83807,0.892883,-0.00258197,0.00131789,-0.000248936,0.00133372,-0.00259779,-1.50731,0.00230864,0.0270957,664,953,-2.83807,-0.892881
-553,71,-2.83899,0.986816,-0.00193093,0.00175014,-0.00084414,0.00193449,-0.00211528,-1.35579,0.00233891,0.0385641,671,953,-2.83897,-0.986797
-546,71,-2.78522,1.00055,-0.000901465,0.00223626,-0.00163939,0.00293653,-0.00160173,-1.16711,0.00265767,0.0397655,678,953,-2.78524,-1.00056
-539,71,-2.73706,0.919128,0.000582543,0.00275934,-0.00264189,0.00452824,-0.00118636,-0.980792,0.00348231,0.0396995,685,953,-2.73707,-0.91914
-532,71,-2.79706,0.79187,0.00253813,0.00328765,-0.00383431,0.00676547,-0.000939694,-0.834113,0.00485396,0.0425819,692,953,-2.79705,-0.791855
-525,71,-2.73492,0.481628,0.00486114,0.00374933,-0.00519855,0.00953342,-0.000922952,-0.732133,0.00668454,0.0402552,699,953,-2.73495,-0.48162
-518,71,0,0,0,0,0,0,0,0,0,-1,706,953,0,0
-511,71,0,0,0,0,0,0,0,0,0,-1,713,953,0,0
-504,71,0,0,0,0,0,0,0,0,0,-1,720,953,0,0
-497,71,0,0,0,0,0,0,0,0,0,-1,727,953,0,0
-490,71,0,0,0,0,0,0,0,0,0,-1,734,953,0,0
-483,71,0,0,0,0,0,0,0,0,0,-1,741,953,0,0
-476,71,0,0,0,0,0,0,0,0,0,-1,748,953,0,0
-469,71,0,0,0,0,0,0,0,0,0,-1,755,953,0,0
-462,71,0,0,0,0,0,0,0,0,0,-1,762,953,0,0
-455,71,0,0,0,0,0,0,0,0,0,-1,769,953,0,0
-448,71,0,0,0,0,0,0,0,0,0,-1,776,953,0,0
-441,71,0,0,0,0,0,0,0,0,0,-1,783,953,0,0
-434,71,0,0,0,0,0,0,0,0,0,-1,790,953,0,0
-427,71,0,0,0,0,0,0,0,0,0,-1,797,953,0,0
-420,71,0,0,0,0,0,0,0,0,0,-1,804,953,0,0
-413,71,0,0,0,0,0,0,0,0,0,-1,811,953,0,0
-406,71,0,0,0,0,0,0,0,0,0,-1,818,953,0,0
-399,71,0,0,0,0,0,0,0,0,0,-1,825,953,0,0
-392,71,0,0,0,0,0,0,0,0,0,-1,832,953,0,0
-385,71,0,0,0,0,0,0,0,0,0,-1,839,953,0,0
-378,71,0,0,0,0,0,0,0,0,0,-1,846,953,0,0
-371,71,0,0,0,0,0,0,0,0,0,-1,853,953,0,0
-364,71,0,0,0,0,0,0,0,0,0,-1,860,953,0,0
-357,71,0,0,0,0,0,0,0,0,0,-1,867,953,0,0
-350,71,0,0,0,0,0,0,0,0,0,-1,874,953,0,0
-343,71,0,0,0,0,0,0,0,0,0,-1,881,953,0,0
-336,71,0,0,0,0,0,0,0,0,0,-1,888,953,0,0
-329,71,0,0,0,0,0,0,0,0,0,-1,895,953,0,0
-322,71,0,0,0,0,0,0,0,0,0,-1,902,953,0,0
-315,71,0,0,0,0,0,0,0,0,0,-1,909,953,0,0
-308,71,0,0,0,0,0,0,0,0,0,-1,916,953,0,0
-301,71,0,0,0,0,0,0,0,0,0,-1,923,953,0,0
-294,71,0,0,0,0,0,0,0,0,0,-1,930,953,0,0
-287,71,0,0,0,0,0,0,0,0,0,-1,937,953,0,0
-280,71,0,0,0,0,0,0,0,0,0,-1,944,953,0,0
-273,71,0,0,0,0,0,0,0,0,0,-1,951,953,0,0
-266,71,0,0,0,0,0,0,0,0,0,-1,958,953,0,0
-259,71,0,0,0,0,0,0,0,0,0,-1,965,953,0,0
-252,71,0,0,0,0,0,0,0,0,0,-1,972,953,0,0
-245,71,0,0,0,0,0,0,0,0,0,-1,979,953,0,0
-238,71,0,0,0,0,0,0,0,0,0,-1,986,953,0,0
-231,71,0,0,0,0,0,0,0,0,0,-1,993,953,0,0
-224,71,0,0,0,0,0,0,0,0,0,-1,1000,953,0,0
-217,71,0,0,0,0,0,0,0,0,0,-1,1007,953,0,0
-210,71,0,0,0,0,0,0,0,0,0,-1,1014,953,0,0
-203,71,0,0,0,0,0,0,0,0,0,-1,1021,953,0,0
-196,71,0,0,0,0,0,0,0,0,0,-1,1028,953,0,0
-189,71,0,0,0,0,0,0,0,0,0,-1,1035,953,0,0
-182,71,0,0,0,0,0,0,0,0,0,-1,1042,953,0,0
-175,71,0,0,0,0,0,0,0,0,0,-1,1049,953,0,0
-168,71,0,0,0,0,0,0,0,0,0,-1,1056,953,0,0
-161,71,0,0,0,0,0,0,0,0,0,-1,1063,953,0,0
-154,71,0,0,0,0,0,0,0,0,0,-1,1070,953,0,0
-147,71,0,0,0,0,0,0,0,0,0,-1,1077,953,0,0
-140,71,0,0,0,0,0,0,0,0,0,-1,1084,953,0,0
-133,71,0,0,0,0,0,0,0,0,0,-1,1091,953,0,0
-126,71,0,0,0,0,0,0,0,0,0,-1,1098,953,0,0
-119,71,0,0,0,0,0,0,0,0,0,-1,1105,953,0,0
-112,71,0,0,0,0,0,0,0,0,0,-1,1112,953,0,0
-105,71,0,0,0,0,0,0,0,0,0,-1,1119,953,0,0
-98,71,0,0,0,0,0,0,0,0,0,-1,1126,953,0,0
-91,71,0,0,0,0,0,0,0,0,0,-1,1133,953,0,0
-84,71,0,0,0,0,0,0,0,0,0,-1,1140,953,0,0
-77,71,0,0,0,0,0,0,0,0,0,-1,1147,953,0,0
-70,71,0,0,0,0,0,0,0,0,0,-1,1154,953,0,0
-63,71,0,0,0,0,0,0,0,0,0,-1,1161,953,0,0
-56,71,0,0,0,0,0,0,0,0,0,-1,1168,953,0,0
-49,71,0,0,0,0,0,0,0,0,0,-1,1175,953,0,0
-42,71,0,0,0,0,0,0,0,0,0,-1,1182,953,0,0
-35,71,0,0,0,0,0,0,0,0,0,-1,1189,953,0,0
-28,71,0,0,0,0,0,0,0,0,0,-1,1196,953,0,0
-21,71,0,0,0,0,0,0,0,0,0,-1,1203,953,0,0
-14,71,0,0,0,0,0,0,0,0,0,-1,1210,953,0,0
-7,71,0,0,0,0,0,0,0,0,0,-1,1217,953,0,0
0,71,0,0,0,0,0,0,0,0,0,-1,1224,953,0,0
7,71,0,0,0,0,0,0,0,0,0,-1,1231,953,0,0
14,71,0,0,0,0,0,0,0,0,0,-1,1238,953,0,0
21,71,0,0,0,0,0,0,0,0,0,-1,1245,953,0,0
28,71,0,0,0,0,0,0,0,0,0,-1,1252,953,0,0
35,71,0,0,0,0,0,0,0,0,0,-1,1259,953,0,0
42,71,0,0,0,0,0,0,0,0,0,-1,1266,953,0,0
49,71,0,0,0,0,0,0,0,0,0,-1,1273,953,0,0
56,71,0,0,0,0,0,0,0,0,0,-1,1280,953,0,0
63,71,0,0,0,0,0,0,0,0,0,-1,1287,953,0,0
70,71,0,0,0,0,0,0,0,0,0,-1,1294,953,0,0
77,71,0,0,0,0,0,0,0,0,0,-1,1301,953,0,0
84,71,0,0,0,0,0,0,0,0,0,-1,1308,953,0,0
91,71,0,0,0,0,0,0,0,0,0,-1,1315,953,0,0
98,71,0,0,0,0,0,0,0,0,0,-1,1322,953,0,0
105,71,0,0,0,0,0,0,0,0,0,-1,1329,953,0,0
112,71,0,0,0,0,0,0,0,0,0,-1,1336,953,0,0
119,71,0,0,0,0,0,0,0,0,0,-1,1343,953,0,0
126,71,0,0,0,0,0,0,0,0,0,-1,1350,953,0,0
133,71,0,0,0,0,0,0,0,0,0,-1,1357,953,0,0
140,71,0,0,0,0,0,0,0,0,0,-1,1364,953,0,0
147,71,0,0,0,0,0,0,0,0,0,-1,1371,953,0,0
154,71,0,0,0,0,0,0,0,0,0,-1,1378,953,0,0
161,71,0,0,0,0,0,0,0,0,0,-1,1385,953,0,0
168,71,0,0,0,0,0,0,0,0,0,-1,1392,953,0,0
175,71,0,0,0,0,0,0,0,0,0,-1,1399,953,0,0
182,71,0,0,0,0,0,0,0,0,0,-1,1406,953,0,0
189,71,0,0,0,0,0,0,0,0,0,-1,1413,953,0,0
196,71,0,0,0,0,0,0,0,0,0,-1,1420,953,0,0
203,71,0,0,0,0,0,0,0,0,0,-1,1427,953,0,0
210,71,0,0,0,0,0,0,0,0,0,-1,1434,953,0,0
217,71,0,0,0,0,0,0,0,0,0,-1,1441,953,0,0
224,71,0,0,0,0,0,0,0,0,0,-1,1448,953,0,0
231,71,0,0,0,0,0,0,0,0,0,-1,1455,953,0,0
238,71,0,0,0,0,0,0,0,0,0,-1,1462,953,0,0
245,71,0,0,0,0,0,0,0,0,0,-1,1469,953,0,0
252,71,0,0,0,0,0,0,0,0,0,-1,1476,953,0,0
259,71,0,0,0,0,0,0,0,0,0,-1,1483,953,0,0
266,71,0,0,0,0,0,0,0,0,0,-1,1490,953,0,0
273,71,0,0,0,0,0,0,0,0,0,-1,1497,953,0,0
280,71,0,0,0,0,0,0,0,0,0,-1,1504,953,0,0
287,71,0,0,0,0,0,0,0,0,0,-1,1511,953,0,0
294,71,0,0,0,0,0,0,0,0,0,-1,1518,953,0,0
301,71,0,0,0,0,0,0,0,0,0,-1,1525,953,0,0
308,71,0,0,0,0,0,0,0,0,0,-1,1532,953,0,0
315,71,0,0,0,0,0,0,0,0,0,-1,1539,953,0,0
322,71,0,0,0,0,0,0,0,0,0,-1,1546,953,0,0
329,71,0,0,0,0,0,0,0,0,0,-1,1553,953,0,0
336,71,0,0,0,0,0,0,0,0,0,-1,1560,953,0,0
343,71,0,0,0,0,0,0,0,0,0,-1,1567,953,0,0
350,71,0,0,0,0,0,0,0,0,0,-1,1574,953,0,0
357,71,0,0,0,0,0,0,0,0,0,-1,1581,953,0,0
364,71,0,0,0,0,0,0,0,0,0,-1,1588,953,0,0
371,71,0,0,0,0,0,0,0,0,0,-1,1595,953,0,0
378,71,0,0,0,0,0,0,0,0,0,-1,1602,953,0,0
385,71,0,0,0,0,0,0,0,0,0,-1,1609,953,0,0
392,71,0,0,0,0,0,0,0,0,0,-1,1616,953,0,0
399,71,0,0,0,0,0,0,0,0,0,-1,1623,953,0,0
406,71,0,0,0,0,0,0,0,0,0,-1,1630,953,0,0
413,71,0,0,0,0,0,0,0,0,0,-1,1637,953,0,0
420,71,0,0,0,0,0,0,0,0,0,-1,1644,953,0,0
427,71,0,0,0,0,0,0,0,0,0,-1,1651,953,0,0
434,71,0,0,0,0,0,0,0,0,0,-1,1658,953,0,0
441,71,0,0,0,0,0,0,0,0,0,-1,1665,953,0,0
448,71,0,0,0,0,0,0,0,0,0,-1,1672,953,0,0
455,71,0,0,0,0,0,0,0,0,0,-1,1679,953,0,0
462,71,0,0,0,0,0,0,0,0,0,-1,1686,953,0,0
469,71,0,0,0,0,0,0,0,0,0,-1,1693,953,0,0
476,71,0,0,0,0,0,0,0,0,0,-1,1700,953,0,0
483,71,0,0,0,0,0,0,0,0,0,-1,1707,953,0,0
490,71,0,0,0,0,0,0,0,0,0,-1,1714,953,0,0
497,71,0,0,0,0,0,0,0,0,0,-1,1721,953,0,0
504,71,0,0,0,0,0,0,0,0,0,-1,1728,953,0,0
511,71,0,0,0,0,0,0,0,0,0,-1,1735,953,0,0
518,71,0,0,0,0,0,0,0,0,0,-1,1742,953,0,0
525,71,0,0,0,0,0,0,0,0,0,-1,1749,953,0,0
532,71,0,0,0,0,0,0,0,0,0,-1,1756,953,0,0
539,71,0,0,0,0,0,0,0,0,0,-1,1763,953,0,0
546,71,0,0,0,0,0,0,0,0,0,-1,1770,953,0,0
553,71,0,0,0,0,0,0,0,0,0,-1,1777,953,0,0
560,71,0,0,0,0,0,0,0,0,0,-1,1784,953,0,0
567,71,0,0,0,0,0,0,0,0,0,-1,1791,953,0,0
574,71,0,0,0,0,0,0,0,0,0,-1,1798,953,0,0
581,71,0,0,0,0,0,0,0,0,0,-1,1805,953,0,0
588,71,0,0,0,0,0,0,0,0,0,-1,1812,953,0,0
595,71,0,0,0,0,0,0,0,0,0,-1,1819,953,0,0
602,71,0,0,0,0,0,0,0,0,0,-1,1826,953,0,0
609,71,0,0,0,0,0,0,0,0,0,-1,1833,953,0,0
616,71,0,0,0,0,0,0,0,0,0,-1,1840,953,0,0
623,71,0,0,0,0,0,0,0,0,0,-1,1847,953,0,0
630,71,0,0,0,0,0,0,0,0,0,-1,1854,953,0,0
637,71,7.27026,0.946167,0.00106079,-0.00256301,0.00292882,0.00269287,-0.00419509,0.50839,0.00400816,0.0374375,1861,953,7.27031,-0.946193
644,71,7.21887,0.896118,0.000954388,-0.00362426,0.00168848,0.0015097,-0.00417957,0.317741,0.00340313,0.0414525,1868,953,7.21883,-0.896131
651,71,7.28528,0.749817,0.00105399,-0.00394157,0.000893167,0.00120888,-0.00409646,0.171707,0.00321071,0.0389086,1875,953,7.28526,-0.749835
658,71,7.30127,0.986206,0.00076767,-0.00385157,0.000413702,0.000804429,-0.00388833,0.0886209,0.00289782,0.0366852,1882,953,7.30122,-0.9862
665,71,7.27026,1.04956,0.000122328,-0.00357336,7.0784e-05,0.000123683,-0.00357472,0.0191438,0.00242542,0.0395675,1889,953,7.27028,-1.04957
672,71,7.05237,1.46643,-0.000627207,-0.00317715,-0.000178866,-0.000614722,-0.00318964,-0.0696903,0.00195402,0.0414483,1896,953,7.05232,-1.46644
679,71,7.08875,1.31232,-0.00135662,-0.00271725,-0.00030346,-0.00129201,-0.00278186,-0.209786,0.00160746,0.0417296,1903,953,7.0887,-1.31231
686,71,7.24133,0.945923,-0.00202249,-0.00229946,-0.000380941,-0.00175564,-0.00256631,-0.611061,0.00151477,0.0378446,1910,953,7.24129,-0.945901
693,71,7.24622,0.905884,-0.00256907,-0.00188994,-0.00043722,-0.00167591,-0.0027831,-1.11556,0.00161797,0.0336486,1917,953,7.24623,-0.905869
700,71,7.18311,1.09229,-0.00296931,-0.00145448,-0.000493872,-0.00130769,-0.0031161,-1.28189,0.00180681,0.0294381,1924,953,7.18315,-1.09227
707,71,7.15698,1.18646,-0.00319178,-0.00112426,-0.000465852,-0.00102414,-0.0032919,-1.3591,0.00194526,0.0206227,1931,953,7.15698,-1.18649
714,71,7.04468,1.13464,-0.00325683,-0.000823341,-0.000363082,-0.000770324,-0.00330985,-1.4258,0.00199987,0.0192685,1938,953,7.04472,-1.13466
721,71,6.96265,1.09613,-0.00313956,-0.0004609,-0.000290465,-0.000429765,-0.0031707,-1.46401,0.0019861,0.0149319,1945,953,6.96259,-1.09614
728,71,6.95264,1.13873,-0.0030381,-8.71172e-06,-0.00023942,1.00933e-05,-0.0030569,-1.49241,0.00204131,0.0152856,1952,953,6.95264,-1.13875
735,71,6.95593,1.18188,-0.00306632,0.000312261,1.84316e-05,0.000312361,-0.00306642,1.56534,0.00215596,0.00957506,1959,953,6.95588,-1.18187
742,71,6.96582,1.21497,-0.00303775,0.000898996,0.00025258,0.000915135,-0.00305389,1.50699,0.00239985,0.0108458,1966,953,6.96588,-1.21494
749,71,6.96021,1.23126,-0.00309473,0.00107521,0.000521022,0.00113933,-0.00315885,1.44836,0.00257124,0.0148648,1973,953,6.96023,-1.23128
756,71,6.95679,1.26514,-0.00336045,0.00121324,0.00111892,0.0014723,-0.00361951,1.34328,0.00302563,0.0155617,1980,953,6.95675,-1.26514
763,71,6.95361,1.30872,-0.0040002,0.00159918,0.00178526,0.00211994,-0.00452097,1.28697,0.00391677,0.0128048,1987,953,6.95359,-1.3087
770,71,6.95447,1.3476,-0.00513437,0.00181877,0.00273471,0.00276545,-0.00608105,1.23753,0.00522574,0.014423,1994,953,6.95442,-1.34758
777,71,6.96497,1.38245,-0.00677948,0.0017861,0.00396054,0.00333668,-0.00833006,1.19763,0.0069384,0.0336753,2001,953,6.96502,-1.38247
784,71,7.06091,1.44519,-0.00883479,0.0013683,0.00560956,0.00384916,-0.0113157,1.1544,0.00910228,0.0434749,2008,953,7.06097,-1.44519
791,71,7.09521,1.29529,-0.0112226,0.000356668,0.00777111,0.00425774,-0.0151237,1.10555,0.0117615,0.041793,2015,953,7.09517,-1.29528
798,71,7.00781,1.03986,0,0,0,0,0,0,0,-1,2022,953,7.00786,-1.03985
805,71,4.09326,2.31073,0,0,0,0,0,0,0,-1,2029,953,4.09327,-2.31073
812,71,0,0,0,0,0,0,0,0,0,-1,2036,953,0,0
-700,64,0,0,0,0,0,0,0,0,0,-1,524,960,0,0
-693,64,0,0,0,0,0,0,0,0,0,-1,531,960,0,0
-686,64,-3.04456,1.61475,0,0,0,0,0,0,0,-1,538,960,-3.04457,-1.61472
-679,64,-0.859436,-0.627075,0,0,0,0,0,0,0,-1,545,960,-0.859411,0.627093
-672,64,-0.889282,-0.165771,-0.0109967,0.0130733,0.0043259,0.0138271,-0.0117505,1.39826,0.0147835,0.049387,552,960,-0.889265,0.165787
-665,64,-0.880859,0.269043,-0.010443,0.0084828,0.00608876,0.0102724,-0.0122327,1.28492,0.0130097,0.0443273,559,960,-0.880848,-0.269052
-658,64,-1.08826,0.650085,-0.00979979,0.00508494,0.00674103,0.007684,-0.0123989,1.2028,0.0117009,0.0455278,566,960,-1.08827,-0.650072
-651,64,-2.289,1.02911,0,0,0,0,0,0,0,-1,573,960,-2.28898,-1.0291
-644,64,-2.58044,1.0199,-0.00792365,0.00114327,0.00596769,0.00410417,-0.0108846,1.11023,0.00894402,0.0319261,580,960,-2.58045,-1.01991
-637,64,-2.60046,0.926758,-0.0057512,0.000191492,0.00564076,0.00359565,-0.00915536,1.02781,0.00759148,0.0147849,587,960,-2.60044,-0.926755
-630,64,-2.62518,0.910828,-0.00519536,-0.00086421,0.00461667,0.00206956,-0.00812913,1.0047,0.00622503,0.0125452,594,960,-2.62516,-0.910819
-623,64,-2.63788,0.891113,-0.00516942,-0.00160283,0.00352121,0.000560903,-0.00733316,1.01979,0.00508606,0.0129539,601,960,-2.63791,-0.89114
-616,64,-2.64136,0.884216,-0.00433228,-0.000711218,0.00239616,0.000481515,-0.00552501,1.10894,0.00385389,0.0152462,608,960,-2.64139,-0.884201
-609,64,-2.62262,0.850708,-0.00370716,-0.000607646,0.00166757,0.000119115,-0.00443392,1.1598,0.00299644,0.0150925,615,960,-2.6226,-0.850737
-602,64,-2.57574,0.799377,-0.00322185,4.39663e-06,0.00135996,0.000501167,-0.00371862,1.22057,0.00266191,0.0170115,622,960,-2.57571,-0.799362
-595,64,-2.59125,0.769165,-0.00266959,0.000240659,0.000789565,0.000441071,-0.00287,1.32222,0.00207604,0.0163944,629,960,-2.59122,-0.769169
-588,64,-2.61304,0.801025,-0.00262234,0.000309259,0.000576063,0.000418393,-0.00273147,1.38357,0.00197527,0.0196701,636,960,-2.61304,-0.801022
-581,64,-2.68604,0.864563,-0.002773,0.000442028,0.000475775,0.000510958,-0.00284193,1.42692,0.00208591,0.0248502,643,960,-2.68605,-0.864543
-574,64,-2.78857,0.895081,-0.00263398,0.000670731,0.000233472,0.000687144,-0.00265039,1.50061,0.00203502,0.0284731,650,960,-2.78856,-0.895085
-567,64,-2.80048,0.765686,-0.00246015,0.00103489,-0.000122049,0.00103915,-0.00246441,-1.53593,0.00207782,0.023551,657,960,-2.80047,-0.765689
-560,64,-2.79895,0.868591,-0.00208128,0.00137608,-0.000530804,0.00145574,-0.00216094,-1.42184,0.00210128,0.0320635,664,960,-2.79893,-0.868612
-553,64,-2.78088,0.852295,-0.00140594,0.0018366,-0.00110088,0.00217504,-0.00174438,-1.27254,0.00226742,0.0381941,671,960,-2.78088,-0.852319
-546,64,-2.68286,0.767578,-0.000366923,0.00237892,-0.00185757,0.00331587,-0.00130387,-1.10364,0.00275023,0.0405756,678,960,-2.68284,-0.767549
-539,64,-2.72394,0.847046,0.00111748,0.00300293,-0.00281451,0.0050284,-0.000907995,-0.947001,0.00369234,0.0415932,685,960,-2.72394,-0.847043
-532,64,-2.79932,0.887451,0.0030634,0.00370445,-0.00395653,0.00735342,-0.000585565,-0.825816,0.00510867,0.0402555,692,960,-2.79932,-0.887444
-525,64,-2.7453,0.769043,0.00535139,0.0044501,-0.00528764,0.0102076,-0.000406068,-0.742888,0.00694435,0.0409044,699,960,-2.74529,-0.769018
-518,64,0,0,0,0,0,0,0,0,0,-1,706,960,0,0
-511,64,0,0,0,0,0,0,0,0,0,-1,713,960,0,0
-504,64,0,0,0,0,0,0,0,0,0,-1,720,960,0,0
-497,64,0,0,0,0,0,0,0,0,0,-1,727,960,0,0
-490,64,0,0,0,0,0,0,0,0,0,-1,734,960,0,0
-483,64,0,0,0,0,0,0,0,0,0,-1,741,960,0,0
-476,64,0,0,0,0,0,0,0,0,0,-1,748,960,0,0
-469,64,0,0,0,0,0,0,0,0,0,-1,755,960,0,0
-462,64,0,0,0,0,0,0,0,0,0,-1,762,960,0,0
-455,64,0,0,0,0,0,0,0,0,0,-1,769,960,0,0
-448,64,0,0,0,0,0,0,0,0,0,-1,776,960,0,0
-441,64,0,0,0,0,0,0,0,0,0,-1,783,960,0,0
-434,64,0,0,0,0,0,0,0,0,0,-1,790,960,0,0
-427,64,0,0,0,0,0,0,0,0,0,-1,797,960,0,0
-420,64,0,0,0,0,0,0,0,0,0,-1,804,960,0,0
-413,64,0,0,0,0,0,0,0,0,0,-1,811,960,0,0
-406,64,0,0,0,0,0,0,0,0,0,-1,818,960,0,0
-399,64,0,0,0,0,0,0,0,0,0,-1,825,960,0,0
-392,64,0,0,0,0,0,0,0,0,0,-1,832,960,0,0
-385,64,0,0,0,0,0,0,0,0,0,-1,839,960,0,0
-378,64,0,0,0,0,0,0,0,0,0,-1,846,960,0,0
-371,64,0,0,0,0,0,0,0,0,0,-1,853,960,0,0
-364,64,0,0,0,0,0,0,0,0,0,-1,860,960,0,0
-357,64,0,0,0,0,0,0,0,0,0,-1,867,960,0,0
-350,64,0,0,0,0,0,0,0,0,0,-1,874,960,0,0
-343,64,0,0,0,0,0,0,0,0,0,-1,881,960,0,0
-336,64,0,0,0,0,0,0,0,0,0,-1,888,960,0,0
-329,64,0,0,0,0,0,0,0,0,0,-1,895,960,0,0
-322,64,0,0,0,0,0,0,0,0,0,-1,902,960,0,0
-315,64,0,0,0,0,0,0,0,0,0,-1,909,960,0,0
-308,64,0,0,0,0,0,0,0,0,0,-1,916,960,0,0
-301,64,0,0,0,0,0,0,0,0,0,-1,923,960,0,0
-294,64,0,0,0,0,0,0,0,0,0,-1,930,960,0,0
-287,64,0,0,0,0,0,0,0,0,0,-1,937,960,0,0
-280,64,0,0,0,0,0,0,0,0,0,-1,944,960,0,0
-273,64,0,0,0,0,0,0,0,0,0,-1,951,960,0,0
-266,64,0,0,0,0,0,0,0,0,0,-1,958,960,0,0
-259,64,0,0,0,0,0,0,0,0,0,-1,965,960,0,0
-252,64,0,0,0,0,0,0,0,0,0,-1,972,960,0,0
-245,64,0,0,0,0,0,0,0,0,0,-1,979,960,0,0
-238,64,0,0,0,0,0,0,0,0,0,-1,986,960,0,0
-231,64,0,0,0,0,0,0,0,0,0,-1,993,960,0,0
-224,64,0,0,0,0,0,0,0,0,0,-1,1000,960,0,0
-217,64,0,0,0,0,0,0,0,0,0,-1,1007,960,0,0
-210,64,0,0,0,0,0,0,0,0,0,-1,1014,960,0,0
-203,64,0,0,0,0,0,0,0,0,0,-1,1021,960,0,0
-196,64,0,0,0,0,0,0,0,0,0,-1,1028,960,0,0
-189,64,0,0,0,0,0,0,0,0,0,-1,1035,960,0,0
-182,64,0,0,0,0,0,0,0,0,0,-1,1042,960,0,0
-175,64,0,0,0,0,0,0,0,0,0,-1,1049,960,0,0
-168,64,0,0,0,0,0,0,0,0,0,-1,1056,960,0,0
-161,64,0,0,0,0,0,0,0,0,0,-1,1063,960,0,0
-154,64,0,0,0,0,0,0,0,0,0,-1,1070,960,0,0
-147,64,0,0,0,0,0,0,0,0,0,-1,1077,960,0,0
-140,64,0,0,0,0,0,0,0,0,0,-1,1084,960,0,0
-133,64,0,0,0,0,0,0,0,0,0,-1,1091,960,0,0
-126,64,0,0,0,0,0,0,0,0,0,-1,1098,960,0,0
-119,64,0,0,0,0,0,0,0,0,0,-1,1105,960,0,0
-112,64,0,0,0,0,0,0,0,0,0,-1,1112,960,0,0
-105,64,0,0,0,0,0,0,0,0,0,-1,1119,960,0,0
-98,64,0,0,0,0,0,0,0,0,0,-1,1126,960,0,0
-91,64,0,0,0,0,0,0,0,0,0,-1,1133,960,0,0
-84,64,0,0,0,0,0,0,0,0,0,-1,1140,960,0,0
-77,64,0,0,0,0,0,0,0,0,0,-1,1147,960,0,0
-70,64,0,0,0,0,0,0,0,0,0,-1,1154,960,0,0
-63,64,0,0,0,0,0,0,0,0,0,-1,1161,960,0,0
-56,64,0,0,0,0,0,0,0,0,0,-1,1168,960,0,0
-49,64,0,0,0,0,0,0,0,0,0,-1,1175,960,0,0
-42,64,0,0,0,0,0,0,0,0,0,-1,1182,960,0,0
-35,64,0,0,0,0,0,0,0,0,0,-1,1189,960,0,0
-28,64,0,0,0,0,0,0,0,0,0,-1,1196,960,0,0
-21,64,0,0,0,0,0,0,0,0,0,-1,1203,960,0,0
-14,64,0,0,0,0,0,0,0,0,0,-1,1210,960,0,0
-7,64,0,0,0,0,0,0,0,0,0,-1,1217,960,0,0
0,64,0,0,0,0,0,0,0,0,0,-1,1224,960,0,0
7,64,0,0,0,0,0,0,0,0,0,-1,1231,960,0,0
14,64,0,0,0,0,0,0,0,0,0,-1,1238,960,0,0
21,64,0,0,0,0,0,0,0,0,0,-1,1245,960,0,0
28,64,0,0,0,0,0,0,0,0,0,-1,1252,960,0,0
35,64,0,0,0,0,0,0,0,0,0,-1,1259,960,0,0
42,64,0,0,0,0,0,0,0,0,0,-1,1266,960,0,0
49,64,0,0,0,0,0,0,0,0,0,-1,1273,960,0,0
56,64,0,0,0,0,0,0,0,0,0,-1,1280,960,0,0
63,64,0,0,0,0,0,0,0,0,0,-1,1287,960,0,0
70,64,0,0,0,0,0,0,0,0,0,-1,1294,960,0,0
77,64,0,0,0,0,0,0,0,0,0,-1,1301,960,0,0
84,64,0,0,0,0,0,0,0,0,0,-1,1308,960,0,0
91,64,0,0,0,0,0,0,0,0,0,-1,1315,960,0,0
98,64,0,0,0,0,0,0,0,0,0,-1,1322,960,0,0
105,64,0,0,0,0,0,0,0,0,0,-1,1329,960,0,0
112,64,0,0,0,0,0,0,0,0,0,-1,1336,960,0,0
119,64,0,0,0,0,0,0,0,0,0,-1,1343,960,0,0
126,64,0,0,0,0,0,0,0,0,0,-1,1350,960,0,0
133,64,0,0,0,0,0,0,0,0,0,-1,1357,960,0,0
140,64,0,0,0,0,0,0,0,0,0,-1,1364,960,0,0
147,64,0,0,0,0,0,0,0,0,0,-1,1371,960,0,0
154,64,0,0,0,0,0,0,0,0,0,-1,1378,960,0,0
161,64,0,0,0,0,0,0,0,0,0,-1,1385,960,0,0
168,64,0,0,0,0,0,0,0,0,0,-1,1392,960,0,0
175,64,0,0,0,0,0,0,0,0,0,-1,1399,960,0,0
182,64,0,0,0,0,0,0,0,0,0,-1,1406,960,0,0
189,64,0,0,0,0,0,0,0,0,0,-1,1413,960,0,0
196,64,0,0,0,0,0,0,0,0,0,-1,1420,960,0,0
203,64,0,0,0,0,0,0,0,0,0,-1,1427,960,0,0
210,64,0,0,0,0,0,0,0,0,0,-1,1434,960,0,0
217,64,0,0,0,0,0,0,0,0,0,-1,1441,960,0,0
224,64,0,0,0,0,0,0,0,0,0,-1,1448,960,0,0
231,64,0,0,0,0,0,0,0,0,0,-1,1455,960,0,0
238,64,0,0,0,0,0,0,0,0,0,-1,1462,960,0,0
245,64,0,0,0,0,0,0,0,0,0,-1,1469,960,0,0
252,64,0,0,0,0,0,0,0,0,0,-1,1476,960,0,0
259,64,0,0,0,0,0,0,0,0,0,-1,1483,960,0,0
266,64,0,0,0,0,0,0,0,0,0,-1,1490,960,0,0
273,64,0,0,0,0,0,0,0,0,0,-1,1497,960,0,0
280,64,0,0,0,0,0,0,0,0,0,-1,1504,960,0,0
287,64,0,0,0,0,0,0,0,0,0,-1,1511,960,0,0
294,64,0,0,0,0,0,0,0,0,0,-1,1518,960,0,0
301,64,0,0,0,0,0,0,0,0,0,-1,1525,960,0,0
308,64,0,0,0,0,0,0,0,0,0,-1,1532,960,0,0
315,64,0,0,0,0,0,0,0,0,0,-1,1539,960,0,0
322,64,0,0,0,0,0,0,0,0,0,-1,1546,960,0,0
329,64,0,0,0,0,0,0,0,0,0,-1,1553,960,0,0
336,64,0,0,0,0,0,0,0,0,0,-1,1560,960,0,0
343,64,0,0,0,0,0,0,0,0,0,-1,1567,960,0,0
350,64,0,0,0,0,0,0,0,0,0,-1,1574,960,0,0
357,64,0,0,0,0,0,0,0,0,0,-1,1581,960,0,0
364,64,0,0,0,0,0,0,0,0,0,-1,1588,960,0,0
371,64,0,0,0,0,0,0,0,0,0,-1,1595,960,0,0
378,64,0,0,0,0,0,0,0,0,0,-1,1602,960,0,0
385,64,0,0,0,0,0,0,0,0,0,-1,1609,960,0,0
392,64,0,0,0,0,0,0,0,0,0,-1,1616,960,0,0
399,64,0,0,0,0,0,0,0,0,0,-1,1623,960,0,0
406,64,0,0,0,0,0,0,0,0,0,-1,1630,960,0,0
413,64,0,0,0,0,0,0,0,0,0,-1,1637,960,0,0
420,64,0,0,0,0,0,0,0,0,0,-1,1644,960,0,0
427,64,0,0,0,0,0,0,0,0,0,-1,1651,960,0,0
434,64,0,0,0,0,0,0,0,0,0,-1,1658,960,0,0
441,64,0,0,0,0,0,0,0,0,0,-1,1665,960,0,0
448,64,0,0,0,0,0,0,0,0,0,-1,1672,960,0,0
455,64,0,0,0,0,0,0,0,0,0,-1,1679,960,0,0
462,64,0,0,0,0,0,0,0,0,0,-1,1686,960,0,0
469,64,0,0,0,0,0,0,0,0,0,-1,1693,960,0,0
476,64,0,0,0,0,0,0,0,0,0,-1,1700,960,0,0
483,64,0,0,0,0,0,0,0,0,0,-1,1707,960,0,0
490,64,0,0,0,0,0,0,0,0,0,-1,1714,960,0,0
497,64,0,0,0,0,0,0,0,0,0,-1,1721,960,0,0
504,64,0,0,0,0,0,0,0,0,0,-1,1728,960,0,0
511,64,0,0,0,0,0,0,0,0,0,-1,1735,960,0,0
518,64,0,0,0,0,0,0,0,0,0,-1,1742,960,0,0
525,64,0,0,0,0,0,0,0,0,0,-1,1749,960,0,0
532,64,0,0,0,0,0,0,0,0,0,-1,1756,960,0,0
539,64,0,0,0,0,0,0,0,0,0,-1,1763,960,0,0
546,64,0,0,0,0,0,0,0,0,0,-1,1770,960,0,0
553,64,0,0,0,0,0,0,0,0,0,-1,1777,960,0,0
560,64,0,0,0,0,0,0,0,0,0,-1,1784,960,0,0
567,64,0,0,0,0,0,0,0,0,0,-1,1791,960,0,0
574,64,0,0,0,0,0,0,0,0,0,-1,1798,960,0,0
581,64,0,0,0,0,0,0,0,0,0,-1,1805,960,0,0
588,64,0,0,0,0,0,0,0,0,0,-1,1812,960,0,0
595,64,0,0,0,0,0,0,0,0,0,-1,1819,960,0,0
602,64,0,0,0,0,0,0,0,0,0,-1,1826,960,0,0
609,64,0,0,0,0,0,0,0,0,0,-1,1833,960,0,0
616,64,0,0,0,0,0,0,0,0,0,-1,1840,960,0,0
623,64,0,0,0,0,0,0,0,0,0,-1,1847,960,0,0
630,64,0,0,0,0,0,0,0,0,0,-1,1854,960,0,0
637,64,0,0,0,0,0,0,0,0,0,-1,1861,960,0,0
644,64,7.06824,1.18054,0.00087878,-0.00475837,0.00119451,0.00112145,-0.00500104,0.200426,0.00376395,0.0419267,1868,960,7.06821,-1.18053
651,64,7.13269,1.0744,0.00106398,-0.00488901,0.000424352,0.00109408,-0.0049191,0.0708068,0.00369844,0.0407205,1875,960,7.13267,-1.07443
658,64,7.27991,1.00085,0.000914652,-0.00460721,3.58701e-05,0.000914885,-0.00460745,0.00649565,0.00341766,0.0373052,1882,960,7.27988,-1.00087
665,64,7.10718,1.60583,0,0,0,0,0,0,0,-1,1889,960,7.10724,-1.60586
672,64,7.10376,1.98346,0,0,0,0,0,0,0,-1,1896,960,7.10376,-1.98349
679,64,7.17065,1.29907,-0.000954309,-0.00299884,-0.000385141,-0.000884164,-0.00306899,-0.180153,0.00182415,0.0392486,1903,960,7.17064,-1.29905
686,64,7.30212,0.864685,-0.00157982,-0.00245692,-0.000381797,-0.00143691,-0.00259982,-0.358164,0.00150379,0.0358449,1910,960,7.30208,-0.864704
693,64,7.31104,0.876648,-0.00210639,-0.00196115,-0.000369578,-0.00165713,-0.00241042,-0.88241,0.00142389,0.0327718,1917,960,7.31107,-0.87663
700,64,7.23621,1.03143,-0.00252478,-0.00148054,-0.00037165,-0.00136177,-0.00264354,-1.26149,0.00152648,0.0274145,1924,960,7.23619,-1.03141
707,64,7.16797,1.20264,-0.00279796,-0.00106207,-0.000322582,-0.00100406,-0.00285597,-1.39288,0.00167294,0.0222989,1931,960,7.16795,-1.20265
714,64,7.1062,1.21301,-0.00291283,-0.00071399,-0.000220789,-0.000692039,-0.00293478,-1.4717,0.00177148,0.0195537,1938,960,7.10623,-1.21304
721,64,6.98889,1.11969,-0.00285486,-0.000363469,-0.000166905,-0.000352337,-0.002866,-1.5042,0.00180472,0.0148094,1945,960,6.98893,-1.11967
728,64,6.95667,1.16016,-0.00288335,6.11312e-05,-0.000137469,6.75354e-05,-0.00288975,-1.52424,0.0019494,0.0129203,1952,960,6.95664,-1.16018
735,64,6.96204,1.19202,-0.00312822,0.000309294,4.79526e-05,0.000309963,-0.00312888,1.55685,0.00219655,0.0133488,1959,960,6.96198,-1.192
742,64,6.99048,1.20782,-0.00337247,0.000821619,0.000187023,0.000829943,-0.0033808,1.52632,0.00257548,0.0130219,1966,960,6.99047,-1.20784
749,64,6.97241,1.23596,-0.00379087,0.000777401,0.000424743,0.000816556,-0.00383002,1.47887,0.00286459,0.012736,1973,960,6.9724,-1.23594
756,64,6.97925,1.27533,-0.00449604,0.000605682,0.00101954,0.000801884,-0.00469224,1.38068,0.00342687,0.0142138,1980,960,6.97921,-1.27535
763,64,6.97839,1.32813,-0.00563926,0.000681538,0.00166481,0.00109321,-0.00605094,1.32838,0.00444342,0.0132412,1987,960,6.9784,-1.32812
770,64,6.94922,1.33295,-0.00736355,0.000462992,0.00266144,0.00128226,-0.00818282,1.27217,0.00592903,0.0131895,1994,960,6.94922,-1.33294
777,64,6.8866,1.427,-0.00974522,-0.000147277,0.00399438,0.00129756,-0.0111901,1.22372,0.00792803,0.0299716,2001,960,6.88661,-1.42701
784,64,6.7926,1.32892,-0.0126861,-0.00132071,0.00583229,0.0011396,-0.0151464,1.1716,0.0104981,0.0430077,2008,960,6.79265,-1.32891
791,64,6.64221,1.18604,-0.0160557,-0.00328668,0.00829988,0.000800191,-0.0201426,1.11325,0.0137029,0.0491668,2015,960,6.64218,-1.18602
798,64,6.50732,1.08282,0,0,0,0,0,0,0,-1,2022,960,6.50737,-1.08284
805,64,8.51782,-0.181396,0,0,0,0,0,0,0,-1,2029,960,8.51783,0.181385
812,64,0,0,0,0,0,0,0,0,0,-1,2036,960,0,0
-700,57,0,0,0,0,0,0,0,0,0,-1,524,967,0,0
-693,57,0,0,0,0,0,0,0,0,0,-1,531,967,0,0
-686,57,-2.77197,0.61969,-0.0299294,0.0273935,-0.00190444,0.0274567,-0.0299926,-1.53762,0.0331792,0.0444879,538,967,-2.77199,-0.619715
-679,57,-2.54205,1.16547,-0.0248322,0.0197129,0.00306797,0.0199232,-0.0250425,1.50235,0.026017,0.04176,545,967,-2.54205,-1.16549
-672,57,-2.5954,1.41809,-0.0208019,0.0136809,0.00585331,0.0146474,-0.0217683,1.40716,0.0211582,0.0451071,552,967,-2.59543,-1.41811
-665,57,-2.91034,-0.494751,-0.0174732,0.00900715,0.00718038,0.0108289,-0.0192949,1.32233,0.0176194,0.0474588,559,967,-2.91033,0.494774
-658,57,-0.471069,1.19958,0,0,0,0,0,0,0,-1,566,967,-0.471054,-1.19961
-651,57,-2.25269,0.609924,-0.0120936,0.00300697,0.00708105,0.00580792,-0.0148946,1.19413,0.0123304,0.0435442,573,967,-2.25267,-0.609926
-644,57,-2.60651,0.821106,-0.00983972,0.00136408,0.00624028,0.00414802,-0.0126237,1.15117,0.0100869,0.028165,580,967,-2.60653,-0.821108
-637,57,-2.61957,0.898193,-0.00662493,0.000402541,0.0058102,0.00367885,-0.00990125,1.05735,0.00811019,0.0142713,587,967,-2.6196,-0.898223
-630,57,-2.64685,0.903625,-0.00534965,-0.000652821,0.00466021,0.00221725,-0.00821973,1.01879,0.00634929,0.0125043,594,967,-2.64688,-0.903609
-623,57,-2.64624,0.887451,-0.00505889,-0.00155533,0.0034259,0.000540684,-0.0071549,1.02174,0.00495999,0.0118925,601,967,-2.64623,-0.887473
-616,57,-2.64508,0.872864,-0.00413719,-0.00074562,0.00225394,0.000379219,-0.00526203,1.1079,0.00364102,0.0128426,608,967,-2.6451,-0.872879
-609,57,-2.65717,0.843384,-0.00348909,-0.000593771,0.00151476,5.38519e-05,-0.00413671,1.16677,0.00277593,0.0132298,615,967,-2.65716,-0.843405
-602,57,-2.6485,0.811584,-0.00298904,-1.75393e-05,0.00116648,0.000385661,-0.00339224,1.238,0.0024004,0.0107501,622,967,-2.64851,-0.811604
-595,57,-2.65137,0.786987,-0.00243426,0.000176965,0.00056359,0.000293414,-0.00255071,1.36704,0.00180624,0.0113416,629,967,-2.65134,-0.787004
-588,57,-2.67548,0.794434,-0.00238306,0.000226506,0.000319659,0.000265092,-0.00242164,1.45067,0.00170966,0.0150733,636,967,-2.67547,-0.794411
-581,57,-2.7403,0.827148,-0.00249432,0.000322071,0.000176593,0.0003331,-0.00250534,1.50842,0.00179161,0.0226152,643,967,-2.74028,-0.827164
-574,57,-2.80652,0.811646,-0.00229662,0.000521851,-9.50594e-05,0.000525054,-0.00229983,-1.53712,0.00173492,0.0276669,650,967,-2.80649,-0.811643
-567,57,-2.79041,0.752808,-0.00210901,0.000838571,-0.000474967,0.000913216,-0.00218366,-1.41491,0.00183745,0.0314185,657,967,-2.79042,-0.752808
-560,57,-2.67883,0.797241,-0.00173461,0.00120446,-0.000932979,0.00147561,-0.00200575,-1.28796,0.00201772,0.0389216,664,967,-2.67885,-0.797217
-553,57,-2.64661,0.656677,-0.0010698,0.00168654,-0.0015394,0.00237455,-0.00175781,-1.15049,0.00239466,0.0388556,671,967,-2.64658,-0.656703
-546,57,-2.6825,0.639771,-4.49601e-05,0.00229608,-0.00233048,0.00373349,-0.00148236,-1.01813,0.00310345,0.0405006,678,967,-2.68251,-0.639756
-539,57,-2.80737,0.918152,0.00143527,0.00305763,-0.00332361,0.00566762,-0.00117471,-0.905091,0.00422478,0.0435763,685,967,-2.80738,-0.918146
-532,57,-2.93005,0.920288,0.00340142,0.00400188,-0.00450403,0.00821567,-0.000812374,-0.818678,0.00576701,0.0401197,692,967,-2.93002,-0.920295
-525,57,-2.78326,0.833069,0.00575417,0.0051502,-0.00588469,0.0113446,-0.000440243,-0.759762,0.00771401,0.0416063,699,967,-2.78325,-0.833066
-518,57,0,0,0,0,0,0,0,0,0,-1,706,967,0,0
-511,57,0,0,0,0,0,0,0,0,0,-1,713,967,0,0
-504,57,0,0,0,0,0,0,0,0,0,-1,720,967,0,0
-497,57,0,0,0,0,0,0,0,0,0,-1,727,967,0,0
-490,57,0,0,0,0,0,0,0,0,0,-1,734,967,0,0
-483,57,0,0,0,0,0,0,0,0,0,-1,741,967,0,0
-476,57,0,0,0,0,0,0,0,0,0,-1,748,967,0,0
-469,57,0,0,0,0,0,0,0,0,0,-1,755,967,0,0
-462,57,0,0,0,0,0,0,0,0,0,-1,762,967,0,0
-455,57,0,0,0,0,0,0,0,0,0,-1,769,967,0,0
-448,57,0,0,0,0,0,0,0,0,0,-1,776,967,0,0
-441,57,0,0,0,0,0,0,0,0,0,-1,783,967,0,0
-434,57,0,0,0,0,0,0,0,0,0,-1,790,967,0,0
-427,57,0,0,0,0,0,0,0,0,0,-1,797,967,0,0
-420,57,0,0,0,0,0,0,0,0,0,-1,804,967,0,0
-413,57,0,0,0,0,0,0,0,0,0,-1,811,967,0,0
-406,57,0,0,0,0,0,0,0,0,0,-1,818,967,0,0
-399,57,0,0,0,0,0,0,0,0,0,-1,825,967,0,0
-392,57,0,0,0,0,0,0,0,0,0,-1,832,967,0,0
-385,57,0,0,0,0,0,0,0,0,0,-1,839,967,0,0
-378,57,0,0,0,0,0,0,0,0,0,-1,846,967,0,0
-371,57,0,0,0,0,0,0,0,0,0,-1,853,967,0,0
-364,57,0,0,0,0,0,0,0,0,0,-1,860,967,0,0
-357,57,0,0,0,0,0,0,0,0,0,-1,867,967,0,0
-350,57,0,0,0,0,0,0,0,0,0,-1,874,967,0,0
-343,57,0,0,0,0,0,0,0,0,0,-1,881,967,0,0
-336,57,0,0,0,0,0,0,0,0,0,-1,888,967,0,0
-329,57,0,0,0,0,0,0,0,0,0,-1,895,967,0,0
-322,57,0,0,0,0,0,0,0,0,0,-1,902,967,0,0
-315,57,0,0,0,0,0,0,0,0,0,-1,909,967,0,0
-308,57,0,0,0,0,0,0,0,0,0,-1,916,967,0,0
-301,57,0,0,0,0,0,0,0,0,0,-1,923,967,0,0
-294,57,0,0,0,0,0,0,0,0,0,-1,930,967,0,0
-287,57,0,0,0,0,0,0,0,0,0,-1,937,967,0,0
-280,57,0,0,0,0,0,0,0,0,0,-1,944,967,0,0
-273,57,0,0,0,0,0,0,0,0,0,-1,951,967,0,0
-266,57,0,0,0,0,0,0,0,0,0,-1,958,967,0,0
-259,57,0,0,0,0,0,0,0,0,0,-1,965,967,0,0
-252,57,0,0,0,0,0,0,0,0,0,-1,972,967,0,0
-245,57,0,0,0,0,0,0,0,0,0,-1,979,967,0,0
-238,57,0,0,0,0,0,0,0,0,0,-1,986,967,0,0
-231,57,0,0,0,0,0,0,0,0,0,-1,993,967,0,0
-224,57,0,0,0,0,0,0,0,0,0,-1,1000,967,0,0
-217,57,0,0,0,0,0,0,0,0,0,-1,1007,967,0,0
-210,57,0,0,0,0,0,0,0,0,0,-1,1014,967,0,0
-203,57,0,0,0,0,0,0,0,0,0,-1,1021,967,0,0
-196,57,0,0,0,0,0,0,0,0,0,-1,1028,967,0,0
-189,57,0,0,0,0,0,0,0,0,0,-1,1035,967,0,0
-182,57,0,0,0,0,0,0,0,0,0,-1,1042,967,0,0
-175,57,0,0,0,0,0,0,0,0,0,-1,1049,967,0,0
-168,57,0,0,0,0,0,0,0,0,0,-1,1056,967,0,0
-161,57,0,0,0,0,0,0,0,0,0,-1,1063,967,0,0
-154,57,0,0,0,0,0,0,0,0,0,-1,1070,967,0,0
-147,57,0,0,0,0,0,0,0,0,0,-1,1077,967,0,0
-140,57,0,0,0,0,0,0,0,0,0,-1,1084,967,0,0
-133,57,0,0,0,0,0,0,0,0,0,-1,1091,967,0,0
-126,57,0,0,0,0,0,0,0,0,0,-1,1098,967,0,0
-119,57,0,0,0,0,0,0,0,0,0,-1,1105,967,0,0
-112,57,0,0,0,0,0,0,0,0,0,-1,1112,967,0,0
-105,57,0,0,0,0,0,0,0,0,0,-1,1119,967,0,0
-98,57,0,0,0,0,0,0,0,0,0,-1,1126,967,0,0
-91,57,0,0,0,0,0,0,0,0,0,-1,1133,967,0,0
-84,57,0,0,0,0,0,0,0,0,0,-1,1140,967,0,0
-77,57,0,0,0,0,0,0,0,0,0,-1,1147,967,0,0
-70,57,0,0,0,0,0,0,0,0,0,-1,1154,967,0,0
-63,57,0,0,0,0,0,0,0,0,0,-1,1161,967,0,0
-56,57,0,0,0,0,0,0,0,0,0,-1,1168,967,0,0
-49,57,0,0,0,0,0,0,0,0,0,-1,1175,967,0,0
-42,57,0,0,0,0,0,0,0,0,0,-1,1182,967,0,0
-35,57,0,0,0,0,0,0,0,0,0,-1,1189,967,0,0
-28,57,0,0,0,0,0,0,0,0,0,-1,1196,967,0,0
-21,57,0,0,0,0,0,0,0,0,0,-1,1203,967,0,0
-14,57,0,0,0,0,0,0,0,0,0,-1,1210,967,0,0
-7,57,0,0,0,0,0,0,0,0,0,-1,1217,967,0,0
0,57,0,0,0,0,0,0,0,0,0,-1,1224,967,0,0
7,57,0,0,0,0,0,0,0,0,0,-1,1231,967,0,0
14,57,0,0,0,0,0,0,0,0,0,-1,1238,967,0,0
21,57,0,0,0,0,0,0,0,0,0,-1,1245,967,0,0
28,57,0,0,0,0,0,0,0,0,0,-1,1252,967,0,0
35,57,0,0,0,0,0,0,0,0,0,-1,1259,967,0,0
42,57,0,0,0,0,0,0,0,0,0,-1,1266,967,0,0
49,57,0,0,0,0,0,0,0,0,0,-1,1273,967,0,0
56,57,0,0,0,0,0,0,0,0,0,-1,1280,967,0,0
63,57,0,0,0,0,0,0,0,0,0,-1,1287,967,0,0
70,57,0,0,0,0,0,0,0,0,0,-1,1294,967,0,0
77,57,0,0,0,0,0,0,0,0,0,-1,1301,967,0,0
84,57,0,0,0,0,0,0,0,0,0,-1,1308,967,0,0
91,57,0,0,0,0,0,0,0,0,0,-1,1315,967,0,0
98,57,0,0,0,0,0,0,0,0,0,-1,1322,967,0,0
105,57,0,0,0,0,0,0,0,0,0,-1,1329,967,0,0
112,57,0,0,0,0,0,0,0,0,0,-1,1336,967,0,0
119,57,0,0,0,0,0,0,0,0,0,-1,1343,967,0,0
126,57,0,0,0,0,0,0,0,0,0,-1,1350,967,0,0
133,57,0,0,0,0,0,0,0,0,0,-1,1357,967,0,0
140,57,0,0,0,0,0,0,0,0,0,-1,1364,967,0,0
147,57,0,0,0,0,0,0,0,0,0,-1,1371,967,0,0
154,57,0,0,0,0,0,0,0,0,0,-1,1378,967,0,0
161,57,0,0,0,0,0,0,0,0,0,-1,1385,967,0,0
168,57,0,0,0,0,0,0,0,0,0,-1,1392,967,0,0
175,57,0,0,0,0,0,0,0,0,0,-1,1399,967,0,0
182,57,0,0,0,0,0,0,0,0,0,-1,1406,967,0,0
189,57,0,0,0,0,0,0,0,0,0,-1,1413,967,0,0
196,57,0,0,0,0,0,0,0,0,0,-1,1420,967,0,0
203,57,0,0,0,0,0,0,0,0,0,-1,1427,967,0,0
210,57,0,0,0,0,0,0,0,0,0,-1,1434,967,0,0
217,57,0,0,0,0,0,0,0,0,0,-1,1441,967,0,0
224,57,0,0,0,0,0,0,0,0,0,-1,1448,967,0,0
231,57,0,0,0,0,0,0,0,0,0,-1,1455,967,0,0
238,57,0,0,0,0,0,0,0,0,0,-1,1462,967,0,0
245,57,0,0,0,0,0,0,0,0,0,-1,1469,967,0,0
252,57,0,0,0,0,0,0,0,0,0,-1,1476,967,0,0
259,57,0,0,0,0,0,0,0,0,0,-1,1483,967,0,0
266,57,0,0,0,0,0,0,0,0,0,-1,1490,967,0,0
273,57,0,0,0,0,0,0,0,0,0,-1,1497,967,0,0
280,57,0,0,0,0,0,0,0,0,0,-1,1504,967,0,0
287,57,0,0,0,0,0,0,0,0,0,-1,1511,967,0,0
294,57,0,0,0,0,0,0,0,0,0,-1,1518,967,0,0
301,57,0,0,0,0,0,0,0,0,0,-1,1525,967,0,0
308,57,0,0,0,0,0,0,0,0,0,-1,1532,967,0,0
315,57,0,0,0,0,0,0,0,0,0,-1,1539,967,0,0
322,57,0,0,0,0,0,0,0,0,0,-1,1546,967,0,0
329,57,0,0,0,0,0,0,0,0,0,-1,1553,967,0,0
336,57,0,0,0,0,0,0,0,0,0,-1,1560,967,0,0
343,57,0,0,0,0,0,0,0,0,0,-1,1567,967,0,0
350,57,0,0,0,0,0,0,0,0,0,-1,1574,967,0,0
357,57,0,0,0,0,0,0,0,0,0,-1,1581,967,0,0
364,57,0,0,0,0,0,0,0,0,0,-1,1588,967,0,0
371,57,0,0,0,0,0,0,0,0,0,-1,1595,967,0,0
378,57,0,0,0,0,0,0,0,0,0,-1,1602,967,0,0
385,57,0,0,0,0,0,0,0,0,0,-1,1609,967,0,0
392,57,0,0,0,0,0,0,0,0,0,-1,1616,967,0,0
399,57,0,0,0,0,0,0,0,0,0,-1,1623,967,0,0
406,57,0,0,0,0,0,0,0,0,0,-1,1630,967,0,0
413,57,0,0,0,0,0,0,0,0,0,-1,1637,967,0,0
420,57,0,0,0,0,0,0,0,0,0,-1,1644,967,0,0
427,57,0,0,0,0,0,0,0,0,0,-1,1651,967,0,0
434,57,0,0,0,0,0,0,0,0,0,-1,1658,967,0,0
441,57,0,0,0,0,0,0,0,0,0,-1,1665,967,0,0
448,57,0,0,0,0,0,0,0,0,0,-1,1672,967,0,0
455,57,0,0,0,0,0,0,0,0,0,-1,1679,967,0,0
462,57,0,0,0,0,0,0,0,0,0,-1,1686,967,0,0
469,57,0,0,0,0,0,0,0,0,0,-1,1693,967,0,0
476,57,0,0,0,0,0,0,0,0,0,-1,1700,967,0,0
483,57,0,0,0,0,0,0,0,0,0,-1,1707,967,0,0
490,57,0,0,0,0,0,0,0,0,0,-1,1714,967,0,0
497,57,0,0,0,0,0,0,0,0,0,-1,1721,967,0,0
504,57,0,0,0,0,0,0,0,0,0,-1,1728,967,0,0
511,57,0,0,0,0,0,0,0,0,0,-1,1735,967,0,0
518,57,0,0,0,0,0,0,0,0,0,-1,1742,967,0,0
525,57,0,0,0,0,0,0,0,0,0,-1,1749,967,0,0
532,57,0,0,0,0,0,0,0,0,0,-1,1756,967,0,0
539,57,0,0,0,0,0,0,0,0,0,-1,1763,967,0,0
546,57,0,0,0,0,0,0,0,0,0,-1,1770,967,0,0
553,57,0,0,0,0,0,0,0,0,0,-1,1777,967,0,0
560,57,0,0,0,0,0,0,0,0,0,-1,1784,967,0,0
567,57,0,0,0,0,0,0,0,0,0,-1,1791,967,0,0
574,57,0,0,0,0,0,0,0,0,0,-1,1798,967,0,0
581,57,0,0,0,0,0,0,0,0,0,-1,1805,967,0,0
588,57,0,0,0,0,0,0,0,0,0,-1,1812,967,0,0
595,57,0,0,0,0,0,0,0,0,0,-1,1819,967,0,0
602,57,0,0,0,0,0,0,0,0,0,-1,1826,967,0,0
609,57,0,0,0,0,0,0,0,0,0,-1,1833,967,0,0
616,57,0,0,0,0,0,0,0,0,0,-1,1840,967,0,0
623,57,0,0,0,0,0,0,0,0,0,-1,1847,967,0,0
630,57,0,0,0,0,0,0,0,0,0,-1,1854,967,0,0
637,57,0,0,0,0,0,0,0,0,0,-1,1861,967,0,0
644,57,7.08997,1.14349,0.000521438,-0.00610947,0.00106799,0.000689207,-0.00627724,0.155815,0.00443246,0.0403058,1868,967,7.08995,-1.14348
651,57,7.1571,1.15002,0.000801485,-0.00602412,0.000223386,0.000808789,-0.00603142,0.0326811,0.00431588,0.0354412,1875,967,7.15708,-1.15
658,57,7.20544,1.09131,0.000805389,-0.00553831,-0.000159728,0.000809409,-0.00554233,-0.0251578,0.00399213,0.0356996,1882,967,7.20545,-1.09134
665,57,7.12219,1.14899,0,0,0,0,0,0,0,-1,1889,967,7.12217,-1.14899
672,57,7.0697,1.2262,0,0,0,0,0,0,0,-1,1896,967,7.06975,-1.22619
679,57,7.14648,1.02484,-0.000703534,-0.00339883,-0.000419808,-0.00063966,-0.00346271,-0.150992,0.00212755,0.0380728,1903,967,7.14643,-1.02484
686,57,7.23706,0.927856,-0.00125739,-0.00270688,-0.000360473,-0.00117269,-0.00279158,-0.230774,0.00161856,0.0373295,1910,967,7.2371,-0.927835
693,57,7.29517,0.942383,-0.00173851,-0.0021085,-0.000292784,-0.00157718,-0.00226984,-0.503646,0.00134325,0.031006,1917,967,7.29519,-0.942375
700,57,7.23291,0.968079,-0.00213646,-0.00156765,-0.000256943,-0.00146877,-0.00223534,-1.20344,0.00131163,0.0229522,1924,967,7.23295,-0.968051
707,57,7.1543,1.25647,-0.00243245,-0.00104283,-0.000197643,-0.00101526,-0.00246001,-1.43223,0.00142749,0.0226841,1931,967,7.1543,-1.25646
714,57,7.10571,1.34998,-0.00257999,-0.000639468,-9.48415e-05,-0.000634843,-0.00258461,-1.52208,0.00155527,0.0217573,1938,967,7.10571,-1.34998
721,57,7.0199,1.15723,-0.00256718,-0.000271837,-4.07022e-05,-0.000271115,-0.0025679,-1.55307,0.0016291,0.0166727,1945,967,7.01989,-1.15722
728,57,6.97107,1.19,-0.0027001,0.000124663,-2.70735e-05,0.000124923,-0.00270036,-1.56121,0.00184329,0.0184301,1952,967,6.97105,-1.19002
735,57,6.97998,1.20917,-0.00309824,0.000334559,8.75033e-05,0.000336788,-0.00310047,1.54533,0.0021879,0.0182017,1959,967,6.97992,-1.20917
742,57,7.0072,1.22614,-0.0035552,0.000840848,0.000144997,0.000845625,-0.00355998,1.53786,0.00269971,0.0153235,1966,967,7.00721,-1.22613
749,57,6.99097,1.25653,-0.00427987,0.000707996,0.000395267,0.000739125,-0.00431099,1.4922,0.00314942,0.0136114,1973,967,6.99092,-1.25654
756,57,6.97949,1.2691,-0.0052691,0.0003488,0.000985998,0.000516827,-0.00543713,1.402,0.00380874,0.010956,1980,967,6.9795,-1.26908
763,57,7.00305,1.28656,-0.00657332,0.000363269,0.0016621,0.000740966,-0.00695102,1.34735,0.00489971,0.0110498,1987,967,7.0031,-1.28658
770,57,6.9895,1.27338,-0.00850646,1.77246e-05,0.00273668,0.000820692,-0.00930943,1.2854,0.00649715,0.0107146,1994,967,6.98948,-1.27339
777,57,6.90015,1.37555,-0.0110607,-0.000712605,0.00422112,0.000790821,-0.0125641,1.22864,0.00865172,0.0262283,2001,967,6.90015,-1.37553
784,57,6.47449,1.2309,-0.0140951,-0.00198574,0.00630163,0.000698555,-0.0167794,1.16811,0.0114262,0.0434625,2008,967,6.47452,-1.23087
791,57,6.00269,1.12762,-0.0173819,-0.00398373,0.00914564,0.000653876,-0.0220195,1.1015,0.0149024,0.0497558,2015,967,6.00274,-1.12765
798,57,5.54858,1.07104,0,0,0,0,0,0,0,-1,2022,967,5.54864,-1.07105
805,57,8.02356,0.208862,0,0,0,0,0,0,0,-1,2029,967,8.0235,-0.208863
812,57,0,0,0,0,0,0,0,0,0,-1,2036,967,0,0
-700,50,0,0,0,0,0,0,0,0,0,-1,524,974,0,0
-693,50,-2.51666,-1.23199,-0.0551807,0.0332176,-0.00674645,0.0337295,-0.0556926,-1.49506,0.0521444,0.0471794,531,974,-2.51663,1.23197
-686,50,-2.53711,-0.401367,-0.0440588,0.0247447,0.000439542,0.0247475,-0.0440616,1.56441,0.0402453,0.0430543,538,974,-2.53709,0.401377
-679,50,-2.43817,0.30957,-0.0354649,0.0179523,0.00453636,0.0183348,-0.0358474,1.48668,0.0318221,0.0428796,545,974,-2.43818,-0.309582
-672,50,-2.44727,0.616699,-0.0285955,0.0125158,0.00673054,0.0135897,-0.0296694,1.41258,0.0255443,0.0435394,552,974,-2.44726,-0.616702
-665,50,-2.76086,-0.205383,-0.0229974,0.00825079,0.00764556,0.0100211,-0.0247678,1.34325,0.0206782,0.0477299,559,974,-2.76089,0.205388
-658,50,-2.54376,-0.0313721,-0.0183722,0.00502714,0.00766606,0.00731499,-0.0206601,1.28077,0.0167528,0.0453432,566,974,-2.54375,0.0313443
-651,50,-2.41779,0.500427,-0.0145184,0.00272146,0.00707278,0.00525175,-0.0170487,1.22723,0.0134623,0.0395313,573,974,-2.41776,-0.500416
-644,50,-2.62067,0.78833,-0.0113099,0.00120482,0.00611815,0.00369882,-0.0138039,1.18372,0.0106518,0.0243012,580,974,-2.62068,-0.788322
-637,50,-2.65466,0.868408,-0.00731933,0.000399012,0.00564099,0.0033746,-0.0102949,1.0854,0.00822231,0.0126157,587,974,-2.65469,-0.868392
-630,50,-2.66797,0.881531,-0.00545127,-0.000539538,0.00444975,0.00208707,-0.00807787,1.03755,0.00619917,0.00964059,594,974,-2.66796,-0.881557
-623,50,-2.65887,0.873108,-0.00493213,-0.0014967,0.00315137,0.000374695,-0.00680352,1.03492,0.0046656,0.0103444,601,974,-2.65887,-0.873134
-616,50,-2.651,0.855408,-0.00393143,-0.000765225,0.00201388,0.000213296,-0.00490995,1.1185,0.00334666,0.0100478,608,974,-2.65099,-0.855428
-609,50,-2.67255,0.832581,-0.00321986,-0.000567026,0.00132029,-2.19312e-05,-0.00376495,1.17925,0.00250269,0.0097444,615,974,-2.67253,-0.832598
-602,50,-2.7038,0.81366,-0.0027066,-2.45974e-05,0.000967088,0.000287745,-0.00301894,1.2584,0.00211508,0.0102734,622,974,-2.70381,-0.813649
-595,50,-2.70148,0.792236,-0.00217196,0.000142363,0.000374248,0.000201377,-0.00223097,1.4144,0.00155878,0.0105551,629,974,-2.70146,-0.792227
-588,50,-2.70551,0.805542,-0.00212222,0.000202763,0.000135093,0.000210586,-0.00213005,1.51295,0.00149518,0.0118283,636,974,-2.70548,-0.805533
-581,50,-2.79047,0.765076,-0.00219545,0.000299683,-1.04025e-05,0.000299726,-0.00219549,-1.56663,0.00157312,0.0196676,643,974,-2.79047,-0.765096
-574,50,-2.81879,0.682739,-0.00195604,0.000499589,-0.000279161,0.000530925,-0.00198738,-1.45901,0.00153286,0.0265622,650,974,-2.8188,-0.682722
-567,50,-2.76135,0.705017,-0.00175083,0.000804629,-0.000628589,0.000950879,-0.00189708,-1.3422,0.00167424,0.0357626,657,974,-2.76133,-0.705
-560,50,-2.59149,0.652344,-0.00137524,0.00118098,-0.00105728,0.00156161,-0.00175587,-1.22524,0.00191644,0.0403225,664,974,-2.59149,-0.65234
-553,50,-2.6178,0.514343,-0.000722666,0.00168335,-0.00161365,0.00249307,-0.00153239,-1.10571,0.00234606,0.0392348,671,974,-2.6178,-0.514317
-546,50,-2.75342,0.781677,0.000284024,0.00232307,-0.00232673,0.00384384,-0.00123675,-0.991888,0.00305931,0.0387848,678,974,-2.7534,-0.78165
-539,50,-2.97247,0.700806,0.00175497,0.00312334,-0.00320576,0.00571711,-0.000838804,-0.890532,0.00411957,0.0422688,685,974,-2.97244,-0.700834
-532,50,-3.0575,0.609802,0.00373165,0.00411314,-0.00421802,0.00814472,-0.000299935,-0.807994,0.0055325,0.0424301,692,974,-3.05747,-0.609829
-525,50,-2.85608,0.708313,0.0061529,0.00531209,-0.0053593,0.0111083,0.000356727,-0.746256,0.00728951,0.0423146,699,974,-2.8561,-0.708326
-518,50,0,0,0,0,0,0,0,0,0,-1,706,974,0,0
-511,50,0,0,0,0,0,0,0,0,0,-1,713,974,0,0
-504,50,0,0,0,0,0,0,0,0,0,-1,720,974,0,0
-497,50,0,0,0,0,0,0,0,0,0,-1,727,974,0,0
-490,50,0,0,0,0,0,0,0,0,0,-1,734,974,0,0
-483,50,0,0,0,0,0,0,0,0,0,-1,741,974,0,0
-476,50,0,0,0,0,0,0,0,0,0,-1,748,974,0,0
-469,50,0,0,0,0,0,0,0,0,0,-1,755,974,0,0
-462,50,0,0,0,0,0,0,0,0,0,-1,762,974,0,0
-455,50,0,0,0,0,0,0,0,0,0,-1,769,974,0,0
-448,50,0,0,0,0,0,0,0,0,0,-1,776,974,0,0
-441,50,0,0,0,0,0,0,0,0,0,-1,783,974,0,0
-434,50,0,0,0,0,0,0,0,0,0,-1,790,974,0,0
-427,50,0,0,0,0,0,0,0,0,0,-1,797,974,0,0
-420,50,0,0,0,0,0,0,0,0,0,-1,804,974,0,0
-413,50,0,0,0,0,0,0,0,0,0,-1,811,974,0,0
-406,50,0,0,0,0,0,0,0,0,0,-1,818,974,0,0
-399,50,0,0,0,0,0,0,0,0,0,-1,825,974,0,0
-392,50,0,0,0,0,0,0,0,0,0,-1,832,974,0,0
-385,50,0,0,0,0,0,0,0,0,0,-1,839,974,0,0
-378,50,0,0,0,0,0,0,0,0,0,-1,846,974,0,0
-371,50,0,0,0,0,0,0,0,0,0,-1,853,974,0,0
-364,50,0,0,0,0,0,0,0,0,0,-1,860,974,0,0
-357,50,0,0,0,0,0,0,0,0,0,-1,867,974,0,0
-350,50,0,0,0,0,0,0,0,0,0,-1,874,974,0,0
-343,50,0,0,0,0,0,0,0,0,0,-1,881,974,0,0
-336,50,0,0,0,0,0,0,0,0,0,-1,888,974,0,0
-329,50,0,0,0,0,0,0,0,0,0,-1,895,974,0,0
-322,50,0,0,0,0,0,0,0,0,0,-1,902,974,0,0
-315,50,0,0,0,0,0,0,0,0,0,-1,909,974,0,0
-308,50,0,0,0,0,0,0,0,0,0,-1,916,974,0,0
-301,50,0,0,0,0,0,0,0,0,0,-1,923,974,0,0
-294,50,0,0,0,0,0,0,0,0,0,-1,930,974,0,0
-287,50,0,0,0,0,0,0,0,0,0,-1,937,974,0,0
-280,50,0,0,0,0,0,0,0,0,0,-1,944,974,0,0
-273,50,0,0,0,0,0,0,0,0,0,-1,951,974,0,0
-266,50,0,0,0,0,0,0,0,0,0,-1,958,974,0,0
-259,50,0,0,0,0,0,0,0,0,0,-1,965,974,0,0
-252,50,0,0,0,0,0,0,0,0,0,-1,972,974,0,0
-245,50,0,0,0,0,0,0,0,0,0,-1,979,974,0,0
-238,50,0,0,0,0,0,0,0,0,0,-1,986,974,0,0
-231,50,0,0,0,0,0,0,0,0,0,-1,993,974,0,0
-224,50,0,0,0,0,0,0,0,0,0,-1,1000,974,0,0
-217,50,0,0,0,0,0,0,0,0,0,-1,1007,974,0,0
-210,50,0,0,0,0,0,0,0,0,0,-1,1014,974,0,0
-203,50,0,0,0,0,0,0,0,0,0,-1,1021,974,0,0
-196,50,0,0,0,0,0,0,0,0,0,-1,1028,974,0,0
-189,50,0,0,0,0,0,0,0,0,0,-1,1035,974,0,0
-182,50,0,0,0,0,0,0,0,0,0,-1,1042,974,0,0
-175,50,0,0,0,0,0,0,0,0,0,-1,1049,974,0,0
-168,50,0,0,0,0,0,0,0,0,0,-1,1056,974,0,0
-161,50,0,0,0,0,0,0,0,0,0,-1,1063,974,0,0
-154,50,0,0,0,0,0,0,0,0,0,-1,1070,974,0,0
-147,50,0,0,0,0,0,0,0,0,0,-1,1077,974,0,0
-140,50,0,0,0,0,0,0,0,0,0,-1,1084,974,0,0
-133,50,0,0,0,0,0,0,0,0,0,-1,1091,974,0,0
-126,50,0,0,0,0,0,0,0,0,0,-1,1098,974,0,0
-119,50,0,0,0,0,0,0,0,0,0,-1,1105,974,0,0
-112,50,0,0,0,0,0,0,0,0,0,-1,1112,974,0,0
-105,50,0,0,0,0,0,0,0,0,0,-1,1119,974,0,0
-98,50,0,0,0,0,0,0,0,0,0,-1,1126,974,0,0
-91,50,0,0,0,0,0,0,0,0,0,-1,1133,974,0,0
-84,50,0,0,0,0,0,0,0,0,0,-1,1140,974,0,0
-77,50,0,0,0,0,0,0,0,0,0,-1,1147,974,0,0
-70,50,0,0,0,0,0,0,0,0,0,-1,1154,974,0,0
-63,50,0,0,0,0,0,0,0,0,0,-1,1161,974,0,0
-56,50,0,0,0,0,0,0,0,0,0,-1,1168,974,0,0
-49,50,0,0,0,0,0,0,0,0,0,-1,1175,974,0,0
-42,50,0,0,0,0,0,0,0,0,0,-1,1182,974,0,0
-35,50,0,0,0,0,0,0,0,0,0,-1,1189,974,0,0
-28,50,0,0,0,0,0,0,0,0,0,-1,1196,974,0,0
-21,50,0,0,0,0,0,0,0,0,0,-1,1203,974,0,0
-14,50,0,0,0,0,0,0,0,0,0,-1,1210,974,0,0
-7,50,0,0,0,0,0,0,0,0,0,-1,1217,974,0,0
0,50,0,0,0,0,0,0,0,0,0,-1,1224,974,0,0
7,50,0,0,0,0,0,0,0,0,0,-1,1231,974,0,0
14,50,0,0,0,0,0,0,0,0,0,-1,1238,974,0,0
21,50,0,0,0,0,0,0,0,0,0,-1,1245,974,0,0
28,50,0,0,0,0,0,0,0,0,0,-1,1252,974,0,0
35,50,0,0,0,0,0,0,0,0,0,-1,1259,974,0,0
42,50,0,0,0,0,0,0,0,0,0,-1,1266,974,0,0
49,50,0,0,0,0,0,0,0,0,0,-1,1273,974,0,0
56,50,0,0,0,0,0,0,0,0,0,-1,1280,974,0,0
63,50,0,0,0,0,0,0,0,0,0,-1,1287,974,0,0
70,50,0,0,0,0,0,0,0,0,0,-1,1294,974,0,0
77,50,0,0,0,0,0,0,0,0,0,-1,1301,974,0,0
84,50,0,0,0,0,0,0,0,0,0,-1,1308,974,0,0
91,50,0,0,0,0,0,0,0,0,0,-1,1315,974,0,0
98,50,0,0,0,0,0,0,0,0,0,-1,1322,974,0,0
105,50,0,0,0,0,0,0,0,0,0,-1,1329,974,0,0
112,50,0,0,0,0,0,0,0,0,0,-1,1336,974,0,0
119,50,0,0,0,0,0,0,0,0,0,-1,1343,974,0,0
126,50,0,0,0,0,0,0,0,0,0,-1,1350,974,0,0
133,50,0,0,0,0,0,0,0,0,0,-1,1357,974,0,0
140,50,0,0,0,0,0,0,0,0,0,-1,1364,974,0,0
147,50,0,0,0,0,0,0,0,0,0,-1,1371,974,0,0
154,50,0,0,0,0,0,0,0,0,0,-1,1378,974,0,0
161,50,0,0,0,0,0,0,0,0,0,-1,1385,974,0,0
168,50,0,0,0,0,0,0,0,0,0,-1,1392,974,0,0
175,50,0,0,0,0,0,0,0,0,0,-1,1399,974,0,0
182,50,0,0,0,0,0,0,0,0,0,-1,1406,974,0,0
189,50,0,0,0,0,0,0,0,0,0,-1,1413,974,0,0
196,50,0,0,0,0,0,0,0,0,0,-1,1420,974,0,0
203,50,0,0,0,0,0,0,0,0,0,-1,1427,974,0,0
210,50,0,0,0,0,0,0,0,0,0,-1,1434,974,0,0
217,50,0,0,0,0,0,0,0,0,0,-1,1441,974,0,0
224,50,0,0,0,0,0,0,0,0,0,-1,1448,974,0,0
231,50,0,0,0,0,0,0,0,0,0,-1,1455,974,0,0
238,50,0,0,0,0,0,0,0,0,0,-1,1462,974,0,0
245,50,0,0,0,0,0,0,0,0,0,-1,1469,974,0,0
252,50,0,0,0,0,0,0,0,0,0,-1,1476,974,0,0
259,50,0,0,0,0,0,0,0,0,0,-1,1483,974,0,0
266,50,0,0,0,0,0,0,0,0,0,-1,1490,974,0,0
273,50,0,0,0,0,0,0,0,0,0,-1,1497,974,0,0
280,50,0,0,0,0,0,0,0,0,0,-1,1504,974,0,0
287,50,0,0,0,0,0,0,0,0,0,-1,1511,974,0,0
294,50,0,0,0,0,0,0,0,0,0,-1,1518,974,0,0
301,50,0,0,0,0,0,0,0,0,0,-1,1525,974,0,0
308,50,0,0,0,0,0,0,0,0,0,-1,1532,974,0,0
315,50,0,0,0,0,0,0,0,0,0,-1,1539,974,0,0
322,50,0,0,0,0,0,0,0,0,0,-1,1546,974,0,0
329,50,0,0,0,0,0,0,0,0,0,-1,1553,974,0,0
336,50,0,0,0,0,0,0,0,0,0,-1,1560,974,0,0
343,50,0,0,0,0,0,0,0,0,0,-1,1567,974,0,0
350,50,0,0,0,0,0,0,0,0,0,-1,1574,974,0,0
357,50,0,0,0,0,0,0,0,0,0,-1,1581,974,0,0
364,50,0,0,0,0,0,0,0,0,0,-1,1588,974,0,0
371,50,0,0,0,0,0,0,0,0,0,-1,1595,974,0,0
378,50,0,0,0,0,0,0,0,0,0,-1,1602,974,0,0
385,50,0,0,0,0,0,0,0,0,0,-1,1609,974,0,0
392,50,0,0,0,0,0,0,0,0,0,-1,1616,974,0,0
399,50,0,0,0,0,0,0,0,0,0,-1,1623,974,0,0
406,50,0,0,0,0,0,0,0,0,0,-1,1630,974,0,0
413,50,0,0,0,0,0,0,0,0,0,-1,1637,974,0,0
420,50,0,0,0,0,0,0,0,0,0,-1,1644,974,0,0
427,50,0,0,0,0,0,0,0,0,0,-1,1651,974,0,0
434,50,0,0,0,0,0,0,0,0,0,-1,1658,974,0,0
441,50,0,0,0,0,0,0,0,0,0,-1,1665,974,0,0
448,50,0,0,0,0,0,0,0,0,0,-1,1672,974,0,0
455,50,0,0,0,0,0,0,0,0,0,-1,1679,974,0,0
462,50,0,0,0,0,0,0,0,0,0,-1,1686,974,0,0
469,50,0,0,0,0,0,0,0,0,0,-1,1693,974,0,0
476,50,0,0,0,0,0,0,0,0,0,-1,1700,974,0,0
483,50,0,0,0,0,0,0,0,0,0,-1,1707,974,0,0
490,50,0,0,0,0,0,0,0,0,0,-1,1714,974,0,0
497,50,0,0,0,0,0,0,0,0,0,-1,1721,974,0,0
504,50,0,0,0,0,0,0,0,0,0,-1,1728,974,0,0
511,50,0,0,0,0,0,0,0,0,0,-1,1735,974,0,0
518,50,0,0,0,0,0,0,0,0,0,-1,1742,974,0,0
525,50,0,0,0,0,0,0,0,0,0,-1,1749,974,0,0
532,50,0,0,0,0,0,0,0,0,0,-1,1756,974,0,0
539,50,0,0,0,0,0,0,0,0,0,-1,1763,974,0,0
546,50,0,0,0,0,0,0,0,0,0,-1,1770,974,0,0
553,50,0,0,0,0,0,0,0,0,0,-1,1777,974,0,0
560,50,0,0,0,0,0,0,0,0,0,-1,1784,974,0,0
567,50,0,0,0,0,0,0,0,0,0,-1,1791,974,0,0
574,50,0,0,0,0,0,0,0,0,0,-1,1798,974,0,0
581,50,0,0,0,0,0,0,0,0,0,-1,1805,974,0,0
588,50,0,0,0,0,0,0,0,0,0,-1,1812,974,0,0
595,50,0,0,0,0,0,0,0,0,0,-1,1819,974,0,0
602,50,0,0,0,0,0,0,0,0,0,-1,1826,974,0,0
609,50,0,0,0,0,0,0,0,0,0,-1,1833,974,0,0
616,50,0,0,0,0,0,0,0,0,0,-1,1840,974,0,0
623,50,0,0,0,0,0,0,0,0,0,-1,1847,974,0,0
630,50,0,0,0,0,0,0,0,0,0,-1,1854,974,0,0
637,50,0,0,0,0,0,0,0,0,0,-1,1861,974,0,0
644,50,7.16479,0.940063,0.000157264,-0.0075319,0.000925,0.000266975,-0.00764161,0.118055,0.00518569,0.0381348,1868,974,7.16483,-0.940047
651,50,7.1814,0.95282,0.000515051,-0.00713971,3.47027e-05,0.000515209,-0.00713986,0.00453335,0.00494061,0.0327238,1875,974,7.18141,-0.952818
658,50,7.15137,0.922241,0.000647237,-0.0064041,-0.000346691,0.000664241,-0.0064211,-0.0490091,0.00451845,0.0377521,1882,974,7.15133,-0.922255
665,50,7.13708,0.692139,0,0,0,0,0,0,0,-1,1889,974,7.13709,-0.69211
672,50,7.00439,1.08881,0,0,0,0,0,0,0,-1,1896,974,7.00445,-1.08882
679,50,7.10608,0.857849,-0.000517971,-0.00369747,-0.000462056,-0.000452185,-0.00376326,-0.141427,0.00237252,0.0399246,1903,974,7.10604,-0.857843
686,50,7.10425,1.00739,-0.0010009,-0.00286933,-0.000346961,-0.000938555,-0.00293168,-0.177803,0.00172872,0.0401131,1910,974,7.10426,-1.00739
693,50,7.17822,0.972351,-0.00143299,-0.00218202,-0.00022567,-0.00137025,-0.00224475,-0.271153,0.0013065,0.0354883,1917,974,7.17827,-0.972341
700,50,7.20068,0.975525,-0.00179772,-0.00159002,-0.000158983,-0.00150398,-0.00188377,-1.07471,0.00115034,0.0200642,1924,974,7.2007,-0.975543
707,50,7.16516,1.19678,-0.00210729,-0.000977045,-8.8934e-05,-0.00097009,-0.00211424,-1.49275,0.00122204,0.0213692,1931,974,7.1651,-1.19675
714,50,7.13098,1.27838,-0.00228004,-0.000552879,2.74786e-05,-0.000552442,-0.00228048,1.55489,0.00137371,0.0206912,1938,974,7.131,-1.27837
721,50,7.03003,1.17737,-0.0023007,-0.000204541,9.63878e-05,-0.000200118,-0.00230513,1.52494,0.00147458,0.0172247,1945,974,7.02999,-1.17739
728,50,6.99963,1.17847,-0.00252281,0.000157426,0.000108309,0.000161796,-0.00252718,1.53047,0.00174122,0.0181478,1952,974,6.99959,-1.17846
735,50,7.01538,1.2099,-0.00304075,0.000323865,0.000163475,0.000331789,-0.00304867,1.52236,0.00215159,0.0171138,1959,974,7.01544,-1.20988
742,50,7.02844,1.22516,-0.00365991,0.00079236,0.000138402,0.000796659,-0.0036642,1.53975,0.00274713,0.0148175,1966,974,7.0284,-1.22514
749,50,7.02307,1.24402,-0.00460397,0.000608986,0.000387192,0.000637588,-0.00463257,1.49706,0.00332137,0.0157652,1973,974,7.02301,-1.24403
756,50,7.02429,1.26318,-0.0057764,0.000125558,0.000957975,0.000277157,-0.005928,1.41385,0.00404755,0.0113164,1980,974,7.02423,-1.2632
763,50,7.02881,1.2724,-0.00718337,0.000161352,0.00159913,0.000494418,-0.00751644,1.36545,0.00518363,0.0103194,1987,974,7.02885,-1.27241
770,50,7.02112,1.27332,-0.00923252,-0.000204513,0.00266556,0.000523758,-0.00996079,1.30409,0.00682182,0.0100925,1994,974,7.0211,-1.27332
777,50,6.99194,1.3092,-0.0118711,-0.000891676,0.00417506,0.000515573,-0.0132783,1.24569,0.00902898,0.0218878,2001,974,6.99188,-1.30922
784,50,6.54175,1.2384,-0.0149696,-0.00202344,0.00630815,0.000541919,-0.017535,1.18455,0.0118748,0.0395657,2008,974,6.5418,-1.2384
791,50,6.16626,1.13507,-0.0182862,-0.00371381,0.00924765,0.000773158,-0.0227732,1.11906,0.0154463,0.0458651,2015,974,6.16622,-1.13506
798,50,5.82202,1.05695,0,0,0,0,0,0,0,-1,2022,974,5.82204,-1.05692
805,50,7.53198,0.595886,0,0,0,0,0,0,0,-1,2029,974,7.53194,-0.595905
812,50,0,0,0,0,0,0,0,0,0,-1,2036,974,0,0
-700,43,0,0,0,0,0,0,0,0,0,-1,524,981,0,0
-693,43,0.724731,-1.58569,-0.0713604,0.0248386,-0.00332858,0.0249537,-0.0714754,-1.53625,0.0577927,0.0439188,531,981,0.724755,1.58568
-686,43,-2.28784,-1.21692,-0.0567141,0.0191747,0.00261034,0.0192643,-0.0568038,1.53645,0.0456658,0.0449144,538,981,-2.28785,1.2169
-679,43,-2.34674,-0.662598,-0.0451358,0.0142988,0.00587607,0.0148742,-0.0457111,1.47319,0.036458,0.0457202,545,981,-2.34675,0.662615
-672,43,-2.39453,-0.168396,-0.0357887,0.0101945,0.00749041,0.0113839,-0.0369781,1.41332,0.0291961,0.0456347,552,981,-2.39455,0.168377
-665,43,-2.56158,0.0522461,-0.0281661,0.00685113,0.00799584,0.0085905,-0.0299054,1.3566,0.0233337,0.0461468,559,981,-2.56155,-0.0522484
-658,43,-2.48352,0.268555,-0.0219282,0.00424965,0.00773355,0.00636362,-0.0240422,1.30397,0.0185175,0.0436405,566,981,-2.48351,-0.268564
-651,43,-2.46576,0.557617,-0.016835,0.00234569,0.0069552,0.00460227,-0.0190916,1.25707,0.0145072,0.0356006,573,981,-2.46573,-0.557633
-644,43,-2.66132,0.856812,-0.0127158,0.00106882,0.00589341,0.00324492,-0.0148919,1.21708,0.0111679,0.0168811,580,981,-2.66134,-0.856817
-637,43,-2.69073,0.892761,-0.00801793,0.000486739,0.00535129,0.00306951,-0.0106007,1.12113,0.00828213,0.0108483,587,981,-2.69075,-0.892741
-630,43,-2.67554,0.882935,-0.0055607,-0.000288044,0.00413765,0.00198178,-0.00783052,1.06904,0.00599121,0.0114139,594,981,-2.67554,-0.882917
-623,43,-2.68756,0.854431,-0.00473649,-0.00131791,0.00279097,0.0002456,-0.0063,1.06015,0.00428421,0.010728,601,981,-2.68758,-0.854455
-616,43,-2.67938,0.836975,-0.00365179,-0.000694572,0.00170563,8.4132e-05,-0.00443049,1.14251,0.0029821,0.00912135,608,981,-2.67937,-0.836974
-609,43,-2.68488,0.818298,-0.00290355,-0.000469138,0.00107365,-6.32838e-05,-0.0033094,1.20939,0.00218548,0.0113393,615,981,-2.68487,-0.818272
-602,43,-2.72357,0.804626,-0.00240785,2.30239e-05,0.000724013,0.000222324,-0.00260715,1.30218,0.00181675,0.014546,622,981,-2.72357,-0.804651
-595,43,-2.71844,0.796997,-0.00191781,0.000171338,0.000158493,0.000183293,-0.00192977,1.49551,0.00135176,0.0134582,629,981,-2.71847,-0.797018
-588,43,-2.70447,0.81604,-0.00187792,0.000241291,-6.23495e-05,0.000243124,-0.00187975,-1.54141,0.00134157,0.0127883,636,981,-2.7045,-0.816018
-581,43,-2.7774,0.80719,-0.00193785,0.000349775,-0.000203327,0.000367706,-0.00195578,-1.48283,0.00144213,0.0196932,643,981,-2.77742,-0.807202
-574,43,-2.82117,0.749939,-0.00169603,0.000558935,-0.000466682,0.000651702,-0.00178879,-1.37457,0.00145911,0.0286625,650,981,-2.82118,-0.749953
-567,43,-2.75854,0.626648,-0.00151666,0.0008754,-0.000782608,0.00110869,-0.00174995,-1.28109,0.00166422,0.0361968,657,981,-2.75856,-0.626617
-560,43,-2.68964,0.519287,-0.00119057,0.00126975,-0.00117426,0.00174024,-0.00166105,-1.18972,0.00196391,0.038458,664,981,-2.68965,-0.519261
-553,43,-2.80103,0.527344,-0.000621581,0.00179363,-0.00166898,0.00264608,-0.00147403,-1.09858,0.00241061,0.0394866,671,981,-2.80102,-0.52737
-546,43,-2.87494,0.720215,0.000264278,0.00245955,-0.0022869,0.00389859,-0.00117476,-1.00914,0.00306659,0.0421082,678,981,-2.87497,-0.720215
-539,43,-3.00104,0.526855,0.00158256,0.00328794,-0.00302334,0.00557653,-0.000706033,-0.922846,0.00397399,0.0447579,685,981,-3.00105,-0.52687
-532,43,-3.07465,0.40802,0.0033737,0.00431,-0.00382417,0.00769457,-1.08676e-05,-0.846305,0.00513334,0.0452999,692,981,-3.07465,-0.408027
-525,43,-2.88251,0.552612,0.00560329,0.0055517,-0.00466231,0.0102399,0.000915116,-0.782632,0.00654291,0.0443629,699,981,-2.88248,-0.552622
-518,43,0,0,0,0,0,0,0,0,0,-1,706,981,0,0
-511,43,0,0,0,0,0,0,0,0,0,-1,713,981,0,0
-504,43,0,0,0,0,0,0,0,0,0,-1,720,981,0,0
-497,43,0,0,0,0,0,0,0,0,0,-1,727,981,0,0
-490,43,0,0,0,0,0,0,0,0,0,-1,734,981,0,0
-483,43,0,0,0,0,0,0,0,0,0,-1,741,981,0,0
-476,43,0,0,0,0,0,0,0,0,0,-1,748,981,0,0
-469,43,0,0,0,0,0,0,0,0,0,-1,755,981,0,0
-462,43,0,0,0,0,0,0,0,0,0,-1,762,981,0,0
-455,43,0,0,0,0,0,0,0,0,0,-1,769,981,0,0
-448,43,0,0,0,0,0,0,0,0,0,-1,776,981,0,0
-441,43,0,0,0,0,0,0,0,0,0,-1,783,981,0,0
-434,43,0,0,0,0,0,0,0,0,0,-1,790,981,0,0
-427,43,0,0,0,0,0,0,0,0,0,-1,797,981,0,0
-420,43,0,0,0,0,0,0,0,0,0,-1,804,981,0,0
-413,43,0,0,0,0,0,0,0,0,0,-1,811,981,0,0
-406,43,0,0,0,0,0,0,0,0,0,-1,818,981,0,0
-399,43,0,0,0,0,0,0,0,0,0,-1,825,981,0,0
-392,43,0,0,0,0,0,0,0,0,0,-1,832,981,0,0
-385,43,0,0,0,0,0,0,0,0,0,-1,839,981,0,0
-378,43,0,0,0,0,0,0,0,0,0,-1,846,981,0,0
-371,43,0,0,0,0,0,0,0,0,0,-1,853,981,0,0
-364,43,0,0,0,0,0,0,0,0,0,-1,860,981,0,0
-357,43,0,0,0,0,0,0,0,0,0,-1,867,981,0,0
-350,43,0,0,0,0,0,0,0,0,0,-1,874,981,0,0
-343,43,0,0,0,0,0,0,0,0,0,-1,881,981,0,0
-336,43,0,0,0,0,0,0,0,0,0,-1,888,981,0,0
-329,43,0,0,0,0,0,0,0,0,0,-1,895,981,0,0
-322,43,0,0,0,0,0,0,0,0,0,-1,902,981,0,0
-315,43,0,0,0,0,0,0,0,0,0,-1,909,981,0,0
-308,43,0,0,0,0,0,0,0,0,0,-1,916,981,0,0
-301,43,0,0,0,0,0,0,0,0,0,-1,923,981,0,0
-294,43,0,0,0,0,0,0,0,0,0,-1,930,981,0,0
-287,43,0,0,0,0,0,0,0,0,0,-1,937,981,0,0
-280,43,0,0,0,0,0,0,0,0,0,-1,944,981,0,0
-273,43,0,0,0,0,0,0,0,0,0,-1,951,981,0,0
-266,43,0,0,0,0,0,0,0,0,0,-1,958,981,0,0
-259,43,0,0,0,0,0,0,0,0,0,-1,965,981,0,0
-252,43,0,0,0,0,0,0,0,0,0,-1,972,981,0,0
-245,43,0,0,0,0,0,0,0,0,0,-1,979,981,0,0
-238,43,0,0,0,0,0,0,0,0,0,-1,986,981,0,0
-231,43,0,0,0,0,0,0,0,0,0,-1,993,981,0,0
-224,43,0,0,0,0,0,0,0,0,0,-1,1000,981,0,0
-217,43,0,0,0,0,0,0,0,0,0,-1,1007,981,0,0
-210,43,0,0,0,0,0,0,0,0,0,-1,1014,981,0,0
-203,43,0,0,0,0,0,0,0,0,0,-1,1021,981,0,0
-196,43,0,0,0,0,0,0,0,0,0,-1,1028,981,0,0
-189,43,0,0,0,0,0,0,0,0,0,-1,1035,981,0,0
-182,43,0,0,0,0,0,0,0,0,0,-1,1042,981,0,0
-175,43,0,0,0,0,0,0,0,0,0,-1,1049,981,0,0
-168,43,0,0,0,0,0,0,0,0,0,-1,1056,981,0,0
-161,43,0,0,0,0,0,0,0,0,0,-1,1063,981,0,0
-154,43,0,0,0,0,0,0,0,0,0,-1,1070,981,0,0
-147,43,0,0,0,0,0,0,0,0,0,-1,1077,981,0,0
-140,43,0,0,0,0,0,0,0,0,0,-1,1084,981,0,0
-133,43,0,0,0,0,0,0,0,0,0,-1,1091,981,0,0
-126,43,0,0,0,0,0,0,0,0,0,-1,1098,981,0,0
-119,43,0,0,0,0,0,0,0,0,0,-1,1105,981,0,0
-112,43,0,0,0,0,0,0,0,0,0,-1,1112,981,0,0
-105,43,0,0,0,0,0,0,0,0,0,-1,1119,981,0,0
-98,43,0,0,0,0,0,0,0,0,0,-1,1126,981,0,0
-91,43,0,0,0,0,0,0,0,0,0,-1,1133,981,0,0
-84,43,0,0,0,0,0,0,0,0,0,-1,1140,981,0,0
-77,43,0,0,0,0,0,0,0,0,0,-1,1147,981,0,0
-70,43,0,0,0,0,0,0,0,0,0,-1,1154,981,0,0
-63,43,0,0,0,0,0,0,0,0,0,-1,1161,981,0,0
-56,43,0,0,0,0,0,0,0,0,0,-1,1168,981,0,0
-49,43,0,0,0,0,0,0,0,0,0,-1,1175,981,0,0
-42,43,0,0,0,0,0,0,0,0,0,-1,1182,981,0,0
-35,43,0,0,0,0,0,0,0,0,0,-1,1189,981,0,0
-28,43,0,0,0,0,0,0,0,0,0,-1,1196,981,0,0
-21,43,0,0,0,0,0,0,0,0,0,-1,1203,981,0,0
-14,43,0,0,0,0,0,0,0,0,0,-1,1210,981,0,0
-7,43,0,0,0,0,0,0,0,0,0,-1,1217,981,0,0
0,43,0,0,0,0,0,0,0,0,0,-1,1224,981,0,0
7,43,0,0,0,0,0,0,0,0,0,-1,1231,981,0,0
14,43,0,0,0,0,0,0,0,0,0,-1,1238,981,0,0
21,43,0,0,0,0,0,0,0,0,0,-1,1245,981,0,0
28,43,0,0,0,0,0,0,0,0,0,-1,1252,981,0,0
35,43,0,0,0,0,0,0,0,0,0,-1,1259,981,0,0
42,43,0,0,0,0,0,0,0,0,0,-1,1266,981,0,0
49,43,0,0,0,0,0,0,0,0,0,-1,1273,981,0,0
56,43,0,0,0,0,0,0,0,0,0,-1,1280,981,0,0
63,43,0,0,0,0,0,0,0,0,0,-1,1287,981,0,0
70,43,0,0,0,0,0,0,0,0,0,-1,1294,981,0,0
77,43,0,0,0,0,0,0,0,0,0,-1,1301,981,0,0
84,43,0,0,0,0,0,0,0,0,0,-1,1308,981,0,0
91,43,0,0,0,0,0,0,0,0,0,-1,1315,981,0,0
98,43,0,0,0,0,0,0,0,0,0,-1,1322,981,0,0
105,43,0,0,0,0,0,0,0,0,0,-1,1329,981,0,0
112,43,0,0,0,0,0,0,0,0,0,-1,1336,981,0,0
119,43,0,0,0,0,0,0,0,0,0,-1,1343,981,0,0
126,43,0,0,0,0,0,0,0,0,0,-1,1350,981,0,0
133,43,0,0,0,0,0,0,0,0,0,-1,1357,981,0,0
140,43,0,0,0,0,0,0,0,0,0,-1,1364,981,0,0
147,43,0,0,0,0,0,0,0,0,0,-1,1371,981,0,0
154,43,0,0,0,0,0,0,0,0,0,-1,1378,981,0,0
161,43,0,0,0,0,0,0,0,0,0,-1,1385,981,0,0
168,43,0,0,0,0,0,0,0,0,0,-1,1392,981,0,0
175,43,0,0,0,0,0,0,0,0,0,-1,1399,981,0,0
182,43,0,0,0,0,0,0,0,0,0,-1,1406,981,0,0
189,43,0,0,0,0,0,0,0,0,0,-1,1413,981,0,0
196,43,0,0,0,0,0,0,0,0,0,-1,1420,981,0,0
203,43,0,0,0,0,0,0,0,0,0,-1,1427,981,0,0
210,43,0,0,0,0,0,0,0,0,0,-1,1434,981,0,0
217,43,0,0,0,0,0,0,0,0,0,-1,1441,981,0,0
224,43,0,0,0,0,0,0,0,0,0,-1,1448,981,0,0
231,43,0,0,0,0,0,0,0,0,0,-1,1455,981,0,0
238,43,0,0,0,0,0,0,0,0,0,-1,1462,981,0,0
245,43,0,0,0,0,0,0,0,0,0,-1,1469,981,0,0
252,43,0,0,0,0,0,0,0,0,0,-1,1476,981,0,0
259,43,0,0,0,0,0,0,0,0,0,-1,1483,981,0,0
266,43,0,0,0,0,0,0,0,0,0,-1,1490,981,0,0
273,43,0,0,0,0,0,0,0,0,0,-1,1497,981,0,0
280,43,0,0,0,0,0,0,0,0,0,-1,1504,981,0,0
287,43,0,0,0,0,0,0,0,0,0,-1,1511,981,0,0
294,43,0,0,0,0,0,0,0,0,0,-1,1518,981,0,0
301,43,0,0,0,0,0,0,0,0,0,-1,1525,981,0,0
308,43,0,0,0,0,0,0,0,0,0,-1,1532,981,0,0
315,43,0,0,0,0,0,0,0,0,0,-1,1539,981,0,0
322,43,0,0,0,0,0,0,0,0,0,-1,1546,981,0,0
329,43,0,0,0,0,0,0,0,0,0,-1,1553,981,0,0
336,43,0,0,0,0,0,0,0,0,0,-1,1560,981,0,0
343,43,0,0,0,0,0,0,0,0,0,-1,1567,981,0,0
350,43,0,0,0,0,0,0,0,0,0,-1,1574,981,0,0
357,43,0,0,0,0,0,0,0,0,0,-1,1581,981,0,0
364,43,0,0,0,0,0,0,0,0,0,-1,1588,981,0,0
371,43,0,0,0,0,0,0,0,0,0,-1,1595,981,0,0
378,43,0,0,0,0,0,0,0,0,0,-1,1602,981,0,0
385,43,0,0,0,0,0,0,0,0,0,-1,1609,981,0,0
392,43,0,0,0,0,0,0,0,0,0,-1,1616,981,0,0
399,43,0,0,0,0,0,0,0,0,0,-1,1623,981,0,0
406,43,0,0,0,0,0,0,0,0,0,-1,1630,981,0,0
413,43,0,0,0,0,0,0,0,0,0,-1,1637,981,0,0
420,43,0,0,0,0,0,0,0,0,0,-1,1644,981,0,0
427,43,0,0,0,0,0,0,0,0,0,-1,1651,981,0,0
434,43,0,0,0,0,0,0,0,0,0,-1,1658,981,0,0
441,43,0,0,0,0,0,0,0,0,0,-1,1665,981,0,0
448,43,0,0,0,0,0,0,0,0,0,-1,1672,981,0,0
455,43,0,0,0,0,0,0,0,0,0,-1,1679,981,0,0
462,43,0,0,0,0,0,0,0,0,0,-1,1686,981,0,0
469,43,0,0,0,0,0,0,0,0,0,-1,1693,981,0,0
476,43,0,0,0,0,0,0,0,0,0,-1,1700,981,0,0
483,43,0,0,0,0,0,0,0,0,0,-1,1707,981,0,0
490,43,0,0,0,0,0,0,0,0,0,-1,1714,981,0,0
497,43,0,0,0,0,0,0,0,0,0,-1,1721,981,0,0
504,43,0,0,0,0,0,0,0,0,0,-1,1728,981,0,0
511,43,0,0,0,0,0,0,0,0,0,-1,1735,981,0,0
518,43,0,0,0,0,0,0,0,0,0,-1,1742,981,0,0
525,43,0,0,0,0,0,0,0,0,0,-1,1749,981,0,0
532,43,0,0,0,0,0,0,0,0,0,-1,1756,981,0,0
539,43,0,0,0,0,0,0,0,0,0,-1,1763,981,0,0
546,43,0,0,0,0,0,0,0,0,0,-1,1770,981,0,0
553,43,0,0,0,0,0,0,0,0,0,-1,1777,981,0,0
560,43,0,0,0,0,0,0,0,0,0,-1,1784,981,0,0
567,43,0,0,0,0,0,0,0,0,0,-1,1791,981,0,0
574,43,0,0,0,0,0,0,0,0,0,-1,1798,981,0,0
581,43,0,0,0,0,0,0,0,0,0,-1,1805,981,0,0
588,43,0,0,0,0,0,0,0,0,0,-1,1812,981,0,0
595,43,0,0,0,0,0,0,0,0,0,-1,1819,981,0,0
602,43,0,0,0,0,0,0,0,0,0,-1,1826,981,0,0
609,43,0,0,0,0,0,0,0,0,0,-1,1833,981,0,0
616,43,0,0,0,0,0,0,0,0,0,-1,1840,981,0,0
623,43,0,0,0,0,0,0,0,0,0,-1,1847,981,0,0
630,43,0,0,0,0,0,0,0,0,0,-1,1854,981,0,0
637,43,0,0,0,0,0,0,0,0,0,-1,1861,981,0,0
644,43,7.20947,0.946472,0.00011872,-0.00849218,0.000804543,0.000193246,-0.00856671,0.0923678,0.00577663,0.0379884,1868,981,7.20946,-0.946495
651,43,7.11145,0.897827,0.000405505,-0.00782848,-0.000204017,0.000410557,-0.00783353,-0.0247572,0.00536444,0.0384253,1875,981,7.11142,-0.8978
658,43,7.14722,1.09827,0.000556532,-0.00690053,-0.000625111,0.000608571,-0.00695257,-0.0830556,0.00485064,0.0403276,1882,981,7.14725,-1.09826
665,43,7.20386,0.9823,0.000408226,-0.00584812,-0.00073283,0.000492919,-0.00593281,-0.115059,0.00412933,0.0396977,1889,981,7.20389,-0.982325
672,43,7.10754,0.997437,4.98657e-05,-0.00479074,-0.000726683,0.000156604,-0.00489748,-0.145841,0.00331842,0.0413385,1896,981,7.1076,-0.997463
679,43,7.02649,0.937744,-0.00039383,-0.00378968,-0.000601137,-0.000290557,-0.00389295,-0.170136,0.00250407,0.0418284,1903,981,7.02643,-0.937757
686,43,7.03992,0.999084,-0.000817624,-0.0028869,-0.00042084,-0.00073531,-0.00296921,-0.193157,0.00178557,0.0400016,1910,981,7.03995,-0.999059
693,43,7.13733,1.04071,-0.00119639,-0.00214484,-0.000232674,-0.00114238,-0.00219884,-0.228065,0.00126983,0.0370503,1917,981,7.13733,-1.04071
700,43,7.2146,1.04193,-0.00151688,-0.00152458,-0.000115779,-0.00140489,-0.00163658,-0.76878,0.00102261,0.0308602,1924,981,7.21461,-1.04196
707,43,7.21069,1.06555,-0.0018365,-0.000859926,-8.41906e-06,-0.000859854,-0.00183657,-1.56218,0.00106106,0.0234939,1931,981,7.21065,-1.06558
714,43,7.17712,1.14178,-0.00202319,-0.000435403,0.00013707,-0.000423657,-0.00203494,1.48531,0.00123978,0.0221839,1938,981,7.17711,-1.14179
721,43,7.0968,1.15277,-0.00205668,-0.000117565,0.000221173,-9.26582e-05,-0.00208158,1.45866,0.00135789,0.0196199,1945,981,7.09681,-1.1528
728,43,7.06641,1.15955,-0.00231893,0.000200749,0.000232985,0.000222111,-0.00234029,1.47936,0.00163925,0.0154758,1952,981,7.06637,-1.15952
735,43,7.06445,1.20178,-0.00290276,0.000334616,0.000232945,0.000351292,-0.00291944,1.49933,0.00207333,0.0128165,1959,981,7.06449,-1.2018
742,43,7.05884,1.21594,-0.00363595,0.000763815,0.000108209,0.000766474,-0.00363861,1.54622,0.00271751,0.015296,1966,981,7.05888,-1.21592
749,43,7.04382,1.24274,-0.00473933,0.000529727,0.000289694,0.000545607,-0.00475521,1.51604,0.00336678,0.0169311,1973,981,7.04383,-1.24276
756,43,7.05859,1.25909,-0.00600039,-1.59224e-05,0.000774499,8.2687e-05,-0.006099,1.44416,0.00409384,0.0145807,1980,981,7.05861,-1.25911
763,43,7.06482,1.26428,-0.00739976,9.26711e-05,0.00129521,0.000310254,-0.00761734,1.40436,0.00518474,0.0161885,1987,981,7.06478,-1.26427
770,43,7.05627,1.26825,-0.00946061,-0.000241203,0.00222349,0.000267029,-0.00996884,1.34608,0.00673667,0.0143415,1994,981,7.05627,-1.26822
777,43,7.0437,1.26697,-0.0120731,-0.000818916,0.00358682,0.000227025,-0.0131191,1.28706,0.0088227,0.0193776,2001,981,7.04368,-1.26694
784,43,6.93884,1.28503,-0.0151445,-0.00173132,0.00555232,0.000268786,-0.0171446,1.22504,0.0115204,0.0410657,2008,981,6.93881,-1.28505
791,43,6.86707,1.3009,0,0,0,0,0,0,0,-1,2015,981,6.86704,-1.30089
798,43,7.33215,0.773682,-0.0218456,-0.00477319,0.0120392,0.00144897,-0.0280678,1.09378,0.0192131,0.0427461,2022,981,7.33209,-0.773702
805,43,7.0791,0.989258,-0.0251209,-0.00694541,0.0169363,0.00318732,-0.0352537,1.03164,0.0246337,0.0454895,2029,981,7.07914,-0.989237
812,43,6.57446,1.10571,0,0,0,0,0,0,0,-1,2036,981,6.57443,-1.1057
-700,36,0,0,0,0,0,0,0,0,0,-1,524,988,0,0
-693,36,-0.210449,-0.809265,-0.0896818,0.01538,0.000182921,0.0153803,-0.0896821,1.56906,0.0655194,0.0434729,531,988,-0.21045,0.809267
-686,36,-0.913025,-1.21942,-0.0715854,0.0127744,0.00491304,0.0130596,-0.0718706,1.51282,0.052808,0.0457122,538,988,-0.913026,1.21944
-679,36,-1.44086,-1.82623,0,0,0,0,0,0,0,-1,545,988,-1.44086,1.82621
-672,36,-1.77362,-1.56317,0,0,0,0,0,0,0,-1,552,988,-1.77361,1.5632
-665,36,-2.0036,-0.0894165,0,0,0,0,0,0,0,-1,559,988,-2.00363,0.0893873
-658,36,-2.12311,0.727051,0,0,0,0,0,0,0,-1,566,988,-2.12311,-0.727031
-651,36,-2.41571,0.829224,-0.0199882,0.00195405,0.0069057,0.0039465,-0.0219807,1.2899,0.016131,0.0340308,573,988,-2.41574,-0.829227
-644,36,-2.70331,0.9104,-0.01472,0.000963381,0.00572673,0.00283187,-0.0165885,1.25541,0.0121138,0.0177588,580,988,-2.7033,-0.910429
-637,36,-2.72119,0.902649,-0.0092201,0.000627633,0.00508036,0.00277869,-0.0113712,1.17028,0.00865695,0.0125796,587,988,-2.7212,-0.902656
-630,36,-2.68439,0.889832,-0.00599069,5.58406e-05,0.0038265,0.00190928,-0.00784413,1.11973,0.00596853,0.0117791,594,988,-2.68438,-0.889841
-623,36,-2.71014,0.854675,-0.00464637,-0.00103823,0.00246773,0.000214553,-0.00589915,1.10103,0.0040062,0.0113531,601,988,-2.71016,-0.854686
-616,36,-2.70667,0.83429,-0.00340462,-0.000583501,0.00144471,2.50665e-05,-0.00401319,1.17212,0.00268385,0.010066,608,988,-2.70667,-0.83426
-609,36,-2.69336,0.836304,-0.00257202,-0.000323049,0.000842993,-4.21503e-05,-0.00285292,1.24915,0.00188805,0.0149447,615,988,-2.69335,-0.836326
-602,36,-2.71277,0.825806,-0.0021016,0.000115946,0.000493882,0.000220967,-0.00220663,1.36127,0.00155,0.019157,622,988,-2.71278,-0.825805
-595,36,-2.70544,0.764282,-0.00168416,0.000228091,-3.22316e-05,0.000228634,-0.00168471,-1.55395,0.00120659,0.0202474,629,988,-2.70545,-0.764278
-588,36,-2.70587,0.780273,-0.00166036,0.000290648,-0.000230386,0.000317484,-0.00168719,-1.45484,0.0012442,0.0186416,636,988,-2.70588,-0.780294
-581,36,-2.74689,0.790527,-0.00172206,0.000377294,-0.000358142,0.00043671,-0.00178147,-1.40639,0.00135685,0.0237519,643,988,-2.7469,-0.790499
-574,36,-2.78589,0.774658,-0.00152066,0.000559616,-0.000602909,0.00072172,-0.00168277,-1.30814,0.00142471,0.0293599,650,988,-2.78586,-0.77467
-567,36,-2.79572,0.612976,-0.00141479,0.000831835,-0.000878551,0.0011346,-0.00171755,-1.23893,0.00165811,0.0345224,657,988,-2.79574,-0.612996
-560,36,-2.78625,0.51123,-0.00119469,0.00116322,-0.00121602,0.00167797,-0.00170944,-1.17036,0.00195575,0.0369953,664,988,-2.78627,-0.511204
-553,36,-2.78809,0.773743,-0.000785866,0.00159487,-0.00163337,0.00242561,-0.0016166,-1.10029,0.0023493,0.0402993,671,988,-2.78806,-0.773745
-546,36,-2.79608,0.719604,-0.000129783,0.0021337,-0.00214489,0.00342712,-0.0014232,-1.02816,0.0028789,0.0433936,678,988,-2.79607,-0.719594
-539,36,-2.8999,0.565247,0.00088086,0.00279205,-0.00273883,0.0047372,-0.00106429,-0.953248,0.00356623,0.0430804,685,988,-2.89988,-0.565267
-532,36,-2.8924,0.479492,0.00228033,0.00359783,-0.00334789,0.00635116,-0.000473004,-0.88254,0.00440026,0.0463728,692,988,-2.89237,-0.479492
-525,36,-2.85492,0.36145,0.00404138,0.0045847,-0.00393401,0.00825641,0.000369662,-0.819871,0.00538528,0.0485957,699,988,-2.8549,-0.361424
-518,36,0,0,0,0,0,0,0,0,0,-1,706,988,0,0
-511,36,0,0,0,0,0,0,0,0,0,-1,713,988,0,0
-504,36,0,0,0,0,0,0,0,0,0,-1,720,988,0,0
-497,36,0,0,0,0,0,0,0,0,0,-1,727,988,0,0
-490,36,0,0,0,0,0,0,0,0,0,-1,734,988,0,0
-483,36,0,0,0,0,0,0,0,0,0,-1,741,988,0,0
-476,36,0,0,0,0,0,0,0,0,0,-1,748,988,0,0
-469,36,0,0,0,0,0,0,0,0,0,-1,755,988,0,0
-462,36,0,0,0,0,0,0,0,0,0,-1,762,988,0,0
-455,36,0,0,0,0,0,0,0,0,0,-1,769,988,0,0
-448,36,0,0,0,0,0,0,0,0,0,-1,776,988,0,0
-441,36,0,0,0,0,0,0,0,0,0,-1,783,988,0,0
-434,36,0,0,0,0,0,0,0,0,0,-1,790,988,0,0
-427,36,0,0,0,0,0,0,0,0,0,-1,797,988,0,0
-420,36,0,0,0,0,0,0,0,0,0,-1,804,988,0,0
-413,36,0,0,0,0,0,0,0,0,0,-1,811,988,0,0
-406,36,0,0,0,0,0,0,0,0,0,-1,818,988,0,0
-399,36,0,0,0,0,0,0,0,0,0,-1,825,988,0,0
-392,36,0,0,0,0,0,0,0,0,0,-1,832,988,0,0
-385,36,0,0,0,0,0,0,0,0,0,-1,839,988,0,0
-378,36,0,0,0,0,0,0,0,0,0,-1,846,988,0,0
-371,36,0,0,0,0,0,0,0,0,0,-1,853,988,0,0
-364,36,0,0,0,0,0,0,0,0,0,-1,860,988,0,0
-357,36,0,0,0,0,0,0,0,0,0,-1,867,988,0,0
-350,36,0,0,0,0,0,0,0,0,0,-1,874,988,0,0
-343,36,0,0,0,0,0,0,0,0,0,-1,881,988,0,0
-336,36,0,0,0,0,0,0,0,0,0,-1,888,988,0,0
-329,36,0,0,0,0,0,0,0,0,0,-1,895,988,0,0
-322,36,0,0,0,0,0,0,0,0,0,-1,902,988,0,0
-315,36,0,0,0,0,0,0,0,0,0,-1,909,988,0,0
-308,36,0,0,0,0,0,0,0,0,0,-1,916,988,0,0
-301,36,0,0,0,0,0,0,0,0,0,-1,923,988,0,0
-294,36,0,0,0,0,0,0,0,0,0,-1,930,988,0,0
-287,36,0,0,0,0,0,0,0,0,0,-1,937,988,0,0
-280,36,0,0,0,0,0,0,0,0,0,-1,944,988,0,0
-273,36,0,0,0,0,0,0,0,0,0,-1,951,988,0,0
-266,36,0,0,0,0,0,0,0,0,0,-1,958,988,0,0
-259,36,0,0,0,0,0,0,0,0,0,-1,965,988,0,0
-252,36,0,0,0,0,0,0,0,0,0,-1,972,988,0,0
-245,36,0,0,0,0,0,0,0,0,0,-1,979,988,0,0
-238,36,0,0,0,0,0,0,0,0,0,-1,986,988,0,0
-231,36,0,0,0,0,0,0,0,0,0,-1,993,988,0,0
-224,36,0,0,0,0,0,0,0,0,0,-1,1000,988,0,0
-217,36,0,0,0,0,0,0,0,0,0,-1,1007,988,0,0
-210,36,0,0,0,0,0,0,0,0,0,-1,1014,988,0,0
-203,36,0,0,0,0,0,0,0,0,0,-1,1021,988,0,0
-196,36,0,0,0,0,0,0,0,0,0,-1,1028,988,0,0
-189,36,0,0,0,0,0,0,0,0,0,-1,1035,988,0,0
-182,36,0,0,0,0,0,0,0,0,0,-1,1042,988,0,0
-175,36,0,0,0,0,0,0,0,0,0,-1,1049,988,0,0
-168,36,0,0,0,0,0,0,0,0,0,-1,1056,988,0,0
-161,36,0,0,0,0,0,0,0,0,0,-1,1063,988,0,0
-154,36,0,0,0,0,0,0,0,0,0,-1,1070,988,0,0
-147,36,0,0,0,0,0,0,0,0,0,-1,1077,988,0,0
-140,36,0,0,0,0,0,0,0,0,0,-1,1084,988,0,0
-133,36,0,0,0,0,0,0,0,0,0,-1,1091,988,0,0
-126,36,0,0,0,0,0,0,0,0,0,-1,1098,988,0,0
-119,36,0,0,0,0,0,0,0,0,0,-1,1105,988,0,0
-112,36,0,0,0,0,0,0,0,0,0,-1,1112,988,0,0
-105,36,0,0,0,0,0,0,0,0,0,-1,1119,988,0,0
-98,36,0,0,0,0,0,0,0,0,0,-1,1126,988,0,0
-91,36,0,0,0,0,0,0,0,0,0,-1,1133,988,0,0
-84,36,0,0,0,0,0,0,0,0,0,-1,1140,988,0,0
-77,36,0,0,0,0,0,0,0,0,0,-1,1147,988,0,0
-70,36,0,0,0,0,0,0,0,0,0,-1,1154,988,0,0
-63,36,0,0,0,0,0,0,0,0,0,-1,1161,988,0,0
-56,36,0,0,0,0,0,0,0,0,0,-1,1168,988,0,0
-49,36,0,0,0,0,0,0,0,0,0,-1,1175,988,0,0
-42,36,0,0,0,0,0,0,0,0,0,-1,1182,988,0,0
-35,36,0,0,0,0,0,0,0,0,0,-1,1189,988,0,0
-28,36,0,0,0,0,0,0,0,0,0,-1,1196,988,0,0
-21,36,0,0,0,0,0,0,0,0,0,-1,1203,988,0,0
-14,36,0,0,0,0,0,0,0,0,0,-1,1210,988,0,0
-7,36,0,0,0,0,0,0,0,0,0,-1,1217,988,0,0
0,36,0,0,0,0,0,0,0,0,0,-1,1224,988,0,0
7,36,0,0,0,0,0,0,0,0,0,-1,1231,988,0,0
14,36,0,0,0,0,0,0,0,0,0,-1,1238,988,0,0
21,36,0,0,0,0,0,0,0,0,0,-1,1245,988,0,0
28,36,0,0,0,0,0,0,0,0,0,-1,1252,988,0,0
35,36,0,0,0,0,0,0,0,0,0,-1,1259,988,0,0
42,36,0,0,0,0,0,0,0,0,0,-1,1266,988,0,0
49,36,0,0,0,0,0,0,0,0,0,-1,1273,988,0,0
56,36,0,0,0,0,0,0,0,0,0,-1,1280,988,0,0
63,36,0,0,0,0,0,0,0,0,0,-1,1287,988,0,0
70,36,0,0,0,0,0,0,0,0,0,-1,1294,988,0,0
77,36,0,0,0,0,0,0,0,0,0,-1,1301,988,0,0
84,36,0,0,0,0,0,0,0,0,0,-1,1308,988,0,0
91,36,0,0,0,0,0,0,0,0,0,-1,1315,988,0,0
98,36,0,0,0,0,0,0,0,0,0,-1,1322,988,0,0
105,36,0,0,0,0,0,0,0,0,0,-1,1329,988,0,0
112,36,0,0,0,0,0,0,0,0,0,-1,1336,988,0,0
119,36,0,0,0,0,0,0,0,0,0,-1,1343,988,0,0
126,36,0,0,0,0,0,0,0,0,0,-1,1350,988,0,0
133,36,0,0,0,0,0,0,0,0,0,-1,1357,988,0,0
140,36,0,0,0,0,0,0,0,0,0,-1,1364,988,0,0
147,36,0,0,0,0,0,0,0,0,0,-1,1371,988,0,0
154,36,0,0,0,0,0,0,0,0,0,-1,1378,988,0,0
161,36,0,0,0,0,0,0,0,0,0,-1,1385,988,0,0
168,36,0,0,0,0,0,0,0,0,0,-1,1392,988,0,0
175,36,0,0,0,0,0,0,0,0,0,-1,1399,988,0,0
182,36,0,0,0,0,0,0,0,0,0,-1,1406,988,0,0
189,36,0,0,0,0,0,0,0,0,0,-1,1413,988,0,0
196,36,0,0,0,0,0,0,0,0,0,-1,1420,988,0,0
203,36,0,0,0,0,0,0,0,0,0,-1,1427,988,0,0
210,36,0,0,0,0,0,0,0,0,0,-1,1434,988,0,0
217,36,0,0,0,0,0,0,0,0,0,-1,1441,988,0,0
224,36,0,0,0,0,0,0,0,0,0,-1,1448,988,0,0
231,36,0,0,0,0,0,0,0,0,0,-1,1455,988,0,0
238,36,0,0,0,0,0,0,0,0,0,-1,1462,988,0,0
245,36,0,0,0,0,0,0,0,0,0,-1,1469,988,0,0
252,36,0,0,0,0,0,0,0,0,0,-1,1476,988,0,0
259,36,0,0,0,0,0,0,0,0,0,-1,1483,988,0,0
266,36,0,0,0,0,0,0,0,0,0,-1,1490,988,0,0
273,36,0,0,0,0,0,0,0,0,0,-1,1497,988,0,0
280,36,0,0,0,0,0,0,0,0,0,-1,1504,988,0,0
287,36,0,0,0,0,0,0,0,0,0,-1,1511,988,0,0
294,36,0,0,0,0,0,0,0,0,0,-1,1518,988,0,0
301,36,0,0,0,0,0,0,0,0,0,-1,1525,988,0,0
308,36,0,0,0,0,0,0,0,0,0,-1,1532,988,0,0
315,36,0,0,0,0,0,0,0,0,0,-1,1539,988,0,0
322,36,0,0,0,0,0,0,0,0,0,-1,1546,988,0,0
329,36,0,0,0,0,0,0,0,0,0,-1,1553,988,0,0
336,36,0,0,0,0,0,0,0,0,0,-1,1560,988,0,0
343,36,0,0,0,0,0,0,0,0,0,-1,1567,988,0,0
350,36,0,0,0,0,0,0,0,0,0,-1,1574,988,0,0
357,36,0,0,0,0,0,0,0,0,0,-1,1581,988,0,0
364,36,0,0,0,0,0,0,0,0,0,-1,1588,988,0,0
371,36,0,0,0,0,0,0,0,0,0,-1,1595,988,0,0
378,36,0,0,0,0,0,0,0,0,0,-1,1602,988,0,0
385,36,0,0,0,0,0,0,0,0,0,-1,1609,988,0,0
392,36,0,0,0,0,0,0,0,0,0,-1,1616,988,0,0
399,36,0,0,0,0,0,0,0,0,0,-1,1623,988,0,0
406,36,0,0,0,0,0,0,0,0,0,-1,1630,988,0,0
413,36,0,0,0,0,0,0,0,0,0,-1,1637,988,0,0
420,36,0,0,0,0,0,0,0,0,0,-1,1644,988,0,0
427,36,0,0,0,0,0,0,0,0,0,-1,1651,988,0,0
434,36,0,0,0,0,0,0,0,0,0,-1,1658,988,0,0
441,36,0,0,0,0,0,0,0,0,0,-1,1665,988,0,0
448,36,0,0,0,0,0,0,0,0,0,-1,1672,988,0,0
455,36,0,0,0,0,0,0,0,0,0,-1,1679,988,0,0
462,36,0,0,0,0,0,0,0,0,0,-1,1686,988,0,0
469,36,0,0,0,0,0,0,0,0,0,-1,1693,988,0,0
476,36,0,0,0,0,0,0,0,0,0,-1,1700,988,0,0
483,36,0,0,0,0,0,0,0,0,0,-1,1707,988,0,0
490,36,0,0,0,0,0,0,0,0,0,-1,1714,988,0,0
497,36,0,0,0,0,0,0,0,0,0,-1,1721,988,0,0
504,36,0,0,0,0,0,0,0,0,0,-1,1728,988,0,0
511,36,0,0,0,0,0,0,0,0,0,-1,1735,988,0,0
518,36,0,0,0,0,0,0,0,0,0,-1,1742,988,0,0
525,36,0,0,0,0,0,0,0,0,0,-1,1749,988,0,0
532,36,0,0,0,0,0,0,0,0,0,-1,1756,988,0,0
539,36,0,0,0,0,0,0,0,0,0,-1,1763,988,0,0
546,36,0,0,0,0,0,0,0,0,0,-1,1770,988,0,0
553,36,0,0,0,0,0,0,0,0,0,-1,1777,988,0,0
560,36,0,0,0,0,0,0,0,0,0,-1,1784,988,0,0
567,36,0,0,0,0,0,0,0,0,0,-1,1791,988,0,0
574,36,0,0,0,0,0,0,0,0,0,-1,1798,988,0,0
581,36,0,0,0,0,0,0,0,0,0,-1,1805,988,0,0
588,36,0,0,0,0,0,0,0,0,0,-1,1812,988,0,0
595,36,0,0,0,0,0,0,0,0,0,-1,1819,988,0,0
602,36,0,0,0,0,0,0,0,0,0,-1,1826,988,0,0
609,36,0,0,0,0,0,0,0,0,0,-1,1833,988,0,0
616,36,0,0,0,0,0,0,0,0,0,-1,1840,988,0,0
623,36,0,0,0,0,0,0,0,0,0,-1,1847,988,0,0
630,36,0,0,0,0,0,0,0,0,0,-1,1854,988,0,0
637,36,0,0,0,0,0,0,0,0,0,-1,1861,988,0,0
644,36,7.20837,1.07709,8.7748e-05,-0.00955507,0.00119211,0.000232938,-0.00970026,0.121196,0.00654587,0.042782,1868,988,7.20842,-1.07709
651,36,7.09778,1.06696,0.000230265,-0.00848057,-2.80724e-05,0.000230355,-0.00848066,-0.00322265,0.0057321,0.0398322,1875,988,7.09772,-1.06696
658,36,7.19946,1.29962,0.000351692,-0.00729495,-0.000588938,0.000396786,-0.00734004,-0.0764185,0.00503084,0.0395446,1882,988,7.19943,-1.29961
665,36,7.28638,1.28516,0.000250389,-0.00604914,-0.000764614,0.000341867,-0.00614062,-0.119073,0.00421233,0.0376548,1889,988,7.28639,-1.28516
672,36,7.26331,1.1806,-3.82154e-05,-0.00484619,-0.000779271,8.49338e-05,-0.00496934,-0.156735,0.00334156,0.0394335,1896,988,7.26331,-1.18059
679,36,7.21655,1.12354,-0.000413486,-0.00374762,-0.000652245,-0.000290431,-0.00387068,-0.186471,0.0024893,0.0407707,1903,988,7.21654,-1.12353
686,36,7.15125,1.19348,-0.000768324,-0.00278411,-0.000452455,-0.000671426,-0.00288101,-0.210974,0.00174058,0.0374434,1910,988,7.15129,-1.1935
693,36,7.2002,1.17572,-0.00108637,-0.00200471,-0.000233241,-0.00103053,-0.00206055,-0.234998,0.00118966,0.0399714,1917,988,7.20017,-1.17571
700,36,7.29797,1.06091,-0.00134909,-0.00136419,-9.03678e-05,-0.00126596,-0.00144732,-0.743713,0.000910469,0.0349553,1924,988,7.29803,-1.06091
707,36,7.22351,1.08246,-0.00164842,-0.000668711,3.74945e-05,-0.000667279,-0.00164985,1.5326,0.000958321,0.0230373,1931,988,7.22349,-1.08247
714,36,7.19202,1.1236,-0.00182492,-0.000250003,0.000198695,-0.000225322,-0.0018496,1.44721,0.00116524,0.0213063,1938,988,7.192,-1.12362
721,36,7.12683,1.14569,-0.00185046,3.11893e-05,0.00029983,7.78104e-05,-0.00189708,1.41654,0.00129144,0.0233626,1945,988,7.12683,-1.14566
728,36,7.09497,1.17822,-0.00210726,0.000293439,0.000328696,0.000337629,-0.00215145,1.43716,0.00155908,0.0159684,1952,988,7.09497,-1.17825
735,36,7.07874,1.2179,-0.00269091,0.000392291,0.000300972,0.000421396,-0.00272001,1.47439,0.0019689,0.0153183,1959,988,7.07874,-1.21792
742,36,7.0907,1.21906,-0.00342918,0.000778434,9.49261e-05,0.000780575,-0.00343132,1.54825,0.00258729,0.0137595,1966,988,7.09067,-1.21907
749,36,7.07751,1.24011,-0.00451892,0.000458435,0.000168606,0.00046414,-0.00452462,1.53697,0.00318243,0.0153932,1973,988,7.07756,-1.24009
756,36,7.05188,1.25146,-0.00569349,-0.000115466,0.000516664,-6.8014e-05,-0.00574094,1.47921,0.00380482,0.0132637,1980,988,7.05184,-1.25145
763,36,7.07031,1.26221,-0.00685765,7.19601e-05,0.000871216,0.000179814,-0.0069655,1.44763,0.00470475,0.0150502,1987,988,7.07032,-1.2622
770,36,7.07874,1.258,-0.00864531,-0.000236706,0.00156582,4.54094e-05,-0.00892742,1.39254,0.00596681,0.0131144,1994,988,7.07875,-1.25802
777,36,7.05542,1.26959,-0.0108659,-0.000714998,0.00264476,-6.72503e-05,-0.0115136,1.33061,0.00765342,0.0205547,2001,988,7.0554,-1.26961
784,36,6.66345,0.994812,-0.0134486,-0.00143293,0.00424966,-8.18446e-05,-0.0147997,1.26297,0.00983929,0.0407705,2008,988,6.66351,-0.994821
791,36,7.21655,1.03815,0,0,0,0,0,0,0,-1,2015,988,7.21652,-1.03813
798,36,7.0127,1.1131,-0.0188677,-0.00363857,0.00977895,0.00114078,-0.0236471,1.1162,0.0161584,0.0392476,2022,988,7.01269,-1.1131
805,36,6.53552,1.40112,-0.0213164,-0.00504187,0.0140722,0.00307637,-0.0294347,1.04754,0.0207248,0.0435727,2029,988,6.53548,-1.4011
812,36,5.96936,1.90869,-0.0231521,-0.00643898,0.0197038,0.00660706,-0.0361981,0.985956,0.0266093,0.0492791,2036,988,5.96942,-1.90869
-700,29,0,0,0,0,0,0,0,0,0,-1,524,995,0,0
-693,29,-1.0636,-0.0509644,-0.104152,0.00919624,0.00466169,0.00938765,-0.104343,1.52976,0.0728932,0.0433307,531,995,-1.06358,0.0509516
-686,29,-1.58356,-0.437073,-0.0839486,0.00816657,0.00797207,0.00885142,-0.0846334,1.4851,0.0595923,0.0450793,538,995,-1.58357,0.437055
-679,29,-1.89612,-0.640076,0,0,0,0,0,0,0,-1,545,995,-1.89611,0.640078
-672,29,-2.07251,-0.43103,-0.0527564,0.00508345,0.00964474,0.00664931,-0.0543223,1.40985,0.0386225,0.0411721,552,995,-2.07248,0.431026
-665,29,-2.20563,0.176331,-0.0408558,0.00357576,0.00916892,0.0053935,-0.0426736,1.37508,0.0304067,0.0445002,559,995,-2.20564,-0.176312
-658,29,-2.15747,0.878113,0,0,0,0,0,0,0,-1,566,995,-2.15746,-0.878102
-651,29,-2.4292,0.893616,-0.0230421,0.00128549,0.00697842,0.00314512,-0.0249017,1.31037,0.0177427,0.0353583,573,995,-2.42918,-0.893644
-644,29,-2.68414,0.918945,-0.0167083,0.000580808,0.00563627,0.00225594,-0.0183834,1.28191,0.0130726,0.0170523,580,995,-2.68413,-0.918971
-637,29,-2.70673,0.872864,-0.0104597,0.000436398,0.00482012,0.00226261,-0.0122859,1.20863,0.00903967,0.01176,587,995,-2.70672,-0.872852
-630,29,-2.69812,0.876831,-0.00648205,6.88467e-05,0.00353495,0.00161257,-0.00802577,1.15905,0.00596119,0.0105336,594,995,-2.69812,-0.87683
-623,29,-2.70093,0.876038,-0.00460378,-0.000905651,0.00212738,6.39316e-05,-0.00557336,1.14316,0.00373706,0.0100856,601,995,-2.70093,-0.876063
-616,29,-2.7157,0.850037,-0.00321856,-0.00054823,0.00118067,-0.000101078,-0.00366572,1.20876,0.00241082,0.0130988,608,995,-2.71572,-0.850027
-609,29,-2.70154,0.849854,-0.00227579,-0.000244154,0.000631049,-6.41004e-05,-0.00245584,1.29286,0.00161628,0.0202338,615,995,-2.70152,-0.849831
-602,29,-2.70612,0.818542,-0.00180556,0.000165645,0.000283835,0.000205701,-0.00184562,1.4306,0.0013044,0.0217013,622,995,-2.70609,-0.818571
-595,29,-2.69177,0.765381,-0.00146229,0.000251158,-0.000201538,0.000274544,-0.00148568,-1.45528,0.00109351,0.0198887,629,995,-2.69179,-0.765352
-588,29,-2.71582,0.752563,-0.00147424,0.000318713,-0.000362364,0.000389178,-0.00154471,-1.37873,0.0011811,0.0222984,636,995,-2.71584,-0.752589
-581,29,-2.74628,0.729492,-0.00156339,0.000384318,-0.000441933,0.000479901,-0.00165898,-1.35779,0.00129592,0.0349889,643,995,-2.74625,-0.729494
-574,29,-2.75909,0.744385,-0.00142787,0.000535717,-0.000630456,0.000720711,-0.00161286,-1.28538,0.00137972,0.0341019,650,995,-2.7591,-0.744388
-567,29,-2.79889,0.665833,-0.00140692,0.000743283,-0.000818438,0.00101936,-0.001683,-1.24546,0.00157581,0.0343143,657,995,-2.79888,-0.665809
-560,29,-2.88318,0.681396,-0.00131065,0.000988527,-0.00103795,0.00138778,-0.0017099,-1.20359,0.00179167,0.0353356,664,995,-2.88318,-0.681407
-553,29,-2.82648,0.974915,-0.0010797,0.0012831,-0.00129604,0.00185539,-0.00165199,-1.15498,0.00202612,0.0395808,671,995,-2.82646,-0.974906
-546,29,-2.65247,0.668396,-0.000669797,0.00161558,-0.00159951,0.00243864,-0.00149286,-1.09556,0.00229164,0.0416018,678,995,-2.65248,-0.668422
-539,29,-2.73029,0.495422,1.90678e-05,0.00197305,-0.00193249,0.00316147,-0.00116936,-1.01944,0.00258708,0.0398896,685,995,-2.73029,-0.495431
-532,29,-2.7774,0.546387,0.00101557,0.00236217,-0.0022177,0.00400652,-0.000628793,-0.932777,0.0029034,0.0454573,692,995,-2.7774,-0.546372
-525,29,-2.71149,0.460632,0.00229302,0.00279694,-0.00239468,0.00495288,0.000137083,-0.837813,0.00325719,0.049185,699,995,-2.71147,-0.460662
-518,29,0,0,0,0,0,0,0,0,0,-1,706,995,0,0
-511,29,0,0,0,0,0,0,0,0,0,-1,713,995,0,0
-504,29,0,0,0,0,0,0,0,0,0,-1,720,995,0,0
-497,29,0,0,0,0,0,0,0,0,0,-1,727,995,0,0
-490,29,0,0,0,0,0,0,0,0,0,-1,734,995,0,0
-483,29,0,0,0,0,0,0,0,0,0,-1,741,995,0,0
-476,29,0,0,0,0,0,0,0,0,0,-1,748,995,0,0
-469,29,0,0,0,0,0,0,0,0,0,-1,755,995,0,0
-462,29,0,0,0,0,0,0,0,0,0,-1,762,995,0,0
-455,29,0,0,0,0,0,0,0,0,0,-1,769,995,0,0
-448,29,0,0,0,0,0,0,0,0,0,-1,776,995,0,0
-441,29,0,0,0,0,0,0,0,0,0,-1,783,995,0,0
-434,29,0,0,0,0,0,0,0,0,0,-1,790,995,0,0
-427,29,0,0,0,0,0,0,0,0,0,-1,797,995,0,0
-420,29,0,0,0,0,0,0,0,0,0,-1,804,995,0,0
-413,29,0,0,0,0,0,0,0,0,0,-1,811,995,0,0
-406,29,0,0,0,0,0,0,0,0,0,-1,818,995,0,0
-399,29,0,0,0,0,0,0,0,0,0,-1,825,995,0,0
-392,29,0,0,0,0,0,0,0,0,0,-1,832,995,0,0
-385,29,0,0,0,0,0,0,0,0,0,-1,839,995,0,0
-378,29,0,0,0,0,0,0,0,0,0,-1,846,995,0,0
-371,29,0,0,0,0,0,0,0,0,0,-1,853,995,0,0
-364,29,0,0,0,0,0,0,0,0,0,-1,860,995,0,0
-357,29,0,0,0,0,0,0,0,0,0,-1,867,995,0,0
-350,29,0,0,0,0,0,0,0,0,0,-1,874,995,0,0
-343,29,0,0,0,0,0,0,0,0,0,-1,881,995,0,0
-336,29,0,0,0,0,0,0,0,0,0,-1,888,995,0,0
-329,29,0,0,0,0,0,0,0,0,0,-1,895,995,0,0
-322,29,0,0,0,0,0,0,0,0,0,-1,902,995,0,0
-315,29,0,0,0,0,0,0,0,0,0,-1,909,995,0,0
-308,29,0,0,0,0,0,0,0,0,0,-1,916,995,0,0
-301,29,0,0,0,0,0,0,0,0,0,-1,923,995,0,0
-294,29,0,0,0,0,0,0,0,0,0,-1,930,995,0,0
-287,29,0,0,0,0,0,0,0,0,0,-1,937,995,0,0
-280,29,0,0,0,0,0,0,0,0,0,-1,944,995,0,0
-273,29,0,0,0,0,0,0,0,0,0,-1,951,995,0,0
-266,29,0,0,0,0,0,0,0,0,0,-1,958,995,0,0
-259,29,0,0,0,0,0,0,0,0,0,-1,965,995,0,0
-252,29,0,0,0,0,0,0,0,0,0,-1,972,995,0,0
-245,29,0,0,0,0,0,0,0,0,0,-1,979,995,0,0
-238,29,0,0,0,0,0,0,0,0,0,-1,986,995,0,0
-231,29,0,0,0,0,0,0,0,0,0,-1,993,995,0,0
-224,29,0,0,0,0,0,0,0,0,0,-1,1000,995,0,0
-217,29,0,0,0,0,0,0,0,0,0,-1,1007,995,0,0
-210,29,0,0,0,0,0,0,0,0,0,-1,1014,995,0,0
-203,29,0,0,0,0,0,0,0,0,0,-1,1021,995,0,0
-196,29,0,0,0,0,0,0,0,0,0,-1,1028,995,0,0
-189,29,0,0,0,0,0,0,0,0,0,-1,1035,995,0,0
-182,29,0,0,0,0,0,0,0,0,0,-1,1042,995,0,0
-175,29,0,0,0,0,0,0,0,0,0,-1,1049,995,0,0
-168,29,0,0,0,0,0,0,0,0,0,-1,1056,995,0,0
-161,29,0,0,0,0,0,0,0,0,0,-1,1063,995,0,0
-154,29,0,0,0,0,0,0,0,0,0,-1,1070,995,0,0
-147,29,0,0,0,0,0,0,0,0,0,-1,1077,995,0,0
-140,29,0,0,0,0,0,0,0,0,0,-1,1084,995,0,0
-133,29,0,0,0,0,0,0,0,0,0,-1,1091,995,0,0
-126,29,0,0,0,0,0,0,0,0,0,-1,1098,995,0,0
-119,29,0,0,0,0,0,0,0,0,0,-1,1105,995,0,0
-112,29,0,0,0,0,0,0,0,0,0,-1,1112,995,0,0
-105,29,0,0,0,0,0,0,0,0,0,-1,1119,995,0,0
-98,29,0,0,0,0,0,0,0,0,0,-1,1126,995,0,0
-91,29,0,0,0,0,0,0,0,0,0,-1,1133,995,0,0
-84,29,0,0,0,0,0,0,0,0,0,-1,1140,995,0,0
-77,29,0,0,0,0,0,0,0,0,0,-1,1147,995,0,0
-70,29,0,0,0,0,0,0,0,0,0,-1,1154,995,0,0
-63,29,0,0,0,0,0,0,0,0,0,-1,1161,995,0,0
-56,29,0,0,0,0,0,0,0,0,0,-1,1168,995,0,0
-49,29,0,0,0,0,0,0,0,0,0,-1,1175,995,0,0
-42,29,0,0,0,0,0,0,0,0,0,-1,1182,995,0,0
-35,29,0,0,0,0,0,0,0,0,0,-1,1189,995,0,0
-28,29,0,0,0,0,0,0,0,0,0,-1,1196,995,0,0
-21,29,0,0,0,0,0,0,0,0,0,-1,1203,995,0,0
-14,29,0,0,0,0,0,0,0,0,0,-1,1210,995,0,0
-7,29,0,0,0,0,0,0,0,0,0,-1,1217,995,0,0
0,29,0,0,0,0,0,0,0,0,0,-1,1224,995,0,0
7,29,0,0,0,0,0,0,0,0,0,-1,1231,995,0,0
14,29,0,0,0,0,0,0,0,0,0,-1,1238,995,0,0
21,29,0,0,0,0,0,0,0,0,0,-1,1245,995,0,0
28,29,0,0,0,0,0,0,0,0,0,-1,1252,995,0,0
35,29,0,0,0,0,0,0,0,0,0,-1,1259,995,0,0
42,29,0,0,0,0,0,0,0,0,0,-1,1266,995,0,0
49,29,0,0,0,0,0,0,0,0,0,-1,1273,995,0,0
56,29,0,0,0,0,0,0,0,0,0,-1,1280,995,0,0
63,29,0,0,0,0,0,0,0,0,0,-1,1287,995,0,0
70,29,0,0,0,0,0,0,0,0,0,-1,1294,995,0,0
77,29,0,0,0,0,0,0,0,0,0,-1,1301,995,0,0
84,29,0,0,0,0,0,0,0,0,0,-1,1308,995,0,0
91,29,0,0,0,0,0,0,0,0,0,-1,1315,995,0,0
98,29,0,0,0,0,0,0,0,0,0,-1,1322,995,0,0
105,29,0,0,0,0,0,0,0,0,0,-1,1329,995,0,0
112,29,0,0,0,0,0,0,0,0,0,-1,1336,995,0,0
119,29,0,0,0,0,0,0,0,0,0,-1,1343,995,0,0
126,29,0,0,0,0,0,0,0,0,0,-1,1350,995,0,0
133,29,0,0,0,0,0,0,0,0,0,-1,1357,995,0,0
140,29,0,0,0,0,0,0,0,0,0,-1,1364,995,0,0
147,29,0,0,0,0,0,0,0,0,0,-1,1371,995,0,0
154,29,0,0,0,0,0,0,0,0,0,-1,1378,995,0,0
161,29,0,0,0,0,0,0,0,0,0,-1,1385,995,0,0
168,29,0,0,0,0,0,0,0,0,0,-1,1392,995,0,0
175,29,0,0,0,0,0,0,0,0,0,-1,1399,995,0,0
182,29,0,0,0,0,0,0,0,0,0,-1,1406,995,0,0
189,29,0,0,0,0,0,0,0,0,0,-1,1413,995,0,0
196,29,0,0,0,0,0,0,0,0,0,-1,1420,995,0,0
203,29,0,0,0,0,0,0,0,0,0,-1,1427,995,0,0
210,29,0,0,0,0,0,0,0,0,0,-1,1434,995,0,0
217,29,0,0,0,0,0,0,0,0,0,-1,1441,995,0,0
224,29,0,0,0,0,0,0,0,0,0,-1,1448,995,0,0
231,29,0,0,0,0,0,0,0,0,0,-1,1455,995,0,0
238,29,0,0,0,0,0,0,0,0,0,-1,1462,995,0,0
245,29,0,0,0,0,0,0,0,0,0,-1,1469,995,0,0
252,29,0,0,0,0,0,0,0,0,0,-1,1476,995,0,0
259,29,0,0,0,0,0,0,0,0,0,-1,1483,995,0,0
266,29,0,0,0,0,0,0,0,0,0,-1,1490,995,0,0
273,29,0,0,0,0,0,0,0,0,0,-1,1497,995,0,0
280,29,0,0,0,0,0,0,0,0,0,-1,1504,995,0,0
287,29,0,0,0,0,0,0,0,0,0,-1,1511,995,0,0
294,29,0,0,0,0,0,0,0,0,0,-1,1518,995,0,0
301,29,0,0,0,0,0,0,0,0,0,-1,1525,995,0,0
308,29,0,0,0,0,0,0,0,0,0,-1,1532,995,0,0
315,29,0,0,0,0,0,0,0,0,0,-1,1539,995,0,0
322,29,0,0,0,0,0,0,0,0,0,-1,1546,995,0,0
329,29,0,0,0,0,0,0,0,0,0,-1,1553,995,0,0
336,29,0,0,0,0,0,0,0,0,0,-1,1560,995,0,0
343,29,0,0,0,0,0,0,0,0,0,-1,1567,995,0,0
350,29,0,0,0,0,0,0,0,0,0,-1,1574,995,0,0
357,29,0,0,0,0,0,0,0,0,0,-1,1581,995,0,0
364,29,0,0,0,0,0,0,0,0,0,-1,1588,995,0,0
371,29,0,0,0,0,0,0,0,0,0,-1,1595,995,0,0
378,29,0,0,0,0,0,0,0,0,0,-1,1602,995,0,0
385,29,0,0,0,0,0,0,0,0,0,-1,1609,995,0,0
392,29,0,0,0,0,0,0,0,0,0,-1,1616,995,0,0
399,29,0,0,0,0,0,0,0,0,0,-1,1623,995,0,0
406,29,0,0,0,0,0,0,0,0,0,-1,1630,995,0,0
413,29,0,0,0,0,0,0,0,0,0,-1,1637,995,0,0
420,29,0,0,0,0,0,0,0,0,0,-1,1644,995,0,0
427,29,0,0,0,0,0,0,0,0,0,-1,1651,995,0,0
434,29,0,0,0,0,0,0,0,0,0,-1,1658,995,0,0
441,29,0,0,0,0,0,0,0,0,0,-1,1665,995,0,0
448,29,0,0,0,0,0,0,0,0,0,-1,1672,995,0,0
455,29,0,0,0,0,0,0,0,0,0,-1,1679,995,0,0
462,29,0,0,0,0,0,0,0,0,0,-1,1686,995,0,0
469,29,0,0,0,0,0,0,0,0,0,-1,1693,995,0,0
476,29,0,0,0,0,0,0,0,0,0,-1,1700,995,0,0
483,29,0,0,0,0,0,0,0,0,0,-1,1707,995,0,0
490,29,0,0,0,0,0,0,0,0,0,-1,1714,995,0,0
497,29,0,0,0,0,0,0,0,0,0,-1,1721,995,0,0
504,29,0,0,0,0,0,0,0,0,0,-1,1728,995,0,0
511,29,0,0,0,0,0,0,0,0,0,-1,1735,995,0,0
518,29,0,0,0,0,0,0,0,0,0,-1,1742,995,0,0
525,29,0,0,0,0,0,0,0,0,0,-1,1749,995,0,0
532,29,0,0,0,0,0,0,0,0,0,-1,1756,995,0,0
539,29,0,0,0,0,0,0,0,0,0,-1,1763,995,0,0
546,29,0,0,0,0,0,0,0,0,0,-1,1770,995,0,0
553,29,0,0,0,0,0,0,0,0,0,-1,1777,995,0,0
560,29,0,0,0,0,0,0,0,0,0,-1,1784,995,0,0
567,29,0,0,0,0,0,0,0,0,0,-1,1791,995,0,0
574,29,0,0,0,0,0,0,0,0,0,-1,1798,995,0,0
581,29,0,0,0,0,0,0,0,0,0,-1,1805,995,0,0
588,29,0,0,0,0,0,0,0,0,0,-1,1812,995,0,0
595,29,0,0,0,0,0,0,0,0,0,-1,1819,995,0,0
602,29,0,0,0,0,0,0,0,0,0,-1,1826,995,0,0
609,29,0,0,0,0,0,0,0,0,0,-1,1833,995,0,0
616,29,0,0,0,0,0,0,0,0,0,-1,1840,995,0,0
623,29,0,0,0,0,0,0,0,0,0,-1,1847,995,0,0
630,29,0,0,0,0,0,0,0,0,0,-1,1854,995,0,0
637,29,0,0,0,0,0,0,0,0,0,-1,1861,995,0,0
644,29,7.25671,1.28534,0.000211646,-0.0108258,0.00154711,0.000424403,-0.0110385,0.136662,0.00750447,0.0448536,1868,995,7.25677,-1.28537
651,29,7.26416,1.47333,0.000152215,-0.00915169,0.000220825,0.000157453,-0.00915692,0.0237169,0.00615777,0.0434756,1875,995,7.26414,-1.47331
658,29,7.30591,1.45795,0.000195173,-0.00756815,-0.000428983,0.000218805,-0.00759178,-0.0550343,0.00513568,0.0433302,1882,995,7.30591,-1.45798
665,29,7.27954,1.38116,0.000106689,-0.00603809,-0.000664478,0.000177723,-0.00610912,-0.106497,0.00413326,0.0395419,1889,995,7.27956,-1.38118
672,29,7.20703,1.30865,-0.000130786,-0.004636,-0.000704138,-2.32977e-05,-0.00474348,-0.151483,0.00315459,0.0374113,1896,995,7.20707,-1.30864
679,29,7.14465,1.24811,-0.000451209,-0.00341859,-0.000585796,-0.000339753,-0.00353005,-0.188018,0.00224869,0.0393374,1903,995,7.14467,-1.24812
686,29,7.0791,1.1546,-0.000747904,-0.00239895,-0.000382119,-0.000663755,-0.0024831,-0.216758,0.00148446,0.0390488,1910,995,7.07909,-1.15462
693,29,7.21167,0.934814,-0.00101816,-0.00160488,-0.000148136,-0.000982881,-0.00164016,-0.233804,0.000953148,0.0400941,1917,995,7.21164,-0.934838
700,29,7.23779,0.982727,-0.00123099,-0.000966103,5.33141e-06,-0.000965995,-0.0012311,1.55068,0.000748186,0.034371,1924,995,7.2378,-0.98274
707,29,7.17773,1.10028,-0.00149906,-0.000275833,0.000140181,-0.000259974,-0.00151491,1.45814,0.000935406,0.0208183,1931,995,7.17771,-1.10027
714,29,7.1792,1.13971,-0.00165534,8.03301e-05,0.000305457,0.000132518,-0.00170753,1.40158,0.001185,0.0187893,1938,995,7.17926,-1.13972
721,29,7.11621,1.15692,-0.00167571,0.000272549,0.000415201,0.000357343,-0.0017605,1.36934,0.00130914,0.0209266,1945,995,7.11625,-1.15691
728,29,7.05518,1.18506,-0.00191468,0.000451602,0.000460329,0.000537998,-0.00200107,1.38527,0.00154493,0.0161965,1952,995,7.05514,-1.18504
735,29,7.06738,1.23059,-0.0024595,0.000507341,0.000423137,0.00056651,-0.00251867,1.43186,0.00189637,0.0130265,1959,995,7.06742,-1.23062
742,29,7.09424,1.23328,-0.00316494,0.000840475,0.000175782,0.000848174,-0.00317264,1.52702,0.00244731,0.0115248,1966,995,7.09419,-1.23327
749,29,7.08972,1.23474,-0.00418787,0.000472393,0.000172927,0.000478801,-0.00419428,1.53376,0.00296869,0.0126908,1973,995,7.08969,-1.23474
756,29,7.07617,1.24768,-0.00521189,-7.37651e-05,0.000419121,-3.98015e-05,-0.00524586,1.48994,0.00348405,0.0114995,1980,995,7.07618,-1.24771
763,29,7.08081,1.25781,-0.00609686,0.000234867,0.000665069,0.00030397,-0.00616596,1.46726,0.00421562,0.0113157,1987,995,7.08082,-1.25782
770,29,7.0592,1.29102,-0.00755009,2.88303e-05,0.00118141,0.000208722,-0.00772998,1.41969,0.00522429,0.0120633,1994,995,7.05926,-1.29103
777,29,7.05371,1.34601,-0.00928937,-0.000258577,0.00203591,0.00017918,-0.00972712,1.359,0.00654529,0.0207373,2001,995,7.05367,-1.34604
784,29,6.7157,1.44269,-0.0112437,-0.000670486,0.00334434,0.000298532,-0.0122127,1.28877,0.00824311,0.042016,2008,995,6.71573,-1.44269
791,29,6.40796,1.53943,0,0,0,0,0,0,0,-1,2015,995,6.408,-1.53942
798,29,6.61536,1.52753,-0.0148122,-0.00174218,0.00795152,0.00201518,-0.0185696,1.12936,0.0131032,0.0387176,2022,995,6.6154,-1.52756
805,29,6.32971,1.67096,-0.015904,-0.00217026,0.011546,0.00439654,-0.0224708,1.05367,0.0166408,0.0446422,2029,995,6.32975,-1.67096
812,29,6.21826,1.90631,-0.0160016,-0.00218399,0.0162658,0.00857944,-0.0267651,0.986225,0.0212875,0.0466296,2036,995,6.21829,-1.90631
-700,22,0,0,0,0,0,0,0,0,0,-1,524,1002,0,0
-693,22,-1.4256,0.540771,-0.112715,0.00603464,0.012139,0.00726283,-0.113943,1.46996,0.078495,0.0440357,531,1002,-1.42562,-0.5408
-686,22,-2.08466,0.208069,-0.0914878,0.00590941,0.0135104,0.00774875,-0.0933272,1.43549,0.0649553,0.0465086,538,1002,-2.08464,-0.208058
-679,22,-2.2392,0.540527,0,0,0,0,0,0,0,-1,545,1002,-2.2392,-0.54052
-672,22,-2.35107,0.499878,-0.0578787,0.004109,0.0124514,0.00651659,-0.0602863,1.37979,0.0425298,0.0459974,552,1002,-2.35106,-0.499867
-665,22,-2.43976,0.466553,-0.0448327,0.00303449,0.0110346,0.00545576,-0.047254,1.35479,0.0334698,0.0441544,559,1002,-2.43976,-0.466555
-658,22,-2.70721,1.03363,0,0,0,0,0,0,0,-1,566,1002,-2.70721,-1.03361
-651,22,-2.69049,0.964417,-0.0251299,0.00126526,0.00761553,0.00330489,-0.0271695,1.30911,0.0193091,0.0371095,573,1002,-2.69047,-0.964421
-644,22,-2.68036,0.883179,-0.0180976,0.00067445,0.0059185,0.00238465,-0.0198078,1.2895,0.0140676,0.0162193,580,1002,-2.68039,-0.883196
-637,22,-2.69324,0.856323,-0.0114102,0.00055055,0.00479638,0.00223635,-0.013096,1.23281,0.00956365,0.0113153,587,1002,-2.69326,-0.856324
-630,22,-2.71588,0.866211,-0.0068978,0.000245808,0.00333523,0.00156088,-0.00821287,1.19522,0.00606289,0.010401,594,1002,-2.7159,-0.866237
-623,22,-2.71765,0.864746,-0.0045767,-0.000552926,0.00177643,0.000119103,-0.00524873,1.20913,0.00353952,0.00978566,601,1002,-2.71764,-0.864717
-616,22,-2.71753,0.847229,-0.00305331,-0.000460196,0.000892378,-0.000182778,-0.00333072,1.26939,0.00216213,0.0162631,608,1002,-2.71753,-0.847253
-609,22,-2.76318,0.822937,-0.00199273,-0.000164761,0.000390583,-8.48022e-05,-0.00207269,1.36887,0.00135441,0.0264626,615,1002,-2.76319,-0.822912
-602,22,-2.78046,0.80011,-0.00151464,0.000205608,4.86142e-05,0.000206981,-0.00151602,1.54257,0.00108626,0.0258888,622,1002,-2.78048,-0.800116
-595,22,-2.75507,0.764954,-0.00126339,0.000254891,-0.000389812,0.000349125,-0.00135762,-1.33361,0.00104115,0.0216447,629,1002,-2.75505,-0.764973
-588,22,-2.74603,0.757568,-0.00132698,0.000320417,-0.000506504,0.000463686,-0.00147025,-1.29514,0.00116588,0.0264223,636,1002,-2.74604,-0.757542
-581,22,-2.77026,0.739746,-0.00146144,0.000375361,-0.000523317,0.000513995,-0.00160007,-1.31183,0.00127311,0.0384039,643,1002,-2.77026,-0.739747
-574,22,-2.75513,0.846252,-0.00142391,0.000502519,-0.00063389,0.000692387,-0.00161377,-1.27977,0.00136643,0.0360971,650,1002,-2.75514,-0.846236
-567,22,-2.85223,0.826599,-0.00152523,0.000657811,-0.00070121,0.000863639,-0.00173106,-1.28528,0.0015257,0.0323197,657,1002,-2.85226,-0.826612
-560,22,-2.97968,0.861694,-0.00159994,0.000843991,-0.000756105,0.001059,-0.00181495,-1.29375,0.0016783,0.0342105,664,1002,-2.97966,-0.861693
-553,22,-2.95667,0.8974,-0.00160431,0.00104675,-0.000789155,0.00126388,-0.00182144,-1.3023,0.00179098,0.0383782,671,1002,-2.95669,-0.89737
-546,22,-2.77277,0.63739,-0.00150802,0.00124586,-0.000796453,0.00145961,-0.00172177,-1.30859,0.00183885,0.0412416,678,1002,-2.77277,-0.637408
-539,22,-2.75702,0.419861,-0.00121832,0.00141033,-0.000755398,0.00161195,-0.00141994,-1.30998,0.00175163,0.0402706,685,1002,-2.75702,-0.419884
-532,22,-2.78931,0.358643,-0.000708842,0.00153891,-0.000581256,0.00168032,-0.000850255,-1.33214,0.001487,0.0419708,692,1002,-2.78931,-0.358649
-525,22,0,0,0,0,0,0,0,0,0,-1,699,1002,0,0
-518,22,0,0,0,0,0,0,0,0,0,-1,706,1002,0,0
-511,22,0,0,0,0,0,0,0,0,0,-1,713,1002,0,0
-504,22,0,0,0,0,0,0,0,0,0,-1,720,1002,0,0
-497,22,0,0,0,0,0,0,0,0,0,-1,727,1002,0,0
-490,22,0,0,0,0,0,0,0,0,0,-1,734,1002,0,0
-483,22,0,0,0,0,0,0,0,0,0,-1,741,1002,0,0
-476,22,0,0,0,0,0,0,0,0,0,-1,748,1002,0,0
-469,22,0,0,0,0,0,0,0,0,0,-1,755,1002,0,0
-462,22,0,0,0,0,0,0,0,0,0,-1,762,1002,0,0
-455,22,0,0,0,0,0,0,0,0,0,-1,769,1002,0,0
-448,22,0,0,0,0,0,0,0,0,0,-1,776,1002,0,0
-441,22,0,0,0,0,0,0,0,0,0,-1,783,1002,0,0
-434,22,0,0,0,0,0,0,0,0,0,-1,790,1002,0,0
-427,22,0,0,0,0,0,0,0,0,0,-1,797,1002,0,0
-420,22,0,0,0,0,0,0,0,0,0,-1,804,1002,0,0
-413,22,0,0,0,0,0,0,0,0,0,-1,811,1002,0,0
-406,22,0,0,0,0,0,0,0,0,0,-1,818,1002,0,0
-399,22,0,0,0,0,0,0,0,0,0,-1,825,1002,0,0
-392,22,0,0,0,0,0,0,0,0,0,-1,832,1002,0,0
-385,22,0,0,0,0,0,0,0,0,0,-1,839,1002,0,0
-378,22,0,0,0,0,0,0,0,0,0,-1,846,1002,0,0
-371,22,0,0,0,0,0,0,0,0,0,-1,853,1002,0,0
-364,22,0,0,0,0,0,0,0,0,0,-1,860,1002,0,0
-357,22,0,0,0,0,0,0,0,0,0,-1,867,1002,0,0
-350,22,0,0,0,0,0,0,0,0,0,-1,874,1002,0,0
-343,22,0,0,0,0,0,0,0,0,0,-1,881,1002,0,0
-336,22,0,0,0,0,0,0,0,0,0,-1,888,1002,0,0
-329,22,0,0,0,0,0,0,0,0,0,-1,895,1002,0,0
-322,22,0,0,0,0,0,0,0,0,0,-1,902,1002,0,0
-315,22,0,0,0,0,0,0,0,0,0,-1,909,1002,0,0
-308,22,0,0,0,0,0,0,0,0,0,-1,916,1002,0,0
-301,22,0,0,0,0,0,0,0,0,0,-1,923,1002,0,0
-294,22,0,0,0,0,0,0,0,0,0,-1,930,1002,0,0
-287,22,0,0,0,0,0,0,0,0,0,-1,937,1002,0,0
-280,22,0,0,0,0,0,0,0,0,0,-1,944,1002,0,0
-273,22,0,0,0,0,0,0,0,0,0,-1,951,1002,0,0
-266,22,0,0,0,0,0,0,0,0,0,-1,958,1002,0,0
-259,22,0,0,0,0,0,0,0,0,0,-1,965,1002,0,0
-252,22,0,0,0,0,0,0,0,0,0,-1,972,1002,0,0
-245,22,0,0,0,0,0,0,0,0,0,-1,979,1002,0,0
-238,22,0,0,0,0,0,0,0,0,0,-1,986,1002,0,0
-231,22,0,0,0,0,0,0,0,0,0,-1,993,1002,0,0
-224,22,0,0,0,0,0,0,0,0,0,-1,1000,1002,0,0
-217,22,0,0,0,0,0,0,0,0,0,-1,1007,1002,0,0
-210,22,0,0,0,0,0,0,0,0,0,-1,1014,1002,0,0
-203,22,0,0,0,0,0,0,0,0,0,-1,1021,1002,0,0
-196,22,0,0,0,0,0,0,0,0,0,-1,1028,1002,0,0
-189,22,0,0,0,0,0,0,0,0,0,-1,1035,1002,0,0
-182,22,0,0,0,0,0,0,0,0,0,-1,1042,1002,0,0
-175,22,0,0,0,0,0,0,0,0,0,-1,1049,1002,0,0
-168,22,0,0,0,0,0,0,0,0,0,-1,1056,1002,0,0
-161,22,0,0,0,0,0,0,0,0,0,-1,1063,1002,0,0
-154,22,0,0,0,0,0,0,0,0,0,-1,1070,1002,0,0
-147,22,0,0,0,0,0,0,0,0,0,-1,1077,1002,0,0
-140,22,0,0,0,0,0,0,0,0,0,-1,1084,1002,0,0
-133,22,0,0,0,0,0,0,0,0,0,-1,1091,1002,0,0
-126,22,0,0,0,0,0,0,0,0,0,-1,1098,1002,0,0
-119,22,0,0,0,0,0,0,0,0,0,-1,1105,1002,0,0
-112,22,0,0,0,0,0,0,0,0,0,-1,1112,1002,0,0
-105,22,0,0,0,0,0,0,0,0,0,-1,1119,1002,0,0
-98,22,0,0,0,0,0,0,0,0,0,-1,1126,1002,0,0
-91,22,0,0,0,0,0,0,0,0,0,-1,1133,1002,0,0
-84,22,0,0,0,0,0,0,0,0,0,-1,1140,1002,0,0
-77,22,0,0,0,0,0,0,0,0,0,-1,1147,1002,0,0
-70,22,0,0,0,0,0,0,0,0,0,-1,1154,1002,0,0
-63,22,0,0,0,0,0,0,0,0,0,-1,1161,1002,0,0
-56,22,0,0,0,0,0,0,0,0,0,-1,1168,1002,0,0
-49,22,0,0,0,0,0,0,0,0,0,-1,1175,1002,0,0
-42,22,0,0,0,0,0,0,0,0,0,-1,1182,1002,0,0
-35,22,0,0,0,0,0,0,0,0,0,-1,1189,1002,0,0
-28,22,0,0,0,0,0,0,0,0,0,-1,1196,1002,0,0
-21,22,0,0,0,0,0,0,0,0,0,-1,1203,1002,0,0
-14,22,0,0,0,0,0,0,0,0,0,-1,1210,1002,0,0
-7,22,0,0,0,0,0,0,0,0,0,-1,1217,1002,0,0
0,22,0,0,0,0,0,0,0,0,0,-1,1224,1002,0,0
7,22,0,0,0,0,0,0,0,0,0,-1,1231,1002,0,0
14,22,0,0,0,0,0,0,0,0,0,-1,1238,1002,0,0
21,22,0,0,0,0,0,0,0,0,0,-1,1245,1002,0,0
28,22,0,0,0,0,0,0,0,0,0,-1,1252,1002,0,0
35,22,0,0,0,0,0,0,0,0,0,-1,1259,1002,0,0
42,22,0,0,0,0,0,0,0,0,0,-1,1266,1002,0,0
49,22,0,0,0,0,0,0,0,0,0,-1,1273,1002,0,0
56,22,0,0,0,0,0,0,0,0,0,-1,1280,1002,0,0
63,22,0,0,0,0,0,0,0,0,0,-1,1287,1002,0,0
70,22,0,0,0,0,0,0,0,0,0,-1,1294,1002,0,0
77,22,0,0,0,0,0,0,0,0,0,-1,1301,1002,0,0
84,22,0,0,0,0,0,0,0,0,0,-1,1308,1002,0,0
91,22,0,0,0,0,0,0,0,0,0,-1,1315,1002,0,0
98,22,0,0,0,0,0,0,0,0,0,-1,1322,1002,0,0
105,22,0,0,0,0,0,0,0,0,0,-1,1329,1002,0,0
112,22,0,0,0,0,0,0,0,0,0,-1,1336,1002,0,0
119,22,0,0,0,0,0,0,0,0,0,-1,1343,1002,0,0
126,22,0,0,0,0,0,0,0,0,0,-1,1350,1002,0,0
133,22,0,0,0,0,0,0,0,0,0,-1,1357,1002,0,0
140,22,0,0,0,0,0,0,0,0,0,-1,1364,1002,0,0
147,22,0,0,0,0,0,0,0,0,0,-1,1371,1002,0,0
154,22,0,0,0,0,0,0,0,0,0,-1,1378,1002,0,0
161,22,0,0,0,0,0,0,0,0,0,-1,1385,1002,0,0
168,22,0,0,0,0,0,0,0,0,0,-1,1392,1002,0,0
175,22,0,0,0,0,0,0,0,0,0,-1,1399,1002,0,0
182,22,0,0,0,0,0,0,0,0,0,-1,1406,1002,0,0
189,22,0,0,0,0,0,0,0,0,0,-1,1413,1002,0,0
196,22,0,0,0,0,0,0,0,0,0,-1,1420,1002,0,0
203,22,0,0,0,0,0,0,0,0,0,-1,1427,1002,0,0
210,22,0,0,0,0,0,0,0,0,0,-1,1434,1002,0,0
217,22,0,0,0,0,0,0,0,0,0,-1,1441,1002,0,0
224,22,0,0,0,0,0,0,0,0,0,-1,1448,1002,0,0
231,22,0,0,0,0,0,0,0,0,0,-1,1455,1002,0,0
238,22,0,0,0,0,0,0,0,0,0,-1,1462,1002,0,0
245,22,0,0,0,0,0,0,0,0,0,-1,1469,1002,0,0
252,22,0,0,0,0,0,0,0,0,0,-1,1476,1002,0,0
259,22,0,0,0,0,0,0,0,0,0,-1,1483,1002,0,0
266,22,0,0,0,0,0,0,0,0,0,-1,1490,1002,0,0
273,22,0,0,0,0,0,0,0,0,0,-1,1497,1002,0,0
280,22,0,0,0,0,0,0,0,0,0,-1,1504,1002,0,0
287,22,0,0,0,0,0,0,0,0,0,-1,1511,1002,0,0
294,22,0,0,0,0,0,0,0,0,0,-1,1518,1002,0,0
301,22,0,0,0,0,0,0,0,0,0,-1,1525,1002,0,0
308,22,0,0,0,0,0,0,0,0,0,-1,1532,1002,0,0
315,22,0,0,0,0,0,0,0,0,0,-1,1539,1002,0,0
322,22,0,0,0,0,0,0,0,0,0,-1,1546,1002,0,0
329,22,0,0,0,0,0,0,0,0,0,-1,1553,1002,0,0
336,22,0,0,0,0,0,0,0,0,0,-1,1560,1002,0,0
343,22,0,0,0,0,0,0,0,0,0,-1,1567,1002,0,0
350,22,0,0,0,0,0,0,0,0,0,-1,1574,1002,0,0
357,22,0,0,0,0,0,0,0,0,0,-1,1581,1002,0,0
364,22,0,0,0,0,0,0,0,0,0,-1,1588,1002,0,0
371,22,0,0,0,0,0,0,0,0,0,-1,1595,1002,0,0
378,22,0,0,0,0,0,0,0,0,0,-1,1602,1002,0,0
385,22,0,0,0,0,0,0,0,0,0,-1,1609,1002,0,0
392,22,0,0,0,0,0,0,0,0,0,-1,1616,1002,0,0
399,22,0,0,0,0,0,0,0,0,0,-1,1623,1002,0,0
406,22,0,0,0,0,0,0,0,0,0,-1,1630,1002,0,0
413,22,0,0,0,0,0,0,0,0,0,-1,1637,1002,0,0
420,22,0,0,0,0,0,0,0,0,0,-1,1644,1002,0,0
427,22,0,0,0,0,0,0,0,0,0,-1,1651,1002,0,0
434,22,0,0,0,0,0,0,0,0,0,-1,1658,1002,0,0
441,22,0,0,0,0,0,0,0,0,0,-1,1665,1002,0,0
448,22,0,0,0,0,0,0,0,0,0,-1,1672,1002,0,0
455,22,0,0,0,0,0,0,0,0,0,-1,1679,1002,0,0
462,22,0,0,0,0,0,0,0,0,0,-1,1686,1002,0,0
469,22,0,0,0,0,0,0,0,0,0,-1,1693,1002,0,0
476,22,0,0,0,0,0,0,0,0,0,-1,1700,1002,0,0
483,22,0,0,0,0,0,0,0,0,0,-1,1707,1002,0,0
490,22,0,0,0,0,0,0,0,0,0,-1,1714,1002,0,0
497,22,0,0,0,0,0,0,0,0,0,-1,1721,1002,0,0
504,22,0,0,0,0,0,0,0,0,0,-1,1728,1002,0,0
511,22,0,0,0,0,0,0,0,0,0,-1,1735,1002,0,0
518,22,0,0,0,0,0,0,0,0,0,-1,1742,1002,0,0
525,22,0,0,0,0,0,0,0,0,0,-1,1749,1002,0,0
532,22,0,0,0,0,0,0,0,0,0,-1,1756,1002,0,0
539,22,0,0,0,0,0,0,0,0,0,-1,1763,1002,0,0
546,22,0,0,0,0,0,0,0,0,0,-1,1770,1002,0,0
553,22,0,0,0,0,0,0,0,0,0,-1,1777,1002,0,0
560,22,0,0,0,0,0,0,0,0,0,-1,1784,1002,0,0
567,22,0,0,0,0,0,0,0,0,0,-1,1791,1002,0,0
574,22,0,0,0,0,0,0,0,0,0,-1,1798,1002,0,0
581,22,0,0,0,0,0,0,0,0,0,-1,1805,1002,0,0
588,22,0,0,0,0,0,0,0,0,0,-1,1812,1002,0,0
595,22,0,0,0,0,0,0,0,0,0,-1,1819,1002,0,0
602,22,0,0,0,0,0,0,0,0,0,-1,1826,1002,0,0
609,22,0,0,0,0,0,0,0,0,0,-1,1833,1002,0,0
616,22,0,0,0,0,0,0,0,0,0,-1,1840,1002,0,0
623,22,0,0,0,0,0,0,0,0,0,-1,1847,1002,0,0
630,22,0,0,0,0,0,0,0,0,0,-1,1854,1002,0,0
637,22,0,0,0,0,0,0,0,0,0,-1,1861,1002,0,0
644,22,7.19934,0.906982,0,0,0,0,0,0,0,-1,1868,1002,7.19938,-0.906968
651,22,7.3927,1.77185,0,0,0,0,0,0,0,-1,1875,1002,7.39274,-1.77187
658,22,7.34119,1.48828,0.000133851,-0.00754974,-0.000154204,0.000136944,-0.00755283,-0.0200585,0.00508148,0.04468,1882,1002,7.34115,-1.48829
665,22,7.2251,1.40729,1.8859e-05,-0.00570943,-0.00049387,6.11264e-05,-0.0057517,-0.0853764,0.003855,0.0402121,1889,1002,7.22514,-1.40729
672,22,7.15027,1.26971,-0.000192228,-0.00411821,-0.00057756,-0.000109025,-0.00420141,-0.143075,0.00276532,0.0388747,1896,1002,7.15031,-1.26973
679,22,7.17334,1.12079,-0.000474109,-0.00281327,-0.000471962,-0.000382473,-0.0029049,-0.191773,0.00182254,0.0398348,1903,1002,7.17331,-1.12079
686,22,7.14709,0.958557,-0.000725314,-0.00178167,-0.000262669,-0.000663605,-0.00184338,-0.230747,0.00107809,0.0407143,1910,1002,7.14707,-0.958584
693,22,7.16003,0.933716,-0.000957896,-0.00101612,-1.92835e-05,-0.000952088,-0.00102193,-0.29251,0.00065924,0.0406686,1917,1002,7.16,-0.933691
700,22,7.14966,1.03882,-0.00112724,-0.000420496,0.000144841,-0.000391964,-0.00115577,1.3763,0.000678698,0.0343361,1924,1002,7.1496,-1.03882
707,22,7.14636,1.13239,-0.00136014,0.000210424,0.000296514,0.00026454,-0.00141425,1.39028,0.00104227,0.0283237,1931,1002,7.14635,-1.1324
714,22,7.16443,1.16882,-0.00149327,0.000461084,0.00047479,0.000570323,-0.00160251,1.34465,0.00130081,0.0211444,1938,1002,7.16443,-1.16881
721,22,7.15723,1.146,-0.00151265,0.000539115,0.000586322,0.000694845,-0.00166838,1.31119,0.00140247,0.0188334,1945,1002,7.15721,-1.14598
728,22,7.07227,1.17889,-0.00172503,0.000614083,0.000635444,0.000775561,-0.0018865,1.32195,0.00158093,0.0154395,1952,1002,7.07227,-1.17889
735,22,7.07874,1.23511,-0.0022012,0.000619964,0.000584864,0.000736408,-0.00231765,1.37427,0.00184035,0.0139869,1959,1002,7.07868,-1.2351
742,22,7.08423,1.23907,-0.00280981,0.000910504,0.000291138,0.00093315,-0.00283246,1.49317,0.00226438,0.0135201,1966,1002,7.0842,-1.23905
749,22,7.0946,1.24408,-0.00370127,0.000531063,0.000167726,0.000537699,-0.00370791,1.53125,0.00266928,0.0109461,1973,1002,7.09462,-1.24409
756,22,7.11243,1.21826,-0.00449007,7.44668e-05,0.000262629,8.95278e-05,-0.00450513,1.51351,0.0030337,0.0149438,1980,1002,7.1124,-1.21825
763,22,7.08948,1.24329,-0.00499195,0.00055696,0.000371132,0.000581672,-0.00501666,1.50431,0.00355423,0.0162839,1987,1002,7.08951,-1.24329
770,22,7.0874,1.26648,-0.00597985,0.000539977,0.000658079,0.000605736,-0.00604561,1.4712,0.00424675,0.0108601,1994,1002,7.08737,-1.26651
777,22,7.03345,1.35297,-0.00706529,0.000551552,0.00122125,0.000742571,-0.00725631,1.41564,0.00510311,0.0186815,2001,1002,7.03345,-1.35295
784,22,6.74597,1.49036,-0.00815677,0.000586273,0.00215373,0.00108802,-0.00865852,1.34191,0.0061671,0.0403993,2008,1002,6.74599,-1.49033
791,22,6.44629,1.64636,-0.00896812,0.000712535,0.00358617,0.00189627,-0.0101519,1.25197,0.00748055,0.0443517,2015,1002,6.44633,-1.64633
798,22,6.23938,1.97388,-0.00919848,0.00107185,0.00562183,0.00355081,-0.0116774,1.15549,0.00919988,0.0420777,2022,1002,6.23943,-1.97388
805,22,5.8269,2.23322,-0.00847327,0.0019099,0.00839083,0.00658536,-0.0131487,1.06243,0.0116016,0.0450752,2029,1002,5.82687,-2.2332
812,22,5.6355,2.26617,-0.00627509,0.0036319,0.0120688,0.0117242,-0.0143674,0.980134,0.0150898,0.0442761,2036,1002,5.63547,-2.26615
-700,15,0,0,0,0,0,0,0,0,0,-1,524,1009,0,0
-693,15,-1.427,1.00854,-0.120553,0.00506947,0.0182625,0.00767054,-0.123154,1.42932,0.0847751,0.045888,531,1009,-1.42703,-1.00854
-686,15,-2.56085,0.629639,-0.0979231,0.0053938,0.0178115,0.00837825,-0.100908,1.40478,0.0702312,0.045696,538,1009,-2.56087,-0.629621
-679,15,-3.70477,0.283508,0,0,0,0,0,0,0,-1,545,1009,-3.70478,-0.283513
-672,15,-2.6145,0.805603,0,0,0,0,0,0,0,-1,552,1009,-2.6145,-0.805584
-665,15,-2.65216,0.764282,-0.047641,0.00333405,0.0122262,0.00611479,-0.0504217,1.34716,0.0358271,0.0467547,559,1009,-2.65216,-0.764287
-658,15,-2.48749,0.790588,-0.0359279,0.0024749,0.0100322,0.00493775,-0.0383908,1.33006,0.0273885,0.044906,566,1009,-2.48746,-0.790597
-651,15,-2.60138,0.933533,-0.0264146,0.00172698,0.00792254,0.00380407,-0.0284917,1.31439,0.0203811,0.0347675,573,1009,-2.6014,-0.93354
-644,15,-2.70972,0.87323,-0.0188829,0.00112531,0.00599772,0.00278546,-0.020543,1.30076,0.014712,0.0152376,580,1009,-2.7097,-0.873218
-637,15,-2.71429,0.856689,-0.0119374,0.000932542,0.00464868,0.00243602,-0.0134409,1.25799,0.00987328,0.0122207,587,1009,-2.71427,-0.856682
-630,15,-2.71851,0.855225,-0.00710561,0.00062535,0.00310943,0.00172077,-0.00820102,1.23208,0.00612209,0.0105419,594,1009,-2.71849,-0.855229
-623,15,-2.7348,0.855652,-0.00444599,-0.000109198,0.0014909,0.000353894,-0.00490909,1.26963,0.00339684,0.00863568,601,1009,-2.73479,-0.855679
-616,15,-2.73492,0.835876,-0.00283698,-0.000264091,0.000655828,-0.000106566,-0.00299451,1.33507,0.00196178,0.0131436,608,1009,-2.73492,-0.835874
-609,15,-2.76099,0.839966,-0.00168605,-2.63921e-05,0.000175168,-8.10559e-06,-0.00170433,1.46678,0.00113353,0.0209665,615,1009,-2.76098,-0.83999
-602,15,-2.75214,0.823303,-0.00122881,0.000269292,-0.000161174,0.000286436,-0.00124595,-1.46483,0.000940764,0.0202148,622,1009,-2.75214,-0.8233
-595,15,-2.77075,0.767151,-0.00107178,0.000257745,-0.000545984,0.00045322,-0.00126725,-1.22699,0.00102971,0.0192994,629,1009,-2.77078,-0.767149
-588,15,-2.77777,0.739136,-0.00119558,0.000309681,-0.000625655,0.000535772,-0.00142167,-1.22403,0.00116807,0.0260007,636,1009,-2.77778,-0.739147
-581,15,-2.72522,0.755981,-0.00139632,0.000359807,-0.000582101,0.000535231,-0.00157175,-1.27809,0.00126458,0.0368225,643,1009,-2.7252,-0.755962
-574,15,-2.72003,0.813782,-0.00147636,0.000475882,-0.000614332,0.000653111,-0.00165359,-1.28993,0.00137289,0.0330645,650,1009,-2.72006,-0.813784
-567,15,-2.77075,0.800842,-0.0017164,0.000616735,-0.000573171,0.000749938,-0.00184961,-1.34245,0.00154496,0.0328927,657,1009,-2.77078,-0.800865
-560,15,-2.97327,0.984192,-0.00198702,0.000792734,-0.000474118,0.000871376,-0.00206566,-1.40642,0.0017418,0.0367967,664,1009,-2.97327,-0.984177
-553,15,-2.90283,0.744446,-0.00225616,0.000996304,-0.000303554,0.00102439,-0.00228425,-1.47853,0.00195586,0.0397926,671,1009,-2.90283,-0.74446
-546,15,-2.91302,0.614685,-0.00251106,0.00122218,-5.17812e-05,0.0012229,-0.00251178,-1.55693,0.00219861,0.0421342,678,1009,-2.91303,-0.614656
-539,15,-2.88068,0.584839,-0.0026687,0.00145434,0.00030362,0.00147658,-0.00269094,1.49768,0.00243993,0.0423589,685,1009,-2.88071,-0.584837
-532,15,-2.78735,0.662415,-0.00270441,0.00172674,0.000837131,0.00187962,-0.00285729,1.39017,0.0027542,0.0411353,692,1009,-2.78734,-0.662392
-525,15,0,0,0,0,0,0,0,0,0,-1,699,1009,0,0
-518,15,0,0,0,0,0,0,0,0,0,-1,706,1009,0,0
-511,15,0,0,0,0,0,0,0,0,0,-1,713,1009,0,0
-504,15,0,0,0,0,0,0,0,0,0,-1,720,1009,0,0
-497,15,0,0,0,0,0,0,0,0,0,-1,727,1009,0,0
-490,15,0,0,0,0,0,0,0,0,0,-1,734,1009,0,0
-483,15,0,0,0,0,0,0,0,0,0,-1,741,1009,0,0
-476,15,0,0,0,0,0,0,0,0,0,-1,748,1009,0,0
-469,15,0,0,0,0,0,0,0,0,0,-1,755,1009,0,0
-462,15,0,0,0,0,0,0,0,0,0,-1,762,1009,0,0
-455,15,0,0,0,0,0,0,0,0,0,-1,769,1009,0,0
-448,15,0,0,0,0,0,0,0,0,0,-1,776,1009,0,0
-441,15,0,0,0,0,0,0,0,0,0,-1,783,1009,0,0
-434,15,0,0,0,0,0,0,0,0,0,-1,790,1009,0,0
-427,15,0,0,0,0,0,0,0,0,0,-1,797,1009,0,0
-420,15,0,0,0,0,0,0,0,0,0,-1,804,1009,0,0
-413,15,0,0,0,0,0,0,0,0,0,-1,811,1009,0,0
-406,15,0,0,0,0,0,0,0,0,0,-1,818,1009,0,0
-399,15,0,0,0,0,0,0,0,0,0,-1,825,1009,0,0
-392,15,0,0,0,0,0,0,0,0,0,-1,832,1009,0,0
-385,15,0,0,0,0,0,0,0,0,0,-1,839,1009,0,0
-378,15,0,0,0,0,0,0,0,0,0,-1,846,1009,0,0
-371,15,0,0,0,0,0,0,0,0,0,-1,853,1009,0,0
-364,15,0,0,0,0,0,0,0,0,0,-1,860,1009,0,0
-357,15,0,0,0,0,0,0,0,0,0,-1,867,1009,0,0
-350,15,0,0,0,0,0,0,0,0,0,-1,874,1009,0,0
-343,15,0,0,0,0,0,0,0,0,0,-1,881,1009,0,0
-336,15,0,0,0,0,0,0,0,0,0,-1,888,1009,0,0
-329,15,0,0,0,0,0,0,0,0,0,-1,895,1009,0,0
-322,15,0,0,0,0,0,0,0,0,0,-1,902,1009,0,0
-315,15,0,0,0,0,0,0,0,0,0,-1,909,1009,0,0
-308,15,0,0,0,0,0,0,0,0,0,-1,916,1009,0,0
-301,15,0,0,0,0,0,0,0,0,0,-1,923,1009,0,0
-294,15,0,0,0,0,0,0,0,0,0,-1,930,1009,0,0
-287,15,0,0,0,0,0,0,0,0,0,-1,937,1009,0,0
-280,15,0,0,0,0,0,0,0,0,0,-1,944,1009,0,0
-273,15,0,0,0,0,0,0,0,0,0,-1,951,1009,0,0
-266,15,0,0,0,0,0,0,0,0,0,-1,958,1009,0,0
-259,15,0,0,0,0,0,0,0,0,0,-1,965,1009,0,0
-252,15,0,0,0,0,0,0,0,0,0,-1,972,1009,0,0
-245,15,0,0,0,0,0,0,0,0,0,-1,979,1009,0,0
-238,15,0,0,0,0,0,0,0,0,0,-1,986,1009,0,0
-231,15,0,0,0,0,0,0,0,0,0,-1,993,1009,0,0
-224,15,0,0,0,0,0,0,0,0,0,-1,1000,1009,0,0
-217,15,0,0,0,0,0,0,0,0,0,-1,1007,1009,0,0
-210,15,0,0,0,0,0,0,0,0,0,-1,1014,1009,0,0
-203,15,0,0,0,0,0,0,0,0,0,-1,1021,1009,0,0
-196,15,0,0,0,0,0,0,0,0,0,-1,1028,1009,0,0
-189,15,0,0,0,0,0,0,0,0,0,-1,1035,1009,0,0
-182,15,0,0,0,0,0,0,0,0,0,-1,1042,1009,0,0
-175,15,0,0,0,0,0,0,0,0,0,-1,1049,1009,0,0
-168,15,0,0,0,0,0,0,0,0,0,-1,1056,1009,0,0
-161,15,0,0,0,0,0,0,0,0,0,-1,1063,1009,0,0
-154,15,0,0,0,0,0,0,0,0,0,-1,1070,1009,0,0
-147,15,0,0,0,0,0,0,0,0,0,-1,1077,1009,0,0
-140,15,0,0,0,0,0,0,0,0,0,-1,1084,1009,0,0
-133,15,0,0,0,0,0,0,0,0,0,-1,1091,1009,0,0
-126,15,0,0,0,0,0,0,0,0,0,-1,1098,1009,0,0
-119,15,0,0,0,0,0,0,0,0,0,-1,1105,1009,0,0
-112,15,0,0,0,0,0,0,0,0,0,-1,1112,1009,0,0
-105,15,0,0,0,0,0,0,0,0,0,-1,1119,1009,0,0
-98,15,0,0,0,0,0,0,0,0,0,-1,1126,1009,0,0
-91,15,0,0,0,0,0,0,0,0,0,-1,1133,1009,0,0
-84,15,0,0,0,0,0,0,0,0,0,-1,1140,1009,0,0
-77,15,0,0,0,0,0,0,0,0,0,-1,1147,1009,0,0
-70,15,0,0,0,0,0,0,0,0,0,-1,1154,1009,0,0
-63,15,0,0,0,0,0,0,0,0,0,-1,1161,1009,0,0
-56,15,0,0,0,0,0,0,0,0,0,-1,1168,1009,0,0
-49,15,0,0,0,0,0,0,0,0,0,-1,1175,1009,0,0
-42,15,0,0,0,0,0,0,0,0,0,-1,1182,1009,0,0
-35,15,0,0,0,0,0,0,0,0,0,-1,1189,1009,0,0
-28,15,0,0,0,0,0,0,0,0,0,-1,1196,1009,0,0
-21,15,0,0,0,0,0,0,0,0,0,-1,1203,1009,0,0
-14,15,0,0,0,0,0,0,0,0,0,-1,1210,1009,0,0
-7,15,0,0,0,0,0,0,0,0,0,-1,1217,1009,0,0
0,15,0,0,0,0,0,0,0,0,0,-1,1224,1009,0,0
7,15,0,0,0,0,0,0,0,0,0,-1,1231,1009,0,0
14,15,0,0,0,0,0,0,0,0,0,-1,1238,1009,0,0
21,15,0,0,0,0,0,0,0,0,0,-1,1245,1009,0,0
28,15,0,0,0,0,0,0,0,0,0,-1,1252,1009,0,0
35,15,0,0,0,0,0,0,0,0,0,-1,1259,1009,0,0
42,15,0,0,0,0,0,0,0,0,0,-1,1266,1009,0,0
49,15,0,0,0,0,0,0,0,0,0,-1,1273,1009,0,0
56,15,0,0,0,0,0,0,0,0,0,-1,1280,1009,0,0
63,15,0,0,0,0,0,0,0,0,0,-1,1287,1009,0,0
70,15,0,0,0,0,0,0,0,0,0,-1,1294,1009,0,0
77,15,0,0,0,0,0,0,0,0,0,-1,1301,1009,0,0
84,15,0,0,0,0,0,0,0,0,0,-1,1308,1009,0,0
91,15,0,0,0,0,0,0,0,0,0,-1,1315,1009,0,0
98,15,0,0,0,0,0,0,0,0,0,-1,1322,1009,0,0
105,15,0,0,0,0,0,0,0,0,0,-1,1329,1009,0,0
112,15,0,0,0,0,0,0,0,0,0,-1,1336,1009,0,0
119,15,0,0,0,0,0,0,0,0,0,-1,1343,1009,0,0
126,15,0,0,0,0,0,0,0,0,0,-1,1350,1009,0,0
133,15,0,0,0,0,0,0,0,0,0,-1,1357,1009,0,0
140,15,0,0,0,0,0,0,0,0,0,-1,1364,1009,0,0
147,15,0,0,0,0,0,0,0,0,0,-1,1371,1009,0,0
154,15,0,0,0,0,0,0,0,0,0,-1,1378,1009,0,0
161,15,0,0,0,0,0,0,0,0,0,-1,1385,1009,0,0
168,15,0,0,0,0,0,0,0,0,0,-1,1392,1009,0,0
175,15,0,0,0,0,0,0,0,0,0,-1,1399,1009,0,0
182,15,0,0,0,0,0,0,0,0,0,-1,1406,1009,0,0
189,15,0,0,0,0,0,0,0,0,0,-1,1413,1009,0,0
196,15,0,0,0,0,0,0,0,0,0,-1,1420,1009,0,0
203,15,0,0,0,0,0,0,0,0,0,-1,1427,1009,0,0
210,15,0,0,0,0,0,0,0,0,0,-1,1434,1009,0,0
217,15,0,0,0,0,0,0,0,0,0,-1,1441,1009,0,0
224,15,0,0,0,0,0,0,0,0,0,-1,1448,1009,0,0
231,15,0,0,0,0,0,0,0,0,0,-1,1455,1009,0,0
238,15,0,0,0,0,0,0,0,0,0,-1,1462,1009,0,0
245,15,0,0,0,0,0,0,0,0,0,-1,1469,1009,0,0
252,15,0,0,0,0,0,0,0,0,0,-1,1476,1009,0,0
259,15,0,0,0,0,0,0,0,0,0,-1,1483,1009,0,0
266,15,0,0,0,0,0,0,0,0,0,-1,1490,1009,0,0
273,15,0,0,0,0,0,0,0,0,0,-1,1497,1009,0,0
280,15,0,0,0,0,0,0,0,0,0,-1,1504,1009,0,0
287,15,0,0,0,0,0,0,0,0,0,-1,1511,1009,0,0
294,15,0,0,0,0,0,0,0,0,0,-1,1518,1009,0,0
301,15,0,0,0,0,0,0,0,0,0,-1,1525,1009,0,0
308,15,0,0,0,0,0,0,0,0,0,-1,1532,1009,0,0
315,15,0,0,0,0,0,0,0,0,0,-1,1539,1009,0,0
322,15,0,0,0,0,0,0,0,0,0,-1,1546,1009,0,0
329,15,0,0,0,0,0,0,0,0,0,-1,1553,1009,0,0
336,15,0,0,0,0,0,0,0,0,0,-1,1560,1009,0,0
343,15,0,0,0,0,0,0,0,0,0,-1,1567,1009,0,0
350,15,0,0,0,0,0,0,0,0,0,-1,1574,1009,0,0
357,15,0,0,0,0,0,0,0,0,0,-1,1581,1009,0,0
364,15,0,0,0,0,0,0,0,0,0,-1,1588,1009,0,0
371,15,0,0,0,0,0,0,0,0,0,-1,1595,1009,0,0
378,15,0,0,0,0,0,0,0,0,0,-1,1602,1009,0,0
385,15,0,0,0,0,0,0,0,0,0,-1,1609,1009,0,0
392,15,0,0,0,0,0,0,0,0,0,-1,1616,1009,0,0
399,15,0,0,0,0,0,0,0,0,0,-1,1623,1009,0,0
406,15,0,0,0,0,0,0,0,0,0,-1,1630,1009,0,0
413,15,0,0,0,0,0,0,0,0,0,-1,1637,1009,0,0
420,15,0,0,0,0,0,0,0,0,0,-1,1644,1009,0,0
427,15,0,0,0,0,0,0,0,0,0,-1,1651,1009,0,0
434,15,0,0,0,0,0,0,0,0,0,-1,1658,1009,0,0
441,15,0,0,0,0,0,0,0,0,0,-1,1665,1009,0,0
448,15,0,0,0,0,0,0,0,0,0,-1,1672,1009,0,0
455,15,0,0,0,0,0,0,0,0,0,-1,1679,1009,0,0
462,15,0,0,0,0,0,0,0,0,0,-1,1686,1009,0,0
469,15,0,0,0,0,0,0,0,0,0,-1,1693,1009,0,0
476,15,0,0,0,0,0,0,0,0,0,-1,1700,1009,0,0
483,15,0,0,0,0,0,0,0,0,0,-1,1707,1009,0,0
490,15,0,0,0,0,0,0,0,0,0,-1,1714,1009,0,0
497,15,0,0,0,0,0,0,0,0,0,-1,1721,1009,0,0
504,15,0,0,0,0,0,0,0,0,0,-1,1728,1009,0,0
511,15,0,0,0,0,0,0,0,0,0,-1,1735,1009,0,0
518,15,0,0,0,0,0,0,0,0,0,-1,1742,1009,0,0
525,15,0,0,0,0,0,0,0,0,0,-1,1749,1009,0,0
532,15,0,0,0,0,0,0,0,0,0,-1,1756,1009,0,0
539,15,0,0,0,0,0,0,0,0,0,-1,1763,1009,0,0
546,15,0,0,0,0,0,0,0,0,0,-1,1770,1009,0,0
553,15,0,0,0,0,0,0,0,0,0,-1,1777,1009,0,0
560,15,0,0,0,0,0,0,0,0,0,-1,1784,1009,0,0
567,15,0,0,0,0,0,0,0,0,0,-1,1791,1009,0,0
574,15,0,0,0,0,0,0,0,0,0,-1,1798,1009,0,0
581,15,0,0,0,0,0,0,0,0,0,-1,1805,1009,0,0
588,15,0,0,0,0,0,0,0,0,0,-1,1812,1009,0,0
595,15,0,0,0,0,0,0,0,0,0,-1,1819,1009,0,0
602,15,0,0,0,0,0,0,0,0,0,-1,1826,1009,0,0
609,15,0,0,0,0,0,0,0,0,0,-1,1833,1009,0,0
616,15,0,0,0,0,0,0,0,0,0,-1,1840,1009,0,0
623,15,0,0,0,0,0,0,0,0,0,-1,1847,1009,0,0
630,15,0,0,0,0,0,0,0,0,0,-1,1854,1009,0,0
637,15,0,0,0,0,0,0,0,0,0,-1,1861,1009,0,0
644,15,7.18054,0.599182,0.000770496,-0.0118873,0.00247278,0.00123642,-0.0123532,0.186237,0.00867705,0.0376621,1868,1009,7.18048,-0.599157
651,15,7.19287,0.652832,0.000240506,-0.00904637,0.000763543,0.000302865,-0.00910873,0.0814882,0.00617592,0.0388587,1875,1009,7.19282,-0.652828
658,15,7.16785,1.28729,0,0,0,0,0,0,0,-1,1882,1009,7.16787,-1.28731
665,15,7.15491,1.08606,-8.60567e-05,-0.00481996,-0.000500347,-3.37507e-05,-0.00487226,-0.104161,0.00323698,0.0402486,1889,1009,7.15486,-1.08609
672,15,7.19873,1.17169,-0.00028246,-0.00323093,-0.000581872,-0.000171784,-0.00334161,-0.187962,0.00217274,0.0391802,1896,1009,7.19877,-1.17167
679,15,7.22363,1.20587,-0.000532204,-0.00199417,-0.00045172,-0.000403893,-0.00212248,-0.276761,0.00130142,0.039342,1903,1009,7.22369,-1.20589
686,15,7.18274,0.929321,-0.000743615,-0.00106848,-0.000210933,-0.000639821,-0.00117228,-0.457287,0.00067776,0.0439324,1910,1009,7.1827,-0.92934
693,15,7.05908,0.934753,-0.000935805,-0.000407794,6.29826e-05,-0.000400386,-0.000943213,1.4537,0.000546631,0.041697,1917,1009,7.05907,-0.934743
700,15,7.1676,1.06079,-0.0010606,8.06993e-05,0.000250621,0.000133309,-0.00111321,1.36388,0.000790331,0.0306816,1924,1009,7.16759,-1.0608
707,15,7.20264,1.13806,-0.00125472,0.000593631,0.000425788,0.000687,-0.00134809,1.35493,0.00119544,0.0266105,1931,1009,7.20269,-1.13804
714,15,7.17932,1.1297,-0.00136085,0.00074219,0.000623293,0.00091304,-0.0015317,1.30326,0.00142646,0.023129,1938,1009,7.17929,-1.12969
721,15,7.17688,1.13226,-0.00137242,0.000732376,0.000740264,0.000966653,-0.0016067,1.26429,0.00150097,0.0185539,1945,1009,7.17685,-1.13225
728,15,7.10938,1.18396,-0.00154352,0.000717811,0.000786196,0.000964283,-0.00179,1.267,0.00161383,0.0173783,1952,1009,7.1094,-1.18393
735,15,7.09753,1.22107,-0.00194101,0.00068502,0.000708531,0.000863992,-0.00211998,1.32338,0.00177294,0.0151073,1959,1009,7.09751,-1.22108
742,15,7.08643,1.23749,-0.00245148,0.00094861,0.000366316,0.000987628,-0.0024905,1.46468,0.00206964,0.0154157,1966,1009,7.08642,-1.23746
749,15,7.10437,1.23413,-0.00319602,0.000566211,8.07212e-05,0.000567942,-0.00319775,1.54935,0.00234419,0.00983464,1973,1009,7.10431,-1.23413
756,15,7.13184,1.22626,-0.0037445,0.000221754,-2.6553e-05,0.000221931,-0.00374467,-1.5641,0.00257362,0.0112206,1980,1009,7.13183,-1.22623
763,15,7.11169,1.24164,-0.00387708,0.000857287,-9.93337e-05,0.000859371,-0.00387916,-1.54983,0.0029151,0.0104743,1987,1009,7.11174,-1.24161
770,15,7.09644,1.26483,-0.0044137,0.00102242,-0.000106607,0.00102451,-0.00441578,-1.5512,0.00333818,0.0102163,1994,1009,7.09646,-1.26485
777,15,7.05017,1.30139,-0.00486879,0.00132974,7.94357e-05,0.00133076,-0.00486981,1.55798,0.00376926,0.0189749,2001,1009,7.05016,-1.30139
784,15,6.93213,1.35602,-0.0051165,0.00181925,0.00053659,0.00186051,-0.00515777,1.49404,0.00419842,0.0385573,2008,1009,6.93212,-1.35602
791,15,6.82849,1.41669,-0.00483181,0.00261705,0.00136219,0.00285834,-0.0050731,1.39548,0.00463835,0.0472876,2015,1009,6.82843,-1.41666
798,15,6.79321,1.48962,0,0,0,0,0,0,0,-1,2022,1009,6.79327,-1.48965
805,15,6.97119,1.10608,0,0,0,0,0,0,0,-1,2029,1009,6.97123,-1.10609
812,15,8.38098,1.26648,0,0,0,0,0,0,0,-1,2036,1009,8.38099,-1.2665
-700,8,0,0,0,0,0,0,0,0,0,-1,524,1016,0,0
-693,8,-2.13849,0.922791,-0.12436,0.00730384,0.0246014,0.0117504,-0.128806,1.39198,0.0900436,0.0451977,531,1016,-2.13848,-0.92277
-686,8,-3.19568,0.929932,-0.101316,0.0070448,0.0218912,0.0113002,-0.105571,1.3788,0.0744341,0.0468561,538,1016,-3.19569,-0.92991
-679,8,-4.15619,1.04193,0,0,0,0,0,0,0,-1,545,1016,-4.15621,-1.0419
-672,8,-1.44647,1.33978,0,0,0,0,0,0,0,-1,552,1016,-1.44646,-1.33977
-665,8,-2.69989,0.813049,0,0,0,0,0,0,0,-1,559,1016,-2.69991,-0.813053
-658,8,-2.63757,0.831787,-0.0372494,0.00312147,0.0102712,0.00558442,-0.0397123,1.33545,0.0285192,0.0375752,566,1016,-2.63756,-0.831818
-651,8,-2.66644,0.858521,-0.0273346,0.00224595,0.0078952,0.00422131,-0.02931,1.32563,0.0210884,0.0192065,573,1016,-2.66643,-0.858501
-644,8,-2.71887,0.87323,-0.0194788,0.00153,0.00583562,0.00304213,-0.0209909,1.31725,0.0151104,0.0129051,580,1016,-2.7189,-0.873212
-637,8,-2.72546,0.861694,-0.0124081,0.00117843,0.00432636,0.0024391,-0.0136687,1.28725,0.0100249,0.0116205,587,1016,-2.72548,-0.861664
-630,8,-2.72516,0.852295,-0.00734922,0.000806767,0.00275986,0.00165288,-0.00819534,1.27331,0.00608976,0.011434,594,1016,-2.72519,-0.852277
-623,8,-2.73663,0.846741,-0.00438999,0.000177844,0.00112959,0.000441919,-0.00465406,1.34114,0.00326001,0.0120753,601,1016,-2.73664,-0.846723
-616,8,-2.74249,0.83313,-0.00268719,-0.000245494,0.000425979,-0.000173312,-0.00275937,1.40294,0.00178462,0.0116118,608,1016,-2.74249,-0.833146
-609,8,-2.71228,0.834106,-0.00143896,1.51563e-05,2.57245e-05,1.56113e-05,-0.00143942,1.55311,0.000964856,0.0157471,615,1016,-2.71225,-0.834116
-602,8,-2.73132,0.826172,-0.000965379,0.000266257,-0.000312737,0.000341117,-0.00104024,-1.33585,0.000830877,0.0202694,622,1016,-2.73131,-0.826196
-595,8,-2.75537,0.776123,-0.000876705,0.000229013,-0.000658533,0.00053599,-0.00118368,-1.13459,0.00101606,0.016669,629,1016,-2.75536,-0.77614
-588,8,-2.74286,0.733215,-0.0010675,0.000302216,-0.000708111,0.000602473,-0.00136776,-1.16975,0.00116577,0.0190749,636,1016,-2.74287,-0.733191
-581,8,-2.73126,0.79071,-0.00134231,0.000367232,-0.000610407,0.000562808,-0.00153789,-1.26073,0.00125563,0.0280149,643,1016,-2.73128,-0.790703
-574,8,-2.7287,0.835632,-0.0015528,0.000506549,-0.000573197,0.000655341,-0.00170159,-1.31682,0.00140476,0.0353114,650,1016,-2.72871,-0.835619
-567,8,-2.75458,0.825012,-0.0019504,0.000671971,-0.000435008,0.000742248,-0.00202068,-1.41063,0.00165112,0.0380509,657,1016,-2.75457,-0.824992
-560,8,-2.67041,0.977539,-0.00244074,0.000882596,-0.000205268,0.000895226,-0.00245337,-1.50934,0.00200187,0.0381153,664,1016,-2.67042,-0.977564
-553,8,-2.66016,1.08948,-0.00300618,0.00113648,0.000129442,0.00114052,-0.00301022,1.53959,0.00247615,0.0409468,671,1016,-2.66014,-1.08946
-546,8,-2.89496,0.606934,-0.00365372,0.00143848,0.000579016,0.00150349,-0.00371873,1.45899,0.00310415,0.040159,678,1016,-2.89497,-0.606909
-539,8,-3.01721,0.781494,0,0,0,0,0,0,0,-1,685,1016,-3.0172,-0.781469
-532,8,-2.66687,1.17401,0,0,0,0,0,0,0,-1,692,1016,-2.6669,-1.17403
-525,8,0,0,0,0,0,0,0,0,0,-1,699,1016,0,0
-518,8,0,0,0,0,0,0,0,0,0,-1,706,1016,0,0
-511,8,0,0,0,0,0,0,0,0,0,-1,713,1016,0,0
-504,8,0,0,0,0,0,0,0,0,0,-1,720,1016,0,0
-497,8,0,0,0,0,0,0,0,0,0,-1,727,1016,0,0
-490,8,0,0,0,0,0,0,0,0,0,-1,734,1016,0,0
-483,8,0,0,0,0,0,0,0,0,0,-1,741,1016,0,0
-476,8,0,0,0,0,0,0,0,0,0,-1,748,1016,0,0
-469,8,0,0,0,0,0,0,0,0,0,-1,755,1016,0,0
-462,8,0,0,0,0,0,0,0,0,0,-1,762,1016,0,0
-455,8,0,0,0,0,0,0,0,0,0,-1,769,1016,0,0
-448,8,0,0,0,0,0,0,0,0,0,-1,776,1016,0,0
-441,8,0,0,0,0,0,0,0,0,0,-1,783,1016,0,0
-434,8,0,0,0,0,0,0,0,0,0,-1,790,1016,0,0
-427,8,0,0,0,0,0,0,0,0,0,-1,797,1016,0,0
-420,8,0,0,0,0,0,0,0,0,0,-1,804,1016,0,0
-413,8,0,0,0,0,0,0,0,0,0,-1,811,1016,0,0
-406,8,0,0,0,0,0,0,0,0,0,-1,818,1016,0,0
-399,8,0,0,0,0,0,0,0,0,0,-1,825,1016,0,0
-392,8,0,0,0,0,0,0,0,0,0,-1,832,1016,0,0
-385,8,0,0,0,0,0,0,0,0,0,-1,839,1016,0,0
-378,8,0,0,0,0,0,0,0,0,0,-1,846,1016,0,0
-371,8,0,0,0,0,0,0,0,0,0,-1,853,1016,0,0
-364,8,0,0,0,0,0,0,0,0,0,-1,860,1016,0,0
-357,8,0,0,0,0,0,0,0,0,0,-1,867,1016,0,0
-350,8,0,0,0,0,0,0,0,0,0,-1,874,1016,0,0
-343,8,0,0,0,0,0,0,0,0,0,-1,881,1016,0,0
-336,8,0,0,0,0,0,0,0,0,0,-1,888,1016,0,0
-329,8,0,0,0,0,0,0,0,0,0,-1,895,1016,0,0
-322,8,0,0,0,0,0,0,0,0,0,-1,902,1016,0,0
-315,8,0,0,0,0,0,0,0,0,0,-1,909,1016,0,0
-308,8,0,0,0,0,0,0,0,0,0,-1,916,1016,0,0
-301,8,0,0,0,0,0,0,0,0,0,-1,923,1016,0,0
-294,8,0,0,0,0,0,0,0,0,0,-1,930,1016,0,0
-287,8,0,0,0,0,0,0,0,0,0,-1,937,1016,0,0
-280,8,0,0,0,0,0,0,0,0,0,-1,944,1016,0,0
-273,8,0,0,0,0,0,0,0,0,0,-1,951,1016,0,0
-266,8,0,0,0,0,0,0,0,0,0,-1,958,1016,0,0
-259,8,0,0,0,0,0,0,0,0,0,-1,965,1016,0,0
-252,8,0,0,0,0,0,0,0,0,0,-1,972,1016,0,0
-245,8,0,0,0,0,0,0,0,0,0,-1,979,1016,0,0
-238,8,0,0,0,0,0,0,0,0,0,-1,986,1016,0,0
-231,8,0,0,0,0,0,0,0,0,0,-1,993,1016,0,0
-224,8,0,0,0,0,0,0,0,0,0,-1,1000,1016,0,0
-217,8,0,0,0,0,0,0,0,0,0,-1,1007,1016,0,0
-210,8,0,0,0,0,0,0,0,0,0,-1,1014,1016,0,0
-203,8,0,0,0,0,0,0,0,0,0,-1,1021,1016,0,0
-196,8,0,0,0,0,0,0,0,0,0,-1,1028,1016,0,0
-189,8,0,0,0,0,0,0,0,0,0,-1,1035,1016,0,0
-182,8,0,0,0,0,0,0,0,0,0,-1,1042,1016,0,0
-175,8,0,0,0,0,0,0,0,0,0,-1,1049,1016,0,0
-168,8,0,0,0,0,0,0,0,0,0,-1,1056,1016,0,0
-161,8,0,0,0,0,0,0,0,0,0,-1,1063,1016,0,0
-154,8,0,0,0,0,0,0,0,0,0,-1,1070,1016,0,0
-147,8,0,0,0,0,0,0,0,0,0,-1,1077,1016,0,0
-140,8,0,0,0,0,0,0,0,0,0,-1,1084,1016,0,0
-133,8,0,0,0,0,0,0,0,0,0,-1,1091,1016,0,0
-126,8,0,0,0,0,0,0,0,0,0,-1,1098,1016,0,0
-119,8,0,0,0,0,0,0,0,0,0,-1,1105,1016,0,0
-112,8,0,0,0,0,0,0,0,0,0,-1,1112,1016,0,0
-105,8,0,0,0,0,0,0,0,0,0,-1,1119,1016,0,0
-98,8,0,0,0,0,0,0,0,0,0,-1,1126,1016,0,0
-91,8,0,0,0,0,0,0,0,0,0,-1,1133,1016,0,0
-84,8,0,0,0,0,0,0,0,0,0,-1,1140,1016,0,0
-77,8,0,0,0,0,0,0,0,0,0,-1,1147,1016,0,0
-70,8,0,0,0,0,0,0,0,0,0,-1,1154,1016,0,0
-63,8,0,0,0,0,0,0,0,0,0,-1,1161,1016,0,0
-56,8,0,0,0,0,0,0,0,0,0,-1,1168,1016,0,0
-49,8,0,0,0,0,0,0,0,0,0,-1,1175,1016,0,0
-42,8,0,0,0,0,0,0,0,0,0,-1,1182,1016,0,0
-35,8,0,0,0,0,0,0,0,0,0,-1,1189,1016,0,0
-28,8,0,0,0,0,0,0,0,0,0,-1,1196,1016,0,0
-21,8,0,0,0,0,0,0,0,0,0,-1,1203,1016,0,0
-14,8,0,0,0,0,0,0,0,0,0,-1,1210,1016,0,0
-7,8,0,0,0,0,0,0,0,0,0,-1,1217,1016,0,0
0,8,0,0,0,0,0,0,0,0,0,-1,1224,1016,0,0
7,8,0,0,0,0,0,0,0,0,0,-1,1231,1016,0,0
14,8,0,0,0,0,0,0,0,0,0,-1,1238,1016,0,0
21,8,0,0,0,0,0,0,0,0,0,-1,1245,1016,0,0
28,8,0,0,0,0,0,0,0,0,0,-1,1252,1016,0,0
35,8,0,0,0,0,0,0,0,0,0,-1,1259,1016,0,0
42,8,0,0,0,0,0,0,0,0,0,-1,1266,1016,0,0
49,8,0,0,0,0,0,0,0,0,0,-1,1273,1016,0,0
56,8,0,0,0,0,0,0,0,0,0,-1,1280,1016,0,0
63,8,0,0,0,0,0,0,0,0,0,-1,1287,1016,0,0
70,8,0,0,0,0,0,0,0,0,0,-1,1294,1016,0,0
77,8,0,0,0,0,0,0,0,0,0,-1,1301,1016,0,0
84,8,0,0,0,0,0,0,0,0,0,-1,1308,1016,0,0
91,8,0,0,0,0,0,0,0,0,0,-1,1315,1016,0,0
98,8,0,0,0,0,0,0,0,0,0,-1,1322,1016,0,0
105,8,0,0,0,0,0,0,0,0,0,-1,1329,1016,0,0
112,8,0,0,0,0,0,0,0,0,0,-1,1336,1016,0,0
119,8,0,0,0,0,0,0,0,0,0,-1,1343,1016,0,0
126,8,0,0,0,0,0,0,0,0,0,-1,1350,1016,0,0
133,8,0,0,0,0,0,0,0,0,0,-1,1357,1016,0,0
140,8,0,0,0,0,0,0,0,0,0,-1,1364,1016,0,0
147,8,0,0,0,0,0,0,0,0,0,-1,1371,1016,0,0
154,8,0,0,0,0,0,0,0,0,0,-1,1378,1016,0,0
161,8,0,0,0,0,0,0,0,0,0,-1,1385,1016,0,0
168,8,0,0,0,0,0,0,0,0,0,-1,1392,1016,0,0
175,8,0,0,0,0,0,0,0,0,0,-1,1399,1016,0,0
182,8,0,0,0,0,0,0,0,0,0,-1,1406,1016,0,0
189,8,0,0,0,0,0,0,0,0,0,-1,1413,1016,0,0
196,8,0,0,0,0,0,0,0,0,0,-1,1420,1016,0,0
203,8,0,0,0,0,0,0,0,0,0,-1,1427,1016,0,0
210,8,0,0,0,0,0,0,0,0,0,-1,1434,1016,0,0
217,8,0,0,0,0,0,0,0,0,0,-1,1441,1016,0,0
224,8,0,0,0,0,0,0,0,0,0,-1,1448,1016,0,0
231,8,0,0,0,0,0,0,0,0,0,-1,1455,1016,0,0
238,8,0,0,0,0,0,0,0,0,0,-1,1462,1016,0,0
245,8,0,0,0,0,0,0,0,0,0,-1,1469,1016,0,0
252,8,0,0,0,0,0,0,0,0,0,-1,1476,1016,0,0
259,8,0,0,0,0,0,0,0,0,0,-1,1483,1016,0,0
266,8,0,0,0,0,0,0,0,0,0,-1,1490,1016,0,0
273,8,0,0,0,0,0,0,0,0,0,-1,1497,1016,0,0
280,8,0,0,0,0,0,0,0,0,0,-1,1504,1016,0,0
287,8,0,0,0,0,0,0,0,0,0,-1,1511,1016,0,0
294,8,0,0,0,0,0,0,0,0,0,-1,1518,1016,0,0
301,8,0,0,0,0,0,0,0,0,0,-1,1525,1016,0,0
308,8,0,0,0,0,0,0,0,0,0,-1,1532,1016,0,0
315,8,0,0,0,0,0,0,0,0,0,-1,1539,1016,0,0
322,8,0,0,0,0,0,0,0,0,0,-1,1546,1016,0,0
329,8,0,0,0,0,0,0,0,0,0,-1,1553,1016,0,0
336,8,0,0,0,0,0,0,0,0,0,-1,1560,1016,0,0
343,8,0,0,0,0,0,0,0,0,0,-1,1567,1016,0,0
350,8,0,0,0,0,0,0,0,0,0,-1,1574,1016,0,0
357,8,0,0,0,0,0,0,0,0,0,-1,1581,1016,0,0
364,8,0,0,0,0,0,0,0,0,0,-1,1588,1016,0,0
371,8,0,0,0,0,0,0,0,0,0,-1,1595,1016,0,0
378,8,0,0,0,0,0,0,0,0,0,-1,1602,1016,0,0
385,8,0,0,0,0,0,0,0,0,0,-1,1609,1016,0,0
392,8,0,0,0,0,0,0,0,0,0,-1,1616,1016,0,0
399,8,0,0,0,0,0,0,0,0,0,-1,1623,1016,0,0
406,8,0,0,0,0,0,0,0,0,0,-1,1630,1016,0,0
413,8,0,0,0,0,0,0,0,0,0,-1,1637,1016,0,0
420,8,0,0,0,0,0,0,0,0,0,-1,1644,1016,0,0
427,8,0,0,0,0,0,0,0,0,0,-1,1651,1016,0,0
434,8,0,0,0,0,0,0,0,0,0,-1,1658,1016,0,0
441,8,0,0,0,0,0,0,0,0,0,-1,1665,1016,0,0
448,8,0,0,0,0,0,0,0,0,0,-1,1672,1016,0,0
455,8,0,0,0,0,0,0,0,0,0,-1,1679,1016,0,0
462,8,0,0,0,0,0,0,0,0,0,-1,1686,1016,0,0
469,8,0,0,0,0,0,0,0,0,0,-1,1693,1016,0,0
476,8,0,0,0,0,0,0,0,0,0,-1,1700,1016,0,0
483,8,0,0,0,0,0,0,0,0,0,-1,1707,1016,0,0
490,8,0,0,0,0,0,0,0,0,0,-1,1714,1016,0,0
497,8,0,0,0,0,0,0,0,0,0,-1,1721,1016,0,0
504,8,0,0,0,0,0,0,0,0,0,-1,1728,1016,0,0
511,8,0,0,0,0,0,0,0,0,0,-1,1735,1016,0,0
518,8,0,0,0,0,0,0,0,0,0,-1,1742,1016,0,0
525,8,0,0,0,0,0,0,0,0,0,-1,1749,1016,0,0
532,8,0,0,0,0,0,0,0,0,0,-1,1756,1016,0,0
539,8,0,0,0,0,0,0,0,0,0,-1,1763,1016,0,0
546,8,0,0,0,0,0,0,0,0,0,-1,1770,1016,0,0
553,8,0,0,0,0,0,0,0,0,0,-1,1777,1016,0,0
560,8,0,0,0,0,0,0,0,0,0,-1,1784,1016,0,0
567,8,0,0,0,0,0,0,0,0,0,-1,1791,1016,0,0
574,8,0,0,0,0,0,0,0,0,0,-1,1798,1016,0,0
581,8,0,0,0,0,0,0,0,0,0,-1,1805,1016,0,0
588,8,0,0,0,0,0,0,0,0,0,-1,1812,1016,0,0
595,8,0,0,0,0,0,0,0,0,0,-1,1819,1016,0,0
602,8,0,0,0,0,0,0,0,0,0,-1,1826,1016,0,0
609,8,0,0,0,0,0,0,0,0,0,-1,1833,1016,0,0
616,8,0,0,0,0,0,0,0,0,0,-1,1840,1016,0,0
623,8,0,0,0,0,0,0,0,0,0,-1,1847,1016,0,0
630,8,0,0,0,0,0,0,0,0,0,-1,1854,1016,0,0
637,8,0,0,0,0,0,0,0,0,0,-1,1861,1016,0,0
644,8,7.13293,0.754639,0.000793196,-0.0107032,0.00285734,0.0014642,-0.0113742,0.230657,0.008115,0.0416853,1868,1016,7.13292,-0.754638
651,8,7.14404,0.876038,6.50156e-05,-0.00779731,0.00111522,0.000220142,-0.00795244,0.138212,0.00537651,0.039875,1875,1016,7.144,-0.876066
658,8,7.11511,0.997131,-0.000196793,-0.00555841,0.000204771,-0.000188984,-0.00556622,0.0381179,0.00364945,0.0405198,1882,1016,7.11516,-0.997128
665,8,7.18469,1.10968,-0.000362573,-0.00374734,-0.000242076,-0.000345347,-0.00376457,-0.0710374,0.00240288,0.0412468,1889,1016,7.18468,-1.10969
672,8,7.31628,1.13062,-0.000520867,-0.00230491,-0.000363258,-0.000449737,-0.00237604,-0.193362,0.00145743,0.0388663,1896,1016,7.31625,-1.13062
679,8,7.19946,1.2066,-0.000713686,-0.00122688,-0.000258986,-0.000605707,-0.00133486,-0.395016,0.000771779,0.0373552,1903,1016,7.19947,-1.20658
686,8,7.08362,1.09753,-0.000863939,-0.000456147,-3.89443e-05,-0.000452461,-0.000867625,-1.47643,0.000501078,0.042059,1910,1016,7.08366,-1.09755
693,8,7.08923,0.983704,-0.000993236,6.43881e-05,0.000218973,0.000107932,-0.00103678,1.3745,0.000729829,0.0404777,1917,1016,7.08925,-0.983698
700,8,7.21448,1.05695,-0.00106142,0.000443815,0.000400635,0.000543807,-0.00116141,1.32621,0.0010058,0.0297389,1924,1016,7.21447,-1.05697
707,8,7.23657,1.05225,-0.00120671,0.000833056,0.000566648,0.0009799,-0.00135355,1.31723,0.00135297,0.0222248,1931,1016,7.23662,-1.05224
714,8,7.19287,1.0188,-0.00127184,0.000896762,0.000753689,0.00113297,-0.00150805,1.26708,0.00152991,0.021165,1938,1016,7.19286,-1.01879
721,8,7.20667,1.09814,-0.00125758,0.000831805,0.000858333,0.00113919,-0.00156496,1.22691,0.00156768,0.0183387,1945,1016,7.20669,-1.09817
728,8,7.13403,1.18988,-0.00136647,0.000771136,0.000901138,0.00110033,-0.00169566,1.22055,0.00162642,0.0150973,1952,1016,7.13407,-1.18988
735,8,7.09045,1.21484,-0.00166157,0.000714154,0.000796783,0.000956635,-0.00190405,1.27538,0.00168154,0.0160378,1959,1016,7.0904,-1.21486
742,8,7.08447,1.21588,-0.00202788,0.000933897,0.000403547,0.000987897,-0.00208188,1.43777,0.00180946,0.0134511,1966,1016,7.08443,-1.21587
749,8,7.10596,1.22107,-0.00256303,0.000567172,-5.30559e-05,0.000568071,-0.00256393,-1.55385,0.00192676,0.00956729,1973,1016,7.10598,-1.22105
756,8,7.14722,1.23248,-0.0028315,0.000366544,-0.000417702,0.0004202,-0.00288515,-1.44304,0.00207772,0.0117959,1980,1016,7.14717,-1.23248
763,8,7.11255,1.24591,-0.00258725,0.00113612,-0.000711299,0.00126738,-0.00271851,-1.38832,0.00235154,0.0120629,1987,1016,7.11257,-1.24591
770,8,7.09583,1.2478,-0.00265028,0.00148086,-0.00107466,0.0017437,-0.00291312,-1.33093,0.00271672,0.0129892,1994,1016,7.09584,-1.24781
777,8,7.0929,1.26965,-0.00248313,0.0020711,-0.00135358,0.00244302,-0.00285505,-1.30264,0.00306193,0.0168336,2001,1016,7.09287,-1.26964
784,8,7.11084,1.19904,-0.00193901,0.00298407,-0.00147891,0.00339418,-0.00234912,-1.30029,0.00333414,0.0352118,2008,1016,7.11085,-1.19904
791,8,7.18555,1.04553,-0.00067707,0.00439251,-0.00138359,0.00474553,-0.0010301,-1.32097,0.00355712,0.0459458,2015,1016,7.18549,-1.04556
798,8,7.14429,1.01532,0.00171925,0.00657929,-0.00100334,0.00677828,0.00152026,-1.37501,0.00410699,0.046517,2022,1016,7.1443,-1.01531
805,8,7.06531,0.8526,0.00578351,0.00997177,-0.000230614,0.00998443,0.00577085,-1.51596,0.00578784,0.0464303,2029,1016,7.0653,-0.852612
812,8,8.02661,1.35114,0.0121985,0.0152276,0.00110021,0.015585,0.0118411,1.25667,0.0093941,0.0430915,2036,1016,8.02661,-1.35115
-700,1,0,0,0,0,0,0,0,0,0,-1,524,1023,0,0
-693,1,-2.61237,0.684753,0,0,0,0,0,0,0,-1,531,1023,-2.61238,-0.684776
-686,1,-3.58868,1.29919,0,0,0,0,0,0,0,-1,538,1023,-3.58868,-1.29922
-679,1,-0.492554,0.777893,0,0,0,0,0,0,0,-1,545,1023,-0.492539,-0.777871
-672,1,-1.69769,1.28088,-0.0655551,0.0051516,0.0186977,0.00979154,-0.0701951,1.32755,0.0503788,0.0463648,552,1023,-1.69769,-1.28091
-665,1,-2.12061,1.2041,-0.0504772,0.00401379,0.0150091,0.00787441,-0.0543378,1.31904,0.0391151,0.045294,559,1023,-2.12059,-1.20413
-658,1,-2.8092,0.901001,-0.0378815,0.00302299,0.0117124,0.00613923,-0.0409978,1.31076,0.0295913,0.0334526,566,1023,-2.80921,-0.90103
-651,1,-2.73322,0.882263,-0.0276473,0.00219415,0.00884196,0.00461725,-0.0300704,1.30332,0.02175,0.015503,573,1023,-2.7332,-0.882275
-644,1,-2.72906,0.877441,-0.0195677,0.00151678,0.00641511,0.00331523,-0.0213661,1.29747,0.0154681,0.013189,580,1023,-2.72906,-0.87747
-637,1,-2.71039,0.855591,-0.0124809,0.00108364,0.00458376,0.00248734,-0.0138846,1.27363,0.0101872,0.0118302,587,1023,-2.7104,-0.855561
-630,1,-2.73785,0.815552,-0.00728812,0.00076137,0.00282532,0.00165404,-0.0081808,1.26477,0.00608067,0.0135066,594,1023,-2.73785,-0.815579
-623,1,-2.75464,0.817261,-0.0041378,0.000340187,0.00103559,0.000568082,-0.0043657,1.35419,0.00311713,0.0121953,601,1023,-2.75465,-0.817233
-616,1,-2.75879,0.827576,-0.00243973,-0.000251784,0.000292552,-0.000213342,-0.00247817,1.44014,0.00158579,0.0139506,608,1023,-2.75878,-0.827575
-609,1,-2.74487,0.835693,-0.00115871,-4.00496e-05,-0.000157558,-1.8282e-05,-0.00118048,-1.43351,0.000780965,0.0157641,615,1023,-2.74489,-0.835705
-602,1,-2.74524,0.805481,-0.000686872,0.000202315,-0.000462492,0.000399252,-0.000883809,-1.16823,0.00075818,0.0120072,622,1023,-2.74526,-0.805465
-595,1,-2.74194,0.784546,-0.000681865,0.00015776,-0.000758789,0.000605128,-0.00112923,-1.03807,0.00101646,0.0104409,629,1023,-2.74193,-0.784573
-588,1,-2.74426,0.808594,-0.00094226,0.00024577,-0.000768421,0.000623004,-0.00131949,-1.11444,0.00114528,0.0159394,636,1023,-2.74427,-0.808572
-581,1,-2.76782,0.830872,-0.00128645,0.00032662,-0.000616501,0.000535255,-0.00149509,-1.24448,0.0012151,0.0250226,643,1023,-2.76782,-0.83085
-574,1,-2.79913,0.858582,-0.00161845,0.000474929,-0.00050916,0.0005922,-0.00173572,-1.34442,0.00139703,0.0358686,650,1023,-2.7991,-0.858587
-567,1,-2.74457,0.789673,-0.00215723,0.000657284,-0.00027486,0.000683875,-0.00218383,-1.47435,0.00172951,0.0408218,657,1023,-2.74458,-0.789651
-560,1,-2.67603,0.829651,-0.00284736,0.000883921,8.31205e-05,0.000885772,-0.00284921,1.54853,0.00225352,0.0399058,664,1023,-2.67605,-0.829646
-553,1,-2.66144,0.937256,-0.0036886,0.00115256,0.000577139,0.00122041,-0.00375646,1.45377,0.00299517,0.0385842,671,1023,-2.66145,-0.937246
-546,1,-2.7215,0.855896,-0.00471303,0.00146795,0.00121752,0.00169913,-0.00494421,1.38315,0.00398514,0.0387063,678,1023,-2.72148,-0.855898
-539,1,-2.73492,1.00897,-0.00586994,0.00181914,0.00201518,0.00231527,-0.00636607,1.3294,0.00519087,0.0407734,685,1023,-2.73493,-1.00897
-532,1,-2.69897,1.19922,-0.00715862,0.00225768,0.00299042,0.0031271,-0.00802804,1.28786,0.00664438,0.0415295,692,1023,-2.69895,-1.19925
-525,1,0,0,0,0,0,0,0,0,0,-1,699,1023,0,0
-518,1,0,0,0,0,0,0,0,0,0,-1,706,1023,0,0
-511,1,0,0,0,0,0,0,0,0,0,-1,713,1023,0,0
-504,1,0,0,0,0,0,0,0,0,0,-1,720,1023,0,0
-497,1,0,0,0,0,0,0,0,0,0,-1,727,1023,0,0
-490,1,0,0,0,0,0,0,0,0,0,-1,734,1023,0,0
-483,1,0,0,0,0,0,0,0,0,0,-1,741,1023,0,0
-476,1,0,0,0,0,0,0,0,0,0,-1,748,1023,0,0
-469,1,0,0,0,0,0,0,0,0,0,-1,755,1023,0,0
-462,1,0,0,0,0,0,0,0,0,0,-1,762,1023,0,0
-455,1,0,0,0,0,0,0,0,0,0,-1,769,1023,0,0
-448,1,0,0,0,0,0,0,0,0,0,-1,776,1023,0,0
-441,1,0,0,0,0,0,0,0,0,0,-1,783,1023,0,0
-434,1,0,0,0,0,0,0,0,0,0,-1,790,1023,0,0
-427,1,0,0,0,0,0,0,0,0,0,-1,797,1023,0,0
-420,1,0,0,0,0,0,0,0,0,0,-1,804,1023,0,0
-413,1,0,0,0,0,0,0,0,0,0,-1,811,1023,0,0
-406,1,0,0,0,0,0,0,0,0,0,-1,818,1023,0,0
-399,1,0,0,0,0,0,0,0,0,0,-1,825,1023,0,0
-392,1,0,0,0,0,0,0,0,0,0,-1,832,1023,0,0
-385,1,0,0,0,0,0,0,0,0,0,-1,839,1023,0,0
-378,1,0,0,0,0,0,0,0,0,0,-1,846,1023,0,0
-371,1,0,0,0,0,0,0,0,0,0,-1,853,1023,0,0
-364,1,0,0,0,0,0,0,0,0,0,-1,860,1023,0,0
-357,1,0,0,0,0,0,0,0,0,0,-1,867,1023,0,0
-350,1,0,0,0,0,0,0,0,0,0,-1,874,1023,0,0
-343,1,0,0,0,0,0,0,0,0,0,-1,881,1023,0,0
-336,1,0,0,0,0,0,0,0,0,0,-1,888,1023,0,0
-329,1,0,0,0,0,0,0,0,0,0,-1,895,1023,0,0
-322,1,0,0,0,0,0,0,0,0,0,-1,902,1023,0,0
-315,1,0,0,0,0,0,0,0,0,0,-1,909,1023,0,0
-308,1,0,0,0,0,0,0,0,0,0,-1,916,1023,0,0
-301,1,0,0,0,0,0,0,0,0,0,-1,923,1023,0,0
-294,1,0,0,0,0,0,0,0,0,0,-1,930,1023,0,0
-287,1,0,0,0,0,0,0,0,0,0,-1,937,1023,0,0
-280,1,0,0,0,0,0,0,0,0,0,-1,944,1023,0,0
-273,1,0,0,0,0,0,0,0,0,0,-1,951,1023,0,0
-266,1,0,0,0,0,0,0,0,0,0,-1,958,1023,0,0
-259,1,0,0,0,0,0,0,0,0,0,-1,965,1023,0,0
-252,1,0,0,0,0,0,0,0,0,0,-1,972,1023,0,0
-245,1,0,0,0,0,0,0,0,0,0,-1,979,1023,0,0
-238,1,0,0,0,0,0,0,0,0,0,-1,986,1023,0,0
-231,1,0,0,0,0,0,0,0,0,0,-1,993,1023,0,0
-224,1,0,0,0,0,0,0,0,0,0,-1,1000,1023,0,0
-217,1,0,0,0,0,0,0,0,0,0,-1,1007,1023,0,0
-210,1,0,0,0,0,0,0,0,0,0,-1,1014,1023,0,0
-203,1,0,0,0,0,0,0,0,0,0,-1,1021,1023,0,0
-196,1,0,0,0,0,0,0,0,0,0,-1,1028,1023,0,0
-189,1,0,0,0,0,0,0,0,0,0,-1,1035,1023,0,0
-182,1,0,0,0,0,0,0,0,0,0,-1,1042,1023,0,0
-175,1,0,0,0,0,0,0,0,0,0,-1,1049,1023,0,0
-168,1,0,0,0,0,0,0,0,0,0,-1,1056,1023,0,0
-161,1,0,0,0,0,0,0,0,0,0,-1,1063,1023,0,0
-154,1,0,0,0,0,0,0,0,0,0,-1,1070,1023,0,0
-147,1,0,0,0,0,0,0,0,0,0,-1,1077,1023,0,0
-140,1,0,0,0,0,0,0,0,0,0,-1,1084,1023,0,0
-133,1,0,0,0,0,0,0,0,0,0,-1,1091,1023,0,0
-126,1,0,0,0,0,0,0,0,0,0,-1,1098,1023,0,0
-119,1,0,0,0,0,0,0,0,0,0,-1,1105,1023,0,0
-112,1,0,0,0,0,0,0,0,0,0,-1,1112,1023,0,0
-105,1,0,0,0,0,0,0,0,0,0,-1,1119,1023,0,0
-98,1,0,0,0,0,0,0,0,0,0,-1,1126,1023,0,0
-91,1,0,0,0,0,0,0,0,0,0,-1,1133,1023,0,0
-84,1,0,0,0,0,0,0,0,0,0,-1,1140,1023,0,0
-77,1,0,0,0,0,0,0,0,0,0,-1,1147,1023,0,0
-70,1,0,0,0,0,0,0,0,0,0,-1,1154,1023,0,0
-63,1,0,0,0,0,0,0,0,0,0,-1,1161,1023,0,0
-56,1,0,0,0,0,0,0,0,0,0,-1,1168,1023,0,0
-49,1,0,0,0,0,0,0,0,0,0,-1,1175,1023,0,0
-42,1,0,0,0,0,0,0,0,0,0,-1,1182,1023,0,0
-35,1,0,0,0,0,0,0,0,0,0,-1,1189,1023,0,0
-28,1,0,0,0,0,0,0,0,0,0,-1,1196,1023,0,0
-21,1,0,0,0,0,0,0,0,0,0,-1,1203,1023,0,0
-14,1,0,0,0,0,0,0,0,0,0,-1,1210,1023,0,0
-7,1,0,0,0,0,0,0,0,0,0,-1,1217,1023,0,0
0,1,0,0,0,0,0,0,0,0,0,-1,1224,1023,0,0
7,1,0,0,0,0,0,0,0,0,0,-1,1231,1023,0,0
14,1,0,0,0,0,0,0,0,0,0,-1,1238,1023,0,0
21,1,0,0,0,0,0,0,0,0,0,-1,1245,1023,0,0
28,1,0,0,0,0,0,0,0,0,0,-1,1252,1023,0,0
35,1,0,0,0,0,0,0,0,0,0,-1,1259,1023,0,0
42,1,0,0,0,0,0,0,0,0,0,-1,1266,1023,0,0
49,1,0,0,0,0,0,0,0,0,0,-1,1273,1023,0,0
56,1,0,0,0,0,0,0,0,0,0,-1,1280,1023,0,0
63,1,0,0,0,0,0,0,0,0,0,-1,1287,1023,0,0
70,1,0,0,0,0,0,0,0,0,0,-1,1294,1023,0,0
77,1,0,0,0,0,0,0,0,0,0,-1,1301,1023,0,0
84,1,0,0,0,0,0,0,0,0,0,-1,1308,1023,0,0
91,1,0,0,0,0,0,0,0,0,0,-1,1315,1023,0,0
98,1,0,0,0,0,0,0,0,0,0,-1,1322,1023,0,0
105,1,0,0,0,0,0,0,0,0,0,-1,1329,1023,0,0
112,1,0,0,0,0,0,0,0,0,0,-1,1336,1023,0,0
119,1,0,0,0,0,0,0,0,0,0,-1,1343,1023,0,0
126,1,0,0,0,0,0,0,0,0,0,-1,1350,1023,0,0
133,1,0,0,0,0,0,0,0,0,0,-1,1357,1023,0,0
140,1,0,0,0,0,0,0,0,0,0,-1,1364,1023,0,0
147,1,0,0,0,0,0,0,0,0,0,-1,1371,1023,0,0
154,1,0,0,0,0,0,0,0,0,0,-1,1378,1023,0,0
161,1,0,0,0,0,0,0,0,0,0,-1,1385,1023,0,0
168,1,0,0,0,0,0,0,0,0,0,-1,1392,1023,0,0
175,1,0,0,0,0,0,0,0,0,0,-1,1399,1023,0,0
182,1,0,0,0,0,0,0,0,0,0,-1,1406,1023,0,0
189,1,0,0,0,0,0,0,0,0,0,-1,1413,1023,0,0
196,1,0,0,0,0,0,0,0,0,0,-1,1420,1023,0,0
203,1,0,0,0,0,0,0,0,0,0,-1,1427,1023,0,0
210,1,0,0,0,0,0,0,0,0,0,-1,1434,1023,0,0
217,1,0,0,0,0,0,0,0,0,0,-1,1441,1023,0,0
224,1,0,0,0,0,0,0,0,0,0,-1,1448,1023,0,0
231,1,0,0,0,0,0,0,0,0,0,-1,1455,1023,0,0
238,1,0,0,0,0,0,0,0,0,0,-1,1462,1023,0,0
245,1,0,0,0,0,0,0,0,0,0,-1,1469,1023,0,0
252,1,0,0,0,0,0,0,0,0,0,-1,1476,1023,0,0
259,1,0,0,0,0,0,0,0,0,0,-1,1483,1023,0,0
266,1,0,0,0,0,0,0,0,0,0,-1,1490,1023,0,0
273,1,0,0,0,0,0,0,0,0,0,-1,1497,1023,0,0
280,1,0,0,0,0,0,0,0,0,0,-1,1504,1023,0,0
287,1,0,0,0,0,0,0,0,0,0,-1,1511,1023,0,0
294,1,0,0,0,0,0,0,0,0,0,-1,1518,1023,0,0
301,1,0,0,0,0,0,0,0,0,0,-1,1525,1023,0,0
308,1,0,0,0,0,0,0,0,0,0,-1,1532,1023,0,0
315,1,0,0,0,0,0,0,0,0,0,-1,1539,1023,0,0
322,1,0,0,0,0,0,0,0,0,0,-1,1546,1023,0,0
329,1,0,0,0,0,0,0,0,0,0,-1,1553,1023,0,0
336,1,0,0,0,0,0,0,0,0,0,-1,1560,1023,0,0
343,1,0,0,0,0,0,0,0,0,0,-1,1567,1023,0,0
350,1,0,0,0,0,0,0,0,0,0,-1,1574,1023,0,0
357,1,0,0,0,0,0,0,0,0,0,-1,1581,1023,0,0
364,1,0,0,0,0,0,0,0,0,0,-1,1588,1023,0,0
371,1,0,0,0,0,0,0,0,0,0,-1,1595,1023,0,0
378,1,0,0,0,0,0,0,0,0,0,-1,1602,1023,0,0
385,1,0,0,0,0,0,0,0,0,0,-1,1609,1023,0,0
392,1,0,0,0,0,0,0,0,0,0,-1,1616,1023,0,0
399,1,0,0,0,0,0,0,0,0,0,-1,1623,1023,0,0
406,1,0,0,0,0,0,0,0,0,0,-1,1630,1023,0,0
413,1,0,0,0,0,0,0,0,0,0,-1,1637,1023,0,0
420,1,0,0,0,0,0,0,0,0,0,-1,1644,1023,0,0
427,1,0,0,0,0,0,0,0,0,0,-1,1651,1023,0,0
434,1,0,0,0,0,0,0,0,0,0,-1,1658,1023,0,0
441,1,0,0,0,0,0,0,0,0,0,-1,1665,1023,0,0
448,1,0,0,0,0,0,0,0,0,0,-1,1672,1023,0,0
455,1,0,0,0,0,0,0,0,0,0,-1,1679,1023,0,0
462,1,0,0,0,0,0,0,0,0,0,-1,1686,1023,0,0
469,1,0,0,0,0,0,0,0,0,0,-1,1693,1023,0,0
476,1,0,0,0,0,0,0,0,0,0,-1,1700,1023,0,0
483,1,0,0,0,0,0,0,0,0,0,-1,1707,1023,0,0
490,1,0,0,0,0,0,0,0,0,0,-1,1714,1023,0,0
497,1,0,0,0,0,0,0,0,0,0,-1,1721,1023,0,0
504,1,0,0,0,0,0,0,0,0,0,-1,1728,1023,0,0
511,1,0,0,0,0,0,0,0,0,0,-1,1735,1023,0,0
518,1,0,0,0,0,0,0,0,0,0,-1,1742,1023,0,0
525,1,0,0,0,0,0,0,0,0,0,-1,1749,1023,0,0
532,1,0,0,0,0,0,0,0,0,0,-1,1756,1023,0,0
539,1,0,0,0,0,0,0,0,0,0,-1,1763,1023,0,0
546,1,0,0,0,0,0,0,0,0,0,-1,1770,1023,0,0
553,1,0,0,0,0,0,0,0,0,0,-1,1777,1023,0,0
560,1,0,0,0,0,0,0,0,0,0,-1,1784,1023,0,0
567,1,0,0,0,0,0,0,0,0,0,-1,1791,1023,0,0
574,1,0,0,0,0,0,0,0,0,0,-1,1798,1023,0,0
581,1,0,0,0,0,0,0,0,0,0,-1,1805,1023,0,0
588,1,0,0,0,0,0,0,0,0,0,-1,1812,1023,0,0
595,1,0,0,0,0,0,0,0,0,0,-1,1819,1023,0,0
602,1,0,0,0,0,0,0,0,0,0,-1,1826,1023,0,0
609,1,0,0,0,0,0,0,0,0,0,-1,1833,1023,0,0
616,1,0,0,0,0,0,0,0,0,0,-1,1840,1023,0,0
623,1,0,0,0,0,0,0,0,0,0,-1,1847,1023,0,0
630,1,0,0,0,0,0,0,0,0,0,-1,1854,1023,0,0
637,1,0,0,0,0,0,0,0,0,0,-1,1861,1023,0,0
644,1,0,0,0,0,0,0,0,0,0,-1,1868,1023,0,0
651,1,7.1521,0.921204,0.000184623,-0.00732813,0.00144902,0.000454414,-0.00759792,0.184081,0.00522335,0.0395388,1875,1023,7.15206,-0.92123
658,1,7.25562,0.968567,-0.000220239,-0.00493969,0.000505398,-0.000166724,-0.00499321,0.105494,0.00327464,0.0425187,1882,1023,7.25567,-0.968597
665,1,7.29346,1.01813,-0.000455562,-0.00309674,-5.79745e-06,-0.000455549,-0.00309675,-0.00219501,0.00193065,0.0435555,1889,1023,7.29348,-1.01814
672,1,7.25293,1.14374,-0.000634991,-0.00168917,-0.00016892,-0.000608584,-0.00171557,-0.155068,0.00100432,0.0403182,1896,1023,7.25296,-1.14376
679,1,7.13452,1.18719,-0.000823223,-0.000685558,-8.7717e-05,-0.000642891,-0.00086589,-1.11807,0.000519145,0.0382978,1903,1023,7.13457,-1.18717
686,1,7.20105,1.09039,-0.000954843,-8.49461e-06,0.000117258,5.818e-06,-0.000969156,1.44934,0.000648052,0.0384696,1910,1023,7.20104,-1.09042
693,1,7.24731,1.13251,-0.00105479,0.00041423,0.000365421,0.000500109,-0.00114067,1.33997,0.000971068,0.0365023,1917,1023,7.24731,-1.13252
700,1,7.24634,1.09875,-0.00108858,0.00071456,0.000547291,0.000867672,-0.00124169,1.29801,0.00122421,0.0302308,1924,1023,7.24639,-1.09875
707,1,7.2207,1.00671,-0.00121027,0.00100648,0.000714727,0.00121694,-0.00142073,1.28443,0.00152437,0.0232971,1931,1023,7.22068,-1.00673
714,1,7.18774,1.01324,-0.00124835,0.000999095,0.000894881,0.00131188,-0.00156114,1.23454,0.00166082,0.0206735,1938,1023,7.18772,-1.01322
721,1,7.19299,1.09747,-0.00119654,0.000879721,0.000982946,0.00127124,-0.00158806,1.19175,0.00165419,0.0190224,1945,1023,7.19293,-1.09749
728,1,7.1261,1.17987,-0.00123139,0.000767695,0.00102658,0.00120097,-0.00166466,1.17142,0.00166168,0.0139756,1952,1023,7.12604,-1.17988
735,1,7.11877,1.20435,-0.00139899,0.000695193,0.000922065,0.00104331,-0.00174711,1.2098,0.00162804,0.0148349,1959,1023,7.11877,-1.20433
742,1,7.10083,1.2074,-0.00157996,0.000859793,0.000500866,0.000958614,-0.00167879,1.376,0.00154151,0.0131571,1966,1023,7.10081,-1.20739
749,1,7.09302,1.22467,-0.00185123,0.00052346,-0.000106394,0.000528218,-0.00185599,-1.52611,0.00144593,0.0111006,1973,1023,7.09303,-1.22467
756,1,7.12,1.23608,-0.0017875,0.000479002,-0.000690026,0.000672549,-0.00198105,-1.29733,0.00159293,0.0109943,1980,1023,7.11995,-1.2361
763,1,7.10962,1.25171,-0.00116637,0.00136397,-0.00117293,0.00182403,-0.00162644,-1.197,0.00199321,0.0127659,1987,1023,7.10956,-1.25169
770,1,7.10168,1.25635,-0.000735185,0.00188607,-0.00183987,0.00283439,-0.00168351,-1.09488,0.00263647,0.0123387,1994,1023,7.10163,-1.25637
777,1,7.11426,1.25317,4.67676e-05,0.00273142,-0.00252311,0.00424705,-0.00146886,-1.02986,0.00342756,0.0133573,2001,1023,7.11421,-1.2532
784,1,7.09814,1.24921,0.00132934,0.00400967,-0.00316122,0.00610307,-0.000764062,-0.985884,0.00434585,0.0332497,2008,1023,7.0982,-1.2492
791,1,7.18958,0.871643,0.00345179,0.00592466,-0.00371833,0.00860674,0.000769714,-0.945909,0.00549924,0.0438074,2015,1023,7.18958,-0.871619
798,1,7.12012,0.789917,0.00683119,0.00879921,-0.00414936,0.0120796,0.00355075,-0.901821,0.00716888,0.0446803,2022,1023,7.12011,-0.789942
805,1,7.49976,0.868469,0.0120108,0.0131113,-0.00435132,0.016947,0.00817509,-0.848295,0.0097864,0.0460427,2029,1023,7.49981,-0.868479
812,1,7.78357,0.87616,0.0196457,0.0195806,-0.00414413,0.0237574,0.0154689,-0.781472,0.0139236,0.0472785,2036,1023,7.78352,-0.876157
-700,-6,0,0,0,0,0,0,0,0,0,-1,524,1030,0,0
-693,-6,1.94928,-1.0481,0,0,0,0,0,0,0,-1,531,1030,1.94925,1.04814
-686,-6,1.01263,-0.35791,0,0,0,0,0,0,0,-1,538,1030,1.01265,0.357951
-679,-6,-0.156128,0.212524,-0.0843698,0.00646177,0.0277826,0.0142857,-0.0921937,1.29629,0.066736,0.0485121,545,1030,-0.156146,-0.212479
-672,-6,-1.61304,1.13782,-0.0663014,0.00515889,0.0223239,0.0115595,-0.072702,1.29157,0.0527451,0.0466801,552,1030,-1.61306,-1.13783
-665,-6,-2.05298,1.14392,-0.0508647,0.0040868,0.0175133,0.00919373,-0.0559716,1.28706,0.0407264,0.0419623,559,1030,-2.053,-1.1439
-658,-6,-2.64429,1.19604,0,0,0,0,0,0,0,-1,566,1030,-2.64428,-1.1961
-651,-6,-2.776,0.909302,-0.0275557,0.00241185,0.00987418,0.00537279,-0.0305167,1.27946,0.0223517,0.0345096,573,1030,-2.77602,-0.909286
-644,-6,-2.73395,0.829102,-0.019371,0.00175163,0.00701923,0.00387144,-0.0214908,1.2775,0.0157768,0.0265202,580,1030,-2.73392,-0.829096
-637,-6,-2.72272,0.838379,-0.0123344,0.00127275,0.00476776,0.00277701,-0.0138387,1.26517,0.0102773,0.0152634,587,1030,-2.72273,-0.838349
-630,-6,-2.74249,0.824951,-0.00713236,0.000873849,0.00285416,0.00178715,-0.00804566,1.2611,0.00604816,0.0128111,594,1030,-2.74252,-0.824918
-623,-6,-2.74359,0.814453,-0.00386188,0.000587938,0.000943535,0.000779737,-0.00405368,1.37025,0.00299637,0.0123665,601,1030,-2.7436,-0.814409
-616,-6,-2.7489,0.832642,-0.00223504,-0.000140754,0.00016609,-0.000127664,-0.00224813,1.49215,0.00145807,0.0127334,608,1030,-2.7489,-0.832627
-609,-6,-2.72412,0.824463,-0.000954988,-4.14138e-05,-0.000299702,4.81285e-05,-0.00104453,-1.28047,0.000712938,0.0152065,615,1030,-2.7241,-0.824513
-602,-6,-2.7489,0.818848,-0.000455669,0.000173581,-0.000570627,0.000510572,-0.000792661,-1.03734,0.000758275,0.0124116,622,1030,-2.74888,-0.818821
-595,-6,-2.72839,0.822021,-0.000495252,0.000117481,-0.000828221,0.000694184,-0.00107195,-0.962548,0.00102743,0.012022,629,1030,-2.72842,-0.821966
-588,-6,-2.71881,0.798706,-0.000816268,0.000203499,-0.000796359,0.000639221,-0.00125199,-1.07015,0.00111083,0.0132264,636,1030,-2.71882,-0.798654
-581,-6,-2.771,0.819946,-0.00123169,0.000298837,-0.000588125,0.000498726,-0.00143157,-1.24317,0.00115703,0.0205263,643,1030,-2.771,-0.820003
-574,-6,-2.80188,0.855591,-0.00167347,0.000448745,-0.000413345,0.00052641,-0.00175113,-1.38507,0.00137685,0.0310605,650,1030,-2.8019,-0.855602
-567,-6,-2.80212,0.75061,-0.00234171,0.000637408,-8.14741e-05,0.000639635,-0.00234394,-1.54348,0.00181383,0.0404145,657,1030,-2.80212,-0.750637
-560,-6,-2.72595,0.634277,-0.00321684,0.000854316,0.000405991,0.000894408,-0.00325694,1.47236,0.00252284,0.0404673,664,1030,-2.72594,-0.634262
-553,-6,-2.66901,0.7677,-0.00431834,0.00108838,0.00106017,0.00128883,-0.00451879,1.38393,0.00352165,0.0390882,671,1030,-2.66902,-0.767651
-546,-6,-2.61969,0.803467,-0.00570798,0.00133112,0.00189245,0.00180764,-0.0061845,1.32412,0.00483942,0.0405414,678,1030,-2.61969,-0.803426
-539,-6,-2.74164,0.807007,-0.00736544,0.00155113,0.00290402,0.00241352,-0.00822784,1.28212,0.00644224,0.0403984,685,1030,-2.74166,-0.806981
-532,-6,-2.91504,0.964966,-0.00931609,0.00177761,0.00407323,0.00311253,-0.010651,1.2541,0.00833423,0.0401091,692,1030,-2.91503,-0.964998
-525,-6,0,0,0,0,0,0,0,0,0,-1,699,1030,0,0
-518,-6,0,0,0,0,0,0,0,0,0,-1,706,1030,0,0
-511,-6,0,0,0,0,0,0,0,0,0,-1,713,1030,0,0
-504,-6,0,0,0,0,0,0,0,0,0,-1,720,1030,0,0
-497,-6,0,0,0,0,0,0,0,0,0,-1,727,1030,0,0
-490,-6,0,0,0,0,0,0,0,0,0,-1,734,1030,0,0
-483,-6,0,0,0,0,0,0,0,0,0,-1,741,1030,0,0
-476,-6,0,0,0,0,0,0,0,0,0,-1,748,1030,0,0
-469,-6,0,0,0,0,0,0,0,0,0,-1,755,1030,0,0
-462,-6,0,0,0,0,0,0,0,0,0,-1,762,1030,0,0
-455,-6,0,0,0,0,0,0,0,0,0,-1,769,1030,0,0
-448,-6,0,0,0,0,0,0,0,0,0,-1,776,1030,0,0
-441,-6,0,0,0,0,0,0,0,0,0,-1,783,1030,0,0
-434,-6,0,0,0,0,0,0,0,0,0,-1,790,1030,0,0
-427,-6,0,0,0,0,0,0,0,0,0,-1,797,1030,0,0
-420,-6,0,0,0,0,0,0,0,0,0,-1,804,1030,0,0
-413,-6,0,0,0,0,0,0,0,0,0,-1,811,1030,0,0
-406,-6,0,0,0,0,0,0,0,0,0,-1,818,1030,0,0
-399,-6,0,0,0,0,0,0,0,0,0,-1,825,1030,0,0
-392,-6,0,0,0,0,0,0,0,0,0,-1,832,1030,0,0
-385,-6,0,0,0,0,0,0,0,0,0,-1,839,1030,0,0
-378,-6,0,0,0,0,0,0,0,0,0,-1,846,1030,0,0
-371,-6,0,0,0,0,0,0,0,0,0,-1,853,1030,0,0
-364,-6,0,0,0,0,0,0,0,0,0,-1,860,1030,0,0
-357,-6,0,0,0,0,0,0,0,0,0,-1,867,1030,0,0
-350,-6,0,0,0,0,0,0,0,0,0,-1,874,1030,0,0
-343,-6,0,0,0,0,0,0,0,0,0,-1,881,1030,0,0
-336,-6,0,0,0,0,0,0,0,0,0,-1,888,1030,0,0
-329,-6,0,0,0,0,0,0,0,0,0,-1,895,1030,0,0
-322,-6,0,0,0,0,0,0,0,0,0,-1,902,1030,0,0
-315,-6,0,0,0,0,0,0,0,0,0,-1,909,1030,0,0
-308,-6,0,0,0,0,0,0,0,0,0,-1,916,1030,0,0
-301,-6,0,0,0,0,0,0,0,0,0,-1,923,1030,0,0
-294,-6,0,0,0,0,0,0,0,0,0,-1,930,1030,0,0
-287,-6,0,0,0,0,0,0,0,0,0,-1,937,1030,0,0
-280,-6,0,0,0,0,0,0,0,0,0,-1,944,1030,0,0
-273,-6,0,0,0,0,0,0,0,0,0,-1,951,1030,0,0
-266,-6,0,0,0,0,0,0,0,0,0,-1,958,1030,0,0
-259,-6,0,0,0,0,0,0,0,0,0,-1,965,1030,0,0
-252,-6,0,0,0,0,0,0,0,0,0,-1,972,1030,0,0
-245,-6,0,0,0,0,0,0,0,0,0,-1,979,1030,0,0
-238,-6,0,0,0,0,0,0,0,0,0,-1,986,1030,0,0
-231,-6,0,0,0,0,0,0,0,0,0,-1,993,1030,0,0
-224,-6,0,0,0,0,0,0,0,0,0,-1,1000,1030,0,0
-217,-6,0,0,0,0,0,0,0,0,0,-1,1007,1030,0,0
-210,-6,0,0,0,0,0,0,0,0,0,-1,1014,1030,0,0
-203,-6,0,0,0,0,0,0,0,0,0,-1,1021,1030,0,0
-196,-6,0,0,0,0,0,0,0,0,0,-1,1028,1030,0,0
-189,-6,0,0,0,0,0,0,0,0,0,-1,1035,1030,0,0
-182,-6,0,0,0,0,0,0,0,0,0,-1,1042,1030,0,0
-175,-6,0,0,0,0,0,0,0,0,0,-1,1049,1030,0,0
-168,-6,0,0,0,0,0,0,0,0,0,-1,1056,1030,0,0
-161,-6,0,0,0,0,0,0,0,0,0,-1,1063,1030,0,0
-154,-6,0,0,0,0,0,0,0,0,0,-1,1070,1030,0,0
-147,-6,0,0,0,0,0,0,0,0,0,-1,1077,1030,0,0
-140,-6,0,0,0,0,0,0,0,0,0,-1,1084,1030,0,0
-133,-6,0,0,0,0,0,0,0,0,0,-1,1091,1030,0,0
-126,-6,0,0,0,0,0,0,0,0,0,-1,1098,1030,0,0
-119,-6,0,0,0,0,0,0,0,0,0,-1,1105,1030,0,0
-112,-6,0,0,0,0,0,0,0,0,0,-1,1112,1030,0,0
-105,-6,0,0,0,0,0,0,0,0,0,-1,1119,1030,0,0
-98,-6,0,0,0,0,0,0,0,0,0,-1,1126,1030,0,0
-91,-6,0,0,0,0,0,0,0,0,0,-1,1133,1030,0,0
-84,-6,0,0,0,0,0,0,0,0,0,-1,1140,1030,0,0
-77,-6,0,0,0,0,0,0,0,0,0,-1,1147,1030,0,0
-70,-6,0,0,0,0,0,0,0,0,0,-1,1154,1030,0,0
-63,-6,0,0,0,0,0,0,0,0,0,-1,1161,1030,0,0
-56,-6,0,0,0,0,0,0,0,0,0,-1,1168,1030,0,0
-49,-6,0,0,0,0,0,0,0,0,0,-1,1175,1030,0,0
-42,-6,0,0,0,0,0,0,0,0,0,-1,1182,1030,0,0
-35,-6,0,0,0,0,0,0,0,0,0,-1,1189,1030,0,0
-28,-6,0,0,0,0,0,0,0,0,0,-1,1196,1030,0,0
-21,-6,0,0,0,0,0,0,0,0,0,-1,1203,1030,0,0
-14,-6,0,0,0,0,0,0,0,0,0,-1,1210,1030,0,0
-7,-6,0,0,0,0,0,0,0,0,0,-1,1217,1030,0,0
0,-6,0,0,0,0,0,0,0,0,0,-1,1224,1030,0,0
7,-6,0,0,0,0,0,0,0,0,0,-1,1231,1030,0,0
14,-6,0,0,0,0,0,0,0,0,0,-1,1238,1030,0,0
21,-6,0,0,0,0,0,0,0,0,0,-1,1245,1030,0,0
28,-6,0,0,0,0,0,0,0,0,0,-1,1252,1030,0,0
35,-6,0,0,0,0,0,0,0,0,0,-1,1259,1030,0,0
42,-6,0,0,0,0,0,0,0,0,0,-1,1266,1030,0,0
49,-6,0,0,0,0,0,0,0,0,0,-1,1273,1030,0,0
56,-6,0,0,0,0,0,0,0,0,0,-1,1280,1030,0,0
63,-6,0,0,0,0,0,0,0,0,0,-1,1287,1030,0,0
70,-6,0,0,0,0,0,0,0,0,0,-1,1294,1030,0,0
77,-6,0,0,0,0,0,0,0,0,0,-1,1301,1030,0,0
84,-6,0,0,0,0,0,0,0,0,0,-1,1308,1030,0,0
91,-6,0,0,0,0,0,0,0,0,0,-1,1315,1030,0,0
98,-6,0,0,0,0,0,0,0,0,0,-1,1322,1030,0,0
105,-6,0,0,0,0,0,0,0,0,0,-1,1329,1030,0,0
112,-6,0,0,0,0,0,0,0,0,0,-1,1336,1030,0,0
119,-6,0,0,0,0,0,0,0,0,0,-1,1343,1030,0,0
126,-6,0,0,0,0,0,0,0,0,0,-1,1350,1030,0,0
133,-6,0,0,0,0,0,0,0,0,0,-1,1357,1030,0,0
140,-6,0,0,0,0,0,0,0,0,0,-1,1364,1030,0,0
147,-6,0,0,0,0,0,0,0,0,0,-1,1371,1030,0,0
154,-6,0,0,0,0,0,0,0,0,0,-1,1378,1030,0,0
161,-6,0,0,0,0,0,0,0,0,0,-1,1385,1030,0,0
168,-6,0,0,0,0,0,0,0,0,0,-1,1392,1030,0,0
175,-6,0,0,0,0,0,0,0,0,0,-1,1399,1030,0,0
182,-6,0,0,0,0,0,0,0,0,0,-1,1406,1030,0,0
189,-6,0,0,0,0,0,0,0,0,0,-1,1413,1030,0,0
196,-6,0,0,0,0,0,0,0,0,0,-1,1420,1030,0,0
203,-6,0,0,0,0,0,0,0,0,0,-1,1427,1030,0,0
210,-6,0,0,0,0,0,0,0,0,0,-1,1434,1030,0,0
217,-6,0,0,0,0,0,0,0,0,0,-1,1441,1030,0,0
224,-6,0,0,0,0,0,0,0,0,0,-1,1448,1030,0,0
231,-6,0,0,0,0,0,0,0,0,0,-1,1455,1030,0,0
238,-6,0,0,0,0,0,0,0,0,0,-1,1462,1030,0,0
245,-6,0,0,0,0,0,0,0,0,0,-1,1469,1030,0,0
252,-6,0,0,0,0,0,0,0,0,0,-1,1476,1030,0,0
259,-6,0,0,0,0,0,0,0,0,0,-1,1483,1030,0,0
266,-6,0,0,0,0,0,0,0,0,0,-1,1490,1030,0,0
273,-6,0,0,0,0,0,0,0,0,0,-1,1497,1030,0,0
280,-6,0,0,0,0,0,0,0,0,0,-1,1504,1030,0,0
287,-6,0,0,0,0,0,0,0,0,0,-1,1511,1030,0,0
294,-6,0,0,0,0,0,0,0,0,0,-1,1518,1030,0,0
301,-6,0,0,0,0,0,0,0,0,0,-1,1525,1030,0,0
308,-6,0,0,0,0,0,0,0,0,0,-1,1532,1030,0,0
315,-6,0,0,0,0,0,0,0,0,0,-1,1539,1030,0,0
322,-6,0,0,0,0,0,0,0,0,0,-1,1546,1030,0,0
329,-6,0,0,0,0,0,0,0,0,0,-1,1553,1030,0,0
336,-6,0,0,0,0,0,0,0,0,0,-1,1560,1030,0,0
343,-6,0,0,0,0,0,0,0,0,0,-1,1567,1030,0,0
350,-6,0,0,0,0,0,0,0,0,0,-1,1574,1030,0,0
357,-6,0,0,0,0,0,0,0,0,0,-1,1581,1030,0,0
364,-6,0,0,0,0,0,0,0,0,0,-1,1588,1030,0,0
371,-6,0,0,0,0,0,0,0,0,0,-1,1595,1030,0,0
378,-6,0,0,0,0,0,0,0,0,0,-1,1602,1030,0,0
385,-6,0,0,0,0,0,0,0,0,0,-1,1609,1030,0,0
392,-6,0,0,0,0,0,0,0,0,0,-1,1616,1030,0,0
399,-6,0,0,0,0,0,0,0,0,0,-1,1623,1030,0,0
406,-6,0,0,0,0,0,0,0,0,0,-1,1630,1030,0,0
413,-6,0,0,0,0,0,0,0,0,0,-1,1637,1030,0,0
420,-6,0,0,0,0,0,0,0,0,0,-1,1644,1030,0,0
427,-6,0,0,0,0,0,0,0,0,0,-1,1651,1030,0,0
434,-6,0,0,0,0,0,0,0,0,0,-1,1658,1030,0,0
441,-6,0,0,0,0,0,0,0,0,0,-1,1665,1030,0,0
448,-6,0,0,0,0,0,0,0,0,0,-1,1672,1030,0,0
455,-6,0,0,0,0,0,0,0,0,0,-1,1679,1030,0,0
462,-6,0,0,0,0,0,0,0,0,0,-1,1686,1030,0,0
469,-6,0,0,0,0,0,0,0,0,0,-1,1693,1030,0,0
476,-6,0,0,0,0,0,0,0,0,0,-1,1700,1030,0,0
483,-6,0,0,0,0,0,0,0,0,0,-1,1707,1030,0,0
490,-6,0,0,0,0,0,0,0,0,0,-1,1714,1030,0,0
497,-6,0,0,0,0,0,0,0,0,0,-1,1721,1030,0,0
504,-6,0,0,0,0,0,0,0,0,0,-1,1728,1030,0,0
511,-6,0,0,0,0,0,0,0,0,0,-1,1735,1030,0,0
518,-6,0,0,0,0,0,0,0,0,0,-1,1742,1030,0,0
525,-6,0,0,0,0,0,0,0,0,0,-1,1749,1030,0,0
532,-6,0,0,0,0,0,0,0,0,0,-1,1756,1030,0,0
539,-6,0,0,0,0,0,0,0,0,0,-1,1763,1030,0,0
546,-6,0,0,0,0,0,0,0,0,0,-1,1770,1030,0,0
553,-6,0,0,0,0,0,0,0,0,0,-1,1777,1030,0,0
560,-6,0,0,0,0,0,0,0,0,0,-1,1784,1030,0,0
567,-6,0,0,0,0,0,0,0,0,0,-1,1791,1030,0,0
574,-6,0,0,0,0,0,0,0,0,0,-1,1798,1030,0,0
581,-6,0,0,0,0,0,0,0,0,0,-1,1805,1030,0,0
588,-6,0,0,0,0,0,0,0,0,0,-1,1812,1030,0,0
595,-6,0,0,0,0,0,0,0,0,0,-1,1819,1030,0,0
602,-6,0,0,0,0,0,0,0,0,0,-1,1826,1030,0,0
609,-6,0,0,0,0,0,0,0,0,0,-1,1833,1030,0,0
616,-6,0,0,0,0,0,0,0,0,0,-1,1840,1030,0,0
623,-6,0,0,0,0,0,0,0,0,0,-1,1847,1030,0,0
630,-6,0,0,0,0,0,0,0,0,0,-1,1854,1030,0,0
637,-6,0,0,0,0,0,0,0,0,0,-1,1861,1030,0,0
644,-6,0,0,0,0,0,0,0,0,0,-1,1868,1030,0,0
651,-6,7.23718,0.837769,0.000289643,-0.00665449,0.0014955,0.000598022,-0.00696287,0.203354,0.00485355,0.0357136,1875,1030,7.23715,-0.837817
658,-6,7.448,0.856689,-0.00017325,-0.00424829,0.000567027,-9.58217e-05,-0.00432572,0.135712,0.00285241,0.0406376,1882,1030,7.44799,-0.856659
665,-6,7.38721,0.913208,-0.000433521,-0.00246451,5.45182e-05,-0.000432059,-0.00246597,0.0268175,0.00152056,0.044501,1889,1030,7.38717,-0.91318
672,-6,7.24927,1.03931,-0.000620982,-0.00115511,-9.56633e-05,-0.000604365,-0.00117172,-0.171983,0.000676607,0.041566,1896,1030,7.24932,-1.03928
679,-6,7.07397,1.0155,-0.000811177,-0.000260039,1.09376e-05,-0.000259822,-0.000811394,1.55096,0.000478446,0.0400926,1903,1030,7.074,-1.01549
686,-6,7.15979,0.866211,-0.000941651,0.000309868,0.000240271,0.00035441,-0.000986194,1.38749,0.000802137,0.0367639,1910,1030,7.15977,-0.866249
693,-6,7.28247,1.03552,-0.00103439,0.000634466,0.000508727,0.000777316,-0.00117724,1.29705,0.00113631,0.0355773,1917,1030,7.28242,-1.03548
700,-6,7.24927,1.11584,-0.00106109,0.000851838,0.000713091,0.00108841,-0.00129765,1.25047,0.00137936,0.0307409,1924,1030,7.24921,-1.11585
707,-6,7.19788,1.04504,-0.00117232,0.00105037,0.000896728,0.00136703,-0.00148899,1.23133,0.00164942,0.0261304,1931,1030,7.19791,-1.04506
714,-6,7.16687,1.12378,-0.00119362,0.00098721,0.00107269,0.0014264,-0.0016328,1.18219,0.00176757,0.0281837,1938,1030,7.16682,-1.12373
721,-6,7.14746,1.20374,-0.00112335,0.000839497,0.00115075,0.00137049,-0.00165435,1.13847,0.00174896,0.0241393,1945,1030,7.14745,-1.20369
728,-6,7.09314,1.1925,-0.0011171,0.000698505,0.00119376,0.00129043,-0.00170902,1.11048,0.00173734,0.0176784,1952,1030,7.09309,-1.19244
735,-6,7.13843,1.17883,-0.00120653,0.000619701,0.00110201,0.00113774,-0.00172457,1.13137,0.00166409,0.0155248,1959,1030,7.13844,-1.17883
742,-6,7.13647,1.20276,-0.00125355,0.000760912,0.000678412,0.000968077,-0.00146071,1.27442,0.00141184,0.0123092,1966,1030,7.1365,-1.20276
749,-6,7.11853,1.22327,-0.00128884,0.000471779,-4.61272e-05,0.000472987,-0.00129005,-1.54462,0.0010537,0.0115417,1973,1030,7.11858,-1.22331
756,-6,7.12878,1.22937,-0.000951964,0.000585484,-0.000795492,0.00092299,-0.00128947,-1.16954,0.00128319,0.0120799,1980,1030,7.12873,-1.2294
763,-6,7.13599,1.24219,-5.61056e-05,0.00156275,-0.00142213,0.00238967,-0.000883023,-1.04412,0.00195509,0.0118415,1987,1030,7.13602,-1.24217
770,-6,7.12927,1.25818,0.000757668,0.00225195,-0.00230767,0.00393042,-0.0009208,-0.941955,0.0029751,0.0105761,1994,1030,7.12922,-1.25819
777,-6,7.11792,1.25928,0.00201413,0.00331584,-0.00329299,0.00602168,-0.000691709,-0.882965,0.00426377,0.0126557,2001,1030,7.11791,-1.25926
784,-6,7.13232,1.33423,0.00386237,0.00488923,-0.00432432,0.00873049,2.11075e-05,-0.844487,0.0058133,0.0315751,2008,1030,7.13227,-1.33427
791,-6,7.1676,1.35327,0.00663743,0.00718863,-0.00539417,0.0123142,0.00151182,-0.810922,0.00775483,0.0433114,2015,1030,7.16755,-1.3533
798,-6,7.33215,0.880005,0.0107453,0.0105518,-0.00647376,0.017123,0.00417406,-0.777924,0.0103096,0.0442226,2022,1030,7.3321,-0.880056
805,-6,7.53796,0.529053,0.0167165,0.0154709,-0.00745961,0.0235793,0.00860814,-0.743751,0.0137777,0.0455088,2029,1030,7.53796,-0.529041
812,-6,7.80762,0.47998,0.0251503,0.0226762,-0.00814456,0.0321512,0.0156753,-0.710029,0.0185644,0.0467184,2036,1030,7.80766,-0.479947
-700,-13,0,0,0,0,0,0,0,0,0,-1,524,1037,0,0
-693,-13,2.23895,-1.19739,0,0,0,0,0,0,0,-1,531,1037,2.23893,1.19734
-686,-13,1.16388,-0.901245,0,0,0,0,0,0,0,-1,538,1037,1.16389,0.901271
-679,-13,0.153442,-0.378418,-0.0799826,0.0089806,0.0316426,0.0190871,-0.0900891,1.26164,0.0673298,0.049061,545,1037,0.153424,0.378374
-672,-13,-0.954773,0.235596,-0.0628155,0.00692113,0.0250155,0.0149664,-0.0708608,1.25963,0.0529393,0.0488407,552,1037,-0.954742,-0.235566
-665,-13,-1.97266,0.751221,-0.0481028,0.00535037,0.0193138,0.0115985,-0.0543509,1.25792,0.0406554,0.0460418,559,1037,-1.97263,-0.751205
-658,-13,-2.58868,0.212158,0,0,0,0,0,0,0,-1,566,1037,-2.58871,-0.212154
-651,-13,-2.72833,0.808472,-0.0258883,0.00309089,0.0105713,0.00653731,-0.0293347,1.25564,0.0220608,0.0425581,573,1037,-2.72835,-0.808412
-644,-13,-2.72827,0.827515,-0.0181195,0.00224682,0.00742209,0.00466461,-0.0205373,1.25588,0.0154824,0.0289386,580,1037,-2.72825,-0.827544
-637,-13,-2.74005,0.831787,-0.0116391,0.00152729,0.00494714,0.00317894,-0.0132907,1.24857,0.0100885,0.0199837,587,1037,-2.74004,-0.831802
-630,-13,-2.74561,0.827759,-0.00671395,0.000966546,0.00287928,0.00192607,-0.00767347,1.24912,0.00586407,0.0132387,594,1037,-2.74558,-0.827703
-623,-13,-2.73425,0.85083,-0.00347993,0.000804805,0.000885514,0.0009806,-0.00365573,1.37482,0.0028214,0.0112833,601,1037,-2.73428,-0.850876
-616,-13,-2.72186,0.853149,-0.00197573,-3.4989e-05,9.55036e-05,-3.03006e-05,-0.00198042,1.52174,0.0013103,0.0110383,608,1037,-2.72187,-0.853101
-609,-13,-2.6908,0.822144,-0.000738739,-2.16561e-05,-0.000381851,0.000143599,-0.000903994,-1.16236,0.000655791,0.0168137,615,1037,-2.69082,-0.822084
-602,-13,-2.73096,0.824463,-0.000241795,0.000195043,-0.000636486,0.000649544,-0.000696296,-0.950684,0.000777177,0.012094,622,1037,-2.73096,-0.824486
-595,-13,-2.73975,0.821411,-0.000323349,0.000143722,-0.000865634,0.000806769,-0.000986397,-0.917154,0.00103701,0.0128112,629,1037,-2.73972,-0.821445
-588,-13,-2.68091,0.801758,-0.000695376,0.000266885,-0.000798932,0.000718373,-0.00114686,-1.05642,0.00108633,0.0200565,636,1037,-2.68091,-0.801814
-581,-13,-2.71747,0.739502,-0.00115979,0.000424346,-0.000543732,0.000593016,-0.00132846,-1.27,0.00113613,0.0205878,643,1037,-2.71745,-0.739531
-574,-13,-2.76501,0.695313,-0.00168478,0.00063304,-0.000298014,0.000670744,-0.00172248,-1.44495,0.00142551,0.0331919,650,1037,-2.76499,-0.695363
-567,-13,-2.77466,0.636719,-0.00245641,0.000901181,0.00013672,0.000906739,-0.00246197,1.53017,0.00201283,0.0391761,657,1037,-2.77466,-0.636774
-560,-13,-2.73578,0.715942,-0.00348337,0.00120018,0.000761862,0.00132099,-0.00360419,1.41353,0.00294364,0.0419292,664,1037,-2.73578,-0.715955
-553,-13,-2.64368,0.66626,-0.00480573,0.00150946,0.00158752,0.00188607,-0.00518234,1.33787,0.00422628,0.0420946,671,1037,-2.64366,-0.666269
-546,-13,-2.6521,0.841919,-0.00651286,0.00180486,0.00262656,0.00256483,-0.00727284,1.28915,0.0058926,0.0398178,678,1037,-2.65208,-0.841901
-539,-13,-2.87927,0.884644,-0.00861349,0.00202248,0.00386591,0.00327916,-0.00987017,1.2565,0.00790328,0.0396728,685,1037,-2.87926,-0.884602
-532,-13,-3.07373,0.863281,-0.0111583,0.00214868,0.00523006,0.00395819,-0.0129679,1.2377,0.0102233,0.0423458,692,1037,-3.07376,-0.863227
-525,-13,0,0,0,0,0,0,0,0,0,-1,699,1037,0,0
-518,-13,0,0,0,0,0,0,0,0,0,-1,706,1037,0,0
-511,-13,0,0,0,0,0,0,0,0,0,-1,713,1037,0,0
-504,-13,0,0,0,0,0,0,0,0,0,-1,720,1037,0,0
-497,-13,0,0,0,0,0,0,0,0,0,-1,727,1037,0,0
-490,-13,0,0,0,0,0,0,0,0,0,-1,734,1037,0,0
-483,-13,0,0,0,0,0,0,0,0,0,-1,741,1037,0,0
-476,-13,0,0,0,0,0,0,0,0,0,-1,748,1037,0,0
-469,-13,0,0,0,0,0,0,0,0,0,-1,755,1037,0,0
-462,-13,0,0,0,0,0,0,0,0,0,-1,762,1037,0,0
-455,-13,0,0,0,0,0,0,0,0,0,-1,769,1037,0,0
-448,-13,0,0,0,0,0,0,0,0,0,-1,776,1037,0,0
-441,-13,0,0,0,0,0,0,0,0,0,-1,783,1037,0,0
-434,-13,0,0,0,0,0,0,0,0,0,-1,790,1037,0,0
-427,-13,0,0,0,0,0,0,0,0,0,-1,797,1037,0,0
-420,-13,0,0,0,0,0,0,0,0,0,-1,804,1037,0,0
-413,-13,0,0,0,0,0,0,0,0,0,-1,811,1037,0,0
-406,-13,0,0,0,0,0,0,0,0,0,-1,818,1037,0,0
-399,-13,0,0,0,0,0,0,0,0,0,-1,825,1037,0,0
-392,-13,0,0,0,0,0,0,0,0,0,-1,832,1037,0,0
-385,-13,0,0,0,0,0,0,0,0,0,-1,839,1037,0,0
-378,-13,0,0,0,0,0,0,0,0,0,-1,846,1037,0,0
-371,-13,0,0,0,0,0,0,0,0,0,-1,853,1037,0,0
-364,-13,0,0,0,0,0,0,0,0,0,-1,860,1037,0,0
-357,-13,0,0,0,0,0,0,0,0,0,-1,867,1037,0,0
-350,-13,0,0,0,0,0,0,0,0,0,-1,874,1037,0,0
-343,-13,0,0,0,0,0,0,0,0,0,-1,881,1037,0,0
-336,-13,0,0,0,0,0,0,0,0,0,-1,888,1037,0,0
-329,-13,0,0,0,0,0,0,0,0,0,-1,895,1037,0,0
-322,-13,0,0,0,0,0,0,0,0,0,-1,902,1037,0,0
-315,-13,0,0,0,0,0,0,0,0,0,-1,909,1037,0,0
-308,-13,0,0,0,0,0,0,0,0,0,-1,916,1037,0,0
-301,-13,0,0,0,0,0,0,0,0,0,-1,923,1037,0,0
-294,-13,0,0,0,0,0,0,0,0,0,-1,930,1037,0,0
-287,-13,0,0,0,0,0,0,0,0,0,-1,937,1037,0,0
-280,-13,0,0,0,0,0,0,0,0,0,-1,944,1037,0,0
-273,-13,0,0,0,0,0,0,0,0,0,-1,951,1037,0,0
-266,-13,0,0,0,0,0,0,0,0,0,-1,958,1037,0,0
-259,-13,0,0,0,0,0,0,0,0,0,-1,965,1037,0,0
-252,-13,0,0,0,0,0,0,0,0,0,-1,972,1037,0,0
-245,-13,0,0,0,0,0,0,0,0,0,-1,979,1037,0,0
-238,-13,0,0,0,0,0,0,0,0,0,-1,986,1037,0,0
-231,-13,0,0,0,0,0,0,0,0,0,-1,993,1037,0,0
-224,-13,0,0,0,0,0,0,0,0,0,-1,1000,1037,0,0
-217,-13,0,0,0,0,0,0,0,0,0,-1,1007,1037,0,0
-210,-13,0,0,0,0,0,0,0,0,0,-1,1014,1037,0,0
-203,-13,0,0,0,0,0,0,0,0,0,-1,1021,1037,0,0
-196,-13,0,0,0,0,0,0,0,0,0,-1,1028,1037,0,0
-189,-13,0,0,0,0,0,0,0,0,0,-1,1035,1037,0,0
-182,-13,0,0,0,0,0,0,0,0,0,-1,1042,1037,0,0
-175,-13,0,0,0,0,0,0,0,0,0,-1,1049,1037,0,0
-168,-13,0,0,0,0,0,0,0,0,0,-1,1056,1037,0,0
-161,-13,0,0,0,0,0,0,0,0,0,-1,1063,1037,0,0
-154,-13,0,0,0,0,0,0,0,0,0,-1,1070,1037,0,0
-147,-13,0,0,0,0,0,0,0,0,0,-1,1077,1037,0,0
-140,-13,0,0,0,0,0,0,0,0,0,-1,1084,1037,0,0
-133,-13,0,0,0,0,0,0,0,0,0,-1,1091,1037,0,0
-126,-13,0,0,0,0,0,0,0,0,0,-1,1098,1037,0,0
-119,-13,0,0,0,0,0,0,0,0,0,-1,1105,1037,0,0
-112,-13,0,0,0,0,0,0,0,0,0,-1,1112,1037,0,0
-105,-13,0,0,0,0,0,0,0,0,0,-1,1119,1037,0,0
-98,-13,0,0,0,0,0,0,0,0,0,-1,1126,1037,0,0
-91,-13,0,0,0,0,0,0,0,0,0,-1,1133,1037,0,0
-84,-13,0,0,0,0,0,0,0,0,0,-1,1140,1037,0,0
-77,-13,0,0,0,0,0,0,0,0,0,-1,1147,1037,0,0
-70,-13,0,0,0,0,0,0,0,0,0,-1,1154,1037,0,0
-63,-13,0,0,0,0,0,0,0,0,0,-1,1161,1037,0,0
-56,-13,0,0,0,0,0,0,0,0,0,-1,1168,1037,0,0
-49,-13,0,0,0,0,0,0,0,0,0,-1,1175,1037,0,0
-42,-13,0,0,0,0,0,0,0,0,0,-1,1182,1037,0,0
-35,-13,0,0,0,0,0,0,0,0,0,-1,1189,1037,0,0
-28,-13,0,0,0,0,0,0,0,0,0,-1,1196,1037,0,0
-21,-13,0,0,0,0,0,0,0,0,0,-1,1203,1037,0,0
-14,-13,0,0,0,0,0,0,0,0,0,-1,1210,1037,0,0
-7,-13,0,0,0,0,0,0,0,0,0,-1,1217,1037,0,0
0,-13,0,0,0,0,0,0,0,0,0,-1,1224,1037,0,0
7,-13,0,0,0,0,0,0,0,0,0,-1,1231,1037,0,0
14,-13,0,0,0,0,0,0,0,0,0,-1,1238,1037,0,0
21,-13,0,0,0,0,0,0,0,0,0,-1,1245,1037,0,0
28,-13,0,0,0,0,0,0,0,0,0,-1,1252,1037,0,0
35,-13,0,0,0,0,0,0,0,0,0,-1,1259,1037,0,0
42,-13,0,0,0,0,0,0,0,0,0,-1,1266,1037,0,0
49,-13,0,0,0,0,0,0,0,0,0,-1,1273,1037,0,0
56,-13,0,0,0,0,0,0,0,0,0,-1,1280,1037,0,0
63,-13,0,0,0,0,0,0,0,0,0,-1,1287,1037,0,0
70,-13,0,0,0,0,0,0,0,0,0,-1,1294,1037,0,0
77,-13,0,0,0,0,0,0,0,0,0,-1,1301,1037,0,0
84,-13,0,0,0,0,0,0,0,0,0,-1,1308,1037,0,0
91,-13,0,0,0,0,0,0,0,0,0,-1,1315,1037,0,0
98,-13,0,0,0,0,0,0,0,0,0,-1,1322,1037,0,0
105,-13,0,0,0,0,0,0,0,0,0,-1,1329,1037,0,0
112,-13,0,0,0,0,0,0,0,0,0,-1,1336,1037,0,0
119,-13,0,0,0,0,0,0,0,0,0,-1,1343,1037,0,0
126,-13,0,0,0,0,0,0,0,0,0,-1,1350,1037,0,0
133,-13,0,0,0,0,0,0,0,0,0,-1,1357,1037,0,0
140,-13,0,0,0,0,0,0,0,0,0,-1,1364,1037,0,0
147,-13,0,0,0,0,0,0,0,0,0,-1,1371,1037,0,0
154,-13,0,0,0,0,0,0,0,0,0,-1,1378,1037,0,0
161,-13,0,0,0,0,0,0,0,0,0,-1,1385,1037,0,0
168,-13,0,0,0,0,0,0,0,0,0,-1,1392,1037,0,0
175,-13,0,0,0,0,0,0,0,0,0,-1,1399,1037,0,0
182,-13,0,0,0,0,0,0,0,0,0,-1,1406,1037,0,0
189,-13,0,0,0,0,0,0,0,0,0,-1,1413,1037,0,0
196,-13,0,0,0,0,0,0,0,0,0,-1,1420,1037,0,0
203,-13,0,0,0,0,0,0,0,0,0,-1,1427,1037,0,0
210,-13,0,0,0,0,0,0,0,0,0,-1,1434,1037,0,0
217,-13,0,0,0,0,0,0,0,0,0,-1,1441,1037,0,0
224,-13,0,0,0,0,0,0,0,0,0,-1,1448,1037,0,0
231,-13,0,0,0,0,0,0,0,0,0,-1,1455,1037,0,0
238,-13,0,0,0,0,0,0,0,0,0,-1,1462,1037,0,0
245,-13,0,0,0,0,0,0,0,0,0,-1,1469,1037,0,0
252,-13,0,0,0,0,0,0,0,0,0,-1,1476,1037,0,0
259,-13,0,0,0,0,0,0,0,0,0,-1,1483,1037,0,0
266,-13,0,0,0,0,0,0,0,0,0,-1,1490,1037,0,0
273,-13,0,0,0,0,0,0,0,0,0,-1,1497,1037,0,0
280,-13,0,0,0,0,0,0,0,0,0,-1,1504,1037,0,0
287,-13,0,0,0,0,0,0,0,0,0,-1,1511,1037,0,0
294,-13,0,0,0,0,0,0,0,0,0,-1,1518,1037,0,0
301,-13,0,0,0,0,0,0,0,0,0,-1,1525,1037,0,0
308,-13,0,0,0,0,0,0,0,0,0,-1,1532,1037,0,0
315,-13,0,0,0,0,0,0,0,0,0,-1,1539,1037,0,0
322,-13,0,0,0,0,0,0,0,0,0,-1,1546,1037,0,0
329,-13,0,0,0,0,0,0,0,0,0,-1,1553,1037,0,0
336,-13,0,0,0,0,0,0,0,0,0,-1,1560,1037,0,0
343,-13,0,0,0,0,0,0,0,0,0,-1,1567,1037,0,0
350,-13,0,0,0,0,0,0,0,0,0,-1,1574,1037,0,0
357,-13,0,0,0,0,0,0,0,0,0,-1,1581,1037,0,0
364,-13,0,0,0,0,0,0,0,0,0,-1,1588,1037,0,0
371,-13,0,0,0,0,0,0,0,0,0,-1,1595,1037,0,0
378,-13,0,0,0,0,0,0,0,0,0,-1,1602,1037,0,0
385,-13,0,0,0,0,0,0,0,0,0,-1,1609,1037,0,0
392,-13,0,0,0,0,0,0,0,0,0,-1,1616,1037,0,0
399,-13,0,0,0,0,0,0,0,0,0,-1,1623,1037,0,0
406,-13,0,0,0,0,0,0,0,0,0,-1,1630,1037,0,0
413,-13,0,0,0,0,0,0,0,0,0,-1,1637,1037,0,0
420,-13,0,0,0,0,0,0,0,0,0,-1,1644,1037,0,0
427,-13,0,0,0,0,0,0,0,0,0,-1,1651,1037,0,0
434,-13,0,0,0,0,0,0,0,0,0,-1,1658,1037,0,0
441,-13,0,0,0,0,0,0,0,0,0,-1,1665,1037,0,0
448,-13,0,0,0,0,0,0,0,0,0,-1,1672,1037,0,0
455,-13,0,0,0,0,0,0,0,0,0,-1,1679,1037,0,0
462,-13,0,0,0,0,0,0,0,0,0,-1,1686,1037,0,0
469,-13,0,0,0,0,0,0,0,0,0,-1,1693,1037,0,0
476,-13,0,0,0,0,0,0,0,0,0,-1,1700,1037,0,0
483,-13,0,0,0,0,0,0,0,0,0,-1,1707,1037,0,0
490,-13,0,0,0,0,0,0,0,0,0,-1,1714,1037,0,0
497,-13,0,0,0,0,0,0,0,0,0,-1,1721,1037,0,0
504,-13,0,0,0,0,0,0,0,0,0,-1,1728,1037,0,0
511,-13,0,0,0,0,0,0,0,0,0,-1,1735,1037,0,0
518,-13,0,0,0,0,0,0,0,0,0,-1,1742,1037,0,0
525,-13,0,0,0,0,0,0,0,0,0,-1,1749,1037,0,0
532,-13,0,0,0,0,0,0,0,0,0,-1,1756,1037,0,0
539,-13,0,0,0,0,0,0,0,0,0,-1,1763,1037,0,0
546,-13,0,0,0,0,0,0,0,0,0,-1,1770,1037,0,0
553,-13,0,0,0,0,0,0,0,0,0,-1,1777,1037,0,0
560,-13,0,0,0,0,0,0,0,0,0,-1,1784,1037,0,0
567,-13,0,0,0,0,0,0,0,0,0,-1,1791,1037,0,0
574,-13,0,0,0,0,0,0,0,0,0,-1,1798,1037,0,0
581,-13,0,0,0,0,0,0,0,0,0,-1,1805,1037,0,0
588,-13,0,0,0,0,0,0,0,0,0,-1,1812,1037,0,0
595,-13,0,0,0,0,0,0,0,0,0,-1,1819,1037,0,0
602,-13,0,0,0,0,0,0,0,0,0,-1,1826,1037,0,0
609,-13,0,0,0,0,0,0,0,0,0,-1,1833,1037,0,0
616,-13,0,0,0,0,0,0,0,0,0,-1,1840,1037,0,0
623,-13,0,0,0,0,0,0,0,0,0,-1,1847,1037,0,0
630,-13,0,0,0,0,0,0,0,0,0,-1,1854,1037,0,0
637,-13,0,0,0,0,0,0,0,0,0,-1,1861,1037,0,0
644,-13,0,0,0,0,0,0,0,0,0,-1,1868,1037,0,0
651,-13,7.35278,0.904053,0.000313308,-0.00529885,0.00147224,0.000676074,-0.00566161,0.241591,0.00401877,0.0378425,1875,1037,7.35279,-0.90409
658,-13,7.37231,1.10791,-0.000213144,-0.00305341,0.000635177,-7.75688e-05,-0.00318898,0.210289,0.00210061,0.0442314,1882,1037,7.37227,-1.10797
665,-13,7.33716,1.21655,-0.000488842,-0.00145446,0.000179082,-0.0004567,-0.0014866,0.177593,0.0008793,0.0432276,1889,1037,7.33713,-1.21655
672,-13,7.23743,1.05005,-0.000673676,-0.00033003,7.11242e-05,-0.000315891,-0.000687815,1.37456,0.000397549,0.0364746,1896,1037,7.23745,-1.05008
679,-13,7.06787,0.940918,-0.000853116,0.000393626,0.000214567,0.00042952,-0.00088901,1.40505,0.000776509,0.0374127,1903,1037,7.06784,-0.940879
686,-13,7.18298,0.940063,-0.000969529,0.000811353,0.000467055,0.00092641,-0.00108459,1.32926,0.00116225,0.04031,1910,1037,7.183,-0.94008
693,-13,7.27356,1.16077,-0.00104436,0.0010048,0.000746832,0.0012481,-0.00128766,1.25586,0.00146408,0.0389072,1917,1037,7.27353,-1.16076
700,-13,7.23462,1.08362,-0.00106286,0.00110458,0.00096408,0.00147134,-0.00142962,1.20728,0.00167493,0.0349986,1924,1037,7.23457,-1.08363
707,-13,7.19897,1.02039,-0.00115871,0.00118894,0.00115083,0.00165898,-0.00162874,1.18304,0.0018982,0.0308473,1931,1037,7.19901,-1.02043
714,-13,7.17834,1.13892,-0.00115229,0.00105665,0.00130553,0.00166222,-0.00175787,1.13648,0.00197485,0.0261857,1938,1037,7.17834,-1.13889
721,-13,7.14514,1.26147,-0.00105824,0.000866184,0.00135688,0.00156739,-0.00175945,1.09381,0.00192182,0.0243642,1945,1037,7.1451,-1.26145
728,-13,7.08069,1.2052,-0.0010329,0.000684368,0.00138059,0.00145155,-0.00180008,1.06359,0.00188092,0.0192871,1952,1037,7.08074,-1.2052
735,-13,7.13513,1.19482,-0.00111215,0.000579315,0.00127401,0.00126275,-0.00179559,1.07842,0.00177465,0.0181734,1959,1037,7.13514,-1.19486
742,-13,7.13965,1.21619,-0.00110388,0.000686247,0.0008275,0.00101016,-0.00142779,1.1977,0.00141442,0.0103536,1966,1037,7.13962,-1.21613
749,-13,7.12317,1.21094,-0.00094797,0.000461663,-3.028e-05,0.000462313,-0.00094862,-1.54933,0.000830574,0.0149464,1973,1037,7.12315,-1.21089
756,-13,7.1427,1.20679,-0.000387929,0.000737185,-0.000987222,0.00131088,-0.000961628,-1.04437,0.00131719,0.0130486,1980,1037,7.14266,-1.20679
763,-13,7.15283,1.22388,0.000732717,0.00181961,-0.00181458,0.00317037,-0.000618048,-0.930892,0.00234688,0.0115106,1987,1037,7.15286,-1.22393
770,-13,7.13818,1.2334,0.00186714,0.00269153,-0.00296694,0.00527476,-0.000716099,-0.854421,0.0037779,0.0100775,1994,1037,7.13816,-1.23334
777,-13,7.12317,1.22876,0.00354906,0.00400485,-0.00431142,0.0080944,-0.000540489,-0.811803,0.00558515,0.0105747,2001,1037,7.12311,-1.22873
784,-13,7.13464,1.28308,0.00594076,0.00590858,-0.0057987,0.0117234,0.000125944,-0.784011,0.00777396,0.0236724,2008,1037,7.13466,-1.28313
791,-13,7.16528,1.33655,0.00938635,0.00862717,-0.00743924,0.0164557,0.00155784,-0.759907,0.0104898,0.0410509,2015,1037,7.16529,-1.33656
798,-13,7.70129,1.06372,0.0142863,0.0124993,-0.00920479,0.0226408,0.00414474,-0.737015,0.0139195,0.0440404,2022,1037,7.70129,-1.06372
805,-13,7.52649,0.123901,0.0211481,0.0180023,-0.010967,0.0306544,0.00849595,-0.714175,0.0182749,0.0420446,2029,1037,7.52651,-0.123883
812,-13,7.80042,0.0773926,0.0305002,0.0258197,-0.0124684,0.0408461,0.0154738,-0.69263,0.0238122,0.0452197,2036,1037,7.8004,-0.0773967
-700,-20,3.53027,-2.29053,0,0,0,0,0,0,0,-1,524,1044,3.53028,2.29053
-693,-20,2.58099,-1.86658,-0.116114,0.0248564,0.0528774,0.0424858,-0.133743,1.24898,0.106196,0.0490179,531,1044,2.58101,1.86663
-686,-20,1.61993,-1.38025,-0.0943528,0.0184821,0.0430316,0.0330199,-0.108891,1.245,0.0857465,0.0456248,538,1044,1.61991,1.38026
-679,-20,0.56366,-0.894775,-0.0749853,0.0138483,0.0341929,0.0254851,-0.0866221,1.24276,0.0678576,0.0499481,545,1044,0.563644,0.894718
-672,-20,-1.88824,0.816528,0,0,0,0,0,0,0,-1,552,1044,-1.88826,-0.816534
-665,-20,-1.95825,0.684692,-0.0442317,0.00769091,0.0201927,0.0146193,-0.0511601,1.24027,0.0398832,0.0493831,559,1044,-1.95826,-0.684698
-658,-20,-2.58612,0.356812,-0.032655,0.00562866,0.0149397,0.0107686,-0.037795,1.23944,0.02945,0.0490051,566,1044,-2.58613,-0.356819
-651,-20,-2.76031,0.703491,-0.023433,0.00404037,0.0107425,0.00774208,-0.0271347,1.23895,0.0211483,0.0395535,573,1044,-2.76033,-0.703473
-644,-20,-2.72003,0.818726,-0.0163008,0.00281046,0.00746654,0.00538163,-0.018872,1.23916,0.0147072,0.0246713,580,1044,-2.72004,-0.818728
-637,-20,-2.73065,0.809082,-0.0104182,0.00171806,0.0049263,0.00346598,-0.0121661,1.22984,0.00947969,0.016643,587,1044,-2.73067,-0.809026
-630,-20,-2.73663,0.82019,-0.0059642,0.000939932,0.00278982,0.00192632,-0.00695059,1.23095,0.00539178,0.0138696,594,1044,-2.73661,-0.820219
-623,-20,-2.74231,0.838623,-0.00298925,0.000841504,0.000787739,0.000997166,-0.00314491,1.3757,0.00249629,0.0128736,601,1044,-2.7423,-0.838628
-616,-20,-2.73315,0.851929,-0.00169082,-7.77617e-05,-3.64691e-06,-7.77535e-05,-0.00169082,-1.56854,0.00110221,0.0129448,608,1044,-2.73315,-0.851889
-609,-20,-2.72168,0.836182,-0.000550506,-3.20624e-05,-0.00045857,0.000235482,-0.000818051,-1.04265,0.000638503,0.0153129,615,1044,-2.72165,-0.836167
-602,-20,-2.72308,0.834717,-8.63367e-05,0.000207772,-0.000699182,0.000775196,-0.000653761,-0.889049,0.000826001,0.0112212,622,1044,-2.72308,-0.834731
-595,-20,-2.74072,0.833252,-0.000214145,0.000165534,-0.000926249,0.000921197,-0.000969809,-0.886476,0.00109189,0.0100731,629,1044,-2.74075,-0.833206
-588,-20,-2.7182,0.766357,-0.000615835,0.000326787,-0.000837573,0.00081655,-0.0011056,-1.04167,0.00111393,0.0175314,636,1044,-2.71818,-0.766412
-581,-20,-2.7251,0.668457,-0.0010947,0.000547894,-0.000538035,0.000708438,-0.00125524,-1.28082,0.00114829,0.0274401,643,1044,-2.72507,-0.668464
-574,-20,-2.79669,0.764893,-0.00165472,0.000825084,-0.000206689,0.000842193,-0.00167183,-1.48821,0.00147758,0.037001,650,1044,-2.79666,-0.764927
-567,-20,-2.77283,0.677856,-0.00246798,0.00118159,0.000349172,0.0012147,-0.00250108,1.47626,0.00218774,0.0404301,657,1044,-2.77281,-0.677815
-560,-20,-2.63123,0.630005,-0.00354915,0.00159177,0.00115089,0.00183765,-0.00379504,1.36031,0.00331684,0.0429561,664,1044,-2.63121,-0.630037
-553,-20,-2.68372,0.766113,-0.00494695,0.00203592,0.00221585,0.00267971,-0.00559074,1.28804,0.00487254,0.0425093,671,1044,-2.68371,-0.766108
-546,-20,-2.78986,1.05237,-0.00675815,0.00248604,0.0035732,0.00370616,-0.00797827,1.24175,0.00689467,0.0420333,678,1044,-2.78985,-1.05241
-539,-20,-3.01727,1.14685,-0.00899471,0.00286734,0.00521202,0.00483202,-0.0109594,1.21032,0.00934316,0.0432455,685,1044,-3.01727,-1.14691
-532,-20,-3.09277,1.23633,-0.0117054,0.00314646,0.00701848,0.00593833,-0.0144973,1.1922,0.0121385,0.0431969,692,1044,-3.0928,-1.23629
-525,-20,0,0,0,0,0,0,0,0,0,-1,699,1044,0,0
-518,-20,0,0,0,0,0,0,0,0,0,-1,706,1044,0,0
-511,-20,0,0,0,0,0,0,0,0,0,-1,713,1044,0,0
-504,-20,0,0,0,0,0,0,0,0,0,-1,720,1044,0,0
-497,-20,0,0,0,0,0,0,0,0,0,-1,727,1044,0,0
-490,-20,0,0,0,0,0,0,0,0,0,-1,734,1044,0,0
-483,-20,0,0,0,0,0,0,0,0,0,-1,741,1044,0,0
-476,-20,0,0,0,0,0,0,0,0,0,-1,748,1044,0,0
-469,-20,0,0,0,0,0,0,0,0,0,-1,755,1044,0,0
-462,-20,0,0,0,0,0,0,0,0,0,-1,762,1044,0,0
-455,-20,0,0,0,0,0,0,0,0,0,-1,769,1044,0,0
-448,-20,0,0,0,0,0,0,0,0,0,-1,776,1044,0,0
-441,-20,0,0,0,0,0,0,0,0,0,-1,783,1044,0,0
-434,-20,0,0,0,0,0,0,0,0,0,-1,790,1044,0,0
-427,-20,0,0,0,0,0,0,0,0,0,-1,797,1044,0,0
-420,-20,0,0,0,0,0,0,0,0,0,-1,804,1044,0,0
-413,-20,0,0,0,0,0,0,0,0,0,-1,811,1044,0,0
-406,-20,0,0,0,0,0,0,0,0,0,-1,818,1044,0,0
-399,-20,0,0,0,0,0,0,0,0,0,-1,825,1044,0,0
-392,-20,0,0,0,0,0,0,0,0,0,-1,832,1044,0,0
-385,-20,0,0,0,0,0,0,0,0,0,-1,839,1044,0,0
-378,-20,0,0,0,0,0,0,0,0,0,-1,846,1044,0,0
-371,-20,0,0,0,0,0,0,0,0,0,-1,853,1044,0,0
-364,-20,0,0,0,0,0,0,0,0,0,-1,860,1044,0,0
-357,-20,0,0,0,0,0,0,0,0,0,-1,867,1044,0,0
-350,-20,0,0,0,0,0,0,0,0,0,-1,874,1044,0,0
-343,-20,0,0,0,0,0,0,0,0,0,-1,881,1044,0,0
-336,-20,0,0,0,0,0,0,0,0,0,-1,888,1044,0,0
-329,-20,0,0,0,0,0,0,0,0,0,-1,895,1044,0,0
-322,-20,0,0,0,0,0,0,0,0,0,-1,902,1044,0,0
-315,-20,0,0,0,0,0,0,0,0,0,-1,909,1044,0,0
-308,-20,0,0,0,0,0,0,0,0,0,-1,916,1044,0,0
-301,-20,0,0,0,0,0,0,0,0,0,-1,923,1044,0,0
-294,-20,0,0,0,0,0,0,0,0,0,-1,930,1044,0,0
-287,-20,0,0,0,0,0,0,0,0,0,-1,937,1044,0,0
-280,-20,0,0,0,0,0,0,0,0,0,-1,944,1044,0,0
-273,-20,0,0,0,0,0,0,0,0,0,-1,951,1044,0,0
-266,-20,0,0,0,0,0,0,0,0,0,-1,958,1044,0,0
-259,-20,0,0,0,0,0,0,0,0,0,-1,965,1044,0,0
-252,-20,0,0,0,0,0,0,0,0,0,-1,972,1044,0,0
-245,-20,0,0,0,0,0,0,0,0,0,-1,979,1044,0,0
-238,-20,0,0,0,0,0,0,0,0,0,-1,986,1044,0,0
-231,-20,0,0,0,0,0,0,0,0,0,-1,993,1044,0,0
-224,-20,0,0,0,0,0,0,0,0,0,-1,1000,1044,0,0
-217,-20,0,0,0,0,0,0,0,0,0,-1,1007,1044,0,0
-210,-20,0,0,0,0,0,0,0,0,0,-1,1014,1044,0,0
-203,-20,0,0,0,0,0,0,0,0,0,-1,1021,1044,0,0
-196,-20,0,0,0,0,0,0,0,0,0,-1,1028,1044,0,0
-189,-20,0,0,0,0,0,0,0,0,0,-1,1035,1044,0,0
-182,-20,0,0,0,0,0,0,0,0,0,-1,1042,1044,0,0
-175,-20,0,0,0,0,0,0,0,0,0,-1,1049,1044,0,0
-168,-20,0,0,0,0,0,0,0,0,0,-1,1056,1044,0,0
-161,-20,0,0,0,0,0,0,0,0,0,-1,1063,1044,0,0
-154,-20,0,0,0,0,0,0,0,0,0,-1,1070,1044,0,0
-147,-20,0,0,0,0,0,0,0,0,0,-1,1077,1044,0,0
-140,-20,0,0,0,0,0,0,0,0,0,-1,1084,1044,0,0
-133,-20,0,0,0,0,0,0,0,0,0,-1,1091,1044,0,0
-126,-20,0,0,0,0,0,0,0,0,0,-1,1098,1044,0,0
-119,-20,0,0,0,0,0,0,0,0,0,-1,1105,1044,0,0
-112,-20,0,0,0,0,0,0,0,0,0,-1,1112,1044,0,0
-105,-20,0,0,0,0,0,0,0,0,0,-1,1119,1044,0,0
-98,-20,0,0,0,0,0,0,0,0,0,-1,1126,1044,0,0
-91,-20,0,0,0,0,0,0,0,0,0,-1,1133,1044,0,0
-84,-20,0,0,0,0,0,0,0,0,0,-1,1140,1044,0,0
-77,-20,0,0,0,0,0,0,0,0,0,-1,1147,1044,0,0
-70,-20,0,0,0,0,0,0,0,0,0,-1,1154,1044,0,0
-63,-20,0,0,0,0,0,0,0,0,0,-1,1161,1044,0,0
-56,-20,0,0,0,0,0,0,0,0,0,-1,1168,1044,0,0
-49,-20,0,0,0,0,0,0,0,0,0,-1,1175,1044,0,0
-42,-20,0,0,0,0,0,0,0,0,0,-1,1182,1044,0,0
-35,-20,0,0,0,0,0,0,0,0,0,-1,1189,1044,0,0
-28,-20,0,0,0,0,0,0,0,0,0,-1,1196,1044,0,0
-21,-20,0,0,0,0,0,0,0,0,0,-1,1203,1044,0,0
-14,-20,0,0,0,0,0,0,0,0,0,-1,1210,1044,0,0
-7,-20,0,0,0,0,0,0,0,0,0,-1,1217,1044,0,0
0,-20,0,0,0,0,0,0,0,0,0,-1,1224,1044,0,0
7,-20,0,0,0,0,0,0,0,0,0,-1,1231,1044,0,0
14,-20,0,0,0,0,0,0,0,0,0,-1,1238,1044,0,0
21,-20,0,0,0,0,0,0,0,0,0,-1,1245,1044,0,0
28,-20,0,0,0,0,0,0,0,0,0,-1,1252,1044,0,0
35,-20,0,0,0,0,0,0,0,0,0,-1,1259,1044,0,0
42,-20,0,0,0,0,0,0,0,0,0,-1,1266,1044,0,0
49,-20,0,0,0,0,0,0,0,0,0,-1,1273,1044,0,0
56,-20,0,0,0,0,0,0,0,0,0,-1,1280,1044,0,0
63,-20,0,0,0,0,0,0,0,0,0,-1,1287,1044,0,0
70,-20,0,0,0,0,0,0,0,0,0,-1,1294,1044,0,0
77,-20,0,0,0,0,0,0,0,0,0,-1,1301,1044,0,0
84,-20,0,0,0,0,0,0,0,0,0,-1,1308,1044,0,0
91,-20,0,0,0,0,0,0,0,0,0,-1,1315,1044,0,0
98,-20,0,0,0,0,0,0,0,0,0,-1,1322,1044,0,0
105,-20,0,0,0,0,0,0,0,0,0,-1,1329,1044,0,0
112,-20,0,0,0,0,0,0,0,0,0,-1,1336,1044,0,0
119,-20,0,0,0,0,0,0,0,0,0,-1,1343,1044,0,0
126,-20,0,0,0,0,0,0,0,0,0,-1,1350,1044,0,0
133,-20,0,0,0,0,0,0,0,0,0,-1,1357,1044,0,0
140,-20,0,0,0,0,0,0,0,0,0,-1,1364,1044,0,0
147,-20,0,0,0,0,0,0,0,0,0,-1,1371,1044,0,0
154,-20,0,0,0,0,0,0,0,0,0,-1,1378,1044,0,0
161,-20,0,0,0,0,0,0,0,0,0,-1,1385,1044,0,0
168,-20,0,0,0,0,0,0,0,0,0,-1,1392,1044,0,0
175,-20,0,0,0,0,0,0,0,0,0,-1,1399,1044,0,0
182,-20,0,0,0,0,0,0,0,0,0,-1,1406,1044,0,0
189,-20,0,0,0,0,0,0,0,0,0,-1,1413,1044,0,0
196,-20,0,0,0,0,0,0,0,0,0,-1,1420,1044,0,0
203,-20,0,0,0,0,0,0,0,0,0,-1,1427,1044,0,0
210,-20,0,0,0,0,0,0,0,0,0,-1,1434,1044,0,0
217,-20,0,0,0,0,0,0,0,0,0,-1,1441,1044,0,0
224,-20,0,0,0,0,0,0,0,0,0,-1,1448,1044,0,0
231,-20,0,0,0,0,0,0,0,0,0,-1,1455,1044,0,0
238,-20,0,0,0,0,0,0,0,0,0,-1,1462,1044,0,0
245,-20,0,0,0,0,0,0,0,0,0,-1,1469,1044,0,0
252,-20,0,0,0,0,0,0,0,0,0,-1,1476,1044,0,0
259,-20,0,0,0,0,0,0,0,0,0,-1,1483,1044,0,0
266,-20,0,0,0,0,0,0,0,0,0,-1,1490,1044,0,0
273,-20,0,0,0,0,0,0,0,0,0,-1,1497,1044,0,0
280,-20,0,0,0,0,0,0,0,0,0,-1,1504,1044,0,0
287,-20,0,0,0,0,0,0,0,0,0,-1,1511,1044,0,0
294,-20,0,0,0,0,0,0,0,0,0,-1,1518,1044,0,0
301,-20,0,0,0,0,0,0,0,0,0,-1,1525,1044,0,0
308,-20,0,0,0,0,0,0,0,0,0,-1,1532,1044,0,0
315,-20,0,0,0,0,0,0,0,0,0,-1,1539,1044,0,0
322,-20,0,0,0,0,0,0,0,0,0,-1,1546,1044,0,0
329,-20,0,0,0,0,0,0,0,0,0,-1,1553,1044,0,0
336,-20,0,0,0,0,0,0,0,0,0,-1,1560,1044,0,0
343,-20,0,0,0,0,0,0,0,0,0,-1,1567,1044,0,0
350,-20,0,0,0,0,0,0,0,0,0,-1,1574,1044,0,0
357,-20,0,0,0,0,0,0,0,0,0,-1,1581,1044,0,0
364,-20,0,0,0,0,0,0,0,0,0,-1,1588,1044,0,0
371,-20,0,0,0,0,0,0,0,0,0,-1,1595,1044,0,0
378,-20,0,0,0,0,0,0,0,0,0,-1,1602,1044,0,0
385,-20,0,0,0,0,0,0,0,0,0,-1,1609,1044,0,0
392,-20,0,0,0,0,0,0,0,0,0,-1,1616,1044,0,0
399,-20,0,0,0,0,0,0,0,0,0,-1,1623,1044,0,0
406,-20,0,0,0,0,0,0,0,0,0,-1,1630,1044,0,0
413,-20,0,0,0,0,0,0,0,0,0,-1,1637,1044,0,0
420,-20,0,0,0,0,0,0,0,0,0,-1,1644,1044,0,0
427,-20,0,0,0,0,0,0,0,0,0,-1,1651,1044,0,0
434,-20,0,0,0,0,0,0,0,0,0,-1,1658,1044,0,0
441,-20,0,0,0,0,0,0,0,0,0,-1,1665,1044,0,0
448,-20,0,0,0,0,0,0,0,0,0,-1,1672,1044,0,0
455,-20,0,0,0,0,0,0,0,0,0,-1,1679,1044,0,0
462,-20,0,0,0,0,0,0,0,0,0,-1,1686,1044,0,0
469,-20,0,0,0,0,0,0,0,0,0,-1,1693,1044,0,0
476,-20,0,0,0,0,0,0,0,0,0,-1,1700,1044,0,0
483,-20,0,0,0,0,0,0,0,0,0,-1,1707,1044,0,0
490,-20,0,0,0,0,0,0,0,0,0,-1,1714,1044,0,0
497,-20,0,0,0,0,0,0,0,0,0,-1,1721,1044,0,0
504,-20,0,0,0,0,0,0,0,0,0,-1,1728,1044,0,0
511,-20,0,0,0,0,0,0,0,0,0,-1,1735,1044,0,0
518,-20,0,0,0,0,0,0,0,0,0,-1,1742,1044,0,0
525,-20,0,0,0,0,0,0,0,0,0,-1,1749,1044,0,0
532,-20,0,0,0,0,0,0,0,0,0,-1,1756,1044,0,0
539,-20,0,0,0,0,0,0,0,0,0,-1,1763,1044,0,0
546,-20,0,0,0,0,0,0,0,0,0,-1,1770,1044,0,0
553,-20,0,0,0,0,0,0,0,0,0,-1,1777,1044,0,0
560,-20,0,0,0,0,0,0,0,0,0,-1,1784,1044,0,0
567,-20,0,0,0,0,0,0,0,0,0,-1,1791,1044,0,0
574,-20,0,0,0,0,0,0,0,0,0,-1,1798,1044,0,0
581,-20,0,0,0,0,0,0,0,0,0,-1,1805,1044,0,0
588,-20,0,0,0,0,0,0,0,0,0,-1,1812,1044,0,0
595,-20,0,0,0,0,0,0,0,0,0,-1,1819,1044,0,0
602,-20,0,0,0,0,0,0,0,0,0,-1,1826,1044,0,0
609,-20,0,0,0,0,0,0,0,0,0,-1,1833,1044,0,0
616,-20,0,0,0,0,0,0,0,0,0,-1,1840,1044,0,0
623,-20,0,0,0,0,0,0,0,0,0,-1,1847,1044,0,0
630,-20,0,0,0,0,0,0,0,0,0,-1,1854,1044,0,0
637,-20,0,0,0,0,0,0,0,0,0,-1,1861,1044,0,0
644,-20,0,0,0,0,0,0,0,0,0,-1,1868,1044,0,0
651,-20,7.27026,1.28296,0.000134382,-0.0036746,0.00149844,0.000653194,-0.00419341,0.333317,0.00303684,0.0410712,1875,1044,7.2703,-1.28302
658,-20,7.2489,1.23792,-0.000397525,-0.00179247,0.00068556,-0.000117011,-0.00207299,0.388392,0.00134469,0.0422848,1882,1044,7.24886,-1.23795
665,-20,7.21729,1.14844,-0.000630134,-0.00049669,0.000245164,-0.000309331,-0.000817493,0.918257,0.00047661,0.0395684,1889,1044,7.21733,-1.14847
672,-20,7.14807,1.05115,-0.000768792,0.000382024,0.000157167,0.000403102,-0.00078987,1.43748,0.000700725,0.0254126,1896,1044,7.1481,-1.05117
679,-20,7.14124,1.0415,-0.000906361,0.000909519,0.000328758,0.000967206,-0.000964049,1.39709,0.00111501,0.0290571,1903,1044,7.14129,-1.04146
686,-20,7.22876,0.975342,-0.000987831,0.00117552,0.000605485,0.00133345,-0.00114577,1.31564,0.00143274,0.0411798,1910,1044,7.22876,-0.975284
693,-20,7.29797,0.997192,-0.00103493,0.00125407,0.000904187,0.00156814,-0.001349,1.23648,0.0016858,0.0433163,1917,1044,7.29795,-0.997148
700,-20,7.19312,1.16626,-0.00104015,0.00125079,0.00114625,0.00172581,-0.00151517,1.17793,0.0018725,0.0372226,1924,1044,7.1931,-1.16625
707,-20,7.18896,1.0437,-0.00111947,0.00124219,0.0013378,0.00184575,-0.00172304,1.14697,0.00206085,0.0284667,1931,1044,7.18898,-1.04375
714,-20,7.18848,1.03577,-0.00108999,0.00107804,0.00147972,0.00182833,-0.00184027,1.10153,0.00211807,0.022176,1938,1044,7.18847,-1.03575
721,-20,7.16418,1.06433,-0.000975607,0.000877406,0.00151676,0.00172825,-0.00182645,1.05958,0.00205257,0.0156378,1945,1044,7.16416,-1.06438
728,-20,7.1001,1.19812,-0.00093423,0.000676832,0.0015397,0.00160899,-0.00186639,1.0264,0.00200834,0.0138363,1952,1044,7.1001,-1.19809
735,-20,7.11157,1.23645,-0.00101738,0.000568236,0.00142095,0.00140258,-0.00185173,1.03986,0.00188483,0.0154359,1959,1044,7.11156,-1.23639
742,-20,7.13135,1.22717,-0.000970057,0.000652665,0.000953073,0.00109296,-0.00141036,1.13803,0.00144916,0.0140464,1966,1044,7.13132,-1.22719
749,-20,7.14172,1.19739,-0.000620929,0.000511627,-1.08844e-05,0.000511732,-0.000621034,-1.56119,0.000655017,0.0153933,1973,1044,7.14178,-1.19735
756,-20,7.15649,1.19861,0.000185548,0.000893127,-0.00112766,0.00172119,-0.00064252,-0.937404,0.00141126,0.0122543,1980,1044,7.15647,-1.19857
763,-20,7.14514,1.20105,0.00162137,0.00204333,-0.00216094,0.00400357,-0.000338865,-0.834062,0.00278887,0.0122303,1987,1044,7.14509,-1.20103
770,-20,7.13354,1.22339,0.00315947,0.00304057,-0.00355194,0.00665246,-0.000452425,-0.77703,0.00459321,0.0111053,1994,1044,7.1336,-1.22342
777,-20,7.12329,1.22632,0.00539356,0.00452413,-0.00522244,0.0101993,-0.000281655,-0.743874,0.00689536,0.0111841,2001,1044,7.12326,-1.22636
784,-20,7.14294,1.23035,0.00851928,0.00664814,-0.00713211,0.0147769,0.000390504,-0.720182,0.00972372,0.0157195,2008,1044,7.14289,-1.23032
791,-20,7.1665,1.2356,0.0129157,0.00964337,-0.00931762,0.0207397,0.00181936,-0.698484,0.0132617,0.0335416,2015,1044,7.16645,-1.23562
798,-20,6.9978,-0.221558,0,0,0,0,0,0,0,-1,2022,1044,6.99775,0.2215
805,-20,7.40942,-0.304932,0,0,0,0,0,0,0,-1,2029,1044,7.40942,0.304883
812,-20,7.67346,-0.224365,0,0,0,0,0,0,0,-1,2036,1044,7.67352,0.224389
-700,-27,3.17035,-2.57104,0,0,0,0,0,0,0,-1,524,1051,3.17032,2.571
-693,-27,2.59314,-2.35547,-0.108292,0.0303403,0.0557103,0.0499532,-0.127905,1.2323,0.105923,0.0486617,531,1051,2.59311,2.3555
-686,-27,2.05042,-1.96741,-0.0874154,0.0226324,0.0442734,0.0382326,-0.103016,1.23202,0.0843603,0.0445126,538,1051,2.05043,1.96742
-679,-27,-2.30988,1.62671,-0.0689379,0.0168625,0.0343921,0.0289463,-0.0810218,1.23291,0.0658203,0.0447966,545,1051,-2.30985,-1.62676
-672,-27,-2.14337,1.23279,-0.0531847,0.0124574,0.02616,0.0216074,-0.0623347,1.23433,0.0503295,0.0440531,552,1051,-2.14338,-1.23282
-665,-27,-2.11938,0.646606,-0.0400295,0.00907663,0.019455,0.0158501,-0.046803,1.23576,0.0376155,0.0462264,559,1051,-2.11935,-0.646573
-658,-27,-2.67786,0.536987,-0.0293261,0.00649485,0.0141115,0.0113861,-0.0342174,1.23714,0.027407,0.0446554,566,1051,-2.67785,-0.537007
-651,-27,-2.73596,0.751221,-0.0208945,0.00454399,0.00996802,0.00798459,-0.0243351,1.23844,0.0194394,0.0334504,573,1051,-2.73599,-0.751208
-644,-27,-2.71783,0.838501,-0.0144404,0.0030781,0.00682089,0.00542061,-0.0167829,1.23999,0.013367,0.0158024,580,1051,-2.71783,-0.838507
-637,-27,-2.70874,0.786255,-0.00916084,0.00176257,0.00439947,0.00331411,-0.0107124,1.23175,0.00846536,0.0127293,587,1051,-2.70874,-0.786206
-630,-27,-2.74701,0.825928,-0.00518064,0.000833464,0.00239494,0.00167064,-0.00601782,1.23451,0.00466946,0.0168128,594,1051,-2.74698,-0.825923
-623,-27,-2.74805,0.831909,-0.00251744,0.000804086,0.000501654,0.000878198,-0.00259155,1.42412,0.00208308,0.0149105,601,1051,-2.74804,-0.831877
-616,-27,-2.72662,0.838989,-0.0014369,-0.00016604,-0.000217415,-0.000129875,-0.00147306,-1.40596,0.00094174,0.0130936,608,1051,-2.72664,-0.838973
-609,-27,-2.7229,0.853394,-0.000413828,-7.70202e-05,-0.000572592,0.000351419,-0.000842267,-0.928419,0.00070833,0.013786,615,1051,-2.72292,-0.85342
-602,-27,-2.70972,0.872681,1.32337e-05,0.000154699,-0.000788756,0.000875888,-0.000707955,-0.830117,0.000916144,0.0114297,622,1051,-2.70972,-0.872621
-595,-27,-2.71576,0.886841,-0.000143782,8.49964e-05,-0.00103498,0.00101189,-0.00107068,-0.840436,0.00120253,0.00920217,629,1051,-2.71573,-0.886874
-588,-27,-2.7287,0.822388,-0.000548913,0.000231999,-0.000957237,0.00087535,-0.00119227,-0.979047,0.0011984,0.0153946,636,1051,-2.72867,-0.82238
-581,-27,-2.71643,0.728027,-0.00100683,0.000457406,-0.000648186,0.000703113,-0.00125254,-1.20846,0.00114385,0.0218736,643,1051,-2.71645,-0.728035
-574,-27,-2.73071,0.748901,-0.00156705,0.000735231,-0.000279136,0.000768591,-0.00160041,-1.45185,0.00139556,0.034685,650,1051,-2.73072,-0.748938
-567,-27,-2.79114,0.578857,-0.00236755,0.00109,0.000334907,0.00112214,-0.0023997,1.47512,0.00207745,0.0434164,657,1051,-2.79116,-0.5789
-560,-27,-2.6947,0.419067,-0.00342231,0.0015126,0.00123251,0.0018033,-0.00371301,1.33917,0.00324783,0.0465418,664,1051,-2.69472,-0.419041
-553,-27,-2.70612,0.592041,-0.00478161,0.00199358,0.00244105,0.00278145,-0.00556948,1.25859,0.00491016,0.0437242,671,1051,-2.70612,-0.592007
-546,-27,-2.77606,0.915039,-0.00653812,0.00251515,0.00400723,0.00403404,-0.00805701,1.20849,0.0071084,0.0458673,678,1051,-2.77604,-0.91504
-539,-27,-3.04144,1.1925,-0.00869889,0.00302798,0.00592689,0.00550169,-0.0111726,1.17541,0.00981073,0.0473389,685,1051,-3.04144,-1.19257
-532,-27,-3.10126,1.25244,-0.0113084,0.00352477,0.00806642,0.00706596,-0.0148496,1.15712,0.0129162,0.0430168,692,1051,-3.10124,-1.25246
-525,-27,0,0,0,0,0,0,0,0,0,-1,699,1051,0,0
-518,-27,0,0,0,0,0,0,0,0,0,-1,706,1051,0,0
-511,-27,0,0,0,0,0,0,0,0,0,-1,713,1051,0,0
-504,-27,0,0,0,0,0,0,0,0,0,-1,720,1051,0,0
-497,-27,0,0,0,0,0,0,0,0,0,-1,727,1051,0,0
-490,-27,0,0,0,0,0,0,0,0,0,-1,734,1051,0,0
-483,-27,0,0,0,0,0,0,0,0,0,-1,741,1051,0,0
-476,-27,0,0,0,0,0,0,0,0,0,-1,748,1051,0,0
-469,-27,0,0,0,0,0,0,0,0,0,-1,755,1051,0,0
-462,-27,0,0,0,0,0,0,0,0,0,-1,762,1051,0,0
-455,-27,0,0,0,0,0,0,0,0,0,-1,769,1051,0,0
-448,-27,0,0,0,0,0,0,0,0,0,-1,776,1051,0,0
-441,-27,0,0,0,0,0,0,0,0,0,-1,783,1051,0,0
-434,-27,0,0,0,0,0,0,0,0,0,-1,790,1051,0,0
-427,-27,0,0,0,0,0,0,0,0,0,-1,797,1051,0,0
-420,-27,0,0,0,0,0,0,0,0,0,-1,804,1051,0,0
-413,-27,0,0,0,0,0,0,0,0,0,-1,811,1051,0,0
-406,-27,0,0,0,0,0,0,0,0,0,-1,818,1051,0,0
-399,-27,0,0,0,0,0,0,0,0,0,-1,825,1051,0,0
-392,-27,0,0,0,0,0,0,0,0,0,-1,832,1051,0,0
-385,-27,0,0,0,0,0,0,0,0,0,-1,839,1051,0,0
-378,-27,0,0,0,0,0,0,0,0,0,-1,846,1051,0,0
-371,-27,0,0,0,0,0,0,0,0,0,-1,853,1051,0,0
-364,-27,0,0,0,0,0,0,0,0,0,-1,860,1051,0,0
-357,-27,0,0,0,0,0,0,0,0,0,-1,867,1051,0,0
-350,-27,0,0,0,0,0,0,0,0,0,-1,874,1051,0,0
-343,-27,0,0,0,0,0,0,0,0,0,-1,881,1051,0,0
-336,-27,0,0,0,0,0,0,0,0,0,-1,888,1051,0,0
-329,-27,0,0,0,0,0,0,0,0,0,-1,895,1051,0,0
-322,-27,0,0,0,0,0,0,0,0,0,-1,902,1051,0,0
-315,-27,0,0,0,0,0,0,0,0,0,-1,909,1051,0,0
-308,-27,0,0,0,0,0,0,0,0,0,-1,916,1051,0,0
-301,-27,0,0,0,0,0,0,0,0,0,-1,923,1051,0,0
-294,-27,0,0,0,0,0,0,0,0,0,-1,930,1051,0,0
-287,-27,0,0,0,0,0,0,0,0,0,-1,937,1051,0,0
-280,-27,0,0,0,0,0,0,0,0,0,-1,944,1051,0,0
-273,-27,0,0,0,0,0,0,0,0,0,-1,951,1051,0,0
-266,-27,0,0,0,0,0,0,0,0,0,-1,958,1051,0,0
-259,-27,0,0,0,0,0,0,0,0,0,-1,965,1051,0,0
-252,-27,0,0,0,0,0,0,0,0,0,-1,972,1051,0,0
-245,-27,0,0,0,0,0,0,0,0,0,-1,979,1051,0,0
-238,-27,0,0,0,0,0,0,0,0,0,-1,986,1051,0,0
-231,-27,0,0,0,0,0,0,0,0,0,-1,993,1051,0,0
-224,-27,0,0,0,0,0,0,0,0,0,-1,1000,1051,0,0
-217,-27,0,0,0,0,0,0,0,0,0,-1,1007,1051,0,0
-210,-27,0,0,0,0,0,0,0,0,0,-1,1014,1051,0,0
-203,-27,0,0,0,0,0,0,0,0,0,-1,1021,1051,0,0
-196,-27,0,0,0,0,0,0,0,0,0,-1,1028,1051,0,0
-189,-27,0,0,0,0,0,0,0,0,0,-1,1035,1051,0,0
-182,-27,0,0,0,0,0,0,0,0,0,-1,1042,1051,0,0
-175,-27,0,0,0,0,0,0,0,0,0,-1,1049,1051,0,0
-168,-27,0,0,0,0,0,0,0,0,0,-1,1056,1051,0,0
-161,-27,0,0,0,0,0,0,0,0,0,-1,1063,1051,0,0
-154,-27,0,0,0,0,0,0,0,0,0,-1,1070,1051,0,0
-147,-27,0,0,0,0,0,0,0,0,0,-1,1077,1051,0,0
-140,-27,0,0,0,0,0,0,0,0,0,-1,1084,1051,0,0
-133,-27,0,0,0,0,0,0,0,0,0,-1,1091,1051,0,0
-126,-27,0,0,0,0,0,0,0,0,0,-1,1098,1051,0,0
-119,-27,0,0,0,0,0,0,0,0,0,-1,1105,1051,0,0
-112,-27,0,0,0,0,0,0,0,0,0,-1,1112,1051,0,0
-105,-27,0,0,0,0,0,0,0,0,0,-1,1119,1051,0,0
-98,-27,0,0,0,0,0,0,0,0,0,-1,1126,1051,0,0
-91,-27,0,0,0,0,0,0,0,0,0,-1,1133,1051,0,0
-84,-27,0,0,0,0,0,0,0,0,0,-1,1140,1051,0,0
-77,-27,0,0,0,0,0,0,0,0,0,-1,1147,1051,0,0
-70,-27,0,0,0,0,0,0,0,0,0,-1,1154,1051,0,0
-63,-27,0,0,0,0,0,0,0,0,0,-1,1161,1051,0,0
-56,-27,0,0,0,0,0,0,0,0,0,-1,1168,1051,0,0
-49,-27,0,0,0,0,0,0,0,0,0,-1,1175,1051,0,0
-42,-27,0,0,0,0,0,0,0,0,0,-1,1182,1051,0,0
-35,-27,0,0,0,0,0,0,0,0,0,-1,1189,1051,0,0
-28,-27,0,0,0,0,0,0,0,0,0,-1,1196,1051,0,0
-21,-27,0,0,0,0,0,0,0,0,0,-1,1203,1051,0,0
-14,-27,0,0,0,0,0,0,0,0,0,-1,1210,1051,0,0
-7,-27,0,0,0,0,0,0,0,0,0,-1,1217,1051,0,0
0,-27,0,0,0,0,0,0,0,0,0,-1,1224,1051,0,0
7,-27,0,0,0,0,0,0,0,0,0,-1,1231,1051,0,0
14,-27,0,0,0,0,0,0,0,0,0,-1,1238,1051,0,0
21,-27,0,0,0,0,0,0,0,0,0,-1,1245,1051,0,0
28,-27,0,0,0,0,0,0,0,0,0,-1,1252,1051,0,0
35,-27,0,0,0,0,0,0,0,0,0,-1,1259,1051,0,0
42,-27,0,0,0,0,0,0,0,0,0,-1,1266,1051,0,0
49,-27,0,0,0,0,0,0,0,0,0,-1,1273,1051,0,0
56,-27,0,0,0,0,0,0,0,0,0,-1,1280,1051,0,0
63,-27,0,0,0,0,0,0,0,0,0,-1,1287,1051,0,0
70,-27,0,0,0,0,0,0,0,0,0,-1,1294,1051,0,0
77,-27,0,0,0,0,0,0,0,0,0,-1,1301,1051,0,0
84,-27,0,0,0,0,0,0,0,0,0,-1,1308,1051,0,0
91,-27,0,0,0,0,0,0,0,0,0,-1,1315,1051,0,0
98,-27,0,0,0,0,0,0,0,0,0,-1,1322,1051,0,0
105,-27,0,0,0,0,0,0,0,0,0,-1,1329,1051,0,0
112,-27,0,0,0,0,0,0,0,0,0,-1,1336,1051,0,0
119,-27,0,0,0,0,0,0,0,0,0,-1,1343,1051,0,0
126,-27,0,0,0,0,0,0,0,0,0,-1,1350,1051,0,0
133,-27,0,0,0,0,0,0,0,0,0,-1,1357,1051,0,0
140,-27,0,0,0,0,0,0,0,0,0,-1,1364,1051,0,0
147,-27,0,0,0,0,0,0,0,0,0,-1,1371,1051,0,0
154,-27,0,0,0,0,0,0,0,0,0,-1,1378,1051,0,0
161,-27,0,0,0,0,0,0,0,0,0,-1,1385,1051,0,0
168,-27,0,0,0,0,0,0,0,0,0,-1,1392,1051,0,0
175,-27,0,0,0,0,0,0,0,0,0,-1,1399,1051,0,0
182,-27,0,0,0,0,0,0,0,0,0,-1,1406,1051,0,0
189,-27,0,0,0,0,0,0,0,0,0,-1,1413,1051,0,0
196,-27,0,0,0,0,0,0,0,0,0,-1,1420,1051,0,0
203,-27,0,0,0,0,0,0,0,0,0,-1,1427,1051,0,0
210,-27,0,0,0,0,0,0,0,0,0,-1,1434,1051,0,0
217,-27,0,0,0,0,0,0,0,0,0,-1,1441,1051,0,0
224,-27,0,0,0,0,0,0,0,0,0,-1,1448,1051,0,0
231,-27,0,0,0,0,0,0,0,0,0,-1,1455,1051,0,0
238,-27,0,0,0,0,0,0,0,0,0,-1,1462,1051,0,0
245,-27,0,0,0,0,0,0,0,0,0,-1,1469,1051,0,0
252,-27,0,0,0,0,0,0,0,0,0,-1,1476,1051,0,0
259,-27,0,0,0,0,0,0,0,0,0,-1,1483,1051,0,0
266,-27,0,0,0,0,0,0,0,0,0,-1,1490,1051,0,0
273,-27,0,0,0,0,0,0,0,0,0,-1,1497,1051,0,0
280,-27,0,0,0,0,0,0,0,0,0,-1,1504,1051,0,0
287,-27,0,0,0,0,0,0,0,0,0,-1,1511,1051,0,0
294,-27,0,0,0,0,0,0,0,0,0,-1,1518,1051,0,0
301,-27,0,0,0,0,0,0,0,0,0,-1,1525,1051,0,0
308,-27,0,0,0,0,0,0,0,0,0,-1,1532,1051,0,0
315,-27,0,0,0,0,0,0,0,0,0,-1,1539,1051,0,0
322,-27,0,0,0,0,0,0,0,0,0,-1,1546,1051,0,0
329,-27,0,0,0,0,0,0,0,0,0,-1,1553,1051,0,0
336,-27,0,0,0,0,0,0,0,0,0,-1,1560,1051,0,0
343,-27,0,0,0,0,0,0,0,0,0,-1,1567,1051,0,0
350,-27,0,0,0,0,0,0,0,0,0,-1,1574,1051,0,0
357,-27,0,0,0,0,0,0,0,0,0,-1,1581,1051,0,0
364,-27,0,0,0,0,0,0,0,0,0,-1,1588,1051,0,0
371,-27,0,0,0,0,0,0,0,0,0,-1,1595,1051,0,0
378,-27,0,0,0,0,0,0,0,0,0,-1,1602,1051,0,0
385,-27,0,0,0,0,0,0,0,0,0,-1,1609,1051,0,0
392,-27,0,0,0,0,0,0,0,0,0,-1,1616,1051,0,0
399,-27,0,0,0,0,0,0,0,0,0,-1,1623,1051,0,0
406,-27,0,0,0,0,0,0,0,0,0,-1,1630,1051,0,0
413,-27,0,0,0,0,0,0,0,0,0,-1,1637,1051,0,0
420,-27,0,0,0,0,0,0,0,0,0,-1,1644,1051,0,0
427,-27,0,0,0,0,0,0,0,0,0,-1,1651,1051,0,0
434,-27,0,0,0,0,0,0,0,0,0,-1,1658,1051,0,0
441,-27,0,0,0,0,0,0,0,0,0,-1,1665,1051,0,0
448,-27,0,0,0,0,0,0,0,0,0,-1,1672,1051,0,0
455,-27,0,0,0,0,0,0,0,0,0,-1,1679,1051,0,0
462,-27,0,0,0,0,0,0,0,0,0,-1,1686,1051,0,0
469,-27,0,0,0,0,0,0,0,0,0,-1,1693,1051,0,0
476,-27,0,0,0,0,0,0,0,0,0,-1,1700,1051,0,0
483,-27,0,0,0,0,0,0,0,0,0,-1,1707,1051,0,0
490,-27,0,0,0,0,0,0,0,0,0,-1,1714,1051,0,0
497,-27,0,0,0,0,0,0,0,0,0,-1,1721,1051,0,0
504,-27,0,0,0,0,0,0,0,0,0,-1,1728,1051,0,0
511,-27,0,0,0,0,0,0,0,0,0,-1,1735,1051,0,0
518,-27,0,0,0,0,0,0,0,0,0,-1,1742,1051,0,0
525,-27,0,0,0,0,0,0,0,0,0,-1,1749,1051,0,0
532,-27,0,0,0,0,0,0,0,0,0,-1,1756,1051,0,0
539,-27,0,0,0,0,0,0,0,0,0,-1,1763,1051,0,0
546,-27,0,0,0,0,0,0,0,0,0,-1,1770,1051,0,0
553,-27,0,0,0,0,0,0,0,0,0,-1,1777,1051,0,0
560,-27,0,0,0,0,0,0,0,0,0,-1,1784,1051,0,0
567,-27,0,0,0,0,0,0,0,0,0,-1,1791,1051,0,0
574,-27,0,0,0,0,0,0,0,0,0,-1,1798,1051,0,0
581,-27,0,0,0,0,0,0,0,0,0,-1,1805,1051,0,0
588,-27,0,0,0,0,0,0,0,0,0,-1,1812,1051,0,0
595,-27,0,0,0,0,0,0,0,0,0,-1,1819,1051,0,0
602,-27,0,0,0,0,0,0,0,0,0,-1,1826,1051,0,0
609,-27,0,0,0,0,0,0,0,0,0,-1,1833,1051,0,0
616,-27,0,0,0,0,0,0,0,0,0,-1,1840,1051,0,0
623,-27,0,0,0,0,0,0,0,0,0,-1,1847,1051,0,0
630,-27,0,0,0,0,0,0,0,0,0,-1,1854,1051,0,0
637,-27,0,0,0,0,0,0,0,0,0,-1,1861,1051,0,0
644,-27,0,0,0,0,0,0,0,0,0,-1,1868,1051,0,0
651,-27,7.24683,1.24048,-0.000273348,-0.00158729,0.00147012,0.000679917,-0.00254055,0.575269,0.00196005,0.0394461,1875,1051,7.24685,-1.24046
658,-27,7.19971,1.15381,-0.000691722,-0.000310014,0.000685394,0.000210602,-0.00121234,0.921188,0.000886802,0.0379773,1882,1051,7.19969,-1.15384
665,-27,7.1394,1.0498,-0.000814336,0.000511265,0.000258423,0.000559862,-0.000862933,1.38491,0.00082764,0.0364824,1889,1051,7.13945,-1.0498
672,-27,7.12769,1.02869,-0.000877762,0.00102258,0.000185164,0.00104045,-0.000895636,1.47457,0.00111884,0.0285671,1896,1051,7.12773,-1.02873
679,-27,7.19653,1.08557,-0.000966428,0.00127353,0.000380689,0.00133646,-0.00102936,1.40697,0.00136974,0.0284125,1903,1051,7.19656,-1.08561
686,-27,7.10547,0.702759,-0.00101685,0.00134372,0.00067931,0.00152524,-0.00119838,1.30967,0.00157626,0.0423005,1910,1051,7.10545,-0.70272
693,-27,7.11694,0.632568,-0.00104354,0.00129133,0.000997695,0.00165957,-0.00141178,1.21722,0.00177517,0.044128,1917,1051,7.1169,-0.632588
700,-27,7.20129,0.993042,-0.00103797,0.00120011,0.00127121,0.00177465,-0.00161251,1.14631,0.00195633,0.0385727,1924,1051,7.20127,-0.993028
707,-27,7.17688,1.03259,-0.00110517,0.00110111,0.0014683,0.0018345,-0.00183855,1.10757,0.00212063,0.0230197,1931,1051,7.17683,-1.03261
714,-27,7.16821,1.00781,-0.00105996,0.000908292,0.00159873,0.00180151,-0.00195318,1.06129,0.00216836,0.0171832,1938,1051,7.16817,-1.00783
721,-27,7.1488,1.07629,-0.0009364,0.00072185,0.00162917,0.00172074,-0.00193529,1.02078,0.00211203,0.0153232,1945,1051,7.14879,-1.07629
728,-27,7.13416,1.18494,-0.000900077,0.000543839,0.00165662,0.00162899,-0.00198522,0.99089,0.00209004,0.0152323,1952,1051,7.13413,-1.18489
735,-27,7.10974,1.22888,-0.000993037,0.000474415,0.00152839,0.00143608,-0.0019547,1.00918,0.00196529,0.0158155,1959,1051,7.10976,-1.22884
742,-27,7.11792,1.22595,-0.000971024,0.000558529,0.00099235,0.00104661,-0.0014591,1.1137,0.00145319,0.0165029,1966,1051,7.11793,-1.22601
749,-27,7.1499,1.20728,-0.000566261,0.000523748,-4.84785e-05,0.000525899,-0.000568413,-1.52644,0.00063196,0.0117387,1973,1051,7.14996,-1.20727
756,-27,7.15771,1.20801,0.000351634,0.000959477,-0.00131809,0.00200823,-0.000697115,-0.898707,0.00162192,0.010868,1980,1051,7.15768,-1.20801
763,-27,7.13684,1.20398,0.0019681,0.00208613,-0.00263014,0.00465791,-0.000603688,-0.796615,0.00332482,0.0119382,1987,1051,7.13678,-1.20394
770,-27,7.10693,1.20898,0.00370455,0.00311595,-0.00430591,0.00772621,-0.000905709,-0.751278,0.00547773,0.0135961,1994,1051,7.10698,-1.20896
777,-27,7.11011,1.22815,0.00623569,0.00462641,-0.00636898,0.0118507,-0.000988563,-0.722562,0.00824973,0.0143525,2001,1051,7.11012,-1.22813
784,-27,7.15295,1.22571,0.00979711,0.00675857,-0.00880054,0.0172086,-0.00065288,-0.699924,0.0116961,0.0214717,2008,1051,7.15296,-1.22572
791,-27,7.0791,0.984253,0.014821,0.00973437,-0.0116846,0.0242359,0.000319547,-0.678237,0.0160518,0.0387233,2015,1051,7.07914,-0.984292
798,-27,6.78552,0.50354,0,0,0,0,0,0,0,-1,2022,1051,6.78552,-0.503485
805,-27,7.25317,-0.794678,0,0,0,0,0,0,0,-1,2029,1051,7.25322,0.794621
812,-27,6.87134,0.294678,0,0,0,0,0,0,0,-1,2036,1051,6.87131,-0.294685
-700,-34,-3.01312,0.0977783,0,0,0,0,0,0,0,-1,524,1058,-3.01314,-0.0977511
-693,-34,2.6004,-2.77808,0,0,0,0,0,0,0,-1,531,1058,2.60039,2.77807
-686,-34,2.47614,-2.83679,0,0,0,0,0,0,0,-1,538,1058,2.47612,2.83674
-679,-34,-2.89282,0.231567,0,0,0,0,0,0,0,-1,545,1058,-2.89281,-0.231557
-672,-34,-2.6485,0.490234,-0.0431578,0.0115143,0.0255434,0.0215911,-0.0532346,1.19504,0.0444697,0.0420057,552,1058,-2.64853,-0.490229
-665,-34,-2.46063,0.530762,-0.0321361,0.00818894,0.0187725,0.0155752,-0.0395224,1.19594,0.0327969,0.0405129,559,1058,-2.46062,-0.530813
-658,-34,-2.58307,0.554932,-0.0233079,0.0057122,0.013475,0.0110041,-0.0285998,1.19658,0.0236056,0.0399827,566,1058,-2.58308,-0.55493
-651,-34,-2.66333,0.717163,-0.0164569,0.00389185,0.00943969,0.00759644,-0.0201614,1.19682,0.0165643,0.0263878,573,1058,-2.66336,-0.717145
-644,-34,-2.72192,0.806396,-0.0112822,0.00256274,0.00642077,0.00508203,-0.0138015,1.19689,0.0112832,0.0109665,580,1058,-2.72195,-0.806428
-637,-34,-2.72699,0.790039,-0.00704858,0.00132358,0.00409176,0.0029912,-0.0087162,1.18379,0.0070235,0.0117608,587,1058,-2.72701,-0.79002
-630,-34,-2.7417,0.81543,-0.00387621,0.000461865,0.00218504,0.00137164,-0.00478599,1.17626,0.00373284,0.0142186,594,1058,-2.74169,-0.815442
-623,-34,-2.73322,0.840088,-0.00175235,0.000557385,0.000388248,0.0006209,-0.00181586,1.40864,0.00146216,0.0118793,601,1058,-2.73321,-0.84011
-616,-34,-2.7113,0.848877,-0.00108026,-0.000335275,-0.000313019,-0.000221217,-0.00119432,-1.22137,0.000733677,0.018723,608,1058,-2.71132,-0.848831
-609,-34,-2.71509,0.844727,-0.000315174,-0.000179011,-0.000637707,0.000394238,-0.000888423,-0.838577,0.000758645,0.0190199,615,1058,-2.71506,-0.844678
-602,-34,-2.7085,0.855835,7.07889e-05,4.34779e-06,-0.000843951,0.000882173,-0.000807037,-0.765727,0.000975587,0.0149711,622,1058,-2.7085,-0.855855
-595,-34,-2.71326,0.875366,-8.69011e-05,-0.000112925,-0.00112395,0.00102411,-0.00122394,-0.77961,0.00129962,0.0117497,629,1058,-2.71329,-0.875334
-588,-34,-2.70184,0.820679,-0.000473258,-6.85421e-06,-0.00106697,0.000852098,-0.00133221,-0.892989,0.00127122,0.0193005,636,1058,-2.70183,-0.820699
-581,-34,-2.67529,0.739868,-0.000889485,0.000207182,-0.000759617,0.000595699,-0.001278,-1.09802,0.00110543,0.0228728,643,1058,-2.67528,-0.739896
-574,-34,-2.61133,0.736938,-0.00140901,0.000450864,-0.000386221,0.000527877,-0.00148603,-1.37398,0.0012058,0.0353032,650,1058,-2.61136,-0.736968
-567,-34,-2.69788,0.590088,-0.00215012,0.000781952,0.000241913,0.000801777,-0.00216994,1.48903,0.0017753,0.0414729,657,1058,-2.69785,-0.590098
-560,-34,-2.81964,0.541504,-0.00311985,0.00120229,0.00116424,0.00149595,-0.0034135,1.32372,0.00290565,0.0435318,664,1058,-2.81964,-0.541529
-553,-34,-2.68793,0.611328,-0.00436576,0.00171674,0.00241059,0.00255623,-0.00520525,1.23568,0.00456726,0.044602,671,1058,-2.68795,-0.611309
-546,-34,-2.73773,0.903564,-0.00597006,0.00232571,0.00403192,0.0039624,-0.00760676,1.18519,0.00678902,0.0475359,678,1058,-2.73771,-0.903624
-539,-34,-2.88043,0.901611,-0.00793474,0.0030107,0.00601557,0.00567049,-0.0105945,1.15449,0.00953298,0.0472241,685,1058,-2.88041,-0.901578
-532,-34,-2.99225,0.971069,-0.0103014,0.0037941,0.00819593,0.0075558,-0.0140631,1.14051,0.0126687,0.0441954,692,1058,-2.99222,-0.971122
-525,-34,0,0,0,0,0,0,0,0,0,-1,699,1058,0,0
-518,-34,0,0,0,0,0,0,0,0,0,-1,706,1058,0,0
-511,-34,0,0,0,0,0,0,0,0,0,-1,713,1058,0,0
-504,-34,0,0,0,0,0,0,0,0,0,-1,720,1058,0,0
-497,-34,0,0,0,0,0,0,0,0,0,-1,727,1058,0,0
-490,-34,0,0,0,0,0,0,0,0,0,-1,734,1058,0,0
-483,-34,0,0,0,0,0,0,0,0,0,-1,741,1058,0,0
-476,-34,0,0,0,0,0,0,0,0,0,-1,748,1058,0,0
-469,-34,0,0,0,0,0,0,0,0,0,-1,755,1058,0,0
-462,-34,0,0,0,0,0,0,0,0,0,-1,762,1058,0,0
-455,-34,0,0,0,0,0,0,0,0,0,-1,769,1058,0,0
-448,-34,0,0,0,0,0,0,0,0,0,-1,776,1058,0,0
-441,-34,0,0,0,0,0,0,0,0,0,-1,783,1058,0,0
-434,-34,0,0,0,0,0,0,0,0,0,-1,790,1058,0,0
-427,-34,0,0,0,0,0,0,0,0,0,-1,797,1058,0,0
-420,-34,0,0,0,0,0,0,0,0,0,-1,804,1058,0,0
-413,-34,0,0,0,0,0,0,0,0,0,-1,811,1058,0,0
-406,-34,0,0,0,0,0,0,0,0,0,-1,818,1058,0,0
-399,-34,0,0,0,0,0,0,0,0,0,-1,825,1058,0,0
-392,-34,0,0,0,0,0,0,0,0,0,-1,832,1058,0,0
-385,-34,0,0,0,0,0,0,0,0,0,-1,839,1058,0,0
-378,-34,0,0,0,0,0,0,0,0,0,-1,846,1058,0,0
-371,-34,0,0,0,0,0,0,0,0,0,-1,853,1058,0,0
-364,-34,0,0,0,0,0,0,0,0,0,-1,860,1058,0,0
-357,-34,0,0,0,0,0,0,0,0,0,-1,867,1058,0,0
-350,-34,0,0,0,0,0,0,0,0,0,-1,874,1058,0,0
-343,-34,0,0,0,0,0,0,0,0,0,-1,881,1058,0,0
-336,-34,0,0,0,0,0,0,0,0,0,-1,888,1058,0,0
-329,-34,0,0,0,0,0,0,0,0,0,-1,895,1058,0,0
-322,-34,0,0,0,0,0,0,0,0,0,-1,902,1058,0,0
-315,-34,0,0,0,0,0,0,0,0,0,-1,909,1058,0,0
-308,-34,0,0,0,0,0,0,0,0,0,-1,916,1058,0,0
-301,-34,0,0,0,0,0,0,0,0,0,-1,923,1058,0,0
-294,-34,0,0,0,0,0,0,0,0,0,-1,930,1058,0,0
-287,-34,0,0,0,0,0,0,0,0,0,-1,937,1058,0,0
-280,-34,0,0,0,0,0,0,0,0,0,-1,944,1058,0,0
-273,-34,0,0,0,0,0,0,0,0,0,-1,951,1058,0,0
-266,-34,0,0,0,0,0,0,0,0,0,-1,958,1058,0,0
-259,-34,0,0,0,0,0,0,0,0,0,-1,965,1058,0,0
-252,-34,0,0,0,0,0,0,0,0,0,-1,972,1058,0,0
-245,-34,0,0,0,0,0,0,0,0,0,-1,979,1058,0,0
-238,-34,0,0,0,0,0,0,0,0,0,-1,986,1058,0,0
-231,-34,0,0,0,0,0,0,0,0,0,-1,993,1058,0,0
-224,-34,0,0,0,0,0,0,0,0,0,-1,1000,1058,0,0
-217,-34,0,0,0,0,0,0,0,0,0,-1,1007,1058,0,0
-210,-34,0,0,0,0,0,0,0,0,0,-1,1014,1058,0,0
-203,-34,0,0,0,0,0,0,0,0,0,-1,1021,1058,0,0
-196,-34,0,0,0,0,0,0,0,0,0,-1,1028,1058,0,0
-189,-34,0,0,0,0,0,0,0,0,0,-1,1035,1058,0,0
-182,-34,0,0,0,0,0,0,0,0,0,-1,1042,1058,0,0
-175,-34,0,0,0,0,0,0,0,0,0,-1,1049,1058,0,0
-168,-34,0,0,0,0,0,0,0,0,0,-1,1056,1058,0,0
-161,-34,0,0,0,0,0,0,0,0,0,-1,1063,1058,0,0
-154,-34,0,0,0,0,0,0,0,0,0,-1,1070,1058,0,0
-147,-34,0,0,0,0,0,0,0,0,0,-1,1077,1058,0,0
-140,-34,0,0,0,0,0,0,0,0,0,-1,1084,1058,0,0
-133,-34,0,0,0,0,0,0,0,0,0,-1,1091,1058,0,0
-126,-34,0,0,0,0,0,0,0,0,0,-1,1098,1058,0,0
-119,-34,0,0,0,0,0,0,0,0,0,-1,1105,1058,0,0
-112,-34,0,0,0,0,0,0,0,0,0,-1,1112,1058,0,0
-105,-34,0,0,0,0,0,0,0,0,0,-1,1119,1058,0,0
-98,-34,0,0,0,0,0,0,0,0,0,-1,1126,1058,0,0
-91,-34,0,0,0,0,0,0,0,0,0,-1,1133,1058,0,0
-84,-34,0,0,0,0,0,0,0,0,0,-1,1140,1058,0,0
-77,-34,0,0,0,0,0,0,0,0,0,-1,1147,1058,0,0
-70,-34,0,0,0,0,0,0,0,0,0,-1,1154,1058,0,0
-63,-34,0,0,0,0,0,0,0,0,0,-1,1161,1058,0,0
-56,-34,0,0,0,0,0,0,0,0,0,-1,1168,1058,0,0
-49,-34,0,0,0,0,0,0,0,0,0,-1,1175,1058,0,0
-42,-34,0,0,0,0,0,0,0,0,0,-1,1182,1058,0,0
-35,-34,0,0,0,0,0,0,0,0,0,-1,1189,1058,0,0
-28,-34,0,0,0,0,0,0,0,0,0,-1,1196,1058,0,0
-21,-34,0,0,0,0,0,0,0,0,0,-1,1203,1058,0,0
-14,-34,0,0,0,0,0,0,0,0,0,-1,1210,1058,0,0
-7,-34,0,0,0,0,0,0,0,0,0,-1,1217,1058,0,0
0,-34,0,0,0,0,0,0,0,0,0,-1,1224,1058,0,0
7,-34,0,0,0,0,0,0,0,0,0,-1,1231,1058,0,0
14,-34,0,0,0,0,0,0,0,0,0,-1,1238,1058,0,0
21,-34,0,0,0,0,0,0,0,0,0,-1,1245,1058,0,0
28,-34,0,0,0,0,0,0,0,0,0,-1,1252,1058,0,0
35,-34,0,0,0,0,0,0,0,0,0,-1,1259,1058,0,0
42,-34,0,0,0,0,0,0,0,0,0,-1,1266,1058,0,0
49,-34,0,0,0,0,0,0,0,0,0,-1,1273,1058,0,0
56,-34,0,0,0,0,0,0,0,0,0,-1,1280,1058,0,0
63,-34,0,0,0,0,0,0,0,0,0,-1,1287,1058,0,0
70,-34,0,0,0,0,0,0,0,0,0,-1,1294,1058,0,0
77,-34,0,0,0,0,0,0,0,0,0,-1,1301,1058,0,0
84,-34,0,0,0,0,0,0,0,0,0,-1,1308,1058,0,0
91,-34,0,0,0,0,0,0,0,0,0,-1,1315,1058,0,0
98,-34,0,0,0,0,0,0,0,0,0,-1,1322,1058,0,0
105,-34,0,0,0,0,0,0,0,0,0,-1,1329,1058,0,0
112,-34,0,0,0,0,0,0,0,0,0,-1,1336,1058,0,0
119,-34,0,0,0,0,0,0,0,0,0,-1,1343,1058,0,0
126,-34,0,0,0,0,0,0,0,0,0,-1,1350,1058,0,0
133,-34,0,0,0,0,0,0,0,0,0,-1,1357,1058,0,0
140,-34,0,0,0,0,0,0,0,0,0,-1,1364,1058,0,0
147,-34,0,0,0,0,0,0,0,0,0,-1,1371,1058,0,0
154,-34,0,0,0,0,0,0,0,0,0,-1,1378,1058,0,0
161,-34,0,0,0,0,0,0,0,0,0,-1,1385,1058,0,0
168,-34,0,0,0,0,0,0,0,0,0,-1,1392,1058,0,0
175,-34,0,0,0,0,0,0,0,0,0,-1,1399,1058,0,0
182,-34,0,0,0,0,0,0,0,0,0,-1,1406,1058,0,0
189,-34,0,0,0,0,0,0,0,0,0,-1,1413,1058,0,0
196,-34,0,0,0,0,0,0,0,0,0,-1,1420,1058,0,0
203,-34,0,0,0,0,0,0,0,0,0,-1,1427,1058,0,0
210,-34,0,0,0,0,0,0,0,0,0,-1,1434,1058,0,0
217,-34,0,0,0,0,0,0,0,0,0,-1,1441,1058,0,0
224,-34,0,0,0,0,0,0,0,0,0,-1,1448,1058,0,0
231,-34,0,0,0,0,0,0,0,0,0,-1,1455,1058,0,0
238,-34,0,0,0,0,0,0,0,0,0,-1,1462,1058,0,0
245,-34,0,0,0,0,0,0,0,0,0,-1,1469,1058,0,0
252,-34,0,0,0,0,0,0,0,0,0,-1,1476,1058,0,0
259,-34,0,0,0,0,0,0,0,0,0,-1,1483,1058,0,0
266,-34,0,0,0,0,0,0,0,0,0,-1,1490,1058,0,0
273,-34,0,0,0,0,0,0,0,0,0,-1,1497,1058,0,0
280,-34,0,0,0,0,0,0,0,0,0,-1,1504,1058,0,0
287,-34,0,0,0,0,0,0,0,0,0,-1,1511,1058,0,0
294,-34,0,0,0,0,0,0,0,0,0,-1,1518,1058,0,0
301,-34,0,0,0,0,0,0,0,0,0,-1,1525,1058,0,0
308,-34,0,0,0,0,0,0,0,0,0,-1,1532,1058,0,0
315,-34,0,0,0,0,0,0,0,0,0,-1,1539,1058,0,0
322,-34,0,0,0,0,0,0,0,0,0,-1,1546,1058,0,0
329,-34,0,0,0,0,0,0,0,0,0,-1,1553,1058,0,0
336,-34,0,0,0,0,0,0,0,0,0,-1,1560,1058,0,0
343,-34,0,0,0,0,0,0,0,0,0,-1,1567,1058,0,0
350,-34,0,0,0,0,0,0,0,0,0,-1,1574,1058,0,0
357,-34,0,0,0,0,0,0,0,0,0,-1,1581,1058,0,0
364,-34,0,0,0,0,0,0,0,0,0,-1,1588,1058,0,0
371,-34,0,0,0,0,0,0,0,0,0,-1,1595,1058,0,0
378,-34,0,0,0,0,0,0,0,0,0,-1,1602,1058,0,0
385,-34,0,0,0,0,0,0,0,0,0,-1,1609,1058,0,0
392,-34,0,0,0,0,0,0,0,0,0,-1,1616,1058,0,0
399,-34,0,0,0,0,0,0,0,0,0,-1,1623,1058,0,0
406,-34,0,0,0,0,0,0,0,0,0,-1,1630,1058,0,0
413,-34,0,0,0,0,0,0,0,0,0,-1,1637,1058,0,0
420,-34,0,0,0,0,0,0,0,0,0,-1,1644,1058,0,0
427,-34,0,0,0,0,0,0,0,0,0,-1,1651,1058,0,0
434,-34,0,0,0,0,0,0,0,0,0,-1,1658,1058,0,0
441,-34,0,0,0,0,0,0,0,0,0,-1,1665,1058,0,0
448,-34,0,0,0,0,0,0,0,0,0,-1,1672,1058,0,0
455,-34,0,0,0,0,0,0,0,0,0,-1,1679,1058,0,0
462,-34,0,0,0,0,0,0,0,0,0,-1,1686,1058,0,0
469,-34,0,0,0,0,0,0,0,0,0,-1,1693,1058,0,0
476,-34,0,0,0,0,0,0,0,0,0,-1,1700,1058,0,0
483,-34,0,0,0,0,0,0,0,0,0,-1,1707,1058,0,0
490,-34,0,0,0,0,0,0,0,0,0,-1,1714,1058,0,0
497,-34,0,0,0,0,0,0,0,0,0,-1,1721,1058,0,0
504,-34,0,0,0,0,0,0,0,0,0,-1,1728,1058,0,0
511,-34,0,0,0,0,0,0,0,0,0,-1,1735,1058,0,0
518,-34,0,0,0,0,0,0,0,0,0,-1,1742,1058,0,0
525,-34,0,0,0,0,0,0,0,0,0,-1,1749,1058,0,0
532,-34,0,0,0,0,0,0,0,0,0,-1,1756,1058,0,0
539,-34,0,0,0,0,0,0,0,0,0,-1,1763,1058,0,0
546,-34,0,0,0,0,0,0,0,0,0,-1,1770,1058,0,0
553,-34,0,0,0,0,0,0,0,0,0,-1,1777,1058,0,0
560,-34,0,0,0,0,0,0,0,0,0,-1,1784,1058,0,0
567,-34,0,0,0,0,0,0,0,0,0,-1,1791,1058,0,0
574,-34,0,0,0,0,0,0,0,0,0,-1,1798,1058,0,0
581,-34,0,0,0,0,0,0,0,0,0,-1,1805,1058,0,0
588,-34,0,0,0,0,0,0,0,0,0,-1,1812,1058,0,0
595,-34,0,0,0,0,0,0,0,0,0,-1,1819,1058,0,0
602,-34,0,0,0,0,0,0,0,0,0,-1,1826,1058,0,0
609,-34,0,0,0,0,0,0,0,0,0,-1,1833,1058,0,0
616,-34,0,0,0,0,0,0,0,0,0,-1,1840,1058,0,0
623,-34,0,0,0,0,0,0,0,0,0,-1,1847,1058,0,0
630,-34,0,0,0,0,0,0,0,0,0,-1,1854,1058,0,0
637,-34,0,0,0,0,0,0,0,0,0,-1,1861,1058,0,0
644,-34,0,0,0,0,0,0,0,0,0,-1,1868,1058,0,0
651,-34,7.24219,1.06348,-0.000744919,-0.000454828,0.00181073,0.00121665,-0.0024164,0.825365,0.00213533,0.0372441,1875,1058,7.24223,-1.06349
658,-34,7.2019,1.02197,-0.000983633,0.000413742,0.000982161,0.000920378,-0.00149027,1.09456,0.00140469,0.0416559,1882,1058,7.20184,-1.02202
665,-34,7.18347,0.925049,-0.000966755,0.000933503,0.000512042,0.00106269,-0.00109595,1.32365,0.00124634,0.0407332,1889,1058,7.18347,-0.925094
672,-34,7.17993,0.936646,-0.00094902,0.00121356,0.000409156,0.00128838,-0.00102384,1.38992,0.00133787,0.0366293,1896,1058,7.17995,-0.936649
679,-34,7.21082,1.09106,-0.000991867,0.00129269,0.000584869,0.00143372,-0.00113289,1.33419,0.00148522,0.0365601,1903,1058,7.21081,-1.09111
686,-34,7.14148,0.929199,-0.00101637,0.00124559,0.000865212,0.00153859,-0.00130936,1.24428,0.00164604,0.0445184,1910,1058,7.14152,-0.92919
693,-34,7.07556,0.562378,-0.00103162,0.0011198,0.00117054,0.00163384,-0.00154566,1.157,0.00183592,0.0457242,1917,1058,7.07561,-0.562392
700,-34,7.11462,0.800537,-0.00102838,0.000987626,0.00143437,0.00173276,-0.00177351,1.09168,0.00202439,0.0389526,1924,1058,7.11467,-0.80054
707,-34,7.16284,1.00427,-0.00109008,0.000853459,0.00163315,0.00178208,-0.00201871,1.05378,0.00219581,0.022488,1931,1058,7.16289,-1.00428
714,-34,7.1582,1.04199,-0.00103759,0.000646716,0.00174474,0.00174191,-0.00213279,1.01025,0.00224085,0.0154824,1938,1058,7.15822,-1.04197
721,-34,7.14172,1.09021,-0.000913578,0.000478861,0.00175143,0.00166738,-0.00210209,0.974579,0.00218112,0.0184887,1945,1058,7.14169,-1.09027
728,-34,7.14648,1.17017,-0.000897058,0.000328305,0.00177233,0.00159086,-0.00215962,0.951815,0.00217362,0.0150471,1952,1058,7.14648,-1.17017
735,-34,7.11743,1.21973,-0.0010041,0.000289657,0.00163205,0.00139835,-0.00211279,0.974081,0.0020411,0.0131018,1959,1058,7.11739,-1.21975
742,-34,7.11377,1.198,-0.00103345,0.000350675,0.00101057,0.000883443,-0.00156621,1.08563,0.00143251,0.0139637,1966,1058,7.11377,-1.19803
749,-34,7.13354,1.20728,-0.000603122,0.000328742,-9.23811e-05,0.000337812,-0.000612192,-1.47293,0.000556058,0.0123765,1973,1058,7.1335,-1.20729
756,-34,7.1626,1.22437,0.000460705,0.000734905,-0.00150145,0.0021055,-0.00090989,-0.830928,0.00178597,0.00990412,1980,1058,7.1626,-1.22432
763,-34,7.12549,1.21643,0.00227736,0.00161662,-0.00303941,0.00500431,-0.00111032,-0.731263,0.00376134,0.0100533,1987,1058,7.12545,-1.21647
770,-34,7.10413,1.19836,0.00423386,0.00245841,-0.00495248,0.00837754,-0.00168528,-0.696716,0.00622332,0.0150007,1994,1058,7.10409,-1.19837
777,-34,7.11218,1.23035,0.00709658,0.00368741,-0.0073229,0.0129107,-0.00212668,-0.671047,0.00939657,0.0160152,2001,1058,7.11217,-1.23035
784,-34,7.12048,1.20581,0.0111452,0.00540907,-0.0101429,0.0188178,-0.00226347,-0.647612,0.0133637,0.0305046,2008,1058,7.12049,-1.2058
791,-34,6.98865,0.906494,0.0168736,0.0078144,-0.0135246,0.026607,-0.00191901,-0.623812,0.018411,0.0433965,2015,1058,6.98867,-0.906443
798,-34,6.88782,0.601196,0.0248454,0.0111727,-0.017511,0.0368072,-0.000789104,-0.599295,0.0248054,0.0484241,2022,1058,6.88778,-0.601191
805,-34,6.90454,0.329346,0,0,0,0,0,0,0,-1,2029,1058,6.9045,-0.329388
812,-34,6.60571,0.679077,0,0,0,0,0,0,0,-1,2036,1058,6.60571,-0.679096
-700,-41,-5.16833,0.322144,0,0,0,0,0,0,0,-1,524,1065,-5.16832,-0.322188
-693,-41,-4.92389,0.523438,0,0,0,0,0,0,0,-1,531,1065,-4.92391,-0.52338
-686,-41,-3.19238,0.0922852,0,0,0,0,0,0,0,-1,538,1065,-3.1924,-0.092277
-679,-41,-3.05566,0.221802,-0.0397471,0.00945451,0.0320734,0.0252753,-0.0555679,1.11255,0.0477546,0.0459021,545,1065,-3.05569,-0.22186
-672,-41,-2.87732,0.428711,-0.0299017,0.00623217,0.0237383,0.0179968,-0.0416664,1.11068,0.0353385,0.0417827,552,1065,-2.87733,-0.428747
-665,-41,-2.69025,0.551636,-0.0220037,0.00402912,0.017226,0.0126035,-0.0305781,1.10894,0.0256408,0.0380306,559,1065,-2.69023,-0.551697
-658,-41,-2.55353,0.608643,-0.015789,0.00254594,0.0122322,0.00866469,-0.0219078,1.10697,0.0181946,0.0382709,566,1065,-2.55352,-0.608597
-651,-41,-2.61993,0.689331,-0.0110436,0.00156328,0.00849873,0.00584105,-0.0153213,1.10448,0.0126202,0.0249381,573,1065,-2.61995,-0.689347
-644,-41,-2.73907,0.7771,-0.00750387,0.000910681,0.0057499,0.00382819,-0.0104214,1.10125,0.00851548,0.0100769,580,1065,-2.73909,-0.777142
-637,-41,-2.73541,0.794434,-0.00457884,0.000180501,0.00362509,0.0021372,-0.00653554,1.07584,0.00521744,0.0108641,587,1065,-2.73539,-0.794413
-630,-41,-2.74207,0.819824,-0.00238783,-0.000312161,0.00189489,0.000810491,-0.00351048,1.03594,0.00265209,0.0107057,594,1065,-2.74205,-0.819778
-623,-41,-2.7193,0.838257,-0.00090961,3.18793e-05,0.000266783,0.00010222,-0.000979951,1.313,0.000689903,0.0102908,601,1065,-2.71928,-0.838219
-616,-41,-2.71631,0.854248,-0.000711569,-0.000557969,-0.000404784,-0.000222764,-0.00104677,-0.879149,0.00063672,0.0145421,608,1065,-2.71633,-0.854195
-609,-41,-2.70142,0.851807,-0.000244862,-0.000283315,-0.000665896,0.000402086,-0.000930262,-0.770966,0.000789122,0.0198216,615,1065,-2.70141,-0.851748
-602,-41,-2.72174,0.839111,8.73093e-05,-0.000142032,-0.000834124,0.000814608,-0.000869331,-0.717089,0.000972394,0.0122334,622,1065,-2.72174,-0.839158
-595,-41,-2.71228,0.856689,-7.29911e-05,-0.00029127,-0.00114084,0.000963914,-0.00132818,-0.73771,0.0013289,0.0131761,629,1065,-2.71231,-0.856749
-588,-41,-2.70422,0.790771,-0.000429362,-0.000227318,-0.0011088,0.000785053,-0.00144173,-0.830828,0.00130414,0.0215325,636,1065,-2.7042,-0.790779
-581,-41,-2.66754,0.686279,-0.00078881,-8.21765e-06,-0.00082027,0.000509877,-0.0013069,-1.00745,0.00108204,0.0332359,643,1065,-2.66756,-0.686333
-574,-41,-2.60419,0.715942,-0.00124144,0.000220142,-0.000462273,0.000354076,-0.00137538,-1.28879,0.00105494,0.0364549,650,1065,-2.60419,-0.715955
-567,-41,-2.56689,0.796143,-0.00188833,0.000560058,0.000144953,0.00056861,-0.00189688,1.51187,0.00149072,0.0399637,657,1065,-2.56692,-0.79613
-560,-41,-2.6593,0.58374,-0.00273179,0.0010274,0.00103834,0.00129514,-0.00299952,1.31844,0.00254378,0.039881,664,1065,-2.65932,-0.583729
-553,-41,-2.59576,0.634888,-0.00381983,0.00164441,0.0022447,0.00244827,-0.00462369,1.22691,0.00414689,0.0414922,671,1065,-2.59574,-0.634878
-546,-41,-2.66241,0.832275,-0.00522751,0.00243313,0.00381486,0.00400878,-0.00680316,1.17911,0.00631139,0.0426645,678,1065,-2.66241,-0.832329
-539,-41,-2.8443,0.702881,-0.00695765,0.00340838,0.00572634,0.005949,-0.00949827,1.15322,0.00899662,0.0451849,685,1065,-2.84428,-0.702908
-532,-41,-2.94659,0.702881,0,0,0,0,0,0,0,-1,692,1065,-2.94658,-0.702891
-525,-41,0,0,0,0,0,0,0,0,0,-1,699,1065,0,0
-518,-41,0,0,0,0,0,0,0,0,0,-1,706,1065,0,0
-511,-41,0,0,0,0,0,0,0,0,0,-1,713,1065,0,0
-504,-41,0,0,0,0,0,0,0,0,0,-1,720,1065,0,0
-497,-41,0,0,0,0,0,0,0,0,0,-1,727,1065,0,0
-490,-41,0,0,0,0,0,0,0,0,0,-1,734,1065,0,0
-483,-41,0,0,0,0,0,0,0,0,0,-1,741,1065,0,0
-476,-41,0,0,0,0,0,0,0,0,0,-1,748,1065,0,0
-469,-41,0,0,0,0,0,0,0,0,0,-1,755,1065,0,0
-462,-41,0,0,0,0,0,0,0,0,0,-1,762,1065,0,0
-455,-41,0,0,0,0,0,0,0,0,0,-1,769,1065,0,0
-448,-41,0,0,0,0,0,0,0,0,0,-1,776,1065,0,0
-441,-41,0,0,0,0,0,0,0,0,0,-1,783,1065,0,0
-434,-41,0,0,0,0,0,0,0,0,0,-1,790,1065,0,0
-427,-41,0,0,0,0,0,0,0,0,0,-1,797,1065,0,0
-420,-41,0,0,0,0,0,0,0,0,0,-1,804,1065,0,0
-413,-41,0,0,0,0,0,0,0,0,0,-1,811,1065,0,0
-406,-41,0,0,0,0,0,0,0,0,0,-1,818,1065,0,0
-399,-41,0,0,0,0,0,0,0,0,0,-1,825,1065,0,0
-392,-41,0,0,0,0,0,0,0,0,0,-1,832,1065,0,0
-385,-41,0,0,0,0,0,0,0,0,0,-1,839,1065,0,0
-378,-41,0,0,0,0,0,0,0,0,0,-1,846,1065,0,0
-371,-41,0,0,0,0,0,0,0,0,0,-1,853,1065,0,0
-364,-41,0,0,0,0,0,0,0,0,0,-1,860,1065,0,0
-357,-41,0,0,0,0,0,0,0,0,0,-1,867,1065,0,0
-350,-41,0,0,0,0,0,0,0,0,0,-1,874,1065,0,0
-343,-41,0,0,0,0,0,0,0,0,0,-1,881,1065,0,0
-336,-41,0,0,0,0,0,0,0,0,0,-1,888,1065,0,0
-329,-41,0,0,0,0,0,0,0,0,0,-1,895,1065,0,0
-322,-41,0,0,0,0,0,0,0,0,0,-1,902,1065,0,0
-315,-41,0,0,0,0,0,0,0,0,0,-1,909,1065,0,0
-308,-41,0,0,0,0,0,0,0,0,0,-1,916,1065,0,0
-301,-41,0,0,0,0,0,0,0,0,0,-1,923,1065,0,0
-294,-41,0,0,0,0,0,0,0,0,0,-1,930,1065,0,0
-287,-41,0,0,0,0,0,0,0,0,0,-1,937,1065,0,0
-280,-41,0,0,0,0,0,0,0,0,0,-1,944,1065,0,0
-273,-41,0,0,0,0,0,0,0,0,0,-1,951,1065,0,0
-266,-41,0,0,0,0,0,0,0,0,0,-1,958,1065,0,0
-259,-41,0,0,0,0,0,0,0,0,0,-1,965,1065,0,0
-252,-41,0,0,0,0,0,0,0,0,0,-1,972,1065,0,0
-245,-41,0,0,0,0,0,0,0,0,0,-1,979,1065,0,0
-238,-41,0,0,0,0,0,0,0,0,0,-1,986,1065,0,0
-231,-41,0,0,0,0,0,0,0,0,0,-1,993,1065,0,0
-224,-41,0,0,0,0,0,0,0,0,0,-1,1000,1065,0,0
-217,-41,0,0,0,0,0,0,0,0,0,-1,1007,1065,0,0
-210,-41,0,0,0,0,0,0,0,0,0,-1,1014,1065,0,0
-203,-41,0,0,0,0,0,0,0,0,0,-1,1021,1065,0,0
-196,-41,0,0,0,0,0,0,0,0,0,-1,1028,1065,0,0
-189,-41,0,0,0,0,0,0,0,0,0,-1,1035,1065,0,0
-182,-41,0,0,0,0,0,0,0,0,0,-1,1042,1065,0,0
-175,-41,0,0,0,0,0,0,0,0,0,-1,1049,1065,0,0
-168,-41,0,0,0,0,0,0,0,0,0,-1,1056,1065,0,0
-161,-41,0,0,0,0,0,0,0,0,0,-1,1063,1065,0,0
-154,-41,0,0,0,0,0,0,0,0,0,-1,1070,1065,0,0
-147,-41,0,0,0,0,0,0,0,0,0,-1,1077,1065,0,0
-140,-41,0,0,0,0,0,0,0,0,0,-1,1084,1065,0,0
-133,-41,0,0,0,0,0,0,0,0,0,-1,1091,1065,0,0
-126,-41,0,0,0,0,0,0,0,0,0,-1,1098,1065,0,0
-119,-41,0,0,0,0,0,0,0,0,0,-1,1105,1065,0,0
-112,-41,0,0,0,0,0,0,0,0,0,-1,1112,1065,0,0
-105,-41,0,0,0,0,0,0,0,0,0,-1,1119,1065,0,0
-98,-41,0,0,0,0,0,0,0,0,0,-1,1126,1065,0,0
-91,-41,0,0,0,0,0,0,0,0,0,-1,1133,1065,0,0
-84,-41,0,0,0,0,0,0,0,0,0,-1,1140,1065,0,0
-77,-41,0,0,0,0,0,0,0,0,0,-1,1147,1065,0,0
-70,-41,0,0,0,0,0,0,0,0,0,-1,1154,1065,0,0
-63,-41,0,0,0,0,0,0,0,0,0,-1,1161,1065,0,0
-56,-41,0,0,0,0,0,0,0,0,0,-1,1168,1065,0,0
-49,-41,0,0,0,0,0,0,0,0,0,-1,1175,1065,0,0
-42,-41,0,0,0,0,0,0,0,0,0,-1,1182,1065,0,0
-35,-41,0,0,0,0,0,0,0,0,0,-1,1189,1065,0,0
-28,-41,0,0,0,0,0,0,0,0,0,-1,1196,1065,0,0
-21,-41,0,0,0,0,0,0,0,0,0,-1,1203,1065,0,0
-14,-41,0,0,0,0,0,0,0,0,0,-1,1210,1065,0,0
-7,-41,0,0,0,0,0,0,0,0,0,-1,1217,1065,0,0
0,-41,0,0,0,0,0,0,0,0,0,-1,1224,1065,0,0
7,-41,0,0,0,0,0,0,0,0,0,-1,1231,1065,0,0
14,-41,0,0,0,0,0,0,0,0,0,-1,1238,1065,0,0
21,-41,0,0,0,0,0,0,0,0,0,-1,1245,1065,0,0
28,-41,0,0,0,0,0,0,0,0,0,-1,1252,1065,0,0
35,-41,0,0,0,0,0,0,0,0,0,-1,1259,1065,0,0
42,-41,0,0,0,0,0,0,0,0,0,-1,1266,1065,0,0
49,-41,0,0,0,0,0,0,0,0,0,-1,1273,1065,0,0
56,-41,0,0,0,0,0,0,0,0,0,-1,1280,1065,0,0
63,-41,0,0,0,0,0,0,0,0,0,-1,1287,1065,0,0
70,-41,0,0,0,0,0,0,0,0,0,-1,1294,1065,0,0
77,-41,0,0,0,0,0,0,0,0,0,-1,1301,1065,0,0
84,-41,0,0,0,0,0,0,0,0,0,-1,1308,1065,0,0
91,-41,0,0,0,0,0,0,0,0,0,-1,1315,1065,0,0
98,-41,0,0,0,0,0,0,0,0,0,-1,1322,1065,0,0
105,-41,0,0,0,0,0,0,0,0,0,-1,1329,1065,0,0
112,-41,0,0,0,0,0,0,0,0,0,-1,1336,1065,0,0
119,-41,0,0,0,0,0,0,0,0,0,-1,1343,1065,0,0
126,-41,0,0,0,0,0,0,0,0,0,-1,1350,1065,0,0
133,-41,0,0,0,0,0,0,0,0,0,-1,1357,1065,0,0
140,-41,0,0,0,0,0,0,0,0,0,-1,1364,1065,0,0
147,-41,0,0,0,0,0,0,0,0,0,-1,1371,1065,0,0
154,-41,0,0,0,0,0,0,0,0,0,-1,1378,1065,0,0
161,-41,0,0,0,0,0,0,0,0,0,-1,1385,1065,0,0
168,-41,0,0,0,0,0,0,0,0,0,-1,1392,1065,0,0
175,-41,0,0,0,0,0,0,0,0,0,-1,1399,1065,0,0
182,-41,0,0,0,0,0,0,0,0,0,-1,1406,1065,0,0
189,-41,0,0,0,0,0,0,0,0,0,-1,1413,1065,0,0
196,-41,0,0,0,0,0,0,0,0,0,-1,1420,1065,0,0
203,-41,0,0,0,0,0,0,0,0,0,-1,1427,1065,0,0
210,-41,0,0,0,0,0,0,0,0,0,-1,1434,1065,0,0
217,-41,0,0,0,0,0,0,0,0,0,-1,1441,1065,0,0
224,-41,0,0,0,0,0,0,0,0,0,-1,1448,1065,0,0
231,-41,0,0,0,0,0,0,0,0,0,-1,1455,1065,0,0
238,-41,0,0,0,0,0,0,0,0,0,-1,1462,1065,0,0
245,-41,0,0,0,0,0,0,0,0,0,-1,1469,1065,0,0
252,-41,0,0,0,0,0,0,0,0,0,-1,1476,1065,0,0
259,-41,0,0,0,0,0,0,0,0,0,-1,1483,1065,0,0
266,-41,0,0,0,0,0,0,0,0,0,-1,1490,1065,0,0
273,-41,0,0,0,0,0,0,0,0,0,-1,1497,1065,0,0
280,-41,0,0,0,0,0,0,0,0,0,-1,1504,1065,0,0
287,-41,0,0,0,0,0,0,0,0,0,-1,1511,1065,0,0
294,-41,0,0,0,0,0,0,0,0,0,-1,1518,1065,0,0
301,-41,0,0,0,0,0,0,0,0,0,-1,1525,1065,0,0
308,-41,0,0,0,0,0,0,0,0,0,-1,1532,1065,0,0
315,-41,0,0,0,0,0,0,0,0,0,-1,1539,1065,0,0
322,-41,0,0,0,0,0,0,0,0,0,-1,1546,1065,0,0
329,-41,0,0,0,0,0,0,0,0,0,-1,1553,1065,0,0
336,-41,0,0,0,0,0,0,0,0,0,-1,1560,1065,0,0
343,-41,0,0,0,0,0,0,0,0,0,-1,1567,1065,0,0
350,-41,0,0,0,0,0,0,0,0,0,-1,1574,1065,0,0
357,-41,0,0,0,0,0,0,0,0,0,-1,1581,1065,0,0
364,-41,0,0,0,0,0,0,0,0,0,-1,1588,1065,0,0
371,-41,0,0,0,0,0,0,0,0,0,-1,1595,1065,0,0
378,-41,0,0,0,0,0,0,0,0,0,-1,1602,1065,0,0
385,-41,0,0,0,0,0,0,0,0,0,-1,1609,1065,0,0
392,-41,0,0,0,0,0,0,0,0,0,-1,1616,1065,0,0
399,-41,0,0,0,0,0,0,0,0,0,-1,1623,1065,0,0
406,-41,0,0,0,0,0,0,0,0,0,-1,1630,1065,0,0
413,-41,0,0,0,0,0,0,0,0,0,-1,1637,1065,0,0
420,-41,0,0,0,0,0,0,0,0,0,-1,1644,1065,0,0
427,-41,0,0,0,0,0,0,0,0,0,-1,1651,1065,0,0
434,-41,0,0,0,0,0,0,0,0,0,-1,1658,1065,0,0
441,-41,0,0,0,0,0,0,0,0,0,-1,1665,1065,0,0
448,-41,0,0,0,0,0,0,0,0,0,-1,1672,1065,0,0
455,-41,0,0,0,0,0,0,0,0,0,-1,1679,1065,0,0
462,-41,0,0,0,0,0,0,0,0,0,-1,1686,1065,0,0
469,-41,0,0,0,0,0,0,0,0,0,-1,1693,1065,0,0
476,-41,0,0,0,0,0,0,0,0,0,-1,1700,1065,0,0
483,-41,0,0,0,0,0,0,0,0,0,-1,1707,1065,0,0
490,-41,0,0,0,0,0,0,0,0,0,-1,1714,1065,0,0
497,-41,0,0,0,0,0,0,0,0,0,-1,1721,1065,0,0
504,-41,0,0,0,0,0,0,0,0,0,-1,1728,1065,0,0
511,-41,0,0,0,0,0,0,0,0,0,-1,1735,1065,0,0
518,-41,0,0,0,0,0,0,0,0,0,-1,1742,1065,0,0
525,-41,0,0,0,0,0,0,0,0,0,-1,1749,1065,0,0
532,-41,0,0,0,0,0,0,0,0,0,-1,1756,1065,0,0
539,-41,0,0,0,0,0,0,0,0,0,-1,1763,1065,0,0
546,-41,0,0,0,0,0,0,0,0,0,-1,1770,1065,0,0
553,-41,0,0,0,0,0,0,0,0,0,-1,1777,1065,0,0
560,-41,0,0,0,0,0,0,0,0,0,-1,1784,1065,0,0
567,-41,0,0,0,0,0,0,0,0,0,-1,1791,1065,0,0
574,-41,0,0,0,0,0,0,0,0,0,-1,1798,1065,0,0
581,-41,0,0,0,0,0,0,0,0,0,-1,1805,1065,0,0
588,-41,0,0,0,0,0,0,0,0,0,-1,1812,1065,0,0
595,-41,0,0,0,0,0,0,0,0,0,-1,1819,1065,0,0
602,-41,0,0,0,0,0,0,0,0,0,-1,1826,1065,0,0
609,-41,0,0,0,0,0,0,0,0,0,-1,1833,1065,0,0
616,-41,0,0,0,0,0,0,0,0,0,-1,1840,1065,0,0
623,-41,0,0,0,0,0,0,0,0,0,-1,1847,1065,0,0
630,-41,0,0,0,0,0,0,0,0,0,-1,1854,1065,0,0
637,-41,0,0,0,0,0,0,0,0,0,-1,1861,1065,0,0
644,-41,0,0,0,0,0,0,0,0,0,-1,1868,1065,0,0
651,-41,7.20911,0.864014,-0.00115172,-0.000329839,0.00177163,0.00107789,-0.00255945,0.89936,0.00215731,0.0339178,1875,1065,7.20905,-0.864065
658,-41,7.21753,0.839111,-0.00126595,0.000356616,0.000928505,0.000778338,-0.00168767,1.14446,0.00145566,0.0417701,1882,1065,7.21751,-0.839101
665,-41,7.25134,1.03088,-0.00113782,0.000750331,0.000458664,0.000855851,-0.00124334,1.34467,0.00121883,0.043149,1889,1065,7.25138,-1.03084
672,-41,7.21985,0.906128,-0.00105131,0.000930946,0.000379637,0.00100117,-0.00112153,1.3879,0.00122619,0.0419699,1896,1065,7.2198,-0.906152
679,-41,7.34448,0.902344,-0.00105349,0.000941921,0.000585952,0.00110126,-0.00121283,1.30528,0.00133656,0.0403554,1903,1065,7.34446,-0.902341
686,-41,7.28235,1.07568,-0.00105145,0.000857567,0.000892966,0.00121015,-0.00140403,1.19475,0.00151068,0.0413395,1910,1065,7.28238,-1.07565
693,-41,7.17151,0.78894,-0.00105398,0.000719476,0.00122372,0.00134397,-0.00167847,1.09893,0.00174856,0.0456584,1917,1065,7.17155,-0.788886
700,-41,7.11206,0.902222,-0.00105579,0.00059994,0.00150715,0.00149163,-0.00194748,1.03655,0.00199138,0.0386859,1924,1065,7.112,-0.902174
707,-41,7.1814,1.01343,-0.00111099,0.000465177,0.00172769,0.00157603,-0.00222185,0.999377,0.00220325,0.0246105,1931,1065,7.18141,-1.01345
714,-41,7.18115,1.0072,-0.00104402,0.000295603,0.00184965,0.00159298,-0.0023414,0.959118,0.00228518,0.0137296,1938,1065,7.1812,-1.00725
721,-41,7.15564,1.07715,-0.000916622,0.000173686,0.001854,0.00156102,-0.00230396,0.928389,0.00224515,0.0224354,1945,1065,7.1556,-1.07714
728,-41,7.14893,1.1908,-0.000925365,6.96408e-05,0.0018745,0.00151154,-0.00236726,0.91511,0.00225752,0.0171858,1952,1065,7.14888,-1.19079
735,-41,7.12988,1.21472,-0.00107077,7.25857e-05,0.00173201,0.00132483,-0.00232301,0.944802,0.0021322,0.0141379,1959,1065,7.12988,-1.21472
742,-41,7.11816,1.19617,-0.00116146,0.000122913,0.0010708,0.000729336,-0.00176788,1.05551,0.00148275,0.0132104,1966,1065,7.11819,-1.19622
749,-41,7.13391,1.22437,-0.000694728,8.19253e-05,-6.04378e-05,8.66003e-05,-0.000699403,-1.4936,0.000497654,0.0126598,1973,1065,7.13389,-1.22439
756,-41,7.14233,1.23572,0.000493923,0.000388206,-0.00154935,0.00199132,-0.00110919,-0.768347,0.00181407,0.0127525,1980,1065,7.1423,-1.23572
763,-41,7.12402,1.20178,0.00250072,0.001056,-0.00330813,0.00516444,-0.00160772,-0.677906,0.0040857,0.0106569,1987,1065,7.12404,-1.20176
770,-41,7.1156,1.21008,0.00464688,0.00166928,-0.00540975,0.00876896,-0.0024528,-0.651119,0.00681239,0.0117723,1994,1065,7.11564,-1.21005
777,-41,7.12122,1.2207,0.00778639,0.00255922,-0.00802892,0.0136164,-0.00327079,-0.628047,0.0103417,0.0130408,2001,1065,7.12117,-1.2207
784,-41,7.09363,1.20984,0.0122173,0.00380429,-0.0111758,0.019952,-0.00393048,-0.605403,0.0147867,0.0235873,2008,1065,7.09366,-1.2098
791,-41,7.02502,0.953003,0.0184595,0.0055697,-0.0149971,0.028338,-0.00430871,-0.582457,0.0204798,0.0431992,2015,1065,7.02508,-0.953028
798,-41,7.08447,0.805054,0.0270965,0.00808796,-0.0195672,0.0393455,-0.00416106,-0.559317,0.0277216,0.0471159,2022,1065,7.08447,-0.805073
805,-41,7.1051,0.520264,0.0388152,0.0116749,-0.0248508,0.0535596,-0.0030695,-0.535489,0.0367723,0.0452451,2029,1065,7.10505,-0.520257
812,-41,7.07703,0.166748,0,0,0,0,0,0,0,-1,2036,1065,7.07703,-0.166768
-700,-48,-5.69611,0.00402832,0,0,0,0,0,0,0,-1,524,1072,-5.69608,-0.00404604
-693,-48,-5.30304,0.479492,0,0,0,0,0,0,0,-1,531,1072,-5.30305,-0.479441
-686,-48,-3.28705,0.174072,0,0,0,0,0,0,0,-1,538,1072,-3.28702,-0.174089
-679,-48,-3.19495,0.257446,-0.0301991,0.00279552,0.0289333,0.0196043,-0.0470079,1.0445,0.0395285,0.0479169,545,1072,-3.19494,-0.257413
-672,-48,-3.05298,0.459351,-0.0204394,-8.10859e-06,0.0209381,0.0130736,-0.0335211,1.01236,0.0277514,0.0469817,552,1072,-3.05299,-0.459384
-665,-48,-2.85138,0.645752,-0.0137042,-0.00129029,0.0149003,0.00864418,-0.0236387,0.982751,0.019297,0.0444885,559,1072,-2.8514,-0.645699
-658,-48,-2.67657,0.671143,-0.00906113,-0.00169339,0.0104087,0.00566409,-0.0164186,0.955481,0.0132439,0.0457916,566,1072,-2.67656,-0.671171
-651,-48,-2.71179,0.722168,-0.00590605,-0.00163762,0.00714211,0.00368233,-0.011226,0.930586,0.00896712,0.0303751,573,1072,-2.7118,-0.722141
-644,-48,-2.72211,0.786377,-0.00377309,-0.001394,0.0047923,0.00235418,-0.00752127,0.90705,0.00595607,0.0117375,580,1072,-2.72212,-0.786333
-637,-48,-2.70569,0.788452,-0.00193678,-0.00143547,0.00296849,0.00129293,-0.00466518,0.827518,0.00361892,0.0120473,587,1072,-2.7057,-0.788501
-630,-48,-2.69678,0.828979,-0.000666655,-0.00140472,0.00147879,0.00048845,-0.00255983,0.66312,0.00189052,0.0145023,594,1072,-2.6968,-0.828972
-623,-48,-2.70483,0.836182,4.90369e-05,-0.000699315,9.01936e-05,5.97538e-05,-0.000710031,0.118267,0.000494477,0.00950976,601,1072,-2.70485,-0.836242
-616,-48,-2.6969,0.839478,-0.000323253,-0.000808939,-0.000516872,4.9813e-06,-0.00113717,-0.565787,0.000759782,0.00862556,608,1072,-2.6969,-0.83946
-609,-48,-2.71063,0.841919,-0.000243998,-0.000326378,-0.00070693,0.000422941,-0.000993317,-0.756298,0.000839489,0.0101951,615,1072,-2.71065,-0.841905
-602,-48,-2.72266,0.834106,2.53004e-05,-0.000194746,-0.00085578,0.0007781,-0.000947546,-0.721466,0.000997902,0.0107421,622,1072,-2.72264,-0.83406
-595,-48,-2.69196,0.869629,-0.000120948,-0.000330217,-0.00118234,0.000961381,-0.00141255,-0.741264,0.00137881,0.0141944,629,1072,-2.69198,-0.869639
-588,-48,-2.68994,0.848877,-0.000421198,-0.000296474,-0.001171,0.000813826,-0.0015315,-0.812001,0.00137504,0.0280472,636,1072,-2.68995,-0.848893
-581,-48,-2.66101,0.730103,-0.000683494,-9.59028e-05,-0.000900408,0.000557429,-0.00133683,-0.943098,0.00112408,0.039324,643,1072,-2.66099,-0.730092
-574,-48,-2.62701,0.661133,-0.00101629,0.000110088,-0.000557367,0.000339263,-0.00124546,-1.18069,0.000963515,0.0379594,650,1072,-2.62704,-0.661162
-567,-48,-2.58063,0.716675,-0.00148785,0.000425075,3.42958e-05,0.000425689,-0.00148846,1.55288,0.00116053,0.0387125,657,1072,-2.58065,-0.716634
-560,-48,-2.7489,0.750488,-0.00208696,0.000864791,0.000911837,0.00112375,-0.00234592,1.29408,0.00204422,0.0396735,664,1072,-2.74889,-0.750435
-553,-48,-2.73206,0.696167,-0.00285249,0.00145132,0.0021033,0.00230849,-0.00370967,1.18381,0.00350584,0.0407793,671,1072,-2.73206,-0.696142
-546,-48,-2.68164,0.620728,-0.00383965,0.00220344,0.00366117,0.00392888,-0.00556509,1.13039,0.00550842,0.0414552,678,1072,-2.68162,-0.620775
-539,-48,-2.87762,0.483276,0,0,0,0,0,0,0,-1,685,1072,-2.87765,-0.483325
-532,-48,-2.74036,0.941528,0,0,0,0,0,0,0,-1,692,1072,-2.74035,-0.941555
-525,-48,0,0,0,0,0,0,0,0,0,-1,699,1072,0,0
-518,-48,0,0,0,0,0,0,0,0,0,-1,706,1072,0,0
-511,-48,0,0,0,0,0,0,0,0,0,-1,713,1072,0,0
-504,-48,0,0,0,0,0,0,0,0,0,-1,720,1072,0,0
-497,-48,0,0,0,0,0,0,0,0,0,-1,727,1072,0,0
-490,-48,0,0,0,0,0,0,0,0,0,-1,734,1072,0,0
-483,-48,0,0,0,0,0,0,0,0,0,-1,741,1072,0,0
-476,-48,0,0,0,0,0,0,0,0,0,-1,748,1072,0,0
-469,-48,0,0,0,0,0,0,0,0,0,-1,755,1072,0,0
-462,-48,0,0,0,0,0,0,0,0,0,-1,762,1072,0,0
-455,-48,0,0,0,0,0,0,0,0,0,-1,769,1072,0,0
-448,-48,0,0,0,0,0,0,0,0,0,-1,776,1072,0,0
-441,-48,0,0,0,0,0,0,0,0,0,-1,783,1072,0,0
-434,-48,0,0,0,0,0,0,0,0,0,-1,790,1072,0,0
-427,-48,0,0,0,0,0,0,0,0,0,-1,797,1072,0,0
-420,-48,0,0,0,0,0,0,0,0,0,-1,804,1072,0,0
-413,-48,0,0,0,0,0,0,0,0,0,-1,811,1072,0,0
-406,-48,0,0,0,0,0,0,0,0,0,-1,818,1072,0,0
-399,-48,0,0,0,0,0,0,0,0,0,-1,825,1072,0,0
-392,-48,0,0,0,0,0,0,0,0,0,-1,832,1072,0,0
-385,-48,0,0,0,0,0,0,0,0,0,-1,839,1072,0,0
-378,-48,0,0,0,0,0,0,0,0,0,-1,846,1072,0,0
-371,-48,0,0,0,0,0,0,0,0,0,-1,853,1072,0,0
-364,-48,0,0,0,0,0,0,0,0,0,-1,860,1072,0,0
-357,-48,0,0,0,0,0,0,0,0,0,-1,867,1072,0,0
-350,-48,0,0,0,0,0,0,0,0,0,-1,874,1072,0,0
-343,-48,0,0,0,0,0,0,0,0,0,-1,881,1072,0,0
-336,-48,0,0,0,0,0,0,0,0,0,-1,888,1072,0,0
-329,-48,0,0,0,0,0,0,0,0,0,-1,895,1072,0,0
-322,-48,0,0,0,0,0,0,0,0,0,-1,902,1072,0,0
-315,-48,0,0,0,0,0,0,0,0,0,-1,909,1072,0,0
-308,-48,0,0,0,0,0,0,0,0,0,-1,916,1072,0,0
-301,-48,0,0,0,0,0,0,0,0,0,-1,923,1072,0,0
-294,-48,0,0,0,0,0,0,0,0,0,-1,930,1072,0,0
-287,-48,0,0,0,0,0,0,0,0,0,-1,937,1072,0,0
-280,-48,0,0,0,0,0,0,0,0,0,-1,944,1072,0,0
-273,-48,0,0,0,0,0,0,0,0,0,-1,951,1072,0,0
-266,-48,0,0,0,0,0,0,0,0,0,-1,958,1072,0,0
-259,-48,0,0,0,0,0,0,0,0,0,-1,965,1072,0,0
-252,-48,0,0,0,0,0,0,0,0,0,-1,972,1072,0,0
-245,-48,0,0,0,0,0,0,0,0,0,-1,979,1072,0,0
-238,-48,0,0,0,0,0,0,0,0,0,-1,986,1072,0,0
-231,-48,0,0,0,0,0,0,0,0,0,-1,993,1072,0,0
-224,-48,0,0,0,0,0,0,0,0,0,-1,1000,1072,0,0
-217,-48,0,0,0,0,0,0,0,0,0,-1,1007,1072,0,0
-210,-48,0,0,0,0,0,0,0,0,0,-1,1014,1072,0,0
-203,-48,0,0,0,0,0,0,0,0,0,-1,1021,1072,0,0
-196,-48,0,0,0,0,0,0,0,0,0,-1,1028,1072,0,0
-189,-48,0,0,0,0,0,0,0,0,0,-1,1035,1072,0,0
-182,-48,0,0,0,0,0,0,0,0,0,-1,1042,1072,0,0
-175,-48,0,0,0,0,0,0,0,0,0,-1,1049,1072,0,0
-168,-48,0,0,0,0,0,0,0,0,0,-1,1056,1072,0,0
-161,-48,0,0,0,0,0,0,0,0,0,-1,1063,1072,0,0
-154,-48,0,0,0,0,0,0,0,0,0,-1,1070,1072,0,0
-147,-48,0,0,0,0,0,0,0,0,0,-1,1077,1072,0,0
-140,-48,0,0,0,0,0,0,0,0,0,-1,1084,1072,0,0
-133,-48,0,0,0,0,0,0,0,0,0,-1,1091,1072,0,0
-126,-48,0,0,0,0,0,0,0,0,0,-1,1098,1072,0,0
-119,-48,0,0,0,0,0,0,0,0,0,-1,1105,1072,0,0
-112,-48,0,0,0,0,0,0,0,0,0,-1,1112,1072,0,0
-105,-48,0,0,0,0,0,0,0,0,0,-1,1119,1072,0,0
-98,-48,0,0,0,0,0,0,0,0,0,-1,1126,1072,0,0
-91,-48,0,0,0,0,0,0,0,0,0,-1,1133,1072,0,0
-84,-48,0,0,0,0,0,0,0,0,0,-1,1140,1072,0,0
-77,-48,0,0,0,0,0,0,0,0,0,-1,1147,1072,0,0
-70,-48,0,0,0,0,0,0,0,0,0,-1,1154,1072,0,0
-63,-48,0,0,0,0,0,0,0,0,0,-1,1161,1072,0,0
-56,-48,0,0,0,0,0,0,0,0,0,-1,1168,1072,0,0
-49,-48,0,0,0,0,0,0,0,0,0,-1,1175,1072,0,0
-42,-48,0,0,0,0,0,0,0,0,0,-1,1182,1072,0,0
-35,-48,0,0,0,0,0,0,0,0,0,-1,1189,1072,0,0
-28,-48,0,0,0,0,0,0,0,0,0,-1,1196,1072,0,0
-21,-48,0,0,0,0,0,0,0,0,0,-1,1203,1072,0,0
-14,-48,0,0,0,0,0,0,0,0,0,-1,1210,1072,0,0
-7,-48,0,0,0,0,0,0,0,0,0,-1,1217,1072,0,0
0,-48,0,0,0,0,0,0,0,0,0,-1,1224,1072,0,0
7,-48,0,0,0,0,0,0,0,0,0,-1,1231,1072,0,0
14,-48,0,0,0,0,0,0,0,0,0,-1,1238,1072,0,0
21,-48,0,0,0,0,0,0,0,0,0,-1,1245,1072,0,0
28,-48,0,0,0,0,0,0,0,0,0,-1,1252,1072,0,0
35,-48,0,0,0,0,0,0,0,0,0,-1,1259,1072,0,0
42,-48,0,0,0,0,0,0,0,0,0,-1,1266,1072,0,0
49,-48,0,0,0,0,0,0,0,0,0,-1,1273,1072,0,0
56,-48,0,0,0,0,0,0,0,0,0,-1,1280,1072,0,0
63,-48,0,0,0,0,0,0,0,0,0,-1,1287,1072,0,0
70,-48,0,0,0,0,0,0,0,0,0,-1,1294,1072,0,0
77,-48,0,0,0,0,0,0,0,0,0,-1,1301,1072,0,0
84,-48,0,0,0,0,0,0,0,0,0,-1,1308,1072,0,0
91,-48,0,0,0,0,0,0,0,0,0,-1,1315,1072,0,0
98,-48,0,0,0,0,0,0,0,0,0,-1,1322,1072,0,0
105,-48,0,0,0,0,0,0,0,0,0,-1,1329,1072,0,0
112,-48,0,0,0,0,0,0,0,0,0,-1,1336,1072,0,0
119,-48,0,0,0,0,0,0,0,0,0,-1,1343,1072,0,0
126,-48,0,0,0,0,0,0,0,0,0,-1,1350,1072,0,0
133,-48,0,0,0,0,0,0,0,0,0,-1,1357,1072,0,0
140,-48,0,0,0,0,0,0,0,0,0,-1,1364,1072,0,0
147,-48,0,0,0,0,0,0,0,0,0,-1,1371,1072,0,0
154,-48,0,0,0,0,0,0,0,0,0,-1,1378,1072,0,0
161,-48,0,0,0,0,0,0,0,0,0,-1,1385,1072,0,0
168,-48,0,0,0,0,0,0,0,0,0,-1,1392,1072,0,0
175,-48,0,0,0,0,0,0,0,0,0,-1,1399,1072,0,0
182,-48,0,0,0,0,0,0,0,0,0,-1,1406,1072,0,0
189,-48,0,0,0,0,0,0,0,0,0,-1,1413,1072,0,0
196,-48,0,0,0,0,0,0,0,0,0,-1,1420,1072,0,0
203,-48,0,0,0,0,0,0,0,0,0,-1,1427,1072,0,0
210,-48,0,0,0,0,0,0,0,0,0,-1,1434,1072,0,0
217,-48,0,0,0,0,0,0,0,0,0,-1,1441,1072,0,0
224,-48,0,0,0,0,0,0,0,0,0,-1,1448,1072,0,0
231,-48,0,0,0,0,0,0,0,0,0,-1,1455,1072,0,0
238,-48,0,0,0,0,0,0,0,0,0,-1,1462,1072,0,0
245,-48,0,0,0,0,0,0,0,0,0,-1,1469,1072,0,0
252,-48,0,0,0,0,0,0,0,0,0,-1,1476,1072,0,0
259,-48,0,0,0,0,0,0,0,0,0,-1,1483,1072,0,0
266,-48,0,0,0,0,0,0,0,0,0,-1,1490,1072,0,0
273,-48,0,0,0,0,0,0,0,0,0,-1,1497,1072,0,0
280,-48,0,0,0,0,0,0,0,0,0,-1,1504,1072,0,0
287,-48,0,0,0,0,0,0,0,0,0,-1,1511,1072,0,0
294,-48,0,0,0,0,0,0,0,0,0,-1,1518,1072,0,0
301,-48,0,0,0,0,0,0,0,0,0,-1,1525,1072,0,0
308,-48,0,0,0,0,0,0,0,0,0,-1,1532,1072,0,0
315,-48,0,0,0,0,0,0,0,0,0,-1,1539,1072,0,0
322,-48,0,0,0,0,0,0,0,0,0,-1,1546,1072,0,0
329,-48,0,0,0,0,0,0,0,0,0,-1,1553,1072,0,0
336,-48,0,0,0,0,0,0,0,0,0,-1,1560,1072,0,0
343,-48,0,0,0,0,0,0,0,0,0,-1,1567,1072,0,0
350,-48,0,0,0,0,0,0,0,0,0,-1,1574,1072,0,0
357,-48,0,0,0,0,0,0,0,0,0,-1,1581,1072,0,0
364,-48,0,0,0,0,0,0,0,0,0,-1,1588,1072,0,0
371,-48,0,0,0,0,0,0,0,0,0,-1,1595,1072,0,0
378,-48,0,0,0,0,0,0,0,0,0,-1,1602,1072,0,0
385,-48,0,0,0,0,0,0,0,0,0,-1,1609,1072,0,0
392,-48,0,0,0,0,0,0,0,0,0,-1,1616,1072,0,0
399,-48,0,0,0,0,0,0,0,0,0,-1,1623,1072,0,0
406,-48,0,0,0,0,0,0,0,0,0,-1,1630,1072,0,0
413,-48,0,0,0,0,0,0,0,0,0,-1,1637,1072,0,0
420,-48,0,0,0,0,0,0,0,0,0,-1,1644,1072,0,0
427,-48,0,0,0,0,0,0,0,0,0,-1,1651,1072,0,0
434,-48,0,0,0,0,0,0,0,0,0,-1,1658,1072,0,0
441,-48,0,0,0,0,0,0,0,0,0,-1,1665,1072,0,0
448,-48,0,0,0,0,0,0,0,0,0,-1,1672,1072,0,0
455,-48,0,0,0,0,0,0,0,0,0,-1,1679,1072,0,0
462,-48,0,0,0,0,0,0,0,0,0,-1,1686,1072,0,0
469,-48,0,0,0,0,0,0,0,0,0,-1,1693,1072,0,0
476,-48,0,0,0,0,0,0,0,0,0,-1,1700,1072,0,0
483,-48,0,0,0,0,0,0,0,0,0,-1,1707,1072,0,0
490,-48,0,0,0,0,0,0,0,0,0,-1,1714,1072,0,0
497,-48,0,0,0,0,0,0,0,0,0,-1,1721,1072,0,0
504,-48,0,0,0,0,0,0,0,0,0,-1,1728,1072,0,0
511,-48,0,0,0,0,0,0,0,0,0,-1,1735,1072,0,0
518,-48,0,0,0,0,0,0,0,0,0,-1,1742,1072,0,0
525,-48,0,0,0,0,0,0,0,0,0,-1,1749,1072,0,0
532,-48,0,0,0,0,0,0,0,0,0,-1,1756,1072,0,0
539,-48,0,0,0,0,0,0,0,0,0,-1,1763,1072,0,0
546,-48,0,0,0,0,0,0,0,0,0,-1,1770,1072,0,0
553,-48,0,0,0,0,0,0,0,0,0,-1,1777,1072,0,0
560,-48,0,0,0,0,0,0,0,0,0,-1,1784,1072,0,0
567,-48,0,0,0,0,0,0,0,0,0,-1,1791,1072,0,0
574,-48,0,0,0,0,0,0,0,0,0,-1,1798,1072,0,0
581,-48,0,0,0,0,0,0,0,0,0,-1,1805,1072,0,0
588,-48,0,0,0,0,0,0,0,0,0,-1,1812,1072,0,0
595,-48,0,0,0,0,0,0,0,0,0,-1,1819,1072,0,0
602,-48,0,0,0,0,0,0,0,0,0,-1,1826,1072,0,0
609,-48,0,0,0,0,0,0,0,0,0,-1,1833,1072,0,0
616,-48,0,0,0,0,0,0,0,0,0,-1,1840,1072,0,0
623,-48,0,0,0,0,0,0,0,0,0,-1,1847,1072,0,0
630,-48,0,0,0,0,0,0,0,0,0,-1,1854,1072,0,0
637,-48,0,0,0,0,0,0,0,0,0,-1,1861,1072,0,0
644,-48,0,0,0,0,0,0,0,0,0,-1,1868,1072,0,0
651,-48,7.08875,0.922363,-0.00107611,-0.00039711,0.00131583,0.000622311,-0.00209553,0.911651,0.0016442,0.0324706,1875,1072,7.08875,-0.922371
658,-48,7.21045,0.852661,-0.00121326,0.000174906,0.000597274,0.000396513,-0.00143487,1.21551,0.00111256,0.0383363,1882,1072,7.21043,-0.852682
665,-48,7.09985,1.04431,-0.00108989,0.000489661,0.000217322,0.000519016,-0.00111924,1.43653,0.000966778,0.0430988,1889,1072,7.0998,-1.04425
672,-48,6.84961,1.09644,0,0,0,0,0,0,0,-1,1896,1072,6.84967,-1.09641
679,-48,7.33167,0.86499,-0.00104297,0.00057474,0.000492876,0.000713077,-0.0011813,1.29716,0.0011048,0.0405251,1903,1072,7.33162,-0.865
686,-48,7.30493,0.784058,-0.00105688,0.000474488,0.000847887,0.000851251,-0.00143364,1.15265,0.00133339,0.0393166,1910,1072,7.30495,-0.784002
693,-48,7.28406,0.930664,-0.00107582,0.000340262,0.00121815,0.0010412,-0.00177675,1.04865,0.00164532,0.0405398,1917,1072,7.28411,-0.930647
700,-48,7.18433,0.997803,-0.00111018,0.000253738,0.00153444,0.00125094,-0.00210738,0.994507,0.00195983,0.0363609,1924,1072,7.18436,-0.997744
707,-48,7.21289,1.05884,-0.00117343,0.000135403,0.00178372,0.00138097,-0.00241899,0.961215,0.00222102,0.0250201,1931,1072,7.21284,-1.05888
714,-48,7.2135,1.04163,-0.00109444,-3.71916e-07,0.00191745,0.00144655,-0.00254136,0.924354,0.00233116,0.0224014,1938,1072,7.21352,-1.04165
721,-48,7.16345,1.16052,-0.000960813,-7.24162e-05,0.00191662,0.00145081,-0.00248404,0.899268,0.00229775,0.0291711,1945,1072,7.1635,-1.16052
728,-48,7.0929,1.23535,-0.000989908,-0.000124739,0.00194219,0.00143245,-0.0025471,0.894975,0.00232744,0.0181457,1952,1072,7.09288,-1.23529
735,-48,7.11902,1.22827,-0.00117916,-7.47716e-05,0.00181134,0.00126667,-0.0025206,0.933351,0.00222617,0.0155211,1959,1072,7.11901,-1.22821
742,-48,7.11792,1.22009,-0.00135437,-1.91849e-05,0.0011113,0.000609632,-0.00198318,1.05588,0.00156541,0.0135469,1966,1072,7.11792,-1.22006
749,-48,7.12512,1.21143,-0.000845096,-1.42531e-05,-2.34754e-05,-1.35903e-05,-0.000845759,-1.54257,0.000559364,0.0124552,1973,1072,7.12518,-1.21143
756,-48,7.13159,1.2135,0.000462915,0.000232761,-0.0015708,0.00192285,-0.00122717,-0.748833,0.00183339,0.0117415,1980,1072,7.13161,-1.2135
763,-48,7.1178,1.20581,0.00262118,0.000804295,-0.00349831,0.00532708,-0.00190161,-0.658364,0.00432686,0.0116178,1987,1072,7.11778,-1.20584
770,-48,7.13464,1.20422,0.00492125,0.00131306,-0.00574033,0.00913431,-0.0029,-0.633144,0.00725213,0.0116533,1994,1072,7.13464,-1.20428
777,-48,7.11475,1.19702,0.00828005,0.00204039,-0.0085395,0.0142518,-0.00393133,-0.61026,0.0110473,0.0101108,2001,1072,7.11473,-1.19704
784,-48,7.06909,1.20557,0.0130041,0.0030534,-0.0119246,0.0209497,-0.00489217,-0.587761,0.0158508,0.0218927,2008,1072,7.06911,-1.20555
791,-48,7.18274,1.02808,0.0196219,0.00450677,-0.016069,0.0298218,-0.00569321,-0.565588,0.0220256,0.0408385,2015,1072,7.18276,-1.02805
798,-48,7.31787,0.885132,0.028706,0.00660909,-0.0210671,0.041446,-0.00613088,-0.543893,0.0298847,0.0456126,2022,1072,7.31789,-0.885173
805,-48,7.60193,0.485718,0.0409086,0.00965272,-0.0269284,0.0564154,-0.00585405,-0.522475,0.0397057,0.0470695,2029,1072,7.60188,-0.485686
812,-48,7.71936,0.303467,0,0,0,0,0,0,0,-1,2036,1072,7.71941,-0.303428
-700,-55,-6.25018,-0.313477,0,0,0,0,0,0,0,-1,524,1079,-6.25021,0.313427
-693,-55,-5.71075,0.123169,0,0,0,0,0,0,0,-1,531,1079,-5.71078,-0.123176
-686,-55,-5.25787,0.574829,0,0,0,0,0,0,0,-1,538,1079,-5.25787,-0.574865
-679,-55,-3.36267,0.339478,0,0,0,0,0,0,0,-1,545,1079,-3.36265,-0.339448
-672,-55,-3.13885,0.490356,-0.0164907,-0.00433205,0.018619,0.009175,-0.0299977,0.943197,0.0236575,0.0492943,552,1079,-3.13885,-0.490316
-665,-55,-2.84454,0.783081,-0.0091986,-0.00521007,0.0129604,0.00590858,-0.0203172,0.861736,0.015885,0.0460591,559,1079,-2.84452,-0.783046
-658,-55,-2.90186,0.508301,0,0,0,0,0,0,0,-1,566,1079,-2.90185,-0.50831
-651,-55,-2.78693,0.661621,-0.00234341,-0.00414519,0.00596514,0.00278848,-0.00927708,0.710452,0.0072941,0.0362423,573,1079,-2.78695,-0.661636
-644,-55,-2.69989,0.785278,-0.00100431,-0.0032197,0.00393815,0.00197896,-0.00620298,0.648304,0.00492922,0.0141324,580,1079,-2.69989,-0.785279
-637,-55,-2.68726,0.78064,0.000278627,-0.00276249,0.0023328,0.00154268,-0.00402654,0.496572,0.00332027,0.0120785,587,1079,-2.68725,-0.780637
-630,-55,-2.69678,0.814087,0.000925015,-0.00228518,0.00103758,0.00123118,-0.00259134,0.286931,0.00225302,0.0146653,594,1079,-2.69679,-0.814061
-623,-55,-2.69733,0.833008,0.000923634,-0.00129372,-0.000107188,0.000928804,-0.00129889,-0.0481908,0.00129206,0.0137184,601,1079,-2.69734,-0.83297
-616,-55,-2.66614,0.830566,2.56341e-05,-0.00099688,-0.000649506,0.000340962,-0.00131221,-0.451971,0.00100787,0.0121276,608,1079,-2.66615,-0.830585
-609,-55,-2.67078,0.854736,-0.000255073,-0.000338407,-0.000794576,0.000498928,-0.00109241,-0.759202,0.000939815,0.0119849,615,1079,-2.67076,-0.854729
-602,-55,-2.70551,0.859741,-6.49324e-05,-0.000224938,-0.000974106,0.000832451,-0.00112232,-0.744425,0.00113272,0.0116061,622,1079,-2.70551,-0.859697
-595,-55,-2.69177,0.883911,-0.000213544,-0.00037291,-0.00136294,0.00107204,-0.0016585,-0.756199,0.00158855,0.0138953,629,1079,-2.69176,-0.88388
-588,-55,-2.67725,0.867065,-0.000460979,-0.000385844,-0.00142171,0.000998799,-0.00184562,-0.798607,0.00166631,0.0260167,636,1079,-2.67727,-0.867069
-581,-55,-2.67767,0.759399,-0.000629832,-0.000226409,-0.0012387,0.0008269,-0.00168314,-0.86611,0.00147701,0.0374025,643,1079,-2.6777,-0.759383
-574,-55,-2.68866,0.709595,-0.000846062,-8.26495e-05,-0.00098552,0.000592503,-0.00152121,-0.97016,0.00125901,0.0373977,650,1079,-2.68865,-0.709604
-567,-55,-2.63452,0.602417,-0.00114904,0.000157619,-0.00049888,0.000326312,-0.00131773,-1.24472,0.00100507,0.0392936,657,1079,-2.63453,-0.602361
-560,-55,-2.745,0.71167,-0.00151439,0.000497971,0.00026582,0.000532492,-0.00154891,1.44165,0.00124855,0.0418991,664,1079,-2.74498,-0.711717
-553,-55,-2.75317,0.880493,-0.00197187,0.000953459,0.00134434,0.00147741,-0.00249582,1.19916,0.00231893,0.0418424,671,1079,-2.75317,-0.880506
-546,-55,-2.58643,0.814819,-0.00256205,0.00153258,0.00279883,0.00295296,-0.00398244,1.10117,0.00401883,0.0404421,678,1079,-2.58642,-0.814857
-539,-55,-2.57123,0.598511,-0.0032775,0.00224263,0.00461434,0.00485937,-0.00589424,1.05493,0.00621818,0.0388563,685,1079,-2.57121,-0.598544
-532,-55,-2.73364,0.847778,-0.00422134,0.00309146,0.00657449,0.00695791,-0.00808779,1.03917,0.0086948,0.0395347,692,1079,-2.73363,-0.84781
-525,-55,0,0,0,0,0,0,0,0,0,-1,699,1079,0,0
-518,-55,0,0,0,0,0,0,0,0,0,-1,706,1079,0,0
-511,-55,0,0,0,0,0,0,0,0,0,-1,713,1079,0,0
-504,-55,0,0,0,0,0,0,0,0,0,-1,720,1079,0,0
-497,-55,0,0,0,0,0,0,0,0,0,-1,727,1079,0,0
-490,-55,0,0,0,0,0,0,0,0,0,-1,734,1079,0,0
-483,-55,0,0,0,0,0,0,0,0,0,-1,741,1079,0,0
-476,-55,0,0,0,0,0,0,0,0,0,-1,748,1079,0,0
-469,-55,0,0,0,0,0,0,0,0,0,-1,755,1079,0,0
-462,-55,0,0,0,0,0,0,0,0,0,-1,762,1079,0,0
-455,-55,0,0,0,0,0,0,0,0,0,-1,769,1079,0,0
-448,-55,0,0,0,0,0,0,0,0,0,-1,776,1079,0,0
-441,-55,0,0,0,0,0,0,0,0,0,-1,783,1079,0,0
-434,-55,0,0,0,0,0,0,0,0,0,-1,790,1079,0,0
-427,-55,0,0,0,0,0,0,0,0,0,-1,797,1079,0,0
-420,-55,0,0,0,0,0,0,0,0,0,-1,804,1079,0,0
-413,-55,0,0,0,0,0,0,0,0,0,-1,811,1079,0,0
-406,-55,0,0,0,0,0,0,0,0,0,-1,818,1079,0,0
-399,-55,0,0,0,0,0,0,0,0,0,-1,825,1079,0,0
-392,-55,0,0,0,0,0,0,0,0,0,-1,832,1079,0,0
-385,-55,0,0,0,0,0,0,0,0,0,-1,839,1079,0,0
-378,-55,0,0,0,0,0,0,0,0,0,-1,846,1079,0,0
-371,-55,0,0,0,0,0,0,0,0,0,-1,853,1079,0,0
-364,-55,0,0,0,0,0,0,0,0,0,-1,860,1079,0,0
-357,-55,0,0,0,0,0,0,0,0,0,-1,867,1079,0,0
-350,-55,0,0,0,0,0,0,0,0,0,-1,874,1079,0,0
-343,-55,0,0,0,0,0,0,0,0,0,-1,881,1079,0,0
-336,-55,0,0,0,0,0,0,0,0,0,-1,888,1079,0,0
-329,-55,0,0,0,0,0,0,0,0,0,-1,895,1079,0,0
-322,-55,0,0,0,0,0,0,0,0,0,-1,902,1079,0,0
-315,-55,0,0,0,0,0,0,0,0,0,-1,909,1079,0,0
-308,-55,0,0,0,0,0,0,0,0,0,-1,916,1079,0,0
-301,-55,0,0,0,0,0,0,0,0,0,-1,923,1079,0,0
-294,-55,0,0,0,0,0,0,0,0,0,-1,930,1079,0,0
-287,-55,0,0,0,0,0,0,0,0,0,-1,937,1079,0,0
-280,-55,0,0,0,0,0,0,0,0,0,-1,944,1079,0,0
-273,-55,0,0,0,0,0,0,0,0,0,-1,951,1079,0,0
-266,-55,0,0,0,0,0,0,0,0,0,-1,958,1079,0,0
-259,-55,0,0,0,0,0,0,0,0,0,-1,965,1079,0,0
-252,-55,0,0,0,0,0,0,0,0,0,-1,972,1079,0,0
-245,-55,0,0,0,0,0,0,0,0,0,-1,979,1079,0,0
-238,-55,0,0,0,0,0,0,0,0,0,-1,986,1079,0,0
-231,-55,0,0,0,0,0,0,0,0,0,-1,993,1079,0,0
-224,-55,0,0,0,0,0,0,0,0,0,-1,1000,1079,0,0
-217,-55,0,0,0,0,0,0,0,0,0,-1,1007,1079,0,0
-210,-55,0,0,0,0,0,0,0,0,0,-1,1014,1079,0,0
-203,-55,0,0,0,0,0,0,0,0,0,-1,1021,1079,0,0
-196,-55,0,0,0,0,0,0,0,0,0,-1,1028,1079,0,0
-189,-55,0,0,0,0,0,0,0,0,0,-1,1035,1079,0,0
-182,-55,0,0,0,0,0,0,0,0,0,-1,1042,1079,0,0
-175,-55,0,0,0,0,0,0,0,0,0,-1,1049,1079,0,0
-168,-55,0,0,0,0,0,0,0,0,0,-1,1056,1079,0,0
-161,-55,0,0,0,0,0,0,0,0,0,-1,1063,1079,0,0
-154,-55,0,0,0,0,0,0,0,0,0,-1,1070,1079,0,0
-147,-55,0,0,0,0,0,0,0,0,0,-1,1077,1079,0,0
-140,-55,0,0,0,0,0,0,0,0,0,-1,1084,1079,0,0
-133,-55,0,0,0,0,0,0,0,0,0,-1,1091,1079,0,0
-126,-55,0,0,0,0,0,0,0,0,0,-1,1098,1079,0,0
-119,-55,0,0,0,0,0,0,0,0,0,-1,1105,1079,0,0
-112,-55,0,0,0,0,0,0,0,0,0,-1,1112,1079,0,0
-105,-55,0,0,0,0,0,0,0,0,0,-1,1119,1079,0,0
-98,-55,0,0,0,0,0,0,0,0,0,-1,1126,1079,0,0
-91,-55,0,0,0,0,0,0,0,0,0,-1,1133,1079,0,0
-84,-55,0,0,0,0,0,0,0,0,0,-1,1140,1079,0,0
-77,-55,0,0,0,0,0,0,0,0,0,-1,1147,1079,0,0
-70,-55,0,0,0,0,0,0,0,0,0,-1,1154,1079,0,0
-63,-55,0,0,0,0,0,0,0,0,0,-1,1161,1079,0,0
-56,-55,0,0,0,0,0,0,0,0,0,-1,1168,1079,0,0
-49,-55,0,0,0,0,0,0,0,0,0,-1,1175,1079,0,0
-42,-55,0,0,0,0,0,0,0,0,0,-1,1182,1079,0,0
-35,-55,0,0,0,0,0,0,0,0,0,-1,1189,1079,0,0
-28,-55,0,0,0,0,0,0,0,0,0,-1,1196,1079,0,0
-21,-55,0,0,0,0,0,0,0,0,0,-1,1203,1079,0,0
-14,-55,0,0,0,0,0,0,0,0,0,-1,1210,1079,0,0
-7,-55,0,0,0,0,0,0,0,0,0,-1,1217,1079,0,0
0,-55,0,0,0,0,0,0,0,0,0,-1,1224,1079,0,0
7,-55,0,0,0,0,0,0,0,0,0,-1,1231,1079,0,0
14,-55,0,0,0,0,0,0,0,0,0,-1,1238,1079,0,0
21,-55,0,0,0,0,0,0,0,0,0,-1,1245,1079,0,0
28,-55,0,0,0,0,0,0,0,0,0,-1,1252,1079,0,0
35,-55,0,0,0,0,0,0,0,0,0,-1,1259,1079,0,0
42,-55,0,0,0,0,0,0,0,0,0,-1,1266,1079,0,0
49,-55,0,0,0,0,0,0,0,0,0,-1,1273,1079,0,0
56,-55,0,0,0,0,0,0,0,0,0,-1,1280,1079,0,0
63,-55,0,0,0,0,0,0,0,0,0,-1,1287,1079,0,0
70,-55,0,0,0,0,0,0,0,0,0,-1,1294,1079,0,0
77,-55,0,0,0,0,0,0,0,0,0,-1,1301,1079,0,0
84,-55,0,0,0,0,0,0,0,0,0,-1,1308,1079,0,0
91,-55,0,0,0,0,0,0,0,0,0,-1,1315,1079,0,0
98,-55,0,0,0,0,0,0,0,0,0,-1,1322,1079,0,0
105,-55,0,0,0,0,0,0,0,0,0,-1,1329,1079,0,0
112,-55,0,0,0,0,0,0,0,0,0,-1,1336,1079,0,0
119,-55,0,0,0,0,0,0,0,0,0,-1,1343,1079,0,0
126,-55,0,0,0,0,0,0,0,0,0,-1,1350,1079,0,0
133,-55,0,0,0,0,0,0,0,0,0,-1,1357,1079,0,0
140,-55,0,0,0,0,0,0,0,0,0,-1,1364,1079,0,0
147,-55,0,0,0,0,0,0,0,0,0,-1,1371,1079,0,0
154,-55,0,0,0,0,0,0,0,0,0,-1,1378,1079,0,0
161,-55,0,0,0,0,0,0,0,0,0,-1,1385,1079,0,0
168,-55,0,0,0,0,0,0,0,0,0,-1,1392,1079,0,0
175,-55,0,0,0,0,0,0,0,0,0,-1,1399,1079,0,0
182,-55,0,0,0,0,0,0,0,0,0,-1,1406,1079,0,0
189,-55,0,0,0,0,0,0,0,0,0,-1,1413,1079,0,0
196,-55,0,0,0,0,0,0,0,0,0,-1,1420,1079,0,0
203,-55,0,0,0,0,0,0,0,0,0,-1,1427,1079,0,0
210,-55,0,0,0,0,0,0,0,0,0,-1,1434,1079,0,0
217,-55,0,0,0,0,0,0,0,0,0,-1,1441,1079,0,0
224,-55,0,0,0,0,0,0,0,0,0,-1,1448,1079,0,0
231,-55,0,0,0,0,0,0,0,0,0,-1,1455,1079,0,0
238,-55,0,0,0,0,0,0,0,0,0,-1,1462,1079,0,0
245,-55,0,0,0,0,0,0,0,0,0,-1,1469,1079,0,0
252,-55,0,0,0,0,0,0,0,0,0,-1,1476,1079,0,0
259,-55,0,0,0,0,0,0,0,0,0,-1,1483,1079,0,0
266,-55,0,0,0,0,0,0,0,0,0,-1,1490,1079,0,0
273,-55,0,0,0,0,0,0,0,0,0,-1,1497,1079,0,0
280,-55,0,0,0,0,0,0,0,0,0,-1,1504,1079,0,0
287,-55,0,0,0,0,0,0,0,0,0,-1,1511,1079,0,0
294,-55,0,0,0,0,0,0,0,0,0,-1,1518,1079,0,0
301,-55,0,0,0,0,0,0,0,0,0,-1,1525,1079,0,0
308,-55,0,0,0,0,0,0,0,0,0,-1,1532,1079,0,0
315,-55,0,0,0,0,0,0,0,0,0,-1,1539,1079,0,0
322,-55,0,0,0,0,0,0,0,0,0,-1,1546,1079,0,0
329,-55,0,0,0,0,0,0,0,0,0,-1,1553,1079,0,0
336,-55,0,0,0,0,0,0,0,0,0,-1,1560,1079,0,0
343,-55,0,0,0,0,0,0,0,0,0,-1,1567,1079,0,0
350,-55,0,0,0,0,0,0,0,0,0,-1,1574,1079,0,0
357,-55,0,0,0,0,0,0,0,0,0,-1,1581,1079,0,0
364,-55,0,0,0,0,0,0,0,0,0,-1,1588,1079,0,0
371,-55,0,0,0,0,0,0,0,0,0,-1,1595,1079,0,0
378,-55,0,0,0,0,0,0,0,0,0,-1,1602,1079,0,0
385,-55,0,0,0,0,0,0,0,0,0,-1,1609,1079,0,0
392,-55,0,0,0,0,0,0,0,0,0,-1,1616,1079,0,0
399,-55,0,0,0,0,0,0,0,0,0,-1,1623,1079,0,0
406,-55,0,0,0,0,0,0,0,0,0,-1,1630,1079,0,0
413,-55,0,0,0,0,0,0,0,0,0,-1,1637,1079,0,0
420,-55,0,0,0,0,0,0,0,0,0,-1,1644,1079,0,0
427,-55,0,0,0,0,0,0,0,0,0,-1,1651,1079,0,0
434,-55,0,0,0,0,0,0,0,0,0,-1,1658,1079,0,0
441,-55,0,0,0,0,0,0,0,0,0,-1,1665,1079,0,0
448,-55,0,0,0,0,0,0,0,0,0,-1,1672,1079,0,0
455,-55,0,0,0,0,0,0,0,0,0,-1,1679,1079,0,0
462,-55,0,0,0,0,0,0,0,0,0,-1,1686,1079,0,0
469,-55,0,0,0,0,0,0,0,0,0,-1,1693,1079,0,0
476,-55,0,0,0,0,0,0,0,0,0,-1,1700,1079,0,0
483,-55,0,0,0,0,0,0,0,0,0,-1,1707,1079,0,0
490,-55,0,0,0,0,0,0,0,0,0,-1,1714,1079,0,0
497,-55,0,0,0,0,0,0,0,0,0,-1,1721,1079,0,0
504,-55,0,0,0,0,0,0,0,0,0,-1,1728,1079,0,0
511,-55,0,0,0,0,0,0,0,0,0,-1,1735,1079,0,0
518,-55,0,0,0,0,0,0,0,0,0,-1,1742,1079,0,0
525,-55,0,0,0,0,0,0,0,0,0,-1,1749,1079,0,0
532,-55,0,0,0,0,0,0,0,0,0,-1,1756,1079,0,0
539,-55,0,0,0,0,0,0,0,0,0,-1,1763,1079,0,0
546,-55,0,0,0,0,0,0,0,0,0,-1,1770,1079,0,0
553,-55,0,0,0,0,0,0,0,0,0,-1,1777,1079,0,0
560,-55,0,0,0,0,0,0,0,0,0,-1,1784,1079,0,0
567,-55,0,0,0,0,0,0,0,0,0,-1,1791,1079,0,0
574,-55,0,0,0,0,0,0,0,0,0,-1,1798,1079,0,0
581,-55,0,0,0,0,0,0,0,0,0,-1,1805,1079,0,0
588,-55,0,0,0,0,0,0,0,0,0,-1,1812,1079,0,0
595,-55,0,0,0,0,0,0,0,0,0,-1,1819,1079,0,0
602,-55,0,0,0,0,0,0,0,0,0,-1,1826,1079,0,0
609,-55,0,0,0,0,0,0,0,0,0,-1,1833,1079,0,0
616,-55,0,0,0,0,0,0,0,0,0,-1,1840,1079,0,0
623,-55,0,0,0,0,0,0,0,0,0,-1,1847,1079,0,0
630,-55,0,0,0,0,0,0,0,0,0,-1,1854,1079,0,0
637,-55,0,0,0,0,0,0,0,0,0,-1,1861,1079,0,0
644,-55,0,0,0,0,0,0,0,0,0,-1,1868,1079,0,0
651,-55,7.13269,1.00391,-0.00091637,-0.000564931,0.00106633,0.000340063,-0.00182136,0.867059,0.00134204,0.0348127,1875,1079,7.13268,-1.00397
658,-55,7.13098,1.06946,-0.00107928,5.40702e-06,0.000424952,0.000152063,-0.00122594,1.23848,0.000872407,0.0348742,1882,1079,7.13097,-1.0694
665,-55,6.99536,1.08679,-0.000985407,0.000305099,9.84564e-05,0.000312568,-0.000992875,1.49509,0.000787074,0.0384456,1889,1079,6.99534,-1.0868
672,-55,7.03174,1.20544,-0.000960127,0.000394148,0.000157824,0.000412297,-0.000978276,1.4563,0.000824716,0.0388532,1896,1079,7.0318,-1.20539
679,-55,7.21509,0.96814,-0.00101928,0.000340985,0.000464408,0.000484415,-0.00116271,1.27125,0.000977476,0.037831,1903,1079,7.21506,-0.968164
686,-55,7.26294,0.80249,-0.00106277,0.000230244,0.000842096,0.000645386,-0.00147791,1.11278,0.0012569,0.0372454,1910,1079,7.26295,-0.802522
693,-55,7.16968,0.847656,-0.00110742,9.79344e-05,0.00123123,0.000866082,-0.00187556,1.013,0.00161826,0.0368486,1917,1079,7.16963,-0.847712
700,-55,7.15942,0.979248,-0.001183,3.77299e-05,0.00155965,0.00110219,-0.00224747,0.971911,0.00197125,0.0350546,1924,1079,7.15941,-0.979271
707,-55,7.18408,1.08911,-0.00125174,-6.48945e-05,0.00182527,0.001261,-0.00257763,0.942566,0.00225927,0.0244901,1931,1079,7.18413,-1.08908
714,-55,7.20215,1.04834,-0.00116782,-0.000171685,0.00196371,0.00135614,-0.00269564,0.909596,0.00238153,0.0269564,1938,1079,7.20219,-1.04835
721,-55,7.14917,1.16284,-0.0010408,-0.000228545,0.00195595,0.001363,-0.00263235,0.887762,0.0023452,0.028554,1945,1079,7.14916,-1.1629
728,-55,7.08228,1.24146,-0.00108154,-0.000252299,0.00198732,0.00136319,-0.00269703,0.888239,0.00238596,0.0176718,1952,1079,7.0823,-1.24141
735,-55,7.09802,1.23462,-0.00132292,-0.000161318,0.00186859,0.00121466,-0.00269889,0.936076,0.00231302,0.0155114,1959,1079,7.09797,-1.23464
742,-55,7.11316,1.23181,-0.00164941,-6.78701e-05,0.00112251,0.000514437,-0.00223172,1.09226,0.00168566,0.014397,1966,1079,7.11321,-1.23186
749,-55,7.13037,1.22192,-0.00125345,-8.38082e-06,-2.33945e-05,-7.94145e-06,-0.00125389,-1.55202,0.000833289,0.0112543,1973,1079,7.13036,-1.22187
756,-55,7.12048,1.21973,5.34184e-05,0.000172887,-0.00161984,0.0017341,-0.00150779,-0.803828,0.00187322,0.0104594,1980,1079,7.12047,-1.21977
763,-55,7.12476,1.22229,0.00229785,0.00062147,-0.00369756,0.00525104,-0.00233171,-0.673938,0.00448475,0.0128939,1987,1079,7.12473,-1.2223
770,-55,7.14526,1.2002,0.00461645,0.00101301,-0.00607527,0.00915153,-0.00352207,-0.641246,0.00755389,0.013493,1994,1079,7.1452,-1.20017
777,-55,7.1178,1.19836,0.00806086,0.00155681,-0.00904745,0.014423,-0.00480532,-0.612868,0.0115551,0.0112968,2001,1079,7.1178,-1.1983
784,-55,7.073,1.23181,0.0129931,0.00229617,-0.0126642,0.021392,-0.00610266,-0.585595,0.0166721,0.0271975,2008,1079,7.07298,-1.23179
791,-55,7.13525,1.02234,0,0,0,0,0,0,0,-1,2015,1079,7.13525,-1.02239
798,-55,6.66589,0.767578,0.0297743,0.00489221,-0.022534,0.0430735,-0.00840703,-0.533171,0.0318896,0.0447961,2022,1079,6.66588,-0.767519
805,-55,6.94495,0.372314,0.0430482,0.00713719,-0.0289443,0.059154,-0.00896857,-0.507775,0.0427403,0.0484402,2029,1079,6.9449,-0.37228
812,-55,7.25818,-0.0593262,0,0,0,0,0,0,0,-1,2036,1079,7.25815,0.0593073
-700,-62,-6.75745,-0.648315,0,0,0,0,0,0,0,-1,524,1086,-6.75742,0.648285
-693,-62,-6.01404,0.0300293,0,0,0,0,0,0,0,-1,531,1086,-6.01405,-0.0300717
-686,-62,-5.21484,0.246582,0,0,0,0,0,0,0,-1,538,1086,-5.21483,-0.246553
-679,-62,-3.37897,0.52063,0,0,0,0,0,0,0,-1,545,1086,-3.37899,-0.520577
-672,-62,-3.04456,0.665649,0,0,0,0,0,0,0,-1,552,1086,-3.04456,-0.665674
-665,-62,-2.71014,0.810791,0,0,0,0,0,0,0,-1,559,1086,-2.71014,-0.81077
-658,-62,-2.80396,0.49292,0.00354053,-0.00550626,0.00650245,0.00693819,-0.00890391,0.4815,0.00916988,0.0486811,566,1086,-2.80395,-0.492924
-651,-62,-2.75,0.652344,0.00390546,-0.00422953,0.00376976,0.00538375,-0.00570781,0.373714,0.00640462,0.03603,573,1086,-2.75002,-0.652331
-644,-62,-2.69104,0.778198,0.00343167,-0.00300954,0.00206347,0.00403601,-0.00361388,0.284908,0.00441891,0.0117475,580,1086,-2.69101,-0.778214
-637,-62,-2.6825,0.791138,0.00343439,-0.00242413,0.000793254,0.0035399,-0.00252963,0.13223,0.00352039,0.010416,587,1086,-2.6825,-0.791146
-630,-62,-2.68835,0.807373,0.00298525,-0.00189761,-0.000129717,0.00298869,-0.00190106,-0.0265408,0.00284628,0.0122109,594,1086,-2.68833,-0.80742
-623,-62,-2.6864,0.827637,0.00198212,-0.000972867,-0.000838542,0.00220349,-0.00119424,-0.258106,0.00199032,0.013237,601,1086,-2.68638,-0.827629
-616,-62,-2.65576,0.828491,0.000212174,-0.000462617,-0.00134927,0.00126559,-0.00151603,-0.662881,0.00160814,0.0124516,608,1086,-2.65573,-0.828492
-609,-62,-2.64594,0.844604,-0.000350614,0.000124196,-0.00126552,0.00117439,-0.00140081,-0.878118,0.00148871,0.0119379,615,1086,-2.64596,-0.844578
-602,-62,-2.67328,0.875122,-0.000196629,-0.000289896,-0.00117108,0.000928747,-0.00141527,-0.765498,0.001363,0.0118832,622,1086,-2.67326,-0.875095
-595,-62,-2.68268,0.909424,-0.000336027,-0.000490361,-0.0015243,0.00111305,-0.00193944,-0.760107,0.00178376,0.0145583,629,1086,-2.68268,-0.909375
-588,-62,-2.68469,0.892822,-0.000511736,-0.000570912,-0.00165087,0.00110981,-0.00219246,-0.776438,0.00194042,0.0216115,636,1086,-2.68471,-0.892864
-581,-62,-2.70288,0.900391,-0.000597492,-0.000476971,-0.00153604,0.000999992,-0.00207445,-0.805004,0.0018108,0.0305707,643,1086,-2.70285,-0.90043
-574,-62,-2.79694,0.876831,-0.000732941,-0.000436533,-0.00134896,0.00077234,-0.00194181,-0.840111,0.00161478,0.0347424,650,1086,-2.79695,-0.876789
-567,-62,-2.72192,0.598999,-0.000902766,-0.000308807,-0.000943436,0.000383288,-0.00159486,-0.937881,0.00121139,0.038779,657,1086,-2.72195,-0.598979
-560,-62,-2.70496,0.532593,-0.00109032,-0.000103308,-0.000259292,-3.93367e-05,-0.00115429,-1.32891,0.000756753,0.0410528,664,1086,-2.70495,-0.532581
-553,-62,-2.6778,0.668945,-0.00132153,0.000188529,0.000750282,0.000497921,-0.00163092,1.17967,0.0012858,0.0374132,671,1086,-2.6778,-0.66891
-546,-62,-2.58325,0.770142,-0.00162924,0.000568876,0.00215877,0.00189226,-0.00295262,1.02085,0.00281944,0.03224,678,1086,-2.58325,-0.770094
-539,-62,-2.68469,0.755371,-0.00202001,0.00104321,0.0039689,0.00376578,-0.00474257,0.969546,0.00492308,0.0377724,685,1086,-2.68471,-0.755363
-532,-62,-2.72479,0.903442,-0.00263225,0.00159022,0.00597835,0.00581917,-0.0068612,0.955136,0.00732925,0.0419108,692,1086,-2.72478,-0.903491
-525,-62,0,0,0,0,0,0,0,0,0,-1,699,1086,0,0
-518,-62,0,0,0,0,0,0,0,0,0,-1,706,1086,0,0
-511,-62,0,0,0,0,0,0,0,0,0,-1,713,1086,0,0
-504,-62,0,0,0,0,0,0,0,0,0,-1,720,1086,0,0
-497,-62,0,0,0,0,0,0,0,0,0,-1,727,1086,0,0
-490,-62,0,0,0,0,0,0,0,0,0,-1,734,1086,0,0
-483,-62,0,0,0,0,0,0,0,0,0,-1,741,1086,0,0
-476,-62,0,0,0,0,0,0,0,0,0,-1,748,1086,0,0
-469,-62,0,0,0,0,0,0,0,0,0,-1,755,1086,0,0
-462,-62,0,0,0,0,0,0,0,0,0,-1,762,1086,0,0
-455,-62,0,0,0,0,0,0,0,0,0,-1,769,1086,0,0
-448,-62,0,0,0,0,0,0,0,0,0,-1,776,1086,0,0
-441,-62,0,0,0,0,0,0,0,0,0,-1,783,1086,0,0
-434,-62,0,0,0,0,0,0,0,0,0,-1,790,1086,0,0
-427,-62,0,0,0,0,0,0,0,0,0,-1,797,1086,0,0
-420,-62,0,0,0,0,0,0,0,0,0,-1,804,1086,0,0
-413,-62,0,0,0,0,0,0,0,0,0,-1,811,1086,0,0
-406,-62,0,0,0,0,0,0,0,0,0,-1,818,1086,0,0
-399,-62,0,0,0,0,0,0,0,0,0,-1,825,1086,0,0
-392,-62,0,0,0,0,0,0,0,0,0,-1,832,1086,0,0
-385,-62,0,0,0,0,0,0,0,0,0,-1,839,1086,0,0
-378,-62,0,0,0,0,0,0,0,0,0,-1,846,1086,0,0
-371,-62,0,0,0,0,0,0,0,0,0,-1,853,1086,0,0
-364,-62,0,0,0,0,0,0,0,0,0,-1,860,1086,0,0
-357,-62,0,0,0,0,0,0,0,0,0,-1,867,1086,0,0
-350,-62,0,0,0,0,0,0,0,0,0,-1,874,1086,0,0
-343,-62,0,0,0,0,0,0,0,0,0,-1,881,1086,0,0
-336,-62,0,0,0,0,0,0,0,0,0,-1,888,1086,0,0
-329,-62,0,0,0,0,0,0,0,0,0,-1,895,1086,0,0
-322,-62,0,0,0,0,0,0,0,0,0,-1,902,1086,0,0
-315,-62,0,0,0,0,0,0,0,0,0,-1,909,1086,0,0
-308,-62,0,0,0,0,0,0,0,0,0,-1,916,1086,0,0
-301,-62,0,0,0,0,0,0,0,0,0,-1,923,1086,0,0
-294,-62,0,0,0,0,0,0,0,0,0,-1,930,1086,0,0
-287,-62,0,0,0,0,0,0,0,0,0,-1,937,1086,0,0
-280,-62,0,0,0,0,0,0,0,0,0,-1,944,1086,0,0
-273,-62,0,0,0,0,0,0,0,0,0,-1,951,1086,0,0
-266,-62,0,0,0,0,0,0,0,0,0,-1,958,1086,0,0
-259,-62,0,0,0,0,0,0,0,0,0,-1,965,1086,0,0
-252,-62,0,0,0,0,0,0,0,0,0,-1,972,1086,0,0
-245,-62,0,0,0,0,0,0,0,0,0,-1,979,1086,0,0
-238,-62,0,0,0,0,0,0,0,0,0,-1,986,1086,0,0
-231,-62,0,0,0,0,0,0,0,0,0,-1,993,1086,0,0
-224,-62,0,0,0,0,0,0,0,0,0,-1,1000,1086,0,0
-217,-62,0,0,0,0,0,0,0,0,0,-1,1007,1086,0,0
-210,-62,0,0,0,0,0,0,0,0,0,-1,1014,1086,0,0
-203,-62,0,0,0,0,0,0,0,0,0,-1,1021,1086,0,0
-196,-62,0,0,0,0,0,0,0,0,0,-1,1028,1086,0,0
-189,-62,0,0,0,0,0,0,0,0,0,-1,1035,1086,0,0
-182,-62,0,0,0,0,0,0,0,0,0,-1,1042,1086,0,0
-175,-62,0,0,0,0,0,0,0,0,0,-1,1049,1086,0,0
-168,-62,0,0,0,0,0,0,0,0,0,-1,1056,1086,0,0
-161,-62,0,0,0,0,0,0,0,0,0,-1,1063,1086,0,0
-154,-62,0,0,0,0,0,0,0,0,0,-1,1070,1086,0,0
-147,-62,0,0,0,0,0,0,0,0,0,-1,1077,1086,0,0
-140,-62,0,0,0,0,0,0,0,0,0,-1,1084,1086,0,0
-133,-62,0,0,0,0,0,0,0,0,0,-1,1091,1086,0,0
-126,-62,0,0,0,0,0,0,0,0,0,-1,1098,1086,0,0
-119,-62,0,0,0,0,0,0,0,0,0,-1,1105,1086,0,0
-112,-62,0,0,0,0,0,0,0,0,0,-1,1112,1086,0,0
-105,-62,0,0,0,0,0,0,0,0,0,-1,1119,1086,0,0
-98,-62,0,0,0,0,0,0,0,0,0,-1,1126,1086,0,0
-91,-62,0,0,0,0,0,0,0,0,0,-1,1133,1086,0,0
-84,-62,0,0,0,0,0,0,0,0,0,-1,1140,1086,0,0
-77,-62,0,0,0,0,0,0,0,0,0,-1,1147,1086,0,0
-70,-62,0,0,0,0,0,0,0,0,0,-1,1154,1086,0,0
-63,-62,0,0,0,0,0,0,0,0,0,-1,1161,1086,0,0
-56,-62,0,0,0,0,0,0,0,0,0,-1,1168,1086,0,0
-49,-62,0,0,0,0,0,0,0,0,0,-1,1175,1086,0,0
-42,-62,0,0,0,0,0,0,0,0,0,-1,1182,1086,0,0
-35,-62,0,0,0,0,0,0,0,0,0,-1,1189,1086,0,0
-28,-62,0,0,0,0,0,0,0,0,0,-1,1196,1086,0,0
-21,-62,0,0,0,0,0,0,0,0,0,-1,1203,1086,0,0
-14,-62,0,0,0,0,0,0,0,0,0,-1,1210,1086,0,0
-7,-62,0,0,0,0,0,0,0,0,0,-1,1217,1086,0,0
0,-62,0,0,0,0,0,0,0,0,0,-1,1224,1086,0,0
7,-62,0,0,0,0,0,0,0,0,0,-1,1231,1086,0,0
14,-62,0,0,0,0,0,0,0,0,0,-1,1238,1086,0,0
21,-62,0,0,0,0,0,0,0,0,0,-1,1245,1086,0,0
28,-62,0,0,0,0,0,0,0,0,0,-1,1252,1086,0,0
35,-62,0,0,0,0,0,0,0,0,0,-1,1259,1086,0,0
42,-62,0,0,0,0,0,0,0,0,0,-1,1266,1086,0,0
49,-62,0,0,0,0,0,0,0,0,0,-1,1273,1086,0,0
56,-62,0,0,0,0,0,0,0,0,0,-1,1280,1086,0,0
63,-62,0,0,0,0,0,0,0,0,0,-1,1287,1086,0,0
70,-62,0,0,0,0,0,0,0,0,0,-1,1294,1086,0,0
77,-62,0,0,0,0,0,0,0,0,0,-1,1301,1086,0,0
84,-62,0,0,0,0,0,0,0,0,0,-1,1308,1086,0,0
91,-62,0,0,0,0,0,0,0,0,0,-1,1315,1086,0,0
98,-62,0,0,0,0,0,0,0,0,0,-1,1322,1086,0,0
105,-62,0,0,0,0,0,0,0,0,0,-1,1329,1086,0,0
112,-62,0,0,0,0,0,0,0,0,0,-1,1336,1086,0,0
119,-62,0,0,0,0,0,0,0,0,0,-1,1343,1086,0,0
126,-62,0,0,0,0,0,0,0,0,0,-1,1350,1086,0,0
133,-62,0,0,0,0,0,0,0,0,0,-1,1357,1086,0,0
140,-62,0,0,0,0,0,0,0,0,0,-1,1364,1086,0,0
147,-62,0,0,0,0,0,0,0,0,0,-1,1371,1086,0,0
154,-62,0,0,0,0,0,0,0,0,0,-1,1378,1086,0,0
161,-62,0,0,0,0,0,0,0,0,0,-1,1385,1086,0,0
168,-62,0,0,0,0,0,0,0,0,0,-1,1392,1086,0,0
175,-62,0,0,0,0,0,0,0,0,0,-1,1399,1086,0,0
182,-62,0,0,0,0,0,0,0,0,0,-1,1406,1086,0,0
189,-62,0,0,0,0,0,0,0,0,0,-1,1413,1086,0,0
196,-62,0,0,0,0,0,0,0,0,0,-1,1420,1086,0,0
203,-62,0,0,0,0,0,0,0,0,0,-1,1427,1086,0,0
210,-62,0,0,0,0,0,0,0,0,0,-1,1434,1086,0,0
217,-62,0,0,0,0,0,0,0,0,0,-1,1441,1086,0,0
224,-62,0,0,0,0,0,0,0,0,0,-1,1448,1086,0,0
231,-62,0,0,0,0,0,0,0,0,0,-1,1455,1086,0,0
238,-62,0,0,0,0,0,0,0,0,0,-1,1462,1086,0,0
245,-62,0,0,0,0,0,0,0,0,0,-1,1469,1086,0,0
252,-62,0,0,0,0,0,0,0,0,0,-1,1476,1086,0,0
259,-62,0,0,0,0,0,0,0,0,0,-1,1483,1086,0,0
266,-62,0,0,0,0,0,0,0,0,0,-1,1490,1086,0,0
273,-62,0,0,0,0,0,0,0,0,0,-1,1497,1086,0,0
280,-62,0,0,0,0,0,0,0,0,0,-1,1504,1086,0,0
287,-62,0,0,0,0,0,0,0,0,0,-1,1511,1086,0,0
294,-62,0,0,0,0,0,0,0,0,0,-1,1518,1086,0,0
301,-62,0,0,0,0,0,0,0,0,0,-1,1525,1086,0,0
308,-62,0,0,0,0,0,0,0,0,0,-1,1532,1086,0,0
315,-62,0,0,0,0,0,0,0,0,0,-1,1539,1086,0,0
322,-62,0,0,0,0,0,0,0,0,0,-1,1546,1086,0,0
329,-62,0,0,0,0,0,0,0,0,0,-1,1553,1086,0,0
336,-62,0,0,0,0,0,0,0,0,0,-1,1560,1086,0,0
343,-62,0,0,0,0,0,0,0,0,0,-1,1567,1086,0,0
350,-62,0,0,0,0,0,0,0,0,0,-1,1574,1086,0,0
357,-62,0,0,0,0,0,0,0,0,0,-1,1581,1086,0,0
364,-62,0,0,0,0,0,0,0,0,0,-1,1588,1086,0,0
371,-62,0,0,0,0,0,0,0,0,0,-1,1595,1086,0,0
378,-62,0,0,0,0,0,0,0,0,0,-1,1602,1086,0,0
385,-62,0,0,0,0,0,0,0,0,0,-1,1609,1086,0,0
392,-62,0,0,0,0,0,0,0,0,0,-1,1616,1086,0,0
399,-62,0,0,0,0,0,0,0,0,0,-1,1623,1086,0,0
406,-62,0,0,0,0,0,0,0,0,0,-1,1630,1086,0,0
413,-62,0,0,0,0,0,0,0,0,0,-1,1637,1086,0,0
420,-62,0,0,0,0,0,0,0,0,0,-1,1644,1086,0,0
427,-62,0,0,0,0,0,0,0,0,0,-1,1651,1086,0,0
434,-62,0,0,0,0,0,0,0,0,0,-1,1658,1086,0,0
441,-62,0,0,0,0,0,0,0,0,0,-1,1665,1086,0,0
448,-62,0,0,0,0,0,0,0,0,0,-1,1672,1086,0,0
455,-62,0,0,0,0,0,0,0,0,0,-1,1679,1086,0,0
462,-62,0,0,0,0,0,0,0,0,0,-1,1686,1086,0,0
469,-62,0,0,0,0,0,0,0,0,0,-1,1693,1086,0,0
476,-62,0,0,0,0,0,0,0,0,0,-1,1700,1086,0,0
483,-62,0,0,0,0,0,0,0,0,0,-1,1707,1086,0,0
490,-62,0,0,0,0,0,0,0,0,0,-1,1714,1086,0,0
497,-62,0,0,0,0,0,0,0,0,0,-1,1721,1086,0,0
504,-62,0,0,0,0,0,0,0,0,0,-1,1728,1086,0,0
511,-62,0,0,0,0,0,0,0,0,0,-1,1735,1086,0,0
518,-62,0,0,0,0,0,0,0,0,0,-1,1742,1086,0,0
525,-62,0,0,0,0,0,0,0,0,0,-1,1749,1086,0,0
532,-62,0,0,0,0,0,0,0,0,0,-1,1756,1086,0,0
539,-62,0,0,0,0,0,0,0,0,0,-1,1763,1086,0,0
546,-62,0,0,0,0,0,0,0,0,0,-1,1770,1086,0,0
553,-62,0,0,0,0,0,0,0,0,0,-1,1777,1086,0,0
560,-62,0,0,0,0,0,0,0,0,0,-1,1784,1086,0,0
567,-62,0,0,0,0,0,0,0,0,0,-1,1791,1086,0,0
574,-62,0,0,0,0,0,0,0,0,0,-1,1798,1086,0,0
581,-62,0,0,0,0,0,0,0,0,0,-1,1805,1086,0,0
588,-62,0,0,0,0,0,0,0,0,0,-1,1812,1086,0,0
595,-62,0,0,0,0,0,0,0,0,0,-1,1819,1086,0,0
602,-62,0,0,0,0,0,0,0,0,0,-1,1826,1086,0,0
609,-62,0,0,0,0,0,0,0,0,0,-1,1833,1086,0,0
616,-62,0,0,0,0,0,0,0,0,0,-1,1840,1086,0,0
623,-62,0,0,0,0,0,0,0,0,0,-1,1847,1086,0,0
630,-62,0,0,0,0,0,0,0,0,0,-1,1854,1086,0,0
637,-62,0,0,0,0,0,0,0,0,0,-1,1861,1086,0,0
644,-62,0,0,0,0,0,0,0,0,0,-1,1868,1086,0,0
651,-62,7.26868,0.96582,-0.000549846,-0.000709155,0.000986446,0.000360157,-0.00161916,0.745111,0.00121738,0.0396076,1875,1086,7.26868,-0.965823
658,-62,7.27734,1.02478,-0.000766578,-0.000186033,0.000379144,1.19611e-06,-0.000953808,1.1121,0.000636271,0.0390823,1882,1086,7.27732,-1.02481
665,-62,7.15588,1.16223,-0.000747005,7.70364e-05,7.37989e-05,8.35935e-05,-0.000753562,1.48218,0.000532431,0.0361922,1889,1086,7.15589,-1.16221
672,-62,7.06018,1.27258,-0.000809748,0.000131234,0.000162832,0.000158615,-0.000837129,1.4042,0.000617783,0.0364261,1896,1086,7.0602,-1.27254
679,-62,7.09094,1.03772,-0.000941717,5.82001e-05,0.000482297,0.000252913,-0.00113643,1.18709,0.000854493,0.037312,1903,1086,7.0909,-1.03768
686,-62,7.12939,0.947144,-0.00104304,-5.75589e-05,0.000863447,0.00044385,-0.00154445,1.04468,0.00120514,0.0381714,1910,1086,7.12942,-0.947136
693,-62,7.09607,0.940918,-0.00113509,-0.000180813,0.00125451,0.000684228,-0.00200014,0.967121,0.00161069,0.0357726,1917,1086,7.09605,-0.940859
700,-62,7.11987,1.00293,-0.00126586,-0.000212078,0.00157631,0.000923073,-0.00240101,0.946688,0.00198138,0.0318211,1924,1086,7.11987,-1.00297
707,-62,7.16614,1.0011,-0.00134923,-0.000292866,0.00184191,0.00109509,-0.00273719,0.925031,0.00227927,0.0219718,1931,1086,7.1661,-1.00111
714,-62,7.17432,1.00537,-0.00127752,-0.000372085,0.00199405,0.00122,-0.0028696,0.897023,0.00242431,0.0202785,1938,1086,7.17435,-1.00535
721,-62,7.1499,1.14136,-0.00116645,-0.000407477,0.00198347,0.00123248,-0.00280641,0.879918,0.00239014,0.02262,1945,1086,7.14993,-1.1414
728,-62,7.10522,1.255,-0.00120946,-0.000400211,0.00200163,0.00123728,-0.00284695,0.885128,0.00241831,0.0155826,1952,1086,7.10525,-1.25498
735,-62,7.11633,1.24622,-0.00149177,-0.000276052,0.00188245,0.00109425,-0.00286207,0.941568,0.00235897,0.0160747,1959,1086,7.11638,-1.24626
742,-62,7.11719,1.25562,-0.00198226,-0.000157257,0.00108999,0.00035177,-0.00249129,1.1339,0.00178967,0.0135648,1966,1086,7.11714,-1.2556
749,-62,7.10559,1.2384,-0.00172874,-6.52557e-05,-5.4823e-05,-6.34508e-05,-0.00173055,-1.53789,0.00113314,0.0119194,1973,1086,7.10555,-1.2384
756,-62,7.06372,1.24707,-0.000453684,3.55541e-05,-0.00169286,0.00150138,-0.00191951,-0.857152,0.00197996,0.0126899,1980,1086,7.06371,-1.24709
763,-62,7.08643,1.21997,0.00184394,0.0003662,-0.00388563,0.00506032,-0.00285019,-0.691443,0.00462617,0.012815,1987,1086,7.08642,-1.21997
770,-62,7.10962,1.1886,0.0041386,0.00063273,-0.00637519,0.00899746,-0.00422613,-0.651233,0.00779854,0.0101933,1994,1086,7.10966,-1.18858
777,-62,7.09229,1.16687,0.00761346,0.000986304,-0.00948091,0.0143432,-0.0057434,-0.617284,0.011946,0.0120592,2001,1086,7.09223,-1.16682
784,-62,7.08252,1.17236,0.0126934,0.00145389,-0.013268,0.0214828,-0.00733546,-0.585074,0.0172936,0.0263424,2008,1086,7.08256,-1.17231
791,-62,6.52991,1.33081,0,0,0,0,0,0,0,-1,2015,1086,6.52989,-1.33079
798,-62,6.21191,0.71936,0.030435,0.00313736,-0.02364,0.0440834,-0.010511,-0.523594,0.0334478,0.0432328,2022,1086,6.21196,-0.719312
805,-62,6.59436,0.20752,0.0447428,0.00464208,-0.0304075,0.0611154,-0.0117305,-0.493924,0.0451644,0.0440193,2029,1086,6.59439,-0.207462
812,-62,7.05212,-0.301025,0.0643819,0.00693153,-0.0383402,0.083564,-0.0122506,-0.463898,0.0602097,0.0464359,2036,1086,7.05211,0.301039
-700,-69,-7.29639,-0.960571,0,0,0,0,0,0,0,-1,524,1093,-7.29637,0.960561
-693,-69,-6.14581,-0.048584,0,0,0,0,0,0,0,-1,531,1093,-6.1458,0.0485558
-686,-69,-5.521,0.145508,0,0,0,0,0,0,0,-1,538,1093,-5.52099,-0.145529
-679,-69,-3.28253,0.814209,0,0,0,0,0,0,0,-1,545,1093,-3.28256,-0.81417
-672,-69,-2.85553,1.04382,0,0,0,0,0,0,0,-1,552,1093,-2.8555,-1.0438
-665,-69,-2.36633,1.3385,0.00607487,-0.00561098,0.00955756,0.011434,-0.0109701,0.51104,0.012936,0.0464418,559,1093,-2.36633,-1.33856
-658,-69,-2.64545,0.496704,0.00775967,-0.00473072,0.0052821,0.0096939,-0.00666495,0.351021,0.0094986,0.0452948,566,1093,-2.64542,-0.496732
-651,-69,-2.64545,0.733032,0.0073705,-0.00350638,0.00260629,0.00796276,-0.00409864,0.223448,0.00708178,0.0296275,573,1093,-2.64545,-0.733052
-644,-69,-2.66565,0.77832,0.00605616,-0.00234271,0.00105326,0.00618623,-0.00247278,0.122871,0.00515024,0.00935437,580,1093,-2.66567,-0.778349
-637,-69,-2.6781,0.806763,0.00552715,-0.00192389,-0.000103597,0.00552859,-0.00192533,-0.0139001,0.00446799,0.0121364,587,1093,-2.67807,-0.806791
-630,-69,-2.67737,0.798828,0.00445243,-0.00148289,-0.000811552,0.00456139,-0.00159186,-0.133469,0.0036879,0.0145248,594,1093,-2.67734,-0.798777
-623,-69,-2.66199,0.8302,0.00269339,-0.000645804,-0.00123143,0.00309839,-0.00105081,-0.317746,0.00249088,0.0129972,601,1093,-2.66197,-0.830151
-616,-69,-2.6532,0.836792,0.000326777,5.07242e-05,-0.00169952,0.00189387,-0.00151637,-0.74488,0.00197292,0.0124543,608,1093,-2.65319,-0.836776
-609,-69,-2.64313,0.810181,-0.000501801,0.000554274,-0.00148319,0.00160062,-0.00154815,-0.956409,0.00181803,0.0116631,615,1093,-2.64311,-0.810219
-602,-69,-2.64703,0.877686,-0.000352638,-0.000324898,-0.00130911,0.000970415,-0.00164795,-0.790695,0.00152849,0.0134877,622,1093,-2.64704,-0.87772
-595,-69,-2.65454,0.925415,-0.000459405,-0.000544979,-0.00165703,0.00115539,-0.00215978,-0.77249,0.00194308,0.0162435,629,1093,-2.65452,-0.925431
-588,-69,-2.66864,0.886963,-0.00055606,-0.000669193,-0.00182082,0.00120907,-0.00243432,-0.76987,0.0021428,0.0195471,636,1093,-2.66864,-0.887005
-581,-69,-2.70013,0.851196,-0.000556463,-0.000616617,-0.00174657,0.00116029,-0.00233336,-0.776789,0.00205461,0.0260893,643,1093,-2.70011,-0.851141
-574,-69,-2.76251,0.797119,-0.000607835,-0.000661828,-0.00158213,0.000947532,-0.0022172,-0.776867,0.00187553,0.0329506,650,1093,-2.76253,-0.797174
-567,-69,-2.77069,0.791748,-0.000641348,-0.000622798,-0.00121136,0.000579322,-0.00184347,-0.789227,0.00146089,0.0400724,657,1093,-2.77066,-0.791695
-560,-69,-2.68256,0.428955,-0.000659257,-0.00052424,-0.000553613,-3.40348e-05,-0.00114946,-0.84607,0.000755219,0.0427796,664,1093,-2.68257,-0.428995
-553,-69,-2.76318,0.480713,-0.000689726,-0.000359479,0.000447152,-4.79365e-05,-0.00100127,0.96227,0.000652121,0.0410543,671,1093,-2.76315,-0.480652
-546,-69,-3.06793,0.0861816,0,0,0,0,0,0,0,-1,678,1093,-3.06792,-0.0862297
-539,-69,-2.72064,0.610962,-0.000916373,0.000194433,0.00373592,0.00341601,-0.00413795,0.85919,0.00436792,0.0396347,685,1093,-2.72066,-0.61102
-532,-69,-2.57074,0.953979,-0.00132909,0.000571884,0.00585545,0.00555349,-0.0063107,0.865859,0.00685444,0.0425599,692,1093,-2.57072,-0.953941
-525,-69,0,0,0,0,0,0,0,0,0,-1,699,1093,0,0
-518,-69,0,0,0,0,0,0,0,0,0,-1,706,1093,0,0
-511,-69,0,0,0,0,0,0,0,0,0,-1,713,1093,0,0
-504,-69,0,0,0,0,0,0,0,0,0,-1,720,1093,0,0
-497,-69,0,0,0,0,0,0,0,0,0,-1,727,1093,0,0
-490,-69,0,0,0,0,0,0,0,0,0,-1,734,1093,0,0
-483,-69,0,0,0,0,0,0,0,0,0,-1,741,1093,0,0
-476,-69,0,0,0,0,0,0,0,0,0,-1,748,1093,0,0
-469,-69,0,0,0,0,0,0,0,0,0,-1,755,1093,0,0
-462,-69,0,0,0,0,0,0,0,0,0,-1,762,1093,0,0
-455,-69,0,0,0,0,0,0,0,0,0,-1,769,1093,0,0
-448,-69,0,0,0,0,0,0,0,0,0,-1,776,1093,0,0
-441,-69,0,0,0,0,0,0,0,0,0,-1,783,1093,0,0
-434,-69,0,0,0,0,0,0,0,0,0,-1,790,1093,0,0
-427,-69,0,0,0,0,0,0,0,0,0,-1,797,1093,0,0
-420,-69,0,0,0,0,0,0,0,0,0,-1,804,1093,0,0
-413,-69,0,0,0,0,0,0,0,0,0,-1,811,1093,0,0
-406,-69,0,0,0,0,0,0,0,0,0,-1,818,1093,0,0
-399,-69,0,0,0,0,0,0,0,0,0,-1,825,1093,0,0
-392,-69,0,0,0,0,0,0,0,0,0,-1,832,1093,0,0
-385,-69,0,0,0,0,0,0,0,0,0,-1,839,1093,0,0
-378,-69,0,0,0,0,0,0,0,0,0,-1,846,1093,0,0
-371,-69,0,0,0,0,0,0,0,0,0,-1,853,1093,0,0
-364,-69,0,0,0,0,0,0,0,0,0,-1,860,1093,0,0
-357,-69,0,0,0,0,0,0,0,0,0,-1,867,1093,0,0
-350,-69,0,0,0,0,0,0,0,0,0,-1,874,1093,0,0
-343,-69,0,0,0,0,0,0,0,0,0,-1,881,1093,0,0
-336,-69,0,0,0,0,0,0,0,0,0,-1,888,1093,0,0
-329,-69,0,0,0,0,0,0,0,0,0,-1,895,1093,0,0
-322,-69,0,0,0,0,0,0,0,0,0,-1,902,1093,0,0
-315,-69,0,0,0,0,0,0,0,0,0,-1,909,1093,0,0
-308,-69,0,0,0,0,0,0,0,0,0,-1,916,1093,0,0
-301,-69,0,0,0,0,0,0,0,0,0,-1,923,1093,0,0
-294,-69,0,0,0,0,0,0,0,0,0,-1,930,1093,0,0
-287,-69,0,0,0,0,0,0,0,0,0,-1,937,1093,0,0
-280,-69,0,0,0,0,0,0,0,0,0,-1,944,1093,0,0
-273,-69,0,0,0,0,0,0,0,0,0,-1,951,1093,0,0
-266,-69,0,0,0,0,0,0,0,0,0,-1,958,1093,0,0
-259,-69,0,0,0,0,0,0,0,0,0,-1,965,1093,0,0
-252,-69,0,0,0,0,0,0,0,0,0,-1,972,1093,0,0
-245,-69,0,0,0,0,0,0,0,0,0,-1,979,1093,0,0
-238,-69,0,0,0,0,0,0,0,0,0,-1,986,1093,0,0
-231,-69,0,0,0,0,0,0,0,0,0,-1,993,1093,0,0
-224,-69,0,0,0,0,0,0,0,0,0,-1,1000,1093,0,0
-217,-69,0,0,0,0,0,0,0,0,0,-1,1007,1093,0,0
-210,-69,0,0,0,0,0,0,0,0,0,-1,1014,1093,0,0
-203,-69,0,0,0,0,0,0,0,0,0,-1,1021,1093,0,0
-196,-69,0,0,0,0,0,0,0,0,0,-1,1028,1093,0,0
-189,-69,0,0,0,0,0,0,0,0,0,-1,1035,1093,0,0
-182,-69,0,0,0,0,0,0,0,0,0,-1,1042,1093,0,0
-175,-69,0,0,0,0,0,0,0,0,0,-1,1049,1093,0,0
-168,-69,0,0,0,0,0,0,0,0,0,-1,1056,1093,0,0
-161,-69,0,0,0,0,0,0,0,0,0,-1,1063,1093,0,0
-154,-69,0,0,0,0,0,0,0,0,0,-1,1070,1093,0,0
-147,-69,0,0,0,0,0,0,0,0,0,-1,1077,1093,0,0
-140,-69,0,0,0,0,0,0,0,0,0,-1,1084,1093,0,0
-133,-69,0,0,0,0,0,0,0,0,0,-1,1091,1093,0,0
-126,-69,0,0,0,0,0,0,0,0,0,-1,1098,1093,0,0
-119,-69,0,0,0,0,0,0,0,0,0,-1,1105,1093,0,0
-112,-69,0,0,0,0,0,0,0,0,0,-1,1112,1093,0,0
-105,-69,0,0,0,0,0,0,0,0,0,-1,1119,1093,0,0
-98,-69,0,0,0,0,0,0,0,0,0,-1,1126,1093,0,0
-91,-69,0,0,0,0,0,0,0,0,0,-1,1133,1093,0,0
-84,-69,0,0,0,0,0,0,0,0,0,-1,1140,1093,0,0
-77,-69,0,0,0,0,0,0,0,0,0,-1,1147,1093,0,0
-70,-69,0,0,0,0,0,0,0,0,0,-1,1154,1093,0,0
-63,-69,0,0,0,0,0,0,0,0,0,-1,1161,1093,0,0
-56,-69,0,0,0,0,0,0,0,0,0,-1,1168,1093,0,0
-49,-69,0,0,0,0,0,0,0,0,0,-1,1175,1093,0,0
-42,-69,0,0,0,0,0,0,0,0,0,-1,1182,1093,0,0
-35,-69,0,0,0,0,0,0,0,0,0,-1,1189,1093,0,0
-28,-69,0,0,0,0,0,0,0,0,0,-1,1196,1093,0,0
-21,-69,0,0,0,0,0,0,0,0,0,-1,1203,1093,0,0
-14,-69,0,0,0,0,0,0,0,0,0,-1,1210,1093,0,0
-7,-69,0,0,0,0,0,0,0,0,0,-1,1217,1093,0,0
0,-69,0,0,0,0,0,0,0,0,0,-1,1224,1093,0,0
7,-69,0,0,0,0,0,0,0,0,0,-1,1231,1093,0,0
14,-69,0,0,0,0,0,0,0,0,0,-1,1238,1093,0,0
21,-69,0,0,0,0,0,0,0,0,0,-1,1245,1093,0,0
28,-69,0,0,0,0,0,0,0,0,0,-1,1252,1093,0,0
35,-69,0,0,0,0,0,0,0,0,0,-1,1259,1093,0,0
42,-69,0,0,0,0,0,0,0,0,0,-1,1266,1093,0,0
49,-69,0,0,0,0,0,0,0,0,0,-1,1273,1093,0,0
56,-69,0,0,0,0,0,0,0,0,0,-1,1280,1093,0,0
63,-69,0,0,0,0,0,0,0,0,0,-1,1287,1093,0,0
70,-69,0,0,0,0,0,0,0,0,0,-1,1294,1093,0,0
77,-69,0,0,0,0,0,0,0,0,0,-1,1301,1093,0,0
84,-69,0,0,0,0,0,0,0,0,0,-1,1308,1093,0,0
91,-69,0,0,0,0,0,0,0,0,0,-1,1315,1093,0,0
98,-69,0,0,0,0,0,0,0,0,0,-1,1322,1093,0,0
105,-69,0,0,0,0,0,0,0,0,0,-1,1329,1093,0,0
112,-69,0,0,0,0,0,0,0,0,0,-1,1336,1093,0,0
119,-69,0,0,0,0,0,0,0,0,0,-1,1343,1093,0,0
126,-69,0,0,0,0,0,0,0,0,0,-1,1350,1093,0,0
133,-69,0,0,0,0,0,0,0,0,0,-1,1357,1093,0,0
140,-69,0,0,0,0,0,0,0,0,0,-1,1364,1093,0,0
147,-69,0,0,0,0,0,0,0,0,0,-1,1371,1093,0,0
154,-69,0,0,0,0,0,0,0,0,0,-1,1378,1093,0,0
161,-69,0,0,0,0,0,0,0,0,0,-1,1385,1093,0,0
168,-69,0,0,0,0,0,0,0,0,0,-1,1392,1093,0,0
175,-69,0,0,0,0,0,0,0,0,0,-1,1399,1093,0,0
182,-69,0,0,0,0,0,0,0,0,0,-1,1406,1093,0,0
189,-69,0,0,0,0,0,0,0,0,0,-1,1413,1093,0,0
196,-69,0,0,0,0,0,0,0,0,0,-1,1420,1093,0,0
203,-69,0,0,0,0,0,0,0,0,0,-1,1427,1093,0,0
210,-69,0,0,0,0,0,0,0,0,0,-1,1434,1093,0,0
217,-69,0,0,0,0,0,0,0,0,0,-1,1441,1093,0,0
224,-69,0,0,0,0,0,0,0,0,0,-1,1448,1093,0,0
231,-69,0,0,0,0,0,0,0,0,0,-1,1455,1093,0,0
238,-69,0,0,0,0,0,0,0,0,0,-1,1462,1093,0,0
245,-69,0,0,0,0,0,0,0,0,0,-1,1469,1093,0,0
252,-69,0,0,0,0,0,0,0,0,0,-1,1476,1093,0,0
259,-69,0,0,0,0,0,0,0,0,0,-1,1483,1093,0,0
266,-69,0,0,0,0,0,0,0,0,0,-1,1490,1093,0,0
273,-69,0,0,0,0,0,0,0,0,0,-1,1497,1093,0,0
280,-69,0,0,0,0,0,0,0,0,0,-1,1504,1093,0,0
287,-69,0,0,0,0,0,0,0,0,0,-1,1511,1093,0,0
294,-69,0,0,0,0,0,0,0,0,0,-1,1518,1093,0,0
301,-69,0,0,0,0,0,0,0,0,0,-1,1525,1093,0,0
308,-69,0,0,0,0,0,0,0,0,0,-1,1532,1093,0,0
315,-69,0,0,0,0,0,0,0,0,0,-1,1539,1093,0,0
322,-69,0,0,0,0,0,0,0,0,0,-1,1546,1093,0,0
329,-69,0,0,0,0,0,0,0,0,0,-1,1553,1093,0,0
336,-69,0,0,0,0,0,0,0,0,0,-1,1560,1093,0,0
343,-69,0,0,0,0,0,0,0,0,0,-1,1567,1093,0,0
350,-69,0,0,0,0,0,0,0,0,0,-1,1574,1093,0,0
357,-69,0,0,0,0,0,0,0,0,0,-1,1581,1093,0,0
364,-69,0,0,0,0,0,0,0,0,0,-1,1588,1093,0,0
371,-69,0,0,0,0,0,0,0,0,0,-1,1595,1093,0,0
378,-69,0,0,0,0,0,0,0,0,0,-1,1602,1093,0,0
385,-69,0,0,0,0,0,0,0,0,0,-1,1609,1093,0,0
392,-69,0,0,0,0,0,0,0,0,0,-1,1616,1093,0,0
399,-69,0,0,0,0,0,0,0,0,0,-1,1623,1093,0,0
406,-69,0,0,0,0,0,0,0,0,0,-1,1630,1093,0,0
413,-69,0,0,0,0,0,0,0,0,0,-1,1637,1093,0,0
420,-69,0,0,0,0,0,0,0,0,0,-1,1644,1093,0,0
427,-69,0,0,0,0,0,0,0,0,0,-1,1651,1093,0,0
434,-69,0,0,0,0,0,0,0,0,0,-1,1658,1093,0,0
441,-69,0,0,0,0,0,0,0,0,0,-1,1665,1093,0,0
448,-69,0,0,0,0,0,0,0,0,0,-1,1672,1093,0,0
455,-69,0,0,0,0,0,0,0,0,0,-1,1679,1093,0,0
462,-69,0,0,0,0,0,0,0,0,0,-1,1686,1093,0,0
469,-69,0,0,0,0,0,0,0,0,0,-1,1693,1093,0,0
476,-69,0,0,0,0,0,0,0,0,0,-1,1700,1093,0,0
483,-69,0,0,0,0,0,0,0,0,0,-1,1707,1093,0,0
490,-69,0,0,0,0,0,0,0,0,0,-1,1714,1093,0,0
497,-69,0,0,0,0,0,0,0,0,0,-1,1721,1093,0,0
504,-69,0,0,0,0,0,0,0,0,0,-1,1728,1093,0,0
511,-69,0,0,0,0,0,0,0,0,0,-1,1735,1093,0,0
518,-69,0,0,0,0,0,0,0,0,0,-1,1742,1093,0,0
525,-69,0,0,0,0,0,0,0,0,0,-1,1749,1093,0,0
532,-69,0,0,0,0,0,0,0,0,0,-1,1756,1093,0,0
539,-69,0,0,0,0,0,0,0,0,0,-1,1763,1093,0,0
546,-69,0,0,0,0,0,0,0,0,0,-1,1770,1093,0,0
553,-69,0,0,0,0,0,0,0,0,0,-1,1777,1093,0,0
560,-69,0,0,0,0,0,0,0,0,0,-1,1784,1093,0,0
567,-69,0,0,0,0,0,0,0,0,0,-1,1791,1093,0,0
574,-69,0,0,0,0,0,0,0,0,0,-1,1798,1093,0,0
581,-69,0,0,0,0,0,0,0,0,0,-1,1805,1093,0,0
588,-69,0,0,0,0,0,0,0,0,0,-1,1812,1093,0,0
595,-69,0,0,0,0,0,0,0,0,0,-1,1819,1093,0,0
602,-69,0,0,0,0,0,0,0,0,0,-1,1826,1093,0,0
609,-69,0,0,0,0,0,0,0,0,0,-1,1833,1093,0,0
616,-69,0,0,0,0,0,0,0,0,0,-1,1840,1093,0,0
623,-69,0,0,0,0,0,0,0,0,0,-1,1847,1093,0,0
630,-69,0,0,0,0,0,0,0,0,0,-1,1854,1093,0,0
637,-69,0,0,0,0,0,0,0,0,0,-1,1861,1093,0,0
644,-69,0,0,0,0,0,0,0,0,0,-1,1868,1093,0,0
651,-69,7.20679,1.10095,0.000116098,-0.00052808,0.000875327,0.000726714,-0.0011387,0.609104,0.00108571,0.0400167,1875,1093,7.20679,-1.10091
658,-69,7.23828,1.24011,-0.000233158,-0.000138046,0.000355795,0.000173356,-0.000544561,0.851835,0.000432565,0.0420619,1882,1093,7.23823,-1.24006
665,-69,7.15637,1.29773,-0.000348122,2.90233e-05,8.94013e-05,4.91424e-05,-0.000368241,1.34944,0.000263407,0.0395777,1889,1093,7.15632,-1.29777
672,-69,7.02771,1.20081,-0.00054476,-2.69932e-06,0.000206847,6.72151e-05,-0.000614674,1.24485,0.000433926,0.0353845,1896,1093,7.02772,-1.20086
679,-69,7.05505,0.932007,-0.000782018,-0.000135515,0.000526249,0.000158833,-0.00107637,1.06082,0.00077596,0.036126,1903,1093,7.05508,-0.93197
686,-69,7.14038,0.909058,-0.000963218,-0.000288292,0.000894564,0.000330345,-0.00158186,0.965764,0.0011802,0.0373411,1910,1093,7.14034,-0.909071
693,-69,7.1095,0.957153,-0.00111794,-0.000429374,0.00127189,0.000544003,-0.00209132,0.917574,0.00160655,0.0354975,1917,1093,7.10945,-0.957125
700,-69,7.13452,0.964355,-0.00130981,-0.000454114,0.00157534,0.000750441,-0.00251437,0.917996,0.00197451,0.0293863,1924,1093,7.13457,-0.964325
707,-69,7.16882,0.963745,-0.00143087,-0.000538603,0.00183793,0.000906565,-0.00287604,0.904464,0.00228042,0.0198068,1931,1093,7.16879,-0.963742
714,-69,7.16321,0.94751,-0.00138472,-0.000607878,0.00198883,0.00103011,-0.0030227,0.881834,0.00243233,0.0173951,1938,1093,7.16324,-0.947496
721,-69,7.14221,1.15125,-0.00128663,-0.000609326,0.0019699,0.00105082,-0.00294677,0.870522,0.00239297,0.0242126,1945,1093,7.14218,-1.15128
728,-69,7.08887,1.26843,-0.00132715,-0.000571405,0.00198043,0.00106688,-0.00296543,0.879666,0.00241254,0.0152597,1952,1093,7.08888,-1.26844
735,-69,7.09363,1.24219,-0.00163437,-0.000433804,0.00187141,0.000931242,-0.00299942,0.940597,0.00237177,0.0145717,1959,1093,7.09363,-1.24222
742,-69,7.1051,1.23828,-0.00226439,-0.00031336,0.00104092,0.000137709,-0.00271546,1.16189,0.00185791,0.0126584,1966,1093,7.10508,-1.23833
749,-69,7.06116,1.23303,-0.00213905,-0.000192774,-9.32158e-05,-0.000188319,-0.00214351,-1.52305,0.00137055,0.0145867,1973,1093,7.06111,-1.23298
756,-69,7.05103,1.23755,-0.000898547,-0.000168381,-0.00175677,0.00126084,-0.00232776,-0.887848,0.00210218,0.0140567,1980,1093,7.05102,-1.23756
763,-69,7.0614,1.21399,0.00144412,5.53505e-05,-0.00403845,0.00484745,-0.00334798,-0.700259,0.00475796,0.0127251,1987,1093,7.06138,-1.21396
770,-69,7.06958,1.18164,0.00371811,0.000204263,-0.00662211,0.0088124,-0.00489002,-0.65573,0.00801841,0.0118202,1994,1093,7.0696,-1.18159
777,-69,7.06482,1.14624,0.00721353,0.000372742,-0.00984004,0.0142107,-0.00662442,-0.618131,0.0122921,0.0169585,2001,1093,7.06477,-1.14626
784,-69,7.08276,1.0636,0.0124115,0.000574837,-0.0137737,0.0214845,-0.00849819,-0.582482,0.0178436,0.0296355,2008,1093,7.08282,-1.0636
791,-69,5.53394,1.07532,0,0,0,0,0,0,0,-1,2015,1093,5.53395,-1.07537
798,-69,5.92517,0.563843,0.0309232,0.00141399,-0.0245724,0.0448305,-0.0124933,-0.515021,0.034807,0.0437716,2022,1093,5.92513,-0.563904
805,-69,6.30811,0.0794678,0.0460278,0.00226057,-0.0316193,0.0625977,-0.0143093,-0.482697,0.0472297,0.0447376,2029,1093,6.30807,-0.0794147
812,-69,7.026,-0.742676,0.0669188,0.00363622,-0.0398797,0.0861848,-0.0156298,-0.450041,0.0633129,0.0456648,2036,1093,7.02598,0.742679
-700,-76,0,0,0,0,0,0,0,0,0,-1,524,1100,0,0
-693,-76,-6.28656,-0.204956,0,0,0,0,0,0,0,-1,531,1100,-6.28655,0.204973
-686,-76,-6.38849,-0.288086,0,0,0,0,0,0,0,-1,538,1100,-6.38851,0.288052
-679,-76,-4.22729,1.09363,0,0,0,0,0,0,0,-1,545,1100,-4.22732,-1.09368
-672,-76,-2.76685,1.48059,0,0,0,0,0,0,0,-1,552,1100,-2.76687,-1.4806
-665,-76,-2.06128,1.92236,0.0103049,-0.00446202,0.00862159,0.0142725,-0.00842965,0.431302,0.013251,0.0468199,559,1100,-2.0613,-1.92236
-658,-76,-2.57336,0.600342,0.0113261,-0.00361177,0.00422896,0.0124402,-0.00472591,0.257601,0.010239,0.0446943,566,1100,-2.57338,-0.600292
-651,-76,-2.60205,0.686035,0.0102153,-0.00248089,0.0015495,0.0104017,-0.00266726,0.119704,0.00797364,0.0270925,573,1100,-2.60205,-0.686004
-644,-76,-2.61658,0.775513,0.00819057,-0.00144602,9.17252e-05,0.00819144,-0.00144689,0.00951727,0.00600168,0.0103878,580,1100,-2.61655,-0.775509
-637,-76,-2.63293,0.79834,0.00720105,-0.00126676,-0.00101844,0.00732182,-0.00138753,-0.11803,0.00540343,0.0138134,587,1100,-2.63296,-0.79839
-630,-76,-2.64893,0.790649,0.0056097,-0.000936115,-0.00154637,0.00595662,-0.00128304,-0.220693,0.0044607,0.0154379,594,1100,-2.64892,-0.790656
-623,-76,-2.63312,0.813354,0.00324421,-0.000277215,-0.00165897,0.00390265,-0.000935652,-0.377827,0.0029633,0.0135893,601,1100,-2.6331,-0.813333
-616,-76,-2.63403,0.829956,0.00040635,0.000577407,-0.002088,0.00258163,-0.00159787,-0.805868,0.00243521,0.011511,608,1100,-2.63405,-0.829992
-609,-76,-2.664,0.837769,-0.000633381,0.000974789,-0.00176557,0.00211075,-0.00176934,-0.999076,0.00224306,0.0125261,615,1100,-2.66402,-0.837801
-602,-76,-2.64392,0.886475,-0.000521399,-0.000288013,-0.00148055,0.00108043,-0.00188984,-0.824726,0.00173599,0.0146903,622,1100,-2.6439,-0.88653
-595,-76,-2.63306,0.90979,-0.000615872,-0.000529773,-0.00177997,0.00120766,-0.00235331,-0.797489,0.0020911,0.0174443,629,1100,-2.63306,-0.909761
-588,-76,-2.6496,0.847534,-0.000661377,-0.000680517,-0.00196976,0.00129884,-0.00264073,-0.782969,0.00231808,0.0195416,636,1100,-2.64962,-0.847569
-581,-76,-2.6745,0.759521,-0.000617955,-0.000651272,-0.00193335,0.00129881,-0.00256804,-0.78109,0.00227226,0.0252218,643,1100,-2.67452,-0.759484
-574,-76,-2.711,0.703369,-0.000630626,-0.0007587,-0.0017773,0.00108379,-0.00247312,-0.767391,0.00210515,0.0353177,650,1100,-2.71102,-0.703421
-567,-76,-2.61298,0.790649,-0.000580806,-0.00078923,-0.00142785,0.00074663,-0.00211667,-0.74897,0.00171504,0.0410164,657,1100,-2.61297,-0.790699
-560,-76,-2.64209,0.761353,-0.00049585,-0.000777412,-0.000785926,0.000161804,-0.00143507,-0.696774,0.00101495,0.0433688,664,1100,-2.64211,-0.761362
-553,-76,-2.80121,0.595459,-0.000407732,-0.000712629,0.000204753,-0.000304908,-0.000815454,0.465397,0.000475766,0.0430739,671,1100,-2.80119,-0.595499
-546,-76,-2.81348,0.511841,-0.00035533,-0.000580225,0.00162094,0.00115706,-0.00209261,0.750768,0.00190194,0.0407559,678,1100,-2.81349,-0.511784
-539,-76,-2.71991,0.637817,-0.000378225,-0.000355944,0.00348429,0.00311723,-0.0038514,0.786997,0.00403077,0.040482,685,1100,-2.71993,-0.637759
-532,-76,-2.48761,0.858276,-0.000709525,-5.81447e-05,0.00560238,0.00522801,-0.00599568,0.814433,0.00648505,0.0414439,692,1100,-2.48763,-0.858249
-525,-76,0,0,0,0,0,0,0,0,0,-1,699,1100,0,0
-518,-76,0,0,0,0,0,0,0,0,0,-1,706,1100,0,0
-511,-76,0,0,0,0,0,0,0,0,0,-1,713,1100,0,0
-504,-76,0,0,0,0,0,0,0,0,0,-1,720,1100,0,0
-497,-76,0,0,0,0,0,0,0,0,0,-1,727,1100,0,0
-490,-76,0,0,0,0,0,0,0,0,0,-1,734,1100,0,0
-483,-76,0,0,0,0,0,0,0,0,0,-1,741,1100,0,0
-476,-76,0,0,0,0,0,0,0,0,0,-1,748,1100,0,0
-469,-76,0,0,0,0,0,0,0,0,0,-1,755,1100,0,0
-462,-76,0,0,0,0,0,0,0,0,0,-1,762,1100,0,0
-455,-76,0,0,0,0,0,0,0,0,0,-1,769,1100,0,0
-448,-76,0,0,0,0,0,0,0,0,0,-1,776,1100,0,0
-441,-76,0,0,0,0,0,0,0,0,0,-1,783,1100,0,0
-434,-76,0,0,0,0,0,0,0,0,0,-1,790,1100,0,0
-427,-76,0,0,0,0,0,0,0,0,0,-1,797,1100,0,0
-420,-76,0,0,0,0,0,0,0,0,0,-1,804,1100,0,0
-413,-76,0,0,0,0,0,0,0,0,0,-1,811,1100,0,0
-406,-76,0,0,0,0,0,0,0,0,0,-1,818,1100,0,0
-399,-76,0,0,0,0,0,0,0,0,0,-1,825,1100,0,0
-392,-76,0,0,0,0,0,0,0,0,0,-1,832,1100,0,0
-385,-76,0,0,0,0,0,0,0,0,0,-1,839,1100,0,0
-378,-76,0,0,0,0,0,0,0,0,0,-1,846,1100,0,0
-371,-76,0,0,0,0,0,0,0,0,0,-1,853,1100,0,0
-364,-76,0,0,0,0,0,0,0,0,0,-1,860,1100,0,0
-357,-76,0,0,0,0,0,0,0,0,0,-1,867,1100,0,0
-350,-76,0,0,0,0,0,0,0,0,0,-1,874,1100,0,0
-343,-76,0,0,0,0,0,0,0,0,0,-1,881,1100,0,0
-336,-76,0,0,0,0,0,0,0,0,0,-1,888,1100,0,0
-329,-76,0,0,0,0,0,0,0,0,0,-1,895,1100,0,0
-322,-76,0,0,0,0,0,0,0,0,0,-1,902,1100,0,0
-315,-76,0,0,0,0,0,0,0,0,0,-1,909,1100,0,0
-308,-76,0,0,0,0,0,0,0,0,0,-1,916,1100,0,0
-301,-76,0,0,0,0,0,0,0,0,0,-1,923,1100,0,0
-294,-76,0,0,0,0,0,0,0,0,0,-1,930,1100,0,0
-287,-76,0,0,0,0,0,0,0,0,0,-1,937,1100,0,0
-280,-76,0,0,0,0,0,0,0,0,0,-1,944,1100,0,0
-273,-76,0,0,0,0,0,0,0,0,0,-1,951,1100,0,0
-266,-76,0,0,0,0,0,0,0,0,0,-1,958,1100,0,0
-259,-76,0,0,0,0,0,0,0,0,0,-1,965,1100,0,0
-252,-76,0,0,0,0,0,0,0,0,0,-1,972,1100,0,0
-245,-76,0,0,0,0,0,0,0,0,0,-1,979,1100,0,0
-238,-76,0,0,0,0,0,0,0,0,0,-1,986,1100,0,0
-231,-76,0,0,0,0,0,0,0,0,0,-1,993,1100,0,0
-224,-76,0,0,0,0,0,0,0,0,0,-1,1000,1100,0,0
-217,-76,0,0,0,0,0,0,0,0,0,-1,1007,1100,0,0
-210,-76,0,0,0,0,0,0,0,0,0,-1,1014,1100,0,0
-203,-76,0,0,0,0,0,0,0,0,0,-1,1021,1100,0,0
-196,-76,0,0,0,0,0,0,0,0,0,-1,1028,1100,0,0
-189,-76,0,0,0,0,0,0,0,0,0,-1,1035,1100,0,0
-182,-76,0,0,0,0,0,0,0,0,0,-1,1042,1100,0,0
-175,-76,0,0,0,0,0,0,0,0,0,-1,1049,1100,0,0
-168,-76,0,0,0,0,0,0,0,0,0,-1,1056,1100,0,0
-161,-76,0,0,0,0,0,0,0,0,0,-1,1063,1100,0,0
-154,-76,0,0,0,0,0,0,0,0,0,-1,1070,1100,0,0
-147,-76,0,0,0,0,0,0,0,0,0,-1,1077,1100,0,0
-140,-76,0,0,0,0,0,0,0,0,0,-1,1084,1100,0,0
-133,-76,0,0,0,0,0,0,0,0,0,-1,1091,1100,0,0
-126,-76,0,0,0,0,0,0,0,0,0,-1,1098,1100,0,0
-119,-76,0,0,0,0,0,0,0,0,0,-1,1105,1100,0,0
-112,-76,0,0,0,0,0,0,0,0,0,-1,1112,1100,0,0
-105,-76,0,0,0,0,0,0,0,0,0,-1,1119,1100,0,0
-98,-76,0,0,0,0,0,0,0,0,0,-1,1126,1100,0,0
-91,-76,0,0,0,0,0,0,0,0,0,-1,1133,1100,0,0
-84,-76,0,0,0,0,0,0,0,0,0,-1,1140,1100,0,0
-77,-76,0,0,0,0,0,0,0,0,0,-1,1147,1100,0,0
-70,-76,0,0,0,0,0,0,0,0,0,-1,1154,1100,0,0
-63,-76,0,0,0,0,0,0,0,0,0,-1,1161,1100,0,0
-56,-76,0,0,0,0,0,0,0,0,0,-1,1168,1100,0,0
-49,-76,0,0,0,0,0,0,0,0,0,-1,1175,1100,0,0
-42,-76,0,0,0,0,0,0,0,0,0,-1,1182,1100,0,0
-35,-76,0,0,0,0,0,0,0,0,0,-1,1189,1100,0,0
-28,-76,0,0,0,0,0,0,0,0,0,-1,1196,1100,0,0
-21,-76,0,0,0,0,0,0,0,0,0,-1,1203,1100,0,0
-14,-76,0,0,0,0,0,0,0,0,0,-1,1210,1100,0,0
-7,-76,0,0,0,0,0,0,0,0,0,-1,1217,1100,0,0
0,-76,0,0,0,0,0,0,0,0,0,-1,1224,1100,0,0
7,-76,0,0,0,0,0,0,0,0,0,-1,1231,1100,0,0
14,-76,0,0,0,0,0,0,0,0,0,-1,1238,1100,0,0
21,-76,0,0,0,0,0,0,0,0,0,-1,1245,1100,0,0
28,-76,0,0,0,0,0,0,0,0,0,-1,1252,1100,0,0
35,-76,0,0,0,0,0,0,0,0,0,-1,1259,1100,0,0
42,-76,0,0,0,0,0,0,0,0,0,-1,1266,1100,0,0
49,-76,0,0,0,0,0,0,0,0,0,-1,1273,1100,0,0
56,-76,0,0,0,0,0,0,0,0,0,-1,1280,1100,0,0
63,-76,0,0,0,0,0,0,0,0,0,-1,1287,1100,0,0
70,-76,0,0,0,0,0,0,0,0,0,-1,1294,1100,0,0
77,-76,0,0,0,0,0,0,0,0,0,-1,1301,1100,0,0
84,-76,0,0,0,0,0,0,0,0,0,-1,1308,1100,0,0
91,-76,0,0,0,0,0,0,0,0,0,-1,1315,1100,0,0
98,-76,0,0,0,0,0,0,0,0,0,-1,1322,1100,0,0
105,-76,0,0,0,0,0,0,0,0,0,-1,1329,1100,0,0
112,-76,0,0,0,0,0,0,0,0,0,-1,1336,1100,0,0
119,-76,0,0,0,0,0,0,0,0,0,-1,1343,1100,0,0
126,-76,0,0,0,0,0,0,0,0,0,-1,1350,1100,0,0
133,-76,0,0,0,0,0,0,0,0,0,-1,1357,1100,0,0
140,-76,0,0,0,0,0,0,0,0,0,-1,1364,1100,0,0
147,-76,0,0,0,0,0,0,0,0,0,-1,1371,1100,0,0
154,-76,0,0,0,0,0,0,0,0,0,-1,1378,1100,0,0
161,-76,0,0,0,0,0,0,0,0,0,-1,1385,1100,0,0
168,-76,0,0,0,0,0,0,0,0,0,-1,1392,1100,0,0
175,-76,0,0,0,0,0,0,0,0,0,-1,1399,1100,0,0
182,-76,0,0,0,0,0,0,0,0,0,-1,1406,1100,0,0
189,-76,0,0,0,0,0,0,0,0,0,-1,1413,1100,0,0
196,-76,0,0,0,0,0,0,0,0,0,-1,1420,1100,0,0
203,-76,0,0,0,0,0,0,0,0,0,-1,1427,1100,0,0
210,-76,0,0,0,0,0,0,0,0,0,-1,1434,1100,0,0
217,-76,0,0,0,0,0,0,0,0,0,-1,1441,1100,0,0
224,-76,0,0,0,0,0,0,0,0,0,-1,1448,1100,0,0
231,-76,0,0,0,0,0,0,0,0,0,-1,1455,1100,0,0
238,-76,0,0,0,0,0,0,0,0,0,-1,1462,1100,0,0
245,-76,0,0,0,0,0,0,0,0,0,-1,1469,1100,0,0
252,-76,0,0,0,0,0,0,0,0,0,-1,1476,1100,0,0
259,-76,0,0,0,0,0,0,0,0,0,-1,1483,1100,0,0
266,-76,0,0,0,0,0,0,0,0,0,-1,1490,1100,0,0
273,-76,0,0,0,0,0,0,0,0,0,-1,1497,1100,0,0
280,-76,0,0,0,0,0,0,0,0,0,-1,1504,1100,0,0
287,-76,0,0,0,0,0,0,0,0,0,-1,1511,1100,0,0
294,-76,0,0,0,0,0,0,0,0,0,-1,1518,1100,0,0
301,-76,0,0,0,0,0,0,0,0,0,-1,1525,1100,0,0
308,-76,0,0,0,0,0,0,0,0,0,-1,1532,1100,0,0
315,-76,0,0,0,0,0,0,0,0,0,-1,1539,1100,0,0
322,-76,0,0,0,0,0,0,0,0,0,-1,1546,1100,0,0
329,-76,0,0,0,0,0,0,0,0,0,-1,1553,1100,0,0
336,-76,0,0,0,0,0,0,0,0,0,-1,1560,1100,0,0
343,-76,0,0,0,0,0,0,0,0,0,-1,1567,1100,0,0
350,-76,0,0,0,0,0,0,0,0,0,-1,1574,1100,0,0
357,-76,0,0,0,0,0,0,0,0,0,-1,1581,1100,0,0
364,-76,0,0,0,0,0,0,0,0,0,-1,1588,1100,0,0
371,-76,0,0,0,0,0,0,0,0,0,-1,1595,1100,0,0
378,-76,0,0,0,0,0,0,0,0,0,-1,1602,1100,0,0
385,-76,0,0,0,0,0,0,0,0,0,-1,1609,1100,0,0
392,-76,0,0,0,0,0,0,0,0,0,-1,1616,1100,0,0
399,-76,0,0,0,0,0,0,0,0,0,-1,1623,1100,0,0
406,-76,0,0,0,0,0,0,0,0,0,-1,1630,1100,0,0
413,-76,0,0,0,0,0,0,0,0,0,-1,1637,1100,0,0
420,-76,0,0,0,0,0,0,0,0,0,-1,1644,1100,0,0
427,-76,0,0,0,0,0,0,0,0,0,-1,1651,1100,0,0
434,-76,0,0,0,0,0,0,0,0,0,-1,1658,1100,0,0
441,-76,0,0,0,0,0,0,0,0,0,-1,1665,1100,0,0
448,-76,0,0,0,0,0,0,0,0,0,-1,1672,1100,0,0
455,-76,0,0,0,0,0,0,0,0,0,-1,1679,1100,0,0
462,-76,0,0,0,0,0,0,0,0,0,-1,1686,1100,0,0
469,-76,0,0,0,0,0,0,0,0,0,-1,1693,1100,0,0
476,-76,0,0,0,0,0,0,0,0,0,-1,1700,1100,0,0
483,-76,0,0,0,0,0,0,0,0,0,-1,1707,1100,0,0
490,-76,0,0,0,0,0,0,0,0,0,-1,1714,1100,0,0
497,-76,0,0,0,0,0,0,0,0,0,-1,1721,1100,0,0
504,-76,0,0,0,0,0,0,0,0,0,-1,1728,1100,0,0
511,-76,0,0,0,0,0,0,0,0,0,-1,1735,1100,0,0
518,-76,0,0,0,0,0,0,0,0,0,-1,1742,1100,0,0
525,-76,0,0,0,0,0,0,0,0,0,-1,1749,1100,0,0
532,-76,0,0,0,0,0,0,0,0,0,-1,1756,1100,0,0
539,-76,0,0,0,0,0,0,0,0,0,-1,1763,1100,0,0
546,-76,0,0,0,0,0,0,0,0,0,-1,1770,1100,0,0
553,-76,0,0,0,0,0,0,0,0,0,-1,1777,1100,0,0
560,-76,0,0,0,0,0,0,0,0,0,-1,1784,1100,0,0
567,-76,0,0,0,0,0,0,0,0,0,-1,1791,1100,0,0
574,-76,0,0,0,0,0,0,0,0,0,-1,1798,1100,0,0
581,-76,0,0,0,0,0,0,0,0,0,-1,1805,1100,0,0
588,-76,0,0,0,0,0,0,0,0,0,-1,1812,1100,0,0
595,-76,0,0,0,0,0,0,0,0,0,-1,1819,1100,0,0
602,-76,0,0,0,0,0,0,0,0,0,-1,1826,1100,0,0
609,-76,0,0,0,0,0,0,0,0,0,-1,1833,1100,0,0
616,-76,0,0,0,0,0,0,0,0,0,-1,1840,1100,0,0
623,-76,0,0,0,0,0,0,0,0,0,-1,1847,1100,0,0
630,-76,0,0,0,0,0,0,0,0,0,-1,1854,1100,0,0
637,-76,0,0,0,0,0,0,0,0,0,-1,1861,1100,0,0
644,-76,0,0,0,0,0,0,0,0,0,-1,1868,1100,0,0
651,-76,7.26086,1.06848,0.000378014,-0.000494901,0.000989726,0.00102325,-0.00114013,0.577731,0.00124964,0.0394598,1875,1100,7.26084,-1.06851
658,-76,7.22974,1.17297,5.97028e-05,-0.000146854,0.000489047,0.000456257,-0.000543409,0.681336,0.000577888,0.0432843,1882,1100,7.22969,-1.17293
665,-76,7.0946,1.17053,-8.92528e-05,-2.69135e-05,0.000216363,0.000160514,-0.00027668,0.856937,0.000255367,0.039085,1889,1100,7.09466,-1.17051
672,-76,7.15332,1.13574,-0.00035707,-0.000123245,0.000325566,0.000105764,-0.00058608,0.95778,0.000430329,0.0354106,1896,1100,7.15334,-1.13578
679,-76,7.25305,0.85791,-0.000660219,-0.000309613,0.000611598,0.000151309,-0.00112114,0.924972,0.000802633,0.0360386,1903,1100,7.253,-0.857949
686,-76,7.16443,0.888428,-0.000899718,-0.000504954,0.000942654,0.00026076,-0.00166543,0.888602,0.00120664,0.0350335,1910,1100,7.16446,-0.888388
693,-76,7.12366,0.972046,-0.00110872,-0.000674384,0.00128856,0.000415175,-0.00219828,0.868882,0.00162172,0.0372217,1917,1100,7.12369,-0.972106
700,-76,7.15393,0.954712,-0.00134194,-0.000706984,0.00156364,0.000571086,-0.00262001,0.885556,0.0019649,0.0317897,1924,1100,7.15391,-0.954758
707,-76,7.17664,0.975464,-0.00149171,-0.000800538,0.00180747,0.000694089,-0.00298634,0.879858,0.0022581,0.0208801,1931,1100,7.17665,-0.975455
714,-76,7.18823,1.00208,-0.00148537,-0.000858313,0.00194535,0.000798609,-0.00314229,0.865295,0.00240566,0.023613,1938,1100,7.18826,-1.00209
721,-76,7.11279,1.1521,-0.00141655,-0.000840049,0.00191928,0.000812511,-0.00306911,0.859934,0.00236392,0.0219411,1945,1100,7.11278,-1.15214
728,-76,7.05029,1.25061,-0.0014492,-0.000773079,0.00193286,0.000851059,-0.00307334,0.871974,0.00238377,0.0185383,1952,1100,7.0503,-1.25061
735,-76,7.02954,1.20569,-0.00177424,-0.000614466,0.00184955,0.000743971,-0.00313267,0.937309,0.00237559,0.0163427,1959,1100,7.02959,-1.20572
742,-76,7.07214,1.21729,-0.00250345,-0.000470409,0.00101591,-4.9785e-05,-0.00292407,1.17825,0.001933,0.011809,1966,1100,7.07209,-1.21725
749,-76,7.05176,1.22253,-0.00238232,-0.000316639,-9.54141e-05,-0.000312241,-0.00238672,-1.52474,0.00149795,0.0137708,1973,1100,7.05172,-1.22251
756,-76,7.05322,1.22998,-0.00104871,-0.000303408,-0.00171401,0.00107799,-0.00243012,-0.89244,0.00207495,0.014181,1980,1100,7.0532,-1.22999
763,-76,7.06104,1.19055,0.00139648,-0.000109929,-0.00399391,0.00470759,-0.00342104,-0.692199,0.00471262,0.0127559,1987,1100,7.06107,-1.1906
770,-76,7.0592,1.17603,0.00376839,9.02208e-09,-0.00656724,0.00871639,-0.00494799,-0.645697,0.00798851,0.0124399,1994,1100,7.05917,-1.17597
777,-76,7.05493,1.17065,0.00739811,8.86234e-05,-0.00975003,0.0141559,-0.00666914,-0.606081,0.0122796,0.0166191,2001,1100,7.05495,-1.17063
784,-76,7.05457,1.14368,0.012798,0.000173657,-0.0136387,0.0215144,-0.00854275,-0.568669,0.0178841,0.0295568,2008,1100,7.05462,-1.1437
791,-76,6.34839,0.985962,0.0207159,0.000336617,-0.0184621,0.0316137,-0.0105612,-0.53324,0.0253407,0.0404926,2015,1100,6.34842,-0.985995
798,-76,5.76306,0.406982,0.0319814,0.000650764,-0.0243209,0.0452455,-0.0126133,-0.499287,0.0351312,0.0419335,2022,1100,5.76303,-0.406977
805,-76,5.66858,0.351318,0.047567,0.00121922,-0.0312785,0.0633209,-0.0145347,-0.466576,0.0478012,0.0419259,2029,1100,5.66857,-0.351309
812,-76,6.59619,-1.18677,0.0690545,0.00221616,-0.0394324,0.0873244,-0.0160537,-0.433876,0.0642396,0.0454579,2036,1100,6.59623,1.18677
-700,-83,0,0,0,0,0,0,0,0,0,-1,524,1107,0,0
-693,-83,-7.40521,-0.277466,0,0,0,0,0,0,0,-1,531,1107,-7.4052,0.277491
-686,-83,-4.59418,1.07825,0,0,0,0,0,0,0,-1,538,1107,-4.59417,-1.07823
-679,-83,-3.6593,1.43909,0,0,0,0,0,0,0,-1,545,1107,-3.65928,-1.43914
-672,-83,-2.76239,1.8634,0.0122435,0.000691195,0.0151904,0.0227189,-0.00978419,0.603715,0.0192546,0.0465774,552,1107,-2.76241,-1.86334
-665,-83,-1.82922,2.31189,0.0155714,3.37379e-05,0.00851274,0.0193274,-0.00372226,0.415529,0.0142882,0.0456072,559,1107,-1.82924,-2.31184
-658,-83,-0.889771,2.75269,0,0,0,0,0,0,0,-1,566,1107,-0.889751,-2.75274
-651,-83,-2.65613,0.582764,0.0132518,0.000465371,0.00108367,0.013343,0.000374179,0.0839536,0.00877323,0.0295804,573,1107,-2.65616,-0.582825
-644,-83,-2.58771,0.734253,0.010368,0.000804477,-0.000444013,0.0103885,0.000783907,-0.0462952,0.00667974,0.0146677,580,1107,-2.58773,-0.734196
-637,-83,-2.58441,0.78772,0.00883312,0.000260282,-0.00171433,0.00916323,-6.98245e-05,-0.190229,0.00613223,0.0112154,587,1107,-2.58443,-0.787692
-630,-83,-2.61713,0.792847,0.00666264,7.68853e-05,-0.00216023,0.00730799,-0.000568465,-0.290302,0.00507211,0.0158627,594,1107,-2.61712,-0.792797
-623,-83,-2.6048,0.811646,0.00374397,0.00035067,-0.00197328,0.00464971,-0.000555071,-0.430316,0.00330043,0.0146941,601,1107,-2.60482,-0.81165
-616,-83,-2.61975,0.837524,0.000457979,0.00125282,-0.00240476,0.00329278,-0.00158198,-0.86729,0.00287164,0.0110145,608,1107,-2.61974,-0.837508
-609,-83,-2.6463,0.873657,-0.000736511,0.00145138,-0.001995,0.00263267,-0.00191781,-1.03618,0.00263801,0.0108726,615,1107,-2.64629,-0.87366
-602,-83,-2.62927,0.908325,-0.000702051,-0.000275957,-0.00160139,0.0011265,-0.0021045,-0.851529,0.00189369,0.0123542,622,1107,-2.62929,-0.908367
-595,-83,-2.60522,0.916748,-0.000807945,-0.000561492,-0.00184614,0.00116553,-0.00253497,-0.818723,0.0021847,0.015091,629,1107,-2.6052,-0.916689
-588,-83,-2.6203,0.859375,-0.000810465,-0.000753011,-0.00206362,0.00128208,-0.00284555,-0.792358,0.00243941,0.0209213,636,1107,-2.62029,-0.859379
-581,-83,-2.67981,0.773804,-0.000748005,-0.000772464,-0.00206462,0.00130442,-0.00282489,-0.782437,0.00243733,0.0263554,643,1107,-2.67984,-0.773814
-574,-83,-2.71326,0.698975,-0.000762226,-0.000929324,-0.00191475,0.0010708,-0.00276235,-0.763595,0.00228377,0.0349077,650,1107,-2.71329,-0.699033
-567,-83,-2.68549,0.819214,-0.000663839,-0.00103425,-0.00159084,0.000752538,-0.00245063,-0.727449,0.00193403,0.0407319,657,1107,-2.68551,-0.819274
-560,-83,-2.60071,0.811035,-0.00051638,-0.00111062,-0.000978393,0.000209011,-0.00183602,-0.637981,0.0012993,0.0421164,664,1107,-2.60074,-0.811007
-553,-83,-2.62817,0.75,-0.000354228,-0.00114411,-2.5642e-05,-0.000353396,-0.00114494,-0.0324178,0.000676972,0.0423088,671,1107,-2.62819,-0.750058
-546,-83,-2.62665,0.81311,-0.00022465,-0.00111474,0.00133587,0.000738362,-0.00207775,0.624606,0.00168607,0.0394124,678,1107,-2.62666,-0.813069
-539,-83,-2.65479,0.767944,-0.000179792,-0.000992907,0.00313052,0.00257046,-0.00374316,0.720825,0.00366607,0.0409666,685,1107,-2.65477,-0.767891
-532,-83,-2.6156,0.717529,-0.000489473,-0.000796283,0.00515993,0.00451933,-0.00580509,0.770538,0.0059762,0.0426676,692,1107,-2.61562,-0.717564
-525,-83,0,0,0,0,0,0,0,0,0,-1,699,1107,0,0
-518,-83,0,0,0,0,0,0,0,0,0,-1,706,1107,0,0
-511,-83,0,0,0,0,0,0,0,0,0,-1,713,1107,0,0
-504,-83,0,0,0,0,0,0,0,0,0,-1,720,1107,0,0
-497,-83,0,0,0,0,0,0,0,0,0,-1,727,1107,0,0
-490,-83,0,0,0,0,0,0,0,0,0,-1,734,1107,0,0
-483,-83,0,0,0,0,0,0,0,0,0,-1,741,1107,0,0
-476,-83,0,0,0,0,0,0,0,0,0,-1,748,1107,0,0
-469,-83,0,0,0,0,0,0,0,0,0,-1,755,1107,0,0
-462,-83,0,0,0,0,0,0,0,0,0,-1,762,1107,0,0
-455,-83,0,0,0,0,0,0,0,0,0,-1,769,1107,0,0
-448,-83,0,0,0,0,0,0,0,0,0,-1,776,1107,0,0
-441,-83,0,0,0,0,0,0,0,0,0,-1,783,1107,0,0
-434,-83,0,0,0,0,0,0,0,0,0,-1,790,1107,0,0
-427,-83,0,0,0,0,0,0,0,0,0,-1,797,1107,0,0
-420,-83,0,0,0,0,0,0,0,0,0,-1,804,1107,0,0
-413,-83,0,0,0,0,0,0,0,0,0,-1,811,1107,0,0
-406,-83,0,0,0,0,0,0,0,0,0,-1,818,1107,0,0
-399,-83,0,0,0,0,0,0,0,0,0,-1,825,1107,0,0
-392,-83,0,0,0,0,0,0,0,0,0,-1,832,1107,0,0
-385,-83,0,0,0,0,0,0,0,0,0,-1,839,1107,0,0
-378,-83,0,0,0,0,0,0,0,0,0,-1,846,1107,0,0
-371,-83,0,0,0,0,0,0,0,0,0,-1,853,1107,0,0
-364,-83,0,0,0,0,0,0,0,0,0,-1,860,1107,0,0
-357,-83,0,0,0,0,0,0,0,0,0,-1,867,1107,0,0
-350,-83,0,0,0,0,0,0,0,0,0,-1,874,1107,0,0
-343,-83,0,0,0,0,0,0,0,0,0,-1,881,1107,0,0
-336,-83,0,0,0,0,0,0,0,0,0,-1,888,1107,0,0
-329,-83,0,0,0,0,0,0,0,0,0,-1,895,1107,0,0
-322,-83,0,0,0,0,0,0,0,0,0,-1,902,1107,0,0
-315,-83,0,0,0,0,0,0,0,0,0,-1,909,1107,0,0
-308,-83,0,0,0,0,0,0,0,0,0,-1,916,1107,0,0
-301,-83,0,0,0,0,0,0,0,0,0,-1,923,1107,0,0
-294,-83,0,0,0,0,0,0,0,0,0,-1,930,1107,0,0
-287,-83,0,0,0,0,0,0,0,0,0,-1,937,1107,0,0
-280,-83,0,0,0,0,0,0,0,0,0,-1,944,1107,0,0
-273,-83,0,0,0,0,0,0,0,0,0,-1,951,1107,0,0
-266,-83,0,0,0,0,0,0,0,0,0,-1,958,1107,0,0
-259,-83,0,0,0,0,0,0,0,0,0,-1,965,1107,0,0
-252,-83,0,0,0,0,0,0,0,0,0,-1,972,1107,0,0
-245,-83,0,0,0,0,0,0,0,0,0,-1,979,1107,0,0
-238,-83,0,0,0,0,0,0,0,0,0,-1,986,1107,0,0
-231,-83,0,0,0,0,0,0,0,0,0,-1,993,1107,0,0
-224,-83,0,0,0,0,0,0,0,0,0,-1,1000,1107,0,0
-217,-83,0,0,0,0,0,0,0,0,0,-1,1007,1107,0,0
-210,-83,0,0,0,0,0,0,0,0,0,-1,1014,1107,0,0
-203,-83,0,0,0,0,0,0,0,0,0,-1,1021,1107,0,0
-196,-83,0,0,0,0,0,0,0,0,0,-1,1028,1107,0,0
-189,-83,0,0,0,0,0,0,0,0,0,-1,1035,1107,0,0
-182,-83,0,0,0,0,0,0,0,0,0,-1,1042,1107,0,0
-175,-83,0,0,0,0,0,0,0,0,0,-1,1049,1107,0,0
-168,-83,0,0,0,0,0,0,0,0,0,-1,1056,1107,0,0
-161,-83,0,0,0,0,0,0,0,0,0,-1,1063,1107,0,0
-154,-83,0,0,0,0,0,0,0,0,0,-1,1070,1107,0,0
-147,-83,0,0,0,0,0,0,0,0,0,-1,1077,1107,0,0
-140,-83,0,0,0,0,0,0,0,0,0,-1,1084,1107,0,0
-133,-83,0,0,0,0,0,0,0,0,0,-1,1091,1107,0,0
-126,-83,0,0,0,0,0,0,0,0,0,-1,1098,1107,0,0
-119,-83,0,0,0,0,0,0,0,0,0,-1,1105,1107,0,0
-112,-83,0,0,0,0,0,0,0,0,0,-1,1112,1107,0,0
-105,-83,0,0,0,0,0,0,0,0,0,-1,1119,1107,0,0
-98,-83,0,0,0,0,0,0,0,0,0,-1,1126,1107,0,0
-91,-83,0,0,0,0,0,0,0,0,0,-1,1133,1107,0,0
-84,-83,0,0,0,0,0,0,0,0,0,-1,1140,1107,0,0
-77,-83,0,0,0,0,0,0,0,0,0,-1,1147,1107,0,0
-70,-83,0,0,0,0,0,0,0,0,0,-1,1154,1107,0,0
-63,-83,0,0,0,0,0,0,0,0,0,-1,1161,1107,0,0
-56,-83,0,0,0,0,0,0,0,0,0,-1,1168,1107,0,0
-49,-83,0,0,0,0,0,0,0,0,0,-1,1175,1107,0,0
-42,-83,0,0,0,0,0,0,0,0,0,-1,1182,1107,0,0
-35,-83,0,0,0,0,0,0,0,0,0,-1,1189,1107,0,0
-28,-83,0,0,0,0,0,0,0,0,0,-1,1196,1107,0,0
-21,-83,0,0,0,0,0,0,0,0,0,-1,1203,1107,0,0
-14,-83,0,0,0,0,0,0,0,0,0,-1,1210,1107,0,0
-7,-83,0,0,0,0,0,0,0,0,0,-1,1217,1107,0,0
0,-83,0,0,0,0,0,0,0,0,0,-1,1224,1107,0,0
7,-83,0,0,0,0,0,0,0,0,0,-1,1231,1107,0,0
14,-83,0,0,0,0,0,0,0,0,0,-1,1238,1107,0,0
21,-83,0,0,0,0,0,0,0,0,0,-1,1245,1107,0,0
28,-83,0,0,0,0,0,0,0,0,0,-1,1252,1107,0,0
35,-83,0,0,0,0,0,0,0,0,0,-1,1259,1107,0,0
42,-83,0,0,0,0,0,0,0,0,0,-1,1266,1107,0,0
49,-83,0,0,0,0,0,0,0,0,0,-1,1273,1107,0,0
56,-83,0,0,0,0,0,0,0,0,0,-1,1280,1107,0,0
63,-83,0,0,0,0,0,0,0,0,0,-1,1287,1107,0,0
70,-83,0,0,0,0,0,0,0,0,0,-1,1294,1107,0,0
77,-83,0,0,0,0,0,0,0,0,0,-1,1301,1107,0,0
84,-83,0,0,0,0,0,0,0,0,0,-1,1308,1107,0,0
91,-83,0,0,0,0,0,0,0,0,0,-1,1315,1107,0,0
98,-83,0,0,0,0,0,0,0,0,0,-1,1322,1107,0,0
105,-83,0,0,0,0,0,0,0,0,0,-1,1329,1107,0,0
112,-83,0,0,0,0,0,0,0,0,0,-1,1336,1107,0,0
119,-83,0,0,0,0,0,0,0,0,0,-1,1343,1107,0,0
126,-83,0,0,0,0,0,0,0,0,0,-1,1350,1107,0,0
133,-83,0,0,0,0,0,0,0,0,0,-1,1357,1107,0,0
140,-83,0,0,0,0,0,0,0,0,0,-1,1364,1107,0,0
147,-83,0,0,0,0,0,0,0,0,0,-1,1371,1107,0,0
154,-83,0,0,0,0,0,0,0,0,0,-1,1378,1107,0,0
161,-83,0,0,0,0,0,0,0,0,0,-1,1385,1107,0,0
168,-83,0,0,0,0,0,0,0,0,0,-1,1392,1107,0,0
175,-83,0,0,0,0,0,0,0,0,0,-1,1399,1107,0,0
182,-83,0,0,0,0,0,0,0,0,0,-1,1406,1107,0,0
189,-83,0,0,0,0,0,0,0,0,0,-1,1413,1107,0,0
196,-83,0,0,0,0,0,0,0,0,0,-1,1420,1107,0,0
203,-83,0,0,0,0,0,0,0,0,0,-1,1427,1107,0,0
210,-83,0,0,0,0,0,0,0,0,0,-1,1434,1107,0,0
217,-83,0,0,0,0,0,0,0,0,0,-1,1441,1107,0,0
224,-83,0,0,0,0,0,0,0,0,0,-1,1448,1107,0,0
231,-83,0,0,0,0,0,0,0,0,0,-1,1455,1107,0,0
238,-83,0,0,0,0,0,0,0,0,0,-1,1462,1107,0,0
245,-83,0,0,0,0,0,0,0,0,0,-1,1469,1107,0,0
252,-83,0,0,0,0,0,0,0,0,0,-1,1476,1107,0,0
259,-83,0,0,0,0,0,0,0,0,0,-1,1483,1107,0,0
266,-83,0,0,0,0,0,0,0,0,0,-1,1490,1107,0,0
273,-83,0,0,0,0,0,0,0,0,0,-1,1497,1107,0,0
280,-83,0,0,0,0,0,0,0,0,0,-1,1504,1107,0,0
287,-83,0,0,0,0,0,0,0,0,0,-1,1511,1107,0,0
294,-83,0,0,0,0,0,0,0,0,0,-1,1518,1107,0,0
301,-83,0,0,0,0,0,0,0,0,0,-1,1525,1107,0,0
308,-83,0,0,0,0,0,0,0,0,0,-1,1532,1107,0,0
315,-83,0,0,0,0,0,0,0,0,0,-1,1539,1107,0,0
322,-83,0,0,0,0,0,0,0,0,0,-1,1546,1107,0,0
329,-83,0,0,0,0,0,0,0,0,0,-1,1553,1107,0,0
336,-83,0,0,0,0,0,0,0,0,0,-1,1560,1107,0,0
343,-83,0,0,0,0,0,0,0,0,0,-1,1567,1107,0,0
350,-83,0,0,0,0,0,0,0,0,0,-1,1574,1107,0,0
357,-83,0,0,0,0,0,0,0,0,0,-1,1581,1107,0,0
364,-83,0,0,0,0,0,0,0,0,0,-1,1588,1107,0,0
371,-83,0,0,0,0,0,0,0,0,0,-1,1595,1107,0,0
378,-83,0,0,0,0,0,0,0,0,0,-1,1602,1107,0,0
385,-83,0,0,0,0,0,0,0,0,0,-1,1609,1107,0,0
392,-83,0,0,0,0,0,0,0,0,0,-1,1616,1107,0,0
399,-83,0,0,0,0,0,0,0,0,0,-1,1623,1107,0,0
406,-83,0,0,0,0,0,0,0,0,0,-1,1630,1107,0,0
413,-83,0,0,0,0,0,0,0,0,0,-1,1637,1107,0,0
420,-83,0,0,0,0,0,0,0,0,0,-1,1644,1107,0,0
427,-83,0,0,0,0,0,0,0,0,0,-1,1651,1107,0,0
434,-83,0,0,0,0,0,0,0,0,0,-1,1658,1107,0,0
441,-83,0,0,0,0,0,0,0,0,0,-1,1665,1107,0,0
448,-83,0,0,0,0,0,0,0,0,0,-1,1672,1107,0,0
455,-83,0,0,0,0,0,0,0,0,0,-1,1679,1107,0,0
462,-83,0,0,0,0,0,0,0,0,0,-1,1686,1107,0,0
469,-83,0,0,0,0,0,0,0,0,0,-1,1693,1107,0,0
476,-83,0,0,0,0,0,0,0,0,0,-1,1700,1107,0,0
483,-83,0,0,0,0,0,0,0,0,0,-1,1707,1107,0,0
490,-83,0,0,0,0,0,0,0,0,0,-1,1714,1107,0,0
497,-83,0,0,0,0,0,0,0,0,0,-1,1721,1107,0,0
504,-83,0,0,0,0,0,0,0,0,0,-1,1728,1107,0,0
511,-83,0,0,0,0,0,0,0,0,0,-1,1735,1107,0,0
518,-83,0,0,0,0,0,0,0,0,0,-1,1742,1107,0,0
525,-83,0,0,0,0,0,0,0,0,0,-1,1749,1107,0,0
532,-83,0,0,0,0,0,0,0,0,0,-1,1756,1107,0,0
539,-83,0,0,0,0,0,0,0,0,0,-1,1763,1107,0,0
546,-83,0,0,0,0,0,0,0,0,0,-1,1770,1107,0,0
553,-83,0,0,0,0,0,0,0,0,0,-1,1777,1107,0,0
560,-83,0,0,0,0,0,0,0,0,0,-1,1784,1107,0,0
567,-83,0,0,0,0,0,0,0,0,0,-1,1791,1107,0,0
574,-83,0,0,0,0,0,0,0,0,0,-1,1798,1107,0,0
581,-83,0,0,0,0,0,0,0,0,0,-1,1805,1107,0,0
588,-83,0,0,0,0,0,0,0,0,0,-1,1812,1107,0,0
595,-83,0,0,0,0,0,0,0,0,0,-1,1819,1107,0,0
602,-83,0,0,0,0,0,0,0,0,0,-1,1826,1107,0,0
609,-83,0,0,0,0,0,0,0,0,0,-1,1833,1107,0,0
616,-83,0,0,0,0,0,0,0,0,0,-1,1840,1107,0,0
623,-83,0,0,0,0,0,0,0,0,0,-1,1847,1107,0,0
630,-83,0,0,0,0,0,0,0,0,0,-1,1854,1107,0,0
637,-83,0,0,0,0,0,0,0,0,0,-1,1861,1107,0,0
644,-83,7.30737,0.765015,0.0019155,-0.00186497,0.00141828,0.00238842,-0.00233789,0.321854,0.00272879,0.0367567,1868,1107,7.30735,-0.764995
651,-83,7.28918,0.847046,0.00110483,-0.000930957,0.000863684,0.00142187,-0.001248,0.351812,0.00154254,0.0411945,1875,1107,7.28915,-0.847019
658,-83,7.14783,0.505615,0.000700399,-0.000487396,0.000425626,0.000837167,-0.000624164,0.310912,0.000846682,0.0455711,1882,1107,7.14787,-0.505573
665,-83,7.01685,0.756714,0.000400314,-0.00030343,0.000204479,0.000455414,-0.000358529,0.26321,0.000471038,0.0398644,1889,1107,7.01687,-0.756714
672,-83,7.08704,1.08875,-2.82491e-05,-0.000367402,0.000349789,0.000190901,-0.000586552,0.559693,0.000467836,0.0370711,1896,1107,7.08702,-1.08876
679,-83,7.25256,0.94812,-0.000466855,-0.000531111,0.000638577,0.000140402,-0.00113837,0.760264,0.00080978,0.0380377,1903,1107,7.25261,-0.948156
686,-83,7.16833,1.00488,-0.000817481,-0.000715608,0.000961583,0.000196386,-0.00172948,0.811859,0.00122371,0.035775,1910,1107,7.16829,-1.00493
693,-83,7.13989,0.987915,-0.00111758,-0.000878343,0.00129475,0.000302304,-0.00229822,0.831461,0.00164222,0.0358583,1917,1107,7.1399,-0.987948
700,-83,7.16541,0.952759,-0.00141575,-0.000901796,0.00155385,0.000416181,-0.00273373,0.867347,0.00197588,0.0308135,1924,1107,7.16541,-0.952719
707,-83,7.18542,0.974243,-0.00160588,-0.000978955,0.00178855,0.0005234,-0.00310823,0.872147,0.00226685,0.0192723,1931,1107,7.18541,-0.974195
714,-83,7.18994,1.05896,-0.00164352,-0.00102361,0.00192018,0.000611465,-0.0032786,0.865418,0.00241549,0.0237559,1938,1107,7.1899,-1.05896
721,-83,7.08362,1.25879,-0.00160154,-0.000993491,0.00188638,0.000613204,-0.00320823,0.865295,0.00236982,0.0181079,1945,1107,7.08368,-1.2588
728,-83,7.02246,1.26013,-0.00161666,-0.000908084,0.00189607,0.000666519,-0.00319126,0.877759,0.00238098,0.0182893,1952,1107,7.02246,-1.26013
735,-83,7.03003,1.19385,-0.0019438,-0.000741064,0.00182963,0.000583493,-0.00326835,0.944178,0.00239719,0.0182079,1959,1107,7.02998,-1.19385
742,-83,7.07043,1.20166,-0.00273647,-0.000588416,0.00101021,-0.000187973,-0.00313692,1.1934,0.00203152,0.011009,1966,1107,7.07038,-1.20168
749,-83,7.04663,1.21887,-0.00259757,-0.000414241,-4.5861e-05,-0.000413278,-0.00259853,-1.5498,0.00161235,0.010928,1973,1107,7.04665,-1.21881
756,-83,7.05615,1.2207,-0.00118497,-0.000386647,-0.00156605,0.000830312,-0.00240193,-0.910183,0.00193827,0.0132587,1980,1107,7.0562,-1.22065
763,-83,7.05432,1.1875,0.001288,-0.000205414,-0.00376366,0.00437831,-0.00329572,-0.68747,0.00444528,0.0108413,1987,1107,7.05429,-1.18746
770,-83,7.04822,1.16992,0.00370293,-0.000108443,-0.00623299,0.00831504,-0.00472056,-0.63704,0.00762089,0.0131496,1994,1107,7.04824,-1.16991
777,-83,7.05737,1.18555,0.00739345,-5.69317e-05,-0.00925685,0.0136466,-0.00631004,-0.5941,0.0117786,0.0145154,2001,1107,7.05743,-1.18552
784,-83,7.02612,1.17212,0.0129077,-1.58822e-05,-0.012949,0.0209176,-0.00802582,-0.553967,0.0172542,0.0239599,2008,1107,7.02608,-1.17217
791,-83,6.97876,1.10107,0.021018,9.29049e-05,-0.0175286,0.0309691,-0.00985821,-0.516336,0.0245996,0.043418,2015,1107,6.97875,-1.10105
798,-83,5.51123,0.0286865,0.0325679,0.00033425,-0.0230735,0.044596,-0.0116939,-0.480539,0.0342996,0.0467236,2022,1107,5.51128,-0.0286924
805,-83,6.31433,0.676025,0.0485539,0.000810143,-0.0296296,0.0627317,-0.0133677,-0.446302,0.0469161,0.0458546,2029,1107,6.31428,-0.67605
812,-83,6.91382,-0.192505,0.0706166,0.00168928,-0.0372689,0.0869143,-0.0146084,-0.412243,0.0633761,0.0475072,2036,1107,6.91383,0.192538
-700,-90,0,0,0,0,0,0,0,0,0,-1,524,1114,0,0
-693,-90,-0.217346,1.4834,0,0,0,0,0,0,0,-1,531,1114,-0.217341,-1.4834
-686,-90,-1.72516,2.19067,0,0,0,0,0,0,0,-1,538,1114,-1.72517,-2.19068
-679,-90,-3.09125,1.78467,0,0,0,0,0,0,0,-1,545,1114,-3.09124,-1.78461
-672,-90,-2.22382,2.2533,0.0105921,0.00920452,0.0178592,0.0277709,-0.00797435,0.765985,0.0216669,0.0479539,552,1114,-2.22382,-2.25326
-665,-90,-1.31891,2.76501,0.0145871,0.00701818,0.0105259,0.0219882,-0.000382925,0.612825,0.0147881,0.0495405,559,1114,-1.31892,-2.76497
-658,-90,-0.545044,3.21753,0,0,0,0,0,0,0,-1,566,1114,-0.54506,-3.21752
-651,-90,-2.61639,0.585327,0.0132626,0.00458536,0.00178869,0.0136168,0.00423111,0.19552,0.00804726,0.0290419,573,1114,-2.61641,-0.585301
-644,-90,-2.58899,0.720215,0.0105715,0.00380484,-0.000180258,0.0105763,0.00380004,-0.0266139,0.00618631,0.0135399,580,1114,-2.58899,-0.72017
-637,-90,-2.56915,0.776489,0.00932243,0.00216799,-0.00187065,0.00978202,0.0017084,-0.240914,0.00603306,0.0113197,587,1114,-2.56914,-0.776537
-630,-90,-2.57477,0.807251,0.00719384,0.00115822,-0.00253555,0.00811763,0.000234431,-0.349387,0.00533533,0.0110976,594,1114,-2.57474,-0.807243
-623,-90,-2.58282,0.828735,0.0039898,0.00110796,-0.00226168,0.00523057,-0.000132805,-0.501771,0.00353214,0.00892869,601,1114,-2.58284,-0.828717
-616,-90,-2.586,0.857788,0.000379683,0.0019151,-0.00269446,0.00394909,-0.0016543,-0.924181,0.00332432,0.00714611,608,1114,-2.58599,-0.85773
-609,-90,-2.58624,0.878296,-0.000883222,0.0018509,-0.00220178,0.0030755,-0.00210782,-1.06322,0.00300993,0.00959191,615,1114,-2.58625,-0.878266
-602,-90,-2.5871,0.903687,-0.000906326,-0.000313244,-0.00170315,0.00111899,-0.00233856,-0.871591,0.00203719,0.0097429,622,1114,-2.5871,-0.90371
-595,-90,-2.56964,0.926636,-0.00103077,-0.00061264,-0.00189116,0.00108098,-0.00272438,-0.840449,0.00226429,0.0124247,629,1114,-2.56963,-0.92669
-588,-90,-2.59222,0.903198,-0.00101214,-0.000813134,-0.00212894,0.00121863,-0.0030439,-0.80875,0.00253507,0.0179338,636,1114,-2.59225,-0.903215
-581,-90,-2.67529,0.840698,-0.000942081,-0.000859925,-0.00215627,0.00125566,-0.00305767,-0.794922,0.00256172,0.0245908,643,1114,-2.67529,-0.840742
-574,-90,-2.71967,0.829346,-0.000954912,-0.00101955,-0.00200835,0.00102138,-0.00299584,-0.777353,0.00241092,0.0329129,650,1114,-2.71969,-0.8293
-567,-90,-2.76227,0.86853,-0.000814485,-0.00114282,-0.00170398,0.000733216,-0.00269052,-0.737375,0.00208159,0.0362067,657,1114,-2.76224,-0.868503
-560,-90,-2.57819,0.802979,-0.000604226,-0.00124366,-0.0011205,0.000241274,-0.00208916,-0.646424,0.00147977,0.0387215,664,1114,-2.57818,-0.802971
-553,-90,-2.55237,0.793945,-0.000354702,-0.001312,-0.000211254,-0.000310156,-0.00135655,-0.20782,0.000820754,0.0401044,671,1114,-2.55234,-0.793994
-546,-90,-2.64288,0.955933,-0.000115603,-0.00133606,0.00108296,0.000517226,-0.00196889,0.528832,0.00151473,0.0414373,678,1114,-2.64289,-0.955918
-539,-90,-2.72113,0.819824,5.65129e-05,-0.0012968,0.00278885,0.00224963,-0.00348991,0.666384,0.00333941,0.041393,685,1114,-2.72114,-0.819783
-532,-90,-2.73889,0.5896,-0.000124299,-0.00123385,0.00470722,0.00406073,-0.00541888,0.726741,0.00549174,0.0411784,692,1114,-2.73889,-0.589545
-525,-90,0,0,0,0,0,0,0,0,0,-1,699,1114,0,0
-518,-90,0,0,0,0,0,0,0,0,0,-1,706,1114,0,0
-511,-90,0,0,0,0,0,0,0,0,0,-1,713,1114,0,0
-504,-90,0,0,0,0,0,0,0,0,0,-1,720,1114,0,0
-497,-90,0,0,0,0,0,0,0,0,0,-1,727,1114,0,0
-490,-90,0,0,0,0,0,0,0,0,0,-1,734,1114,0,0
-483,-90,0,0,0,0,0,0,0,0,0,-1,741,1114,0,0
-476,-90,0,0,0,0,0,0,0,0,0,-1,748,1114,0,0
-469,-90,0,0,0,0,0,0,0,0,0,-1,755,1114,0,0
-462,-90,0,0,0,0,0,0,0,0,0,-1,762,1114,0,0
-455,-90,0,0,0,0,0,0,0,0,0,-1,769,1114,0,0
-448,-90,0,0,0,0,0,0,0,0,0,-1,776,1114,0,0
-441,-90,0,0,0,0,0,0,0,0,0,-1,783,1114,0,0
-434,-90,0,0,0,0,0,0,0,0,0,-1,790,1114,0,0
-427,-90,0,0,0,0,0,0,0,0,0,-1,797,1114,0,0
-420,-90,0,0,0,0,0,0,0,0,0,-1,804,1114,0,0
-413,-90,0,0,0,0,0,0,0,0,0,-1,811,1114,0,0
-406,-90,0,0,0,0,0,0,0,0,0,-1,818,1114,0,0
-399,-90,0,0,0,0,0,0,0,0,0,-1,825,1114,0,0
-392,-90,0,0,0,0,0,0,0,0,0,-1,832,1114,0,0
-385,-90,0,0,0,0,0,0,0,0,0,-1,839,1114,0,0
-378,-90,0,0,0,0,0,0,0,0,0,-1,846,1114,0,0
-371,-90,0,0,0,0,0,0,0,0,0,-1,853,1114,0,0
-364,-90,0,0,0,0,0,0,0,0,0,-1,860,1114,0,0
-357,-90,0,0,0,0,0,0,0,0,0,-1,867,1114,0,0
-350,-90,0,0,0,0,0,0,0,0,0,-1,874,1114,0,0
-343,-90,0,0,0,0,0,0,0,0,0,-1,881,1114,0,0
-336,-90,0,0,0,0,0,0,0,0,0,-1,888,1114,0,0
-329,-90,0,0,0,0,0,0,0,0,0,-1,895,1114,0,0
-322,-90,0,0,0,0,0,0,0,0,0,-1,902,1114,0,0
-315,-90,0,0,0,0,0,0,0,0,0,-1,909,1114,0,0
-308,-90,0,0,0,0,0,0,0,0,0,-1,916,1114,0,0
-301,-90,0,0,0,0,0,0,0,0,0,-1,923,1114,0,0
-294,-90,0,0,0,0,0,0,0,0,0,-1,930,1114,0,0
-287,-90,0,0,0,0,0,0,0,0,0,-1,937,1114,0,0
-280,-90,0,0,0,0,0,0,0,0,0,-1,944,1114,0,0
-273,-90,0,0,0,0,0,0,0,0,0,-1,951,1114,0,0
-266,-90,0,0,0,0,0,0,0,0,0,-1,958,1114,0,0
-259,-90,0,0,0,0,0,0,0,0,0,-1,965,1114,0,0
-252,-90,0,0,0,0,0,0,0,0,0,-1,972,1114,0,0
-245,-90,0,0,0,0,0,0,0,0,0,-1,979,1114,0,0
-238,-90,0,0,0,0,0,0,0,0,0,-1,986,1114,0,0
-231,-90,0,0,0,0,0,0,0,0,0,-1,993,1114,0,0
-224,-90,0,0,0,0,0,0,0,0,0,-1,1000,1114,0,0
-217,-90,0,0,0,0,0,0,0,0,0,-1,1007,1114,0,0
-210,-90,0,0,0,0,0,0,0,0,0,-1,1014,1114,0,0
-203,-90,0,0,0,0,0,0,0,0,0,-1,1021,1114,0,0
-196,-90,0,0,0,0,0,0,0,0,0,-1,1028,1114,0,0
-189,-90,0,0,0,0,0,0,0,0,0,-1,1035,1114,0,0
-182,-90,0,0,0,0,0,0,0,0,0,-1,1042,1114,0,0
-175,-90,0,0,0,0,0,0,0,0,0,-1,1049,1114,0,0
-168,-90,0,0,0,0,0,0,0,0,0,-1,1056,1114,0,0
-161,-90,0,0,0,0,0,0,0,0,0,-1,1063,1114,0,0
-154,-90,0,0,0,0,0,0,0,0,0,-1,1070,1114,0,0
-147,-90,0,0,0,0,0,0,0,0,0,-1,1077,1114,0,0
-140,-90,0,0,0,0,0,0,0,0,0,-1,1084,1114,0,0
-133,-90,0,0,0,0,0,0,0,0,0,-1,1091,1114,0,0
-126,-90,0,0,0,0,0,0,0,0,0,-1,1098,1114,0,0
-119,-90,0,0,0,0,0,0,0,0,0,-1,1105,1114,0,0
-112,-90,0,0,0,0,0,0,0,0,0,-1,1112,1114,0,0
-105,-90,0,0,0,0,0,0,0,0,0,-1,1119,1114,0,0
-98,-90,0,0,0,0,0,0,0,0,0,-1,1126,1114,0,0
-91,-90,0,0,0,0,0,0,0,0,0,-1,1133,1114,0,0
-84,-90,0,0,0,0,0,0,0,0,0,-1,1140,1114,0,0
-77,-90,0,0,0,0,0,0,0,0,0,-1,1147,1114,0,0
-70,-90,0,0,0,0,0,0,0,0,0,-1,1154,1114,0,0
-63,-90,0,0,0,0,0,0,0,0,0,-1,1161,1114,0,0
-56,-90,0,0,0,0,0,0,0,0,0,-1,1168,1114,0,0
-49,-90,0,0,0,0,0,0,0,0,0,-1,1175,1114,0,0
-42,-90,0,0,0,0,0,0,0,0,0,-1,1182,1114,0,0
-35,-90,0,0,0,0,0,0,0,0,0,-1,1189,1114,0,0
-28,-90,0,0,0,0,0,0,0,0,0,-1,1196,1114,0,0
-21,-90,0,0,0,0,0,0,0,0,0,-1,1203,1114,0,0
-14,-90,0,0,0,0,0,0,0,0,0,-1,1210,1114,0,0
-7,-90,0,0,0,0,0,0,0,0,0,-1,1217,1114,0,0
0,-90,0,0,0,0,0,0,0,0,0,-1,1224,1114,0,0
7,-90,0,0,0,0,0,0,0,0,0,-1,1231,1114,0,0
14,-90,0,0,0,0,0,0,0,0,0,-1,1238,1114,0,0
21,-90,0,0,0,0,0,0,0,0,0,-1,1245,1114,0,0
28,-90,0,0,0,0,0,0,0,0,0,-1,1252,1114,0,0
35,-90,0,0,0,0,0,0,0,0,0,-1,1259,1114,0,0
42,-90,0,0,0,0,0,0,0,0,0,-1,1266,1114,0,0
49,-90,0,0,0,0,0,0,0,0,0,-1,1273,1114,0,0
56,-90,0,0,0,0,0,0,0,0,0,-1,1280,1114,0,0
63,-90,0,0,0,0,0,0,0,0,0,-1,1287,1114,0,0
70,-90,0,0,0,0,0,0,0,0,0,-1,1294,1114,0,0
77,-90,0,0,0,0,0,0,0,0,0,-1,1301,1114,0,0
84,-90,0,0,0,0,0,0,0,0,0,-1,1308,1114,0,0
91,-90,0,0,0,0,0,0,0,0,0,-1,1315,1114,0,0
98,-90,0,0,0,0,0,0,0,0,0,-1,1322,1114,0,0
105,-90,0,0,0,0,0,0,0,0,0,-1,1329,1114,0,0
112,-90,0,0,0,0,0,0,0,0,0,-1,1336,1114,0,0
119,-90,0,0,0,0,0,0,0,0,0,-1,1343,1114,0,0
126,-90,0,0,0,0,0,0,0,0,0,-1,1350,1114,0,0
133,-90,0,0,0,0,0,0,0,0,0,-1,1357,1114,0,0
140,-90,0,0,0,0,0,0,0,0,0,-1,1364,1114,0,0
147,-90,0,0,0,0,0,0,0,0,0,-1,1371,1114,0,0
154,-90,0,0,0,0,0,0,0,0,0,-1,1378,1114,0,0
161,-90,0,0,0,0,0,0,0,0,0,-1,1385,1114,0,0
168,-90,0,0,0,0,0,0,0,0,0,-1,1392,1114,0,0
175,-90,0,0,0,0,0,0,0,0,0,-1,1399,1114,0,0
182,-90,0,0,0,0,0,0,0,0,0,-1,1406,1114,0,0
189,-90,0,0,0,0,0,0,0,0,0,-1,1413,1114,0,0
196,-90,0,0,0,0,0,0,0,0,0,-1,1420,1114,0,0
203,-90,0,0,0,0,0,0,0,0,0,-1,1427,1114,0,0
210,-90,0,0,0,0,0,0,0,0,0,-1,1434,1114,0,0
217,-90,0,0,0,0,0,0,0,0,0,-1,1441,1114,0,0
224,-90,0,0,0,0,0,0,0,0,0,-1,1448,1114,0,0
231,-90,0,0,0,0,0,0,0,0,0,-1,1455,1114,0,0
238,-90,0,0,0,0,0,0,0,0,0,-1,1462,1114,0,0
245,-90,0,0,0,0,0,0,0,0,0,-1,1469,1114,0,0
252,-90,0,0,0,0,0,0,0,0,0,-1,1476,1114,0,0
259,-90,0,0,0,0,0,0,0,0,0,-1,1483,1114,0,0
266,-90,0,0,0,0,0,0,0,0,0,-1,1490,1114,0,0
273,-90,0,0,0,0,0,0,0,0,0,-1,1497,1114,0,0
280,-90,0,0,0,0,0,0,0,0,0,-1,1504,1114,0,0
287,-90,0,0,0,0,0,0,0,0,0,-1,1511,1114,0,0
294,-90,0,0,0,0,0,0,0,0,0,-1,1518,1114,0,0
301,-90,0,0,0,0,0,0,0,0,0,-1,1525,1114,0,0
308,-90,0,0,0,0,0,0,0,0,0,-1,1532,1114,0,0
315,-90,0,0,0,0,0,0,0,0,0,-1,1539,1114,0,0
322,-90,0,0,0,0,0,0,0,0,0,-1,1546,1114,0,0
329,-90,0,0,0,0,0,0,0,0,0,-1,1553,1114,0,0
336,-90,0,0,0,0,0,0,0,0,0,-1,1560,1114,0,0
343,-90,0,0,0,0,0,0,0,0,0,-1,1567,1114,0,0
350,-90,0,0,0,0,0,0,0,0,0,-1,1574,1114,0,0
357,-90,0,0,0,0,0,0,0,0,0,-1,1581,1114,0,0
364,-90,0,0,0,0,0,0,0,0,0,-1,1588,1114,0,0
371,-90,0,0,0,0,0,0,0,0,0,-1,1595,1114,0,0
378,-90,0,0,0,0,0,0,0,0,0,-1,1602,1114,0,0
385,-90,0,0,0,0,0,0,0,0,0,-1,1609,1114,0,0
392,-90,0,0,0,0,0,0,0,0,0,-1,1616,1114,0,0
399,-90,0,0,0,0,0,0,0,0,0,-1,1623,1114,0,0
406,-90,0,0,0,0,0,0,0,0,0,-1,1630,1114,0,0
413,-90,0,0,0,0,0,0,0,0,0,-1,1637,1114,0,0
420,-90,0,0,0,0,0,0,0,0,0,-1,1644,1114,0,0
427,-90,0,0,0,0,0,0,0,0,0,-1,1651,1114,0,0
434,-90,0,0,0,0,0,0,0,0,0,-1,1658,1114,0,0
441,-90,0,0,0,0,0,0,0,0,0,-1,1665,1114,0,0
448,-90,0,0,0,0,0,0,0,0,0,-1,1672,1114,0,0
455,-90,0,0,0,0,0,0,0,0,0,-1,1679,1114,0,0
462,-90,0,0,0,0,0,0,0,0,0,-1,1686,1114,0,0
469,-90,0,0,0,0,0,0,0,0,0,-1,1693,1114,0,0
476,-90,0,0,0,0,0,0,0,0,0,-1,1700,1114,0,0
483,-90,0,0,0,0,0,0,0,0,0,-1,1707,1114,0,0
490,-90,0,0,0,0,0,0,0,0,0,-1,1714,1114,0,0
497,-90,0,0,0,0,0,0,0,0,0,-1,1721,1114,0,0
504,-90,0,0,0,0,0,0,0,0,0,-1,1728,1114,0,0
511,-90,0,0,0,0,0,0,0,0,0,-1,1735,1114,0,0
518,-90,0,0,0,0,0,0,0,0,0,-1,1742,1114,0,0
525,-90,0,0,0,0,0,0,0,0,0,-1,1749,1114,0,0
532,-90,0,0,0,0,0,0,0,0,0,-1,1756,1114,0,0
539,-90,0,0,0,0,0,0,0,0,0,-1,1763,1114,0,0
546,-90,0,0,0,0,0,0,0,0,0,-1,1770,1114,0,0
553,-90,0,0,0,0,0,0,0,0,0,-1,1777,1114,0,0
560,-90,0,0,0,0,0,0,0,0,0,-1,1784,1114,0,0
567,-90,0,0,0,0,0,0,0,0,0,-1,1791,1114,0,0
574,-90,0,0,0,0,0,0,0,0,0,-1,1798,1114,0,0
581,-90,0,0,0,0,0,0,0,0,0,-1,1805,1114,0,0
588,-90,0,0,0,0,0,0,0,0,0,-1,1812,1114,0,0
595,-90,0,0,0,0,0,0,0,0,0,-1,1819,1114,0,0
602,-90,0,0,0,0,0,0,0,0,0,-1,1826,1114,0,0
609,-90,0,0,0,0,0,0,0,0,0,-1,1833,1114,0,0
616,-90,0,0,0,0,0,0,0,0,0,-1,1840,1114,0,0
623,-90,0,0,0,0,0,0,0,0,0,-1,1847,1114,0,0
630,-90,0,0,0,0,0,0,0,0,0,-1,1854,1114,0,0
637,-90,0,0,0,0,0,0,0,0,0,-1,1861,1114,0,0
644,-90,7.13696,0.907227,0.00235067,-0.00189515,0.000548376,0.00242035,-0.00196483,0.126394,0.00253634,0.0368586,1868,1114,7.13696,-0.907262
651,-90,7.1825,0.99353,0.00159455,-0.00101035,0.000325485,0.0016346,-0.0010504,0.122443,0.00156237,0.0398055,1875,1114,7.18253,-0.993535
658,-90,7.13391,0.790283,0.00116085,-0.000555874,8.80198e-05,0.00116535,-0.000560376,0.0510934,0.00101655,0.0422772,1882,1114,7.13387,-0.790291
665,-90,7.09998,0.588867,0.000737591,-0.000354936,3.13996e-05,0.000738493,-0.000355838,0.0287087,0.000644559,0.0416161,1889,1114,7.09995,-0.58885
672,-90,7.17371,0.932495,0.000172389,-0.000398692,0.000290121,0.000293916,-0.000520219,0.396678,0.000476056,0.0423636,1896,1114,7.17375,-0.932516
679,-90,7.18835,1.12842,-0.000380909,-0.000538893,0.000636353,0.000181335,-0.00110114,0.723648,0.000801405,0.0392503,1903,1114,7.18832,-1.12837
686,-90,7.22363,1.06165,-0.000825674,-0.000710868,0.000989065,0.000222459,-0.001759,0.814384,0.00125342,0.0339587,1910,1114,7.22362,-1.06161
693,-90,7.18433,0.977539,-0.0011999,-0.000869607,0.0013303,0.000305758,-0.00237527,0.847154,0.00169465,0.0330377,1917,1114,7.18436,-0.977559
700,-90,7.18042,0.991577,-0.00154252,-0.000912257,0.00159037,0.000393909,-0.00284868,0.883205,0.00204312,0.0290553,1924,1114,7.18041,-0.991615
707,-90,7.19519,0.956299,-0.00176319,-0.000977973,0.00182232,0.00049355,-0.00323471,0.891499,0.00233842,0.0183302,1931,1114,7.19513,-0.956313
714,-90,7.1405,1.09619,-0.00183952,-0.00101776,0.00194315,0.000557475,-0.00341476,0.889589,0.00248328,0.0245808,1938,1114,7.14046,-1.09618
721,-90,7.06567,1.31885,-0.00181686,-0.000995256,0.00189451,0.000532481,-0.0033446,0.892164,0.00242678,0.0181388,1945,1114,7.06567,-1.31885
728,-90,7.02612,1.30078,-0.00180403,-0.000915681,0.00189612,0.000587594,-0.00330731,0.900451,0.00242459,0.016086,1952,1114,7.02612,-1.30077
735,-90,7.05701,1.24951,-0.00208473,-0.000760564,0.00185455,0.000546545,-0.00339184,0.956849,0.0024637,0.0170611,1959,1114,7.05704,-1.24954
742,-90,7.08105,1.22888,-0.00288475,-0.000620723,0.0010709,-0.000194439,-0.00331103,1.19196,0.00214548,0.0147779,1966,1114,7.08109,-1.22883
749,-90,7.04761,1.21521,-0.00264413,-0.000441728,0.000107711,-0.000436473,-0.00264939,1.52205,0.00164024,0.0122248,1973,1114,7.04761,-1.21521
756,-90,7.04968,1.20117,-0.00106945,-0.000372875,-0.00126048,0.000586546,-0.00202887,-0.920192,0.0015847,0.013035,1980,1114,7.04966,-1.20118
763,-90,7.04529,1.17249,0.00147107,-0.000165078,-0.00328923,0.00404243,-0.00273644,-0.663514,0.00393792,0.0115204,1987,1114,7.0453,-1.17244
770,-90,7.02563,1.1665,0.00403143,-3.08008e-05,-0.00555309,0.0079132,-0.00391257,-0.610074,0.00695662,0.0137072,1994,1114,7.02558,-1.16648
777,-90,7.03284,1.17944,0.0079097,5.78556e-05,-0.00829864,0.0131642,-0.00519665,-0.564458,0.0109283,0.0128673,2001,1114,7.03287,-1.17947
784,-90,7.02539,1.17737,0.0136972,0.000154202,-0.0116566,0.0204064,-0.00655502,-0.522264,0.0162365,0.026887,2008,1114,7.02539,-1.17739
791,-90,5.55444,2.02844,0,0,0,0,0,0,0,-1,2015,1114,5.55446,-2.02839
798,-90,6.04565,1.59753,0.0342298,0.000665478,-0.0208522,0.0442142,-0.00931902,-0.446563,0.0330237,0.0448935,2022,1114,6.04567,-1.59759
805,-90,6.46252,0.833496,0.0508317,0.00125264,-0.0267632,0.0625222,-0.0104378,-0.411832,0.045561,0.0451806,2029,1114,6.46257,-0.833526
812,-90,6.9812,0.246948,0.0736902,0.00227134,-0.0335866,0.0870034,-0.0110419,-0.377387,0.0620115,0.0471107,2036,1114,6.98125,-0.246909
-700,-97,0,0,0,0,0,0,0,0,0,-1,524,1121,0,0
-693,-97,-0.160461,1.01514,-0.0461462,0.0361358,0.0562068,0.0646495,-0.0746599,1.10132,0.0804995,0.0493563,531,1121,-0.160433,-1.01516
-686,-97,-1.66449,1.724,-0.0175127,0.029347,0.042116,0.0541118,-0.0422774,1.03924,0.05579,0.0493707,538,1121,-1.6645,-1.72399
-679,-97,-3.14471,3.85718,0,0,0,0,0,0,0,-1,545,1121,-3.14473,-3.85723
-672,-97,-2.22668,3.78247,0.00873435,0.0189872,0.0205191,0.0350105,-0.007289,0.907811,0.0261114,0.0438822,552,1121,-2.22665,-3.78253
-665,-97,-1.26379,3.71899,0.0130651,0.0151546,0.0126675,0.0268204,0.00139942,0.826543,0.0174325,0.0463973,559,1121,-1.26382,-3.71902
-658,-97,-0.663086,3.80591,0,0,0,0,0,0,0,-1,566,1121,-0.663113,-3.80586
-651,-97,-2.61096,0.602783,0.01262,0.0094871,0.00273585,0.0142061,0.00790099,0.525399,0.00821913,0.0298197,573,1121,-2.61094,-0.602734
-644,-97,-2.57086,0.723633,0.010223,0.00738154,0.000306367,0.0102557,0.00734889,0.106194,0.00610344,0.0111958,580,1121,-2.57085,-0.723669
-637,-97,-2.55133,0.770264,0.00933675,0.00447766,-0.00185259,0.0099625,0.00385192,-0.325735,0.00580092,0.0122101,587,1121,-2.55131,-0.770303
-630,-97,-2.55554,0.796387,0.00737149,0.00249841,-0.00278604,0.00863613,0.00123376,-0.42611,0.00539341,0.00987271,594,1121,-2.55553,-0.796327
-623,-97,-2.57141,0.816284,0.00400627,0.00202191,-0.00245189,0.00565912,0.000369056,-0.593139,0.00365595,0.0103881,601,1121,-2.57139,-0.816343
-616,-97,-2.56207,0.833984,0.000201022,0.00258835,-0.00291154,0.00454141,-0.00175204,-0.979937,0.0037506,0.0102038,608,1121,-2.56209,-0.834043
-609,-97,-2.55084,0.869751,-0.00106334,0.0022018,-0.00237762,0.00345338,-0.00231493,-1.08625,0.00335189,0.0122957,615,1121,-2.55084,-0.869705
-602,-97,-2.55139,0.888428,-0.0011277,-0.000339857,-0.00180575,0.00111444,-0.00258199,-0.892789,0.00218949,0.0114937,622,1121,-2.55139,-0.888433
-595,-97,-2.56793,0.909546,-0.00127624,-0.00064675,-0.00194265,0.00100648,-0.00292947,-0.86571,0.0023611,0.0155886,629,1121,-2.56792,-0.909588
-588,-97,-2.58679,0.912476,-0.00126547,-0.000833215,-0.00219804,0.0011593,-0.00325798,-0.834405,0.00264452,0.0185206,636,1121,-2.58679,-0.912435
-581,-97,-2.6593,0.82605,-0.00122378,-0.000876401,-0.00224489,0.0012015,-0.00330169,-0.824007,0.00269252,0.026715,643,1121,-2.65932,-0.826101
-574,-97,-2.7088,0.825806,-0.00124951,-0.00102449,-0.00208058,0.000946619,-0.00322061,-0.81241,0.00252253,0.0354189,650,1121,-2.7088,-0.825759
-567,-97,-2.73462,0.899536,-0.00109947,-0.00112587,-0.00177722,0.000664599,-0.00288994,-0.781685,0.00218216,0.036193,657,1121,-2.73461,-0.899494
-560,-97,-2.69031,0.799194,-0.000865489,-0.00119984,-0.00119428,0.000173258,-0.00223859,-0.715859,0.00155337,0.0398852,664,1121,-2.6903,-0.799223
-553,-97,-2.62122,0.691162,-0.000574739,-0.00124312,-0.000288339,-0.000467542,-0.00135032,-0.355938,0.000791797,0.043303,671,1121,-2.62121,-0.691108
-546,-97,-2.63379,0.727661,-0.000279298,-0.00125328,0.000992907,0.000339615,-0.00187219,0.557401,0.00137538,0.0446947,678,1121,-2.6338,-0.727717
-539,-97,-2.77466,0.783203,0,0,0,0,0,0,0,-1,685,1121,-2.77469,-0.783174
-532,-97,-2.76654,0.606445,0,0,0,0,0,0,0,-1,692,1121,-2.76655,-0.606411
-525,-97,0,0,0,0,0,0,0,0,0,-1,699,1121,0,0
-518,-97,0,0,0,0,0,0,0,0,0,-1,706,1121,0,0
-511,-97,0,0,0,0,0,0,0,0,0,-1,713,1121,0,0
-504,-97,0,0,0,0,0,0,0,0,0,-1,720,1121,0,0
-497,-97,0,0,0,0,0,0,0,0,0,-1,727,1121,0,0
-490,-97,0,0,0,0,0,0,0,0,0,-1,734,1121,0,0
-483,-97,0,0,0,0,0,0,0,0,0,-1,741,1121,0,0
-476,-97,0,0,0,0,0,0,0,0,0,-1,748,1121,0,0
-469,-97,0,0,0,0,0,0,0,0,0,-1,755,1121,0,0
-462,-97,0,0,0,0,0,0,0,0,0,-1,762,1121,0,0
-455,-97,0,0,0,0,0,0,0,0,0,-1,769,1121,0,0
-448,-97,0,0,0,0,0,0,0,0,0,-1,776,1121,0,0
-441,-97,0,0,0,0,0,0,0,0,0,-1,783,1121,0,0
-434,-97,0,0,0,0,0,0,0,0,0,-1,790,1121,0,0
-427,-97,0,0,0,0,0,0,0,0,0,-1,797,1121,0,0
-420,-97,0,0,0,0,0,0,0,0,0,-1,804,1121,0,0
-413,-97,0,0,0,0,0,0,0,0,0,-1,811,1121,0,0
-406,-97,0,0,0,0,0,0,0,0,0,-1,818,1121,0,0
-399,-97,0,0,0,0,0,0,0,0,0,-1,825,1121,0,0
-392,-97,0,0,0,0,0,0,0,0,0,-1,832,1121,0,0
-385,-97,0,0,0,0,0,0,0,0,0,-1,839,1121,0,0
-378,-97,0,0,0,0,0,0,0,0,0,-1,846,1121,0,0
-371,-97,0,0,0,0,0,0,0,0,0,-1,853,1121,0,0
-364,-97,0,0,0,0,0,0,0,0,0,-1,860,1121,0,0
-357,-97,0,0,0,0,0,0,0,0,0,-1,867,1121,0,0
-350,-97,0,0,0,0,0,0,0,0,0,-1,874,1121,0,0
-343,-97,0,0,0,0,0,0,0,0,0,-1,881,1121,0,0
-336,-97,0,0,0,0,0,0,0,0,0,-1,888,1121,0,0
-329,-97,0,0,0,0,0,0,0,0,0,-1,895,1121,0,0
-322,-97,0,0,0,0,0,0,0,0,0,-1,902,1121,0,0
-315,-97,0,0,0,0,0,0,0,0,0,-1,909,1121,0,0
-308,-97,0,0,0,0,0,0,0,0,0,-1,916,1121,0,0
-301,-97,0,0,0,0,0,0,0,0,0,-1,923,1121,0,0
-294,-97,0,0,0,0,0,0,0,0,0,-1,930,1121,0,0
-287,-97,0,0,0,0,0,0,0,0,0,-1,937,1121,0,0
-280,-97,0,0,0,0,0,0,0,0,0,-1,944,1121,0,0
-273,-97,0,0,0,0,0,0,0,0,0,-1,951,1121,0,0
-266,-97,0,0,0,0,0,0,0,0,0,-1,958,1121,0,0
-259,-97,0,0,0,0,0,0,0,0,0,-1,965,1121,0,0
-252,-97,0,0,0,0,0,0,0,0,0,-1,972,1121,0,0
-245,-97,0,0,0,0,0,0,0,0,0,-1,979,1121,0,0
-238,-97,0,0,0,0,0,0,0,0,0,-1,986,1121,0,0
-231,-97,0,0,0,0,0,0,0,0,0,-1,993,1121,0,0
-224,-97,0,0,0,0,0,0,0,0,0,-1,1000,1121,0,0
-217,-97,0,0,0,0,0,0,0,0,0,-1,1007,1121,0,0
-210,-97,0,0,0,0,0,0,0,0,0,-1,1014,1121,0,0
-203,-97,0,0,0,0,0,0,0,0,0,-1,1021,1121,0,0
-196,-97,0,0,0,0,0,0,0,0,0,-1,1028,1121,0,0
-189,-97,0,0,0,0,0,0,0,0,0,-1,1035,1121,0,0
-182,-97,0,0,0,0,0,0,0,0,0,-1,1042,1121,0,0
-175,-97,0,0,0,0,0,0,0,0,0,-1,1049,1121,0,0
-168,-97,0,0,0,0,0,0,0,0,0,-1,1056,1121,0,0
-161,-97,0,0,0,0,0,0,0,0,0,-1,1063,1121,0,0
-154,-97,0,0,0,0,0,0,0,0,0,-1,1070,1121,0,0
-147,-97,0,0,0,0,0,0,0,0,0,-1,1077,1121,0,0
-140,-97,0,0,0,0,0,0,0,0,0,-1,1084,1121,0,0
-133,-97,0,0,0,0,0,0,0,0,0,-1,1091,1121,0,0
-126,-97,0,0,0,0,0,0,0,0,0,-1,1098,1121,0,0
-119,-97,0,0,0,0,0,0,0,0,0,-1,1105,1121,0,0
-112,-97,0,0,0,0,0,0,0,0,0,-1,1112,1121,0,0
-105,-97,0,0,0,0,0,0,0,0,0,-1,1119,1121,0,0
-98,-97,0,0,0,0,0,0,0,0,0,-1,1126,1121,0,0
-91,-97,0,0,0,0,0,0,0,0,0,-1,1133,1121,0,0
-84,-97,0,0,0,0,0,0,0,0,0,-1,1140,1121,0,0
-77,-97,0,0,0,0,0,0,0,0,0,-1,1147,1121,0,0
-70,-97,0,0,0,0,0,0,0,0,0,-1,1154,1121,0,0
-63,-97,0,0,0,0,0,0,0,0,0,-1,1161,1121,0,0
-56,-97,0,0,0,0,0,0,0,0,0,-1,1168,1121,0,0
-49,-97,0,0,0,0,0,0,0,0,0,-1,1175,1121,0,0
-42,-97,0,0,0,0,0,0,0,0,0,-1,1182,1121,0,0
-35,-97,0,0,0,0,0,0,0,0,0,-1,1189,1121,0,0
-28,-97,0,0,0,0,0,0,0,0,0,-1,1196,1121,0,0
-21,-97,0,0,0,0,0,0,0,0,0,-1,1203,1121,0,0
-14,-97,0,0,0,0,0,0,0,0,0,-1,1210,1121,0,0
-7,-97,0,0,0,0,0,0,0,0,0,-1,1217,1121,0,0
0,-97,0,0,0,0,0,0,0,0,0,-1,1224,1121,0,0
7,-97,0,0,0,0,0,0,0,0,0,-1,1231,1121,0,0
14,-97,0,0,0,0,0,0,0,0,0,-1,1238,1121,0,0
21,-97,0,0,0,0,0,0,0,0,0,-1,1245,1121,0,0
28,-97,0,0,0,0,0,0,0,0,0,-1,1252,1121,0,0
35,-97,0,0,0,0,0,0,0,0,0,-1,1259,1121,0,0
42,-97,0,0,0,0,0,0,0,0,0,-1,1266,1121,0,0
49,-97,0,0,0,0,0,0,0,0,0,-1,1273,1121,0,0
56,-97,0,0,0,0,0,0,0,0,0,-1,1280,1121,0,0
63,-97,0,0,0,0,0,0,0,0,0,-1,1287,1121,0,0
70,-97,0,0,0,0,0,0,0,0,0,-1,1294,1121,0,0
77,-97,0,0,0,0,0,0,0,0,0,-1,1301,1121,0,0
84,-97,0,0,0,0,0,0,0,0,0,-1,1308,1121,0,0
91,-97,0,0,0,0,0,0,0,0,0,-1,1315,1121,0,0
98,-97,0,0,0,0,0,0,0,0,0,-1,1322,1121,0,0
105,-97,0,0,0,0,0,0,0,0,0,-1,1329,1121,0,0
112,-97,0,0,0,0,0,0,0,0,0,-1,1336,1121,0,0
119,-97,0,0,0,0,0,0,0,0,0,-1,1343,1121,0,0
126,-97,0,0,0,0,0,0,0,0,0,-1,1350,1121,0,0
133,-97,0,0,0,0,0,0,0,0,0,-1,1357,1121,0,0
140,-97,0,0,0,0,0,0,0,0,0,-1,1364,1121,0,0
147,-97,0,0,0,0,0,0,0,0,0,-1,1371,1121,0,0
154,-97,0,0,0,0,0,0,0,0,0,-1,1378,1121,0,0
161,-97,0,0,0,0,0,0,0,0,0,-1,1385,1121,0,0
168,-97,0,0,0,0,0,0,0,0,0,-1,1392,1121,0,0
175,-97,0,0,0,0,0,0,0,0,0,-1,1399,1121,0,0
182,-97,0,0,0,0,0,0,0,0,0,-1,1406,1121,0,0
189,-97,0,0,0,0,0,0,0,0,0,-1,1413,1121,0,0
196,-97,0,0,0,0,0,0,0,0,0,-1,1420,1121,0,0
203,-97,0,0,0,0,0,0,0,0,0,-1,1427,1121,0,0
210,-97,0,0,0,0,0,0,0,0,0,-1,1434,1121,0,0
217,-97,0,0,0,0,0,0,0,0,0,-1,1441,1121,0,0
224,-97,0,0,0,0,0,0,0,0,0,-1,1448,1121,0,0
231,-97,0,0,0,0,0,0,0,0,0,-1,1455,1121,0,0
238,-97,0,0,0,0,0,0,0,0,0,-1,1462,1121,0,0
245,-97,0,0,0,0,0,0,0,0,0,-1,1469,1121,0,0
252,-97,0,0,0,0,0,0,0,0,0,-1,1476,1121,0,0
259,-97,0,0,0,0,0,0,0,0,0,-1,1483,1121,0,0
266,-97,0,0,0,0,0,0,0,0,0,-1,1490,1121,0,0
273,-97,0,0,0,0,0,0,0,0,0,-1,1497,1121,0,0
280,-97,0,0,0,0,0,0,0,0,0,-1,1504,1121,0,0
287,-97,0,0,0,0,0,0,0,0,0,-1,1511,1121,0,0
294,-97,0,0,0,0,0,0,0,0,0,-1,1518,1121,0,0
301,-97,0,0,0,0,0,0,0,0,0,-1,1525,1121,0,0
308,-97,0,0,0,0,0,0,0,0,0,-1,1532,1121,0,0
315,-97,0,0,0,0,0,0,0,0,0,-1,1539,1121,0,0
322,-97,0,0,0,0,0,0,0,0,0,-1,1546,1121,0,0
329,-97,0,0,0,0,0,0,0,0,0,-1,1553,1121,0,0
336,-97,0,0,0,0,0,0,0,0,0,-1,1560,1121,0,0
343,-97,0,0,0,0,0,0,0,0,0,-1,1567,1121,0,0
350,-97,0,0,0,0,0,0,0,0,0,-1,1574,1121,0,0
357,-97,0,0,0,0,0,0,0,0,0,-1,1581,1121,0,0
364,-97,0,0,0,0,0,0,0,0,0,-1,1588,1121,0,0
371,-97,0,0,0,0,0,0,0,0,0,-1,1595,1121,0,0
378,-97,0,0,0,0,0,0,0,0,0,-1,1602,1121,0,0
385,-97,0,0,0,0,0,0,0,0,0,-1,1609,1121,0,0
392,-97,0,0,0,0,0,0,0,0,0,-1,1616,1121,0,0
399,-97,0,0,0,0,0,0,0,0,0,-1,1623,1121,0,0
406,-97,0,0,0,0,0,0,0,0,0,-1,1630,1121,0,0
413,-97,0,0,0,0,0,0,0,0,0,-1,1637,1121,0,0
420,-97,0,0,0,0,0,0,0,0,0,-1,1644,1121,0,0
427,-97,0,0,0,0,0,0,0,0,0,-1,1651,1121,0,0
434,-97,0,0,0,0,0,0,0,0,0,-1,1658,1121,0,0
441,-97,0,0,0,0,0,0,0,0,0,-1,1665,1121,0,0
448,-97,0,0,0,0,0,0,0,0,0,-1,1672,1121,0,0
455,-97,0,0,0,0,0,0,0,0,0,-1,1679,1121,0,0
462,-97,0,0,0,0,0,0,0,0,0,-1,1686,1121,0,0
469,-97,0,0,0,0,0,0,0,0,0,-1,1693,1121,0,0
476,-97,0,0,0,0,0,0,0,0,0,-1,1700,1121,0,0
483,-97,0,0,0,0,0,0,0,0,0,-1,1707,1121,0,0
490,-97,0,0,0,0,0,0,0,0,0,-1,1714,1121,0,0
497,-97,0,0,0,0,0,0,0,0,0,-1,1721,1121,0,0
504,-97,0,0,0,0,0,0,0,0,0,-1,1728,1121,0,0
511,-97,0,0,0,0,0,0,0,0,0,-1,1735,1121,0,0
518,-97,0,0,0,0,0,0,0,0,0,-1,1742,1121,0,0
525,-97,0,0,0,0,0,0,0,0,0,-1,1749,1121,0,0
532,-97,0,0,0,0,0,0,0,0,0,-1,1756,1121,0,0
539,-97,0,0,0,0,0,0,0,0,0,-1,1763,1121,0,0
546,-97,0,0,0,0,0,0,0,0,0,-1,1770,1121,0,0
553,-97,0,0,0,0,0,0,0,0,0,-1,1777,1121,0,0
560,-97,0,0,0,0,0,0,0,0,0,-1,1784,1121,0,0
567,-97,0,0,0,0,0,0,0,0,0,-1,1791,1121,0,0
574,-97,0,0,0,0,0,0,0,0,0,-1,1798,1121,0,0
581,-97,0,0,0,0,0,0,0,0,0,-1,1805,1121,0,0
588,-97,0,0,0,0,0,0,0,0,0,-1,1812,1121,0,0
595,-97,0,0,0,0,0,0,0,0,0,-1,1819,1121,0,0
602,-97,0,0,0,0,0,0,0,0,0,-1,1826,1121,0,0
609,-97,0,0,0,0,0,0,0,0,0,-1,1833,1121,0,0
616,-97,0,0,0,0,0,0,0,0,0,-1,1840,1121,0,0
623,-97,0,0,0,0,0,0,0,0,0,-1,1847,1121,0,0
630,-97,0,0,0,0,0,0,0,0,0,-1,1854,1121,0,0
637,-97,0,0,0,0,0,0,0,0,0,-1,1861,1121,0,0
644,-97,7.0813,1.33752,0.00236122,-0.00143853,-1.61058e-05,0.00236129,-0.0014386,-0.00423856,0.00221532,0.0373418,1868,1121,7.08133,-1.33756
651,-97,7.22607,1.17212,0.00174554,-0.000765147,-3.39131e-05,0.001746,-0.000765604,-0.0135042,0.00148644,0.038289,1875,1121,7.22606,-1.17209
658,-97,7.28674,0.897827,0.00136914,-0.000386004,-0.000133709,0.00137926,-0.000396132,-0.0756002,0.00107614,0.0391143,1882,1121,7.28672,-0.897867
665,-97,7.30872,0.935669,0.000892704,-0.000245351,-5.57127e-05,0.000895424,-0.000248072,-0.0487988,0.000694568,0.0412825,1889,1121,7.30873,-0.935675
672,-97,7.28833,1.15198,0.000251018,-0.000317375,0.00029065,0.000373325,-0.000439682,0.398312,0.000469911,0.0435694,1896,1121,7.28838,-1.15198
679,-97,7.1936,1.28186,-0.000368823,-0.000463996,0.000676852,0.000262113,-0.00109493,0.750303,0.000831218,0.0402576,1903,1121,7.19362,-1.28185
686,-97,7.20276,1.1991,-0.000873293,-0.000640147,0.00104927,0.000299008,-0.00181245,0.840721,0.00131931,0.0352414,1910,1121,7.20273,-1.19908
693,-97,7.27234,1.05835,-0.00129319,-0.000796869,0.00138585,0.000362868,-0.00245293,0.873993,0.00176869,0.0340383,1917,1121,7.27228,-1.05835
700,-97,7.2135,0.994141,-0.00165399,-0.000870938,0.00164143,0.000425012,-0.00294994,0.902474,0.00212253,0.0270564,1924,1121,7.2135,-0.994127
707,-97,7.18982,0.974976,-0.00189007,-0.000935946,0.00186587,0.00051289,-0.0033389,0.910555,0.00241512,0.0178151,1931,1121,7.18977,-0.97495
714,-97,7.11389,1.14819,-0.00200232,-0.000970452,0.00197271,0.000552672,-0.00352545,0.913301,0.00255453,0.0254008,1938,1121,7.11391,-1.14825
721,-97,7.0498,1.3147,-0.00200093,-0.000949537,0.0019103,0.000506083,-0.00345655,0.919669,0.00249026,0.0179331,1945,1121,7.04985,-1.31472
728,-97,7.02917,1.28479,-0.00196364,-0.000875199,0.00189618,0.000553311,-0.00339215,0.925146,0.00246664,0.0170318,1952,1121,7.02917,-1.28473
735,-97,7.02698,1.2572,-0.00220333,-0.000708193,0.00187815,0.000565699,-0.00347722,0.974804,0.0025279,0.0159783,1959,1121,7.02693,-1.25726
742,-97,7.03845,1.23865,-0.00299249,-0.000548301,0.00115222,-9.07728e-05,-0.00345001,1.19281,0.00227036,0.01313,1966,1121,7.0385,-1.2387
749,-97,7.02173,1.21875,-0.00271389,-0.000361243,0.000285915,-0.000326995,-0.00274814,1.45158,0.00173341,0.0153528,1973,1121,7.02175,-1.21878
756,-97,7.0127,1.17017,-0.00108742,-0.000242179,-0.00089479,0.000324774,-0.00165437,-1.00602,0.0012256,0.0137153,1980,1121,7.0127,-1.17018
763,-97,7.01965,1.14771,0.00141435,2.39228e-05,-0.00270072,0.0035079,-0.00206963,-0.659424,0.00325568,0.0114016,1987,1121,7.01963,-1.14768
770,-97,7.03235,1.15002,0.00401049,0.000224122,-0.00469157,0.00717646,-0.00294184,-0.593626,0.00600992,0.00890197,1994,1121,7.03241,-1.14998
777,-97,7.0531,1.15247,0.00795578,0.000385577,-0.00707755,0.0121968,-0.00385545,-0.539847,0.00967588,0.0119049,2001,1121,7.05305,-1.15242
784,-97,7.06213,1.18652,0.0139038,0.000580852,-0.0100071,0.0192639,-0.00477922,-0.491741,0.014697,0.0327596,2008,1121,7.06216,-1.1865
791,-97,5.64148,1.55286,0,0,0,0,0,0,0,-1,2015,1121,5.64153,-1.55285
798,-97,6.08936,1.14575,0.0351811,0.00135147,-0.0179895,0.0429591,-0.00642647,-0.408088,0.0310043,0.0424125,2022,1121,6.08936,-1.14581
805,-97,6.56848,0.752319,0.0524411,0.00210453,-0.0230424,0.061396,-0.0068504,-0.370665,0.0433947,0.0439835,2029,1121,6.56854,-0.752341
812,-97,7.0448,0.157227,0.076262,0.0033191,-0.0287631,0.0862392,-0.00665816,-0.33389,0.0598358,0.0483731,2036,1121,7.04486,-0.157186
-700,-104,0,0,0,0,0,0,0,0,0,-1,524,1128,0,0
-693,-104,-0.0317383,0.585938,-0.0420887,0.049051,0.0591147,0.0781213,-0.0711591,1.11376,0.0862183,0.0495352,531,1128,-0.0317541,-0.585974
-686,-104,-1.57898,1.28369,-0.0162044,0.0441282,0.0456945,0.0687158,-0.040792,1.07715,0.0639059,0.0486606,538,1128,-1.57901,-1.28372
-679,-104,-3.12836,1.95215,0,0,0,0,0,0,0,-1,545,1128,-3.12835,-1.95215
-672,-104,-2.10944,4.5127,0,0,0,0,0,0,0,-1,552,1128,-2.10941,-4.5127
-665,-104,-1.19965,4.43774,0,0,0,0,0,0,0,-1,559,1128,-1.19965,-4.43776
-658,-104,-0.65448,4.51636,0,0,0,0,0,0,0,-1,566,1128,-0.654451,-4.51637
-651,-104,-2.58551,0.670044,0.0121452,0.0174158,0.00450296,0.0199979,0.0095631,1.05014,0.0115495,0.0347351,573,1128,-2.58548,-0.670006
-644,-104,-2.53937,0.716187,0.00988661,0.0132891,0.00150559,0.0138596,0.00931606,1.20856,0.00815846,0.014443,580,1128,-2.53939,-0.716245
-637,-104,-2.52771,0.760742,0.00917421,0.00869451,-0.00117961,0.0101381,0.00773061,-0.6851,0.00611627,0.0108598,587,1128,-2.52774,-0.760773
-630,-104,-2.54541,0.796753,0.0073105,0.00524085,-0.00249717,0.00897877,0.00357258,-0.58897,0.0052198,0.0121033,594,1128,-2.5454,-0.796757
-623,-104,-2.56152,0.82959,0.00388407,0.00375407,-0.00228484,0.00610483,0.00153331,-0.771178,0.00366723,0.0137317,601,1128,-2.56155,-0.829622
-616,-104,-2.56012,0.847412,3.07933e-06,0.00351296,-0.00290903,0.00515541,-0.00163937,-1.05681,0.0040943,0.0139711,608,1128,-2.56013,-0.847379
-609,-104,-2.53564,0.855713,-0.00122932,0.00244912,-0.00247261,0.00369155,-0.00247174,-1.10517,0.00358153,0.0167243,615,1128,-2.53567,-0.85567
-602,-104,-2.53186,0.88147,-0.00133468,-0.000396466,-0.0018812,0.00107323,-0.00280438,-0.90759,0.00231191,0.0144524,622,1128,-2.53184,-0.881504
-595,-104,-2.54218,0.924927,-0.00152072,-0.000711874,-0.00198633,0.000910783,-0.00314338,-0.885827,0.00245613,0.0143622,629,1128,-2.54219,-0.92498
-588,-104,-2.55914,0.92627,-0.00154632,-0.000864964,-0.00226383,0.00108368,-0.00349496,-0.860082,0.00276297,0.0191411,636,1128,-2.55914,-0.92627
-581,-104,-2.59985,0.808838,-0.00155086,-0.000900015,-0.00233549,0.00113262,-0.00358349,-0.854621,0.00284277,0.0279191,643,1128,-2.59987,-0.808855
-574,-104,-2.64435,0.726318,-0.00160798,-0.00100895,-0.00217118,0.000883277,-0.00350021,-0.853942,0.00267692,0.0376105,650,1128,-2.64435,-0.726273
-567,-104,-2.69611,0.760254,-0.00148841,-0.00105343,-0.00188381,0.000625398,-0.00316724,-0.84287,0.00234789,0.0376594,657,1128,-2.69609,-0.760252
-560,-104,-2.75006,0.597168,-0.00127868,-0.00104514,-0.00132045,0.000163694,-0.00248752,-0.8295,0.00171552,0.0419646,664,1128,-2.75009,-0.597186
-553,-104,-2.63379,0.270996,-0.00100093,-0.00098321,-0.000440843,-0.000551137,-0.001433,-0.795445,0.000834656,0.0469039,671,1128,-2.6338,-0.27097
-546,-104,-2.46149,0.22168,0,0,0,0,0,0,0,-1,678,1128,-2.4615,-0.221718
-539,-104,-2.88489,0.813843,0,0,0,0,0,0,0,-1,685,1128,-2.88492,-0.813848
-532,-104,-2.65088,0.649658,-0.000505436,-0.000562231,0.00431186,0.00377811,-0.00484578,0.782105,0.00499171,0.0400783,692,1128,-2.65088,-0.649655
-525,-104,-2.61328,0.666138,-0.00147762,-0.000506126,0.00605178,0.00507937,-0.00706312,0.825445,0.00704159,0.0369558,699,1128,-2.61325,-0.666139
-518,-104,0,0,0,0,0,0,0,0,0,-1,706,1128,0,0
-511,-104,0,0,0,0,0,0,0,0,0,-1,713,1128,0,0
-504,-104,0,0,0,0,0,0,0,0,0,-1,720,1128,0,0
-497,-104,0,0,0,0,0,0,0,0,0,-1,727,1128,0,0
-490,-104,0,0,0,0,0,0,0,0,0,-1,734,1128,0,0
-483,-104,0,0,0,0,0,0,0,0,0,-1,741,1128,0,0
-476,-104,0,0,0,0,0,0,0,0,0,-1,748,1128,0,0
-469,-104,0,0,0,0,0,0,0,0,0,-1,755,1128,0,0
-462,-104,0,0,0,0,0,0,0,0,0,-1,762,1128,0,0
-455,-104,0,0,0,0,0,0,0,0,0,-1,769,1128,0,0
-448,-104,0,0,0,0,0,0,0,0,0,-1,776,1128,0,0
-441,-104,0,0,0,0,0,0,0,0,0,-1,783,1128,0,0
-434,-104,0,0,0,0,0,0,0,0,0,-1,790,1128,0,0
-427,-104,0,0,0,0,0,0,0,0,0,-1,797,1128,0,0
-420,-104,0,0,0,0,0,0,0,0,0,-1,804,1128,0,0
-413,-104,0,0,0,0,0,0,0,0,0,-1,811,1128,0,0
-406,-104,0,0,0,0,0,0,0,0,0,-1,818,1128,0,0
-399,-104,0,0,0,0,0,0,0,0,0,-1,825,1128,0,0
-392,-104,0,0,0,0,0,0,0,0,0,-1,832,1128,0,0
-385,-104,0,0,0,0,0,0,0,0,0,-1,839,1128,0,0
-378,-104,0,0,0,0,0,0,0,0,0,-1,846,1128,0,0
-371,-104,0,0,0,0,0,0,0,0,0,-1,853,1128,0,0
-364,-104,0,0,0,0,0,0,0,0,0,-1,860,1128,0,0
-357,-104,0,0,0,0,0,0,0,0,0,-1,867,1128,0,0
-350,-104,0,0,0,0,0,0,0,0,0,-1,874,1128,0,0
-343,-104,0,0,0,0,0,0,0,0,0,-1,881,1128,0,0
-336,-104,0,0,0,0,0,0,0,0,0,-1,888,1128,0,0
-329,-104,0,0,0,0,0,0,0,0,0,-1,895,1128,0,0
-322,-104,0,0,0,0,0,0,0,0,0,-1,902,1128,0,0
-315,-104,0,0,0,0,0,0,0,0,0,-1,909,1128,0,0
-308,-104,0,0,0,0,0,0,0,0,0,-1,916,1128,0,0
-301,-104,0,0,0,0,0,0,0,0,0,-1,923,1128,0,0
-294,-104,0,0,0,0,0,0,0,0,0,-1,930,1128,0,0
-287,-104,0,0,0,0,0,0,0,0,0,-1,937,1128,0,0
-280,-104,0,0,0,0,0,0,0,0,0,-1,944,1128,0,0
-273,-104,0,0,0,0,0,0,0,0,0,-1,951,1128,0,0
-266,-104,0,0,0,0,0,0,0,0,0,-1,958,1128,0,0
-259,-104,0,0,0,0,0,0,0,0,0,-1,965,1128,0,0
-252,-104,0,0,0,0,0,0,0,0,0,-1,972,1128,0,0
-245,-104,0,0,0,0,0,0,0,0,0,-1,979,1128,0,0
-238,-104,0,0,0,0,0,0,0,0,0,-1,986,1128,0,0
-231,-104,0,0,0,0,0,0,0,0,0,-1,993,1128,0,0
-224,-104,0,0,0,0,0,0,0,0,0,-1,1000,1128,0,0
-217,-104,0,0,0,0,0,0,0,0,0,-1,1007,1128,0,0
-210,-104,0,0,0,0,0,0,0,0,0,-1,1014,1128,0,0
-203,-104,0,0,0,0,0,0,0,0,0,-1,1021,1128,0,0
-196,-104,0,0,0,0,0,0,0,0,0,-1,1028,1128,0,0
-189,-104,0,0,0,0,0,0,0,0,0,-1,1035,1128,0,0
-182,-104,0,0,0,0,0,0,0,0,0,-1,1042,1128,0,0
-175,-104,0,0,0,0,0,0,0,0,0,-1,1049,1128,0,0
-168,-104,0,0,0,0,0,0,0,0,0,-1,1056,1128,0,0
-161,-104,0,0,0,0,0,0,0,0,0,-1,1063,1128,0,0
-154,-104,0,0,0,0,0,0,0,0,0,-1,1070,1128,0,0
-147,-104,0,0,0,0,0,0,0,0,0,-1,1077,1128,0,0
-140,-104,0,0,0,0,0,0,0,0,0,-1,1084,1128,0,0
-133,-104,0,0,0,0,0,0,0,0,0,-1,1091,1128,0,0
-126,-104,0,0,0,0,0,0,0,0,0,-1,1098,1128,0,0
-119,-104,0,0,0,0,0,0,0,0,0,-1,1105,1128,0,0
-112,-104,0,0,0,0,0,0,0,0,0,-1,1112,1128,0,0
-105,-104,0,0,0,0,0,0,0,0,0,-1,1119,1128,0,0
-98,-104,0,0,0,0,0,0,0,0,0,-1,1126,1128,0,0
-91,-104,0,0,0,0,0,0,0,0,0,-1,1133,1128,0,0
-84,-104,0,0,0,0,0,0,0,0,0,-1,1140,1128,0,0
-77,-104,0,0,0,0,0,0,0,0,0,-1,1147,1128,0,0
-70,-104,0,0,0,0,0,0,0,0,0,-1,1154,1128,0,0
-63,-104,0,0,0,0,0,0,0,0,0,-1,1161,1128,0,0
-56,-104,0,0,0,0,0,0,0,0,0,-1,1168,1128,0,0
-49,-104,0,0,0,0,0,0,0,0,0,-1,1175,1128,0,0
-42,-104,0,0,0,0,0,0,0,0,0,-1,1182,1128,0,0
-35,-104,0,0,0,0,0,0,0,0,0,-1,1189,1128,0,0
-28,-104,0,0,0,0,0,0,0,0,0,-1,1196,1128,0,0
-21,-104,0,0,0,0,0,0,0,0,0,-1,1203,1128,0,0
-14,-104,0,0,0,0,0,0,0,0,0,-1,1210,1128,0,0
-7,-104,0,0,0,0,0,0,0,0,0,-1,1217,1128,0,0
0,-104,0,0,0,0,0,0,0,0,0,-1,1224,1128,0,0
7,-104,0,0,0,0,0,0,0,0,0,-1,1231,1128,0,0
14,-104,0,0,0,0,0,0,0,0,0,-1,1238,1128,0,0
21,-104,0,0,0,0,0,0,0,0,0,-1,1245,1128,0,0
28,-104,0,0,0,0,0,0,0,0,0,-1,1252,1128,0,0
35,-104,0,0,0,0,0,0,0,0,0,-1,1259,1128,0,0
42,-104,0,0,0,0,0,0,0,0,0,-1,1266,1128,0,0
49,-104,0,0,0,0,0,0,0,0,0,-1,1273,1128,0,0
56,-104,0,0,0,0,0,0,0,0,0,-1,1280,1128,0,0
63,-104,0,0,0,0,0,0,0,0,0,-1,1287,1128,0,0
70,-104,0,0,0,0,0,0,0,0,0,-1,1294,1128,0,0
77,-104,0,0,0,0,0,0,0,0,0,-1,1301,1128,0,0
84,-104,0,0,0,0,0,0,0,0,0,-1,1308,1128,0,0
91,-104,0,0,0,0,0,0,0,0,0,-1,1315,1128,0,0
98,-104,0,0,0,0,0,0,0,0,0,-1,1322,1128,0,0
105,-104,0,0,0,0,0,0,0,0,0,-1,1329,1128,0,0
112,-104,0,0,0,0,0,0,0,0,0,-1,1336,1128,0,0
119,-104,0,0,0,0,0,0,0,0,0,-1,1343,1128,0,0
126,-104,0,0,0,0,0,0,0,0,0,-1,1350,1128,0,0
133,-104,0,0,0,0,0,0,0,0,0,-1,1357,1128,0,0
140,-104,0,0,0,0,0,0,0,0,0,-1,1364,1128,0,0
147,-104,0,0,0,0,0,0,0,0,0,-1,1371,1128,0,0
154,-104,0,0,0,0,0,0,0,0,0,-1,1378,1128,0,0
161,-104,0,0,0,0,0,0,0,0,0,-1,1385,1128,0,0
168,-104,0,0,0,0,0,0,0,0,0,-1,1392,1128,0,0
175,-104,0,0,0,0,0,0,0,0,0,-1,1399,1128,0,0
182,-104,0,0,0,0,0,0,0,0,0,-1,1406,1128,0,0
189,-104,0,0,0,0,0,0,0,0,0,-1,1413,1128,0,0
196,-104,0,0,0,0,0,0,0,0,0,-1,1420,1128,0,0
203,-104,0,0,0,0,0,0,0,0,0,-1,1427,1128,0,0
210,-104,0,0,0,0,0,0,0,0,0,-1,1434,1128,0,0
217,-104,0,0,0,0,0,0,0,0,0,-1,1441,1128,0,0
224,-104,0,0,0,0,0,0,0,0,0,-1,1448,1128,0,0
231,-104,0,0,0,0,0,0,0,0,0,-1,1455,1128,0,0
238,-104,0,0,0,0,0,0,0,0,0,-1,1462,1128,0,0
245,-104,0,0,0,0,0,0,0,0,0,-1,1469,1128,0,0
252,-104,0,0,0,0,0,0,0,0,0,-1,1476,1128,0,0
259,-104,0,0,0,0,0,0,0,0,0,-1,1483,1128,0,0
266,-104,0,0,0,0,0,0,0,0,0,-1,1490,1128,0,0
273,-104,0,0,0,0,0,0,0,0,0,-1,1497,1128,0,0
280,-104,0,0,0,0,0,0,0,0,0,-1,1504,1128,0,0
287,-104,0,0,0,0,0,0,0,0,0,-1,1511,1128,0,0
294,-104,0,0,0,0,0,0,0,0,0,-1,1518,1128,0,0
301,-104,0,0,0,0,0,0,0,0,0,-1,1525,1128,0,0
308,-104,0,0,0,0,0,0,0,0,0,-1,1532,1128,0,0
315,-104,0,0,0,0,0,0,0,0,0,-1,1539,1128,0,0
322,-104,0,0,0,0,0,0,0,0,0,-1,1546,1128,0,0
329,-104,0,0,0,0,0,0,0,0,0,-1,1553,1128,0,0
336,-104,0,0,0,0,0,0,0,0,0,-1,1560,1128,0,0
343,-104,0,0,0,0,0,0,0,0,0,-1,1567,1128,0,0
350,-104,0,0,0,0,0,0,0,0,0,-1,1574,1128,0,0
357,-104,0,0,0,0,0,0,0,0,0,-1,1581,1128,0,0
364,-104,0,0,0,0,0,0,0,0,0,-1,1588,1128,0,0
371,-104,0,0,0,0,0,0,0,0,0,-1,1595,1128,0,0
378,-104,0,0,0,0,0,0,0,0,0,-1,1602,1128,0,0
385,-104,0,0,0,0,0,0,0,0,0,-1,1609,1128,0,0
392,-104,0,0,0,0,0,0,0,0,0,-1,1616,1128,0,0
399,-104,0,0,0,0,0,0,0,0,0,-1,1623,1128,0,0
406,-104,0,0,0,0,0,0,0,0,0,-1,1630,1128,0,0
413,-104,0,0,0,0,0,0,0,0,0,-1,1637,1128,0,0
420,-104,0,0,0,0,0,0,0,0,0,-1,1644,1128,0,0
427,-104,0,0,0,0,0,0,0,0,0,-1,1651,1128,0,0
434,-104,0,0,0,0,0,0,0,0,0,-1,1658,1128,0,0
441,-104,0,0,0,0,0,0,0,0,0,-1,1665,1128,0,0
448,-104,0,0,0,0,0,0,0,0,0,-1,1672,1128,0,0
455,-104,0,0,0,0,0,0,0,0,0,-1,1679,1128,0,0
462,-104,0,0,0,0,0,0,0,0,0,-1,1686,1128,0,0
469,-104,0,0,0,0,0,0,0,0,0,-1,1693,1128,0,0
476,-104,0,0,0,0,0,0,0,0,0,-1,1700,1128,0,0
483,-104,0,0,0,0,0,0,0,0,0,-1,1707,1128,0,0
490,-104,0,0,0,0,0,0,0,0,0,-1,1714,1128,0,0
497,-104,0,0,0,0,0,0,0,0,0,-1,1721,1128,0,0
504,-104,0,0,0,0,0,0,0,0,0,-1,1728,1128,0,0
511,-104,0,0,0,0,0,0,0,0,0,-1,1735,1128,0,0
518,-104,0,0,0,0,0,0,0,0,0,-1,1742,1128,0,0
525,-104,0,0,0,0,0,0,0,0,0,-1,1749,1128,0,0
532,-104,0,0,0,0,0,0,0,0,0,-1,1756,1128,0,0
539,-104,0,0,0,0,0,0,0,0,0,-1,1763,1128,0,0
546,-104,0,0,0,0,0,0,0,0,0,-1,1770,1128,0,0
553,-104,0,0,0,0,0,0,0,0,0,-1,1777,1128,0,0
560,-104,0,0,0,0,0,0,0,0,0,-1,1784,1128,0,0
567,-104,0,0,0,0,0,0,0,0,0,-1,1791,1128,0,0
574,-104,0,0,0,0,0,0,0,0,0,-1,1798,1128,0,0
581,-104,0,0,0,0,0,0,0,0,0,-1,1805,1128,0,0
588,-104,0,0,0,0,0,0,0,0,0,-1,1812,1128,0,0
595,-104,0,0,0,0,0,0,0,0,0,-1,1819,1128,0,0
602,-104,0,0,0,0,0,0,0,0,0,-1,1826,1128,0,0
609,-104,0,0,0,0,0,0,0,0,0,-1,1833,1128,0,0
616,-104,0,0,0,0,0,0,0,0,0,-1,1840,1128,0,0
623,-104,0,0,0,0,0,0,0,0,0,-1,1847,1128,0,0
630,-104,0,0,0,0,0,0,0,0,0,-1,1854,1128,0,0
637,-104,0,0,0,0,0,0,0,0,0,-1,1861,1128,0,0
644,-104,7.14185,1.32129,0.00207741,-0.00066844,-0.000406179,0.00213624,-0.000727264,-0.143822,0.00171866,0.0365938,1868,1128,7.14181,-1.3213
651,-104,7.25964,1.12854,0.00169803,-0.000234614,-0.000332493,0.00175363,-0.000290216,-0.165696,0.00127687,0.0383684,1875,1128,7.25964,-1.12854
658,-104,7.27637,0.874146,0.00144637,1.04361e-05,-0.000355961,0.00152977,-7.29613e-05,-0.230137,0.00104501,0.0423277,1882,1128,7.27632,-0.874169
665,-104,7.39148,1.01294,0.000970534,2.71353e-05,-0.000185614,0.00100574,-8.07061e-06,-0.187446,0.0006732,0.0435871,1889,1128,7.39154,-1.01289
672,-104,7.35413,1.07324,0.000298465,-0.000127193,0.000212881,0.000386658,-0.000215386,0.392761,0.000352248,0.0423676,1896,1128,7.35417,-1.07323
679,-104,7.16711,1.13489,-0.000358403,-0.000328101,0.000622541,0.000279473,-0.000965978,0.797564,0.000754596,0.0397769,1903,1128,7.16709,-1.13493
686,-104,7.16016,1.18823,-0.000907575,-0.000543358,0.00100783,0.000298686,-0.00174962,0.87478,0.00127767,0.0384735,1910,1128,7.16018,-1.18822
693,-104,7.24841,1.06482,-0.00136191,-0.000717723,0.00133925,0.000337622,-0.00241725,0.903408,0.00173503,0.0362912,1917,1128,7.24842,-1.06483
700,-104,7.21606,0.972168,-0.00172799,-0.000835764,0.00159657,0.000375845,-0.0029396,0.921634,0.00209628,0.0255999,1924,1128,7.21609,-0.972221
707,-104,7.19421,1.00305,-0.00196878,-0.000911675,0.00181744,0.000452508,-0.00333296,0.926906,0.00238715,0.0210333,1931,1128,7.19425,-1.00307
714,-104,7.09375,1.1521,-0.00212047,-0.000949359,0.00191789,0.000470369,-0.0035402,0.93356,0.00253153,0.0248156,1938,1128,7.09379,-1.15209
721,-104,7.00342,1.29248,-0.00215224,-0.000919067,0.00186016,0.000424037,-0.00349535,0.945434,0.00248367,0.0177352,1945,1128,7.00341,-1.29253
728,-104,7.06152,1.24133,-0.00211218,-0.000839116,0.00184077,0.000472069,-0.00342337,0.951861,0.00245478,0.0209218,1952,1128,7.06148,-1.24133
735,-104,7.02112,1.21326,-0.00234034,-0.000665984,0.00182593,0.000505541,-0.00351187,1.00035,0.00252667,0.018683,1959,1128,7.02109,-1.21325
742,-104,6.9989,1.22705,-0.0031054,-0.000476323,0.00116841,-3.21121e-05,-0.00354961,1.20749,0.00235578,0.0130877,1966,1128,6.99888,-1.22699
749,-104,6.99036,1.20142,-0.0027879,-0.000276841,0.000404778,-0.000213204,-0.00285154,1.41486,0.00183409,0.0164733,1973,1128,6.99032,-1.20145
756,-104,6.98303,1.15698,-0.00115274,-9.59433e-05,-0.000602791,0.000177258,-0.00142594,-1.14526,0.00101489,0.0159663,1980,1128,6.98309,-1.15703
763,-104,6.98914,1.15283,0.00124435,0.000233279,-0.00217115,0.00296804,-0.00149041,-0.671015,0.00262079,0.0136269,1987,1128,6.98911,-1.15286
770,-104,7.0105,1.15503,0.00382995,0.000500308,-0.00387069,0.00637866,-0.00204841,-0.582303,0.00507497,0.0103776,1994,1128,7.01051,-1.15506
777,-104,7.03125,1.1571,0.00780584,0.000746344,-0.00587008,0.0111257,-0.0025735,-0.514706,0.00840729,0.0177362,2001,1128,7.03122,-1.15706
784,-104,6.96985,1.26892,0.0139,0.00106717,-0.00832009,0.0179904,-0.00302328,-0.456934,0.013118,0.0391533,2008,1128,6.96981,-1.26886
791,-104,6.33167,1.21704,0.0229928,0.0015341,-0.0113236,0.0278629,-0.00333602,-0.40617,0.0197813,0.0464723,2015,1128,6.33167,-1.21709
798,-104,5.83521,0.732666,0.0360218,0.00222924,-0.0148368,0.0416113,-0.00336035,-0.360294,0.0289261,0.0472221,2022,1128,5.83516,-0.732608
805,-104,5.55273,0.380493,0,0,0,0,0,0,0,-1,2029,1128,5.55273,-0.380535
812,-104,4.50708,-0.675415,0,0,0,0,0,0,0,-1,2036,1128,4.50711,0.675379
-700,-111,0,0,0,0,0,0,0,0,0,-1,524,1135,0,0
-693,-111,-1.164,0.820068,0,0,0,0,0,0,0,-1,531,1135,-1.16399,-0.820016
-686,-111,-1.62659,1.11157,0,0,0,0,0,0,0,-1,538,1135,-1.62658,-1.11159
-679,-111,-2.42377,-0.529663,0,0,0,0,0,0,0,-1,545,1135,-2.42376,0.52968
-672,-111,-2.42822,-0.846924,0.00758378,0.0497131,0.0275482,0.0633273,-0.00603045,1.1118,0.0443652,0.0472794,552,1135,-2.4282,0.846916
-665,-111,-1.31604,5.00073,0,0,0,0,0,0,0,-1,559,1135,-1.31603,-5.00075
-658,-111,-1.07343,4.28357,0.0122651,0.0339812,0.0116253,0.0390305,0.00721574,1.16104,0.0239798,0.0448751,566,1135,-1.07343,-4.28358
-651,-111,-2.2569,0.520508,0.0112325,0.0266347,0.00636215,0.0289228,0.00894445,1.22556,0.0170988,0.0380027,573,1135,-2.25687,-0.520564
-644,-111,-2.50739,0.741943,0.0091701,0.0200798,0.00281993,0.0207656,0.00848432,1.33224,0.0120557,0.0223859,580,1135,-2.50739,-0.741968
-637,-111,-2.5199,0.771851,0.00860508,0.0135717,-0.000365971,0.0135985,0.00857825,-1.49764,0.00794016,0.00841724,587,1135,-2.51992,-0.771802
-630,-111,-2.50928,0.789917,0.00689811,0.0084066,-0.00207753,0.00986256,0.00544215,-0.959525,0.00570433,0.0122253,594,1135,-2.50929,-0.789865
-623,-111,-2.51361,0.820923,0.00356654,0.00568874,-0.002026,0.00691469,0.00234059,-1.02663,0.00406102,0.0116635,601,1135,-2.51363,-0.82095
-616,-111,-2.52887,0.82312,-0.000253755,0.0043847,-0.00277242,0.00568005,-0.0015491,-1.13371,0.00439503,0.012387,608,1135,-2.52884,-0.823083
-609,-111,-2.52222,0.854126,-0.00144731,0.00251617,-0.00243412,0.00367325,-0.00260439,-1.12705,0.00364187,0.0145497,615,1135,-2.52223,-0.854177
-602,-111,-2.51208,0.876221,-0.00164201,-0.000521497,-0.00183998,0.000841635,-0.00300514,-0.933184,0.00233509,0.0140415,622,1135,-2.51209,-0.87628
-595,-111,-2.50696,0.934326,-0.00189762,-0.000856707,-0.00189936,0.000592212,-0.00334654,-0.919125,0.00245238,0.0115246,629,1135,-2.50695,-0.934298
-588,-111,-2.49731,0.999878,-0.00198953,-0.00097756,-0.00217679,0.000751277,-0.00371837,-0.899593,0.00276359,0.0185628,636,1135,-2.49733,-0.999935
-581,-111,-2.52856,0.856445,-0.00204296,-0.000983259,-0.00227322,0.00082104,-0.00384726,-0.899896,0.00287783,0.0294547,643,1135,-2.52857,-0.856394
-574,-111,-2.59937,0.734741,-0.00212818,-0.0010038,-0.00212191,0.00062914,-0.00376111,-0.914895,0.00274129,0.0411453,650,1135,-2.59938,-0.734701
-567,-111,-2.59644,0.610718,-0.00202096,-0.000931529,-0.00187255,0.00047392,-0.00342641,-0.92694,0.00245753,0.0386054,657,1135,-2.59645,-0.610674
-560,-111,-2.55756,0.414185,-0.00178603,-0.000754745,-0.00137903,0.000201894,-0.00274267,-0.964309,0.00189933,0.0376508,664,1135,-2.55757,-0.414233
-553,-111,-2.53729,0.256348,-0.00142677,-0.000454585,-0.000606616,-0.000163329,-0.00171802,-1.12317,0.00109497,0.0421587,671,1135,-2.53729,-0.25639
-546,-111,-2.63531,0.511475,-0.000977764,-2.83832e-05,0.00048324,0.000174313,-0.00118046,1.17363,0.000851049,0.040116,678,1135,-2.63534,-0.511438
-539,-111,-2.74591,1.04553,0,0,0,0,0,0,0,-1,685,1135,-2.7459,-1.0455
-532,-111,-2.51471,0.642578,-0.000184873,0.00115932,0.00357298,0.00412286,-0.00314841,0.878365,0.00421062,0.0409049,692,1135,-2.51472,-0.642576
-525,-111,-2.68781,0.75415,-0.00067994,0.00177583,0.00505467,0.00574962,-0.00465373,0.904551,0.00601747,0.0376452,699,1135,-2.68782,-0.754114
-518,-111,0,0,0,0,0,0,0,0,0,-1,706,1135,0,0
-511,-111,0,0,0,0,0,0,0,0,0,-1,713,1135,0,0
-504,-111,0,0,0,0,0,0,0,0,0,-1,720,1135,0,0
-497,-111,0,0,0,0,0,0,0,0,0,-1,727,1135,0,0
-490,-111,0,0,0,0,0,0,0,0,0,-1,734,1135,0,0
-483,-111,0,0,0,0,0,0,0,0,0,-1,741,1135,0,0
-476,-111,0,0,0,0,0,0,0,0,0,-1,748,1135,0,0
-469,-111,0,0,0,0,0,0,0,0,0,-1,755,1135,0,0
-462,-111,0,0,0,0,0,0,0,0,0,-1,762,1135,0,0
-455,-111,0,0,0,0,0,0,0,0,0,-1,769,1135,0,0
-448,-111,0,0,0,0,0,0,0,0,0,-1,776,1135,0,0
-441,-111,0,0,0,0,0,0,0,0,0,-1,783,1135,0,0
-434,-111,0,0,0,0,0,0,0,0,0,-1,790,1135,0,0
-427,-111,0,0,0,0,0,0,0,0,0,-1,797,1135,0,0
-420,-111,0,0,0,0,0,0,0,0,0,-1,804,1135,0,0
-413,-111,0,0,0,0,0,0,0,0,0,-1,811,1135,0,0
-406,-111,0,0,0,0,0,0,0,0,0,-1,818,1135,0,0
-399,-111,0,0,0,0,0,0,0,0,0,-1,825,1135,0,0
-392,-111,0,0,0,0,0,0,0,0,0,-1,832,1135,0,0
-385,-111,0,0,0,0,0,0,0,0,0,-1,839,1135,0,0
-378,-111,0,0,0,0,0,0,0,0,0,-1,846,1135,0,0
-371,-111,0,0,0,0,0,0,0,0,0,-1,853,1135,0,0
-364,-111,0,0,0,0,0,0,0,0,0,-1,860,1135,0,0
-357,-111,0,0,0,0,0,0,0,0,0,-1,867,1135,0,0
-350,-111,0,0,0,0,0,0,0,0,0,-1,874,1135,0,0
-343,-111,0,0,0,0,0,0,0,0,0,-1,881,1135,0,0
-336,-111,0,0,0,0,0,0,0,0,0,-1,888,1135,0,0
-329,-111,0,0,0,0,0,0,0,0,0,-1,895,1135,0,0
-322,-111,0,0,0,0,0,0,0,0,0,-1,902,1135,0,0
-315,-111,0,0,0,0,0,0,0,0,0,-1,909,1135,0,0
-308,-111,0,0,0,0,0,0,0,0,0,-1,916,1135,0,0
-301,-111,0,0,0,0,0,0,0,0,0,-1,923,1135,0,0
-294,-111,0,0,0,0,0,0,0,0,0,-1,930,1135,0,0
-287,-111,0,0,0,0,0,0,0,0,0,-1,937,1135,0,0
-280,-111,0,0,0,0,0,0,0,0,0,-1,944,1135,0,0
-273,-111,0,0,0,0,0,0,0,0,0,-1,951,1135,0,0
-266,-111,0,0,0,0,0,0,0,0,0,-1,958,1135,0,0
-259,-111,0,0,0,0,0,0,0,0,0,-1,965,1135,0,0
-252,-111,0,0,0,0,0,0,0,0,0,-1,972,1135,0,0
-245,-111,0,0,0,0,0,0,0,0,0,-1,979,1135,0,0
-238,-111,0,0,0,0,0,0,0,0,0,-1,986,1135,0,0
-231,-111,0,0,0,0,0,0,0,0,0,-1,993,1135,0,0
-224,-111,0,0,0,0,0,0,0,0,0,-1,1000,1135,0,0
-217,-111,0,0,0,0,0,0,0,0,0,-1,1007,1135,0,0
-210,-111,0,0,0,0,0,0,0,0,0,-1,1014,1135,0,0
-203,-111,0,0,0,0,0,0,0,0,0,-1,1021,1135,0,0
-196,-111,0,0,0,0,0,0,0,0,0,-1,1028,1135,0,0
-189,-111,0,0,0,0,0,0,0,0,0,-1,1035,1135,0,0
-182,-111,0,0,0,0,0,0,0,0,0,-1,1042,1135,0,0
-175,-111,0,0,0,0,0,0,0,0,0,-1,1049,1135,0,0
-168,-111,0,0,0,0,0,0,0,0,0,-1,1056,1135,0,0
-161,-111,0,0,0,0,0,0,0,0,0,-1,1063,1135,0,0
-154,-111,0,0,0,0,0,0,0,0,0,-1,1070,1135,0,0
-147,-111,0,0,0,0,0,0,0,0,0,-1,1077,1135,0,0
-140,-111,0,0,0,0,0,0,0,0,0,-1,1084,1135,0,0
-133,-111,0,0,0,0,0,0,0,0,0,-1,1091,1135,0,0
-126,-111,0,0,0,0,0,0,0,0,0,-1,1098,1135,0,0
-119,-111,0,0,0,0,0,0,0,0,0,-1,1105,1135,0,0
-112,-111,0,0,0,0,0,0,0,0,0,-1,1112,1135,0,0
-105,-111,0,0,0,0,0,0,0,0,0,-1,1119,1135,0,0
-98,-111,0,0,0,0,0,0,0,0,0,-1,1126,1135,0,0
-91,-111,0,0,0,0,0,0,0,0,0,-1,1133,1135,0,0
-84,-111,0,0,0,0,0,0,0,0,0,-1,1140,1135,0,0
-77,-111,0,0,0,0,0,0,0,0,0,-1,1147,1135,0,0
-70,-111,0,0,0,0,0,0,0,0,0,-1,1154,1135,0,0
-63,-111,0,0,0,0,0,0,0,0,0,-1,1161,1135,0,0
-56,-111,0,0,0,0,0,0,0,0,0,-1,1168,1135,0,0
-49,-111,0,0,0,0,0,0,0,0,0,-1,1175,1135,0,0
-42,-111,0,0,0,0,0,0,0,0,0,-1,1182,1135,0,0
-35,-111,0,0,0,0,0,0,0,0,0,-1,1189,1135,0,0
-28,-111,0,0,0,0,0,0,0,0,0,-1,1196,1135,0,0
-21,-111,0,0,0,0,0,0,0,0,0,-1,1203,1135,0,0
-14,-111,0,0,0,0,0,0,0,0,0,-1,1210,1135,0,0
-7,-111,0,0,0,0,0,0,0,0,0,-1,1217,1135,0,0
0,-111,0,0,0,0,0,0,0,0,0,-1,1224,1135,0,0
7,-111,0,0,0,0,0,0,0,0,0,-1,1231,1135,0,0
14,-111,0,0,0,0,0,0,0,0,0,-1,1238,1135,0,0
21,-111,0,0,0,0,0,0,0,0,0,-1,1245,1135,0,0
28,-111,0,0,0,0,0,0,0,0,0,-1,1252,1135,0,0
35,-111,0,0,0,0,0,0,0,0,0,-1,1259,1135,0,0
42,-111,0,0,0,0,0,0,0,0,0,-1,1266,1135,0,0
49,-111,0,0,0,0,0,0,0,0,0,-1,1273,1135,0,0
56,-111,0,0,0,0,0,0,0,0,0,-1,1280,1135,0,0
63,-111,0,0,0,0,0,0,0,0,0,-1,1287,1135,0,0
70,-111,0,0,0,0,0,0,0,0,0,-1,1294,1135,0,0
77,-111,0,0,0,0,0,0,0,0,0,-1,1301,1135,0,0
84,-111,0,0,0,0,0,0,0,0,0,-1,1308,1135,0,0
91,-111,0,0,0,0,0,0,0,0,0,-1,1315,1135,0,0
98,-111,0,0,0,0,0,0,0,0,0,-1,1322,1135,0,0
105,-111,0,0,0,0,0,0,0,0,0,-1,1329,1135,0,0
112,-111,0,0,0,0,0,0,0,0,0,-1,1336,1135,0,0
119,-111,0,0,0,0,0,0,0,0,0,-1,1343,1135,0,0
126,-111,0,0,0,0,0,0,0,0,0,-1,1350,1135,0,0
133,-111,0,0,0,0,0,0,0,0,0,-1,1357,1135,0,0
140,-111,0,0,0,0,0,0,0,0,0,-1,1364,1135,0,0
147,-111,0,0,0,0,0,0,0,0,0,-1,1371,1135,0,0
154,-111,0,0,0,0,0,0,0,0,0,-1,1378,1135,0,0
161,-111,0,0,0,0,0,0,0,0,0,-1,1385,1135,0,0
168,-111,0,0,0,0,0,0,0,0,0,-1,1392,1135,0,0
175,-111,0,0,0,0,0,0,0,0,0,-1,1399,1135,0,0
182,-111,0,0,0,0,0,0,0,0,0,-1,1406,1135,0,0
189,-111,0,0,0,0,0,0,0,0,0,-1,1413,1135,0,0
196,-111,0,0,0,0,0,0,0,0,0,-1,1420,1135,0,0
203,-111,0,0,0,0,0,0,0,0,0,-1,1427,1135,0,0
210,-111,0,0,0,0,0,0,0,0,0,-1,1434,1135,0,0
217,-111,0,0,0,0,0,0,0,0,0,-1,1441,1135,0,0
224,-111,0,0,0,0,0,0,0,0,0,-1,1448,1135,0,0
231,-111,0,0,0,0,0,0,0,0,0,-1,1455,1135,0,0
238,-111,0,0,0,0,0,0,0,0,0,-1,1462,1135,0,0
245,-111,0,0,0,0,0,0,0,0,0,-1,1469,1135,0,0
252,-111,0,0,0,0,0,0,0,0,0,-1,1476,1135,0,0
259,-111,0,0,0,0,0,0,0,0,0,-1,1483,1135,0,0
266,-111,0,0,0,0,0,0,0,0,0,-1,1490,1135,0,0
273,-111,0,0,0,0,0,0,0,0,0,-1,1497,1135,0,0
280,-111,0,0,0,0,0,0,0,0,0,-1,1504,1135,0,0
287,-111,0,0,0,0,0,0,0,0,0,-1,1511,1135,0,0
294,-111,0,0,0,0,0,0,0,0,0,-1,1518,1135,0,0
301,-111,0,0,0,0,0,0,0,0,0,-1,1525,1135,0,0
308,-111,0,0,0,0,0,0,0,0,0,-1,1532,1135,0,0
315,-111,0,0,0,0,0,0,0,0,0,-1,1539,1135,0,0
322,-111,0,0,0,0,0,0,0,0,0,-1,1546,1135,0,0
329,-111,0,0,0,0,0,0,0,0,0,-1,1553,1135,0,0
336,-111,0,0,0,0,0,0,0,0,0,-1,1560,1135,0,0
343,-111,0,0,0,0,0,0,0,0,0,-1,1567,1135,0,0
350,-111,0,0,0,0,0,0,0,0,0,-1,1574,1135,0,0
357,-111,0,0,0,0,0,0,0,0,0,-1,1581,1135,0,0
364,-111,0,0,0,0,0,0,0,0,0,-1,1588,1135,0,0
371,-111,0,0,0,0,0,0,0,0,0,-1,1595,1135,0,0
378,-111,0,0,0,0,0,0,0,0,0,-1,1602,1135,0,0
385,-111,0,0,0,0,0,0,0,0,0,-1,1609,1135,0,0
392,-111,0,0,0,0,0,0,0,0,0,-1,1616,1135,0,0
399,-111,0,0,0,0,0,0,0,0,0,-1,1623,1135,0,0
406,-111,0,0,0,0,0,0,0,0,0,-1,1630,1135,0,0
413,-111,0,0,0,0,0,0,0,0,0,-1,1637,1135,0,0
420,-111,0,0,0,0,0,0,0,0,0,-1,1644,1135,0,0
427,-111,0,0,0,0,0,0,0,0,0,-1,1651,1135,0,0
434,-111,0,0,0,0,0,0,0,0,0,-1,1658,1135,0,0
441,-111,0,0,0,0,0,0,0,0,0,-1,1665,1135,0,0
448,-111,0,0,0,0,0,0,0,0,0,-1,1672,1135,0,0
455,-111,0,0,0,0,0,0,0,0,0,-1,1679,1135,0,0
462,-111,0,0,0,0,0,0,0,0,0,-1,1686,1135,0,0
469,-111,0,0,0,0,0,0,0,0,0,-1,1693,1135,0,0
476,-111,0,0,0,0,0,0,0,0,0,-1,1700,1135,0,0
483,-111,0,0,0,0,0,0,0,0,0,-1,1707,1135,0,0
490,-111,0,0,0,0,0,0,0,0,0,-1,1714,1135,0,0
497,-111,0,0,0,0,0,0,0,0,0,-1,1721,1135,0,0
504,-111,0,0,0,0,0,0,0,0,0,-1,1728,1135,0,0
511,-111,0,0,0,0,0,0,0,0,0,-1,1735,1135,0,0
518,-111,0,0,0,0,0,0,0,0,0,-1,1742,1135,0,0
525,-111,0,0,0,0,0,0,0,0,0,-1,1749,1135,0,0
532,-111,0,0,0,0,0,0,0,0,0,-1,1756,1135,0,0
539,-111,0,0,0,0,0,0,0,0,0,-1,1763,1135,0,0
546,-111,0,0,0,0,0,0,0,0,0,-1,1770,1135,0,0
553,-111,0,0,0,0,0,0,0,0,0,-1,1777,1135,0,0
560,-111,0,0,0,0,0,0,0,0,0,-1,1784,1135,0,0
567,-111,0,0,0,0,0,0,0,0,0,-1,1791,1135,0,0
574,-111,0,0,0,0,0,0,0,0,0,-1,1798,1135,0,0
581,-111,0,0,0,0,0,0,0,0,0,-1,1805,1135,0,0
588,-111,0,0,0,0,0,0,0,0,0,-1,1812,1135,0,0
595,-111,0,0,0,0,0,0,0,0,0,-1,1819,1135,0,0
602,-111,0,0,0,0,0,0,0,0,0,-1,1826,1135,0,0
609,-111,0,0,0,0,0,0,0,0,0,-1,1833,1135,0,0
616,-111,0,0,0,0,0,0,0,0,0,-1,1840,1135,0,0
623,-111,0,0,0,0,0,0,0,0,0,-1,1847,1135,0,0
630,-111,0,0,0,0,0,0,0,0,0,-1,1854,1135,0,0
637,-111,0,0,0,0,0,0,0,0,0,-1,1861,1135,0,0
644,-111,7.11487,1.08203,0.00193163,7.69079e-05,-0.000652092,0.00213795,-0.000129407,-0.306425,0.00147033,0.0392496,1868,1135,7.1149,-1.08202
651,-111,7.15881,1.11487,0.00168884,0.000294558,-0.000507564,0.00185404,0.000129361,-0.314657,0.00119524,0.0405027,1875,1135,7.15877,-1.1149
658,-111,7.28967,1.18555,0.00144145,0.000413888,-0.000438481,0.00160312,0.000252216,-0.353244,0.000995386,0.0453788,1882,1135,7.28965,-1.18558
665,-111,7.42944,0.667603,0.000894817,0.000324584,-0.000169183,0.000941234,0.000278167,-0.26777,0.000558362,0.0453828,1889,1135,7.42944,-0.66755
672,-111,7.37793,0.811646,0.00016155,0.000101767,0.000275815,0.000409088,-0.000145772,0.731421,0.000332155,0.0434712,1896,1135,7.37789,-0.811588
679,-111,7.16443,0.963623,-0.000542344,-0.000148292,0.000703618,0.000385365,-0.001076,0.921911,0.000874563,0.03976,1903,1135,7.16445,-0.963569
686,-111,7.11536,1.04773,-0.00112944,-0.00040233,0.0010914,0.000384477,-0.00191624,0.946172,0.00142307,0.0365685,1910,1135,7.11531,-1.04772
693,-111,7.10583,1.05029,-0.00160565,-0.000602068,0.00140625,0.000389241,-0.00259696,0.95677,0.00187457,0.0348041,1917,1135,7.10585,-1.05034
700,-111,7.18408,1.0166,-0.00195094,-0.000770805,0.0016548,0.000395985,-0.00311773,0.95666,0.00222227,0.0247973,1924,1135,7.18408,-1.01659
707,-111,7.21021,1.04614,-0.00217436,-0.00086479,0.00185806,0.000450484,-0.00348963,0.954804,0.0024902,0.0329485,1931,1135,7.21016,-1.0461
714,-111,7.06531,1.16394,-0.00233924,-0.000908046,0.00193161,0.000436259,-0.00368355,0.962793,0.00261328,0.0164012,1938,1135,7.06525,-1.16397
721,-111,6.99561,1.27051,-0.00237056,-0.000880054,0.00185472,0.000373542,-0.00362416,0.976433,0.00254976,0.011889,1945,1135,6.99558,-1.27051
728,-111,7.01538,1.24109,-0.00229171,-0.000797234,0.00181421,0.000417603,-0.00350655,0.980751,0.0024886,0.0146674,1952,1135,7.01535,-1.24103
735,-111,7.00586,1.21887,-0.0024468,-0.000623523,0.00177444,0.000459764,-0.00353009,1.0227,0.00252066,0.0140681,1959,1135,7.00591,-1.21885
742,-111,7.01208,1.22583,-0.00310537,-0.000422758,0.00116155,1.02834e-05,-0.00353841,1.21395,0.00236238,0.0106174,1966,1135,7.01213,-1.22583
749,-111,6.98352,1.21472,-0.00267027,-0.00020007,0.000485747,-0.000107984,-0.00276236,1.38344,0.00180665,0.0145695,1973,1135,6.98348,-1.21475
756,-111,6.97156,1.18298,-0.000952538,5.68024e-05,-0.000361866,0.000173131,-0.00106887,-1.25976,0.000776746,0.0153154,1980,1135,6.97155,-1.18303
763,-111,6.98535,1.17078,0.00138147,0.000465336,-0.00167948,0.00266423,-0.000817426,-0.652265,0.00210229,0.0123851,1987,1135,6.98538,-1.17081
770,-111,6.99817,1.17261,0.00403463,0.000819033,-0.00306492,0.00588787,-0.0010342,-0.543839,0.00431152,0.00949081,1994,1135,6.99811,-1.1726
777,-111,6.97559,1.15491,0.00814792,0.00118034,-0.00464658,0.0104717,-0.00114341,-0.463726,0.00739178,0.0221775,2001,1135,6.97563,-1.15495
784,-111,6.88367,1.2373,0.0145186,0.00166483,-0.00656218,0.0172769,-0.00109344,-0.397907,0.0118991,0.0409511,2008,1135,6.88362,-1.23731
791,-111,6.36536,1.21716,0.0240815,0.00234994,-0.00884681,0.0272276,-0.000796105,-0.341667,0.0184228,0.0459828,2015,1135,6.36534,-1.21722
798,-111,5.92834,0.893921,0.0378461,0.00334685,-0.0113994,0.0412724,-7.95126e-05,-0.291983,0.0275415,0.0491339,2022,1135,5.92834,-0.893936
805,-111,5.59253,0.572754,0,0,0,0,0,0,0,-1,2029,1135,5.59247,-0.572801
812,-111,5.05457,0.0800781,0,0,0,0,0,0,0,-1,2036,1135,5.0546,-0.0800467
-700,-118,0,0,0,0,0,0,0,0,0,-1,524,1142,0,0
-693,-118,-1.45703,0.491211,-0.0293184,0.0951571,0.0681931,0.125244,-0.0594053,1.15528,0.108843,0.0452216,531,1142,-1.457,-0.491213
-686,-118,-1.93268,0.718628,-0.0104566,0.0886185,0.0543007,0.112583,-0.0344209,1.15518,0.0887816,0.0429834,538,1142,-1.93268,-0.718655
-679,-118,-2.37653,0.618042,0,0,0,0,0,0,0,-1,545,1142,-2.37651,-0.61804
-672,-118,-2.48926,0.124878,0,0,0,0,0,0,0,-1,552,1142,-2.48929,-0.124898
-665,-118,-2.36493,0.272827,0,0,0,0,0,0,0,-1,559,1142,-2.36491,-0.272881
-658,-118,-2.07983,0.593018,0.0113443,0.0467897,0.0143576,0.0518757,0.00625828,1.23035,0.0326979,0.0448961,566,1142,-2.07981,-0.592998
-651,-118,-2.2865,0.644165,0.0103486,0.036417,0.00854528,0.0389684,0.0077972,1.28064,0.0238093,0.0383681,573,1142,-2.28649,-0.644129
-644,-118,-2.44098,0.685669,0.0084505,0.0271649,0.0044546,0.0281711,0.00744428,1.34864,0.0168565,0.0246673,580,1142,-2.44099,-0.685706
-637,-118,-2.47089,0.766113,0.00795018,0.0186259,0.000767623,0.0186808,0.00789527,1.49938,0.0108283,0.0131704,587,1142,-2.47089,-0.766114
-630,-118,-2.46252,0.780518,0.00638663,0.0116431,-0.00138727,0.0119867,0.00604297,-1.32796,0.00692062,0.0156998,594,1142,-2.46252,-0.78048
-623,-118,-2.44696,0.79126,0.00322762,0.00743124,-0.00159862,0.0079701,0.00268875,-1.24567,0.00468199,0.0143707,601,1142,-2.44696,-0.791211
-616,-118,-2.46771,0.814941,-0.000449385,0.00498353,-0.00250996,0.00596559,-0.00143145,-1.19784,0.00453023,0.0127445,608,1142,-2.46771,-0.814887
-609,-118,-2.46893,0.850098,-0.00160036,0.00250144,-0.00231094,0.0035403,-0.00263923,-1.14832,0.00358037,0.0116819,615,1142,-2.46894,-0.85015
-602,-118,-2.47479,0.891479,-0.0018763,-0.000628043,-0.00176537,0.000620281,-0.00312463,-0.95531,0.00231768,0.011392,622,1142,-2.4748,-0.891473
-595,-118,-2.49518,0.928345,-0.00218654,-0.00101417,-0.00183203,0.000323168,-0.00352388,-0.940234,0.00246405,0.0097432,629,1142,-2.49519,-0.928384
-588,-118,-2.4519,0.983154,-0.00232165,-0.00114865,-0.00214092,0.000484652,-0.00395496,-0.919091,0.00281214,0.0139814,636,1142,-2.45193,-0.983105
-581,-118,-2.5332,0.973267,-0.00240626,-0.00113333,-0.00229146,0.000608417,-0.00414801,-0.920862,0.00298886,0.034322,643,1142,-2.53322,-0.973223
-574,-118,-2.57629,0.721069,-0.00249764,-0.0010978,-0.00216389,0.000476546,-0.00407199,-0.941815,0.00288665,0.0425892,650,1142,-2.57629,-0.721009
-567,-118,-2.56531,0.590698,-0.00239438,-0.000948834,-0.00194744,0.000405632,-0.00374885,-0.963089,0.00264483,0.0406302,657,1142,-2.56531,-0.590659
-560,-118,-2.56775,0.60498,-0.00213266,-0.00065179,-0.0015181,0.000296821,-0.00308127,-1.01229,0.00215993,0.0345517,664,1142,-2.56775,-0.604931
-553,-118,-2.56006,0.651123,-0.00171107,-0.000166253,-0.000814518,0.00018386,-0.00206118,-1.16483,0.00143933,0.0377814,671,1142,-2.56009,-0.651124
-546,-118,-2.4743,0.710083,-0.0011596,0.000518831,0.000212143,0.000545229,-0.001186,1.447,0.00102209,0.0380324,678,1142,-2.47431,-0.710114
-539,-118,-2.43933,1.03088,-0.000523886,0.00141719,0.00161608,0.00233176,-0.00143846,1.05581,0.00219701,0.0406446,685,1142,-2.43933,-1.03091
-532,-118,-2.53174,0.777954,-1.19886e-05,0.0025007,0.00331382,0.00478833,-0.00229963,0.966588,0.00417547,0.0420289,692,1142,-2.53174,-0.777897
-525,-118,-2.69373,0.909424,-0.00023427,0.00366222,0.00500082,0.0070809,-0.00365295,0.971146,0.00630165,0.0419731,699,1142,-2.69371,-0.909436
-518,-118,0,0,0,0,0,0,0,0,0,-1,706,1142,0,0
-511,-118,0,0,0,0,0,0,0,0,0,-1,713,1142,0,0
-504,-118,0,0,0,0,0,0,0,0,0,-1,720,1142,0,0
-497,-118,0,0,0,0,0,0,0,0,0,-1,727,1142,0,0
-490,-118,0,0,0,0,0,0,0,0,0,-1,734,1142,0,0
-483,-118,0,0,0,0,0,0,0,0,0,-1,741,1142,0,0
-476,-118,0,0,0,0,0,0,0,0,0,-1,748,1142,0,0
-469,-118,0,0,0,0,0,0,0,0,0,-1,755,1142,0,0
-462,-118,0,0,0,0,0,0,0,0,0,-1,762,1142,0,0
-455,-118,0,0,0,0,0,0,0,0,0,-1,769,1142,0,0
-448,-118,0,0,0,0,0,0,0,0,0,-1,776,1142,0,0
-441,-118,0,0,0,0,0,0,0,0,0,-1,783,1142,0,0
-434,-118,0,0,0,0,0,0,0,0,0,-1,790,1142,0,0
-427,-118,0,0,0,0,0,0,0,0,0,-1,797,1142,0,0
-420,-118,0,0,0,0,0,0,0,0,0,-1,804,1142,0,0
-413,-118,0,0,0,0,0,0,0,0,0,-1,811,1142,0,0
-406,-118,0,0,0,0,0,0,0,0,0,-1,818,1142,0,0
-399,-118,0,0,0,0,0,0,0,0,0,-1,825,1142,0,0
-392,-118,0,0,0,0,0,0,0,0,0,-1,832,1142,0,0
-385,-118,0,0,0,0,0,0,0,0,0,-1,839,1142,0,0
-378,-118,0,0,0,0,0,0,0,0,0,-1,846,1142,0,0
-371,-118,0,0,0,0,0,0,0,0,0,-1,853,1142,0,0
-364,-118,0,0,0,0,0,0,0,0,0,-1,860,1142,0,0
-357,-118,0,0,0,0,0,0,0,0,0,-1,867,1142,0,0
-350,-118,0,0,0,0,0,0,0,0,0,-1,874,1142,0,0
-343,-118,0,0,0,0,0,0,0,0,0,-1,881,1142,0,0
-336,-118,0,0,0,0,0,0,0,0,0,-1,888,1142,0,0
-329,-118,0,0,0,0,0,0,0,0,0,-1,895,1142,0,0
-322,-118,0,0,0,0,0,0,0,0,0,-1,902,1142,0,0
-315,-118,0,0,0,0,0,0,0,0,0,-1,909,1142,0,0
-308,-118,0,0,0,0,0,0,0,0,0,-1,916,1142,0,0
-301,-118,0,0,0,0,0,0,0,0,0,-1,923,1142,0,0
-294,-118,0,0,0,0,0,0,0,0,0,-1,930,1142,0,0
-287,-118,0,0,0,0,0,0,0,0,0,-1,937,1142,0,0
-280,-118,0,0,0,0,0,0,0,0,0,-1,944,1142,0,0
-273,-118,0,0,0,0,0,0,0,0,0,-1,951,1142,0,0
-266,-118,0,0,0,0,0,0,0,0,0,-1,958,1142,0,0
-259,-118,0,0,0,0,0,0,0,0,0,-1,965,1142,0,0
-252,-118,0,0,0,0,0,0,0,0,0,-1,972,1142,0,0
-245,-118,0,0,0,0,0,0,0,0,0,-1,979,1142,0,0
-238,-118,0,0,0,0,0,0,0,0,0,-1,986,1142,0,0
-231,-118,0,0,0,0,0,0,0,0,0,-1,993,1142,0,0
-224,-118,0,0,0,0,0,0,0,0,0,-1,1000,1142,0,0
-217,-118,0,0,0,0,0,0,0,0,0,-1,1007,1142,0,0
-210,-118,0,0,0,0,0,0,0,0,0,-1,1014,1142,0,0
-203,-118,0,0,0,0,0,0,0,0,0,-1,1021,1142,0,0
-196,-118,0,0,0,0,0,0,0,0,0,-1,1028,1142,0,0
-189,-118,0,0,0,0,0,0,0,0,0,-1,1035,1142,0,0
-182,-118,0,0,0,0,0,0,0,0,0,-1,1042,1142,0,0
-175,-118,0,0,0,0,0,0,0,0,0,-1,1049,1142,0,0
-168,-118,0,0,0,0,0,0,0,0,0,-1,1056,1142,0,0
-161,-118,0,0,0,0,0,0,0,0,0,-1,1063,1142,0,0
-154,-118,0,0,0,0,0,0,0,0,0,-1,1070,1142,0,0
-147,-118,0,0,0,0,0,0,0,0,0,-1,1077,1142,0,0
-140,-118,0,0,0,0,0,0,0,0,0,-1,1084,1142,0,0
-133,-118,0,0,0,0,0,0,0,0,0,-1,1091,1142,0,0
-126,-118,0,0,0,0,0,0,0,0,0,-1,1098,1142,0,0
-119,-118,0,0,0,0,0,0,0,0,0,-1,1105,1142,0,0
-112,-118,0,0,0,0,0,0,0,0,0,-1,1112,1142,0,0
-105,-118,0,0,0,0,0,0,0,0,0,-1,1119,1142,0,0
-98,-118,0,0,0,0,0,0,0,0,0,-1,1126,1142,0,0
-91,-118,0,0,0,0,0,0,0,0,0,-1,1133,1142,0,0
-84,-118,0,0,0,0,0,0,0,0,0,-1,1140,1142,0,0
-77,-118,0,0,0,0,0,0,0,0,0,-1,1147,1142,0,0
-70,-118,0,0,0,0,0,0,0,0,0,-1,1154,1142,0,0
-63,-118,0,0,0,0,0,0,0,0,0,-1,1161,1142,0,0
-56,-118,0,0,0,0,0,0,0,0,0,-1,1168,1142,0,0
-49,-118,0,0,0,0,0,0,0,0,0,-1,1175,1142,0,0
-42,-118,0,0,0,0,0,0,0,0,0,-1,1182,1142,0,0
-35,-118,0,0,0,0,0,0,0,0,0,-1,1189,1142,0,0
-28,-118,0,0,0,0,0,0,0,0,0,-1,1196,1142,0,0
-21,-118,0,0,0,0,0,0,0,0,0,-1,1203,1142,0,0
-14,-118,0,0,0,0,0,0,0,0,0,-1,1210,1142,0,0
-7,-118,0,0,0,0,0,0,0,0,0,-1,1217,1142,0,0
0,-118,0,0,0,0,0,0,0,0,0,-1,1224,1142,0,0
7,-118,0,0,0,0,0,0,0,0,0,-1,1231,1142,0,0
14,-118,0,0,0,0,0,0,0,0,0,-1,1238,1142,0,0
21,-118,0,0,0,0,0,0,0,0,0,-1,1245,1142,0,0
28,-118,0,0,0,0,0,0,0,0,0,-1,1252,1142,0,0
35,-118,0,0,0,0,0,0,0,0,0,-1,1259,1142,0,0
42,-118,0,0,0,0,0,0,0,0,0,-1,1266,1142,0,0
49,-118,0,0,0,0,0,0,0,0,0,-1,1273,1142,0,0
56,-118,0,0,0,0,0,0,0,0,0,-1,1280,1142,0,0
63,-118,0,0,0,0,0,0,0,0,0,-1,1287,1142,0,0
70,-118,0,0,0,0,0,0,0,0,0,-1,1294,1142,0,0
77,-118,0,0,0,0,0,0,0,0,0,-1,1301,1142,0,0
84,-118,0,0,0,0,0,0,0,0,0,-1,1308,1142,0,0
91,-118,0,0,0,0,0,0,0,0,0,-1,1315,1142,0,0
98,-118,0,0,0,0,0,0,0,0,0,-1,1322,1142,0,0
105,-118,0,0,0,0,0,0,0,0,0,-1,1329,1142,0,0
112,-118,0,0,0,0,0,0,0,0,0,-1,1336,1142,0,0
119,-118,0,0,0,0,0,0,0,0,0,-1,1343,1142,0,0
126,-118,0,0,0,0,0,0,0,0,0,-1,1350,1142,0,0
133,-118,0,0,0,0,0,0,0,0,0,-1,1357,1142,0,0
140,-118,0,0,0,0,0,0,0,0,0,-1,1364,1142,0,0
147,-118,0,0,0,0,0,0,0,0,0,-1,1371,1142,0,0
154,-118,0,0,0,0,0,0,0,0,0,-1,1378,1142,0,0
161,-118,0,0,0,0,0,0,0,0,0,-1,1385,1142,0,0
168,-118,0,0,0,0,0,0,0,0,0,-1,1392,1142,0,0
175,-118,0,0,0,0,0,0,0,0,0,-1,1399,1142,0,0
182,-118,0,0,0,0,0,0,0,0,0,-1,1406,1142,0,0
189,-118,0,0,0,0,0,0,0,0,0,-1,1413,1142,0,0
196,-118,0,0,0,0,0,0,0,0,0,-1,1420,1142,0,0
203,-118,0,0,0,0,0,0,0,0,0,-1,1427,1142,0,0
210,-118,0,0,0,0,0,0,0,0,0,-1,1434,1142,0,0
217,-118,0,0,0,0,0,0,0,0,0,-1,1441,1142,0,0
224,-118,0,0,0,0,0,0,0,0,0,-1,1448,1142,0,0
231,-118,0,0,0,0,0,0,0,0,0,-1,1455,1142,0,0
238,-118,0,0,0,0,0,0,0,0,0,-1,1462,1142,0,0
245,-118,0,0,0,0,0,0,0,0,0,-1,1469,1142,0,0
252,-118,0,0,0,0,0,0,0,0,0,-1,1476,1142,0,0
259,-118,0,0,0,0,0,0,0,0,0,-1,1483,1142,0,0
266,-118,0,0,0,0,0,0,0,0,0,-1,1490,1142,0,0
273,-118,0,0,0,0,0,0,0,0,0,-1,1497,1142,0,0
280,-118,0,0,0,0,0,0,0,0,0,-1,1504,1142,0,0
287,-118,0,0,0,0,0,0,0,0,0,-1,1511,1142,0,0
294,-118,0,0,0,0,0,0,0,0,0,-1,1518,1142,0,0
301,-118,0,0,0,0,0,0,0,0,0,-1,1525,1142,0,0
308,-118,0,0,0,0,0,0,0,0,0,-1,1532,1142,0,0
315,-118,0,0,0,0,0,0,0,0,0,-1,1539,1142,0,0
322,-118,0,0,0,0,0,0,0,0,0,-1,1546,1142,0,0
329,-118,0,0,0,0,0,0,0,0,0,-1,1553,1142,0,0
336,-118,0,0,0,0,0,0,0,0,0,-1,1560,1142,0,0
343,-118,0,0,0,0,0,0,0,0,0,-1,1567,1142,0,0
350,-118,0,0,0,0,0,0,0,0,0,-1,1574,1142,0,0
357,-118,0,0,0,0,0,0,0,0,0,-1,1581,1142,0,0
364,-118,0,0,0,0,0,0,0,0,0,-1,1588,1142,0,0
371,-118,0,0,0,0,0,0,0,0,0,-1,1595,1142,0,0
378,-118,0,0,0,0,0,0,0,0,0,-1,1602,1142,0,0
385,-118,0,0,0,0,0,0,0,0,0,-1,1609,1142,0,0
392,-118,0,0,0,0,0,0,0,0,0,-1,1616,1142,0,0
399,-118,0,0,0,0,0,0,0,0,0,-1,1623,1142,0,0
406,-118,0,0,0,0,0,0,0,0,0,-1,1630,1142,0,0
413,-118,0,0,0,0,0,0,0,0,0,-1,1637,1142,0,0
420,-118,0,0,0,0,0,0,0,0,0,-1,1644,1142,0,0
427,-118,0,0,0,0,0,0,0,0,0,-1,1651,1142,0,0
434,-118,0,0,0,0,0,0,0,0,0,-1,1658,1142,0,0
441,-118,0,0,0,0,0,0,0,0,0,-1,1665,1142,0,0
448,-118,0,0,0,0,0,0,0,0,0,-1,1672,1142,0,0
455,-118,0,0,0,0,0,0,0,0,0,-1,1679,1142,0,0
462,-118,0,0,0,0,0,0,0,0,0,-1,1686,1142,0,0
469,-118,0,0,0,0,0,0,0,0,0,-1,1693,1142,0,0
476,-118,0,0,0,0,0,0,0,0,0,-1,1700,1142,0,0
483,-118,0,0,0,0,0,0,0,0,0,-1,1707,1142,0,0
490,-118,0,0,0,0,0,0,0,0,0,-1,1714,1142,0,0
497,-118,0,0,0,0,0,0,0,0,0,-1,1721,1142,0,0
504,-118,0,0,0,0,0,0,0,0,0,-1,1728,1142,0,0
511,-118,0,0,0,0,0,0,0,0,0,-1,1735,1142,0,0
518,-118,0,0,0,0,0,0,0,0,0,-1,1742,1142,0,0
525,-118,0,0,0,0,0,0,0,0,0,-1,1749,1142,0,0
532,-118,0,0,0,0,0,0,0,0,0,-1,1756,1142,0,0
539,-118,0,0,0,0,0,0,0,0,0,-1,1763,1142,0,0
546,-118,0,0,0,0,0,0,0,0,0,-1,1770,1142,0,0
553,-118,0,0,0,0,0,0,0,0,0,-1,1777,1142,0,0
560,-118,0,0,0,0,0,0,0,0,0,-1,1784,1142,0,0
567,-118,0,0,0,0,0,0,0,0,0,-1,1791,1142,0,0
574,-118,0,0,0,0,0,0,0,0,0,-1,1798,1142,0,0
581,-118,0,0,0,0,0,0,0,0,0,-1,1805,1142,0,0
588,-118,0,0,0,0,0,0,0,0,0,-1,1812,1142,0,0
595,-118,0,0,0,0,0,0,0,0,0,-1,1819,1142,0,0
602,-118,0,0,0,0,0,0,0,0,0,-1,1826,1142,0,0
609,-118,0,0,0,0,0,0,0,0,0,-1,1833,1142,0,0
616,-118,0,0,0,0,0,0,0,0,0,-1,1840,1142,0,0
623,-118,0,0,0,0,0,0,0,0,0,-1,1847,1142,0,0
630,-118,0,0,0,0,0,0,0,0,0,-1,1854,1142,0,0
637,-118,0,0,0,0,0,0,0,0,0,-1,1861,1142,0,0
644,-118,7.09229,1.06079,0.00133599,0.0003879,-0.000533392,0.00157555,0.000148345,-0.422119,0.00100457,0.0411906,1868,1142,7.09228,-1.06078
651,-118,7.02808,1.13098,0.00137058,0.000513018,-0.000434687,0.00155238,0.000331221,-0.39612,0.00094408,0.0417929,1875,1142,7.02802,-1.13096
658,-118,7.22888,1.12769,0.0012172,0.000579036,-0.000333611,0.00135976,0.00043648,-0.403827,0.000801651,0.0428899,1882,1142,7.22886,-1.12765
665,-118,7.26599,1.35681,0.000675451,0.00043741,-1.42727e-05,0.000676303,0.000436557,-0.0596743,0.000395937,0.0434058,1889,1142,7.26604,-1.35686
672,-118,7.18445,1.10144,-6.51606e-05,0.000186065,0.000440869,0.000518867,-0.000397963,0.924181,0.000530864,0.0455951,1896,1142,7.1844,-1.10148
679,-118,7.13538,1.07361,-0.000783875,-8.34565e-05,0.000864305,0.000498895,-0.00136623,0.977885,0.00111496,0.0391053,1903,1142,7.13536,-1.0736
686,-118,7.12952,1.01929,-0.00138985,-0.000352883,0.00123905,0.000471792,-0.00221453,0.983554,0.00165617,0.0328176,1910,1142,7.12958,-1.01928
693,-118,7.09412,1.03467,-0.00187264,-0.000549206,0.0015216,0.000448331,-0.00287018,0.990505,0.00207907,0.0311182,1917,1142,7.09406,-1.0347
700,-118,7.16797,1.00879,-0.00218239,-0.000760602,0.00175049,0.000417839,-0.00336084,0.97828,0.00239203,0.0191743,1924,1142,7.16795,-1.00873
707,-118,7.2262,0.991943,0,0,0,0,0,0,0,-1,1931,1142,7.22622,-0.991973
714,-118,7.05884,1.20483,-0.002553,-0.00090783,0.00196653,0.000401227,-0.00386206,0.983486,0.00271833,0.0247859,1938,1142,7.05884,-1.20488
721,-118,6.97681,1.28381,-0.0025774,-0.000884354,0.00186477,0.000317045,-0.0037788,0.998467,0.00263126,0.00902667,1945,1142,6.97677,-1.28378
728,-118,6.97253,1.2605,-0.00243703,-0.00079961,0.00180239,0.000361299,-0.00359794,0.998584,0.00252768,0.0113984,1952,1142,6.97253,-1.26054
735,-118,6.98425,1.24292,-0.0024627,-0.000637818,0.00172808,0.000403916,-0.00350443,1.0283,0.0024819,0.0113733,1959,1142,6.98425,-1.24297
742,-118,7.01953,1.22681,-0.00291988,-0.000510391,0.00116126,-4.1835e-05,-0.00338843,1.18729,0.00224514,0.0187506,1966,1142,7.01956,-1.2268
749,-118,7.00684,1.1925,-0.00227195,-0.000361324,0.000590287,-0.000193667,-0.00243961,1.29406,0.00156585,0.0197225,1973,1142,7.00686,-1.19253
756,-118,6.96497,1.2052,-0.000396101,-0.000171655,-3.65636e-05,-0.000165849,-0.000401907,-1.41331,0.000233219,0.0166125,1980,1142,6.96499,-1.20522
763,-118,6.99158,1.18518,0.00191466,9.28598e-05,-0.00102976,0.00237858,-0.000371063,-0.423284,0.00172278,0.00961096,1987,1142,6.99159,-1.1852
770,-118,6.97327,1.17407,0.00468649,0.000249159,-0.00201395,0.00546423,-0.000528584,-0.368535,0.00383119,0.0107714,1994,1142,6.97322,-1.17413
777,-118,6.93738,1.20752,0.00893976,0.00033531,-0.00307585,0.0099262,-0.000651129,-0.310342,0.00684484,0.0231154,2001,1142,6.93737,-1.20758
784,-118,6.83484,1.29041,0.0154794,0.000445803,-0.00433216,0.0166384,-0.000713223,-0.261417,0.0113375,0.0407695,2008,1142,6.83488,-1.29039
791,-118,6.78796,1.20386,0.0252221,0.000627382,-0.00577387,0.0265101,-0.000660641,-0.219484,0.0178977,0.0456757,2015,1142,6.78794,-1.20383
798,-118,6.0105,1.08203,0,0,0,0,0,0,0,-1,2022,1142,6.01046,-1.08205
805,-118,5.70618,0.878052,0,0,0,0,0,0,0,-1,2029,1142,5.70615,-0.878078
812,-118,5.27771,0.614014,0,0,0,0,0,0,0,-1,2036,1142,5.27775,-0.614071
-700,-125,0,0,0,0,0,0,0,0,0,-1,524,1149,0,0
-693,-125,-1.98035,-0.102661,-0.0222961,0.122867,0.0693879,0.150698,-0.0501276,1.18934,0.120696,0.045528,531,1149,-1.98035,0.102626
-686,-125,-2.04706,0.26062,-0.00671954,0.113295,0.0555952,0.135091,-0.028515,1.19717,0.100917,0.042837,538,1149,-2.04707,-0.260617
-679,-125,-2.18622,1.36023,0,0,0,0,0,0,0,-1,545,1149,-2.18624,-1.36021
-672,-125,-2.23096,1.24548,0.00785454,0.0869165,0.0329115,0.0988235,-0.00405244,1.22366,0.0672738,0.0443777,552,1149,-2.23098,-1.2455
-665,-125,-2.2995,1.12952,0,0,0,0,0,0,0,-1,559,1149,-2.29948,-1.12946
-658,-125,-2.33521,0.947876,0.0105079,0.0585291,0.0162467,0.0635092,0.00552775,1.27336,0.0406225,0.0416044,566,1149,-2.33519,-0.947924
-651,-125,-2.43671,0.775879,0.00940981,0.0452749,0.0103242,0.0480345,0.00665019,1.30961,0.0300526,0.0352689,573,1149,-2.4367,-0.775878
-644,-125,-2.42371,0.750732,0.00757846,0.0334971,0.0060083,0.0348221,0.0062534,1.35373,0.0214365,0.0227737,580,1149,-2.42368,-0.750755
-637,-125,-2.42053,0.741821,0.00703651,0.023105,0.0020548,0.0233636,0.00677791,1.4456,0.0138795,0.012735,587,1149,-2.42051,-0.741849
-630,-125,-2.41711,0.769043,0.00557374,0.0144734,-0.000409775,0.0144922,0.00555492,-1.52488,0.00844269,0.013862,594,1149,-2.4171,-0.769036
-623,-125,-2.42267,0.802002,0.0026649,0.00893766,-0.000747159,0.00902543,0.00257713,-1.45386,0.00536823,0.0130793,601,1149,-2.42268,-0.80196
-616,-125,-2.43011,0.82959,-0.000741916,0.00522434,-0.00188477,0.00576986,-0.00128744,-1.28906,0.00433985,0.0123868,608,1149,-2.4301,-0.829545
-609,-125,-2.44659,0.858643,-0.00180644,0.00215961,-0.00191258,0.00293164,-0.00257847,-1.18714,0.00318344,0.011099,615,1149,-2.44662,-0.85859
-602,-125,-2.46466,0.88855,-0.00212358,-0.000849764,-0.00148406,0.000128288,-0.00310163,-0.988095,0.00211182,0.0105126,622,1149,-2.46468,-0.888588
-595,-125,-2.4574,0.929321,-0.0024348,-0.0012364,-0.00159317,-0.000133473,-0.00353773,-0.965267,0.00231528,0.00971113,629,1149,-2.45738,-0.929371
-588,-125,-2.40607,0.970093,-0.00261012,-0.00138739,-0.00191653,1.29314e-05,-0.00401044,-0.939794,0.00267794,0.0149585,636,1149,-2.40605,-0.970138
-581,-125,-2.46454,0.825562,-0.00273785,-0.0013832,-0.00209473,0.000140989,-0.00426204,-0.941767,0.0028895,0.0327992,643,1149,-2.46451,-0.825584
-574,-125,-2.52924,0.648926,-0.00281903,-0.00133141,-0.00195491,1.64157e-05,-0.00416685,-0.967183,0.00278339,0.0409098,650,1149,-2.52922,-0.648951
-567,-125,-2.56616,0.650146,-0.00271115,-0.00114469,-0.00174325,-1.68071e-05,-0.00383903,-0.996532,0.00255377,0.0372482,657,1149,-2.56619,-0.650094
-560,-125,-2.66486,0.850464,-0.00243383,-0.000777389,-0.00136164,-1.18674e-05,-0.00319936,-1.05863,0.00212896,0.0365623,664,1149,-2.66484,-0.850505
-553,-125,-2.70404,0.759399,-0.00196295,-0.000171113,-0.00072808,8.74258e-05,-0.00222149,-1.22959,0.00151098,0.0386908,671,1149,-2.70404,-0.759402
-546,-125,-2.67883,0.829224,-0.0013203,0.000693159,0.000208594,0.000714542,-0.00134169,1.46864,0.00120543,0.0373589,678,1149,-2.67882,-0.829257
-539,-125,-2.6554,1.05127,-0.000536215,0.0018356,0.00151551,0.00257405,-0.00127466,1.11739,0.00226387,0.0397465,685,1149,-2.65539,-1.05131
-532,-125,-2.64618,0.903076,0.000221439,0.00324255,0.00315822,0.00523287,-0.00176888,1.00846,0.00420414,0.040959,692,1149,-2.64618,-0.903083
-525,-125,-2.79791,1.03491,0.000364983,0.00478917,0.00490684,0.0079595,-0.00280534,0.997166,0.00644817,0.0438127,699,1149,-2.79793,-1.03486
-518,-125,0,0,0,0,0,0,0,0,0,-1,706,1149,0,0
-511,-125,0,0,0,0,0,0,0,0,0,-1,713,1149,0,0
-504,-125,0,0,0,0,0,0,0,0,0,-1,720,1149,0,0
-497,-125,0,0,0,0,0,0,0,0,0,-1,727,1149,0,0
-490,-125,0,0,0,0,0,0,0,0,0,-1,734,1149,0,0
-483,-125,0,0,0,0,0,0,0,0,0,-1,741,1149,0,0
-476,-125,0,0,0,0,0,0,0,0,0,-1,748,1149,0,0
-469,-125,0,0,0,0,0,0,0,0,0,-1,755,1149,0,0
-462,-125,0,0,0,0,0,0,0,0,0,-1,762,1149,0,0
-455,-125,0,0,0,0,0,0,0,0,0,-1,769,1149,0,0
-448,-125,0,0,0,0,0,0,0,0,0,-1,776,1149,0,0
-441,-125,0,0,0,0,0,0,0,0,0,-1,783,1149,0,0
-434,-125,0,0,0,0,0,0,0,0,0,-1,790,1149,0,0
-427,-125,0,0,0,0,0,0,0,0,0,-1,797,1149,0,0
-420,-125,0,0,0,0,0,0,0,0,0,-1,804,1149,0,0
-413,-125,0,0,0,0,0,0,0,0,0,-1,811,1149,0,0
-406,-125,0,0,0,0,0,0,0,0,0,-1,818,1149,0,0
-399,-125,0,0,0,0,0,0,0,0,0,-1,825,1149,0,0
-392,-125,0,0,0,0,0,0,0,0,0,-1,832,1149,0,0
-385,-125,0,0,0,0,0,0,0,0,0,-1,839,1149,0,0
-378,-125,0,0,0,0,0,0,0,0,0,-1,846,1149,0,0
-371,-125,0,0,0,0,0,0,0,0,0,-1,853,1149,0,0
-364,-125,0,0,0,0,0,0,0,0,0,-1,860,1149,0,0
-357,-125,0,0,0,0,0,0,0,0,0,-1,867,1149,0,0
-350,-125,0,0,0,0,0,0,0,0,0,-1,874,1149,0,0
-343,-125,0,0,0,0,0,0,0,0,0,-1,881,1149,0,0
-336,-125,0,0,0,0,0,0,0,0,0,-1,888,1149,0,0
-329,-125,0,0,0,0,0,0,0,0,0,-1,895,1149,0,0
-322,-125,0,0,0,0,0,0,0,0,0,-1,902,1149,0,0
-315,-125,0,0,0,0,0,0,0,0,0,-1,909,1149,0,0
-308,-125,0,0,0,0,0,0,0,0,0,-1,916,1149,0,0
-301,-125,0,0,0,0,0,0,0,0,0,-1,923,1149,0,0
-294,-125,0,0,0,0,0,0,0,0,0,-1,930,1149,0,0
-287,-125,0,0,0,0,0,0,0,0,0,-1,937,1149,0,0
-280,-125,0,0,0,0,0,0,0,0,0,-1,944,1149,0,0
-273,-125,0,0,0,0,0,0,0,0,0,-1,951,1149,0,0
-266,-125,0,0,0,0,0,0,0,0,0,-1,958,1149,0,0
-259,-125,0,0,0,0,0,0,0,0,0,-1,965,1149,0,0
-252,-125,0,0,0,0,0,0,0,0,0,-1,972,1149,0,0
-245,-125,0,0,0,0,0,0,0,0,0,-1,979,1149,0,0
-238,-125,0,0,0,0,0,0,0,0,0,-1,986,1149,0,0
-231,-125,0,0,0,0,0,0,0,0,0,-1,993,1149,0,0
-224,-125,0,0,0,0,0,0,0,0,0,-1,1000,1149,0,0
-217,-125,0,0,0,0,0,0,0,0,0,-1,1007,1149,0,0
-210,-125,0,0,0,0,0,0,0,0,0,-1,1014,1149,0,0
-203,-125,0,0,0,0,0,0,0,0,0,-1,1021,1149,0,0
-196,-125,0,0,0,0,0,0,0,0,0,-1,1028,1149,0,0
-189,-125,0,0,0,0,0,0,0,0,0,-1,1035,1149,0,0
-182,-125,0,0,0,0,0,0,0,0,0,-1,1042,1149,0,0
-175,-125,0,0,0,0,0,0,0,0,0,-1,1049,1149,0,0
-168,-125,0,0,0,0,0,0,0,0,0,-1,1056,1149,0,0
-161,-125,0,0,0,0,0,0,0,0,0,-1,1063,1149,0,0
-154,-125,0,0,0,0,0,0,0,0,0,-1,1070,1149,0,0
-147,-125,0,0,0,0,0,0,0,0,0,-1,1077,1149,0,0
-140,-125,0,0,0,0,0,0,0,0,0,-1,1084,1149,0,0
-133,-125,0,0,0,0,0,0,0,0,0,-1,1091,1149,0,0
-126,-125,0,0,0,0,0,0,0,0,0,-1,1098,1149,0,0
-119,-125,0,0,0,0,0,0,0,0,0,-1,1105,1149,0,0
-112,-125,0,0,0,0,0,0,0,0,0,-1,1112,1149,0,0
-105,-125,0,0,0,0,0,0,0,0,0,-1,1119,1149,0,0
-98,-125,0,0,0,0,0,0,0,0,0,-1,1126,1149,0,0
-91,-125,0,0,0,0,0,0,0,0,0,-1,1133,1149,0,0
-84,-125,0,0,0,0,0,0,0,0,0,-1,1140,1149,0,0
-77,-125,0,0,0,0,0,0,0,0,0,-1,1147,1149,0,0
-70,-125,0,0,0,0,0,0,0,0,0,-1,1154,1149,0,0
-63,-125,0,0,0,0,0,0,0,0,0,-1,1161,1149,0,0
-56,-125,0,0,0,0,0,0,0,0,0,-1,1168,1149,0,0
-49,-125,0,0,0,0,0,0,0,0,0,-1,1175,1149,0,0
-42,-125,0,0,0,0,0,0,0,0,0,-1,1182,1149,0,0
-35,-125,0,0,0,0,0,0,0,0,0,-1,1189,1149,0,0
-28,-125,0,0,0,0,0,0,0,0,0,-1,1196,1149,0,0
-21,-125,0,0,0,0,0,0,0,0,0,-1,1203,1149,0,0
-14,-125,0,0,0,0,0,0,0,0,0,-1,1210,1149,0,0
-7,-125,0,0,0,0,0,0,0,0,0,-1,1217,1149,0,0
0,-125,0,0,0,0,0,0,0,0,0,-1,1224,1149,0,0
7,-125,0,0,0,0,0,0,0,0,0,-1,1231,1149,0,0
14,-125,0,0,0,0,0,0,0,0,0,-1,1238,1149,0,0
21,-125,0,0,0,0,0,0,0,0,0,-1,1245,1149,0,0
28,-125,0,0,0,0,0,0,0,0,0,-1,1252,1149,0,0
35,-125,0,0,0,0,0,0,0,0,0,-1,1259,1149,0,0
42,-125,0,0,0,0,0,0,0,0,0,-1,1266,1149,0,0
49,-125,0,0,0,0,0,0,0,0,0,-1,1273,1149,0,0
56,-125,0,0,0,0,0,0,0,0,0,-1,1280,1149,0,0
63,-125,0,0,0,0,0,0,0,0,0,-1,1287,1149,0,0
70,-125,0,0,0,0,0,0,0,0,0,-1,1294,1149,0,0
77,-125,0,0,0,0,0,0,0,0,0,-1,1301,1149,0,0
84,-125,0,0,0,0,0,0,0,0,0,-1,1308,1149,0,0
91,-125,0,0,0,0,0,0,0,0,0,-1,1315,1149,0,0
98,-125,0,0,0,0,0,0,0,0,0,-1,1322,1149,0,0
105,-125,0,0,0,0,0,0,0,0,0,-1,1329,1149,0,0
112,-125,0,0,0,0,0,0,0,0,0,-1,1336,1149,0,0
119,-125,0,0,0,0,0,0,0,0,0,-1,1343,1149,0,0
126,-125,0,0,0,0,0,0,0,0,0,-1,1350,1149,0,0
133,-125,0,0,0,0,0,0,0,0,0,-1,1357,1149,0,0
140,-125,0,0,0,0,0,0,0,0,0,-1,1364,1149,0,0
147,-125,0,0,0,0,0,0,0,0,0,-1,1371,1149,0,0
154,-125,0,0,0,0,0,0,0,0,0,-1,1378,1149,0,0
161,-125,0,0,0,0,0,0,0,0,0,-1,1385,1149,0,0
168,-125,0,0,0,0,0,0,0,0,0,-1,1392,1149,0,0
175,-125,0,0,0,0,0,0,0,0,0,-1,1399,1149,0,0
182,-125,0,0,0,0,0,0,0,0,0,-1,1406,1149,0,0
189,-125,0,0,0,0,0,0,0,0,0,-1,1413,1149,0,0
196,-125,0,0,0,0,0,0,0,0,0,-1,1420,1149,0,0
203,-125,0,0,0,0,0,0,0,0,0,-1,1427,1149,0,0
210,-125,0,0,0,0,0,0,0,0,0,-1,1434,1149,0,0
217,-125,0,0,0,0,0,0,0,0,0,-1,1441,1149,0,0
224,-125,0,0,0,0,0,0,0,0,0,-1,1448,1149,0,0
231,-125,0,0,0,0,0,0,0,0,0,-1,1455,1149,0,0
238,-125,0,0,0,0,0,0,0,0,0,-1,1462,1149,0,0
245,-125,0,0,0,0,0,0,0,0,0,-1,1469,1149,0,0
252,-125,0,0,0,0,0,0,0,0,0,-1,1476,1149,0,0
259,-125,0,0,0,0,0,0,0,0,0,-1,1483,1149,0,0
266,-125,0,0,0,0,0,0,0,0,0,-1,1490,1149,0,0
273,-125,0,0,0,0,0,0,0,0,0,-1,1497,1149,0,0
280,-125,0,0,0,0,0,0,0,0,0,-1,1504,1149,0,0
287,-125,0,0,0,0,0,0,0,0,0,-1,1511,1149,0,0
294,-125,0,0,0,0,0,0,0,0,0,-1,1518,1149,0,0
301,-125,0,0,0,0,0,0,0,0,0,-1,1525,1149,0,0
308,-125,0,0,0,0,0,0,0,0,0,-1,1532,1149,0,0
315,-125,0,0,0,0,0,0,0,0,0,-1,1539,1149,0,0
322,-125,0,0,0,0,0,0,0,0,0,-1,1546,1149,0,0
329,-125,0,0,0,0,0,0,0,0,0,-1,1553,1149,0,0
336,-125,0,0,0,0,0,0,0,0,0,-1,1560,1149,0,0
343,-125,0,0,0,0,0,0,0,0,0,-1,1567,1149,0,0
350,-125,0,0,0,0,0,0,0,0,0,-1,1574,1149,0,0
357,-125,0,0,0,0,0,0,0,0,0,-1,1581,1149,0,0
364,-125,0,0,0,0,0,0,0,0,0,-1,1588,1149,0,0
371,-125,0,0,0,0,0,0,0,0,0,-1,1595,1149,0,0
378,-125,0,0,0,0,0,0,0,0,0,-1,1602,1149,0,0
385,-125,0,0,0,0,0,0,0,0,0,-1,1609,1149,0,0
392,-125,0,0,0,0,0,0,0,0,0,-1,1616,1149,0,0
399,-125,0,0,0,0,0,0,0,0,0,-1,1623,1149,0,0
406,-125,0,0,0,0,0,0,0,0,0,-1,1630,1149,0,0
413,-125,0,0,0,0,0,0,0,0,0,-1,1637,1149,0,0
420,-125,0,0,0,0,0,0,0,0,0,-1,1644,1149,0,0
427,-125,0,0,0,0,0,0,0,0,0,-1,1651,1149,0,0
434,-125,0,0,0,0,0,0,0,0,0,-1,1658,1149,0,0
441,-125,0,0,0,0,0,0,0,0,0,-1,1665,1149,0,0
448,-125,0,0,0,0,0,0,0,0,0,-1,1672,1149,0,0
455,-125,0,0,0,0,0,0,0,0,0,-1,1679,1149,0,0
462,-125,0,0,0,0,0,0,0,0,0,-1,1686,1149,0,0
469,-125,0,0,0,0,0,0,0,0,0,-1,1693,1149,0,0
476,-125,0,0,0,0,0,0,0,0,0,-1,1700,1149,0,0
483,-125,0,0,0,0,0,0,0,0,0,-1,1707,1149,0,0
490,-125,0,0,0,0,0,0,0,0,0,-1,1714,1149,0,0
497,-125,0,0,0,0,0,0,0,0,0,-1,1721,1149,0,0
504,-125,0,0,0,0,0,0,0,0,0,-1,1728,1149,0,0
511,-125,0,0,0,0,0,0,0,0,0,-1,1735,1149,0,0
518,-125,0,0,0,0,0,0,0,0,0,-1,1742,1149,0,0
525,-125,0,0,0,0,0,0,0,0,0,-1,1749,1149,0,0
532,-125,0,0,0,0,0,0,0,0,0,-1,1756,1149,0,0
539,-125,0,0,0,0,0,0,0,0,0,-1,1763,1149,0,0
546,-125,0,0,0,0,0,0,0,0,0,-1,1770,1149,0,0
553,-125,0,0,0,0,0,0,0,0,0,-1,1777,1149,0,0
560,-125,0,0,0,0,0,0,0,0,0,-1,1784,1149,0,0
567,-125,0,0,0,0,0,0,0,0,0,-1,1791,1149,0,0
574,-125,0,0,0,0,0,0,0,0,0,-1,1798,1149,0,0
581,-125,0,0,0,0,0,0,0,0,0,-1,1805,1149,0,0
588,-125,0,0,0,0,0,0,0,0,0,-1,1812,1149,0,0
595,-125,0,0,0,0,0,0,0,0,0,-1,1819,1149,0,0
602,-125,0,0,0,0,0,0,0,0,0,-1,1826,1149,0,0
609,-125,0,0,0,0,0,0,0,0,0,-1,1833,1149,0,0
616,-125,0,0,0,0,0,0,0,0,0,-1,1840,1149,0,0
623,-125,0,0,0,0,0,0,0,0,0,-1,1847,1149,0,0
630,-125,0,0,0,0,0,0,0,0,0,-1,1854,1149,0,0
637,-125,0,0,0,0,0,0,0,0,0,-1,1861,1149,0,0
644,-125,7.15332,0.957764,0.000722332,0.000438951,-0.000766929,0.00136055,-0.000199266,-0.694053,0.00098023,0.0406726,1868,1149,7.15337,-0.957772
651,-125,6.90491,1.03467,0.000982628,0.000489075,-0.000610731,0.00139456,7.71468e-05,-0.593394,0.000905085,0.0412442,1875,1149,6.90493,-1.03462
658,-125,6.78467,1.08093,0.00092412,0.000498641,-0.000407889,0.00117141,0.000251347,-0.545024,0.000712104,0.043552,1882,1149,6.78469,-1.08093
665,-125,7.03479,1.24316,0.000419668,0.000307152,2.9072e-06,0.000419743,0.000307077,0.0258151,0.000250854,0.0437793,1889,1149,7.03479,-1.24312
672,-125,7.10059,1.07874,-0.000291652,3.5665e-05,0.000495369,0.00039371,-0.000649697,0.944942,0.000608424,0.0434594,1896,1149,7.10059,-1.07868
679,-125,7.19043,0.974976,-0.000993946,-0.000239936,0.000934071,0.000390343,-0.00162422,0.977208,0.00123369,0.0362783,1903,1149,7.19045,-0.974937
686,-125,7.18311,1.01306,-0.00159382,-0.000503909,0.00130715,0.000367337,-0.00246506,0.982894,0.00177851,0.0323562,1910,1149,7.18309,-1.01308
693,-125,7.13208,1.03259,-0.00206791,-0.000672836,0.00157085,0.000348388,-0.00308913,0.994345,0.00218483,0.0271889,1917,1149,7.13204,-1.03259
700,-125,7.16711,1.01343,-0.00233433,-0.000892334,0.00178349,0.000310378,-0.00353704,0.977486,0.002468,0.0130491,1924,1149,7.16711,-1.01338
707,-125,7.20923,0.98877,0,0,0,0,0,0,0,-1,1931,1149,7.20919,-0.988822
714,-125,7.03101,1.23914,-0.00267698,-0.00100372,0.00195816,0.000289049,-0.00396974,0.987287,0.00274792,0.0311614,1938,1149,7.031,-1.2391
721,-125,6.9574,1.28931,-0.00271766,-0.000962571,0.00183825,0.000196859,-0.00387709,1.00809,0.00265278,0.0152158,1945,1149,6.95736,-1.28927
728,-125,6.95105,1.28296,-0.00253446,-0.000856882,0.00178012,0.00027217,-0.00366351,1.00557,0.00253793,0.0103376,1952,1149,6.95111,-1.28292
735,-125,6.95447,1.27014,-0.0024427,-0.000715193,0.00171507,0.000341351,-0.00349925,1.01867,0.00245454,0.0129662,1959,1149,6.95449,-1.2701
742,-125,6.97705,1.224,-0.00268127,-0.000686357,0.00122685,-0.000102652,-0.00326497,1.12671,0.00214325,0.0221429,1966,1149,6.97708,-1.22404
749,-125,6.96106,1.18982,-0.00183739,-0.000658513,0.000794847,-0.000258396,-0.00223751,1.10444,0.00141343,0.0263411,1973,1149,6.96111,-1.1898
756,-125,6.9635,1.20728,0.00011611,-0.000613094,0.000427186,0.000313133,-0.000810117,0.432138,0.000669334,0.020148,1980,1149,6.96349,-1.20722
763,-125,6.95984,1.17957,0.00234573,-0.000601402,-0.000198886,0.00235909,-0.000614763,-0.0670793,0.00181274,0.0111492,1987,1149,6.95984,-1.1796
770,-125,6.95618,1.14612,0.00513874,-0.000779894,-0.000747219,0.00523161,-0.000872773,-0.123664,0.00381212,0.0130746,1994,1149,6.95623,-1.14612
777,-125,6.95215,1.16455,0.00936037,-0.00113823,-0.00127224,0.00951234,-0.0012902,-0.11889,0.00681247,0.0234917,2001,1149,6.9522,-1.16459
784,-125,6.82434,1.3335,0.0157654,-0.00161361,-0.00187222,0.0159648,-0.00181301,-0.106106,0.0112962,0.0408676,2008,1149,6.82433,-1.33346
791,-125,6.578,1.72522,0,0,0,0,0,0,0,-1,2015,1149,6.57797,-1.72521
798,-125,7.45776,2.32947,0.0385448,-0.00279511,-0.00311131,0.0387777,-0.00302796,-0.0747007,0.0269179,0.0478259,2022,1149,7.4578,-2.32948
805,-125,8.36279,2.93872,0.0569282,-0.00331584,-0.00349874,0.0571307,-0.00351835,-0.057817,0.0393124,0.048588,2029,1149,8.36277,-2.93872
812,-125,9.2196,3.58264,0,0,0,0,0,0,0,-1,2036,1149,9.21958,-3.58269
-700,-132,0,0,0,0,0,0,0,0,0,-1,524,1156,0,0
-693,-132,-2.59082,-0.934082,-0.0167271,0.152724,0.0701869,0.178019,-0.0420226,1.22489,0.134887,0.0492546,531,1156,-2.5908,0.934045
-686,-132,-1.81586,-0.0654297,-0.00388602,0.139427,0.0571175,0.159406,-0.023865,1.23431,0.115054,0.0473363,538,1156,-1.81583,0.0654384
-679,-132,-1.7804,1.82971,0,0,0,0,0,0,0,-1,545,1156,-1.78038,-1.82976
-672,-132,-1.99023,1.91003,0,0,0,0,0,0,0,-1,552,1156,-1.99025,-1.91001
-665,-132,-2.90839,0.565308,0,0,0,0,0,0,0,-1,559,1156,-2.90839,-0.565335
-658,-132,-2.74969,0.554199,0.00969832,0.0695024,0.0185253,0.0747759,0.00442481,1.29347,0.0484431,0.0400769,566,1156,-2.74968,-0.554185
-651,-132,-2.47498,0.567505,0.00856645,0.0532441,0.012378,0.0564443,0.00536633,1.3178,0.0359744,0.038016,573,1156,-2.47495,-0.567563
-644,-132,-2.43951,0.714966,0.00682594,0.0389585,0.00774313,0.040727,0.00505738,1.34624,0.0256324,0.0213498,580,1156,-2.43954,-0.714944
-637,-132,-2.41028,0.751343,0.00623131,0.0268013,0.00349996,0.0273805,0.00565211,1.40679,0.0166917,0.0113378,587,1156,-2.41025,-0.751305
-630,-132,-2.41626,0.78894,0.00484581,0.0166921,0.000708145,0.0167343,0.00480362,1.5113,0.00994933,0.00945518,594,1156,-2.41625,-0.788988
-623,-132,-2.43597,0.827271,0.002192,0.0100101,0.000124943,0.0100121,0.00219001,1.55482,0.00607774,0.0143807,601,1156,-2.43596,-0.82726
-616,-132,-2.42145,0.846191,-0.000904896,0.00518015,-0.00120986,0.00541187,-0.00113662,-1.38156,0.00404043,0.0187198,608,1156,-2.42147,-0.846209
-609,-132,-2.42145,0.859375,-0.00192483,0.00161362,-0.00151374,0.00217282,-0.00248403,-1.21693,0.00269063,0.0110425,615,1156,-2.42147,-0.859387
-602,-132,-2.4353,0.883545,-0.00230926,-0.00114141,-0.00125239,-0.000343509,-0.00310716,-1.00354,0.00196696,0.00970538,622,1156,-2.4353,-0.883552
-595,-132,-2.41321,0.933594,-0.00266152,-0.00150932,-0.00143264,-0.000541285,-0.00362956,-0.976568,0.00226098,0.0101032,629,1156,-2.41323,-0.93354
-588,-132,-2.40344,0.97168,-0.00290163,-0.00166552,-0.00178039,-0.000398964,-0.00416819,-0.952464,0.00265581,0.0147592,636,1156,-2.40345,-0.971671
-581,-132,-2.43372,0.825439,-0.00308892,-0.00165354,-0.00202709,-0.000220839,-0.00452161,-0.955537,0.00294356,0.0308753,643,1156,-2.43374,-0.825456
-574,-132,-2.47974,0.715454,-0.00317462,-0.00156423,-0.00191496,-0.000292065,-0.00444678,-0.984415,0.00287212,0.037646,650,1156,-2.47972,-0.715441
-567,-132,-2.59021,0.703247,-0.00309501,-0.00130908,-0.00173966,-0.00024659,-0.0041575,-1.02251,0.00269324,0.0346614,657,1156,-2.5902,-0.703188
-560,-132,-2.70227,0.786865,-0.00283272,-0.000823946,-0.00142904,-8.16344e-05,-0.00357503,-1.09171,0.00235661,0.0336875,664,1156,-2.70228,-0.786868
-553,-132,-2.81061,0.848389,-0.00234185,-2.51625e-05,-0.000877052,0.000269416,-0.00263642,-1.24676,0.00185396,0.0375404,671,1156,-2.81059,-0.848333
-546,-132,-2.9071,0.822021,-0.00163235,0.00112271,-2.41636e-05,0.00112292,-0.00163256,-1.56203,0.00159993,0.0391782,678,1156,-2.90712,-0.82197
-539,-132,-2.6889,0.930786,-0.000714663,0.00264899,0.00121236,0.00304041,-0.00110609,1.2585,0.00247929,0.0401847,685,1156,-2.68889,-0.930728
-532,-132,-2.46606,0.691162,0.000291664,0.00456029,0.0028495,0.00598617,-0.00113421,1.10683,0.00441765,0.0410708,692,1156,-2.46609,-0.691144
-525,-132,-2.70593,0.898438,0.000854295,0.00674111,0.00473989,0.00937715,-0.00178174,1.06325,0.00692221,0.0421349,699,1156,-2.70596,-0.898384
-518,-132,0,0,0,0,0,0,0,0,0,-1,706,1156,0,0
-511,-132,0,0,0,0,0,0,0,0,0,-1,713,1156,0,0
-504,-132,0,0,0,0,0,0,0,0,0,-1,720,1156,0,0
-497,-132,0,0,0,0,0,0,0,0,0,-1,727,1156,0,0
-490,-132,0,0,0,0,0,0,0,0,0,-1,734,1156,0,0
-483,-132,0,0,0,0,0,0,0,0,0,-1,741,1156,0,0
-476,-132,0,0,0,0,0,0,0,0,0,-1,748,1156,0,0
-469,-132,0,0,0,0,0,0,0,0,0,-1,755,1156,0,0
-462,-132,0,0,0,0,0,0,0,0,0,-1,762,1156,0,0
-455,-132,0,0,0,0,0,0,0,0,0,-1,769,1156,0,0
-448,-132,0,0,0,0,0,0,0,0,0,-1,776,1156,0,0
-441,-132,0,0,0,0,0,0,0,0,0,-1,783,1156,0,0
-434,-132,0,0,0,0,0,0,0,0,0,-1,790,1156,0,0
-427,-132,0,0,0,0,0,0,0,0,0,-1,797,1156,0,0
-420,-132,0,0,0,0,0,0,0,0,0,-1,804,1156,0,0
-413,-132,0,0,0,0,0,0,0,0,0,-1,811,1156,0,0
-406,-132,0,0,0,0,0,0,0,0,0,-1,818,1156,0,0
-399,-132,0,0,0,0,0,0,0,0,0,-1,825,1156,0,0
-392,-132,0,0,0,0,0,0,0,0,0,-1,832,1156,0,0
-385,-132,0,0,0,0,0,0,0,0,0,-1,839,1156,0,0
-378,-132,0,0,0,0,0,0,0,0,0,-1,846,1156,0,0
-371,-132,0,0,0,0,0,0,0,0,0,-1,853,1156,0,0
-364,-132,0,0,0,0,0,0,0,0,0,-1,860,1156,0,0
-357,-132,0,0,0,0,0,0,0,0,0,-1,867,1156,0,0
-350,-132,0,0,0,0,0,0,0,0,0,-1,874,1156,0,0
-343,-132,0,0,0,0,0,0,0,0,0,-1,881,1156,0,0
-336,-132,0,0,0,0,0,0,0,0,0,-1,888,1156,0,0
-329,-132,0,0,0,0,0,0,0,0,0,-1,895,1156,0,0
-322,-132,0,0,0,0,0,0,0,0,0,-1,902,1156,0,0
-315,-132,0,0,0,0,0,0,0,0,0,-1,909,1156,0,0
-308,-132,0,0,0,0,0,0,0,0,0,-1,916,1156,0,0
-301,-132,0,0,0,0,0,0,0,0,0,-1,923,1156,0,0
-294,-132,0,0,0,0,0,0,0,0,0,-1,930,1156,0,0
-287,-132,0,0,0,0,0,0,0,0,0,-1,937,1156,0,0
-280,-132,0,0,0,0,0,0,0,0,0,-1,944,1156,0,0
-273,-132,0,0,0,0,0,0,0,0,0,-1,951,1156,0,0
-266,-132,0,0,0,0,0,0,0,0,0,-1,958,1156,0,0
-259,-132,0,0,0,0,0,0,0,0,0,-1,965,1156,0,0
-252,-132,0,0,0,0,0,0,0,0,0,-1,972,1156,0,0
-245,-132,0,0,0,0,0,0,0,0,0,-1,979,1156,0,0
-238,-132,0,0,0,0,0,0,0,0,0,-1,986,1156,0,0
-231,-132,0,0,0,0,0,0,0,0,0,-1,993,1156,0,0
-224,-132,0,0,0,0,0,0,0,0,0,-1,1000,1156,0,0
-217,-132,0,0,0,0,0,0,0,0,0,-1,1007,1156,0,0
-210,-132,0,0,0,0,0,0,0,0,0,-1,1014,1156,0,0
-203,-132,0,0,0,0,0,0,0,0,0,-1,1021,1156,0,0
-196,-132,0,0,0,0,0,0,0,0,0,-1,1028,1156,0,0
-189,-132,0,0,0,0,0,0,0,0,0,-1,1035,1156,0,0
-182,-132,0,0,0,0,0,0,0,0,0,-1,1042,1156,0,0
-175,-132,0,0,0,0,0,0,0,0,0,-1,1049,1156,0,0
-168,-132,0,0,0,0,0,0,0,0,0,-1,1056,1156,0,0
-161,-132,0,0,0,0,0,0,0,0,0,-1,1063,1156,0,0
-154,-132,0,0,0,0,0,0,0,0,0,-1,1070,1156,0,0
-147,-132,0,0,0,0,0,0,0,0,0,-1,1077,1156,0,0
-140,-132,0,0,0,0,0,0,0,0,0,-1,1084,1156,0,0
-133,-132,0,0,0,0,0,0,0,0,0,-1,1091,1156,0,0
-126,-132,0,0,0,0,0,0,0,0,0,-1,1098,1156,0,0
-119,-132,0,0,0,0,0,0,0,0,0,-1,1105,1156,0,0
-112,-132,0,0,0,0,0,0,0,0,0,-1,1112,1156,0,0
-105,-132,0,0,0,0,0,0,0,0,0,-1,1119,1156,0,0
-98,-132,0,0,0,0,0,0,0,0,0,-1,1126,1156,0,0
-91,-132,0,0,0,0,0,0,0,0,0,-1,1133,1156,0,0
-84,-132,0,0,0,0,0,0,0,0,0,-1,1140,1156,0,0
-77,-132,0,0,0,0,0,0,0,0,0,-1,1147,1156,0,0
-70,-132,0,0,0,0,0,0,0,0,0,-1,1154,1156,0,0
-63,-132,0,0,0,0,0,0,0,0,0,-1,1161,1156,0,0
-56,-132,0,0,0,0,0,0,0,0,0,-1,1168,1156,0,0
-49,-132,0,0,0,0,0,0,0,0,0,-1,1175,1156,0,0
-42,-132,0,0,0,0,0,0,0,0,0,-1,1182,1156,0,0
-35,-132,0,0,0,0,0,0,0,0,0,-1,1189,1156,0,0
-28,-132,0,0,0,0,0,0,0,0,0,-1,1196,1156,0,0
-21,-132,0,0,0,0,0,0,0,0,0,-1,1203,1156,0,0
-14,-132,0,0,0,0,0,0,0,0,0,-1,1210,1156,0,0
-7,-132,0,0,0,0,0,0,0,0,0,-1,1217,1156,0,0
0,-132,0,0,0,0,0,0,0,0,0,-1,1224,1156,0,0
7,-132,0,0,0,0,0,0,0,0,0,-1,1231,1156,0,0
14,-132,0,0,0,0,0,0,0,0,0,-1,1238,1156,0,0
21,-132,0,0,0,0,0,0,0,0,0,-1,1245,1156,0,0
28,-132,0,0,0,0,0,0,0,0,0,-1,1252,1156,0,0
35,-132,0,0,0,0,0,0,0,0,0,-1,1259,1156,0,0
42,-132,0,0,0,0,0,0,0,0,0,-1,1266,1156,0,0
49,-132,0,0,0,0,0,0,0,0,0,-1,1273,1156,0,0
56,-132,0,0,0,0,0,0,0,0,0,-1,1280,1156,0,0
63,-132,0,0,0,0,0,0,0,0,0,-1,1287,1156,0,0
70,-132,0,0,0,0,0,0,0,0,0,-1,1294,1156,0,0
77,-132,0,0,0,0,0,0,0,0,0,-1,1301,1156,0,0
84,-132,0,0,0,0,0,0,0,0,0,-1,1308,1156,0,0
91,-132,0,0,0,0,0,0,0,0,0,-1,1315,1156,0,0
98,-132,0,0,0,0,0,0,0,0,0,-1,1322,1156,0,0
105,-132,0,0,0,0,0,0,0,0,0,-1,1329,1156,0,0
112,-132,0,0,0,0,0,0,0,0,0,-1,1336,1156,0,0
119,-132,0,0,0,0,0,0,0,0,0,-1,1343,1156,0,0
126,-132,0,0,0,0,0,0,0,0,0,-1,1350,1156,0,0
133,-132,0,0,0,0,0,0,0,0,0,-1,1357,1156,0,0
140,-132,0,0,0,0,0,0,0,0,0,-1,1364,1156,0,0
147,-132,0,0,0,0,0,0,0,0,0,-1,1371,1156,0,0
154,-132,0,0,0,0,0,0,0,0,0,-1,1378,1156,0,0
161,-132,0,0,0,0,0,0,0,0,0,-1,1385,1156,0,0
168,-132,0,0,0,0,0,0,0,0,0,-1,1392,1156,0,0
175,-132,0,0,0,0,0,0,0,0,0,-1,1399,1156,0,0
182,-132,0,0,0,0,0,0,0,0,0,-1,1406,1156,0,0
189,-132,0,0,0,0,0,0,0,0,0,-1,1413,1156,0,0
196,-132,0,0,0,0,0,0,0,0,0,-1,1420,1156,0,0
203,-132,0,0,0,0,0,0,0,0,0,-1,1427,1156,0,0
210,-132,0,0,0,0,0,0,0,0,0,-1,1434,1156,0,0
217,-132,0,0,0,0,0,0,0,0,0,-1,1441,1156,0,0
224,-132,0,0,0,0,0,0,0,0,0,-1,1448,1156,0,0
231,-132,0,0,0,0,0,0,0,0,0,-1,1455,1156,0,0
238,-132,0,0,0,0,0,0,0,0,0,-1,1462,1156,0,0
245,-132,0,0,0,0,0,0,0,0,0,-1,1469,1156,0,0
252,-132,0,0,0,0,0,0,0,0,0,-1,1476,1156,0,0
259,-132,0,0,0,0,0,0,0,0,0,-1,1483,1156,0,0
266,-132,0,0,0,0,0,0,0,0,0,-1,1490,1156,0,0
273,-132,0,0,0,0,0,0,0,0,0,-1,1497,1156,0,0
280,-132,0,0,0,0,0,0,0,0,0,-1,1504,1156,0,0
287,-132,0,0,0,0,0,0,0,0,0,-1,1511,1156,0,0
294,-132,0,0,0,0,0,0,0,0,0,-1,1518,1156,0,0
301,-132,0,0,0,0,0,0,0,0,0,-1,1525,1156,0,0
308,-132,0,0,0,0,0,0,0,0,0,-1,1532,1156,0,0
315,-132,0,0,0,0,0,0,0,0,0,-1,1539,1156,0,0
322,-132,0,0,0,0,0,0,0,0,0,-1,1546,1156,0,0
329,-132,0,0,0,0,0,0,0,0,0,-1,1553,1156,0,0
336,-132,0,0,0,0,0,0,0,0,0,-1,1560,1156,0,0
343,-132,0,0,0,0,0,0,0,0,0,-1,1567,1156,0,0
350,-132,0,0,0,0,0,0,0,0,0,-1,1574,1156,0,0
357,-132,0,0,0,0,0,0,0,0,0,-1,1581,1156,0,0
364,-132,0,0,0,0,0,0,0,0,0,-1,1588,1156,0,0
371,-132,0,0,0,0,0,0,0,0,0,-1,1595,1156,0,0
378,-132,0,0,0,0,0,0,0,0,0,-1,1602,1156,0,0
385,-132,0,0,0,0,0,0,0,0,0,-1,1609,1156,0,0
392,-132,0,0,0,0,0,0,0,0,0,-1,1616,1156,0,0
399,-132,0,0,0,0,0,0,0,0,0,-1,1623,1156,0,0
406,-132,0,0,0,0,0,0,0,0,0,-1,1630,1156,0,0
413,-132,0,0,0,0,0,0,0,0,0,-1,1637,1156,0,0
420,-132,0,0,0,0,0,0,0,0,0,-1,1644,1156,0,0
427,-132,0,0,0,0,0,0,0,0,0,-1,1651,1156,0,0
434,-132,0,0,0,0,0,0,0,0,0,-1,1658,1156,0,0
441,-132,0,0,0,0,0,0,0,0,0,-1,1665,1156,0,0
448,-132,0,0,0,0,0,0,0,0,0,-1,1672,1156,0,0
455,-132,0,0,0,0,0,0,0,0,0,-1,1679,1156,0,0
462,-132,0,0,0,0,0,0,0,0,0,-1,1686,1156,0,0
469,-132,0,0,0,0,0,0,0,0,0,-1,1693,1156,0,0
476,-132,0,0,0,0,0,0,0,0,0,-1,1700,1156,0,0
483,-132,0,0,0,0,0,0,0,0,0,-1,1707,1156,0,0
490,-132,0,0,0,0,0,0,0,0,0,-1,1714,1156,0,0
497,-132,0,0,0,0,0,0,0,0,0,-1,1721,1156,0,0
504,-132,0,0,0,0,0,0,0,0,0,-1,1728,1156,0,0
511,-132,0,0,0,0,0,0,0,0,0,-1,1735,1156,0,0
518,-132,0,0,0,0,0,0,0,0,0,-1,1742,1156,0,0
525,-132,0,0,0,0,0,0,0,0,0,-1,1749,1156,0,0
532,-132,0,0,0,0,0,0,0,0,0,-1,1756,1156,0,0
539,-132,0,0,0,0,0,0,0,0,0,-1,1763,1156,0,0
546,-132,0,0,0,0,0,0,0,0,0,-1,1770,1156,0,0
553,-132,0,0,0,0,0,0,0,0,0,-1,1777,1156,0,0
560,-132,0,0,0,0,0,0,0,0,0,-1,1784,1156,0,0
567,-132,0,0,0,0,0,0,0,0,0,-1,1791,1156,0,0
574,-132,0,0,0,0,0,0,0,0,0,-1,1798,1156,0,0
581,-132,0,0,0,0,0,0,0,0,0,-1,1805,1156,0,0
588,-132,0,0,0,0,0,0,0,0,0,-1,1812,1156,0,0
595,-132,0,0,0,0,0,0,0,0,0,-1,1819,1156,0,0
602,-132,0,0,0,0,0,0,0,0,0,-1,1826,1156,0,0
609,-132,0,0,0,0,0,0,0,0,0,-1,1833,1156,0,0
616,-132,0,0,0,0,0,0,0,0,0,-1,1840,1156,0,0
623,-132,0,0,0,0,0,0,0,0,0,-1,1847,1156,0,0
630,-132,0,0,0,0,0,0,0,0,0,-1,1854,1156,0,0
637,-132,0,0,0,0,0,0,0,0,0,-1,1861,1156,0,0
644,-132,6.98962,1.00671,0,0,0,0,0,0,0,-1,1868,1156,6.98961,-1.0067
651,-132,6.89905,0.952271,0.000620439,0.000285403,-0.000625256,0.00110023,-0.000194387,-0.654512,0.000806131,0.0398037,1875,1156,6.899,-0.952325
658,-132,6.87683,0.900391,0.000558125,0.000168418,-0.000364628,0.000776698,-5.0155e-05,-0.540008,0.000535301,0.0412528,1882,1156,6.87684,-0.900416
665,-132,6.99182,1.03345,4.2582e-05,-7.76979e-05,0.000110868,0.000108571,-0.000143687,0.536885,0.00014611,0.0419941,1889,1156,6.99182,-1.0335
672,-132,7.19946,0.998779,-0.000656952,-0.000339638,0.000631025,0.00015237,-0.00114896,0.908559,0.000821487,0.0389284,1896,1156,7.19948,-0.998788
679,-132,7.23352,0.876343,-0.00134384,-0.000577124,0.00108685,0.000191997,-0.00211296,0.954948,0.0014768,0.0369383,1903,1156,7.23351,-0.876382
686,-132,7.21277,0.932983,-0.00192474,-0.000792243,0.00146143,0.000208803,-0.00292579,0.970224,0.00202372,0.0335326,1910,1156,7.21273,-0.932948
693,-132,7.1709,1.04749,-0.00237592,-0.000903879,0.00170778,0.000219733,-0.00349953,0.988861,0.00240961,0.0231736,1917,1156,7.17087,-1.04747
700,-132,7.172,1.01257,-0.00259437,-0.00108363,0.001905,0.000210288,-0.00388829,0.974149,0.00266506,0.0235141,1924,1156,7.172,-1.01253
707,-132,7.0271,1.1571,-0.00270309,-0.00111094,0.00205034,0.000292442,-0.00410648,0.970573,0.00284016,0.0357296,1931,1156,7.02715,-1.15715
714,-132,6.94983,1.33826,-0.00286525,-0.00106849,0.00203808,0.000260428,-0.00419417,0.992985,0.00288684,0.0295733,1938,1156,6.94982,-1.33821
721,-132,6.9292,1.32458,-0.00290089,-0.000980162,0.00189254,0.000181735,-0.00406279,1.02019,0.00277109,0.0209031,1945,1156,6.92917,-1.32456
728,-132,6.91333,1.29761,-0.0026656,-0.000852601,0.0018349,0.00028751,-0.00380571,1.01483,0.00263821,0.0117296,1952,1156,6.91331,-1.29765
735,-132,6.92822,1.28198,-0.00239492,-0.000739549,0.00179082,0.000405606,-0.00354007,1.00187,0.00250621,0.0142048,1959,1156,6.92825,-1.28195
742,-132,6.927,1.24194,-0.00225442,-0.000769638,0.00145481,0.000121256,-0.00314531,1.02132,0.00213844,0.0198548,1966,1156,6.92703,-1.24188
749,-132,6.92346,1.21692,-0.001068,-0.000843105,0.00119048,0.00024023,-0.00215133,0.832485,0.00152064,0.0234947,1973,1156,6.9235,-1.21694
756,-132,6.95496,1.21179,0.00114724,-0.000905442,0.00114422,0.00165798,-0.00141618,0.419828,0.0017767,0.020724,1980,1156,6.9549,-1.21185
763,-132,6.93567,1.18237,0.00354664,-0.00102477,0.0010144,0.00376163,-0.00123976,0.208844,0.00300742,0.0127258,1987,1156,6.93567,-1.18243
770,-132,6.93994,1.16846,0.00668778,-0.00139773,0.00105473,0.0068231,-0.00153305,0.127603,0.00513658,0.0126071,1994,1156,6.93992,-1.16845
777,-132,6.93188,1.11096,0.0112912,-0.00198535,0.00126504,0.0114107,-0.00210481,0.094155,0.00839712,0.0200906,2001,1156,6.93194,-1.11091
784,-132,6.76355,1.15918,0.0180514,-0.00273515,0.00158116,0.018171,-0.00285474,0.0754877,0.0131691,0.0414293,2008,1156,6.76354,-1.15922
791,-132,6.62427,1.22986,0,0,0,0,0,0,0,-1,2015,1156,6.62424,-1.22982
798,-132,7.64502,2.30176,0.0410575,-0.00457709,0.0028002,0.0412287,-0.00474828,0.0610561,0.0291975,0.048374,2022,1156,7.64501,-2.30174
805,-132,8.29871,2.8855,0.0590215,-0.00544037,0.00396899,0.059265,-0.00568383,0.0612627,0.0415344,0.0465554,2029,1156,8.29871,-2.88552
812,-132,9.08545,3.29272,0,0,0,0,0,0,0,-1,2036,1156,9.08539,-3.2927
-700,-139,0,0,0,0,0,0,0,0,0,-1,524,1163,0,0
-693,-139,-3.25983,-1.9613,-0.0138665,0.16916,0.0676715,0.191463,-0.0361694,1.25243,0.14125,0.0460407,531,1163,-3.25981,1.96136
-686,-139,-3.54596,-1.87109,-0.00382156,0.153733,0.0554442,0.171288,-0.0213766,1.26416,0.121944,0.0496174,538,1163,-3.54597,1.87109
-679,-139,-4.00891,-1.54089,0,0,0,0,0,0,0,-1,545,1163,-4.00892,1.54089
-672,-139,-2.68921,0.0467529,0,0,0,0,0,0,0,-1,552,1163,-2.68921,-0.0467459
-665,-139,-2.77985,0.183594,0,0,0,0,0,0,0,-1,559,1163,-2.77986,-0.183551
-658,-139,-2.52112,0.345459,0.00678256,0.0755834,0.0190174,0.0804901,0.00187583,1.31829,0.0530459,0.0465207,566,1163,-2.52113,-0.345439
-651,-139,-2.42957,0.521484,0.00594772,0.0576677,0.0130849,0.0607896,0.00282576,1.33658,0.0396181,0.0425989,573,1163,-2.42959,-0.521435
-644,-139,-2.3988,0.681396,0.00466839,0.0419768,0.00852571,0.0438327,0.00281242,1.35645,0.0283309,0.0226966,580,1163,-2.3988,-0.681438
-637,-139,-2.38037,0.762207,0.00426837,0.0288293,0.00431944,0.0295668,0.00353087,1.40169,0.018646,0.0117796,587,1163,-2.38038,-0.762219
-630,-139,-2.38562,0.788208,0.00325636,0.0179126,0.0014652,0.0180576,0.00311132,1.47213,0.011147,0.0100773,594,1163,-2.38563,-0.788246
-623,-139,-2.40369,0.816895,0.00124155,0.0106028,0.000801285,0.0106709,0.00117346,1.48602,0.00675686,0.0163442,601,1163,-2.4037,-0.816946
-616,-139,-2.41791,0.82666,-0.00123776,0.00486902,-0.000631883,0.00493371,-0.00130246,-1.46876,0.00379847,0.0176798,608,1163,-2.41791,-0.826615
-609,-139,-2.40216,0.863159,-0.00203512,0.00103314,-0.00110406,0.00138912,-0.0023911,-1.2589,0.00220791,0.01976,615,1163,-2.40219,-0.863162
-602,-139,-2.42102,0.900513,-0.00244314,-0.00135866,-0.000987629,-0.000774207,-0.00302759,-1.03645,0.00181619,0.0115705,622,1163,-2.421,-0.900562
-595,-139,-2.39099,0.941162,-0.00281061,-0.00171559,-0.00123791,-0.000909514,-0.00361668,-0.993607,0.00217237,0.00974357,629,1163,-2.39101,-0.941154
-588,-139,-2.38611,0.987061,-0.00307422,-0.00187706,-0.00160549,-0.00076219,-0.00418908,-0.963833,0.00257651,0.0135632,636,1163,-2.38609,-0.987049
-581,-139,-2.39764,0.918701,-0.00325623,-0.00185447,-0.00191937,-0.000512015,-0.00459869,-0.960457,0.00291017,0.0273842,643,1163,-2.39761,-0.918708
-574,-139,-2.46948,0.796265,-0.00330233,-0.00176734,-0.00183633,-0.00054457,-0.0045251,-0.983341,0.00285259,0.0362752,650,1163,-2.46946,-0.796312
-567,-139,-2.60956,0.745605,-0.00320669,-0.00147755,-0.00166794,-0.000463426,-0.00422082,-1.02451,0.00267283,0.0355966,657,1163,-2.60958,-0.745607
-560,-139,-2.69611,0.845581,-0.00290519,-0.000936095,-0.0014178,-0.000194525,-0.00364676,-1.08888,0.002369,0.0329274,664,1163,-2.69609,-0.845529
-553,-139,-2.81805,1.09338,-0.00233431,-3.50236e-05,-0.000932921,0.000295881,-0.00266521,-1.22994,0.0018832,0.0382576,671,1163,-2.81807,-1.09343
-546,-139,-2.82806,0.945679,-0.00149431,0.00127022,-0.00013703,0.00127699,-0.00150109,-1.52139,0.00160566,0.0393466,678,1163,-2.82806,-0.945727
-539,-139,-2.67328,0.769531,-0.000376034,0.00301394,0.00107425,0.00332569,-0.000687784,1.28835,0.0024784,0.0397141,685,1163,-2.67325,-0.769545
-532,-139,-2.50415,0.591919,0.000942984,0.00521916,0.00277876,0.0065872,-0.000425058,1.11331,0.00453979,0.0394194,692,1163,-2.50415,-0.591897
-525,-139,-2.45398,0.545776,0.00199171,0.00779325,0.00494117,0.0106222,-0.00083723,1.05082,0.0073764,0.039785,699,1163,-2.454,-0.545792
-518,-139,0,0,0,0,0,0,0,0,0,-1,706,1163,0,0
-511,-139,0,0,0,0,0,0,0,0,0,-1,713,1163,0,0
-504,-139,0,0,0,0,0,0,0,0,0,-1,720,1163,0,0
-497,-139,0,0,0,0,0,0,0,0,0,-1,727,1163,0,0
-490,-139,0,0,0,0,0,0,0,0,0,-1,734,1163,0,0
-483,-139,0,0,0,0,0,0,0,0,0,-1,741,1163,0,0
-476,-139,0,0,0,0,0,0,0,0,0,-1,748,1163,0,0
-469,-139,0,0,0,0,0,0,0,0,0,-1,755,1163,0,0
-462,-139,0,0,0,0,0,0,0,0,0,-1,762,1163,0,0
-455,-139,0,0,0,0,0,0,0,0,0,-1,769,1163,0,0
-448,-139,0,0,0,0,0,0,0,0,0,-1,776,1163,0,0
-441,-139,0,0,0,0,0,0,0,0,0,-1,783,1163,0,0
-434,-139,0,0,0,0,0,0,0,0,0,-1,790,1163,0,0
-427,-139,0,0,0,0,0,0,0,0,0,-1,797,1163,0,0
-420,-139,0,0,0,0,0,0,0,0,0,-1,804,1163,0,0
-413,-139,0,0,0,0,0,0,0,0,0,-1,811,1163,0,0
-406,-139,0,0,0,0,0,0,0,0,0,-1,818,1163,0,0
-399,-139,0,0,0,0,0,0,0,0,0,-1,825,1163,0,0
-392,-139,0,0,0,0,0,0,0,0,0,-1,832,1163,0,0
-385,-139,0,0,0,0,0,0,0,0,0,-1,839,1163,0,0
-378,-139,0,0,0,0,0,0,0,0,0,-1,846,1163,0,0
-371,-139,0,0,0,0,0,0,0,0,0,-1,853,1163,0,0
-364,-139,0,0,0,0,0,0,0,0,0,-1,860,1163,0,0
-357,-139,0,0,0,0,0,0,0,0,0,-1,867,1163,0,0
-350,-139,0,0,0,0,0,0,0,0,0,-1,874,1163,0,0
-343,-139,0,0,0,0,0,0,0,0,0,-1,881,1163,0,0
-336,-139,0,0,0,0,0,0,0,0,0,-1,888,1163,0,0
-329,-139,0,0,0,0,0,0,0,0,0,-1,895,1163,0,0
-322,-139,0,0,0,0,0,0,0,0,0,-1,902,1163,0,0
-315,-139,0,0,0,0,0,0,0,0,0,-1,909,1163,0,0
-308,-139,0,0,0,0,0,0,0,0,0,-1,916,1163,0,0
-301,-139,0,0,0,0,0,0,0,0,0,-1,923,1163,0,0
-294,-139,0,0,0,0,0,0,0,0,0,-1,930,1163,0,0
-287,-139,0,0,0,0,0,0,0,0,0,-1,937,1163,0,0
-280,-139,0,0,0,0,0,0,0,0,0,-1,944,1163,0,0
-273,-139,0,0,0,0,0,0,0,0,0,-1,951,1163,0,0
-266,-139,0,0,0,0,0,0,0,0,0,-1,958,1163,0,0
-259,-139,0,0,0,0,0,0,0,0,0,-1,965,1163,0,0
-252,-139,0,0,0,0,0,0,0,0,0,-1,972,1163,0,0
-245,-139,0,0,0,0,0,0,0,0,0,-1,979,1163,0,0
-238,-139,0,0,0,0,0,0,0,0,0,-1,986,1163,0,0
-231,-139,0,0,0,0,0,0,0,0,0,-1,993,1163,0,0
-224,-139,0,0,0,0,0,0,0,0,0,-1,1000,1163,0,0
-217,-139,0,0,0,0,0,0,0,0,0,-1,1007,1163,0,0
-210,-139,0,0,0,0,0,0,0,0,0,-1,1014,1163,0,0
-203,-139,0,0,0,0,0,0,0,0,0,-1,1021,1163,0,0
-196,-139,0,0,0,0,0,0,0,0,0,-1,1028,1163,0,0
-189,-139,0,0,0,0,0,0,0,0,0,-1,1035,1163,0,0
-182,-139,0,0,0,0,0,0,0,0,0,-1,1042,1163,0,0
-175,-139,0,0,0,0,0,0,0,0,0,-1,1049,1163,0,0
-168,-139,0,0,0,0,0,0,0,0,0,-1,1056,1163,0,0
-161,-139,0,0,0,0,0,0,0,0,0,-1,1063,1163,0,0
-154,-139,0,0,0,0,0,0,0,0,0,-1,1070,1163,0,0
-147,-139,0,0,0,0,0,0,0,0,0,-1,1077,1163,0,0
-140,-139,0,0,0,0,0,0,0,0,0,-1,1084,1163,0,0
-133,-139,0,0,0,0,0,0,0,0,0,-1,1091,1163,0,0
-126,-139,0,0,0,0,0,0,0,0,0,-1,1098,1163,0,0
-119,-139,0,0,0,0,0,0,0,0,0,-1,1105,1163,0,0
-112,-139,0,0,0,0,0,0,0,0,0,-1,1112,1163,0,0
-105,-139,0,0,0,0,0,0,0,0,0,-1,1119,1163,0,0
-98,-139,0,0,0,0,0,0,0,0,0,-1,1126,1163,0,0
-91,-139,0,0,0,0,0,0,0,0,0,-1,1133,1163,0,0
-84,-139,0,0,0,0,0,0,0,0,0,-1,1140,1163,0,0
-77,-139,0,0,0,0,0,0,0,0,0,-1,1147,1163,0,0
-70,-139,0,0,0,0,0,0,0,0,0,-1,1154,1163,0,0
-63,-139,0,0,0,0,0,0,0,0,0,-1,1161,1163,0,0
-56,-139,0,0,0,0,0,0,0,0,0,-1,1168,1163,0,0
-49,-139,0,0,0,0,0,0,0,0,0,-1,1175,1163,0,0
-42,-139,0,0,0,0,0,0,0,0,0,-1,1182,1163,0,0
-35,-139,0,0,0,0,0,0,0,0,0,-1,1189,1163,0,0
-28,-139,0,0,0,0,0,0,0,0,0,-1,1196,1163,0,0
-21,-139,0,0,0,0,0,0,0,0,0,-1,1203,1163,0,0
-14,-139,0,0,0,0,0,0,0,0,0,-1,1210,1163,0,0
-7,-139,0,0,0,0,0,0,0,0,0,-1,1217,1163,0,0
0,-139,0,0,0,0,0,0,0,0,0,-1,1224,1163,0,0
7,-139,0,0,0,0,0,0,0,0,0,-1,1231,1163,0,0
14,-139,0,0,0,0,0,0,0,0,0,-1,1238,1163,0,0
21,-139,0,0,0,0,0,0,0,0,0,-1,1245,1163,0,0
28,-139,0,0,0,0,0,0,0,0,0,-1,1252,1163,0,0
35,-139,0,0,0,0,0,0,0,0,0,-1,1259,1163,0,0
42,-139,0,0,0,0,0,0,0,0,0,-1,1266,1163,0,0
49,-139,0,0,0,0,0,0,0,0,0,-1,1273,1163,0,0
56,-139,0,0,0,0,0,0,0,0,0,-1,1280,1163,0,0
63,-139,0,0,0,0,0,0,0,0,0,-1,1287,1163,0,0
70,-139,0,0,0,0,0,0,0,0,0,-1,1294,1163,0,0
77,-139,0,0,0,0,0,0,0,0,0,-1,1301,1163,0,0
84,-139,0,0,0,0,0,0,0,0,0,-1,1308,1163,0,0
91,-139,0,0,0,0,0,0,0,0,0,-1,1315,1163,0,0
98,-139,0,0,0,0,0,0,0,0,0,-1,1322,1163,0,0
105,-139,0,0,0,0,0,0,0,0,0,-1,1329,1163,0,0
112,-139,0,0,0,0,0,0,0,0,0,-1,1336,1163,0,0
119,-139,0,0,0,0,0,0,0,0,0,-1,1343,1163,0,0
126,-139,0,0,0,0,0,0,0,0,0,-1,1350,1163,0,0
133,-139,0,0,0,0,0,0,0,0,0,-1,1357,1163,0,0
140,-139,0,0,0,0,0,0,0,0,0,-1,1364,1163,0,0
147,-139,0,0,0,0,0,0,0,0,0,-1,1371,1163,0,0
154,-139,0,0,0,0,0,0,0,0,0,-1,1378,1163,0,0
161,-139,0,0,0,0,0,0,0,0,0,-1,1385,1163,0,0
168,-139,0,0,0,0,0,0,0,0,0,-1,1392,1163,0,0
175,-139,0,0,0,0,0,0,0,0,0,-1,1399,1163,0,0
182,-139,0,0,0,0,0,0,0,0,0,-1,1406,1163,0,0
189,-139,0,0,0,0,0,0,0,0,0,-1,1413,1163,0,0
196,-139,0,0,0,0,0,0,0,0,0,-1,1420,1163,0,0
203,-139,0,0,0,0,0,0,0,0,0,-1,1427,1163,0,0
210,-139,0,0,0,0,0,0,0,0,0,-1,1434,1163,0,0
217,-139,0,0,0,0,0,0,0,0,0,-1,1441,1163,0,0
224,-139,0,0,0,0,0,0,0,0,0,-1,1448,1163,0,0
231,-139,0,0,0,0,0,0,0,0,0,-1,1455,1163,0,0
238,-139,0,0,0,0,0,0,0,0,0,-1,1462,1163,0,0
245,-139,0,0,0,0,0,0,0,0,0,-1,1469,1163,0,0
252,-139,0,0,0,0,0,0,0,0,0,-1,1476,1163,0,0
259,-139,0,0,0,0,0,0,0,0,0,-1,1483,1163,0,0
266,-139,0,0,0,0,0,0,0,0,0,-1,1490,1163,0,0
273,-139,0,0,0,0,0,0,0,0,0,-1,1497,1163,0,0
280,-139,0,0,0,0,0,0,0,0,0,-1,1504,1163,0,0
287,-139,0,0,0,0,0,0,0,0,0,-1,1511,1163,0,0
294,-139,0,0,0,0,0,0,0,0,0,-1,1518,1163,0,0
301,-139,0,0,0,0,0,0,0,0,0,-1,1525,1163,0,0
308,-139,0,0,0,0,0,0,0,0,0,-1,1532,1163,0,0
315,-139,0,0,0,0,0,0,0,0,0,-1,1539,1163,0,0
322,-139,0,0,0,0,0,0,0,0,0,-1,1546,1163,0,0
329,-139,0,0,0,0,0,0,0,0,0,-1,1553,1163,0,0
336,-139,0,0,0,0,0,0,0,0,0,-1,1560,1163,0,0
343,-139,0,0,0,0,0,0,0,0,0,-1,1567,1163,0,0
350,-139,0,0,0,0,0,0,0,0,0,-1,1574,1163,0,0
357,-139,0,0,0,0,0,0,0,0,0,-1,1581,1163,0,0
364,-139,0,0,0,0,0,0,0,0,0,-1,1588,1163,0,0
371,-139,0,0,0,0,0,0,0,0,0,-1,1595,1163,0,0
378,-139,0,0,0,0,0,0,0,0,0,-1,1602,1163,0,0
385,-139,0,0,0,0,0,0,0,0,0,-1,1609,1163,0,0
392,-139,0,0,0,0,0,0,0,0,0,-1,1616,1163,0,0
399,-139,0,0,0,0,0,0,0,0,0,-1,1623,1163,0,0
406,-139,0,0,0,0,0,0,0,0,0,-1,1630,1163,0,0
413,-139,0,0,0,0,0,0,0,0,0,-1,1637,1163,0,0
420,-139,0,0,0,0,0,0,0,0,0,-1,1644,1163,0,0
427,-139,0,0,0,0,0,0,0,0,0,-1,1651,1163,0,0
434,-139,0,0,0,0,0,0,0,0,0,-1,1658,1163,0,0
441,-139,0,0,0,0,0,0,0,0,0,-1,1665,1163,0,0
448,-139,0,0,0,0,0,0,0,0,0,-1,1672,1163,0,0
455,-139,0,0,0,0,0,0,0,0,0,-1,1679,1163,0,0
462,-139,0,0,0,0,0,0,0,0,0,-1,1686,1163,0,0
469,-139,0,0,0,0,0,0,0,0,0,-1,1693,1163,0,0
476,-139,0,0,0,0,0,0,0,0,0,-1,1700,1163,0,0
483,-139,0,0,0,0,0,0,0,0,0,-1,1707,1163,0,0
490,-139,0,0,0,0,0,0,0,0,0,-1,1714,1163,0,0
497,-139,0,0,0,0,0,0,0,0,0,-1,1721,1163,0,0
504,-139,0,0,0,0,0,0,0,0,0,-1,1728,1163,0,0
511,-139,0,0,0,0,0,0,0,0,0,-1,1735,1163,0,0
518,-139,0,0,0,0,0,0,0,0,0,-1,1742,1163,0,0
525,-139,0,0,0,0,0,0,0,0,0,-1,1749,1163,0,0
532,-139,0,0,0,0,0,0,0,0,0,-1,1756,1163,0,0
539,-139,0,0,0,0,0,0,0,0,0,-1,1763,1163,0,0
546,-139,0,0,0,0,0,0,0,0,0,-1,1770,1163,0,0
553,-139,0,0,0,0,0,0,0,0,0,-1,1777,1163,0,0
560,-139,0,0,0,0,0,0,0,0,0,-1,1784,1163,0,0
567,-139,0,0,0,0,0,0,0,0,0,-1,1791,1163,0,0
574,-139,0,0,0,0,0,0,0,0,0,-1,1798,1163,0,0
581,-139,0,0,0,0,0,0,0,0,0,-1,1805,1163,0,0
588,-139,0,0,0,0,0,0,0,0,0,-1,1812,1163,0,0
595,-139,0,0,0,0,0,0,0,0,0,-1,1819,1163,0,0
602,-139,0,0,0,0,0,0,0,0,0,-1,1826,1163,0,0
609,-139,0,0,0,0,0,0,0,0,0,-1,1833,1163,0,0
616,-139,0,0,0,0,0,0,0,0,0,-1,1840,1163,0,0
623,-139,0,0,0,0,0,0,0,0,0,-1,1847,1163,0,0
630,-139,0,0,0,0,0,0,0,0,0,-1,1854,1163,0,0
637,-139,0,0,0,0,0,0,0,0,0,-1,1861,1163,0,0
644,-139,7.19727,1.16907,-0.000133091,0.000674124,-0.000852621,0.00121384,-0.000672808,-1.00646,0.00110409,0.0382109,1868,1163,7.1973,-1.1691
651,-139,7.14087,1.01392,0.000251576,0.000293313,-0.000744192,0.00101693,-0.00047204,-0.799415,0.000878635,0.0397899,1875,1163,7.14083,-1.01397
658,-139,7.15039,0.828003,0.00014962,3.17272e-05,-0.000403086,0.000498047,-0.0003167,-0.712794,0.000474262,0.0398558,1882,1163,7.15036,-0.827944
665,-139,7.21191,0.950806,-0.000391432,-0.000294621,0.000137402,-0.000197347,-0.000488706,0.954753,0.000283889,0.0396916,1889,1163,7.21193,-0.950786
672,-139,7.26221,1.03491,-0.00108706,-0.00058041,0.000686985,-0.00010153,-0.00156594,0.962036,0.00101181,0.0382577,1896,1163,7.2622,-1.03495
679,-139,7.25867,0.958496,-0.00176262,-0.000811607,0.00116654,-2.7386e-05,-0.00254684,0.978928,0.00168884,0.0349806,1903,1163,7.25868,-0.95847
686,-139,7.19458,0.984009,-0.00231617,-0.000998204,0.00155568,3.23066e-05,-0.00334668,0.985739,0.00224196,0.0313452,1910,1163,7.19457,-0.98405
693,-139,7.19324,1.04309,-0.00273499,-0.00106934,0.00179839,7.97005e-05,-0.00388404,1.00224,0.00261633,0.0188292,1917,1163,7.19323,-1.04313
700,-139,7.17188,1.01379,-0.00290317,-0.00122309,0.00199257,9.92785e-05,-0.00422553,0.984886,0.00285069,0.0355355,1924,1163,7.17192,-1.01377
707,-139,7.01282,1.16724,-0.00295675,-0.00120233,0.00212016,0.00021493,-0.00437401,0.981548,0.00299023,0.0233677,1931,1163,7.0128,-1.16721
714,-139,6.89209,1.37695,-0.00308115,-0.00110635,0.00209033,0.000218049,-0.00440555,1.00605,0.00301235,0.0247761,1938,1163,6.89206,-1.37694
721,-139,6.88501,1.32166,-0.00310239,-0.00097039,0.0019428,0.000179647,-0.00425243,1.03632,0.00289669,0.0178223,1945,1163,6.88502,-1.32166
728,-139,6.88599,1.29114,-0.00284021,-0.000824698,0.00189101,0.000310319,-0.00397522,1.03022,0.00275941,0.019366,1952,1163,6.88602,-1.29114
735,-139,6.89673,1.29749,-0.00245576,-0.000733648,0.00183979,0.000436615,-0.00362603,1.00427,0.00257526,0.0165576,1959,1163,6.89672,-1.29755
742,-139,6.91357,1.25293,-0.00203737,-0.000796893,0.00162313,0.00032047,-0.00315473,0.967899,0.00221771,0.0215672,1966,1163,6.91357,-1.25292
749,-139,6.89697,1.21472,-0.000652073,-0.000921534,0.00148695,0.000706242,-0.00227985,0.740217,0.00180205,0.0182793,1973,1163,6.89698,-1.21478
756,-139,6.87292,1.19458,0.00162157,-0.00108833,0.00168114,0.00242582,-0.00189258,0.446213,0.00249956,0.0100932,1980,1163,6.87293,-1.19459
763,-139,6.88171,1.17542,0.00404431,-0.00127632,0.00192239,0.0046662,-0.00189821,0.312873,0.00390066,0.0102099,1987,1163,6.88167,-1.17538
770,-139,6.88611,1.15991,0.00730132,-0.00176905,0.00242322,0.00790811,-0.00237584,0.245361,0.00621723,0.0115407,1994,1163,6.8861,-1.15993
777,-139,6.84741,1.15491,0.0120252,-0.00247814,0.00321218,0.0127048,-0.00315772,0.208491,0.00969539,0.0210692,2001,1163,6.84744,-1.15489
784,-139,6.79883,1.30798,0.0188534,-0.00334964,0.00426692,0.0196451,-0.00414141,0.183474,0.0146733,0.0401416,2008,1163,6.79879,-1.30799
791,-139,7.21399,1.68079,0,0,0,0,0,0,0,-1,2015,1163,7.21403,-1.68083
798,-139,7.83655,2.21814,0.041539,-0.00534774,0.0075141,0.0427138,-0.00652252,0.155088,0.0308805,0.0485268,2022,1163,7.83654,-2.2181
805,-139,8.62769,2.68591,0.0589124,-0.00618213,0.00997946,0.060408,-0.0076777,0.148757,0.04306,0.0476547,2029,1163,8.62774,-2.68596
812,-139,0,0,0,0,0,0,0,0,0,-1,2036,1163,0,0
-700,-146,0,0,0,0,0,0,0,0,0,-1,524,1170,0,0
-693,-146,-3.7934,-2.92932,-0.0123558,0.174995,0.0625812,0.193976,-0.0313369,1.27631,0.140929,0.0407563,531,1170,-3.79339,2.92927
-686,-146,-4.1178,-2.69104,-0.00447073,0.159781,0.0515927,0.174642,-0.0193318,1.29034,0.123378,0.0473618,538,1170,-4.1178,2.69106
-679,-146,-4.42004,-2.34998,0,0,0,0,0,0,0,-1,545,1170,-4.42001,2.35001
-672,-146,-6.34149,0.252197,0,0,0,0,0,0,0,-1,552,1170,-6.34151,-0.252255
-665,-146,-2.45081,0.332886,0,0,0,0,0,0,0,-1,559,1170,-2.4508,-0.332827
-658,-146,-2.36798,0.424683,0.0038141,0.0780894,0.0184866,0.0824362,-0.000532679,1.33986,0.0551359,0.0477558,566,1170,-2.36796,-0.424741
-651,-146,-2.37732,0.5177,0.00327062,0.0593105,0.0130265,0.0621905,0.000390595,1.35321,0.0413308,0.0381569,573,1170,-2.37731,-0.517754
-644,-146,-2.36261,0.657227,0.00243766,0.0429335,0.00877514,0.0447532,0.000617923,1.36632,0.0296316,0.0197214,580,1170,-2.3626,-0.657258
-637,-146,-2.33203,0.748901,0.00224915,0.0293709,0.00481549,0.0302005,0.00141953,1.40019,0.0196776,0.0106931,587,1170,-2.33202,-0.74895
-630,-146,-2.33661,0.775146,0.00161719,0.0181791,0.00206334,0.0184323,0.001364,1.4487,0.0118597,0.0103333,594,1170,-2.33659,-0.775095
-623,-146,-2.36194,0.812622,0.0002376,0.0106384,0.00139744,0.0108228,5.31143e-05,1.43954,0.00719759,0.0131932,601,1170,-2.36195,-0.812642
-616,-146,-2.38971,0.85022,-0.00162653,0.00426955,-5.46036e-05,0.00427006,-0.00162703,-1.56154,0.00351683,0.0195418,608,1170,-2.3897,-0.850263
-609,-146,-2.37482,0.896484,-0.00222125,0.000393077,-0.000657188,0.000548983,-0.00237716,-1.33787,0.00179596,0.0176771,615,1170,-2.3748,-0.896485
-602,-146,-2.36713,0.914063,-0.00265386,-0.00151432,-0.000670909,-0.00120389,-0.00296429,-1.13743,0.00172146,0.0175673,622,1170,-2.36714,-0.914109
-595,-146,-2.36273,0.932129,-0.00303926,-0.00180776,-0.000986063,-0.00126098,-0.00358603,-1.0645,0.00210056,0.00984197,629,1170,-2.36271,-0.932113
-588,-146,-2.34949,0.984741,-0.00333765,-0.00195841,-0.0013755,-0.00110934,-0.00418672,-1.01777,0.00250464,0.011173,636,1170,-2.34946,-0.984759
-581,-146,-2.36694,1.03967,-0.00353008,-0.00191054,-0.00173876,-0.000802235,-0.00463839,-1.00332,0.00286257,0.0221503,643,1170,-2.36697,-1.0397
-574,-146,-2.4906,0.86731,-0.00356154,-0.00182723,-0.0016724,-0.000810534,-0.00457823,-1.02457,0.00282106,0.0370818,650,1170,-2.49062,-0.867333
-567,-146,-2.65436,0.868164,-0.00348737,-0.0015147,-0.0015063,-0.000700537,-0.00430153,-1.07527,0.00266504,0.0379957,657,1170,-2.65435,-0.868183
-560,-146,-2.66931,0.858276,-0.00317099,-0.000957316,-0.00131418,-0.000345972,-0.00378234,-1.13538,0.00241451,0.0362358,664,1170,-2.66933,-0.858288
-553,-146,-2.61426,0.861084,-0.00253332,-2.94718e-05,-0.000897213,0.000258833,-0.00282163,-1.25988,0.00197303,0.0369747,671,1170,-2.61428,-0.861107
-546,-146,-2.60016,0.734131,-0.00155824,0.00131831,-0.000163836,0.00132761,-0.00156754,-1.51408,0.00167343,0.0409706,678,1170,-2.60017,-0.734111
-539,-146,-2.6792,0.574951,-0.000210455,0.00312666,0.00101027,0.00340867,-0.00049247,1.29858,0.00245314,0.0403499,685,1170,-2.6792,-0.574905
-532,-146,-2.76404,0.485107,0.00147613,0.00543229,0.00275192,0.00684329,6.51309e-05,1.09701,0.00454064,0.0379324,692,1170,-2.76402,-0.485168
-525,-146,-2.58948,0.589844,0.00310651,0.00817566,0.0051333,0.011366,-8.38446e-05,1.01472,0.00760545,0.0397178,699,1170,-2.58951,-0.589846
-518,-146,0,0,0,0,0,0,0,0,0,-1,706,1170,0,0
-511,-146,0,0,0,0,0,0,0,0,0,-1,713,1170,0,0
-504,-146,0,0,0,0,0,0,0,0,0,-1,720,1170,0,0
-497,-146,0,0,0,0,0,0,0,0,0,-1,727,1170,0,0
-490,-146,0,0,0,0,0,0,0,0,0,-1,734,1170,0,0
-483,-146,0,0,0,0,0,0,0,0,0,-1,741,1170,0,0
-476,-146,0,0,0,0,0,0,0,0,0,-1,748,1170,0,0
-469,-146,0,0,0,0,0,0,0,0,0,-1,755,1170,0,0
-462,-146,0,0,0,0,0,0,0,0,0,-1,762,1170,0,0
-455,-146,0,0,0,0,0,0,0,0,0,-1,769,1170,0,0
-448,-146,0,0,0,0,0,0,0,0,0,-1,776,1170,0,0
-441,-146,0,0,0,0,0,0,0,0,0,-1,783,1170,0,0
-434,-146,0,0,0,0,0,0,0,0,0,-1,790,1170,0,0
-427,-146,0,0,0,0,0,0,0,0,0,-1,797,1170,0,0
-420,-146,0,0,0,0,0,0,0,0,0,-1,804,1170,0,0
-413,-146,0,0,0,0,0,0,0,0,0,-1,811,1170,0,0
-406,-146,0,0,0,0,0,0,0,0,0,-1,818,1170,0,0
-399,-146,0,0,0,0,0,0,0,0,0,-1,825,1170,0,0
-392,-146,0,0,0,0,0,0,0,0,0,-1,832,1170,0,0
-385,-146,0,0,0,0,0,0,0,0,0,-1,839,1170,0,0
-378,-146,0,0,0,0,0,0,0,0,0,-1,846,1170,0,0
-371,-146,0,0,0,0,0,0,0,0,0,-1,853,1170,0,0
-364,-146,0,0,0,0,0,0,0,0,0,-1,860,1170,0,0
-357,-146,0,0,0,0,0,0,0,0,0,-1,867,1170,0,0
-350,-146,0,0,0,0,0,0,0,0,0,-1,874,1170,0,0
-343,-146,0,0,0,0,0,0,0,0,0,-1,881,1170,0,0
-336,-146,0,0,0,0,0,0,0,0,0,-1,888,1170,0,0
-329,-146,0,0,0,0,0,0,0,0,0,-1,895,1170,0,0
-322,-146,0,0,0,0,0,0,0,0,0,-1,902,1170,0,0
-315,-146,0,0,0,0,0,0,0,0,0,-1,909,1170,0,0
-308,-146,0,0,0,0,0,0,0,0,0,-1,916,1170,0,0
-301,-146,0,0,0,0,0,0,0,0,0,-1,923,1170,0,0
-294,-146,0,0,0,0,0,0,0,0,0,-1,930,1170,0,0
-287,-146,0,0,0,0,0,0,0,0,0,-1,937,1170,0,0
-280,-146,0,0,0,0,0,0,0,0,0,-1,944,1170,0,0
-273,-146,0,0,0,0,0,0,0,0,0,-1,951,1170,0,0
-266,-146,0,0,0,0,0,0,0,0,0,-1,958,1170,0,0
-259,-146,0,0,0,0,0,0,0,0,0,-1,965,1170,0,0
-252,-146,0,0,0,0,0,0,0,0,0,-1,972,1170,0,0
-245,-146,0,0,0,0,0,0,0,0,0,-1,979,1170,0,0
-238,-146,0,0,0,0,0,0,0,0,0,-1,986,1170,0,0
-231,-146,0,0,0,0,0,0,0,0,0,-1,993,1170,0,0
-224,-146,0,0,0,0,0,0,0,0,0,-1,1000,1170,0,0
-217,-146,0,0,0,0,0,0,0,0,0,-1,1007,1170,0,0
-210,-146,0,0,0,0,0,0,0,0,0,-1,1014,1170,0,0
-203,-146,0,0,0,0,0,0,0,0,0,-1,1021,1170,0,0
-196,-146,0,0,0,0,0,0,0,0,0,-1,1028,1170,0,0
-189,-146,0,0,0,0,0,0,0,0,0,-1,1035,1170,0,0
-182,-146,0,0,0,0,0,0,0,0,0,-1,1042,1170,0,0
-175,-146,0,0,0,0,0,0,0,0,0,-1,1049,1170,0,0
-168,-146,0,0,0,0,0,0,0,0,0,-1,1056,1170,0,0
-161,-146,0,0,0,0,0,0,0,0,0,-1,1063,1170,0,0
-154,-146,0,0,0,0,0,0,0,0,0,-1,1070,1170,0,0
-147,-146,0,0,0,0,0,0,0,0,0,-1,1077,1170,0,0
-140,-146,0,0,0,0,0,0,0,0,0,-1,1084,1170,0,0
-133,-146,0,0,0,0,0,0,0,0,0,-1,1091,1170,0,0
-126,-146,0,0,0,0,0,0,0,0,0,-1,1098,1170,0,0
-119,-146,0,0,0,0,0,0,0,0,0,-1,1105,1170,0,0
-112,-146,0,0,0,0,0,0,0,0,0,-1,1112,1170,0,0
-105,-146,0,0,0,0,0,0,0,0,0,-1,1119,1170,0,0
-98,-146,0,0,0,0,0,0,0,0,0,-1,1126,1170,0,0
-91,-146,0,0,0,0,0,0,0,0,0,-1,1133,1170,0,0
-84,-146,0,0,0,0,0,0,0,0,0,-1,1140,1170,0,0
-77,-146,0,0,0,0,0,0,0,0,0,-1,1147,1170,0,0
-70,-146,0,0,0,0,0,0,0,0,0,-1,1154,1170,0,0
-63,-146,0,0,0,0,0,0,0,0,0,-1,1161,1170,0,0
-56,-146,0,0,0,0,0,0,0,0,0,-1,1168,1170,0,0
-49,-146,0,0,0,0,0,0,0,0,0,-1,1175,1170,0,0
-42,-146,0,0,0,0,0,0,0,0,0,-1,1182,1170,0,0
-35,-146,0,0,0,0,0,0,0,0,0,-1,1189,1170,0,0
-28,-146,0,0,0,0,0,0,0,0,0,-1,1196,1170,0,0
-21,-146,0,0,0,0,0,0,0,0,0,-1,1203,1170,0,0
-14,-146,0,0,0,0,0,0,0,0,0,-1,1210,1170,0,0
-7,-146,0,0,0,0,0,0,0,0,0,-1,1217,1170,0,0
0,-146,0,0,0,0,0,0,0,0,0,-1,1224,1170,0,0
7,-146,0,0,0,0,0,0,0,0,0,-1,1231,1170,0,0
14,-146,0,0,0,0,0,0,0,0,0,-1,1238,1170,0,0
21,-146,0,0,0,0,0,0,0,0,0,-1,1245,1170,0,0
28,-146,0,0,0,0,0,0,0,0,0,-1,1252,1170,0,0
35,-146,0,0,0,0,0,0,0,0,0,-1,1259,1170,0,0
42,-146,0,0,0,0,0,0,0,0,0,-1,1266,1170,0,0
49,-146,0,0,0,0,0,0,0,0,0,-1,1273,1170,0,0
56,-146,0,0,0,0,0,0,0,0,0,-1,1280,1170,0,0
63,-146,0,0,0,0,0,0,0,0,0,-1,1287,1170,0,0
70,-146,0,0,0,0,0,0,0,0,0,-1,1294,1170,0,0
77,-146,0,0,0,0,0,0,0,0,0,-1,1301,1170,0,0
84,-146,0,0,0,0,0,0,0,0,0,-1,1308,1170,0,0
91,-146,0,0,0,0,0,0,0,0,0,-1,1315,1170,0,0
98,-146,0,0,0,0,0,0,0,0,0,-1,1322,1170,0,0
105,-146,0,0,0,0,0,0,0,0,0,-1,1329,1170,0,0
112,-146,0,0,0,0,0,0,0,0,0,-1,1336,1170,0,0
119,-146,0,0,0,0,0,0,0,0,0,-1,1343,1170,0,0
126,-146,0,0,0,0,0,0,0,0,0,-1,1350,1170,0,0
133,-146,0,0,0,0,0,0,0,0,0,-1,1357,1170,0,0
140,-146,0,0,0,0,0,0,0,0,0,-1,1364,1170,0,0
147,-146,0,0,0,0,0,0,0,0,0,-1,1371,1170,0,0
154,-146,0,0,0,0,0,0,0,0,0,-1,1378,1170,0,0
161,-146,0,0,0,0,0,0,0,0,0,-1,1385,1170,0,0
168,-146,0,0,0,0,0,0,0,0,0,-1,1392,1170,0,0
175,-146,0,0,0,0,0,0,0,0,0,-1,1399,1170,0,0
182,-146,0,0,0,0,0,0,0,0,0,-1,1406,1170,0,0
189,-146,0,0,0,0,0,0,0,0,0,-1,1413,1170,0,0
196,-146,0,0,0,0,0,0,0,0,0,-1,1420,1170,0,0
203,-146,0,0,0,0,0,0,0,0,0,-1,1427,1170,0,0
210,-146,0,0,0,0,0,0,0,0,0,-1,1434,1170,0,0
217,-146,0,0,0,0,0,0,0,0,0,-1,1441,1170,0,0
224,-146,0,0,0,0,0,0,0,0,0,-1,1448,1170,0,0
231,-146,0,0,0,0,0,0,0,0,0,-1,1455,1170,0,0
238,-146,0,0,0,0,0,0,0,0,0,-1,1462,1170,0,0
245,-146,0,0,0,0,0,0,0,0,0,-1,1469,1170,0,0
252,-146,0,0,0,0,0,0,0,0,0,-1,1476,1170,0,0
259,-146,0,0,0,0,0,0,0,0,0,-1,1483,1170,0,0
266,-146,0,0,0,0,0,0,0,0,0,-1,1490,1170,0,0
273,-146,0,0,0,0,0,0,0,0,0,-1,1497,1170,0,0
280,-146,0,0,0,0,0,0,0,0,0,-1,1504,1170,0,0
287,-146,0,0,0,0,0,0,0,0,0,-1,1511,1170,0,0
294,-146,0,0,0,0,0,0,0,0,0,-1,1518,1170,0,0
301,-146,0,0,0,0,0,0,0,0,0,-1,1525,1170,0,0
308,-146,0,0,0,0,0,0,0,0,0,-1,1532,1170,0,0
315,-146,0,0,0,0,0,0,0,0,0,-1,1539,1170,0,0
322,-146,0,0,0,0,0,0,0,0,0,-1,1546,1170,0,0
329,-146,0,0,0,0,0,0,0,0,0,-1,1553,1170,0,0
336,-146,0,0,0,0,0,0,0,0,0,-1,1560,1170,0,0
343,-146,0,0,0,0,0,0,0,0,0,-1,1567,1170,0,0
350,-146,0,0,0,0,0,0,0,0,0,-1,1574,1170,0,0
357,-146,0,0,0,0,0,0,0,0,0,-1,1581,1170,0,0
364,-146,0,0,0,0,0,0,0,0,0,-1,1588,1170,0,0
371,-146,0,0,0,0,0,0,0,0,0,-1,1595,1170,0,0
378,-146,0,0,0,0,0,0,0,0,0,-1,1602,1170,0,0
385,-146,0,0,0,0,0,0,0,0,0,-1,1609,1170,0,0
392,-146,0,0,0,0,0,0,0,0,0,-1,1616,1170,0,0
399,-146,0,0,0,0,0,0,0,0,0,-1,1623,1170,0,0
406,-146,0,0,0,0,0,0,0,0,0,-1,1630,1170,0,0
413,-146,0,0,0,0,0,0,0,0,0,-1,1637,1170,0,0
420,-146,0,0,0,0,0,0,0,0,0,-1,1644,1170,0,0
427,-146,0,0,0,0,0,0,0,0,0,-1,1651,1170,0,0
434,-146,0,0,0,0,0,0,0,0,0,-1,1658,1170,0,0
441,-146,0,0,0,0,0,0,0,0,0,-1,1665,1170,0,0
448,-146,0,0,0,0,0,0,0,0,0,-1,1672,1170,0,0
455,-146,0,0,0,0,0,0,0,0,0,-1,1679,1170,0,0
462,-146,0,0,0,0,0,0,0,0,0,-1,1686,1170,0,0
469,-146,0,0,0,0,0,0,0,0,0,-1,1693,1170,0,0
476,-146,0,0,0,0,0,0,0,0,0,-1,1700,1170,0,0
483,-146,0,0,0,0,0,0,0,0,0,-1,1707,1170,0,0
490,-146,0,0,0,0,0,0,0,0,0,-1,1714,1170,0,0
497,-146,0,0,0,0,0,0,0,0,0,-1,1721,1170,0,0
504,-146,0,0,0,0,0,0,0,0,0,-1,1728,1170,0,0
511,-146,0,0,0,0,0,0,0,0,0,-1,1735,1170,0,0
518,-146,0,0,0,0,0,0,0,0,0,-1,1742,1170,0,0
525,-146,0,0,0,0,0,0,0,0,0,-1,1749,1170,0,0
532,-146,0,0,0,0,0,0,0,0,0,-1,1756,1170,0,0
539,-146,0,0,0,0,0,0,0,0,0,-1,1763,1170,0,0
546,-146,0,0,0,0,0,0,0,0,0,-1,1770,1170,0,0
553,-146,0,0,0,0,0,0,0,0,0,-1,1777,1170,0,0
560,-146,0,0,0,0,0,0,0,0,0,-1,1784,1170,0,0
567,-146,0,0,0,0,0,0,0,0,0,-1,1791,1170,0,0
574,-146,0,0,0,0,0,0,0,0,0,-1,1798,1170,0,0
581,-146,0,0,0,0,0,0,0,0,0,-1,1805,1170,0,0
588,-146,0,0,0,0,0,0,0,0,0,-1,1812,1170,0,0
595,-146,0,0,0,0,0,0,0,0,0,-1,1819,1170,0,0
602,-146,0,0,0,0,0,0,0,0,0,-1,1826,1170,0,0
609,-146,0,0,0,0,0,0,0,0,0,-1,1833,1170,0,0
616,-146,0,0,0,0,0,0,0,0,0,-1,1840,1170,0,0
623,-146,0,0,0,0,0,0,0,0,0,-1,1847,1170,0,0
630,-146,0,0,0,0,0,0,0,0,0,-1,1854,1170,0,0
637,-146,7.29199,0.906128,-0.00223668,0.00172938,-0.000877974,0.00191505,-0.00242235,-1.36239,0.0025099,0.0397015,1861,1170,7.29201,-0.906143
644,-146,7.28491,1.02173,-0.000902085,0.00121161,-0.000916543,0.00155369,-0.00124416,-1.21359,0.00161863,0.0375466,1868,1170,7.28488,-1.02171
651,-146,7.21265,0.986572,-0.000417164,0.000702683,-0.000787565,0.00110908,-0.000823559,-1.09442,0.00111986,0.0364891,1875,1170,7.21267,-0.986593
658,-146,7.2323,0.901245,-0.000467494,0.00029824,-0.000364793,0.000444203,-0.000613457,-1.19018,0.000613241,0.0401725,1882,1170,7.23225,-0.901295
665,-146,7.23694,0.937134,-0.000933446,-0.000128335,0.000227431,-6.8532e-05,-0.000993249,1.31367,0.000640545,0.0412109,1889,1170,7.23689,-0.937171
672,-146,7.27429,1.04565,-0.0015396,-0.000484763,0.000796806,-5.66361e-05,-0.00196773,1.07775,0.00129336,0.0387242,1896,1170,7.27435,-1.04565
679,-146,7.26013,1.02014,-0.00213571,-0.000766657,0.00129029,9.44326e-06,-0.00291181,1.02928,0.00194436,0.0302421,1903,1170,7.26011,-1.02009
686,-146,7.1626,0.984863,-0.00260912,-0.000982122,0.00168296,7.36438e-05,-0.00366488,1.01053,0.00246817,0.021041,1910,1170,7.16264,-0.984813
693,-146,7.17957,1.01099,-0.00296105,-0.00106025,0.00191672,0.000128763,-0.00415006,1.01556,0.00281061,0.0131894,1917,1170,7.17951,-1.01098
700,-146,7.13403,1.12317,0,0,0,0,0,0,0,-1,1924,1170,7.13409,-1.12312
707,-146,7.0033,1.23792,-0.00306119,-0.0012002,0.00220497,0.000262576,-0.00452396,0.985061,0.0031072,0.0288587,1931,1170,7.00332,-1.2379
714,-146,6.90149,1.33777,-0.00315197,-0.00110694,0.00214638,0.000248039,-0.00450695,1.00769,0.00309063,0.0179924,1938,1170,6.9015,-1.33774
721,-146,6.86035,1.33044,-0.00316955,-0.000973859,0.00198457,0.000196284,-0.00433969,1.03804,0.00296073,0.0221161,1945,1170,6.86041,-1.33045
728,-146,6.8728,1.28418,-0.00290491,-0.000825209,0.00193385,0.000330634,-0.00406076,1.03208,0.00282384,0.0184032,1952,1170,6.87285,-1.28413
735,-146,6.85046,1.29907,-0.00240952,-0.000748711,0.00185293,0.000451379,-0.00360961,0.996059,0.00257011,0.0169783,1959,1170,6.85046,-1.29904
742,-146,6.85632,1.27075,-0.0017318,-0.000861852,0.00168311,0.00044158,-0.00303523,0.911849,0.0021856,0.0168346,1966,1170,6.85633,-1.27071
749,-146,6.85852,1.22998,-0.00026131,-0.00106246,0.00162846,0.00101512,-0.00233888,0.6648,0.00198607,0.0148383,1973,1170,6.85857,-1.23003
756,-146,6.86145,1.18518,0.00200523,-0.00139129,0.00198928,0.00292256,-0.00230863,0.432077,0.00302716,0.0106925,1980,1170,6.86146,-1.18519
763,-146,6.85583,1.15137,0.00441515,-0.00178337,0.00247715,0.00528347,-0.00265169,0.337148,0.0046646,0.0102802,1987,1170,6.8558,-1.15132
770,-146,6.85803,1.12952,0.00770358,-0.00253364,0.00329884,0.00867452,-0.00350457,0.286243,0.0072397,0.0113271,1994,1170,6.85799,-1.12952
777,-146,6.81958,1.13855,0.0124275,-0.00357359,0.00450356,0.013608,-0.00475404,0.256348,0.0110045,0.0198994,2001,1170,6.81952,-1.13852
784,-146,6.77856,1.18054,0.0191642,-0.00487324,0.00612082,0.020633,-0.00634207,0.23552,0.0162863,0.0401332,2008,1170,6.77861,-1.18055
791,-146,6.73987,1.224,0,0,0,0,0,0,0,-1,2015,1170,6.73988,-1.22399
798,-146,8.07849,2.28186,0,0,0,0,0,0,0,-1,2022,1170,8.07845,-2.28191
805,-146,8.98584,2.49121,0,0,0,0,0,0,0,-1,2029,1170,8.98588,-2.49126
812,-146,0,0,0,0,0,0,0,0,0,-1,2036,1170,0,0
-700,-153,0,0,0,0,0,0,0,0,0,-1,524,1177,0,0
-693,-153,0,0,0,0,0,0,0,0,0,-1,531,1177,0,0
-686,-153,-4.83569,-3.88489,0,0,0,0,0,0,0,-1,538,1177,-4.8357,3.8849
-679,-153,-5.06732,-3.51965,0,0,0,0,0,0,0,-1,545,1177,-5.06733,3.51967
-672,-153,-6.38293,-2.02283,0.002274,0.123387,0.0305007,0.130635,-0.00497346,1.33751,0.0887942,0.0470795,552,1177,-6.38292,2.02287
-665,-153,-6.13544,-1.39758,0.00247121,0.101108,0.0235319,0.106435,-0.00285517,1.3482,0.0719271,0.045471,559,1177,-6.13544,1.39755
-658,-153,-2.25183,0.295654,0,0,0,0,0,0,0,-1,566,1177,-2.25181,-0.295635
-651,-153,-2.30402,0.409302,0.00138721,0.059892,0.0126145,0.0624959,-0.00121675,1.36723,0.0420754,0.0458113,573,1177,-2.30404,-0.409308
-644,-153,-2.2926,0.650391,0.000675444,0.0429144,0.0087318,0.0446483,-0.00105845,1.37477,0.0301245,0.0271209,580,1177,-2.29262,-0.65035
-637,-153,-2.28839,0.731689,0.000435289,0.0290652,0.00511472,0.0299515,-0.000451018,1.39921,0.0201197,0.0113387,587,1177,-2.28837,-0.731676
-630,-153,-2.30096,0.762085,1.38877e-05,0.0178547,0.00255709,0.018214,-0.000345381,1.43121,0.0122594,0.00974356,594,1177,-2.30095,-0.762084
-623,-153,-2.31635,0.802124,-0.000794488,0.0102701,0.00189871,0.0105868,-0.00111124,1.40549,0.00745597,0.00954356,601,1177,-2.31633,-0.802102
-616,-153,-2.32416,0.843628,-0.00205136,0.00354058,0.00044365,0.00357556,-0.00208634,1.49211,0.00330638,0.0126144,608,1177,-2.32418,-0.843656
-609,-153,-2.33167,0.878906,-0.00241919,-0.000207707,-0.000276244,-0.000173722,-0.00245317,-1.44839,0.00158073,0.0179016,615,1177,-2.33168,-0.878934
-602,-153,-2.32782,0.908081,-0.0028294,-0.0016203,-0.000433434,-0.00148098,-0.00296872,-1.25979,0.00171399,0.0201303,622,1177,-2.32781,-0.908125
-595,-153,-2.33502,0.928345,-0.00319934,-0.00184637,-0.000809872,-0.00146762,-0.00357809,-1.13335,0.0020769,0.0139682,629,1177,-2.33502,-0.928323
-588,-153,-2.33124,0.968506,-0.00351645,-0.00198925,-0.00122356,-0.00131057,-0.00419514,-1.06437,0.00247824,0.00927367,636,1177,-2.33125,-0.968512
-581,-153,-2.3385,1.00098,-0.0037297,-0.00192578,-0.00165523,-0.000942719,-0.00471276,-1.03486,0.00287951,0.0185869,643,1177,-2.3385,-1.00097
-574,-153,-2.49829,1.01306,-0.0037575,-0.00186298,-0.00161933,-0.000934194,-0.00468628,-1.05005,0.00286403,0.0391746,650,1177,-2.49831,-1.01308
-567,-153,-2.67328,1.03076,0,0,0,0,0,0,0,-1,657,1177,-2.6733,-1.03076
-560,-153,-2.66602,0.91272,-0.00342826,-0.00102706,-0.00134203,-0.000426973,-0.00402835,-1.15031,0.00255516,0.0387067,664,1177,-2.66604,-0.912719
-553,-153,-2.55652,0.602661,-0.00278591,-0.00014748,-0.0010031,0.000190573,-0.00312396,-1.24574,0.00214898,0.0363321,671,1177,-2.5565,-0.602643
-546,-153,-2.63812,0.537598,-0.00176951,0.0011346,-0.000343463,0.00117467,-0.00180957,-1.45466,0.0017359,0.039771,678,1177,-2.63814,-0.537547
-539,-153,-2.84882,0.5625,-0.000323986,0.00286176,0.00077828,0.00304172,-0.000503954,1.34355,0.00221499,0.0418552,685,1177,-2.84883,-0.562452
-532,-153,-2.89685,0.717651,0.0015479,0.00507849,0.00252805,0.00639658,0.000229803,1.09018,0.00418989,0.041152,692,1177,-2.89688,-0.717606
-525,-153,-2.69385,0.810181,0.00352396,0.00775247,0.00507095,0.0111323,0.000144156,0.982908,0.00737393,0.0400468,699,1177,-2.69383,-0.810193
-518,-153,0,0,0,0,0,0,0,0,0,-1,706,1177,0,0
-511,-153,0,0,0,0,0,0,0,0,0,-1,713,1177,0,0
-504,-153,0,0,0,0,0,0,0,0,0,-1,720,1177,0,0
-497,-153,0,0,0,0,0,0,0,0,0,-1,727,1177,0,0
-490,-153,0,0,0,0,0,0,0,0,0,-1,734,1177,0,0
-483,-153,0,0,0,0,0,0,0,0,0,-1,741,1177,0,0
-476,-153,0,0,0,0,0,0,0,0,0,-1,748,1177,0,0
-469,-153,0,0,0,0,0,0,0,0,0,-1,755,1177,0,0
-462,-153,0,0,0,0,0,0,0,0,0,-1,762,1177,0,0
-455,-153,0,0,0,0,0,0,0,0,0,-1,769,1177,0,0
-448,-153,0,0,0,0,0,0,0,0,0,-1,776,1177,0,0
-441,-153,0,0,0,0,0,0,0,0,0,-1,783,1177,0,0
-434,-153,0,0,0,0,0,0,0,0,0,-1,790,1177,0,0
-427,-153,0,0,0,0,0,0,0,0,0,-1,797,1177,0,0
-420,-153,0,0,0,0,0,0,0,0,0,-1,804,1177,0,0
-413,-153,0,0,0,0,0,0,0,0,0,-1,811,1177,0,0
-406,-153,0,0,0,0,0,0,0,0,0,-1,818,1177,0,0
-399,-153,0,0,0,0,0,0,0,0,0,-1,825,1177,0,0
-392,-153,0,0,0,0,0,0,0,0,0,-1,832,1177,0,0
-385,-153,0,0,0,0,0,0,0,0,0,-1,839,1177,0,0
-378,-153,0,0,0,0,0,0,0,0,0,-1,846,1177,0,0
-371,-153,0,0,0,0,0,0,0,0,0,-1,853,1177,0,0
-364,-153,0,0,0,0,0,0,0,0,0,-1,860,1177,0,0
-357,-153,0,0,0,0,0,0,0,0,0,-1,867,1177,0,0
-350,-153,0,0,0,0,0,0,0,0,0,-1,874,1177,0,0
-343,-153,0,0,0,0,0,0,0,0,0,-1,881,1177,0,0
-336,-153,0,0,0,0,0,0,0,0,0,-1,888,1177,0,0
-329,-153,0,0,0,0,0,0,0,0,0,-1,895,1177,0,0
-322,-153,0,0,0,0,0,0,0,0,0,-1,902,1177,0,0
-315,-153,0,0,0,0,0,0,0,0,0,-1,909,1177,0,0
-308,-153,0,0,0,0,0,0,0,0,0,-1,916,1177,0,0
-301,-153,0,0,0,0,0,0,0,0,0,-1,923,1177,0,0
-294,-153,0,0,0,0,0,0,0,0,0,-1,930,1177,0,0
-287,-153,0,0,0,0,0,0,0,0,0,-1,937,1177,0,0
-280,-153,0,0,0,0,0,0,0,0,0,-1,944,1177,0,0
-273,-153,0,0,0,0,0,0,0,0,0,-1,951,1177,0,0
-266,-153,0,0,0,0,0,0,0,0,0,-1,958,1177,0,0
-259,-153,0,0,0,0,0,0,0,0,0,-1,965,1177,0,0
-252,-153,0,0,0,0,0,0,0,0,0,-1,972,1177,0,0
-245,-153,0,0,0,0,0,0,0,0,0,-1,979,1177,0,0
-238,-153,0,0,0,0,0,0,0,0,0,-1,986,1177,0,0
-231,-153,0,0,0,0,0,0,0,0,0,-1,993,1177,0,0
-224,-153,0,0,0,0,0,0,0,0,0,-1,1000,1177,0,0
-217,-153,0,0,0,0,0,0,0,0,0,-1,1007,1177,0,0
-210,-153,0,0,0,0,0,0,0,0,0,-1,1014,1177,0,0
-203,-153,0,0,0,0,0,0,0,0,0,-1,1021,1177,0,0
-196,-153,0,0,0,0,0,0,0,0,0,-1,1028,1177,0,0
-189,-153,0,0,0,0,0,0,0,0,0,-1,1035,1177,0,0
-182,-153,0,0,0,0,0,0,0,0,0,-1,1042,1177,0,0
-175,-153,0,0,0,0,0,0,0,0,0,-1,1049,1177,0,0
-168,-153,0,0,0,0,0,0,0,0,0,-1,1056,1177,0,0
-161,-153,0,0,0,0,0,0,0,0,0,-1,1063,1177,0,0
-154,-153,0,0,0,0,0,0,0,0,0,-1,1070,1177,0,0
-147,-153,0,0,0,0,0,0,0,0,0,-1,1077,1177,0,0
-140,-153,0,0,0,0,0,0,0,0,0,-1,1084,1177,0,0
-133,-153,0,0,0,0,0,0,0,0,0,-1,1091,1177,0,0
-126,-153,0,0,0,0,0,0,0,0,0,-1,1098,1177,0,0
-119,-153,0,0,0,0,0,0,0,0,0,-1,1105,1177,0,0
-112,-153,0,0,0,0,0,0,0,0,0,-1,1112,1177,0,0
-105,-153,0,0,0,0,0,0,0,0,0,-1,1119,1177,0,0
-98,-153,0,0,0,0,0,0,0,0,0,-1,1126,1177,0,0
-91,-153,0,0,0,0,0,0,0,0,0,-1,1133,1177,0,0
-84,-153,0,0,0,0,0,0,0,0,0,-1,1140,1177,0,0
-77,-153,0,0,0,0,0,0,0,0,0,-1,1147,1177,0,0
-70,-153,0,0,0,0,0,0,0,0,0,-1,1154,1177,0,0
-63,-153,0,0,0,0,0,0,0,0,0,-1,1161,1177,0,0
-56,-153,0,0,0,0,0,0,0,0,0,-1,1168,1177,0,0
-49,-153,0,0,0,0,0,0,0,0,0,-1,1175,1177,0,0
-42,-153,0,0,0,0,0,0,0,0,0,-1,1182,1177,0,0
-35,-153,0,0,0,0,0,0,0,0,0,-1,1189,1177,0,0
-28,-153,0,0,0,0,0,0,0,0,0,-1,1196,1177,0,0
-21,-153,0,0,0,0,0,0,0,0,0,-1,1203,1177,0,0
-14,-153,0,0,0,0,0,0,0,0,0,-1,1210,1177,0,0
-7,-153,0,0,0,0,0,0,0,0,0,-1,1217,1177,0,0
0,-153,0,0,0,0,0,0,0,0,0,-1,1224,1177,0,0
7,-153,0,0,0,0,0,0,0,0,0,-1,1231,1177,0,0
14,-153,0,0,0,0,0,0,0,0,0,-1,1238,1177,0,0
21,-153,0,0,0,0,0,0,0,0,0,-1,1245,1177,0,0
28,-153,0,0,0,0,0,0,0,0,0,-1,1252,1177,0,0
35,-153,0,0,0,0,0,0,0,0,0,-1,1259,1177,0,0
42,-153,0,0,0,0,0,0,0,0,0,-1,1266,1177,0,0
49,-153,0,0,0,0,0,0,0,0,0,-1,1273,1177,0,0
56,-153,0,0,0,0,0,0,0,0,0,-1,1280,1177,0,0
63,-153,0,0,0,0,0,0,0,0,0,-1,1287,1177,0,0
70,-153,0,0,0,0,0,0,0,0,0,-1,1294,1177,0,0
77,-153,0,0,0,0,0,0,0,0,0,-1,1301,1177,0,0
84,-153,0,0,0,0,0,0,0,0,0,-1,1308,1177,0,0
91,-153,0,0,0,0,0,0,0,0,0,-1,1315,1177,0,0
98,-153,0,0,0,0,0,0,0,0,0,-1,1322,1177,0,0
105,-153,0,0,0,0,0,0,0,0,0,-1,1329,1177,0,0
112,-153,0,0,0,0,0,0,0,0,0,-1,1336,1177,0,0
119,-153,0,0,0,0,0,0,0,0,0,-1,1343,1177,0,0
126,-153,0,0,0,0,0,0,0,0,0,-1,1350,1177,0,0
133,-153,0,0,0,0,0,0,0,0,0,-1,1357,1177,0,0
140,-153,0,0,0,0,0,0,0,0,0,-1,1364,1177,0,0
147,-153,0,0,0,0,0,0,0,0,0,-1,1371,1177,0,0
154,-153,0,0,0,0,0,0,0,0,0,-1,1378,1177,0,0
161,-153,0,0,0,0,0,0,0,0,0,-1,1385,1177,0,0
168,-153,0,0,0,0,0,0,0,0,0,-1,1392,1177,0,0
175,-153,0,0,0,0,0,0,0,0,0,-1,1399,1177,0,0
182,-153,0,0,0,0,0,0,0,0,0,-1,1406,1177,0,0
189,-153,0,0,0,0,0,0,0,0,0,-1,1413,1177,0,0
196,-153,0,0,0,0,0,0,0,0,0,-1,1420,1177,0,0
203,-153,0,0,0,0,0,0,0,0,0,-1,1427,1177,0,0
210,-153,0,0,0,0,0,0,0,0,0,-1,1434,1177,0,0
217,-153,0,0,0,0,0,0,0,0,0,-1,1441,1177,0,0
224,-153,0,0,0,0,0,0,0,0,0,-1,1448,1177,0,0
231,-153,0,0,0,0,0,0,0,0,0,-1,1455,1177,0,0
238,-153,0,0,0,0,0,0,0,0,0,-1,1462,1177,0,0
245,-153,0,0,0,0,0,0,0,0,0,-1,1469,1177,0,0
252,-153,0,0,0,0,0,0,0,0,0,-1,1476,1177,0,0
259,-153,0,0,0,0,0,0,0,0,0,-1,1483,1177,0,0
266,-153,0,0,0,0,0,0,0,0,0,-1,1490,1177,0,0
273,-153,0,0,0,0,0,0,0,0,0,-1,1497,1177,0,0
280,-153,0,0,0,0,0,0,0,0,0,-1,1504,1177,0,0
287,-153,0,0,0,0,0,0,0,0,0,-1,1511,1177,0,0
294,-153,0,0,0,0,0,0,0,0,0,-1,1518,1177,0,0
301,-153,0,0,0,0,0,0,0,0,0,-1,1525,1177,0,0
308,-153,0,0,0,0,0,0,0,0,0,-1,1532,1177,0,0
315,-153,0,0,0,0,0,0,0,0,0,-1,1539,1177,0,0
322,-153,0,0,0,0,0,0,0,0,0,-1,1546,1177,0,0
329,-153,0,0,0,0,0,0,0,0,0,-1,1553,1177,0,0
336,-153,0,0,0,0,0,0,0,0,0,-1,1560,1177,0,0
343,-153,0,0,0,0,0,0,0,0,0,-1,1567,1177,0,0
350,-153,0,0,0,0,0,0,0,0,0,-1,1574,1177,0,0
357,-153,0,0,0,0,0,0,0,0,0,-1,1581,1177,0,0
364,-153,0,0,0,0,0,0,0,0,0,-1,1588,1177,0,0
371,-153,0,0,0,0,0,0,0,0,0,-1,1595,1177,0,0
378,-153,0,0,0,0,0,0,0,0,0,-1,1602,1177,0,0
385,-153,0,0,0,0,0,0,0,0,0,-1,1609,1177,0,0
392,-153,0,0,0,0,0,0,0,0,0,-1,1616,1177,0,0
399,-153,0,0,0,0,0,0,0,0,0,-1,1623,1177,0,0
406,-153,0,0,0,0,0,0,0,0,0,-1,1630,1177,0,0
413,-153,0,0,0,0,0,0,0,0,0,-1,1637,1177,0,0
420,-153,0,0,0,0,0,0,0,0,0,-1,1644,1177,0,0
427,-153,0,0,0,0,0,0,0,0,0,-1,1651,1177,0,0
434,-153,0,0,0,0,0,0,0,0,0,-1,1658,1177,0,0
441,-153,0,0,0,0,0,0,0,0,0,-1,1665,1177,0,0
448,-153,0,0,0,0,0,0,0,0,0,-1,1672,1177,0,0
455,-153,0,0,0,0,0,0,0,0,0,-1,1679,1177,0,0
462,-153,0,0,0,0,0,0,0,0,0,-1,1686,1177,0,0
469,-153,0,0,0,0,0,0,0,0,0,-1,1693,1177,0,0
476,-153,0,0,0,0,0,0,0,0,0,-1,1700,1177,0,0
483,-153,0,0,0,0,0,0,0,0,0,-1,1707,1177,0,0
490,-153,0,0,0,0,0,0,0,0,0,-1,1714,1177,0,0
497,-153,0,0,0,0,0,0,0,0,0,-1,1721,1177,0,0
504,-153,0,0,0,0,0,0,0,0,0,-1,1728,1177,0,0
511,-153,0,0,0,0,0,0,0,0,0,-1,1735,1177,0,0
518,-153,0,0,0,0,0,0,0,0,0,-1,1742,1177,0,0
525,-153,0,0,0,0,0,0,0,0,0,-1,1749,1177,0,0
532,-153,0,0,0,0,0,0,0,0,0,-1,1756,1177,0,0
539,-153,0,0,0,0,0,0,0,0,0,-1,1763,1177,0,0
546,-153,0,0,0,0,0,0,0,0,0,-1,1770,1177,0,0
553,-153,0,0,0,0,0,0,0,0,0,-1,1777,1177,0,0
560,-153,0,0,0,0,0,0,0,0,0,-1,1784,1177,0,0
567,-153,0,0,0,0,0,0,0,0,0,-1,1791,1177,0,0
574,-153,0,0,0,0,0,0,0,0,0,-1,1798,1177,0,0
581,-153,0,0,0,0,0,0,0,0,0,-1,1805,1177,0,0
588,-153,0,0,0,0,0,0,0,0,0,-1,1812,1177,0,0
595,-153,0,0,0,0,0,0,0,0,0,-1,1819,1177,0,0
602,-153,0,0,0,0,0,0,0,0,0,-1,1826,1177,0,0
609,-153,0,0,0,0,0,0,0,0,0,-1,1833,1177,0,0
616,-153,0,0,0,0,0,0,0,0,0,-1,1840,1177,0,0
623,-153,0,0,0,0,0,0,0,0,0,-1,1847,1177,0,0
630,-153,0,0,0,0,0,0,0,0,0,-1,1854,1177,0,0
637,-153,7.2854,0.961304,-0.00278885,0.00202842,-0.000227295,0.00203912,-0.00279955,-1.52375,0.00280509,0.0400949,1861,1177,7.28538,-0.961316
644,-153,7.28857,1.02356,-0.00148835,0.00138102,-0.000518554,0.00147186,-0.00157919,-1.39738,0.00176189,0.037088,1868,1177,7.28858,-1.02357
651,-153,7.24438,1.06531,-0.00108258,0.000754182,-0.000493533,0.000878394,-0.00120679,-1.32424,0.00120885,0.0320896,1875,1177,7.2444,-1.06528
658,-153,7.16199,0.938477,-0.00119423,0.00023421,-9.57654e-05,0.000240602,-0.00120062,-1.50415,0.000891506,0.0366401,1882,1177,7.16198,-0.938505
665,-153,7.16235,1.02246,-0.00164446,-0.000257097,0.00046455,-0.000115913,-0.00178564,1.27575,0.00115373,0.0391552,1889,1177,7.16238,-1.02242
672,-153,7.21399,1.03137,-0.00218887,-0.000649291,0.00100169,-0.000155766,-0.0026824,1.11301,0.00173867,0.038965,1896,1177,7.21404,-1.03136
679,-153,7.17847,1.02161,-0.00270439,-0.000945681,0.00147303,-0.000109492,-0.00354058,1.05449,0.00232475,0.0284563,1903,1177,7.17851,-1.02161
686,-153,7.177,1.03589,-0.00308438,-0.00116493,0.00183769,-5.14523e-05,-0.00419786,1.02604,0.00278158,0.016128,1910,1177,7.17703,-1.03584
693,-153,7.19324,0.995605,-0.00334548,-0.00122087,0.00204824,2.41532e-05,-0.0045905,1.02462,0.00306842,0.023238,1917,1177,7.19323,-0.995589
700,-153,7.0741,1.36926,0,0,0,0,0,0,0,-1,1924,1177,7.07411,-1.36932
707,-153,6.96973,1.36792,-0.00325734,-0.00130494,0.00227774,0.000196981,-0.00475926,0.987848,0.0032405,0.0319497,1931,1177,6.96976,-1.36798
714,-153,6.87817,1.34668,-0.00327733,-0.00118555,0.00219885,0.000203477,-0.00466636,1.00739,0.00318091,0.0166645,1938,1177,6.87816,-1.34671
721,-153,6.875,1.29321,-0.00325644,-0.00104621,0.00202672,0.000157112,-0.00445976,1.035,0.0030269,0.0146459,1945,1177,6.87504,-1.29316
728,-153,6.85181,1.2749,-0.0029419,-0.000879242,0.00196467,0.000308341,-0.00412948,1.0271,0.00286131,0.0189879,1952,1177,6.85183,-1.27485
735,-153,6.78967,1.28857,-0.00230469,-0.000793812,0.00185387,0.000452628,-0.00355113,0.978873,0.00253182,0.0159798,1959,1177,6.78973,-1.28862
742,-153,6.79944,1.25977,-0.00137955,-0.000921262,0.00171919,0.000583986,-0.0028848,0.85165,0.00214453,0.0143398,1966,1177,6.79944,-1.25979
749,-153,6.81702,1.22559,0.000187523,-0.00124825,0.00166436,0.00128222,-0.00234295,0.581789,0.00212265,0.0146476,1973,1177,6.81698,-1.22563
756,-153,6.8302,1.17688,0.00241313,-0.00176591,0.00209229,0.0032806,-0.00263338,0.39303,0.00342125,0.0101416,1980,1177,6.83021,-1.17688
763,-153,6.81641,1.13953,0.00481278,-0.00248873,0.00262404,0.00565798,-0.00333393,0.311605,0.00524896,0.0106607,1987,1177,6.81637,-1.13949
770,-153,6.81836,1.1123,0.00810412,-0.00362186,0.00351943,0.00907933,-0.00459708,0.270312,0.00803619,0.0104826,1994,1177,6.81839,-1.1123
777,-153,6.82312,1.07336,0.0127625,-0.00520359,0.00478357,0.0139568,-0.00639786,0.244658,0.0120188,0.0218199,2001,1177,6.82313,-1.07341
784,-153,6.53711,0.787354,0.0192855,-0.00727017,0.00645757,0.0207725,-0.00875719,0.226331,0.0175131,0.0424645,2008,1177,6.53705,-0.787317
791,-153,6.29456,0.578491,0,0,0,0,0,0,0,-1,2015,1177,6.29455,-0.578472
798,-153,8.61279,2.16357,0,0,0,0,0,0,0,-1,2022,1177,8.6128,-2.16356
805,-153,8.9093,3.66577,0,0,0,0,0,0,0,-1,2029,1177,8.9093,-3.66578
812,-153,0,0,0,0,0,0,0,0,0,-1,2036,1177,0,0
-700,-160,0,0,0,0,0,0,0,0,0,-1,524,1184,0,0
-693,-160,0,0,0,0,0,0,0,0,0,-1,531,1184,0,0
-686,-160,-5.74213,-5.23608,0,0,0,0,0,0,0,-1,538,1184,-5.74215,5.23612
-679,-160,-5.69824,-4.7251,0,0,0,0,0,0,0,-1,545,1184,-5.69827,4.72509
-672,-160,-6.6864,-4.1405,0.00269719,0.119854,0.0268629,0.12572,-0.00316853,1.35581,0.084889,0.0448781,552,1184,-6.68639,4.14054
-665,-160,-6.46454,-3.89941,0.00200415,0.0973016,0.0210631,0.101749,-0.00244372,1.36268,0.068662,0.0462595,559,1184,-6.46451,3.89941
-658,-160,-2.42389,0.752197,0,0,0,0,0,0,0,-1,566,1184,-2.42387,-0.752247
-651,-160,-2.23834,0.306885,0,0,0,0,0,0,0,-1,573,1184,-2.23834,-0.306941
-644,-160,-2.22925,0.730591,-0.00057616,0.0401328,0.00851509,0.0418421,-0.00228549,1.37269,0.0286869,0.0374441,580,1184,-2.22925,-0.730642
-637,-160,-2.23981,0.743774,-0.000888906,0.026891,0.00535108,0.0278861,-0.00188401,1.38693,0.0192495,0.0135822,587,1184,-2.2398,-0.743824
-630,-160,-2.26593,0.764038,-0.00117088,0.0164256,0.00304945,0.0169391,-0.00168436,1.40398,0.011894,0.00804272,594,1184,-2.26593,-0.764078
-623,-160,-2.28284,0.794434,-0.00158181,0.00939648,0.00241886,0.0099058,-0.00209113,1.36327,0.00740006,0.00968177,601,1184,-2.28282,-0.79448
-616,-160,-2.28583,0.831299,-0.00240597,0.00284561,0.00096041,0.00301573,-0.0025761,1.39547,0.00323177,0.00900306,608,1184,-2.28584,-0.83124
-609,-160,-2.29639,0.87146,-0.00260001,-0.00059642,0.000141569,-0.000586467,-0.00260996,1.5006,0.00158116,0.0126693,615,1184,-2.29637,-0.871453
-602,-160,-2.28998,0.917114,-0.0029311,-0.00160986,-0.000129768,-0.00159724,-0.00294373,-1.47381,0.00170162,0.0174997,622,1184,-2.28999,-0.91714
-595,-160,-2.25403,0.951416,-0.00322594,-0.00179326,-0.000570222,-0.00159402,-0.00342518,-1.23464,0.00197911,0.0168949,629,1184,-2.25402,-0.951429
-588,-160,-2.2876,0.99707,-0.0035118,-0.0019441,-0.000997738,-0.00145913,-0.00399677,-1.11836,0.00233537,0.016229,636,1184,-2.28759,-0.997038
-581,-160,-2.29004,1.02454,-0.00373878,-0.00189085,-0.00147692,-0.00107268,-0.00455695,-1.06491,0.00275102,0.0148072,643,1184,-2.29005,-1.02455
-574,-160,-2.45831,1.27283,-0.00376227,-0.00187024,-0.0014612,-0.00107555,-0.00455695,-1.07268,0.00275047,0.0366631,650,1184,-2.45831,-1.27288
-567,-160,-2.75769,1.53918,-0.00374704,-0.00157399,-0.00129587,-0.000969421,-0.00435161,-1.13427,0.00263799,0.0442014,657,1184,-2.75771,-1.53916
-560,-160,-2.89136,1.5509,0,0,0,0,0,0,0,-1,664,1184,-2.89138,-1.55096
-553,-160,-2.49579,0.469849,-0.00289457,-0.000266924,-0.000926248,2.67558e-05,-0.00318825,-1.26376,0.00213448,0.0387434,671,1184,-2.49576,-0.469875
-546,-160,-2.59491,0.488892,-0.00191613,0.000930329,-0.000332358,0.00096862,-0.00195443,-1.45609,0.00171932,0.0374493,678,1184,-2.59489,-0.488836
-539,-160,-2.74902,0.556152,-0.000498627,0.00255632,0.000726529,0.0027203,-0.000662609,1.34881,0.00207006,0.0413132,685,1184,-2.749,-0.55618
-532,-160,-2.6557,0.585205,0.00137367,0.00467257,0.0024451,0.00597255,7.36858e-05,1.08213,0.00395737,0.0442322,692,1184,-2.6557,-0.585258
-525,-160,-2.42908,0.670288,0.00344478,0.00729288,0.00506933,0.010791,-5.33536e-05,0.966774,0.00721186,0.0421273,699,1184,-2.4291,-0.670259
-518,-160,-2.42114,0.713013,0.00480922,0.0102807,0.00933892,0.0172763,-0.00218642,0.927881,0.0123112,0.041018,706,1184,-2.42117,-0.712993
-511,-160,0,0,0,0,0,0,0,0,0,-1,713,1184,0,0
-504,-160,0,0,0,0,0,0,0,0,0,-1,720,1184,0,0
-497,-160,0,0,0,0,0,0,0,0,0,-1,727,1184,0,0
-490,-160,0,0,0,0,0,0,0,0,0,-1,734,1184,0,0
-483,-160,0,0,0,0,0,0,0,0,0,-1,741,1184,0,0
-476,-160,0,0,0,0,0,0,0,0,0,-1,748,1184,0,0
-469,-160,0,0,0,0,0,0,0,0,0,-1,755,1184,0,0
-462,-160,0,0,0,0,0,0,0,0,0,-1,762,1184,0,0
-455,-160,0,0,0,0,0,0,0,0,0,-1,769,1184,0,0
-448,-160,0,0,0,0,0,0,0,0,0,-1,776,1184,0,0
-441,-160,0,0,0,0,0,0,0,0,0,-1,783,1184,0,0
-434,-160,0,0,0,0,0,0,0,0,0,-1,790,1184,0,0
-427,-160,0,0,0,0,0,0,0,0,0,-1,797,1184,0,0
-420,-160,0,0,0,0,0,0,0,0,0,-1,804,1184,0,0
-413,-160,0,0,0,0,0,0,0,0,0,-1,811,1184,0,0
-406,-160,0,0,0,0,0,0,0,0,0,-1,818,1184,0,0
-399,-160,0,0,0,0,0,0,0,0,0,-1,825,1184,0,0
-392,-160,0,0,0,0,0,0,0,0,0,-1,832,1184,0,0
-385,-160,0,0,0,0,0,0,0,0,0,-1,839,1184,0,0
-378,-160,0,0,0,0,0,0,0,0,0,-1,846,1184,0,0
-371,-160,0,0,0,0,0,0,0,0,0,-1,853,1184,0,0
-364,-160,0,0,0,0,0,0,0,0,0,-1,860,1184,0,0
-357,-160,0,0,0,0,0,0,0,0,0,-1,867,1184,0,0
-350,-160,0,0,0,0,0,0,0,0,0,-1,874,1184,0,0
-343,-160,0,0,0,0,0,0,0,0,0,-1,881,1184,0,0
-336,-160,0,0,0,0,0,0,0,0,0,-1,888,1184,0,0
-329,-160,0,0,0,0,0,0,0,0,0,-1,895,1184,0,0
-322,-160,0,0,0,0,0,0,0,0,0,-1,902,1184,0,0
-315,-160,0,0,0,0,0,0,0,0,0,-1,909,1184,0,0
-308,-160,0,0,0,0,0,0,0,0,0,-1,916,1184,0,0
-301,-160,0,0,0,0,0,0,0,0,0,-1,923,1184,0,0
-294,-160,0,0,0,0,0,0,0,0,0,-1,930,1184,0,0
-287,-160,0,0,0,0,0,0,0,0,0,-1,937,1184,0,0
-280,-160,0,0,0,0,0,0,0,0,0,-1,944,1184,0,0
-273,-160,0,0,0,0,0,0,0,0,0,-1,951,1184,0,0
-266,-160,0,0,0,0,0,0,0,0,0,-1,958,1184,0,0
-259,-160,0,0,0,0,0,0,0,0,0,-1,965,1184,0,0
-252,-160,0,0,0,0,0,0,0,0,0,-1,972,1184,0,0
-245,-160,0,0,0,0,0,0,0,0,0,-1,979,1184,0,0
-238,-160,0,0,0,0,0,0,0,0,0,-1,986,1184,0,0
-231,-160,0,0,0,0,0,0,0,0,0,-1,993,1184,0,0
-224,-160,0,0,0,0,0,0,0,0,0,-1,1000,1184,0,0
-217,-160,0,0,0,0,0,0,0,0,0,-1,1007,1184,0,0
-210,-160,0,0,0,0,0,0,0,0,0,-1,1014,1184,0,0
-203,-160,0,0,0,0,0,0,0,0,0,-1,1021,1184,0,0
-196,-160,0,0,0,0,0,0,0,0,0,-1,1028,1184,0,0
-189,-160,0,0,0,0,0,0,0,0,0,-1,1035,1184,0,0
-182,-160,0,0,0,0,0,0,0,0,0,-1,1042,1184,0,0
-175,-160,0,0,0,0,0,0,0,0,0,-1,1049,1184,0,0
-168,-160,0,0,0,0,0,0,0,0,0,-1,1056,1184,0,0
-161,-160,0,0,0,0,0,0,0,0,0,-1,1063,1184,0,0
-154,-160,0,0,0,0,0,0,0,0,0,-1,1070,1184,0,0
-147,-160,0,0,0,0,0,0,0,0,0,-1,1077,1184,0,0
-140,-160,0,0,0,0,0,0,0,0,0,-1,1084,1184,0,0
-133,-160,0,0,0,0,0,0,0,0,0,-1,1091,1184,0,0
-126,-160,0,0,0,0,0,0,0,0,0,-1,1098,1184,0,0
-119,-160,0,0,0,0,0,0,0,0,0,-1,1105,1184,0,0
-112,-160,0,0,0,0,0,0,0,0,0,-1,1112,1184,0,0
-105,-160,0,0,0,0,0,0,0,0,0,-1,1119,1184,0,0
-98,-160,0,0,0,0,0,0,0,0,0,-1,1126,1184,0,0
-91,-160,0,0,0,0,0,0,0,0,0,-1,1133,1184,0,0
-84,-160,0,0,0,0,0,0,0,0,0,-1,1140,1184,0,0
-77,-160,0,0,0,0,0,0,0,0,0,-1,1147,1184,0,0
-70,-160,0,0,0,0,0,0,0,0,0,-1,1154,1184,0,0
-63,-160,0,0,0,0,0,0,0,0,0,-1,1161,1184,0,0
-56,-160,0,0,0,0,0,0,0,0,0,-1,1168,1184,0,0
-49,-160,0,0,0,0,0,0,0,0,0,-1,1175,1184,0,0
-42,-160,0,0,0,0,0,0,0,0,0,-1,1182,1184,0,0
-35,-160,0,0,0,0,0,0,0,0,0,-1,1189,1184,0,0
-28,-160,0,0,0,0,0,0,0,0,0,-1,1196,1184,0,0
-21,-160,0,0,0,0,0,0,0,0,0,-1,1203,1184,0,0
-14,-160,0,0,0,0,0,0,0,0,0,-1,1210,1184,0,0
-7,-160,0,0,0,0,0,0,0,0,0,-1,1217,1184,0,0
0,-160,0,0,0,0,0,0,0,0,0,-1,1224,1184,0,0
7,-160,0,0,0,0,0,0,0,0,0,-1,1231,1184,0,0
14,-160,0,0,0,0,0,0,0,0,0,-1,1238,1184,0,0
21,-160,0,0,0,0,0,0,0,0,0,-1,1245,1184,0,0
28,-160,0,0,0,0,0,0,0,0,0,-1,1252,1184,0,0
35,-160,0,0,0,0,0,0,0,0,0,-1,1259,1184,0,0
42,-160,0,0,0,0,0,0,0,0,0,-1,1266,1184,0,0
49,-160,0,0,0,0,0,0,0,0,0,-1,1273,1184,0,0
56,-160,0,0,0,0,0,0,0,0,0,-1,1280,1184,0,0
63,-160,0,0,0,0,0,0,0,0,0,-1,1287,1184,0,0
70,-160,0,0,0,0,0,0,0,0,0,-1,1294,1184,0,0
77,-160,0,0,0,0,0,0,0,0,0,-1,1301,1184,0,0
84,-160,0,0,0,0,0,0,0,0,0,-1,1308,1184,0,0
91,-160,0,0,0,0,0,0,0,0,0,-1,1315,1184,0,0
98,-160,0,0,0,0,0,0,0,0,0,-1,1322,1184,0,0
105,-160,0,0,0,0,0,0,0,0,0,-1,1329,1184,0,0
112,-160,0,0,0,0,0,0,0,0,0,-1,1336,1184,0,0
119,-160,0,0,0,0,0,0,0,0,0,-1,1343,1184,0,0
126,-160,0,0,0,0,0,0,0,0,0,-1,1350,1184,0,0
133,-160,0,0,0,0,0,0,0,0,0,-1,1357,1184,0,0
140,-160,0,0,0,0,0,0,0,0,0,-1,1364,1184,0,0
147,-160,0,0,0,0,0,0,0,0,0,-1,1371,1184,0,0
154,-160,0,0,0,0,0,0,0,0,0,-1,1378,1184,0,0
161,-160,0,0,0,0,0,0,0,0,0,-1,1385,1184,0,0
168,-160,0,0,0,0,0,0,0,0,0,-1,1392,1184,0,0
175,-160,0,0,0,0,0,0,0,0,0,-1,1399,1184,0,0
182,-160,0,0,0,0,0,0,0,0,0,-1,1406,1184,0,0
189,-160,0,0,0,0,0,0,0,0,0,-1,1413,1184,0,0
196,-160,0,0,0,0,0,0,0,0,0,-1,1420,1184,0,0
203,-160,0,0,0,0,0,0,0,0,0,-1,1427,1184,0,0
210,-160,0,0,0,0,0,0,0,0,0,-1,1434,1184,0,0
217,-160,0,0,0,0,0,0,0,0,0,-1,1441,1184,0,0
224,-160,0,0,0,0,0,0,0,0,0,-1,1448,1184,0,0
231,-160,0,0,0,0,0,0,0,0,0,-1,1455,1184,0,0
238,-160,0,0,0,0,0,0,0,0,0,-1,1462,1184,0,0
245,-160,0,0,0,0,0,0,0,0,0,-1,1469,1184,0,0
252,-160,0,0,0,0,0,0,0,0,0,-1,1476,1184,0,0
259,-160,0,0,0,0,0,0,0,0,0,-1,1483,1184,0,0
266,-160,0,0,0,0,0,0,0,0,0,-1,1490,1184,0,0
273,-160,0,0,0,0,0,0,0,0,0,-1,1497,1184,0,0
280,-160,0,0,0,0,0,0,0,0,0,-1,1504,1184,0,0
287,-160,0,0,0,0,0,0,0,0,0,-1,1511,1184,0,0
294,-160,0,0,0,0,0,0,0,0,0,-1,1518,1184,0,0
301,-160,0,0,0,0,0,0,0,0,0,-1,1525,1184,0,0
308,-160,0,0,0,0,0,0,0,0,0,-1,1532,1184,0,0
315,-160,0,0,0,0,0,0,0,0,0,-1,1539,1184,0,0
322,-160,0,0,0,0,0,0,0,0,0,-1,1546,1184,0,0
329,-160,0,0,0,0,0,0,0,0,0,-1,1553,1184,0,0
336,-160,0,0,0,0,0,0,0,0,0,-1,1560,1184,0,0
343,-160,0,0,0,0,0,0,0,0,0,-1,1567,1184,0,0
350,-160,0,0,0,0,0,0,0,0,0,-1,1574,1184,0,0
357,-160,0,0,0,0,0,0,0,0,0,-1,1581,1184,0,0
364,-160,0,0,0,0,0,0,0,0,0,-1,1588,1184,0,0
371,-160,0,0,0,0,0,0,0,0,0,-1,1595,1184,0,0
378,-160,0,0,0,0,0,0,0,0,0,-1,1602,1184,0,0
385,-160,0,0,0,0,0,0,0,0,0,-1,1609,1184,0,0
392,-160,0,0,0,0,0,0,0,0,0,-1,1616,1184,0,0
399,-160,0,0,0,0,0,0,0,0,0,-1,1623,1184,0,0
406,-160,0,0,0,0,0,0,0,0,0,-1,1630,1184,0,0
413,-160,0,0,0,0,0,0,0,0,0,-1,1637,1184,0,0
420,-160,0,0,0,0,0,0,0,0,0,-1,1644,1184,0,0
427,-160,0,0,0,0,0,0,0,0,0,-1,1651,1184,0,0
434,-160,0,0,0,0,0,0,0,0,0,-1,1658,1184,0,0
441,-160,0,0,0,0,0,0,0,0,0,-1,1665,1184,0,0
448,-160,0,0,0,0,0,0,0,0,0,-1,1672,1184,0,0
455,-160,0,0,0,0,0,0,0,0,0,-1,1679,1184,0,0
462,-160,0,0,0,0,0,0,0,0,0,-1,1686,1184,0,0
469,-160,0,0,0,0,0,0,0,0,0,-1,1693,1184,0,0
476,-160,0,0,0,0,0,0,0,0,0,-1,1700,1184,0,0
483,-160,0,0,0,0,0,0,0,0,0,-1,1707,1184,0,0
490,-160,0,0,0,0,0,0,0,0,0,-1,1714,1184,0,0
497,-160,0,0,0,0,0,0,0,0,0,-1,1721,1184,0,0
504,-160,0,0,0,0,0,0,0,0,0,-1,1728,1184,0,0
511,-160,0,0,0,0,0,0,0,0,0,-1,1735,1184,0,0
518,-160,0,0,0,0,0,0,0,0,0,-1,1742,1184,0,0
525,-160,0,0,0,0,0,0,0,0,0,-1,1749,1184,0,0
532,-160,0,0,0,0,0,0,0,0,0,-1,1756,1184,0,0
539,-160,0,0,0,0,0,0,0,0,0,-1,1763,1184,0,0
546,-160,0,0,0,0,0,0,0,0,0,-1,1770,1184,0,0
553,-160,0,0,0,0,0,0,0,0,0,-1,1777,1184,0,0
560,-160,0,0,0,0,0,0,0,0,0,-1,1784,1184,0,0
567,-160,0,0,0,0,0,0,0,0,0,-1,1791,1184,0,0
574,-160,0,0,0,0,0,0,0,0,0,-1,1798,1184,0,0
581,-160,0,0,0,0,0,0,0,0,0,-1,1805,1184,0,0
588,-160,0,0,0,0,0,0,0,0,0,-1,1812,1184,0,0
595,-160,0,0,0,0,0,0,0,0,0,-1,1819,1184,0,0
602,-160,0,0,0,0,0,0,0,0,0,-1,1826,1184,0,0
609,-160,0,0,0,0,0,0,0,0,0,-1,1833,1184,0,0
616,-160,0,0,0,0,0,0,0,0,0,-1,1840,1184,0,0
623,-160,0,0,0,0,0,0,0,0,0,-1,1847,1184,0,0
630,-160,0,0,0,0,0,0,0,0,0,-1,1854,1184,0,0
637,-160,7.28015,1.02856,-0.00285993,0.00186344,0.000239159,0.00187551,-0.00287201,1.52034,0.00276103,0.0413466,1861,1184,7.28014,-1.02859
644,-160,7.35461,1.0697,-0.00172794,0.00103801,-0.000167064,0.00104806,-0.001738,-1.51069,0.00162489,0.0424013,1868,1184,7.35459,-1.06974
651,-160,7.23474,1.06506,-0.00148613,0.000235124,-0.000175301,0.000252796,-0.0015038,-1.47033,0.00109655,0.0410054,1875,1184,7.23469,-1.06508
658,-160,7.17188,0.986206,-0.00170632,-0.000442451,0.000216093,-0.000406526,-0.00174224,1.40605,0.00105249,0.0392867,1882,1184,7.17191,-0.986201
665,-160,7.20154,1.00745,-0.00217087,-0.0010146,0.000743934,-0.000650566,-0.0025349,1.11572,0.00152021,0.0371312,1889,1184,7.20159,-1.0075
672,-160,7.20593,1.09241,-0.00268092,-0.00143056,0.00124331,-0.000664093,-0.00344738,1.01835,0.00211199,0.0344652,1896,1184,7.20595,-1.09243
679,-160,7.18335,1.03235,-0.00313773,-0.00170145,0.00167538,-0.000596787,-0.00424239,0.987874,0.00265181,0.0244285,1903,1184,7.1834,-1.03234
686,-160,7.18726,1.0166,-0.00343827,-0.0018631,0.00199562,-0.000505273,-0.0047961,0.973343,0.00304299,0.0139585,1910,1184,7.18724,-1.01665
693,-160,7.14417,0.924194,-0.0036207,-0.00183834,0.00217105,-0.000382679,-0.00507637,0.980153,0.00326417,0.037451,1917,1184,7.14423,-0.92424
700,-160,6.93762,1.26672,-0.00355272,-0.00185475,0.00228044,-0.000270379,-0.00513708,0.963594,0.00333825,0.0386881,1924,1184,6.93765,-1.26667
707,-160,6.76978,1.43713,-0.00338061,-0.00170944,0.00232743,-7.21505e-05,-0.0050179,0.95774,0.00332148,0.0315691,1931,1184,6.76972,-1.43719
714,-160,6.82654,1.37927,-0.00333935,-0.00149642,0.00222954,-5.43101e-06,-0.00483034,0.981357,0.00321841,0.0208065,1938,1184,6.82658,-1.37927
721,-160,6.83044,1.30908,-0.00327772,-0.00125987,0.00205005,1.60709e-05,-0.00455367,1.01407,0.00304115,0.0111177,1945,1184,6.8304,-1.30909
728,-160,6.81287,1.29431,-0.00291308,-0.0010156,0.00197313,0.000225034,-0.00415371,1.0095,0.00284712,0.0105234,1952,1184,6.81286,-1.29426
735,-160,6.79578,1.24841,-0.00213111,-0.000836576,0.00182345,0.000451081,-0.00341876,0.955945,0.00244345,0.0127188,1959,1184,6.79576,-1.24844
742,-160,6.80286,1.19885,-0.000928345,-0.000938136,0.00174933,0.000816096,-0.00268258,0.783999,0.0021136,0.014546,1966,1184,6.80285,-1.19887
749,-160,6.80396,1.16821,0.000822601,-0.00132313,0.00171512,0.00177277,-0.0022733,0.505906,0.00234195,0.0157404,1973,1184,6.8039,-1.16815
756,-160,6.81274,1.15332,0.00311077,-0.00196071,0.00217428,0.0039153,-0.00276525,0.354403,0.00387603,0.0104336,1980,1184,6.81275,-1.15331
763,-160,6.7926,1.15186,0.00570061,-0.00280271,0.00276914,0.00652288,-0.00362498,0.288647,0.00593797,0.011373,1987,1184,6.79263,-1.15189
770,-160,6.77332,1.11084,0.00922909,-0.00408981,0.00372054,0.0101979,-0.00505864,0.254744,0.00897342,0.0178785,1994,1184,6.77329,-1.11086
777,-160,6.80151,1.08301,0.0141264,-0.00587317,0.00502176,0.0153165,-0.00706328,0.232698,0.0132106,0.0331448,2001,1184,6.80151,-1.08301
784,-160,6.84863,1.06055,0.0208061,-0.00821048,0.00671748,0.0222858,-0.00969016,0.21681,0.0189327,0.0477515,2008,1184,6.8486,-1.06056
791,-160,6.85681,1.021,0,0,0,0,0,0,0,-1,2015,1184,6.85678,-1.02094
798,-160,7.81726,0.145508,0,0,0,0,0,0,0,-1,2022,1184,7.81724,-0.145504
805,-160,8.0509,0.233887,0,0,0,0,0,0,0,-1,2029,1184,8.05088,-0.233901
812,-160,0,0,0,0,0,0,0,0,0,-1,2036,1184,0,0
-700,-167,0,0,0,0,0,0,0,0,0,-1,524,1191,0,0
-693,-167,0,0,0,0,0,0,0,0,0,-1,531,1191,0,0
-686,-167,-6.80151,-6.59741,0,0,0,0,0,0,0,-1,538,1191,-6.80153,6.5974
-679,-167,-6.65717,-6.54102,-0.00451494,0.131451,0.0258123,0.136187,-0.00925032,1.38936,0.0940265,0.0455422,545,1191,-6.65719,6.54098
-672,-167,-6.55402,-6.25708,-0.00403113,0.109829,0.0217425,0.11384,-0.00804177,1.38839,0.0787107,0.0464226,552,1191,-6.55399,6.25709
-665,-167,-1.17767,0.699585,0,0,0,0,0,0,0,-1,559,1191,-1.17765,-0.699615
-658,-167,-1.76056,0.53479,0,0,0,0,0,0,0,-1,566,1191,-1.76058,-0.534735
-651,-167,-2.03235,0.0285645,0,0,0,0,0,0,0,-1,573,1191,-2.03234,-0.0285475
-644,-167,-2.16321,0.320923,0,0,0,0,0,0,0,-1,580,1191,-2.16321,-0.320881
-637,-167,-2.22076,0.739258,-0.00276089,0.023033,0.00588617,0.0243127,-0.00404063,1.35671,0.0177097,0.0164124,587,1191,-2.22076,-0.739302
-630,-167,-2.2334,0.758667,-0.00238679,0.0138302,0.0038023,0.0146775,-0.00323403,1.35156,0.0110223,0.00836338,594,1191,-2.2334,-0.758727
-623,-167,-2.23816,0.781128,-0.0022399,0.00776451,0.00316291,0.00868058,-0.00315598,1.28888,0.00707762,0.00947682,601,1191,-2.23818,-0.78114
-616,-167,-2.22705,0.818115,-0.00236774,0.0017446,0.00180997,0.00242774,-0.00305088,1.20989,0.0031699,0.0127238,608,1191,-2.22702,-0.818127
-609,-167,-2.25665,0.860107,-0.00246456,-0.00107973,0.000746102,-0.000754252,-0.00279004,1.15944,0.00166651,0.0130499,615,1191,-2.25663,-0.860147
-602,-167,-2.26044,0.899048,-0.00279601,-0.00154061,0.000148217,-0.00152335,-0.00281327,1.45486,0.0016261,0.0134392,622,1191,-2.26041,-0.89906
-595,-167,-2.22449,0.949219,-0.00311587,-0.00183594,-0.000412166,-0.0017147,-0.00323712,-1.28471,0.00187005,0.0173233,629,1191,-2.2245,-0.94926
-588,-167,-2.24866,1.00476,-0.00344561,-0.00214497,-0.000849097,-0.00172577,-0.00386481,-1.1122,0.0022356,0.0151572,636,1191,-2.24866,-1.00481
-581,-167,-2.23743,1.03809,-0.00372823,-0.00225923,-0.0013767,-0.00143335,-0.00455411,-1.03045,0.00268881,0.0135307,643,1191,-2.2374,-1.03815
-574,-167,-2.34381,1.3252,-0.00377994,-0.00245177,-0.00139253,-0.00157308,-0.00465862,-1.00789,0.0027365,0.0307981,650,1191,-2.34381,-1.32515
-567,-167,-2.64587,1.58386,-0.00381712,-0.00231981,-0.00122575,-0.00163218,-0.00450476,-1.05955,0.00263349,0.0415316,657,1191,-2.6459,-1.58392
-560,-167,-2.5824,0.564697,-0.00362482,-0.00202628,-0.00116867,-0.0014097,-0.0042414,-1.08532,0.00249422,0.0407352,664,1191,-2.5824,-0.564692
-553,-167,-2.51044,0.600586,-0.00304727,-0.00145051,-0.000926081,-0.00102618,-0.00347161,-1.14114,0.00205941,0.0386437,671,1191,-2.51041,-0.600626
-546,-167,-2.58453,0.631226,-0.00209652,-0.000439855,-0.000386583,-0.000354086,-0.00218229,-1.35247,0.00135237,0.0339007,678,1191,-2.58453,-0.631177
-539,-167,-2.53827,0.49585,-0.000666856,0.00108092,0.00059229,0.00126273,-0.000848661,1.27297,0.0012268,0.0374378,685,1191,-2.53828,-0.495861
-532,-167,-2.42346,0.171753,0.0012962,0.00322626,0.00219604,0.00465995,-0.000137499,0.992417,0.00315347,0.0429113,692,1191,-2.42343,-0.171758
-525,-167,-2.34924,0.16333,0.00365076,0.00611328,0.00467533,0.00971676,4.72832e-05,0.914151,0.00646213,0.0438338,699,1191,-2.34922,-0.163377
-518,-167,-2.43671,0.605957,0.00573821,0.00983539,0.00869471,0.0167196,-0.00114599,0.901094,0.0115474,0.0423227,706,1191,-2.43668,-0.605989
-511,-167,0,0,0,0,0,0,0,0,0,-1,713,1191,0,0
-504,-167,0,0,0,0,0,0,0,0,0,-1,720,1191,0,0
-497,-167,0,0,0,0,0,0,0,0,0,-1,727,1191,0,0
-490,-167,0,0,0,0,0,0,0,0,0,-1,734,1191,0,0
-483,-167,0,0,0,0,0,0,0,0,0,-1,741,1191,0,0
-476,-167,0,0,0,0,0,0,0,0,0,-1,748,1191,0,0
-469,-167,0,0,0,0,0,0,0,0,0,-1,755,1191,0,0
-462,-167,0,0,0,0,0,0,0,0,0,-1,762,1191,0,0
-455,-167,0,0,0,0,0,0,0,0,0,-1,769,1191,0,0
-448,-167,0,0,0,0,0,0,0,0,0,-1,776,1191,0,0
-441,-167,0,0,0,0,0,0,0,0,0,-1,783,1191,0,0
-434,-167,0,0,0,0,0,0,0,0,0,-1,790,1191,0,0
-427,-167,0,0,0,0,0,0,0,0,0,-1,797,1191,0,0
-420,-167,0,0,0,0,0,0,0,0,0,-1,804,1191,0,0
-413,-167,0,0,0,0,0,0,0,0,0,-1,811,1191,0,0
-406,-167,0,0,0,0,0,0,0,0,0,-1,818,1191,0,0
-399,-167,0,0,0,0,0,0,0,0,0,-1,825,1191,0,0
-392,-167,0,0,0,0,0,0,0,0,0,-1,832,1191,0,0
-385,-167,0,0,0,0,0,0,0,0,0,-1,839,1191,0,0
-378,-167,0,0,0,0,0,0,0,0,0,-1,846,1191,0,0
-371,-167,0,0,0,0,0,0,0,0,0,-1,853,1191,0,0
-364,-167,0,0,0,0,0,0,0,0,0,-1,860,1191,0,0
-357,-167,0,0,0,0,0,0,0,0,0,-1,867,1191,0,0
-350,-167,0,0,0,0,0,0,0,0,0,-1,874,1191,0,0
-343,-167,0,0,0,0,0,0,0,0,0,-1,881,1191,0,0
-336,-167,0,0,0,0,0,0,0,0,0,-1,888,1191,0,0
-329,-167,0,0,0,0,0,0,0,0,0,-1,895,1191,0,0
-322,-167,0,0,0,0,0,0,0,0,0,-1,902,1191,0,0
-315,-167,0,0,0,0,0,0,0,0,0,-1,909,1191,0,0
-308,-167,0,0,0,0,0,0,0,0,0,-1,916,1191,0,0
-301,-167,0,0,0,0,0,0,0,0,0,-1,923,1191,0,0
-294,-167,0,0,0,0,0,0,0,0,0,-1,930,1191,0,0
-287,-167,0,0,0,0,0,0,0,0,0,-1,937,1191,0,0
-280,-167,0,0,0,0,0,0,0,0,0,-1,944,1191,0,0
-273,-167,0,0,0,0,0,0,0,0,0,-1,951,1191,0,0
-266,-167,0,0,0,0,0,0,0,0,0,-1,958,1191,0,0
-259,-167,0,0,0,0,0,0,0,0,0,-1,965,1191,0,0
-252,-167,0,0,0,0,0,0,0,0,0,-1,972,1191,0,0
-245,-167,0,0,0,0,0,0,0,0,0,-1,979,1191,0,0
-238,-167,0,0,0,0,0,0,0,0,0,-1,986,1191,0,0
-231,-167,0,0,0,0,0,0,0,0,0,-1,993,1191,0,0
-224,-167,0,0,0,0,0,0,0,0,0,-1,1000,1191,0,0
-217,-167,0,0,0,0,0,0,0,0,0,-1,1007,1191,0,0
-210,-167,0,0,0,0,0,0,0,0,0,-1,1014,1191,0,0
-203,-167,0,0,0,0,0,0,0,0,0,-1,1021,1191,0,0
-196,-167,0,0,0,0,0,0,0,0,0,-1,1028,1191,0,0
-189,-167,0,0,0,0,0,0,0,0,0,-1,1035,1191,0,0
-182,-167,0,0,0,0,0,0,0,0,0,-1,1042,1191,0,0
-175,-167,0,0,0,0,0,0,0,0,0,-1,1049,1191,0,0
-168,-167,0,0,0,0,0,0,0,0,0,-1,1056,1191,0,0
-161,-167,0,0,0,0,0,0,0,0,0,-1,1063,1191,0,0
-154,-167,0,0,0,0,0,0,0,0,0,-1,1070,1191,0,0
-147,-167,0,0,0,0,0,0,0,0,0,-1,1077,1191,0,0
-140,-167,0,0,0,0,0,0,0,0,0,-1,1084,1191,0,0
-133,-167,0,0,0,0,0,0,0,0,0,-1,1091,1191,0,0
-126,-167,0,0,0,0,0,0,0,0,0,-1,1098,1191,0,0
-119,-167,0,0,0,0,0,0,0,0,0,-1,1105,1191,0,0
-112,-167,0,0,0,0,0,0,0,0,0,-1,1112,1191,0,0
-105,-167,0,0,0,0,0,0,0,0,0,-1,1119,1191,0,0
-98,-167,0,0,0,0,0,0,0,0,0,-1,1126,1191,0,0
-91,-167,0,0,0,0,0,0,0,0,0,-1,1133,1191,0,0
-84,-167,0,0,0,0,0,0,0,0,0,-1,1140,1191,0,0
-77,-167,0,0,0,0,0,0,0,0,0,-1,1147,1191,0,0
-70,-167,0,0,0,0,0,0,0,0,0,-1,1154,1191,0,0
-63,-167,0,0,0,0,0,0,0,0,0,-1,1161,1191,0,0
-56,-167,0,0,0,0,0,0,0,0,0,-1,1168,1191,0,0
-49,-167,0,0,0,0,0,0,0,0,0,-1,1175,1191,0,0
-42,-167,0,0,0,0,0,0,0,0,0,-1,1182,1191,0,0
-35,-167,0,0,0,0,0,0,0,0,0,-1,1189,1191,0,0
-28,-167,0,0,0,0,0,0,0,0,0,-1,1196,1191,0,0
-21,-167,0,0,0,0,0,0,0,0,0,-1,1203,1191,0,0
-14,-167,0,0,0,0,0,0,0,0,0,-1,1210,1191,0,0
-7,-167,0,0,0,0,0,0,0,0,0,-1,1217,1191,0,0
0,-167,0,0,0,0,0,0,0,0,0,-1,1224,1191,0,0
7,-167,0,0,0,0,0,0,0,0,0,-1,1231,1191,0,0
14,-167,0,0,0,0,0,0,0,0,0,-1,1238,1191,0,0
21,-167,0,0,0,0,0,0,0,0,0,-1,1245,1191,0,0
28,-167,0,0,0,0,0,0,0,0,0,-1,1252,1191,0,0
35,-167,0,0,0,0,0,0,0,0,0,-1,1259,1191,0,0
42,-167,0,0,0,0,0,0,0,0,0,-1,1266,1191,0,0
49,-167,0,0,0,0,0,0,0,0,0,-1,1273,1191,0,0
56,-167,0,0,0,0,0,0,0,0,0,-1,1280,1191,0,0
63,-167,0,0,0,0,0,0,0,0,0,-1,1287,1191,0,0
70,-167,0,0,0,0,0,0,0,0,0,-1,1294,1191,0,0
77,-167,0,0,0,0,0,0,0,0,0,-1,1301,1191,0,0
84,-167,0,0,0,0,0,0,0,0,0,-1,1308,1191,0,0
91,-167,0,0,0,0,0,0,0,0,0,-1,1315,1191,0,0
98,-167,0,0,0,0,0,0,0,0,0,-1,1322,1191,0,0
105,-167,0,0,0,0,0,0,0,0,0,-1,1329,1191,0,0
112,-167,0,0,0,0,0,0,0,0,0,-1,1336,1191,0,0
119,-167,0,0,0,0,0,0,0,0,0,-1,1343,1191,0,0
126,-167,0,0,0,0,0,0,0,0,0,-1,1350,1191,0,0
133,-167,0,0,0,0,0,0,0,0,0,-1,1357,1191,0,0
140,-167,0,0,0,0,0,0,0,0,0,-1,1364,1191,0,0
147,-167,0,0,0,0,0,0,0,0,0,-1,1371,1191,0,0
154,-167,0,0,0,0,0,0,0,0,0,-1,1378,1191,0,0
161,-167,0,0,0,0,0,0,0,0,0,-1,1385,1191,0,0
168,-167,0,0,0,0,0,0,0,0,0,-1,1392,1191,0,0
175,-167,0,0,0,0,0,0,0,0,0,-1,1399,1191,0,0
182,-167,0,0,0,0,0,0,0,0,0,-1,1406,1191,0,0
189,-167,0,0,0,0,0,0,0,0,0,-1,1413,1191,0,0
196,-167,0,0,0,0,0,0,0,0,0,-1,1420,1191,0,0
203,-167,0,0,0,0,0,0,0,0,0,-1,1427,1191,0,0
210,-167,0,0,0,0,0,0,0,0,0,-1,1434,1191,0,0
217,-167,0,0,0,0,0,0,0,0,0,-1,1441,1191,0,0
224,-167,0,0,0,0,0,0,0,0,0,-1,1448,1191,0,0
231,-167,0,0,0,0,0,0,0,0,0,-1,1455,1191,0,0
238,-167,0,0,0,0,0,0,0,0,0,-1,1462,1191,0,0
245,-167,0,0,0,0,0,0,0,0,0,-1,1469,1191,0,0
252,-167,0,0,0,0,0,0,0,0,0,-1,1476,1191,0,0
259,-167,0,0,0,0,0,0,0,0,0,-1,1483,1191,0,0
266,-167,0,0,0,0,0,0,0,0,0,-1,1490,1191,0,0
273,-167,0,0,0,0,0,0,0,0,0,-1,1497,1191,0,0
280,-167,0,0,0,0,0,0,0,0,0,-1,1504,1191,0,0
287,-167,0,0,0,0,0,0,0,0,0,-1,1511,1191,0,0
294,-167,0,0,0,0,0,0,0,0,0,-1,1518,1191,0,0
301,-167,0,0,0,0,0,0,0,0,0,-1,1525,1191,0,0
308,-167,0,0,0,0,0,0,0,0,0,-1,1532,1191,0,0
315,-167,0,0,0,0,0,0,0,0,0,-1,1539,1191,0,0
322,-167,0,0,0,0,0,0,0,0,0,-1,1546,1191,0,0
329,-167,0,0,0,0,0,0,0,0,0,-1,1553,1191,0,0
336,-167,0,0,0,0,0,0,0,0,0,-1,1560,1191,0,0
343,-167,0,0,0,0,0,0,0,0,0,-1,1567,1191,0,0
350,-167,0,0,0,0,0,0,0,0,0,-1,1574,1191,0,0
357,-167,0,0,0,0,0,0,0,0,0,-1,1581,1191,0,0
364,-167,0,0,0,0,0,0,0,0,0,-1,1588,1191,0,0
371,-167,0,0,0,0,0,0,0,0,0,-1,1595,1191,0,0
378,-167,0,0,0,0,0,0,0,0,0,-1,1602,1191,0,0
385,-167,0,0,0,0,0,0,0,0,0,-1,1609,1191,0,0
392,-167,0,0,0,0,0,0,0,0,0,-1,1616,1191,0,0
399,-167,0,0,0,0,0,0,0,0,0,-1,1623,1191,0,0
406,-167,0,0,0,0,0,0,0,0,0,-1,1630,1191,0,0
413,-167,0,0,0,0,0,0,0,0,0,-1,1637,1191,0,0
420,-167,0,0,0,0,0,0,0,0,0,-1,1644,1191,0,0
427,-167,0,0,0,0,0,0,0,0,0,-1,1651,1191,0,0
434,-167,0,0,0,0,0,0,0,0,0,-1,1658,1191,0,0
441,-167,0,0,0,0,0,0,0,0,0,-1,1665,1191,0,0
448,-167,0,0,0,0,0,0,0,0,0,-1,1672,1191,0,0
455,-167,0,0,0,0,0,0,0,0,0,-1,1679,1191,0,0
462,-167,0,0,0,0,0,0,0,0,0,-1,1686,1191,0,0
469,-167,0,0,0,0,0,0,0,0,0,-1,1693,1191,0,0
476,-167,0,0,0,0,0,0,0,0,0,-1,1700,1191,0,0
483,-167,0,0,0,0,0,0,0,0,0,-1,1707,1191,0,0
490,-167,0,0,0,0,0,0,0,0,0,-1,1714,1191,0,0
497,-167,0,0,0,0,0,0,0,0,0,-1,1721,1191,0,0
504,-167,0,0,0,0,0,0,0,0,0,-1,1728,1191,0,0
511,-167,0,0,0,0,0,0,0,0,0,-1,1735,1191,0,0
518,-167,0,0,0,0,0,0,0,0,0,-1,1742,1191,0,0
525,-167,0,0,0,0,0,0,0,0,0,-1,1749,1191,0,0
532,-167,0,0,0,0,0,0,0,0,0,-1,1756,1191,0,0
539,-167,0,0,0,0,0,0,0,0,0,-1,1763,1191,0,0
546,-167,0,0,0,0,0,0,0,0,0,-1,1770,1191,0,0
553,-167,0,0,0,0,0,0,0,0,0,-1,1777,1191,0,0
560,-167,0,0,0,0,0,0,0,0,0,-1,1784,1191,0,0
567,-167,0,0,0,0,0,0,0,0,0,-1,1791,1191,0,0
574,-167,0,0,0,0,0,0,0,0,0,-1,1798,1191,0,0
581,-167,0,0,0,0,0,0,0,0,0,-1,1805,1191,0,0
588,-167,0,0,0,0,0,0,0,0,0,-1,1812,1191,0,0
595,-167,0,0,0,0,0,0,0,0,0,-1,1819,1191,0,0
602,-167,0,0,0,0,0,0,0,0,0,-1,1826,1191,0,0
609,-167,0,0,0,0,0,0,0,0,0,-1,1833,1191,0,0
616,-167,0,0,0,0,0,0,0,0,0,-1,1840,1191,0,0
623,-167,0,0,0,0,0,0,0,0,0,-1,1847,1191,0,0
630,-167,0,0,0,0,0,0,0,0,0,-1,1854,1191,0,0
637,-167,7.38501,0.943848,-0.00301678,0.0014818,0.000651763,0.00157432,-0.00310931,1.42978,0.00275208,0.0441511,1861,1191,7.38495,-0.943858
644,-167,7.37622,1.02075,-0.00195115,0.000720819,6.67821e-05,0.000722487,-0.00195282,1.54582,0.00159811,0.0428338,1868,1191,7.3762,-1.02071
651,-167,7.16211,0.990234,-0.00173579,-9.78578e-05,-5.09048e-05,-9.62773e-05,-0.00173737,-1.53976,0.00112753,0.0424709,1875,1191,7.16214,-0.990184
658,-167,7.05273,1.11597,-0.00193256,-0.000831648,0.000236469,-0.000783005,-0.0019812,1.36792,0.00115219,0.043735,1882,1191,7.05272,-1.116
665,-167,7.1936,1.16113,-0.00232035,-0.0014394,0.000658522,-0.00108762,-0.00267213,1.08017,0.00155162,0.0386405,1889,1191,7.19356,-1.16119
672,-167,7.18652,1.08606,-0.00274627,-0.0018741,0.00107957,-0.00114586,-0.0034745,0.977348,0.00204438,0.0279926,1896,1191,7.18651,-1.08609
679,-167,7.16382,1.01245,-0.00312483,-0.00212598,0.00145564,-0.00108647,-0.00416434,0.950653,0.00249423,0.0194902,1903,1191,7.16385,-1.01244
686,-167,7.16907,1.01404,-0.0033539,-0.00226704,0.00174105,-0.000986581,-0.00463436,0.936671,0.00281886,0.0243726,1910,1191,7.16904,-1.01406
693,-167,7.10876,0.96875,-0.00348568,-0.00221246,0.00191443,-0.000831573,-0.00486657,0.945913,0.00300578,0.0491905,1917,1191,7.10871,-0.968765
700,-167,6.88586,1.23523,-0.0033953,-0.00215804,0.00203866,-0.000646214,-0.00490712,0.932708,0.0030787,0.038871,1924,1191,6.88592,-1.23523
707,-167,6.78052,1.37695,-0.00320567,-0.00195425,0.00211145,-0.000377753,-0.00478217,0.929447,0.00306995,0.0306173,1931,1191,6.78046,-1.37695
714,-167,6.79321,1.37561,-0.00315495,-0.00167908,0.00204299,-0.000244835,-0.00458919,0.958707,0.0029812,0.0172494,1938,1191,6.79317,-1.37567
721,-167,6.79663,1.32971,-0.00310444,-0.0013863,0.00191137,-0.000149816,-0.00434092,0.996597,0.00284532,0.0138335,1945,1191,6.79665,-1.32966
728,-167,6.78662,1.31091,-0.00272351,-0.00107584,0.00188104,0.000153859,-0.00395321,0.991799,0.00268823,0.011486,1952,1191,6.78667,-1.31095
735,-167,6.78186,1.27014,-0.00187656,-0.000804144,0.00176368,0.000503038,-0.00318374,0.932972,0.00230851,0.0133902,1959,1191,6.7818,-1.27017
742,-167,6.76733,1.22266,-0.000511909,-0.000824811,0.00177328,0.0011118,-0.00244852,0.741399,0.00210329,0.0153462,1966,1191,6.76739,-1.22268
749,-167,6.7804,1.19189,0.00131189,-0.00118731,0.00174748,0.00221059,-0.00208601,0.475008,0.00248099,0.0138815,1973,1191,6.78035,-1.19192
756,-167,6.78601,1.16077,0.00356236,-0.00184845,0.00220755,0.00434873,-0.00263482,0.342204,0.00407222,0.0101867,1980,1191,6.78601,-1.16078
763,-167,6.75183,1.13,0.00621574,-0.00269038,0.00282171,0.00703448,-0.00350911,0.2824,0.00619973,0.0114514,1987,1191,6.75186,-1.13001
770,-167,6.70239,1.1239,0.00981849,-0.00398146,0.00376858,0.0107806,-0.00494353,0.24995,0.00928447,0.0226093,1994,1191,6.70245,-1.12391
777,-167,6.96472,0.924194,0.0147498,-0.00578438,0.00503106,0.0159162,-0.00695078,0.227815,0.0135363,0.0407486,2001,1191,6.96466,-0.924145
784,-167,7.33179,0.801514,0.0213447,-0.00818046,0.00665239,0.0227744,-0.0096101,0.211687,0.0192052,0.0488971,2008,1191,7.33176,-0.801453
791,-167,7.46851,0.768066,0.0299326,-0.0112413,0.00871307,0.0317006,-0.0130092,0.200186,0.0265545,0.0453582,2015,1191,7.46851,-0.768057
798,-167,7.58386,0.693604,0.0408321,-0.0150522,0.011303,0.0430317,-0.0172518,0.192196,0.0358498,0.0470484,2022,1191,7.58382,-0.693545
805,-167,7.75232,0.669067,0.0541694,-0.0196682,0.0145436,0.0569307,-0.0224296,0.187633,0.0472399,0.0489382,2029,1191,7.75237,-0.669058
812,-167,0,0,0,0,0,0,0,0,0,-1,2036,1191,0,0
-700,-174,0,0,0,0,0,0,0,0,0,-1,524,1198,0,0
-693,-174,0,0,0,0,0,0,0,0,0,-1,531,1198,0,0
-686,-174,-7.79419,-7.93799,0,0,0,0,0,0,0,-1,538,1198,-7.79419,7.938
-679,-174,-6.98999,-8.50098,-0.00582529,0.119437,0.0200042,0.122554,-0.00894236,1.41622,0.084841,0.0469889,545,1198,-6.99,8.50103
-672,-174,-6.76666,-8.20117,-0.0052204,0.0988306,0.0173434,0.101645,-0.00803509,1.40991,0.0705945,0.0472635,552,1198,-6.76664,8.20112
-665,-174,-0.508484,0.419922,0,0,0,0,0,0,0,-1,559,1198,-0.508495,-0.419868
-658,-174,-1.06525,0.261841,0,0,0,0,0,0,0,-1,566,1198,-1.06525,-0.261892
-651,-174,-1.65576,-0.0268555,-0.00399029,0.0436253,0.00971034,0.0455294,-0.00589439,1.37716,0.0324964,0.0469173,573,1198,-1.65576,0.0268719
-644,-174,-2.08398,0.222656,-0.0034588,0.0303444,0.00759511,0.0319725,-0.0050869,1.35963,0.0231973,0.0441271,580,1198,-2.08398,-0.222645
-637,-174,-2.18152,0.651489,-0.00288032,0.0197921,0.00543832,0.0210291,-0.00411729,1.34715,0.0155743,0.0230477,587,1198,-2.18149,-0.65145
-630,-174,-2.18335,0.75293,-0.00236838,0.0118736,0.00368974,0.0127727,-0.00326753,1.33177,0.00978786,0.0119347,594,1198,-2.18333,-0.752924
-623,-174,-2.19037,0.781738,-0.00203691,0.00668677,0.00319881,0.007734,-0.00308414,1.25441,0.0064353,0.0126033,601,1198,-2.19036,-0.781759
-616,-174,-2.19177,0.819336,-0.00202175,0.00131654,0.00194056,0.00220705,-0.00291226,1.14057,0.00296497,0.0176848,608,1198,-2.19176,-0.819363
-609,-174,-2.21863,0.859619,-0.00209172,-0.00103621,0.000921863,-0.00050172,-0.0026262,1.04537,0.00160984,0.0196937,615,1198,-2.21863,-0.859675
-602,-174,-2.24487,0.878906,-0.00250945,-0.00130878,0.000327774,-0.00122512,-0.0025931,1.32092,0.00149788,0.0137461,622,1198,-2.24488,-0.878937
-595,-174,-2.21387,0.92627,-0.00296152,-0.00180269,-0.000249426,-0.00175128,-0.00301292,-1.36754,0.00174715,0.0119954,629,1198,-2.21388,-0.926329
-588,-174,-2.203,0.981689,-0.00340502,-0.00227279,-0.000743613,-0.00190432,-0.00377349,-1.11075,0.00217865,0.0113263,636,1198,-2.20303,-0.981669
-581,-174,-2.19952,1.01965,-0.00380443,-0.00256066,-0.00134353,-0.00170206,-0.00466303,-1.00215,0.00272471,0.011707,643,1198,-2.19952,-1.01959
-574,-174,-2.28326,1.17786,-0.00394092,-0.00290715,-0.00144713,-0.00188737,-0.00496071,-0.956926,0.00289122,0.0285836,650,1198,-2.28324,-1.17786
-567,-174,-2.63141,0.21228,0,0,0,0,0,0,0,-1,657,1198,-2.6314,-0.212257
-560,-174,-2.64252,0.60791,-0.0039758,-0.00273378,-0.00137872,-0.00184266,-0.00486691,-0.997002,0.00283738,0.0434343,664,1198,-2.64249,-0.607882
-553,-174,-2.5528,0.759888,-0.00348849,-0.00231729,-0.00123955,-0.00153197,-0.00427381,-1.00607,0.00250023,0.0395931,671,1198,-2.55281,-0.759917
-546,-174,-2.54395,0.726196,-0.00261557,-0.00143064,-0.00083953,-0.00099557,-0.00305064,-1.09267,0.00179635,0.0309354,678,1198,-2.54397,-0.726182
-539,-174,-2.6214,0.688232,-0.00123181,3.46548e-05,-2.77344e-05,3.52619e-05,-0.00123242,-1.54891,0.000833614,0.0360725,685,1198,-2.62139,-0.68828
-532,-174,-2.50458,0.348877,0,0,0,0,0,0,0,-1,692,1198,-2.50459,-0.348836
-525,-174,-2.69806,0.388062,0.00323249,0.00532319,0.00365702,0.00808133,0.000474351,0.92461,0.0052366,0.044493,699,1198,-2.69806,-0.388094
-518,-174,-2.55823,0.551758,0.00580385,0.00958098,0.00742309,0.015352,3.28477e-05,0.909964,0.0102237,0.0417581,706,1198,-2.55825,-0.551767
-511,-174,0,0,0,0,0,0,0,0,0,-1,713,1198,0,0
-504,-174,0,0,0,0,0,0,0,0,0,-1,720,1198,0,0
-497,-174,0,0,0,0,0,0,0,0,0,-1,727,1198,0,0
-490,-174,0,0,0,0,0,0,0,0,0,-1,734,1198,0,0
-483,-174,0,0,0,0,0,0,0,0,0,-1,741,1198,0,0
-476,-174,0,0,0,0,0,0,0,0,0,-1,748,1198,0,0
-469,-174,0,0,0,0,0,0,0,0,0,-1,755,1198,0,0
-462,-174,0,0,0,0,0,0,0,0,0,-1,762,1198,0,0
-455,-174,0,0,0,0,0,0,0,0,0,-1,769,1198,0,0
-448,-174,0,0,0,0,0,0,0,0,0,-1,776,1198,0,0
-441,-174,0,0,0,0,0,0,0,0,0,-1,783,1198,0,0
-434,-174,0,0,0,0,0,0,0,0,0,-1,790,1198,0,0
-427,-174,0,0,0,0,0,0,0,0,0,-1,797,1198,0,0
-420,-174,0,0,0,0,0,0,0,0,0,-1,804,1198,0,0
-413,-174,0,0,0,0,0,0,0,0,0,-1,811,1198,0,0
-406,-174,0,0,0,0,0,0,0,0,0,-1,818,1198,0,0
-399,-174,0,0,0,0,0,0,0,0,0,-1,825,1198,0,0
-392,-174,0,0,0,0,0,0,0,0,0,-1,832,1198,0,0
-385,-174,0,0,0,0,0,0,0,0,0,-1,839,1198,0,0
-378,-174,0,0,0,0,0,0,0,0,0,-1,846,1198,0,0
-371,-174,0,0,0,0,0,0,0,0,0,-1,853,1198,0,0
-364,-174,0,0,0,0,0,0,0,0,0,-1,860,1198,0,0
-357,-174,0,0,0,0,0,0,0,0,0,-1,867,1198,0,0
-350,-174,0,0,0,0,0,0,0,0,0,-1,874,1198,0,0
-343,-174,0,0,0,0,0,0,0,0,0,-1,881,1198,0,0
-336,-174,0,0,0,0,0,0,0,0,0,-1,888,1198,0,0
-329,-174,0,0,0,0,0,0,0,0,0,-1,895,1198,0,0
-322,-174,0,0,0,0,0,0,0,0,0,-1,902,1198,0,0
-315,-174,0,0,0,0,0,0,0,0,0,-1,909,1198,0,0
-308,-174,0,0,0,0,0,0,0,0,0,-1,916,1198,0,0
-301,-174,0,0,0,0,0,0,0,0,0,-1,923,1198,0,0
-294,-174,0,0,0,0,0,0,0,0,0,-1,930,1198,0,0
-287,-174,0,0,0,0,0,0,0,0,0,-1,937,1198,0,0
-280,-174,0,0,0,0,0,0,0,0,0,-1,944,1198,0,0
-273,-174,0,0,0,0,0,0,0,0,0,-1,951,1198,0,0
-266,-174,0,0,0,0,0,0,0,0,0,-1,958,1198,0,0
-259,-174,0,0,0,0,0,0,0,0,0,-1,965,1198,0,0
-252,-174,0,0,0,0,0,0,0,0,0,-1,972,1198,0,0
-245,-174,0,0,0,0,0,0,0,0,0,-1,979,1198,0,0
-238,-174,0,0,0,0,0,0,0,0,0,-1,986,1198,0,0
-231,-174,0,0,0,0,0,0,0,0,0,-1,993,1198,0,0
-224,-174,0,0,0,0,0,0,0,0,0,-1,1000,1198,0,0
-217,-174,0,0,0,0,0,0,0,0,0,-1,1007,1198,0,0
-210,-174,0,0,0,0,0,0,0,0,0,-1,1014,1198,0,0
-203,-174,0,0,0,0,0,0,0,0,0,-1,1021,1198,0,0
-196,-174,0,0,0,0,0,0,0,0,0,-1,1028,1198,0,0
-189,-174,0,0,0,0,0,0,0,0,0,-1,1035,1198,0,0
-182,-174,0,0,0,0,0,0,0,0,0,-1,1042,1198,0,0
-175,-174,0,0,0,0,0,0,0,0,0,-1,1049,1198,0,0
-168,-174,0,0,0,0,0,0,0,0,0,-1,1056,1198,0,0
-161,-174,0,0,0,0,0,0,0,0,0,-1,1063,1198,0,0
-154,-174,0,0,0,0,0,0,0,0,0,-1,1070,1198,0,0
-147,-174,0,0,0,0,0,0,0,0,0,-1,1077,1198,0,0
-140,-174,0,0,0,0,0,0,0,0,0,-1,1084,1198,0,0
-133,-174,0,0,0,0,0,0,0,0,0,-1,1091,1198,0,0
-126,-174,0,0,0,0,0,0,0,0,0,-1,1098,1198,0,0
-119,-174,0,0,0,0,0,0,0,0,0,-1,1105,1198,0,0
-112,-174,0,0,0,0,0,0,0,0,0,-1,1112,1198,0,0
-105,-174,0,0,0,0,0,0,0,0,0,-1,1119,1198,0,0
-98,-174,0,0,0,0,0,0,0,0,0,-1,1126,1198,0,0
-91,-174,0,0,0,0,0,0,0,0,0,-1,1133,1198,0,0
-84,-174,0,0,0,0,0,0,0,0,0,-1,1140,1198,0,0
-77,-174,0,0,0,0,0,0,0,0,0,-1,1147,1198,0,0
-70,-174,0,0,0,0,0,0,0,0,0,-1,1154,1198,0,0
-63,-174,0,0,0,0,0,0,0,0,0,-1,1161,1198,0,0
-56,-174,0,0,0,0,0,0,0,0,0,-1,1168,1198,0,0
-49,-174,0,0,0,0,0,0,0,0,0,-1,1175,1198,0,0
-42,-174,0,0,0,0,0,0,0,0,0,-1,1182,1198,0,0
-35,-174,0,0,0,0,0,0,0,0,0,-1,1189,1198,0,0
-28,-174,0,0,0,0,0,0,0,0,0,-1,1196,1198,0,0
-21,-174,0,0,0,0,0,0,0,0,0,-1,1203,1198,0,0
-14,-174,0,0,0,0,0,0,0,0,0,-1,1210,1198,0,0
-7,-174,0,0,0,0,0,0,0,0,0,-1,1217,1198,0,0
0,-174,0,0,0,0,0,0,0,0,0,-1,1224,1198,0,0
7,-174,0,0,0,0,0,0,0,0,0,-1,1231,1198,0,0
14,-174,0,0,0,0,0,0,0,0,0,-1,1238,1198,0,0
21,-174,0,0,0,0,0,0,0,0,0,-1,1245,1198,0,0
28,-174,0,0,0,0,0,0,0,0,0,-1,1252,1198,0,0
35,-174,0,0,0,0,0,0,0,0,0,-1,1259,1198,0,0
42,-174,0,0,0,0,0,0,0,0,0,-1,1266,1198,0,0
49,-174,0,0,0,0,0,0,0,0,0,-1,1273,1198,0,0
56,-174,0,0,0,0,0,0,0,0,0,-1,1280,1198,0,0
63,-174,0,0,0,0,0,0,0,0,0,-1,1287,1198,0,0
70,-174,0,0,0,0,0,0,0,0,0,-1,1294,1198,0,0
77,-174,0,0,0,0,0,0,0,0,0,-1,1301,1198,0,0
84,-174,0,0,0,0,0,0,0,0,0,-1,1308,1198,0,0
91,-174,0,0,0,0,0,0,0,0,0,-1,1315,1198,0,0
98,-174,0,0,0,0,0,0,0,0,0,-1,1322,1198,0,0
105,-174,0,0,0,0,0,0,0,0,0,-1,1329,1198,0,0
112,-174,0,0,0,0,0,0,0,0,0,-1,1336,1198,0,0
119,-174,0,0,0,0,0,0,0,0,0,-1,1343,1198,0,0
126,-174,0,0,0,0,0,0,0,0,0,-1,1350,1198,0,0
133,-174,0,0,0,0,0,0,0,0,0,-1,1357,1198,0,0
140,-174,0,0,0,0,0,0,0,0,0,-1,1364,1198,0,0
147,-174,0,0,0,0,0,0,0,0,0,-1,1371,1198,0,0
154,-174,0,0,0,0,0,0,0,0,0,-1,1378,1198,0,0
161,-174,0,0,0,0,0,0,0,0,0,-1,1385,1198,0,0
168,-174,0,0,0,0,0,0,0,0,0,-1,1392,1198,0,0
175,-174,0,0,0,0,0,0,0,0,0,-1,1399,1198,0,0
182,-174,0,0,0,0,0,0,0,0,0,-1,1406,1198,0,0
189,-174,0,0,0,0,0,0,0,0,0,-1,1413,1198,0,0
196,-174,0,0,0,0,0,0,0,0,0,-1,1420,1198,0,0
203,-174,0,0,0,0,0,0,0,0,0,-1,1427,1198,0,0
210,-174,0,0,0,0,0,0,0,0,0,-1,1434,1198,0,0
217,-174,0,0,0,0,0,0,0,0,0,-1,1441,1198,0,0
224,-174,0,0,0,0,0,0,0,0,0,-1,1448,1198,0,0
231,-174,0,0,0,0,0,0,0,0,0,-1,1455,1198,0,0
238,-174,0,0,0,0,0,0,0,0,0,-1,1462,1198,0,0
245,-174,0,0,0,0,0,0,0,0,0,-1,1469,1198,0,0
252,-174,0,0,0,0,0,0,0,0,0,-1,1476,1198,0,0
259,-174,0,0,0,0,0,0,0,0,0,-1,1483,1198,0,0
266,-174,0,0,0,0,0,0,0,0,0,-1,1490,1198,0,0
273,-174,0,0,0,0,0,0,0,0,0,-1,1497,1198,0,0
280,-174,0,0,0,0,0,0,0,0,0,-1,1504,1198,0,0
287,-174,0,0,0,0,0,0,0,0,0,-1,1511,1198,0,0
294,-174,0,0,0,0,0,0,0,0,0,-1,1518,1198,0,0
301,-174,0,0,0,0,0,0,0,0,0,-1,1525,1198,0,0
308,-174,0,0,0,0,0,0,0,0,0,-1,1532,1198,0,0
315,-174,0,0,0,0,0,0,0,0,0,-1,1539,1198,0,0
322,-174,0,0,0,0,0,0,0,0,0,-1,1546,1198,0,0
329,-174,0,0,0,0,0,0,0,0,0,-1,1553,1198,0,0
336,-174,0,0,0,0,0,0,0,0,0,-1,1560,1198,0,0
343,-174,0,0,0,0,0,0,0,0,0,-1,1567,1198,0,0
350,-174,0,0,0,0,0,0,0,0,0,-1,1574,1198,0,0
357,-174,0,0,0,0,0,0,0,0,0,-1,1581,1198,0,0
364,-174,0,0,0,0,0,0,0,0,0,-1,1588,1198,0,0
371,-174,0,0,0,0,0,0,0,0,0,-1,1595,1198,0,0
378,-174,0,0,0,0,0,0,0,0,0,-1,1602,1198,0,0
385,-174,0,0,0,0,0,0,0,0,0,-1,1609,1198,0,0
392,-174,0,0,0,0,0,0,0,0,0,-1,1616,1198,0,0
399,-174,0,0,0,0,0,0,0,0,0,-1,1623,1198,0,0
406,-174,0,0,0,0,0,0,0,0,0,-1,1630,1198,0,0
413,-174,0,0,0,0,0,0,0,0,0,-1,1637,1198,0,0
420,-174,0,0,0,0,0,0,0,0,0,-1,1644,1198,0,0
427,-174,0,0,0,0,0,0,0,0,0,-1,1651,1198,0,0
434,-174,0,0,0,0,0,0,0,0,0,-1,1658,1198,0,0
441,-174,0,0,0,0,0,0,0,0,0,-1,1665,1198,0,0
448,-174,0,0,0,0,0,0,0,0,0,-1,1672,1198,0,0
455,-174,0,0,0,0,0,0,0,0,0,-1,1679,1198,0,0
462,-174,0,0,0,0,0,0,0,0,0,-1,1686,1198,0,0
469,-174,0,0,0,0,0,0,0,0,0,-1,1693,1198,0,0
476,-174,0,0,0,0,0,0,0,0,0,-1,1700,1198,0,0
483,-174,0,0,0,0,0,0,0,0,0,-1,1707,1198,0,0
490,-174,0,0,0,0,0,0,0,0,0,-1,1714,1198,0,0
497,-174,0,0,0,0,0,0,0,0,0,-1,1721,1198,0,0
504,-174,0,0,0,0,0,0,0,0,0,-1,1728,1198,0,0
511,-174,0,0,0,0,0,0,0,0,0,-1,1735,1198,0,0
518,-174,0,0,0,0,0,0,0,0,0,-1,1742,1198,0,0
525,-174,0,0,0,0,0,0,0,0,0,-1,1749,1198,0,0
532,-174,0,0,0,0,0,0,0,0,0,-1,1756,1198,0,0
539,-174,0,0,0,0,0,0,0,0,0,-1,1763,1198,0,0
546,-174,0,0,0,0,0,0,0,0,0,-1,1770,1198,0,0
553,-174,0,0,0,0,0,0,0,0,0,-1,1777,1198,0,0
560,-174,0,0,0,0,0,0,0,0,0,-1,1784,1198,0,0
567,-174,0,0,0,0,0,0,0,0,0,-1,1791,1198,0,0
574,-174,0,0,0,0,0,0,0,0,0,-1,1798,1198,0,0
581,-174,0,0,0,0,0,0,0,0,0,-1,1805,1198,0,0
588,-174,0,0,0,0,0,0,0,0,0,-1,1812,1198,0,0
595,-174,0,0,0,0,0,0,0,0,0,-1,1819,1198,0,0
602,-174,0,0,0,0,0,0,0,0,0,-1,1826,1198,0,0
609,-174,0,0,0,0,0,0,0,0,0,-1,1833,1198,0,0
616,-174,0,0,0,0,0,0,0,0,0,-1,1840,1198,0,0
623,-174,0,0,0,0,0,0,0,0,0,-1,1847,1198,0,0
630,-174,0,0,0,0,0,0,0,0,0,-1,1854,1198,0,0
637,-174,7.15942,1.37073,-0.00287822,0.000951332,0.00034381,0.000981953,-0.00290884,1.48196,0.00233638,0.0421196,1861,1198,7.15946,-1.37067
644,-174,7.20984,1.07898,-0.00200619,0.000422325,-0.000153381,0.000431974,-0.00201584,-1.50797,0.00150864,0.0398655,1868,1198,7.20989,-1.07902
651,-174,7.06519,1.12415,-0.00188955,-0.000268675,-0.000205852,-0.00024294,-0.00191528,-1.44643,0.00120407,0.0415394,1875,1198,7.06519,-1.12412
658,-174,6.9259,1.11646,-0.0021099,-0.000948767,8.64763e-05,-0.000942362,-0.0021163,1.49686,0.00122428,0.0429631,1882,1198,6.92587,-1.11641
665,-174,7.08594,1.03772,-0.00245867,-0.001529,0.000475317,-0.00132901,-0.00265867,1.17252,0.00153498,0.0358862,1889,1198,7.08592,-1.03771
672,-174,7.18079,0.970337,-0.00282446,-0.0019584,0.000863932,-0.00142505,-0.00335781,1.01772,0.00194601,0.0264888,1896,1198,7.18081,-0.970394
679,-174,7.19153,0.970825,-0.00312603,-0.0021959,0.0012221,-0.00135337,-0.00396856,0.96721,0.00232953,0.0208284,1903,1198,7.19156,-0.970781
686,-174,7.23206,1.16345,-0.00328996,-0.00234396,0.00148981,-0.00125386,-0.00438006,0.93911,0.0026047,0.0419653,1910,1198,7.23208,-1.16342
693,-174,7.13342,0.971436,-0.00338033,-0.00230441,0.0016681,-0.00108966,-0.00459507,0.941382,0.00277248,0.04676,1917,1198,7.13338,-0.971381
700,-174,6.85791,1.26147,0,0,0,0,0,0,0,-1,1924,1198,6.85797,-1.26147
707,-174,6.76868,1.41162,-0.0030568,-0.00201827,0.00190136,-0.000566541,-0.00450853,0.918698,0.00283577,0.0298853,1931,1198,6.76866,-1.41159
714,-174,6.76672,1.3739,-0.00298556,-0.00171463,0.00187155,-0.00037361,-0.00432659,0.949061,0.00276827,0.019089,1938,1198,6.76678,-1.3739
721,-174,6.75269,1.34741,-0.00294115,-0.00140807,0.00177697,-0.000239362,-0.00410986,0.989027,0.00266371,0.0142403,1945,1198,6.75274,-1.34747
728,-174,6.73914,1.31946,-0.00255803,-0.00103946,0.00177655,0.000133263,-0.00373076,0.987346,0.00253276,0.0103929,1952,1198,6.7391,-1.31952
735,-174,6.74597,1.27307,-0.00168596,-0.000708622,0.00169865,0.000570249,-0.00296483,0.925457,0.00219151,0.0113151,1959,1198,6.74598,-1.27305
742,-174,6.74097,1.22815,-0.00025781,-0.000622194,0.00178149,0.00135078,-0.00223079,0.734441,0.00208852,0.0209001,1966,1198,6.74092,-1.22809
749,-174,6.76611,1.20789,0.00150639,-0.000930095,0.00173966,0.00241195,-0.00183566,0.479943,0.00245987,0.0181447,1973,1198,6.76609,-1.20792
756,-174,6.74377,1.15967,0.00359483,-0.00154971,0.00217871,0.00439352,-0.0023484,0.351375,0.00395169,0.0103421,1980,1198,6.74374,-1.15966
763,-174,6.69495,1.1217,0.00614702,-0.00233013,0.00277981,0.00697726,-0.00316036,0.290233,0.00598965,0.0128604,1987,1198,6.69494,-1.12174
770,-174,6.64441,1.12146,0.00961821,-0.00355141,0.00367365,0.0105737,-0.00450685,0.254443,0.0089385,0.0246383,1994,1198,6.64443,-1.12143
777,-174,6.59082,1.10791,0.0143294,-0.00528402,0.00482794,0.0154534,-0.00640803,0.228738,0.0129768,0.043388,2001,1198,6.59081,-1.10791
784,-174,7.0791,1.53223,0.0205416,-0.0076301,0.00627353,0.0218755,-0.00896399,0.209502,0.018318,0.0485768,2008,1198,7.07906,-1.53224
791,-174,7.32166,1.57446,0.0284955,-0.0106849,0.00806687,0.0300914,-0.0122808,0.195311,0.0251737,0.0438068,2015,1198,7.32165,-1.5745
798,-174,7.49719,1.04187,0.038402,-0.0145744,0.0102695,0.0403231,-0.0164955,0.18493,0.033752,0.0460309,2022,1198,7.49723,-1.04181
805,-174,7.2699,1.01758,0.0502437,-0.0194081,0.0129442,0.0525715,-0.0217359,0.177929,0.0441155,0.043921,2029,1198,7.26993,-1.01755
812,-174,0,0,0,0,0,0,0,0,0,-1,2036,1198,0,0
-700,-181,0,0,0,0,0,0,0,0,0,-1,524,1205,0,0
-693,-181,0,0,0,0,0,0,0,0,0,-1,531,1205,0,0
-686,-181,0.333862,-1.77246,0,0,0,0,0,0,0,-1,538,1205,0.333872,1.77243
-679,-181,-1.0799,-1.43567,0,0,0,0,0,0,0,-1,545,1205,-1.07989,1.43573
-672,-181,-1.63196,-1.26038,0,0,0,0,0,0,0,-1,552,1205,-1.63198,1.26041
-665,-181,-1.99066,-0.618774,0,0,0,0,0,0,0,-1,559,1205,-1.99065,0.618815
-658,-181,-2.133,0.37854,0,0,0,0,0,0,0,-1,566,1205,-2.13302,-0.378484
-651,-181,-2.06891,0.350342,-0.00525238,0.0376393,0.0090066,0.0394537,-0.00706687,1.372,0.0289471,0.0462416,573,1205,-2.06892,-0.350363
-644,-181,-2.05273,0.396118,-0.00422349,0.0262333,0.00734183,0.0279107,-0.0059009,1.34618,0.0208543,0.0399914,580,1205,-2.05271,-0.396081
-637,-181,-2.14545,0.698486,-0.00325724,0.0172372,0.0055801,0.018658,-0.00467806,1.32147,0.0142562,0.0221871,587,1205,-2.14546,-0.698478
-630,-181,-2.14209,0.755859,-0.00244433,0.0105511,0.00404041,0.0117049,-0.0035981,1.29264,0.00923919,0.0113984,594,1205,-2.14211,-0.75583
-623,-181,-2.16357,0.785034,-0.00186028,0.006159,0.00356776,0.0075165,-0.00321777,1.20722,0.00636093,0.0128198,601,1205,-2.16356,-0.784994
-616,-181,-2.15881,0.817627,-0.00163463,0.00142523,0.00230795,0.00266429,-0.0028737,1.07809,0.00319812,0.0126543,608,1205,-2.15882,-0.817605
-609,-181,-2.14923,0.857666,-0.00162728,-0.000579713,0.00124012,0.000242703,-0.0024497,0.985217,0.00171975,0.013114,615,1205,-2.14923,-0.857619
-602,-181,-2.15515,0.902954,-0.00207592,-0.000915823,0.000561925,-0.000688272,-0.00230347,1.18603,0.00136533,0.0121232,622,1205,-2.15518,-0.902986
-595,-181,-2.15308,0.948853,-0.00259115,-0.00157569,-7.7374e-05,-0.00156982,-0.00259701,-1.49518,0.00151025,0.0115188,629,1205,-2.15306,-0.948886
-588,-181,-2.15527,1.00269,-0.00311758,-0.00223361,-0.000656651,-0.00188405,-0.00346714,-1.08162,0.00200427,0.00976747,636,1205,-2.15528,-1.00267
-581,-181,-2.15088,1.04736,-0.00363249,-0.00270911,-0.00132057,-0.00177185,-0.00456975,-0.953564,0.00266042,0.009782,643,1205,-2.15087,-1.04739
-574,-181,-2.15039,1.0531,-0.00388793,-0.00313151,-0.00149172,-0.0019708,-0.00504864,-0.909551,0.0029381,0.0254833,650,1205,-2.15042,-1.05308
-567,-181,-2.03644,1.08655,0,0,0,0,0,0,0,-1,657,1205,-2.03644,-1.08653
-560,-181,-2.53119,1.23718,-0.00417139,-0.00311563,-0.0014876,-0.00206503,-0.00522199,-0.955895,0.00303681,0.0478448,664,1205,-2.53118,-1.23724
-553,-181,-2.66547,0.905762,-0.00384147,-0.00283005,-0.00139054,-0.00185611,-0.00481541,-0.959801,0.00280439,0.046356,671,1205,-2.66545,-0.905772
-546,-181,-2.55713,0.768066,-0.00317375,-0.00208405,-0.00105931,-0.00143768,-0.00382012,-1.02293,0.00222792,0.0372797,678,1205,-2.55715,-0.768101
-539,-181,-2.64905,0.89502,-0.00203487,-0.000765924,-0.000345312,-0.000678042,-0.00212275,-1.32159,0.00125193,0.0410411,685,1205,-2.64906,-0.895018
-532,-181,-2.85449,0.777588,-0.000344259,0.00127195,0.000927895,0.0016943,-0.00076661,1.14365,0.00145407,0.0467117,692,1205,-2.85447,-0.777625
-525,-181,-3.08954,0.657837,0,0,0,0,0,0,0,-1,699,1205,-3.08956,-0.657784
-518,-181,-2.63568,0.596924,0,0,0,0,0,0,0,-1,706,1205,-2.63569,-0.596939
-511,-181,0,0,0,0,0,0,0,0,0,-1,713,1205,0,0
-504,-181,0,0,0,0,0,0,0,0,0,-1,720,1205,0,0
-497,-181,0,0,0,0,0,0,0,0,0,-1,727,1205,0,0
-490,-181,0,0,0,0,0,0,0,0,0,-1,734,1205,0,0
-483,-181,0,0,0,0,0,0,0,0,0,-1,741,1205,0,0
-476,-181,0,0,0,0,0,0,0,0,0,-1,748,1205,0,0
-469,-181,0,0,0,0,0,0,0,0,0,-1,755,1205,0,0
-462,-181,0,0,0,0,0,0,0,0,0,-1,762,1205,0,0
-455,-181,0,0,0,0,0,0,0,0,0,-1,769,1205,0,0
-448,-181,0,0,0,0,0,0,0,0,0,-1,776,1205,0,0
-441,-181,0,0,0,0,0,0,0,0,0,-1,783,1205,0,0
-434,-181,0,0,0,0,0,0,0,0,0,-1,790,1205,0,0
-427,-181,0,0,0,0,0,0,0,0,0,-1,797,1205,0,0
-420,-181,0,0,0,0,0,0,0,0,0,-1,804,1205,0,0
-413,-181,0,0,0,0,0,0,0,0,0,-1,811,1205,0,0
-406,-181,0,0,0,0,0,0,0,0,0,-1,818,1205,0,0
-399,-181,0,0,0,0,0,0,0,0,0,-1,825,1205,0,0
-392,-181,0,0,0,0,0,0,0,0,0,-1,832,1205,0,0
-385,-181,0,0,0,0,0,0,0,0,0,-1,839,1205,0,0
-378,-181,0,0,0,0,0,0,0,0,0,-1,846,1205,0,0
-371,-181,0,0,0,0,0,0,0,0,0,-1,853,1205,0,0
-364,-181,0,0,0,0,0,0,0,0,0,-1,860,1205,0,0
-357,-181,0,0,0,0,0,0,0,0,0,-1,867,1205,0,0
-350,-181,0,0,0,0,0,0,0,0,0,-1,874,1205,0,0
-343,-181,0,0,0,0,0,0,0,0,0,-1,881,1205,0,0
-336,-181,0,0,0,0,0,0,0,0,0,-1,888,1205,0,0
-329,-181,0,0,0,0,0,0,0,0,0,-1,895,1205,0,0
-322,-181,0,0,0,0,0,0,0,0,0,-1,902,1205,0,0
-315,-181,0,0,0,0,0,0,0,0,0,-1,909,1205,0,0
-308,-181,0,0,0,0,0,0,0,0,0,-1,916,1205,0,0
-301,-181,0,0,0,0,0,0,0,0,0,-1,923,1205,0,0
-294,-181,0,0,0,0,0,0,0,0,0,-1,930,1205,0,0
-287,-181,0,0,0,0,0,0,0,0,0,-1,937,1205,0,0
-280,-181,0,0,0,0,0,0,0,0,0,-1,944,1205,0,0
-273,-181,0,0,0,0,0,0,0,0,0,-1,951,1205,0,0
-266,-181,0,0,0,0,0,0,0,0,0,-1,958,1205,0,0
-259,-181,0,0,0,0,0,0,0,0,0,-1,965,1205,0,0
-252,-181,0,0,0,0,0,0,0,0,0,-1,972,1205,0,0
-245,-181,0,0,0,0,0,0,0,0,0,-1,979,1205,0,0
-238,-181,0,0,0,0,0,0,0,0,0,-1,986,1205,0,0
-231,-181,0,0,0,0,0,0,0,0,0,-1,993,1205,0,0
-224,-181,0,0,0,0,0,0,0,0,0,-1,1000,1205,0,0
-217,-181,0,0,0,0,0,0,0,0,0,-1,1007,1205,0,0
-210,-181,0,0,0,0,0,0,0,0,0,-1,1014,1205,0,0
-203,-181,0,0,0,0,0,0,0,0,0,-1,1021,1205,0,0
-196,-181,0,0,0,0,0,0,0,0,0,-1,1028,1205,0,0
-189,-181,0,0,0,0,0,0,0,0,0,-1,1035,1205,0,0
-182,-181,0,0,0,0,0,0,0,0,0,-1,1042,1205,0,0
-175,-181,0,0,0,0,0,0,0,0,0,-1,1049,1205,0,0
-168,-181,0,0,0,0,0,0,0,0,0,-1,1056,1205,0,0
-161,-181,0,0,0,0,0,0,0,0,0,-1,1063,1205,0,0
-154,-181,0,0,0,0,0,0,0,0,0,-1,1070,1205,0,0
-147,-181,0,0,0,0,0,0,0,0,0,-1,1077,1205,0,0
-140,-181,0,0,0,0,0,0,0,0,0,-1,1084,1205,0,0
-133,-181,0,0,0,0,0,0,0,0,0,-1,1091,1205,0,0
-126,-181,0,0,0,0,0,0,0,0,0,-1,1098,1205,0,0
-119,-181,0,0,0,0,0,0,0,0,0,-1,1105,1205,0,0
-112,-181,0,0,0,0,0,0,0,0,0,-1,1112,1205,0,0
-105,-181,0,0,0,0,0,0,0,0,0,-1,1119,1205,0,0
-98,-181,0,0,0,0,0,0,0,0,0,-1,1126,1205,0,0
-91,-181,0,0,0,0,0,0,0,0,0,-1,1133,1205,0,0
-84,-181,0,0,0,0,0,0,0,0,0,-1,1140,1205,0,0
-77,-181,0,0,0,0,0,0,0,0,0,-1,1147,1205,0,0
-70,-181,0,0,0,0,0,0,0,0,0,-1,1154,1205,0,0
-63,-181,0,0,0,0,0,0,0,0,0,-1,1161,1205,0,0
-56,-181,0,0,0,0,0,0,0,0,0,-1,1168,1205,0,0
-49,-181,0,0,0,0,0,0,0,0,0,-1,1175,1205,0,0
-42,-181,0,0,0,0,0,0,0,0,0,-1,1182,1205,0,0
-35,-181,0,0,0,0,0,0,0,0,0,-1,1189,1205,0,0
-28,-181,0,0,0,0,0,0,0,0,0,-1,1196,1205,0,0
-21,-181,0,0,0,0,0,0,0,0,0,-1,1203,1205,0,0
-14,-181,0,0,0,0,0,0,0,0,0,-1,1210,1205,0,0
-7,-181,0,0,0,0,0,0,0,0,0,-1,1217,1205,0,0
0,-181,0,0,0,0,0,0,0,0,0,-1,1224,1205,0,0
7,-181,0,0,0,0,0,0,0,0,0,-1,1231,1205,0,0
14,-181,0,0,0,0,0,0,0,0,0,-1,1238,1205,0,0
21,-181,0,0,0,0,0,0,0,0,0,-1,1245,1205,0,0
28,-181,0,0,0,0,0,0,0,0,0,-1,1252,1205,0,0
35,-181,0,0,0,0,0,0,0,0,0,-1,1259,1205,0,0
42,-181,0,0,0,0,0,0,0,0,0,-1,1266,1205,0,0
49,-181,0,0,0,0,0,0,0,0,0,-1,1273,1205,0,0
56,-181,0,0,0,0,0,0,0,0,0,-1,1280,1205,0,0
63,-181,0,0,0,0,0,0,0,0,0,-1,1287,1205,0,0
70,-181,0,0,0,0,0,0,0,0,0,-1,1294,1205,0,0
77,-181,0,0,0,0,0,0,0,0,0,-1,1301,1205,0,0
84,-181,0,0,0,0,0,0,0,0,0,-1,1308,1205,0,0
91,-181,0,0,0,0,0,0,0,0,0,-1,1315,1205,0,0
98,-181,0,0,0,0,0,0,0,0,0,-1,1322,1205,0,0
105,-181,0,0,0,0,0,0,0,0,0,-1,1329,1205,0,0
112,-181,0,0,0,0,0,0,0,0,0,-1,1336,1205,0,0
119,-181,0,0,0,0,0,0,0,0,0,-1,1343,1205,0,0
126,-181,0,0,0,0,0,0,0,0,0,-1,1350,1205,0,0
133,-181,0,0,0,0,0,0,0,0,0,-1,1357,1205,0,0
140,-181,0,0,0,0,0,0,0,0,0,-1,1364,1205,0,0
147,-181,0,0,0,0,0,0,0,0,0,-1,1371,1205,0,0
154,-181,0,0,0,0,0,0,0,0,0,-1,1378,1205,0,0
161,-181,0,0,0,0,0,0,0,0,0,-1,1385,1205,0,0
168,-181,0,0,0,0,0,0,0,0,0,-1,1392,1205,0,0
175,-181,0,0,0,0,0,0,0,0,0,-1,1399,1205,0,0
182,-181,0,0,0,0,0,0,0,0,0,-1,1406,1205,0,0
189,-181,0,0,0,0,0,0,0,0,0,-1,1413,1205,0,0
196,-181,0,0,0,0,0,0,0,0,0,-1,1420,1205,0,0
203,-181,0,0,0,0,0,0,0,0,0,-1,1427,1205,0,0
210,-181,0,0,0,0,0,0,0,0,0,-1,1434,1205,0,0
217,-181,0,0,0,0,0,0,0,0,0,-1,1441,1205,0,0
224,-181,0,0,0,0,0,0,0,0,0,-1,1448,1205,0,0
231,-181,0,0,0,0,0,0,0,0,0,-1,1455,1205,0,0
238,-181,0,0,0,0,0,0,0,0,0,-1,1462,1205,0,0
245,-181,0,0,0,0,0,0,0,0,0,-1,1469,1205,0,0
252,-181,0,0,0,0,0,0,0,0,0,-1,1476,1205,0,0
259,-181,0,0,0,0,0,0,0,0,0,-1,1483,1205,0,0
266,-181,0,0,0,0,0,0,0,0,0,-1,1490,1205,0,0
273,-181,0,0,0,0,0,0,0,0,0,-1,1497,1205,0,0
280,-181,0,0,0,0,0,0,0,0,0,-1,1504,1205,0,0
287,-181,0,0,0,0,0,0,0,0,0,-1,1511,1205,0,0
294,-181,0,0,0,0,0,0,0,0,0,-1,1518,1205,0,0
301,-181,0,0,0,0,0,0,0,0,0,-1,1525,1205,0,0
308,-181,0,0,0,0,0,0,0,0,0,-1,1532,1205,0,0
315,-181,0,0,0,0,0,0,0,0,0,-1,1539,1205,0,0
322,-181,0,0,0,0,0,0,0,0,0,-1,1546,1205,0,0
329,-181,0,0,0,0,0,0,0,0,0,-1,1553,1205,0,0
336,-181,0,0,0,0,0,0,0,0,0,-1,1560,1205,0,0
343,-181,0,0,0,0,0,0,0,0,0,-1,1567,1205,0,0
350,-181,0,0,0,0,0,0,0,0,0,-1,1574,1205,0,0
357,-181,0,0,0,0,0,0,0,0,0,-1,1581,1205,0,0
364,-181,0,0,0,0,0,0,0,0,0,-1,1588,1205,0,0
371,-181,0,0,0,0,0,0,0,0,0,-1,1595,1205,0,0
378,-181,0,0,0,0,0,0,0,0,0,-1,1602,1205,0,0
385,-181,0,0,0,0,0,0,0,0,0,-1,1609,1205,0,0
392,-181,0,0,0,0,0,0,0,0,0,-1,1616,1205,0,0
399,-181,0,0,0,0,0,0,0,0,0,-1,1623,1205,0,0
406,-181,0,0,0,0,0,0,0,0,0,-1,1630,1205,0,0
413,-181,0,0,0,0,0,0,0,0,0,-1,1637,1205,0,0
420,-181,0,0,0,0,0,0,0,0,0,-1,1644,1205,0,0
427,-181,0,0,0,0,0,0,0,0,0,-1,1651,1205,0,0
434,-181,0,0,0,0,0,0,0,0,0,-1,1658,1205,0,0
441,-181,0,0,0,0,0,0,0,0,0,-1,1665,1205,0,0
448,-181,0,0,0,0,0,0,0,0,0,-1,1672,1205,0,0
455,-181,0,0,0,0,0,0,0,0,0,-1,1679,1205,0,0
462,-181,0,0,0,0,0,0,0,0,0,-1,1686,1205,0,0
469,-181,0,0,0,0,0,0,0,0,0,-1,1693,1205,0,0
476,-181,0,0,0,0,0,0,0,0,0,-1,1700,1205,0,0
483,-181,0,0,0,0,0,0,0,0,0,-1,1707,1205,0,0
490,-181,0,0,0,0,0,0,0,0,0,-1,1714,1205,0,0
497,-181,0,0,0,0,0,0,0,0,0,-1,1721,1205,0,0
504,-181,0,0,0,0,0,0,0,0,0,-1,1728,1205,0,0
511,-181,0,0,0,0,0,0,0,0,0,-1,1735,1205,0,0
518,-181,0,0,0,0,0,0,0,0,0,-1,1742,1205,0,0
525,-181,0,0,0,0,0,0,0,0,0,-1,1749,1205,0,0
532,-181,0,0,0,0,0,0,0,0,0,-1,1756,1205,0,0
539,-181,0,0,0,0,0,0,0,0,0,-1,1763,1205,0,0
546,-181,0,0,0,0,0,0,0,0,0,-1,1770,1205,0,0
553,-181,0,0,0,0,0,0,0,0,0,-1,1777,1205,0,0
560,-181,0,0,0,0,0,0,0,0,0,-1,1784,1205,0,0
567,-181,0,0,0,0,0,0,0,0,0,-1,1791,1205,0,0
574,-181,0,0,0,0,0,0,0,0,0,-1,1798,1205,0,0
581,-181,0,0,0,0,0,0,0,0,0,-1,1805,1205,0,0
588,-181,0,0,0,0,0,0,0,0,0,-1,1812,1205,0,0
595,-181,0,0,0,0,0,0,0,0,0,-1,1819,1205,0,0
602,-181,0,0,0,0,0,0,0,0,0,-1,1826,1205,0,0
609,-181,0,0,0,0,0,0,0,0,0,-1,1833,1205,0,0
616,-181,0,0,0,0,0,0,0,0,0,-1,1840,1205,0,0
623,-181,0,0,0,0,0,0,0,0,0,-1,1847,1205,0,0
630,-181,7.1709,1.09033,-0.00343007,0.000119919,-0.000222312,0.000133786,-0.00344393,-1.5085,0.00234183,0.0371946,1854,1205,7.17091,-1.09039
637,-181,7.13892,1.1709,-0.00240344,0.000617029,4.64887e-05,0.000617744,-0.00240416,1.55541,0.00184352,0.0350672,1861,1205,7.13889,-1.17093
644,-181,7.12146,1.20959,-0.00194533,0.000219933,-0.000168687,0.000232996,-0.0019584,-1.49351,0.00138979,0.0372611,1868,1205,7.12143,-1.20958
651,-181,7.23389,1.13501,-0.00204683,-0.000382489,-4.99946e-05,-0.000380989,-0.00204833,-1.54079,0.00125794,0.03955,1875,1205,7.23385,-1.13504
658,-181,7.10107,1.06335,-0.00234551,-0.00102302,0.000289576,-0.000962394,-0.00240613,1.36441,0.00139842,0.0369615,1882,1205,7.10111,-1.06336
665,-181,7.13977,1.00745,-0.00267956,-0.0015823,0.000650354,-0.00128008,-0.00298179,1.13578,0.00172726,0.0318761,1889,1205,7.13981,-1.00747
672,-181,7.1958,0.976318,-0.00298279,-0.00201466,0.000977583,-0.00140786,-0.00358959,1.01529,0.00208844,0.0228124,1896,1205,7.19576,-0.97633
679,-181,7.25293,1.06445,-0.00319711,-0.00224782,0.00127124,-0.00136551,-0.00407942,0.964068,0.00239776,0.0276309,1903,1205,7.25293,-1.06445
686,-181,7.20081,1.27539,-0.00328059,-0.00239656,0.00147762,-0.00129626,-0.00438089,0.930732,0.00259861,0.0471788,1910,1205,7.20078,-1.27539
693,-181,6.81531,1.30847,-0.00330631,-0.00237453,0.00161218,-0.00116228,-0.00451857,0.926058,0.00270937,0.0471216,1917,1205,6.8153,-1.30847
700,-181,6.76855,1.37219,-0.00316278,-0.00229244,0.00170858,-0.000964479,-0.00449074,0.910095,0.00272973,0.045018,1924,1205,6.7686,-1.37216
707,-181,6.75537,1.42651,-0.00291091,-0.00207057,0.00177048,-0.000671084,-0.00431039,0.901903,0.00267807,0.021641,1931,1205,6.75539,-1.42649
714,-181,6.73608,1.37451,-0.00279684,-0.00174126,0.00173277,-0.000457687,-0.00408041,0.933231,0.00258127,0.0170032,1938,1205,6.7361,-1.37453
721,-181,6.71643,1.34094,-0.00273343,-0.00140209,0.00161811,-0.000318074,-0.00381745,0.980539,0.00244584,0.0127822,1945,1205,6.71649,-1.34097
728,-181,6.70801,1.3042,-0.00235781,-0.000967876,0.00161052,9.12275e-05,-0.00341692,0.989087,0.00230895,0.0103672,1952,1205,6.70801,-1.30414
735,-181,6.71594,1.27209,-0.0015139,-0.000503975,0.00155642,0.000627344,-0.00264522,0.942261,0.00200557,0.0108565,1959,1205,6.71594,-1.27213
742,-181,6.70776,1.26245,-0.000106519,-0.000255805,0.00167068,0.00149118,-0.0018535,0.763074,0.00193483,0.0172771,1966,1205,6.70777,-1.26242
749,-181,6.71802,1.20532,0.00146591,-0.000435345,0.0015686,0.00234946,-0.00131889,0.512976,0.0021456,0.0156422,1973,1205,6.71802,-1.20533
756,-181,6.71204,1.15784,0.00321802,-0.000900386,0.00189046,0.0039542,-0.00163657,0.371351,0.003319,0.0110908,1980,1205,6.71201,-1.15782
763,-181,6.68396,1.14001,0.00548467,-0.00148323,0.00236127,0.00620946,-0.00220803,0.297821,0.00503955,0.0119429,1987,1205,6.68393,-1.13998
770,-181,6.61169,1.11682,0.00857733,-0.00245488,0.00304252,0.00936078,-0.00323832,0.252024,0.00755496,0.0245249,1994,1205,6.61172,-1.11682
777,-181,6.37024,1.08936,0.0127556,-0.00389853,0.00388658,0.0136179,-0.00476089,0.218344,0.0110141,0.0422405,2001,1205,6.3702,-1.08941
784,-181,6.64685,1.93176,0.0182151,-0.00594238,0.00490635,0.0191735,-0.00690083,0.192919,0.0156,0.0463082,2008,1205,6.6468,-1.93181
791,-181,7.50635,2.21509,0.0251273,-0.00871984,0.00613665,0.0262056,-0.00979809,0.173932,0.0214942,0.0475778,2015,1205,7.50636,-2.21511
798,-181,7.1814,1.65674,0,0,0,0,0,0,0,-1,2022,1205,7.18141,-1.65676
805,-181,0,0,0,0,0,0,0,0,0,-1,2029,1205,0,0
812,-181,0,0,0,0,0,0,0,0,0,-1,2036,1205,0,0
-700,-188,0,0,0,0,0,0,0,0,0,-1,524,1212,0,0
-693,-188,0,0,0,0,0,0,0,0,0,-1,531,1212,0,0
-686,-188,0,0,0,0,0,0,0,0,0,-1,538,1212,0,0
-679,-188,-1.00055,-0.747314,-0.0181887,0.0821869,0.00855399,0.0829107,-0.0189124,1.48639,0.0625385,0.0434899,545,1212,-1.00057,0.747264
-672,-188,-1.37482,-0.568359,-0.0152114,0.0672944,0.00949646,0.0683734,-0.0162904,1.45767,0.0518721,0.0439643,552,1212,-1.37484,0.568316
-665,-188,-1.59442,-0.357666,-0.0124949,0.0530518,0.00957391,0.0544216,-0.0138647,1.42869,0.0416785,0.0464542,559,1212,-1.59444,0.357671
-658,-188,-1.78357,0.200439,0,0,0,0,0,0,0,-1,566,1212,-1.78356,-0.200461
-651,-188,-2.00006,0.389771,-0.00779874,0.029543,0.00817434,0.031254,-0.00950975,1.36446,0.0246258,0.0465096,573,1212,-2.00004,-0.38981
-644,-188,-2.04333,0.567993,-0.00579711,0.0208579,0.00706219,0.0226134,-0.00755261,1.32716,0.0181254,0.0387304,580,1212,-2.04332,-0.567979
-637,-188,-2.13123,0.731201,-0.00402614,0.0140132,0.00576199,0.0156966,-0.00570951,1.28656,0.0127993,0.0185875,587,1212,-2.13122,-0.731227
-630,-188,-2.12836,0.75647,-0.00266782,0.00895383,0.00448448,0.010483,-0.00419704,1.24216,0.00873072,0.00898864,594,1212,-2.12836,-0.756486
-623,-188,-2.12592,0.792847,-0.00176172,0.00552111,0.00398594,0.00727855,-0.00351916,1.15553,0.00635876,0.00983471,601,1212,-2.12593,-0.792818
-616,-188,-2.09961,0.822632,-0.0012432,0.0016581,0.0027437,0.00331104,-0.00289614,1.02858,0.00358639,0.00961773,608,1212,-2.0996,-0.822677
-609,-188,-2.08765,0.861816,-0.0011119,-1.01434e-05,0.00160832,0.00113903,-0.00226107,0.950395,0.00199836,0.0125591,615,1212,-2.08764,-0.861767
-602,-188,-2.10175,0.936768,-0.00154289,-0.000465088,0.000798333,-4.07919e-05,-0.00196719,1.08229,0.00129808,0.0160703,622,1212,-2.10175,-0.936762
-595,-188,-2.09418,0.974854,-0.00214218,-0.0013236,0.000112438,-0.00130844,-0.00215734,1.43674,0.00125492,0.0122215,629,1212,-2.0942,-0.974801
-588,-188,-2.1051,1.01062,-0.00274746,-0.00213349,-0.000541451,-0.00181805,-0.00306289,-1.04329,0.00177866,0.0090474,636,1212,-2.10509,-1.01056
-581,-188,-2.11511,1.04785,-0.00339499,-0.00283969,-0.00126015,-0.00182697,-0.00440772,-0.893831,0.00255717,0.00852674,643,1212,-2.11512,-1.04791
-574,-188,-2.0929,1.02783,-0.00383044,-0.00334627,-0.00147353,-0.00209507,-0.00508163,-0.866816,0.00294889,0.0230454,650,1212,-2.09289,-1.02783
-567,-188,-2.03027,1.0332,-0.00423294,-0.00347427,-0.00139882,-0.00240426,-0.00530294,-0.917805,0.00306609,0.0448408,657,1212,-2.0303,-1.03325
-560,-188,-1.99719,1.01453,0,0,0,0,0,0,0,-1,664,1212,-1.99716,-1.01456
-553,-188,-2.72485,1.91174,0,0,0,0,0,0,0,-1,671,1212,-2.72486,-1.91177
-546,-188,-2.57013,0.776001,-0.00402196,-0.00279779,-0.00100242,-0.00223536,-0.00458439,-1.05949,0.00264707,0.0443562,678,1212,-2.57011,-0.776041
-539,-188,-2.62054,0.868286,-0.00326745,-0.00167692,-0.000301173,-0.0016218,-0.00332257,-1.38979,0.00191847,0.0368803,685,1212,-2.62054,-0.868301
-532,-188,-2.49316,0.665283,-0.0020344,0.000118519,0.000923523,0.000460389,-0.00237627,1.21626,0.00175786,0.040718,692,1212,-2.49315,-0.665249
-525,-188,-2.46741,0.488403,-0.000282962,0.00274127,0.00286258,0.00446657,-0.00200826,1.02839,0.003827,0.0402898,699,1212,-2.4674,-0.488433
-518,-188,-2.52905,1.03455,0.00190991,0.00644178,0.00596518,0.0105569,-0.00220521,0.966911,0.00787658,0.0419245,706,1212,-2.52907,-1.03451
-511,-188,-2.72705,1.41089,0,0,0,0,0,0,0,-1,713,1212,-2.72706,-1.41084
-504,-188,0,0,0,0,0,0,0,0,0,-1,720,1212,0,0
-497,-188,0,0,0,0,0,0,0,0,0,-1,727,1212,0,0
-490,-188,0,0,0,0,0,0,0,0,0,-1,734,1212,0,0
-483,-188,0,0,0,0,0,0,0,0,0,-1,741,1212,0,0
-476,-188,0,0,0,0,0,0,0,0,0,-1,748,1212,0,0
-469,-188,0,0,0,0,0,0,0,0,0,-1,755,1212,0,0
-462,-188,0,0,0,0,0,0,0,0,0,-1,762,1212,0,0
-455,-188,0,0,0,0,0,0,0,0,0,-1,769,1212,0,0
-448,-188,0,0,0,0,0,0,0,0,0,-1,776,1212,0,0
-441,-188,0,0,0,0,0,0,0,0,0,-1,783,1212,0,0
-434,-188,0,0,0,0,0,0,0,0,0,-1,790,1212,0,0
-427,-188,0,0,0,0,0,0,0,0,0,-1,797,1212,0,0
-420,-188,0,0,0,0,0,0,0,0,0,-1,804,1212,0,0
-413,-188,0,0,0,0,0,0,0,0,0,-1,811,1212,0,0
-406,-188,0,0,0,0,0,0,0,0,0,-1,818,1212,0,0
-399,-188,0,0,0,0,0,0,0,0,0,-1,825,1212,0,0
-392,-188,0,0,0,0,0,0,0,0,0,-1,832,1212,0,0
-385,-188,0,0,0,0,0,0,0,0,0,-1,839,1212,0,0
-378,-188,0,0,0,0,0,0,0,0,0,-1,846,1212,0,0
-371,-188,0,0,0,0,0,0,0,0,0,-1,853,1212,0,0
-364,-188,0,0,0,0,0,0,0,0,0,-1,860,1212,0,0
-357,-188,0,0,0,0,0,0,0,0,0,-1,867,1212,0,0
-350,-188,0,0,0,0,0,0,0,0,0,-1,874,1212,0,0
-343,-188,0,0,0,0,0,0,0,0,0,-1,881,1212,0,0
-336,-188,0,0,0,0,0,0,0,0,0,-1,888,1212,0,0
-329,-188,0,0,0,0,0,0,0,0,0,-1,895,1212,0,0
-322,-188,0,0,0,0,0,0,0,0,0,-1,902,1212,0,0
-315,-188,0,0,0,0,0,0,0,0,0,-1,909,1212,0,0
-308,-188,0,0,0,0,0,0,0,0,0,-1,916,1212,0,0
-301,-188,0,0,0,0,0,0,0,0,0,-1,923,1212,0,0
-294,-188,0,0,0,0,0,0,0,0,0,-1,930,1212,0,0
-287,-188,0,0,0,0,0,0,0,0,0,-1,937,1212,0,0
-280,-188,0,0,0,0,0,0,0,0,0,-1,944,1212,0,0
-273,-188,0,0,0,0,0,0,0,0,0,-1,951,1212,0,0
-266,-188,0,0,0,0,0,0,0,0,0,-1,958,1212,0,0
-259,-188,0,0,0,0,0,0,0,0,0,-1,965,1212,0,0
-252,-188,0,0,0,0,0,0,0,0,0,-1,972,1212,0,0
-245,-188,0,0,0,0,0,0,0,0,0,-1,979,1212,0,0
-238,-188,0,0,0,0,0,0,0,0,0,-1,986,1212,0,0
-231,-188,0,0,0,0,0,0,0,0,0,-1,993,1212,0,0
-224,-188,0,0,0,0,0,0,0,0,0,-1,1000,1212,0,0
-217,-188,0,0,0,0,0,0,0,0,0,-1,1007,1212,0,0
-210,-188,0,0,0,0,0,0,0,0,0,-1,1014,1212,0,0
-203,-188,0,0,0,0,0,0,0,0,0,-1,1021,1212,0,0
-196,-188,0,0,0,0,0,0,0,0,0,-1,1028,1212,0,0
-189,-188,0,0,0,0,0,0,0,0,0,-1,1035,1212,0,0
-182,-188,0,0,0,0,0,0,0,0,0,-1,1042,1212,0,0
-175,-188,0,0,0,0,0,0,0,0,0,-1,1049,1212,0,0
-168,-188,0,0,0,0,0,0,0,0,0,-1,1056,1212,0,0
-161,-188,0,0,0,0,0,0,0,0,0,-1,1063,1212,0,0
-154,-188,0,0,0,0,0,0,0,0,0,-1,1070,1212,0,0
-147,-188,0,0,0,0,0,0,0,0,0,-1,1077,1212,0,0
-140,-188,0,0,0,0,0,0,0,0,0,-1,1084,1212,0,0
-133,-188,0,0,0,0,0,0,0,0,0,-1,1091,1212,0,0
-126,-188,0,0,0,0,0,0,0,0,0,-1,1098,1212,0,0
-119,-188,0,0,0,0,0,0,0,0,0,-1,1105,1212,0,0
-112,-188,0,0,0,0,0,0,0,0,0,-1,1112,1212,0,0
-105,-188,0,0,0,0,0,0,0,0,0,-1,1119,1212,0,0
-98,-188,0,0,0,0,0,0,0,0,0,-1,1126,1212,0,0
-91,-188,0,0,0,0,0,0,0,0,0,-1,1133,1212,0,0
-84,-188,0,0,0,0,0,0,0,0,0,-1,1140,1212,0,0
-77,-188,0,0,0,0,0,0,0,0,0,-1,1147,1212,0,0
-70,-188,0,0,0,0,0,0,0,0,0,-1,1154,1212,0,0
-63,-188,0,0,0,0,0,0,0,0,0,-1,1161,1212,0,0
-56,-188,0,0,0,0,0,0,0,0,0,-1,1168,1212,0,0
-49,-188,0,0,0,0,0,0,0,0,0,-1,1175,1212,0,0
-42,-188,0,0,0,0,0,0,0,0,0,-1,1182,1212,0,0
-35,-188,0,0,0,0,0,0,0,0,0,-1,1189,1212,0,0
-28,-188,0,0,0,0,0,0,0,0,0,-1,1196,1212,0,0
-21,-188,0,0,0,0,0,0,0,0,0,-1,1203,1212,0,0
-14,-188,0,0,0,0,0,0,0,0,0,-1,1210,1212,0,0
-7,-188,0,0,0,0,0,0,0,0,0,-1,1217,1212,0,0
0,-188,0,0,0,0,0,0,0,0,0,-1,1224,1212,0,0
7,-188,0,0,0,0,0,0,0,0,0,-1,1231,1212,0,0
14,-188,0,0,0,0,0,0,0,0,0,-1,1238,1212,0,0
21,-188,0,0,0,0,0,0,0,0,0,-1,1245,1212,0,0
28,-188,0,0,0,0,0,0,0,0,0,-1,1252,1212,0,0
35,-188,0,0,0,0,0,0,0,0,0,-1,1259,1212,0,0
42,-188,0,0,0,0,0,0,0,0,0,-1,1266,1212,0,0
49,-188,0,0,0,0,0,0,0,0,0,-1,1273,1212,0,0
56,-188,0,0,0,0,0,0,0,0,0,-1,1280,1212,0,0
63,-188,0,0,0,0,0,0,0,0,0,-1,1287,1212,0,0
70,-188,0,0,0,0,0,0,0,0,0,-1,1294,1212,0,0
77,-188,0,0,0,0,0,0,0,0,0,-1,1301,1212,0,0
84,-188,0,0,0,0,0,0,0,0,0,-1,1308,1212,0,0
91,-188,0,0,0,0,0,0,0,0,0,-1,1315,1212,0,0
98,-188,0,0,0,0,0,0,0,0,0,-1,1322,1212,0,0
105,-188,0,0,0,0,0,0,0,0,0,-1,1329,1212,0,0
112,-188,0,0,0,0,0,0,0,0,0,-1,1336,1212,0,0
119,-188,0,0,0,0,0,0,0,0,0,-1,1343,1212,0,0
126,-188,0,0,0,0,0,0,0,0,0,-1,1350,1212,0,0
133,-188,0,0,0,0,0,0,0,0,0,-1,1357,1212,0,0
140,-188,0,0,0,0,0,0,0,0,0,-1,1364,1212,0,0
147,-188,0,0,0,0,0,0,0,0,0,-1,1371,1212,0,0
154,-188,0,0,0,0,0,0,0,0,0,-1,1378,1212,0,0
161,-188,0,0,0,0,0,0,0,0,0,-1,1385,1212,0,0
168,-188,0,0,0,0,0,0,0,0,0,-1,1392,1212,0,0
175,-188,0,0,0,0,0,0,0,0,0,-1,1399,1212,0,0
182,-188,0,0,0,0,0,0,0,0,0,-1,1406,1212,0,0
189,-188,0,0,0,0,0,0,0,0,0,-1,1413,1212,0,0
196,-188,0,0,0,0,0,0,0,0,0,-1,1420,1212,0,0
203,-188,0,0,0,0,0,0,0,0,0,-1,1427,1212,0,0
210,-188,0,0,0,0,0,0,0,0,0,-1,1434,1212,0,0
217,-188,0,0,0,0,0,0,0,0,0,-1,1441,1212,0,0
224,-188,0,0,0,0,0,0,0,0,0,-1,1448,1212,0,0
231,-188,0,0,0,0,0,0,0,0,0,-1,1455,1212,0,0
238,-188,0,0,0,0,0,0,0,0,0,-1,1462,1212,0,0
245,-188,0,0,0,0,0,0,0,0,0,-1,1469,1212,0,0
252,-188,0,0,0,0,0,0,0,0,0,-1,1476,1212,0,0
259,-188,0,0,0,0,0,0,0,0,0,-1,1483,1212,0,0
266,-188,0,0,0,0,0,0,0,0,0,-1,1490,1212,0,0
273,-188,0,0,0,0,0,0,0,0,0,-1,1497,1212,0,0
280,-188,0,0,0,0,0,0,0,0,0,-1,1504,1212,0,0
287,-188,0,0,0,0,0,0,0,0,0,-1,1511,1212,0,0
294,-188,0,0,0,0,0,0,0,0,0,-1,1518,1212,0,0
301,-188,0,0,0,0,0,0,0,0,0,-1,1525,1212,0,0
308,-188,0,0,0,0,0,0,0,0,0,-1,1532,1212,0,0
315,-188,0,0,0,0,0,0,0,0,0,-1,1539,1212,0,0
322,-188,0,0,0,0,0,0,0,0,0,-1,1546,1212,0,0
329,-188,0,0,0,0,0,0,0,0,0,-1,1553,1212,0,0
336,-188,0,0,0,0,0,0,0,0,0,-1,1560,1212,0,0
343,-188,0,0,0,0,0,0,0,0,0,-1,1567,1212,0,0
350,-188,0,0,0,0,0,0,0,0,0,-1,1574,1212,0,0
357,-188,0,0,0,0,0,0,0,0,0,-1,1581,1212,0,0
364,-188,0,0,0,0,0,0,0,0,0,-1,1588,1212,0,0
371,-188,0,0,0,0,0,0,0,0,0,-1,1595,1212,0,0
378,-188,0,0,0,0,0,0,0,0,0,-1,1602,1212,0,0
385,-188,0,0,0,0,0,0,0,0,0,-1,1609,1212,0,0
392,-188,0,0,0,0,0,0,0,0,0,-1,1616,1212,0,0
399,-188,0,0,0,0,0,0,0,0,0,-1,1623,1212,0,0
406,-188,0,0,0,0,0,0,0,0,0,-1,1630,1212,0,0
413,-188,0,0,0,0,0,0,0,0,0,-1,1637,1212,0,0
420,-188,0,0,0,0,0,0,0,0,0,-1,1644,1212,0,0
427,-188,0,0,0,0,0,0,0,0,0,-1,1651,1212,0,0
434,-188,0,0,0,0,0,0,0,0,0,-1,1658,1212,0,0
441,-188,0,0,0,0,0,0,0,0,0,-1,1665,1212,0,0
448,-188,0,0,0,0,0,0,0,0,0,-1,1672,1212,0,0
455,-188,0,0,0,0,0,0,0,0,0,-1,1679,1212,0,0
462,-188,0,0,0,0,0,0,0,0,0,-1,1686,1212,0,0
469,-188,0,0,0,0,0,0,0,0,0,-1,1693,1212,0,0
476,-188,0,0,0,0,0,0,0,0,0,-1,1700,1212,0,0
483,-188,0,0,0,0,0,0,0,0,0,-1,1707,1212,0,0
490,-188,0,0,0,0,0,0,0,0,0,-1,1714,1212,0,0
497,-188,0,0,0,0,0,0,0,0,0,-1,1721,1212,0,0
504,-188,0,0,0,0,0,0,0,0,0,-1,1728,1212,0,0
511,-188,0,0,0,0,0,0,0,0,0,-1,1735,1212,0,0
518,-188,0,0,0,0,0,0,0,0,0,-1,1742,1212,0,0
525,-188,0,0,0,0,0,0,0,0,0,-1,1749,1212,0,0
532,-188,0,0,0,0,0,0,0,0,0,-1,1756,1212,0,0
539,-188,0,0,0,0,0,0,0,0,0,-1,1763,1212,0,0
546,-188,0,0,0,0,0,0,0,0,0,-1,1770,1212,0,0
553,-188,0,0,0,0,0,0,0,0,0,-1,1777,1212,0,0
560,-188,0,0,0,0,0,0,0,0,0,-1,1784,1212,0,0
567,-188,0,0,0,0,0,0,0,0,0,-1,1791,1212,0,0
574,-188,0,0,0,0,0,0,0,0,0,-1,1798,1212,0,0
581,-188,0,0,0,0,0,0,0,0,0,-1,1805,1212,0,0
588,-188,0,0,0,0,0,0,0,0,0,-1,1812,1212,0,0
595,-188,0,0,0,0,0,0,0,0,0,-1,1819,1212,0,0
602,-188,0,0,0,0,0,0,0,0,0,-1,1826,1212,0,0
609,-188,0,0,0,0,0,0,0,0,0,-1,1833,1212,0,0
616,-188,0,0,0,0,0,0,0,0,0,-1,1840,1212,0,0
623,-188,0,0,0,0,0,0,0,0,0,-1,1847,1212,0,0
630,-188,7.20105,0.99707,-0.0030237,0.000668705,-0.000595273,0.0007623,-0.0031173,-1.41484,0.00237346,0.0390711,1854,1212,7.20108,-0.997033
637,-188,7.09045,0.982056,-0.00246164,0.000952967,4.2649e-05,0.000953499,-0.00246217,1.55831,0.00203515,0.0376218,1861,1212,7.09046,-0.982023
644,-188,7.03125,1.0542,-0.00230052,0.000453525,0.000102773,0.000457355,-0.00230435,1.53355,0.00170921,0.0341956,1868,1212,7.0313,-1.05423
651,-188,7.09192,1.05579,-0.00248158,-0.000228614,0.000363176,-0.000171517,-0.00253868,1.41486,0.00163828,0.0312408,1875,1212,7.0919,-1.05576
658,-188,7.14148,1.09241,-0.002733,-0.00093385,0.000709147,-0.000687945,-0.00297891,1.23701,0.00180097,0.031226,1882,1212,7.14153,-1.09236
665,-188,7.15552,1.11682,-0.00295871,-0.00153701,0.00100494,-0.00101692,-0.0034788,1.09322,0.00206543,0.0277809,1889,1212,7.15555,-1.11676
672,-188,7.18579,1.06104,-0.00313309,-0.00200843,0.0012386,-0.00121049,-0.00393104,0.998489,0.00232473,0.0227445,1896,1212,7.18585,-1.06101
679,-188,7.28003,1.1394,-0.00321138,-0.00225156,0.00143268,-0.00122054,-0.00424239,0.947011,0.00252187,0.0453522,1903,1212,7.28006,-1.13937
686,-188,7.25098,1.42981,-0.00318476,-0.00240907,0.0015461,-0.00120291,-0.00439092,0.908289,0.00262003,0.0444921,1910,1212,7.25101,-1.42984
693,-188,6.67078,1.20667,-0.00312006,-0.00240475,0.00160689,-0.00111619,-0.00440862,0.894901,0.00264667,0.0471796,1917,1212,6.67078,-1.20667
700,-188,6.65503,1.33948,-0.00291862,-0.00232383,0.00163546,-0.00095895,-0.0042835,0.875336,0.00259575,0.0352487,1924,1212,6.65503,-1.33942
707,-188,6.66699,1.42444,-0.00262568,-0.00210336,0.00163388,-0.000709896,-0.00401914,0.864648,0.00247694,0.0120728,1931,1212,6.66704,-1.42445
714,-188,6.67981,1.39001,-0.00248668,-0.00177172,0.00157045,-0.000518579,-0.00373982,0.897306,0.00233959,0.0096075,1938,1212,6.67983,-1.39
721,-188,6.66272,1.35767,-0.00243535,-0.00135952,0.00136611,-0.000429242,-0.00336563,0.972954,0.00211524,0.0102372,1945,1212,6.66273,-1.35761
728,-188,6.64844,1.31287,-0.00209053,-0.00087555,0.00131691,-3.27637e-05,-0.00293332,1.0015,0.00194472,0.00869947,1952,1212,6.64845,-1.31281
735,-188,6.64978,1.27844,-0.00131839,-0.000273212,0.00126435,0.000572295,-0.0021639,0.981368,0.00166645,0.0117057,1959,1212,6.64975,-1.27848
742,-188,6.65234,1.24329,2.77904e-10,0.000158227,0.00137302,0.00145441,-0.00129618,0.814176,0.00158893,0.0137543,1966,1212,6.65236,-1.24325
749,-188,6.66406,1.20166,0.00140212,0.00016697,0.00118121,0.00211746,-0.000548367,0.544525,0.00162555,0.0135587,1973,1212,6.66401,-1.20166
756,-188,6.66028,1.16077,0.00290124,-4.5958e-05,0.0013476,0.00342452,-0.000569235,0.370383,0.0024945,0.0119803,1980,1212,6.66031,-1.16076
763,-188,6.66138,1.13647,0.00496997,-0.000301378,0.00163442,0.0054356,-0.000767012,0.27754,0.0039046,0.013739,1987,1212,6.66139,-1.13646
770,-188,6.59204,1.10022,0.00782795,-0.000839664,0.00205003,0.00828836,-0.00130007,0.220921,0.00600602,0.0218334,1994,1212,6.59206,-1.10017
777,-188,6.2168,1.27881,0.0116966,-0.00174642,0.0025468,0.0121629,-0.00221274,0.181094,0.00893795,0.0408369,2001,1212,6.21676,-1.27875
784,-188,5.87427,1.43396,0,0,0,0,0,0,0,-1,2008,1212,5.87422,-1.4339
791,-188,6.53381,1.51001,0.0231082,-0.00524754,0.00381458,0.0236124,-0.00575174,0.131414,0.0179683,0.0466572,2015,1212,6.5338,-1.50996
798,-188,6.5863,1.39783,0,0,0,0,0,0,0,-1,2022,1212,6.58631,-1.39788
805,-188,0,0,0,0,0,0,0,0,0,-1,2029,1212,0,0
812,-188,0,0,0,0,0,0,0,0,0,-1,2036,1212,0,0
-700,-195,0,0,0,0,0,0,0,0,0,-1,524,1219,0,0
-693,-195,0,0,0,0,0,0,0,0,0,-1,531,1219,0,0
-686,-195,0,0,0,0,0,0,0,0,0,-1,538,1219,0,0
-679,-195,-0.924927,-0.299438,-0.0224747,0.0589184,0.00545996,0.0592831,-0.0228393,1.50411,0.0489449,0.0412841,545,1219,-0.924925,0.299434
-672,-195,-1.25916,-0.0841064,-0.0190073,0.0484174,0.00779613,0.0493071,-0.019897,1.45717,0.0411401,0.0451677,552,1219,-1.25914,0.0840827
-665,-195,-1.43903,0.0887451,-0.0155094,0.0385063,0.00887813,0.0399281,-0.0169312,1.412,0.0337109,0.0492746,559,1219,-1.43904,-0.0887815
-658,-195,-1.61353,0.284668,-0.0122242,0.0296825,0.00905523,0.0315554,-0.0140972,1.36684,0.0269923,0.0464044,566,1219,-1.61353,-0.2847
-651,-195,-1.7879,0.460938,-0.00922729,0.0221958,0.0086078,0.0243992,-0.0114307,1.3202,0.0211333,0.0454016,573,1219,-1.78792,-0.46098
-644,-195,-1.92267,0.573364,-0.00657903,0.0161063,0.00775539,0.0185042,-0.00897689,1.27093,0.0161809,0.0410344,580,1219,-1.92268,-0.573408
-637,-195,-2.08679,0.718384,-0.00434398,0.0112636,0.00661876,0.0136925,-0.00677283,1.21909,0.0120387,0.0202565,587,1219,-2.0868,-0.718395
-630,-195,-2.08813,0.753784,-0.00264253,0.00763684,0.00540096,0.00995281,-0.0049585,1.16571,0.00876853,0.00735953,594,1219,-2.08816,-0.753845
-623,-195,-2.08417,0.789917,-0.00145269,0.00502706,0.00477431,0.00755701,-0.00398264,1.08351,0.00676811,0.00785593,601,1219,-2.08417,-0.78988
-616,-195,-2.05988,0.826416,-0.000654608,0.00199468,0.0034842,0.00439755,-0.00305748,0.967053,0.00432728,0.00946834,608,1219,-2.0599,-0.826361
-609,-195,-2.07391,0.876343,-0.000426828,0.000575603,0.00219224,0.0023232,-0.00217442,0.897782,0.00259717,0.0169808,615,1219,-2.07389,-0.876371
-602,-195,-2.06042,0.9198,-0.000876769,-6.68891e-05,0.00119213,0.000787194,-0.00173085,0.949124,0.00148743,0.0213483,622,1219,-2.06041,-0.919845
-595,-195,-2.07635,0.987671,-0.00160938,-0.00114795,0.000437353,-0.000884189,-0.00187314,1.02811,0.00108202,0.0151771,629,1219,-2.07634,-0.987626
-588,-195,-2.07574,1.00574,-0.00232577,-0.00212818,-0.000291926,-0.00191878,-0.00253516,-0.948563,0.0015267,0.0075935,636,1219,-2.07576,-1.0058
-581,-195,-2.07446,1.01917,-0.003119,-0.00304207,-0.00107567,-0.00200418,-0.00415689,-0.803269,0.00240049,0.00766547,643,1219,-2.07445,-1.01914
-574,-195,-2.08844,1.02917,-0.00374776,-0.00364938,-0.00135306,-0.00234462,-0.00505252,-0.803568,0.00291959,0.019693,650,1219,-2.08846,-1.0292
-567,-195,-2.08032,1.28027,-0.00431215,-0.00389004,-0.00129717,-0.00278687,-0.00541532,-0.866043,0.00312698,0.0364505,657,1219,-2.08032,-1.28032
-560,-195,-2.2038,1.58118,-0.00473384,-0.00401063,-0.00133264,-0.00299141,-0.00575307,-0.91788,0.00332242,0.0471847,664,1219,-2.20378,-1.58112
-553,-195,-2.66443,1.62268,-0.00488127,-0.0040212,-0.00118368,-0.00319186,-0.00571061,-0.959635,0.00330465,0.0486992,671,1219,-2.6644,-1.62265
-546,-195,-3.08038,1.56616,0,0,0,0,0,0,0,-1,678,1219,-3.08039,-1.56617
-539,-195,-2.55951,0.772339,-0.00445318,-0.00256707,-0.000226433,-0.00254027,-0.00447998,-1.45297,0.00259425,0.0344229,685,1219,-2.55954,-0.772323
-532,-195,-2.48242,0.630737,-0.00368655,-0.000902706,0.000862995,-0.000656884,-0.00393237,1.2933,0.00243237,0.0341973,692,1219,-2.48245,-0.630762
-525,-195,-2.33295,0.723389,-0.00246261,0.00158,0.00254216,0.00280651,-0.00368911,1.12128,0.00376177,0.0396439,699,1219,-2.33294,-0.723366
-518,-195,-2.48859,0.999756,-0.000744564,0.00510905,0.00514719,0.00810337,-0.00373888,1.04391,0.0069902,0.0412306,706,1219,-2.48859,-0.999792
-511,-195,-2.63995,1.20825,0,0,0,0,0,0,0,-1,713,1219,-2.63996,-1.2083
-504,-195,0,0,0,0,0,0,0,0,0,-1,720,1219,0,0
-497,-195,0,0,0,0,0,0,0,0,0,-1,727,1219,0,0
-490,-195,0,0,0,0,0,0,0,0,0,-1,734,1219,0,0
-483,-195,0,0,0,0,0,0,0,0,0,-1,741,1219,0,0
-476,-195,0,0,0,0,0,0,0,0,0,-1,748,1219,0,0
-469,-195,0,0,0,0,0,0,0,0,0,-1,755,1219,0,0
-462,-195,0,0,0,0,0,0,0,0,0,-1,762,1219,0,0
-455,-195,0,0,0,0,0,0,0,0,0,-1,769,1219,0,0
-448,-195,0,0,0,0,0,0,0,0,0,-1,776,1219,0,0
-441,-195,0,0,0,0,0,0,0,0,0,-1,783,1219,0,0
-434,-195,0,0,0,0,0,0,0,0,0,-1,790,1219,0,0
-427,-195,0,0,0,0,0,0,0,0,0,-1,797,1219,0,0
-420,-195,0,0,0,0,0,0,0,0,0,-1,804,1219,0,0
-413,-195,0,0,0,0,0,0,0,0,0,-1,811,1219,0,0
-406,-195,0,0,0,0,0,0,0,0,0,-1,818,1219,0,0
-399,-195,0,0,0,0,0,0,0,0,0,-1,825,1219,0,0
-392,-195,0,0,0,0,0,0,0,0,0,-1,832,1219,0,0
-385,-195,0,0,0,0,0,0,0,0,0,-1,839,1219,0,0
-378,-195,0,0,0,0,0,0,0,0,0,-1,846,1219,0,0
-371,-195,0,0,0,0,0,0,0,0,0,-1,853,1219,0,0
-364,-195,0,0,0,0,0,0,0,0,0,-1,860,1219,0,0
-357,-195,0,0,0,0,0,0,0,0,0,-1,867,1219,0,0
-350,-195,0,0,0,0,0,0,0,0,0,-1,874,1219,0,0
-343,-195,0,0,0,0,0,0,0,0,0,-1,881,1219,0,0
-336,-195,0,0,0,0,0,0,0,0,0,-1,888,1219,0,0
-329,-195,0,0,0,0,0,0,0,0,0,-1,895,1219,0,0
-322,-195,0,0,0,0,0,0,0,0,0,-1,902,1219,0,0
-315,-195,0,0,0,0,0,0,0,0,0,-1,909,1219,0,0
-308,-195,0,0,0,0,0,0,0,0,0,-1,916,1219,0,0
-301,-195,0,0,0,0,0,0,0,0,0,-1,923,1219,0,0
-294,-195,0,0,0,0,0,0,0,0,0,-1,930,1219,0,0
-287,-195,0,0,0,0,0,0,0,0,0,-1,937,1219,0,0
-280,-195,0,0,0,0,0,0,0,0,0,-1,944,1219,0,0
-273,-195,0,0,0,0,0,0,0,0,0,-1,951,1219,0,0
-266,-195,0,0,0,0,0,0,0,0,0,-1,958,1219,0,0
-259,-195,0,0,0,0,0,0,0,0,0,-1,965,1219,0,0
-252,-195,0,0,0,0,0,0,0,0,0,-1,972,1219,0,0
-245,-195,0,0,0,0,0,0,0,0,0,-1,979,1219,0,0
-238,-195,0,0,0,0,0,0,0,0,0,-1,986,1219,0,0
-231,-195,0,0,0,0,0,0,0,0,0,-1,993,1219,0,0
-224,-195,0,0,0,0,0,0,0,0,0,-1,1000,1219,0,0
-217,-195,0,0,0,0,0,0,0,0,0,-1,1007,1219,0,0
-210,-195,0,0,0,0,0,0,0,0,0,-1,1014,1219,0,0
-203,-195,0,0,0,0,0,0,0,0,0,-1,1021,1219,0,0
-196,-195,0,0,0,0,0,0,0,0,0,-1,1028,1219,0,0
-189,-195,0,0,0,0,0,0,0,0,0,-1,1035,1219,0,0
-182,-195,0,0,0,0,0,0,0,0,0,-1,1042,1219,0,0
-175,-195,0,0,0,0,0,0,0,0,0,-1,1049,1219,0,0
-168,-195,0,0,0,0,0,0,0,0,0,-1,1056,1219,0,0
-161,-195,0,0,0,0,0,0,0,0,0,-1,1063,1219,0,0
-154,-195,0,0,0,0,0,0,0,0,0,-1,1070,1219,0,0
-147,-195,0,0,0,0,0,0,0,0,0,-1,1077,1219,0,0
-140,-195,0,0,0,0,0,0,0,0,0,-1,1084,1219,0,0
-133,-195,0,0,0,0,0,0,0,0,0,-1,1091,1219,0,0
-126,-195,0,0,0,0,0,0,0,0,0,-1,1098,1219,0,0
-119,-195,0,0,0,0,0,0,0,0,0,-1,1105,1219,0,0
-112,-195,0,0,0,0,0,0,0,0,0,-1,1112,1219,0,0
-105,-195,0,0,0,0,0,0,0,0,0,-1,1119,1219,0,0
-98,-195,0,0,0,0,0,0,0,0,0,-1,1126,1219,0,0
-91,-195,0,0,0,0,0,0,0,0,0,-1,1133,1219,0,0
-84,-195,0,0,0,0,0,0,0,0,0,-1,1140,1219,0,0
-77,-195,0,0,0,0,0,0,0,0,0,-1,1147,1219,0,0
-70,-195,0,0,0,0,0,0,0,0,0,-1,1154,1219,0,0
-63,-195,0,0,0,0,0,0,0,0,0,-1,1161,1219,0,0
-56,-195,0,0,0,0,0,0,0,0,0,-1,1168,1219,0,0
-49,-195,0,0,0,0,0,0,0,0,0,-1,1175,1219,0,0
-42,-195,0,0,0,0,0,0,0,0,0,-1,1182,1219,0,0
-35,-195,0,0,0,0,0,0,0,0,0,-1,1189,1219,0,0
-28,-195,0,0,0,0,0,0,0,0,0,-1,1196,1219,0,0
-21,-195,0,0,0,0,0,0,0,0,0,-1,1203,1219,0,0
-14,-195,0,0,0,0,0,0,0,0,0,-1,1210,1219,0,0
-7,-195,0,0,0,0,0,0,0,0,0,-1,1217,1219,0,0
0,-195,0,0,0,0,0,0,0,0,0,-1,1224,1219,0,0
7,-195,0,0,0,0,0,0,0,0,0,-1,1231,1219,0,0
14,-195,0,0,0,0,0,0,0,0,0,-1,1238,1219,0,0
21,-195,0,0,0,0,0,0,0,0,0,-1,1245,1219,0,0
28,-195,0,0,0,0,0,0,0,0,0,-1,1252,1219,0,0
35,-195,0,0,0,0,0,0,0,0,0,-1,1259,1219,0,0
42,-195,0,0,0,0,0,0,0,0,0,-1,1266,1219,0,0
49,-195,0,0,0,0,0,0,0,0,0,-1,1273,1219,0,0
56,-195,0,0,0,0,0,0,0,0,0,-1,1280,1219,0,0
63,-195,0,0,0,0,0,0,0,0,0,-1,1287,1219,0,0
70,-195,0,0,0,0,0,0,0,0,0,-1,1294,1219,0,0
77,-195,0,0,0,0,0,0,0,0,0,-1,1301,1219,0,0
84,-195,0,0,0,0,0,0,0,0,0,-1,1308,1219,0,0
91,-195,0,0,0,0,0,0,0,0,0,-1,1315,1219,0,0
98,-195,0,0,0,0,0,0,0,0,0,-1,1322,1219,0,0
105,-195,0,0,0,0,0,0,0,0,0,-1,1329,1219,0,0
112,-195,0,0,0,0,0,0,0,0,0,-1,1336,1219,0,0
119,-195,0,0,0,0,0,0,0,0,0,-1,1343,1219,0,0
126,-195,0,0,0,0,0,0,0,0,0,-1,1350,1219,0,0
133,-195,0,0,0,0,0,0,0,0,0,-1,1357,1219,0,0
140,-195,0,0,0,0,0,0,0,0,0,-1,1364,1219,0,0
147,-195,0,0,0,0,0,0,0,0,0,-1,1371,1219,0,0
154,-195,0,0,0,0,0,0,0,0,0,-1,1378,1219,0,0
161,-195,0,0,0,0,0,0,0,0,0,-1,1385,1219,0,0
168,-195,0,0,0,0,0,0,0,0,0,-1,1392,1219,0,0
175,-195,0,0,0,0,0,0,0,0,0,-1,1399,1219,0,0
182,-195,0,0,0,0,0,0,0,0,0,-1,1406,1219,0,0
189,-195,0,0,0,0,0,0,0,0,0,-1,1413,1219,0,0
196,-195,0,0,0,0,0,0,0,0,0,-1,1420,1219,0,0
203,-195,0,0,0,0,0,0,0,0,0,-1,1427,1219,0,0
210,-195,0,0,0,0,0,0,0,0,0,-1,1434,1219,0,0
217,-195,0,0,0,0,0,0,0,0,0,-1,1441,1219,0,0
224,-195,0,0,0,0,0,0,0,0,0,-1,1448,1219,0,0
231,-195,0,0,0,0,0,0,0,0,0,-1,1455,1219,0,0
238,-195,0,0,0,0,0,0,0,0,0,-1,1462,1219,0,0
245,-195,0,0,0,0,0,0,0,0,0,-1,1469,1219,0,0
252,-195,0,0,0,0,0,0,0,0,0,-1,1476,1219,0,0
259,-195,0,0,0,0,0,0,0,0,0,-1,1483,1219,0,0
266,-195,0,0,0,0,0,0,0,0,0,-1,1490,1219,0,0
273,-195,0,0,0,0,0,0,0,0,0,-1,1497,1219,0,0
280,-195,0,0,0,0,0,0,0,0,0,-1,1504,1219,0,0
287,-195,0,0,0,0,0,0,0,0,0,-1,1511,1219,0,0
294,-195,0,0,0,0,0,0,0,0,0,-1,1518,1219,0,0
301,-195,0,0,0,0,0,0,0,0,0,-1,1525,1219,0,0
308,-195,0,0,0,0,0,0,0,0,0,-1,1532,1219,0,0
315,-195,0,0,0,0,0,0,0,0,0,-1,1539,1219,0,0
322,-195,0,0,0,0,0,0,0,0,0,-1,1546,1219,0,0
329,-195,0,0,0,0,0,0,0,0,0,-1,1553,1219,0,0
336,-195,0,0,0,0,0,0,0,0,0,-1,1560,1219,0,0
343,-195,0,0,0,0,0,0,0,0,0,-1,1567,1219,0,0
350,-195,0,0,0,0,0,0,0,0,0,-1,1574,1219,0,0
357,-195,0,0,0,0,0,0,0,0,0,-1,1581,1219,0,0
364,-195,0,0,0,0,0,0,0,0,0,-1,1588,1219,0,0
371,-195,0,0,0,0,0,0,0,0,0,-1,1595,1219,0,0
378,-195,0,0,0,0,0,0,0,0,0,-1,1602,1219,0,0
385,-195,0,0,0,0,0,0,0,0,0,-1,1609,1219,0,0
392,-195,0,0,0,0,0,0,0,0,0,-1,1616,1219,0,0
399,-195,0,0,0,0,0,0,0,0,0,-1,1623,1219,0,0
406,-195,0,0,0,0,0,0,0,0,0,-1,1630,1219,0,0
413,-195,0,0,0,0,0,0,0,0,0,-1,1637,1219,0,0
420,-195,0,0,0,0,0,0,0,0,0,-1,1644,1219,0,0
427,-195,0,0,0,0,0,0,0,0,0,-1,1651,1219,0,0
434,-195,0,0,0,0,0,0,0,0,0,-1,1658,1219,0,0
441,-195,0,0,0,0,0,0,0,0,0,-1,1665,1219,0,0
448,-195,0,0,0,0,0,0,0,0,0,-1,1672,1219,0,0
455,-195,0,0,0,0,0,0,0,0,0,-1,1679,1219,0,0
462,-195,0,0,0,0,0,0,0,0,0,-1,1686,1219,0,0
469,-195,0,0,0,0,0,0,0,0,0,-1,1693,1219,0,0
476,-195,0,0,0,0,0,0,0,0,0,-1,1700,1219,0,0
483,-195,0,0,0,0,0,0,0,0,0,-1,1707,1219,0,0
490,-195,0,0,0,0,0,0,0,0,0,-1,1714,1219,0,0
497,-195,0,0,0,0,0,0,0,0,0,-1,1721,1219,0,0
504,-195,0,0,0,0,0,0,0,0,0,-1,1728,1219,0,0
511,-195,0,0,0,0,0,0,0,0,0,-1,1735,1219,0,0
518,-195,0,0,0,0,0,0,0,0,0,-1,1742,1219,0,0
525,-195,0,0,0,0,0,0,0,0,0,-1,1749,1219,0,0
532,-195,0,0,0,0,0,0,0,0,0,-1,1756,1219,0,0
539,-195,0,0,0,0,0,0,0,0,0,-1,1763,1219,0,0
546,-195,0,0,0,0,0,0,0,0,0,-1,1770,1219,0,0
553,-195,0,0,0,0,0,0,0,0,0,-1,1777,1219,0,0
560,-195,0,0,0,0,0,0,0,0,0,-1,1784,1219,0,0
567,-195,0,0,0,0,0,0,0,0,0,-1,1791,1219,0,0
574,-195,0,0,0,0,0,0,0,0,0,-1,1798,1219,0,0
581,-195,0,0,0,0,0,0,0,0,0,-1,1805,1219,0,0
588,-195,0,0,0,0,0,0,0,0,0,-1,1812,1219,0,0
595,-195,0,0,0,0,0,0,0,0,0,-1,1819,1219,0,0
602,-195,0,0,0,0,0,0,0,0,0,-1,1826,1219,0,0
609,-195,0,0,0,0,0,0,0,0,0,-1,1833,1219,0,0
616,-195,0,0,0,0,0,0,0,0,0,-1,1840,1219,0,0
623,-195,0,0,0,0,0,0,0,0,0,-1,1847,1219,0,0
630,-195,7.31323,1.11353,-0.00276674,0.000975376,-0.000617686,0.0010747,-0.00286606,-1.41137,0.00235225,0.0397583,1854,1219,7.31319,-1.11351
637,-195,7.23315,1.05347,-0.00255964,0.00125982,0.000300176,0.00128326,-0.00258309,1.49284,0.0022739,0.0387065,1861,1219,7.23317,-1.05349
644,-195,7.14221,1.06995,-0.00259565,0.000825288,0.000572912,0.000918685,-0.00268905,1.4092,0.00216491,0.0338773,1868,1219,7.14221,-1.06992
651,-195,7.13501,1.11194,-0.00278509,0.000174082,0.000908285,0.000430628,-0.00304164,1.29552,0.00218549,0.0266153,1875,1219,7.13504,-1.11197
658,-195,7.16333,1.08899,-0.00294968,-0.000526889,0.00120336,-3.07828e-05,-0.00344579,1.17976,0.002287,0.0234471,1882,1219,7.16335,-1.08901
665,-195,7.18127,1.07935,-0.00305018,-0.00115184,0.00139136,-0.000416729,-0.00378529,1.08473,0.00239672,0.0205377,1889,1219,7.18125,-1.0793
672,-195,7.18713,1.00476,-0.00309336,-0.0016621,0.00149647,-0.000718952,-0.00403651,1.00843,0.00248625,0.0329623,1896,1219,7.18708,-1.00471
679,-195,7.28918,1.16003,0,0,0,0,0,0,0,-1,1903,1219,7.2892,-1.15998
686,-195,6.48218,1.09143,0,0,0,0,0,0,0,-1,1910,1219,6.48221,-1.09149
693,-195,6.57336,1.24878,-0.00277667,-0.00219662,0.00155595,-0.000903903,-0.00406939,0.877539,0.00246745,0.0437125,1917,1219,6.5734,-1.24881
700,-195,6.61243,1.42566,-0.00253209,-0.00215693,0.0015077,-0.000825188,-0.00386383,0.847288,0.00234963,0.0241828,1924,1219,6.61237,-1.42568
707,-195,6.60376,1.42786,-0.00223057,-0.00199976,0.00145035,-0.000660227,-0.0035701,0.8251,0.00219337,0.0117683,1931,1219,6.60371,-1.42789
714,-195,6.61768,1.39978,-0.00200868,-0.00173961,0.0013457,-0.000521732,-0.00322656,0.835221,0.00199994,0.0140815,1938,1219,6.61768,-1.39979
721,-195,6.61145,1.36499,-0.00185591,-0.00131238,0.00101542,-0.000532983,-0.0026353,0.916153,0.00160891,0.0119002,1945,1219,6.61147,-1.36501
728,-195,6.6001,1.32263,-0.00152146,-0.000841452,0.000959665,-0.000163341,-0.00219957,0.955647,0.00141508,0.00941504,1952,1219,6.60006,-1.32269
735,-195,6.61304,1.27893,-0.00079472,-0.000159436,0.000902499,0.000479688,-0.00143384,0.954607,0.00114965,0.0112568,1959,1219,6.61304,-1.2789
742,-195,6.62769,1.24158,0.000468863,0.000428944,0.000966291,0.0014154,-0.000517593,0.775072,0.00115544,0.0136061,1966,1219,6.62764,-1.2416
749,-195,6.62744,1.19556,0.00177774,0.000628288,0.000662256,0.00207988,0.000326148,0.428022,0.00129167,0.013903,1973,1219,6.62742,-1.19556
756,-195,6.60706,1.16479,0.00312968,0.000684962,0.000647073,0.00329038,0.000524257,0.243431,0.0020414,0.0129006,1980,1219,6.60705,-1.16479
763,-195,6.60522,1.1366,0.00506549,0.000804203,0.000701901,0.00517813,0.000691566,0.159117,0.00324621,0.0140349,1987,1219,6.60523,-1.13661
770,-195,6.54956,1.07825,0.00771705,0.000799379,0.000805621,0.00780963,0.000706796,0.114419,0.00498754,0.0267058,1994,1219,6.54951,-1.07828
777,-195,6.44812,1.29871,0.0112525,0.000603308,0.000920497,0.0113315,0.000524328,0.0855918,0.00738578,0.0444101,2001,1219,6.44817,-1.29869
784,-195,6.00574,1.38489,0.0158015,9.86547e-05,0.00104826,0.0158711,2.89856e-05,0.066364,0.0105711,0.0422565,2008,1219,6.0057,-1.38485
791,-195,6.60291,1.60193,0.0214677,-0.000868663,0.00121123,0.0215332,-0.000934153,0.0540159,0.0146768,0.0450919,2015,1219,6.60291,-1.60198
798,-195,6.92529,1.53821,0,0,0,0,0,0,0,-1,2022,1219,6.92534,-1.53824
805,-195,0,0,0,0,0,0,0,0,0,-1,2029,1219,0,0
812,-195,0,0,0,0,0,0,0,0,0,-1,2036,1219,0,0
-700,-202,0,0,0,0,0,0,0,0,0,-1,524,1226,0,0
-693,-202,0,0,0,0,0,0,0,0,0,-1,531,1226,0,0
-686,-202,0,0,0,0,0,0,0,0,0,-1,538,1226,0,0
-679,-202,-0.868958,-0.103271,0,0,0,0,0,0,0,-1,545,1226,-0.868977,0.103292
-672,-202,-1.05316,0.0533447,-0.022806,0.0329504,0.00819486,0.0341299,-0.0239855,1.42785,0.0337229,0.0454063,552,1226,-1.05314,-0.053342
-665,-202,-1.22229,0.177246,-0.018198,0.0270356,0.00990688,0.0291102,-0.0202726,1.36437,0.0286629,0.048159,559,1226,-1.22226,-0.177196
-658,-202,-1.36273,0.401123,-0.0138766,0.0215616,0.0103841,0.0243802,-0.0166952,1.30575,0.0238528,0.0440361,566,1226,-1.36274,-0.401105
-651,-202,-1.63361,1.17078,-0.0100046,0.0167404,0.0100272,0.0200822,-0.0133464,1.2491,0.0194302,0.0435256,573,1226,-1.63362,-1.17072
-644,-202,-2.07434,0.85376,-0.00667656,0.0126556,0.00913558,0.0162896,-0.0103106,1.1922,0.0154864,0.0456641,580,1226,-2.07437,-0.853815
-637,-202,-2.06586,0.728882,-0.00398271,0.00931434,0.00791859,0.0130054,-0.00767376,1.13461,0.0120707,0.0331172,587,1226,-2.06583,-0.728897
-630,-202,-2.01514,0.750854,-0.00199234,0.00667247,0.00654915,0.0101925,-0.00551239,1.07761,0.00920046,0.0132781,594,1226,-2.01511,-0.750909
-623,-202,-2.02972,0.78064,-0.000607375,0.00466351,0.00567397,0.00828422,-0.00422809,1.00281,0.00734942,0.00801003,601,1226,-2.02971,-0.780627
-616,-202,-2.02936,0.813599,0.000350574,0.00231093,0.0042653,0.00570723,-0.00304572,0.898339,0.0051308,0.0082222,608,1226,-2.02935,-0.813615
-609,-202,-2.02887,0.859497,0.000600147,0.0010365,0.00275953,0.00358647,-0.00194982,0.824848,0.0032426,0.0211633,615,1226,-2.02887,-0.85952
-602,-202,-2.03912,0.901123,6.60861e-05,0.000172363,0.00154648,0.00166661,-0.00142816,0.802572,0.00178854,0.0208421,622,1226,-2.0391,-0.901182
-595,-202,-2.0509,0.970703,-0.00086011,-0.00112139,0.000687723,-0.000290728,-0.00169077,0.691537,0.00104385,0.0160535,629,1226,-2.0509,-0.970683
-588,-202,-2.02875,1.02075,-0.00170029,-0.00235238,-0.000174247,-0.00165665,-0.00239602,-0.245403,0.00141673,0.00781157,636,1226,-2.02876,-1.02073
-581,-202,-2.02679,1.0321,-0.00263531,-0.00344561,-0.00105045,-0.00191458,-0.00416633,-0.601343,0.00240806,0.00850991,643,1226,-2.0268,-1.03207
-574,-202,-2.03381,1.03699,-0.00346963,-0.00415557,-0.00144535,-0.00232712,-0.00529809,-0.668907,0.00306637,0.0124781,650,1226,-2.03379,-1.03694
-567,-202,-2.07703,1.1991,-0.00420497,-0.00455032,-0.00146724,-0.00290028,-0.00585501,-0.726823,0.00338044,0.0300136,657,1226,-2.07702,-1.19915
-560,-202,-2.14667,1.36206,-0.00479824,-0.00477644,-0.00152985,-0.00325745,-0.00631724,-0.78896,0.00364785,0.0422257,664,1226,-2.14668,-1.36208
-553,-202,-2.56982,1.20325,-0.0051533,-0.00489711,-0.00140159,-0.00361777,-0.00643264,-0.830969,0.00372352,0.0456613,671,1226,-2.56982,-1.20319
-546,-202,-2.66248,1.05554,0,0,0,0,0,0,0,-1,678,1226,-2.66247,-1.05549
-539,-202,-2.59814,0.88147,-0.00536484,-0.00355778,-0.000582942,-0.00338605,-0.00553657,-1.2843,0.00322296,0.0381918,685,1226,-2.59817,-0.881519
-532,-202,-2.53845,0.755859,-0.00506912,-0.00187659,0.000398414,-0.00182762,-0.00511809,1.4485,0.00299489,0.027364,692,1226,-2.53844,-0.755873
-525,-202,-2.47412,0.722534,-0.00442225,0.00069358,0.00190768,0.00132662,-0.00505529,1.25039,0.00388858,0.0349466,699,1226,-2.47412,-0.722518
-518,-202,-2.46283,0.833984,-0.00334537,0.00437691,0.00419276,0.00621557,-0.00518403,1.15752,0.00659053,0.0413532,706,1226,-2.46283,-0.834028
-511,-202,-2.56445,0.88147,-0.00157604,0.00911467,0.00769981,0.0131427,-0.00560404,1.08882,0.0111113,0.0428217,713,1226,-2.56445,-0.881486
-504,-202,0,0,0,0,0,0,0,0,0,-1,720,1226,0,0
-497,-202,0,0,0,0,0,0,0,0,0,-1,727,1226,0,0
-490,-202,0,0,0,0,0,0,0,0,0,-1,734,1226,0,0
-483,-202,0,0,0,0,0,0,0,0,0,-1,741,1226,0,0
-476,-202,0,0,0,0,0,0,0,0,0,-1,748,1226,0,0
-469,-202,0,0,0,0,0,0,0,0,0,-1,755,1226,0,0
-462,-202,0,0,0,0,0,0,0,0,0,-1,762,1226,0,0
-455,-202,0,0,0,0,0,0,0,0,0,-1,769,1226,0,0
-448,-202,0,0,0,0,0,0,0,0,0,-1,776,1226,0,0
-441,-202,0,0,0,0,0,0,0,0,0,-1,783,1226,0,0
-434,-202,0,0,0,0,0,0,0,0,0,-1,790,1226,0,0
-427,-202,0,0,0,0,0,0,0,0,0,-1,797,1226,0,0
-420,-202,0,0,0,0,0,0,0,0,0,-1,804,1226,0,0
-413,-202,0,0,0,0,0,0,0,0,0,-1,811,1226,0,0
-406,-202,0,0,0,0,0,0,0,0,0,-1,818,1226,0,0
-399,-202,0,0,0,0,0,0,0,0,0,-1,825,1226,0,0
-392,-202,0,0,0,0,0,0,0,0,0,-1,832,1226,0,0
-385,-202,0,0,0,0,0,0,0,0,0,-1,839,1226,0,0
-378,-202,0,0,0,0,0,0,0,0,0,-1,846,1226,0,0
-371,-202,0,0,0,0,0,0,0,0,0,-1,853,1226,0,0
-364,-202,0,0,0,0,0,0,0,0,0,-1,860,1226,0,0
-357,-202,0,0,0,0,0,0,0,0,0,-1,867,1226,0,0
-350,-202,0,0,0,0,0,0,0,0,0,-1,874,1226,0,0
-343,-202,0,0,0,0,0,0,0,0,0,-1,881,1226,0,0
-336,-202,0,0,0,0,0,0,0,0,0,-1,888,1226,0,0
-329,-202,0,0,0,0,0,0,0,0,0,-1,895,1226,0,0
-322,-202,0,0,0,0,0,0,0,0,0,-1,902,1226,0,0
-315,-202,0,0,0,0,0,0,0,0,0,-1,909,1226,0,0
-308,-202,0,0,0,0,0,0,0,0,0,-1,916,1226,0,0
-301,-202,0,0,0,0,0,0,0,0,0,-1,923,1226,0,0
-294,-202,0,0,0,0,0,0,0,0,0,-1,930,1226,0,0
-287,-202,0,0,0,0,0,0,0,0,0,-1,937,1226,0,0
-280,-202,0,0,0,0,0,0,0,0,0,-1,944,1226,0,0
-273,-202,0,0,0,0,0,0,0,0,0,-1,951,1226,0,0
-266,-202,0,0,0,0,0,0,0,0,0,-1,958,1226,0,0
-259,-202,0,0,0,0,0,0,0,0,0,-1,965,1226,0,0
-252,-202,0,0,0,0,0,0,0,0,0,-1,972,1226,0,0
-245,-202,0,0,0,0,0,0,0,0,0,-1,979,1226,0,0
-238,-202,0,0,0,0,0,0,0,0,0,-1,986,1226,0,0
-231,-202,0,0,0,0,0,0,0,0,0,-1,993,1226,0,0
-224,-202,0,0,0,0,0,0,0,0,0,-1,1000,1226,0,0
-217,-202,0,0,0,0,0,0,0,0,0,-1,1007,1226,0,0
-210,-202,0,0,0,0,0,0,0,0,0,-1,1014,1226,0,0
-203,-202,0,0,0,0,0,0,0,0,0,-1,1021,1226,0,0
-196,-202,0,0,0,0,0,0,0,0,0,-1,1028,1226,0,0
-189,-202,0,0,0,0,0,0,0,0,0,-1,1035,1226,0,0
-182,-202,0,0,0,0,0,0,0,0,0,-1,1042,1226,0,0
-175,-202,0,0,0,0,0,0,0,0,0,-1,1049,1226,0,0
-168,-202,0,0,0,0,0,0,0,0,0,-1,1056,1226,0,0
-161,-202,0,0,0,0,0,0,0,0,0,-1,1063,1226,0,0
-154,-202,0,0,0,0,0,0,0,0,0,-1,1070,1226,0,0
-147,-202,0,0,0,0,0,0,0,0,0,-1,1077,1226,0,0
-140,-202,0,0,0,0,0,0,0,0,0,-1,1084,1226,0,0
-133,-202,0,0,0,0,0,0,0,0,0,-1,1091,1226,0,0
-126,-202,0,0,0,0,0,0,0,0,0,-1,1098,1226,0,0
-119,-202,0,0,0,0,0,0,0,0,0,-1,1105,1226,0,0
-112,-202,0,0,0,0,0,0,0,0,0,-1,1112,1226,0,0
-105,-202,0,0,0,0,0,0,0,0,0,-1,1119,1226,0,0
-98,-202,0,0,0,0,0,0,0,0,0,-1,1126,1226,0,0
-91,-202,0,0,0,0,0,0,0,0,0,-1,1133,1226,0,0
-84,-202,0,0,0,0,0,0,0,0,0,-1,1140,1226,0,0
-77,-202,0,0,0,0,0,0,0,0,0,-1,1147,1226,0,0
-70,-202,0,0,0,0,0,0,0,0,0,-1,1154,1226,0,0
-63,-202,0,0,0,0,0,0,0,0,0,-1,1161,1226,0,0
-56,-202,0,0,0,0,0,0,0,0,0,-1,1168,1226,0,0
-49,-202,0,0,0,0,0,0,0,0,0,-1,1175,1226,0,0
-42,-202,0,0,0,0,0,0,0,0,0,-1,1182,1226,0,0
-35,-202,0,0,0,0,0,0,0,0,0,-1,1189,1226,0,0
-28,-202,0,0,0,0,0,0,0,0,0,-1,1196,1226,0,0
-21,-202,0,0,0,0,0,0,0,0,0,-1,1203,1226,0,0
-14,-202,0,0,0,0,0,0,0,0,0,-1,1210,1226,0,0
-7,-202,0,0,0,0,0,0,0,0,0,-1,1217,1226,0,0
0,-202,0,0,0,0,0,0,0,0,0,-1,1224,1226,0,0
7,-202,0,0,0,0,0,0,0,0,0,-1,1231,1226,0,0
14,-202,0,0,0,0,0,0,0,0,0,-1,1238,1226,0,0
21,-202,0,0,0,0,0,0,0,0,0,-1,1245,1226,0,0
28,-202,0,0,0,0,0,0,0,0,0,-1,1252,1226,0,0
35,-202,0,0,0,0,0,0,0,0,0,-1,1259,1226,0,0
42,-202,0,0,0,0,0,0,0,0,0,-1,1266,1226,0,0
49,-202,0,0,0,0,0,0,0,0,0,-1,1273,1226,0,0
56,-202,0,0,0,0,0,0,0,0,0,-1,1280,1226,0,0
63,-202,0,0,0,0,0,0,0,0,0,-1,1287,1226,0,0
70,-202,0,0,0,0,0,0,0,0,0,-1,1294,1226,0,0
77,-202,0,0,0,0,0,0,0,0,0,-1,1301,1226,0,0
84,-202,0,0,0,0,0,0,0,0,0,-1,1308,1226,0,0
91,-202,0,0,0,0,0,0,0,0,0,-1,1315,1226,0,0
98,-202,0,0,0,0,0,0,0,0,0,-1,1322,1226,0,0
105,-202,0,0,0,0,0,0,0,0,0,-1,1329,1226,0,0
112,-202,0,0,0,0,0,0,0,0,0,-1,1336,1226,0,0
119,-202,0,0,0,0,0,0,0,0,0,-1,1343,1226,0,0
126,-202,0,0,0,0,0,0,0,0,0,-1,1350,1226,0,0
133,-202,0,0,0,0,0,0,0,0,0,-1,1357,1226,0,0
140,-202,0,0,0,0,0,0,0,0,0,-1,1364,1226,0,0
147,-202,0,0,0,0,0,0,0,0,0,-1,1371,1226,0,0
154,-202,0,0,0,0,0,0,0,0,0,-1,1378,1226,0,0
161,-202,0,0,0,0,0,0,0,0,0,-1,1385,1226,0,0
168,-202,0,0,0,0,0,0,0,0,0,-1,1392,1226,0,0
175,-202,0,0,0,0,0,0,0,0,0,-1,1399,1226,0,0
182,-202,0,0,0,0,0,0,0,0,0,-1,1406,1226,0,0
189,-202,0,0,0,0,0,0,0,0,0,-1,1413,1226,0,0
196,-202,0,0,0,0,0,0,0,0,0,-1,1420,1226,0,0
203,-202,0,0,0,0,0,0,0,0,0,-1,1427,1226,0,0
210,-202,0,0,0,0,0,0,0,0,0,-1,1434,1226,0,0
217,-202,0,0,0,0,0,0,0,0,0,-1,1441,1226,0,0
224,-202,0,0,0,0,0,0,0,0,0,-1,1448,1226,0,0
231,-202,0,0,0,0,0,0,0,0,0,-1,1455,1226,0,0
238,-202,0,0,0,0,0,0,0,0,0,-1,1462,1226,0,0
245,-202,0,0,0,0,0,0,0,0,0,-1,1469,1226,0,0
252,-202,0,0,0,0,0,0,0,0,0,-1,1476,1226,0,0
259,-202,0,0,0,0,0,0,0,0,0,-1,1483,1226,0,0
266,-202,0,0,0,0,0,0,0,0,0,-1,1490,1226,0,0
273,-202,0,0,0,0,0,0,0,0,0,-1,1497,1226,0,0
280,-202,0,0,0,0,0,0,0,0,0,-1,1504,1226,0,0
287,-202,0,0,0,0,0,0,0,0,0,-1,1511,1226,0,0
294,-202,0,0,0,0,0,0,0,0,0,-1,1518,1226,0,0
301,-202,0,0,0,0,0,0,0,0,0,-1,1525,1226,0,0
308,-202,0,0,0,0,0,0,0,0,0,-1,1532,1226,0,0
315,-202,0,0,0,0,0,0,0,0,0,-1,1539,1226,0,0
322,-202,0,0,0,0,0,0,0,0,0,-1,1546,1226,0,0
329,-202,0,0,0,0,0,0,0,0,0,-1,1553,1226,0,0
336,-202,0,0,0,0,0,0,0,0,0,-1,1560,1226,0,0
343,-202,0,0,0,0,0,0,0,0,0,-1,1567,1226,0,0
350,-202,0,0,0,0,0,0,0,0,0,-1,1574,1226,0,0
357,-202,0,0,0,0,0,0,0,0,0,-1,1581,1226,0,0
364,-202,0,0,0,0,0,0,0,0,0,-1,1588,1226,0,0
371,-202,0,0,0,0,0,0,0,0,0,-1,1595,1226,0,0
378,-202,0,0,0,0,0,0,0,0,0,-1,1602,1226,0,0
385,-202,0,0,0,0,0,0,0,0,0,-1,1609,1226,0,0
392,-202,0,0,0,0,0,0,0,0,0,-1,1616,1226,0,0
399,-202,0,0,0,0,0,0,0,0,0,-1,1623,1226,0,0
406,-202,0,0,0,0,0,0,0,0,0,-1,1630,1226,0,0
413,-202,0,0,0,0,0,0,0,0,0,-1,1637,1226,0,0
420,-202,0,0,0,0,0,0,0,0,0,-1,1644,1226,0,0
427,-202,0,0,0,0,0,0,0,0,0,-1,1651,1226,0,0
434,-202,0,0,0,0,0,0,0,0,0,-1,1658,1226,0,0
441,-202,0,0,0,0,0,0,0,0,0,-1,1665,1226,0,0
448,-202,0,0,0,0,0,0,0,0,0,-1,1672,1226,0,0
455,-202,0,0,0,0,0,0,0,0,0,-1,1679,1226,0,0
462,-202,0,0,0,0,0,0,0,0,0,-1,1686,1226,0,0
469,-202,0,0,0,0,0,0,0,0,0,-1,1693,1226,0,0
476,-202,0,0,0,0,0,0,0,0,0,-1,1700,1226,0,0
483,-202,0,0,0,0,0,0,0,0,0,-1,1707,1226,0,0
490,-202,0,0,0,0,0,0,0,0,0,-1,1714,1226,0,0
497,-202,0,0,0,0,0,0,0,0,0,-1,1721,1226,0,0
504,-202,0,0,0,0,0,0,0,0,0,-1,1728,1226,0,0
511,-202,0,0,0,0,0,0,0,0,0,-1,1735,1226,0,0
518,-202,0,0,0,0,0,0,0,0,0,-1,1742,1226,0,0
525,-202,0,0,0,0,0,0,0,0,0,-1,1749,1226,0,0
532,-202,0,0,0,0,0,0,0,0,0,-1,1756,1226,0,0
539,-202,0,0,0,0,0,0,0,0,0,-1,1763,1226,0,0
546,-202,0,0,0,0,0,0,0,0,0,-1,1770,1226,0,0
553,-202,0,0,0,0,0,0,0,0,0,-1,1777,1226,0,0
560,-202,0,0,0,0,0,0,0,0,0,-1,1784,1226,0,0
567,-202,0,0,0,0,0,0,0,0,0,-1,1791,1226,0,0
574,-202,0,0,0,0,0,0,0,0,0,-1,1798,1226,0,0
581,-202,0,0,0,0,0,0,0,0,0,-1,1805,1226,0,0
588,-202,0,0,0,0,0,0,0,0,0,-1,1812,1226,0,0
595,-202,0,0,0,0,0,0,0,0,0,-1,1819,1226,0,0
602,-202,0,0,0,0,0,0,0,0,0,-1,1826,1226,0,0
609,-202,0,0,0,0,0,0,0,0,0,-1,1833,1226,0,0
616,-202,0,0,0,0,0,0,0,0,0,-1,1840,1226,0,0
623,-202,0,0,0,0,0,0,0,0,0,-1,1847,1226,0,0
630,-202,7.26282,1.08057,-0.00304022,0.00110914,-0.000728579,0.00123336,-0.00316444,-1.40194,0.00261939,0.0383702,1854,1226,7.26284,-1.08062
637,-202,7.30078,1.11401,-0.00289557,0.00161905,0.00031258,0.00164059,-0.00291711,1.502,0.00266557,0.0359122,1861,1226,7.30082,-1.11396
644,-202,7.22974,1.16907,-0.00286015,0.00142015,0.000718965,0.00153769,-0.00297769,1.40875,0.00265078,0.0328934,1868,1226,7.22977,-1.16908
651,-202,7.20459,1.12329,-0.00286016,0.000924201,0.00109016,0.00121578,-0.00315174,1.30945,0.00260285,0.0265171,1875,1226,7.20462,-1.12332
658,-202,7.20166,1.05334,-0.0028215,0.000306527,0.00133763,0.000800523,-0.00331549,1.21703,0.00251992,0.0209893,1882,1226,7.2016,-1.0533
665,-202,7.20984,1.02332,-0.00274898,-0.000301079,0.0014479,0.000370879,-0.00342094,1.13629,0.00241377,0.0182148,1889,1226,7.20989,-1.02328
672,-202,7.19946,1.03381,-0.00265614,-0.000847985,0.00146832,-2.77292e-05,-0.00347639,1.06135,0.00230841,0.0390053,1896,1226,7.19943,-1.03378
679,-202,6.80139,1.0824,-0.00250418,-0.00118089,0.00147029,-0.000230234,-0.00345484,0.996829,0.00223045,0.0452484,1903,1226,6.8014,-1.0824
686,-202,6.60559,1.00208,0,0,0,0,0,0,0,-1,1910,1226,6.60564,-1.00207
693,-202,6.60022,1.22485,-0.00214553,-0.00164824,0.00134707,-0.000527063,-0.0032667,0.876662,0.00202511,0.0428839,1917,1226,6.60026,-1.22485
700,-202,6.58362,1.4563,-0.00191294,-0.00171544,0.00126928,-0.000541074,-0.00308731,0.824219,0.00190365,0.0169771,1924,1226,6.58359,-1.45629
707,-202,6.56409,1.41589,-0.00165317,-0.00168058,0.00119759,-0.000469205,-0.00286454,0.779677,0.00177409,0.0158202,1931,1226,6.56414,-1.41585
714,-202,6.56348,1.39099,-0.00141816,-0.00152555,0.00108345,-0.000387071,-0.00255664,0.760641,0.00159117,0.0155366,1938,1226,6.56345,-1.391
721,-202,6.57776,1.37073,-0.00130422,-0.00117243,0.000692576,-0.000542619,-0.00193403,0.832828,0.0011519,0.0122472,1945,1226,6.57771,-1.37075
728,-202,6.57336,1.32678,-0.00106781,-0.000745853,0.000595103,-0.000290341,-0.00152332,0.91749,0.000933935,0.00975303,1952,1226,6.57332,-1.32676
735,-202,6.57703,1.27185,-0.00047723,-5.17014e-05,0.000480354,0.000260899,-0.000789831,0.993879,0.000631741,0.0100813,1959,1226,6.57705,-1.2719
742,-202,6.57922,1.23682,0.000621134,0.000655223,0.000439657,0.00107817,0.000198192,0.804772,0.000662667,0.0100109,1966,1226,6.57923,-1.23684
749,-202,6.58447,1.19763,0.00179214,0.0010174,-2.75663e-05,0.00179312,0.00101642,-0.0355213,0.00103834,0.0100172,1973,1226,6.58447,-1.19765
756,-202,6.57275,1.15417,0.00298671,0.00133896,-0.000319556,0.00304652,0.00127916,-0.185002,0.00176642,0.0105638,1980,1226,6.57279,-1.15423
763,-202,6.56311,1.14136,0.00472915,0.00181789,-0.000636511,0.00486223,0.00168481,-0.206111,0.00285096,0.014773,1987,1226,6.56316,-1.1414
770,-202,6.52869,1.17212,0.00713452,0.00234365,-0.00102465,0.00734447,0.00213371,-0.202099,0.00436262,0.037476,1994,1226,6.52866,-1.17206
777,-202,6.68823,1.28247,0.0103521,0.00288956,-0.00152249,0.0106508,0.0025909,-0.193706,0.00641378,0.0450936,2001,1226,6.6882,-1.28252
784,-202,6.62842,1.2052,0.0145213,0.00340224,-0.00214213,0.0149197,0.00300383,-0.183889,0.00911174,0.0434463,2008,1226,6.62846,-1.20523
791,-202,6.65601,1.30481,0.0197786,0.00379918,-0.00287223,0.0202792,0.00329859,-0.172552,0.0125651,0.0442612,2015,1226,6.65597,-1.30475
798,-202,7.05969,0.9646,0.0262494,0.00388907,-0.00366667,0.0268353,0.00330316,-0.158454,0.0168971,0.0449894,2022,1226,7.05966,-0.964599
805,-202,0,0,0,0,0,0,0,0,0,-1,2029,1226,0,0
812,-202,0,0,0,0,0,0,0,0,0,-1,2036,1226,0,0
-700,-209,0,0,0,0,0,0,0,0,0,-1,524,1233,0,0
-693,-209,0,0,0,0,0,0,0,0,0,-1,531,1233,0,0
-686,-209,0,0,0,0,0,0,0,0,0,-1,538,1233,0,0
-679,-209,-0.925293,-0.227905,-0.0335553,0.0189429,0.00683348,0.0198178,-0.0344302,1.44346,0.0316966,0.0444632,545,1233,-0.925284,0.227917
-672,-209,-0.919312,0.0898438,-0.0274769,0.0173989,0.0101821,0.0196011,-0.0296791,1.3578,0.0286496,0.0468481,552,1233,-0.919287,-0.0898318
-665,-209,-1.04401,0.259888,0,0,0,0,0,0,0,-1,559,1233,-1.04403,-0.259831
-658,-209,-1.21039,0.48584,-0.0155365,0.0133642,0.0121155,0.0177711,-0.0199435,1.22193,0.0217866,0.0462667,566,1233,-1.21038,-0.485862
-651,-209,-1.33783,0.832886,-0.0105856,0.0112286,0.0115911,0.0162375,-0.0155945,1.1629,0.0183794,0.045424,573,1233,-1.33786,-0.832871
-644,-209,-2.20294,0.890015,-0.00646661,0.0091895,0.0105177,0.0144726,-0.0117497,1.10531,0.0151666,0.0460603,580,1233,-2.20296,-0.890001
-637,-209,-2.13116,0.680298,-0.00324996,0.00731643,0.00911197,0.012566,-0.00849958,1.04812,0.0122375,0.0432641,587,1233,-2.13118,-0.680356
-630,-209,-1.94501,0.681519,-0.000965014,0.00565525,0.00754581,0.010585,-0.0058948,0.992095,0.00964223,0.0223886,594,1233,-1.94502,-0.68157
-623,-209,-1.97479,0.776978,0.00056226,0.00429574,0.00643324,0.00912761,-0.0042696,0.926606,0.00790257,0.0111126,601,1233,-1.97481,-0.776935
-616,-209,-1.98175,0.823242,0.00164567,0.00276527,0.00495055,0.00718758,-0.00277663,0.841698,0.00593776,0.0117629,608,1233,-1.98178,-0.823222
-609,-209,-1.98883,0.844971,0.00185228,0.00173689,0.00330019,0.00509528,-0.0015061,0.776658,0.00399467,0.0142623,615,1233,-1.98886,-0.845026
-602,-209,-1.99194,0.901733,0.00117993,0.00060426,0.00190938,0.00282305,-0.00103886,0.710588,0.00230763,0.0154052,622,1233,-1.99197,-0.901774
-595,-209,-1.9671,0.968384,2.63056e-05,-0.000924132,0.000960125,0.000622382,-0.00152021,0.555596,0.00127271,0.0116565,629,1233,-1.96711,-0.968386
-588,-209,-1.96552,1.00171,-0.000969245,-0.00242468,-4.65149e-05,-0.00096776,-0.00242616,-0.0319161,0.00141026,0.0124529,636,1233,-1.96551,-1.00171
-581,-209,-1.97784,1.03735,-0.00207726,-0.00380083,-0.00107444,-0.0015617,-0.0043164,-0.447396,0.0025236,0.0106111,643,1233,-1.97785,-1.03729
-574,-209,-1.97552,1.07153,-0.0031362,-0.00464179,-0.00160411,-0.00211703,-0.00566096,-0.566008,0.00330279,0.010414,650,1233,-1.97555,-1.07158
-567,-209,-1.96906,1.13025,-0.00406279,-0.00526954,-0.0017599,-0.00280571,-0.00652662,-0.620255,0.00378047,0.0224255,657,1233,-1.96908,-1.13022
-560,-209,-1.48431,0.557495,0,0,0,0,0,0,0,-1,664,1233,-1.48432,-0.557508
-553,-209,-2.10852,0.606812,0,0,0,0,0,0,0,-1,671,1233,-2.10852,-0.606865
-546,-209,-2.73273,0.65625,0,0,0,0,0,0,0,-1,678,1233,-2.73271,-0.656222
-539,-209,-2.66479,0.945923,-0.00629633,-0.0047303,-0.0012378,-0.00404864,-0.00697798,-1.06742,0.00404598,0.0378867,685,1233,-2.66482,-0.945872
-532,-209,-2.58221,0.867676,-0.00646418,-0.0030959,-0.000379933,-0.00305358,-0.0065065,-1.45986,0.00375889,0.0283056,692,1233,-2.58219,-0.867643
-525,-209,-2.53479,0.796875,-0.00637303,-0.000505365,0.000995739,-0.000340993,-0.0065374,1.4072,0.00424916,0.0322658,699,1233,-2.53477,-0.79692
-518,-209,-2.55292,0.796997,-0.0059173,0.00326967,0.00308631,0.00421021,-0.00685784,1.27499,0.0064508,0.0431891,706,1233,-2.55291,-0.796955
-511,-209,-2.60529,0.863403,-0.00481843,0.00841065,0.00632156,0.0109457,-0.00735344,1.18942,0.0106326,0.0446326,713,1233,-2.60528,-0.863373
-504,-209,0,0,0,0,0,0,0,0,0,-1,720,1233,0,0
-497,-209,0,0,0,0,0,0,0,0,0,-1,727,1233,0,0
-490,-209,0,0,0,0,0,0,0,0,0,-1,734,1233,0,0
-483,-209,0,0,0,0,0,0,0,0,0,-1,741,1233,0,0
-476,-209,0,0,0,0,0,0,0,0,0,-1,748,1233,0,0
-469,-209,0,0,0,0,0,0,0,0,0,-1,755,1233,0,0
-462,-209,0,0,0,0,0,0,0,0,0,-1,762,1233,0,0
-455,-209,0,0,0,0,0,0,0,0,0,-1,769,1233,0,0
-448,-209,0,0,0,0,0,0,0,0,0,-1,776,1233,0,0
-441,-209,0,0,0,0,0,0,0,0,0,-1,783,1233,0,0
-434,-209,0,0,0,0,0,0,0,0,0,-1,790,1233,0,0
-427,-209,0,0,0,0,0,0,0,0,0,-1,797,1233,0,0
-420,-209,0,0,0,0,0,0,0,0,0,-1,804,1233,0,0
-413,-209,0,0,0,0,0,0,0,0,0,-1,811,1233,0,0
-406,-209,0,0,0,0,0,0,0,0,0,-1,818,1233,0,0
-399,-209,0,0,0,0,0,0,0,0,0,-1,825,1233,0,0
-392,-209,0,0,0,0,0,0,0,0,0,-1,832,1233,0,0
-385,-209,0,0,0,0,0,0,0,0,0,-1,839,1233,0,0
-378,-209,0,0,0,0,0,0,0,0,0,-1,846,1233,0,0
-371,-209,0,0,0,0,0,0,0,0,0,-1,853,1233,0,0
-364,-209,0,0,0,0,0,0,0,0,0,-1,860,1233,0,0
-357,-209,0,0,0,0,0,0,0,0,0,-1,867,1233,0,0
-350,-209,0,0,0,0,0,0,0,0,0,-1,874,1233,0,0
-343,-209,0,0,0,0,0,0,0,0,0,-1,881,1233,0,0
-336,-209,0,0,0,0,0,0,0,0,0,-1,888,1233,0,0
-329,-209,0,0,0,0,0,0,0,0,0,-1,895,1233,0,0
-322,-209,0,0,0,0,0,0,0,0,0,-1,902,1233,0,0
-315,-209,0,0,0,0,0,0,0,0,0,-1,909,1233,0,0
-308,-209,0,0,0,0,0,0,0,0,0,-1,916,1233,0,0
-301,-209,0,0,0,0,0,0,0,0,0,-1,923,1233,0,0
-294,-209,0,0,0,0,0,0,0,0,0,-1,930,1233,0,0
-287,-209,0,0,0,0,0,0,0,0,0,-1,937,1233,0,0
-280,-209,0,0,0,0,0,0,0,0,0,-1,944,1233,0,0
-273,-209,0,0,0,0,0,0,0,0,0,-1,951,1233,0,0
-266,-209,0,0,0,0,0,0,0,0,0,-1,958,1233,0,0
-259,-209,0,0,0,0,0,0,0,0,0,-1,965,1233,0,0
-252,-209,0,0,0,0,0,0,0,0,0,-1,972,1233,0,0
-245,-209,0,0,0,0,0,0,0,0,0,-1,979,1233,0,0
-238,-209,0,0,0,0,0,0,0,0,0,-1,986,1233,0,0
-231,-209,0,0,0,0,0,0,0,0,0,-1,993,1233,0,0
-224,-209,0,0,0,0,0,0,0,0,0,-1,1000,1233,0,0
-217,-209,0,0,0,0,0,0,0,0,0,-1,1007,1233,0,0
-210,-209,0,0,0,0,0,0,0,0,0,-1,1014,1233,0,0
-203,-209,0,0,0,0,0,0,0,0,0,-1,1021,1233,0,0
-196,-209,0,0,0,0,0,0,0,0,0,-1,1028,1233,0,0
-189,-209,0,0,0,0,0,0,0,0,0,-1,1035,1233,0,0
-182,-209,0,0,0,0,0,0,0,0,0,-1,1042,1233,0,0
-175,-209,0,0,0,0,0,0,0,0,0,-1,1049,1233,0,0
-168,-209,0,0,0,0,0,0,0,0,0,-1,1056,1233,0,0
-161,-209,0,0,0,0,0,0,0,0,0,-1,1063,1233,0,0
-154,-209,0,0,0,0,0,0,0,0,0,-1,1070,1233,0,0
-147,-209,0,0,0,0,0,0,0,0,0,-1,1077,1233,0,0
-140,-209,0,0,0,0,0,0,0,0,0,-1,1084,1233,0,0
-133,-209,0,0,0,0,0,0,0,0,0,-1,1091,1233,0,0
-126,-209,0,0,0,0,0,0,0,0,0,-1,1098,1233,0,0
-119,-209,0,0,0,0,0,0,0,0,0,-1,1105,1233,0,0
-112,-209,0,0,0,0,0,0,0,0,0,-1,1112,1233,0,0
-105,-209,0,0,0,0,0,0,0,0,0,-1,1119,1233,0,0
-98,-209,0,0,0,0,0,0,0,0,0,-1,1126,1233,0,0
-91,-209,0,0,0,0,0,0,0,0,0,-1,1133,1233,0,0
-84,-209,0,0,0,0,0,0,0,0,0,-1,1140,1233,0,0
-77,-209,0,0,0,0,0,0,0,0,0,-1,1147,1233,0,0
-70,-209,0,0,0,0,0,0,0,0,0,-1,1154,1233,0,0
-63,-209,0,0,0,0,0,0,0,0,0,-1,1161,1233,0,0
-56,-209,0,0,0,0,0,0,0,0,0,-1,1168,1233,0,0
-49,-209,0,0,0,0,0,0,0,0,0,-1,1175,1233,0,0
-42,-209,0,0,0,0,0,0,0,0,0,-1,1182,1233,0,0
-35,-209,0,0,0,0,0,0,0,0,0,-1,1189,1233,0,0
-28,-209,0,0,0,0,0,0,0,0,0,-1,1196,1233,0,0
-21,-209,0,0,0,0,0,0,0,0,0,-1,1203,1233,0,0
-14,-209,0,0,0,0,0,0,0,0,0,-1,1210,1233,0,0
-7,-209,0,0,0,0,0,0,0,0,0,-1,1217,1233,0,0
0,-209,0,0,0,0,0,0,0,0,0,-1,1224,1233,0,0
7,-209,0,0,0,0,0,0,0,0,0,-1,1231,1233,0,0
14,-209,0,0,0,0,0,0,0,0,0,-1,1238,1233,0,0
21,-209,0,0,0,0,0,0,0,0,0,-1,1245,1233,0,0
28,-209,0,0,0,0,0,0,0,0,0,-1,1252,1233,0,0
35,-209,0,0,0,0,0,0,0,0,0,-1,1259,1233,0,0
42,-209,0,0,0,0,0,0,0,0,0,-1,1266,1233,0,0
49,-209,0,0,0,0,0,0,0,0,0,-1,1273,1233,0,0
56,-209,0,0,0,0,0,0,0,0,0,-1,1280,1233,0,0
63,-209,0,0,0,0,0,0,0,0,0,-1,1287,1233,0,0
70,-209,0,0,0,0,0,0,0,0,0,-1,1294,1233,0,0
77,-209,0,0,0,0,0,0,0,0,0,-1,1301,1233,0,0
84,-209,0,0,0,0,0,0,0,0,0,-1,1308,1233,0,0
91,-209,0,0,0,0,0,0,0,0,0,-1,1315,1233,0,0
98,-209,0,0,0,0,0,0,0,0,0,-1,1322,1233,0,0
105,-209,0,0,0,0,0,0,0,0,0,-1,1329,1233,0,0
112,-209,0,0,0,0,0,0,0,0,0,-1,1336,1233,0,0
119,-209,0,0,0,0,0,0,0,0,0,-1,1343,1233,0,0
126,-209,0,0,0,0,0,0,0,0,0,-1,1350,1233,0,0
133,-209,0,0,0,0,0,0,0,0,0,-1,1357,1233,0,0
140,-209,0,0,0,0,0,0,0,0,0,-1,1364,1233,0,0
147,-209,0,0,0,0,0,0,0,0,0,-1,1371,1233,0,0
154,-209,0,0,0,0,0,0,0,0,0,-1,1378,1233,0,0
161,-209,0,0,0,0,0,0,0,0,0,-1,1385,1233,0,0
168,-209,0,0,0,0,0,0,0,0,0,-1,1392,1233,0,0
175,-209,0,0,0,0,0,0,0,0,0,-1,1399,1233,0,0
182,-209,0,0,0,0,0,0,0,0,0,-1,1406,1233,0,0
189,-209,0,0,0,0,0,0,0,0,0,-1,1413,1233,0,0
196,-209,0,0,0,0,0,0,0,0,0,-1,1420,1233,0,0
203,-209,0,0,0,0,0,0,0,0,0,-1,1427,1233,0,0
210,-209,0,0,0,0,0,0,0,0,0,-1,1434,1233,0,0
217,-209,0,0,0,0,0,0,0,0,0,-1,1441,1233,0,0
224,-209,0,0,0,0,0,0,0,0,0,-1,1448,1233,0,0
231,-209,0,0,0,0,0,0,0,0,0,-1,1455,1233,0,0
238,-209,0,0,0,0,0,0,0,0,0,-1,1462,1233,0,0
245,-209,0,0,0,0,0,0,0,0,0,-1,1469,1233,0,0
252,-209,0,0,0,0,0,0,0,0,0,-1,1476,1233,0,0
259,-209,0,0,0,0,0,0,0,0,0,-1,1483,1233,0,0
266,-209,0,0,0,0,0,0,0,0,0,-1,1490,1233,0,0
273,-209,0,0,0,0,0,0,0,0,0,-1,1497,1233,0,0
280,-209,0,0,0,0,0,0,0,0,0,-1,1504,1233,0,0
287,-209,0,0,0,0,0,0,0,0,0,-1,1511,1233,0,0
294,-209,0,0,0,0,0,0,0,0,0,-1,1518,1233,0,0
301,-209,0,0,0,0,0,0,0,0,0,-1,1525,1233,0,0
308,-209,0,0,0,0,0,0,0,0,0,-1,1532,1233,0,0
315,-209,0,0,0,0,0,0,0,0,0,-1,1539,1233,0,0
322,-209,0,0,0,0,0,0,0,0,0,-1,1546,1233,0,0
329,-209,0,0,0,0,0,0,0,0,0,-1,1553,1233,0,0
336,-209,0,0,0,0,0,0,0,0,0,-1,1560,1233,0,0
343,-209,0,0,0,0,0,0,0,0,0,-1,1567,1233,0,0
350,-209,0,0,0,0,0,0,0,0,0,-1,1574,1233,0,0
357,-209,0,0,0,0,0,0,0,0,0,-1,1581,1233,0,0
364,-209,0,0,0,0,0,0,0,0,0,-1,1588,1233,0,0
371,-209,0,0,0,0,0,0,0,0,0,-1,1595,1233,0,0
378,-209,0,0,0,0,0,0,0,0,0,-1,1602,1233,0,0
385,-209,0,0,0,0,0,0,0,0,0,-1,1609,1233,0,0
392,-209,0,0,0,0,0,0,0,0,0,-1,1616,1233,0,0
399,-209,0,0,0,0,0,0,0,0,0,-1,1623,1233,0,0
406,-209,0,0,0,0,0,0,0,0,0,-1,1630,1233,0,0
413,-209,0,0,0,0,0,0,0,0,0,-1,1637,1233,0,0
420,-209,0,0,0,0,0,0,0,0,0,-1,1644,1233,0,0
427,-209,0,0,0,0,0,0,0,0,0,-1,1651,1233,0,0
434,-209,0,0,0,0,0,0,0,0,0,-1,1658,1233,0,0
441,-209,0,0,0,0,0,0,0,0,0,-1,1665,1233,0,0
448,-209,0,0,0,0,0,0,0,0,0,-1,1672,1233,0,0
455,-209,0,0,0,0,0,0,0,0,0,-1,1679,1233,0,0
462,-209,0,0,0,0,0,0,0,0,0,-1,1686,1233,0,0
469,-209,0,0,0,0,0,0,0,0,0,-1,1693,1233,0,0
476,-209,0,0,0,0,0,0,0,0,0,-1,1700,1233,0,0
483,-209,0,0,0,0,0,0,0,0,0,-1,1707,1233,0,0
490,-209,0,0,0,0,0,0,0,0,0,-1,1714,1233,0,0
497,-209,0,0,0,0,0,0,0,0,0,-1,1721,1233,0,0
504,-209,0,0,0,0,0,0,0,0,0,-1,1728,1233,0,0
511,-209,0,0,0,0,0,0,0,0,0,-1,1735,1233,0,0
518,-209,0,0,0,0,0,0,0,0,0,-1,1742,1233,0,0
525,-209,0,0,0,0,0,0,0,0,0,-1,1749,1233,0,0
532,-209,0,0,0,0,0,0,0,0,0,-1,1756,1233,0,0
539,-209,0,0,0,0,0,0,0,0,0,-1,1763,1233,0,0
546,-209,0,0,0,0,0,0,0,0,0,-1,1770,1233,0,0
553,-209,0,0,0,0,0,0,0,0,0,-1,1777,1233,0,0
560,-209,0,0,0,0,0,0,0,0,0,-1,1784,1233,0,0
567,-209,0,0,0,0,0,0,0,0,0,-1,1791,1233,0,0
574,-209,0,0,0,0,0,0,0,0,0,-1,1798,1233,0,0
581,-209,0,0,0,0,0,0,0,0,0,-1,1805,1233,0,0
588,-209,0,0,0,0,0,0,0,0,0,-1,1812,1233,0,0
595,-209,0,0,0,0,0,0,0,0,0,-1,1819,1233,0,0
602,-209,0,0,0,0,0,0,0,0,0,-1,1826,1233,0,0
609,-209,0,0,0,0,0,0,0,0,0,-1,1833,1233,0,0
616,-209,0,0,0,0,0,0,0,0,0,-1,1840,1233,0,0
623,-209,7.11462,0.91333,-0.00363174,-0.00191412,-0.00230588,-0.00031231,-0.00523355,-0.963663,0.00338973,0.0356326,1847,1233,7.11458,-0.913322
630,-209,7.12646,0.939941,-0.00364826,0.00114724,-0.00027207,0.00116262,-0.00366364,-1.5143,0.00290849,0.0364671,1854,1233,7.12646,-0.939962
637,-209,7.21899,1.09131,-0.00354798,0.00261712,0.000733645,0.00270323,-0.00363408,1.45397,0.00367198,0.0346665,1861,1233,7.21905,-1.09126
644,-209,7.19922,1.10474,-0.00338667,0.00308841,0.00112269,0.00327754,-0.00357581,1.4039,0.00395803,0.028734,1868,1233,7.19925,-1.10468
651,-209,7.16455,1.05676,-0.00314709,0.00293942,0.00140096,0.0032464,-0.00345407,1.35508,0.00386914,0.0235195,1875,1233,7.1645,-1.05682
658,-209,7.17993,1.02954,-0.00286107,0.00241822,0.00151632,0.00282274,-0.00326559,1.31009,0.0035182,0.0200517,1882,1233,7.17995,-1.02956
665,-209,7.24255,1.03784,-0.00257941,0.00174277,0.00150078,0.00221277,-0.00304941,1.2673,0.00305089,0.0330271,1889,1233,7.2426,-1.03784
672,-209,7.15234,1.09106,-0.0023195,0.00102016,0.00141306,0.00153781,-0.00283715,1.21965,0.00256275,0.0487466,1896,1233,7.15233,-1.09108
679,-209,7.00464,1.17969,-0.00203786,0.000463751,0.00133355,0.0010413,-0.00261541,1.16209,0.00217542,0.0496734,1903,1233,7.00465,-1.17972
686,-209,6.29602,1.4425,0,0,0,0,0,0,0,-1,1910,1233,6.29601,-1.44245
693,-209,6.56641,1.30908,0,0,0,0,0,0,0,-1,1917,1233,6.56647,-1.30913
700,-209,6.53943,1.4729,-0.0012861,-0.000844418,0.000950115,-8.98152e-05,-0.0020407,0.899588,0.00133154,0.0153168,1924,1233,6.53942,-1.47295
707,-209,6.5415,1.41333,-0.00106215,-0.00122304,0.000891701,-0.000247272,-0.00203792,0.740413,0.00128415,0.0143524,1931,1233,6.5415,-1.41331
714,-209,6.53918,1.37915,-0.000907422,-0.00128402,0.00085594,-0.000219316,-0.00197213,0.677126,0.00124809,0.0126385,1938,1233,6.53921,-1.37919
721,-209,6.53516,1.35742,-0.000873529,-0.00101419,0.000415861,-0.000522095,-0.00136563,0.701628,0.000795692,0.0118855,1945,1233,6.53512,-1.35738
728,-209,6.54749,1.30994,-0.000786325,-0.000641086,0.000283464,-0.000421087,-0.00100632,0.910794,0.000583572,0.0115581,1952,1233,6.54747,-1.30998
735,-209,6.54675,1.26208,-0.000401359,4.34603e-05,0.00012389,7.56382e-05,-0.000433537,1.31668,0.000317257,0.0122642,1959,1233,6.54677,-1.26204
742,-209,6.54175,1.22595,0.000434421,0.000828868,-1.36253e-05,0.000829338,0.000433951,-1.53631,0.000478991,0.0103233,1966,1233,6.5418,-1.22595
749,-209,6.5459,1.19678,0.00135199,0.00131932,-0.000620472,0.00195634,0.000714969,-0.772241,0.00114304,0.00924676,1973,1233,6.54585,-1.19681
756,-209,6.53625,1.16028,0.00226058,0.00185089,-0.00116648,0.00324007,0.000871405,-0.698479,0.00193609,0.010012,1980,1233,6.53626,-1.16029
763,-209,6.5144,1.13818,0.00364603,0.0026094,-0.00184114,0.00504042,0.00121501,-0.64819,0.00303739,0.0162072,1987,1233,6.51445,-1.13816
770,-209,6.49377,1.16003,0.00560198,0.00353747,-0.00271089,0.00747049,0.00166896,-0.603484,0.00452773,0.0411587,1994,1233,6.4938,-1.16
777,-209,6.70337,1.19019,0.00825729,0.00463552,-0.00382573,0.0106791,0.00221373,-0.56435,0.00650821,0.046545,2001,1233,6.70333,-1.19022
784,-209,6.79285,1.11768,0.0117609,0.0058912,-0.0052275,0.0148211,0.00283104,-0.529612,0.00908526,0.0424171,2008,1233,6.79285,-1.11765
791,-209,6.70264,1.06567,0.0162673,0.00725872,-0.00692422,0.0200234,0.00350267,-0.497029,0.0123481,0.0403674,2015,1233,6.7026,-1.06568
798,-209,6.99219,0.93457,0.0219314,0.0085859,-0.00888931,0.0263737,0.00414354,-0.463441,0.016377,0.0404938,2022,1233,6.99218,-0.934545
805,-209,0,0,0,0,0,0,0,0,0,-1,2029,1233,0,0
812,-209,0,0,0,0,0,0,0,0,0,-1,2036,1233,0,0
-700,-216,0,0,0,0,0,0,0,0,0,-1,524,1240,0,0
-693,-216,0,0,0,0,0,0,0,0,0,-1,531,1240,0,0
-686,-216,0,0,0,0,0,0,0,0,0,-1,538,1240,0,0
-679,-216,-0.462646,-0.191284,-0.0398256,0.00746724,0.0118973,0.0102915,-0.0426499,1.33772,0.032413,0.0449246,545,1240,-0.46266,0.19131
-672,-216,-0.688293,0.0189209,-0.0324473,0.0089692,0.0146211,0.0136107,-0.0370888,1.26341,0.0302995,0.0478375,552,1240,-0.688305,-0.0189132
-665,-216,-1.18091,-0.268188,0,0,0,0,0,0,0,-1,559,1240,-1.18088,0.268194
-658,-216,-1.09735,0.564087,0,0,0,0,0,0,0,-1,566,1240,-1.09735,-0.564099
-651,-216,-2.53326,0.930908,-0.0122558,0.00902089,0.0140748,0.0160256,-0.0192604,1.10901,0.0204009,0.0414585,573,1240,-2.53326,-0.930933
-644,-216,-2.42352,0.527954,-0.00740425,0.0081216,0.0124425,0.0150243,-0.0143069,1.0643,0.0169361,0.0434494,580,1240,-2.42352,-0.527909
-637,-216,-2.18152,0.450806,-0.00363729,0.00702335,0.0105603,0.0135223,-0.0101363,1.01912,0.0137058,0.0422436,587,1240,-2.18153,-0.450767
-630,-216,-1.95892,0.615845,-0.000968553,0.00583628,0.00859914,0.0116817,-0.00681393,0.973782,0.010801,0.0283533,594,1240,-1.95891,-0.615797
-623,-216,-1.91553,0.757935,0.000808426,0.00475332,0.00712503,0.0101739,-0.00461214,0.920433,0.00873571,0.0133807,601,1240,-1.91551,-0.757951
-616,-216,-1.93311,0.819946,0.00212889,0.00370053,0.00544743,0.00841853,-0.00258911,0.857032,0.00664569,0.01393,608,1240,-1.93313,-0.819939
-609,-216,-1.92413,0.853027,0.00248595,0.00266357,0.00360236,0.00617821,-0.00102869,0.797722,0.00450106,0.013499,615,1240,-1.92413,-0.853088
-602,-216,-1.9165,0.89917,0.001905,0.00122547,0.00204689,0.00364013,-0.000509659,0.703153,0.00261326,0.012269,622,1240,-1.91649,-0.899224
-595,-216,-1.89624,0.93396,0.000717168,-0.000522544,0.00102092,0.00129167,-0.00109705,0.512565,0.00138065,0.0159152,629,1240,-1.89623,-0.934015
-588,-216,-1.89178,0.996338,-0.000219435,-0.00223691,-0.000120238,-0.000212294,-0.00224405,-0.0593181,0.00143053,0.0179507,636,1240,-1.89177,-0.99636
-581,-216,-1.91144,1.04126,-0.00135581,-0.00393976,-0.00120609,-0.000880345,-0.00441523,-0.375515,0.00269834,0.015741,643,1240,-1.91145,-1.04121
-574,-216,-1.91309,1.08496,-0.0025462,-0.00495521,-0.00182121,-0.00156721,-0.0059342,-0.493233,0.00355095,0.0115616,650,1240,-1.9131,-1.08492
-567,-216,-1.91864,1.15149,-0.00362303,-0.0058908,-0.00208932,-0.00237974,-0.00713409,-0.536784,0.00419423,0.0195827,657,1240,-1.91865,-1.15147
-560,-216,-1.92993,1.2533,-0.00460313,-0.00644192,-0.00229452,-0.00305066,-0.00799439,-0.594847,0.0046585,0.0367513,664,1240,-1.92991,-1.2533
-553,-216,-1.85059,-0.034668,-0.00541149,-0.00684845,-0.0022827,-0.00373687,-0.00852308,-0.632931,0.00493322,0.0450043,671,1240,-1.85059,0.0346271
-546,-216,-2.49646,0.512085,-0.00619285,-0.00670429,-0.00221173,-0.0042221,-0.00867503,-0.727844,0.00500912,0.0393928,678,1240,-2.49644,-0.512097
-539,-216,-2.44128,0.57019,-0.00693595,-0.00601367,-0.00187875,-0.00454029,-0.00840933,-0.905745,0.00486028,0.0386051,685,1240,-2.44126,-0.570241
-532,-216,-2.64758,0.97876,-0.00758499,-0.00456583,-0.00114696,-0.00417954,-0.00797128,-1.24593,0.00460404,0.0376406,692,1240,-2.64757,-0.978786
-525,-216,-2.59045,0.910034,-0.00806956,-0.00213516,7.78964e-05,-0.00213414,-0.00807058,1.55767,0.00482885,0.0352183,699,1240,-2.59046,-0.910093
-518,-216,-2.59619,0.832397,-0.00827654,0.00150847,0.00194428,0.00188064,-0.00864871,1.38167,0.00648425,0.040111,706,1240,-2.59621,-0.832364
-511,-216,-2.62329,0.734619,-0.00790161,0.00670045,0.00481437,0.00814488,-0.00934605,1.27932,0.0101063,0.0417217,713,1240,-2.62331,-0.73468
-504,-216,-2.46075,0.630127,-0.00691881,0.0139484,0.00836475,0.0168875,-0.0098579,1.2329,0.0156183,0.0402074,720,1240,-2.46073,-0.630166
-497,-216,0,0,0,0,0,0,0,0,0,-1,727,1240,0,0
-490,-216,0,0,0,0,0,0,0,0,0,-1,734,1240,0,0
-483,-216,0,0,0,0,0,0,0,0,0,-1,741,1240,0,0
-476,-216,0,0,0,0,0,0,0,0,0,-1,748,1240,0,0
-469,-216,0,0,0,0,0,0,0,0,0,-1,755,1240,0,0
-462,-216,0,0,0,0,0,0,0,0,0,-1,762,1240,0,0
-455,-216,0,0,0,0,0,0,0,0,0,-1,769,1240,0,0
-448,-216,0,0,0,0,0,0,0,0,0,-1,776,1240,0,0
-441,-216,0,0,0,0,0,0,0,0,0,-1,783,1240,0,0
-434,-216,0,0,0,0,0,0,0,0,0,-1,790,1240,0,0
-427,-216,0,0,0,0,0,0,0,0,0,-1,797,1240,0,0
-420,-216,0,0,0,0,0,0,0,0,0,-1,804,1240,0,0
-413,-216,0,0,0,0,0,0,0,0,0,-1,811,1240,0,0
-406,-216,0,0,0,0,0,0,0,0,0,-1,818,1240,0,0
-399,-216,0,0,0,0,0,0,0,0,0,-1,825,1240,0,0
-392,-216,0,0,0,0,0,0,0,0,0,-1,832,1240,0,0
-385,-216,0,0,0,0,0,0,0,0,0,-1,839,1240,0,0
-378,-216,0,0,0,0,0,0,0,0,0,-1,846,1240,0,0
-371,-216,0,0,0,0,0,0,0,0,0,-1,853,1240,0,0
-364,-216,0,0,0,0,0,0,0,0,0,-1,860,1240,0,0
-357,-216,0,0,0,0,0,0,0,0,0,-1,867,1240,0,0
-350,-216,0,0,0,0,0,0,0,0,0,-1,874,1240,0,0
-343,-216,0,0,0,0,0,0,0,0,0,-1,881,1240,0,0
-336,-216,0,0,0,0,0,0,0,0,0,-1,888,1240,0,0
-329,-216,0,0,0,0,0,0,0,0,0,-1,895,1240,0,0
-322,-216,0,0,0,0,0,0,0,0,0,-1,902,1240,0,0
-315,-216,0,0,0,0,0,0,0,0,0,-1,909,1240,0,0
-308,-216,0,0,0,0,0,0,0,0,0,-1,916,1240,0,0
-301,-216,0,0,0,0,0,0,0,0,0,-1,923,1240,0,0
-294,-216,0,0,0,0,0,0,0,0,0,-1,930,1240,0,0
-287,-216,0,0,0,0,0,0,0,0,0,-1,937,1240,0,0
-280,-216,0,0,0,0,0,0,0,0,0,-1,944,1240,0,0
-273,-216,0,0,0,0,0,0,0,0,0,-1,951,1240,0,0
-266,-216,0,0,0,0,0,0,0,0,0,-1,958,1240,0,0
-259,-216,0,0,0,0,0,0,0,0,0,-1,965,1240,0,0
-252,-216,0,0,0,0,0,0,0,0,0,-1,972,1240,0,0
-245,-216,0,0,0,0,0,0,0,0,0,-1,979,1240,0,0
-238,-216,0,0,0,0,0,0,0,0,0,-1,986,1240,0,0
-231,-216,0,0,0,0,0,0,0,0,0,-1,993,1240,0,0
-224,-216,0,0,0,0,0,0,0,0,0,-1,1000,1240,0,0
-217,-216,0,0,0,0,0,0,0,0,0,-1,1007,1240,0,0
-210,-216,0,0,0,0,0,0,0,0,0,-1,1014,1240,0,0
-203,-216,0,0,0,0,0,0,0,0,0,-1,1021,1240,0,0
-196,-216,0,0,0,0,0,0,0,0,0,-1,1028,1240,0,0
-189,-216,0,0,0,0,0,0,0,0,0,-1,1035,1240,0,0
-182,-216,0,0,0,0,0,0,0,0,0,-1,1042,1240,0,0
-175,-216,0,0,0,0,0,0,0,0,0,-1,1049,1240,0,0
-168,-216,0,0,0,0,0,0,0,0,0,-1,1056,1240,0,0
-161,-216,0,0,0,0,0,0,0,0,0,-1,1063,1240,0,0
-154,-216,0,0,0,0,0,0,0,0,0,-1,1070,1240,0,0
-147,-216,0,0,0,0,0,0,0,0,0,-1,1077,1240,0,0
-140,-216,0,0,0,0,0,0,0,0,0,-1,1084,1240,0,0
-133,-216,0,0,0,0,0,0,0,0,0,-1,1091,1240,0,0
-126,-216,0,0,0,0,0,0,0,0,0,-1,1098,1240,0,0
-119,-216,0,0,0,0,0,0,0,0,0,-1,1105,1240,0,0
-112,-216,0,0,0,0,0,0,0,0,0,-1,1112,1240,0,0
-105,-216,0,0,0,0,0,0,0,0,0,-1,1119,1240,0,0
-98,-216,0,0,0,0,0,0,0,0,0,-1,1126,1240,0,0
-91,-216,0,0,0,0,0,0,0,0,0,-1,1133,1240,0,0
-84,-216,0,0,0,0,0,0,0,0,0,-1,1140,1240,0,0
-77,-216,0,0,0,0,0,0,0,0,0,-1,1147,1240,0,0
-70,-216,0,0,0,0,0,0,0,0,0,-1,1154,1240,0,0
-63,-216,0,0,0,0,0,0,0,0,0,-1,1161,1240,0,0
-56,-216,0,0,0,0,0,0,0,0,0,-1,1168,1240,0,0
-49,-216,0,0,0,0,0,0,0,0,0,-1,1175,1240,0,0
-42,-216,0,0,0,0,0,0,0,0,0,-1,1182,1240,0,0
-35,-216,0,0,0,0,0,0,0,0,0,-1,1189,1240,0,0
-28,-216,0,0,0,0,0,0,0,0,0,-1,1196,1240,0,0
-21,-216,0,0,0,0,0,0,0,0,0,-1,1203,1240,0,0
-14,-216,0,0,0,0,0,0,0,0,0,-1,1210,1240,0,0
-7,-216,0,0,0,0,0,0,0,0,0,-1,1217,1240,0,0
0,-216,0,0,0,0,0,0,0,0,0,-1,1224,1240,0,0
7,-216,0,0,0,0,0,0,0,0,0,-1,1231,1240,0,0
14,-216,0,0,0,0,0,0,0,0,0,-1,1238,1240,0,0
21,-216,0,0,0,0,0,0,0,0,0,-1,1245,1240,0,0
28,-216,0,0,0,0,0,0,0,0,0,-1,1252,1240,0,0
35,-216,0,0,0,0,0,0,0,0,0,-1,1259,1240,0,0
42,-216,0,0,0,0,0,0,0,0,0,-1,1266,1240,0,0
49,-216,0,0,0,0,0,0,0,0,0,-1,1273,1240,0,0
56,-216,0,0,0,0,0,0,0,0,0,-1,1280,1240,0,0
63,-216,0,0,0,0,0,0,0,0,0,-1,1287,1240,0,0
70,-216,0,0,0,0,0,0,0,0,0,-1,1294,1240,0,0
77,-216,0,0,0,0,0,0,0,0,0,-1,1301,1240,0,0
84,-216,0,0,0,0,0,0,0,0,0,-1,1308,1240,0,0
91,-216,0,0,0,0,0,0,0,0,0,-1,1315,1240,0,0
98,-216,0,0,0,0,0,0,0,0,0,-1,1322,1240,0,0
105,-216,0,0,0,0,0,0,0,0,0,-1,1329,1240,0,0
112,-216,0,0,0,0,0,0,0,0,0,-1,1336,1240,0,0
119,-216,0,0,0,0,0,0,0,0,0,-1,1343,1240,0,0
126,-216,0,0,0,0,0,0,0,0,0,-1,1350,1240,0,0
133,-216,0,0,0,0,0,0,0,0,0,-1,1357,1240,0,0
140,-216,0,0,0,0,0,0,0,0,0,-1,1364,1240,0,0
147,-216,0,0,0,0,0,0,0,0,0,-1,1371,1240,0,0
154,-216,0,0,0,0,0,0,0,0,0,-1,1378,1240,0,0
161,-216,0,0,0,0,0,0,0,0,0,-1,1385,1240,0,0
168,-216,0,0,0,0,0,0,0,0,0,-1,1392,1240,0,0
175,-216,0,0,0,0,0,0,0,0,0,-1,1399,1240,0,0
182,-216,0,0,0,0,0,0,0,0,0,-1,1406,1240,0,0
189,-216,0,0,0,0,0,0,0,0,0,-1,1413,1240,0,0
196,-216,0,0,0,0,0,0,0,0,0,-1,1420,1240,0,0
203,-216,0,0,0,0,0,0,0,0,0,-1,1427,1240,0,0
210,-216,0,0,0,0,0,0,0,0,0,-1,1434,1240,0,0
217,-216,0,0,0,0,0,0,0,0,0,-1,1441,1240,0,0
224,-216,0,0,0,0,0,0,0,0,0,-1,1448,1240,0,0
231,-216,0,0,0,0,0,0,0,0,0,-1,1455,1240,0,0
238,-216,0,0,0,0,0,0,0,0,0,-1,1462,1240,0,0
245,-216,0,0,0,0,0,0,0,0,0,-1,1469,1240,0,0
252,-216,0,0,0,0,0,0,0,0,0,-1,1476,1240,0,0
259,-216,0,0,0,0,0,0,0,0,0,-1,1483,1240,0,0
266,-216,0,0,0,0,0,0,0,0,0,-1,1490,1240,0,0
273,-216,0,0,0,0,0,0,0,0,0,-1,1497,1240,0,0
280,-216,0,0,0,0,0,0,0,0,0,-1,1504,1240,0,0
287,-216,0,0,0,0,0,0,0,0,0,-1,1511,1240,0,0
294,-216,0,0,0,0,0,0,0,0,0,-1,1518,1240,0,0
301,-216,0,0,0,0,0,0,0,0,0,-1,1525,1240,0,0
308,-216,0,0,0,0,0,0,0,0,0,-1,1532,1240,0,0
315,-216,0,0,0,0,0,0,0,0,0,-1,1539,1240,0,0
322,-216,0,0,0,0,0,0,0,0,0,-1,1546,1240,0,0
329,-216,0,0,0,0,0,0,0,0,0,-1,1553,1240,0,0
336,-216,0,0,0,0,0,0,0,0,0,-1,1560,1240,0,0
343,-216,0,0,0,0,0,0,0,0,0,-1,1567,1240,0,0
350,-216,0,0,0,0,0,0,0,0,0,-1,1574,1240,0,0
357,-216,0,0,0,0,0,0,0,0,0,-1,1581,1240,0,0
364,-216,0,0,0,0,0,0,0,0,0,-1,1588,1240,0,0
371,-216,0,0,0,0,0,0,0,0,0,-1,1595,1240,0,0
378,-216,0,0,0,0,0,0,0,0,0,-1,1602,1240,0,0
385,-216,0,0,0,0,0,0,0,0,0,-1,1609,1240,0,0
392,-216,0,0,0,0,0,0,0,0,0,-1,1616,1240,0,0
399,-216,0,0,0,0,0,0,0,0,0,-1,1623,1240,0,0
406,-216,0,0,0,0,0,0,0,0,0,-1,1630,1240,0,0
413,-216,0,0,0,0,0,0,0,0,0,-1,1637,1240,0,0
420,-216,0,0,0,0,0,0,0,0,0,-1,1644,1240,0,0
427,-216,0,0,0,0,0,0,0,0,0,-1,1651,1240,0,0
434,-216,0,0,0,0,0,0,0,0,0,-1,1658,1240,0,0
441,-216,0,0,0,0,0,0,0,0,0,-1,1665,1240,0,0
448,-216,0,0,0,0,0,0,0,0,0,-1,1672,1240,0,0
455,-216,0,0,0,0,0,0,0,0,0,-1,1679,1240,0,0
462,-216,0,0,0,0,0,0,0,0,0,-1,1686,1240,0,0
469,-216,0,0,0,0,0,0,0,0,0,-1,1693,1240,0,0
476,-216,0,0,0,0,0,0,0,0,0,-1,1700,1240,0,0
483,-216,0,0,0,0,0,0,0,0,0,-1,1707,1240,0,0
490,-216,0,0,0,0,0,0,0,0,0,-1,1714,1240,0,0
497,-216,0,0,0,0,0,0,0,0,0,-1,1721,1240,0,0
504,-216,0,0,0,0,0,0,0,0,0,-1,1728,1240,0,0
511,-216,0,0,0,0,0,0,0,0,0,-1,1735,1240,0,0
518,-216,0,0,0,0,0,0,0,0,0,-1,1742,1240,0,0
525,-216,0,0,0,0,0,0,0,0,0,-1,1749,1240,0,0
532,-216,0,0,0,0,0,0,0,0,0,-1,1756,1240,0,0
539,-216,0,0,0,0,0,0,0,0,0,-1,1763,1240,0,0
546,-216,0,0,0,0,0,0,0,0,0,-1,1770,1240,0,0
553,-216,0,0,0,0,0,0,0,0,0,-1,1777,1240,0,0
560,-216,0,0,0,0,0,0,0,0,0,-1,1784,1240,0,0
567,-216,0,0,0,0,0,0,0,0,0,-1,1791,1240,0,0
574,-216,0,0,0,0,0,0,0,0,0,-1,1798,1240,0,0
581,-216,0,0,0,0,0,0,0,0,0,-1,1805,1240,0,0
588,-216,0,0,0,0,0,0,0,0,0,-1,1812,1240,0,0
595,-216,0,0,0,0,0,0,0,0,0,-1,1819,1240,0,0
602,-216,0,0,0,0,0,0,0,0,0,-1,1826,1240,0,0
609,-216,0,0,0,0,0,0,0,0,0,-1,1833,1240,0,0
616,-216,0,0,0,0,0,0,0,0,0,-1,1840,1240,0,0
623,-216,7.08704,0.901733,-0.00382422,-0.00167528,-0.00187873,-0.000585474,-0.00491403,-1.04515,0.00309935,0.0398584,1847,1240,7.08699,-0.901684
630,-216,7.08362,1.00488,-0.00362339,0.00148619,7.46741e-06,0.0014862,-0.0036234,1.56933,0.00303483,0.0354907,1854,1240,7.08363,-1.00487
637,-216,7.11316,1.10083,-0.00337056,0.00328948,0.000971869,0.0034284,-0.00350948,1.42881,0.00400568,0.0301163,1861,1240,7.11321,-1.1008
644,-216,7.13916,1.04846,-0.00307684,0.00409825,0.00139603,0.00436031,-0.00333889,1.38524,0.00445815,0.0236092,1868,1240,7.13916,-1.04841
651,-216,7.17041,0.997437,-0.00270545,0.00418055,0.00164768,0.0045545,-0.0030794,1.34762,0.00443478,0.0210439,1875,1240,7.17047,-0.997394
658,-216,7.1687,1.02625,-0.0023223,0.00378256,0.00170197,0.00422499,-0.00276473,1.31648,0.00406476,0.029805,1882,1240,7.16866,-1.02622
665,-216,7.27869,1.01917,-0.00198001,0.00312382,0.00161241,0.00359054,-0.00244672,1.28904,0.00350641,0.0425234,1889,1240,7.2787,-1.01912
672,-216,7.12769,1.09143,0,0,0,0,0,0,0,-1,1896,1240,7.12768,-1.09149
679,-216,6.16382,2.62756,-0.00136576,0.00165384,0.0012948,0.00213301,-0.00184493,1.21635,0.00229867,0.0482664,1903,1240,6.16379,-2.62757
686,-216,6.29041,1.45032,-0.00109938,0.000949232,0.00111505,0.00143904,-0.00158918,1.1569,0.00174906,0.0487981,1910,1240,6.29037,-1.45031
693,-216,6.40686,1.48706,-0.000946816,0.000420996,0.000926839,0.00088894,-0.00141476,1.10325,0.00134154,0.0327473,1917,1240,6.40681,-1.48707
700,-216,6.4856,1.4834,-0.000703996,-6.37955e-05,0.000726082,0.000409615,-0.00117741,0.993011,0.00095134,0.0134898,1924,1240,6.48554,-1.48346
707,-216,6.50073,1.43127,-0.00049367,-0.000787501,0.000634667,1.08641e-05,-0.00129204,0.671659,0.000865001,0.013574,1931,1240,6.50074,-1.43123
714,-216,6.49915,1.38513,-0.000355549,-0.00108522,0.000594807,-2.26016e-05,-0.00141817,0.510303,0.000938001,0.0131752,1938,1240,6.49918,-1.3851
721,-216,6.50049,1.34644,-0.000363476,-0.000920488,6.06419e-05,-0.000356951,-0.000927013,0.107197,0.000539905,0.0126055,1945,1240,6.50044,-1.34639
728,-216,6.51587,1.28235,-0.000423288,-0.000634724,-0.000139371,-0.000354076,-0.000703936,-0.460927,0.00040642,0.0108897,1952,1240,6.51593,-1.2824
735,-216,6.52148,1.2406,-0.000228267,1.92725e-06,-0.000366394,0.000270876,-0.000497216,-0.937585,0.000449831,0.010055,1959,1240,6.52152,-1.24063
742,-216,6.51233,1.24072,0.000352402,0.000791524,-0.000628637,0.00123784,-9.39133e-05,-0.953408,0.000858245,0.0106801,1966,1240,6.51228,-1.24069
749,-216,6.52087,1.21448,0.00101011,0.00134083,-0.00139064,0.00257591,-0.000224972,-0.844576,0.00179697,0.00854095,1973,1240,6.52084,-1.21453
756,-216,6.49976,1.16858,0.00162421,0.00200137,-0.00220706,0.00402789,-0.000402309,-0.828018,0.00282891,0.00901721,1980,1240,6.4998,-1.16855
763,-216,6.47314,1.13818,0.00260914,0.00294317,-0.00325236,0.0060328,-0.000480495,-0.811052,0.00419122,0.0146091,1987,1240,6.47312,-1.13822
770,-216,6.40125,1.19861,0.00402007,0.00415706,-0.00460188,0.00869096,-0.000513826,-0.79284,0.00597262,0.0367957,1994,1240,6.40125,-1.19855
777,-216,6.58447,1.31091,0.00595889,0.00567968,-0.006318,0.0121388,-0.000500253,-0.774351,0.00826435,0.045473,2001,1240,6.58453,-1.31091
784,-216,6.89172,0.947144,0.00857126,0.00753901,-0.00846825,0.0165391,-0.000428827,-0.754962,0.0111717,0.0467236,2008,1240,6.89173,-0.947136
791,-216,6.7334,0.754761,0.012017,0.00972882,-0.011073,0.0220049,-0.000259069,-0.73392,0.014757,0.04395,2015,1240,6.73344,-0.754761
798,-216,0,0,0,0,0,0,0,0,0,-1,2022,1240,0,0
805,-216,0,0,0,0,0,0,0,0,0,-1,2029,1240,0,0
812,-216,0,0,0,0,0,0,0,0,0,-1,2036,1240,0,0
-700,-223,0,0,0,0,0,0,0,0,0,-1,524,1247,0,0
-693,-223,0,0,0,0,0,0,0,0,0,-1,531,1247,0,0
-686,-223,0,0,0,0,0,0,0,0,0,-1,538,1247,0,0
-679,-223,0,0,0,0,0,0,0,0,0,-1,545,1247,0,0
-672,-223,0.175903,-1.59277,0,0,0,0,0,0,0,-1,552,1247,0.175927,1.59276
-665,-223,-2.95258,1.09314,0,0,0,0,0,0,0,-1,559,1247,-2.9526,-1.09315
-658,-223,-3.00415,0.825684,0,0,0,0,0,0,0,-1,566,1247,-3.00417,-0.825703
-651,-223,-2.93677,0.623169,-0.0130825,0.0107378,0.0151921,0.0181318,-0.0204765,1.11784,0.0223042,0.0459238,573,1247,-2.93675,-0.623228
-644,-223,-2.3927,0.153809,-0.00756398,0.0100092,0.0132604,0.0171299,-0.0146847,1.07799,0.0183863,0.0453311,580,1247,-2.39268,-0.153794
-637,-223,-2.211,0.435791,-0.00334811,0.00884173,0.0111488,0.0154528,-0.0099592,1.03555,0.0147855,0.04526,587,1247,-2.21102,-0.435842
-630,-223,-2.01544,0.604736,-0.000417723,0.00744316,0.00901774,0.0133498,-0.00632435,0.990913,0.0115978,0.0388431,594,1247,-2.01543,-0.604682
-623,-223,-1.89136,0.705444,0.00149329,0.00624439,0.00736936,0.0116116,-0.00387394,0.941317,0.00930519,0.0232061,601,1247,-1.89137,-0.705441
-616,-223,-1.90271,0.812378,0.00289076,0.00515406,0.00562266,0.00975783,-0.001713,0.884705,0.007145,0.0165433,608,1247,-1.90273,-0.81239
-609,-223,-1.87653,0.853394,0.00326576,0.00362251,0.00369739,0.00714583,-0.000257558,0.809501,0.00485202,0.0117742,615,1247,-1.87652,-0.853347
-602,-223,-1.86627,0.87561,0.00270968,0.00175793,0.00214126,0.00442731,4.03016e-05,0.676055,0.0029382,0.0134408,622,1247,-1.86625,-0.875642
-595,-223,-1.85034,0.934326,0.00140003,-0.000170065,0.00113358,0.00199386,-0.0007639,0.482549,0.00164413,0.0180489,629,1247,-1.85036,-0.934354
-588,-223,-1.85394,1.03833,0.000407111,-0.00202818,-7.32608e-05,0.000409313,-0.00203038,-0.0300467,0.00150865,0.0203448,636,1247,-1.85396,-1.03837
-581,-223,-1.85803,1.07898,-0.000792089,-0.00397203,-0.00115647,-0.000415988,-0.00434813,-0.314425,0.00277052,0.019084,643,1247,-1.858,-1.07895
-574,-223,-1.86938,1.0697,-0.00210734,-0.00509783,-0.00185131,-0.00122285,-0.00598231,-0.445699,0.00364953,0.0168301,650,1247,-1.8694,-1.06976
-567,-223,-1.85724,1.14465,-0.00333341,-0.00627039,-0.00222684,-0.00213445,-0.00746935,-0.493904,0.00444243,0.0212811,657,1247,-1.85723,-1.14463
-560,-223,-1.87134,1.28418,-0.00449105,-0.00698716,-0.00249275,-0.00295138,-0.00852684,-0.553304,0.00500007,0.0321354,664,1247,-1.87131,-1.28423
-553,-223,-2.12714,1.47009,-0.00548834,-0.00751955,-0.00253934,-0.00376904,-0.00923885,-0.595167,0.0053641,0.0422608,671,1247,-2.12712,-1.47009
-546,-223,-2.51477,1.54407,-0.00650166,-0.007511,-0.00256681,-0.00439038,-0.00962228,-0.68833,0.00556251,0.0425006,678,1247,-2.51479,-1.54406
-539,-223,-2.68524,1.40332,-0.00757886,-0.00698256,-0.00235677,-0.00490516,-0.00965626,-0.848318,0.00557528,0.0428322,685,1247,-2.68523,-1.4033
-532,-223,-2.71979,1.17566,-0.00866392,-0.00574213,-0.00177968,-0.00490053,-0.00950551,-1.12907,0.0054889,0.0449671,692,1247,-2.71978,-1.17564
-525,-223,-2.67389,1.05005,-0.00966879,-0.00354053,-0.000770376,-0.00344517,-0.00976415,-1.44764,0.00571815,0.0433614,699,1247,-2.67386,-1.05007
-518,-223,-2.47772,0.685791,-0.0105168,-0.000149758,0.000782945,-9.09623e-05,-0.0105756,1.49584,0.0070203,0.0393527,706,1247,-2.47771,-0.685748
-511,-223,-2.53906,0.67981,-0.0109266,0.00479331,0.00314478,0.00539908,-0.0115324,1.3805,0.00998687,0.0384645,713,1247,-2.53905,-0.679859
-504,-223,-2.58368,0.819946,-0.0106983,0.011816,0.00621993,0.0134201,-0.0123024,1.3184,0.0148556,0.0386225,720,1247,-2.58368,-0.819928
-497,-223,0,0,0,0,0,0,0,0,0,-1,727,1247,0,0
-490,-223,0,0,0,0,0,0,0,0,0,-1,734,1247,0,0
-483,-223,0,0,0,0,0,0,0,0,0,-1,741,1247,0,0
-476,-223,0,0,0,0,0,0,0,0,0,-1,748,1247,0,0
-469,-223,0,0,0,0,0,0,0,0,0,-1,755,1247,0,0
-462,-223,0,0,0,0,0,0,0,0,0,-1,762,1247,0,0
-455,-223,0,0,0,0,0,0,0,0,0,-1,769,1247,0,0
-448,-223,0,0,0,0,0,0,0,0,0,-1,776,1247,0,0
-441,-223,0,0,0,0,0,0,0,0,0,-1,783,1247,0,0
-434,-223,0,0,0,0,0,0,0,0,0,-1,790,1247,0,0
-427,-223,0,0,0,0,0,0,0,0,0,-1,797,1247,0,0
-420,-223,0,0,0,0,0,0,0,0,0,-1,804,1247,0,0
-413,-223,0,0,0,0,0,0,0,0,0,-1,811,1247,0,0
-406,-223,0,0,0,0,0,0,0,0,0,-1,818,1247,0,0
-399,-223,0,0,0,0,0,0,0,0,0,-1,825,1247,0,0
-392,-223,0,0,0,0,0,0,0,0,0,-1,832,1247,0,0
-385,-223,0,0,0,0,0,0,0,0,0,-1,839,1247,0,0
-378,-223,0,0,0,0,0,0,0,0,0,-1,846,1247,0,0
-371,-223,0,0,0,0,0,0,0,0,0,-1,853,1247,0,0
-364,-223,0,0,0,0,0,0,0,0,0,-1,860,1247,0,0
-357,-223,0,0,0,0,0,0,0,0,0,-1,867,1247,0,0
-350,-223,0,0,0,0,0,0,0,0,0,-1,874,1247,0,0
-343,-223,0,0,0,0,0,0,0,0,0,-1,881,1247,0,0
-336,-223,0,0,0,0,0,0,0,0,0,-1,888,1247,0,0
-329,-223,0,0,0,0,0,0,0,0,0,-1,895,1247,0,0
-322,-223,0,0,0,0,0,0,0,0,0,-1,902,1247,0,0
-315,-223,0,0,0,0,0,0,0,0,0,-1,909,1247,0,0
-308,-223,0,0,0,0,0,0,0,0,0,-1,916,1247,0,0
-301,-223,0,0,0,0,0,0,0,0,0,-1,923,1247,0,0
-294,-223,0,0,0,0,0,0,0,0,0,-1,930,1247,0,0
-287,-223,0,0,0,0,0,0,0,0,0,-1,937,1247,0,0
-280,-223,0,0,0,0,0,0,0,0,0,-1,944,1247,0,0
-273,-223,0,0,0,0,0,0,0,0,0,-1,951,1247,0,0
-266,-223,0,0,0,0,0,0,0,0,0,-1,958,1247,0,0
-259,-223,0,0,0,0,0,0,0,0,0,-1,965,1247,0,0
-252,-223,0,0,0,0,0,0,0,0,0,-1,972,1247,0,0
-245,-223,0,0,0,0,0,0,0,0,0,-1,979,1247,0,0
-238,-223,0,0,0,0,0,0,0,0,0,-1,986,1247,0,0
-231,-223,0,0,0,0,0,0,0,0,0,-1,993,1247,0,0
-224,-223,0,0,0,0,0,0,0,0,0,-1,1000,1247,0,0
-217,-223,0,0,0,0,0,0,0,0,0,-1,1007,1247,0,0
-210,-223,0,0,0,0,0,0,0,0,0,-1,1014,1247,0,0
-203,-223,0,0,0,0,0,0,0,0,0,-1,1021,1247,0,0
-196,-223,0,0,0,0,0,0,0,0,0,-1,1028,1247,0,0
-189,-223,0,0,0,0,0,0,0,0,0,-1,1035,1247,0,0
-182,-223,0,0,0,0,0,0,0,0,0,-1,1042,1247,0,0
-175,-223,0,0,0,0,0,0,0,0,0,-1,1049,1247,0,0
-168,-223,0,0,0,0,0,0,0,0,0,-1,1056,1247,0,0
-161,-223,0,0,0,0,0,0,0,0,0,-1,1063,1247,0,0
-154,-223,0,0,0,0,0,0,0,0,0,-1,1070,1247,0,0
-147,-223,0,0,0,0,0,0,0,0,0,-1,1077,1247,0,0
-140,-223,0,0,0,0,0,0,0,0,0,-1,1084,1247,0,0
-133,-223,0,0,0,0,0,0,0,0,0,-1,1091,1247,0,0
-126,-223,0,0,0,0,0,0,0,0,0,-1,1098,1247,0,0
-119,-223,0,0,0,0,0,0,0,0,0,-1,1105,1247,0,0
-112,-223,0,0,0,0,0,0,0,0,0,-1,1112,1247,0,0
-105,-223,0,0,0,0,0,0,0,0,0,-1,1119,1247,0,0
-98,-223,0,0,0,0,0,0,0,0,0,-1,1126,1247,0,0
-91,-223,0,0,0,0,0,0,0,0,0,-1,1133,1247,0,0
-84,-223,0,0,0,0,0,0,0,0,0,-1,1140,1247,0,0
-77,-223,0,0,0,0,0,0,0,0,0,-1,1147,1247,0,0
-70,-223,0,0,0,0,0,0,0,0,0,-1,1154,1247,0,0
-63,-223,0,0,0,0,0,0,0,0,0,-1,1161,1247,0,0
-56,-223,0,0,0,0,0,0,0,0,0,-1,1168,1247,0,0
-49,-223,0,0,0,0,0,0,0,0,0,-1,1175,1247,0,0
-42,-223,0,0,0,0,0,0,0,0,0,-1,1182,1247,0,0
-35,-223,0,0,0,0,0,0,0,0,0,-1,1189,1247,0,0
-28,-223,0,0,0,0,0,0,0,0,0,-1,1196,1247,0,0
-21,-223,0,0,0,0,0,0,0,0,0,-1,1203,1247,0,0
-14,-223,0,0,0,0,0,0,0,0,0,-1,1210,1247,0,0
-7,-223,0,0,0,0,0,0,0,0,0,-1,1217,1247,0,0
0,-223,0,0,0,0,0,0,0,0,0,-1,1224,1247,0,0
7,-223,0,0,0,0,0,0,0,0,0,-1,1231,1247,0,0
14,-223,0,0,0,0,0,0,0,0,0,-1,1238,1247,0,0
21,-223,0,0,0,0,0,0,0,0,0,-1,1245,1247,0,0
28,-223,0,0,0,0,0,0,0,0,0,-1,1252,1247,0,0
35,-223,0,0,0,0,0,0,0,0,0,-1,1259,1247,0,0
42,-223,0,0,0,0,0,0,0,0,0,-1,1266,1247,0,0
49,-223,0,0,0,0,0,0,0,0,0,-1,1273,1247,0,0
56,-223,0,0,0,0,0,0,0,0,0,-1,1280,1247,0,0
63,-223,0,0,0,0,0,0,0,0,0,-1,1287,1247,0,0
70,-223,0,0,0,0,0,0,0,0,0,-1,1294,1247,0,0
77,-223,0,0,0,0,0,0,0,0,0,-1,1301,1247,0,0
84,-223,0,0,0,0,0,0,0,0,0,-1,1308,1247,0,0
91,-223,0,0,0,0,0,0,0,0,0,-1,1315,1247,0,0
98,-223,0,0,0,0,0,0,0,0,0,-1,1322,1247,0,0
105,-223,0,0,0,0,0,0,0,0,0,-1,1329,1247,0,0
112,-223,0,0,0,0,0,0,0,0,0,-1,1336,1247,0,0
119,-223,0,0,0,0,0,0,0,0,0,-1,1343,1247,0,0
126,-223,0,0,0,0,0,0,0,0,0,-1,1350,1247,0,0
133,-223,0,0,0,0,0,0,0,0,0,-1,1357,1247,0,0
140,-223,0,0,0,0,0,0,0,0,0,-1,1364,1247,0,0
147,-223,0,0,0,0,0,0,0,0,0,-1,1371,1247,0,0
154,-223,0,0,0,0,0,0,0,0,0,-1,1378,1247,0,0
161,-223,0,0,0,0,0,0,0,0,0,-1,1385,1247,0,0
168,-223,0,0,0,0,0,0,0,0,0,-1,1392,1247,0,0
175,-223,0,0,0,0,0,0,0,0,0,-1,1399,1247,0,0
182,-223,0,0,0,0,0,0,0,0,0,-1,1406,1247,0,0
189,-223,0,0,0,0,0,0,0,0,0,-1,1413,1247,0,0
196,-223,0,0,0,0,0,0,0,0,0,-1,1420,1247,0,0
203,-223,0,0,0,0,0,0,0,0,0,-1,1427,1247,0,0
210,-223,0,0,0,0,0,0,0,0,0,-1,1434,1247,0,0
217,-223,0,0,0,0,0,0,0,0,0,-1,1441,1247,0,0
224,-223,0,0,0,0,0,0,0,0,0,-1,1448,1247,0,0
231,-223,0,0,0,0,0,0,0,0,0,-1,1455,1247,0,0
238,-223,0,0,0,0,0,0,0,0,0,-1,1462,1247,0,0
245,-223,0,0,0,0,0,0,0,0,0,-1,1469,1247,0,0
252,-223,0,0,0,0,0,0,0,0,0,-1,1476,1247,0,0
259,-223,0,0,0,0,0,0,0,0,0,-1,1483,1247,0,0
266,-223,0,0,0,0,0,0,0,0,0,-1,1490,1247,0,0
273,-223,0,0,0,0,0,0,0,0,0,-1,1497,1247,0,0
280,-223,0,0,0,0,0,0,0,0,0,-1,1504,1247,0,0
287,-223,0,0,0,0,0,0,0,0,0,-1,1511,1247,0,0
294,-223,0,0,0,0,0,0,0,0,0,-1,1518,1247,0,0
301,-223,0,0,0,0,0,0,0,0,0,-1,1525,1247,0,0
308,-223,0,0,0,0,0,0,0,0,0,-1,1532,1247,0,0
315,-223,0,0,0,0,0,0,0,0,0,-1,1539,1247,0,0
322,-223,0,0,0,0,0,0,0,0,0,-1,1546,1247,0,0
329,-223,0,0,0,0,0,0,0,0,0,-1,1553,1247,0,0
336,-223,0,0,0,0,0,0,0,0,0,-1,1560,1247,0,0
343,-223,0,0,0,0,0,0,0,0,0,-1,1567,1247,0,0
350,-223,0,0,0,0,0,0,0,0,0,-1,1574,1247,0,0
357,-223,0,0,0,0,0,0,0,0,0,-1,1581,1247,0,0
364,-223,0,0,0,0,0,0,0,0,0,-1,1588,1247,0,0
371,-223,0,0,0,0,0,0,0,0,0,-1,1595,1247,0,0
378,-223,0,0,0,0,0,0,0,0,0,-1,1602,1247,0,0
385,-223,0,0,0,0,0,0,0,0,0,-1,1609,1247,0,0
392,-223,0,0,0,0,0,0,0,0,0,-1,1616,1247,0,0
399,-223,0,0,0,0,0,0,0,0,0,-1,1623,1247,0,0
406,-223,0,0,0,0,0,0,0,0,0,-1,1630,1247,0,0
413,-223,0,0,0,0,0,0,0,0,0,-1,1637,1247,0,0
420,-223,0,0,0,0,0,0,0,0,0,-1,1644,1247,0,0
427,-223,0,0,0,0,0,0,0,0,0,-1,1651,1247,0,0
434,-223,0,0,0,0,0,0,0,0,0,-1,1658,1247,0,0
441,-223,0,0,0,0,0,0,0,0,0,-1,1665,1247,0,0
448,-223,0,0,0,0,0,0,0,0,0,-1,1672,1247,0,0
455,-223,0,0,0,0,0,0,0,0,0,-1,1679,1247,0,0
462,-223,0,0,0,0,0,0,0,0,0,-1,1686,1247,0,0
469,-223,0,0,0,0,0,0,0,0,0,-1,1693,1247,0,0
476,-223,0,0,0,0,0,0,0,0,0,-1,1700,1247,0,0
483,-223,0,0,0,0,0,0,0,0,0,-1,1707,1247,0,0
490,-223,0,0,0,0,0,0,0,0,0,-1,1714,1247,0,0
497,-223,0,0,0,0,0,0,0,0,0,-1,1721,1247,0,0
504,-223,0,0,0,0,0,0,0,0,0,-1,1728,1247,0,0
511,-223,0,0,0,0,0,0,0,0,0,-1,1735,1247,0,0
518,-223,0,0,0,0,0,0,0,0,0,-1,1742,1247,0,0
525,-223,0,0,0,0,0,0,0,0,0,-1,1749,1247,0,0
532,-223,0,0,0,0,0,0,0,0,0,-1,1756,1247,0,0
539,-223,0,0,0,0,0,0,0,0,0,-1,1763,1247,0,0
546,-223,0,0,0,0,0,0,0,0,0,-1,1770,1247,0,0
553,-223,0,0,0,0,0,0,0,0,0,-1,1777,1247,0,0
560,-223,0,0,0,0,0,0,0,0,0,-1,1784,1247,0,0
567,-223,0,0,0,0,0,0,0,0,0,-1,1791,1247,0,0
574,-223,0,0,0,0,0,0,0,0,0,-1,1798,1247,0,0
581,-223,0,0,0,0,0,0,0,0,0,-1,1805,1247,0,0
588,-223,0,0,0,0,0,0,0,0,0,-1,1812,1247,0,0
595,-223,0,0,0,0,0,0,0,0,0,-1,1819,1247,0,0
602,-223,0,0,0,0,0,0,0,0,0,-1,1826,1247,0,0
609,-223,0,0,0,0,0,0,0,0,0,-1,1833,1247,0,0
616,-223,0,0,0,0,0,0,0,0,0,-1,1840,1247,0,0
623,-223,7.15588,1.30298,-0.0046447,-0.000447419,-0.00113805,-0.000158707,-0.00493342,-1.32235,0.00323734,0.0400391,1847,1247,7.15592,-1.303
630,-223,7.03113,1.03455,-0.00413044,0.00195054,0.000505288,0.00199224,-0.00417214,1.48846,0.00363243,0.0366119,1854,1247,7.03116,-1.03449
637,-223,7.07581,0.994629,-0.00357148,0.00353605,0.00134725,0.00378285,-0.00381828,1.38961,0.00438853,0.0288276,1861,1247,7.07583,-0.994689
644,-223,7.18201,0.980103,-0.00300213,0.00438609,0.00173114,0.00477159,-0.00338763,1.35168,0.00473327,0.0207768,1868,1247,7.18199,-0.980159
651,-223,7.16479,0.966187,-0.0024032,0.00460294,0.00191831,0.00509379,-0.00289405,1.32029,0.00466971,0.0236088,1875,1247,7.16484,-0.966168
658,-223,7.07666,0.963745,-0.00185366,0.00435,0.00191031,0.00489106,-0.00239472,1.29479,0.00428796,0.0405133,1882,1247,7.07663,-0.963726
665,-223,7.11401,1.00305,-0.00140823,0.00379299,0.00175498,0.00432975,-0.001945,1.27398,0.00370892,0.0430759,1889,1247,7.11407,-1.0031
672,-223,7.15015,1.08496,0,0,0,0,0,0,0,-1,1896,1247,7.15009,-1.08502
679,-223,6.34375,2.00525,-0.000659548,0.00240726,0.00130084,0.00288471,-0.001137,1.21903,0.0023939,0.0467485,1903,1247,6.34371,-2.00525
686,-223,6.30615,1.51624,-0.000401053,0.00164264,0.00107249,0.00210215,-0.000860562,1.16601,0.00175988,0.0427004,1910,1247,6.30619,-1.51624
693,-223,6.39697,1.50391,-0.000315083,0.00109492,0.000831314,0.00147992,-0.000700085,1.13708,0.00128519,0.0212315,1917,1247,6.39703,-1.50391
700,-223,6.45923,1.48987,-0.000107446,0.000588582,0.000572098,0.000910202,-0.000429066,1.05865,0.000789684,0.0100031,1924,1247,6.45922,-1.48984
707,-223,6.46106,1.4491,8.90858e-05,-0.000346881,0.000496183,0.000413057,-0.000670852,0.578429,0.000631667,0.0116685,1931,1247,6.46105,-1.44904
714,-223,6.46741,1.39478,0.000233939,-0.000858013,0.000463221,0.000403968,-0.00102804,0.35179,0.00085254,0.0110444,1938,1247,6.4674,-1.39472
721,-223,6.46167,1.34558,0.000190197,-0.000816704,-0.000172079,0.000218793,-0.0008453,-0.164676,0.000648879,0.0139113,1945,1247,6.46171,-1.34561
728,-223,6.44836,1.29834,-2.72093e-05,-0.000647654,-0.000452402,0.000211117,-0.00088598,-0.484858,0.000672169,0.0147759,1952,1247,6.44841,-1.29831
735,-223,6.45093,1.25757,-2.26476e-05,-0.000122604,-0.000771573,0.000700564,-0.000845816,-0.753056,0.000894114,0.0132024,1959,1247,6.45094,-1.25759
742,-223,6.44592,1.23621,0.000297355,0.000625417,-0.00116829,0.00164114,-0.000718364,-0.855144,0.00139655,0.010936,1966,1247,6.44596,-1.23617
749,-223,6.45569,1.20313,0.000651212,0.00119254,-0.0020935,0.00303279,-0.00118905,-0.849685,0.00251377,0.00930739,1973,1247,6.45574,-1.20315
756,-223,6.45703,1.16272,0.000883467,0.00195104,-0.00321123,0.00467255,-0.00183804,-0.867758,0.00387582,0.0108858,1980,1247,6.45702,-1.16269
763,-223,6.45129,1.11523,0.00133093,0.00303295,-0.00465435,0.00691345,-0.00254957,-0.875821,0.0056538,0.0137797,1987,1247,6.45127,-1.1152
770,-223,6.36108,1.06921,0.0020077,0.00449911,-0.00652173,0.00989303,-0.00338623,-0.879765,0.00796768,0.034498,1994,1247,6.36105,-1.06922
777,-223,6.28931,0.92041,0.00299204,0.00643328,-0.00889346,0.013771,-0.00434571,-0.880953,0.0109214,0.04879,2001,1247,6.28932,-0.920397
784,-223,6.93994,0.738403,0,0,0,0,0,0,0,-1,2008,1247,6.93995,-0.738357
791,-223,7.03931,0.0358887,0,0,0,0,0,0,0,-1,2015,1247,7.03926,-0.0358475
798,-223,0,0,0,0,0,0,0,0,0,-1,2022,1247,0,0
805,-223,0,0,0,0,0,0,0,0,0,-1,2029,1247,0,0
812,-223,0,0,0,0,0,0,0,0,0,-1,2036,1247,0,0
-700,-230,0,0,0,0,0,0,0,0,0,-1,524,1254,0,0
-693,-230,0,0,0,0,0,0,0,0,0,-1,531,1254,0,0
-686,-230,0,0,0,0,0,0,0,0,0,-1,538,1254,0,0
-679,-230,0,0,0,0,0,0,0,0,0,-1,545,1254,0,0
-672,-230,0.800659,-1.42078,-0.0443381,0.00956301,0.0226859,0.01784,-0.0526151,1.22095,0.0422967,0.0468158,552,1254,0.800682,1.4208
-665,-230,0.559265,-0.149536,-0.0335251,0.0123511,0.0219366,0.0211521,-0.0423261,1.18925,0.0373226,0.0431692,559,1254,0.559294,0.149495
-658,-230,-3.28253,0.516357,0,0,0,0,0,0,0,-1,566,1254,-3.28253,-0.516341
-651,-230,-3.28345,0.313477,0,0,0,0,0,0,0,-1,573,1254,-3.28342,-0.313461
-644,-230,-2.47064,-0.428955,-0.00926311,0.011977,0.0152824,0.0199671,-0.0172532,1.08905,0.0215082,0.0465282,580,1254,-2.47064,0.428897
-637,-230,-2.33459,0.342529,-0.00420361,0.0104542,0.0126486,0.0177438,-0.0114932,1.04797,0.0170081,0.0471074,587,1254,-2.33462,-0.342563
-630,-230,-1.99768,0.40625,-0.000652331,0.00871544,0.0101144,0.0151779,-0.00711478,1.00224,0.0131483,0.0414865,594,1254,-1.99769,-0.406201
-623,-230,-1.81897,0.71167,0.00167349,0.00721962,0.00801921,0.0129317,-0.00403858,0.951864,0.0102364,0.0270563,601,1254,-1.81895,-0.71169
-616,-230,-1.84302,0.816528,0.00333835,0.00608283,0.00610086,0.0109639,-0.00154269,0.89602,0.00787401,0.0167759,608,1254,-1.84299,-0.81647
-609,-230,-1.83527,0.863037,0.00388355,0.00420923,0.00399914,0.00804885,4.39384e-05,0.805747,0.00535131,0.0124436,615,1254,-1.83524,-0.863073
-602,-230,-1.82068,0.874756,0.00351161,0.00205932,0.00233812,0.00523375,0.00033719,0.634836,0.00338237,0.0116874,622,1254,-1.82065,-0.874751
-595,-230,-1.81238,0.957642,0.0021459,0.000135552,0.00126724,0.00275821,-0.00047676,0.450107,0.0020166,0.0177945,629,1254,-1.81236,-0.957687
-588,-230,-1.81024,1.05652,0.00112979,-0.00175743,-7.75907e-05,0.00113188,-0.00175952,-0.026848,0.00168241,0.0240808,636,1254,-1.81024,-1.05653
-581,-230,-1.8075,1.08997,-0.000124811,-0.00379961,-0.00123456,0.000251424,-0.00417584,-0.295811,0.00287137,0.0219898,643,1254,-1.80748,-1.08998
-574,-230,-1.83295,1.09485,-0.00156788,-0.00499685,-0.00203425,-0.000621984,-0.00594275,-0.435246,0.00377164,0.0161004,650,1254,-1.83298,-1.09489
-567,-230,-1.79865,1.13037,-0.00296789,-0.00637635,-0.0025483,-0.00160646,-0.00773777,-0.490669,0.00471515,0.0167539,657,1254,-1.79866,-1.1304
-560,-230,-1.78625,1.21838,-0.00430823,-0.00726844,-0.00290331,-0.00252952,-0.00904715,-0.54967,0.00538989,0.0274994,664,1254,-1.78628,-1.21839
-553,-230,-1.77429,1.2821,-0.00553196,-0.00777911,-0.00306335,-0.00339262,-0.00991844,-0.609626,0.00582088,0.0419326,671,1254,-1.77428,-1.28214
-546,-230,-1.76031,1.31274,0,0,0,0,0,0,0,-1,678,1254,-1.76031,-1.31273
-539,-230,-1.72729,0.578003,0,0,0,0,0,0,0,-1,685,1254,-1.72728,-0.577973
-532,-230,-2.82135,1.29041,0,0,0,0,0,0,0,-1,692,1254,-2.82137,-1.29041
-525,-230,-2.08234,0.189209,-0.0114501,-0.00413482,-0.00186088,-0.00368865,-0.0118962,-1.33548,0.00703152,0.0464842,699,1254,-2.08232,-0.189211
-518,-230,-2.33691,0.558472,-0.0130275,-0.000817931,-0.000562524,-0.000792069,-0.0130533,-1.52485,0.00845058,0.0408373,706,1254,-2.33689,-0.558448
-511,-230,-2.50909,0.691528,-0.0143366,0.00405626,0.00140415,0.00416284,-0.0144432,1.49504,0.0112756,0.0403897,713,1254,-2.50909,-0.691519
-504,-230,-2.54181,0.707764,-0.0150867,0.0110379,0.00405585,0.0116531,-0.0157019,1.42027,0.0158509,0.0390039,720,1254,-2.54178,-0.707706
-497,-230,0,0,0,0,0,0,0,0,0,-1,727,1254,0,0
-490,-230,0,0,0,0,0,0,0,0,0,-1,734,1254,0,0
-483,-230,0,0,0,0,0,0,0,0,0,-1,741,1254,0,0
-476,-230,0,0,0,0,0,0,0,0,0,-1,748,1254,0,0
-469,-230,0,0,0,0,0,0,0,0,0,-1,755,1254,0,0
-462,-230,0,0,0,0,0,0,0,0,0,-1,762,1254,0,0
-455,-230,0,0,0,0,0,0,0,0,0,-1,769,1254,0,0
-448,-230,0,0,0,0,0,0,0,0,0,-1,776,1254,0,0
-441,-230,0,0,0,0,0,0,0,0,0,-1,783,1254,0,0
-434,-230,0,0,0,0,0,0,0,0,0,-1,790,1254,0,0
-427,-230,0,0,0,0,0,0,0,0,0,-1,797,1254,0,0
-420,-230,0,0,0,0,0,0,0,0,0,-1,804,1254,0,0
-413,-230,0,0,0,0,0,0,0,0,0,-1,811,1254,0,0
-406,-230,0,0,0,0,0,0,0,0,0,-1,818,1254,0,0
-399,-230,0,0,0,0,0,0,0,0,0,-1,825,1254,0,0
-392,-230,0,0,0,0,0,0,0,0,0,-1,832,1254,0,0
-385,-230,0,0,0,0,0,0,0,0,0,-1,839,1254,0,0
-378,-230,0,0,0,0,0,0,0,0,0,-1,846,1254,0,0
-371,-230,0,0,0,0,0,0,0,0,0,-1,853,1254,0,0
-364,-230,0,0,0,0,0,0,0,0,0,-1,860,1254,0,0
-357,-230,0,0,0,0,0,0,0,0,0,-1,867,1254,0,0
-350,-230,0,0,0,0,0,0,0,0,0,-1,874,1254,0,0
-343,-230,0,0,0,0,0,0,0,0,0,-1,881,1254,0,0
-336,-230,0,0,0,0,0,0,0,0,0,-1,888,1254,0,0
-329,-230,0,0,0,0,0,0,0,0,0,-1,895,1254,0,0
-322,-230,0,0,0,0,0,0,0,0,0,-1,902,1254,0,0
-315,-230,0,0,0,0,0,0,0,0,0,-1,909,1254,0,0
-308,-230,0,0,0,0,0,0,0,0,0,-1,916,1254,0,0
-301,-230,0,0,0,0,0,0,0,0,0,-1,923,1254,0,0
-294,-230,0,0,0,0,0,0,0,0,0,-1,930,1254,0,0
-287,-230,0,0,0,0,0,0,0,0,0,-1,937,1254,0,0
-280,-230,0,0,0,0,0,0,0,0,0,-1,944,1254,0,0
-273,-230,0,0,0,0,0,0,0,0,0,-1,951,1254,0,0
-266,-230,0,0,0,0,0,0,0,0,0,-1,958,1254,0,0
-259,-230,0,0,0,0,0,0,0,0,0,-1,965,1254,0,0
-252,-230,0,0,0,0,0,0,0,0,0,-1,972,1254,0,0
-245,-230,0,0,0,0,0,0,0,0,0,-1,979,1254,0,0
-238,-230,0,0,0,0,0,0,0,0,0,-1,986,1254,0,0
-231,-230,0,0,0,0,0,0,0,0,0,-1,993,1254,0,0
-224,-230,0,0,0,0,0,0,0,0,0,-1,1000,1254,0,0
-217,-230,0,0,0,0,0,0,0,0,0,-1,1007,1254,0,0
-210,-230,0,0,0,0,0,0,0,0,0,-1,1014,1254,0,0
-203,-230,0,0,0,0,0,0,0,0,0,-1,1021,1254,0,0
-196,-230,0,0,0,0,0,0,0,0,0,-1,1028,1254,0,0
-189,-230,0,0,0,0,0,0,0,0,0,-1,1035,1254,0,0
-182,-230,0,0,0,0,0,0,0,0,0,-1,1042,1254,0,0
-175,-230,0,0,0,0,0,0,0,0,0,-1,1049,1254,0,0
-168,-230,0,0,0,0,0,0,0,0,0,-1,1056,1254,0,0
-161,-230,0,0,0,0,0,0,0,0,0,-1,1063,1254,0,0
-154,-230,0,0,0,0,0,0,0,0,0,-1,1070,1254,0,0
-147,-230,0,0,0,0,0,0,0,0,0,-1,1077,1254,0,0
-140,-230,0,0,0,0,0,0,0,0,0,-1,1084,1254,0,0
-133,-230,0,0,0,0,0,0,0,0,0,-1,1091,1254,0,0
-126,-230,0,0,0,0,0,0,0,0,0,-1,1098,1254,0,0
-119,-230,0,0,0,0,0,0,0,0,0,-1,1105,1254,0,0
-112,-230,0,0,0,0,0,0,0,0,0,-1,1112,1254,0,0
-105,-230,0,0,0,0,0,0,0,0,0,-1,1119,1254,0,0
-98,-230,0,0,0,0,0,0,0,0,0,-1,1126,1254,0,0
-91,-230,0,0,0,0,0,0,0,0,0,-1,1133,1254,0,0
-84,-230,0,0,0,0,0,0,0,0,0,-1,1140,1254,0,0
-77,-230,0,0,0,0,0,0,0,0,0,-1,1147,1254,0,0
-70,-230,0,0,0,0,0,0,0,0,0,-1,1154,1254,0,0
-63,-230,0,0,0,0,0,0,0,0,0,-1,1161,1254,0,0
-56,-230,0,0,0,0,0,0,0,0,0,-1,1168,1254,0,0
-49,-230,0,0,0,0,0,0,0,0,0,-1,1175,1254,0,0
-42,-230,0,0,0,0,0,0,0,0,0,-1,1182,1254,0,0
-35,-230,0,0,0,0,0,0,0,0,0,-1,1189,1254,0,0
-28,-230,0,0,0,0,0,0,0,0,0,-1,1196,1254,0,0
-21,-230,0,0,0,0,0,0,0,0,0,-1,1203,1254,0,0
-14,-230,0,0,0,0,0,0,0,0,0,-1,1210,1254,0,0
-7,-230,0,0,0,0,0,0,0,0,0,-1,1217,1254,0,0
0,-230,0,0,0,0,0,0,0,0,0,-1,1224,1254,0,0
7,-230,0,0,0,0,0,0,0,0,0,-1,1231,1254,0,0
14,-230,0,0,0,0,0,0,0,0,0,-1,1238,1254,0,0
21,-230,0,0,0,0,0,0,0,0,0,-1,1245,1254,0,0
28,-230,0,0,0,0,0,0,0,0,0,-1,1252,1254,0,0
35,-230,0,0,0,0,0,0,0,0,0,-1,1259,1254,0,0
42,-230,0,0,0,0,0,0,0,0,0,-1,1266,1254,0,0
49,-230,0,0,0,0,0,0,0,0,0,-1,1273,1254,0,0
56,-230,0,0,0,0,0,0,0,0,0,-1,1280,1254,0,0
63,-230,0,0,0,0,0,0,0,0,0,-1,1287,1254,0,0
70,-230,0,0,0,0,0,0,0,0,0,-1,1294,1254,0,0
77,-230,0,0,0,0,0,0,0,0,0,-1,1301,1254,0,0
84,-230,0,0,0,0,0,0,0,0,0,-1,1308,1254,0,0
91,-230,0,0,0,0,0,0,0,0,0,-1,1315,1254,0,0
98,-230,0,0,0,0,0,0,0,0,0,-1,1322,1254,0,0
105,-230,0,0,0,0,0,0,0,0,0,-1,1329,1254,0,0
112,-230,0,0,0,0,0,0,0,0,0,-1,1336,1254,0,0
119,-230,0,0,0,0,0,0,0,0,0,-1,1343,1254,0,0
126,-230,0,0,0,0,0,0,0,0,0,-1,1350,1254,0,0
133,-230,0,0,0,0,0,0,0,0,0,-1,1357,1254,0,0
140,-230,0,0,0,0,0,0,0,0,0,-1,1364,1254,0,0
147,-230,0,0,0,0,0,0,0,0,0,-1,1371,1254,0,0
154,-230,0,0,0,0,0,0,0,0,0,-1,1378,1254,0,0
161,-230,0,0,0,0,0,0,0,0,0,-1,1385,1254,0,0
168,-230,0,0,0,0,0,0,0,0,0,-1,1392,1254,0,0
175,-230,0,0,0,0,0,0,0,0,0,-1,1399,1254,0,0
182,-230,0,0,0,0,0,0,0,0,0,-1,1406,1254,0,0
189,-230,0,0,0,0,0,0,0,0,0,-1,1413,1254,0,0
196,-230,0,0,0,0,0,0,0,0,0,-1,1420,1254,0,0
203,-230,0,0,0,0,0,0,0,0,0,-1,1427,1254,0,0
210,-230,0,0,0,0,0,0,0,0,0,-1,1434,1254,0,0
217,-230,0,0,0,0,0,0,0,0,0,-1,1441,1254,0,0
224,-230,0,0,0,0,0,0,0,0,0,-1,1448,1254,0,0
231,-230,0,0,0,0,0,0,0,0,0,-1,1455,1254,0,0
238,-230,0,0,0,0,0,0,0,0,0,-1,1462,1254,0,0
245,-230,0,0,0,0,0,0,0,0,0,-1,1469,1254,0,0
252,-230,0,0,0,0,0,0,0,0,0,-1,1476,1254,0,0
259,-230,0,0,0,0,0,0,0,0,0,-1,1483,1254,0,0
266,-230,0,0,0,0,0,0,0,0,0,-1,1490,1254,0,0
273,-230,0,0,0,0,0,0,0,0,0,-1,1497,1254,0,0
280,-230,0,0,0,0,0,0,0,0,0,-1,1504,1254,0,0
287,-230,0,0,0,0,0,0,0,0,0,-1,1511,1254,0,0
294,-230,0,0,0,0,0,0,0,0,0,-1,1518,1254,0,0
301,-230,0,0,0,0,0,0,0,0,0,-1,1525,1254,0,0
308,-230,0,0,0,0,0,0,0,0,0,-1,1532,1254,0,0
315,-230,0,0,0,0,0,0,0,0,0,-1,1539,1254,0,0
322,-230,0,0,0,0,0,0,0,0,0,-1,1546,1254,0,0
329,-230,0,0,0,0,0,0,0,0,0,-1,1553,1254,0,0
336,-230,0,0,0,0,0,0,0,0,0,-1,1560,1254,0,0
343,-230,0,0,0,0,0,0,0,0,0,-1,1567,1254,0,0
350,-230,0,0,0,0,0,0,0,0,0,-1,1574,1254,0,0
357,-230,0,0,0,0,0,0,0,0,0,-1,1581,1254,0,0
364,-230,0,0,0,0,0,0,0,0,0,-1,1588,1254,0,0
371,-230,0,0,0,0,0,0,0,0,0,-1,1595,1254,0,0
378,-230,0,0,0,0,0,0,0,0,0,-1,1602,1254,0,0
385,-230,0,0,0,0,0,0,0,0,0,-1,1609,1254,0,0
392,-230,0,0,0,0,0,0,0,0,0,-1,1616,1254,0,0
399,-230,0,0,0,0,0,0,0,0,0,-1,1623,1254,0,0
406,-230,0,0,0,0,0,0,0,0,0,-1,1630,1254,0,0
413,-230,0,0,0,0,0,0,0,0,0,-1,1637,1254,0,0
420,-230,0,0,0,0,0,0,0,0,0,-1,1644,1254,0,0
427,-230,0,0,0,0,0,0,0,0,0,-1,1651,1254,0,0
434,-230,0,0,0,0,0,0,0,0,0,-1,1658,1254,0,0
441,-230,0,0,0,0,0,0,0,0,0,-1,1665,1254,0,0
448,-230,0,0,0,0,0,0,0,0,0,-1,1672,1254,0,0
455,-230,0,0,0,0,0,0,0,0,0,-1,1679,1254,0,0
462,-230,0,0,0,0,0,0,0,0,0,-1,1686,1254,0,0
469,-230,0,0,0,0,0,0,0,0,0,-1,1693,1254,0,0
476,-230,0,0,0,0,0,0,0,0,0,-1,1700,1254,0,0
483,-230,0,0,0,0,0,0,0,0,0,-1,1707,1254,0,0
490,-230,0,0,0,0,0,0,0,0,0,-1,1714,1254,0,0
497,-230,0,0,0,0,0,0,0,0,0,-1,1721,1254,0,0
504,-230,0,0,0,0,0,0,0,0,0,-1,1728,1254,0,0
511,-230,0,0,0,0,0,0,0,0,0,-1,1735,1254,0,0
518,-230,0,0,0,0,0,0,0,0,0,-1,1742,1254,0,0
525,-230,0,0,0,0,0,0,0,0,0,-1,1749,1254,0,0
532,-230,0,0,0,0,0,0,0,0,0,-1,1756,1254,0,0
539,-230,0,0,0,0,0,0,0,0,0,-1,1763,1254,0,0
546,-230,0,0,0,0,0,0,0,0,0,-1,1770,1254,0,0
553,-230,0,0,0,0,0,0,0,0,0,-1,1777,1254,0,0
560,-230,0,0,0,0,0,0,0,0,0,-1,1784,1254,0,0
567,-230,0,0,0,0,0,0,0,0,0,-1,1791,1254,0,0
574,-230,0,0,0,0,0,0,0,0,0,-1,1798,1254,0,0
581,-230,0,0,0,0,0,0,0,0,0,-1,1805,1254,0,0
588,-230,0,0,0,0,0,0,0,0,0,-1,1812,1254,0,0
595,-230,0,0,0,0,0,0,0,0,0,-1,1819,1254,0,0
602,-230,0,0,0,0,0,0,0,0,0,-1,1826,1254,0,0
609,-230,0,0,0,0,0,0,0,0,0,-1,1833,1254,0,0
616,-230,7.28406,1.19641,-0.0054527,-0.000513283,-0.000977344,-0.00032693,-0.00563905,-1.38239,0.00365527,0.0357544,1840,1254,7.28404,-1.19636
623,-230,7.24744,1.20398,-0.00545024,0.000823474,-0.000248557,0.000833306,-0.00546007,-1.53126,0.00394725,0.0363058,1847,1254,7.24745,-1.20403
630,-230,7.17993,1.09961,-0.00463081,0.00275746,0.0012442,0.00296136,-0.0048347,1.40836,0.00454417,0.0319205,1854,1254,7.17996,-1.0996
637,-230,7.16663,0.996826,-0.00377872,0.00421302,0.00200246,0.00468669,-0.00425239,1.33852,0.00516301,0.0258775,1861,1254,7.16658,-0.996848
644,-230,7.15332,0.932007,-0.00295121,0.0051038,0.00234328,0.00573588,-0.00358329,1.30732,0.00542806,0.018485,1868,1254,7.1533,-0.931978
651,-230,7.08887,0.87854,-0.00215418,0.00542159,0.00246083,0.00615076,-0.00288335,1.28273,0.00532835,0.0301841,1875,1254,7.08881,-0.87853
658,-230,6.86267,0.927734,-0.0014484,0.00526408,0.00238706,0.00602639,-0.0022107,1.26168,0.00492283,0.0396401,1882,1254,6.86263,-0.927746
665,-230,6.74561,0.72583,-0.000907427,0.00476379,0.00215373,0.00548897,-0.00163261,1.24601,0.0043079,0.0441821,1889,1254,6.7456,-0.725864
672,-230,6.46643,2.23901,-0.000504162,0.00403404,0.00183928,0.00468586,-0.00115598,1.23022,0.00357214,0.0495463,1896,1254,6.46643,-2.23903
679,-230,6.46387,1.94836,-7.55267e-05,0.00336054,0.00153235,0.00394462,-0.00065961,1.20663,0.00287495,0.0469028,1903,1254,6.46384,-1.94839
686,-230,6.39465,1.7052,0.000171486,0.00250351,0.00123456,0.00303565,-0.000360655,1.16382,0.00215407,0.036956,1910,1254,6.39462,-1.70521
693,-230,6.35791,1.54187,0.000191748,0.00191693,0.000909098,0.00230754,-0.000198867,1.16497,0.00160875,0.0162455,1917,1254,6.35788,-1.54185
700,-230,6.40747,1.49658,0.000374231,0.00132261,0.000566631,0.00158729,0.000109552,1.13381,0.00102363,0.0108043,1924,1254,6.40743,-1.49659
707,-230,6.41516,1.45557,0.000564201,6.73423e-05,0.000488153,0.000863504,-0.000231961,0.55002,0.000666582,0.009162,1931,1254,6.41518,-1.4556
714,-230,6.42273,1.39734,0.000740407,-0.000679501,0.00048963,0.000892875,-0.000831969,0.301877,0.000996046,0.0119502,1938,1254,6.42274,-1.39731
721,-230,6.42444,1.33936,0.000734324,-0.000834995,-0.000181673,0.00075508,-0.000855751,-0.113761,0.000930619,0.012853,1945,1254,6.42446,-1.33939
728,-230,6.41138,1.30518,0.000456371,-0.000857455,-0.00052328,0.000639313,-0.0010404,-0.336324,0.000978954,0.0135152,1952,1254,6.4114,-1.30523
735,-230,6.40051,1.26697,0.000377698,-0.000553462,-0.000939091,0.000960286,-0.00113605,-0.555266,0.00121174,0.0133867,1959,1254,6.40057,-1.26697
742,-230,6.39111,1.22498,0.000576262,-1.3494e-05,-0.00142106,0.00173272,-0.00116995,-0.683097,0.00168632,0.00984581,1966,1254,6.39115,-1.22503
749,-230,6.38916,1.18103,0.000777712,0.000398179,-0.00245086,0.00304614,-0.00187025,-0.746761,0.00286542,0.00944146,1973,1254,6.38913,-1.18106
756,-230,6.40405,1.12402,0.000810318,0.00105555,-0.00380301,0.00473793,-0.00287206,-0.801514,0.00443743,0.0121523,1980,1254,6.40399,-1.12406
763,-230,6.3938,1.03552,0.000866561,0.00205475,-0.00557721,0.00706942,-0.0041481,-0.838459,0.00654923,0.0230722,1987,1254,6.39376,-1.03558
770,-230,6.27905,0.911133,0.00093072,0.00352609,-0.0079011,0.0102354,-0.00577856,-0.866792,0.00936424,0.038098,1994,1254,6.2791,-0.91112
777,-230,6.16211,0.78833,0.00103618,0.00561211,-0.0108812,0.0144433,-0.00779498,-0.889023,0.0130291,0.0466697,2001,1254,6.16209,-0.788271
784,-230,6.06824,0.680054,0.00131026,0.00847332,-0.0146413,0.0199647,-0.0101812,-0.905352,0.0177076,0.0489758,2008,1254,6.06818,-0.680081
791,-230,5.99329,0.578735,0,0,0,0,0,0,0,-1,2015,1254,5.99326,-0.578719
798,-230,0,0,0,0,0,0,0,0,0,-1,2022,1254,0,0
805,-230,0,0,0,0,0,0,0,0,0,-1,2029,1254,0,0
812,-230,0,0,0,0,0,0,0,0,0,-1,2036,1254,0,0
-700,-237,0,0,0,0,0,0,0,0,0,-1,524,1261,0,0
-693,-237,0,0,0,0,0,0,0,0,0,-1,531,1261,0,0
-686,-237,0,0,0,0,0,0,0,0,0,-1,538,1261,0,0
-679,-237,0,0,0,0,0,0,0,0,0,-1,545,1261,0,0
-672,-237,1.69696,-1.13,-0.0521953,0.0153601,0.028428,0.0257309,-0.062566,1.22099,0.0524361,0.0465225,552,1261,1.69694,1.13004
-665,-237,1.26605,-0.198608,-0.0397451,0.0170567,0.0267867,0.027696,-0.0503844,1.19272,0.0457097,0.0470265,559,1261,1.26604,0.198663
-658,-237,0.826172,0.565308,-0.0286649,0.0169937,0.0241812,0.0274196,-0.0390908,1.16372,0.0385963,0.0480489,566,1261,0.826177,-0.565302
-651,-237,0.33551,1.34619,0,0,0,0,0,0,0,-1,573,1261,0.335523,-1.34616
-644,-237,-2.4165,-0.385986,0,0,0,0,0,0,0,-1,580,1261,-2.4165,0.386008
-637,-237,-2.19495,-0.0911865,-0.0055655,0.011876,0.0144328,0.0200182,-0.0137077,1.05716,0.0195849,0.0497774,587,1261,-2.19494,0.0911632
-630,-237,-1.97559,0.31897,-0.00127326,0.00968134,0.011387,0.0168399,-0.0084318,1.00957,0.0148574,0.0437982,594,1261,-1.97556,-0.319006
-623,-237,-1.75409,0.744751,0.00155756,0.00781763,0.00887924,0.0141024,-0.00472718,0.954854,0.0113115,0.0275226,601,1261,-1.75406,-0.744699
-616,-237,-1.76575,0.802124,0.00355966,0.00647378,0.00666296,0.0118371,-0.0018037,0.893044,0.00855626,0.0138381,608,1261,-1.76577,-0.802106
-609,-237,-1.78955,0.858398,0.00437323,0.00441283,0.00434745,0.00874053,4.55347e-05,0.787675,0.0058119,0.0172031,615,1261,-1.78958,-0.858439
-602,-237,-1.7796,0.901245,0.00431412,0.0021161,0.00251328,0.00595817,0.000472038,0.579285,0.00382449,0.0122998,622,1261,-1.77961,-0.901214
-595,-237,-1.78644,0.951538,0.00299964,0.000381256,0.00138151,0.00359375,-0.000212849,0.406133,0.00246984,0.0148973,629,1261,-1.78646,-0.95149
-588,-237,-1.77252,1.01855,0.00200537,-0.00142071,-1.70094e-05,0.00200545,-0.00142079,-0.00496451,0.00198772,0.0252831,636,1261,-1.7725,-1.01858
-581,-237,-1.76031,1.07996,0.000685595,-0.0035069,-0.00114339,0.000977147,-0.00379845,-0.249669,0.00291317,0.0228384,643,1261,-1.7603,-1.08
-574,-237,-1.78442,1.10205,-0.000908974,-0.00476269,-0.00194504,-9.79567e-05,-0.00557371,-0.395047,0.00368359,0.0144183,650,1261,-1.7844,-1.10211
-567,-237,-1.75671,1.14099,-0.00247879,-0.00631217,-0.00251644,-0.00123223,-0.00755873,-0.459934,0.00468277,0.0133044,657,1261,-1.75673,-1.14094
-560,-237,-1.71893,1.19482,-0.00392504,-0.00736758,-0.00297342,-0.00221061,-0.009082,-0.523024,0.00546881,0.019397,664,1261,-1.71895,-1.19478
-553,-237,-1.74445,1.22729,-0.00532188,-0.00788213,-0.00322428,-0.0031329,-0.0100711,-0.596428,0.0059513,0.0403985,671,1261,-1.74445,-1.22727
-546,-237,-1.91675,0.76062,0,0,0,0,0,0,0,-1,678,1261,-1.91674,-0.760607
-539,-237,-1.73572,0.306763,-0.00873377,-0.00772,-0.0034041,-0.00478526,-0.0116685,-0.859307,0.00677302,0.0455384,685,1261,-1.73571,-0.30674
-532,-237,-1.52533,-0.0419922,0,0,0,0,0,0,0,-1,692,1261,-1.5253,0.0419434
-525,-237,-1.60278,-0.366577,-0.0128963,-0.0048856,-0.00243721,-0.00420237,-0.0135795,-1.29748,0.00802764,0.0470271,699,1261,-1.60278,0.366637
-518,-237,-2.25006,0.518433,-0.0151718,-0.00183525,-0.00133571,-0.00170279,-0.0153042,-1.47195,0.00968526,0.0430581,706,1261,-2.25006,-0.518417
-511,-237,-2.41559,0.670776,-0.0173641,0.00268025,0.000359825,0.00268671,-0.0173706,1.55285,0.012572,0.0419812,713,1261,-2.41556,-0.670778
-504,-237,-2.66309,0.806396,-0.0191512,0.00917315,0.00275832,0.00943926,-0.0194173,1.47462,0.0169891,0.0437702,720,1261,-2.66308,-0.806424
-497,-237,-2.79071,1.12793,0,0,0,0,0,0,0,-1,727,1261,-2.7907,-1.12793
-490,-237,0,0,0,0,0,0,0,0,0,-1,734,1261,0,0
-483,-237,0,0,0,0,0,0,0,0,0,-1,741,1261,0,0
-476,-237,0,0,0,0,0,0,0,0,0,-1,748,1261,0,0
-469,-237,0,0,0,0,0,0,0,0,0,-1,755,1261,0,0
-462,-237,0,0,0,0,0,0,0,0,0,-1,762,1261,0,0
-455,-237,0,0,0,0,0,0,0,0,0,-1,769,1261,0,0
-448,-237,0,0,0,0,0,0,0,0,0,-1,776,1261,0,0
-441,-237,0,0,0,0,0,0,0,0,0,-1,783,1261,0,0
-434,-237,0,0,0,0,0,0,0,0,0,-1,790,1261,0,0
-427,-237,0,0,0,0,0,0,0,0,0,-1,797,1261,0,0
-420,-237,0,0,0,0,0,0,0,0,0,-1,804,1261,0,0
-413,-237,0,0,0,0,0,0,0,0,0,-1,811,1261,0,0
-406,-237,0,0,0,0,0,0,0,0,0,-1,818,1261,0,0
-399,-237,0,0,0,0,0,0,0,0,0,-1,825,1261,0,0
-392,-237,0,0,0,0,0,0,0,0,0,-1,832,1261,0,0
-385,-237,0,0,0,0,0,0,0,0,0,-1,839,1261,0,0
-378,-237,0,0,0,0,0,0,0,0,0,-1,846,1261,0,0
-371,-237,0,0,0,0,0,0,0,0,0,-1,853,1261,0,0
-364,-237,0,0,0,0,0,0,0,0,0,-1,860,1261,0,0
-357,-237,0,0,0,0,0,0,0,0,0,-1,867,1261,0,0
-350,-237,0,0,0,0,0,0,0,0,0,-1,874,1261,0,0
-343,-237,0,0,0,0,0,0,0,0,0,-1,881,1261,0,0
-336,-237,0,0,0,0,0,0,0,0,0,-1,888,1261,0,0
-329,-237,0,0,0,0,0,0,0,0,0,-1,895,1261,0,0
-322,-237,0,0,0,0,0,0,0,0,0,-1,902,1261,0,0
-315,-237,0,0,0,0,0,0,0,0,0,-1,909,1261,0,0
-308,-237,0,0,0,0,0,0,0,0,0,-1,916,1261,0,0
-301,-237,0,0,0,0,0,0,0,0,0,-1,923,1261,0,0
-294,-237,0,0,0,0,0,0,0,0,0,-1,930,1261,0,0
-287,-237,0,0,0,0,0,0,0,0,0,-1,937,1261,0,0
-280,-237,0,0,0,0,0,0,0,0,0,-1,944,1261,0,0
-273,-237,0,0,0,0,0,0,0,0,0,-1,951,1261,0,0
-266,-237,0,0,0,0,0,0,0,0,0,-1,958,1261,0,0
-259,-237,0,0,0,0,0,0,0,0,0,-1,965,1261,0,0
-252,-237,0,0,0,0,0,0,0,0,0,-1,972,1261,0,0
-245,-237,0,0,0,0,0,0,0,0,0,-1,979,1261,0,0
-238,-237,0,0,0,0,0,0,0,0,0,-1,986,1261,0,0
-231,-237,0,0,0,0,0,0,0,0,0,-1,993,1261,0,0
-224,-237,0,0,0,0,0,0,0,0,0,-1,1000,1261,0,0
-217,-237,0,0,0,0,0,0,0,0,0,-1,1007,1261,0,0
-210,-237,0,0,0,0,0,0,0,0,0,-1,1014,1261,0,0
-203,-237,0,0,0,0,0,0,0,0,0,-1,1021,1261,0,0
-196,-237,0,0,0,0,0,0,0,0,0,-1,1028,1261,0,0
-189,-237,0,0,0,0,0,0,0,0,0,-1,1035,1261,0,0
-182,-237,0,0,0,0,0,0,0,0,0,-1,1042,1261,0,0
-175,-237,0,0,0,0,0,0,0,0,0,-1,1049,1261,0,0
-168,-237,0,0,0,0,0,0,0,0,0,-1,1056,1261,0,0
-161,-237,0,0,0,0,0,0,0,0,0,-1,1063,1261,0,0
-154,-237,0,0,0,0,0,0,0,0,0,-1,1070,1261,0,0
-147,-237,0,0,0,0,0,0,0,0,0,-1,1077,1261,0,0
-140,-237,0,0,0,0,0,0,0,0,0,-1,1084,1261,0,0
-133,-237,0,0,0,0,0,0,0,0,0,-1,1091,1261,0,0
-126,-237,0,0,0,0,0,0,0,0,0,-1,1098,1261,0,0
-119,-237,0,0,0,0,0,0,0,0,0,-1,1105,1261,0,0
-112,-237,0,0,0,0,0,0,0,0,0,-1,1112,1261,0,0
-105,-237,0,0,0,0,0,0,0,0,0,-1,1119,1261,0,0
-98,-237,0,0,0,0,0,0,0,0,0,-1,1126,1261,0,0
-91,-237,0,0,0,0,0,0,0,0,0,-1,1133,1261,0,0
-84,-237,0,0,0,0,0,0,0,0,0,-1,1140,1261,0,0
-77,-237,0,0,0,0,0,0,0,0,0,-1,1147,1261,0,0
-70,-237,0,0,0,0,0,0,0,0,0,-1,1154,1261,0,0
-63,-237,0,0,0,0,0,0,0,0,0,-1,1161,1261,0,0
-56,-237,0,0,0,0,0,0,0,0,0,-1,1168,1261,0,0
-49,-237,0,0,0,0,0,0,0,0,0,-1,1175,1261,0,0
-42,-237,0,0,0,0,0,0,0,0,0,-1,1182,1261,0,0
-35,-237,0,0,0,0,0,0,0,0,0,-1,1189,1261,0,0
-28,-237,0,0,0,0,0,0,0,0,0,-1,1196,1261,0,0
-21,-237,0,0,0,0,0,0,0,0,0,-1,1203,1261,0,0
-14,-237,0,0,0,0,0,0,0,0,0,-1,1210,1261,0,0
-7,-237,0,0,0,0,0,0,0,0,0,-1,1217,1261,0,0
0,-237,0,0,0,0,0,0,0,0,0,-1,1224,1261,0,0
7,-237,0,0,0,0,0,0,0,0,0,-1,1231,1261,0,0
14,-237,0,0,0,0,0,0,0,0,0,-1,1238,1261,0,0
21,-237,0,0,0,0,0,0,0,0,0,-1,1245,1261,0,0
28,-237,0,0,0,0,0,0,0,0,0,-1,1252,1261,0,0
35,-237,0,0,0,0,0,0,0,0,0,-1,1259,1261,0,0
42,-237,0,0,0,0,0,0,0,0,0,-1,1266,1261,0,0
49,-237,0,0,0,0,0,0,0,0,0,-1,1273,1261,0,0
56,-237,0,0,0,0,0,0,0,0,0,-1,1280,1261,0,0
63,-237,0,0,0,0,0,0,0,0,0,-1,1287,1261,0,0
70,-237,0,0,0,0,0,0,0,0,0,-1,1294,1261,0,0
77,-237,0,0,0,0,0,0,0,0,0,-1,1301,1261,0,0
84,-237,0,0,0,0,0,0,0,0,0,-1,1308,1261,0,0
91,-237,0,0,0,0,0,0,0,0,0,-1,1315,1261,0,0
98,-237,0,0,0,0,0,0,0,0,0,-1,1322,1261,0,0
105,-237,0,0,0,0,0,0,0,0,0,-1,1329,1261,0,0
112,-237,0,0,0,0,0,0,0,0,0,-1,1336,1261,0,0
119,-237,0,0,0,0,0,0,0,0,0,-1,1343,1261,0,0
126,-237,0,0,0,0,0,0,0,0,0,-1,1350,1261,0,0
133,-237,0,0,0,0,0,0,0,0,0,-1,1357,1261,0,0
140,-237,0,0,0,0,0,0,0,0,0,-1,1364,1261,0,0
147,-237,0,0,0,0,0,0,0,0,0,-1,1371,1261,0,0
154,-237,0,0,0,0,0,0,0,0,0,-1,1378,1261,0,0
161,-237,0,0,0,0,0,0,0,0,0,-1,1385,1261,0,0
168,-237,0,0,0,0,0,0,0,0,0,-1,1392,1261,0,0
175,-237,0,0,0,0,0,0,0,0,0,-1,1399,1261,0,0
182,-237,0,0,0,0,0,0,0,0,0,-1,1406,1261,0,0
189,-237,0,0,0,0,0,0,0,0,0,-1,1413,1261,0,0
196,-237,0,0,0,0,0,0,0,0,0,-1,1420,1261,0,0
203,-237,0,0,0,0,0,0,0,0,0,-1,1427,1261,0,0
210,-237,0,0,0,0,0,0,0,0,0,-1,1434,1261,0,0
217,-237,0,0,0,0,0,0,0,0,0,-1,1441,1261,0,0
224,-237,0,0,0,0,0,0,0,0,0,-1,1448,1261,0,0
231,-237,0,0,0,0,0,0,0,0,0,-1,1455,1261,0,0
238,-237,0,0,0,0,0,0,0,0,0,-1,1462,1261,0,0
245,-237,0,0,0,0,0,0,0,0,0,-1,1469,1261,0,0
252,-237,0,0,0,0,0,0,0,0,0,-1,1476,1261,0,0
259,-237,0,0,0,0,0,0,0,0,0,-1,1483,1261,0,0
266,-237,0,0,0,0,0,0,0,0,0,-1,1490,1261,0,0
273,-237,0,0,0,0,0,0,0,0,0,-1,1497,1261,0,0
280,-237,0,0,0,0,0,0,0,0,0,-1,1504,1261,0,0
287,-237,0,0,0,0,0,0,0,0,0,-1,1511,1261,0,0
294,-237,0,0,0,0,0,0,0,0,0,-1,1518,1261,0,0
301,-237,0,0,0,0,0,0,0,0,0,-1,1525,1261,0,0
308,-237,0,0,0,0,0,0,0,0,0,-1,1532,1261,0,0
315,-237,0,0,0,0,0,0,0,0,0,-1,1539,1261,0,0
322,-237,0,0,0,0,0,0,0,0,0,-1,1546,1261,0,0
329,-237,0,0,0,0,0,0,0,0,0,-1,1553,1261,0,0
336,-237,0,0,0,0,0,0,0,0,0,-1,1560,1261,0,0
343,-237,0,0,0,0,0,0,0,0,0,-1,1567,1261,0,0
350,-237,0,0,0,0,0,0,0,0,0,-1,1574,1261,0,0
357,-237,0,0,0,0,0,0,0,0,0,-1,1581,1261,0,0
364,-237,0,0,0,0,0,0,0,0,0,-1,1588,1261,0,0
371,-237,0,0,0,0,0,0,0,0,0,-1,1595,1261,0,0
378,-237,0,0,0,0,0,0,0,0,0,-1,1602,1261,0,0
385,-237,0,0,0,0,0,0,0,0,0,-1,1609,1261,0,0
392,-237,0,0,0,0,0,0,0,0,0,-1,1616,1261,0,0
399,-237,0,0,0,0,0,0,0,0,0,-1,1623,1261,0,0
406,-237,0,0,0,0,0,0,0,0,0,-1,1630,1261,0,0
413,-237,0,0,0,0,0,0,0,0,0,-1,1637,1261,0,0
420,-237,0,0,0,0,0,0,0,0,0,-1,1644,1261,0,0
427,-237,0,0,0,0,0,0,0,0,0,-1,1651,1261,0,0
434,-237,0,0,0,0,0,0,0,0,0,-1,1658,1261,0,0
441,-237,0,0,0,0,0,0,0,0,0,-1,1665,1261,0,0
448,-237,0,0,0,0,0,0,0,0,0,-1,1672,1261,0,0
455,-237,0,0,0,0,0,0,0,0,0,-1,1679,1261,0,0
462,-237,0,0,0,0,0,0,0,0,0,-1,1686,1261,0,0
469,-237,0,0,0,0,0,0,0,0,0,-1,1693,1261,0,0
476,-237,0,0,0,0,0,0,0,0,0,-1,1700,1261,0,0
483,-237,0,0,0,0,0,0,0,0,0,-1,1707,1261,0,0
490,-237,0,0,0,0,0,0,0,0,0,-1,1714,1261,0,0
497,-237,0,0,0,0,0,0,0,0,0,-1,1721,1261,0,0
504,-237,0,0,0,0,0,0,0,0,0,-1,1728,1261,0,0
511,-237,0,0,0,0,0,0,0,0,0,-1,1735,1261,0,0
518,-237,0,0,0,0,0,0,0,0,0,-1,1742,1261,0,0
525,-237,0,0,0,0,0,0,0,0,0,-1,1749,1261,0,0
532,-237,0,0,0,0,0,0,0,0,0,-1,1756,1261,0,0
539,-237,0,0,0,0,0,0,0,0,0,-1,1763,1261,0,0
546,-237,0,0,0,0,0,0,0,0,0,-1,1770,1261,0,0
553,-237,0,0,0,0,0,0,0,0,0,-1,1777,1261,0,0
560,-237,0,0,0,0,0,0,0,0,0,-1,1784,1261,0,0
567,-237,0,0,0,0,0,0,0,0,0,-1,1791,1261,0,0
574,-237,0,0,0,0,0,0,0,0,0,-1,1798,1261,0,0
581,-237,0,0,0,0,0,0,0,0,0,-1,1805,1261,0,0
588,-237,0,0,0,0,0,0,0,0,0,-1,1812,1261,0,0
595,-237,0,0,0,0,0,0,0,0,0,-1,1819,1261,0,0
602,-237,0,0,0,0,0,0,0,0,0,-1,1826,1261,0,0
609,-237,0,0,0,0,0,0,0,0,0,-1,1833,1261,0,0
616,-237,7.22693,1.11804,-0.00680939,0.000859765,-0.000472265,0.000888737,-0.00683836,-1.50953,0.00488219,0.0356271,1840,1261,7.22687,-1.11799
623,-237,7.26147,1.06189,-0.00633221,0.0016111,0.000533594,0.00164679,-0.0063679,1.50402,0.00488756,0.0316674,1847,1261,7.26143,-1.06185
630,-237,7.23853,1.05603,-0.00516902,0.00305159,0.00187193,0.00345778,-0.00557521,1.35712,0.00526274,0.0245081,1854,1261,7.23856,-1.05598
637,-237,7.16309,0.990112,-0.00401136,0.00434091,0.00253138,0.00504821,-0.00471866,1.29833,0.00563998,0.0190884,1861,1261,7.16306,-0.990119
644,-237,7.01648,0.880371,-0.00292279,0.00526631,0.00279931,0.00613175,-0.00378823,1.27096,0.00578033,0.0361542,1868,1261,7.01649,-0.880313
651,-237,7.00354,0.796753,-0.00191423,0.0057221,0.00283883,0.0066618,-0.00285393,1.25113,0.00563863,0.0430676,1875,1261,7.00355,-0.796696
658,-237,6.70984,0.793335,-0.00105139,0.00570891,0.00268884,0.00664793,-0.00199042,1.23481,0.00522341,0.046636,1882,1261,6.70985,-0.793373
665,-237,6.57996,0.385132,-0.00040999,0.00533592,0.0023777,0.00619221,-0.00126629,1.22512,0.0046086,0.0449145,1889,1261,6.57995,-0.385178
672,-237,6.35168,2.04407,3.02508e-05,0.00470208,0.00198288,0.0054302,-0.000697868,1.21888,0.00387376,0.0498437,1896,1261,6.35168,-2.0441
679,-237,6.38757,1.91443,0.000505103,0.00406879,0.00159285,0.00467695,-0.000103058,1.20607,0.00315288,0.0443914,1903,1261,6.3876,-1.91437
686,-237,6.35632,1.677,0.000750102,0.00318661,0.00123034,0.0036998,0.000236919,1.17563,0.00239147,0.0268006,1910,1261,6.35633,-1.67699
693,-237,6.31653,1.53857,0.000693672,0.00262174,0.000855462,0.00294657,0.00036884,1.2079,0.00185371,0.0131363,1917,1261,6.31649,-1.53858
700,-237,6.34888,1.48218,0.000854937,0.00197965,0.000462792,0.00214559,0.000688994,1.22651,0.00126491,0.0106052,1924,1261,6.34884,-1.48223
707,-237,6.35657,1.44495,0.00103979,0.000404933,0.000416565,0.00124608,0.000198636,0.459827,0.000773064,0.00937928,1931,1261,6.35654,-1.44495
714,-237,6.35168,1.39368,0.00121656,-0.000597073,0.00048173,0.00133657,-0.000717087,0.24416,0.00120353,0.0125185,1938,1261,6.35174,-1.39371
721,-237,6.35583,1.33936,0.00122399,-0.00095647,-0.000167935,0.00123685,-0.000969328,-0.0764176,0.00127685,0.0145531,1945,1261,6.35584,-1.33936
728,-237,6.37695,1.30713,0.000884754,-0.00118962,-0.000527216,0.00101106,-0.00131592,-0.235138,0.00134732,0.0135684,1952,1261,6.37698,-1.3071
735,-237,6.36377,1.25244,0.000700816,-0.00116776,-0.00102005,0.00114978,-0.00161673,-0.414626,0.00160481,0.0176089,1959,1261,6.36373,-1.25239
742,-237,6.35107,1.21228,0.000702487,-0.000969508,-0.00160064,0.0016723,-0.00193932,-0.544739,0.00208707,0.0132636,1966,1261,6.3511,-1.21229
749,-237,6.3429,1.17554,0.000670702,-0.000886566,-0.00274257,0.00274302,-0.00295889,-0.647084,0.00329279,0.00918063,1973,1261,6.34285,-1.17552
756,-237,6.3269,1.10718,0.000340468,-0.000615627,-0.00432752,0.00421627,-0.00449143,-0.730388,0.00502823,0.0128468,1980,1261,6.32689,-1.10716
763,-237,6.26514,1.02893,-0.000217439,-6.76504e-05,-0.0064675,0.00632538,-0.00661047,-0.791188,0.00746913,0.0273572,1987,1261,6.26509,-1.02897
770,-237,6.13074,0.799561,-0.00111719,0.000879484,-0.00930494,0.00923949,-0.0094772,-0.838839,0.0108064,0.0404109,1994,1261,6.13072,-0.799527
777,-237,5.97852,0.520142,-0.00244157,0.00236354,-0.0129743,0.0131558,-0.0132338,-0.87695,0.0152361,0.0413911,2001,1261,5.97858,-0.520092
784,-237,6.2533,0.311035,-0.00420344,0.00454008,-0.0176245,0.0183269,-0.0179903,-0.90697,0.020968,0.0466868,2008,1261,6.25331,-0.311063
791,-237,6.15222,0.208862,0,0,0,0,0,0,0,-1,2015,1261,6.15225,-0.208817
798,-237,0,0,0,0,0,0,0,0,0,-1,2022,1261,0,0
805,-237,0,0,0,0,0,0,0,0,0,-1,2029,1261,0,0
812,-237,0,0,0,0,0,0,0,0,0,-1,2036,1261,0,0
-700,-244,0,0,0,0,0,0,0,0,0,-1,524,1268,0,0
-693,-244,0,0,0,0,0,0,0,0,0,-1,531,1268,0,0
-686,-244,0,0,0,0,0,0,0,0,0,-1,538,1268,0,0
-679,-244,0,0,0,0,0,0,0,0,0,-1,545,1268,0,0
-672,-244,1.77777,-0.87915,-0.0586653,0.0225067,0.033402,0.0344842,-0.0706428,1.22649,0.0618802,0.0450294,552,1268,1.77778,0.879199
-665,-244,1.23114,-0.508789,-0.0447756,0.0228962,0.0311137,0.0350269,-0.0569063,1.19904,0.0535764,0.0477405,559,1268,1.23113,0.508789
-658,-244,0.687317,0.115601,-0.0324134,0.0216296,0.0278384,0.0334042,-0.044188,1.17065,0.0449419,0.0475527,566,1268,0.687287,-0.115541
-651,-244,0.18042,0.828979,0,0,0,0,0,0,0,-1,573,1268,0.180415,-0.828996
-644,-244,-2.68085,-0.574829,0,0,0,0,0,0,0,-1,580,1268,-2.68086,0.574877
-637,-244,-2.07947,-0.370972,-0.00689764,0.0138223,0.0162223,0.0227105,-0.0157858,1.06957,0.0223454,0.0478428,587,1268,-2.07948,0.370986
-630,-244,-2.13629,0.409912,-0.00209078,0.0110634,0.0127026,0.0187906,-0.00981803,1.02428,0.0167858,0.0437634,594,1268,-2.13629,-0.409968
-623,-244,-1.8252,0.686768,0.00109529,0.00870515,0.00977654,0.0153911,-0.00559065,0.970975,0.0125466,0.0334631,601,1268,-1.82517,-0.686814
-616,-244,-1.73499,0.817139,0.00334456,0.00705032,0.00725091,0.0126813,-0.00228647,0.91049,0.00931045,0.0172562,608,1268,-1.73498,-0.817164
-609,-244,-1.72064,0.85083,0.00437917,0.00473299,0.00471554,0.00927494,-0.000162777,0.804148,0.00623826,0.0146908,615,1268,-1.72067,-0.850874
-602,-244,-1.74237,0.906128,0.00462391,0.00226156,0.00274115,0.00642755,0.000457928,0.581968,0.00414084,0.0143759,622,1268,-1.7424,-0.906174
-595,-244,-1.76038,0.952271,0.00347154,0.000669716,0.00146914,0.00410064,4.06187e-05,0.404584,0.00272032,0.015133,629,1268,-1.76035,-0.952298
-588,-244,-1.73914,1.00647,0.0025837,-0.0010248,-1.34681e-05,0.00258375,-0.00102485,-0.00373225,0.00214725,0.019322,636,1268,-1.73914,-1.00651
-581,-244,-1.71198,1.05811,0.00127562,-0.00316673,-0.00112623,0.00154483,-0.00343595,-0.234633,0.00294393,0.0164561,643,1268,-1.71198,-1.05813
-574,-244,-1.73285,1.10681,-0.00036688,-0.00449483,-0.00194583,0.000405732,-0.00526745,-0.377971,0.00365439,0.0127541,650,1268,-1.73286,-1.10679
-567,-244,-1.72406,1.15247,-0.00202847,-0.00624295,-0.00261805,-0.000774959,-0.00749646,-0.446541,0.0047604,0.0104057,657,1268,-1.72408,-1.15246
-560,-244,-1.70837,1.20215,-0.00355219,-0.00746958,-0.00321166,-0.00174907,-0.00927269,-0.511576,0.00568911,0.0118563,664,1268,-1.70837,-1.20209
-553,-244,-1.70752,1.30762,-0.00507341,-0.00801546,-0.0035996,-0.00265586,-0.010433,-0.591422,0.00626073,0.0321828,671,1268,-1.70752,-1.30764
-546,-244,-1.85126,0.554321,0,0,0,0,0,0,0,-1,678,1268,-1.85125,-0.554268
-539,-244,-1.66815,0.0842285,0,0,0,0,0,0,0,-1,685,1268,-1.66818,-0.0841987
-532,-244,-1.52533,-0.253174,0,0,0,0,0,0,0,-1,692,1268,-1.52531,0.253133
-525,-244,-1.44836,-0.623535,0,0,0,0,0,0,0,-1,699,1268,-1.44839,0.623539
-518,-244,-1.35181,-0.740356,0,0,0,0,0,0,0,-1,706,1268,-1.35179,0.740416
-511,-244,-2.32477,0.581177,-0.0199586,0.00226578,-0.00120231,0.00233063,-0.0200234,-1.51691,0.0141898,0.0419871,713,1268,-2.32478,-0.581188
-504,-244,-2.55719,0.8573,-0.0228268,0.00868227,0.000855305,0.00870547,-0.02285,1.54368,0.0188187,0.0448359,720,1268,-2.55717,-0.857319
-497,-244,-2.6123,0.95166,-0.0253404,0.0167546,0.00364077,0.0170672,-0.0256529,1.48515,0.02483,0.0485117,727,1268,-2.6123,-0.951704
-490,-244,0,0,0,0,0,0,0,0,0,-1,734,1268,0,0
-483,-244,0,0,0,0,0,0,0,0,0,-1,741,1268,0,0
-476,-244,0,0,0,0,0,0,0,0,0,-1,748,1268,0,0
-469,-244,0,0,0,0,0,0,0,0,0,-1,755,1268,0,0
-462,-244,0,0,0,0,0,0,0,0,0,-1,762,1268,0,0
-455,-244,0,0,0,0,0,0,0,0,0,-1,769,1268,0,0
-448,-244,0,0,0,0,0,0,0,0,0,-1,776,1268,0,0
-441,-244,0,0,0,0,0,0,0,0,0,-1,783,1268,0,0
-434,-244,0,0,0,0,0,0,0,0,0,-1,790,1268,0,0
-427,-244,0,0,0,0,0,0,0,0,0,-1,797,1268,0,0
-420,-244,0,0,0,0,0,0,0,0,0,-1,804,1268,0,0
-413,-244,0,0,0,0,0,0,0,0,0,-1,811,1268,0,0
-406,-244,0,0,0,0,0,0,0,0,0,-1,818,1268,0,0
-399,-244,0,0,0,0,0,0,0,0,0,-1,825,1268,0,0
-392,-244,0,0,0,0,0,0,0,0,0,-1,832,1268,0,0
-385,-244,0,0,0,0,0,0,0,0,0,-1,839,1268,0,0
-378,-244,0,0,0,0,0,0,0,0,0,-1,846,1268,0,0
-371,-244,0,0,0,0,0,0,0,0,0,-1,853,1268,0,0
-364,-244,0,0,0,0,0,0,0,0,0,-1,860,1268,0,0
-357,-244,0,0,0,0,0,0,0,0,0,-1,867,1268,0,0
-350,-244,0,0,0,0,0,0,0,0,0,-1,874,1268,0,0
-343,-244,0,0,0,0,0,0,0,0,0,-1,881,1268,0,0
-336,-244,0,0,0,0,0,0,0,0,0,-1,888,1268,0,0
-329,-244,0,0,0,0,0,0,0,0,0,-1,895,1268,0,0
-322,-244,0,0,0,0,0,0,0,0,0,-1,902,1268,0,0
-315,-244,0,0,0,0,0,0,0,0,0,-1,909,1268,0,0
-308,-244,0,0,0,0,0,0,0,0,0,-1,916,1268,0,0
-301,-244,0,0,0,0,0,0,0,0,0,-1,923,1268,0,0
-294,-244,0,0,0,0,0,0,0,0,0,-1,930,1268,0,0
-287,-244,0,0,0,0,0,0,0,0,0,-1,937,1268,0,0
-280,-244,0,0,0,0,0,0,0,0,0,-1,944,1268,0,0
-273,-244,0,0,0,0,0,0,0,0,0,-1,951,1268,0,0
-266,-244,0,0,0,0,0,0,0,0,0,-1,958,1268,0,0
-259,-244,0,0,0,0,0,0,0,0,0,-1,965,1268,0,0
-252,-244,0,0,0,0,0,0,0,0,0,-1,972,1268,0,0
-245,-244,0,0,0,0,0,0,0,0,0,-1,979,1268,0,0
-238,-244,0,0,0,0,0,0,0,0,0,-1,986,1268,0,0
-231,-244,0,0,0,0,0,0,0,0,0,-1,993,1268,0,0
-224,-244,0,0,0,0,0,0,0,0,0,-1,1000,1268,0,0
-217,-244,0,0,0,0,0,0,0,0,0,-1,1007,1268,0,0
-210,-244,0,0,0,0,0,0,0,0,0,-1,1014,1268,0,0
-203,-244,0,0,0,0,0,0,0,0,0,-1,1021,1268,0,0
-196,-244,0,0,0,0,0,0,0,0,0,-1,1028,1268,0,0
-189,-244,0,0,0,0,0,0,0,0,0,-1,1035,1268,0,0
-182,-244,0,0,0,0,0,0,0,0,0,-1,1042,1268,0,0
-175,-244,0,0,0,0,0,0,0,0,0,-1,1049,1268,0,0
-168,-244,0,0,0,0,0,0,0,0,0,-1,1056,1268,0,0
-161,-244,0,0,0,0,0,0,0,0,0,-1,1063,1268,0,0
-154,-244,0,0,0,0,0,0,0,0,0,-1,1070,1268,0,0
-147,-244,0,0,0,0,0,0,0,0,0,-1,1077,1268,0,0
-140,-244,0,0,0,0,0,0,0,0,0,-1,1084,1268,0,0
-133,-244,0,0,0,0,0,0,0,0,0,-1,1091,1268,0,0
-126,-244,0,0,0,0,0,0,0,0,0,-1,1098,1268,0,0
-119,-244,0,0,0,0,0,0,0,0,0,-1,1105,1268,0,0
-112,-244,0,0,0,0,0,0,0,0,0,-1,1112,1268,0,0
-105,-244,0,0,0,0,0,0,0,0,0,-1,1119,1268,0,0
-98,-244,0,0,0,0,0,0,0,0,0,-1,1126,1268,0,0
-91,-244,0,0,0,0,0,0,0,0,0,-1,1133,1268,0,0
-84,-244,0,0,0,0,0,0,0,0,0,-1,1140,1268,0,0
-77,-244,0,0,0,0,0,0,0,0,0,-1,1147,1268,0,0
-70,-244,0,0,0,0,0,0,0,0,0,-1,1154,1268,0,0
-63,-244,0,0,0,0,0,0,0,0,0,-1,1161,1268,0,0
-56,-244,0,0,0,0,0,0,0,0,0,-1,1168,1268,0,0
-49,-244,0,0,0,0,0,0,0,0,0,-1,1175,1268,0,0
-42,-244,0,0,0,0,0,0,0,0,0,-1,1182,1268,0,0
-35,-244,0,0,0,0,0,0,0,0,0,-1,1189,1268,0,0
-28,-244,0,0,0,0,0,0,0,0,0,-1,1196,1268,0,0
-21,-244,0,0,0,0,0,0,0,0,0,-1,1203,1268,0,0
-14,-244,0,0,0,0,0,0,0,0,0,-1,1210,1268,0,0
-7,-244,0,0,0,0,0,0,0,0,0,-1,1217,1268,0,0
0,-244,0,0,0,0,0,0,0,0,0,-1,1224,1268,0,0
7,-244,0,0,0,0,0,0,0,0,0,-1,1231,1268,0,0
14,-244,0,0,0,0,0,0,0,0,0,-1,1238,1268,0,0
21,-244,0,0,0,0,0,0,0,0,0,-1,1245,1268,0,0
28,-244,0,0,0,0,0,0,0,0,0,-1,1252,1268,0,0
35,-244,0,0,0,0,0,0,0,0,0,-1,1259,1268,0,0
42,-244,0,0,0,0,0,0,0,0,0,-1,1266,1268,0,0
49,-244,0,0,0,0,0,0,0,0,0,-1,1273,1268,0,0
56,-244,0,0,0,0,0,0,0,0,0,-1,1280,1268,0,0
63,-244,0,0,0,0,0,0,0,0,0,-1,1287,1268,0,0
70,-244,0,0,0,0,0,0,0,0,0,-1,1294,1268,0,0
77,-244,0,0,0,0,0,0,0,0,0,-1,1301,1268,0,0
84,-244,0,0,0,0,0,0,0,0,0,-1,1308,1268,0,0
91,-244,0,0,0,0,0,0,0,0,0,-1,1315,1268,0,0
98,-244,0,0,0,0,0,0,0,0,0,-1,1322,1268,0,0
105,-244,0,0,0,0,0,0,0,0,0,-1,1329,1268,0,0
112,-244,0,0,0,0,0,0,0,0,0,-1,1336,1268,0,0
119,-244,0,0,0,0,0,0,0,0,0,-1,1343,1268,0,0
126,-244,0,0,0,0,0,0,0,0,0,-1,1350,1268,0,0
133,-244,0,0,0,0,0,0,0,0,0,-1,1357,1268,0,0
140,-244,0,0,0,0,0,0,0,0,0,-1,1364,1268,0,0
147,-244,0,0,0,0,0,0,0,0,0,-1,1371,1268,0,0
154,-244,0,0,0,0,0,0,0,0,0,-1,1378,1268,0,0
161,-244,0,0,0,0,0,0,0,0,0,-1,1385,1268,0,0
168,-244,0,0,0,0,0,0,0,0,0,-1,1392,1268,0,0
175,-244,0,0,0,0,0,0,0,0,0,-1,1399,1268,0,0
182,-244,0,0,0,0,0,0,0,0,0,-1,1406,1268,0,0
189,-244,0,0,0,0,0,0,0,0,0,-1,1413,1268,0,0
196,-244,0,0,0,0,0,0,0,0,0,-1,1420,1268,0,0
203,-244,0,0,0,0,0,0,0,0,0,-1,1427,1268,0,0
210,-244,0,0,0,0,0,0,0,0,0,-1,1434,1268,0,0
217,-244,0,0,0,0,0,0,0,0,0,-1,1441,1268,0,0
224,-244,0,0,0,0,0,0,0,0,0,-1,1448,1268,0,0
231,-244,0,0,0,0,0,0,0,0,0,-1,1455,1268,0,0
238,-244,0,0,0,0,0,0,0,0,0,-1,1462,1268,0,0
245,-244,0,0,0,0,0,0,0,0,0,-1,1469,1268,0,0
252,-244,0,0,0,0,0,0,0,0,0,-1,1476,1268,0,0
259,-244,0,0,0,0,0,0,0,0,0,-1,1483,1268,0,0
266,-244,0,0,0,0,0,0,0,0,0,-1,1490,1268,0,0
273,-244,0,0,0,0,0,0,0,0,0,-1,1497,1268,0,0
280,-244,0,0,0,0,0,0,0,0,0,-1,1504,1268,0,0
287,-244,0,0,0,0,0,0,0,0,0,-1,1511,1268,0,0
294,-244,0,0,0,0,0,0,0,0,0,-1,1518,1268,0,0
301,-244,0,0,0,0,0,0,0,0,0,-1,1525,1268,0,0
308,-244,0,0,0,0,0,0,0,0,0,-1,1532,1268,0,0
315,-244,0,0,0,0,0,0,0,0,0,-1,1539,1268,0,0
322,-244,0,0,0,0,0,0,0,0,0,-1,1546,1268,0,0
329,-244,0,0,0,0,0,0,0,0,0,-1,1553,1268,0,0
336,-244,0,0,0,0,0,0,0,0,0,-1,1560,1268,0,0
343,-244,0,0,0,0,0,0,0,0,0,-1,1567,1268,0,0
350,-244,0,0,0,0,0,0,0,0,0,-1,1574,1268,0,0
357,-244,0,0,0,0,0,0,0,0,0,-1,1581,1268,0,0
364,-244,0,0,0,0,0,0,0,0,0,-1,1588,1268,0,0
371,-244,0,0,0,0,0,0,0,0,0,-1,1595,1268,0,0
378,-244,0,0,0,0,0,0,0,0,0,-1,1602,1268,0,0
385,-244,0,0,0,0,0,0,0,0,0,-1,1609,1268,0,0
392,-244,0,0,0,0,0,0,0,0,0,-1,1616,1268,0,0
399,-244,0,0,0,0,0,0,0,0,0,-1,1623,1268,0,0
406,-244,0,0,0,0,0,0,0,0,0,-1,1630,1268,0,0
413,-244,0,0,0,0,0,0,0,0,0,-1,1637,1268,0,0
420,-244,0,0,0,0,0,0,0,0,0,-1,1644,1268,0,0
427,-244,0,0,0,0,0,0,0,0,0,-1,1651,1268,0,0
434,-244,0,0,0,0,0,0,0,0,0,-1,1658,1268,0,0
441,-244,0,0,0,0,0,0,0,0,0,-1,1665,1268,0,0
448,-244,0,0,0,0,0,0,0,0,0,-1,1672,1268,0,0
455,-244,0,0,0,0,0,0,0,0,0,-1,1679,1268,0,0
462,-244,0,0,0,0,0,0,0,0,0,-1,1686,1268,0,0
469,-244,0,0,0,0,0,0,0,0,0,-1,1693,1268,0,0
476,-244,0,0,0,0,0,0,0,0,0,-1,1700,1268,0,0
483,-244,0,0,0,0,0,0,0,0,0,-1,1707,1268,0,0
490,-244,0,0,0,0,0,0,0,0,0,-1,1714,1268,0,0
497,-244,0,0,0,0,0,0,0,0,0,-1,1721,1268,0,0
504,-244,0,0,0,0,0,0,0,0,0,-1,1728,1268,0,0
511,-244,0,0,0,0,0,0,0,0,0,-1,1735,1268,0,0
518,-244,0,0,0,0,0,0,0,0,0,-1,1742,1268,0,0
525,-244,0,0,0,0,0,0,0,0,0,-1,1749,1268,0,0
532,-244,0,0,0,0,0,0,0,0,0,-1,1756,1268,0,0
539,-244,0,0,0,0,0,0,0,0,0,-1,1763,1268,0,0
546,-244,0,0,0,0,0,0,0,0,0,-1,1770,1268,0,0
553,-244,0,0,0,0,0,0,0,0,0,-1,1777,1268,0,0
560,-244,0,0,0,0,0,0,0,0,0,-1,1784,1268,0,0
567,-244,0,0,0,0,0,0,0,0,0,-1,1791,1268,0,0
574,-244,0,0,0,0,0,0,0,0,0,-1,1798,1268,0,0
581,-244,0,0,0,0,0,0,0,0,0,-1,1805,1268,0,0
588,-244,0,0,0,0,0,0,0,0,0,-1,1812,1268,0,0
595,-244,0,0,0,0,0,0,0,0,0,-1,1819,1268,0,0
602,-244,0,0,0,0,0,0,0,0,0,-1,1826,1268,0,0
609,-244,0,0,0,0,0,0,0,0,0,-1,1833,1268,0,0
616,-244,7.21399,0.956543,-0.00759347,0.00178619,0.000541879,0.00181739,-0.00762468,1.51328,0.00578487,0.0339219,1840,1268,7.21397,-0.956554
623,-244,7.1991,1.01929,-0.00664128,0.00215386,0.00164175,0.00245032,-0.00693775,1.39214,0.00562282,0.0261119,1847,1268,7.19913,-1.01926
630,-244,7.16626,1.01697,-0.00518545,0.00325856,0.00276521,0.00408351,-0.0060104,1.28087,0.00586301,0.0225792,1854,1268,7.16626,-1.01695
637,-244,7.05811,0.966309,-0.00380733,0.00440166,0.00325425,0.0055352,-0.00494087,1.23561,0.00605161,0.0352921,1861,1268,7.05815,-0.966322
644,-244,6.92773,0.813843,-0.00255442,0.00532188,0.00337725,0.00657168,-0.00380422,1.21636,0.00606114,0.0436755,1868,1268,6.92768,-0.813875
651,-244,6.93237,0.707642,-0.00143663,0.00586749,0.00328868,0.00712999,-0.00269914,1.20425,0.0058639,0.0492363,1875,1268,6.93238,-0.707593
658,-244,7.23254,0.50354,-0.000501236,0.00596127,0.0030448,0.00716981,-0.00170978,1.19295,0.00544011,0.0479012,1882,1268,7.23254,-0.503529
665,-244,5.86438,2.41443,0.000169371,0.00569977,0.00265114,0.00676535,-0.00089621,1.18862,0.00483673,0.0475997,1889,1268,5.86439,-2.41443
672,-244,6.23523,1.9491,0.000596547,0.00517829,0.00217843,0.00604869,-0.000273857,1.19067,0.00412678,0.0460114,1896,1268,6.23517,-1.9491
679,-244,6.25867,1.84119,0.00108203,0.00460423,0.00169963,0.00529062,0.000395636,1.18698,0.00340288,0.0400181,1903,1268,6.25862,-1.84119
686,-244,6.27124,1.63367,0.00127502,0.00369641,0.0012722,0.00424193,0.000729504,1.16571,0.00261887,0.0185532,1910,1268,6.27118,-1.63368
693,-244,6.26184,1.55554,0.00110565,0.00316923,0.000867327,0.00348534,0.000789535,1.22129,0.00211021,0.0094529,1917,1268,6.26186,-1.55553
700,-244,6.28198,1.50073,0.00123169,0.00250074,0.000448636,0.00264333,0.00108911,1.26308,0.00153398,0.00863831,1924,1268,6.28204,-1.50075
707,-244,6.30286,1.45593,0.00141478,0.000649579,0.000450906,0.00162353,0.000440826,0.433583,0.000969419,0.00982356,1931,1268,6.3029,-1.45588
714,-244,6.30774,1.40845,0.00161489,-0.000550381,0.000598044,0.00176909,-0.000704578,0.252341,0.00147159,0.011427,1938,1268,6.30769,-1.40841
721,-244,6.30371,1.35364,0.00169367,-0.00108529,3.28223e-05,0.00169406,-0.00108568,0.0118088,0.00161764,0.013913,1945,1268,6.30376,-1.35368
728,-244,6.30542,1.31421,0.00137822,-0.00149841,-0.0002842,0.00140603,-0.00152622,-0.0975396,0.00169341,0.0167415,1952,1268,6.30539,-1.31425
735,-244,6.29749,1.24963,0.00124017,-0.00177558,-0.000735452,0.00140996,-0.00194537,-0.226896,0.00194541,0.0204736,1959,1268,6.29752,-1.24964
742,-244,6.31812,1.21875,0.00129164,-0.00194187,-0.00126366,0.00172689,-0.00237712,-0.331711,0.00237934,0.0141284,1966,1268,6.31807,-1.21875
749,-244,6.3197,1.17822,0.00126517,-0.00222188,-0.00232745,0.00242972,-0.00338644,-0.463932,0.00337307,0.0176515,1973,1268,6.31966,-1.17822
756,-244,6.24121,1.0968,0.000882397,-0.00241056,-0.0038832,0.00345376,-0.00498192,-0.584886,0.00489691,0.0229956,1980,1268,6.24122,-1.09683
763,-244,6.33386,1.1123,9.65063e-05,-0.00242324,-0.00605989,0.00502611,-0.00735284,-0.682906,0.00718895,0.0373196,1987,1268,6.33388,-1.11236
770,-244,7.24976,1.23401,-0.00130689,-0.00215606,-0.00902143,0.00729994,-0.0107629,-0.761883,0.0104923,0.0412516,1994,1268,7.24974,-1.23402
777,-244,7.86755,1.17383,0,0,0,0,0,0,0,-1,2001,1268,7.86755,-1.17377
784,-244,6.75525,0.00683594,0,0,0,0,0,0,0,-1,2008,1268,6.75525,-0.0067916
791,-244,0,0,0,0,0,0,0,0,0,-1,2015,1268,0,0
798,-244,0,0,0,0,0,0,0,0,0,-1,2022,1268,0,0
805,-244,0,0,0,0,0,0,0,0,0,-1,2029,1268,0,0
812,-244,0,0,0,0,0,0,0,0,0,-1,2036,1268,0,0
-700,-251,0,0,0,0,0,0,0,0,0,-1,524,1275,0,0
-693,-251,0,0,0,0,0,0,0,0,0,-1,531,1275,0,0
-686,-251,0,0,0,0,0,0,0,0,0,-1,538,1275,0,0
-679,-251,0,0,0,0,0,0,0,0,0,-1,545,1275,0,0
-672,-251,0,0,0,0,0,0,0,0,0,-1,552,1275,0,0
-665,-251,0.904907,-1.04053,-0.0513842,0.0291002,0.035444,0.0424836,-0.0647676,1.20975,0.0623655,0.0413592,559,1275,0.904931,1.04051
-658,-251,0.436829,-0.354248,-0.0375815,0.0266242,0.0313366,0.0393831,-0.0503403,1.18414,0.0519305,0.0447418,566,1275,0.436858,0.354266
-651,-251,-0.0274658,0.394287,0,0,0,0,0,0,0,-1,573,1275,-0.0274597,-0.394231
-644,-251,-2.79529,0.781616,0,0,0,0,0,0,0,-1,580,1275,-2.7953,-0.781567
-637,-251,-2.56079,0.660156,-0.00934254,0.0161821,0.0176919,0.0252345,-0.0183949,1.09786,0.0252924,0.0442354,587,1275,-2.56077,-0.660118
-630,-251,-2.42963,0.490356,-0.00392091,0.0128517,0.0137076,0.0205349,-0.0116041,1.05992,0.0187928,0.0434285,594,1275,-2.4296,-0.490296
-623,-251,-1.8855,0.671997,-0.000253119,0.00997941,0.0103864,0.0164413,-0.00671501,1.01425,0.0137568,0.0378325,601,1275,-1.88551,-0.672029
-616,-251,-1.70422,0.843384,0.0023571,0.00796732,0.00758282,0.0132473,-0.00292283,0.962557,0.00994992,0.0209777,608,1275,-1.70422,-0.84341
-609,-251,-1.68396,0.825806,0.00373107,0.00536975,0.00487787,0.00949661,-0.000395791,0.868607,0.00646704,0.0201523,615,1275,-1.68393,-0.825754
-602,-251,-1.69269,0.890869,0.00439286,0.00263491,0.0027985,0.00644718,0.000580594,0.633233,0.00411825,0.0141594,622,1275,-1.69267,-0.890857
-595,-251,-1.68964,0.937744,0.0035831,0.00107063,0.00143721,0.00423571,0.000418017,0.426244,0.00269529,0.0115953,629,1275,-1.68962,-0.937778
-588,-251,-1.67371,0.981323,0.00295557,-0.000566292,-7.96036e-05,0.00295737,-0.00056809,-0.0225873,0.00218569,0.0130043,636,1275,-1.67373,-0.981382
-581,-251,-1.65869,1.0509,0.00182946,-0.00282265,-0.00116878,0.00210659,-0.00309978,-0.232812,0.00302407,0.0121482,643,1275,-1.65867,-1.05096
-574,-251,-1.65698,1.12634,0.000284357,-0.0042975,-0.00198795,0.00102663,-0.00503978,-0.357355,0.00374921,0.0118443,650,1275,-1.65697,-1.12633
-567,-251,-1.66388,1.15356,-0.00136637,-0.00622623,-0.00269775,-0.000165535,-0.00742706,-0.418791,0.00489713,0.0104829,657,1275,-1.66391,-1.15352
-560,-251,-1.66064,1.19226,-0.00291727,-0.00763163,-0.00338708,-0.00114788,-0.00940102,-0.481403,0.00592192,0.0106323,664,1275,-1.66062,-1.19231
-553,-251,-1.61621,1.24719,-0.00454349,-0.00822022,-0.00390395,-0.00206672,-0.010697,-0.56535,0.00655199,0.0229904,671,1275,-1.61622,-1.24718
-546,-251,-1.44763,1.14722,-0.00653737,-0.00859356,-0.00425684,-0.00318623,-0.0119447,-0.666909,0.00714203,0.0425943,678,1275,-1.44761,-1.14716
-539,-251,-1.51776,0.115479,-0.00895763,-0.00829231,-0.00451679,-0.00409595,-0.013154,-0.822157,0.0077725,0.0451897,685,1275,-1.51779,-0.115522
-532,-251,-1.52795,-0.113892,-0.0116794,-0.00753632,-0.00452504,-0.0046312,-0.0145846,-1.00006,0.00860525,0.0462254,692,1275,-1.52797,0.113946
-525,-251,-1.5473,-0.459351,0,0,0,0,0,0,0,-1,699,1275,-1.54727,0.459391
-518,-251,-1.97217,0.112305,-0.018195,-0.00295098,-0.0036158,-0.00213681,-0.0190091,-1.34932,0.012024,0.0445905,706,1275,-1.97216,-0.112322
-511,-251,-2.17767,0.433472,-0.0219163,0.00137937,-0.00250492,0.00164567,-0.0221826,-1.46488,0.0153663,0.0397745,713,1275,-2.17764,-0.433414
-504,-251,-2.41388,0.714478,-0.0256927,0.00756978,-0.000778616,0.00758799,-0.0257109,-1.54741,0.0201519,0.0402813,720,1275,-2.41389,-0.714517
-497,-251,-2.45178,0.773804,-0.0292765,0.0155022,0.00165582,0.0155634,-0.0293377,1.53389,0.0263271,0.0459782,727,1275,-2.4518,-0.77385
-490,-251,0,0,0,0,0,0,0,0,0,-1,734,1275,0,0
-483,-251,0,0,0,0,0,0,0,0,0,-1,741,1275,0,0
-476,-251,0,0,0,0,0,0,0,0,0,-1,748,1275,0,0
-469,-251,0,0,0,0,0,0,0,0,0,-1,755,1275,0,0
-462,-251,0,0,0,0,0,0,0,0,0,-1,762,1275,0,0
-455,-251,0,0,0,0,0,0,0,0,0,-1,769,1275,0,0
-448,-251,0,0,0,0,0,0,0,0,0,-1,776,1275,0,0
-441,-251,0,0,0,0,0,0,0,0,0,-1,783,1275,0,0
-434,-251,0,0,0,0,0,0,0,0,0,-1,790,1275,0,0
-427,-251,0,0,0,0,0,0,0,0,0,-1,797,1275,0,0
-420,-251,0,0,0,0,0,0,0,0,0,-1,804,1275,0,0
-413,-251,0,0,0,0,0,0,0,0,0,-1,811,1275,0,0
-406,-251,0,0,0,0,0,0,0,0,0,-1,818,1275,0,0
-399,-251,0,0,0,0,0,0,0,0,0,-1,825,1275,0,0
-392,-251,0,0,0,0,0,0,0,0,0,-1,832,1275,0,0
-385,-251,0,0,0,0,0,0,0,0,0,-1,839,1275,0,0
-378,-251,0,0,0,0,0,0,0,0,0,-1,846,1275,0,0
-371,-251,0,0,0,0,0,0,0,0,0,-1,853,1275,0,0
-364,-251,0,0,0,0,0,0,0,0,0,-1,860,1275,0,0
-357,-251,0,0,0,0,0,0,0,0,0,-1,867,1275,0,0
-350,-251,0,0,0,0,0,0,0,0,0,-1,874,1275,0,0
-343,-251,0,0,0,0,0,0,0,0,0,-1,881,1275,0,0
-336,-251,0,0,0,0,0,0,0,0,0,-1,888,1275,0,0
-329,-251,0,0,0,0,0,0,0,0,0,-1,895,1275,0,0
-322,-251,0,0,0,0,0,0,0,0,0,-1,902,1275,0,0
-315,-251,0,0,0,0,0,0,0,0,0,-1,909,1275,0,0
-308,-251,0,0,0,0,0,0,0,0,0,-1,916,1275,0,0
-301,-251,0,0,0,0,0,0,0,0,0,-1,923,1275,0,0
-294,-251,0,0,0,0,0,0,0,0,0,-1,930,1275,0,0
-287,-251,0,0,0,0,0,0,0,0,0,-1,937,1275,0,0
-280,-251,0,0,0,0,0,0,0,0,0,-1,944,1275,0,0
-273,-251,0,0,0,0,0,0,0,0,0,-1,951,1275,0,0
-266,-251,0,0,0,0,0,0,0,0,0,-1,958,1275,0,0
-259,-251,0,0,0,0,0,0,0,0,0,-1,965,1275,0,0
-252,-251,0,0,0,0,0,0,0,0,0,-1,972,1275,0,0
-245,-251,0,0,0,0,0,0,0,0,0,-1,979,1275,0,0
-238,-251,0,0,0,0,0,0,0,0,0,-1,986,1275,0,0
-231,-251,0,0,0,0,0,0,0,0,0,-1,993,1275,0,0
-224,-251,0,0,0,0,0,0,0,0,0,-1,1000,1275,0,0
-217,-251,0,0,0,0,0,0,0,0,0,-1,1007,1275,0,0
-210,-251,0,0,0,0,0,0,0,0,0,-1,1014,1275,0,0
-203,-251,0,0,0,0,0,0,0,0,0,-1,1021,1275,0,0
-196,-251,0,0,0,0,0,0,0,0,0,-1,1028,1275,0,0
-189,-251,0,0,0,0,0,0,0,0,0,-1,1035,1275,0,0
-182,-251,0,0,0,0,0,0,0,0,0,-1,1042,1275,0,0
-175,-251,0,0,0,0,0,0,0,0,0,-1,1049,1275,0,0
-168,-251,0,0,0,0,0,0,0,0,0,-1,1056,1275,0,0
-161,-251,0,0,0,0,0,0,0,0,0,-1,1063,1275,0,0
-154,-251,0,0,0,0,0,0,0,0,0,-1,1070,1275,0,0
-147,-251,0,0,0,0,0,0,0,0,0,-1,1077,1275,0,0
-140,-251,0,0,0,0,0,0,0,0,0,-1,1084,1275,0,0
-133,-251,0,0,0,0,0,0,0,0,0,-1,1091,1275,0,0
-126,-251,0,0,0,0,0,0,0,0,0,-1,1098,1275,0,0
-119,-251,0,0,0,0,0,0,0,0,0,-1,1105,1275,0,0
-112,-251,0,0,0,0,0,0,0,0,0,-1,1112,1275,0,0
-105,-251,0,0,0,0,0,0,0,0,0,-1,1119,1275,0,0
-98,-251,0,0,0,0,0,0,0,0,0,-1,1126,1275,0,0
-91,-251,0,0,0,0,0,0,0,0,0,-1,1133,1275,0,0
-84,-251,0,0,0,0,0,0,0,0,0,-1,1140,1275,0,0
-77,-251,0,0,0,0,0,0,0,0,0,-1,1147,1275,0,0
-70,-251,0,0,0,0,0,0,0,0,0,-1,1154,1275,0,0
-63,-251,0,0,0,0,0,0,0,0,0,-1,1161,1275,0,0
-56,-251,0,0,0,0,0,0,0,0,0,-1,1168,1275,0,0
-49,-251,0,0,0,0,0,0,0,0,0,-1,1175,1275,0,0
-42,-251,0,0,0,0,0,0,0,0,0,-1,1182,1275,0,0
-35,-251,0,0,0,0,0,0,0,0,0,-1,1189,1275,0,0
-28,-251,0,0,0,0,0,0,0,0,0,-1,1196,1275,0,0
-21,-251,0,0,0,0,0,0,0,0,0,-1,1203,1275,0,0
-14,-251,0,0,0,0,0,0,0,0,0,-1,1210,1275,0,0
-7,-251,0,0,0,0,0,0,0,0,0,-1,1217,1275,0,0
0,-251,0,0,0,0,0,0,0,0,0,-1,1224,1275,0,0
7,-251,0,0,0,0,0,0,0,0,0,-1,1231,1275,0,0
14,-251,0,0,0,0,0,0,0,0,0,-1,1238,1275,0,0
21,-251,0,0,0,0,0,0,0,0,0,-1,1245,1275,0,0
28,-251,0,0,0,0,0,0,0,0,0,-1,1252,1275,0,0
35,-251,0,0,0,0,0,0,0,0,0,-1,1259,1275,0,0
42,-251,0,0,0,0,0,0,0,0,0,-1,1266,1275,0,0
49,-251,0,0,0,0,0,0,0,0,0,-1,1273,1275,0,0
56,-251,0,0,0,0,0,0,0,0,0,-1,1280,1275,0,0
63,-251,0,0,0,0,0,0,0,0,0,-1,1287,1275,0,0
70,-251,0,0,0,0,0,0,0,0,0,-1,1294,1275,0,0
77,-251,0,0,0,0,0,0,0,0,0,-1,1301,1275,0,0
84,-251,0,0,0,0,0,0,0,0,0,-1,1308,1275,0,0
91,-251,0,0,0,0,0,0,0,0,0,-1,1315,1275,0,0
98,-251,0,0,0,0,0,0,0,0,0,-1,1322,1275,0,0
105,-251,0,0,0,0,0,0,0,0,0,-1,1329,1275,0,0
112,-251,0,0,0,0,0,0,0,0,0,-1,1336,1275,0,0
119,-251,0,0,0,0,0,0,0,0,0,-1,1343,1275,0,0
126,-251,0,0,0,0,0,0,0,0,0,-1,1350,1275,0,0
133,-251,0,0,0,0,0,0,0,0,0,-1,1357,1275,0,0
140,-251,0,0,0,0,0,0,0,0,0,-1,1364,1275,0,0
147,-251,0,0,0,0,0,0,0,0,0,-1,1371,1275,0,0
154,-251,0,0,0,0,0,0,0,0,0,-1,1378,1275,0,0
161,-251,0,0,0,0,0,0,0,0,0,-1,1385,1275,0,0
168,-251,0,0,0,0,0,0,0,0,0,-1,1392,1275,0,0
175,-251,0,0,0,0,0,0,0,0,0,-1,1399,1275,0,0
182,-251,0,0,0,0,0,0,0,0,0,-1,1406,1275,0,0
189,-251,0,0,0,0,0,0,0,0,0,-1,1413,1275,0,0
196,-251,0,0,0,0,0,0,0,0,0,-1,1420,1275,0,0
203,-251,0,0,0,0,0,0,0,0,0,-1,1427,1275,0,0
210,-251,0,0,0,0,0,0,0,0,0,-1,1434,1275,0,0
217,-251,0,0,0,0,0,0,0,0,0,-1,1441,1275,0,0
224,-251,0,0,0,0,0,0,0,0,0,-1,1448,1275,0,0
231,-251,0,0,0,0,0,0,0,0,0,-1,1455,1275,0,0
238,-251,0,0,0,0,0,0,0,0,0,-1,1462,1275,0,0
245,-251,0,0,0,0,0,0,0,0,0,-1,1469,1275,0,0
252,-251,0,0,0,0,0,0,0,0,0,-1,1476,1275,0,0
259,-251,0,0,0,0,0,0,0,0,0,-1,1483,1275,0,0
266,-251,0,0,0,0,0,0,0,0,0,-1,1490,1275,0,0
273,-251,0,0,0,0,0,0,0,0,0,-1,1497,1275,0,0
280,-251,0,0,0,0,0,0,0,0,0,-1,1504,1275,0,0
287,-251,0,0,0,0,0,0,0,0,0,-1,1511,1275,0,0
294,-251,0,0,0,0,0,0,0,0,0,-1,1518,1275,0,0
301,-251,0,0,0,0,0,0,0,0,0,-1,1525,1275,0,0
308,-251,0,0,0,0,0,0,0,0,0,-1,1532,1275,0,0
315,-251,0,0,0,0,0,0,0,0,0,-1,1539,1275,0,0
322,-251,0,0,0,0,0,0,0,0,0,-1,1546,1275,0,0
329,-251,0,0,0,0,0,0,0,0,0,-1,1553,1275,0,0
336,-251,0,0,0,0,0,0,0,0,0,-1,1560,1275,0,0
343,-251,0,0,0,0,0,0,0,0,0,-1,1567,1275,0,0
350,-251,0,0,0,0,0,0,0,0,0,-1,1574,1275,0,0
357,-251,0,0,0,0,0,0,0,0,0,-1,1581,1275,0,0
364,-251,0,0,0,0,0,0,0,0,0,-1,1588,1275,0,0
371,-251,0,0,0,0,0,0,0,0,0,-1,1595,1275,0,0
378,-251,0,0,0,0,0,0,0,0,0,-1,1602,1275,0,0
385,-251,0,0,0,0,0,0,0,0,0,-1,1609,1275,0,0
392,-251,0,0,0,0,0,0,0,0,0,-1,1616,1275,0,0
399,-251,0,0,0,0,0,0,0,0,0,-1,1623,1275,0,0
406,-251,0,0,0,0,0,0,0,0,0,-1,1630,1275,0,0
413,-251,0,0,0,0,0,0,0,0,0,-1,1637,1275,0,0
420,-251,0,0,0,0,0,0,0,0,0,-1,1644,1275,0,0
427,-251,0,0,0,0,0,0,0,0,0,-1,1651,1275,0,0
434,-251,0,0,0,0,0,0,0,0,0,-1,1658,1275,0,0
441,-251,0,0,0,0,0,0,0,0,0,-1,1665,1275,0,0
448,-251,0,0,0,0,0,0,0,0,0,-1,1672,1275,0,0
455,-251,0,0,0,0,0,0,0,0,0,-1,1679,1275,0,0
462,-251,0,0,0,0,0,0,0,0,0,-1,1686,1275,0,0
469,-251,0,0,0,0,0,0,0,0,0,-1,1693,1275,0,0
476,-251,0,0,0,0,0,0,0,0,0,-1,1700,1275,0,0
483,-251,0,0,0,0,0,0,0,0,0,-1,1707,1275,0,0
490,-251,0,0,0,0,0,0,0,0,0,-1,1714,1275,0,0
497,-251,0,0,0,0,0,0,0,0,0,-1,1721,1275,0,0
504,-251,0,0,0,0,0,0,0,0,0,-1,1728,1275,0,0
511,-251,0,0,0,0,0,0,0,0,0,-1,1735,1275,0,0
518,-251,0,0,0,0,0,0,0,0,0,-1,1742,1275,0,0
525,-251,0,0,0,0,0,0,0,0,0,-1,1749,1275,0,0
532,-251,0,0,0,0,0,0,0,0,0,-1,1756,1275,0,0
539,-251,0,0,0,0,0,0,0,0,0,-1,1763,1275,0,0
546,-251,0,0,0,0,0,0,0,0,0,-1,1770,1275,0,0
553,-251,0,0,0,0,0,0,0,0,0,-1,1777,1275,0,0
560,-251,0,0,0,0,0,0,0,0,0,-1,1784,1275,0,0
567,-251,0,0,0,0,0,0,0,0,0,-1,1791,1275,0,0
574,-251,0,0,0,0,0,0,0,0,0,-1,1798,1275,0,0
581,-251,0,0,0,0,0,0,0,0,0,-1,1805,1275,0,0
588,-251,0,0,0,0,0,0,0,0,0,-1,1812,1275,0,0
595,-251,0,0,0,0,0,0,0,0,0,-1,1819,1275,0,0
602,-251,0,0,0,0,0,0,0,0,0,-1,1826,1275,0,0
609,-251,7.16943,0.974731,-0.00990678,-0.00193659,0.00279118,-0.00105633,-0.010787,1.2653,0.00686639,0.0313678,1833,1275,7.16943,-0.974716
616,-251,7.20313,1.0105,-0.00878534,-0.000988806,0.00293547,-7.17118e-06,-0.00976698,1.24808,0.00650893,0.0260996,1840,1275,7.20316,-1.01046
623,-251,7.1687,1.01709,-0.00704143,1.48303e-05,0.00342948,0.00140697,-0.00843357,1.18519,0.00614529,0.0227996,1847,1275,7.16875,-1.01704
630,-251,7.08337,0.945313,-0.00506789,0.0015998,0.00388246,0.00338337,-0.00685147,1.14016,0.00602111,0.0344461,1854,1275,7.08334,-0.94532
637,-251,7.00391,0.845215,-0.0033401,0.00315948,0.00389461,0.00498208,-0.0051627,1.13309,0.0058574,0.0398919,1861,1275,7.00391,-0.845229
644,-251,6.82764,0.761841,-0.00188204,0.00445915,0.00368125,0.00614698,-0.00356987,1.1409,0.00567541,0.0480969,1868,1275,6.82758,-0.761844
651,-251,6.85767,0.653931,0,0,0,0,0,0,0,-1,1875,1275,6.85768,-0.653975
658,-251,5.08411,2.29285,0,0,0,0,0,0,0,-1,1882,1275,5.08408,-2.2929
665,-251,5.65259,1.85889,0.000966543,0.00576698,0.00253166,0.00685536,-0.00012184,1.16477,0.00461139,0.0440287,1889,1275,5.65257,-1.85887
672,-251,6.2262,1.63538,0.00128307,0.00537097,0.00205885,0.00622816,0.000425887,1.17628,0.00401767,0.0442552,1896,1275,6.22618,-1.63532
679,-251,6.2655,1.62537,0.00168304,0.00486405,0.00156707,0.00550635,0.00104074,1.18181,0.00337786,0.0363565,1903,1275,6.26551,-1.62542
686,-251,6.22595,1.59155,0.00172537,0.00393894,0.00116013,0.00443555,0.00122876,1.16633,0.00264438,0.0150501,1910,1275,6.226,-1.59153
693,-251,6.23462,1.56714,0.00138105,0.00344418,0.000798749,0.00371727,0.00110796,1.24136,0.00220374,0.00885699,1917,1275,6.23467,-1.56713
700,-251,6.24463,1.521,0.00143899,0.00275491,0.00043712,0.00288688,0.00130702,1.2776,0.00166922,0.00884393,1924,1275,6.24462,-1.52101
707,-251,6.26904,1.45984,0.00158189,0.000723151,0.000586091,0.00187906,0.00042598,0.469263,0.00113762,0.010871,1931,1275,6.26898,-1.45982
714,-251,6.26392,1.42017,0.00181567,-0.000569368,0.000860112,0.00209349,-0.000847187,0.312425,0.00174789,0.0119435,1938,1275,6.26386,-1.42015
721,-251,6.24426,1.36243,0.00200943,-0.00120334,0.000471016,0.00207706,-0.00127097,0.14261,0.00195157,0.0137946,1945,1275,6.24426,-1.36245
728,-251,6.21741,1.29675,0.00176134,-0.00172664,0.000259865,0.0017806,-0.0017459,0.0739587,0.00203606,0.0149249,1952,1275,6.21737,-1.29671
735,-251,6.23853,1.25317,0.00171075,-0.00223093,-6.93031e-05,0.00171197,-0.00223215,-0.0175749,0.00228373,0.0141187,1959,1275,6.23855,-1.25312
742,-251,6.2594,1.22925,0.00182016,-0.00264333,-0.000433894,0.00186194,-0.00268511,-0.096012,0.00263955,0.0136974,1966,1275,6.25937,-1.22929
749,-251,6.25647,1.20874,0.00180411,-0.00319092,-0.00128628,0.00211589,-0.00350269,-0.237797,0.00327666,0.0210947,1973,1275,6.25641,-1.20876
756,-251,6.11499,1.28479,0.00133392,-0.00372526,-0.00264701,0.00246568,-0.00485702,-0.404039,0.00430225,0.0362148,1980,1275,6.11504,-1.28485
763,-251,6.43274,1.11035,0.00026703,-0.00417204,-0.00465827,0.00320752,-0.00711253,-0.563074,0.00609881,0.0447387,1987,1275,6.4328,-1.11031
770,-251,5.86731,1.05371,0,0,0,0,0,0,0,-1,1994,1275,5.86732,-1.05369
777,-251,5.15674,1.46008,-0.00499101,-0.00444618,-0.0114348,0.00671941,-0.0161566,-0.797307,0.0135769,0.0458313,2001,1275,5.15673,-1.46003
784,-251,4.64209,1.11621,-0.00996701,-0.00402671,-0.0167109,0.00997598,-0.0239697,-0.873348,0.020146,0.0416571,2008,1275,4.64206,-1.11617
791,-251,0,0,0,0,0,0,0,0,0,-1,2015,1275,0,0
798,-251,0,0,0,0,0,0,0,0,0,-1,2022,1275,0,0
805,-251,0,0,0,0,0,0,0,0,0,-1,2029,1275,0,0
812,-251,0,0,0,0,0,0,0,0,0,-1,2036,1275,0,0
-700,-258,0,0,0,0,0,0,0,0,0,-1,524,1282,0,0
-693,-258,0,0,0,0,0,0,0,0,0,-1,531,1282,0,0
-686,-258,0,0,0,0,0,0,0,0,0,-1,538,1282,0,0
-679,-258,0,0,0,0,0,0,0,0,0,-1,545,1282,0,0
-672,-258,0,0,0,0,0,0,0,0,0,-1,552,1282,0,0
-665,-258,-0.1026,-1.95557,0,0,0,0,0,0,0,-1,559,1282,-0.102596,1.95561
-658,-258,0.119812,-0.921265,0,0,0,0,0,0,0,-1,566,1282,0.119841,0.921249
-651,-258,-0.906555,-1.30444,0,0,0,0,0,0,0,-1,573,1282,-0.906573,1.3044
-644,-258,-0.851807,-0.768311,0,0,0,0,0,0,0,-1,580,1282,-0.851804,0.768317
-637,-258,-2.29041,0.89209,0,0,0,0,0,0,0,-1,587,1282,-2.29039,-0.892144
-630,-258,-2.26373,0.564331,-0.00616742,0.0142271,0.0148164,0.0220162,-0.0139565,1.08679,0.0209419,0.0459625,594,1282,-2.26373,-0.564391
-623,-258,-1.89807,0.614624,-0.00197742,0.011008,0.0110808,0.0173582,-0.00832761,1.05041,0.0151322,0.0431535,601,1282,-1.89807,-0.614682
-616,-258,-1.70923,0.79895,0.00101174,0.00868041,0.00796838,0.013689,-0.00399685,1.00964,0.0107098,0.0312174,608,1282,-1.70924,-0.798992
-609,-258,-1.63666,0.838989,0.00273536,0.00588938,0.00509634,0.00964713,-0.00102238,0.935445,0.00679789,0.0169397,615,1282,-1.63664,-0.838947
-602,-258,-1.62378,0.882324,0.00381303,0.00295203,0.00293017,0.00634416,0.000420905,0.71246,0.00409635,0.0134376,622,1282,-1.62378,-0.882385
-595,-258,-1.61218,0.934326,0.00337323,0.00144618,0.00147217,0.00416915,0.000650261,0.495634,0.00259004,0.0105512,629,1282,-1.6122,-0.934381
-588,-258,-1.58539,0.999023,0.00302911,-8.12368e-05,-5.15763e-05,0.00302997,-8.20919e-05,-0.0165761,0.00204789,0.0115164,636,1282,-1.58537,-0.999053
-581,-258,-1.59595,1.05713,0.00212615,-0.00241413,-0.00107751,0.00236889,-0.00265687,-0.221579,0.00290321,0.0131884,643,1282,-1.59594,-1.05708
-574,-258,-1.59076,1.11853,0.000712901,-0.0039918,-0.00184345,0.00134917,-0.00462807,-0.332349,0.00361991,0.0133981,650,1282,-1.59074,-1.11856
-567,-258,-1.59436,1.16772,-0.00091318,-0.00603326,-0.00253612,0.000130349,-0.00707679,-0.390352,0.0047619,0.012786,657,1282,-1.59437,-1.16772
-560,-258,-1.60858,1.19507,-0.00246586,-0.00758284,-0.00330098,-0.00084795,-0.00920075,-0.455721,0.00587163,0.0172494,664,1282,-1.60856,-1.19502
-553,-258,-1.59338,1.25818,-0.00418611,-0.00821121,-0.00394519,-0.00176979,-0.0106275,-0.54954,0.00657497,0.0202234,671,1282,-1.59338,-1.25816
-546,-258,-1.51587,1.27197,-0.00634868,-0.00870884,-0.00438532,-0.00298744,-0.0120701,-0.653962,0.00725881,0.0375094,678,1282,-1.51584,-1.27199
-539,-258,-1.36731,1.16223,-0.00905932,-0.00853282,-0.00472382,-0.00406491,-0.0135272,-0.813233,0.00801449,0.045695,685,1282,-1.36732,-1.16228
-532,-258,-1.68335,-0.0899658,-0.0120978,-0.00794132,-0.00487348,-0.00472147,-0.0153177,-0.986944,0.00905789,0.0471999,692,1282,-1.68335,0.0899862
-525,-258,-1.59918,0.00512695,0,0,0,0,0,0,0,-1,699,1282,-1.59921,-0.0050968
-518,-258,-1.84448,0.215454,-0.0195556,-0.00377689,-0.00431981,-0.00267166,-0.0206609,-1.32032,0.0129754,0.0460748,706,1282,-1.84447,-0.215407
-511,-258,-2.07019,0.478882,-0.023951,0.000263439,-0.00340685,0.000733637,-0.0244212,-1.43365,0.0165307,0.0426847,713,1282,-2.07017,-0.478847
-504,-258,-2.30762,0.608887,-0.0285977,0.00602171,-0.00187547,0.00612302,-0.028699,-1.51683,0.0214667,0.0399829,720,1282,-2.30764,-0.608864
-497,-258,-2.37909,0.708374,-0.0332779,0.0134675,0.000439479,0.0134716,-0.0332821,1.5614,0.0277892,0.0440542,727,1282,-2.37906,-0.708331
-490,-258,-2.47888,0.761841,-0.0369132,0.0214965,0.00350104,0.0217056,-0.0371223,1.51114,0.0343508,0.0418732,734,1282,-2.4789,-0.761818
-483,-258,0,0,0,0,0,0,0,0,0,-1,741,1282,0,0
-476,-258,0,0,0,0,0,0,0,0,0,-1,748,1282,0,0
-469,-258,0,0,0,0,0,0,0,0,0,-1,755,1282,0,0
-462,-258,0,0,0,0,0,0,0,0,0,-1,762,1282,0,0
-455,-258,0,0,0,0,0,0,0,0,0,-1,769,1282,0,0
-448,-258,0,0,0,0,0,0,0,0,0,-1,776,1282,0,0
-441,-258,0,0,0,0,0,0,0,0,0,-1,783,1282,0,0
-434,-258,0,0,0,0,0,0,0,0,0,-1,790,1282,0,0
-427,-258,0,0,0,0,0,0,0,0,0,-1,797,1282,0,0
-420,-258,0,0,0,0,0,0,0,0,0,-1,804,1282,0,0
-413,-258,0,0,0,0,0,0,0,0,0,-1,811,1282,0,0
-406,-258,0,0,0,0,0,0,0,0,0,-1,818,1282,0,0
-399,-258,0,0,0,0,0,0,0,0,0,-1,825,1282,0,0
-392,-258,0,0,0,0,0,0,0,0,0,-1,832,1282,0,0
-385,-258,0,0,0,0,0,0,0,0,0,-1,839,1282,0,0
-378,-258,0,0,0,0,0,0,0,0,0,-1,846,1282,0,0
-371,-258,0,0,0,0,0,0,0,0,0,-1,853,1282,0,0
-364,-258,0,0,0,0,0,0,0,0,0,-1,860,1282,0,0
-357,-258,0,0,0,0,0,0,0,0,0,-1,867,1282,0,0
-350,-258,0,0,0,0,0,0,0,0,0,-1,874,1282,0,0
-343,-258,0,0,0,0,0,0,0,0,0,-1,881,1282,0,0
-336,-258,0,0,0,0,0,0,0,0,0,-1,888,1282,0,0
-329,-258,0,0,0,0,0,0,0,0,0,-1,895,1282,0,0
-322,-258,0,0,0,0,0,0,0,0,0,-1,902,1282,0,0
-315,-258,0,0,0,0,0,0,0,0,0,-1,909,1282,0,0
-308,-258,0,0,0,0,0,0,0,0,0,-1,916,1282,0,0
-301,-258,0,0,0,0,0,0,0,0,0,-1,923,1282,0,0
-294,-258,0,0,0,0,0,0,0,0,0,-1,930,1282,0,0
-287,-258,0,0,0,0,0,0,0,0,0,-1,937,1282,0,0
-280,-258,0,0,0,0,0,0,0,0,0,-1,944,1282,0,0
-273,-258,0,0,0,0,0,0,0,0,0,-1,951,1282,0,0
-266,-258,0,0,0,0,0,0,0,0,0,-1,958,1282,0,0
-259,-258,0,0,0,0,0,0,0,0,0,-1,965,1282,0,0
-252,-258,0,0,0,0,0,0,0,0,0,-1,972,1282,0,0
-245,-258,0,0,0,0,0,0,0,0,0,-1,979,1282,0,0
-238,-258,0,0,0,0,0,0,0,0,0,-1,986,1282,0,0
-231,-258,0,0,0,0,0,0,0,0,0,-1,993,1282,0,0
-224,-258,0,0,0,0,0,0,0,0,0,-1,1000,1282,0,0
-217,-258,0,0,0,0,0,0,0,0,0,-1,1007,1282,0,0
-210,-258,0,0,0,0,0,0,0,0,0,-1,1014,1282,0,0
-203,-258,0,0,0,0,0,0,0,0,0,-1,1021,1282,0,0
-196,-258,0,0,0,0,0,0,0,0,0,-1,1028,1282,0,0
-189,-258,0,0,0,0,0,0,0,0,0,-1,1035,1282,0,0
-182,-258,0,0,0,0,0,0,0,0,0,-1,1042,1282,0,0
-175,-258,0,0,0,0,0,0,0,0,0,-1,1049,1282,0,0
-168,-258,0,0,0,0,0,0,0,0,0,-1,1056,1282,0,0
-161,-258,0,0,0,0,0,0,0,0,0,-1,1063,1282,0,0
-154,-258,0,0,0,0,0,0,0,0,0,-1,1070,1282,0,0
-147,-258,0,0,0,0,0,0,0,0,0,-1,1077,1282,0,0
-140,-258,0,0,0,0,0,0,0,0,0,-1,1084,1282,0,0
-133,-258,0,0,0,0,0,0,0,0,0,-1,1091,1282,0,0
-126,-258,0,0,0,0,0,0,0,0,0,-1,1098,1282,0,0
-119,-258,0,0,0,0,0,0,0,0,0,-1,1105,1282,0,0
-112,-258,0,0,0,0,0,0,0,0,0,-1,1112,1282,0,0
-105,-258,0,0,0,0,0,0,0,0,0,-1,1119,1282,0,0
-98,-258,0,0,0,0,0,0,0,0,0,-1,1126,1282,0,0
-91,-258,0,0,0,0,0,0,0,0,0,-1,1133,1282,0,0
-84,-258,0,0,0,0,0,0,0,0,0,-1,1140,1282,0,0
-77,-258,0,0,0,0,0,0,0,0,0,-1,1147,1282,0,0
-70,-258,0,0,0,0,0,0,0,0,0,-1,1154,1282,0,0
-63,-258,0,0,0,0,0,0,0,0,0,-1,1161,1282,0,0
-56,-258,0,0,0,0,0,0,0,0,0,-1,1168,1282,0,0
-49,-258,0,0,0,0,0,0,0,0,0,-1,1175,1282,0,0
-42,-258,0,0,0,0,0,0,0,0,0,-1,1182,1282,0,0
-35,-258,0,0,0,0,0,0,0,0,0,-1,1189,1282,0,0
-28,-258,0,0,0,0,0,0,0,0,0,-1,1196,1282,0,0
-21,-258,0,0,0,0,0,0,0,0,0,-1,1203,1282,0,0
-14,-258,0,0,0,0,0,0,0,0,0,-1,1210,1282,0,0
-7,-258,0,0,0,0,0,0,0,0,0,-1,1217,1282,0,0
0,-258,0,0,0,0,0,0,0,0,0,-1,1224,1282,0,0
7,-258,0,0,0,0,0,0,0,0,0,-1,1231,1282,0,0
14,-258,0,0,0,0,0,0,0,0,0,-1,1238,1282,0,0
21,-258,0,0,0,0,0,0,0,0,0,-1,1245,1282,0,0
28,-258,0,0,0,0,0,0,0,0,0,-1,1252,1282,0,0
35,-258,0,0,0,0,0,0,0,0,0,-1,1259,1282,0,0
42,-258,0,0,0,0,0,0,0,0,0,-1,1266,1282,0,0
49,-258,0,0,0,0,0,0,0,0,0,-1,1273,1282,0,0
56,-258,0,0,0,0,0,0,0,0,0,-1,1280,1282,0,0
63,-258,0,0,0,0,0,0,0,0,0,-1,1287,1282,0,0
70,-258,0,0,0,0,0,0,0,0,0,-1,1294,1282,0,0
77,-258,0,0,0,0,0,0,0,0,0,-1,1301,1282,0,0
84,-258,0,0,0,0,0,0,0,0,0,-1,1308,1282,0,0
91,-258,0,0,0,0,0,0,0,0,0,-1,1315,1282,0,0
98,-258,0,0,0,0,0,0,0,0,0,-1,1322,1282,0,0
105,-258,0,0,0,0,0,0,0,0,0,-1,1329,1282,0,0
112,-258,0,0,0,0,0,0,0,0,0,-1,1336,1282,0,0
119,-258,0,0,0,0,0,0,0,0,0,-1,1343,1282,0,0
126,-258,0,0,0,0,0,0,0,0,0,-1,1350,1282,0,0
133,-258,0,0,0,0,0,0,0,0,0,-1,1357,1282,0,0
140,-258,0,0,0,0,0,0,0,0,0,-1,1364,1282,0,0
147,-258,0,0,0,0,0,0,0,0,0,-1,1371,1282,0,0
154,-258,0,0,0,0,0,0,0,0,0,-1,1378,1282,0,0
161,-258,0,0,0,0,0,0,0,0,0,-1,1385,1282,0,0
168,-258,0,0,0,0,0,0,0,0,0,-1,1392,1282,0,0
175,-258,0,0,0,0,0,0,0,0,0,-1,1399,1282,0,0
182,-258,0,0,0,0,0,0,0,0,0,-1,1406,1282,0,0
189,-258,0,0,0,0,0,0,0,0,0,-1,1413,1282,0,0
196,-258,0,0,0,0,0,0,0,0,0,-1,1420,1282,0,0
203,-258,0,0,0,0,0,0,0,0,0,-1,1427,1282,0,0
210,-258,0,0,0,0,0,0,0,0,0,-1,1434,1282,0,0
217,-258,0,0,0,0,0,0,0,0,0,-1,1441,1282,0,0
224,-258,0,0,0,0,0,0,0,0,0,-1,1448,1282,0,0
231,-258,0,0,0,0,0,0,0,0,0,-1,1455,1282,0,0
238,-258,0,0,0,0,0,0,0,0,0,-1,1462,1282,0,0
245,-258,0,0,0,0,0,0,0,0,0,-1,1469,1282,0,0
252,-258,0,0,0,0,0,0,0,0,0,-1,1476,1282,0,0
259,-258,0,0,0,0,0,0,0,0,0,-1,1483,1282,0,0
266,-258,0,0,0,0,0,0,0,0,0,-1,1490,1282,0,0
273,-258,0,0,0,0,0,0,0,0,0,-1,1497,1282,0,0
280,-258,0,0,0,0,0,0,0,0,0,-1,1504,1282,0,0
287,-258,0,0,0,0,0,0,0,0,0,-1,1511,1282,0,0
294,-258,0,0,0,0,0,0,0,0,0,-1,1518,1282,0,0
301,-258,0,0,0,0,0,0,0,0,0,-1,1525,1282,0,0
308,-258,0,0,0,0,0,0,0,0,0,-1,1532,1282,0,0
315,-258,0,0,0,0,0,0,0,0,0,-1,1539,1282,0,0
322,-258,0,0,0,0,0,0,0,0,0,-1,1546,1282,0,0
329,-258,0,0,0,0,0,0,0,0,0,-1,1553,1282,0,0
336,-258,0,0,0,0,0,0,0,0,0,-1,1560,1282,0,0
343,-258,0,0,0,0,0,0,0,0,0,-1,1567,1282,0,0
350,-258,0,0,0,0,0,0,0,0,0,-1,1574,1282,0,0
357,-258,0,0,0,0,0,0,0,0,0,-1,1581,1282,0,0
364,-258,0,0,0,0,0,0,0,0,0,-1,1588,1282,0,0
371,-258,0,0,0,0,0,0,0,0,0,-1,1595,1282,0,0
378,-258,0,0,0,0,0,0,0,0,0,-1,1602,1282,0,0
385,-258,0,0,0,0,0,0,0,0,0,-1,1609,1282,0,0
392,-258,0,0,0,0,0,0,0,0,0,-1,1616,1282,0,0
399,-258,0,0,0,0,0,0,0,0,0,-1,1623,1282,0,0
406,-258,0,0,0,0,0,0,0,0,0,-1,1630,1282,0,0
413,-258,0,0,0,0,0,0,0,0,0,-1,1637,1282,0,0
420,-258,0,0,0,0,0,0,0,0,0,-1,1644,1282,0,0
427,-258,0,0,0,0,0,0,0,0,0,-1,1651,1282,0,0
434,-258,0,0,0,0,0,0,0,0,0,-1,1658,1282,0,0
441,-258,0,0,0,0,0,0,0,0,0,-1,1665,1282,0,0
448,-258,0,0,0,0,0,0,0,0,0,-1,1672,1282,0,0
455,-258,0,0,0,0,0,0,0,0,0,-1,1679,1282,0,0
462,-258,0,0,0,0,0,0,0,0,0,-1,1686,1282,0,0
469,-258,0,0,0,0,0,0,0,0,0,-1,1693,1282,0,0
476,-258,0,0,0,0,0,0,0,0,0,-1,1700,1282,0,0
483,-258,0,0,0,0,0,0,0,0,0,-1,1707,1282,0,0
490,-258,0,0,0,0,0,0,0,0,0,-1,1714,1282,0,0
497,-258,0,0,0,0,0,0,0,0,0,-1,1721,1282,0,0
504,-258,0,0,0,0,0,0,0,0,0,-1,1728,1282,0,0
511,-258,0,0,0,0,0,0,0,0,0,-1,1735,1282,0,0
518,-258,0,0,0,0,0,0,0,0,0,-1,1742,1282,0,0
525,-258,0,0,0,0,0,0,0,0,0,-1,1749,1282,0,0
532,-258,0,0,0,0,0,0,0,0,0,-1,1756,1282,0,0
539,-258,0,0,0,0,0,0,0,0,0,-1,1763,1282,0,0
546,-258,0,0,0,0,0,0,0,0,0,-1,1770,1282,0,0
553,-258,0,0,0,0,0,0,0,0,0,-1,1777,1282,0,0
560,-258,0,0,0,0,0,0,0,0,0,-1,1784,1282,0,0
567,-258,0,0,0,0,0,0,0,0,0,-1,1791,1282,0,0
574,-258,0,0,0,0,0,0,0,0,0,-1,1798,1282,0,0
581,-258,0,0,0,0,0,0,0,0,0,-1,1805,1282,0,0
588,-258,0,0,0,0,0,0,0,0,0,-1,1812,1282,0,0
595,-258,0,0,0,0,0,0,0,0,0,-1,1819,1282,0,0
602,-258,0,0,0,0,0,0,0,0,0,-1,1826,1282,0,0
609,-258,7.14893,0.998779,-0.011693,-0.0041506,0.0041642,-0.00230374,-0.0135398,1.15335,0.00836505,0.0250705,1833,1282,7.14894,-0.998836
616,-258,7.1582,1.03503,-0.00933749,-0.002593,0.00378568,-0.000895392,-0.0110351,1.14925,0.00707718,0.0228199,1840,1282,7.15823,-1.03506
623,-258,7.07007,0.946289,-0.00683619,-0.00106694,0.00376662,0.000792739,-0.00869587,1.11218,0.00607875,0.030817,1847,1282,7.07012,-0.946255
630,-258,6.96741,0.841431,-0.00442137,0.000828823,0.00380998,0.00283051,-0.00642305,1.08705,0.00547511,0.0423562,1854,1282,6.9674,-0.841471
637,-258,6.74561,0.796265,-0.00242987,0.00260806,0.00359924,0.00448224,-0.00430405,1.09071,0.00507311,0.0418578,1861,1282,6.74557,-0.796307
644,-258,6.68237,0.706787,-0.000850341,0.00407138,0.00327475,0.00570683,-0.0024858,1.10762,0.00485035,0.04574,1868,1282,6.68243,-0.706832
651,-258,5.09668,2.8042,0.000404849,0.00508083,0.00294468,0.0065028,-0.00101713,1.12092,0.00471099,0.0460394,1875,1282,5.09666,-2.80416
658,-258,5.56116,2.17383,0.00140188,0.00587224,0.00249524,0.00698703,0.000287097,1.15064,0.00456533,0.0435688,1882,1282,5.56117,-2.17377
665,-258,5.89172,1.65051,0.00196105,0.00574725,0.0021516,0.00672002,0.000988274,1.14618,0.00418962,0.0415886,1889,1282,5.89167,-1.65057
672,-258,6.12354,1.41443,0.00214492,0.00541857,0.00176095,0.00618594,0.00137755,1.15984,0.00375008,0.0427548,1896,1282,6.1235,-1.41439
679,-258,6.22754,1.59448,0.00242095,0.00497195,0.00135851,0.00555991,0.001833,1.16235,0.0032715,0.0281128,1903,1282,6.22757,-1.59445
686,-258,6.20447,1.59644,0.00227772,0.00401822,0.00102792,0.0044948,0.00180113,1.13666,0.00261207,0.0155376,1910,1282,6.20452,-1.59648
693,-258,6.21973,1.55518,0.00174101,0.0035247,0.000771439,0.00381205,0.00145366,1.21423,0.00222145,0.00939721,1917,1282,6.21969,-1.55512
700,-258,6.2157,1.50183,0.00169197,0.00292012,0.000504114,0.00310053,0.00151155,1.22711,0.00179028,0.00868862,1924,1282,6.21573,-1.50189
707,-258,6.2262,1.45459,0.00176792,0.000898887,0.000794209,0.00223871,0.000428101,0.535088,0.00137221,0.0104729,1931,1282,6.22625,-1.45462
714,-258,6.22412,1.41138,0.00201403,-0.000337502,0.00122453,0.00253588,-0.000859354,0.402856,0.00203835,0.0100341,1938,1282,6.22414,-1.41141
721,-258,6.21326,1.36011,0.00228536,-0.000944548,0.00104623,0.00259464,-0.00125383,0.287427,0.00226641,0.0114706,1945,1282,6.21329,-1.36007
728,-258,6.20496,1.28906,0.00208217,-0.00142833,0.000985246,0.00233978,-0.00168594,0.255744,0.00233445,0.0117656,1952,1282,6.20501,-1.28902
735,-258,6.20349,1.23315,0.00212455,-0.00198069,0.000820497,0.00228247,-0.0021386,0.190138,0.00255296,0.0147613,1959,1282,6.20344,-1.23311
742,-258,6.20789,1.22986,0.00235877,-0.00247089,0.00067875,0.00245235,-0.00256447,0.137003,0.0028967,0.0153501,1966,1282,6.2079,-1.22987
749,-258,6.16309,1.25684,0.00237015,-0.00313035,0.000108011,0.00237227,-0.00313247,0.0196265,0.00318825,0.0253798,1973,1282,6.16303,-1.25684
756,-258,6.14038,0.927246,0,0,0,0,0,0,0,-1,1980,1282,6.14043,-0.927285
763,-258,6.47266,0.908569,0.00060449,-0.00470761,-0.00270723,0.00174102,-0.00584414,-0.39747,0.0045879,0.0480796,1987,1282,6.47268,-0.908624
770,-258,6.11096,1.21411,-0.00190092,-0.00555543,-0.0053398,0.00191561,-0.00937197,-0.620546,0.00697476,0.045788,1994,1282,6.1109,-1.21417
777,-258,5.74121,1.52222,-0.00619395,-0.00637456,-0.00916876,0.00288494,-0.0154535,-0.780474,0.0113864,0.0432145,2001,1282,5.74125,-1.52226
784,-258,5.28918,1.552,-0.0130121,-0.00707813,-0.0145876,0.00484117,-0.0249314,-0.885724,0.0184476,0.0438806,2008,1282,5.28915,-1.55205
791,-258,0,0,0,0,0,0,0,0,0,-1,2015,1282,0,0
798,-258,0,0,0,0,0,0,0,0,0,-1,2022,1282,0,0
805,-258,0,0,0,0,0,0,0,0,0,-1,2029,1282,0,0
812,-258,0,0,0,0,0,0,0,0,0,-1,2036,1282,0,0
-700,-265,0,0,0,0,0,0,0,0,0,-1,524,1289,0,0
-693,-265,0,0,0,0,0,0,0,0,0,-1,531,1289,0,0
-686,-265,0,0,0,0,0,0,0,0,0,-1,538,1289,0,0
-679,-265,0,0,0,0,0,0,0,0,0,-1,545,1289,0,0
-672,-265,0,0,0,0,0,0,0,0,0,-1,552,1289,0,0
-665,-265,-0.079834,-1.81079,0,0,0,0,0,0,0,-1,559,1289,-0.079849,1.8108
-658,-265,-0.281372,-1.19348,0,0,0,0,0,0,0,-1,566,1289,-0.281367,1.19347
-651,-265,-0.394714,-1.20056,0,0,0,0,0,0,0,-1,573,1289,-0.394726,1.2005
-644,-265,-0.382813,-0.596802,-0.0242479,0.0234891,0.0262735,0.0351172,-0.035876,1.15413,0.0409887,0.0468373,580,1289,-0.382825,0.596752
-637,-265,-1.67841,1.02063,-0.0153929,0.0189602,0.0206218,0.0286219,-0.0250546,1.13265,0.0310129,0.0430965,587,1289,-1.67841,-1.02061
-630,-265,-1.77362,0.411133,-0.008719,0.0149379,0.0156555,0.022731,-0.0165121,1.10892,0.0227516,0.0433313,594,1289,-1.77365,-0.41113
-623,-265,-1.94049,0.067627,-0.00398172,0.0115133,0.0115066,0.0176375,-0.010106,1.08169,0.0162133,0.0456904,601,1289,-1.94047,-0.067654
-616,-265,-2.03522,-0.248535,0,0,0,0,0,0,0,-1,608,1289,-2.03524,0.248481
-609,-265,-1.58148,0.835449,0.00148147,0.00621666,0.00518471,0.00954878,-0.00185065,0.999583,0.00706401,0.0159601,615,1289,-1.58148,-0.835477
-602,-265,-1.56079,0.875854,0.00295834,0.00322363,0.00294659,0.00604056,0.000141409,0.807891,0.00398074,0.0140663,622,1289,-1.56081,-0.875829
-595,-265,-1.55823,0.949951,0.00284809,0.00191166,0.00142258,0.00387752,0.000882226,0.626416,0.00234688,0.0115917,629,1289,-1.55822,-0.949961
-588,-265,-1.54065,1.01086,0.00273999,0.000619915,-6.34297e-05,0.00274189,0.000618019,-0.0298829,0.00166071,0.0103956,636,1289,-1.54066,-1.01091
-581,-265,-1.54376,1.07117,0.00203366,-0.00167829,-0.000970425,0.00227205,-0.00191668,-0.240886,0.00242127,0.0127689,643,1289,-1.54374,-1.07119
-574,-265,-1.55646,1.14978,0.000770159,-0.00325164,-0.00163944,0.00135377,-0.00383525,-0.341993,0.00310797,0.014497,650,1289,-1.55647,-1.14972
-567,-265,-1.57178,1.18079,-0.000800084,-0.00526636,-0.00228084,0.000158817,-0.00622526,-0.397982,0.00420411,0.0191175,657,1289,-1.57177,-1.18084
-560,-265,-1.56744,1.20361,-0.00229121,-0.00690857,-0.0030947,-0.000738904,-0.00846087,-0.464927,0.00541112,0.0198288,664,1289,-1.56746,-1.20357
-553,-265,-1.54138,1.27966,-0.00406972,-0.0075827,-0.00382598,-0.00161629,-0.0100361,-0.570202,0.00622236,0.0187842,671,1289,-1.54141,-1.27964
-546,-265,-1.4903,1.36829,-0.00640716,-0.00827818,-0.00428487,-0.00295687,-0.0117285,-0.67792,0.00704338,0.0272465,678,1289,-1.49032,-1.3683
-539,-265,-1.33142,1.33191,-0.00942241,-0.00830002,-0.00465231,-0.00417518,-0.0135473,-0.845421,0.00801105,0.0444041,685,1289,-1.33141,-1.33186
-532,-265,-1.13959,1.2749,-0.012786,-0.00797542,-0.00488481,-0.00493583,-0.0158256,-1.01417,0.00934999,0.0479152,692,1289,-1.13957,-1.27485
-525,-265,-1.36584,0.820313,-0.0166193,-0.00690466,-0.00483029,-0.00491178,-0.0186122,-1.17949,0.0111379,0.0447743,699,1289,-1.36583,-0.820356
-518,-265,-1.43286,0.859619,-0.0209354,-0.00493684,-0.00436958,-0.00382121,-0.0220511,-1.32082,0.013607,0.0433765,706,1289,-1.43284,-0.859672
-511,-265,-1.909,0.690552,-0.0257544,-0.00179895,-0.00342653,-0.00131846,-0.0262348,-1.43148,0.0170674,0.0455616,713,1289,-1.90898,-0.690572
-504,-265,-2.23059,0.544556,-0.0307784,0.00257328,-0.00176109,0.00266601,-0.0308711,-1.51819,0.0215245,0.0446079,720,1289,-2.23057,-0.544547
-497,-265,-2.27057,0.528687,-0.0356315,0.00806278,0.000873381,0.00808023,-0.035649,1.55082,0.0268675,0.0455971,727,1289,-2.27057,-0.528632
-490,-265,-2.28949,0.627075,-0.0391257,0.0138124,0.00456978,0.0142039,-0.0395173,1.48532,0.0321432,0.0431263,734,1289,-2.28948,-0.627116
-483,-265,0,0,0,0,0,0,0,0,0,-1,741,1289,0,0
-476,-265,0,0,0,0,0,0,0,0,0,-1,748,1289,0,0
-469,-265,0,0,0,0,0,0,0,0,0,-1,755,1289,0,0
-462,-265,0,0,0,0,0,0,0,0,0,-1,762,1289,0,0
-455,-265,0,0,0,0,0,0,0,0,0,-1,769,1289,0,0
-448,-265,0,0,0,0,0,0,0,0,0,-1,776,1289,0,0
-441,-265,0,0,0,0,0,0,0,0,0,-1,783,1289,0,0
-434,-265,0,0,0,0,0,0,0,0,0,-1,790,1289,0,0
-427,-265,0,0,0,0,0,0,0,0,0,-1,797,1289,0,0
-420,-265,0,0,0,0,0,0,0,0,0,-1,804,1289,0,0
-413,-265,0,0,0,0,0,0,0,0,0,-1,811,1289,0,0
-406,-265,0,0,0,0,0,0,0,0,0,-1,818,1289,0,0
-399,-265,0,0,0,0,0,0,0,0,0,-1,825,1289,0,0
-392,-265,0,0,0,0,0,0,0,0,0,-1,832,1289,0,0
-385,-265,0,0,0,0,0,0,0,0,0,-1,839,1289,0,0
-378,-265,0,0,0,0,0,0,0,0,0,-1,846,1289,0,0
-371,-265,0,0,0,0,0,0,0,0,0,-1,853,1289,0,0
-364,-265,0,0,0,0,0,0,0,0,0,-1,860,1289,0,0
-357,-265,0,0,0,0,0,0,0,0,0,-1,867,1289,0,0
-350,-265,0,0,0,0,0,0,0,0,0,-1,874,1289,0,0
-343,-265,0,0,0,0,0,0,0,0,0,-1,881,1289,0,0
-336,-265,0,0,0,0,0,0,0,0,0,-1,888,1289,0,0
-329,-265,0,0,0,0,0,0,0,0,0,-1,895,1289,0,0
-322,-265,0,0,0,0,0,0,0,0,0,-1,902,1289,0,0
-315,-265,0,0,0,0,0,0,0,0,0,-1,909,1289,0,0
-308,-265,0,0,0,0,0,0,0,0,0,-1,916,1289,0,0
-301,-265,0,0,0,0,0,0,0,0,0,-1,923,1289,0,0
-294,-265,0,0,0,0,0,0,0,0,0,-1,930,1289,0,0
-287,-265,0,0,0,0,0,0,0,0,0,-1,937,1289,0,0
-280,-265,0,0,0,0,0,0,0,0,0,-1,944,1289,0,0
-273,-265,0,0,0,0,0,0,0,0,0,-1,951,1289,0,0
-266,-265,0,0,0,0,0,0,0,0,0,-1,958,1289,0,0
-259,-265,0,0,0,0,0,0,0,0,0,-1,965,1289,0,0
-252,-265,0,0,0,0,0,0,0,0,0,-1,972,1289,0,0
-245,-265,0,0,0,0,0,0,0,0,0,-1,979,1289,0,0
-238,-265,0,0,0,0,0,0,0,0,0,-1,986,1289,0,0
-231,-265,0,0,0,0,0,0,0,0,0,-1,993,1289,0,0
-224,-265,0,0,0,0,0,0,0,0,0,-1,1000,1289,0,0
-217,-265,0,0,0,0,0,0,0,0,0,-1,1007,1289,0,0
-210,-265,0,0,0,0,0,0,0,0,0,-1,1014,1289,0,0
-203,-265,0,0,0,0,0,0,0,0,0,-1,1021,1289,0,0
-196,-265,0,0,0,0,0,0,0,0,0,-1,1028,1289,0,0
-189,-265,0,0,0,0,0,0,0,0,0,-1,1035,1289,0,0
-182,-265,0,0,0,0,0,0,0,0,0,-1,1042,1289,0,0
-175,-265,0,0,0,0,0,0,0,0,0,-1,1049,1289,0,0
-168,-265,0,0,0,0,0,0,0,0,0,-1,1056,1289,0,0
-161,-265,0,0,0,0,0,0,0,0,0,-1,1063,1289,0,0
-154,-265,0,0,0,0,0,0,0,0,0,-1,1070,1289,0,0
-147,-265,0,0,0,0,0,0,0,0,0,-1,1077,1289,0,0
-140,-265,0,0,0,0,0,0,0,0,0,-1,1084,1289,0,0
-133,-265,0,0,0,0,0,0,0,0,0,-1,1091,1289,0,0
-126,-265,0,0,0,0,0,0,0,0,0,-1,1098,1289,0,0
-119,-265,0,0,0,0,0,0,0,0,0,-1,1105,1289,0,0
-112,-265,0,0,0,0,0,0,0,0,0,-1,1112,1289,0,0
-105,-265,0,0,0,0,0,0,0,0,0,-1,1119,1289,0,0
-98,-265,0,0,0,0,0,0,0,0,0,-1,1126,1289,0,0
-91,-265,0,0,0,0,0,0,0,0,0,-1,1133,1289,0,0
-84,-265,0,0,0,0,0,0,0,0,0,-1,1140,1289,0,0
-77,-265,0,0,0,0,0,0,0,0,0,-1,1147,1289,0,0
-70,-265,0,0,0,0,0,0,0,0,0,-1,1154,1289,0,0
-63,-265,0,0,0,0,0,0,0,0,0,-1,1161,1289,0,0
-56,-265,0,0,0,0,0,0,0,0,0,-1,1168,1289,0,0
-49,-265,0,0,0,0,0,0,0,0,0,-1,1175,1289,0,0
-42,-265,0,0,0,0,0,0,0,0,0,-1,1182,1289,0,0
-35,-265,0,0,0,0,0,0,0,0,0,-1,1189,1289,0,0
-28,-265,0,0,0,0,0,0,0,0,0,-1,1196,1289,0,0
-21,-265,0,0,0,0,0,0,0,0,0,-1,1203,1289,0,0
-14,-265,0,0,0,0,0,0,0,0,0,-1,1210,1289,0,0
-7,-265,0,0,0,0,0,0,0,0,0,-1,1217,1289,0,0
0,-265,0,0,0,0,0,0,0,0,0,-1,1224,1289,0,0
7,-265,0,0,0,0,0,0,0,0,0,-1,1231,1289,0,0
14,-265,0,0,0,0,0,0,0,0,0,-1,1238,1289,0,0
21,-265,0,0,0,0,0,0,0,0,0,-1,1245,1289,0,0
28,-265,0,0,0,0,0,0,0,0,0,-1,1252,1289,0,0
35,-265,0,0,0,0,0,0,0,0,0,-1,1259,1289,0,0
42,-265,0,0,0,0,0,0,0,0,0,-1,1266,1289,0,0
49,-265,0,0,0,0,0,0,0,0,0,-1,1273,1289,0,0
56,-265,0,0,0,0,0,0,0,0,0,-1,1280,1289,0,0
63,-265,0,0,0,0,0,0,0,0,0,-1,1287,1289,0,0
70,-265,0,0,0,0,0,0,0,0,0,-1,1294,1289,0,0
77,-265,0,0,0,0,0,0,0,0,0,-1,1301,1289,0,0
84,-265,0,0,0,0,0,0,0,0,0,-1,1308,1289,0,0
91,-265,0,0,0,0,0,0,0,0,0,-1,1315,1289,0,0
98,-265,0,0,0,0,0,0,0,0,0,-1,1322,1289,0,0
105,-265,0,0,0,0,0,0,0,0,0,-1,1329,1289,0,0
112,-265,0,0,0,0,0,0,0,0,0,-1,1336,1289,0,0
119,-265,0,0,0,0,0,0,0,0,0,-1,1343,1289,0,0
126,-265,0,0,0,0,0,0,0,0,0,-1,1350,1289,0,0
133,-265,0,0,0,0,0,0,0,0,0,-1,1357,1289,0,0
140,-265,0,0,0,0,0,0,0,0,0,-1,1364,1289,0,0
147,-265,0,0,0,0,0,0,0,0,0,-1,1371,1289,0,0
154,-265,0,0,0,0,0,0,0,0,0,-1,1378,1289,0,0
161,-265,0,0,0,0,0,0,0,0,0,-1,1385,1289,0,0
168,-265,0,0,0,0,0,0,0,0,0,-1,1392,1289,0,0
175,-265,0,0,0,0,0,0,0,0,0,-1,1399,1289,0,0
182,-265,0,0,0,0,0,0,0,0,0,-1,1406,1289,0,0
189,-265,0,0,0,0,0,0,0,0,0,-1,1413,1289,0,0
196,-265,0,0,0,0,0,0,0,0,0,-1,1420,1289,0,0
203,-265,0,0,0,0,0,0,0,0,0,-1,1427,1289,0,0
210,-265,0,0,0,0,0,0,0,0,0,-1,1434,1289,0,0
217,-265,0,0,0,0,0,0,0,0,0,-1,1441,1289,0,0
224,-265,0,0,0,0,0,0,0,0,0,-1,1448,1289,0,0
231,-265,0,0,0,0,0,0,0,0,0,-1,1455,1289,0,0
238,-265,0,0,0,0,0,0,0,0,0,-1,1462,1289,0,0
245,-265,0,0,0,0,0,0,0,0,0,-1,1469,1289,0,0
252,-265,0,0,0,0,0,0,0,0,0,-1,1476,1289,0,0
259,-265,0,0,0,0,0,0,0,0,0,-1,1483,1289,0,0
266,-265,0,0,0,0,0,0,0,0,0,-1,1490,1289,0,0
273,-265,0,0,0,0,0,0,0,0,0,-1,1497,1289,0,0
280,-265,0,0,0,0,0,0,0,0,0,-1,1504,1289,0,0
287,-265,0,0,0,0,0,0,0,0,0,-1,1511,1289,0,0
294,-265,0,0,0,0,0,0,0,0,0,-1,1518,1289,0,0
301,-265,0,0,0,0,0,0,0,0,0,-1,1525,1289,0,0
308,-265,0,0,0,0,0,0,0,0,0,-1,1532,1289,0,0
315,-265,0,0,0,0,0,0,0,0,0,-1,1539,1289,0,0
322,-265,0,0,0,0,0,0,0,0,0,-1,1546,1289,0,0
329,-265,0,0,0,0,0,0,0,0,0,-1,1553,1289,0,0
336,-265,0,0,0,0,0,0,0,0,0,-1,1560,1289,0,0
343,-265,0,0,0,0,0,0,0,0,0,-1,1567,1289,0,0
350,-265,0,0,0,0,0,0,0,0,0,-1,1574,1289,0,0
357,-265,0,0,0,0,0,0,0,0,0,-1,1581,1289,0,0
364,-265,0,0,0,0,0,0,0,0,0,-1,1588,1289,0,0
371,-265,0,0,0,0,0,0,0,0,0,-1,1595,1289,0,0
378,-265,0,0,0,0,0,0,0,0,0,-1,1602,1289,0,0
385,-265,0,0,0,0,0,0,0,0,0,-1,1609,1289,0,0
392,-265,0,0,0,0,0,0,0,0,0,-1,1616,1289,0,0
399,-265,0,0,0,0,0,0,0,0,0,-1,1623,1289,0,0
406,-265,0,0,0,0,0,0,0,0,0,-1,1630,1289,0,0
413,-265,0,0,0,0,0,0,0,0,0,-1,1637,1289,0,0
420,-265,0,0,0,0,0,0,0,0,0,-1,1644,1289,0,0
427,-265,0,0,0,0,0,0,0,0,0,-1,1651,1289,0,0
434,-265,0,0,0,0,0,0,0,0,0,-1,1658,1289,0,0
441,-265,0,0,0,0,0,0,0,0,0,-1,1665,1289,0,0
448,-265,0,0,0,0,0,0,0,0,0,-1,1672,1289,0,0
455,-265,0,0,0,0,0,0,0,0,0,-1,1679,1289,0,0
462,-265,0,0,0,0,0,0,0,0,0,-1,1686,1289,0,0
469,-265,0,0,0,0,0,0,0,0,0,-1,1693,1289,0,0
476,-265,0,0,0,0,0,0,0,0,0,-1,1700,1289,0,0
483,-265,0,0,0,0,0,0,0,0,0,-1,1707,1289,0,0
490,-265,0,0,0,0,0,0,0,0,0,-1,1714,1289,0,0
497,-265,0,0,0,0,0,0,0,0,0,-1,1721,1289,0,0
504,-265,0,0,0,0,0,0,0,0,0,-1,1728,1289,0,0
511,-265,0,0,0,0,0,0,0,0,0,-1,1735,1289,0,0
518,-265,0,0,0,0,0,0,0,0,0,-1,1742,1289,0,0
525,-265,0,0,0,0,0,0,0,0,0,-1,1749,1289,0,0
532,-265,0,0,0,0,0,0,0,0,0,-1,1756,1289,0,0
539,-265,0,0,0,0,0,0,0,0,0,-1,1763,1289,0,0
546,-265,0,0,0,0,0,0,0,0,0,-1,1770,1289,0,0
553,-265,0,0,0,0,0,0,0,0,0,-1,1777,1289,0,0
560,-265,0,0,0,0,0,0,0,0,0,-1,1784,1289,0,0
567,-265,0,0,0,0,0,0,0,0,0,-1,1791,1289,0,0
574,-265,0,0,0,0,0,0,0,0,0,-1,1798,1289,0,0
581,-265,0,0,0,0,0,0,0,0,0,-1,1805,1289,0,0
588,-265,0,0,0,0,0,0,0,0,0,-1,1812,1289,0,0
595,-265,0,0,0,0,0,0,0,0,0,-1,1819,1289,0,0
602,-265,7.16211,1.01978,-0.0141375,0.0065244,0.00136268,0.00661389,-0.014227,1.50522,0.0122972,0.0268658,1826,1289,7.16208,-1.01982
609,-265,7.12708,0.997681,-0.0110054,0.00221328,0.00266765,0.00273133,-0.0115234,1.37899,0.00873623,0.0278181,1833,1289,7.12704,-0.997671
616,-265,7.11267,0.985352,-0.00805645,0.00243665,0.0022279,0.00289008,-0.00850989,1.37001,0.00684316,0.0325509,1840,1289,7.11271,-0.985319
623,-265,6.81409,1.19385,0,0,0,0,0,0,0,-1,1847,1289,6.8141,-1.19389
630,-265,6.37354,1.03247,0,0,0,0,0,0,0,-1,1854,1289,6.37356,-1.03244
637,-265,5.55554,1.61145,-0.00108535,0.00446314,0.00215893,0.00520421,-0.00182641,1.24014,0.00421239,0.0436538,1861,1289,5.55551,-1.6115
644,-265,6.45068,0.548218,0.000383065,0.00514983,0.00199393,0.0058739,-0.000341008,1.22247,0.00403441,0.0414954,1868,1289,6.45066,-0.548223
651,-265,6.06982,0.835938,0.00146592,0.00551879,0.00189122,0.0062642,0.000720504,1.19535,0.00395789,0.0412671,1875,1289,6.06984,-0.835903
658,-265,6.16064,1.21387,0.0022975,0.00613582,0.00160481,0.00671838,0.00171494,1.22258,0.00403077,0.0394564,1882,1289,6.16062,-1.21385
665,-265,6.15833,1.34119,0.00269064,0.00579351,0.00144362,0.00636127,0.00212288,1.19609,0.00373977,0.042898,1889,1289,6.15833,-1.34122
672,-265,6.13953,1.49915,0.00268798,0.00539781,0.0012296,0.00587257,0.00221322,1.20232,0.00342463,0.0429956,1896,1289,6.1395,-1.49914
679,-265,6.1582,1.6239,0.00284322,0.0049644,0.000985501,0.00535159,0.00245603,1.19644,0.00309321,0.0209203,1903,1289,6.15814,-1.62393
686,-265,6.16785,1.60046,0.00255706,0.00401369,0.000790466,0.00436021,0.00221053,1.15765,0.00251745,0.0117422,1910,1289,6.16779,-1.60041
693,-265,6.1748,1.54797,0.00187789,0.00352977,0.000668152,0.00376619,0.00164147,1.23071,0.00218037,0.00934365,1917,1289,6.17484,-1.54792
700,-265,6.17163,1.51416,0.00181703,0.0030773,0.000557394,0.00328845,0.00160588,1.20869,0.00189876,0.00972709,1924,1289,6.17158,-1.51421
707,-265,6.18677,1.46484,0.00194282,0.00118562,0.00105659,0.0026866,0.000441849,0.613364,0.00166346,0.00939929,1931,1289,6.18677,-1.46481
714,-265,6.17383,1.4176,0.00232329,0.000105181,0.00169106,0.00323654,-0.000808061,0.495165,0.00247148,0.00927957,1938,1289,6.17379,-1.41763
721,-265,6.16138,1.37109,0.00279906,-0.000419209,0.00180745,0.00360988,-0.00123003,0.421689,0.00290475,0.00948436,1945,1289,6.16143,-1.37104
728,-265,6.17212,1.30432,0.00280977,-0.000794289,0.00198291,0.00368716,-0.00167167,0.416576,0.00316602,0.0126559,1952,1289,6.1721,-1.30428
735,-265,6.18542,1.24365,0.00312308,-0.0013189,0.00209969,0.00395848,-0.0021543,0.378666,0.00358009,0.016514,1959,1289,6.18546,-1.2437
742,-265,6.17749,1.24316,0.00366267,-0.00178861,0.00229698,0.00450147,-0.00262741,0.350129,0.00416299,0.018788,1966,1289,6.17744,-1.24319
749,-265,6.13403,1.25439,0.00393312,-0.00246443,0.00213982,0.00458285,-0.00311416,0.294791,0.00447075,0.035195,1973,1289,6.13409,-1.25444
756,-265,6.31042,1.07593,0.00366637,-0.00334026,0.00152188,0.00398266,-0.00365654,0.204907,0.00441183,0.041807,1980,1289,6.31041,-1.07596
763,-265,6.48987,0.935425,0.00247856,-0.0044388,0.000241584,0.00248699,-0.00444723,0.0348677,0.00405644,0.0456725,1987,1289,6.48989,-0.935404
770,-265,6.42883,1.34839,-0.000224767,-0.00579384,-0.00199354,0.000415294,-0.0064339,-0.31067,0.00443418,0.0424414,1994,1289,6.42882,-1.34845
777,-265,6.05908,1.61804,-0.00522037,-0.0074376,-0.00560474,-0.000615658,-0.0120423,-0.687758,0.00783106,0.0441872,2001,1289,6.05906,-1.61801
784,-265,0,0,0,0,0,0,0,0,0,-1,2008,1289,0,0
791,-265,0,0,0,0,0,0,0,0,0,-1,2015,1289,0,0
798,-265,0,0,0,0,0,0,0,0,0,-1,2022,1289,0,0
805,-265,0,0,0,0,0,0,0,0,0,-1,2029,1289,0,0
812,-265,0,0,0,0,0,0,0,0,0,-1,2036,1289,0,0
-700,-272,0,0,0,0,0,0,0,0,0,-1,524,1296,0,0
-693,-272,0,0,0,0,0,0,0,0,0,-1,531,1296,0,0
-686,-272,0,0,0,0,0,0,0,0,0,-1,538,1296,0,0
-679,-272,0,0,0,0,0,0,0,0,0,-1,545,1296,0,0
-672,-272,0,0,0,0,0,0,0,0,0,-1,552,1296,0,0
-665,-272,0,0,0,0,0,0,0,0,0,-1,559,1296,0,0
-658,-272,-0.143738,-1.14209,-0.0555421,0.0362591,0.0439394,0.0539001,-0.0731831,1.18901,0.0736526,0.0461296,566,1296,-0.143716,1.14211
-651,-272,-0.290405,-0.599365,-0.0403556,0.030299,0.036017,0.0454221,-0.0554787,1.17326,0.0583515,0.0460918,573,1296,-0.29039,0.599425
-644,-272,-0.172852,-0.148682,-0.0283044,0.0249109,0.0287542,0.0374794,-0.0408729,1.15872,0.0452509,0.0444467,580,1296,-0.172839,0.148701
-637,-272,-0.0324707,0.452271,-0.0188081,0.0201262,0.0223155,0.0302724,-0.0289543,1.14406,0.0341974,0.0428736,587,1296,-0.0324604,-0.45227
-630,-272,-1.54523,0.225098,0,0,0,0,0,0,0,-1,594,1296,-1.54525,-0.225106
-623,-272,-1.69714,-0.0968018,0,0,0,0,0,0,0,-1,601,1296,-1.69717,0.0967837
-616,-272,-1.46814,0.802856,-0.00254021,0.00977604,0.0084706,0.0140904,-0.00685459,1.09971,0.0123308,0.0362814,608,1296,-1.46812,-0.802875
-609,-272,-1.4895,0.85022,-9.59302e-05,0.0069635,0.00539679,0.00988236,-0.0030148,1.075,0.00779012,0.0174114,615,1296,-1.4895,-0.85027
-602,-272,-1.4978,0.886597,0.00180071,0.00398069,0.0030756,0.00615373,-0.000372331,0.955692,0.00423206,0.0127138,622,1296,-1.49779,-0.886585
-595,-272,-1.49695,0.962646,0.00209728,0.00282293,0.00145648,0.0039611,0.000959115,0.907468,0.00238617,0.0107081,629,1296,-1.49692,-0.962636
-588,-272,-1.48199,1.0177,0.00227796,0.00176374,2.15784e-06,0.00227797,0.00176373,0.00419621,0.00137956,0.0095277,636,1296,-1.48198,-1.01772
-581,-272,-1.48688,1.06799,0.0018272,-0.000444871,-0.000815988,0.00208988,-0.000707555,-0.311444,0.00167954,0.00980567,643,1296,-1.48687,-1.06794
-574,-272,-1.51703,1.13892,0.000796699,-0.00189359,-0.00140578,0.00139722,-0.00249411,-0.403718,0.00227622,0.0152368,650,1296,-1.51703,-1.13886
-567,-272,-1.52209,1.16248,-0.000630848,-0.00374097,-0.00199357,0.000342439,-0.00471426,-0.454173,0.00326298,0.0197371,657,1296,-1.5221,-1.16244
-560,-272,-1.49957,1.21533,-0.00202137,-0.0053324,-0.0028426,-0.000387336,-0.00696643,-0.521711,0.00452071,0.0190578,664,1296,-1.49957,-1.21537
-553,-272,-1.47198,1.28845,-0.00386158,-0.00600551,-0.00367355,-0.00110679,-0.0087603,-0.643436,0.00550846,0.0134124,671,1296,-1.47196,-1.28848
-546,-272,-1.44965,1.31616,-0.00639529,-0.00685589,-0.00417867,-0.00244058,-0.0108106,-0.75787,0.00654697,0.0167846,678,1296,-1.44962,-1.31619
-539,-272,-1.43188,1.27551,-0.00968178,-0.00704002,-0.00460557,-0.00356966,-0.0131521,-0.92505,0.00785345,0.0395755,685,1296,-1.4319,-1.27553
-532,-272,-1.30615,1.1665,-0.0134033,-0.00700902,-0.00495023,-0.00431324,-0.016099,-1.07213,0.00962276,0.0475109,692,1296,-1.30613,-1.16651
-525,-272,-1.2522,1.10449,-0.0176171,-0.006476,-0.00494573,-0.0045973,-0.0194958,-1.20777,0.011768,0.0427671,699,1296,-1.2522,-1.10452
-518,-272,-1.54742,1.06555,-0.0223101,-0.00535196,-0.00448549,-0.00423862,-0.0234234,-1.3275,0.014412,0.041157,706,1296,-1.5474,-1.0655
-511,-272,-1.84912,0.912598,-0.0274275,-0.00347439,-0.00341195,-0.00299786,-0.0279041,-1.43203,0.0176883,0.0435446,713,1296,-1.84911,-0.912546
-504,-272,-2.53638,1.15796,0,0,0,0,0,0,0,-1,720,1296,-2.53636,-1.15796
-497,-272,-3.08398,1.67957,0,0,0,0,0,0,0,-1,727,1296,-3.08399,-1.67961
-490,-272,-2.18768,0.583252,-0.0397577,0.00518751,0.00605535,0.00598904,-0.0405593,1.43919,0.029241,0.0432582,734,1296,-2.18768,-0.583208
-483,-272,-2.44971,0.772095,-0.0380371,0.00581163,0.0116867,0.00873194,-0.0409574,1.32593,0.0306333,0.0379262,741,1296,-2.4497,-0.772045
-476,-272,0,0,0,0,0,0,0,0,0,-1,748,1296,0,0
-469,-272,0,0,0,0,0,0,0,0,0,-1,755,1296,0,0
-462,-272,0,0,0,0,0,0,0,0,0,-1,762,1296,0,0
-455,-272,0,0,0,0,0,0,0,0,0,-1,769,1296,0,0
-448,-272,0,0,0,0,0,0,0,0,0,-1,776,1296,0,0
-441,-272,0,0,0,0,0,0,0,0,0,-1,783,1296,0,0
-434,-272,0,0,0,0,0,0,0,0,0,-1,790,1296,0,0
-427,-272,0,0,0,0,0,0,0,0,0,-1,797,1296,0,0
-420,-272,0,0,0,0,0,0,0,0,0,-1,804,1296,0,0
-413,-272,0,0,0,0,0,0,0,0,0,-1,811,1296,0,0
-406,-272,0,0,0,0,0,0,0,0,0,-1,818,1296,0,0
-399,-272,0,0,0,0,0,0,0,0,0,-1,825,1296,0,0
-392,-272,0,0,0,0,0,0,0,0,0,-1,832,1296,0,0
-385,-272,0,0,0,0,0,0,0,0,0,-1,839,1296,0,0
-378,-272,0,0,0,0,0,0,0,0,0,-1,846,1296,0,0
-371,-272,0,0,0,0,0,0,0,0,0,-1,853,1296,0,0
-364,-272,0,0,0,0,0,0,0,0,0,-1,860,1296,0,0
-357,-272,0,0,0,0,0,0,0,0,0,-1,867,1296,0,0
-350,-272,0,0,0,0,0,0,0,0,0,-1,874,1296,0,0
-343,-272,0,0,0,0,0,0,0,0,0,-1,881,1296,0,0
-336,-272,0,0,0,0,0,0,0,0,0,-1,888,1296,0,0
-329,-272,0,0,0,0,0,0,0,0,0,-1,895,1296,0,0
-322,-272,0,0,0,0,0,0,0,0,0,-1,902,1296,0,0
-315,-272,0,0,0,0,0,0,0,0,0,-1,909,1296,0,0
-308,-272,0,0,0,0,0,0,0,0,0,-1,916,1296,0,0
-301,-272,0,0,0,0,0,0,0,0,0,-1,923,1296,0,0
-294,-272,0,0,0,0,0,0,0,0,0,-1,930,1296,0,0
-287,-272,0,0,0,0,0,0,0,0,0,-1,937,1296,0,0
-280,-272,0,0,0,0,0,0,0,0,0,-1,944,1296,0,0
-273,-272,0,0,0,0,0,0,0,0,0,-1,951,1296,0,0
-266,-272,0,0,0,0,0,0,0,0,0,-1,958,1296,0,0
-259,-272,0,0,0,0,0,0,0,0,0,-1,965,1296,0,0
-252,-272,0,0,0,0,0,0,0,0,0,-1,972,1296,0,0
-245,-272,0,0,0,0,0,0,0,0,0,-1,979,1296,0,0
-238,-272,0,0,0,0,0,0,0,0,0,-1,986,1296,0,0
-231,-272,0,0,0,0,0,0,0,0,0,-1,993,1296,0,0
-224,-272,0,0,0,0,0,0,0,0,0,-1,1000,1296,0,0
-217,-272,0,0,0,0,0,0,0,0,0,-1,1007,1296,0,0
-210,-272,0,0,0,0,0,0,0,0,0,-1,1014,1296,0,0
-203,-272,0,0,0,0,0,0,0,0,0,-1,1021,1296,0,0
-196,-272,0,0,0,0,0,0,0,0,0,-1,1028,1296,0,0
-189,-272,0,0,0,0,0,0,0,0,0,-1,1035,1296,0,0
-182,-272,0,0,0,0,0,0,0,0,0,-1,1042,1296,0,0
-175,-272,0,0,0,0,0,0,0,0,0,-1,1049,1296,0,0
-168,-272,0,0,0,0,0,0,0,0,0,-1,1056,1296,0,0
-161,-272,0,0,0,0,0,0,0,0,0,-1,1063,1296,0,0
-154,-272,0,0,0,0,0,0,0,0,0,-1,1070,1296,0,0
-147,-272,0,0,0,0,0,0,0,0,0,-1,1077,1296,0,0
-140,-272,0,0,0,0,0,0,0,0,0,-1,1084,1296,0,0
-133,-272,0,0,0,0,0,0,0,0,0,-1,1091,1296,0,0
-126,-272,0,0,0,0,0,0,0,0,0,-1,1098,1296,0,0
-119,-272,0,0,0,0,0,0,0,0,0,-1,1105,1296,0,0
-112,-272,0,0,0,0,0,0,0,0,0,-1,1112,1296,0,0
-105,-272,0,0,0,0,0,0,0,0,0,-1,1119,1296,0,0
-98,-272,0,0,0,0,0,0,0,0,0,-1,1126,1296,0,0
-91,-272,0,0,0,0,0,0,0,0,0,-1,1133,1296,0,0
-84,-272,0,0,0,0,0,0,0,0,0,-1,1140,1296,0,0
-77,-272,0,0,0,0,0,0,0,0,0,-1,1147,1296,0,0
-70,-272,0,0,0,0,0,0,0,0,0,-1,1154,1296,0,0
-63,-272,0,0,0,0,0,0,0,0,0,-1,1161,1296,0,0
-56,-272,0,0,0,0,0,0,0,0,0,-1,1168,1296,0,0
-49,-272,0,0,0,0,0,0,0,0,0,-1,1175,1296,0,0
-42,-272,0,0,0,0,0,0,0,0,0,-1,1182,1296,0,0
-35,-272,0,0,0,0,0,0,0,0,0,-1,1189,1296,0,0
-28,-272,0,0,0,0,0,0,0,0,0,-1,1196,1296,0,0
-21,-272,0,0,0,0,0,0,0,0,0,-1,1203,1296,0,0
-14,-272,0,0,0,0,0,0,0,0,0,-1,1210,1296,0,0
-7,-272,0,0,0,0,0,0,0,0,0,-1,1217,1296,0,0
0,-272,0,0,0,0,0,0,0,0,0,-1,1224,1296,0,0
7,-272,0,0,0,0,0,0,0,0,0,-1,1231,1296,0,0
14,-272,0,0,0,0,0,0,0,0,0,-1,1238,1296,0,0
21,-272,0,0,0,0,0,0,0,0,0,-1,1245,1296,0,0
28,-272,0,0,0,0,0,0,0,0,0,-1,1252,1296,0,0
35,-272,0,0,0,0,0,0,0,0,0,-1,1259,1296,0,0
42,-272,0,0,0,0,0,0,0,0,0,-1,1266,1296,0,0
49,-272,0,0,0,0,0,0,0,0,0,-1,1273,1296,0,0
56,-272,0,0,0,0,0,0,0,0,0,-1,1280,1296,0,0
63,-272,0,0,0,0,0,0,0,0,0,-1,1287,1296,0,0
70,-272,0,0,0,0,0,0,0,0,0,-1,1294,1296,0,0
77,-272,0,0,0,0,0,0,0,0,0,-1,1301,1296,0,0
84,-272,0,0,0,0,0,0,0,0,0,-1,1308,1296,0,0
91,-272,0,0,0,0,0,0,0,0,0,-1,1315,1296,0,0
98,-272,0,0,0,0,0,0,0,0,0,-1,1322,1296,0,0
105,-272,0,0,0,0,0,0,0,0,0,-1,1329,1296,0,0
112,-272,0,0,0,0,0,0,0,0,0,-1,1336,1296,0,0
119,-272,0,0,0,0,0,0,0,0,0,-1,1343,1296,0,0
126,-272,0,0,0,0,0,0,0,0,0,-1,1350,1296,0,0
133,-272,0,0,0,0,0,0,0,0,0,-1,1357,1296,0,0
140,-272,0,0,0,0,0,0,0,0,0,-1,1364,1296,0,0
147,-272,0,0,0,0,0,0,0,0,0,-1,1371,1296,0,0
154,-272,0,0,0,0,0,0,0,0,0,-1,1378,1296,0,0
161,-272,0,0,0,0,0,0,0,0,0,-1,1385,1296,0,0
168,-272,0,0,0,0,0,0,0,0,0,-1,1392,1296,0,0
175,-272,0,0,0,0,0,0,0,0,0,-1,1399,1296,0,0
182,-272,0,0,0,0,0,0,0,0,0,-1,1406,1296,0,0
189,-272,0,0,0,0,0,0,0,0,0,-1,1413,1296,0,0
196,-272,0,0,0,0,0,0,0,0,0,-1,1420,1296,0,0
203,-272,0,0,0,0,0,0,0,0,0,-1,1427,1296,0,0
210,-272,0,0,0,0,0,0,0,0,0,-1,1434,1296,0,0
217,-272,0,0,0,0,0,0,0,0,0,-1,1441,1296,0,0
224,-272,0,0,0,0,0,0,0,0,0,-1,1448,1296,0,0
231,-272,0,0,0,0,0,0,0,0,0,-1,1455,1296,0,0
238,-272,0,0,0,0,0,0,0,0,0,-1,1462,1296,0,0
245,-272,0,0,0,0,0,0,0,0,0,-1,1469,1296,0,0
252,-272,0,0,0,0,0,0,0,0,0,-1,1476,1296,0,0
259,-272,0,0,0,0,0,0,0,0,0,-1,1483,1296,0,0
266,-272,0,0,0,0,0,0,0,0,0,-1,1490,1296,0,0
273,-272,0,0,0,0,0,0,0,0,0,-1,1497,1296,0,0
280,-272,0,0,0,0,0,0,0,0,0,-1,1504,1296,0,0
287,-272,0,0,0,0,0,0,0,0,0,-1,1511,1296,0,0
294,-272,0,0,0,0,0,0,0,0,0,-1,1518,1296,0,0
301,-272,0,0,0,0,0,0,0,0,0,-1,1525,1296,0,0
308,-272,0,0,0,0,0,0,0,0,0,-1,1532,1296,0,0
315,-272,0,0,0,0,0,0,0,0,0,-1,1539,1296,0,0
322,-272,0,0,0,0,0,0,0,0,0,-1,1546,1296,0,0
329,-272,0,0,0,0,0,0,0,0,0,-1,1553,1296,0,0
336,-272,0,0,0,0,0,0,0,0,0,-1,1560,1296,0,0
343,-272,0,0,0,0,0,0,0,0,0,-1,1567,1296,0,0
350,-272,0,0,0,0,0,0,0,0,0,-1,1574,1296,0,0
357,-272,0,0,0,0,0,0,0,0,0,-1,1581,1296,0,0
364,-272,0,0,0,0,0,0,0,0,0,-1,1588,1296,0,0
371,-272,0,0,0,0,0,0,0,0,0,-1,1595,1296,0,0
378,-272,0,0,0,0,0,0,0,0,0,-1,1602,1296,0,0
385,-272,0,0,0,0,0,0,0,0,0,-1,1609,1296,0,0
392,-272,0,0,0,0,0,0,0,0,0,-1,1616,1296,0,0
399,-272,0,0,0,0,0,0,0,0,0,-1,1623,1296,0,0
406,-272,0,0,0,0,0,0,0,0,0,-1,1630,1296,0,0
413,-272,0,0,0,0,0,0,0,0,0,-1,1637,1296,0,0
420,-272,0,0,0,0,0,0,0,0,0,-1,1644,1296,0,0
427,-272,0,0,0,0,0,0,0,0,0,-1,1651,1296,0,0
434,-272,0,0,0,0,0,0,0,0,0,-1,1658,1296,0,0
441,-272,0,0,0,0,0,0,0,0,0,-1,1665,1296,0,0
448,-272,0,0,0,0,0,0,0,0,0,-1,1672,1296,0,0
455,-272,0,0,0,0,0,0,0,0,0,-1,1679,1296,0,0
462,-272,0,0,0,0,0,0,0,0,0,-1,1686,1296,0,0
469,-272,0,0,0,0,0,0,0,0,0,-1,1693,1296,0,0
476,-272,0,0,0,0,0,0,0,0,0,-1,1700,1296,0,0
483,-272,0,0,0,0,0,0,0,0,0,-1,1707,1296,0,0
490,-272,0,0,0,0,0,0,0,0,0,-1,1714,1296,0,0
497,-272,0,0,0,0,0,0,0,0,0,-1,1721,1296,0,0
504,-272,0,0,0,0,0,0,0,0,0,-1,1728,1296,0,0
511,-272,0,0,0,0,0,0,0,0,0,-1,1735,1296,0,0
518,-272,0,0,0,0,0,0,0,0,0,-1,1742,1296,0,0
525,-272,0,0,0,0,0,0,0,0,0,-1,1749,1296,0,0
532,-272,0,0,0,0,0,0,0,0,0,-1,1756,1296,0,0
539,-272,0,0,0,0,0,0,0,0,0,-1,1763,1296,0,0
546,-272,0,0,0,0,0,0,0,0,0,-1,1770,1296,0,0
553,-272,0,0,0,0,0,0,0,0,0,-1,1777,1296,0,0
560,-272,0,0,0,0,0,0,0,0,0,-1,1784,1296,0,0
567,-272,0,0,0,0,0,0,0,0,0,-1,1791,1296,0,0
574,-272,0,0,0,0,0,0,0,0,0,-1,1798,1296,0,0
581,-272,0,0,0,0,0,0,0,0,0,-1,1805,1296,0,0
588,-272,0,0,0,0,0,0,0,0,0,-1,1812,1296,0,0
595,-272,0,0,0,0,0,0,0,0,0,-1,1819,1296,0,0
602,-272,7.13647,1.00012,-0.0167019,0.0142891,-0.00162977,0.0143745,-0.0167874,-1.5184,0.0180093,0.0303789,1826,1296,7.13648,-1.00012
609,-272,7.05371,0.89502,-0.0118916,0.00984551,-0.000174723,0.00984691,-0.011893,-1.56276,0.01257,0.0373754,1833,1296,7.05368,-0.895039
616,-272,7.08301,1.57471,0,0,0,0,0,0,0,-1,1840,1296,7.08307,-1.57466
623,-272,6.61169,1.7832,-0.00449072,0.00765961,0.000359192,0.00767022,-0.00450133,1.54127,0.00710619,0.0461711,1847,1296,6.61164,-1.78321
630,-272,5.92212,1.95752,0,0,0,0,0,0,0,-1,1854,1296,5.92211,-1.95751
637,-272,5.61829,2.29553,3.49193e-05,0.00677054,0.000928682,0.00689624,-9.07779e-05,1.43626,0.00462805,0.0462784,1861,1296,5.61825,-2.29547
644,-272,5.81604,2.53125,0.00145019,0.00658731,0.00102109,0.00678282,0.00125467,1.38161,0.0041671,0.0484604,1868,1296,5.81601,-2.53129
651,-272,6.14893,1.76245,0.00237018,0.00613309,0.00117532,0.00647003,0.00203325,1.29161,0.00382042,0.0420424,1875,1296,6.14891,-1.7624
658,-272,5.99744,1.01453,0.00299966,0.00640621,0.00104109,0.00669918,0.00270668,1.29648,0.00389145,0.0448807,1882,1296,5.99739,-1.01452
665,-272,6.08337,1.31323,0.00314746,0.00568078,0.00105242,0.00606094,0.00276731,1.22416,0.00350368,0.0482029,1889,1296,6.08338,-1.3132
672,-272,6.08728,1.5321,0.00288413,0.00509861,0.0010068,0.0054879,0.00249483,1.20183,0.00317279,0.0441164,1896,1296,6.08728,-1.53209
679,-272,6.13013,1.63916,0.00284497,0.00458794,0.000904877,0.00497276,0.00246016,1.1687,0.00287108,0.0179144,1903,1296,6.13017,-1.63917
686,-272,6.1449,1.60559,0.00242162,0.00367848,0.000795464,0.0040638,0.0020363,1.11971,0.00234624,0.0128326,1910,1296,6.14494,-1.60558
693,-272,6.12048,1.55164,0.00167343,0.00323279,0.000775028,0.00355246,0.00135376,1.17959,0.00207026,0.0110136,1917,1296,6.12049,-1.55167
700,-272,6.11072,1.52454,0.00165087,0.00293457,0.000753488,0.00328252,0.00130292,1.13818,0.00190854,0.011017,1924,1296,6.11076,-1.52449
707,-272,6.12817,1.46851,0.00185563,0.00126781,0.00137574,0.00296851,0.000154934,0.680162,0.00192943,0.0101379,1931,1296,6.12817,-1.46857
714,-272,6.12805,1.40088,0.00239419,0.000397544,0.00213255,0.00375052,-0.000958791,0.566482,0.00287377,0.0102863,1938,1296,6.12806,-1.40089
721,-272,6.10474,1.36084,0.00311665,-7.10121e-06,0.00248697,0.00449152,-0.00138197,0.505013,0.00354594,0.0117851,1945,1296,6.10476,-1.36085
728,-272,6.11926,1.30078,0.00340216,-0.000260846,0.00285497,0.0049626,-0.00182128,0.500205,0.00405423,0.0135143,1952,1296,6.11928,-1.30082
735,-272,6.15967,1.26135,0.00404903,-0.000700993,0.00323526,0.00568744,-0.00233941,0.468774,0.00476679,0.0130056,1959,1296,6.15967,-1.26134
742,-272,6.14502,1.24683,0.00497161,-0.00113567,0.00379374,0.006788,-0.00295205,0.446533,0.00576696,0.0228407,1966,1296,6.14506,-1.24689
749,-272,6.14319,1.23743,0.00564881,-0.00178653,0.00412399,0.00748347,-0.00362119,0.418583,0.00653926,0.0417639,1973,1296,6.14323,-1.23743
756,-272,6.61926,1.25122,0.00580787,-0.00271926,0.0040961,0.00745667,-0.00436805,0.382684,0.0069042,0.0456389,1980,1296,6.61926,-1.25127
763,-272,6.91077,1.19873,0.00502626,-0.00400837,0.00350458,0.0062263,-0.00520841,0.329908,0.00661055,0.0448318,1987,1296,6.91083,-1.1987
770,-272,6.75049,1.45142,0.0026332,-0.00576002,0.00203924,0.00310242,-0.00622925,0.226162,0.00548754,0.045766,1994,1296,6.75043,-1.45137
777,-272,6.40479,1.70593,-0.00227621,-0.00811128,-0.000770572,-0.00217616,-0.00821132,-0.12911,0.00491222,0.0466538,2001,1296,6.40477,-1.70593
784,-272,0,0,0,0,0,0,0,0,0,-1,2008,1296,0,0
791,-272,0,0,0,0,0,0,0,0,0,-1,2015,1296,0,0
798,-272,0,0,0,0,0,0,0,0,0,-1,2022,1296,0,0
805,-272,0,0,0,0,0,0,0,0,0,-1,2029,1296,0,0
812,-272,0,0,0,0,0,0,0,0,0,-1,2036,1296,0,0
-700,-279,0,0,0,0,0,0,0,0,0,-1,524,1303,0,0
-693,-279,0,0,0,0,0,0,0,0,0,-1,531,1303,0,0
-686,-279,0,0,0,0,0,0,0,0,0,-1,538,1303,0,0
-679,-279,0,0,0,0,0,0,0,0,0,-1,545,1303,0,0
-672,-279,0,0,0,0,0,0,0,0,0,-1,552,1303,0,0
-665,-279,0,0,0,0,0,0,0,0,0,-1,559,1303,0,0
-658,-279,1.52118,-2.05298,-0.0601272,0.0389675,0.0492343,0.0592696,-0.0804294,1.17968,0.0809631,0.0435248,566,1303,1.52116,2.05302
-651,-279,0.658264,-0.992432,-0.0443424,0.0324613,0.0401959,0.049651,-0.0615321,1.16669,0.0643136,0.0419579,573,1303,0.658288,0.992376
-644,-279,0.212524,0.0419922,-0.0318482,0.0268021,0.0320384,0.0409099,-0.0459561,1.156,0.0501803,0.0426707,580,1303,0.212554,-0.0419342
-637,-279,-0.0536499,1.18604,0,0,0,0,0,0,0,-1,587,1303,-0.053637,-1.18604
-630,-279,-2.1626,0.28186,0,0,0,0,0,0,0,-1,594,1303,-2.16263,-0.281886
-623,-279,-1.87793,0.495605,-0.00866984,0.0139194,0.0135752,0.0202842,-0.0150346,1.13238,0.0204663,0.0422815,601,1303,-1.87794,-0.495586
-616,-279,-1.32617,0.704956,-0.00457628,0.0110671,0.00949635,0.0155482,-0.00905741,1.1299,0.0143699,0.0397337,608,1303,-1.3262,-0.704965
-609,-279,-1.3783,0.80542,-0.00182414,0.00816605,0.00614756,0.011092,-0.00475012,1.12657,0.00938759,0.0244834,615,1303,-1.37832,-0.805451
-602,-279,-1.42725,0.886353,0.000420632,0.0050973,0.00360701,0.00705761,-0.00153968,1.07298,0.00529347,0.0113275,622,1303,-1.42726,-0.886372
-595,-279,-1.43658,0.956421,0.00113558,0.00390179,0.00175944,0.00475668,0.000280689,1.1185,0.00308182,0.00962543,629,1303,-1.43661,-0.95645
-588,-279,-1.41663,1.02795,0.00160836,0.0028553,0.000269866,0.0029112,0.00155246,1.36655,0.00168202,0.00973744,636,1303,-1.41664,-1.02797
-581,-279,-1.42596,1.05994,0.00143632,0.000568739,-0.000562945,0.00171322,0.000291839,-0.457128,0.00105837,0.0112392,643,1303,-1.42599,-1.05997
-574,-279,-1.4397,1.09253,0.000688227,-0.000920267,-0.00110755,0.00125273,-0.00148477,-0.471367,0.00158239,0.0111484,650,1303,-1.43972,-1.09252
-567,-279,-1.43726,1.15479,-0.000539136,-0.00270484,-0.00159633,0.000306959,-0.00355093,-0.487378,0.00247596,0.0137864,657,1303,-1.43728,-1.15478
-560,-279,-1.42749,1.23877,-0.00177005,-0.00427852,-0.00240158,-0.000314915,-0.00573365,-0.544753,0.00372191,0.0151619,664,1303,-1.42751,-1.23876
-553,-279,-1.42523,1.30884,-0.00355973,-0.00502337,-0.00324136,-0.000968604,-0.00761449,-0.674372,0.00478624,0.0118704,671,1303,-1.42526,-1.30885
-546,-279,-1.43793,1.3175,-0.00594867,-0.00604957,-0.00382788,-0.00217091,-0.00982733,-0.778809,0.00596117,0.0121898,678,1303,-1.43792,-1.31746
-539,-279,-1.40863,1.39392,-0.00888599,-0.00644688,-0.00437857,-0.0031212,-0.0122117,-0.92122,0.00732581,0.0348985,685,1303,-1.40864,-1.39387
-532,-279,-1.43402,1.38794,-0.0124011,-0.00669487,-0.00491034,-0.00386894,-0.0152271,-1.04858,0.00913892,0.0474571,692,1303,-1.43402,-1.38794
-525,-279,-1.53333,1.45557,-0.0162685,-0.0066314,-0.00513333,-0.00440939,-0.0184905,-1.16229,0.0111517,0.045383,699,1303,-1.53333,-1.45559
-518,-279,-1.59888,1.39465,-0.020427,-0.00631187,-0.00492551,-0.00476306,-0.0219759,-1.26614,0.0133492,0.0426266,706,1303,-1.59891,-1.39471
-511,-279,-1.66016,1.35962,-0.0247768,-0.00561476,-0.00407545,-0.004784,-0.0256076,-1.36971,0.0157216,0.0420704,713,1303,-1.66014,-1.35962
-504,-279,-2.13708,1.42664,-0.0289663,-0.0044874,-0.00248759,-0.00423717,-0.0292166,-1.47054,0.0182302,0.0420844,720,1303,-2.13706,-1.42665
-497,-279,-2.81793,1.823,-0.0323421,-0.00342319,0.000359893,-0.00341871,-0.0323466,1.55835,0.02052,0.0446664,727,1303,-2.81791,-1.823
-490,-279,-3.38196,2.23853,0,0,0,0,0,0,0,-1,734,1303,-3.38193,-2.23856
-483,-279,-2.41986,0.777222,0,0,0,0,0,0,0,-1,741,1303,-2.41989,-0.77728
-476,-279,0,0,0,0,0,0,0,0,0,-1,748,1303,0,0
-469,-279,0,0,0,0,0,0,0,0,0,-1,755,1303,0,0
-462,-279,0,0,0,0,0,0,0,0,0,-1,762,1303,0,0
-455,-279,0,0,0,0,0,0,0,0,0,-1,769,1303,0,0
-448,-279,0,0,0,0,0,0,0,0,0,-1,776,1303,0,0
-441,-279,0,0,0,0,0,0,0,0,0,-1,783,1303,0,0
-434,-279,0,0,0,0,0,0,0,0,0,-1,790,1303,0,0
-427,-279,0,0,0,0,0,0,0,0,0,-1,797,1303,0,0
-420,-279,0,0,0,0,0,0,0,0,0,-1,804,1303,0,0
-413,-279,0,0,0,0,0,0,0,0,0,-1,811,1303,0,0
-406,-279,0,0,0,0,0,0,0,0,0,-1,818,1303,0,0
-399,-279,0,0,0,0,0,0,0,0,0,-1,825,1303,0,0
-392,-279,0,0,0,0,0,0,0,0,0,-1,832,1303,0,0
-385,-279,0,0,0,0,0,0,0,0,0,-1,839,1303,0,0
-378,-279,0,0,0,0,0,0,0,0,0,-1,846,1303,0,0
-371,-279,0,0,0,0,0,0,0,0,0,-1,853,1303,0,0
-364,-279,0,0,0,0,0,0,0,0,0,-1,860,1303,0,0
-357,-279,0,0,0,0,0,0,0,0,0,-1,867,1303,0,0
-350,-279,0,0,0,0,0,0,0,0,0,-1,874,1303,0,0
-343,-279,0,0,0,0,0,0,0,0,0,-1,881,1303,0,0
-336,-279,0,0,0,0,0,0,0,0,0,-1,888,1303,0,0
-329,-279,0,0,0,0,0,0,0,0,0,-1,895,1303,0,0
-322,-279,0,0,0,0,0,0,0,0,0,-1,902,1303,0,0
-315,-279,0,0,0,0,0,0,0,0,0,-1,909,1303,0,0
-308,-279,0,0,0,0,0,0,0,0,0,-1,916,1303,0,0
-301,-279,0,0,0,0,0,0,0,0,0,-1,923,1303,0,0
-294,-279,0,0,0,0,0,0,0,0,0,-1,930,1303,0,0
-287,-279,0,0,0,0,0,0,0,0,0,-1,937,1303,0,0
-280,-279,0,0,0,0,0,0,0,0,0,-1,944,1303,0,0
-273,-279,0,0,0,0,0,0,0,0,0,-1,951,1303,0,0
-266,-279,0,0,0,0,0,0,0,0,0,-1,958,1303,0,0
-259,-279,0,0,0,0,0,0,0,0,0,-1,965,1303,0,0
-252,-279,0,0,0,0,0,0,0,0,0,-1,972,1303,0,0
-245,-279,0,0,0,0,0,0,0,0,0,-1,979,1303,0,0
-238,-279,0,0,0,0,0,0,0,0,0,-1,986,1303,0,0
-231,-279,0,0,0,0,0,0,0,0,0,-1,993,1303,0,0
-224,-279,0,0,0,0,0,0,0,0,0,-1,1000,1303,0,0
-217,-279,0,0,0,0,0,0,0,0,0,-1,1007,1303,0,0
-210,-279,0,0,0,0,0,0,0,0,0,-1,1014,1303,0,0
-203,-279,0,0,0,0,0,0,0,0,0,-1,1021,1303,0,0
-196,-279,0,0,0,0,0,0,0,0,0,-1,1028,1303,0,0
-189,-279,0,0,0,0,0,0,0,0,0,-1,1035,1303,0,0
-182,-279,0,0,0,0,0,0,0,0,0,-1,1042,1303,0,0
-175,-279,0,0,0,0,0,0,0,0,0,-1,1049,1303,0,0
-168,-279,0,0,0,0,0,0,0,0,0,-1,1056,1303,0,0
-161,-279,0,0,0,0,0,0,0,0,0,-1,1063,1303,0,0
-154,-279,0,0,0,0,0,0,0,0,0,-1,1070,1303,0,0
-147,-279,0,0,0,0,0,0,0,0,0,-1,1077,1303,0,0
-140,-279,0,0,0,0,0,0,0,0,0,-1,1084,1303,0,0
-133,-279,0,0,0,0,0,0,0,0,0,-1,1091,1303,0,0
-126,-279,0,0,0,0,0,0,0,0,0,-1,1098,1303,0,0
-119,-279,0,0,0,0,0,0,0,0,0,-1,1105,1303,0,0
-112,-279,0,0,0,0,0,0,0,0,0,-1,1112,1303,0,0
-105,-279,0,0,0,0,0,0,0,0,0,-1,1119,1303,0,0
-98,-279,0,0,0,0,0,0,0,0,0,-1,1126,1303,0,0
-91,-279,0,0,0,0,0,0,0,0,0,-1,1133,1303,0,0
-84,-279,0,0,0,0,0,0,0,0,0,-1,1140,1303,0,0
-77,-279,0,0,0,0,0,0,0,0,0,-1,1147,1303,0,0
-70,-279,0,0,0,0,0,0,0,0,0,-1,1154,1303,0,0
-63,-279,0,0,0,0,0,0,0,0,0,-1,1161,1303,0,0
-56,-279,0,0,0,0,0,0,0,0,0,-1,1168,1303,0,0
-49,-279,0,0,0,0,0,0,0,0,0,-1,1175,1303,0,0
-42,-279,0,0,0,0,0,0,0,0,0,-1,1182,1303,0,0
-35,-279,0,0,0,0,0,0,0,0,0,-1,1189,1303,0,0
-28,-279,0,0,0,0,0,0,0,0,0,-1,1196,1303,0,0
-21,-279,0,0,0,0,0,0,0,0,0,-1,1203,1303,0,0
-14,-279,0,0,0,0,0,0,0,0,0,-1,1210,1303,0,0
-7,-279,0,0,0,0,0,0,0,0,0,-1,1217,1303,0,0
0,-279,0,0,0,0,0,0,0,0,0,-1,1224,1303,0,0
7,-279,0,0,0,0,0,0,0,0,0,-1,1231,1303,0,0
14,-279,0,0,0,0,0,0,0,0,0,-1,1238,1303,0,0
21,-279,0,0,0,0,0,0,0,0,0,-1,1245,1303,0,0
28,-279,0,0,0,0,0,0,0,0,0,-1,1252,1303,0,0
35,-279,0,0,0,0,0,0,0,0,0,-1,1259,1303,0,0
42,-279,0,0,0,0,0,0,0,0,0,-1,1266,1303,0,0
49,-279,0,0,0,0,0,0,0,0,0,-1,1273,1303,0,0
56,-279,0,0,0,0,0,0,0,0,0,-1,1280,1303,0,0
63,-279,0,0,0,0,0,0,0,0,0,-1,1287,1303,0,0
70,-279,0,0,0,0,0,0,0,0,0,-1,1294,1303,0,0
77,-279,0,0,0,0,0,0,0,0,0,-1,1301,1303,0,0
84,-279,0,0,0,0,0,0,0,0,0,-1,1308,1303,0,0
91,-279,0,0,0,0,0,0,0,0,0,-1,1315,1303,0,0
98,-279,0,0,0,0,0,0,0,0,0,-1,1322,1303,0,0
105,-279,0,0,0,0,0,0,0,0,0,-1,1329,1303,0,0
112,-279,0,0,0,0,0,0,0,0,0,-1,1336,1303,0,0
119,-279,0,0,0,0,0,0,0,0,0,-1,1343,1303,0,0
126,-279,0,0,0,0,0,0,0,0,0,-1,1350,1303,0,0
133,-279,0,0,0,0,0,0,0,0,0,-1,1357,1303,0,0
140,-279,0,0,0,0,0,0,0,0,0,-1,1364,1303,0,0
147,-279,0,0,0,0,0,0,0,0,0,-1,1371,1303,0,0
154,-279,0,0,0,0,0,0,0,0,0,-1,1378,1303,0,0
161,-279,0,0,0,0,0,0,0,0,0,-1,1385,1303,0,0
168,-279,0,0,0,0,0,0,0,0,0,-1,1392,1303,0,0
175,-279,0,0,0,0,0,0,0,0,0,-1,1399,1303,0,0
182,-279,0,0,0,0,0,0,0,0,0,-1,1406,1303,0,0
189,-279,0,0,0,0,0,0,0,0,0,-1,1413,1303,0,0
196,-279,0,0,0,0,0,0,0,0,0,-1,1420,1303,0,0
203,-279,0,0,0,0,0,0,0,0,0,-1,1427,1303,0,0
210,-279,0,0,0,0,0,0,0,0,0,-1,1434,1303,0,0
217,-279,0,0,0,0,0,0,0,0,0,-1,1441,1303,0,0
224,-279,0,0,0,0,0,0,0,0,0,-1,1448,1303,0,0
231,-279,0,0,0,0,0,0,0,0,0,-1,1455,1303,0,0
238,-279,0,0,0,0,0,0,0,0,0,-1,1462,1303,0,0
245,-279,0,0,0,0,0,0,0,0,0,-1,1469,1303,0,0
252,-279,0,0,0,0,0,0,0,0,0,-1,1476,1303,0,0
259,-279,0,0,0,0,0,0,0,0,0,-1,1483,1303,0,0
266,-279,0,0,0,0,0,0,0,0,0,-1,1490,1303,0,0
273,-279,0,0,0,0,0,0,0,0,0,-1,1497,1303,0,0
280,-279,0,0,0,0,0,0,0,0,0,-1,1504,1303,0,0
287,-279,0,0,0,0,0,0,0,0,0,-1,1511,1303,0,0
294,-279,0,0,0,0,0,0,0,0,0,-1,1518,1303,0,0
301,-279,0,0,0,0,0,0,0,0,0,-1,1525,1303,0,0
308,-279,0,0,0,0,0,0,0,0,0,-1,1532,1303,0,0
315,-279,0,0,0,0,0,0,0,0,0,-1,1539,1303,0,0
322,-279,0,0,0,0,0,0,0,0,0,-1,1546,1303,0,0
329,-279,0,0,0,0,0,0,0,0,0,-1,1553,1303,0,0
336,-279,0,0,0,0,0,0,0,0,0,-1,1560,1303,0,0
343,-279,0,0,0,0,0,0,0,0,0,-1,1567,1303,0,0
350,-279,0,0,0,0,0,0,0,0,0,-1,1574,1303,0,0
357,-279,0,0,0,0,0,0,0,0,0,-1,1581,1303,0,0
364,-279,0,0,0,0,0,0,0,0,0,-1,1588,1303,0,0
371,-279,0,0,0,0,0,0,0,0,0,-1,1595,1303,0,0
378,-279,0,0,0,0,0,0,0,0,0,-1,1602,1303,0,0
385,-279,0,0,0,0,0,0,0,0,0,-1,1609,1303,0,0
392,-279,0,0,0,0,0,0,0,0,0,-1,1616,1303,0,0
399,-279,0,0,0,0,0,0,0,0,0,-1,1623,1303,0,0
406,-279,0,0,0,0,0,0,0,0,0,-1,1630,1303,0,0
413,-279,0,0,0,0,0,0,0,0,0,-1,1637,1303,0,0
420,-279,0,0,0,0,0,0,0,0,0,-1,1644,1303,0,0
427,-279,0,0,0,0,0,0,0,0,0,-1,1651,1303,0,0
434,-279,0,0,0,0,0,0,0,0,0,-1,1658,1303,0,0
441,-279,0,0,0,0,0,0,0,0,0,-1,1665,1303,0,0
448,-279,0,0,0,0,0,0,0,0,0,-1,1672,1303,0,0
455,-279,0,0,0,0,0,0,0,0,0,-1,1679,1303,0,0
462,-279,0,0,0,0,0,0,0,0,0,-1,1686,1303,0,0
469,-279,0,0,0,0,0,0,0,0,0,-1,1693,1303,0,0
476,-279,0,0,0,0,0,0,0,0,0,-1,1700,1303,0,0
483,-279,0,0,0,0,0,0,0,0,0,-1,1707,1303,0,0
490,-279,0,0,0,0,0,0,0,0,0,-1,1714,1303,0,0
497,-279,0,0,0,0,0,0,0,0,0,-1,1721,1303,0,0
504,-279,0,0,0,0,0,0,0,0,0,-1,1728,1303,0,0
511,-279,0,0,0,0,0,0,0,0,0,-1,1735,1303,0,0
518,-279,0,0,0,0,0,0,0,0,0,-1,1742,1303,0,0
525,-279,0,0,0,0,0,0,0,0,0,-1,1749,1303,0,0
532,-279,0,0,0,0,0,0,0,0,0,-1,1756,1303,0,0
539,-279,0,0,0,0,0,0,0,0,0,-1,1763,1303,0,0
546,-279,0,0,0,0,0,0,0,0,0,-1,1770,1303,0,0
553,-279,0,0,0,0,0,0,0,0,0,-1,1777,1303,0,0
560,-279,0,0,0,0,0,0,0,0,0,-1,1784,1303,0,0
567,-279,0,0,0,0,0,0,0,0,0,-1,1791,1303,0,0
574,-279,0,0,0,0,0,0,0,0,0,-1,1798,1303,0,0
581,-279,0,0,0,0,0,0,0,0,0,-1,1805,1303,0,0
588,-279,0,0,0,0,0,0,0,0,0,-1,1812,1303,0,0
595,-279,0,0,0,0,0,0,0,0,0,-1,1819,1303,0,0
602,-279,7.02246,0.862061,-0.0203856,0.0173945,-0.00330884,0.0176821,-0.0206732,-1.48409,0.0221669,0.0422995,1826,1303,7.02246,-0.862054
609,-279,6.8468,0.633789,-0.013816,0.0144397,-0.00228894,0.014624,-0.0140002,-1.49049,0.0165275,0.0464265,1833,1303,6.84678,-0.633821
616,-279,6.82922,2.22778,0,0,0,0,0,0,0,-1,1840,1303,6.82924,-2.22782
623,-279,6.22705,2.40405,0,0,0,0,0,0,0,-1,1847,1303,6.22703,-2.40408
630,-279,6.13245,2.42542,0,0,0,0,0,0,0,-1,1854,1303,6.13242,-2.42544
637,-279,5.56812,2.43921,0.00091035,0.0086765,-0.000160093,0.0086798,0.000907051,-1.55019,0.00550913,0.0462435,1861,1303,5.56812,-2.43919
644,-279,5.49072,2.72961,0.00244052,0.00771572,0.000148444,0.00771989,0.00243634,1.54269,0.00455701,0.0497084,1868,1303,5.49076,-2.72965
651,-279,5.44385,2.81104,0,0,0,0,0,0,0,-1,1875,1303,5.44388,-2.81106
658,-279,5.83362,0.842285,0,0,0,0,0,0,0,-1,1882,1303,5.83361,-0.842273
665,-279,5.90027,1.48718,0.00374759,0.00533126,0.000704724,0.00559944,0.0034794,1.20717,0.00326444,0.046741,1889,1303,5.90024,-1.48719
672,-279,6.0769,1.63135,0.00322746,0.00450825,0.000781551,0.00487826,0.00285745,1.12862,0.00283024,0.0339568,1896,1303,6.07695,-1.6313
679,-279,6.09277,1.66943,0.00297584,0.0039197,0.000771231,0.00435193,0.0025436,1.05997,0.00252452,0.0211093,1903,1303,6.09275,-1.66942
686,-279,6.09448,1.60498,0.00239491,0.00304839,0.000694874,0.00348951,0.00195379,1.00517,0.00201948,0.0196745,1910,1303,6.09444,-1.60494
693,-279,6.05835,1.55139,0.00156113,0.00261317,0.000719458,0.0029784,0.0011959,1.10106,0.00173066,0.0160696,1917,1303,6.05831,-1.55136
700,-279,6.06348,1.51477,0.00149254,0.00250172,0.000790158,0.00293466,0.0010596,1.06956,0.00171599,0.011455,1924,1303,6.06343,-1.51473
707,-279,6.06067,1.46362,0.00168428,0.00115825,0.00153022,0.00297393,-0.000131396,0.700289,0.00202784,0.00890662,1931,1303,6.06072,-1.46361
714,-279,6.05249,1.40649,0.00228825,0.000583054,0.00241427,0.00399605,-0.00112474,0.615659,0.00310755,0.0101433,1938,1303,6.05254,-1.40654
721,-279,6.05054,1.35681,0.00318048,0.000376524,0.00302702,0.00511443,-0.00155742,0.568528,0.00403034,0.0120987,1945,1303,6.0505,-1.35677
728,-279,6.07104,1.29504,0.00371611,0.000318268,0.00362715,0.00602251,-0.00198813,0.566377,0.00481649,0.0128836,1952,1303,6.0711,-1.29504
735,-279,6.09338,1.26453,0.00466579,0.000127412,0.00432023,0.00727652,-0.00248332,0.543578,0.00585698,0.0122837,1959,1303,6.0934,-1.26459
742,-279,6.08618,1.23779,0.00596928,-5.68703e-05,0.00529635,0.00904964,-0.00313723,0.52678,0.00730689,0.0232991,1966,1303,6.08613,-1.23781
749,-279,6.06458,1.21118,0.00715071,-0.000410432,0.00619662,0.010629,-0.0038887,0.511491,0.00867769,0.044336,1973,1303,6.06452,-1.2112
756,-279,6.23328,1.30042,0.00795171,-0.00101225,0.00689986,0.0116975,-0.00475804,0.49736,0.00977815,0.0496732,1980,1303,6.23329,-1.30037
763,-279,6.69934,1.20593,0.00795585,-0.00195521,0.00722446,0.011761,-0.00576039,0.484785,0.0103119,0.046366,1987,1303,6.69929,-1.2059
770,-279,7.01196,2.11353,0.00647674,-0.00336978,0.0068824,0.0100155,-0.00690855,0.474924,0.00982585,0.0447527,1994,1303,7.01197,-2.11358
777,-279,6.69226,1.84277,0,0,0,0,0,0,0,-1,2001,1303,6.69227,-1.84274
784,-279,0,0,0,0,0,0,0,0,0,-1,2008,1303,0,0
791,-279,0,0,0,0,0,0,0,0,0,-1,2015,1303,0,0
798,-279,0,0,0,0,0,0,0,0,0,-1,2022,1303,0,0
805,-279,0,0,0,0,0,0,0,0,0,-1,2029,1303,0,0
812,-279,0,0,0,0,0,0,0,0,0,-1,2036,1303,0,0
-700,-286,0,0,0,0,0,0,0,0,0,-1,524,1310,0,0
-693,-286,0,0,0,0,0,0,0,0,0,-1,531,1310,0,0
-686,-286,0,0,0,0,0,0,0,0,0,-1,538,1310,0,0
-679,-286,0,0,0,0,0,0,0,0,0,-1,545,1310,0,0
-672,-286,0,0,0,0,0,0,0,0,0,-1,552,1310,0,0
-665,-286,0,0,0,0,0,0,0,0,0,-1,559,1310,0,0
-658,-286,1.99127,-2.36377,-0.0636162,0.0437685,0.0565655,0.0680667,-0.0879144,1.16507,0.0902984,0.0458991,566,1310,1.99128,2.36377
-651,-286,0.669128,-0.183228,-0.0470526,0.0361879,0.0456208,0.0563212,-0.0671859,1.15519,0.0713988,0.049226,573,1310,0.669104,0.183175
-644,-286,0.422302,0.396362,-0.0341856,0.0299226,0.0360592,0.046115,-0.050378,1.14873,0.0557284,0.0451352,580,1310,0.422273,-0.396421
-637,-286,0.482544,1.4563,0,0,0,0,0,0,0,-1,587,1310,0.482566,-1.4563
-630,-286,-2.55365,0.875488,0,0,0,0,0,0,0,-1,594,1310,-2.55366,-0.875461
-623,-286,-2.1347,0.97937,-0.0105631,0.0161027,0.0151344,0.0229395,-0.0173999,1.1465,0.0233631,0.0415062,601,1310,-2.1347,-0.979417
-616,-286,-1.28827,0.546753,-0.0063561,0.0128999,0.0105807,0.0175775,-0.0110337,1.15454,0.0166621,0.0414384,608,1310,-1.28827,-0.546759
-609,-286,-1.35034,0.740601,-0.00347588,0.009833,0.00694544,0.0127973,-0.00644021,1.1674,0.0113071,0.0295828,615,1310,-1.35034,-0.740625
-602,-286,-1.39343,0.889526,-0.00105034,0.0066079,0.00417741,0.00844561,-0.00288804,1.15636,0.00680067,0.0130121,622,1310,-1.39342,-0.889505
-595,-286,-1.39545,0.935303,-8.8134e-05,0.00517132,0.00212768,0.00592427,-0.000841081,1.23067,0.00425766,0.0104593,629,1310,-1.39544,-0.935307
-588,-286,-1.35535,1.01221,0.000575109,0.00398056,0.000624553,0.00409149,0.000464181,1.39502,0.00258685,0.0109448,636,1310,-1.35535,-1.0122
-581,-286,-1.35791,1.05359,0.00064163,0.00150294,-0.000281079,0.00158655,0.000558019,-1.28167,0.000929323,0.0130014,643,1310,-1.35791,-1.05356
-574,-286,-1.37512,1.08679,0.000176616,-0.000156146,-0.000834619,0.000861276,-0.000840806,-0.687013,0.000982721,0.0132971,650,1310,-1.37512,-1.08675
-567,-286,-1.37646,1.16541,-0.000807719,-0.00195712,-0.00125145,-5.31634e-06,-0.00275952,-0.570148,0.00183791,0.0120192,657,1310,-1.37648,-1.16538
-560,-286,-1.37744,1.23999,-0.00182204,-0.00353362,-0.0019996,-0.000502796,-0.00485286,-0.583201,0.00308135,0.0123623,664,1310,-1.37745,-1.23998
-553,-286,-1.36719,1.29785,-0.00347888,-0.00439645,-0.00281021,-0.00109024,-0.00678508,-0.704484,0.00420732,0.0101752,671,1310,-1.36718,-1.29789
-546,-286,-1.36615,1.34546,-0.00556966,-0.00559638,-0.00349249,-0.0020905,-0.00907554,-0.783485,0.00548789,0.0115561,678,1310,-1.36617,-1.34541
-539,-286,-1.31946,1.45227,-0.00805058,-0.00621925,-0.00415923,-0.00287608,-0.0113937,-0.893746,0.0068417,0.0245819,685,1310,-1.31944,-1.45226
-532,-286,-1.22131,1.6001,-0.0111565,-0.00675294,-0.00484346,-0.00363429,-0.0142751,-0.998729,0.00856628,0.0437419,692,1310,-1.22132,-1.60015
-525,-286,-1.88788,1.8241,-0.0144433,-0.0072179,-0.00519667,-0.00450154,-0.0171596,-1.08914,0.0102734,0.0467566,699,1310,-1.88787,-1.82408
-518,-286,-1.55975,1.78406,0,0,0,0,0,0,0,-1,706,1310,-1.55973,-1.78406
-511,-286,-1.50037,1.42004,-0.0213443,-0.00821236,-0.0043246,-0.00691613,-0.0226405,-1.27958,0.0133972,0.0456575,713,1310,-1.50039,-1.42
-504,-286,-1.16638,0.580811,-0.0245202,-0.00854666,-0.00283471,-0.00805852,-0.0250083,-1.40027,0.0147396,0.0434186,720,1310,-1.16639,-0.58077
-497,-286,-2.57758,1.91541,-0.026915,-0.00933994,-3.35279e-05,-0.00933987,-0.0269151,-1.56889,0.01578,0.0431978,727,1310,-2.57758,-1.91543
-490,-286,-3.23438,2.28455,-0.0280322,-0.0110278,0.00452755,-0.00989741,-0.0291626,1.32614,0.0171241,0.04223,734,1310,-3.23438,-2.28449
-483,-286,-3.92084,2.729,0,0,0,0,0,0,0,-1,741,1310,-3.92084,-2.72895
-476,-286,-1.05078,0.263306,0,0,0,0,0,0,0,-1,748,1310,-1.05077,-0.263254
-469,-286,0,0,0,0,0,0,0,0,0,-1,755,1310,0,0
-462,-286,0,0,0,0,0,0,0,0,0,-1,762,1310,0,0
-455,-286,0,0,0,0,0,0,0,0,0,-1,769,1310,0,0
-448,-286,0,0,0,0,0,0,0,0,0,-1,776,1310,0,0
-441,-286,0,0,0,0,0,0,0,0,0,-1,783,1310,0,0
-434,-286,0,0,0,0,0,0,0,0,0,-1,790,1310,0,0
-427,-286,0,0,0,0,0,0,0,0,0,-1,797,1310,0,0
-420,-286,0,0,0,0,0,0,0,0,0,-1,804,1310,0,0
-413,-286,0,0,0,0,0,0,0,0,0,-1,811,1310,0,0
-406,-286,0,0,0,0,0,0,0,0,0,-1,818,1310,0,0
-399,-286,0,0,0,0,0,0,0,0,0,-1,825,1310,0,0
-392,-286,0,0,0,0,0,0,0,0,0,-1,832,1310,0,0
-385,-286,0,0,0,0,0,0,0,0,0,-1,839,1310,0,0
-378,-286,0,0,0,0,0,0,0,0,0,-1,846,1310,0,0
-371,-286,0,0,0,0,0,0,0,0,0,-1,853,1310,0,0
-364,-286,0,0,0,0,0,0,0,0,0,-1,860,1310,0,0
-357,-286,0,0,0,0,0,0,0,0,0,-1,867,1310,0,0
-350,-286,0,0,0,0,0,0,0,0,0,-1,874,1310,0,0
-343,-286,0,0,0,0,0,0,0,0,0,-1,881,1310,0,0
-336,-286,0,0,0,0,0,0,0,0,0,-1,888,1310,0,0
-329,-286,0,0,0,0,0,0,0,0,0,-1,895,1310,0,0
-322,-286,0,0,0,0,0,0,0,0,0,-1,902,1310,0,0
-315,-286,0,0,0,0,0,0,0,0,0,-1,909,1310,0,0
-308,-286,0,0,0,0,0,0,0,0,0,-1,916,1310,0,0
-301,-286,0,0,0,0,0,0,0,0,0,-1,923,1310,0,0
-294,-286,0,0,0,0,0,0,0,0,0,-1,930,1310,0,0
-287,-286,0,0,0,0,0,0,0,0,0,-1,937,1310,0,0
-280,-286,0,0,0,0,0,0,0,0,0,-1,944,1310,0,0
-273,-286,0,0,0,0,0,0,0,0,0,-1,951,1310,0,0
-266,-286,0,0,0,0,0,0,0,0,0,-1,958,1310,0,0
-259,-286,0,0,0,0,0,0,0,0,0,-1,965,1310,0,0
-252,-286,0,0,0,0,0,0,0,0,0,-1,972,1310,0,0
-245,-286,0,0,0,0,0,0,0,0,0,-1,979,1310,0,0
-238,-286,0,0,0,0,0,0,0,0,0,-1,986,1310,0,0
-231,-286,0,0,0,0,0,0,0,0,0,-1,993,1310,0,0
-224,-286,0,0,0,0,0,0,0,0,0,-1,1000,1310,0,0
-217,-286,0,0,0,0,0,0,0,0,0,-1,1007,1310,0,0
-210,-286,0,0,0,0,0,0,0,0,0,-1,1014,1310,0,0
-203,-286,0,0,0,0,0,0,0,0,0,-1,1021,1310,0,0
-196,-286,0,0,0,0,0,0,0,0,0,-1,1028,1310,0,0
-189,-286,0,0,0,0,0,0,0,0,0,-1,1035,1310,0,0
-182,-286,0,0,0,0,0,0,0,0,0,-1,1042,1310,0,0
-175,-286,0,0,0,0,0,0,0,0,0,-1,1049,1310,0,0
-168,-286,0,0,0,0,0,0,0,0,0,-1,1056,1310,0,0
-161,-286,0,0,0,0,0,0,0,0,0,-1,1063,1310,0,0
-154,-286,0,0,0,0,0,0,0,0,0,-1,1070,1310,0,0
-147,-286,0,0,0,0,0,0,0,0,0,-1,1077,1310,0,0
-140,-286,0,0,0,0,0,0,0,0,0,-1,1084,1310,0,0
-133,-286,0,0,0,0,0,0,0,0,0,-1,1091,1310,0,0
-126,-286,0,0,0,0,0,0,0,0,0,-1,1098,1310,0,0
-119,-286,0,0,0,0,0,0,0,0,0,-1,1105,1310,0,0
-112,-286,0,0,0,0,0,0,0,0,0,-1,1112,1310,0,0
-105,-286,0,0,0,0,0,0,0,0,0,-1,1119,1310,0,0
-98,-286,0,0,0,0,0,0,0,0,0,-1,1126,1310,0,0
-91,-286,0,0,0,0,0,0,0,0,0,-1,1133,1310,0,0
-84,-286,0,0,0,0,0,0,0,0,0,-1,1140,1310,0,0
-77,-286,0,0,0,0,0,0,0,0,0,-1,1147,1310,0,0
-70,-286,0,0,0,0,0,0,0,0,0,-1,1154,1310,0,0
-63,-286,0,0,0,0,0,0,0,0,0,-1,1161,1310,0,0
-56,-286,0,0,0,0,0,0,0,0,0,-1,1168,1310,0,0
-49,-286,0,0,0,0,0,0,0,0,0,-1,1175,1310,0,0
-42,-286,0,0,0,0,0,0,0,0,0,-1,1182,1310,0,0
-35,-286,0,0,0,0,0,0,0,0,0,-1,1189,1310,0,0
-28,-286,0,0,0,0,0,0,0,0,0,-1,1196,1310,0,0
-21,-286,0,0,0,0,0,0,0,0,0,-1,1203,1310,0,0
-14,-286,0,0,0,0,0,0,0,0,0,-1,1210,1310,0,0
-7,-286,0,0,0,0,0,0,0,0,0,-1,1217,1310,0,0
0,-286,0,0,0,0,0,0,0,0,0,-1,1224,1310,0,0
7,-286,0,0,0,0,0,0,0,0,0,-1,1231,1310,0,0
14,-286,0,0,0,0,0,0,0,0,0,-1,1238,1310,0,0
21,-286,0,0,0,0,0,0,0,0,0,-1,1245,1310,0,0
28,-286,0,0,0,0,0,0,0,0,0,-1,1252,1310,0,0
35,-286,0,0,0,0,0,0,0,0,0,-1,1259,1310,0,0
42,-286,0,0,0,0,0,0,0,0,0,-1,1266,1310,0,0
49,-286,0,0,0,0,0,0,0,0,0,-1,1273,1310,0,0
56,-286,0,0,0,0,0,0,0,0,0,-1,1280,1310,0,0
63,-286,0,0,0,0,0,0,0,0,0,-1,1287,1310,0,0
70,-286,0,0,0,0,0,0,0,0,0,-1,1294,1310,0,0
77,-286,0,0,0,0,0,0,0,0,0,-1,1301,1310,0,0
84,-286,0,0,0,0,0,0,0,0,0,-1,1308,1310,0,0
91,-286,0,0,0,0,0,0,0,0,0,-1,1315,1310,0,0
98,-286,0,0,0,0,0,0,0,0,0,-1,1322,1310,0,0
105,-286,0,0,0,0,0,0,0,0,0,-1,1329,1310,0,0
112,-286,0,0,0,0,0,0,0,0,0,-1,1336,1310,0,0
119,-286,0,0,0,0,0,0,0,0,0,-1,1343,1310,0,0
126,-286,0,0,0,0,0,0,0,0,0,-1,1350,1310,0,0
133,-286,0,0,0,0,0,0,0,0,0,-1,1357,1310,0,0
140,-286,0,0,0,0,0,0,0,0,0,-1,1364,1310,0,0
147,-286,0,0,0,0,0,0,0,0,0,-1,1371,1310,0,0
154,-286,0,0,0,0,0,0,0,0,0,-1,1378,1310,0,0
161,-286,0,0,0,0,0,0,0,0,0,-1,1385,1310,0,0
168,-286,0,0,0,0,0,0,0,0,0,-1,1392,1310,0,0
175,-286,0,0,0,0,0,0,0,0,0,-1,1399,1310,0,0
182,-286,0,0,0,0,0,0,0,0,0,-1,1406,1310,0,0
189,-286,0,0,0,0,0,0,0,0,0,-1,1413,1310,0,0
196,-286,0,0,0,0,0,0,0,0,0,-1,1420,1310,0,0
203,-286,0,0,0,0,0,0,0,0,0,-1,1427,1310,0,0
210,-286,0,0,0,0,0,0,0,0,0,-1,1434,1310,0,0
217,-286,0,0,0,0,0,0,0,0,0,-1,1441,1310,0,0
224,-286,0,0,0,0,0,0,0,0,0,-1,1448,1310,0,0
231,-286,0,0,0,0,0,0,0,0,0,-1,1455,1310,0,0
238,-286,0,0,0,0,0,0,0,0,0,-1,1462,1310,0,0
245,-286,0,0,0,0,0,0,0,0,0,-1,1469,1310,0,0
252,-286,0,0,0,0,0,0,0,0,0,-1,1476,1310,0,0
259,-286,0,0,0,0,0,0,0,0,0,-1,1483,1310,0,0
266,-286,0,0,0,0,0,0,0,0,0,-1,1490,1310,0,0
273,-286,0,0,0,0,0,0,0,0,0,-1,1497,1310,0,0
280,-286,0,0,0,0,0,0,0,0,0,-1,1504,1310,0,0
287,-286,0,0,0,0,0,0,0,0,0,-1,1511,1310,0,0
294,-286,0,0,0,0,0,0,0,0,0,-1,1518,1310,0,0
301,-286,0,0,0,0,0,0,0,0,0,-1,1525,1310,0,0
308,-286,0,0,0,0,0,0,0,0,0,-1,1532,1310,0,0
315,-286,0,0,0,0,0,0,0,0,0,-1,1539,1310,0,0
322,-286,0,0,0,0,0,0,0,0,0,-1,1546,1310,0,0
329,-286,0,0,0,0,0,0,0,0,0,-1,1553,1310,0,0
336,-286,0,0,0,0,0,0,0,0,0,-1,1560,1310,0,0
343,-286,0,0,0,0,0,0,0,0,0,-1,1567,1310,0,0
350,-286,0,0,0,0,0,0,0,0,0,-1,1574,1310,0,0
357,-286,0,0,0,0,0,0,0,0,0,-1,1581,1310,0,0
364,-286,0,0,0,0,0,0,0,0,0,-1,1588,1310,0,0
371,-286,0,0,0,0,0,0,0,0,0,-1,1595,1310,0,0
378,-286,0,0,0,0,0,0,0,0,0,-1,1602,1310,0,0
385,-286,0,0,0,0,0,0,0,0,0,-1,1609,1310,0,0
392,-286,0,0,0,0,0,0,0,0,0,-1,1616,1310,0,0
399,-286,0,0,0,0,0,0,0,0,0,-1,1623,1310,0,0
406,-286,0,0,0,0,0,0,0,0,0,-1,1630,1310,0,0
413,-286,0,0,0,0,0,0,0,0,0,-1,1637,1310,0,0
420,-286,0,0,0,0,0,0,0,0,0,-1,1644,1310,0,0
427,-286,0,0,0,0,0,0,0,0,0,-1,1651,1310,0,0
434,-286,0,0,0,0,0,0,0,0,0,-1,1658,1310,0,0
441,-286,0,0,0,0,0,0,0,0,0,-1,1665,1310,0,0
448,-286,0,0,0,0,0,0,0,0,0,-1,1672,1310,0,0
455,-286,0,0,0,0,0,0,0,0,0,-1,1679,1310,0,0
462,-286,0,0,0,0,0,0,0,0,0,-1,1686,1310,0,0
469,-286,0,0,0,0,0,0,0,0,0,-1,1693,1310,0,0
476,-286,0,0,0,0,0,0,0,0,0,-1,1700,1310,0,0
483,-286,0,0,0,0,0,0,0,0,0,-1,1707,1310,0,0
490,-286,0,0,0,0,0,0,0,0,0,-1,1714,1310,0,0
497,-286,0,0,0,0,0,0,0,0,0,-1,1721,1310,0,0
504,-286,0,0,0,0,0,0,0,0,0,-1,1728,1310,0,0
511,-286,0,0,0,0,0,0,0,0,0,-1,1735,1310,0,0
518,-286,0,0,0,0,0,0,0,0,0,-1,1742,1310,0,0
525,-286,0,0,0,0,0,0,0,0,0,-1,1749,1310,0,0
532,-286,0,0,0,0,0,0,0,0,0,-1,1756,1310,0,0
539,-286,0,0,0,0,0,0,0,0,0,-1,1763,1310,0,0
546,-286,0,0,0,0,0,0,0,0,0,-1,1770,1310,0,0
553,-286,0,0,0,0,0,0,0,0,0,-1,1777,1310,0,0
560,-286,0,0,0,0,0,0,0,0,0,-1,1784,1310,0,0
567,-286,0,0,0,0,0,0,0,0,0,-1,1791,1310,0,0
574,-286,0,0,0,0,0,0,0,0,0,-1,1798,1310,0,0
581,-286,0,0,0,0,0,0,0,0,0,-1,1805,1310,0,0
588,-286,0,0,0,0,0,0,0,0,0,-1,1812,1310,0,0
595,-286,7.03271,0.907349,-0.0286724,0.0236088,-0.00826628,0.0248846,-0.0299483,-1.41766,0.0317028,0.0411974,1819,1310,7.03268,-0.907354
602,-286,6.85657,0.703613,-0.0207318,0.0207534,-0.00606715,0.0216225,-0.0216009,-1.42852,0.024955,0.0463443,1826,1310,6.85658,-0.70356
609,-286,6.62256,0.456421,-0.01384,0.0186596,-0.00475472,0.019341,-0.0145213,-1.42847,0.0196163,0.0454987,1833,1310,6.62253,-0.456382
616,-286,5.80359,2.56409,0,0,0,0,0,0,0,-1,1840,1310,5.80363,-2.56404
623,-286,5.85022,2.57996,-0.00370102,0.0143208,-0.00272553,0.0147239,-0.0041042,-1.42394,0.0114323,0.0464896,1847,1310,5.85027,-2.57999
630,-286,5.85095,2.54724,-0.000655854,0.0128062,-0.00180465,0.0130439,-0.000893579,-1.43982,0.00900859,0.0422682,1854,1310,5.85101,-2.5472
637,-286,5.64966,2.68225,0.00181148,0.0104791,-0.00113066,0.0106241,0.00166642,-1.44319,0.00659781,0.0432351,1861,1310,5.64965,-2.68226
644,-286,5.60754,3.08472,0.00356517,0.00874631,-0.000727401,0.0088465,0.00346498,-1.43393,0.00514732,0.04581,1868,1310,5.6075,-3.08478
651,-286,5.74927,3.44104,0,0,0,0,0,0,0,-1,1875,1310,5.74926,-3.44098
658,-286,6.14954,1.7666,0,0,0,0,0,0,0,-1,1882,1310,6.14952,-1.76666
665,-286,6.104,1.76978,0.00443875,0.00500875,0.000177301,0.0050594,0.0043881,1.29254,0.00317293,0.0427206,1889,1310,6.10398,-1.76981
672,-286,6.03992,1.72449,0.00366442,0.00396009,0.000342402,0.0041852,0.0034393,0.98919,0.00257773,0.0237946,1896,1310,6.03987,-1.72444
679,-286,6.00903,1.66138,0.00319305,0.0033416,0.000450315,0.00372372,0.00281093,0.867135,0.00224106,0.0196869,1903,1310,6.00905,-1.66137
686,-286,6.01331,1.61157,0.00246335,0.00249906,0.000427316,0.0029089,0.00205352,0.806276,0.00172629,0.0200926,1910,1310,6.0133,-1.61154
693,-286,6.00195,1.55945,0.00154826,0.00201563,0.000476214,0.00231241,0.00125149,1.01349,0.00133658,0.0160907,1917,1310,6.0019,-1.55947
700,-286,6.01782,1.51392,0.00142593,0.00202765,0.000623123,0.00241875,0.00103484,1.01031,0.0014013,0.0116208,1924,1310,6.01787,-1.51396
707,-286,6.00928,1.48962,0.00158252,0.00100794,0.00147383,0.0027968,-0.000206342,0.689141,0.00193698,0.00886141,1931,1310,6.00924,-1.48968
714,-286,5.98584,1.43958,0.00222804,0.000726587,0.00246055,0.00404984,-0.00109521,0.637331,0.00312951,0.00876366,1938,1310,5.98589,-1.43953
721,-286,5.99341,1.36597,0.00327191,0.000728794,0.00329867,0.00553561,-0.00153491,0.601437,0.00429448,0.0107534,1945,1310,5.9934,-1.36597
728,-286,6.00037,1.30078,0.00407168,0.00088789,0.00411147,0.00688867,-0.0019291,0.600693,0.00535264,0.0134507,1952,1310,6.00038,-1.30077
735,-286,5.98328,1.26868,0.00535326,0.000931564,0.00509066,0.00869243,-0.0024076,0.580539,0.00674233,0.0146538,1959,1310,5.98331,-1.26873
742,-286,5.97839,1.22986,0.00706732,0.00105762,0.00642539,0.0111558,-0.00303082,0.56668,0.00862678,0.024751,1966,1310,5.97843,-1.22985
749,-286,6.02344,1.47559,0.00881552,0.00109194,0.00784198,0.013695,-0.00378755,0.556603,0.0106201,0.0401889,1973,1310,6.02346,-1.47564
756,-286,6.16992,1.80859,0.0103665,0.000954288,0.00924946,0.0160382,-0.00471747,0.550068,0.0125634,0.0443526,1980,1310,6.1699,-1.8086
763,-286,6.23816,1.74329,0.0113226,0.00053829,0.0105068,0.0177401,-0.00587925,0.548321,0.0141982,0.0431583,1987,1310,6.23818,-1.74326
770,-286,7.32166,2.92688,0,0,0,0,0,0,0,-1,1994,1310,7.32169,-2.92688
777,-286,0,0,0,0,0,0,0,0,0,-1,2001,1310,0,0
784,-286,0,0,0,0,0,0,0,0,0,-1,2008,1310,0,0
791,-286,0,0,0,0,0,0,0,0,0,-1,2015,1310,0,0
798,-286,0,0,0,0,0,0,0,0,0,-1,2022,1310,0,0
805,-286,0,0,0,0,0,0,0,0,0,-1,2029,1310,0,0
812,-286,0,0,0,0,0,0,0,0,0,-1,2036,1310,0,0
-700,-293,0,0,0,0,0,0,0,0,0,-1,524,1317,0,0
-693,-293,0,0,0,0,0,0,0,0,0,-1,531,1317,0,0
-686,-293,0,0,0,0,0,0,0,0,0,-1,538,1317,0,0
-679,-293,0,0,0,0,0,0,0,0,0,-1,545,1317,0,0
-672,-293,0,0,0,0,0,0,0,0,0,-1,552,1317,0,0
-665,-293,0,0,0,0,0,0,0,0,0,-1,559,1317,0,0
-658,-293,0,0,0,0,0,0,0,0,0,-1,566,1317,0,0
-651,-293,0.428101,-0.318848,-0.0476528,0.039158,0.0514826,0.0630912,-0.071586,1.13564,0.0778075,0.0498503,573,1317,0.428105,0.318886
-644,-293,0.376343,0.523071,-0.034672,0.0325008,0.0402592,0.0513439,-0.0535151,1.13304,0.0605447,0.0452034,580,1317,0.376353,-0.523112
-637,-293,0.348633,0.966309,-0.0247379,0.0269684,0.0308392,0.0413576,-0.039127,1.13424,0.0464737,0.0457326,587,1317,0.348625,-0.966264
-630,-293,0.191101,1.52124,0,0,0,0,0,0,0,-1,594,1317,0.191075,-1.52121
-623,-293,-0.599365,2.20911,0,0,0,0,0,0,0,-1,601,1317,-0.59939,-2.20915
-616,-293,-1.27686,0.781128,-0.00750271,0.0147377,0.0116508,0.0197234,-0.0124884,1.16645,0.0187532,0.0437146,608,1317,-1.27686,-0.781165
-609,-293,-1.30035,0.877319,-0.00472545,0.0115809,0.0077534,0.0146789,-0.00782348,1.19066,0.0131912,0.0369542,615,1317,-1.30038,-0.877357
-602,-293,-1.32178,0.906128,-0.00233485,0.008305,0.00481885,0.010163,-0.00419287,1.20279,0.00852394,0.0244014,622,1317,-1.3218,-0.906067
-595,-293,-1.34589,0.937378,-0.00125706,0.00664281,0.00260985,0.00742715,-0.00204139,1.27886,0.00575389,0.0143579,629,1317,-1.34591,-0.937342
-588,-293,-1.30402,0.984131,-0.000508136,0.0052364,0.00109075,0.00543653,-0.000708271,1.38933,0.00388204,0.0146515,636,1317,-1.30404,-0.984105
-581,-293,-1.31641,1.05212,-0.000256799,0.00264292,0.00012127,0.00264798,-0.000261862,1.52907,0.00185877,0.0181305,643,1317,-1.31642,-1.05218
-574,-293,-1.3255,1.11829,-0.000447484,0.000871629,-0.000464304,0.00101867,-0.000594521,-1.26411,0.000942044,0.0166917,650,1317,-1.32551,-1.11832
-567,-293,-1.31696,1.17542,-0.00118259,-0.000907581,-0.00085091,-0.000183138,-0.00190703,-0.865504,0.00121492,0.0143728,657,1317,-1.31698,-1.17545
-560,-293,-1.31439,1.23572,-0.00195393,-0.00245722,-0.00157478,-0.000610816,-0.00380033,-0.706169,0.00235649,0.0147777,664,1317,-1.31439,-1.23571
-553,-293,-1.30353,1.30066,-0.00339452,-0.00343454,-0.00238134,-0.00103311,-0.00579595,-0.781197,0.00356978,0.0111388,671,1317,-1.30356,-1.30068
-546,-293,-1.30933,1.36804,-0.00514504,-0.00478165,-0.00318132,-0.00177685,-0.00814984,-0.813924,0.00494845,0.0102739,678,1317,-1.3093,-1.36803
-539,-293,-1.29254,1.43823,-0.00707956,-0.00566463,-0.00395888,-0.0023505,-0.0103937,-0.873816,0.00629367,0.0177091,685,1317,-1.29254,-1.43827
-532,-293,-1.2749,1.46204,-0.00966625,-0.00652573,-0.00477262,-0.00307168,-0.0131203,-0.944327,0.00792397,0.0354408,692,1317,-1.27492,-1.46199
-525,-293,-1.18665,1.56335,-0.0122954,-0.00757702,-0.00520065,-0.00422548,-0.015647,-0.998336,0.00934681,0.0440744,699,1317,-1.18664,-1.56338
-518,-293,-1.07007,1.62927,0,0,0,0,0,0,0,-1,706,1317,-1.07005,-1.6293
-511,-293,-1.388,1.20349,-0.0177151,-0.0107491,-0.00426892,-0.00872255,-0.0197416,-1.12758,0.0114235,0.0472277,713,1317,-1.38799,-1.20352
-504,-293,-1.41577,0.616211,-0.0202101,-0.012644,-0.00278625,-0.0117287,-0.0211254,-1.25339,0.0122215,0.0427552,720,1317,-1.41575,-0.616163
-497,-293,-1.36011,-0.182495,0,0,0,0,0,0,0,-1,727,1317,-1.3601,0.182476
-490,-293,-2.93951,2.30115,-0.0233831,-0.0187462,0.00455081,-0.0159573,-0.026172,1.02099,0.0152312,0.0436175,734,1317,-2.9395,-2.30118
-483,-293,-3.84375,2.81335,0,0,0,0,0,0,0,-1,741,1317,-3.84375,-2.81333
-476,-293,-4.5321,3.37134,0,0,0,0,0,0,0,-1,748,1317,-4.53211,-3.37137
-469,-293,0,0,0,0,0,0,0,0,0,-1,755,1317,0,0
-462,-293,0,0,0,0,0,0,0,0,0,-1,762,1317,0,0
-455,-293,0,0,0,0,0,0,0,0,0,-1,769,1317,0,0
-448,-293,0,0,0,0,0,0,0,0,0,-1,776,1317,0,0
-441,-293,0,0,0,0,0,0,0,0,0,-1,783,1317,0,0
-434,-293,0,0,0,0,0,0,0,0,0,-1,790,1317,0,0
-427,-293,0,0,0,0,0,0,0,0,0,-1,797,1317,0,0
-420,-293,0,0,0,0,0,0,0,0,0,-1,804,1317,0,0
-413,-293,0,0,0,0,0,0,0,0,0,-1,811,1317,0,0
-406,-293,0,0,0,0,0,0,0,0,0,-1,818,1317,0,0
-399,-293,0,0,0,0,0,0,0,0,0,-1,825,1317,0,0
-392,-293,0,0,0,0,0,0,0,0,0,-1,832,1317,0,0
-385,-293,0,0,0,0,0,0,0,0,0,-1,839,1317,0,0
-378,-293,0,0,0,0,0,0,0,0,0,-1,846,1317,0,0
-371,-293,0,0,0,0,0,0,0,0,0,-1,853,1317,0,0
-364,-293,0,0,0,0,0,0,0,0,0,-1,860,1317,0,0
-357,-293,0,0,0,0,0,0,0,0,0,-1,867,1317,0,0
-350,-293,0,0,0,0,0,0,0,0,0,-1,874,1317,0,0
-343,-293,0,0,0,0,0,0,0,0,0,-1,881,1317,0,0
-336,-293,0,0,0,0,0,0,0,0,0,-1,888,1317,0,0
-329,-293,0,0,0,0,0,0,0,0,0,-1,895,1317,0,0
-322,-293,0,0,0,0,0,0,0,0,0,-1,902,1317,0,0
-315,-293,0,0,0,0,0,0,0,0,0,-1,909,1317,0,0
-308,-293,0,0,0,0,0,0,0,0,0,-1,916,1317,0,0
-301,-293,0,0,0,0,0,0,0,0,0,-1,923,1317,0,0
-294,-293,0,0,0,0,0,0,0,0,0,-1,930,1317,0,0
-287,-293,0,0,0,0,0,0,0,0,0,-1,937,1317,0,0
-280,-293,0,0,0,0,0,0,0,0,0,-1,944,1317,0,0
-273,-293,0,0,0,0,0,0,0,0,0,-1,951,1317,0,0
-266,-293,0,0,0,0,0,0,0,0,0,-1,958,1317,0,0
-259,-293,0,0,0,0,0,0,0,0,0,-1,965,1317,0,0
-252,-293,0,0,0,0,0,0,0,0,0,-1,972,1317,0,0
-245,-293,0,0,0,0,0,0,0,0,0,-1,979,1317,0,0
-238,-293,0,0,0,0,0,0,0,0,0,-1,986,1317,0,0
-231,-293,0,0,0,0,0,0,0,0,0,-1,993,1317,0,0
-224,-293,0,0,0,0,0,0,0,0,0,-1,1000,1317,0,0
-217,-293,0,0,0,0,0,0,0,0,0,-1,1007,1317,0,0
-210,-293,0,0,0,0,0,0,0,0,0,-1,1014,1317,0,0
-203,-293,0,0,0,0,0,0,0,0,0,-1,1021,1317,0,0
-196,-293,0,0,0,0,0,0,0,0,0,-1,1028,1317,0,0
-189,-293,0,0,0,0,0,0,0,0,0,-1,1035,1317,0,0
-182,-293,0,0,0,0,0,0,0,0,0,-1,1042,1317,0,0
-175,-293,0,0,0,0,0,0,0,0,0,-1,1049,1317,0,0
-168,-293,0,0,0,0,0,0,0,0,0,-1,1056,1317,0,0
-161,-293,0,0,0,0,0,0,0,0,0,-1,1063,1317,0,0
-154,-293,0,0,0,0,0,0,0,0,0,-1,1070,1317,0,0
-147,-293,0,0,0,0,0,0,0,0,0,-1,1077,1317,0,0
-140,-293,0,0,0,0,0,0,0,0,0,-1,1084,1317,0,0
-133,-293,0,0,0,0,0,0,0,0,0,-1,1091,1317,0,0
-126,-293,0,0,0,0,0,0,0,0,0,-1,1098,1317,0,0
-119,-293,0,0,0,0,0,0,0,0,0,-1,1105,1317,0,0
-112,-293,0,0,0,0,0,0,0,0,0,-1,1112,1317,0,0
-105,-293,0,0,0,0,0,0,0,0,0,-1,1119,1317,0,0
-98,-293,0,0,0,0,0,0,0,0,0,-1,1126,1317,0,0
-91,-293,0,0,0,0,0,0,0,0,0,-1,1133,1317,0,0
-84,-293,0,0,0,0,0,0,0,0,0,-1,1140,1317,0,0
-77,-293,0,0,0,0,0,0,0,0,0,-1,1147,1317,0,0
-70,-293,0,0,0,0,0,0,0,0,0,-1,1154,1317,0,0
-63,-293,0,0,0,0,0,0,0,0,0,-1,1161,1317,0,0
-56,-293,0,0,0,0,0,0,0,0,0,-1,1168,1317,0,0
-49,-293,0,0,0,0,0,0,0,0,0,-1,1175,1317,0,0
-42,-293,0,0,0,0,0,0,0,0,0,-1,1182,1317,0,0
-35,-293,0,0,0,0,0,0,0,0,0,-1,1189,1317,0,0
-28,-293,0,0,0,0,0,0,0,0,0,-1,1196,1317,0,0
-21,-293,0,0,0,0,0,0,0,0,0,-1,1203,1317,0,0
-14,-293,0,0,0,0,0,0,0,0,0,-1,1210,1317,0,0
-7,-293,0,0,0,0,0,0,0,0,0,-1,1217,1317,0,0
0,-293,0,0,0,0,0,0,0,0,0,-1,1224,1317,0,0
7,-293,0,0,0,0,0,0,0,0,0,-1,1231,1317,0,0
14,-293,0,0,0,0,0,0,0,0,0,-1,1238,1317,0,0
21,-293,0,0,0,0,0,0,0,0,0,-1,1245,1317,0,0
28,-293,0,0,0,0,0,0,0,0,0,-1,1252,1317,0,0
35,-293,0,0,0,0,0,0,0,0,0,-1,1259,1317,0,0
42,-293,0,0,0,0,0,0,0,0,0,-1,1266,1317,0,0
49,-293,0,0,0,0,0,0,0,0,0,-1,1273,1317,0,0
56,-293,0,0,0,0,0,0,0,0,0,-1,1280,1317,0,0
63,-293,0,0,0,0,0,0,0,0,0,-1,1287,1317,0,0
70,-293,0,0,0,0,0,0,0,0,0,-1,1294,1317,0,0
77,-293,0,0,0,0,0,0,0,0,0,-1,1301,1317,0,0
84,-293,0,0,0,0,0,0,0,0,0,-1,1308,1317,0,0
91,-293,0,0,0,0,0,0,0,0,0,-1,1315,1317,0,0
98,-293,0,0,0,0,0,0,0,0,0,-1,1322,1317,0,0
105,-293,0,0,0,0,0,0,0,0,0,-1,1329,1317,0,0
112,-293,0,0,0,0,0,0,0,0,0,-1,1336,1317,0,0
119,-293,0,0,0,0,0,0,0,0,0,-1,1343,1317,0,0
126,-293,0,0,0,0,0,0,0,0,0,-1,1350,1317,0,0
133,-293,0,0,0,0,0,0,0,0,0,-1,1357,1317,0,0
140,-293,0,0,0,0,0,0,0,0,0,-1,1364,1317,0,0
147,-293,0,0,0,0,0,0,0,0,0,-1,1371,1317,0,0
154,-293,0,0,0,0,0,0,0,0,0,-1,1378,1317,0,0
161,-293,0,0,0,0,0,0,0,0,0,-1,1385,1317,0,0
168,-293,0,0,0,0,0,0,0,0,0,-1,1392,1317,0,0
175,-293,0,0,0,0,0,0,0,0,0,-1,1399,1317,0,0
182,-293,0,0,0,0,0,0,0,0,0,-1,1406,1317,0,0
189,-293,0,0,0,0,0,0,0,0,0,-1,1413,1317,0,0
196,-293,0,0,0,0,0,0,0,0,0,-1,1420,1317,0,0
203,-293,0,0,0,0,0,0,0,0,0,-1,1427,1317,0,0
210,-293,0,0,0,0,0,0,0,0,0,-1,1434,1317,0,0
217,-293,0,0,0,0,0,0,0,0,0,-1,1441,1317,0,0
224,-293,0,0,0,0,0,0,0,0,0,-1,1448,1317,0,0
231,-293,0,0,0,0,0,0,0,0,0,-1,1455,1317,0,0
238,-293,0,0,0,0,0,0,0,0,0,-1,1462,1317,0,0
245,-293,0,0,0,0,0,0,0,0,0,-1,1469,1317,0,0
252,-293,0,0,0,0,0,0,0,0,0,-1,1476,1317,0,0
259,-293,0,0,0,0,0,0,0,0,0,-1,1483,1317,0,0
266,-293,0,0,0,0,0,0,0,0,0,-1,1490,1317,0,0
273,-293,0,0,0,0,0,0,0,0,0,-1,1497,1317,0,0
280,-293,0,0,0,0,0,0,0,0,0,-1,1504,1317,0,0
287,-293,0,0,0,0,0,0,0,0,0,-1,1511,1317,0,0
294,-293,0,0,0,0,0,0,0,0,0,-1,1518,1317,0,0
301,-293,0,0,0,0,0,0,0,0,0,-1,1525,1317,0,0
308,-293,0,0,0,0,0,0,0,0,0,-1,1532,1317,0,0
315,-293,0,0,0,0,0,0,0,0,0,-1,1539,1317,0,0
322,-293,0,0,0,0,0,0,0,0,0,-1,1546,1317,0,0
329,-293,0,0,0,0,0,0,0,0,0,-1,1553,1317,0,0
336,-293,0,0,0,0,0,0,0,0,0,-1,1560,1317,0,0
343,-293,0,0,0,0,0,0,0,0,0,-1,1567,1317,0,0
350,-293,0,0,0,0,0,0,0,0,0,-1,1574,1317,0,0
357,-293,0,0,0,0,0,0,0,0,0,-1,1581,1317,0,0
364,-293,0,0,0,0,0,0,0,0,0,-1,1588,1317,0,0
371,-293,0,0,0,0,0,0,0,0,0,-1,1595,1317,0,0
378,-293,0,0,0,0,0,0,0,0,0,-1,1602,1317,0,0
385,-293,0,0,0,0,0,0,0,0,0,-1,1609,1317,0,0
392,-293,0,0,0,0,0,0,0,0,0,-1,1616,1317,0,0
399,-293,0,0,0,0,0,0,0,0,0,-1,1623,1317,0,0
406,-293,0,0,0,0,0,0,0,0,0,-1,1630,1317,0,0
413,-293,0,0,0,0,0,0,0,0,0,-1,1637,1317,0,0
420,-293,0,0,0,0,0,0,0,0,0,-1,1644,1317,0,0
427,-293,0,0,0,0,0,0,0,0,0,-1,1651,1317,0,0
434,-293,0,0,0,0,0,0,0,0,0,-1,1658,1317,0,0
441,-293,0,0,0,0,0,0,0,0,0,-1,1665,1317,0,0
448,-293,0,0,0,0,0,0,0,0,0,-1,1672,1317,0,0
455,-293,0,0,0,0,0,0,0,0,0,-1,1679,1317,0,0
462,-293,0,0,0,0,0,0,0,0,0,-1,1686,1317,0,0
469,-293,0,0,0,0,0,0,0,0,0,-1,1693,1317,0,0
476,-293,0,0,0,0,0,0,0,0,0,-1,1700,1317,0,0
483,-293,0,0,0,0,0,0,0,0,0,-1,1707,1317,0,0
490,-293,0,0,0,0,0,0,0,0,0,-1,1714,1317,0,0
497,-293,0,0,0,0,0,0,0,0,0,-1,1721,1317,0,0
504,-293,0,0,0,0,0,0,0,0,0,-1,1728,1317,0,0
511,-293,0,0,0,0,0,0,0,0,0,-1,1735,1317,0,0
518,-293,0,0,0,0,0,0,0,0,0,-1,1742,1317,0,0
525,-293,0,0,0,0,0,0,0,0,0,-1,1749,1317,0,0
532,-293,0,0,0,0,0,0,0,0,0,-1,1756,1317,0,0
539,-293,0,0,0,0,0,0,0,0,0,-1,1763,1317,0,0
546,-293,0,0,0,0,0,0,0,0,0,-1,1770,1317,0,0
553,-293,0,0,0,0,0,0,0,0,0,-1,1777,1317,0,0
560,-293,0,0,0,0,0,0,0,0,0,-1,1784,1317,0,0
567,-293,0,0,0,0,0,0,0,0,0,-1,1791,1317,0,0
574,-293,0,0,0,0,0,0,0,0,0,-1,1798,1317,0,0
581,-293,0,0,0,0,0,0,0,0,0,-1,1805,1317,0,0
588,-293,0,0,0,0,0,0,0,0,0,-1,1812,1317,0,0
595,-293,6.98657,0.879272,0,0,0,0,0,0,0,-1,1819,1317,6.98651,-0.879327
602,-293,6.69214,0.539429,0,0,0,0,0,0,0,-1,1826,1317,6.69212,-0.539399
609,-293,5.29822,2.18286,0,0,0,0,0,0,0,-1,1833,1317,5.29827,-2.18291
616,-293,5.53162,2.30444,0,0,0,0,0,0,0,-1,1840,1317,5.53164,-2.30443
623,-293,5.70605,2.40759,-0.00350175,0.0180339,-0.00459983,0.0189752,-0.00444308,-1.36894,0.0143621,0.0484855,1847,1317,5.70605,-2.40755
630,-293,5.72009,2.56433,-0.00017871,0.016061,-0.00343772,0.0167587,-0.000876447,-1.37055,0.0114758,0.0445289,1854,1317,5.72009,-2.56434
637,-293,5.73462,2.75769,0.00258196,0.0130916,-0.0025983,0.0136989,0.00197468,-1.34119,0.00855074,0.0467219,1861,1317,5.73465,-2.75764
644,-293,5.77222,2.94922,0,0,0,0,0,0,0,-1,1868,1317,5.77218,-2.94925
651,-293,5.86743,3.36157,0,0,0,0,0,0,0,-1,1875,1317,5.86741,-3.36153
658,-293,6.40503,3.28906,0,0,0,0,0,0,0,-1,1882,1317,6.40507,-3.28905
665,-293,6.0083,1.69702,0.00495394,0.00514731,-0.000448757,0.00550968,0.00459157,-0.891503,0.00340855,0.0315287,1889,1317,6.00833,-1.69697
672,-293,5.95435,1.72131,0.00390937,0.00383329,-0.00016162,0.00403737,0.0037053,-0.669817,0.002588,0.0155526,1896,1317,5.95436,-1.72132
679,-293,5.97498,1.6676,0.00324411,0.00313655,0.000106836,0.00330994,0.00307072,0.552228,0.00213136,0.0116523,1903,1317,5.97502,-1.66755
686,-293,5.97705,1.62207,0.00241946,0.00226543,0.000168511,0.00252772,0.00215717,0.571064,0.00157622,0.0138193,1910,1317,5.97706,-1.62209
693,-293,5.97375,1.56299,0.00146827,0.00165738,0.00023839,0.00181928,0.00130636,0.974204,0.00108315,0.0116536,1917,1317,5.97373,-1.56297
700,-293,5.96692,1.5022,0.00133708,0.00173273,0.000463327,0.0020387,0.00103111,0.987169,0.00117707,0.0103765,1924,1317,5.96688,-1.50218
707,-293,5.96497,1.48364,0.00150201,0.00101585,0.00138671,0.00266679,-0.000148925,0.698633,0.00182952,0.0114868,1931,1317,5.96496,-1.48359
714,-293,5.95154,1.43701,0.00221981,0.00102493,0.00244201,0.0041364,-0.000891662,0.665429,0.00309789,0.00797566,1938,1317,5.95151,-1.437
721,-293,5.93909,1.36023,0.00343338,0.00122605,0.00349629,0.00599606,-0.00133664,0.632514,0.00450944,0.00880187,1945,1317,5.93904,-1.36019
728,-293,5.93213,1.2843,0.00450922,0.00165228,0.00453256,0.00783308,-0.00167158,0.632746,0.00585927,0.0114961,1952,1317,5.9321,-1.28434
735,-293,5.91675,1.25061,0.0061215,0.00203962,0.00583241,0.0102598,-0.00209864,0.617092,0.00763613,0.0142699,1959,1317,5.91672,-1.25056
742,-293,5.83435,1.2688,0.00824702,0.0026153,0.00755777,0.0134965,-0.00263413,0.607075,0.00999209,0.0246398,1966,1317,5.83435,-1.26876
749,-293,6.00842,1.55212,0.0105676,0.00322634,0.00953641,0.0171154,-0.00332148,0.601684,0.0126635,0.036714,1973,1317,6.00848,-1.55217
756,-293,6.09229,1.79565,0.0128938,0.00380925,0.0117227,0.0209234,-0.00422041,0.600567,0.0155479,0.0421448,1980,1317,6.09225,-1.79566
763,-293,6.02502,1.76978,0.0148641,0.00425666,0.0140328,0.0245621,-0.00544129,0.604721,0.0184578,0.0454205,1987,1317,6.02505,-1.76982
770,-293,6.4873,2.11658,0.0157946,0.0043937,0.0162591,0.0273236,-0.00713526,0.616793,0.0210021,0.0481818,1994,1317,6.48731,-2.11663
777,-293,0,0,0,0,0,0,0,0,0,-1,2001,1317,0,0
784,-293,0,0,0,0,0,0,0,0,0,-1,2008,1317,0,0
791,-293,0,0,0,0,0,0,0,0,0,-1,2015,1317,0,0
798,-293,0,0,0,0,0,0,0,0,0,-1,2022,1317,0,0
805,-293,0,0,0,0,0,0,0,0,0,-1,2029,1317,0,0
812,-293,0,0,0,0,0,0,0,0,0,-1,2036,1317,0,0
-700,-300,0,0,0,0,0,0,0,0,0,-1,524,1324,0,0
-693,-300,0,0,0,0,0,0,0,0,0,-1,531,1324,0,0
-686,-300,0,0,0,0,0,0,0,0,0,-1,538,1324,0,0
-679,-300,0,0,0,0,0,0,0,0,0,-1,545,1324,0,0
-672,-300,0,0,0,0,0,0,0,0,0,-1,552,1324,0,0
-665,-300,0,0,0,0,0,0,0,0,0,-1,559,1324,0,0
-658,-300,0,0,0,0,0,0,0,0,0,-1,566,1324,0,0
-651,-300,0.142944,-0.497192,0,0,0,0,0,0,0,-1,573,1324,0.142931,0.497178
-644,-300,0.151978,0.0594482,0,0,0,0,0,0,0,-1,580,1324,0.151987,-0.059408
-637,-300,0.0275269,0.658691,-0.0235461,0.0267595,0.0328189,0.0429558,-0.0397423,1.11236,0.0477578,0.0472095,587,1324,0.0275155,-0.658663
-630,-300,-0.218506,1.19507,-0.016638,0.0223433,0.0242483,0.0339631,-0.0282578,1.12392,0.0359736,0.0486448,594,1324,-0.218532,-1.19508
-623,-300,-0.608948,1.70239,-0.0116285,0.0185385,0.0174336,0.026508,-0.0195981,1.14202,0.0267188,0.048587,601,1324,-0.608959,-1.7024
-616,-300,-1.45502,0.414917,-0.00810488,0.0152474,0.0121651,0.0204331,-0.0132906,1.16785,0.0196154,0.0461299,608,1324,-1.45499,-0.414937
-609,-300,-1.34564,0.680786,-0.00566476,0.0123413,0.00818873,0.0155083,-0.00883177,1.20176,0.0142279,0.0405681,615,1324,-1.34566,-0.680775
-602,-300,-1.22327,0.873901,-0.00349485,0.00929538,0.00521559,0.0111525,-0.005352,1.22872,0.00972308,0.0293434,622,1324,-1.22328,-0.873961
-595,-300,-1.26038,0.940186,-0.00242351,0.00762044,0.00298427,0.00844022,-0.00324329,1.30271,0.00696437,0.0165198,629,1324,-1.2604,-0.940155
-588,-300,-1.2475,1.00952,-0.00164565,0.00618575,0.001516,0.00646898,-0.00192887,1.3861,0.0050792,0.0187752,636,1324,-1.24749,-1.00953
-581,-300,-1.2511,1.08301,-0.00124672,0.00362038,0.000511996,0.00367366,-0.00129999,1.46711,0.00297855,0.0197997,643,1324,-1.25112,-1.08299
-574,-300,-1.25824,1.1311,-0.00124023,0.00196223,-7.33178e-05,0.00196391,-0.00124191,-1.54792,0.00186646,0.0160496,650,1324,-1.25823,-1.13106
-567,-300,-1.24939,1.17883,-0.00173344,0.000333914,-0.000414865,0.00041406,-0.00181358,-1.37996,0.00136812,0.0144438,657,1324,-1.24942,-1.17879
-560,-300,-1.25476,1.24036,-0.00225732,-0.00102862,-0.00109232,-0.000389734,-0.0028962,-1.04156,0.00181489,0.0132841,664,1324,-1.25474,-1.24035
-553,-300,-1.24756,1.30847,-0.00347375,-0.00214156,-0.00185191,-0.000839598,-0.00477571,-0.958034,0.00294412,0.00990762,671,1324,-1.24755,-1.30845
-546,-300,-1.24207,1.36243,-0.00480451,-0.00370427,-0.00276086,-0.00143926,-0.00706952,-0.883738,0.00431405,0.00812048,678,1324,-1.24204,-1.36243
-539,-300,-1.23407,1.42175,-0.00608093,-0.00496126,-0.00363757,-0.0018407,-0.00920149,-0.861751,0.00562211,0.010121,685,1324,-1.23407,-1.42174
-532,-300,-1.25073,1.43701,-0.00805301,-0.00630738,-0.00453154,-0.00256537,-0.011795,-0.880538,0.00716303,0.0226537,692,1324,-1.25072,-1.43696
-525,-300,-1.18097,1.47961,-0.00996806,-0.00809632,-0.00497288,-0.00397201,-0.0140924,-0.878407,0.00839038,0.0401468,699,1324,-1.18099,-1.4796
-518,-300,-1.26685,1.48303,-0.0119073,-0.0106302,-0.00481346,-0.00641316,-0.0161244,-0.851341,0.00937412,0.0431515,706,1324,-1.26688,-1.48309
-511,-300,-1.44342,1.25049,-0.0139178,-0.0135971,-0.00390987,-0.00984429,-0.0176706,-0.805895,0.0102243,0.04451,713,1324,-1.44344,-1.25046
-504,-300,-1.57391,0.757324,-0.015732,-0.0169687,-0.00246932,-0.0138048,-0.0188959,-0.662714,0.0112896,0.0432004,720,1324,-1.57394,-0.757307
-497,-300,-1.5683,0.461548,0,0,0,0,0,0,0,-1,727,1324,-1.56827,-0.46151
-490,-300,-1.53137,0.32605,0,0,0,0,0,0,0,-1,734,1324,-1.53139,-0.326076
-483,-300,-3.58539,2.59253,0,0,0,0,0,0,0,-1,741,1324,-3.58541,-2.59254
-476,-300,0.377808,-0.121948,0,0,0,0,0,0,0,-1,748,1324,0.377796,0.121929
-469,-300,0,0,0,0,0,0,0,0,0,-1,755,1324,0,0
-462,-300,0,0,0,0,0,0,0,0,0,-1,762,1324,0,0
-455,-300,0,0,0,0,0,0,0,0,0,-1,769,1324,0,0
-448,-300,0,0,0,0,0,0,0,0,0,-1,776,1324,0,0
-441,-300,0,0,0,0,0,0,0,0,0,-1,783,1324,0,0
-434,-300,0,0,0,0,0,0,0,0,0,-1,790,1324,0,0
-427,-300,0,0,0,0,0,0,0,0,0,-1,797,1324,0,0
-420,-300,0,0,0,0,0,0,0,0,0,-1,804,1324,0,0
-413,-300,0,0,0,0,0,0,0,0,0,-1,811,1324,0,0
-406,-300,0,0,0,0,0,0,0,0,0,-1,818,1324,0,0
-399,-300,0,0,0,0,0,0,0,0,0,-1,825,1324,0,0
-392,-300,0,0,0,0,0,0,0,0,0,-1,832,1324,0,0
-385,-300,0,0,0,0,0,0,0,0,0,-1,839,1324,0,0
-378,-300,0,0,0,0,0,0,0,0,0,-1,846,1324,0,0
-371,-300,0,0,0,0,0,0,0,0,0,-1,853,1324,0,0
-364,-300,0,0,0,0,0,0,0,0,0,-1,860,1324,0,0
-357,-300,0,0,0,0,0,0,0,0,0,-1,867,1324,0,0
-350,-300,0,0,0,0,0,0,0,0,0,-1,874,1324,0,0
-343,-300,0,0,0,0,0,0,0,0,0,-1,881,1324,0,0
-336,-300,0,0,0,0,0,0,0,0,0,-1,888,1324,0,0
-329,-300,0,0,0,0,0,0,0,0,0,-1,895,1324,0,0
-322,-300,0,0,0,0,0,0,0,0,0,-1,902,1324,0,0
-315,-300,0,0,0,0,0,0,0,0,0,-1,909,1324,0,0
-308,-300,0,0,0,0,0,0,0,0,0,-1,916,1324,0,0
-301,-300,0,0,0,0,0,0,0,0,0,-1,923,1324,0,0
-294,-300,0,0,0,0,0,0,0,0,0,-1,930,1324,0,0
-287,-300,0,0,0,0,0,0,0,0,0,-1,937,1324,0,0
-280,-300,0,0,0,0,0,0,0,0,0,-1,944,1324,0,0
-273,-300,0,0,0,0,0,0,0,0,0,-1,951,1324,0,0
-266,-300,0,0,0,0,0,0,0,0,0,-1,958,1324,0,0
-259,-300,0,0,0,0,0,0,0,0,0,-1,965,1324,0,0
-252,-300,0,0,0,0,0,0,0,0,0,-1,972,1324,0,0
-245,-300,0,0,0,0,0,0,0,0,0,-1,979,1324,0,0
-238,-300,0,0,0,0,0,0,0,0,0,-1,986,1324,0,0
-231,-300,0,0,0,0,0,0,0,0,0,-1,993,1324,0,0
-224,-300,0,0,0,0,0,0,0,0,0,-1,1000,1324,0,0
-217,-300,0,0,0,0,0,0,0,0,0,-1,1007,1324,0,0
-210,-300,0,0,0,0,0,0,0,0,0,-1,1014,1324,0,0
-203,-300,0,0,0,0,0,0,0,0,0,-1,1021,1324,0,0
-196,-300,0,0,0,0,0,0,0,0,0,-1,1028,1324,0,0
-189,-300,0,0,0,0,0,0,0,0,0,-1,1035,1324,0,0
-182,-300,0,0,0,0,0,0,0,0,0,-1,1042,1324,0,0
-175,-300,0,0,0,0,0,0,0,0,0,-1,1049,1324,0,0
-168,-300,0,0,0,0,0,0,0,0,0,-1,1056,1324,0,0
-161,-300,0,0,0,0,0,0,0,0,0,-1,1063,1324,0,0
-154,-300,0,0,0,0,0,0,0,0,0,-1,1070,1324,0,0
-147,-300,0,0,0,0,0,0,0,0,0,-1,1077,1324,0,0
-140,-300,0,0,0,0,0,0,0,0,0,-1,1084,1324,0,0
-133,-300,0,0,0,0,0,0,0,0,0,-1,1091,1324,0,0
-126,-300,0,0,0,0,0,0,0,0,0,-1,1098,1324,0,0
-119,-300,0,0,0,0,0,0,0,0,0,-1,1105,1324,0,0
-112,-300,0,0,0,0,0,0,0,0,0,-1,1112,1324,0,0
-105,-300,0,0,0,0,0,0,0,0,0,-1,1119,1324,0,0
-98,-300,0,0,0,0,0,0,0,0,0,-1,1126,1324,0,0
-91,-300,0,0,0,0,0,0,0,0,0,-1,1133,1324,0,0
-84,-300,0,0,0,0,0,0,0,0,0,-1,1140,1324,0,0
-77,-300,0,0,0,0,0,0,0,0,0,-1,1147,1324,0,0
-70,-300,0,0,0,0,0,0,0,0,0,-1,1154,1324,0,0
-63,-300,0,0,0,0,0,0,0,0,0,-1,1161,1324,0,0
-56,-300,0,0,0,0,0,0,0,0,0,-1,1168,1324,0,0
-49,-300,0,0,0,0,0,0,0,0,0,-1,1175,1324,0,0
-42,-300,0,0,0,0,0,0,0,0,0,-1,1182,1324,0,0
-35,-300,0,0,0,0,0,0,0,0,0,-1,1189,1324,0,0
-28,-300,0,0,0,0,0,0,0,0,0,-1,1196,1324,0,0
-21,-300,0,0,0,0,0,0,0,0,0,-1,1203,1324,0,0
-14,-300,0,0,0,0,0,0,0,0,0,-1,1210,1324,0,0
-7,-300,0,0,0,0,0,0,0,0,0,-1,1217,1324,0,0
0,-300,0,0,0,0,0,0,0,0,0,-1,1224,1324,0,0
7,-300,0,0,0,0,0,0,0,0,0,-1,1231,1324,0,0
14,-300,0,0,0,0,0,0,0,0,0,-1,1238,1324,0,0
21,-300,0,0,0,0,0,0,0,0,0,-1,1245,1324,0,0
28,-300,0,0,0,0,0,0,0,0,0,-1,1252,1324,0,0
35,-300,0,0,0,0,0,0,0,0,0,-1,1259,1324,0,0
42,-300,0,0,0,0,0,0,0,0,0,-1,1266,1324,0,0
49,-300,0,0,0,0,0,0,0,0,0,-1,1273,1324,0,0
56,-300,0,0,0,0,0,0,0,0,0,-1,1280,1324,0,0
63,-300,0,0,0,0,0,0,0,0,0,-1,1287,1324,0,0
70,-300,0,0,0,0,0,0,0,0,0,-1,1294,1324,0,0
77,-300,0,0,0,0,0,0,0,0,0,-1,1301,1324,0,0
84,-300,0,0,0,0,0,0,0,0,0,-1,1308,1324,0,0
91,-300,0,0,0,0,0,0,0,0,0,-1,1315,1324,0,0
98,-300,0,0,0,0,0,0,0,0,0,-1,1322,1324,0,0
105,-300,0,0,0,0,0,0,0,0,0,-1,1329,1324,0,0
112,-300,0,0,0,0,0,0,0,0,0,-1,1336,1324,0,0
119,-300,0,0,0,0,0,0,0,0,0,-1,1343,1324,0,0
126,-300,0,0,0,0,0,0,0,0,0,-1,1350,1324,0,0
133,-300,0,0,0,0,0,0,0,0,0,-1,1357,1324,0,0
140,-300,0,0,0,0,0,0,0,0,0,-1,1364,1324,0,0
147,-300,0,0,0,0,0,0,0,0,0,-1,1371,1324,0,0
154,-300,0,0,0,0,0,0,0,0,0,-1,1378,1324,0,0
161,-300,0,0,0,0,0,0,0,0,0,-1,1385,1324,0,0
168,-300,0,0,0,0,0,0,0,0,0,-1,1392,1324,0,0
175,-300,0,0,0,0,0,0,0,0,0,-1,1399,1324,0,0
182,-300,0,0,0,0,0,0,0,0,0,-1,1406,1324,0,0
189,-300,0,0,0,0,0,0,0,0,0,-1,1413,1324,0,0
196,-300,0,0,0,0,0,0,0,0,0,-1,1420,1324,0,0
203,-300,0,0,0,0,0,0,0,0,0,-1,1427,1324,0,0
210,-300,0,0,0,0,0,0,0,0,0,-1,1434,1324,0,0
217,-300,0,0,0,0,0,0,0,0,0,-1,1441,1324,0,0
224,-300,0,0,0,0,0,0,0,0,0,-1,1448,1324,0,0
231,-300,0,0,0,0,0,0,0,0,0,-1,1455,1324,0,0
238,-300,0,0,0,0,0,0,0,0,0,-1,1462,1324,0,0
245,-300,0,0,0,0,0,0,0,0,0,-1,1469,1324,0,0
252,-300,0,0,0,0,0,0,0,0,0,-1,1476,1324,0,0
259,-300,0,0,0,0,0,0,0,0,0,-1,1483,1324,0,0
266,-300,0,0,0,0,0,0,0,0,0,-1,1490,1324,0,0
273,-300,0,0,0,0,0,0,0,0,0,-1,1497,1324,0,0
280,-300,0,0,0,0,0,0,0,0,0,-1,1504,1324,0,0
287,-300,0,0,0,0,0,0,0,0,0,-1,1511,1324,0,0
294,-300,0,0,0,0,0,0,0,0,0,-1,1518,1324,0,0
301,-300,0,0,0,0,0,0,0,0,0,-1,1525,1324,0,0
308,-300,0,0,0,0,0,0,0,0,0,-1,1532,1324,0,0
315,-300,0,0,0,0,0,0,0,0,0,-1,1539,1324,0,0
322,-300,0,0,0,0,0,0,0,0,0,-1,1546,1324,0,0
329,-300,0,0,0,0,0,0,0,0,0,-1,1553,1324,0,0
336,-300,0,0,0,0,0,0,0,0,0,-1,1560,1324,0,0
343,-300,0,0,0,0,0,0,0,0,0,-1,1567,1324,0,0
350,-300,0,0,0,0,0,0,0,0,0,-1,1574,1324,0,0
357,-300,0,0,0,0,0,0,0,0,0,-1,1581,1324,0,0
364,-300,0,0,0,0,0,0,0,0,0,-1,1588,1324,0,0
371,-300,0,0,0,0,0,0,0,0,0,-1,1595,1324,0,0
378,-300,0,0,0,0,0,0,0,0,0,-1,1602,1324,0,0
385,-300,0,0,0,0,0,0,0,0,0,-1,1609,1324,0,0
392,-300,0,0,0,0,0,0,0,0,0,-1,1616,1324,0,0
399,-300,0,0,0,0,0,0,0,0,0,-1,1623,1324,0,0
406,-300,0,0,0,0,0,0,0,0,0,-1,1630,1324,0,0
413,-300,0,0,0,0,0,0,0,0,0,-1,1637,1324,0,0
420,-300,0,0,0,0,0,0,0,0,0,-1,1644,1324,0,0
427,-300,0,0,0,0,0,0,0,0,0,-1,1651,1324,0,0
434,-300,0,0,0,0,0,0,0,0,0,-1,1658,1324,0,0
441,-300,0,0,0,0,0,0,0,0,0,-1,1665,1324,0,0
448,-300,0,0,0,0,0,0,0,0,0,-1,1672,1324,0,0
455,-300,0,0,0,0,0,0,0,0,0,-1,1679,1324,0,0
462,-300,0,0,0,0,0,0,0,0,0,-1,1686,1324,0,0
469,-300,0,0,0,0,0,0,0,0,0,-1,1693,1324,0,0
476,-300,0,0,0,0,0,0,0,0,0,-1,1700,1324,0,0
483,-300,0,0,0,0,0,0,0,0,0,-1,1707,1324,0,0
490,-300,0,0,0,0,0,0,0,0,0,-1,1714,1324,0,0
497,-300,0,0,0,0,0,0,0,0,0,-1,1721,1324,0,0
504,-300,0,0,0,0,0,0,0,0,0,-1,1728,1324,0,0
511,-300,0,0,0,0,0,0,0,0,0,-1,1735,1324,0,0
518,-300,0,0,0,0,0,0,0,0,0,-1,1742,1324,0,0
525,-300,0,0,0,0,0,0,0,0,0,-1,1749,1324,0,0
532,-300,0,0,0,0,0,0,0,0,0,-1,1756,1324,0,0
539,-300,0,0,0,0,0,0,0,0,0,-1,1763,1324,0,0
546,-300,0,0,0,0,0,0,0,0,0,-1,1770,1324,0,0
553,-300,0,0,0,0,0,0,0,0,0,-1,1777,1324,0,0
560,-300,0,0,0,0,0,0,0,0,0,-1,1784,1324,0,0
567,-300,0,0,0,0,0,0,0,0,0,-1,1791,1324,0,0
574,-300,0,0,0,0,0,0,0,0,0,-1,1798,1324,0,0
581,-300,0,0,0,0,0,0,0,0,0,-1,1805,1324,0,0
588,-300,7.7041,1.26196,0,0,0,0,0,0,0,-1,1812,1324,7.70414,-1.26192
595,-300,7.2323,0.98291,0,0,0,0,0,0,0,-1,1819,1324,7.23231,-0.982954
602,-300,6.86914,0.53479,-0.0218569,0.0295512,-0.0107436,0.0317061,-0.0240119,-1.37284,0.0322709,0.0471806,1826,1324,6.86914,-0.534733
609,-300,6.56604,-0.155029,0,0,0,0,0,0,0,-1,1833,1324,6.56607,0.155062
616,-300,5.46204,2.18005,0,0,0,0,0,0,0,-1,1840,1324,5.462,-2.18004
623,-300,4.81934,2.3446,0,0,0,0,0,0,0,-1,1847,1324,4.81928,-2.34461
630,-300,5.4093,2.20667,0,0,0,0,0,0,0,-1,1854,1324,5.40929,-2.20667
637,-300,4.91516,2.71021,0,0,0,0,0,0,0,-1,1861,1324,4.9152,-2.71017
644,-300,5.08667,2.94568,0,0,0,0,0,0,0,-1,1868,1324,5.08665,-2.94564
651,-300,5.55334,2.91052,0.00644964,0.00844878,-0.00156379,0.00930517,0.00559325,-1.06977,0.00540882,0.0448586,1875,1324,5.55338,-2.9105
658,-300,5.97778,1.88367,0.00628579,0.00726295,-0.00116259,0.00803545,0.00551329,-0.98432,0.0047452,0.0400881,1882,1324,5.97781,-1.88369
665,-300,5.89417,1.76721,0.00529861,0.00518686,-0.000765251,0.00601002,0.00447545,-0.748955,0.0036057,0.0234629,1889,1324,5.89417,-1.76724
672,-300,5.89172,1.73669,0.00396201,0.00364482,-0.000392143,0.00422641,0.00338041,-0.593237,0.00258222,0.0100654,1896,1324,5.89176,-1.73669
679,-300,5.91235,1.66528,0.00308927,0.0028675,-3.07696e-05,0.00309346,0.00286331,-0.135341,0.00199003,0.0108813,1903,1324,5.91238,-1.66532
686,-300,5.92212,1.62891,0.00218697,0.00198843,4.99922e-05,0.00219885,0.00197655,0.233259,0.0013977,0.0111723,1910,1324,5.92213,-1.62893
693,-300,5.90161,1.56567,0.00124604,0.00127153,9.76304e-05,0.00135725,0.00116033,0.850293,0.000846858,0.00984885,1917,1324,5.90158,-1.56573
700,-300,5.89807,1.49048,0.00113023,0.00141059,0.000341991,0.00164001,0.000900803,0.979899,0.000948393,0.0113552,1924,1324,5.89803,-1.49044
707,-300,5.91321,1.4447,0.00132348,0.00103012,0.00125625,0.00244158,-8.79832e-05,0.72728,0.00165782,0.00892487,1931,1324,5.91315,-1.44469
714,-300,5.91943,1.40259,0.00205399,0.00134973,0.00232573,0.00405409,-0.000650372,0.710266,0.00294357,0.0107912,1938,1324,5.91945,-1.40258
721,-300,5.90198,1.34912,0.00330028,0.00181482,0.00351129,0.00614653,-0.00103143,0.681172,0.00448124,0.0114995,1945,1324,5.90196,-1.34911
728,-300,5.89832,1.27808,0.00455994,0.00258254,0.00467711,0.00835171,-0.00120923,0.681236,0.00601156,0.00947178,1952,1324,5.89829,-1.27811
735,-300,5.8501,1.24341,0.00638299,0.00346391,0.00620173,0.0112946,-0.00144772,0.669829,0.00805579,0.0136007,1959,1324,5.85007,-1.24345
742,-300,5.74817,1.39771,0.00878351,0.00467648,0.00822451,0.015207,-0.001747,0.663058,0.0107677,0.0275401,1966,1324,5.74823,-1.39766
749,-300,5.91309,1.61401,0.0115528,0.00614634,0.0106521,0.0198393,-0.00214014,0.661133,0.0139942,0.0407022,1973,1324,5.91303,-1.61404
756,-300,6.2334,2.08997,0.0145904,0.00786035,0.0134914,0.0251301,-0.00267938,0.663182,0.0177142,0.0474974,1980,1324,6.23341,-2.09002
763,-300,5.85791,1.39233,0.0176486,0.00975298,0.0167275,0.0308878,-0.00348625,0.669515,0.0218469,0.0440658,1987,1324,5.85789,-1.39228
770,-300,6.19507,1.98901,0.0201932,0.0116905,0.0202169,0.0366009,-0.00471717,0.681764,0.0261154,0.0468299,1994,1324,6.19504,-1.989
777,-300,0,0,0,0,0,0,0,0,0,-1,2001,1324,0,0
784,-300,0,0,0,0,0,0,0,0,0,-1,2008,1324,0,0
791,-300,0,0,0,0,0,0,0,0,0,-1,2015,1324,0,0
798,-300,0,0,0,0,0,0,0,0,0,-1,2022,1324,0,0
805,-300,0,0,0,0,0,0,0,0,0,-1,2029,1324,0,0
812,-300,0,0,0,0,0,0,0,0,0,-1,2036,1324,0,0
-700,-307,0,0,0,0,0,0,0,0,0,-1,524,1331,0,0
-693,-307,0,0,0,0,0,0,0,0,0,-1,531,1331,0,0
-686,-307,0,0,0,0,0,0,0,0,0,-1,538,1331,0,0
-679,-307,0,0,0,0,0,0,0,0,0,-1,545,1331,0,0
-672,-307,0,0,0,0,0,0,0,0,0,-1,552,1331,0,0
-665,-307,0,0,0,0,0,0,0,0,0,-1,559,1331,0,0
-658,-307,0,0,0,0,0,0,0,0,0,-1,566,1331,0,0
-651,-307,-0.408142,-0.824585,0,0,0,0,0,0,0,-1,573,1331,-0.408128,0.824612
-644,-307,0.0335693,-0.516724,0,0,0,0,0,0,0,-1,580,1331,0.033578,0.516737
-637,-307,-0.0876465,0.126831,-0.020451,0.0248632,0.0374508,0.0459771,-0.041565,1.05744,0.0505639,0.0474963,587,1331,-0.0876397,-0.12682
-630,-307,-0.38147,0.936523,-0.0146815,0.0213983,0.0282188,0.0368507,-0.030134,1.0698,0.0387384,0.0447772,594,1331,-0.381482,-0.936483
-623,-307,-0.816223,1.45959,-0.0106361,0.0183139,0.0208479,0.0292192,-0.0215414,1.08885,0.0294182,0.0452488,601,1331,-0.816226,-1.4596
-616,-307,-1.35236,0.54126,-0.00786114,0.0155517,0.0150838,0.0229387,-0.0152482,1.11539,0.0221958,0.0469607,608,1331,-1.35235,-0.54121
-609,-307,-1.21564,0.495239,-0.00599685,0.0130774,0.0107045,0.017877,-0.0107965,1.14929,0.0167221,0.0428159,615,1331,-1.21562,-0.495255
-602,-307,-1.13379,0.814331,-0.00426291,0.0103923,0.0073515,0.0134444,-0.00731502,1.17728,0.0121584,0.0310013,622,1331,-1.1338,-0.814347
-595,-307,-1.17975,0.93457,-0.0033708,0.00876575,0.00477825,0.0104212,-0.00502623,1.23729,0.00909807,0.0133096,629,1331,-1.17973,-0.934605
-588,-307,-1.19403,1.02234,-0.0026759,0.00735886,0.0030618,0.00821929,-0.00353634,1.29684,0.00696431,0.0165677,636,1331,-1.19401,-1.02236
-581,-307,-1.18909,1.07397,-0.00218957,0.00483461,0.00175711,0.00524963,-0.0026046,1.33885,0.00461956,0.01472,643,1331,-1.18906,-1.07393
-574,-307,-1.19257,1.11353,-0.00203992,0.00330983,0.00096339,0.00347803,-0.00220812,1.39795,0.00331008,0.0123632,650,1331,-1.19255,-1.11351
-567,-307,-1.18939,1.1803,-0.00233143,0.00183301,0.000422353,0.00187542,-0.00237383,1.47073,0.00245892,0.0121502,657,1331,-1.18936,-1.18036
-560,-307,-1.17072,1.25781,-0.0026647,0.000583884,-0.000395201,0.00063127,-0.00271209,-1.45146,0.00205112,0.012813,664,1331,-1.17069,-1.2578
-553,-307,-1.17218,1.30762,-0.00364161,-0.000698255,-0.00111867,-0.000321348,-0.00401852,-1.24582,0.00257858,0.0100233,671,1331,-1.1722,-1.30765
-546,-307,-1.16705,1.35242,-0.00454082,-0.00245997,-0.00213814,-0.00112255,-0.00587824,-1.01183,0.0036034,0.00902025,678,1331,-1.16704,-1.35237
-539,-307,-1.15259,1.4248,-0.00512402,-0.00410693,-0.00311836,-0.00145592,-0.00777503,-0.866227,0.00477265,0.00995602,685,1331,-1.15258,-1.42479
-532,-307,-1.16687,1.48486,-0.0064848,-0.00593532,-0.00410299,-0.00209788,-0.0103222,-0.818828,0.00629973,0.0176186,692,1331,-1.16687,-1.48484
-525,-307,-1.25995,1.55212,-0.00771804,-0.00833874,-0.00459449,-0.00342343,-0.0126333,-0.751675,0.00754459,0.0345345,699,1331,-1.25998,-1.55217
-518,-307,-1.4032,1.39319,-0.00893165,-0.0117336,-0.00441838,-0.00569745,-0.0149678,-0.631873,0.00872334,0.0427231,706,1331,-1.40317,-1.39321
-511,-307,-1.50659,1.19653,-0.010206,-0.0158276,-0.00347896,-0.00854422,-0.0174894,-0.445613,0.0100984,0.0403796,713,1331,-1.5066,-1.19659
-504,-307,-1.71002,0.766235,-0.0113247,-0.0204193,-0.00212282,-0.0108536,-0.0208904,-0.21838,0.0120642,0.0423968,720,1331,-1.71004,-0.76625
-497,-307,-1.99005,0.731567,0,0,0,0,0,0,0,-1,727,1331,-1.99008,-0.731576
-490,-307,-2.99194,0.810303,-0.0130596,-0.0321344,0.00462852,-0.0119958,-0.0331982,0.225909,0.0194111,0.0468098,734,1331,-2.99196,-0.810317
-483,-307,-3.62219,1.41333,0,0,0,0,0,0,0,-1,741,1331,-3.62222,-1.41332
-476,-307,-4.08551,1.9187,0,0,0,0,0,0,0,-1,748,1331,-4.08551,-1.91866
-469,-307,4.22723,-3.45801,0,0,0,0,0,0,0,-1,755,1331,4.22725,3.45805
-462,-307,0,0,0,0,0,0,0,0,0,-1,762,1331,0,0
-455,-307,0,0,0,0,0,0,0,0,0,-1,769,1331,0,0
-448,-307,0,0,0,0,0,0,0,0,0,-1,776,1331,0,0
-441,-307,0,0,0,0,0,0,0,0,0,-1,783,1331,0,0
-434,-307,0,0,0,0,0,0,0,0,0,-1,790,1331,0,0
-427,-307,0,0,0,0,0,0,0,0,0,-1,797,1331,0,0
-420,-307,0,0,0,0,0,0,0,0,0,-1,804,1331,0,0
-413,-307,0,0,0,0,0,0,0,0,0,-1,811,1331,0,0
-406,-307,0,0,0,0,0,0,0,0,0,-1,818,1331,0,0
-399,-307,0,0,0,0,0,0,0,0,0,-1,825,1331,0,0
-392,-307,0,0,0,0,0,0,0,0,0,-1,832,1331,0,0
-385,-307,0,0,0,0,0,0,0,0,0,-1,839,1331,0,0
-378,-307,0,0,0,0,0,0,0,0,0,-1,846,1331,0,0
-371,-307,0,0,0,0,0,0,0,0,0,-1,853,1331,0,0
-364,-307,0,0,0,0,0,0,0,0,0,-1,860,1331,0,0
-357,-307,0,0,0,0,0,0,0,0,0,-1,867,1331,0,0
-350,-307,0,0,0,0,0,0,0,0,0,-1,874,1331,0,0
-343,-307,0,0,0,0,0,0,0,0,0,-1,881,1331,0,0
-336,-307,0,0,0,0,0,0,0,0,0,-1,888,1331,0,0
-329,-307,0,0,0,0,0,0,0,0,0,-1,895,1331,0,0
-322,-307,0,0,0,0,0,0,0,0,0,-1,902,1331,0,0
-315,-307,0,0,0,0,0,0,0,0,0,-1,909,1331,0,0
-308,-307,0,0,0,0,0,0,0,0,0,-1,916,1331,0,0
-301,-307,0,0,0,0,0,0,0,0,0,-1,923,1331,0,0
-294,-307,0,0,0,0,0,0,0,0,0,-1,930,1331,0,0
-287,-307,0,0,0,0,0,0,0,0,0,-1,937,1331,0,0
-280,-307,0,0,0,0,0,0,0,0,0,-1,944,1331,0,0
-273,-307,0,0,0,0,0,0,0,0,0,-1,951,1331,0,0
-266,-307,0,0,0,0,0,0,0,0,0,-1,958,1331,0,0
-259,-307,0,0,0,0,0,0,0,0,0,-1,965,1331,0,0
-252,-307,0,0,0,0,0,0,0,0,0,-1,972,1331,0,0
-245,-307,0,0,0,0,0,0,0,0,0,-1,979,1331,0,0
-238,-307,0,0,0,0,0,0,0,0,0,-1,986,1331,0,0
-231,-307,0,0,0,0,0,0,0,0,0,-1,993,1331,0,0
-224,-307,0,0,0,0,0,0,0,0,0,-1,1000,1331,0,0
-217,-307,0,0,0,0,0,0,0,0,0,-1,1007,1331,0,0
-210,-307,0,0,0,0,0,0,0,0,0,-1,1014,1331,0,0
-203,-307,0,0,0,0,0,0,0,0,0,-1,1021,1331,0,0
-196,-307,0,0,0,0,0,0,0,0,0,-1,1028,1331,0,0
-189,-307,0,0,0,0,0,0,0,0,0,-1,1035,1331,0,0
-182,-307,0,0,0,0,0,0,0,0,0,-1,1042,1331,0,0
-175,-307,0,0,0,0,0,0,0,0,0,-1,1049,1331,0,0
-168,-307,0,0,0,0,0,0,0,0,0,-1,1056,1331,0,0
-161,-307,0,0,0,0,0,0,0,0,0,-1,1063,1331,0,0
-154,-307,0,0,0,0,0,0,0,0,0,-1,1070,1331,0,0
-147,-307,0,0,0,0,0,0,0,0,0,-1,1077,1331,0,0
-140,-307,0,0,0,0,0,0,0,0,0,-1,1084,1331,0,0
-133,-307,0,0,0,0,0,0,0,0,0,-1,1091,1331,0,0
-126,-307,0,0,0,0,0,0,0,0,0,-1,1098,1331,0,0
-119,-307,0,0,0,0,0,0,0,0,0,-1,1105,1331,0,0
-112,-307,0,0,0,0,0,0,0,0,0,-1,1112,1331,0,0
-105,-307,0,0,0,0,0,0,0,0,0,-1,1119,1331,0,0
-98,-307,0,0,0,0,0,0,0,0,0,-1,1126,1331,0,0
-91,-307,0,0,0,0,0,0,0,0,0,-1,1133,1331,0,0
-84,-307,0,0,0,0,0,0,0,0,0,-1,1140,1331,0,0
-77,-307,0,0,0,0,0,0,0,0,0,-1,1147,1331,0,0
-70,-307,0,0,0,0,0,0,0,0,0,-1,1154,1331,0,0
-63,-307,0,0,0,0,0,0,0,0,0,-1,1161,1331,0,0
-56,-307,0,0,0,0,0,0,0,0,0,-1,1168,1331,0,0
-49,-307,0,0,0,0,0,0,0,0,0,-1,1175,1331,0,0
-42,-307,0,0,0,0,0,0,0,0,0,-1,1182,1331,0,0
-35,-307,0,0,0,0,0,0,0,0,0,-1,1189,1331,0,0
-28,-307,0,0,0,0,0,0,0,0,0,-1,1196,1331,0,0
-21,-307,0,0,0,0,0,0,0,0,0,-1,1203,1331,0,0
-14,-307,0,0,0,0,0,0,0,0,0,-1,1210,1331,0,0
-7,-307,0,0,0,0,0,0,0,0,0,-1,1217,1331,0,0
0,-307,0,0,0,0,0,0,0,0,0,-1,1224,1331,0,0
7,-307,0,0,0,0,0,0,0,0,0,-1,1231,1331,0,0
14,-307,0,0,0,0,0,0,0,0,0,-1,1238,1331,0,0
21,-307,0,0,0,0,0,0,0,0,0,-1,1245,1331,0,0
28,-307,0,0,0,0,0,0,0,0,0,-1,1252,1331,0,0
35,-307,0,0,0,0,0,0,0,0,0,-1,1259,1331,0,0
42,-307,0,0,0,0,0,0,0,0,0,-1,1266,1331,0,0
49,-307,0,0,0,0,0,0,0,0,0,-1,1273,1331,0,0
56,-307,0,0,0,0,0,0,0,0,0,-1,1280,1331,0,0
63,-307,0,0,0,0,0,0,0,0,0,-1,1287,1331,0,0
70,-307,0,0,0,0,0,0,0,0,0,-1,1294,1331,0,0
77,-307,0,0,0,0,0,0,0,0,0,-1,1301,1331,0,0
84,-307,0,0,0,0,0,0,0,0,0,-1,1308,1331,0,0
91,-307,0,0,0,0,0,0,0,0,0,-1,1315,1331,0,0
98,-307,0,0,0,0,0,0,0,0,0,-1,1322,1331,0,0
105,-307,0,0,0,0,0,0,0,0,0,-1,1329,1331,0,0
112,-307,0,0,0,0,0,0,0,0,0,-1,1336,1331,0,0
119,-307,0,0,0,0,0,0,0,0,0,-1,1343,1331,0,0
126,-307,0,0,0,0,0,0,0,0,0,-1,1350,1331,0,0
133,-307,0,0,0,0,0,0,0,0,0,-1,1357,1331,0,0
140,-307,0,0,0,0,0,0,0,0,0,-1,1364,1331,0,0
147,-307,0,0,0,0,0,0,0,0,0,-1,1371,1331,0,0
154,-307,0,0,0,0,0,0,0,0,0,-1,1378,1331,0,0
161,-307,0,0,0,0,0,0,0,0,0,-1,1385,1331,0,0
168,-307,0,0,0,0,0,0,0,0,0,-1,1392,1331,0,0
175,-307,0,0,0,0,0,0,0,0,0,-1,1399,1331,0,0
182,-307,0,0,0,0,0,0,0,0,0,-1,1406,1331,0,0
189,-307,0,0,0,0,0,0,0,0,0,-1,1413,1331,0,0
196,-307,0,0,0,0,0,0,0,0,0,-1,1420,1331,0,0
203,-307,0,0,0,0,0,0,0,0,0,-1,1427,1331,0,0
210,-307,0,0,0,0,0,0,0,0,0,-1,1434,1331,0,0
217,-307,0,0,0,0,0,0,0,0,0,-1,1441,1331,0,0
224,-307,0,0,0,0,0,0,0,0,0,-1,1448,1331,0,0
231,-307,0,0,0,0,0,0,0,0,0,-1,1455,1331,0,0
238,-307,0,0,0,0,0,0,0,0,0,-1,1462,1331,0,0
245,-307,0,0,0,0,0,0,0,0,0,-1,1469,1331,0,0
252,-307,0,0,0,0,0,0,0,0,0,-1,1476,1331,0,0
259,-307,0,0,0,0,0,0,0,0,0,-1,1483,1331,0,0
266,-307,0,0,0,0,0,0,0,0,0,-1,1490,1331,0,0
273,-307,0,0,0,0,0,0,0,0,0,-1,1497,1331,0,0
280,-307,0,0,0,0,0,0,0,0,0,-1,1504,1331,0,0
287,-307,0,0,0,0,0,0,0,0,0,-1,1511,1331,0,0
294,-307,0,0,0,0,0,0,0,0,0,-1,1518,1331,0,0
301,-307,0,0,0,0,0,0,0,0,0,-1,1525,1331,0,0
308,-307,0,0,0,0,0,0,0,0,0,-1,1532,1331,0,0
315,-307,0,0,0,0,0,0,0,0,0,-1,1539,1331,0,0
322,-307,0,0,0,0,0,0,0,0,0,-1,1546,1331,0,0
329,-307,0,0,0,0,0,0,0,0,0,-1,1553,1331,0,0
336,-307,0,0,0,0,0,0,0,0,0,-1,1560,1331,0,0
343,-307,0,0,0,0,0,0,0,0,0,-1,1567,1331,0,0
350,-307,0,0,0,0,0,0,0,0,0,-1,1574,1331,0,0
357,-307,0,0,0,0,0,0,0,0,0,-1,1581,1331,0,0
364,-307,0,0,0,0,0,0,0,0,0,-1,1588,1331,0,0
371,-307,0,0,0,0,0,0,0,0,0,-1,1595,1331,0,0
378,-307,0,0,0,0,0,0,0,0,0,-1,1602,1331,0,0
385,-307,0,0,0,0,0,0,0,0,0,-1,1609,1331,0,0
392,-307,0,0,0,0,0,0,0,0,0,-1,1616,1331,0,0
399,-307,0,0,0,0,0,0,0,0,0,-1,1623,1331,0,0
406,-307,0,0,0,0,0,0,0,0,0,-1,1630,1331,0,0
413,-307,0,0,0,0,0,0,0,0,0,-1,1637,1331,0,0
420,-307,0,0,0,0,0,0,0,0,0,-1,1644,1331,0,0
427,-307,0,0,0,0,0,0,0,0,0,-1,1651,1331,0,0
434,-307,0,0,0,0,0,0,0,0,0,-1,1658,1331,0,0
441,-307,0,0,0,0,0,0,0,0,0,-1,1665,1331,0,0
448,-307,0,0,0,0,0,0,0,0,0,-1,1672,1331,0,0
455,-307,0,0,0,0,0,0,0,0,0,-1,1679,1331,0,0
462,-307,0,0,0,0,0,0,0,0,0,-1,1686,1331,0,0
469,-307,0,0,0,0,0,0,0,0,0,-1,1693,1331,0,0
476,-307,0,0,0,0,0,0,0,0,0,-1,1700,1331,0,0
483,-307,0,0,0,0,0,0,0,0,0,-1,1707,1331,0,0
490,-307,0,0,0,0,0,0,0,0,0,-1,1714,1331,0,0
497,-307,0,0,0,0,0,0,0,0,0,-1,1721,1331,0,0
504,-307,0,0,0,0,0,0,0,0,0,-1,1728,1331,0,0
511,-307,0,0,0,0,0,0,0,0,0,-1,1735,1331,0,0
518,-307,0,0,0,0,0,0,0,0,0,-1,1742,1331,0,0
525,-307,0,0,0,0,0,0,0,0,0,-1,1749,1331,0,0
532,-307,0,0,0,0,0,0,0,0,0,-1,1756,1331,0,0
539,-307,0,0,0,0,0,0,0,0,0,-1,1763,1331,0,0
546,-307,0,0,0,0,0,0,0,0,0,-1,1770,1331,0,0
553,-307,0,0,0,0,0,0,0,0,0,-1,1777,1331,0,0
560,-307,0,0,0,0,0,0,0,0,0,-1,1784,1331,0,0
567,-307,0,0,0,0,0,0,0,0,0,-1,1791,1331,0,0
574,-307,0,0,0,0,0,0,0,0,0,-1,1798,1331,0,0
581,-307,0,0,0,0,0,0,0,0,0,-1,1805,1331,0,0
588,-307,3.54932,3.69543,0,0,0,0,0,0,0,-1,1812,1331,3.54935,-3.69548
595,-307,7.55029,1.00134,0,0,0,0,0,0,0,-1,1819,1331,7.5503,-1.00133
602,-307,4.76379,4.07056,0,0,0,0,0,0,0,-1,1826,1331,4.76381,-4.07058
609,-307,4.87939,3.95691,0,0,0,0,0,0,0,-1,1833,1331,4.87945,-3.95695
616,-307,5.29358,3.48621,0,0,0,0,0,0,0,-1,1840,1331,5.29352,-3.48622
623,-307,5.00659,2.05225,-0.00266769,0.0243467,-0.00732425,0.0262047,-0.00452568,-1.32236,0.0191574,0.0485321,1847,1331,5.00657,-2.05224
630,-307,5.13977,1.92712,0.00131045,0.0211739,-0.00565461,0.0226708,-0.00018646,-1.31201,0.0151764,0.0480215,1854,1331,5.1398,-1.92716
637,-307,5.2937,2.12732,0.0046014,0.0170104,-0.00422819,0.0183141,0.00329768,-1.27171,0.0112721,0.0437627,1861,1331,5.29375,-2.12737
644,-307,5.39661,2.30579,0.00649947,0.0130563,-0.0031314,0.0143115,0.00524426,-1.18956,0.00836042,0.0397522,1868,1331,5.39657,-2.30581
651,-307,5.50317,2.25891,0.00696283,0.00892272,-0.00167585,0.0098841,0.00600144,-1.04996,0.00575013,0.0435044,1875,1331,5.50317,-2.25891
658,-307,5.87671,1.83484,0.00643093,0.00727596,-0.00111933,0.00804986,0.00565703,-0.965865,0.00477326,0.0381398,1882,1331,5.87675,-1.83485
665,-307,5.86646,1.7688,0.0050649,0.00494663,-0.00065734,0.00566576,0.00434577,-0.740536,0.00342309,0.0136069,1889,1331,5.86643,-1.76875
672,-307,5.85657,1.73401,0.00352754,0.00323865,-0.000267515,0.00368712,0.00307907,-0.537847,0.00228255,0.00860074,1896,1331,5.85653,-1.73402
679,-307,5.86646,1.66907,0.00253921,0.0024389,0.000116602,0.00261598,0.00236212,0.582299,0.00166583,0.0100639,1903,1331,5.86648,-1.6691
686,-307,5.8667,1.62024,0.00167005,0.00159518,0.000152451,0.00178959,0.00147563,0.665003,0.0011034,0.00986118,1910,1331,5.86664,-1.62028
693,-307,5.83044,1.5708,0.000838675,0.000801012,0.00010981,0.000931256,0.00070843,0.700478,0.000561498,0.0111698,1917,1331,5.83049,-1.57086
700,-307,5.8335,1.4989,0.000808821,0.000999683,0.000299423,0.00121851,0.000589989,0.939667,0.000703627,0.0114325,1924,1331,5.83346,-1.49892
707,-307,5.83032,1.44043,0.00108708,0.000921251,0.0011256,0.00213282,-0.000124485,0.748633,0.00146514,0.0132201,1931,1331,5.83034,-1.44044
714,-307,5.84839,1.39832,0.00190535,0.00146226,0.00212697,0.00382229,-0.000454673,0.733505,0.00271248,0.0125283,1938,1331,5.84835,-1.39836
721,-307,5.85681,1.35864,0.00328968,0.00213113,0.00326754,0.00602889,-0.000608086,0.697669,0.00423653,0.0134294,1945,1331,5.85683,-1.35866
728,-307,5.84802,1.3385,0.00479446,0.00312292,0.00449791,0.00853359,-0.000616205,0.693539,0.00590519,0.0155169,1952,1331,5.848,-1.33849
735,-307,5.79663,1.3158,0.0069575,0.00440546,0.00617126,0.0119833,-0.000620317,0.683451,0.00820345,0.0270151,1959,1331,5.79664,-1.31585
742,-307,5.46497,1.51855,0.00978797,0.00614865,0.00836593,0.0165298,-0.000593232,0.678312,0.0112229,0.0357687,1966,1331,5.465,-1.51853
749,-307,5.66968,2.04236,0.0132367,0.00839428,0.0111196,0.0221956,-0.000564636,0.678201,0.0149888,0.0393361,1973,1331,5.66972,-2.0423
756,-307,5.51233,0.590698,0.0173258,0.0112091,0.0145336,0.0291194,-0.000584483,0.681694,0.0196107,0.0465284,1980,1331,5.51232,-0.590659
763,-307,5.70313,1.14917,0.0219552,0.0146176,0.0187243,0.0373667,-0.000793938,0.688654,0.02518,0.0432712,1987,1331,5.70312,-1.1492
770,-307,0,0,0,0,0,0,0,0,0,-1,1994,1331,0,0
777,-307,0,0,0,0,0,0,0,0,0,-1,2001,1331,0,0
784,-307,0,0,0,0,0,0,0,0,0,-1,2008,1331,0,0
791,-307,0,0,0,0,0,0,0,0,0,-1,2015,1331,0,0
798,-307,0,0,0,0,0,0,0,0,0,-1,2022,1331,0,0
805,-307,0,0,0,0,0,0,0,0,0,-1,2029,1331,0,0
812,-307,0,0,0,0,0,0,0,0,0,-1,2036,1331,0,0
-700,-314,0,0,0,0,0,0,0,0,0,-1,524,1338,0,0
-693,-314,0,0,0,0,0,0,0,0,0,-1,531,1338,0,0
-686,-314,0,0,0,0,0,0,0,0,0,-1,538,1338,0,0
-679,-314,0,0,0,0,0,0,0,0,0,-1,545,1338,0,0
-672,-314,0,0,0,0,0,0,0,0,0,-1,552,1338,0,0
-665,-314,0,0,0,0,0,0,0,0,0,-1,559,1338,0,0
-658,-314,0,0,0,0,0,0,0,0,0,-1,566,1338,0,0
-651,-314,0,0,0,0,0,0,0,0,0,-1,573,1338,0,0
-644,-314,-0.0965576,-0.977295,0,0,0,0,0,0,0,-1,580,1338,-0.096546,0.977286
-637,-314,-0.224976,-0.378418,0,0,0,0,0,0,0,-1,587,1338,-0.224977,0.378386
-630,-314,-0.353394,0.220459,0,0,0,0,0,0,0,-1,594,1338,-0.353408,-0.220513
-623,-314,-0.713989,0.623779,0,0,0,0,0,0,0,-1,601,1338,-0.713977,-0.623759
-616,-314,-0.63092,0.764648,0,0,0,0,0,0,0,-1,608,1338,-0.630918,-0.764684
-609,-314,-0.713806,0.661133,-0.00478366,0.0152855,0.0126454,0.021394,-0.0108922,1.12079,0.0189663,0.0456508,615,1338,-0.713792,-0.661155
-602,-314,-0.915771,0.7677,-0.00376741,0.0128072,0.0089291,0.0167022,-0.00766239,1.15947,0.014386,0.0375195,622,1338,-0.91578,-0.76772
-595,-314,-1.08527,0.934937,-0.00333896,0.0110619,0.00610103,0.0132991,-0.00557615,1.21933,0.0111976,0.0219307,629,1338,-1.08529,-0.934965
-588,-314,-1.14423,1.01538,-0.00295546,0.00942026,0.00420549,0.0107141,-0.0042493,1.27233,0.00890382,0.0128557,636,1338,-1.14422,-1.01541
-581,-314,-1.13818,1.06384,-0.00256375,0.00682502,0.00270112,0.00754665,-0.00328539,1.30973,0.00641316,0.0120175,643,1338,-1.13817,-1.06386
-574,-314,-1.15723,1.08826,-0.00240811,0.00516025,0.00176831,0.00555303,-0.00280088,1.35223,0.0049096,0.0114246,650,1338,-1.15722,-1.08824
-567,-314,-1.11719,1.16553,-0.00265843,0.00370816,0.00107701,0.00388542,-0.00283568,1.40768,0.00389617,0.0128105,657,1338,-1.1172,-1.16558
-560,-314,-1.07971,1.25269,-0.00288712,0.00226471,0.000242013,0.00227606,-0.00289847,1.52396,0.00299471,0.013702,664,1338,-1.0797,-1.25265
-553,-314,-1.09192,1.29858,-0.00366261,0.000623335,-0.000427799,0.000665619,-0.0037049,-1.47228,0.0027191,0.0160323,671,1338,-1.09195,-1.29861
-546,-314,-1.11353,1.35974,-0.00409719,-0.00134622,-0.0014673,-0.000710501,-0.00473291,-1.16195,0.00294713,0.0173328,678,1338,-1.11352,-1.35974
-539,-314,-1.1098,1.4281,-0.00396392,-0.00325349,-0.0024749,-0.00110844,-0.00610897,-0.856676,0.00375805,0.0158874,685,1338,-1.10978,-1.42814
-532,-314,-1.10004,1.5072,-0.00470563,-0.0054321,-0.00352565,-0.00152456,-0.00861318,-0.734066,0.00530743,0.0166151,692,1338,-1.10002,-1.50718
-525,-314,-1.22858,1.62317,-0.00528019,-0.00820415,-0.00405751,-0.00242931,-0.011055,-0.612481,0.00670851,0.0283966,699,1338,-1.22861,-1.62321
-518,-314,-1.34033,1.66833,-0.00583783,-0.0121486,-0.00387691,-0.00399454,-0.0139919,-0.443819,0.00832237,0.0407939,706,1338,-1.34034,-1.66839
-511,-314,-1.49207,0.648315,0,0,0,0,0,0,0,-1,713,1338,-1.49204,-0.648345
-504,-314,-1.88837,0.951416,-0.00692148,-0.0223733,-0.00172525,-0.00673119,-0.0225636,-0.109851,0.0133757,0.0429687,720,1338,-1.88835,-0.951434
-497,-314,-2.46564,1.17224,-0.0074476,-0.0284334,0.000689053,-0.007425,-0.0284561,0.0327871,0.0170436,0.042484,727,1338,-2.46561,-1.1723
-490,-314,-3.1488,1.50024,-0.00837838,-0.0350462,0.00435861,-0.00768408,-0.0357405,0.157967,0.0217234,0.0433068,734,1338,-3.14881,-1.50023
-483,-314,-3.73169,1.90137,0,0,0,0,0,0,0,-1,741,1338,-3.73166,-1.90131
-476,-314,2.87445,-2.49329,-0.0119476,-0.0496549,0.0162936,-0.00588256,-0.05572,0.356344,0.0353493,0.0454296,748,1338,2.87443,2.49327
-469,-314,3.03937,-2.97888,-0.0160693,-0.0563047,0.024474,-0.00450577,-0.0678682,0.441391,0.0438208,0.0431343,755,1338,3.03935,2.97893
-462,-314,0,0,0,0,0,0,0,0,0,-1,762,1338,0,0
-455,-314,0,0,0,0,0,0,0,0,0,-1,769,1338,0,0
-448,-314,0,0,0,0,0,0,0,0,0,-1,776,1338,0,0
-441,-314,0,0,0,0,0,0,0,0,0,-1,783,1338,0,0
-434,-314,0,0,0,0,0,0,0,0,0,-1,790,1338,0,0
-427,-314,0,0,0,0,0,0,0,0,0,-1,797,1338,0,0
-420,-314,0,0,0,0,0,0,0,0,0,-1,804,1338,0,0
-413,-314,0,0,0,0,0,0,0,0,0,-1,811,1338,0,0
-406,-314,0,0,0,0,0,0,0,0,0,-1,818,1338,0,0
-399,-314,0,0,0,0,0,0,0,0,0,-1,825,1338,0,0
-392,-314,0,0,0,0,0,0,0,0,0,-1,832,1338,0,0
-385,-314,0,0,0,0,0,0,0,0,0,-1,839,1338,0,0
-378,-314,0,0,0,0,0,0,0,0,0,-1,846,1338,0,0
-371,-314,0,0,0,0,0,0,0,0,0,-1,853,1338,0,0
-364,-314,0,0,0,0,0,0,0,0,0,-1,860,1338,0,0
-357,-314,0,0,0,0,0,0,0,0,0,-1,867,1338,0,0
-350,-314,0,0,0,0,0,0,0,0,0,-1,874,1338,0,0
-343,-314,0,0,0,0,0,0,0,0,0,-1,881,1338,0,0
-336,-314,0,0,0,0,0,0,0,0,0,-1,888,1338,0,0
-329,-314,0,0,0,0,0,0,0,0,0,-1,895,1338,0,0
-322,-314,0,0,0,0,0,0,0,0,0,-1,902,1338,0,0
-315,-314,0,0,0,0,0,0,0,0,0,-1,909,1338,0,0
-308,-314,0,0,0,0,0,0,0,0,0,-1,916,1338,0,0
-301,-314,0,0,0,0,0,0,0,0,0,-1,923,1338,0,0
-294,-314,0,0,0,0,0,0,0,0,0,-1,930,1338,0,0
-287,-314,0,0,0,0,0,0,0,0,0,-1,937,1338,0,0
-280,-314,0,0,0,0,0,0,0,0,0,-1,944,1338,0,0
-273,-314,0,0,0,0,0,0,0,0,0,-1,951,1338,0,0
-266,-314,0,0,0,0,0,0,0,0,0,-1,958,1338,0,0
-259,-314,0,0,0,0,0,0,0,0,0,-1,965,1338,0,0
-252,-314,0,0,0,0,0,0,0,0,0,-1,972,1338,0,0
-245,-314,0,0,0,0,0,0,0,0,0,-1,979,1338,0,0
-238,-314,0,0,0,0,0,0,0,0,0,-1,986,1338,0,0
-231,-314,0,0,0,0,0,0,0,0,0,-1,993,1338,0,0
-224,-314,0,0,0,0,0,0,0,0,0,-1,1000,1338,0,0
-217,-314,0,0,0,0,0,0,0,0,0,-1,1007,1338,0,0
-210,-314,0,0,0,0,0,0,0,0,0,-1,1014,1338,0,0
-203,-314,0,0,0,0,0,0,0,0,0,-1,1021,1338,0,0
-196,-314,0,0,0,0,0,0,0,0,0,-1,1028,1338,0,0
-189,-314,0,0,0,0,0,0,0,0,0,-1,1035,1338,0,0
-182,-314,0,0,0,0,0,0,0,0,0,-1,1042,1338,0,0
-175,-314,0,0,0,0,0,0,0,0,0,-1,1049,1338,0,0
-168,-314,0,0,0,0,0,0,0,0,0,-1,1056,1338,0,0
-161,-314,0,0,0,0,0,0,0,0,0,-1,1063,1338,0,0
-154,-314,0,0,0,0,0,0,0,0,0,-1,1070,1338,0,0
-147,-314,0,0,0,0,0,0,0,0,0,-1,1077,1338,0,0
-140,-314,0,0,0,0,0,0,0,0,0,-1,1084,1338,0,0
-133,-314,0,0,0,0,0,0,0,0,0,-1,1091,1338,0,0
-126,-314,0,0,0,0,0,0,0,0,0,-1,1098,1338,0,0
-119,-314,0,0,0,0,0,0,0,0,0,-1,1105,1338,0,0
-112,-314,0,0,0,0,0,0,0,0,0,-1,1112,1338,0,0
-105,-314,0,0,0,0,0,0,0,0,0,-1,1119,1338,0,0
-98,-314,0,0,0,0,0,0,0,0,0,-1,1126,1338,0,0
-91,-314,0,0,0,0,0,0,0,0,0,-1,1133,1338,0,0
-84,-314,0,0,0,0,0,0,0,0,0,-1,1140,1338,0,0
-77,-314,0,0,0,0,0,0,0,0,0,-1,1147,1338,0,0
-70,-314,0,0,0,0,0,0,0,0,0,-1,1154,1338,0,0
-63,-314,0,0,0,0,0,0,0,0,0,-1,1161,1338,0,0
-56,-314,0,0,0,0,0,0,0,0,0,-1,1168,1338,0,0
-49,-314,0,0,0,0,0,0,0,0,0,-1,1175,1338,0,0
-42,-314,0,0,0,0,0,0,0,0,0,-1,1182,1338,0,0
-35,-314,0,0,0,0,0,0,0,0,0,-1,1189,1338,0,0
-28,-314,0,0,0,0,0,0,0,0,0,-1,1196,1338,0,0
-21,-314,0,0,0,0,0,0,0,0,0,-1,1203,1338,0,0
-14,-314,0,0,0,0,0,0,0,0,0,-1,1210,1338,0,0
-7,-314,0,0,0,0,0,0,0,0,0,-1,1217,1338,0,0
0,-314,0,0,0,0,0,0,0,0,0,-1,1224,1338,0,0
7,-314,0,0,0,0,0,0,0,0,0,-1,1231,1338,0,0
14,-314,0,0,0,0,0,0,0,0,0,-1,1238,1338,0,0
21,-314,0,0,0,0,0,0,0,0,0,-1,1245,1338,0,0
28,-314,0,0,0,0,0,0,0,0,0,-1,1252,1338,0,0
35,-314,0,0,0,0,0,0,0,0,0,-1,1259,1338,0,0
42,-314,0,0,0,0,0,0,0,0,0,-1,1266,1338,0,0
49,-314,0,0,0,0,0,0,0,0,0,-1,1273,1338,0,0
56,-314,0,0,0,0,0,0,0,0,0,-1,1280,1338,0,0
63,-314,0,0,0,0,0,0,0,0,0,-1,1287,1338,0,0
70,-314,0,0,0,0,0,0,0,0,0,-1,1294,1338,0,0
77,-314,0,0,0,0,0,0,0,0,0,-1,1301,1338,0,0
84,-314,0,0,0,0,0,0,0,0,0,-1,1308,1338,0,0
91,-314,0,0,0,0,0,0,0,0,0,-1,1315,1338,0,0
98,-314,0,0,0,0,0,0,0,0,0,-1,1322,1338,0,0
105,-314,0,0,0,0,0,0,0,0,0,-1,1329,1338,0,0
112,-314,0,0,0,0,0,0,0,0,0,-1,1336,1338,0,0
119,-314,0,0,0,0,0,0,0,0,0,-1,1343,1338,0,0
126,-314,0,0,0,0,0,0,0,0,0,-1,1350,1338,0,0
133,-314,0,0,0,0,0,0,0,0,0,-1,1357,1338,0,0
140,-314,0,0,0,0,0,0,0,0,0,-1,1364,1338,0,0
147,-314,0,0,0,0,0,0,0,0,0,-1,1371,1338,0,0
154,-314,0,0,0,0,0,0,0,0,0,-1,1378,1338,0,0
161,-314,0,0,0,0,0,0,0,0,0,-1,1385,1338,0,0
168,-314,0,0,0,0,0,0,0,0,0,-1,1392,1338,0,0
175,-314,0,0,0,0,0,0,0,0,0,-1,1399,1338,0,0
182,-314,0,0,0,0,0,0,0,0,0,-1,1406,1338,0,0
189,-314,0,0,0,0,0,0,0,0,0,-1,1413,1338,0,0
196,-314,0,0,0,0,0,0,0,0,0,-1,1420,1338,0,0
203,-314,0,0,0,0,0,0,0,0,0,-1,1427,1338,0,0
210,-314,0,0,0,0,0,0,0,0,0,-1,1434,1338,0,0
217,-314,0,0,0,0,0,0,0,0,0,-1,1441,1338,0,0
224,-314,0,0,0,0,0,0,0,0,0,-1,1448,1338,0,0
231,-314,0,0,0,0,0,0,0,0,0,-1,1455,1338,0,0
238,-314,0,0,0,0,0,0,0,0,0,-1,1462,1338,0,0
245,-314,0,0,0,0,0,0,0,0,0,-1,1469,1338,0,0
252,-314,0,0,0,0,0,0,0,0,0,-1,1476,1338,0,0
259,-314,0,0,0,0,0,0,0,0,0,-1,1483,1338,0,0
266,-314,0,0,0,0,0,0,0,0,0,-1,1490,1338,0,0
273,-314,0,0,0,0,0,0,0,0,0,-1,1497,1338,0,0
280,-314,0,0,0,0,0,0,0,0,0,-1,1504,1338,0,0
287,-314,0,0,0,0,0,0,0,0,0,-1,1511,1338,0,0
294,-314,0,0,0,0,0,0,0,0,0,-1,1518,1338,0,0
301,-314,0,0,0,0,0,0,0,0,0,-1,1525,1338,0,0
308,-314,0,0,0,0,0,0,0,0,0,-1,1532,1338,0,0
315,-314,0,0,0,0,0,0,0,0,0,-1,1539,1338,0,0
322,-314,0,0,0,0,0,0,0,0,0,-1,1546,1338,0,0
329,-314,0,0,0,0,0,0,0,0,0,-1,1553,1338,0,0
336,-314,0,0,0,0,0,0,0,0,0,-1,1560,1338,0,0
343,-314,0,0,0,0,0,0,0,0,0,-1,1567,1338,0,0
350,-314,0,0,0,0,0,0,0,0,0,-1,1574,1338,0,0
357,-314,0,0,0,0,0,0,0,0,0,-1,1581,1338,0,0
364,-314,0,0,0,0,0,0,0,0,0,-1,1588,1338,0,0
371,-314,0,0,0,0,0,0,0,0,0,-1,1595,1338,0,0
378,-314,0,0,0,0,0,0,0,0,0,-1,1602,1338,0,0
385,-314,0,0,0,0,0,0,0,0,0,-1,1609,1338,0,0
392,-314,0,0,0,0,0,0,0,0,0,-1,1616,1338,0,0
399,-314,0,0,0,0,0,0,0,0,0,-1,1623,1338,0,0
406,-314,0,0,0,0,0,0,0,0,0,-1,1630,1338,0,0
413,-314,0,0,0,0,0,0,0,0,0,-1,1637,1338,0,0
420,-314,0,0,0,0,0,0,0,0,0,-1,1644,1338,0,0
427,-314,0,0,0,0,0,0,0,0,0,-1,1651,1338,0,0
434,-314,0,0,0,0,0,0,0,0,0,-1,1658,1338,0,0
441,-314,0,0,0,0,0,0,0,0,0,-1,1665,1338,0,0
448,-314,0,0,0,0,0,0,0,0,0,-1,1672,1338,0,0
455,-314,0,0,0,0,0,0,0,0,0,-1,1679,1338,0,0
462,-314,0,0,0,0,0,0,0,0,0,-1,1686,1338,0,0
469,-314,0,0,0,0,0,0,0,0,0,-1,1693,1338,0,0
476,-314,0,0,0,0,0,0,0,0,0,-1,1700,1338,0,0
483,-314,0,0,0,0,0,0,0,0,0,-1,1707,1338,0,0
490,-314,0,0,0,0,0,0,0,0,0,-1,1714,1338,0,0
497,-314,0,0,0,0,0,0,0,0,0,-1,1721,1338,0,0
504,-314,0,0,0,0,0,0,0,0,0,-1,1728,1338,0,0
511,-314,0,0,0,0,0,0,0,0,0,-1,1735,1338,0,0
518,-314,0,0,0,0,0,0,0,0,0,-1,1742,1338,0,0
525,-314,0,0,0,0,0,0,0,0,0,-1,1749,1338,0,0
532,-314,0,0,0,0,0,0,0,0,0,-1,1756,1338,0,0
539,-314,0,0,0,0,0,0,0,0,0,-1,1763,1338,0,0
546,-314,0,0,0,0,0,0,0,0,0,-1,1770,1338,0,0
553,-314,0,0,0,0,0,0,0,0,0,-1,1777,1338,0,0
560,-314,0,0,0,0,0,0,0,0,0,-1,1784,1338,0,0
567,-314,0,0,0,0,0,0,0,0,0,-1,1791,1338,0,0
574,-314,0,0,0,0,0,0,0,0,0,-1,1798,1338,0,0
581,-314,5.10938,3.08765,0,0,0,0,0,0,0,-1,1805,1338,5.1094,-3.08761
588,-314,4.64343,3.20117,-0.0607496,0.0398578,-0.0134787,0.0416323,-0.0625241,-1.4399,0.0605366,0.0481904,1812,1338,4.64346,-3.2012
595,-314,4.24512,4.34497,-0.0438984,0.0406465,-0.0137103,0.0428143,-0.0460661,-1.41398,0.0513266,0.0439114,1819,1338,4.24512,-4.34494
602,-314,4.5354,3.60767,-0.0297002,0.0385311,-0.012782,0.040847,-0.0320161,-1.39156,0.0421704,0.0425945,1826,1338,4.53541,-3.60763
609,-314,4.92334,3.27698,-0.0181704,0.034928,-0.0113782,0.0372634,-0.0205059,-1.36835,0.0338176,0.0429887,1833,1338,4.92334,-3.27693
616,-314,5.29834,2.87842,-0.00952022,0.0303176,-0.00960051,0.0325105,-0.0117131,-1.34623,0.0264569,0.0462036,1840,1338,5.29832,-2.87843
623,-314,5.69165,2.36682,-0.00237141,0.0257379,-0.0079535,0.0278323,-0.00446579,-1.31331,0.0202086,0.047732,1847,1338,5.69161,-2.36684
630,-314,5.39209,1.76086,0.00194756,0.0217235,-0.00626521,0.0235413,0.000129766,-1.28841,0.0156511,0.0476391,1854,1338,5.39208,-1.76084
637,-314,5.61096,1.7334,0.00531435,0.0171163,-0.00453938,0.0186603,0.00377037,-1.24294,0.0113933,0.0435711,1861,1338,5.61092,-1.73338
644,-314,5.72217,1.8147,0.0072035,0.0125748,-0.00325524,0.0141092,0.00566903,-1.1303,0.00819817,0.0426899,1868,1338,5.72217,-1.81472
651,-314,5.63831,1.89197,0.00751313,0.00796863,-0.00159735,0.00935439,0.00612737,-0.856211,0.00548661,0.0433973,1875,1338,5.63827,-1.89194
658,-314,5.7511,1.82422,0.00672635,0.00603456,-0.000936109,0.00737843,0.00538249,-0.608428,0.00440697,0.0264665,1882,1338,5.75107,-1.82423
665,-314,5.78955,1.77966,0.00505499,0.0037201,-0.000430567,0.00518181,0.00359327,-0.28646,0.00306544,0.0123227,1889,1338,5.78952,-1.77972
672,-314,5.80249,1.75134,0.00333513,0.00213887,-4.62007e-05,0.00333692,0.00213709,-0.0385442,0.00195174,0.0119828,1896,1338,5.80251,-1.75139
679,-314,5.81189,1.68665,0.00222776,0.001524,0.000334279,0.00236123,0.00139054,0.379877,0.00137042,0.0102851,1903,1338,5.81186,-1.68669
686,-314,5.79321,1.61597,0.0013681,0.000867768,0.000317527,0.00152217,0.000713698,0.451751,0.000879393,0.0121115,1910,1338,5.79323,-1.61591
693,-314,5.77832,1.5575,0.000615271,0.000107377,0.000176992,0.000670864,5.17837e-05,0.304343,0.000431019,0.0114996,1917,1338,5.77826,-1.55747
700,-314,5.77368,1.49292,0.000605579,0.000408884,0.000301686,0.000824543,0.000189919,0.627833,0.000498595,0.0113215,1924,1338,5.77368,-1.49296
707,-314,5.76392,1.44275,0.000932225,0.000638851,0.000994107,0.00179041,-0.000219333,0.712148,0.00127303,0.0123839,1931,1338,5.76394,-1.44279
714,-314,5.7644,1.40747,0.00185835,0.00128368,0.00183884,0.00343217,-0.000290145,0.707896,0.0023907,0.0112975,1938,1338,5.76436,-1.40743
721,-314,5.77979,1.36633,0.00334386,0.00198221,0.00287634,0.00561886,-0.000292782,0.669188,0.00384722,0.0140484,1945,1338,5.77983,-1.36632
728,-314,5.7865,1.35608,0.00504959,0.00300733,0.00404475,0.00820011,-0.000143192,0.661752,0.00551509,0.0224141,1952,1338,5.78655,-1.35613
735,-314,5.87805,1.30627,0.00751242,0.00447465,0.00567797,0.0118712,0.00011592,0.654706,0.00787575,0.0386981,1959,1338,5.87804,-1.30634
742,-314,5.98865,1.25146,0,0,0,0,0,0,0,-1,1966,1338,5.98866,-1.25142
749,-314,4.80225,-0.27771,0.0147816,0.00929706,0.0105988,0.0229872,0.00109149,0.658807,0.0149742,0.0429948,1973,1338,4.80223,0.277766
756,-314,5.29675,0.334106,0.0198122,0.0129952,0.0142116,0.0310183,0.00178911,0.667701,0.0201091,0.0427758,1980,1338,5.29677,-0.334121
763,-314,5.64551,0.924927,0.0258569,0.017792,0.0189183,0.0411676,0.00248116,0.680394,0.0266566,0.0420111,1987,1338,5.64556,-0.924869
770,-314,0,0,0,0,0,0,0,0,0,-1,1994,1338,0,0
777,-314,0,0,0,0,0,0,0,0,0,-1,2001,1338,0,0
784,-314,0,0,0,0,0,0,0,0,0,-1,2008,1338,0,0
791,-314,0,0,0,0,0,0,0,0,0,-1,2015,1338,0,0
798,-314,0,0,0,0,0,0,0,0,0,-1,2022,1338,0,0
805,-314,0,0,0,0,0,0,0,0,0,-1,2029,1338,0,0
812,-314,0,0,0,0,0,0,0,0,0,-1,2036,1338,0,0
-700,-321,0,0,0,0,0,0,0,0,0,-1,524,1345,0,0
-693,-321,0,0,0,0,0,0,0,0,0,-1,531,1345,0,0
-686,-321,0,0,0,0,0,0,0,0,0,-1,538,1345,0,0
-679,-321,0,0,0,0,0,0,0,0,0,-1,545,1345,0,0
-672,-321,0,0,0,0,0,0,0,0,0,-1,552,1345,0,0
-665,-321,0,0,0,0,0,0,0,0,0,-1,559,1345,0,0
-658,-321,0,0,0,0,0,0,0,0,0,-1,566,1345,0,0
-651,-321,0,0,0,0,0,0,0,0,0,-1,573,1345,0,0
-644,-321,-0.270813,-1.4978,0,0,0,0,0,0,0,-1,580,1345,-0.270829,1.49775
-637,-321,-0.401672,-0.926025,0,0,0,0,0,0,0,-1,587,1345,-0.40168,0.926007
-630,-321,-0.887634,0.182129,0,0,0,0,0,0,0,-1,594,1345,-0.887658,-0.182117
-623,-321,-0.783752,0.343994,-0.00269784,0.0215165,0.0265746,0.0386119,-0.0197933,0.999146,0.0342987,0.0459199,601,1345,-0.783724,-0.343943
-616,-321,-0.689941,0.540771,-0.00242773,0.0198031,0.0197837,0.0313801,-0.0140047,1.04135,0.0268354,0.0471488,608,1345,-0.689951,-0.540778
-609,-321,-0.559753,0.453979,-0.00257021,0.0179064,0.0145389,0.0254502,-0.010114,1.09217,0.0211598,0.043775,615,1345,-0.559774,-0.453933
-602,-321,-0.71344,0.583984,-0.00252202,0.0155486,0.0104992,0.020365,-0.00733842,1.1407,0.0165735,0.0416125,622,1345,-0.71341,-0.584003
-595,-321,-0.955017,0.837524,-0.00276063,0.0135953,0.0074279,0.0164651,-0.00563041,1.20211,0.0132582,0.0357783,629,1345,-0.954998,-0.837499
-588,-321,-1.08179,0.987305,-0.002907,0.0115707,0.00534833,0.0133321,-0.00466847,1.25264,0.0107864,0.0133663,636,1345,-1.08179,-0.987257
-581,-321,-1.08673,1.06311,-0.00275573,0.00883899,0.00355834,0.00984392,-0.00376066,1.29555,0.00811213,0.0116146,643,1345,-1.08671,-1.06311
-574,-321,-1.09918,1.08923,-0.00268958,0.00694718,0.00244037,0.00752993,-0.00327232,1.33639,0.00639612,0.0135052,650,1345,-1.09916,-1.08924
-567,-321,-1.05841,1.15552,-0.00294342,0.00537209,0.00156454,0.00565671,-0.00322804,1.39084,0.0051931,0.0186092,657,1345,-1.05838,-1.15551
-560,-321,-1.00726,1.23413,-0.00308361,0.00365143,0.000682807,0.00371996,-0.00315214,1.47077,0.00397212,0.0219358,664,1345,-1.00728,-1.23418
-553,-321,-1.02362,1.26563,-0.00366701,0.00161444,3.09386e-05,0.00161462,-0.0036672,1.56494,0.00312527,0.0247477,671,1345,-1.02359,-1.26565
-546,-321,-1.10352,1.33447,-0.00370684,-0.000596086,-0.00107615,-0.000260092,-0.00404283,-1.26817,0.00261284,0.0260054,678,1345,-1.10352,-1.33444
-539,-321,-1.10529,1.41602,-0.00290801,-0.00269513,-0.00207253,-0.000726309,-0.00487683,-0.811054,0.00303819,0.0229564,685,1345,-1.10526,-1.41608
-532,-321,-1.04639,1.50378,-0.00305114,-0.00509403,-0.0031332,-0.000777086,-0.00736808,-0.627827,0.0046746,0.0143127,692,1345,-1.0464,-1.50377
-525,-321,-1.0257,1.58582,-0.00303852,-0.00807789,-0.00371352,-0.00107055,-0.0100459,-0.487317,0.00637045,0.0195376,699,1345,-1.02567,-1.58581
-518,-321,-1.08307,1.52905,-0.00306136,-0.0122815,-0.00355756,-0.00184829,-0.0134946,-0.328621,0.00844794,0.0339924,706,1345,-1.08307,-1.52903
-511,-321,-1.13556,1.47632,-0.00308058,-0.0174812,-0.00267805,-0.00259867,-0.0179631,-0.17804,0.0112101,0.0411858,713,1345,-1.13555,-1.47634
-504,-321,-1.65961,1.19226,-0.00304528,-0.0231798,-0.00159411,-0.00291985,-0.0233053,-0.0785211,0.0146608,0.0454312,720,1345,-1.65963,-1.19231
-497,-321,-2.84003,1.81531,-0.00323788,-0.0293211,0.000578261,-0.00322506,-0.029334,0.0221553,0.0185745,0.0425912,727,1345,-2.84002,-1.81527
-490,-321,1.93304,-0.764282,0,0,0,0,0,0,0,-1,734,1345,1.93306,0.764281
-483,-321,1.52209,-1.40564,0,0,0,0,0,0,0,-1,741,1345,1.52208,1.40568
-476,-321,1.89575,-1.953,-0.00781172,-0.0498093,0.0142412,-0.00343804,-0.054183,0.29797,0.0350323,0.0458673,748,1345,1.89572,1.95299
-469,-321,2.08868,-2.32983,-0.0121359,-0.0556905,0.021286,-0.00346084,-0.0643655,0.386995,0.0418045,0.0424944,755,1345,2.08869,2.32984
-462,-321,2.17426,-2.67712,-0.0196687,-0.0593818,0.029216,-0.00420026,-0.0748503,0.486931,0.0485607,0.0443589,762,1345,2.17423,2.67707
-455,-321,0,0,0,0,0,0,0,0,0,-1,769,1345,0,0
-448,-321,0,0,0,0,0,0,0,0,0,-1,776,1345,0,0
-441,-321,0,0,0,0,0,0,0,0,0,-1,783,1345,0,0
-434,-321,0,0,0,0,0,0,0,0,0,-1,790,1345,0,0
-427,-321,0,0,0,0,0,0,0,0,0,-1,797,1345,0,0
-420,-321,0,0,0,0,0,0,0,0,0,-1,804,1345,0,0
-413,-321,0,0,0,0,0,0,0,0,0,-1,811,1345,0,0
-406,-321,0,0,0,0,0,0,0,0,0,-1,818,1345,0,0
-399,-321,0,0,0,0,0,0,0,0,0,-1,825,1345,0,0
-392,-321,0,0,0,0,0,0,0,0,0,-1,832,1345,0,0
-385,-321,0,0,0,0,0,0,0,0,0,-1,839,1345,0,0
-378,-321,0,0,0,0,0,0,0,0,0,-1,846,1345,0,0
-371,-321,0,0,0,0,0,0,0,0,0,-1,853,1345,0,0
-364,-321,0,0,0,0,0,0,0,0,0,-1,860,1345,0,0
-357,-321,0,0,0,0,0,0,0,0,0,-1,867,1345,0,0
-350,-321,0,0,0,0,0,0,0,0,0,-1,874,1345,0,0
-343,-321,0,0,0,0,0,0,0,0,0,-1,881,1345,0,0
-336,-321,0,0,0,0,0,0,0,0,0,-1,888,1345,0,0
-329,-321,0,0,0,0,0,0,0,0,0,-1,895,1345,0,0
-322,-321,0,0,0,0,0,0,0,0,0,-1,902,1345,0,0
-315,-321,0,0,0,0,0,0,0,0,0,-1,909,1345,0,0
-308,-321,0,0,0,0,0,0,0,0,0,-1,916,1345,0,0
-301,-321,0,0,0,0,0,0,0,0,0,-1,923,1345,0,0
-294,-321,0,0,0,0,0,0,0,0,0,-1,930,1345,0,0
-287,-321,0,0,0,0,0,0,0,0,0,-1,937,1345,0,0
-280,-321,0,0,0,0,0,0,0,0,0,-1,944,1345,0,0
-273,-321,0,0,0,0,0,0,0,0,0,-1,951,1345,0,0
-266,-321,0,0,0,0,0,0,0,0,0,-1,958,1345,0,0
-259,-321,0,0,0,0,0,0,0,0,0,-1,965,1345,0,0
-252,-321,0,0,0,0,0,0,0,0,0,-1,972,1345,0,0
-245,-321,0,0,0,0,0,0,0,0,0,-1,979,1345,0,0
-238,-321,0,0,0,0,0,0,0,0,0,-1,986,1345,0,0
-231,-321,0,0,0,0,0,0,0,0,0,-1,993,1345,0,0
-224,-321,0,0,0,0,0,0,0,0,0,-1,1000,1345,0,0
-217,-321,0,0,0,0,0,0,0,0,0,-1,1007,1345,0,0
-210,-321,0,0,0,0,0,0,0,0,0,-1,1014,1345,0,0
-203,-321,0,0,0,0,0,0,0,0,0,-1,1021,1345,0,0
-196,-321,0,0,0,0,0,0,0,0,0,-1,1028,1345,0,0
-189,-321,0,0,0,0,0,0,0,0,0,-1,1035,1345,0,0
-182,-321,0,0,0,0,0,0,0,0,0,-1,1042,1345,0,0
-175,-321,0,0,0,0,0,0,0,0,0,-1,1049,1345,0,0
-168,-321,0,0,0,0,0,0,0,0,0,-1,1056,1345,0,0
-161,-321,0,0,0,0,0,0,0,0,0,-1,1063,1345,0,0
-154,-321,0,0,0,0,0,0,0,0,0,-1,1070,1345,0,0
-147,-321,0,0,0,0,0,0,0,0,0,-1,1077,1345,0,0
-140,-321,0,0,0,0,0,0,0,0,0,-1,1084,1345,0,0
-133,-321,0,0,0,0,0,0,0,0,0,-1,1091,1345,0,0
-126,-321,0,0,0,0,0,0,0,0,0,-1,1098,1345,0,0
-119,-321,0,0,0,0,0,0,0,0,0,-1,1105,1345,0,0
-112,-321,0,0,0,0,0,0,0,0,0,-1,1112,1345,0,0
-105,-321,0,0,0,0,0,0,0,0,0,-1,1119,1345,0,0
-98,-321,0,0,0,0,0,0,0,0,0,-1,1126,1345,0,0
-91,-321,0,0,0,0,0,0,0,0,0,-1,1133,1345,0,0
-84,-321,0,0,0,0,0,0,0,0,0,-1,1140,1345,0,0
-77,-321,0,0,0,0,0,0,0,0,0,-1,1147,1345,0,0
-70,-321,0,0,0,0,0,0,0,0,0,-1,1154,1345,0,0
-63,-321,0,0,0,0,0,0,0,0,0,-1,1161,1345,0,0
-56,-321,0,0,0,0,0,0,0,0,0,-1,1168,1345,0,0
-49,-321,0,0,0,0,0,0,0,0,0,-1,1175,1345,0,0
-42,-321,0,0,0,0,0,0,0,0,0,-1,1182,1345,0,0
-35,-321,0,0,0,0,0,0,0,0,0,-1,1189,1345,0,0
-28,-321,0,0,0,0,0,0,0,0,0,-1,1196,1345,0,0
-21,-321,0,0,0,0,0,0,0,0,0,-1,1203,1345,0,0
-14,-321,0,0,0,0,0,0,0,0,0,-1,1210,1345,0,0
-7,-321,0,0,0,0,0,0,0,0,0,-1,1217,1345,0,0
0,-321,0,0,0,0,0,0,0,0,0,-1,1224,1345,0,0
7,-321,0,0,0,0,0,0,0,0,0,-1,1231,1345,0,0
14,-321,0,0,0,0,0,0,0,0,0,-1,1238,1345,0,0
21,-321,0,0,0,0,0,0,0,0,0,-1,1245,1345,0,0
28,-321,0,0,0,0,0,0,0,0,0,-1,1252,1345,0,0
35,-321,0,0,0,0,0,0,0,0,0,-1,1259,1345,0,0
42,-321,0,0,0,0,0,0,0,0,0,-1,1266,1345,0,0
49,-321,0,0,0,0,0,0,0,0,0,-1,1273,1345,0,0
56,-321,0,0,0,0,0,0,0,0,0,-1,1280,1345,0,0
63,-321,0,0,0,0,0,0,0,0,0,-1,1287,1345,0,0
70,-321,0,0,0,0,0,0,0,0,0,-1,1294,1345,0,0
77,-321,0,0,0,0,0,0,0,0,0,-1,1301,1345,0,0
84,-321,0,0,0,0,0,0,0,0,0,-1,1308,1345,0,0
91,-321,0,0,0,0,0,0,0,0,0,-1,1315,1345,0,0
98,-321,0,0,0,0,0,0,0,0,0,-1,1322,1345,0,0
105,-321,0,0,0,0,0,0,0,0,0,-1,1329,1345,0,0
112,-321,0,0,0,0,0,0,0,0,0,-1,1336,1345,0,0
119,-321,0,0,0,0,0,0,0,0,0,-1,1343,1345,0,0
126,-321,0,0,0,0,0,0,0,0,0,-1,1350,1345,0,0
133,-321,0,0,0,0,0,0,0,0,0,-1,1357,1345,0,0
140,-321,0,0,0,0,0,0,0,0,0,-1,1364,1345,0,0
147,-321,0,0,0,0,0,0,0,0,0,-1,1371,1345,0,0
154,-321,0,0,0,0,0,0,0,0,0,-1,1378,1345,0,0
161,-321,0,0,0,0,0,0,0,0,0,-1,1385,1345,0,0
168,-321,0,0,0,0,0,0,0,0,0,-1,1392,1345,0,0
175,-321,0,0,0,0,0,0,0,0,0,-1,1399,1345,0,0
182,-321,0,0,0,0,0,0,0,0,0,-1,1406,1345,0,0
189,-321,0,0,0,0,0,0,0,0,0,-1,1413,1345,0,0
196,-321,0,0,0,0,0,0,0,0,0,-1,1420,1345,0,0
203,-321,0,0,0,0,0,0,0,0,0,-1,1427,1345,0,0
210,-321,0,0,0,0,0,0,0,0,0,-1,1434,1345,0,0
217,-321,0,0,0,0,0,0,0,0,0,-1,1441,1345,0,0
224,-321,0,0,0,0,0,0,0,0,0,-1,1448,1345,0,0
231,-321,0,0,0,0,0,0,0,0,0,-1,1455,1345,0,0
238,-321,0,0,0,0,0,0,0,0,0,-1,1462,1345,0,0
245,-321,0,0,0,0,0,0,0,0,0,-1,1469,1345,0,0
252,-321,0,0,0,0,0,0,0,0,0,-1,1476,1345,0,0
259,-321,0,0,0,0,0,0,0,0,0,-1,1483,1345,0,0
266,-321,0,0,0,0,0,0,0,0,0,-1,1490,1345,0,0
273,-321,0,0,0,0,0,0,0,0,0,-1,1497,1345,0,0
280,-321,0,0,0,0,0,0,0,0,0,-1,1504,1345,0,0
287,-321,0,0,0,0,0,0,0,0,0,-1,1511,1345,0,0
294,-321,0,0,0,0,0,0,0,0,0,-1,1518,1345,0,0
301,-321,0,0,0,0,0,0,0,0,0,-1,1525,1345,0,0
308,-321,0,0,0,0,0,0,0,0,0,-1,1532,1345,0,0
315,-321,0,0,0,0,0,0,0,0,0,-1,1539,1345,0,0
322,-321,0,0,0,0,0,0,0,0,0,-1,1546,1345,0,0
329,-321,0,0,0,0,0,0,0,0,0,-1,1553,1345,0,0
336,-321,0,0,0,0,0,0,0,0,0,-1,1560,1345,0,0
343,-321,0,0,0,0,0,0,0,0,0,-1,1567,1345,0,0
350,-321,0,0,0,0,0,0,0,0,0,-1,1574,1345,0,0
357,-321,0,0,0,0,0,0,0,0,0,-1,1581,1345,0,0
364,-321,0,0,0,0,0,0,0,0,0,-1,1588,1345,0,0
371,-321,0,0,0,0,0,0,0,0,0,-1,1595,1345,0,0
378,-321,0,0,0,0,0,0,0,0,0,-1,1602,1345,0,0
385,-321,0,0,0,0,0,0,0,0,0,-1,1609,1345,0,0
392,-321,0,0,0,0,0,0,0,0,0,-1,1616,1345,0,0
399,-321,0,0,0,0,0,0,0,0,0,-1,1623,1345,0,0
406,-321,0,0,0,0,0,0,0,0,0,-1,1630,1345,0,0
413,-321,0,0,0,0,0,0,0,0,0,-1,1637,1345,0,0
420,-321,0,0,0,0,0,0,0,0,0,-1,1644,1345,0,0
427,-321,0,0,0,0,0,0,0,0,0,-1,1651,1345,0,0
434,-321,0,0,0,0,0,0,0,0,0,-1,1658,1345,0,0
441,-321,0,0,0,0,0,0,0,0,0,-1,1665,1345,0,0
448,-321,0,0,0,0,0,0,0,0,0,-1,1672,1345,0,0
455,-321,0,0,0,0,0,0,0,0,0,-1,1679,1345,0,0
462,-321,0,0,0,0,0,0,0,0,0,-1,1686,1345,0,0
469,-321,0,0,0,0,0,0,0,0,0,-1,1693,1345,0,0
476,-321,0,0,0,0,0,0,0,0,0,-1,1700,1345,0,0
483,-321,0,0,0,0,0,0,0,0,0,-1,1707,1345,0,0
490,-321,0,0,0,0,0,0,0,0,0,-1,1714,1345,0,0
497,-321,0,0,0,0,0,0,0,0,0,-1,1721,1345,0,0
504,-321,0,0,0,0,0,0,0,0,0,-1,1728,1345,0,0
511,-321,0,0,0,0,0,0,0,0,0,-1,1735,1345,0,0
518,-321,0,0,0,0,0,0,0,0,0,-1,1742,1345,0,0
525,-321,0,0,0,0,0,0,0,0,0,-1,1749,1345,0,0
532,-321,0,0,0,0,0,0,0,0,0,-1,1756,1345,0,0
539,-321,0,0,0,0,0,0,0,0,0,-1,1763,1345,0,0
546,-321,0,0,0,0,0,0,0,0,0,-1,1770,1345,0,0
553,-321,0,0,0,0,0,0,0,0,0,-1,1777,1345,0,0
560,-321,0,0,0,0,0,0,0,0,0,-1,1784,1345,0,0
567,-321,0,0,0,0,0,0,0,0,0,-1,1791,1345,0,0
574,-321,0,0,0,0,0,0,0,0,0,-1,1798,1345,0,0
581,-321,6.27539,2.40137,-0.077146,0.0393546,-0.00941815,0.0401111,-0.0779024,-1.49065,0.0692898,0.0434254,1805,1345,6.27535,-2.40137
588,-321,5.76282,2.79443,-0.0607857,0.0433924,-0.0125847,0.0448911,-0.0622844,-1.45227,0.0621488,0.0475323,1812,1345,5.7628,-2.7944
595,-321,5.12866,2.96265,-0.045284,0.0433795,-0.0130038,0.0452474,-0.0471518,-1.42813,0.0533505,0.0454907,1819,1345,5.12868,-2.96268
602,-321,4.85815,2.71655,-0.0317169,0.041014,-0.0125541,0.04312,-0.0338228,-1.40459,0.044531,0.0420804,1826,1345,4.85818,-2.71655
609,-321,4.96399,2.51123,-0.0202085,0.0371079,-0.0113115,0.0392595,-0.0223601,-1.38283,0.0360193,0.0472467,1833,1345,4.96402,-2.51124
616,-321,5.30127,2.28357,-0.011298,0.032214,-0.0095078,0.0342008,-0.0132849,-1.36479,0.0282885,0.0492253,1840,1345,5.30127,-2.28355
623,-321,5.62549,1.75854,-0.00349006,0.027476,-0.00787326,0.0293629,-0.0053769,-1.33558,0.0215919,0.0455801,1847,1345,5.62554,-1.75855
630,-321,5.9751,1.26038,0,0,0,0,0,0,0,-1,1854,1345,5.97507,-1.26034
637,-321,5.77588,1.40759,0.00484823,0.0181167,-0.00426462,0.0193692,0.00359577,-1.28514,0.0118968,0.0436999,1861,1345,5.77591,-1.40753
644,-321,5.88281,1.64343,0.00678685,0.0131746,-0.00292008,0.0143083,0.00565317,-1.20047,0.00832129,0.0412792,1868,1345,5.88282,-1.64345
651,-321,5.85754,1.81189,0.00706456,0.00827138,-0.00122575,0.0090342,0.00630174,-1.01412,0.00534987,0.0378663,1875,1345,5.85751,-1.81195
658,-321,5.71143,1.82056,0.00615259,0.00605584,-0.000570323,0.00667659,0.00553185,-0.743087,0.0041228,0.0184112,1882,1345,5.71138,-1.8205
665,-321,5.72522,1.78503,0.00443786,0.00373105,-0.000151151,0.00446883,0.00370009,-0.202077,0.00275891,0.0136403,1889,1345,5.72525,-1.78507
672,-321,5.7406,1.74487,0.0028177,0.00213327,0.000127042,0.00284052,0.00211045,0.177733,0.0017033,0.0120894,1896,1345,5.74065,-1.74491
679,-321,5.75403,1.6803,0.00180614,0.00151039,0.000450628,0.00213254,0.001184,0.626858,0.00123372,0.0104756,1903,1345,5.75408,-1.68033
686,-321,5.72778,1.62402,0.0011065,0.00078242,0.000380673,0.00135819,0.000530734,0.584179,0.000790363,0.0109859,1910,1345,5.72774,-1.62402
693,-321,5.72473,1.5741,0.000556455,-0.000139424,0.000130604,0.000580159,-0.000163129,0.179545,0.000451091,0.0117572,1917,1345,5.72471,-1.57405
700,-321,5.7323,1.49646,0.000612936,1.29281e-05,0.000193415,0.00066988,-4.40161e-05,0.286324,0.000461958,0.0117151,1924,1345,5.73227,-1.4965
707,-321,5.73352,1.43896,0.000974406,0.000246792,0.000808952,0.00149759,-0.000276395,0.574085,0.00110214,0.0134508,1931,1345,5.73357,-1.43899
714,-321,5.7345,1.39917,0.00192357,0.000818272,0.00157649,0.00304147,-0.000299628,0.616812,0.00213455,0.0124865,1938,1345,5.73449,-1.39911
721,-321,5.70349,1.33838,0.00343724,0.00139013,0.00252188,0.00513537,-0.000308002,0.59262,0.00353073,0.0154282,1945,1345,5.70348,-1.33833
728,-321,5.6814,1.26514,0.00527387,0.00227945,0.00359275,0.00766889,-0.000115578,0.587976,0.00515155,0.0262412,1952,1345,5.68145,-1.26513
735,-321,5.60864,1.04871,0.00786074,0.00364002,0.00506169,0.0112344,0.000266373,0.587892,0.0074024,0.0454236,1959,1345,5.60867,-1.04869
742,-321,5.78479,0.837402,0.0112699,0.00564673,0.00699894,0.0160009,0.000915776,0.594404,0.0103755,0.0473633,1966,1345,5.78478,-0.837402
749,-321,6.05383,0.5802,0.0156438,0.00851562,0.00953527,0.0222593,0.00190011,0.606548,0.0142485,0.0436871,1973,1345,6.05381,-0.580164
756,-321,5.11511,0.0788574,0,0,0,0,0,0,0,-1,1980,1345,5.11509,-0.078829
763,-321,5.69934,0.625,0,0,0,0,0,0,0,-1,1987,1345,5.69934,-0.625045
770,-321,0,0,0,0,0,0,0,0,0,-1,1994,1345,0,0
777,-321,0,0,0,0,0,0,0,0,0,-1,2001,1345,0,0
784,-321,0,0,0,0,0,0,0,0,0,-1,2008,1345,0,0
791,-321,0,0,0,0,0,0,0,0,0,-1,2015,1345,0,0
798,-321,0,0,0,0,0,0,0,0,0,-1,2022,1345,0,0
805,-321,0,0,0,0,0,0,0,0,0,-1,2029,1345,0,0
812,-321,0,0,0,0,0,0,0,0,0,-1,2036,1345,0,0
-700,-328,0,0,0,0,0,0,0,0,0,-1,524,1352,0,0
-693,-328,0,0,0,0,0,0,0,0,0,-1,531,1352,0,0
-686,-328,0,0,0,0,0,0,0,0,0,-1,538,1352,0,0
-679,-328,0,0,0,0,0,0,0,0,0,-1,545,1352,0,0
-672,-328,0,0,0,0,0,0,0,0,0,-1,552,1352,0,0
-665,-328,0,0,0,0,0,0,0,0,0,-1,559,1352,0,0
-658,-328,0,0,0,0,0,0,0,0,0,-1,566,1352,0,0
-651,-328,0,0,0,0,0,0,0,0,0,-1,573,1352,0,0
-644,-328,0,0,0,0,0,0,0,0,0,-1,580,1352,0,0
-637,-328,-0.464111,-1.45007,0.00118006,0.0216288,0.0521973,0.0645937,-0.0417848,0.882114,0.0618864,0.0467267,587,1352,-0.464085,1.45005
-630,-328,-0.598572,-0.672241,0.00245426,0.0225194,0.0396511,0.0533874,-0.0284138,0.909308,0.047956,0.0443712,594,1352,-0.598578,0.672227
-623,-328,-0.738342,-0.041748,0.00219369,0.0227604,0.0299448,0.0441384,-0.0191843,0.950794,0.0374937,0.0454911,601,1352,-0.73836,0.0418054
-616,-328,-0.763,0.353027,0.00117666,0.022202,0.0224312,0.0364618,-0.0130831,1.00453,0.0296473,0.0450458,608,1352,-0.762992,-0.352972
-609,-328,-0.534973,0.410889,-6.96173e-05,0.0209085,0.0166828,0.0301256,-0.00928679,1.06604,0.0237914,0.0452087,615,1352,-0.534964,-0.410912
-602,-328,-0.515625,0.276123,-0.00100647,0.0188971,0.0122294,0.0247122,-0.00682159,1.12694,0.0191579,0.0458915,622,1352,-0.515647,-0.276181
-595,-328,-0.797668,0.664063,-0.00193743,0.0167375,0.00891756,0.0203117,-0.00551164,1.1896,0.0157041,0.0433352,629,1352,-0.79767,-0.66403
-588,-328,-1.00159,0.941162,-0.00256165,0.0142777,0.00662503,0.0165717,-0.00485561,1.23746,0.0129729,0.0248179,636,1352,-1.00159,-0.941115
-581,-328,-1.02039,1.04895,-0.00270994,0.011255,0.00459324,0.0126304,-0.00408526,1.27987,0.0100623,0.0120837,643,1352,-1.02039,-1.04889
-574,-328,-1.01678,1.11121,-0.00282909,0.00901499,0.0033136,0.009879,-0.0036931,1.31573,0.00810262,0.0138538,650,1352,-1.0168,-1.11115
-567,-328,-1.00885,1.17419,-0.00316052,0.00717384,0.00220089,0.00762303,-0.00360972,1.36946,0.00662177,0.0189816,657,1352,-1.00886,-1.17424
-560,-328,-0.972778,1.2301,-0.00328937,0.00501949,0.00118438,0.00518501,-0.0034549,1.43194,0.00502148,0.0259553,664,1352,-0.972779,-1.23007
-553,-328,-0.979126,1.28198,-0.00370768,0.00253843,0.000502169,0.00257855,-0.0037478,1.49108,0.00367325,0.027742,671,1352,-0.979114,-1.28193
-546,-328,-1.05212,1.33374,-0.00339494,3.88006e-05,-0.00069657,0.000174726,-0.00353087,-1.37808,0.00241426,0.0261443,678,1352,-1.05212,-1.33378
-539,-328,-1.02942,1.41467,-0.00200336,-0.00229152,-0.00174517,-0.000396329,-0.00389855,-0.744212,0.00247751,0.0210242,685,1352,-1.0294,-1.41464
-532,-328,-0.983765,1.50513,-0.00155112,-0.00487433,-0.00286352,9.79658e-05,-0.00652342,-0.522506,0.00438197,0.0140422,692,1352,-0.983759,-1.50518
-525,-328,-0.975037,1.58118,-0.000974576,-0.00797088,-0.00354807,0.000509829,-0.00945528,-0.396241,0.00648015,0.00958645,699,1352,-0.975032,-1.58114
-518,-328,-0.943909,1.6156,-0.000461973,-0.0122302,-0.00351817,0.000509591,-0.0132018,-0.26944,0.00897588,0.0228583,706,1352,-0.943915,-1.61562
-511,-328,-1.03278,1.62244,0.000117661,-0.0175963,-0.00277803,0.000543112,-0.0180218,-0.151968,0.0121996,0.0353877,713,1352,-1.0328,-1.62242
-504,-328,-1.09753,1.71912,0.00064555,-0.0231259,-0.00198488,0.000810145,-0.0232905,-0.082735,0.015804,0.0430086,720,1352,-1.09756,-1.71907
-497,-328,-1.23199,2.08923,0.000805859,-0.0289192,-0.000170215,0.000806834,-0.0289202,-0.00572607,0.0195546,0.0439558,727,1352,-1.23198,-2.08924
-490,-328,1.20953,-0.515381,0.00012364,-0.0347078,0.00252282,0.000305416,-0.0348896,0.0719291,0.0233622,0.0422651,734,1352,1.2095,0.515343
-483,-328,1.76923,-0.367554,0,0,0,0,0,0,0,-1,741,1352,1.76923,0.367525
-476,-328,1.55304,-1.20911,0,0,0,0,0,0,0,-1,748,1352,1.55304,1.20909
-469,-328,1.51575,-1.69092,-0.00807416,-0.0517256,0.0174313,-0.00196762,-0.0578322,0.336961,0.0379159,0.0459713,755,1352,1.51572,1.6909
-462,-328,1.15009,-1.98865,-0.0158877,-0.0536847,0.0242227,-0.00406333,-0.065509,0.454123,0.0423832,0.0429508,762,1352,1.15006,1.98866
-455,-328,0,0,0,0,0,0,0,0,0,-1,769,1352,0,0
-448,-328,0,0,0,0,0,0,0,0,0,-1,776,1352,0,0
-441,-328,0,0,0,0,0,0,0,0,0,-1,783,1352,0,0
-434,-328,0,0,0,0,0,0,0,0,0,-1,790,1352,0,0
-427,-328,0,0,0,0,0,0,0,0,0,-1,797,1352,0,0
-420,-328,0,0,0,0,0,0,0,0,0,-1,804,1352,0,0
-413,-328,0,0,0,0,0,0,0,0,0,-1,811,1352,0,0
-406,-328,0,0,0,0,0,0,0,0,0,-1,818,1352,0,0
-399,-328,0,0,0,0,0,0,0,0,0,-1,825,1352,0,0
-392,-328,0,0,0,0,0,0,0,0,0,-1,832,1352,0,0
-385,-328,0,0,0,0,0,0,0,0,0,-1,839,1352,0,0
-378,-328,0,0,0,0,0,0,0,0,0,-1,846,1352,0,0
-371,-328,0,0,0,0,0,0,0,0,0,-1,853,1352,0,0
-364,-328,0,0,0,0,0,0,0,0,0,-1,860,1352,0,0
-357,-328,0,0,0,0,0,0,0,0,0,-1,867,1352,0,0
-350,-328,0,0,0,0,0,0,0,0,0,-1,874,1352,0,0
-343,-328,0,0,0,0,0,0,0,0,0,-1,881,1352,0,0
-336,-328,0,0,0,0,0,0,0,0,0,-1,888,1352,0,0
-329,-328,0,0,0,0,0,0,0,0,0,-1,895,1352,0,0
-322,-328,0,0,0,0,0,0,0,0,0,-1,902,1352,0,0
-315,-328,0,0,0,0,0,0,0,0,0,-1,909,1352,0,0
-308,-328,0,0,0,0,0,0,0,0,0,-1,916,1352,0,0
-301,-328,0,0,0,0,0,0,0,0,0,-1,923,1352,0,0
-294,-328,0,0,0,0,0,0,0,0,0,-1,930,1352,0,0
-287,-328,0,0,0,0,0,0,0,0,0,-1,937,1352,0,0
-280,-328,0,0,0,0,0,0,0,0,0,-1,944,1352,0,0
-273,-328,0,0,0,0,0,0,0,0,0,-1,951,1352,0,0
-266,-328,0,0,0,0,0,0,0,0,0,-1,958,1352,0,0
-259,-328,0,0,0,0,0,0,0,0,0,-1,965,1352,0,0
-252,-328,0,0,0,0,0,0,0,0,0,-1,972,1352,0,0
-245,-328,0,0,0,0,0,0,0,0,0,-1,979,1352,0,0
-238,-328,0,0,0,0,0,0,0,0,0,-1,986,1352,0,0
-231,-328,0,0,0,0,0,0,0,0,0,-1,993,1352,0,0
-224,-328,0,0,0,0,0,0,0,0,0,-1,1000,1352,0,0
-217,-328,0,0,0,0,0,0,0,0,0,-1,1007,1352,0,0
-210,-328,0,0,0,0,0,0,0,0,0,-1,1014,1352,0,0
-203,-328,0,0,0,0,0,0,0,0,0,-1,1021,1352,0,0
-196,-328,0,0,0,0,0,0,0,0,0,-1,1028,1352,0,0
-189,-328,0,0,0,0,0,0,0,0,0,-1,1035,1352,0,0
-182,-328,0,0,0,0,0,0,0,0,0,-1,1042,1352,0,0
-175,-328,0,0,0,0,0,0,0,0,0,-1,1049,1352,0,0
-168,-328,0,0,0,0,0,0,0,0,0,-1,1056,1352,0,0
-161,-328,0,0,0,0,0,0,0,0,0,-1,1063,1352,0,0
-154,-328,0,0,0,0,0,0,0,0,0,-1,1070,1352,0,0
-147,-328,0,0,0,0,0,0,0,0,0,-1,1077,1352,0,0
-140,-328,0,0,0,0,0,0,0,0,0,-1,1084,1352,0,0
-133,-328,0,0,0,0,0,0,0,0,0,-1,1091,1352,0,0
-126,-328,0,0,0,0,0,0,0,0,0,-1,1098,1352,0,0
-119,-328,0,0,0,0,0,0,0,0,0,-1,1105,1352,0,0
-112,-328,0,0,0,0,0,0,0,0,0,-1,1112,1352,0,0
-105,-328,0,0,0,0,0,0,0,0,0,-1,1119,1352,0,0
-98,-328,0,0,0,0,0,0,0,0,0,-1,1126,1352,0,0
-91,-328,0,0,0,0,0,0,0,0,0,-1,1133,1352,0,0
-84,-328,0,0,0,0,0,0,0,0,0,-1,1140,1352,0,0
-77,-328,0,0,0,0,0,0,0,0,0,-1,1147,1352,0,0
-70,-328,0,0,0,0,0,0,0,0,0,-1,1154,1352,0,0
-63,-328,0,0,0,0,0,0,0,0,0,-1,1161,1352,0,0
-56,-328,0,0,0,0,0,0,0,0,0,-1,1168,1352,0,0
-49,-328,0,0,0,0,0,0,0,0,0,-1,1175,1352,0,0
-42,-328,0,0,0,0,0,0,0,0,0,-1,1182,1352,0,0
-35,-328,0,0,0,0,0,0,0,0,0,-1,1189,1352,0,0
-28,-328,0,0,0,0,0,0,0,0,0,-1,1196,1352,0,0
-21,-328,0,0,0,0,0,0,0,0,0,-1,1203,1352,0,0
-14,-328,0,0,0,0,0,0,0,0,0,-1,1210,1352,0,0
-7,-328,0,0,0,0,0,0,0,0,0,-1,1217,1352,0,0
0,-328,0,0,0,0,0,0,0,0,0,-1,1224,1352,0,0
7,-328,0,0,0,0,0,0,0,0,0,-1,1231,1352,0,0
14,-328,0,0,0,0,0,0,0,0,0,-1,1238,1352,0,0
21,-328,0,0,0,0,0,0,0,0,0,-1,1245,1352,0,0
28,-328,0,0,0,0,0,0,0,0,0,-1,1252,1352,0,0
35,-328,0,0,0,0,0,0,0,0,0,-1,1259,1352,0,0
42,-328,0,0,0,0,0,0,0,0,0,-1,1266,1352,0,0
49,-328,0,0,0,0,0,0,0,0,0,-1,1273,1352,0,0
56,-328,0,0,0,0,0,0,0,0,0,-1,1280,1352,0,0
63,-328,0,0,0,0,0,0,0,0,0,-1,1287,1352,0,0
70,-328,0,0,0,0,0,0,0,0,0,-1,1294,1352,0,0
77,-328,0,0,0,0,0,0,0,0,0,-1,1301,1352,0,0
84,-328,0,0,0,0,0,0,0,0,0,-1,1308,1352,0,0
91,-328,0,0,0,0,0,0,0,0,0,-1,1315,1352,0,0
98,-328,0,0,0,0,0,0,0,0,0,-1,1322,1352,0,0
105,-328,0,0,0,0,0,0,0,0,0,-1,1329,1352,0,0
112,-328,0,0,0,0,0,0,0,0,0,-1,1336,1352,0,0
119,-328,0,0,0,0,0,0,0,0,0,-1,1343,1352,0,0
126,-328,0,0,0,0,0,0,0,0,0,-1,1350,1352,0,0
133,-328,0,0,0,0,0,0,0,0,0,-1,1357,1352,0,0
140,-328,0,0,0,0,0,0,0,0,0,-1,1364,1352,0,0
147,-328,0,0,0,0,0,0,0,0,0,-1,1371,1352,0,0
154,-328,0,0,0,0,0,0,0,0,0,-1,1378,1352,0,0
161,-328,0,0,0,0,0,0,0,0,0,-1,1385,1352,0,0
168,-328,0,0,0,0,0,0,0,0,0,-1,1392,1352,0,0
175,-328,0,0,0,0,0,0,0,0,0,-1,1399,1352,0,0
182,-328,0,0,0,0,0,0,0,0,0,-1,1406,1352,0,0
189,-328,0,0,0,0,0,0,0,0,0,-1,1413,1352,0,0
196,-328,0,0,0,0,0,0,0,0,0,-1,1420,1352,0,0
203,-328,0,0,0,0,0,0,0,0,0,-1,1427,1352,0,0
210,-328,0,0,0,0,0,0,0,0,0,-1,1434,1352,0,0
217,-328,0,0,0,0,0,0,0,0,0,-1,1441,1352,0,0
224,-328,0,0,0,0,0,0,0,0,0,-1,1448,1352,0,0
231,-328,0,0,0,0,0,0,0,0,0,-1,1455,1352,0,0
238,-328,0,0,0,0,0,0,0,0,0,-1,1462,1352,0,0
245,-328,0,0,0,0,0,0,0,0,0,-1,1469,1352,0,0
252,-328,0,0,0,0,0,0,0,0,0,-1,1476,1352,0,0
259,-328,0,0,0,0,0,0,0,0,0,-1,1483,1352,0,0
266,-328,0,0,0,0,0,0,0,0,0,-1,1490,1352,0,0
273,-328,0,0,0,0,0,0,0,0,0,-1,1497,1352,0,0
280,-328,0,0,0,0,0,0,0,0,0,-1,1504,1352,0,0
287,-328,0,0,0,0,0,0,0,0,0,-1,1511,1352,0,0
294,-328,0,0,0,0,0,0,0,0,0,-1,1518,1352,0,0
301,-328,0,0,0,0,0,0,0,0,0,-1,1525,1352,0,0
308,-328,0,0,0,0,0,0,0,0,0,-1,1532,1352,0,0
315,-328,0,0,0,0,0,0,0,0,0,-1,1539,1352,0,0
322,-328,0,0,0,0,0,0,0,0,0,-1,1546,1352,0,0
329,-328,0,0,0,0,0,0,0,0,0,-1,1553,1352,0,0
336,-328,0,0,0,0,0,0,0,0,0,-1,1560,1352,0,0
343,-328,0,0,0,0,0,0,0,0,0,-1,1567,1352,0,0
350,-328,0,0,0,0,0,0,0,0,0,-1,1574,1352,0,0
357,-328,0,0,0,0,0,0,0,0,0,-1,1581,1352,0,0
364,-328,0,0,0,0,0,0,0,0,0,-1,1588,1352,0,0
371,-328,0,0,0,0,0,0,0,0,0,-1,1595,1352,0,0
378,-328,0,0,0,0,0,0,0,0,0,-1,1602,1352,0,0
385,-328,0,0,0,0,0,0,0,0,0,-1,1609,1352,0,0
392,-328,0,0,0,0,0,0,0,0,0,-1,1616,1352,0,0
399,-328,0,0,0,0,0,0,0,0,0,-1,1623,1352,0,0
406,-328,0,0,0,0,0,0,0,0,0,-1,1630,1352,0,0
413,-328,0,0,0,0,0,0,0,0,0,-1,1637,1352,0,0
420,-328,0,0,0,0,0,0,0,0,0,-1,1644,1352,0,0
427,-328,0,0,0,0,0,0,0,0,0,-1,1651,1352,0,0
434,-328,0,0,0,0,0,0,0,0,0,-1,1658,1352,0,0
441,-328,0,0,0,0,0,0,0,0,0,-1,1665,1352,0,0
448,-328,0,0,0,0,0,0,0,0,0,-1,1672,1352,0,0
455,-328,0,0,0,0,0,0,0,0,0,-1,1679,1352,0,0
462,-328,0,0,0,0,0,0,0,0,0,-1,1686,1352,0,0
469,-328,0,0,0,0,0,0,0,0,0,-1,1693,1352,0,0
476,-328,0,0,0,0,0,0,0,0,0,-1,1700,1352,0,0
483,-328,0,0,0,0,0,0,0,0,0,-1,1707,1352,0,0
490,-328,0,0,0,0,0,0,0,0,0,-1,1714,1352,0,0
497,-328,0,0,0,0,0,0,0,0,0,-1,1721,1352,0,0
504,-328,0,0,0,0,0,0,0,0,0,-1,1728,1352,0,0
511,-328,0,0,0,0,0,0,0,0,0,-1,1735,1352,0,0
518,-328,0,0,0,0,0,0,0,0,0,-1,1742,1352,0,0
525,-328,0,0,0,0,0,0,0,0,0,-1,1749,1352,0,0
532,-328,0,0,0,0,0,0,0,0,0,-1,1756,1352,0,0
539,-328,0,0,0,0,0,0,0,0,0,-1,1763,1352,0,0
546,-328,0,0,0,0,0,0,0,0,0,-1,1770,1352,0,0
553,-328,0,0,0,0,0,0,0,0,0,-1,1777,1352,0,0
560,-328,0,0,0,0,0,0,0,0,0,-1,1784,1352,0,0
567,-328,0,0,0,0,0,0,0,0,0,-1,1791,1352,0,0
574,-328,7.80347,1.28564,-0.085568,0.0339303,-0.00194078,0.0339618,-0.0855995,-1.55456,0.0711424,0.0453598,1798,1352,7.80352,-1.28563
581,-328,7.39648,1.64282,-0.0737218,0.0421995,-0.00716039,0.0426401,-0.0741624,-1.50934,0.0682496,0.0448675,1805,1352,7.3965,-1.64284
588,-328,6.4458,3.13306,-0.0593367,0.0443527,-0.00992222,0.0452937,-0.0602776,-1.47625,0.0611559,0.0458755,1812,1352,6.44586,-3.13304
595,-328,5.79614,2.57361,-0.0450232,0.0434962,-0.0105912,0.0447458,-0.0462728,-1.45336,0.0525521,0.0454742,1819,1352,5.79618,-2.5736
602,-328,5.24548,2.08044,-0.0324343,0.0409959,-0.0107016,0.0425237,-0.0339621,-1.42899,0.0442512,0.0493064,1826,1352,5.24546,-2.08045
609,-328,5.02759,2.26294,0,0,0,0,0,0,0,-1,1833,1352,5.02755,-2.26294
616,-328,5.27551,1.72705,-0.0122185,0.0323928,-0.00828739,0.0338826,-0.0137083,-1.39293,0.0282876,0.0466442,1840,1352,5.2755,-1.72705
623,-328,5.50854,1.12842,-0.0038215,0.0279427,-0.00688344,0.0293702,-0.00524902,-1.36631,0.021544,0.0449761,1847,1352,5.50856,-1.12837
630,-328,5.63293,0.794556,0.0013004,0.0232359,-0.00535533,0.0244735,6.27786e-05,-1.34368,0.0162948,0.0437667,1854,1352,5.63299,-0.794551
637,-328,5.62012,1.24768,0.00506512,0.0186256,-0.00345338,0.0194544,0.00423632,-1.33525,0.0118134,0.044364,1861,1352,5.62008,-1.24774
644,-328,5.76709,1.85254,0.00687478,0.0136624,-0.00219218,0.0143088,0.00622834,-1.28404,0.00828425,0.0397906,1868,1352,5.76707,-1.85259
651,-328,5.74561,1.88037,0.00697694,0.00879055,-0.000612038,0.00897776,0.00678973,-1.27394,0.00540551,0.0271027,1875,1352,5.74564,-1.88035
658,-328,5.65112,1.84814,0.0058498,0.00645638,-8.4085e-05,0.00646782,0.00583836,-1.43557,0.00411813,0.0138461,1882,1352,5.65111,-1.8481
665,-328,5.65381,1.79602,0.00405381,0.00417805,0.00021222,0.00433705,0.0038948,0.927775,0.00275581,0.0119513,1889,1352,5.65381,-1.79602
672,-328,5.67566,1.745,0.00249812,0.00254194,0.000330604,0.00285136,0.0021887,0.818482,0.00172303,0.0105252,1896,1352,5.67564,-1.74501
679,-328,5.69885,1.68665,0.00150971,0.00180912,0.000592438,0.00227048,0.00104836,0.909152,0.00131214,0.0121307,1903,1352,5.69883,-1.68669
686,-328,5.68237,1.6272,0.00096846,0.000906729,0.000486156,0.00142473,0.000450459,0.753696,0.000840895,0.0113052,1910,1352,5.68237,-1.62722
693,-328,5.68823,1.57495,0.000571529,-0.000224432,0.000163993,0.000603992,-0.000256896,0.195431,0.000510322,0.00875165,1917,1352,5.68824,-1.57495
700,-328,5.68835,1.51367,0.000710016,-0.000351454,0.000174214,0.000737878,-0.000379316,0.158585,0.000655992,0.0126785,1924,1352,5.68833,-1.51371
707,-328,5.69275,1.44995,0.00114118,-0.000352225,0.000685947,0.00140842,-0.000619469,0.371508,0.00119998,0.014808,1931,1352,5.69276,-1.44996
714,-328,5.69995,1.40393,0.00212233,-2.9478e-05,0.00136557,0.00278492,-0.000692063,0.451744,0.0021252,0.012128,1938,1352,5.7,-1.40392
721,-328,5.63489,1.33569,0.00365663,0.000280217,0.00220579,0.00474611,-0.000809266,0.458771,0.00346547,0.0201656,1945,1352,5.63487,-1.33564
728,-328,5.62268,1.19299,0.00559159,0.000863298,0.00315357,0.00716879,-0.000713901,0.463752,0.00503406,0.0387613,1952,1352,5.62272,-1.19295
735,-328,5.46631,1.13196,0.00826642,0.00189651,0.00443453,0.0105412,-0.000378295,0.473974,0.00715691,0.0475925,1959,1352,5.46634,-1.132
742,-328,5.2356,0.815796,0.01183,0.00359888,0.00614767,0.0151125,0.000316348,0.490435,0.00997122,0.0491002,1966,1352,5.23562,-0.815796
749,-328,5.26428,0.280151,0.016502,0.00624348,0.00842265,0.0212343,0.00151118,0.511899,0.0136803,0.0470439,1973,1352,5.26432,-0.280114
756,-328,4.59473,0.00012207,0,0,0,0,0,0,0,-1,1980,1352,4.59476,-0.000129046
763,-328,0,0,0,0,0,0,0,0,0,-1,1987,1352,0,0
770,-328,0,0,0,0,0,0,0,0,0,-1,1994,1352,0,0
777,-328,0,0,0,0,0,0,0,0,0,-1,2001,1352,0,0
784,-328,0,0,0,0,0,0,0,0,0,-1,2008,1352,0,0
791,-328,0,0,0,0,0,0,0,0,0,-1,2015,1352,0,0
798,-328,0,0,0,0,0,0,0,0,0,-1,2022,1352,0,0
805,-328,0,0,0,0,0,0,0,0,0,-1,2029,1352,0,0
812,-328,0,0,0,0,0,0,0,0,0,-1,2036,1352,0,0
-700,-335,0,0,0,0,0,0,0,0,0,-1,524,1359,0,0
-693,-335,0,0,0,0,0,0,0,0,0,-1,531,1359,0,0
-686,-335,0,0,0,0,0,0,0,0,0,-1,538,1359,0,0
-679,-335,0,0,0,0,0,0,0,0,0,-1,545,1359,0,0
-672,-335,0,0,0,0,0,0,0,0,0,-1,552,1359,0,0
-665,-335,0,0,0,0,0,0,0,0,0,-1,559,1359,0,0
-658,-335,0,0,0,0,0,0,0,0,0,-1,566,1359,0,0
-651,-335,0,0,0,0,0,0,0,0,0,-1,573,1359,0,0
-644,-335,0,0,0,0,0,0,0,0,0,-1,580,1359,0,0
-637,-335,-0.553894,-1.92969,0.0136263,0.0190677,0.0548069,0.0712214,-0.0385274,0.810199,0.0642938,0.0436726,587,1359,-0.553899,1.92973
-630,-335,-0.794189,-0.958374,0.0118254,0.0226895,0.0414666,0.0590783,-0.0245634,0.850526,0.0496421,0.0428821,594,1359,-0.794195,0.958329
-623,-335,-0.692566,-0.429932,0.00897257,0.0247349,0.0315403,0.0493638,-0.0156563,0.90783,0.0391848,0.0435071,601,1359,-0.692566,0.429945
-616,-335,-0.763367,0.189087,0,0,0,0,0,0,0,-1,608,1359,-0.763361,-0.189053
-609,-335,-0.382935,0.271729,0.0030441,0.0243572,0.0182425,0.0348277,-0.00742635,1.04974,0.0260492,0.0465502,615,1359,-0.38294,-0.271688
-602,-335,-0.409973,0.0412598,0.000808325,0.0224718,0.0137682,0.0291583,-0.00587818,1.1187,0.0216657,0.0475217,622,1359,-0.409972,-0.041206
-595,-335,-0.640625,0.569214,-0.000968097,0.019979,0.0104179,0.024278,-0.00526707,1.17943,0.0181969,0.044382,629,1359,-0.640604,-0.569164
-588,-335,-0.832092,0.974365,-0.00214268,0.017067,0.0080049,0.0199654,-0.00504109,1.2234,0.0152706,0.030254,636,1359,-0.832109,-0.974421
-581,-335,-0.927246,1.04297,-0.00261006,0.0136739,0.00582487,0.015543,-0.00447912,1.2603,0.0121338,0.013705,643,1359,-0.927227,-1.04302
-574,-335,-0.938721,1.11255,-0.00291042,0.0110782,0.00438511,0.0123391,-0.00417139,1.29079,0.00991353,0.0118692,650,1359,-0.938691,-1.11249
-567,-335,-0.927368,1.17554,-0.00330817,0.00895864,0.00302638,0.00966465,-0.00401418,1.34161,0.00811897,0.0170929,657,1359,-0.927361,-1.17558
-560,-335,-0.913513,1.1991,-0.00342258,0.0063768,0.00184332,0.00671206,-0.00375785,1.39088,0.00612449,0.0255477,664,1359,-0.91352,-1.19911
-553,-335,-0.950623,1.27332,-0.00364363,0.00339118,0.00109851,0.00355873,-0.00381118,1.41944,0.00425585,0.0268938,671,1359,-0.950625,-1.27328
-546,-335,-0.96405,1.36597,-0.00300005,0.000600893,-0.000208077,0.000612877,-0.00301204,-1.51327,0.00224044,0.0231541,678,1359,-0.964079,-1.36592
-539,-335,-0.925537,1.42993,-0.00116947,-0.00193523,-0.00129463,-0.000202289,-0.00290242,-0.641623,0.00187116,0.01789,685,1359,-0.925521,-1.42998
-532,-335,-0.95575,1.5105,-0.000247103,-0.0047019,-0.00246057,0.000844492,-0.0057935,-0.417548,0.00417242,0.0134875,692,1359,-0.955738,-1.51055
-525,-335,-0.947083,1.5686,0.000785589,-0.00784942,-0.00326778,0.00188281,-0.00894663,-0.323941,0.00668105,0.00941661,699,1359,-0.94711,-1.56863
-518,-335,-0.935791,1.62097,0.00175834,-0.0120336,-0.00341915,0.00255945,-0.0128347,-0.230148,0.00952496,0.0128154,706,1359,-0.9358,-1.62102
-511,-335,-0.988953,1.64685,0.00281059,-0.017392,-0.00285046,0.00320507,-0.0177865,-0.137518,0.0130578,0.03207,713,1359,-0.988971,-1.64681
-504,-335,-1.05194,1.71497,0.00374959,-0.0227109,-0.00231991,0.00395144,-0.0229128,-0.0867919,0.0167484,0.0441821,720,1359,-1.05197,-1.71501
-497,-335,-1.20166,2.15918,0.00420936,-0.0280819,-0.000883656,0.00423352,-0.028106,-0.027338,0.0202962,0.0464989,727,1359,-1.20165,-2.15913
-490,-335,0.534973,-0.152466,0.00369033,-0.0331964,0.00125788,0.00373317,-0.0332392,0.0340485,0.0235029,0.0411181,734,1359,0.534977,0.152521
-483,-335,0.637024,-0.287476,0.00260976,-0.0387969,0.00441248,0.00307475,-0.0392619,0.104994,0.0272574,0.0460741,741,1359,0.637,0.28746
-476,-335,0.84436,-0.754395,-9.35902e-05,-0.0434363,0.00848905,0.00150975,-0.0450396,0.186673,0.0305421,0.0484979,748,1359,0.844362,0.754451
-469,-335,0.906494,-1.14502,-0.00513134,-0.0462023,0.0134087,-0.00114132,-0.0501923,0.289225,0.0330877,0.0469278,755,1359,0.906472,1.14507
-462,-335,0.941467,-1.5094,0,0,0,0,0,0,0,-1,762,1359,0.941478,1.50937
-455,-335,0.407532,-1.45813,0,0,0,0,0,0,0,-1,769,1359,0.407508,1.45807
-448,-335,0,0,0,0,0,0,0,0,0,-1,776,1359,0,0
-441,-335,0,0,0,0,0,0,0,0,0,-1,783,1359,0,0
-434,-335,0,0,0,0,0,0,0,0,0,-1,790,1359,0,0
-427,-335,0,0,0,0,0,0,0,0,0,-1,797,1359,0,0
-420,-335,0,0,0,0,0,0,0,0,0,-1,804,1359,0,0
-413,-335,0,0,0,0,0,0,0,0,0,-1,811,1359,0,0
-406,-335,0,0,0,0,0,0,0,0,0,-1,818,1359,0,0
-399,-335,0,0,0,0,0,0,0,0,0,-1,825,1359,0,0
-392,-335,0,0,0,0,0,0,0,0,0,-1,832,1359,0,0
-385,-335,0,0,0,0,0,0,0,0,0,-1,839,1359,0,0
-378,-335,0,0,0,0,0,0,0,0,0,-1,846,1359,0,0
-371,-335,0,0,0,0,0,0,0,0,0,-1,853,1359,0,0
-364,-335,0,0,0,0,0,0,0,0,0,-1,860,1359,0,0
-357,-335,0,0,0,0,0,0,0,0,0,-1,867,1359,0,0
-350,-335,0,0,0,0,0,0,0,0,0,-1,874,1359,0,0
-343,-335,0,0,0,0,0,0,0,0,0,-1,881,1359,0,0
-336,-335,0,0,0,0,0,0,0,0,0,-1,888,1359,0,0
-329,-335,0,0,0,0,0,0,0,0,0,-1,895,1359,0,0
-322,-335,0,0,0,0,0,0,0,0,0,-1,902,1359,0,0
-315,-335,0,0,0,0,0,0,0,0,0,-1,909,1359,0,0
-308,-335,0,0,0,0,0,0,0,0,0,-1,916,1359,0,0
-301,-335,0,0,0,0,0,0,0,0,0,-1,923,1359,0,0
-294,-335,0,0,0,0,0,0,0,0,0,-1,930,1359,0,0
-287,-335,0,0,0,0,0,0,0,0,0,-1,937,1359,0,0
-280,-335,0,0,0,0,0,0,0,0,0,-1,944,1359,0,0
-273,-335,0,0,0,0,0,0,0,0,0,-1,951,1359,0,0
-266,-335,0,0,0,0,0,0,0,0,0,-1,958,1359,0,0
-259,-335,0,0,0,0,0,0,0,0,0,-1,965,1359,0,0
-252,-335,0,0,0,0,0,0,0,0,0,-1,972,1359,0,0
-245,-335,0,0,0,0,0,0,0,0,0,-1,979,1359,0,0
-238,-335,0,0,0,0,0,0,0,0,0,-1,986,1359,0,0
-231,-335,0,0,0,0,0,0,0,0,0,-1,993,1359,0,0
-224,-335,0,0,0,0,0,0,0,0,0,-1,1000,1359,0,0
-217,-335,0,0,0,0,0,0,0,0,0,-1,1007,1359,0,0
-210,-335,0,0,0,0,0,0,0,0,0,-1,1014,1359,0,0
-203,-335,0,0,0,0,0,0,0,0,0,-1,1021,1359,0,0
-196,-335,0,0,0,0,0,0,0,0,0,-1,1028,1359,0,0
-189,-335,0,0,0,0,0,0,0,0,0,-1,1035,1359,0,0
-182,-335,0,0,0,0,0,0,0,0,0,-1,1042,1359,0,0
-175,-335,0,0,0,0,0,0,0,0,0,-1,1049,1359,0,0
-168,-335,0,0,0,0,0,0,0,0,0,-1,1056,1359,0,0
-161,-335,0,0,0,0,0,0,0,0,0,-1,1063,1359,0,0
-154,-335,0,0,0,0,0,0,0,0,0,-1,1070,1359,0,0
-147,-335,0,0,0,0,0,0,0,0,0,-1,1077,1359,0,0
-140,-335,0,0,0,0,0,0,0,0,0,-1,1084,1359,0,0
-133,-335,0,0,0,0,0,0,0,0,0,-1,1091,1359,0,0
-126,-335,0,0,0,0,0,0,0,0,0,-1,1098,1359,0,0
-119,-335,0,0,0,0,0,0,0,0,0,-1,1105,1359,0,0
-112,-335,0,0,0,0,0,0,0,0,0,-1,1112,1359,0,0
-105,-335,0,0,0,0,0,0,0,0,0,-1,1119,1359,0,0
-98,-335,0,0,0,0,0,0,0,0,0,-1,1126,1359,0,0
-91,-335,0,0,0,0,0,0,0,0,0,-1,1133,1359,0,0
-84,-335,0,0,0,0,0,0,0,0,0,-1,1140,1359,0,0
-77,-335,0,0,0,0,0,0,0,0,0,-1,1147,1359,0,0
-70,-335,0,0,0,0,0,0,0,0,0,-1,1154,1359,0,0
-63,-335,0,0,0,0,0,0,0,0,0,-1,1161,1359,0,0
-56,-335,0,0,0,0,0,0,0,0,0,-1,1168,1359,0,0
-49,-335,0,0,0,0,0,0,0,0,0,-1,1175,1359,0,0
-42,-335,0,0,0,0,0,0,0,0,0,-1,1182,1359,0,0
-35,-335,0,0,0,0,0,0,0,0,0,-1,1189,1359,0,0
-28,-335,0,0,0,0,0,0,0,0,0,-1,1196,1359,0,0
-21,-335,0,0,0,0,0,0,0,0,0,-1,1203,1359,0,0
-14,-335,0,0,0,0,0,0,0,0,0,-1,1210,1359,0,0
-7,-335,0,0,0,0,0,0,0,0,0,-1,1217,1359,0,0
0,-335,0,0,0,0,0,0,0,0,0,-1,1224,1359,0,0
7,-335,0,0,0,0,0,0,0,0,0,-1,1231,1359,0,0
14,-335,0,0,0,0,0,0,0,0,0,-1,1238,1359,0,0
21,-335,0,0,0,0,0,0,0,0,0,-1,1245,1359,0,0
28,-335,0,0,0,0,0,0,0,0,0,-1,1252,1359,0,0
35,-335,0,0,0,0,0,0,0,0,0,-1,1259,1359,0,0
42,-335,0,0,0,0,0,0,0,0,0,-1,1266,1359,0,0
49,-335,0,0,0,0,0,0,0,0,0,-1,1273,1359,0,0
56,-335,0,0,0,0,0,0,0,0,0,-1,1280,1359,0,0
63,-335,0,0,0,0,0,0,0,0,0,-1,1287,1359,0,0
70,-335,0,0,0,0,0,0,0,0,0,-1,1294,1359,0,0
77,-335,0,0,0,0,0,0,0,0,0,-1,1301,1359,0,0
84,-335,0,0,0,0,0,0,0,0,0,-1,1308,1359,0,0
91,-335,0,0,0,0,0,0,0,0,0,-1,1315,1359,0,0
98,-335,0,0,0,0,0,0,0,0,0,-1,1322,1359,0,0
105,-335,0,0,0,0,0,0,0,0,0,-1,1329,1359,0,0
112,-335,0,0,0,0,0,0,0,0,0,-1,1336,1359,0,0
119,-335,0,0,0,0,0,0,0,0,0,-1,1343,1359,0,0
126,-335,0,0,0,0,0,0,0,0,0,-1,1350,1359,0,0
133,-335,0,0,0,0,0,0,0,0,0,-1,1357,1359,0,0
140,-335,0,0,0,0,0,0,0,0,0,-1,1364,1359,0,0
147,-335,0,0,0,0,0,0,0,0,0,-1,1371,1359,0,0
154,-335,0,0,0,0,0,0,0,0,0,-1,1378,1359,0,0
161,-335,0,0,0,0,0,0,0,0,0,-1,1385,1359,0,0
168,-335,0,0,0,0,0,0,0,0,0,-1,1392,1359,0,0
175,-335,0,0,0,0,0,0,0,0,0,-1,1399,1359,0,0
182,-335,0,0,0,0,0,0,0,0,0,-1,1406,1359,0,0
189,-335,0,0,0,0,0,0,0,0,0,-1,1413,1359,0,0
196,-335,0,0,0,0,0,0,0,0,0,-1,1420,1359,0,0
203,-335,0,0,0,0,0,0,0,0,0,-1,1427,1359,0,0
210,-335,0,0,0,0,0,0,0,0,0,-1,1434,1359,0,0
217,-335,0,0,0,0,0,0,0,0,0,-1,1441,1359,0,0
224,-335,0,0,0,0,0,0,0,0,0,-1,1448,1359,0,0
231,-335,0,0,0,0,0,0,0,0,0,-1,1455,1359,0,0
238,-335,0,0,0,0,0,0,0,0,0,-1,1462,1359,0,0
245,-335,0,0,0,0,0,0,0,0,0,-1,1469,1359,0,0
252,-335,0,0,0,0,0,0,0,0,0,-1,1476,1359,0,0
259,-335,0,0,0,0,0,0,0,0,0,-1,1483,1359,0,0
266,-335,0,0,0,0,0,0,0,0,0,-1,1490,1359,0,0
273,-335,0,0,0,0,0,0,0,0,0,-1,1497,1359,0,0
280,-335,0,0,0,0,0,0,0,0,0,-1,1504,1359,0,0
287,-335,0,0,0,0,0,0,0,0,0,-1,1511,1359,0,0
294,-335,0,0,0,0,0,0,0,0,0,-1,1518,1359,0,0
301,-335,0,0,0,0,0,0,0,0,0,-1,1525,1359,0,0
308,-335,0,0,0,0,0,0,0,0,0,-1,1532,1359,0,0
315,-335,0,0,0,0,0,0,0,0,0,-1,1539,1359,0,0
322,-335,0,0,0,0,0,0,0,0,0,-1,1546,1359,0,0
329,-335,0,0,0,0,0,0,0,0,0,-1,1553,1359,0,0
336,-335,0,0,0,0,0,0,0,0,0,-1,1560,1359,0,0
343,-335,0,0,0,0,0,0,0,0,0,-1,1567,1359,0,0
350,-335,0,0,0,0,0,0,0,0,0,-1,1574,1359,0,0
357,-335,0,0,0,0,0,0,0,0,0,-1,1581,1359,0,0
364,-335,0,0,0,0,0,0,0,0,0,-1,1588,1359,0,0
371,-335,0,0,0,0,0,0,0,0,0,-1,1595,1359,0,0
378,-335,0,0,0,0,0,0,0,0,0,-1,1602,1359,0,0
385,-335,0,0,0,0,0,0,0,0,0,-1,1609,1359,0,0
392,-335,0,0,0,0,0,0,0,0,0,-1,1616,1359,0,0
399,-335,0,0,0,0,0,0,0,0,0,-1,1623,1359,0,0
406,-335,0,0,0,0,0,0,0,0,0,-1,1630,1359,0,0
413,-335,0,0,0,0,0,0,0,0,0,-1,1637,1359,0,0
420,-335,0,0,0,0,0,0,0,0,0,-1,1644,1359,0,0
427,-335,0,0,0,0,0,0,0,0,0,-1,1651,1359,0,0
434,-335,0,0,0,0,0,0,0,0,0,-1,1658,1359,0,0
441,-335,0,0,0,0,0,0,0,0,0,-1,1665,1359,0,0
448,-335,0,0,0,0,0,0,0,0,0,-1,1672,1359,0,0
455,-335,0,0,0,0,0,0,0,0,0,-1,1679,1359,0,0
462,-335,0,0,0,0,0,0,0,0,0,-1,1686,1359,0,0
469,-335,0,0,0,0,0,0,0,0,0,-1,1693,1359,0,0
476,-335,0,0,0,0,0,0,0,0,0,-1,1700,1359,0,0
483,-335,0,0,0,0,0,0,0,0,0,-1,1707,1359,0,0
490,-335,0,0,0,0,0,0,0,0,0,-1,1714,1359,0,0
497,-335,0,0,0,0,0,0,0,0,0,-1,1721,1359,0,0
504,-335,0,0,0,0,0,0,0,0,0,-1,1728,1359,0,0
511,-335,0,0,0,0,0,0,0,0,0,-1,1735,1359,0,0
518,-335,0,0,0,0,0,0,0,0,0,-1,1742,1359,0,0
525,-335,0,0,0,0,0,0,0,0,0,-1,1749,1359,0,0
532,-335,0,0,0,0,0,0,0,0,0,-1,1756,1359,0,0
539,-335,0,0,0,0,0,0,0,0,0,-1,1763,1359,0,0
546,-335,0,0,0,0,0,0,0,0,0,-1,1770,1359,0,0
553,-335,0,0,0,0,0,0,0,0,0,-1,1777,1359,0,0
560,-335,0,0,0,0,0,0,0,0,0,-1,1784,1359,0,0
567,-335,0,0,0,0,0,0,0,0,0,-1,1791,1359,0,0
574,-335,7.72144,2.8811,-0.0814219,0.0367959,0.00219267,0.0368365,-0.0814626,1.55226,0.0699011,0.0438249,1798,1359,7.72139,-2.88106
581,-335,8.46216,0.901489,-0.0701341,0.0414162,-0.00291539,0.0414924,-0.0702102,-1.54468,0.0651981,0.0454962,1805,1359,8.46213,-0.901442
588,-335,6.62781,2.36951,-0.0570333,0.0418729,-0.00566296,0.0421961,-0.0573564,-1.51379,0.0576984,0.0427199,1812,1359,6.62783,-2.36954
595,-335,6.03345,2.01538,-0.0439733,0.0401887,-0.00675345,0.0407272,-0.0445118,-1.49123,0.0492289,0.0492736,1819,1359,6.03345,-2.01534
602,-335,5.5365,1.46008,0,0,0,0,0,0,0,-1,1826,1359,5.53647,-1.46013
609,-335,5.24597,1.62488,0,0,0,0,0,0,0,-1,1833,1359,5.24597,-1.62493
616,-335,5.31299,1.36938,-0.0134479,0.0291378,-0.00605384,0.0299817,-0.0142918,-1.43229,0.0260908,0.0482151,1840,1359,5.31299,-1.3694
623,-335,5.30762,1.05054,-0.00448259,0.0252108,-0.00509125,0.0260595,-0.00533128,-1.40562,0.0193959,0.0469163,1847,1359,5.30764,-1.05057
630,-335,5.62622,0.862671,0.00117685,0.0204661,-0.00394823,0.021243,0.000399995,-1.37652,0.0140305,0.0453831,1854,1359,5.62626,-0.862698
637,-335,5.44446,1.22803,0.00503917,0.016471,-0.00208728,0.0168402,0.00466999,-1.39573,0.010039,0.0473848,1861,1359,5.4445,-1.22802
644,-335,5.60144,1.98828,0.00669418,0.0118373,-0.00106237,0.0120481,0.00648337,-1.37491,0.00696269,0.034245,1868,1359,5.60147,-1.98831
651,-335,5.58691,1.91394,0.00663233,0.0074286,0.000227462,0.007489,0.00657194,1.31126,0.00471679,0.0133728,1875,1359,5.58692,-1.91398
658,-335,5.59558,1.86328,0.00535636,0.00532655,0.000523859,0.00586553,0.00481738,0.771179,0.00361202,0.0109297,1882,1359,5.59558,-1.8633
665,-335,5.60193,1.81189,0.00354371,0.0034375,0.00063015,0.00412299,0.00285822,0.743359,0.00243895,0.0124914,1889,1359,5.60197,-1.81194
672,-335,5.60315,1.74817,0.00206607,0.00207344,0.000548206,0.00261797,0.00152154,0.788757,0.00151811,0.0155656,1896,1359,5.60317,-1.74815
679,-335,5.62561,1.6842,0.00115678,0.00147479,0.000698404,0.00203206,0.000599512,0.897324,0.00120563,0.0131362,1903,1359,5.6256,-1.68426
686,-335,5.63928,1.62537,0.000712114,0.000535024,0.00056662,0.00119707,5.00718e-05,0.707891,0.000781888,0.0102143,1910,1359,5.63931,-1.6254
693,-335,5.62891,1.56677,0.000404112,-0.000667084,0.000194005,0.000438166,-0.000701138,0.17376,0.000663592,0.00924415,1917,1359,5.62887,-1.56674
700,-335,5.61401,1.52319,0.000582044,-0.000981833,0.000156354,0.000597523,-0.000997312,0.098677,0.000930372,0.00999747,1924,1359,5.61406,-1.52321
707,-335,5.61853,1.4574,0.00107344,-0.00118065,0.000552039,0.00120137,-0.00130859,0.227731,0.00144957,0.0134183,1931,1359,5.61851,-1.45737
714,-335,5.60095,1.36926,0.00205469,-0.00117779,0.0010653,0.00237419,-0.00149729,0.291382,0.00225423,0.0155698,1938,1359,5.60091,-1.36927
721,-335,5.51831,1.23755,0.00351499,-0.00118678,0.00168164,0.00405454,-0.00172632,0.310468,0.00342662,0.0298828,1945,1359,5.51835,-1.23751
728,-335,5.46631,1.03699,0.00538972,-0.00102137,0.00234987,0.00615876,-0.00179042,0.316287,0.00481492,0.0477058,1952,1359,5.46628,-1.03696
735,-335,5.6781,1.8877,0.0079604,-0.000457599,0.00323567,0.00906038,-0.00155758,0.327697,0.0066208,0.0446278,1959,1359,5.67806,-1.88769
742,-335,5.40979,1.18042,0.0113593,0.000745473,0.00442639,0.0129629,-0.000858211,0.347591,0.00894177,0.0444266,1966,1359,5.40975,-1.18043
749,-335,5.29407,0.502075,0.0158124,0.00289924,0.00602437,0.0181865,0.000525166,0.375391,0.0119531,0.0453765,1973,1359,5.2941,-0.50204
756,-335,5.0354,-0.123291,0,0,0,0,0,0,0,-1,1980,1359,5.03535,0.123311
763,-335,0,0,0,0,0,0,0,0,0,-1,1987,1359,0,0
770,-335,0,0,0,0,0,0,0,0,0,-1,1994,1359,0,0
777,-335,0,0,0,0,0,0,0,0,0,-1,2001,1359,0,0
784,-335,0,0,0,0,0,0,0,0,0,-1,2008,1359,0,0
791,-335,0,0,0,0,0,0,0,0,0,-1,2015,1359,0,0
798,-335,0,0,0,0,0,0,0,0,0,-1,2022,1359,0,0
805,-335,0,0,0,0,0,0,0,0,0,-1,2029,1359,0,0
812,-335,0,0,0,0,0,0,0,0,0,-1,2036,1359,0,0
-700,-342,0,0,0,0,0,0,0,0,0,-1,524,1366,0,0
-693,-342,0,0,0,0,0,0,0,0,0,-1,531,1366,0,0
-686,-342,0,0,0,0,0,0,0,0,0,-1,538,1366,0,0
-679,-342,0,0,0,0,0,0,0,0,0,-1,545,1366,0,0
-672,-342,0,0,0,0,0,0,0,0,0,-1,552,1366,0,0
-665,-342,0,0,0,0,0,0,0,0,0,-1,559,1366,0,0
-658,-342,0,0,0,0,0,0,0,0,0,-1,566,1366,0,0
-651,-342,0,0,0,0,0,0,0,0,0,-1,573,1366,0,0
-644,-342,0,0,0,0,0,0,0,0,0,-1,580,1366,0,0
-637,-342,-0.660828,-2.46533,0,0,0,0,0,0,0,-1,587,1366,-0.660805,2.46537
-630,-342,-0.56604,-1.77686,0,0,0,0,0,0,0,-1,594,1366,-0.566032,1.77689
-623,-342,-0.38678,-0.63916,0.016937,0.0274489,0.032681,0.0552939,-0.0109081,0.865128,0.0409853,0.0409902,601,1366,-0.386791,0.639101
-616,-342,0.0601196,-0.188721,0.0114953,0.0290114,0.0254971,0.0472126,-0.006706,0.950831,0.033932,0.0417435,608,1366,0.0601331,0.188684
-609,-342,-0.00500488,-0.289307,0.0068754,0.028561,0.0198861,0.0403682,-0.00493178,1.03499,0.0286977,0.043677,615,1366,-0.00499958,0.289288
-602,-342,-0.256775,-0.270874,0.00318576,0.0266322,0.0155024,0.034345,-0.00452705,1.10913,0.0245452,0.0436419,622,1366,-0.256773,0.27086
-595,-342,-0.462402,0.384766,0.00043166,0.0237127,0.0120694,0.0288404,-0.00469602,1.16905,0.0209683,0.0403822,629,1366,-0.462377,-0.38482
-588,-342,-0.618225,0.794678,-0.00141145,0.0202544,0.00944512,0.0237938,-0.00495081,1.21226,0.0177445,0.0338997,636,1366,-0.618253,-0.794646
-581,-342,-0.864868,1.04016,-0.0023089,0.016372,0.00707115,0.0187467,-0.00468362,1.2468,0.0143167,0.0203599,643,1366,-0.864845,-1.04018
-574,-342,-0.875122,1.11938,-0.00284172,0.0133017,0.00545542,0.0149724,-0.0045124,1.27362,0.0117775,0.0097008,650,1366,-0.875121,-1.1194
-567,-342,-0.837708,1.15271,-0.00334564,0.0108328,0.00381282,0.0117931,-0.00430592,1.32407,0.00962403,0.0163357,657,1366,-0.837698,-1.1527
-560,-342,-0.861328,1.17273,-0.00350071,0.00765116,0.00249311,0.00818314,-0.00403269,1.36057,0.00718723,0.0257188,664,1366,-0.861343,-1.17275
-553,-342,-0.893738,1.24377,-0.0035526,0.00413632,0.00167682,0.00448609,-0.00390238,1.36515,0.00484699,0.0274076,671,1366,-0.893756,-1.24382
-546,-342,-0.873596,1.35193,-0.00266725,0.00105094,0.000312586,0.00107703,-0.00269335,1.48751,0.00224251,0.0241353,678,1366,-0.873583,-1.35189
-539,-342,-0.893005,1.45923,-0.000533843,-0.00161446,-0.000770644,-0.000132968,-0.00201533,-0.479662,0.0013015,0.0201365,685,1366,-0.892999,-1.45919
-532,-342,-0.902588,1.51611,0.000725898,-0.00447509,-0.001972,0.00138905,-0.00513824,-0.324402,0.00397035,0.0162408,692,1366,-0.902613,-1.5161
-525,-342,-0.882996,1.56018,0.00209158,-0.00756786,-0.00293864,0.00291534,-0.00839162,-0.273305,0.00677849,0.0106763,699,1366,-0.882975,-1.56018
-518,-342,-0.865723,1.62463,0.00343744,-0.0115162,-0.00335377,0.00415517,-0.0122339,-0.210826,0.00983799,0.00960874,706,1366,-0.865697,-1.62463
-511,-342,-0.878906,1.65601,0.00490063,-0.0165577,-0.00309665,0.00533857,-0.0169956,-0.140492,0.0134674,0.0239737,713,1366,-0.878894,-1.65601
-504,-342,-0.820313,1.5022,0.00612377,-0.0213343,-0.00293032,0.00643301,-0.0216435,-0.105142,0.0169844,0.0436992,720,1366,-0.820283,-1.50218
-497,-342,-0.764343,1.2821,0,0,0,0,0,0,0,-1,727,1366,-0.764319,-1.2821
-490,-342,-0.115173,0.342407,0.00627487,-0.0299398,-0.000504758,0.00628191,-0.0299469,-0.0139343,0.0223547,0.0427322,734,1366,-0.115195,-0.342465
-483,-342,0.154236,0.223389,0.00516609,-0.0341942,0.00179572,0.00524784,-0.034276,0.0454967,0.0247858,0.041585,741,1366,0.154216,-0.223352
-476,-342,0.232666,-0.22876,0.00218001,-0.0370571,0.00485997,0.00277301,-0.0376501,0.121417,0.0260736,0.0412485,748,1366,0.232669,0.228762
-469,-342,0.243164,-0.562988,-0.00343781,-0.0375521,0.00863462,-0.00137682,-0.0396131,0.234304,0.025962,0.0410106,755,1366,0.243139,0.563009
-462,-342,0.0662231,-0.777466,-0.0127297,-0.0343664,0.0129718,-0.00665711,-0.040439,0.437836,0.0250371,0.0424749,762,1366,0.0662316,0.777466
-455,-342,-0.303894,-1.13611,-0.0269439,-0.0261898,0.017565,-0.00899777,-0.0441359,0.796128,0.0269305,0.0459178,769,1366,-0.303911,1.13606
-448,-342,-0.667664,-1.50366,0,0,0,0,0,0,0,-1,776,1366,-0.667642,1.50363
-441,-342,0,0,0,0,0,0,0,0,0,-1,783,1366,0,0
-434,-342,0,0,0,0,0,0,0,0,0,-1,790,1366,0,0
-427,-342,0,0,0,0,0,0,0,0,0,-1,797,1366,0,0
-420,-342,0,0,0,0,0,0,0,0,0,-1,804,1366,0,0
-413,-342,0,0,0,0,0,0,0,0,0,-1,811,1366,0,0
-406,-342,0,0,0,0,0,0,0,0,0,-1,818,1366,0,0
-399,-342,0,0,0,0,0,0,0,0,0,-1,825,1366,0,0
-392,-342,0,0,0,0,0,0,0,0,0,-1,832,1366,0,0
-385,-342,0,0,0,0,0,0,0,0,0,-1,839,1366,0,0
-378,-342,0,0,0,0,0,0,0,0,0,-1,846,1366,0,0
-371,-342,0,0,0,0,0,0,0,0,0,-1,853,1366,0,0
-364,-342,0,0,0,0,0,0,0,0,0,-1,860,1366,0,0
-357,-342,0,0,0,0,0,0,0,0,0,-1,867,1366,0,0
-350,-342,0,0,0,0,0,0,0,0,0,-1,874,1366,0,0
-343,-342,0,0,0,0,0,0,0,0,0,-1,881,1366,0,0
-336,-342,0,0,0,0,0,0,0,0,0,-1,888,1366,0,0
-329,-342,0,0,0,0,0,0,0,0,0,-1,895,1366,0,0
-322,-342,0,0,0,0,0,0,0,0,0,-1,902,1366,0,0
-315,-342,0,0,0,0,0,0,0,0,0,-1,909,1366,0,0
-308,-342,0,0,0,0,0,0,0,0,0,-1,916,1366,0,0
-301,-342,0,0,0,0,0,0,0,0,0,-1,923,1366,0,0
-294,-342,0,0,0,0,0,0,0,0,0,-1,930,1366,0,0
-287,-342,0,0,0,0,0,0,0,0,0,-1,937,1366,0,0
-280,-342,0,0,0,0,0,0,0,0,0,-1,944,1366,0,0
-273,-342,0,0,0,0,0,0,0,0,0,-1,951,1366,0,0
-266,-342,0,0,0,0,0,0,0,0,0,-1,958,1366,0,0
-259,-342,0,0,0,0,0,0,0,0,0,-1,965,1366,0,0
-252,-342,0,0,0,0,0,0,0,0,0,-1,972,1366,0,0
-245,-342,0,0,0,0,0,0,0,0,0,-1,979,1366,0,0
-238,-342,0,0,0,0,0,0,0,0,0,-1,986,1366,0,0
-231,-342,0,0,0,0,0,0,0,0,0,-1,993,1366,0,0
-224,-342,0,0,0,0,0,0,0,0,0,-1,1000,1366,0,0
-217,-342,0,0,0,0,0,0,0,0,0,-1,1007,1366,0,0
-210,-342,0,0,0,0,0,0,0,0,0,-1,1014,1366,0,0
-203,-342,0,0,0,0,0,0,0,0,0,-1,1021,1366,0,0
-196,-342,0,0,0,0,0,0,0,0,0,-1,1028,1366,0,0
-189,-342,0,0,0,0,0,0,0,0,0,-1,1035,1366,0,0
-182,-342,0,0,0,0,0,0,0,0,0,-1,1042,1366,0,0
-175,-342,0,0,0,0,0,0,0,0,0,-1,1049,1366,0,0
-168,-342,0,0,0,0,0,0,0,0,0,-1,1056,1366,0,0
-161,-342,0,0,0,0,0,0,0,0,0,-1,1063,1366,0,0
-154,-342,0,0,0,0,0,0,0,0,0,-1,1070,1366,0,0
-147,-342,0,0,0,0,0,0,0,0,0,-1,1077,1366,0,0
-140,-342,0,0,0,0,0,0,0,0,0,-1,1084,1366,0,0
-133,-342,0,0,0,0,0,0,0,0,0,-1,1091,1366,0,0
-126,-342,0,0,0,0,0,0,0,0,0,-1,1098,1366,0,0
-119,-342,0,0,0,0,0,0,0,0,0,-1,1105,1366,0,0
-112,-342,0,0,0,0,0,0,0,0,0,-1,1112,1366,0,0
-105,-342,0,0,0,0,0,0,0,0,0,-1,1119,1366,0,0
-98,-342,0,0,0,0,0,0,0,0,0,-1,1126,1366,0,0
-91,-342,0,0,0,0,0,0,0,0,0,-1,1133,1366,0,0
-84,-342,0,0,0,0,0,0,0,0,0,-1,1140,1366,0,0
-77,-342,0,0,0,0,0,0,0,0,0,-1,1147,1366,0,0
-70,-342,0,0,0,0,0,0,0,0,0,-1,1154,1366,0,0
-63,-342,0,0,0,0,0,0,0,0,0,-1,1161,1366,0,0
-56,-342,0,0,0,0,0,0,0,0,0,-1,1168,1366,0,0
-49,-342,0,0,0,0,0,0,0,0,0,-1,1175,1366,0,0
-42,-342,0,0,0,0,0,0,0,0,0,-1,1182,1366,0,0
-35,-342,0,0,0,0,0,0,0,0,0,-1,1189,1366,0,0
-28,-342,0,0,0,0,0,0,0,0,0,-1,1196,1366,0,0
-21,-342,0,0,0,0,0,0,0,0,0,-1,1203,1366,0,0
-14,-342,0,0,0,0,0,0,0,0,0,-1,1210,1366,0,0
-7,-342,0,0,0,0,0,0,0,0,0,-1,1217,1366,0,0
0,-342,0,0,0,0,0,0,0,0,0,-1,1224,1366,0,0
7,-342,0,0,0,0,0,0,0,0,0,-1,1231,1366,0,0
14,-342,0,0,0,0,0,0,0,0,0,-1,1238,1366,0,0
21,-342,0,0,0,0,0,0,0,0,0,-1,1245,1366,0,0
28,-342,0,0,0,0,0,0,0,0,0,-1,1252,1366,0,0
35,-342,0,0,0,0,0,0,0,0,0,-1,1259,1366,0,0
42,-342,0,0,0,0,0,0,0,0,0,-1,1266,1366,0,0
49,-342,0,0,0,0,0,0,0,0,0,-1,1273,1366,0,0
56,-342,0,0,0,0,0,0,0,0,0,-1,1280,1366,0,0
63,-342,0,0,0,0,0,0,0,0,0,-1,1287,1366,0,0
70,-342,0,0,0,0,0,0,0,0,0,-1,1294,1366,0,0
77,-342,0,0,0,0,0,0,0,0,0,-1,1301,1366,0,0
84,-342,0,0,0,0,0,0,0,0,0,-1,1308,1366,0,0
91,-342,0,0,0,0,0,0,0,0,0,-1,1315,1366,0,0
98,-342,0,0,0,0,0,0,0,0,0,-1,1322,1366,0,0
105,-342,0,0,0,0,0,0,0,0,0,-1,1329,1366,0,0
112,-342,0,0,0,0,0,0,0,0,0,-1,1336,1366,0,0
119,-342,0,0,0,0,0,0,0,0,0,-1,1343,1366,0,0
126,-342,0,0,0,0,0,0,0,0,0,-1,1350,1366,0,0
133,-342,0,0,0,0,0,0,0,0,0,-1,1357,1366,0,0
140,-342,0,0,0,0,0,0,0,0,0,-1,1364,1366,0,0
147,-342,0,0,0,0,0,0,0,0,0,-1,1371,1366,0,0
154,-342,0,0,0,0,0,0,0,0,0,-1,1378,1366,0,0
161,-342,0,0,0,0,0,0,0,0,0,-1,1385,1366,0,0
168,-342,0,0,0,0,0,0,0,0,0,-1,1392,1366,0,0
175,-342,0,0,0,0,0,0,0,0,0,-1,1399,1366,0,0
182,-342,0,0,0,0,0,0,0,0,0,-1,1406,1366,0,0
189,-342,0,0,0,0,0,0,0,0,0,-1,1413,1366,0,0
196,-342,0,0,0,0,0,0,0,0,0,-1,1420,1366,0,0
203,-342,0,0,0,0,0,0,0,0,0,-1,1427,1366,0,0
210,-342,0,0,0,0,0,0,0,0,0,-1,1434,1366,0,0
217,-342,0,0,0,0,0,0,0,0,0,-1,1441,1366,0,0
224,-342,0,0,0,0,0,0,0,0,0,-1,1448,1366,0,0
231,-342,0,0,0,0,0,0,0,0,0,-1,1455,1366,0,0
238,-342,0,0,0,0,0,0,0,0,0,-1,1462,1366,0,0
245,-342,0,0,0,0,0,0,0,0,0,-1,1469,1366,0,0
252,-342,0,0,0,0,0,0,0,0,0,-1,1476,1366,0,0
259,-342,0,0,0,0,0,0,0,0,0,-1,1483,1366,0,0
266,-342,0,0,0,0,0,0,0,0,0,-1,1490,1366,0,0
273,-342,0,0,0,0,0,0,0,0,0,-1,1497,1366,0,0
280,-342,0,0,0,0,0,0,0,0,0,-1,1504,1366,0,0
287,-342,0,0,0,0,0,0,0,0,0,-1,1511,1366,0,0
294,-342,0,0,0,0,0,0,0,0,0,-1,1518,1366,0,0
301,-342,0,0,0,0,0,0,0,0,0,-1,1525,1366,0,0
308,-342,0,0,0,0,0,0,0,0,0,-1,1532,1366,0,0
315,-342,0,0,0,0,0,0,0,0,0,-1,1539,1366,0,0
322,-342,0,0,0,0,0,0,0,0,0,-1,1546,1366,0,0
329,-342,0,0,0,0,0,0,0,0,0,-1,1553,1366,0,0
336,-342,0,0,0,0,0,0,0,0,0,-1,1560,1366,0,0
343,-342,0,0,0,0,0,0,0,0,0,-1,1567,1366,0,0
350,-342,0,0,0,0,0,0,0,0,0,-1,1574,1366,0,0
357,-342,0,0,0,0,0,0,0,0,0,-1,1581,1366,0,0
364,-342,0,0,0,0,0,0,0,0,0,-1,1588,1366,0,0
371,-342,0,0,0,0,0,0,0,0,0,-1,1595,1366,0,0
378,-342,0,0,0,0,0,0,0,0,0,-1,1602,1366,0,0
385,-342,0,0,0,0,0,0,0,0,0,-1,1609,1366,0,0
392,-342,0,0,0,0,0,0,0,0,0,-1,1616,1366,0,0
399,-342,0,0,0,0,0,0,0,0,0,-1,1623,1366,0,0
406,-342,0,0,0,0,0,0,0,0,0,-1,1630,1366,0,0
413,-342,0,0,0,0,0,0,0,0,0,-1,1637,1366,0,0
420,-342,0,0,0,0,0,0,0,0,0,-1,1644,1366,0,0
427,-342,0,0,0,0,0,0,0,0,0,-1,1651,1366,0,0
434,-342,0,0,0,0,0,0,0,0,0,-1,1658,1366,0,0
441,-342,0,0,0,0,0,0,0,0,0,-1,1665,1366,0,0
448,-342,0,0,0,0,0,0,0,0,0,-1,1672,1366,0,0
455,-342,0,0,0,0,0,0,0,0,0,-1,1679,1366,0,0
462,-342,0,0,0,0,0,0,0,0,0,-1,1686,1366,0,0
469,-342,0,0,0,0,0,0,0,0,0,-1,1693,1366,0,0
476,-342,0,0,0,0,0,0,0,0,0,-1,1700,1366,0,0
483,-342,0,0,0,0,0,0,0,0,0,-1,1707,1366,0,0
490,-342,0,0,0,0,0,0,0,0,0,-1,1714,1366,0,0
497,-342,0,0,0,0,0,0,0,0,0,-1,1721,1366,0,0
504,-342,0,0,0,0,0,0,0,0,0,-1,1728,1366,0,0
511,-342,0,0,0,0,0,0,0,0,0,-1,1735,1366,0,0
518,-342,0,0,0,0,0,0,0,0,0,-1,1742,1366,0,0
525,-342,0,0,0,0,0,0,0,0,0,-1,1749,1366,0,0
532,-342,0,0,0,0,0,0,0,0,0,-1,1756,1366,0,0
539,-342,0,0,0,0,0,0,0,0,0,-1,1763,1366,0,0
546,-342,0,0,0,0,0,0,0,0,0,-1,1770,1366,0,0
553,-342,0,0,0,0,0,0,0,0,0,-1,1777,1366,0,0
560,-342,0,0,0,0,0,0,0,0,0,-1,1784,1366,0,0
567,-342,8.08606,2.97119,0,0,0,0,0,0,0,-1,1791,1366,8.08607,-2.97114
574,-342,7.79407,2.43164,-0.0760245,0.0371517,0.00752738,0.0376502,-0.076523,1.50467,0.0671794,0.0437738,1798,1366,7.79404,-2.43161
581,-342,7.23926,2.02771,-0.0660311,0.0387042,0.0026175,0.0387696,-0.0660965,1.54583,0.0612259,0.0425781,1805,1366,7.23923,-2.02773
588,-342,6.64355,1.63818,-0.0548428,0.0377301,-0.000363439,0.0377315,-0.0548442,-1.56687,0.0537521,0.0445928,1812,1366,6.64354,-1.63818
595,-342,6.05029,1.27759,-0.0431118,0.0355296,-0.00206303,0.0355837,-0.0431659,-1.54459,0.0455363,0.0483077,1819,1366,6.05029,-1.27757
602,-342,4.25708,1.04651,0,0,0,0,0,0,0,-1,1826,1366,4.25709,-1.04648
609,-342,4.99133,1.15137,0,0,0,0,0,0,0,-1,1833,1366,4.99135,-1.15142
616,-342,5.05347,1.15381,0,0,0,0,0,0,0,-1,1840,1366,5.05342,-1.15381
623,-342,5.27722,1.43579,0,0,0,0,0,0,0,-1,1847,1366,5.27725,-1.4358
630,-342,5.68372,1.08679,0,0,0,0,0,0,0,-1,1854,1366,5.68376,-1.08676
637,-342,5.67847,2.03589,0,0,0,0,0,0,0,-1,1861,1366,5.67844,-2.03586
644,-342,5.51392,2.00513,0.00649256,0.00950272,0.000170233,0.00951232,0.00648297,1.51448,0.0056113,0.0279494,1868,1366,5.51389,-2.00515
651,-342,5.55518,1.94421,0.00625418,0.00566647,0.00113452,0.00713229,0.00478836,0.658677,0.00419767,0.0153021,1875,1366,5.55513,-1.94426
658,-342,5.54944,1.86743,0.00493773,0.00389838,0.00116758,0.00569606,0.00314005,0.576017,0.00329438,0.0170114,1882,1366,5.54944,-1.86743
665,-342,5.57202,1.8064,0.00326423,0.00241533,0.00106979,0.0039907,0.00168887,0.596542,0.00231307,0.0144062,1889,1366,5.57196,-1.80639
672,-342,5.56311,1.76074,0.00200101,0.00131833,0.000772054,0.00250382,0.000815524,0.577255,0.00147456,0.0116056,1896,1366,5.56309,-1.76078
679,-342,5.55579,1.70728,0.0012719,0.000813291,0.000780519,0.0018561,0.00022909,0.642527,0.00116854,0.01229,1903,1366,5.55576,-1.7073
686,-342,5.56836,1.65027,0.00103316,-0.000188973,0.000589365,0.00127106,-0.000426878,0.383662,0.00101989,0.0105551,1910,1366,5.56842,-1.65025
693,-342,5.55786,1.58569,0.000951803,-0.00147021,0.000133387,0.000959127,-0.00147754,0.0548518,0.00141738,0.0113405,1917,1366,5.5579,-1.58574
700,-342,5.53662,1.52356,0.00131959,-0.00203286,-2.44669e-06,0.00131959,-0.00203286,-0.000729822,0.00195009,0.0132761,1924,1366,5.53661,-1.5235
707,-342,5.55237,1.45776,0.00204823,-0.00252599,0.00022654,0.00205942,-0.00253718,0.0493644,0.00265862,0.0130274,1931,1366,5.55239,-1.45772
714,-342,5.52551,1.35754,0.00324911,-0.00293911,0.000548101,0.00329728,-0.00298728,0.0876623,0.00362987,0.0192612,1938,1366,5.52546,-1.35757
721,-342,5.43933,1.13977,0.00490291,-0.00347414,0.000945007,0.00500819,-0.00357942,0.110951,0.00498088,0.032248,1945,1366,5.43938,-1.13978
728,-342,5.38977,0.622803,0.00698516,-0.00393619,0.00135623,0.00715106,-0.00410208,0.121718,0.00657602,0.0449635,1952,1366,5.38976,-0.622815
735,-342,5.7677,2.36218,0.00972505,-0.00413177,0.00191255,0.00998418,-0.0043909,0.134669,0.0085063,0.0451646,1959,1366,5.76775,-2.36222
742,-342,5.57959,1.56653,0.0132273,-0.0038276,0.00269254,0.0136423,-0.00424259,0.152921,0.0107907,0.0474308,1966,1366,5.57961,-1.56656
749,-342,5.48572,0.880371,0,0,0,0,0,0,0,-1,1973,1366,5.48569,-0.880392
756,-342,0,0,0,0,0,0,0,0,0,-1,1980,1366,0,0
763,-342,0,0,0,0,0,0,0,0,0,-1,1987,1366,0,0
770,-342,0,0,0,0,0,0,0,0,0,-1,1994,1366,0,0
777,-342,0,0,0,0,0,0,0,0,0,-1,2001,1366,0,0
784,-342,0,0,0,0,0,0,0,0,0,-1,2008,1366,0,0
791,-342,0,0,0,0,0,0,0,0,0,-1,2015,1366,0,0
798,-342,0,0,0,0,0,0,0,0,0,-1,2022,1366,0,0
805,-342,0,0,0,0,0,0,0,0,0,-1,2029,1366,0,0
812,-342,0,0,0,0,0,0,0,0,0,-1,2036,1366,0,0
-700,-349,0,0,0,0,0,0,0,0,0,-1,524,1373,0,0
-693,-349,0,0,0,0,0,0,0,0,0,-1,531,1373,0,0
-686,-349,0,0,0,0,0,0,0,0,0,-1,538,1373,0,0
-679,-349,0,0,0,0,0,0,0,0,0,-1,545,1373,0,0
-672,-349,0,0,0,0,0,0,0,0,0,-1,552,1373,0,0
-665,-349,0,0,0,0,0,0,0,0,0,-1,559,1373,0,0
-658,-349,0,0,0,0,0,0,0,0,0,-1,566,1373,0,0
-651,-349,0,0,0,0,0,0,0,0,0,-1,573,1373,0,0
-644,-349,0,0,0,0,0,0,0,0,0,-1,580,1373,0,0
-637,-349,0,0,0,0,0,0,0,0,0,-1,587,1373,0,0
-630,-349,-0.286682,-0.243896,0.0321353,0.0230326,0.0437683,0.0715883,-0.0164204,0.73359,0.0540371,0.0419001,594,1373,-0.286699,0.243938
-623,-349,0.000793457,-0.0380859,0.0240375,0.0295387,0.0346211,0.0615183,-0.00794204,0.825039,0.0438997,0.042003,601,1373,0.000778709,0.0380406
-616,-349,0.0343628,-0.0252686,0.0165049,0.032449,0.0276872,0.053289,-0.00433513,0.925573,0.0370557,0.04355,608,1373,0.0343607,0.0252715
-609,-349,-0.00268555,-0.441528,0.0101695,0.0325603,0.0222004,0.0462284,-0.00349863,1.01893,0.0320489,0.0392657,615,1373,-0.00268919,0.441542
-602,-349,-0.131958,-0.512085,0.00516652,0.0306796,0.01781,0.0398303,-0.00398415,1.09617,0.0279763,0.0408083,622,1373,-0.131985,0.512112
-595,-349,-0.356567,-0.072998,0.00144415,0.0274981,0.0143128,0.0338246,-0.00488237,1.1546,0.024341,0.0412524,629,1373,-0.356537,0.0729844
-588,-349,-0.507385,0.417603,-0.00107382,0.0235942,0.0115124,0.0281322,-0.00561179,1.19532,0.0208783,0.0374332,636,1373,-0.507393,-0.417576
-581,-349,-0.762268,0.920288,-0.00241574,0.0192902,0.00896295,0.0225128,-0.00563834,1.22564,0.0171988,0.0307112,643,1373,-0.762261,-0.920304
-574,-349,-0.794739,1.09595,-0.00321073,0.0157666,0.00714062,0.0181532,-0.00559739,1.24823,0.0143369,0.0153624,650,1373,-0.794749,-1.09598
-567,-349,-0.796631,1.18115,-0.0038533,0.0129792,0.00518188,0.0144465,-0.00532063,1.29485,0.011811,0.0162239,657,1373,-0.796625,-1.18113
-560,-349,-0.815063,1.22119,-0.00400618,0.00919368,0.00364858,0.010135,-0.00494755,1.31829,0.00887797,0.0208146,664,1373,-0.815054,-1.22123
-553,-349,-0.786743,1.23962,-0.00389563,0.00521936,0.00265799,0.00593782,-0.00461409,1.3068,0.0061081,0.0254665,671,1373,-0.786714,-1.23958
-546,-349,-0.767639,1.34558,-0.00288043,0.00187421,0.00118271,0.00215216,-0.00315838,1.33997,0.00308433,0.0251828,678,1373,-0.767611,-1.34556
-539,-349,-0.839172,1.45691,-0.000608223,-0.000970443,6.2966e-05,-0.00059759,-0.000981076,0.167298,0.000570903,0.0208338,685,1373,-0.839151,-1.4569
-532,-349,-0.824524,1.50696,0.000831955,-0.00390759,-0.00120653,0.00112142,-0.00419705,-0.235464,0.00323725,0.0163021,692,1373,-0.824502,-1.50694
-525,-349,-0.807251,1.55383,0.00229967,-0.00692239,-0.00231583,0.00284855,-0.00747127,-0.232718,0.00615418,0.0125548,699,1373,-0.807228,-1.55379
-518,-349,-0.789978,1.63049,0.00378375,-0.0106043,-0.00298363,0.00437793,-0.0111985,-0.196573,0.00927598,0.010775,706,1373,-0.789999,-1.6305
-511,-349,-0.74939,1.70947,0.00537879,-0.015268,-0.00300124,0.00580621,-0.0156954,-0.141462,0.0128442,0.0189076,713,1373,-0.749378,-1.70951
-504,-349,-0.665649,1.45422,0.00659506,-0.0193618,-0.00314845,0.00697149,-0.0197382,-0.118997,0.0159973,0.0376018,720,1373,-0.665629,-1.45423
-497,-349,-0.552368,1.12732,0.00710271,-0.0229519,-0.00264469,0.00733365,-0.0231828,-0.0871041,0.0183937,0.0424607,727,1373,-0.552368,-1.12729
-490,-349,-0.590759,0.896606,0.00640621,-0.0256737,-0.00178699,0.00650544,-0.025773,-0.0554755,0.0197116,0.0445321,734,1373,-0.590768,-0.896621
-483,-349,-0.501709,0.818359,0.00507564,-0.0282819,-0.000341203,0.00507913,-0.0282854,-0.0102272,0.0207582,0.0449528,741,1373,-0.501695,-0.818365
-476,-349,-0.403442,0.371704,0.00176434,-0.0290119,0.00166916,0.0018546,-0.0291022,0.0540239,0.0200483,0.047171,748,1373,-0.403454,-0.371713
-469,-349,-0.606018,-0.0123291,-0.00427148,-0.0268598,0.00419978,-0.0035159,-0.0276154,0.178005,0.0173574,0.0441386,755,1373,-0.606021,0.0123637
-462,-349,-0.534424,-0.271729,-0.0139649,-0.0206243,0.00717994,-0.00938014,-0.025209,0.568284,0.0147123,0.0435193,762,1373,-0.534394,0.271692
-455,-349,-0.379272,-0.661621,-0.0283849,-0.00911944,0.0104351,-0.00455076,-0.0329536,1.15812,0.0206202,0.0463758,769,1373,-0.379259,0.661594
-448,-349,-0.378601,-1.2074,0,0,0,0,0,0,0,-1,776,1373,-0.378612,1.20743
-441,-349,0,0,0,0,0,0,0,0,0,-1,783,1373,0,0
-434,-349,0,0,0,0,0,0,0,0,0,-1,790,1373,0,0
-427,-349,0,0,0,0,0,0,0,0,0,-1,797,1373,0,0
-420,-349,0,0,0,0,0,0,0,0,0,-1,804,1373,0,0
-413,-349,0,0,0,0,0,0,0,0,0,-1,811,1373,0,0
-406,-349,0,0,0,0,0,0,0,0,0,-1,818,1373,0,0
-399,-349,0,0,0,0,0,0,0,0,0,-1,825,1373,0,0
-392,-349,0,0,0,0,0,0,0,0,0,-1,832,1373,0,0
-385,-349,0,0,0,0,0,0,0,0,0,-1,839,1373,0,0
-378,-349,0,0,0,0,0,0,0,0,0,-1,846,1373,0,0
-371,-349,0,0,0,0,0,0,0,0,0,-1,853,1373,0,0
-364,-349,0,0,0,0,0,0,0,0,0,-1,860,1373,0,0
-357,-349,0,0,0,0,0,0,0,0,0,-1,867,1373,0,0
-350,-349,0,0,0,0,0,0,0,0,0,-1,874,1373,0,0
-343,-349,0,0,0,0,0,0,0,0,0,-1,881,1373,0,0
-336,-349,0,0,0,0,0,0,0,0,0,-1,888,1373,0,0
-329,-349,0,0,0,0,0,0,0,0,0,-1,895,1373,0,0
-322,-349,0,0,0,0,0,0,0,0,0,-1,902,1373,0,0
-315,-349,0,0,0,0,0,0,0,0,0,-1,909,1373,0,0
-308,-349,0,0,0,0,0,0,0,0,0,-1,916,1373,0,0
-301,-349,0,0,0,0,0,0,0,0,0,-1,923,1373,0,0
-294,-349,0,0,0,0,0,0,0,0,0,-1,930,1373,0,0
-287,-349,0,0,0,0,0,0,0,0,0,-1,937,1373,0,0
-280,-349,0,0,0,0,0,0,0,0,0,-1,944,1373,0,0
-273,-349,0,0,0,0,0,0,0,0,0,-1,951,1373,0,0
-266,-349,0,0,0,0,0,0,0,0,0,-1,958,1373,0,0
-259,-349,0,0,0,0,0,0,0,0,0,-1,965,1373,0,0
-252,-349,0,0,0,0,0,0,0,0,0,-1,972,1373,0,0
-245,-349,0,0,0,0,0,0,0,0,0,-1,979,1373,0,0
-238,-349,0,0,0,0,0,0,0,0,0,-1,986,1373,0,0
-231,-349,0,0,0,0,0,0,0,0,0,-1,993,1373,0,0
-224,-349,0,0,0,0,0,0,0,0,0,-1,1000,1373,0,0
-217,-349,0,0,0,0,0,0,0,0,0,-1,1007,1373,0,0
-210,-349,0,0,0,0,0,0,0,0,0,-1,1014,1373,0,0
-203,-349,0,0,0,0,0,0,0,0,0,-1,1021,1373,0,0
-196,-349,0,0,0,0,0,0,0,0,0,-1,1028,1373,0,0
-189,-349,0,0,0,0,0,0,0,0,0,-1,1035,1373,0,0
-182,-349,0,0,0,0,0,0,0,0,0,-1,1042,1373,0,0
-175,-349,0,0,0,0,0,0,0,0,0,-1,1049,1373,0,0
-168,-349,0,0,0,0,0,0,0,0,0,-1,1056,1373,0,0
-161,-349,0,0,0,0,0,0,0,0,0,-1,1063,1373,0,0
-154,-349,0,0,0,0,0,0,0,0,0,-1,1070,1373,0,0
-147,-349,0,0,0,0,0,0,0,0,0,-1,1077,1373,0,0
-140,-349,0,0,0,0,0,0,0,0,0,-1,1084,1373,0,0
-133,-349,0,0,0,0,0,0,0,0,0,-1,1091,1373,0,0
-126,-349,0,0,0,0,0,0,0,0,0,-1,1098,1373,0,0
-119,-349,0,0,0,0,0,0,0,0,0,-1,1105,1373,0,0
-112,-349,0,0,0,0,0,0,0,0,0,-1,1112,1373,0,0
-105,-349,0,0,0,0,0,0,0,0,0,-1,1119,1373,0,0
-98,-349,0,0,0,0,0,0,0,0,0,-1,1126,1373,0,0
-91,-349,0,0,0,0,0,0,0,0,0,-1,1133,1373,0,0
-84,-349,0,0,0,0,0,0,0,0,0,-1,1140,1373,0,0
-77,-349,0,0,0,0,0,0,0,0,0,-1,1147,1373,0,0
-70,-349,0,0,0,0,0,0,0,0,0,-1,1154,1373,0,0
-63,-349,0,0,0,0,0,0,0,0,0,-1,1161,1373,0,0
-56,-349,0,0,0,0,0,0,0,0,0,-1,1168,1373,0,0
-49,-349,0,0,0,0,0,0,0,0,0,-1,1175,1373,0,0
-42,-349,0,0,0,0,0,0,0,0,0,-1,1182,1373,0,0
-35,-349,0,0,0,0,0,0,0,0,0,-1,1189,1373,0,0
-28,-349,0,0,0,0,0,0,0,0,0,-1,1196,1373,0,0
-21,-349,0,0,0,0,0,0,0,0,0,-1,1203,1373,0,0
-14,-349,0,0,0,0,0,0,0,0,0,-1,1210,1373,0,0
-7,-349,0,0,0,0,0,0,0,0,0,-1,1217,1373,0,0
0,-349,0,0,0,0,0,0,0,0,0,-1,1224,1373,0,0
7,-349,0,0,0,0,0,0,0,0,0,-1,1231,1373,0,0
14,-349,0,0,0,0,0,0,0,0,0,-1,1238,1373,0,0
21,-349,0,0,0,0,0,0,0,0,0,-1,1245,1373,0,0
28,-349,0,0,0,0,0,0,0,0,0,-1,1252,1373,0,0
35,-349,0,0,0,0,0,0,0,0,0,-1,1259,1373,0,0
42,-349,0,0,0,0,0,0,0,0,0,-1,1266,1373,0,0
49,-349,0,0,0,0,0,0,0,0,0,-1,1273,1373,0,0
56,-349,0,0,0,0,0,0,0,0,0,-1,1280,1373,0,0
63,-349,0,0,0,0,0,0,0,0,0,-1,1287,1373,0,0
70,-349,0,0,0,0,0,0,0,0,0,-1,1294,1373,0,0
77,-349,0,0,0,0,0,0,0,0,0,-1,1301,1373,0,0
84,-349,0,0,0,0,0,0,0,0,0,-1,1308,1373,0,0
91,-349,0,0,0,0,0,0,0,0,0,-1,1315,1373,0,0
98,-349,0,0,0,0,0,0,0,0,0,-1,1322,1373,0,0
105,-349,0,0,0,0,0,0,0,0,0,-1,1329,1373,0,0
112,-349,0,0,0,0,0,0,0,0,0,-1,1336,1373,0,0
119,-349,0,0,0,0,0,0,0,0,0,-1,1343,1373,0,0
126,-349,0,0,0,0,0,0,0,0,0,-1,1350,1373,0,0
133,-349,0,0,0,0,0,0,0,0,0,-1,1357,1373,0,0
140,-349,0,0,0,0,0,0,0,0,0,-1,1364,1373,0,0
147,-349,0,0,0,0,0,0,0,0,0,-1,1371,1373,0,0
154,-349,0,0,0,0,0,0,0,0,0,-1,1378,1373,0,0
161,-349,0,0,0,0,0,0,0,0,0,-1,1385,1373,0,0
168,-349,0,0,0,0,0,0,0,0,0,-1,1392,1373,0,0
175,-349,0,0,0,0,0,0,0,0,0,-1,1399,1373,0,0
182,-349,0,0,0,0,0,0,0,0,0,-1,1406,1373,0,0
189,-349,0,0,0,0,0,0,0,0,0,-1,1413,1373,0,0
196,-349,0,0,0,0,0,0,0,0,0,-1,1420,1373,0,0
203,-349,0,0,0,0,0,0,0,0,0,-1,1427,1373,0,0
210,-349,0,0,0,0,0,0,0,0,0,-1,1434,1373,0,0
217,-349,0,0,0,0,0,0,0,0,0,-1,1441,1373,0,0
224,-349,0,0,0,0,0,0,0,0,0,-1,1448,1373,0,0
231,-349,0,0,0,0,0,0,0,0,0,-1,1455,1373,0,0
238,-349,0,0,0,0,0,0,0,0,0,-1,1462,1373,0,0
245,-349,0,0,0,0,0,0,0,0,0,-1,1469,1373,0,0
252,-349,0,0,0,0,0,0,0,0,0,-1,1476,1373,0,0
259,-349,0,0,0,0,0,0,0,0,0,-1,1483,1373,0,0
266,-349,0,0,0,0,0,0,0,0,0,-1,1490,1373,0,0
273,-349,0,0,0,0,0,0,0,0,0,-1,1497,1373,0,0
280,-349,0,0,0,0,0,0,0,0,0,-1,1504,1373,0,0
287,-349,0,0,0,0,0,0,0,0,0,-1,1511,1373,0,0
294,-349,0,0,0,0,0,0,0,0,0,-1,1518,1373,0,0
301,-349,0,0,0,0,0,0,0,0,0,-1,1525,1373,0,0
308,-349,0,0,0,0,0,0,0,0,0,-1,1532,1373,0,0
315,-349,0,0,0,0,0,0,0,0,0,-1,1539,1373,0,0
322,-349,0,0,0,0,0,0,0,0,0,-1,1546,1373,0,0
329,-349,0,0,0,0,0,0,0,0,0,-1,1553,1373,0,0
336,-349,0,0,0,0,0,0,0,0,0,-1,1560,1373,0,0
343,-349,0,0,0,0,0,0,0,0,0,-1,1567,1373,0,0
350,-349,0,0,0,0,0,0,0,0,0,-1,1574,1373,0,0
357,-349,0,0,0,0,0,0,0,0,0,-1,1581,1373,0,0
364,-349,0,0,0,0,0,0,0,0,0,-1,1588,1373,0,0
371,-349,0,0,0,0,0,0,0,0,0,-1,1595,1373,0,0
378,-349,0,0,0,0,0,0,0,0,0,-1,1602,1373,0,0
385,-349,0,0,0,0,0,0,0,0,0,-1,1609,1373,0,0
392,-349,0,0,0,0,0,0,0,0,0,-1,1616,1373,0,0
399,-349,0,0,0,0,0,0,0,0,0,-1,1623,1373,0,0
406,-349,0,0,0,0,0,0,0,0,0,-1,1630,1373,0,0
413,-349,0,0,0,0,0,0,0,0,0,-1,1637,1373,0,0
420,-349,0,0,0,0,0,0,0,0,0,-1,1644,1373,0,0
427,-349,0,0,0,0,0,0,0,0,0,-1,1651,1373,0,0
434,-349,0,0,0,0,0,0,0,0,0,-1,1658,1373,0,0
441,-349,0,0,0,0,0,0,0,0,0,-1,1665,1373,0,0
448,-349,0,0,0,0,0,0,0,0,0,-1,1672,1373,0,0
455,-349,0,0,0,0,0,0,0,0,0,-1,1679,1373,0,0
462,-349,0,0,0,0,0,0,0,0,0,-1,1686,1373,0,0
469,-349,0,0,0,0,0,0,0,0,0,-1,1693,1373,0,0
476,-349,0,0,0,0,0,0,0,0,0,-1,1700,1373,0,0
483,-349,0,0,0,0,0,0,0,0,0,-1,1707,1373,0,0
490,-349,0,0,0,0,0,0,0,0,0,-1,1714,1373,0,0
497,-349,0,0,0,0,0,0,0,0,0,-1,1721,1373,0,0
504,-349,0,0,0,0,0,0,0,0,0,-1,1728,1373,0,0
511,-349,0,0,0,0,0,0,0,0,0,-1,1735,1373,0,0
518,-349,0,0,0,0,0,0,0,0,0,-1,1742,1373,0,0
525,-349,0,0,0,0,0,0,0,0,0,-1,1749,1373,0,0
532,-349,0,0,0,0,0,0,0,0,0,-1,1756,1373,0,0
539,-349,0,0,0,0,0,0,0,0,0,-1,1763,1373,0,0
546,-349,0,0,0,0,0,0,0,0,0,-1,1770,1373,0,0
553,-349,0,0,0,0,0,0,0,0,0,-1,1777,1373,0,0
560,-349,6.57288,2.72571,0,0,0,0,0,0,0,-1,1784,1373,6.5729,-2.72576
567,-349,7.74084,2.58093,0,0,0,0,0,0,0,-1,1791,1373,7.74084,-2.58088
574,-349,7.58215,2.00098,0,0,0,0,0,0,0,-1,1798,1373,7.58216,-2.00093
581,-349,7.39185,1.54382,0,0,0,0,0,0,0,-1,1805,1373,7.39184,-1.54387
588,-349,6.77039,1.13599,0,0,0,0,0,0,0,-1,1812,1373,6.7704,-1.13604
595,-349,4.64075,1.33777,0,0,0,0,0,0,0,-1,1819,1373,4.64079,-1.33772
602,-349,4.53577,1.15222,0,0,0,0,0,0,0,-1,1826,1373,4.53578,-1.15226
609,-349,4.47681,1.0105,-0.0234161,0.02226,-0.000394349,0.0222634,-0.0234195,-1.56216,0.0263778,0.0466957,1833,1373,4.47678,-1.01049
616,-349,4.94507,1.12488,-0.0154692,0.0189656,-0.000541999,0.0189742,-0.0154778,-1.55506,0.019925,0.046076,1840,1373,4.94507,-1.12485
623,-349,5.23486,1.36292,-0.00579824,0.0165599,-0.000725314,0.0165834,-0.00582175,-1.5384,0.0134238,0.0441634,1847,1373,5.2349,-1.36296
630,-349,5.53931,1.84827,0.000680339,0.0120992,-0.000576716,0.0121283,0.000651285,-1.52046,0.0078774,0.0448313,1854,1373,5.53925,-1.84823
637,-349,5.62036,2.01025,0.00444389,0.00969106,0.000953427,0.00985893,0.00427602,1.39651,0.0057087,0.0386285,1861,1373,5.62032,-2.01021
644,-349,5.49133,2.0387,0.00569374,0.00637493,0.00138076,0.00745649,0.00461219,0.90632,0.00434515,0.0249166,1868,1373,5.4913,-2.03875
651,-349,5.50964,1.92285,0.00544535,0.00346799,0.00194434,0.00663794,0.0022754,0.550189,0.00389505,0.0205899,1875,1373,5.50966,-1.9228
658,-349,5.46667,1.85535,0.00431633,0.00220276,0.00166708,0.00523336,0.00128572,0.502907,0.00314907,0.0253045,1882,1373,5.46663,-1.8554
665,-349,5.50427,1.79932,0.00298245,0.00117303,0.00136354,0.00371412,0.000441362,0.492494,0.00234286,0.0192307,1889,1373,5.50421,-1.79932
672,-349,5.49182,1.76685,0.00205551,0.000367026,0.000845672,0.00240621,1.63177e-05,0.393123,0.00159873,0.0134414,1896,1373,5.49185,-1.76686
679,-349,5.48352,1.71375,0.00161106,-4.39921e-05,0.000709485,0.00187357,-0.000306497,0.354374,0.00136275,0.0131317,1903,1373,5.48349,-1.71373
686,-349,5.50989,1.64172,0.001674,-0.00107736,0.000451113,0.00174608,-0.00114944,0.158435,0.00168352,0.0122215,1910,1373,5.50983,-1.64178
693,-349,5.5144,1.58655,0.00191184,-0.0024103,-9.18241e-05,0.00191379,-0.00241225,-0.0212322,0.00250317,0.0145775,1917,1373,5.51436,-1.58654
700,-349,5.50537,1.51746,0.00255333,-0.00322561,-0.000350827,0.00257455,-0.00324683,-0.0604121,0.00336844,0.0163559,1924,1373,5.50543,-1.51751
707,-349,5.50854,1.44202,0.00359742,-0.00407265,-0.000315634,0.00361039,-0.00408561,-0.0410589,0.00444611,0.0164795,1931,1373,5.50859,-1.44198
714,-349,5.49707,1.37988,0.00507681,-0.00501493,-0.000231889,0.00508214,-0.00502025,-0.0229619,0.00583265,0.0176594,1938,1373,5.49711,-1.37985
721,-349,5.48022,1.15881,0.00692191,-0.00619531,-0.000155081,0.00692374,-0.00619715,-0.0118205,0.00757922,0.0330129,1945,1373,5.48018,-1.15887
728,-349,5.93787,3.50427,0,0,0,0,0,0,0,-1,1952,1373,5.93782,-3.50423
735,-349,5.87,2.68042,0,0,0,0,0,0,0,-1,1959,1373,5.86994,-2.68045
742,-349,5.802,1.85669,0,0,0,0,0,0,0,-1,1966,1373,5.80205,-1.85666
749,-349,5.63147,1.99341,0,0,0,0,0,0,0,-1,1973,1373,5.6315,-1.99344
756,-349,0,0,0,0,0,0,0,0,0,-1,1980,1373,0,0
763,-349,0,0,0,0,0,0,0,0,0,-1,1987,1373,0,0
770,-349,0,0,0,0,0,0,0,0,0,-1,1994,1373,0,0
777,-349,0,0,0,0,0,0,0,0,0,-1,2001,1373,0,0
784,-349,0,0,0,0,0,0,0,0,0,-1,2008,1373,0,0
791,-349,0,0,0,0,0,0,0,0,0,-1,2015,1373,0,0
798,-349,0,0,0,0,0,0,0,0,0,-1,2022,1373,0,0
805,-349,0,0,0,0,0,0,0,0,0,-1,2029,1373,0,0
812,-349,0,0,0,0,0,0,0,0,0,-1,2036,1373,0,0
-700,-356,0,0,0,0,0,0,0,0,0,-1,524,1380,0,0
-693,-356,0,0,0,0,0,0,0,0,0,-1,531,1380,0,0
-686,-356,0,0,0,0,0,0,0,0,0,-1,538,1380,0,0
-679,-356,0,0,0,0,0,0,0,0,0,-1,545,1380,0,0
-672,-356,0,0,0,0,0,0,0,0,0,-1,552,1380,0,0
-665,-356,0,0,0,0,0,0,0,0,0,-1,559,1380,0,0
-658,-356,0,0,0,0,0,0,0,0,0,-1,566,1380,0,0
-651,-356,0,0,0,0,0,0,0,0,0,-1,573,1380,0,0
-644,-356,0,0,0,0,0,0,0,0,0,-1,580,1380,0,0
-637,-356,0,0,0,0,0,0,0,0,0,-1,587,1380,0,0
-630,-356,0.197144,0.178345,0.0415314,0.0241306,0.046223,0.0798657,-0.0142037,0.692374,0.0585555,0.0409498,594,1380,0.197142,-0.178368
-623,-356,0.380676,0.307861,0.0305956,0.0327763,0.0372818,0.0689836,-0.00561174,0.800017,0.0479692,0.0432766,601,1380,0.380674,-0.307913
-616,-356,0.0344849,4.09192,0.0206377,0.0367868,0.030563,0.0603239,-0.00289942,0.914544,0.0412164,0.0483497,608,1380,0.0345084,-4.09189
-609,-356,0.79895,3.85254,0,0,0,0,0,0,0,-1,615,1380,0.798924,-3.85258
-602,-356,1.61298,3.47119,0,0,0,0,0,0,0,-1,622,1380,1.61296,-3.47125
-595,-356,-0.107483,-0.179077,0.00135495,0.0318282,0.0171944,0.0395655,-0.00638233,1.14795,0.0287416,0.0409927,629,1380,-0.107458,0.179027
-588,-356,-0.547974,-0.155151,-0.0017593,0.0274554,0.0142096,0.0332267,-0.00753057,1.185,0.0250417,0.0426075,636,1380,-0.548,0.155197
-581,-356,-0.628479,0.616577,-0.00343852,0.0226801,0.0114759,0.0270059,-0.0077643,1.21032,0.0210743,0.034329,643,1380,-0.628484,-0.616536
-574,-356,-0.704285,1.09705,-0.00435255,0.0186603,0.00942169,0.0220255,-0.00771778,1.22774,0.0178223,0.0208214,650,1380,-0.704308,-1.09702
-567,-356,-0.760559,1.177,-0.00497073,0.0154592,0.0071036,0.0176863,-0.0071979,1.26698,0.0147862,0.0154767,657,1380,-0.760557,-1.177
-560,-356,-0.747131,1.24646,-0.00496205,0.0110676,0.0052794,0.0126501,-0.0065446,1.27956,0.0112674,0.0175445,664,1380,-0.747147,-1.24643
-553,-356,-0.700806,1.26306,-0.00455501,0.00667111,0.0040178,0.00796089,-0.00584479,1.26017,0.00800186,0.0199595,671,1380,-0.700834,-1.26309
-546,-356,-0.72467,1.32434,-0.00331484,0.00305663,0.00234454,0.00382637,-0.00408458,1.25357,0.0045682,0.0204957,678,1380,-0.724671,-1.32434
-539,-356,-0.749512,1.43103,-0.000971461,0.000151536,0.00109252,0.000818398,-0.00163832,1.02277,0.00144448,0.0142701,685,1380,-0.74952,-1.43107
-532,-356,-0.743164,1.49988,0.000633142,-0.00276559,-0.000345166,0.000667842,-0.00280029,-0.100195,0.00212475,0.0143413,692,1380,-0.743183,-1.49991
-525,-356,-0.742004,1.56628,0.00217698,-0.00560935,-0.00169996,0.00253194,-0.00596431,-0.20585,0.00503698,0.0127279,699,1380,-0.741999,-1.56623
-518,-356,-0.71283,1.64734,0.00372444,-0.00891146,-0.00269796,0.00427638,-0.00946341,-0.201795,0.00811891,0.0113216,706,1380,-0.712824,-1.64736
-511,-356,-0.681702,1.72864,0.00531864,-0.0130219,-0.00306984,0.00581883,-0.0135221,-0.161517,0.0114579,0.0151437,713,1380,-0.681724,-1.72866
-504,-356,-0.653198,1.70508,0.00633582,-0.0162105,-0.00357236,0.00688831,-0.016763,-0.15344,0.0140462,0.0284138,720,1380,-0.653224,-1.70502
-497,-356,-0.702759,1.66296,0.00659333,-0.0186522,-0.0035353,0.00707905,-0.0191379,-0.136538,0.015661,0.0416755,727,1380,-0.702769,-1.66294
-490,-356,-0.893005,1.79382,0.00562101,-0.0199616,-0.00328963,0.00603725,-0.0203778,-0.125861,0.0159823,0.0482533,734,1380,-0.892979,-1.79379
-483,-356,-1.02374,1.50818,0.0040487,-0.0208847,-0.00265882,0.00432908,-0.0211651,-0.105063,0.0157526,0.0476939,741,1380,-1.02375,-1.50817
-476,-356,-0.977966,1.99756,0,0,0,0,0,0,0,-1,748,1380,-0.977961,-1.99756
-469,-356,-1.18005,0.630737,-0.00577289,-0.0151492,-0.000149665,-0.0057705,-0.0151516,-0.0159566,0.00883016,0.0478513,755,1380,-1.18008,-0.630713
-462,-356,-0.927673,0.263062,-0.0155927,-0.00639891,0.00171625,-0.00608898,-0.0159027,1.39213,0.00926497,0.0441028,762,1380,-0.927679,-0.263035
-455,-356,-0.453186,-0.251709,0,0,0,0,0,0,0,-1,769,1380,-0.453172,0.251755
-448,-356,-3.87378,4.83826,0,0,0,0,0,0,0,-1,776,1380,-3.8738,-4.83826
-441,-356,-4.49438,5.00366,0,0,0,0,0,0,0,-1,783,1380,-4.49437,-5.00363
-434,-356,0,0,0,0,0,0,0,0,0,-1,790,1380,0,0
-427,-356,0,0,0,0,0,0,0,0,0,-1,797,1380,0,0
-420,-356,0,0,0,0,0,0,0,0,0,-1,804,1380,0,0
-413,-356,0,0,0,0,0,0,0,0,0,-1,811,1380,0,0
-406,-356,0,0,0,0,0,0,0,0,0,-1,818,1380,0,0
-399,-356,0,0,0,0,0,0,0,0,0,-1,825,1380,0,0
-392,-356,0,0,0,0,0,0,0,0,0,-1,832,1380,0,0
-385,-356,0,0,0,0,0,0,0,0,0,-1,839,1380,0,0
-378,-356,0,0,0,0,0,0,0,0,0,-1,846,1380,0,0
-371,-356,0,0,0,0,0,0,0,0,0,-1,853,1380,0,0
-364,-356,0,0,0,0,0,0,0,0,0,-1,860,1380,0,0
-357,-356,0,0,0,0,0,0,0,0,0,-1,867,1380,0,0
-350,-356,0,0,0,0,0,0,0,0,0,-1,874,1380,0,0
-343,-356,0,0,0,0,0,0,0,0,0,-1,881,1380,0,0
-336,-356,0,0,0,0,0,0,0,0,0,-1,888,1380,0,0
-329,-356,0,0,0,0,0,0,0,0,0,-1,895,1380,0,0
-322,-356,0,0,0,0,0,0,0,0,0,-1,902,1380,0,0
-315,-356,0,0,0,0,0,0,0,0,0,-1,909,1380,0,0
-308,-356,0,0,0,0,0,0,0,0,0,-1,916,1380,0,0
-301,-356,0,0,0,0,0,0,0,0,0,-1,923,1380,0,0
-294,-356,0,0,0,0,0,0,0,0,0,-1,930,1380,0,0
-287,-356,0,0,0,0,0,0,0,0,0,-1,937,1380,0,0
-280,-356,0,0,0,0,0,0,0,0,0,-1,944,1380,0,0
-273,-356,0,0,0,0,0,0,0,0,0,-1,951,1380,0,0
-266,-356,0,0,0,0,0,0,0,0,0,-1,958,1380,0,0
-259,-356,0,0,0,0,0,0,0,0,0,-1,965,1380,0,0
-252,-356,0,0,0,0,0,0,0,0,0,-1,972,1380,0,0
-245,-356,0,0,0,0,0,0,0,0,0,-1,979,1380,0,0
-238,-356,0,0,0,0,0,0,0,0,0,-1,986,1380,0,0
-231,-356,0,0,0,0,0,0,0,0,0,-1,993,1380,0,0
-224,-356,0,0,0,0,0,0,0,0,0,-1,1000,1380,0,0
-217,-356,0,0,0,0,0,0,0,0,0,-1,1007,1380,0,0
-210,-356,0,0,0,0,0,0,0,0,0,-1,1014,1380,0,0
-203,-356,0,0,0,0,0,0,0,0,0,-1,1021,1380,0,0
-196,-356,0,0,0,0,0,0,0,0,0,-1,1028,1380,0,0
-189,-356,0,0,0,0,0,0,0,0,0,-1,1035,1380,0,0
-182,-356,0,0,0,0,0,0,0,0,0,-1,1042,1380,0,0
-175,-356,0,0,0,0,0,0,0,0,0,-1,1049,1380,0,0
-168,-356,0,0,0,0,0,0,0,0,0,-1,1056,1380,0,0
-161,-356,0,0,0,0,0,0,0,0,0,-1,1063,1380,0,0
-154,-356,0,0,0,0,0,0,0,0,0,-1,1070,1380,0,0
-147,-356,0,0,0,0,0,0,0,0,0,-1,1077,1380,0,0
-140,-356,0,0,0,0,0,0,0,0,0,-1,1084,1380,0,0
-133,-356,0,0,0,0,0,0,0,0,0,-1,1091,1380,0,0
-126,-356,0,0,0,0,0,0,0,0,0,-1,1098,1380,0,0
-119,-356,0,0,0,0,0,0,0,0,0,-1,1105,1380,0,0
-112,-356,0,0,0,0,0,0,0,0,0,-1,1112,1380,0,0
-105,-356,0,0,0,0,0,0,0,0,0,-1,1119,1380,0,0
-98,-356,0,0,0,0,0,0,0,0,0,-1,1126,1380,0,0
-91,-356,0,0,0,0,0,0,0,0,0,-1,1133,1380,0,0
-84,-356,0,0,0,0,0,0,0,0,0,-1,1140,1380,0,0
-77,-356,0,0,0,0,0,0,0,0,0,-1,1147,1380,0,0
-70,-356,0,0,0,0,0,0,0,0,0,-1,1154,1380,0,0
-63,-356,0,0,0,0,0,0,0,0,0,-1,1161,1380,0,0
-56,-356,0,0,0,0,0,0,0,0,0,-1,1168,1380,0,0
-49,-356,0,0,0,0,0,0,0,0,0,-1,1175,1380,0,0
-42,-356,0,0,0,0,0,0,0,0,0,-1,1182,1380,0,0
-35,-356,0,0,0,0,0,0,0,0,0,-1,1189,1380,0,0
-28,-356,0,0,0,0,0,0,0,0,0,-1,1196,1380,0,0
-21,-356,0,0,0,0,0,0,0,0,0,-1,1203,1380,0,0
-14,-356,0,0,0,0,0,0,0,0,0,-1,1210,1380,0,0
-7,-356,0,0,0,0,0,0,0,0,0,-1,1217,1380,0,0
0,-356,0,0,0,0,0,0,0,0,0,-1,1224,1380,0,0
7,-356,0,0,0,0,0,0,0,0,0,-1,1231,1380,0,0
14,-356,0,0,0,0,0,0,0,0,0,-1,1238,1380,0,0
21,-356,0,0,0,0,0,0,0,0,0,-1,1245,1380,0,0
28,-356,0,0,0,0,0,0,0,0,0,-1,1252,1380,0,0
35,-356,0,0,0,0,0,0,0,0,0,-1,1259,1380,0,0
42,-356,0,0,0,0,0,0,0,0,0,-1,1266,1380,0,0
49,-356,0,0,0,0,0,0,0,0,0,-1,1273,1380,0,0
56,-356,0,0,0,0,0,0,0,0,0,-1,1280,1380,0,0
63,-356,0,0,0,0,0,0,0,0,0,-1,1287,1380,0,0
70,-356,0,0,0,0,0,0,0,0,0,-1,1294,1380,0,0
77,-356,0,0,0,0,0,0,0,0,0,-1,1301,1380,0,0
84,-356,0,0,0,0,0,0,0,0,0,-1,1308,1380,0,0
91,-356,0,0,0,0,0,0,0,0,0,-1,1315,1380,0,0
98,-356,0,0,0,0,0,0,0,0,0,-1,1322,1380,0,0
105,-356,0,0,0,0,0,0,0,0,0,-1,1329,1380,0,0
112,-356,0,0,0,0,0,0,0,0,0,-1,1336,1380,0,0
119,-356,0,0,0,0,0,0,0,0,0,-1,1343,1380,0,0
126,-356,0,0,0,0,0,0,0,0,0,-1,1350,1380,0,0
133,-356,0,0,0,0,0,0,0,0,0,-1,1357,1380,0,0
140,-356,0,0,0,0,0,0,0,0,0,-1,1364,1380,0,0
147,-356,0,0,0,0,0,0,0,0,0,-1,1371,1380,0,0
154,-356,0,0,0,0,0,0,0,0,0,-1,1378,1380,0,0
161,-356,0,0,0,0,0,0,0,0,0,-1,1385,1380,0,0
168,-356,0,0,0,0,0,0,0,0,0,-1,1392,1380,0,0
175,-356,0,0,0,0,0,0,0,0,0,-1,1399,1380,0,0
182,-356,0,0,0,0,0,0,0,0,0,-1,1406,1380,0,0
189,-356,0,0,0,0,0,0,0,0,0,-1,1413,1380,0,0
196,-356,0,0,0,0,0,0,0,0,0,-1,1420,1380,0,0
203,-356,0,0,0,0,0,0,0,0,0,-1,1427,1380,0,0
210,-356,0,0,0,0,0,0,0,0,0,-1,1434,1380,0,0
217,-356,0,0,0,0,0,0,0,0,0,-1,1441,1380,0,0
224,-356,0,0,0,0,0,0,0,0,0,-1,1448,1380,0,0
231,-356,0,0,0,0,0,0,0,0,0,-1,1455,1380,0,0
238,-356,0,0,0,0,0,0,0,0,0,-1,1462,1380,0,0
245,-356,0,0,0,0,0,0,0,0,0,-1,1469,1380,0,0
252,-356,0,0,0,0,0,0,0,0,0,-1,1476,1380,0,0
259,-356,0,0,0,0,0,0,0,0,0,-1,1483,1380,0,0
266,-356,0,0,0,0,0,0,0,0,0,-1,1490,1380,0,0
273,-356,0,0,0,0,0,0,0,0,0,-1,1497,1380,0,0
280,-356,0,0,0,0,0,0,0,0,0,-1,1504,1380,0,0
287,-356,0,0,0,0,0,0,0,0,0,-1,1511,1380,0,0
294,-356,0,0,0,0,0,0,0,0,0,-1,1518,1380,0,0
301,-356,0,0,0,0,0,0,0,0,0,-1,1525,1380,0,0
308,-356,0,0,0,0,0,0,0,0,0,-1,1532,1380,0,0
315,-356,0,0,0,0,0,0,0,0,0,-1,1539,1380,0,0
322,-356,0,0,0,0,0,0,0,0,0,-1,1546,1380,0,0
329,-356,0,0,0,0,0,0,0,0,0,-1,1553,1380,0,0
336,-356,0,0,0,0,0,0,0,0,0,-1,1560,1380,0,0
343,-356,0,0,0,0,0,0,0,0,0,-1,1567,1380,0,0
350,-356,0,0,0,0,0,0,0,0,0,-1,1574,1380,0,0
357,-356,0,0,0,0,0,0,0,0,0,-1,1581,1380,0,0
364,-356,0,0,0,0,0,0,0,0,0,-1,1588,1380,0,0
371,-356,0,0,0,0,0,0,0,0,0,-1,1595,1380,0,0
378,-356,0,0,0,0,0,0,0,0,0,-1,1602,1380,0,0
385,-356,0,0,0,0,0,0,0,0,0,-1,1609,1380,0,0
392,-356,0,0,0,0,0,0,0,0,0,-1,1616,1380,0,0
399,-356,0,0,0,0,0,0,0,0,0,-1,1623,1380,0,0
406,-356,0,0,0,0,0,0,0,0,0,-1,1630,1380,0,0
413,-356,0,0,0,0,0,0,0,0,0,-1,1637,1380,0,0
420,-356,0,0,0,0,0,0,0,0,0,-1,1644,1380,0,0
427,-356,0,0,0,0,0,0,0,0,0,-1,1651,1380,0,0
434,-356,0,0,0,0,0,0,0,0,0,-1,1658,1380,0,0
441,-356,0,0,0,0,0,0,0,0,0,-1,1665,1380,0,0
448,-356,0,0,0,0,0,0,0,0,0,-1,1672,1380,0,0
455,-356,0,0,0,0,0,0,0,0,0,-1,1679,1380,0,0
462,-356,0,0,0,0,0,0,0,0,0,-1,1686,1380,0,0
469,-356,0,0,0,0,0,0,0,0,0,-1,1693,1380,0,0
476,-356,0,0,0,0,0,0,0,0,0,-1,1700,1380,0,0
483,-356,0,0,0,0,0,0,0,0,0,-1,1707,1380,0,0
490,-356,0,0,0,0,0,0,0,0,0,-1,1714,1380,0,0
497,-356,0,0,0,0,0,0,0,0,0,-1,1721,1380,0,0
504,-356,0,0,0,0,0,0,0,0,0,-1,1728,1380,0,0
511,-356,0,0,0,0,0,0,0,0,0,-1,1735,1380,0,0
518,-356,0,0,0,0,0,0,0,0,0,-1,1742,1380,0,0
525,-356,0,0,0,0,0,0,0,0,0,-1,1749,1380,0,0
532,-356,0,0,0,0,0,0,0,0,0,-1,1756,1380,0,0
539,-356,0,0,0,0,0,0,0,0,0,-1,1763,1380,0,0
546,-356,0,0,0,0,0,0,0,0,0,-1,1770,1380,0,0
553,-356,0,0,0,0,0,0,0,0,0,-1,1777,1380,0,0
560,-356,10.8804,0.393188,0,0,0,0,0,0,0,-1,1784,1380,10.8804,-0.393149
567,-356,10.9092,0.419922,-0.0597058,0.0287057,0.0281736,0.0369204,-0.0679204,1.28709,0.0614056,0.0465233,1791,1380,10.9092,-0.419922
574,-356,7.40515,1.6991,-0.0560475,0.0282632,0.0205039,0.0329851,-0.0607694,1.34445,0.0549158,0.0435189,1798,1380,7.40512,-1.69914
581,-356,2.89075,0.628174,-0.0499569,0.0265105,0.0150277,0.0293578,-0.0528042,1.38355,0.0480758,0.0450394,1805,1380,2.89073,-0.628188
588,-356,3.17944,-0.0712891,0,0,0,0,0,0,0,-1,1812,1380,3.17942,0.0712881
595,-356,6.93555,2.2782,0,0,0,0,0,0,0,-1,1819,1380,6.93557,-2.2782
602,-356,4.80786,1.12329,0,0,0,0,0,0,0,-1,1826,1380,4.8078,-1.12326
609,-356,4.77124,1.0332,-0.0226208,0.016681,0.00265483,0.0168595,-0.0227993,1.50365,0.0229825,0.0413793,1833,1380,4.7713,-1.03324
616,-356,4.99731,1.17139,-0.0157329,0.01395,0.00190939,0.0140723,-0.0158552,1.50682,0.0172889,0.0406017,1840,1380,4.9973,-1.17135
623,-356,5.20435,1.43872,-0.00642172,0.0122538,0.00123222,0.0123348,-0.00650267,1.50519,0.0110482,0.03879,1847,1380,5.2044,-1.4387
630,-356,5.44849,1.7865,9.49038e-05,0.00799229,0.0010454,0.00812833,-4.11361e-05,1.44139,0.00543265,0.0334078,1854,1380,5.44852,-1.78648
637,-356,5.47229,1.98499,0.00353891,0.0062995,0.00241633,0.00770199,0.00213643,1.0449,0.00459131,0.0217288,1861,1380,5.47228,-1.98503
644,-356,5.45007,2.0365,0.0045985,0.00377005,0.00256595,0.00678344,0.00158511,0.705372,0.00409743,0.0166282,1868,1380,5.45006,-2.03645
651,-356,5.45203,1.90967,0.00436098,0.00166892,0.00278027,0.00610391,-7.40199e-05,0.55996,0.00409417,0.015232,1875,1380,5.45197,-1.90965
658,-356,5.42871,1.83337,0.00345426,0.00067693,0.00226599,0.00472325,-0.000592058,0.510499,0.0033636,0.0146958,1882,1380,5.42875,-1.83339
665,-356,5.43604,1.80957,0.0025252,6.94929e-05,0.0017126,0.00340463,-0.000809936,0.474392,0.00258242,0.0142547,1889,1380,5.43598,-1.8096
672,-356,5.422,1.77588,0.00197889,-0.000484053,0.00094219,0.00229798,-0.000803143,0.326545,0.00185848,0.0144251,1896,1380,5.422,-1.77585
679,-356,5.43933,1.70435,0.00186479,-0.000826122,0.000596043,0.0019909,-0.000952236,0.208511,0.00173414,0.0156662,1903,1380,5.43935,-1.70435
686,-356,5.44153,1.63708,0.00227673,-0.00187175,0.000184553,0.00228492,-0.00187994,0.0443702,0.00240837,0.0150114,1910,1380,5.44152,-1.63712
693,-356,5.4696,1.57397,0.00290786,-0.00321595,-0.000521894,0.00295202,-0.00326011,-0.0844124,0.00358805,0.0133843,1917,1380,5.46961,-1.57399
700,-356,5.46667,1.50183,0.00391831,-0.0042465,-0.00100247,0.00403959,-0.00436778,-0.120397,0.00485523,0.0168318,1924,1380,5.46673,-1.50178
707,-356,5.45361,1.40625,0.00538195,-0.00550965,-0.0012758,0.0055294,-0.0056571,-0.115061,0.00645866,0.0214602,1931,1380,5.45358,-1.40624
714,-356,5.3739,1.31616,0.00726115,-0.00703154,-0.0015133,0.00741962,-0.00719001,-0.104338,0.00843522,0.0318602,1938,1380,5.37385,-1.31622
721,-356,5.37439,1.22827,0.0094429,-0.00893913,-0.00186716,0.00963064,-0.00912687,-0.100212,0.010831,0.0411272,1945,1380,5.37444,-1.22822
728,-356,5.50378,1.27087,0.0120297,-0.0111119,-0.00225137,0.0122467,-0.0113289,-0.096086,0.0136148,0.0451786,1952,1380,5.50384,-1.27082
735,-356,5.87646,3.01538,0,0,0,0,0,0,0,-1,1959,1380,5.8765,-3.01535
742,-356,4.87683,1.89954,0,0,0,0,0,0,0,-1,1966,1380,4.87679,-1.89952
749,-356,5.70959,1.4187,0,0,0,0,0,0,0,-1,1973,1380,5.70964,-1.41866
756,-356,0,0,0,0,0,0,0,0,0,-1,1980,1380,0,0
763,-356,0,0,0,0,0,0,0,0,0,-1,1987,1380,0,0
770,-356,0,0,0,0,0,0,0,0,0,-1,1994,1380,0,0
777,-356,0,0,0,0,0,0,0,0,0,-1,2001,1380,0,0
784,-356,0,0,0,0,0,0,0,0,0,-1,2008,1380,0,0
791,-356,0,0,0,0,0,0,0,0,0,-1,2015,1380,0,0
798,-356,0,0,0,0,0,0,0,0,0,-1,2022,1380,0,0
805,-356,0,0,0,0,0,0,0,0,0,-1,2029,1380,0,0
812,-356,0,0,0,0,0,0,0,0,0,-1,2036,1380,0,0
-700,-363,0,0,0,0,0,0,0,0,0,-1,524,1387,0,0
-693,-363,0,0,0,0,0,0,0,0,0,-1,531,1387,0,0
-686,-363,0,0,0,0,0,0,0,0,0,-1,538,1387,0,0
-679,-363,0,0,0,0,0,0,0,0,0,-1,545,1387,0,0
-672,-363,0,0,0,0,0,0,0,0,0,-1,552,1387,0,0
-665,-363,0,0,0,0,0,0,0,0,0,-1,559,1387,0,0
-658,-363,0,0,0,0,0,0,0,0,0,-1,566,1387,0,0
-651,-363,0,0,0,0,0,0,0,0,0,-1,573,1387,0,0
-644,-363,0,0,0,0,0,0,0,0,0,-1,580,1387,0,0
-637,-363,0,0,0,0,0,0,0,0,0,-1,587,1387,0,0
-630,-363,0,0,0,0,0,0,0,0,0,-1,594,1387,0,0
-623,-363,-1.22021,2.1875,0.0347695,0.038069,0.0403779,0.0768308,-0.00399229,0.805816,0.0526018,0.0454938,601,1387,-1.22023,-2.18751
-616,-363,-0.475464,2.11768,0.0226303,0.0427803,0.0339753,0.0681429,-0.00273228,0.929537,0.0463662,0.0463447,608,1387,-0.475461,-2.11766
-609,-363,0.350769,2.05798,0.0128019,0.0432601,0.0287772,0.0605895,-0.00452738,1.02877,0.0419835,0.0449574,615,1387,0.350772,-2.05795
-602,-363,0.943176,2.10339,0.00539907,0.0408575,0.0243959,0.053286,-0.00702939,1.09962,0.038084,0.0493832,622,1387,0.943197,-2.10344
-595,-363,-0.38031,-0.913208,0.000145989,0.0366701,0.0206603,0.0459825,-0.00916645,1.14733,0.0341234,0.0454564,629,1387,-0.380324,0.913186
-588,-363,-0.673035,-0.479126,-0.00323431,0.0315646,0.017432,0.0387947,-0.0104644,1.17763,0.0299666,0.043223,636,1387,-0.67301,0.479144
-581,-363,-0.58667,0.345093,-0.00497637,0.0261245,0.01444,0.0317951,-0.0106469,1.1966,0.0254977,0.0342535,643,1387,-0.58665,-0.345105
-574,-363,-0.629456,1.09998,-0.00576946,0.0214546,0.0120606,0.026029,-0.0103438,1.20828,0.0216409,0.0263299,650,1387,-0.629435,-1.10003
-567,-363,-0.690613,1.18726,-0.00615806,0.0177272,0.00933232,0.020941,-0.00937191,1.23914,0.017921,0.0163125,657,1387,-0.690599,-1.1872
-560,-363,-0.682983,1.22595,-0.00586306,0.0127016,0.00716086,0.0151427,-0.00830418,1.24225,0.0137277,0.0126177,664,1387,-0.68296,-1.22593
-553,-363,-0.668091,1.2771,-0.00510846,0.0079228,0.0055517,0.00996724,-0.0071529,1.21795,0.00992873,0.0127271,671,1387,-0.668074,-1.27712
-546,-363,-0.672729,1.3396,-0.00364718,0.0040709,0.00362532,0.00550668,-0.00508296,1.19371,0.00611557,0.0123943,678,1387,-0.67276,-1.33961
-539,-363,-0.650024,1.41211,-0.00122767,0.00118746,0.00216537,0.00245921,-0.00249943,1.03976,0.0028629,0.0138447,685,1387,-0.649998,-1.41207
-532,-363,-0.659302,1.50403,0.000527239,-0.00159679,0.00053045,0.000652344,-0.00172189,0.231614,0.00141637,0.0124923,692,1387,-0.65931,-1.50399
-525,-363,-0.658325,1.57166,0.00213479,-0.00417345,-0.00107812,0.00231396,-0.00435262,-0.164681,0.00390848,0.0108059,699,1387,-0.658295,-1.57167
-518,-363,-0.650574,1.63635,0.00370616,-0.00705328,-0.00239976,0.00421712,-0.00756425,-0.209792,0.00689288,0.0089665,706,1387,-0.65059,-1.6364
-511,-363,-0.645996,1.70715,0.00525346,-0.0105604,-0.00311944,0.00584656,-0.0111535,-0.187887,0.00997311,0.012634,713,1387,-0.645972,-1.70717
-504,-363,-0.617859,1.75757,0.00604827,-0.0128779,-0.00395708,0.00684231,-0.0136719,-0.198031,0.0120607,0.0202657,720,1387,-0.617875,-1.75761
-497,-363,-0.650696,1.7439,0.00610005,-0.0143061,-0.00434993,0.00698862,-0.0151947,-0.201501,0.0130964,0.03456,727,1387,-0.650711,-1.74395
-490,-363,-0.848145,1.8999,0.00495205,-0.0144557,-0.0046235,0.00599722,-0.0155008,-0.222319,0.0128098,0.0440121,734,1387,-0.848174,-1.89994
-483,-363,-0.950989,1.94946,0.00325298,-0.0140439,-0.00466,0.00442855,-0.0152195,-0.247111,0.0119004,0.0449429,741,1387,-0.951002,-1.94948
-476,-363,-0.941284,1.88171,-0.000388567,-0.0112892,-0.00436898,0.00114638,-0.0128242,-0.337858,0.00895606,0.0436332,748,1387,-0.941259,-1.88174
-469,-363,-0.902893,1.92834,0,0,0,0,0,0,0,-1,755,1387,-0.902879,-1.92838
-462,-363,-2.14117,2.18469,0,0,0,0,0,0,0,-1,762,1387,-2.14116,-2.18473
-455,-363,-3.07532,2.80286,0,0,0,0,0,0,0,-1,769,1387,-3.07533,-2.80283
-448,-363,-3.25012,4.22791,-0.0502478,0.0431616,0.000947792,0.0431713,-0.0502574,1.56065,0.0539927,0.045698,776,1387,-3.25015,-4.22794
-441,-363,-4.18085,4.67749,-0.0746832,0.0709845,0.00279114,0.071038,-0.0747367,1.55164,0.0841721,0.0454482,783,1387,-4.18083,-4.67749
-434,-363,-5.27136,5.3252,0,0,0,0,0,0,0,-1,790,1387,-5.27139,-5.32519
-427,-363,0,0,0,0,0,0,0,0,0,-1,797,1387,0,0
-420,-363,0,0,0,0,0,0,0,0,0,-1,804,1387,0,0
-413,-363,0,0,0,0,0,0,0,0,0,-1,811,1387,0,0
-406,-363,0,0,0,0,0,0,0,0,0,-1,818,1387,0,0
-399,-363,0,0,0,0,0,0,0,0,0,-1,825,1387,0,0
-392,-363,0,0,0,0,0,0,0,0,0,-1,832,1387,0,0
-385,-363,0,0,0,0,0,0,0,0,0,-1,839,1387,0,0
-378,-363,0,0,0,0,0,0,0,0,0,-1,846,1387,0,0
-371,-363,0,0,0,0,0,0,0,0,0,-1,853,1387,0,0
-364,-363,0,0,0,0,0,0,0,0,0,-1,860,1387,0,0
-357,-363,0,0,0,0,0,0,0,0,0,-1,867,1387,0,0
-350,-363,0,0,0,0,0,0,0,0,0,-1,874,1387,0,0
-343,-363,0,0,0,0,0,0,0,0,0,-1,881,1387,0,0
-336,-363,0,0,0,0,0,0,0,0,0,-1,888,1387,0,0
-329,-363,0,0,0,0,0,0,0,0,0,-1,895,1387,0,0
-322,-363,0,0,0,0,0,0,0,0,0,-1,902,1387,0,0
-315,-363,0,0,0,0,0,0,0,0,0,-1,909,1387,0,0
-308,-363,0,0,0,0,0,0,0,0,0,-1,916,1387,0,0
-301,-363,0,0,0,0,0,0,0,0,0,-1,923,1387,0,0
-294,-363,0,0,0,0,0,0,0,0,0,-1,930,1387,0,0
-287,-363,0,0,0,0,0,0,0,0,0,-1,937,1387,0,0
-280,-363,0,0,0,0,0,0,0,0,0,-1,944,1387,0,0
-273,-363,0,0,0,0,0,0,0,0,0,-1,951,1387,0,0
-266,-363,0,0,0,0,0,0,0,0,0,-1,958,1387,0,0
-259,-363,0,0,0,0,0,0,0,0,0,-1,965,1387,0,0
-252,-363,0,0,0,0,0,0,0,0,0,-1,972,1387,0,0
-245,-363,0,0,0,0,0,0,0,0,0,-1,979,1387,0,0
-238,-363,0,0,0,0,0,0,0,0,0,-1,986,1387,0,0
-231,-363,0,0,0,0,0,0,0,0,0,-1,993,1387,0,0
-224,-363,0,0,0,0,0,0,0,0,0,-1,1000,1387,0,0
-217,-363,0,0,0,0,0,0,0,0,0,-1,1007,1387,0,0
-210,-363,0,0,0,0,0,0,0,0,0,-1,1014,1387,0,0
-203,-363,0,0,0,0,0,0,0,0,0,-1,1021,1387,0,0
-196,-363,0,0,0,0,0,0,0,0,0,-1,1028,1387,0,0
-189,-363,0,0,0,0,0,0,0,0,0,-1,1035,1387,0,0
-182,-363,0,0,0,0,0,0,0,0,0,-1,1042,1387,0,0
-175,-363,0,0,0,0,0,0,0,0,0,-1,1049,1387,0,0
-168,-363,0,0,0,0,0,0,0,0,0,-1,1056,1387,0,0
-161,-363,0,0,0,0,0,0,0,0,0,-1,1063,1387,0,0
-154,-363,0,0,0,0,0,0,0,0,0,-1,1070,1387,0,0
-147,-363,0,0,0,0,0,0,0,0,0,-1,1077,1387,0,0
-140,-363,0,0,0,0,0,0,0,0,0,-1,1084,1387,0,0
-133,-363,0,0,0,0,0,0,0,0,0,-1,1091,1387,0,0
-126,-363,0,0,0,0,0,0,0,0,0,-1,1098,1387,0,0
-119,-363,0,0,0,0,0,0,0,0,0,-1,1105,1387,0,0
-112,-363,0,0,0,0,0,0,0,0,0,-1,1112,1387,0,0
-105,-363,0,0,0,0,0,0,0,0,0,-1,1119,1387,0,0
-98,-363,0,0,0,0,0,0,0,0,0,-1,1126,1387,0,0
-91,-363,0,0,0,0,0,0,0,0,0,-1,1133,1387,0,0
-84,-363,0,0,0,0,0,0,0,0,0,-1,1140,1387,0,0
-77,-363,0,0,0,0,0,0,0,0,0,-1,1147,1387,0,0
-70,-363,0,0,0,0,0,0,0,0,0,-1,1154,1387,0,0
-63,-363,0,0,0,0,0,0,0,0,0,-1,1161,1387,0,0
-56,-363,0,0,0,0,0,0,0,0,0,-1,1168,1387,0,0
-49,-363,0,0,0,0,0,0,0,0,0,-1,1175,1387,0,0
-42,-363,0,0,0,0,0,0,0,0,0,-1,1182,1387,0,0
-35,-363,0,0,0,0,0,0,0,0,0,-1,1189,1387,0,0
-28,-363,0,0,0,0,0,0,0,0,0,-1,1196,1387,0,0
-21,-363,0,0,0,0,0,0,0,0,0,-1,1203,1387,0,0
-14,-363,0,0,0,0,0,0,0,0,0,-1,1210,1387,0,0
-7,-363,0,0,0,0,0,0,0,0,0,-1,1217,1387,0,0
0,-363,0,0,0,0,0,0,0,0,0,-1,1224,1387,0,0
7,-363,0,0,0,0,0,0,0,0,0,-1,1231,1387,0,0
14,-363,0,0,0,0,0,0,0,0,0,-1,1238,1387,0,0
21,-363,0,0,0,0,0,0,0,0,0,-1,1245,1387,0,0
28,-363,0,0,0,0,0,0,0,0,0,-1,1252,1387,0,0
35,-363,0,0,0,0,0,0,0,0,0,-1,1259,1387,0,0
42,-363,0,0,0,0,0,0,0,0,0,-1,1266,1387,0,0
49,-363,0,0,0,0,0,0,0,0,0,-1,1273,1387,0,0
56,-363,0,0,0,0,0,0,0,0,0,-1,1280,1387,0,0
63,-363,0,0,0,0,0,0,0,0,0,-1,1287,1387,0,0
70,-363,0,0,0,0,0,0,0,0,0,-1,1294,1387,0,0
77,-363,0,0,0,0,0,0,0,0,0,-1,1301,1387,0,0
84,-363,0,0,0,0,0,0,0,0,0,-1,1308,1387,0,0
91,-363,0,0,0,0,0,0,0,0,0,-1,1315,1387,0,0
98,-363,0,0,0,0,0,0,0,0,0,-1,1322,1387,0,0
105,-363,0,0,0,0,0,0,0,0,0,-1,1329,1387,0,0
112,-363,0,0,0,0,0,0,0,0,0,-1,1336,1387,0,0
119,-363,0,0,0,0,0,0,0,0,0,-1,1343,1387,0,0
126,-363,0,0,0,0,0,0,0,0,0,-1,1350,1387,0,0
133,-363,0,0,0,0,0,0,0,0,0,-1,1357,1387,0,0
140,-363,0,0,0,0,0,0,0,0,0,-1,1364,1387,0,0
147,-363,0,0,0,0,0,0,0,0,0,-1,1371,1387,0,0
154,-363,0,0,0,0,0,0,0,0,0,-1,1378,1387,0,0
161,-363,0,0,0,0,0,0,0,0,0,-1,1385,1387,0,0
168,-363,0,0,0,0,0,0,0,0,0,-1,1392,1387,0,0
175,-363,0,0,0,0,0,0,0,0,0,-1,1399,1387,0,0
182,-363,0,0,0,0,0,0,0,0,0,-1,1406,1387,0,0
189,-363,0,0,0,0,0,0,0,0,0,-1,1413,1387,0,0
196,-363,0,0,0,0,0,0,0,0,0,-1,1420,1387,0,0
203,-363,0,0,0,0,0,0,0,0,0,-1,1427,1387,0,0
210,-363,0,0,0,0,0,0,0,0,0,-1,1434,1387,0,0
217,-363,0,0,0,0,0,0,0,0,0,-1,1441,1387,0,0
224,-363,0,0,0,0,0,0,0,0,0,-1,1448,1387,0,0
231,-363,0,0,0,0,0,0,0,0,0,-1,1455,1387,0,0
238,-363,0,0,0,0,0,0,0,0,0,-1,1462,1387,0,0
245,-363,0,0,0,0,0,0,0,0,0,-1,1469,1387,0,0
252,-363,0,0,0,0,0,0,0,0,0,-1,1476,1387,0,0
259,-363,0,0,0,0,0,0,0,0,0,-1,1483,1387,0,0
266,-363,0,0,0,0,0,0,0,0,0,-1,1490,1387,0,0
273,-363,0,0,0,0,0,0,0,0,0,-1,1497,1387,0,0
280,-363,0,0,0,0,0,0,0,0,0,-1,1504,1387,0,0
287,-363,0,0,0,0,0,0,0,0,0,-1,1511,1387,0,0
294,-363,0,0,0,0,0,0,0,0,0,-1,1518,1387,0,0
301,-363,0,0,0,0,0,0,0,0,0,-1,1525,1387,0,0
308,-363,0,0,0,0,0,0,0,0,0,-1,1532,1387,0,0
315,-363,0,0,0,0,0,0,0,0,0,-1,1539,1387,0,0
322,-363,0,0,0,0,0,0,0,0,0,-1,1546,1387,0,0
329,-363,0,0,0,0,0,0,0,0,0,-1,1553,1387,0,0
336,-363,0,0,0,0,0,0,0,0,0,-1,1560,1387,0,0
343,-363,0,0,0,0,0,0,0,0,0,-1,1567,1387,0,0
350,-363,0,0,0,0,0,0,0,0,0,-1,1574,1387,0,0
357,-363,0,0,0,0,0,0,0,0,0,-1,1581,1387,0,0
364,-363,0,0,0,0,0,0,0,0,0,-1,1588,1387,0,0
371,-363,0,0,0,0,0,0,0,0,0,-1,1595,1387,0,0
378,-363,0,0,0,0,0,0,0,0,0,-1,1602,1387,0,0
385,-363,0,0,0,0,0,0,0,0,0,-1,1609,1387,0,0
392,-363,0,0,0,0,0,0,0,0,0,-1,1616,1387,0,0
399,-363,0,0,0,0,0,0,0,0,0,-1,1623,1387,0,0
406,-363,0,0,0,0,0,0,0,0,0,-1,1630,1387,0,0
413,-363,0,0,0,0,0,0,0,0,0,-1,1637,1387,0,0
420,-363,0,0,0,0,0,0,0,0,0,-1,1644,1387,0,0
427,-363,0,0,0,0,0,0,0,0,0,-1,1651,1387,0,0
434,-363,0,0,0,0,0,0,0,0,0,-1,1658,1387,0,0
441,-363,0,0,0,0,0,0,0,0,0,-1,1665,1387,0,0
448,-363,0,0,0,0,0,0,0,0,0,-1,1672,1387,0,0
455,-363,0,0,0,0,0,0,0,0,0,-1,1679,1387,0,0
462,-363,0,0,0,0,0,0,0,0,0,-1,1686,1387,0,0
469,-363,0,0,0,0,0,0,0,0,0,-1,1693,1387,0,0
476,-363,0,0,0,0,0,0,0,0,0,-1,1700,1387,0,0
483,-363,0,0,0,0,0,0,0,0,0,-1,1707,1387,0,0
490,-363,0,0,0,0,0,0,0,0,0,-1,1714,1387,0,0
497,-363,0,0,0,0,0,0,0,0,0,-1,1721,1387,0,0
504,-363,0,0,0,0,0,0,0,0,0,-1,1728,1387,0,0
511,-363,0,0,0,0,0,0,0,0,0,-1,1735,1387,0,0
518,-363,0,0,0,0,0,0,0,0,0,-1,1742,1387,0,0
525,-363,0,0,0,0,0,0,0,0,0,-1,1749,1387,0,0
532,-363,0,0,0,0,0,0,0,0,0,-1,1756,1387,0,0
539,-363,0,0,0,0,0,0,0,0,0,-1,1763,1387,0,0
546,-363,0,0,0,0,0,0,0,0,0,-1,1770,1387,0,0
553,-363,8.66382,1.08984,0,0,0,0,0,0,0,-1,1777,1387,8.66379,-1.0898
560,-363,8.83875,1.89929,0,0,0,0,0,0,0,-1,1784,1387,8.83876,-1.89929
567,-363,10.0872,0.935791,-0.0472909,0.0221678,0.0337887,0.0358925,-0.0610157,1.18496,0.0565732,0.0443994,1791,1387,10.0872,-0.935753
574,-363,2.74341,1.38489,-0.0455855,0.0206448,0.0261994,0.0297555,-0.0546962,1.23613,0.0494619,0.045025,1798,1387,2.74335,-1.38493
581,-363,3.31812,0.910034,-0.0416769,0.018694,0.0203802,0.0249299,-0.0479128,1.27386,0.0427478,0.0431854,1805,1387,3.31815,-0.910045
588,-363,4.0199,0.407959,0,0,0,0,0,0,0,-1,1812,1387,4.01987,-0.407941
595,-363,5.24243,-0.0819092,0,0,0,0,0,0,0,-1,1819,1387,5.24241,0.0818624
602,-363,5.44946,0.633789,-0.0260658,0.0125268,0.00832565,0.0142463,-0.0277853,1.36713,0.024683,0.0487587,1826,1387,5.44945,-0.633831
609,-363,4.96204,0.993286,-0.0212016,0.0104771,0.00553879,0.0114176,-0.0221421,1.4026,0.0197028,0.044651,1833,1387,4.96202,-0.993287
616,-363,5.02747,1.1134,-0.0154363,0.00841962,0.00419376,0.00913539,-0.0161521,1.40175,0.0147859,0.045604,1840,1387,5.02747,-1.11341
623,-363,5.12402,1.61536,-0.0067821,0.00743471,0.00313533,0.00809546,-0.00744284,1.36309,0.00897368,0.0419985,1847,1387,5.12401,-1.61531
630,-363,5.32861,1.93933,-0.000490673,0.00368786,0.00260918,0.00494117,-0.00174399,1.12299,0.00400411,0.0268185,1854,1387,5.3286,-1.93927
637,-363,5.33521,2.04211,0.00258509,0.00280749,0.00368984,0.0063878,-0.000995222,0.800462,0.0046261,0.0151281,1861,1387,5.33521,-2.04209
644,-363,5.38281,2.00037,0.00354835,0.00119014,0.00349375,0.00605659,-0.00131811,0.622655,0.00454131,0.0110303,1868,1387,5.38281,-2.00036
651,-363,5.39893,1.90588,0.00338312,-8.48435e-05,0.00333819,0.00541081,-0.00211254,0.54586,0.00448059,0.010282,1875,1387,5.39889,-1.9059
658,-363,5.39917,1.82654,0.00287409,-0.000592291,0.00249315,0.00417731,-0.00189551,0.481656,0.00358769,0.0112188,1882,1387,5.39911,-1.82659
665,-363,5.38159,1.80786,0.00255454,-0.000829861,0.00161552,0.00320188,-0.0014772,0.381111,0.00276197,0.0113049,1889,1387,5.38156,-1.80785
672,-363,5.37622,1.77649,0.00253312,-0.00116565,0.000566399,0.00261791,-0.00125044,0.148597,0.00227943,0.0126764,1896,1387,5.37628,-1.7765
679,-363,5.40112,1.70691,0.00297493,-0.00145944,-8.25618e-05,0.00297647,-0.00146098,-0.01861,0.00261129,0.014129,1903,1387,5.40114,-1.70695
686,-363,5.40125,1.63171,0.00402515,-0.00247967,-0.000746809,0.00410979,-0.00256431,-0.112852,0.00388758,0.0145058,1910,1387,5.40126,-1.63167
693,-363,5.40137,1.55652,0.00542473,-0.00378867,-0.00175098,0.00574628,-0.00411022,-0.181615,0.00571672,0.0133594,1917,1387,5.40141,-1.55655
700,-363,5.39502,1.47119,0.00726704,-0.00510926,-0.00260085,0.00779139,-0.0056336,-0.198939,0.00778422,0.0147618,1924,1387,5.39497,-1.47117
707,-363,5.35437,1.38062,0.00963017,-0.00684131,-0.00334641,0.0102841,-0.00749522,-0.192975,0.0103069,0.0221204,1931,1387,5.35442,-1.38056
714,-363,5.29529,1.30615,0.0124123,-0.00899496,-0.00415121,0.0131891,-0.00977176,-0.184987,0.0133053,0.0397783,1938,1387,5.29533,-1.30616
721,-363,5.34692,1.23669,0.0155163,-0.0117443,-0.00504063,0.0164185,-0.0126465,-0.177106,0.0168277,0.0477866,1945,1387,5.34692,-1.23665
728,-363,5.48694,1.43628,0.018915,-0.015115,-0.00596848,0.0199314,-0.0161314,-0.168684,0.0208594,0.0470358,1952,1387,5.48698,-1.43625
735,-363,5.49353,1.71545,0.0225003,-0.0191716,-0.00694934,0.0236287,-0.0203,-0.160962,0.0253865,0.046352,1959,1387,5.49351,-1.71549
742,-363,5.48975,1.84521,0,0,0,0,0,0,0,-1,1966,1387,5.48969,-1.84521
749,-363,0,0,0,0,0,0,0,0,0,-1,1973,1387,0,0
756,-363,0,0,0,0,0,0,0,0,0,-1,1980,1387,0,0
763,-363,0,0,0,0,0,0,0,0,0,-1,1987,1387,0,0
770,-363,0,0,0,0,0,0,0,0,0,-1,1994,1387,0,0
777,-363,0,0,0,0,0,0,0,0,0,-1,2001,1387,0,0
784,-363,0,0,0,0,0,0,0,0,0,-1,2008,1387,0,0
791,-363,0,0,0,0,0,0,0,0,0,-1,2015,1387,0,0
798,-363,0,0,0,0,0,0,0,0,0,-1,2022,1387,0,0
805,-363,0,0,0,0,0,0,0,0,0,-1,2029,1387,0,0
812,-363,0,0,0,0,0,0,0,0,0,-1,2036,1387,0,0
-700,-370,0,0,0,0,0,0,0,0,0,-1,524,1394,0,0
-693,-370,0,0,0,0,0,0,0,0,0,-1,531,1394,0,0
-686,-370,0,0,0,0,0,0,0,0,0,-1,538,1394,0,0
-679,-370,0,0,0,0,0,0,0,0,0,-1,545,1394,0,0
-672,-370,0,0,0,0,0,0,0,0,0,-1,552,1394,0,0
-665,-370,0,0,0,0,0,0,0,0,0,-1,559,1394,0,0
-658,-370,0,0,0,0,0,0,0,0,0,-1,566,1394,0,0
-651,-370,0,0,0,0,0,0,0,0,0,-1,573,1394,0,0
-644,-370,0,0,0,0,0,0,0,0,0,-1,580,1394,0,0
-637,-370,0,0,0,0,0,0,0,0,0,-1,587,1394,0,0
-630,-370,0,0,0,0,0,0,0,0,0,-1,594,1394,0,0
-623,-370,-1.76453,0.463989,0,0,0,0,0,0,0,-1,601,1394,-1.76452,-0.464004
-616,-370,-0.458496,0.83728,0.0210615,0.0494796,0.0385457,0.0763518,-0.00581067,0.961985,0.0529445,0.040967,608,1394,-0.458508,-0.837273
-609,-370,-0.525452,0.150513,0.0103652,0.0492506,0.033483,0.0685264,-0.00891063,1.04844,0.0489257,0.0408542,615,1394,-0.525465,-0.150527
-602,-370,0.238403,1.02502,0.00259188,0.045961,0.0290719,0.0605448,-0.0119919,1.10583,0.0448975,0.0438506,622,1394,0.238425,-1.02503
-595,-370,0.599243,1.29846,-0.00267809,0.0408835,0.0251439,0.0523686,-0.0141632,1.14232,0.0404682,0.044461,629,1394,0.599231,-1.29847
-588,-370,-0.711609,-0.690308,-0.00585852,0.0349845,0.0215852,0.0442776,-0.0151517,1.16425,0.0356586,0.0483677,636,1394,-0.711609,0.690263
-581,-370,-0.423096,0.446533,-0.0072869,0.0288855,0.0182033,0.0364599,-0.0148614,1.17648,0.0304925,0.0409255,643,1394,-0.423109,-0.446524
-574,-370,-0.548889,1.07178,-0.00767027,0.023624,0.0153596,0.0299029,-0.0139492,1.18273,0.0258705,0.0339726,650,1394,-0.548868,-1.07172
-567,-370,-0.614624,1.19727,-0.00759785,0.0194125,0.0121463,0.0240711,-0.0122564,1.20456,0.0213402,0.0195262,657,1394,-0.614608,-1.19721
-560,-370,-0.617737,1.21057,-0.00690009,0.0139396,0.00955292,0.0176559,-0.0106164,1.19979,0.0164908,0.013223,664,1394,-0.617757,-1.21062
-553,-370,-0.622864,1.27039,-0.00574783,0.00893678,0.00746389,0.0120644,-0.00887544,1.17399,0.0121363,0.00995297,671,1394,-0.622836,-1.27034
-546,-370,-0.596985,1.34302,-0.00400507,0.00500681,0.00514855,0.00734273,-0.00634099,1.14487,0.00790735,0.012981,678,1394,-0.597007,-1.34303
-539,-370,-0.562805,1.44531,-0.00148903,0.00216753,0.00334116,0.00414792,-0.00346942,1.03574,0.00440368,0.0166308,685,1394,-0.562806,-1.44526
-532,-370,-0.599182,1.521,0.000441892,-0.000430692,0.00140759,0.00147926,-0.00146806,0.635115,0.00170164,0.0193906,692,1394,-0.599157,-1.52099
-525,-370,-0.591125,1.56506,0.00213295,-0.00267071,-0.000535644,0.00219195,-0.00272972,-0.109712,0.00284718,0.0136211,699,1394,-0.59112,-1.56508
-518,-370,-0.583801,1.61096,0.00374253,-0.00508792,-0.00224771,0.00428174,-0.00562713,-0.235443,0.00573844,0.010068,706,1394,-0.58382,-1.61096
-511,-370,-0.603333,1.69238,0.00523918,-0.00798919,-0.00333198,0.00603104,-0.00878105,-0.233327,0.00860075,0.0137907,713,1394,-0.603324,-1.69236
-504,-370,-0.596069,1.77942,0.00582388,-0.0094993,-0.00450054,0.00704794,-0.0107234,-0.265558,0.0103332,0.0179218,720,1394,-0.596068,-1.77938
-497,-370,-0.531433,1.81995,0.0056871,-0.0100485,-0.00528462,0.00729715,-0.0116585,-0.295732,0.0110402,0.0252309,727,1394,-0.531459,-1.81989
-490,-370,-0.737488,1.901,0.00443296,-0.00931467,-0.00598612,0.00667413,-0.0115558,-0.35824,0.0106501,0.0364155,734,1394,-0.737481,-1.90105
-483,-370,-0.858032,1.7229,0.00275882,-0.00797749,-0.00656561,0.00587149,-0.0110902,-0.442703,0.00994611,0.042731,741,1394,-0.858054,-1.72285
-476,-370,-0.74823,1.56323,-0.000796943,-0.00438468,-0.00688588,0.0045249,-0.00970652,-0.657973,0.00839609,0.0414024,748,1394,-0.74822,-1.56321
-469,-370,-0.87793,1.54749,-0.00687188,0.00206499,-0.00684748,0.00577305,-0.0105799,-1.07449,0.00957639,0.0398396,755,1394,-0.877905,-1.5475
-462,-370,-1.58557,1.74036,0,0,0,0,0,0,0,-1,762,1394,-1.58555,-1.7403
-455,-370,-2.20044,2.73779,-0.0283325,0.0253835,-0.00533497,0.0259082,-0.0288573,-1.47275,0.0316342,0.0445622,769,1394,-2.20043,-2.73775
-448,-370,-2.66937,3.55322,-0.0447526,0.0427112,-0.00380714,0.0428766,-0.044918,-1.52738,0.0506928,0.0448284,776,1394,-2.66938,-3.55317
-441,-370,-3.27716,4.15063,-0.0643538,0.0620811,-0.00196591,0.0621117,-0.0643844,-1.55525,0.0730365,0.0437701,783,1394,-3.27714,-4.15067
-434,-370,-3.86664,4.75269,0,0,0,0,0,0,0,-1,790,1394,-3.86664,-4.75271
-427,-370,0,0,0,0,0,0,0,0,0,-1,797,1394,0,0
-420,-370,0,0,0,0,0,0,0,0,0,-1,804,1394,0,0
-413,-370,0,0,0,0,0,0,0,0,0,-1,811,1394,0,0
-406,-370,0,0,0,0,0,0,0,0,0,-1,818,1394,0,0
-399,-370,0,0,0,0,0,0,0,0,0,-1,825,1394,0,0
-392,-370,0,0,0,0,0,0,0,0,0,-1,832,1394,0,0
-385,-370,0,0,0,0,0,0,0,0,0,-1,839,1394,0,0
-378,-370,0,0,0,0,0,0,0,0,0,-1,846,1394,0,0
-371,-370,0,0,0,0,0,0,0,0,0,-1,853,1394,0,0
-364,-370,0,0,0,0,0,0,0,0,0,-1,860,1394,0,0
-357,-370,0,0,0,0,0,0,0,0,0,-1,867,1394,0,0
-350,-370,0,0,0,0,0,0,0,0,0,-1,874,1394,0,0
-343,-370,0,0,0,0,0,0,0,0,0,-1,881,1394,0,0
-336,-370,0,0,0,0,0,0,0,0,0,-1,888,1394,0,0
-329,-370,0,0,0,0,0,0,0,0,0,-1,895,1394,0,0
-322,-370,0,0,0,0,0,0,0,0,0,-1,902,1394,0,0
-315,-370,0,0,0,0,0,0,0,0,0,-1,909,1394,0,0
-308,-370,0,0,0,0,0,0,0,0,0,-1,916,1394,0,0
-301,-370,0,0,0,0,0,0,0,0,0,-1,923,1394,0,0
-294,-370,0,0,0,0,0,0,0,0,0,-1,930,1394,0,0
-287,-370,0,0,0,0,0,0,0,0,0,-1,937,1394,0,0
-280,-370,0,0,0,0,0,0,0,0,0,-1,944,1394,0,0
-273,-370,0,0,0,0,0,0,0,0,0,-1,951,1394,0,0
-266,-370,0,0,0,0,0,0,0,0,0,-1,958,1394,0,0
-259,-370,0,0,0,0,0,0,0,0,0,-1,965,1394,0,0
-252,-370,0,0,0,0,0,0,0,0,0,-1,972,1394,0,0
-245,-370,0,0,0,0,0,0,0,0,0,-1,979,1394,0,0
-238,-370,0,0,0,0,0,0,0,0,0,-1,986,1394,0,0
-231,-370,0,0,0,0,0,0,0,0,0,-1,993,1394,0,0
-224,-370,0,0,0,0,0,0,0,0,0,-1,1000,1394,0,0
-217,-370,0,0,0,0,0,0,0,0,0,-1,1007,1394,0,0
-210,-370,0,0,0,0,0,0,0,0,0,-1,1014,1394,0,0
-203,-370,0,0,0,0,0,0,0,0,0,-1,1021,1394,0,0
-196,-370,0,0,0,0,0,0,0,0,0,-1,1028,1394,0,0
-189,-370,0,0,0,0,0,0,0,0,0,-1,1035,1394,0,0
-182,-370,0,0,0,0,0,0,0,0,0,-1,1042,1394,0,0
-175,-370,0,0,0,0,0,0,0,0,0,-1,1049,1394,0,0
-168,-370,0,0,0,0,0,0,0,0,0,-1,1056,1394,0,0
-161,-370,0,0,0,0,0,0,0,0,0,-1,1063,1394,0,0
-154,-370,0,0,0,0,0,0,0,0,0,-1,1070,1394,0,0
-147,-370,0,0,0,0,0,0,0,0,0,-1,1077,1394,0,0
-140,-370,0,0,0,0,0,0,0,0,0,-1,1084,1394,0,0
-133,-370,0,0,0,0,0,0,0,0,0,-1,1091,1394,0,0
-126,-370,0,0,0,0,0,0,0,0,0,-1,1098,1394,0,0
-119,-370,0,0,0,0,0,0,0,0,0,-1,1105,1394,0,0
-112,-370,0,0,0,0,0,0,0,0,0,-1,1112,1394,0,0
-105,-370,0,0,0,0,0,0,0,0,0,-1,1119,1394,0,0
-98,-370,0,0,0,0,0,0,0,0,0,-1,1126,1394,0,0
-91,-370,0,0,0,0,0,0,0,0,0,-1,1133,1394,0,0
-84,-370,0,0,0,0,0,0,0,0,0,-1,1140,1394,0,0
-77,-370,0,0,0,0,0,0,0,0,0,-1,1147,1394,0,0
-70,-370,0,0,0,0,0,0,0,0,0,-1,1154,1394,0,0
-63,-370,0,0,0,0,0,0,0,0,0,-1,1161,1394,0,0
-56,-370,0,0,0,0,0,0,0,0,0,-1,1168,1394,0,0
-49,-370,0,0,0,0,0,0,0,0,0,-1,1175,1394,0,0
-42,-370,0,0,0,0,0,0,0,0,0,-1,1182,1394,0,0
-35,-370,0,0,0,0,0,0,0,0,0,-1,1189,1394,0,0
-28,-370,0,0,0,0,0,0,0,0,0,-1,1196,1394,0,0
-21,-370,0,0,0,0,0,0,0,0,0,-1,1203,1394,0,0
-14,-370,0,0,0,0,0,0,0,0,0,-1,1210,1394,0,0
-7,-370,0,0,0,0,0,0,0,0,0,-1,1217,1394,0,0
0,-370,0,0,0,0,0,0,0,0,0,-1,1224,1394,0,0
7,-370,0,0,0,0,0,0,0,0,0,-1,1231,1394,0,0
14,-370,0,0,0,0,0,0,0,0,0,-1,1238,1394,0,0
21,-370,0,0,0,0,0,0,0,0,0,-1,1245,1394,0,0
28,-370,0,0,0,0,0,0,0,0,0,-1,1252,1394,0,0
35,-370,0,0,0,0,0,0,0,0,0,-1,1259,1394,0,0
42,-370,0,0,0,0,0,0,0,0,0,-1,1266,1394,0,0
49,-370,0,0,0,0,0,0,0,0,0,-1,1273,1394,0,0
56,-370,0,0,0,0,0,0,0,0,0,-1,1280,1394,0,0
63,-370,0,0,0,0,0,0,0,0,0,-1,1287,1394,0,0
70,-370,0,0,0,0,0,0,0,0,0,-1,1294,1394,0,0
77,-370,0,0,0,0,0,0,0,0,0,-1,1301,1394,0,0
84,-370,0,0,0,0,0,0,0,0,0,-1,1308,1394,0,0
91,-370,0,0,0,0,0,0,0,0,0,-1,1315,1394,0,0
98,-370,0,0,0,0,0,0,0,0,0,-1,1322,1394,0,0
105,-370,0,0,0,0,0,0,0,0,0,-1,1329,1394,0,0
112,-370,0,0,0,0,0,0,0,0,0,-1,1336,1394,0,0
119,-370,0,0,0,0,0,0,0,0,0,-1,1343,1394,0,0
126,-370,0,0,0,0,0,0,0,0,0,-1,1350,1394,0,0
133,-370,0,0,0,0,0,0,0,0,0,-1,1357,1394,0,0
140,-370,0,0,0,0,0,0,0,0,0,-1,1364,1394,0,0
147,-370,0,0,0,0,0,0,0,0,0,-1,1371,1394,0,0
154,-370,0,0,0,0,0,0,0,0,0,-1,1378,1394,0,0
161,-370,0,0,0,0,0,0,0,0,0,-1,1385,1394,0,0
168,-370,0,0,0,0,0,0,0,0,0,-1,1392,1394,0,0
175,-370,0,0,0,0,0,0,0,0,0,-1,1399,1394,0,0
182,-370,0,0,0,0,0,0,0,0,0,-1,1406,1394,0,0
189,-370,0,0,0,0,0,0,0,0,0,-1,1413,1394,0,0
196,-370,0,0,0,0,0,0,0,0,0,-1,1420,1394,0,0
203,-370,0,0,0,0,0,0,0,0,0,-1,1427,1394,0,0
210,-370,0,0,0,0,0,0,0,0,0,-1,1434,1394,0,0
217,-370,0,0,0,0,0,0,0,0,0,-1,1441,1394,0,0
224,-370,0,0,0,0,0,0,0,0,0,-1,1448,1394,0,0
231,-370,0,0,0,0,0,0,0,0,0,-1,1455,1394,0,0
238,-370,0,0,0,0,0,0,0,0,0,-1,1462,1394,0,0
245,-370,0,0,0,0,0,0,0,0,0,-1,1469,1394,0,0
252,-370,0,0,0,0,0,0,0,0,0,-1,1476,1394,0,0
259,-370,0,0,0,0,0,0,0,0,0,-1,1483,1394,0,0
266,-370,0,0,0,0,0,0,0,0,0,-1,1490,1394,0,0
273,-370,0,0,0,0,0,0,0,0,0,-1,1497,1394,0,0
280,-370,0,0,0,0,0,0,0,0,0,-1,1504,1394,0,0
287,-370,0,0,0,0,0,0,0,0,0,-1,1511,1394,0,0
294,-370,0,0,0,0,0,0,0,0,0,-1,1518,1394,0,0
301,-370,0,0,0,0,0,0,0,0,0,-1,1525,1394,0,0
308,-370,0,0,0,0,0,0,0,0,0,-1,1532,1394,0,0
315,-370,0,0,0,0,0,0,0,0,0,-1,1539,1394,0,0
322,-370,0,0,0,0,0,0,0,0,0,-1,1546,1394,0,0
329,-370,0,0,0,0,0,0,0,0,0,-1,1553,1394,0,0
336,-370,0,0,0,0,0,0,0,0,0,-1,1560,1394,0,0
343,-370,0,0,0,0,0,0,0,0,0,-1,1567,1394,0,0
350,-370,0,0,0,0,0,0,0,0,0,-1,1574,1394,0,0
357,-370,0,0,0,0,0,0,0,0,0,-1,1581,1394,0,0
364,-370,0,0,0,0,0,0,0,0,0,-1,1588,1394,0,0
371,-370,0,0,0,0,0,0,0,0,0,-1,1595,1394,0,0
378,-370,0,0,0,0,0,0,0,0,0,-1,1602,1394,0,0
385,-370,0,0,0,0,0,0,0,0,0,-1,1609,1394,0,0
392,-370,0,0,0,0,0,0,0,0,0,-1,1616,1394,0,0
399,-370,0,0,0,0,0,0,0,0,0,-1,1623,1394,0,0
406,-370,0,0,0,0,0,0,0,0,0,-1,1630,1394,0,0
413,-370,0,0,0,0,0,0,0,0,0,-1,1637,1394,0,0
420,-370,0,0,0,0,0,0,0,0,0,-1,1644,1394,0,0
427,-370,0,0,0,0,0,0,0,0,0,-1,1651,1394,0,0
434,-370,0,0,0,0,0,0,0,0,0,-1,1658,1394,0,0
441,-370,0,0,0,0,0,0,0,0,0,-1,1665,1394,0,0
448,-370,0,0,0,0,0,0,0,0,0,-1,1672,1394,0,0
455,-370,0,0,0,0,0,0,0,0,0,-1,1679,1394,0,0
462,-370,0,0,0,0,0,0,0,0,0,-1,1686,1394,0,0
469,-370,0,0,0,0,0,0,0,0,0,-1,1693,1394,0,0
476,-370,0,0,0,0,0,0,0,0,0,-1,1700,1394,0,0
483,-370,0,0,0,0,0,0,0,0,0,-1,1707,1394,0,0
490,-370,0,0,0,0,0,0,0,0,0,-1,1714,1394,0,0
497,-370,0,0,0,0,0,0,0,0,0,-1,1721,1394,0,0
504,-370,0,0,0,0,0,0,0,0,0,-1,1728,1394,0,0
511,-370,0,0,0,0,0,0,0,0,0,-1,1735,1394,0,0
518,-370,0,0,0,0,0,0,0,0,0,-1,1742,1394,0,0
525,-370,0,0,0,0,0,0,0,0,0,-1,1749,1394,0,0
532,-370,0,0,0,0,0,0,0,0,0,-1,1756,1394,0,0
539,-370,0,0,0,0,0,0,0,0,0,-1,1763,1394,0,0
546,-370,8.47607,0.242432,0.00179459,0.0197477,0.0778609,0.0891478,-0.0676055,0.84279,0.090786,0.0453899,1770,1394,8.47605,-0.242409
553,-370,8.50024,0.925537,-0.0190202,0.0170087,0.0604632,0.062084,-0.0640956,0.930181,0.0728529,0.0439319,1777,1394,8.5002,-0.925536
560,-370,8.74402,1.5155,-0.0327898,0.015396,0.0474272,0.044499,-0.0618929,1.02041,0.0616984,0.0446684,1784,1394,8.74401,-1.51548
567,-370,9.03821,1.41687,-0.0384643,0.0140337,0.0371049,0.0332356,-0.0576662,1.09324,0.0531102,0.0437638,1791,1394,9.03819,-1.41691
574,-370,3.26672,1.31592,0,0,0,0,0,0,0,-1,1798,1394,3.26677,-1.31593
581,-370,3.92407,0.870605,0,0,0,0,0,0,0,-1,1805,1394,3.9241,-0.87059
588,-370,4.58142,0.425293,0,0,0,0,0,0,0,-1,1812,1394,4.58143,-0.425251
595,-370,5.08643,0.231567,0,0,0,0,0,0,0,-1,1819,1394,5.08641,-0.231614
602,-370,5.21277,0.660156,0,0,0,0,0,0,0,-1,1826,1394,5.21271,-0.660133
609,-370,5.37769,1.5802,0,0,0,0,0,0,0,-1,1833,1394,5.3777,-1.58021
616,-370,5.40161,1.70764,-0.0154355,0.0025441,0.00624347,0.00449949,-0.0173909,1.26728,0.013349,0.0485478,1840,1394,5.40155,-1.70762
623,-370,5.29382,1.88464,-0.00740748,0.00220105,0.00493242,0.00428226,-0.00948869,1.17152,0.00813787,0.0446412,1847,1394,5.29381,-1.88461
630,-370,5.30859,2.1217,-0.00129177,-0.000820535,0.00410518,0.00305579,-0.00516809,0.814064,0.00479998,0.0221284,1854,1394,5.30863,-2.1217
637,-370,5.28259,2.06421,0.00159904,-0.000821719,0.00485012,0.00538752,-0.00461021,0.663118,0.005778,0.0141219,1861,1394,5.28257,-2.06423
644,-370,5.31543,1.97156,0.00258982,-0.00133757,0.00427099,0.00532692,-0.00407467,0.569921,0.00544403,0.0115427,1868,1394,5.31544,-1.97159
651,-370,5.34412,1.92151,0.00257652,-0.00163041,0.00371952,0.00474616,-0.00380005,0.528058,0.00494422,0.0113939,1875,1394,5.34406,-1.92149
658,-370,5.34729,1.86926,0.00243454,-0.00164046,0.00256697,0.00367435,-0.00288027,0.449942,0.00379355,0.0116104,1882,1394,5.34732,-1.86929
665,-370,5.31274,1.81421,0.00265347,-0.00156004,0.00142773,0.00309167,-0.00199825,0.297799,0.00296119,0.0121176,1889,1394,5.31276,-1.81417
672,-370,5.31299,1.75574,0.00312777,-0.00176148,0.000146452,0.00313216,-0.00176586,0.0299181,0.00286431,0.0137813,1896,1394,5.31298,-1.75579
679,-370,5.328,1.70715,0.00405169,-0.00210519,-0.000730956,0.00413728,-0.00219078,-0.116563,0.00371067,0.0135535,1903,1394,5.32799,-1.70713
686,-370,5.33093,1.63586,0.00564007,-0.00322522,-0.00160322,0.00592109,-0.00350624,-0.173524,0.00550207,0.0132406,1910,1394,5.33088,-1.63583
693,-370,5.32898,1.55762,0.00772605,-0.00462938,-0.0028341,0.00834512,-0.00524845,-0.215058,0.00791584,0.0114142,1917,1394,5.32894,-1.55765
700,-370,5.32605,1.46667,0.0103099,-0.00629441,-0.00404298,0.011242,-0.00722651,-0.226588,0.0107465,0.0132383,1924,1394,5.32602,-1.4667
707,-370,5.26843,1.39758,0.0134597,-0.00842721,-0.00530591,0.0146781,-0.00964566,-0.225726,0.0141432,0.0234423,1931,1394,5.26847,-1.39763
714,-370,5.24902,1.40442,0.0170169,-0.0111479,-0.00670932,0.0185336,-0.0126645,-0.222308,0.0181181,0.0401803,1938,1394,5.24897,-1.40441
721,-370,5.2843,1.41284,0.0208548,-0.0146025,-0.00821089,0.0226639,-0.0164116,-0.216864,0.0226563,0.0470015,1945,1394,5.28432,-1.41283
728,-370,5.48682,1.6084,0.0247372,-0.0189695,-0.00980931,0.0268378,-0.0210701,-0.210957,0.0277264,0.0472023,1952,1394,5.48688,-1.60839
735,-370,5.64258,1.87708,0.0282845,-0.0245111,-0.011545,0.0306987,-0.0269253,-0.206141,0.033293,0.0486343,1959,1394,5.64255,-1.87702
742,-370,6.10254,1.79089,0,0,0,0,0,0,0,-1,1966,1394,6.10259,-1.7909
749,-370,0,0,0,0,0,0,0,0,0,-1,1973,1394,0,0
756,-370,0,0,0,0,0,0,0,0,0,-1,1980,1394,0,0
763,-370,0,0,0,0,0,0,0,0,0,-1,1987,1394,0,0
770,-370,0,0,0,0,0,0,0,0,0,-1,1994,1394,0,0
777,-370,0,0,0,0,0,0,0,0,0,-1,2001,1394,0,0
784,-370,0,0,0,0,0,0,0,0,0,-1,2008,1394,0,0
791,-370,0,0,0,0,0,0,0,0,0,-1,2015,1394,0,0
798,-370,0,0,0,0,0,0,0,0,0,-1,2022,1394,0,0
805,-370,0,0,0,0,0,0,0,0,0,-1,2029,1394,0,0
812,-370,0,0,0,0,0,0,0,0,0,-1,2036,1394,0,0
-700,-377,0,0,0,0,0,0,0,0,0,-1,524,1401,0,0
-693,-377,0,0,0,0,0,0,0,0,0,-1,531,1401,0,0
-686,-377,0,0,0,0,0,0,0,0,0,-1,538,1401,0,0
-679,-377,0,0,0,0,0,0,0,0,0,-1,545,1401,0,0
-672,-377,0,0,0,0,0,0,0,0,0,-1,552,1401,0,0
-665,-377,0,0,0,0,0,0,0,0,0,-1,559,1401,0,0
-658,-377,0,0,0,0,0,0,0,0,0,-1,566,1401,0,0
-651,-377,0,0,0,0,0,0,0,0,0,-1,573,1401,0,0
-644,-377,0,0,0,0,0,0,0,0,0,-1,580,1401,0,0
-637,-377,0,0,0,0,0,0,0,0,0,-1,587,1401,0,0
-630,-377,0,0,0,0,0,0,0,0,0,-1,594,1401,0,0
-623,-377,0,0,0,0,0,0,0,0,0,-1,601,1401,0,0
-616,-377,-0.873901,-0.285034,0.0172559,0.0565082,0.0433489,0.0844668,-0.0107027,0.997967,0.0601968,0.0453463,608,1401,-0.87392,0.284998
-609,-377,-0.709595,-0.471436,0.00605081,0.0554302,0.0384322,0.07642,-0.014939,1.07091,0.0565875,0.0431395,615,1401,-0.709605,0.471453
-602,-377,-0.112244,-0.175171,-0.0017079,0.0511785,0.0339889,0.0677991,-0.0183285,1.11599,0.0523887,0.0406304,622,1401,-0.112227,0.175208
-595,-377,0.367676,0.233154,-0.00659061,0.0452483,0.029819,0.0588382,-0.0201805,1.14317,0.0474064,0.0402891,629,1401,0.367651,-0.233181
-588,-377,0.347961,0.485107,-0.00920256,0.0386048,0.0258693,0.0499233,-0.0205211,1.15836,0.0418353,0.0450419,636,1401,0.347983,-0.485081
-581,-377,0.00848389,0.288696,-0.0100228,0.0318875,0.0220345,0.0413402,-0.0194756,1.16555,0.0358604,0.0454465,643,1401,0.00848667,-0.288688
-574,-377,-0.370361,0.609131,-0.00976594,0.0260638,0.0186555,0.0340134,-0.0177155,1.16797,0.0303558,0.0435749,650,1401,-0.370376,-0.609156
-567,-377,-0.568237,1.17859,-0.00905522,0.0213663,0.0149131,0.0274574,-0.0151463,1.18304,0.0249372,0.0281121,657,1401,-0.568232,-1.17859
-560,-377,-0.556091,1.22229,-0.00781647,0.0154707,0.0118565,0.0204449,-0.0127906,1.17357,0.0193574,0.0171951,664,1401,-0.556094,-1.22227
-553,-377,-0.543396,1.27466,-0.00621203,0.0102969,0.00928961,0.0144696,-0.0103847,1.14863,0.0144141,0.0114143,671,1401,-0.543414,-1.27461
-546,-377,-0.550293,1.35938,-0.00415897,0.00627376,0.00660747,0.00947577,-0.00736098,1.11954,0.00974623,0.0146656,678,1401,-0.550279,-1.35934
-539,-377,-0.526306,1.44531,-0.00160286,0.0033984,0.00450507,0.00605032,-0.00425478,1.03876,0.00597968,0.0192535,685,1401,-0.526294,-1.44535
-532,-377,-0.561096,1.51343,0.000448339,0.00090062,0.00234302,0.00302839,-0.00167943,0.833507,0.002755,0.0185201,692,1401,-0.561098,-1.51343
-525,-377,-0.546631,1.56775,0.00216358,-0.00115832,0.000183472,0.00217368,-0.00116843,0.0550081,0.00195844,0.016378,699,1401,-0.546616,-1.56772
-518,-377,-0.532104,1.61414,0.0037588,-0.00328904,-0.00178759,0.00418627,-0.00371651,-0.234724,0.00456536,0.0113749,706,1401,-0.532122,-1.61419
-511,-377,-0.542603,1.70178,0.00516057,-0.00570556,-0.00317172,0.00601861,-0.0065636,-0.264204,0.00726662,0.0117519,713,1401,-0.542581,-1.70181
-504,-377,-0.551147,1.78259,0.0055274,-0.00661471,-0.00458714,0.00706552,-0.00815283,-0.32353,0.00879379,0.0108002,720,1401,-0.551173,-1.78262
-497,-377,-0.492493,1.81372,0.0052396,-0.00655593,-0.00569777,0.00754233,-0.00885867,-0.384076,0.00947928,0.0125265,727,1401,-0.492472,-1.81376
-490,-377,-0.527283,1.81995,0.00399213,-0.00527629,-0.00677339,0.00756491,-0.00884907,-0.485384,0.00948628,0.0300634,734,1401,-0.527266,-1.8199
-483,-377,-0.523926,1.63647,0.00251801,-0.00334281,-0.00787059,0.00798602,-0.00881082,-0.607187,0.00970156,0.0408621,741,1401,-0.523931,-1.63647
-476,-377,-0.406982,1.40393,-0.000708901,0.000670533,-0.00881294,0.0088207,-0.00885907,-0.824449,0.0102074,0.0420901,748,1401,-0.40697,-1.40389
-469,-377,-0.343506,1.2854,-0.00625724,0.00697949,-0.00943022,0.011882,-0.0111598,-1.09137,0.0133054,0.04314,755,1401,-0.343529,-1.28544
-462,-377,-0.350891,1.18286,0,0,0,0,0,0,0,-1,762,1401,-0.350911,-1.18289
-455,-377,-1.54822,2.13879,-0.0246836,0.0270115,-0.00927518,0.0286252,-0.0262974,-1.39853,0.0317191,0.0462744,769,1401,-1.54824,-2.13874
-448,-377,-2.14349,2.84058,-0.0380068,0.040595,-0.00845856,0.0414949,-0.0389067,-1.4648,0.0464279,0.0440349,776,1401,-2.14351,-2.84054
-441,-377,-2.62274,3.52417,-0.053901,0.0552514,-0.0071555,0.0557185,-0.0543681,-1.50561,0.0635601,0.0466518,783,1401,-2.62272,-3.52411
-434,-377,-3.05042,4.34607,0,0,0,0,0,0,0,-1,790,1401,-3.05042,-4.34605
-427,-377,-3.44763,5.1438,0,0,0,0,0,0,0,-1,797,1401,-3.44762,-5.14381
-420,-377,0,0,0,0,0,0,0,0,0,-1,804,1401,0,0
-413,-377,0,0,0,0,0,0,0,0,0,-1,811,1401,0,0
-406,-377,0,0,0,0,0,0,0,0,0,-1,818,1401,0,0
-399,-377,0,0,0,0,0,0,0,0,0,-1,825,1401,0,0
-392,-377,0,0,0,0,0,0,0,0,0,-1,832,1401,0,0
-385,-377,0,0,0,0,0,0,0,0,0,-1,839,1401,0,0
-378,-377,0,0,0,0,0,0,0,0,0,-1,846,1401,0,0
-371,-377,0,0,0,0,0,0,0,0,0,-1,853,1401,0,0
-364,-377,0,0,0,0,0,0,0,0,0,-1,860,1401,0,0
-357,-377,0,0,0,0,0,0,0,0,0,-1,867,1401,0,0
-350,-377,0,0,0,0,0,0,0,0,0,-1,874,1401,0,0
-343,-377,0,0,0,0,0,0,0,0,0,-1,881,1401,0,0
-336,-377,0,0,0,0,0,0,0,0,0,-1,888,1401,0,0
-329,-377,0,0,0,0,0,0,0,0,0,-1,895,1401,0,0
-322,-377,0,0,0,0,0,0,0,0,0,-1,902,1401,0,0
-315,-377,0,0,0,0,0,0,0,0,0,-1,909,1401,0,0
-308,-377,0,0,0,0,0,0,0,0,0,-1,916,1401,0,0
-301,-377,0,0,0,0,0,0,0,0,0,-1,923,1401,0,0
-294,-377,0,0,0,0,0,0,0,0,0,-1,930,1401,0,0
-287,-377,0,0,0,0,0,0,0,0,0,-1,937,1401,0,0
-280,-377,0,0,0,0,0,0,0,0,0,-1,944,1401,0,0
-273,-377,0,0,0,0,0,0,0,0,0,-1,951,1401,0,0
-266,-377,0,0,0,0,0,0,0,0,0,-1,958,1401,0,0
-259,-377,0,0,0,0,0,0,0,0,0,-1,965,1401,0,0
-252,-377,0,0,0,0,0,0,0,0,0,-1,972,1401,0,0
-245,-377,0,0,0,0,0,0,0,0,0,-1,979,1401,0,0
-238,-377,0,0,0,0,0,0,0,0,0,-1,986,1401,0,0
-231,-377,0,0,0,0,0,0,0,0,0,-1,993,1401,0,0
-224,-377,0,0,0,0,0,0,0,0,0,-1,1000,1401,0,0
-217,-377,0,0,0,0,0,0,0,0,0,-1,1007,1401,0,0
-210,-377,0,0,0,0,0,0,0,0,0,-1,1014,1401,0,0
-203,-377,0,0,0,0,0,0,0,0,0,-1,1021,1401,0,0
-196,-377,0,0,0,0,0,0,0,0,0,-1,1028,1401,0,0
-189,-377,0,0,0,0,0,0,0,0,0,-1,1035,1401,0,0
-182,-377,0,0,0,0,0,0,0,0,0,-1,1042,1401,0,0
-175,-377,0,0,0,0,0,0,0,0,0,-1,1049,1401,0,0
-168,-377,0,0,0,0,0,0,0,0,0,-1,1056,1401,0,0
-161,-377,0,0,0,0,0,0,0,0,0,-1,1063,1401,0,0
-154,-377,0,0,0,0,0,0,0,0,0,-1,1070,1401,0,0
-147,-377,0,0,0,0,0,0,0,0,0,-1,1077,1401,0,0
-140,-377,0,0,0,0,0,0,0,0,0,-1,1084,1401,0,0
-133,-377,0,0,0,0,0,0,0,0,0,-1,1091,1401,0,0
-126,-377,0,0,0,0,0,0,0,0,0,-1,1098,1401,0,0
-119,-377,0,0,0,0,0,0,0,0,0,-1,1105,1401,0,0
-112,-377,0,0,0,0,0,0,0,0,0,-1,1112,1401,0,0
-105,-377,0,0,0,0,0,0,0,0,0,-1,1119,1401,0,0
-98,-377,0,0,0,0,0,0,0,0,0,-1,1126,1401,0,0
-91,-377,0,0,0,0,0,0,0,0,0,-1,1133,1401,0,0
-84,-377,0,0,0,0,0,0,0,0,0,-1,1140,1401,0,0
-77,-377,0,0,0,0,0,0,0,0,0,-1,1147,1401,0,0
-70,-377,0,0,0,0,0,0,0,0,0,-1,1154,1401,0,0
-63,-377,0,0,0,0,0,0,0,0,0,-1,1161,1401,0,0
-56,-377,0,0,0,0,0,0,0,0,0,-1,1168,1401,0,0
-49,-377,0,0,0,0,0,0,0,0,0,-1,1175,1401,0,0
-42,-377,0,0,0,0,0,0,0,0,0,-1,1182,1401,0,0
-35,-377,0,0,0,0,0,0,0,0,0,-1,1189,1401,0,0
-28,-377,0,0,0,0,0,0,0,0,0,-1,1196,1401,0,0
-21,-377,0,0,0,0,0,0,0,0,0,-1,1203,1401,0,0
-14,-377,0,0,0,0,0,0,0,0,0,-1,1210,1401,0,0
-7,-377,0,0,0,0,0,0,0,0,0,-1,1217,1401,0,0
0,-377,0,0,0,0,0,0,0,0,0,-1,1224,1401,0,0
7,-377,0,0,0,0,0,0,0,0,0,-1,1231,1401,0,0
14,-377,0,0,0,0,0,0,0,0,0,-1,1238,1401,0,0
21,-377,0,0,0,0,0,0,0,0,0,-1,1245,1401,0,0
28,-377,0,0,0,0,0,0,0,0,0,-1,1252,1401,0,0
35,-377,0,0,0,0,0,0,0,0,0,-1,1259,1401,0,0
42,-377,0,0,0,0,0,0,0,0,0,-1,1266,1401,0,0
49,-377,0,0,0,0,0,0,0,0,0,-1,1273,1401,0,0
56,-377,0,0,0,0,0,0,0,0,0,-1,1280,1401,0,0
63,-377,0,0,0,0,0,0,0,0,0,-1,1287,1401,0,0
70,-377,0,0,0,0,0,0,0,0,0,-1,1294,1401,0,0
77,-377,0,0,0,0,0,0,0,0,0,-1,1301,1401,0,0
84,-377,0,0,0,0,0,0,0,0,0,-1,1308,1401,0,0
91,-377,0,0,0,0,0,0,0,0,0,-1,1315,1401,0,0
98,-377,0,0,0,0,0,0,0,0,0,-1,1322,1401,0,0
105,-377,0,0,0,0,0,0,0,0,0,-1,1329,1401,0,0
112,-377,0,0,0,0,0,0,0,0,0,-1,1336,1401,0,0
119,-377,0,0,0,0,0,0,0,0,0,-1,1343,1401,0,0
126,-377,0,0,0,0,0,0,0,0,0,-1,1350,1401,0,0
133,-377,0,0,0,0,0,0,0,0,0,-1,1357,1401,0,0
140,-377,0,0,0,0,0,0,0,0,0,-1,1364,1401,0,0
147,-377,0,0,0,0,0,0,0,0,0,-1,1371,1401,0,0
154,-377,0,0,0,0,0,0,0,0,0,-1,1378,1401,0,0
161,-377,0,0,0,0,0,0,0,0,0,-1,1385,1401,0,0
168,-377,0,0,0,0,0,0,0,0,0,-1,1392,1401,0,0
175,-377,0,0,0,0,0,0,0,0,0,-1,1399,1401,0,0
182,-377,0,0,0,0,0,0,0,0,0,-1,1406,1401,0,0
189,-377,0,0,0,0,0,0,0,0,0,-1,1413,1401,0,0
196,-377,0,0,0,0,0,0,0,0,0,-1,1420,1401,0,0
203,-377,0,0,0,0,0,0,0,0,0,-1,1427,1401,0,0
210,-377,0,0,0,0,0,0,0,0,0,-1,1434,1401,0,0
217,-377,0,0,0,0,0,0,0,0,0,-1,1441,1401,0,0
224,-377,0,0,0,0,0,0,0,0,0,-1,1448,1401,0,0
231,-377,0,0,0,0,0,0,0,0,0,-1,1455,1401,0,0
238,-377,0,0,0,0,0,0,0,0,0,-1,1462,1401,0,0
245,-377,0,0,0,0,0,0,0,0,0,-1,1469,1401,0,0
252,-377,0,0,0,0,0,0,0,0,0,-1,1476,1401,0,0
259,-377,0,0,0,0,0,0,0,0,0,-1,1483,1401,0,0
266,-377,0,0,0,0,0,0,0,0,0,-1,1490,1401,0,0
273,-377,0,0,0,0,0,0,0,0,0,-1,1497,1401,0,0
280,-377,0,0,0,0,0,0,0,0,0,-1,1504,1401,0,0
287,-377,0,0,0,0,0,0,0,0,0,-1,1511,1401,0,0
294,-377,0,0,0,0,0,0,0,0,0,-1,1518,1401,0,0
301,-377,0,0,0,0,0,0,0,0,0,-1,1525,1401,0,0
308,-377,0,0,0,0,0,0,0,0,0,-1,1532,1401,0,0
315,-377,0,0,0,0,0,0,0,0,0,-1,1539,1401,0,0
322,-377,0,0,0,0,0,0,0,0,0,-1,1546,1401,0,0
329,-377,0,0,0,0,0,0,0,0,0,-1,1553,1401,0,0
336,-377,0,0,0,0,0,0,0,0,0,-1,1560,1401,0,0
343,-377,0,0,0,0,0,0,0,0,0,-1,1567,1401,0,0
350,-377,0,0,0,0,0,0,0,0,0,-1,1574,1401,0,0
357,-377,0,0,0,0,0,0,0,0,0,-1,1581,1401,0,0
364,-377,0,0,0,0,0,0,0,0,0,-1,1588,1401,0,0
371,-377,0,0,0,0,0,0,0,0,0,-1,1595,1401,0,0
378,-377,0,0,0,0,0,0,0,0,0,-1,1602,1401,0,0
385,-377,0,0,0,0,0,0,0,0,0,-1,1609,1401,0,0
392,-377,0,0,0,0,0,0,0,0,0,-1,1616,1401,0,0
399,-377,0,0,0,0,0,0,0,0,0,-1,1623,1401,0,0
406,-377,0,0,0,0,0,0,0,0,0,-1,1630,1401,0,0
413,-377,0,0,0,0,0,0,0,0,0,-1,1637,1401,0,0
420,-377,0,0,0,0,0,0,0,0,0,-1,1644,1401,0,0
427,-377,0,0,0,0,0,0,0,0,0,-1,1651,1401,0,0
434,-377,0,0,0,0,0,0,0,0,0,-1,1658,1401,0,0
441,-377,0,0,0,0,0,0,0,0,0,-1,1665,1401,0,0
448,-377,0,0,0,0,0,0,0,0,0,-1,1672,1401,0,0
455,-377,0,0,0,0,0,0,0,0,0,-1,1679,1401,0,0
462,-377,0,0,0,0,0,0,0,0,0,-1,1686,1401,0,0
469,-377,0,0,0,0,0,0,0,0,0,-1,1693,1401,0,0
476,-377,0,0,0,0,0,0,0,0,0,-1,1700,1401,0,0
483,-377,0,0,0,0,0,0,0,0,0,-1,1707,1401,0,0
490,-377,0,0,0,0,0,0,0,0,0,-1,1714,1401,0,0
497,-377,0,0,0,0,0,0,0,0,0,-1,1721,1401,0,0
504,-377,0,0,0,0,0,0,0,0,0,-1,1728,1401,0,0
511,-377,0,0,0,0,0,0,0,0,0,-1,1735,1401,0,0
518,-377,0,0,0,0,0,0,0,0,0,-1,1742,1401,0,0
525,-377,0,0,0,0,0,0,0,0,0,-1,1749,1401,0,0
532,-377,0,0,0,0,0,0,0,0,0,-1,1756,1401,0,0
539,-377,0,0,0,0,0,0,0,0,0,-1,1763,1401,0,0
546,-377,7.88464,0.0827637,0.0112761,0.0121803,0.0778966,0.0896261,-0.0661696,0.7883,0.0902879,0.0440968,1770,1401,7.88459,-0.0827041
553,-377,8.21387,0.880859,-0.00971456,0.00967051,0.0615523,0.0622888,-0.0623328,0.863491,0.0719503,0.0411475,1777,1401,8.2139,-0.880809
560,-377,8.75574,1.4978,-0.0237576,0.00817587,0.049099,0.0438391,-0.0594207,0.942602,0.0598429,0.042796,1784,1401,8.75571,-1.49779
567,-377,9.57751,1.72058,-0.030232,0.00681463,0.0393842,0.0318141,-0.0552315,1.00521,0.0508584,0.0425112,1791,1401,9.57748,-1.72054
574,-377,3.66675,1.49854,0,0,0,0,0,0,0,-1,1798,1401,3.66678,-1.49859
581,-377,4.31934,1.03223,0,0,0,0,0,0,0,-1,1805,1401,4.3193,-1.03219
588,-377,5.16296,0.608154,0,0,0,0,0,0,0,-1,1812,1401,5.16297,-0.608145
595,-377,4.75195,0.417603,0,0,0,0,0,0,0,-1,1819,1401,4.75201,-0.417557
602,-377,4.92969,0.750366,-0.0214116,-0.000369571,0.013066,0.00588472,-0.0276659,1.12436,0.0206864,0.0454299,1826,1401,4.92974,-0.750369
609,-377,5.13171,1.21045,0,0,0,0,0,0,0,-1,1833,1401,5.13177,-1.21041
616,-377,5.31628,1.72546,-0.0142489,-0.00217872,0.00764484,0.00152611,-0.0179537,1.11953,0.0125089,0.045761,1840,1401,5.31632,-1.72542
623,-377,5.31458,2.10791,-0.00713933,-0.00192889,0.00602702,0.00203187,-0.0111001,0.989399,0.0081621,0.0375443,1847,1401,5.31456,-2.10792
630,-377,5.24255,2.15198,-0.00155242,-0.00406729,0.00484326,0.00219397,-0.00781368,0.658389,0.00607399,0.018616,1854,1401,5.24259,-2.15195
637,-377,5.23438,2.05078,0.000948145,-0.00329042,0.00514711,0.00439519,-0.00673747,0.590104,0.00647469,0.0122644,1861,1401,5.23441,-2.05077
644,-377,5.24402,1.9751,0.00190593,-0.0029767,0.00428007,0.00439199,-0.00546276,0.526217,0.00570083,0.0109011,1868,1401,5.24405,-1.97505
651,-377,5.28503,1.91711,0.00199718,-0.00263537,0.00352084,0.00389533,-0.00453353,0.494452,0.00487105,0.012069,1875,1401,5.28502,-1.91709
658,-377,5.29529,1.86914,0.00222203,-0.00241586,0.00224413,0.0031301,-0.00332394,0.384502,0.0037268,0.0129277,1882,1401,5.29534,-1.86918
665,-377,5.26794,1.78625,0.00302287,-0.00222339,0.000931065,0.00318321,-0.00238373,0.170536,0.0032251,0.0144143,1889,1401,5.26792,-1.78628
672,-377,5.27368,1.71204,0.00403984,-0.00247604,-0.000505931,0.00407889,-0.00251509,-0.0770307,0.00384255,0.0161179,1896,1401,5.27367,-1.71199
679,-377,5.24146,1.70349,0.00554606,-0.00299377,-0.00157234,0.00582636,-0.00327407,-0.176414,0.00532257,0.0173471,1903,1401,5.24144,-1.70346
686,-377,5.22925,1.6449,0.00778717,-0.00429184,-0.00267993,0.00835506,-0.00485973,-0.208815,0.00771801,0.0144373,1910,1401,5.22926,-1.64493
693,-377,5.25354,1.55725,0.010702,-0.00585347,-0.00425671,0.0117323,-0.00688382,-0.237486,0.0108689,0.0108927,1917,1401,5.25356,-1.55728
700,-377,5.24609,1.48645,0.0142858,-0.0076919,-0.00594707,0.0157919,-0.00919794,-0.248027,0.0145943,0.0172686,1924,1401,5.24611,-1.48642
707,-377,5.04309,1.42822,0.0185898,-0.00996606,-0.007836,0.0205987,-0.011975,-0.250968,0.0190249,0.0372973,1931,1401,5.04304,-1.42818
714,-377,5.10388,1.40295,0.0234172,-0.0127802,-0.00990008,0.025948,-0.015311,-0.25027,0.0240833,0.0454976,1938,1401,5.10386,-1.40293
721,-377,5.73694,1.49854,0.0285546,-0.0162647,-0.0120207,0.031575,-0.0192851,-0.246175,0.0296485,0.0418937,1945,1401,5.73699,-1.49848
728,-377,5.51514,1.77283,0.0336296,-0.0205864,-0.0140825,0.0370693,-0.0240261,-0.239561,0.0355403,0.0472053,1952,1401,5.51514,-1.7728
735,-377,5.66284,2.14368,0.0380365,-0.0260416,-0.01594,0.0417827,-0.0297878,-0.230829,0.0415142,0.0479319,1959,1401,5.6629,-2.14371
742,-377,0,0,0,0,0,0,0,0,0,-1,1966,1401,0,0
749,-377,0,0,0,0,0,0,0,0,0,-1,1973,1401,0,0
756,-377,0,0,0,0,0,0,0,0,0,-1,1980,1401,0,0
763,-377,0,0,0,0,0,0,0,0,0,-1,1987,1401,0,0
770,-377,0,0,0,0,0,0,0,0,0,-1,1994,1401,0,0
777,-377,0,0,0,0,0,0,0,0,0,-1,2001,1401,0,0
784,-377,0,0,0,0,0,0,0,0,0,-1,2008,1401,0,0
791,-377,0,0,0,0,0,0,0,0,0,-1,2015,1401,0,0
798,-377,0,0,0,0,0,0,0,0,0,-1,2022,1401,0,0
805,-377,0,0,0,0,0,0,0,0,0,-1,2029,1401,0,0
812,-377,0,0,0,0,0,0,0,0,0,-1,2036,1401,0,0
-700,-384,0,0,0,0,0,0,0,0,0,-1,524,1408,0,0
-693,-384,0,0,0,0,0,0,0,0,0,-1,531,1408,0,0
-686,-384,0,0,0,0,0,0,0,0,0,-1,538,1408,0,0
-679,-384,0,0,0,0,0,0,0,0,0,-1,545,1408,0,0
-672,-384,0,0,0,0,0,0,0,0,0,-1,552,1408,0,0
-665,-384,0,0,0,0,0,0,0,0,0,-1,559,1408,0,0
-658,-384,0,0,0,0,0,0,0,0,0,-1,566,1408,0,0
-651,-384,0,0,0,0,0,0,0,0,0,-1,573,1408,0,0
-644,-384,0,0,0,0,0,0,0,0,0,-1,580,1408,0,0
-637,-384,0,0,0,0,0,0,0,0,0,-1,587,1408,0,0
-630,-384,0,0,0,0,0,0,0,0,0,-1,594,1408,0,0
-623,-384,0,0,0,0,0,0,0,0,0,-1,601,1408,0,0
-616,-384,-0.284424,-1.02576,0,0,0,0,0,0,0,-1,608,1408,-0.284403,1.02577
-609,-384,-0.301575,-0.736938,-0.000172385,0.0614801,0.0430534,0.0836053,-0.0222976,1.09609,0.0644678,0.0436601,615,1408,-0.301564,0.736976
-602,-384,-0.300354,-0.445557,-0.00794482,0.0565179,0.0387711,0.0747054,-0.0261323,1.13217,0.0604281,0.04133,622,1408,-0.30034,0.445511
-595,-384,0.0219116,-0.370117,-0.0122443,0.0499277,0.0345088,0.0652873,-0.0276039,1.15203,0.0550821,0.0420379,629,1408,0.0218965,0.370138
-588,-384,0.122009,-0.00537109,-0.014011,0.0426852,0.030294,0.0558261,-0.027152,1.16151,0.0488516,0.0422106,636,1408,0.121999,0.00534202
-581,-384,-0.043335,0.259766,-0.0139421,0.0354601,0.0261077,0.0467,-0.0251821,1.16426,0.0421164,0.0447767,643,1408,-0.0433253,-0.259715
-574,-384,-0.348083,0.608154,-0.0127801,0.0291224,0.0222456,0.0387296,-0.0223874,1.16312,0.0357039,0.0469145,650,1408,-0.348101,-0.608137
-567,-384,-0.465088,0.996948,-0.0112033,0.0239303,0.0180256,0.0315333,-0.0188063,1.17165,0.0293715,0.0399234,657,1408,-0.465105,-0.99692
-560,-384,-0.481384,1.23364,-0.00926267,0.0176838,0.0145051,0.0240077,-0.0155866,1.15966,0.0230314,0.0231554,664,1408,-0.481389,-1.23363
-553,-384,-0.464844,1.28455,-0.00714446,0.0123373,0.0114434,0.0176243,-0.0124315,1.138,0.0174388,0.0156758,671,1408,-0.464836,-1.28455
-546,-384,-0.472961,1.35754,-0.00487851,0.00813881,0.00841528,0.0122687,-0.00900844,1.11456,0.0123324,0.0135384,678,1408,-0.472954,-1.35749
-539,-384,-0.487488,1.43713,-0.00248526,0.00509325,0.0060109,0.00840958,-0.00580159,1.06663,0.00825075,0.0151888,685,1408,-0.487467,-1.43719
-532,-384,-0.506653,1.51025,-0.000505115,0.00254893,0.00362754,0.00495775,-0.00291393,0.984617,0.0045955,0.0211288,692,1408,-0.50668,-1.51029
-525,-384,-0.497681,1.57141,0.00103368,0.000459094,0.00132888,0.00210597,-0.000613192,0.67894,0.00164688,0.019252,699,1408,-0.497667,-1.57141
-518,-384,-0.478394,1.63599,0.00236785,-0.00157193,-0.000785015,0.00251851,-0.00172259,-0.189609,0.00246293,0.0117366,706,1408,-0.478378,-1.63598
-511,-384,-0.487854,1.71655,0.00339996,-0.00367642,-0.00233677,0.00410196,-0.00437843,-0.29184,0.00489703,0.0102622,713,1408,-0.487837,-1.71658
-504,-384,-0.478455,1.79663,0.00342144,-0.00423383,-0.00386094,0.0050305,-0.00584289,-0.394865,0.00628359,0.0105479,720,1408,-0.478439,-1.79661
-497,-384,-0.467529,1.85474,0.00299186,-0.00387265,-0.00515303,0.00575106,-0.00663185,-0.491605,0.0071553,0.0106332,727,1408,-0.46754,-1.85475
-490,-384,-0.432556,1.87769,0.00193932,-0.0024095,-0.0064664,0.0065871,-0.00705729,-0.623206,0.00787916,0.0181728,734,1408,-0.43258,-1.87768
-483,-384,-0.469299,1.85632,0.000952583,-0.0002608,-0.00791569,0.0082848,-0.00759302,-0.747151,0.00916996,0.0357337,741,1408,-0.469281,-1.85634
-476,-384,-0.454285,1.69739,-0.00148759,0.00368821,-0.00929551,0.0107493,-0.00854871,-0.921162,0.0111659,0.0431026,748,1408,-0.454313,-1.69737
-469,-384,0.0314941,0.949951,-0.00597924,0.0094008,-0.0104362,0.0146743,-0.0112527,-1.10292,0.0150123,0.0438427,755,1408,0.0314782,-0.94989
-462,-384,0.35968,0.564331,0,0,0,0,0,0,0,-1,762,1408,0.35969,-0.564306
-455,-384,1.47394,0.345703,0,0,0,0,0,0,0,-1,769,1408,1.47393,-0.345716
-448,-384,-1.60376,2.11328,0,0,0,0,0,0,0,-1,776,1408,-1.60379,-2.1133
-441,-384,-2.01154,2.90137,0,0,0,0,0,0,0,-1,783,1408,-2.01152,-2.90138
-434,-384,-2.41925,3.68945,0,0,0,0,0,0,0,-1,790,1408,-2.41925,-3.68947
-427,-384,-1.48401,0.116455,0,0,0,0,0,0,0,-1,797,1408,-1.48403,-0.11649
-420,-384,-1.67053,0.0454102,0,0,0,0,0,0,0,-1,804,1408,-1.67053,-0.0453977
-413,-384,0,0,0,0,0,0,0,0,0,-1,811,1408,0,0
-406,-384,0,0,0,0,0,0,0,0,0,-1,818,1408,0,0
-399,-384,0,0,0,0,0,0,0,0,0,-1,825,1408,0,0
-392,-384,0,0,0,0,0,0,0,0,0,-1,832,1408,0,0
-385,-384,0,0,0,0,0,0,0,0,0,-1,839,1408,0,0
-378,-384,0,0,0,0,0,0,0,0,0,-1,846,1408,0,0
-371,-384,0,0,0,0,0,0,0,0,0,-1,853,1408,0,0
-364,-384,0,0,0,0,0,0,0,0,0,-1,860,1408,0,0
-357,-384,0,0,0,0,0,0,0,0,0,-1,867,1408,0,0
-350,-384,0,0,0,0,0,0,0,0,0,-1,874,1408,0,0
-343,-384,0,0,0,0,0,0,0,0,0,-1,881,1408,0,0
-336,-384,0,0,0,0,0,0,0,0,0,-1,888,1408,0,0
-329,-384,0,0,0,0,0,0,0,0,0,-1,895,1408,0,0
-322,-384,0,0,0,0,0,0,0,0,0,-1,902,1408,0,0
-315,-384,0,0,0,0,0,0,0,0,0,-1,909,1408,0,0
-308,-384,0,0,0,0,0,0,0,0,0,-1,916,1408,0,0
-301,-384,0,0,0,0,0,0,0,0,0,-1,923,1408,0,0
-294,-384,0,0,0,0,0,0,0,0,0,-1,930,1408,0,0
-287,-384,0,0,0,0,0,0,0,0,0,-1,937,1408,0,0
-280,-384,0,0,0,0,0,0,0,0,0,-1,944,1408,0,0
-273,-384,0,0,0,0,0,0,0,0,0,-1,951,1408,0,0
-266,-384,0,0,0,0,0,0,0,0,0,-1,958,1408,0,0
-259,-384,0,0,0,0,0,0,0,0,0,-1,965,1408,0,0
-252,-384,0,0,0,0,0,0,0,0,0,-1,972,1408,0,0
-245,-384,0,0,0,0,0,0,0,0,0,-1,979,1408,0,0
-238,-384,0,0,0,0,0,0,0,0,0,-1,986,1408,0,0
-231,-384,0,0,0,0,0,0,0,0,0,-1,993,1408,0,0
-224,-384,0,0,0,0,0,0,0,0,0,-1,1000,1408,0,0
-217,-384,0,0,0,0,0,0,0,0,0,-1,1007,1408,0,0
-210,-384,0,0,0,0,0,0,0,0,0,-1,1014,1408,0,0
-203,-384,0,0,0,0,0,0,0,0,0,-1,1021,1408,0,0
-196,-384,0,0,0,0,0,0,0,0,0,-1,1028,1408,0,0
-189,-384,0,0,0,0,0,0,0,0,0,-1,1035,1408,0,0
-182,-384,0,0,0,0,0,0,0,0,0,-1,1042,1408,0,0
-175,-384,0,0,0,0,0,0,0,0,0,-1,1049,1408,0,0
-168,-384,0,0,0,0,0,0,0,0,0,-1,1056,1408,0,0
-161,-384,0,0,0,0,0,0,0,0,0,-1,1063,1408,0,0
-154,-384,0,0,0,0,0,0,0,0,0,-1,1070,1408,0,0
-147,-384,0,0,0,0,0,0,0,0,0,-1,1077,1408,0,0
-140,-384,0,0,0,0,0,0,0,0,0,-1,1084,1408,0,0
-133,-384,0,0,0,0,0,0,0,0,0,-1,1091,1408,0,0
-126,-384,0,0,0,0,0,0,0,0,0,-1,1098,1408,0,0
-119,-384,0,0,0,0,0,0,0,0,0,-1,1105,1408,0,0
-112,-384,0,0,0,0,0,0,0,0,0,-1,1112,1408,0,0
-105,-384,0,0,0,0,0,0,0,0,0,-1,1119,1408,0,0
-98,-384,0,0,0,0,0,0,0,0,0,-1,1126,1408,0,0
-91,-384,0,0,0,0,0,0,0,0,0,-1,1133,1408,0,0
-84,-384,0,0,0,0,0,0,0,0,0,-1,1140,1408,0,0
-77,-384,0,0,0,0,0,0,0,0,0,-1,1147,1408,0,0
-70,-384,0,0,0,0,0,0,0,0,0,-1,1154,1408,0,0
-63,-384,0,0,0,0,0,0,0,0,0,-1,1161,1408,0,0
-56,-384,0,0,0,0,0,0,0,0,0,-1,1168,1408,0,0
-49,-384,0,0,0,0,0,0,0,0,0,-1,1175,1408,0,0
-42,-384,0,0,0,0,0,0,0,0,0,-1,1182,1408,0,0
-35,-384,0,0,0,0,0,0,0,0,0,-1,1189,1408,0,0
-28,-384,0,0,0,0,0,0,0,0,0,-1,1196,1408,0,0
-21,-384,0,0,0,0,0,0,0,0,0,-1,1203,1408,0,0
-14,-384,0,0,0,0,0,0,0,0,0,-1,1210,1408,0,0
-7,-384,0,0,0,0,0,0,0,0,0,-1,1217,1408,0,0
0,-384,0,0,0,0,0,0,0,0,0,-1,1224,1408,0,0
7,-384,0,0,0,0,0,0,0,0,0,-1,1231,1408,0,0
14,-384,0,0,0,0,0,0,0,0,0,-1,1238,1408,0,0
21,-384,0,0,0,0,0,0,0,0,0,-1,1245,1408,0,0
28,-384,0,0,0,0,0,0,0,0,0,-1,1252,1408,0,0
35,-384,0,0,0,0,0,0,0,0,0,-1,1259,1408,0,0
42,-384,0,0,0,0,0,0,0,0,0,-1,1266,1408,0,0
49,-384,0,0,0,0,0,0,0,0,0,-1,1273,1408,0,0
56,-384,0,0,0,0,0,0,0,0,0,-1,1280,1408,0,0
63,-384,0,0,0,0,0,0,0,0,0,-1,1287,1408,0,0
70,-384,0,0,0,0,0,0,0,0,0,-1,1294,1408,0,0
77,-384,0,0,0,0,0,0,0,0,0,-1,1301,1408,0,0
84,-384,0,0,0,0,0,0,0,0,0,-1,1308,1408,0,0
91,-384,0,0,0,0,0,0,0,0,0,-1,1315,1408,0,0
98,-384,0,0,0,0,0,0,0,0,0,-1,1322,1408,0,0
105,-384,0,0,0,0,0,0,0,0,0,-1,1329,1408,0,0
112,-384,0,0,0,0,0,0,0,0,0,-1,1336,1408,0,0
119,-384,0,0,0,0,0,0,0,0,0,-1,1343,1408,0,0
126,-384,0,0,0,0,0,0,0,0,0,-1,1350,1408,0,0
133,-384,0,0,0,0,0,0,0,0,0,-1,1357,1408,0,0
140,-384,0,0,0,0,0,0,0,0,0,-1,1364,1408,0,0
147,-384,0,0,0,0,0,0,0,0,0,-1,1371,1408,0,0
154,-384,0,0,0,0,0,0,0,0,0,-1,1378,1408,0,0
161,-384,0,0,0,0,0,0,0,0,0,-1,1385,1408,0,0
168,-384,0,0,0,0,0,0,0,0,0,-1,1392,1408,0,0
175,-384,0,0,0,0,0,0,0,0,0,-1,1399,1408,0,0
182,-384,0,0,0,0,0,0,0,0,0,-1,1406,1408,0,0
189,-384,0,0,0,0,0,0,0,0,0,-1,1413,1408,0,0
196,-384,0,0,0,0,0,0,0,0,0,-1,1420,1408,0,0
203,-384,0,0,0,0,0,0,0,0,0,-1,1427,1408,0,0
210,-384,0,0,0,0,0,0,0,0,0,-1,1434,1408,0,0
217,-384,0,0,0,0,0,0,0,0,0,-1,1441,1408,0,0
224,-384,0,0,0,0,0,0,0,0,0,-1,1448,1408,0,0
231,-384,0,0,0,0,0,0,0,0,0,-1,1455,1408,0,0
238,-384,0,0,0,0,0,0,0,0,0,-1,1462,1408,0,0
245,-384,0,0,0,0,0,0,0,0,0,-1,1469,1408,0,0
252,-384,0,0,0,0,0,0,0,0,0,-1,1476,1408,0,0
259,-384,0,0,0,0,0,0,0,0,0,-1,1483,1408,0,0
266,-384,0,0,0,0,0,0,0,0,0,-1,1490,1408,0,0
273,-384,0,0,0,0,0,0,0,0,0,-1,1497,1408,0,0
280,-384,0,0,0,0,0,0,0,0,0,-1,1504,1408,0,0
287,-384,0,0,0,0,0,0,0,0,0,-1,1511,1408,0,0
294,-384,0,0,0,0,0,0,0,0,0,-1,1518,1408,0,0
301,-384,0,0,0,0,0,0,0,0,0,-1,1525,1408,0,0
308,-384,0,0,0,0,0,0,0,0,0,-1,1532,1408,0,0
315,-384,0,0,0,0,0,0,0,0,0,-1,1539,1408,0,0
322,-384,0,0,0,0,0,0,0,0,0,-1,1546,1408,0,0
329,-384,0,0,0,0,0,0,0,0,0,-1,1553,1408,0,0
336,-384,0,0,0,0,0,0,0,0,0,-1,1560,1408,0,0
343,-384,0,0,0,0,0,0,0,0,0,-1,1567,1408,0,0
350,-384,0,0,0,0,0,0,0,0,0,-1,1574,1408,0,0
357,-384,0,0,0,0,0,0,0,0,0,-1,1581,1408,0,0
364,-384,0,0,0,0,0,0,0,0,0,-1,1588,1408,0,0
371,-384,0,0,0,0,0,0,0,0,0,-1,1595,1408,0,0
378,-384,0,0,0,0,0,0,0,0,0,-1,1602,1408,0,0
385,-384,0,0,0,0,0,0,0,0,0,-1,1609,1408,0,0
392,-384,0,0,0,0,0,0,0,0,0,-1,1616,1408,0,0
399,-384,0,0,0,0,0,0,0,0,0,-1,1623,1408,0,0
406,-384,0,0,0,0,0,0,0,0,0,-1,1630,1408,0,0
413,-384,0,0,0,0,0,0,0,0,0,-1,1637,1408,0,0
420,-384,0,0,0,0,0,0,0,0,0,-1,1644,1408,0,0
427,-384,0,0,0,0,0,0,0,0,0,-1,1651,1408,0,0
434,-384,0,0,0,0,0,0,0,0,0,-1,1658,1408,0,0
441,-384,0,0,0,0,0,0,0,0,0,-1,1665,1408,0,0
448,-384,0,0,0,0,0,0,0,0,0,-1,1672,1408,0,0
455,-384,0,0,0,0,0,0,0,0,0,-1,1679,1408,0,0
462,-384,0,0,0,0,0,0,0,0,0,-1,1686,1408,0,0
469,-384,0,0,0,0,0,0,0,0,0,-1,1693,1408,0,0
476,-384,0,0,0,0,0,0,0,0,0,-1,1700,1408,0,0
483,-384,0,0,0,0,0,0,0,0,0,-1,1707,1408,0,0
490,-384,0,0,0,0,0,0,0,0,0,-1,1714,1408,0,0
497,-384,0,0,0,0,0,0,0,0,0,-1,1721,1408,0,0
504,-384,0,0,0,0,0,0,0,0,0,-1,1728,1408,0,0
511,-384,0,0,0,0,0,0,0,0,0,-1,1735,1408,0,0
518,-384,0,0,0,0,0,0,0,0,0,-1,1742,1408,0,0
525,-384,0,0,0,0,0,0,0,0,0,-1,1749,1408,0,0
532,-384,0,0,0,0,0,0,0,0,0,-1,1756,1408,0,0
539,-384,8.25671,-0.719238,0,0,0,0,0,0,0,-1,1763,1408,8.25673,0.719265
546,-384,8.33472,0.0722656,0,0,0,0,0,0,0,-1,1770,1408,8.33467,-0.0722207
553,-384,8.03821,0.593872,-0.00416547,0.00396548,0.0602456,0.0602826,-0.0604826,0.819088,0.0697239,0.0406607,1777,1408,8.03823,-0.593888
560,-384,8.67651,1.24414,-0.0165798,0.00317193,0.0489512,0.0432336,-0.0566414,0.884936,0.0578358,0.0429198,1784,1408,8.67653,-1.24411
567,-384,9.46448,1.51575,-0.0226205,0.00211363,0.0401454,0.0317537,-0.0522605,0.934814,0.0489849,0.0433603,1791,1408,9.4645,-1.51572
574,-384,4.90503,1.68176,0,0,0,0,0,0,0,-1,1798,1408,4.90508,-1.68175
581,-384,5.15955,1.2738,-0.0242046,-0.000463962,0.0276219,0.0177302,-0.0423988,0.988339,0.0356761,0.0430694,1805,1408,5.15958,-1.27386
588,-384,5.46863,1.0304,0,0,0,0,0,0,0,-1,1812,1408,5.46859,-1.03041
595,-384,5.1637,0.900635,0,0,0,0,0,0,0,-1,1819,1408,5.16375,-0.90068
602,-384,4.68982,0.841919,0,0,0,0,0,0,0,-1,1826,1408,4.68978,-0.841927
609,-384,4.85278,1.15759,0,0,0,0,0,0,0,-1,1833,1408,4.85277,-1.1576
616,-384,5.11572,1.78406,-0.0120392,-0.00484916,0.00825994,0.000564176,-0.0174526,0.990654,0.0118276,0.0399823,1840,1408,5.11569,-1.78404
623,-384,5.20874,2.15259,-0.00611203,-0.00416533,0.00639911,0.00133404,-0.0116114,0.860873,0.00822176,0.0266372,1847,1408,5.20869,-2.15263
630,-384,5.19885,2.09583,-0.00141002,-0.00562295,0.00499574,0.00190519,-0.00893816,0.585882,0.00668496,0.0158289,1854,1408,5.19882,-2.09582
637,-384,5.18237,2.07983,0.000602791,-0.00441202,0.00496488,0.0036575,-0.00746673,0.551567,0.00654688,0.0142163,1861,1408,5.18236,-2.07989
644,-384,5.18689,1.995,0.00152472,-0.00364194,0.0040075,0.00370937,-0.0058266,0.499105,0.00555064,0.014156,1868,1408,5.18683,-1.99499
651,-384,5.20996,1.90186,0.00174284,-0.00307638,0.00319132,0.00333207,-0.00466561,0.462035,0.00463881,0.0139399,1875,1408,5.20993,-1.90185
658,-384,5.21838,1.84143,0.00234841,-0.00290098,0.00189632,0.00296178,-0.00351435,0.312831,0.00374353,0.0140922,1882,1408,5.21839,-1.84145
665,-384,5.21558,1.79077,0.00376209,-0.00281312,0.000462388,0.00379445,-0.00284548,0.0698647,0.00384659,0.0145986,1889,1408,5.21561,-1.79079
672,-384,5.22937,1.72473,0.00537562,-0.00326182,-0.00109879,0.00551321,-0.0033994,-0.124569,0.00519372,0.0139413,1896,1408,5.22943,-1.72474
679,-384,5.19055,1.66968,0.00757022,-0.00406311,-0.00236958,0.00803436,-0.00452725,-0.193425,0.00734607,0.0153499,1903,1408,5.19051,-1.66973
686,-384,5.16785,1.62842,0.0106487,-0.00554389,-0.00379473,0.0114939,-0.00638907,-0.219147,0.010464,0.0118859,1910,1408,5.1678,-1.6284
693,-384,5.18799,1.57019,0.0146323,-0.00724498,-0.00584358,0.0160954,-0.008708,-0.245321,0.0145304,0.0140268,1917,1408,5.18795,-1.57021
700,-384,5.1311,1.66028,0.0195755,-0.00920552,-0.00825996,0.0217776,-0.0114076,-0.260536,0.0194688,0.0302739,1924,1408,5.13113,-1.66031
707,-384,4.85425,1.54724,0.0254465,-0.0114999,-0.011064,0.0285063,-0.0145597,-0.269813,0.0252951,0.0450608,1931,1408,4.85422,-1.54725
714,-384,4.62878,1.36621,0,0,0,0,0,0,0,-1,1938,1408,4.62876,-1.36621
721,-384,5.72949,2.06494,0,0,0,0,0,0,0,-1,1945,1408,5.72954,-2.06491
728,-384,5.44165,1.93701,0,0,0,0,0,0,0,-1,1952,1408,5.44167,-1.93707
735,-384,5.69666,2.4408,0,0,0,0,0,0,0,-1,1959,1408,5.6966,-2.44078
742,-384,0,0,0,0,0,0,0,0,0,-1,1966,1408,0,0
749,-384,0,0,0,0,0,0,0,0,0,-1,1973,1408,0,0
756,-384,0,0,0,0,0,0,0,0,0,-1,1980,1408,0,0
763,-384,0,0,0,0,0,0,0,0,0,-1,1987,1408,0,0
770,-384,0,0,0,0,0,0,0,0,0,-1,1994,1408,0,0
777,-384,0,0,0,0,0,0,0,0,0,-1,2001,1408,0,0
784,-384,0,0,0,0,0,0,0,0,0,-1,2008,1408,0,0
791,-384,0,0,0,0,0,0,0,0,0,-1,2015,1408,0,0
798,-384,0,0,0,0,0,0,0,0,0,-1,2022,1408,0,0
805,-384,0,0,0,0,0,0,0,0,0,-1,2029,1408,0,0
812,-384,0,0,0,0,0,0,0,0,0,-1,2036,1408,0,0
-700,-391,0,0,0,0,0,0,0,0,0,-1,524,1415,0,0
-693,-391,0,0,0,0,0,0,0,0,0,-1,531,1415,0,0
-686,-391,0,0,0,0,0,0,0,0,0,-1,538,1415,0,0
-679,-391,0,0,0,0,0,0,0,0,0,-1,545,1415,0,0
-672,-391,0,0,0,0,0,0,0,0,0,-1,552,1415,0,0
-665,-391,0,0,0,0,0,0,0,0,0,-1,559,1415,0,0
-658,-391,0,0,0,0,0,0,0,0,0,-1,566,1415,0,0
-651,-391,0,0,0,0,0,0,0,0,0,-1,573,1415,0,0
-644,-391,0,0,0,0,0,0,0,0,0,-1,580,1415,0,0
-637,-391,0,0,0,0,0,0,0,0,0,-1,587,1415,0,0
-630,-391,0,0,0,0,0,0,0,0,0,-1,594,1415,0,0
-623,-391,0,0,0,0,0,0,0,0,0,-1,601,1415,0,0
-616,-391,0,0,0,0,0,0,0,0,0,-1,608,1415,0,0
-609,-391,-0.0767822,-1.01941,0,0,0,0,0,0,0,-1,615,1415,-0.0768068,1.01935
-602,-391,3.21973,-4.01575,0,0,0,0,0,0,0,-1,622,1415,3.21971,4.01572
-595,-391,2.73621,-2.99463,0,0,0,0,0,0,0,-1,629,1415,2.73618,2.9946
-588,-391,0.0314941,-0.304199,0,0,0,0,0,0,0,-1,636,1415,0.0315046,0.304147
-581,-391,-0.109863,0.0776367,0,0,0,0,0,0,0,-1,643,1415,-0.109887,-0.0776009
-574,-391,-0.239929,0.590698,-0.0157247,0.0324985,0.026425,0.0441591,-0.0273853,1.15523,0.0416829,0.0464369,650,1415,-0.239955,-0.590753
-567,-391,-0.393799,1.00134,-0.0131267,0.0267576,0.0216705,0.0362654,-0.0226345,1.15734,0.034308,0.0430467,657,1415,-0.393775,-1.00128
-560,-391,-0.423401,1.26672,-0.0104268,0.020185,0.0176199,0.0282186,-0.0184604,1.14301,0.0271457,0.0310832,664,1415,-0.423429,-1.26672
-553,-391,-0.384399,1.29395,-0.00777035,0.0146284,0.0140008,0.0213581,-0.0145,1.12274,0.0208285,0.0179416,671,1415,-0.38442,-1.29399
-546,-391,-0.399414,1.36206,-0.00518997,0.0101864,0.010525,0.0155322,-0.0105357,1.10084,0.0151422,0.0107618,678,1415,-0.399395,-1.36208
-539,-391,-0.39093,1.43481,-0.00270191,0.00686717,0.00767423,0.0111262,-0.00696091,1.06414,0.0105345,0.0131748,685,1415,-0.390956,-1.43484
-532,-391,-0.370667,1.50488,-0.000679767,0.00419226,0.00494664,0.00727018,-0.00375768,1.0142,0.00647369,0.0239156,692,1415,-0.37069,-1.50487
-525,-391,-0.387817,1.58276,0.000817155,0.00197093,0.00236991,0.00383315,-0.00104507,0.904787,0.00296582,0.021257,699,1415,-0.387819,-1.58276
-518,-391,-0.417297,1.646,0.00198846,-4.35838e-05,3.6301e-05,0.00198911,-4.42321e-05,0.0178566,0.00134106,0.012767,706,1415,-0.417327,-1.64603
-511,-391,-0.40863,1.70349,0.00275919,-0.00195589,-0.00172814,0.00332474,-0.00252144,-0.316274,0.0033859,0.01117,713,1415,-0.408619,-1.70346
-504,-391,-0.391479,1.7793,0.00255516,-0.00229159,-0.00339169,0.00430028,-0.00403671,-0.475201,0.00481416,0.00981041,720,1415,-0.391473,-1.77931
-497,-391,-0.386902,1.84277,0.00203373,-0.00179833,-0.00485102,0.0053334,-0.005098,-0.597315,0.00602309,0.00836866,727,1415,-0.386875,-1.84273
-490,-391,-0.386963,1.9021,0.00113668,-0.00038705,-0.00630938,0.00673002,-0.00598039,-0.725313,0.00734262,0.0101753,734,1415,-0.386959,-1.90206
-483,-391,-0.367249,1.90918,0.000450935,0.00168111,-0.00792655,0.0090164,-0.00688436,-0.82412,0.00920778,0.0245434,741,1415,-0.367271,-1.9092
-476,-391,-0.210388,1.64111,-0.00150453,0.00521673,-0.00949327,0.0119266,-0.00821445,-0.955516,0.0116941,0.0400613,748,1415,-0.210388,-1.64108
-469,-391,0.624512,0.72876,-0.00528309,0.0100785,-0.0109069,0.0157377,-0.0109423,-1.09217,0.0154864,0.0464601,755,1415,0.624509,-0.728738
-462,-391,1.2912,0.290649,-0.0105653,0.0164632,-0.0120709,0.0210692,-0.0151712,-1.20627,0.0210156,0.0447146,762,1415,1.29119,-0.290706
-455,-391,2.06653,0.184326,0,0,0,0,0,0,0,-1,769,1415,2.06651,-0.184365
-448,-391,2.5932,-0.0742188,0,0,0,0,0,0,0,-1,776,1415,2.59322,0.074221
-441,-391,-1.40717,2.16541,0,0,0,0,0,0,0,-1,783,1415,-1.40714,-2.1654
-434,-391,-1.81586,0.529907,0,0,0,0,0,0,0,-1,790,1415,-1.81588,-0.529855
-427,-391,-2.09137,0.466431,0,0,0,0,0,0,0,-1,797,1415,-2.09137,-0.46637
-420,-391,-2.26318,0.365234,0,0,0,0,0,0,0,-1,804,1415,-2.26317,-0.365256
-413,-391,0,0,0,0,0,0,0,0,0,-1,811,1415,0,0
-406,-391,0,0,0,0,0,0,0,0,0,-1,818,1415,0,0
-399,-391,0,0,0,0,0,0,0,0,0,-1,825,1415,0,0
-392,-391,0,0,0,0,0,0,0,0,0,-1,832,1415,0,0
-385,-391,0,0,0,0,0,0,0,0,0,-1,839,1415,0,0
-378,-391,0,0,0,0,0,0,0,0,0,-1,846,1415,0,0
-371,-391,0,0,0,0,0,0,0,0,0,-1,853,1415,0,0
-364,-391,0,0,0,0,0,0,0,0,0,-1,860,1415,0,0
-357,-391,0,0,0,0,0,0,0,0,0,-1,867,1415,0,0
-350,-391,0,0,0,0,0,0,0,0,0,-1,874,1415,0,0
-343,-391,0,0,0,0,0,0,0,0,0,-1,881,1415,0,0
-336,-391,0,0,0,0,0,0,0,0,0,-1,888,1415,0,0
-329,-391,0,0,0,0,0,0,0,0,0,-1,895,1415,0,0
-322,-391,0,0,0,0,0,0,0,0,0,-1,902,1415,0,0
-315,-391,0,0,0,0,0,0,0,0,0,-1,909,1415,0,0
-308,-391,0,0,0,0,0,0,0,0,0,-1,916,1415,0,0
-301,-391,0,0,0,0,0,0,0,0,0,-1,923,1415,0,0
-294,-391,0,0,0,0,0,0,0,0,0,-1,930,1415,0,0
-287,-391,0,0,0,0,0,0,0,0,0,-1,937,1415,0,0
-280,-391,0,0,0,0,0,0,0,0,0,-1,944,1415,0,0
-273,-391,0,0,0,0,0,0,0,0,0,-1,951,1415,0,0
-266,-391,0,0,0,0,0,0,0,0,0,-1,958,1415,0,0
-259,-391,0,0,0,0,0,0,0,0,0,-1,965,1415,0,0
-252,-391,0,0,0,0,0,0,0,0,0,-1,972,1415,0,0
-245,-391,0,0,0,0,0,0,0,0,0,-1,979,1415,0,0
-238,-391,0,0,0,0,0,0,0,0,0,-1,986,1415,0,0
-231,-391,0,0,0,0,0,0,0,0,0,-1,993,1415,0,0
-224,-391,0,0,0,0,0,0,0,0,0,-1,1000,1415,0,0
-217,-391,0,0,0,0,0,0,0,0,0,-1,1007,1415,0,0
-210,-391,0,0,0,0,0,0,0,0,0,-1,1014,1415,0,0
-203,-391,0,0,0,0,0,0,0,0,0,-1,1021,1415,0,0
-196,-391,0,0,0,0,0,0,0,0,0,-1,1028,1415,0,0
-189,-391,0,0,0,0,0,0,0,0,0,-1,1035,1415,0,0
-182,-391,0,0,0,0,0,0,0,0,0,-1,1042,1415,0,0
-175,-391,0,0,0,0,0,0,0,0,0,-1,1049,1415,0,0
-168,-391,0,0,0,0,0,0,0,0,0,-1,1056,1415,0,0
-161,-391,0,0,0,0,0,0,0,0,0,-1,1063,1415,0,0
-154,-391,0,0,0,0,0,0,0,0,0,-1,1070,1415,0,0
-147,-391,0,0,0,0,0,0,0,0,0,-1,1077,1415,0,0
-140,-391,0,0,0,0,0,0,0,0,0,-1,1084,1415,0,0
-133,-391,0,0,0,0,0,0,0,0,0,-1,1091,1415,0,0
-126,-391,0,0,0,0,0,0,0,0,0,-1,1098,1415,0,0
-119,-391,0,0,0,0,0,0,0,0,0,-1,1105,1415,0,0
-112,-391,0,0,0,0,0,0,0,0,0,-1,1112,1415,0,0
-105,-391,0,0,0,0,0,0,0,0,0,-1,1119,1415,0,0
-98,-391,0,0,0,0,0,0,0,0,0,-1,1126,1415,0,0
-91,-391,0,0,0,0,0,0,0,0,0,-1,1133,1415,0,0
-84,-391,0,0,0,0,0,0,0,0,0,-1,1140,1415,0,0
-77,-391,0,0,0,0,0,0,0,0,0,-1,1147,1415,0,0
-70,-391,0,0,0,0,0,0,0,0,0,-1,1154,1415,0,0
-63,-391,0,0,0,0,0,0,0,0,0,-1,1161,1415,0,0
-56,-391,0,0,0,0,0,0,0,0,0,-1,1168,1415,0,0
-49,-391,0,0,0,0,0,0,0,0,0,-1,1175,1415,0,0
-42,-391,0,0,0,0,0,0,0,0,0,-1,1182,1415,0,0
-35,-391,0,0,0,0,0,0,0,0,0,-1,1189,1415,0,0
-28,-391,0,0,0,0,0,0,0,0,0,-1,1196,1415,0,0
-21,-391,0,0,0,0,0,0,0,0,0,-1,1203,1415,0,0
-14,-391,0,0,0,0,0,0,0,0,0,-1,1210,1415,0,0
-7,-391,0,0,0,0,0,0,0,0,0,-1,1217,1415,0,0
0,-391,0,0,0,0,0,0,0,0,0,-1,1224,1415,0,0
7,-391,0,0,0,0,0,0,0,0,0,-1,1231,1415,0,0
14,-391,0,0,0,0,0,0,0,0,0,-1,1238,1415,0,0
21,-391,0,0,0,0,0,0,0,0,0,-1,1245,1415,0,0
28,-391,0,0,0,0,0,0,0,0,0,-1,1252,1415,0,0
35,-391,0,0,0,0,0,0,0,0,0,-1,1259,1415,0,0
42,-391,0,0,0,0,0,0,0,0,0,-1,1266,1415,0,0
49,-391,0,0,0,0,0,0,0,0,0,-1,1273,1415,0,0
56,-391,0,0,0,0,0,0,0,0,0,-1,1280,1415,0,0
63,-391,0,0,0,0,0,0,0,0,0,-1,1287,1415,0,0
70,-391,0,0,0,0,0,0,0,0,0,-1,1294,1415,0,0
77,-391,0,0,0,0,0,0,0,0,0,-1,1301,1415,0,0
84,-391,0,0,0,0,0,0,0,0,0,-1,1308,1415,0,0
91,-391,0,0,0,0,0,0,0,0,0,-1,1315,1415,0,0
98,-391,0,0,0,0,0,0,0,0,0,-1,1322,1415,0,0
105,-391,0,0,0,0,0,0,0,0,0,-1,1329,1415,0,0
112,-391,0,0,0,0,0,0,0,0,0,-1,1336,1415,0,0
119,-391,0,0,0,0,0,0,0,0,0,-1,1343,1415,0,0
126,-391,0,0,0,0,0,0,0,0,0,-1,1350,1415,0,0
133,-391,0,0,0,0,0,0,0,0,0,-1,1357,1415,0,0
140,-391,0,0,0,0,0,0,0,0,0,-1,1364,1415,0,0
147,-391,0,0,0,0,0,0,0,0,0,-1,1371,1415,0,0
154,-391,0,0,0,0,0,0,0,0,0,-1,1378,1415,0,0
161,-391,0,0,0,0,0,0,0,0,0,-1,1385,1415,0,0
168,-391,0,0,0,0,0,0,0,0,0,-1,1392,1415,0,0
175,-391,0,0,0,0,0,0,0,0,0,-1,1399,1415,0,0
182,-391,0,0,0,0,0,0,0,0,0,-1,1406,1415,0,0
189,-391,0,0,0,0,0,0,0,0,0,-1,1413,1415,0,0
196,-391,0,0,0,0,0,0,0,0,0,-1,1420,1415,0,0
203,-391,0,0,0,0,0,0,0,0,0,-1,1427,1415,0,0
210,-391,0,0,0,0,0,0,0,0,0,-1,1434,1415,0,0
217,-391,0,0,0,0,0,0,0,0,0,-1,1441,1415,0,0
224,-391,0,0,0,0,0,0,0,0,0,-1,1448,1415,0,0
231,-391,0,0,0,0,0,0,0,0,0,-1,1455,1415,0,0
238,-391,0,0,0,0,0,0,0,0,0,-1,1462,1415,0,0
245,-391,0,0,0,0,0,0,0,0,0,-1,1469,1415,0,0
252,-391,0,0,0,0,0,0,0,0,0,-1,1476,1415,0,0
259,-391,0,0,0,0,0,0,0,0,0,-1,1483,1415,0,0
266,-391,0,0,0,0,0,0,0,0,0,-1,1490,1415,0,0
273,-391,0,0,0,0,0,0,0,0,0,-1,1497,1415,0,0
280,-391,0,0,0,0,0,0,0,0,0,-1,1504,1415,0,0
287,-391,0,0,0,0,0,0,0,0,0,-1,1511,1415,0,0
294,-391,0,0,0,0,0,0,0,0,0,-1,1518,1415,0,0
301,-391,0,0,0,0,0,0,0,0,0,-1,1525,1415,0,0
308,-391,0,0,0,0,0,0,0,0,0,-1,1532,1415,0,0
315,-391,0,0,0,0,0,0,0,0,0,-1,1539,1415,0,0
322,-391,0,0,0,0,0,0,0,0,0,-1,1546,1415,0,0
329,-391,0,0,0,0,0,0,0,0,0,-1,1553,1415,0,0
336,-391,0,0,0,0,0,0,0,0,0,-1,1560,1415,0,0
343,-391,0,0,0,0,0,0,0,0,0,-1,1567,1415,0,0
350,-391,0,0,0,0,0,0,0,0,0,-1,1574,1415,0,0
357,-391,0,0,0,0,0,0,0,0,0,-1,1581,1415,0,0
364,-391,0,0,0,0,0,0,0,0,0,-1,1588,1415,0,0
371,-391,0,0,0,0,0,0,0,0,0,-1,1595,1415,0,0
378,-391,0,0,0,0,0,0,0,0,0,-1,1602,1415,0,0
385,-391,0,0,0,0,0,0,0,0,0,-1,1609,1415,0,0
392,-391,0,0,0,0,0,0,0,0,0,-1,1616,1415,0,0
399,-391,0,0,0,0,0,0,0,0,0,-1,1623,1415,0,0
406,-391,0,0,0,0,0,0,0,0,0,-1,1630,1415,0,0
413,-391,0,0,0,0,0,0,0,0,0,-1,1637,1415,0,0
420,-391,0,0,0,0,0,0,0,0,0,-1,1644,1415,0,0
427,-391,0,0,0,0,0,0,0,0,0,-1,1651,1415,0,0
434,-391,0,0,0,0,0,0,0,0,0,-1,1658,1415,0,0
441,-391,0,0,0,0,0,0,0,0,0,-1,1665,1415,0,0
448,-391,0,0,0,0,0,0,0,0,0,-1,1672,1415,0,0
455,-391,0,0,0,0,0,0,0,0,0,-1,1679,1415,0,0
462,-391,0,0,0,0,0,0,0,0,0,-1,1686,1415,0,0
469,-391,0,0,0,0,0,0,0,0,0,-1,1693,1415,0,0
476,-391,0,0,0,0,0,0,0,0,0,-1,1700,1415,0,0
483,-391,0,0,0,0,0,0,0,0,0,-1,1707,1415,0,0
490,-391,0,0,0,0,0,0,0,0,0,-1,1714,1415,0,0
497,-391,0,0,0,0,0,0,0,0,0,-1,1721,1415,0,0
504,-391,0,0,0,0,0,0,0,0,0,-1,1728,1415,0,0
511,-391,0,0,0,0,0,0,0,0,0,-1,1735,1415,0,0
518,-391,0,0,0,0,0,0,0,0,0,-1,1742,1415,0,0
525,-391,0,0,0,0,0,0,0,0,0,-1,1749,1415,0,0
532,-391,8.03406,-1.29004,0.0499136,0.00927723,0.101063,0.132681,-0.07349,0.686198,0.120657,0.0451893,1756,1415,8.03405,1.29007
539,-391,7.89514,-0.615967,0,0,0,0,0,0,0,-1,1763,1415,7.8951,0.616019
546,-391,7.76172,0.0389404,0.0143965,-0.00182863,0.0705326,0.0772816,-0.0647137,0.72814,0.0820879,0.0445045,1770,1415,7.76175,-0.0389518
553,-391,7.86963,0.455933,-0.00150801,-0.00241825,0.0578487,0.0558873,-0.0598136,0.781465,0.0668128,0.0444342,1777,1415,7.86964,-0.455964
560,-391,8.13928,0.597412,0,0,0,0,0,0,0,-1,1784,1415,8.13933,-0.597445
567,-391,5.66345,1.67883,0,0,0,0,0,0,0,-1,1791,1415,5.66341,-1.67883
574,-391,5.78491,1.63147,0,0,0,0,0,0,0,-1,1798,1415,5.78487,-1.63152
581,-391,5.93506,1.54028,0,0,0,0,0,0,0,-1,1805,1415,5.93502,-1.54026
588,-391,5.77417,1.45264,0,0,0,0,0,0,0,-1,1812,1415,5.7742,-1.45267
595,-391,5.36182,1.2981,0,0,0,0,0,0,0,-1,1819,1415,5.36178,-1.29808
602,-391,4.47571,0.96106,0,0,0,0,0,0,0,-1,1826,1415,4.4757,-0.961097
609,-391,5.07666,1.85425,-0.0130433,-0.00697791,0.0105522,0.000968717,-0.0209899,0.925327,0.0143271,0.042061,1833,1415,5.07671,-1.85424
616,-391,5.0946,2.05249,-0.010288,-0.0067172,0.00797759,-0.000327643,-0.0166775,0.895483,0.0110108,0.0271476,1840,1415,5.09457,-2.05253
623,-391,5.12671,2.10132,-0.00546828,-0.00548592,0.00599661,0.000519519,-0.0114737,0.784663,0.00782807,0.0146773,1847,1415,5.12674,-2.10137
630,-391,5.13391,2.07532,-0.00146457,-0.00604949,0.00444715,0.00124623,-0.00876028,0.547417,0.00629684,0.014722,1854,1415,5.13388,-2.07527
637,-391,5.12756,2.04944,0.000207186,-0.00476877,0.00425182,0.00264547,-0.00720706,0.520682,0.00588807,0.0143041,1861,1415,5.12756,-2.04942
644,-391,5.1228,1.97339,0.0011394,-0.00374457,0.00341989,0.00289967,-0.00550484,0.475351,0.00492944,0.0142482,1868,1415,5.12282,-1.97335
651,-391,5.11963,1.90271,0.00151023,-0.00313716,0.00270383,0.00275169,-0.00437861,0.430433,0.00415224,0.0146602,1875,1415,5.11965,-1.90273
658,-391,5.11743,1.86145,0.0025379,-0.00314214,0.00148167,0.00290117,-0.00350541,0.240433,0.00370432,0.0144459,1882,1415,5.11739,-1.86149
665,-391,5.14258,1.80579,0.00457516,-0.00317969,-9.69783e-05,0.00457637,-0.0031809,-0.0125029,0.00450275,0.0121187,1889,1415,5.14253,-1.8058
672,-391,5.14709,1.7301,0.0068231,-0.00387125,-0.00179059,0.00711494,-0.00416309,-0.161565,0.00658529,0.0112815,1896,1415,5.14704,-1.7301
679,-391,5.13135,1.67053,0.00980263,-0.00496577,-0.00335502,0.0105291,-0.00569221,-0.213233,0.00950313,0.0110618,1903,1415,5.13133,-1.67054
686,-391,5.13513,1.63049,0.0138677,-0.00659122,-0.00525311,0.0151376,-0.0078612,-0.237206,0.0134981,0.0116329,1910,1415,5.1351,-1.63055
693,-391,5.15515,1.65283,0.0191544,-0.008376,-0.00798211,0.0213013,-0.0105229,-0.262745,0.0187217,0.0223785,1917,1415,5.15518,-1.65285
700,-391,5.2887,2.03186,0.0257297,-0.0103461,-0.0113656,0.0290118,-0.0136282,-0.281128,0.0251467,0.0403493,1924,1415,5.28875,-2.03184
707,-391,4.77344,1.82605,0.0335188,-0.0125342,-0.0153843,0.0381852,-0.0172006,-0.294502,0.0327331,0.0485022,1931,1415,4.77345,-1.82603
714,-391,5.74219,2.172,0.0423081,-0.0149681,-0.0198453,0.0485121,-0.0211722,-0.302996,0.0412515,0.0491,1938,1415,5.74217,-2.17194
721,-391,6.25989,2.16858,0.0517261,-0.0176899,-0.0244135,0.0594523,-0.0254161,-0.306502,0.0502951,0.0464166,1945,1415,6.25983,-2.16859
728,-391,6.93372,1.94519,0,0,0,0,0,0,0,-1,1952,1415,6.93374,-1.9452
735,-391,0,0,0,0,0,0,0,0,0,-1,1959,1415,0,0
742,-391,0,0,0,0,0,0,0,0,0,-1,1966,1415,0,0
749,-391,0,0,0,0,0,0,0,0,0,-1,1973,1415,0,0
756,-391,0,0,0,0,0,0,0,0,0,-1,1980,1415,0,0
763,-391,0,0,0,0,0,0,0,0,0,-1,1987,1415,0,0
770,-391,0,0,0,0,0,0,0,0,0,-1,1994,1415,0,0
777,-391,0,0,0,0,0,0,0,0,0,-1,2001,1415,0,0
784,-391,0,0,0,0,0,0,0,0,0,-1,2008,1415,0,0
791,-391,0,0,0,0,0,0,0,0,0,-1,2015,1415,0,0
798,-391,0,0,0,0,0,0,0,0,0,-1,2022,1415,0,0
805,-391,0,0,0,0,0,0,0,0,0,-1,2029,1415,0,0
812,-391,0,0,0,0,0,0,0,0,0,-1,2036,1415,0,0
-700,-398,0,0,0,0,0,0,0,0,0,-1,524,1422,0,0
-693,-398,0,0,0,0,0,0,0,0,0,-1,531,1422,0,0
-686,-398,0,0,0,0,0,0,0,0,0,-1,538,1422,0,0
-679,-398,0,0,0,0,0,0,0,0,0,-1,545,1422,0,0
-672,-398,0,0,0,0,0,0,0,0,0,-1,552,1422,0,0
-665,-398,0,0,0,0,0,0,0,0,0,-1,559,1422,0,0
-658,-398,0,0,0,0,0,0,0,0,0,-1,566,1422,0,0
-651,-398,0,0,0,0,0,0,0,0,0,-1,573,1422,0,0
-644,-398,0,0,0,0,0,0,0,0,0,-1,580,1422,0,0
-637,-398,0,0,0,0,0,0,0,0,0,-1,587,1422,0,0
-630,-398,0,0,0,0,0,0,0,0,0,-1,594,1422,0,0
-623,-398,0,0,0,0,0,0,0,0,0,-1,601,1422,0,0
-616,-398,0,0,0,0,0,0,0,0,0,-1,608,1422,0,0
-609,-398,3.74554,-4.48804,0,0,0,0,0,0,0,-1,615,1422,3.74555,4.48809
-602,-398,3.13611,-3.6637,-0.0238082,0.0690959,0.0515465,0.0920328,-0.0467452,1.15213,0.0815332,0.0493202,622,1422,3.1361,3.66371
-595,-398,2.59796,-2.98096,-0.0254139,0.0607406,0.0467498,0.0812337,-0.045907,1.15767,0.0743432,0.0452367,629,1422,2.59795,2.98092
-588,-398,2.01166,-2.20093,-0.0242487,0.0522183,0.0416014,0.0704868,-0.0425172,1.15702,0.0659057,0.0433632,636,1422,2.01163,2.20099
-581,-398,0.276855,-0.860474,0,0,0,0,0,0,0,-1,643,1422,0.276849,0.860514
-574,-398,0.0357056,-0.0714111,-0.0179817,0.0368048,0.0310469,0.0508156,-0.0319925,1.14688,0.0482193,0.0451013,650,1422,0.0357266,0.0714674
-567,-398,-0.300598,0.844238,-0.0143558,0.030545,0.0255938,0.0421396,-0.0259504,1.14543,0.0396804,0.0416502,657,1422,-0.300573,-0.844179
-560,-398,-0.371277,1.07227,-0.0109271,0.0237304,0.0208659,0.0335249,-0.0207216,1.13192,0.0316087,0.0352828,664,1422,-0.371281,-1.07225
-553,-398,-0.317322,1.29138,-0.00781935,0.0180343,0.0166004,0.0261474,-0.0159324,1.11621,0.0245322,0.0214358,671,1422,-0.317327,-1.29136
-546,-398,-0.319031,1.36902,-0.00493682,0.0133838,0.0125905,0.0197937,-0.0113467,1.09989,0.0181981,0.0104916,678,1422,-0.319013,-1.36906
-539,-398,-0.315186,1.44885,-0.00231591,0.00975659,0.00920369,0.0147269,-0.00728622,1.07564,0.012949,0.0111594,685,1422,-0.315185,-1.4488
-532,-398,-0.300842,1.51636,-0.000248828,0.00684043,0.00608626,0.010339,-0.00374742,1.04909,0.00842438,0.0181107,692,1422,-0.300821,-1.51638
-525,-398,-0.336182,1.56677,0.00122191,0.00427911,0.00318035,0.00627914,-0.000778125,1.00942,0.00446811,0.0176529,699,1422,-0.336155,-1.56673
-518,-398,-0.336914,1.62427,0.00226744,0.0021002,0.00065152,0.00284068,0.00152696,0.721574,0.00164161,0.0153742,706,1422,-0.33691,-1.62426
-511,-398,-0.321716,1.67993,0.00286433,0.000150266,-0.00128586,0.00337678,-0.000362187,-0.379238,0.00238112,0.0110719,713,1422,-0.32173,-1.67994
-504,-398,-0.304932,1.74927,0.00256683,-0.000226216,-0.00303931,0.00451511,-0.00217449,-0.570041,0.00394026,0.0110971,720,1422,-0.304935,-1.74921
-497,-398,-0.30835,1.82117,0.00206099,0.000146455,-0.00460249,0.00580471,-0.00359727,-0.682866,0.00547788,0.00901857,727,1422,-0.308328,-1.82112
-490,-398,-0.32312,1.89648,0.00137357,0.00129568,-0.00614007,0.00747482,-0.00480557,-0.782227,0.00714569,0.00885367,734,1422,-0.323099,-1.89653
-483,-398,-0.300659,1.96851,0.0010226,0.00314277,-0.00786067,0.0100145,-0.00584914,-0.852423,0.00926353,0.0136094,741,1422,-0.300676,-1.96851
-476,-398,-0.249634,1.85718,-0.000446278,0.00635004,-0.0096052,0.0131405,-0.0072367,-0.955419,0.0119282,0.0343648,748,1422,-0.249636,-1.85723
-469,-398,1.0929,0.376709,0,0,0,0,0,0,0,-1,755,1422,1.09288,-0.376686
-462,-398,2.00031,-0.0238037,0,0,0,0,0,0,0,-1,762,1422,2.0003,0.0238137
-455,-398,2.83234,0.122437,0,0,0,0,0,0,0,-1,769,1422,2.83233,-0.12239
-448,-398,-1.12756,2.57874,0,0,0,0,0,0,0,-1,776,1422,-1.12756,-2.57873
-441,-398,-1.44379,2.52979,0,0,0,0,0,0,0,-1,783,1422,-1.44378,-2.52978
-434,-398,-2.38074,0.933472,0,0,0,0,0,0,0,-1,790,1422,-2.38075,-0.933495
-427,-398,-2.69037,0.797119,0,0,0,0,0,0,0,-1,797,1422,-2.69034,-0.797088
-420,-398,-2.89722,0.650757,0,0,0,0,0,0,0,-1,804,1422,-2.89719,-0.650795
-413,-398,-2.30591,-1.45142,0,0,0,0,0,0,0,-1,811,1422,-2.30589,1.45142
-406,-398,0,0,0,0,0,0,0,0,0,-1,818,1422,0,0
-399,-398,0,0,0,0,0,0,0,0,0,-1,825,1422,0,0
-392,-398,0,0,0,0,0,0,0,0,0,-1,832,1422,0,0
-385,-398,0,0,0,0,0,0,0,0,0,-1,839,1422,0,0
-378,-398,0,0,0,0,0,0,0,0,0,-1,846,1422,0,0
-371,-398,0,0,0,0,0,0,0,0,0,-1,853,1422,0,0
-364,-398,0,0,0,0,0,0,0,0,0,-1,860,1422,0,0
-357,-398,0,0,0,0,0,0,0,0,0,-1,867,1422,0,0
-350,-398,0,0,0,0,0,0,0,0,0,-1,874,1422,0,0
-343,-398,0,0,0,0,0,0,0,0,0,-1,881,1422,0,0
-336,-398,0,0,0,0,0,0,0,0,0,-1,888,1422,0,0
-329,-398,0,0,0,0,0,0,0,0,0,-1,895,1422,0,0
-322,-398,0,0,0,0,0,0,0,0,0,-1,902,1422,0,0
-315,-398,0,0,0,0,0,0,0,0,0,-1,909,1422,0,0
-308,-398,0,0,0,0,0,0,0,0,0,-1,916,1422,0,0
-301,-398,0,0,0,0,0,0,0,0,0,-1,923,1422,0,0
-294,-398,0,0,0,0,0,0,0,0,0,-1,930,1422,0,0
-287,-398,0,0,0,0,0,0,0,0,0,-1,937,1422,0,0
-280,-398,0,0,0,0,0,0,0,0,0,-1,944,1422,0,0
-273,-398,0,0,0,0,0,0,0,0,0,-1,951,1422,0,0
-266,-398,0,0,0,0,0,0,0,0,0,-1,958,1422,0,0
-259,-398,0,0,0,0,0,0,0,0,0,-1,965,1422,0,0
-252,-398,0,0,0,0,0,0,0,0,0,-1,972,1422,0,0
-245,-398,0,0,0,0,0,0,0,0,0,-1,979,1422,0,0
-238,-398,0,0,0,0,0,0,0,0,0,-1,986,1422,0,0
-231,-398,0,0,0,0,0,0,0,0,0,-1,993,1422,0,0
-224,-398,0,0,0,0,0,0,0,0,0,-1,1000,1422,0,0
-217,-398,0,0,0,0,0,0,0,0,0,-1,1007,1422,0,0
-210,-398,0,0,0,0,0,0,0,0,0,-1,1014,1422,0,0
-203,-398,0,0,0,0,0,0,0,0,0,-1,1021,1422,0,0
-196,-398,0,0,0,0,0,0,0,0,0,-1,1028,1422,0,0
-189,-398,0,0,0,0,0,0,0,0,0,-1,1035,1422,0,0
-182,-398,0,0,0,0,0,0,0,0,0,-1,1042,1422,0,0
-175,-398,0,0,0,0,0,0,0,0,0,-1,1049,1422,0,0
-168,-398,0,0,0,0,0,0,0,0,0,-1,1056,1422,0,0
-161,-398,0,0,0,0,0,0,0,0,0,-1,1063,1422,0,0
-154,-398,0,0,0,0,0,0,0,0,0,-1,1070,1422,0,0
-147,-398,0,0,0,0,0,0,0,0,0,-1,1077,1422,0,0
-140,-398,0,0,0,0,0,0,0,0,0,-1,1084,1422,0,0
-133,-398,0,0,0,0,0,0,0,0,0,-1,1091,1422,0,0
-126,-398,0,0,0,0,0,0,0,0,0,-1,1098,1422,0,0
-119,-398,0,0,0,0,0,0,0,0,0,-1,1105,1422,0,0
-112,-398,0,0,0,0,0,0,0,0,0,-1,1112,1422,0,0
-105,-398,0,0,0,0,0,0,0,0,0,-1,1119,1422,0,0
-98,-398,0,0,0,0,0,0,0,0,0,-1,1126,1422,0,0
-91,-398,0,0,0,0,0,0,0,0,0,-1,1133,1422,0,0
-84,-398,0,0,0,0,0,0,0,0,0,-1,1140,1422,0,0
-77,-398,0,0,0,0,0,0,0,0,0,-1,1147,1422,0,0
-70,-398,0,0,0,0,0,0,0,0,0,-1,1154,1422,0,0
-63,-398,0,0,0,0,0,0,0,0,0,-1,1161,1422,0,0
-56,-398,0,0,0,0,0,0,0,0,0,-1,1168,1422,0,0
-49,-398,0,0,0,0,0,0,0,0,0,-1,1175,1422,0,0
-42,-398,0,0,0,0,0,0,0,0,0,-1,1182,1422,0,0
-35,-398,0,0,0,0,0,0,0,0,0,-1,1189,1422,0,0
-28,-398,0,0,0,0,0,0,0,0,0,-1,1196,1422,0,0
-21,-398,0,0,0,0,0,0,0,0,0,-1,1203,1422,0,0
-14,-398,0,0,0,0,0,0,0,0,0,-1,1210,1422,0,0
-7,-398,0,0,0,0,0,0,0,0,0,-1,1217,1422,0,0
0,-398,0,0,0,0,0,0,0,0,0,-1,1224,1422,0,0
7,-398,0,0,0,0,0,0,0,0,0,-1,1231,1422,0,0
14,-398,0,0,0,0,0,0,0,0,0,-1,1238,1422,0,0
21,-398,0,0,0,0,0,0,0,0,0,-1,1245,1422,0,0
28,-398,0,0,0,0,0,0,0,0,0,-1,1252,1422,0,0
35,-398,0,0,0,0,0,0,0,0,0,-1,1259,1422,0,0
42,-398,0,0,0,0,0,0,0,0,0,-1,1266,1422,0,0
49,-398,0,0,0,0,0,0,0,0,0,-1,1273,1422,0,0
56,-398,0,0,0,0,0,0,0,0,0,-1,1280,1422,0,0
63,-398,0,0,0,0,0,0,0,0,0,-1,1287,1422,0,0
70,-398,0,0,0,0,0,0,0,0,0,-1,1294,1422,0,0
77,-398,0,0,0,0,0,0,0,0,0,-1,1301,1422,0,0
84,-398,0,0,0,0,0,0,0,0,0,-1,1308,1422,0,0
91,-398,0,0,0,0,0,0,0,0,0,-1,1315,1422,0,0
98,-398,0,0,0,0,0,0,0,0,0,-1,1322,1422,0,0
105,-398,0,0,0,0,0,0,0,0,0,-1,1329,1422,0,0
112,-398,0,0,0,0,0,0,0,0,0,-1,1336,1422,0,0
119,-398,0,0,0,0,0,0,0,0,0,-1,1343,1422,0,0
126,-398,0,0,0,0,0,0,0,0,0,-1,1350,1422,0,0
133,-398,0,0,0,0,0,0,0,0,0,-1,1357,1422,0,0
140,-398,0,0,0,0,0,0,0,0,0,-1,1364,1422,0,0
147,-398,0,0,0,0,0,0,0,0,0,-1,1371,1422,0,0
154,-398,0,0,0,0,0,0,0,0,0,-1,1378,1422,0,0
161,-398,0,0,0,0,0,0,0,0,0,-1,1385,1422,0,0
168,-398,0,0,0,0,0,0,0,0,0,-1,1392,1422,0,0
175,-398,0,0,0,0,0,0,0,0,0,-1,1399,1422,0,0
182,-398,0,0,0,0,0,0,0,0,0,-1,1406,1422,0,0
189,-398,0,0,0,0,0,0,0,0,0,-1,1413,1422,0,0
196,-398,0,0,0,0,0,0,0,0,0,-1,1420,1422,0,0
203,-398,0,0,0,0,0,0,0,0,0,-1,1427,1422,0,0
210,-398,0,0,0,0,0,0,0,0,0,-1,1434,1422,0,0
217,-398,0,0,0,0,0,0,0,0,0,-1,1441,1422,0,0
224,-398,0,0,0,0,0,0,0,0,0,-1,1448,1422,0,0
231,-398,0,0,0,0,0,0,0,0,0,-1,1455,1422,0,0
238,-398,0,0,0,0,0,0,0,0,0,-1,1462,1422,0,0
245,-398,0,0,0,0,0,0,0,0,0,-1,1469,1422,0,0
252,-398,0,0,0,0,0,0,0,0,0,-1,1476,1422,0,0
259,-398,0,0,0,0,0,0,0,0,0,-1,1483,1422,0,0
266,-398,0,0,0,0,0,0,0,0,0,-1,1490,1422,0,0
273,-398,0,0,0,0,0,0,0,0,0,-1,1497,1422,0,0
280,-398,0,0,0,0,0,0,0,0,0,-1,1504,1422,0,0
287,-398,0,0,0,0,0,0,0,0,0,-1,1511,1422,0,0
294,-398,0,0,0,0,0,0,0,0,0,-1,1518,1422,0,0
301,-398,0,0,0,0,0,0,0,0,0,-1,1525,1422,0,0
308,-398,0,0,0,0,0,0,0,0,0,-1,1532,1422,0,0
315,-398,0,0,0,0,0,0,0,0,0,-1,1539,1422,0,0
322,-398,0,0,0,0,0,0,0,0,0,-1,1546,1422,0,0
329,-398,0,0,0,0,0,0,0,0,0,-1,1553,1422,0,0
336,-398,0,0,0,0,0,0,0,0,0,-1,1560,1422,0,0
343,-398,0,0,0,0,0,0,0,0,0,-1,1567,1422,0,0
350,-398,0,0,0,0,0,0,0,0,0,-1,1574,1422,0,0
357,-398,0,0,0,0,0,0,0,0,0,-1,1581,1422,0,0
364,-398,0,0,0,0,0,0,0,0,0,-1,1588,1422,0,0
371,-398,0,0,0,0,0,0,0,0,0,-1,1595,1422,0,0
378,-398,0,0,0,0,0,0,0,0,0,-1,1602,1422,0,0
385,-398,0,0,0,0,0,0,0,0,0,-1,1609,1422,0,0
392,-398,0,0,0,0,0,0,0,0,0,-1,1616,1422,0,0
399,-398,0,0,0,0,0,0,0,0,0,-1,1623,1422,0,0
406,-398,0,0,0,0,0,0,0,0,0,-1,1630,1422,0,0
413,-398,0,0,0,0,0,0,0,0,0,-1,1637,1422,0,0
420,-398,0,0,0,0,0,0,0,0,0,-1,1644,1422,0,0
427,-398,0,0,0,0,0,0,0,0,0,-1,1651,1422,0,0
434,-398,0,0,0,0,0,0,0,0,0,-1,1658,1422,0,0
441,-398,0,0,0,0,0,0,0,0,0,-1,1665,1422,0,0
448,-398,0,0,0,0,0,0,0,0,0,-1,1672,1422,0,0
455,-398,0,0,0,0,0,0,0,0,0,-1,1679,1422,0,0
462,-398,0,0,0,0,0,0,0,0,0,-1,1686,1422,0,0
469,-398,0,0,0,0,0,0,0,0,0,-1,1693,1422,0,0
476,-398,0,0,0,0,0,0,0,0,0,-1,1700,1422,0,0
483,-398,0,0,0,0,0,0,0,0,0,-1,1707,1422,0,0
490,-398,0,0,0,0,0,0,0,0,0,-1,1714,1422,0,0
497,-398,0,0,0,0,0,0,0,0,0,-1,1721,1422,0,0
504,-398,0,0,0,0,0,0,0,0,0,-1,1728,1422,0,0
511,-398,0,0,0,0,0,0,0,0,0,-1,1735,1422,0,0
518,-398,0,0,0,0,0,0,0,0,0,-1,1742,1422,0,0
525,-398,0,0,0,0,0,0,0,0,0,-1,1749,1422,0,0
532,-398,7.49988,-1.56628,0,0,0,0,0,0,0,-1,1756,1422,7.49984,1.56623
539,-398,7.27246,-0.210205,0,0,0,0,0,0,0,-1,1763,1422,7.27246,0.210266
546,-398,7.2655,0.157959,0.0119592,-0.00766812,0.0642819,0.0671722,-0.0628811,0.70965,0.0750999,0.0466898,1770,1422,7.26546,-0.1579
553,-398,7.30579,0.518311,-0.000201318,-0.00793104,0.0535121,0.0495853,-0.0577176,0.749349,0.0620106,0.0422903,1777,1422,7.30573,-0.518258
560,-398,7.34656,0.845947,-0.00838957,-0.00783498,0.0450536,0.0369422,-0.0531667,0.788476,0.0523047,0.0425144,1784,1422,7.34659,-0.845917
567,-398,7.58472,0.938477,-0.0127464,-0.0080322,0.0379958,0.0276796,-0.0484581,0.816376,0.0445004,0.0435569,1791,1422,7.58473,-0.938493
574,-398,6.49646,1.95276,0,0,0,0,0,0,0,-1,1798,1422,6.49648,-1.95276
581,-398,6.62695,1.8623,0,0,0,0,0,0,0,-1,1805,1422,6.62689,-1.86234
588,-398,6.27808,1.58984,0,0,0,0,0,0,0,-1,1812,1422,6.27803,-1.58986
595,-398,5.23596,1.7334,-0.012817,-0.00900135,0.0176093,0.00680315,-0.0286215,0.839359,0.0217071,0.0454599,1819,1422,5.23593,-1.73335
602,-398,5.21057,1.89038,-0.0118804,-0.00913463,0.0131549,0.00271889,-0.0237339,0.837391,0.0168024,0.0440826,1826,1422,5.21053,-1.8904
609,-398,5.01611,2.11499,-0.0104444,-0.00841111,0.00958673,0.000212713,-0.0190683,0.838225,0.0127837,0.0360737,1833,1422,5.01609,-2.11496
616,-398,5.07129,2.20386,-0.00822765,-0.007485,0.00706584,-0.000780741,-0.0149319,0.81165,0.00970484,0.0147646,1840,1422,5.0713,-2.20392
623,-398,5.06873,2.15259,-0.00458056,-0.0058521,0.00522749,4.9674e-05,-0.0104823,0.724885,0.00700484,0.00956642,1847,1422,5.06877,-2.15261
630,-398,5.05957,2.09351,-0.00156813,-0.00566882,0.00388174,0.000771497,-0.00800845,0.542421,0.00561383,0.010447,1854,1422,5.05957,-2.09347
637,-398,5.05908,2.02869,-0.000165011,-0.00467998,0.00361864,0.00184257,-0.00668756,0.506512,0.00518291,0.0125144,1861,1422,5.0591,-2.02868
644,-398,5.03943,1.974,0.000828275,-0.00366016,0.00289964,0.00225072,-0.00508261,0.456067,0.00433786,0.0181872,1868,1422,5.03941,-1.97397
651,-398,5.03943,1.95081,0.00130136,-0.00317273,0.00229583,0.00226981,-0.00414118,0.399183,0.00375358,0.0238334,1875,1422,5.03949,-1.95077
658,-398,5.06519,1.90308,0.00266593,-0.00342005,0.00111696,0.00286445,-0.00361857,0.175896,0.00375141,0.0177568,1882,1422,5.06524,-1.90313
665,-398,5.06799,1.81763,0.00522319,-0.00361628,-0.0006579,0.00527189,-0.00366498,-0.073885,0.00518743,0.0131215,1889,1422,5.06798,-1.81763
672,-398,5.06299,1.73975,0.00802,-0.00456965,-0.00252417,0.00850723,-0.00505688,-0.190681,0.00791525,0.0121109,1896,1422,5.06297,-1.7397
679,-398,5.06458,1.67139,0.0117188,-0.00593115,-0.00448291,0.0127921,-0.00700449,-0.235006,0.0115913,0.0108967,1903,1422,5.06458,-1.67139
686,-398,5.09998,1.63379,0.016759,-0.00768806,-0.00700908,0.018626,-0.00955502,-0.260319,0.0165489,0.016032,1910,1422,5.09993,-1.63377
693,-398,5.10718,1.75586,0.023443,-0.00953218,-0.0106124,0.0265632,-0.0126523,-0.285952,0.023111,0.0353345,1917,1422,5.10717,-1.75589
700,-398,5.49072,2.13843,0.0317988,-0.0114802,-0.0152401,0.0366267,-0.0163081,-0.306794,0.0313034,0.0464535,1924,1422,5.49071,-2.13839
707,-398,5.84167,2.20447,0.0418097,-0.0134969,-0.0208529,0.0487909,-0.0204781,-0.323055,0.041091,0.0459531,1931,1422,5.84172,-2.20444
714,-398,6.19409,2.43176,0.0532379,-0.0155417,-0.0272759,0.0627415,-0.0250453,-0.335272,0.0522181,0.0468296,1938,1422,6.19403,-2.43181
721,-398,6.62964,2.36218,0.0656434,-0.0175735,-0.0341479,0.0778619,-0.0297921,-0.343617,0.0641862,0.0444392,1945,1422,6.62958,-2.36224
728,-398,6.87866,2.07434,0,0,0,0,0,0,0,-1,1952,1422,6.87863,-2.07436
735,-398,0,0,0,0,0,0,0,0,0,-1,1959,1422,0,0
742,-398,0,0,0,0,0,0,0,0,0,-1,1966,1422,0,0
749,-398,0,0,0,0,0,0,0,0,0,-1,1973,1422,0,0
756,-398,0,0,0,0,0,0,0,0,0,-1,1980,1422,0,0
763,-398,0,0,0,0,0,0,0,0,0,-1,1987,1422,0,0
770,-398,0,0,0,0,0,0,0,0,0,-1,1994,1422,0,0
777,-398,0,0,0,0,0,0,0,0,0,-1,2001,1422,0,0
784,-398,0,0,0,0,0,0,0,0,0,-1,2008,1422,0,0
791,-398,0,0,0,0,0,0,0,0,0,-1,2015,1422,0,0
798,-398,0,0,0,0,0,0,0,0,0,-1,2022,1422,0,0
805,-398,0,0,0,0,0,0,0,0,0,-1,2029,1422,0,0
812,-398,0,0,0,0,0,0,0,0,0,-1,2036,1422,0,0
-700,-405,0,0,0,0,0,0,0,0,0,-1,524,1429,0,0
-693,-405,0,0,0,0,0,0,0,0,0,-1,531,1429,0,0
-686,-405,0,0,0,0,0,0,0,0,0,-1,538,1429,0,0
-679,-405,0,0,0,0,0,0,0,0,0,-1,545,1429,0,0
-672,-405,0,0,0,0,0,0,0,0,0,-1,552,1429,0,0
-665,-405,0,0,0,0,0,0,0,0,0,-1,559,1429,0,0
-658,-405,0,0,0,0,0,0,0,0,0,-1,566,1429,0,0
-651,-405,0,0,0,0,0,0,0,0,0,-1,573,1429,0,0
-644,-405,0,0,0,0,0,0,0,0,0,-1,580,1429,0,0
-637,-405,0,0,0,0,0,0,0,0,0,-1,587,1429,0,0
-630,-405,0,0,0,0,0,0,0,0,0,-1,594,1429,0,0
-623,-405,0,0,0,0,0,0,0,0,0,-1,601,1429,0,0
-616,-405,0,0,0,0,0,0,0,0,0,-1,608,1429,0,0
-609,-405,0,0,0,0,0,0,0,0,0,-1,615,1429,0,0
-602,-405,3.00275,-3.55408,-0.0313761,0.0764191,0.058937,0.102387,-0.0573441,1.15578,0.0934351,0.042198,622,1429,3.00277,3.55408
-595,-405,2.42902,-3.16516,-0.0310996,0.0658273,0.0533086,0.089409,-0.0546813,1.15431,0.0839921,0.045214,629,1429,2.42904,3.16516
-588,-405,1.7912,-2.49146,-0.0279507,0.0560563,0.0472373,0.077264,-0.0491584,1.14881,0.0735888,0.0444691,636,1429,1.79119,2.49145
-581,-405,0.896667,-1.57861,-0.0235483,0.0473967,0.041039,0.066169,-0.0423206,1.14178,0.0631389,0.0409159,643,1429,0.896649,1.57864
-574,-405,0.201599,-0.545776,-0.0187952,0.0396567,0.0350494,0.0560665,-0.0352049,1.13292,0.0531524,0.0460889,650,1429,0.201571,0.54577
-567,-405,-0.257507,0.114136,-0.0142447,0.0331412,0.0289786,0.0468797,-0.0279832,1.12809,0.0436787,0.0470252,657,1429,-0.257513,-0.114192
-560,-405,-0.416443,0.733887,-0.0102396,0.0263439,0.023686,0.037979,-0.0218747,1.1142,0.034971,0.0416386,664,1429,-0.416446,-0.733874
-553,-405,-0.273071,1.16577,-0.00684746,0.0208335,0.0189269,0.0304406,-0.0164545,1.1011,0.0274733,0.0307055,671,1429,-0.273044,-1.16582
-546,-405,-0.264832,1.35486,-0.00385673,0.0162538,0.0145245,0.023864,-0.0114669,1.08817,0.0208127,0.0138134,678,1429,-0.264852,-1.3549
-539,-405,-0.270264,1.42676,-0.00130432,0.0125529,0.010752,0.0184154,-0.0071668,1.07161,0.0152384,0.0106208,685,1429,-0.270262,-1.42681
-532,-405,-0.26947,1.47668,0.000605315,0.00956363,0.00737832,0.0137159,-0.00354701,1.0582,0.0105274,0.0134997,692,1429,-0.269473,-1.47668
-525,-405,-0.260437,1.5658,0.00189413,0.00680473,0.00427704,0.00928112,-0.00058226,1.04596,0.00639035,0.0135744,699,1429,-0.260418,-1.56577
-518,-405,-0.23645,1.63745,0.00263163,0.00450091,0.00163535,0.00544986,0.00168268,1.04501,0.00322229,0.0146018,706,1429,-0.236461,-1.6375
-511,-405,-0.233948,1.68994,0.0029081,0.00253011,-0.00038689,0.00314969,0.00228852,-0.558196,0.00187968,0.0140569,713,1429,-0.233933,-1.68996
-504,-405,-0.249634,1.73584,0.00241757,0.00193566,-0.00219874,0.00438852,-3.52864e-05,-0.730823,0.00293751,0.0151817,720,1429,-0.249648,-1.73586
-497,-405,-0.241638,1.82202,0.00184763,0.00201077,-0.00383207,0.00576214,-0.00190374,-0.79604,0.00460898,0.0129975,727,1429,-0.241644,-1.82208
-490,-405,-0.25415,1.9043,0.00129805,0.00273003,-0.00543216,0.00749318,-0.0034651,-0.850923,0.00646767,0.0109788,734,1429,-0.254143,-1.90434
-483,-405,-0.243408,1.96924,0.00116743,0.00418738,-0.00722349,0.010057,-0.00470221,-0.888433,0.00870619,0.00854205,741,1429,-0.243423,-1.96924
-476,-405,-0.219788,2.00977,7.53082e-05,0.00694037,-0.00909434,0.0132284,-0.00621272,-0.965851,0.0114654,0.0212621,748,1429,-0.219785,-2.00979
-469,-405,-0.064209,1.77991,-0.00259736,0.0106469,-0.0109678,0.0168367,-0.0087871,-1.057,0.0150353,0.0383192,755,1429,-0.0642276,-1.77993
-462,-405,2.54474,-0.247192,0,0,0,0,0,0,0,-1,762,1429,2.54473,0.247223
-455,-405,-0.525085,2.31885,-0.0108562,0.0214395,-0.0144891,0.0269869,-0.0164037,-1.20514,0.0252988,0.0426619,769,1429,-0.525102,-2.31883
-448,-405,-0.808899,2.46545,0,0,0,0,0,0,0,-1,776,1429,-0.80887,-2.46541
-441,-405,-1.15643,2.70813,0,0,0,0,0,0,0,-1,783,1429,-1.15641,-2.7081
-434,-405,-1.37201,2.7981,0,0,0,0,0,0,0,-1,790,1429,-1.37204,-2.79809
-427,-405,-0.933472,2.70801,0,0,0,0,0,0,0,-1,797,1429,-0.933501,-2.70806
-420,-405,-3.09216,0.342529,0,0,0,0,0,0,0,-1,804,1429,-3.09217,-0.342487
-413,-405,-2.48181,-1.07324,0,0,0,0,0,0,0,-1,811,1429,-2.48178,1.07325
-406,-405,2.37201,2.38892,0,0,0,0,0,0,0,-1,818,1429,2.372,-2.38897
-399,-405,0,0,0,0,0,0,0,0,0,-1,825,1429,0,0
-392,-405,0,0,0,0,0,0,0,0,0,-1,832,1429,0,0
-385,-405,0,0,0,0,0,0,0,0,0,-1,839,1429,0,0
-378,-405,0,0,0,0,0,0,0,0,0,-1,846,1429,0,0
-371,-405,0,0,0,0,0,0,0,0,0,-1,853,1429,0,0
-364,-405,0,0,0,0,0,0,0,0,0,-1,860,1429,0,0
-357,-405,0,0,0,0,0,0,0,0,0,-1,867,1429,0,0
-350,-405,0,0,0,0,0,0,0,0,0,-1,874,1429,0,0
-343,-405,0,0,0,0,0,0,0,0,0,-1,881,1429,0,0
-336,-405,0,0,0,0,0,0,0,0,0,-1,888,1429,0,0
-329,-405,0,0,0,0,0,0,0,0,0,-1,895,1429,0,0
-322,-405,0,0,0,0,0,0,0,0,0,-1,902,1429,0,0
-315,-405,0,0,0,0,0,0,0,0,0,-1,909,1429,0,0
-308,-405,0,0,0,0,0,0,0,0,0,-1,916,1429,0,0
-301,-405,0,0,0,0,0,0,0,0,0,-1,923,1429,0,0
-294,-405,0,0,0,0,0,0,0,0,0,-1,930,1429,0,0
-287,-405,0,0,0,0,0,0,0,0,0,-1,937,1429,0,0
-280,-405,0,0,0,0,0,0,0,0,0,-1,944,1429,0,0
-273,-405,0,0,0,0,0,0,0,0,0,-1,951,1429,0,0
-266,-405,0,0,0,0,0,0,0,0,0,-1,958,1429,0,0
-259,-405,0,0,0,0,0,0,0,0,0,-1,965,1429,0,0
-252,-405,0,0,0,0,0,0,0,0,0,-1,972,1429,0,0
-245,-405,0,0,0,0,0,0,0,0,0,-1,979,1429,0,0
-238,-405,0,0,0,0,0,0,0,0,0,-1,986,1429,0,0
-231,-405,0,0,0,0,0,0,0,0,0,-1,993,1429,0,0
-224,-405,0,0,0,0,0,0,0,0,0,-1,1000,1429,0,0
-217,-405,0,0,0,0,0,0,0,0,0,-1,1007,1429,0,0
-210,-405,0,0,0,0,0,0,0,0,0,-1,1014,1429,0,0
-203,-405,0,0,0,0,0,0,0,0,0,-1,1021,1429,0,0
-196,-405,0,0,0,0,0,0,0,0,0,-1,1028,1429,0,0
-189,-405,0,0,0,0,0,0,0,0,0,-1,1035,1429,0,0
-182,-405,0,0,0,0,0,0,0,0,0,-1,1042,1429,0,0
-175,-405,0,0,0,0,0,0,0,0,0,-1,1049,1429,0,0
-168,-405,0,0,0,0,0,0,0,0,0,-1,1056,1429,0,0
-161,-405,0,0,0,0,0,0,0,0,0,-1,1063,1429,0,0
-154,-405,0,0,0,0,0,0,0,0,0,-1,1070,1429,0,0
-147,-405,0,0,0,0,0,0,0,0,0,-1,1077,1429,0,0
-140,-405,0,0,0,0,0,0,0,0,0,-1,1084,1429,0,0
-133,-405,0,0,0,0,0,0,0,0,0,-1,1091,1429,0,0
-126,-405,0,0,0,0,0,0,0,0,0,-1,1098,1429,0,0
-119,-405,0,0,0,0,0,0,0,0,0,-1,1105,1429,0,0
-112,-405,0,0,0,0,0,0,0,0,0,-1,1112,1429,0,0
-105,-405,0,0,0,0,0,0,0,0,0,-1,1119,1429,0,0
-98,-405,0,0,0,0,0,0,0,0,0,-1,1126,1429,0,0
-91,-405,0,0,0,0,0,0,0,0,0,-1,1133,1429,0,0
-84,-405,0,0,0,0,0,0,0,0,0,-1,1140,1429,0,0
-77,-405,0,0,0,0,0,0,0,0,0,-1,1147,1429,0,0
-70,-405,0,0,0,0,0,0,0,0,0,-1,1154,1429,0,0
-63,-405,0,0,0,0,0,0,0,0,0,-1,1161,1429,0,0
-56,-405,0,0,0,0,0,0,0,0,0,-1,1168,1429,0,0
-49,-405,0,0,0,0,0,0,0,0,0,-1,1175,1429,0,0
-42,-405,0,0,0,0,0,0,0,0,0,-1,1182,1429,0,0
-35,-405,0,0,0,0,0,0,0,0,0,-1,1189,1429,0,0
-28,-405,0,0,0,0,0,0,0,0,0,-1,1196,1429,0,0
-21,-405,0,0,0,0,0,0,0,0,0,-1,1203,1429,0,0
-14,-405,0,0,0,0,0,0,0,0,0,-1,1210,1429,0,0
-7,-405,0,0,0,0,0,0,0,0,0,-1,1217,1429,0,0
0,-405,0,0,0,0,0,0,0,0,0,-1,1224,1429,0,0
7,-405,0,0,0,0,0,0,0,0,0,-1,1231,1429,0,0
14,-405,0,0,0,0,0,0,0,0,0,-1,1238,1429,0,0
21,-405,0,0,0,0,0,0,0,0,0,-1,1245,1429,0,0
28,-405,0,0,0,0,0,0,0,0,0,-1,1252,1429,0,0
35,-405,0,0,0,0,0,0,0,0,0,-1,1259,1429,0,0
42,-405,0,0,0,0,0,0,0,0,0,-1,1266,1429,0,0
49,-405,0,0,0,0,0,0,0,0,0,-1,1273,1429,0,0
56,-405,0,0,0,0,0,0,0,0,0,-1,1280,1429,0,0
63,-405,0,0,0,0,0,0,0,0,0,-1,1287,1429,0,0
70,-405,0,0,0,0,0,0,0,0,0,-1,1294,1429,0,0
77,-405,0,0,0,0,0,0,0,0,0,-1,1301,1429,0,0
84,-405,0,0,0,0,0,0,0,0,0,-1,1308,1429,0,0
91,-405,0,0,0,0,0,0,0,0,0,-1,1315,1429,0,0
98,-405,0,0,0,0,0,0,0,0,0,-1,1322,1429,0,0
105,-405,0,0,0,0,0,0,0,0,0,-1,1329,1429,0,0
112,-405,0,0,0,0,0,0,0,0,0,-1,1336,1429,0,0
119,-405,0,0,0,0,0,0,0,0,0,-1,1343,1429,0,0
126,-405,0,0,0,0,0,0,0,0,0,-1,1350,1429,0,0
133,-405,0,0,0,0,0,0,0,0,0,-1,1357,1429,0,0
140,-405,0,0,0,0,0,0,0,0,0,-1,1364,1429,0,0
147,-405,0,0,0,0,0,0,0,0,0,-1,1371,1429,0,0
154,-405,0,0,0,0,0,0,0,0,0,-1,1378,1429,0,0
161,-405,0,0,0,0,0,0,0,0,0,-1,1385,1429,0,0
168,-405,0,0,0,0,0,0,0,0,0,-1,1392,1429,0,0
175,-405,0,0,0,0,0,0,0,0,0,-1,1399,1429,0,0
182,-405,0,0,0,0,0,0,0,0,0,-1,1406,1429,0,0
189,-405,0,0,0,0,0,0,0,0,0,-1,1413,1429,0,0
196,-405,0,0,0,0,0,0,0,0,0,-1,1420,1429,0,0
203,-405,0,0,0,0,0,0,0,0,0,-1,1427,1429,0,0
210,-405,0,0,0,0,0,0,0,0,0,-1,1434,1429,0,0
217,-405,0,0,0,0,0,0,0,0,0,-1,1441,1429,0,0
224,-405,0,0,0,0,0,0,0,0,0,-1,1448,1429,0,0
231,-405,0,0,0,0,0,0,0,0,0,-1,1455,1429,0,0
238,-405,0,0,0,0,0,0,0,0,0,-1,1462,1429,0,0
245,-405,0,0,0,0,0,0,0,0,0,-1,1469,1429,0,0
252,-405,0,0,0,0,0,0,0,0,0,-1,1476,1429,0,0
259,-405,0,0,0,0,0,0,0,0,0,-1,1483,1429,0,0
266,-405,0,0,0,0,0,0,0,0,0,-1,1490,1429,0,0
273,-405,0,0,0,0,0,0,0,0,0,-1,1497,1429,0,0
280,-405,0,0,0,0,0,0,0,0,0,-1,1504,1429,0,0
287,-405,0,0,0,0,0,0,0,0,0,-1,1511,1429,0,0
294,-405,0,0,0,0,0,0,0,0,0,-1,1518,1429,0,0
301,-405,0,0,0,0,0,0,0,0,0,-1,1525,1429,0,0
308,-405,0,0,0,0,0,0,0,0,0,-1,1532,1429,0,0
315,-405,0,0,0,0,0,0,0,0,0,-1,1539,1429,0,0
322,-405,0,0,0,0,0,0,0,0,0,-1,1546,1429,0,0
329,-405,0,0,0,0,0,0,0,0,0,-1,1553,1429,0,0
336,-405,0,0,0,0,0,0,0,0,0,-1,1560,1429,0,0
343,-405,0,0,0,0,0,0,0,0,0,-1,1567,1429,0,0
350,-405,0,0,0,0,0,0,0,0,0,-1,1574,1429,0,0
357,-405,0,0,0,0,0,0,0,0,0,-1,1581,1429,0,0
364,-405,0,0,0,0,0,0,0,0,0,-1,1588,1429,0,0
371,-405,0,0,0,0,0,0,0,0,0,-1,1595,1429,0,0
378,-405,0,0,0,0,0,0,0,0,0,-1,1602,1429,0,0
385,-405,0,0,0,0,0,0,0,0,0,-1,1609,1429,0,0
392,-405,0,0,0,0,0,0,0,0,0,-1,1616,1429,0,0
399,-405,0,0,0,0,0,0,0,0,0,-1,1623,1429,0,0
406,-405,0,0,0,0,0,0,0,0,0,-1,1630,1429,0,0
413,-405,0,0,0,0,0,0,0,0,0,-1,1637,1429,0,0
420,-405,0,0,0,0,0,0,0,0,0,-1,1644,1429,0,0
427,-405,0,0,0,0,0,0,0,0,0,-1,1651,1429,0,0
434,-405,0,0,0,0,0,0,0,0,0,-1,1658,1429,0,0
441,-405,0,0,0,0,0,0,0,0,0,-1,1665,1429,0,0
448,-405,0,0,0,0,0,0,0,0,0,-1,1672,1429,0,0
455,-405,0,0,0,0,0,0,0,0,0,-1,1679,1429,0,0
462,-405,0,0,0,0,0,0,0,0,0,-1,1686,1429,0,0
469,-405,0,0,0,0,0,0,0,0,0,-1,1693,1429,0,0
476,-405,0,0,0,0,0,0,0,0,0,-1,1700,1429,0,0
483,-405,0,0,0,0,0,0,0,0,0,-1,1707,1429,0,0
490,-405,0,0,0,0,0,0,0,0,0,-1,1714,1429,0,0
497,-405,0,0,0,0,0,0,0,0,0,-1,1721,1429,0,0
504,-405,0,0,0,0,0,0,0,0,0,-1,1728,1429,0,0
511,-405,0,0,0,0,0,0,0,0,0,-1,1735,1429,0,0
518,-405,0,0,0,0,0,0,0,0,0,-1,1742,1429,0,0
525,-405,4.06628,2.68237,0,0,0,0,0,0,0,-1,1749,1429,4.06633,-2.68233
532,-405,7.0199,-1.6377,0,0,0,0,0,0,0,-1,1756,1429,7.01992,1.63774
539,-405,6.47461,-0.291626,0,0,0,0,0,0,0,-1,1763,1429,6.47464,0.291573
546,-405,6.55212,0.142456,0.00815343,-0.0125182,0.0575835,0.0563213,-0.0606861,0.696597,0.0675699,0.047575,1770,1429,6.55208,-0.142499
553,-405,6.63672,0.643066,-0.00119995,-0.0123883,0.048037,0.0415675,-0.0551557,0.727431,0.0560266,0.0431556,1777,1429,6.63669,-0.643085
560,-405,6.60767,1.16748,-0.00759014,-0.0118518,0.0404766,0.0308117,-0.0502536,0.759101,0.0472496,0.0417427,1784,1429,6.6077,-1.16745
567,-405,6.68176,1.48474,-0.0112736,-0.0114037,0.0340792,0.0227406,-0.0454179,0.784443,0.0400708,0.0429615,1791,1429,6.68172,-1.4847
574,-405,6.68127,1.86023,0,0,0,0,0,0,0,-1,1798,1429,6.68132,-1.86023
581,-405,6.47498,2.11169,0,0,0,0,0,0,0,-1,1805,1429,6.47496,-2.1117
588,-405,5.91199,2.17505,-0.0131964,-0.010465,0.0190868,0.00730497,-0.0309663,0.821113,0.0234614,0.0470743,1812,1429,5.91203,-2.17507
595,-405,5.42737,2.14111,-0.0120358,-0.00980622,0.0152469,0.00436661,-0.0262086,0.82189,0.0190951,0.0423025,1819,1429,5.42741,-2.14113
602,-405,5.0376,2.23303,-0.0113034,-0.00943959,0.0112018,0.000868981,-0.0216119,0.826898,0.0147062,0.0344992,1826,1429,5.03764,-2.23309
609,-405,4.97815,2.28625,-0.00992798,-0.00826034,0.00801643,-0.00103448,-0.0171538,0.837219,0.0111071,0.016629,1833,1429,4.9782,-2.28628
616,-405,5.01465,2.23499,-0.00784958,-0.00701252,0.00576863,-0.00164725,-0.0132148,0.821611,0.00831538,0.00974226,1840,1429,5.01467,-2.23498
623,-405,5.01221,2.17664,-0.00488651,-0.00533283,0.00420265,-0.000901099,-0.00931824,0.758873,0.00593464,0.00912159,1847,1429,5.01227,-2.17667
630,-405,5.01257,2.10376,-0.00230482,-0.00492104,0.00313512,-0.000215856,-0.00701001,0.587757,0.00460307,0.0100417,1854,1429,5.01255,-2.10371
637,-405,5.00427,2.02759,-0.000812531,-0.00424797,0.00281393,0.000766533,-0.00582704,0.51137,0.00416379,0.0107036,1861,1429,5.00425,-2.02764
644,-405,4.97339,2.01331,0.000428231,-0.0034196,0.00222391,0.00144493,-0.0044363,0.428799,0.00353891,0.0277165,1868,1429,4.97345,-2.01325
651,-405,4.95532,1.97717,0.00114672,-0.00310864,0.0017069,0.00174677,-0.0037087,0.338052,0.00321689,0.0307711,1875,1429,4.95526,-1.97716
658,-405,4.98193,1.88367,0.00286981,-0.00353296,0.000532774,0.00291384,-0.00357699,0.0824541,0.003754,0.0204016,1882,1429,4.98198,-1.88371
665,-405,5.01025,1.81836,0.00592438,-0.00385055,-0.00145834,0.00613731,-0.00406348,-0.144987,0.00592986,0.017115,1889,1429,5.01024,-1.81842
672,-405,5.03931,1.76831,0.00926137,-0.00498838,-0.00356303,0.0101026,-0.00582962,-0.231857,0.0093081,0.0217659,1896,1429,5.0393,-1.76834
679,-405,5.03577,1.66565,0.013694,-0.00647092,-0.00597915,0.0153336,-0.0081105,-0.267638,0.0137479,0.0196784,1903,1429,5.03573,-1.66562
686,-405,5.03394,1.62646,0.0197033,-0.00827074,-0.00922119,0.0224694,-0.0110368,-0.291431,0.0197166,0.0286728,1910,1429,5.03396,-1.62644
693,-405,4.98523,1.68054,0.0277209,-0.0100866,-0.0138488,0.0322509,-0.0146166,-0.316134,0.02769,0.0432089,1917,1429,4.98526,-1.68058
700,-405,4.9762,1.69189,0,0,0,0,0,0,0,-1,1924,1429,4.97619,-1.69194
707,-405,6.43091,2.42004,0.0501522,-0.0136135,-0.0272573,0.0602154,-0.0236768,-0.353672,0.0499431,0.0430448,1931,1429,6.4309,-2.42009
714,-405,6.95117,2.52771,0.0644507,-0.0151452,-0.0360016,0.0783183,-0.0290128,-0.367678,0.0641101,0.0450792,1938,1429,6.95118,-2.52767
721,-405,7.08508,2.57642,0.0804128,-0.0163564,-0.0458715,0.098701,-0.0346446,-0.379371,0.0798932,0.0451555,1945,1429,7.08512,-2.57636
728,-405,0,0,0,0,0,0,0,0,0,-1,1952,1429,0,0
735,-405,0,0,0,0,0,0,0,0,0,-1,1959,1429,0,0
742,-405,0,0,0,0,0,0,0,0,0,-1,1966,1429,0,0
749,-405,0,0,0,0,0,0,0,0,0,-1,1973,1429,0,0
756,-405,0,0,0,0,0,0,0,0,0,-1,1980,1429,0,0
763,-405,0,0,0,0,0,0,0,0,0,-1,1987,1429,0,0
770,-405,0,0,0,0,0,0,0,0,0,-1,1994,1429,0,0
777,-405,0,0,0,0,0,0,0,0,0,-1,2001,1429,0,0
784,-405,0,0,0,0,0,0,0,0,0,-1,2008,1429,0,0
791,-405,0,0,0,0,0,0,0,0,0,-1,2015,1429,0,0
798,-405,0,0,0,0,0,0,0,0,0,-1,2022,1429,0,0
805,-405,0,0,0,0,0,0,0,0,0,-1,2029,1429,0,0
812,-405,0,0,0,0,0,0,0,0,0,-1,2036,1429,0,0
-700,-412,0,0,0,0,0,0,0,0,0,-1,524,1436,0,0
-693,-412,0,0,0,0,0,0,0,0,0,-1,531,1436,0,0
-686,-412,0,0,0,0,0,0,0,0,0,-1,538,1436,0,0
-679,-412,0,0,0,0,0,0,0,0,0,-1,545,1436,0,0
-672,-412,0,0,0,0,0,0,0,0,0,-1,552,1436,0,0
-665,-412,0,0,0,0,0,0,0,0,0,-1,559,1436,0,0
-658,-412,0,0,0,0,0,0,0,0,0,-1,566,1436,0,0
-651,-412,0,0,0,0,0,0,0,0,0,-1,573,1436,0,0
-644,-412,0,0,0,0,0,0,0,0,0,-1,580,1436,0,0
-637,-412,0,0,0,0,0,0,0,0,0,-1,587,1436,0,0
-630,-412,0,0,0,0,0,0,0,0,0,-1,594,1436,0,0
-623,-412,0,0,0,0,0,0,0,0,0,-1,601,1436,0,0
-616,-412,0,0,0,0,0,0,0,0,0,-1,608,1436,0,0
-609,-412,0,0,0,0,0,0,0,0,0,-1,615,1436,0,0
-602,-412,2.73322,-4.32837,-0.0416993,0.0847967,0.063502,0.111175,-0.0680773,1.1771,0.104483,0.0422704,622,1436,2.73319,4.32832
-595,-412,2.31665,-3.62341,-0.0385226,0.071578,0.0581512,0.0966033,-0.0635479,1.1644,0.0931175,0.0461831,629,1436,2.31667,3.62339
-588,-412,1.51514,-2.75061,-0.0326676,0.0604972,0.0518486,0.0836156,-0.055786,1.15137,0.0810164,0.0478999,636,1436,1.51515,2.7506
-581,-412,0.722046,-1.91833,-0.0260907,0.0512855,0.0452372,0.072122,-0.0469272,1.13916,0.0692443,0.0454823,643,1436,0.722066,1.91835
-574,-412,0.189636,-0.946411,0,0,0,0,0,0,0,-1,650,1436,0.189611,0.946407
-567,-412,-0.684082,0.244263,0,0,0,0,0,0,0,-1,657,1436,-0.684107,-0.244286
-560,-412,-0.555176,0.670166,-0.00929072,0.0295703,0.0265903,0.0430729,-0.0227933,1.10093,0.038624,0.0451426,664,1436,-0.555189,-0.670158
-553,-412,-0.354614,1.07031,-0.00557067,0.0240623,0.021329,0.0352161,-0.0167245,1.08897,0.0306148,0.0371763,671,1436,-0.354618,-1.07035
-546,-412,-0.200989,1.38489,-0.00243705,0.0193425,0.0165103,0.028231,-0.0113255,1.07694,0.0235229,0.0234358,678,1436,-0.201005,-1.38487
-539,-412,-0.195374,1.40125,7.19223e-05,0.0153856,0.0123131,0.0222284,-0.0067709,1.06356,0.0175177,0.012004,685,1436,-0.195353,-1.40124
-532,-412,-0.204224,1.46667,0.00185221,0.0121404,0.00866477,0.017073,-0.0030804,1.05328,0.0125356,0.0128652,692,1436,-0.204193,-1.46668
-525,-412,-0.20874,1.56592,0.00297024,0.00900081,0.00537059,0.0121447,-0.000173632,1.04119,0.00815495,0.014561,699,1436,-0.208741,-1.56591
-518,-412,-0.160095,1.64001,0.00335788,0.0064492,0.00266938,0.00798812,0.00181895,1.04783,0.00483454,0.0154785,706,1436,-0.160081,-1.64006
-511,-412,-0.17395,1.70898,0.00325881,0.00433805,0.000603478,0.00460799,0.00298888,1.1502,0.00269932,0.0174672,713,1436,-0.173943,-1.70896
-504,-412,-0.195251,1.76392,0.00255199,0.00342049,-0.00120782,0.00426975,0.00170273,-0.957969,0.00248192,0.0161963,720,1436,-0.195257,-1.76391
-497,-412,-0.19043,1.8374,0.00184634,0.00310355,-0.00283604,0.00537981,-0.000429925,-0.894459,0.0037381,0.0129825,727,1436,-0.190429,-1.83741
-490,-412,-0.182739,1.91504,0.0013332,0.00327585,-0.00440766,0.00681794,-0.00220889,-0.893851,0.00543338,0.0117324,734,1436,-0.182754,-1.91498
-483,-412,-0.174866,1.96875,0.00128589,0.00418918,-0.0061417,0.00904846,-0.00357339,-0.901448,0.00751228,0.00828486,741,1436,-0.17488,-1.96869
-476,-412,-0.155212,2.03589,0.000474645,0.00624666,-0.00798196,0.0118483,-0.00512703,-0.958869,0.0100536,0.0135022,748,1436,-0.155184,-2.0359
-469,-412,-0.140564,2.05688,-0.0017276,0.00914457,-0.00988125,0.0149863,-0.00756937,-1.03687,0.0132552,0.0230446,755,1436,-0.140584,-2.05683
-462,-412,-0.0990601,2.05762,-0.0046864,0.0130676,-0.0117819,0.0189424,-0.0105611,-1.10825,0.0172614,0.0374911,762,1436,-0.0990528,-2.0576
-455,-412,-0.419373,2.33521,-0.00821777,0.0177045,-0.0137033,0.0236053,-0.0141185,-1.16418,0.0220082,0.044116,769,1436,-0.419388,-2.33515
-448,-412,-0.708069,2.67468,0,0,0,0,0,0,0,-1,776,1436,-0.708053,-2.67467
-441,-412,-0.71991,2.53027,0,0,0,0,0,0,0,-1,783,1436,-0.719888,-2.53022
-434,-412,-0.992981,2.7146,0,0,0,0,0,0,0,-1,790,1436,-0.992998,-2.71465
-427,-412,-1.26611,2.89905,0,0,0,0,0,0,0,-1,797,1436,-1.26611,-2.89908
-420,-412,-1.86847,2.8739,0,0,0,0,0,0,0,-1,804,1436,-1.86848,-2.8739
-413,-412,-2.37299,3.30139,0,0,0,0,0,0,0,-1,811,1436,-2.37298,-3.30138
-406,-412,1.9975,2.15869,0,0,0,0,0,0,0,-1,818,1436,1.99749,-2.15871
-399,-412,2.05292,1.65234,0,0,0,0,0,0,0,-1,825,1436,2.05293,-1.65236
-392,-412,0,0,0,0,0,0,0,0,0,-1,832,1436,0,0
-385,-412,0,0,0,0,0,0,0,0,0,-1,839,1436,0,0
-378,-412,0,0,0,0,0,0,0,0,0,-1,846,1436,0,0
-371,-412,0,0,0,0,0,0,0,0,0,-1,853,1436,0,0
-364,-412,0,0,0,0,0,0,0,0,0,-1,860,1436,0,0
-357,-412,0,0,0,0,0,0,0,0,0,-1,867,1436,0,0
-350,-412,0,0,0,0,0,0,0,0,0,-1,874,1436,0,0
-343,-412,0,0,0,0,0,0,0,0,0,-1,881,1436,0,0
-336,-412,0,0,0,0,0,0,0,0,0,-1,888,1436,0,0
-329,-412,0,0,0,0,0,0,0,0,0,-1,895,1436,0,0
-322,-412,0,0,0,0,0,0,0,0,0,-1,902,1436,0,0
-315,-412,0,0,0,0,0,0,0,0,0,-1,909,1436,0,0
-308,-412,0,0,0,0,0,0,0,0,0,-1,916,1436,0,0
-301,-412,0,0,0,0,0,0,0,0,0,-1,923,1436,0,0
-294,-412,0,0,0,0,0,0,0,0,0,-1,930,1436,0,0
-287,-412,0,0,0,0,0,0,0,0,0,-1,937,1436,0,0
-280,-412,0,0,0,0,0,0,0,0,0,-1,944,1436,0,0
-273,-412,0,0,0,0,0,0,0,0,0,-1,951,1436,0,0
-266,-412,0,0,0,0,0,0,0,0,0,-1,958,1436,0,0
-259,-412,0,0,0,0,0,0,0,0,0,-1,965,1436,0,0
-252,-412,0,0,0,0,0,0,0,0,0,-1,972,1436,0,0
-245,-412,0,0,0,0,0,0,0,0,0,-1,979,1436,0,0
-238,-412,0,0,0,0,0,0,0,0,0,-1,986,1436,0,0
-231,-412,0,0,0,0,0,0,0,0,0,-1,993,1436,0,0
-224,-412,0,0,0,0,0,0,0,0,0,-1,1000,1436,0,0
-217,-412,0,0,0,0,0,0,0,0,0,-1,1007,1436,0,0
-210,-412,0,0,0,0,0,0,0,0,0,-1,1014,1436,0,0
-203,-412,0,0,0,0,0,0,0,0,0,-1,1021,1436,0,0
-196,-412,0,0,0,0,0,0,0,0,0,-1,1028,1436,0,0
-189,-412,0,0,0,0,0,0,0,0,0,-1,1035,1436,0,0
-182,-412,0,0,0,0,0,0,0,0,0,-1,1042,1436,0,0
-175,-412,0,0,0,0,0,0,0,0,0,-1,1049,1436,0,0
-168,-412,0,0,0,0,0,0,0,0,0,-1,1056,1436,0,0
-161,-412,0,0,0,0,0,0,0,0,0,-1,1063,1436,0,0
-154,-412,0,0,0,0,0,0,0,0,0,-1,1070,1436,0,0
-147,-412,0,0,0,0,0,0,0,0,0,-1,1077,1436,0,0
-140,-412,0,0,0,0,0,0,0,0,0,-1,1084,1436,0,0
-133,-412,0,0,0,0,0,0,0,0,0,-1,1091,1436,0,0
-126,-412,0,0,0,0,0,0,0,0,0,-1,1098,1436,0,0
-119,-412,0,0,0,0,0,0,0,0,0,-1,1105,1436,0,0
-112,-412,0,0,0,0,0,0,0,0,0,-1,1112,1436,0,0
-105,-412,0,0,0,0,0,0,0,0,0,-1,1119,1436,0,0
-98,-412,0,0,0,0,0,0,0,0,0,-1,1126,1436,0,0
-91,-412,0,0,0,0,0,0,0,0,0,-1,1133,1436,0,0
-84,-412,0,0,0,0,0,0,0,0,0,-1,1140,1436,0,0
-77,-412,0,0,0,0,0,0,0,0,0,-1,1147,1436,0,0
-70,-412,0,0,0,0,0,0,0,0,0,-1,1154,1436,0,0
-63,-412,0,0,0,0,0,0,0,0,0,-1,1161,1436,0,0
-56,-412,0,0,0,0,0,0,0,0,0,-1,1168,1436,0,0
-49,-412,0,0,0,0,0,0,0,0,0,-1,1175,1436,0,0
-42,-412,0,0,0,0,0,0,0,0,0,-1,1182,1436,0,0
-35,-412,0,0,0,0,0,0,0,0,0,-1,1189,1436,0,0
-28,-412,0,0,0,0,0,0,0,0,0,-1,1196,1436,0,0
-21,-412,0,0,0,0,0,0,0,0,0,-1,1203,1436,0,0
-14,-412,0,0,0,0,0,0,0,0,0,-1,1210,1436,0,0
-7,-412,0,0,0,0,0,0,0,0,0,-1,1217,1436,0,0
0,-412,0,0,0,0,0,0,0,0,0,-1,1224,1436,0,0
7,-412,0,0,0,0,0,0,0,0,0,-1,1231,1436,0,0
14,-412,0,0,0,0,0,0,0,0,0,-1,1238,1436,0,0
21,-412,0,0,0,0,0,0,0,0,0,-1,1245,1436,0,0
28,-412,0,0,0,0,0,0,0,0,0,-1,1252,1436,0,0
35,-412,0,0,0,0,0,0,0,0,0,-1,1259,1436,0,0
42,-412,0,0,0,0,0,0,0,0,0,-1,1266,1436,0,0
49,-412,0,0,0,0,0,0,0,0,0,-1,1273,1436,0,0
56,-412,0,0,0,0,0,0,0,0,0,-1,1280,1436,0,0
63,-412,0,0,0,0,0,0,0,0,0,-1,1287,1436,0,0
70,-412,0,0,0,0,0,0,0,0,0,-1,1294,1436,0,0
77,-412,0,0,0,0,0,0,0,0,0,-1,1301,1436,0,0
84,-412,0,0,0,0,0,0,0,0,0,-1,1308,1436,0,0
91,-412,0,0,0,0,0,0,0,0,0,-1,1315,1436,0,0
98,-412,0,0,0,0,0,0,0,0,0,-1,1322,1436,0,0
105,-412,0,0,0,0,0,0,0,0,0,-1,1329,1436,0,0
112,-412,0,0,0,0,0,0,0,0,0,-1,1336,1436,0,0
119,-412,0,0,0,0,0,0,0,0,0,-1,1343,1436,0,0
126,-412,0,0,0,0,0,0,0,0,0,-1,1350,1436,0,0
133,-412,0,0,0,0,0,0,0,0,0,-1,1357,1436,0,0
140,-412,0,0,0,0,0,0,0,0,0,-1,1364,1436,0,0
147,-412,0,0,0,0,0,0,0,0,0,-1,1371,1436,0,0
154,-412,0,0,0,0,0,0,0,0,0,-1,1378,1436,0,0
161,-412,0,0,0,0,0,0,0,0,0,-1,1385,1436,0,0
168,-412,0,0,0,0,0,0,0,0,0,-1,1392,1436,0,0
175,-412,0,0,0,0,0,0,0,0,0,-1,1399,1436,0,0
182,-412,0,0,0,0,0,0,0,0,0,-1,1406,1436,0,0
189,-412,0,0,0,0,0,0,0,0,0,-1,1413,1436,0,0
196,-412,0,0,0,0,0,0,0,0,0,-1,1420,1436,0,0
203,-412,0,0,0,0,0,0,0,0,0,-1,1427,1436,0,0
210,-412,0,0,0,0,0,0,0,0,0,-1,1434,1436,0,0
217,-412,0,0,0,0,0,0,0,0,0,-1,1441,1436,0,0
224,-412,0,0,0,0,0,0,0,0,0,-1,1448,1436,0,0
231,-412,0,0,0,0,0,0,0,0,0,-1,1455,1436,0,0
238,-412,0,0,0,0,0,0,0,0,0,-1,1462,1436,0,0
245,-412,0,0,0,0,0,0,0,0,0,-1,1469,1436,0,0
252,-412,0,0,0,0,0,0,0,0,0,-1,1476,1436,0,0
259,-412,0,0,0,0,0,0,0,0,0,-1,1483,1436,0,0
266,-412,0,0,0,0,0,0,0,0,0,-1,1490,1436,0,0
273,-412,0,0,0,0,0,0,0,0,0,-1,1497,1436,0,0
280,-412,0,0,0,0,0,0,0,0,0,-1,1504,1436,0,0
287,-412,0,0,0,0,0,0,0,0,0,-1,1511,1436,0,0
294,-412,0,0,0,0,0,0,0,0,0,-1,1518,1436,0,0
301,-412,0,0,0,0,0,0,0,0,0,-1,1525,1436,0,0
308,-412,0,0,0,0,0,0,0,0,0,-1,1532,1436,0,0
315,-412,0,0,0,0,0,0,0,0,0,-1,1539,1436,0,0
322,-412,0,0,0,0,0,0,0,0,0,-1,1546,1436,0,0
329,-412,0,0,0,0,0,0,0,0,0,-1,1553,1436,0,0
336,-412,0,0,0,0,0,0,0,0,0,-1,1560,1436,0,0
343,-412,0,0,0,0,0,0,0,0,0,-1,1567,1436,0,0
350,-412,0,0,0,0,0,0,0,0,0,-1,1574,1436,0,0
357,-412,0,0,0,0,0,0,0,0,0,-1,1581,1436,0,0
364,-412,0,0,0,0,0,0,0,0,0,-1,1588,1436,0,0
371,-412,0,0,0,0,0,0,0,0,0,-1,1595,1436,0,0
378,-412,0,0,0,0,0,0,0,0,0,-1,1602,1436,0,0
385,-412,0,0,0,0,0,0,0,0,0,-1,1609,1436,0,0
392,-412,0,0,0,0,0,0,0,0,0,-1,1616,1436,0,0
399,-412,0,0,0,0,0,0,0,0,0,-1,1623,1436,0,0
406,-412,0,0,0,0,0,0,0,0,0,-1,1630,1436,0,0
413,-412,0,0,0,0,0,0,0,0,0,-1,1637,1436,0,0
420,-412,0,0,0,0,0,0,0,0,0,-1,1644,1436,0,0
427,-412,0,0,0,0,0,0,0,0,0,-1,1651,1436,0,0
434,-412,0,0,0,0,0,0,0,0,0,-1,1658,1436,0,0
441,-412,0,0,0,0,0,0,0,0,0,-1,1665,1436,0,0
448,-412,0,0,0,0,0,0,0,0,0,-1,1672,1436,0,0
455,-412,0,0,0,0,0,0,0,0,0,-1,1679,1436,0,0
462,-412,0,0,0,0,0,0,0,0,0,-1,1686,1436,0,0
469,-412,0,0,0,0,0,0,0,0,0,-1,1693,1436,0,0
476,-412,0,0,0,0,0,0,0,0,0,-1,1700,1436,0,0
483,-412,0,0,0,0,0,0,0,0,0,-1,1707,1436,0,0
490,-412,0,0,0,0,0,0,0,0,0,-1,1714,1436,0,0
497,-412,0,0,0,0,0,0,0,0,0,-1,1721,1436,0,0
504,-412,0,0,0,0,0,0,0,0,0,-1,1728,1436,0,0
511,-412,0,0,0,0,0,0,0,0,0,-1,1735,1436,0,0
518,-412,6.27344,1.39893,0,0,0,0,0,0,0,-1,1742,1436,6.27339,-1.39894
525,-412,4.23865,3.1792,0,0,0,0,0,0,0,-1,1749,1436,4.23864,-3.17924
532,-412,4.51831,3.00598,0,0,0,0,0,0,0,-1,1756,1436,4.51831,-3.006
539,-412,4.80957,3.05554,0,0,0,0,0,0,0,-1,1763,1436,4.80951,-3.05552
546,-412,6.69336,1.72485,0,0,0,0,0,0,0,-1,1770,1436,6.69337,-1.72485
553,-412,6.09888,0.730469,-0.000400024,-0.0155833,0.0417874,0.0344798,-0.0504631,0.695542,0.0493303,0.0456148,1777,1436,6.09883,-0.730468
560,-412,5.81982,1.45618,-0.00379374,-0.0150666,0.0351804,0.0261989,-0.0450592,0.705965,0.0416184,0.0439595,1784,1436,5.81986,-1.45614
567,-412,5.74854,1.91064,0,0,0,0,0,0,0,-1,1791,1436,5.7485,-1.91068
574,-412,6.00623,2.33911,0,0,0,0,0,0,0,-1,1798,1436,6.00617,-2.33915
581,-412,6.33936,3.39111,0,0,0,0,0,0,0,-1,1805,1436,6.33937,-3.39111
588,-412,5.55969,2.44189,-0.00810162,-0.0118466,0.016045,0.00617976,-0.026128,0.727309,0.0198027,0.0437218,1812,1436,5.55971,-2.44184
595,-412,5.1814,2.36536,-0.0078014,-0.0106088,0.0126361,0.00350876,-0.0219189,0.730083,0.0159117,0.0408156,1819,1436,5.18146,-2.3653
602,-412,4.98962,2.39148,-0.00777777,-0.00972059,0.00906009,0.000362838,-0.0178612,0.731993,0.0120302,0.02256,1826,1436,4.98956,-2.39151
609,-412,4.93408,2.30664,-0.00696407,-0.0080768,0.00632156,-0.00117444,-0.0138664,0.741506,0.00887874,0.00874786,1833,1436,4.93409,-2.3067
616,-412,4.94495,2.23315,-0.00557483,-0.00648629,0.00443408,-0.00157312,-0.010488,0.734188,0.00653109,0.00772347,1840,1436,4.94498,-2.23319
623,-412,4.94434,2.17749,-0.0038514,-0.0047365,0.00324485,-0.00101907,-0.00756884,0.717624,0.00474284,0.00891051,1847,1436,4.94436,-2.17754
630,-412,4.94702,2.09656,-0.00218414,-0.0039709,0.00245884,-0.000461404,-0.00569363,0.611146,0.00365168,0.0112223,1854,1436,4.94707,-2.0966
637,-412,4.94751,2.02856,-0.000921418,-0.00359371,0.00200878,0.000155001,-0.00467013,0.491921,0.00316635,0.0128895,1861,1436,4.94748,-2.02861
644,-412,4.96484,1.96765,0.000472058,-0.00293438,0.00150607,0.00104243,-0.00350475,0.362022,0.00275063,0.0142739,1868,1436,4.96481,-1.96768
651,-412,4.9259,1.88635,0.00140123,-0.00276615,0.00103011,0.00164196,-0.00300687,0.229566,0.00272229,0.0240234,1875,1436,4.9259,-1.88637
658,-412,4.93689,1.83923,0.0034618,-0.00331358,-0.000165165,0.00346583,-0.0033176,-0.0243579,0.00391673,0.0149267,1882,1436,4.93689,-1.83926
665,-412,4.95325,1.80371,0.00697944,-0.0037077,-0.0023801,0.00748554,-0.0042138,-0.209517,0.00684209,0.020419,1889,1436,4.95327,-1.80367
672,-412,4.99231,1.75684,0.0108674,-0.00495325,-0.0047744,0.0121966,-0.00628241,-0.271518,0.0108495,0.025525,1896,1436,4.99228,-1.75687
679,-412,5.02087,1.66699,0.0160848,-0.00644991,-0.00773861,0.0184864,-0.00885147,-0.300911,0.016107,0.0303303,1903,1436,5.02083,-1.66698
686,-412,4.90674,1.53687,0.023108,-0.0081718,-0.0117891,0.0270535,-0.0121173,-0.322959,0.0231568,0.0460699,1910,1436,4.90672,-1.53689
693,-412,4.87646,1.59399,0,0,0,0,0,0,0,-1,1917,1436,4.87649,-1.59395
700,-412,6.08362,2.73425,0,0,0,0,0,0,0,-1,1924,1436,6.08364,-2.73429
707,-412,7.11499,2.59875,0.058845,-0.0125559,-0.0342225,0.0725985,-0.0263095,-0.382132,0.0591524,0.0421491,1931,1436,7.11496,-2.59876
714,-412,8.65759,2.19568,0.0759174,-0.0133705,-0.0453629,0.09492,-0.032373,-0.396693,0.0763927,0.0436576,1938,1436,8.65754,-2.19563
721,-412,0,0,0,0,0,0,0,0,0,-1,1945,1436,0,0
728,-412,0,0,0,0,0,0,0,0,0,-1,1952,1436,0,0
735,-412,0,0,0,0,0,0,0,0,0,-1,1959,1436,0,0
742,-412,0,0,0,0,0,0,0,0,0,-1,1966,1436,0,0
749,-412,0,0,0,0,0,0,0,0,0,-1,1973,1436,0,0
756,-412,0,0,0,0,0,0,0,0,0,-1,1980,1436,0,0
763,-412,0,0,0,0,0,0,0,0,0,-1,1987,1436,0,0
770,-412,0,0,0,0,0,0,0,0,0,-1,1994,1436,0,0
777,-412,0,0,0,0,0,0,0,0,0,-1,2001,1436,0,0
784,-412,0,0,0,0,0,0,0,0,0,-1,2008,1436,0,0
791,-412,0,0,0,0,0,0,0,0,0,-1,2015,1436,0,0
798,-412,0,0,0,0,0,0,0,0,0,-1,2022,1436,0,0
805,-412,0,0,0,0,0,0,0,0,0,-1,2029,1436,0,0
812,-412,0,0,0,0,0,0,0,0,0,-1,2036,1436,0,0
-700,-419,0,0,0,0,0,0,0,0,0,-1,524,1443,0,0
-693,-419,0,0,0,0,0,0,0,0,0,-1,531,1443,0,0
-686,-419,0,0,0,0,0,0,0,0,0,-1,538,1443,0,0
-679,-419,0,0,0,0,0,0,0,0,0,-1,545,1443,0,0
-672,-419,0,0,0,0,0,0,0,0,0,-1,552,1443,0,0
-665,-419,0,0,0,0,0,0,0,0,0,-1,559,1443,0,0
-658,-419,0,0,0,0,0,0,0,0,0,-1,566,1443,0,0
-651,-419,0,0,0,0,0,0,0,0,0,-1,573,1443,0,0
-644,-419,0,0,0,0,0,0,0,0,0,-1,580,1443,0,0
-637,-419,0,0,0,0,0,0,0,0,0,-1,587,1443,0,0
-630,-419,0,0,0,0,0,0,0,0,0,-1,594,1443,0,0
-623,-419,0,0,0,0,0,0,0,0,0,-1,601,1443,0,0
-616,-419,0,0,0,0,0,0,0,0,0,-1,608,1443,0,0
-609,-419,0,0,0,0,0,0,0,0,0,-1,615,1443,0,0
-602,-419,0,0,0,0,0,0,0,0,0,-1,622,1443,0,0
-595,-419,2.15527,-4.17773,-0.0449901,0.0740105,0.0638768,0.101806,-0.0727854,1.16037,0.101263,0.0473368,629,1443,2.15528,4.17778
-588,-419,1.69476,-3.14124,-0.0361276,0.0628027,0.0566851,0.0885705,-0.0618954,1.14414,0.0873254,0.0457814,636,1443,1.69478,3.14127
-581,-419,0.619385,-1.65247,-0.0272922,0.0538414,0.0491686,0.077018,-0.0504687,1.13031,0.0741346,0.0448821,643,1443,0.619407,1.65243
-574,-419,0.270386,-0.777466,-0.0194121,0.0460534,0.0418584,0.0664578,-0.0398165,1.11723,0.0619968,0.049776,650,1443,0.270398,0.777452
-567,-419,-0.731201,0.209229,0,0,0,0,0,0,0,-1,657,1443,-0.731179,-0.209254
-560,-419,-0.63092,0.763062,-0.00741875,0.0330171,0.0285704,0.0477997,-0.0222013,1.09332,0.041306,0.0432897,664,1443,-0.630916,-0.763113
-553,-419,-0.451233,1.16418,-0.00353666,0.0277212,0.0229375,0.0398482,-0.0156637,1.08445,0.0330481,0.040507,671,1443,-0.451207,-1.16419
-546,-419,-0.246643,1.40332,-0.000518848,0.0229193,0.0178119,0.0325215,-0.0101211,1.07637,0.0257271,0.0359068,678,1443,-0.246613,-1.40336
-539,-419,-0.0770874,1.41785,0.00169738,0.018604,0.0133398,0.0259433,-0.00564195,1.06781,0.0194509,0.0218157,685,1443,-0.0770596,-1.41781
-532,-419,-0.117493,1.48181,0.00313898,0.0149927,0.00959284,0.0203419,-0.00221026,1.06212,0.0143549,0.0117619,692,1443,-0.117509,-1.48183
-525,-419,-0.128906,1.57227,0.00394033,0.011316,0.00621784,0.0148574,0.000398954,1.05307,0.00977468,0.0122833,699,1443,-0.128891,-1.57228
-518,-419,-0.0925903,1.64209,0.0039004,0.00837899,0.0035722,0.0103557,0.00192365,1.06537,0.00636033,0.0158997,706,1443,-0.0925695,-1.64214
-511,-419,-0.111877,1.72302,0.00341661,0.00587925,0.00159824,0.00666548,0.00263038,1.11362,0.0038767,0.0178823,713,1443,-0.111854,-1.72308
-504,-419,-0.145386,1.80017,0.00250776,0.00437262,-9.62592e-05,0.00437757,0.00250281,-1.51936,0.00253605,0.0169786,720,1443,-0.145385,-1.80022
-497,-419,-0.125977,1.84961,0.00176176,0.00337471,-0.0016212,0.00437895,0.000757522,-1.0162,0.00270242,0.0122918,727,1443,-0.125956,-1.84966
-490,-419,-0.108948,1.91541,0.00145488,0.00267685,-0.00310261,0.00522806,-0.00109633,-0.882617,0.00390249,0.0104378,734,1443,-0.108937,-1.91537
-483,-419,-0.100952,1.96313,0.00161902,0.00272938,-0.00468924,0.00689619,-0.00254779,-0.844321,0.00564186,0.00905185,741,1443,-0.100925,-1.96311
-476,-419,-0.109741,2.02637,0.00125669,0.00375851,-0.00638792,0.00901685,-0.00400165,-0.882087,0.0076999,0.00910456,748,1443,-0.109763,-2.0264
-469,-419,-0.101257,2.10474,-0.000262183,0.00558198,-0.0081855,0.0113513,-0.00603153,-0.956839,0.0101915,0.0125838,755,1443,-0.101256,-2.10474
-462,-419,-0.0883789,2.16174,-0.00229777,0.00826822,-0.0100175,0.0143104,-0.00833998,-1.02805,0.0132278,0.0232029,762,1443,-0.0884016,-2.16173
-455,-419,-0.304688,2.31592,-0.00457372,0.0114581,-0.0119709,0.017849,-0.0109646,-1.08042,0.0167931,0.0363106,769,1443,-0.304676,-2.31593
-448,-419,-0.560608,2.40991,-0.00749654,0.0156171,-0.0140403,0.0222452,-0.0141246,-1.12974,0.0211718,0.0425662,776,1443,-0.5606,-2.40986
-441,-419,-0.769897,2.39197,0,0,0,0,0,0,0,-1,783,1443,-0.769872,-2.39192
-434,-419,-0.51825,2.58313,-0.0152835,0.0246252,-0.0184937,0.0318773,-0.0225356,-1.19708,0.0315693,0.0477655,790,1443,-0.518269,-2.58307
-427,-419,-0.287109,2.51917,-0.0197877,0.0293976,-0.0208725,0.0370612,-0.0274512,-1.21892,0.0373837,0.0482919,797,1443,-0.287137,-2.51921
-420,-419,-1.20239,2.30981,-0.0241736,0.0338816,-0.0213772,0.0409038,-0.0311957,-1.25341,0.0417523,0.0467899,804,1443,-1.20239,-2.30981
-413,-419,-1.70459,2.72742,-0.0280451,0.0372943,-0.0212767,0.0436119,-0.0343627,-1.28216,0.0451241,0.0474804,811,1443,-1.70458,-2.72737
-406,-419,-2.17023,3.11584,0,0,0,0,0,0,0,-1,818,1443,-2.17021,-3.11582
-399,-419,1.64429,1.42944,0,0,0,0,0,0,0,-1,825,1443,1.64427,-1.4295
-392,-419,0,0,0,0,0,0,0,0,0,-1,832,1443,0,0
-385,-419,0,0,0,0,0,0,0,0,0,-1,839,1443,0,0
-378,-419,0,0,0,0,0,0,0,0,0,-1,846,1443,0,0
-371,-419,0,0,0,0,0,0,0,0,0,-1,853,1443,0,0
-364,-419,0,0,0,0,0,0,0,0,0,-1,860,1443,0,0
-357,-419,0,0,0,0,0,0,0,0,0,-1,867,1443,0,0
-350,-419,0,0,0,0,0,0,0,0,0,-1,874,1443,0,0
-343,-419,0,0,0,0,0,0,0,0,0,-1,881,1443,0,0
-336,-419,0,0,0,0,0,0,0,0,0,-1,888,1443,0,0
-329,-419,0,0,0,0,0,0,0,0,0,-1,895,1443,0,0
-322,-419,0,0,0,0,0,0,0,0,0,-1,902,1443,0,0
-315,-419,0,0,0,0,0,0,0,0,0,-1,909,1443,0,0
-308,-419,0,0,0,0,0,0,0,0,0,-1,916,1443,0,0
-301,-419,0,0,0,0,0,0,0,0,0,-1,923,1443,0,0
-294,-419,0,0,0,0,0,0,0,0,0,-1,930,1443,0,0
-287,-419,0,0,0,0,0,0,0,0,0,-1,937,1443,0,0
-280,-419,0,0,0,0,0,0,0,0,0,-1,944,1443,0,0
-273,-419,0,0,0,0,0,0,0,0,0,-1,951,1443,0,0
-266,-419,0,0,0,0,0,0,0,0,0,-1,958,1443,0,0
-259,-419,0,0,0,0,0,0,0,0,0,-1,965,1443,0,0
-252,-419,0,0,0,0,0,0,0,0,0,-1,972,1443,0,0
-245,-419,0,0,0,0,0,0,0,0,0,-1,979,1443,0,0
-238,-419,0,0,0,0,0,0,0,0,0,-1,986,1443,0,0
-231,-419,0,0,0,0,0,0,0,0,0,-1,993,1443,0,0
-224,-419,0,0,0,0,0,0,0,0,0,-1,1000,1443,0,0
-217,-419,0,0,0,0,0,0,0,0,0,-1,1007,1443,0,0
-210,-419,0,0,0,0,0,0,0,0,0,-1,1014,1443,0,0
-203,-419,0,0,0,0,0,0,0,0,0,-1,1021,1443,0,0
-196,-419,0,0,0,0,0,0,0,0,0,-1,1028,1443,0,0
-189,-419,0,0,0,0,0,0,0,0,0,-1,1035,1443,0,0
-182,-419,0,0,0,0,0,0,0,0,0,-1,1042,1443,0,0
-175,-419,0,0,0,0,0,0,0,0,0,-1,1049,1443,0,0
-168,-419,0,0,0,0,0,0,0,0,0,-1,1056,1443,0,0
-161,-419,0,0,0,0,0,0,0,0,0,-1,1063,1443,0,0
-154,-419,0,0,0,0,0,0,0,0,0,-1,1070,1443,0,0
-147,-419,0,0,0,0,0,0,0,0,0,-1,1077,1443,0,0
-140,-419,0,0,0,0,0,0,0,0,0,-1,1084,1443,0,0
-133,-419,0,0,0,0,0,0,0,0,0,-1,1091,1443,0,0
-126,-419,0,0,0,0,0,0,0,0,0,-1,1098,1443,0,0
-119,-419,0,0,0,0,0,0,0,0,0,-1,1105,1443,0,0
-112,-419,0,0,0,0,0,0,0,0,0,-1,1112,1443,0,0
-105,-419,0,0,0,0,0,0,0,0,0,-1,1119,1443,0,0
-98,-419,0,0,0,0,0,0,0,0,0,-1,1126,1443,0,0
-91,-419,0,0,0,0,0,0,0,0,0,-1,1133,1443,0,0
-84,-419,0,0,0,0,0,0,0,0,0,-1,1140,1443,0,0
-77,-419,0,0,0,0,0,0,0,0,0,-1,1147,1443,0,0
-70,-419,0,0,0,0,0,0,0,0,0,-1,1154,1443,0,0
-63,-419,0,0,0,0,0,0,0,0,0,-1,1161,1443,0,0
-56,-419,0,0,0,0,0,0,0,0,0,-1,1168,1443,0,0
-49,-419,0,0,0,0,0,0,0,0,0,-1,1175,1443,0,0
-42,-419,0,0,0,0,0,0,0,0,0,-1,1182,1443,0,0
-35,-419,0,0,0,0,0,0,0,0,0,-1,1189,1443,0,0
-28,-419,0,0,0,0,0,0,0,0,0,-1,1196,1443,0,0
-21,-419,0,0,0,0,0,0,0,0,0,-1,1203,1443,0,0
-14,-419,0,0,0,0,0,0,0,0,0,-1,1210,1443,0,0
-7,-419,0,0,0,0,0,0,0,0,0,-1,1217,1443,0,0
0,-419,0,0,0,0,0,0,0,0,0,-1,1224,1443,0,0
7,-419,0,0,0,0,0,0,0,0,0,-1,1231,1443,0,0
14,-419,0,0,0,0,0,0,0,0,0,-1,1238,1443,0,0
21,-419,0,0,0,0,0,0,0,0,0,-1,1245,1443,0,0
28,-419,0,0,0,0,0,0,0,0,0,-1,1252,1443,0,0
35,-419,0,0,0,0,0,0,0,0,0,-1,1259,1443,0,0
42,-419,0,0,0,0,0,0,0,0,0,-1,1266,1443,0,0
49,-419,0,0,0,0,0,0,0,0,0,-1,1273,1443,0,0
56,-419,0,0,0,0,0,0,0,0,0,-1,1280,1443,0,0
63,-419,0,0,0,0,0,0,0,0,0,-1,1287,1443,0,0
70,-419,0,0,0,0,0,0,0,0,0,-1,1294,1443,0,0
77,-419,0,0,0,0,0,0,0,0,0,-1,1301,1443,0,0
84,-419,0,0,0,0,0,0,0,0,0,-1,1308,1443,0,0
91,-419,0,0,0,0,0,0,0,0,0,-1,1315,1443,0,0
98,-419,0,0,0,0,0,0,0,0,0,-1,1322,1443,0,0
105,-419,0,0,0,0,0,0,0,0,0,-1,1329,1443,0,0
112,-419,0,0,0,0,0,0,0,0,0,-1,1336,1443,0,0
119,-419,0,0,0,0,0,0,0,0,0,-1,1343,1443,0,0
126,-419,0,0,0,0,0,0,0,0,0,-1,1350,1443,0,0
133,-419,0,0,0,0,0,0,0,0,0,-1,1357,1443,0,0
140,-419,0,0,0,0,0,0,0,0,0,-1,1364,1443,0,0
147,-419,0,0,0,0,0,0,0,0,0,-1,1371,1443,0,0
154,-419,0,0,0,0,0,0,0,0,0,-1,1378,1443,0,0
161,-419,0,0,0,0,0,0,0,0,0,-1,1385,1443,0,0
168,-419,0,0,0,0,0,0,0,0,0,-1,1392,1443,0,0
175,-419,0,0,0,0,0,0,0,0,0,-1,1399,1443,0,0
182,-419,0,0,0,0,0,0,0,0,0,-1,1406,1443,0,0
189,-419,0,0,0,0,0,0,0,0,0,-1,1413,1443,0,0
196,-419,0,0,0,0,0,0,0,0,0,-1,1420,1443,0,0
203,-419,0,0,0,0,0,0,0,0,0,-1,1427,1443,0,0
210,-419,0,0,0,0,0,0,0,0,0,-1,1434,1443,0,0
217,-419,0,0,0,0,0,0,0,0,0,-1,1441,1443,0,0
224,-419,0,0,0,0,0,0,0,0,0,-1,1448,1443,0,0
231,-419,0,0,0,0,0,0,0,0,0,-1,1455,1443,0,0
238,-419,0,0,0,0,0,0,0,0,0,-1,1462,1443,0,0
245,-419,0,0,0,0,0,0,0,0,0,-1,1469,1443,0,0
252,-419,0,0,0,0,0,0,0,0,0,-1,1476,1443,0,0
259,-419,0,0,0,0,0,0,0,0,0,-1,1483,1443,0,0
266,-419,0,0,0,0,0,0,0,0,0,-1,1490,1443,0,0
273,-419,0,0,0,0,0,0,0,0,0,-1,1497,1443,0,0
280,-419,0,0,0,0,0,0,0,0,0,-1,1504,1443,0,0
287,-419,0,0,0,0,0,0,0,0,0,-1,1511,1443,0,0
294,-419,0,0,0,0,0,0,0,0,0,-1,1518,1443,0,0
301,-419,0,0,0,0,0,0,0,0,0,-1,1525,1443,0,0
308,-419,0,0,0,0,0,0,0,0,0,-1,1532,1443,0,0
315,-419,0,0,0,0,0,0,0,0,0,-1,1539,1443,0,0
322,-419,0,0,0,0,0,0,0,0,0,-1,1546,1443,0,0
329,-419,0,0,0,0,0,0,0,0,0,-1,1553,1443,0,0
336,-419,0,0,0,0,0,0,0,0,0,-1,1560,1443,0,0
343,-419,0,0,0,0,0,0,0,0,0,-1,1567,1443,0,0
350,-419,0,0,0,0,0,0,0,0,0,-1,1574,1443,0,0
357,-419,0,0,0,0,0,0,0,0,0,-1,1581,1443,0,0
364,-419,0,0,0,0,0,0,0,0,0,-1,1588,1443,0,0
371,-419,0,0,0,0,0,0,0,0,0,-1,1595,1443,0,0
378,-419,0,0,0,0,0,0,0,0,0,-1,1602,1443,0,0
385,-419,0,0,0,0,0,0,0,0,0,-1,1609,1443,0,0
392,-419,0,0,0,0,0,0,0,0,0,-1,1616,1443,0,0
399,-419,0,0,0,0,0,0,0,0,0,-1,1623,1443,0,0
406,-419,0,0,0,0,0,0,0,0,0,-1,1630,1443,0,0
413,-419,0,0,0,0,0,0,0,0,0,-1,1637,1443,0,0
420,-419,0,0,0,0,0,0,0,0,0,-1,1644,1443,0,0
427,-419,0,0,0,0,0,0,0,0,0,-1,1651,1443,0,0
434,-419,0,0,0,0,0,0,0,0,0,-1,1658,1443,0,0
441,-419,0,0,0,0,0,0,0,0,0,-1,1665,1443,0,0
448,-419,0,0,0,0,0,0,0,0,0,-1,1672,1443,0,0
455,-419,0,0,0,0,0,0,0,0,0,-1,1679,1443,0,0
462,-419,0,0,0,0,0,0,0,0,0,-1,1686,1443,0,0
469,-419,0,0,0,0,0,0,0,0,0,-1,1693,1443,0,0
476,-419,0,0,0,0,0,0,0,0,0,-1,1700,1443,0,0
483,-419,0,0,0,0,0,0,0,0,0,-1,1707,1443,0,0
490,-419,0,0,0,0,0,0,0,0,0,-1,1714,1443,0,0
497,-419,0,0,0,0,0,0,0,0,0,-1,1721,1443,0,0
504,-419,0,0,0,0,0,0,0,0,0,-1,1728,1443,0,0
511,-419,7.95569,1.03369,0,0,0,0,0,0,0,-1,1735,1443,7.95563,-1.03371
518,-419,6.58423,0.733398,0,0,0,0,0,0,0,-1,1742,1443,6.5842,-0.733443
525,-419,4.82495,3.55652,0,0,0,0,0,0,0,-1,1749,1443,4.82491,-3.55658
532,-419,5.10474,3.44971,0,0,0,0,0,0,0,-1,1756,1443,5.10475,-3.44976
539,-419,6.98035,2.37219,0,0,0,0,0,0,0,-1,1763,1443,6.98033,-2.37225
546,-419,6.41479,2.19226,0,0,0,0,0,0,0,-1,1770,1443,6.41477,-2.19227
553,-419,5.86646,1.98804,-0.00112543,-0.0175192,0.0354985,0.0271102,-0.0457548,0.671933,0.0425253,0.0443857,1777,1443,5.86649,-1.98802
560,-419,5.3042,1.76477,-0.00340058,-0.0170738,0.0298697,0.0204049,-0.0408793,0.672895,0.0360346,0.0435142,1784,1443,5.30418,-1.76478
567,-419,4.74072,1.5957,-0.0049776,-0.0161746,0.0249705,0.0150143,-0.0361665,0.67512,0.0303788,0.0438359,1791,1443,4.74067,-1.59572
574,-419,6.41382,3.59326,0,0,0,0,0,0,0,-1,1798,1443,6.41378,-3.59322
581,-419,5.85803,3.20862,-0.00660777,-0.0135762,0.0166496,0.00691831,-0.0271022,0.682254,0.0207621,0.0436737,1805,1443,5.85806,-3.20866
588,-419,5.4342,2.66553,-0.00684011,-0.0122257,0.0130584,0.0038002,-0.022866,0.683717,0.0166559,0.039619,1812,1443,5.43419,-2.6655
595,-419,4.99585,2.52539,-0.00671095,-0.0105151,0.0101097,0.00167399,-0.0189001,0.692412,0.0131935,0.0315841,1819,1443,4.99585,-2.52534
602,-419,4.88379,2.38037,-0.00677315,-0.00921437,0.00702398,-0.000864516,-0.015123,0.699368,0.00980654,0.0137887,1826,1443,4.88379,-2.38036
609,-419,4.88098,2.30579,-0.0059422,-0.00727167,0.00474342,-0.00181717,-0.0113967,0.715783,0.00707035,0.0102462,1833,1443,4.88099,-2.30583
616,-419,4.88098,2.27075,-0.0046033,-0.00550993,0.00322227,-0.00180262,-0.00831062,0.715516,0.00504799,0.0111044,1840,1443,4.88098,-2.27078
623,-419,4.87488,2.18909,-0.00342148,-0.00381175,0.00231077,-0.00129762,-0.00593561,0.743275,0.00360328,0.00907344,1847,1443,4.87487,-2.18905
630,-419,4.87183,2.10889,-0.00199966,-0.00294329,0.00173662,-0.000671908,-0.00427105,0.652756,0.00265192,0.011454,1854,1443,4.87186,-2.10886
637,-419,4.86194,2.05273,-0.000569621,-0.00283791,0.00118894,-6.06385e-05,-0.0033469,0.404491,0.00221133,0.0119472,1861,1443,4.86188,-2.05275
644,-419,4.88257,2.00122,0.000869978,-0.002372,0.00071722,0.00102156,-0.00252358,0.208283,0.00210713,0.0110088,1868,1443,4.88261,-2.00125
651,-419,4.88757,1.93689,0.00194819,-0.00235044,0.000215894,0.00195901,-0.00236125,0.050056,0.00249791,0.010771,1875,1443,4.88755,-1.93689
658,-419,4.88062,1.86194,0.004257,-0.00298866,-0.00104566,0.00440489,-0.00313655,-0.140497,0.00437453,0.0111394,1882,1443,4.88065,-1.86188
665,-419,4.87561,1.80396,0.00813611,-0.0034206,-0.00349556,0.00911115,-0.00439564,-0.272022,0.00795499,0.0179753,1889,1443,4.8756,-1.80394
672,-419,4.90784,1.71863,0.0125168,-0.00466734,-0.00623048,0.014538,-0.00668859,-0.313701,0.0125314,0.0221331,1896,1443,4.90787,-1.71859
679,-419,4.93799,1.69446,0.018463,-0.00604685,-0.00981508,0.021909,-0.00949285,-0.337648,0.0185962,0.0355331,1903,1443,4.93799,-1.69448
686,-419,4.82764,1.4541,0,0,0,0,0,0,0,-1,1910,1443,4.82759,-1.45414
693,-419,4.57837,1.97095,0,0,0,0,0,0,0,-1,1917,1443,4.57837,-1.97091
700,-419,6.68787,2.74084,0,0,0,0,0,0,0,-1,1924,1443,6.68786,-2.74087
707,-419,7.82825,2.4906,0,0,0,0,0,0,0,-1,1931,1443,7.82822,-2.49066
714,-419,9.13989,2.25635,0,0,0,0,0,0,0,-1,1938,1443,9.13993,-2.25636
721,-419,0,0,0,0,0,0,0,0,0,-1,1945,1443,0,0
728,-419,0,0,0,0,0,0,0,0,0,-1,1952,1443,0,0
735,-419,0,0,0,0,0,0,0,0,0,-1,1959,1443,0,0
742,-419,0,0,0,0,0,0,0,0,0,-1,1966,1443,0,0
749,-419,0,0,0,0,0,0,0,0,0,-1,1973,1443,0,0
756,-419,0,0,0,0,0,0,0,0,0,-1,1980,1443,0,0
763,-419,0,0,0,0,0,0,0,0,0,-1,1987,1443,0,0
770,-419,0,0,0,0,0,0,0,0,0,-1,1994,1443,0,0
777,-419,0,0,0,0,0,0,0,0,0,-1,2001,1443,0,0
784,-419,0,0,0,0,0,0,0,0,0,-1,2008,1443,0,0
791,-419,0,0,0,0,0,0,0,0,0,-1,2015,1443,0,0
798,-419,0,0,0,0,0,0,0,0,0,-1,2022,1443,0,0
805,-419,0,0,0,0,0,0,0,0,0,-1,2029,1443,0,0
812,-419,0,0,0,0,0,0,0,0,0,-1,2036,1443,0,0
-700,-426,0,0,0,0,0,0,0,0,0,-1,524,1450,0,0
-693,-426,0,0,0,0,0,0,0,0,0,-1,531,1450,0,0
-686,-426,0,0,0,0,0,0,0,0,0,-1,538,1450,0,0
-679,-426,0,0,0,0,0,0,0,0,0,-1,545,1450,0,0
-672,-426,0,0,0,0,0,0,0,0,0,-1,552,1450,0,0
-665,-426,0,0,0,0,0,0,0,0,0,-1,559,1450,0,0
-658,-426,0,0,0,0,0,0,0,0,0,-1,566,1450,0,0
-651,-426,0,0,0,0,0,0,0,0,0,-1,573,1450,0,0
-644,-426,0,0,0,0,0,0,0,0,0,-1,580,1450,0,0
-637,-426,0,0,0,0,0,0,0,0,0,-1,587,1450,0,0
-630,-426,0,0,0,0,0,0,0,0,0,-1,594,1450,0,0
-623,-426,0,0,0,0,0,0,0,0,0,-1,601,1450,0,0
-616,-426,0,0,0,0,0,0,0,0,0,-1,608,1450,0,0
-609,-426,0,0,0,0,0,0,0,0,0,-1,615,1450,0,0
-602,-426,0,0,0,0,0,0,0,0,0,-1,622,1450,0,0
-595,-426,0,0,0,0,0,0,0,0,0,-1,629,1450,0,0
-588,-426,1.68542,-3.74915,0,0,0,0,0,0,0,-1,636,1450,1.68545,3.74909
-581,-426,0.465271,-1.41418,0,0,0,0,0,0,0,-1,643,1450,0.465263,1.41421
-574,-426,0.234558,-0.618408,0,0,0,0,0,0,0,-1,650,1450,0.234558,0.618384
-567,-426,-0.708374,0.388184,0,0,0,0,0,0,0,-1,657,1450,-0.708385,-0.388161
-560,-426,-0.630371,0.963745,-0.00399027,0.0366259,0.0300749,0.0526072,-0.0199716,1.08236,0.0432924,0.0470881,664,1450,-0.630402,-0.963748
-553,-426,-0.541443,1.20605,-0.000284268,0.0314435,0.0242134,0.044527,-0.0133678,1.0754,0.0350021,0.0457505,671,1450,-0.541456,-1.20603
-546,-426,-0.25592,1.35364,0.00235605,0.0265913,0.0190114,0.0370186,-0.00807118,1.06913,0.0277633,0.0442051,678,1450,-0.25595,-1.35363
-539,-426,0.12616,1.20374,0.00401586,0.0220052,0.0144011,0.0299898,-0.00396877,1.06455,0.0214389,0.032953,685,1450,0.126158,-1.20372
-532,-426,-0.0315552,1.47461,0.00486541,0.0179982,0.0105785,0.0238826,-0.001019,1.06316,0.0162721,0.0177699,692,1450,-0.0315659,-1.47459
-525,-426,-0.0446777,1.55505,0.00518698,0.0137783,0.00715522,0.0178283,0.00113699,1.05574,0.0115252,0.0115408,699,1450,-0.0446816,-1.55509
-518,-426,-0.0257568,1.6449,0.00461084,0.0104612,0.00457071,0.0129627,0.00210942,1.07005,0.00803151,0.014882,706,1450,-0.0257544,-1.64489
-511,-426,-0.0415039,1.71387,0.00367821,0.00757349,0.00269116,0.00894784,0.00230385,1.09863,0.00536479,0.0146488,713,1450,-0.0415124,-1.71391
-504,-426,-0.0620728,1.77808,0.00254451,0.00539217,0.00108813,0.00576035,0.00217633,1.24452,0.00335868,0.0147461,720,1450,-0.0620917,-1.77806
-497,-426,-0.0535278,1.83777,0.00167811,0.00374787,-0.000350275,0.00380554,0.00162044,-1.40761,0.00220518,0.0121607,727,1450,-0.0535324,-1.83776
-490,-426,-0.0426025,1.92163,0.00147212,0.00223763,-0.0017767,0.00367233,3.74189e-05,-0.891493,0.00243585,0.0117687,734,1450,-0.0425992,-1.92163
-483,-426,-0.03479,1.97253,0.00171411,0.00150233,-0.00325281,0.00486276,-0.00164632,-0.769128,0.00390796,0.0110718,741,1450,-0.0348014,-1.97253
-476,-426,-0.0499878,2.03735,0.00163129,0.00161445,-0.0048464,0.00646928,-0.00322353,-0.78453,0.00569977,0.00859799,748,1450,-0.0500093,-2.03732
-469,-426,-0.0553589,2.1189,0.000583559,0.00254929,-0.00656332,0.00820293,-0.00507007,-0.859722,0.007734,0.0065321,755,1450,-0.0553695,-2.11884
-462,-426,-0.0255737,2.19556,-0.000836821,0.0041861,-0.00830939,0.0103553,-0.007006,-0.932155,0.0100855,0.0129161,762,1450,-0.0256029,-2.19551
-455,-426,-0.0852051,2.23633,-0.00226324,0.00614552,-0.0102601,0.0130293,-0.00914702,-0.979852,0.0128687,0.0261451,769,1450,-0.0852056,-2.23627
-448,-426,-0.318298,2.1947,-0.00414059,0.00911801,-0.0124095,0.0165579,-0.0115805,-1.03072,0.0163303,0.0388919,776,1450,-0.318275,-2.19476
-441,-426,-0.473938,2.37854,-0.00704018,0.0123114,-0.0147221,0.0202527,-0.0149815,-1.07612,0.0204182,0.0412407,783,1450,-0.473925,-2.37859
-434,-426,-0.15155,2.44751,-0.0095023,0.0154571,-0.0169587,0.024033,-0.0180782,-1.1026,0.0243938,0.044561,790,1450,-0.151536,-2.44753
-427,-426,0.141663,2.10217,-0.0124807,0.0189329,-0.0194296,0.0282104,-0.0217582,-1.12532,0.0289294,0.0481518,797,1450,0.14166,-2.10217
-420,-426,-0.555298,2.00354,-0.015395,0.0224067,-0.0199713,0.0310031,-0.0239913,-1.16433,0.0318369,0.0450608,804,1450,-0.555289,-2.00358
-413,-426,-0.845093,2.53662,-0.017917,0.0251616,-0.0199469,0.0329791,-0.0257345,-1.19728,0.0339842,0.0475793,811,1450,-0.845105,-2.53666
-406,-426,-1.03625,1.56445,0,0,0,0,0,0,0,-1,818,1450,-1.03623,-1.56443
-399,-426,-0.818665,2.31873,0,0,0,0,0,0,0,-1,825,1450,-0.818671,-2.31867
-392,-426,-0.690186,1.88574,0,0,0,0,0,0,0,-1,832,1450,-0.690197,-1.88569
-385,-426,0,0,0,0,0,0,0,0,0,-1,839,1450,0,0
-378,-426,0,0,0,0,0,0,0,0,0,-1,846,1450,0,0
-371,-426,0,0,0,0,0,0,0,0,0,-1,853,1450,0,0
-364,-426,0,0,0,0,0,0,0,0,0,-1,860,1450,0,0
-357,-426,0,0,0,0,0,0,0,0,0,-1,867,1450,0,0
-350,-426,0,0,0,0,0,0,0,0,0,-1,874,1450,0,0
-343,-426,0,0,0,0,0,0,0,0,0,-1,881,1450,0,0
-336,-426,0,0,0,0,0,0,0,0,0,-1,888,1450,0,0
-329,-426,0,0,0,0,0,0,0,0,0,-1,895,1450,0,0
-322,-426,0,0,0,0,0,0,0,0,0,-1,902,1450,0,0
-315,-426,0,0,0,0,0,0,0,0,0,-1,909,1450,0,0
-308,-426,0,0,0,0,0,0,0,0,0,-1,916,1450,0,0
-301,-426,0,0,0,0,0,0,0,0,0,-1,923,1450,0,0
-294,-426,0,0,0,0,0,0,0,0,0,-1,930,1450,0,0
-287,-426,0,0,0,0,0,0,0,0,0,-1,937,1450,0,0
-280,-426,0,0,0,0,0,0,0,0,0,-1,944,1450,0,0
-273,-426,0,0,0,0,0,0,0,0,0,-1,951,1450,0,0
-266,-426,0,0,0,0,0,0,0,0,0,-1,958,1450,0,0
-259,-426,0,0,0,0,0,0,0,0,0,-1,965,1450,0,0
-252,-426,0,0,0,0,0,0,0,0,0,-1,972,1450,0,0
-245,-426,0,0,0,0,0,0,0,0,0,-1,979,1450,0,0
-238,-426,0,0,0,0,0,0,0,0,0,-1,986,1450,0,0
-231,-426,0,0,0,0,0,0,0,0,0,-1,993,1450,0,0
-224,-426,0,0,0,0,0,0,0,0,0,-1,1000,1450,0,0
-217,-426,0,0,0,0,0,0,0,0,0,-1,1007,1450,0,0
-210,-426,0,0,0,0,0,0,0,0,0,-1,1014,1450,0,0
-203,-426,0,0,0,0,0,0,0,0,0,-1,1021,1450,0,0
-196,-426,0,0,0,0,0,0,0,0,0,-1,1028,1450,0,0
-189,-426,0,0,0,0,0,0,0,0,0,-1,1035,1450,0,0
-182,-426,0,0,0,0,0,0,0,0,0,-1,1042,1450,0,0
-175,-426,0,0,0,0,0,0,0,0,0,-1,1049,1450,0,0
-168,-426,0,0,0,0,0,0,0,0,0,-1,1056,1450,0,0
-161,-426,0,0,0,0,0,0,0,0,0,-1,1063,1450,0,0
-154,-426,0,0,0,0,0,0,0,0,0,-1,1070,1450,0,0
-147,-426,0,0,0,0,0,0,0,0,0,-1,1077,1450,0,0
-140,-426,0,0,0,0,0,0,0,0,0,-1,1084,1450,0,0
-133,-426,0,0,0,0,0,0,0,0,0,-1,1091,1450,0,0
-126,-426,0,0,0,0,0,0,0,0,0,-1,1098,1450,0,0
-119,-426,0,0,0,0,0,0,0,0,0,-1,1105,1450,0,0
-112,-426,0,0,0,0,0,0,0,0,0,-1,1112,1450,0,0
-105,-426,0,0,0,0,0,0,0,0,0,-1,1119,1450,0,0
-98,-426,0,0,0,0,0,0,0,0,0,-1,1126,1450,0,0
-91,-426,0,0,0,0,0,0,0,0,0,-1,1133,1450,0,0
-84,-426,0,0,0,0,0,0,0,0,0,-1,1140,1450,0,0
-77,-426,0,0,0,0,0,0,0,0,0,-1,1147,1450,0,0
-70,-426,0,0,0,0,0,0,0,0,0,-1,1154,1450,0,0
-63,-426,0,0,0,0,0,0,0,0,0,-1,1161,1450,0,0
-56,-426,0,0,0,0,0,0,0,0,0,-1,1168,1450,0,0
-49,-426,0,0,0,0,0,0,0,0,0,-1,1175,1450,0,0
-42,-426,0,0,0,0,0,0,0,0,0,-1,1182,1450,0,0
-35,-426,0,0,0,0,0,0,0,0,0,-1,1189,1450,0,0
-28,-426,0,0,0,0,0,0,0,0,0,-1,1196,1450,0,0
-21,-426,0,0,0,0,0,0,0,0,0,-1,1203,1450,0,0
-14,-426,0,0,0,0,0,0,0,0,0,-1,1210,1450,0,0
-7,-426,0,0,0,0,0,0,0,0,0,-1,1217,1450,0,0
0,-426,0,0,0,0,0,0,0,0,0,-1,1224,1450,0,0
7,-426,0,0,0,0,0,0,0,0,0,-1,1231,1450,0,0
14,-426,0,0,0,0,0,0,0,0,0,-1,1238,1450,0,0
21,-426,0,0,0,0,0,0,0,0,0,-1,1245,1450,0,0
28,-426,0,0,0,0,0,0,0,0,0,-1,1252,1450,0,0
35,-426,0,0,0,0,0,0,0,0,0,-1,1259,1450,0,0
42,-426,0,0,0,0,0,0,0,0,0,-1,1266,1450,0,0
49,-426,0,0,0,0,0,0,0,0,0,-1,1273,1450,0,0
56,-426,0,0,0,0,0,0,0,0,0,-1,1280,1450,0,0
63,-426,0,0,0,0,0,0,0,0,0,-1,1287,1450,0,0
70,-426,0,0,0,0,0,0,0,0,0,-1,1294,1450,0,0
77,-426,0,0,0,0,0,0,0,0,0,-1,1301,1450,0,0
84,-426,0,0,0,0,0,0,0,0,0,-1,1308,1450,0,0
91,-426,0,0,0,0,0,0,0,0,0,-1,1315,1450,0,0
98,-426,0,0,0,0,0,0,0,0,0,-1,1322,1450,0,0
105,-426,0,0,0,0,0,0,0,0,0,-1,1329,1450,0,0
112,-426,0,0,0,0,0,0,0,0,0,-1,1336,1450,0,0
119,-426,0,0,0,0,0,0,0,0,0,-1,1343,1450,0,0
126,-426,0,0,0,0,0,0,0,0,0,-1,1350,1450,0,0
133,-426,0,0,0,0,0,0,0,0,0,-1,1357,1450,0,0
140,-426,0,0,0,0,0,0,0,0,0,-1,1364,1450,0,0
147,-426,0,0,0,0,0,0,0,0,0,-1,1371,1450,0,0
154,-426,0,0,0,0,0,0,0,0,0,-1,1378,1450,0,0
161,-426,0,0,0,0,0,0,0,0,0,-1,1385,1450,0,0
168,-426,0,0,0,0,0,0,0,0,0,-1,1392,1450,0,0
175,-426,0,0,0,0,0,0,0,0,0,-1,1399,1450,0,0
182,-426,0,0,0,0,0,0,0,0,0,-1,1406,1450,0,0
189,-426,0,0,0,0,0,0,0,0,0,-1,1413,1450,0,0
196,-426,0,0,0,0,0,0,0,0,0,-1,1420,1450,0,0
203,-426,0,0,0,0,0,0,0,0,0,-1,1427,1450,0,0
210,-426,0,0,0,0,0,0,0,0,0,-1,1434,1450,0,0
217,-426,0,0,0,0,0,0,0,0,0,-1,1441,1450,0,0
224,-426,0,0,0,0,0,0,0,0,0,-1,1448,1450,0,0
231,-426,0,0,0,0,0,0,0,0,0,-1,1455,1450,0,0
238,-426,0,0,0,0,0,0,0,0,0,-1,1462,1450,0,0
245,-426,0,0,0,0,0,0,0,0,0,-1,1469,1450,0,0
252,-426,0,0,0,0,0,0,0,0,0,-1,1476,1450,0,0
259,-426,0,0,0,0,0,0,0,0,0,-1,1483,1450,0,0
266,-426,0,0,0,0,0,0,0,0,0,-1,1490,1450,0,0
273,-426,0,0,0,0,0,0,0,0,0,-1,1497,1450,0,0
280,-426,0,0,0,0,0,0,0,0,0,-1,1504,1450,0,0
287,-426,0,0,0,0,0,0,0,0,0,-1,1511,1450,0,0
294,-426,0,0,0,0,0,0,0,0,0,-1,1518,1450,0,0
301,-426,0,0,0,0,0,0,0,0,0,-1,1525,1450,0,0
308,-426,0,0,0,0,0,0,0,0,0,-1,1532,1450,0,0
315,-426,0,0,0,0,0,0,0,0,0,-1,1539,1450,0,0
322,-426,0,0,0,0,0,0,0,0,0,-1,1546,1450,0,0
329,-426,0,0,0,0,0,0,0,0,0,-1,1553,1450,0,0
336,-426,0,0,0,0,0,0,0,0,0,-1,1560,1450,0,0
343,-426,0,0,0,0,0,0,0,0,0,-1,1567,1450,0,0
350,-426,0,0,0,0,0,0,0,0,0,-1,1574,1450,0,0
357,-426,0,0,0,0,0,0,0,0,0,-1,1581,1450,0,0
364,-426,0,0,0,0,0,0,0,0,0,-1,1588,1450,0,0
371,-426,0,0,0,0,0,0,0,0,0,-1,1595,1450,0,0
378,-426,0,0,0,0,0,0,0,0,0,-1,1602,1450,0,0
385,-426,0,0,0,0,0,0,0,0,0,-1,1609,1450,0,0
392,-426,0,0,0,0,0,0,0,0,0,-1,1616,1450,0,0
399,-426,0,0,0,0,0,0,0,0,0,-1,1623,1450,0,0
406,-426,0,0,0,0,0,0,0,0,0,-1,1630,1450,0,0
413,-426,0,0,0,0,0,0,0,0,0,-1,1637,1450,0,0
420,-426,0,0,0,0,0,0,0,0,0,-1,1644,1450,0,0
427,-426,0,0,0,0,0,0,0,0,0,-1,1651,1450,0,0
434,-426,0,0,0,0,0,0,0,0,0,-1,1658,1450,0,0
441,-426,0,0,0,0,0,0,0,0,0,-1,1665,1450,0,0
448,-426,0,0,0,0,0,0,0,0,0,-1,1672,1450,0,0
455,-426,0,0,0,0,0,0,0,0,0,-1,1679,1450,0,0
462,-426,0,0,0,0,0,0,0,0,0,-1,1686,1450,0,0
469,-426,0,0,0,0,0,0,0,0,0,-1,1693,1450,0,0
476,-426,0,0,0,0,0,0,0,0,0,-1,1700,1450,0,0
483,-426,0,0,0,0,0,0,0,0,0,-1,1707,1450,0,0
490,-426,0,0,0,0,0,0,0,0,0,-1,1714,1450,0,0
497,-426,0,0,0,0,0,0,0,0,0,-1,1721,1450,0,0
504,-426,8.38635,1.21667,0,0,0,0,0,0,0,-1,1728,1450,8.38634,-1.21662
511,-426,9.90833,2.03162,0,0,0,0,0,0,0,-1,1735,1450,9.90829,-2.0316
518,-426,9.08777,1.84448,0,0,0,0,0,0,0,-1,1742,1450,9.08777,-1.84448
525,-426,7.30396,2.73999,0,0,0,0,0,0,0,-1,1749,1450,7.30398,-2.73996
532,-426,5.66663,3.8916,0,0,0,0,0,0,0,-1,1756,1450,5.66665,-3.89156
539,-426,5.73401,3.21655,0,0,0,0,0,0,0,-1,1763,1450,5.73399,-3.21658
546,-426,5.92505,2.81189,0,0,0,0,0,0,0,-1,1770,1450,5.925,-2.81188
553,-426,5.5802,2.60828,-0.00475178,-0.0175044,0.0291651,0.0187259,-0.0409821,0.677778,0.0352617,0.0447483,1777,1450,5.58019,-2.60832
560,-426,5.02441,2.08899,-0.00658696,-0.0171868,0.0243778,0.0130604,-0.0368342,0.67836,0.0298768,0.043283,1784,1450,5.02447,-2.08894
567,-426,4.55188,1.72205,-0.0078167,-0.0160394,0.0201998,0.00868593,-0.032542,0.685003,0.0250961,0.0438014,1791,1450,4.55191,-1.72209
574,-426,5.94604,3.41895,0,0,0,0,0,0,0,-1,1798,1450,5.94605,-3.4189
581,-426,5.33826,2.98279,-0.00842727,-0.0125779,0.0132403,0.00289939,-0.0239046,0.70766,0.0169855,0.0449955,1805,1450,5.33826,-2.98282
588,-426,4.86902,2.57166,-0.00813862,-0.0108437,0.0102261,0.000823954,-0.0198063,0.719648,0.0134872,0.032723,1812,1450,4.86908,-2.5717
595,-426,4.79431,2.43945,-0.00749297,-0.00895494,0.00783035,-0.000359562,-0.0160883,0.738856,0.0106077,0.0215109,1819,1450,4.79428,-2.43951
602,-426,4.80249,2.33008,-0.00708594,-0.00751119,0.00535796,-0.00193638,-0.0126607,0.765566,0.00787479,0.0138386,1826,1450,4.80253,-2.33005
609,-426,4.81934,2.28455,-0.00583461,-0.00562464,0.00359171,-0.00213638,-0.00932286,0.800008,0.00563965,0.0114628,1833,1450,4.81931,-2.28457
616,-426,4.82874,2.25171,-0.00419592,-0.00403065,0.00242112,-0.00169075,-0.00653582,0.802457,0.00391721,0.0130684,1840,1450,4.82874,-2.25172
623,-426,4.81458,2.17944,-0.00285912,-0.0026644,0.00171913,-0.00103987,-0.00448365,0.813685,0.00270982,0.0103334,1847,1450,4.81459,-2.17943
630,-426,4.81189,2.11194,-0.00154417,-0.00207993,0.00114516,-0.000635977,-0.00298812,0.670501,0.00181756,0.0109237,1854,1450,4.81192,-2.11198
637,-426,4.8053,2.04944,-9.75057e-05,-0.00222492,0.000521737,2.35585e-05,-0.00234598,0.228005,0.0015719,0.0111283,1861,1450,4.80532,-2.04944
644,-426,4.79553,2.00488,0.00133233,-0.00196395,7.1561e-06,0.00133235,-0.00196396,0.00217095,0.00191474,0.0108074,1868,1450,4.79558,-2.00493
651,-426,4.79529,1.948,0.00251061,-0.00208771,-0.000594066,0.00258612,-0.00216321,-0.126427,0.00274565,0.0108964,1875,1450,4.79531,-1.94805
658,-426,4.81885,1.8634,0.00498932,-0.00279178,-0.00198649,0.00546713,-0.00326958,-0.236043,0.00509705,0.0104769,1882,1450,4.8188,-1.86337
665,-426,4.82739,1.78772,0.00911597,-0.00324792,-0.00469706,0.010698,-0.00482992,-0.324873,0.00917593,0.0150499,1889,1450,4.82737,-1.78772
672,-426,4.83557,1.73792,0.0139117,-0.00444271,-0.00781319,0.0167871,-0.00731819,-0.352645,0.0142706,0.024774,1896,1450,4.8356,-1.73794
679,-426,4.94141,2.02649,0.0205284,-0.0056584,-0.0120774,0.0252479,-0.0103779,-0.372528,0.0211574,0.0360154,1903,1450,4.94143,-2.02644
686,-426,5.0498,2.23694,0.0295476,-0.00682548,-0.0180515,0.0369854,-0.0142633,-0.390835,0.0305425,0.0457706,1910,1450,5.04981,-2.23697
693,-426,5.05249,2.17529,0,0,0,0,0,0,0,-1,1917,1450,5.05244,-2.17526
700,-426,6.75244,2.52185,0,0,0,0,0,0,0,-1,1924,1450,6.75243,-2.52184
707,-426,8.1958,2.41125,0,0,0,0,0,0,0,-1,1931,1450,8.19584,-2.41122
714,-426,0,0,0,0,0,0,0,0,0,-1,1938,1450,0,0
721,-426,0,0,0,0,0,0,0,0,0,-1,1945,1450,0,0
728,-426,0,0,0,0,0,0,0,0,0,-1,1952,1450,0,0
735,-426,0,0,0,0,0,0,0,0,0,-1,1959,1450,0,0
742,-426,0,0,0,0,0,0,0,0,0,-1,1966,1450,0,0
749,-426,0,0,0,0,0,0,0,0,0,-1,1973,1450,0,0
756,-426,0,0,0,0,0,0,0,0,0,-1,1980,1450,0,0
763,-426,0,0,0,0,0,0,0,0,0,-1,1987,1450,0,0
770,-426,0,0,0,0,0,0,0,0,0,-1,1994,1450,0,0
777,-426,0,0,0,0,0,0,0,0,0,-1,2001,1450,0,0
784,-426,0,0,0,0,0,0,0,0,0,-1,2008,1450,0,0
791,-426,0,0,0,0,0,0,0,0,0,-1,2015,1450,0,0
798,-426,0,0,0,0,0,0,0,0,0,-1,2022,1450,0,0
805,-426,0,0,0,0,0,0,0,0,0,-1,2029,1450,0,0
812,-426,0,0,0,0,0,0,0,0,0,-1,2036,1450,0,0
-700,-433,0,0,0,0,0,0,0,0,0,-1,524,1457,0,0
-693,-433,0,0,0,0,0,0,0,0,0,-1,531,1457,0,0
-686,-433,0,0,0,0,0,0,0,0,0,-1,538,1457,0,0
-679,-433,0,0,0,0,0,0,0,0,0,-1,545,1457,0,0
-672,-433,0,0,0,0,0,0,0,0,0,-1,552,1457,0,0
-665,-433,0,0,0,0,0,0,0,0,0,-1,559,1457,0,0
-658,-433,0,0,0,0,0,0,0,0,0,-1,566,1457,0,0
-651,-433,0,0,0,0,0,0,0,0,0,-1,573,1457,0,0
-644,-433,0,0,0,0,0,0,0,0,0,-1,580,1457,0,0
-637,-433,0,0,0,0,0,0,0,0,0,-1,587,1457,0,0
-630,-433,0,0,0,0,0,0,0,0,0,-1,594,1457,0,0
-623,-433,0,0,0,0,0,0,0,0,0,-1,601,1457,0,0
-616,-433,0,0,0,0,0,0,0,0,0,-1,608,1457,0,0
-609,-433,0,0,0,0,0,0,0,0,0,-1,615,1457,0,0
-602,-433,0,0,0,0,0,0,0,0,0,-1,622,1457,0,0
-595,-433,0,0,0,0,0,0,0,0,0,-1,629,1457,0,0
-588,-433,0.656921,-0.562744,0,0,0,0,0,0,0,-1,636,1457,0.656935,0.562796
-581,-433,0.632324,-0.0875244,-0.021296,0.0580022,0.054918,0.0860882,-0.0493819,1.09806,0.0791649,0.0444543,643,1457,0.632307,0.0874947
-574,-433,0.0570679,0.0535889,-0.0111642,0.0508922,0.0459971,0.075348,-0.0356201,1.08212,0.0654218,0.0476441,650,1457,0.057054,-0.05364
-567,-433,0.270203,0.194214,-0.00349935,0.0446767,0.0379579,0.0655446,-0.0243672,1.06813,0.0536946,0.0478731,657,1457,0.270175,-0.194195
-560,-433,-0.669739,1.11365,0,0,0,0,0,0,0,-1,664,1457,-0.669761,-1.11359
-553,-433,-0.603149,1.26831,0,0,0,0,0,0,0,-1,671,1457,-0.603149,-1.2683
-546,-433,0.270752,0.268799,0.00692858,0.0293726,0.01978,0.0408922,-0.00459106,1.04343,0.0289136,0.0437264,678,1457,0.270768,-0.268783
-539,-433,0.213745,0.926636,0.00771936,0.0248158,0.0152516,0.0337514,-0.00121623,1.04083,0.0229171,0.0402296,685,1457,0.213746,-0.926631
-532,-433,0.0460205,1.43237,0.00765151,0.0206123,0.0114709,0.0273067,0.000957071,1.04252,0.017894,0.0242538,692,1457,0.0460414,-1.4324
-525,-433,0.0267334,1.53809,0.00720033,0.0159962,0.00801397,0.0207397,0.00245684,1.03635,0.0130846,0.0122307,699,1457,0.0267176,-1.53809
-518,-433,0.0231934,1.61902,0.00585395,0.012457,0.00548265,0.0155554,0.00275551,1.05641,0.00958474,0.0151103,706,1457,0.0232017,-1.61901
-511,-433,0.026001,1.69226,0.00428874,0.00934347,0.00368149,0.0112816,0.00235058,1.0862,0.00687288,0.01564,713,1457,0.0260253,-1.69225
-504,-433,0.0170288,1.76904,0.00276985,0.00658052,0.00218548,0.0075746,0.00177577,1.14391,0.00457419,0.0129931,720,1457,0.0170003,-1.76904
-497,-433,0.0155029,1.83752,0.00155661,0.00444504,0.000854294,0.0046788,0.00132286,1.30371,0.00278502,0.0137693,727,1457,0.0155169,-1.8375
-490,-433,0.0145874,1.93958,0.00121049,0.00227935,-0.00049919,0.00247623,0.00101362,-1.19514,0.00143746,0.0152429,734,1457,0.0146082,-1.93964
-483,-433,0.0305176,2.00842,0.00134509,0.00084827,-0.00181447,0.00292807,-0.000734713,-0.717368,0.00223753,0.0151578,741,1457,0.0305411,-2.00838
-476,-433,0.0297852,2.06238,0.0013682,0.000145379,-0.00323223,0.00404634,-0.00253276,-0.691922,0.0038318,0.0102239,748,1457,0.0297732,-2.06243
-469,-433,0.0139771,2.12891,0.000644973,0.000354269,-0.00476739,0.00526923,-0.00426999,-0.770158,0.00551753,0.00976795,755,1457,0.0139977,-2.12888
-462,-433,0.0161133,2.18884,-0.000348117,0.00110626,-0.00628326,0.00670427,-0.00594612,-0.843009,0.00730808,0.00857729,762,1457,0.0160899,-2.18881
-455,-433,0.0549927,2.25146,-0.00118786,0.00203625,-0.0080189,0.00860353,-0.00775514,-0.884592,0.00944891,0.0178722,769,1457,0.0549766,-2.25152
-448,-433,0.0090332,2.14648,-0.00228445,0.00398425,-0.00998618,0.0113164,-0.00961662,-0.937464,0.012099,0.0324958,776,1457,0.00904891,-2.14646
-441,-433,-0.0010376,2.28333,-0.00421285,0.00595623,-0.0121093,0.0140051,-0.0122617,-0.984165,0.0151763,0.0383269,783,1457,-0.00104817,-2.28327
-434,-433,0.16687,2.24121,-0.00556929,0.00797493,-0.0141853,0.0169217,-0.0145161,-1.0081,0.0181683,0.0412437,790,1457,0.166874,-2.24121
-427,-433,0.421143,1.89197,-0.00715984,0.0103005,-0.0165401,0.020273,-0.0171324,-1.02822,0.0216214,0.0442937,797,1457,0.421131,-1.89203
-420,-433,0.0548096,2.04871,-0.00852518,0.0128157,-0.0170606,0.022268,-0.0179774,-1.06486,0.0232797,0.04346,804,1457,0.0548057,-2.04875
-413,-433,-0.0542603,2.4292,0,0,0,0,0,0,0,-1,811,1457,-0.0542896,-2.42926
-406,-433,-0.50592,1.66992,0,0,0,0,0,0,0,-1,818,1457,-0.505894,-1.66986
-399,-433,-1.04199,1.23987,0,0,0,0,0,0,0,-1,825,1457,-1.04201,-1.23993
-392,-433,0.0405884,1.84778,0,0,0,0,0,0,0,-1,832,1457,0.0405858,-1.84781
-385,-433,0.184814,1.63074,0,0,0,0,0,0,0,-1,839,1457,0.184813,-1.63072
-378,-433,0,0,0,0,0,0,0,0,0,-1,846,1457,0,0
-371,-433,0,0,0,0,0,0,0,0,0,-1,853,1457,0,0
-364,-433,0,0,0,0,0,0,0,0,0,-1,860,1457,0,0
-357,-433,0,0,0,0,0,0,0,0,0,-1,867,1457,0,0
-350,-433,0,0,0,0,0,0,0,0,0,-1,874,1457,0,0
-343,-433,0,0,0,0,0,0,0,0,0,-1,881,1457,0,0
-336,-433,0,0,0,0,0,0,0,0,0,-1,888,1457,0,0
-329,-433,0,0,0,0,0,0,0,0,0,-1,895,1457,0,0
-322,-433,0,0,0,0,0,0,0,0,0,-1,902,1457,0,0
-315,-433,0,0,0,0,0,0,0,0,0,-1,909,1457,0,0
-308,-433,0,0,0,0,0,0,0,0,0,-1,916,1457,0,0
-301,-433,0,0,0,0,0,0,0,0,0,-1,923,1457,0,0
-294,-433,0,0,0,0,0,0,0,0,0,-1,930,1457,0,0
-287,-433,0,0,0,0,0,0,0,0,0,-1,937,1457,0,0
-280,-433,0,0,0,0,0,0,0,0,0,-1,944,1457,0,0
-273,-433,0,0,0,0,0,0,0,0,0,-1,951,1457,0,0
-266,-433,0,0,0,0,0,0,0,0,0,-1,958,1457,0,0
-259,-433,0,0,0,0,0,0,0,0,0,-1,965,1457,0,0
-252,-433,0,0,0,0,0,0,0,0,0,-1,972,1457,0,0
-245,-433,0,0,0,0,0,0,0,0,0,-1,979,1457,0,0
-238,-433,0,0,0,0,0,0,0,0,0,-1,986,1457,0,0
-231,-433,0,0,0,0,0,0,0,0,0,-1,993,1457,0,0
-224,-433,0,0,0,0,0,0,0,0,0,-1,1000,1457,0,0
-217,-433,0,0,0,0,0,0,0,0,0,-1,1007,1457,0,0
-210,-433,0,0,0,0,0,0,0,0,0,-1,1014,1457,0,0
-203,-433,0,0,0,0,0,0,0,0,0,-1,1021,1457,0,0
-196,-433,0,0,0,0,0,0,0,0,0,-1,1028,1457,0,0
-189,-433,0,0,0,0,0,0,0,0,0,-1,1035,1457,0,0
-182,-433,0,0,0,0,0,0,0,0,0,-1,1042,1457,0,0
-175,-433,0,0,0,0,0,0,0,0,0,-1,1049,1457,0,0
-168,-433,0,0,0,0,0,0,0,0,0,-1,1056,1457,0,0
-161,-433,0,0,0,0,0,0,0,0,0,-1,1063,1457,0,0
-154,-433,0,0,0,0,0,0,0,0,0,-1,1070,1457,0,0
-147,-433,0,0,0,0,0,0,0,0,0,-1,1077,1457,0,0
-140,-433,0,0,0,0,0,0,0,0,0,-1,1084,1457,0,0
-133,-433,0,0,0,0,0,0,0,0,0,-1,1091,1457,0,0
-126,-433,0,0,0,0,0,0,0,0,0,-1,1098,1457,0,0
-119,-433,0,0,0,0,0,0,0,0,0,-1,1105,1457,0,0
-112,-433,0,0,0,0,0,0,0,0,0,-1,1112,1457,0,0
-105,-433,0,0,0,0,0,0,0,0,0,-1,1119,1457,0,0
-98,-433,0,0,0,0,0,0,0,0,0,-1,1126,1457,0,0
-91,-433,0,0,0,0,0,0,0,0,0,-1,1133,1457,0,0
-84,-433,0,0,0,0,0,0,0,0,0,-1,1140,1457,0,0
-77,-433,0,0,0,0,0,0,0,0,0,-1,1147,1457,0,0
-70,-433,0,0,0,0,0,0,0,0,0,-1,1154,1457,0,0
-63,-433,0,0,0,0,0,0,0,0,0,-1,1161,1457,0,0
-56,-433,0,0,0,0,0,0,0,0,0,-1,1168,1457,0,0
-49,-433,0,0,0,0,0,0,0,0,0,-1,1175,1457,0,0
-42,-433,0,0,0,0,0,0,0,0,0,-1,1182,1457,0,0
-35,-433,0,0,0,0,0,0,0,0,0,-1,1189,1457,0,0
-28,-433,0,0,0,0,0,0,0,0,0,-1,1196,1457,0,0
-21,-433,0,0,0,0,0,0,0,0,0,-1,1203,1457,0,0
-14,-433,0,0,0,0,0,0,0,0,0,-1,1210,1457,0,0
-7,-433,0,0,0,0,0,0,0,0,0,-1,1217,1457,0,0
0,-433,0,0,0,0,0,0,0,0,0,-1,1224,1457,0,0
7,-433,0,0,0,0,0,0,0,0,0,-1,1231,1457,0,0
14,-433,0,0,0,0,0,0,0,0,0,-1,1238,1457,0,0
21,-433,0,0,0,0,0,0,0,0,0,-1,1245,1457,0,0
28,-433,0,0,0,0,0,0,0,0,0,-1,1252,1457,0,0
35,-433,0,0,0,0,0,0,0,0,0,-1,1259,1457,0,0
42,-433,0,0,0,0,0,0,0,0,0,-1,1266,1457,0,0
49,-433,0,0,0,0,0,0,0,0,0,-1,1273,1457,0,0
56,-433,0,0,0,0,0,0,0,0,0,-1,1280,1457,0,0
63,-433,0,0,0,0,0,0,0,0,0,-1,1287,1457,0,0
70,-433,0,0,0,0,0,0,0,0,0,-1,1294,1457,0,0
77,-433,0,0,0,0,0,0,0,0,0,-1,1301,1457,0,0
84,-433,0,0,0,0,0,0,0,0,0,-1,1308,1457,0,0
91,-433,0,0,0,0,0,0,0,0,0,-1,1315,1457,0,0
98,-433,0,0,0,0,0,0,0,0,0,-1,1322,1457,0,0
105,-433,0,0,0,0,0,0,0,0,0,-1,1329,1457,0,0
112,-433,0,0,0,0,0,0,0,0,0,-1,1336,1457,0,0
119,-433,0,0,0,0,0,0,0,0,0,-1,1343,1457,0,0
126,-433,0,0,0,0,0,0,0,0,0,-1,1350,1457,0,0
133,-433,0,0,0,0,0,0,0,0,0,-1,1357,1457,0,0
140,-433,0,0,0,0,0,0,0,0,0,-1,1364,1457,0,0
147,-433,0,0,0,0,0,0,0,0,0,-1,1371,1457,0,0
154,-433,0,0,0,0,0,0,0,0,0,-1,1378,1457,0,0
161,-433,0,0,0,0,0,0,0,0,0,-1,1385,1457,0,0
168,-433,0,0,0,0,0,0,0,0,0,-1,1392,1457,0,0
175,-433,0,0,0,0,0,0,0,0,0,-1,1399,1457,0,0
182,-433,0,0,0,0,0,0,0,0,0,-1,1406,1457,0,0
189,-433,0,0,0,0,0,0,0,0,0,-1,1413,1457,0,0
196,-433,0,0,0,0,0,0,0,0,0,-1,1420,1457,0,0
203,-433,0,0,0,0,0,0,0,0,0,-1,1427,1457,0,0
210,-433,0,0,0,0,0,0,0,0,0,-1,1434,1457,0,0
217,-433,0,0,0,0,0,0,0,0,0,-1,1441,1457,0,0
224,-433,0,0,0,0,0,0,0,0,0,-1,1448,1457,0,0
231,-433,0,0,0,0,0,0,0,0,0,-1,1455,1457,0,0
238,-433,0,0,0,0,0,0,0,0,0,-1,1462,1457,0,0
245,-433,0,0,0,0,0,0,0,0,0,-1,1469,1457,0,0
252,-433,0,0,0,0,0,0,0,0,0,-1,1476,1457,0,0
259,-433,0,0,0,0,0,0,0,0,0,-1,1483,1457,0,0
266,-433,0,0,0,0,0,0,0,0,0,-1,1490,1457,0,0
273,-433,0,0,0,0,0,0,0,0,0,-1,1497,1457,0,0
280,-433,0,0,0,0,0,0,0,0,0,-1,1504,1457,0,0
287,-433,0,0,0,0,0,0,0,0,0,-1,1511,1457,0,0
294,-433,0,0,0,0,0,0,0,0,0,-1,1518,1457,0,0
301,-433,0,0,0,0,0,0,0,0,0,-1,1525,1457,0,0
308,-433,0,0,0,0,0,0,0,0,0,-1,1532,1457,0,0
315,-433,0,0,0,0,0,0,0,0,0,-1,1539,1457,0,0
322,-433,0,0,0,0,0,0,0,0,0,-1,1546,1457,0,0
329,-433,0,0,0,0,0,0,0,0,0,-1,1553,1457,0,0
336,-433,0,0,0,0,0,0,0,0,0,-1,1560,1457,0,0
343,-433,0,0,0,0,0,0,0,0,0,-1,1567,1457,0,0
350,-433,0,0,0,0,0,0,0,0,0,-1,1574,1457,0,0
357,-433,0,0,0,0,0,0,0,0,0,-1,1581,1457,0,0
364,-433,0,0,0,0,0,0,0,0,0,-1,1588,1457,0,0
371,-433,0,0,0,0,0,0,0,0,0,-1,1595,1457,0,0
378,-433,0,0,0,0,0,0,0,0,0,-1,1602,1457,0,0
385,-433,0,0,0,0,0,0,0,0,0,-1,1609,1457,0,0
392,-433,0,0,0,0,0,0,0,0,0,-1,1616,1457,0,0
399,-433,0,0,0,0,0,0,0,0,0,-1,1623,1457,0,0
406,-433,0,0,0,0,0,0,0,0,0,-1,1630,1457,0,0
413,-433,0,0,0,0,0,0,0,0,0,-1,1637,1457,0,0
420,-433,0,0,0,0,0,0,0,0,0,-1,1644,1457,0,0
427,-433,0,0,0,0,0,0,0,0,0,-1,1651,1457,0,0
434,-433,0,0,0,0,0,0,0,0,0,-1,1658,1457,0,0
441,-433,0,0,0,0,0,0,0,0,0,-1,1665,1457,0,0
448,-433,0,0,0,0,0,0,0,0,0,-1,1672,1457,0,0
455,-433,0,0,0,0,0,0,0,0,0,-1,1679,1457,0,0
462,-433,0,0,0,0,0,0,0,0,0,-1,1686,1457,0,0
469,-433,0,0,0,0,0,0,0,0,0,-1,1693,1457,0,0
476,-433,0,0,0,0,0,0,0,0,0,-1,1700,1457,0,0
483,-433,0,0,0,0,0,0,0,0,0,-1,1707,1457,0,0
490,-433,0,0,0,0,0,0,0,0,0,-1,1714,1457,0,0
497,-433,0,0,0,0,0,0,0,0,0,-1,1721,1457,0,0
504,-433,9.88306,2.22229,0,0,0,0,0,0,0,-1,1728,1457,9.88305,-2.2223
511,-433,9.08362,1.91187,0,0,0,0,0,0,0,-1,1735,1457,9.08356,-1.91188
518,-433,8.25781,1.66931,0,0,0,0,0,0,0,-1,1742,1457,8.25781,-1.66934
525,-433,8.22388,1.57251,0,0,0,0,0,0,0,-1,1749,1457,8.22388,-1.57254
532,-433,5.6781,4.37085,0,0,0,0,0,0,0,-1,1756,1457,5.67815,-4.37089
539,-433,5.27893,2.54932,0,0,0,0,0,0,0,-1,1763,1457,5.27887,-2.54934
546,-433,5.36902,2.71313,-0.00979196,-0.0157721,0.029013,0.0163847,-0.0419487,0.73405,0.0347401,0.0468161,1770,1457,5.36898,-2.71319
553,-433,5.33313,2.83118,-0.00981993,-0.0172893,0.0233862,0.0101279,-0.0372371,0.706219,0.0288006,0.0408409,1777,1457,5.33315,-2.8312
560,-433,4.78687,2.23352,-0.0102929,-0.0169458,0.0190222,0.00569147,-0.0329302,0.698837,0.0240759,0.0413272,1784,1457,4.78681,-2.23354
567,-433,4.22717,1.58948,0,0,0,0,0,0,0,-1,1791,1457,4.22711,-1.58952
574,-433,4.64832,2.46985,0,0,0,0,0,0,0,-1,1798,1457,4.64833,-2.46984
581,-433,4.71667,2.50806,-0.00962346,-0.0115327,0.00987078,-0.00066125,-0.0204949,0.737192,0.0134483,0.0413028,1805,1457,4.71663,-2.50804
588,-433,4.71765,2.50989,-0.00880257,-0.00955133,0.00747634,-0.00169124,-0.0166627,0.760381,0.0105898,0.0263979,1812,1457,4.7176,-2.50995
595,-433,4.72546,2.41504,-0.00773585,-0.00760955,0.00563974,-0.00203261,-0.0133128,0.790996,0.00828123,0.0201268,1819,1457,4.7255,-2.41499
602,-433,4.74231,2.34937,-0.00696598,-0.00615093,0.00374036,-0.00279596,-0.0103209,0.839661,0.00616378,0.0190365,1826,1457,4.74229,-2.34933
609,-433,4.745,2.28894,-0.0054821,-0.00440033,0.00242314,-0.00245844,-0.00742399,0.895206,0.00436695,0.0146504,1833,1457,4.74501,-2.28891
616,-433,4.73767,2.24329,-0.0037067,-0.00292822,0.00156618,-0.00170363,-0.00493129,0.907194,0.00289205,0.012183,1840,1457,4.73772,-2.24325
623,-433,4.7428,2.16418,-0.00230157,-0.00175547,0.00105202,-0.000941645,-0.00311539,0.91237,0.00184497,0.00970606,1847,1457,4.74275,-2.16419
630,-433,4.74731,2.10303,-0.00107371,-0.00128937,0.000473864,-0.00069556,-0.00166752,0.673522,0.00096714,0.0123088,1854,1457,4.74734,-2.10306
637,-433,4.73767,2.03662,0.000397795,-0.00150636,-0.000239239,0.000427393,-0.00153596,-0.123092,0.00119225,0.0129281,1861,1457,4.73772,-2.03659
644,-433,4.73706,1.9895,0.00183139,-0.00130496,-0.0008338,0.00203928,-0.00151285,-0.244342,0.00205832,0.0129423,1868,1457,4.7371,-1.98955
651,-433,4.71948,1.94287,0.00314992,-0.00141242,-0.00159407,0.0036517,-0.0019142,-0.304958,0.00326525,0.0102896,1875,1457,4.71949,-1.94293
658,-433,4.74695,1.85144,0.00579362,-0.00200429,-0.00317205,0.00692097,-0.00313164,-0.341478,0.00593973,0.0118893,1882,1457,4.747,-1.85144
665,-433,4.72485,1.77844,0.0100706,-0.00234063,-0.00617242,0.0126176,-0.00488765,-0.391359,0.0104299,0.0170308,1889,1457,4.7248,-1.77848
672,-433,4.91016,2.0199,0.0151932,-0.00332766,-0.00972838,0.019364,-0.00749843,-0.405018,0.0160054,0.0319991,1896,1457,4.9101,-2.01993
679,-433,5.10999,2.4342,0.0224256,-0.00424947,-0.0147614,0.0289825,-0.0108064,-0.418014,0.0237577,0.0386714,1903,1457,5.11003,-2.43424
686,-433,5.37732,2.85168,0.0324254,-0.00500173,-0.0219051,0.0425221,-0.0150984,-0.431905,0.0345003,0.0459051,1910,1457,5.3773,-2.85168
693,-433,5.80432,3.03333,0,0,0,0,0,0,0,-1,1917,1457,5.80436,-3.03333
700,-433,7.20007,2.55371,0,0,0,0,0,0,0,-1,1924,1457,7.20006,-2.55371
707,-433,8.49915,2.29065,0,0,0,0,0,0,0,-1,1931,1457,8.49914,-2.29061
714,-433,0,0,0,0,0,0,0,0,0,-1,1938,1457,0,0
721,-433,0,0,0,0,0,0,0,0,0,-1,1945,1457,0,0
728,-433,0,0,0,0,0,0,0,0,0,-1,1952,1457,0,0
735,-433,0,0,0,0,0,0,0,0,0,-1,1959,1457,0,0
742,-433,0,0,0,0,0,0,0,0,0,-1,1966,1457,0,0
749,-433,0,0,0,0,0,0,0,0,0,-1,1973,1457,0,0
756,-433,0,0,0,0,0,0,0,0,0,-1,1980,1457,0,0
763,-433,0,0,0,0,0,0,0,0,0,-1,1987,1457,0,0
770,-433,0,0,0,0,0,0,0,0,0,-1,1994,1457,0,0
777,-433,0,0,0,0,0,0,0,0,0,-1,2001,1457,0,0
784,-433,0,0,0,0,0,0,0,0,0,-1,2008,1457,0,0
791,-433,0,0,0,0,0,0,0,0,0,-1,2015,1457,0,0
798,-433,0,0,0,0,0,0,0,0,0,-1,2022,1457,0,0
805,-433,0,0,0,0,0,0,0,0,0,-1,2029,1457,0,0
812,-433,0,0,0,0,0,0,0,0,0,-1,2036,1457,0,0
-700,-440,0,0,0,0,0,0,0,0,0,-1,524,1464,0,0
-693,-440,0,0,0,0,0,0,0,0,0,-1,531,1464,0,0
-686,-440,0,0,0,0,0,0,0,0,0,-1,538,1464,0,0
-679,-440,0,0,0,0,0,0,0,0,0,-1,545,1464,0,0
-672,-440,0,0,0,0,0,0,0,0,0,-1,552,1464,0,0
-665,-440,0,0,0,0,0,0,0,0,0,-1,559,1464,0,0
-658,-440,0,0,0,0,0,0,0,0,0,-1,566,1464,0,0
-651,-440,0,0,0,0,0,0,0,0,0,-1,573,1464,0,0
-644,-440,0,0,0,0,0,0,0,0,0,-1,580,1464,0,0
-637,-440,0,0,0,0,0,0,0,0,0,-1,587,1464,0,0
-630,-440,0,0,0,0,0,0,0,0,0,-1,594,1464,0,0
-623,-440,0,0,0,0,0,0,0,0,0,-1,601,1464,0,0
-616,-440,0,0,0,0,0,0,0,0,0,-1,608,1464,0,0
-609,-440,0,0,0,0,0,0,0,0,0,-1,615,1464,0,0
-602,-440,0,0,0,0,0,0,0,0,0,-1,622,1464,0,0
-595,-440,0,0,0,0,0,0,0,0,0,-1,629,1464,0,0
-588,-440,0,0,0,0,0,0,0,0,0,-1,636,1464,0,0
-581,-440,0.398254,-0.862549,-0.0135813,0.0589298,0.0562595,0.089604,-0.0442555,1.07162,0.0787483,0.0466995,643,1464,0.398253,0.862594
-574,-440,0.195557,-0.419922,-0.00302039,0.0517917,0.0464323,0.0783027,-0.0295314,1.052,0.0643457,0.0452587,650,1464,0.195541,0.419909
-567,-440,0.244995,-0.0836182,0.00451174,0.0458273,0.0378822,0.0683182,-0.0179791,1.03502,0.0525734,0.0445082,657,1464,0.24501,0.0836345
-560,-440,-0.0266724,-0.17688,0,0,0,0,0,0,0,-1,664,1464,-0.0266838,0.176871
-553,-440,0.0404053,-0.172974,0.0116547,0.035924,0.024398,0.0510385,-0.0034597,1.01617,0.0352356,0.0448101,671,1464,0.0404075,0.173028
-546,-440,0.271606,-0.000976563,0.0125201,0.0314774,0.019239,0.043446,0.000551509,1.01429,0.028782,0.0432232,678,1464,0.2716,0.00103386
-539,-440,-0.0365601,0.771118,0.0122306,0.0271717,0.0147787,0.0362607,0.00314158,1.01941,0.0231976,0.0439908,685,1464,-0.036585,-0.771088
-532,-440,0.0662231,1.40173,0.0110867,0.0230605,0.0110813,0.0296687,0.00447841,1.03307,0.0184682,0.0326025,692,1464,0.0662352,-1.40168
-525,-440,0.0719604,1.5481,0.00973321,0.0182813,0.00764533,0.0227662,0.00524835,1.04028,0.0137656,0.013357,699,1464,0.071961,-1.54813
-518,-440,0.0802002,1.60181,0.0075438,0.0146666,0.00519483,0.0174036,0.0048068,1.08589,0.0103781,0.0115037,706,1464,0.0801896,-1.60176
-511,-440,0.0944214,1.67932,0.00528253,0.0114302,0.00354815,0.0130508,0.00366191,1.14234,0.00777294,0.0143987,713,1464,0.0944315,-1.67932
-504,-440,0.0768433,1.78052,0.0032539,0.00828133,0.00225796,0.00914655,0.00238869,1.20487,0.00547791,0.0169042,720,1464,0.0768577,-1.78054
-497,-440,0.0654297,1.87671,0.00153178,0.00588705,0.0011733,0.00618302,0.0012358,1.3237,0.00377806,0.0202097,727,1464,0.0654553,-1.87673
-490,-440,0.0926514,1.88342,0.000814642,0.00338473,7.07262e-05,0.00338667,0.000812697,1.54331,0.00204153,0.0209198,734,1464,0.092624,-1.88341
-483,-440,0.104675,1.96692,0.000588328,0.00154571,-0.000944246,0.00212567,8.36677e-06,-1.02,0.00141433,0.018695,741,1464,0.104703,-1.96686
-476,-440,0.109497,2.03528,0.000524728,0.000373076,-0.00205353,0.00250383,-0.00160603,-0.766944,0.00239163,0.0129268,748,1464,0.109494,-2.03533
-469,-440,0.0942993,2.11499,-3.0798e-05,0.000252454,-0.00325676,0.00337066,-0.00314901,-0.807128,0.00376486,0.0122482,755,1464,0.0942975,-2.115
-462,-440,0.0822754,2.19995,-0.000808519,0.000628259,-0.00440874,0.00437676,-0.00455702,-0.866162,0.00515827,0.0128778,762,1464,0.0822627,-2.19993
-455,-440,0.11615,2.26855,-0.00132916,0.00116618,-0.00580988,0.00586084,-0.00602383,-0.891167,0.00686183,0.0138344,769,1464,0.116179,-2.26856
-448,-440,0.134583,2.27136,-0.0019095,0.00271462,-0.00745337,0.0082063,-0.00740119,-0.935794,0.00901498,0.0223311,776,1464,0.134572,-2.27141
-441,-440,0.132202,2.20337,-0.00310441,0.00408792,-0.00919056,0.0103608,-0.00937733,-0.971885,0.0114005,0.0329315,783,1464,0.132227,-2.20334
-434,-440,0.172058,2.30127,-0.00357635,0.00545788,-0.0108799,0.0127211,-0.0108395,-0.982161,0.0136172,0.0385321,790,1464,0.172039,-2.30133
-427,-440,0.211975,2.33093,-0.00395836,0.00698528,-0.012908,0.0155334,-0.0125065,-0.985871,0.0162202,0.0420957,797,1464,0.212003,-2.33091
-420,-440,0.187866,2.22107,-0.00393694,0.00869736,-0.0133317,0.0171328,-0.0123724,-1.00665,0.0171086,0.0449051,804,1464,0.187871,-2.22102
-413,-440,0.182678,1.92834,0,0,0,0,0,0,0,-1,811,1464,0.182699,-1.92839
-406,-440,-0.0509033,1.5459,0,0,0,0,0,0,0,-1,818,1464,-0.050881,-1.54584
-399,-440,-0.144104,1.06897,0,0,0,0,0,0,0,-1,825,1464,-0.144081,-1.06893
-392,-440,1.09656,1.63354,0,0,0,0,0,0,0,-1,832,1464,1.09657,-1.63354
-385,-440,2.16669,1.98328,0,0,0,0,0,0,0,-1,839,1464,2.16667,-1.98327
-378,-440,2.96429,1.80261,0,0,0,0,0,0,0,-1,846,1464,2.96431,-1.80265
-371,-440,0,0,0,0,0,0,0,0,0,-1,853,1464,0,0
-364,-440,0,0,0,0,0,0,0,0,0,-1,860,1464,0,0
-357,-440,0,0,0,0,0,0,0,0,0,-1,867,1464,0,0
-350,-440,0,0,0,0,0,0,0,0,0,-1,874,1464,0,0
-343,-440,0,0,0,0,0,0,0,0,0,-1,881,1464,0,0
-336,-440,0,0,0,0,0,0,0,0,0,-1,888,1464,0,0
-329,-440,0,0,0,0,0,0,0,0,0,-1,895,1464,0,0
-322,-440,0,0,0,0,0,0,0,0,0,-1,902,1464,0,0
-315,-440,0,0,0,0,0,0,0,0,0,-1,909,1464,0,0
-308,-440,0,0,0,0,0,0,0,0,0,-1,916,1464,0,0
-301,-440,0,0,0,0,0,0,0,0,0,-1,923,1464,0,0
-294,-440,0,0,0,0,0,0,0,0,0,-1,930,1464,0,0
-287,-440,0,0,0,0,0,0,0,0,0,-1,937,1464,0,0
-280,-440,0,0,0,0,0,0,0,0,0,-1,944,1464,0,0
-273,-440,0,0,0,0,0,0,0,0,0,-1,951,1464,0,0
-266,-440,0,0,0,0,0,0,0,0,0,-1,958,1464,0,0
-259,-440,0,0,0,0,0,0,0,0,0,-1,965,1464,0,0
-252,-440,0,0,0,0,0,0,0,0,0,-1,972,1464,0,0
-245,-440,0,0,0,0,0,0,0,0,0,-1,979,1464,0,0
-238,-440,0,0,0,0,0,0,0,0,0,-1,986,1464,0,0
-231,-440,0,0,0,0,0,0,0,0,0,-1,993,1464,0,0
-224,-440,0,0,0,0,0,0,0,0,0,-1,1000,1464,0,0
-217,-440,0,0,0,0,0,0,0,0,0,-1,1007,1464,0,0
-210,-440,0,0,0,0,0,0,0,0,0,-1,1014,1464,0,0
-203,-440,0,0,0,0,0,0,0,0,0,-1,1021,1464,0,0
-196,-440,0,0,0,0,0,0,0,0,0,-1,1028,1464,0,0
-189,-440,0,0,0,0,0,0,0,0,0,-1,1035,1464,0,0
-182,-440,0,0,0,0,0,0,0,0,0,-1,1042,1464,0,0
-175,-440,0,0,0,0,0,0,0,0,0,-1,1049,1464,0,0
-168,-440,0,0,0,0,0,0,0,0,0,-1,1056,1464,0,0
-161,-440,0,0,0,0,0,0,0,0,0,-1,1063,1464,0,0
-154,-440,0,0,0,0,0,0,0,0,0,-1,1070,1464,0,0
-147,-440,0,0,0,0,0,0,0,0,0,-1,1077,1464,0,0
-140,-440,0,0,0,0,0,0,0,0,0,-1,1084,1464,0,0
-133,-440,0,0,0,0,0,0,0,0,0,-1,1091,1464,0,0
-126,-440,0,0,0,0,0,0,0,0,0,-1,1098,1464,0,0
-119,-440,0,0,0,0,0,0,0,0,0,-1,1105,1464,0,0
-112,-440,0,0,0,0,0,0,0,0,0,-1,1112,1464,0,0
-105,-440,0,0,0,0,0,0,0,0,0,-1,1119,1464,0,0
-98,-440,0,0,0,0,0,0,0,0,0,-1,1126,1464,0,0
-91,-440,0,0,0,0,0,0,0,0,0,-1,1133,1464,0,0
-84,-440,0,0,0,0,0,0,0,0,0,-1,1140,1464,0,0
-77,-440,0,0,0,0,0,0,0,0,0,-1,1147,1464,0,0
-70,-440,0,0,0,0,0,0,0,0,0,-1,1154,1464,0,0
-63,-440,0,0,0,0,0,0,0,0,0,-1,1161,1464,0,0
-56,-440,0,0,0,0,0,0,0,0,0,-1,1168,1464,0,0
-49,-440,0,0,0,0,0,0,0,0,0,-1,1175,1464,0,0
-42,-440,0,0,0,0,0,0,0,0,0,-1,1182,1464,0,0
-35,-440,0,0,0,0,0,0,0,0,0,-1,1189,1464,0,0
-28,-440,0,0,0,0,0,0,0,0,0,-1,1196,1464,0,0
-21,-440,0,0,0,0,0,0,0,0,0,-1,1203,1464,0,0
-14,-440,0,0,0,0,0,0,0,0,0,-1,1210,1464,0,0
-7,-440,0,0,0,0,0,0,0,0,0,-1,1217,1464,0,0
0,-440,0,0,0,0,0,0,0,0,0,-1,1224,1464,0,0
7,-440,0,0,0,0,0,0,0,0,0,-1,1231,1464,0,0
14,-440,0,0,0,0,0,0,0,0,0,-1,1238,1464,0,0
21,-440,0,0,0,0,0,0,0,0,0,-1,1245,1464,0,0
28,-440,0,0,0,0,0,0,0,0,0,-1,1252,1464,0,0
35,-440,0,0,0,0,0,0,0,0,0,-1,1259,1464,0,0
42,-440,0,0,0,0,0,0,0,0,0,-1,1266,1464,0,0
49,-440,0,0,0,0,0,0,0,0,0,-1,1273,1464,0,0
56,-440,0,0,0,0,0,0,0,0,0,-1,1280,1464,0,0
63,-440,0,0,0,0,0,0,0,0,0,-1,1287,1464,0,0
70,-440,0,0,0,0,0,0,0,0,0,-1,1294,1464,0,0
77,-440,0,0,0,0,0,0,0,0,0,-1,1301,1464,0,0
84,-440,0,0,0,0,0,0,0,0,0,-1,1308,1464,0,0
91,-440,0,0,0,0,0,0,0,0,0,-1,1315,1464,0,0
98,-440,0,0,0,0,0,0,0,0,0,-1,1322,1464,0,0
105,-440,0,0,0,0,0,0,0,0,0,-1,1329,1464,0,0
112,-440,0,0,0,0,0,0,0,0,0,-1,1336,1464,0,0
119,-440,0,0,0,0,0,0,0,0,0,-1,1343,1464,0,0
126,-440,0,0,0,0,0,0,0,0,0,-1,1350,1464,0,0
133,-440,0,0,0,0,0,0,0,0,0,-1,1357,1464,0,0
140,-440,0,0,0,0,0,0,0,0,0,-1,1364,1464,0,0
147,-440,0,0,0,0,0,0,0,0,0,-1,1371,1464,0,0
154,-440,0,0,0,0,0,0,0,0,0,-1,1378,1464,0,0
161,-440,0,0,0,0,0,0,0,0,0,-1,1385,1464,0,0
168,-440,0,0,0,0,0,0,0,0,0,-1,1392,1464,0,0
175,-440,0,0,0,0,0,0,0,0,0,-1,1399,1464,0,0
182,-440,0,0,0,0,0,0,0,0,0,-1,1406,1464,0,0
189,-440,0,0,0,0,0,0,0,0,0,-1,1413,1464,0,0
196,-440,0,0,0,0,0,0,0,0,0,-1,1420,1464,0,0
203,-440,0,0,0,0,0,0,0,0,0,-1,1427,1464,0,0
210,-440,0,0,0,0,0,0,0,0,0,-1,1434,1464,0,0
217,-440,0,0,0,0,0,0,0,0,0,-1,1441,1464,0,0
224,-440,0,0,0,0,0,0,0,0,0,-1,1448,1464,0,0
231,-440,0,0,0,0,0,0,0,0,0,-1,1455,1464,0,0
238,-440,0,0,0,0,0,0,0,0,0,-1,1462,1464,0,0
245,-440,0,0,0,0,0,0,0,0,0,-1,1469,1464,0,0
252,-440,0,0,0,0,0,0,0,0,0,-1,1476,1464,0,0
259,-440,0,0,0,0,0,0,0,0,0,-1,1483,1464,0,0
266,-440,0,0,0,0,0,0,0,0,0,-1,1490,1464,0,0
273,-440,0,0,0,0,0,0,0,0,0,-1,1497,1464,0,0
280,-440,0,0,0,0,0,0,0,0,0,-1,1504,1464,0,0
287,-440,0,0,0,0,0,0,0,0,0,-1,1511,1464,0,0
294,-440,0,0,0,0,0,0,0,0,0,-1,1518,1464,0,0
301,-440,0,0,0,0,0,0,0,0,0,-1,1525,1464,0,0
308,-440,0,0,0,0,0,0,0,0,0,-1,1532,1464,0,0
315,-440,0,0,0,0,0,0,0,0,0,-1,1539,1464,0,0
322,-440,0,0,0,0,0,0,0,0,0,-1,1546,1464,0,0
329,-440,0,0,0,0,0,0,0,0,0,-1,1553,1464,0,0
336,-440,0,0,0,0,0,0,0,0,0,-1,1560,1464,0,0
343,-440,0,0,0,0,0,0,0,0,0,-1,1567,1464,0,0
350,-440,0,0,0,0,0,0,0,0,0,-1,1574,1464,0,0
357,-440,0,0,0,0,0,0,0,0,0,-1,1581,1464,0,0
364,-440,0,0,0,0,0,0,0,0,0,-1,1588,1464,0,0
371,-440,0,0,0,0,0,0,0,0,0,-1,1595,1464,0,0
378,-440,0,0,0,0,0,0,0,0,0,-1,1602,1464,0,0
385,-440,0,0,0,0,0,0,0,0,0,-1,1609,1464,0,0
392,-440,0,0,0,0,0,0,0,0,0,-1,1616,1464,0,0
399,-440,0,0,0,0,0,0,0,0,0,-1,1623,1464,0,0
406,-440,0,0,0,0,0,0,0,0,0,-1,1630,1464,0,0
413,-440,0,0,0,0,0,0,0,0,0,-1,1637,1464,0,0
420,-440,0,0,0,0,0,0,0,0,0,-1,1644,1464,0,0
427,-440,0,0,0,0,0,0,0,0,0,-1,1651,1464,0,0
434,-440,0,0,0,0,0,0,0,0,0,-1,1658,1464,0,0
441,-440,0,0,0,0,0,0,0,0,0,-1,1665,1464,0,0
448,-440,0,0,0,0,0,0,0,0,0,-1,1672,1464,0,0
455,-440,0,0,0,0,0,0,0,0,0,-1,1679,1464,0,0
462,-440,0,0,0,0,0,0,0,0,0,-1,1686,1464,0,0
469,-440,0,0,0,0,0,0,0,0,0,-1,1693,1464,0,0
476,-440,0,0,0,0,0,0,0,0,0,-1,1700,1464,0,0
483,-440,0,0,0,0,0,0,0,0,0,-1,1707,1464,0,0
490,-440,0,0,0,0,0,0,0,0,0,-1,1714,1464,0,0
497,-440,8.05554,2.48926,0,0,0,0,0,0,0,-1,1721,1464,8.05553,-2.48927
504,-440,9.0946,2.01489,0,0,0,0,0,0,0,-1,1728,1464,9.09466,-2.0149
511,-440,8.36804,2.03308,0,0,0,0,0,0,0,-1,1735,1464,8.36806,-2.0331
518,-440,7.44128,2.13049,0,0,0,0,0,0,0,-1,1742,1464,7.44123,-2.13053
525,-440,7.36462,1.95496,0,0,0,0,0,0,0,-1,1749,1464,7.36461,-1.95496
532,-440,7.28796,1.77942,0,0,0,0,0,0,0,-1,1756,1464,7.28799,-1.77939
539,-440,4.58289,2.95105,0,0,0,0,0,0,0,-1,1763,1464,4.58293,-2.95111
546,-440,4.70142,2.96973,-0.0144372,-0.0147894,0.0238357,0.0092231,-0.0384497,0.781704,0.0291972,0.0479981,1770,1464,4.70136,-2.96969
553,-440,5.26733,2.80347,-0.0128375,-0.0160918,0.018415,0.00402209,-0.0329514,0.741333,0.0234237,0.0415977,1777,1464,5.26729,-2.80341
560,-440,4.87036,2.21301,-0.0119688,-0.0157127,0.0144913,0.000771022,-0.0284525,0.721165,0.0192305,0.0421993,1784,1464,4.8704,-2.21303
567,-440,4.58606,2,-0.0113399,-0.014273,0.0115739,-0.00113997,-0.0244729,0.722378,0.0159489,0.0469994,1791,1464,4.58609,-2
574,-440,4.49573,2.14429,-0.0105164,-0.0123658,0.00929236,-0.00210286,-0.0207794,0.735807,0.0132079,0.0461122,1798,1464,4.49574,-2.14425
581,-440,4.66138,2.59351,-0.00928439,-0.0100856,0.00737381,-0.00230033,-0.0170697,0.75826,0.0106958,0.0303786,1805,1464,4.66135,-2.59354
588,-440,4.65466,2.53381,-0.00824504,-0.00807101,0.00554619,-0.00261115,-0.0137049,0.793243,0.00840256,0.0199869,1812,1464,4.65462,-2.53376
595,-440,4.67627,2.4679,-0.00709826,-0.00623484,0.00416873,-0.00247553,-0.0108576,0.836994,0.00657054,0.0184542,1819,1464,4.67626,-2.46785
602,-440,4.68433,2.37585,-0.00631484,-0.00494991,0.00266887,-0.00287763,-0.00838713,0.910573,0.00492114,0.0173993,1826,1464,4.68435,-2.3758
609,-440,4.66858,2.3053,-0.00476169,-0.00345445,0.00164427,-0.00233865,-0.00587749,0.974578,0.00341687,0.0153042,1833,1464,4.66855,-2.30527
616,-440,4.66736,2.28076,-0.00280381,-0.0021207,0.000918217,-0.00148257,-0.00344194,0.963456,0.00199355,0.0162018,1840,1464,4.66739,-2.28077
623,-440,4.6637,2.18372,-0.00126515,-0.00114873,0.000433864,-0.000769186,-0.00164469,0.852086,0.000950223,0.0127849,1847,1464,4.66371,-2.18368
630,-440,4.66968,2.09851,0.000174564,-0.000784675,-0.000314883,0.000268692,-0.000878803,-0.290475,0.000693018,0.0105585,1854,1464,4.66969,-2.09852
637,-440,4.67212,2.03723,0.00202627,-0.00101498,-0.0012817,0.00249438,-0.00148309,-0.350172,0.002321,0.0137685,1861,1464,4.67211,-2.03725
644,-440,4.68555,2.00061,0.00393705,-0.000828822,-0.00212459,0.00474664,-0.00163842,-0.364074,0.00382925,0.0124966,1868,1464,4.68554,-2.00056
651,-440,4.6925,1.95056,0.00596839,-0.00083253,-0.00321245,0.00724586,-0.00210999,-0.378488,0.0056664,0.010264,1875,1464,4.69246,-1.95058
658,-440,4.66736,1.88159,0.00937597,-0.00118165,-0.0051203,0.0114513,-0.00325697,-0.385078,0.0089203,0.0140787,1882,1464,4.6673,-1.88162
665,-440,4.66528,1.81519,0.0144249,-0.00124862,-0.00845865,0.0181191,-0.00494285,-0.411772,0.0140205,0.0280645,1889,1464,4.66531,-1.81517
672,-440,4.76172,1.78015,0.0204575,-0.00181006,-0.0125113,0.0260716,-0.00742422,-0.421796,0.0203132,0.0423105,1896,1464,4.76177,-1.78013
679,-440,4.90076,1.86865,0,0,0,0,0,0,0,-1,1903,1464,4.9008,-1.86863
686,-440,5.49414,3.16199,0,0,0,0,0,0,0,-1,1910,1464,5.49415,-3.16202
693,-440,4.17444,-0.427246,0,0,0,0,0,0,0,-1,1917,1464,4.17447,0.427289
700,-440,4.34595,-0.404297,0,0,0,0,0,0,0,-1,1924,1464,4.346,0.404259
707,-440,0,0,0,0,0,0,0,0,0,-1,1931,1464,0,0
714,-440,0,0,0,0,0,0,0,0,0,-1,1938,1464,0,0
721,-440,0,0,0,0,0,0,0,0,0,-1,1945,1464,0,0
728,-440,0,0,0,0,0,0,0,0,0,-1,1952,1464,0,0
735,-440,0,0,0,0,0,0,0,0,0,-1,1959,1464,0,0
742,-440,0,0,0,0,0,0,0,0,0,-1,1966,1464,0,0
749,-440,0,0,0,0,0,0,0,0,0,-1,1973,1464,0,0
756,-440,0,0,0,0,0,0,0,0,0,-1,1980,1464,0,0
763,-440,0,0,0,0,0,0,0,0,0,-1,1987,1464,0,0
770,-440,0,0,0,0,0,0,0,0,0,-1,1994,1464,0,0
777,-440,0,0,0,0,0,0,0,0,0,-1,2001,1464,0,0
784,-440,0,0,0,0,0,0,0,0,0,-1,2008,1464,0,0
791,-440,0,0,0,0,0,0,0,0,0,-1,2015,1464,0,0
798,-440,0,0,0,0,0,0,0,0,0,-1,2022,1464,0,0
805,-440,0,0,0,0,0,0,0,0,0,-1,2029,1464,0,0
812,-440,0,0,0,0,0,0,0,0,0,-1,2036,1464,0,0
-700,-447,0,0,0,0,0,0,0,0,0,-1,524,1471,0,0
-693,-447,0,0,0,0,0,0,0,0,0,-1,531,1471,0,0
-686,-447,0,0,0,0,0,0,0,0,0,-1,538,1471,0,0
-679,-447,0,0,0,0,0,0,0,0,0,-1,545,1471,0,0
-672,-447,0,0,0,0,0,0,0,0,0,-1,552,1471,0,0
-665,-447,0,0,0,0,0,0,0,0,0,-1,559,1471,0,0
-658,-447,0,0,0,0,0,0,0,0,0,-1,566,1471,0,0
-651,-447,0,0,0,0,0,0,0,0,0,-1,573,1471,0,0
-644,-447,0,0,0,0,0,0,0,0,0,-1,580,1471,0,0
-637,-447,0,0,0,0,0,0,0,0,0,-1,587,1471,0,0
-630,-447,0,0,0,0,0,0,0,0,0,-1,594,1471,0,0
-623,-447,0,0,0,0,0,0,0,0,0,-1,601,1471,0,0
-616,-447,0,0,0,0,0,0,0,0,0,-1,608,1471,0,0
-609,-447,0,0,0,0,0,0,0,0,0,-1,615,1471,0,0
-602,-447,0,0,0,0,0,0,0,0,0,-1,622,1471,0,0
-595,-447,0,0,0,0,0,0,0,0,0,-1,629,1471,0,0
-588,-447,0,0,0,0,0,0,0,0,0,-1,636,1471,0,0
-581,-447,-0.213623,-2.1051,-0.000862709,0.0580345,0.0556421,0.0915404,-0.0343686,1.02878,0.0751501,0.0463121,643,1471,-0.213641,2.10505
-574,-447,-0.0644531,-1.06689,0.00866497,0.0511979,0.0454001,0.0800655,-0.0202027,1.00443,0.0612325,0.0437642,650,1471,-0.0644835,1.06695
-567,-447,-0.0183716,-0.7771,0.0149171,0.0458144,0.0367468,0.0702279,-0.00949639,0.984385,0.0502839,0.0419718,657,1471,-0.0184013,0.777144
-560,-447,0.0179443,-0.338623,0.018249,0.0411885,0.0294216,0.061297,-0.00185953,0.971257,0.0414984,0.0422247,664,1471,0.0179236,0.338684
-553,-447,0.0134277,-0.216919,0.0191044,0.0370595,0.0233279,0.0530776,0.00308621,0.969083,0.0344025,0.0436501,671,1471,0.0134244,0.216951
-546,-447,0.254883,-0.23999,0,0,0,0,0,0,0,-1,678,1471,0.254854,0.23998
-539,-447,-0.224854,0.709351,0.01678,0.0292028,0.0139459,0.038258,0.00772483,0.994906,0.0233601,0.044696,685,1471,-0.224845,-0.7093
-532,-447,0.0341187,1.07214,0.014374,0.0253127,0.0103643,0.0315623,0.00812446,1.02818,0.0189239,0.0410822,692,1471,0.0341241,-1.07217
-525,-447,0.163086,1.55481,0.0120054,0.0205334,0.006992,0.024459,0.00807979,1.05921,0.0143898,0.0255175,699,1471,0.163069,-1.55477
-518,-447,0.163757,1.60583,0.00892204,0.0169397,0.00462052,0.019048,0.00681368,1.14271,0.0111448,0.0145885,706,1471,0.163727,-1.60584
-511,-447,0.170044,1.67065,0.005922,0.0135952,0.00313899,0.0147157,0.0048015,1.22794,0.00866536,0.0134888,713,1471,0.170042,-1.67071
-504,-447,0.146118,1.76868,0.00336492,0.0100624,0.00206407,0.0106474,0.00277991,1.29461,0.0063769,0.0173998,720,1471,0.14613,-1.76871
-497,-447,0.116455,1.8479,0.00117853,0.00738467,0.0012217,0.0076165,0.000946694,1.38326,0.00479337,0.0220394,727,1471,0.116427,-1.84785
-490,-447,0.15448,1.87549,7.83904e-05,0.00455637,0.000358489,0.00458489,4.98728e-05,1.49141,0.0030401,0.0220877,734,1471,0.154476,-1.87547
-483,-447,0.168945,1.94958,-0.000470975,0.00230295,-0.000371393,0.00235181,-0.000519839,-1.43998,0.00176683,0.0206692,741,1471,0.168949,-1.94955
-476,-447,0.191223,2.01306,-0.000544243,0.000675329,-0.00118024,0.001394,-0.00126291,-1.02384,0.00153459,0.0147402,748,1471,0.191233,-2.01302
-469,-447,0.182617,2.11255,-0.00086382,0.000172702,-0.00205242,0.00177129,-0.00246241,-0.909069,0.00245516,0.0128399,755,1471,0.182611,-2.11261
-462,-447,0.168884,2.20386,-0.00139259,0.000180106,-0.00286432,0.00236405,-0.00357654,-0.919364,0.00345353,0.0120105,762,1471,0.168865,-2.2039
-455,-447,0.141541,2.27625,-0.00160579,0.000401413,-0.0039765,0.003499,-0.00470338,-0.909008,0.00475263,0.012407,769,1471,0.141536,-2.2763
-448,-447,0.164673,2.3219,-0.00175093,0.00163763,-0.00535069,0.00555588,-0.00566918,-0.938727,0.00648091,0.0161233,776,1471,0.164649,-2.32194
-441,-447,0.17804,2.35291,-0.00236504,0.00254498,-0.00676429,0.00728599,-0.00710605,-0.959475,0.00830947,0.0247856,783,1471,0.178027,-2.35287
-434,-447,0.23822,2.46594,-0.00218612,0.00345656,-0.00812299,0.00923422,-0.00796378,-0.952545,0.0099383,0.0343821,790,1471,0.238242,-2.46596
-427,-447,0.381592,2.58972,-0.00168837,0.00443106,-0.00984785,0.0116836,-0.00894089,-0.93602,0.0119426,0.0400723,797,1471,0.381569,-2.58967
-420,-447,0.33429,2.31128,-0.000687921,0.00558372,-0.0101475,0.0130688,-0.00817303,-0.935256,0.0123721,0.0442941,804,1471,0.334271,-2.31133
-413,-447,0.236633,1.98132,0,0,0,0,0,0,0,-1,811,1471,0.236636,-1.98132
-406,-447,0.0670776,2.16492,0,0,0,0,0,0,0,-1,818,1471,0.0670811,-2.16486
-399,-447,0.422607,3.19189,0,0,0,0,0,0,0,-1,825,1471,0.422581,-3.19189
-392,-447,1.26868,2.9436,0,0,0,0,0,0,0,-1,832,1471,1.26869,-2.94356
-385,-447,2.02979,2.63464,0.04142,0.0238271,-0.0241301,0.058307,0.00694007,-0.610612,0.0367769,0.0455007,839,1471,2.02978,-2.63466
-378,-447,2.71045,2.36755,0,0,0,0,0,0,0,-1,846,1471,2.71043,-2.36755
-371,-447,3.35114,2.07666,0,0,0,0,0,0,0,-1,853,1471,3.35111,-2.07663
-364,-447,0,0,0,0,0,0,0,0,0,-1,860,1471,0,0
-357,-447,0,0,0,0,0,0,0,0,0,-1,867,1471,0,0
-350,-447,0,0,0,0,0,0,0,0,0,-1,874,1471,0,0
-343,-447,0,0,0,0,0,0,0,0,0,-1,881,1471,0,0
-336,-447,0,0,0,0,0,0,0,0,0,-1,888,1471,0,0
-329,-447,0,0,0,0,0,0,0,0,0,-1,895,1471,0,0
-322,-447,0,0,0,0,0,0,0,0,0,-1,902,1471,0,0
-315,-447,0,0,0,0,0,0,0,0,0,-1,909,1471,0,0
-308,-447,0,0,0,0,0,0,0,0,0,-1,916,1471,0,0
-301,-447,0,0,0,0,0,0,0,0,0,-1,923,1471,0,0
-294,-447,0,0,0,0,0,0,0,0,0,-1,930,1471,0,0
-287,-447,0,0,0,0,0,0,0,0,0,-1,937,1471,0,0
-280,-447,0,0,0,0,0,0,0,0,0,-1,944,1471,0,0
-273,-447,0,0,0,0,0,0,0,0,0,-1,951,1471,0,0
-266,-447,0,0,0,0,0,0,0,0,0,-1,958,1471,0,0
-259,-447,0,0,0,0,0,0,0,0,0,-1,965,1471,0,0
-252,-447,0,0,0,0,0,0,0,0,0,-1,972,1471,0,0
-245,-447,0,0,0,0,0,0,0,0,0,-1,979,1471,0,0
-238,-447,0,0,0,0,0,0,0,0,0,-1,986,1471,0,0
-231,-447,0,0,0,0,0,0,0,0,0,-1,993,1471,0,0
-224,-447,0,0,0,0,0,0,0,0,0,-1,1000,1471,0,0
-217,-447,0,0,0,0,0,0,0,0,0,-1,1007,1471,0,0
-210,-447,0,0,0,0,0,0,0,0,0,-1,1014,1471,0,0
-203,-447,0,0,0,0,0,0,0,0,0,-1,1021,1471,0,0
-196,-447,0,0,0,0,0,0,0,0,0,-1,1028,1471,0,0
-189,-447,0,0,0,0,0,0,0,0,0,-1,1035,1471,0,0
-182,-447,0,0,0,0,0,0,0,0,0,-1,1042,1471,0,0
-175,-447,0,0,0,0,0,0,0,0,0,-1,1049,1471,0,0
-168,-447,0,0,0,0,0,0,0,0,0,-1,1056,1471,0,0
-161,-447,0,0,0,0,0,0,0,0,0,-1,1063,1471,0,0
-154,-447,0,0,0,0,0,0,0,0,0,-1,1070,1471,0,0
-147,-447,0,0,0,0,0,0,0,0,0,-1,1077,1471,0,0
-140,-447,0,0,0,0,0,0,0,0,0,-1,1084,1471,0,0
-133,-447,0,0,0,0,0,0,0,0,0,-1,1091,1471,0,0
-126,-447,0,0,0,0,0,0,0,0,0,-1,1098,1471,0,0
-119,-447,0,0,0,0,0,0,0,0,0,-1,1105,1471,0,0
-112,-447,0,0,0,0,0,0,0,0,0,-1,1112,1471,0,0
-105,-447,0,0,0,0,0,0,0,0,0,-1,1119,1471,0,0
-98,-447,0,0,0,0,0,0,0,0,0,-1,1126,1471,0,0
-91,-447,0,0,0,0,0,0,0,0,0,-1,1133,1471,0,0
-84,-447,0,0,0,0,0,0,0,0,0,-1,1140,1471,0,0
-77,-447,0,0,0,0,0,0,0,0,0,-1,1147,1471,0,0
-70,-447,0,0,0,0,0,0,0,0,0,-1,1154,1471,0,0
-63,-447,0,0,0,0,0,0,0,0,0,-1,1161,1471,0,0
-56,-447,0,0,0,0,0,0,0,0,0,-1,1168,1471,0,0
-49,-447,0,0,0,0,0,0,0,0,0,-1,1175,1471,0,0
-42,-447,0,0,0,0,0,0,0,0,0,-1,1182,1471,0,0
-35,-447,0,0,0,0,0,0,0,0,0,-1,1189,1471,0,0
-28,-447,0,0,0,0,0,0,0,0,0,-1,1196,1471,0,0
-21,-447,0,0,0,0,0,0,0,0,0,-1,1203,1471,0,0
-14,-447,0,0,0,0,0,0,0,0,0,-1,1210,1471,0,0
-7,-447,0,0,0,0,0,0,0,0,0,-1,1217,1471,0,0
0,-447,0,0,0,0,0,0,0,0,0,-1,1224,1471,0,0
7,-447,0,0,0,0,0,0,0,0,0,-1,1231,1471,0,0
14,-447,0,0,0,0,0,0,0,0,0,-1,1238,1471,0,0
21,-447,0,0,0,0,0,0,0,0,0,-1,1245,1471,0,0
28,-447,0,0,0,0,0,0,0,0,0,-1,1252,1471,0,0
35,-447,0,0,0,0,0,0,0,0,0,-1,1259,1471,0,0
42,-447,0,0,0,0,0,0,0,0,0,-1,1266,1471,0,0
49,-447,0,0,0,0,0,0,0,0,0,-1,1273,1471,0,0
56,-447,0,0,0,0,0,0,0,0,0,-1,1280,1471,0,0
63,-447,0,0,0,0,0,0,0,0,0,-1,1287,1471,0,0
70,-447,0,0,0,0,0,0,0,0,0,-1,1294,1471,0,0
77,-447,0,0,0,0,0,0,0,0,0,-1,1301,1471,0,0
84,-447,0,0,0,0,0,0,0,0,0,-1,1308,1471,0,0
91,-447,0,0,0,0,0,0,0,0,0,-1,1315,1471,0,0
98,-447,0,0,0,0,0,0,0,0,0,-1,1322,1471,0,0
105,-447,0,0,0,0,0,0,0,0,0,-1,1329,1471,0,0
112,-447,0,0,0,0,0,0,0,0,0,-1,1336,1471,0,0
119,-447,0,0,0,0,0,0,0,0,0,-1,1343,1471,0,0
126,-447,0,0,0,0,0,0,0,0,0,-1,1350,1471,0,0
133,-447,0,0,0,0,0,0,0,0,0,-1,1357,1471,0,0
140,-447,0,0,0,0,0,0,0,0,0,-1,1364,1471,0,0
147,-447,0,0,0,0,0,0,0,0,0,-1,1371,1471,0,0
154,-447,0,0,0,0,0,0,0,0,0,-1,1378,1471,0,0
161,-447,0,0,0,0,0,0,0,0,0,-1,1385,1471,0,0
168,-447,0,0,0,0,0,0,0,0,0,-1,1392,1471,0,0
175,-447,0,0,0,0,0,0,0,0,0,-1,1399,1471,0,0
182,-447,0,0,0,0,0,0,0,0,0,-1,1406,1471,0,0
189,-447,0,0,0,0,0,0,0,0,0,-1,1413,1471,0,0
196,-447,0,0,0,0,0,0,0,0,0,-1,1420,1471,0,0
203,-447,0,0,0,0,0,0,0,0,0,-1,1427,1471,0,0
210,-447,0,0,0,0,0,0,0,0,0,-1,1434,1471,0,0
217,-447,0,0,0,0,0,0,0,0,0,-1,1441,1471,0,0
224,-447,0,0,0,0,0,0,0,0,0,-1,1448,1471,0,0
231,-447,0,0,0,0,0,0,0,0,0,-1,1455,1471,0,0
238,-447,0,0,0,0,0,0,0,0,0,-1,1462,1471,0,0
245,-447,0,0,0,0,0,0,0,0,0,-1,1469,1471,0,0
252,-447,0,0,0,0,0,0,0,0,0,-1,1476,1471,0,0
259,-447,0,0,0,0,0,0,0,0,0,-1,1483,1471,0,0
266,-447,0,0,0,0,0,0,0,0,0,-1,1490,1471,0,0
273,-447,0,0,0,0,0,0,0,0,0,-1,1497,1471,0,0
280,-447,0,0,0,0,0,0,0,0,0,-1,1504,1471,0,0
287,-447,0,0,0,0,0,0,0,0,0,-1,1511,1471,0,0
294,-447,0,0,0,0,0,0,0,0,0,-1,1518,1471,0,0
301,-447,0,0,0,0,0,0,0,0,0,-1,1525,1471,0,0
308,-447,0,0,0,0,0,0,0,0,0,-1,1532,1471,0,0
315,-447,0,0,0,0,0,0,0,0,0,-1,1539,1471,0,0
322,-447,0,0,0,0,0,0,0,0,0,-1,1546,1471,0,0
329,-447,0,0,0,0,0,0,0,0,0,-1,1553,1471,0,0
336,-447,0,0,0,0,0,0,0,0,0,-1,1560,1471,0,0
343,-447,0,0,0,0,0,0,0,0,0,-1,1567,1471,0,0
350,-447,0,0,0,0,0,0,0,0,0,-1,1574,1471,0,0
357,-447,0,0,0,0,0,0,0,0,0,-1,1581,1471,0,0
364,-447,0,0,0,0,0,0,0,0,0,-1,1588,1471,0,0
371,-447,0,0,0,0,0,0,0,0,0,-1,1595,1471,0,0
378,-447,0,0,0,0,0,0,0,0,0,-1,1602,1471,0,0
385,-447,0,0,0,0,0,0,0,0,0,-1,1609,1471,0,0
392,-447,0,0,0,0,0,0,0,0,0,-1,1616,1471,0,0
399,-447,0,0,0,0,0,0,0,0,0,-1,1623,1471,0,0
406,-447,0,0,0,0,0,0,0,0,0,-1,1630,1471,0,0
413,-447,0,0,0,0,0,0,0,0,0,-1,1637,1471,0,0
420,-447,0,0,0,0,0,0,0,0,0,-1,1644,1471,0,0
427,-447,0,0,0,0,0,0,0,0,0,-1,1651,1471,0,0
434,-447,0,0,0,0,0,0,0,0,0,-1,1658,1471,0,0
441,-447,0,0,0,0,0,0,0,0,0,-1,1665,1471,0,0
448,-447,0,0,0,0,0,0,0,0,0,-1,1672,1471,0,0
455,-447,0,0,0,0,0,0,0,0,0,-1,1679,1471,0,0
462,-447,0,0,0,0,0,0,0,0,0,-1,1686,1471,0,0
469,-447,0,0,0,0,0,0,0,0,0,-1,1693,1471,0,0
476,-447,0,0,0,0,0,0,0,0,0,-1,1700,1471,0,0
483,-447,0,0,0,0,0,0,0,0,0,-1,1707,1471,0,0
490,-447,6.85266,2.75476,0,0,0,0,0,0,0,-1,1714,1471,6.85263,-2.75478
497,-447,7.05762,2.51086,0,0,0,0,0,0,0,-1,1721,1471,7.05765,-2.5109
504,-447,7.35229,2.41992,0,0,0,0,0,0,0,-1,1728,1471,7.35233,-2.41993
511,-447,7.24817,2.21509,0,0,0,0,0,0,0,-1,1735,1471,7.24811,-2.21511
518,-447,6.60437,2.38904,0,0,0,0,0,0,0,-1,1742,1471,6.60435,-2.38907
525,-447,6.46362,2.33276,0,0,0,0,0,0,0,-1,1749,1471,6.46366,-2.33279
532,-447,6.31421,2.16833,0,0,0,0,0,0,0,-1,1756,1471,6.31416,-2.1684
539,-447,4.22449,2.8335,0,0,0,0,0,0,0,-1,1763,1471,4.22449,-2.83346
546,-447,4.35437,2.80066,-0.0143268,-0.0127603,0.018722,0.00519487,-0.0322819,0.806304,0.0234455,0.0467037,1770,1471,4.35434,-2.80069
553,-447,4.47998,2.75781,-0.0117852,-0.01369,0.0135128,0.000808744,-0.026284,0.750216,0.0177983,0.044335,1777,1471,4.47997,-2.75781
560,-447,4.69702,2.70618,-0.0101551,-0.0133158,0.0100416,-0.00157022,-0.0219006,0.707348,0.0141062,0.0411084,1784,1471,4.69697,-2.70622
567,-447,4.69312,2.51086,-0.00910192,-0.0120027,0.00775991,-0.00265803,-0.0184466,0.69301,0.0115145,0.0385291,1791,1471,4.69305,-2.51089
574,-447,4.58179,2.60608,-0.00812313,-0.0103387,0.00620255,-0.00293022,-0.0155316,0.697029,0.00952905,0.0247432,1798,1471,4.58179,-2.6061
581,-447,4.61707,2.59607,-0.0069422,-0.00818485,0.00499128,-0.00253372,-0.0125933,0.723475,0.00769137,0.011665,1805,1471,4.61702,-2.59601
588,-447,4.6322,2.50854,-0.0061897,-0.00632243,0.00377822,-0.00247726,-0.0100349,0.776616,0.00603606,0.012069,1812,1471,4.63226,-2.50853
595,-447,4.61353,2.44873,-0.00546767,-0.00480243,0.00284109,-0.00227456,-0.00799554,0.843671,0.00475703,0.0123644,1819,1471,4.61355,-2.44872
602,-447,4.625,2.36584,-0.00503784,-0.00384401,0.00172527,-0.00261531,-0.00626653,0.951945,0.00363443,0.010305,1826,1471,4.62502,-2.36579
609,-447,4.62415,2.30066,-0.00385124,-0.0027509,0.000928026,-0.00222222,-0.00437992,1.05297,0.00252884,0.0113032,1833,1471,4.62417,-2.3007
616,-447,4.62866,2.2594,-0.00214484,-0.00165976,0.000276992,-0.00153413,-0.00227047,1.14499,0.00133756,0.0134821,1840,1471,4.62865,-2.25935
623,-447,4.61096,2.18542,-0.000863026,-0.000980284,-0.000198516,-0.000714663,-0.00112865,-0.641812,0.000659287,0.015077,1847,1471,4.61098,-2.18545
630,-447,4.60547,2.1106,0.000500947,-0.00076972,-0.00108616,0.00112394,-0.00139272,-0.520764,0.00145575,0.00846424,1854,1471,4.60545,-2.1106
637,-447,4.62085,2.04028,0.00241378,-0.00102688,-0.00225331,0.0035284,-0.0021415,-0.459366,0.00330601,0.00859916,1861,1471,4.62084,-2.04024
644,-447,4.63879,1.98743,0.00448636,-0.000903354,-0.00336878,0.00610554,-0.00252254,-0.448043,0.0051226,0.00885762,1868,1471,4.63879,-1.98738
651,-447,4.63232,1.9292,0.00692641,-0.00083871,-0.00481106,0.00922613,-0.00313843,-0.445899,0.00742149,0.013128,1875,1471,4.63229,-1.92917
658,-447,4.57825,1.89868,0.0107397,-0.000933248,-0.00705633,0.0140605,-0.00425408,-0.439866,0.0110677,0.0237492,1882,1471,4.57825,-1.89872
665,-447,4.61316,1.88025,0.0161421,-0.000641755,-0.0107107,0.0213569,-0.00585657,-0.453096,0.0165394,0.0410428,1889,1471,4.6132,-1.88026
672,-447,4.6571,1.84436,0.0226625,-0.000607246,-0.0152095,0.030177,-0.00812174,-0.45889,0.0233019,0.0483098,1896,1471,4.65709,-1.84438
679,-447,4.27112,1.27271,0.0314249,-0.000301002,-0.0214377,0.0422305,-0.0111066,-0.466877,0.0324948,0.0494989,1903,1471,4.2711,-1.27273
686,-447,4.05859,0.947388,0,0,0,0,0,0,0,-1,1910,1471,4.05857,-0.9474
693,-447,4.29419,0.614624,0,0,0,0,0,0,0,-1,1917,1471,4.29413,-0.614592
700,-447,0,0,0,0,0,0,0,0,0,-1,1924,1471,0,0
707,-447,0,0,0,0,0,0,0,0,0,-1,1931,1471,0,0
714,-447,0,0,0,0,0,0,0,0,0,-1,1938,1471,0,0
721,-447,0,0,0,0,0,0,0,0,0,-1,1945,1471,0,0
728,-447,0,0,0,0,0,0,0,0,0,-1,1952,1471,0,0
735,-447,0,0,0,0,0,0,0,0,0,-1,1959,1471,0,0
742,-447,0,0,0,0,0,0,0,0,0,-1,1966,1471,0,0
749,-447,0,0,0,0,0,0,0,0,0,-1,1973,1471,0,0
756,-447,0,0,0,0,0,0,0,0,0,-1,1980,1471,0,0
763,-447,0,0,0,0,0,0,0,0,0,-1,1987,1471,0,0
770,-447,0,0,0,0,0,0,0,0,0,-1,1994,1471,0,0
777,-447,0,0,0,0,0,0,0,0,0,-1,2001,1471,0,0
784,-447,0,0,0,0,0,0,0,0,0,-1,2008,1471,0,0
791,-447,0,0,0,0,0,0,0,0,0,-1,2015,1471,0,0
798,-447,0,0,0,0,0,0,0,0,0,-1,2022,1471,0,0
805,-447,0,0,0,0,0,0,0,0,0,-1,2029,1471,0,0
812,-447,0,0,0,0,0,0,0,0,0,-1,2036,1471,0,0
-700,-454,0,0,0,0,0,0,0,0,0,-1,524,1478,0,0
-693,-454,0,0,0,0,0,0,0,0,0,-1,531,1478,0,0
-686,-454,0,0,0,0,0,0,0,0,0,-1,538,1478,0,0
-679,-454,0,0,0,0,0,0,0,0,0,-1,545,1478,0,0
-672,-454,0,0,0,0,0,0,0,0,0,-1,552,1478,0,0
-665,-454,0,0,0,0,0,0,0,0,0,-1,559,1478,0,0
-658,-454,0,0,0,0,0,0,0,0,0,-1,566,1478,0,0
-651,-454,0,0,0,0,0,0,0,0,0,-1,573,1478,0,0
-644,-454,0,0,0,0,0,0,0,0,0,-1,580,1478,0,0
-637,-454,0,0,0,0,0,0,0,0,0,-1,587,1478,0,0
-630,-454,0,0,0,0,0,0,0,0,0,-1,594,1478,0,0
-623,-454,0,0,0,0,0,0,0,0,0,-1,601,1478,0,0
-616,-454,0,0,0,0,0,0,0,0,0,-1,608,1478,0,0
-609,-454,0,0,0,0,0,0,0,0,0,-1,615,1478,0,0
-602,-454,0,0,0,0,0,0,0,0,0,-1,622,1478,0,0
-595,-454,0,0,0,0,0,0,0,0,0,-1,629,1478,0,0
-588,-454,0,0,0,0,0,0,0,0,0,-1,636,1478,0,0
-581,-454,0,0,0,0,0,0,0,0,0,-1,643,1478,0,0
-574,-454,-0.892151,-0.955688,0.0215548,0.0494148,0.0438577,0.0815015,-0.010532,0.939168,0.0581637,0.0475838,650,1478,-0.892174,0.955681
-567,-454,-0.393433,-0.86377,0.0263444,0.0445242,0.0349438,0.071541,-0.000672478,0.912643,0.0479197,0.0459058,657,1478,-0.393424,0.863736
-560,-454,-0.0596313,-0.650269,0.0278367,0.0405141,0.0275765,0.0624711,0.00587976,0.898365,0.0398324,0.0439482,664,1478,-0.0596567,0.650228
-553,-454,0.177185,-0.485962,0.0267648,0.0370804,0.0215133,0.0540456,0.00979958,0.903053,0.0332488,0.045996,671,1478,0.177192,0.486007
-546,-454,0.594421,-0.552368,0,0,0,0,0,0,0,-1,678,1478,0.594444,0.552335
-539,-454,1.01953,-0.793457,0.0210127,0.0303235,0.0124388,0.0389495,0.0123867,0.964461,0.0229786,0.0464804,685,1478,1.0195,0.793502
-532,-454,1.85785,-0.821899,0.017198,0.0267845,0.00904788,0.0322304,0.0117522,1.02899,0.0188342,0.0463306,692,1478,1.85786,0.821938
-525,-454,0.184814,1.39551,0.0137912,0.0221479,0.00580327,0.0251206,0.0108186,1.09741,0.0145498,0.0383982,699,1478,0.184789,-1.39554
-518,-454,0.258484,1.62268,0.00988727,0.0186937,0.00354714,0.0199448,0.00863624,1.23173,0.0115495,0.0218381,706,1478,0.258471,-1.62267
-511,-454,0.235962,1.68579,0.00632951,0.0153895,0.00220826,0.015899,0.00581993,1.34401,0.00928846,0.0131388,713,1478,0.235979,-1.68578
-504,-454,0.240234,1.76428,0.00343326,0.0115937,0.00130858,0.0117984,0.00322856,1.41562,0.00704067,0.0139579,720,1478,0.240244,-1.76432
-497,-454,0.218506,1.83411,0.000989836,0.00876535,0.000635657,0.00881698,0.000938214,1.48976,0.00559155,0.0174973,727,1478,0.2185,-1.83411
-490,-454,0.212646,1.93457,-0.000209031,0.00574386,-8.23422e-05,0.005745,-0.00021017,-1.55697,0.00390195,0.0161514,734,1478,0.212652,-1.93462
-483,-454,0.214417,2.0022,-0.000825393,0.00320038,-0.000609385,0.0032906,-0.000915615,-1.42381,0.00255424,0.0151448,741,1478,0.214442,-2.00224
-476,-454,0.223877,2.02283,-0.00071579,0.0012499,-0.00118776,0.00180873,-0.00127462,-1.13104,0.00178905,0.013103,748,1478,0.223873,-2.02287
-469,-454,0.243713,2.08789,-0.000686498,0.000429091,-0.001758,0.00171567,-0.00197307,-0.939019,0.00213142,0.00954122,755,1478,0.243743,-2.08785
-462,-454,0.22821,2.16516,-0.000891595,9.88505e-05,-0.00226448,0.00192163,-0.00271437,-0.893049,0.00268961,0.00958738,762,1478,0.228236,-2.1651
-455,-454,0.212219,2.24097,-0.000818607,8.76344e-05,-0.00310684,0.00277422,-0.0035052,-0.857811,0.0036336,0.0109482,769,1478,0.212228,-2.24097
-448,-454,0.209167,2.32764,-0.000674499,0.0010646,-0.00419255,0.00447683,-0.00408673,-0.88765,0.00494588,0.0119,776,1478,0.209183,-2.32764
-441,-454,0.255737,2.38489,-0.000949491,0.0015846,-0.00527779,0.0057453,-0.00511019,-0.903204,0.006271,0.0203796,783,1478,0.255722,-2.38493
-434,-454,0.344116,2.39026,-0.000474268,0.00212791,-0.00629232,0.00725225,-0.00559861,-0.887349,0.00743989,0.0290862,790,1478,0.344138,-2.3902
-427,-454,0.512878,2.37085,0.000426309,0.00266598,-0.0076685,0.00929597,-0.00620369,-0.857901,0.0090079,0.0387478,797,1478,0.512848,-2.37083
-420,-454,0.351074,2.41724,0.00176544,0.00336181,-0.00780338,0.0104077,-0.00528047,-0.836364,0.00921742,0.0458831,804,1478,0.351083,-2.41724
-413,-454,0.241455,2.66394,0,0,0,0,0,0,0,-1,811,1478,0.241478,-2.66391
-406,-454,0.166687,2.56812,0.0105,0.0081859,-0.0105829,0.0199889,-0.001303,-0.730949,0.0137808,0.0497982,818,1478,0.16667,-2.56808
-399,-454,0.508179,2.86792,0.0205627,0.0121515,-0.0145977,0.0315486,0.00116559,-0.645146,0.0206548,0.0490172,825,1478,0.508181,-2.86786
-392,-454,1.06476,2.83264,0,0,0,0,0,0,0,-1,832,1478,1.06476,-2.83269
-385,-454,1.89148,2.94495,0,0,0,0,0,0,0,-1,839,1478,1.89147,-2.94498
-378,-454,2.7099,3.08667,0,0,0,0,0,0,0,-1,846,1478,2.7099,-3.08664
-371,-454,2.26257,2.49561,0.0699377,0.0318638,-0.0336769,0.0895859,0.0122156,-0.528148,0.0560972,0.0493989,853,1478,2.26255,-2.49558
-364,-454,2.42462,2.47803,0,0,0,0,0,0,0,-1,860,1478,2.42463,-2.47797
-357,-454,0,0,0,0,0,0,0,0,0,-1,867,1478,0,0
-350,-454,0,0,0,0,0,0,0,0,0,-1,874,1478,0,0
-343,-454,0,0,0,0,0,0,0,0,0,-1,881,1478,0,0
-336,-454,0,0,0,0,0,0,0,0,0,-1,888,1478,0,0
-329,-454,0,0,0,0,0,0,0,0,0,-1,895,1478,0,0
-322,-454,0,0,0,0,0,0,0,0,0,-1,902,1478,0,0
-315,-454,0,0,0,0,0,0,0,0,0,-1,909,1478,0,0
-308,-454,0,0,0,0,0,0,0,0,0,-1,916,1478,0,0
-301,-454,0,0,0,0,0,0,0,0,0,-1,923,1478,0,0
-294,-454,0,0,0,0,0,0,0,0,0,-1,930,1478,0,0
-287,-454,0,0,0,0,0,0,0,0,0,-1,937,1478,0,0
-280,-454,0,0,0,0,0,0,0,0,0,-1,944,1478,0,0
-273,-454,0,0,0,0,0,0,0,0,0,-1,951,1478,0,0
-266,-454,0,0,0,0,0,0,0,0,0,-1,958,1478,0,0
-259,-454,0,0,0,0,0,0,0,0,0,-1,965,1478,0,0
-252,-454,0,0,0,0,0,0,0,0,0,-1,972,1478,0,0
-245,-454,0,0,0,0,0,0,0,0,0,-1,979,1478,0,0
-238,-454,0,0,0,0,0,0,0,0,0,-1,986,1478,0,0
-231,-454,0,0,0,0,0,0,0,0,0,-1,993,1478,0,0
-224,-454,0,0,0,0,0,0,0,0,0,-1,1000,1478,0,0
-217,-454,0,0,0,0,0,0,0,0,0,-1,1007,1478,0,0
-210,-454,0,0,0,0,0,0,0,0,0,-1,1014,1478,0,0
-203,-454,0,0,0,0,0,0,0,0,0,-1,1021,1478,0,0
-196,-454,0,0,0,0,0,0,0,0,0,-1,1028,1478,0,0
-189,-454,0,0,0,0,0,0,0,0,0,-1,1035,1478,0,0
-182,-454,0,0,0,0,0,0,0,0,0,-1,1042,1478,0,0
-175,-454,0,0,0,0,0,0,0,0,0,-1,1049,1478,0,0
-168,-454,0,0,0,0,0,0,0,0,0,-1,1056,1478,0,0
-161,-454,0,0,0,0,0,0,0,0,0,-1,1063,1478,0,0
-154,-454,0,0,0,0,0,0,0,0,0,-1,1070,1478,0,0
-147,-454,0,0,0,0,0,0,0,0,0,-1,1077,1478,0,0
-140,-454,0,0,0,0,0,0,0,0,0,-1,1084,1478,0,0
-133,-454,0,0,0,0,0,0,0,0,0,-1,1091,1478,0,0
-126,-454,0,0,0,0,0,0,0,0,0,-1,1098,1478,0,0
-119,-454,0,0,0,0,0,0,0,0,0,-1,1105,1478,0,0
-112,-454,0,0,0,0,0,0,0,0,0,-1,1112,1478,0,0
-105,-454,0,0,0,0,0,0,0,0,0,-1,1119,1478,0,0
-98,-454,0,0,0,0,0,0,0,0,0,-1,1126,1478,0,0
-91,-454,0,0,0,0,0,0,0,0,0,-1,1133,1478,0,0
-84,-454,0,0,0,0,0,0,0,0,0,-1,1140,1478,0,0
-77,-454,0,0,0,0,0,0,0,0,0,-1,1147,1478,0,0
-70,-454,0,0,0,0,0,0,0,0,0,-1,1154,1478,0,0
-63,-454,0,0,0,0,0,0,0,0,0,-1,1161,1478,0,0
-56,-454,0,0,0,0,0,0,0,0,0,-1,1168,1478,0,0
-49,-454,0,0,0,0,0,0,0,0,0,-1,1175,1478,0,0
-42,-454,0,0,0,0,0,0,0,0,0,-1,1182,1478,0,0
-35,-454,0,0,0,0,0,0,0,0,0,-1,1189,1478,0,0
-28,-454,0,0,0,0,0,0,0,0,0,-1,1196,1478,0,0
-21,-454,0,0,0,0,0,0,0,0,0,-1,1203,1478,0,0
-14,-454,0,0,0,0,0,0,0,0,0,-1,1210,1478,0,0
-7,-454,0,0,0,0,0,0,0,0,0,-1,1217,1478,0,0
0,-454,0,0,0,0,0,0,0,0,0,-1,1224,1478,0,0
7,-454,0,0,0,0,0,0,0,0,0,-1,1231,1478,0,0
14,-454,0,0,0,0,0,0,0,0,0,-1,1238,1478,0,0
21,-454,0,0,0,0,0,0,0,0,0,-1,1245,1478,0,0
28,-454,0,0,0,0,0,0,0,0,0,-1,1252,1478,0,0
35,-454,0,0,0,0,0,0,0,0,0,-1,1259,1478,0,0
42,-454,0,0,0,0,0,0,0,0,0,-1,1266,1478,0,0
49,-454,0,0,0,0,0,0,0,0,0,-1,1273,1478,0,0
56,-454,0,0,0,0,0,0,0,0,0,-1,1280,1478,0,0
63,-454,0,0,0,0,0,0,0,0,0,-1,1287,1478,0,0
70,-454,0,0,0,0,0,0,0,0,0,-1,1294,1478,0,0
77,-454,0,0,0,0,0,0,0,0,0,-1,1301,1478,0,0
84,-454,0,0,0,0,0,0,0,0,0,-1,1308,1478,0,0
91,-454,0,0,0,0,0,0,0,0,0,-1,1315,1478,0,0
98,-454,0,0,0,0,0,0,0,0,0,-1,1322,1478,0,0
105,-454,0,0,0,0,0,0,0,0,0,-1,1329,1478,0,0
112,-454,0,0,0,0,0,0,0,0,0,-1,1336,1478,0,0
119,-454,0,0,0,0,0,0,0,0,0,-1,1343,1478,0,0
126,-454,0,0,0,0,0,0,0,0,0,-1,1350,1478,0,0
133,-454,0,0,0,0,0,0,0,0,0,-1,1357,1478,0,0
140,-454,0,0,0,0,0,0,0,0,0,-1,1364,1478,0,0
147,-454,0,0,0,0,0,0,0,0,0,-1,1371,1478,0,0
154,-454,0,0,0,0,0,0,0,0,0,-1,1378,1478,0,0
161,-454,0,0,0,0,0,0,0,0,0,-1,1385,1478,0,0
168,-454,0,0,0,0,0,0,0,0,0,-1,1392,1478,0,0
175,-454,0,0,0,0,0,0,0,0,0,-1,1399,1478,0,0
182,-454,0,0,0,0,0,0,0,0,0,-1,1406,1478,0,0
189,-454,0,0,0,0,0,0,0,0,0,-1,1413,1478,0,0
196,-454,0,0,0,0,0,0,0,0,0,-1,1420,1478,0,0
203,-454,0,0,0,0,0,0,0,0,0,-1,1427,1478,0,0
210,-454,0,0,0,0,0,0,0,0,0,-1,1434,1478,0,0
217,-454,0,0,0,0,0,0,0,0,0,-1,1441,1478,0,0
224,-454,0,0,0,0,0,0,0,0,0,-1,1448,1478,0,0
231,-454,0,0,0,0,0,0,0,0,0,-1,1455,1478,0,0
238,-454,0,0,0,0,0,0,0,0,0,-1,1462,1478,0,0
245,-454,0,0,0,0,0,0,0,0,0,-1,1469,1478,0,0
252,-454,0,0,0,0,0,0,0,0,0,-1,1476,1478,0,0
259,-454,0,0,0,0,0,0,0,0,0,-1,1483,1478,0,0
266,-454,0,0,0,0,0,0,0,0,0,-1,1490,1478,0,0
273,-454,0,0,0,0,0,0,0,0,0,-1,1497,1478,0,0
280,-454,0,0,0,0,0,0,0,0,0,-1,1504,1478,0,0
287,-454,0,0,0,0,0,0,0,0,0,-1,1511,1478,0,0
294,-454,0,0,0,0,0,0,0,0,0,-1,1518,1478,0,0
301,-454,0,0,0,0,0,0,0,0,0,-1,1525,1478,0,0
308,-454,0,0,0,0,0,0,0,0,0,-1,1532,1478,0,0
315,-454,0,0,0,0,0,0,0,0,0,-1,1539,1478,0,0
322,-454,0,0,0,0,0,0,0,0,0,-1,1546,1478,0,0
329,-454,0,0,0,0,0,0,0,0,0,-1,1553,1478,0,0
336,-454,0,0,0,0,0,0,0,0,0,-1,1560,1478,0,0
343,-454,0,0,0,0,0,0,0,0,0,-1,1567,1478,0,0
350,-454,0,0,0,0,0,0,0,0,0,-1,1574,1478,0,0
357,-454,0,0,0,0,0,0,0,0,0,-1,1581,1478,0,0
364,-454,0,0,0,0,0,0,0,0,0,-1,1588,1478,0,0
371,-454,0,0,0,0,0,0,0,0,0,-1,1595,1478,0,0
378,-454,0,0,0,0,0,0,0,0,0,-1,1602,1478,0,0
385,-454,0,0,0,0,0,0,0,0,0,-1,1609,1478,0,0
392,-454,0,0,0,0,0,0,0,0,0,-1,1616,1478,0,0
399,-454,0,0,0,0,0,0,0,0,0,-1,1623,1478,0,0
406,-454,0,0,0,0,0,0,0,0,0,-1,1630,1478,0,0
413,-454,0,0,0,0,0,0,0,0,0,-1,1637,1478,0,0
420,-454,0,0,0,0,0,0,0,0,0,-1,1644,1478,0,0
427,-454,0,0,0,0,0,0,0,0,0,-1,1651,1478,0,0
434,-454,0,0,0,0,0,0,0,0,0,-1,1658,1478,0,0
441,-454,0,0,0,0,0,0,0,0,0,-1,1665,1478,0,0
448,-454,0,0,0,0,0,0,0,0,0,-1,1672,1478,0,0
455,-454,0,0,0,0,0,0,0,0,0,-1,1679,1478,0,0
462,-454,0,0,0,0,0,0,0,0,0,-1,1686,1478,0,0
469,-454,0,0,0,0,0,0,0,0,0,-1,1693,1478,0,0
476,-454,0,0,0,0,0,0,0,0,0,-1,1700,1478,0,0
483,-454,9.05359,-0.974365,0,0,0,0,0,0,0,-1,1707,1478,9.0536,0.974411
490,-454,9.60803,-0.489136,0,0,0,0,0,0,0,-1,1714,1478,9.60807,0.489156
497,-454,5.91162,2.72778,0,0,0,0,0,0,0,-1,1721,1478,5.9116,-2.7278
504,-454,5.89771,2.61731,0,0,0,0,0,0,0,-1,1728,1478,5.89769,-2.61731
511,-454,5.18115,4.61255,0,0,0,0,0,0,0,-1,1735,1478,5.18116,-4.6126
518,-454,5.65308,2.47217,0,0,0,0,0,0,0,-1,1742,1478,5.6531,-2.47219
525,-454,4.68274,2.57251,0,0,0,0,0,0,0,-1,1749,1478,4.6828,-2.57254
532,-454,5.80908,2.73108,0,0,0,0,0,0,0,-1,1756,1478,5.80903,-2.73104
539,-454,3.80164,2.84863,0,0,0,0,0,0,0,-1,1763,1478,3.8016,-2.84868
546,-454,4.42017,2.48889,0,0,0,0,0,0,0,-1,1770,1478,4.42021,-2.48886
553,-454,4.45129,2.61938,-0.010278,-0.0103588,0.00936391,-0.000954381,-0.0196824,0.783242,0.0128153,0.0386359,1777,1478,4.45127,-2.61936
560,-454,4.52539,2.71436,-0.00830605,-0.0102504,0.00633647,-0.00286762,-0.0156889,0.709278,0.0096465,0.0308501,1784,1478,4.52538,-2.71435
567,-454,4.54297,2.66638,-0.0070655,-0.00929562,0.00459459,-0.0034526,-0.0129085,0.666355,0.00771672,0.0174617,1791,1478,4.54297,-2.66638
574,-454,4.52502,2.61511,-0.00604963,-0.00801854,0.00366893,-0.00323537,-0.0108328,0.654324,0.00642111,0.0104574,1798,1478,4.52506,-2.61513
581,-454,4.56104,2.53577,-0.00495382,-0.00612755,0.0030376,-0.00244692,-0.00863445,0.689974,0.00513867,0.0102709,1805,1478,4.56107,-2.53577
588,-454,4.55945,2.48499,-0.0044436,-0.00456372,0.00228922,-0.00221366,-0.00679367,0.772283,0.00400085,0.0124998,1812,1478,4.55945,-2.48499
595,-454,4.55493,2.43921,-0.00408625,-0.00339167,0.0017269,-0.00197749,-0.00550043,0.884628,0.00321719,0.0123018,1819,1478,4.55497,-2.43919
602,-454,4.56909,2.3667,-0.00400208,-0.0027946,0.000911135,-0.00230533,-0.00449135,1.078,0.00259339,0.00880881,1826,1478,4.56904,-2.36671
609,-454,4.56519,2.30847,-0.00317081,-0.00214884,0.00028983,-0.00207236,-0.00324728,1.31282,0.00189853,0.00943744,1833,1478,4.56521,-2.3085
616,-454,4.56689,2.24915,-0.00163596,-0.00133497,-0.000318188,-0.00113348,-0.00183745,-1.00629,0.00107047,0.012261,1840,1478,4.5669,-2.24913
623,-454,4.56787,2.17468,-0.000598934,-0.00101375,-0.000809367,2.91783e-05,-0.00164186,-0.659968,0.00110443,0.0104819,1847,1478,4.56787,-2.17466
630,-454,4.55811,2.11621,0.000668241,-0.00100337,-0.00185998,0.00187158,-0.00220671,-0.574237,0.00235725,0.00901228,1854,1478,4.55808,-2.11617
637,-454,4.55518,2.05273,0.00260644,-0.00131885,-0.00326004,0.00444903,-0.00316144,-0.514442,0.00441482,0.0086849,1861,1478,4.55513,-2.05277
644,-454,4.55359,1.9834,0.00480694,-0.00131091,-0.00470179,0.00735728,-0.00386125,-0.497004,0.00658102,0.0109328,1868,1478,4.55361,-1.9834
651,-454,4.50342,1.92798,0.00757795,-0.00122911,-0.00656779,0.0110818,-0.00473297,-0.490081,0.00937272,0.0183994,1875,1478,4.50337,-1.92803
658,-454,4.52075,1.89551,0.0117563,-0.00108087,-0.00921481,0.0165676,-0.00589219,-0.481194,0.0134466,0.0329291,1882,1478,4.5207,-1.89556
665,-454,4.51843,1.95984,0.017565,-0.000424173,-0.0132091,0.0245511,-0.00741034,-0.48649,0.0193173,0.0473503,1889,1478,4.51849,-1.95986
672,-454,4.34656,1.89417,0.0246619,0.000284009,-0.01813,0.0343194,-0.00937348,-0.489449,0.0265612,0.0495359,1896,1478,4.34658,-1.89422
679,-454,4.2832,1.19739,0.0340674,0.00145444,-0.0248361,0.0474717,-0.0119499,-0.494911,0.0362929,0.0465918,1903,1478,4.28325,-1.19739
686,-454,4.58838,1.05286,0.0464834,0.00324495,-0.034019,0.0651716,-0.0154432,-0.50234,0.0494066,0.0470205,1910,1478,4.58836,-1.05287
693,-454,4.7207,0.406006,0,0,0,0,0,0,0,-1,1917,1478,4.72074,-0.40598
700,-454,0,0,0,0,0,0,0,0,0,-1,1924,1478,0,0
707,-454,0,0,0,0,0,0,0,0,0,-1,1931,1478,0,0
714,-454,0,0,0,0,0,0,0,0,0,-1,1938,1478,0,0
721,-454,0,0,0,0,0,0,0,0,0,-1,1945,1478,0,0
728,-454,0,0,0,0,0,0,0,0,0,-1,1952,1478,0,0
735,-454,0,0,0,0,0,0,0,0,0,-1,1959,1478,0,0
742,-454,0,0,0,0,0,0,0,0,0,-1,1966,1478,0,0
749,-454,0,0,0,0,0,0,0,0,0,-1,1973,1478,0,0
756,-454,0,0,0,0,0,0,0,0,0,-1,1980,1478,0,0
763,-454,0,0,0,0,0,0,0,0,0,-1,1987,1478,0,0
770,-454,0,0,0,0,0,0,0,0,0,-1,1994,1478,0,0
777,-454,0,0,0,0,0,0,0,0,0,-1,2001,1478,0,0
784,-454,0,0,0,0,0,0,0,0,0,-1,2008,1478,0,0
791,-454,0,0,0,0,0,0,0,0,0,-1,2015,1478,0,0
798,-454,0,0,0,0,0,0,0,0,0,-1,2022,1478,0,0
805,-454,0,0,0,0,0,0,0,0,0,-1,2029,1478,0,0
812,-454,0,0,0,0,0,0,0,0,0,-1,2036,1478,0,0
-700,-461,0,0,0,0,0,0,0,0,0,-1,524,1485,0,0
-693,-461,0,0,0,0,0,0,0,0,0,-1,531,1485,0,0
-686,-461,0,0,0,0,0,0,0,0,0,-1,538,1485,0,0
-679,-461,0,0,0,0,0,0,0,0,0,-1,545,1485,0,0
-672,-461,0,0,0,0,0,0,0,0,0,-1,552,1485,0,0
-665,-461,0,0,0,0,0,0,0,0,0,-1,559,1485,0,0
-658,-461,0,0,0,0,0,0,0,0,0,-1,566,1485,0,0
-651,-461,0,0,0,0,0,0,0,0,0,-1,573,1485,0,0
-644,-461,0,0,0,0,0,0,0,0,0,-1,580,1485,0,0
-637,-461,0,0,0,0,0,0,0,0,0,-1,587,1485,0,0
-630,-461,0,0,0,0,0,0,0,0,0,-1,594,1485,0,0
-623,-461,0,0,0,0,0,0,0,0,0,-1,601,1485,0,0
-616,-461,0,0,0,0,0,0,0,0,0,-1,608,1485,0,0
-609,-461,0,0,0,0,0,0,0,0,0,-1,615,1485,0,0
-602,-461,0,0,0,0,0,0,0,0,0,-1,622,1485,0,0
-595,-461,0,0,0,0,0,0,0,0,0,-1,629,1485,0,0
-588,-461,0,0,0,0,0,0,0,0,0,-1,636,1485,0,0
-581,-461,0,0,0,0,0,0,0,0,0,-1,643,1485,0,0
-574,-461,0,0,0,0,0,0,0,0,0,-1,650,1485,0,0
-567,-461,0.0742798,2.24048,0,0,0,0,0,0,0,-1,657,1485,0.0742905,-2.24048
-560,-461,-0.234924,-1.10278,0,0,0,0,0,0,0,-1,664,1485,-0.234895,1.10278
-553,-461,0.159851,-0.842407,0,0,0,0,0,0,0,-1,671,1485,0.159863,0.842361
-546,-461,0.598999,-0.888062,0,0,0,0,0,0,0,-1,678,1485,0.599001,0.888001
-539,-461,0.743774,-0.839966,0.0263832,0.0290644,0.0100211,0.0378341,0.0176134,0.851894,0.0218608,0.0421382,685,1485,0.743785,0.839972
-532,-461,1.23108,-0.916992,0.0210104,0.0260772,0.00686693,0.0308631,0.0162244,0.962116,0.0178267,0.0421267,692,1485,1.2311,0.916992
-525,-461,0.240173,1.29626,0,0,0,0,0,0,0,-1,699,1485,0.240186,-1.29621
-518,-461,0.286438,1.5022,0.0115303,0.0187774,0.00184142,0.0192184,0.0110892,1.33571,0.0111396,0.0333909,706,1485,0.286439,-1.50219
-511,-461,0.314392,1.703,0.00730952,0.0157812,0.000749666,0.015847,0.00724369,1.48321,0.00916049,0.0151835,713,1485,0.314409,-1.70298
-504,-461,0.308167,1.77527,0.00396571,0.011984,0.000131031,0.0119861,0.00396357,1.55446,0.00705121,0.00951963,720,1485,0.308156,-1.77531
-497,-461,0.328003,1.85352,0.00114976,0.0092582,-0.000294445,0.00926887,0.00113909,-1.53455,0.00583672,0.0101647,727,1485,0.327993,-1.85355
-490,-461,0.306335,1.93201,-0.000288902,0.00629976,-0.000788581,0.00639283,-0.000381971,-1.45332,0.00439475,0.0112441,734,1485,0.306317,-1.93206
-483,-461,0.285889,1.99548,-0.00103842,0.00367873,-0.00105257,0.00390294,-0.00126262,-1.36092,0.00310949,0.0112055,741,1485,0.285897,-1.99554
-476,-461,0.292542,2.04968,-0.000808373,0.00160188,-0.00134667,0.00220392,-0.00141041,-1.15039,0.00210344,0.00997472,748,1485,0.292514,-2.04964
-469,-461,0.298828,2.10388,-0.000531262,0.000619692,-0.00153475,0.00168331,-0.00159488,-0.964768,0.00189289,0.011675,755,1485,0.298843,-2.10382
-462,-461,0.299805,2.15417,-0.000516525,7.95416e-05,-0.00179189,0.00159801,-0.002035,-0.867805,0.00210257,0.0168317,762,1485,0.299776,-2.15412
-455,-461,0.287598,2.23877,-0.000264021,-8.91427e-05,-0.00240218,0.00222719,-0.00258035,-0.80359,0.00277813,0.0203017,769,1485,0.287579,-2.23876
-448,-461,0.310425,2.34375,5.31793e-05,0.000679422,-0.00324555,0.00362692,-0.00289432,-0.833488,0.00377295,0.0175911,776,1485,0.310422,-2.34376
-441,-461,0.32074,2.41284,-1.80625e-06,0.00091229,-0.00406736,0.0045482,-0.00363771,-0.841348,0.00473587,0.0138833,783,1485,0.320724,-2.4128
-434,-461,0.400146,2.44019,0.000609634,0.00119256,-0.00481398,0.0057239,-0.0039217,-0.815634,0.00560119,0.0181265,790,1485,0.400157,-2.44024
-427,-461,0.445679,2.43079,0.00169608,0.00141833,-0.00591534,0.00747417,-0.00435976,-0.773662,0.00691074,0.0243928,797,1485,0.445696,-2.43084
-420,-461,0.362488,2.50574,0.00314833,0.00177825,-0.00597934,0.00848174,-0.00355517,-0.728363,0.0071409,0.0393803,804,1485,0.362483,-2.50568
-413,-461,0.330017,2.58936,0.0051854,0.00210517,-0.00620915,0.0100426,-0.00275202,-0.663832,0.00777645,0.0458958,811,1485,0.330029,-2.58938
-406,-461,0.352722,2.44006,0.0117214,0.00591868,-0.00862903,0.0179238,-0.00028368,-0.623219,0.0120449,0.0471181,818,1485,0.35274,-2.44001
-399,-461,0.555786,2.42163,0.0213519,0.00973586,-0.0124371,0.0292703,0.00181742,-0.566952,0.0189368,0.0455081,825,1485,0.555759,-2.42164
-392,-461,0.637817,2.50879,0,0,0,0,0,0,0,-1,832,1485,0.637801,-2.50881
-385,-461,1.7193,2.83398,0,0,0,0,0,0,0,-1,839,1485,1.71931,-2.83404
-378,-461,0.400635,2.35156,0,0,0,0,0,0,0,-1,846,1485,0.400604,-2.35157
-371,-461,0.883545,2.69275,0,0,0,0,0,0,0,-1,853,1485,0.88357,-2.69272
-364,-461,-1.34448,7.16931,0,0,0,0,0,0,0,-1,860,1485,-1.34448,-7.16925
-357,-461,-0.639038,5.90356,0,0,0,0,0,0,0,-1,867,1485,-0.639022,-5.90359
-350,-461,0,0,0,0,0,0,0,0,0,-1,874,1485,0,0
-343,-461,0,0,0,0,0,0,0,0,0,-1,881,1485,0,0
-336,-461,0,0,0,0,0,0,0,0,0,-1,888,1485,0,0
-329,-461,0,0,0,0,0,0,0,0,0,-1,895,1485,0,0
-322,-461,0,0,0,0,0,0,0,0,0,-1,902,1485,0,0
-315,-461,0,0,0,0,0,0,0,0,0,-1,909,1485,0,0
-308,-461,0,0,0,0,0,0,0,0,0,-1,916,1485,0,0
-301,-461,0,0,0,0,0,0,0,0,0,-1,923,1485,0,0
-294,-461,0,0,0,0,0,0,0,0,0,-1,930,1485,0,0
-287,-461,0,0,0,0,0,0,0,0,0,-1,937,1485,0,0
-280,-461,0,0,0,0,0,0,0,0,0,-1,944,1485,0,0
-273,-461,0,0,0,0,0,0,0,0,0,-1,951,1485,0,0
-266,-461,0,0,0,0,0,0,0,0,0,-1,958,1485,0,0
-259,-461,0,0,0,0,0,0,0,0,0,-1,965,1485,0,0
-252,-461,0,0,0,0,0,0,0,0,0,-1,972,1485,0,0
-245,-461,0,0,0,0,0,0,0,0,0,-1,979,1485,0,0
-238,-461,0,0,0,0,0,0,0,0,0,-1,986,1485,0,0
-231,-461,0,0,0,0,0,0,0,0,0,-1,993,1485,0,0
-224,-461,0,0,0,0,0,0,0,0,0,-1,1000,1485,0,0
-217,-461,0,0,0,0,0,0,0,0,0,-1,1007,1485,0,0
-210,-461,0,0,0,0,0,0,0,0,0,-1,1014,1485,0,0
-203,-461,0,0,0,0,0,0,0,0,0,-1,1021,1485,0,0
-196,-461,0,0,0,0,0,0,0,0,0,-1,1028,1485,0,0
-189,-461,0,0,0,0,0,0,0,0,0,-1,1035,1485,0,0
-182,-461,0,0,0,0,0,0,0,0,0,-1,1042,1485,0,0
-175,-461,0,0,0,0,0,0,0,0,0,-1,1049,1485,0,0
-168,-461,0,0,0,0,0,0,0,0,0,-1,1056,1485,0,0
-161,-461,0,0,0,0,0,0,0,0,0,-1,1063,1485,0,0
-154,-461,0,0,0,0,0,0,0,0,0,-1,1070,1485,0,0
-147,-461,0,0,0,0,0,0,0,0,0,-1,1077,1485,0,0
-140,-461,0,0,0,0,0,0,0,0,0,-1,1084,1485,0,0
-133,-461,0,0,0,0,0,0,0,0,0,-1,1091,1485,0,0
-126,-461,0,0,0,0,0,0,0,0,0,-1,1098,1485,0,0
-119,-461,0,0,0,0,0,0,0,0,0,-1,1105,1485,0,0
-112,-461,0,0,0,0,0,0,0,0,0,-1,1112,1485,0,0
-105,-461,0,0,0,0,0,0,0,0,0,-1,1119,1485,0,0
-98,-461,0,0,0,0,0,0,0,0,0,-1,1126,1485,0,0
-91,-461,0,0,0,0,0,0,0,0,0,-1,1133,1485,0,0
-84,-461,0,0,0,0,0,0,0,0,0,-1,1140,1485,0,0
-77,-461,0,0,0,0,0,0,0,0,0,-1,1147,1485,0,0
-70,-461,0,0,0,0,0,0,0,0,0,-1,1154,1485,0,0
-63,-461,0,0,0,0,0,0,0,0,0,-1,1161,1485,0,0
-56,-461,0,0,0,0,0,0,0,0,0,-1,1168,1485,0,0
-49,-461,0,0,0,0,0,0,0,0,0,-1,1175,1485,0,0
-42,-461,0,0,0,0,0,0,0,0,0,-1,1182,1485,0,0
-35,-461,0,0,0,0,0,0,0,0,0,-1,1189,1485,0,0
-28,-461,0,0,0,0,0,0,0,0,0,-1,1196,1485,0,0
-21,-461,0,0,0,0,0,0,0,0,0,-1,1203,1485,0,0
-14,-461,0,0,0,0,0,0,0,0,0,-1,1210,1485,0,0
-7,-461,0,0,0,0,0,0,0,0,0,-1,1217,1485,0,0
0,-461,0,0,0,0,0,0,0,0,0,-1,1224,1485,0,0
7,-461,0,0,0,0,0,0,0,0,0,-1,1231,1485,0,0
14,-461,0,0,0,0,0,0,0,0,0,-1,1238,1485,0,0
21,-461,0,0,0,0,0,0,0,0,0,-1,1245,1485,0,0
28,-461,0,0,0,0,0,0,0,0,0,-1,1252,1485,0,0
35,-461,0,0,0,0,0,0,0,0,0,-1,1259,1485,0,0
42,-461,0,0,0,0,0,0,0,0,0,-1,1266,1485,0,0
49,-461,0,0,0,0,0,0,0,0,0,-1,1273,1485,0,0
56,-461,0,0,0,0,0,0,0,0,0,-1,1280,1485,0,0
63,-461,0,0,0,0,0,0,0,0,0,-1,1287,1485,0,0
70,-461,0,0,0,0,0,0,0,0,0,-1,1294,1485,0,0
77,-461,0,0,0,0,0,0,0,0,0,-1,1301,1485,0,0
84,-461,0,0,0,0,0,0,0,0,0,-1,1308,1485,0,0
91,-461,0,0,0,0,0,0,0,0,0,-1,1315,1485,0,0
98,-461,0,0,0,0,0,0,0,0,0,-1,1322,1485,0,0
105,-461,0,0,0,0,0,0,0,0,0,-1,1329,1485,0,0
112,-461,0,0,0,0,0,0,0,0,0,-1,1336,1485,0,0
119,-461,0,0,0,0,0,0,0,0,0,-1,1343,1485,0,0
126,-461,0,0,0,0,0,0,0,0,0,-1,1350,1485,0,0
133,-461,0,0,0,0,0,0,0,0,0,-1,1357,1485,0,0
140,-461,0,0,0,0,0,0,0,0,0,-1,1364,1485,0,0
147,-461,0,0,0,0,0,0,0,0,0,-1,1371,1485,0,0
154,-461,0,0,0,0,0,0,0,0,0,-1,1378,1485,0,0
161,-461,0,0,0,0,0,0,0,0,0,-1,1385,1485,0,0
168,-461,0,0,0,0,0,0,0,0,0,-1,1392,1485,0,0
175,-461,0,0,0,0,0,0,0,0,0,-1,1399,1485,0,0
182,-461,0,0,0,0,0,0,0,0,0,-1,1406,1485,0,0
189,-461,0,0,0,0,0,0,0,0,0,-1,1413,1485,0,0
196,-461,0,0,0,0,0,0,0,0,0,-1,1420,1485,0,0
203,-461,0,0,0,0,0,0,0,0,0,-1,1427,1485,0,0
210,-461,0,0,0,0,0,0,0,0,0,-1,1434,1485,0,0
217,-461,0,0,0,0,0,0,0,0,0,-1,1441,1485,0,0
224,-461,0,0,0,0,0,0,0,0,0,-1,1448,1485,0,0
231,-461,0,0,0,0,0,0,0,0,0,-1,1455,1485,0,0
238,-461,0,0,0,0,0,0,0,0,0,-1,1462,1485,0,0
245,-461,0,0,0,0,0,0,0,0,0,-1,1469,1485,0,0
252,-461,0,0,0,0,0,0,0,0,0,-1,1476,1485,0,0
259,-461,0,0,0,0,0,0,0,0,0,-1,1483,1485,0,0
266,-461,0,0,0,0,0,0,0,0,0,-1,1490,1485,0,0
273,-461,0,0,0,0,0,0,0,0,0,-1,1497,1485,0,0
280,-461,0,0,0,0,0,0,0,0,0,-1,1504,1485,0,0
287,-461,0,0,0,0,0,0,0,0,0,-1,1511,1485,0,0
294,-461,0,0,0,0,0,0,0,0,0,-1,1518,1485,0,0
301,-461,0,0,0,0,0,0,0,0,0,-1,1525,1485,0,0
308,-461,0,0,0,0,0,0,0,0,0,-1,1532,1485,0,0
315,-461,0,0,0,0,0,0,0,0,0,-1,1539,1485,0,0
322,-461,0,0,0,0,0,0,0,0,0,-1,1546,1485,0,0
329,-461,0,0,0,0,0,0,0,0,0,-1,1553,1485,0,0
336,-461,0,0,0,0,0,0,0,0,0,-1,1560,1485,0,0
343,-461,0,0,0,0,0,0,0,0,0,-1,1567,1485,0,0
350,-461,0,0,0,0,0,0,0,0,0,-1,1574,1485,0,0
357,-461,0,0,0,0,0,0,0,0,0,-1,1581,1485,0,0
364,-461,0,0,0,0,0,0,0,0,0,-1,1588,1485,0,0
371,-461,0,0,0,0,0,0,0,0,0,-1,1595,1485,0,0
378,-461,0,0,0,0,0,0,0,0,0,-1,1602,1485,0,0
385,-461,0,0,0,0,0,0,0,0,0,-1,1609,1485,0,0
392,-461,0,0,0,0,0,0,0,0,0,-1,1616,1485,0,0
399,-461,0,0,0,0,0,0,0,0,0,-1,1623,1485,0,0
406,-461,0,0,0,0,0,0,0,0,0,-1,1630,1485,0,0
413,-461,0,0,0,0,0,0,0,0,0,-1,1637,1485,0,0
420,-461,0,0,0,0,0,0,0,0,0,-1,1644,1485,0,0
427,-461,0,0,0,0,0,0,0,0,0,-1,1651,1485,0,0
434,-461,0,0,0,0,0,0,0,0,0,-1,1658,1485,0,0
441,-461,0,0,0,0,0,0,0,0,0,-1,1665,1485,0,0
448,-461,0,0,0,0,0,0,0,0,0,-1,1672,1485,0,0
455,-461,0,0,0,0,0,0,0,0,0,-1,1679,1485,0,0
462,-461,0,0,0,0,0,0,0,0,0,-1,1686,1485,0,0
469,-461,0,0,0,0,0,0,0,0,0,-1,1693,1485,0,0
476,-461,7.75061,-1.01587,0,0,0,0,0,0,0,-1,1700,1485,7.7506,1.01592
483,-461,8.20178,-0.654297,0.0459963,-0.0291694,0.0706016,0.0883951,-0.0715681,0.540813,0.0925249,0.0493885,1707,1485,8.20184,0.654352
490,-461,8.67212,-0.244995,0.0286814,-0.0198681,0.0706205,0.0790827,-0.0702695,0.619857,0.0862786,0.0463775,1714,1485,8.67208,0.244969
497,-461,8.89929,0.0800781,0,0,0,0,0,0,0,-1,1721,1485,8.89931,-0.08008
504,-461,5.15088,3.61133,0,0,0,0,0,0,0,-1,1728,1485,5.15084,-3.61136
511,-461,5.29797,4.2522,0,0,0,0,0,0,0,-1,1735,1485,5.29802,-4.25226
518,-461,5.66577,2.45874,0,0,0,0,0,0,0,-1,1742,1485,5.66578,-2.4588
525,-461,4.77039,2.60107,0,0,0,0,0,0,0,-1,1749,1485,4.77044,-2.60113
532,-461,3.87512,2.74341,0,0,0,0,0,0,0,-1,1756,1485,3.87509,-2.74346
539,-461,3.97119,2.81934,0,0,0,0,0,0,0,-1,1763,1485,3.97122,-2.81937
546,-461,4.26721,2.62793,-0.0107074,-0.0063396,0.0101089,0.00181857,-0.0188656,0.891783,0.013225,0.0498837,1770,1485,4.26723,-2.62789
553,-461,4.32654,2.65283,-0.00796035,-0.00744388,0.00593351,-0.00176298,-0.0136412,0.807145,0.00856718,0.0398661,1777,1485,4.3266,-2.65279
560,-461,4.4165,2.70398,-0.00594458,-0.00761075,0.00337851,-0.00329796,-0.0102574,0.664518,0.00604656,0.0204551,1784,1485,4.41652,-2.70392
567,-461,4.47546,2.65588,-0.0047122,-0.00699257,0.00213163,-0.00343497,-0.00826979,0.539813,0.00479731,0.0107567,1791,1485,4.47552,-2.65593
574,-461,4.49316,2.58398,-0.00376086,-0.00608759,0.00171831,-0.00284913,-0.00699932,0.487823,0.00406426,0.0121343,1798,1485,4.49311,-2.58395
581,-461,4.50806,2.53235,-0.00281407,-0.0044568,0.00156301,-0.00186975,-0.00540112,0.543478,0.00316715,0.0120121,1805,1485,4.50808,-2.53237
588,-461,4.49487,2.49121,-0.00256079,-0.0031682,0.00120842,-0.0016185,-0.00411049,0.662285,0.00239099,0.010142,1812,1485,4.49487,-2.49122
595,-461,4.49011,2.42871,-0.00254477,-0.00229406,0.000961461,-0.00144982,-0.00338901,0.850223,0.00196344,0.00882379,1819,1485,4.49016,-2.42867
602,-461,4.5011,2.37476,-0.00277188,-0.00201329,0.000406096,-0.00183691,-0.00294826,1.16104,0.00171928,0.00949843,1826,1485,4.50113,-2.37473
609,-461,4.49268,2.30957,-0.00223632,-0.00176243,-8.38767e-05,-0.00174802,-0.00225072,-1.40068,0.00136415,0.00996048,1833,1485,4.49269,-2.30962
616,-461,4.50488,2.24292,-0.000795885,-0.00117381,-0.00070344,-0.000256469,-0.00171322,-0.654184,0.00106698,0.0119923,1840,1485,4.50487,-2.24294
623,-461,4.5,2.18567,6.32496e-05,-0.00115765,-0.00125494,0.000848336,-0.00194274,-0.559029,0.0016522,0.0117541,1847,1485,4.49997,-2.18572
630,-461,4.49036,2.1189,0.00135377,-0.00131025,-0.00249575,0.00285072,-0.0028072,-0.540272,0.00326664,0.0102633,1854,1485,4.49034,-2.11889
637,-461,4.50037,2.04846,0.00345141,-0.00164242,-0.00418158,0.00580066,-0.00399166,-0.511864,0.00568566,0.0111549,1861,1485,4.50038,-2.04842
644,-461,4.48511,1.99023,0.00599067,-0.00171801,-0.00603022,0.00929311,-0.00502045,-0.501036,0.00838576,0.0141915,1868,1485,4.48512,-1.99026
651,-461,4.43188,1.87842,0.00939036,-0.00157856,-0.00842094,0.0139554,-0.00614356,-0.496758,0.0118927,0.0220098,1875,1485,4.43191,-1.87836
658,-461,4.62012,1.79053,0.0142719,-0.00114338,-0.0116232,0.0205109,-0.00738232,-0.492625,0.0166881,0.0389558,1882,1485,4.62013,-1.7905
665,-461,4.58899,1.69482,0.0208826,-0.000135935,-0.0160153,0.0295288,-0.00878217,-0.495036,0.0231748,0.0467216,1889,1485,4.58903,-1.69478
672,-461,4.01941,1.60144,0,0,0,0,0,0,0,-1,1896,1485,4.01939,-1.60148
679,-461,4.6864,1.07263,0.0395914,0.00345313,-0.0285412,0.0553024,-0.0122578,-0.5032,0.0415612,0.0440252,1903,1485,4.68635,-1.07268
686,-461,5.07373,0.92981,0.0532182,0.00641074,-0.0380248,0.0744644,-0.0148355,-0.509534,0.055256,0.0452236,1910,1485,5.07372,-0.92979
693,-461,0,0,0,0,0,0,0,0,0,-1,1917,1485,0,0
700,-461,0,0,0,0,0,0,0,0,0,-1,1924,1485,0,0
707,-461,0,0,0,0,0,0,0,0,0,-1,1931,1485,0,0
714,-461,0,0,0,0,0,0,0,0,0,-1,1938,1485,0,0
721,-461,0,0,0,0,0,0,0,0,0,-1,1945,1485,0,0
728,-461,0,0,0,0,0,0,0,0,0,-1,1952,1485,0,0
735,-461,0,0,0,0,0,0,0,0,0,-1,1959,1485,0,0
742,-461,0,0,0,0,0,0,0,0,0,-1,1966,1485,0,0
749,-461,0,0,0,0,0,0,0,0,0,-1,1973,1485,0,0
756,-461,0,0,0,0,0,0,0,0,0,-1,1980,1485,0,0
763,-461,0,0,0,0,0,0,0,0,0,-1,1987,1485,0,0
770,-461,0,0,0,0,0,0,0,0,0,-1,1994,1485,0,0
777,-461,0,0,0,0,0,0,0,0,0,-1,2001,1485,0,0
784,-461,0,0,0,0,0,0,0,0,0,-1,2008,1485,0,0
791,-461,0,0,0,0,0,0,0,0,0,-1,2015,1485,0,0
798,-461,0,0,0,0,0,0,0,0,0,-1,2022,1485,0,0
805,-461,0,0,0,0,0,0,0,0,0,-1,2029,1485,0,0
812,-461,0,0,0,0,0,0,0,0,0,-1,2036,1485,0,0
-700,-468,0,0,0,0,0,0,0,0,0,-1,524,1492,0,0
-693,-468,0,0,0,0,0,0,0,0,0,-1,531,1492,0,0
-686,-468,0,0,0,0,0,0,0,0,0,-1,538,1492,0,0
-679,-468,0,0,0,0,0,0,0,0,0,-1,545,1492,0,0
-672,-468,0,0,0,0,0,0,0,0,0,-1,552,1492,0,0
-665,-468,0,0,0,0,0,0,0,0,0,-1,559,1492,0,0
-658,-468,0,0,0,0,0,0,0,0,0,-1,566,1492,0,0
-651,-468,0,0,0,0,0,0,0,0,0,-1,573,1492,0,0
-644,-468,0,0,0,0,0,0,0,0,0,-1,580,1492,0,0
-637,-468,0,0,0,0,0,0,0,0,0,-1,587,1492,0,0
-630,-468,0,0,0,0,0,0,0,0,0,-1,594,1492,0,0
-623,-468,0,0,0,0,0,0,0,0,0,-1,601,1492,0,0
-616,-468,0,0,0,0,0,0,0,0,0,-1,608,1492,0,0
-609,-468,0,0,0,0,0,0,0,0,0,-1,615,1492,0,0
-602,-468,0,0,0,0,0,0,0,0,0,-1,622,1492,0,0
-595,-468,0,0,0,0,0,0,0,0,0,-1,629,1492,0,0
-588,-468,0,0,0,0,0,0,0,0,0,-1,636,1492,0,0
-581,-468,0,0,0,0,0,0,0,0,0,-1,643,1492,0,0
-574,-468,0,0,0,0,0,0,0,0,0,-1,650,1492,0,0
-567,-468,-0.475159,2.20471,0,0,0,0,0,0,0,-1,657,1492,-0.475173,-2.20471
-560,-468,-0.157227,1.44092,0.0516548,0.0317913,0.0224865,0.0663052,0.0171409,0.577444,0.0397417,0.0474478,664,1492,-0.157235,-1.44092
-553,-468,0.106934,0.581787,0.0462099,0.0309226,0.0159963,0.056295,0.0208375,0.562517,0.0328652,0.0452597,671,1492,0.106948,-0.581784
-546,-468,0.362305,-0.301758,0,0,0,0,0,0,0,-1,678,1492,0.362331,0.301777
-539,-468,0.689575,-0.816772,0,0,0,0,0,0,0,-1,685,1492,0.689588,0.816805
-532,-468,1.10272,-0.876221,0,0,0,0,0,0,0,-1,692,1492,1.10274,0.876224
-525,-468,0.618591,1.07568,0,0,0,0,0,0,0,-1,699,1492,0.618568,-1.0757
-518,-468,0.553284,1.35083,0.0144513,0.0193215,-0.000961325,0.0195044,0.0142684,-1.3828,0.0116564,0.0419868,706,1492,0.553314,-1.35077
-511,-468,0.434448,1.57312,0.00963374,0.0165265,-0.00185739,0.0169952,0.0091651,-1.32364,0.00982225,0.0298756,713,1492,0.434466,-1.57311
-504,-468,0.369446,1.77332,0.00582341,0.0126873,-0.00219022,0.0133266,0.00518407,-1.28678,0.00775707,0.0113758,720,1492,0.369429,-1.77329
-497,-468,0.386108,1.85364,0.00256269,0.0100071,-0.00231744,0.0106695,0.00190022,-1.29236,0.00657183,0.00783022,727,1492,0.386102,-1.85363
-490,-468,0.37915,1.94043,0.000722866,0.00704479,-0.00246186,0.00789038,-0.00012272,-1.23995,0.00530163,0.00730588,734,1492,0.379151,-1.94041
-483,-468,0.362,2.00342,-0.000307058,0.00430518,-0.0023189,0.00526946,-0.00127133,-1.17672,0.00400459,0.00770928,741,1492,0.36202,-2.00345
-476,-468,0.378723,2.05481,-0.000153494,0.00208717,-0.002163,0.00340276,-0.00146908,-1.02435,0.00288566,0.00835112,748,1492,0.378729,-2.05483
-469,-468,0.370056,2.10303,0.000156676,0.000881876,-0.00186573,0.00241992,-0.00138136,-0.881375,0.00222181,0.0122009,755,1492,0.370051,-2.10303
-462,-468,0.377014,2.17566,0.000185244,0.000129469,-0.00177203,0.00192961,-0.0016149,-0.77753,0.00204911,0.022026,762,1492,0.377025,-2.17563
-455,-468,0.368408,2.24915,0.000412303,-0.00015664,-0.00208146,0.00222864,-0.00197297,-0.717484,0.0024273,0.0221633,769,1492,0.368383,-2.24913
-448,-468,0.385437,2.33386,0.000641325,0.000417894,-0.00259479,0.0031268,-0.00206758,-0.763885,0.00301969,0.0136105,776,1492,0.385432,-2.33386
-441,-468,0.396179,2.39087,0.000608865,0.000426925,-0.00314206,0.00366127,-0.00262548,-0.770926,0.00364604,0.0123712,783,1492,0.396203,-2.39091
-434,-468,0.417419,2.4469,0.00124161,0.00053298,-0.00367913,0.00458344,-0.00280885,-0.737394,0.00430874,0.0114579,790,1492,0.417422,-2.44689
-427,-468,0.431335,2.47314,0.00236237,0.000551415,-0.00454802,0.00609417,-0.00318039,-0.687137,0.00544204,0.0132833,797,1492,0.431335,-2.47313
-420,-468,0.427612,2.51807,0.00378598,0.000664063,-0.00457596,0.0070599,-0.00260985,-0.621026,0.00577653,0.0215506,804,1492,0.427584,-2.51801
-413,-468,0.4328,2.52551,0.00568904,0.000664208,-0.00478503,0.00858113,-0.00222789,-0.543652,0.00659013,0.038906,811,1492,0.432774,-2.52556
-406,-468,0.478516,2.49548,0.0117987,0.00404141,-0.00702661,0.0159461,-0.000105974,-0.533212,0.0106662,0.0443641,818,1492,0.478541,-2.49548
-399,-468,0.670898,1.96069,0.0206615,0.00757454,-0.0106004,0.0265754,0.00166069,-0.508881,0.0171901,0.0439556,825,1492,0.670872,-1.96072
-392,-468,0.44696,1.95471,0.0300474,0.0114052,-0.0137476,0.0373359,0.00411663,-0.487489,0.0236382,0.0436672,832,1492,0.446991,-1.95472
-385,-468,0.297546,2.2074,0,0,0,0,0,0,0,-1,839,1492,0.297519,-2.20743
-378,-468,-0.587952,2.52307,0.0507902,0.022419,-0.0220951,0.0628615,0.0103477,-0.500024,0.0389197,0.0487971,846,1492,-0.587956,-2.52305
-371,-468,-0.057251,3.06348,0,0,0,0,0,0,0,-1,853,1492,-0.0572641,-3.06349
-364,-468,-0.752747,6.86145,0,0,0,0,0,0,0,-1,860,1492,-0.752763,-6.86146
-357,-468,-0.107117,5.58289,0.0910279,0.04299,-0.0402333,0.113867,0.0201514,-0.516296,0.0701652,0.0474748,867,1492,-0.107102,-5.58292
-350,-468,0.56897,4.28052,0.100821,0.0498837,-0.0474325,0.12919,0.0215146,-0.539017,0.0799261,0.0433546,874,1492,0.568983,-4.28053
-343,-468,0,0,0,0,0,0,0,0,0,-1,881,1492,0,0
-336,-468,0,0,0,0,0,0,0,0,0,-1,888,1492,0,0
-329,-468,0,0,0,0,0,0,0,0,0,-1,895,1492,0,0
-322,-468,0,0,0,0,0,0,0,0,0,-1,902,1492,0,0
-315,-468,0,0,0,0,0,0,0,0,0,-1,909,1492,0,0
-308,-468,0,0,0,0,0,0,0,0,0,-1,916,1492,0,0
-301,-468,0,0,0,0,0,0,0,0,0,-1,923,1492,0,0
-294,-468,0,0,0,0,0,0,0,0,0,-1,930,1492,0,0
-287,-468,0,0,0,0,0,0,0,0,0,-1,937,1492,0,0
-280,-468,0,0,0,0,0,0,0,0,0,-1,944,1492,0,0
-273,-468,0,0,0,0,0,0,0,0,0,-1,951,1492,0,0
-266,-468,0,0,0,0,0,0,0,0,0,-1,958,1492,0,0
-259,-468,0,0,0,0,0,0,0,0,0,-1,965,1492,0,0
-252,-468,0,0,0,0,0,0,0,0,0,-1,972,1492,0,0
-245,-468,0,0,0,0,0,0,0,0,0,-1,979,1492,0,0
-238,-468,0,0,0,0,0,0,0,0,0,-1,986,1492,0,0
-231,-468,0,0,0,0,0,0,0,0,0,-1,993,1492,0,0
-224,-468,0,0,0,0,0,0,0,0,0,-1,1000,1492,0,0
-217,-468,0,0,0,0,0,0,0,0,0,-1,1007,1492,0,0
-210,-468,0,0,0,0,0,0,0,0,0,-1,1014,1492,0,0
-203,-468,0,0,0,0,0,0,0,0,0,-1,1021,1492,0,0
-196,-468,0,0,0,0,0,0,0,0,0,-1,1028,1492,0,0
-189,-468,0,0,0,0,0,0,0,0,0,-1,1035,1492,0,0
-182,-468,0,0,0,0,0,0,0,0,0,-1,1042,1492,0,0
-175,-468,0,0,0,0,0,0,0,0,0,-1,1049,1492,0,0
-168,-468,0,0,0,0,0,0,0,0,0,-1,1056,1492,0,0
-161,-468,0,0,0,0,0,0,0,0,0,-1,1063,1492,0,0
-154,-468,0,0,0,0,0,0,0,0,0,-1,1070,1492,0,0
-147,-468,0,0,0,0,0,0,0,0,0,-1,1077,1492,0,0
-140,-468,0,0,0,0,0,0,0,0,0,-1,1084,1492,0,0
-133,-468,0,0,0,0,0,0,0,0,0,-1,1091,1492,0,0
-126,-468,0,0,0,0,0,0,0,0,0,-1,1098,1492,0,0
-119,-468,0,0,0,0,0,0,0,0,0,-1,1105,1492,0,0
-112,-468,0,0,0,0,0,0,0,0,0,-1,1112,1492,0,0
-105,-468,0,0,0,0,0,0,0,0,0,-1,1119,1492,0,0
-98,-468,0,0,0,0,0,0,0,0,0,-1,1126,1492,0,0
-91,-468,0,0,0,0,0,0,0,0,0,-1,1133,1492,0,0
-84,-468,0,0,0,0,0,0,0,0,0,-1,1140,1492,0,0
-77,-468,0,0,0,0,0,0,0,0,0,-1,1147,1492,0,0
-70,-468,0,0,0,0,0,0,0,0,0,-1,1154,1492,0,0
-63,-468,0,0,0,0,0,0,0,0,0,-1,1161,1492,0,0
-56,-468,0,0,0,0,0,0,0,0,0,-1,1168,1492,0,0
-49,-468,0,0,0,0,0,0,0,0,0,-1,1175,1492,0,0
-42,-468,0,0,0,0,0,0,0,0,0,-1,1182,1492,0,0
-35,-468,0,0,0,0,0,0,0,0,0,-1,1189,1492,0,0
-28,-468,0,0,0,0,0,0,0,0,0,-1,1196,1492,0,0
-21,-468,0,0,0,0,0,0,0,0,0,-1,1203,1492,0,0
-14,-468,0,0,0,0,0,0,0,0,0,-1,1210,1492,0,0
-7,-468,0,0,0,0,0,0,0,0,0,-1,1217,1492,0,0
0,-468,0,0,0,0,0,0,0,0,0,-1,1224,1492,0,0
7,-468,0,0,0,0,0,0,0,0,0,-1,1231,1492,0,0
14,-468,0,0,0,0,0,0,0,0,0,-1,1238,1492,0,0
21,-468,0,0,0,0,0,0,0,0,0,-1,1245,1492,0,0
28,-468,0,0,0,0,0,0,0,0,0,-1,1252,1492,0,0
35,-468,0,0,0,0,0,0,0,0,0,-1,1259,1492,0,0
42,-468,0,0,0,0,0,0,0,0,0,-1,1266,1492,0,0
49,-468,0,0,0,0,0,0,0,0,0,-1,1273,1492,0,0
56,-468,0,0,0,0,0,0,0,0,0,-1,1280,1492,0,0
63,-468,0,0,0,0,0,0,0,0,0,-1,1287,1492,0,0
70,-468,0,0,0,0,0,0,0,0,0,-1,1294,1492,0,0
77,-468,0,0,0,0,0,0,0,0,0,-1,1301,1492,0,0
84,-468,0,0,0,0,0,0,0,0,0,-1,1308,1492,0,0
91,-468,0,0,0,0,0,0,0,0,0,-1,1315,1492,0,0
98,-468,0,0,0,0,0,0,0,0,0,-1,1322,1492,0,0
105,-468,0,0,0,0,0,0,0,0,0,-1,1329,1492,0,0
112,-468,0,0,0,0,0,0,0,0,0,-1,1336,1492,0,0
119,-468,0,0,0,0,0,0,0,0,0,-1,1343,1492,0,0
126,-468,0,0,0,0,0,0,0,0,0,-1,1350,1492,0,0
133,-468,0,0,0,0,0,0,0,0,0,-1,1357,1492,0,0
140,-468,0,0,0,0,0,0,0,0,0,-1,1364,1492,0,0
147,-468,0,0,0,0,0,0,0,0,0,-1,1371,1492,0,0
154,-468,0,0,0,0,0,0,0,0,0,-1,1378,1492,0,0
161,-468,0,0,0,0,0,0,0,0,0,-1,1385,1492,0,0
168,-468,0,0,0,0,0,0,0,0,0,-1,1392,1492,0,0
175,-468,0,0,0,0,0,0,0,0,0,-1,1399,1492,0,0
182,-468,0,0,0,0,0,0,0,0,0,-1,1406,1492,0,0
189,-468,0,0,0,0,0,0,0,0,0,-1,1413,1492,0,0
196,-468,0,0,0,0,0,0,0,0,0,-1,1420,1492,0,0
203,-468,0,0,0,0,0,0,0,0,0,-1,1427,1492,0,0
210,-468,0,0,0,0,0,0,0,0,0,-1,1434,1492,0,0
217,-468,0,0,0,0,0,0,0,0,0,-1,1441,1492,0,0
224,-468,0,0,0,0,0,0,0,0,0,-1,1448,1492,0,0
231,-468,0,0,0,0,0,0,0,0,0,-1,1455,1492,0,0
238,-468,0,0,0,0,0,0,0,0,0,-1,1462,1492,0,0
245,-468,0,0,0,0,0,0,0,0,0,-1,1469,1492,0,0
252,-468,0,0,0,0,0,0,0,0,0,-1,1476,1492,0,0
259,-468,0,0,0,0,0,0,0,0,0,-1,1483,1492,0,0
266,-468,0,0,0,0,0,0,0,0,0,-1,1490,1492,0,0
273,-468,0,0,0,0,0,0,0,0,0,-1,1497,1492,0,0
280,-468,0,0,0,0,0,0,0,0,0,-1,1504,1492,0,0
287,-468,0,0,0,0,0,0,0,0,0,-1,1511,1492,0,0
294,-468,0,0,0,0,0,0,0,0,0,-1,1518,1492,0,0
301,-468,0,0,0,0,0,0,0,0,0,-1,1525,1492,0,0
308,-468,0,0,0,0,0,0,0,0,0,-1,1532,1492,0,0
315,-468,0,0,0,0,0,0,0,0,0,-1,1539,1492,0,0
322,-468,0,0,0,0,0,0,0,0,0,-1,1546,1492,0,0
329,-468,0,0,0,0,0,0,0,0,0,-1,1553,1492,0,0
336,-468,0,0,0,0,0,0,0,0,0,-1,1560,1492,0,0
343,-468,0,0,0,0,0,0,0,0,0,-1,1567,1492,0,0
350,-468,0,0,0,0,0,0,0,0,0,-1,1574,1492,0,0
357,-468,0,0,0,0,0,0,0,0,0,-1,1581,1492,0,0
364,-468,0,0,0,0,0,0,0,0,0,-1,1588,1492,0,0
371,-468,0,0,0,0,0,0,0,0,0,-1,1595,1492,0,0
378,-468,0,0,0,0,0,0,0,0,0,-1,1602,1492,0,0
385,-468,0,0,0,0,0,0,0,0,0,-1,1609,1492,0,0
392,-468,0,0,0,0,0,0,0,0,0,-1,1616,1492,0,0
399,-468,0,0,0,0,0,0,0,0,0,-1,1623,1492,0,0
406,-468,0,0,0,0,0,0,0,0,0,-1,1630,1492,0,0
413,-468,0,0,0,0,0,0,0,0,0,-1,1637,1492,0,0
420,-468,0,0,0,0,0,0,0,0,0,-1,1644,1492,0,0
427,-468,0,0,0,0,0,0,0,0,0,-1,1651,1492,0,0
434,-468,0,0,0,0,0,0,0,0,0,-1,1658,1492,0,0
441,-468,0,0,0,0,0,0,0,0,0,-1,1665,1492,0,0
448,-468,0,0,0,0,0,0,0,0,0,-1,1672,1492,0,0
455,-468,0,0,0,0,0,0,0,0,0,-1,1679,1492,0,0
462,-468,0,0,0,0,0,0,0,0,0,-1,1686,1492,0,0
469,-468,7.44775,-0.171387,0,0,0,0,0,0,0,-1,1693,1492,7.44773,0.171411
476,-468,7.04248,-0.448853,0,0,0,0,0,0,0,-1,1700,1492,7.04252,0.448885
483,-468,7.3689,-0.163818,0.0316864,-0.0221842,0.0632071,0.073458,-0.0639559,0.583979,0.0793991,0.0479784,1707,1492,7.36885,0.163856
490,-468,7.6095,0.0909424,0.0195785,-0.0149406,0.0638068,0.0684188,-0.063781,0.653311,0.0763413,0.0432425,1714,1492,7.60952,-0.0908829
497,-468,6.16223,1.93396,0,0,0,0,0,0,0,-1,1721,1492,6.16227,-1.93396
504,-468,5.26965,2.9928,0,0,0,0,0,0,0,-1,1728,1492,5.26969,-2.99281
511,-468,5.4115,3.70007,0,0,0,0,0,0,0,-1,1735,1492,5.41148,-3.70003
518,-468,5.71899,2.5061,0,0,0,0,0,0,0,-1,1742,1492,5.71895,-2.50614
525,-468,4.8457,2.65552,-0.00810865,-0.00349793,0.0293308,0.023618,-0.0352246,0.824617,0.0341924,0.0463532,1749,1492,4.84569,-2.65552
532,-468,3.91516,2.73035,0,0,0,0,0,0,0,-1,1756,1492,3.91513,-2.73035
539,-468,3.95129,2.60889,-0.00846453,-0.00285795,0.0142049,0.0088176,-0.0201401,0.88282,0.0171394,0.0458287,1763,1492,3.95133,-2.60892
546,-468,4.19946,2.72375,-0.00762719,-0.00357882,0.008174,0.0028179,-0.0140239,0.906775,0.0104164,0.0484952,1770,1492,4.19948,-2.7238
553,-468,4.36633,2.77124,-0.00527553,-0.00478844,0.00435237,-0.000672808,-0.00939116,0.813348,0.00604899,0.0342104,1777,1492,4.36634,-2.77123
560,-468,4.41565,2.73291,-0.00351866,-0.00524214,0.00202061,-0.00218371,-0.00657709,0.583839,0.00386806,0.0163885,1784,1492,4.41565,-2.73295
567,-468,4.41418,2.65649,-0.00250879,-0.00498856,0.000987661,-0.00216349,-0.00533385,0.336324,0.00309774,0.0132285,1791,1492,4.41417,-2.65645
574,-468,4.42151,2.58923,-0.00177359,-0.00447122,0.000815521,-0.00154622,-0.0046986,0.271905,0.00276506,0.012975,1798,1492,4.42153,-2.58919
581,-468,4.4491,2.53845,-0.00110418,-0.00312097,0.000887845,-0.000769022,-0.00345613,0.360954,0.00209533,0.0130991,1805,1492,4.44914,-2.53845
588,-468,4.44897,2.48645,-0.00116382,-0.00208925,0.000733043,-0.000759667,-0.0024934,0.503867,0.00147573,0.0114735,1812,1492,4.44897,-2.48647
595,-468,4.42822,2.41895,-0.00151207,-0.00147932,0.000645055,-0.000850433,-0.00214096,0.798086,0.00124476,0.00988729,1819,1492,4.4282,-2.41894
602,-468,4.42944,2.36206,-0.00207052,-0.00148255,0.000206868,-0.00141706,-0.00213601,1.26421,0.00125499,0.00844599,1826,1492,4.42944,-2.36201
609,-468,4.427,2.29761,-0.00182374,-0.00160186,-0.000232848,-0.00145488,-0.00197073,-1.00771,0.00118007,0.00935499,1833,1492,4.42701,-2.29757
616,-468,4.44128,2.23621,-0.000422094,-0.00119432,-0.000940218,0.000208205,-0.00182462,-0.590566,0.00129142,0.0101687,1840,1492,4.44126,-2.23623
623,-468,4.43054,2.18774,0.000309963,-0.00144035,-0.0016316,0.0012863,-0.00241669,-0.539235,0.00217087,0.0110263,1847,1492,4.43052,-2.18769
630,-468,4.42664,2.11719,0.00168614,-0.00178222,-0.00307646,0.00348353,-0.00357961,-0.52875,0.00407803,0.0108736,1854,1492,4.42665,-2.11717
637,-468,4.44287,2.0459,0.00402007,-0.00218899,-0.00506485,0.00685615,-0.00502507,-0.510452,0.00688673,0.0132556,1861,1492,4.44291,-2.04594
644,-468,4.42847,2.00867,0.00700395,-0.00240634,-0.00734629,0.0110227,-0.0064251,-0.500572,0.0101894,0.0212978,1868,1492,4.42849,-2.00862
651,-468,4.44177,1.91296,0.0111727,-0.00230024,-0.0102974,0.0167414,-0.00786889,-0.49574,0.0145133,0.038664,1875,1492,4.44172,-1.91296
658,-468,4.50928,1.53418,0.0167794,-0.00172089,-0.0140487,0.0243498,-0.00929126,-0.494256,0.0200608,0.0412594,1882,1492,4.50933,-1.53412
665,-468,4.66956,1.28394,0.0239376,-0.000521654,-0.0186917,0.0340451,-0.0106291,-0.495709,0.0269478,0.0426787,1889,1492,4.66954,-1.28391
672,-468,4.82483,1.02502,0,0,0,0,0,0,0,-1,1896,1492,4.82478,-1.02502
679,-468,5.05835,0.947266,0.0430558,0.00444991,-0.0312359,0.0604719,-0.0129662,-0.508633,0.04526,0.045507,1903,1492,5.05836,-0.947314
686,-468,5.36865,0.786255,0.0546683,0.0083663,-0.0394495,0.0772582,-0.0142236,-0.52005,0.056843,0.0433408,1910,1492,5.36863,-0.786285
693,-468,0,0,0,0,0,0,0,0,0,-1,1917,1492,0,0
700,-468,0,0,0,0,0,0,0,0,0,-1,1924,1492,0,0
707,-468,0,0,0,0,0,0,0,0,0,-1,1931,1492,0,0
714,-468,0,0,0,0,0,0,0,0,0,-1,1938,1492,0,0
721,-468,0,0,0,0,0,0,0,0,0,-1,1945,1492,0,0
728,-468,0,0,0,0,0,0,0,0,0,-1,1952,1492,0,0
735,-468,0,0,0,0,0,0,0,0,0,-1,1959,1492,0,0
742,-468,0,0,0,0,0,0,0,0,0,-1,1966,1492,0,0
749,-468,0,0,0,0,0,0,0,0,0,-1,1973,1492,0,0
756,-468,0,0,0,0,0,0,0,0,0,-1,1980,1492,0,0
763,-468,0,0,0,0,0,0,0,0,0,-1,1987,1492,0,0
770,-468,0,0,0,0,0,0,0,0,0,-1,1994,1492,0,0
777,-468,0,0,0,0,0,0,0,0,0,-1,2001,1492,0,0
784,-468,0,0,0,0,0,0,0,0,0,-1,2008,1492,0,0
791,-468,0,0,0,0,0,0,0,0,0,-1,2015,1492,0,0
798,-468,0,0,0,0,0,0,0,0,0,-1,2022,1492,0,0
805,-468,0,0,0,0,0,0,0,0,0,-1,2029,1492,0,0
812,-468,0,0,0,0,0,0,0,0,0,-1,2036,1492,0,0
-700,-475,0,0,0,0,0,0,0,0,0,-1,524,1499,0,0
-693,-475,0,0,0,0,0,0,0,0,0,-1,531,1499,0,0
-686,-475,0,0,0,0,0,0,0,0,0,-1,538,1499,0,0
-679,-475,0,0,0,0,0,0,0,0,0,-1,545,1499,0,0
-672,-475,0,0,0,0,0,0,0,0,0,-1,552,1499,0,0
-665,-475,0,0,0,0,0,0,0,0,0,-1,559,1499,0,0
-658,-475,0,0,0,0,0,0,0,0,0,-1,566,1499,0,0
-651,-475,0,0,0,0,0,0,0,0,0,-1,573,1499,0,0
-644,-475,0,0,0,0,0,0,0,0,0,-1,580,1499,0,0
-637,-475,0,0,0,0,0,0,0,0,0,-1,587,1499,0,0
-630,-475,0,0,0,0,0,0,0,0,0,-1,594,1499,0,0
-623,-475,0,0,0,0,0,0,0,0,0,-1,601,1499,0,0
-616,-475,0,0,0,0,0,0,0,0,0,-1,608,1499,0,0
-609,-475,0,0,0,0,0,0,0,0,0,-1,615,1499,0,0
-602,-475,0,0,0,0,0,0,0,0,0,-1,622,1499,0,0
-595,-475,0,0,0,0,0,0,0,0,0,-1,629,1499,0,0
-588,-475,0,0,0,0,0,0,0,0,0,-1,636,1499,0,0
-581,-475,0,0,0,0,0,0,0,0,0,-1,643,1499,0,0
-574,-475,0,0,0,0,0,0,0,0,0,-1,650,1499,0,0
-567,-475,0,0,0,0,0,0,0,0,0,-1,657,1499,0,0
-560,-475,-0.605896,0.949463,0.0661752,0.0251564,0.0193698,0.0738762,0.0174554,0.378415,0.0445862,0.0456139,664,1499,-0.605914,-0.94946
-553,-475,-0.2099,0.557861,0.058402,0.0263357,0.0123685,0.0626183,0.0221194,0.328538,0.0366681,0.0432965,671,1499,-0.209872,-0.557872
-546,-475,0.461731,-0.950928,0,0,0,0,0,0,0,-1,678,1499,0.461709,0.950875
-539,-475,0.789185,-0.764526,0,0,0,0,0,0,0,-1,685,1499,0.789168,0.764578
-532,-475,1.11322,-0.532715,0,0,0,0,0,0,0,-1,692,1499,1.1132,0.532734
-525,-475,1.56824,-0.281616,0,0,0,0,0,0,0,-1,699,1499,1.56823,0.281597
-518,-475,0.726318,1.29224,0,0,0,0,0,0,0,-1,706,1499,0.726339,-1.29226
-511,-475,0.517212,1.46924,0.0137591,0.0167603,-0.00556732,0.0210257,0.0094937,-0.917036,0.0121582,0.0457883,713,1499,0.517233,-1.46924
-504,-475,0.426392,1.72925,0.00930569,0.0130102,-0.00553908,0.0169985,0.00531738,-0.946754,0.0100407,0.0240717,720,1499,0.42641,-1.72926
-497,-475,0.440857,1.85925,0.00541686,0.0104507,-0.00526602,0.0137704,0.0020972,-1.00833,0.0085672,0.0111549,727,1499,0.440883,-1.85925
-490,-475,0.439392,1.93774,0.00292079,0.00757335,-0.00490456,0.0106754,-0.000181216,-1.00684,0.00717807,0.00764783,734,1499,0.439408,-1.9377
-483,-475,0.445862,2.00366,0.00136221,0.00479061,-0.00417906,0.00759338,-0.00144056,-0.980027,0.00560449,0.00782699,741,1499,0.445857,-2.0036
-476,-475,0.44696,2.05823,0.00116601,0.00246576,-0.00338069,0.00525847,-0.0016267,-0.880355,0.00415541,0.00932189,748,1499,0.446978,-2.05824
-469,-475,0.450134,2.10632,0.00129602,0.00103248,-0.00246472,0.00363249,-0.00130399,-0.758693,0.00295388,0.0114423,755,1499,0.450155,-2.10631
-462,-475,0.465149,2.17725,0.00109622,4.36731e-05,-0.00190213,0.00254354,-0.00140365,-0.650437,0.00231037,0.0161605,762,1499,0.465161,-2.17723
-455,-475,0.460022,2.26331,0.00123077,-0.000384144,-0.00184857,0.00244054,-0.00159392,-0.579487,0.00234633,0.0148854,769,1499,0.460027,-2.26333
-448,-475,0.453979,2.34143,0.00129171,-3.32457e-05,-0.00196421,0.00270215,-0.00144368,-0.622751,0.00243008,0.0128507,776,1499,0.453995,-2.34143
-441,-475,0.455627,2.422,0.00123502,-0.000254918,-0.00220875,0.00282105,-0.00184095,-0.622748,0.00271136,0.0148024,783,1499,0.455647,-2.422
-434,-475,0.459045,2.4281,0.00192292,-0.000324988,-0.00255984,0.00359468,-0.00199676,-0.578534,0.00327187,0.00992705,790,1499,0.459046,-2.42814
-427,-475,0.476746,2.48718,0.00309354,-0.000492557,-0.00321784,0.00498418,-0.00238319,-0.531213,0.00434101,0.010971,797,1499,0.47676,-2.48719
-420,-475,0.472351,2.56042,0.00452001,-0.000596098,-0.00318685,0.00604848,-0.00212457,-0.447209,0.00489663,0.014184,804,1499,0.47237,-2.56042
-413,-475,0.467712,2.55798,0.00631155,-0.000842924,-0.00335292,0.00763724,-0.00216861,-0.37652,0.00594764,0.0286926,811,1499,0.467701,-2.55802
-406,-475,0.419678,2.64001,0.0118764,0.00209445,-0.00537746,0.0142544,-0.000283605,-0.41637,0.0095989,0.0456457,818,1499,0.419683,-2.64001
-399,-475,0.775269,1.56714,0.0198204,0.00529689,-0.00863176,0.0238387,0.00127855,-0.435692,0.0154839,0.0495206,825,1499,0.775296,-1.56719
-392,-475,0.565735,1.73914,0.0282281,0.00882438,-0.0115707,0.0336261,0.00342633,-0.436513,0.0213671,0.0473603,832,1499,0.565718,-1.73917
-385,-475,0.510498,2.64563,0.0373455,0.0137921,-0.015009,0.0446466,0.00649098,-0.452745,0.027854,0.0448126,839,1499,0.510518,-2.6456
-378,-475,0.554321,3.10156,0.047026,0.0194699,-0.0190938,0.0567938,0.00970206,-0.472861,0.0350787,0.0460116,846,1499,0.554331,-3.10155
-371,-475,-0.852905,3.54517,0,0,0,0,0,0,0,-1,853,1499,-0.852926,-3.54518
-364,-475,-0.270813,5.61389,0,0,0,0,0,0,0,-1,860,1499,-0.270786,-5.61391
-357,-475,0.264954,4.96204,0.0801545,0.0398361,-0.0325731,0.0983019,0.0216886,-0.508301,0.0596346,0.0462021,867,1499,0.264959,-4.96209
-350,-475,0.791748,4.30408,0.0888603,0.046311,-0.0365733,0.109897,0.0252747,-0.521971,0.0664613,0.0443092,874,1499,0.791754,-4.30412
-343,-475,1.42761,3.46545,0,0,0,0,0,0,0,-1,881,1499,1.42762,-3.46547
-336,-475,0,0,0,0,0,0,0,0,0,-1,888,1499,0,0
-329,-475,0,0,0,0,0,0,0,0,0,-1,895,1499,0,0
-322,-475,0,0,0,0,0,0,0,0,0,-1,902,1499,0,0
-315,-475,0,0,0,0,0,0,0,0,0,-1,909,1499,0,0
-308,-475,0,0,0,0,0,0,0,0,0,-1,916,1499,0,0
-301,-475,0,0,0,0,0,0,0,0,0,-1,923,1499,0,0
-294,-475,0,0,0,0,0,0,0,0,0,-1,930,1499,0,0
-287,-475,0,0,0,0,0,0,0,0,0,-1,937,1499,0,0
-280,-475,0,0,0,0,0,0,0,0,0,-1,944,1499,0,0
-273,-475,0,0,0,0,0,0,0,0,0,-1,951,1499,0,0
-266,-475,0,0,0,0,0,0,0,0,0,-1,958,1499,0,0
-259,-475,0,0,0,0,0,0,0,0,0,-1,965,1499,0,0
-252,-475,0,0,0,0,0,0,0,0,0,-1,972,1499,0,0
-245,-475,0,0,0,0,0,0,0,0,0,-1,979,1499,0,0
-238,-475,0,0,0,0,0,0,0,0,0,-1,986,1499,0,0
-231,-475,0,0,0,0,0,0,0,0,0,-1,993,1499,0,0
-224,-475,0,0,0,0,0,0,0,0,0,-1,1000,1499,0,0
-217,-475,0,0,0,0,0,0,0,0,0,-1,1007,1499,0,0
-210,-475,0,0,0,0,0,0,0,0,0,-1,1014,1499,0,0
-203,-475,0,0,0,0,0,0,0,0,0,-1,1021,1499,0,0
-196,-475,0,0,0,0,0,0,0,0,0,-1,1028,1499,0,0
-189,-475,0,0,0,0,0,0,0,0,0,-1,1035,1499,0,0
-182,-475,0,0,0,0,0,0,0,0,0,-1,1042,1499,0,0
-175,-475,0,0,0,0,0,0,0,0,0,-1,1049,1499,0,0
-168,-475,0,0,0,0,0,0,0,0,0,-1,1056,1499,0,0
-161,-475,0,0,0,0,0,0,0,0,0,-1,1063,1499,0,0
-154,-475,0,0,0,0,0,0,0,0,0,-1,1070,1499,0,0
-147,-475,0,0,0,0,0,0,0,0,0,-1,1077,1499,0,0
-140,-475,0,0,0,0,0,0,0,0,0,-1,1084,1499,0,0
-133,-475,0,0,0,0,0,0,0,0,0,-1,1091,1499,0,0
-126,-475,0,0,0,0,0,0,0,0,0,-1,1098,1499,0,0
-119,-475,0,0,0,0,0,0,0,0,0,-1,1105,1499,0,0
-112,-475,0,0,0,0,0,0,0,0,0,-1,1112,1499,0,0
-105,-475,0,0,0,0,0,0,0,0,0,-1,1119,1499,0,0
-98,-475,0,0,0,0,0,0,0,0,0,-1,1126,1499,0,0
-91,-475,0,0,0,0,0,0,0,0,0,-1,1133,1499,0,0
-84,-475,0,0,0,0,0,0,0,0,0,-1,1140,1499,0,0
-77,-475,0,0,0,0,0,0,0,0,0,-1,1147,1499,0,0
-70,-475,0,0,0,0,0,0,0,0,0,-1,1154,1499,0,0
-63,-475,0,0,0,0,0,0,0,0,0,-1,1161,1499,0,0
-56,-475,0,0,0,0,0,0,0,0,0,-1,1168,1499,0,0
-49,-475,0,0,0,0,0,0,0,0,0,-1,1175,1499,0,0
-42,-475,0,0,0,0,0,0,0,0,0,-1,1182,1499,0,0
-35,-475,0,0,0,0,0,0,0,0,0,-1,1189,1499,0,0
-28,-475,0,0,0,0,0,0,0,0,0,-1,1196,1499,0,0
-21,-475,0,0,0,0,0,0,0,0,0,-1,1203,1499,0,0
-14,-475,0,0,0,0,0,0,0,0,0,-1,1210,1499,0,0
-7,-475,0,0,0,0,0,0,0,0,0,-1,1217,1499,0,0
0,-475,0,0,0,0,0,0,0,0,0,-1,1224,1499,0,0
7,-475,0,0,0,0,0,0,0,0,0,-1,1231,1499,0,0
14,-475,0,0,0,0,0,0,0,0,0,-1,1238,1499,0,0
21,-475,0,0,0,0,0,0,0,0,0,-1,1245,1499,0,0
28,-475,0,0,0,0,0,0,0,0,0,-1,1252,1499,0,0
35,-475,0,0,0,0,0,0,0,0,0,-1,1259,1499,0,0
42,-475,0,0,0,0,0,0,0,0,0,-1,1266,1499,0,0
49,-475,0,0,0,0,0,0,0,0,0,-1,1273,1499,0,0
56,-475,0,0,0,0,0,0,0,0,0,-1,1280,1499,0,0
63,-475,0,0,0,0,0,0,0,0,0,-1,1287,1499,0,0
70,-475,0,0,0,0,0,0,0,0,0,-1,1294,1499,0,0
77,-475,0,0,0,0,0,0,0,0,0,-1,1301,1499,0,0
84,-475,0,0,0,0,0,0,0,0,0,-1,1308,1499,0,0
91,-475,0,0,0,0,0,0,0,0,0,-1,1315,1499,0,0
98,-475,0,0,0,0,0,0,0,0,0,-1,1322,1499,0,0
105,-475,0,0,0,0,0,0,0,0,0,-1,1329,1499,0,0
112,-475,0,0,0,0,0,0,0,0,0,-1,1336,1499,0,0
119,-475,0,0,0,0,0,0,0,0,0,-1,1343,1499,0,0
126,-475,0,0,0,0,0,0,0,0,0,-1,1350,1499,0,0
133,-475,0,0,0,0,0,0,0,0,0,-1,1357,1499,0,0
140,-475,0,0,0,0,0,0,0,0,0,-1,1364,1499,0,0
147,-475,0,0,0,0,0,0,0,0,0,-1,1371,1499,0,0
154,-475,0,0,0,0,0,0,0,0,0,-1,1378,1499,0,0
161,-475,0,0,0,0,0,0,0,0,0,-1,1385,1499,0,0
168,-475,0,0,0,0,0,0,0,0,0,-1,1392,1499,0,0
175,-475,0,0,0,0,0,0,0,0,0,-1,1399,1499,0,0
182,-475,0,0,0,0,0,0,0,0,0,-1,1406,1499,0,0
189,-475,0,0,0,0,0,0,0,0,0,-1,1413,1499,0,0
196,-475,0,0,0,0,0,0,0,0,0,-1,1420,1499,0,0
203,-475,0,0,0,0,0,0,0,0,0,-1,1427,1499,0,0
210,-475,0,0,0,0,0,0,0,0,0,-1,1434,1499,0,0
217,-475,0,0,0,0,0,0,0,0,0,-1,1441,1499,0,0
224,-475,0,0,0,0,0,0,0,0,0,-1,1448,1499,0,0
231,-475,0,0,0,0,0,0,0,0,0,-1,1455,1499,0,0
238,-475,0,0,0,0,0,0,0,0,0,-1,1462,1499,0,0
245,-475,0,0,0,0,0,0,0,0,0,-1,1469,1499,0,0
252,-475,0,0,0,0,0,0,0,0,0,-1,1476,1499,0,0
259,-475,0,0,0,0,0,0,0,0,0,-1,1483,1499,0,0
266,-475,0,0,0,0,0,0,0,0,0,-1,1490,1499,0,0
273,-475,0,0,0,0,0,0,0,0,0,-1,1497,1499,0,0
280,-475,0,0,0,0,0,0,0,0,0,-1,1504,1499,0,0
287,-475,0,0,0,0,0,0,0,0,0,-1,1511,1499,0,0
294,-475,0,0,0,0,0,0,0,0,0,-1,1518,1499,0,0
301,-475,0,0,0,0,0,0,0,0,0,-1,1525,1499,0,0
308,-475,0,0,0,0,0,0,0,0,0,-1,1532,1499,0,0
315,-475,0,0,0,0,0,0,0,0,0,-1,1539,1499,0,0
322,-475,0,0,0,0,0,0,0,0,0,-1,1546,1499,0,0
329,-475,0,0,0,0,0,0,0,0,0,-1,1553,1499,0,0
336,-475,0,0,0,0,0,0,0,0,0,-1,1560,1499,0,0
343,-475,0,0,0,0,0,0,0,0,0,-1,1567,1499,0,0
350,-475,0,0,0,0,0,0,0,0,0,-1,1574,1499,0,0
357,-475,0,0,0,0,0,0,0,0,0,-1,1581,1499,0,0
364,-475,0,0,0,0,0,0,0,0,0,-1,1588,1499,0,0
371,-475,0,0,0,0,0,0,0,0,0,-1,1595,1499,0,0
378,-475,0,0,0,0,0,0,0,0,0,-1,1602,1499,0,0
385,-475,0,0,0,0,0,0,0,0,0,-1,1609,1499,0,0
392,-475,0,0,0,0,0,0,0,0,0,-1,1616,1499,0,0
399,-475,0,0,0,0,0,0,0,0,0,-1,1623,1499,0,0
406,-475,0,0,0,0,0,0,0,0,0,-1,1630,1499,0,0
413,-475,0,0,0,0,0,0,0,0,0,-1,1637,1499,0,0
420,-475,0,0,0,0,0,0,0,0,0,-1,1644,1499,0,0
427,-475,0,0,0,0,0,0,0,0,0,-1,1651,1499,0,0
434,-475,0,0,0,0,0,0,0,0,0,-1,1658,1499,0,0
441,-475,0,0,0,0,0,0,0,0,0,-1,1665,1499,0,0
448,-475,0,0,0,0,0,0,0,0,0,-1,1672,1499,0,0
455,-475,0,0,0,0,0,0,0,0,0,-1,1679,1499,0,0
462,-475,7.01636,-0.609741,0,0,0,0,0,0,0,-1,1686,1499,7.01636,0.609758
469,-475,7.23645,-0.311646,0,0,0,0,0,0,0,-1,1693,1499,7.23646,0.311687
476,-475,6.7655,-0.321411,0,0,0,0,0,0,0,-1,1700,1499,6.76549,0.321439
483,-475,6.87378,0.0668945,0,0,0,0,0,0,0,-1,1707,1499,6.8738,-0.0669263
490,-475,6.06958,0.931396,0,0,0,0,0,0,0,-1,1714,1499,6.06954,-0.931366
497,-475,5.80139,1.71631,0.00657946,-0.00866168,0.0514113,0.0509319,-0.0530141,0.71182,0.0600172,0.0446712,1721,1499,5.80141,-1.71631
504,-475,5.40356,2.56055,0.00229329,-0.00680295,0.0452278,0.0432011,-0.0477108,0.735287,0.0525095,0.0435772,1728,1499,5.40351,-2.56049
511,-475,5.23535,3.40955,-0.000566288,-0.0060472,0.0391773,0.0359663,-0.0425798,0.75048,0.0454021,0.0420993,1735,1499,5.23531,-3.40951
518,-475,5.02795,3.94568,-0.00498074,-0.00513411,0.0346253,0.0295679,-0.0396828,0.784291,0.0401238,0.0458549,1742,1499,5.02794,-3.94566
525,-475,4.67273,2.7262,-0.00609277,-0.0012838,0.0266097,0.0230298,-0.0304064,0.830456,0.0309493,0.0477023,1749,1499,4.67272,-2.7262
532,-475,4.02295,2.76575,0,0,0,0,0,0,0,-1,1756,1499,4.02293,-2.76577
539,-475,4.11389,2.77075,-0.00554392,-0.000930926,0.012807,0.00977565,-0.0162505,0.874491,0.0151804,0.0426707,1763,1499,4.11387,-2.7707
546,-475,4.23352,2.78613,-0.00471281,-0.00170222,0.00744733,0.00439042,-0.0108054,0.885118,0.00903017,0.0368564,1770,1499,4.23348,-2.78615
553,-475,4.32336,2.80408,-0.0027855,-0.00290191,0.00390085,0.00105758,-0.00674499,0.777938,0.00488748,0.0191382,1777,1499,4.32342,-2.80413
560,-475,4.33484,2.74622,-0.00132751,-0.00351061,0.0016722,-0.000422131,-0.004416,0.496241,0.00281386,0.0138678,1784,1499,4.33481,-2.74624
567,-475,4.36707,2.65222,-0.00056665,-0.00350298,0.00069374,-0.000410997,-0.00365864,0.220712,0.00231429,0.0135695,1791,1499,4.36711,-2.6522
574,-475,4.36096,2.60071,4.8807e-06,-0.00327385,0.000596836,0.000110145,-0.00337911,0.174575,0.00229034,0.0137208,1798,1499,4.36094,-2.60074
581,-475,4.37158,2.54785,0.000569097,-0.00213516,0.000759921,0.000768011,-0.00233407,0.256012,0.00186551,0.0117484,1805,1499,4.37159,-2.54779
588,-475,4.36536,2.49365,0.000371046,-0.00128942,0.000691379,0.000621225,-0.0015396,0.347198,0.00128456,0.010303,1812,1499,4.3653,-2.4936
595,-475,4.38208,2.42957,-0.000125871,-0.000862745,0.000678821,0.000278055,-0.00126667,0.536764,0.000950783,0.0109715,1819,1499,4.38203,-2.42954
602,-475,4.39221,2.32947,-0.000801674,-0.00105668,0.000314363,-0.000589942,-0.00126842,0.592738,0.000732914,0.0119263,1826,1499,4.39227,-2.32947
609,-475,4.38562,2.28271,-0.000628424,-0.00145058,-0.000110151,-0.000613922,-0.00146508,-0.130903,0.000849552,0.0114193,1833,1499,4.38556,-2.28274
616,-475,4.38306,2.24634,0.000959817,-0.00116816,-0.000910665,0.00129632,-0.00150466,-0.353954,0.00161864,0.0118971,1840,1499,4.383,-2.24633
623,-475,4.37048,2.18311,0.00182956,-0.00162694,-0.00170307,0.00252768,-0.00232507,-0.38903,0.00280255,0.0113638,1847,1499,4.37047,-2.18305
630,-475,4.36584,2.1134,0.00349831,-0.00214186,-0.00330216,0.0050207,-0.00366426,-0.431989,0.00503461,0.0128829,1854,1499,4.3659,-2.11345
637,-475,4.36121,2.06091,0.0062062,-0.00266753,-0.00553898,0.00886624,-0.00532757,-0.447715,0.00827926,0.0231061,1861,1499,4.36118,-2.06093
644,-475,4.35596,2.13892,0.0097382,-0.00310297,-0.00821975,0.0137478,-0.00711254,-0.453838,0.0122451,0.040116,1868,1499,4.35597,-2.13887
651,-475,4.46313,2.21887,0.0146841,-0.00317941,-0.0117153,0.0204842,-0.00897943,-0.459703,0.0174377,0.0488528,1875,1499,4.4631,-2.21887
658,-475,4.34277,1.55432,0.0213194,-0.0026781,-0.0161487,0.0294391,-0.0107977,-0.465889,0.0240474,0.0468737,1882,1499,4.34277,-1.55434
665,-475,4.51453,1.29407,0.0298114,-0.00133052,-0.0215987,0.0408667,-0.0123858,-0.473084,0.0321777,0.0425391,1889,1499,4.51456,-1.29402
672,-475,4.69263,0.925049,0,0,0,0,0,0,0,-1,1896,1499,4.69266,-0.925036
679,-475,5.32935,0.826172,0,0,0,0,0,0,0,-1,1903,1499,5.32932,-0.826113
686,-475,0,0,0,0,0,0,0,0,0,-1,1910,1499,0,0
693,-475,0,0,0,0,0,0,0,0,0,-1,1917,1499,0,0
700,-475,0,0,0,0,0,0,0,0,0,-1,1924,1499,0,0
707,-475,0,0,0,0,0,0,0,0,0,-1,1931,1499,0,0
714,-475,0,0,0,0,0,0,0,0,0,-1,1938,1499,0,0
721,-475,0,0,0,0,0,0,0,0,0,-1,1945,1499,0,0
728,-475,0,0,0,0,0,0,0,0,0,-1,1952,1499,0,0
735,-475,0,0,0,0,0,0,0,0,0,-1,1959,1499,0,0
742,-475,0,0,0,0,0,0,0,0,0,-1,1966,1499,0,0
749,-475,0,0,0,0,0,0,0,0,0,-1,1973,1499,0,0
756,-475,0,0,0,0,0,0,0,0,0,-1,1980,1499,0,0
763,-475,0,0,0,0,0,0,0,0,0,-1,1987,1499,0,0
770,-475,0,0,0,0,0,0,0,0,0,-1,1994,1499,0,0
777,-475,0,0,0,0,0,0,0,0,0,-1,2001,1499,0,0
784,-475,0,0,0,0,0,0,0,0,0,-1,2008,1499,0,0
791,-475,0,0,0,0,0,0,0,0,0,-1,2015,1499,0,0
798,-475,0,0,0,0,0,0,0,0,0,-1,2022,1499,0,0
805,-475,0,0,0,0,0,0,0,0,0,-1,2029,1499,0,0
812,-475,0,0,0,0,0,0,0,0,0,-1,2036,1499,0,0
-700,-482,0,0,0,0,0,0,0,0,0,-1,524,1506,0,0
-693,-482,0,0,0,0,0,0,0,0,0,-1,531,1506,0,0
-686,-482,0,0,0,0,0,0,0,0,0,-1,538,1506,0,0
-679,-482,0,0,0,0,0,0,0,0,0,-1,545,1506,0,0
-672,-482,0,0,0,0,0,0,0,0,0,-1,552,1506,0,0
-665,-482,0,0,0,0,0,0,0,0,0,-1,559,1506,0,0
-658,-482,0,0,0,0,0,0,0,0,0,-1,566,1506,0,0
-651,-482,0,0,0,0,0,0,0,0,0,-1,573,1506,0,0
-644,-482,0,0,0,0,0,0,0,0,0,-1,580,1506,0,0
-637,-482,0,0,0,0,0,0,0,0,0,-1,587,1506,0,0
-630,-482,0,0,0,0,0,0,0,0,0,-1,594,1506,0,0
-623,-482,0,0,0,0,0,0,0,0,0,-1,601,1506,0,0
-616,-482,0,0,0,0,0,0,0,0,0,-1,608,1506,0,0
-609,-482,0,0,0,0,0,0,0,0,0,-1,615,1506,0,0
-602,-482,0,0,0,0,0,0,0,0,0,-1,622,1506,0,0
-595,-482,0,0,0,0,0,0,0,0,0,-1,629,1506,0,0
-588,-482,0,0,0,0,0,0,0,0,0,-1,636,1506,0,0
-581,-482,0,0,0,0,0,0,0,0,0,-1,643,1506,0,0
-574,-482,0,0,0,0,0,0,0,0,0,-1,650,1506,0,0
-567,-482,0,0,0,0,0,0,0,0,0,-1,657,1506,0,0
-560,-482,0,0,0,0,0,0,0,0,0,-1,664,1506,0,0
-553,-482,-0.761108,0.667969,0.0696859,0.0192502,0.00920839,0.0713145,0.0176215,0.175055,0.0428932,0.043522,671,1506,-0.761126,-0.668019
-546,-482,-0.00604248,0.37854,0.0585691,0.0217382,0.00335557,0.0588723,0.021435,0.0901187,0.034406,0.0441766,678,1506,-0.00604551,-0.378588
-539,-482,0.780029,-0.562988,0,0,0,0,0,0,0,-1,685,1506,0.780037,0.562971
-532,-482,1.18646,-0.234497,0,0,0,0,0,0,0,-1,692,1506,1.18648,0.234546
-525,-482,1.70599,-0.0401611,0,0,0,0,0,0,0,-1,699,1506,1.70601,0.0401572
-518,-482,-0.497314,2.14954,0,0,0,0,0,0,0,-1,706,1506,-0.497299,-2.1496
-511,-482,0.60199,1.34985,0,0,0,0,0,0,0,-1,713,1506,0.602006,-1.34989
-504,-482,0.434021,1.71179,0.010515,0.0128802,-0.00839179,0.0201723,0.00322288,-0.855398,0.012513,0.0390397,720,1506,0.434033,-1.71174
-497,-482,0.497803,1.85522,0.00612303,0.0105765,-0.00773879,0.0164025,0.00029698,-0.925482,0.0108374,0.0210178,727,1506,0.497775,-1.85522
-490,-482,0.504395,1.90149,0.00318477,0.00794014,-0.00693058,0.0128895,-0.00176464,-0.950643,0.0092376,0.0119545,734,1506,0.504364,-1.90152
-483,-482,0.507813,1.9801,0.00137596,0.00520617,-0.00568101,0.00928619,-0.00270406,-0.94797,0.00726195,0.00802214,741,1506,0.507793,-1.98014
-476,-482,0.496521,2.05762,0.00109958,0.00285594,-0.00430903,0.00637537,-0.00241985,-0.885921,0.00524631,0.00937248,748,1506,0.496504,-2.05764
-469,-482,0.488037,2.11267,0.00122829,0.0012673,-0.00285142,0.00409928,-0.00160369,-0.788818,0.00339607,0.0109012,755,1506,0.488045,-2.1127
-462,-482,0.525513,2.16895,0.00100605,0.000111854,-0.00194572,0.00255538,-0.00143747,-0.672466,0.0023352,0.0115098,762,1506,0.525509,-2.16898
-455,-482,0.528564,2.24292,0.00116714,-0.000393307,-0.00161053,0.00217649,-0.00140266,-0.559833,0.00208246,0.0115465,769,1506,0.52855,-2.24297
-448,-482,0.522339,2.34326,0.00114329,-0.000227757,-0.00141427,0.00202943,-0.00111389,-0.559724,0.00184028,0.0122685,776,1506,0.522343,-2.34327
-441,-482,0.511841,2.40356,0.00118786,-0.000590649,-0.00147417,0.00202022,-0.00142301,-0.514005,0.00199789,0.0118089,783,1506,0.511858,-2.40356
-434,-482,0.519653,2.45544,0.00184563,-0.000750028,-0.00168962,0.00267834,-0.00158274,-0.4579,0.00248709,0.0140119,790,1506,0.519647,-2.45541
-427,-482,0.512634,2.54932,0.00295397,-0.00100342,-0.00218724,0.00392473,-0.00197418,-0.417708,0.00346724,0.0162983,797,1506,0.51264,-2.54932
-420,-482,0.500427,2.64905,0.00427512,-0.00122342,-0.00213726,0.00500814,-0.00195645,-0.330402,0.00414768,0.0174752,804,1506,0.500441,-2.64909
-413,-482,0.524292,2.6543,0.00584942,-0.00159631,-0.00229035,0.00649753,-0.00224442,-0.275765,0.0052425,0.0210019,811,1506,0.524268,-2.65426
-406,-482,0.432312,2.70789,0.0107199,0.000895007,-0.00407575,0.0121906,-0.000575641,-0.346289,0.00832555,0.0366989,818,1506,0.432334,-2.70783
-399,-482,1.03088,1.07751,0,0,0,0,0,0,0,-1,825,1506,1.03091,-1.07756
-392,-482,0.349304,2.80579,0.0248804,0.00687006,-0.00958631,0.0290279,0.00272265,-0.408323,0.0185112,0.0472667,832,1506,0.349279,-2.80577
-385,-482,0.470764,2.76917,0.0327003,0.0114582,-0.0125566,0.0385253,0.0056331,-0.434356,0.024027,0.0445493,839,1506,0.470779,-2.76911
-378,-482,0.464783,3.01453,0.0410175,0.016666,-0.0159743,0.0489272,0.00875624,-0.459763,0.0301266,0.0447694,846,1506,0.464812,-3.01457
-371,-482,0.479126,3.19836,0,0,0,0,0,0,0,-1,853,1506,0.479146,-3.19832
-364,-482,-0.193298,4.17688,0,0,0,0,0,0,0,-1,860,1506,-0.193277,-4.17693
-357,-482,0.441895,4.10083,0.0680522,0.0349931,-0.0252268,0.0816825,0.0213627,-0.495374,0.0489146,0.0484213,867,1506,0.441884,-4.10089
-350,-482,1.41901,3.52893,0.0754354,0.0406532,-0.0268957,0.0900728,0.0260157,-0.498403,0.0535272,0.0447754,874,1506,1.41903,-3.52891
-343,-482,2.36853,2.86816,0,0,0,0,0,0,0,-1,881,1506,2.36856,-2.86816
-336,-482,1.56012,0.738159,0,0,0,0,0,0,0,-1,888,1506,1.56011,-0.738156
-329,-482,0,0,0,0,0,0,0,0,0,-1,895,1506,0,0
-322,-482,0,0,0,0,0,0,0,0,0,-1,902,1506,0,0
-315,-482,0,0,0,0,0,0,0,0,0,-1,909,1506,0,0
-308,-482,0,0,0,0,0,0,0,0,0,-1,916,1506,0,0
-301,-482,0,0,0,0,0,0,0,0,0,-1,923,1506,0,0
-294,-482,0,0,0,0,0,0,0,0,0,-1,930,1506,0,0
-287,-482,0,0,0,0,0,0,0,0,0,-1,937,1506,0,0
-280,-482,0,0,0,0,0,0,0,0,0,-1,944,1506,0,0
-273,-482,0,0,0,0,0,0,0,0,0,-1,951,1506,0,0
-266,-482,0,0,0,0,0,0,0,0,0,-1,958,1506,0,0
-259,-482,0,0,0,0,0,0,0,0,0,-1,965,1506,0,0
-252,-482,0,0,0,0,0,0,0,0,0,-1,972,1506,0,0
-245,-482,0,0,0,0,0,0,0,0,0,-1,979,1506,0,0
-238,-482,0,0,0,0,0,0,0,0,0,-1,986,1506,0,0
-231,-482,0,0,0,0,0,0,0,0,0,-1,993,1506,0,0
-224,-482,0,0,0,0,0,0,0,0,0,-1,1000,1506,0,0
-217,-482,0,0,0,0,0,0,0,0,0,-1,1007,1506,0,0
-210,-482,0,0,0,0,0,0,0,0,0,-1,1014,1506,0,0
-203,-482,0,0,0,0,0,0,0,0,0,-1,1021,1506,0,0
-196,-482,0,0,0,0,0,0,0,0,0,-1,1028,1506,0,0
-189,-482,0,0,0,0,0,0,0,0,0,-1,1035,1506,0,0
-182,-482,0,0,0,0,0,0,0,0,0,-1,1042,1506,0,0
-175,-482,0,0,0,0,0,0,0,0,0,-1,1049,1506,0,0
-168,-482,0,0,0,0,0,0,0,0,0,-1,1056,1506,0,0
-161,-482,0,0,0,0,0,0,0,0,0,-1,1063,1506,0,0
-154,-482,0,0,0,0,0,0,0,0,0,-1,1070,1506,0,0
-147,-482,0,0,0,0,0,0,0,0,0,-1,1077,1506,0,0
-140,-482,0,0,0,0,0,0,0,0,0,-1,1084,1506,0,0
-133,-482,0,0,0,0,0,0,0,0,0,-1,1091,1506,0,0
-126,-482,0,0,0,0,0,0,0,0,0,-1,1098,1506,0,0
-119,-482,0,0,0,0,0,0,0,0,0,-1,1105,1506,0,0
-112,-482,0,0,0,0,0,0,0,0,0,-1,1112,1506,0,0
-105,-482,0,0,0,0,0,0,0,0,0,-1,1119,1506,0,0
-98,-482,0,0,0,0,0,0,0,0,0,-1,1126,1506,0,0
-91,-482,0,0,0,0,0,0,0,0,0,-1,1133,1506,0,0
-84,-482,0,0,0,0,0,0,0,0,0,-1,1140,1506,0,0
-77,-482,0,0,0,0,0,0,0,0,0,-1,1147,1506,0,0
-70,-482,0,0,0,0,0,0,0,0,0,-1,1154,1506,0,0
-63,-482,0,0,0,0,0,0,0,0,0,-1,1161,1506,0,0
-56,-482,0,0,0,0,0,0,0,0,0,-1,1168,1506,0,0
-49,-482,0,0,0,0,0,0,0,0,0,-1,1175,1506,0,0
-42,-482,0,0,0,0,0,0,0,0,0,-1,1182,1506,0,0
-35,-482,0,0,0,0,0,0,0,0,0,-1,1189,1506,0,0
-28,-482,0,0,0,0,0,0,0,0,0,-1,1196,1506,0,0
-21,-482,0,0,0,0,0,0,0,0,0,-1,1203,1506,0,0
-14,-482,0,0,0,0,0,0,0,0,0,-1,1210,1506,0,0
-7,-482,0,0,0,0,0,0,0,0,0,-1,1217,1506,0,0
0,-482,0,0,0,0,0,0,0,0,0,-1,1224,1506,0,0
7,-482,0,0,0,0,0,0,0,0,0,-1,1231,1506,0,0
14,-482,0,0,0,0,0,0,0,0,0,-1,1238,1506,0,0
21,-482,0,0,0,0,0,0,0,0,0,-1,1245,1506,0,0
28,-482,0,0,0,0,0,0,0,0,0,-1,1252,1506,0,0
35,-482,0,0,0,0,0,0,0,0,0,-1,1259,1506,0,0
42,-482,0,0,0,0,0,0,0,0,0,-1,1266,1506,0,0
49,-482,0,0,0,0,0,0,0,0,0,-1,1273,1506,0,0
56,-482,0,0,0,0,0,0,0,0,0,-1,1280,1506,0,0
63,-482,0,0,0,0,0,0,0,0,0,-1,1287,1506,0,0
70,-482,0,0,0,0,0,0,0,0,0,-1,1294,1506,0,0
77,-482,0,0,0,0,0,0,0,0,0,-1,1301,1506,0,0
84,-482,0,0,0,0,0,0,0,0,0,-1,1308,1506,0,0
91,-482,0,0,0,0,0,0,0,0,0,-1,1315,1506,0,0
98,-482,0,0,0,0,0,0,0,0,0,-1,1322,1506,0,0
105,-482,0,0,0,0,0,0,0,0,0,-1,1329,1506,0,0
112,-482,0,0,0,0,0,0,0,0,0,-1,1336,1506,0,0
119,-482,0,0,0,0,0,0,0,0,0,-1,1343,1506,0,0
126,-482,0,0,0,0,0,0,0,0,0,-1,1350,1506,0,0
133,-482,0,0,0,0,0,0,0,0,0,-1,1357,1506,0,0
140,-482,0,0,0,0,0,0,0,0,0,-1,1364,1506,0,0
147,-482,0,0,0,0,0,0,0,0,0,-1,1371,1506,0,0
154,-482,0,0,0,0,0,0,0,0,0,-1,1378,1506,0,0
161,-482,0,0,0,0,0,0,0,0,0,-1,1385,1506,0,0
168,-482,0,0,0,0,0,0,0,0,0,-1,1392,1506,0,0
175,-482,0,0,0,0,0,0,0,0,0,-1,1399,1506,0,0
182,-482,0,0,0,0,0,0,0,0,0,-1,1406,1506,0,0
189,-482,0,0,0,0,0,0,0,0,0,-1,1413,1506,0,0
196,-482,0,0,0,0,0,0,0,0,0,-1,1420,1506,0,0
203,-482,0,0,0,0,0,0,0,0,0,-1,1427,1506,0,0
210,-482,0,0,0,0,0,0,0,0,0,-1,1434,1506,0,0
217,-482,0,0,0,0,0,0,0,0,0,-1,1441,1506,0,0
224,-482,0,0,0,0,0,0,0,0,0,-1,1448,1506,0,0
231,-482,0,0,0,0,0,0,0,0,0,-1,1455,1506,0,0
238,-482,0,0,0,0,0,0,0,0,0,-1,1462,1506,0,0
245,-482,0,0,0,0,0,0,0,0,0,-1,1469,1506,0,0
252,-482,0,0,0,0,0,0,0,0,0,-1,1476,1506,0,0
259,-482,0,0,0,0,0,0,0,0,0,-1,1483,1506,0,0
266,-482,0,0,0,0,0,0,0,0,0,-1,1490,1506,0,0
273,-482,0,0,0,0,0,0,0,0,0,-1,1497,1506,0,0
280,-482,0,0,0,0,0,0,0,0,0,-1,1504,1506,0,0
287,-482,0,0,0,0,0,0,0,0,0,-1,1511,1506,0,0
294,-482,0,0,0,0,0,0,0,0,0,-1,1518,1506,0,0
301,-482,0,0,0,0,0,0,0,0,0,-1,1525,1506,0,0
308,-482,0,0,0,0,0,0,0,0,0,-1,1532,1506,0,0
315,-482,0,0,0,0,0,0,0,0,0,-1,1539,1506,0,0
322,-482,0,0,0,0,0,0,0,0,0,-1,1546,1506,0,0
329,-482,0,0,0,0,0,0,0,0,0,-1,1553,1506,0,0
336,-482,0,0,0,0,0,0,0,0,0,-1,1560,1506,0,0
343,-482,0,0,0,0,0,0,0,0,0,-1,1567,1506,0,0
350,-482,0,0,0,0,0,0,0,0,0,-1,1574,1506,0,0
357,-482,0,0,0,0,0,0,0,0,0,-1,1581,1506,0,0
364,-482,0,0,0,0,0,0,0,0,0,-1,1588,1506,0,0
371,-482,0,0,0,0,0,0,0,0,0,-1,1595,1506,0,0
378,-482,0,0,0,0,0,0,0,0,0,-1,1602,1506,0,0
385,-482,0,0,0,0,0,0,0,0,0,-1,1609,1506,0,0
392,-482,0,0,0,0,0,0,0,0,0,-1,1616,1506,0,0
399,-482,0,0,0,0,0,0,0,0,0,-1,1623,1506,0,0
406,-482,0,0,0,0,0,0,0,0,0,-1,1630,1506,0,0
413,-482,0,0,0,0,0,0,0,0,0,-1,1637,1506,0,0
420,-482,0,0,0,0,0,0,0,0,0,-1,1644,1506,0,0
427,-482,0,0,0,0,0,0,0,0,0,-1,1651,1506,0,0
434,-482,0,0,0,0,0,0,0,0,0,-1,1658,1506,0,0
441,-482,0,0,0,0,0,0,0,0,0,-1,1665,1506,0,0
448,-482,4.24146,1.55383,0,0,0,0,0,0,0,-1,1672,1506,4.24149,-1.55381
455,-482,6.06677,3.65588,0,0,0,0,0,0,0,-1,1679,1506,6.06678,-3.65593
462,-482,5.24829,2.84155,0.0132857,-0.0193966,0.0217326,0.0241353,-0.0302463,0.463035,0.0314632,0.0489813,1686,1506,5.24829,-2.84161
469,-482,6.8811,-0.430786,0.0119381,-0.0234595,0.0330177,0.0317015,-0.0432228,0.539367,0.0434277,0.0477135,1693,1506,6.88111,0.430836
476,-482,6.54602,-0.167603,0.00940575,-0.0226781,0.0409549,0.0373485,-0.0506208,0.598734,0.0509814,0.0449941,1700,1506,6.54604,0.167605
483,-482,6.22876,0.0860596,0.00731499,-0.0177686,0.0464159,0.0428536,-0.0533073,0.653446,0.0556278,0.0432814,1707,1506,6.22871,-0.0860037
490,-482,5.8136,0.664429,0,0,0,0,0,0,0,-1,1714,1506,5.81358,-0.66442
497,-482,5.55457,1.42908,0.00231374,-0.00886199,0.0446805,0.0417545,-0.0483027,0.72319,0.0520403,0.0483546,1721,1506,5.55454,-1.42904
504,-482,5.30322,2.30762,0.000252882,-0.00676932,0.0401947,0.0370896,-0.043606,0.741833,0.0466402,0.0457248,1728,1506,5.30317,-2.30761
511,-482,5.06982,3.04199,-0.000972251,-0.00555038,0.0352716,0.0320845,-0.0386071,0.752994,0.0408717,0.045787,1735,1506,5.06984,-3.04193
518,-482,4.79907,3.5863,-0.00404355,-0.00415144,0.0310535,0.0269561,-0.0351511,0.78453,0.0359615,0.0460134,1742,1506,4.79909,-3.58625
525,-482,4.60156,2.84229,-0.0046188,-0.000527242,0.0238293,0.0213439,-0.02649,0.828219,0.0276701,0.0452457,1749,1506,4.60154,-2.8423
532,-482,4.38818,2.87,-0.00392652,1.13792e-05,0.017241,0.0153955,-0.0193106,0.842253,0.02008,0.0394076,1756,1506,4.38821,-2.87005
539,-482,4.22498,2.90649,-0.00368532,-0.000154176,0.0114558,0.00967131,-0.0135108,0.861857,0.0134453,0.0291996,1763,1506,4.22499,-2.90647
546,-482,4.22791,2.87878,-0.00292529,-0.000874194,0.00679851,0.00497568,-0.00877517,0.860258,0.00803944,0.015888,1770,1506,4.22795,-2.87883
553,-482,4.25281,2.81653,-0.00137278,-0.00192074,0.00357444,0.00193816,-0.00523169,0.747148,0.00428262,0.0137804,1777,1506,4.25278,-2.81654
560,-482,4.27332,2.74219,-0.000149965,-0.00253029,0.00147253,0.000553234,-0.00323349,0.445523,0.00236177,0.0124511,1784,1506,4.27335,-2.7422
567,-482,4.30908,2.6781,0.000458755,-0.002604,0.000546653,0.000553399,-0.00269864,0.171435,0.00200913,0.0141665,1791,1506,4.30911,-2.67816
574,-482,4.3042,2.61926,0.000969986,-0.0025185,0.000495194,0.00103892,-0.00258744,0.138311,0.00215637,0.0134945,1798,1506,4.30416,-2.61926
581,-482,4.28931,2.55322,0.00146787,-0.0015234,0.000693848,0.00162097,-0.00167651,0.217183,0.00190389,0.0100831,1805,1506,4.28929,-2.55317
588,-482,4.28809,2.50317,0.00120274,-0.000804202,0.000675118,0.00140871,-0.00101017,0.296112,0.00140284,0.0105589,1812,1506,4.28807,-2.50321
595,-482,4.31006,2.4231,0.000607189,-0.00052931,0.000701024,0.000941349,-0.00086347,0.444813,0.00104234,0.0165456,1819,1506,4.31007,-2.42303
602,-482,4.34192,2.33093,-0.000176584,-0.000900667,0.000382803,-1.17362e-05,-0.00106551,0.406633,0.000706463,0.0208011,1826,1506,4.3419,-2.33093
609,-482,4.32776,2.29968,-7.13116e-05,-0.0015538,-4.54829e-05,-6.99175e-05,-0.0015552,-0.0306416,0.0010143,0.0158548,1833,1506,4.32774,-2.29964
616,-482,4.31421,2.24744,0.00172844,-0.00143433,-0.000960126,0.00199709,-0.00170298,-0.272827,0.00213849,0.0110561,1840,1506,4.31423,-2.2474
623,-482,4.30286,2.17297,0.00271841,-0.00216593,-0.00187927,0.00335778,-0.00280529,-0.327935,0.00356301,0.0107752,1847,1506,4.3028,-2.17294
630,-482,4.29285,2.09912,0.0046353,-0.00294331,-0.00365063,0.00610773,-0.00441574,-0.38338,0.00610185,0.0208364,1854,1506,4.29289,-2.09907
637,-482,4.27979,2.06702,0.00772101,-0.00367291,-0.00614297,0.0104021,-0.00635398,-0.411525,0.00976777,0.0413417,1861,1506,4.27984,-2.06705
644,-482,4.19836,2.19458,0,0,0,0,0,0,0,-1,1868,1506,4.19835,-2.19458
651,-482,4.25061,2.24463,0,0,0,0,0,0,0,-1,1875,1506,4.25064,-2.2446
658,-482,4.23975,1.56836,0,0,0,0,0,0,0,-1,1882,1506,4.2398,-1.56833
665,-482,4.6615,1.05493,0.0354328,-0.00315441,-0.0245251,0.0473438,-0.0150654,-0.452113,0.0376041,0.0416858,1889,1506,4.66153,-1.05493
672,-482,4.82703,0.700439,0,0,0,0,0,0,0,-1,1896,1506,4.82708,-0.700449
679,-482,0,0,0,0,0,0,0,0,0,-1,1903,1506,0,0
686,-482,0,0,0,0,0,0,0,0,0,-1,1910,1506,0,0
693,-482,0,0,0,0,0,0,0,0,0,-1,1917,1506,0,0
700,-482,0,0,0,0,0,0,0,0,0,-1,1924,1506,0,0
707,-482,0,0,0,0,0,0,0,0,0,-1,1931,1506,0,0
714,-482,0,0,0,0,0,0,0,0,0,-1,1938,1506,0,0
721,-482,0,0,0,0,0,0,0,0,0,-1,1945,1506,0,0
728,-482,0,0,0,0,0,0,0,0,0,-1,1952,1506,0,0
735,-482,0,0,0,0,0,0,0,0,0,-1,1959,1506,0,0
742,-482,0,0,0,0,0,0,0,0,0,-1,1966,1506,0,0
749,-482,0,0,0,0,0,0,0,0,0,-1,1973,1506,0,0
756,-482,0,0,0,0,0,0,0,0,0,-1,1980,1506,0,0
763,-482,0,0,0,0,0,0,0,0,0,-1,1987,1506,0,0
770,-482,0,0,0,0,0,0,0,0,0,-1,1994,1506,0,0
777,-482,0,0,0,0,0,0,0,0,0,-1,2001,1506,0,0
784,-482,0,0,0,0,0,0,0,0,0,-1,2008,1506,0,0
791,-482,0,0,0,0,0,0,0,0,0,-1,2015,1506,0,0
798,-482,0,0,0,0,0,0,0,0,0,-1,2022,1506,0,0
805,-482,0,0,0,0,0,0,0,0,0,-1,2029,1506,0,0
812,-482,0,0,0,0,0,0,0,0,0,-1,2036,1506,0,0
-700,-489,0,0,0,0,0,0,0,0,0,-1,524,1513,0,0
-693,-489,0,0,0,0,0,0,0,0,0,-1,531,1513,0,0
-686,-489,0,0,0,0,0,0,0,0,0,-1,538,1513,0,0
-679,-489,0,0,0,0,0,0,0,0,0,-1,545,1513,0,0
-672,-489,0,0,0,0,0,0,0,0,0,-1,552,1513,0,0
-665,-489,0,0,0,0,0,0,0,0,0,-1,559,1513,0,0
-658,-489,0,0,0,0,0,0,0,0,0,-1,566,1513,0,0
-651,-489,0,0,0,0,0,0,0,0,0,-1,573,1513,0,0
-644,-489,0,0,0,0,0,0,0,0,0,-1,580,1513,0,0
-637,-489,0,0,0,0,0,0,0,0,0,-1,587,1513,0,0
-630,-489,0,0,0,0,0,0,0,0,0,-1,594,1513,0,0
-623,-489,0,0,0,0,0,0,0,0,0,-1,601,1513,0,0
-616,-489,0,0,0,0,0,0,0,0,0,-1,608,1513,0,0
-609,-489,0,0,0,0,0,0,0,0,0,-1,615,1513,0,0
-602,-489,0,0,0,0,0,0,0,0,0,-1,622,1513,0,0
-595,-489,0,0,0,0,0,0,0,0,0,-1,629,1513,0,0
-588,-489,0,0,0,0,0,0,0,0,0,-1,636,1513,0,0
-581,-489,0,0,0,0,0,0,0,0,0,-1,643,1513,0,0
-574,-489,0,0,0,0,0,0,0,0,0,-1,650,1513,0,0
-567,-489,0,0,0,0,0,0,0,0,0,-1,657,1513,0,0
-560,-489,0,0,0,0,0,0,0,0,0,-1,664,1513,0,0
-553,-489,-1.2912,0.823242,0.0835081,0.00972914,0.00682408,0.084134,0.00910326,0.0914597,0.0533146,0.0453143,671,1513,-1.29118,-0.823188
-546,-489,-0.625427,0.550049,0.0695148,0.0147091,-0.000298499,0.0695165,0.0147075,-0.00544629,0.0423028,0.0475172,678,1513,-0.625443,-0.550001
-539,-489,0.160095,0.327271,0.0566073,0.0174185,-0.00567855,0.0574135,0.0166123,-0.141039,0.0341143,0.0460635,685,1513,0.160121,-0.327224
-532,-489,1.23175,0.0289307,0,0,0,0,0,0,0,-1,692,1513,1.23175,-0.0289886
-525,-489,0.58783,1.99084,0.0348689,0.0179038,-0.011887,0.0409896,0.0117831,-0.475502,0.0243676,0.0440241,699,1513,0.58784,-1.99084
-518,-489,0.246094,1.87402,0.026102,0.0169748,-0.0132138,0.035518,0.00755871,-0.619128,0.0216045,0.0459509,706,1513,0.246096,-1.87408
-511,-489,0.474609,1.85901,0.0188803,0.0154839,-0.0132032,0.0304941,0.00387012,-0.721439,0.01917,0.0482391,713,1513,0.474581,-1.85901
-504,-489,0.604492,1.79199,0.0131125,0.0125796,-0.0123332,0.0251822,0.000509948,-0.774597,0.0166208,0.0434312,720,1513,0.6045,-1.79195
-497,-489,0.592468,1.82874,0.00803994,0.0106832,-0.0111777,0.0206172,-0.001894,-0.844245,0.0144177,0.0357868,727,1513,0.592465,-1.8287
-490,-489,0.593628,1.90393,0.00437707,0.00841722,-0.00975315,0.0163573,-0.00356301,-0.887514,0.0122663,0.0193904,734,1513,0.593619,-1.90398
-483,-489,0.56543,1.97754,0.00205694,0.00585859,-0.00784153,0.0120264,-0.00411085,-0.904307,0.00968325,0.0098836,741,1513,0.565455,-1.97749
-476,-489,0.563721,2.04944,0.0014296,0.00361119,-0.00580499,0.00842698,-0.00338619,-0.878269,0.00702426,0.00937603,748,1513,0.563739,-2.04949
-469,-489,0.563293,2.11914,0.00132268,0.00199013,-0.00376474,0.00543591,-0.0021231,-0.829605,0.00450174,0.0106208,755,1513,0.563317,-2.11908
-462,-489,0.589783,2.18689,0.000872448,0.000776396,-0.00250784,0.00333272,-0.00168388,-0.775824,0.00294802,0.0152752,762,1513,0.589786,-2.18695
-455,-489,0.5979,2.25818,0.000931056,0.000255895,-0.00186744,0.00249118,-0.00130423,-0.695978,0.00222672,0.0175285,769,1513,0.597879,-2.25817
-448,-489,0.588989,2.32678,0.0007012,0.000266504,-0.00133172,0.00183319,-0.00086549,-0.704507,0.00159113,0.0153045,776,1513,0.58898,-2.3268
-441,-489,0.585876,2.3916,0.000716374,-0.00018319,-0.00119675,0.00154507,-0.00101189,-0.605646,0.00148692,0.0136256,783,1513,0.585868,-2.39165
-434,-489,0.577148,2.47107,0.00132157,-0.000396121,-0.00130819,0.00202764,-0.0011022,-0.494929,0.00183316,0.0160067,790,1513,0.577174,-2.47108
-427,-489,0.540649,2.57092,0.00232718,-0.000708126,-0.00166602,0.00306317,-0.00144411,-0.415983,0.00265765,0.01856,797,1513,0.540645,-2.57088
-420,-489,0.525208,2.63586,0.00351028,-0.00102472,-0.00159813,0.00401687,-0.00153131,-0.306969,0.00330865,0.0174584,804,1513,0.525235,-2.63588
-413,-489,0.610229,2.66614,0.00484753,-0.00151438,-0.00172105,0.00528327,-0.00195012,-0.247972,0.00432147,0.0170993,811,1513,0.610255,-2.66619
-406,-489,0.552429,2.69519,0.00895818,0.000452274,-0.00321055,0.0100339,-0.000623491,-0.323315,0.00690651,0.0216214,818,1513,0.552406,-2.69524
-399,-489,0.49231,2.79382,0.0147396,0.00279911,-0.00565962,0.0169958,0.000542865,-0.379348,0.011154,0.0322752,825,1513,0.492325,-2.79384
-392,-489,0.593384,2.8877,0.0208009,0.00544098,-0.00788991,0.0241315,0.00211038,-0.39944,0.0154324,0.0383004,832,1513,0.593408,-2.88773
-385,-489,0.695007,2.96631,0.0272499,0.00950708,-0.0102958,0.0319691,0.00478784,-0.429789,0.0199096,0.0422828,839,1513,0.694977,-2.96629
-378,-489,0.974854,3.01428,0.0340797,0.0140926,-0.0129701,0.0404597,0.00771258,-0.457149,0.0248052,0.0407879,846,1513,0.974884,-3.01428
-371,-489,1.25537,2.98523,0,0,0,0,0,0,0,-1,853,1513,1.25536,-2.98524
-364,-489,0.551758,2.80322,0,0,0,0,0,0,0,-1,860,1513,0.551762,-2.80325
-357,-489,0.725464,3.39636,0.05583,0.03004,-0.0186693,0.0656247,0.0202453,-0.483168,0.0388037,0.0442551,867,1513,0.725488,-3.39642
-350,-489,1.87323,3.18982,0.061826,0.0349407,-0.0189621,0.071627,0.0251397,-0.477053,0.0419616,0.0447662,874,1513,1.87323,-3.18987
-343,-489,3.19049,3.08496,0,0,0,0,0,0,0,-1,881,1513,3.19047,-3.08494
-336,-489,-1.29431,4.39453,0,0,0,0,0,0,0,-1,888,1513,-1.29431,-4.39456
-329,-489,-1.35522,4.29358,0,0,0,0,0,0,0,-1,895,1513,-1.35523,-4.29357
-322,-489,0,0,0,0,0,0,0,0,0,-1,902,1513,0,0
-315,-489,0,0,0,0,0,0,0,0,0,-1,909,1513,0,0
-308,-489,0,0,0,0,0,0,0,0,0,-1,916,1513,0,0
-301,-489,0,0,0,0,0,0,0,0,0,-1,923,1513,0,0
-294,-489,0,0,0,0,0,0,0,0,0,-1,930,1513,0,0
-287,-489,0,0,0,0,0,0,0,0,0,-1,937,1513,0,0
-280,-489,0,0,0,0,0,0,0,0,0,-1,944,1513,0,0
-273,-489,0,0,0,0,0,0,0,0,0,-1,951,1513,0,0
-266,-489,0,0,0,0,0,0,0,0,0,-1,958,1513,0,0
-259,-489,0,0,0,0,0,0,0,0,0,-1,965,1513,0,0
-252,-489,0,0,0,0,0,0,0,0,0,-1,972,1513,0,0
-245,-489,0,0,0,0,0,0,0,0,0,-1,979,1513,0,0
-238,-489,0,0,0,0,0,0,0,0,0,-1,986,1513,0,0
-231,-489,0,0,0,0,0,0,0,0,0,-1,993,1513,0,0
-224,-489,0,0,0,0,0,0,0,0,0,-1,1000,1513,0,0
-217,-489,0,0,0,0,0,0,0,0,0,-1,1007,1513,0,0
-210,-489,0,0,0,0,0,0,0,0,0,-1,1014,1513,0,0
-203,-489,0,0,0,0,0,0,0,0,0,-1,1021,1513,0,0
-196,-489,0,0,0,0,0,0,0,0,0,-1,1028,1513,0,0
-189,-489,0,0,0,0,0,0,0,0,0,-1,1035,1513,0,0
-182,-489,0,0,0,0,0,0,0,0,0,-1,1042,1513,0,0
-175,-489,0,0,0,0,0,0,0,0,0,-1,1049,1513,0,0
-168,-489,0,0,0,0,0,0,0,0,0,-1,1056,1513,0,0
-161,-489,0,0,0,0,0,0,0,0,0,-1,1063,1513,0,0
-154,-489,0,0,0,0,0,0,0,0,0,-1,1070,1513,0,0
-147,-489,0,0,0,0,0,0,0,0,0,-1,1077,1513,0,0
-140,-489,0,0,0,0,0,0,0,0,0,-1,1084,1513,0,0
-133,-489,0,0,0,0,0,0,0,0,0,-1,1091,1513,0,0
-126,-489,0,0,0,0,0,0,0,0,0,-1,1098,1513,0,0
-119,-489,0,0,0,0,0,0,0,0,0,-1,1105,1513,0,0
-112,-489,0,0,0,0,0,0,0,0,0,-1,1112,1513,0,0
-105,-489,0,0,0,0,0,0,0,0,0,-1,1119,1513,0,0
-98,-489,0,0,0,0,0,0,0,0,0,-1,1126,1513,0,0
-91,-489,0,0,0,0,0,0,0,0,0,-1,1133,1513,0,0
-84,-489,0,0,0,0,0,0,0,0,0,-1,1140,1513,0,0
-77,-489,0,0,0,0,0,0,0,0,0,-1,1147,1513,0,0
-70,-489,0,0,0,0,0,0,0,0,0,-1,1154,1513,0,0
-63,-489,0,0,0,0,0,0,0,0,0,-1,1161,1513,0,0
-56,-489,0,0,0,0,0,0,0,0,0,-1,1168,1513,0,0
-49,-489,0,0,0,0,0,0,0,0,0,-1,1175,1513,0,0
-42,-489,0,0,0,0,0,0,0,0,0,-1,1182,1513,0,0
-35,-489,0,0,0,0,0,0,0,0,0,-1,1189,1513,0,0
-28,-489,0,0,0,0,0,0,0,0,0,-1,1196,1513,0,0
-21,-489,0,0,0,0,0,0,0,0,0,-1,1203,1513,0,0
-14,-489,0,0,0,0,0,0,0,0,0,-1,1210,1513,0,0
-7,-489,0,0,0,0,0,0,0,0,0,-1,1217,1513,0,0
0,-489,0,0,0,0,0,0,0,0,0,-1,1224,1513,0,0
7,-489,0,0,0,0,0,0,0,0,0,-1,1231,1513,0,0
14,-489,0,0,0,0,0,0,0,0,0,-1,1238,1513,0,0
21,-489,0,0,0,0,0,0,0,0,0,-1,1245,1513,0,0
28,-489,0,0,0,0,0,0,0,0,0,-1,1252,1513,0,0
35,-489,0,0,0,0,0,0,0,0,0,-1,1259,1513,0,0
42,-489,0,0,0,0,0,0,0,0,0,-1,1266,1513,0,0
49,-489,0,0,0,0,0,0,0,0,0,-1,1273,1513,0,0
56,-489,0,0,0,0,0,0,0,0,0,-1,1280,1513,0,0
63,-489,0,0,0,0,0,0,0,0,0,-1,1287,1513,0,0
70,-489,0,0,0,0,0,0,0,0,0,-1,1294,1513,0,0
77,-489,0,0,0,0,0,0,0,0,0,-1,1301,1513,0,0
84,-489,0,0,0,0,0,0,0,0,0,-1,1308,1513,0,0
91,-489,0,0,0,0,0,0,0,0,0,-1,1315,1513,0,0
98,-489,0,0,0,0,0,0,0,0,0,-1,1322,1513,0,0
105,-489,0,0,0,0,0,0,0,0,0,-1,1329,1513,0,0
112,-489,0,0,0,0,0,0,0,0,0,-1,1336,1513,0,0
119,-489,0,0,0,0,0,0,0,0,0,-1,1343,1513,0,0
126,-489,0,0,0,0,0,0,0,0,0,-1,1350,1513,0,0
133,-489,0,0,0,0,0,0,0,0,0,-1,1357,1513,0,0
140,-489,0,0,0,0,0,0,0,0,0,-1,1364,1513,0,0
147,-489,0,0,0,0,0,0,0,0,0,-1,1371,1513,0,0
154,-489,0,0,0,0,0,0,0,0,0,-1,1378,1513,0,0
161,-489,0,0,0,0,0,0,0,0,0,-1,1385,1513,0,0
168,-489,0,0,0,0,0,0,0,0,0,-1,1392,1513,0,0
175,-489,0,0,0,0,0,0,0,0,0,-1,1399,1513,0,0
182,-489,0,0,0,0,0,0,0,0,0,-1,1406,1513,0,0
189,-489,0,0,0,0,0,0,0,0,0,-1,1413,1513,0,0
196,-489,0,0,0,0,0,0,0,0,0,-1,1420,1513,0,0
203,-489,0,0,0,0,0,0,0,0,0,-1,1427,1513,0,0
210,-489,0,0,0,0,0,0,0,0,0,-1,1434,1513,0,0
217,-489,0,0,0,0,0,0,0,0,0,-1,1441,1513,0,0
224,-489,0,0,0,0,0,0,0,0,0,-1,1448,1513,0,0
231,-489,0,0,0,0,0,0,0,0,0,-1,1455,1513,0,0
238,-489,0,0,0,0,0,0,0,0,0,-1,1462,1513,0,0
245,-489,0,0,0,0,0,0,0,0,0,-1,1469,1513,0,0
252,-489,0,0,0,0,0,0,0,0,0,-1,1476,1513,0,0
259,-489,0,0,0,0,0,0,0,0,0,-1,1483,1513,0,0
266,-489,0,0,0,0,0,0,0,0,0,-1,1490,1513,0,0
273,-489,0,0,0,0,0,0,0,0,0,-1,1497,1513,0,0
280,-489,0,0,0,0,0,0,0,0,0,-1,1504,1513,0,0
287,-489,0,0,0,0,0,0,0,0,0,-1,1511,1513,0,0
294,-489,0,0,0,0,0,0,0,0,0,-1,1518,1513,0,0
301,-489,0,0,0,0,0,0,0,0,0,-1,1525,1513,0,0
308,-489,0,0,0,0,0,0,0,0,0,-1,1532,1513,0,0
315,-489,0,0,0,0,0,0,0,0,0,-1,1539,1513,0,0
322,-489,0,0,0,0,0,0,0,0,0,-1,1546,1513,0,0
329,-489,0,0,0,0,0,0,0,0,0,-1,1553,1513,0,0
336,-489,0,0,0,0,0,0,0,0,0,-1,1560,1513,0,0
343,-489,0,0,0,0,0,0,0,0,0,-1,1567,1513,0,0
350,-489,0,0,0,0,0,0,0,0,0,-1,1574,1513,0,0
357,-489,0,0,0,0,0,0,0,0,0,-1,1581,1513,0,0
364,-489,0,0,0,0,0,0,0,0,0,-1,1588,1513,0,0
371,-489,0,0,0,0,0,0,0,0,0,-1,1595,1513,0,0
378,-489,0,0,0,0,0,0,0,0,0,-1,1602,1513,0,0
385,-489,0,0,0,0,0,0,0,0,0,-1,1609,1513,0,0
392,-489,0,0,0,0,0,0,0,0,0,-1,1616,1513,0,0
399,-489,0,0,0,0,0,0,0,0,0,-1,1623,1513,0,0
406,-489,0,0,0,0,0,0,0,0,0,-1,1630,1513,0,0
413,-489,0,0,0,0,0,0,0,0,0,-1,1637,1513,0,0
420,-489,0,0,0,0,0,0,0,0,0,-1,1644,1513,0,0
427,-489,0,0,0,0,0,0,0,0,0,-1,1651,1513,0,0
434,-489,0,0,0,0,0,0,0,0,0,-1,1658,1513,0,0
441,-489,4.54724,-0.0987549,0,0,0,0,0,0,0,-1,1665,1513,4.54722,0.098805
448,-489,6.00122,3.5321,0,0,0,0,0,0,0,-1,1672,1513,6.0012,-3.53205
455,-489,5.80896,3.13672,-0.00822474,-0.00839603,0.00940072,0.00109072,-0.0177115,0.780843,0.0121875,0.0446629,1679,1513,5.80892,-3.13674
462,-489,5.44604,2.59302,-0.00804807,-0.0185804,0.0186881,0.00610171,-0.0327302,0.648063,0.0241127,0.0497416,1686,1513,5.44605,-2.59297
469,-489,4.88367,2.17261,-0.00586483,-0.0227574,0.0275876,0.0145405,-0.0431627,0.636848,0.0346542,0.0489866,1693,1513,4.88363,-2.17266
476,-489,5.50708,-0.268188,-0.00426447,-0.0229668,0.0340891,0.0217328,-0.048964,0.651533,0.0418139,0.0473858,1700,1513,5.50702,0.268158
483,-489,5.47253,0.081543,-0.00231993,-0.0185604,0.0386099,0.0290144,-0.0498947,0.681752,0.0460868,0.0468032,1707,1513,5.47252,-0.0815369
490,-489,5.39795,0.550049,-0.00134128,-0.0141959,0.0397678,0.0325153,-0.0480524,0.705281,0.0468032,0.0461612,1714,1513,5.39794,-0.550054
497,-489,5.2533,1.12244,-0.000960474,-0.00972919,0.0380259,0.032933,-0.0436226,0.728002,0.0443428,0.0422789,1721,1513,5.2533,-1.12244
504,-489,4.87488,1.89014,-0.00115062,-0.00745833,0.0347995,0.0306376,-0.0392466,0.740207,0.0404496,0.0452798,1728,1513,4.87483,-1.89009
511,-489,5.0542,3.01563,0,0,0,0,0,0,0,-1,1735,1513,5.05425,-3.0156
518,-489,4.64294,3.23083,-0.00325641,-0.00392542,0.0270375,0.0234487,-0.0306305,0.779213,0.0313143,0.0458995,1742,1513,4.64297,-3.23085
525,-489,4.42773,3.21167,-0.00350183,-0.000472217,0.0206519,0.0187204,-0.0226944,0.822007,0.0239475,0.0406323,1749,1513,4.42769,-3.21171
532,-489,4.24243,3.07739,-0.00287264,0.000314699,0.0147844,0.0135911,-0.016149,0.839088,0.0171916,0.0317145,1756,1513,4.24245,-3.07736
539,-489,4.18921,2.93481,-0.00267162,0.000181635,0.00978149,0.00863999,-0.01113,0.857812,0.0114443,0.0163849,1763,1513,4.18923,-2.93476
546,-489,4.20752,2.88281,-0.00208775,-0.000424737,0.00582598,0.00462877,-0.00714126,0.856282,0.00684684,0.0115017,1770,1513,4.2075,-2.88279
553,-489,4.22534,2.81958,-0.000895406,-0.00126661,0.00298718,0.00191193,-0.00407395,0.754372,0.00353029,0.0137035,1777,1513,4.22532,-2.81962
560,-489,4.24268,2.75244,0.000118067,-0.00179887,0.0010793,0.000603051,-0.00228385,0.422313,0.0017584,0.0127837,1784,1513,4.24272,-2.75238
567,-489,4.25269,2.70642,0.000617529,-0.00184154,0.00026529,0.000645824,-0.00186983,0.106254,0.00150863,0.0137119,1791,1513,4.25273,-2.70637
574,-489,4.21021,2.64893,0.00114722,-0.00177752,0.000303308,0.00117834,-0.00180864,0.102255,0.00173729,0.0143557,1798,1513,4.21024,-2.64895
581,-489,4.21289,2.58093,0.00170107,-0.000858654,0.000566843,0.00182097,-0.000978562,0.208465,0.00164052,0.0106315,1805,1513,4.21285,-2.58092
588,-489,4.22742,2.51196,0.00152787,-0.000197435,0.000639681,0.00173916,-0.00040873,0.319029,0.001317,0.0123285,1812,1513,4.22746,-2.51191
595,-489,4.24133,2.43494,0.00100924,-2.03135e-05,0.000741455,0.0013971,-0.000408172,0.481959,0.00109316,0.0183772,1819,1513,4.24131,-2.43494
602,-489,4.25891,2.36267,0.000285476,-0.000528254,0.00051967,0.000538609,-0.000781386,0.453276,0.000766384,0.0237384,1826,1513,4.25892,-2.36272
609,-489,4.245,2.30591,0.000502239,-0.00141503,0.000140344,0.000512457,-0.00142525,0.0726838,0.00115937,0.016594,1833,1513,4.24497,-2.30595
616,-489,4.22461,2.23914,0.00268139,-0.00147963,-0.000834715,0.0028426,-0.00164083,-0.190773,0.00261932,0.00968256,1840,1513,4.22457,-2.2391
623,-489,4.24231,2.19019,0.00393346,-0.00254612,-0.00183656,0.00441781,-0.00303047,-0.257854,0.00432506,0.0131773,1847,1513,4.24234,-2.19013
630,-489,4.20654,2.14124,0.00617228,-0.00370879,-0.00372779,0.00742087,-0.00495738,-0.323198,0.00719361,0.031806,1854,1513,4.20652,-2.14119
637,-489,3.84692,1.76294,0.00964599,-0.00484928,-0.00643717,0.0120919,-0.00729522,-0.363122,0.0113068,0.0465661,1861,1513,3.84688,-1.76292
644,-489,3.59314,1.43347,0,0,0,0,0,0,0,-1,1868,1513,3.59312,-1.4335
651,-489,2.43823,1.36707,0.0208486,-0.00718756,-0.0143626,0.0269002,-0.0132392,-0.398769,0.0236176,0.0444412,1875,1513,2.43828,-1.36709
658,-489,2.29211,1.41467,0.0297257,-0.00751018,-0.0200316,0.0384554,-0.0162399,-0.410979,0.032435,0.0449189,1882,1513,2.2921,-1.41464
665,-489,4.82471,0.568726,0.0413283,-0.00656019,-0.0268634,0.0533697,-0.0186016,-0.421395,0.0431386,0.0465679,1889,1513,4.82473,-0.568777
672,-489,0,0,0,0,0,0,0,0,0,-1,1896,1513,0,0
679,-489,0,0,0,0,0,0,0,0,0,-1,1903,1513,0,0
686,-489,0,0,0,0,0,0,0,0,0,-1,1910,1513,0,0
693,-489,0,0,0,0,0,0,0,0,0,-1,1917,1513,0,0
700,-489,0,0,0,0,0,0,0,0,0,-1,1924,1513,0,0
707,-489,0,0,0,0,0,0,0,0,0,-1,1931,1513,0,0
714,-489,0,0,0,0,0,0,0,0,0,-1,1938,1513,0,0
721,-489,0,0,0,0,0,0,0,0,0,-1,1945,1513,0,0
728,-489,0,0,0,0,0,0,0,0,0,-1,1952,1513,0,0
735,-489,0,0,0,0,0,0,0,0,0,-1,1959,1513,0,0
742,-489,0,0,0,0,0,0,0,0,0,-1,1966,1513,0,0
749,-489,0,0,0,0,0,0,0,0,0,-1,1973,1513,0,0
756,-489,0,0,0,0,0,0,0,0,0,-1,1980,1513,0,0
763,-489,0,0,0,0,0,0,0,0,0,-1,1987,1513,0,0
770,-489,0,0,0,0,0,0,0,0,0,-1,1994,1513,0,0
777,-489,0,0,0,0,0,0,0,0,0,-1,2001,1513,0,0
784,-489,0,0,0,0,0,0,0,0,0,-1,2008,1513,0,0
791,-489,0,0,0,0,0,0,0,0,0,-1,2015,1513,0,0
798,-489,0,0,0,0,0,0,0,0,0,-1,2022,1513,0,0
805,-489,0,0,0,0,0,0,0,0,0,-1,2029,1513,0,0
812,-489,0,0,0,0,0,0,0,0,0,-1,2036,1513,0,0
-700,-496,0,0,0,0,0,0,0,0,0,-1,524,1520,0,0
-693,-496,0,0,0,0,0,0,0,0,0,-1,531,1520,0,0
-686,-496,0,0,0,0,0,0,0,0,0,-1,538,1520,0,0
-679,-496,0,0,0,0,0,0,0,0,0,-1,545,1520,0,0
-672,-496,0,0,0,0,0,0,0,0,0,-1,552,1520,0,0
-665,-496,0,0,0,0,0,0,0,0,0,-1,559,1520,0,0
-658,-496,0,0,0,0,0,0,0,0,0,-1,566,1520,0,0
-651,-496,0,0,0,0,0,0,0,0,0,-1,573,1520,0,0
-644,-496,0,0,0,0,0,0,0,0,0,-1,580,1520,0,0
-637,-496,0,0,0,0,0,0,0,0,0,-1,587,1520,0,0
-630,-496,0,0,0,0,0,0,0,0,0,-1,594,1520,0,0
-623,-496,0,0,0,0,0,0,0,0,0,-1,601,1520,0,0
-616,-496,0,0,0,0,0,0,0,0,0,-1,608,1520,0,0
-609,-496,0,0,0,0,0,0,0,0,0,-1,615,1520,0,0
-602,-496,0,0,0,0,0,0,0,0,0,-1,622,1520,0,0
-595,-496,0,0,0,0,0,0,0,0,0,-1,629,1520,0,0
-588,-496,0,0,0,0,0,0,0,0,0,-1,636,1520,0,0
-581,-496,0,0,0,0,0,0,0,0,0,-1,643,1520,0,0
-574,-496,0,0,0,0,0,0,0,0,0,-1,650,1520,0,0
-567,-496,0,0,0,0,0,0,0,0,0,-1,657,1520,0,0
-560,-496,0,0,0,0,0,0,0,0,0,-1,664,1520,0,0
-553,-496,0,0,0,0,0,0,0,0,0,-1,671,1520,0,0
-546,-496,-1.27979,0.672363,0.0819192,0.0055815,-0.00436708,0.0821682,0.00533248,-0.0569597,0.0530907,0.0472503,678,1520,-1.27981,-0.672352
-539,-496,-0.479797,0.400391,0.0665029,0.0109569,-0.0110649,0.0686259,0.00883383,-0.189566,0.0431088,0.0445568,685,1520,-0.47978,-0.400394
-532,-496,0.167236,0.0861816,0,0,0,0,0,0,0,-1,692,1520,0.167226,-0.0862019
-525,-496,1.73798,1.20764,0.0412543,0.0149476,-0.017844,0.0502689,0.00593298,-0.467793,0.0317205,0.047096,699,1520,1.73795,-1.20769
-518,-496,1.31732,1.32983,0.0312594,0.0149911,-0.0188967,0.0436983,0.00255224,-0.582158,0.0283198,0.0465337,706,1520,1.31735,-1.3298
-511,-496,1.14233,1.85962,0.023068,0.0142445,-0.0183946,0.0375726,-0.000260038,-0.667702,0.0251355,0.0455845,713,1520,1.14233,-1.85962
-504,-496,0.933655,1.64783,0.016452,0.0120909,-0.0169284,0.0313397,-0.00279684,-0.721345,0.021885,0.0451939,720,1520,0.933648,-1.64779
-497,-496,0.719604,1.64258,0.0105807,0.0106347,-0.0150967,0.0257044,-0.00448903,-0.786292,0.018812,0.0452179,727,1520,0.7196,-1.64253
-490,-496,0.624207,1.89063,0.00606194,0.00877814,-0.0129426,0.0204337,-0.00559365,-0.837673,0.0158202,0.0346503,734,1520,0.624182,-1.89068
-483,-496,0.641724,1.9906,0.00307534,0.0064982,-0.0102681,0.0151965,-0.00562296,-0.867977,0.0124365,0.0163565,741,1520,0.641717,-1.99055
-476,-496,0.632263,2.04456,0.00193057,0.00445076,-0.00748216,0.0107782,-0.00439686,-0.868822,0.00901584,0.00907006,748,1520,0.632249,-2.04458
-469,-496,0.637695,2.13623,0.00143265,0.00287178,-0.00480737,0.00701314,-0.00270871,-0.859687,0.0057934,0.00993473,755,1520,0.63767,-2.13626
-462,-496,0.656921,2.19397,0.000628861,0.00164154,-0.00317147,0.00434684,-0.00207643,-0.864558,0.00378491,0.0154798,762,1520,0.656926,-2.19393
-455,-496,0.662231,2.25427,0.00053123,0.00112581,-0.00220457,0.00305305,-0.00139601,-0.85242,0.00262738,0.0195474,769,1520,0.662224,-2.25427
-448,-496,0.649048,2.30005,3.72502e-05,0.000987538,-0.00130811,0.00190413,-0.000879337,-0.959604,0.00164294,0.0178758,776,1520,0.649024,-2.30008
-441,-496,0.641479,2.36389,2.09163e-05,0.000477908,-0.00100269,0.00127781,-0.000778987,-0.897426,0.00119908,0.0139915,783,1520,0.641468,-2.36383
-434,-496,0.644653,2.46045,0.000586317,0.000217153,-0.00104837,0.00146623,-0.000662761,-0.698258,0.00125801,0.0126582,790,1520,0.644655,-2.46043
-427,-496,0.619995,2.54077,0.00150012,-0.000154752,-0.00129855,0.00221245,-0.00086708,-0.501735,0.00183365,0.0167118,797,1520,0.619981,-2.54075
-420,-496,0.633118,2.60669,0.00257372,-0.000566036,-0.00122931,0.00299777,-0.000990082,-0.332164,0.00239768,0.0180342,804,1520,0.633143,-2.60672
-413,-496,0.652588,2.66638,0.00373194,-0.00117501,-0.00132582,0.00406725,-0.00151032,-0.247715,0.0033311,0.0151028,811,1520,0.652583,-2.66634
-406,-496,0.675476,2.71863,0.00712759,0.00023921,-0.00251461,0.00794787,-0.000581072,-0.315322,0.00550251,0.0153052,818,1520,0.675477,-2.71861
-399,-496,0.722534,2.797,0.011833,0.0020354,-0.00453317,0.0136086,0.000259781,-0.373327,0.00898706,0.0213243,825,1520,0.722541,-2.79695
-392,-496,0.677307,2.8468,0.0167169,0.00412595,-0.00635374,0.0193659,0.00147698,-0.395003,0.0124475,0.0293628,832,1520,0.677302,-2.84677
-385,-496,0.718018,2.88513,0.0218342,0.00759168,-0.00821035,0.0255813,0.00384453,-0.428157,0.0159281,0.0397582,839,1520,0.718017,-2.88508
-378,-496,1.04602,2.83765,0.0272065,0.0115252,-0.0101887,0.0322222,0.00650946,-0.457453,0.0196739,0.0430464,846,1520,1.04603,-2.8376
-371,-496,1.4668,2.72754,0.03313,0.0159365,-0.0120585,0.0393425,0.00972409,-0.475727,0.0236626,0.0455342,853,1520,1.46679,-2.72748
-364,-496,1.06665,2.70325,0,0,0,0,0,0,0,-1,860,1520,1.06667,-2.7032
-357,-496,1.0304,2.69006,0.0448068,0.0255206,-0.0134675,0.0517276,0.0185999,-0.474697,0.030255,0.0406851,867,1520,1.03037,-2.69004
-350,-496,1.78168,2.66675,0.0495887,0.0298315,-0.0128344,0.055906,0.0235142,-0.457402,0.0324127,0.0404521,874,1520,1.78167,-2.66669
-343,-496,2.69885,2.76819,0,0,0,0,0,0,0,-1,881,1520,2.69884,-2.76813
-336,-496,-1.02252,4.18469,0.0559646,0.0396324,-0.009535,0.0603525,0.0352446,-0.431289,0.035008,0.0490126,888,1520,-1.02252,-4.18465
-329,-496,-1.13098,4.38574,0.0568711,0.0432621,-0.00573048,0.0589626,0.0411706,-0.349963,0.0349227,0.0448408,895,1520,-1.13095,-4.38575
-322,-496,-0.604675,4.70496,0,0,0,0,0,0,0,-1,902,1520,-0.604688,-4.70501
-315,-496,-0.203796,5.01721,0,0,0,0,0,0,0,-1,909,1520,-0.203801,-5.0172
-308,-496,0,0,0,0,0,0,0,0,0,-1,916,1520,0,0
-301,-496,0,0,0,0,0,0,0,0,0,-1,923,1520,0,0
-294,-496,0,0,0,0,0,0,0,0,0,-1,930,1520,0,0
-287,-496,0,0,0,0,0,0,0,0,0,-1,937,1520,0,0
-280,-496,0,0,0,0,0,0,0,0,0,-1,944,1520,0,0
-273,-496,0,0,0,0,0,0,0,0,0,-1,951,1520,0,0
-266,-496,0,0,0,0,0,0,0,0,0,-1,958,1520,0,0
-259,-496,0,0,0,0,0,0,0,0,0,-1,965,1520,0,0
-252,-496,0,0,0,0,0,0,0,0,0,-1,972,1520,0,0
-245,-496,0,0,0,0,0,0,0,0,0,-1,979,1520,0,0
-238,-496,0,0,0,0,0,0,0,0,0,-1,986,1520,0,0
-231,-496,0,0,0,0,0,0,0,0,0,-1,993,1520,0,0
-224,-496,0,0,0,0,0,0,0,0,0,-1,1000,1520,0,0
-217,-496,0,0,0,0,0,0,0,0,0,-1,1007,1520,0,0
-210,-496,0,0,0,0,0,0,0,0,0,-1,1014,1520,0,0
-203,-496,0,0,0,0,0,0,0,0,0,-1,1021,1520,0,0
-196,-496,0,0,0,0,0,0,0,0,0,-1,1028,1520,0,0
-189,-496,0,0,0,0,0,0,0,0,0,-1,1035,1520,0,0
-182,-496,0,0,0,0,0,0,0,0,0,-1,1042,1520,0,0
-175,-496,0,0,0,0,0,0,0,0,0,-1,1049,1520,0,0
-168,-496,0,0,0,0,0,0,0,0,0,-1,1056,1520,0,0
-161,-496,0,0,0,0,0,0,0,0,0,-1,1063,1520,0,0
-154,-496,0,0,0,0,0,0,0,0,0,-1,1070,1520,0,0
-147,-496,0,0,0,0,0,0,0,0,0,-1,1077,1520,0,0
-140,-496,0,0,0,0,0,0,0,0,0,-1,1084,1520,0,0
-133,-496,0,0,0,0,0,0,0,0,0,-1,1091,1520,0,0
-126,-496,0,0,0,0,0,0,0,0,0,-1,1098,1520,0,0
-119,-496,0,0,0,0,0,0,0,0,0,-1,1105,1520,0,0
-112,-496,0,0,0,0,0,0,0,0,0,-1,1112,1520,0,0
-105,-496,0,0,0,0,0,0,0,0,0,-1,1119,1520,0,0
-98,-496,0,0,0,0,0,0,0,0,0,-1,1126,1520,0,0
-91,-496,0,0,0,0,0,0,0,0,0,-1,1133,1520,0,0
-84,-496,0,0,0,0,0,0,0,0,0,-1,1140,1520,0,0
-77,-496,0,0,0,0,0,0,0,0,0,-1,1147,1520,0,0
-70,-496,0,0,0,0,0,0,0,0,0,-1,1154,1520,0,0
-63,-496,0,0,0,0,0,0,0,0,0,-1,1161,1520,0,0
-56,-496,0,0,0,0,0,0,0,0,0,-1,1168,1520,0,0
-49,-496,0,0,0,0,0,0,0,0,0,-1,1175,1520,0,0
-42,-496,0,0,0,0,0,0,0,0,0,-1,1182,1520,0,0
-35,-496,0,0,0,0,0,0,0,0,0,-1,1189,1520,0,0
-28,-496,0,0,0,0,0,0,0,0,0,-1,1196,1520,0,0
-21,-496,0,0,0,0,0,0,0,0,0,-1,1203,1520,0,0
-14,-496,0,0,0,0,0,0,0,0,0,-1,1210,1520,0,0
-7,-496,0,0,0,0,0,0,0,0,0,-1,1217,1520,0,0
0,-496,0,0,0,0,0,0,0,0,0,-1,1224,1520,0,0
7,-496,0,0,0,0,0,0,0,0,0,-1,1231,1520,0,0
14,-496,0,0,0,0,0,0,0,0,0,-1,1238,1520,0,0
21,-496,0,0,0,0,0,0,0,0,0,-1,1245,1520,0,0
28,-496,0,0,0,0,0,0,0,0,0,-1,1252,1520,0,0
35,-496,0,0,0,0,0,0,0,0,0,-1,1259,1520,0,0
42,-496,0,0,0,0,0,0,0,0,0,-1,1266,1520,0,0
49,-496,0,0,0,0,0,0,0,0,0,-1,1273,1520,0,0
56,-496,0,0,0,0,0,0,0,0,0,-1,1280,1520,0,0
63,-496,0,0,0,0,0,0,0,0,0,-1,1287,1520,0,0
70,-496,0,0,0,0,0,0,0,0,0,-1,1294,1520,0,0
77,-496,0,0,0,0,0,0,0,0,0,-1,1301,1520,0,0
84,-496,0,0,0,0,0,0,0,0,0,-1,1308,1520,0,0
91,-496,0,0,0,0,0,0,0,0,0,-1,1315,1520,0,0
98,-496,0,0,0,0,0,0,0,0,0,-1,1322,1520,0,0
105,-496,0,0,0,0,0,0,0,0,0,-1,1329,1520,0,0
112,-496,0,0,0,0,0,0,0,0,0,-1,1336,1520,0,0
119,-496,0,0,0,0,0,0,0,0,0,-1,1343,1520,0,0
126,-496,0,0,0,0,0,0,0,0,0,-1,1350,1520,0,0
133,-496,0,0,0,0,0,0,0,0,0,-1,1357,1520,0,0
140,-496,0,0,0,0,0,0,0,0,0,-1,1364,1520,0,0
147,-496,0,0,0,0,0,0,0,0,0,-1,1371,1520,0,0
154,-496,0,0,0,0,0,0,0,0,0,-1,1378,1520,0,0
161,-496,0,0,0,0,0,0,0,0,0,-1,1385,1520,0,0
168,-496,0,0,0,0,0,0,0,0,0,-1,1392,1520,0,0
175,-496,0,0,0,0,0,0,0,0,0,-1,1399,1520,0,0
182,-496,0,0,0,0,0,0,0,0,0,-1,1406,1520,0,0
189,-496,0,0,0,0,0,0,0,0,0,-1,1413,1520,0,0
196,-496,0,0,0,0,0,0,0,0,0,-1,1420,1520,0,0
203,-496,0,0,0,0,0,0,0,0,0,-1,1427,1520,0,0
210,-496,0,0,0,0,0,0,0,0,0,-1,1434,1520,0,0
217,-496,0,0,0,0,0,0,0,0,0,-1,1441,1520,0,0
224,-496,0,0,0,0,0,0,0,0,0,-1,1448,1520,0,0
231,-496,0,0,0,0,0,0,0,0,0,-1,1455,1520,0,0
238,-496,0,0,0,0,0,0,0,0,0,-1,1462,1520,0,0
245,-496,0,0,0,0,0,0,0,0,0,-1,1469,1520,0,0
252,-496,0,0,0,0,0,0,0,0,0,-1,1476,1520,0,0
259,-496,0,0,0,0,0,0,0,0,0,-1,1483,1520,0,0
266,-496,0,0,0,0,0,0,0,0,0,-1,1490,1520,0,0
273,-496,0,0,0,0,0,0,0,0,0,-1,1497,1520,0,0
280,-496,0,0,0,0,0,0,0,0,0,-1,1504,1520,0,0
287,-496,0,0,0,0,0,0,0,0,0,-1,1511,1520,0,0
294,-496,0,0,0,0,0,0,0,0,0,-1,1518,1520,0,0
301,-496,0,0,0,0,0,0,0,0,0,-1,1525,1520,0,0
308,-496,0,0,0,0,0,0,0,0,0,-1,1532,1520,0,0
315,-496,0,0,0,0,0,0,0,0,0,-1,1539,1520,0,0
322,-496,0,0,0,0,0,0,0,0,0,-1,1546,1520,0,0
329,-496,0,0,0,0,0,0,0,0,0,-1,1553,1520,0,0
336,-496,0,0,0,0,0,0,0,0,0,-1,1560,1520,0,0
343,-496,0,0,0,0,0,0,0,0,0,-1,1567,1520,0,0
350,-496,0,0,0,0,0,0,0,0,0,-1,1574,1520,0,0
357,-496,0,0,0,0,0,0,0,0,0,-1,1581,1520,0,0
364,-496,0,0,0,0,0,0,0,0,0,-1,1588,1520,0,0
371,-496,0,0,0,0,0,0,0,0,0,-1,1595,1520,0,0
378,-496,0,0,0,0,0,0,0,0,0,-1,1602,1520,0,0
385,-496,0,0,0,0,0,0,0,0,0,-1,1609,1520,0,0
392,-496,0,0,0,0,0,0,0,0,0,-1,1616,1520,0,0
399,-496,0,0,0,0,0,0,0,0,0,-1,1623,1520,0,0
406,-496,0,0,0,0,0,0,0,0,0,-1,1630,1520,0,0
413,-496,0,0,0,0,0,0,0,0,0,-1,1637,1520,0,0
420,-496,0,0,0,0,0,0,0,0,0,-1,1644,1520,0,0
427,-496,0,0,0,0,0,0,0,0,0,-1,1651,1520,0,0
434,-496,4.28052,-0.807739,0,0,0,0,0,0,0,-1,1658,1520,4.2805,0.807762
441,-496,6.31335,-0.67749,0,0,0,0,0,0,0,-1,1665,1520,6.31331,0.677516
448,-496,5.87073,2.97644,0,0,0,0,0,0,0,-1,1672,1520,5.87073,-2.97645
455,-496,5.64636,2.58899,0,0,0,0,0,0,0,-1,1679,1520,5.64642,-2.589
462,-496,5.552,2.26721,0,0,0,0,0,0,0,-1,1686,1520,5.55202,-2.26724
469,-496,3.54041,1.2345,0,0,0,0,0,0,0,-1,1693,1520,3.54037,-1.23448
476,-496,4.79199,-0.217163,-0.0147732,-0.0234306,0.0283686,0.00959505,-0.0477989,0.709688,0.0354992,0.0479162,1700,1520,4.79203,0.217177
483,-496,4.70911,0.150024,-0.00992411,-0.0195247,0.0318594,0.0174946,-0.0469434,0.710625,0.0384765,0.0495049,1707,1520,4.70909,-0.149967
490,-496,4.66772,0.647583,-0.00621305,-0.0153363,0.0329673,0.0225067,-0.0440561,0.71665,0.0390956,0.0472044,1714,1520,4.66772,-0.647568
497,-496,4.53577,1.41638,-0.00367368,-0.0107583,0.0318781,0.0248583,-0.0392903,0.730065,0.0373474,0.0420709,1721,1520,4.5358,-1.41641
504,-496,4.45068,1.93152,-0.00233453,-0.0083729,0.0295274,0.0243277,-0.0350351,0.73445,0.0344584,0.0403403,1728,1520,4.45074,-1.93153
511,-496,4.43835,2.52588,-0.00129286,-0.00634827,0.0263731,0.0226734,-0.0303145,0.737622,0.0306985,0.0426952,1735,1520,4.43836,-2.52583
518,-496,4.37463,2.86804,-0.00260613,-0.0039891,0.0229878,0.0197006,-0.0262958,0.770362,0.0266469,0.0450483,1742,1520,4.37467,-2.86807
525,-496,4.13123,3.06274,0,0,0,0,0,0,0,-1,1749,1520,4.13128,-3.06278
532,-496,4.12512,3.03992,-0.00226142,0.00046491,0.0124198,0.0115961,-0.0133927,0.840058,0.0144397,0.0216318,1756,1520,4.12513,-3.03997
539,-496,4.15417,2.94568,-0.00220788,0.000474373,0.00821449,0.0074565,-0.00919,0.866316,0.00962822,0.0122216,1763,1520,4.15413,-2.94566
546,-496,4.15564,2.87659,-0.00183091,5.70238e-05,0.00493469,0.00413723,-0.00591111,0.879902,0.00583146,0.00984994,1770,1520,4.15562,-2.87663
553,-496,4.18335,2.82031,-0.000952502,-0.000528665,0.00250643,0.00177478,-0.00325595,0.827573,0.00294616,0.0145074,1777,1520,4.18339,-2.82034
560,-496,4.19849,2.76721,-0.000103663,-0.000926408,0.000819255,0.000401701,-0.00143177,0.552723,0.00111285,0.0140144,1784,1520,4.19846,-2.76715
567,-496,4.18225,2.69885,0.000346464,-0.000881587,0.000128492,0.000359764,-0.000894887,0.103142,0.000746012,0.0112934,1791,1520,4.18227,-2.69879
574,-496,4.17029,2.62488,0.000971448,-0.000786782,0.000256007,0.00100797,-0.0008233,0.141687,0.00105907,0.0118178,1798,1520,4.17023,-2.62493
581,-496,4.15564,2.58105,0.00170074,4.95378e-05,0.000577496,0.00188267,-0.000132392,0.30519,0.00130149,0.0131077,1805,1520,4.15559,-2.58109
588,-496,4.16614,2.51514,0.00175153,0.000634114,0.000744409,0.00212358,0.000262071,0.463475,0.00133695,0.0146652,1812,1520,4.1661,-2.51518
595,-496,4.17188,2.44885,0.00146348,0.000695593,0.000930506,0.00208614,7.29309e-05,0.58973,0.0013671,0.0156196,1819,1520,4.17181,-2.44889
602,-496,4.18359,2.38232,0.000969581,5.05456e-05,0.000814538,0.00144528,-0.000425153,0.528579,0.00113217,0.0165093,1826,1520,4.18362,-2.38233
609,-496,4.17944,2.31848,0.00144142,-0.00108927,0.000536776,0.00155056,-0.00119841,0.200603,0.00159146,0.0141075,1833,1520,4.17945,-2.31849
616,-496,4.16125,2.23792,0.00413955,-0.00137873,-0.000409474,0.00416976,-0.00140895,-0.0736656,0.00334976,0.0115914,1840,1520,4.1613,-2.23789
623,-496,4.19458,2.2207,0.00582556,-0.00279957,-0.00140631,0.00604907,-0.00302307,-0.157611,0.00533404,0.0232394,1847,1520,4.19463,-2.2207
630,-496,4.1499,2.17676,0.00852253,-0.00442846,-0.00330197,0.00931581,-0.00522174,-0.235775,0.00850348,0.040814,1854,1520,4.14988,-2.17679
637,-496,3.83374,1.93567,0.0124776,-0.00620268,-0.0060915,0.0142884,-0.00801354,-0.288955,0.0130448,0.0474513,1861,1520,3.83376,-1.93566
644,-496,3.38025,1.72424,0.0176904,-0.00834436,-0.00969492,0.020904,-0.0115579,-0.320072,0.0189991,0.0474672,1868,1520,3.3802,-1.72421
651,-496,2.69067,1.74792,0.0249809,-0.0103643,-0.014494,0.0301643,-0.0155477,-0.34345,0.0268378,0.0448104,1875,1520,2.69063,-1.74786
658,-496,2.59668,1.77722,0.0348363,-0.0118621,-0.0205453,0.0425884,-0.0196142,-0.360803,0.0367202,0.0442015,1882,1520,2.59673,-1.77718
665,-496,2.54443,2.00049,0,0,0,0,0,0,0,-1,1889,1520,2.54441,-2.00053
672,-496,0,0,0,0,0,0,0,0,0,-1,1896,1520,0,0
679,-496,0,0,0,0,0,0,0,0,0,-1,1903,1520,0,0
686,-496,0,0,0,0,0,0,0,0,0,-1,1910,1520,0,0
693,-496,0,0,0,0,0,0,0,0,0,-1,1917,1520,0,0
700,-496,0,0,0,0,0,0,0,0,0,-1,1924,1520,0,0
707,-496,0,0,0,0,0,0,0,0,0,-1,1931,1520,0,0
714,-496,0,0,0,0,0,0,0,0,0,-1,1938,1520,0,0
721,-496,0,0,0,0,0,0,0,0,0,-1,1945,1520,0,0
728,-496,0,0,0,0,0,0,0,0,0,-1,1952,1520,0,0
735,-496,0,0,0,0,0,0,0,0,0,-1,1959,1520,0,0
742,-496,0,0,0,0,0,0,0,0,0,-1,1966,1520,0,0
749,-496,0,0,0,0,0,0,0,0,0,-1,1973,1520,0,0
756,-496,0,0,0,0,0,0,0,0,0,-1,1980,1520,0,0
763,-496,0,0,0,0,0,0,0,0,0,-1,1987,1520,0,0
770,-496,0,0,0,0,0,0,0,0,0,-1,1994,1520,0,0
777,-496,0,0,0,0,0,0,0,0,0,-1,2001,1520,0,0
784,-496,0,0,0,0,0,0,0,0,0,-1,2008,1520,0,0
791,-496,0,0,0,0,0,0,0,0,0,-1,2015,1520,0,0
798,-496,0,0,0,0,0,0,0,0,0,-1,2022,1520,0,0
805,-496,0,0,0,0,0,0,0,0,0,-1,2029,1520,0,0
812,-496,0,0,0,0,0,0,0,0,0,-1,2036,1520,0,0
-700,-503,0,0,0,0,0,0,0,0,0,-1,524,1527,0,0
-693,-503,0,0,0,0,0,0,0,0,0,-1,531,1527,0,0
-686,-503,0,0,0,0,0,0,0,0,0,-1,538,1527,0,0
-679,-503,0,0,0,0,0,0,0,0,0,-1,545,1527,0,0
-672,-503,0,0,0,0,0,0,0,0,0,-1,552,1527,0,0
-665,-503,0,0,0,0,0,0,0,0,0,-1,559,1527,0,0
-658,-503,0,0,0,0,0,0,0,0,0,-1,566,1527,0,0
-651,-503,0,0,0,0,0,0,0,0,0,-1,573,1527,0,0
-644,-503,0,0,0,0,0,0,0,0,0,-1,580,1527,0,0
-637,-503,0,0,0,0,0,0,0,0,0,-1,587,1527,0,0
-630,-503,0,0,0,0,0,0,0,0,0,-1,594,1527,0,0
-623,-503,0,0,0,0,0,0,0,0,0,-1,601,1527,0,0
-616,-503,0,0,0,0,0,0,0,0,0,-1,608,1527,0,0
-609,-503,0,0,0,0,0,0,0,0,0,-1,615,1527,0,0
-602,-503,0,0,0,0,0,0,0,0,0,-1,622,1527,0,0
-595,-503,0,0,0,0,0,0,0,0,0,-1,629,1527,0,0
-588,-503,0,0,0,0,0,0,0,0,0,-1,636,1527,0,0
-581,-503,0,0,0,0,0,0,0,0,0,-1,643,1527,0,0
-574,-503,0,0,0,0,0,0,0,0,0,-1,650,1527,0,0
-567,-503,0,0,0,0,0,0,0,0,0,-1,657,1527,0,0
-560,-503,0,0,0,0,0,0,0,0,0,-1,664,1527,0,0
-553,-503,0,0,0,0,0,0,0,0,0,-1,671,1527,0,0
-546,-503,0,0,0,0,0,0,0,0,0,-1,678,1527,0,0
-539,-503,-1.29272,0.374146,0,0,0,0,0,0,0,-1,685,1527,-1.29271,-0.374145
-532,-503,-0.656067,0.067627,0,0,0,0,0,0,0,-1,692,1527,-0.656089,-0.0675783
-525,-503,2.47534,0.287598,0.0482827,0.011185,-0.0243756,0.0603644,-0.000896703,-0.460158,0.0405451,0.0464813,699,1527,2.47533,-0.28757
-518,-503,2.51855,0.819214,0.0366771,0.0121173,-0.0249309,0.0521883,-0.00339386,-0.55656,0.0359769,0.0487587,706,1527,2.51853,-0.819176
-511,-503,1.58978,1.91101,0.0272242,0.0122046,-0.0238335,0.044703,-0.00527424,-0.632775,0.0317066,0.0458733,713,1527,1.58977,-1.91102
-504,-503,1.26593,1.50427,0.0193878,0.0109276,-0.0216465,0.0372136,-0.0068982,-0.688905,0.0273995,0.0465499,720,1527,1.26593,-1.50425
-497,-503,0.751282,1.48193,0,0,0,0,0,0,0,-1,727,1527,0.751266,-1.48189
-490,-503,0.588867,1.91003,0.00711926,0.00873569,-0.0162816,0.0242291,-0.00837415,-0.810198,0.0195513,0.0468187,734,1527,0.588844,-1.91008
-483,-503,0.722046,1.98926,0.00348679,0.00691567,-0.0129036,0.0182182,-0.00781576,-0.851444,0.0154255,0.0325066,741,1527,0.722035,-1.98922
-476,-503,0.729126,2.03772,0.00184205,0.005197,-0.0093989,0.0130669,-0.0060279,-0.873706,0.0112713,0.0136584,748,1527,0.729153,-2.03766
-469,-503,0.707153,2.13867,0.000999722,0.00370707,-0.0060972,0.00859905,-0.00389226,-0.894634,0.00738055,0.00889469,755,1527,0.707147,-2.13866
-462,-503,0.714844,2.20178,-9.38021e-05,0.00247318,-0.00405592,0.00544384,-0.00306446,-0.938637,0.00497589,0.0113615,762,1527,0.714871,-2.2018
-455,-503,0.737061,2.2478,-0.000233595,0.00193142,-0.00272145,0.00377776,-0.00207993,-0.974688,0.00342897,0.016666,769,1527,0.737078,-2.24775
-448,-503,0.724915,2.31982,-0.000881127,0.00163553,-0.00143601,0.00228652,-0.00153212,-1.14517,0.00221899,0.0164473,776,1527,0.724942,-2.31983
-441,-503,0.729675,2.38074,-0.000823018,0.00105943,-0.000930651,0.00144184,-0.00120543,-1.18092,0.00153043,0.013517,783,1527,0.729704,-2.38076
-434,-503,0.710571,2.45984,-0.000255936,0.000743399,-0.000874953,0.00125131,-0.000763845,-1.04484,0.00117474,0.0105483,790,1527,0.71058,-2.45978
-427,-503,0.695923,2.5083,0.000625441,0.000305649,-0.000986948,0.00146536,-0.000534272,-0.705091,0.00119548,0.0160938,797,1527,0.695941,-2.50828
-420,-503,0.719116,2.58191,0.00161985,-0.000172562,-0.000890816,0.00198727,-0.000539976,-0.391191,0.00153679,0.0176436,804,1527,0.719118,-2.58193
-413,-503,0.724854,2.66357,0.00259621,-0.000859032,-0.000955469,0.00284282,-0.00110564,-0.252592,0.00235204,0.015354,811,1527,0.724828,-2.66352
-406,-503,0.736145,2.7196,0.00528991,9.13586e-05,-0.00186962,0.00589246,-0.000511197,-0.311776,0.00410932,0.0107991,818,1527,0.736163,-2.71962
-399,-503,0.773132,2.81042,0.00899026,0.0014053,-0.00352305,0.0103741,2.14116e-05,-0.374292,0.00690897,0.0115604,825,1527,0.773121,-2.81038
-392,-503,0.781067,2.88293,0.0127539,0.00302784,-0.00498764,0.0148569,0.000924838,-0.399024,0.00961117,0.0181488,832,1527,0.781082,-2.88296
-385,-503,0.730652,2.854,0.0166344,0.00593326,-0.00638519,0.0196145,0.00295321,-0.436664,0.0122115,0.0312721,839,1527,0.730633,-2.85403
-378,-503,0.774353,2.82043,0.020749,0.00926659,-0.00780784,0.0246992,0.00531637,-0.46838,0.0150112,0.0412712,846,1527,0.774328,-2.82039
-371,-503,0.776184,2.79419,0.0253213,0.0130541,-0.00909434,0.0301571,0.00821827,-0.488716,0.0180019,0.0458501,853,1527,0.776157,-2.79415
-364,-503,0.962463,2.65356,0,0,0,0,0,0,0,-1,860,1527,0.962486,-2.65354
-357,-503,1.5141,2.29968,0,0,0,0,0,0,0,-1,867,1527,1.51407,-2.29972
-350,-503,1.92816,1.86755,0,0,0,0,0,0,0,-1,874,1527,1.92816,-1.86754
-343,-503,-0.721985,3.64856,0,0,0,0,0,0,0,-1,881,1527,-0.721971,-3.6485
-336,-503,-0.717651,4.17383,0.0431063,0.0357052,-0.00444042,0.045186,0.0336255,-0.438015,0.0271051,0.0459598,888,1527,-0.71768,-4.1738
-329,-503,-0.792236,4.4314,0.0436093,0.039676,-0.000614482,0.0437031,0.0395823,-0.151419,0.0278636,0.0418492,895,1527,-0.79226,-4.43143
-322,-503,-0.503967,4.66772,0.0427513,0.0434672,0.00504681,0.0481687,0.0380498,0.820804,0.0293273,0.0418233,902,1527,-0.503951,-4.66775
-315,-503,-0.192322,5.0658,0.0396615,0.0468382,0.0117724,0.055557,0.0309427,0.933332,0.0321451,0.0456007,909,1527,-0.192349,-5.06576
-308,-503,-0.104553,5.96375,0.0348599,0.0505798,0.0202595,0.0644506,0.0209891,0.970442,0.0379571,0.0465486,916,1527,-0.104543,-5.96378
-301,-503,0,0,0,0,0,0,0,0,0,-1,923,1527,0,0
-294,-503,0,0,0,0,0,0,0,0,0,-1,930,1527,0,0
-287,-503,0,0,0,0,0,0,0,0,0,-1,937,1527,0,0
-280,-503,0,0,0,0,0,0,0,0,0,-1,944,1527,0,0
-273,-503,0,0,0,0,0,0,0,0,0,-1,951,1527,0,0
-266,-503,0,0,0,0,0,0,0,0,0,-1,958,1527,0,0
-259,-503,0,0,0,0,0,0,0,0,0,-1,965,1527,0,0
-252,-503,0,0,0,0,0,0,0,0,0,-1,972,1527,0,0
-245,-503,0,0,0,0,0,0,0,0,0,-1,979,1527,0,0
-238,-503,0,0,0,0,0,0,0,0,0,-1,986,1527,0,0
-231,-503,0,0,0,0,0,0,0,0,0,-1,993,1527,0,0
-224,-503,0,0,0,0,0,0,0,0,0,-1,1000,1527,0,0
-217,-503,0,0,0,0,0,0,0,0,0,-1,1007,1527,0,0
-210,-503,0,0,0,0,0,0,0,0,0,-1,1014,1527,0,0
-203,-503,0,0,0,0,0,0,0,0,0,-1,1021,1527,0,0
-196,-503,0,0,0,0,0,0,0,0,0,-1,1028,1527,0,0
-189,-503,0,0,0,0,0,0,0,0,0,-1,1035,1527,0,0
-182,-503,0,0,0,0,0,0,0,0,0,-1,1042,1527,0,0
-175,-503,0,0,0,0,0,0,0,0,0,-1,1049,1527,0,0
-168,-503,0,0,0,0,0,0,0,0,0,-1,1056,1527,0,0
-161,-503,0,0,0,0,0,0,0,0,0,-1,1063,1527,0,0
-154,-503,0,0,0,0,0,0,0,0,0,-1,1070,1527,0,0
-147,-503,0,0,0,0,0,0,0,0,0,-1,1077,1527,0,0
-140,-503,0,0,0,0,0,0,0,0,0,-1,1084,1527,0,0
-133,-503,0,0,0,0,0,0,0,0,0,-1,1091,1527,0,0
-126,-503,0,0,0,0,0,0,0,0,0,-1,1098,1527,0,0
-119,-503,0,0,0,0,0,0,0,0,0,-1,1105,1527,0,0
-112,-503,0,0,0,0,0,0,0,0,0,-1,1112,1527,0,0
-105,-503,0,0,0,0,0,0,0,0,0,-1,1119,1527,0,0
-98,-503,0,0,0,0,0,0,0,0,0,-1,1126,1527,0,0
-91,-503,0,0,0,0,0,0,0,0,0,-1,1133,1527,0,0
-84,-503,0,0,0,0,0,0,0,0,0,-1,1140,1527,0,0
-77,-503,0,0,0,0,0,0,0,0,0,-1,1147,1527,0,0
-70,-503,0,0,0,0,0,0,0,0,0,-1,1154,1527,0,0
-63,-503,0,0,0,0,0,0,0,0,0,-1,1161,1527,0,0
-56,-503,0,0,0,0,0,0,0,0,0,-1,1168,1527,0,0
-49,-503,0,0,0,0,0,0,0,0,0,-1,1175,1527,0,0
-42,-503,0,0,0,0,0,0,0,0,0,-1,1182,1527,0,0
-35,-503,0,0,0,0,0,0,0,0,0,-1,1189,1527,0,0
-28,-503,0,0,0,0,0,0,0,0,0,-1,1196,1527,0,0
-21,-503,0,0,0,0,0,0,0,0,0,-1,1203,1527,0,0
-14,-503,0,0,0,0,0,0,0,0,0,-1,1210,1527,0,0
-7,-503,0,0,0,0,0,0,0,0,0,-1,1217,1527,0,0
0,-503,0,0,0,0,0,0,0,0,0,-1,1224,1527,0,0
7,-503,0,0,0,0,0,0,0,0,0,-1,1231,1527,0,0
14,-503,0,0,0,0,0,0,0,0,0,-1,1238,1527,0,0
21,-503,0,0,0,0,0,0,0,0,0,-1,1245,1527,0,0
28,-503,0,0,0,0,0,0,0,0,0,-1,1252,1527,0,0
35,-503,0,0,0,0,0,0,0,0,0,-1,1259,1527,0,0
42,-503,0,0,0,0,0,0,0,0,0,-1,1266,1527,0,0
49,-503,0,0,0,0,0,0,0,0,0,-1,1273,1527,0,0
56,-503,0,0,0,0,0,0,0,0,0,-1,1280,1527,0,0
63,-503,0,0,0,0,0,0,0,0,0,-1,1287,1527,0,0
70,-503,0,0,0,0,0,0,0,0,0,-1,1294,1527,0,0
77,-503,0,0,0,0,0,0,0,0,0,-1,1301,1527,0,0
84,-503,0,0,0,0,0,0,0,0,0,-1,1308,1527,0,0
91,-503,0,0,0,0,0,0,0,0,0,-1,1315,1527,0,0
98,-503,0,0,0,0,0,0,0,0,0,-1,1322,1527,0,0
105,-503,0,0,0,0,0,0,0,0,0,-1,1329,1527,0,0
112,-503,0,0,0,0,0,0,0,0,0,-1,1336,1527,0,0
119,-503,0,0,0,0,0,0,0,0,0,-1,1343,1527,0,0
126,-503,0,0,0,0,0,0,0,0,0,-1,1350,1527,0,0
133,-503,0,0,0,0,0,0,0,0,0,-1,1357,1527,0,0
140,-503,0,0,0,0,0,0,0,0,0,-1,1364,1527,0,0
147,-503,0,0,0,0,0,0,0,0,0,-1,1371,1527,0,0
154,-503,0,0,0,0,0,0,0,0,0,-1,1378,1527,0,0
161,-503,0,0,0,0,0,0,0,0,0,-1,1385,1527,0,0
168,-503,0,0,0,0,0,0,0,0,0,-1,1392,1527,0,0
175,-503,0,0,0,0,0,0,0,0,0,-1,1399,1527,0,0
182,-503,0,0,0,0,0,0,0,0,0,-1,1406,1527,0,0
189,-503,0,0,0,0,0,0,0,0,0,-1,1413,1527,0,0
196,-503,0,0,0,0,0,0,0,0,0,-1,1420,1527,0,0
203,-503,0,0,0,0,0,0,0,0,0,-1,1427,1527,0,0
210,-503,0,0,0,0,0,0,0,0,0,-1,1434,1527,0,0
217,-503,0,0,0,0,0,0,0,0,0,-1,1441,1527,0,0
224,-503,0,0,0,0,0,0,0,0,0,-1,1448,1527,0,0
231,-503,0,0,0,0,0,0,0,0,0,-1,1455,1527,0,0
238,-503,0,0,0,0,0,0,0,0,0,-1,1462,1527,0,0
245,-503,0,0,0,0,0,0,0,0,0,-1,1469,1527,0,0
252,-503,0,0,0,0,0,0,0,0,0,-1,1476,1527,0,0
259,-503,0,0,0,0,0,0,0,0,0,-1,1483,1527,0,0
266,-503,0,0,0,0,0,0,0,0,0,-1,1490,1527,0,0
273,-503,0,0,0,0,0,0,0,0,0,-1,1497,1527,0,0
280,-503,0,0,0,0,0,0,0,0,0,-1,1504,1527,0,0
287,-503,0,0,0,0,0,0,0,0,0,-1,1511,1527,0,0
294,-503,0,0,0,0,0,0,0,0,0,-1,1518,1527,0,0
301,-503,0,0,0,0,0,0,0,0,0,-1,1525,1527,0,0
308,-503,0,0,0,0,0,0,0,0,0,-1,1532,1527,0,0
315,-503,0,0,0,0,0,0,0,0,0,-1,1539,1527,0,0
322,-503,0,0,0,0,0,0,0,0,0,-1,1546,1527,0,0
329,-503,0,0,0,0,0,0,0,0,0,-1,1553,1527,0,0
336,-503,0,0,0,0,0,0,0,0,0,-1,1560,1527,0,0
343,-503,0,0,0,0,0,0,0,0,0,-1,1567,1527,0,0
350,-503,0,0,0,0,0,0,0,0,0,-1,1574,1527,0,0
357,-503,0,0,0,0,0,0,0,0,0,-1,1581,1527,0,0
364,-503,0,0,0,0,0,0,0,0,0,-1,1588,1527,0,0
371,-503,0,0,0,0,0,0,0,0,0,-1,1595,1527,0,0
378,-503,0,0,0,0,0,0,0,0,0,-1,1602,1527,0,0
385,-503,0,0,0,0,0,0,0,0,0,-1,1609,1527,0,0
392,-503,0,0,0,0,0,0,0,0,0,-1,1616,1527,0,0
399,-503,0,0,0,0,0,0,0,0,0,-1,1623,1527,0,0
406,-503,0,0,0,0,0,0,0,0,0,-1,1630,1527,0,0
413,-503,0,0,0,0,0,0,0,0,0,-1,1637,1527,0,0
420,-503,0,0,0,0,0,0,0,0,0,-1,1644,1527,0,0
427,-503,4.08386,-1.07263,0,0,0,0,0,0,0,-1,1651,1527,4.08381,1.07259
434,-503,8.08667,0.133179,0,0,0,0,0,0,0,-1,1658,1527,8.0867,-0.133127
441,-503,7.09814,-0.00012207,-0.0431361,0.0166688,-0.00483424,0.0170571,-0.0435244,-1.49066,0.0360723,0.0471111,1665,1527,7.0981,6.62556e-05
448,-503,6.13806,2.15796,-0.0421453,0.00171271,0.00234945,0.00183821,-0.0422708,1.51743,0.0288128,0.0449843,1672,1527,6.13811,-2.15796
455,-503,5.78174,1.90393,-0.0390643,-0.00905719,0.00848492,-0.00682414,-0.0412974,1.31345,0.0255623,0.04461,1679,1527,5.78175,-1.90397
462,-503,4.79163,1.63171,0,0,0,0,0,0,0,-1,1686,1527,4.79167,-1.63174
469,-503,3.91626,1.49768,-0.0285873,-0.0222056,0.0194456,-0.00569074,-0.0451021,0.866718,0.0283621,0.0481299,1693,1527,3.9163,-1.49771
476,-503,3.14099,1.42334,-0.0222881,-0.0236985,0.0234604,0.000477653,-0.0464643,0.770373,0.0311367,0.0433062,1700,1527,3.14099,-1.42328
483,-503,4.06567,0.447388,-0.0154317,-0.0202994,0.0259536,0.00820192,-0.043933,0.738646,0.0323708,0.0468181,1707,1527,4.0657,-0.447379
490,-503,2.97412,3.03638,0,0,0,0,0,0,0,-1,1714,1527,2.9741,-3.03636
497,-503,3.91309,3.09839,0,0,0,0,0,0,0,-1,1721,1527,3.91311,-3.09834
504,-503,4.15125,2.04602,-0.00293969,-0.00909718,0.0244499,0.0186245,-0.0306614,0.722768,0.0287367,0.0409834,1728,1527,4.15119,-2.04607
511,-503,4.09497,2.5166,-0.00110757,-0.00682092,0.0218477,0.0180694,-0.0259979,0.72039,0.0255792,0.0391828,1735,1527,4.09494,-2.51663
518,-503,4.09326,2.54419,0,0,0,0,0,0,0,-1,1742,1527,4.0933,-2.54413
525,-503,3.99524,2.98584,-0.00170436,-0.00102713,0.0142804,0.0129187,-0.0156502,0.797252,0.0165194,0.0281266,1749,1527,3.99528,-2.98584
532,-503,4.10193,3.02283,-0.00147599,0.000316097,0.0100463,0.0095062,-0.0106661,0.829876,0.0116529,0.0119451,1756,1527,4.10195,-3.0228
539,-503,4.10413,2.95581,-0.00162431,0.000471426,0.00660443,0.0061106,-0.00726349,0.864073,0.00773109,0.0113673,1763,1527,4.10416,-2.95583
546,-503,4.09094,2.88989,-0.00151382,0.000237058,0.00395583,0.00341315,-0.00468992,0.894295,0.00469763,0.0107917,1770,1527,4.09089,-2.88986
553,-503,4.11035,2.83191,-0.000985409,-0.000100645,0.00194617,0.00145279,-0.00253885,0.897154,0.00233283,0.0131431,1777,1527,4.11031,-2.83191
560,-503,4.10461,2.77539,-0.000362099,-0.000345439,0.000505547,0.000151846,-0.000859385,0.793636,0.000629671,0.013011,1784,1527,4.10465,-2.77544
567,-503,4.10376,2.68848,-2.5863e-05,-0.000164412,-3.91149e-05,-1.55829e-05,-0.000174692,-0.257005,0.00011163,0.0114597,1791,1527,4.1037,-2.68843
574,-503,4.11157,2.61438,0.000654472,3.70125e-05,0.000195686,0.000711265,-1.97809e-05,0.282467,0.000480906,0.0116199,1798,1527,4.11156,-2.61443
581,-503,4.08679,2.57166,0.00158404,0.000842266,0.000590849,0.00191076,0.000515542,0.505123,0.00114148,0.0129892,1805,1527,4.08678,-2.57165
588,-503,4.07532,2.53003,0.00191159,0.00142095,0.000876258,0.00257622,0.00075632,0.64891,0.00152905,0.0156974,1812,1527,4.0753,-2.53009
595,-503,4.10107,2.45056,0.00196962,0.00144657,0.0011784,0.00291516,0.000501022,0.676201,0.00179983,0.0119195,1819,1527,4.1011,-2.45062
602,-503,4.10767,2.38489,0.00185835,0.000751292,0.00120607,0.00263185,-2.22026e-05,0.57026,0.00176201,0.0128122,1826,1527,4.10766,-2.38485
609,-503,4.10657,2.2959,0.00276485,-0.000564329,0.00109068,0.00309034,-0.000889825,0.29002,0.00241218,0.0157998,1833,1527,4.10657,-2.29584
616,-503,4.06689,2.20923,0.00616041,-0.00100565,0.000271503,0.00617068,-0.00101592,0.0378151,0.00449089,0.0190033,1840,1527,4.06695,-2.20921
623,-503,4.17395,2.19836,0.00854701,-0.0026924,-0.000587261,0.00857761,-0.002723,-0.0520612,0.00681003,0.0350121,1847,1527,4.17396,-2.19842
630,-503,4.12427,2.21399,0,0,0,0,0,0,0,-1,1854,1527,4.12422,-2.21401
637,-503,4.00623,2.1449,0,0,0,0,0,0,0,-1,1861,1527,4.00618,-2.14488
644,-503,3.64539,2.12634,0.0225578,-0.0103582,-0.0085908,0.0246651,-0.0124655,-0.240539,0.0218196,0.0470351,1868,1527,3.64534,-2.12633
651,-503,2.9729,2.15686,0.0305538,-0.0135853,-0.0135085,0.0343598,-0.0173913,-0.27463,0.0304092,0.0451091,1875,1527,2.97285,-2.15685
658,-503,2.51367,2.18945,0.0411741,-0.0165698,-0.0197432,0.047279,-0.0226747,-0.299892,0.0412121,0.0454378,1882,1527,2.51363,-2.1895
665,-503,0,0,0,0,0,0,0,0,0,-1,1889,1527,0,0
672,-503,0,0,0,0,0,0,0,0,0,-1,1896,1527,0,0
679,-503,0,0,0,0,0,0,0,0,0,-1,1903,1527,0,0
686,-503,0,0,0,0,0,0,0,0,0,-1,1910,1527,0,0
693,-503,0,0,0,0,0,0,0,0,0,-1,1917,1527,0,0
700,-503,0,0,0,0,0,0,0,0,0,-1,1924,1527,0,0
707,-503,0,0,0,0,0,0,0,0,0,-1,1931,1527,0,0
714,-503,0,0,0,0,0,0,0,0,0,-1,1938,1527,0,0
721,-503,0,0,0,0,0,0,0,0,0,-1,1945,1527,0,0
728,-503,0,0,0,0,0,0,0,0,0,-1,1952,1527,0,0
735,-503,0,0,0,0,0,0,0,0,0,-1,1959,1527,0,0
742,-503,0,0,0,0,0,0,0,0,0,-1,1966,1527,0,0
749,-503,0,0,0,0,0,0,0,0,0,-1,1973,1527,0,0
756,-503,0,0,0,0,0,0,0,0,0,-1,1980,1527,0,0
763,-503,0,0,0,0,0,0,0,0,0,-1,1987,1527,0,0
770,-503,0,0,0,0,0,0,0,0,0,-1,1994,1527,0,0
777,-503,0,0,0,0,0,0,0,0,0,-1,2001,1527,0,0
784,-503,0,0,0,0,0,0,0,0,0,-1,2008,1527,0,0
791,-503,0,0,0,0,0,0,0,0,0,-1,2015,1527,0,0
798,-503,0,0,0,0,0,0,0,0,0,-1,2022,1527,0,0
805,-503,0,0,0,0,0,0,0,0,0,-1,2029,1527,0,0
812,-503,0,0,0,0,0,0,0,0,0,-1,2036,1527,0,0
-700,-510,0,0,0,0,0,0,0,0,0,-1,524,1534,0,0
-693,-510,0,0,0,0,0,0,0,0,0,-1,531,1534,0,0
-686,-510,0,0,0,0,0,0,0,0,0,-1,538,1534,0,0
-679,-510,0,0,0,0,0,0,0,0,0,-1,545,1534,0,0
-672,-510,0,0,0,0,0,0,0,0,0,-1,552,1534,0,0
-665,-510,0,0,0,0,0,0,0,0,0,-1,559,1534,0,0
-658,-510,0,0,0,0,0,0,0,0,0,-1,566,1534,0,0
-651,-510,0,0,0,0,0,0,0,0,0,-1,573,1534,0,0
-644,-510,0,0,0,0,0,0,0,0,0,-1,580,1534,0,0
-637,-510,0,0,0,0,0,0,0,0,0,-1,587,1534,0,0
-630,-510,0,0,0,0,0,0,0,0,0,-1,594,1534,0,0
-623,-510,0,0,0,0,0,0,0,0,0,-1,601,1534,0,0
-616,-510,0,0,0,0,0,0,0,0,0,-1,608,1534,0,0
-609,-510,0,0,0,0,0,0,0,0,0,-1,615,1534,0,0
-602,-510,0,0,0,0,0,0,0,0,0,-1,622,1534,0,0
-595,-510,0,0,0,0,0,0,0,0,0,-1,629,1534,0,0
-588,-510,0,0,0,0,0,0,0,0,0,-1,636,1534,0,0
-581,-510,0,0,0,0,0,0,0,0,0,-1,643,1534,0,0
-574,-510,0,0,0,0,0,0,0,0,0,-1,650,1534,0,0
-567,-510,0,0,0,0,0,0,0,0,0,-1,657,1534,0,0
-560,-510,0,0,0,0,0,0,0,0,0,-1,664,1534,0,0
-553,-510,0,0,0,0,0,0,0,0,0,-1,671,1534,0,0
-546,-510,0,0,0,0,0,0,0,0,0,-1,678,1534,0,0
-539,-510,0,0,0,0,0,0,0,0,0,-1,685,1534,0,0
-532,-510,2.94812,2.11536,0,0,0,0,0,0,0,-1,692,1534,2.94814,-2.11538
-525,-510,3.36584,1.22351,0.0549914,0.00790501,-0.03084,0.0702476,-0.00735113,-0.459388,0.0494645,0.0469824,699,1534,3.36587,-1.22355
-518,-510,3.4826,0.433105,0.0415689,0.00949452,-0.0311412,0.0605597,-0.00949633,-0.547617,0.0438824,0.0486727,706,1534,3.4826,-0.433083
-511,-510,2.0058,1.87366,0,0,0,0,0,0,0,-1,713,1534,2.00581,-1.87371
-504,-510,1.52417,1.41882,0,0,0,0,0,0,0,-1,720,1534,1.52415,-1.41879
-497,-510,0.613708,1.85986,0,0,0,0,0,0,0,-1,727,1534,0.613679,-1.85982
-490,-510,0.769287,2.03845,0.0071201,0.00900394,-0.019681,0.0277655,-0.0116415,-0.80931,0.0233778,0.0467052,734,1534,0.769262,-2.03841
-483,-510,0.834351,1.97131,0.0029064,0.00769021,-0.0155547,0.0210359,-0.0104393,-0.861687,0.0185123,0.0381584,741,1534,0.834361,-1.97133
-476,-510,0.827942,2.01953,0.000759362,0.00633013,-0.0112643,0.0151484,-0.00805887,-0.906604,0.0136055,0.0219258,748,1534,0.827948,-2.01959
-469,-510,0.789307,2.12915,-0.00038377,0.00498667,-0.00733483,0.0101123,-0.00550945,-0.960867,0.00914882,0.00968588,755,1534,0.789324,-2.12918
-462,-510,0.787903,2.21252,-0.00165207,0.00376719,-0.00489477,0.00665227,-0.00453716,-1.03819,0.00649858,0.011058,762,1534,0.787913,-2.21254
-455,-510,0.784546,2.27307,-0.00168034,0.00314395,-0.00320991,0.00474702,-0.00328341,-1.10762,0.00466197,0.0130366,769,1534,0.784539,-2.27305
-448,-510,0.800903,2.34668,-0.00234032,0.00263178,-0.0015774,0.00308998,-0.00279852,-1.2881,0.00340112,0.0124287,776,1534,0.800932,-2.34669
-441,-510,0.814575,2.41626,-0.00208069,0.00191742,-0.000906693,0.00211343,-0.0022767,-1.35789,0.00253522,0.0132143,783,1534,0.814584,-2.41626
-434,-510,0.776978,2.46826,-0.00135497,0.00142741,-0.000774032,0.00162825,-0.0015558,-1.31693,0.00183847,0.0138059,790,1534,0.776987,-2.46823
-427,-510,0.759399,2.52539,-0.000381258,0.000830991,-0.000775115,0.00120883,-0.0007591,-1.11723,0.00114603,0.0213435,797,1534,0.759371,-2.52537
-420,-510,0.775879,2.59351,0.000642811,0.000204125,-0.000718432,0.00117464,-0.000327702,-0.637238,0.000912163,0.0207337,804,1534,0.775864,-2.59346
-413,-510,0.795593,2.67578,0.00154232,-0.000647126,-0.000807955,0.00180819,-0.000912995,-0.317903,0.00159916,0.0111098,811,1534,0.795566,-2.67576
-406,-510,0.796631,2.73767,0.00369873,-0.000191959,-0.00154146,0.00423541,-0.000728641,-0.33504,0.00309521,0.0100404,818,1534,0.796603,-2.73768
-399,-510,0.787231,2.81384,0.0065698,0.000638473,-0.00294152,0.00778117,-0.000572905,-0.390655,0.00538858,0.00994435,825,1534,0.787231,-2.8139
-392,-510,0.819397,2.89978,0.00941136,0.00179343,-0.00416902,0.0112494,-4.4636e-05,-0.415249,0.00751454,0.0128632,832,1534,0.819412,-2.89982
-385,-510,0.809692,2.93359,0.0122498,0.00414712,-0.00525257,0.0148319,0.001565,-0.456899,0.00940976,0.0194037,839,1534,0.809665,-2.93355
-378,-510,0.784912,2.90686,0.0152909,0.00691837,-0.00628677,0.0186576,0.00355159,-0.491669,0.0114398,0.0307715,846,1534,0.784923,-2.90692
-371,-510,0.751099,2.86914,0.0187162,0.0101454,-0.00715007,0.0227668,0.00609484,-0.515427,0.013609,0.0425476,853,1534,0.751075,-2.8692
-364,-510,0.773254,2.80847,0,0,0,0,0,0,0,-1,860,1534,0.773233,-2.80843
-357,-510,1.65485,1.93921,0,0,0,0,0,0,0,-1,867,1534,1.65485,-1.93916
-350,-510,-1.21277,3.39502,0,0,0,0,0,0,0,-1,874,1534,-1.21275,-3.39503
-343,-510,-0.968689,3.03198,0,0,0,0,0,0,0,-1,881,1534,-0.968698,-3.03199
-336,-510,-0.79187,3.59729,0.0328904,0.0322944,-0.00175722,0.0343747,0.0308101,-0.701395,0.0218255,0.0436359,888,1534,-0.791858,-3.59724
-329,-510,-0.629272,4.08728,0.0335215,0.0369671,0.00158661,0.0375864,0.0329022,1.19867,0.0236513,0.0403766,895,1534,-0.629256,-4.08732
-322,-510,-0.31366,4.54663,0.0329944,0.0419754,0.00620134,0.0451414,0.0298285,1.09876,0.0265077,0.0405846,902,1534,-0.313688,-4.54668
-315,-510,-0.0330811,5.05298,0.0310708,0.0476337,0.0114564,0.0534884,0.0252161,1.09835,0.0308983,0.0424253,909,1534,-0.0330526,-5.05303
-308,-510,0.228027,5.62378,0.0282711,0.0547419,0.0172775,0.0632709,0.0197421,1.11224,0.0373801,0.0436566,916,1534,0.228039,-5.62378
-301,-510,0.441833,6.4054,0.0232039,0.062795,0.0237866,0.0739456,0.0120533,1.13244,0.045811,0.0440005,923,1534,0.441835,-6.4054
-294,-510,0,0,0,0,0,0,0,0,0,-1,930,1534,0,0
-287,-510,0,0,0,0,0,0,0,0,0,-1,937,1534,0,0
-280,-510,0,0,0,0,0,0,0,0,0,-1,944,1534,0,0
-273,-510,0,0,0,0,0,0,0,0,0,-1,951,1534,0,0
-266,-510,0,0,0,0,0,0,0,0,0,-1,958,1534,0,0
-259,-510,0,0,0,0,0,0,0,0,0,-1,965,1534,0,0
-252,-510,0,0,0,0,0,0,0,0,0,-1,972,1534,0,0
-245,-510,0,0,0,0,0,0,0,0,0,-1,979,1534,0,0
-238,-510,0,0,0,0,0,0,0,0,0,-1,986,1534,0,0
-231,-510,0,0,0,0,0,0,0,0,0,-1,993,1534,0,0
-224,-510,0,0,0,0,0,0,0,0,0,-1,1000,1534,0,0
-217,-510,0,0,0,0,0,0,0,0,0,-1,1007,1534,0,0
-210,-510,0,0,0,0,0,0,0,0,0,-1,1014,1534,0,0
-203,-510,0,0,0,0,0,0,0,0,0,-1,1021,1534,0,0
-196,-510,0,0,0,0,0,0,0,0,0,-1,1028,1534,0,0
-189,-510,0,0,0,0,0,0,0,0,0,-1,1035,1534,0,0
-182,-510,0,0,0,0,0,0,0,0,0,-1,1042,1534,0,0
-175,-510,0,0,0,0,0,0,0,0,0,-1,1049,1534,0,0
-168,-510,0,0,0,0,0,0,0,0,0,-1,1056,1534,0,0
-161,-510,0,0,0,0,0,0,0,0,0,-1,1063,1534,0,0
-154,-510,0,0,0,0,0,0,0,0,0,-1,1070,1534,0,0
-147,-510,0,0,0,0,0,0,0,0,0,-1,1077,1534,0,0
-140,-510,0,0,0,0,0,0,0,0,0,-1,1084,1534,0,0
-133,-510,0,0,0,0,0,0,0,0,0,-1,1091,1534,0,0
-126,-510,0,0,0,0,0,0,0,0,0,-1,1098,1534,0,0
-119,-510,0,0,0,0,0,0,0,0,0,-1,1105,1534,0,0
-112,-510,0,0,0,0,0,0,0,0,0,-1,1112,1534,0,0
-105,-510,0,0,0,0,0,0,0,0,0,-1,1119,1534,0,0
-98,-510,0,0,0,0,0,0,0,0,0,-1,1126,1534,0,0
-91,-510,0,0,0,0,0,0,0,0,0,-1,1133,1534,0,0
-84,-510,0,0,0,0,0,0,0,0,0,-1,1140,1534,0,0
-77,-510,0,0,0,0,0,0,0,0,0,-1,1147,1534,0,0
-70,-510,0,0,0,0,0,0,0,0,0,-1,1154,1534,0,0
-63,-510,0,0,0,0,0,0,0,0,0,-1,1161,1534,0,0
-56,-510,0,0,0,0,0,0,0,0,0,-1,1168,1534,0,0
-49,-510,0,0,0,0,0,0,0,0,0,-1,1175,1534,0,0
-42,-510,0,0,0,0,0,0,0,0,0,-1,1182,1534,0,0
-35,-510,0,0,0,0,0,0,0,0,0,-1,1189,1534,0,0
-28,-510,0,0,0,0,0,0,0,0,0,-1,1196,1534,0,0
-21,-510,0,0,0,0,0,0,0,0,0,-1,1203,1534,0,0
-14,-510,0,0,0,0,0,0,0,0,0,-1,1210,1534,0,0
-7,-510,0,0,0,0,0,0,0,0,0,-1,1217,1534,0,0
0,-510,0,0,0,0,0,0,0,0,0,-1,1224,1534,0,0
7,-510,0,0,0,0,0,0,0,0,0,-1,1231,1534,0,0
14,-510,0,0,0,0,0,0,0,0,0,-1,1238,1534,0,0
21,-510,0,0,0,0,0,0,0,0,0,-1,1245,1534,0,0
28,-510,0,0,0,0,0,0,0,0,0,-1,1252,1534,0,0
35,-510,0,0,0,0,0,0,0,0,0,-1,1259,1534,0,0
42,-510,0,0,0,0,0,0,0,0,0,-1,1266,1534,0,0
49,-510,0,0,0,0,0,0,0,0,0,-1,1273,1534,0,0
56,-510,0,0,0,0,0,0,0,0,0,-1,1280,1534,0,0
63,-510,0,0,0,0,0,0,0,0,0,-1,1287,1534,0,0
70,-510,0,0,0,0,0,0,0,0,0,-1,1294,1534,0,0
77,-510,0,0,0,0,0,0,0,0,0,-1,1301,1534,0,0
84,-510,0,0,0,0,0,0,0,0,0,-1,1308,1534,0,0
91,-510,0,0,0,0,0,0,0,0,0,-1,1315,1534,0,0
98,-510,0,0,0,0,0,0,0,0,0,-1,1322,1534,0,0
105,-510,0,0,0,0,0,0,0,0,0,-1,1329,1534,0,0
112,-510,0,0,0,0,0,0,0,0,0,-1,1336,1534,0,0
119,-510,0,0,0,0,0,0,0,0,0,-1,1343,1534,0,0
126,-510,0,0,0,0,0,0,0,0,0,-1,1350,1534,0,0
133,-510,0,0,0,0,0,0,0,0,0,-1,1357,1534,0,0
140,-510,0,0,0,0,0,0,0,0,0,-1,1364,1534,0,0
147,-510,0,0,0,0,0,0,0,0,0,-1,1371,1534,0,0
154,-510,0,0,0,0,0,0,0,0,0,-1,1378,1534,0,0
161,-510,0,0,0,0,0,0,0,0,0,-1,1385,1534,0,0
168,-510,0,0,0,0,0,0,0,0,0,-1,1392,1534,0,0
175,-510,0,0,0,0,0,0,0,0,0,-1,1399,1534,0,0
182,-510,0,0,0,0,0,0,0,0,0,-1,1406,1534,0,0
189,-510,0,0,0,0,0,0,0,0,0,-1,1413,1534,0,0
196,-510,0,0,0,0,0,0,0,0,0,-1,1420,1534,0,0
203,-510,0,0,0,0,0,0,0,0,0,-1,1427,1534,0,0
210,-510,0,0,0,0,0,0,0,0,0,-1,1434,1534,0,0
217,-510,0,0,0,0,0,0,0,0,0,-1,1441,1534,0,0
224,-510,0,0,0,0,0,0,0,0,0,-1,1448,1534,0,0
231,-510,0,0,0,0,0,0,0,0,0,-1,1455,1534,0,0
238,-510,0,0,0,0,0,0,0,0,0,-1,1462,1534,0,0
245,-510,0,0,0,0,0,0,0,0,0,-1,1469,1534,0,0
252,-510,0,0,0,0,0,0,0,0,0,-1,1476,1534,0,0
259,-510,0,0,0,0,0,0,0,0,0,-1,1483,1534,0,0
266,-510,0,0,0,0,0,0,0,0,0,-1,1490,1534,0,0
273,-510,0,0,0,0,0,0,0,0,0,-1,1497,1534,0,0
280,-510,0,0,0,0,0,0,0,0,0,-1,1504,1534,0,0
287,-510,0,0,0,0,0,0,0,0,0,-1,1511,1534,0,0
294,-510,0,0,0,0,0,0,0,0,0,-1,1518,1534,0,0
301,-510,0,0,0,0,0,0,0,0,0,-1,1525,1534,0,0
308,-510,0,0,0,0,0,0,0,0,0,-1,1532,1534,0,0
315,-510,0,0,0,0,0,0,0,0,0,-1,1539,1534,0,0
322,-510,0,0,0,0,0,0,0,0,0,-1,1546,1534,0,0
329,-510,0,0,0,0,0,0,0,0,0,-1,1553,1534,0,0
336,-510,0,0,0,0,0,0,0,0,0,-1,1560,1534,0,0
343,-510,0,0,0,0,0,0,0,0,0,-1,1567,1534,0,0
350,-510,0,0,0,0,0,0,0,0,0,-1,1574,1534,0,0
357,-510,0,0,0,0,0,0,0,0,0,-1,1581,1534,0,0
364,-510,0,0,0,0,0,0,0,0,0,-1,1588,1534,0,0
371,-510,0,0,0,0,0,0,0,0,0,-1,1595,1534,0,0
378,-510,0,0,0,0,0,0,0,0,0,-1,1602,1534,0,0
385,-510,0,0,0,0,0,0,0,0,0,-1,1609,1534,0,0
392,-510,0,0,0,0,0,0,0,0,0,-1,1616,1534,0,0
399,-510,0,0,0,0,0,0,0,0,0,-1,1623,1534,0,0
406,-510,0,0,0,0,0,0,0,0,0,-1,1630,1534,0,0
413,-510,0,0,0,0,0,0,0,0,0,-1,1637,1534,0,0
420,-510,6.35303,4.3811,0,0,0,0,0,0,0,-1,1644,1534,6.35304,-4.38113
427,-510,9.63611,0.899536,0,0,0,0,0,0,0,-1,1651,1534,9.6361,-0.899482
434,-510,8.81152,0.797485,-0.0536565,0.0331279,-0.00630787,0.033584,-0.0541126,-1.49862,0.051092,0.0477069,1658,1534,8.81151,-0.797515
441,-510,7.74023,0.850464,-0.053032,0.0156785,-0.000470273,0.0156817,-0.0530352,-1.56395,0.0415817,0.0444099,1665,1534,7.74028,-0.850503
448,-510,6.82507,1.27319,-0.0502921,0.00181993,0.00453105,0.00221096,-0.0506832,1.48471,0.0345494,0.0462123,1672,1534,6.82505,-1.2732
455,-510,5.95447,1.34399,-0.0462363,-0.00825712,0.00865856,-0.00637627,-0.0481172,1.3569,0.0301781,0.0476353,1679,1534,5.95442,-1.34396
462,-510,5.10046,1.35535,0,0,0,0,0,0,0,-1,1686,1534,5.10042,-1.3554
469,-510,4.36182,1.42651,0,0,0,0,0,0,0,-1,1693,1534,4.36186,-1.42652
476,-510,3.7041,1.33093,0,0,0,0,0,0,0,-1,1700,1534,3.70411,-1.33089
483,-510,3.06445,3.12512,0,0,0,0,0,0,0,-1,1707,1534,3.06449,-3.12515
490,-510,3.33264,3.26794,-0.0121519,-0.0164328,0.0216384,0.00745164,-0.0360364,0.736099,0.026855,0.0481193,1714,1534,3.33258,-3.26797
497,-510,3.90686,3.29089,-0.00680121,-0.0119173,0.0210975,0.0118928,-0.0306113,0.725068,0.0253205,0.0444397,1721,1534,3.90685,-3.29084
504,-510,4.24683,3.29211,0,0,0,0,0,0,0,-1,1728,1534,4.24688,-3.29216
511,-510,3.78369,2.5531,0,0,0,0,0,0,0,-1,1735,1534,3.78368,-2.55307
518,-510,3.91174,3.03296,-0.000836623,-0.00416586,0.0150715,0.0126619,-0.0176644,0.730397,0.0175882,0.0286764,1742,1534,3.91176,-3.03295
525,-510,4.0011,3.09473,-0.000718165,-0.00128843,0.0112454,0.0102457,-0.0122523,0.772723,0.0130065,0.0156083,1749,1534,4.00114,-3.09475
532,-510,4.04285,3.02563,-0.000631696,0.000195126,0.00779431,0.00758698,-0.00802355,0.811893,0.00901392,0.0125839,1756,1534,4.04289,-3.02565
539,-510,4.04211,2.953,-0.000928742,0.000490824,0.00503785,0.00486864,-0.00530656,0.855383,0.00587647,0.0122185,1763,1534,4.04211,-2.953
546,-510,4.026,2.89636,-0.00103182,0.000430624,0.00292773,0.00271706,-0.00331825,0.907773,0.00349025,0.0108001,1770,1534,4.02595,-2.89631
553,-510,4.03516,2.82947,-0.000785942,0.000323999,0.00128302,0.00116694,-0.00162888,0.989522,0.00162149,0.011579,1777,1534,4.03519,-2.82946
560,-510,4.0293,2.75244,-0.000363763,0.000235741,5.17527e-05,0.000240176,-0.000368198,1.48531,0.000353827,0.0119587,1784,1534,4.02936,-2.7524
567,-510,4.03027,2.67004,-0.000142281,0.000584969,-0.000391034,0.000755321,-0.000312633,-1.15995,0.000633995,0.0111727,1791,1534,4.03023,-2.67008
574,-510,4.03979,2.6073,0.00059077,0.000952467,-8.8856e-05,0.000973117,0.00057012,-1.34245,0.000564584,0.0121113,1798,1534,4.03984,-2.60734
581,-510,4.01794,2.58032,0.00177161,0.00177183,0.000351126,0.00212285,0.0014206,0.785553,0.0012488,0.0113213,1805,1534,4.01796,-2.58028
588,-510,4.02539,2.50891,0.00243158,0.00240672,0.000747248,0.0031665,0.0016718,0.77708,0.00182913,0.0125955,1812,1534,4.02541,-2.50888
595,-510,4.0531,2.43311,0.00294287,0.00247399,0.00119325,0.00392449,0.00149237,0.688398,0.00228735,0.0119239,1819,1534,4.05305,-2.43311
602,-510,4.04578,2.3479,0.00338582,0.00181818,0.00143489,0.00423702,0.00096698,0.535415,0.00256387,0.0153509,1826,1534,4.04572,-2.34786
609,-510,3.99121,2.25452,0.00492047,0.000416614,0.0015938,0.00542741,-9.03315e-05,0.307954,0.00364876,0.0247057,1833,1534,3.99123,-2.25449
616,-510,3.93225,2.10059,0.0092287,-0.000137298,0.00108218,0.00935212,-0.00026071,0.11355,0.00632344,0.0384644,1840,1534,3.93222,-2.1006
623,-510,4.1908,2.35022,0.0126121,-0.0020689,0.000625383,0.0126387,-0.00209549,0.0424956,0.00920413,0.0377256,1847,1534,4.19075,-2.35028
630,-510,4.65137,2.73096,0,0,0,0,0,0,0,-1,1854,1534,4.65134,-2.73099
637,-510,4.97205,3.15051,0,0,0,0,0,0,0,-1,1861,1534,4.97207,-3.15057
644,-510,3.94153,2.53979,0,0,0,0,0,0,0,-1,1868,1534,3.94157,-2.53974
651,-510,3.64966,2.43713,0,0,0,0,0,0,0,-1,1875,1534,3.64968,-2.43719
658,-510,0,0,0,0,0,0,0,0,0,-1,1882,1534,0,0
665,-510,0,0,0,0,0,0,0,0,0,-1,1889,1534,0,0
672,-510,0,0,0,0,0,0,0,0,0,-1,1896,1534,0,0
679,-510,0,0,0,0,0,0,0,0,0,-1,1903,1534,0,0
686,-510,0,0,0,0,0,0,0,0,0,-1,1910,1534,0,0
693,-510,0,0,0,0,0,0,0,0,0,-1,1917,1534,0,0
700,-510,0,0,0,0,0,0,0,0,0,-1,1924,1534,0,0
707,-510,0,0,0,0,0,0,0,0,0,-1,1931,1534,0,0
714,-510,0,0,0,0,0,0,0,0,0,-1,1938,1534,0,0
721,-510,0,0,0,0,0,0,0,0,0,-1,1945,1534,0,0
728,-510,0,0,0,0,0,0,0,0,0,-1,1952,1534,0,0
735,-510,0,0,0,0,0,0,0,0,0,-1,1959,1534,0,0
742,-510,0,0,0,0,0,0,0,0,0,-1,1966,1534,0,0
749,-510,0,0,0,0,0,0,0,0,0,-1,1973,1534,0,0
756,-510,0,0,0,0,0,0,0,0,0,-1,1980,1534,0,0
763,-510,0,0,0,0,0,0,0,0,0,-1,1987,1534,0,0
770,-510,0,0,0,0,0,0,0,0,0,-1,1994,1534,0,0
777,-510,0,0,0,0,0,0,0,0,0,-1,2001,1534,0,0
784,-510,0,0,0,0,0,0,0,0,0,-1,2008,1534,0,0
791,-510,0,0,0,0,0,0,0,0,0,-1,2015,1534,0,0
798,-510,0,0,0,0,0,0,0,0,0,-1,2022,1534,0,0
805,-510,0,0,0,0,0,0,0,0,0,-1,2029,1534,0,0
812,-510,0,0,0,0,0,0,0,0,0,-1,2036,1534,0,0
-700,-517,0,0,0,0,0,0,0,0,0,-1,524,1541,0,0
-693,-517,0,0,0,0,0,0,0,0,0,-1,531,1541,0,0
-686,-517,0,0,0,0,0,0,0,0,0,-1,538,1541,0,0
-679,-517,0,0,0,0,0,0,0,0,0,-1,545,1541,0,0
-672,-517,0,0,0,0,0,0,0,0,0,-1,552,1541,0,0
-665,-517,0,0,0,0,0,0,0,0,0,-1,559,1541,0,0
-658,-517,0,0,0,0,0,0,0,0,0,-1,566,1541,0,0
-651,-517,0,0,0,0,0,0,0,0,0,-1,573,1541,0,0
-644,-517,0,0,0,0,0,0,0,0,0,-1,580,1541,0,0
-637,-517,0,0,0,0,0,0,0,0,0,-1,587,1541,0,0
-630,-517,0,0,0,0,0,0,0,0,0,-1,594,1541,0,0
-623,-517,0,0,0,0,0,0,0,0,0,-1,601,1541,0,0
-616,-517,0,0,0,0,0,0,0,0,0,-1,608,1541,0,0
-609,-517,0,0,0,0,0,0,0,0,0,-1,615,1541,0,0
-602,-517,0,0,0,0,0,0,0,0,0,-1,622,1541,0,0
-595,-517,0,0,0,0,0,0,0,0,0,-1,629,1541,0,0
-588,-517,0,0,0,0,0,0,0,0,0,-1,636,1541,0,0
-581,-517,0,0,0,0,0,0,0,0,0,-1,643,1541,0,0
-574,-517,0,0,0,0,0,0,0,0,0,-1,650,1541,0,0
-567,-517,0,0,0,0,0,0,0,0,0,-1,657,1541,0,0
-560,-517,0,0,0,0,0,0,0,0,0,-1,664,1541,0,0
-553,-517,0,0,0,0,0,0,0,0,0,-1,671,1541,0,0
-546,-517,0,0,0,0,0,0,0,0,0,-1,678,1541,0,0
-539,-517,0,0,0,0,0,0,0,0,0,-1,685,1541,0,0
-532,-517,0,0,0,0,0,0,0,0,0,-1,692,1541,0,0
-525,-517,-1.68701,4.26196,0,0,0,0,0,0,0,-1,699,1541,-1.68699,-4.26197
-518,-517,0.00170898,3.55603,0,0,0,0,0,0,0,-1,706,1541,0.00171432,-3.55603
-511,-517,0.874817,2.50037,0,0,0,0,0,0,0,-1,713,1541,0.874836,-2.50032
-504,-517,1.93298,1.49377,0.0232586,0.00974827,-0.0311525,0.0483799,-0.015373,-0.67863,0.038417,0.0487094,720,1541,1.93298,-1.49377
-497,-517,3.03668,0.518311,0.0140914,0.0101938,-0.0269979,0.0392107,-0.0149256,-0.749369,0.0322869,0.0454252,727,1541,3.03666,-0.518343
-490,-517,0.961365,2.12134,0,0,0,0,0,0,0,-1,734,1541,0.961342,-2.12134
-483,-517,0.904236,2.03516,0.00214266,0.00894714,-0.0177216,0.0235901,-0.0125003,-0.880236,0.0211622,0.0420091,741,1541,0.904237,-2.03521
-476,-517,0.833801,2.01843,-0.000433901,0.0078104,-0.0126995,0.01704,-0.00966354,-0.942329,0.0156122,0.0295609,748,1541,0.833773,-2.01843
-469,-517,0.862549,2.125,-0.00182335,0.00660617,-0.00823613,0.0116433,-0.0068605,-1.0219,0.0108015,0.0124488,755,1541,0.862532,-2.12506
-462,-517,0.854553,2.19385,-0.00328791,0.00539155,-0.00540061,0.00798001,-0.00587637,-1.12385,0.00803066,0.0128653,762,1541,0.854574,-2.19383
-455,-517,0.85199,2.26587,-0.00316647,0.00464213,-0.00338586,0.00590576,-0.00443011,-1.2136,0.00598766,0.0132027,769,1541,0.852011,-2.26588
-448,-517,0.862122,2.34265,-0.00376611,0.00389059,-0.00144898,0.00415562,-0.00403114,-1.38988,0.00472681,0.01339,776,1541,0.862135,-2.34266
-441,-517,0.855286,2.41882,-0.00323998,0.00299564,-0.000653036,0.00306329,-0.00330764,-1.46756,0.00367916,0.0110658,783,1541,0.855266,-2.41877
-434,-517,0.85437,2.47339,-0.00231452,0.00229382,-0.000467583,0.00234078,-0.00236148,-1.47069,0.00271486,0.012842,790,1541,0.854363,-2.47333
-427,-517,0.857544,2.53052,-0.00121916,0.00151834,-0.000389481,0.00157268,-0.0012735,-1.43218,0.00164626,0.0134011,797,1541,0.857552,-2.53051
-420,-517,0.843384,2.62903,-0.000122727,0.000745213,-0.000315226,0.000847617,-0.000225131,-1.25669,0.000653185,0.0179033,804,1541,0.843372,-2.62899
-413,-517,0.844727,2.66541,0.000772398,-0.000242948,-0.000391366,0.000905739,-0.00037629,-0.328372,0.000760929,0.00922125,811,1541,0.844725,-2.66542
-406,-517,0.846497,2.7373,0.00249475,-0.000232686,-0.00093208,0.00278285,-0.000520786,-0.299778,0.00205099,0.00993532,818,1541,0.846467,-2.73736
-399,-517,0.846741,2.81873,0.00466842,0.000147113,-0.00206086,0.0054668,-0.000651268,-0.369599,0.00387988,0.00990964,825,1541,0.846715,-2.81868
-392,-517,0.848389,2.8894,0.00671713,0.000901826,-0.00301155,0.00799564,-0.000376677,-0.401475,0.00546032,0.0104483,832,1541,0.848402,-2.88942
-385,-517,0.880432,2.97412,0.00862128,0.00271966,-0.00376248,0.010452,0.000888884,-0.452859,0.00669145,0.0124916,839,1541,0.88041,-2.97411
-378,-517,0.887146,3.00464,0.0106767,0.00493344,-0.00442912,0.0130836,0.00252648,-0.497791,0.00801412,0.0220321,846,1541,0.88717,-3.00468
-371,-517,0.861145,2.90173,0.0130489,0.0076102,-0.00494286,0.0159711,0.00468804,-0.533916,0.00947933,0.0366039,853,1541,0.861115,-2.9017
-364,-517,0.935547,2.7063,0.0158006,0.0115061,-0.00518275,0.0192633,0.00804337,-0.589008,0.0111719,0.0455317,860,1541,0.935568,-2.70635
-357,-517,0.570557,3.12268,0,0,0,0,0,0,0,-1,867,1541,0.570535,-3.12262
-350,-517,-0.431824,3.34448,0.0215897,0.0179042,-0.00327767,0.0235071,0.0159867,-0.529311,0.0138621,0.0467669,874,1541,-0.431828,-3.34454
-343,-517,-0.548462,3.21912,0,0,0,0,0,0,0,-1,881,1541,-0.548481,-3.21914
-336,-517,-0.571289,3.23352,0,0,0,0,0,0,0,-1,888,1541,-0.571292,-3.23351
-329,-517,-0.431274,3.9071,0.0254907,0.0342288,0.00289709,0.035102,0.0246174,1.27803,0.0208065,0.0425658,895,1541,-0.431258,-3.90712
-322,-517,-0.214355,4.49194,0.0257222,0.0401486,0.00640984,0.042585,0.0232857,1.20755,0.0246224,0.0441442,902,1541,-0.214355,-4.49196
-315,-517,-0.15448,5.17859,0.0250982,0.047064,0.0100127,0.0509431,0.0212191,1.20118,0.0295483,0.042481,909,1541,-0.154504,-5.17858
-308,-517,-0.0350952,5.99487,0.0235136,0.05539,0.0135929,0.0603992,0.0185044,1.21772,0.0357325,0.0433007,916,1541,-0.0350936,-5.99491
-301,-517,0.431824,6.31128,0.0200685,0.0652096,0.0172172,0.0710268,0.0142514,1.24497,0.0433881,0.0460348,923,1541,0.431795,-6.31127
-294,-517,0.381897,6.98853,0.0147449,0.0788685,0.018681,0.0839138,0.00969963,1.30701,0.053006,0.0455268,930,1541,0.381911,-6.98853
-287,-517,0.367371,7.66016,0,0,0,0,0,0,0,-1,937,1541,0.367381,-7.6601
-280,-517,0,0,0,0,0,0,0,0,0,-1,944,1541,0,0
-273,-517,0,0,0,0,0,0,0,0,0,-1,951,1541,0,0
-266,-517,0,0,0,0,0,0,0,0,0,-1,958,1541,0,0
-259,-517,0,0,0,0,0,0,0,0,0,-1,965,1541,0,0
-252,-517,0,0,0,0,0,0,0,0,0,-1,972,1541,0,0
-245,-517,0,0,0,0,0,0,0,0,0,-1,979,1541,0,0
-238,-517,0,0,0,0,0,0,0,0,0,-1,986,1541,0,0
-231,-517,0,0,0,0,0,0,0,0,0,-1,993,1541,0,0
-224,-517,0,0,0,0,0,0,0,0,0,-1,1000,1541,0,0
-217,-517,0,0,0,0,0,0,0,0,0,-1,1007,1541,0,0
-210,-517,0,0,0,0,0,0,0,0,0,-1,1014,1541,0,0
-203,-517,0,0,0,0,0,0,0,0,0,-1,1021,1541,0,0
-196,-517,0,0,0,0,0,0,0,0,0,-1,1028,1541,0,0
-189,-517,0,0,0,0,0,0,0,0,0,-1,1035,1541,0,0
-182,-517,0,0,0,0,0,0,0,0,0,-1,1042,1541,0,0
-175,-517,0,0,0,0,0,0,0,0,0,-1,1049,1541,0,0
-168,-517,0,0,0,0,0,0,0,0,0,-1,1056,1541,0,0
-161,-517,0,0,0,0,0,0,0,0,0,-1,1063,1541,0,0
-154,-517,0,0,0,0,0,0,0,0,0,-1,1070,1541,0,0
-147,-517,0,0,0,0,0,0,0,0,0,-1,1077,1541,0,0
-140,-517,0,0,0,0,0,0,0,0,0,-1,1084,1541,0,0
-133,-517,0,0,0,0,0,0,0,0,0,-1,1091,1541,0,0
-126,-517,0,0,0,0,0,0,0,0,0,-1,1098,1541,0,0
-119,-517,0,0,0,0,0,0,0,0,0,-1,1105,1541,0,0
-112,-517,0,0,0,0,0,0,0,0,0,-1,1112,1541,0,0
-105,-517,0,0,0,0,0,0,0,0,0,-1,1119,1541,0,0
-98,-517,0,0,0,0,0,0,0,0,0,-1,1126,1541,0,0
-91,-517,0,0,0,0,0,0,0,0,0,-1,1133,1541,0,0
-84,-517,0,0,0,0,0,0,0,0,0,-1,1140,1541,0,0
-77,-517,0,0,0,0,0,0,0,0,0,-1,1147,1541,0,0
-70,-517,0,0,0,0,0,0,0,0,0,-1,1154,1541,0,0
-63,-517,0,0,0,0,0,0,0,0,0,-1,1161,1541,0,0
-56,-517,0,0,0,0,0,0,0,0,0,-1,1168,1541,0,0
-49,-517,0,0,0,0,0,0,0,0,0,-1,1175,1541,0,0
-42,-517,0,0,0,0,0,0,0,0,0,-1,1182,1541,0,0
-35,-517,0,0,0,0,0,0,0,0,0,-1,1189,1541,0,0
-28,-517,0,0,0,0,0,0,0,0,0,-1,1196,1541,0,0
-21,-517,0,0,0,0,0,0,0,0,0,-1,1203,1541,0,0
-14,-517,0,0,0,0,0,0,0,0,0,-1,1210,1541,0,0
-7,-517,0,0,0,0,0,0,0,0,0,-1,1217,1541,0,0
0,-517,0,0,0,0,0,0,0,0,0,-1,1224,1541,0,0
7,-517,0,0,0,0,0,0,0,0,0,-1,1231,1541,0,0
14,-517,0,0,0,0,0,0,0,0,0,-1,1238,1541,0,0
21,-517,0,0,0,0,0,0,0,0,0,-1,1245,1541,0,0
28,-517,0,0,0,0,0,0,0,0,0,-1,1252,1541,0,0
35,-517,0,0,0,0,0,0,0,0,0,-1,1259,1541,0,0
42,-517,0,0,0,0,0,0,0,0,0,-1,1266,1541,0,0
49,-517,0,0,0,0,0,0,0,0,0,-1,1273,1541,0,0
56,-517,0,0,0,0,0,0,0,0,0,-1,1280,1541,0,0
63,-517,0,0,0,0,0,0,0,0,0,-1,1287,1541,0,0
70,-517,0,0,0,0,0,0,0,0,0,-1,1294,1541,0,0
77,-517,0,0,0,0,0,0,0,0,0,-1,1301,1541,0,0
84,-517,0,0,0,0,0,0,0,0,0,-1,1308,1541,0,0
91,-517,0,0,0,0,0,0,0,0,0,-1,1315,1541,0,0
98,-517,0,0,0,0,0,0,0,0,0,-1,1322,1541,0,0
105,-517,0,0,0,0,0,0,0,0,0,-1,1329,1541,0,0
112,-517,0,0,0,0,0,0,0,0,0,-1,1336,1541,0,0
119,-517,0,0,0,0,0,0,0,0,0,-1,1343,1541,0,0
126,-517,0,0,0,0,0,0,0,0,0,-1,1350,1541,0,0
133,-517,0,0,0,0,0,0,0,0,0,-1,1357,1541,0,0
140,-517,0,0,0,0,0,0,0,0,0,-1,1364,1541,0,0
147,-517,0,0,0,0,0,0,0,0,0,-1,1371,1541,0,0
154,-517,0,0,0,0,0,0,0,0,0,-1,1378,1541,0,0
161,-517,0,0,0,0,0,0,0,0,0,-1,1385,1541,0,0
168,-517,0,0,0,0,0,0,0,0,0,-1,1392,1541,0,0
175,-517,0,0,0,0,0,0,0,0,0,-1,1399,1541,0,0
182,-517,0,0,0,0,0,0,0,0,0,-1,1406,1541,0,0
189,-517,0,0,0,0,0,0,0,0,0,-1,1413,1541,0,0
196,-517,0,0,0,0,0,0,0,0,0,-1,1420,1541,0,0
203,-517,0,0,0,0,0,0,0,0,0,-1,1427,1541,0,0
210,-517,0,0,0,0,0,0,0,0,0,-1,1434,1541,0,0
217,-517,0,0,0,0,0,0,0,0,0,-1,1441,1541,0,0
224,-517,0,0,0,0,0,0,0,0,0,-1,1448,1541,0,0
231,-517,0,0,0,0,0,0,0,0,0,-1,1455,1541,0,0
238,-517,0,0,0,0,0,0,0,0,0,-1,1462,1541,0,0
245,-517,0,0,0,0,0,0,0,0,0,-1,1469,1541,0,0
252,-517,0,0,0,0,0,0,0,0,0,-1,1476,1541,0,0
259,-517,0,0,0,0,0,0,0,0,0,-1,1483,1541,0,0
266,-517,0,0,0,0,0,0,0,0,0,-1,1490,1541,0,0
273,-517,0,0,0,0,0,0,0,0,0,-1,1497,1541,0,0
280,-517,0,0,0,0,0,0,0,0,0,-1,1504,1541,0,0
287,-517,0,0,0,0,0,0,0,0,0,-1,1511,1541,0,0
294,-517,0,0,0,0,0,0,0,0,0,-1,1518,1541,0,0
301,-517,0,0,0,0,0,0,0,0,0,-1,1525,1541,0,0
308,-517,0,0,0,0,0,0,0,0,0,-1,1532,1541,0,0
315,-517,0,0,0,0,0,0,0,0,0,-1,1539,1541,0,0
322,-517,0,0,0,0,0,0,0,0,0,-1,1546,1541,0,0
329,-517,0,0,0,0,0,0,0,0,0,-1,1553,1541,0,0
336,-517,0,0,0,0,0,0,0,0,0,-1,1560,1541,0,0
343,-517,0,0,0,0,0,0,0,0,0,-1,1567,1541,0,0
350,-517,0,0,0,0,0,0,0,0,0,-1,1574,1541,0,0
357,-517,0,0,0,0,0,0,0,0,0,-1,1581,1541,0,0
364,-517,0,0,0,0,0,0,0,0,0,-1,1588,1541,0,0
371,-517,0,0,0,0,0,0,0,0,0,-1,1595,1541,0,0
378,-517,0,0,0,0,0,0,0,0,0,-1,1602,1541,0,0
385,-517,0,0,0,0,0,0,0,0,0,-1,1609,1541,0,0
392,-517,0,0,0,0,0,0,0,0,0,-1,1616,1541,0,0
399,-517,0,0,0,0,0,0,0,0,0,-1,1623,1541,0,0
406,-517,7.00964,4.56018,-0.0441184,0.115767,-0.0149009,0.117144,-0.0454953,-1.47866,0.0968897,0.0496474,1630,1541,7.00969,-4.56013
413,-517,6.70435,4.07312,-0.0474602,0.0978143,-0.0118917,0.0987812,-0.0484272,-1.48966,0.0866323,0.0475097,1637,1541,6.70432,-4.07311
420,-517,6.30969,3.54919,-0.0527796,0.0732164,-0.00787325,0.0737065,-0.0532696,-1.50863,0.0736255,0.0461777,1644,1541,6.30974,-3.54923
427,-517,10.3364,0.880371,0,0,0,0,0,0,0,-1,1651,1541,10.3365,-0.880399
434,-517,9.35779,1.28223,-0.0576427,0.0334127,0.000370924,0.0334142,-0.0576442,1.56672,0.0531894,0.0476207,1658,1541,9.35779,-1.28227
441,-517,8.40527,1.61133,-0.0567436,0.0166593,0.00329797,0.0168072,-0.0568915,1.52599,0.0445985,0.0451618,1665,1541,8.40522,-1.61129
448,-517,7.20691,1.19922,-0.0535376,0.0031069,0.00616591,0.0037703,-0.054201,1.46362,0.0374541,0.044961,1672,1541,7.20691,-1.19919
455,-517,6.2439,1.11865,-0.0494057,-0.00677721,0.00842834,-0.00517129,-0.0510117,1.38252,0.0324218,0.0450685,1679,1541,6.24392,-1.11866
462,-517,4.77808,0.990723,0,0,0,0,0,0,0,-1,1686,1541,4.77804,-0.990675
469,-517,4.21997,1.52844,-0.0375525,-0.020329,0.0132739,-0.013118,-0.0447635,1.07315,0.0265719,0.0465622,1693,1541,4.21992,-1.52848
476,-517,3.78247,1.81201,-0.0300445,-0.0225384,0.0152898,-0.0105478,-0.0420352,0.905748,0.0252528,0.0481018,1700,1541,3.78244,-1.81196
483,-517,3.67175,2.44836,0,0,0,0,0,0,0,-1,1707,1541,3.67178,-2.44838
490,-517,3.67114,3.28296,-0.0139787,-0.0159417,0.0168161,0.00188451,-0.0318049,0.756248,0.0218586,0.0489083,1714,1541,3.67111,-3.283
497,-517,3.92297,3.30713,-0.0080075,-0.0116088,0.0163974,0.00668781,-0.0263042,0.73071,0.020139,0.0421636,1721,1541,3.92291,-3.30715
504,-517,4.0376,3.24658,-0.00396797,-0.00905881,0.0153772,0.00907302,-0.0220998,0.703376,0.0185141,0.03428,1728,1541,4.03755,-3.24661
511,-517,3.93408,3.2229,-0.00107116,-0.00660831,0.0135661,0.010006,-0.0176854,0.68474,0.0161913,0.0274909,1735,1541,3.93403,-3.22291
518,-517,3.92578,3.14966,-0.00046168,-0.00384124,0.0114723,0.00944462,-0.0137475,0.712278,0.0134666,0.0177497,1742,1541,3.92582,-3.14962
525,-517,3.94604,3.07483,-0.000187739,-0.00127121,0.00837672,0.00766475,-0.0091237,0.753107,0.009705,0.0104632,1749,1541,3.94609,-3.07481
532,-517,3.98059,3.00684,-0.000144145,0.000226605,0.00567481,0.00571907,-0.00563661,0.801726,0.00655626,0.0109414,1756,1541,3.98062,-3.00686
539,-517,3.98132,2.9458,-0.000469304,0.000587014,0.003589,0.00368651,-0.0035688,0.858454,0.00418904,0.0113508,1763,1541,3.98138,-2.94586
546,-517,3.97632,2.87415,-0.000688772,0.000651593,0.00201254,0.0021026,-0.00213978,0.946125,0.00244937,0.0108975,1770,1541,3.97629,-2.87416
553,-517,3.97949,2.80115,-0.000662007,0.000731692,0.000732122,0.00104559,-0.000975901,1.16576,0.00116734,0.0141879,1777,1541,3.97945,-2.80112
560,-517,3.97729,2.75854,-0.000417824,0.000766371,-0.000266792,0.000823703,-0.000475155,-1.35912,0.000758843,0.01582,1784,1541,3.97724,-2.75851
567,-517,3.97754,2.69421,-0.000305655,0.00126765,-0.000587664,0.00146292,-0.000500925,-1.24999,0.0011783,0.0125053,1791,1541,3.9775,-2.69423
574,-517,3.97815,2.63379,0.000491026,0.00181159,-0.000208563,0.00184375,0.000458869,-1.41782,0.00110834,0.0127246,1798,1541,3.97816,-2.63376
581,-517,3.96948,2.57434,0.00199839,0.00265968,0.000284791,0.00276542,0.00189265,1.21529,0.00163241,0.0148973,1805,1541,3.96944,-2.5743
588,-517,3.98254,2.49194,0.00308273,0.00337968,0.000795105,0.00404005,0.00242236,0.877704,0.0023479,0.015458,1812,1541,3.98252,-2.49193
595,-517,4.00635,2.42786,0.00421446,0.00355451,0.00140061,0.00532344,0.00244553,0.66971,0.00307687,0.0141112,1819,1541,4.00635,-2.42783
602,-517,3.94421,2.34363,0.00545884,0.00305078,0.00190091,0.00650496,0.00200466,0.503091,0.00384667,0.0194194,1826,1541,3.94415,-2.34366
609,-517,3.8374,2.1001,0.00791411,0.00170598,0.00241819,0.00874487,0.000875216,0.330914,0.00556118,0.0376897,1833,1541,3.83741,-2.10005
616,-517,3.80432,1.92871,0.0134334,0.00111115,0.0023781,0.0138765,0.000668125,0.184182,0.0090365,0.0442371,1840,1541,3.80428,-1.92874
623,-517,3.88074,2.18896,0.0182646,-0.000919095,0.00252975,0.0185926,-0.00124708,0.128934,0.012831,0.0396278,1847,1541,3.88076,-2.18894
630,-517,4.46643,2.67834,0,0,0,0,0,0,0,-1,1854,1541,4.4664,-2.67836
637,-517,6.90088,3.31409,0,0,0,0,0,0,0,-1,1861,1541,6.90092,-3.31411
644,-517,8.25232,3.85559,0,0,0,0,0,0,0,-1,1868,1541,8.2523,-3.85564
651,-517,0,0,0,0,0,0,0,0,0,-1,1875,1541,0,0
658,-517,0,0,0,0,0,0,0,0,0,-1,1882,1541,0,0
665,-517,0,0,0,0,0,0,0,0,0,-1,1889,1541,0,0
672,-517,0,0,0,0,0,0,0,0,0,-1,1896,1541,0,0
679,-517,0,0,0,0,0,0,0,0,0,-1,1903,1541,0,0
686,-517,0,0,0,0,0,0,0,0,0,-1,1910,1541,0,0
693,-517,0,0,0,0,0,0,0,0,0,-1,1917,1541,0,0
700,-517,0,0,0,0,0,0,0,0,0,-1,1924,1541,0,0
707,-517,0,0,0,0,0,0,0,0,0,-1,1931,1541,0,0
714,-517,0,0,0,0,0,0,0,0,0,-1,1938,1541,0,0
721,-517,0,0,0,0,0,0,0,0,0,-1,1945,1541,0,0
728,-517,0,0,0,0,0,0,0,0,0,-1,1952,1541,0,0
735,-517,0,0,0,0,0,0,0,0,0,-1,1959,1541,0,0
742,-517,0,0,0,0,0,0,0,0,0,-1,1966,1541,0,0
749,-517,0,0,0,0,0,0,0,0,0,-1,1973,1541,0,0
756,-517,0,0,0,0,0,0,0,0,0,-1,1980,1541,0,0
763,-517,0,0,0,0,0,0,0,0,0,-1,1987,1541,0,0
770,-517,0,0,0,0,0,0,0,0,0,-1,1994,1541,0,0
777,-517,0,0,0,0,0,0,0,0,0,-1,2001,1541,0,0
784,-517,0,0,0,0,0,0,0,0,0,-1,2008,1541,0,0
791,-517,0,0,0,0,0,0,0,0,0,-1,2015,1541,0,0
798,-517,0,0,0,0,0,0,0,0,0,-1,2022,1541,0,0
805,-517,0,0,0,0,0,0,0,0,0,-1,2029,1541,0,0
812,-517,0,0,0,0,0,0,0,0,0,-1,2036,1541,0,0
-700,-524,0,0,0,0,0,0,0,0,0,-1,524,1548,0,0
-693,-524,0,0,0,0,0,0,0,0,0,-1,531,1548,0,0
-686,-524,0,0,0,0,0,0,0,0,0,-1,538,1548,0,0
-679,-524,0,0,0,0,0,0,0,0,0,-1,545,1548,0,0
-672,-524,0,0,0,0,0,0,0,0,0,-1,552,1548,0,0
-665,-524,0,0,0,0,0,0,0,0,0,-1,559,1548,0,0
-658,-524,0,0,0,0,0,0,0,0,0,-1,566,1548,0,0
-651,-524,0,0,0,0,0,0,0,0,0,-1,573,1548,0,0
-644,-524,0,0,0,0,0,0,0,0,0,-1,580,1548,0,0
-637,-524,0,0,0,0,0,0,0,0,0,-1,587,1548,0,0
-630,-524,0,0,0,0,0,0,0,0,0,-1,594,1548,0,0
-623,-524,0,0,0,0,0,0,0,0,0,-1,601,1548,0,0
-616,-524,0,0,0,0,0,0,0,0,0,-1,608,1548,0,0
-609,-524,0,0,0,0,0,0,0,0,0,-1,615,1548,0,0
-602,-524,0,0,0,0,0,0,0,0,0,-1,622,1548,0,0
-595,-524,0,0,0,0,0,0,0,0,0,-1,629,1548,0,0
-588,-524,0,0,0,0,0,0,0,0,0,-1,636,1548,0,0
-581,-524,0,0,0,0,0,0,0,0,0,-1,643,1548,0,0
-574,-524,0,0,0,0,0,0,0,0,0,-1,650,1548,0,0
-567,-524,0,0,0,0,0,0,0,0,0,-1,657,1548,0,0
-560,-524,0,0,0,0,0,0,0,0,0,-1,664,1548,0,0
-553,-524,0,0,0,0,0,0,0,0,0,-1,671,1548,0,0
-546,-524,0,0,0,0,0,0,0,0,0,-1,678,1548,0,0
-539,-524,0,0,0,0,0,0,0,0,0,-1,685,1548,0,0
-532,-524,0,0,0,0,0,0,0,0,0,-1,692,1548,0,0
-525,-524,-1.70819,4.14551,0,0,0,0,0,0,0,-1,699,1548,-1.70822,-4.14556
-518,-524,-0.127014,3.43628,0.0523771,0.00267982,-0.0436923,0.0777925,-0.0227355,-0.526847,0.0608723,0.0477202,706,1548,-0.127008,-3.43633
-511,-524,1.13098,2.60449,0,0,0,0,0,0,0,-1,713,1548,1.13097,-2.60452
-504,-524,2.50122,1.50024,0.0238463,0.00975741,-0.0351695,0.0526699,-0.0190662,-0.686556,0.0429048,0.0488491,720,1548,2.50123,-1.5003
-497,-524,3.54504,0.39917,0.0135475,0.0108614,-0.0301234,0.0423578,-0.0179489,-0.763121,0.0357561,0.0479254,727,1548,3.54505,-0.399125
-490,-524,0.970703,2.06445,0,0,0,0,0,0,0,-1,734,1548,0.970731,-2.06445
-483,-524,0.916565,1.927,0.000539795,0.0104243,-0.0194743,0.0255737,-0.0146096,-0.909666,0.0234859,0.0455612,741,1548,0.916574,-1.92706
-476,-524,0.959656,1.97791,-0.00238051,0.00948265,-0.0138559,0.0186232,-0.0115211,-0.987641,0.0175641,0.0419604,748,1548,0.959634,-1.97795
-469,-524,0.935852,2.13269,-0.00390159,0.00841135,-0.00891146,0.0130861,-0.00857638,-1.08768,0.0125969,0.0308214,755,1548,0.935845,-2.13264
-462,-524,0.94574,2.1698,-0.00543955,0.00718704,-0.00570249,0.00938116,-0.00763367,-1.20349,0.00984077,0.0217918,762,1548,0.945759,-2.16978
-455,-524,0.91626,2.27063,-0.00504141,0.00626795,-0.0033814,0.00720184,-0.0059753,-1.30133,0.00761881,0.0150051,769,1548,0.916287,-2.27065
-448,-524,0.934814,2.35156,-0.00542793,0.00526885,-0.00119093,0.00539984,-0.00555892,-1.46125,0.00632727,0.0128903,776,1548,0.934811,-2.35153
-441,-524,0.910828,2.43774,-0.00451577,0.00414762,-0.000294513,0.00415762,-0.00452577,-1.53685,0.00501486,0.0107515,783,1548,0.910832,-2.43774
-434,-524,0.938843,2.47571,-0.00331679,0.00319867,-6.24788e-05,0.00319927,-0.00331738,-1.56121,0.0037626,0.0113235,790,1548,0.93883,-2.47565
-427,-524,0.947876,2.5249,-0.00205818,0.00224526,9.81198e-05,0.0022475,-0.00206042,1.54801,0.00248796,0.0121048,797,1548,0.947871,-2.52491
-420,-524,0.913025,2.59363,-0.000853801,0.00134124,0.000182388,0.00135629,-0.000868852,1.48846,0.00129492,0.00997311,804,1548,0.913052,-2.59365
-413,-524,0.934509,2.68042,6.19022e-05,0.000252561,0.000113395,0.000305373,9.08961e-06,1.13493,0.000200621,0.00933311,811,1548,0.934482,-2.68036
-406,-524,0.939941,2.75916,0.00139623,-0.000133267,-0.00020386,0.00142293,-0.000159973,-0.130257,0.00100619,0.0106001,818,1548,0.939966,-2.75918
-399,-524,0.927124,2.81189,0.00297794,-0.000132187,-0.00104321,0.00329545,-0.000449693,-0.295446,0.00236118,0.00927132,825,1548,0.927112,-2.81195
-392,-524,0.92511,2.87048,0.00435888,0.000327041,-0.00171098,0.00498708,-0.000301162,-0.351879,0.00342952,0.0103495,832,1548,0.925123,-2.87044
-385,-524,0.923401,2.95178,0.00544257,0.0017206,-0.00211269,0.00639703,0.000766142,-0.424329,0.00403363,0.0113145,839,1548,0.923421,-2.9518
-378,-524,0.936157,3.03992,0.00663777,0.00347945,-0.00240535,0.00793602,0.0021812,-0.494926,0.00473418,0.0127621,846,1548,0.93613,-3.03997
-371,-524,0.945862,3.10376,0.00813475,0.00571626,-0.00258807,0.00978214,0.00406887,-0.56685,0.00567426,0.0236856,853,1548,0.945871,-3.10375
-364,-524,0.890991,3.12842,0.0101265,0.00921587,-0.00265835,0.0123682,0.0069741,-0.700586,0.00716019,0.0349464,860,1548,0.891017,-3.12838
-357,-524,0.776917,3.15369,0.0128941,0.0119032,-0.00191064,0.0143724,0.0104248,-0.658535,0.00857422,0.0444504,867,1548,0.776944,-3.15363
-350,-524,0.451721,3.47192,0.0148926,0.0149845,-0.000852723,0.0157926,0.0140846,-0.812314,0.0100078,0.0463951,874,1548,0.451701,-3.47188
-343,-524,0.680481,3.95642,0,0,0,0,0,0,0,-1,881,1548,0.680451,-3.95642
-336,-524,0.690979,4.10779,0,0,0,0,0,0,0,-1,888,1548,0.690983,-4.10778
-329,-524,0.0322266,3.83826,0,0,0,0,0,0,0,-1,895,1548,0.0322462,-3.8382
-322,-524,0.0241089,4.3689,0.020241,0.0378188,0.00644076,0.0399262,0.0181337,1.25459,0.0230836,0.0498437,902,1548,0.0241363,-4.36895
-315,-524,0.157043,4.32239,0.020704,0.0451447,0.00864879,0.0478956,0.017953,1.26285,0.0279399,0.0494509,909,1548,0.157058,-4.32241
-308,-524,0.355652,4.63574,0,0,0,0,0,0,0,-1,916,1548,0.355674,-4.63575
-301,-524,0.438416,6.04651,0.0178616,0.063413,0.0119391,0.0663526,0.014922,1.32939,0.0401952,0.0444611,923,1548,0.438388,-6.04656
-294,-524,0.441589,6.64478,0.0132218,0.0755137,0.011627,0.0776132,0.0111224,1.39215,0.048462,0.0473615,930,1548,0.441568,-6.64475
-287,-524,0.137634,6.65637,0.0051815,0.0893889,0.00985309,0.0905264,0.00404396,1.45586,0.0590491,0.0450875,937,1548,0.137618,-6.65631
-280,-524,0.0291138,6.81787,0,0,0,0,0,0,0,-1,944,1548,0.0290959,-6.81786
-273,-524,0,0,0,0,0,0,0,0,0,-1,951,1548,0,0
-266,-524,0,0,0,0,0,0,0,0,0,-1,958,1548,0,0
-259,-524,0,0,0,0,0,0,0,0,0,-1,965,1548,0,0
-252,-524,0,0,0,0,0,0,0,0,0,-1,972,1548,0,0
-245,-524,0,0,0,0,0,0,0,0,0,-1,979,1548,0,0
-238,-524,0,0,0,0,0,0,0,0,0,-1,986,1548,0,0
-231,-524,0,0,0,0,0,0,0,0,0,-1,993,1548,0,0
-224,-524,0,0,0,0,0,0,0,0,0,-1,1000,1548,0,0
-217,-524,0,0,0,0,0,0,0,0,0,-1,1007,1548,0,0
-210,-524,0,0,0,0,0,0,0,0,0,-1,1014,1548,0,0
-203,-524,0,0,0,0,0,0,0,0,0,-1,1021,1548,0,0
-196,-524,0,0,0,0,0,0,0,0,0,-1,1028,1548,0,0
-189,-524,0,0,0,0,0,0,0,0,0,-1,1035,1548,0,0
-182,-524,0,0,0,0,0,0,0,0,0,-1,1042,1548,0,0
-175,-524,0,0,0,0,0,0,0,0,0,-1,1049,1548,0,0
-168,-524,0,0,0,0,0,0,0,0,0,-1,1056,1548,0,0
-161,-524,0,0,0,0,0,0,0,0,0,-1,1063,1548,0,0
-154,-524,0,0,0,0,0,0,0,0,0,-1,1070,1548,0,0
-147,-524,0,0,0,0,0,0,0,0,0,-1,1077,1548,0,0
-140,-524,0,0,0,0,0,0,0,0,0,-1,1084,1548,0,0
-133,-524,0,0,0,0,0,0,0,0,0,-1,1091,1548,0,0
-126,-524,0,0,0,0,0,0,0,0,0,-1,1098,1548,0,0
-119,-524,0,0,0,0,0,0,0,0,0,-1,1105,1548,0,0
-112,-524,0,0,0,0,0,0,0,0,0,-1,1112,1548,0,0
-105,-524,0,0,0,0,0,0,0,0,0,-1,1119,1548,0,0
-98,-524,0,0,0,0,0,0,0,0,0,-1,1126,1548,0,0
-91,-524,0,0,0,0,0,0,0,0,0,-1,1133,1548,0,0
-84,-524,0,0,0,0,0,0,0,0,0,-1,1140,1548,0,0
-77,-524,0,0,0,0,0,0,0,0,0,-1,1147,1548,0,0
-70,-524,0,0,0,0,0,0,0,0,0,-1,1154,1548,0,0
-63,-524,0,0,0,0,0,0,0,0,0,-1,1161,1548,0,0
-56,-524,0,0,0,0,0,0,0,0,0,-1,1168,1548,0,0
-49,-524,0,0,0,0,0,0,0,0,0,-1,1175,1548,0,0
-42,-524,0,0,0,0,0,0,0,0,0,-1,1182,1548,0,0
-35,-524,0,0,0,0,0,0,0,0,0,-1,1189,1548,0,0
-28,-524,0,0,0,0,0,0,0,0,0,-1,1196,1548,0,0
-21,-524,0,0,0,0,0,0,0,0,0,-1,1203,1548,0,0
-14,-524,0,0,0,0,0,0,0,0,0,-1,1210,1548,0,0
-7,-524,0,0,0,0,0,0,0,0,0,-1,1217,1548,0,0
0,-524,0,0,0,0,0,0,0,0,0,-1,1224,1548,0,0
7,-524,0,0,0,0,0,0,0,0,0,-1,1231,1548,0,0
14,-524,0,0,0,0,0,0,0,0,0,-1,1238,1548,0,0
21,-524,0,0,0,0,0,0,0,0,0,-1,1245,1548,0,0
28,-524,0,0,0,0,0,0,0,0,0,-1,1252,1548,0,0
35,-524,0,0,0,0,0,0,0,0,0,-1,1259,1548,0,0
42,-524,0,0,0,0,0,0,0,0,0,-1,1266,1548,0,0
49,-524,0,0,0,0,0,0,0,0,0,-1,1273,1548,0,0
56,-524,0,0,0,0,0,0,0,0,0,-1,1280,1548,0,0
63,-524,0,0,0,0,0,0,0,0,0,-1,1287,1548,0,0
70,-524,0,0,0,0,0,0,0,0,0,-1,1294,1548,0,0
77,-524,0,0,0,0,0,0,0,0,0,-1,1301,1548,0,0
84,-524,0,0,0,0,0,0,0,0,0,-1,1308,1548,0,0
91,-524,0,0,0,0,0,0,0,0,0,-1,1315,1548,0,0
98,-524,0,0,0,0,0,0,0,0,0,-1,1322,1548,0,0
105,-524,0,0,0,0,0,0,0,0,0,-1,1329,1548,0,0
112,-524,0,0,0,0,0,0,0,0,0,-1,1336,1548,0,0
119,-524,0,0,0,0,0,0,0,0,0,-1,1343,1548,0,0
126,-524,0,0,0,0,0,0,0,0,0,-1,1350,1548,0,0
133,-524,0,0,0,0,0,0,0,0,0,-1,1357,1548,0,0
140,-524,0,0,0,0,0,0,0,0,0,-1,1364,1548,0,0
147,-524,0,0,0,0,0,0,0,0,0,-1,1371,1548,0,0
154,-524,0,0,0,0,0,0,0,0,0,-1,1378,1548,0,0
161,-524,0,0,0,0,0,0,0,0,0,-1,1385,1548,0,0
168,-524,0,0,0,0,0,0,0,0,0,-1,1392,1548,0,0
175,-524,0,0,0,0,0,0,0,0,0,-1,1399,1548,0,0
182,-524,0,0,0,0,0,0,0,0,0,-1,1406,1548,0,0
189,-524,0,0,0,0,0,0,0,0,0,-1,1413,1548,0,0
196,-524,0,0,0,0,0,0,0,0,0,-1,1420,1548,0,0
203,-524,0,0,0,0,0,0,0,0,0,-1,1427,1548,0,0
210,-524,0,0,0,0,0,0,0,0,0,-1,1434,1548,0,0
217,-524,0,0,0,0,0,0,0,0,0,-1,1441,1548,0,0
224,-524,0,0,0,0,0,0,0,0,0,-1,1448,1548,0,0
231,-524,0,0,0,0,0,0,0,0,0,-1,1455,1548,0,0
238,-524,0,0,0,0,0,0,0,0,0,-1,1462,1548,0,0
245,-524,0,0,0,0,0,0,0,0,0,-1,1469,1548,0,0
252,-524,0,0,0,0,0,0,0,0,0,-1,1476,1548,0,0
259,-524,0,0,0,0,0,0,0,0,0,-1,1483,1548,0,0
266,-524,0,0,0,0,0,0,0,0,0,-1,1490,1548,0,0
273,-524,0,0,0,0,0,0,0,0,0,-1,1497,1548,0,0
280,-524,0,0,0,0,0,0,0,0,0,-1,1504,1548,0,0
287,-524,0,0,0,0,0,0,0,0,0,-1,1511,1548,0,0
294,-524,0,0,0,0,0,0,0,0,0,-1,1518,1548,0,0
301,-524,0,0,0,0,0,0,0,0,0,-1,1525,1548,0,0
308,-524,0,0,0,0,0,0,0,0,0,-1,1532,1548,0,0
315,-524,0,0,0,0,0,0,0,0,0,-1,1539,1548,0,0
322,-524,0,0,0,0,0,0,0,0,0,-1,1546,1548,0,0
329,-524,0,0,0,0,0,0,0,0,0,-1,1553,1548,0,0
336,-524,0,0,0,0,0,0,0,0,0,-1,1560,1548,0,0
343,-524,0,0,0,0,0,0,0,0,0,-1,1567,1548,0,0
350,-524,0,0,0,0,0,0,0,0,0,-1,1574,1548,0,0
357,-524,0,0,0,0,0,0,0,0,0,-1,1581,1548,0,0
364,-524,0,0,0,0,0,0,0,0,0,-1,1588,1548,0,0
371,-524,0,0,0,0,0,0,0,0,0,-1,1595,1548,0,0
378,-524,0,0,0,0,0,0,0,0,0,-1,1602,1548,0,0
385,-524,0,0,0,0,0,0,0,0,0,-1,1609,1548,0,0
392,-524,0,0,0,0,0,0,0,0,0,-1,1616,1548,0,0
399,-524,6.72632,3.82971,0,0,0,0,0,0,0,-1,1623,1548,6.72638,-3.82973
406,-524,6.46191,3.7793,-0.040969,0.11651,-0.00143053,0.116523,-0.040982,-1.56171,0.0943572,0.0466853,1630,1548,6.46188,-3.77931
413,-524,6.47742,3.15991,-0.0450607,0.0971352,0.000605703,0.0971377,-0.0450632,1.56654,0.0839147,0.0467722,1637,1548,6.4774,-3.15994
420,-524,6.31763,2.34741,-0.0501145,0.0743381,0.0026195,0.0743932,-0.0501696,1.54976,0.0723683,0.0493907,1644,1548,6.31763,-2.34738
427,-524,11.1649,0.833008,0,0,0,0,0,0,0,-1,1651,1548,11.1649,-0.83295
434,-524,9.97388,1.38098,-0.0550921,0.0353055,0.00630584,0.0357432,-0.0555299,1.50149,0.0531077,0.0466897,1658,1548,9.97384,-1.38098
441,-524,8.91223,2.13489,-0.0545539,0.0190402,0.00723896,0.0197455,-0.0552592,1.47367,0.0448929,0.0441472,1665,1548,8.91224,-2.13483
448,-524,7.50549,1.71631,-0.0517919,0.00535012,0.00829148,0.00652892,-0.0529707,1.42957,0.0376791,0.0450699,1672,1548,7.50549,-1.71633
455,-524,6.67139,1.40576,-0.0483208,-0.00463227,0.00889459,-0.00289083,-0.0500622,1.37746,0.0324542,0.0423572,1679,1548,6.67139,-1.40575
462,-524,4.29053,1.24097,-0.0436933,-0.0131755,0.00992144,-0.0102336,-0.0466352,1.28254,0.0283025,0.0421942,1686,1548,4.29054,-1.24093
469,-524,4.12512,2.00159,-0.0374936,-0.0185561,0.0112665,-0.0133078,-0.0427418,1.13486,0.0252557,0.0463373,1693,1548,4.12516,-2.00154
476,-524,3.8136,2.47302,-0.0301993,-0.0209823,0.0124309,-0.0123331,-0.0388485,0.962909,0.022922,0.0458226,1700,1548,3.81356,-2.47298
483,-524,3.55078,2.91211,-0.0218443,-0.0187649,0.0126778,-0.00753359,-0.0330756,0.845827,0.0200175,0.0454401,1707,1548,3.55084,-2.91215
490,-524,3.57922,3.28857,-0.0142452,-0.015045,0.0130207,-0.00161828,-0.0276719,0.770046,0.0179329,0.0402503,1714,1548,3.57921,-3.28861
497,-524,3.86365,3.29675,-0.00812843,-0.0109869,0.0126206,0.0031436,-0.022259,0.729015,0.0159905,0.0265571,1721,1548,3.86359,-3.29672
504,-524,3.89758,3.26611,-0.00390836,-0.00847866,0.0117978,0.00582354,-0.0182106,0.689736,0.0144774,0.0155027,1728,1548,3.89758,-3.26607
511,-524,3.89319,3.2085,-0.000864091,-0.00606861,0.0102509,0.00710973,-0.0140424,0.661096,0.0124289,0.0157959,1735,1548,3.8932,-3.20855
518,-524,3.89575,3.12878,8.14377e-05,-0.00341597,0.00850396,0.00701463,-0.0103492,0.683995,0.0100864,0.0145238,1742,1548,3.8958,-3.12877
525,-524,3.91345,3.07288,0.000403086,-0.00114042,0.0060085,0.0056892,-0.00642653,0.721526,0.00699933,0.0127879,1749,1548,3.91343,-3.07293
532,-524,3.92371,3.0061,0.000534856,0.000368008,0.00385213,0.00430446,-0.0034016,0.774572,0.00445926,0.00983619,1756,1548,3.92365,-3.00606
539,-524,3.92371,2.92871,0.000427195,0.000891104,0.00215303,0.00282464,-0.00150634,0.839058,0.00253881,0.0101081,1763,1548,3.92376,-2.92873
546,-524,3.92798,2.84949,0.000349495,0.00115646,0.000837148,0.00168229,-0.000176332,1.00996,0.00118468,0.0130196,1770,1548,3.92793,-2.84946
553,-524,3.92358,2.78552,0.000576579,0.00150277,-0.000337444,0.00161267,0.000466677,-1.25594,0.000958214,0.0223384,1777,1548,3.92355,-2.7855
560,-524,3.92834,2.74219,0.00114217,0.00178923,-0.00138059,0.00288369,4.77089e-05,-0.900493,0.00190676,0.0331142,1784,1548,3.92833,-2.74215
567,-524,3.9281,2.70203,0.00174484,0.00260531,-0.0018999,0.00412308,0.00022707,-0.896747,0.00267624,0.0182502,1791,1548,3.92814,-2.70201
574,-524,3.91528,2.64832,0.00324529,0.0035168,-0.00178906,0.00517525,0.00158684,-0.823266,0.00306152,0.0121456,1798,1548,3.91526,-2.64833
581,-524,3.90625,2.56384,0.00584061,0.00464714,-0.00160683,0.00695793,0.00352982,-0.607604,0.0040173,0.0139856,1805,1548,3.90629,-2.56378
588,-524,3.92627,2.48816,0.00815615,0.00572153,-0.00136999,0.00877152,0.00510616,-0.422171,0.00508696,0.0145379,1812,1548,3.92622,-2.48817
595,-524,3.92578,2.44202,0.0106593,0.00629169,-0.000945671,0.0108553,0.00609573,-0.20433,0.00628309,0.0148951,1819,1548,3.92584,-2.44205
602,-524,3.87866,2.32764,0.0134122,0.00621293,-0.000453156,0.0134406,0.00618452,-0.0626155,0.00776814,0.0295337,1826,1548,3.87865,-2.3276
609,-524,3.81738,2.13953,0.0174196,0.00517419,0.000259243,0.017425,0.00516871,0.0211581,0.010334,0.0436535,1833,1548,3.81741,-2.13954
616,-524,3.62805,1.69482,0.0246923,0.0048031,0.000693393,0.0247164,0.00477896,0.0348065,0.0151382,0.0421857,1840,1548,3.62802,-1.69479
623,-524,3.64282,1.99841,0.0314485,0.00279435,0.00164483,0.0315426,0.00270024,0.0571525,0.0201886,0.0422813,1847,1548,3.64277,-1.99836
630,-524,5.28601,2.43384,0.0395162,-0.000853673,0.00250663,0.0396713,-0.00100872,0.0617753,0.0267901,0.0468461,1854,1548,5.28598,-2.43383
637,-524,6.82788,3.06335,0,0,0,0,0,0,0,-1,1861,1548,6.82794,-3.06339
644,-524,8.55444,3.07642,0,0,0,0,0,0,0,-1,1868,1548,8.55446,-3.07642
651,-524,0,0,0,0,0,0,0,0,0,-1,1875,1548,0,0
658,-524,0,0,0,0,0,0,0,0,0,-1,1882,1548,0,0
665,-524,0,0,0,0,0,0,0,0,0,-1,1889,1548,0,0
672,-524,0,0,0,0,0,0,0,0,0,-1,1896,1548,0,0
679,-524,0,0,0,0,0,0,0,0,0,-1,1903,1548,0,0
686,-524,0,0,0,0,0,0,0,0,0,-1,1910,1548,0,0
693,-524,0,0,0,0,0,0,0,0,0,-1,1917,1548,0,0
700,-524,0,0,0,0,0,0,0,0,0,-1,1924,1548,0,0
707,-524,0,0,0,0,0,0,0,0,0,-1,1931,1548,0,0
714,-524,0,0,0,0,0,0,0,0,0,-1,1938,1548,0,0
721,-524,0,0,0,0,0,0,0,0,0,-1,1945,1548,0,0
728,-524,0,0,0,0,0,0,0,0,0,-1,1952,1548,0,0
735,-524,0,0,0,0,0,0,0,0,0,-1,1959,1548,0,0
742,-524,0,0,0,0,0,0,0,0,0,-1,1966,1548,0,0
749,-524,0,0,0,0,0,0,0,0,0,-1,1973,1548,0,0
756,-524,0,0,0,0,0,0,0,0,0,-1,1980,1548,0,0
763,-524,0,0,0,0,0,0,0,0,0,-1,1987,1548,0,0
770,-524,0,0,0,0,0,0,0,0,0,-1,1994,1548,0,0
777,-524,0,0,0,0,0,0,0,0,0,-1,2001,1548,0,0
784,-524,0,0,0,0,0,0,0,0,0,-1,2008,1548,0,0
791,-524,0,0,0,0,0,0,0,0,0,-1,2015,1548,0,0
798,-524,0,0,0,0,0,0,0,0,0,-1,2022,1548,0,0
805,-524,0,0,0,0,0,0,0,0,0,-1,2029,1548,0,0
812,-524,0,0,0,0,0,0,0,0,0,-1,2036,1548,0,0
-700,-531,0,0,0,0,0,0,0,0,0,-1,524,1555,0,0
-693,-531,0,0,0,0,0,0,0,0,0,-1,531,1555,0,0
-686,-531,0,0,0,0,0,0,0,0,0,-1,538,1555,0,0
-679,-531,0,0,0,0,0,0,0,0,0,-1,545,1555,0,0
-672,-531,0,0,0,0,0,0,0,0,0,-1,552,1555,0,0
-665,-531,0,0,0,0,0,0,0,0,0,-1,559,1555,0,0
-658,-531,0,0,0,0,0,0,0,0,0,-1,566,1555,0,0
-651,-531,0,0,0,0,0,0,0,0,0,-1,573,1555,0,0
-644,-531,0,0,0,0,0,0,0,0,0,-1,580,1555,0,0
-637,-531,0,0,0,0,0,0,0,0,0,-1,587,1555,0,0
-630,-531,0,0,0,0,0,0,0,0,0,-1,594,1555,0,0
-623,-531,0,0,0,0,0,0,0,0,0,-1,601,1555,0,0
-616,-531,0,0,0,0,0,0,0,0,0,-1,608,1555,0,0
-609,-531,0,0,0,0,0,0,0,0,0,-1,615,1555,0,0
-602,-531,0,0,0,0,0,0,0,0,0,-1,622,1555,0,0
-595,-531,0,0,0,0,0,0,0,0,0,-1,629,1555,0,0
-588,-531,0,0,0,0,0,0,0,0,0,-1,636,1555,0,0
-581,-531,0,0,0,0,0,0,0,0,0,-1,643,1555,0,0
-574,-531,0,0,0,0,0,0,0,0,0,-1,650,1555,0,0
-567,-531,0,0,0,0,0,0,0,0,0,-1,657,1555,0,0
-560,-531,0,0,0,0,0,0,0,0,0,-1,664,1555,0,0
-553,-531,0,0,0,0,0,0,0,0,0,-1,671,1555,0,0
-546,-531,0,0,0,0,0,0,0,0,0,-1,678,1555,0,0
-539,-531,0,0,0,0,0,0,0,0,0,-1,685,1555,0,0
-532,-531,0,0,0,0,0,0,0,0,0,-1,692,1555,0,0
-525,-531,0,0,0,0,0,0,0,0,0,-1,699,1555,0,0
-518,-531,-0.16626,3.34692,0,0,0,0,0,0,0,-1,706,1555,-0.166254,-3.34693
-511,-531,0.762756,2.86194,0,0,0,0,0,0,0,-1,713,1555,0.762737,-2.86188
-504,-531,2.69049,1.55469,0,0,0,0,0,0,0,-1,720,1555,2.69047,-1.55466
-497,-531,3.99451,0.398071,0.0112105,0.0116268,-0.0327411,0.0441605,-0.0213231,-0.788577,0.0385657,0.0479144,727,1555,3.99449,-0.398115
-490,-531,1.51727,1.95789,0,0,0,0,0,0,0,-1,734,1555,1.51729,-1.95793
-483,-531,1.00568,1.75867,0,0,0,0,0,0,0,-1,741,1555,1.00566,-1.75862
-476,-531,1.18665,2.04724,0,0,0,0,0,0,0,-1,748,1555,1.18665,-2.04718
-469,-531,1.31067,2.13965,-0.00651705,0.0103394,-0.00916938,0.0143656,-0.0105432,-1.15705,0.0144375,0.0406661,755,1555,1.31068,-2.13963
-462,-531,1.08594,2.10168,-0.00788662,0.00912475,-0.00555561,0.0107784,-0.00954024,-1.2815,0.0117382,0.0360179,762,1555,1.08596,-2.10163
-455,-531,1.00189,2.276,-0.00701463,0.00804498,-0.00288947,0.00858035,-0.00754999,-1.38759,0.00931919,0.0244825,769,1555,1.00189,-2.276
-448,-531,1.01532,2.349,-0.00701614,0.00683425,-0.000452221,0.006849,-0.00703089,-1.53819,0.00801379,0.0118659,776,1555,1.01532,-2.34899
-441,-531,0.98877,2.4314,-0.00562318,0.00553178,0.00054284,0.00555813,-0.00564954,1.52229,0.00647082,0.0113759,783,1555,0.988756,-2.4314
-434,-531,0.986694,2.49402,-0.00411243,0.00437088,0.000808495,0.00444724,-0.00418879,1.47662,0.00498676,0.0110479,790,1555,0.986719,-2.49407
-427,-531,1.00513,2.53113,-0.00262865,0.00324685,0.000998588,0.00341193,-0.00279373,1.40696,0.00358876,0.0128226,797,1555,1.00515,-2.53113
-420,-531,0.987183,2.60559,-0.00130743,0.00223696,0.00102649,0.00251278,-0.00158324,1.3083,0.00238505,0.011528,804,1555,0.987202,-2.60565
-413,-531,1.0108,2.69336,-0.000378019,0.00107216,0.000851859,0.00146574,-0.000771597,1.13799,0.00131229,0.00973284,811,1555,1.01082,-2.69336
-406,-531,1.02972,2.74695,0.000676831,0.000354081,0.000551061,0.00108966,-5.87477e-05,0.642959,0.000746793,0.0113346,818,1555,1.0297,-2.74691
-399,-531,1.02191,2.79944,0.00184802,-5.21912e-06,-0.000229287,0.00187597,-3.31656e-05,-0.121286,0.00126185,0.0132379,825,1555,1.0219,-2.79944
-392,-531,1.02094,2.87158,0.0027645,0.000160002,-0.000895734,0.00304281,-0.000118317,-0.301258,0.00206911,0.0172155,832,1555,1.02095,-2.87163
-385,-531,1.00562,2.94788,0.00327409,0.00112805,-0.00123229,0.00383506,0.000567085,-0.427188,0.00239021,0.014663,839,1555,1.00561,-2.94782
-378,-531,1.00427,3.01697,0.00387297,0.00242184,-0.00140695,0.00473043,0.00156439,-0.547333,0.0027828,0.00915541,846,1555,1.00427,-3.01693
-371,-531,1.01349,3.08521,0.00475592,0.00420564,-0.00148555,0.00599159,0.00296996,-0.69383,0.00345929,0.00975449,853,1555,1.01349,-3.08517
-364,-531,1.02368,3.15015,0.00619103,0.00722297,-0.0015713,0.00836084,0.00505316,-0.944039,0.00486207,0.0190017,860,1555,1.0237,-3.1502
-357,-531,0.97168,3.20105,0.00850227,0.00950845,-0.000922141,0.0100558,0.00795491,-1.03512,0.00612488,0.0305382,867,1555,0.971661,-3.20103
-350,-531,0.877441,3.4281,0.0102056,0.0122638,-0.000100806,0.0122687,0.0102007,-1.52197,0.00758438,0.0368241,874,1555,0.877452,-3.42812
-343,-531,0.806458,3.75488,0.0114701,0.017165,0.00108516,0.0173648,0.0112703,1.38874,0.0101729,0.0420676,881,1555,0.80648,-3.75488
-336,-531,0.819336,3.92627,0.0128936,0.0229597,0.00210356,0.0233816,0.0124717,1.37285,0.0135094,0.0456501,888,1555,0.819352,-3.9263
-329,-531,0.447632,3.95337,0.0148961,0.0283213,0.00363425,0.0292419,0.0139754,1.32268,0.0168883,0.0484693,895,1555,0.447659,-3.95341
-322,-531,0.252502,4.39612,0.0167214,0.0346111,0.00530243,0.0360646,0.0152679,1.30324,0.0209033,0.0475406,902,1555,0.252488,-4.39615
-315,-531,0.260925,4.98511,0,0,0,0,0,0,0,-1,909,1555,0.260924,-4.98512
-308,-531,0.404846,5.06616,0,0,0,0,0,0,0,-1,916,1555,0.404822,-5.06612
-301,-531,0.516479,5.77026,0.0160185,0.0584727,0.00787806,0.0598875,0.0146038,1.39311,0.0360567,0.0442863,923,1555,0.51648,-5.77025
-294,-531,0.642822,6.4187,0.011754,0.068691,0.00699942,0.0695388,0.0109062,1.45025,0.0431853,0.0490102,930,1555,0.64284,-6.41868
-287,-531,0.247437,5.73523,0.00374317,0.0798603,0.00471426,0.0801511,0.0034523,1.50918,0.0523213,0.0490342,937,1555,0.247416,-5.73523
-280,-531,0.169617,5.94714,0,0,0,0,0,0,0,-1,944,1555,0.16963,-5.94719
-273,-531,1.19971,5.99963,0,0,0,0,0,0,0,-1,951,1555,1.1997,-5.99969
-266,-531,-3.47699,8.97681,0,0,0,0,0,0,0,-1,958,1555,-3.47701,-8.97682
-259,-531,0,0,0,0,0,0,0,0,0,-1,965,1555,0,0
-252,-531,0,0,0,0,0,0,0,0,0,-1,972,1555,0,0
-245,-531,0,0,0,0,0,0,0,0,0,-1,979,1555,0,0
-238,-531,0,0,0,0,0,0,0,0,0,-1,986,1555,0,0
-231,-531,0,0,0,0,0,0,0,0,0,-1,993,1555,0,0
-224,-531,0,0,0,0,0,0,0,0,0,-1,1000,1555,0,0
-217,-531,0,0,0,0,0,0,0,0,0,-1,1007,1555,0,0
-210,-531,0,0,0,0,0,0,0,0,0,-1,1014,1555,0,0
-203,-531,0,0,0,0,0,0,0,0,0,-1,1021,1555,0,0
-196,-531,0,0,0,0,0,0,0,0,0,-1,1028,1555,0,0
-189,-531,0,0,0,0,0,0,0,0,0,-1,1035,1555,0,0
-182,-531,0,0,0,0,0,0,0,0,0,-1,1042,1555,0,0
-175,-531,0,0,0,0,0,0,0,0,0,-1,1049,1555,0,0
-168,-531,0,0,0,0,0,0,0,0,0,-1,1056,1555,0,0
-161,-531,0,0,0,0,0,0,0,0,0,-1,1063,1555,0,0
-154,-531,0,0,0,0,0,0,0,0,0,-1,1070,1555,0,0
-147,-531,0,0,0,0,0,0,0,0,0,-1,1077,1555,0,0
-140,-531,0,0,0,0,0,0,0,0,0,-1,1084,1555,0,0
-133,-531,0,0,0,0,0,0,0,0,0,-1,1091,1555,0,0
-126,-531,0,0,0,0,0,0,0,0,0,-1,1098,1555,0,0
-119,-531,0,0,0,0,0,0,0,0,0,-1,1105,1555,0,0
-112,-531,0,0,0,0,0,0,0,0,0,-1,1112,1555,0,0
-105,-531,0,0,0,0,0,0,0,0,0,-1,1119,1555,0,0
-98,-531,0,0,0,0,0,0,0,0,0,-1,1126,1555,0,0
-91,-531,0,0,0,0,0,0,0,0,0,-1,1133,1555,0,0
-84,-531,0,0,0,0,0,0,0,0,0,-1,1140,1555,0,0
-77,-531,0,0,0,0,0,0,0,0,0,-1,1147,1555,0,0
-70,-531,0,0,0,0,0,0,0,0,0,-1,1154,1555,0,0
-63,-531,0,0,0,0,0,0,0,0,0,-1,1161,1555,0,0
-56,-531,0,0,0,0,0,0,0,0,0,-1,1168,1555,0,0
-49,-531,0,0,0,0,0,0,0,0,0,-1,1175,1555,0,0
-42,-531,0,0,0,0,0,0,0,0,0,-1,1182,1555,0,0
-35,-531,0,0,0,0,0,0,0,0,0,-1,1189,1555,0,0
-28,-531,0,0,0,0,0,0,0,0,0,-1,1196,1555,0,0
-21,-531,0,0,0,0,0,0,0,0,0,-1,1203,1555,0,0
-14,-531,0,0,0,0,0,0,0,0,0,-1,1210,1555,0,0
-7,-531,0,0,0,0,0,0,0,0,0,-1,1217,1555,0,0
0,-531,0,0,0,0,0,0,0,0,0,-1,1224,1555,0,0
7,-531,0,0,0,0,0,0,0,0,0,-1,1231,1555,0,0
14,-531,0,0,0,0,0,0,0,0,0,-1,1238,1555,0,0
21,-531,0,0,0,0,0,0,0,0,0,-1,1245,1555,0,0
28,-531,0,0,0,0,0,0,0,0,0,-1,1252,1555,0,0
35,-531,0,0,0,0,0,0,0,0,0,-1,1259,1555,0,0
42,-531,0,0,0,0,0,0,0,0,0,-1,1266,1555,0,0
49,-531,0,0,0,0,0,0,0,0,0,-1,1273,1555,0,0
56,-531,0,0,0,0,0,0,0,0,0,-1,1280,1555,0,0
63,-531,0,0,0,0,0,0,0,0,0,-1,1287,1555,0,0
70,-531,0,0,0,0,0,0,0,0,0,-1,1294,1555,0,0
77,-531,0,0,0,0,0,0,0,0,0,-1,1301,1555,0,0
84,-531,0,0,0,0,0,0,0,0,0,-1,1308,1555,0,0
91,-531,0,0,0,0,0,0,0,0,0,-1,1315,1555,0,0
98,-531,0,0,0,0,0,0,0,0,0,-1,1322,1555,0,0
105,-531,0,0,0,0,0,0,0,0,0,-1,1329,1555,0,0
112,-531,0,0,0,0,0,0,0,0,0,-1,1336,1555,0,0
119,-531,0,0,0,0,0,0,0,0,0,-1,1343,1555,0,0
126,-531,0,0,0,0,0,0,0,0,0,-1,1350,1555,0,0
133,-531,0,0,0,0,0,0,0,0,0,-1,1357,1555,0,0
140,-531,0,0,0,0,0,0,0,0,0,-1,1364,1555,0,0
147,-531,0,0,0,0,0,0,0,0,0,-1,1371,1555,0,0
154,-531,0,0,0,0,0,0,0,0,0,-1,1378,1555,0,0
161,-531,0,0,0,0,0,0,0,0,0,-1,1385,1555,0,0
168,-531,0,0,0,0,0,0,0,0,0,-1,1392,1555,0,0
175,-531,0,0,0,0,0,0,0,0,0,-1,1399,1555,0,0
182,-531,0,0,0,0,0,0,0,0,0,-1,1406,1555,0,0
189,-531,0,0,0,0,0,0,0,0,0,-1,1413,1555,0,0
196,-531,0,0,0,0,0,0,0,0,0,-1,1420,1555,0,0
203,-531,0,0,0,0,0,0,0,0,0,-1,1427,1555,0,0
210,-531,0,0,0,0,0,0,0,0,0,-1,1434,1555,0,0
217,-531,0,0,0,0,0,0,0,0,0,-1,1441,1555,0,0
224,-531,0,0,0,0,0,0,0,0,0,-1,1448,1555,0,0
231,-531,0,0,0,0,0,0,0,0,0,-1,1455,1555,0,0
238,-531,0,0,0,0,0,0,0,0,0,-1,1462,1555,0,0
245,-531,0,0,0,0,0,0,0,0,0,-1,1469,1555,0,0
252,-531,0,0,0,0,0,0,0,0,0,-1,1476,1555,0,0
259,-531,0,0,0,0,0,0,0,0,0,-1,1483,1555,0,0
266,-531,0,0,0,0,0,0,0,0,0,-1,1490,1555,0,0
273,-531,0,0,0,0,0,0,0,0,0,-1,1497,1555,0,0
280,-531,0,0,0,0,0,0,0,0,0,-1,1504,1555,0,0
287,-531,0,0,0,0,0,0,0,0,0,-1,1511,1555,0,0
294,-531,0,0,0,0,0,0,0,0,0,-1,1518,1555,0,0
301,-531,0,0,0,0,0,0,0,0,0,-1,1525,1555,0,0
308,-531,0,0,0,0,0,0,0,0,0,-1,1532,1555,0,0
315,-531,0,0,0,0,0,0,0,0,0,-1,1539,1555,0,0
322,-531,0,0,0,0,0,0,0,0,0,-1,1546,1555,0,0
329,-531,0,0,0,0,0,0,0,0,0,-1,1553,1555,0,0
336,-531,0,0,0,0,0,0,0,0,0,-1,1560,1555,0,0
343,-531,0,0,0,0,0,0,0,0,0,-1,1567,1555,0,0
350,-531,0,0,0,0,0,0,0,0,0,-1,1574,1555,0,0
357,-531,0,0,0,0,0,0,0,0,0,-1,1581,1555,0,0
364,-531,0,0,0,0,0,0,0,0,0,-1,1588,1555,0,0
371,-531,0,0,0,0,0,0,0,0,0,-1,1595,1555,0,0
378,-531,0,0,0,0,0,0,0,0,0,-1,1602,1555,0,0
385,-531,5.94495,3.45117,0,0,0,0,0,0,0,-1,1609,1555,5.945,-3.45119
392,-531,6.08716,3.2229,0,0,0,0,0,0,0,-1,1616,1555,6.08721,-3.22287
399,-531,6.3844,2.97595,0,0,0,0,0,0,0,-1,1623,1555,6.38441,-2.97592
406,-531,6.4541,3.09009,0,0,0,0,0,0,0,-1,1630,1555,6.4541,-3.09008
413,-531,5.96265,2.44153,-0.0399471,0.095964,0.00953058,0.096629,-0.0406122,1.50113,0.0814066,0.0437621,1637,1555,5.9626,-2.44148
420,-531,5.74768,1.6416,-0.0441425,0.0749355,0.0100252,0.0757736,-0.0449806,1.48739,0.0704691,0.0469344,1644,1555,5.74774,-1.64164
427,-531,6.02283,1.03479,0,0,0,0,0,0,0,-1,1651,1555,6.02279,-1.03473
434,-531,10.5646,1.7655,0,0,0,0,0,0,0,-1,1658,1555,10.5645,-1.76547
441,-531,9.04712,2.34949,-0.0484189,0.0220505,0.0105454,0.0235947,-0.0499631,1.42539,0.0433687,0.0461283,1665,1555,9.04716,-2.34949
448,-531,7.87317,2.09814,-0.0464225,0.00809321,0.0102425,0.00995407,-0.0482834,1.39108,0.035969,0.0464612,1672,1555,7.87318,-2.09811
455,-531,7.0332,1.90491,-0.043916,-0.00210645,0.00953142,-3.60757e-05,-0.0459864,1.3569,0.0306456,0.0462099,1679,1555,7.03315,-1.90492
462,-531,5.72754,2.32104,-0.0401157,-0.0108532,0.00943461,-0.00807512,-0.0428938,1.28443,0.0263203,0.0435298,1686,1555,5.72755,-2.32102
469,-531,4.84448,3.04736,0,0,0,0,0,0,0,-1,1693,1555,4.8445,-3.0474
476,-531,3.82642,3.29407,0,0,0,0,0,0,0,-1,1700,1555,3.82636,-3.29411
483,-531,3.73193,3.27905,-0.0204657,-0.0176364,0.00999132,-0.00896008,-0.029142,0.855724,0.017236,0.0415615,1707,1555,3.73198,-3.27903
490,-531,3.77039,3.3717,-0.0132817,-0.0142788,0.0100713,-0.00369658,-0.0238639,0.760668,0.0148314,0.0292506,1714,1555,3.77034,-3.37175
497,-531,3.82495,3.30164,-0.00745525,-0.0106332,0.0096382,0.000724096,-0.0188125,0.703703,0.0127899,0.0134637,1721,1555,3.82496,-3.3016
504,-531,3.83215,3.25122,-0.00340496,-0.00824714,0.00894078,0.00343674,-0.0150888,0.653174,0.0113791,0.0110719,1728,1555,3.83213,-3.25123
511,-531,3.83228,3.18872,-0.000470872,-0.00593874,0.00761143,0.00488273,-0.0112924,0.61298,0.00957997,0.0137672,1735,1555,3.83233,-3.18877
518,-531,3.84204,3.1449,0.000598021,-0.00340924,0.00616175,0.00507372,-0.00788494,0.628204,0.00754014,0.0141725,1742,1555,3.84209,-3.14492
525,-531,3.8562,3.07861,0.000884186,-0.00132427,0.00415469,0.00407888,-0.00451897,0.655512,0.00496614,0.0128994,1749,1555,3.85616,-3.07861
532,-531,3.86621,3.00488,0.00116487,0.000270817,0.00237276,0.00313235,-0.00169666,0.69229,0.00282881,0.0095233,1756,1555,3.86625,-3.00487
539,-531,3.86877,2.93066,0.00140327,0.00110162,0.000844625,0.00211043,0.00039446,0.697044,0.00129564,0.0111057,1763,1555,3.86883,-2.93072
546,-531,3.85266,2.84827,0.00162206,0.0017066,-0.000422883,0.00208932,0.00123934,-0.835211,0.00121323,0.0153748,1770,1555,3.85263,-2.84826
553,-531,3.83423,2.79712,0.00230432,0.00246511,-0.00168091,0.00406755,0.000701883,-0.809293,0.00251066,0.031024,1777,1555,3.83426,-2.79717
560,-531,3.85754,2.74438,0.00351799,0.003178,-0.00300541,0.00635821,0.000337783,-0.757147,0.00413082,0.0339316,1784,1555,3.85756,-2.74439
567,-531,3.83972,2.68604,0.00502045,0.00449137,-0.00402504,0.00878964,0.000722186,-0.752583,0.00563448,0.0184288,1791,1555,3.83976,-2.68609
574,-531,3.86438,2.62427,0.00771066,0.0059554,-0.00453386,0.0114511,0.00221501,-0.689795,0.00701328,0.0116038,1798,1555,3.86436,-2.62431
581,-531,3.86133,2.54895,0.011971,0.00762685,-0.00501736,0.0152663,0.0043316,-0.58112,0.00908466,0.0106487,1805,1555,3.86129,-2.54897
588,-531,3.8728,2.47473,0.0162223,0.00935103,-0.00550535,0.0192761,0.00629726,-0.506438,0.0113497,0.0149058,1812,1555,3.87276,-2.47478
595,-531,3.86023,2.3811,0.0208856,0.0106408,-0.00573282,0.0234511,0.00807525,-0.420786,0.0137565,0.0314952,1819,1555,3.86026,-2.38116
602,-531,3.80298,2.30103,0.026059,0.0113382,-0.00571416,0.0280167,0.0093805,-0.330073,0.0164671,0.0447803,1826,1555,3.803,-2.30098
609,-531,3.9967,2.42371,0.0326438,0.0109722,-0.00529133,0.0338667,0.00974928,-0.22713,0.020131,0.0418106,1833,1555,3.99676,-2.42368
616,-531,3.71375,1.6571,0,0,0,0,0,0,0,-1,1840,1555,3.71369,-1.65709
623,-531,3.45532,1.80603,0,0,0,0,0,0,0,-1,1847,1555,3.45531,-1.80602
630,-531,5.15247,2.15442,0,0,0,0,0,0,0,-1,1854,1555,5.15246,-2.15442
637,-531,6.74109,2.75281,0,0,0,0,0,0,0,-1,1861,1555,6.74108,-2.75276
644,-531,0,0,0,0,0,0,0,0,0,-1,1868,1555,0,0
651,-531,0,0,0,0,0,0,0,0,0,-1,1875,1555,0,0
658,-531,0,0,0,0,0,0,0,0,0,-1,1882,1555,0,0
665,-531,0,0,0,0,0,0,0,0,0,-1,1889,1555,0,0
672,-531,0,0,0,0,0,0,0,0,0,-1,1896,1555,0,0
679,-531,0,0,0,0,0,0,0,0,0,-1,1903,1555,0,0
686,-531,0,0,0,0,0,0,0,0,0,-1,1910,1555,0,0
693,-531,0,0,0,0,0,0,0,0,0,-1,1917,1555,0,0
700,-531,0,0,0,0,0,0,0,0,0,-1,1924,1555,0,0
707,-531,0,0,0,0,0,0,0,0,0,-1,1931,1555,0,0
714,-531,0,0,0,0,0,0,0,0,0,-1,1938,1555,0,0
721,-531,0,0,0,0,0,0,0,0,0,-1,1945,1555,0,0
728,-531,0,0,0,0,0,0,0,0,0,-1,1952,1555,0,0
735,-531,0,0,0,0,0,0,0,0,0,-1,1959,1555,0,0
742,-531,0,0,0,0,0,0,0,0,0,-1,1966,1555,0,0
749,-531,0,0,0,0,0,0,0,0,0,-1,1973,1555,0,0
756,-531,0,0,0,0,0,0,0,0,0,-1,1980,1555,0,0
763,-531,0,0,0,0,0,0,0,0,0,-1,1987,1555,0,0
770,-531,0,0,0,0,0,0,0,0,0,-1,1994,1555,0,0
777,-531,0,0,0,0,0,0,0,0,0,-1,2001,1555,0,0
784,-531,0,0,0,0,0,0,0,0,0,-1,2008,1555,0,0
791,-531,0,0,0,0,0,0,0,0,0,-1,2015,1555,0,0
798,-531,0,0,0,0,0,0,0,0,0,-1,2022,1555,0,0
805,-531,0,0,0,0,0,0,0,0,0,-1,2029,1555,0,0
812,-531,0,0,0,0,0,0,0,0,0,-1,2036,1555,0,0
-700,-538,0,0,0,0,0,0,0,0,0,-1,524,1562,0,0
-693,-538,0,0,0,0,0,0,0,0,0,-1,531,1562,0,0
-686,-538,0,0,0,0,0,0,0,0,0,-1,538,1562,0,0
-679,-538,0,0,0,0,0,0,0,0,0,-1,545,1562,0,0
-672,-538,0,0,0,0,0,0,0,0,0,-1,552,1562,0,0
-665,-538,0,0,0,0,0,0,0,0,0,-1,559,1562,0,0
-658,-538,0,0,0,0,0,0,0,0,0,-1,566,1562,0,0
-651,-538,0,0,0,0,0,0,0,0,0,-1,573,1562,0,0
-644,-538,0,0,0,0,0,0,0,0,0,-1,580,1562,0,0
-637,-538,0,0,0,0,0,0,0,0,0,-1,587,1562,0,0
-630,-538,0,0,0,0,0,0,0,0,0,-1,594,1562,0,0
-623,-538,0,0,0,0,0,0,0,0,0,-1,601,1562,0,0
-616,-538,0,0,0,0,0,0,0,0,0,-1,608,1562,0,0
-609,-538,0,0,0,0,0,0,0,0,0,-1,615,1562,0,0
-602,-538,0,0,0,0,0,0,0,0,0,-1,622,1562,0,0
-595,-538,0,0,0,0,0,0,0,0,0,-1,629,1562,0,0
-588,-538,0,0,0,0,0,0,0,0,0,-1,636,1562,0,0
-581,-538,0,0,0,0,0,0,0,0,0,-1,643,1562,0,0
-574,-538,0,0,0,0,0,0,0,0,0,-1,650,1562,0,0
-567,-538,0,0,0,0,0,0,0,0,0,-1,657,1562,0,0
-560,-538,0,0,0,0,0,0,0,0,0,-1,664,1562,0,0
-553,-538,0,0,0,0,0,0,0,0,0,-1,671,1562,0,0
-546,-538,0,0,0,0,0,0,0,0,0,-1,678,1562,0,0
-539,-538,0,0,0,0,0,0,0,0,0,-1,685,1562,0,0
-532,-538,0,0,0,0,0,0,0,0,0,-1,692,1562,0,0
-525,-538,0,0,0,0,0,0,0,0,0,-1,699,1562,0,0
-518,-538,0,0,0,0,0,0,0,0,0,-1,706,1562,0,0
-511,-538,3.69159,3.14832,0,0,0,0,0,0,0,-1,713,1562,3.69159,-3.14836
-504,-538,3.43488,3.70129,0,0,0,0,0,0,0,-1,720,1562,3.43486,-3.70125
-497,-538,3.16028,3.31384,0,0,0,0,0,0,0,-1,727,1562,3.16027,-3.31383
-490,-538,1.22644,2.10107,0,0,0,0,0,0,0,-1,734,1562,1.22644,-2.10105
-483,-538,1.67853,2.11926,0,0,0,0,0,0,0,-1,741,1562,1.67852,-2.11922
-476,-538,1.70154,1.96118,-0.00976614,0.0139448,-0.0143365,0.0206927,-0.0165141,-1.13087,0.0215265,0.0481915,748,1562,1.70153,-1.96113
-469,-538,1.52917,2.01379,-0.0106126,0.0132216,-0.00843615,0.0159054,-0.0132964,-1.26279,0.0168821,0.0439779,755,1562,1.52919,-2.0138
-462,-538,1.31561,2.03271,-0.011363,0.0119937,-0.00438959,0.0127914,-0.0121607,-1.39103,0.0144076,0.0423085,762,1562,1.31561,-2.03267
-455,-538,1.14136,2.32483,-0.0095612,0.0106811,-0.00136559,0.0107728,-0.00965291,-1.50374,0.0117987,0.0372835,769,1562,1.14138,-2.32487
-448,-538,1.08435,2.33423,-0.00870229,0.00920007,0.00128094,0.00929126,-0.00879348,1.49973,0.0104425,0.0155593,776,1562,1.08433,-2.3342
-441,-538,1.07983,2.42468,-0.00649269,0.00765559,0.00237275,0.00804291,-0.00688001,1.40899,0.00862447,0.0128264,783,1562,1.07981,-2.42463
-434,-538,1.06061,2.48279,-0.00438541,0.00621737,0.00268907,0.00686038,-0.00502842,1.33609,0.00689111,0.0113877,790,1562,1.06058,-2.48284
-427,-538,1.05286,2.55554,-0.00245782,0.0048581,0.00288383,0.00585816,-0.00345788,1.23699,0.0054378,0.0134811,797,1562,1.05284,-2.55555
-420,-538,1.04626,2.60425,-0.000867907,0.00367943,0.00280583,0.00501717,-0.00220565,1.1259,0.0042741,0.0169001,804,1562,1.04628,-2.60419
-413,-538,1.06116,2.67468,0.000149129,0.00237097,0.00243224,0.00393399,-0.00141388,0.999624,0.00319983,0.0163727,811,1562,1.06113,-2.67465
-406,-538,1.08337,2.724,0.000980028,0.00132319,0.00201585,0.00317475,-0.000871533,0.827854,0.00245904,0.013609,818,1562,1.08337,-2.72397
-399,-538,1.08911,2.79846,0.00180826,0.0005566,0.00114413,0.00248654,-0.000121678,0.535133,0.0016997,0.0124255,825,1562,1.08909,-2.79843
-392,-538,1.09583,2.86511,0.00223251,0.000412373,0.000306145,0.00228262,0.000362259,0.162253,0.00141652,0.0140189,832,1562,1.0958,-2.86506
-385,-538,1.08014,2.9386,0.00209497,0.000970334,-0.000155359,0.00211604,0.000949267,-0.134779,0.00122384,0.0121902,839,1562,1.08016,-2.93866
-378,-538,1.0697,3.01917,0.00204362,0.00181007,-0.000374963,0.00231957,0.00153412,-0.634441,0.00136226,0.00903407,846,1562,1.06968,-3.01917
-371,-538,1.05634,3.099,0.00229271,0.00314123,-0.000514842,0.0033841,0.00204985,-1.13002,0.00196832,0.00901005,853,1562,1.05633,-3.09897
-364,-538,1.06818,3.14648,0.00316622,0.00564183,-0.000754165,0.00585348,0.00295457,-1.29719,0.00337956,0.00849868,860,1562,1.06815,-3.14653
-357,-538,1.07843,3.19666,0.0049948,0.00751929,-0.000322384,0.00755981,0.00495428,-1.44577,0.00443432,0.0150144,867,1562,1.07841,-3.19661
-350,-538,1.01172,3.22595,0.00642133,0.0099207,0.000219045,0.00993435,0.00640767,1.50852,0.00581544,0.0285389,874,1562,1.01172,-3.22593
-343,-538,0.954346,3.46948,0.00766339,0.0143892,0.00112699,0.014573,0.00747957,1.40912,0.00841473,0.0392356,881,1562,0.954341,-3.46945
-336,-538,0.938416,3.75427,0.00932628,0.0197783,0.00180087,0.0200798,0.0090247,1.40487,0.0116128,0.0412722,888,1562,0.938407,-3.75425
-329,-538,0.605774,4.04224,0.0117477,0.0248247,0.00287406,0.0254285,0.0111439,1.36373,0.0147184,0.0411073,895,1562,0.605794,-4.04227
-322,-538,0.435669,4.33875,0.0140733,0.0307521,0.00399811,0.0316609,0.0131644,1.34727,0.0183657,0.0426905,902,1562,0.435646,-4.3387
-315,-538,0.271179,4.6532,0.01534,0.0371579,0.0046731,0.0381167,0.0143812,1.36843,0.0222265,0.0448862,909,1562,0.271194,-4.65324
-308,-538,-0.0455933,4.82666,0,0,0,0,0,0,0,-1,916,1562,-0.0455959,-4.82671
-301,-538,0.564209,5.44897,0.0138149,0.0513065,0.00438995,0.0518137,0.0133077,1.45578,0.0310715,0.0493859,923,1562,0.564183,-5.44899
-294,-538,0.172058,3.81177,0.00963615,0.0593453,0.00288796,0.0595125,0.00946893,1.51296,0.0369256,0.0465459,930,1562,0.172032,-3.81175
-287,-538,0.461426,4.5415,0.00180735,0.0676265,-6.53104e-05,0.0676266,0.00180729,-1.5698,0.0444942,0.0492304,937,1562,0.461435,-4.54151
-280,-538,0.747986,5.23608,0,0,0,0,0,0,0,-1,944,1562,0.747986,-5.23606
-273,-538,1.14337,5.4668,0,0,0,0,0,0,0,-1,951,1562,1.14336,-5.46678
-266,-538,-2.59595,6.82727,0,0,0,0,0,0,0,-1,958,1562,-2.59595,-6.82728
-259,-538,-3.21417,7.36328,0,0,0,0,0,0,0,-1,965,1562,-3.21419,-7.36322
-252,-538,0,0,0,0,0,0,0,0,0,-1,972,1562,0,0
-245,-538,0,0,0,0,0,0,0,0,0,-1,979,1562,0,0
-238,-538,0,0,0,0,0,0,0,0,0,-1,986,1562,0,0
-231,-538,0,0,0,0,0,0,0,0,0,-1,993,1562,0,0
-224,-538,0,0,0,0,0,0,0,0,0,-1,1000,1562,0,0
-217,-538,0,0,0,0,0,0,0,0,0,-1,1007,1562,0,0
-210,-538,0,0,0,0,0,0,0,0,0,-1,1014,1562,0,0
-203,-538,0,0,0,0,0,0,0,0,0,-1,1021,1562,0,0
-196,-538,0,0,0,0,0,0,0,0,0,-1,1028,1562,0,0
-189,-538,0,0,0,0,0,0,0,0,0,-1,1035,1562,0,0
-182,-538,0,0,0,0,0,0,0,0,0,-1,1042,1562,0,0
-175,-538,0,0,0,0,0,0,0,0,0,-1,1049,1562,0,0
-168,-538,0,0,0,0,0,0,0,0,0,-1,1056,1562,0,0
-161,-538,0,0,0,0,0,0,0,0,0,-1,1063,1562,0,0
-154,-538,0,0,0,0,0,0,0,0,0,-1,1070,1562,0,0
-147,-538,0,0,0,0,0,0,0,0,0,-1,1077,1562,0,0
-140,-538,0,0,0,0,0,0,0,0,0,-1,1084,1562,0,0
-133,-538,0,0,0,0,0,0,0,0,0,-1,1091,1562,0,0
-126,-538,0,0,0,0,0,0,0,0,0,-1,1098,1562,0,0
-119,-538,0,0,0,0,0,0,0,0,0,-1,1105,1562,0,0
-112,-538,0,0,0,0,0,0,0,0,0,-1,1112,1562,0,0
-105,-538,0,0,0,0,0,0,0,0,0,-1,1119,1562,0,0
-98,-538,0,0,0,0,0,0,0,0,0,-1,1126,1562,0,0
-91,-538,0,0,0,0,0,0,0,0,0,-1,1133,1562,0,0
-84,-538,0,0,0,0,0,0,0,0,0,-1,1140,1562,0,0
-77,-538,0,0,0,0,0,0,0,0,0,-1,1147,1562,0,0
-70,-538,0,0,0,0,0,0,0,0,0,-1,1154,1562,0,0
-63,-538,0,0,0,0,0,0,0,0,0,-1,1161,1562,0,0
-56,-538,0,0,0,0,0,0,0,0,0,-1,1168,1562,0,0
-49,-538,0,0,0,0,0,0,0,0,0,-1,1175,1562,0,0
-42,-538,0,0,0,0,0,0,0,0,0,-1,1182,1562,0,0
-35,-538,0,0,0,0,0,0,0,0,0,-1,1189,1562,0,0
-28,-538,0,0,0,0,0,0,0,0,0,-1,1196,1562,0,0
-21,-538,0,0,0,0,0,0,0,0,0,-1,1203,1562,0,0
-14,-538,0,0,0,0,0,0,0,0,0,-1,1210,1562,0,0
-7,-538,0,0,0,0,0,0,0,0,0,-1,1217,1562,0,0
0,-538,0,0,0,0,0,0,0,0,0,-1,1224,1562,0,0
7,-538,0,0,0,0,0,0,0,0,0,-1,1231,1562,0,0
14,-538,0,0,0,0,0,0,0,0,0,-1,1238,1562,0,0
21,-538,0,0,0,0,0,0,0,0,0,-1,1245,1562,0,0
28,-538,0,0,0,0,0,0,0,0,0,-1,1252,1562,0,0
35,-538,0,0,0,0,0,0,0,0,0,-1,1259,1562,0,0
42,-538,0,0,0,0,0,0,0,0,0,-1,1266,1562,0,0
49,-538,0,0,0,0,0,0,0,0,0,-1,1273,1562,0,0
56,-538,0,0,0,0,0,0,0,0,0,-1,1280,1562,0,0
63,-538,0,0,0,0,0,0,0,0,0,-1,1287,1562,0,0
70,-538,0,0,0,0,0,0,0,0,0,-1,1294,1562,0,0
77,-538,0,0,0,0,0,0,0,0,0,-1,1301,1562,0,0
84,-538,0,0,0,0,0,0,0,0,0,-1,1308,1562,0,0
91,-538,0,0,0,0,0,0,0,0,0,-1,1315,1562,0,0
98,-538,0,0,0,0,0,0,0,0,0,-1,1322,1562,0,0
105,-538,0,0,0,0,0,0,0,0,0,-1,1329,1562,0,0
112,-538,0,0,0,0,0,0,0,0,0,-1,1336,1562,0,0
119,-538,0,0,0,0,0,0,0,0,0,-1,1343,1562,0,0
126,-538,0,0,0,0,0,0,0,0,0,-1,1350,1562,0,0
133,-538,0,0,0,0,0,0,0,0,0,-1,1357,1562,0,0
140,-538,0,0,0,0,0,0,0,0,0,-1,1364,1562,0,0
147,-538,0,0,0,0,0,0,0,0,0,-1,1371,1562,0,0
154,-538,0,0,0,0,0,0,0,0,0,-1,1378,1562,0,0
161,-538,0,0,0,0,0,0,0,0,0,-1,1385,1562,0,0
168,-538,0,0,0,0,0,0,0,0,0,-1,1392,1562,0,0
175,-538,0,0,0,0,0,0,0,0,0,-1,1399,1562,0,0
182,-538,0,0,0,0,0,0,0,0,0,-1,1406,1562,0,0
189,-538,0,0,0,0,0,0,0,0,0,-1,1413,1562,0,0
196,-538,0,0,0,0,0,0,0,0,0,-1,1420,1562,0,0
203,-538,0,0,0,0,0,0,0,0,0,-1,1427,1562,0,0
210,-538,0,0,0,0,0,0,0,0,0,-1,1434,1562,0,0
217,-538,0,0,0,0,0,0,0,0,0,-1,1441,1562,0,0
224,-538,0,0,0,0,0,0,0,0,0,-1,1448,1562,0,0
231,-538,0,0,0,0,0,0,0,0,0,-1,1455,1562,0,0
238,-538,0,0,0,0,0,0,0,0,0,-1,1462,1562,0,0
245,-538,0,0,0,0,0,0,0,0,0,-1,1469,1562,0,0
252,-538,0,0,0,0,0,0,0,0,0,-1,1476,1562,0,0
259,-538,0,0,0,0,0,0,0,0,0,-1,1483,1562,0,0
266,-538,0,0,0,0,0,0,0,0,0,-1,1490,1562,0,0
273,-538,0,0,0,0,0,0,0,0,0,-1,1497,1562,0,0
280,-538,0,0,0,0,0,0,0,0,0,-1,1504,1562,0,0
287,-538,0,0,0,0,0,0,0,0,0,-1,1511,1562,0,0
294,-538,0,0,0,0,0,0,0,0,0,-1,1518,1562,0,0
301,-538,0,0,0,0,0,0,0,0,0,-1,1525,1562,0,0
308,-538,0,0,0,0,0,0,0,0,0,-1,1532,1562,0,0
315,-538,0,0,0,0,0,0,0,0,0,-1,1539,1562,0,0
322,-538,0,0,0,0,0,0,0,0,0,-1,1546,1562,0,0
329,-538,0,0,0,0,0,0,0,0,0,-1,1553,1562,0,0
336,-538,0,0,0,0,0,0,0,0,0,-1,1560,1562,0,0
343,-538,0,0,0,0,0,0,0,0,0,-1,1567,1562,0,0
350,-538,0,0,0,0,0,0,0,0,0,-1,1574,1562,0,0
357,-538,0,0,0,0,0,0,0,0,0,-1,1581,1562,0,0
364,-538,0,0,0,0,0,0,0,0,0,-1,1588,1562,0,0
371,-538,0,0,0,0,0,0,0,0,0,-1,1595,1562,0,0
378,-538,4.93982,3.06128,0,0,0,0,0,0,0,-1,1602,1562,4.93976,-3.06125
385,-538,5.12122,4.28491,0,0,0,0,0,0,0,-1,1609,1562,5.12121,-4.28494
392,-538,5.07971,2.44824,0,0,0,0,0,0,0,-1,1616,1562,5.07967,-2.44828
399,-538,5.31287,2.34485,-0.0355592,0.123497,0.0094669,0.124059,-0.0361207,1.51156,0.0970141,0.0471877,1623,1562,5.31281,-2.34483
406,-538,5.40771,2.34534,-0.0339643,0.109483,0.0130755,0.110665,-0.0351464,1.48063,0.0878671,0.0438146,1630,1562,5.40777,-2.34528
413,-538,5.31042,1.94214,-0.0358334,0.0921802,0.0143045,0.0937592,-0.0374123,1.46086,0.0780262,0.0447835,1637,1562,5.31039,-1.94208
420,-538,5.15503,1.78333,-0.0389865,0.07359,0.0144659,0.0754191,-0.0408156,1.44502,0.0680922,0.044483,1644,1562,5.15503,-1.78338
427,-538,6.11987,1.25403,0,0,0,0,0,0,0,-1,1651,1562,6.11989,-1.25402
434,-538,2.41455,0.938721,0,0,0,0,0,0,0,-1,1658,1562,2.41452,-0.938713
441,-538,9.10852,2.63721,0,0,0,0,0,0,0,-1,1665,1562,9.10857,-2.63718
448,-538,8.21021,2.42261,0,0,0,0,0,0,0,-1,1672,1562,8.21026,-2.42259
455,-538,5.29248,3.50842,-0.0403003,0.000481913,0.0103139,0.00294191,-0.0427603,1.33666,0.0295364,0.0416679,1679,1562,5.29245,-3.50838
462,-538,5.14246,2.77234,-0.0373651,-0.00811278,0.00938902,-0.00535854,-0.0401194,1.28545,0.0251511,0.0441071,1686,1562,5.14244,-2.77234
469,-538,4.53821,3.12622,-0.0327792,-0.0139695,0.00903464,-0.010333,-0.0364156,1.18813,0.0216701,0.0440577,1693,1562,4.53816,-3.12619
476,-538,3.74939,3.31335,-0.0269445,-0.016871,0.00877738,-0.0117879,-0.0320276,1.04588,0.0187045,0.0415404,1700,1562,3.74943,-3.3133
483,-538,3.73438,3.44995,-0.0198199,-0.0157393,0.00789001,-0.00963003,-0.0259291,0.911923,0.0151343,0.0265912,1707,1562,3.73437,-3.44994
490,-538,3.78784,3.37988,-0.0129716,-0.012789,0.00762389,-0.00525586,-0.0205047,0.791386,0.0122981,0.0135193,1714,1562,3.7879,-3.37991
497,-538,3.79834,3.30701,-0.0073325,-0.00959342,0.00705311,-0.00131983,-0.0156061,0.705935,0.00999321,0.00962427,1721,1562,3.79838,-3.30703
504,-538,3.7959,3.25671,-0.00333395,-0.00739773,0.00636284,0.00131355,-0.0120452,0.630848,0.0085019,0.00923137,1728,1562,3.79585,-3.2567
511,-538,3.78174,3.19446,-0.000416224,-0.00525697,0.00514939,0.00285326,-0.00852645,0.565705,0.00683682,0.00975379,1735,1562,3.78169,-3.19443
518,-538,3.78516,3.13147,0.00108085,-0.00287104,0.00373188,0.00332762,-0.00511781,0.541923,0.00491235,0.010471,1742,1562,3.78513,-3.13147
525,-538,3.78479,3.0614,0.00159911,-0.00104441,0.00205993,0.00272487,-0.00217017,0.500155,0.00283219,0.0107312,1749,1562,3.78474,-3.06134
532,-538,3.79907,2.99426,0.00228152,0.000693792,0.00043242,0.00239166,0.000583661,0.249383,0.00143987,0.0106801,1756,1562,3.79903,-2.9943
539,-538,3.81042,2.93933,0.00314259,0.00185728,-0.00114944,0.00381683,0.00118304,-0.530496,0.00225608,0.0131665,1763,1562,3.81045,-2.93933
546,-538,3.79089,2.87341,0.00405501,0.00287355,-0.00267044,0.00619928,0.000729282,-0.676546,0.00391248,0.0151567,1770,1562,3.79087,-2.87344
553,-538,3.78137,2.80481,0.00566652,0.00414147,-0.00438646,0.00935624,0.000451755,-0.69934,0.00609249,0.0250966,1777,1562,3.78141,-2.80481
560,-538,3.80017,2.75854,0.00804415,0.00541824,-0.00640664,0.013271,0.000191397,-0.684329,0.00878422,0.026769,1784,1562,3.80019,-2.75854
567,-538,3.75891,2.68274,0.0110101,0.00737043,-0.00838996,0.0177753,0.000605224,-0.678598,0.0116537,0.019129,1791,1562,3.75895,-2.68278
574,-538,3.78821,2.60632,0.0154592,0.00953788,-0.0100104,0.0229375,0.00205948,-0.641619,0.0146535,0.011272,1798,1562,3.78821,-2.60632
581,-538,3.80457,2.53113,0.0219299,0.0119719,-0.0116621,0.0296315,0.00427036,-0.583643,0.0184959,0.0127973,1805,1562,3.80458,-2.53116
588,-538,3.85474,2.4856,0.0287318,0.0145426,-0.0134148,0.0368125,0.00646193,-0.542162,0.0226964,0.0302602,1812,1562,3.85471,-2.48556
595,-538,3.91528,2.40881,0,0,0,0,0,0,0,-1,1819,1562,3.91526,-2.40879
602,-538,3.73499,2.26941,0,0,0,0,0,0,0,-1,1826,1562,3.73502,-2.26938
609,-538,4.34399,2.18481,0,0,0,0,0,0,0,-1,1833,1562,4.34399,-2.18485
616,-538,1.25684,0.280273,0,0,0,0,0,0,0,-1,1840,1562,1.25684,-0.280235
623,-538,3.146,0.924316,0,0,0,0,0,0,0,-1,1847,1562,3.14603,-0.924329
630,-538,5.0155,1.66138,0,0,0,0,0,0,0,-1,1854,1562,5.01553,-1.66136
637,-538,0,0,0,0,0,0,0,0,0,-1,1861,1562,0,0
644,-538,0,0,0,0,0,0,0,0,0,-1,1868,1562,0,0
651,-538,0,0,0,0,0,0,0,0,0,-1,1875,1562,0,0
658,-538,0,0,0,0,0,0,0,0,0,-1,1882,1562,0,0
665,-538,0,0,0,0,0,0,0,0,0,-1,1889,1562,0,0
672,-538,0,0,0,0,0,0,0,0,0,-1,1896,1562,0,0
679,-538,0,0,0,0,0,0,0,0,0,-1,1903,1562,0,0
686,-538,0,0,0,0,0,0,0,0,0,-1,1910,1562,0,0
693,-538,0,0,0,0,0,0,0,0,0,-1,1917,1562,0,0
700,-538,0,0,0,0,0,0,0,0,0,-1,1924,1562,0,0
707,-538,0,0,0,0,0,0,0,0,0,-1,1931,1562,0,0
714,-538,0,0,0,0,0,0,0,0,0,-1,1938,1562,0,0
721,-538,0,0,0,0,0,0,0,0,0,-1,1945,1562,0,0
728,-538,0,0,0,0,0,0,0,0,0,-1,1952,1562,0,0
735,-538,0,0,0,0,0,0,0,0,0,-1,1959,1562,0,0
742,-538,0,0,0,0,0,0,0,0,0,-1,1966,1562,0,0
749,-538,0,0,0,0,0,0,0,0,0,-1,1973,1562,0,0
756,-538,0,0,0,0,0,0,0,0,0,-1,1980,1562,0,0
763,-538,0,0,0,0,0,0,0,0,0,-1,1987,1562,0,0
770,-538,0,0,0,0,0,0,0,0,0,-1,1994,1562,0,0
777,-538,0,0,0,0,0,0,0,0,0,-1,2001,1562,0,0
784,-538,0,0,0,0,0,0,0,0,0,-1,2008,1562,0,0
791,-538,0,0,0,0,0,0,0,0,0,-1,2015,1562,0,0
798,-538,0,0,0,0,0,0,0,0,0,-1,2022,1562,0,0
805,-538,0,0,0,0,0,0,0,0,0,-1,2029,1562,0,0
812,-538,0,0,0,0,0,0,0,0,0,-1,2036,1562,0,0
-700,-545,0,0,0,0,0,0,0,0,0,-1,524,1569,0,0
-693,-545,0,0,0,0,0,0,0,0,0,-1,531,1569,0,0
-686,-545,0,0,0,0,0,0,0,0,0,-1,538,1569,0,0
-679,-545,0,0,0,0,0,0,0,0,0,-1,545,1569,0,0
-672,-545,0,0,0,0,0,0,0,0,0,-1,552,1569,0,0
-665,-545,0,0,0,0,0,0,0,0,0,-1,559,1569,0,0
-658,-545,0,0,0,0,0,0,0,0,0,-1,566,1569,0,0
-651,-545,0,0,0,0,0,0,0,0,0,-1,573,1569,0,0
-644,-545,0,0,0,0,0,0,0,0,0,-1,580,1569,0,0
-637,-545,0,0,0,0,0,0,0,0,0,-1,587,1569,0,0
-630,-545,0,0,0,0,0,0,0,0,0,-1,594,1569,0,0
-623,-545,0,0,0,0,0,0,0,0,0,-1,601,1569,0,0
-616,-545,0,0,0,0,0,0,0,0,0,-1,608,1569,0,0
-609,-545,0,0,0,0,0,0,0,0,0,-1,615,1569,0,0
-602,-545,0,0,0,0,0,0,0,0,0,-1,622,1569,0,0
-595,-545,0,0,0,0,0,0,0,0,0,-1,629,1569,0,0
-588,-545,0,0,0,0,0,0,0,0,0,-1,636,1569,0,0
-581,-545,0,0,0,0,0,0,0,0,0,-1,643,1569,0,0
-574,-545,0,0,0,0,0,0,0,0,0,-1,650,1569,0,0
-567,-545,0,0,0,0,0,0,0,0,0,-1,657,1569,0,0
-560,-545,0,0,0,0,0,0,0,0,0,-1,664,1569,0,0
-553,-545,0,0,0,0,0,0,0,0,0,-1,671,1569,0,0
-546,-545,0,0,0,0,0,0,0,0,0,-1,678,1569,0,0
-539,-545,0,0,0,0,0,0,0,0,0,-1,685,1569,0,0
-532,-545,0,0,0,0,0,0,0,0,0,-1,692,1569,0,0
-525,-545,0,0,0,0,0,0,0,0,0,-1,699,1569,0,0
-518,-545,0,0,0,0,0,0,0,0,0,-1,706,1569,0,0
-511,-545,0,0,0,0,0,0,0,0,0,-1,713,1569,0,0
-504,-545,3.97656,2.59204,0,0,0,0,0,0,0,-1,720,1569,3.97655,-2.59199
-497,-545,3.73291,2.76831,0,0,0,0,0,0,0,-1,727,1569,3.73293,-2.76837
-490,-545,3.11511,2.89197,0,0,0,0,0,0,0,-1,734,1569,3.11509,-2.89194
-483,-545,2.24707,2.04309,0,0,0,0,0,0,0,-1,741,1569,2.24707,-2.0431
-476,-545,1.92957,1.94299,0,0,0,0,0,0,0,-1,748,1569,1.92957,-1.94301
-469,-545,1.72192,1.76184,0,0,0,0,0,0,0,-1,755,1569,1.72192,-1.76189
-462,-545,1.92596,1.50928,-0.0161981,0.0156823,-0.00244796,0.0158692,-0.016385,-1.49461,0.0186228,0.0414336,762,1569,1.92597,-1.50926
-455,-545,1.95245,1.52466,-0.0131183,0.0141152,0.000889179,0.0141442,-0.0131473,1.53819,0.0157603,0.0407927,769,1569,1.95246,-1.52464
-448,-545,1.19635,2.32324,-0.01101,0.0123359,0.00366274,0.0128971,-0.0115711,1.41877,0.0141336,0.0271674,776,1569,1.19636,-2.3232
-441,-545,1.13751,2.39929,-0.00772238,0.010491,0.00480521,0.011681,-0.00891238,1.32803,0.0119254,0.0155652,783,1569,1.1375,-2.39929
-434,-545,1.13257,2.48145,-0.00482748,0.00868945,0.00513749,0.0104204,-0.00655846,1.24581,0.00988693,0.0124597,790,1569,1.13258,-2.48142
-427,-545,1.13452,2.55322,-0.00233652,0.00701396,0.0052802,0.00939126,-0.00471382,1.14775,0.00829149,0.0165978,797,1569,1.13452,-2.55328
-420,-545,1.14362,2.57959,-0.000397429,0.00557725,0.00502975,0.00843992,-0.0032601,1.05337,0.00697218,0.022706,804,1569,1.14361,-2.57957
-413,-545,1.13458,2.64685,0.000750841,0.00402434,0.00438974,0.00707254,-0.00229736,0.963844,0.00563903,0.0220979,811,1569,1.13461,-2.64681
-406,-545,1.13568,2.71265,0.00144414,0.0026242,0.00376238,0.00584253,-0.0017742,0.863176,0.00460187,0.0166833,818,1569,1.1357,-2.71267
-399,-545,1.14539,2.79871,0.00208939,0.00142744,0.00267506,0.00445388,-0.000937048,0.723848,0.0033259,0.0107628,825,1569,1.14539,-2.79868
-392,-545,1.14587,2.89075,0.00218763,0.000951958,0.00157214,0.00325897,-0.000119387,0.598173,0.00221352,0.0108963,832,1569,1.14589,-2.89077
-385,-545,1.14661,2.96155,0.00152603,0.00112559,0.000884693,0.00223288,0.000418745,0.674117,0.0013705,0.00947499,839,1569,1.14658,-2.96159
-378,-545,1.12781,3.0271,0.000959988,0.00155153,0.000499002,0.00183583,0.000675686,1.05292,0.00107215,0.0112117,846,1569,1.12778,-3.0271
-371,-545,1.11401,3.10364,0.000726756,0.00246206,0.000164783,0.00247757,0.000711247,1.47695,0.00147303,0.013471,853,1569,1.11399,-3.10365
-364,-545,1.13385,3.14478,0.00115975,0.00444747,-0.000320732,0.00447846,0.00112875,-1.47445,0.00268954,0.00873087,860,1569,1.13382,-3.14475
-357,-545,1.14343,3.19067,0.00256215,0.00593841,-0.000179921,0.00594797,0.00255259,-1.51771,0.00344553,0.00958415,867,1569,1.14346,-3.19063
-350,-545,1.13928,3.23462,0.00379842,0.00798189,9.21063e-05,0.00798392,0.00379639,1.54879,0.00461136,0.0139738,874,1569,1.13927,-3.23464
-343,-545,1.10834,3.27551,0.00501119,0.0118534,0.000769152,0.0119388,0.00492579,1.46022,0.00692787,0.0227253,881,1569,1.10836,-3.27554
-336,-545,1.08936,3.47058,0.00686276,0.0166847,0.00119976,0.0168291,0.00671833,1.45099,0.00978187,0.0305775,888,1569,1.08934,-3.47053
-329,-545,1.04059,3.72717,0.00955144,0.0211766,0.00196081,0.0214984,0.00922962,1.40812,0.0124534,0.0386462,895,1569,1.04056,-3.72718
-322,-545,0.621765,4.22546,0.0121211,0.0264133,0.00274289,0.0269217,0.0116128,1.38755,0.015592,0.0459608,902,1569,0.621775,-4.22551
-315,-545,0.328979,4.28259,0.0133488,0.0318617,0.00303529,0.0323466,0.0128639,1.41236,0.0188052,0.0480247,909,1569,0.329007,-4.28265
-308,-545,2.19458,3.53113,0.0130754,0.0372673,0.00256633,0.0375365,0.0128061,1.46626,0.0220332,0.0493293,916,1569,2.19459,-3.53115
-301,-545,2.57867,3.64612,0,0,0,0,0,0,0,-1,923,1569,2.57865,-3.64612
-294,-545,0.632751,2.53882,0,0,0,0,0,0,0,-1,930,1569,0.632771,-2.53883
-287,-545,0.811462,3.13074,0,0,0,0,0,0,0,-1,937,1569,0.811487,-3.1307
-280,-545,1.086,5.203,0,0,0,0,0,0,0,-1,944,1569,1.086,-5.20299
-273,-545,-0.911865,4.37463,0,0,0,0,0,0,0,-1,951,1569,-0.911881,-4.37459
-266,-545,-1.72339,4.51477,0,0,0,0,0,0,0,-1,958,1569,-1.72338,-4.51471
-259,-545,0.837524,3.85913,0,0,0,0,0,0,0,-1,965,1569,0.837505,-3.85918
-252,-545,0.512512,3.29492,0,0,0,0,0,0,0,-1,972,1569,0.512488,-3.29487
-245,-545,0.0808105,3.32642,0,0,0,0,0,0,0,-1,979,1569,0.0808297,-3.32645
-238,-545,0,0,0,0,0,0,0,0,0,-1,986,1569,0,0
-231,-545,0,0,0,0,0,0,0,0,0,-1,993,1569,0,0
-224,-545,0,0,0,0,0,0,0,0,0,-1,1000,1569,0,0
-217,-545,0,0,0,0,0,0,0,0,0,-1,1007,1569,0,0
-210,-545,0,0,0,0,0,0,0,0,0,-1,1014,1569,0,0
-203,-545,0,0,0,0,0,0,0,0,0,-1,1021,1569,0,0
-196,-545,0,0,0,0,0,0,0,0,0,-1,1028,1569,0,0
-189,-545,0,0,0,0,0,0,0,0,0,-1,1035,1569,0,0
-182,-545,0,0,0,0,0,0,0,0,0,-1,1042,1569,0,0
-175,-545,0,0,0,0,0,0,0,0,0,-1,1049,1569,0,0
-168,-545,0,0,0,0,0,0,0,0,0,-1,1056,1569,0,0
-161,-545,0,0,0,0,0,0,0,0,0,-1,1063,1569,0,0
-154,-545,0,0,0,0,0,0,0,0,0,-1,1070,1569,0,0
-147,-545,0,0,0,0,0,0,0,0,0,-1,1077,1569,0,0
-140,-545,0,0,0,0,0,0,0,0,0,-1,1084,1569,0,0
-133,-545,0,0,0,0,0,0,0,0,0,-1,1091,1569,0,0
-126,-545,0,0,0,0,0,0,0,0,0,-1,1098,1569,0,0
-119,-545,0,0,0,0,0,0,0,0,0,-1,1105,1569,0,0
-112,-545,0,0,0,0,0,0,0,0,0,-1,1112,1569,0,0
-105,-545,0,0,0,0,0,0,0,0,0,-1,1119,1569,0,0
-98,-545,0,0,0,0,0,0,0,0,0,-1,1126,1569,0,0
-91,-545,0,0,0,0,0,0,0,0,0,-1,1133,1569,0,0
-84,-545,0,0,0,0,0,0,0,0,0,-1,1140,1569,0,0
-77,-545,0,0,0,0,0,0,0,0,0,-1,1147,1569,0,0
-70,-545,0,0,0,0,0,0,0,0,0,-1,1154,1569,0,0
-63,-545,0,0,0,0,0,0,0,0,0,-1,1161,1569,0,0
-56,-545,0,0,0,0,0,0,0,0,0,-1,1168,1569,0,0
-49,-545,0,0,0,0,0,0,0,0,0,-1,1175,1569,0,0
-42,-545,0,0,0,0,0,0,0,0,0,-1,1182,1569,0,0
-35,-545,0,0,0,0,0,0,0,0,0,-1,1189,1569,0,0
-28,-545,0,0,0,0,0,0,0,0,0,-1,1196,1569,0,0
-21,-545,0,0,0,0,0,0,0,0,0,-1,1203,1569,0,0
-14,-545,0,0,0,0,0,0,0,0,0,-1,1210,1569,0,0
-7,-545,0,0,0,0,0,0,0,0,0,-1,1217,1569,0,0
0,-545,0,0,0,0,0,0,0,0,0,-1,1224,1569,0,0
7,-545,0,0,0,0,0,0,0,0,0,-1,1231,1569,0,0
14,-545,0,0,0,0,0,0,0,0,0,-1,1238,1569,0,0
21,-545,0,0,0,0,0,0,0,0,0,-1,1245,1569,0,0
28,-545,0,0,0,0,0,0,0,0,0,-1,1252,1569,0,0
35,-545,0,0,0,0,0,0,0,0,0,-1,1259,1569,0,0
42,-545,0,0,0,0,0,0,0,0,0,-1,1266,1569,0,0
49,-545,0,0,0,0,0,0,0,0,0,-1,1273,1569,0,0
56,-545,0,0,0,0,0,0,0,0,0,-1,1280,1569,0,0
63,-545,0,0,0,0,0,0,0,0,0,-1,1287,1569,0,0
70,-545,0,0,0,0,0,0,0,0,0,-1,1294,1569,0,0
77,-545,0,0,0,0,0,0,0,0,0,-1,1301,1569,0,0
84,-545,0,0,0,0,0,0,0,0,0,-1,1308,1569,0,0
91,-545,0,0,0,0,0,0,0,0,0,-1,1315,1569,0,0
98,-545,0,0,0,0,0,0,0,0,0,-1,1322,1569,0,0
105,-545,0,0,0,0,0,0,0,0,0,-1,1329,1569,0,0
112,-545,0,0,0,0,0,0,0,0,0,-1,1336,1569,0,0
119,-545,0,0,0,0,0,0,0,0,0,-1,1343,1569,0,0
126,-545,0,0,0,0,0,0,0,0,0,-1,1350,1569,0,0
133,-545,0,0,0,0,0,0,0,0,0,-1,1357,1569,0,0
140,-545,0,0,0,0,0,0,0,0,0,-1,1364,1569,0,0
147,-545,0,0,0,0,0,0,0,0,0,-1,1371,1569,0,0
154,-545,0,0,0,0,0,0,0,0,0,-1,1378,1569,0,0
161,-545,0,0,0,0,0,0,0,0,0,-1,1385,1569,0,0
168,-545,0,0,0,0,0,0,0,0,0,-1,1392,1569,0,0
175,-545,0,0,0,0,0,0,0,0,0,-1,1399,1569,0,0
182,-545,0,0,0,0,0,0,0,0,0,-1,1406,1569,0,0
189,-545,0,0,0,0,0,0,0,0,0,-1,1413,1569,0,0
196,-545,0,0,0,0,0,0,0,0,0,-1,1420,1569,0,0
203,-545,0,0,0,0,0,0,0,0,0,-1,1427,1569,0,0
210,-545,0,0,0,0,0,0,0,0,0,-1,1434,1569,0,0
217,-545,0,0,0,0,0,0,0,0,0,-1,1441,1569,0,0
224,-545,0,0,0,0,0,0,0,0,0,-1,1448,1569,0,0
231,-545,0,0,0,0,0,0,0,0,0,-1,1455,1569,0,0
238,-545,0,0,0,0,0,0,0,0,0,-1,1462,1569,0,0
245,-545,0,0,0,0,0,0,0,0,0,-1,1469,1569,0,0
252,-545,0,0,0,0,0,0,0,0,0,-1,1476,1569,0,0
259,-545,0,0,0,0,0,0,0,0,0,-1,1483,1569,0,0
266,-545,0,0,0,0,0,0,0,0,0,-1,1490,1569,0,0
273,-545,0,0,0,0,0,0,0,0,0,-1,1497,1569,0,0
280,-545,0,0,0,0,0,0,0,0,0,-1,1504,1569,0,0
287,-545,0,0,0,0,0,0,0,0,0,-1,1511,1569,0,0
294,-545,0,0,0,0,0,0,0,0,0,-1,1518,1569,0,0
301,-545,0,0,0,0,0,0,0,0,0,-1,1525,1569,0,0
308,-545,0,0,0,0,0,0,0,0,0,-1,1532,1569,0,0
315,-545,0,0,0,0,0,0,0,0,0,-1,1539,1569,0,0
322,-545,0,0,0,0,0,0,0,0,0,-1,1546,1569,0,0
329,-545,0,0,0,0,0,0,0,0,0,-1,1553,1569,0,0
336,-545,0,0,0,0,0,0,0,0,0,-1,1560,1569,0,0
343,-545,0,0,0,0,0,0,0,0,0,-1,1567,1569,0,0
350,-545,0,0,0,0,0,0,0,0,0,-1,1574,1569,0,0
357,-545,0,0,0,0,0,0,0,0,0,-1,1581,1569,0,0
364,-545,5.47632,4.19043,0,0,0,0,0,0,0,-1,1588,1569,5.47628,-4.19048
371,-545,4.89075,3.54736,0,0,0,0,0,0,0,-1,1595,1569,4.89072,-3.54734
378,-545,4.95654,4.14563,0,0,0,0,0,0,0,-1,1602,1569,4.95652,-4.14567
385,-545,4.44238,3.17407,0,0,0,0,0,0,0,-1,1609,1569,4.44233,-3.17413
392,-545,3.86536,2.1394,0,0,0,0,0,0,0,-1,1616,1569,3.86541,-2.13946
399,-545,4.18018,1.87537,-0.0354187,0.111914,0.0107154,0.112689,-0.036194,1.49857,0.0896599,0.0481625,1623,1569,4.18022,-1.87535
406,-545,4.29138,1.60059,-0.0318331,0.100309,0.0141999,0.101818,-0.0333418,1.46495,0.0813041,0.0442823,1630,1569,4.29141,-1.60064
413,-545,4.42896,1.33582,-0.0313767,0.0855282,0.0157103,0.0876026,-0.0334511,1.43951,0.0721837,0.0428673,1637,1569,4.42899,-1.33578
420,-545,4.88123,1.24622,-0.0327342,0.0695934,0.0160039,0.072038,-0.0351788,1.41922,0.0631092,0.0427705,1644,1569,4.88122,-1.24616
427,-545,5.34497,0.943237,-0.0346226,0.0531787,0.015491,0.0558317,-0.0372756,1.40118,0.0541102,0.049157,1651,1569,5.34495,-0.943221
434,-545,5.77112,0.632446,0,0,0,0,0,0,0,-1,1658,1569,5.77115,-0.632414
441,-545,2.67688,1.57056,0,0,0,0,0,0,0,-1,1665,1569,2.67692,-1.57057
448,-545,5.22058,3.27991,0,0,0,0,0,0,0,-1,1672,1569,5.22058,-3.27988
455,-545,4.55969,3.21045,-0.0338573,0.00241951,0.010207,0.00509418,-0.036532,1.31452,0.0262182,0.0416793,1679,1569,4.55975,-3.21048
462,-545,4.04321,3.20959,-0.0316998,-0.00567794,0.00873203,-0.00301939,-0.0343584,1.27525,0.0219684,0.0408663,1686,1569,4.04317,-3.20956
469,-545,3.84534,3.31763,-0.0280428,-0.0113498,0.00781325,-0.00826344,-0.0311292,1.19459,0.0186199,0.0428046,1693,1569,3.84532,-3.31769
476,-545,3.64209,3.42993,-0.0232284,-0.0141877,0.00704373,-0.0103386,-0.0270775,1.07068,0.0157781,0.0295292,1700,1569,3.64206,-3.42998
483,-545,3.69812,3.42773,-0.0171863,-0.0134089,0.00583965,-0.00916008,-0.021435,0.941802,0.012419,0.0132174,1707,1569,3.69817,-3.42771
490,-545,3.73608,3.37244,-0.0111667,-0.010784,0.00534574,-0.00562621,-0.0163245,0.803288,0.00957542,0.011394,1714,1569,3.73603,-3.37243
497,-545,3.75537,3.32776,-0.00615869,-0.00798777,0.00470754,-0.00227768,-0.0118688,0.689457,0.00727317,0.015891,1721,1569,3.75534,-3.32778
504,-545,3.75,3.26636,-0.00251434,-0.0059601,0.00402436,0.000140429,-0.00861487,0.583146,0.00579062,0.0144898,1728,1569,3.74994,-3.26636
511,-545,3.72583,3.19482,0.000232228,-0.00395552,0.00286703,0.00168859,-0.00541189,0.470002,0.00428321,0.0104907,1735,1569,3.72584,-3.19485
518,-545,3.71985,3.12549,0.00193236,-0.00177887,0.00152592,0.00247918,-0.0023257,0.344103,0.00277457,0.0123409,1742,1569,3.71986,-3.12551
525,-545,3.73035,3.05408,0.00291333,-0.000150742,-6.65947e-05,0.00291477,-0.000152189,-0.0217204,0.00199585,0.0119893,1749,1569,3.7304,-3.05403
532,-545,3.74109,2.99768,0.00437697,0.00167496,-0.00181719,0.00529035,0.000761592,-0.465748,0.00330244,0.0114905,1756,1569,3.74106,-2.99768
539,-545,3.74243,2.94727,0.00630373,0.00315325,-0.0037185,0.00876688,0.000690098,-0.585047,0.00562867,0.0145184,1763,1569,3.74239,-2.94728
546,-545,3.71985,2.91101,0.0083743,0.00458413,-0.00574929,0.0125328,0.000425643,-0.626195,0.00821699,0.0160052,1770,1569,3.71979,-2.91101
553,-545,3.71997,2.81775,0.0114084,0.00636774,-0.00821791,0.0174838,0.000292365,-0.636608,0.0115596,0.0229549,1777,1569,3.71992,-2.81772
560,-545,3.72229,2.71277,0.0154602,0.0082518,-0.0112154,0.0236363,7.56793e-05,-0.62993,0.0157324,0.0253384,1784,1569,3.72235,-2.71279
567,-545,3.6781,2.66809,0.0204248,0.010902,-0.0144329,0.0308614,0.000465409,-0.62607,0.0204209,0.0259244,1791,1569,3.67807,-2.66808
574,-545,3.67175,2.59729,0.0271526,0.0138303,-0.017448,0.0391677,0.00181521,-0.603051,0.0255282,0.0232447,1798,1569,3.67172,-2.59727
581,-545,3.64612,2.5293,0.0363339,0.0171323,-0.0205424,0.0494083,0.00405789,-0.566797,0.031673,0.0330126,1805,1569,3.64611,-2.52932
588,-545,3.83582,2.53357,0,0,0,0,0,0,0,-1,1812,1569,3.83585,-2.53357
595,-545,2.776,1.83032,0,0,0,0,0,0,0,-1,1819,1569,2.77596,-1.83027
602,-545,2.55273,1.52222,0,0,0,0,0,0,0,-1,1826,1569,2.55279,-1.52217
609,-545,4.26331,-0.105103,0,0,0,0,0,0,0,-1,1833,1569,4.26331,0.10516
616,-545,4.60962,-0.0906982,0,0,0,0,0,0,0,-1,1840,1569,4.60967,0.0906505
623,-545,3.09875,0.496582,0,0,0,0,0,0,0,-1,1847,1569,3.09881,-0.496597
630,-545,0,0,0,0,0,0,0,0,0,-1,1854,1569,0,0
637,-545,0,0,0,0,0,0,0,0,0,-1,1861,1569,0,0
644,-545,0,0,0,0,0,0,0,0,0,-1,1868,1569,0,0
651,-545,0,0,0,0,0,0,0,0,0,-1,1875,1569,0,0
658,-545,0,0,0,0,0,0,0,0,0,-1,1882,1569,0,0
665,-545,0,0,0,0,0,0,0,0,0,-1,1889,1569,0,0
672,-545,0,0,0,0,0,0,0,0,0,-1,1896,1569,0,0
679,-545,0,0,0,0,0,0,0,0,0,-1,1903,1569,0,0
686,-545,0,0,0,0,0,0,0,0,0,-1,1910,1569,0,0
693,-545,0,0,0,0,0,0,0,0,0,-1,1917,1569,0,0
700,-545,0,0,0,0,0,0,0,0,0,-1,1924,1569,0,0
707,-545,0,0,0,0,0,0,0,0,0,-1,1931,1569,0,0
714,-545,0,0,0,0,0,0,0,0,0,-1,1938,1569,0,0
721,-545,0,0,0,0,0,0,0,0,0,-1,1945,1569,0,0
728,-545,0,0,0,0,0,0,0,0,0,-1,1952,1569,0,0
735,-545,0,0,0,0,0,0,0,0,0,-1,1959,1569,0,0
742,-545,0,0,0,0,0,0,0,0,0,-1,1966,1569,0,0
749,-545,0,0,0,0,0,0,0,0,0,-1,1973,1569,0,0
756,-545,0,0,0,0,0,0,0,0,0,-1,1980,1569,0,0
763,-545,0,0,0,0,0,0,0,0,0,-1,1987,1569,0,0
770,-545,0,0,0,0,0,0,0,0,0,-1,1994,1569,0,0
777,-545,0,0,0,0,0,0,0,0,0,-1,2001,1569,0,0
784,-545,0,0,0,0,0,0,0,0,0,-1,2008,1569,0,0
791,-545,0,0,0,0,0,0,0,0,0,-1,2015,1569,0,0
798,-545,0,0,0,0,0,0,0,0,0,-1,2022,1569,0,0
805,-545,0,0,0,0,0,0,0,0,0,-1,2029,1569,0,0
812,-545,0,0,0,0,0,0,0,0,0,-1,2036,1569,0,0
-700,-552,0,0,0,0,0,0,0,0,0,-1,524,1576,0,0
-693,-552,0,0,0,0,0,0,0,0,0,-1,531,1576,0,0
-686,-552,0,0,0,0,0,0,0,0,0,-1,538,1576,0,0
-679,-552,0,0,0,0,0,0,0,0,0,-1,545,1576,0,0
-672,-552,0,0,0,0,0,0,0,0,0,-1,552,1576,0,0
-665,-552,0,0,0,0,0,0,0,0,0,-1,559,1576,0,0
-658,-552,0,0,0,0,0,0,0,0,0,-1,566,1576,0,0
-651,-552,0,0,0,0,0,0,0,0,0,-1,573,1576,0,0
-644,-552,0,0,0,0,0,0,0,0,0,-1,580,1576,0,0
-637,-552,0,0,0,0,0,0,0,0,0,-1,587,1576,0,0
-630,-552,0,0,0,0,0,0,0,0,0,-1,594,1576,0,0
-623,-552,0,0,0,0,0,0,0,0,0,-1,601,1576,0,0
-616,-552,0,0,0,0,0,0,0,0,0,-1,608,1576,0,0
-609,-552,0,0,0,0,0,0,0,0,0,-1,615,1576,0,0
-602,-552,0,0,0,0,0,0,0,0,0,-1,622,1576,0,0
-595,-552,0,0,0,0,0,0,0,0,0,-1,629,1576,0,0
-588,-552,0,0,0,0,0,0,0,0,0,-1,636,1576,0,0
-581,-552,0,0,0,0,0,0,0,0,0,-1,643,1576,0,0
-574,-552,0,0,0,0,0,0,0,0,0,-1,650,1576,0,0
-567,-552,0,0,0,0,0,0,0,0,0,-1,657,1576,0,0
-560,-552,0,0,0,0,0,0,0,0,0,-1,664,1576,0,0
-553,-552,0,0,0,0,0,0,0,0,0,-1,671,1576,0,0
-546,-552,0,0,0,0,0,0,0,0,0,-1,678,1576,0,0
-539,-552,0,0,0,0,0,0,0,0,0,-1,685,1576,0,0
-532,-552,0,0,0,0,0,0,0,0,0,-1,692,1576,0,0
-525,-552,0,0,0,0,0,0,0,0,0,-1,699,1576,0,0
-518,-552,0,0,0,0,0,0,0,0,0,-1,706,1576,0,0
-511,-552,0,0,0,0,0,0,0,0,0,-1,713,1576,0,0
-504,-552,0,0,0,0,0,0,0,0,0,-1,720,1576,0,0
-497,-552,4.31219,2.31567,0,0,0,0,0,0,0,-1,727,1576,4.3122,-2.31566
-490,-552,3.39441,2.69739,0,0,0,0,0,0,0,-1,734,1576,3.39441,-2.6974
-483,-552,2.89716,2.37073,-0.0228478,0.0187703,-0.0198324,0.0267074,-0.0307849,-1.19011,0.033221,0.042761,741,1576,2.89717,-2.37077
-476,-552,2.43158,2.22437,-0.0239046,0.0200192,-0.011767,0.0229729,-0.0268582,-1.32486,0.0287991,0.0406394,748,1576,2.43156,-2.22432
-469,-552,1.91742,2.25574,0,0,0,0,0,0,0,-1,755,1576,1.91742,-2.25571
-462,-552,1.87122,1.84424,-0.021133,0.0196291,-3.30891e-06,0.0196291,-0.021133,-1.57072,0.0235393,0.0409289,762,1576,1.87122,-1.84425
-455,-552,2.1532,1.39771,-0.0161047,0.0179502,0.00391137,0.0183937,-0.0165481,1.4579,0.0201831,0.0412627,769,1576,2.15318,-1.39775
-448,-552,0.684509,2.38733,-0.0121733,0.01603,0.00697763,0.0176618,-0.0138052,1.34105,0.0182129,0.0381376,776,1576,0.684482,-2.38733
-441,-552,1.14301,2.34631,-0.00733543,0.0140179,0.00831749,0.0168754,-0.0101929,1.23988,0.0157858,0.0336735,783,1576,1.14302,-2.34635
-434,-552,1.21027,2.45007,-0.00325404,0.0119783,0.0087749,0.0159813,-0.00725704,1.14281,0.0137282,0.0180601,790,1576,1.21027,-2.45007
-427,-552,1.20386,2.52539,6.24696e-05,0.0100748,0.00888202,0.0152643,-0.00512705,1.04202,0.0122483,0.0141461,797,1576,1.20387,-2.52533
-420,-552,1.21021,2.60107,0.00246236,0.00840523,0.00841573,0.0143587,-0.00349111,0.955107,0.0109237,0.0179834,804,1576,1.21022,-2.6011
-413,-552,1.21106,2.66235,0.00371477,0.00660437,0.00742213,0.012721,-0.00240188,0.881527,0.00938433,0.0167342,811,1576,1.21106,-2.66239
-406,-552,1.20691,2.71545,0.0042442,0.00487808,0.00644955,0.0110185,-0.00189619,0.809949,0.00805248,0.0133912,818,1576,1.20694,-2.71547
-399,-552,1.20825,2.81213,0.00462043,0.00326022,0.00498583,0.00897233,-0.00109168,0.717613,0.00637667,0.0134154,825,1576,1.20825,-2.81218
-392,-552,1.19952,2.88196,0.00430557,0.00239739,0.00345131,0.00693224,-0.00022928,0.650544,0.00469979,0.013701,832,1576,1.19952,-2.88194
-385,-552,1.20605,2.96094,0.00293576,0.00212327,0.00230985,0.00487482,0.00018422,0.69835,0.00319024,0.0124636,839,1576,1.20606,-2.96096
-378,-552,1.19971,3.01172,0.00169029,0.00206555,0.00154153,0.00343083,0.000325011,0.845958,0.00218695,0.0146138,846,1576,1.19972,-3.01174
-371,-552,1.20593,3.07776,0.000869304,0.00247682,0.000829278,0.00282794,0.000518191,1.17028,0.0017385,0.0194917,853,1576,1.20596,-3.0778
-364,-552,1.22223,3.14111,0.000801118,0.0038764,1.26321e-07,0.0038764,0.000801118,1.57076,0.00236294,0.0147601,860,1576,1.22224,-3.14113
-357,-552,1.21741,3.19165,0.00163869,0.00492024,-0.000203008,0.00493276,0.00162617,-1.50925,0.00290249,0.00980386,867,1576,1.21738,-3.1916
-350,-552,1.21411,3.25842,0.00256772,0.00651971,-0.000174725,0.00652742,0.00256001,-1.5267,0.0037977,0.00921802,874,1576,1.21411,-3.25843
-343,-552,1.20319,3.30518,0.00369325,0.00967825,0.000352333,0.00969892,0.00367258,1.5122,0.00565437,0.00958851,881,1576,1.20316,-3.30519
-336,-552,1.2326,3.35364,0.00558951,0.0138212,0.000664099,0.0138745,0.00553628,1.49081,0.00806468,0.0142195,888,1576,1.23259,-3.35359
-329,-552,1.3042,3.45007,0.00832227,0.0176384,0.00126103,0.0178061,0.0081546,1.43861,0.0102924,0.03013,895,1576,1.30418,-3.45002
-322,-552,1.69287,3.62952,0.0108447,0.0220344,0.00187369,0.0223398,0.0105393,1.40922,0.0129048,0.0435211,902,1576,1.69285,-3.62954
-315,-552,2.09863,3.28162,0.0118376,0.0264446,0.00195573,0.0267019,0.0115803,1.43998,0.0154615,0.0456191,909,1576,2.09864,-3.28158
-308,-552,1.93793,3.45911,0.0113282,0.0306426,0.00122763,0.0307203,0.0112505,1.50757,0.0179467,0.0450267,916,1576,1.93793,-3.45916
-301,-552,2.23132,3.49255,0,0,0,0,0,0,0,-1,923,1576,2.23131,-3.4926
-294,-552,1.02301,1.56787,0,0,0,0,0,0,0,-1,930,1576,1.02299,-1.56782
-287,-552,0.921448,4.85168,0,0,0,0,0,0,0,-1,937,1576,0.921439,-4.8517
-280,-552,1.16504,5.33594,0,0,0,0,0,0,0,-1,944,1576,1.16506,-5.33597
-273,-552,1.40869,5.82019,0,0,0,0,0,0,0,-1,951,1576,1.40868,-5.82025
-266,-552,0.661804,3.88379,0,0,0,0,0,0,0,-1,958,1576,0.661785,-3.8838
-259,-552,0.836243,3.79297,0,0,0,0,0,0,0,-1,965,1576,0.83622,-3.79291
-252,-552,-1.56482,0.83606,0,0,0,0,0,0,0,-1,972,1576,-1.56484,-0.836015
-245,-552,0.737244,3.42297,0,0,0,0,0,0,0,-1,979,1576,0.737242,-3.42302
-238,-552,0.611694,3.16882,0,0,0,0,0,0,0,-1,986,1576,0.61168,-3.16878
-231,-552,0.498291,2.78381,0,0,0,0,0,0,0,-1,993,1576,0.498307,-2.78378
-224,-552,0,0,0,0,0,0,0,0,0,-1,1000,1576,0,0
-217,-552,0,0,0,0,0,0,0,0,0,-1,1007,1576,0,0
-210,-552,0,0,0,0,0,0,0,0,0,-1,1014,1576,0,0
-203,-552,0,0,0,0,0,0,0,0,0,-1,1021,1576,0,0
-196,-552,0,0,0,0,0,0,0,0,0,-1,1028,1576,0,0
-189,-552,0,0,0,0,0,0,0,0,0,-1,1035,1576,0,0
-182,-552,0,0,0,0,0,0,0,0,0,-1,1042,1576,0,0
-175,-552,0,0,0,0,0,0,0,0,0,-1,1049,1576,0,0
-168,-552,0,0,0,0,0,0,0,0,0,-1,1056,1576,0,0
-161,-552,0,0,0,0,0,0,0,0,0,-1,1063,1576,0,0
-154,-552,0,0,0,0,0,0,0,0,0,-1,1070,1576,0,0
-147,-552,0,0,0,0,0,0,0,0,0,-1,1077,1576,0,0
-140,-552,0,0,0,0,0,0,0,0,0,-1,1084,1576,0,0
-133,-552,0,0,0,0,0,0,0,0,0,-1,1091,1576,0,0
-126,-552,0,0,0,0,0,0,0,0,0,-1,1098,1576,0,0
-119,-552,0,0,0,0,0,0,0,0,0,-1,1105,1576,0,0
-112,-552,0,0,0,0,0,0,0,0,0,-1,1112,1576,0,0
-105,-552,0,0,0,0,0,0,0,0,0,-1,1119,1576,0,0
-98,-552,0,0,0,0,0,0,0,0,0,-1,1126,1576,0,0
-91,-552,0,0,0,0,0,0,0,0,0,-1,1133,1576,0,0
-84,-552,0,0,0,0,0,0,0,0,0,-1,1140,1576,0,0
-77,-552,0,0,0,0,0,0,0,0,0,-1,1147,1576,0,0
-70,-552,0,0,0,0,0,0,0,0,0,-1,1154,1576,0,0
-63,-552,0,0,0,0,0,0,0,0,0,-1,1161,1576,0,0
-56,-552,0,0,0,0,0,0,0,0,0,-1,1168,1576,0,0
-49,-552,0,0,0,0,0,0,0,0,0,-1,1175,1576,0,0
-42,-552,0,0,0,0,0,0,0,0,0,-1,1182,1576,0,0
-35,-552,0,0,0,0,0,0,0,0,0,-1,1189,1576,0,0
-28,-552,0,0,0,0,0,0,0,0,0,-1,1196,1576,0,0
-21,-552,0,0,0,0,0,0,0,0,0,-1,1203,1576,0,0
-14,-552,0,0,0,0,0,0,0,0,0,-1,1210,1576,0,0
-7,-552,0,0,0,0,0,0,0,0,0,-1,1217,1576,0,0
0,-552,0,0,0,0,0,0,0,0,0,-1,1224,1576,0,0
7,-552,0,0,0,0,0,0,0,0,0,-1,1231,1576,0,0
14,-552,0,0,0,0,0,0,0,0,0,-1,1238,1576,0,0
21,-552,0,0,0,0,0,0,0,0,0,-1,1245,1576,0,0
28,-552,0,0,0,0,0,0,0,0,0,-1,1252,1576,0,0
35,-552,0,0,0,0,0,0,0,0,0,-1,1259,1576,0,0
42,-552,0,0,0,0,0,0,0,0,0,-1,1266,1576,0,0
49,-552,0,0,0,0,0,0,0,0,0,-1,1273,1576,0,0
56,-552,0,0,0,0,0,0,0,0,0,-1,1280,1576,0,0
63,-552,0,0,0,0,0,0,0,0,0,-1,1287,1576,0,0
70,-552,0,0,0,0,0,0,0,0,0,-1,1294,1576,0,0
77,-552,0,0,0,0,0,0,0,0,0,-1,1301,1576,0,0
84,-552,0,0,0,0,0,0,0,0,0,-1,1308,1576,0,0
91,-552,0,0,0,0,0,0,0,0,0,-1,1315,1576,0,0
98,-552,0,0,0,0,0,0,0,0,0,-1,1322,1576,0,0
105,-552,0,0,0,0,0,0,0,0,0,-1,1329,1576,0,0
112,-552,0,0,0,0,0,0,0,0,0,-1,1336,1576,0,0
119,-552,0,0,0,0,0,0,0,0,0,-1,1343,1576,0,0
126,-552,0,0,0,0,0,0,0,0,0,-1,1350,1576,0,0
133,-552,0,0,0,0,0,0,0,0,0,-1,1357,1576,0,0
140,-552,0,0,0,0,0,0,0,0,0,-1,1364,1576,0,0
147,-552,0,0,0,0,0,0,0,0,0,-1,1371,1576,0,0
154,-552,0,0,0,0,0,0,0,0,0,-1,1378,1576,0,0
161,-552,0,0,0,0,0,0,0,0,0,-1,1385,1576,0,0
168,-552,0,0,0,0,0,0,0,0,0,-1,1392,1576,0,0
175,-552,0,0,0,0,0,0,0,0,0,-1,1399,1576,0,0
182,-552,0,0,0,0,0,0,0,0,0,-1,1406,1576,0,0
189,-552,0,0,0,0,0,0,0,0,0,-1,1413,1576,0,0
196,-552,0,0,0,0,0,0,0,0,0,-1,1420,1576,0,0
203,-552,0,0,0,0,0,0,0,0,0,-1,1427,1576,0,0
210,-552,0,0,0,0,0,0,0,0,0,-1,1434,1576,0,0
217,-552,0,0,0,0,0,0,0,0,0,-1,1441,1576,0,0
224,-552,0,0,0,0,0,0,0,0,0,-1,1448,1576,0,0
231,-552,0,0,0,0,0,0,0,0,0,-1,1455,1576,0,0
238,-552,0,0,0,0,0,0,0,0,0,-1,1462,1576,0,0
245,-552,0,0,0,0,0,0,0,0,0,-1,1469,1576,0,0
252,-552,0,0,0,0,0,0,0,0,0,-1,1476,1576,0,0
259,-552,0,0,0,0,0,0,0,0,0,-1,1483,1576,0,0
266,-552,0,0,0,0,0,0,0,0,0,-1,1490,1576,0,0
273,-552,0,0,0,0,0,0,0,0,0,-1,1497,1576,0,0
280,-552,0,0,0,0,0,0,0,0,0,-1,1504,1576,0,0
287,-552,0,0,0,0,0,0,0,0,0,-1,1511,1576,0,0
294,-552,0,0,0,0,0,0,0,0,0,-1,1518,1576,0,0
301,-552,0,0,0,0,0,0,0,0,0,-1,1525,1576,0,0
308,-552,0,0,0,0,0,0,0,0,0,-1,1532,1576,0,0
315,-552,0,0,0,0,0,0,0,0,0,-1,1539,1576,0,0
322,-552,0,0,0,0,0,0,0,0,0,-1,1546,1576,0,0
329,-552,0,0,0,0,0,0,0,0,0,-1,1553,1576,0,0
336,-552,0,0,0,0,0,0,0,0,0,-1,1560,1576,0,0
343,-552,0,0,0,0,0,0,0,0,0,-1,1567,1576,0,0
350,-552,5.03149,3.31958,0,0,0,0,0,0,0,-1,1574,1576,5.03152,-3.31962
357,-552,5.18469,4.10706,0,0,0,0,0,0,0,-1,1581,1576,5.1847,-4.10702
364,-552,4.6189,3.48181,0,0,0,0,0,0,0,-1,1588,1576,4.61895,-3.48178
371,-552,4.79712,3.8429,0,0,0,0,0,0,0,-1,1595,1576,4.79707,-3.84296
378,-552,4.29504,2.9425,-0.067955,0.113968,-0.0130216,0.114895,-0.0688824,-1.4997,0.107207,0.0463793,1602,1576,4.29508,-2.94255
385,-552,3.81946,2.047,-0.0538969,0.111076,-0.00338168,0.111146,-0.0539662,-1.55031,0.0972141,0.0472971,1609,1576,3.81941,-2.04699
392,-552,3.14746,1.44873,-0.042562,0.105425,0.00442315,0.105558,-0.0426941,1.54094,0.0881208,0.0486568,1616,1576,3.14745,-1.44873
399,-552,2.94043,1.32446,-0.0344002,0.0980547,0.00987821,0.0987873,-0.0351328,1.49676,0.0801774,0.0472878,1623,1576,2.94039,-1.32441
406,-552,3.07837,0.849609,-0.0294873,0.0887541,0.0132321,0.0902168,-0.03095,1.4607,0.0726917,0.0448939,1630,1576,3.07839,-0.849588
413,-552,3.14282,0.529907,-0.0272036,0.0767244,0.0149959,0.0788449,-0.0293241,1.43032,0.0645961,0.044938,1637,1576,3.14288,-0.529956
420,-552,3.34412,0.413696,-0.0267974,0.0634938,0.0156202,0.0661197,-0.0294233,1.40424,0.0565017,0.0466472,1644,1576,3.3441,-0.413656
427,-552,3.25269,-0.083374,-0.0274011,0.0496351,0.0152052,0.0525276,-0.0302937,1.38281,0.0483878,0.0458606,1651,1576,3.25267,0.0833751
434,-552,3.04834,-0.918701,0,0,0,0,0,0,0,-1,1658,1576,3.04836,0.918729
441,-552,2.09412,2.43237,0,0,0,0,0,0,0,-1,1665,1576,2.09406,-2.43233
448,-552,3.7002,3.61182,0,0,0,0,0,0,0,-1,1672,1576,3.70015,-3.61176
455,-552,3.60791,3.50854,-0.0265025,0.00420043,0.00937442,0.00683639,-0.0291385,1.29669,0.0220604,0.0395005,1679,1576,3.60796,-3.50849
462,-552,3.55798,3.50769,-0.0250003,-0.0031749,0.00750751,-0.000841861,-0.0273334,1.2695,0.0179482,0.037491,1686,1576,3.55797,-3.50768
469,-552,3.57593,3.5542,-0.022244,-0.00839625,0.0061672,-0.00604789,-0.0245924,1.20697,0.0147968,0.0305355,1693,1576,3.57591,-3.55422
476,-552,3.63953,3.51721,-0.0185436,-0.0109999,0.00503966,-0.00847688,-0.0210666,1.10665,0.0122398,0.0152511,1700,1576,3.63952,-3.51726
483,-552,3.67603,3.4585,-0.0138064,-0.0105635,0.00371049,-0.00813563,-0.0162342,0.991389,0.00937285,0.0136027,1707,1576,3.67606,-3.45849
490,-552,3.67993,3.38904,-0.00882403,-0.00837867,0.00305334,-0.0055399,-0.0116628,0.821798,0.00673633,0.0146143,1714,1576,3.67992,-3.38909
497,-552,3.73376,3.34094,-0.00457164,-0.00607516,0.00238286,-0.00282476,-0.00782204,0.632598,0.00457375,0.022748,1721,1576,3.73382,-3.34096
504,-552,3.69763,3.26855,-0.00128343,-0.00428397,0.00171642,-0.000504027,-0.00506337,0.426247,0.00322075,0.0221684,1728,1576,3.69757,-3.26859
511,-552,3.6488,3.19299,0.00141377,-0.00251936,0.000660506,0.00152172,-0.00262732,0.162015,0.00242363,0.015581,1735,1576,3.64883,-3.19303
518,-552,3.65381,3.12183,0.0035693,-0.000570132,-0.000626694,0.00366209,-0.000662931,-0.147008,0.00268974,0.014227,1742,1576,3.65385,-3.1218
525,-552,3.66418,3.04834,0.00522873,0.00102827,-0.00220791,0.00617577,8.12314e-05,-0.405193,0.00409037,0.0127954,1749,1576,3.66418,-3.04839
532,-552,3.67407,3.00024,0.00776319,0.00294109,-0.00412613,0.0101311,0.000573216,-0.520987,0.00657131,0.0123937,1756,1576,3.67402,-3.00023
539,-552,3.67188,2.93689,0.0111024,0.0047711,-0.00642149,0.0150962,0.000777374,-0.55639,0.00981526,0.0165782,1763,1576,3.67184,-2.93686
546,-552,3.646,2.89355,0.014689,0.00667939,-0.00900536,0.0205399,0.000828474,-0.576175,0.0134256,0.0208587,1770,1576,3.64599,-2.89357
553,-552,3.66284,2.82532,0.0194724,0.00905626,-0.0122601,0.0275848,0.000943856,-0.584549,0.0180835,0.0230252,1777,1576,3.66283,-2.82535
560,-552,3.63232,2.77759,0.025492,0.0116614,-0.0162777,0.0362624,0.00089098,-0.584533,0.0238835,0.0291872,1784,1576,3.63231,-2.77759
567,-552,3.56531,2.69275,0.03272,0.0151253,-0.0208011,0.0465076,0.00133776,-0.585341,0.0305689,0.0334303,1791,1576,3.56526,-2.69274
574,-552,3.55786,2.52283,0.0419703,0.0189205,-0.0253432,0.058286,0.00260475,-0.571999,0.0380189,0.0393949,1798,1576,3.55785,-2.52278
581,-552,3.2915,2.4043,0.0541729,0.0232326,-0.0301211,0.0725643,0.00484117,-0.548165,0.046846,0.0465269,1805,1576,3.29156,-2.40429
588,-552,3.09277,2.16052,0,0,0,0,0,0,0,-1,1812,1576,3.09276,-2.16057
595,-552,2.46008,1.78882,0,0,0,0,0,0,0,-1,1819,1576,2.46008,-1.78886
602,-552,2.66248,1.31104,0,0,0,0,0,0,0,-1,1826,1576,2.66245,-1.311
609,-552,4.55933,-1.08374,0,0,0,0,0,0,0,-1,1833,1576,4.55937,1.08375
616,-552,4.89478,-1.18921,0,0,0,0,0,0,0,-1,1840,1576,4.89482,1.1892
623,-552,0,0,0,0,0,0,0,0,0,-1,1847,1576,0,0
630,-552,0,0,0,0,0,0,0,0,0,-1,1854,1576,0,0
637,-552,0,0,0,0,0,0,0,0,0,-1,1861,1576,0,0
644,-552,0,0,0,0,0,0,0,0,0,-1,1868,1576,0,0
651,-552,0,0,0,0,0,0,0,0,0,-1,1875,1576,0,0
658,-552,0,0,0,0,0,0,0,0,0,-1,1882,1576,0,0
665,-552,0,0,0,0,0,0,0,0,0,-1,1889,1576,0,0
672,-552,0,0,0,0,0,0,0,0,0,-1,1896,1576,0,0
679,-552,0,0,0,0,0,0,0,0,0,-1,1903,1576,0,0
686,-552,0,0,0,0,0,0,0,0,0,-1,1910,1576,0,0
693,-552,0,0,0,0,0,0,0,0,0,-1,1917,1576,0,0
700,-552,0,0,0,0,0,0,0,0,0,-1,1924,1576,0,0
707,-552,0,0,0,0,0,0,0,0,0,-1,1931,1576,0,0
714,-552,0,0,0,0,0,0,0,0,0,-1,1938,1576,0,0
721,-552,0,0,0,0,0,0,0,0,0,-1,1945,1576,0,0
728,-552,0,0,0,0,0,0,0,0,0,-1,1952,1576,0,0
735,-552,0,0,0,0,0,0,0,0,0,-1,1959,1576,0,0
742,-552,0,0,0,0,0,0,0,0,0,-1,1966,1576,0,0
749,-552,0,0,0,0,0,0,0,0,0,-1,1973,1576,0,0
756,-552,0,0,0,0,0,0,0,0,0,-1,1980,1576,0,0
763,-552,0,0,0,0,0,0,0,0,0,-1,1987,1576,0,0
770,-552,0,0,0,0,0,0,0,0,0,-1,1994,1576,0,0
777,-552,0,0,0,0,0,0,0,0,0,-1,2001,1576,0,0
784,-552,0,0,0,0,0,0,0,0,0,-1,2008,1576,0,0
791,-552,0,0,0,0,0,0,0,0,0,-1,2015,1576,0,0
798,-552,0,0,0,0,0,0,0,0,0,-1,2022,1576,0,0
805,-552,0,0,0,0,0,0,0,0,0,-1,2029,1576,0,0
812,-552,0,0,0,0,0,0,0,0,0,-1,2036,1576,0,0
-700,-559,0,0,0,0,0,0,0,0,0,-1,524,1583,0,0
-693,-559,0,0,0,0,0,0,0,0,0,-1,531,1583,0,0
-686,-559,0,0,0,0,0,0,0,0,0,-1,538,1583,0,0
-679,-559,0,0,0,0,0,0,0,0,0,-1,545,1583,0,0
-672,-559,0,0,0,0,0,0,0,0,0,-1,552,1583,0,0
-665,-559,0,0,0,0,0,0,0,0,0,-1,559,1583,0,0
-658,-559,0,0,0,0,0,0,0,0,0,-1,566,1583,0,0
-651,-559,0,0,0,0,0,0,0,0,0,-1,573,1583,0,0
-644,-559,0,0,0,0,0,0,0,0,0,-1,580,1583,0,0
-637,-559,0,0,0,0,0,0,0,0,0,-1,587,1583,0,0
-630,-559,0,0,0,0,0,0,0,0,0,-1,594,1583,0,0
-623,-559,0,0,0,0,0,0,0,0,0,-1,601,1583,0,0
-616,-559,0,0,0,0,0,0,0,0,0,-1,608,1583,0,0
-609,-559,0,0,0,0,0,0,0,0,0,-1,615,1583,0,0
-602,-559,0,0,0,0,0,0,0,0,0,-1,622,1583,0,0
-595,-559,0,0,0,0,0,0,0,0,0,-1,629,1583,0,0
-588,-559,0,0,0,0,0,0,0,0,0,-1,636,1583,0,0
-581,-559,0,0,0,0,0,0,0,0,0,-1,643,1583,0,0
-574,-559,0,0,0,0,0,0,0,0,0,-1,650,1583,0,0
-567,-559,0,0,0,0,0,0,0,0,0,-1,657,1583,0,0
-560,-559,0,0,0,0,0,0,0,0,0,-1,664,1583,0,0
-553,-559,0,0,0,0,0,0,0,0,0,-1,671,1583,0,0
-546,-559,0,0,0,0,0,0,0,0,0,-1,678,1583,0,0
-539,-559,0,0,0,0,0,0,0,0,0,-1,685,1583,0,0
-532,-559,0,0,0,0,0,0,0,0,0,-1,692,1583,0,0
-525,-559,0,0,0,0,0,0,0,0,0,-1,699,1583,0,0
-518,-559,0,0,0,0,0,0,0,0,0,-1,706,1583,0,0
-511,-559,0,0,0,0,0,0,0,0,0,-1,713,1583,0,0
-504,-559,0,0,0,0,0,0,0,0,0,-1,720,1583,0,0
-497,-559,0,0,0,0,0,0,0,0,0,-1,727,1583,0,0
-490,-559,3.67371,2.50281,0,0,0,0,0,0,0,-1,734,1583,3.67372,-2.50286
-483,-559,3.36353,2.27563,-0.0331744,0.0223281,-0.0194319,0.028455,-0.0393013,-1.26536,0.0392859,0.044415,741,1583,3.36353,-2.27561
-476,-559,2.76001,2.26599,-0.0332109,0.0243228,-0.0101056,0.0260462,-0.0349343,-1.40188,0.0353315,0.0427475,748,1583,2.76003,-2.26596
-469,-559,2.06604,1.01489,0,0,0,0,0,0,0,-1,755,1583,2.06603,-1.01487
-462,-559,1.90314,1.60046,-0.0269496,0.0241714,0.00324076,0.024376,-0.0271542,1.50774,0.0297654,0.0408145,762,1583,1.90313,-1.60047
-455,-559,1.60278,1.56714,-0.0197611,0.022318,0.00776271,0.0237044,-0.0211474,1.39406,0.0259092,0.0406813,769,1583,1.60281,-1.56711
-448,-559,1.54034,1.87097,-0.0137022,0.0202626,0.0110871,0.0235613,-0.0170009,1.28161,0.0235205,0.0445328,776,1583,1.54037,-1.87096
-441,-559,1.22687,2.14978,-0.00722293,0.0180644,0.0125865,0.0232612,-0.0124198,1.17923,0.020915,0.0407843,783,1583,1.22688,-2.14973
-434,-559,1.30957,2.40369,-0.00191938,0.0158145,0.0130941,0.0227614,-0.00886633,1.08302,0.0188386,0.0305282,790,1583,1.30959,-2.40373
-427,-559,1.2561,2.55334,0.00220345,0.0137083,0.0130721,0.0222377,-0.00632594,0.992674,0.0173232,0.0183278,797,1583,1.25608,-2.55336
-420,-559,1.24225,2.59119,0.00504109,0.0118062,0.0123047,0.0211848,-0.00433756,0.919534,0.0157692,0.0171881,804,1583,1.24223,-2.59121
-413,-559,1.26007,2.66492,0.0064117,0.00975728,0.0108675,0.0190799,-0.00291095,0.861762,0.013793,0.0115838,811,1583,1.26007,-2.66489
-406,-559,1.27258,2.73035,0.00688672,0.00775708,0.00946412,0.016796,-0.00215222,0.808373,0.0119794,0.00981002,818,1583,1.27258,-2.73036
-399,-559,1.27856,2.79211,0.00722511,0.00577723,0.0075876,0.0141232,-0.00112089,0.737837,0.00981048,0.0126154,825,1583,1.27855,-2.79208
-392,-559,1.26447,2.84167,0.00672388,0.00458834,0.00558791,0.0113451,-3.2899e-05,0.690993,0.0075744,0.0145364,832,1583,1.26447,-2.84169
-385,-559,1.26416,2.93884,0.00489645,0.00390388,0.00393824,0.00836955,0.000430781,0.72272,0.00544179,0.0145063,839,1583,1.26417,-2.93879
-378,-559,1.28918,3.01782,0.00320052,0.00335451,0.00273012,0.00600871,0.000546312,0.799496,0.00383669,0.0144552,846,1583,1.2892,-3.01784
-371,-559,1.28235,3.10547,0.0019399,0.00321894,0.00158374,0.0042874,0.00087144,0.977289,0.00261662,0.0232033,853,1583,1.28233,-3.10552
-364,-559,1.28925,3.16223,0.00142757,0.00395349,0.000367449,0.00400586,0.0013752,1.42923,0.00235034,0.0206129,860,1583,1.28925,-3.16218
-357,-559,1.29266,3.20837,0.00171343,0.00446134,-0.00022204,0.00447916,0.0016956,-1.49069,0.00261135,0.01215,867,1583,1.29268,-3.20832
-350,-559,1.28131,3.25024,0.00227388,0.00548131,-0.000461732,0.00554646,0.00220873,-1.43063,0.00322429,0.00998226,874,1583,1.28132,-3.25022
-343,-559,1.2691,3.30457,0.0031545,0.00776356,-0.000100416,0.00776575,0.00315232,-1.54902,0.00450993,0.0106237,881,1583,1.2691,-3.30451
-336,-559,1.27362,3.35522,0.00489693,0.011121,0.000121122,0.0111233,0.00489457,1.55135,0.00643743,0.0116086,888,1583,1.27365,-3.3552
-329,-559,1.30133,3.42859,0.00740969,0.0141754,0.000580625,0.0142249,0.00736023,1.48581,0.00821438,0.0144254,895,1583,1.30135,-3.42864
-322,-559,1.41595,3.50635,0.00961471,0.0176975,0.00105434,0.0178328,0.00947944,1.4432,0.0103026,0.0297913,902,1583,1.41598,-3.5064
-315,-559,1.65314,3.43408,0.0102077,0.021153,0.000958165,0.0212362,0.0101245,1.48413,0.0122652,0.0361451,909,1583,1.65315,-3.43412
-308,-559,1.79413,3.44836,0.00942049,0.0243236,5.67527e-05,0.0243238,0.00942027,1.56699,0.0141618,0.0371423,916,1583,1.79414,-3.44835
-301,-559,2.11713,3.27588,0.00819546,0.0277753,-0.00111182,0.0278382,0.00813253,-1.51425,0.0165289,0.0447482,923,1583,2.11711,-3.27584
-294,-559,2.44263,3.24341,0,0,0,0,0,0,0,-1,930,1583,2.44262,-3.24343
-287,-559,0.313538,4.81714,0.000187453,0.0342273,-0.00681649,0.0355416,-0.00112681,-1.38033,0.0240788,0.0436322,937,1583,0.313561,-4.81713
-280,-559,1.29956,5.19653,-0.00779543,0.0365727,-0.0119609,0.0395917,-0.0108145,-1.32355,0.0306422,0.0485759,944,1583,1.29959,-5.1965
-273,-559,1.56555,5.6698,0,0,0,0,0,0,0,-1,951,1583,1.56557,-5.66983
-266,-559,0.654724,3.34888,0,0,0,0,0,0,0,-1,958,1583,0.654739,-3.34892
-259,-559,-0.596008,2.7251,0,0,0,0,0,0,0,-1,965,1583,-0.59602,-2.72514
-252,-559,-1.71844,1.35168,0,0,0,0,0,0,0,-1,972,1583,-1.71843,-1.3517
-245,-559,-2.41418,0.732422,0,0,0,0,0,0,0,-1,979,1583,-2.41421,-0.732473
-238,-559,0.934326,3.3634,0,0,0,0,0,0,0,-1,986,1583,0.934303,-3.36334
-231,-559,0.183228,2.17798,0,0,0,0,0,0,0,-1,993,1583,0.1832,-2.17792
-224,-559,-0.339233,2.27502,0,0,0,0,0,0,0,-1,1000,1583,-0.339253,-2.27506
-217,-559,0,0,0,0,0,0,0,0,0,-1,1007,1583,0,0
-210,-559,0,0,0,0,0,0,0,0,0,-1,1014,1583,0,0
-203,-559,0,0,0,0,0,0,0,0,0,-1,1021,1583,0,0
-196,-559,0,0,0,0,0,0,0,0,0,-1,1028,1583,0,0
-189,-559,0,0,0,0,0,0,0,0,0,-1,1035,1583,0,0
-182,-559,0,0,0,0,0,0,0,0,0,-1,1042,1583,0,0
-175,-559,0,0,0,0,0,0,0,0,0,-1,1049,1583,0,0
-168,-559,0,0,0,0,0,0,0,0,0,-1,1056,1583,0,0
-161,-559,0,0,0,0,0,0,0,0,0,-1,1063,1583,0,0
-154,-559,0,0,0,0,0,0,0,0,0,-1,1070,1583,0,0
-147,-559,0,0,0,0,0,0,0,0,0,-1,1077,1583,0,0
-140,-559,0,0,0,0,0,0,0,0,0,-1,1084,1583,0,0
-133,-559,0,0,0,0,0,0,0,0,0,-1,1091,1583,0,0
-126,-559,0,0,0,0,0,0,0,0,0,-1,1098,1583,0,0
-119,-559,0,0,0,0,0,0,0,0,0,-1,1105,1583,0,0
-112,-559,0,0,0,0,0,0,0,0,0,-1,1112,1583,0,0
-105,-559,0,0,0,0,0,0,0,0,0,-1,1119,1583,0,0
-98,-559,0,0,0,0,0,0,0,0,0,-1,1126,1583,0,0
-91,-559,0,0,0,0,0,0,0,0,0,-1,1133,1583,0,0
-84,-559,0,0,0,0,0,0,0,0,0,-1,1140,1583,0,0
-77,-559,0,0,0,0,0,0,0,0,0,-1,1147,1583,0,0
-70,-559,0,0,0,0,0,0,0,0,0,-1,1154,1583,0,0
-63,-559,0,0,0,0,0,0,0,0,0,-1,1161,1583,0,0
-56,-559,0,0,0,0,0,0,0,0,0,-1,1168,1583,0,0
-49,-559,0,0,0,0,0,0,0,0,0,-1,1175,1583,0,0
-42,-559,0,0,0,0,0,0,0,0,0,-1,1182,1583,0,0
-35,-559,0,0,0,0,0,0,0,0,0,-1,1189,1583,0,0
-28,-559,0,0,0,0,0,0,0,0,0,-1,1196,1583,0,0
-21,-559,0,0,0,0,0,0,0,0,0,-1,1203,1583,0,0
-14,-559,0,0,0,0,0,0,0,0,0,-1,1210,1583,0,0
-7,-559,0,0,0,0,0,0,0,0,0,-1,1217,1583,0,0
0,-559,0,0,0,0,0,0,0,0,0,-1,1224,1583,0,0
7,-559,0,0,0,0,0,0,0,0,0,-1,1231,1583,0,0
14,-559,0,0,0,0,0,0,0,0,0,-1,1238,1583,0,0
21,-559,0,0,0,0,0,0,0,0,0,-1,1245,1583,0,0
28,-559,0,0,0,0,0,0,0,0,0,-1,1252,1583,0,0
35,-559,0,0,0,0,0,0,0,0,0,-1,1259,1583,0,0
42,-559,0,0,0,0,0,0,0,0,0,-1,1266,1583,0,0
49,-559,0,0,0,0,0,0,0,0,0,-1,1273,1583,0,0
56,-559,0,0,0,0,0,0,0,0,0,-1,1280,1583,0,0
63,-559,0,0,0,0,0,0,0,0,0,-1,1287,1583,0,0
70,-559,0,0,0,0,0,0,0,0,0,-1,1294,1583,0,0
77,-559,0,0,0,0,0,0,0,0,0,-1,1301,1583,0,0
84,-559,0,0,0,0,0,0,0,0,0,-1,1308,1583,0,0
91,-559,0,0,0,0,0,0,0,0,0,-1,1315,1583,0,0
98,-559,0,0,0,0,0,0,0,0,0,-1,1322,1583,0,0
105,-559,0,0,0,0,0,0,0,0,0,-1,1329,1583,0,0
112,-559,0,0,0,0,0,0,0,0,0,-1,1336,1583,0,0
119,-559,0,0,0,0,0,0,0,0,0,-1,1343,1583,0,0
126,-559,0,0,0,0,0,0,0,0,0,-1,1350,1583,0,0
133,-559,0,0,0,0,0,0,0,0,0,-1,1357,1583,0,0
140,-559,0,0,0,0,0,0,0,0,0,-1,1364,1583,0,0
147,-559,0,0,0,0,0,0,0,0,0,-1,1371,1583,0,0
154,-559,0,0,0,0,0,0,0,0,0,-1,1378,1583,0,0
161,-559,0,0,0,0,0,0,0,0,0,-1,1385,1583,0,0
168,-559,0,0,0,0,0,0,0,0,0,-1,1392,1583,0,0
175,-559,0,0,0,0,0,0,0,0,0,-1,1399,1583,0,0
182,-559,0,0,0,0,0,0,0,0,0,-1,1406,1583,0,0
189,-559,0,0,0,0,0,0,0,0,0,-1,1413,1583,0,0
196,-559,0,0,0,0,0,0,0,0,0,-1,1420,1583,0,0
203,-559,0,0,0,0,0,0,0,0,0,-1,1427,1583,0,0
210,-559,0,0,0,0,0,0,0,0,0,-1,1434,1583,0,0
217,-559,0,0,0,0,0,0,0,0,0,-1,1441,1583,0,0
224,-559,0,0,0,0,0,0,0,0,0,-1,1448,1583,0,0
231,-559,0,0,0,0,0,0,0,0,0,-1,1455,1583,0,0
238,-559,0,0,0,0,0,0,0,0,0,-1,1462,1583,0,0
245,-559,0,0,0,0,0,0,0,0,0,-1,1469,1583,0,0
252,-559,0,0,0,0,0,0,0,0,0,-1,1476,1583,0,0
259,-559,0,0,0,0,0,0,0,0,0,-1,1483,1583,0,0
266,-559,0,0,0,0,0,0,0,0,0,-1,1490,1583,0,0
273,-559,0,0,0,0,0,0,0,0,0,-1,1497,1583,0,0
280,-559,0,0,0,0,0,0,0,0,0,-1,1504,1583,0,0
287,-559,0,0,0,0,0,0,0,0,0,-1,1511,1583,0,0
294,-559,0,0,0,0,0,0,0,0,0,-1,1518,1583,0,0
301,-559,0,0,0,0,0,0,0,0,0,-1,1525,1583,0,0
308,-559,0,0,0,0,0,0,0,0,0,-1,1532,1583,0,0
315,-559,0,0,0,0,0,0,0,0,0,-1,1539,1583,0,0
322,-559,0,0,0,0,0,0,0,0,0,-1,1546,1583,0,0
329,-559,0,0,0,0,0,0,0,0,0,-1,1553,1583,0,0
336,-559,5.84851,3.87512,0,0,0,0,0,0,0,-1,1560,1583,5.84849,-3.87516
343,-559,5.31299,3.53284,0,0,0,0,0,0,0,-1,1567,1583,5.31302,-3.53284
350,-559,4.92236,2.85144,0,0,0,0,0,0,0,-1,1574,1583,4.92232,-2.85148
357,-559,4.25781,3.47522,0,0,0,0,0,0,0,-1,1581,1583,4.25786,-3.47525
364,-559,3.68665,2.82471,0,0,0,0,0,0,0,-1,1588,1583,3.68662,-2.82467
371,-559,3.63062,2.55029,0,0,0,0,0,0,0,-1,1595,1583,3.63059,-2.55031
378,-559,3.63892,1.94617,-0.0661766,0.0947706,-0.0119464,0.0956525,-0.0670585,-1.49711,0.0944235,0.0480808,1602,1583,3.63888,-1.94619
385,-559,3.20715,0.984009,-0.0526663,0.09356,-0.00391891,0.0936649,-0.0527712,-1.54402,0.0856368,0.0484081,1609,1583,3.2072,-0.984022
392,-559,2.28491,-0.147461,-0.0410966,0.0901162,0.00288433,0.0901796,-0.04116,1.54883,0.0775695,0.0483611,1616,1583,2.28492,0.147434
399,-559,1.36096,-1.24475,0,0,0,0,0,0,0,-1,1623,1583,1.36097,1.24476
406,-559,1.86047,0.019165,-0.0267768,0.0773006,0.0111592,0.0784837,-0.0279598,1.46518,0.063721,0.0483003,1630,1583,1.86041,-0.0191801
413,-559,1.85791,-0.216553,-0.0234096,0.067468,0.0130885,0.0693154,-0.025257,1.43057,0.056542,0.0479304,1637,1583,1.85787,0.216583
420,-559,1.89001,-0.351074,-0.0218229,0.0564867,0.0140215,0.0589215,-0.0242577,1.39886,0.049394,0.0457862,1644,1583,1.88998,0.351131
427,-559,1.5127,-0.82959,0,0,0,0,0,0,0,-1,1651,1583,1.51265,0.829649
434,-559,3.66235,3.89746,0,0,0,0,0,0,0,-1,1658,1583,3.66241,-3.89747
441,-559,3.62146,3.83423,0,0,0,0,0,0,0,-1,1665,1583,3.62146,-3.8342
448,-559,3.75977,3.72192,-0.0201907,0.0125901,0.0110122,0.015946,-0.0235466,1.275,0.0229414,0.0467599,1672,1583,3.75974,-3.72188
455,-559,3.55579,3.52295,-0.0200571,0.00514078,0.00863861,0.00781793,-0.0227342,1.27028,0.0183267,0.0365552,1679,1583,3.55581,-3.523
462,-559,3.56128,3.57275,-0.0190075,-0.00138709,0.00674225,0.000896732,-0.0212914,1.24419,0.0145024,0.0280753,1686,1583,3.56128,-3.5728
469,-559,3.5896,3.56238,-0.0169552,-0.00599874,0.00531856,-0.00384165,-0.0191123,1.18549,0.0116736,0.0160122,1693,1583,3.58961,-3.56233
476,-559,3.59692,3.48926,-0.014222,-0.00824994,0.00407608,-0.00618317,-0.0162888,1.10153,0.00949477,0.0101905,1700,1583,3.59691,-3.48926
483,-559,3.60132,3.43176,-0.0106039,-0.0079378,0.00273543,-0.00622788,-0.0123138,1.01212,0.00710952,0.0119435,1707,1583,3.60133,-3.43173
490,-559,3.57922,3.38525,-0.00654359,-0.00604953,0.00189167,-0.00438882,-0.00820429,0.850324,0.00474061,0.0157826,1714,1583,3.57922,-3.38522
497,-559,3.64307,3.35193,-0.00298661,-0.00413231,0.0011002,-0.00231906,-0.00479986,0.545372,0.00277173,0.019231,1721,1583,3.64308,-3.35199
504,-559,3.61304,3.26013,1.2812e-06,-0.00242308,0.000242704,2.53397e-05,-0.00244714,0.0988039,0.00163994,0.021732,1728,1583,3.61303,-3.26017
511,-559,3.57031,3.18689,0.00270539,-0.000778825,-0.000942423,0.00294397,-0.0010174,-0.247941,0.00237555,0.0181265,1735,1583,3.57032,-3.18687
518,-559,3.58887,3.12622,0.0053376,0.00100552,-0.0024631,0.00645159,-0.000108468,-0.42474,0.00433767,0.0129224,1742,1583,3.5889,-3.12627
525,-559,3.58887,3.04834,0.00775068,0.00264336,-0.00433434,0.0102277,0.00016634,-0.51919,0.0067637,0.0117034,1749,1583,3.58882,-3.04829
532,-559,3.58594,3.00354,0.0114896,0.00472671,-0.00671489,0.0156264,0.000589911,-0.552147,0.0102266,0.0121717,1756,1583,3.58594,-3.00349
539,-559,3.59326,2.95789,0.0163751,0.00697851,-0.00963464,0.022396,0.000957648,-0.55854,0.0146219,0.0169454,1763,1583,3.59321,-2.95788
546,-559,3.59094,2.8833,0.0215936,0.00943074,-0.0129403,0.0298103,0.00121406,-0.565735,0.0194814,0.015889,1770,1583,3.59093,-2.88326
553,-559,3.63049,2.80042,0.0283139,0.0124806,-0.0171127,0.0392524,0.00154199,-0.56875,0.0256697,0.0164716,1777,1583,3.63043,-2.80047
560,-559,3.60986,2.80066,0.0365778,0.0159132,-0.022277,0.050802,0.00168896,-0.568259,0.0333193,0.0279846,1784,1583,3.60983,-2.80061
567,-559,3.68005,2.53833,0.0464264,0.0203006,-0.0282657,0.0645017,0.00222519,-0.568944,0.0422789,0.0383984,1791,1583,3.68007,-2.53828
574,-559,3.70325,2.02478,0.0586988,0.0251983,-0.0345826,0.0803742,0.00352295,-0.559871,0.0524479,0.0457413,1798,1583,3.70327,-2.02484
581,-559,3.43787,1.32434,0,0,0,0,0,0,0,-1,1805,1583,3.43783,-1.3243
588,-559,3.62488,1.52832,0,0,0,0,0,0,0,-1,1812,1583,3.62488,-1.52826
595,-559,2.73328,1.20386,0,0,0,0,0,0,0,-1,1819,1583,2.73333,-1.20383
602,-559,2.83154,0.931152,0,0,0,0,0,0,0,-1,1826,1583,2.8316,-0.931152
609,-559,2.92993,0.658447,0,0,0,0,0,0,0,-1,1833,1583,2.92987,-0.658477
616,-559,0,0,0,0,0,0,0,0,0,-1,1840,1583,0,0
623,-559,0,0,0,0,0,0,0,0,0,-1,1847,1583,0,0
630,-559,0,0,0,0,0,0,0,0,0,-1,1854,1583,0,0
637,-559,0,0,0,0,0,0,0,0,0,-1,1861,1583,0,0
644,-559,0,0,0,0,0,0,0,0,0,-1,1868,1583,0,0
651,-559,0,0,0,0,0,0,0,0,0,-1,1875,1583,0,0
658,-559,0,0,0,0,0,0,0,0,0,-1,1882,1583,0,0
665,-559,0,0,0,0,0,0,0,0,0,-1,1889,1583,0,0
672,-559,0,0,0,0,0,0,0,0,0,-1,1896,1583,0,0
679,-559,0,0,0,0,0,0,0,0,0,-1,1903,1583,0,0
686,-559,0,0,0,0,0,0,0,0,0,-1,1910,1583,0,0
693,-559,0,0,0,0,0,0,0,0,0,-1,1917,1583,0,0
700,-559,0,0,0,0,0,0,0,0,0,-1,1924,1583,0,0
707,-559,0,0,0,0,0,0,0,0,0,-1,1931,1583,0,0
714,-559,0,0,0,0,0,0,0,0,0,-1,1938,1583,0,0
721,-559,0,0,0,0,0,0,0,0,0,-1,1945,1583,0,0
728,-559,0,0,0,0,0,0,0,0,0,-1,1952,1583,0,0
735,-559,0,0,0,0,0,0,0,0,0,-1,1959,1583,0,0
742,-559,0,0,0,0,0,0,0,0,0,-1,1966,1583,0,0
749,-559,0,0,0,0,0,0,0,0,0,-1,1973,1583,0,0
756,-559,0,0,0,0,0,0,0,0,0,-1,1980,1583,0,0
763,-559,0,0,0,0,0,0,0,0,0,-1,1987,1583,0,0
770,-559,0,0,0,0,0,0,0,0,0,-1,1994,1583,0,0
777,-559,0,0,0,0,0,0,0,0,0,-1,2001,1583,0,0
784,-559,0,0,0,0,0,0,0,0,0,-1,2008,1583,0,0
791,-559,0,0,0,0,0,0,0,0,0,-1,2015,1583,0,0
798,-559,0,0,0,0,0,0,0,0,0,-1,2022,1583,0,0
805,-559,0,0,0,0,0,0,0,0,0,-1,2029,1583,0,0
812,-559,0,0,0,0,0,0,0,0,0,-1,2036,1583,0,0
-700,-566,0,0,0,0,0,0,0,0,0,-1,524,1590,0,0
-693,-566,0,0,0,0,0,0,0,0,0,-1,531,1590,0,0
-686,-566,0,0,0,0,0,0,0,0,0,-1,538,1590,0,0
-679,-566,0,0,0,0,0,0,0,0,0,-1,545,1590,0,0
-672,-566,0,0,0,0,0,0,0,0,0,-1,552,1590,0,0
-665,-566,0,0,0,0,0,0,0,0,0,-1,559,1590,0,0
-658,-566,0,0,0,0,0,0,0,0,0,-1,566,1590,0,0
-651,-566,0,0,0,0,0,0,0,0,0,-1,573,1590,0,0
-644,-566,0,0,0,0,0,0,0,0,0,-1,580,1590,0,0
-637,-566,0,0,0,0,0,0,0,0,0,-1,587,1590,0,0
-630,-566,0,0,0,0,0,0,0,0,0,-1,594,1590,0,0
-623,-566,0,0,0,0,0,0,0,0,0,-1,601,1590,0,0
-616,-566,0,0,0,0,0,0,0,0,0,-1,608,1590,0,0
-609,-566,0,0,0,0,0,0,0,0,0,-1,615,1590,0,0
-602,-566,0,0,0,0,0,0,0,0,0,-1,622,1590,0,0
-595,-566,0,0,0,0,0,0,0,0,0,-1,629,1590,0,0
-588,-566,0,0,0,0,0,0,0,0,0,-1,636,1590,0,0
-581,-566,0,0,0,0,0,0,0,0,0,-1,643,1590,0,0
-574,-566,0,0,0,0,0,0,0,0,0,-1,650,1590,0,0
-567,-566,0,0,0,0,0,0,0,0,0,-1,657,1590,0,0
-560,-566,0,0,0,0,0,0,0,0,0,-1,664,1590,0,0
-553,-566,0,0,0,0,0,0,0,0,0,-1,671,1590,0,0
-546,-566,0,0,0,0,0,0,0,0,0,-1,678,1590,0,0
-539,-566,0,0,0,0,0,0,0,0,0,-1,685,1590,0,0
-532,-566,0,0,0,0,0,0,0,0,0,-1,692,1590,0,0
-525,-566,0,0,0,0,0,0,0,0,0,-1,699,1590,0,0
-518,-566,0,0,0,0,0,0,0,0,0,-1,706,1590,0,0
-511,-566,0,0,0,0,0,0,0,0,0,-1,713,1590,0,0
-504,-566,0,0,0,0,0,0,0,0,0,-1,720,1590,0,0
-497,-566,0,0,0,0,0,0,0,0,0,-1,727,1590,0,0
-490,-566,0,0,0,0,0,0,0,0,0,-1,734,1590,0,0
-483,-566,3.69373,2.2135,0,0,0,0,0,0,0,-1,741,1590,3.69371,-2.21347
-476,-566,2.14496,0.272095,0,0,0,0,0,0,0,-1,748,1590,2.14499,-0.272093
-469,-566,2.02002,0.696167,0,0,0,0,0,0,0,-1,755,1590,2.02003,-0.696195
-462,-566,1.82507,1.03503,-0.0333324,0.029524,0.00752419,0.0304121,-0.0342205,1.4533,0.0373373,0.045298,762,1590,1.82508,-1.03502
-455,-566,1.64136,1.40955,-0.0231032,0.0275869,0.0126914,0.030587,-0.0261032,1.33867,0.0327642,0.041093,769,1590,1.64138,-1.40949
-448,-566,1.48669,1.8396,-0.0143176,0.0255194,0.0164018,0.0314033,-0.0202016,1.22636,0.0300272,0.0443588,776,1590,1.48669,-1.83958
-441,-566,1.37677,2.0177,-0.00572441,0.0232387,0.0181617,0.0319856,-0.0144713,1.12197,0.0274499,0.0471242,783,1590,1.37675,-2.01767
-434,-566,1.43628,2.27637,0.00115777,0.0208718,0.0187561,0.0322032,-0.0101737,1.02733,0.0255446,0.0457117,790,1590,1.43628,-2.27635
-427,-566,1.43347,2.40356,0.00631081,0.0186103,0.0186036,0.0320542,-0.00713316,0.945027,0.0241017,0.0389088,797,1590,1.4335,-2.40357
-420,-566,1.25055,2.58789,0.0096417,0.0164682,0.0174603,0.0308458,-0.00473588,0.881924,0.0223106,0.0263672,804,1590,1.25056,-2.58791
-413,-566,1.31683,2.65198,0.0110732,0.0141197,0.0154679,0.0281392,-0.00294632,0.834478,0.0198147,0.0116543,811,1590,1.31686,-2.652
-406,-566,1.34192,2.73169,0.0113463,0.0117606,0.013498,0.025053,-0.0019461,0.793072,0.017387,0.00859226,818,1590,1.34194,-2.73173
-399,-566,1.34436,2.78821,0.0114523,0.00930244,0.0110785,0.0215079,-0.000753169,0.737035,0.0145961,0.00982295,825,1590,1.34439,-2.78817
-392,-566,1.32831,2.84546,0.0105583,0.0076612,0.00849823,0.0177305,0.000488942,0.700983,0.0116608,0.0112663,832,1590,1.32833,-2.84545
-385,-566,1.34198,2.94336,0.00797998,0.00641827,0.00618403,0.0134323,0.000965998,0.722596,0.00865084,0.0136702,839,1590,1.34197,-2.94339
-378,-566,1.35938,3.02588,0.00554626,0.00520413,0.0043774,0.00975594,0.000994453,0.765869,0.00619912,0.0149098,846,1590,1.35936,-3.02582
-371,-566,1.31281,3.08521,0.00361592,0.00435465,0.00266046,0.00667126,0.00129931,0.854374,0.00408389,0.0212007,853,1590,1.31278,-3.08521
-364,-566,1.3382,3.15637,0.00246211,0.00428299,0.000985089,0.00471393,0.00203117,1.15842,0.00273024,0.0209148,860,1590,1.33822,-3.15635
-357,-566,1.36652,3.20923,0.00191281,0.00415149,-7.02745e-05,0.00415369,0.0019106,-1.53945,0.00240069,0.0170125,867,1590,1.36653,-3.20919
-350,-566,1.33716,3.25195,0.00192733,0.00451055,-0.000624598,0.00465365,0.00178424,-1.34558,0.00271103,0.0198764,874,1590,1.33718,-3.25201
-343,-566,1.32501,3.29297,0.00248519,0.00586931,-0.000452956,0.00592888,0.00242561,-1.44002,0.00344184,0.0237652,881,1590,1.32503,-3.29296
-336,-566,1.30682,3.3551,0.00398908,0.00843716,-0.000312837,0.00845905,0.00396719,-1.50092,0.00488697,0.022935,888,1590,1.30685,-3.35506
-329,-566,1.32562,3.40295,0.00618955,0.0107797,9.04135e-06,0.0107797,0.00618953,1.56883,0.00624645,0.0127673,895,1590,1.32565,-3.40301
-322,-566,1.34424,3.49768,0.00800982,0.0134968,0.00033407,0.0135171,0.00798955,1.51021,0.00784711,0.0119719,902,1590,1.34424,-3.49762
-315,-566,1.35492,3.54602,0.00822338,0.016103,7.90347e-05,0.0161038,0.00822258,1.56077,0.00929823,0.0230905,909,1590,1.35491,-3.54602
-308,-566,1.63739,3.4552,0.00721575,0.0183944,-0.000941113,0.0184731,0.00713708,-1.48739,0.0107569,0.0322343,916,1590,1.6374,-3.45524
-301,-566,1.91779,3.3241,0.00596805,0.0209074,-0.00219585,0.0212235,0.00565198,-1.42784,0.0126917,0.0408598,923,1590,1.91781,-3.32404
-294,-566,2.10876,3.22815,0.00360573,0.023451,-0.00444593,0.0244015,0.00265524,-1.36018,0.0154588,0.0480871,930,1590,2.10876,-3.22818
-287,-566,1.2829,4.40295,-0.000980132,0.0253611,-0.00768398,0.0274388,-0.00305775,-1.30673,0.0193923,0.0482639,937,1590,1.28289,-4.40294
-280,-566,1.48053,4.9729,-0.00777901,0.0266288,-0.0124151,0.0306406,-0.0117909,-1.25824,0.0252908,0.0481084,944,1590,1.48054,-4.97289
-273,-566,1.70953,5.49768,0,0,0,0,0,0,0,-1,951,1590,1.70956,-5.49774
-266,-566,0.598877,3.64465,-0.0231255,0.0124215,-0.0173956,0.0195177,-0.0302217,-1.18347,0.0289379,0.0464583,958,1590,0.598858,-3.64463
-259,-566,-0.480652,2.92627,-0.0323773,0.00624623,-0.0126295,0.0100093,-0.0361403,-1.28121,0.0280321,0.0475786,965,1590,-0.480628,-2.92628
-252,-566,-1.88123,2.03687,0,0,0,0,0,0,0,-1,972,1590,-1.88123,-2.03684
-245,-566,-2.85461,1.12109,0,0,0,0,0,0,0,-1,979,1590,-2.8546,-1.12108
-238,-566,-3.81885,0.390869,0,0,0,0,0,0,0,-1,986,1590,-3.81885,-0.390869
-231,-566,-0.147827,2.33472,0,0,0,0,0,0,0,-1,993,1590,-0.147798,-2.33471
-224,-566,2.80658,0.413574,0,0,0,0,0,0,0,-1,1000,1590,2.80656,-0.413601
-217,-566,2.69415,1.32458,-0.0832425,-0.0372296,0.0298983,-0.0225107,-0.0979614,1.11333,0.0592471,0.0445338,1007,1590,2.69417,-1.32463
-210,-566,2.67169,2.17151,-0.0783683,-0.0375055,0.0437574,-0.0096445,-0.106229,1.00382,0.0678336,0.0399629,1014,1590,2.67169,-2.17149
-203,-566,0,0,0,0,0,0,0,0,0,-1,1021,1590,0,0
-196,-566,0,0,0,0,0,0,0,0,0,-1,1028,1590,0,0
-189,-566,0,0,0,0,0,0,0,0,0,-1,1035,1590,0,0
-182,-566,0,0,0,0,0,0,0,0,0,-1,1042,1590,0,0
-175,-566,0,0,0,0,0,0,0,0,0,-1,1049,1590,0,0
-168,-566,0,0,0,0,0,0,0,0,0,-1,1056,1590,0,0
-161,-566,0,0,0,0,0,0,0,0,0,-1,1063,1590,0,0
-154,-566,0,0,0,0,0,0,0,0,0,-1,1070,1590,0,0
-147,-566,0,0,0,0,0,0,0,0,0,-1,1077,1590,0,0
-140,-566,0,0,0,0,0,0,0,0,0,-1,1084,1590,0,0
-133,-566,0,0,0,0,0,0,0,0,0,-1,1091,1590,0,0
-126,-566,0,0,0,0,0,0,0,0,0,-1,1098,1590,0,0
-119,-566,0,0,0,0,0,0,0,0,0,-1,1105,1590,0,0
-112,-566,0,0,0,0,0,0,0,0,0,-1,1112,1590,0,0
-105,-566,0,0,0,0,0,0,0,0,0,-1,1119,1590,0,0
-98,-566,0,0,0,0,0,0,0,0,0,-1,1126,1590,0,0
-91,-566,0,0,0,0,0,0,0,0,0,-1,1133,1590,0,0
-84,-566,0,0,0,0,0,0,0,0,0,-1,1140,1590,0,0
-77,-566,0,0,0,0,0,0,0,0,0,-1,1147,1590,0,0
-70,-566,0,0,0,0,0,0,0,0,0,-1,1154,1590,0,0
-63,-566,0,0,0,0,0,0,0,0,0,-1,1161,1590,0,0
-56,-566,0,0,0,0,0,0,0,0,0,-1,1168,1590,0,0
-49,-566,0,0,0,0,0,0,0,0,0,-1,1175,1590,0,0
-42,-566,0,0,0,0,0,0,0,0,0,-1,1182,1590,0,0
-35,-566,0,0,0,0,0,0,0,0,0,-1,1189,1590,0,0
-28,-566,0,0,0,0,0,0,0,0,0,-1,1196,1590,0,0
-21,-566,0,0,0,0,0,0,0,0,0,-1,1203,1590,0,0
-14,-566,0,0,0,0,0,0,0,0,0,-1,1210,1590,0,0
-7,-566,0,0,0,0,0,0,0,0,0,-1,1217,1590,0,0
0,-566,0,0,0,0,0,0,0,0,0,-1,1224,1590,0,0
7,-566,0,0,0,0,0,0,0,0,0,-1,1231,1590,0,0
14,-566,0,0,0,0,0,0,0,0,0,-1,1238,1590,0,0
21,-566,0,0,0,0,0,0,0,0,0,-1,1245,1590,0,0
28,-566,0,0,0,0,0,0,0,0,0,-1,1252,1590,0,0
35,-566,0,0,0,0,0,0,0,0,0,-1,1259,1590,0,0
42,-566,0,0,0,0,0,0,0,0,0,-1,1266,1590,0,0
49,-566,0,0,0,0,0,0,0,0,0,-1,1273,1590,0,0
56,-566,0,0,0,0,0,0,0,0,0,-1,1280,1590,0,0
63,-566,0,0,0,0,0,0,0,0,0,-1,1287,1590,0,0
70,-566,0,0,0,0,0,0,0,0,0,-1,1294,1590,0,0
77,-566,0,0,0,0,0,0,0,0,0,-1,1301,1590,0,0
84,-566,0,0,0,0,0,0,0,0,0,-1,1308,1590,0,0
91,-566,0,0,0,0,0,0,0,0,0,-1,1315,1590,0,0
98,-566,0,0,0,0,0,0,0,0,0,-1,1322,1590,0,0
105,-566,0,0,0,0,0,0,0,0,0,-1,1329,1590,0,0
112,-566,0,0,0,0,0,0,0,0,0,-1,1336,1590,0,0
119,-566,0,0,0,0,0,0,0,0,0,-1,1343,1590,0,0
126,-566,0,0,0,0,0,0,0,0,0,-1,1350,1590,0,0
133,-566,0,0,0,0,0,0,0,0,0,-1,1357,1590,0,0
140,-566,0,0,0,0,0,0,0,0,0,-1,1364,1590,0,0
147,-566,0,0,0,0,0,0,0,0,0,-1,1371,1590,0,0
154,-566,0,0,0,0,0,0,0,0,0,-1,1378,1590,0,0
161,-566,0,0,0,0,0,0,0,0,0,-1,1385,1590,0,0
168,-566,0,0,0,0,0,0,0,0,0,-1,1392,1590,0,0
175,-566,0,0,0,0,0,0,0,0,0,-1,1399,1590,0,0
182,-566,0,0,0,0,0,0,0,0,0,-1,1406,1590,0,0
189,-566,0,0,0,0,0,0,0,0,0,-1,1413,1590,0,0
196,-566,0,0,0,0,0,0,0,0,0,-1,1420,1590,0,0
203,-566,0,0,0,0,0,0,0,0,0,-1,1427,1590,0,0
210,-566,0,0,0,0,0,0,0,0,0,-1,1434,1590,0,0
217,-566,0,0,0,0,0,0,0,0,0,-1,1441,1590,0,0
224,-566,0,0,0,0,0,0,0,0,0,-1,1448,1590,0,0
231,-566,0,0,0,0,0,0,0,0,0,-1,1455,1590,0,0
238,-566,0,0,0,0,0,0,0,0,0,-1,1462,1590,0,0
245,-566,0,0,0,0,0,0,0,0,0,-1,1469,1590,0,0
252,-566,0,0,0,0,0,0,0,0,0,-1,1476,1590,0,0
259,-566,0,0,0,0,0,0,0,0,0,-1,1483,1590,0,0
266,-566,0,0,0,0,0,0,0,0,0,-1,1490,1590,0,0
273,-566,0,0,0,0,0,0,0,0,0,-1,1497,1590,0,0
280,-566,0,0,0,0,0,0,0,0,0,-1,1504,1590,0,0
287,-566,0,0,0,0,0,0,0,0,0,-1,1511,1590,0,0
294,-566,0,0,0,0,0,0,0,0,0,-1,1518,1590,0,0
301,-566,0,0,0,0,0,0,0,0,0,-1,1525,1590,0,0
308,-566,0,0,0,0,0,0,0,0,0,-1,1532,1590,0,0
315,-566,0,0,0,0,0,0,0,0,0,-1,1539,1590,0,0
322,-566,4.51013,3.82666,0,0,0,0,0,0,0,-1,1546,1590,4.51009,-3.82667
329,-566,4.00769,3.53735,0,0,0,0,0,0,0,-1,1553,1590,4.00772,-3.5373
336,-566,5.35486,3.97852,0,0,0,0,0,0,0,-1,1560,1590,5.35481,-3.97846
343,-566,2.61194,2.01282,0,0,0,0,0,0,0,-1,1567,1590,2.61195,-2.01279
350,-566,4.32666,2.5553,0,0,0,0,0,0,0,-1,1574,1590,4.32671,-2.55536
357,-566,3.88977,1.8053,0,0,0,0,0,0,0,-1,1581,1590,3.88981,-1.80535
364,-566,2.70093,1.99524,0,0,0,0,0,0,0,-1,1588,1590,2.70094,-1.99529
371,-566,1.58508,2.39978,0,0,0,0,0,0,0,-1,1595,1590,1.58508,-2.39976
378,-566,1.50269,3.91724,0,0,0,0,0,0,0,-1,1602,1590,1.50267,-3.91719
385,-566,1.10522,3.46667,0,0,0,0,0,0,0,-1,1609,1590,1.10517,-3.46662
392,-566,1.36487,-0.89978,-0.0386442,0.0753417,0.000904878,0.0753489,-0.0386514,1.56286,0.0669452,0.0481603,1616,1590,1.36489,0.89976
399,-566,0.551636,-2.08105,0,0,0,0,0,0,0,-1,1623,1590,0.551581,2.08101
406,-566,0.681274,-0.647461,0,0,0,0,0,0,0,-1,1630,1590,0.681217,0.647503
413,-566,2.87708,6.02197,0,0,0,0,0,0,0,-1,1637,1590,2.87709,-6.02195
420,-566,0.205444,-0.861206,0,0,0,0,0,0,0,-1,1644,1590,0.205489,0.861205
427,-566,3.6322,3.95776,0,0,0,0,0,0,0,-1,1651,1590,3.63226,-3.95776
434,-566,3.59741,3.88977,-0.0142683,0.0306924,0.012758,0.0340603,-0.0176362,1.3127,0.0303449,0.0495128,1658,1590,3.59747,-3.88973
441,-566,3.55505,3.81055,-0.0139246,0.0214203,0.0119121,0.0250601,-0.0175645,1.27425,0.0247359,0.0466148,1665,1590,3.5551,-3.8105
448,-566,3.57422,3.74182,-0.0135232,0.0120691,0.0102995,0.0156992,-0.0171533,1.23194,0.0189736,0.0361924,1672,1590,3.57418,-3.74181
455,-566,3.50635,3.68384,-0.0135515,0.00563556,0.00807362,0.00858074,-0.0164967,1.22101,0.0147169,0.0212674,1679,1590,3.50629,-3.68388
462,-566,3.5155,3.59973,-0.0128744,8.37675e-06,0.0062349,0.00253166,-0.0153977,1.18624,0.0112048,0.0139402,1686,1590,3.51552,-3.59977
469,-566,3.53174,3.52917,-0.011503,-0.003987,0.00476021,-0.00168018,-0.0138099,1.11954,0.00870076,0.0122028,1693,1590,3.53169,-3.52916
476,-566,3.53638,3.46619,-0.00964762,-0.00587745,0.00341017,-0.00386602,-0.011659,1.03789,0.00685745,0.00991104,1700,1590,3.53637,-3.46622
483,-566,3.52307,3.40576,-0.00702344,-0.00566663,0.00203961,-0.00419556,-0.00849451,0.94595,0.00490443,0.00997292,1707,1590,3.52311,-3.40578
490,-566,3.50964,3.36768,-0.00377536,-0.00408824,0.000929847,-0.00298889,-0.00487471,0.702059,0.00283833,0.0102832,1714,1590,3.50966,-3.36768
497,-566,3.55554,3.33032,-0.000766125,-0.00248354,-9.51772e-05,-0.000760866,-0.0024888,-0.0551935,0.00147263,0.0135545,1721,1590,3.5556,-3.33034
504,-566,3.56567,3.26306,0.00207172,-0.000853936,-0.0012029,0.00250278,-0.001285,-0.3441,0.00222424,0.0175386,1728,1590,3.56565,-3.26309
511,-566,3.53381,3.19507,0.0049074,0.000734872,-0.0025502,0.00611598,-0.00047371,-0.442564,0.00424404,0.0174335,1735,1590,3.53381,-3.19504
518,-566,3.52466,3.13525,0.0081568,0.00248292,-0.00440398,0.0105585,8.123e-05,-0.499263,0.00701207,0.0112425,1742,1590,3.52471,-3.13519
525,-566,3.52368,3.05188,0.0115148,0.00425088,-0.00668001,0.0154863,0.000279292,-0.536401,0.0102324,0.0105638,1749,1590,3.52364,-3.05192
532,-566,3.52856,2.99927,0.0165911,0.0066744,-0.00972886,0.0225522,0.00071321,-0.549729,0.0148028,0.0127065,1756,1590,3.52856,-2.99927
539,-566,3.51489,2.95166,0.0231566,0.00940414,-0.0134325,0.0313705,0.00119018,-0.548833,0.0205285,0.0160423,1763,1590,3.51483,-2.95168
546,-566,3.53333,2.86475,0.0302963,0.012448,-0.0176804,0.0411771,0.0015671,-0.551679,0.0269443,0.0145646,1770,1590,3.53337,-2.86474
553,-566,3.55017,2.81775,0.0392346,0.0162174,-0.0230116,0.053455,0.00199703,-0.553526,0.03499,0.0232858,1777,1590,3.55012,-2.81771
560,-566,3.7439,2.76709,0,0,0,0,0,0,0,-1,1784,1590,3.7439,-2.76711
567,-566,3.82629,2.31274,0,0,0,0,0,0,0,-1,1791,1590,3.82624,-2.31269
574,-566,3.90857,1.85828,0,0,0,0,0,0,0,-1,1798,1590,3.90858,-1.85827
581,-566,5.65369,3.12683,0,0,0,0,0,0,0,-1,1805,1590,5.65363,-3.12685
588,-566,7.33777,2.47498,0,0,0,0,0,0,0,-1,1812,1590,7.33776,-2.47501
595,-566,4.79395,0.861328,0,0,0,0,0,0,0,-1,1819,1590,4.794,-0.86129
602,-566,3.05737,0.568726,0,0,0,0,0,0,0,-1,1826,1590,3.05732,-0.568745
609,-566,0,0,0,0,0,0,0,0,0,-1,1833,1590,0,0
616,-566,0,0,0,0,0,0,0,0,0,-1,1840,1590,0,0
623,-566,0,0,0,0,0,0,0,0,0,-1,1847,1590,0,0
630,-566,0,0,0,0,0,0,0,0,0,-1,1854,1590,0,0
637,-566,0,0,0,0,0,0,0,0,0,-1,1861,1590,0,0
644,-566,0,0,0,0,0,0,0,0,0,-1,1868,1590,0,0
651,-566,0,0,0,0,0,0,0,0,0,-1,1875,1590,0,0
658,-566,0,0,0,0,0,0,0,0,0,-1,1882,1590,0,0
665,-566,0,0,0,0,0,0,0,0,0,-1,1889,1590,0,0
672,-566,0,0,0,0,0,0,0,0,0,-1,1896,1590,0,0
679,-566,0,0,0,0,0,0,0,0,0,-1,1903,1590,0,0
686,-566,0,0,0,0,0,0,0,0,0,-1,1910,1590,0,0
693,-566,0,0,0,0,0,0,0,0,0,-1,1917,1590,0,0
700,-566,0,0,0,0,0,0,0,0,0,-1,1924,1590,0,0
707,-566,0,0,0,0,0,0,0,0,0,-1,1931,1590,0,0
714,-566,0,0,0,0,0,0,0,0,0,-1,1938,1590,0,0
721,-566,0,0,0,0,0,0,0,0,0,-1,1945,1590,0,0
728,-566,0,0,0,0,0,0,0,0,0,-1,1952,1590,0,0
735,-566,0,0,0,0,0,0,0,0,0,-1,1959,1590,0,0
742,-566,0,0,0,0,0,0,0,0,0,-1,1966,1590,0,0
749,-566,0,0,0,0,0,0,0,0,0,-1,1973,1590,0,0
756,-566,0,0,0,0,0,0,0,0,0,-1,1980,1590,0,0
763,-566,0,0,0,0,0,0,0,0,0,-1,1987,1590,0,0
770,-566,0,0,0,0,0,0,0,0,0,-1,1994,1590,0,0
777,-566,0,0,0,0,0,0,0,0,0,-1,2001,1590,0,0
784,-566,0,0,0,0,0,0,0,0,0,-1,2008,1590,0,0
791,-566,0,0,0,0,0,0,0,0,0,-1,2015,1590,0,0
798,-566,0,0,0,0,0,0,0,0,0,-1,2022,1590,0,0
805,-566,0,0,0,0,0,0,0,0,0,-1,2029,1590,0,0
812,-566,0,0,0,0,0,0,0,0,0,-1,2036,1590,0,0
-700,-573,0,0,0,0,0,0,0,0,0,-1,524,1597,0,0
-693,-573,0,0,0,0,0,0,0,0,0,-1,531,1597,0,0
-686,-573,0,0,0,0,0,0,0,0,0,-1,538,1597,0,0
-679,-573,0,0,0,0,0,0,0,0,0,-1,545,1597,0,0
-672,-573,0,0,0,0,0,0,0,0,0,-1,552,1597,0,0
-665,-573,0,0,0,0,0,0,0,0,0,-1,559,1597,0,0
-658,-573,0,0,0,0,0,0,0,0,0,-1,566,1597,0,0
-651,-573,0,0,0,0,0,0,0,0,0,-1,573,1597,0,0
-644,-573,0,0,0,0,0,0,0,0,0,-1,580,1597,0,0
-637,-573,0,0,0,0,0,0,0,0,0,-1,587,1597,0,0
-630,-573,0,0,0,0,0,0,0,0,0,-1,594,1597,0,0
-623,-573,0,0,0,0,0,0,0,0,0,-1,601,1597,0,0
-616,-573,0,0,0,0,0,0,0,0,0,-1,608,1597,0,0
-609,-573,0,0,0,0,0,0,0,0,0,-1,615,1597,0,0
-602,-573,0,0,0,0,0,0,0,0,0,-1,622,1597,0,0
-595,-573,0,0,0,0,0,0,0,0,0,-1,629,1597,0,0
-588,-573,0,0,0,0,0,0,0,0,0,-1,636,1597,0,0
-581,-573,0,0,0,0,0,0,0,0,0,-1,643,1597,0,0
-574,-573,0,0,0,0,0,0,0,0,0,-1,650,1597,0,0
-567,-573,0,0,0,0,0,0,0,0,0,-1,657,1597,0,0
-560,-573,0,0,0,0,0,0,0,0,0,-1,664,1597,0,0
-553,-573,0,0,0,0,0,0,0,0,0,-1,671,1597,0,0
-546,-573,0,0,0,0,0,0,0,0,0,-1,678,1597,0,0
-539,-573,0,0,0,0,0,0,0,0,0,-1,685,1597,0,0
-532,-573,0,0,0,0,0,0,0,0,0,-1,692,1597,0,0
-525,-573,0,0,0,0,0,0,0,0,0,-1,699,1597,0,0
-518,-573,0,0,0,0,0,0,0,0,0,-1,706,1597,0,0
-511,-573,0,0,0,0,0,0,0,0,0,-1,713,1597,0,0
-504,-573,0,0,0,0,0,0,0,0,0,-1,720,1597,0,0
-497,-573,0,0,0,0,0,0,0,0,0,-1,727,1597,0,0
-490,-573,0,0,0,0,0,0,0,0,0,-1,734,1597,0,0
-483,-573,0,0,0,0,0,0,0,0,0,-1,741,1597,0,0
-476,-573,2.47577,0.755859,0,0,0,0,0,0,0,-1,748,1597,2.47578,-0.755887
-469,-573,1.974,0.377563,0,0,0,0,0,0,0,-1,755,1597,1.97403,-0.377518
-462,-573,2.03369,0.855957,-0.0423983,0.0356449,0.0131356,0.0377965,-0.0445498,1.40844,0.0475959,0.0472801,762,1597,2.03368,-0.855974
-455,-573,1.99377,0.907227,-0.0277963,0.0336769,0.0188924,0.0390188,-0.0331383,1.29523,0.041706,0.0454018,769,1597,1.9938,-0.907225
-448,-573,1.30975,1.84534,-0.015071,0.0316556,0.0229603,0.0410492,-0.0244646,1.18245,0.0382263,0.0466242,776,1597,1.30977,-1.84539
-441,-573,1.38147,2.02905,-0.00364423,0.029369,0.0250065,0.0428256,-0.0171008,1.07712,0.0356453,0.0486107,783,1597,1.38145,-2.0291
-434,-573,1.68585,2.28735,0.00504249,0.0269186,0.0256872,0.0438996,-0.0119385,0.986679,0.0339529,0.048901,790,1597,1.68583,-2.2874
-427,-573,1.85156,2.55725,0.0113953,0.0244755,0.0253376,0.0441035,-0.00823269,0.911701,0.0324961,0.0464303,797,1597,1.85155,-2.55727
-420,-573,1.12543,2.75159,0.0152469,0.0219983,0.023645,0.0425074,-0.00526223,0.856302,0.0302453,0.0384555,804,1597,1.12543,-2.7516
-413,-573,1.3111,2.67358,0.0166617,0.0192177,0.0208925,0.0388712,-0.00299183,0.815944,0.0269668,0.0277165,811,1597,1.31109,-2.67357
-406,-573,1.3847,2.72144,0.0165571,0.0163592,0.0181455,0.0346039,-0.00168768,0.782672,0.0236519,0.013942,818,1597,1.38473,-2.72147
-399,-573,1.39252,2.80872,0.0162624,0.0132417,0.0149968,0.0298247,-0.00032068,0.735212,0.0199909,0.0100453,825,1597,1.39254,-2.80871
-392,-573,1.39673,2.87195,0.0148298,0.0110211,0.0116912,0.0247708,0.00108016,0.704664,0.0161658,0.0100825,832,1597,1.39672,-2.87192
-385,-573,1.39948,2.9386,0.0113184,0.00917568,0.00860936,0.0189228,0.0015713,0.723494,0.0121254,0.0124161,839,1597,1.3995,-2.93856
-378,-573,1.40192,2.99817,0.00800412,0.00726041,0.0061385,0.013782,0.00148251,0.755147,0.00873588,0.0143409,846,1597,1.40191,-2.99816
-371,-573,1.40796,3.06726,0.00531913,0.00567687,0.00382564,0.00932781,0.00166818,0.808759,0.00574381,0.015239,853,1597,1.40796,-3.06722
-364,-573,1.41632,3.12769,0.0034975,0.00481041,0.00172772,0.00600219,0.00230573,0.966952,0.00349623,0.0173795,860,1597,1.4163,-3.12771
-357,-573,1.41095,3.19312,0.00213876,0.00411571,0.000285251,0.00415605,0.00209843,1.43032,0.00239953,0.0203693,867,1597,1.41094,-3.19306
-350,-573,1.41547,3.26538,0.00164465,0.00388129,-0.00047949,0.00397975,0.00154619,-1.36827,0.00231667,0.0172485,874,1597,1.41546,-3.26539
-343,-573,1.41693,3.30017,0.00193492,0.00440272,-0.000463599,0.00448693,0.0018507,-1.3911,0.00260373,0.0211732,881,1597,1.41694,-3.3002
-336,-573,1.39423,3.35913,0.00321828,0.0061975,-0.00036655,0.00624194,0.00317384,-1.45016,0.00360396,0.0170776,888,1597,1.39422,-3.35913
-329,-573,1.40155,3.44165,0.00512359,0.00784433,-0.000152624,0.00785286,0.00511505,-1.51493,0.00460258,0.0172518,895,1597,1.40152,-3.44165
-322,-573,1.40179,3.49585,0.00660167,0.00976439,4.30088e-05,0.00976497,0.00660108,1.5572,0.00575305,0.0122436,902,1597,1.40177,-3.49585
-315,-573,1.42303,3.57581,0.00653686,0.0115374,-0.000332484,0.0115594,0.00651485,-1.50469,0.00669178,0.015102,909,1597,1.42306,-3.57575
-308,-573,1.48834,3.58936,0.00540193,0.0129496,-0.00142215,0.0132087,0.00514286,-1.3906,0.00768805,0.0224425,916,1597,1.48837,-3.58936
-301,-573,1.54431,3.61169,0.00415189,0.014581,-0.00274043,0.0152572,0.00347564,-1.32886,0.00923363,0.0269121,923,1597,1.54432,-3.61168
-294,-573,1.44885,3.67993,0.00205193,0.0161889,-0.00500466,0.0177813,0.000459582,-1.26275,0.011704,0.0349213,930,1597,1.44887,-3.67995
-287,-573,1.52051,4.13611,-0.00186027,0.0172416,-0.00798415,0.0201393,-0.0047579,-1.22266,0.0152614,0.0472073,937,1597,1.52051,-4.13608
-280,-573,1.69971,4.45154,0,0,0,0,0,0,0,-1,944,1597,1.6997,-4.45153
-273,-573,1.26257,3.83569,0,0,0,0,0,0,0,-1,951,1597,1.26256,-3.83572
-266,-573,0.713989,3.75171,-0.0210341,0.00347334,-0.0171105,0.0122654,-0.0298261,-1.09614,0.0249966,0.0453379,958,1597,0.713969,-3.75167
-259,-573,-0.0730591,3.1532,-0.0305214,-0.00280382,-0.0136537,0.00279221,-0.0361174,-1.18182,0.0250609,0.0463045,965,1597,-0.073052,-3.15317
-252,-573,-1.23444,3.70972,0,0,0,0,0,0,0,-1,972,1597,-1.23444,-3.70969
-245,-573,-3.29498,1.50964,0,0,0,0,0,0,0,-1,979,1597,-3.29499,-1.50968
-238,-573,1.10944,1.54358,0,0,0,0,0,0,0,-1,986,1597,1.10943,-1.5436
-231,-573,1.82916,1.85437,0,0,0,0,0,0,0,-1,993,1597,1.82916,-1.85438
-224,-573,3.84149,0.759277,0,0,0,0,0,0,0,-1,1000,1597,3.84151,-0.759258
-217,-573,3.32324,1.65479,-0.0729091,-0.0411867,0.0225777,-0.0294557,-0.0846401,1.0916,0.0496138,0.0446954,1007,1597,3.32323,-1.6548
-210,-573,2.97009,2.35901,-0.0707061,-0.0405787,0.0338253,-0.0186145,-0.0926703,0.994884,0.056605,0.0409596,1014,1597,2.97007,-2.35901
-203,-573,2.50055,2.80505,-0.0702209,-0.0325886,0.0443802,-0.00320051,-0.099609,0.9859,0.0653653,0.0424336,1021,1597,2.50053,-2.80509
-196,-573,1.73022,3.07593,-0.0716712,-0.0136769,0.0506426,0.0156826,-0.101031,1.04541,0.073144,0.045296,1028,1597,1.73028,-3.07588
-189,-573,0.951172,3.30518,0,0,0,0,0,0,0,-1,1035,1597,0.951188,-3.30515
-182,-573,0,0,0,0,0,0,0,0,0,-1,1042,1597,0,0
-175,-573,0,0,0,0,0,0,0,0,0,-1,1049,1597,0,0
-168,-573,0,0,0,0,0,0,0,0,0,-1,1056,1597,0,0
-161,-573,0,0,0,0,0,0,0,0,0,-1,1063,1597,0,0
-154,-573,0,0,0,0,0,0,0,0,0,-1,1070,1597,0,0
-147,-573,0,0,0,0,0,0,0,0,0,-1,1077,1597,0,0
-140,-573,0,0,0,0,0,0,0,0,0,-1,1084,1597,0,0
-133,-573,0,0,0,0,0,0,0,0,0,-1,1091,1597,0,0
-126,-573,0,0,0,0,0,0,0,0,0,-1,1098,1597,0,0
-119,-573,0,0,0,0,0,0,0,0,0,-1,1105,1597,0,0
-112,-573,0,0,0,0,0,0,0,0,0,-1,1112,1597,0,0
-105,-573,0,0,0,0,0,0,0,0,0,-1,1119,1597,0,0
-98,-573,0,0,0,0,0,0,0,0,0,-1,1126,1597,0,0
-91,-573,0,0,0,0,0,0,0,0,0,-1,1133,1597,0,0
-84,-573,0,0,0,0,0,0,0,0,0,-1,1140,1597,0,0
-77,-573,0,0,0,0,0,0,0,0,0,-1,1147,1597,0,0
-70,-573,0,0,0,0,0,0,0,0,0,-1,1154,1597,0,0
-63,-573,0,0,0,0,0,0,0,0,0,-1,1161,1597,0,0
-56,-573,0,0,0,0,0,0,0,0,0,-1,1168,1597,0,0
-49,-573,0,0,0,0,0,0,0,0,0,-1,1175,1597,0,0
-42,-573,0,0,0,0,0,0,0,0,0,-1,1182,1597,0,0
-35,-573,0,0,0,0,0,0,0,0,0,-1,1189,1597,0,0
-28,-573,0,0,0,0,0,0,0,0,0,-1,1196,1597,0,0
-21,-573,0,0,0,0,0,0,0,0,0,-1,1203,1597,0,0
-14,-573,0,0,0,0,0,0,0,0,0,-1,1210,1597,0,0
-7,-573,0,0,0,0,0,0,0,0,0,-1,1217,1597,0,0
0,-573,0,0,0,0,0,0,0,0,0,-1,1224,1597,0,0
7,-573,0,0,0,0,0,0,0,0,0,-1,1231,1597,0,0
14,-573,0,0,0,0,0,0,0,0,0,-1,1238,1597,0,0
21,-573,0,0,0,0,0,0,0,0,0,-1,1245,1597,0,0
28,-573,0,0,0,0,0,0,0,0,0,-1,1252,1597,0,0
35,-573,0,0,0,0,0,0,0,0,0,-1,1259,1597,0,0
42,-573,0,0,0,0,0,0,0,0,0,-1,1266,1597,0,0
49,-573,0,0,0,0,0,0,0,0,0,-1,1273,1597,0,0
56,-573,0,0,0,0,0,0,0,0,0,-1,1280,1597,0,0
63,-573,0,0,0,0,0,0,0,0,0,-1,1287,1597,0,0
70,-573,0,0,0,0,0,0,0,0,0,-1,1294,1597,0,0
77,-573,0,0,0,0,0,0,0,0,0,-1,1301,1597,0,0
84,-573,0,0,0,0,0,0,0,0,0,-1,1308,1597,0,0
91,-573,0,0,0,0,0,0,0,0,0,-1,1315,1597,0,0
98,-573,0,0,0,0,0,0,0,0,0,-1,1322,1597,0,0
105,-573,0,0,0,0,0,0,0,0,0,-1,1329,1597,0,0
112,-573,0,0,0,0,0,0,0,0,0,-1,1336,1597,0,0
119,-573,0,0,0,0,0,0,0,0,0,-1,1343,1597,0,0
126,-573,0,0,0,0,0,0,0,0,0,-1,1350,1597,0,0
133,-573,0,0,0,0,0,0,0,0,0,-1,1357,1597,0,0
140,-573,0,0,0,0,0,0,0,0,0,-1,1364,1597,0,0
147,-573,0,0,0,0,0,0,0,0,0,-1,1371,1597,0,0
154,-573,0,0,0,0,0,0,0,0,0,-1,1378,1597,0,0
161,-573,0,0,0,0,0,0,0,0,0,-1,1385,1597,0,0
168,-573,0,0,0,0,0,0,0,0,0,-1,1392,1597,0,0
175,-573,0,0,0,0,0,0,0,0,0,-1,1399,1597,0,0
182,-573,0,0,0,0,0,0,0,0,0,-1,1406,1597,0,0
189,-573,0,0,0,0,0,0,0,0,0,-1,1413,1597,0,0
196,-573,0,0,0,0,0,0,0,0,0,-1,1420,1597,0,0
203,-573,0,0,0,0,0,0,0,0,0,-1,1427,1597,0,0
210,-573,0,0,0,0,0,0,0,0,0,-1,1434,1597,0,0
217,-573,0,0,0,0,0,0,0,0,0,-1,1441,1597,0,0
224,-573,0,0,0,0,0,0,0,0,0,-1,1448,1597,0,0
231,-573,0,0,0,0,0,0,0,0,0,-1,1455,1597,0,0
238,-573,0,0,0,0,0,0,0,0,0,-1,1462,1597,0,0
245,-573,0,0,0,0,0,0,0,0,0,-1,1469,1597,0,0
252,-573,0,0,0,0,0,0,0,0,0,-1,1476,1597,0,0
259,-573,0,0,0,0,0,0,0,0,0,-1,1483,1597,0,0
266,-573,0,0,0,0,0,0,0,0,0,-1,1490,1597,0,0
273,-573,0,0,0,0,0,0,0,0,0,-1,1497,1597,0,0
280,-573,0,0,0,0,0,0,0,0,0,-1,1504,1597,0,0
287,-573,0,0,0,0,0,0,0,0,0,-1,1511,1597,0,0
294,-573,0,0,0,0,0,0,0,0,0,-1,1518,1597,0,0
301,-573,0,0,0,0,0,0,0,0,0,-1,1525,1597,0,0
308,-573,3.2655,2.2616,0,0,0,0,0,0,0,-1,1532,1597,3.2655,-2.26161
315,-573,3.33313,2.4165,0,0,0,0,0,0,0,-1,1539,1597,3.33309,-2.41645
322,-573,1.4126,1.14966,0,0,0,0,0,0,0,-1,1546,1597,1.41258,-1.14963
329,-573,3.85693,2.96936,0,0,0,0,0,0,0,-1,1553,1597,3.85692,-2.96935
336,-573,3.43494,2.61475,0,0,0,0,0,0,0,-1,1560,1597,3.43492,-2.61476
343,-573,2.95447,1.73999,0,0,0,0,0,0,0,-1,1567,1597,2.95442,-1.73996
350,-573,2.53748,1.56433,0,0,0,0,0,0,0,-1,1574,1597,2.53753,-1.5643
357,-573,3.11804,1.42261,0,0,0,0,0,0,0,-1,1581,1597,3.11802,-1.42256
364,-573,3.73206,1.93506,0,0,0,0,0,0,0,-1,1588,1597,3.73206,-1.93503
371,-573,2.07703,4.46851,0,0,0,0,0,0,0,-1,1595,1597,2.07706,-4.46851
378,-573,1.70483,4.0061,-0.0571838,0.059009,-0.0138763,0.0606432,-0.058818,-1.45357,0.0689736,0.0495698,1602,1597,1.7048,-4.00616
385,-573,1.3208,3.54724,-0.0454783,0.0608728,-0.00680483,0.0613064,-0.045912,-1.50716,0.0621149,0.047829,1609,1597,1.32075,-3.54726
392,-573,0.945435,3.11719,0,0,0,0,0,0,0,-1,1616,1597,0.945495,-3.11716
399,-573,-0.211304,-3.17126,0,0,0,0,0,0,0,-1,1623,1597,-0.211285,3.17127
406,-573,3.36218,5.54993,0,0,0,0,0,0,0,-1,1630,1597,3.36216,-5.54994
413,-573,3.09766,5.36218,0,0,0,0,0,0,0,-1,1637,1597,3.0976,-5.36215
420,-573,3.24365,3.72217,0,0,0,0,0,0,0,-1,1644,1597,3.24369,-3.72221
427,-573,3.48804,3.80322,-0.0106264,0.0339109,0.0111729,0.0365566,-0.0132721,1.33828,0.0297972,0.0483202,1651,1597,3.488,-3.80321
434,-573,3.57764,3.81482,-0.00883108,0.0263804,0.0116048,0.029861,-0.0123117,1.27941,0.0250413,0.0389843,1658,1597,3.57763,-3.81478
441,-573,3.47485,3.79272,-0.00830454,0.0187747,0.0108697,0.022598,-0.0121278,1.23257,0.0203505,0.0258916,1665,1597,3.47486,-3.79278
448,-573,3.44141,3.74792,-0.00794009,0.010946,0.00931077,0.0147642,-0.0117583,1.18162,0.0153455,0.0173213,1672,1597,3.44146,-3.74796
455,-573,3.45129,3.67139,-0.0080636,0.0057161,0.00720178,0.00879298,-0.0111405,1.16703,0.0115352,0.0153048,1679,1597,3.45127,-3.67137
462,-573,3.44128,3.59778,-0.00764465,0.00118375,0.00540959,0.00375158,-0.0102125,1.12761,0.00834485,0.0182866,1686,1597,3.4413,-3.59773
469,-573,3.47485,3.54517,-0.00673982,-0.00203696,0.0038972,0.000163249,-0.00894002,1.05684,0.00601517,0.0150236,1693,1597,3.4748,-3.5452
476,-573,3.49548,3.4856,-0.00550396,-0.00346913,0.00246766,-0.00181737,-0.00715572,0.98093,0.00429483,0.0137551,1700,1597,3.49551,-3.48558
483,-573,3.46069,3.42615,-0.00355987,-0.00337867,0.00112462,-0.00234101,-0.00459753,0.82559,0.00265454,0.0108758,1707,1597,3.46074,-3.42613
490,-573,3.45166,3.3772,-0.000830021,-0.00212867,-0.000207758,-0.000797594,-0.0021611,-0.154833,0.00126189,0.00960257,1714,1597,3.45171,-3.37723
497,-573,3.46729,3.32849,0.00184801,-0.00083138,-0.00143453,0.00247114,-0.0014545,-0.409784,0.00229166,0.0142278,1721,1597,3.46731,-3.32843
504,-573,3.48083,3.23462,0.00469924,0.000663172,-0.00278369,0.00611943,-0.000757015,-0.47176,0.00435395,0.015318,1728,1597,3.48084,-3.23459
511,-573,3.48047,3.16724,0.00782513,0.00222145,-0.00430956,0.0101636,-0.000117001,-0.497159,0.00681506,0.0167515,1735,1597,3.48042,-3.16721
518,-573,3.48547,3.12415,0.0118224,0.0040148,-0.00653794,0.0155333,0.00030386,-0.516256,0.0102558,0.0132183,1742,1597,3.48553,-3.12414
525,-573,3.49341,3.05127,0.016296,0.00598249,-0.00930145,0.0217745,0.000503976,-0.532289,0.0143513,0.0153547,1749,1597,3.49335,-3.05126
532,-573,3.49695,3.01355,0.0228968,0.0088381,-0.0131094,0.0307425,0.000992361,-0.539303,0.0201724,0.0147211,1756,1597,3.49691,-3.01355
539,-573,3.4845,2.97607,0.0313385,0.0121473,-0.0176798,0.0418589,0.00162695,-0.536771,0.0273797,0.0160236,1763,1597,3.48447,-2.97611
546,-573,3.50745,2.9054,0.0406195,0.0158741,-0.0229577,0.0543262,0.00216732,-0.538244,0.0355171,0.0227143,1770,1597,3.50743,-2.90544
553,-573,3.46265,2.83167,0.052014,0.0204361,-0.0295506,0.0697292,0.00272092,-0.540042,0.0456062,0.0371365,1777,1597,3.46265,-2.83167
560,-573,3.48621,2.73254,0.065696,0.0257481,-0.0376775,0.0883666,0.00307751,-0.541669,0.0579125,0.0478469,1784,1597,3.48622,-2.73252
567,-573,3.91907,2.09802,0,0,0,0,0,0,0,-1,1791,1597,3.91901,-2.09802
574,-573,5.04443,2.85168,0,0,0,0,0,0,0,-1,1798,1597,5.04438,-2.85174
581,-573,6.80518,2.15381,0.124834,0.0479111,-0.070935,0.167064,0.00568155,-0.536977,0.109531,0.0470959,1805,1597,6.80515,-2.15381
588,-573,8.52649,1.54395,0.151568,0.0568673,-0.0841616,0.200785,0.00765038,-0.529161,0.131381,0.0495235,1812,1597,8.5265,-1.54397
595,-573,9.95532,0.942261,0,0,0,0,0,0,0,-1,1819,1597,9.95538,-0.942293
602,-573,0,0,0,0,0,0,0,0,0,-1,1826,1597,0,0
609,-573,0,0,0,0,0,0,0,0,0,-1,1833,1597,0,0
616,-573,0,0,0,0,0,0,0,0,0,-1,1840,1597,0,0
623,-573,0,0,0,0,0,0,0,0,0,-1,1847,1597,0,0
630,-573,0,0,0,0,0,0,0,0,0,-1,1854,1597,0,0
637,-573,0,0,0,0,0,0,0,0,0,-1,1861,1597,0,0
644,-573,0,0,0,0,0,0,0,0,0,-1,1868,1597,0,0
651,-573,0,0,0,0,0,0,0,0,0,-1,1875,1597,0,0
658,-573,0,0,0,0,0,0,0,0,0,-1,1882,1597,0,0
665,-573,0,0,0,0,0,0,0,0,0,-1,1889,1597,0,0
672,-573,0,0,0,0,0,0,0,0,0,-1,1896,1597,0,0
679,-573,0,0,0,0,0,0,0,0,0,-1,1903,1597,0,0
686,-573,0,0,0,0,0,0,0,0,0,-1,1910,1597,0,0
693,-573,0,0,0,0,0,0,0,0,0,-1,1917,1597,0,0
700,-573,0,0,0,0,0,0,0,0,0,-1,1924,1597,0,0
707,-573,0,0,0,0,0,0,0,0,0,-1,1931,1597,0,0
714,-573,0,0,0,0,0,0,0,0,0,-1,1938,1597,0,0
721,-573,0,0,0,0,0,0,0,0,0,-1,1945,1597,0,0
728,-573,0,0,0,0,0,0,0,0,0,-1,1952,1597,0,0
735,-573,0,0,0,0,0,0,0,0,0,-1,1959,1597,0,0
742,-573,0,0,0,0,0,0,0,0,0,-1,1966,1597,0,0
749,-573,0,0,0,0,0,0,0,0,0,-1,1973,1597,0,0
756,-573,0,0,0,0,0,0,0,0,0,-1,1980,1597,0,0
763,-573,0,0,0,0,0,0,0,0,0,-1,1987,1597,0,0
770,-573,0,0,0,0,0,0,0,0,0,-1,1994,1597,0,0
777,-573,0,0,0,0,0,0,0,0,0,-1,2001,1597,0,0
784,-573,0,0,0,0,0,0,0,0,0,-1,2008,1597,0,0
791,-573,0,0,0,0,0,0,0,0,0,-1,2015,1597,0,0
798,-573,0,0,0,0,0,0,0,0,0,-1,2022,1597,0,0
805,-573,0,0,0,0,0,0,0,0,0,-1,2029,1597,0,0
812,-573,0,0,0,0,0,0,0,0,0,-1,2036,1597,0,0
-700,-580,0,0,0,0,0,0,0,0,0,-1,524,1604,0,0
-693,-580,0,0,0,0,0,0,0,0,0,-1,531,1604,0,0
-686,-580,0,0,0,0,0,0,0,0,0,-1,538,1604,0,0
-679,-580,0,0,0,0,0,0,0,0,0,-1,545,1604,0,0
-672,-580,0,0,0,0,0,0,0,0,0,-1,552,1604,0,0
-665,-580,0,0,0,0,0,0,0,0,0,-1,559,1604,0,0
-658,-580,0,0,0,0,0,0,0,0,0,-1,566,1604,0,0
-651,-580,0,0,0,0,0,0,0,0,0,-1,573,1604,0,0
-644,-580,0,0,0,0,0,0,0,0,0,-1,580,1604,0,0
-637,-580,0,0,0,0,0,0,0,0,0,-1,587,1604,0,0
-630,-580,0,0,0,0,0,0,0,0,0,-1,594,1604,0,0
-623,-580,0,0,0,0,0,0,0,0,0,-1,601,1604,0,0
-616,-580,0,0,0,0,0,0,0,0,0,-1,608,1604,0,0
-609,-580,0,0,0,0,0,0,0,0,0,-1,615,1604,0,0
-602,-580,0,0,0,0,0,0,0,0,0,-1,622,1604,0,0
-595,-580,0,0,0,0,0,0,0,0,0,-1,629,1604,0,0
-588,-580,0,0,0,0,0,0,0,0,0,-1,636,1604,0,0
-581,-580,0,0,0,0,0,0,0,0,0,-1,643,1604,0,0
-574,-580,0,0,0,0,0,0,0,0,0,-1,650,1604,0,0
-567,-580,0,0,0,0,0,0,0,0,0,-1,657,1604,0,0
-560,-580,0,0,0,0,0,0,0,0,0,-1,664,1604,0,0
-553,-580,0,0,0,0,0,0,0,0,0,-1,671,1604,0,0
-546,-580,0,0,0,0,0,0,0,0,0,-1,678,1604,0,0
-539,-580,0,0,0,0,0,0,0,0,0,-1,685,1604,0,0
-532,-580,0,0,0,0,0,0,0,0,0,-1,692,1604,0,0
-525,-580,0,0,0,0,0,0,0,0,0,-1,699,1604,0,0
-518,-580,0,0,0,0,0,0,0,0,0,-1,706,1604,0,0
-511,-580,0,0,0,0,0,0,0,0,0,-1,713,1604,0,0
-504,-580,0,0,0,0,0,0,0,0,0,-1,720,1604,0,0
-497,-580,0,0,0,0,0,0,0,0,0,-1,727,1604,0,0
-490,-580,0,0,0,0,0,0,0,0,0,-1,734,1604,0,0
-483,-580,0,0,0,0,0,0,0,0,0,-1,741,1604,0,0
-476,-580,0,0,0,0,0,0,0,0,0,-1,748,1604,0,0
-469,-580,3.52612,0.000732422,0,0,0,0,0,0,0,-1,755,1604,3.52613,-0.000710779
-462,-580,2.39771,0.390259,0,0,0,0,0,0,0,-1,762,1604,2.39771,-0.390292
-455,-580,2.51178,0.748413,0,0,0,0,0,0,0,-1,769,1604,2.51175,-0.748455
-448,-580,1.11487,1.84021,-0.015407,0.0391429,0.0306806,0.0529194,-0.0291835,1.14875,0.0480579,0.0489898,776,1604,1.11486,-1.84025
-441,-580,1.29102,2.23425,0.000897985,0.0368933,0.0321699,0.0557578,-0.0179665,1.04044,0.0443897,0.047423,783,1604,1.29101,-2.23422
-434,-580,1.70648,2.24109,0,0,0,0,0,0,0,-1,790,1604,1.70646,-2.24113
-427,-580,2.05969,2.82703,0,0,0,0,0,0,0,-1,797,1604,2.05967,-2.82701
-420,-580,1.24988,2.58484,0.0258547,0.0286061,0.0290054,0.0562684,-0.00180759,0.809094,0.0381291,0.04362,804,1604,1.24986,-2.58482
-413,-580,1.35858,2.64453,0.0275415,0.0251699,0.0251934,0.0515771,0.00113442,0.761882,0.0340129,0.0433327,811,1604,1.35856,-2.64456
-406,-580,1.42664,2.74243,0.0271545,0.0216483,0.0214908,0.0460679,0.00273496,0.721692,0.0298421,0.0351702,818,1604,1.42661,-2.74244
-399,-580,1.44928,2.81213,0.0262826,0.0176627,0.0174543,0.0399513,0.0039941,0.664356,0.0254077,0.0150222,825,1604,1.44926,-2.81215
-392,-580,1.46179,2.87292,0.0240033,0.0146959,0.0133845,0.0335201,0.00517913,0.618089,0.020836,0.0105963,832,1604,1.46178,-2.8729
-385,-580,1.47058,2.9342,0.0189629,0.0120667,0.00958196,0.0256983,0.00533129,0.612686,0.0156605,0.0112764,839,1604,1.47057,-2.93426
-378,-580,1.44885,3.00977,0.0140808,0.00933948,0.00659887,0.0187219,0.00469835,0.612952,0.0112472,0.014329,846,1604,1.44885,-3.00976
-371,-580,1.44867,3.08655,0.0100024,0.00695848,0.00388237,0.0126505,0.00431043,0.598593,0.00742625,0.0131775,853,1604,1.44867,-3.08657
-364,-580,1.45221,3.1637,0.00690067,0.00528717,0.00160875,0.00789362,0.00429422,0.552986,0.00456327,0.0181643,860,1604,1.45218,-3.16375
-357,-580,1.47351,3.1842,0.00420424,0.00398031,3.98645e-05,0.00421113,0.00397342,0.171022,0.00273163,0.0132603,867,1604,1.47351,-3.18417
-350,-580,1.49786,3.2666,0.00270907,0.00313418,-0.000702014,0.00365511,0.00218814,-0.932401,0.00212393,0.0111931,874,1604,1.49789,-3.26663
-343,-580,1.49738,3.3186,0.00234021,0.00288059,-0.000608806,0.00327647,0.00194433,-0.994242,0.00190265,0.0117038,881,1604,1.49737,-3.31859
-336,-580,1.47961,3.35376,0.00280826,0.00386338,-0.000169937,0.00389008,0.00278157,-1.41498,0.00231414,0.0197079,888,1604,1.47963,-3.35375
-329,-580,1.48187,3.44678,0.00422736,0.00482886,6.28293e-05,0.00483536,0.00422087,1.46782,0.00303952,0.0177653,895,1604,1.48189,-3.44681
-322,-580,1.46301,3.4895,0.00545484,0.0059758,0.000324904,0.00613175,0.00529889,1.12329,0.00384044,0.0174639,902,1604,1.46302,-3.48946
-315,-580,1.46051,3.57825,0.00525456,0.00696284,3.61445e-05,0.0069636,0.0052538,1.54965,0.0041904,0.0133276,909,1604,1.46049,-3.57828
-308,-580,1.4881,3.65686,0.00412846,0.00758852,-0.000911867,0.00781412,0.00390286,-1.32826,0.00451149,0.0145317,916,1604,1.48812,-3.65681
-301,-580,1.50134,3.67139,0.00296325,0.00835146,-0.00212588,0.00908921,0.00222551,-1.23677,0.00547067,0.0133246,923,1604,1.50134,-3.67133
-294,-580,1.47894,3.70532,0.00117956,0.0090986,-0.0042185,0.0109247,-0.000646554,-1.16227,0.00750795,0.0191571,930,1604,1.47896,-3.70534
-287,-580,1.45526,3.92554,-0.00204865,0.0093891,-0.00687665,0.0126142,-0.0052737,-1.13227,0.0106135,0.0411289,937,1604,1.45525,-3.92551
-280,-580,1.65411,3.74194,-0.00662587,0.00921035,-0.0106009,0.0145238,-0.0119393,-1.10617,0.0153028,0.046177,944,1604,1.6541,-3.74197
-273,-580,1.45233,3.77417,-0.0114569,0.00430762,-0.0137877,0.0123072,-0.0194565,-1.04507,0.0184929,0.0434555,951,1604,1.45233,-3.77418
-266,-580,0.923279,3.95557,-0.0180159,-0.0041821,-0.0154864,0.00586192,-0.02806,-0.995428,0.020936,0.046023,958,1604,0.923258,-3.95552
-259,-580,0.145447,3.82288,0,0,0,0,0,0,0,-1,965,1604,0.145475,-3.82285
-252,-580,-0.507019,3.65283,0,0,0,0,0,0,0,-1,972,1604,-0.507045,-3.65282
-245,-580,-0.308716,3.78247,0,0,0,0,0,0,0,-1,979,1604,-0.30873,-3.7825
-238,-580,1.8634,3.87964,0,0,0,0,0,0,0,-1,986,1604,1.86341,-3.87965
-231,-580,2.70721,5.21362,0,0,0,0,0,0,0,-1,993,1604,2.70723,-5.21368
-224,-580,4.48468,1.06018,0,0,0,0,0,0,0,-1,1000,1604,4.48469,-1.06023
-217,-580,3.62207,1.83032,-0.0615544,-0.0405087,0.0163084,-0.031623,-0.0704402,1.07191,0.0407393,0.0429847,1007,1604,3.62209,-1.8303
-210,-580,2.99622,2.52393,-0.0611624,-0.0392012,0.0251032,-0.0227821,-0.0775815,0.991569,0.0460456,0.0438874,1014,1604,2.9962,-2.52392
-203,-580,1.72449,2.62891,-0.0616379,-0.0321227,0.0334767,-0.0102951,-0.0834655,0.993001,0.0525492,0.0431576,1021,1604,1.72449,-2.62894
-196,-580,1.55737,3.51013,-0.0636005,-0.0166112,0.0383657,0.00488222,-0.085094,1.06014,0.0584248,0.0442785,1028,1604,1.5574,-3.51014
-189,-580,1.41528,3.91199,0,0,0,0,0,0,0,-1,1035,1604,1.41534,-3.91194
-182,-580,0.343262,0.279541,0,0,0,0,0,0,0,-1,1042,1604,0.34325,-0.279491
-175,-580,1.29797,-0.346802,0,0,0,0,0,0,0,-1,1049,1604,1.29795,0.346769
-168,-580,0,0,0,0,0,0,0,0,0,-1,1056,1604,0,0
-161,-580,0,0,0,0,0,0,0,0,0,-1,1063,1604,0,0
-154,-580,0,0,0,0,0,0,0,0,0,-1,1070,1604,0,0
-147,-580,0,0,0,0,0,0,0,0,0,-1,1077,1604,0,0
-140,-580,0,0,0,0,0,0,0,0,0,-1,1084,1604,0,0
-133,-580,0,0,0,0,0,0,0,0,0,-1,1091,1604,0,0
-126,-580,0,0,0,0,0,0,0,0,0,-1,1098,1604,0,0
-119,-580,0,0,0,0,0,0,0,0,0,-1,1105,1604,0,0
-112,-580,0,0,0,0,0,0,0,0,0,-1,1112,1604,0,0
-105,-580,0,0,0,0,0,0,0,0,0,-1,1119,1604,0,0
-98,-580,0,0,0,0,0,0,0,0,0,-1,1126,1604,0,0
-91,-580,0,0,0,0,0,0,0,0,0,-1,1133,1604,0,0
-84,-580,0,0,0,0,0,0,0,0,0,-1,1140,1604,0,0
-77,-580,0,0,0,0,0,0,0,0,0,-1,1147,1604,0,0
-70,-580,0,0,0,0,0,0,0,0,0,-1,1154,1604,0,0
-63,-580,0,0,0,0,0,0,0,0,0,-1,1161,1604,0,0
-56,-580,0,0,0,0,0,0,0,0,0,-1,1168,1604,0,0
-49,-580,0,0,0,0,0,0,0,0,0,-1,1175,1604,0,0
-42,-580,0,0,0,0,0,0,0,0,0,-1,1182,1604,0,0
-35,-580,0,0,0,0,0,0,0,0,0,-1,1189,1604,0,0
-28,-580,0,0,0,0,0,0,0,0,0,-1,1196,1604,0,0
-21,-580,0,0,0,0,0,0,0,0,0,-1,1203,1604,0,0
-14,-580,0,0,0,0,0,0,0,0,0,-1,1210,1604,0,0
-7,-580,0,0,0,0,0,0,0,0,0,-1,1217,1604,0,0
0,-580,0,0,0,0,0,0,0,0,0,-1,1224,1604,0,0
7,-580,0,0,0,0,0,0,0,0,0,-1,1231,1604,0,0
14,-580,0,0,0,0,0,0,0,0,0,-1,1238,1604,0,0
21,-580,0,0,0,0,0,0,0,0,0,-1,1245,1604,0,0
28,-580,0,0,0,0,0,0,0,0,0,-1,1252,1604,0,0
35,-580,0,0,0,0,0,0,0,0,0,-1,1259,1604,0,0
42,-580,0,0,0,0,0,0,0,0,0,-1,1266,1604,0,0
49,-580,0,0,0,0,0,0,0,0,0,-1,1273,1604,0,0
56,-580,0,0,0,0,0,0,0,0,0,-1,1280,1604,0,0
63,-580,0,0,0,0,0,0,0,0,0,-1,1287,1604,0,0
70,-580,0,0,0,0,0,0,0,0,0,-1,1294,1604,0,0
77,-580,0,0,0,0,0,0,0,0,0,-1,1301,1604,0,0
84,-580,0,0,0,0,0,0,0,0,0,-1,1308,1604,0,0
91,-580,0,0,0,0,0,0,0,0,0,-1,1315,1604,0,0
98,-580,0,0,0,0,0,0,0,0,0,-1,1322,1604,0,0
105,-580,0,0,0,0,0,0,0,0,0,-1,1329,1604,0,0
112,-580,0,0,0,0,0,0,0,0,0,-1,1336,1604,0,0
119,-580,0,0,0,0,0,0,0,0,0,-1,1343,1604,0,0
126,-580,0,0,0,0,0,0,0,0,0,-1,1350,1604,0,0
133,-580,0,0,0,0,0,0,0,0,0,-1,1357,1604,0,0
140,-580,0,0,0,0,0,0,0,0,0,-1,1364,1604,0,0
147,-580,0,0,0,0,0,0,0,0,0,-1,1371,1604,0,0
154,-580,0,0,0,0,0,0,0,0,0,-1,1378,1604,0,0
161,-580,0,0,0,0,0,0,0,0,0,-1,1385,1604,0,0
168,-580,0,0,0,0,0,0,0,0,0,-1,1392,1604,0,0
175,-580,0,0,0,0,0,0,0,0,0,-1,1399,1604,0,0
182,-580,0,0,0,0,0,0,0,0,0,-1,1406,1604,0,0
189,-580,0,0,0,0,0,0,0,0,0,-1,1413,1604,0,0
196,-580,0,0,0,0,0,0,0,0,0,-1,1420,1604,0,0
203,-580,0,0,0,0,0,0,0,0,0,-1,1427,1604,0,0
210,-580,0,0,0,0,0,0,0,0,0,-1,1434,1604,0,0
217,-580,0,0,0,0,0,0,0,0,0,-1,1441,1604,0,0
224,-580,0,0,0,0,0,0,0,0,0,-1,1448,1604,0,0
231,-580,0,0,0,0,0,0,0,0,0,-1,1455,1604,0,0
238,-580,0,0,0,0,0,0,0,0,0,-1,1462,1604,0,0
245,-580,0,0,0,0,0,0,0,0,0,-1,1469,1604,0,0
252,-580,0,0,0,0,0,0,0,0,0,-1,1476,1604,0,0
259,-580,0,0,0,0,0,0,0,0,0,-1,1483,1604,0,0
266,-580,0,0,0,0,0,0,0,0,0,-1,1490,1604,0,0
273,-580,0,0,0,0,0,0,0,0,0,-1,1497,1604,0,0
280,-580,0,0,0,0,0,0,0,0,0,-1,1504,1604,0,0
287,-580,0,0,0,0,0,0,0,0,0,-1,1511,1604,0,0
294,-580,-1.5415,-1.5813,0,0,0,0,0,0,0,-1,1518,1604,-1.54148,1.5813
301,-580,-2.09583,-1.05884,0,0,0,0,0,0,0,-1,1525,1604,-2.09586,1.05888
308,-580,3.36011,2.07666,0,0,0,0,0,0,0,-1,1532,1604,3.36014,-2.0767
315,-580,2.04077,1.5802,0,0,0,0,0,0,0,-1,1539,1604,2.04079,-1.58015
322,-580,1.15417,1.02551,0,0,0,0,0,0,0,-1,1546,1604,1.1542,-1.02553
329,-580,0.267578,0.470947,0,0,0,0,0,0,0,-1,1553,1604,0.267614,-0.470913
336,-580,3.77295,1.65588,0,0,0,0,0,0,0,-1,1560,1604,3.773,-1.65591
343,-580,3.32227,1.39636,0,0,0,0,0,0,0,-1,1567,1604,3.32222,-1.39633
350,-580,4.88318,4.78687,0,0,0,0,0,0,0,-1,1574,1604,4.88315,-4.78684
357,-580,4.46753,4.91492,0,0,0,0,0,0,0,-1,1581,1604,4.46751,-4.91488
364,-580,3.39246,4.61206,0,0,0,0,0,0,0,-1,1588,1604,3.39246,-4.61203
371,-580,3.12769,4.09399,0,0,0,0,0,0,0,-1,1595,1604,3.12773,-4.09398
378,-580,1.8573,4.15857,-0.0519061,0.0438607,-0.0144641,0.0459976,-0.054043,-1.42412,0.0578207,0.046189,1602,1604,1.85731,-4.15859
385,-580,1.39514,3.70081,-0.041572,0.046101,-0.0081952,0.0468605,-0.0423314,-1.47839,0.0515171,0.045442,1609,1604,1.39518,-3.70081
392,-580,0.802124,3.30273,0,0,0,0,0,0,0,-1,1616,1604,0.802132,-3.3027
399,-580,3.69067,4.00684,0,0,0,0,0,0,0,-1,1623,1604,3.6907,-4.00688
406,-580,3.35547,4.00037,0,0,0,0,0,0,0,-1,1630,1604,3.35549,-4.00038
413,-580,3.26892,4.58862,-0.0125626,0.0386686,0.00737236,0.0397084,-0.0136024,1.43068,0.0319855,0.0451429,1637,1604,3.26893,-4.58861
420,-580,3.20642,4.29431,-0.008998,0.0333816,0.00877945,0.0351284,-0.0107448,1.3744,0.027704,0.0422105,1644,1604,3.20637,-4.29435
427,-580,3.40662,3.85437,-0.00655508,0.0278221,0.00922558,0.0301414,-0.00887441,1.3245,0.023615,0.0352933,1651,1604,3.40656,-3.85435
434,-580,3.4104,3.82471,-0.00436589,0.0220131,0.00981637,0.0252651,-0.00761793,1.25089,0.0198754,0.0232767,1658,1604,3.41037,-3.82467
441,-580,3.39465,3.76538,-0.00366273,0.0161229,0.00921695,0.0197512,-0.00729101,1.19577,0.0161558,0.0109158,1665,1604,3.39465,-3.76536
448,-580,3.40735,3.72815,-0.00331621,0.00990386,0.00780223,0.0135196,-0.006932,1.13683,0.0120102,0.0112043,1672,1604,3.40731,-3.72816
455,-580,3.40674,3.67773,-0.00347088,0.00585368,0.00593975,0.00874239,-0.0063596,1.11814,0.00875524,0.0188252,1679,1604,3.40669,-3.67771
462,-580,3.38306,3.59924,-0.00323508,0.00233228,0.00429811,0.0046694,-0.0055722,1.07276,0.00592065,0.022891,1686,1604,3.3831,-3.59925
469,-580,3.422,3.53882,-0.00269382,-0.00023983,0.00282349,0.00161175,-0.0045454,0.990371,0.00368688,0.0191982,1693,1604,3.42196,-3.53885
476,-580,3.42798,3.48804,-0.00193506,-0.00134438,0.00136265,-0.000245428,-0.00303401,0.892116,0.00194603,0.0145999,1700,1604,3.42801,-3.48807
483,-580,3.38635,3.42786,-0.000483116,-0.00136218,4.92988e-05,-0.00048036,-0.00136493,0.0558477,0.000799481,0.0124742,1707,1604,3.38636,-3.42783
490,-580,3.37988,3.36145,0.00193127,-0.00040791,-0.00150919,0.00267102,-0.00114766,-0.455749,0.00226244,0.0137146,1714,1604,3.37992,-3.36141
497,-580,3.39404,3.32092,0.00448178,0.00063715,-0.00295674,0.00608616,-0.000967238,-0.497159,0.00441531,0.0108544,1721,1604,3.39404,-3.32089
504,-580,3.38867,3.23669,0.00755971,0.00204474,-0.00459987,0.0101653,-0.000560843,-0.515383,0.00697133,0.0149131,1728,1604,3.38868,-3.23675
511,-580,3.40186,3.18372,0.0112038,0.0036582,-0.00638233,0.014845,1.69417e-05,-0.518462,0.00989105,0.0159137,1735,1604,3.40184,-3.18366
518,-580,3.42993,3.12146,0.0161834,0.00559035,-0.00908937,0.0214068,0.000366899,-0.521591,0.0141505,0.0153007,1742,1604,3.42996,-3.12149
525,-580,3.40442,3.05798,0.022063,0.00787635,-0.0124353,0.0292859,0.000653505,-0.526206,0.0193098,0.0168374,1749,1604,3.4044,-3.05796
532,-580,3.40601,3.02795,0.0304162,0.011278,-0.0170638,0.0404109,0.00128332,-0.529857,0.0265232,0.0176632,1756,1604,3.406,-3.02792
539,-580,3.46692,3.00781,0.0409211,0.015249,-0.0225309,0.0540158,0.00215434,-0.526474,0.0353143,0.0228415,1763,1604,3.46688,-3.00784
546,-580,3.54163,2.92505,0.0525183,0.0197084,-0.0288237,0.0692785,0.00294822,-0.526686,0.045235,0.0380861,1770,1604,3.54164,-2.92503
553,-580,3.41431,2.77332,0.0664863,0.025068,-0.0366441,0.0878682,0.00368608,-0.5282,0.0573896,0.0450422,1777,1604,3.41435,-2.77336
560,-580,3.41333,2.80554,0.0830686,0.0313823,-0.0462603,0.110215,0.00423594,-0.53067,0.0721062,0.048245,1784,1604,3.41339,-2.80553
567,-580,3.36414,2.83484,0,0,0,0,0,0,0,-1,1791,1604,3.36408,-2.83485
574,-580,7.06958,2.07703,0,0,0,0,0,0,0,-1,1798,1604,7.06952,-2.07697
581,-580,7.95142,1.58032,0.153244,0.0580303,-0.0889535,0.206529,0.00474542,-0.539698,0.136132,0.0456172,1805,1604,7.95141,-1.58033
588,-580,9.37402,1.00806,0.185887,0.0697045,-0.108039,0.250461,0.00512972,-0.538727,0.165291,0.0488866,1812,1604,9.37407,-1.00803
595,-580,0,0,0,0,0,0,0,0,0,-1,1819,1604,0,0
602,-580,0,0,0,0,0,0,0,0,0,-1,1826,1604,0,0
609,-580,0,0,0,0,0,0,0,0,0,-1,1833,1604,0,0
616,-580,0,0,0,0,0,0,0,0,0,-1,1840,1604,0,0
623,-580,0,0,0,0,0,0,0,0,0,-1,1847,1604,0,0
630,-580,0,0,0,0,0,0,0,0,0,-1,1854,1604,0,0
637,-580,0,0,0,0,0,0,0,0,0,-1,1861,1604,0,0
644,-580,0,0,0,0,0,0,0,0,0,-1,1868,1604,0,0
651,-580,0,0,0,0,0,0,0,0,0,-1,1875,1604,0,0
658,-580,0,0,0,0,0,0,0,0,0,-1,1882,1604,0,0
665,-580,0,0,0,0,0,0,0,0,0,-1,1889,1604,0,0
672,-580,0,0,0,0,0,0,0,0,0,-1,1896,1604,0,0
679,-580,0,0,0,0,0,0,0,0,0,-1,1903,1604,0,0
686,-580,0,0,0,0,0,0,0,0,0,-1,1910,1604,0,0
693,-580,0,0,0,0,0,0,0,0,0,-1,1917,1604,0,0
700,-580,0,0,0,0,0,0,0,0,0,-1,1924,1604,0,0
707,-580,0,0,0,0,0,0,0,0,0,-1,1931,1604,0,0
714,-580,0,0,0,0,0,0,0,0,0,-1,1938,1604,0,0
721,-580,0,0,0,0,0,0,0,0,0,-1,1945,1604,0,0
728,-580,0,0,0,0,0,0,0,0,0,-1,1952,1604,0,0
735,-580,0,0,0,0,0,0,0,0,0,-1,1959,1604,0,0
742,-580,0,0,0,0,0,0,0,0,0,-1,1966,1604,0,0
749,-580,0,0,0,0,0,0,0,0,0,-1,1973,1604,0,0
756,-580,0,0,0,0,0,0,0,0,0,-1,1980,1604,0,0
763,-580,0,0,0,0,0,0,0,0,0,-1,1987,1604,0,0
770,-580,0,0,0,0,0,0,0,0,0,-1,1994,1604,0,0
777,-580,0,0,0,0,0,0,0,0,0,-1,2001,1604,0,0
784,-580,0,0,0,0,0,0,0,0,0,-1,2008,1604,0,0
791,-580,0,0,0,0,0,0,0,0,0,-1,2015,1604,0,0
798,-580,0,0,0,0,0,0,0,0,0,-1,2022,1604,0,0
805,-580,0,0,0,0,0,0,0,0,0,-1,2029,1604,0,0
812,-580,0,0,0,0,0,0,0,0,0,-1,2036,1604,0,0
-700,-587,0,0,0,0,0,0,0,0,0,-1,524,1611,0,0
-693,-587,0,0,0,0,0,0,0,0,0,-1,531,1611,0,0
-686,-587,0,0,0,0,0,0,0,0,0,-1,538,1611,0,0
-679,-587,0,0,0,0,0,0,0,0,0,-1,545,1611,0,0
-672,-587,0,0,0,0,0,0,0,0,0,-1,552,1611,0,0
-665,-587,0,0,0,0,0,0,0,0,0,-1,559,1611,0,0
-658,-587,0,0,0,0,0,0,0,0,0,-1,566,1611,0,0
-651,-587,0,0,0,0,0,0,0,0,0,-1,573,1611,0,0
-644,-587,0,0,0,0,0,0,0,0,0,-1,580,1611,0,0
-637,-587,0,0,0,0,0,0,0,0,0,-1,587,1611,0,0
-630,-587,0,0,0,0,0,0,0,0,0,-1,594,1611,0,0
-623,-587,0,0,0,0,0,0,0,0,0,-1,601,1611,0,0
-616,-587,0,0,0,0,0,0,0,0,0,-1,608,1611,0,0
-609,-587,0,0,0,0,0,0,0,0,0,-1,615,1611,0,0
-602,-587,0,0,0,0,0,0,0,0,0,-1,622,1611,0,0
-595,-587,0,0,0,0,0,0,0,0,0,-1,629,1611,0,0
-588,-587,0,0,0,0,0,0,0,0,0,-1,636,1611,0,0
-581,-587,0,0,0,0,0,0,0,0,0,-1,643,1611,0,0
-574,-587,0,0,0,0,0,0,0,0,0,-1,650,1611,0,0
-567,-587,0,0,0,0,0,0,0,0,0,-1,657,1611,0,0
-560,-587,0,0,0,0,0,0,0,0,0,-1,664,1611,0,0
-553,-587,0,0,0,0,0,0,0,0,0,-1,671,1611,0,0
-546,-587,0,0,0,0,0,0,0,0,0,-1,678,1611,0,0
-539,-587,0,0,0,0,0,0,0,0,0,-1,685,1611,0,0
-532,-587,0,0,0,0,0,0,0,0,0,-1,692,1611,0,0
-525,-587,0,0,0,0,0,0,0,0,0,-1,699,1611,0,0
-518,-587,0,0,0,0,0,0,0,0,0,-1,706,1611,0,0
-511,-587,0,0,0,0,0,0,0,0,0,-1,713,1611,0,0
-504,-587,0,0,0,0,0,0,0,0,0,-1,720,1611,0,0
-497,-587,0,0,0,0,0,0,0,0,0,-1,727,1611,0,0
-490,-587,0,0,0,0,0,0,0,0,0,-1,734,1611,0,0
-483,-587,0,0,0,0,0,0,0,0,0,-1,741,1611,0,0
-476,-587,0,0,0,0,0,0,0,0,0,-1,748,1611,0,0
-469,-587,0,0,0,0,0,0,0,0,0,-1,755,1611,0,0
-462,-587,3.08673,1.0553,0,0,0,0,0,0,0,-1,762,1611,3.08674,-1.05528
-455,-587,1.9317,1.43396,-0.035689,0.049628,0.0331426,0.0609896,-0.0470507,1.24054,0.0625499,0.0453709,769,1611,1.93173,-1.43391
-448,-587,1.04468,1.61072,-0.0143495,0.0483157,0.0392399,0.0671976,-0.0332315,1.12231,0.0590778,0.0477439,776,1611,1.0447,-1.61071
-441,-587,1.12372,2.37292,0.00605401,0.0459913,0.0394554,0.0702434,-0.0181981,1.01966,0.0539283,0.0499788,783,1611,1.12372,-2.37289
-434,-587,-1.15143,2.66687,0,0,0,0,0,0,0,-1,790,1611,-1.15142,-2.66691
-427,-587,-0.962524,2.41187,0.030295,0.0398308,0.0374031,0.0727686,-0.00264293,0.848793,0.049417,0.0471351,797,1611,-0.962529,-2.41183
-420,-587,-0.514526,2.41919,0.0356853,0.036263,0.0337574,0.0697328,0.00221556,0.789677,0.0457679,0.0449698,804,1611,-0.514531,-2.41914
-413,-587,0.131897,2.55054,0.0372905,0.0320672,0.0288371,0.0636339,0.00572379,0.740238,0.0406493,0.046657,811,1611,0.131902,-2.55058
-406,-587,0.801208,2.76074,0.0363023,0.0277534,0.024137,0.0565405,0.00751527,0.697762,0.035455,0.0469657,818,1611,0.801239,-2.76071
-399,-587,1.49127,2.85852,0.0346395,0.0228189,0.0192551,0.0488709,0.00858748,0.636489,0.0301289,0.0334852,825,1611,1.49128,-2.85849
-392,-587,1.56671,2.84521,0.031339,0.0189694,0.0144861,0.0409054,0.00940301,0.583638,0.0247389,0.0235318,832,1611,1.5667,-2.84526
-385,-587,1.53009,2.9115,0.0246972,0.0153571,0.0100211,0.031083,0.00897126,0.567349,0.0184726,0.0147279,839,1611,1.53011,-2.91148
-378,-587,1.48218,3.01172,0.0183462,0.0116468,0.00659082,0.0223897,0.00760332,0.55029,0.0131466,0.0129263,846,1611,1.48218,-3.01171
-371,-587,1.46832,3.13806,0.0130646,0.00835769,0.00354791,0.0149686,0.00645362,0.492554,0.00866941,0.0134421,853,1611,1.46834,-3.13807
-364,-587,1.51697,3.17468,0.00896879,0.00589566,0.00117181,0.00936462,0.00549983,0.325763,0.00543407,0.016997,860,1611,1.51697,-3.17469
-357,-587,1.54095,3.16077,0.00525152,0.00397721,-0.000483465,0.00541418,0.00381455,-0.324551,0.00321189,0.0161146,867,1611,1.54096,-3.16074
-350,-587,1.5556,3.24316,0.00306172,0.00257199,-0.00118605,0.00402791,0.00160579,-0.6836,0.00234138,0.00993432,874,1611,1.55562,-3.24311
-343,-587,1.54889,3.31506,0.00231167,0.00163085,-0.00103582,0.00306158,0.000880936,-0.626639,0.00181992,0.0124134,881,1611,1.54887,-3.31509
-336,-587,1.52606,3.37146,0.00230026,0.00196849,-0.000186465,0.00238395,0.0018848,-0.421875,0.00145181,0.0118169,888,1611,1.52606,-3.37149
-329,-587,1.51648,3.41711,0.00337687,0.00242715,1.71583e-05,0.00337718,0.00242684,0.0180589,0.00201097,0.0138068,895,1611,1.5165,-3.41712
-322,-587,1.53259,3.50317,0.00440382,0.00301209,0.000316182,0.00447228,0.00294362,0.213241,0.0026248,0.0167772,902,1611,1.53257,-3.50317
-315,-587,1.51917,3.55627,0.00414408,0.00343204,0.000142528,0.00417155,0.00340457,0.190398,0.0025639,0.0134938,909,1611,1.51918,-3.5563
-308,-587,1.52502,3.63721,0.00308612,0.00350287,-0.000594505,0.00392446,0.00266453,-0.953959,0.00231366,0.0136666,916,1611,1.52504,-3.63726
-301,-587,1.54236,3.67822,0.0020152,0.00360289,-0.00161744,0.00461079,0.00100729,-1.01353,0.00279918,0.0120858,923,1611,1.54237,-3.67828
-294,-587,1.55371,3.74133,0.000526647,0.00370668,-0.00338832,0.0058595,-0.00162618,-1.00478,0.00454639,0.0126696,930,1611,1.55369,-3.74132
-287,-587,1.53534,3.83044,-0.0021115,0.0034121,-0.00558829,0.00688381,-0.0055832,-1.0149,0.00721087,0.0225154,937,1611,1.53534,-3.83049
-280,-587,1.54211,3.84753,-0.00574864,0.00276725,-0.00866755,0.00816625,-0.0111476,-1.01371,0.0111951,0.0336307,944,1611,1.54212,-3.84757
-273,-587,1.57178,3.79651,-0.00936149,-0.0017051,-0.0113251,0.00642131,-0.0174879,-0.948383,0.0142884,0.0404278,951,1611,1.57179,-3.79656
-266,-587,1.29449,3.72656,-0.0147821,-0.00907665,-0.0132079,0.00158314,-0.0254419,-0.891757,0.0175128,0.0458737,958,1611,1.29447,-3.72652
-259,-587,0.76001,3.51941,-0.0224504,-0.014116,-0.0120467,-0.0055361,-0.0310304,-0.951916,0.0191107,0.0461273,965,1611,0.759996,-3.5194
-252,-587,0.302612,3.63489,-0.0294043,-0.0189583,-0.00965332,-0.0132056,-0.035157,-1.03337,0.0205062,0.0455053,972,1611,0.302597,-3.63487
-245,-587,0.0655518,3.85291,-0.0341187,-0.0231183,-0.00591249,-0.0205432,-0.0366938,-1.16004,0.0212357,0.0463177,979,1611,0.0655776,-3.85295
-238,-587,-0.243713,4.15454,0,0,0,0,0,0,0,-1,986,1611,-0.243708,-4.15456
-231,-587,6.46545,1.177,0,0,0,0,0,0,0,-1,993,1611,6.46545,-1.17706
-224,-587,5.03912,1.68921,-0.0488719,-0.0372336,0.00549272,-0.0350507,-0.0510547,1.19252,0.0301524,0.0463062,1000,1611,5.0391,-1.68923
-217,-587,3.56097,2.19385,-0.0503889,-0.0377061,0.0115657,-0.0308574,-0.0572376,1.03617,0.0330798,0.041155,1007,1611,3.56099,-2.19386
-210,-587,2.10687,2.32715,-0.0511237,-0.035744,0.0182926,-0.0235906,-0.0632771,0.984374,0.0369249,0.0438681,1014,1611,2.10687,-2.32721
-203,-587,1.73352,3.10315,-0.0522442,-0.0294135,0.0246767,-0.0136397,-0.068018,1.00204,0.0415518,0.0467568,1021,1611,1.73352,-3.10315
-196,-587,1.63696,3.75146,-0.0544862,-0.0167026,0.0283512,-0.0015255,-0.0696633,1.07929,0.0459421,0.0465302,1028,1611,1.63698,-3.75152
-189,-587,1.66174,4.34351,0,0,0,0,0,0,0,-1,1035,1611,1.66169,-4.34348
-182,-587,0.29126,0.551025,0,0,0,0,0,0,0,-1,1042,1611,0.291285,-0.550971
-175,-587,1.05139,-0.531372,0,0,0,0,0,0,0,-1,1049,1611,1.05139,0.531321
-168,-587,2.28296,-1.38062,0,0,0,0,0,0,0,-1,1056,1611,2.283,1.38064
-161,-587,3.68921,-2.26221,0,0,0,0,0,0,0,-1,1063,1611,3.68921,2.26221
-154,-587,-0.276001,5.50354,0,0,0,0,0,0,0,-1,1070,1611,-0.276038,-5.50359
-147,-587,0,0,0,0,0,0,0,0,0,-1,1077,1611,0,0
-140,-587,0,0,0,0,0,0,0,0,0,-1,1084,1611,0,0
-133,-587,0,0,0,0,0,0,0,0,0,-1,1091,1611,0,0
-126,-587,0,0,0,0,0,0,0,0,0,-1,1098,1611,0,0
-119,-587,0,0,0,0,0,0,0,0,0,-1,1105,1611,0,0
-112,-587,0,0,0,0,0,0,0,0,0,-1,1112,1611,0,0
-105,-587,0,0,0,0,0,0,0,0,0,-1,1119,1611,0,0
-98,-587,0,0,0,0,0,0,0,0,0,-1,1126,1611,0,0
-91,-587,0,0,0,0,0,0,0,0,0,-1,1133,1611,0,0
-84,-587,0,0,0,0,0,0,0,0,0,-1,1140,1611,0,0
-77,-587,0,0,0,0,0,0,0,0,0,-1,1147,1611,0,0
-70,-587,0,0,0,0,0,0,0,0,0,-1,1154,1611,0,0
-63,-587,0,0,0,0,0,0,0,0,0,-1,1161,1611,0,0
-56,-587,0,0,0,0,0,0,0,0,0,-1,1168,1611,0,0
-49,-587,0,0,0,0,0,0,0,0,0,-1,1175,1611,0,0
-42,-587,0,0,0,0,0,0,0,0,0,-1,1182,1611,0,0
-35,-587,0,0,0,0,0,0,0,0,0,-1,1189,1611,0,0
-28,-587,0,0,0,0,0,0,0,0,0,-1,1196,1611,0,0
-21,-587,0,0,0,0,0,0,0,0,0,-1,1203,1611,0,0
-14,-587,0,0,0,0,0,0,0,0,0,-1,1210,1611,0,0
-7,-587,0,0,0,0,0,0,0,0,0,-1,1217,1611,0,0
0,-587,0,0,0,0,0,0,0,0,0,-1,1224,1611,0,0
7,-587,0,0,0,0,0,0,0,0,0,-1,1231,1611,0,0
14,-587,0,0,0,0,0,0,0,0,0,-1,1238,1611,0,0
21,-587,0,0,0,0,0,0,0,0,0,-1,1245,1611,0,0
28,-587,0,0,0,0,0,0,0,0,0,-1,1252,1611,0,0
35,-587,0,0,0,0,0,0,0,0,0,-1,1259,1611,0,0
42,-587,0,0,0,0,0,0,0,0,0,-1,1266,1611,0,0
49,-587,0,0,0,0,0,0,0,0,0,-1,1273,1611,0,0
56,-587,0,0,0,0,0,0,0,0,0,-1,1280,1611,0,0
63,-587,0,0,0,0,0,0,0,0,0,-1,1287,1611,0,0
70,-587,0,0,0,0,0,0,0,0,0,-1,1294,1611,0,0
77,-587,0,0,0,0,0,0,0,0,0,-1,1301,1611,0,0
84,-587,0,0,0,0,0,0,0,0,0,-1,1308,1611,0,0
91,-587,0,0,0,0,0,0,0,0,0,-1,1315,1611,0,0
98,-587,0,0,0,0,0,0,0,0,0,-1,1322,1611,0,0
105,-587,0,0,0,0,0,0,0,0,0,-1,1329,1611,0,0
112,-587,0,0,0,0,0,0,0,0,0,-1,1336,1611,0,0
119,-587,0,0,0,0,0,0,0,0,0,-1,1343,1611,0,0
126,-587,0,0,0,0,0,0,0,0,0,-1,1350,1611,0,0
133,-587,0,0,0,0,0,0,0,0,0,-1,1357,1611,0,0
140,-587,0,0,0,0,0,0,0,0,0,-1,1364,1611,0,0
147,-587,0,0,0,0,0,0,0,0,0,-1,1371,1611,0,0
154,-587,0,0,0,0,0,0,0,0,0,-1,1378,1611,0,0
161,-587,0,0,0,0,0,0,0,0,0,-1,1385,1611,0,0
168,-587,0,0,0,0,0,0,0,0,0,-1,1392,1611,0,0
175,-587,0,0,0,0,0,0,0,0,0,-1,1399,1611,0,0
182,-587,0,0,0,0,0,0,0,0,0,-1,1406,1611,0,0
189,-587,0,0,0,0,0,0,0,0,0,-1,1413,1611,0,0
196,-587,0,0,0,0,0,0,0,0,0,-1,1420,1611,0,0
203,-587,0,0,0,0,0,0,0,0,0,-1,1427,1611,0,0
210,-587,0,0,0,0,0,0,0,0,0,-1,1434,1611,0,0
217,-587,0,0,0,0,0,0,0,0,0,-1,1441,1611,0,0
224,-587,0,0,0,0,0,0,0,0,0,-1,1448,1611,0,0
231,-587,0,0,0,0,0,0,0,0,0,-1,1455,1611,0,0
238,-587,0,0,0,0,0,0,0,0,0,-1,1462,1611,0,0
245,-587,0,0,0,0,0,0,0,0,0,-1,1469,1611,0,0
252,-587,0,0,0,0,0,0,0,0,0,-1,1476,1611,0,0
259,-587,0,0,0,0,0,0,0,0,0,-1,1483,1611,0,0
266,-587,0,0,0,0,0,0,0,0,0,-1,1490,1611,0,0
273,-587,10.2936,6.35083,0,0,0,0,0,0,0,-1,1497,1611,10.2936,-6.35087
280,-587,7.47974,4.59924,0,0,0,0,0,0,0,-1,1504,1611,7.47972,-4.59928
287,-587,-0.0407715,-0.67041,0,0,0,0,0,0,0,-1,1511,1611,-0.0407437,0.670418
294,-587,-0.609619,-0.316406,-0.124788,-0.0899865,-0.0735153,-0.0318407,-0.182934,-0.901608,0.11285,0.0432783,1518,1611,-0.609572,0.316455
301,-587,-1.0769,0.264893,-0.121775,-0.0918298,-0.0694395,-0.035767,-0.177838,-0.891582,0.108617,0.0476308,1525,1611,-1.0769,-0.264849
308,-587,-0.917725,1.9458,0,0,0,0,0,0,0,-1,1532,1611,-0.917724,-1.94586
315,-587,-0.564209,2.58716,0,0,0,0,0,0,0,-1,1539,1611,-0.564167,-2.58721
322,-587,-1.04407,3.10522,0,0,0,0,0,0,0,-1,1546,1611,-1.04402,-3.10525
329,-587,-0.138916,0.463745,0,0,0,0,0,0,0,-1,1553,1611,-0.138941,-0.463783
336,-587,1.59692,3.44971,0,0,0,0,0,0,0,-1,1560,1611,1.59696,-3.44974
343,-587,5.76599,5.18115,0,0,0,0,0,0,0,-1,1567,1611,5.76598,-5.18118
350,-587,5.05664,4.92261,-0.0794414,0.00113748,-0.027627,0.00969978,-0.0880037,-1.27026,0.0621552,0.0454672,1574,1611,5.05667,-4.92259
357,-587,4.40405,4.84106,-0.070649,0.0125275,-0.0251019,0.0195159,-0.0776374,-1.29927,0.0593431,0.041808,1581,1611,4.40407,-4.84106
364,-587,3.55981,4.54199,-0.0625754,0.019452,-0.0232496,0.0255835,-0.0687069,-1.31294,0.0563044,0.046392,1588,1611,3.55985,-4.54205
371,-587,3.19507,4.18994,-0.0540552,0.025839,-0.0200756,0.0305998,-0.0588161,-1.33795,0.0524741,0.0492993,1595,1611,3.1951,-4.19
378,-587,1.97412,3.94336,-0.0456798,0.0305181,-0.0152765,0.0334667,-0.0486284,-1.38013,0.0476663,0.0463016,1602,1611,1.97412,-3.94337
385,-587,1.45129,3.31958,0,0,0,0,0,0,0,-1,1609,1611,1.45134,-3.31955
392,-587,3.52051,4.08508,0,0,0,0,0,0,0,-1,1616,1611,3.52048,-4.08504
399,-587,3.54919,4.05334,-0.021225,0.0337296,-0.000559852,0.0337353,-0.0212307,-1.56061,0.0320072,0.0484557,1623,1611,3.54917,-4.05336
406,-587,3.34631,4.03711,-0.0150804,0.0322507,0.00231254,0.0323634,-0.0151931,1.52209,0.028047,0.0403109,1630,1611,3.34629,-4.03717
413,-587,3.29749,3.95215,-0.0100987,0.0292666,0.00443366,0.0297597,-0.0105918,1.46002,0.0241573,0.0332339,1637,1611,3.29743,-3.9522
420,-587,3.32703,3.91333,-0.00648271,0.0254586,0.00584131,0.0264933,-0.00751743,1.39548,0.0206297,0.0278485,1644,1611,3.32698,-3.91332
427,-587,3.34973,3.8717,-0.00388879,0.0214757,0.00642771,0.0230116,-0.00542466,1.33625,0.0174329,0.0195782,1651,1611,3.34972,-3.87175
434,-587,3.34009,3.81934,-0.00160194,0.017236,0.00714449,0.019639,-0.00400502,1.24633,0.0146118,0.0125964,1658,1611,3.34014,-3.81931
441,-587,3.32605,3.77295,-0.000871402,0.0129116,0.00673935,0.0156592,-0.00361897,1.18368,0.0118317,0.014743,1665,1611,3.32605,-3.77295
448,-587,3.34729,3.74133,-0.000556556,0.0082029,0.00559864,0.0109314,-0.00328504,1.11732,0.00859449,0.0144607,1672,1611,3.34723,-3.74137
455,-587,3.37183,3.66931,-0.000615982,0.00516483,0.00414626,0.00732872,-0.00277988,1.08979,0.00602995,0.0139727,1679,1611,3.37183,-3.66926
462,-587,3.34717,3.59314,-0.000381754,0.00247463,0.0028333,0.00421934,-0.00212646,1.01885,0.00372958,0.0180493,1686,1611,3.34721,-3.59316
469,-587,3.35828,3.54016,5.7915e-05,0.000493688,0.00151229,0.00180371,-0.00125211,0.856944,0.00177383,0.0156501,1693,1611,3.35827,-3.54016
476,-587,3.36414,3.49084,0.000684742,-0.000282228,0.000103306,0.000695656,-0.000293142,0.105252,0.000586437,0.0105223,1700,1611,3.36419,-3.49081
483,-587,3.32593,3.4093,0.00203156,-0.000246874,-0.00115329,0.00251342,-0.000728733,-0.395768,0.00196412,0.0135603,1707,1611,3.32597,-3.40928
490,-587,3.32385,3.34631,0.00454725,0.000589059,-0.00296671,0.00613441,-0.000998103,-0.491246,0.0044597,0.0152627,1714,1611,3.32381,-3.34627
497,-587,3.33691,3.30444,0.0073145,0.00158261,-0.00468659,0.00994198,-0.00104487,-0.510975,0.00700231,0.0113622,1721,1611,3.33685,-3.30441
504,-587,3.32922,3.25708,0.0109453,0.00311515,-0.00669874,0.0147892,-0.00072869,-0.520943,0.0101111,0.0110161,1728,1611,3.32917,-3.2571
511,-587,3.32654,3.19604,0.0154512,0.00500346,-0.00883722,0.0204931,-3.83966e-05,-0.518465,0.0136749,0.0131895,1735,1611,3.32657,-3.19609
518,-587,3.36035,3.12781,0.0217181,0.00729185,-0.0121365,0.0286232,0.000386772,-0.517277,0.0189545,0.013345,1742,1611,3.36036,-3.12777
525,-587,3.35632,3.07202,0.0292494,0.0100539,-0.0162101,0.03849,0.000813317,-0.518109,0.0253932,0.0160023,1749,1611,3.35627,-3.07208
532,-587,3.35413,3.02209,0.0394949,0.0141421,-0.0217107,0.051959,0.00167798,-0.521157,0.0340938,0.0268851,1756,1611,3.35409,-3.02215
539,-587,3.47144,2.89893,0.0520904,0.0188287,-0.0280431,0.0680632,0.00285591,-0.517753,0.0444541,0.0377939,1763,1611,3.47138,-2.8989
546,-587,3.55872,2.85242,0.065997,0.024002,-0.0352259,0.0860088,0.00399022,-0.516631,0.0560565,0.0459581,1770,1611,3.55876,-2.85241
553,-587,3.33044,2.63062,0,0,0,0,0,0,0,-1,1777,1611,3.33048,-2.63056
560,-587,3.43933,2.52405,0,0,0,0,0,0,0,-1,1784,1611,3.43933,-2.52401
567,-587,6.9679,2.24597,0.124248,0.0457492,-0.0683521,0.163818,0.00617906,-0.524773,0.107212,0.0462092,1791,1611,6.96792,-2.24603
574,-587,8.13062,1.55652,0.151108,0.0557858,-0.0848582,0.200773,0.00612007,-0.529525,0.131856,0.046137,1798,1611,8.1306,-1.5565
581,-587,9.1604,1.05042,0.182602,0.0681957,-0.105355,0.245282,0.00551615,-0.536688,0.161714,0.0441366,1805,1611,9.16037,-1.05047
588,-587,0,0,0,0,0,0,0,0,0,-1,1812,1611,0,0
595,-587,0,0,0,0,0,0,0,0,0,-1,1819,1611,0,0
602,-587,0,0,0,0,0,0,0,0,0,-1,1826,1611,0,0
609,-587,0,0,0,0,0,0,0,0,0,-1,1833,1611,0,0
616,-587,0,0,0,0,0,0,0,0,0,-1,1840,1611,0,0
623,-587,0,0,0,0,0,0,0,0,0,-1,1847,1611,0,0
630,-587,0,0,0,0,0,0,0,0,0,-1,1854,1611,0,0
637,-587,0,0,0,0,0,0,0,0,0,-1,1861,1611,0,0
644,-587,0,0,0,0,0,0,0,0,0,-1,1868,1611,0,0
651,-587,0,0,0,0,0,0,0,0,0,-1,1875,1611,0,0
658,-587,0,0,0,0,0,0,0,0,0,-1,1882,1611,0,0
665,-587,0,0,0,0,0,0,0,0,0,-1,1889,1611,0,0
672,-587,0,0,0,0,0,0,0,0,0,-1,1896,1611,0,0
679,-587,0,0,0,0,0,0,0,0,0,-1,1903,1611,0,0
686,-587,0,0,0,0,0,0,0,0,0,-1,1910,1611,0,0
693,-587,0,0,0,0,0,0,0,0,0,-1,1917,1611,0,0
700,-587,0,0,0,0,0,0,0,0,0,-1,1924,1611,0,0
707,-587,0,0,0,0,0,0,0,0,0,-1,1931,1611,0,0
714,-587,0,0,0,0,0,0,0,0,0,-1,1938,1611,0,0
721,-587,0,0,0,0,0,0,0,0,0,-1,1945,1611,0,0
728,-587,0,0,0,0,0,0,0,0,0,-1,1952,1611,0,0
735,-587,0,0,0,0,0,0,0,0,0,-1,1959,1611,0,0
742,-587,0,0,0,0,0,0,0,0,0,-1,1966,1611,0,0
749,-587,0,0,0,0,0,0,0,0,0,-1,1973,1611,0,0
756,-587,0,0,0,0,0,0,0,0,0,-1,1980,1611,0,0
763,-587,0,0,0,0,0,0,0,0,0,-1,1987,1611,0,0
770,-587,0,0,0,0,0,0,0,0,0,-1,1994,1611,0,0
777,-587,0,0,0,0,0,0,0,0,0,-1,2001,1611,0,0
784,-587,0,0,0,0,0,0,0,0,0,-1,2008,1611,0,0
791,-587,0,0,0,0,0,0,0,0,0,-1,2015,1611,0,0
798,-587,0,0,0,0,0,0,0,0,0,-1,2022,1611,0,0
805,-587,0,0,0,0,0,0,0,0,0,-1,2029,1611,0,0
812,-587,0,0,0,0,0,0,0,0,0,-1,2036,1611,0,0
-700,-594,0,0,0,0,0,0,0,0,0,-1,524,1618,0,0
-693,-594,0,0,0,0,0,0,0,0,0,-1,531,1618,0,0
-686,-594,0,0,0,0,0,0,0,0,0,-1,538,1618,0,0
-679,-594,0,0,0,0,0,0,0,0,0,-1,545,1618,0,0
-672,-594,0,0,0,0,0,0,0,0,0,-1,552,1618,0,0
-665,-594,0,0,0,0,0,0,0,0,0,-1,559,1618,0,0
-658,-594,0,0,0,0,0,0,0,0,0,-1,566,1618,0,0
-651,-594,0,0,0,0,0,0,0,0,0,-1,573,1618,0,0
-644,-594,0,0,0,0,0,0,0,0,0,-1,580,1618,0,0
-637,-594,0,0,0,0,0,0,0,0,0,-1,587,1618,0,0
-630,-594,0,0,0,0,0,0,0,0,0,-1,594,1618,0,0
-623,-594,0,0,0,0,0,0,0,0,0,-1,601,1618,0,0
-616,-594,0,0,0,0,0,0,0,0,0,-1,608,1618,0,0
-609,-594,0,0,0,0,0,0,0,0,0,-1,615,1618,0,0
-602,-594,0,0,0,0,0,0,0,0,0,-1,622,1618,0,0
-595,-594,0,0,0,0,0,0,0,0,0,-1,629,1618,0,0
-588,-594,0,0,0,0,0,0,0,0,0,-1,636,1618,0,0
-581,-594,0,0,0,0,0,0,0,0,0,-1,643,1618,0,0
-574,-594,0,0,0,0,0,0,0,0,0,-1,650,1618,0,0
-567,-594,0,0,0,0,0,0,0,0,0,-1,657,1618,0,0
-560,-594,0,0,0,0,0,0,0,0,0,-1,664,1618,0,0
-553,-594,0,0,0,0,0,0,0,0,0,-1,671,1618,0,0
-546,-594,0,0,0,0,0,0,0,0,0,-1,678,1618,0,0
-539,-594,0,0,0,0,0,0,0,0,0,-1,685,1618,0,0
-532,-594,0,0,0,0,0,0,0,0,0,-1,692,1618,0,0
-525,-594,0,0,0,0,0,0,0,0,0,-1,699,1618,0,0
-518,-594,0,0,0,0,0,0,0,0,0,-1,706,1618,0,0
-511,-594,0,0,0,0,0,0,0,0,0,-1,713,1618,0,0
-504,-594,0,0,0,0,0,0,0,0,0,-1,720,1618,0,0
-497,-594,0,0,0,0,0,0,0,0,0,-1,727,1618,0,0
-490,-594,0,0,0,0,0,0,0,0,0,-1,734,1618,0,0
-483,-594,0,0,0,0,0,0,0,0,0,-1,741,1618,0,0
-476,-594,0,0,0,0,0,0,0,0,0,-1,748,1618,0,0
-469,-594,0,0,0,0,0,0,0,0,0,-1,755,1618,0,0
-462,-594,0,0,0,0,0,0,0,0,0,-1,762,1618,0,0
-455,-594,2.09381,0.770874,-0.0407468,0.0603527,0.0408631,0.0748035,-0.0551975,1.23088,0.0753401,0.0435564,769,1618,2.09381,-0.770912
-448,-594,1.14716,1.26416,-0.0139982,0.0595922,0.048554,0.0837181,-0.0381241,1.10964,0.0719686,0.0465708,776,1618,1.14716,-1.26421
-441,-594,0.284912,1.42896,0,0,0,0,0,0,0,-1,783,1618,0.284934,-1.4289
-434,-594,-2.10449,2.42883,0,0,0,0,0,0,0,-1,790,1618,-2.10452,-2.42886
-427,-594,-2.04797,2.07104,0.0416644,0.048945,0.0432546,0.0887121,0.00189722,0.827379,0.0585193,0.045747,797,1618,-2.04796,-2.07102
-420,-594,-1.56793,2.11292,0.0478447,0.0445855,0.0386775,0.0849269,0.00750332,0.764344,0.0542899,0.0449785,804,1618,-1.56795,-2.11293
-413,-594,-0.934875,2.21033,0.0494009,0.0394672,0.0327584,0.0775668,0.0113012,0.710161,0.0483861,0.0481328,811,1618,-0.934876,-2.21034
-406,-594,1.44055,2.88892,0,0,0,0,0,0,0,-1,818,1618,1.44057,-2.88888
-399,-594,1.52655,2.89697,0.0450797,0.0282705,0.021399,0.0596654,0.0136848,0.598275,0.0360908,0.0487701,825,1618,1.52655,-2.89697
-392,-594,1.91815,2.64465,0.0405622,0.0234857,0.0159674,0.0501308,0.0139171,0.539876,0.0298821,0.0388748,832,1618,1.91818,-2.64467
-385,-594,1.66663,2.92175,0.0319756,0.018813,0.0108037,0.0380447,0.0127438,0.511832,0.0223604,0.0268455,839,1618,1.66665,-2.92178
-378,-594,1.55573,3.01636,0.0237911,0.0140716,0.00688365,0.0273576,0.0105051,0.478033,0.015936,0.0120277,846,1618,1.55575,-3.0163
-371,-594,1.57159,3.08228,0.0170023,0.00986696,0.00350031,0.0184327,0.00843659,0.387933,0.0106548,0.0111662,853,1618,1.57159,-3.08232
-364,-594,1.58588,3.14014,0.011641,0.00661374,0.000993204,0.0118301,0.00642463,0.188149,0.00683856,0.0102935,860,1618,1.58587,-3.1401
-357,-594,1.6012,3.18445,0.00669327,0.00408987,-0.000793479,0.00691604,0.00386709,-0.273714,0.00400228,0.00973524,867,1618,1.6012,-3.18446
-350,-594,1.60022,3.24927,0.00365186,0.00213996,-0.00146786,0.00454699,0.00124483,-0.54761,0.0027133,0.0135877,874,1618,1.60022,-3.24925
-343,-594,1.59338,3.32666,0.00239468,0.000611623,-0.00128694,0.00306873,-6.24314e-05,-0.482477,0.00206695,0.0151957,881,1618,1.59336,-3.32666
-336,-594,1.57892,3.38562,0.00168259,0.000428438,-8.97387e-05,0.00168898,0.000422049,-0.0710707,0.00101499,0.0122675,888,1618,1.57891,-3.38557
-329,-594,1.58533,3.45752,0.00234558,0.000481969,4.88645e-05,0.00234686,0.000480689,0.0261963,0.0014315,0.0125808,895,1618,1.58535,-3.45749
-322,-594,1.60181,3.53186,0.00320263,0.000684256,0.000385329,0.00326027,0.000626617,0.148483,0.00199767,0.0152413,902,1618,1.60183,-3.53188
-315,-594,1.61835,3.54773,0.00295346,0.000720319,0.000351553,0.0030075,0.000666283,0.152512,0.00182393,0.0156292,909,1618,1.61835,-3.54771
-308,-594,1.62305,3.60681,0.00202151,0.000484024,-0.00015748,0.00203747,0.000468059,-0.101029,0.00123229,0.0146683,916,1618,1.62305,-3.60683
-301,-594,1.61554,3.67822,0.00107365,0.000226667,-0.000994649,0.00173121,-0.000430894,-0.584138,0.0013214,0.0117748,923,1618,1.61553,-3.67825
-294,-594,1.60999,3.73608,-0.00014148,2.91922e-05,-0.00246177,0.00240711,-0.00251939,-0.802723,0.00284456,0.0098684,930,1618,1.60999,-3.73603
-287,-594,1.61273,3.80347,-0.00224834,-0.000488138,-0.00426564,0.00298725,-0.00572372,-0.887132,0.00511133,0.0103621,937,1618,1.61271,-3.80347
-280,-594,1.62354,3.82874,-0.00504997,-0.00122253,-0.00677252,0.00390146,-0.010174,-0.923094,0.00839111,0.0141005,944,1618,1.62356,-3.82875
-273,-594,1.6405,3.84033,-0.00759192,-0.00489793,-0.00898956,0.00284499,-0.0153348,-0.859765,0.0112917,0.0252387,951,1618,1.64053,-3.84037
-266,-594,1.56995,3.84106,-0.0117354,-0.0109522,-0.0109135,-0.000423237,-0.0222644,-0.80333,0.0147039,0.0333072,958,1618,1.56995,-3.84108
-259,-594,1.58984,3.8551,-0.0179381,-0.0151964,-0.0104297,-0.00604781,-0.0270867,-0.850742,0.0164174,0.0389395,965,1618,1.58984,-3.85512
-252,-594,1.0163,3.72253,-0.0233024,-0.0195201,-0.00879572,-0.0124146,-0.030408,-0.89129,0.0176543,0.0450403,972,1618,1.01632,-3.72258
-245,-594,1.04541,3.5874,-0.0269335,-0.0230702,-0.00594654,-0.0187494,-0.0312543,-0.942441,0.0181643,0.044831,979,1618,1.04542,-3.5874
-238,-594,1.21948,3.42151,0,0,0,0,0,0,0,-1,986,1618,1.21946,-3.42145
-231,-594,1.08862,3.3667,0,0,0,0,0,0,0,-1,993,1618,1.0886,-3.36675
-224,-594,3.05804,5.30005,-0.0381983,-0.033608,0.00329524,-0.0318874,-0.0399189,1.08959,0.0243804,0.0442311,1000,1618,3.05805,-5.30002
-217,-594,3.24371,2.4021,-0.040134,-0.0337182,0.0078694,-0.028428,-0.0454242,0.978939,0.0265011,0.0448857,1007,1618,3.2437,-2.40206
-210,-594,1.815,2.39417,-0.041502,-0.0313817,0.0129123,-0.0225734,-0.0503102,0.972144,0.0290975,0.0496978,1014,1618,1.815,-2.39421
-203,-594,1.89899,2.92346,0,0,0,0,0,0,0,-1,1021,1618,1.89898,-2.92342
-196,-594,1.82458,3.73425,-0.0452315,-0.0153693,0.0203746,-0.00504049,-0.0555603,1.10161,0.0354796,0.0463675,1028,1618,1.82455,-3.73426
-189,-594,1.60156,4.64221,0,0,0,0,0,0,0,-1,1035,1618,1.60158,-4.64225
-182,-594,0.702637,4.15417,0,0,0,0,0,0,0,-1,1042,1618,0.702692,-4.15419
-175,-594,1.16357,-0.518066,0,0,0,0,0,0,0,-1,1049,1618,1.16363,0.518122
-168,-594,1.85046,-1.49646,0,0,0,0,0,0,0,-1,1056,1618,1.8504,1.49642
-161,-594,3.44019,-2.5061,0,0,0,0,0,0,0,-1,1063,1618,3.44023,2.5061
-154,-594,-1.41394,5.05579,0,0,0,0,0,0,0,-1,1070,1618,-1.41392,-5.05583
-147,-594,-2.15381,5.45605,0,0,0,0,0,0,0,-1,1077,1618,-2.15383,-5.456
-140,-594,-3.11145,5.02039,0,0,0,0,0,0,0,-1,1084,1618,-3.11147,-5.02041
-133,-594,0,0,0,0,0,0,0,0,0,-1,1091,1618,0,0
-126,-594,0,0,0,0,0,0,0,0,0,-1,1098,1618,0,0
-119,-594,0,0,0,0,0,0,0,0,0,-1,1105,1618,0,0
-112,-594,0,0,0,0,0,0,0,0,0,-1,1112,1618,0,0
-105,-594,0,0,0,0,0,0,0,0,0,-1,1119,1618,0,0
-98,-594,0,0,0,0,0,0,0,0,0,-1,1126,1618,0,0
-91,-594,0,0,0,0,0,0,0,0,0,-1,1133,1618,0,0
-84,-594,0,0,0,0,0,0,0,0,0,-1,1140,1618,0,0
-77,-594,0,0,0,0,0,0,0,0,0,-1,1147,1618,0,0
-70,-594,0,0,0,0,0,0,0,0,0,-1,1154,1618,0,0
-63,-594,0,0,0,0,0,0,0,0,0,-1,1161,1618,0,0
-56,-594,0,0,0,0,0,0,0,0,0,-1,1168,1618,0,0
-49,-594,0,0,0,0,0,0,0,0,0,-1,1175,1618,0,0
-42,-594,0,0,0,0,0,0,0,0,0,-1,1182,1618,0,0
-35,-594,0,0,0,0,0,0,0,0,0,-1,1189,1618,0,0
-28,-594,0,0,0,0,0,0,0,0,0,-1,1196,1618,0,0
-21,-594,0,0,0,0,0,0,0,0,0,-1,1203,1618,0,0
-14,-594,0,0,0,0,0,0,0,0,0,-1,1210,1618,0,0
-7,-594,0,0,0,0,0,0,0,0,0,-1,1217,1618,0,0
0,-594,0,0,0,0,0,0,0,0,0,-1,1224,1618,0,0
7,-594,0,0,0,0,0,0,0,0,0,-1,1231,1618,0,0
14,-594,0,0,0,0,0,0,0,0,0,-1,1238,1618,0,0
21,-594,0,0,0,0,0,0,0,0,0,-1,1245,1618,0,0
28,-594,0,0,0,0,0,0,0,0,0,-1,1252,1618,0,0
35,-594,0,0,0,0,0,0,0,0,0,-1,1259,1618,0,0
42,-594,0,0,0,0,0,0,0,0,0,-1,1266,1618,0,0
49,-594,0,0,0,0,0,0,0,0,0,-1,1273,1618,0,0
56,-594,0,0,0,0,0,0,0,0,0,-1,1280,1618,0,0
63,-594,0,0,0,0,0,0,0,0,0,-1,1287,1618,0,0
70,-594,0,0,0,0,0,0,0,0,0,-1,1294,1618,0,0
77,-594,0,0,0,0,0,0,0,0,0,-1,1301,1618,0,0
84,-594,0,0,0,0,0,0,0,0,0,-1,1308,1618,0,0
91,-594,0,0,0,0,0,0,0,0,0,-1,1315,1618,0,0
98,-594,0,0,0,0,0,0,0,0,0,-1,1322,1618,0,0
105,-594,0,0,0,0,0,0,0,0,0,-1,1329,1618,0,0
112,-594,0,0,0,0,0,0,0,0,0,-1,1336,1618,0,0
119,-594,0,0,0,0,0,0,0,0,0,-1,1343,1618,0,0
126,-594,0,0,0,0,0,0,0,0,0,-1,1350,1618,0,0
133,-594,0,0,0,0,0,0,0,0,0,-1,1357,1618,0,0
140,-594,0,0,0,0,0,0,0,0,0,-1,1364,1618,0,0
147,-594,0,0,0,0,0,0,0,0,0,-1,1371,1618,0,0
154,-594,0,0,0,0,0,0,0,0,0,-1,1378,1618,0,0
161,-594,0,0,0,0,0,0,0,0,0,-1,1385,1618,0,0
168,-594,0,0,0,0,0,0,0,0,0,-1,1392,1618,0,0
175,-594,0,0,0,0,0,0,0,0,0,-1,1399,1618,0,0
182,-594,0,0,0,0,0,0,0,0,0,-1,1406,1618,0,0
189,-594,0,0,0,0,0,0,0,0,0,-1,1413,1618,0,0
196,-594,0,0,0,0,0,0,0,0,0,-1,1420,1618,0,0
203,-594,0,0,0,0,0,0,0,0,0,-1,1427,1618,0,0
210,-594,0,0,0,0,0,0,0,0,0,-1,1434,1618,0,0
217,-594,0,0,0,0,0,0,0,0,0,-1,1441,1618,0,0
224,-594,0,0,0,0,0,0,0,0,0,-1,1448,1618,0,0
231,-594,0,0,0,0,0,0,0,0,0,-1,1455,1618,0,0
238,-594,0,0,0,0,0,0,0,0,0,-1,1462,1618,0,0
245,-594,0,0,0,0,0,0,0,0,0,-1,1469,1618,0,0
252,-594,9.31958,8.80432,0,0,0,0,0,0,0,-1,1476,1618,9.31956,-8.80428
259,-594,9.60986,7.77893,0,0,0,0,0,0,0,-1,1483,1618,9.60986,-7.77892
266,-594,9.9292,6.96106,-0.0899575,-0.0108798,-0.0458269,0.0101076,-0.110945,-1.14133,0.0775523,0.0452432,1490,1618,9.92914,-6.96106
273,-594,9.7655,6.33557,-0.104033,-0.0266641,-0.0503991,-0.00181465,-0.128882,-1.11272,0.0853232,0.0425089,1497,1618,9.76555,-6.33554
280,-594,7.55798,4.56897,0,0,0,0,0,0,0,-1,1504,1618,7.55801,-4.56896
287,-594,7.06323,4.38086,-0.113921,-0.050829,-0.054941,-0.0190216,-0.145729,-1.04601,0.0914735,0.036157,1511,1618,7.06319,-4.38092
294,-594,0.491089,0.750854,-0.11253,-0.0604641,-0.0567046,-0.0241023,-0.148892,-1.0006,0.0922827,0.0420443,1518,1618,0.491114,-0.750882
301,-594,0.123779,1.45801,-0.108895,-0.0639013,-0.0551893,-0.0267997,-0.145996,-0.97893,0.0897415,0.0483259,1525,1618,0.123784,-1.45804
308,-594,0.846802,2.84302,0,0,0,0,0,0,0,-1,1532,1618,0.84685,-2.84304
315,-594,0.088623,2.85535,-0.101324,-0.0576895,-0.0481046,-0.0266858,-0.132327,-0.998293,0.0808054,0.0461137,1539,1618,0.0886587,-2.85531
322,-594,-0.52063,3.47729,-0.0999299,-0.0524692,-0.0440129,-0.0261969,-0.126202,-1.03264,0.0769044,0.0470775,1546,1618,-0.520685,-3.47732
329,-594,-1.20483,4.01282,0,0,0,0,0,0,0,-1,1553,1618,-1.20487,-4.01284
336,-594,1.96838,3.28198,0,0,0,0,0,0,0,-1,1560,1618,1.96842,-3.28194
343,-594,5.9668,5.40613,0,0,0,0,0,0,0,-1,1567,1618,5.96681,-5.40612
350,-594,5.17749,5.09399,-0.0686242,-0.00528972,-0.0274824,0.00497272,-0.0788866,-1.21341,0.0543246,0.0422773,1574,1618,5.17745,-5.09403
357,-594,4.47131,4.78101,-0.0609957,0.0031501,-0.0254166,0.012,-0.0698456,-1.23573,0.0510361,0.0433505,1581,1618,4.47131,-4.78098
364,-594,3.79028,4.40283,-0.0541096,0.00940954,-0.0236107,0.0172244,-0.0619245,-1.25116,0.0480645,0.046673,1588,1618,3.79033,-4.40285
371,-594,3.15515,4.33997,-0.0466411,0.0152802,-0.020595,0.0215044,-0.0528654,-1.2773,0.0441917,0.0447263,1595,1618,3.15518,-4.33991
378,-594,2.38257,3.80139,-0.039408,0.019477,-0.0162601,0.0236686,-0.0435996,-1.31851,0.0394014,0.047268,1602,1618,2.3826,-3.8014
385,-594,3.19775,4.16931,0,0,0,0,0,0,0,-1,1609,1618,3.1977,-4.16929
392,-594,3.27185,4.14294,-0.0248796,0.0228269,-0.00671908,0.0237552,-0.0258078,-1.43351,0.0286234,0.0488624,1616,1618,3.27183,-4.14293
399,-594,3.33411,4.10779,-0.0186794,0.0228408,-0.00337591,0.0231135,-0.0189521,-1.49019,0.0243262,0.0379659,1623,1618,3.33409,-4.10775
406,-594,3.2926,4.02429,-0.0132026,0.0221452,-0.000820868,0.0221643,-0.0132216,-1.54759,0.0206464,0.023025,1630,1618,3.2926,-4.02432
413,-594,3.26575,3.95032,-0.00866991,0.0202206,0.00112683,0.0202644,-0.00871379,1.53187,0.0171679,0.0166371,1637,1618,3.2657,-3.95029
420,-594,3.29102,3.89624,-0.00528329,0.0176227,0.00251773,0.0178961,-0.00555677,1.4626,0.0141515,0.0134951,1644,1618,3.291,-3.89627
427,-594,3.30469,3.87317,-0.00280195,0.0149826,0.00328278,0.0155692,-0.00338856,1.39397,0.0116741,0.0112656,1651,1618,3.30467,-3.87312
434,-594,3.28894,3.8147,-0.000671575,0.0120729,0.00410978,0.0132833,-0.00188192,1.28439,0.00954488,0.0163009,1658,1618,3.28897,-3.81473
441,-594,3.27368,3.76575,-1.99725e-05,0.0091486,0.00395131,0.0106165,-0.00148784,1.21511,0.00762215,0.0152694,1665,1618,3.27368,-3.76572
448,-594,3.28455,3.73157,0.000296363,0.00585484,0.00317177,0.00729274,-0.00114154,1.14517,0.00528361,0.0147606,1672,1618,3.28449,-3.73163
455,-594,3.29419,3.65552,0.000475878,0.00378641,0.00222754,0.00490636,-0.000644072,1.10493,0.00350538,0.0115086,1679,1618,3.29419,-3.65549
462,-594,3.28357,3.59229,0.000940832,0.00193145,0.00131655,0.00284279,2.95012e-05,0.965317,0.00188543,0.0135998,1686,1618,3.28361,-3.59229
469,-594,3.30164,3.54761,0.00157325,0.000527527,0.000211248,0.00161431,0.000486465,0.191985,0.000956229,0.0120004,1693,1618,3.30169,-3.5476
476,-594,3.28491,3.50366,0.00238343,0.000125152,-0.00112919,0.00285117,-0.00034259,-0.392711,0.00202466,0.0122639,1700,1618,3.28487,-3.50362
483,-594,3.29431,3.43713,0.00397534,0.000302358,-0.00233782,0.00511174,-0.000834041,-0.452462,0.00371716,0.0154285,1707,1618,3.29431,-3.43709
490,-594,3.28198,3.35303,0.00691084,0.00114871,-0.00442035,0.00930614,-0.00124659,-0.496588,0.00665863,0.0128396,1714,1618,3.28199,-3.35298
497,-594,3.2843,3.2981,0.0102356,0.00221751,-0.00644328,0.0138152,-0.00136215,-0.507105,0.00969615,0.00938792,1721,1618,3.28432,-3.2981
504,-594,3.29761,3.24048,0.0147142,0.00400182,-0.00890465,0.0197494,-0.00103341,-0.514636,0.0135239,0.00943044,1728,1618,3.29762,-3.24053
511,-594,3.30164,3.19214,0.0203726,0.00632767,-0.0115439,0.0268623,-0.000161953,-0.512138,0.0179624,0.0114071,1735,1618,3.30161,-3.19213
518,-594,3.2998,3.12439,0.028201,0.00908696,-0.0155566,0.0369017,0.000386277,-0.50995,0.0244734,0.0144686,1742,1618,3.29977,-3.12444
525,-594,3.28687,3.03394,0.0376307,0.0124319,-0.0205212,0.0491117,0.000950947,-0.510084,0.0324288,0.0247905,1749,1618,3.28686,-3.03392
532,-594,3.31641,2.9436,0.0498834,0.0173124,-0.0269865,0.0651176,0.00207831,-0.513915,0.0427358,0.0401727,1756,1618,3.31642,-2.94359
539,-594,4.08203,2.54993,0.0645512,0.0227434,-0.0340729,0.0836215,0.00367309,-0.510253,0.0545645,0.044904,1763,1618,4.08198,-2.54996
546,-594,3.58521,2.76758,0,0,0,0,0,0,0,-1,1770,1618,3.58522,-2.76763
553,-594,6.28235,2.58301,0.0992899,0.0353313,-0.0514467,0.127886,0.00673472,-0.507323,0.0831037,0.0473215,1777,1618,6.28233,-2.58307
560,-594,7.04626,2.3064,0.120578,0.0431005,-0.0630887,0.155872,0.00780622,-0.510061,0.101413,0.0487818,1784,1618,7.04631,-2.30639
567,-594,8.04749,1.88965,0.145132,0.0519547,-0.0771908,0.188704,0.00838286,-0.513884,0.123103,0.0456411,1791,1618,8.04754,-1.8896
574,-594,9.20874,1.40698,0.174104,0.0623476,-0.0947635,0.228237,0.00821446,-0.519008,0.149495,0.046344,1798,1618,9.20878,-1.40702
581,-594,0,0,0,0,0,0,0,0,0,-1,1805,1618,0,0
588,-594,0,0,0,0,0,0,0,0,0,-1,1812,1618,0,0
595,-594,0,0,0,0,0,0,0,0,0,-1,1819,1618,0,0
602,-594,0,0,0,0,0,0,0,0,0,-1,1826,1618,0,0
609,-594,0,0,0,0,0,0,0,0,0,-1,1833,1618,0,0
616,-594,0,0,0,0,0,0,0,0,0,-1,1840,1618,0,0
623,-594,0,0,0,0,0,0,0,0,0,-1,1847,1618,0,0
630,-594,0,0,0,0,0,0,0,0,0,-1,1854,1618,0,0
637,-594,0,0,0,0,0,0,0,0,0,-1,1861,1618,0,0
644,-594,0,0,0,0,0,0,0,0,0,-1,1868,1618,0,0
651,-594,0,0,0,0,0,0,0,0,0,-1,1875,1618,0,0
658,-594,0,0,0,0,0,0,0,0,0,-1,1882,1618,0,0
665,-594,0,0,0,0,0,0,0,0,0,-1,1889,1618,0,0
672,-594,0,0,0,0,0,0,0,0,0,-1,1896,1618,0,0
679,-594,0,0,0,0,0,0,0,0,0,-1,1903,1618,0,0
686,-594,0,0,0,0,0,0,0,0,0,-1,1910,1618,0,0
693,-594,0,0,0,0,0,0,0,0,0,-1,1917,1618,0,0
700,-594,0,0,0,0,0,0,0,0,0,-1,1924,1618,0,0
707,-594,0,0,0,0,0,0,0,0,0,-1,1931,1618,0,0
714,-594,0,0,0,0,0,0,0,0,0,-1,1938,1618,0,0
721,-594,0,0,0,0,0,0,0,0,0,-1,1945,1618,0,0
728,-594,0,0,0,0,0,0,0,0,0,-1,1952,1618,0,0
735,-594,0,0,0,0,0,0,0,0,0,-1,1959,1618,0,0
742,-594,0,0,0,0,0,0,0,0,0,-1,1966,1618,0,0
749,-594,0,0,0,0,0,0,0,0,0,-1,1973,1618,0,0
756,-594,0,0,0,0,0,0,0,0,0,-1,1980,1618,0,0
763,-594,0,0,0,0,0,0,0,0,0,-1,1987,1618,0,0
770,-594,0,0,0,0,0,0,0,0,0,-1,1994,1618,0,0
777,-594,0,0,0,0,0,0,0,0,0,-1,2001,1618,0,0
784,-594,0,0,0,0,0,0,0,0,0,-1,2008,1618,0,0
791,-594,0,0,0,0,0,0,0,0,0,-1,2015,1618,0,0
798,-594,0,0,0,0,0,0,0,0,0,-1,2022,1618,0,0
805,-594,0,0,0,0,0,0,0,0,0,-1,2029,1618,0,0
812,-594,0,0,0,0,0,0,0,0,0,-1,2036,1618,0,0
-700,-601,0,0,0,0,0,0,0,0,0,-1,524,1625,0,0
-693,-601,0,0,0,0,0,0,0,0,0,-1,531,1625,0,0
-686,-601,0,0,0,0,0,0,0,0,0,-1,538,1625,0,0
-679,-601,0,0,0,0,0,0,0,0,0,-1,545,1625,0,0
-672,-601,0,0,0,0,0,0,0,0,0,-1,552,1625,0,0
-665,-601,0,0,0,0,0,0,0,0,0,-1,559,1625,0,0
-658,-601,0,0,0,0,0,0,0,0,0,-1,566,1625,0,0
-651,-601,0,0,0,0,0,0,0,0,0,-1,573,1625,0,0
-644,-601,0,0,0,0,0,0,0,0,0,-1,580,1625,0,0
-637,-601,0,0,0,0,0,0,0,0,0,-1,587,1625,0,0
-630,-601,0,0,0,0,0,0,0,0,0,-1,594,1625,0,0
-623,-601,0,0,0,0,0,0,0,0,0,-1,601,1625,0,0
-616,-601,0,0,0,0,0,0,0,0,0,-1,608,1625,0,0
-609,-601,0,0,0,0,0,0,0,0,0,-1,615,1625,0,0
-602,-601,0,0,0,0,0,0,0,0,0,-1,622,1625,0,0
-595,-601,0,0,0,0,0,0,0,0,0,-1,629,1625,0,0
-588,-601,0,0,0,0,0,0,0,0,0,-1,636,1625,0,0
-581,-601,0,0,0,0,0,0,0,0,0,-1,643,1625,0,0
-574,-601,0,0,0,0,0,0,0,0,0,-1,650,1625,0,0
-567,-601,0,0,0,0,0,0,0,0,0,-1,657,1625,0,0
-560,-601,0,0,0,0,0,0,0,0,0,-1,664,1625,0,0
-553,-601,0,0,0,0,0,0,0,0,0,-1,671,1625,0,0
-546,-601,0,0,0,0,0,0,0,0,0,-1,678,1625,0,0
-539,-601,0,0,0,0,0,0,0,0,0,-1,685,1625,0,0
-532,-601,0,0,0,0,0,0,0,0,0,-1,692,1625,0,0
-525,-601,0,0,0,0,0,0,0,0,0,-1,699,1625,0,0
-518,-601,0,0,0,0,0,0,0,0,0,-1,706,1625,0,0
-511,-601,0,0,0,0,0,0,0,0,0,-1,713,1625,0,0
-504,-601,0,0,0,0,0,0,0,0,0,-1,720,1625,0,0
-497,-601,0,0,0,0,0,0,0,0,0,-1,727,1625,0,0
-490,-601,0,0,0,0,0,0,0,0,0,-1,734,1625,0,0
-483,-601,0,0,0,0,0,0,0,0,0,-1,741,1625,0,0
-476,-601,0,0,0,0,0,0,0,0,0,-1,748,1625,0,0
-469,-601,0,0,0,0,0,0,0,0,0,-1,755,1625,0,0
-462,-601,0,0,0,0,0,0,0,0,0,-1,762,1625,0,0
-455,-601,0,0,0,0,0,0,0,0,0,-1,769,1625,0,0
-448,-601,1.21484,1.04663,-0.0146175,0.0733009,0.0582973,0.102355,-0.0436719,1.10844,0.0865484,0.0442961,776,1625,1.21486,-1.04666
-441,-601,0.120911,1.05371,0,0,0,0,0,0,0,-1,783,1625,0.120907,-1.05376
-434,-601,-3.26727,1.88452,0,0,0,0,0,0,0,-1,790,1625,-3.2673,-1.88452
-427,-601,-3.27844,1.53772,0.0555055,0.0590571,0.0469742,0.104289,0.0102736,0.804291,0.0663671,0.0482269,797,1625,-3.27844,-1.53776
-420,-601,-2.57721,1.73914,0.0627197,0.0538064,0.0415497,0.100051,0.016475,0.731972,0.0619437,0.0447771,804,1625,-2.57724,-1.73913
-413,-601,-2.25793,1.8606,0.0643183,0.0476604,0.034773,0.0917459,0.0202328,0.667851,0.0556593,0.0450282,811,1625,-2.25793,-1.86058
-406,-601,1.05945,1.96655,0.0618827,0.0414143,0.0282307,0.081677,0.02162,0.611506,0.0488658,0.045224,818,1625,1.05946,-1.96652
-399,-601,1.43115,2.37537,0.0579919,0.0343063,0.0218248,0.07098,0.0213181,0.536815,0.0420553,0.0452254,825,1625,1.43116,-2.37542
-392,-601,2.02332,2.28491,0.0519159,0.0284839,0.0159148,0.0599621,0.0204377,0.468102,0.0351989,0.0430584,832,1625,2.02332,-2.28493
-385,-601,1.80231,2.9043,0.0409384,0.0226131,0.0102514,0.0455251,0.0180264,0.420708,0.0264729,0.0412316,839,1625,1.80233,-2.90432
-378,-601,1.63318,3.10486,0.0305315,0.016776,0.00607395,0.0328296,0.0144779,0.361707,0.0189981,0.0296507,846,1625,1.63321,-3.10487
-371,-601,1.62762,3.09937,0.0218904,0.0116244,0.00263356,0.0225266,0.0109882,0.237022,0.013007,0.0146735,853,1625,1.62762,-3.09933
-364,-601,1.64618,3.14856,0.0149576,0.00757962,0.000265954,0.0149671,0.00757004,0.035985,0.00864147,0.0104801,860,1625,1.64617,-3.14854
-357,-601,1.64276,3.20081,0.00848711,0.00441868,-0.00142047,0.00893398,0.00397181,-0.304789,0.00516859,0.00956453,867,1625,1.64274,-3.20082
-350,-601,1.67975,3.2915,0.00433523,0.00192155,-0.0019535,0.00542461,0.000832172,-0.508702,0.00337341,0.0185601,874,1625,1.67976,-3.29145
-343,-601,1.66663,3.36499,0.00235081,1.69516e-06,-0.00166681,0.00321533,-0.000862829,-0.478471,0.00248167,0.0184969,881,1625,1.66661,-3.36496
-336,-601,1.64648,3.37732,0.000645097,-0.000472363,7.69617e-05,0.000650372,-0.000477639,0.0684413,0.000653798,0.0144451,888,1625,1.64645,-3.37735
-329,-601,1.66254,3.45349,0.000743415,-0.000582944,0.000137839,0.000757588,-0.000597117,0.102464,0.000783966,0.0121259,895,1625,1.66253,-3.45351
-322,-601,1.6673,3.52612,0.00137724,-0.0004404,0.00049118,0.00150148,-0.000564639,0.247744,0.00123307,0.0108771,902,1625,1.6673,-3.52614
-315,-601,1.66998,3.55798,0.00112746,-0.000438057,0.000569234,0.00131255,-0.000623151,0.314379,0.00114096,0.011259,909,1625,1.66997,-3.55793
-308,-601,1.68555,3.61755,0.000350178,-0.000562001,0.000250627,0.000414504,-0.000626327,0.251235,0.000605058,0.0109837,916,1625,1.68556,-3.61756
-301,-601,1.69177,3.68567,-0.000410089,-0.000707436,-0.000446913,-8.77688e-05,-0.00102976,-0.624822,0.000659198,0.00979895,923,1625,1.69179,-3.6857
-294,-601,1.68842,3.74023,-0.00126331,-0.000768975,-0.00164773,0.000650019,-0.0026823,-0.859846,0.0020397,0.00951779,930,1625,1.68842,-3.74027
-287,-601,1.66638,3.78723,-0.00273656,-0.00109864,-0.00311854,0.00130668,-0.00514188,-0.913804,0.00393645,0.00957907,937,1625,1.66635,-3.78728
-280,-601,1.66431,3.84265,-0.00462245,-0.00159882,-0.0051159,0.00222397,-0.00844525,-0.929066,0.00649958,0.00947171,944,1625,1.66428,-3.84271
-273,-601,1.68579,3.89734,-0.00607837,-0.004358,-0.00690334,0.00173854,-0.0121749,-0.847381,0.00875385,0.00953456,951,1625,1.6858,-3.8973
-266,-601,1.70465,3.94617,-0.00887159,-0.0092217,-0.00868674,-0.000358144,-0.0177352,-0.775324,0.0117059,0.0120071,958,1625,1.70467,-3.94615
-259,-601,1.7265,3.95801,-0.0134327,-0.0129008,-0.00867113,-0.00449151,-0.0218419,-0.800728,0.013319,0.0222866,965,1625,1.72649,-3.95798
-252,-601,1.763,3.9519,-0.0171708,-0.0168789,-0.00758946,-0.00943399,-0.0246157,-0.795015,0.0143405,0.0388821,972,1625,1.76301,-3.95185
-245,-601,1.95746,3.78906,-0.0200022,-0.0202216,-0.00533907,-0.0147717,-0.0254521,-0.775126,0.0147579,0.0423839,979,1625,1.95745,-3.78908
-238,-601,2.79559,4.16064,0,0,0,0,0,0,0,-1,986,1625,2.79558,-4.16061
-231,-601,2.95117,4.20959,0,0,0,0,0,0,0,-1,993,1625,2.95115,-4.20956
-224,-601,3.07935,4.88037,-0.0290264,-0.0292286,0.00172571,-0.0273988,-0.0308562,0.756133,0.0195207,0.0494033,1000,1625,3.07935,-4.8804
-217,-601,4.01794,5.0863,-0.0310806,-0.0291009,0.00509792,-0.0248976,-0.0352839,0.881286,0.0209376,0.0487671,1007,1625,4.01797,-5.08627
-210,-601,2.34351,2.39612,-0.0327548,-0.0265963,0.00879789,-0.0203544,-0.0389967,0.953734,0.022522,0.0484021,1014,1625,2.3435,-2.3961
-203,-601,2.11273,2.94641,-0.034349,-0.0218758,0.0122348,-0.0143797,-0.0418451,1.0211,0.0245499,0.049629,1021,1625,2.1127,-2.94637
-196,-601,1.99622,3.70654,-0.0365493,-0.0133652,0.0142113,-0.00661779,-0.0432967,1.12752,0.026931,0.0477782,1028,1625,1.99624,-3.70651
-189,-601,0.853516,3.79749,0,0,0,0,0,0,0,-1,1035,1625,0.853567,-3.79747
-182,-601,1.09656,4.0481,0,0,0,0,0,0,0,-1,1042,1625,1.09662,-4.04813
-175,-601,1.33972,4.29883,0,0,0,0,0,0,0,-1,1049,1625,1.33967,-4.29879
-168,-601,1.19519,5.41089,0,0,0,0,0,0,0,-1,1056,1625,1.19516,-5.41086
-161,-601,0.696289,6.27014,0,0,0,0,0,0,0,-1,1063,1625,0.696261,-6.27017
-154,-601,-0.000488281,6.77795,0,0,0,0,0,0,0,-1,1070,1625,-0.000499192,-6.77798
-147,-601,-1.59656,4.59851,0,0,0,0,0,0,0,-1,1077,1625,-1.59651,-4.5985
-140,-601,-2.18042,4.53735,0,0,0,0,0,0,0,-1,1084,1625,-2.18039,-4.53735
-133,-601,-2.42175,3.95837,0,0,0,0,0,0,0,-1,1091,1625,-2.4218,-3.95841
-126,-601,-2.84094,3.53137,0,0,0,0,0,0,0,-1,1098,1625,-2.84091,-3.53143
-119,-601,-3.24805,2.85693,0,0,0,0,0,0,0,-1,1105,1625,-3.24802,-2.85699
-112,-601,0,0,0,0,0,0,0,0,0,-1,1112,1625,0,0
-105,-601,0,0,0,0,0,0,0,0,0,-1,1119,1625,0,0
-98,-601,0,0,0,0,0,0,0,0,0,-1,1126,1625,0,0
-91,-601,0,0,0,0,0,0,0,0,0,-1,1133,1625,0,0
-84,-601,0,0,0,0,0,0,0,0,0,-1,1140,1625,0,0
-77,-601,0,0,0,0,0,0,0,0,0,-1,1147,1625,0,0
-70,-601,0,0,0,0,0,0,0,0,0,-1,1154,1625,0,0
-63,-601,0,0,0,0,0,0,0,0,0,-1,1161,1625,0,0
-56,-601,0,0,0,0,0,0,0,0,0,-1,1168,1625,0,0
-49,-601,0,0,0,0,0,0,0,0,0,-1,1175,1625,0,0
-42,-601,0,0,0,0,0,0,0,0,0,-1,1182,1625,0,0
-35,-601,0,0,0,0,0,0,0,0,0,-1,1189,1625,0,0
-28,-601,0,0,0,0,0,0,0,0,0,-1,1196,1625,0,0
-21,-601,0,0,0,0,0,0,0,0,0,-1,1203,1625,0,0
-14,-601,0,0,0,0,0,0,0,0,0,-1,1210,1625,0,0
-7,-601,0,0,0,0,0,0,0,0,0,-1,1217,1625,0,0
0,-601,0,0,0,0,0,0,0,0,0,-1,1224,1625,0,0
7,-601,0,0,0,0,0,0,0,0,0,-1,1231,1625,0,0
14,-601,0,0,0,0,0,0,0,0,0,-1,1238,1625,0,0
21,-601,0,0,0,0,0,0,0,0,0,-1,1245,1625,0,0
28,-601,0,0,0,0,0,0,0,0,0,-1,1252,1625,0,0
35,-601,0,0,0,0,0,0,0,0,0,-1,1259,1625,0,0
42,-601,0,0,0,0,0,0,0,0,0,-1,1266,1625,0,0
49,-601,0,0,0,0,0,0,0,0,0,-1,1273,1625,0,0
56,-601,0,0,0,0,0,0,0,0,0,-1,1280,1625,0,0
63,-601,0,0,0,0,0,0,0,0,0,-1,1287,1625,0,0
70,-601,0,0,0,0,0,0,0,0,0,-1,1294,1625,0,0
77,-601,0,0,0,0,0,0,0,0,0,-1,1301,1625,0,0
84,-601,0,0,0,0,0,0,0,0,0,-1,1308,1625,0,0
91,-601,0,0,0,0,0,0,0,0,0,-1,1315,1625,0,0
98,-601,0,0,0,0,0,0,0,0,0,-1,1322,1625,0,0
105,-601,0,0,0,0,0,0,0,0,0,-1,1329,1625,0,0
112,-601,0,0,0,0,0,0,0,0,0,-1,1336,1625,0,0
119,-601,0,0,0,0,0,0,0,0,0,-1,1343,1625,0,0
126,-601,0,0,0,0,0,0,0,0,0,-1,1350,1625,0,0
133,-601,0,0,0,0,0,0,0,0,0,-1,1357,1625,0,0
140,-601,0,0,0,0,0,0,0,0,0,-1,1364,1625,0,0
147,-601,0,0,0,0,0,0,0,0,0,-1,1371,1625,0,0
154,-601,0,0,0,0,0,0,0,0,0,-1,1378,1625,0,0
161,-601,0,0,0,0,0,0,0,0,0,-1,1385,1625,0,0
168,-601,0,0,0,0,0,0,0,0,0,-1,1392,1625,0,0
175,-601,0,0,0,0,0,0,0,0,0,-1,1399,1625,0,0
182,-601,0,0,0,0,0,0,0,0,0,-1,1406,1625,0,0
189,-601,0,0,0,0,0,0,0,0,0,-1,1413,1625,0,0
196,-601,0,0,0,0,0,0,0,0,0,-1,1420,1625,0,0
203,-601,0,0,0,0,0,0,0,0,0,-1,1427,1625,0,0
210,-601,0,0,0,0,0,0,0,0,0,-1,1434,1625,0,0
217,-601,0,0,0,0,0,0,0,0,0,-1,1441,1625,0,0
224,-601,0,0,0,0,0,0,0,0,0,-1,1448,1625,0,0
231,-601,-0.0371094,0.525879,0,0,0,0,0,0,0,-1,1455,1625,-0.0371518,-0.525824
238,-601,2.03369,-1.32861,0,0,0,0,0,0,0,-1,1462,1625,2.03364,1.32858
245,-601,2.73206,-0.602295,0,0,0,0,0,0,0,-1,1469,1625,2.73205,0.602318
252,-601,8.21692,9.0094,0,0,0,0,0,0,0,-1,1476,1625,8.21697,-9.00939
259,-601,9.53455,7.46497,0,0,0,0,0,0,0,-1,1483,1625,9.5346,-7.46499
266,-601,9.19019,6.83972,-0.0835055,0.00875231,-0.027953,0.0165608,-0.091314,-1.2984,0.0670812,0.0464855,1490,1625,9.19024,-6.83969
273,-601,8.87512,6.20703,-0.095924,-0.00508847,-0.0322545,0.00519947,-0.106212,-1.26204,0.0726032,0.0440632,1497,1625,8.87515,-6.20701
280,-601,7.85767,5.04785,0,0,0,0,0,0,0,-1,1504,1625,7.85762,-5.0478
287,-601,6.94348,4.66699,-0.103328,-0.026541,-0.038077,-0.0108612,-0.119008,-1.18017,0.0759775,0.0408817,1511,1625,6.94343,-4.66695
294,-601,6.37305,4.6123,-0.101186,-0.0354065,-0.0410347,-0.0157073,-0.120885,-1.12323,0.0758977,0.0433483,1518,1625,6.37302,-4.61232
301,-601,1.60779,2.62183,-0.0969476,-0.040209,-0.0416036,-0.0182228,-0.118934,-1.08463,0.0739671,0.045047,1525,1625,1.60782,-2.62181
308,-601,1.25964,3.0553,-0.0925786,-0.041694,-0.0408459,-0.0190146,-0.115258,-1.06394,0.0713501,0.0470317,1532,1625,1.25966,-3.05526
315,-601,0.550659,3.25256,-0.0877052,-0.0395137,-0.039125,-0.0176598,-0.109559,-1.0614,0.0679224,0.0460789,1539,1625,0.550606,-3.25262
322,-601,0.0107422,3.77893,-0.0850273,-0.0370857,-0.0369811,-0.0169861,-0.105127,-1.07295,0.0651647,0.0453885,1546,1625,0.0107739,-3.77888
329,-601,-0.507202,4.31262,0,0,0,0,0,0,0,-1,1553,1625,-0.507212,-4.31265
336,-601,2.41479,3.12976,0,0,0,0,0,0,0,-1,1560,1625,2.41479,-3.12977
343,-601,6.03369,5.60645,0,0,0,0,0,0,0,-1,1567,1625,6.03374,-5.60646
350,-601,5.29126,5.23499,-0.0567368,-0.00790409,-0.0258735,0.00325476,-0.0678957,-1.16361,0.0463868,0.0498957,1574,1625,5.2912,-5.23501
357,-601,4.59619,4.83972,-0.050229,-0.00242271,-0.0242243,0.00770616,-0.0603578,-1.17476,0.0430379,0.0468888,1581,1625,4.59616,-4.83967
364,-601,3.77393,4.67627,-0.0447436,0.00258269,-0.0226371,0.0116668,-0.0538277,-1.18918,0.0403404,0.046487,1588,1625,3.77391,-4.67623
371,-601,3.177,4.57788,-0.0386702,0.0072818,-0.0199639,0.0147435,-0.0461319,-1.21311,0.0366707,0.044198,1595,1625,3.17697,-4.57782
378,-601,2.77209,4.1283,-0.0328994,0.0105587,-0.0162946,0.0159896,-0.0383304,-1.24908,0.0322337,0.0430892,1602,1625,2.77212,-4.12826
385,-601,2.62366,3.68982,-0.0270277,0.0121574,-0.0123436,0.0157215,-0.0305919,-1.2897,0.0271946,0.0427501,1609,1625,2.62365,-3.68987
392,-601,3.05493,4.13049,-0.0212727,0.013299,-0.00815776,0.0151273,-0.023101,-1.35032,0.0222305,0.037144,1616,1625,3.05488,-4.13055
399,-601,3.16577,4.07507,-0.0162461,0.0134527,-0.0053565,0.0143893,-0.0171827,-1.3977,0.0182518,0.0180058,1623,1625,3.16572,-4.07508
406,-601,3.23657,4.02454,-0.0115944,0.0131922,-0.0032365,0.0136078,-0.0120101,-1.44307,0.0148001,0.0110829,1630,1625,3.23659,-4.02459
413,-601,3.23987,3.96582,-0.00767046,0.0120535,-0.0015802,0.0121793,-0.00779625,-1.49136,0.0116251,0.0103929,1637,1625,3.23982,-3.96588
420,-601,3.22717,3.92004,-0.00467393,0.0104213,-0.000278808,0.0104264,-0.00467908,-1.55233,0.00892912,0.00959671,1644,1625,3.22721,-3.92003
427,-601,3.25684,3.8833,-0.00238732,0.00890942,0.000576372,0.00893875,-0.00241665,1.51995,0.00690711,0.0139603,1651,1625,3.25678,-3.88325
434,-601,3.26331,3.81018,-0.000416399,0.00717842,0.00143167,0.00743934,-0.000677313,1.39053,0.00520005,0.0154674,1658,1625,3.26328,-3.81014
441,-601,3.24707,3.74084,0.000261896,0.0055253,0.00147459,0.00591026,-0.000123069,1.31543,0.00398183,0.0173096,1665,1625,3.24711,-3.74085
448,-601,3.24976,3.70203,0.000710876,0.00354299,0.00100583,0.00386386,0.00039001,1.26199,0.00245625,0.0141366,1672,1625,3.2497,-3.70208
455,-601,3.25098,3.64355,0.00122063,0.00239846,0.000460129,0.0025569,0.00106219,1.23917,0.00148325,0.0122594,1679,1625,3.25098,-3.6436
462,-601,3.25,3.58984,0.00201904,0.00134406,-0.000140014,0.00204693,0.00131617,-0.19663,0.0011978,0.0108083,1686,1625,3.24995,-3.58988
469,-601,3.25391,3.54846,0.00296671,0.000548177,-0.00109847,0.00339114,0.000123752,-0.368711,0.00222066,0.0107684,1693,1625,3.25385,-3.54842
476,-601,3.23535,3.49902,0.00409564,0.000582213,-0.00244433,0.00534904,-0.000671192,-0.473819,0.00380952,0.0128131,1700,1625,3.23534,-3.49899
483,-601,3.21729,3.43115,0.00605152,0.000979351,-0.00368258,0.0079868,-0.000955927,-0.483857,0.0056701,0.0156246,1707,1625,3.21726,-3.43119
490,-601,3.21289,3.36816,0.00951163,0.0018884,-0.00609885,0.012892,-0.00149196,-0.506108,0.00913269,0.0116015,1714,1625,3.21285,-3.36815
497,-601,3.23608,3.29651,0.013544,0.00307055,-0.00850682,0.0182967,-0.00168219,-0.509496,0.0127954,0.0090309,1721,1625,3.23607,-3.29649
504,-601,3.24146,3.22559,0.0190516,0.00513788,-0.0114986,0.0255341,-0.00134455,-0.513346,0.0174881,0.0112234,1728,1625,3.24142,-3.22553
511,-601,3.25159,3.18311,0.0260563,0.00793989,-0.0147204,0.0342822,-0.000286002,-0.509582,0.0229507,0.0215771,1735,1625,3.25159,-3.18313
518,-601,3.2467,3.11096,0.0356155,0.011168,-0.0195028,0.0464087,0.00037485,-0.505463,0.030815,0.0312004,1742,1625,3.24667,-3.11096
525,-601,3.14136,2.74487,0.0470998,0.0151292,-0.0253999,0.0611259,0.00110309,-0.504539,0.0403879,0.0391106,1749,1625,3.14141,-2.74492
532,-601,3.16394,2.76917,0.0613774,0.0207481,-0.032786,0.0796323,0.0024932,-0.50804,0.0522769,0.0462712,1756,1625,3.16396,-2.76911
539,-601,4.83215,2.42261,0.0780355,0.026872,-0.0404588,0.100322,0.00458579,-0.503486,0.0654062,0.0448704,1763,1625,4.83221,-2.42265
546,-601,5.85632,2.30066,0.0962555,0.0334582,-0.048688,0.122791,0.00692245,-0.499009,0.0796537,0.0440589,1770,1625,5.8563,-2.30069
553,-601,6.8645,2.26172,0.116777,0.0407266,-0.0584175,0.148455,0.00904875,-0.496887,0.0960958,0.0449135,1777,1625,6.86444,-2.26172
560,-601,7.66833,2.08801,0.139619,0.0489246,-0.0701597,0.177811,0.0107329,-0.498498,0.11513,0.0460225,1784,1625,7.66836,-2.08803
567,-601,8.4624,1.84277,0.165313,0.0578661,-0.0841766,0.211449,0.01173,-0.501373,0.137223,0.0456779,1791,1625,8.46234,-1.84272
574,-601,0,0,0,0,0,0,0,0,0,-1,1798,1625,0,0
581,-601,0,0,0,0,0,0,0,0,0,-1,1805,1625,0,0
588,-601,0,0,0,0,0,0,0,0,0,-1,1812,1625,0,0
595,-601,0,0,0,0,0,0,0,0,0,-1,1819,1625,0,0
602,-601,0,0,0,0,0,0,0,0,0,-1,1826,1625,0,0
609,-601,0,0,0,0,0,0,0,0,0,-1,1833,1625,0,0
616,-601,0,0,0,0,0,0,0,0,0,-1,1840,1625,0,0
623,-601,0,0,0,0,0,0,0,0,0,-1,1847,1625,0,0
630,-601,0,0,0,0,0,0,0,0,0,-1,1854,1625,0,0
637,-601,0,0,0,0,0,0,0,0,0,-1,1861,1625,0,0
644,-601,0,0,0,0,0,0,0,0,0,-1,1868,1625,0,0
651,-601,0,0,0,0,0,0,0,0,0,-1,1875,1625,0,0
658,-601,0,0,0,0,0,0,0,0,0,-1,1882,1625,0,0
665,-601,0,0,0,0,0,0,0,0,0,-1,1889,1625,0,0
672,-601,0,0,0,0,0,0,0,0,0,-1,1896,1625,0,0
679,-601,0,0,0,0,0,0,0,0,0,-1,1903,1625,0,0
686,-601,0,0,0,0,0,0,0,0,0,-1,1910,1625,0,0
693,-601,0,0,0,0,0,0,0,0,0,-1,1917,1625,0,0
700,-601,0,0,0,0,0,0,0,0,0,-1,1924,1625,0,0
707,-601,0,0,0,0,0,0,0,0,0,-1,1931,1625,0,0
714,-601,0,0,0,0,0,0,0,0,0,-1,1938,1625,0,0
721,-601,0,0,0,0,0,0,0,0,0,-1,1945,1625,0,0
728,-601,0,0,0,0,0,0,0,0,0,-1,1952,1625,0,0
735,-601,0,0,0,0,0,0,0,0,0,-1,1959,1625,0,0
742,-601,0,0,0,0,0,0,0,0,0,-1,1966,1625,0,0
749,-601,0,0,0,0,0,0,0,0,0,-1,1973,1625,0,0
756,-601,0,0,0,0,0,0,0,0,0,-1,1980,1625,0,0
763,-601,0,0,0,0,0,0,0,0,0,-1,1987,1625,0,0
770,-601,0,0,0,0,0,0,0,0,0,-1,1994,1625,0,0
777,-601,0,0,0,0,0,0,0,0,0,-1,2001,1625,0,0
784,-601,0,0,0,0,0,0,0,0,0,-1,2008,1625,0,0
791,-601,0,0,0,0,0,0,0,0,0,-1,2015,1625,0,0
798,-601,0,0,0,0,0,0,0,0,0,-1,2022,1625,0,0
805,-601,0,0,0,0,0,0,0,0,0,-1,2029,1625,0,0
812,-601,0,0,0,0,0,0,0,0,0,-1,2036,1625,0,0
-700,-608,0,0,0,0,0,0,0,0,0,-1,524,1632,0,0
-693,-608,0,0,0,0,0,0,0,0,0,-1,531,1632,0,0
-686,-608,0,0,0,0,0,0,0,0,0,-1,538,1632,0,0
-679,-608,0,0,0,0,0,0,0,0,0,-1,545,1632,0,0
-672,-608,0,0,0,0,0,0,0,0,0,-1,552,1632,0,0
-665,-608,0,0,0,0,0,0,0,0,0,-1,559,1632,0,0
-658,-608,0,0,0,0,0,0,0,0,0,-1,566,1632,0,0
-651,-608,0,0,0,0,0,0,0,0,0,-1,573,1632,0,0
-644,-608,0,0,0,0,0,0,0,0,0,-1,580,1632,0,0
-637,-608,0,0,0,0,0,0,0,0,0,-1,587,1632,0,0
-630,-608,0,0,0,0,0,0,0,0,0,-1,594,1632,0,0
-623,-608,0,0,0,0,0,0,0,0,0,-1,601,1632,0,0
-616,-608,0,0,0,0,0,0,0,0,0,-1,608,1632,0,0
-609,-608,0,0,0,0,0,0,0,0,0,-1,615,1632,0,0
-602,-608,0,0,0,0,0,0,0,0,0,-1,622,1632,0,0
-595,-608,0,0,0,0,0,0,0,0,0,-1,629,1632,0,0
-588,-608,0,0,0,0,0,0,0,0,0,-1,636,1632,0,0
-581,-608,0,0,0,0,0,0,0,0,0,-1,643,1632,0,0
-574,-608,0,0,0,0,0,0,0,0,0,-1,650,1632,0,0
-567,-608,0,0,0,0,0,0,0,0,0,-1,657,1632,0,0
-560,-608,0,0,0,0,0,0,0,0,0,-1,664,1632,0,0
-553,-608,0,0,0,0,0,0,0,0,0,-1,671,1632,0,0
-546,-608,0,0,0,0,0,0,0,0,0,-1,678,1632,0,0
-539,-608,0,0,0,0,0,0,0,0,0,-1,685,1632,0,0
-532,-608,0,0,0,0,0,0,0,0,0,-1,692,1632,0,0
-525,-608,0,0,0,0,0,0,0,0,0,-1,699,1632,0,0
-518,-608,0,0,0,0,0,0,0,0,0,-1,706,1632,0,0
-511,-608,0,0,0,0,0,0,0,0,0,-1,713,1632,0,0
-504,-608,0,0,0,0,0,0,0,0,0,-1,720,1632,0,0
-497,-608,0,0,0,0,0,0,0,0,0,-1,727,1632,0,0
-490,-608,0,0,0,0,0,0,0,0,0,-1,734,1632,0,0
-483,-608,0,0,0,0,0,0,0,0,0,-1,741,1632,0,0
-476,-608,0,0,0,0,0,0,0,0,0,-1,748,1632,0,0
-469,-608,0,0,0,0,0,0,0,0,0,-1,755,1632,0,0
-462,-608,0,0,0,0,0,0,0,0,0,-1,762,1632,0,0
-455,-608,0,0,0,0,0,0,0,0,0,-1,769,1632,0,0
-448,-608,0,0,0,0,0,0,0,0,0,-1,776,1632,0,0
-441,-608,0.640198,0.830444,0,0,0,0,0,0,0,-1,783,1632,0.640222,-0.83049
-434,-608,-4.11688,4.41052,0,0,0,0,0,0,0,-1,790,1632,-4.11687,-4.4105
-427,-608,-4.24622,0.982178,0,0,0,0,0,0,0,-1,797,1632,-4.24621,-0.982224
-420,-608,-3.54413,1.18628,0,0,0,0,0,0,0,-1,804,1632,-3.54411,-1.18631
-413,-608,-0.374023,0.821533,0,0,0,0,0,0,0,-1,811,1632,-0.374039,-0.821536
-406,-608,0.264709,1.4115,0.077899,0.0482321,0.0266293,0.0935475,0.0325836,0.531284,0.0548319,0.0419221,818,1632,0.264685,-1.41155
-399,-608,0.616089,1.71826,0.072575,0.0399719,0.0198453,0.0819557,0.0305912,0.441562,0.0478211,0.0414118,825,1632,0.616077,-1.7182
-392,-608,2.24792,2.47986,0,0,0,0,0,0,0,-1,832,1632,2.24792,-2.47989
-385,-608,2.12585,2.72485,0.0510591,0.0260196,0.00797583,0.0533838,0.0236949,0.283612,0.0308858,0.0498409,839,1632,2.12584,-2.7249
-378,-608,2.0686,2.9917,0.0382461,0.0191651,0.00392041,0.0390202,0.018391,0.194944,0.0225406,0.0476432,846,1632,2.06861,-2.99171
-371,-608,1.64307,3.16663,0.027681,0.0132291,0.000825966,0.027728,0.0131821,0.056906,0.0160152,0.0374928,853,1632,1.64309,-3.16657
-364,-608,1.71393,3.13721,0.0190976,0.00857542,-0.00111131,0.0192137,0.00845933,-0.104085,0.0111194,0.0156859,860,1632,1.71395,-3.13719
-357,-608,1.70374,3.17737,0.0111484,0.00490228,-0.00247549,0.0120105,0.00404017,-0.335122,0.00705693,0.0125026,867,1632,1.70373,-3.1774
-350,-608,1.73199,3.28455,0.00590411,0.00194756,-0.0027385,0.00730414,0.000547523,-0.472599,0.00469757,0.0170965,874,1632,1.73202,-3.2846
-343,-608,1.74768,3.35645,0.00322702,-0.000278732,-0.00227973,0.00434986,-0.00140157,-0.457656,0.00346297,0.0201278,881,1632,1.74767,-3.35639
-336,-608,1.72253,3.37012,0.000514417,-0.000978264,0.000142222,0.000527847,-0.000991694,0.094151,0.000890828,0.0127453,888,1632,1.72252,-3.37013
-329,-608,1.72705,3.44043,0.000198627,-0.00120553,6.83486e-05,0.000201947,-0.00120885,0.0485229,0.000880967,0.0115691,895,1632,1.72703,-3.44048
-322,-608,1.7179,3.50916,0.000851531,-0.00107198,0.000411749,0.000935964,-0.00115641,0.202256,0.00121027,0.0124706,902,1632,1.71791,-3.50913
-315,-608,1.73083,3.54993,0.000767784,-0.00109227,0.000591483,0.000939938,-0.00126443,0.283229,0.00127728,0.0108711,909,1632,1.73087,-3.54994
-308,-608,1.74335,3.61731,0.000238775,-0.00110187,0.000444298,0.00037265,-0.00123575,0.292664,0.000972154,0.0115397,916,1632,1.74337,-3.61737
-301,-608,1.72742,3.68469,-0.000296351,-0.0011408,-0.000121572,-0.000279198,-0.00115795,-0.140174,0.000697778,0.0109539,923,1632,1.72744,-3.68464
-294,-608,1.74017,3.73865,-0.000861996,-0.00108493,-0.001066,9.83538e-05,-0.00204528,-0.733305,0.00139746,0.0110258,930,1632,1.7402,-3.73863
-287,-608,1.71967,3.79675,-0.00189486,-0.00127286,-0.00223804,0.000675685,-0.0038434,-0.854436,0.00281466,0.0104713,937,1632,1.71966,-3.79671
-280,-608,1.7149,3.84167,-0.00319854,-0.00159774,-0.00379197,0.00147739,-0.00627366,-0.88941,0.00475208,0.00872443,944,1632,1.71491,-3.8417
-273,-608,1.72656,3.89099,-0.0040117,-0.00360212,-0.00519144,0.00138857,-0.00900239,-0.805112,0.00651397,0.00832437,951,1632,1.72654,-3.89101
-266,-608,1.73315,3.94165,-0.00585111,-0.00737011,-0.00672147,0.000153631,-0.0133749,-0.729139,0.00896822,0.00814421,958,1632,1.73313,-3.94167
-259,-608,1.74554,3.98743,-0.00925058,-0.0104849,-0.006902,-0.00293818,-0.0167973,-0.740809,0.0103586,0.0109843,965,1632,1.74552,-3.98742
-252,-608,1.77222,4.01819,-0.0120647,-0.0139579,-0.00620798,-0.00673155,-0.019291,-0.709739,0.0113058,0.0232259,972,1632,1.77224,-4.01813
-245,-608,2.12524,4.09729,-0.0142305,-0.0169796,-0.00451054,-0.0108897,-0.0203204,-0.637495,0.0117421,0.0350319,979,1632,2.12523,-4.09734
-238,-608,2.3775,4.12512,0,0,0,0,0,0,0,-1,986,1632,2.37748,-4.12516
-231,-608,2.51514,4.18848,0,0,0,0,0,0,0,-1,993,1632,2.51516,-4.18845
-224,-608,2.75604,4.36084,0,0,0,0,0,0,0,-1,1000,1632,2.75601,-4.3609
-217,-608,3.02887,4.5614,0,0,0,0,0,0,0,-1,1007,1632,3.0289,-4.56138
-210,-608,2.8847,2.17981,-0.0251008,-0.0218153,0.00572638,-0.0175007,-0.0294154,0.925085,0.0170848,0.047245,1014,1632,2.88473,-2.17976
-203,-608,2.37866,3.20728,-0.0267037,-0.0178807,0.00811969,-0.0130515,-0.0315329,1.03424,0.0182953,0.0475213,1021,1632,2.37863,-3.20729
-196,-608,2.00623,3.80591,-0.0287733,-0.0110502,0.00950125,-0.00691945,-0.0329041,1.16069,0.020032,0.0487796,1028,1632,2.00626,-3.80591
-189,-608,1.90613,4.19312,-0.0307925,-0.00225344,0.0101293,0.000976231,-0.0340222,1.26214,0.0230138,0.042517,1035,1632,1.90615,-4.19317
-182,-608,1.57007,3.94763,-0.0325808,0.00793901,0.00997774,0.0102627,-0.0349045,1.34199,0.0273404,0.0436429,1042,1632,1.57011,-3.94767
-175,-608,1.78735,4.2782,-0.0345503,0.0181432,0.00980491,0.0199085,-0.0363156,1.39266,0.0329185,0.0487212,1049,1632,1.7873,-4.27815
-168,-608,1.52637,4.8241,-0.0362126,0.0287671,0.00928271,0.0300672,-0.0375127,1.43165,0.0390961,0.0486108,1056,1632,1.52635,-4.82405
-161,-608,1.21167,5.41321,-0.0367915,0.0401735,0.00928705,0.0412783,-0.0378963,1.45239,0.0457254,0.0442924,1063,1632,1.21164,-5.41315
-154,-608,0.749268,5.8009,0,0,0,0,0,0,0,-1,1070,1632,0.749306,-5.80086
-147,-608,0.281006,6.01306,0,0,0,0,0,0,0,-1,1077,1632,0.281053,-6.01305
-140,-608,-1.51013,3.66162,0,0,0,0,0,0,0,-1,1084,1632,-1.51008,-3.66161
-133,-608,-1.66833,3.09497,0,0,0,0,0,0,0,-1,1091,1632,-1.66838,-3.09503
-126,-608,2.19214,4.78967,0,0,0,0,0,0,0,-1,1098,1632,2.19217,-4.78962
-119,-608,-2.23914,2.30542,0,0,0,0,0,0,0,-1,1105,1632,-2.23913,-2.30538
-112,-608,2.66309,4.18213,0,0,0,0,0,0,0,-1,1112,1632,2.66306,-4.18218
-105,-608,2.59558,4.57776,0,0,0,0,0,0,0,-1,1119,1632,2.59563,-4.57777
-98,-608,2.72302,1.18152,0,0,0,0,0,0,0,-1,1126,1632,2.72308,-1.1815
-91,-608,3.06433,-0.0145264,0,0,0,0,0,0,0,-1,1133,1632,3.06431,0.0144969
-84,-608,0,0,0,0,0,0,0,0,0,-1,1140,1632,0,0
-77,-608,0,0,0,0,0,0,0,0,0,-1,1147,1632,0,0
-70,-608,0,0,0,0,0,0,0,0,0,-1,1154,1632,0,0
-63,-608,0,0,0,0,0,0,0,0,0,-1,1161,1632,0,0
-56,-608,0,0,0,0,0,0,0,0,0,-1,1168,1632,0,0
-49,-608,0,0,0,0,0,0,0,0,0,-1,1175,1632,0,0
-42,-608,0,0,0,0,0,0,0,0,0,-1,1182,1632,0,0
-35,-608,0,0,0,0,0,0,0,0,0,-1,1189,1632,0,0
-28,-608,0,0,0,0,0,0,0,0,0,-1,1196,1632,0,0
-21,-608,0,0,0,0,0,0,0,0,0,-1,1203,1632,0,0
-14,-608,0,0,0,0,0,0,0,0,0,-1,1210,1632,0,0
-7,-608,0,0,0,0,0,0,0,0,0,-1,1217,1632,0,0
0,-608,0,0,0,0,0,0,0,0,0,-1,1224,1632,0,0
7,-608,0,0,0,0,0,0,0,0,0,-1,1231,1632,0,0
14,-608,0,0,0,0,0,0,0,0,0,-1,1238,1632,0,0
21,-608,0,0,0,0,0,0,0,0,0,-1,1245,1632,0,0
28,-608,0,0,0,0,0,0,0,0,0,-1,1252,1632,0,0
35,-608,0,0,0,0,0,0,0,0,0,-1,1259,1632,0,0
42,-608,0,0,0,0,0,0,0,0,0,-1,1266,1632,0,0
49,-608,0,0,0,0,0,0,0,0,0,-1,1273,1632,0,0
56,-608,0,0,0,0,0,0,0,0,0,-1,1280,1632,0,0
63,-608,0,0,0,0,0,0,0,0,0,-1,1287,1632,0,0
70,-608,0,0,0,0,0,0,0,0,0,-1,1294,1632,0,0
77,-608,0,0,0,0,0,0,0,0,0,-1,1301,1632,0,0
84,-608,0,0,0,0,0,0,0,0,0,-1,1308,1632,0,0
91,-608,0,0,0,0,0,0,0,0,0,-1,1315,1632,0,0
98,-608,0,0,0,0,0,0,0,0,0,-1,1322,1632,0,0
105,-608,0,0,0,0,0,0,0,0,0,-1,1329,1632,0,0
112,-608,0,0,0,0,0,0,0,0,0,-1,1336,1632,0,0
119,-608,0,0,0,0,0,0,0,0,0,-1,1343,1632,0,0
126,-608,0,0,0,0,0,0,0,0,0,-1,1350,1632,0,0
133,-608,0,0,0,0,0,0,0,0,0,-1,1357,1632,0,0
140,-608,0,0,0,0,0,0,0,0,0,-1,1364,1632,0,0
147,-608,0,0,0,0,0,0,0,0,0,-1,1371,1632,0,0
154,-608,0,0,0,0,0,0,0,0,0,-1,1378,1632,0,0
161,-608,0,0,0,0,0,0,0,0,0,-1,1385,1632,0,0
168,-608,0,0,0,0,0,0,0,0,0,-1,1392,1632,0,0
175,-608,0,0,0,0,0,0,0,0,0,-1,1399,1632,0,0
182,-608,0,0,0,0,0,0,0,0,0,-1,1406,1632,0,0
189,-608,0,0,0,0,0,0,0,0,0,-1,1413,1632,0,0
196,-608,0,0,0,0,0,0,0,0,0,-1,1420,1632,0,0
203,-608,0,0,0,0,0,0,0,0,0,-1,1427,1632,0,0
210,-608,5.7157,-0.333008,0,0,0,0,0,0,0,-1,1434,1632,5.71566,0.333004
217,-608,4.49402,-0.831787,0,0,0,0,0,0,0,-1,1441,1632,4.49396,0.831738
224,-608,4.18018,-1.11792,0,0,0,0,0,0,0,-1,1448,1632,4.1802,1.11796
231,-608,0.361816,0.825195,0,0,0,0,0,0,0,-1,1455,1632,0.36185,-0.825226
238,-608,2.85388,-0.28833,0,0,0,0,0,0,0,-1,1462,1632,2.85391,0.288282
245,-608,9.91138,8.20898,0,0,0,0,0,0,0,-1,1469,1632,9.91143,-8.20893
252,-608,9.28931,7.76953,-0.0360722,0.0524914,0.00587577,0.0528795,-0.0364604,1.50484,0.05187,0.0495865,1476,1632,9.28928,-7.76959
259,-608,8.81909,7.06824,0,0,0,0,0,0,0,-1,1483,1632,8.81909,-7.06824
266,-608,8.34155,6.52576,0,0,0,0,0,0,0,-1,1490,1632,8.34157,-6.52573
273,-608,7.80603,5.77637,0,0,0,0,0,0,0,-1,1497,1632,7.80606,-5.77633
280,-608,7.27466,5.47009,-0.0925938,0.000904212,-0.0204533,0.00518273,-0.0968723,-1.36459,0.0663766,0.0463731,1504,1632,7.27465,-5.47007
287,-608,6.73132,5.16943,-0.0930013,-0.00808237,-0.023651,-0.0019396,-0.0991441,-1.31669,0.0654591,0.045451,1511,1632,6.73132,-5.16938
294,-608,6.39526,4.74902,-0.0901741,-0.016177,-0.0273544,-0.00716306,-0.0991881,-1.25248,0.0638717,0.0455447,1518,1632,6.39531,-4.749
301,-608,2.03479,2.81689,0,0,0,0,0,0,0,-1,1525,1632,2.03484,-2.81685
308,-608,1.6283,3.23645,-0.0804353,-0.0247817,-0.0303583,-0.0114264,-0.0937905,-1.15636,0.0590876,0.0475453,1532,1632,1.62829,-3.23651
315,-608,1.05457,3.82837,-0.0749407,-0.024717,-0.0304045,-0.0103949,-0.0892628,-1.13057,0.056364,0.0462525,1539,1632,1.05458,-3.82833
322,-608,0.593262,4.13416,-0.0713208,-0.0243485,-0.0298187,-0.00987734,-0.0857919,-1.11897,0.054203,0.0442106,1546,1632,0.593281,-4.13414
329,-608,0.378174,4.32104,-0.0667216,-0.0212593,-0.029006,-0.00713862,-0.0808422,-1.11775,0.0516799,0.044491,1553,1632,0.37818,-4.32099
336,-608,0.192627,4.5199,0,0,0,0,0,0,0,-1,1560,1632,0.192651,-4.51989
343,-608,2.62024,2.24854,0,0,0,0,0,0,0,-1,1567,1632,2.62026,-2.24859
350,-608,5.37561,5.35413,0,0,0,0,0,0,0,-1,1574,1632,5.37562,-5.3541
357,-608,4.65515,4.95557,0,0,0,0,0,0,0,-1,1581,1632,4.65519,-4.95561
364,-608,3.24438,5.52808,0,0,0,0,0,0,0,-1,1588,1632,3.24442,-5.52811
371,-608,3.2406,4.54504,-0.0305683,-0.000114979,-0.0186354,0.00872344,-0.0394067,-1.12793,0.0296104,0.0425289,1595,1632,3.2406,-4.545
378,-608,3.12781,4.19202,-0.0259253,0.00224194,-0.0155165,0.00911329,-0.0327966,-1.15391,0.025452,0.0369231,1602,1632,3.12785,-4.19202
385,-608,3.07874,4.14929,-0.0212665,0.00354729,-0.0122075,0.008546,-0.0262652,-1.18215,0.0209481,0.0289686,1609,1632,3.07874,-4.14934
392,-608,3.12537,4.09314,-0.0166553,0.00465566,-0.0085396,0.00765536,-0.019655,-1.23299,0.0162671,0.0180149,1616,1632,3.12541,-4.09312
399,-608,3.16296,4.06616,-0.0126614,0.00514756,-0.00618224,0.00708328,-0.0145971,-1.26736,0.0127653,0.00881198,1623,1632,3.16293,-4.06619
406,-608,3.18518,4.021,-0.0088751,0.0054061,-0.00444263,0.00667532,-0.0101443,-1.29252,0.00977943,0.0081752,1630,1632,3.18518,-4.02102
413,-608,3.17627,3.9668,-0.00568618,0.00507642,-0.00304368,0.00587755,-0.0064873,-1.31342,0.00714174,0.00904622,1637,1632,3.17627,-3.96684
420,-608,3.15137,3.93018,-0.00327321,0.00439917,-0.00183715,0.00481638,-0.00369043,-1.34748,0.00492573,0.01581,1644,1632,3.1514,-3.93023
427,-608,3.20264,3.86438,-0.00135942,0.00394822,-0.000946754,0.00411204,-0.00152324,-1.39946,0.00336602,0.0178437,1651,1632,3.20263,-3.86434
434,-608,3.22021,3.79736,0.000305773,0.0033723,-0.000147175,0.00337935,0.000298726,-1.52295,0.00216022,0.0145795,1658,1632,3.2202,-3.79734
441,-608,3.18188,3.75366,0.00088636,0.00287168,1.2057e-05,0.00287175,0.000886287,1.56472,0.00169801,0.0134507,1665,1632,3.18186,-3.75361
448,-608,3.1853,3.71228,0.00141013,0.00205092,-0.000234411,0.00212751,0.00133354,-1.25498,0.00124142,0.0146641,1672,1632,3.18534,-3.71232
455,-608,3.20105,3.65186,0.00222597,0.00160142,-0.000530222,0.00252904,0.00129834,-0.51927,0.00146031,0.0108528,1679,1632,3.201,-3.65187
462,-608,3.19897,3.59509,0.00340912,0.00116306,-0.000966633,0.00376784,0.000804345,-0.355347,0.00229133,0.00998728,1686,1632,3.19895,-3.59507
469,-608,3.18396,3.54175,0.00478125,0.000860368,-0.00191237,0.00555951,8.21052e-05,-0.386494,0.00367928,0.00798012,1693,1632,3.18395,-3.54174
476,-608,3.18298,3.47852,0.00639205,0.00124954,-0.00339671,0.00808096,-0.000439373,-0.46142,0.00553957,0.00825119,1700,1632,3.18293,-3.4785
483,-608,3.18018,3.41895,0.00890338,0.00179831,-0.00483602,0.0113515,-0.000649783,-0.468612,0.00779328,0.00776647,1707,1632,3.18018,-3.4189
490,-608,3.19507,3.37012,0.0130894,0.00280995,-0.00767553,0.0171871,-0.00128777,-0.490374,0.0119106,0.00769084,1714,1632,3.19506,-3.3701
497,-608,3.18298,3.31213,0.0180315,0.00414185,-0.0105992,0.0237585,-0.00158512,-0.49538,0.0163929,0.0112753,1721,1632,3.18297,-3.31209
504,-608,3.15125,3.24841,0.0247425,0.00654316,-0.0142443,0.0325456,-0.00125997,-0.501157,0.022129,0.0243134,1728,1632,3.15124,-3.24838
511,-608,3.33618,3.29333,0.0331878,0.00987944,-0.018144,0.043098,-3.08212e-05,-0.499921,0.0287423,0.0395468,1735,1632,3.33614,-3.29328
518,-608,3.76782,3.03638,0.04448,0.0135855,-0.0237353,0.057352,0.000713484,-0.496924,0.0379991,0.0418402,1742,1632,3.76787,-3.03638
525,-608,3.64575,2.53967,0.0579545,0.0181527,-0.030583,0.0745415,0.00156573,-0.496959,0.0491807,0.0423607,1749,1632,3.6458,-2.53971
532,-608,3.20642,2.55249,0,0,0,0,0,0,0,-1,1756,1632,3.20647,-2.55255
539,-608,5.45349,2.4342,0.0920637,0.0311218,-0.0469783,0.117588,0.00559775,-0.497697,0.0765941,0.0443204,1763,1632,5.45355,-2.43418
546,-608,5.99512,2.104,0.112052,0.0384771,-0.0551822,0.141585,0.00894412,-0.491402,0.0915541,0.0425311,1770,1632,5.99509,-2.10405
553,-608,6.61487,1.83289,0.13392,0.0463295,-0.0644913,0.168081,0.0121686,-0.487122,0.108226,0.0429908,1777,1632,6.61489,-1.83286
560,-608,7.26465,1.52283,0.157373,0.0549834,-0.075452,0.197359,0.0149975,-0.487321,0.126869,0.0432595,1784,1632,7.26466,-1.52287
567,-608,0,0,0,0,0,0,0,0,0,-1,1791,1632,0,0
574,-608,0,0,0,0,0,0,0,0,0,-1,1798,1632,0,0
581,-608,0,0,0,0,0,0,0,0,0,-1,1805,1632,0,0
588,-608,0,0,0,0,0,0,0,0,0,-1,1812,1632,0,0
595,-608,0,0,0,0,0,0,0,0,0,-1,1819,1632,0,0
602,-608,0,0,0,0,0,0,0,0,0,-1,1826,1632,0,0
609,-608,0,0,0,0,0,0,0,0,0,-1,1833,1632,0,0
616,-608,0,0,0,0,0,0,0,0,0,-1,1840,1632,0,0
623,-608,0,0,0,0,0,0,0,0,0,-1,1847,1632,0,0
630,-608,0,0,0,0,0,0,0,0,0,-1,1854,1632,0,0
637,-608,0,0,0,0,0,0,0,0,0,-1,1861,1632,0,0
644,-608,0,0,0,0,0,0,0,0,0,-1,1868,1632,0,0
651,-608,0,0,0,0,0,0,0,0,0,-1,1875,1632,0,0
658,-608,0,0,0,0,0,0,0,0,0,-1,1882,1632,0,0
665,-608,0,0,0,0,0,0,0,0,0,-1,1889,1632,0,0
672,-608,0,0,0,0,0,0,0,0,0,-1,1896,1632,0,0
679,-608,0,0,0,0,0,0,0,0,0,-1,1903,1632,0,0
686,-608,0,0,0,0,0,0,0,0,0,-1,1910,1632,0,0
693,-608,0,0,0,0,0,0,0,0,0,-1,1917,1632,0,0
700,-608,0,0,0,0,0,0,0,0,0,-1,1924,1632,0,0
707,-608,0,0,0,0,0,0,0,0,0,-1,1931,1632,0,0
714,-608,0,0,0,0,0,0,0,0,0,-1,1938,1632,0,0
721,-608,0,0,0,0,0,0,0,0,0,-1,1945,1632,0,0
728,-608,0,0,0,0,0,0,0,0,0,-1,1952,1632,0,0
735,-608,0,0,0,0,0,0,0,0,0,-1,1959,1632,0,0
742,-608,0,0,0,0,0,0,0,0,0,-1,1966,1632,0,0
749,-608,0,0,0,0,0,0,0,0,0,-1,1973,1632,0,0
756,-608,0,0,0,0,0,0,0,0,0,-1,1980,1632,0,0
763,-608,0,0,0,0,0,0,0,0,0,-1,1987,1632,0,0
770,-608,0,0,0,0,0,0,0,0,0,-1,1994,1632,0,0
777,-608,0,0,0,0,0,0,0,0,0,-1,2001,1632,0,0
784,-608,0,0,0,0,0,0,0,0,0,-1,2008,1632,0,0
791,-608,0,0,0,0,0,0,0,0,0,-1,2015,1632,0,0
798,-608,0,0,0,0,0,0,0,0,0,-1,2022,1632,0,0
805,-608,0,0,0,0,0,0,0,0,0,-1,2029,1632,0,0
812,-608,0,0,0,0,0,0,0,0,0,-1,2036,1632,0,0
-700,-615,0,0,0,0,0,0,0,0,0,-1,524,1639,0,0
-693,-615,0,0,0,0,0,0,0,0,0,-1,531,1639,0,0
-686,-615,0,0,0,0,0,0,0,0,0,-1,538,1639,0,0
-679,-615,0,0,0,0,0,0,0,0,0,-1,545,1639,0,0
-672,-615,0,0,0,0,0,0,0,0,0,-1,552,1639,0,0
-665,-615,0,0,0,0,0,0,0,0,0,-1,559,1639,0,0
-658,-615,0,0,0,0,0,0,0,0,0,-1,566,1639,0,0
-651,-615,0,0,0,0,0,0,0,0,0,-1,573,1639,0,0
-644,-615,0,0,0,0,0,0,0,0,0,-1,580,1639,0,0
-637,-615,0,0,0,0,0,0,0,0,0,-1,587,1639,0,0
-630,-615,0,0,0,0,0,0,0,0,0,-1,594,1639,0,0
-623,-615,0,0,0,0,0,0,0,0,0,-1,601,1639,0,0
-616,-615,0,0,0,0,0,0,0,0,0,-1,608,1639,0,0
-609,-615,0,0,0,0,0,0,0,0,0,-1,615,1639,0,0
-602,-615,0,0,0,0,0,0,0,0,0,-1,622,1639,0,0
-595,-615,0,0,0,0,0,0,0,0,0,-1,629,1639,0,0
-588,-615,0,0,0,0,0,0,0,0,0,-1,636,1639,0,0
-581,-615,0,0,0,0,0,0,0,0,0,-1,643,1639,0,0
-574,-615,0,0,0,0,0,0,0,0,0,-1,650,1639,0,0
-567,-615,0,0,0,0,0,0,0,0,0,-1,657,1639,0,0
-560,-615,0,0,0,0,0,0,0,0,0,-1,664,1639,0,0
-553,-615,0,0,0,0,0,0,0,0,0,-1,671,1639,0,0
-546,-615,0,0,0,0,0,0,0,0,0,-1,678,1639,0,0
-539,-615,0,0,0,0,0,0,0,0,0,-1,685,1639,0,0
-532,-615,0,0,0,0,0,0,0,0,0,-1,692,1639,0,0
-525,-615,0,0,0,0,0,0,0,0,0,-1,699,1639,0,0
-518,-615,0,0,0,0,0,0,0,0,0,-1,706,1639,0,0
-511,-615,0,0,0,0,0,0,0,0,0,-1,713,1639,0,0
-504,-615,0,0,0,0,0,0,0,0,0,-1,720,1639,0,0
-497,-615,0,0,0,0,0,0,0,0,0,-1,727,1639,0,0
-490,-615,0,0,0,0,0,0,0,0,0,-1,734,1639,0,0
-483,-615,0,0,0,0,0,0,0,0,0,-1,741,1639,0,0
-476,-615,0,0,0,0,0,0,0,0,0,-1,748,1639,0,0
-469,-615,0,0,0,0,0,0,0,0,0,-1,755,1639,0,0
-462,-615,0,0,0,0,0,0,0,0,0,-1,762,1639,0,0
-455,-615,0,0,0,0,0,0,0,0,0,-1,769,1639,0,0
-448,-615,0,0,0,0,0,0,0,0,0,-1,776,1639,0,0
-441,-615,0,0,0,0,0,0,0,0,0,-1,783,1639,0,0
-434,-615,-3.77271,3.67932,0,0,0,0,0,0,0,-1,790,1639,-3.7727,-3.67931
-427,-615,-3.45459,3.45325,0,0,0,0,0,0,0,-1,797,1639,-3.4546,-3.45325
-420,-615,-4.51007,0.670898,0,0,0,0,0,0,0,-1,804,1639,-4.51005,-0.670874
-413,-615,-1.54791,0.399048,0.0991779,0.0620415,0.0284822,0.11461,0.0466095,0.496535,0.0665531,0.0460603,811,1639,-1.54792,-0.398994
-406,-615,-0.349609,0.729736,0.0953228,0.0538925,0.0213585,0.104362,0.0448536,0.400345,0.0604509,0.0447206,818,1639,-0.349603,-0.729698
-399,-615,-0.125122,0.843506,0.088448,0.044633,0.0146725,0.0929076,0.0401735,0.295066,0.0538034,0.043226,825,1639,-0.12511,-0.843512
-392,-615,0.338074,1.09192,0,0,0,0,0,0,0,-1,832,1639,0.33807,-1.09196
-385,-615,2.53564,2.52417,0,0,0,0,0,0,0,-1,839,1639,2.53564,-2.52416
-378,-615,1.84692,2.99426,0,0,0,0,0,0,0,-1,846,1639,1.84695,-2.99425
-371,-615,1.84058,3.04529,0.0342621,0.0143741,-0.00208851,0.0344791,0.0141571,-0.103509,0.0200123,0.0460716,853,1639,1.8406,-3.04525
-364,-615,1.78601,3.13367,0.0240278,0.00934646,-0.00320066,0.0246952,0.00867902,-0.205583,0.014466,0.0314323,860,1639,1.78598,-3.1337
-357,-615,1.75061,3.22693,0.0145633,0.00534241,-0.00394899,0.0160233,0.00388237,-0.354138,0.00965196,0.0263855,867,1639,1.75061,-3.2269
-350,-615,1.7337,3.27307,0.00817735,0.00205296,-0.00377521,0.00997615,0.000254161,-0.444652,0.00656768,0.0227778,874,1639,1.73373,-3.27311
-343,-615,1.75085,3.32751,0.00472707,-0.000379131,-0.00305654,0.00615652,-0.00180858,-0.437452,0.00482163,0.0179679,881,1639,1.75084,-3.32754
-336,-615,1.77307,3.37598,0.000837497,-0.00122387,0.000180956,0.000853262,-0.00123964,0.0868987,0.00121518,0.00970009,888,1639,1.77309,-3.37601
-329,-615,1.77399,3.4375,2.66496e-05,-0.00151575,-8.32863e-05,3.11339e-05,-0.00152023,-0.0537895,0.00102402,0.00954611,895,1639,1.77399,-3.43753
-322,-615,1.77661,3.51147,0.000638322,-0.00134062,0.000241886,0.000667458,-0.00136976,0.119879,0.00119926,0.00989434,902,1639,1.77659,-3.51145
-315,-615,1.80304,3.56909,0.000566671,-0.00138118,0.000528722,0.000700933,-0.00151544,0.248679,0.00130811,0.010873,909,1639,1.80302,-3.56915
-308,-615,1.79419,3.62268,8.90086e-05,-0.00131388,0.000549048,0.000278338,-0.00150321,0.332064,0.00110665,0.0166998,916,1639,1.79422,-3.62271
-301,-615,1.78162,3.66699,-0.000416869,-0.0013084,0.000130759,-0.000398086,-0.00132718,0.142666,0.000786426,0.0128431,923,1639,1.78163,-3.66702
-294,-615,1.784,3.72864,-0.000897459,-0.00121358,-0.00056275,-0.000470992,-0.00164004,-0.648491,0.00097505,0.010646,930,1639,1.78399,-3.72865
-287,-615,1.7627,3.78784,-0.00172844,-0.00135285,-0.00146421,-6.44417e-05,-0.00301685,-0.849179,0.0019901,0.00785093,937,1639,1.7627,-3.78786
-280,-615,1.76715,3.82776,-0.00271546,-0.00159735,-0.00264542,0.000547442,-0.00486025,-0.889531,0.00343721,0.00826066,944,1639,1.76717,-3.82778
-273,-615,1.77197,3.8822,-0.00316495,-0.00304861,-0.00371854,0.000612216,-0.00682578,-0.793219,0.00476771,0.00859182,951,1639,1.77196,-3.88222
-266,-615,1.784,3.94397,-0.00431709,-0.0058918,-0.00495475,-8.75276e-05,-0.0101214,-0.706602,0.00671859,0.00878494,958,1639,1.78403,-3.944
-259,-615,1.81299,4.00146,-0.00668221,-0.00844211,-0.00518702,-0.00230103,-0.0128233,-0.701376,0.00789443,0.0105779,965,1639,1.81299,-4.00146
-252,-615,1.80902,4.0481,-0.00860549,-0.0112877,-0.00481602,-0.00494733,-0.0149458,-0.649606,0.00879171,0.0117191,972,1639,1.809,-4.04812
-245,-615,1.78467,4.08008,-0.0100799,-0.0138639,-0.00360004,-0.007905,-0.0160388,-0.54346,0.00926035,0.0168728,979,1639,1.78468,-4.08003
-238,-615,1.95941,4.08972,0,0,0,0,0,0,0,-1,986,1639,1.95938,-4.08971
-231,-615,2.07916,4.16736,0,0,0,0,0,0,0,-1,993,1639,2.07917,-4.16733
-224,-615,2.2948,4.23657,0,0,0,0,0,0,0,-1,1000,1639,2.29482,-4.23661
-217,-615,2.44116,4.29309,-0.0169164,-0.0196759,0.00168659,-0.0161171,-0.0204752,0.442566,0.0124542,0.0440334,1007,1639,2.44119,-4.29312
-210,-615,2.5282,4.21228,-0.0186314,-0.0173296,0.00350422,-0.0144164,-0.0215447,0.877225,0.0126738,0.0472037,1014,1639,2.52819,-4.21231
-203,-615,1.58636,3.92859,0,0,0,0,0,0,0,-1,1021,1639,1.58639,-3.92855
-196,-615,1.8009,3.77124,-0.0220302,-0.00878516,0.00599792,-0.00647276,-0.0243426,1.20282,0.0145586,0.0479154,1028,1639,1.80091,-3.77121
-189,-615,1.85852,3.67822,-0.0239401,-0.00212182,0.00636261,-0.000401942,-0.02566,1.3068,0.0169743,0.0476813,1035,1639,1.85851,-3.67827
-182,-615,2.05737,3.84851,-0.0255205,0.0055921,0.00602873,0.00671944,-0.0266479,1.38594,0.0203778,0.0444232,1042,1639,2.05733,-3.84851
-175,-615,2.24536,4.18372,-0.0272066,0.0133165,0.00566224,0.0140928,-0.0279829,1.43454,0.0247297,0.046771,1049,1639,2.24532,-4.18375
-168,-615,1.86194,4.29504,-0.028864,0.0217685,0.00496339,0.0222505,-0.029346,1.474,0.029883,0.0465915,1056,1639,1.86197,-4.295
-161,-615,1.43091,4.6261,-0.0292569,0.0312763,0.00472727,0.0316433,-0.0296239,1.49333,0.035379,0.044628,1063,1639,1.4309,-4.62608
-154,-615,1.00171,5.08374,0,0,0,0,0,0,0,-1,1070,1639,1.00167,-5.0838
-147,-615,0.305054,2.88452,0,0,0,0,0,0,0,-1,1077,1639,0.305068,-2.88449
-140,-615,-1.53894,4.05847,0,0,0,0,0,0,0,-1,1084,1639,-1.53897,-4.05849
-133,-615,2.46167,4.57251,0,0,0,0,0,0,0,-1,1091,1639,2.46163,-4.57257
-126,-615,2.29797,4.58264,0,0,0,0,0,0,0,-1,1098,1639,2.29802,-4.58259
-119,-615,2.1344,4.59265,0,0,0,0,0,0,0,-1,1105,1639,2.1344,-4.59261
-112,-615,2.06104,5.5282,0,0,0,0,0,0,0,-1,1112,1639,2.06109,-5.52816
-105,-615,2.42078,4.56934,0,0,0,0,0,0,0,-1,1119,1639,2.42078,-4.56938
-98,-615,2.78101,2.24207,0,0,0,0,0,0,0,-1,1126,1639,2.781,-2.24204
-91,-615,0.386719,0.906494,0,0,0,0,0,0,0,-1,1133,1639,0.386683,-0.906546
-84,-615,-0.148682,1.0282,-0.00552687,-0.176544,0.0144602,-0.00431281,-0.177758,0.0837618,0.117094,0.0444555,1140,1639,-0.148661,-1.02817
-77,-615,-0.411621,1.27563,-0.00812773,-0.185539,0.0148049,-0.00690075,-0.186766,0.0826876,0.122275,0.0405457,1147,1639,-0.411674,-1.27567
-70,-615,-0.317383,1.3772,-0.0104425,-0.199009,0.0120485,-0.00967581,-0.199775,0.0635511,0.130078,0.038902,1154,1639,-0.317411,-1.37715
-63,-615,-0.288574,1.33972,0.000980336,-0.211927,-0.000425258,0.000981182,-0.211928,-0.00199737,0.141613,0.04153,1161,1639,-0.288606,-1.33967
-56,-615,0,0,0,0,0,0,0,0,0,-1,1168,1639,0,0
-49,-615,0,0,0,0,0,0,0,0,0,-1,1175,1639,0,0
-42,-615,0,0,0,0,0,0,0,0,0,-1,1182,1639,0,0
-35,-615,0,0,0,0,0,0,0,0,0,-1,1189,1639,0,0
-28,-615,0,0,0,0,0,0,0,0,0,-1,1196,1639,0,0
-21,-615,0,0,0,0,0,0,0,0,0,-1,1203,1639,0,0
-14,-615,0,0,0,0,0,0,0,0,0,-1,1210,1639,0,0
-7,-615,0,0,0,0,0,0,0,0,0,-1,1217,1639,0,0
0,-615,0,0,0,0,0,0,0,0,0,-1,1224,1639,0,0
7,-615,0,0,0,0,0,0,0,0,0,-1,1231,1639,0,0
14,-615,0,0,0,0,0,0,0,0,0,-1,1238,1639,0,0
21,-615,0,0,0,0,0,0,0,0,0,-1,1245,1639,0,0
28,-615,0,0,0,0,0,0,0,0,0,-1,1252,1639,0,0
35,-615,0,0,0,0,0,0,0,0,0,-1,1259,1639,0,0
42,-615,0,0,0,0,0,0,0,0,0,-1,1266,1639,0,0
49,-615,0,0,0,0,0,0,0,0,0,-1,1273,1639,0,0
56,-615,0,0,0,0,0,0,0,0,0,-1,1280,1639,0,0
63,-615,0,0,0,0,0,0,0,0,0,-1,1287,1639,0,0
70,-615,0,0,0,0,0,0,0,0,0,-1,1294,1639,0,0
77,-615,0,0,0,0,0,0,0,0,0,-1,1301,1639,0,0
84,-615,0,0,0,0,0,0,0,0,0,-1,1308,1639,0,0
91,-615,0,0,0,0,0,0,0,0,0,-1,1315,1639,0,0
98,-615,0,0,0,0,0,0,0,0,0,-1,1322,1639,0,0
105,-615,0,0,0,0,0,0,0,0,0,-1,1329,1639,0,0
112,-615,0,0,0,0,0,0,0,0,0,-1,1336,1639,0,0
119,-615,0,0,0,0,0,0,0,0,0,-1,1343,1639,0,0
126,-615,0,0,0,0,0,0,0,0,0,-1,1350,1639,0,0
133,-615,0,0,0,0,0,0,0,0,0,-1,1357,1639,0,0
140,-615,0,0,0,0,0,0,0,0,0,-1,1364,1639,0,0
147,-615,0,0,0,0,0,0,0,0,0,-1,1371,1639,0,0
154,-615,0,0,0,0,0,0,0,0,0,-1,1378,1639,0,0
161,-615,0,0,0,0,0,0,0,0,0,-1,1385,1639,0,0
168,-615,0,0,0,0,0,0,0,0,0,-1,1392,1639,0,0
175,-615,5.39648,-2.00879,0,0,0,0,0,0,0,-1,1399,1639,5.3965,2.00881
182,-615,5.65393,-1.51025,0,0,0,0,0,0,0,-1,1406,1639,5.65388,1.51028
189,-615,5.58972,-1.35608,0,0,0,0,0,0,0,-1,1413,1639,5.58967,1.35607
196,-615,5.49915,-0.693604,0,0,0,0,0,0,0,-1,1420,1639,5.4991,0.693602
203,-615,5.33411,-0.226685,0,0,0,0,0,0,0,-1,1427,1639,5.33414,0.226689
210,-615,5.60278,0.108276,0,0,0,0,0,0,0,-1,1434,1639,5.60284,-0.10831
217,-615,6.26331,-0.307373,0,0,0,0,0,0,0,-1,1441,1639,6.26331,0.307372
224,-615,5.45422,-0.333984,0,0,0,0,0,0,0,-1,1448,1639,5.45422,0.333992
231,-615,4.92542,1.80298,0,0,0,0,0,0,0,-1,1455,1639,4.92537,-1.80297
238,-615,4.76355,1.96729,0,0,0,0,0,0,0,-1,1462,1639,4.76357,-1.96734
245,-615,9.18201,8.05457,0,0,0,0,0,0,0,-1,1469,1639,9.18196,-8.05452
252,-615,8.64771,7.31494,0,0,0,0,0,0,0,-1,1476,1639,8.64766,-7.31494
259,-615,8.28931,6.57556,0,0,0,0,0,0,0,-1,1483,1639,8.2893,-6.57553
266,-615,7.73022,6.22473,-0.0703095,0.0316715,-0.00206002,0.0317131,-0.0703511,-1.55061,0.0603179,0.043375,1490,1639,7.73023,-6.22478
273,-615,7.2926,5.87976,-0.0797621,0.0216687,-0.00555148,0.0219716,-0.0800651,-1.51628,0.0620119,0.0481127,1497,1639,7.29257,-5.87979
280,-615,6.79431,5.63123,-0.0832793,0.0130775,-0.00884335,0.0138824,-0.0840842,-1.48003,0.0612106,0.0476375,1504,1639,6.79437,-5.63119
287,-615,6.23511,5.33862,-0.0828685,0.00531989,-0.0122034,0.00697743,-0.084526,-1.4358,0.0588146,0.0458065,1511,1639,6.23506,-5.33858
294,-615,7.34985,6.51965,0,0,0,0,0,0,0,-1,1518,1639,7.34983,-6.5197
301,-615,6.45386,6.53113,0,0,0,0,0,0,0,-1,1525,1639,6.45389,-6.5311
308,-615,1.99329,3.43457,0,0,0,0,0,0,0,-1,1532,1639,1.99324,-3.43456
315,-615,1.47095,4.49036,0,0,0,0,0,0,0,-1,1539,1639,1.47098,-4.49037
322,-615,1.3363,4.57019,-0.0589119,-0.014051,-0.023103,-0.00428092,-0.068682,-1.17071,0.0444298,0.0425428,1546,1639,1.3363,-4.57018
329,-615,1.11255,4.47424,-0.0540802,-0.0134972,-0.0233761,-0.00283412,-0.0647433,-1.14284,0.0422492,0.0426915,1553,1639,1.11251,-4.47426
336,-615,0.735474,4.09509,-0.0479708,-0.0124747,-0.0235983,-0.000695238,-0.0597503,-1.10782,0.0396038,0.0470587,1560,1639,0.735526,-4.09504
343,-615,0.433716,3.81152,0,0,0,0,0,0,0,-1,1567,1639,0.433693,-3.81149
350,-615,2.48962,3.94141,0,0,0,0,0,0,0,-1,1574,1639,2.48959,-3.94135
357,-615,3.10583,5.25671,0,0,0,0,0,0,0,-1,1581,1639,3.10586,-5.25675
364,-615,3.13965,4.93274,-0.0262457,-0.00572759,-0.0179428,0.00468197,-0.0366553,-1.0451,0.0261377,0.0460687,1588,1639,3.13969,-4.93276
371,-615,3.08496,4.28015,-0.0223036,-0.00354885,-0.0159265,0.00555591,-0.0314084,-1.05147,0.0230155,0.0378031,1595,1639,3.08492,-4.2801
378,-615,3.078,4.18579,-0.0187053,-0.0018822,-0.0131777,0.00533973,-0.0259272,-1.06946,0.0193124,0.0193239,1602,1639,3.07801,-4.18582
385,-615,3.09521,4.14441,-0.0152185,-0.000869984,-0.0104602,0.0046398,-0.0207282,-1.08599,0.0155972,0.0108704,1609,1639,3.09518,-4.14446
392,-615,3.11267,4.11963,-0.0117438,0.000120944,-0.00731558,0.00360722,-0.01523,-1.12608,0.0115452,0.00900648,1616,1639,3.11271,-4.11963
399,-615,3.12146,4.07886,-0.00877242,0.000795809,-0.00542025,0.00324128,-0.0112179,-1.14697,0.00876121,0.0102203,1623,1639,3.12151,-4.07888
406,-615,3.11206,4.00781,-0.00589108,0.00131496,-0.00407864,0.00315409,-0.00773021,-1.14718,0.00646654,0.0101983,1630,1639,3.11207,-4.00781
413,-615,3.1239,3.96143,-0.00347269,0.00145513,-0.00302003,0.00288883,-0.0049064,-1.12757,0.00455055,0.0114035,1637,1639,3.1239,-3.96149
420,-615,3.13135,3.91492,-0.00164348,0.00132809,-0.00203107,0.00235881,-0.0026742,-1.10118,0.00290771,0.0128955,1644,1639,3.13132,-3.91493
427,-615,3.15942,3.85168,4.28199e-05,0.00146745,-0.00128352,0.00222306,-0.000712793,-1.03872,0.0017682,0.0146667,1651,1639,3.15945,-3.85166
434,-615,3.16138,3.81006,0.00159771,0.00158434,-0.000709851,0.0023009,0.000881138,-0.780689,0.00134051,0.0134198,1658,1639,3.16141,-3.81
441,-615,3.13403,3.75647,0.00231798,0.0017098,-0.000625156,0.00270908,0.0013187,-0.559034,0.00156427,0.0132288,1665,1639,3.13409,-3.75651
448,-615,3.12439,3.71082,0.00314155,0.00152666,-0.000869063,0.00352038,0.00114784,-0.411068,0.00207308,0.0140173,1672,1639,3.12441,-3.71084
455,-615,3.1272,3.66089,0.00443536,0.00143576,-0.00114193,0.00482061,0.00105052,-0.325375,0.00292709,0.0130571,1679,1639,3.1272,-3.66084
462,-615,3.11877,3.60303,0.00617741,0.00136995,-0.0016021,0.00666239,0.000884973,-0.293945,0.00417796,0.0132317,1686,1639,3.11877,-3.60303
469,-615,3.11438,3.54321,0.00815515,0.00139372,-0.00269068,0.0090952,0.000453669,-0.336116,0.00591804,0.0113777,1693,1639,3.11433,-3.54326
476,-615,3.11462,3.46838,0.0104321,0.00202752,-0.00444257,0.012345,0.000114605,-0.406594,0.00819204,0.0103499,1700,1639,3.11457,-3.46842
483,-615,3.13916,3.41113,0.0136629,0.00270386,-0.00620354,0.0164604,-9.36445e-05,-0.423645,0.011005,0.013595,1707,1639,3.13912,-3.41119
490,-615,3.14368,3.36438,0.0186874,0.0038857,-0.00950895,0.0233361,-0.000763049,-0.454713,0.0158179,0.01539,1714,1639,3.14373,-3.36444
497,-615,3.10046,3.31458,0.0246389,0.00544681,-0.0130144,0.0312125,-0.00112684,-0.467724,0.0211939,0.0224873,1721,1639,3.10044,-3.31461
504,-615,3.16943,3.23401,0.0325041,0.0082653,-0.0173495,0.041548,-0.000778556,-0.480523,0.0279618,0.0421483,1728,1639,3.16943,-3.23398
511,-615,3.59229,3.22583,0.0423837,0.0121786,-0.0218745,0.0538627,0.000699544,-0.483265,0.0356776,0.0495946,1735,1639,3.59228,-3.2258
518,-615,4.31213,2.9646,0.0552897,0.0163234,-0.0281678,0.0700559,0.00155723,-0.482837,0.0461936,0.0443514,1742,1639,4.31218,-2.96458
525,-615,4.59937,2.31409,0.0705318,0.0214584,-0.0358693,0.0894538,0.00253645,-0.485425,0.0588086,0.0388883,1749,1639,4.59932,-2.31414
532,-615,5.69055,2.53003,0,0,0,0,0,0,0,-1,1756,1639,5.69059,-2.53003
539,-615,6.18384,2.21069,0,0,0,0,0,0,0,-1,1763,1639,6.18382,-2.21072
546,-615,6.70483,1.83398,0,0,0,0,0,0,0,-1,1770,1639,6.70489,-1.83397
553,-615,6.93188,1.53552,0,0,0,0,0,0,0,-1,1777,1639,6.93191,-1.53547
560,-615,0,0,0,0,0,0,0,0,0,-1,1784,1639,0,0
567,-615,0,0,0,0,0,0,0,0,0,-1,1791,1639,0,0
574,-615,0,0,0,0,0,0,0,0,0,-1,1798,1639,0,0
581,-615,0,0,0,0,0,0,0,0,0,-1,1805,1639,0,0
588,-615,0,0,0,0,0,0,0,0,0,-1,1812,1639,0,0
595,-615,0,0,0,0,0,0,0,0,0,-1,1819,1639,0,0
602,-615,0,0,0,0,0,0,0,0,0,-1,1826,1639,0,0
609,-615,0,0,0,0,0,0,0,0,0,-1,1833,1639,0,0
616,-615,0,0,0,0,0,0,0,0,0,-1,1840,1639,0,0
623,-615,0,0,0,0,0,0,0,0,0,-1,1847,1639,0,0
630,-615,0,0,0,0,0,0,0,0,0,-1,1854,1639,0,0
637,-615,0,0,0,0,0,0,0,0,0,-1,1861,1639,0,0
644,-615,0,0,0,0,0,0,0,0,0,-1,1868,1639,0,0
651,-615,0,0,0,0,0,0,0,0,0,-1,1875,1639,0,0
658,-615,0,0,0,0,0,0,0,0,0,-1,1882,1639,0,0
665,-615,0,0,0,0,0,0,0,0,0,-1,1889,1639,0,0
672,-615,0,0,0,0,0,0,0,0,0,-1,1896,1639,0,0
679,-615,0,0,0,0,0,0,0,0,0,-1,1903,1639,0,0
686,-615,0,0,0,0,0,0,0,0,0,-1,1910,1639,0,0
693,-615,0,0,0,0,0,0,0,0,0,-1,1917,1639,0,0
700,-615,0,0,0,0,0,0,0,0,0,-1,1924,1639,0,0
707,-615,0,0,0,0,0,0,0,0,0,-1,1931,1639,0,0
714,-615,0,0,0,0,0,0,0,0,0,-1,1938,1639,0,0
721,-615,0,0,0,0,0,0,0,0,0,-1,1945,1639,0,0
728,-615,0,0,0,0,0,0,0,0,0,-1,1952,1639,0,0
735,-615,0,0,0,0,0,0,0,0,0,-1,1959,1639,0,0
742,-615,0,0,0,0,0,0,0,0,0,-1,1966,1639,0,0
749,-615,0,0,0,0,0,0,0,0,0,-1,1973,1639,0,0
756,-615,0,0,0,0,0,0,0,0,0,-1,1980,1639,0,0
763,-615,0,0,0,0,0,0,0,0,0,-1,1987,1639,0,0
770,-615,0,0,0,0,0,0,0,0,0,-1,1994,1639,0,0
777,-615,0,0,0,0,0,0,0,0,0,-1,2001,1639,0,0
784,-615,0,0,0,0,0,0,0,0,0,-1,2008,1639,0,0
791,-615,0,0,0,0,0,0,0,0,0,-1,2015,1639,0,0
798,-615,0,0,0,0,0,0,0,0,0,-1,2022,1639,0,0
805,-615,0,0,0,0,0,0,0,0,0,-1,2029,1639,0,0
812,-615,0,0,0,0,0,0,0,0,0,-1,2036,1639,0,0
-700,-622,0,0,0,0,0,0,0,0,0,-1,524,1646,0,0
-693,-622,0,0,0,0,0,0,0,0,0,-1,531,1646,0,0
-686,-622,0,0,0,0,0,0,0,0,0,-1,538,1646,0,0
-679,-622,0,0,0,0,0,0,0,0,0,-1,545,1646,0,0
-672,-622,0,0,0,0,0,0,0,0,0,-1,552,1646,0,0
-665,-622,0,0,0,0,0,0,0,0,0,-1,559,1646,0,0
-658,-622,0,0,0,0,0,0,0,0,0,-1,566,1646,0,0
-651,-622,0,0,0,0,0,0,0,0,0,-1,573,1646,0,0
-644,-622,0,0,0,0,0,0,0,0,0,-1,580,1646,0,0
-637,-622,0,0,0,0,0,0,0,0,0,-1,587,1646,0,0
-630,-622,0,0,0,0,0,0,0,0,0,-1,594,1646,0,0
-623,-622,0,0,0,0,0,0,0,0,0,-1,601,1646,0,0
-616,-622,0,0,0,0,0,0,0,0,0,-1,608,1646,0,0
-609,-622,0,0,0,0,0,0,0,0,0,-1,615,1646,0,0
-602,-622,0,0,0,0,0,0,0,0,0,-1,622,1646,0,0
-595,-622,0,0,0,0,0,0,0,0,0,-1,629,1646,0,0
-588,-622,0,0,0,0,0,0,0,0,0,-1,636,1646,0,0
-581,-622,0,0,0,0,0,0,0,0,0,-1,643,1646,0,0
-574,-622,0,0,0,0,0,0,0,0,0,-1,650,1646,0,0
-567,-622,0,0,0,0,0,0,0,0,0,-1,657,1646,0,0
-560,-622,0,0,0,0,0,0,0,0,0,-1,664,1646,0,0
-553,-622,0,0,0,0,0,0,0,0,0,-1,671,1646,0,0
-546,-622,0,0,0,0,0,0,0,0,0,-1,678,1646,0,0
-539,-622,0,0,0,0,0,0,0,0,0,-1,685,1646,0,0
-532,-622,0,0,0,0,0,0,0,0,0,-1,692,1646,0,0
-525,-622,0,0,0,0,0,0,0,0,0,-1,699,1646,0,0
-518,-622,0,0,0,0,0,0,0,0,0,-1,706,1646,0,0
-511,-622,0,0,0,0,0,0,0,0,0,-1,713,1646,0,0
-504,-622,0,0,0,0,0,0,0,0,0,-1,720,1646,0,0
-497,-622,0,0,0,0,0,0,0,0,0,-1,727,1646,0,0
-490,-622,0,0,0,0,0,0,0,0,0,-1,734,1646,0,0
-483,-622,0,0,0,0,0,0,0,0,0,-1,741,1646,0,0
-476,-622,0,0,0,0,0,0,0,0,0,-1,748,1646,0,0
-469,-622,0,0,0,0,0,0,0,0,0,-1,755,1646,0,0
-462,-622,0,0,0,0,0,0,0,0,0,-1,762,1646,0,0
-455,-622,0,0,0,0,0,0,0,0,0,-1,769,1646,0,0
-448,-622,0,0,0,0,0,0,0,0,0,-1,776,1646,0,0
-441,-622,0,0,0,0,0,0,0,0,0,-1,783,1646,0,0
-434,-622,0,0,0,0,0,0,0,0,0,-1,790,1646,0,0
-427,-622,-3.59259,3.40637,0,0,0,0,0,0,0,-1,797,1646,-3.59258,-3.40635
-420,-622,-3.09454,0.352173,0,0,0,0,0,0,0,-1,804,1646,-3.09453,-0.35214
-413,-622,-2.3205,0.0368652,0,0,0,0,0,0,0,-1,811,1646,-2.32048,-0.0368612
-406,-622,-1.17041,-0.13501,0,0,0,0,0,0,0,-1,818,1646,-1.17039,0.134957
-399,-622,-0.763428,0.0596924,0,0,0,0,0,0,0,-1,825,1646,-0.763407,-0.0597342
-392,-622,-0.356445,0.254395,0,0,0,0,0,0,0,-1,832,1646,-0.356427,-0.254425
-385,-622,2.37219,1.33923,0,0,0,0,0,0,0,-1,839,1646,2.37222,-1.33927
-378,-622,1.86664,2.68909,0,0,0,0,0,0,0,-1,846,1646,1.86662,-2.68904
-371,-622,2.02118,2.89734,0.0402194,0.0137972,-0.00597609,0.0415082,0.0125084,-0.212405,0.0245872,0.049046,853,1646,2.02121,-2.8973
-364,-622,2.18066,3.03979,0.0283448,0.00850498,-0.005867,0.0299499,0.00689986,-0.26705,0.0181102,0.0435614,860,1646,2.18065,-3.03979
-357,-622,1.80743,3.21875,0.0174511,0.00423703,-0.00573321,0.0195918,0.00209634,-0.357353,0.0124215,0.0436171,867,1646,1.80744,-3.2187
-350,-622,1.79767,3.32092,0.00997138,0.000686081,-0.00495762,0.0121208,-0.00146334,-0.409097,0.00860987,0.0366445,874,1646,1.79768,-3.32098
-343,-622,1.75507,3.34949,0.00571632,-0.00186201,-0.00383788,0.0073204,-0.00346609,-0.395893,0.00635873,0.0226009,881,1646,1.75508,-3.34947
-336,-622,1.80444,3.36475,0.000652032,-0.00276893,0.000331295,0.00068382,-0.00280072,0.0956581,0.00213196,0.00905842,888,1646,1.80443,-3.36474
-329,-622,1.8197,3.43359,-0.000495055,-0.00297501,-0.000182043,-0.000481763,-0.0029883,-0.0728853,0.00185261,0.00792136,895,1646,1.8197,-3.43355
-322,-622,1.82959,3.50879,0.000307994,-0.00253544,7.04765e-05,0.000309739,-0.00253718,0.0247655,0.00180359,0.00967609,902,1646,1.82957,-3.50881
-315,-622,1.83087,3.57703,0.000503515,-0.00235736,0.000402839,0.000559157,-0.002413,0.137255,0.00182385,0.0127887,909,1646,1.83087,-3.57703
-308,-622,1.83398,3.61255,0.000383053,-0.00198732,0.000530775,0.000496477,-0.00210075,0.210528,0.00159201,0.0126007,916,1646,1.834,-3.61258
-301,-622,1.83453,3.66431,0.000220252,-0.00173175,0.000223503,0.000245516,-0.00175702,0.112558,0.00126118,0.0125719,923,1646,1.83454,-3.66429
-294,-622,1.82495,3.7384,6.93642e-05,-0.00143729,-0.000251436,0.000110217,-0.00147814,-0.161071,0.00102414,0.00983171,930,1646,1.82496,-3.73836
-287,-622,1.82147,3.78613,-0.000351143,-0.00139152,-0.000913286,0.00017971,-0.00192237,-0.526523,0.00134549,0.00763594,937,1646,1.8215,-3.78615
-280,-622,1.82281,3.83533,-0.000874108,-0.00142137,-0.00174885,0.000622385,-0.00291786,-0.707795,0.00218249,0.00795676,944,1646,1.82282,-3.83529
-273,-622,1.82684,3.87292,-0.000982584,-0.00235622,-0.00250629,0.000929294,-0.0042681,-0.651663,0.00320046,0.0105277,951,1646,1.82682,-3.87293
-266,-622,1.83209,3.93457,-0.00170964,-0.00440987,-0.00345189,0.000646774,-0.00676628,-0.598982,0.00474117,0.0105222,958,1646,1.83208,-3.93455
-259,-622,1.86304,4.01892,-0.00341049,-0.00643681,-0.00369518,-0.000930655,-0.00891665,-0.591065,0.00565977,0.0112734,965,1646,1.86305,-4.01893
-252,-622,1.84943,4.05298,-0.00481566,-0.00871016,-0.00352879,-0.00273251,-0.0107933,-0.533279,0.00647969,0.0117602,972,1646,1.84941,-4.05294
-245,-622,1.84216,4.08704,-0.00598379,-0.0108762,-0.00268707,-0.00479623,-0.0120638,-0.416143,0.00701356,0.0084562,979,1646,1.84213,-4.08705
-238,-622,1.84064,4.13171,-0.00738671,-0.0125944,-0.00192001,-0.00675537,-0.0132258,-0.317686,0.00763648,0.0090834,986,1646,1.84063,-4.13174
-231,-622,1.84454,4.20129,-0.00876172,-0.0144807,-0.0011903,-0.00852387,-0.0147185,-0.197224,0.00853313,0.013298,993,1646,1.84455,-4.20127
-224,-622,1.94574,4.21277,0,0,0,0,0,0,0,-1,1000,1646,1.94575,-4.21274
-217,-622,1.92834,4.21326,-0.0119151,-0.0155635,0.000782146,-0.0117545,-0.0157241,0.202525,0.00944189,0.0288978,1007,1646,1.92832,-4.21332
-210,-622,1.98688,4.11755,-0.0136332,-0.0134413,0.0019263,-0.0116086,-0.015466,0.810288,0.00929557,0.044513,1014,1646,1.98687,-4.11761
-203,-622,1.6842,4.05334,-0.0151052,-0.0109252,0.0028528,-0.00947876,-0.0165516,1.10153,0.00958969,0.0488837,1021,1646,1.68423,-4.05336
-196,-622,1.84473,3.93201,-0.016748,-0.00679801,0.00342371,-0.00573376,-0.0178122,1.26942,0.0104991,0.0466227,1028,1646,1.8447,-3.93203
-189,-622,1.90015,3.88025,0,0,0,0,0,0,0,-1,1035,1646,1.90015,-3.8803
-182,-622,2.60645,3.92175,-0.0197674,0.00386984,0.00319608,0.00429437,-0.020192,1.43874,0.0150977,0.0478657,1042,1646,2.60646,-3.92174
-175,-622,2.47339,4.1521,-0.0211454,0.00956744,0.00276054,0.00981359,-0.0213915,1.48186,0.018425,0.047763,1049,1646,2.47333,-4.1521
-168,-622,2.14465,3.70715,-0.0226186,0.0160626,0.00202,0.0161678,-0.0227238,1.51876,0.0225602,0.0469563,1056,1646,2.1446,-3.70721
-161,-622,1.68604,3.87036,-0.0228136,0.0234939,0.00164206,0.0235521,-0.0228718,1.5354,0.0268038,0.0450479,1063,1646,1.68608,-3.87031
-154,-622,2.58203,5.19629,0,0,0,0,0,0,0,-1,1070,1646,2.58208,-5.19633
-147,-622,0.638428,3.38806,0,0,0,0,0,0,0,-1,1077,1646,0.638456,-3.38808
-140,-622,2.44775,4.1405,0,0,0,0,0,0,0,-1,1084,1646,2.44776,-4.14045
-133,-622,2.48157,4.39282,0,0,0,0,0,0,0,-1,1091,1646,2.48158,-4.39278
-126,-622,2.39722,4.375,0,0,0,0,0,0,0,-1,1098,1646,2.39727,-4.37502
-119,-622,2.20337,4.35974,0,0,0,0,0,0,0,-1,1105,1646,2.20332,-4.35979
-112,-622,1.98389,5.24365,0,0,0,0,0,0,0,-1,1112,1646,1.98394,-5.24365
-105,-622,2.55042,5.64331,0,0,0,0,0,0,0,-1,1119,1646,2.55044,-5.64329
-98,-622,2.51428,3.37927,0,0,0,0,0,0,0,-1,1126,1646,2.51427,-3.37926
-91,-622,0.480957,1.97424,0,0,0,0,0,0,0,-1,1133,1646,0.480984,-1.9742
-84,-622,-0.217407,2.15564,-0.0166367,-0.125887,0.0141074,-0.0148444,-0.127679,0.126368,0.0806282,0.0468262,1140,1646,-0.217455,-2.15562
-77,-622,-0.462891,2.67065,-0.0196886,-0.133488,0.0149373,-0.0177605,-0.135416,0.128364,0.0849779,0.0420772,1147,1646,-0.462914,-2.67068
-70,-622,-0.330322,2.65784,-0.0233908,-0.143032,0.0136694,-0.0218489,-0.144574,0.112324,0.0899881,0.0405272,1154,1646,-0.330303,-2.65782
-63,-622,-0.600098,2.86438,-0.0163537,-0.151366,0.00536319,-0.0161409,-0.151579,0.0396405,0.0961248,0.04611,1161,1646,-0.600117,-2.86433
-56,-622,-0.96521,2.90894,0,0,0,0,0,0,0,-1,1168,1646,-0.96521,-2.9089
-49,-622,-1.54907,3.01392,0,0,0,0,0,0,0,-1,1175,1646,-1.54906,-3.01389
-42,-622,-1.6355,3.26416,0,0,0,0,0,0,0,-1,1182,1646,-1.63553,-3.26414
-35,-622,-0.999634,0.728394,0,0,0,0,0,0,0,-1,1189,1646,-0.999666,-0.728349
-28,-622,-0.896606,0.678833,0,0,0,0,0,0,0,-1,1196,1646,-0.89661,-0.678835
-21,-622,6.98767,-1.52771,0,0,0,0,0,0,0,-1,1203,1646,6.98769,1.52765
-14,-622,0.580078,3.92847,0,0,0,0,0,0,0,-1,1210,1646,0.580122,-3.92841
-7,-622,1.9834,1.08704,0,0,0,0,0,0,0,-1,1217,1646,1.98339,-1.087
0,-622,0,0,0,0,0,0,0,0,0,-1,1224,1646,0,0
7,-622,0,0,0,0,0,0,0,0,0,-1,1231,1646,0,0
14,-622,0,0,0,0,0,0,0,0,0,-1,1238,1646,0,0
21,-622,0,0,0,0,0,0,0,0,0,-1,1245,1646,0,0
28,-622,0,0,0,0,0,0,0,0,0,-1,1252,1646,0,0
35,-622,0,0,0,0,0,0,0,0,0,-1,1259,1646,0,0
42,-622,0,0,0,0,0,0,0,0,0,-1,1266,1646,0,0
49,-622,0,0,0,0,0,0,0,0,0,-1,1273,1646,0,0
56,-622,0,0,0,0,0,0,0,0,0,-1,1280,1646,0,0
63,-622,0,0,0,0,0,0,0,0,0,-1,1287,1646,0,0
70,-622,0,0,0,0,0,0,0,0,0,-1,1294,1646,0,0
77,-622,0,0,0,0,0,0,0,0,0,-1,1301,1646,0,0
84,-622,0,0,0,0,0,0,0,0,0,-1,1308,1646,0,0
91,-622,0,0,0,0,0,0,0,0,0,-1,1315,1646,0,0
98,-622,0,0,0,0,0,0,0,0,0,-1,1322,1646,0,0
105,-622,0,0,0,0,0,0,0,0,0,-1,1329,1646,0,0
112,-622,0,0,0,0,0,0,0,0,0,-1,1336,1646,0,0
119,-622,0,0,0,0,0,0,0,0,0,-1,1343,1646,0,0
126,-622,2.2699,7.21826,0,0,0,0,0,0,0,-1,1350,1646,2.26988,-7.2182
133,-622,2.54053,8.65967,0,0,0,0,0,0,0,-1,1357,1646,2.54048,-8.65972
140,-622,2.36597,9.35083,0,0,0,0,0,0,0,-1,1364,1646,2.36594,-9.35078
147,-622,2.19141,10.0419,0,0,0,0,0,0,0,-1,1371,1646,2.1914,-10.0418
154,-622,4.87024,-6.44604,0,0,0,0,0,0,0,-1,1378,1646,4.8702,6.44604
161,-622,5.52917,-4.76782,0,0,0,0,0,0,0,-1,1385,1646,5.52921,4.76787
168,-622,5.35522,-2.3717,0,0,0,0,0,0,0,-1,1392,1646,5.35517,2.37167
175,-622,5.64355,-1.77075,0,0,0,0,0,0,0,-1,1399,1646,5.64351,1.77077
182,-622,5.88586,-1.32251,0,0,0,0,0,0,0,-1,1406,1646,5.88587,1.32256
189,-622,5.97986,-1.18005,0,0,0,0,0,0,0,-1,1413,1646,5.97986,1.18003
196,-622,5.85022,-0.244507,0,0,0,0,0,0,0,-1,1420,1646,5.85026,0.244478
203,-622,5.25159,0.138794,0,0,0,0,0,0,0,-1,1427,1646,5.25162,-0.138822
210,-622,6.66833,0.0397949,0,0,0,0,0,0,0,-1,1434,1646,6.6684,-0.0398278
217,-622,6.12061,0.0506592,0,0,0,0,0,0,0,-1,1441,1646,6.12058,-0.0507181
224,-622,5.57275,0.0616455,0,0,0,0,0,0,0,-1,1448,1646,5.57276,-0.0616084
231,-622,5.31348,1.3949,0,0,0,0,0,0,0,-1,1455,1646,5.31342,-1.39495
238,-622,5.20276,1.50024,0,0,0,0,0,0,0,-1,1462,1646,5.20277,-1.5002
245,-622,6.24951,1.05701,0,0,0,0,0,0,0,-1,1469,1646,6.24946,-1.05703
252,-622,7.96765,6.97473,0,0,0,0,0,0,0,-1,1476,1646,7.96771,-6.97479
259,-622,8.33813,6.36206,0,0,0,0,0,0,0,-1,1483,1646,8.33818,-6.36208
266,-622,7.52026,5.88428,-0.0664222,0.0291259,0.00264383,0.029199,-0.0664953,1.54315,0.0566306,0.0454845,1490,1646,7.52024,-5.88433
273,-622,7.12427,5.7301,-0.0722779,0.0241731,0.00102141,0.0241839,-0.0722887,1.56021,0.0579607,0.0454658,1497,1646,7.12425,-5.73014
280,-622,6.51978,5.69629,-0.0741081,0.0189804,-0.00129205,0.0189984,-0.074126,-1.55692,0.0568189,0.0463161,1504,1646,6.51982,-5.69627
287,-622,6.74451,6.4209,0,0,0,0,0,0,0,-1,1511,1646,6.74454,-6.42084
294,-622,6.3418,6.3844,-0.0691916,0.00767302,-0.00778147,0.00845287,-0.0699714,-1.47091,0.0497054,0.0466951,1518,1646,6.34175,-6.38435
301,-622,5.4248,6.37781,-0.0639919,0.00250052,-0.010977,0.0042658,-0.0657572,-1.41135,0.045327,0.0485077,1525,1646,5.42476,-6.3778
308,-622,3.99084,4.52368,0,0,0,0,0,0,0,-1,1532,1646,3.99082,-4.52368
315,-622,2.66833,5.51953,0,0,0,0,0,0,0,-1,1539,1646,2.66835,-5.51949
322,-622,1.96106,4.9906,0,0,0,0,0,0,0,-1,1546,1646,1.96111,-4.99065
329,-622,3.50623,4.5321,0,0,0,0,0,0,0,-1,1553,1646,3.50622,-4.53209
336,-622,2.68958,5.85718,-0.0369696,-0.00689994,-0.0187772,0.00211997,-0.0459895,-1.12298,0.0313902,0.0453498,1560,1646,2.68958,-5.85716
343,-622,2.37512,3.93225,-0.030868,-0.00657075,-0.0184993,0.00341236,-0.0408511,-1.07594,0.0284399,0.0474274,1567,1646,2.37509,-3.93231
350,-622,2.71167,4.11182,-0.0249997,-0.00607023,-0.0167993,0.00374711,-0.0348171,-1.04193,0.0245559,0.0421494,1574,1646,2.7117,-4.11181
357,-622,2.97974,4.38818,-0.0208794,-0.00612223,-0.0157802,0.00391927,-0.0309209,-1.00409,0.0220368,0.0364751,1581,1646,2.97976,-4.38818
364,-622,3.05334,4.32214,-0.018247,-0.00444006,-0.0146416,0.00484391,-0.027531,-1.00569,0.0201635,0.0317966,1588,1646,3.05334,-4.32215
371,-622,3.05298,4.2594,-0.0152209,-0.0029766,-0.0128025,0.00509227,-0.0232897,-1.00843,0.017473,0.0203359,1595,1646,3.053,-4.25936
378,-622,3.05408,4.20532,-0.0125968,-0.00179341,-0.0103887,0.00451401,-0.0189042,-1.02514,0.0143462,0.0106195,1602,1646,3.05408,-4.20535
385,-622,3.06348,4.1676,-0.0101531,-0.00107475,-0.00818464,0.00374515,-0.014973,-1.03858,0.0114367,0.00875315,1609,1646,3.06346,-4.16754
392,-622,3.06409,4.12671,-0.00768648,-0.000355737,-0.00554191,0.00262327,-0.0106655,-1.07757,0.00812711,0.0100856,1616,1646,3.06411,-4.12672
399,-622,3.0658,4.06958,-0.00559951,0.000201887,-0.00403854,0.0022735,-0.00767112,-1.09683,0.00601683,0.0111341,1623,1646,3.06574,-4.06958
406,-622,3.04895,3.99927,-0.00353896,0.000638819,-0.00304132,0.00223952,-0.00513966,-1.08632,0.00436867,0.0138622,1630,1646,3.04897,-3.99924
413,-622,3.06641,3.95471,-0.00180081,0.000826318,-0.00231753,0.00217666,-0.00315115,-1.04322,0.00309312,0.01482,1637,1646,3.06638,-3.95475
420,-622,3.08936,3.90247,-0.000470026,0.000794354,-0.00159165,0.00187477,-0.00155044,-0.97444,0.00198049,0.0146817,1644,1646,3.08936,-3.90248
427,-622,3.08691,3.84375,0.0010678,0.00103906,-0.00115963,0.00221315,-0.000106286,-0.779201,0.00151211,0.0122313,1651,1646,3.08693,-3.84375
434,-622,3.09351,3.81995,0.00259405,0.00134496,-0.000974365,0.00312685,0.000812165,-0.500397,0.00187347,0.0124255,1658,1646,3.09345,-3.81989
441,-622,3.0802,3.76196,0.00351402,0.00161388,-0.00114788,0.004054,0.0010739,-0.439703,0.00242529,0.0125077,1665,1646,3.08024,-3.76201
448,-622,3.05786,3.71179,0.00463415,0.00171204,-0.00161265,0.00534918,0.000997015,-0.417339,0.00328461,0.0122779,1672,1646,3.05786,-3.71185
455,-622,3.03638,3.63843,0.00631175,0.00180401,-0.00210602,0.00714256,0.000973203,-0.37575,0.00447274,0.0151829,1679,1646,3.03636,-3.63839
462,-622,3.05603,3.58582,0.00849403,0.0019375,-0.00284965,0.00955944,0.000872086,-0.357784,0.00610307,0.0165089,1686,1646,3.05598,-3.58579
469,-622,3.052,3.5304,0.010979,0.00218415,-0.00427447,0.0127141,0.000449001,-0.385611,0.00833045,0.0175337,1693,1646,3.05206,-3.53039
476,-622,3.05066,3.4729,0.0138491,0.00301354,-0.00643702,0.0168449,1.77985e-05,-0.435581,0.011224,0.0166041,1700,1646,3.05066,-3.47293
483,-622,3.10791,3.44775,0.0177038,0.003839,-0.00866557,0.0218687,-0.000325901,-0.448029,0.014689,0.0230652,1707,1646,3.10787,-3.44772
490,-622,3.11646,3.39111,0.0234406,0.00519493,-0.0125121,0.0298026,-0.00116703,-0.470396,0.0202686,0.0306026,1714,1646,3.11647,-3.3911
497,-622,3.18042,3.276,0.0303083,0.00700038,-0.0166605,0.0389863,-0.0016776,-0.480204,0.0265677,0.0398762,1721,1646,3.1804,-3.27595
504,-622,3.547,3.14673,0.0392879,0.0102491,-0.0216908,0.0508703,-0.00133333,-0.490458,0.0343666,0.0496222,1728,1646,3.54697,-3.14675
511,-622,3.80981,3.23328,0,0,0,0,0,0,0,-1,1735,1646,3.80979,-3.23333
518,-622,5.00623,2.60376,0,0,0,0,0,0,0,-1,1742,1646,5.0062,-2.60382
525,-622,5.42529,2.06372,0,0,0,0,0,0,0,-1,1749,1646,5.42525,-2.06373
532,-622,5.90161,1.5874,0,0,0,0,0,0,0,-1,1756,1646,5.90156,-1.58736
539,-622,7.14526,1.86401,0,0,0,0,0,0,0,-1,1763,1646,7.14528,-1.86401
546,-622,7.68579,1.55762,0,0,0,0,0,0,0,-1,1770,1646,7.68575,-1.55767
553,-622,0,0,0,0,0,0,0,0,0,-1,1777,1646,0,0
560,-622,0,0,0,0,0,0,0,0,0,-1,1784,1646,0,0
567,-622,0,0,0,0,0,0,0,0,0,-1,1791,1646,0,0
574,-622,0,0,0,0,0,0,0,0,0,-1,1798,1646,0,0
581,-622,0,0,0,0,0,0,0,0,0,-1,1805,1646,0,0
588,-622,0,0,0,0,0,0,0,0,0,-1,1812,1646,0,0
595,-622,0,0,0,0,0,0,0,0,0,-1,1819,1646,0,0
602,-622,0,0,0,0,0,0,0,0,0,-1,1826,1646,0,0
609,-622,0,0,0,0,0,0,0,0,0,-1,1833,1646,0,0
616,-622,0,0,0,0,0,0,0,0,0,-1,1840,1646,0,0
623,-622,0,0,0,0,0,0,0,0,0,-1,1847,1646,0,0
630,-622,0,0,0,0,0,0,0,0,0,-1,1854,1646,0,0
637,-622,0,0,0,0,0,0,0,0,0,-1,1861,1646,0,0
644,-622,0,0,0,0,0,0,0,0,0,-1,1868,1646,0,0
651,-622,0,0,0,0,0,0,0,0,0,-1,1875,1646,0,0
658,-622,0,0,0,0,0,0,0,0,0,-1,1882,1646,0,0
665,-622,0,0,0,0,0,0,0,0,0,-1,1889,1646,0,0
672,-622,0,0,0,0,0,0,0,0,0,-1,1896,1646,0,0
679,-622,0,0,0,0,0,0,0,0,0,-1,1903,1646,0,0
686,-622,0,0,0,0,0,0,0,0,0,-1,1910,1646,0,0
693,-622,0,0,0,0,0,0,0,0,0,-1,1917,1646,0,0
700,-622,0,0,0,0,0,0,0,0,0,-1,1924,1646,0,0
707,-622,0,0,0,0,0,0,0,0,0,-1,1931,1646,0,0
714,-622,0,0,0,0,0,0,0,0,0,-1,1938,1646,0,0
721,-622,0,0,0,0,0,0,0,0,0,-1,1945,1646,0,0
728,-622,0,0,0,0,0,0,0,0,0,-1,1952,1646,0,0
735,-622,0,0,0,0,0,0,0,0,0,-1,1959,1646,0,0
742,-622,0,0,0,0,0,0,0,0,0,-1,1966,1646,0,0
749,-622,0,0,0,0,0,0,0,0,0,-1,1973,1646,0,0
756,-622,0,0,0,0,0,0,0,0,0,-1,1980,1646,0,0
763,-622,0,0,0,0,0,0,0,0,0,-1,1987,1646,0,0
770,-622,0,0,0,0,0,0,0,0,0,-1,1994,1646,0,0
777,-622,0,0,0,0,0,0,0,0,0,-1,2001,1646,0,0
784,-622,0,0,0,0,0,0,0,0,0,-1,2008,1646,0,0
791,-622,0,0,0,0,0,0,0,0,0,-1,2015,1646,0,0
798,-622,0,0,0,0,0,0,0,0,0,-1,2022,1646,0,0
805,-622,0,0,0,0,0,0,0,0,0,-1,2029,1646,0,0
812,-622,0,0,0,0,0,0,0,0,0,-1,2036,1646,0,0
-700,-629,0,0,0,0,0,0,0,0,0,-1,524,1653,0,0
-693,-629,0,0,0,0,0,0,0,0,0,-1,531,1653,0,0
-686,-629,0,0,0,0,0,0,0,0,0,-1,538,1653,0,0
-679,-629,0,0,0,0,0,0,0,0,0,-1,545,1653,0,0
-672,-629,0,0,0,0,0,0,0,0,0,-1,552,1653,0,0
-665,-629,0,0,0,0,0,0,0,0,0,-1,559,1653,0,0
-658,-629,0,0,0,0,0,0,0,0,0,-1,566,1653,0,0
-651,-629,0,0,0,0,0,0,0,0,0,-1,573,1653,0,0
-644,-629,0,0,0,0,0,0,0,0,0,-1,580,1653,0,0
-637,-629,0,0,0,0,0,0,0,0,0,-1,587,1653,0,0
-630,-629,0,0,0,0,0,0,0,0,0,-1,594,1653,0,0
-623,-629,0,0,0,0,0,0,0,0,0,-1,601,1653,0,0
-616,-629,0,0,0,0,0,0,0,0,0,-1,608,1653,0,0
-609,-629,0,0,0,0,0,0,0,0,0,-1,615,1653,0,0
-602,-629,0,0,0,0,0,0,0,0,0,-1,622,1653,0,0
-595,-629,0,0,0,0,0,0,0,0,0,-1,629,1653,0,0
-588,-629,0,0,0,0,0,0,0,0,0,-1,636,1653,0,0
-581,-629,0,0,0,0,0,0,0,0,0,-1,643,1653,0,0
-574,-629,0,0,0,0,0,0,0,0,0,-1,650,1653,0,0
-567,-629,0,0,0,0,0,0,0,0,0,-1,657,1653,0,0
-560,-629,0,0,0,0,0,0,0,0,0,-1,664,1653,0,0
-553,-629,0,0,0,0,0,0,0,0,0,-1,671,1653,0,0
-546,-629,0,0,0,0,0,0,0,0,0,-1,678,1653,0,0
-539,-629,0,0,0,0,0,0,0,0,0,-1,685,1653,0,0
-532,-629,0,0,0,0,0,0,0,0,0,-1,692,1653,0,0
-525,-629,0,0,0,0,0,0,0,0,0,-1,699,1653,0,0
-518,-629,0,0,0,0,0,0,0,0,0,-1,706,1653,0,0
-511,-629,0,0,0,0,0,0,0,0,0,-1,713,1653,0,0
-504,-629,0,0,0,0,0,0,0,0,0,-1,720,1653,0,0
-497,-629,0,0,0,0,0,0,0,0,0,-1,727,1653,0,0
-490,-629,0,0,0,0,0,0,0,0,0,-1,734,1653,0,0
-483,-629,0,0,0,0,0,0,0,0,0,-1,741,1653,0,0
-476,-629,0,0,0,0,0,0,0,0,0,-1,748,1653,0,0
-469,-629,0,0,0,0,0,0,0,0,0,-1,755,1653,0,0
-462,-629,0,0,0,0,0,0,0,0,0,-1,762,1653,0,0
-455,-629,0,0,0,0,0,0,0,0,0,-1,769,1653,0,0
-448,-629,0,0,0,0,0,0,0,0,0,-1,776,1653,0,0
-441,-629,0,0,0,0,0,0,0,0,0,-1,783,1653,0,0
-434,-629,0,0,0,0,0,0,0,0,0,-1,790,1653,0,0
-427,-629,0,0,0,0,0,0,0,0,0,-1,797,1653,0,0
-420,-629,-3.97211,-0.273682,0,0,0,0,0,0,0,-1,804,1653,-3.97211,0.273702
-413,-629,-3.16479,-0.575073,0,0,0,0,0,0,0,-1,811,1653,-3.16479,0.57508
-406,-629,-2.31903,-0.747803,0,0,0,0,0,0,0,-1,818,1653,-2.31904,0.747758
-399,-629,-1.60101,-0.790527,0,0,0,0,0,0,0,-1,825,1653,-1.60098,0.790587
-392,-629,-0.740295,-0.996826,0.104232,0.0381536,-0.0103389,0.105812,0.0365737,-0.151637,0.0620533,0.0485011,832,1653,-0.740309,0.996792
-385,-629,2.99817,1.45349,0.0801854,0.0268837,-0.0118694,0.082709,0.0243601,-0.209498,0.0490777,0.0455766,839,1653,2.99819,-1.45344
-378,-629,2.74945,2.20947,0.0588678,0.0171996,-0.011417,0.061791,0.0142765,-0.250652,0.0373558,0.044975,846,1653,2.74943,-2.20949
-371,-629,2.43011,2.72131,0.0437574,0.010189,-0.0101266,0.0465757,0.00737073,-0.271436,0.0289085,0.0488487,853,1653,2.43009,-2.72137
-364,-629,2.60999,3.13599,0.0319592,0.00481541,-0.00913461,0.0347469,0.00202768,-0.296206,0.0225192,0.0471863,860,1653,2.60998,-3.13594
-357,-629,1.8584,3.20313,0,0,0,0,0,0,0,-1,867,1653,1.8584,-3.20313
-350,-629,2.14075,3.65991,0.0126103,-0.00342693,-0.00691926,0.0151829,-0.00599955,-0.355968,0.012607,0.040796,874,1653,2.14077,-3.65987
-343,-629,1.81195,3.42468,0.00834193,-0.00591029,-0.0054268,0.010173,-0.00774139,-0.325422,0.0103746,0.033132,881,1653,1.81198,-3.4247
-336,-629,1.84674,3.39136,0.00284512,-0.00670103,-0.000473428,0.00286854,-0.00672445,-0.0494319,0.0056857,0.0176354,888,1653,1.84673,-3.39135
-329,-629,1.88159,3.43359,0.0018118,-0.00658596,-0.001219,0.00198516,-0.00675932,-0.141274,0.00529351,0.0110551,895,1653,1.88161,-3.43361
-322,-629,1.89178,3.48926,0.00299977,-0.00562902,-0.000945041,0.00310206,-0.00573131,-0.107819,0.00517471,0.0119556,902,1653,1.89176,-3.48922
-315,-629,1.87823,3.55859,0.00338375,-0.00491335,-0.000457109,0.00340886,-0.00493846,-0.0548712,0.00484622,0.0155085,909,1653,1.87823,-3.55862
-308,-629,1.87061,3.61438,0.00334754,-0.00396552,-0.000113964,0.00334931,-0.00396729,-0.0155786,0.00422926,0.0117052,916,1653,1.87063,-3.61434
-301,-629,1.88751,3.69153,0.00313616,-0.00319601,-0.000174526,0.00314096,-0.00320081,-0.0275339,0.00366148,0.0107133,923,1653,1.8875,-3.69152
-294,-629,1.88171,3.74902,0.00283956,-0.00247279,-0.000344747,0.00286184,-0.00249507,-0.0645346,0.00309523,0.0116749,930,1653,1.88174,-3.74901
-287,-629,1.88055,3.78992,0.00230966,-0.00198873,-0.000687693,0.002417,-0.00209607,-0.154841,0.00260782,0.00892497,937,1653,1.88056,-3.78991
-280,-629,1.88538,3.84888,0.00163585,-0.00161402,-0.00114854,0.00200078,-0.00197895,-0.307644,0.00229771,0.0091498,944,1653,1.88536,-3.84891
-273,-629,1.89948,3.8772,0.0012881,-0.00196082,-0.00158501,0.00193325,-0.00260597,-0.386553,0.00263029,0.0114442,951,1653,1.89947,-3.87719
-266,-629,1.8988,3.93298,0.000467095,-0.00322601,-0.00221564,0.00150478,-0.00426369,-0.438005,0.00345507,0.0118002,958,1653,1.89883,-3.93294
-259,-629,1.89276,4.00928,-0.000967735,-0.00467393,-0.00235889,0.000178891,-0.00582056,-0.452455,0.00394135,0.0135953,965,1653,1.89274,-4.00928
-252,-629,1.88281,4.0426,-0.00195073,-0.00639765,-0.00241146,-0.000894106,-0.00745427,-0.412969,0.00469991,0.0107075,972,1653,1.88284,-4.04256
-245,-629,1.88196,4.08435,-0.00280943,-0.00809475,-0.00194631,-0.00217005,-0.00873413,-0.317401,0.00525106,0.00813088,979,1653,1.88198,-4.08435
-238,-629,1.88715,4.14417,-0.00383939,-0.00944719,-0.00147965,-0.00347292,-0.00981366,-0.242786,0.00574599,0.0104829,986,1653,1.88716,-4.14413
-231,-629,1.9046,4.21216,-0.00482298,-0.0109451,-0.0010953,-0.00463292,-0.0111351,-0.171811,0.00645899,0.0103977,993,1653,1.90463,-4.2121
-224,-629,1.92084,4.26221,-0.00593163,-0.012176,-0.000607025,-0.00587317,-0.0122345,-0.0960136,0.00706545,0.00893742,1000,1653,1.92086,-4.26223
-217,-629,1.9165,4.28503,-0.00731567,-0.0119877,-6.41952e-05,-0.00731478,-0.0119886,-0.013737,0.00697735,0.0114834,1007,1653,1.91649,-4.285
-210,-629,1.90265,4.25208,-0.00882905,-0.0101748,0.000565417,-0.00862303,-0.0103808,0.349418,0.00641539,0.0247233,1014,1653,1.90264,-4.25204
-203,-629,1.81744,4.20117,-0.0100948,-0.0082607,0.00101405,-0.00781053,-0.0105449,1.153,0.00631888,0.0377932,1021,1653,1.81743,-4.20119
-196,-629,1.84216,4.23108,-0.0114694,-0.00514736,0.00131782,-0.00488365,-0.0117331,1.3733,0.00680571,0.0393561,1028,1653,1.84214,-4.23102
-189,-629,1.86206,4.28931,0,0,0,0,0,0,0,-1,1035,1653,1.86203,-4.28935
-182,-629,2.07178,4.20178,0,0,0,0,0,0,0,-1,1042,1653,2.07177,-4.20174
-175,-629,2.0094,3.99341,0,0,0,0,0,0,0,-1,1049,1653,2.00934,-3.99346
-168,-629,2.53418,3.11218,0,0,0,0,0,0,0,-1,1056,1653,2.53413,-3.1122
-161,-629,3.08081,4.93506,0,0,0,0,0,0,0,-1,1063,1653,3.08078,-4.93503
-154,-629,2.46765,4.89587,0,0,0,0,0,0,0,-1,1070,1653,2.4677,-4.89591
-147,-629,1.85461,4.85681,0,0,0,0,0,0,0,-1,1077,1653,1.85463,-4.85678
-140,-629,2.45898,4.20007,0,0,0,0,0,0,0,-1,1084,1653,2.45895,-4.20006
-133,-629,2.52368,4.06921,0,0,0,0,0,0,0,-1,1091,1653,2.52363,-4.06918
-126,-629,2.35767,4.15979,0,0,0,0,0,0,0,-1,1098,1653,2.35762,-4.15985
-119,-629,2.14685,4.08545,0,0,0,0,0,0,0,-1,1105,1653,2.14683,-4.0855
-112,-629,2.17603,4.49939,0,0,0,0,0,0,0,-1,1112,1653,2.17601,-4.4994
-105,-629,3.67065,6.44324,0,0,0,0,0,0,0,-1,1119,1653,3.67068,-6.44328
-98,-629,2.552,10.3246,0,0,0,0,0,0,0,-1,1126,1653,2.55195,-10.3246
-91,-629,0.273315,3.47656,0,0,0,0,0,0,0,-1,1133,1653,0.273292,-3.47653
-84,-629,-0.292114,3.28735,-0.022142,-0.0919183,0.0130863,-0.0197684,-0.0942918,0.179427,0.0574175,0.0463092,1140,1653,-0.29209,-3.28737
-77,-629,-1.09985,3.46643,-0.0256514,-0.0985253,0.0138312,-0.0231146,-0.101062,0.181396,0.061144,0.0445708,1147,1653,-1.09982,-3.46645
-70,-629,-0.335449,4.10095,-0.0301589,-0.10628,0.0128628,-0.0280441,-0.108395,0.162954,0.064965,0.0471179,1154,1653,-0.335414,-4.10092
-63,-629,-0.31958,4.02539,-0.0234651,-0.111755,0.00566891,-0.0231026,-0.112117,0.0638586,0.0683579,0.0484552,1161,1653,-0.319561,-4.02545
-56,-629,-0.5,4.16882,-0.00831888,-0.117403,-0.0056393,-0.00802812,-0.117694,-0.0515138,0.0759279,0.0494475,1168,1653,-0.499944,-4.16881
-49,-629,-0.948853,4.32947,0.0106022,-0.121015,-0.0197122,0.0134911,-0.123904,-0.145517,0.0874471,0.0493821,1175,1653,-0.948796,-4.32944
-42,-629,-1.13171,4.50195,0.0326389,-0.118914,-0.0372325,0.0412918,-0.127567,-0.228351,0.101644,0.0481379,1182,1653,-1.13167,-4.50196
-35,-629,-1.44775,4.74292,0,0,0,0,0,0,0,-1,1189,1653,-1.44773,-4.74287
-28,-629,-0.402954,-0.866577,0,0,0,0,0,0,0,-1,1196,1653,-0.402943,0.866612
-21,-629,-0.609497,4.69055,0,0,0,0,0,0,0,-1,1203,1653,-0.609495,-4.69055
-14,-629,0.956909,4.04309,0.0964298,-0.0846452,-0.12561,0.16073,-0.148946,-0.473129,0.178835,0.0461742,1210,1653,0.956914,-4.04315
-7,-629,2.28613,2.00195,0.109631,-0.0703389,-0.151405,0.195773,-0.156481,-0.517277,0.203795,0.0460277,1217,1653,2.28612,-2.00195
0,-629,2.91077,0.953491,0,0,0,0,0,0,0,-1,1224,1653,2.91082,-0.953538
7,-629,3.42554,-0.145508,0.122537,-0.03655,-0.189455,0.24847,-0.162483,-0.586647,0.238988,0.0453657,1231,1653,3.42548,0.145452
14,-629,3.62329,-2.29871,0.117499,-0.0204101,-0.206998,0.266726,-0.169637,-0.624621,0.254004,0.0437093,1238,1653,3.62325,2.29867
21,-629,3.78638,-4.38013,0,0,0,0,0,0,0,-1,1245,1653,3.78641,4.38015
28,-629,3.9563,-6.91748,0.0697038,0.0150074,-0.228185,0.272174,-0.187462,-0.725757,0.266869,0.0467269,1252,1653,3.9563,6.91753
35,-629,3.89246,-9.5354,0.0434402,0.0349729,-0.230893,0.270138,-0.191725,-0.776231,0.267935,0.0456788,1259,1653,3.89245,9.53541
42,-629,3.89722,-12.1287,0.0145762,0.0536411,-0.231718,0.266648,-0.198431,-0.827446,0.269475,0.0497759,1266,1653,3.89717,12.1287
49,-629,3.89624,-14.6174,-0.0119346,0.0742862,-0.231326,0.266485,-0.204133,-0.877522,0.272505,0.0484598,1273,1653,3.89622,14.6174
56,-629,-6.84766,4.44629,0,0,0,0,0,0,0,-1,1280,1653,-6.84766,-4.44625
63,-629,-7.63049,4.16296,0,0,0,0,0,0,0,-1,1287,1653,-7.63044,-4.16293
70,-629,-8.34619,3.9563,0,0,0,0,0,0,0,-1,1294,1653,-8.34615,-3.95629
77,-629,-9.18835,3.50916,-0.10646,0.140336,-0.210652,0.261071,-0.227196,-1.05035,0.282127,0.0469202,1301,1653,-9.18841,-3.50914
84,-629,-10.283,3.04614,-0.125665,0.150284,-0.202997,0.257758,-0.233138,-1.08388,0.283538,0.0429992,1308,1653,-10.283,-3.0462
91,-629,-11.2738,2.57166,-0.141271,0.16239,-0.19847,0.260445,-0.239326,-1.11191,0.288629,0.0432244,1315,1653,-11.2738,-2.57165
98,-629,-12.1417,2.06616,0,0,0,0,0,0,0,-1,1322,1653,-12.1417,-2.06612
105,-629,-13.1174,1.84851,0,0,0,0,0,0,0,-1,1329,1653,-13.1174,-1.8485
112,-629,5.12378,3.47156,0,0,0,0,0,0,0,-1,1336,1653,5.12384,-3.47157
119,-629,3.2168,6.41772,0,0,0,0,0,0,0,-1,1343,1653,3.21674,-6.41769
126,-629,2.89807,7.06958,0,0,0,0,0,0,0,-1,1350,1653,2.89803,-7.06955
133,-629,2.54224,7.72571,0,0,0,0,0,0,0,-1,1357,1653,2.54228,-7.72571
140,-629,2.24841,8.48584,0,0,0,0,0,0,0,-1,1364,1653,2.24843,-8.48585
147,-629,2.12488,9.05139,0,0,0,0,0,0,0,-1,1371,1653,2.12488,-9.05142
154,-629,5.25244,-5.31982,0,0,0,0,0,0,0,-1,1378,1653,5.25245,5.31988
161,-629,5.77649,-4.09204,0,0,0,0,0,0,0,-1,1385,1653,5.77645,4.09201
168,-629,5.96057,-3.01025,0,0,0,0,0,0,0,-1,1392,1653,5.96058,3.0103
175,-629,5.84485,-1.78845,0,0,0,0,0,0,0,-1,1399,1653,5.84479,1.7884
182,-629,5.99036,-1.27783,0,0,0,0,0,0,0,-1,1406,1653,5.99041,1.27778
189,-629,5.97668,-0.748535,0,0,0,0,0,0,0,-1,1413,1653,5.97671,0.748544
196,-629,4.52869,9.24695,0,0,0,0,0,0,0,-1,1420,1653,4.52869,-9.2469
203,-629,3.56726,7.48438,0,0,0,0,0,0,0,-1,1427,1653,3.56726,-7.48432
210,-629,6.45081,0.347656,0,0,0,0,0,0,0,-1,1434,1653,6.45082,-0.347647
217,-629,5.9751,0.400391,0,0,0,0,0,0,0,-1,1441,1653,5.97512,-0.400335
224,-629,5.48218,0.398926,0,0,0,0,0,0,0,-1,1448,1653,5.48218,-0.398977
231,-629,5.14563,0.536011,0,0,0,0,0,0,0,-1,1455,1653,5.14565,-0.536071
238,-629,5.77026,0.836182,0,0,0,0,0,0,0,-1,1462,1653,5.77022,-0.836193
245,-629,6.73889,0.99939,0,0,0,0,0,0,0,-1,1469,1653,6.73886,-0.999442
252,-629,9.13977,5.99451,0,0,0,0,0,0,0,-1,1476,1653,9.13982,-5.99453
259,-629,8.48352,5.69666,0,0,0,0,0,0,0,-1,1483,1653,8.48352,-5.69668
266,-629,7.81653,5.46802,-0.0606569,0.0271611,0.00639116,0.0276238,-0.0611196,1.49853,0.0524385,0.0473918,1490,1653,7.81648,-5.46802
273,-629,7.26855,5.4928,-0.0641227,0.0246684,0.00549862,0.0250076,-0.0644619,1.50918,0.0533032,0.0458587,1497,1653,7.26858,-5.49274
280,-629,6.46643,5.66956,-0.0647538,0.0216596,0.00377437,0.0218241,-0.0649183,1.52723,0.0521002,0.0464084,1504,1653,6.46645,-5.66957
287,-629,5.92249,6.02563,-0.0629383,0.0177807,0.00133888,0.0178029,-0.0629606,1.55422,0.0489982,0.0482989,1511,1653,5.92254,-6.02558
294,-629,5.44067,6.15674,-0.0591524,0.0133083,-0.00179015,0.0133525,-0.0591966,-1.54611,0.0445868,0.049069,1518,1653,5.44069,-6.15678
301,-629,3.23267,4.01978,-0.0540347,0.00885999,-0.00486509,0.00923409,-0.0544088,-1.49405,0.0397101,0.0481696,1525,1653,3.23263,-4.01982
308,-629,3.61426,4.52185,-0.0485356,0.00485515,-0.00764665,0.00592872,-0.0496091,-1.43131,0.0352157,0.0478301,1532,1653,3.6143,-4.5219
315,-629,2.9845,5.09827,-0.0427109,0.00219103,-0.0100491,0.00433743,-0.0448573,-1.36037,0.0314505,0.0477325,1539,1653,2.98452,-5.09831
322,-629,2.55957,4.85059,-0.03798,-0.000452139,-0.0118635,0.00298366,-0.0414158,-1.2889,0.0286569,0.0444312,1546,1653,2.55954,-4.85062
329,-629,3.27527,4.53223,-0.0330709,-0.00185706,-0.0132202,0.0029896,-0.0379176,-1.2194,0.0263316,0.0399898,1553,1653,3.27521,-4.53227
336,-629,2.84717,5.07764,-0.0277391,-0.00273655,-0.01435,0.0037938,-0.0342695,-1.14373,0.0242102,0.0384744,1560,1653,2.84717,-5.07758
343,-629,2.84753,4.34778,-0.022461,-0.00322407,-0.014545,0.00459509,-0.0302802,-1.07753,0.0218799,0.0373705,1567,1653,2.84755,-4.34778
350,-629,2.95581,4.3363,-0.0174635,-0.00347879,-0.0133588,0.00460698,-0.0255492,-1.0265,0.018758,0.0250937,1574,1653,2.95576,-4.33635
357,-629,3.00696,4.34631,-0.0140898,-0.00407658,-0.0125001,0.00438229,-0.0225487,-0.975878,0.0166862,0.0155634,1581,1653,3.0069,-4.34628
364,-629,3.00879,4.2981,-0.0121432,-0.00289461,-0.0115276,0.00490158,-0.0199394,-0.976148,0.0151927,0.0131735,1588,1653,3.00877,-4.29814
371,-629,3.02258,4.2406,-0.00989491,-0.00196074,-0.00995727,0.00479061,-0.0166463,-0.974966,0.0129922,0.0103776,1595,1653,3.0226,-4.24065
378,-629,3.01294,4.18921,-0.00805302,-0.00114702,-0.00793785,0.00405635,-0.0132564,-0.990555,0.0104554,0.00920347,1602,1653,3.013,-4.18925
385,-629,3.01245,4.15698,-0.00638247,-0.000661312,-0.00622769,0.00333136,-0.0103751,-1.00069,0.00825442,0.0108008,1609,1653,3.01248,-4.15699
392,-629,3.01794,4.12109,-0.00466397,-0.000187875,-0.00409802,0.00224341,-0.00709526,-1.03533,0.00562901,0.00974767,1616,1653,3.01798,-4.12104
399,-629,3.0155,4.06799,-0.0032003,0.000220949,-0.00295275,0.0019228,-0.00490215,-1.04794,0.00406361,0.0115673,1623,1653,3.01545,-4.06803
406,-629,3.0072,4.00452,-0.00174475,0.000533468,-0.00225819,0.00192358,-0.00313487,-1.01899,0.00294827,0.0146019,1630,1653,3.00716,-4.00452
413,-629,3.00842,3.95862,-0.000490671,0.000707942,-0.00182418,0.00202874,-0.00181147,-0.944111,0.00221833,0.0221622,1637,1653,3.00844,-3.9586
420,-629,3.01794,3.90173,0.000500551,0.000712428,-0.00132437,0.00193509,-0.000722107,-0.825309,0.00158652,0.0202829,1644,1653,3.01791,-3.90171
427,-629,3.021,3.8468,0.00208777,0.00102261,-0.00115914,0.00283083,0.000279555,-0.57005,0.00180128,0.0125321,1651,1653,3.02102,-3.84682
434,-629,3.01697,3.8175,0.00378467,0.00146926,-0.00133252,0.00439216,0.000861775,-0.427742,0.00268731,0.00972889,1658,1653,3.01697,-3.81745
441,-629,3.02148,3.77454,0.00507994,0.00184485,-0.00173485,0.00583434,0.00109044,-0.410187,0.00358184,0.0123719,1665,1653,3.02152,-3.77454
448,-629,2.99365,3.69629,0.00672266,0.00218059,-0.00237253,0.00773591,0.00116734,-0.403626,0.00481556,0.0126758,1672,1653,2.99365,-3.6963
455,-629,2.99451,3.63721,0.0089832,0.00252106,-0.00307582,0.0102131,0.00129113,-0.380394,0.00642179,0.0135346,1679,1653,2.99447,-3.6372
462,-629,3.01965,3.6001,0.0118361,0.00295034,-0.00409543,0.0134357,0.00135072,-0.372365,0.00854255,0.0169665,1686,1653,3.01968,-3.60008
469,-629,3.00586,3.50952,0.0150869,0.00341652,-0.00585847,0.0175204,0.000983022,-0.393695,0.0113668,0.019984,1693,1653,3.00584,-3.50954
476,-629,3.04797,3.47656,0.018829,0.00453228,-0.00841594,0.0227227,0.000638565,-0.433331,0.0149401,0.0255191,1700,1653,3.04797,-3.4766
483,-629,3.22095,3.52869,0.0235142,0.00558068,-0.0111174,0.0288302,0.000264608,-0.446037,0.0191326,0.0371667,1707,1653,3.2209,-3.52872
490,-629,3.34912,3.46399,0.0301108,0.00716374,-0.0155059,0.0379265,-0.000652006,-0.466881,0.0255045,0.042701,1714,1653,3.34911,-3.46397
497,-629,3.28284,3.25391,0.0380297,0.00925976,-0.0203442,0.0485609,-0.00127142,-0.477667,0.032806,0.0436743,1721,1653,3.28286,-3.25385
504,-629,3.37769,3.25452,0.0481737,0.0129913,-0.0261092,0.0620649,-0.000899833,-0.488951,0.0416798,0.049645,1728,1653,3.37769,-3.25456
511,-629,3.52026,3.10474,0,0,0,0,0,0,0,-1,1735,1653,3.52024,-3.10469
518,-629,2.38879,-4.01062,0,0,0,0,0,0,0,-1,1742,1653,2.38884,4.01068
525,-629,6.33276,1.58765,0,0,0,0,0,0,0,-1,1749,1653,6.33276,-1.58769
532,-629,3.03345,-2.44849,0,0,0,0,0,0,0,-1,1756,1653,3.03347,2.44853
539,-629,8.04895,1.5509,0,0,0,0,0,0,0,-1,1763,1653,8.04898,-1.55092
546,-629,0,0,0,0,0,0,0,0,0,-1,1770,1653,0,0
553,-629,0,0,0,0,0,0,0,0,0,-1,1777,1653,0,0
560,-629,0,0,0,0,0,0,0,0,0,-1,1784,1653,0,0
567,-629,0,0,0,0,0,0,0,0,0,-1,1791,1653,0,0
574,-629,0,0,0,0,0,0,0,0,0,-1,1798,1653,0,0
581,-629,0,0,0,0,0,0,0,0,0,-1,1805,1653,0,0
588,-629,0,0,0,0,0,0,0,0,0,-1,1812,1653,0,0
595,-629,0,0,0,0,0,0,0,0,0,-1,1819,1653,0,0
602,-629,0,0,0,0,0,0,0,0,0,-1,1826,1653,0,0
609,-629,0,0,0,0,0,0,0,0,0,-1,1833,1653,0,0
616,-629,0,0,0,0,0,0,0,0,0,-1,1840,1653,0,0
623,-629,0,0,0,0,0,0,0,0,0,-1,1847,1653,0,0
630,-629,0,0,0,0,0,0,0,0,0,-1,1854,1653,0,0
637,-629,0,0,0,0,0,0,0,0,0,-1,1861,1653,0,0
644,-629,0,0,0,0,0,0,0,0,0,-1,1868,1653,0,0
651,-629,0,0,0,0,0,0,0,0,0,-1,1875,1653,0,0
658,-629,0,0,0,0,0,0,0,0,0,-1,1882,1653,0,0
665,-629,0,0,0,0,0,0,0,0,0,-1,1889,1653,0,0
672,-629,0,0,0,0,0,0,0,0,0,-1,1896,1653,0,0
679,-629,0,0,0,0,0,0,0,0,0,-1,1903,1653,0,0
686,-629,0,0,0,0,0,0,0,0,0,-1,1910,1653,0,0
693,-629,0,0,0,0,0,0,0,0,0,-1,1917,1653,0,0
700,-629,0,0,0,0,0,0,0,0,0,-1,1924,1653,0,0
707,-629,0,0,0,0,0,0,0,0,0,-1,1931,1653,0,0
714,-629,0,0,0,0,0,0,0,0,0,-1,1938,1653,0,0
721,-629,0,0,0,0,0,0,0,0,0,-1,1945,1653,0,0
728,-629,0,0,0,0,0,0,0,0,0,-1,1952,1653,0,0
735,-629,0,0,0,0,0,0,0,0,0,-1,1959,1653,0,0
742,-629,0,0,0,0,0,0,0,0,0,-1,1966,1653,0,0
749,-629,0,0,0,0,0,0,0,0,0,-1,1973,1653,0,0
756,-629,0,0,0,0,0,0,0,0,0,-1,1980,1653,0,0
763,-629,0,0,0,0,0,0,0,0,0,-1,1987,1653,0,0
770,-629,0,0,0,0,0,0,0,0,0,-1,1994,1653,0,0
777,-629,0,0,0,0,0,0,0,0,0,-1,2001,1653,0,0
784,-629,0,0,0,0,0,0,0,0,0,-1,2008,1653,0,0
791,-629,0,0,0,0,0,0,0,0,0,-1,2015,1653,0,0
798,-629,0,0,0,0,0,0,0,0,0,-1,2022,1653,0,0
805,-629,0,0,0,0,0,0,0,0,0,-1,2029,1653,0,0
812,-629,0,0,0,0,0,0,0,0,0,-1,2036,1653,0,0
-700,-636,0,0,0,0,0,0,0,0,0,-1,524,1660,0,0
-693,-636,0,0,0,0,0,0,0,0,0,-1,531,1660,0,0
-686,-636,0,0,0,0,0,0,0,0,0,-1,538,1660,0,0
-679,-636,0,0,0,0,0,0,0,0,0,-1,545,1660,0,0
-672,-636,0,0,0,0,0,0,0,0,0,-1,552,1660,0,0
-665,-636,0,0,0,0,0,0,0,0,0,-1,559,1660,0,0
-658,-636,0,0,0,0,0,0,0,0,0,-1,566,1660,0,0
-651,-636,0,0,0,0,0,0,0,0,0,-1,573,1660,0,0
-644,-636,0,0,0,0,0,0,0,0,0,-1,580,1660,0,0
-637,-636,0,0,0,0,0,0,0,0,0,-1,587,1660,0,0
-630,-636,0,0,0,0,0,0,0,0,0,-1,594,1660,0,0
-623,-636,0,0,0,0,0,0,0,0,0,-1,601,1660,0,0
-616,-636,0,0,0,0,0,0,0,0,0,-1,608,1660,0,0
-609,-636,0,0,0,0,0,0,0,0,0,-1,615,1660,0,0
-602,-636,0,0,0,0,0,0,0,0,0,-1,622,1660,0,0
-595,-636,0,0,0,0,0,0,0,0,0,-1,629,1660,0,0
-588,-636,0,0,0,0,0,0,0,0,0,-1,636,1660,0,0
-581,-636,0,0,0,0,0,0,0,0,0,-1,643,1660,0,0
-574,-636,0,0,0,0,0,0,0,0,0,-1,650,1660,0,0
-567,-636,0,0,0,0,0,0,0,0,0,-1,657,1660,0,0
-560,-636,0,0,0,0,0,0,0,0,0,-1,664,1660,0,0
-553,-636,0,0,0,0,0,0,0,0,0,-1,671,1660,0,0
-546,-636,0,0,0,0,0,0,0,0,0,-1,678,1660,0,0
-539,-636,0,0,0,0,0,0,0,0,0,-1,685,1660,0,0
-532,-636,0,0,0,0,0,0,0,0,0,-1,692,1660,0,0
-525,-636,0,0,0,0,0,0,0,0,0,-1,699,1660,0,0
-518,-636,0,0,0,0,0,0,0,0,0,-1,706,1660,0,0
-511,-636,0,0,0,0,0,0,0,0,0,-1,713,1660,0,0
-504,-636,0,0,0,0,0,0,0,0,0,-1,720,1660,0,0
-497,-636,0,0,0,0,0,0,0,0,0,-1,727,1660,0,0
-490,-636,0,0,0,0,0,0,0,0,0,-1,734,1660,0,0
-483,-636,0,0,0,0,0,0,0,0,0,-1,741,1660,0,0
-476,-636,0,0,0,0,0,0,0,0,0,-1,748,1660,0,0
-469,-636,0,0,0,0,0,0,0,0,0,-1,755,1660,0,0
-462,-636,0,0,0,0,0,0,0,0,0,-1,762,1660,0,0
-455,-636,0,0,0,0,0,0,0,0,0,-1,769,1660,0,0
-448,-636,0,0,0,0,0,0,0,0,0,-1,776,1660,0,0
-441,-636,0,0,0,0,0,0,0,0,0,-1,783,1660,0,0
-434,-636,0,0,0,0,0,0,0,0,0,-1,790,1660,0,0
-427,-636,0,0,0,0,0,0,0,0,0,-1,797,1660,0,0
-420,-636,0,0,0,0,0,0,0,0,0,-1,804,1660,0,0
-413,-636,0,0,0,0,0,0,0,0,0,-1,811,1660,0,0
-406,-636,-3.49292,-1.41895,0,0,0,0,0,0,0,-1,818,1660,-3.49293,1.41897
-399,-636,-2.71198,-1.76575,0,0,0,0,0,0,0,-1,825,1660,-2.71195,1.7657
-392,-636,3.99426,0.571289,0.111772,0.0336719,-0.0234585,0.118276,0.0271675,-0.270479,0.0715357,0.0458389,832,1660,3.99423,-0.571265
-385,-636,3.61841,1.44238,0.08301,0.0210411,-0.0204697,0.089161,0.0148901,-0.291911,0.0551514,0.0413261,839,1660,3.61844,-1.44235
-378,-636,3.40686,2.22717,0.0585385,0.0107187,-0.0168291,0.0638673,0.00538993,-0.306654,0.0409001,0.0424558,846,1660,3.40686,-2.22718
-371,-636,2.83557,2.57507,0,0,0,0,0,0,0,-1,853,1660,2.83558,-2.57507
-364,-636,3.04059,3.00171,0,0,0,0,0,0,0,-1,860,1660,3.04057,-3.00169
-357,-636,0.50116,4.18896,0,0,0,0,0,0,0,-1,867,1660,0.501145,-4.189
-350,-636,2.47028,3.86487,0,0,0,0,0,0,0,-1,874,1660,2.47025,-3.86489
-343,-636,1.86731,3.56555,0.0116443,-0.0118882,-0.00794267,0.0140742,-0.0143181,-0.296887,0.0163925,0.0435564,881,1660,1.86733,-3.56549
-336,-636,1.81934,3.53186,0.00639493,-0.0123109,-0.00239018,0.00669551,-0.0126115,-0.1251,0.01132,0.0323015,888,1660,1.81934,-3.53186
-329,-636,1.94873,3.43994,0.00596571,-0.0116605,-0.00332745,0.00657295,-0.0122677,-0.180505,0.011042,0.018302,895,1660,1.94871,-3.43996
-322,-636,1.94556,3.48608,0.00782225,-0.00992498,-0.00300308,0.00831664,-0.0104194,-0.163165,0.0108399,0.0116857,902,1660,1.94558,-3.48607
-315,-636,1.93329,3.54907,0.00852101,-0.00842025,-0.00227072,0.00882009,-0.00871933,-0.130956,0.0101264,0.0122735,909,1660,1.93326,-3.54912
-308,-636,1.92834,3.60291,0.00858472,-0.00670024,-0.00166366,0.0087637,-0.00687922,-0.107171,0.00905326,0.0106497,916,1660,1.92837,-3.60296
-301,-636,1.94397,3.69214,0.00821911,-0.00524002,-0.00142706,0.00836876,-0.00538966,-0.104481,0.00800526,0.0108613,923,1660,1.944,-3.6921
-294,-636,1.92938,3.73779,0.00756156,-0.00395007,-0.00128763,0.00770383,-0.00409235,-0.110043,0.0069161,0.0136122,930,1660,1.9294,-3.73773
-287,-636,1.92242,3.77148,0.00669138,-0.00291387,-0.0013286,0.00687177,-0.00309425,-0.134945,0.00589005,0.0110345,937,1660,1.92243,-3.77144
-280,-636,1.94312,3.8374,0.00555678,-0.00205994,-0.00145846,0.0058265,-0.00232966,-0.182867,0.00485108,0.0106095,944,1660,1.9431,-3.83736
-273,-636,1.96356,3.88586,0.00460772,-0.00186169,-0.00160755,0.00498516,-0.00223912,-0.23061,0.0042702,0.011554,951,1660,1.96358,-3.88583
-266,-636,1.96631,3.94421,0.00317267,-0.00245543,-0.00193021,0.00377104,-0.0030538,-0.300606,0.00394756,0.0124758,958,1660,1.96632,-3.94418
-259,-636,1.94989,4.00964,0.00143275,-0.00338871,-0.00187894,0.0020785,-0.00403446,-0.331029,0.00358903,0.0134596,965,1660,1.94987,-4.00959
-252,-636,1.93994,4.05359,0.000580273,-0.0045475,-0.00202414,0.00128299,-0.00525022,-0.334147,0.00399704,0.0109299,972,1660,1.93994,-4.05363
-245,-636,1.93622,4.10632,-0.000266179,-0.00572237,-0.00181693,0.000283489,-0.00627203,-0.293773,0.00427898,0.0106092,979,1660,1.93621,-4.10635
-238,-636,1.9411,4.14819,-0.0011333,-0.00670402,-0.0015378,-0.000736988,-0.00710034,-0.252228,0.00450802,0.0119012,986,1660,1.94108,-4.14815
-231,-636,1.94281,4.19824,-0.0018907,-0.00782955,-0.0013475,-0.00159926,-0.00812099,-0.213001,0.00496747,0.0106843,993,1660,1.9428,-4.19823
-224,-636,1.95929,4.25562,-0.00274515,-0.00889439,-0.00109169,-0.00255709,-0.00908245,-0.17059,0.00540802,0.00803328,1000,1660,1.95928,-4.25558
-217,-636,1.95746,4.30493,-0.00386692,-0.00879522,-0.000848422,-0.00372495,-0.00893719,-0.165797,0.00518365,0.00877554,1007,1660,1.95743,-4.30499
-210,-636,1.95929,4.30396,-0.00513973,-0.00732881,-0.000531155,-0.00501766,-0.00745089,-0.2259,0.00438718,0.0123169,1014,1660,1.95929,-4.30399
-203,-636,1.97009,4.32837,-0.00618974,-0.00595563,-0.000348937,-0.00570463,-0.00644073,-0.94723,0.0040707,0.016684,1021,1660,1.97011,-4.32836
-196,-636,2.00305,4.39209,-0.00733757,-0.00371116,-0.000226912,-0.00369702,-0.00735172,-1.50855,0.00424454,0.0173027,1028,1660,2.00303,-4.39212
-189,-636,2.03064,4.40686,-0.0085805,-0.00113135,-0.000281705,-0.00112072,-0.00859114,-1.53305,0.00539281,0.0193581,1035,1660,2.03067,-4.40683
-182,-636,2.02002,4.28577,-0.00959692,0.00160491,-0.000589547,0.00163585,-0.00962786,-1.51836,0.00702761,0.038012,1042,1660,2.01996,-4.28571
-175,-636,1.97461,4.12708,-0.0106287,0.00434224,-0.000902966,0.00439651,-0.010683,-1.51077,0.00895477,0.0479782,1049,1660,1.97459,-4.12704
-168,-636,1.96875,4.02209,0,0,0,0,0,0,0,-1,1056,1660,1.96879,-4.02212
-161,-636,2.50024,4.85803,-0.0121199,0.0116589,-0.00171874,0.0117825,-0.0122435,-1.49901,0.0138723,0.0465647,1063,1660,2.50027,-4.85803
-154,-636,2.33862,4.57617,-0.0118845,0.0144327,-0.00236009,0.0146427,-0.0120945,-1.48206,0.0154601,0.0466236,1070,1660,2.33863,-4.57618
-147,-636,1.71887,4.52563,0,0,0,0,0,0,0,-1,1077,1660,1.71888,-4.52569
-140,-636,2.40967,4.35034,-0.0138169,0.0180031,-0.00491611,0.0187453,-0.0145592,-1.42095,0.0192789,0.0477793,1084,1660,2.4097,-4.35029
-133,-636,2.35962,4.12122,-0.0162333,0.00651033,-0.00396198,0.00718076,-0.0169037,-1.40317,0.0142779,0.0474826,1091,1660,2.35956,-4.12117
-126,-636,2.30066,4.10388,-0.0164221,-0.0073594,-0.000644075,-0.00731386,-0.0164676,-1.5002,0.00952735,0.0463573,1098,1660,2.30065,-4.1039
-119,-636,2.12549,4.07263,-0.0164981,-0.0164758,0.00339642,-0.0130905,-0.0198834,0.787045,0.01167,0.0421718,1105,1660,2.12544,-4.07259
-112,-636,2.11389,4.34363,-0.0165137,-0.0284701,0.00675419,-0.013472,-0.0315118,0.423133,0.0182569,0.0423231,1112,1660,2.11384,-4.34364
-105,-636,2.36853,4.87524,0,0,0,0,0,0,0,-1,1119,1660,2.3685,-4.87526
-98,-636,2.3512,8.05847,0,0,0,0,0,0,0,-1,1126,1660,2.35122,-8.05843
-91,-636,1.86511,8.97034,0,0,0,0,0,0,0,-1,1133,1660,1.86511,-8.97038
-84,-636,0.321167,9.14124,0,0,0,0,0,0,0,-1,1140,1660,0.321219,-9.14123
-77,-636,-1.74963,4.6604,0,0,0,0,0,0,0,-1,1147,1660,-1.74962,-4.66041
-70,-636,-0.510986,8.57129,0,0,0,0,0,0,0,-1,1154,1660,-0.51098,-8.57125
-63,-636,-1.23779,9.38684,0,0,0,0,0,0,0,-1,1161,1660,-1.23779,-9.38683
-56,-636,0.0817871,5.51233,-0.0135625,-0.0900187,-0.0057108,-0.0131383,-0.0904429,-0.0741455,0.056428,0.0462034,1168,1660,0.0818129,-5.51236
-49,-636,-0.445313,5.68274,0.00168368,-0.0930095,-0.0174671,0.00480292,-0.0961288,-0.176715,0.0657453,0.0470541,1175,1660,-0.445277,-5.68272
-42,-636,-0.694946,5.64172,0.0197173,-0.0920775,-0.0315943,0.0280283,-0.100389,-0.257227,0.0779663,0.0494159,1182,1660,-0.69495,-5.64173
-35,-636,-1.0332,5.64722,0,0,0,0,0,0,0,-1,1189,1660,-1.03321,-5.64718
-28,-636,-0.547729,-0.492432,0,0,0,0,0,0,0,-1,1196,1660,-0.547721,0.492467
-21,-636,-0.132813,4.82922,0,0,0,0,0,0,0,-1,1203,1660,-0.13279,-4.82921
-14,-636,1.27893,4.33264,0.0801759,-0.0777712,-0.100619,0.129112,-0.126708,-0.452673,0.1477,0.0459531,1210,1660,1.27894,-4.3327
-7,-636,2.72473,3.19971,0.0927873,-0.0705957,-0.121845,0.157791,-0.1356,-0.490087,0.169551,0.0475733,1217,1660,2.72469,-3.19971
0,-636,3.2832,1.52197,0.0993314,-0.0570821,-0.138533,0.180208,-0.137959,-0.528431,0.184233,0.0494459,1224,1660,3.28318,-1.52196
7,-636,3.86279,-0.0925293,0.102366,-0.0433184,-0.154931,0.200724,-0.141676,-0.565653,0.198662,0.0450086,1231,1660,3.86283,0.0925112
14,-636,4.19873,-1.7533,0.0964996,-0.0313954,-0.170004,0.214186,-0.149081,-0.605508,0.210852,0.0427766,1238,1660,4.19877,1.75333
21,-636,4.20215,-3.50903,0,0,0,0,0,0,0,-1,1245,1660,4.20211,3.50902
28,-636,5.32227,-7.37573,0.0548233,-0.00730887,-0.18905,0.215342,-0.167828,-0.703962,0.22179,0.0451825,1252,1660,5.32231,7.37578
35,-636,4.97827,-9.83398,0.0318024,0.00739518,-0.193441,0.213424,-0.174226,-0.753896,0.224191,0.0439226,1259,1660,4.97828,9.83398
42,-636,4.87634,-12.3525,0.00713564,0.0213065,-0.196433,0.210782,-0.18234,-0.803426,0.227167,0.0493569,1266,1660,4.87636,12.3526
49,-636,5.03516,-14.734,-0.0156255,0.0377126,-0.198652,0.211477,-0.18939,-0.852125,0.231558,0.0477107,1273,1660,5.03513,14.734
56,-636,-1.86511,1.29163,0,0,0,0,0,0,0,-1,1280,1660,-1.86511,-1.29166
63,-636,-3.26587,1.66223,0,0,0,0,0,0,0,-1,1287,1660,-3.26587,-1.66223
70,-636,-3.84705,2.72864,0,0,0,0,0,0,0,-1,1294,1660,-3.84704,-2.72859
77,-636,-4.755,2.50049,-0.0970722,0.0995055,-0.190559,0.215631,-0.213197,-1.0235,0.247585,0.0463065,1301,1660,-4.75499,-2.50046
84,-636,-7.802,2.11951,-0.111194,0.111515,-0.186347,0.217243,-0.216922,-1.05471,0.250665,0.0455612,1308,1660,-7.80205,-2.11945
91,-636,-8.94287,2.12207,-0.122061,0.125428,-0.185213,0.224432,-0.221064,-1.0799,0.25721,0.0406051,1315,1660,-8.94292,-2.12205
98,-636,-9.87305,1.82971,-0.12669,0.14106,-0.187689,0.237728,-0.223357,-1.09519,0.266251,0.0458393,1322,1660,-9.87309,-1.8297
105,-636,-10.8035,1.61145,-0.125232,0.159902,-0.190978,0.255657,-0.220988,-1.10603,0.275434,0.0499241,1329,1660,-10.8034,-1.61139
112,-636,-11.634,1.31628,0,0,0,0,0,0,0,-1,1336,1660,-11.6341,-1.31626
119,-636,-10.0564,-0.390869,0,0,0,0,0,0,0,-1,1343,1660,-10.0564,0.390834
126,-636,-10.1996,-0.368408,0,0,0,0,0,0,0,-1,1350,1660,-10.1995,0.368427
133,-636,2.31445,7.05029,0,0,0,0,0,0,0,-1,1357,1660,2.31447,-7.05031
140,-636,2.0813,7.39246,0,0,0,0,0,0,0,-1,1364,1660,2.08126,-7.39251
147,-636,1.91516,7.61157,0,0,0,0,0,0,0,-1,1371,1660,1.91521,-7.61152
154,-636,1.88342,7.92358,0,0,0,0,0,0,0,-1,1378,1660,1.88341,-7.92363
161,-636,5.79187,-3.40344,0,0,0,0,0,0,0,-1,1385,1660,5.79187,3.4034
168,-636,5.96277,-2.46692,0,0,0,0,0,0,0,-1,1392,1660,5.96273,2.46693
175,-636,5.94592,-1.72888,0,0,0,0,0,0,0,-1,1399,1660,5.94598,1.72886
182,-636,5.93994,-1.11938,0,0,0,0,0,0,0,-1,1406,1660,5.93998,1.11936
189,-636,5.32544,11.9595,0,0,0,0,0,0,0,-1,1413,1660,5.32542,-11.9595
196,-636,4.76233,10.1713,-0.100748,-0.112612,-0.0957905,-0.010706,-0.202654,-0.754474,0.131679,0.0461156,1420,1660,4.76235,-10.1713
203,-636,3.85583,8.61035,0,0,0,0,0,0,0,-1,1427,1660,3.85581,-8.6103
210,-636,3.06665,7.09167,0,0,0,0,0,0,0,-1,1434,1660,3.06662,-7.09171
217,-636,5.66541,0.474243,0,0,0,0,0,0,0,-1,1441,1660,5.66547,-0.474296
224,-636,5.26489,0.291992,0,0,0,0,0,0,0,-1,1448,1660,5.26495,-0.291994
231,-636,4.96997,0.293701,0,0,0,0,0,0,0,-1,1455,1660,4.96999,-0.293735
238,-636,6.39795,0.505615,0,0,0,0,0,0,0,-1,1462,1660,6.398,-0.505622
245,-636,7.21643,0.715088,0,0,0,0,0,0,0,-1,1469,1660,7.21644,-0.715105
252,-636,8.0791,0.944824,0,0,0,0,0,0,0,-1,1476,1660,8.07907,-0.944848
259,-636,8.29358,5.04187,0,0,0,0,0,0,0,-1,1483,1660,8.29359,-5.04184
266,-636,7.27234,4.86047,-0.0542888,0.0253537,0.00897022,0.0263515,-0.0552866,1.46001,0.0481105,0.0492604,1490,1660,7.27236,-4.86049
273,-636,7.33154,5.16431,-0.0558544,0.0240598,0.00836677,0.0249264,-0.056721,1.46759,0.0483159,0.0486929,1497,1660,7.33151,-5.16436
280,-636,5.56226,5.60193,0,0,0,0,0,0,0,-1,1504,1660,5.56226,-5.60197
287,-636,5.08923,5.7356,-0.0533653,0.0194954,0.00482443,0.0198135,-0.0536834,1.50497,0.0439097,0.0469709,1511,1660,5.08926,-5.73557
294,-636,4.59558,5.84509,-0.0495874,0.0159832,0.00217594,0.0160553,-0.0496596,1.53766,0.0395595,0.0484056,1518,1660,4.59559,-5.84511
301,-636,3.00049,4.40869,-0.0447266,0.0122652,-0.000592767,0.0122713,-0.0447328,-1.5604,0.0346445,0.0446263,1525,1660,3.0005,-4.40868
308,-636,3.2229,4.55054,-0.0395172,0.00868562,-0.00324283,0.0089028,-0.0397344,-1.50392,0.0299023,0.0424251,1532,1660,3.22291,-4.55055
315,-636,3.06567,4.68481,-0.0340906,0.00598155,-0.00567324,0.00676926,-0.0348784,-1.43283,0.0258063,0.0425493,1539,1660,3.06573,-4.68486
322,-636,2.97266,4.64124,-0.029548,0.00318926,-0.00764252,0.00488551,-0.0312443,-1.35239,0.0226345,0.0360408,1546,1660,2.97271,-4.64129
329,-636,2.95105,4.55457,-0.0249315,0.00141883,-0.00916973,0.00429574,-0.0278084,-1.26678,0.0201242,0.0253722,1553,1660,2.9511,-4.55455
336,-636,2.94409,4.45154,-0.0201554,0.000124458,-0.010446,0.00454255,-0.0245735,-1.17067,0.0180877,0.0211365,1560,1660,2.94408,-4.4515
343,-636,2.92834,4.43286,-0.0157036,-0.00089646,-0.0109476,0.00491599,-0.021516,-1.08271,0.0162327,0.0182605,1567,1660,2.92832,-4.43289
350,-636,2.94226,4.37415,-0.0115857,-0.0016597,-0.0101855,0.00470762,-0.0179531,-1.0121,0.0138081,0.0114983,1574,1660,2.94221,-4.37416
357,-636,2.97693,4.32983,-0.00892417,-0.00246337,-0.00950874,0.00434872,-0.0157363,-0.949146,0.0122015,0.010045,1581,1660,2.97694,-4.32989
364,-636,2.97998,4.29248,-0.00752602,-0.00164455,-0.00873164,0.00462826,-0.0137988,-0.947828,0.0110693,0.0101546,1588,1660,2.97997,-4.29243
371,-636,2.974,4.25085,-0.00587533,-0.00108246,-0.00742699,0.00432515,-0.0112829,-0.941458,0.009305,0.00885641,1595,1660,2.97404,-4.2509
378,-636,2.97107,4.19946,-0.00455363,-0.00048747,-0.00576615,0.00359352,-0.00863462,-0.954888,0.00725714,0.00877686,1602,1660,2.97112,-4.19948
385,-636,2.98242,4.15161,-0.0033272,-5.15742e-05,-0.00443612,0.00303942,-0.00641819,-0.962236,0.0055753,0.0133096,1609,1660,2.98237,-4.1516
392,-636,2.98499,4.10852,-0.0020395,0.000378927,-0.00271979,0.0021462,-0.00380677,-0.994574,0.00348124,0.0144188,1616,1660,2.98499,-4.10855
399,-636,2.97156,4.07141,-0.000846889,0.000805809,-0.00180605,0.00196558,-0.00200666,-0.999953,0.00229342,0.0116298,1623,1660,2.9715,-4.07135
406,-636,2.96155,4.02576,0.000357109,0.0011568,-0.00128349,0.00210128,-0.000587381,-0.936397,0.00163227,0.0141578,1630,1660,2.96151,-4.0258
413,-636,2.95813,3.96204,0.00147158,0.00144897,-0.00101586,0.00247619,0.000444353,-0.779834,0.00152442,0.0226386,1637,1660,2.95812,-3.96206
420,-636,2.95093,3.89587,0.00243595,0.00159947,-0.000650626,0.00279117,0.00124425,-0.499739,0.00161464,0.0230861,1644,1660,2.95088,-3.89591
427,-636,2.96423,3.85107,0.00431359,0.00201373,-0.000740253,0.00453125,0.00179606,-0.28598,0.00263478,0.013228,1651,1660,2.96424,-3.85106
434,-636,2.96375,3.8092,0.00637584,0.00260029,-0.00127167,0.00676421,0.00221193,-0.296405,0.00398248,0.0108082,1658,1660,2.9638,-3.80916
441,-636,2.97412,3.75586,0.0081788,0.00306751,-0.00196714,0.00884821,0.00239811,-0.328003,0.00528405,0.0111238,1665,1660,2.97406,-3.75589
448,-636,2.97705,3.69788,0.0104258,0.00360962,-0.00291082,0.0114997,0.00253576,-0.353432,0.00697654,0.0126401,1672,1660,2.97708,-3.69782
455,-636,2.99304,3.6438,0.0133565,0.00420774,-0.00400605,0.0148627,0.00270155,-0.359629,0.00914201,0.013421,1679,1660,2.99301,-3.64379
462,-636,2.97388,3.57739,0.0169577,0.00464809,-0.00551583,0.0190676,0.00253814,-0.365352,0.0119558,0.0173387,1686,1660,2.97384,-3.57741
469,-636,2.94031,3.47241,0.0209325,0.00526533,-0.00780446,0.0241567,0.00204112,-0.391768,0.015469,0.026659,1693,1660,2.94029,-3.47244
476,-636,3.00757,3.47729,0.0254186,0.00670006,-0.0109566,0.0304692,0.00164946,-0.431932,0.0197859,0.0420186,1700,1660,3.00758,-3.47728
483,-636,3.30298,3.61047,0.0308167,0.00807492,-0.014287,0.0377055,0.00118611,-0.449283,0.0247511,0.0499294,1707,1660,3.30301,-3.61044
490,-636,3.48962,3.61621,0,0,0,0,0,0,0,-1,1714,1660,3.48961,-3.61615
497,-636,3.41907,3.33557,0,0,0,0,0,0,0,-1,1721,1660,3.41902,-3.33562
504,-636,3.14685,3.16663,0,0,0,0,0,0,0,-1,1728,1660,3.1469,-3.16663
511,-636,4.27405,5.9762,0,0,0,0,0,0,0,-1,1735,1660,4.27408,-5.97614
518,-636,5.23608,6.85681,0,0,0,0,0,0,0,-1,1742,1660,5.23608,-6.85681
525,-636,3.82092,-4.28625,0,0,0,0,0,0,0,-1,1749,1660,3.82092,4.28622
532,-636,0,0,0,0,0,0,0,0,0,-1,1756,1660,0,0
539,-636,0,0,0,0,0,0,0,0,0,-1,1763,1660,0,0
546,-636,0,0,0,0,0,0,0,0,0,-1,1770,1660,0,0
553,-636,0,0,0,0,0,0,0,0,0,-1,1777,1660,0,0
560,-636,0,0,0,0,0,0,0,0,0,-1,1784,1660,0,0
567,-636,0,0,0,0,0,0,0,0,0,-1,1791,1660,0,0
574,-636,0,0,0,0,0,0,0,0,0,-1,1798,1660,0,0
581,-636,0,0,0,0,0,0,0,0,0,-1,1805,1660,0,0
588,-636,0,0,0,0,0,0,0,0,0,-1,1812,1660,0,0
595,-636,0,0,0,0,0,0,0,0,0,-1,1819,1660,0,0
602,-636,0,0,0,0,0,0,0,0,0,-1,1826,1660,0,0
609,-636,0,0,0,0,0,0,0,0,0,-1,1833,1660,0,0
616,-636,0,0,0,0,0,0,0,0,0,-1,1840,1660,0,0
623,-636,0,0,0,0,0,0,0,0,0,-1,1847,1660,0,0
630,-636,0,0,0,0,0,0,0,0,0,-1,1854,1660,0,0
637,-636,0,0,0,0,0,0,0,0,0,-1,1861,1660,0,0
644,-636,0,0,0,0,0,0,0,0,0,-1,1868,1660,0,0
651,-636,0,0,0,0,0,0,0,0,0,-1,1875,1660,0,0
658,-636,0,0,0,0,0,0,0,0,0,-1,1882,1660,0,0
665,-636,0,0,0,0,0,0,0,0,0,-1,1889,1660,0,0
672,-636,0,0,0,0,0,0,0,0,0,-1,1896,1660,0,0
679,-636,0,0,0,0,0,0,0,0,0,-1,1903,1660,0,0
686,-636,0,0,0,0,0,0,0,0,0,-1,1910,1660,0,0
693,-636,0,0,0,0,0,0,0,0,0,-1,1917,1660,0,0
700,-636,0,0,0,0,0,0,0,0,0,-1,1924,1660,0,0
707,-636,0,0,0,0,0,0,0,0,0,-1,1931,1660,0,0
714,-636,0,0,0,0,0,0,0,0,0,-1,1938,1660,0,0
721,-636,0,0,0,0,0,0,0,0,0,-1,1945,1660,0,0
728,-636,0,0,0,0,0,0,0,0,0,-1,1952,1660,0,0
735,-636,0,0,0,0,0,0,0,0,0,-1,1959,1660,0,0
742,-636,0,0,0,0,0,0,0,0,0,-1,1966,1660,0,0
749,-636,0,0,0,0,0,0,0,0,0,-1,1973,1660,0,0
756,-636,0,0,0,0,0,0,0,0,0,-1,1980,1660,0,0
763,-636,0,0,0,0,0,0,0,0,0,-1,1987,1660,0,0
770,-636,0,0,0,0,0,0,0,0,0,-1,1994,1660,0,0
777,-636,0,0,0,0,0,0,0,0,0,-1,2001,1660,0,0
784,-636,0,0,0,0,0,0,0,0,0,-1,2008,1660,0,0
791,-636,0,0,0,0,0,0,0,0,0,-1,2015,1660,0,0
798,-636,0,0,0,0,0,0,0,0,0,-1,2022,1660,0,0
805,-636,0,0,0,0,0,0,0,0,0,-1,2029,1660,0,0
812,-636,0,0,0,0,0,0,0,0,0,-1,2036,1660,0,0
-700,-643,0,0,0,0,0,0,0,0,0,-1,524,1667,0,0
-693,-643,0,0,0,0,0,0,0,0,0,-1,531,1667,0,0
-686,-643,0,0,0,0,0,0,0,0,0,-1,538,1667,0,0
-679,-643,0,0,0,0,0,0,0,0,0,-1,545,1667,0,0
-672,-643,0,0,0,0,0,0,0,0,0,-1,552,1667,0,0
-665,-643,0,0,0,0,0,0,0,0,0,-1,559,1667,0,0
-658,-643,0,0,0,0,0,0,0,0,0,-1,566,1667,0,0
-651,-643,0,0,0,0,0,0,0,0,0,-1,573,1667,0,0
-644,-643,0,0,0,0,0,0,0,0,0,-1,580,1667,0,0
-637,-643,0,0,0,0,0,0,0,0,0,-1,587,1667,0,0
-630,-643,0,0,0,0,0,0,0,0,0,-1,594,1667,0,0
-623,-643,0,0,0,0,0,0,0,0,0,-1,601,1667,0,0
-616,-643,0,0,0,0,0,0,0,0,0,-1,608,1667,0,0
-609,-643,0,0,0,0,0,0,0,0,0,-1,615,1667,0,0
-602,-643,0,0,0,0,0,0,0,0,0,-1,622,1667,0,0
-595,-643,0,0,0,0,0,0,0,0,0,-1,629,1667,0,0
-588,-643,0,0,0,0,0,0,0,0,0,-1,636,1667,0,0
-581,-643,0,0,0,0,0,0,0,0,0,-1,643,1667,0,0
-574,-643,0,0,0,0,0,0,0,0,0,-1,650,1667,0,0
-567,-643,0,0,0,0,0,0,0,0,0,-1,657,1667,0,0
-560,-643,0,0,0,0,0,0,0,0,0,-1,664,1667,0,0
-553,-643,0,0,0,0,0,0,0,0,0,-1,671,1667,0,0
-546,-643,0,0,0,0,0,0,0,0,0,-1,678,1667,0,0
-539,-643,0,0,0,0,0,0,0,0,0,-1,685,1667,0,0
-532,-643,0,0,0,0,0,0,0,0,0,-1,692,1667,0,0
-525,-643,0,0,0,0,0,0,0,0,0,-1,699,1667,0,0
-518,-643,0,0,0,0,0,0,0,0,0,-1,706,1667,0,0
-511,-643,0,0,0,0,0,0,0,0,0,-1,713,1667,0,0
-504,-643,0,0,0,0,0,0,0,0,0,-1,720,1667,0,0
-497,-643,0,0,0,0,0,0,0,0,0,-1,727,1667,0,0
-490,-643,0,0,0,0,0,0,0,0,0,-1,734,1667,0,0
-483,-643,0,0,0,0,0,0,0,0,0,-1,741,1667,0,0
-476,-643,0,0,0,0,0,0,0,0,0,-1,748,1667,0,0
-469,-643,0,0,0,0,0,0,0,0,0,-1,755,1667,0,0
-462,-643,0,0,0,0,0,0,0,0,0,-1,762,1667,0,0
-455,-643,0,0,0,0,0,0,0,0,0,-1,769,1667,0,0
-448,-643,0,0,0,0,0,0,0,0,0,-1,776,1667,0,0
-441,-643,0,0,0,0,0,0,0,0,0,-1,783,1667,0,0
-434,-643,0,0,0,0,0,0,0,0,0,-1,790,1667,0,0
-427,-643,0,0,0,0,0,0,0,0,0,-1,797,1667,0,0
-420,-643,0,0,0,0,0,0,0,0,0,-1,804,1667,0,0
-413,-643,0,0,0,0,0,0,0,0,0,-1,811,1667,0,0
-406,-643,0,0,0,0,0,0,0,0,0,-1,818,1667,0,0
-399,-643,1.17072,5.21289,0,0,0,0,0,0,0,-1,825,1667,1.17072,-5.21287
-392,-643,4.06256,0.605835,0,0,0,0,0,0,0,-1,832,1667,4.06255,-0.605863
-385,-643,3.9751,1.26501,0.0828719,0.0127827,-0.0295611,0.0936747,0.00197994,-0.350363,0.0618004,0.0461353,839,1667,3.97512,-1.26499
-378,-643,3.98456,2.31262,0.0562065,0.00257318,-0.0225495,0.0644271,-0.0056475,-0.349587,0.0449523,0.04772,846,1667,3.98457,-2.31262
-371,-643,3.96283,3.19897,0,0,0,0,0,0,0,-1,853,1667,3.96285,-3.19896
-364,-643,-0.33313,4.69312,0,0,0,0,0,0,0,-1,860,1667,-0.333139,-4.69317
-357,-643,-0.7005,4.38928,0,0,0,0,0,0,0,-1,867,1667,-0.700516,-4.38926
-350,-643,1.87555,3.39111,0,0,0,0,0,0,0,-1,874,1667,1.87553,-3.39109
-343,-643,1.75635,3.6377,0,0,0,0,0,0,0,-1,881,1667,1.75633,-3.63775
-336,-643,1.63715,3.8844,0,0,0,0,0,0,0,-1,888,1667,1.63713,-3.8844
-329,-643,2.04596,3.41418,0.00925364,-0.016946,-0.00532929,0.0102962,-0.0179886,-0.193186,0.0165303,0.039668,895,1667,2.04598,-3.41416
-322,-643,1.96936,3.47729,0.0119342,-0.0143894,-0.00479554,0.0127806,-0.0152358,-0.174702,0.0161959,0.0247395,902,1667,1.96933,-3.47734
-315,-643,1.966,3.54443,0.0131139,-0.0120286,-0.00369701,0.0136463,-0.012561,-0.14301,0.0151351,0.0150721,909,1667,1.96598,-3.54447
-308,-643,1.9837,3.5946,0.0133334,-0.00951186,-0.00274806,0.0136593,-0.00983777,-0.118047,0.0136257,0.0111867,916,1667,1.98372,-3.59456
-301,-643,2.0058,3.66797,0.0128376,-0.00732728,-0.00210982,0.0130559,-0.00754567,-0.10314,0.0120353,0.0130296,923,1667,2.00582,-3.66794
-294,-643,2.00256,3.7218,0.0118002,-0.00544396,-0.00156392,0.0119408,-0.00558465,-0.0897173,0.0103378,0.0118247,930,1667,2.00257,-3.72178
-287,-643,1.99622,3.76038,0.0105898,-0.00385966,-0.00125409,0.0106978,-0.0039677,-0.0859353,0.00875928,0.00965407,937,1667,1.9962,-3.76034
-280,-643,2.00531,3.82214,0.00903619,-0.0025311,-0.00105349,0.00913136,-0.00262626,-0.0900875,0.00712617,0.0127957,944,1667,2.0053,-3.8222
-273,-643,2.0097,3.87378,0.00759132,-0.00171285,-0.00100467,0.00769856,-0.00182009,-0.106347,0.00583449,0.0123761,951,1667,2.00969,-3.87378
-266,-643,1.99524,3.92627,0.00560082,-0.00170992,-0.00111861,0.00576815,-0.00187725,-0.148484,0.00460067,0.011617,958,1667,1.99521,-3.92623
-259,-643,1.98511,3.99951,0.0035096,-0.00212587,-0.000954897,0.003667,-0.00228327,-0.163371,0.00346622,0.0104409,965,1667,1.98509,-3.99946
-252,-643,2.00159,4.05176,0.0027328,-0.00269834,-0.00126813,0.0030143,-0.00297985,-0.218444,0.00346074,0.0118909,972,1667,2.00159,-4.05175
-245,-643,1.99982,4.10901,0.00188541,-0.00333821,-0.00133893,0.00220861,-0.00366141,-0.236856,0.00342348,0.0115427,979,1667,1.99984,-4.10906
-238,-643,2.01154,4.14087,0.00115727,-0.00391123,-0.00130595,0.00147398,-0.00422794,-0.237915,0.0034176,0.014847,986,1667,2.01152,-4.14089
-231,-643,1.99951,4.18237,0.00057421,-0.00463516,-0.00132383,0.000891322,-0.00495227,-0.235112,0.00363523,0.0109255,993,1667,1.99953,-4.18234
-224,-643,2.00531,4.23621,-7.91514e-05,-0.00547974,-0.00128099,0.000209286,-0.00576817,-0.221474,0.00391708,0.00889068,1000,1667,2.00533,-4.23618
-217,-643,2.0022,4.2749,-0.00100342,-0.00545974,-0.00132884,-0.000637255,-0.0058259,-0.268878,0.0036899,0.00765828,1007,1667,2.00219,-4.27486
-210,-643,2.01532,4.3313,-0.00208297,-0.00437013,-0.00125296,-0.00153018,-0.00492292,-0.415503,0.00290927,0.00992933,1014,1667,2.0153,-4.3313
-203,-643,2.03339,4.38306,-0.00299742,-0.00348863,-0.00121982,-0.00199872,-0.00448733,-0.686054,0.0025959,0.0114402,1021,1667,2.03337,-4.38303
-196,-643,2.03381,4.42859,-0.00398905,-0.0020192,-0.00117749,-0.00146902,-0.00453924,-1.13369,0.00267453,0.0106435,1028,1667,2.03376,-4.42859
-189,-643,2.02917,4.46582,-0.00507652,-0.000377337,-0.001245,-6.7869e-05,-0.00538599,-1.32716,0.00356825,0.0101914,1035,1667,2.02919,-4.4658
-182,-643,2.01086,4.45435,-0.00601296,0.00118971,-0.00141717,0.00145852,-0.00628176,-1.38335,0.00474926,0.0171029,1042,1667,2.01092,-4.45431
-175,-643,1.9978,4.4375,-0.00694845,0.00277403,-0.00159381,0.00302864,-0.00720306,-1.41239,0.00606894,0.0313414,1049,1667,1.99778,-4.43749
-168,-643,2.02234,4.45618,0,0,0,0,0,0,0,-1,1056,1667,2.02233,-4.45614
-161,-643,2.22961,4.77063,-0.00851748,0.00729547,-0.0020675,0.00756132,-0.00878333,-1.44291,0.00944537,0.043974,1063,1667,2.22964,-4.77067
-154,-643,2.2323,4.61182,-0.00847427,0.00909778,-0.00246182,0.00943616,-0.00881265,-1.4342,0.010538,0.0450063,1070,1667,2.23227,-4.61184
-147,-643,1.96191,4.42542,0,0,0,0,0,0,0,-1,1077,1667,1.96189,-4.42544
-140,-643,2.31946,4.4541,-0.00998491,0.0109861,-0.00407622,0.0117506,-0.0107494,-1.38541,0.0129946,0.0499133,1084,1667,2.31941,-4.45406
-133,-643,2.26843,4.29834,-0.0118292,0.00342409,-0.003633,0.00424519,-0.0126503,-1.34852,0.010149,0.0472102,1091,1667,2.26839,-4.29834
-126,-643,2.25061,4.17505,-0.0122706,-0.00632205,-0.00143448,-0.0059942,-0.0125984,-1.3461,0.00727654,0.0461525,1098,1667,2.25058,-4.17503
-119,-643,2.37708,3.92151,-0.0132336,-0.0119355,0.00206013,-0.0104246,-0.0147445,0.938,0.00875256,0.0435631,1105,1667,2.37712,-3.92146
-112,-643,2.6012,3.95911,-0.0146184,-0.0188229,0.0053618,-0.0109615,-0.0224799,0.598567,0.0129801,0.0445537,1112,1667,2.60123,-3.95907
-105,-643,2.43518,4.55798,0,0,0,0,0,0,0,-1,1119,1667,2.43518,-4.558
-98,-643,2.0238,5.63635,0,0,0,0,0,0,0,-1,1126,1667,2.02381,-5.63639
-91,-643,1.50647,6.45508,0,0,0,0,0,0,0,-1,1133,1667,1.50642,-6.45507
-84,-643,0.24231,6.54858,0,0,0,0,0,0,0,-1,1140,1667,0.242346,-6.54862
-77,-643,-0.536987,6.91589,0,0,0,0,0,0,0,-1,1147,1667,-0.536965,-6.91594
-70,-643,-0.609985,6.90137,-0.033785,-0.0624774,0.00852517,-0.0314431,-0.0648193,0.268089,0.037429,0.0420387,1154,1667,-0.609983,-6.90131
-63,-643,-1.36719,7.76074,-0.026107,-0.0658904,0.00197861,-0.0260089,-0.0659885,0.0495715,0.0383821,0.044624,1161,1667,-1.36722,-7.76073
-56,-643,-2.11475,8.57861,0,0,0,0,0,0,0,-1,1168,1667,-2.11479,-8.5786
-49,-643,0.00244141,6.96082,-0.00265319,-0.0729603,-0.0158931,0.000772573,-0.0763861,-0.212302,0.0511835,0.0465843,1175,1667,0.00238278,-6.96085
-42,-643,-0.542603,6.64771,0.0122316,-0.0727369,-0.0273889,0.020295,-0.0808003,-0.286314,0.0617537,0.0483802,1182,1667,-0.542598,-6.64767
-35,-643,-0.872314,6.41162,0,0,0,0,0,0,0,-1,1189,1667,-0.872334,-6.41166
-28,-643,-1.13867,5.55933,0,0,0,0,0,0,0,-1,1196,1667,-1.13864,-5.55931
-21,-643,0.143188,4.90051,0,0,0,0,0,0,0,-1,1203,1667,0.143226,-4.90045
-14,-643,1.78503,4.31128,0.0658129,-0.0690063,-0.0812348,0.103964,-0.107158,-0.43907,0.121896,0.046912,1210,1667,1.78503,-4.31122
-7,-643,3.36047,3.62024,0.0776543,-0.06592,-0.0986779,0.127895,-0.11616,-0.470929,0.14096,0.0493963,1217,1667,3.36041,-3.62026
0,-643,3.62659,2.1073,0.082975,-0.0552882,-0.112131,0.145572,-0.117885,-0.509157,0.152387,0.0455428,1224,1667,3.62653,-2.10733
7,-643,4.19495,0.2771,0,0,0,0,0,0,0,-1,1231,1667,4.19493,-0.277085
14,-643,4.79333,-0.488892,0.0783707,-0.0352228,-0.139204,0.171919,-0.128771,-0.591701,0.174198,0.0432355,1238,1667,4.79329,0.488833
21,-643,5.01318,-1.39026,0.0616914,-0.0291937,-0.14858,0.171622,-0.139125,-0.636992,0.179737,0.0460522,1245,1667,5.01318,1.39029
28,-643,5.19067,-2.29492,0,0,0,0,0,0,0,-1,1252,1667,5.19066,2.29487
35,-643,6.10645,-10.4545,0.0211094,-0.00886713,-0.16046,0.16728,-0.155038,-0.738829,0.186135,0.0431032,1259,1667,6.1065,10.4545
42,-643,5.77686,-13.1384,-0.00029713,0.000891437,-0.16409,0.164388,-0.163794,-0.787209,0.189476,0.04446,1266,1667,5.77689,13.1384
49,-643,-0.744873,3.4729,0,0,0,0,0,0,0,-1,1273,1667,-0.744928,-3.4729
56,-643,-0.772339,2.56836,0,0,0,0,0,0,0,-1,1280,1667,-0.772294,-2.56835
63,-643,-2.10779,2.68127,-0.056299,0.0371033,-0.168429,0.165186,-0.184381,-0.920638,0.201924,0.0497922,1287,1667,-2.10779,-2.68133
70,-643,-2.78113,2.99841,-0.0737164,0.0516827,-0.169137,0.169368,-0.191401,-0.962897,0.208419,0.0455734,1294,1667,-2.78116,-2.99837
77,-643,-3.65186,2.60718,-0.0862185,0.0646282,-0.168582,0.17389,-0.19548,-0.995743,0.213377,0.0417229,1301,1667,-3.65181,-2.60717
84,-643,-4.43579,2.57373,-0.0949335,0.0770102,-0.16735,0.179179,-0.197103,-1.02268,0.217329,0.0459319,1308,1667,-4.43578,-2.57373
91,-643,-6.24512,2.10596,0,0,0,0,0,0,0,-1,1315,1667,-6.24512,-2.10599
98,-643,-7.65247,1.62048,-0.102216,0.107231,-0.17206,0.203932,-0.198916,-1.05877,0.232591,0.0428192,1322,1667,-7.65246,-1.62044
105,-643,-8.47729,1.34167,-0.0990528,0.124787,-0.176101,0.221523,-0.19579,-1.06847,0.241088,0.0454145,1329,1667,-8.4773,-1.34166
112,-643,-9.28186,1.04553,0,0,0,0,0,0,0,-1,1336,1667,-9.28183,-1.04555
119,-643,-7.95142,-0.292847,0,0,0,0,0,0,0,-1,1343,1667,-7.95138,0.292843
126,-643,-8.15186,-0.185547,0,0,0,0,0,0,0,-1,1350,1667,-8.15185,0.185556
133,-643,-8.42371,0.137085,0,0,0,0,0,0,0,-1,1357,1667,-8.42367,-0.137138
140,-643,1.89783,6.3844,0,0,0,0,0,0,0,-1,1364,1667,1.89789,-6.38438
147,-643,1.94543,6.66748,0,0,0,0,0,0,0,-1,1371,1667,1.94545,-6.66743
154,-643,1.97937,6.94629,0,0,0,0,0,0,0,-1,1378,1667,1.97937,-6.94631
161,-643,2.71948,6.44006,0,0,0,0,0,0,0,-1,1385,1667,2.71953,-6.4401
168,-643,6.00183,-1.922,0,0,0,0,0,0,0,-1,1392,1667,6.00185,1.92194
175,-643,5.88525,-1.1698,0,0,0,0,0,0,0,-1,1399,1667,5.88526,1.16977
182,-643,5.80945,-0.418701,0,0,0,0,0,0,0,-1,1406,1667,5.80949,0.418712
189,-643,5.42297,12.9208,0,0,0,0,0,0,0,-1,1413,1667,5.42298,-12.9208
196,-643,4.96948,11.0631,0,0,0,0,0,0,0,-1,1420,1667,4.96949,-11.0631
203,-643,4.51599,9.20532,0,0,0,0,0,0,0,-1,1427,1667,4.516,-9.20534
210,-643,5.22888,7.45264,0,0,0,0,0,0,0,-1,1434,1667,5.22893,-7.45261
217,-643,5.31409,0.667114,0,0,0,0,0,0,0,-1,1441,1667,5.31408,-0.667125
224,-643,5.26208,-0.00854492,0,0,0,0,0,0,0,-1,1448,1667,5.26213,0.00849543
231,-643,5.94763,0.0540771,0,0,0,0,0,0,0,-1,1455,1667,5.94768,-0.054085
238,-643,6.56177,0.305786,0,0,0,0,0,0,0,-1,1462,1667,6.56174,-0.305781
245,-643,7.48547,0.459961,0,0,0,0,0,0,0,-1,1469,1667,7.48545,-0.459999
252,-643,8.31995,0.227051,0,0,0,0,0,0,0,-1,1476,1667,8.31989,-0.227097
259,-643,4.24329,0.860962,0,0,0,0,0,0,0,-1,1483,1667,4.24329,-0.860906
266,-643,7.59045,3.92822,0,0,0,0,0,0,0,-1,1490,1667,7.59047,-3.92826
273,-643,4.61426,4.72937,0,0,0,0,0,0,0,-1,1497,1667,4.61421,-4.7294
280,-643,4.68286,5.14429,-0.0468824,0.0224135,0.00898576,0.0235597,-0.0480287,1.44392,0.0421287,0.0455055,1504,1667,4.68289,-5.14425
287,-643,4.15295,5.2937,-0.0445175,0.0203289,0.00698349,0.0210724,-0.0452611,1.46472,0.0391372,0.0451727,1511,1667,4.153,-5.29374
294,-643,3.25549,5.01672,-0.0408912,0.0174469,0.00470472,0.0178238,-0.0412682,1.49084,0.0350004,0.0451811,1518,1667,3.25552,-5.01667
301,-643,2.97998,4.72498,-0.036405,0.0143042,0.0022656,0.0144052,-0.036506,1.52624,0.0303028,0.036111,1525,1667,2.97996,-4.72494
308,-643,2.91113,4.60059,-0.0315966,0.0111119,-0.000151625,0.0111124,-0.0315971,-1.56725,0.0255863,0.0298449,1532,1667,2.91114,-4.60053
315,-643,2.91382,4.58679,-0.026646,0.00843417,-0.00245084,0.00860456,-0.0268164,-1.50138,0.0213323,0.0225495,1539,1667,2.91379,-4.58682
322,-643,2.90295,4.54895,-0.0223708,0.00563679,-0.004422,0.00631838,-0.0230523,-1.41786,0.0178511,0.0137165,1546,1667,2.90293,-4.54901
329,-643,2.90173,4.48572,-0.0180487,0.00367811,-0.00599016,0.00522017,-0.0195908,-1.31884,0.0151043,0.0115547,1553,1667,2.90177,-4.48572
336,-643,2.89148,4.47913,-0.0137913,0.0021403,-0.00730478,0.00498255,-0.0166335,-1.19973,0.0130703,0.0113972,1560,1667,2.89151,-4.47907
343,-643,2.89966,4.46851,-0.00999287,0.000774413,-0.00798473,0.00502091,-0.0142394,-1.08201,0.0115367,0.0137437,1567,1667,2.89964,-4.46852
350,-643,2.92432,4.40479,-0.00665933,-0.000402994,-0.00768669,0.00476767,-0.01183,-0.978644,0.00986759,0.0130462,1574,1667,2.92426,-4.40482
357,-643,2.92566,4.34509,-0.00459421,-0.00105322,-0.00728433,0.00467269,-0.0103201,-0.904614,0.00885843,0.0107662,1581,1667,2.9256,-4.34503
364,-643,2.92859,4.29028,-0.00352699,-0.000271871,-0.00677614,0.00506944,-0.00886829,-0.90326,0.00814597,0.00923137,1588,1667,2.92863,-4.29031
371,-643,2.92627,4.2594,-0.00223154,0.000272443,-0.00582728,0.00498071,-0.00693981,-0.891215,0.00691323,0.00765902,1595,1667,2.92629,-4.25945
378,-643,2.92896,4.22766,-0.00118194,0.000965764,-0.00458844,0.00460433,-0.00482051,-0.900346,0.00544191,0.00901711,1602,1667,2.92898,-4.22767
385,-643,2.94214,4.18176,-0.000130168,0.00164992,-0.00364273,0.00450976,-0.00299001,-0.905218,0.00435953,0.0143514,1609,1667,2.94212,-4.18177
392,-643,2.92188,4.11536,0.000999,0.00235371,-0.00232527,0.00409827,-0.000745565,-0.927127,0.00301162,0.0154323,1616,1667,2.92187,-4.11539
399,-643,2.90442,4.08057,0.00222391,0.00304208,-0.00158851,0.00427334,0.00099265,-0.911424,0.0025824,0.0130886,1623,1667,2.90439,-4.08051
406,-643,2.91467,4.03467,0.00351204,0.00363225,-0.00112959,0.00470333,0.00244096,-0.811978,0.00271612,0.012498,1630,1667,2.9147,-4.03469
413,-643,2.91284,3.9707,0.00484229,0.00415848,-0.000865244,0.00543073,0.00357004,-0.597237,0.00318679,0.0187438,1637,1667,2.91285,-3.97073
420,-643,2.89648,3.92297,0.00613882,0.00449365,-0.000442402,0.00625024,0.00438223,-0.246721,0.00370462,0.0173294,1644,1667,2.89649,-3.92303
427,-643,2.90222,3.87378,0.00857376,0.0049351,-0.000633401,0.00868087,0.00482799,-0.167513,0.00502243,0.0138451,1651,1667,2.90224,-3.87381
434,-643,2.91418,3.82349,0.0112094,0.00551992,-0.00136173,0.0115186,0.0052108,-0.223224,0.00666029,0.0142001,1658,1667,2.91417,-3.82348
441,-643,2.94397,3.75671,0.0136939,0.0059197,-0.00223554,0.0142909,0.00532269,-0.260962,0.00833985,0.0143766,1665,1667,2.94399,-3.75671
448,-643,2.95264,3.69568,0.0166071,0.00647456,-0.00348338,0.017689,0.00539257,-0.301166,0.0104688,0.018091,1672,1667,2.95258,-3.69569
455,-643,2.92566,3.67029,0.0203665,0.00722438,-0.00480188,0.021934,0.00565683,-0.315538,0.0131491,0.0250448,1679,1667,2.92567,-3.67023
462,-643,2.9353,3.56311,0.0245581,0.00691508,-0.00700574,0.0270016,0.00447163,-0.335586,0.0167111,0.0353821,1686,1667,2.93525,-3.56312
469,-643,2.86206,3.43665,0.0288233,0.00768694,-0.0101854,0.0329326,0.00357761,-0.383479,0.020865,0.0397362,1693,1667,2.86207,-3.4366
476,-643,3.09851,4.0896,0.0337101,0.00949151,-0.0142155,0.0402748,0.00292686,-0.432619,0.0259293,0.0465598,1700,1667,3.09855,-4.08956
483,-643,3.35693,3.71484,0,0,0,0,0,0,0,-1,1707,1667,3.35694,-3.71487
490,-643,3.05518,3.51855,0,0,0,0,0,0,0,-1,1714,1667,3.05515,-3.51861
497,-643,3.38293,3.40588,0,0,0,0,0,0,0,-1,1721,1667,3.38295,-3.40584
504,-643,3.71069,3.29309,0,0,0,0,0,0,0,-1,1728,1667,3.71075,-3.29308
511,-643,4.16541,5.19214,0,0,0,0,0,0,0,-1,1735,1667,4.16535,-5.19216
518,-643,3.57068,4.20605,0,0,0,0,0,0,0,-1,1742,1667,3.57071,-4.20609
525,-643,0,0,0,0,0,0,0,0,0,-1,1749,1667,0,0
532,-643,0,0,0,0,0,0,0,0,0,-1,1756,1667,0,0
539,-643,0,0,0,0,0,0,0,0,0,-1,1763,1667,0,0
546,-643,0,0,0,0,0,0,0,0,0,-1,1770,1667,0,0
553,-643,0,0,0,0,0,0,0,0,0,-1,1777,1667,0,0
560,-643,0,0,0,0,0,0,0,0,0,-1,1784,1667,0,0
567,-643,0,0,0,0,0,0,0,0,0,-1,1791,1667,0,0
574,-643,0,0,0,0,0,0,0,0,0,-1,1798,1667,0,0
581,-643,0,0,0,0,0,0,0,0,0,-1,1805,1667,0,0
588,-643,0,0,0,0,0,0,0,0,0,-1,1812,1667,0,0
595,-643,0,0,0,0,0,0,0,0,0,-1,1819,1667,0,0
602,-643,0,0,0,0,0,0,0,0,0,-1,1826,1667,0,0
609,-643,0,0,0,0,0,0,0,0,0,-1,1833,1667,0,0
616,-643,0,0,0,0,0,0,0,0,0,-1,1840,1667,0,0
623,-643,0,0,0,0,0,0,0,0,0,-1,1847,1667,0,0
630,-643,0,0,0,0,0,0,0,0,0,-1,1854,1667,0,0
637,-643,0,0,0,0,0,0,0,0,0,-1,1861,1667,0,0
644,-643,0,0,0,0,0,0,0,0,0,-1,1868,1667,0,0
651,-643,0,0,0,0,0,0,0,0,0,-1,1875,1667,0,0
658,-643,0,0,0,0,0,0,0,0,0,-1,1882,1667,0,0
665,-643,0,0,0,0,0,0,0,0,0,-1,1889,1667,0,0
672,-643,0,0,0,0,0,0,0,0,0,-1,1896,1667,0,0
679,-643,0,0,0,0,0,0,0,0,0,-1,1903,1667,0,0
686,-643,0,0,0,0,0,0,0,0,0,-1,1910,1667,0,0
693,-643,0,0,0,0,0,0,0,0,0,-1,1917,1667,0,0
700,-643,0,0,0,0,0,0,0,0,0,-1,1924,1667,0,0
707,-643,0,0,0,0,0,0,0,0,0,-1,1931,1667,0,0
714,-643,0,0,0,0,0,0,0,0,0,-1,1938,1667,0,0
721,-643,0,0,0,0,0,0,0,0,0,-1,1945,1667,0,0
728,-643,0,0,0,0,0,0,0,0,0,-1,1952,1667,0,0
735,-643,0,0,0,0,0,0,0,0,0,-1,1959,1667,0,0
742,-643,0,0,0,0,0,0,0,0,0,-1,1966,1667,0,0
749,-643,0,0,0,0,0,0,0,0,0,-1,1973,1667,0,0
756,-643,0,0,0,0,0,0,0,0,0,-1,1980,1667,0,0
763,-643,0,0,0,0,0,0,0,0,0,-1,1987,1667,0,0
770,-643,0,0,0,0,0,0,0,0,0,-1,1994,1667,0,0
777,-643,0,0,0,0,0,0,0,0,0,-1,2001,1667,0,0
784,-643,0,0,0,0,0,0,0,0,0,-1,2008,1667,0,0
791,-643,0,0,0,0,0,0,0,0,0,-1,2015,1667,0,0
798,-643,0,0,0,0,0,0,0,0,0,-1,2022,1667,0,0
805,-643,0,0,0,0,0,0,0,0,0,-1,2029,1667,0,0
812,-643,0,0,0,0,0,0,0,0,0,-1,2036,1667,0,0
-700,-650,0,0,0,0,0,0,0,0,0,-1,524,1674,0,0
-693,-650,0,0,0,0,0,0,0,0,0,-1,531,1674,0,0
-686,-650,0,0,0,0,0,0,0,0,0,-1,538,1674,0,0
-679,-650,0,0,0,0,0,0,0,0,0,-1,545,1674,0,0
-672,-650,0,0,0,0,0,0,0,0,0,-1,552,1674,0,0
-665,-650,0,0,0,0,0,0,0,0,0,-1,559,1674,0,0
-658,-650,0,0,0,0,0,0,0,0,0,-1,566,1674,0,0
-651,-650,0,0,0,0,0,0,0,0,0,-1,573,1674,0,0
-644,-650,0,0,0,0,0,0,0,0,0,-1,580,1674,0,0
-637,-650,0,0,0,0,0,0,0,0,0,-1,587,1674,0,0
-630,-650,0,0,0,0,0,0,0,0,0,-1,594,1674,0,0
-623,-650,0,0,0,0,0,0,0,0,0,-1,601,1674,0,0
-616,-650,0,0,0,0,0,0,0,0,0,-1,608,1674,0,0
-609,-650,0,0,0,0,0,0,0,0,0,-1,615,1674,0,0
-602,-650,0,0,0,0,0,0,0,0,0,-1,622,1674,0,0
-595,-650,0,0,0,0,0,0,0,0,0,-1,629,1674,0,0
-588,-650,0,0,0,0,0,0,0,0,0,-1,636,1674,0,0
-581,-650,0,0,0,0,0,0,0,0,0,-1,643,1674,0,0
-574,-650,0,0,0,0,0,0,0,0,0,-1,650,1674,0,0
-567,-650,0,0,0,0,0,0,0,0,0,-1,657,1674,0,0
-560,-650,0,0,0,0,0,0,0,0,0,-1,664,1674,0,0
-553,-650,0,0,0,0,0,0,0,0,0,-1,671,1674,0,0
-546,-650,0,0,0,0,0,0,0,0,0,-1,678,1674,0,0
-539,-650,0,0,0,0,0,0,0,0,0,-1,685,1674,0,0
-532,-650,0,0,0,0,0,0,0,0,0,-1,692,1674,0,0
-525,-650,0,0,0,0,0,0,0,0,0,-1,699,1674,0,0
-518,-650,0,0,0,0,0,0,0,0,0,-1,706,1674,0,0
-511,-650,0,0,0,0,0,0,0,0,0,-1,713,1674,0,0
-504,-650,0,0,0,0,0,0,0,0,0,-1,720,1674,0,0
-497,-650,0,0,0,0,0,0,0,0,0,-1,727,1674,0,0
-490,-650,0,0,0,0,0,0,0,0,0,-1,734,1674,0,0
-483,-650,0,0,0,0,0,0,0,0,0,-1,741,1674,0,0
-476,-650,0,0,0,0,0,0,0,0,0,-1,748,1674,0,0
-469,-650,0,0,0,0,0,0,0,0,0,-1,755,1674,0,0
-462,-650,0,0,0,0,0,0,0,0,0,-1,762,1674,0,0
-455,-650,0,0,0,0,0,0,0,0,0,-1,769,1674,0,0
-448,-650,0,0,0,0,0,0,0,0,0,-1,776,1674,0,0
-441,-650,0,0,0,0,0,0,0,0,0,-1,783,1674,0,0
-434,-650,0,0,0,0,0,0,0,0,0,-1,790,1674,0,0
-427,-650,0,0,0,0,0,0,0,0,0,-1,797,1674,0,0
-420,-650,0,0,0,0,0,0,0,0,0,-1,804,1674,0,0
-413,-650,0,0,0,0,0,0,0,0,0,-1,811,1674,0,0
-406,-650,0,0,0,0,0,0,0,0,0,-1,818,1674,0,0
-399,-650,0,0,0,0,0,0,0,0,0,-1,825,1674,0,0
-392,-650,2.08496,5.94958,0,0,0,0,0,0,0,-1,832,1674,2.08493,-5.94958
-385,-650,4.34436,1.09668,0,0,0,0,0,0,0,-1,839,1674,4.34436,-1.09673
-378,-650,4.50122,2.83484,0,0,0,0,0,0,0,-1,846,1674,4.50119,-2.8348
-371,-650,4.27722,3.90503,0,0,0,0,0,0,0,-1,853,1674,4.2772,-3.90506
-364,-650,-0.667908,5.06653,0,0,0,0,0,0,0,-1,860,1674,-0.667911,-5.06647
-357,-650,0.594666,3.36707,0,0,0,0,0,0,0,-1,867,1674,0.594683,-3.36711
-350,-650,1.94873,3.30627,0,0,0,0,0,0,0,-1,874,1674,1.94876,-3.3063
-343,-650,1.78217,3.64136,0,0,0,0,0,0,0,-1,881,1674,1.7822,-3.64141
-336,-650,1.61566,3.97656,0,0,0,0,0,0,0,-1,888,1674,1.61563,-3.97651
-329,-650,1.99896,3.41333,0,0,0,0,0,0,0,-1,895,1674,1.99896,-3.41335
-322,-650,1.97748,3.47595,0.0169708,-0.0201992,-0.00722233,0.0183249,-0.0215533,-0.185324,0.0230488,0.0418717,902,1674,1.97749,-3.47591
-315,-650,1.9754,3.52698,0.0188596,-0.0167334,-0.00579434,0.0197791,-0.0176529,-0.157382,0.021623,0.0373084,909,1674,1.97542,-3.52696
-308,-650,2.00623,3.59485,0.0192501,-0.013164,-0.00450039,0.0198633,-0.0137772,-0.135429,0.019528,0.0212972,916,1674,2.00624,-3.59489
-301,-650,2.04572,3.66882,0.0184446,-0.0100308,-0.0034493,0.0188565,-0.0104427,-0.118842,0.0171468,0.011699,923,1674,2.04569,-3.66878
-294,-650,2.05853,3.71155,0.0167181,-0.00733314,-0.00249099,0.0169734,-0.00758843,-0.102126,0.0145217,0.00949995,930,1674,2.0585,-3.71158
-287,-650,2.04419,3.74927,0.0148958,-0.00499945,-0.00182063,0.015061,-0.00516469,-0.0905092,0.0121343,0.0125424,937,1674,2.04416,-3.74924
-280,-650,2.05701,3.78979,0.0126384,-0.0030206,-0.00126803,0.0127405,-0.00312262,-0.0802806,0.00970346,0.0144645,944,1674,2.05703,-3.78984
-273,-650,2.05896,3.85486,0.0102687,-0.00168002,-0.000866869,0.0103313,-0.00174258,-0.0720463,0.00753583,0.0141418,951,1674,2.05896,-3.8549
-266,-650,2.01422,3.94006,0.00717308,-0.001133,-0.000599272,0.00721609,-0.00117602,-0.071654,0.00524685,0.0113582,958,1674,2.01425,-3.94009
-259,-650,2.03217,3.99597,0.00423,-0.00112458,-7.31483e-05,0.004231,-0.00112558,-0.0136575,0.00326126,0.0134222,965,1674,2.03216,-3.99597
-252,-650,2.04828,4.02734,0.00322126,-0.001299,-0.000275018,0.00323793,-0.00131567,-0.0605437,0.00270598,0.0122405,972,1674,2.0483,-4.0274
-245,-650,2.05109,4.06238,0.0021135,-0.00153236,-0.00034938,0.00214668,-0.00156554,-0.0946813,0.00215198,0.0114294,979,1674,2.05111,-4.06241
-238,-650,2.05414,4.12024,0.00129089,-0.00187598,-0.000278304,0.00131516,-0.00190026,-0.0869912,0.00186664,0.0128789,986,1674,2.05414,-4.12023
-231,-650,2.04773,4.1925,0.000734699,-0.00234837,-0.000249583,0.000754773,-0.00236845,-0.0802563,0.00188171,0.0172703,993,1674,2.04774,-4.19247
-224,-650,2.05267,4.25073,0.000218945,-0.00307715,-0.000205715,0.000231734,-0.00308994,-0.0620906,0.00214139,0.0136349,1000,1674,2.05266,-4.25071
-217,-650,2.05872,4.271,-0.000459451,-0.00319776,-0.000368283,-0.000410784,-0.00324643,-0.131383,0.00204118,0.00875984,1007,1674,2.0587,-4.27097
-210,-650,2.07184,4.33008,-0.00117789,-0.00250795,-0.000471754,-0.00102756,-0.00265828,-0.308496,0.00154787,0.00850243,1014,1674,2.07183,-4.33011
-203,-650,2.0849,4.3833,-0.00179512,-0.00202871,-0.000575003,-0.00132517,-0.00249866,-0.685201,0.00144349,0.0129393,1021,1674,2.08492,-4.38335
-196,-650,2.08691,4.40356,-0.00244353,-0.00114634,-0.000685331,-0.000851347,-0.00273852,-1.16433,0.00161835,0.0119482,1028,1674,2.08686,-4.40355
-189,-650,2.06653,4.45227,-0.00316422,-0.000202786,-0.000879362,3.86473e-05,-0.00340565,-1.30284,0.00228342,0.00941954,1035,1674,2.06651,-4.45225
-182,-650,2.06934,4.49622,-0.00382559,0.000577163,-0.00109571,0.000834778,-0.0040832,-1.33988,0.00303886,0.00870129,1042,1674,2.06939,-4.49625
-175,-650,2.08691,4.52979,-0.00451079,0.00138306,-0.00130744,0.00166007,-0.0047878,-1.36201,0.00386592,0.0135142,1049,1674,2.08687,-4.5298
-168,-650,2.08789,4.58789,-0.00522755,0.0024158,-0.00161625,0.00274352,-0.00555527,-1.37074,0.00488212,0.018056,1056,1674,2.08792,-4.58794
-161,-650,2.07935,4.67212,-0.00563473,0.0039931,-0.00189581,0.00435295,-0.00599459,-1.38321,0.00599916,0.0259454,1063,1674,2.07933,-4.67215
-154,-650,2.10437,4.71155,-0.0057608,0.00510826,-0.00218911,0.0055326,-0.00618514,-1.37933,0.00676874,0.0308726,1070,1674,2.1044,-4.71154
-147,-650,2.18225,4.65698,-0.0060608,0.00564203,-0.00242869,0.00612604,-0.00654481,-1.37409,0.00731685,0.0389615,1077,1674,2.18228,-4.65703
-140,-650,2.21716,4.53931,-0.00700115,0.00619889,-0.0031949,0.00693151,-0.00773377,-1.34538,0.00847123,0.0424639,1084,1674,2.21721,-4.5393
-133,-650,2.15576,4.40332,-0.0083719,0.00134142,-0.00306796,0.00222928,-0.00925977,-1.28909,0.00703501,0.0427021,1091,1674,2.15579,-4.40331
-126,-650,2.18848,4.22107,0,0,0,0,0,0,0,-1,1098,1674,2.18847,-4.2211
-119,-650,2.71289,3.63293,0,0,0,0,0,0,0,-1,1105,1674,2.71288,-3.63299
-112,-650,3.02405,3.50134,0,0,0,0,0,0,0,-1,1112,1674,3.02399,-3.5013
-105,-650,2.35864,2.65808,0,0,0,0,0,0,0,-1,1119,1674,2.35867,-2.65806
-98,-650,1.80481,3.32581,0,0,0,0,0,0,0,-1,1126,1674,1.80478,-3.3258
-91,-650,1.14258,3.93225,-0.0213476,-0.0324957,0.00633657,-0.0184823,-0.0353609,0.424667,0.0204227,0.0458743,1133,1674,1.14254,-3.93225
-84,-650,0.423584,4.29187,0,0,0,0,0,0,0,-1,1140,1674,0.423624,-4.2919
-77,-650,-0.419922,4.84155,0,0,0,0,0,0,0,-1,1147,1674,-0.41987,-4.84158
-70,-650,-1.05872,5.17126,-0.032166,-0.0475057,0.00660613,-0.0297132,-0.0499585,0.355512,0.0290157,0.0484018,1154,1674,-1.05873,-5.17133
-63,-650,-1.76514,5.96399,-0.0248654,-0.0506462,0.00067153,-0.0248479,-0.0506637,0.0260242,0.0292525,0.048864,1161,1674,-1.7651,-5.96395
-56,-650,-2.42078,6.69421,0,0,0,0,0,0,0,-1,1168,1674,-2.42081,-6.69416
-49,-650,0.12561,7.98926,-0.00494826,-0.0574415,-0.0143513,-0.0012809,-0.0611089,-0.250187,0.0403191,0.0490243,1175,1674,0.125565,-7.98929
-42,-650,-0.537598,7.74353,0.0075351,-0.0577467,-0.0237799,0.0152788,-0.0654903,-0.314809,0.0495447,0.04564,1182,1674,-0.537571,-7.74357
-35,-650,-0.818604,7.57166,0,0,0,0,0,0,0,-1,1189,1674,-0.818584,-7.57165
-28,-650,-1.0929,7.5481,0,0,0,0,0,0,0,-1,1196,1674,-1.0929,-7.54813
-21,-650,1.45068,4.83313,0,0,0,0,0,0,0,-1,1203,1674,1.45064,-4.83315
-14,-650,2.17432,4.18689,0.05431,-0.0593433,-0.0666187,0.0850466,-0.0900799,-0.432278,0.101123,0.0477915,1210,1674,2.17435,-4.18692
-7,-650,2.9635,3.65027,0.0646099,-0.0584752,-0.0807091,0.104563,-0.0984287,-0.459664,0.117215,0.0434148,1217,1674,2.96349,-3.65031
0,-650,3.63989,2.81323,0.06858,-0.0503739,-0.0911063,0.117905,-0.0996988,-0.496217,0.12578,0.0439714,1224,1674,3.63995,-2.8132
7,-650,4.3949,1.60254,0,0,0,0,0,0,0,-1,1231,1674,4.39489,-1.60248
14,-650,4.89014,0.651489,0.0628666,-0.0353309,-0.113342,0.137287,-0.109751,-0.581004,0.142923,0.0426297,1238,1674,4.89018,-0.65148
21,-650,5.04187,-0.260986,0.0483634,-0.0316288,-0.121014,0.135819,-0.119085,-0.625795,0.147275,0.0442102,1245,1674,5.04191,0.260985
28,-650,5.22534,-1.18188,0,0,0,0,0,0,0,-1,1252,1674,5.22532,1.18193
35,-650,0.325439,5.9552,0,0,0,0,0,0,0,-1,1259,1674,0.325479,-5.95521
42,-650,0.788086,4.64099,0,0,0,0,0,0,0,-1,1266,1674,0.788068,-4.64097
49,-650,0.233276,4.20776,0,0,0,0,0,0,0,-1,1273,1674,0.233251,-4.20779
56,-650,-0.400879,3.73242,0,0,0,0,0,0,0,-1,1280,1674,-0.400902,-3.73243
63,-650,-1.04626,3.35938,-0.0516018,0.0175545,-0.142787,0.12989,-0.163937,-0.904194,0.170021,0.0498948,1287,1674,-1.04623,-3.35936
70,-650,-1.73853,3.15796,-0.0652965,0.0299605,-0.145081,0.135031,-0.170367,-0.944,0.176715,0.0460324,1294,1674,-1.73854,-3.15796
77,-650,-2.44861,2.65393,-0.0742574,0.0418193,-0.145865,0.140768,-0.173206,-0.974742,0.181595,0.0437848,1301,1674,-2.44857,-2.6539
84,-650,-3.23462,2.25085,-0.0795044,0.0539116,-0.146028,0.147746,-0.173339,-0.999653,0.185575,0.0484512,1308,1674,-3.2346,-2.25084
91,-650,-4.1748,1.94568,0,0,0,0,0,0,0,-1,1315,1674,-4.17484,-1.94562
98,-650,-5.16406,1.42822,-0.0828751,0.0827072,-0.151073,0.172188,-0.172356,-1.03606,0.198922,0.0434142,1322,1674,-5.16401,-1.42824
105,-650,-5.64502,1.05005,-0.0797568,0.0983148,-0.154416,0.187525,-0.168967,-1.04691,0.205914,0.042933,1329,1674,-5.64502,-1.05007
112,-650,-5.90039,0.930054,-0.0737092,0.111044,-0.157257,0.201049,-0.163714,-1.05096,0.210964,0.0430346,1336,1674,-5.90035,-0.930102
119,-650,-6.15283,0.756836,0,0,0,0,0,0,0,-1,1343,1674,-6.15282,-0.756837
126,-650,-6.2688,0.102295,-0.059823,0.122288,-0.156342,0.212158,-0.149693,-1.04909,0.209949,0.0467263,1350,1674,-6.2688,-0.102354
133,-650,-6.55786,0.452759,-0.0541408,0.11723,-0.149979,0.204274,-0.141185,-1.04493,0.200557,0.046949,1357,1674,-6.55786,-0.452813
140,-650,-6.41089,0.768555,0,0,0,0,0,0,0,-1,1364,1674,-6.41087,-0.768605
147,-650,2.16895,6.38354,0,0,0,0,0,0,0,-1,1371,1674,2.16891,-6.38354
154,-650,2.81055,6.52087,0,0,0,0,0,0,0,-1,1378,1674,2.81057,-6.52082
161,-650,3.72351,7.00525,0,0,0,0,0,0,0,-1,1385,1674,3.72348,-7.00525
168,-650,4.78601,7.62402,0,0,0,0,0,0,0,-1,1392,1674,4.78605,-7.62397
175,-650,5.62537,-0.230713,0,0,0,0,0,0,0,-1,1399,1674,5.62538,0.230745
182,-650,5.56006,0.421631,0,0,0,0,0,0,0,-1,1406,1674,5.56,-0.421652
189,-650,4.81543,11.0654,0,0,0,0,0,0,0,-1,1413,1674,4.81542,-11.0654
196,-650,5.39575,11.9077,0,0,0,0,0,0,0,-1,1420,1674,5.39575,-11.9078
203,-650,4.44263,8.36841,0,0,0,0,0,0,0,-1,1427,1674,4.44263,-8.36836
210,-650,4.49719,6.9281,0,0,0,0,0,0,0,-1,1434,1674,4.49723,-6.9281
217,-650,4.82544,5.36121,0,0,0,0,0,0,0,-1,1441,1674,4.82538,-5.36125
224,-650,5.39087,0.0360107,0,0,0,0,0,0,0,-1,1448,1674,5.39085,-0.0360655
231,-650,6.09155,0.00146484,0,0,0,0,0,0,0,-1,1455,1674,6.09158,-0.00148661
238,-650,6.47559,0.27478,0,0,0,0,0,0,0,-1,1462,1674,6.47556,-0.274837
245,-650,7.63879,0.160889,0,0,0,0,0,0,0,-1,1469,1674,7.63878,-0.160842
252,-650,4.40369,0.807861,0,0,0,0,0,0,0,-1,1476,1674,4.40371,-0.807886
259,-650,4.73657,0.798584,0,0,0,0,0,0,0,-1,1483,1674,4.73662,-0.79863
266,-650,4.15259,5.0686,0,0,0,0,0,0,0,-1,1490,1674,4.15265,-5.06865
273,-650,4.07617,4.95703,-0.0384876,0.0230116,0.0135009,0.0258449,-0.0413209,1.36394,0.0391198,0.0478115,1497,1674,4.07612,-4.95705
280,-650,3.61853,4.8551,-0.0371895,0.021807,0.0117651,0.0240667,-0.0394492,1.38104,0.0370277,0.0457651,1504,1674,3.61852,-4.85505
287,-650,3.22437,4.86157,-0.0348545,0.0200024,0.00956362,0.0216219,-0.036474,1.40305,0.0339051,0.0436527,1511,1674,3.22434,-4.86152
294,-650,3.10339,4.76819,-0.0315797,0.0174709,0.00732887,0.0185425,-0.0326513,1.42561,0.0299286,0.0374063,1518,1674,3.10345,-4.76821
301,-650,2.88171,4.64111,-0.0276924,0.0147744,0.00499177,0.0153533,-0.0282713,1.45535,0.0255521,0.0265536,1525,1674,2.88173,-4.64112
308,-650,2.8512,4.63196,-0.0235708,0.0120048,0.00266657,0.0122035,-0.0237695,1.4964,0.0211239,0.0147605,1532,1674,2.85118,-4.63194
315,-650,2.86816,4.61108,-0.0193823,0.00957455,0.000399681,0.00958006,-0.0193878,1.557,0.0170411,0.00959561,1539,1674,2.86815,-4.61103
322,-650,2.85999,4.54639,-0.0156457,0.00701602,-0.0015935,0.00712752,-0.0157572,-1.50094,0.013522,0.00961174,1546,1674,2.85994,-4.54639
329,-650,2.86597,4.46875,-0.0119921,0.00518806,-0.00323229,0.00577606,-0.0125801,-1.39085,0.0108379,0.0166691,1553,1674,2.86591,-4.46879
336,-650,2.86169,4.4679,-0.00845371,0.00363731,-0.00460143,0.00518926,-0.0100057,-1.2455,0.00891849,0.0140562,1560,1674,2.86174,-4.46792
343,-650,2.86694,4.45923,-0.00557291,0.00216202,-0.00555018,0.0050593,-0.00847019,-1.08969,0.00789357,0.0134892,1567,1674,2.86689,-4.45917
350,-650,2.87659,4.41077,-0.00311441,0.00083709,-0.00568924,0.00488388,-0.0071612,-0.952522,0.00699554,0.0163401,1574,1674,2.87663,-4.41074
357,-650,2.86499,4.36536,-0.00158175,0.000441277,-0.00550359,0.00502553,-0.00616601,-0.87628,0.00647262,0.012965,1581,1674,2.86501,-4.3653
364,-650,2.87488,4.30249,-0.000610319,0.00121777,-0.00515101,0.00553521,-0.00492776,-0.873209,0.00604419,0.00875935,1588,1674,2.87492,-4.30248
371,-650,2.87573,4.24512,0.000599805,0.00171226,-0.00441649,0.00560741,-0.00329534,-0.84804,0.00519746,0.0110169,1595,1674,2.87577,-4.24511
378,-650,2.87659,4.19617,0.0017049,0.00240415,-0.00343413,0.0055064,-0.00139735,-0.836128,0.00421466,0.0119278,1602,1674,2.87656,-4.19621
385,-650,2.87305,4.16138,0.00300626,0.00316977,-0.002664,0.00575327,0.000422763,-0.800737,0.00370265,0.0134066,1609,1674,2.87311,-4.16141
392,-650,2.86023,4.12732,0.00441681,0.00398937,-0.0015477,0.00576548,0.0026407,-0.716787,0.00333261,0.0171965,1616,1674,2.86022,-4.12729
399,-650,2.86438,4.09705,0.00612958,0.00478794,-0.000803183,0.00650523,0.00441229,-0.437479,0.00383454,0.0152421,1623,1674,2.86434,-4.09701
406,-650,2.87573,4.05017,0.0080128,0.00550949,-0.000223069,0.00803252,0.00548976,-0.0881836,0.00474048,0.013533,1630,1674,2.8757,-4.05019
413,-650,2.87695,3.98169,0.010071,0.00618723,0.000219552,0.0100833,0.00617486,0.0562922,0.00587043,0.0146688,1637,1674,2.87698,-3.98171
420,-650,2.85596,3.9292,0.0121927,0.00666672,0.000870609,0.0123266,0.0065328,0.152624,0.00712105,0.015177,1644,1674,2.85596,-3.92924
427,-650,2.84009,3.8822,0.0155082,0.00720708,0.00062552,0.0155551,0.00716021,0.0747905,0.00899018,0.0140551,1651,1674,2.84011,-3.88226
434,-650,2.85266,3.83289,0.0189597,0.00789435,-0.000279313,0.0189667,0.0078873,-0.0252207,0.011002,0.0162966,1658,1674,2.85266,-3.83285
441,-650,2.89014,3.73962,0.0222988,0.00845481,-0.00139121,0.0224373,0.00831639,-0.0991705,0.0130978,0.0267152,1665,1674,2.89015,-3.73968
448,-650,2.85144,3.66443,0.025951,0.00914506,-0.00312236,0.0265123,0.00858371,-0.177884,0.0156206,0.0383672,1672,1674,2.85147,-3.66448
455,-650,2.8927,3.58203,0.0305529,0.0101952,-0.0049464,0.0316911,0.00905701,-0.226172,0.0188483,0.0414035,1679,1674,2.89269,-3.58207
462,-650,3.08411,3.32837,0.0351606,0.00949228,-0.00809239,0.0374988,0.00715401,-0.281285,0.0229886,0.0476349,1686,1674,3.08406,-3.32834
469,-650,3.28894,3.23682,0,0,0,0,0,0,0,-1,1693,1674,3.28892,-3.23677
476,-650,2.65063,3.97229,0.0437594,0.0127421,-0.0179995,0.0520099,0.00449152,-0.429798,0.0332773,0.0444171,1700,1674,2.65058,-3.9723
483,-650,2.93701,3.42993,0.049541,0.0150953,-0.0235576,0.0615001,0.00313618,-0.469752,0.0399957,0.0473094,1707,1674,2.93705,-3.42995
490,-650,3.17822,3.33081,0,0,0,0,0,0,0,-1,1714,1674,3.17824,-3.33085
497,-650,3.45776,3.24084,0,0,0,0,0,0,0,-1,1721,1674,3.4577,-3.2408
504,-650,3.75024,3.14795,0,0,0,0,0,0,0,-1,1728,1674,3.75023,-3.14794
511,-650,4.13489,5.08105,0,0,0,0,0,0,0,-1,1735,1674,4.13484,-5.08106
518,-650,0,0,0,0,0,0,0,0,0,-1,1742,1674,0,0
525,-650,0,0,0,0,0,0,0,0,0,-1,1749,1674,0,0
532,-650,0,0,0,0,0,0,0,0,0,-1,1756,1674,0,0
539,-650,0,0,0,0,0,0,0,0,0,-1,1763,1674,0,0
546,-650,0,0,0,0,0,0,0,0,0,-1,1770,1674,0,0
553,-650,0,0,0,0,0,0,0,0,0,-1,1777,1674,0,0
560,-650,0,0,0,0,0,0,0,0,0,-1,1784,1674,0,0
567,-650,0,0,0,0,0,0,0,0,0,-1,1791,1674,0,0
574,-650,0,0,0,0,0,0,0,0,0,-1,1798,1674,0,0
581,-650,0,0,0,0,0,0,0,0,0,-1,1805,1674,0,0
588,-650,0,0,0,0,0,0,0,0,0,-1,1812,1674,0,0
595,-650,0,0,0,0,0,0,0,0,0,-1,1819,1674,0,0
602,-650,0,0,0,0,0,0,0,0,0,-1,1826,1674,0,0
609,-650,0,0,0,0,0,0,0,0,0,-1,1833,1674,0,0
616,-650,0,0,0,0,0,0,0,0,0,-1,1840,1674,0,0
623,-650,0,0,0,0,0,0,0,0,0,-1,1847,1674,0,0
630,-650,0,0,0,0,0,0,0,0,0,-1,1854,1674,0,0
637,-650,0,0,0,0,0,0,0,0,0,-1,1861,1674,0,0
644,-650,0,0,0,0,0,0,0,0,0,-1,1868,1674,0,0
651,-650,0,0,0,0,0,0,0,0,0,-1,1875,1674,0,0
658,-650,0,0,0,0,0,0,0,0,0,-1,1882,1674,0,0
665,-650,0,0,0,0,0,0,0,0,0,-1,1889,1674,0,0
672,-650,0,0,0,0,0,0,0,0,0,-1,1896,1674,0,0
679,-650,0,0,0,0,0,0,0,0,0,-1,1903,1674,0,0
686,-650,0,0,0,0,0,0,0,0,0,-1,1910,1674,0,0
693,-650,0,0,0,0,0,0,0,0,0,-1,1917,1674,0,0
700,-650,0,0,0,0,0,0,0,0,0,-1,1924,1674,0,0
707,-650,0,0,0,0,0,0,0,0,0,-1,1931,1674,0,0
714,-650,0,0,0,0,0,0,0,0,0,-1,1938,1674,0,0
721,-650,0,0,0,0,0,0,0,0,0,-1,1945,1674,0,0
728,-650,0,0,0,0,0,0,0,0,0,-1,1952,1674,0,0
735,-650,0,0,0,0,0,0,0,0,0,-1,1959,1674,0,0
742,-650,0,0,0,0,0,0,0,0,0,-1,1966,1674,0,0
749,-650,0,0,0,0,0,0,0,0,0,-1,1973,1674,0,0
756,-650,0,0,0,0,0,0,0,0,0,-1,1980,1674,0,0
763,-650,0,0,0,0,0,0,0,0,0,-1,1987,1674,0,0
770,-650,0,0,0,0,0,0,0,0,0,-1,1994,1674,0,0
777,-650,0,0,0,0,0,0,0,0,0,-1,2001,1674,0,0
784,-650,0,0,0,0,0,0,0,0,0,-1,2008,1674,0,0
791,-650,0,0,0,0,0,0,0,0,0,-1,2015,1674,0,0
798,-650,0,0,0,0,0,0,0,0,0,-1,2022,1674,0,0
805,-650,0,0,0,0,0,0,0,0,0,-1,2029,1674,0,0
812,-650,0,0,0,0,0,0,0,0,0,-1,2036,1674,0,0
-700,-657,0,0,0,0,0,0,0,0,0,-1,524,1681,0,0
-693,-657,0,0,0,0,0,0,0,0,0,-1,531,1681,0,0
-686,-657,0,0,0,0,0,0,0,0,0,-1,538,1681,0,0
-679,-657,0,0,0,0,0,0,0,0,0,-1,545,1681,0,0
-672,-657,0,0,0,0,0,0,0,0,0,-1,552,1681,0,0
-665,-657,0,0,0,0,0,0,0,0,0,-1,559,1681,0,0
-658,-657,0,0,0,0,0,0,0,0,0,-1,566,1681,0,0
-651,-657,0,0,0,0,0,0,0,0,0,-1,573,1681,0,0
-644,-657,0,0,0,0,0,0,0,0,0,-1,580,1681,0,0
-637,-657,0,0,0,0,0,0,0,0,0,-1,587,1681,0,0
-630,-657,0,0,0,0,0,0,0,0,0,-1,594,1681,0,0
-623,-657,0,0,0,0,0,0,0,0,0,-1,601,1681,0,0
-616,-657,0,0,0,0,0,0,0,0,0,-1,608,1681,0,0
-609,-657,0,0,0,0,0,0,0,0,0,-1,615,1681,0,0
-602,-657,0,0,0,0,0,0,0,0,0,-1,622,1681,0,0
-595,-657,0,0,0,0,0,0,0,0,0,-1,629,1681,0,0
-588,-657,0,0,0,0,0,0,0,0,0,-1,636,1681,0,0
-581,-657,0,0,0,0,0,0,0,0,0,-1,643,1681,0,0
-574,-657,0,0,0,0,0,0,0,0,0,-1,650,1681,0,0
-567,-657,0,0,0,0,0,0,0,0,0,-1,657,1681,0,0
-560,-657,0,0,0,0,0,0,0,0,0,-1,664,1681,0,0
-553,-657,0,0,0,0,0,0,0,0,0,-1,671,1681,0,0
-546,-657,0,0,0,0,0,0,0,0,0,-1,678,1681,0,0
-539,-657,0,0,0,0,0,0,0,0,0,-1,685,1681,0,0
-532,-657,0,0,0,0,0,0,0,0,0,-1,692,1681,0,0
-525,-657,0,0,0,0,0,0,0,0,0,-1,699,1681,0,0
-518,-657,0,0,0,0,0,0,0,0,0,-1,706,1681,0,0
-511,-657,0,0,0,0,0,0,0,0,0,-1,713,1681,0,0
-504,-657,0,0,0,0,0,0,0,0,0,-1,720,1681,0,0
-497,-657,0,0,0,0,0,0,0,0,0,-1,727,1681,0,0
-490,-657,0,0,0,0,0,0,0,0,0,-1,734,1681,0,0
-483,-657,0,0,0,0,0,0,0,0,0,-1,741,1681,0,0
-476,-657,0,0,0,0,0,0,0,0,0,-1,748,1681,0,0
-469,-657,0,0,0,0,0,0,0,0,0,-1,755,1681,0,0
-462,-657,0,0,0,0,0,0,0,0,0,-1,762,1681,0,0
-455,-657,0,0,0,0,0,0,0,0,0,-1,769,1681,0,0
-448,-657,0,0,0,0,0,0,0,0,0,-1,776,1681,0,0
-441,-657,0,0,0,0,0,0,0,0,0,-1,783,1681,0,0
-434,-657,0,0,0,0,0,0,0,0,0,-1,790,1681,0,0
-427,-657,0,0,0,0,0,0,0,0,0,-1,797,1681,0,0
-420,-657,0,0,0,0,0,0,0,0,0,-1,804,1681,0,0
-413,-657,0,0,0,0,0,0,0,0,0,-1,811,1681,0,0
-406,-657,0,0,0,0,0,0,0,0,0,-1,818,1681,0,0
-399,-657,0,0,0,0,0,0,0,0,0,-1,825,1681,0,0
-392,-657,0,0,0,0,0,0,0,0,0,-1,832,1681,0,0
-385,-657,3.21088,5.99829,0,0,0,0,0,0,0,-1,839,1681,3.21088,-5.99828
-378,-657,5.00928,3.27429,0,0,0,0,0,0,0,-1,846,1681,5.00931,-3.27431
-371,-657,3.38861,4.40137,0,0,0,0,0,0,0,-1,853,1681,3.38863,-4.40135
-364,-657,2.76459,3.6394,0,0,0,0,0,0,0,-1,860,1681,2.7646,-3.63942
-357,-657,2.13049,3.30591,0,0,0,0,0,0,0,-1,867,1681,2.13052,-3.30592
-350,-657,2.0025,3.27405,0,0,0,0,0,0,0,-1,874,1681,2.0025,-3.27403
-343,-657,1.81836,3.57971,0,0,0,0,0,0,0,-1,881,1681,1.81834,-3.57975
-336,-657,1.63416,3.8855,0,0,0,0,0,0,0,-1,888,1681,1.63418,-3.88546
-329,-657,0.424316,3.80676,0,0,0,0,0,0,0,-1,895,1681,0.424312,-3.80674
-322,-657,1.52368,3.56995,0.0228471,-0.0267336,-0.0100315,0.0247998,-0.0286864,-0.192255,0.0309074,0.042302,902,1681,1.52366,-3.56989
-315,-657,1.97296,3.51648,0.0257708,-0.021699,-0.00813669,0.0271267,-0.023055,-0.16513,0.0290042,0.0438831,909,1681,1.97294,-3.51644
-308,-657,1.80255,3.69324,0.026358,-0.0165574,-0.00629666,0.0272628,-0.0174622,-0.142716,0.0260278,0.0365041,916,1681,1.80254,-3.69325
-301,-657,1.99915,3.66919,0.0250609,-0.0120207,-0.00459692,0.0256223,-0.012582,-0.121517,0.0224815,0.0292503,923,1681,1.99912,-3.66918
-294,-657,2.08118,3.72205,0.022385,-0.00814763,-0.00306435,0.0226895,-0.00845214,-0.0990469,0.0185954,0.016438,930,1681,2.08119,-3.72203
-287,-657,2.08691,3.76782,0.0197373,-0.00477404,-0.00192775,0.019888,-0.00492473,-0.0780082,0.0151691,0.0106232,937,1681,2.08693,-3.76784
-280,-657,2.07965,3.78992,0.0165754,-0.00197447,-0.000985167,0.0166276,-0.00202664,-0.0529107,0.0118187,0.0128165,944,1681,2.07963,-3.78994
-273,-657,2.08459,3.85669,0.013133,-0.000201287,-0.000342132,0.0131418,-0.000210059,-0.0256355,0.00883207,0.0103084,951,1681,2.08459,-3.85667
-266,-657,2.06909,3.94946,0.00867908,0.000673211,0.000134723,0.00868135,0.000670944,0.0168217,0.00557739,0.0147619,958,1681,2.06911,-3.94952
-259,-657,2.08539,4.00024,0.00453344,0.000815801,0.000886693,0.00473409,0.000615146,0.222548,0.00297231,0.0189717,965,1681,2.08538,-4.00027
-252,-657,2.08344,4.02771,0.00316707,0.000671418,0.000565649,0.00328929,0.000549197,0.212801,0.00203465,0.0134894,972,1681,2.08341,-4.02777
-245,-657,2.10162,4.047,0.00169573,0.000549764,0.000346017,0.0017921,0.000453391,0.271637,0.00107593,0.0148678,979,1681,2.1016,-4.04694
-238,-657,2.104,4.09875,0.00070498,0.000140273,0.000314595,0.000845348,-9.54024e-08,0.419678,0.000563597,0.0189848,986,1681,2.10401,-4.09875
-231,-657,2.10742,4.19897,0.000124458,-0.000314972,0.000311412,0.000285862,-0.000476376,0.478179,0.000444637,0.0197682,993,1681,2.10741,-4.19893
-224,-657,2.10754,4.26648,-0.000288733,-0.00108399,0.000344059,-0.000160543,-0.00121218,0.356648,0.000760279,0.0152,1000,1681,2.10756,-4.26647
-217,-657,2.11194,4.29236,-0.000749801,-0.00152253,1.58943e-05,-0.000749474,-0.00152285,0.0205575,0.000879256,0.00933618,1007,1681,2.11193,-4.29235
-210,-657,2.12408,4.34778,-0.00112255,-0.00115945,-0.000139213,-0.00100057,-0.00128143,-0.719527,0.000777758,0.00985145,1014,1681,2.12408,-4.34775
-203,-657,2.12537,4.38818,-0.00142642,-0.000969964,-0.00023752,-0.000868792,-0.00152759,-1.16812,0.000884727,0.0123959,1021,1681,2.12537,-4.38821
-196,-657,2.12061,4.396,-0.00172796,-0.000470516,-0.000370075,-0.000369685,-0.00182879,-1.30479,0.00111655,0.0127065,1028,1681,2.12066,-4.39598
-189,-657,2.11633,4.44519,-0.00210923,3.25547e-06,-0.000565569,0.000145144,-0.00225112,-1.32499,0.00155139,0.0090832,1035,1681,2.11639,-4.44522
-182,-657,2.12341,4.50012,-0.00249737,0.000291644,-0.000764986,0.000487688,-0.00269341,-1.31992,0.00197831,0.0079035,1042,1681,2.12344,-4.50009
-175,-657,2.12463,4.54114,-0.00293931,0.00060038,-0.000970897,0.000849196,-0.00318813,-1.31992,0.00245788,0.00975906,1049,1681,2.12469,-4.54117
-168,-657,2.11316,4.58606,-0.00335469,0.00117812,-0.00121949,0.00148538,-0.00366195,-1.32398,0.00305909,0.0113009,1056,1681,2.11318,-4.58603
-161,-657,2.1261,4.62146,-0.00363353,0.00193804,-0.00152258,0.00232697,-0.00402247,-1.3207,0.00370916,0.0114047,1063,1681,2.12612,-4.62147
-154,-657,2.12317,4.66687,-0.00375092,0.00258164,-0.00180012,0.00305758,-0.00422686,-1.31232,0.00422369,0.0116608,1070,1681,2.12314,-4.66692
-147,-657,2.14087,4.68005,-0.00400826,0.00279141,-0.00189782,0.00328524,-0.00450209,-1.31623,0.00451427,0.0152594,1077,1681,2.14084,-4.68001
-140,-657,2.11755,4.61621,-0.00475538,0.00313631,-0.00239583,0.00380671,-0.00542577,-1.29796,0.00535763,0.0241307,1084,1681,2.11754,-4.61627
-133,-657,2.05383,4.58728,-0.00573859,7.05602e-05,-0.00244365,0.000961767,-0.0066298,-1.22108,0.00477287,0.0330567,1091,1681,2.05389,-4.58731
-126,-657,2.06628,4.65857,-0.00626979,-0.00424014,-0.00168304,-0.00328965,-0.00722029,-1.0567,0.00417411,0.0386368,1098,1681,2.06634,-4.65859
-119,-657,1.90454,4.99841,-0.00786333,-0.00563101,0.000393179,-0.00556378,-0.00793056,1.40145,0.00470109,0.0499249,1105,1681,1.90452,-4.99838
-112,-657,2.01111,5.04199,0,0,0,0,0,0,0,-1,1112,1681,2.01113,-5.04205
-105,-657,1.97205,4.67285,0,0,0,0,0,0,0,-1,1119,1681,1.97209,-4.67283
-98,-657,1.74731,1.26147,0,0,0,0,0,0,0,-1,1126,1681,1.7473,-1.26144
-91,-657,2.27905,3.94617,0,0,0,0,0,0,0,-1,1133,1681,2.27902,-3.94617
-84,-657,1.95007,3.92139,0,0,0,0,0,0,0,-1,1140,1681,1.95002,-3.92135
-77,-657,2.17932,4.0791,0,0,0,0,0,0,0,-1,1147,1681,2.17927,-4.07906
-70,-657,-1.14294,3.31885,0,0,0,0,0,0,0,-1,1154,1681,-1.14294,-3.31885
-63,-657,-1.89612,4.30359,0,0,0,0,0,0,0,-1,1161,1681,-1.89611,-4.30364
-56,-657,-2.47766,5.09302,0,0,0,0,0,0,0,-1,1168,1681,-2.47761,-5.09307
-49,-657,-0.00610352,9.203,0,0,0,0,0,0,0,-1,1175,1681,-0.006123,-9.20295
-42,-657,-0.6698,8.95789,0,0,0,0,0,0,0,-1,1182,1681,-0.669755,-8.95793
-35,-657,-0.999756,8.82471,0,0,0,0,0,0,0,-1,1189,1681,-0.999716,-8.82473
-28,-657,-1.3446,8.92847,0,0,0,0,0,0,0,-1,1196,1681,-1.34459,-8.92848
-21,-657,1.80286,5.46826,0,0,0,0,0,0,0,-1,1203,1681,1.80282,-5.46822
-14,-657,2.32178,4.70459,0.0445672,-0.0498682,-0.0545932,0.0695293,-0.0748303,-0.428858,0.0833648,0.0439634,1210,1681,2.32182,-4.70459
-7,-657,2.31042,3.94995,0.0530594,-0.0502117,-0.0657339,0.0850132,-0.0821655,-0.452473,0.0965253,0.0415384,1217,1681,2.31048,-3.94997
0,-657,3.8656,3.36877,0,0,0,0,0,0,0,-1,1224,1681,3.86565,-3.36879
7,-657,4.76758,2.50732,0,0,0,0,0,0,0,-1,1231,1681,4.76756,-2.50728
14,-657,5.23352,1.62549,0,0,0,0,0,0,0,-1,1238,1681,5.23355,-1.6255
21,-657,5.09509,0.868774,0,0,0,0,0,0,0,-1,1245,1681,5.09511,-0.868786
28,-657,1.8551,6.88635,0,0,0,0,0,0,0,-1,1252,1681,1.85505,-6.88635
35,-657,1.84021,6.19165,0.00753217,-0.0223639,-0.107277,0.100897,-0.115729,-0.716173,0.125167,0.043611,1259,1681,1.84016,-6.19167
42,-657,1.74878,5.35327,-0.00765765,-0.0176397,-0.110998,0.0984618,-0.123759,-0.762931,0.128576,0.045443,1266,1681,1.74882,-5.35322
49,-657,1.18408,4.92712,-0.0220539,-0.0109357,-0.11474,0.0983801,-0.13137,-0.809604,0.133101,0.0466145,1273,1681,1.18404,-4.92718
56,-657,0.549561,4.49121,0,0,0,0,0,0,0,-1,1280,1681,0.5496,-4.49118
63,-657,-0.0755615,4.04419,-0.0457593,0.00507714,-0.1194,0.101734,-0.142416,-0.890274,0.141611,0.0491868,1287,1681,-0.0755906,-4.04418
70,-657,-0.678833,3.51013,-0.0562452,0.0155435,-0.122548,0.107346,-0.148048,-0.927863,0.148075,0.0463662,1294,1681,-0.678846,-3.51017
77,-657,-1.13135,2.99158,-0.0625207,0.0261016,-0.124057,0.113523,-0.149942,-0.956929,0.152596,0.0453542,1301,1681,-1.13138,-2.99154
84,-657,-1.68958,2.48022,-0.0655267,0.037362,-0.124893,0.120991,-0.149155,-0.980763,0.156251,0.0468059,1308,1681,-1.68953,-2.48023
91,-657,-2.58875,1.89429,0,0,0,0,0,0,0,-1,1315,1681,-2.58869,-1.89435
98,-657,-2.53613,1.11743,-0.066847,0.0634243,-0.129399,0.143157,-0.146579,-1.01857,0.167283,0.0442123,1322,1681,-2.53611,-1.11739
105,-657,-3.07666,0.623047,-0.0640741,0.0768616,-0.131964,0.155994,-0.143207,-1.03063,0.172796,0.0448037,1329,1681,-3.0767,-0.623033
112,-657,-3.1145,0.268188,-0.0591984,0.0884584,-0.133921,0.167553,-0.138293,-1.03731,0.176849,0.044957,1336,1681,-3.11455,-0.2682
119,-657,-3.37524,0.0463867,0,0,0,0,0,0,0,-1,1343,1681,-3.3752,-0.0463585
126,-657,-4.08923,0.137573,-0.0488126,0.102067,-0.13327,0.179768,-0.126513,-1.04295,0.17772,0.0468255,1350,1681,-4.08928,-0.137586
133,-657,-4.37292,0.177856,-0.0440588,0.102294,-0.128424,0.176927,-0.118691,-1.04436,0.171775,0.0467029,1357,1681,-4.37292,-0.177822
140,-657,-4.37341,0.224609,0,0,0,0,0,0,0,-1,1364,1681,-4.37347,-0.224576
147,-657,-4.41602,0.244263,0,0,0,0,0,0,0,-1,1371,1681,-4.41597,-0.244298
154,-657,3.61108,6.87036,0,0,0,0,0,0,0,-1,1378,1681,3.61114,-6.87036
161,-657,4.72742,7.57043,0,0,0,0,0,0,0,-1,1385,1681,4.72744,-7.57041
168,-657,5.21643,0.70105,0,0,0,0,0,0,0,-1,1392,1681,5.21648,-0.7011
175,-657,5.52771,0.649048,0,0,0,0,0,0,0,-1,1399,1681,5.52774,-0.649019
182,-657,5.73999,1.02612,0,0,0,0,0,0,0,-1,1406,1681,5.73995,-1.02611
189,-657,5.92126,1.44116,0,0,0,0,0,0,0,-1,1413,1681,5.92126,-1.44115
196,-657,4.92834,9.59021,0,0,0,0,0,0,0,-1,1420,1681,4.9284,-9.59018
203,-657,6.93542,3.52649,0,0,0,0,0,0,0,-1,1427,1681,6.93538,-3.52654
210,-657,3.9856,5.28088,0,0,0,0,0,0,0,-1,1434,1681,3.98555,-5.28084
217,-657,4.23767,4.76453,0,0,0,0,0,0,0,-1,1441,1681,4.23767,-4.76458
224,-657,5.3927,4.16785,0,0,0,0,0,0,0,-1,1448,1681,5.39267,-4.16786
231,-657,6.33838,-0.213989,0,0,0,0,0,0,0,-1,1455,1681,6.33841,0.213962
238,-657,4.67334,0.643799,0,0,0,0,0,0,0,-1,1462,1681,4.67329,-0.643793
245,-657,4.63208,0.703735,0,0,0,0,0,0,0,-1,1469,1681,4.63213,-0.703736
252,-657,4.78955,0.623779,0,0,0,0,0,0,0,-1,1476,1681,4.7895,-0.623826
259,-657,2.61523,4.31909,0,0,0,0,0,0,0,-1,1483,1681,2.61523,-4.31908
266,-657,3.77673,5.72791,0,0,0,0,0,0,0,-1,1490,1681,3.77678,-5.7279
273,-657,3.46375,5.28796,-0.0303495,0.0211187,0.0137825,0.0245771,-0.0338079,1.32495,0.0338487,0.0412639,1497,1681,3.46373,-5.28802
280,-657,2.97205,4.82043,-0.0288361,0.0199758,0.0119519,0.0227452,-0.0316055,1.3431,0.0315181,0.0385963,1504,1681,2.97204,-4.82047
287,-657,2.72998,4.67908,0,0,0,0,0,0,0,-1,1511,1681,2.72995,-4.67913
294,-657,2.8584,4.71545,-0.0236473,0.0161416,0.00777855,0.0176082,-0.0251139,1.38444,0.0247922,0.023023,1518,1681,2.85839,-4.71542
301,-657,2.81262,4.6748,-0.0203203,0.0138804,0.00575573,0.0148231,-0.021263,1.40846,0.0209446,0.0146754,1525,1681,2.81266,-4.67485
308,-657,2.81384,4.63269,-0.0168579,0.0115998,0.00374843,0.0120853,-0.0173433,1.442,0.0170808,0.0109082,1532,1681,2.81382,-4.63268
315,-657,2.83716,4.5907,-0.0134052,0.00960075,0.00176538,0.00973543,-0.0135399,1.49465,0.0134977,0.0103949,1539,1681,2.83715,-4.59074
322,-657,2.83362,4.52686,-0.0102828,0.00746003,-2.38433e-05,0.00746006,-0.0102828,-1.56945,0.010287,0.0134315,1546,1681,2.83359,-4.52684
329,-657,2.82715,4.47021,-0.00729652,0.00595889,-0.00151864,0.00613065,-0.00746829,-1.45817,0.007864,0.020047,1553,1681,2.8272,-4.47015
336,-657,2.81763,4.4436,-0.0045282,0.00455414,-0.00281669,0.00535675,-0.00533081,-1.29321,0.00617047,0.0165299,1560,1681,2.81766,-4.44361
343,-657,2.83875,4.42188,-0.00240481,0.00318743,-0.00375938,0.00507653,-0.0042939,-1.10515,0.00541631,0.0123594,1567,1681,2.83871,-4.42192
350,-657,2.84204,4.38831,-0.000891381,0.00190175,-0.00428288,0.00501001,-0.00399964,-0.943003,0.00521262,0.0155494,1574,1681,2.84198,-4.38829
357,-657,2.81873,4.35291,-6.55106e-05,0.00193096,-0.00438302,0.00542799,-0.00356254,-0.897364,0.00522779,0.0148089,1581,1681,2.81874,-4.35292
364,-657,2.8252,4.30603,0.000742125,0.00275099,-0.00420894,0.00607369,-0.00258058,-0.902528,0.00513042,0.0105475,1588,1681,2.8252,-4.30602
371,-657,2.83264,4.24976,0.00184285,0.00324423,-0.00372239,0.00633131,-0.00124422,-0.878428,0.00469094,0.0146605,1595,1681,2.83259,-4.2497
378,-657,2.8053,4.18384,0.00296895,0.00395799,-0.00301889,0.0065226,0.00040434,-0.866582,0.00422008,0.0143097,1602,1681,2.80532,-4.18381
385,-657,2.79333,4.14746,0.00446579,0.00481994,-0.00241345,0.0070628,0.00222293,-0.822017,0.00416997,0.0127695,1609,1681,2.79331,-4.14748
392,-657,2.81482,4.13708,0.00611289,0.00579706,-0.00150041,0.00746367,0.00444628,-0.732968,0.00433539,0.013125,1616,1681,2.81476,-4.13705
399,-657,2.83716,4.08997,0.00831907,0.00674821,-0.000738884,0.008612,0.00645528,-0.377435,0.00517448,0.0122427,1623,1681,2.83721,-4.08994
406,-657,2.83691,4.04675,0.0108901,0.00765687,-3.16073e-06,0.0108901,0.00765686,-0.00097758,0.00645799,0.0130326,1630,1681,2.83693,-4.04669
413,-657,2.84155,3.98279,0.0138526,0.00854735,0.000678485,0.013938,0.00846196,0.125206,0.00810841,0.0130428,1637,1681,2.84154,-3.98281
420,-657,2.83081,3.91003,0.0170785,0.00924852,0.00163352,0.0174056,0.00892139,0.197643,0.0100502,0.0145947,1644,1681,2.83087,-3.91009
427,-657,2.80457,3.84729,0.0216134,0.00995859,0.00134059,0.0217657,0.00980638,0.113057,0.0125869,0.0177491,1651,1681,2.80457,-3.84731
434,-657,2.81348,3.80139,0.0261805,0.0108183,0.000276087,0.0261855,0.0108133,0.017964,0.0151944,0.0247182,1658,1681,2.81349,-3.80144
441,-657,2.74622,3.65063,0.0308115,0.0117935,-0.000965097,0.0308603,0.0117447,-0.0505735,0.0179858,0.0400731,1665,1681,2.74616,-3.65067
448,-657,2.78711,3.63794,0.035636,0.0126119,-0.00318928,0.0360697,0.0121783,-0.13513,0.0211877,0.0474199,1672,1681,2.78716,-3.63797
455,-657,2.86584,3.49658,0,0,0,0,0,0,0,-1,1679,1681,2.86579,-3.49659
462,-657,3.15662,3.17456,0,0,0,0,0,0,0,-1,1686,1681,3.15664,-3.17455
469,-657,1.98596,4.04614,0,0,0,0,0,0,0,-1,1693,1681,1.98594,-4.04615
476,-657,2.38513,3.44287,0.0548319,0.0164876,-0.0228668,0.0655003,0.00581918,-0.43653,0.0418622,0.0456129,1700,1681,2.38512,-3.44293
483,-657,3.0957,3.16138,0.0600428,0.0194608,-0.0300331,0.0759969,0.00350666,-0.48831,0.0495371,0.0492692,1707,1681,3.0957,-3.16136
490,-657,3.34131,3.09424,0,0,0,0,0,0,0,-1,1714,1681,3.3413,-3.09428
497,-657,3.52795,3.02112,0,0,0,0,0,0,0,-1,1721,1681,3.52795,-3.02115
504,-657,0,0,0,0,0,0,0,0,0,-1,1728,1681,0,0
511,-657,0,0,0,0,0,0,0,0,0,-1,1735,1681,0,0
518,-657,0,0,0,0,0,0,0,0,0,-1,1742,1681,0,0
525,-657,0,0,0,0,0,0,0,0,0,-1,1749,1681,0,0
532,-657,0,0,0,0,0,0,0,0,0,-1,1756,1681,0,0
539,-657,0,0,0,0,0,0,0,0,0,-1,1763,1681,0,0
546,-657,0,0,0,0,0,0,0,0,0,-1,1770,1681,0,0
553,-657,0,0,0,0,0,0,0,0,0,-1,1777,1681,0,0
560,-657,0,0,0,0,0,0,0,0,0,-1,1784,1681,0,0
567,-657,0,0,0,0,0,0,0,0,0,-1,1791,1681,0,0
574,-657,0,0,0,0,0,0,0,0,0,-1,1798,1681,0,0
581,-657,0,0,0,0,0,0,0,0,0,-1,1805,1681,0,0
588,-657,0,0,0,0,0,0,0,0,0,-1,1812,1681,0,0
595,-657,0,0,0,0,0,0,0,0,0,-1,1819,1681,0,0
602,-657,0,0,0,0,0,0,0,0,0,-1,1826,1681,0,0
609,-657,0,0,0,0,0,0,0,0,0,-1,1833,1681,0,0
616,-657,0,0,0,0,0,0,0,0,0,-1,1840,1681,0,0
623,-657,0,0,0,0,0,0,0,0,0,-1,1847,1681,0,0
630,-657,0,0,0,0,0,0,0,0,0,-1,1854,1681,0,0
637,-657,0,0,0,0,0,0,0,0,0,-1,1861,1681,0,0
644,-657,0,0,0,0,0,0,0,0,0,-1,1868,1681,0,0
651,-657,0,0,0,0,0,0,0,0,0,-1,1875,1681,0,0
658,-657,0,0,0,0,0,0,0,0,0,-1,1882,1681,0,0
665,-657,0,0,0,0,0,0,0,0,0,-1,1889,1681,0,0
672,-657,0,0,0,0,0,0,0,0,0,-1,1896,1681,0,0
679,-657,0,0,0,0,0,0,0,0,0,-1,1903,1681,0,0
686,-657,0,0,0,0,0,0,0,0,0,-1,1910,1681,0,0
693,-657,0,0,0,0,0,0,0,0,0,-1,1917,1681,0,0
700,-657,0,0,0,0,0,0,0,0,0,-1,1924,1681,0,0
707,-657,0,0,0,0,0,0,0,0,0,-1,1931,1681,0,0
714,-657,0,0,0,0,0,0,0,0,0,-1,1938,1681,0,0
721,-657,0,0,0,0,0,0,0,0,0,-1,1945,1681,0,0
728,-657,0,0,0,0,0,0,0,0,0,-1,1952,1681,0,0
735,-657,0,0,0,0,0,0,0,0,0,-1,1959,1681,0,0
742,-657,0,0,0,0,0,0,0,0,0,-1,1966,1681,0,0
749,-657,0,0,0,0,0,0,0,0,0,-1,1973,1681,0,0
756,-657,0,0,0,0,0,0,0,0,0,-1,1980,1681,0,0
763,-657,0,0,0,0,0,0,0,0,0,-1,1987,1681,0,0
770,-657,0,0,0,0,0,0,0,0,0,-1,1994,1681,0,0
777,-657,0,0,0,0,0,0,0,0,0,-1,2001,1681,0,0
784,-657,0,0,0,0,0,0,0,0,0,-1,2008,1681,0,0
791,-657,0,0,0,0,0,0,0,0,0,-1,2015,1681,0,0
798,-657,0,0,0,0,0,0,0,0,0,-1,2022,1681,0,0
805,-657,0,0,0,0,0,0,0,0,0,-1,2029,1681,0,0
812,-657,0,0,0,0,0,0,0,0,0,-1,2036,1681,0,0
-700,-664,0,0,0,0,0,0,0,0,0,-1,524,1688,0,0
-693,-664,0,0,0,0,0,0,0,0,0,-1,531,1688,0,0
-686,-664,0,0,0,0,0,0,0,0,0,-1,538,1688,0,0
-679,-664,0,0,0,0,0,0,0,0,0,-1,545,1688,0,0
-672,-664,0,0,0,0,0,0,0,0,0,-1,552,1688,0,0
-665,-664,0,0,0,0,0,0,0,0,0,-1,559,1688,0,0
-658,-664,0,0,0,0,0,0,0,0,0,-1,566,1688,0,0
-651,-664,0,0,0,0,0,0,0,0,0,-1,573,1688,0,0
-644,-664,0,0,0,0,0,0,0,0,0,-1,580,1688,0,0
-637,-664,0,0,0,0,0,0,0,0,0,-1,587,1688,0,0
-630,-664,0,0,0,0,0,0,0,0,0,-1,594,1688,0,0
-623,-664,0,0,0,0,0,0,0,0,0,-1,601,1688,0,0
-616,-664,0,0,0,0,0,0,0,0,0,-1,608,1688,0,0
-609,-664,0,0,0,0,0,0,0,0,0,-1,615,1688,0,0
-602,-664,0,0,0,0,0,0,0,0,0,-1,622,1688,0,0
-595,-664,0,0,0,0,0,0,0,0,0,-1,629,1688,0,0
-588,-664,0,0,0,0,0,0,0,0,0,-1,636,1688,0,0
-581,-664,0,0,0,0,0,0,0,0,0,-1,643,1688,0,0
-574,-664,0,0,0,0,0,0,0,0,0,-1,650,1688,0,0
-567,-664,0,0,0,0,0,0,0,0,0,-1,657,1688,0,0
-560,-664,0,0,0,0,0,0,0,0,0,-1,664,1688,0,0
-553,-664,0,0,0,0,0,0,0,0,0,-1,671,1688,0,0
-546,-664,0,0,0,0,0,0,0,0,0,-1,678,1688,0,0
-539,-664,0,0,0,0,0,0,0,0,0,-1,685,1688,0,0
-532,-664,0,0,0,0,0,0,0,0,0,-1,692,1688,0,0
-525,-664,0,0,0,0,0,0,0,0,0,-1,699,1688,0,0
-518,-664,0,0,0,0,0,0,0,0,0,-1,706,1688,0,0
-511,-664,0,0,0,0,0,0,0,0,0,-1,713,1688,0,0
-504,-664,0,0,0,0,0,0,0,0,0,-1,720,1688,0,0
-497,-664,0,0,0,0,0,0,0,0,0,-1,727,1688,0,0
-490,-664,0,0,0,0,0,0,0,0,0,-1,734,1688,0,0
-483,-664,0,0,0,0,0,0,0,0,0,-1,741,1688,0,0
-476,-664,0,0,0,0,0,0,0,0,0,-1,748,1688,0,0
-469,-664,0,0,0,0,0,0,0,0,0,-1,755,1688,0,0
-462,-664,0,0,0,0,0,0,0,0,0,-1,762,1688,0,0
-455,-664,0,0,0,0,0,0,0,0,0,-1,769,1688,0,0
-448,-664,0,0,0,0,0,0,0,0,0,-1,776,1688,0,0
-441,-664,0,0,0,0,0,0,0,0,0,-1,783,1688,0,0
-434,-664,0,0,0,0,0,0,0,0,0,-1,790,1688,0,0
-427,-664,0,0,0,0,0,0,0,0,0,-1,797,1688,0,0
-420,-664,0,0,0,0,0,0,0,0,0,-1,804,1688,0,0
-413,-664,0,0,0,0,0,0,0,0,0,-1,811,1688,0,0
-406,-664,0,0,0,0,0,0,0,0,0,-1,818,1688,0,0
-399,-664,0,0,0,0,0,0,0,0,0,-1,825,1688,0,0
-392,-664,0,0,0,0,0,0,0,0,0,-1,832,1688,0,0
-385,-664,0,0,0,0,0,0,0,0,0,-1,839,1688,0,0
-378,-664,0,0,0,0,0,0,0,0,0,-1,846,1688,0,0
-371,-664,3.87311,4.00439,0,0,0,0,0,0,0,-1,853,1688,3.87309,-4.00438
-364,-664,3.82111,3.50208,0,0,0,0,0,0,0,-1,860,1688,3.82111,-3.50208
-357,-664,3.66559,3.04199,0,0,0,0,0,0,0,-1,867,1688,3.66558,-3.04203
-350,-664,2.07446,3.15698,0,0,0,0,0,0,0,-1,874,1688,2.07448,-3.15695
-343,-664,1.88684,3.45483,0,0,0,0,0,0,0,-1,881,1688,1.88684,-3.45478
-336,-664,1.66602,3.57251,0,0,0,0,0,0,0,-1,888,1688,1.66604,-3.57252
-329,-664,1.23773,3.73767,0,0,0,0,0,0,0,-1,895,1688,1.23775,-3.73761
-322,-664,1.65607,3.4635,0.0298737,-0.0344984,-0.0137212,0.0326764,-0.0373012,-0.20149,0.040431,0.045165,902,1688,1.65604,-3.46351
-315,-664,2.0705,3.55286,0.0343381,-0.0277556,-0.0113899,0.0363614,-0.029779,-0.175808,0.0382491,0.0447592,909,1688,2.07051,-3.55281
-308,-664,1.65857,3.76929,0.0353539,-0.0209665,-0.00900326,0.0367582,-0.0223708,-0.154722,0.0344733,0.045516,916,1688,1.65859,-3.76934
-301,-664,1.55377,3.86719,0.0336232,-0.0149707,-0.006621,0.0345091,-0.0158567,-0.133022,0.029736,0.0456546,923,1688,1.5538,-3.86719
-294,-664,1.82385,3.81372,0.0299297,-0.00986399,-0.00446249,0.030424,-0.0103583,-0.110315,0.0244773,0.0408492,930,1688,1.82386,-3.81367
-287,-664,2.13544,3.79443,0.026412,-0.00535288,-0.00280415,0.0266577,-0.00559852,-0.0873776,0.0199022,0.0267754,937,1688,2.13546,-3.79438
-280,-664,2.12274,3.83008,0.022192,-0.00161081,-0.00139999,0.0222741,-0.00169287,-0.0585469,0.0154446,0.0166293,944,1688,2.12274,-3.83006
-273,-664,2.14081,3.86414,0.0175445,0.000717147,-0.000461403,0.0175572,0.000704504,-0.0273923,0.0114772,0.0141013,951,1688,2.14083,-3.8641
-266,-664,2.13928,3.93665,0.0114015,0.00186062,0.000215656,0.0114064,0.00185575,0.022588,0.00706736,0.0212576,958,1688,2.1393,-3.93659
-259,-664,2.11902,3.99634,0.00562586,0.0021408,0.00117549,0.00598528,0.00178139,0.296733,0.00354869,0.0188245,965,1688,2.11901,-3.99633
-252,-664,2.14636,4.03015,0.00379815,0.00197916,0.000627727,0.00399375,0.00178357,0.302057,0.00231017,0.0172015,972,1688,2.14634,-4.03016
-245,-664,2.14893,4.06689,0.00187528,0.00193736,0.000205763,0.00211441,0.00169823,0.860264,0.00129339,0.0202862,979,1688,2.14893,-4.06685
-238,-664,2.16431,4.11743,0.000673174,0.00139447,2.84292e-06,0.00139448,0.000673163,1.56685,0.000805263,0.0216642,986,1688,2.16431,-4.11739
-231,-664,2.16663,4.19397,4.62859e-05,0.000892915,-6.289e-05,0.000897562,4.16397e-05,-1.49705,0.000584989,0.0184597,993,1688,2.16664,-4.19402
-224,-664,2.16772,4.26111,-0.000286062,3.22883e-05,-4.36563e-05,3.81665e-05,-0.00029194,-1.43695,0.000208517,0.012886,1000,1688,2.16771,-4.26108
-217,-664,2.16797,4.28943,-0.000572754,-0.000739668,-0.00049718,-0.000152076,-0.00116035,-0.702243,0.000728186,0.00995028,1007,1688,2.16799,-4.28938
-210,-664,2.17169,4.34033,-0.000638424,-0.000732545,-0.000651195,-3.2591e-05,-0.00133838,-0.749327,0.000881589,0.0112523,1014,1688,2.17171,-4.34028
-203,-664,2.16205,4.38684,-0.000704258,-0.000792375,-0.000656187,-9.06519e-05,-0.00140598,-0.751877,0.000908612,0.0132499,1021,1688,2.16202,-4.38686
-196,-664,2.15686,4.40955,-0.000755068,-0.000605225,-0.000699092,2.29487e-05,-0.00138324,-0.838779,0.000929906,0.0132046,1028,1688,2.15682,-4.40951
-189,-664,2.15076,4.453,-0.000902216,-0.000482279,-0.000779682,0.000115212,-0.00149971,-0.916928,0.00104034,0.00903299,1035,1688,2.15076,-4.453
-182,-664,2.15723,4.51245,-0.00112203,-0.000538414,-0.000888218,0.000104701,-0.00176515,-0.94411,0.00121317,0.00901105,1042,1688,2.15721,-4.51242
-175,-664,2.16687,4.52905,-0.00142319,-0.000568172,-0.00101953,0.000109856,-0.00210122,-0.983922,0.00143883,0.0127971,1049,1688,2.1669,-4.52903
-168,-664,2.16626,4.56689,-0.00175353,-0.000303006,-0.00116881,0.000347281,-0.00240381,-1.06308,0.00172996,0.0140407,1056,1688,2.16623,-4.56686
-161,-664,2.17346,4.6051,-0.00196447,0.000106572,-0.00136326,0.000783005,-0.0026409,-1.1102,0.00207153,0.0101803,1063,1688,2.17348,-4.60512
-154,-664,2.17041,4.6532,-0.00206078,0.00038612,-0.00151161,0.00110735,-0.00278201,-1.12561,0.00231387,0.00919844,1070,1688,2.17045,-4.6532
-147,-664,2.16797,4.68848,-0.00232077,0.000465035,-0.00153383,0.00114404,-0.00299978,-1.15404,0.00247111,0.00943679,1077,1688,2.16794,-4.68851
-140,-664,2.16858,4.72009,-0.00294221,0.000736137,-0.00186202,0.00151415,-0.00372022,-1.17501,0.00311025,0.0101894,1084,1688,2.1686,-4.72011
-133,-664,2.16687,4.76697,-0.00366298,-0.00108026,-0.00195978,-2.46356e-05,-0.0047186,-1.07671,0.00313755,0.0113406,1091,1688,2.16693,-4.76697
-126,-664,2.21826,4.80847,-0.00413265,-0.0037737,-0.00156557,-0.00237735,-0.00552901,-0.842468,0.00320259,0.0200376,1098,1688,2.21826,-4.80843
-119,-664,2.10474,4.86621,-0.0056372,-0.00414444,-9.54201e-05,-0.00413836,-0.00564328,-1.50722,0.00337433,0.0368901,1105,1688,2.10468,-4.86622
-112,-664,2.12659,4.95154,-0.00796549,-0.00399746,0.00165825,-0.00339573,-0.00856723,1.2227,0.00498158,0.0456828,1112,1688,2.12659,-4.95148
-105,-664,2.91309,4.91919,0,0,0,0,0,0,0,-1,1119,1688,2.91315,-4.91919
-98,-664,2.66223,4.73779,-0.0136502,-0.010706,0.00283895,-0.00898022,-0.0153761,1.02458,0.00891907,0.0465019,1126,1688,2.66228,-4.73777
-91,-664,2.24097,4.47314,0,0,0,0,0,0,0,-1,1133,1688,2.24096,-4.47318
-84,-664,2.1084,4.35498,-0.0199236,-0.0179398,0.00364219,-0.0151569,-0.0227065,0.918339,0.0133526,0.0400541,1140,1688,2.10839,-4.35495
-77,-664,2.21606,4.34436,-0.02314,-0.0212237,0.00370319,-0.0183567,-0.026007,0.911988,0.0154334,0.0450372,1147,1688,2.21608,-4.34432
-70,-664,2.32788,4.40186,0,0,0,0,0,0,0,-1,1154,1688,2.32794,-4.40182
-63,-664,-1.75024,2.82092,0,0,0,0,0,0,0,-1,1161,1688,-1.75024,-2.82093
-56,-664,0.198364,4.62061,0,0,0,0,0,0,0,-1,1168,1688,0.19838,-4.62066
-49,-664,-0.957642,5.97705,0,0,0,0,0,0,0,-1,1175,1688,-0.957587,-5.97703
-42,-664,-0.359253,4.38684,0,0,0,0,0,0,0,-1,1182,1688,-0.359261,-4.38685
-35,-664,-0.705566,3.55017,0,0,0,0,0,0,0,-1,1189,1688,-0.705567,-3.55023
-28,-664,-1.54236,10.2538,0,0,0,0,0,0,0,-1,1196,1688,-1.54236,-10.2538
-21,-664,2.59741,6.15491,0,0,0,0,0,0,0,-1,1203,1688,2.59738,-6.15489
-14,-664,2.60022,5.43652,0.0360008,-0.0409097,-0.0441742,0.0561132,-0.0610221,-0.42725,0.0676479,0.0450033,1210,1688,2.60028,-5.43651
-7,-664,2.59106,4.42798,0.0426556,-0.041912,-0.0527288,0.0679606,-0.067217,-0.447445,0.0780452,0.0448664,1217,1688,2.59111,-4.42796
0,-664,2.58813,3.41882,0,0,0,0,0,0,0,-1,1224,1688,2.58814,-3.41884
7,-664,2.96008,4.89807,0.0435546,-0.0330073,-0.0651586,0.0808453,-0.070298,-0.519808,0.0873334,0.0447087,1231,1688,2.96012,-4.89808
14,-664,4.96777,2.93494,0.0377696,-0.0302355,-0.0716871,0.0831094,-0.0755754,-0.563952,0.0916511,0.0434089,1238,1688,4.96774,-2.93495
21,-664,5.54565,2.08826,0,0,0,0,0,0,0,-1,1245,1688,5.5456,-2.08821
28,-664,3.64868,7.22668,0,0,0,0,0,0,0,-1,1252,1688,3.64869,-7.22662
35,-664,3.23804,6.50256,0.0032331,-0.0238906,-0.0856344,0.0763729,-0.0970303,-0.706866,0.100351,0.0457449,1259,1688,3.23798,-6.50257
42,-664,2.77991,5.94507,-0.00914181,-0.0207675,-0.089133,0.0743677,-0.104277,-0.752837,0.103621,0.044749,1266,1688,2.77987,-5.94512
49,-664,2.20239,5.61316,-0.0209194,-0.0158315,-0.0928327,0.0744921,-0.111243,-0.799096,0.107932,0.0442979,1273,1688,2.20239,-5.61313
56,-664,1.50012,5.25,0,0,0,0,0,0,0,-1,1280,1688,1.5001,-5.24994
63,-664,0.268433,4.47412,0,0,0,0,0,0,0,-1,1287,1688,0.268441,-4.47415
70,-664,-0.026123,4.28467,-0.0471987,0.0058538,-0.101703,0.0844334,-0.125778,-0.912966,0.122146,0.0469534,1294,1688,-0.0260894,-4.28465
77,-664,0.119751,4.10645,-0.0514742,0.0149547,-0.103541,0.0904781,-0.126998,-0.940606,0.126148,0.0423155,1301,1688,0.119749,-4.10645
84,-664,-0.451172,3.03052,-0.0530479,0.0250098,-0.10465,0.0976721,-0.12571,-0.963882,0.129308,0.0485363,1308,1688,-0.451117,-3.03051
91,-664,-1.39893,2.41394,0,0,0,0,0,0,0,-1,1315,1688,-1.39898,-2.41394
98,-664,0.118896,0.893433,0,0,0,0,0,0,0,-1,1322,1688,0.118887,-0.893416
105,-664,0.135864,0.00219727,-0.0507442,0.0589814,-0.110217,0.127235,-0.118998,-1.01633,0.142189,0.0470013,1329,1688,0.135828,-0.00216483
112,-664,-0.417603,-0.36853,-0.0467767,0.0690504,-0.111365,0.13666,-0.114387,-1.02517,0.145132,0.0479399,1336,1688,-0.417547,0.36852
119,-664,-0.717285,-0.536133,0,0,0,0,0,0,0,-1,1343,1688,-0.717254,0.536157
126,-664,-2,0.193848,0,0,0,0,0,0,0,-1,1350,1688,-2.00005,-0.193819
133,-664,1.88525,7.16125,0,0,0,0,0,0,0,-1,1357,1688,1.88525,-7.16132
140,-664,2.22302,6.69824,0,0,0,0,0,0,0,-1,1364,1688,2.22303,-6.69827
147,-664,2.12402,6.32178,0,0,0,0,0,0,0,-1,1371,1688,2.124,-6.32177
154,-664,4.09668,5.15845,0,0,0,0,0,0,0,-1,1378,1688,4.09668,-5.15847
161,-664,4.60132,1.56238,0,0,0,0,0,0,0,-1,1385,1688,4.60134,-1.56233
168,-664,5.172,1.25488,0,0,0,0,0,0,0,-1,1392,1688,5.17203,-1.25484
175,-664,5.58313,1.16467,0,0,0,0,0,0,0,-1,1399,1688,5.58317,-1.16466
182,-664,5.74268,1.41113,0,0,0,0,0,0,0,-1,1406,1688,5.74263,-1.41115
189,-664,5.87744,1.87061,0,0,0,0,0,0,0,-1,1413,1688,5.87745,-1.87065
196,-664,6.74915,4.65088,0,0,0,0,0,0,0,-1,1420,1688,6.74911,-4.65092
203,-664,5.75757,4.03064,0,0,0,0,0,0,0,-1,1427,1688,5.75753,-4.03067
210,-664,4.76599,3.4104,0,0,0,0,0,0,0,-1,1434,1688,4.76594,-3.41041
217,-664,4.047,4.84985,0,0,0,0,0,0,0,-1,1441,1688,4.047,-4.84986
224,-664,4.52466,4.50952,0,0,0,0,0,0,0,-1,1448,1688,4.52465,-4.50948
231,-664,5.00232,4.16907,0,0,0,0,0,0,0,-1,1455,1688,5.0023,-4.1691
238,-664,3.67688,5.54578,0,0,0,0,0,0,0,-1,1462,1688,3.6769,-5.54576
245,-664,3.427,5.16821,0,0,0,0,0,0,0,-1,1469,1688,3.42704,-5.16827
252,-664,3.01904,5.16187,0,0,0,0,0,0,0,-1,1476,1688,3.01906,-5.16184
259,-664,2.93152,5.10254,0,0,0,0,0,0,0,-1,1483,1688,2.93157,-5.10259
266,-664,2.90308,5.02258,-0.0242687,0.0184337,0.013913,0.0225667,-0.0284017,1.28204,0.0294908,0.0382654,1490,1688,2.90306,-5.0226
273,-664,2.84082,4.90808,-0.023248,0.017693,0.0122167,0.0210613,-0.0266163,1.30177,0.0275889,0.0300008,1497,1688,2.84077,-4.90805
280,-664,2.72327,4.79163,-0.0219405,0.0167792,0.0104207,0.0194056,-0.024567,1.3239,0.0254458,0.0212494,1504,1688,2.72333,-4.79158
287,-664,2.73669,4.71838,-0.0200549,0.0154834,0.00842125,0.0173779,-0.0219494,1.34951,0.0227567,0.0196427,1511,1688,2.73667,-4.71842
294,-664,2.76563,4.68884,-0.0176701,0.0136084,0.00668657,0.0149779,-0.0190396,1.36878,0.0196866,0.0137369,1518,1688,2.76561,-4.68881
301,-664,2.76611,4.66687,-0.0150306,0.0118365,0.00500646,0.0127391,-0.0159332,1.39243,0.0165881,0.00943555,1525,1688,2.7661,-4.66686
308,-664,2.78369,4.61963,-0.0123061,0.0101395,0.00335237,0.0106295,-0.0127961,1.42566,0.0135441,0.00998965,1532,1688,2.78363,-4.61962
315,-664,2.80298,4.5675,-0.00960987,0.00869664,0.00175841,0.00886401,-0.00977724,1.4759,0.0107668,0.011256,1539,1688,2.80293,-4.56749
322,-664,2.802,4.53357,-0.00713399,0.00710252,0.000273071,0.00710775,-0.00713923,1.55162,0.0082255,0.0152763,1546,1688,2.802,-4.53359
329,-664,2.79529,4.51147,-0.00478459,0.00606326,-0.00101865,0.00615809,-0.00487942,-1.47797,0.00638674,0.0178775,1553,1688,2.79534,-4.51146
336,-664,2.79224,4.4541,-0.00265251,0.00495822,-0.00215028,0.00552373,-0.00321802,-1.31363,0.00510523,0.0144467,1560,1688,2.79226,-4.45405
343,-664,2.79431,4.41541,-0.00106025,0.00391819,-0.00298182,0.00531323,-0.00245529,-1.1332,0.00458521,0.0109421,1567,1688,2.79437,-4.41541
350,-664,2.79785,4.3855,-0.000252526,0.00284297,-0.00372888,0.00533255,-0.00274211,-0.982113,0.0047412,0.0131942,1574,1688,2.79782,-4.38546
357,-664,2.78406,4.34082,8.1091e-05,0.00355456,-0.00401434,0.00619175,-0.0025561,-0.989557,0.00519393,0.0133134,1581,1688,2.78408,-4.34077
364,-664,2.78625,4.27783,0.000905165,0.00456429,-0.00395032,0.00708816,-0.0016187,-1.00226,0.00534731,0.0111164,1588,1688,2.78623,-4.27779
371,-664,2.80225,4.23267,0.00213259,0.00521292,-0.00360643,0.00759429,-0.000248778,-0.987206,0.00514779,0.0134445,1595,1688,2.80221,-4.23272
378,-664,2.78113,4.18188,0.00354077,0.00609076,-0.00305858,0.00812945,0.00150208,-0.982876,0.0049948,0.0122955,1602,1688,2.78108,-4.18188
385,-664,2.76892,4.15356,0.00550871,0.0071755,-0.00245476,0.00893447,0.00374974,-0.949045,0.00518045,0.0128777,1609,1688,2.76894,-4.1536
392,-664,2.75769,4.1344,0.00767302,0.00844202,-0.00157272,0.00967656,0.00643848,-0.905287,0.00568771,0.0153147,1616,1688,2.7577,-4.13443
399,-664,2.76697,4.09143,0.0106545,0.00964149,-0.000611864,0.0109423,0.00935369,-0.439661,0.00682722,0.0122958,1623,1688,2.767,-4.09142
406,-664,2.78235,4.04602,0.0142374,0.0107923,0.000456355,0.0142968,0.0107329,0.129489,0.00859323,0.0112059,1630,1688,2.78233,-4.04603
413,-664,2.81348,3.99048,0.0184373,0.0119069,0.00154712,0.0187853,0.0115589,0.221243,0.0109414,0.0108782,1637,1688,2.81342,-3.99042
420,-664,2.83887,3.90137,0.023141,0.0128113,0.002972,0.023935,0.0120172,0.261078,0.0138189,0.0234392,1644,1688,2.83889,-3.90141
427,-664,2.85986,3.84937,0.0291168,0.0136119,0.00269331,0.0295714,0.0131574,0.167184,0.0171075,0.0406341,1651,1688,2.85991,-3.84938
434,-664,2.88708,3.80078,0.0349201,0.0145544,0.00149032,0.0350286,0.0144459,0.0726621,0.020327,0.0438373,1658,1688,2.88711,-3.80081
441,-664,2.92664,3.74036,0,0,0,0,0,0,0,-1,1665,1688,2.92664,-3.74036
448,-664,2.8949,3.77869,0.0470757,0.016606,-0.00270433,0.0473139,0.0163678,-0.0878399,0.0277455,0.046721,1672,1688,2.8949,-3.77863
455,-664,3.60693,4.01563,0,0,0,0,0,0,0,-1,1679,1688,3.60699,-4.01564
462,-664,4.3147,4.25439,0,0,0,0,0,0,0,-1,1686,1688,4.31467,-4.25435
469,-664,1.77759,3.49487,0,0,0,0,0,0,0,-1,1693,1688,1.77764,-3.49487
476,-664,2.18921,2.84131,0.0669591,0.0202988,-0.0281716,0.0802067,0.0070512,-0.439564,0.0512826,0.0492744,1700,1688,2.18925,-2.84136
483,-664,3.45947,2.98926,0.0709591,0.0240415,-0.0373513,0.0916074,0.00339321,-0.505,0.0599725,0.0476288,1707,1688,3.4595,-2.98923
490,-664,3.63635,2.56836,0,0,0,0,0,0,0,-1,1714,1688,3.63632,-2.56831
497,-664,0,0,0,0,0,0,0,0,0,-1,1721,1688,0,0
504,-664,0,0,0,0,0,0,0,0,0,-1,1728,1688,0,0
511,-664,0,0,0,0,0,0,0,0,0,-1,1735,1688,0,0
518,-664,0,0,0,0,0,0,0,0,0,-1,1742,1688,0,0
525,-664,0,0,0,0,0,0,0,0,0,-1,1749,1688,0,0
532,-664,0,0,0,0,0,0,0,0,0,-1,1756,1688,0,0
539,-664,0,0,0,0,0,0,0,0,0,-1,1763,1688,0,0
546,-664,0,0,0,0,0,0,0,0,0,-1,1770,1688,0,0
553,-664,0,0,0,0,0,0,0,0,0,-1,1777,1688,0,0
560,-664,0,0,0,0,0,0,0,0,0,-1,1784,1688,0,0
567,-664,0,0,0,0,0,0,0,0,0,-1,1791,1688,0,0
574,-664,0,0,0,0,0,0,0,0,0,-1,1798,1688,0,0
581,-664,0,0,0,0,0,0,0,0,0,-1,1805,1688,0,0
588,-664,0,0,0,0,0,0,0,0,0,-1,1812,1688,0,0
595,-664,0,0,0,0,0,0,0,0,0,-1,1819,1688,0,0
602,-664,0,0,0,0,0,0,0,0,0,-1,1826,1688,0,0
609,-664,0,0,0,0,0,0,0,0,0,-1,1833,1688,0,0
616,-664,0,0,0,0,0,0,0,0,0,-1,1840,1688,0,0
623,-664,0,0,0,0,0,0,0,0,0,-1,1847,1688,0,0
630,-664,0,0,0,0,0,0,0,0,0,-1,1854,1688,0,0
637,-664,0,0,0,0,0,0,0,0,0,-1,1861,1688,0,0
644,-664,0,0,0,0,0,0,0,0,0,-1,1868,1688,0,0
651,-664,0,0,0,0,0,0,0,0,0,-1,1875,1688,0,0
658,-664,0,0,0,0,0,0,0,0,0,-1,1882,1688,0,0
665,-664,0,0,0,0,0,0,0,0,0,-1,1889,1688,0,0
672,-664,0,0,0,0,0,0,0,0,0,-1,1896,1688,0,0
679,-664,0,0,0,0,0,0,0,0,0,-1,1903,1688,0,0
686,-664,0,0,0,0,0,0,0,0,0,-1,1910,1688,0,0
693,-664,0,0,0,0,0,0,0,0,0,-1,1917,1688,0,0
700,-664,0,0,0,0,0,0,0,0,0,-1,1924,1688,0,0
707,-664,0,0,0,0,0,0,0,0,0,-1,1931,1688,0,0
714,-664,0,0,0,0,0,0,0,0,0,-1,1938,1688,0,0
721,-664,0,0,0,0,0,0,0,0,0,-1,1945,1688,0,0
728,-664,0,0,0,0,0,0,0,0,0,-1,1952,1688,0,0
735,-664,0,0,0,0,0,0,0,0,0,-1,1959,1688,0,0
742,-664,0,0,0,0,0,0,0,0,0,-1,1966,1688,0,0
749,-664,0,0,0,0,0,0,0,0,0,-1,1973,1688,0,0
756,-664,0,0,0,0,0,0,0,0,0,-1,1980,1688,0,0
763,-664,0,0,0,0,0,0,0,0,0,-1,1987,1688,0,0
770,-664,0,0,0,0,0,0,0,0,0,-1,1994,1688,0,0
777,-664,0,0,0,0,0,0,0,0,0,-1,2001,1688,0,0
784,-664,0,0,0,0,0,0,0,0,0,-1,2008,1688,0,0
791,-664,0,0,0,0,0,0,0,0,0,-1,2015,1688,0,0
798,-664,0,0,0,0,0,0,0,0,0,-1,2022,1688,0,0
805,-664,0,0,0,0,0,0,0,0,0,-1,2029,1688,0,0
812,-664,0,0,0,0,0,0,0,0,0,-1,2036,1688,0,0
-700,-671,0,0,0,0,0,0,0,0,0,-1,524,1695,0,0
-693,-671,0,0,0,0,0,0,0,0,0,-1,531,1695,0,0
-686,-671,0,0,0,0,0,0,0,0,0,-1,538,1695,0,0
-679,-671,0,0,0,0,0,0,0,0,0,-1,545,1695,0,0
-672,-671,0,0,0,0,0,0,0,0,0,-1,552,1695,0,0
-665,-671,0,0,0,0,0,0,0,0,0,-1,559,1695,0,0
-658,-671,0,0,0,0,0,0,0,0,0,-1,566,1695,0,0
-651,-671,0,0,0,0,0,0,0,0,0,-1,573,1695,0,0
-644,-671,0,0,0,0,0,0,0,0,0,-1,580,1695,0,0
-637,-671,0,0,0,0,0,0,0,0,0,-1,587,1695,0,0
-630,-671,0,0,0,0,0,0,0,0,0,-1,594,1695,0,0
-623,-671,0,0,0,0,0,0,0,0,0,-1,601,1695,0,0
-616,-671,0,0,0,0,0,0,0,0,0,-1,608,1695,0,0
-609,-671,0,0,0,0,0,0,0,0,0,-1,615,1695,0,0
-602,-671,0,0,0,0,0,0,0,0,0,-1,622,1695,0,0
-595,-671,0,0,0,0,0,0,0,0,0,-1,629,1695,0,0
-588,-671,0,0,0,0,0,0,0,0,0,-1,636,1695,0,0
-581,-671,0,0,0,0,0,0,0,0,0,-1,643,1695,0,0
-574,-671,0,0,0,0,0,0,0,0,0,-1,650,1695,0,0
-567,-671,0,0,0,0,0,0,0,0,0,-1,657,1695,0,0
-560,-671,0,0,0,0,0,0,0,0,0,-1,664,1695,0,0
-553,-671,0,0,0,0,0,0,0,0,0,-1,671,1695,0,0
-546,-671,0,0,0,0,0,0,0,0,0,-1,678,1695,0,0
-539,-671,0,0,0,0,0,0,0,0,0,-1,685,1695,0,0
-532,-671,0,0,0,0,0,0,0,0,0,-1,692,1695,0,0
-525,-671,0,0,0,0,0,0,0,0,0,-1,699,1695,0,0
-518,-671,0,0,0,0,0,0,0,0,0,-1,706,1695,0,0
-511,-671,0,0,0,0,0,0,0,0,0,-1,713,1695,0,0
-504,-671,0,0,0,0,0,0,0,0,0,-1,720,1695,0,0
-497,-671,0,0,0,0,0,0,0,0,0,-1,727,1695,0,0
-490,-671,0,0,0,0,0,0,0,0,0,-1,734,1695,0,0
-483,-671,0,0,0,0,0,0,0,0,0,-1,741,1695,0,0
-476,-671,0,0,0,0,0,0,0,0,0,-1,748,1695,0,0
-469,-671,0,0,0,0,0,0,0,0,0,-1,755,1695,0,0
-462,-671,0,0,0,0,0,0,0,0,0,-1,762,1695,0,0
-455,-671,0,0,0,0,0,0,0,0,0,-1,769,1695,0,0
-448,-671,0,0,0,0,0,0,0,0,0,-1,776,1695,0,0
-441,-671,0,0,0,0,0,0,0,0,0,-1,783,1695,0,0
-434,-671,0,0,0,0,0,0,0,0,0,-1,790,1695,0,0
-427,-671,0,0,0,0,0,0,0,0,0,-1,797,1695,0,0
-420,-671,0,0,0,0,0,0,0,0,0,-1,804,1695,0,0
-413,-671,0,0,0,0,0,0,0,0,0,-1,811,1695,0,0
-406,-671,0,0,0,0,0,0,0,0,0,-1,818,1695,0,0
-399,-671,0,0,0,0,0,0,0,0,0,-1,825,1695,0,0
-392,-671,0,0,0,0,0,0,0,0,0,-1,832,1695,0,0
-385,-671,0,0,0,0,0,0,0,0,0,-1,839,1695,0,0
-378,-671,0,0,0,0,0,0,0,0,0,-1,846,1695,0,0
-371,-671,0,0,0,0,0,0,0,0,0,-1,853,1695,0,0
-364,-671,5.30731,3.21362,0,0,0,0,0,0,0,-1,860,1695,5.30729,-3.21368
-357,-671,5.23456,2.78601,0,0,0,0,0,0,0,-1,867,1695,5.23456,-2.78604
-350,-671,4.89008,2.48645,0,0,0,0,0,0,0,-1,874,1695,4.89007,-2.4864
-343,-671,2.01746,3.42993,0,0,0,0,0,0,0,-1,881,1695,2.01746,-3.42989
-336,-671,1.89124,3.90991,0.0169609,-0.0560856,-0.0179496,0.0211333,-0.060258,-0.228395,0.0487675,0.0447565,888,1695,1.89121,-3.90987
-329,-671,1.43597,4.02258,0.0273736,-0.0513863,-0.0197404,0.0320444,-0.056057,-0.232336,0.0514913,0.0475858,895,1695,1.43595,-4.02256
-322,-671,0.920349,4.12122,0,0,0,0,0,0,0,-1,902,1695,0.920346,-4.1212
-315,-671,2.78412,3.52576,0,0,0,0,0,0,0,-1,909,1695,2.78414,-3.52579
-308,-671,1.55841,3.78223,0,0,0,0,0,0,0,-1,916,1695,1.55839,-3.78223
-301,-671,1.24677,3.95923,0,0,0,0,0,0,0,-1,923,1695,1.24674,-3.95923
-294,-671,1.63568,3.86414,0,0,0,0,0,0,0,-1,930,1695,1.63566,-3.86416
-287,-671,2.20129,3.84729,0.0338159,-0.00596748,-0.00386441,0.0341878,-0.00633938,-0.0959411,0.0251725,0.0441481,937,1695,2.20129,-3.8473
-280,-671,2.25818,3.87769,0.0284772,-0.00124371,-0.00192247,0.0286011,-0.00136755,-0.0643268,0.0195392,0.0345005,944,1695,2.25819,-3.87768
-273,-671,2.2149,3.8512,0.0225628,0.00165497,-0.00062441,0.0225814,0.00163634,-0.0298295,0.0145396,0.0320729,951,1695,2.21493,-3.85122
-266,-671,2.1723,3.94824,0.0146253,0.00308903,0.000317679,0.0146341,0.00308029,0.0275095,0.00890861,0.0233751,958,1695,2.17232,-3.94827
-259,-671,2.15741,3.98914,0.0071462,0.00346704,0.0015446,0.00770867,0.00290457,0.349228,0.00449542,0.0188507,965,1695,2.15741,-3.98913
-252,-671,2.19495,4.03589,0.00464233,0.00328076,0.0008437,0.00504565,0.00287743,0.44593,0.00292269,0.0170913,972,1695,2.19496,-4.03583
-245,-671,2.19714,4.09717,0.0021309,0.00323214,0.000344028,0.00333078,0.00203226,1.29157,0.00193852,0.0196094,979,1695,2.19716,-4.09723
-238,-671,2.21729,4.14856,0.000633322,0.00259304,2.4484e-05,0.00259335,0.000633016,1.55831,0.00156127,0.0189353,986,1695,2.21728,-4.14852
-231,-671,2.22504,4.2019,-0.000228309,0.00203485,-7.42403e-05,0.00203728,-0.000230742,-1.53804,0.00144127,0.0141566,993,1695,2.22507,-4.20189
-224,-671,2.19904,4.23828,-0.000673725,0.00109864,-4.25484e-05,0.00109966,-0.000674746,-1.54681,0.0010342,0.010964,1000,1695,2.19907,-4.23827
-217,-671,2.20001,4.27539,-0.00097846,3.27088e-05,-0.000587459,0.000302188,-0.00124794,-1.14071,0.000948867,0.0113755,1007,1695,2.20001,-4.27533
-210,-671,2.20081,4.31372,-0.000907713,-0.000192279,-0.000696525,0.000233016,-0.00133301,-1.02262,0.000975664,0.0111068,1014,1695,2.20079,-4.31372
-203,-671,2.16907,4.34607,-0.000825472,-0.000435408,-0.000605749,5.93264e-06,-0.00126681,-0.941142,0.000846526,0.017689,1021,1695,2.16906,-4.34603
-196,-671,2.19958,4.40674,-0.000686673,-0.000478933,-0.000581412,7.81403e-06,-0.00117342,-0.873792,0.000784898,0.014684,1028,1695,2.19956,-4.40672
-189,-671,2.22412,4.47583,-0.000602134,-0.000609703,-0.000589991,-1.59157e-05,-0.00119592,-0.782191,0.000792029,0.0116177,1035,1695,2.22414,-4.47588
-182,-671,2.19507,4.50781,-0.000594845,-0.000892647,-0.000646047,-8.07621e-05,-0.00140673,-0.672136,0.000912092,0.00971084,1042,1695,2.19503,-4.50781
-175,-671,2.19714,4.53198,-0.000705191,-0.00112218,-0.000738668,-0.000146157,-0.00168121,-0.647848,0.00107541,0.0124078,1049,1695,2.19709,-4.53197
-168,-671,2.20276,4.56348,-0.000907051,-0.00102576,-0.000823898,-0.000140372,-0.00179244,-0.74944,0.00115102,0.013508,1056,1695,2.20275,-4.56344
-161,-671,2.19995,4.61951,-0.00099818,-0.000834088,-0.000929204,1.66852e-05,-0.00184895,-0.829432,0.00123823,0.0093462,1063,1695,2.2,-4.6195
-154,-671,2.20203,4.64648,-0.000999599,-0.000748301,-0.00102279,0.000156527,-0.00190443,-0.846517,0.00132488,0.00840257,1070,1695,2.20207,-4.64654
-147,-671,2.21411,4.69006,-0.00119419,-0.000686339,-0.00103879,0.00012911,-0.00200964,-0.90527,0.0013848,0.00952621,1077,1695,2.21415,-4.6901
-140,-671,2.21936,4.74597,-0.00168818,-0.000442734,-0.00129493,0.000371422,-0.00250233,-1.00952,0.00180481,0.0106384,1084,1695,2.21942,-4.74595
-133,-671,2.21606,4.80981,-0.00215773,-0.00133074,-0.00144005,-0.000245992,-0.00324247,-0.925207,0.00208449,0.0119972,1091,1695,2.21607,-4.80985
-126,-671,2.25073,4.79651,-0.00250479,-0.0027085,-0.0013043,-0.00129837,-0.00391491,-0.746431,0.00230259,0.0135873,1098,1695,2.25078,-4.79647
-119,-671,2.25024,4.82324,-0.00384882,-0.00221863,-0.000351507,-0.00214607,-0.00392138,-1.36722,0.00226738,0.0248787,1105,1695,2.25027,-4.82323
-112,-671,2.19519,4.88599,-0.00601982,-0.000866533,0.000817253,-0.000740031,-0.00614632,1.41723,0.0038745,0.0324328,1112,1695,2.19514,-4.88602
-105,-671,2.36487,4.88794,-0.00841011,-0.00190873,0.00116642,-0.0017058,-0.00861305,1.39854,0.00526634,0.0343719,1119,1695,2.36487,-4.888
-98,-671,2.40198,4.89734,-0.0114021,-0.00411713,0.0015282,-0.00380954,-0.0117097,1.37217,0.00689672,0.0308401,1126,1695,2.40196,-4.89737
-91,-671,2.22961,4.92676,0,0,0,0,0,0,0,-1,1133,1695,2.22959,-4.92673
-84,-671,2.29224,4.84912,-0.0174669,-0.00891256,0.00205647,-0.00844387,-0.0179356,1.34671,0.010361,0.0382782,1140,1695,2.29219,-4.84909
-77,-671,2.27747,4.71729,-0.0205378,-0.0112173,0.00206808,-0.010779,-0.020976,1.36196,0.0121121,0.0426418,1147,1695,2.27748,-4.71732
-70,-671,2.05774,4.67224,-0.0231571,-0.0141168,0.00167554,-0.0138162,-0.0234576,1.39331,0.0136146,0.043675,1154,1695,2.05775,-4.67218
-63,-671,2.06348,4.99011,0,0,0,0,0,0,0,-1,1161,1695,2.06347,-4.99006
-56,-671,0.706543,4.98315,0,0,0,0,0,0,0,-1,1168,1695,0.706498,-4.98321
-49,-671,-0.547363,6.26941,0,0,0,0,0,0,0,-1,1175,1695,-0.547322,-6.26944
-42,-671,0.539307,3.7865,0,0,0,0,0,0,0,-1,1182,1695,0.539266,-3.78648
-35,-671,-0.272461,0.347534,0,0,0,0,0,0,0,-1,1189,1695,-0.272434,-0.347569
-28,-671,-0.662964,5.40405,0,0,0,0,0,0,0,-1,1196,1695,-0.662966,-5.40405
-21,-671,2.72742,5.69971,0,0,0,0,0,0,0,-1,1203,1695,2.72741,-5.69967
-14,-671,2.6698,5.14673,0,0,0,0,0,0,0,-1,1210,1695,2.66976,-5.14674
-7,-671,2.62402,4.9126,0,0,0,0,0,0,0,-1,1217,1695,2.62406,-4.91264
0,-671,2.89709,4.99475,0,0,0,0,0,0,0,-1,1224,1695,2.89711,-4.99479
7,-671,2.78296,4.89563,0.0328604,-0.027981,-0.0498904,0.0608732,-0.0559938,-0.511619,0.0674928,0.0433232,1231,1695,2.78297,-4.89562
14,-671,2.06641,4.04138,0.0277861,-0.0264188,-0.0548275,0.0618441,-0.0604768,-0.555851,0.0706234,0.0412743,1238,1695,2.06644,-4.0414
21,-671,5.43982,8.5304,0,0,0,0,0,0,0,-1,1245,1695,5.43987,-8.53034
28,-671,4.73792,7.86816,0,0,0,0,0,0,0,-1,1252,1695,4.73789,-7.86817
35,-671,4.11292,7.24011,0.000198198,-0.0233975,-0.0667524,0.0561873,-0.0793866,-0.697931,0.0786547,0.0483617,1259,1695,4.11294,-7.24006
42,-671,3.70471,6.55896,-0.009591,-0.0214671,-0.0699317,0.0546543,-0.0857124,-0.743044,0.0816993,0.0461556,1266,1695,3.70477,-6.55896
49,-671,3.37756,6.03223,-0.0189205,-0.0179389,-0.0734599,0.0550318,-0.0918912,-0.788739,0.0857112,0.0447818,1273,1695,3.37751,-6.03219
56,-671,1.41431,5.37268,0,0,0,0,0,0,0,-1,1280,1695,1.41428,-5.37268
63,-671,1.19922,5.29468,-0.032878,-0.00750751,-0.0790639,0.0598823,-0.100268,-0.864942,0.0934375,0.0492228,1287,1695,1.19917,-5.29467
70,-671,1.0271,5.16626,-0.0385065,-0.000545868,-0.0825627,0.0651901,-0.104242,-0.89838,0.0986843,0.0473815,1294,1695,1.02711,-5.16629
77,-671,0.939087,4.90039,-0.0413205,0.0070217,-0.0844571,0.0706984,-0.104997,-0.92477,0.10208,0.0455283,1301,1695,0.939138,-4.90035
84,-671,1.45715,5.20129,0,0,0,0,0,0,0,-1,1308,1695,1.45712,-5.20135
91,-671,2.18213,5.93298,0,0,0,0,0,0,0,-1,1315,1695,2.18209,-5.93297
98,-671,2.09607,5.92029,0,0,0,0,0,0,0,-1,1322,1695,2.09601,-5.92027
105,-671,2.61414,-0.804077,0,0,0,0,0,0,0,-1,1329,1695,2.61411,0.804042
112,-671,2.2782,-0.998901,0,0,0,0,0,0,0,-1,1336,1695,2.27819,0.998962
119,-671,1.94226,-1.19385,0,0,0,0,0,0,0,-1,1343,1695,1.94227,1.19388
126,-671,1.21082,6.52563,0,0,0,0,0,0,0,-1,1350,1695,1.21079,-6.52566
133,-671,1.59583,6.26599,-0.0254954,0.0706918,-0.0843901,0.119731,-0.0745341,-1.04439,0.113166,0.0472469,1357,1695,1.59586,-6.26598
140,-671,2.07373,6.02893,0,0,0,0,0,0,0,-1,1364,1695,2.07369,-6.02889
147,-671,2.33545,5.98743,0,0,0,0,0,0,0,-1,1371,1695,2.33541,-5.98739
154,-671,2.26868,5.85083,0,0,0,0,0,0,0,-1,1378,1695,2.26862,-5.8508
161,-671,4.49292,4.91272,0,0,0,0,0,0,0,-1,1385,1695,4.49297,-4.91273
168,-671,5.17639,6.1416,0,0,0,0,0,0,0,-1,1392,1695,5.1764,-6.14164
175,-671,5.6731,1.64685,0,0,0,0,0,0,0,-1,1399,1695,5.67313,-1.64691
182,-671,5.56812,1.71692,0,0,0,0,0,0,0,-1,1406,1695,5.56809,-1.71686
189,-671,5.5094,5.56287,0,0,0,0,0,0,0,-1,1413,1695,5.50936,-5.56286
196,-671,4.55164,4.99719,0,0,0,0,0,0,0,-1,1420,1695,4.55158,-4.99716
203,-671,4.66235,4.68811,0,0,0,0,0,0,0,-1,1427,1695,4.66232,-4.68808
210,-671,2.76965,5.01563,0,0,0,0,0,0,0,-1,1434,1695,2.76963,-5.01563
217,-671,3.68372,4.81519,0,0,0,0,0,0,0,-1,1441,1695,3.68371,-4.81522
224,-671,3.61121,4.81677,-0.0283513,0.0089233,0.0197444,0.0174372,-0.0368653,1.16368,0.0320134,0.0406026,1448,1695,3.61124,-4.81679
231,-671,3.56775,4.85144,-0.0256539,0.00988976,0.0187869,0.0179788,-0.033743,1.16422,0.0303204,0.0413956,1455,1695,3.56777,-4.8514
238,-671,3.16577,5.19824,-0.0230948,0.0108012,0.017799,0.0184304,-0.030724,1.16585,0.0286736,0.0468698,1462,1695,3.16577,-5.19819
245,-671,3.04919,4.99426,-0.0211903,0.0120741,0.0158596,0.0184236,-0.0275398,1.18998,0.0267104,0.041148,1469,1695,3.04925,-4.9943
252,-671,2.85168,4.97778,-0.0195065,0.0144601,0.0149421,0.0200976,-0.0251439,1.21002,0.0261743,0.0363408,1476,1695,2.85174,-4.97776
259,-671,2.79651,4.91614,-0.0183205,0.0142251,0.0130357,0.0188025,-0.022898,1.2331,0.0241145,0.0255121,1483,1695,2.79654,-4.91612
266,-671,2.74377,4.84607,-0.0173585,0.0140602,0.0116325,0.0178982,-0.0211965,1.25211,0.0225981,0.0130452,1490,1695,2.74381,-4.84604
273,-671,2.71936,4.82312,-0.0166154,0.0135599,0.0100862,0.0166208,-0.0196762,1.27616,0.0209808,0.0085079,1497,1695,2.7193,-4.82313
280,-671,2.72681,4.78687,-0.0156506,0.0129055,0.00848123,0.0152345,-0.0179796,1.3028,0.019198,0.00898341,1504,1695,2.72679,-4.78692
287,-671,2.73816,4.70667,-0.0142378,0.0120546,0.00685432,0.0137342,-0.0159174,1.33049,0.0171348,0.0108974,1511,1695,2.73816,-4.70661
294,-671,2.72266,4.66516,-0.0124291,0.010645,0.00544076,0.0118636,-0.0136477,1.35047,0.0147409,0.0106495,1518,1695,2.72262,-4.66516
301,-671,2.7218,4.65295,-0.010447,0.00943481,0.00411763,0.0102538,-0.011266,1.37445,0.0124291,0.010115,1525,1695,2.72181,-4.65297
308,-671,2.73145,4.62329,-0.00839845,0.00842672,0.00283866,0.00889274,-0.00886447,1.40808,0.0102521,0.011433,1532,1695,2.7314,-4.62334
315,-671,2.75232,4.599,-0.00634653,0.00767541,0.00161539,0.00785911,-0.00653022,1.45757,0.00831948,0.0129297,1539,1695,2.75238,-4.599
322,-671,2.75488,4.57202,-0.00444039,0.00680394,0.000418831,0.00681952,-0.00445597,1.53362,0.00655741,0.0150412,1546,1695,2.75489,-4.57203
329,-671,2.72217,4.54211,-0.00263614,0.00636681,-0.000703487,0.00642145,-0.00269078,-1.49328,0.00540592,0.0142572,1553,1695,2.72221,-4.54215
336,-671,2.73462,4.46814,-0.00100842,0.00566015,-0.0017245,0.00607971,-0.00142798,-1.33214,0.00460356,0.0113014,1560,1695,2.73461,-4.46818
343,-671,2.74207,4.40881,0.000186956,0.00506698,-0.0025012,0.0061212,-0.000867263,-1.17191,0.00439848,0.0104728,1567,1695,2.74204,-4.40877
350,-671,2.74731,4.38171,0.000435123,0.0042345,-0.00351086,0.00632667,-0.00165705,-1.03339,0.00486512,0.0103169,1574,1695,2.74731,-4.38176
357,-671,2.74341,4.32275,0.000373225,0.00562011,-0.00402851,0.00780409,-0.00181076,-1.07401,0.00589968,0.00984284,1581,1695,2.74347,-4.32272
364,-671,2.73193,4.27869,0.00132989,0.00686468,-0.00410397,0.00904713,-0.000852571,-1.08204,0.00633477,0.0130422,1588,1695,2.73194,-4.27873
371,-671,2.73901,4.24756,0.00277323,0.00772528,-0.0038908,0.00986109,0.000637422,-1.06877,0.00637222,0.0151698,1595,1695,2.73895,-4.24756
378,-671,2.74731,4.20142,0.00453966,0.00879461,-0.00345926,0.0107282,0.00260603,-1.06109,0.00646111,0.0118722,1602,1695,2.74736,-4.20138
385,-671,2.73572,4.15039,0.00712695,0.0101348,-0.00277772,0.0117896,0.00547214,-1.03351,0.00681253,0.0127074,1609,1695,2.73568,-4.15035
392,-671,2.71887,4.12463,0.0100169,0.0117081,-0.0018332,0.0128813,0.00884364,-1.00149,0.0076076,0.0169065,1616,1695,2.71884,-4.12463
399,-671,2.72009,4.07849,0.0140147,0.0132273,-0.000522283,0.014275,0.0129669,-0.462419,0.00911201,0.0129983,1623,1695,2.72012,-4.07847
406,-671,2.73523,4.02368,0.01902,0.0146774,0.00104694,0.0192593,0.0144381,0.224639,0.0115722,0.0180066,1630,1695,2.73521,-4.02365
413,-671,2.79517,3.9696,0.0249587,0.0160199,0.00277927,0.0257523,0.0152262,0.278163,0.0149504,0.0286413,1637,1695,2.79519,-3.96966
420,-671,2.86011,3.94104,0.0317175,0.0170671,0.00496922,0.0332439,0.0155407,0.298033,0.0192069,0.0447915,1644,1695,2.86009,-3.94106
427,-671,2.90625,3.84729,0,0,0,0,0,0,0,-1,1651,1695,2.90627,-3.84733
434,-671,2.96228,3.83215,0,0,0,0,0,0,0,-1,1658,1695,2.96224,-3.83214
441,-671,2.86548,3.68127,0,0,0,0,0,0,0,-1,1665,1695,2.86551,-3.68122
448,-671,2.85901,4.05908,0,0,0,0,0,0,0,-1,1672,1695,2.859,-4.05903
455,-671,3.57495,4.28833,0,0,0,0,0,0,0,-1,1679,1695,3.57497,-4.28829
462,-671,5.40161,0.166992,0,0,0,0,0,0,0,-1,1686,1695,5.40162,-0.166979
469,-671,3.71301,3.76978,0,0,0,0,0,0,0,-1,1693,1695,3.71297,-3.76974
476,-671,3.75574,3.18848,0.0794821,0.023809,-0.0336335,0.0953043,0.00798682,-0.439712,0.0610483,0.0489672,1700,1695,3.7558,-3.18847
483,-671,3.56714,2.76868,0.0808321,0.0283687,-0.045654,0.107254,0.00194689,-0.52464,0.0708625,0.0456223,1707,1695,3.56713,-2.7687
490,-671,0,0,0,0,0,0,0,0,0,-1,1714,1695,0,0
497,-671,0,0,0,0,0,0,0,0,0,-1,1721,1695,0,0
504,-671,0,0,0,0,0,0,0,0,0,-1,1728,1695,0,0
511,-671,0,0,0,0,0,0,0,0,0,-1,1735,1695,0,0
518,-671,0,0,0,0,0,0,0,0,0,-1,1742,1695,0,0
525,-671,0,0,0,0,0,0,0,0,0,-1,1749,1695,0,0
532,-671,0,0,0,0,0,0,0,0,0,-1,1756,1695,0,0
539,-671,0,0,0,0,0,0,0,0,0,-1,1763,1695,0,0
546,-671,0,0,0,0,0,0,0,0,0,-1,1770,1695,0,0
553,-671,0,0,0,0,0,0,0,0,0,-1,1777,1695,0,0
560,-671,0,0,0,0,0,0,0,0,0,-1,1784,1695,0,0
567,-671,0,0,0,0,0,0,0,0,0,-1,1791,1695,0,0
574,-671,0,0,0,0,0,0,0,0,0,-1,1798,1695,0,0
581,-671,0,0,0,0,0,0,0,0,0,-1,1805,1695,0,0
588,-671,0,0,0,0,0,0,0,0,0,-1,1812,1695,0,0
595,-671,0,0,0,0,0,0,0,0,0,-1,1819,1695,0,0
602,-671,0,0,0,0,0,0,0,0,0,-1,1826,1695,0,0
609,-671,0,0,0,0,0,0,0,0,0,-1,1833,1695,0,0
616,-671,0,0,0,0,0,0,0,0,0,-1,1840,1695,0,0
623,-671,0,0,0,0,0,0,0,0,0,-1,1847,1695,0,0
630,-671,0,0,0,0,0,0,0,0,0,-1,1854,1695,0,0
637,-671,0,0,0,0,0,0,0,0,0,-1,1861,1695,0,0
644,-671,0,0,0,0,0,0,0,0,0,-1,1868,1695,0,0
651,-671,0,0,0,0,0,0,0,0,0,-1,1875,1695,0,0
658,-671,0,0,0,0,0,0,0,0,0,-1,1882,1695,0,0
665,-671,0,0,0,0,0,0,0,0,0,-1,1889,1695,0,0
672,-671,0,0,0,0,0,0,0,0,0,-1,1896,1695,0,0
679,-671,0,0,0,0,0,0,0,0,0,-1,1903,1695,0,0
686,-671,0,0,0,0,0,0,0,0,0,-1,1910,1695,0,0
693,-671,0,0,0,0,0,0,0,0,0,-1,1917,1695,0,0
700,-671,0,0,0,0,0,0,0,0,0,-1,1924,1695,0,0
707,-671,0,0,0,0,0,0,0,0,0,-1,1931,1695,0,0
714,-671,0,0,0,0,0,0,0,0,0,-1,1938,1695,0,0
721,-671,0,0,0,0,0,0,0,0,0,-1,1945,1695,0,0
728,-671,0,0,0,0,0,0,0,0,0,-1,1952,1695,0,0
735,-671,0,0,0,0,0,0,0,0,0,-1,1959,1695,0,0
742,-671,0,0,0,0,0,0,0,0,0,-1,1966,1695,0,0
749,-671,0,0,0,0,0,0,0,0,0,-1,1973,1695,0,0
756,-671,0,0,0,0,0,0,0,0,0,-1,1980,1695,0,0
763,-671,0,0,0,0,0,0,0,0,0,-1,1987,1695,0,0
770,-671,0,0,0,0,0,0,0,0,0,-1,1994,1695,0,0
777,-671,0,0,0,0,0,0,0,0,0,-1,2001,1695,0,0
784,-671,0,0,0,0,0,0,0,0,0,-1,2008,1695,0,0
791,-671,0,0,0,0,0,0,0,0,0,-1,2015,1695,0,0
798,-671,0,0,0,0,0,0,0,0,0,-1,2022,1695,0,0
805,-671,0,0,0,0,0,0,0,0,0,-1,2029,1695,0,0
812,-671,0,0,0,0,0,0,0,0,0,-1,2036,1695,0,0
-700,-678,0,0,0,0,0,0,0,0,0,-1,524,1702,0,0
-693,-678,0,0,0,0,0,0,0,0,0,-1,531,1702,0,0
-686,-678,0,0,0,0,0,0,0,0,0,-1,538,1702,0,0
-679,-678,0,0,0,0,0,0,0,0,0,-1,545,1702,0,0
-672,-678,0,0,0,0,0,0,0,0,0,-1,552,1702,0,0
-665,-678,0,0,0,0,0,0,0,0,0,-1,559,1702,0,0
-658,-678,0,0,0,0,0,0,0,0,0,-1,566,1702,0,0
-651,-678,0,0,0,0,0,0,0,0,0,-1,573,1702,0,0
-644,-678,0,0,0,0,0,0,0,0,0,-1,580,1702,0,0
-637,-678,0,0,0,0,0,0,0,0,0,-1,587,1702,0,0
-630,-678,0,0,0,0,0,0,0,0,0,-1,594,1702,0,0
-623,-678,0,0,0,0,0,0,0,0,0,-1,601,1702,0,0
-616,-678,0,0,0,0,0,0,0,0,0,-1,608,1702,0,0
-609,-678,0,0,0,0,0,0,0,0,0,-1,615,1702,0,0
-602,-678,0,0,0,0,0,0,0,0,0,-1,622,1702,0,0
-595,-678,0,0,0,0,0,0,0,0,0,-1,629,1702,0,0
-588,-678,0,0,0,0,0,0,0,0,0,-1,636,1702,0,0
-581,-678,0,0,0,0,0,0,0,0,0,-1,643,1702,0,0
-574,-678,0,0,0,0,0,0,0,0,0,-1,650,1702,0,0
-567,-678,0,0,0,0,0,0,0,0,0,-1,657,1702,0,0
-560,-678,0,0,0,0,0,0,0,0,0,-1,664,1702,0,0
-553,-678,0,0,0,0,0,0,0,0,0,-1,671,1702,0,0
-546,-678,0,0,0,0,0,0,0,0,0,-1,678,1702,0,0
-539,-678,0,0,0,0,0,0,0,0,0,-1,685,1702,0,0
-532,-678,0,0,0,0,0,0,0,0,0,-1,692,1702,0,0
-525,-678,0,0,0,0,0,0,0,0,0,-1,699,1702,0,0
-518,-678,0,0,0,0,0,0,0,0,0,-1,706,1702,0,0
-511,-678,0,0,0,0,0,0,0,0,0,-1,713,1702,0,0
-504,-678,0,0,0,0,0,0,0,0,0,-1,720,1702,0,0
-497,-678,0,0,0,0,0,0,0,0,0,-1,727,1702,0,0
-490,-678,0,0,0,0,0,0,0,0,0,-1,734,1702,0,0
-483,-678,0,0,0,0,0,0,0,0,0,-1,741,1702,0,0
-476,-678,0,0,0,0,0,0,0,0,0,-1,748,1702,0,0
-469,-678,0,0,0,0,0,0,0,0,0,-1,755,1702,0,0
-462,-678,0,0,0,0,0,0,0,0,0,-1,762,1702,0,0
-455,-678,0,0,0,0,0,0,0,0,0,-1,769,1702,0,0
-448,-678,0,0,0,0,0,0,0,0,0,-1,776,1702,0,0
-441,-678,0,0,0,0,0,0,0,0,0,-1,783,1702,0,0
-434,-678,0,0,0,0,0,0,0,0,0,-1,790,1702,0,0
-427,-678,0,0,0,0,0,0,0,0,0,-1,797,1702,0,0
-420,-678,0,0,0,0,0,0,0,0,0,-1,804,1702,0,0
-413,-678,0,0,0,0,0,0,0,0,0,-1,811,1702,0,0
-406,-678,0,0,0,0,0,0,0,0,0,-1,818,1702,0,0
-399,-678,0,0,0,0,0,0,0,0,0,-1,825,1702,0,0
-392,-678,0,0,0,0,0,0,0,0,0,-1,832,1702,0,0
-385,-678,0,0,0,0,0,0,0,0,0,-1,839,1702,0,0
-378,-678,0,0,0,0,0,0,0,0,0,-1,846,1702,0,0
-371,-678,0,0,0,0,0,0,0,0,0,-1,853,1702,0,0
-364,-678,0,0,0,0,0,0,0,0,0,-1,860,1702,0,0
-357,-678,0,0,0,0,0,0,0,0,0,-1,867,1702,0,0
-350,-678,3.57458,3.94983,0,0,0,0,0,0,0,-1,874,1702,3.57458,-3.94985
-343,-678,2.92084,4.27527,0.0056832,-0.0731228,-0.0271425,0.0141269,-0.0815665,-0.301599,0.0596469,0.043531,881,1702,2.92081,-4.27522
-336,-678,2.18732,4.58154,0.0180107,-0.0684697,-0.0233124,0.0238946,-0.0743537,-0.247233,0.0591648,0.0420367,888,1702,2.18732,-4.58159
-329,-678,1.59509,4.67859,0.0344295,-0.0623051,-0.0254574,0.04072,-0.0685956,-0.242246,0.0637938,0.0440003,895,1702,1.59512,-4.67856
-322,-678,1.03247,4.70728,0.0489816,-0.0510241,-0.022993,0.0540148,-0.0560573,-0.215501,0.0635538,0.0465056,902,1702,1.03249,-4.70724
-315,-678,3.49658,3.61035,0.0557655,-0.0401582,-0.0194192,0.0595477,-0.0439404,-0.192356,0.0599749,0.0483826,909,1702,3.49657,-3.61032
-308,-678,0.509583,5.88989,0,0,0,0,0,0,0,-1,916,1702,0.509562,-5.88991
-301,-678,1.19873,5.7157,0.0529402,-0.0211091,-0.011779,0.0547688,-0.0229376,-0.154007,0.0461014,0.0443373,923,1702,1.19874,-5.71568
-294,-678,2.03607,5.43579,0.0466572,-0.0134079,-0.00809254,0.0477284,-0.0144791,-0.131604,0.0375867,0.0450616,930,1702,2.03609,-5.4358
-287,-678,2.41846,4.59509,0.041362,-0.00652147,-0.00522563,0.0419257,-0.00708512,-0.107447,0.0305869,0.043047,937,1702,2.41845,-4.59511
-280,-678,2.43628,3.96057,0.034905,-0.000802345,-0.00272274,0.0351114,-0.00100877,-0.0756685,0.023751,0.0465862,944,1702,2.43631,-3.96063
-273,-678,2.38196,3.87439,0,0,0,0,0,0,0,-1,951,1702,2.38198,-3.87437
-266,-678,2.12299,3.91626,0.0178171,0.00442559,0.000213434,0.0178205,0.00442219,0.0159327,0.0107149,0.0348716,958,1702,2.123,-3.91621
-259,-678,2.16333,4.026,0.00861767,0.00488991,0.00172773,0.00929527,0.00421232,0.373754,0.00537447,0.019185,965,1702,2.16334,-4.02598
-252,-678,2.20459,4.05286,0.00539038,0.00467887,0.000906084,0.00600805,0.0040612,0.598329,0.00353962,0.0168989,972,1702,2.2046,-4.05285
-245,-678,2.24805,4.10083,0.00229933,0.00462831,0.000355263,0.0046813,0.00224634,1.42274,0.00270348,0.0178414,979,1702,2.24802,-4.10088
-238,-678,2.25818,4.14392,0.000467165,0.00393752,-1.25562e-05,0.00393757,0.00046712,-1.56718,0.00248402,0.0148634,986,1702,2.25816,-4.14388
-231,-678,2.22858,4.1969,-0.000618702,0.00334463,-0.000111391,0.00334776,-0.000621831,-1.54272,0.0024654,0.0126754,993,1702,2.2286,-4.19685
-224,-678,2.2124,4.22778,-0.00117481,0.00237859,-3.75855e-05,0.00237899,-0.0011752,-1.56022,0.00209088,0.0117819,1000,1702,2.21238,-4.22774
-217,-678,2.22888,4.26575,-0.00151732,0.00108633,-0.000641284,0.00123571,-0.0016667,-1.34194,0.00168185,0.0129373,1007,1702,2.22889,-4.26573
-210,-678,2.22992,4.32947,-0.00137379,0.00076037,-0.00066722,0.000951798,-0.00156522,-1.2914,0.00146751,0.0134351,1014,1702,2.22995,-4.3295
-203,-678,2.2088,4.35767,-0.00117748,0.000406887,-0.000463973,0.000532759,-0.00130335,-1.30588,0.00109076,0.0165281,1021,1702,2.20879,-4.35762
-196,-678,2.22327,4.40247,-0.000858214,0.000246242,-0.000381355,0.000365123,-0.000977095,-1.26861,0.000801329,0.0165503,1028,1702,2.22325,-4.40245
-189,-678,2.2439,4.4707,-0.000538968,-6.82975e-05,-0.000351105,0.000119046,-0.000726312,-1.08065,0.000528379,0.0100247,1035,1702,2.24388,-4.47067
-182,-678,2.24475,4.50977,-0.000317239,-0.000511864,-0.00038354,-1.88589e-05,-0.000810244,-0.661159,0.000533988,0.00976282,1042,1702,2.24479,-4.50977
-175,-678,2.23987,4.55127,-0.00025388,-0.000882651,-0.00046762,-4.78851e-06,-0.00113174,-0.489448,0.000752904,0.0107678,1049,1702,2.23984,-4.55127
-168,-678,2.24377,4.59412,-0.000355347,-0.000901372,-0.000512978,-4.72558e-05,-0.00120946,-0.540857,0.000791028,0.0101852,1056,1702,2.24375,-4.59416
-161,-678,2.24194,4.62573,-0.000357095,-0.000907965,-0.000576081,6.01052e-06,-0.00127107,-0.562404,0.000849391,0.00907224,1063,1702,2.24191,-4.62578
-154,-678,2.23169,4.65027,-0.000290773,-0.000927498,-0.000651298,0.000115809,-0.00133408,-0.558069,0.000930395,0.00881802,1070,1702,2.23169,-4.65025
-147,-678,2.25195,4.68494,-0.000406305,-0.000934906,-0.000676615,5.57987e-05,-0.00139701,-0.5992,0.000950485,0.0105618,1077,1702,2.25194,-4.68492
-140,-678,2.25842,4.72925,-0.000805216,-0.000756793,-0.000898452,0.000117774,-0.00167978,-0.798869,0.00116111,0.0116682,1084,1702,2.25847,-4.72928
-133,-678,2.25305,4.77429,-0.00116736,-0.00122389,-0.00104066,-0.000154578,-0.00223667,-0.771821,0.00144235,0.0113604,1091,1702,2.25301,-4.77432
-126,-678,2.28113,4.80225,-0.00143193,-0.00193076,-0.00105286,-0.000599347,-0.00276334,-0.669097,0.0016785,0.00819779,1098,1702,2.28112,-4.80221
-119,-678,2.27441,4.84619,-0.002489,-0.00120302,-0.000501361,-0.00103066,-0.00266136,-1.23966,0.0015495,0.0162173,1105,1702,2.2744,-4.84615
-112,-678,2.25464,4.87292,-0.00421444,0.000465562,0.000144772,0.000470036,-0.00421892,1.5399,0.00298166,0.0223941,1112,1702,2.25463,-4.87293
-105,-678,2.25635,4.89929,-0.00623453,0.000471006,0.000181887,0.000475936,-0.00623946,1.5437,0.00432702,0.0218501,1119,1702,2.2563,-4.89927
-98,-678,2.26062,4.88293,-0.00872315,-0.000399775,0.000323102,-0.000387251,-0.00873567,1.53206,0.00569908,0.0147596,1126,1702,2.26059,-4.88297
-91,-678,2.30017,4.90576,-0.011376,-0.00196323,0.000342264,-0.0019508,-0.0113884,1.5345,0.0070328,0.0139591,1133,1702,2.30023,-4.90576
-84,-678,2.3114,4.90942,-0.0140721,-0.00274151,0.000460039,-0.00272286,-0.0140907,1.53028,0.00863058,0.021872,1140,1702,2.31136,-4.90939
-77,-678,2.30408,4.95483,-0.0168144,-0.00395146,0.000366092,-0.00394105,-0.0168248,1.54237,0.0101609,0.0287672,1147,1702,2.30403,-4.9548
-70,-678,2.35071,5.05432,-0.0191046,-0.0057726,2.36249e-05,-0.00577256,-0.0191046,1.56902,0.0113142,0.030267,1154,1702,2.35069,-5.05433
-63,-678,1.74902,5.16406,-0.0158664,-0.00839455,-0.00279481,-0.00746485,-0.0167961,-1.24966,0.0097172,0.0417821,1161,1702,1.74905,-5.16406
-56,-678,1.19714,5.07544,-0.0115533,-0.0117867,-0.00587767,-0.0057912,-0.0175489,-0.775472,0.0103252,0.0427157,1168,1702,1.19711,-5.07548
-49,-678,0.107056,5.61597,0,0,0,0,0,0,0,-1,1175,1702,0.107059,-5.61596
-42,-678,0.297119,3.90649,0,0,0,0,0,0,0,-1,1182,1702,0.297139,-3.90655
-35,-678,0.498413,3.64038,0,0,0,0,0,0,0,-1,1189,1702,0.498471,-3.64038
-28,-678,0.132446,3.55994,0,0,0,0,0,0,0,-1,1196,1702,0.132432,-3.55993
-21,-678,2.52148,5.24487,0,0,0,0,0,0,0,-1,1203,1702,2.52147,-5.24491
-14,-678,2.52917,5.10571,0.021511,-0.024702,-0.026653,0.0336791,-0.0368701,-0.428275,0.0407454,0.0410119,1210,1702,2.52914,-5.10567
-7,-678,2.5304,4.99915,0.0248229,-0.026499,-0.0308814,0.0393135,-0.0409896,-0.438733,0.0463664,0.0458359,1217,1702,2.53039,-4.9991
0,-678,2.63464,5.08264,0.024869,-0.0246373,-0.0333804,0.0416727,-0.041441,-0.466363,0.0479858,0.0463005,1224,1702,2.63469,-5.0826
7,-678,2.37817,5.05591,0.0236878,-0.0228785,-0.0367209,0.0438849,-0.0430756,-0.502855,0.0502074,0.0445058,1231,1702,2.37817,-5.05587
14,-678,2.13025,4.90662,0,0,0,0,0,0,0,-1,1238,1702,2.13028,-4.90656
21,-678,2.1261,4.96948,0,0,0,0,0,0,0,-1,1245,1702,2.12614,-4.96949
28,-678,5.71094,8.31348,0,0,0,0,0,0,0,-1,1252,1702,5.71093,-8.31351
35,-678,4.98059,7.80408,0,0,0,0,0,0,0,-1,1259,1702,4.98059,-7.80403
42,-678,4.55603,7.39001,0,0,0,0,0,0,0,-1,1266,1702,4.55602,-7.39002
49,-678,3.95618,5.66956,-0.0163108,-0.0180135,-0.0564766,0.0393209,-0.0736452,-0.777862,0.066217,0.0445028,1273,1702,3.95613,-5.66951
56,-678,3.13782,5.87793,0,0,0,0,0,0,0,-1,1280,1702,3.1378,-5.87798
63,-678,2.39807,6.04675,-0.0264841,-0.00992805,-0.0619171,0.044262,-0.0806741,-0.851852,0.0731459,0.0450109,1287,1702,2.39802,-6.04669
70,-678,2.11096,5.91919,-0.0303946,-0.00453634,-0.0651422,0.0489474,-0.0838784,-0.883363,0.0775659,0.0455181,1294,1702,2.11093,-5.91921
77,-678,1.97717,5.85181,-0.0321587,0.00149808,-0.0669005,0.0536542,-0.0843149,-0.908614,0.0803095,0.0456322,1301,1702,1.97721,-5.85175
84,-678,2.08704,5.87231,0,0,0,0,0,0,0,-1,1308,1702,2.08707,-5.87227
91,-678,2.29785,5.74097,-0.0321906,0.0162685,-0.068865,0.0650421,-0.0809642,-0.954555,0.0844637,0.0476409,1315,1702,2.29781,-5.74098
98,-678,2.26343,5.76306,0,0,0,0,0,0,0,-1,1322,1702,2.26343,-5.76304
105,-678,2.7085,5.00146,0,0,0,0,0,0,0,-1,1329,1702,2.70854,-5.00151
112,-678,3.51233,4.89905,0,0,0,0,0,0,0,-1,1336,1702,3.51234,-4.89907
119,-678,2.16968,4.61768,0,0,0,0,0,0,0,-1,1343,1702,2.16966,-4.61762
126,-678,2.75183,4.17505,0,0,0,0,0,0,0,-1,1350,1702,2.75177,-4.17501
133,-678,1.55713,5.07898,0,0,0,0,0,0,0,-1,1357,1702,1.55714,-5.07903
140,-678,2.56177,6.05151,0,0,0,0,0,0,0,-1,1364,1702,2.56173,-6.05154
147,-678,2.63208,5.96472,0,0,0,0,0,0,0,-1,1371,1702,2.63205,-5.96475
154,-678,2.82129,5.7334,0,0,0,0,0,0,0,-1,1378,1702,2.82127,-5.73345
161,-678,3.44202,4.53992,0,0,0,0,0,0,0,-1,1385,1702,3.442,-4.53996
168,-678,4.21863,5.25781,0,0,0,0,0,0,0,-1,1392,1702,4.21865,-5.25781
175,-678,5.21899,5.9635,0,0,0,0,0,0,0,-1,1399,1702,5.21894,-5.96346
182,-678,5.11292,6.61377,0,0,0,0,0,0,0,-1,1406,1702,5.11286,-6.61376
189,-678,4.60767,5.56372,-0.0320373,0.0137841,0.0190585,0.0206749,-0.038928,1.22386,0.0349455,0.0449326,1413,1702,4.60772,-5.56374
196,-678,3.83533,5.15625,-0.0322832,0.0107511,0.0200055,0.0186143,-0.0401464,1.19629,0.0346764,0.0384243,1420,1702,3.83538,-5.15622
203,-678,3.55042,5.0752,-0.0307872,0.008438,0.0202222,0.0169962,-0.0393453,1.17045,0.033371,0.0397367,1427,1702,3.55043,-5.07516
210,-678,2.72229,5.05029,-0.0279786,0.00688128,0.0198988,0.0159044,-0.0370017,1.14508,0.0313445,0.0395156,1434,1702,2.72232,-5.05031
217,-678,2.8363,4.93286,0,0,0,0,0,0,0,-1,1441,1702,2.83631,-4.93291
224,-678,2.68823,4.85828,-0.0205118,0.00747438,0.0172083,0.0156608,-0.0286982,1.12676,0.0259768,0.0287157,1448,1702,2.68823,-4.85829
231,-678,2.6626,4.90491,-0.018181,0.00757658,0.0160047,0.0152408,-0.0258452,1.12419,0.0239829,0.0203938,1455,1702,2.66261,-4.90485
238,-678,2.68323,4.89368,-0.0160892,0.00769008,0.014734,0.0147333,-0.0231325,1.12488,0.0220404,0.0171732,1462,1702,2.6832,-4.8937
245,-678,2.69043,4.88171,-0.0143333,0.00834659,0.0129165,0.0141948,-0.0201815,1.14564,0.0199472,0.0151864,1469,1702,2.6904,-4.88168
252,-678,2.69312,4.84912,-0.0129181,0.00925652,0.0116338,0.0142401,-0.0179017,1.16607,0.0185972,0.0120482,1476,1702,2.69309,-4.84907
259,-678,2.69092,4.8446,-0.0119918,0.00912886,0.00997721,0.0130966,-0.0159596,1.19229,0.0168027,0.0104313,1483,1702,2.69093,-4.84455
266,-678,2.69971,4.83301,-0.0112312,0.00908571,0.00871447,0.0123114,-0.0144569,1.21628,0.0154712,0.00977224,1490,1702,2.69974,-4.83296
273,-678,2.69482,4.82239,-0.0107149,0.00882232,0.00732323,0.0112625,-0.0131551,1.24915,0.0141116,0.00994736,1497,1702,2.69481,-4.82241
280,-678,2.67749,4.78259,-0.010042,0.00842035,0.0058568,0.0101215,-0.0117432,1.28811,0.0126352,0.0106878,1504,1702,2.67744,-4.78264
287,-678,2.68408,4.71704,-0.00900474,0.00791518,0.00455659,0.00906425,-0.0101538,1.32377,0.0111015,0.010765,1511,1702,2.68402,-4.71704
294,-678,2.68506,4.68396,-0.00763472,0.00700838,0.00340101,0.00775974,-0.00838608,1.35336,0.00932413,0.011492,1518,1702,2.68505,-4.68399
301,-678,2.68237,4.65173,-0.00618888,0.00638586,0.00235388,0.00681204,-0.00661506,1.39168,0.00775242,0.0118641,1525,1702,2.68242,-4.65179
308,-678,2.68396,4.61755,-0.00468649,0.0060686,0.00137909,0.00624262,-0.00486051,1.44528,0.00642693,0.0131547,1532,1702,2.68392,-4.61757
315,-678,2.70886,4.6167,-0.00314199,0.00605664,0.000455898,0.00607918,-0.00316453,1.5214,0.00542457,0.0140794,1539,1702,2.70889,-4.61669
322,-678,2.69458,4.57251,-0.0017264,0.00599085,-0.000459219,0.00601808,-0.00175363,-1.51157,0.00470678,0.0164234,1546,1702,2.69458,-4.57245
329,-678,2.66064,4.51013,-0.000391466,0.00626807,-0.0013953,0.00654859,-0.000671991,-1.37239,0.00460609,0.0145634,1553,1702,2.6606,-4.51018
336,-678,2.66968,4.45386,0.000809502,0.00605553,-0.00228579,0.00691175,-4.67133e-05,-1.21239,0.00462348,0.0124078,1560,1702,2.66969,-4.45386
343,-678,2.6781,4.42163,0.00169108,0.0060306,-0.00295939,0.00753043,0.000191256,-1.10172,0.00495776,0.0114338,1567,1702,2.67815,-4.4216
350,-678,2.68982,4.38928,0.00134119,0.0055196,-0.00415929,0.00808491,-0.00122412,-1.01814,0.00584089,0.0109165,1574,1702,2.68982,-4.38932
357,-678,2.71118,4.34119,0.00080565,0.00775412,-0.00481753,0.0102195,-0.00165972,-1.09779,0.0074283,0.0088078,1581,1702,2.71118,-4.34113
364,-678,2.69592,4.30835,0.00188459,0.00931747,-0.00494348,0.0117857,-0.000583621,-1.10772,0.00805871,0.0122813,1588,1702,2.69595,-4.30831
371,-678,2.68347,4.271,0.00354027,0.0104658,-0.00475266,0.0128834,0.00112268,-1.10023,0.00824022,0.0137769,1595,1702,2.68341,-4.27104
378,-678,2.68079,4.1947,0.00566264,0.0118004,-0.00429156,0.0140075,0.00345559,-1.09579,0.00842606,0.0132569,1602,1702,2.68074,-4.19466
385,-678,2.70105,4.14465,0.00888486,0.0134252,-0.00339279,0.0152373,0.00707279,-1.08025,0.00880476,0.0126209,1609,1702,2.70104,-4.14463
392,-678,2.7583,4.15308,0.0124673,0.0154012,-0.00221022,0.016587,0.0112815,-1.07838,0.00978148,0.0210985,1616,1702,2.75834,-4.15311
399,-678,2.84082,4.13965,0.0175889,0.0172867,-0.000344379,0.0178139,0.0170618,-0.578672,0.0116333,0.0322191,1623,1702,2.84082,-4.13967
406,-678,2.83301,4.08826,0.0243244,0.0190465,0.00190583,0.0249406,0.0184302,0.312731,0.0149376,0.0389941,1630,1702,2.83301,-4.08826
413,-678,2.94592,3.87561,0.0324051,0.0206228,0.00450188,0.0339283,0.0190996,0.326256,0.0196402,0.0414759,1637,1702,2.9459,-3.8756
420,-678,3.00586,3.96082,0.0417446,0.0217951,0.00769539,0.044368,0.0191716,0.328556,0.0256945,0.0471946,1644,1702,3.00587,-3.96079
427,-678,2.91907,4.25391,0,0,0,0,0,0,0,-1,1651,1702,2.91907,-4.25387
434,-678,4.10669,6.3645,0,0,0,0,0,0,0,-1,1658,1702,4.10673,-6.36445
441,-678,0.609985,2.68274,0,0,0,0,0,0,0,-1,1665,1702,0.609959,-2.68277
448,-678,-0.100708,2.94946,0,0,0,0,0,0,0,-1,1672,1702,-0.100677,-2.94949
455,-678,-0.728394,3.19946,0,0,0,0,0,0,0,-1,1679,1702,-0.728441,-3.19945
462,-678,3.86792,2.87402,0,0,0,0,0,0,0,-1,1686,1702,3.86796,-2.87406
469,-678,2.26587,1.98755,0,0,0,0,0,0,0,-1,1693,1702,2.26592,-1.98755
476,-678,0,0,0,0,0,0,0,0,0,-1,1700,1702,0,0
483,-678,0,0,0,0,0,0,0,0,0,-1,1707,1702,0,0
490,-678,0,0,0,0,0,0,0,0,0,-1,1714,1702,0,0
497,-678,0,0,0,0,0,0,0,0,0,-1,1721,1702,0,0
504,-678,0,0,0,0,0,0,0,0,0,-1,1728,1702,0,0
511,-678,0,0,0,0,0,0,0,0,0,-1,1735,1702,0,0
518,-678,0,0,0,0,0,0,0,0,0,-1,1742,1702,0,0
525,-678,0,0,0,0,0,0,0,0,0,-1,1749,1702,0,0
532,-678,0,0,0,0,0,0,0,0,0,-1,1756,1702,0,0
539,-678,0,0,0,0,0,0,0,0,0,-1,1763,1702,0,0
546,-678,0,0,0,0,0,0,0,0,0,-1,1770,1702,0,0
553,-678,0,0,0,0,0,0,0,0,0,-1,1777,1702,0,0
560,-678,0,0,0,0,0,0,0,0,0,-1,1784,1702,0,0
567,-678,0,0,0,0,0,0,0,0,0,-1,1791,1702,0,0
574,-678,0,0,0,0,0,0,0,0,0,-1,1798,1702,0,0
581,-678,0,0,0,0,0,0,0,0,0,-1,1805,1702,0,0
588,-678,0,0,0,0,0,0,0,0,0,-1,1812,1702,0,0
595,-678,0,0,0,0,0,0,0,0,0,-1,1819,1702,0,0
602,-678,0,0,0,0,0,0,0,0,0,-1,1826,1702,0,0
609,-678,0,0,0,0,0,0,0,0,0,-1,1833,1702,0,0
616,-678,0,0,0,0,0,0,0,0,0,-1,1840,1702,0,0
623,-678,0,0,0,0,0,0,0,0,0,-1,1847,1702,0,0
630,-678,0,0,0,0,0,0,0,0,0,-1,1854,1702,0,0
637,-678,0,0,0,0,0,0,0,0,0,-1,1861,1702,0,0
644,-678,0,0,0,0,0,0,0,0,0,-1,1868,1702,0,0
651,-678,0,0,0,0,0,0,0,0,0,-1,1875,1702,0,0
658,-678,0,0,0,0,0,0,0,0,0,-1,1882,1702,0,0
665,-678,0,0,0,0,0,0,0,0,0,-1,1889,1702,0,0
672,-678,0,0,0,0,0,0,0,0,0,-1,1896,1702,0,0
679,-678,0,0,0,0,0,0,0,0,0,-1,1903,1702,0,0
686,-678,0,0,0,0,0,0,0,0,0,-1,1910,1702,0,0
693,-678,0,0,0,0,0,0,0,0,0,-1,1917,1702,0,0
700,-678,0,0,0,0,0,0,0,0,0,-1,1924,1702,0,0
707,-678,0,0,0,0,0,0,0,0,0,-1,1931,1702,0,0
714,-678,0,0,0,0,0,0,0,0,0,-1,1938,1702,0,0
721,-678,0,0,0,0,0,0,0,0,0,-1,1945,1702,0,0
728,-678,0,0,0,0,0,0,0,0,0,-1,1952,1702,0,0
735,-678,0,0,0,0,0,0,0,0,0,-1,1959,1702,0,0
742,-678,0,0,0,0,0,0,0,0,0,-1,1966,1702,0,0
749,-678,0,0,0,0,0,0,0,0,0,-1,1973,1702,0,0
756,-678,0,0,0,0,0,0,0,0,0,-1,1980,1702,0,0
763,-678,0,0,0,0,0,0,0,0,0,-1,1987,1702,0,0
770,-678,0,0,0,0,0,0,0,0,0,-1,1994,1702,0,0
777,-678,0,0,0,0,0,0,0,0,0,-1,2001,1702,0,0
784,-678,0,0,0,0,0,0,0,0,0,-1,2008,1702,0,0
791,-678,0,0,0,0,0,0,0,0,0,-1,2015,1702,0,0
798,-678,0,0,0,0,0,0,0,0,0,-1,2022,1702,0,0
805,-678,0,0,0,0,0,0,0,0,0,-1,2029,1702,0,0
812,-678,0,0,0,0,0,0,0,0,0,-1,2036,1702,0,0
-700,-685,0,0,0,0,0,0,0,0,0,-1,524,1709,0,0
-693,-685,0,0,0,0,0,0,0,0,0,-1,531,1709,0,0
-686,-685,0,0,0,0,0,0,0,0,0,-1,538,1709,0,0
-679,-685,0,0,0,0,0,0,0,0,0,-1,545,1709,0,0
-672,-685,0,0,0,0,0,0,0,0,0,-1,552,1709,0,0
-665,-685,0,0,0,0,0,0,0,0,0,-1,559,1709,0,0
-658,-685,0,0,0,0,0,0,0,0,0,-1,566,1709,0,0
-651,-685,0,0,0,0,0,0,0,0,0,-1,573,1709,0,0
-644,-685,0,0,0,0,0,0,0,0,0,-1,580,1709,0,0
-637,-685,0,0,0,0,0,0,0,0,0,-1,587,1709,0,0
-630,-685,0,0,0,0,0,0,0,0,0,-1,594,1709,0,0
-623,-685,0,0,0,0,0,0,0,0,0,-1,601,1709,0,0
-616,-685,0,0,0,0,0,0,0,0,0,-1,608,1709,0,0
-609,-685,0,0,0,0,0,0,0,0,0,-1,615,1709,0,0
-602,-685,0,0,0,0,0,0,0,0,0,-1,622,1709,0,0
-595,-685,0,0,0,0,0,0,0,0,0,-1,629,1709,0,0
-588,-685,0,0,0,0,0,0,0,0,0,-1,636,1709,0,0
-581,-685,0,0,0,0,0,0,0,0,0,-1,643,1709,0,0
-574,-685,0,0,0,0,0,0,0,0,0,-1,650,1709,0,0
-567,-685,0,0,0,0,0,0,0,0,0,-1,657,1709,0,0
-560,-685,0,0,0,0,0,0,0,0,0,-1,664,1709,0,0
-553,-685,0,0,0,0,0,0,0,0,0,-1,671,1709,0,0
-546,-685,0,0,0,0,0,0,0,0,0,-1,678,1709,0,0
-539,-685,0,0,0,0,0,0,0,0,0,-1,685,1709,0,0
-532,-685,0,0,0,0,0,0,0,0,0,-1,692,1709,0,0
-525,-685,0,0,0,0,0,0,0,0,0,-1,699,1709,0,0
-518,-685,0,0,0,0,0,0,0,0,0,-1,706,1709,0,0
-511,-685,0,0,0,0,0,0,0,0,0,-1,713,1709,0,0
-504,-685,0,0,0,0,0,0,0,0,0,-1,720,1709,0,0
-497,-685,0,0,0,0,0,0,0,0,0,-1,727,1709,0,0
-490,-685,0,0,0,0,0,0,0,0,0,-1,734,1709,0,0
-483,-685,0,0,0,0,0,0,0,0,0,-1,741,1709,0,0
-476,-685,0,0,0,0,0,0,0,0,0,-1,748,1709,0,0
-469,-685,0,0,0,0,0,0,0,0,0,-1,755,1709,0,0
-462,-685,0,0,0,0,0,0,0,0,0,-1,762,1709,0,0
-455,-685,0,0,0,0,0,0,0,0,0,-1,769,1709,0,0
-448,-685,0,0,0,0,0,0,0,0,0,-1,776,1709,0,0
-441,-685,0,0,0,0,0,0,0,0,0,-1,783,1709,0,0
-434,-685,0,0,0,0,0,0,0,0,0,-1,790,1709,0,0
-427,-685,0,0,0,0,0,0,0,0,0,-1,797,1709,0,0
-420,-685,0,0,0,0,0,0,0,0,0,-1,804,1709,0,0
-413,-685,0,0,0,0,0,0,0,0,0,-1,811,1709,0,0
-406,-685,0,0,0,0,0,0,0,0,0,-1,818,1709,0,0
-399,-685,0,0,0,0,0,0,0,0,0,-1,825,1709,0,0
-392,-685,0,0,0,0,0,0,0,0,0,-1,832,1709,0,0
-385,-685,0,0,0,0,0,0,0,0,0,-1,839,1709,0,0
-378,-685,0,0,0,0,0,0,0,0,0,-1,846,1709,0,0
-371,-685,0,0,0,0,0,0,0,0,0,-1,853,1709,0,0
-364,-685,0,0,0,0,0,0,0,0,0,-1,860,1709,0,0
-357,-685,0,0,0,0,0,0,0,0,0,-1,867,1709,0,0
-350,-685,0,0,0,0,0,0,0,0,0,-1,874,1709,0,0
-343,-685,3.29559,4.93274,-0.0126814,-0.0891893,-0.0295225,-0.00261407,-0.0992566,-0.328638,0.0653171,0.0408053,881,1709,3.2956,-4.93279
-336,-685,2.48462,5.30994,0.0188966,-0.0818731,-0.0304556,0.027386,-0.0903625,-0.271846,0.0711494,0.0436784,888,1709,2.48461,-5.30996
-329,-685,1.79517,5.28247,0.0458386,-0.0734808,-0.0331793,0.0544441,-0.0820863,-0.253773,0.0793626,0.048959,895,1709,1.79514,-5.28249
-322,-685,1.21643,5.27649,0.0635551,-0.0576354,-0.0284898,0.0699184,-0.0639987,-0.219748,0.0773423,0.0480368,902,1709,1.21643,-5.2765
-315,-685,4.15717,3.71265,0.0685138,-0.0447967,-0.0236526,0.0732529,-0.0495358,-0.197744,0.0713315,0.0464782,909,1709,4.15714,-3.71267
-308,-685,-0.0570679,6.46851,0,0,0,0,0,0,0,-1,916,1709,-0.0570741,-6.46853
-301,-685,0.631042,6.36572,0.0628442,-0.0231312,-0.0142704,0.0651509,-0.025438,-0.160259,0.0539507,0.0489665,923,1709,0.631036,-6.36572
-294,-685,1.38586,5.57104,0.0552054,-0.0141945,-0.00970865,0.056538,-0.0155271,-0.136406,0.043795,0.0492549,930,1709,1.38589,-5.57107
-287,-685,1.53003,4.65442,0.0492596,-0.00612149,-0.00617872,0.0499406,-0.00680246,-0.109769,0.0357774,0.0488889,937,1709,1.53004,-4.6544
-280,-685,2.39099,3.67261,0.0417483,0.000627945,-0.00303764,0.0419715,0.00040476,-0.0733413,0.027847,0.0483633,944,1709,2.391,-3.67262
-273,-685,2.89777,2.92725,0.0329969,0.00469958,-0.000913623,0.0330263,0.00467011,-0.0322418,0.0206377,0.0443295,951,1709,2.89778,-2.92726
-266,-685,3.50867,2.37109,0,0,0,0,0,0,0,-1,958,1709,3.50865,-2.37103
-259,-685,1.88391,3.78369,0.00987143,0.00711614,0.00241025,0.01127,0.00571759,0.525769,0.00650696,0.0372512,965,1709,1.88391,-3.78366
-252,-685,2.36359,4.08667,0.00580989,0.00671833,0.00135484,0.00769306,0.00483516,0.947139,0.00449023,0.0353262,972,1709,2.36356,-4.08667
-245,-685,2.37299,4.07751,0.0021014,0.00650853,0.000667588,0.00660744,0.00200249,1.42371,0.0039122,0.0318162,979,1709,2.37298,-4.07747
-238,-685,2.33746,4.13403,-6.13926e-05,0.00565209,0.000165649,0.00565689,-6.61914e-05,1.54184,0.00379352,0.0244886,986,1709,2.33747,-4.13398
-231,-685,2.27478,4.20984,-0.00140429,0.00488917,-1.96818e-05,0.00488923,-0.00140436,-1.56767,0.00381476,0.0161849,993,1709,2.27481,-4.20988
-224,-685,2.26282,4.23926,-0.00208141,0.00379898,-1.95859e-06,0.00379898,-0.00208141,-1.57046,0.00344298,0.0134662,1000,1709,2.2628,-4.2392
-217,-685,2.27075,4.26965,-0.00246481,0.00223529,-0.000801941,0.00236835,-0.00259787,-1.40637,0.00286827,0.0111866,1007,1709,2.27073,-4.2697
-210,-685,2.26819,4.33289,-0.00230669,0.00188657,-0.000838247,0.00204793,-0.00246804,-1.38063,0.00261106,0.01434,1014,1709,2.26821,-4.33292
-203,-685,2.26703,4.38037,-0.00200504,0.00149145,-0.000663371,0.00161308,-0.00212667,-1.38946,0.00216592,0.0141097,1021,1709,2.26704,-4.38035
-196,-685,2.26477,4.40454,-0.00153285,0.0013615,-0.000673758,0.00151065,-0.001682,-1.35293,0.00184416,0.0133788,1028,1709,2.26475,-4.40452
-189,-685,2.27197,4.44836,-0.00104131,0.00102365,-0.000718831,0.00124924,-0.0012669,-1.2667,0.0014527,0.0089946,1035,1709,2.27202,-4.4484
-182,-685,2.28076,4.49573,-0.000650044,0.000592951,-0.000843076,0.00101885,-0.00107594,-1.10302,0.00120958,0.0129464,1042,1709,2.28079,-4.49576
-175,-685,2.27881,4.54163,-0.000449612,0.000248651,-0.00101266,0.000970673,-0.00117163,-0.951401,0.00123867,0.0142764,1049,1709,2.27882,-4.54164
-168,-685,2.27905,4.59192,-0.000465864,0.000257459,-0.00107467,0.00102969,-0.0012381,-0.947711,0.00131115,0.0108685,1056,1709,2.27906,-4.59188
-161,-685,2.27563,4.62659,-0.000372695,0.000163508,-0.00112839,0.00105521,-0.00126439,-0.902034,0.00134103,0.0110657,1063,1709,2.27566,-4.6266
-154,-685,2.28186,4.65942,-0.000221304,9.42935e-05,-0.00118079,0.00112778,-0.00125479,-0.851824,0.00137623,0.0105102,1070,1709,2.2819,-4.65947
-147,-685,2.28796,4.68237,-0.000226274,2.31304e-05,-0.00115077,0.00105594,-0.00125908,-0.83937,0.00133829,0.00942809,1077,1709,2.28792,-4.68243
-140,-685,2.28918,4.70764,-0.000549671,0.000101599,-0.00125362,0.00107119,-0.00151926,-0.912467,0.00150304,0.0114172,1084,1709,2.28923,-4.70763
-133,-685,2.2959,4.755,-0.000777812,-0.000270737,-0.001221,0.000722767,-0.00177132,-0.887767,0.00148177,0.0101648,1091,1709,2.29588,-4.75495
-126,-685,2.31421,4.78223,-0.000882578,-0.000750924,-0.00116578,0.000350891,-0.00198439,-0.813601,0.00145407,0.0082904,1098,1709,2.3142,-4.78228
-119,-685,2.30396,4.79675,-0.00162859,-0.00021188,-0.000753128,0.000113674,-0.00195415,-1.16278,0.00134226,0.0121823,1105,1709,2.30393,-4.7968
-112,-685,2.30029,4.84668,-0.00285427,0.0011328,-0.000333816,0.00116055,-0.00288202,-1.48784,0.00240349,0.0120192,1112,1709,2.30031,-4.84668
-105,-685,2.27551,4.86572,-0.00434847,0.00162416,-0.000390251,0.00164955,-0.00437387,-1.50582,0.00359423,0.0106257,1119,1709,2.27557,-4.86573
-98,-685,2.30469,4.87268,-0.00622917,0.0018642,-0.000335318,0.00187807,-0.00624303,-1.52946,0.00490929,0.013767,1126,1709,2.30475,-4.8727
-91,-685,2.30615,4.9104,-0.00840032,0.00173503,-0.00038754,0.00174983,-0.00841512,-1.53263,0.00627521,0.0150893,1133,1709,2.30611,-4.91036
-84,-685,2.31775,4.92993,-0.010674,0.00222132,-0.000406549,0.00223413,-0.0106868,-1.53931,0.00797427,0.0131046,1140,1709,2.31778,-4.92992
-77,-685,2.31152,4.97998,-0.0130639,0.00246623,-0.000545028,0.00248533,-0.013083,-1.53576,0.00965763,0.0116729,1147,1709,2.31149,-4.98
-70,-685,2.34729,5.03137,-0.0150854,0.00216148,-0.000811563,0.00219958,-0.0151235,-1.52388,0.0108898,0.0144097,1154,1709,2.34733,-5.03136
-63,-685,2.3479,5.08875,-0.0133791,0.000319472,-0.0026659,0.000819997,-0.0138796,-1.38521,0.00953818,0.022517,1161,1709,2.34787,-5.08869
-56,-685,2.06982,5.32983,-0.0107196,-0.00241536,-0.00470038,-0.000295817,-0.0128391,-1.14717,0.00846253,0.0395686,1168,1709,2.06982,-5.3298
-49,-685,2.16125,5.6062,0,0,0,0,0,0,0,-1,1175,1709,2.16127,-5.60615
-42,-685,2.16431,5.4519,0,0,0,0,0,0,0,-1,1182,1709,2.16426,-5.45194
-35,-685,2.37073,5.12903,0,0,0,0,0,0,0,-1,1189,1709,2.37077,-5.12898
-28,-685,2.2428,5.08923,0,0,0,0,0,0,0,-1,1196,1709,2.24283,-5.08929
-21,-685,2.3092,5.15051,0.0104392,-0.0143189,-0.0139996,0.0167479,-0.0206276,-0.423377,0.0216174,0.0332518,1203,1709,2.30924,-5.15048
-14,-685,2.35461,5.14856,0.0141411,-0.0172845,-0.0173337,0.0218238,-0.0249672,-0.417204,0.0270351,0.02151,1210,1709,2.35461,-5.14858
-7,-685,2.38892,5.11182,0.0163684,-0.019747,-0.0199529,0.0252216,-0.0286003,-0.417608,0.0310945,0.0351009,1217,1709,2.38889,-5.11182
0,-685,2.41846,5.17603,0.0159429,-0.0191632,-0.0211948,0.0259094,-0.0291298,-0.439554,0.031795,0.0400828,1224,1709,2.41846,-5.17601
7,-685,2.36902,5.1897,0.0147578,-0.0186928,-0.0230998,0.0265516,-0.0304865,-0.472058,0.0329571,0.0364971,1231,1709,2.36896,-5.18972
14,-685,2.34534,5.17175,0.0113574,-0.0189333,-0.0256397,0.0259908,-0.0335667,-0.518622,0.0344782,0.0376464,1238,1709,2.34532,-5.17177
21,-685,2.30029,5.12708,0.00669342,-0.0197825,-0.0282435,0.0246475,-0.0377365,-0.566247,0.0362807,0.0340924,1245,1709,2.30028,-5.12708
28,-685,2.21191,5.11072,0.00138167,-0.0206154,-0.0311464,0.0234144,-0.0426482,-0.61567,0.0386763,0.0352085,1252,1709,2.21196,-5.1107
35,-685,2.50293,4.91504,-0.00415827,-0.0206671,-0.0342029,0.0227722,-0.0475976,-0.666994,0.0414622,0.0375278,1259,1709,2.50299,-4.91508
42,-685,2.57605,4.88538,-0.00947855,-0.0206254,-0.0366024,0.0219723,-0.0520762,-0.709844,0.0439138,0.0411395,1266,1709,2.57604,-4.88538
49,-685,2.36633,5.05542,-0.0145077,-0.0193687,-0.0396164,0.0227526,-0.0566291,-0.754761,0.0472017,0.0439053,1273,1709,2.36637,-5.05537
56,-685,4.23193,6.86743,0,0,0,0,0,0,0,-1,1280,1709,4.23192,-6.86746
63,-685,3.54431,6.81738,0,0,0,0,0,0,0,-1,1287,1709,3.54428,-6.81739
70,-685,3.13367,6.67944,0,0,0,0,0,0,0,-1,1294,1709,3.1337,-6.67942
77,-685,2.92615,6.6803,0,0,0,0,0,0,0,-1,1301,1709,2.92616,-6.68029
84,-685,2.39319,5.46924,0,0,0,0,0,0,0,-1,1308,1709,2.39316,-5.46926
91,-685,2.40405,5.4541,0,0,0,0,0,0,0,-1,1315,1709,2.40411,-5.4541
98,-685,2.48572,5.12463,0,0,0,0,0,0,0,-1,1322,1709,2.48575,-5.12468
105,-685,2.69885,5.03064,-0.0199896,0.0201298,-0.0529053,0.0566507,-0.0565105,-0.966606,0.0653336,0.0419931,1329,1709,2.69881,-5.03069
112,-685,3.0835,4.9541,-0.0178017,0.0257884,-0.0523071,0.0606595,-0.0526728,-0.982797,0.0654866,0.042528,1336,1709,3.08348,-4.95408
119,-685,2.63623,4.61096,0,0,0,0,0,0,0,-1,1343,1709,2.63623,-4.61094
126,-685,2.66003,4.63855,0,0,0,0,0,0,0,-1,1350,1709,2.66005,-4.63858
133,-685,2.33533,5.29199,0,0,0,0,0,0,0,-1,1357,1709,2.33537,-5.29197
140,-685,2.4375,5.61621,-0.00914275,0.0427608,-0.0383062,0.0630784,-0.0294604,-1.08313,0.0545898,0.0467899,1364,1709,2.43752,-5.6162
147,-685,2.62061,5.64136,-0.0100772,0.0398888,-0.0313302,0.0549774,-0.0251658,-1.12198,0.0473258,0.0431301,1371,1709,2.62062,-5.64132
154,-685,2.69641,5.51184,-0.0104485,0.0367303,-0.0214455,0.0450215,-0.0187397,-1.20188,0.0378406,0.0447264,1378,1709,2.69639,-5.51182
161,-685,2.9209,5.22034,0,0,0,0,0,0,0,-1,1385,1709,2.92087,-5.22034
168,-685,3.00391,5.27844,0,0,0,0,0,0,0,-1,1392,1709,3.00385,-5.27843
175,-685,4.10461,6.10095,0,0,0,0,0,0,0,-1,1399,1709,4.10467,-6.10101
182,-685,3.83643,5.86316,-0.0196136,0.0185528,0.0112321,0.0216129,-0.0226737,1.3048,0.0255714,0.0484468,1406,1709,3.83648,-5.86318
189,-685,3.43201,5.6073,-0.022308,0.0134884,0.0163916,0.0198601,-0.0286798,1.20005,0.0281783,0.0466874,1413,1709,3.43196,-5.60734
196,-685,2.9093,5.2804,-0.0226429,0.0109068,0.016837,0.0178992,-0.0296353,1.17717,0.0277215,0.0401574,1420,1709,2.90932,-5.28044
203,-685,2.57166,5.08496,-0.0216781,0.00870999,0.0166698,0.0160712,-0.0290393,1.15496,0.0264009,0.0230284,1427,1709,2.5717,-5.08496
210,-685,2.66296,5.05457,-0.0197518,0.00702714,0.0160589,0.0145462,-0.0272708,1.1329,0.0245128,0.0209108,1434,1709,2.66298,-5.05452
217,-685,2.62073,4.98682,-0.0168517,0.00644051,0.0148995,0.0137054,-0.0241166,1.11712,0.0221106,0.0209138,1441,1709,2.62071,-4.98683
224,-685,2.57019,4.95435,-0.0143529,0.00579047,0.013569,0.0126172,-0.0211796,1.10466,0.0197202,0.0151804,1448,1709,2.57015,-4.95434
231,-685,2.62622,4.94141,-0.0123753,0.00538296,0.0124073,0.011761,-0.0187533,1.09597,0.017771,0.0149887,1455,1709,2.62625,-4.94141
238,-685,2.63525,4.88123,-0.0105623,0.0049783,0.0110866,0.0107465,-0.0163305,1.09105,0.0157433,0.0176912,1462,1709,2.63527,-4.88118
245,-685,2.64355,4.85742,-0.00889071,0.00521643,0.00963638,0.0101049,-0.0137792,1.10133,0.0138438,0.0190507,1469,1709,2.64359,-4.85741
252,-685,2.65125,4.85962,-0.00767495,0.00564606,0.00845605,0.00974972,-0.0117786,1.11898,0.0124478,0.0132492,1476,1709,2.65124,-4.85961
259,-685,2.65271,4.85754,-0.00691027,0.00577105,0.00704823,0.00891098,-0.0100502,1.1517,0.0109538,0.00969993,1483,1709,2.65272,-4.85748
266,-685,2.66248,4.8374,-0.0062392,0.00596644,0.00596015,0.00839402,-0.00866679,1.18401,0.00985049,0.0108028,1490,1709,2.66242,-4.83746
273,-685,2.65503,4.81689,-0.00589594,0.00606833,0.0047848,0.0077465,-0.00757411,1.23347,0.00884554,0.0125458,1497,1709,2.65498,-4.81692
280,-685,2.64331,4.76538,-0.00548061,0.00601985,0.0034732,0.00698737,-0.00644814,1.29911,0.00775908,0.0141725,1504,1709,2.64335,-4.76532
287,-685,2.65894,4.72852,-0.00473011,0.0058214,0.00235509,0.00632319,-0.0052319,1.36087,0.00668125,0.011458,1511,1709,2.65895,-4.72846
294,-685,2.67102,4.70581,-0.0037085,0.0053324,0.00131582,0.00552001,-0.00389611,1.42917,0.00546328,0.0106185,1518,1709,2.671,-4.70576
301,-685,2.65027,4.65869,-0.00269653,0.00514414,0.000409221,0.00516544,-0.00271783,1.51879,0.00462396,0.0128185,1525,1709,2.65024,-4.65868
308,-685,2.64905,4.62756,-0.00162443,0.0053157,-0.000394121,0.00533801,-0.00164674,-1.51425,0.00421618,0.0140287,1532,1709,2.64901,-4.62761
315,-685,2.67334,4.61035,-0.000462446,0.00583355,-0.00115421,0.00603848,-0.00066737,-1.39508,0.00426555,0.0123046,1539,1709,2.67339,-4.61036
322,-685,2.62805,4.54236,0.000580417,0.00632201,-0.00191236,0.00690065,1.7772e-06,-1.27698,0.00459984,0.018782,1546,1709,2.62804,-4.5424
329,-685,2.61902,4.49792,0.00155832,0.00712766,-0.00275075,0.0082572,0.000428786,-1.18116,0.00536758,0.0189285,1553,1709,2.61901,-4.49796
336,-685,2.63989,4.45874,0.00247216,0.00721968,-0.0035872,0.0091474,0.000544439,-1.07769,0.00592513,0.0131524,1560,1709,2.63995,-4.4588
343,-685,2.63623,4.42041,0.00313998,0.00765766,-0.00418187,0.0101518,0.000645888,-1.03302,0.00656314,0.011332,1567,1709,2.63627,-4.42046
350,-685,2.65344,4.36572,0.00226724,0.00736205,-0.00557388,0.0109431,-0.00131377,-0.999738,0.0077704,0.0118094,1574,1709,2.6535,-4.3657
357,-685,2.67102,4.33508,0.00125593,0.010302,-0.00639505,0.0136119,-0.00205393,-1.09319,0.00983103,0.00981148,1581,1709,2.67101,-4.33508
364,-685,2.66003,4.29333,0.00242321,0.0122616,-0.00649254,0.0154881,-0.000803235,-1.10959,0.0106033,0.00960439,1588,1709,2.66007,-4.2933
371,-685,2.66882,4.24304,0.00426064,0.0137585,-0.0062283,0.0168418,0.00117731,-1.11112,0.0108567,0.0145416,1595,1709,2.66885,-4.24305
378,-685,2.64832,4.18616,0.00670988,0.0153722,-0.00561189,0.0181299,0.00395215,-1.11405,0.0110083,0.0188492,1602,1709,2.64827,-4.18613
385,-685,2.66187,4.11523,0.0105735,0.0172662,-0.00435523,0.0194122,0.00842749,-1.11297,0.01124,0.0302219,1609,1709,2.66181,-4.11528
392,-685,2.93591,4.29529,0.0148769,0.0195756,-0.00274953,0.0208428,0.0136097,-1.13894,0.0122199,0.03706,1616,1709,2.9359,-4.29525
399,-685,2.92883,4.42517,0.0211595,0.0217855,-0.000162437,0.0218251,0.0211199,-1.33142,0.0143208,0.0445036,1623,1709,2.92879,-4.42517
406,-685,2.69556,4.64172,0.0298112,0.02377,0.00294358,0.0310083,0.0225729,0.38624,0.0185125,0.0452238,1630,1709,2.6955,-4.64178
413,-685,2.24158,2.91846,0.0403828,0.0254782,0.00663627,0.0429094,0.0229517,0.36377,0.0247938,0.0462055,1637,1709,2.24163,-2.91841
420,-685,3.12,4.09033,0.0528603,0.0267328,0.0111269,0.0569566,0.0226364,0.352752,0.0331138,0.0436683,1644,1709,3.12005,-4.09031
427,-685,3.61768,4.87573,0.0656319,0.0273665,0.011981,0.0690736,0.0239248,0.279732,0.0405023,0.0460987,1651,1709,3.61772,-4.87579
434,-685,4.20935,6.15747,0.07605,0.0278803,0.0109821,0.0784356,0.0254947,0.213905,0.0461997,0.048275,1658,1709,4.20938,-6.15748
441,-685,4.85095,7.0907,0,0,0,0,0,0,0,-1,1665,1709,4.8509,-7.09074
448,-685,-0.79834,3.0249,0,0,0,0,0,0,0,-1,1672,1709,-0.798378,-3.02493
455,-685,2.31958,4.09802,0,0,0,0,0,0,0,-1,1679,1709,2.31957,-4.09803
462,-685,0,0,0,0,0,0,0,0,0,-1,1686,1709,0,0
469,-685,0,0,0,0,0,0,0,0,0,-1,1693,1709,0,0
476,-685,0,0,0,0,0,0,0,0,0,-1,1700,1709,0,0
483,-685,0,0,0,0,0,0,0,0,0,-1,1707,1709,0,0
490,-685,0,0,0,0,0,0,0,0,0,-1,1714,1709,0,0
497,-685,0,0,0,0,0,0,0,0,0,-1,1721,1709,0,0
504,-685,0,0,0,0,0,0,0,0,0,-1,1728,1709,0,0
511,-685,0,0,0,0,0,0,0,0,0,-1,1735,1709,0,0
518,-685,0,0,0,0,0,0,0,0,0,-1,1742,1709,0,0
525,-685,0,0,0,0,0,0,0,0,0,-1,1749,1709,0,0
532,-685,0,0,0,0,0,0,0,0,0,-1,1756,1709,0,0
539,-685,0,0,0,0,0,0,0,0,0,-1,1763,1709,0,0
546,-685,0,0,0,0,0,0,0,0,0,-1,1770,1709,0,0
553,-685,0,0,0,0,0,0,0,0,0,-1,1777,1709,0,0
560,-685,0,0,0,0,0,0,0,0,0,-1,1784,1709,0,0
567,-685,0,0,0,0,0,0,0,0,0,-1,1791,1709,0,0
574,-685,0,0,0,0,0,0,0,0,0,-1,1798,1709,0,0
581,-685,0,0,0,0,0,0,0,0,0,-1,1805,1709,0,0
588,-685,0,0,0,0,0,0,0,0,0,-1,1812,1709,0,0
595,-685,0,0,0,0,0,0,0,0,0,-1,1819,1709,0,0
602,-685,0,0,0,0,0,0,0,0,0,-1,1826,1709,0,0
609,-685,0,0,0,0,0,0,0,0,0,-1,1833,1709,0,0
616,-685,0,0,0,0,0,0,0,0,0,-1,1840,1709,0,0
623,-685,0,0,0,0,0,0,0,0,0,-1,1847,1709,0,0
630,-685,0,0,0,0,0,0,0,0,0,-1,1854,1709,0,0
637,-685,0,0,0,0,0,0,0,0,0,-1,1861,1709,0,0
644,-685,0,0,0,0,0,0,0,0,0,-1,1868,1709,0,0
651,-685,0,0,0,0,0,0,0,0,0,-1,1875,1709,0,0
658,-685,0,0,0,0,0,0,0,0,0,-1,1882,1709,0,0
665,-685,0,0,0,0,0,0,0,0,0,-1,1889,1709,0,0
672,-685,0,0,0,0,0,0,0,0,0,-1,1896,1709,0,0
679,-685,0,0,0,0,0,0,0,0,0,-1,1903,1709,0,0
686,-685,0,0,0,0,0,0,0,0,0,-1,1910,1709,0,0
693,-685,0,0,0,0,0,0,0,0,0,-1,1917,1709,0,0
700,-685,0,0,0,0,0,0,0,0,0,-1,1924,1709,0,0
707,-685,0,0,0,0,0,0,0,0,0,-1,1931,1709,0,0
714,-685,0,0,0,0,0,0,0,0,0,-1,1938,1709,0,0
721,-685,0,0,0,0,0,0,0,0,0,-1,1945,1709,0,0
728,-685,0,0,0,0,0,0,0,0,0,-1,1952,1709,0,0
735,-685,0,0,0,0,0,0,0,0,0,-1,1959,1709,0,0
742,-685,0,0,0,0,0,0,0,0,0,-1,1966,1709,0,0
749,-685,0,0,0,0,0,0,0,0,0,-1,1973,1709,0,0
756,-685,0,0,0,0,0,0,0,0,0,-1,1980,1709,0,0
763,-685,0,0,0,0,0,0,0,0,0,-1,1987,1709,0,0
770,-685,0,0,0,0,0,0,0,0,0,-1,1994,1709,0,0
777,-685,0,0,0,0,0,0,0,0,0,-1,2001,1709,0,0
784,-685,0,0,0,0,0,0,0,0,0,-1,2008,1709,0,0
791,-685,0,0,0,0,0,0,0,0,0,-1,2015,1709,0,0
798,-685,0,0,0,0,0,0,0,0,0,-1,2022,1709,0,0
805,-685,0,0,0,0,0,0,0,0,0,-1,2029,1709,0,0
812,-685,0,0,0,0,0,0,0,0,0,-1,2036,1709,0,0
-700,-692,0,0,0,0,0,0,0,0,0,-1,524,1716,0,0
-693,-692,0,0,0,0,0,0,0,0,0,-1,531,1716,0,0
-686,-692,0,0,0,0,0,0,0,0,0,-1,538,1716,0,0
-679,-692,0,0,0,0,0,0,0,0,0,-1,545,1716,0,0
-672,-692,0,0,0,0,0,0,0,0,0,-1,552,1716,0,0
-665,-692,0,0,0,0,0,0,0,0,0,-1,559,1716,0,0
-658,-692,0,0,0,0,0,0,0,0,0,-1,566,1716,0,0
-651,-692,0,0,0,0,0,0,0,0,0,-1,573,1716,0,0
-644,-692,0,0,0,0,0,0,0,0,0,-1,580,1716,0,0
-637,-692,0,0,0,0,0,0,0,0,0,-1,587,1716,0,0
-630,-692,0,0,0,0,0,0,0,0,0,-1,594,1716,0,0
-623,-692,0,0,0,0,0,0,0,0,0,-1,601,1716,0,0
-616,-692,0,0,0,0,0,0,0,0,0,-1,608,1716,0,0
-609,-692,0,0,0,0,0,0,0,0,0,-1,615,1716,0,0
-602,-692,0,0,0,0,0,0,0,0,0,-1,622,1716,0,0
-595,-692,0,0,0,0,0,0,0,0,0,-1,629,1716,0,0
-588,-692,0,0,0,0,0,0,0,0,0,-1,636,1716,0,0
-581,-692,0,0,0,0,0,0,0,0,0,-1,643,1716,0,0
-574,-692,0,0,0,0,0,0,0,0,0,-1,650,1716,0,0
-567,-692,0,0,0,0,0,0,0,0,0,-1,657,1716,0,0
-560,-692,0,0,0,0,0,0,0,0,0,-1,664,1716,0,0
-553,-692,0,0,0,0,0,0,0,0,0,-1,671,1716,0,0
-546,-692,0,0,0,0,0,0,0,0,0,-1,678,1716,0,0
-539,-692,0,0,0,0,0,0,0,0,0,-1,685,1716,0,0
-532,-692,0,0,0,0,0,0,0,0,0,-1,692,1716,0,0
-525,-692,0,0,0,0,0,0,0,0,0,-1,699,1716,0,0
-518,-692,0,0,0,0,0,0,0,0,0,-1,706,1716,0,0
-511,-692,0,0,0,0,0,0,0,0,0,-1,713,1716,0,0
-504,-692,0,0,0,0,0,0,0,0,0,-1,720,1716,0,0
-497,-692,0,0,0,0,0,0,0,0,0,-1,727,1716,0,0
-490,-692,0,0,0,0,0,0,0,0,0,-1,734,1716,0,0
-483,-692,0,0,0,0,0,0,0,0,0,-1,741,1716,0,0
-476,-692,0,0,0,0,0,0,0,0,0,-1,748,1716,0,0
-469,-692,0,0,0,0,0,0,0,0,0,-1,755,1716,0,0
-462,-692,0,0,0,0,0,0,0,0,0,-1,762,1716,0,0
-455,-692,0,0,0,0,0,0,0,0,0,-1,769,1716,0,0
-448,-692,0,0,0,0,0,0,0,0,0,-1,776,1716,0,0
-441,-692,0,0,0,0,0,0,0,0,0,-1,783,1716,0,0
-434,-692,0,0,0,0,0,0,0,0,0,-1,790,1716,0,0
-427,-692,0,0,0,0,0,0,0,0,0,-1,797,1716,0,0
-420,-692,0,0,0,0,0,0,0,0,0,-1,804,1716,0,0
-413,-692,0,0,0,0,0,0,0,0,0,-1,811,1716,0,0
-406,-692,0,0,0,0,0,0,0,0,0,-1,818,1716,0,0
-399,-692,0,0,0,0,0,0,0,0,0,-1,825,1716,0,0
-392,-692,0,0,0,0,0,0,0,0,0,-1,832,1716,0,0
-385,-692,0,0,0,0,0,0,0,0,0,-1,839,1716,0,0
-378,-692,0,0,0,0,0,0,0,0,0,-1,846,1716,0,0
-371,-692,0,0,0,0,0,0,0,0,0,-1,853,1716,0,0
-364,-692,0,0,0,0,0,0,0,0,0,-1,860,1716,0,0
-357,-692,0,0,0,0,0,0,0,0,0,-1,867,1716,0,0
-350,-692,0,0,0,0,0,0,0,0,0,-1,874,1716,0,0
-343,-692,0,0,0,0,0,0,0,0,0,-1,881,1716,0,0
-336,-692,0,0,0,0,0,0,0,0,0,-1,888,1716,0,0
-329,-692,2.02209,5.89734,0,0,0,0,0,0,0,-1,895,1716,2.02212,-5.89739
-322,-692,1.41656,5.91748,0,0,0,0,0,0,0,-1,902,1716,1.41658,-5.91752
-315,-692,4.66412,3.87244,0.0810307,-0.0468471,-0.0273667,0.0866412,-0.0524576,-0.20221,0.081113,0.0449862,909,1716,4.66411,-3.87245
-308,-692,4.97168,3.76575,0,0,0,0,0,0,0,-1,916,1716,4.97169,-3.7657
-301,-692,0.0303955,7.07117,0,0,0,0,0,0,0,-1,923,1716,0.0303791,-7.07121
-294,-692,0.54425,5.34875,0,0,0,0,0,0,0,-1,930,1716,0.544222,-5.3487
-287,-692,0.619812,4.49316,0,0,0,0,0,0,0,-1,937,1716,0.619813,-4.4931
-280,-692,2.26892,3.31445,0,0,0,0,0,0,0,-1,944,1716,2.26889,-3.31444
-273,-692,2.81738,2.5354,0.0382823,0.00696094,-0.000690073,0.0382975,0.00694574,-0.0220178,0.0235602,0.0411089,951,1716,2.81739,-2.53545
-266,-692,3.47223,4.19678,0.0241934,0.00916506,0.00115514,0.0242817,0.00907679,0.076267,0.0141671,0.0453651,958,1716,3.47222,-4.19672
-259,-692,3.25372,4.24146,0.011184,0.00956932,0.00313524,0.0136142,0.00713916,0.659381,0.00786328,0.0487746,965,1716,3.25371,-4.24148
-252,-692,2.95526,4.21533,0.00624674,0.00895927,0.00182114,0.00987369,0.00533233,1.10546,0.00570667,0.0470125,972,1716,2.95526,-4.21536
-245,-692,2.70575,4.20508,0.00192863,0.00852739,0.000993429,0.00867371,0.00178232,1.42457,0.00528943,0.0447528,979,1716,2.70575,-4.2051
-238,-692,2.41241,4.13037,-0.000552907,0.00748851,0.000343081,0.00750312,-0.000567517,1.52824,0.00520158,0.0411674,986,1716,2.4124,-4.13032
-231,-692,2.40521,4.16602,-0.00216384,0.00645694,2.5778e-05,0.00645701,-0.00216392,1.56781,0.00517893,0.0291498,993,1716,2.4052,-4.16601
-224,-692,2.33752,4.2323,-0.00298723,0.0051537,-7.89896e-05,0.00515446,-0.00298799,-1.56109,0.00475619,0.0149851,1000,1716,2.3375,-4.23233
-217,-692,2.2998,4.26953,-0.00343552,0.00323972,-0.00109512,0.00341479,-0.00361058,-1.41227,0.00405663,0.0116852,1007,1716,2.29981,-4.26952
-210,-692,2.32385,4.32019,-0.00324507,0.00280227,-0.00111511,0.00300134,-0.00344414,-1.39414,0.00372422,0.012777,1014,1716,2.32384,-4.32023
-203,-692,2.34747,4.35254,-0.00278869,0.0023681,-0.00104495,0.0025718,-0.00299239,-1.37828,0.00321554,0.0146593,1021,1716,2.34749,-4.3526
-196,-692,2.33508,4.41675,-0.00214014,0.00220289,-0.00116763,0.0024969,-0.00243415,-1.32412,0.00284702,0.0175301,1028,1716,2.33507,-4.41681
-189,-692,2.29993,4.44153,-0.00140117,0.00184539,-0.00132286,0.00231614,-0.00187193,-1.22891,0.00242251,0.00908997,1035,1716,2.2999,-4.44148
-182,-692,2.30347,4.48755,-0.000793423,0.00149815,-0.00155776,0.00228613,-0.0015814,-1.10249,0.00224524,0.0129105,1042,1716,2.30342,-4.48752
-175,-692,2.29993,4.54565,-0.000446049,0.00132349,-0.00179129,0.0024366,-0.00155916,-1.01479,0.00232542,0.0155817,1049,1716,2.29993,-4.54563
-168,-692,2.32214,4.59338,-0.00034826,0.00148797,-0.00185182,0.00263677,-0.00149707,-1.01554,0.00241672,0.011849,1056,1716,2.32211,-4.59338
-161,-692,2.32605,4.62683,-0.000152867,0.00143059,-0.00187065,0.00267016,-0.00139244,-0.985586,0.0023839,0.0125971,1063,1716,2.32609,-4.62679
-154,-692,2.32117,4.66821,7.43421e-05,0.00143426,-0.00187423,0.00274806,-0.00123946,-0.959411,0.00235647,0.0137613,1070,1716,2.32116,-4.66824
-147,-692,2.29492,4.68994,0.000140328,0.0013923,-0.0017619,0.00263611,-0.00110348,-0.956088,0.00221867,0.0131386,1077,1716,2.29492,-4.68998
-140,-692,2.29431,4.71863,-0.000188461,0.00145521,-0.00172385,0.0025431,-0.00127636,-1.00783,0.00224523,0.00994132,1084,1716,2.29434,-4.71868
-133,-692,2.31543,4.77258,-0.000485571,0.00099593,-0.00147125,0.00190239,-0.00139203,-1.01861,0.00190962,0.00895272,1091,1716,2.31541,-4.7726
-126,-692,2.32825,4.79272,-0.000557556,0.000450696,-0.00122547,0.00127169,-0.00137855,-0.980534,0.00153053,0.00717142,1098,1716,2.32822,-4.79274
-119,-692,2.32373,4.79895,-0.00109295,0.000474323,-0.000772463,0.000791043,-0.00140967,-1.18169,0.00128721,0.0109808,1105,1716,2.32371,-4.79901
-112,-692,2.32275,4.84229,-0.00196942,0.00101598,-0.000401611,0.00106906,-0.0020225,-1.43938,0.00181299,0.0110046,1112,1716,2.32274,-4.84234
-105,-692,2.36084,4.87781,-0.00300335,0.00114509,-0.000386927,0.00118088,-0.00303913,-1.47859,0.00251392,0.0159425,1119,1716,2.36086,-4.87782
-98,-692,2.37207,4.88184,-0.00424398,0.00134314,-0.000270303,0.00135619,-0.00425703,-1.52257,0.00338197,0.0173877,1126,1716,2.37208,-4.88179
-91,-692,2.34265,4.90271,-0.00568567,0.00151236,-0.000303919,0.00152517,-0.00569848,-1.52867,0.00439646,0.0182304,1133,1716,2.34262,-4.90276
-84,-692,2.35022,4.91626,-0.00718243,0.00213784,-0.00039478,0.00215453,-0.00719912,-1.52854,0.00565608,0.0193452,1140,1716,2.35023,-4.91621
-77,-692,2.3418,4.96729,-0.00876477,0.00281102,-0.000578488,0.00283986,-0.00879361,-1.52099,0.00700365,0.0128127,1147,1716,2.34181,-4.96732
-70,-692,2.34216,5.0238,-0.0100856,0.00328864,-0.000841473,0.00334138,-0.0101383,-1.50821,0.0081056,0.0131743,1154,1716,2.34214,-5.02378
-63,-692,2.34766,5.04932,-0.00951111,0.00259507,-0.00197996,0.00291066,-0.0098267,-1.41273,0.0077068,0.0135806,1161,1716,2.34768,-5.04927
-56,-692,2.32178,5.12927,-0.00820263,0.00119267,-0.00318142,0.00216859,-0.00917855,-1.27315,0.00695551,0.0176612,1168,1716,2.32181,-5.12923
-49,-692,2.30603,5.37781,-0.00645718,-0.000376129,-0.00434019,0.00188259,-0.00871591,-1.09095,0.00652924,0.026656,1175,1716,2.30608,-5.37776
-42,-692,2.2915,5.27527,-0.00355472,-0.00176374,-0.00591734,0.00332549,-0.00864395,-0.860495,0.00713433,0.0350788,1182,1716,2.29154,-5.27525
-35,-692,2.35278,5.16541,-0.000299772,-0.00427337,-0.00594713,0.00398365,-0.0085568,-0.624188,0.00739897,0.0352888,1189,1716,2.35283,-5.16546
-28,-692,2.31714,5.12915,0.00244774,-0.0063073,-0.00683069,0.00618323,-0.0100428,-0.500436,0.00945603,0.0269867,1196,1716,2.31708,-5.12917
-21,-692,2.37671,5.11938,0.00529134,-0.00804978,-0.00750146,0.00865913,-0.0114176,-0.42198,0.0116277,0.018103,1203,1716,2.37675,-5.11944
-14,-692,2.38623,5.14502,0.0078205,-0.0109388,-0.00939637,0.0117175,-0.0148358,-0.393145,0.0153657,0.0117987,1210,1716,2.38629,-5.14501
-7,-692,2.37927,5.15662,0.00925717,-0.0136409,-0.0108044,0.0135503,-0.017934,-0.378218,0.0182361,0.0133937,1217,1716,2.37932,-5.15659
0,-692,2.40173,5.18213,0.00859933,-0.0139911,-0.0111897,0.0132035,-0.0185953,-0.390353,0.0184469,0.0168486,1224,1716,2.40179,-5.18212
7,-692,2.40039,5.19275,0.00758263,-0.0144201,-0.0121039,0.0129377,-0.0197752,-0.416539,0.0190238,0.0203586,1231,1716,2.40042,-5.19278
14,-692,2.4386,5.23511,0.00507977,-0.0152574,-0.0138239,0.0120722,-0.0222498,-0.468293,0.0201041,0.0217159,1238,1716,2.43856,-5.23515
21,-692,2.46301,5.23657,0.00188487,-0.0163702,-0.0159094,0.0110991,-0.0255845,-0.524962,0.0217227,0.0232674,1245,1716,2.46296,-5.23662
28,-692,2.39026,5.18115,-0.00147473,-0.0176669,-0.0183629,0.0104976,-0.0296392,-0.57777,0.0240354,0.0228641,1252,1716,2.39027,-5.1812
35,-692,2.39331,5.19751,-0.00502188,-0.0182947,-0.020995,0.0103606,-0.0336772,-0.632319,0.0265866,0.0216214,1259,1716,2.39332,-5.19757
42,-692,2.42725,5.2417,-0.00829499,-0.0188168,-0.0230005,0.0100386,-0.0371504,-0.672967,0.0287044,0.0211304,1266,1716,2.42721,-5.24169
49,-692,2.45227,5.21143,-0.0113319,-0.0184204,-0.025695,0.0110622,-0.0408145,-0.716863,0.0315502,0.0255003,1273,1716,2.45228,-5.21139
56,-692,2.43848,5.19495,-0.013374,-0.0166652,-0.0285789,0.0136066,-0.0436459,-0.75664,0.0345381,0.0293825,1280,1716,2.43853,-5.19489
63,-692,2.47815,5.23108,-0.0149023,-0.0143753,-0.0309135,0.0162759,-0.0455535,-0.789661,0.0370072,0.027303,1287,1716,2.47809,-5.23108
70,-692,2.55127,5.24536,-0.0158634,-0.0116595,-0.0336141,0.0199184,-0.0474412,-0.816623,0.0399575,0.0244682,1294,1716,2.5513,-5.24534
77,-692,2.59741,5.22974,-0.0158525,-0.00815882,-0.035182,0.023386,-0.0473974,-0.839853,0.0416432,0.0285234,1301,1716,2.59736,-5.22977
84,-692,2.54541,5.20337,-0.0149657,-0.00347709,-0.0363107,0.0275409,-0.0459837,-0.863847,0.0428923,0.0347184,1308,1716,2.5454,-5.20334
91,-692,2.48218,5.24561,-0.0140118,0.0015274,-0.0368169,0.0313856,-0.04387,-0.889389,0.0436477,0.0309904,1315,1716,2.48215,-5.24563
98,-692,2.50085,5.25415,-0.0126696,0.00691352,-0.0371294,0.0355208,-0.0412768,-0.91432,0.0443806,0.0253027,1322,1716,2.50084,-5.25413
105,-692,2.50574,5.22437,-0.0107262,0.0116166,-0.0374378,0.0395142,-0.0386238,-0.930392,0.045114,0.030938,1329,1716,2.50575,-5.22432
112,-692,2.46387,5.21814,-0.00917182,0.0161276,-0.0365326,0.0421386,-0.0351828,-0.952067,0.0447017,0.0349964,1336,1716,2.46388,-5.21814
119,-692,2.51709,5.20825,-0.00732987,0.0209291,-0.0350071,0.0445506,-0.0309514,-0.977209,0.0438262,0.0295542,1343,1716,2.51708,-5.20822
126,-692,2.54639,5.19141,-0.00563637,0.0251702,-0.0328622,0.04606,-0.0265261,-1.00456,0.0424104,0.0273712,1350,1716,2.54633,-5.19142
133,-692,2.54651,5.15454,-0.00427381,0.0292771,-0.0289436,0.0459553,-0.0209521,-1.04804,0.0395179,0.0224836,1357,1716,2.5465,-5.15452
140,-692,2.58496,5.17676,-0.00378452,0.0302339,-0.0234104,0.0421619,-0.0157124,-1.09957,0.0345573,0.0277285,1364,1716,2.58498,-5.17678
147,-692,2.61719,5.26062,-0.00479749,0.0290463,-0.0180381,0.0368574,-0.0126087,-1.16214,0.0296811,0.0285386,1371,1716,2.61717,-5.26064
154,-692,2.59912,5.23279,-0.00559931,0.0270969,-0.0106369,0.0302527,-0.00875516,-1.28238,0.0236338,0.0241002,1378,1716,2.5991,-5.23276
161,-692,2.72961,5.20239,-0.00728301,0.0239933,-0.00271563,0.0242273,-0.00751705,-1.48483,0.0191554,0.0312123,1385,1716,2.72961,-5.20235
168,-692,2.73499,5.2511,-0.00946616,0.0209317,0.00390662,0.0214257,-0.00996019,1.445,0.0185193,0.0328316,1392,1716,2.73496,-5.25113
175,-692,2.66492,5.38599,-0.0115,0.0187373,0.00746743,0.0204809,-0.0132436,1.34141,0.0196197,0.0327354,1399,1716,2.66486,-5.38593
182,-692,2.64795,5.24597,-0.0130253,0.0163781,0.0116904,0.0204595,-0.0171067,1.2349,0.0217176,0.0225353,1406,1716,2.64796,-5.24593
189,-692,2.60962,5.12183,-0.014731,0.0130666,0.0146921,0.0193924,-0.0210568,1.16423,0.02336,0.0192187,1413,1716,2.60963,-5.12189
196,-692,2.59143,5.08716,-0.0150974,0.0108966,0.0147076,0.017527,-0.0217278,1.14726,0.022707,0.0129758,1420,1716,2.59137,-5.08717
203,-692,2.59033,5.06042,-0.0145674,0.00885719,0.014183,0.0155388,-0.021249,1.13054,0.0213246,0.0131094,1427,1716,2.59037,-5.06047
210,-692,2.62573,5.04578,-0.0133267,0.00713146,0.0132851,0.0136692,-0.0198645,1.11348,0.0194705,0.0165266,1434,1716,2.62578,-5.04577
217,-692,2.59839,5.01538,-0.0115027,0.00596784,0.0119276,0.0120168,-0.0175517,1.10145,0.0171708,0.0164064,1441,1716,2.59839,-5.01539
224,-692,2.58386,4.99097,-0.00989113,0.00493668,0.0105373,0.0104069,-0.0153613,1.09196,0.0149687,0.0122657,1448,1716,2.58386,-4.99092
231,-692,2.60217,4.96497,-0.00852545,0.00419351,0.00927875,0.00908295,-0.0134149,1.08582,0.0130691,0.0110183,1455,1716,2.60217,-4.96502
238,-692,2.59277,4.8717,-0.00716148,0.00348811,0.0078744,0.00766909,-0.0113425,1.08269,0.0110444,0.0171009,1462,1716,2.59278,-4.87173
245,-692,2.59106,4.84949,-0.00579914,0.00349125,0.00653264,0.00686186,-0.00916975,1.09446,0.00928777,0.0193596,1469,1716,2.59104,-4.84948
252,-692,2.62195,4.84167,-0.00490895,0.00379114,0.00533075,0.00632149,-0.00743929,1.12762,0.00795352,0.0166549,1476,1716,2.62197,-4.84168
259,-692,2.62256,4.8479,-0.00431014,0.00417083,0.00415185,0.00586496,-0.00600426,1.18338,0.00685286,0.00934403,1483,1716,2.62253,-4.84793
266,-692,2.61389,4.82544,-0.0037508,0.0046224,0.00321223,0.00571273,-0.00484113,1.24357,0.0061002,0.00938219,1490,1716,2.61383,-4.82548
273,-692,2.60864,4.80212,-0.00344385,0.00504816,0.0022275,0.00559698,-0.00399266,1.32923,0.00556235,0.0123445,1497,1716,2.60864,-4.80206
280,-692,2.62109,4.76233,-0.0031141,0.00527224,0.0011181,0.00541875,-0.00326061,1.4405,0.00506241,0.0123202,1504,1716,2.62112,-4.76228
287,-692,2.63391,4.73376,-0.00241293,0.00534417,0.000210962,0.00534991,-0.00241866,1.54363,0.00459038,0.0110921,1511,1716,2.63386,-4.73371
294,-692,2.63391,4.70618,-0.00140413,0.00517863,-0.000765687,0.00526652,-0.00149202,-1.45651,0.00409987,0.0102185,1518,1716,2.63389,-4.7062
301,-692,2.63049,4.67297,-0.000513468,0.00533401,-0.00158738,0.00573714,-0.000916592,-1.3221,0.00416405,0.0124188,1525,1716,2.63045,-4.67294
308,-692,2.60461,4.65283,0.000434744,0.00592868,-0.00227745,0.00674999,-0.000386568,-1.22469,0.00463423,0.0166218,1532,1716,2.60459,-4.65285
315,-692,2.62622,4.62,0.00156411,0.00691163,-0.00296132,0.00822766,0.000248077,-1.1526,0.00540431,0.0156643,1539,1716,2.62628,-4.61998
322,-692,2.58411,4.54553,0.00258926,0.00786276,-0.00361218,0.00969818,0.000753835,-1.10067,0.0062294,0.0196119,1546,1716,2.58414,-4.54552
329,-692,2.57678,4.50098,0.00347047,0.00915471,-0.00443402,0.0115793,0.00104589,-1.0704,0.0073956,0.017363,1553,1716,2.57675,-4.50099
336,-692,2.5896,4.45569,0.00431229,0.00946105,-0.00529185,0.0127715,0.00100185,-1.01178,0.0082008,0.012276,1560,1716,2.58961,-4.45564
343,-692,2.60999,4.41101,0.00491439,0.0103062,-0.00587429,0.0140737,0.00114693,-1.00053,0.00902446,0.0126946,1567,1716,2.61004,-4.41097
350,-692,2.63428,4.34814,0.00356589,0.0102127,-0.00745968,0.0150558,-0.00127723,-0.994956,0.0104889,0.0132207,1574,1716,2.63424,-4.34814
357,-692,2.61267,4.3158,0.0019914,0.0137031,-0.00842135,0.0181045,-0.00240994,-1.0892,0.0129479,0.0160397,1581,1716,2.61269,-4.31575
364,-692,2.60205,4.26257,0.00311895,0.0159971,-0.00847619,0.0202026,-0.00108657,-1.11023,0.0138448,0.0218853,1588,1716,2.60201,-4.26258
371,-692,2.68665,4.21179,0.0049994,0.0177578,-0.00807577,0.02167,0.00108724,-1.11968,0.0140982,0.0307466,1595,1716,2.68663,-4.21176
378,-692,2.59521,4.14063,0.0075896,0.0195434,-0.00720037,0.0229244,0.00420869,-1.13181,0.0140911,0.0370626,1602,1716,2.59518,-4.14064
385,-692,2.58313,3.96472,0.0119414,0.0215941,-0.00549505,0.0240814,0.00945412,-1.14575,0.0140099,0.043433,1609,1716,2.58309,-3.9647
392,-692,2.66479,3.79077,0,0,0,0,0,0,0,-1,1616,1716,2.66474,-3.79072
399,-692,3.03308,5.06763,0.0240201,0.0264793,0.000105232,0.0264838,0.0240156,1.52811,0.0168933,0.0487863,1623,1716,3.03314,-5.06766
406,-692,0.766602,1.49866,0.0346745,0.0285196,0.00419345,0.0367985,0.0263955,0.468849,0.0219042,0.0463759,1630,1716,0.766609,-1.49871
413,-692,2.10205,2.46301,0.0479842,0.0301926,0.00916308,0.0518593,0.0263175,0.400099,0.0299421,0.0440839,1637,1716,2.102,-2.46296
420,-692,3.45325,3.79407,0.0641634,0.031442,0.0152203,0.0701484,0.0254569,0.374652,0.0410045,0.0434108,1644,1716,3.45324,-3.79402
427,-692,4.32263,4.93286,0.0803617,0.031897,0.0171214,0.0858,0.0264587,0.307555,0.0507348,0.0461501,1651,1716,4.32259,-4.93291
434,-692,5.03308,6.00989,0.0930085,0.0319127,0.0166345,0.097244,0.0276772,0.249321,0.0578541,0.0458351,1658,1716,5.03304,-6.00983
441,-692,5.75281,7.03467,0,0,0,0,0,0,0,-1,1665,1716,5.75281,-7.03465
448,-692,6.23376,8.17505,0,0,0,0,0,0,0,-1,1672,1716,6.23373,-8.17503
455,-692,0,0,0,0,0,0,0,0,0,-1,1679,1716,0,0
462,-692,0,0,0,0,0,0,0,0,0,-1,1686,1716,0,0
469,-692,0,0,0,0,0,0,0,0,0,-1,1693,1716,0,0
476,-692,0,0,0,0,0,0,0,0,0,-1,1700,1716,0,0
483,-692,0,0,0,0,0,0,0,0,0,-1,1707,1716,0,0
490,-692,0,0,0,0,0,0,0,0,0,-1,1714,1716,0,0
497,-692,0,0,0,0,0,0,0,0,0,-1,1721,1716,0,0
504,-692,0,0,0,0,0,0,0,0,0,-1,1728,1716,0,0
511,-692,0,0,0,0,0,0,0,0,0,-1,1735,1716,0,0
518,-692,0,0,0,0,0,0,0,0,0,-1,1742,1716,0,0
525,-692,0,0,0,0,0,0,0,0,0,-1,1749,1716,0,0
532,-692,0,0,0,0,0,0,0,0,0,-1,1756,1716,0,0
539,-692,0,0,0,0,0,0,0,0,0,-1,1763,1716,0,0
546,-692,0,0,0,0,0,0,0,0,0,-1,1770,1716,0,0
553,-692,0,0,0,0,0,0,0,0,0,-1,1777,1716,0,0
560,-692,0,0,0,0,0,0,0,0,0,-1,1784,1716,0,0
567,-692,0,0,0,0,0,0,0,0,0,-1,1791,1716,0,0
574,-692,0,0,0,0,0,0,0,0,0,-1,1798,1716,0,0
581,-692,0,0,0,0,0,0,0,0,0,-1,1805,1716,0,0
588,-692,0,0,0,0,0,0,0,0,0,-1,1812,1716,0,0
595,-692,0,0,0,0,0,0,0,0,0,-1,1819,1716,0,0
602,-692,0,0,0,0,0,0,0,0,0,-1,1826,1716,0,0
609,-692,0,0,0,0,0,0,0,0,0,-1,1833,1716,0,0
616,-692,0,0,0,0,0,0,0,0,0,-1,1840,1716,0,0
623,-692,0,0,0,0,0,0,0,0,0,-1,1847,1716,0,0
630,-692,0,0,0,0,0,0,0,0,0,-1,1854,1716,0,0
637,-692,0,0,0,0,0,0,0,0,0,-1,1861,1716,0,0
644,-692,0,0,0,0,0,0,0,0,0,-1,1868,1716,0,0
651,-692,0,0,0,0,0,0,0,0,0,-1,1875,1716,0,0
658,-692,0,0,0,0,0,0,0,0,0,-1,1882,1716,0,0
665,-692,0,0,0,0,0,0,0,0,0,-1,1889,1716,0,0
672,-692,0,0,0,0,0,0,0,0,0,-1,1896,1716,0,0
679,-692,0,0,0,0,0,0,0,0,0,-1,1903,1716,0,0
686,-692,0,0,0,0,0,0,0,0,0,-1,1910,1716,0,0
693,-692,0,0,0,0,0,0,0,0,0,-1,1917,1716,0,0
700,-692,0,0,0,0,0,0,0,0,0,-1,1924,1716,0,0
707,-692,0,0,0,0,0,0,0,0,0,-1,1931,1716,0,0
714,-692,0,0,0,0,0,0,0,0,0,-1,1938,1716,0,0
721,-692,0,0,0,0,0,0,0,0,0,-1,1945,1716,0,0
728,-692,0,0,0,0,0,0,0,0,0,-1,1952,1716,0,0
735,-692,0,0,0,0,0,0,0,0,0,-1,1959,1716,0,0
742,-692,0,0,0,0,0,0,0,0,0,-1,1966,1716,0,0
749,-692,0,0,0,0,0,0,0,0,0,-1,1973,1716,0,0
756,-692,0,0,0,0,0,0,0,0,0,-1,1980,1716,0,0
763,-692,0,0,0,0,0,0,0,0,0,-1,1987,1716,0,0
770,-692,0,0,0,0,0,0,0,0,0,-1,1994,1716,0,0
777,-692,0,0,0,0,0,0,0,0,0,-1,2001,1716,0,0
784,-692,0,0,0,0,0,0,0,0,0,-1,2008,1716,0,0
791,-692,0,0,0,0,0,0,0,0,0,-1,2015,1716,0,0
798,-692,0,0,0,0,0,0,0,0,0,-1,2022,1716,0,0
805,-692,0,0,0,0,0,0,0,0,0,-1,2029,1716,0,0
812,-692,0,0,0,0,0,0,0,0,0,-1,2036,1716,0,0
-700,-699,0,0,0,0,0,0,0,0,0,-1,524,1723,0,0
-693,-699,0,0,0,0,0,0,0,0,0,-1,531,1723,0,0
-686,-699,0,0,0,0,0,0,0,0,0,-1,538,1723,0,0
-679,-699,0,0,0,0,0,0,0,0,0,-1,545,1723,0,0
-672,-699,0,0,0,0,0,0,0,0,0,-1,552,1723,0,0
-665,-699,0,0,0,0,0,0,0,0,0,-1,559,1723,0,0
-658,-699,0,0,0,0,0,0,0,0,0,-1,566,1723,0,0
-651,-699,0,0,0,0,0,0,0,0,0,-1,573,1723,0,0
-644,-699,0,0,0,0,0,0,0,0,0,-1,580,1723,0,0
-637,-699,0,0,0,0,0,0,0,0,0,-1,587,1723,0,0
-630,-699,0,0,0,0,0,0,0,0,0,-1,594,1723,0,0
-623,-699,0,0,0,0,0,0,0,0,0,-1,601,1723,0,0
-616,-699,0,0,0,0,0,0,0,0,0,-1,608,1723,0,0
-609,-699,0,0,0,0,0,0,0,0,0,-1,615,1723,0,0
-602,-699,0,0,0,0,0,0,0,0,0,-1,622,1723,0,0
-595,-699,0,0,0,0,0,0,0,0,0,-1,629,1723,0,0
-588,-699,0,0,0,0,0,0,0,0,0,-1,636,1723,0,0
-581,-699,0,0,0,0,0,0,0,0,0,-1,643,1723,0,0
-574,-699,0,0,0,0,0,0,0,0,0,-1,650,1723,0,0
-567,-699,0,0,0,0,0,0,0,0,0,-1,657,1723,0,0
-560,-699,0,0,0,0,0,0,0,0,0,-1,664,1723,0,0
-553,-699,0,0,0,0,0,0,0,0,0,-1,671,1723,0,0
-546,-699,0,0,0,0,0,0,0,0,0,-1,678,1723,0,0
-539,-699,0,0,0,0,0,0,0,0,0,-1,685,1723,0,0
-532,-699,0,0,0,0,0,0,0,0,0,-1,692,1723,0,0
-525,-699,0,0,0,0,0,0,0,0,0,-1,699,1723,0,0
-518,-699,0,0,0,0,0,0,0,0,0,-1,706,1723,0,0
-511,-699,0,0,0,0,0,0,0,0,0,-1,713,1723,0,0
-504,-699,0,0,0,0,0,0,0,0,0,-1,720,1723,0,0
-497,-699,0,0,0,0,0,0,0,0,0,-1,727,1723,0,0
-490,-699,0,0,0,0,0,0,0,0,0,-1,734,1723,0,0
-483,-699,0,0,0,0,0,0,0,0,0,-1,741,1723,0,0
-476,-699,0,0,0,0,0,0,0,0,0,-1,748,1723,0,0
-469,-699,0,0,0,0,0,0,0,0,0,-1,755,1723,0,0
-462,-699,0,0,0,0,0,0,0,0,0,-1,762,1723,0,0
-455,-699,0,0,0,0,0,0,0,0,0,-1,769,1723,0,0
-448,-699,0,0,0,0,0,0,0,0,0,-1,776,1723,0,0
-441,-699,0,0,0,0,0,0,0,0,0,-1,783,1723,0,0
-434,-699,0,0,0,0,0,0,0,0,0,-1,790,1723,0,0
-427,-699,0,0,0,0,0,0,0,0,0,-1,797,1723,0,0
-420,-699,0,0,0,0,0,0,0,0,0,-1,804,1723,0,0
-413,-699,0,0,0,0,0,0,0,0,0,-1,811,1723,0,0
-406,-699,0,0,0,0,0,0,0,0,0,-1,818,1723,0,0
-399,-699,0,0,0,0,0,0,0,0,0,-1,825,1723,0,0
-392,-699,0,0,0,0,0,0,0,0,0,-1,832,1723,0,0
-385,-699,0,0,0,0,0,0,0,0,0,-1,839,1723,0,0
-378,-699,0,0,0,0,0,0,0,0,0,-1,846,1723,0,0
-371,-699,0,0,0,0,0,0,0,0,0,-1,853,1723,0,0
-364,-699,0,0,0,0,0,0,0,0,0,-1,860,1723,0,0
-357,-699,0,0,0,0,0,0,0,0,0,-1,867,1723,0,0
-350,-699,0,0,0,0,0,0,0,0,0,-1,874,1723,0,0
-343,-699,0,0,0,0,0,0,0,0,0,-1,881,1723,0,0
-336,-699,0,0,0,0,0,0,0,0,0,-1,888,1723,0,0
-329,-699,0,0,0,0,0,0,0,0,0,-1,895,1723,0,0
-322,-699,0,0,0,0,0,0,0,0,0,-1,902,1723,0,0
-315,-699,5.20477,3.98254,0,0,0,0,0,0,0,-1,909,1723,5.20479,-3.98249
-308,-699,5.4884,3.85693,0,0,0,0,0,0,0,-1,916,1723,5.48839,-3.85694
-301,-699,3.14899,3.27734,0,0,0,0,0,0,0,-1,923,1723,3.14897,-3.27738
-294,-699,3.2088,3.56445,0,0,0,0,0,0,0,-1,930,1723,3.20878,-3.56449
-287,-699,1.50885,3.35107,0,0,0,0,0,0,0,-1,937,1723,1.50884,-3.35105
-280,-699,4.10864,4.53015,0,0,0,0,0,0,0,-1,944,1723,4.10864,-4.53019
-273,-699,3.6886,4.10742,0,0,0,0,0,0,0,-1,951,1723,3.68859,-4.10736
-266,-699,3.43695,4.04651,0.027244,0.0115446,0.00161232,0.0274079,0.0113807,0.10129,0.0158996,0.0465505,958,1723,3.43696,-4.04654
-259,-699,3.15765,4.21753,0.0125808,0.011972,0.00372884,0.0160176,0.00853514,0.744669,0.00925444,0.0461609,965,1723,3.15768,-4.21751
-252,-699,2.91791,4.26257,0.00670402,0.0112412,0.00216772,0.0121104,0.00583486,1.18947,0.00699348,0.0438739,972,1723,2.91789,-4.26254
-245,-699,2.64215,4.23743,0.00175334,0.0106275,0.00122129,0.0107925,0.00158833,1.4365,0.00672834,0.0489935,979,1723,2.64212,-4.23747
-238,-699,2.46814,4.14111,-0.00108092,0.00948909,0.00043803,0.00950721,-0.00109904,1.52945,0.00673445,0.0487645,986,1723,2.46811,-4.1411
-231,-699,2.37933,4.17395,-0.00302066,0.00811143,-6.25428e-05,0.00811178,-0.00302101,-1.56518,0.00664775,0.0363445,993,1723,2.37934,-4.17397
-224,-699,2.38684,4.22778,-0.0040388,0.00646848,-0.000384777,0.00648255,-0.00405287,-1.53424,0.00613631,0.0322001,1000,1723,2.38683,-4.22777
-217,-699,2.34601,4.25317,-0.00457269,0.00400221,-0.00171541,0.00433264,-0.00490313,-1.3805,0.00533566,0.0227304,1007,1723,2.34598,-4.25312
-210,-699,2.38232,4.30127,-0.00445461,0.00328343,-0.00179232,0.00367841,-0.0048496,-1.35389,0.0049391,0.0162958,1014,1723,2.38232,-4.30131
-203,-699,2.41046,4.33557,-0.00392345,0.00260136,-0.00189544,0.00311201,-0.00443411,-1.30763,0.00437899,0.020088,1021,1723,2.41044,-4.33552
-196,-699,2.3905,4.39185,-0.00313437,0.00220517,-0.00221386,0.00300366,-0.00393286,-1.22464,0.00401676,0.0167689,1028,1723,2.39053,-4.39184
-189,-699,2.35498,4.45349,-0.00215057,0.00168541,-0.00255963,0.00296592,-0.00343108,-1.10693,0.00369656,0.00876478,1035,1723,2.35495,-4.45347
-182,-699,2.34338,4.4917,-0.00137861,0.00138022,-0.00295582,0.00326266,-0.00326104,-1.00372,0.00376646,0.0115232,1042,1723,2.34339,-4.49173
-175,-699,2.3667,4.55347,-0.00100031,0.00144429,-0.00327006,0.00371302,-0.00326904,-0.964251,0.00403381,0.0143288,1049,1723,2.36668,-4.55351
-168,-699,2.39148,4.59595,-0.000842667,0.00189142,-0.0032691,0.0040678,-0.00301904,-0.983435,0.0041065,0.0155168,1056,1723,2.39145,-4.59595
-161,-699,2.3877,4.61584,-0.000541914,0.0021715,-0.00310899,0.00420692,-0.00257733,-0.991134,0.00395437,0.0127189,1063,1723,2.38774,-4.61584
-154,-699,2.35339,4.67175,-0.000270168,0.00248539,-0.00296851,0.00438028,-0.00216505,-1.00267,0.00385041,0.0127479,1070,1723,2.35336,-4.6717
-147,-699,2.32373,4.69446,-0.00017949,0.00274659,-0.00266703,0.00432551,-0.00175841,-1.03627,0.00361528,0.0146963,1077,1723,2.32374,-4.69444
-140,-699,2.3208,4.71338,-0.00058157,0.00311309,-0.00236245,0.00426473,-0.00173321,-1.11722,0.00356424,0.00966665,1084,1723,2.32085,-4.71342
-133,-699,2.35571,4.771,-0.000981099,0.00282073,-0.00174508,0.00350028,-0.00166065,-1.19945,0.00304211,0.00837808,1091,1723,2.35575,-4.77103
-126,-699,2.37781,4.78613,-0.0010222,0.00244273,-0.00119975,0.00281759,-0.00139706,-1.26796,0.00247898,0.0103335,1098,1723,2.37787,-4.78612
-119,-699,2.38879,4.81421,-0.00134203,0.00206563,-0.000621549,0.00217546,-0.00145186,-1.3959,0.00210808,0.0156451,1105,1723,2.38881,-4.81422
-112,-699,2.37097,4.85498,-0.00188217,0.00179662,-0.000246113,0.00181301,-0.00189856,-1.50429,0.00214307,0.0112235,1112,1723,2.37101,-4.855
-105,-699,2.38037,4.88013,-0.00257647,0.00124122,-0.000165964,0.00124842,-0.00258367,-1.52743,0.00225678,0.01155,1119,1723,2.38042,-4.88014
-98,-699,2.38953,4.89795,-0.00326884,0.000791544,-4.47935e-05,0.000792038,-0.00326933,-1.55977,0.00248599,0.0139095,1126,1723,2.38954,-4.89801
-91,-699,2.39978,4.89856,-0.00401223,0.000410865,-0.000181451,0.000418296,-0.00401966,-1.52986,0.00282953,0.0188119,1133,1723,2.39984,-4.89858
-84,-699,2.38965,4.9126,-0.0047248,0.000328345,-0.000454056,0.000368821,-0.00476527,-1.48189,0.00330665,0.0220555,1140,1723,2.38963,-4.91262
-77,-699,2.37537,4.95166,-0.00543308,0.000425645,-0.000848013,0.000545921,-0.00555335,-1.4299,0.00389698,0.0156481,1147,1723,2.37542,-4.95171
-70,-699,2.3584,5.02661,-0.00595229,0.000642167,-0.00130817,0.000892196,-0.00620232,-1.38195,0.00446211,0.0165361,1154,1723,2.35844,-5.02666
-63,-699,2.36389,5.06848,-0.00581944,0.000413351,-0.00210238,0.0010562,-0.00646229,-1.27405,0.00469999,0.0133774,1161,1723,2.36387,-5.06843
-56,-699,2.36255,5.0542,-0.00529079,-0.000137531,-0.00279842,0.00108981,-0.00651813,-1.15748,0.00475054,0.00966527,1168,1723,2.36258,-5.05417
-49,-699,2.38708,5.08765,-0.00450967,-0.000710085,-0.00327408,0.00117547,-0.00639522,-1.04828,0.00470451,0.0189194,1175,1723,2.38709,-5.08763
-42,-699,2.38477,5.12195,-0.00284975,-0.00128745,-0.00410908,0.00211407,-0.00625128,-0.879329,0.00502277,0.0197597,1182,1723,2.38475,-5.12196
-35,-699,2.37085,5.14551,-0.0009879,-0.00255727,-0.00366718,0.00197761,-0.00552278,-0.68,0.0044887,0.0195461,1189,1723,2.37081,-5.14555
-28,-699,2.39294,5.14148,0.000519322,-0.00352048,-0.00389069,0.0028832,-0.00588435,-0.545969,0.00515985,0.0143408,1196,1723,2.39299,-5.14143
-21,-699,2.41162,5.14844,0.00214771,-0.00444693,-0.00399782,0.00403256,-0.00633178,-0.440564,0.00603273,0.00971752,1203,1723,2.41162,-5.14845
-14,-699,2.41028,5.15759,0.00357711,-0.00624849,-0.00468019,0.00544958,-0.00812095,-0.380577,0.00788539,0.00970944,1210,1723,2.41031,-5.15755
-7,-699,2.40027,5.16345,0.00437368,-0.00825345,-0.00512521,0.00619208,-0.0100718,-0.340941,0.00947862,0.00840047,1217,1723,2.40024,-5.1635
0,-699,2.41296,5.18127,0.00390921,-0.0088206,-0.00525547,0.00579851,-0.0107099,-0.345107,0.00967072,0.0104022,1224,1723,2.41302,-5.18125
7,-699,2.42896,5.20032,0.00314294,-0.00961725,-0.00571709,0.00532969,-0.011804,-0.365323,0.0101248,0.0157722,1231,1723,2.42898,-5.20036
14,-699,2.44116,5.22729,0.00155931,-0.0106167,-0.0068847,0.00466168,-0.013719,-0.423368,0.0110332,0.0165839,1238,1723,2.44116,-5.22727
21,-699,2.448,5.23987,-0.000325694,-0.0117585,-0.00844537,0.00415603,-0.0162402,-0.487883,0.0124456,0.0161172,1245,1723,2.44797,-5.23988
28,-699,2.43298,5.22168,-0.00230823,-0.013084,-0.0103405,0.00396384,-0.0193561,-0.545226,0.0144082,0.0148899,1252,1723,2.43303,-5.22169
35,-699,2.44592,5.229,-0.00443635,-0.0139518,-0.0123435,0.00403464,-0.0224228,-0.601451,0.0164591,0.0123877,1259,1723,2.44595,-5.22899
42,-699,2.46399,5.24951,-0.00626957,-0.0145411,-0.0139084,0.00410493,-0.0249156,-0.640883,0.0181342,0.0116737,1266,1723,2.46404,-5.24952
49,-699,2.47266,5.25293,-0.00796696,-0.0146195,-0.0159856,0.0050348,-0.0276213,-0.682823,0.0203016,0.0143632,1273,1723,2.47263,-5.25296
56,-699,2.47876,5.25598,-0.0089954,-0.0137365,-0.018291,0.00707802,-0.0298099,-0.720957,0.022605,0.0152797,1280,1723,2.47876,-5.256
63,-699,2.49451,5.25037,-0.00978901,-0.0122693,-0.0201354,0.00914436,-0.0312027,-0.754642,0.0244273,0.0131686,1287,1723,2.4945,-5.25037
70,-699,2.49536,5.24341,-0.0100774,-0.0105481,-0.0221749,0.0118634,-0.0324889,-0.780092,0.0265137,0.0111116,1294,1723,2.49538,-5.24339
77,-699,2.48779,5.22241,-0.00973018,-0.008194,-0.0232889,0.0143394,-0.0322636,-0.801883,0.0275617,0.0112299,1301,1723,2.48775,-5.22239
84,-699,2.48254,5.20068,-0.00889012,-0.00479746,-0.0240709,0.0173139,-0.0310015,-0.827803,0.0282656,0.0140792,1308,1723,2.48256,-5.20071
91,-699,2.47217,5.22168,-0.00789713,-0.00100625,-0.0243053,0.0200966,-0.029,-0.855807,0.0285009,0.0127337,1315,1723,2.47213,-5.22174
98,-699,2.48962,5.24426,-0.00667128,0.0030744,-0.0243145,0.0229995,-0.0265964,-0.884292,0.0286593,0.0106011,1322,1723,2.48961,-5.24429
105,-699,2.49207,5.24695,-0.00506933,0.00641954,-0.0242239,0.0255709,-0.0242206,-0.901817,0.0287507,0.0139769,1329,1723,2.49211,-5.24699
112,-699,2.47314,5.24768,-0.00398002,0.0096719,-0.0232037,0.0270328,-0.0213409,-0.928451,0.0279929,0.0199361,1336,1723,2.47313,-5.24765
119,-699,2.48132,5.23218,-0.00267171,0.0131195,-0.0215759,0.0281991,-0.0177514,-0.960802,0.0267571,0.0155647,1343,1723,2.48135,-5.23219
126,-699,2.50146,5.22253,-0.00155724,0.016219,-0.0195713,0.0288258,-0.0141641,-0.998544,0.0252968,0.0162768,1350,1723,2.5015,-5.2226
133,-699,2.52502,5.22021,-0.000819444,0.0192469,-0.0164391,0.0284727,-0.0100453,-1.05939,0.0230711,0.0141534,1357,1723,2.52499,-5.22027
140,-699,2.57629,5.20715,-0.000861483,0.0200145,-0.0126546,0.0259805,-0.0068275,-1.13025,0.0199887,0.0162972,1364,1723,2.57624,-5.20713
147,-699,2.55872,5.19385,-0.00186821,0.0194508,-0.00917055,0.0228527,-0.00527014,-1.21557,0.0172622,0.0137754,1371,1723,2.55869,-5.19382
154,-699,2.52942,5.18372,-0.0029049,0.0184013,-0.00456375,0.0193377,-0.00384129,-1.36842,0.0143447,0.0127135,1378,1723,2.52941,-5.18371
161,-699,2.56018,5.17139,-0.0044699,0.0167483,0.000163154,0.0167495,-0.00447115,1.56311,0.0129173,0.00932673,1385,1723,2.56024,-5.17144
168,-699,2.55066,5.16064,-0.00605788,0.0150715,0.00410023,0.0158393,-0.00682564,1.38569,0.0134261,0.0102935,1392,1723,2.5507,-5.16063
175,-699,2.54944,5.14331,-0.00754075,0.0137161,0.00618352,0.015384,-0.00920864,1.30733,0.014347,0.0116671,1399,1723,2.54944,-5.14326
182,-699,2.56946,5.11145,-0.00865829,0.0121324,0.00847424,0.0151489,-0.0116747,1.22883,0.0155298,0.0123638,1406,1723,2.56949,-5.11143
189,-699,2.56042,5.10046,-0.00982418,0.00997763,0.00994733,0.0141116,-0.0139581,1.17693,0.0162061,0.0150447,1413,1723,2.56046,-5.10048
196,-699,2.55481,5.07642,-0.0102618,0.00834415,0.00981489,0.0125644,-0.014482,1.16471,0.0156283,0.0155526,1420,1723,2.55485,-5.07648
203,-699,2.5686,5.04468,-0.0100532,0.00679025,0.00932341,0.0109324,-0.0141954,1.15271,0.0145483,0.0127848,1427,1723,2.56857,-5.04462
210,-699,2.57666,5.02295,-0.00935748,0.00546036,0.00862997,0.00942546,-0.0133226,1.14011,0.0131977,0.012881,1434,1723,2.57665,-5.02293
217,-699,2.57629,5.02881,-0.00824163,0.00453664,0.00768047,0.00813803,-0.011843,1.13233,0.011602,0.0139539,1441,1723,2.57629,-5.02878
224,-699,2.58801,4.99133,-0.00712029,0.00375918,0.00669675,0.00694714,-0.0103082,1.12649,0.0100252,0.0153541,1448,1723,2.58802,-4.99132
231,-699,2.59998,4.96375,-0.00604483,0.00320419,0.00570299,0.00592204,-0.00876268,1.12607,0.00853094,0.0112955,1455,1723,2.60001,-4.96371
238,-699,2.57898,4.91992,-0.00488564,0.0027106,0.00454146,0.00483283,-0.00700787,1.13365,0.00687457,0.010215,1462,1723,2.57892,-4.91992
245,-699,2.57556,4.88684,-0.00367177,0.00288484,0.0034623,0.00437464,-0.00516157,1.16445,0.00551198,0.0120168,1469,1723,2.57557,-4.88683
252,-699,2.5791,4.86975,-0.0028247,0.00336775,0.00244861,0.00421897,-0.00367591,1.23623,0.00456171,0.0105487,1476,1723,2.57915,-4.86976
259,-699,2.59949,4.8562,-0.00223158,0.00398004,0.0013589,0.00426431,-0.00251585,1.36458,0.00395768,0.01131,1483,1723,2.59947,-4.85618
266,-699,2.59119,4.81738,-0.00174092,0.00465139,0.00039425,0.00467562,-0.00176514,1.50943,0.00384304,0.0125197,1490,1723,2.59121,-4.81734
273,-699,2.58215,4.79272,-0.00147113,0.0053023,-0.000568675,0.00534971,-0.00151854,-1.48762,0.00416596,0.0105428,1497,1723,2.58215,-4.7927
280,-699,2.59851,4.76318,-0.00124511,0.00567379,-0.00159352,0.00602316,-0.00159447,-1.35497,0.00463918,0.0113133,1504,1723,2.59856,-4.76322
287,-699,2.58704,4.72034,-0.000580936,0.00590375,-0.00237906,0.00668294,-0.00136013,-1.25429,0.00497109,0.0105513,1511,1723,2.5871,-4.72029
294,-699,2.58264,4.68628,0.000454384,0.00590824,-0.00336375,0.00751155,-0.00114893,-1.12601,0.00543134,0.0103718,1518,1723,2.5826,-4.68624
301,-699,2.58972,4.67114,0.00129251,0.00628686,-0.00413483,0.00862008,-0.00104071,-1.05705,0.00612317,0.0113556,1525,1723,2.5897,-4.6712
308,-699,2.58655,4.65747,0.00224189,0.00725054,-0.00474047,0.0101075,-0.000615099,-1.02841,0.00695246,0.0172898,1532,1723,2.58656,-4.65745
315,-699,2.59644,4.61133,0.00346613,0.00869006,-0.00536744,0.0120473,0.000108857,-1.01185,0.00799552,0.0201906,1539,1723,2.59647,-4.61134
322,-699,2.57776,4.54773,0.00457735,0.0100439,-0.00583061,0.0137501,0.00087117,-1.00458,0.0088906,0.0196845,1546,1723,2.57779,-4.5477
329,-699,2.55908,4.49683,0.00553131,0.0118318,-0.00662901,0.016021,0.00134209,-1.00721,0.0102626,0.0147127,1553,1723,2.55902,-4.49685
336,-699,2.54346,4.46155,0.00647969,0.0124014,-0.00751253,0.0175155,0.00136561,-0.973113,0.0112495,0.0124688,1560,1723,2.54342,-4.46159
343,-699,2.53625,4.41931,0.00717293,0.0137075,-0.0080708,0.0191473,0.00173315,-0.977728,0.0122281,0.0161296,1567,1723,2.53628,-4.41936
350,-699,2.54553,4.354,0.00540892,0.0139609,-0.00974457,0.0203263,-0.000956556,-0.992151,0.0138807,0.0261632,1574,1723,2.54556,-4.35401
357,-699,2.51477,4.31372,0.00314145,0.0179177,-0.0107827,0.0236006,-0.00254145,-1.08575,0.0166457,0.0357668,1581,1723,2.51473,-4.31374
364,-699,2.55884,4.18823,0.0040088,0.0204672,-0.0107643,0.0257875,-0.00131152,-1.11175,0.0176451,0.0401848,1588,1723,2.55881,-4.18826
371,-699,3.01257,4.03027,0.00566512,0.0224019,-0.0101701,0.027204,0.000863025,-1.12966,0.0178553,0.0443041,1595,1723,3.01257,-4.03023
378,-699,3.09509,3.89478,0.0080979,0.0242235,-0.0089535,0.0282095,0.00411188,-1.15195,0.0175966,0.0479562,1602,1723,3.09505,-3.8948
385,-699,2.8772,3.74695,0.0126452,0.0262637,-0.00671125,0.0290152,0.00989374,-1.18172,0.017032,0.0483498,1609,1723,2.87714,-3.74698
392,-699,3.41797,5.43555,0.0175136,0.0286872,-0.00399568,0.0299691,0.0162318,-1.26037,0.0173226,0.0494447,1616,1723,3.41791,-5.43554
399,-699,3.04163,5.40771,0.0253251,0.0310688,0.000502532,0.0311125,0.0252815,1.48418,0.0190971,0.0456174,1623,1723,3.04159,-5.40774
406,-699,0.874756,1.12964,0,0,0,0,0,0,0,-1,1630,1723,0.874806,-1.1296
413,-699,2.25476,2.21094,0.0538809,0.0342068,0.0119898,0.0595527,0.028535,0.441855,0.0343927,0.0445235,1637,1723,2.25481,-2.21098
420,-699,3.94666,3.66968,0.0741556,0.0352727,0.019805,0.0824668,0.0269615,0.397331,0.0485536,0.0434552,1644,1723,3.94669,-3.66971
427,-699,4.80469,4.85815,0.0946737,0.0354269,0.0231365,0.102638,0.0274625,0.331531,0.0613554,0.0476445,1651,1723,4.8047,-4.85813
434,-699,5.56104,6.05798,0.110241,0.0346249,0.0235983,0.117001,0.0278646,0.278999,0.0705706,0.0459253,1658,1723,5.56099,-6.05795
441,-699,0,0,0,0,0,0,0,0,0,-1,1665,1723,0,0
448,-699,0,0,0,0,0,0,0,0,0,-1,1672,1723,0,0
455,-699,0,0,0,0,0,0,0,0,0,-1,1679,1723,0,0
462,-699,0,0,0,0,0,0,0,0,0,-1,1686,1723,0,0
469,-699,0,0,0,0,0,0,0,0,0,-1,1693,1723,0,0
476,-699,0,0,0,0,0,0,0,0,0,-1,1700,1723,0,0
483,-699,0,0,0,0,0,0,0,0,0,-1,1707,1723,0,0
490,-699,0,0,0,0,0,0,0,0,0,-1,1714,1723,0,0
497,-699,0,0,0,0,0,0,0,0,0,-1,1721,1723,0,0
504,-699,0,0,0,0,0,0,0,0,0,-1,1728,1723,0,0
511,-699,0,0,0,0,0,0,0,0,0,-1,1735,1723,0,0
518,-699,0,0,0,0,0,0,0,0,0,-1,1742,1723,0,0
525,-699,0,0,0,0,0,0,0,0,0,-1,1749,1723,0,0
532,-699,0,0,0,0,0,0,0,0,0,-1,1756,1723,0,0
539,-699,0,0,0,0,0,0,0,0,0,-1,1763,1723,0,0
546,-699,0,0,0,0,0,0,0,0,0,-1,1770,1723,0,0
553,-699,0,0,0,0,0,0,0,0,0,-1,1777,1723,0,0
560,-699,0,0,0,0,0,0,0,0,0,-1,1784,1723,0,0
567,-699,0,0,0,0,0,0,0,0,0,-1,1791,1723,0,0
574,-699,0,0,0,0,0,0,0,0,0,-1,1798,1723,0,0
581,-699,0,0,0,0,0,0,0,0,0,-1,1805,1723,0,0
588,-699,0,0,0,0,0,0,0,0,0,-1,1812,1723,0,0
595,-699,0,0,0,0,0,0,0,0,0,-1,1819,1723,0,0
602,-699,0,0,0,0,0,0,0,0,0,-1,1826,1723,0,0
609,-699,0,0,0,0,0,0,0,0,0,-1,1833,1723,0,0
616,-699,0,0,0,0,0,0,0,0,0,-1,1840,1723,0,0
623,-699,0,0,0,0,0,0,0,0,0,-1,1847,1723,0,0
630,-699,0,0,0,0,0,0,0,0,0,-1,1854,1723,0,0
637,-699,0,0,0,0,0,0,0,0,0,-1,1861,1723,0,0
644,-699,0,0,0,0,0,0,0,0,0,-1,1868,1723,0,0
651,-699,0,0,0,0,0,0,0,0,0,-1,1875,1723,0,0
658,-699,0,0,0,0,0,0,0,0,0,-1,1882,1723,0,0
665,-699,0,0,0,0,0,0,0,0,0,-1,1889,1723,0,0
672,-699,0,0,0,0,0,0,0,0,0,-1,1896,1723,0,0
679,-699,0,0,0,0,0,0,0,0,0,-1,1903,1723,0,0
686,-699,0,0,0,0,0,0,0,0,0,-1,1910,1723,0,0
693,-699,0,0,0,0,0,0,0,0,0,-1,1917,1723,0,0
700,-699,0,0,0,0,0,0,0,0,0,-1,1924,1723,0,0
707,-699,0,0,0,0,0,0,0,0,0,-1,1931,1723,0,0
714,-699,0,0,0,0,0,0,0,0,0,-1,1938,1723,0,0
721,-699,0,0,0,0,0,0,0,0,0,-1,1945,1723,0,0
728,-699,0,0,0,0,0,0,0,0,0,-1,1952,1723,0,0
735,-699,0,0,0,0,0,0,0,0,0,-1,1959,1723,0,0
742,-699,0,0,0,0,0,0,0,0,0,-1,1966,1723,0,0
749,-699,0,0,0,0,0,0,0,0,0,-1,1973,1723,0,0
756,-699,0,0,0,0,0,0,0,0,0,-1,1980,1723,0,0
763,-699,0,0,0,0,0,0,0,0,0,-1,1987,1723,0,0
770,-699,0,0,0,0,0,0,0,0,0,-1,1994,1723,0,0
777,-699,0,0,0,0,0,0,0,0,0,-1,2001,1723,0,0
784,-699,0,0,0,0,0,0,0,0,0,-1,2008,1723,0,0
791,-699,0,0,0,0,0,0,0,0,0,-1,2015,1723,0,0
798,-699,0,0,0,0,0,0,0,0,0,-1,2022,1723,0,0
805,-699,0,0,0,0,0,0,0,0,0,-1,2029,1723,0,0
812,-699,0,0,0,0,0,0,0,0,0,-1,2036,1723,0,0
-700,-706,0,0,0,0,0,0,0,0,0,-1,524,1730,0,0
-693,-706,0,0,0,0,0,0,0,0,0,-1,531,1730,0,0
-686,-706,0,0,0,0,0,0,0,0,0,-1,538,1730,0,0
-679,-706,0,0,0,0,0,0,0,0,0,-1,545,1730,0,0
-672,-706,0,0,0,0,0,0,0,0,0,-1,552,1730,0,0
-665,-706,0,0,0,0,0,0,0,0,0,-1,559,1730,0,0
-658,-706,0,0,0,0,0,0,0,0,0,-1,566,1730,0,0
-651,-706,0,0,0,0,0,0,0,0,0,-1,573,1730,0,0
-644,-706,0,0,0,0,0,0,0,0,0,-1,580,1730,0,0
-637,-706,0,0,0,0,0,0,0,0,0,-1,587,1730,0,0
-630,-706,0,0,0,0,0,0,0,0,0,-1,594,1730,0,0
-623,-706,0,0,0,0,0,0,0,0,0,-1,601,1730,0,0
-616,-706,0,0,0,0,0,0,0,0,0,-1,608,1730,0,0
-609,-706,0,0,0,0,0,0,0,0,0,-1,615,1730,0,0
-602,-706,0,0,0,0,0,0,0,0,0,-1,622,1730,0,0
-595,-706,0,0,0,0,0,0,0,0,0,-1,629,1730,0,0
-588,-706,0,0,0,0,0,0,0,0,0,-1,636,1730,0,0
-581,-706,0,0,0,0,0,0,0,0,0,-1,643,1730,0,0
-574,-706,0,0,0,0,0,0,0,0,0,-1,650,1730,0,0
-567,-706,0,0,0,0,0,0,0,0,0,-1,657,1730,0,0
-560,-706,0,0,0,0,0,0,0,0,0,-1,664,1730,0,0
-553,-706,0,0,0,0,0,0,0,0,0,-1,671,1730,0,0
-546,-706,0,0,0,0,0,0,0,0,0,-1,678,1730,0,0
-539,-706,0,0,0,0,0,0,0,0,0,-1,685,1730,0,0
-532,-706,0,0,0,0,0,0,0,0,0,-1,692,1730,0,0
-525,-706,0,0,0,0,0,0,0,0,0,-1,699,1730,0,0
-518,-706,0,0,0,0,0,0,0,0,0,-1,706,1730,0,0
-511,-706,0,0,0,0,0,0,0,0,0,-1,713,1730,0,0
-504,-706,0,0,0,0,0,0,0,0,0,-1,720,1730,0,0
-497,-706,0,0,0,0,0,0,0,0,0,-1,727,1730,0,0
-490,-706,0,0,0,0,0,0,0,0,0,-1,734,1730,0,0
-483,-706,0,0,0,0,0,0,0,0,0,-1,741,1730,0,0
-476,-706,0,0,0,0,0,0,0,0,0,-1,748,1730,0,0
-469,-706,0,0,0,0,0,0,0,0,0,-1,755,1730,0,0
-462,-706,0,0,0,0,0,0,0,0,0,-1,762,1730,0,0
-455,-706,0,0,0,0,0,0,0,0,0,-1,769,1730,0,0
-448,-706,0,0,0,0,0,0,0,0,0,-1,776,1730,0,0
-441,-706,0,0,0,0,0,0,0,0,0,-1,783,1730,0,0
-434,-706,0,0,0,0,0,0,0,0,0,-1,790,1730,0,0
-427,-706,0,0,0,0,0,0,0,0,0,-1,797,1730,0,0
-420,-706,0,0,0,0,0,0,0,0,0,-1,804,1730,0,0
-413,-706,0,0,0,0,0,0,0,0,0,-1,811,1730,0,0
-406,-706,0,0,0,0,0,0,0,0,0,-1,818,1730,0,0
-399,-706,0,0,0,0,0,0,0,0,0,-1,825,1730,0,0
-392,-706,0,0,0,0,0,0,0,0,0,-1,832,1730,0,0
-385,-706,0,0,0,0,0,0,0,0,0,-1,839,1730,0,0
-378,-706,0,0,0,0,0,0,0,0,0,-1,846,1730,0,0
-371,-706,0,0,0,0,0,0,0,0,0,-1,853,1730,0,0
-364,-706,0,0,0,0,0,0,0,0,0,-1,860,1730,0,0
-357,-706,0,0,0,0,0,0,0,0,0,-1,867,1730,0,0
-350,-706,0,0,0,0,0,0,0,0,0,-1,874,1730,0,0
-343,-706,0,0,0,0,0,0,0,0,0,-1,881,1730,0,0
-336,-706,0,0,0,0,0,0,0,0,0,-1,888,1730,0,0
-329,-706,0,0,0,0,0,0,0,0,0,-1,895,1730,0,0
-322,-706,0,0,0,0,0,0,0,0,0,-1,902,1730,0,0
-315,-706,0,0,0,0,0,0,0,0,0,-1,909,1730,0,0
-308,-706,-3.04688,1.43835,0,0,0,0,0,0,0,-1,916,1730,-3.04685,-1.43838
-301,-706,4.00732,3.38306,0,0,0,0,0,0,0,-1,923,1730,4.00731,-3.38301
-294,-706,1.61365,5.02002,0,0,0,0,0,0,0,-1,930,1730,1.61365,-5.01997
-287,-706,3.927,4.12769,0,0,0,0,0,0,0,-1,937,1730,3.927,-4.12768
-280,-706,3.69183,4.02673,0,0,0,0,0,0,0,-1,944,1730,3.69182,-4.02673
-273,-706,3.58887,3.87036,0.0482704,0.0104307,-0.000723819,0.0482843,0.0104169,-0.0191192,0.0293402,0.0434688,951,1730,3.58889,-3.87037
-266,-706,3.41364,3.68677,0.0302423,0.0132641,0.00174597,0.03042,0.0130864,0.101422,0.01762,0.0448952,958,1730,3.41363,-3.68679
-259,-706,3.2583,3.60278,0.0142131,0.0138817,0.00393524,0.0179861,0.0101087,0.764357,0.0104109,0.0461853,965,1730,3.25829,-3.60276
-252,-706,2.73334,4.15869,0.00732784,0.0132546,0.00220724,0.0139863,0.00659614,1.2507,0.0080793,0.0492656,972,1730,2.73333,-4.15869
-245,-706,2.565,4.27576,0.00169244,0.0126175,0.00121253,0.0127505,0.00155948,1.46158,0.00803114,0.047103,979,1730,2.56502,-4.2757
-238,-706,2.43842,4.12402,-0.00157574,0.0115701,0.000361742,0.0115801,-0.00158569,1.54331,0.00829926,0.0474177,986,1730,2.43844,-4.12404
-231,-706,2.3042,4.03931,0,0,0,0,0,0,0,-1,993,1730,2.30419,-4.03926
-224,-706,2.37927,4.39783,-0.00526411,0.0080298,-0.000813137,0.00807935,-0.00531366,-1.50993,0.00778723,0.0415674,1000,1730,2.37925,-4.39782
-217,-706,2.46606,4.2594,-0.0059307,0.00492699,-0.0025066,0.00547772,-0.00648144,-1.35452,0.00691273,0.0375189,1007,1730,2.46606,-4.25943
-210,-706,2.47308,4.28162,-0.00596177,0.00383239,-0.00272512,0.00453956,-0.00666894,-1.31689,0.00651004,0.0347012,1014,1730,2.47307,-4.28159
-203,-706,2.37219,4.36304,-0.00538928,0.0027595,-0.00316939,0.00384705,-0.00647684,-1.24024,0.00602461,0.0296063,1021,1730,2.37217,-4.36304
-196,-706,2.3855,4.38965,-0.00445554,0.00199719,-0.00379584,0.00375258,-0.00621093,-1.13764,0.0058105,0.0215614,1028,1730,2.38555,-4.38967
-189,-706,2.40796,4.44141,-0.00320877,0.00115608,-0.00442936,0.00391149,-0.00596418,-1.0143,0.00574263,0.0156646,1035,1730,2.40793,-4.44144
-182,-706,2.38196,4.50366,-0.00236586,0.000875076,-0.0050448,0.00455328,-0.00604406,-0.940801,0.00613853,0.0119721,1042,1730,2.3819,-4.50365
-175,-706,2.40259,4.55432,-0.00204401,0.0011632,-0.00546265,0.00525276,-0.00613356,-0.928166,0.00658045,0.014639,1049,1730,2.40254,-4.55435
-168,-706,2.4325,4.57129,-0.00199515,0.0019297,-0.00542673,0.00573793,-0.00580338,-0.958893,0.00666342,0.0162189,1056,1730,2.43251,-4.57129
-161,-706,2.42468,4.59253,-0.00160376,0.00282467,-0.00493753,0.00602173,-0.00480082,-0.996179,0.00626165,0.01348,1063,1730,2.42471,-4.5925
-154,-706,2.40857,4.6853,-0.0012134,0.00357434,-0.00453294,0.0063067,-0.00394575,-1.02834,0.00597134,0.0130207,1070,1730,2.40856,-4.68526
-147,-706,2.38342,4.70923,-0.00111809,0.00431317,-0.00392906,0.00637375,-0.00317867,-1.08778,0.00561699,0.0123785,1077,1730,2.38337,-4.7092
-140,-706,2.3927,4.7218,-0.00152326,0.00521197,-0.00321187,0.00649806,-0.00280935,-1.18993,0.00551251,0.0112781,1084,1730,2.39276,-4.72186
-133,-706,2.41345,4.75171,-0.00193173,0.00530215,-0.00209834,0.00586675,-0.00249633,-1.30795,0.00495741,0.00901212,1091,1730,2.41341,-4.75169
-126,-706,2.40137,4.76025,-0.00182157,0.00527753,-0.00110744,0.00544628,-0.00199032,-1.41958,0.00444538,0.0131284,1098,1730,2.40134,-4.76026
-119,-706,2.41077,4.79224,-0.00185462,0.00482292,-0.000203678,0.00482913,-0.00186083,-1.54033,0.00398717,0.0166563,1105,1730,2.41077,-4.79218
-112,-706,2.42456,4.88379,-0.00201527,0.00416856,0.000420001,0.00419695,-0.00204366,1.50329,0.00367382,0.0118792,1112,1730,2.42462,-4.8838
-105,-706,2.39758,4.90918,-0.00233759,0.00320162,0.000734461,0.00329735,-0.00243332,1.44119,0.00332112,0.00885329,1119,1730,2.39764,-4.90913
-98,-706,2.42578,4.92285,-0.00255919,0.00221323,0.00099037,0.00241059,-0.00275655,1.37409,0.00298548,0.0102982,1126,1730,2.4258,-4.92283
-91,-706,2.43518,4.92493,-0.00276773,0.00126871,0.000819777,0.00142884,-0.00292787,1.37788,0.0025645,0.0141843,1133,1730,2.43516,-4.92494
-84,-706,2.41113,4.93201,-0.00295025,0.000579149,0.000474859,0.000641922,-0.00301302,1.43937,0.00225334,0.0173953,1140,1730,2.41114,-4.93195
-77,-706,2.39819,4.97485,-0.0030677,0.000110252,-1.6331e-06,0.000110253,-0.00306771,-1.57028,0.00208286,0.0161832,1147,1730,2.39816,-4.97486
-70,-706,2.37256,5.04065,-0.00309331,-3.78059e-05,-0.000563504,6.28042e-05,-0.00319392,-1.39411,0.00215052,0.0174496,1154,1730,2.37251,-5.0406
-63,-706,2.35742,5.05823,-0.00304123,-0.000116236,-0.00122725,0.000330464,-0.00348793,-1.22172,0.0024429,0.0125731,1161,1730,2.35744,-5.05828
-56,-706,2.38,5.03967,-0.0028871,-0.000383613,-0.00184535,0.000594484,-0.00386519,-1.08341,0.0027961,0.01228,1168,1730,2.38004,-5.0397
-49,-706,2.39648,5.07556,-0.00264473,-0.000360467,-0.00208569,0.000875333,-0.00388053,-1.0359,0.00292282,0.0123041,1175,1730,2.39643,-5.0755
-42,-706,2.40686,5.10742,-0.00175144,-0.000440666,-0.00253019,0.00151764,-0.00370975,-0.912126,0.00310523,0.0154023,1182,1730,2.40688,-5.10743
-35,-706,2.39185,5.12842,-0.000864564,-0.000920043,-0.00211111,0.00121899,-0.00300359,-0.778829,0.00250944,0.0157781,1189,1730,2.3919,-5.12844
-28,-706,2.4165,5.11426,-0.000165446,-0.00120657,-0.00209543,0.00147312,-0.00284514,-0.663649,0.00253474,0.009867,1196,1730,2.41646,-5.11425
-21,-706,2.42981,5.1449,0.000629651,-0.00161272,-0.00199409,0.00179614,-0.00277921,-0.529297,0.00266183,0.00980774,1203,1730,2.42977,-5.1449
-14,-706,2.43481,5.15161,0.00130958,-0.00255957,-0.00221752,0.00231778,-0.00356778,-0.426719,0.00342348,0.00985208,1210,1730,2.43485,-5.15167
-7,-706,2.42932,5.16492,0.0016767,-0.00383956,-0.00237995,0.00256157,-0.00472443,-0.355963,0.00426791,0.0086236,1217,1730,2.42928,-5.16486
0,-706,2.42664,5.18457,0.00136399,-0.00441261,-0.00247564,0.00227978,-0.0053284,-0.354308,0.0045086,0.0121006,1224,1730,2.42658,-5.18459
7,-706,2.44421,5.1947,0.000803767,-0.00526049,-0.00281431,0.00190856,-0.00636529,-0.374079,0.00500258,0.0135145,1231,1730,2.44422,-5.1947
14,-706,2.4281,5.2063,-0.000102315,-0.00615639,-0.0036239,0.00159247,-0.00785118,-0.43745,0.0058378,0.0134086,1238,1730,2.42807,-5.20631
21,-706,2.41895,5.21069,-0.00110727,-0.00707954,-0.00472748,0.0014982,-0.00968501,-0.503713,0.00700965,0.0116443,1245,1730,2.41894,-5.21072
28,-706,2.42676,5.22595,-0.00213853,-0.0081796,-0.00602962,0.00158482,-0.011903,-0.553195,0.00851289,0.0117319,1252,1730,2.42675,-5.22594
35,-706,2.45032,5.22168,-0.00323523,-0.00899849,-0.00736805,0.00179465,-0.0140284,-0.598994,0.0100043,0.0136504,1259,1730,2.45037,-5.22169
42,-706,2.46106,5.23572,-0.00410228,-0.00952779,-0.00841809,0.00202936,-0.0156594,-0.629525,0.0111776,0.0119486,1266,1730,2.46108,-5.23568
49,-706,2.47144,5.25769,-0.00486759,-0.00985976,-0.00965728,0.00261097,-0.0173383,-0.658933,0.0125203,0.0142297,1273,1730,2.47138,-5.25768
56,-706,2.48657,5.24963,-0.0052208,-0.00968486,-0.0110695,0.00383946,-0.0187451,-0.685913,0.0139538,0.0137704,1280,1730,2.48661,-5.24959
63,-706,2.49646,5.24072,-0.00553311,-0.00913822,-0.0120438,0.00484227,-0.0195136,-0.711116,0.014888,0.0124937,1287,1730,2.49645,-5.24069
70,-706,2.48193,5.23108,-0.00547306,-0.0083626,-0.0131665,0.00632772,-0.0201634,-0.730752,0.0159748,0.0131933,1294,1730,2.48196,-5.23106
77,-706,2.46558,5.2301,-0.0050382,-0.00720943,-0.0135707,0.00749022,-0.0197379,-0.745485,0.0162416,0.0112384,1301,1730,2.46563,-5.23006
84,-706,2.45862,5.23254,-0.00435048,-0.00523412,-0.0137431,0.00895793,-0.0185425,-0.76933,0.0161956,0.00952181,1308,1730,2.45861,-5.23258
91,-706,2.48486,5.25171,-0.00351173,-0.00281144,-0.0134595,0.0103025,-0.0166257,-0.798403,0.0156892,0.0103855,1315,1730,2.48482,-5.25169
98,-706,2.50037,5.26184,-0.00253416,-0.000115299,-0.0130452,0.0117764,-0.0144259,-0.831621,0.0151537,0.0129889,1322,1730,2.50031,-5.26185
105,-706,2.50342,5.25488,-0.00128815,0.00202912,-0.0126425,0.0131213,-0.0123804,-0.850623,0.0147255,0.0139884,1329,1730,2.50337,-5.25485
112,-706,2.4917,5.24036,-0.000579896,0.00422813,-0.0116862,0.0137551,-0.0101068,-0.88684,0.0138302,0.0139889,1336,1730,2.49166,-5.2403
119,-706,2.50781,5.24524,0.000265716,0.00657437,-0.0102721,0.0141655,-0.00732541,-0.934367,0.0126155,0.0125142,1343,1730,2.5078,-5.24528
126,-706,2.51489,5.24438,0.000935357,0.0087915,-0.00873499,0.014441,-0.00471414,-0.996698,0.0115247,0.0132912,1350,1730,2.51486,-5.24444
133,-706,2.52124,5.21924,0.00124494,0.0110841,-0.00662734,0.0144182,-0.00208921,-1.10468,0.0103789,0.0111037,1357,1730,2.5212,-5.21928
140,-706,2.54919,5.19727,0.000877328,0.0118906,-0.00452563,0.0135117,-0.000743757,-1.22683,0.00926565,0.0117579,1364,1730,2.5492,-5.19722
147,-706,2.56287,5.16724,-8.51571e-05,0.0118848,-0.00277367,0.0124963,-0.000696633,-1.35381,0.00857249,0.0212529,1371,1730,2.56288,-5.16726
154,-706,2.53882,5.17517,-0.0012263,0.0116176,-0.000599018,0.0116455,-0.00125417,-1.52429,0.00821372,0.02026,1378,1730,2.53882,-5.17521
161,-706,2.51929,5.16333,-0.00263694,0.0109993,0.0015987,0.0111843,-0.00282186,1.45564,0.00855339,0.0105743,1385,1730,2.51927,-5.16332
168,-706,2.52368,5.13513,-0.00397843,0.0103541,0.00319503,0.011034,-0.00465841,1.3611,0.00930596,0.0100123,1392,1730,2.52362,-5.13515
175,-706,2.53455,5.13257,-0.00521422,0.00957194,0.00400564,0.0105874,-0.00622963,1.32253,0.00981735,0.0098945,1399,1730,2.53458,-5.13252
182,-706,2.54028,5.1156,-0.00622689,0.00855961,0.00475889,0.00995881,-0.00762609,1.28484,0.0101824,0.0107755,1406,1730,2.54029,-5.11555
189,-706,2.53394,5.08093,-0.00722051,0.00720111,0.00512995,0.00883972,-0.00885911,1.26162,0.0102184,0.0134692,1413,1730,2.53389,-5.08088
196,-706,2.54187,5.06006,-0.00772833,0.00595933,0.00495223,0.00756314,-0.00933213,1.2576,0.0097723,0.011849,1420,1730,2.54182,-5.06003
203,-706,2.53735,5.04187,-0.00771329,0.00477507,0.00458172,0.00627569,-0.00921391,1.25428,0.0089964,0.0129481,1427,1730,2.5373,-5.04191
210,-706,2.54199,5.01697,-0.00733932,0.00376673,0.00415916,0.00515162,-0.00872421,1.24937,0.00809924,0.0123596,1434,1730,2.54203,-5.01697
217,-706,2.53723,5.01306,-0.00662362,0.00309894,0.00357741,0.00427338,-0.00779806,1.25359,0.00706778,0.0141378,1441,1730,2.53721,-5.01304
224,-706,2.5426,4.98962,-0.00568301,0.00265192,0.00300719,0.00362362,-0.0066547,1.25826,0.00601959,0.0201717,1448,1730,2.54263,-4.98966
231,-706,2.56018,4.95618,-0.00471072,0.00242415,0.00234225,0.00312436,-0.00541092,1.28031,0.00498644,0.0141073,1455,1730,2.56016,-4.95618
238,-706,2.54639,4.93396,-0.00366195,0.00228702,0.00146199,0.0026269,-0.00400182,1.34238,0.00385444,0.00891891,1462,1730,2.54633,-4.93402
245,-706,2.54358,4.90161,-0.00252893,0.00276824,0.000668979,0.00285142,-0.00261211,1.44709,0.00315538,0.0113495,1469,1730,2.54356,-4.90157
252,-706,2.55725,4.88245,-0.0016636,0.00349878,-0.000157669,0.00350359,-0.00166841,-1.54029,0.00304807,0.0113287,1476,1730,2.55725,-4.88245
259,-706,2.57898,4.8573,-0.000934282,0.00439028,-0.00109895,0.00460818,-0.00115218,-1.37506,0.00351961,0.013096,1483,1730,2.57896,-4.85728
266,-706,2.57019,4.82959,-0.000453997,0.00529854,-0.00203493,0.0059456,-0.00110106,-1.26293,0.00437716,0.0131205,1490,1730,2.57022,-4.82955
273,-706,2.56799,4.80103,-0.000223233,0.00615374,-0.00294967,0.00730887,-0.00137836,-1.19754,0.00539109,0.0120654,1497,1730,2.56795,-4.80101
280,-706,2.54834,4.76575,-7.693e-05,0.00662838,-0.00389623,0.00841585,-0.0018644,-1.14067,0.00632431,0.00992528,1504,1730,2.54837,-4.7657
287,-706,2.53699,4.73376,0.000620418,0.0069347,-0.00459203,0.00935019,-0.00179508,-1.08655,0.00690999,0.0106573,1511,1730,2.537,-4.73377
294,-706,2.5614,4.69861,0.00180403,0.00699875,-0.00566392,0.0106325,-0.00182968,-1.00038,0.00777034,0.010771,1518,1730,2.56141,-4.69864
301,-706,2.56287,4.66479,0.00272928,0.00749036,-0.006485,0.0120179,-0.0017983,-0.961304,0.00867376,0.010308,1525,1730,2.5629,-4.66478
308,-706,2.57166,4.65259,0.00384766,0.00877174,-0.00712598,0.013849,-0.00122962,-0.951729,0.00966865,0.0123089,1532,1730,2.57165,-4.65256
315,-706,2.58215,4.60852,0.00535625,0.0106799,-0.00783434,0.0162923,-0.000256105,-0.949163,0.0109479,0.0188091,1539,1730,2.58217,-4.60849
322,-706,2.58521,4.54822,0.00673387,0.0124854,-0.00823254,0.01833,0.000889272,-0.953431,0.0119346,0.0182908,1546,1730,2.58518,-4.54826
329,-706,2.53809,4.49426,0.00794498,0.0148294,-0.00914955,0.0211628,0.00161156,-0.965317,0.0136032,0.0149637,1553,1730,2.53804,-4.4943
336,-706,2.47705,4.4397,0.00921961,0.0157627,-0.0101493,0.0231547,0.0018276,-0.94131,0.0148647,0.0201133,1560,1730,2.47706,-4.43966
343,-706,2.45056,4.37158,0.0101975,0.0177118,-0.010729,0.0253224,0.00258678,-0.953818,0.0160888,0.0283466,1567,1730,2.45051,-4.37153
350,-706,2.49939,3.94946,0.00808629,0.0186449,-0.0124035,0.0268459,-0.000114704,-0.986601,0.0179357,0.0343608,1574,1730,2.49942,-3.9495
357,-706,2.54504,3.77014,0.00493969,0.0229334,-0.0134278,0.0300997,-0.00222666,-1.08056,0.0208484,0.0414643,1581,1730,2.54504,-3.77018
364,-706,2.67065,3.7002,0.00519959,0.0256656,-0.0132768,0.0321953,-0.0013301,-1.11372,0.0219203,0.0466443,1588,1730,2.67065,-3.70019
371,-706,3.23108,3.87256,0,0,0,0,0,0,0,-1,1595,1730,3.2311,-3.87252
378,-706,3.34534,3.77148,0,0,0,0,0,0,0,-1,1602,1730,3.34529,-3.77144
385,-706,3.96606,5.4895,0.0122607,0.0311999,-0.00788042,0.0340499,0.00941058,-1.22377,0.0203035,0.044697,1609,1730,3.96601,-5.48948
392,-706,3.68494,5.39355,0.0164318,0.0332715,-0.00452952,0.0344125,0.0152908,-1.32402,0.0199091,0.0463491,1616,1730,3.68498,-5.39349
399,-706,3.40137,5.37646,0.0239033,0.0352587,0.00112523,0.0353691,0.0237929,1.47297,0.0208225,0.0447614,1623,1730,3.40131,-5.37641
406,-706,2.68079,5.56873,0.0377754,0.0363746,0.00729155,0.0444001,0.0297499,0.737515,0.0261239,0.0446639,1630,1730,2.68076,-5.56873
413,-706,2.33618,1.98315,0,0,0,0,0,0,0,-1,1637,1730,2.33612,-1.98315
420,-706,4.35303,3.58496,0,0,0,0,0,0,0,-1,1644,1730,4.35304,-3.58498
427,-706,0,0,0,0,0,0,0,0,0,-1,1651,1730,0,0
434,-706,0,0,0,0,0,0,0,0,0,-1,1658,1730,0,0
441,-706,0,0,0,0,0,0,0,0,0,-1,1665,1730,0,0
448,-706,0,0,0,0,0,0,0,0,0,-1,1672,1730,0,0
455,-706,0,0,0,0,0,0,0,0,0,-1,1679,1730,0,0
462,-706,0,0,0,0,0,0,0,0,0,-1,1686,1730,0,0
469,-706,0,0,0,0,0,0,0,0,0,-1,1693,1730,0,0
476,-706,0,0,0,0,0,0,0,0,0,-1,1700,1730,0,0
483,-706,0,0,0,0,0,0,0,0,0,-1,1707,1730,0,0
490,-706,0,0,0,0,0,0,0,0,0,-1,1714,1730,0,0
497,-706,0,0,0,0,0,0,0,0,0,-1,1721,1730,0,0
504,-706,0,0,0,0,0,0,0,0,0,-1,1728,1730,0,0
511,-706,0,0,0,0,0,0,0,0,0,-1,1735,1730,0,0
518,-706,0,0,0,0,0,0,0,0,0,-1,1742,1730,0,0
525,-706,0,0,0,0,0,0,0,0,0,-1,1749,1730,0,0
532,-706,0,0,0,0,0,0,0,0,0,-1,1756,1730,0,0
539,-706,0,0,0,0,0,0,0,0,0,-1,1763,1730,0,0
546,-706,0,0,0,0,0,0,0,0,0,-1,1770,1730,0,0
553,-706,0,0,0,0,0,0,0,0,0,-1,1777,1730,0,0
560,-706,0,0,0,0,0,0,0,0,0,-1,1784,1730,0,0
567,-706,0,0,0,0,0,0,0,0,0,-1,1791,1730,0,0
574,-706,0,0,0,0,0,0,0,0,0,-1,1798,1730,0,0
581,-706,0,0,0,0,0,0,0,0,0,-1,1805,1730,0,0
588,-706,0,0,0,0,0,0,0,0,0,-1,1812,1730,0,0
595,-706,0,0,0,0,0,0,0,0,0,-1,1819,1730,0,0
602,-706,0,0,0,0,0,0,0,0,0,-1,1826,1730,0,0
609,-706,0,0,0,0,0,0,0,0,0,-1,1833,1730,0,0
616,-706,0,0,0,0,0,0,0,0,0,-1,1840,1730,0,0
623,-706,0,0,0,0,0,0,0,0,0,-1,1847,1730,0,0
630,-706,0,0,0,0,0,0,0,0,0,-1,1854,1730,0,0
637,-706,0,0,0,0,0,0,0,0,0,-1,1861,1730,0,0
644,-706,0,0,0,0,0,0,0,0,0,-1,1868,1730,0,0
651,-706,0,0,0,0,0,0,0,0,0,-1,1875,1730,0,0
658,-706,0,0,0,0,0,0,0,0,0,-1,1882,1730,0,0
665,-706,0,0,0,0,0,0,0,0,0,-1,1889,1730,0,0
672,-706,0,0,0,0,0,0,0,0,0,-1,1896,1730,0,0
679,-706,0,0,0,0,0,0,0,0,0,-1,1903,1730,0,0
686,-706,0,0,0,0,0,0,0,0,0,-1,1910,1730,0,0
693,-706,0,0,0,0,0,0,0,0,0,-1,1917,1730,0,0
700,-706,0,0,0,0,0,0,0,0,0,-1,1924,1730,0,0
707,-706,0,0,0,0,0,0,0,0,0,-1,1931,1730,0,0
714,-706,0,0,0,0,0,0,0,0,0,-1,1938,1730,0,0
721,-706,0,0,0,0,0,0,0,0,0,-1,1945,1730,0,0
728,-706,0,0,0,0,0,0,0,0,0,-1,1952,1730,0,0
735,-706,0,0,0,0,0,0,0,0,0,-1,1959,1730,0,0
742,-706,0,0,0,0,0,0,0,0,0,-1,1966,1730,0,0
749,-706,0,0,0,0,0,0,0,0,0,-1,1973,1730,0,0
756,-706,0,0,0,0,0,0,0,0,0,-1,1980,1730,0,0
763,-706,0,0,0,0,0,0,0,0,0,-1,1987,1730,0,0
770,-706,0,0,0,0,0,0,0,0,0,-1,1994,1730,0,0
777,-706,0,0,0,0,0,0,0,0,0,-1,2001,1730,0,0
784,-706,0,0,0,0,0,0,0,0,0,-1,2008,1730,0,0
791,-706,0,0,0,0,0,0,0,0,0,-1,2015,1730,0,0
798,-706,0,0,0,0,0,0,0,0,0,-1,2022,1730,0,0
805,-706,0,0,0,0,0,0,0,0,0,-1,2029,1730,0,0
812,-706,0,0,0,0,0,0,0,0,0,-1,2036,1730,0,0
-700,-713,0,0,0,0,0,0,0,0,0,-1,524,1737,0,0
-693,-713,0,0,0,0,0,0,0,0,0,-1,531,1737,0,0
-686,-713,0,0,0,0,0,0,0,0,0,-1,538,1737,0,0
-679,-713,0,0,0,0,0,0,0,0,0,-1,545,1737,0,0
-672,-713,0,0,0,0,0,0,0,0,0,-1,552,1737,0,0
-665,-713,0,0,0,0,0,0,0,0,0,-1,559,1737,0,0
-658,-713,0,0,0,0,0,0,0,0,0,-1,566,1737,0,0
-651,-713,0,0,0,0,0,0,0,0,0,-1,573,1737,0,0
-644,-713,0,0,0,0,0,0,0,0,0,-1,580,1737,0,0
-637,-713,0,0,0,0,0,0,0,0,0,-1,587,1737,0,0
-630,-713,0,0,0,0,0,0,0,0,0,-1,594,1737,0,0
-623,-713,0,0,0,0,0,0,0,0,0,-1,601,1737,0,0
-616,-713,0,0,0,0,0,0,0,0,0,-1,608,1737,0,0
-609,-713,0,0,0,0,0,0,0,0,0,-1,615,1737,0,0
-602,-713,0,0,0,0,0,0,0,0,0,-1,622,1737,0,0
-595,-713,0,0,0,0,0,0,0,0,0,-1,629,1737,0,0
-588,-713,0,0,0,0,0,0,0,0,0,-1,636,1737,0,0
-581,-713,0,0,0,0,0,0,0,0,0,-1,643,1737,0,0
-574,-713,0,0,0,0,0,0,0,0,0,-1,650,1737,0,0
-567,-713,0,0,0,0,0,0,0,0,0,-1,657,1737,0,0
-560,-713,0,0,0,0,0,0,0,0,0,-1,664,1737,0,0
-553,-713,0,0,0,0,0,0,0,0,0,-1,671,1737,0,0
-546,-713,0,0,0,0,0,0,0,0,0,-1,678,1737,0,0
-539,-713,0,0,0,0,0,0,0,0,0,-1,685,1737,0,0
-532,-713,0,0,0,0,0,0,0,0,0,-1,692,1737,0,0
-525,-713,0,0,0,0,0,0,0,0,0,-1,699,1737,0,0
-518,-713,0,0,0,0,0,0,0,0,0,-1,706,1737,0,0
-511,-713,0,0,0,0,0,0,0,0,0,-1,713,1737,0,0
-504,-713,0,0,0,0,0,0,0,0,0,-1,720,1737,0,0
-497,-713,0,0,0,0,0,0,0,0,0,-1,727,1737,0,0
-490,-713,0,0,0,0,0,0,0,0,0,-1,734,1737,0,0
-483,-713,0,0,0,0,0,0,0,0,0,-1,741,1737,0,0
-476,-713,0,0,0,0,0,0,0,0,0,-1,748,1737,0,0
-469,-713,0,0,0,0,0,0,0,0,0,-1,755,1737,0,0
-462,-713,0,0,0,0,0,0,0,0,0,-1,762,1737,0,0
-455,-713,0,0,0,0,0,0,0,0,0,-1,769,1737,0,0
-448,-713,0,0,0,0,0,0,0,0,0,-1,776,1737,0,0
-441,-713,0,0,0,0,0,0,0,0,0,-1,783,1737,0,0
-434,-713,0,0,0,0,0,0,0,0,0,-1,790,1737,0,0
-427,-713,0,0,0,0,0,0,0,0,0,-1,797,1737,0,0
-420,-713,0,0,0,0,0,0,0,0,0,-1,804,1737,0,0
-413,-713,0,0,0,0,0,0,0,0,0,-1,811,1737,0,0
-406,-713,0,0,0,0,0,0,0,0,0,-1,818,1737,0,0
-399,-713,0,0,0,0,0,0,0,0,0,-1,825,1737,0,0
-392,-713,0,0,0,0,0,0,0,0,0,-1,832,1737,0,0
-385,-713,0,0,0,0,0,0,0,0,0,-1,839,1737,0,0
-378,-713,0,0,0,0,0,0,0,0,0,-1,846,1737,0,0
-371,-713,0,0,0,0,0,0,0,0,0,-1,853,1737,0,0
-364,-713,0,0,0,0,0,0,0,0,0,-1,860,1737,0,0
-357,-713,0,0,0,0,0,0,0,0,0,-1,867,1737,0,0
-350,-713,0,0,0,0,0,0,0,0,0,-1,874,1737,0,0
-343,-713,0,0,0,0,0,0,0,0,0,-1,881,1737,0,0
-336,-713,0,0,0,0,0,0,0,0,0,-1,888,1737,0,0
-329,-713,0,0,0,0,0,0,0,0,0,-1,895,1737,0,0
-322,-713,0,0,0,0,0,0,0,0,0,-1,902,1737,0,0
-315,-713,0,0,0,0,0,0,0,0,0,-1,909,1737,0,0
-308,-713,0,0,0,0,0,0,0,0,0,-1,916,1737,0,0
-301,-713,0,0,0,0,0,0,0,0,0,-1,923,1737,0,0
-294,-713,2.31152,4.78601,0,0,0,0,0,0,0,-1,930,1737,2.31154,-4.78605
-287,-713,3.15485,3.49353,0,0,0,0,0,0,0,-1,937,1737,3.15486,-3.49358
-280,-713,0.0287476,2.98315,0,0,0,0,0,0,0,-1,944,1737,0.0287218,-2.98319
-273,-713,0.186584,2.64624,0,0,0,0,0,0,0,-1,951,1737,0.186608,-2.64619
-266,-713,3.05072,3.23486,0,0,0,0,0,0,0,-1,958,1737,3.05072,-3.23487
-259,-713,3.34277,3.07678,0,0,0,0,0,0,0,-1,965,1737,3.34279,-3.0768
-252,-713,2.34277,4.03894,0,0,0,0,0,0,0,-1,972,1737,2.3428,-4.03899
-245,-713,2.29907,4.25586,0,0,0,0,0,0,0,-1,979,1737,2.2991,-4.25586
-238,-713,2.34955,3.98425,0,0,0,0,0,0,0,-1,986,1737,2.34956,-3.98427
-231,-713,2.22681,3.88342,0,0,0,0,0,0,0,-1,993,1737,2.22678,-3.88341
-224,-713,2.35858,4.53455,-0.00666655,0.00956085,-0.00154597,0.00970682,-0.00681252,-1.47666,0.00958611,0.0452685,1000,1737,2.35856,-4.53449
-217,-713,2.59973,4.1543,-0.00753678,0.00561324,-0.00375565,0.00661027,-0.0085338,-1.31131,0.00876691,0.0482242,1007,1737,2.59975,-4.15433
-210,-713,2.60992,4.29968,-0.00785042,0.00395526,-0.00427549,0.005341,-0.00923616,-1.25737,0.00851569,0.0460139,1014,1737,2.60991,-4.29962
-203,-713,2.28705,4.38599,-0.00736304,0.00232854,-0.00524063,0.00462039,-0.00965489,-1.15853,0.00841095,0.0415985,1021,1737,2.28704,-4.38599
-196,-713,2.44019,4.02063,-0.00632452,0.00101445,-0.0062928,0.0046295,-0.00993957,-1.04936,0.00859567,0.0394692,1028,1737,2.44014,-4.02065
-189,-713,2.4342,4.33313,-0.00479712,-0.000288039,-0.00730726,0.00510458,-0.0101897,-0.935032,0.0089914,0.0369263,1035,1737,2.43426,-4.33315
-182,-713,2.3595,4.4624,-0.00380324,-0.000653726,-0.00819758,0.00611898,-0.0105759,-0.880292,0.00975264,0.0230021,1042,1737,2.35948,-4.46246
-175,-713,2.45801,4.53967,-0.00344022,-0.000156952,-0.00873727,0.00709157,-0.0106887,-0.87826,0.0103353,0.0193802,1049,1737,2.45807,-4.53972
-168,-713,2.46863,4.55078,-0.00335993,0.000999473,-0.00864072,0.00773118,-0.0100916,-0.90895,0.01032,0.0226633,1056,1737,2.4686,-4.55077
-161,-713,2.42981,4.61047,-0.00281823,0.00251152,-0.00785763,0.00814387,-0.00845058,-0.948884,0.00958136,0.0122358,1063,1737,2.42979,-4.6105
-154,-713,2.4325,4.65393,-0.00234387,0.0037733,-0.00716051,0.0085011,-0.00707168,-0.987242,0.00900357,0.0110942,1070,1737,2.43251,-4.65394
-147,-713,2.43237,4.69873,-0.00225586,0.00505476,-0.00618064,0.00858009,-0.00578119,-1.05244,0.00834382,0.0181311,1077,1737,2.43234,-4.69878
-140,-713,2.44556,4.73633,-0.00277488,0.00656068,-0.00496602,0.00870829,-0.00492248,-1.16262,0.00797027,0.0182858,1084,1737,2.44551,-4.73639
-133,-713,2.4519,4.73853,-0.00327563,0.00711687,-0.00326542,0.00805772,-0.00421647,-1.29027,0.00720126,0.0117323,1091,1737,2.45185,-4.73854
-126,-713,2.43823,4.77673,-0.0031459,0.00752107,-0.00174542,0.00779941,-0.00342424,-1.41266,0.00664206,0.017097,1098,1737,2.43824,-4.77672
-119,-713,2.42297,4.79175,-0.00312456,0.00732028,-0.000349998,0.00733199,-0.00313627,-1.53734,0.00620356,0.0237658,1105,1737,2.42292,-4.79178
-112,-713,2.42322,4.87463,-0.00318674,0.00680413,0.000769768,0.00686309,-0.0032457,1.49435,0.00595957,0.0124806,1112,1737,2.42322,-4.87463
-105,-713,2.42676,4.90076,-0.00336876,0.00580356,0.00153688,0.00605422,-0.00361942,1.40912,0.00564374,0.0105993,1119,1737,2.4268,-4.90076
-98,-713,2.44751,4.91992,-0.00343738,0.00460201,0.00216815,0.00514947,-0.00398483,1.32347,0.00528796,0.00952773,1126,1737,2.44749,-4.91993
-91,-713,2.43481,4.93225,-0.00343678,0.00333903,0.00219205,0.00398634,-0.00408409,1.28366,0.00465958,0.00987858,1133,1737,2.43486,-4.9323
-84,-713,2.41663,4.9469,-0.00335209,0.00237049,0.00203556,0.00302068,-0.00400228,1.26162,0.00406789,0.00979696,1140,1737,2.41659,-4.94689
-77,-713,2.42786,4.99426,-0.00308205,0.00158034,0.00174151,0.00215901,-0.00366072,1.24999,0.00339711,0.0125018,1147,1737,2.42788,-4.99423
-70,-713,2.40833,5.03748,-0.0027354,0.00113531,0.00128588,0.00152355,-0.00312364,1.27758,0.00273556,0.0138421,1154,1737,2.40837,-5.03747
-63,-713,2.42041,5.04248,-0.00254205,0.00107238,0.000753143,0.00122303,-0.0026927,1.37337,0.00231322,0.0121015,1161,1737,2.42043,-5.04244
-56,-713,2.4209,5.05359,-0.00242546,0.000665622,8.58338e-05,0.000668003,-0.00242784,1.54306,0.00188119,0.0124085,1168,1737,2.42095,-5.05354
-49,-713,2.41711,5.08337,-0.00216203,0.000807001,-9.51562e-05,0.000810048,-0.00216507,-1.53879,0.00177608,0.0139737,1175,1737,2.41707,-5.08341
-42,-713,2.44629,5.09265,-0.00142068,0.000788078,-0.000359132,0.000845004,-0.0014776,-1.41359,0.00135744,0.015772,1182,1737,2.44624,-5.09265
-35,-713,2.44543,5.09338,-0.000744952,0.000388154,-0.00030696,0.000465966,-0.000822764,-1.32253,0.000753494,0.0135842,1189,1737,2.44549,-5.09343
-28,-713,2.45068,5.11755,-0.000262839,0.000110029,-0.000462016,0.000421808,-0.000574618,-0.977168,0.000577537,0.01178,1196,1737,2.45072,-5.11751
-21,-713,2.43628,5.15186,0.00026405,-0.000236911,-0.00046777,0.000544182,-0.000517043,-0.539586,0.000612765,0.00876938,1203,1737,2.43626,-5.15184
-14,-713,2.43115,5.14526,0.000755129,-0.000976165,-0.000554178,0.000917324,-0.00113836,-0.284724,0.00118913,0.0100803,1210,1737,2.43111,-5.14527
-7,-713,2.44043,5.16211,0.00107833,-0.00189271,-0.000600892,0.00119526,-0.00200964,-0.19219,0.00187015,0.00948494,1217,1737,2.44038,-5.16212
0,-713,2.44312,5.17737,0.000998512,-0.00233393,-0.000615318,0.0011085,-0.00244392,-0.176877,0.00209874,0.0136876,1224,1737,2.4431,-5.17737
7,-713,2.46301,5.17749,0.000659031,-0.00303729,-0.000769833,0.000812954,-0.00319121,-0.197342,0.00244395,0.0156843,1231,1737,2.463,-5.17745
14,-713,2.46729,5.18591,0.000152827,-0.00368728,-0.00118081,0.00048686,-0.00402132,-0.275683,0.00285703,0.0118046,1238,1737,2.46734,-5.18589
21,-713,2.4491,5.20435,-0.000435216,-0.00430725,-0.00181957,0.000285641,-0.00502811,-0.3772,0.00345123,0.0107432,1245,1737,2.44912,-5.20436
28,-713,2.44165,5.22412,-0.00100606,-0.0050145,-0.00254984,0.000232953,-0.00625352,-0.45232,0.00424879,0.0112454,1252,1737,2.4417,-5.22407
35,-713,2.44592,5.22437,-0.00158035,-0.00552155,-0.00327569,0.0002718,-0.0073737,-0.514606,0.00500886,0.0115503,1259,1737,2.44591,-5.22437
42,-713,2.45459,5.22925,-0.00201246,-0.00582391,-0.00388888,0.000412533,-0.00824891,-0.557572,0.00564182,0.0113461,1266,1737,2.45455,-5.2292
49,-713,2.47278,5.22583,-0.0023343,-0.00606576,-0.0044902,0.000662363,-0.00906243,-0.588495,0.00627407,0.0116713,1273,1737,2.47275,-5.22581
56,-713,2.48132,5.2301,-0.00243215,-0.00609826,-0.00519121,0.00124013,-0.00977054,-0.615678,0.00696398,0.0119074,1280,1737,2.48131,-5.23015
63,-713,2.47058,5.24805,-0.00250729,-0.0059259,-0.00550536,0.00154801,-0.00998121,-0.634876,0.00722563,0.0123804,1287,1737,2.47056,-5.24803
70,-713,2.47339,5.23547,-0.0023518,-0.00558027,-0.00597454,0.00222274,-0.0101548,-0.653456,0.00761963,0.0123743,1294,1737,2.4734,-5.23542
77,-713,2.47412,5.22864,-0.00196715,-0.00511693,-0.00587674,0.00254207,-0.00962614,-0.654481,0.00741155,0.0120649,1301,1737,2.47417,-5.22865
84,-713,2.47485,5.24878,-0.00146609,-0.00418915,-0.00559412,0.00292981,-0.00858505,-0.666026,0.0069102,0.0121046,1308,1737,2.47491,-5.24875
91,-713,2.46606,5.26379,-0.000842035,-0.00285263,-0.00509199,0.00334295,-0.00703761,-0.687938,0.00611845,0.0125393,1315,1737,2.46612,-5.26384
98,-713,2.47766,5.24976,-0.000169287,-0.00132518,-0.00452774,0.00381724,-0.00531171,-0.721918,0.00529409,0.0118368,1322,1737,2.47768,-5.24981
105,-713,2.49036,5.24878,0.000645658,-0.000192027,-0.00405598,0.00430436,-0.00385073,-0.733948,0.00471077,0.0128315,1329,1737,2.49038,-5.24872
112,-713,2.49573,5.2583,0.00104425,0.00113983,-0.00334659,0.00443897,-0.00225489,-0.792538,0.00393268,0.0127033,1336,1737,2.49571,-5.25826
119,-713,2.50745,5.25928,0.00152935,0.00258405,-0.00243008,0.00454334,-0.00042994,-0.892246,0.0031819,0.0136043,1343,1737,2.5075,-5.25929
126,-713,2.51135,5.26074,0.00188877,0.00404432,-0.00157148,0.0048721,0.00106099,-1.08598,0.00295852,0.0129912,1350,1737,2.51136,-5.26073
133,-713,2.48828,5.21667,0.00195498,0.00569151,-0.000557573,0.00577293,0.00187356,-1.42578,0.00340072,0.0113727,1357,1737,2.48834,-5.21665
140,-713,2.48743,5.18738,0.00149059,0.00650486,5.93595e-05,0.00650556,0.00148988,1.55896,0.00393557,0.0134455,1364,1737,2.48737,-5.18742
147,-713,2.51721,5.17041,0.000635261,0.00684963,0.000438331,0.00688039,0.000604495,1.50072,0.00439929,0.0152759,1371,1737,2.51726,-5.17044
154,-713,2.48474,5.17529,-0.000563455,0.00704355,0.00083435,0.00713399,-0.000653893,1.46282,0.00498827,0.0151627,1378,1737,2.48477,-5.17525
161,-713,2.48328,5.15381,-0.0018306,0.0069838,0.00124926,0.00715743,-0.00200424,1.43269,0.00556141,0.0106359,1385,1737,2.48324,-5.15379
168,-713,2.50952,5.12537,-0.00297076,0.00673344,0.00130734,0.00690648,-0.0031438,1.4392,0.00593654,0.00977125,1392,1737,2.50953,-5.12535
175,-713,2.53699,5.12146,-0.0040372,0.00621165,0.00119638,0.00634946,-0.00417501,1.45612,0.00611938,0.0127178,1399,1737,2.53704,-5.1215
182,-713,2.5105,5.11731,-0.00498945,0.00549469,0.000987045,0.00558681,-0.00508157,1.47774,0.00616169,0.0120794,1406,1737,2.51046,-5.11727
189,-713,2.50854,5.07251,-0.00592503,0.00454517,0.000681857,0.00458939,-0.00596925,1.50604,0.00611336,0.0111001,1413,1737,2.50859,-5.0725
196,-713,2.53528,5.05164,-0.00649409,0.00353235,0.000397387,0.00354807,-0.00650982,1.53125,0.00589025,0.0126494,1420,1737,2.53531,-5.05168
203,-713,2.52405,5.04529,-0.00658445,0.00258044,6.16265e-05,0.00258086,-0.00658486,1.56407,0.00545754,0.0171496,1427,1737,2.52409,-5.04528
210,-713,2.51782,5.02075,-0.00638731,0.00182714,-0.000162229,0.00183034,-0.00639051,-1.55106,0.00498378,0.0130454,1434,1737,2.51785,-5.02075
217,-713,2.52002,4.99011,-0.00587637,0.00141846,-0.000479552,0.00144985,-0.00590776,-1.50543,0.00450033,0.011214,1441,1737,2.52,-4.99008
224,-713,2.52429,4.9762,-0.00501593,0.00129261,-0.00072705,0.00137531,-0.00509863,-1.45753,0.0039384,0.0132706,1448,1737,2.52426,-4.97621
231,-713,2.52429,4.96729,-0.00407631,0.00148549,-0.00109721,0.00169412,-0.00428494,-1.3829,0.0035584,0.0120518,1455,1737,2.52432,-4.96728
238,-713,2.51294,4.93896,-0.00307581,0.00179079,-0.00161386,0.00227734,-0.00356236,-1.27798,0.00339865,0.00838625,1462,1737,2.51289,-4.93898
245,-713,2.52197,4.91016,-0.00192035,0.0025626,-0.00204833,0.00335755,-0.00271529,-1.20059,0.00351269,0.0106421,1469,1737,2.52197,-4.91019
252,-713,2.54016,4.88342,-0.000980647,0.00358881,-0.00262995,0.00478785,-0.00217969,-1.14303,0.00411558,0.0116146,1476,1737,2.54022,-4.88346
259,-713,2.55774,4.85962,-9.79147e-05,0.00477094,-0.00340121,0.00651917,-0.00184615,-1.09601,0.0050747,0.012007,1483,1737,2.55773,-4.85959
266,-713,2.53784,4.84399,0.000417164,0.00592452,-0.00426178,0.00824485,-0.00190316,-1.07222,0.00622864,0.011018,1490,1737,2.53783,-4.84405
273,-713,2.53455,4.80786,0.000678306,0.00697322,-0.00511498,0.00983155,-0.00218002,-1.06121,0.00738903,0.00934312,1497,1737,2.53456,-4.8079
280,-713,2.52429,4.76489,0.000826863,0.00749847,-0.00599296,0.0110215,-0.00269613,-1.03935,0.00839198,0.00999248,1504,1737,2.52429,-4.76492
287,-713,2.52258,4.73608,0.00167533,0.00775981,-0.00665897,0.0120386,-0.00260343,-0.999672,0.00901965,0.0109891,1511,1737,2.52255,-4.73614
294,-713,2.55725,4.70911,0.003156,0.00775915,-0.00788444,0.0136711,-0.00275593,-0.927409,0.0101581,0.015102,1518,1737,2.5573,-4.70912
301,-713,2.54651,4.6593,0.00433001,0.00822026,-0.0088347,0.0153214,-0.00277115,-0.893754,0.0112523,0.0168574,1525,1737,2.54655,-4.65925
308,-713,2.52869,4.61084,0.00578731,0.00974048,-0.0095988,0.0175641,-0.0020363,-0.886939,0.0124438,0.0181895,1532,1737,2.52863,-4.61084
315,-713,2.55432,4.57605,0.00775195,0.0121234,-0.0104915,0.0206545,-0.000779114,-0.888096,0.0140366,0.023709,1539,1737,2.55435,-4.57609
322,-713,2.52063,4.50525,0.00953589,0.0144307,-0.0108495,0.0231054,0.000861181,-0.896331,0.0151247,0.0282999,1546,1737,2.52061,-4.50523
329,-713,2.52234,4.45447,0.0112038,0.017431,-0.0119606,0.0266766,0.0019582,-0.912734,0.0171689,0.0329164,1553,1737,2.52229,-4.45446
336,-713,2.43555,4.47925,0.0129894,0.0188772,-0.0131132,0.0293729,0.00249364,-0.895817,0.0188059,0.0358935,1560,1737,2.43551,-4.47929
343,-713,2.5166,4.27258,0.0144445,0.0219581,-0.0138387,0.0325408,0.00386172,-0.91794,0.0205281,0.0405646,1567,1737,2.51664,-4.27255
350,-713,2.38367,3.5354,0.0119682,0.0243635,-0.0154289,0.034793,0.00153871,-0.976378,0.0226998,0.0414767,1574,1737,2.38367,-3.53546
357,-713,2.52234,3.32227,0.00771166,0.0287832,-0.0162911,0.0376485,-0.00115368,-1.07243,0.0254923,0.0424536,1581,1737,2.52237,-3.32231
364,-713,2.56274,3.34558,0.00685681,0.031598,-0.0159084,0.0393795,-0.000924729,-1.11587,0.0265666,0.0473118,1588,1737,2.56277,-3.34564
371,-713,2.63159,3.29639,0,0,0,0,0,0,0,-1,1595,1737,2.63153,-3.29635
378,-713,2.3385,3.56653,0,0,0,0,0,0,0,-1,1602,1737,2.33845,-3.56651
385,-713,4.32666,5.04846,0,0,0,0,0,0,0,-1,1609,1737,4.32663,-5.04843
392,-713,3.93567,5.15137,0,0,0,0,0,0,0,-1,1616,1737,3.93572,-5.15141
399,-713,3.86047,5.17981,0.0180457,0.0385671,0.00209836,0.0387795,0.0178333,1.46993,0.0224134,0.045704,1623,1737,3.86052,-5.17979
406,-713,3.02368,5.49622,0.0321175,0.0382657,0.00914214,0.0448368,0.0255465,0.947587,0.0259704,0.0450503,1630,1737,3.02365,-5.49617
413,-713,2.17578,5.68689,0,0,0,0,0,0,0,-1,1637,1737,2.17581,-5.68692
420,-713,0,0,0,0,0,0,0,0,0,-1,1644,1737,0,0
427,-713,0,0,0,0,0,0,0,0,0,-1,1651,1737,0,0
434,-713,0,0,0,0,0,0,0,0,0,-1,1658,1737,0,0
441,-713,0,0,0,0,0,0,0,0,0,-1,1665,1737,0,0
448,-713,0,0,0,0,0,0,0,0,0,-1,1672,1737,0,0
455,-713,0,0,0,0,0,0,0,0,0,-1,1679,1737,0,0
462,-713,0,0,0,0,0,0,0,0,0,-1,1686,1737,0,0
469,-713,0,0,0,0,0,0,0,0,0,-1,1693,1737,0,0
476,-713,0,0,0,0,0,0,0,0,0,-1,1700,1737,0,0
483,-713,0,0,0,0,0,0,0,0,0,-1,1707,1737,0,0
490,-713,0,0,0,0,0,0,0,0,0,-1,1714,1737,0,0
497,-713,0,0,0,0,0,0,0,0,0,-1,1721,1737,0,0
504,-713,0,0,0,0,0,0,0,0,0,-1,1728,1737,0,0
511,-713,0,0,0,0,0,0,0,0,0,-1,1735,1737,0,0
518,-713,0,0,0,0,0,0,0,0,0,-1,1742,1737,0,0
525,-713,0,0,0,0,0,0,0,0,0,-1,1749,1737,0,0
532,-713,0,0,0,0,0,0,0,0,0,-1,1756,1737,0,0
539,-713,0,0,0,0,0,0,0,0,0,-1,1763,1737,0,0
546,-713,0,0,0,0,0,0,0,0,0,-1,1770,1737,0,0
553,-713,0,0,0,0,0,0,0,0,0,-1,1777,1737,0,0
560,-713,0,0,0,0,0,0,0,0,0,-1,1784,1737,0,0
567,-713,0,0,0,0,0,0,0,0,0,-1,1791,1737,0,0
574,-713,0,0,0,0,0,0,0,0,0,-1,1798,1737,0,0
581,-713,0,0,0,0,0,0,0,0,0,-1,1805,1737,0,0
588,-713,0,0,0,0,0,0,0,0,0,-1,1812,1737,0,0
595,-713,0,0,0,0,0,0,0,0,0,-1,1819,1737,0,0
602,-713,0,0,0,0,0,0,0,0,0,-1,1826,1737,0,0
609,-713,0,0,0,0,0,0,0,0,0,-1,1833,1737,0,0
616,-713,0,0,0,0,0,0,0,0,0,-1,1840,1737,0,0
623,-713,0,0,0,0,0,0,0,0,0,-1,1847,1737,0,0
630,-713,0,0,0,0,0,0,0,0,0,-1,1854,1737,0,0
637,-713,0,0,0,0,0,0,0,0,0,-1,1861,1737,0,0
644,-713,0,0,0,0,0,0,0,0,0,-1,1868,1737,0,0
651,-713,0,0,0,0,0,0,0,0,0,-1,1875,1737,0,0
658,-713,0,0,0,0,0,0,0,0,0,-1,1882,1737,0,0
665,-713,0,0,0,0,0,0,0,0,0,-1,1889,1737,0,0
672,-713,0,0,0,0,0,0,0,0,0,-1,1896,1737,0,0
679,-713,0,0,0,0,0,0,0,0,0,-1,1903,1737,0,0
686,-713,0,0,0,0,0,0,0,0,0,-1,1910,1737,0,0
693,-713,0,0,0,0,0,0,0,0,0,-1,1917,1737,0,0
700,-713,0,0,0,0,0,0,0,0,0,-1,1924,1737,0,0
707,-713,0,0,0,0,0,0,0,0,0,-1,1931,1737,0,0
714,-713,0,0,0,0,0,0,0,0,0,-1,1938,1737,0,0
721,-713,0,0,0,0,0,0,0,0,0,-1,1945,1737,0,0
728,-713,0,0,0,0,0,0,0,0,0,-1,1952,1737,0,0
735,-713,0,0,0,0,0,0,0,0,0,-1,1959,1737,0,0
742,-713,0,0,0,0,0,0,0,0,0,-1,1966,1737,0,0
749,-713,0,0,0,0,0,0,0,0,0,-1,1973,1737,0,0
756,-713,0,0,0,0,0,0,0,0,0,-1,1980,1737,0,0
763,-713,0,0,0,0,0,0,0,0,0,-1,1987,1737,0,0
770,-713,0,0,0,0,0,0,0,0,0,-1,1994,1737,0,0
777,-713,0,0,0,0,0,0,0,0,0,-1,2001,1737,0,0
784,-713,0,0,0,0,0,0,0,0,0,-1,2008,1737,0,0
791,-713,0,0,0,0,0,0,0,0,0,-1,2015,1737,0,0
798,-713,0,0,0,0,0,0,0,0,0,-1,2022,1737,0,0
805,-713,0,0,0,0,0,0,0,0,0,-1,2029,1737,0,0
812,-713,0,0,0,0,0,0,0,0,0,-1,2036,1737,0,0
-700,-720,0,0,0,0,0,0,0,0,0,-1,524,1744,0,0
-693,-720,0,0,0,0,0,0,0,0,0,-1,531,1744,0,0
-686,-720,0,0,0,0,0,0,0,0,0,-1,538,1744,0,0
-679,-720,0,0,0,0,0,0,0,0,0,-1,545,1744,0,0
-672,-720,0,0,0,0,0,0,0,0,0,-1,552,1744,0,0
-665,-720,0,0,0,0,0,0,0,0,0,-1,559,1744,0,0
-658,-720,0,0,0,0,0,0,0,0,0,-1,566,1744,0,0
-651,-720,0,0,0,0,0,0,0,0,0,-1,573,1744,0,0
-644,-720,0,0,0,0,0,0,0,0,0,-1,580,1744,0,0
-637,-720,0,0,0,0,0,0,0,0,0,-1,587,1744,0,0
-630,-720,0,0,0,0,0,0,0,0,0,-1,594,1744,0,0
-623,-720,0,0,0,0,0,0,0,0,0,-1,601,1744,0,0
-616,-720,0,0,0,0,0,0,0,0,0,-1,608,1744,0,0
-609,-720,0,0,0,0,0,0,0,0,0,-1,615,1744,0,0
-602,-720,0,0,0,0,0,0,0,0,0,-1,622,1744,0,0
-595,-720,0,0,0,0,0,0,0,0,0,-1,629,1744,0,0
-588,-720,0,0,0,0,0,0,0,0,0,-1,636,1744,0,0
-581,-720,0,0,0,0,0,0,0,0,0,-1,643,1744,0,0
-574,-720,0,0,0,0,0,0,0,0,0,-1,650,1744,0,0
-567,-720,0,0,0,0,0,0,0,0,0,-1,657,1744,0,0
-560,-720,0,0,0,0,0,0,0,0,0,-1,664,1744,0,0
-553,-720,0,0,0,0,0,0,0,0,0,-1,671,1744,0,0
-546,-720,0,0,0,0,0,0,0,0,0,-1,678,1744,0,0
-539,-720,0,0,0,0,0,0,0,0,0,-1,685,1744,0,0
-532,-720,0,0,0,0,0,0,0,0,0,-1,692,1744,0,0
-525,-720,0,0,0,0,0,0,0,0,0,-1,699,1744,0,0
-518,-720,0,0,0,0,0,0,0,0,0,-1,706,1744,0,0
-511,-720,0,0,0,0,0,0,0,0,0,-1,713,1744,0,0
-504,-720,0,0,0,0,0,0,0,0,0,-1,720,1744,0,0
-497,-720,0,0,0,0,0,0,0,0,0,-1,727,1744,0,0
-490,-720,0,0,0,0,0,0,0,0,0,-1,734,1744,0,0
-483,-720,0,0,0,0,0,0,0,0,0,-1,741,1744,0,0
-476,-720,0,0,0,0,0,0,0,0,0,-1,748,1744,0,0
-469,-720,0,0,0,0,0,0,0,0,0,-1,755,1744,0,0
-462,-720,0,0,0,0,0,0,0,0,0,-1,762,1744,0,0
-455,-720,0,0,0,0,0,0,0,0,0,-1,769,1744,0,0
-448,-720,0,0,0,0,0,0,0,0,0,-1,776,1744,0,0
-441,-720,0,0,0,0,0,0,0,0,0,-1,783,1744,0,0
-434,-720,0,0,0,0,0,0,0,0,0,-1,790,1744,0,0
-427,-720,0,0,0,0,0,0,0,0,0,-1,797,1744,0,0
-420,-720,0,0,0,0,0,0,0,0,0,-1,804,1744,0,0
-413,-720,0,0,0,0,0,0,0,0,0,-1,811,1744,0,0
-406,-720,0,0,0,0,0,0,0,0,0,-1,818,1744,0,0
-399,-720,0,0,0,0,0,0,0,0,0,-1,825,1744,0,0
-392,-720,0,0,0,0,0,0,0,0,0,-1,832,1744,0,0
-385,-720,0,0,0,0,0,0,0,0,0,-1,839,1744,0,0
-378,-720,0,0,0,0,0,0,0,0,0,-1,846,1744,0,0
-371,-720,0,0,0,0,0,0,0,0,0,-1,853,1744,0,0
-364,-720,0,0,0,0,0,0,0,0,0,-1,860,1744,0,0
-357,-720,0,0,0,0,0,0,0,0,0,-1,867,1744,0,0
-350,-720,0,0,0,0,0,0,0,0,0,-1,874,1744,0,0
-343,-720,0,0,0,0,0,0,0,0,0,-1,881,1744,0,0
-336,-720,0,0,0,0,0,0,0,0,0,-1,888,1744,0,0
-329,-720,0,0,0,0,0,0,0,0,0,-1,895,1744,0,0
-322,-720,0,0,0,0,0,0,0,0,0,-1,902,1744,0,0
-315,-720,0,0,0,0,0,0,0,0,0,-1,909,1744,0,0
-308,-720,0,0,0,0,0,0,0,0,0,-1,916,1744,0,0
-301,-720,0,0,0,0,0,0,0,0,0,-1,923,1744,0,0
-294,-720,0,0,0,0,0,0,0,0,0,-1,930,1744,0,0
-287,-720,0,0,0,0,0,0,0,0,0,-1,937,1744,0,0
-280,-720,1.51031,3.30383,0,0,0,0,0,0,0,-1,944,1744,1.51033,-3.3038
-273,-720,1.26367,3.05188,0,0,0,0,0,0,0,-1,951,1744,1.26365,-3.05185
-266,-720,1.25934,2.93579,0.036762,0.0115362,-0.000517927,0.0367726,0.0115256,-0.0205201,0.0217178,0.0466671,958,1744,1.25935,-2.9358
-259,-720,1.58752,2.9259,0.0190392,0.0136688,0.00174703,0.0195575,0.0131505,0.288404,0.0115131,0.0483119,965,1744,1.58753,-2.92596
-252,-720,2.09357,3.19849,0.00983149,0.0146381,0.000296892,0.0146564,0.00981322,1.50934,0.00862251,0.0481347,972,1744,2.09357,-3.19854
-245,-720,2.3938,3.6001,0.00248371,0.0150405,-0.000302904,0.0150478,0.0024764,-1.54669,0.00931673,0.0465304,979,1744,2.39382,-3.60008
-238,-720,2.27924,3.85474,-0.0021616,0.0152518,-0.000842846,0.0152925,-0.0022023,-1.52254,0.0110028,0.04448,986,1744,2.27923,-3.85476
-231,-720,2.18958,4.13574,-0.00596749,0.0133576,-0.00164276,0.0134963,-0.00610614,-1.4866,0.0115825,0.0442004,993,1744,2.18957,-4.13579
-224,-720,2.17377,4.38367,0,0,0,0,0,0,0,-1,1000,1744,2.17377,-4.38372
-217,-720,3.11798,3.84668,-0.00941679,0.00597159,-0.00547565,0.0077211,-0.0111663,-1.26154,0.0109649,0.0487472,1007,1744,3.11798,-3.84669
-210,-720,2.81818,4.21179,-0.0101034,0.00369869,-0.00629818,0.00614064,-0.0125453,-1.20092,0.0109976,0.0483909,1014,1744,2.81817,-4.21173
-203,-720,2.41718,4.50024,-0.00973865,0.00151145,-0.00784329,0.00553826,-0.0137655,-1.09648,0.0114775,0.0443226,1021,1744,2.41716,-4.5002
-196,-720,1.48718,4.67883,-0.00857917,-0.000471782,-0.00935872,0.00567345,-0.0147244,-0.989773,0.012157,0.0449553,1028,1744,1.48722,-4.67884
-189,-720,2.46753,4.11853,-0.00667853,-0.00229691,-0.0107914,0.0065238,-0.0154992,-0.885545,0.0130623,0.0487001,1035,1744,2.46747,-4.11857
-182,-720,2.33105,4.2782,0,0,0,0,0,0,0,-1,1042,1744,2.33111,-4.27817
-175,-720,2.70471,4.49109,-0.00510298,-0.00182803,-0.012614,0.00925437,-0.0161854,-0.849944,0.0148682,0.0371545,1049,1744,2.70472,-4.49113
-168,-720,2.55811,4.62622,-0.00501809,-8.65116e-05,-0.0124052,0.0100956,-0.0152002,-0.883505,0.0147033,0.032448,1056,1744,2.55809,-4.62624
-161,-720,2.45288,4.64819,-0.00430514,0.00234084,-0.0111827,0.0106839,-0.0126482,-0.92982,0.0134867,0.0219714,1063,1744,2.4529,-4.64824
-154,-720,2.48157,4.63037,-0.00376626,0.00429904,-0.0100578,0.0111025,-0.0105697,-0.97606,0.0125137,0.0158712,1070,1744,2.4816,-4.63037
-147,-720,2.49304,4.69812,-0.00377326,0.00628016,-0.00856648,0.0111858,-0.00867894,-1.05072,0.0114993,0.016293,1077,1744,2.49309,-4.6981
-140,-720,2.47852,4.75366,-0.00452473,0.0085092,-0.00670045,0.0113393,-0.00735478,-1.17116,0.0108744,0.0148285,1084,1744,2.47857,-4.75364
-133,-720,2.46375,4.74255,-0.00517594,0.00960572,-0.00428348,0.0107573,-0.00632751,-1.30817,0.00997382,0.0123751,1091,1744,2.4637,-4.7425
-126,-720,2.46777,4.77808,-0.00508703,0.0104687,-0.00213766,0.0107571,-0.00537544,-1.43669,0.00948529,0.0123162,1098,1744,2.46783,-4.77805
-119,-720,2.45642,4.8252,-0.00506237,0.0104797,-0.000199813,0.0104823,-0.00506494,-1.55794,0.00915601,0.0136336,1105,1744,2.45639,-4.82523
-112,-720,2.44495,4.84778,-0.00508665,0.0100116,0.00142021,0.010144,-0.00521908,1.47782,0.00902051,0.012784,1112,1744,2.44496,-4.84774
-105,-720,2.45178,4.87585,-0.00520249,0.00886519,0.00261053,0.009334,-0.0056713,1.39311,0.00874892,0.013413,1119,1744,2.45179,-4.87586
-98,-720,2.4563,4.89441,-0.00517461,0.00733279,0.00357499,0.00828252,-0.00612433,1.31114,0.00834885,0.0103477,1126,1744,2.45625,-4.89445
-91,-720,2.43408,4.92297,-0.00499996,0.0056605,0.00373945,0.0068414,-0.00618086,1.26491,0.00752163,0.00935479,1133,1744,2.43404,-4.92295
-84,-720,2.4281,4.96228,-0.00467869,0.0043244,0.00372809,0.00566773,-0.00602202,1.22495,0.00675012,0.00987185,1140,1744,2.42812,-4.96225
-77,-720,2.44702,5.01013,-0.00402469,0.00311646,0.00356889,0.00459425,-0.00550248,1.17822,0.0058372,0.0120073,1147,1744,2.44708,-5.01016
-70,-720,2.44519,5.0144,-0.00327154,0.00228427,0.00317749,0.00372694,-0.00471421,1.1446,0.0048846,0.0112101,1154,1744,2.44523,-5.01443
-63,-720,2.43323,5.04492,-0.00283299,0.0020494,0.00267917,0.00323276,-0.00401635,1.15488,0.00419342,0.0110199,1161,1744,2.43322,-5.04498
-56,-720,2.44287,5.07288,-0.00268282,0.00127538,0.00184044,0.00199888,-0.00340633,1.19624,0.00315577,0.012484,1168,1744,2.44288,-5.07291
-49,-720,2.4408,5.08093,-0.00228897,0.00147718,0.00170643,0.00213534,-0.00294713,1.20268,0.00294682,0.0179353,1175,1744,2.44082,-5.08088
-42,-720,2.46411,5.10266,-0.00149876,0.00137501,0.00159999,0.00208862,-0.00221237,1.15127,0.00248352,0.0203829,1182,1744,2.46414,-5.10265
-35,-720,2.48401,5.10876,-0.000908283,0.000902169,0.00125138,0.00154141,-0.00154752,1.09852,0.0017834,0.0182642,1189,1744,2.48406,-5.10882
-28,-720,2.46924,5.12671,-0.0006967,0.000540564,0.000847481,0.000971184,-0.00112732,1.10068,0.00121269,0.0109379,1196,1744,2.4692,-5.12669
-21,-720,2.44653,5.16003,-0.000503713,0.000188716,0.000727353,0.000648049,-0.000963045,1.00753,0.000936073,0.00886323,1203,1744,2.44656,-5.16009
-14,-720,2.43042,5.14563,-0.00031178,-0.000379178,0.000621419,0.000276853,-0.000967811,0.75831,0.000754615,0.0103989,1210,1744,2.43047,-5.14565
-7,-720,2.44507,5.16907,-0.000205309,-0.000986372,0.000552616,8.08421e-05,-0.00127252,0.477795,0.000876539,0.0118836,1217,1744,2.44509,-5.16911
0,-720,2.45654,5.19519,-0.000252526,-0.00129775,0.000460784,-7.83995e-05,-0.00147188,0.361304,0.000956192,0.0133835,1224,1744,2.45653,-5.19519
7,-720,2.46851,5.19019,-0.000518343,-0.00182787,0.000332683,-0.000438672,-0.00190754,0.235053,0.00115361,0.0153158,1231,1744,2.46854,-5.19018
14,-720,2.48364,5.19556,-0.000795701,-0.00226596,5.98041e-05,-0.000793272,-0.00226839,0.0405864,0.00132923,0.0141178,1238,1744,2.48364,-5.19551
21,-720,2.47095,5.21289,-0.00112458,-0.00259897,-0.000393472,-0.00102615,-0.0026974,-0.245138,0.00157212,0.0113356,1245,1744,2.47097,-5.21287
28,-720,2.47278,5.2251,-0.00132543,-0.00292006,-0.000820225,-0.000978858,-0.00326663,-0.39978,0.0019358,0.0113417,1252,1744,2.47275,-5.22505
35,-720,2.4679,5.23059,-0.00144248,-0.00310549,-0.00118308,-0.000827928,-0.00372004,-0.479086,0.00225529,0.0113847,1259,1744,2.4679,-5.23059
42,-720,2.44299,5.24231,-0.00147532,-0.00317079,-0.00155048,-0.000555952,-0.00409015,-0.535223,0.00256164,0.0115162,1266,1744,2.44297,-5.24229
49,-720,2.44763,5.22791,-0.00146215,-0.00320479,-0.00190247,-0.000240959,-0.00442598,-0.570657,0.0028737,0.0125019,1273,1744,2.44768,-5.2279
56,-720,2.47437,5.23889,-0.00133084,-0.00325565,-0.0021516,6.37877e-05,-0.00465027,-0.575096,0.00312166,0.010933,1280,1744,2.47436,-5.23884
63,-720,2.47559,5.24719,-0.0010281,-0.00312418,-0.00206864,0.000242839,-0.00439513,-0.550929,0.00301429,0.0121134,1287,1744,2.47564,-5.24718
70,-720,2.4884,5.23572,-0.000732774,-0.00294447,-0.0020008,0.000447447,-0.00412469,-0.53294,0.00291043,0.0125131,1294,1744,2.48845,-5.23573
77,-720,2.48572,5.22827,-0.000434863,-0.00276257,-0.00168586,0.00044986,-0.00364729,-0.483284,0.00259451,0.0141165,1301,1744,2.4857,-5.2283
84,-720,2.48425,5.229,-9.64484e-05,-0.00236739,-0.00126887,0.000470821,-0.00293466,-0.420412,0.00213079,0.014966,1308,1744,2.4843,-5.22906
91,-720,2.45984,5.24097,0.000314432,-0.00170627,-0.000786591,0.000584524,-0.00197637,-0.330756,0.00154961,0.014118,1315,1744,2.45979,-5.24094
98,-720,2.45166,5.23535,0.000761803,-0.000907618,-0.000314763,0.000819179,-0.000964994,-0.180302,0.00103124,0.0122123,1322,1744,2.45161,-5.23537
105,-720,2.47485,5.2395,0.00125041,-0.000352099,1.49806e-05,0.00125055,-0.000352239,0.00934708,0.000972613,0.0117008,1329,1744,2.47491,-5.23948
112,-720,2.4917,5.25488,0.00149289,0.000394603,0.000441154,0.00164814,0.00023935,0.33839,0.00102831,0.0106521,1336,1744,2.49167,-5.25485
119,-720,2.5011,5.2561,0.00187054,0.00122043,0.000922253,0.00252335,0.000567626,0.615967,0.00152857,0.0107074,1343,1744,2.50105,-5.25605
126,-720,2.50598,5.23828,0.00218447,0.00205702,0.00128721,0.00340953,0.000831953,0.760665,0.00205269,0.0108685,1350,1744,2.50603,-5.23824
133,-720,2.47815,5.22278,0.00225591,0.00307366,0.00162953,0.00434483,0.000984743,0.908319,0.00263048,0.0121033,1357,1744,2.47813,-5.22282
140,-720,2.46204,5.23157,0.00188482,0.00369808,0.00140455,0.00446319,0.0011197,1.072,0.00268133,0.0191877,1364,1744,2.46202,-5.23156
147,-720,2.46533,5.19385,0.00121822,0.00397983,0.00110699,0.00436879,0.000829268,1.23291,0.00267923,0.0203381,1371,1744,2.46531,-5.19388
154,-720,2.46948,5.16431,3.48592e-05,0.00410491,0.000723108,0.00422956,-8.97946e-05,1.40009,0.00285011,0.0134289,1378,1744,2.46951,-5.16431
161,-720,2.49536,5.15344,-0.00113482,0.00407955,0.000235591,0.00409018,-0.00114545,1.52574,0.00317817,0.00956695,1385,1744,2.49539,-5.1535
168,-720,2.51782,5.13477,-0.00217881,0.00365301,-0.000564484,0.00370714,-0.00223294,-1.47519,0.00346454,0.00942083,1392,1744,2.51787,-5.13478
175,-720,2.50964,5.11389,-0.0031584,0.0030383,-0.00129964,0.00329984,-0.00341994,-1.37221,0.00387987,0.0152938,1399,1744,2.50964,-5.11386
182,-720,2.49072,5.11511,-0.00407897,0.0023563,-0.00202956,0.00294291,-0.00466558,-1.28943,0.00443014,0.0159144,1406,1744,2.49077,-5.11514
189,-720,2.4823,5.08643,-0.00509129,0.00151847,-0.00275896,0.00251871,-0.00609153,-1.22299,0.00511179,0.0128276,1413,1744,2.48228,-5.08643
196,-720,2.49902,5.04614,-0.00579991,0.000608785,-0.00328667,0.00199465,-0.00718578,-1.17176,0.00557563,0.0141402,1420,1744,2.49899,-5.0462
203,-720,2.47717,5.01648,-0.0060319,-0.00018794,-0.00377793,0.00166614,-0.00788598,-1.11456,0.00589176,0.0163122,1427,1744,2.47716,-5.01647
210,-720,2.4895,5.02368,-0.0059995,-0.000709838,-0.00402923,0.00146507,-0.00817441,-1.07583,0.0059979,0.0130155,1434,1744,2.48952,-5.02371
217,-720,2.49988,5.00964,-0.00563193,-0.000812276,-0.00432382,0.00172792,-0.00817212,-1.03963,0.0061061,0.0123003,1441,1744,2.49982,-5.00963
224,-720,2.49524,4.9812,-0.00485982,-0.000524726,-0.00451468,0.00231578,-0.00770033,-1.0092,0.00605494,0.00990715,1448,1744,2.49528,-4.98124
231,-720,2.49683,4.94958,-0.00396858,0.00020962,-0.0048127,0.00336708,-0.00712604,-0.990167,0.00618642,0.0101656,1455,1744,2.49679,-4.94958
238,-720,2.49048,4.91882,-0.00300526,0.00109604,-0.00512939,0.0045695,-0.00647872,-0.975558,0.00641036,0.00838909,1462,1744,2.4905,-4.91882
245,-720,2.50818,4.89978,-0.00177852,0.00223666,-0.00526274,0.00586173,-0.0054036,-0.967615,0.00650583,0.0100588,1469,1744,2.5082,-4.89974
252,-720,2.51709,4.87744,-0.000757177,0.00372946,-0.00570946,0.0076205,-0.00464823,-0.972589,0.00715231,0.0110375,1476,1744,2.51703,-4.87744
259,-720,2.50977,4.86011,0.000337152,0.00528236,-0.00630707,0.00958419,-0.00396468,-0.97221,0.00804359,0.00978849,1483,1744,2.50976,-4.86016
266,-720,2.5061,4.82556,0.000905763,0.00675197,-0.00710558,0.0115122,-0.00385448,-0.980538,0.00923187,0.00788568,1490,1744,2.5061,-4.82552
273,-720,2.52417,4.77942,0.00120335,0.00812404,-0.00786576,0.013257,-0.00392957,-0.99262,0.0103983,0.0108472,1497,1744,2.52418,-4.77939
280,-720,2.51575,4.74182,0.00138304,0.00878941,-0.00866344,0.0145079,-0.00433549,-0.98737,0.0113954,0.0120549,1504,1744,2.51572,-4.74186
287,-720,2.49963,4.71606,0.00245332,0.00899224,-0.00931094,0.0155911,-0.0041455,-0.954244,0.0120166,0.0194454,1511,1744,2.49967,-4.71611
294,-720,2.52295,4.69873,0.00436969,0.00888282,-0.0107455,0.0176062,-0.00435368,-0.888894,0.0134261,0.0260598,1518,1744,2.52301,-4.69876
301,-720,2.52576,4.64661,0.00596999,0.00923306,-0.0118744,0.0195874,-0.00438439,-0.853671,0.0147388,0.0306376,1525,1744,2.52573,-4.64664
308,-720,2.30859,4.38721,0.00797603,0.0109229,-0.0128031,0.022337,-0.00343811,-0.842689,0.0161598,0.0313062,1532,1744,2.30861,-4.38724
315,-720,2.42688,4.3844,0.0106225,0.0137513,-0.0139286,0.0262031,-0.00182925,-0.841322,0.0181093,0.0362722,1539,1744,2.42689,-4.38439
322,-720,2.61194,4.38538,0.0129752,0.0164795,-0.0141557,0.0289911,0.000463577,-0.846974,0.0191747,0.0459966,1546,1744,2.6119,-4.38533
329,-720,2.91492,4.7157,0.0152959,0.0200372,-0.0154943,0.0333411,0.00199199,-0.861311,0.0215941,0.0453641,1553,1744,2.91492,-4.71566
336,-720,2.49548,4.53882,0.0178244,0.0220437,-0.0167429,0.0368094,0.00305869,-0.848069,0.0235862,0.0436402,1560,1744,2.49547,-4.53886
343,-720,3.00696,4.34839,0.0200923,0.0264612,-0.017519,0.0410828,0.00547069,-0.875302,0.0257593,0.0458948,1567,1744,3.00692,-4.34841
350,-720,3.17993,3.73328,0,0,0,0,0,0,0,-1,1574,1744,3.17998,-3.73328
357,-720,2.66785,2.60059,0.0119532,0.0353243,-0.0192142,0.0461274,0.00115015,-1.0586,0.0303755,0.0454864,1581,1744,2.66783,-2.60053
364,-720,2.80676,2.5946,0.00926675,0.0381006,-0.0184463,0.0470955,0.000271825,-1.1171,0.0313068,0.0493308,1588,1744,2.80676,-2.59459
371,-720,2.71899,2.3949,0.00682228,0.0398896,-0.0166409,0.0468141,-0.00010217,-1.17648,0.0312435,0.0481178,1595,1744,2.71896,-2.39484
378,-720,2.49658,2.41882,0,0,0,0,0,0,0,-1,1602,1744,2.49655,-2.41881
385,-720,3.60901,3.74304,0,0,0,0,0,0,0,-1,1609,1744,3.60905,-3.74307
392,-720,5.46191,4.65894,0,0,0,0,0,0,0,-1,1616,1744,5.46189,-4.65899
399,-720,4.54395,4.85132,0,0,0,0,0,0,0,-1,1623,1744,4.54391,-4.85129
406,-720,0,0,0,0,0,0,0,0,0,-1,1630,1744,0,0
413,-720,0,0,0,0,0,0,0,0,0,-1,1637,1744,0,0
420,-720,0,0,0,0,0,0,0,0,0,-1,1644,1744,0,0
427,-720,0,0,0,0,0,0,0,0,0,-1,1651,1744,0,0
434,-720,0,0,0,0,0,0,0,0,0,-1,1658,1744,0,0
441,-720,0,0,0,0,0,0,0,0,0,-1,1665,1744,0,0
448,-720,0,0,0,0,0,0,0,0,0,-1,1672,1744,0,0
455,-720,0,0,0,0,0,0,0,0,0,-1,1679,1744,0,0
462,-720,0,0,0,0,0,0,0,0,0,-1,1686,1744,0,0
469,-720,0,0,0,0,0,0,0,0,0,-1,1693,1744,0,0
476,-720,0,0,0,0,0,0,0,0,0,-1,1700,1744,0,0
483,-720,0,0,0,0,0,0,0,0,0,-1,1707,1744,0,0
490,-720,0,0,0,0,0,0,0,0,0,-1,1714,1744,0,0
497,-720,0,0,0,0,0,0,0,0,0,-1,1721,1744,0,0
504,-720,0,0,0,0,0,0,0,0,0,-1,1728,1744,0,0
511,-720,0,0,0,0,0,0,0,0,0,-1,1735,1744,0,0
518,-720,0,0,0,0,0,0,0,0,0,-1,1742,1744,0,0
525,-720,0,0,0,0,0,0,0,0,0,-1,1749,1744,0,0
532,-720,0,0,0,0,0,0,0,0,0,-1,1756,1744,0,0
539,-720,0,0,0,0,0,0,0,0,0,-1,1763,1744,0,0
546,-720,0,0,0,0,0,0,0,0,0,-1,1770,1744,0,0
553,-720,0,0,0,0,0,0,0,0,0,-1,1777,1744,0,0
560,-720,0,0,0,0,0,0,0,0,0,-1,1784,1744,0,0
567,-720,0,0,0,0,0,0,0,0,0,-1,1791,1744,0,0
574,-720,0,0,0,0,0,0,0,0,0,-1,1798,1744,0,0
581,-720,0,0,0,0,0,0,0,0,0,-1,1805,1744,0,0
588,-720,0,0,0,0,0,0,0,0,0,-1,1812,1744,0,0
595,-720,0,0,0,0,0,0,0,0,0,-1,1819,1744,0,0
602,-720,0,0,0,0,0,0,0,0,0,-1,1826,1744,0,0
609,-720,0,0,0,0,0,0,0,0,0,-1,1833,1744,0,0
616,-720,0,0,0,0,0,0,0,0,0,-1,1840,1744,0,0
623,-720,0,0,0,0,0,0,0,0,0,-1,1847,1744,0,0
630,-720,0,0,0,0,0,0,0,0,0,-1,1854,1744,0,0
637,-720,0,0,0,0,0,0,0,0,0,-1,1861,1744,0,0
644,-720,0,0,0,0,0,0,0,0,0,-1,1868,1744,0,0
651,-720,0,0,0,0,0,0,0,0,0,-1,1875,1744,0,0
658,-720,0,0,0,0,0,0,0,0,0,-1,1882,1744,0,0
665,-720,0,0,0,0,0,0,0,0,0,-1,1889,1744,0,0
672,-720,0,0,0,0,0,0,0,0,0,-1,1896,1744,0,0
679,-720,0,0,0,0,0,0,0,0,0,-1,1903,1744,0,0
686,-720,0,0,0,0,0,0,0,0,0,-1,1910,1744,0,0
693,-720,0,0,0,0,0,0,0,0,0,-1,1917,1744,0,0
700,-720,0,0,0,0,0,0,0,0,0,-1,1924,1744,0,0
707,-720,0,0,0,0,0,0,0,0,0,-1,1931,1744,0,0
714,-720,0,0,0,0,0,0,0,0,0,-1,1938,1744,0,0
721,-720,0,0,0,0,0,0,0,0,0,-1,1945,1744,0,0
728,-720,0,0,0,0,0,0,0,0,0,-1,1952,1744,0,0
735,-720,0,0,0,0,0,0,0,0,0,-1,1959,1744,0,0
742,-720,0,0,0,0,0,0,0,0,0,-1,1966,1744,0,0
749,-720,0,0,0,0,0,0,0,0,0,-1,1973,1744,0,0
756,-720,0,0,0,0,0,0,0,0,0,-1,1980,1744,0,0
763,-720,0,0,0,0,0,0,0,0,0,-1,1987,1744,0,0
770,-720,0,0,0,0,0,0,0,0,0,-1,1994,1744,0,0
777,-720,0,0,0,0,0,0,0,0,0,-1,2001,1744,0,0
784,-720,0,0,0,0,0,0,0,0,0,-1,2008,1744,0,0
791,-720,0,0,0,0,0,0,0,0,0,-1,2015,1744,0,0
798,-720,0,0,0,0,0,0,0,0,0,-1,2022,1744,0,0
805,-720,0,0,0,0,0,0,0,0,0,-1,2029,1744,0,0
812,-720,0,0,0,0,0,0,0,0,0,-1,2036,1744,0,0
-700,-727,0,0,0,0,0,0,0,0,0,-1,524,1751,0,0
-693,-727,0,0,0,0,0,0,0,0,0,-1,531,1751,0,0
-686,-727,0,0,0,0,0,0,0,0,0,-1,538,1751,0,0
-679,-727,0,0,0,0,0,0,0,0,0,-1,545,1751,0,0
-672,-727,0,0,0,0,0,0,0,0,0,-1,552,1751,0,0
-665,-727,0,0,0,0,0,0,0,0,0,-1,559,1751,0,0
-658,-727,0,0,0,0,0,0,0,0,0,-1,566,1751,0,0
-651,-727,0,0,0,0,0,0,0,0,0,-1,573,1751,0,0
-644,-727,0,0,0,0,0,0,0,0,0,-1,580,1751,0,0
-637,-727,0,0,0,0,0,0,0,0,0,-1,587,1751,0,0
-630,-727,0,0,0,0,0,0,0,0,0,-1,594,1751,0,0
-623,-727,0,0,0,0,0,0,0,0,0,-1,601,1751,0,0
-616,-727,0,0,0,0,0,0,0,0,0,-1,608,1751,0,0
-609,-727,0,0,0,0,0,0,0,0,0,-1,615,1751,0,0
-602,-727,0,0,0,0,0,0,0,0,0,-1,622,1751,0,0
-595,-727,0,0,0,0,0,0,0,0,0,-1,629,1751,0,0
-588,-727,0,0,0,0,0,0,0,0,0,-1,636,1751,0,0
-581,-727,0,0,0,0,0,0,0,0,0,-1,643,1751,0,0
-574,-727,0,0,0,0,0,0,0,0,0,-1,650,1751,0,0
-567,-727,0,0,0,0,0,0,0,0,0,-1,657,1751,0,0
-560,-727,0,0,0,0,0,0,0,0,0,-1,664,1751,0,0
-553,-727,0,0,0,0,0,0,0,0,0,-1,671,1751,0,0
-546,-727,0,0,0,0,0,0,0,0,0,-1,678,1751,0,0
-539,-727,0,0,0,0,0,0,0,0,0,-1,685,1751,0,0
-532,-727,0,0,0,0,0,0,0,0,0,-1,692,1751,0,0
-525,-727,0,0,0,0,0,0,0,0,0,-1,699,1751,0,0
-518,-727,0,0,0,0,0,0,0,0,0,-1,706,1751,0,0
-511,-727,0,0,0,0,0,0,0,0,0,-1,713,1751,0,0
-504,-727,0,0,0,0,0,0,0,0,0,-1,720,1751,0,0
-497,-727,0,0,0,0,0,0,0,0,0,-1,727,1751,0,0
-490,-727,0,0,0,0,0,0,0,0,0,-1,734,1751,0,0
-483,-727,0,0,0,0,0,0,0,0,0,-1,741,1751,0,0
-476,-727,0,0,0,0,0,0,0,0,0,-1,748,1751,0,0
-469,-727,0,0,0,0,0,0,0,0,0,-1,755,1751,0,0
-462,-727,0,0,0,0,0,0,0,0,0,-1,762,1751,0,0
-455,-727,0,0,0,0,0,0,0,0,0,-1,769,1751,0,0
-448,-727,0,0,0,0,0,0,0,0,0,-1,776,1751,0,0
-441,-727,0,0,0,0,0,0,0,0,0,-1,783,1751,0,0
-434,-727,0,0,0,0,0,0,0,0,0,-1,790,1751,0,0
-427,-727,0,0,0,0,0,0,0,0,0,-1,797,1751,0,0
-420,-727,0,0,0,0,0,0,0,0,0,-1,804,1751,0,0
-413,-727,0,0,0,0,0,0,0,0,0,-1,811,1751,0,0
-406,-727,0,0,0,0,0,0,0,0,0,-1,818,1751,0,0
-399,-727,0,0,0,0,0,0,0,0,0,-1,825,1751,0,0
-392,-727,0,0,0,0,0,0,0,0,0,-1,832,1751,0,0
-385,-727,0,0,0,0,0,0,0,0,0,-1,839,1751,0,0
-378,-727,0,0,0,0,0,0,0,0,0,-1,846,1751,0,0
-371,-727,0,0,0,0,0,0,0,0,0,-1,853,1751,0,0
-364,-727,0,0,0,0,0,0,0,0,0,-1,860,1751,0,0
-357,-727,0,0,0,0,0,0,0,0,0,-1,867,1751,0,0
-350,-727,0,0,0,0,0,0,0,0,0,-1,874,1751,0,0
-343,-727,0,0,0,0,0,0,0,0,0,-1,881,1751,0,0
-336,-727,0,0,0,0,0,0,0,0,0,-1,888,1751,0,0
-329,-727,0,0,0,0,0,0,0,0,0,-1,895,1751,0,0
-322,-727,0,0,0,0,0,0,0,0,0,-1,902,1751,0,0
-315,-727,0,0,0,0,0,0,0,0,0,-1,909,1751,0,0
-308,-727,0,0,0,0,0,0,0,0,0,-1,916,1751,0,0
-301,-727,0,0,0,0,0,0,0,0,0,-1,923,1751,0,0
-294,-727,0,0,0,0,0,0,0,0,0,-1,930,1751,0,0
-287,-727,0,0,0,0,0,0,0,0,0,-1,937,1751,0,0
-280,-727,0,0,0,0,0,0,0,0,0,-1,944,1751,0,0
-273,-727,0,0,0,0,0,0,0,0,0,-1,951,1751,0,0
-266,-727,1.72534,3.44751,0.03997,0.00551047,-0.00392371,0.0404112,0.00506934,-0.111955,0.02542,0.0459712,958,1751,1.72536,-3.44748
-259,-727,2.08923,3.40527,0.0225784,0.00961321,-0.00153099,0.0227568,0.00943487,-0.11596,0.0132024,0.0475136,965,1751,2.08925,-3.40523
-252,-727,2.6106,3.38464,0.0121579,0.0126932,-0.00230676,0.0147478,0.0101033,-0.843151,0.00870689,0.0454779,972,1751,2.61062,-3.3847
-245,-727,2.48419,3.25378,0.00363209,0.0146384,-0.00229457,0.0150976,0.00317288,-1.37328,0.00919182,0.0446118,979,1751,2.48419,-3.25376
-238,-727,2.37085,3.51013,-0.0021798,0.0163644,-0.0022907,0.0166431,-0.00245858,-1.44969,0.0119992,0.0460932,986,1751,2.37085,-3.51009
-231,-727,2.25201,3.83789,-0.0070587,0.0144559,-0.00308379,0.0148892,-0.00749199,-1.43121,0.0131549,0.0473131,993,1751,2.252,-3.83785
-224,-727,2.12793,4.17749,0,0,0,0,0,0,0,-1,1000,1751,2.12796,-4.17751
-217,-727,3.40991,3.70654,-0.0116133,0.00545716,-0.00799685,0.00861806,-0.0147742,-1.19437,0.0136606,0.0453698,1007,1751,3.40993,-3.70654
-210,-727,3.2323,4.06726,-0.0128088,0.00241664,-0.0092408,0.00677664,-0.0171688,-1.12995,0.0142523,0.0454219,1014,1751,3.23232,-4.06729
-203,-727,2.87238,4.25305,-0.0127,-0.000436218,-0.011474,0.00644165,-0.0195778,-1.0308,0.0156475,0.0462715,1021,1751,2.87238,-4.25305
-196,-727,2.40479,4.4032,0,0,0,0,0,0,0,-1,1028,1751,2.4048,-4.40325
-189,-727,2.50232,3.98889,0,0,0,0,0,0,0,-1,1035,1751,2.50237,-3.98891
-182,-727,3.00183,5.50732,0,0,0,0,0,0,0,-1,1042,1751,3.00187,-5.50732
-175,-727,2.69702,4.78687,0,0,0,0,0,0,0,-1,1049,1751,2.69704,-4.78693
-168,-727,2.68408,4.74231,-0.00724554,-0.00232253,-0.0172793,0.0126697,-0.0222378,-0.856149,0.0204046,0.0438633,1056,1751,2.68404,-4.74233
-161,-727,2.59875,4.74707,-0.00635293,0.00138522,-0.0154603,0.0134532,-0.0184209,-0.908009,0.0184769,0.0406128,1063,1751,2.59871,-4.74711
-154,-727,2.56335,4.71338,-0.00574026,0.0043407,-0.0137298,0.0139261,-0.0153256,-0.96132,0.0168949,0.035827,1070,1751,2.56333,-4.71336
-147,-727,2.52527,4.71631,-0.00599509,0.00728174,-0.0115246,0.0139431,-0.0126565,-1.0467,0.0153633,0.0301324,1077,1751,2.52523,-4.71637
-140,-727,2.48633,4.69104,-0.00709854,0.0104896,-0.00876417,0.0141111,-0.01072,-1.17895,0.0143808,0.0196388,1084,1751,2.48627,-4.69108
-133,-727,2.4657,4.70581,-0.00795562,0.01232,-0.00545182,0.0136929,-0.00932857,-1.32409,0.0133709,0.0139873,1091,1751,2.46576,-4.70578
-126,-727,2.45374,4.75928,-0.00798729,0.0137663,-0.00253063,0.0140568,-0.00827781,-1.4565,0.013038,0.0108372,1098,1751,2.45374,-4.75926
-119,-727,2.48157,4.81836,-0.00801999,0.0140459,7.3607e-05,0.0140462,-0.00802023,1.56746,0.0128974,0.00992339,1105,1751,2.48153,-4.81832
-112,-727,2.48303,4.84082,-0.00807018,0.013649,0.00229674,0.0138893,-0.00831039,1.46658,0.0129512,0.0125109,1112,1751,2.48307,-4.84087
-105,-727,2.46655,4.87769,-0.00818064,0.0123061,0.00396048,0.0130451,-0.00891962,1.38633,0.0127557,0.0131677,1119,1751,2.46656,-4.87771
-98,-727,2.474,4.89673,-0.00808981,0.0103384,0.00526804,0.011738,-0.00948947,1.31111,0.0122786,0.0108151,1126,1751,2.47401,-4.89667
-91,-727,2.47937,4.91943,-0.00775913,0.0081288,0.00553219,0.00986532,-0.00949565,1.26664,0.0111787,0.0101017,1133,1751,2.47932,-4.91945
-84,-727,2.45911,4.95605,-0.00720862,0.00632405,0.00563512,0.00836328,-0.00924784,1.22358,0.0101721,0.0102953,1140,1751,2.45916,-4.956
-77,-727,2.47009,4.99805,-0.00614809,0.00460346,0.00556956,0.00696842,-0.00851304,1.16925,0.00895304,0.0111734,1147,1751,2.47005,-4.99805
-70,-727,2.46997,5.0304,-0.00493174,0.00330575,0.00520488,0.00582438,-0.00745038,1.12011,0.00768333,0.011832,1154,1751,2.46995,-5.03034
-63,-727,2.46106,5.05688,-0.00412647,0.00281395,0.00464967,0.00514562,-0.00645814,1.10597,0.00671371,0.0100958,1161,1751,2.46109,-5.05688
-56,-727,2.45544,5.06067,-0.00384267,0.00149348,0.00345803,0.00319308,-0.00554227,1.11398,0.00510378,0.0103716,1168,1751,2.4554,-5.06071
-49,-727,2.45313,5.07397,-0.00326314,0.00187669,0.0033366,0.00351835,-0.0049048,1.11356,0.00488502,0.0128386,1175,1751,2.45311,-5.074
-42,-727,2.44604,5.09656,-0.00180706,0.00167328,0.00322125,0.00359435,-0.00372812,1.03305,0.00422787,0.0160502,1182,1751,2.44599,-5.09659
-35,-727,2.4585,5.10083,-0.000786045,0.00101093,0.00242579,0.00269928,-0.0024744,0.962759,0.00298797,0.0146496,1189,1751,2.45853,-5.10089
-28,-727,2.45447,5.11243,-0.000626335,0.000629461,0.00157598,0.00169802,-0.00169489,0.974969,0.0019589,0.00895971,1196,1751,2.45447,-5.11245
-21,-727,2.45508,5.14673,-0.000492344,0.000304979,0.00117689,0.0011489,-0.00133626,0.948703,0.00143617,0.00955247,1203,1751,2.45504,-5.14671
-14,-727,2.46216,5.1571,-0.000318428,-0.00018005,0.000856875,0.000610425,-0.0011089,0.825684,0.00100646,0.010595,1210,1751,2.4621,-5.15705
-7,-727,2.47375,5.18274,-0.000171839,-0.000526386,0.000599757,0.000276295,-0.000974519,0.641702,0.000758736,0.0145963,1217,1751,2.47381,-5.18274
0,-727,2.47095,5.20898,-5.83597e-05,-0.000725225,0.000294558,5.31142e-05,-0.000836699,0.361787,0.000576321,0.0154005,1224,1751,2.4709,-5.20904
7,-727,2.46423,5.20874,-0.000177895,-0.00110753,0.000126029,-0.000161112,-0.00112431,0.132385,0.000702028,0.0147741,1231,1751,2.46425,-5.20872
14,-727,2.47363,5.2196,-0.00024353,-0.00134071,-8.69811e-06,-0.000243461,-0.00134078,-0.00792705,0.000824763,0.014155,1238,1751,2.47366,-5.21963
21,-727,2.47388,5.22839,-0.00043879,-0.00134284,-0.000271565,-0.000363487,-0.00141814,-0.270495,0.000850559,0.0121029,1245,1751,2.47383,-5.22837
28,-727,2.48669,5.21033,-0.000557667,-0.00127449,-0.000439651,-0.000348846,-0.00148331,-0.443424,0.000895532,0.0112847,1252,1751,2.48664,-5.2103
35,-727,2.49756,5.21851,-0.000534342,-0.00118473,-0.000549036,-0.000221421,-0.00149765,-0.518028,0.000933424,0.0115457,1259,1751,2.49752,-5.21853
42,-727,2.45801,5.22937,-0.000476734,-0.00106758,-0.000686245,-2.50235e-05,-0.00151929,-0.582143,0.00100462,0.0121797,1266,1751,2.45806,-5.22936
49,-727,2.43408,5.22534,-0.000433697,-0.000944416,-0.000858232,0.000206361,-0.00158447,-0.640798,0.00113139,0.0124848,1273,1751,2.43409,-5.22538
56,-727,2.4585,5.24805,-0.000358829,-0.000881961,-0.000997592,0.000410918,-0.00165171,-0.657185,0.00126064,0.0109897,1280,1751,2.45848,-5.248
63,-727,2.49316,5.24023,-0.000252186,-0.000621565,-0.000860436,0.000443158,-0.00131691,-0.679679,0.00105709,0.0117719,1287,1751,2.49321,-5.24019
70,-727,2.49756,5.22778,-0.000150741,-0.000463836,-0.000646823,0.00035821,-0.000972786,-0.666669,0.000795289,0.0131027,1294,1751,2.49755,-5.22774
77,-727,2.48572,5.23108,4.20098e-06,-0.000394364,-0.000392583,0.000245186,-0.000635348,-0.550536,0.000524748,0.0150411,1301,1751,2.48568,-5.2311
84,-727,2.48645,5.21069,8.99724e-05,-0.00037017,-6.52666e-05,9.90508e-05,-0.000379249,-0.138209,0.000291514,0.0173693,1308,1751,2.4864,-5.21069
91,-727,2.47949,5.19983,0.000221752,-0.000152784,0.000249162,0.000346174,-0.000277207,0.463139,0.000360643,0.0173195,1315,1751,2.47954,-5.19989
98,-727,2.47705,5.22559,0.000415748,0.000163205,0.000584276,0.000887242,-0.000308289,0.678977,0.000716711,0.0135049,1322,1751,2.47711,-5.22563
105,-727,2.49463,5.23987,0.000621709,0.000358093,0.0008449,0.00134502,-0.000365218,0.70802,0.00104002,0.0126532,1329,1751,2.49466,-5.23989
112,-727,2.49585,5.23987,0.000730087,0.000640467,0.00120839,0.0018945,-0.000523945,0.766865,0.00146913,0.0113191,1336,1751,2.49582,-5.23989
119,-727,2.50012,5.23303,0.00111122,0.000897475,0.00159351,0.00260143,-0.000592743,0.751915,0.00196195,0.00886765,1343,1751,2.5001,-5.23307
126,-727,2.50659,5.22046,0.00160875,0.00111155,0.00200283,0.00337835,-0.000658041,0.723652,0.00250061,0.00981574,1350,1751,2.50655,-5.22042
133,-727,2.48889,5.23218,0.00202276,0.00150117,0.00238875,0.00416491,-0.000640971,0.731025,0.00301307,0.0142164,1357,1751,2.48888,-5.23221
140,-727,2.48157,5.23706,0.00199678,0.00178548,0.00207879,0.00397261,-0.000190346,0.760009,0.00271408,0.0219323,1364,1751,2.48154,-5.23711
147,-727,2.48291,5.19556,0.00167536,0.00172803,0.00172038,0.00342228,-1.88885e-05,0.793051,0.00228784,0.0184325,1371,1751,2.48296,-5.19558
154,-727,2.47876,5.16272,0.000596118,0.00154955,0.00111548,0.00228591,-0.000140244,0.987333,0.00157277,0.0111015,1378,1751,2.47873,-5.1627
161,-727,2.49646,5.16187,-0.000391523,0.00120505,0.000386501,0.0012937,-0.000480166,1.34535,0.00105943,0.00896556,1385,1751,2.49641,-5.16184
168,-727,2.49146,5.1438,-0.00127824,0.000401957,-0.00078813,0.000713776,-0.00159006,-1.19405,0.00136181,0.0111037,1392,1751,2.49145,-5.14379
175,-727,2.50354,5.12219,-0.00222862,-0.000429828,-0.00203654,0.000897077,-0.00355552,-0.993334,0.00271916,0.0167865,1399,1751,2.50353,-5.12221
182,-727,2.51196,5.11084,-0.00321982,-0.00119625,-0.00323357,0.00118013,-0.0055962,-0.937024,0.00418008,0.0200224,1406,1751,2.512,-5.1108
189,-727,2.47546,5.08716,-0.0043933,-0.00203109,-0.0044172,0.00136019,-0.00778458,-0.916036,0.0056975,0.0121238,1413,1751,2.4754,-5.08721
196,-727,2.47852,5.06238,-0.00532312,-0.00293047,-0.00533994,0.00134551,-0.0095991,-0.895595,0.00689183,0.0130819,1420,1751,2.47856,-5.06235
203,-727,2.4679,5.02844,-0.00574868,-0.00362485,-0.00620127,0.00160477,-0.0109783,-0.870197,0.00790825,0.0158668,1427,1751,2.46794,-5.0285
210,-727,2.46997,5.02856,-0.00590204,-0.00390756,-0.00672761,0.00189632,-0.0117059,-0.858978,0.0085068,0.0146328,1434,1751,2.46999,-5.02862
217,-727,2.47131,5.01782,-0.00567565,-0.0036204,-0.00729024,0.00271429,-0.0120103,-0.855416,0.00904839,0.0104933,1441,1751,2.4713,-5.01783
224,-727,2.46985,4.9729,-0.00501186,-0.00278945,-0.00770756,0.0038866,-0.0116879,-0.85699,0.00936041,0.0113267,1448,1751,2.46988,-4.97286
231,-727,2.47058,4.93628,-0.00419561,-0.00137421,-0.0082092,0.00554462,-0.0111144,-0.870489,0.00979566,0.00995246,1455,1751,2.47059,-4.93633
238,-727,2.48108,4.90466,-0.00325518,0.000191009,-0.00855104,0.00719083,-0.010255,-0.88482,0.010124,0.00990391,1462,1751,2.48113,-4.90467
245,-727,2.48865,4.88916,-0.00188815,0.00174883,-0.00854148,0.00866326,-0.00880258,-0.890283,0.010084,0.00895646,1469,1751,2.48868,-4.88915
252,-727,2.48425,4.87195,-0.000720478,0.00379939,-0.00895275,0.010773,-0.00769412,-0.90903,0.0107113,0.0098962,1476,1751,2.48421,-4.87196
259,-727,2.47168,4.84949,0.000723798,0.00570741,-0.00936952,0.0129108,-0.0064796,-0.915364,0.0113985,0.0119806,1483,1751,2.47172,-4.84944
266,-727,2.4845,4.83264,0.00141159,0.0074505,-0.010111,0.0149833,-0.00612121,-0.930498,0.0125377,0.0157848,1490,1751,2.48447,-4.83262
273,-727,2.53821,4.79553,0.0017511,0.00905931,-0.0108103,0.0168164,-0.00600596,-0.94838,0.0136603,0.0233509,1497,1751,2.53822,-4.79555
280,-727,2.52527,4.75696,0.00199534,0.00973531,-0.0115755,0.0180706,-0.00633994,-0.94672,0.0146258,0.0332912,1504,1751,2.52524,-4.75692
287,-727,2.49744,4.68689,0.00333653,0.00969084,-0.012271,0.0191893,-0.00616193,-0.912074,0.0152671,0.0371843,1511,1751,2.49741,-4.68684
294,-727,2.52844,4.56177,0.00578082,0.00921606,-0.0139323,0.0215362,-0.00653937,-0.84673,0.0169628,0.039018,1518,1751,2.52838,-4.56181
301,-727,2.59558,4.44299,0.00794553,0.00917123,-0.0152454,0.023816,-0.00669929,-0.805487,0.0185189,0.0433669,1525,1751,2.59561,-4.44302
308,-727,1.99182,4.03589,0,0,0,0,0,0,0,-1,1532,1751,1.99184,-4.03585
315,-727,2.24951,4.12866,0,0,0,0,0,0,0,-1,1539,1751,2.24951,-4.12863
322,-727,2.58215,4.15417,0,0,0,0,0,0,0,-1,1546,1751,2.58215,-4.15416
329,-727,2.44458,4.78333,0,0,0,0,0,0,0,-1,1553,1751,2.44459,-4.78333
336,-727,2.52795,4.45862,0.0237803,0.0238068,-0.0206713,0.0444649,0.00312226,-0.785719,0.0286592,0.0469379,1560,1751,2.52796,-4.45867
343,-727,3.5083,4.2832,0.027485,0.030034,-0.0215542,0.0503513,0.00716764,-0.814929,0.0314518,0.0481734,1567,1751,3.50834,-4.28324
350,-727,3.86035,3.31458,0,0,0,0,0,0,0,-1,1574,1751,3.8603,-3.31458
357,-727,2.50403,1.96057,0,0,0,0,0,0,0,-1,1581,1751,2.50409,-1.96062
364,-727,2.52673,1.87439,0,0,0,0,0,0,0,-1,1588,1751,2.52679,-1.87443
371,-727,2.31189,2.13818,0.00706035,0.0461383,-0.0179773,0.0531503,4.83561e-05,-1.1989,0.0354175,0.0485576,1595,1751,2.31188,-2.13822
378,-727,2.16418,2.16663,0,0,0,0,0,0,0,-1,1602,1751,2.16414,-2.16667
385,-727,1.87744,2.52588,0,0,0,0,0,0,0,-1,1609,1751,1.87746,-2.52594
392,-727,0,0,0,0,0,0,0,0,0,-1,1616,1751,0,0
399,-727,0,0,0,0,0,0,0,0,0,-1,1623,1751,0,0
406,-727,0,0,0,0,0,0,0,0,0,-1,1630,1751,0,0
413,-727,0,0,0,0,0,0,0,0,0,-1,1637,1751,0,0
420,-727,0,0,0,0,0,0,0,0,0,-1,1644,1751,0,0
427,-727,0,0,0,0,0,0,0,0,0,-1,1651,1751,0,0
434,-727,0,0,0,0,0,0,0,0,0,-1,1658,1751,0,0
441,-727,0,0,0,0,0,0,0,0,0,-1,1665,1751,0,0
448,-727,0,0,0,0,0,0,0,0,0,-1,1672,1751,0,0
455,-727,0,0,0,0,0,0,0,0,0,-1,1679,1751,0,0
462,-727,0,0,0,0,0,0,0,0,0,-1,1686,1751,0,0
469,-727,0,0,0,0,0,0,0,0,0,-1,1693,1751,0,0
476,-727,0,0,0,0,0,0,0,0,0,-1,1700,1751,0,0
483,-727,0,0,0,0,0,0,0,0,0,-1,1707,1751,0,0
490,-727,0,0,0,0,0,0,0,0,0,-1,1714,1751,0,0
497,-727,0,0,0,0,0,0,0,0,0,-1,1721,1751,0,0
504,-727,0,0,0,0,0,0,0,0,0,-1,1728,1751,0,0
511,-727,0,0,0,0,0,0,0,0,0,-1,1735,1751,0,0
518,-727,0,0,0,0,0,0,0,0,0,-1,1742,1751,0,0
525,-727,0,0,0,0,0,0,0,0,0,-1,1749,1751,0,0
532,-727,0,0,0,0,0,0,0,0,0,-1,1756,1751,0,0
539,-727,0,0,0,0,0,0,0,0,0,-1,1763,1751,0,0
546,-727,0,0,0,0,0,0,0,0,0,-1,1770,1751,0,0
553,-727,0,0,0,0,0,0,0,0,0,-1,1777,1751,0,0
560,-727,0,0,0,0,0,0,0,0,0,-1,1784,1751,0,0
567,-727,0,0,0,0,0,0,0,0,0,-1,1791,1751,0,0
574,-727,0,0,0,0,0,0,0,0,0,-1,1798,1751,0,0
581,-727,0,0,0,0,0,0,0,0,0,-1,1805,1751,0,0
588,-727,0,0,0,0,0,0,0,0,0,-1,1812,1751,0,0
595,-727,0,0,0,0,0,0,0,0,0,-1,1819,1751,0,0
602,-727,0,0,0,0,0,0,0,0,0,-1,1826,1751,0,0
609,-727,0,0,0,0,0,0,0,0,0,-1,1833,1751,0,0
616,-727,0,0,0,0,0,0,0,0,0,-1,1840,1751,0,0
623,-727,0,0,0,0,0,0,0,0,0,-1,1847,1751,0,0
630,-727,0,0,0,0,0,0,0,0,0,-1,1854,1751,0,0
637,-727,0,0,0,0,0,0,0,0,0,-1,1861,1751,0,0
644,-727,0,0,0,0,0,0,0,0,0,-1,1868,1751,0,0
651,-727,0,0,0,0,0,0,0,0,0,-1,1875,1751,0,0
658,-727,0,0,0,0,0,0,0,0,0,-1,1882,1751,0,0
665,-727,0,0,0,0,0,0,0,0,0,-1,1889,1751,0,0
672,-727,0,0,0,0,0,0,0,0,0,-1,1896,1751,0,0
679,-727,0,0,0,0,0,0,0,0,0,-1,1903,1751,0,0
686,-727,0,0,0,0,0,0,0,0,0,-1,1910,1751,0,0
693,-727,0,0,0,0,0,0,0,0,0,-1,1917,1751,0,0
700,-727,0,0,0,0,0,0,0,0,0,-1,1924,1751,0,0
707,-727,0,0,0,0,0,0,0,0,0,-1,1931,1751,0,0
714,-727,0,0,0,0,0,0,0,0,0,-1,1938,1751,0,0
721,-727,0,0,0,0,0,0,0,0,0,-1,1945,1751,0,0
728,-727,0,0,0,0,0,0,0,0,0,-1,1952,1751,0,0
735,-727,0,0,0,0,0,0,0,0,0,-1,1959,1751,0,0
742,-727,0,0,0,0,0,0,0,0,0,-1,1966,1751,0,0
749,-727,0,0,0,0,0,0,0,0,0,-1,1973,1751,0,0
756,-727,0,0,0,0,0,0,0,0,0,-1,1980,1751,0,0
763,-727,0,0,0,0,0,0,0,0,0,-1,1987,1751,0,0
770,-727,0,0,0,0,0,0,0,0,0,-1,1994,1751,0,0
777,-727,0,0,0,0,0,0,0,0,0,-1,2001,1751,0,0
784,-727,0,0,0,0,0,0,0,0,0,-1,2008,1751,0,0
791,-727,0,0,0,0,0,0,0,0,0,-1,2015,1751,0,0
798,-727,0,0,0,0,0,0,0,0,0,-1,2022,1751,0,0
805,-727,0,0,0,0,0,0,0,0,0,-1,2029,1751,0,0
812,-727,0,0,0,0,0,0,0,0,0,-1,2036,1751,0,0
-700,-734,0,0,0,0,0,0,0,0,0,-1,524,1758,0,0
-693,-734,0,0,0,0,0,0,0,0,0,-1,531,1758,0,0
-686,-734,0,0,0,0,0,0,0,0,0,-1,538,1758,0,0
-679,-734,0,0,0,0,0,0,0,0,0,-1,545,1758,0,0
-672,-734,0,0,0,0,0,0,0,0,0,-1,552,1758,0,0
-665,-734,0,0,0,0,0,0,0,0,0,-1,559,1758,0,0
-658,-734,0,0,0,0,0,0,0,0,0,-1,566,1758,0,0
-651,-734,0,0,0,0,0,0,0,0,0,-1,573,1758,0,0
-644,-734,0,0,0,0,0,0,0,0,0,-1,580,1758,0,0
-637,-734,0,0,0,0,0,0,0,0,0,-1,587,1758,0,0
-630,-734,0,0,0,0,0,0,0,0,0,-1,594,1758,0,0
-623,-734,0,0,0,0,0,0,0,0,0,-1,601,1758,0,0
-616,-734,0,0,0,0,0,0,0,0,0,-1,608,1758,0,0
-609,-734,0,0,0,0,0,0,0,0,0,-1,615,1758,0,0
-602,-734,0,0,0,0,0,0,0,0,0,-1,622,1758,0,0
-595,-734,0,0,0,0,0,0,0,0,0,-1,629,1758,0,0
-588,-734,0,0,0,0,0,0,0,0,0,-1,636,1758,0,0
-581,-734,0,0,0,0,0,0,0,0,0,-1,643,1758,0,0
-574,-734,0,0,0,0,0,0,0,0,0,-1,650,1758,0,0
-567,-734,0,0,0,0,0,0,0,0,0,-1,657,1758,0,0
-560,-734,0,0,0,0,0,0,0,0,0,-1,664,1758,0,0
-553,-734,0,0,0,0,0,0,0,0,0,-1,671,1758,0,0
-546,-734,0,0,0,0,0,0,0,0,0,-1,678,1758,0,0
-539,-734,0,0,0,0,0,0,0,0,0,-1,685,1758,0,0
-532,-734,0,0,0,0,0,0,0,0,0,-1,692,1758,0,0
-525,-734,0,0,0,0,0,0,0,0,0,-1,699,1758,0,0
-518,-734,0,0,0,0,0,0,0,0,0,-1,706,1758,0,0
-511,-734,0,0,0,0,0,0,0,0,0,-1,713,1758,0,0
-504,-734,0,0,0,0,0,0,0,0,0,-1,720,1758,0,0
-497,-734,0,0,0,0,0,0,0,0,0,-1,727,1758,0,0
-490,-734,0,0,0,0,0,0,0,0,0,-1,734,1758,0,0
-483,-734,0,0,0,0,0,0,0,0,0,-1,741,1758,0,0
-476,-734,0,0,0,0,0,0,0,0,0,-1,748,1758,0,0
-469,-734,0,0,0,0,0,0,0,0,0,-1,755,1758,0,0
-462,-734,0,0,0,0,0,0,0,0,0,-1,762,1758,0,0
-455,-734,0,0,0,0,0,0,0,0,0,-1,769,1758,0,0
-448,-734,0,0,0,0,0,0,0,0,0,-1,776,1758,0,0
-441,-734,0,0,0,0,0,0,0,0,0,-1,783,1758,0,0
-434,-734,0,0,0,0,0,0,0,0,0,-1,790,1758,0,0
-427,-734,0,0,0,0,0,0,0,0,0,-1,797,1758,0,0
-420,-734,0,0,0,0,0,0,0,0,0,-1,804,1758,0,0
-413,-734,0,0,0,0,0,0,0,0,0,-1,811,1758,0,0
-406,-734,0,0,0,0,0,0,0,0,0,-1,818,1758,0,0
-399,-734,0,0,0,0,0,0,0,0,0,-1,825,1758,0,0
-392,-734,0,0,0,0,0,0,0,0,0,-1,832,1758,0,0
-385,-734,0,0,0,0,0,0,0,0,0,-1,839,1758,0,0
-378,-734,0,0,0,0,0,0,0,0,0,-1,846,1758,0,0
-371,-734,0,0,0,0,0,0,0,0,0,-1,853,1758,0,0
-364,-734,0,0,0,0,0,0,0,0,0,-1,860,1758,0,0
-357,-734,0,0,0,0,0,0,0,0,0,-1,867,1758,0,0
-350,-734,0,0,0,0,0,0,0,0,0,-1,874,1758,0,0
-343,-734,0,0,0,0,0,0,0,0,0,-1,881,1758,0,0
-336,-734,0,0,0,0,0,0,0,0,0,-1,888,1758,0,0
-329,-734,0,0,0,0,0,0,0,0,0,-1,895,1758,0,0
-322,-734,0,0,0,0,0,0,0,0,0,-1,902,1758,0,0
-315,-734,0,0,0,0,0,0,0,0,0,-1,909,1758,0,0
-308,-734,0,0,0,0,0,0,0,0,0,-1,916,1758,0,0
-301,-734,0,0,0,0,0,0,0,0,0,-1,923,1758,0,0
-294,-734,0,0,0,0,0,0,0,0,0,-1,930,1758,0,0
-287,-734,0,0,0,0,0,0,0,0,0,-1,937,1758,0,0
-280,-734,0,0,0,0,0,0,0,0,0,-1,944,1758,0,0
-273,-734,0,0,0,0,0,0,0,0,0,-1,951,1758,0,0
-266,-734,0,0,0,0,0,0,0,0,0,-1,958,1758,0,0
-259,-734,0,0,0,0,0,0,0,0,0,-1,965,1758,0,0
-252,-734,3.06238,3.5824,0,0,0,0,0,0,0,-1,972,1758,3.06236,-3.58242
-245,-734,2.56897,2.97327,0,0,0,0,0,0,0,-1,979,1758,2.56898,-2.97324
-238,-734,2.45355,3.15466,0,0,0,0,0,0,0,-1,986,1758,2.45358,-3.15471
-231,-734,2.2923,3.46033,0,0,0,0,0,0,0,-1,993,1758,2.29231,-3.46039
-224,-734,2.14502,3.85864,0,0,0,0,0,0,0,-1,1000,1758,2.14502,-3.85863
-217,-734,3.80621,3.521,-0.0140814,0.00341338,-0.0117009,0.00927518,-0.0199432,-1.10637,0.01724,0.0418302,1007,1758,3.8062,-3.52105
-210,-734,3.51514,3.83582,-0.0159826,-0.000482182,-0.0134639,0.0073028,-0.0237676,-1.04655,0.0187593,0.0453518,1014,1758,3.51513,-3.83583
-203,-734,3.24316,3.98743,-0.0163407,-0.004062,-0.0164035,0.00731341,-0.0277161,-0.964463,0.0213372,0.0455822,1021,1758,3.24318,-3.98744
-196,-734,2.90039,4.43884,0,0,0,0,0,0,0,-1,1028,1758,2.90036,-4.43879
-189,-734,3.26709,6.07837,0,0,0,0,0,0,0,-1,1035,1758,3.26714,-6.0784
-182,-734,2.71057,5.66565,-0.0106022,-0.0117499,-0.023189,0.01202,-0.0343721,-0.773027,0.0278015,0.044433,1042,1758,2.71061,-5.66568
-175,-734,2.42639,5.27637,-0.0101318,-0.00983972,-0.0239936,0.0140083,-0.0339798,-0.788441,0.0284945,0.0457951,1049,1758,2.42644,-5.27631
-168,-734,2.82422,4.77295,-0.010152,-0.0062234,-0.0233949,0.0152895,-0.0316649,-0.827281,0.0276532,0.0453453,1056,1758,2.82423,-4.77292
-161,-734,3.01111,4.70752,-0.00910265,-0.000773696,-0.0207862,0.0162611,-0.0261375,-0.884263,0.0246992,0.04311,1063,1758,3.01116,-4.70756
-154,-734,2.68677,4.84033,-0.00844233,0.00354058,-0.0182267,0.0167353,-0.0216371,-0.944194,0.0222145,0.0495297,1070,1758,2.68677,-4.84035
-147,-734,3.1853,4.09399,-0.00898966,0.00775874,-0.0150971,0.0166487,-0.0178796,-1.03862,0.0199391,0.0428621,1077,1758,3.18531,-4.094
-140,-734,2.71265,4.58118,-0.0104286,0.0122247,-0.0111933,0.0168223,-0.0150263,-1.18106,0.0183975,0.037024,1084,1758,2.71269,-4.5812
-133,-734,2.56104,4.7561,-0.0114442,0.0150552,-0.0067848,0.0166913,-0.0130803,-1.33417,0.0172308,0.0296679,1091,1758,2.56099,-4.75611
-126,-734,2.50659,4.76501,-0.0115846,0.0172543,-0.00291863,0.0175467,-0.011877,-1.47094,0.0170926,0.0276998,1098,1758,2.50656,-4.76503
-119,-734,2.50928,4.78784,-0.0116572,0.0178717,0.000481421,0.0178795,-0.0116651,1.5545,0.0171829,0.0307529,1105,1758,2.50932,-4.78783
-112,-734,2.50977,4.81433,-0.0117106,0.0175892,0.00343957,0.0179875,-0.0121089,1.45549,0.0174864,0.0258559,1112,1758,2.50983,-4.8143
-105,-734,2.48535,4.88074,-0.0118011,0.0159848,0.00565078,0.01709,-0.0129063,1.37765,0.0173744,0.0185698,1119,1758,2.48538,-4.88076
-98,-734,2.48816,4.91162,-0.0116316,0.0134449,0.00731701,0.0154238,-0.0136105,1.30667,0.0167738,0.0135286,1126,1758,2.48812,-4.91166
-91,-734,2.50208,4.92517,-0.0111646,0.0105349,0.00763406,0.0129515,-0.0135812,1.26422,0.0153201,0.013181,1133,1758,2.50204,-4.92513
-84,-734,2.50195,4.93982,-0.0104317,0.00816125,0.00782055,0.0110132,-0.0132837,1.2211,0.0140483,0.0108988,1140,1758,2.5019,-4.93981
-77,-734,2.49561,4.9823,-0.00901855,0.00585502,0.00780085,0.00919594,-0.0123595,1.16615,0.0124896,0.0109784,1147,1758,2.49566,-4.98231
-70,-734,2.49487,5.02051,-0.00739626,0.00405269,0.00741305,0.00769427,-0.0110378,1.11418,0.0108723,0.00973888,1154,1758,2.49487,-5.02056
-63,-734,2.50281,5.03589,-0.00623434,0.00329091,0.00674306,0.00678368,-0.00972711,1.09287,0.00958287,0.00993309,1161,1758,2.50284,-5.03584
-56,-734,2.49585,5.04175,-0.00600119,0.00163293,0.00502657,0.00412747,-0.00849574,1.11014,0.00743205,0.0109534,1168,1758,2.49587,-5.0417
-49,-734,2.47351,5.06677,-0.00538504,0.00258234,0.00492099,0.00493,-0.00773269,1.12566,0.00737025,0.0111841,1175,1758,2.47355,-5.06681
-42,-734,2.45374,5.09119,-0.00330308,0.00266091,0.00489192,0.00540807,-0.00605024,1.05911,0.00661892,0.0123411,1182,1758,2.45374,-5.09118
-35,-734,2.44678,5.10498,-0.00180977,0.00198765,0.00375763,0.00429903,-0.00412115,1.01934,0.00486176,0.0131522,1189,1758,2.44678,-5.10503
-28,-734,2.46899,5.11157,-0.00176233,0.00177417,0.00245119,0.00302834,-0.0030165,1.09787,0.00349,0.00948549,1196,1758,2.46903,-5.11163
-21,-734,2.50159,5.125,-0.0017424,0.00159908,0.00180213,0.00238578,-0.0025291,1.15919,0.00283801,0.0138715,1203,1758,2.5016,-5.12503
-14,-734,2.47913,5.17505,-0.00164929,0.0011799,0.00125957,0.0016594,-0.00212878,1.20705,0.0021927,0.014099,1210,1758,2.47908,-5.17505
-7,-734,2.48303,5.20154,-0.00153727,0.000966444,0.000752865,0.00117539,-0.00174622,1.30007,0.00169749,0.0160857,1217,1758,2.48307,-5.20156
0,-734,2.47131,5.20398,-0.00131114,0.000721365,0.000142305,0.00073128,-0.00132106,1.50123,0.00120112,0.0165766,1224,1758,2.47129,-5.20404
7,-734,2.46448,5.21802,-0.00126333,0.000202503,-0.000187571,0.000226124,-0.00128695,-1.44552,0.00094243,0.012958,1231,1758,2.46445,-5.21799
14,-734,2.47388,5.2323,-0.00113549,-0.000167789,-0.000449208,8.58761e-06,-0.00131186,-1.19665,0.000877453,0.0132534,1238,1758,2.47385,-5.23231
21,-734,2.47485,5.22119,-0.00115219,-0.000109981,-0.000791771,0.000316782,-0.00157895,-1.07644,0.00117258,0.0118114,1245,1758,2.47487,-5.22124
28,-734,2.48132,5.20056,-0.00102729,5.26116e-05,-0.000932616,0.000590307,-0.00156498,-1.0478,0.00128607,0.0112954,1252,1758,2.48135,-5.2006
35,-734,2.48816,5.22327,-0.000725039,0.000167899,-0.00101229,0.000827805,-0.00138494,-0.993091,0.00129096,0.0131064,1259,1758,2.48821,-5.22322
42,-734,2.48254,5.22717,-0.000419614,0.000257592,-0.00111983,0.00108889,-0.00125091,-0.932213,0.00135196,0.0116497,1266,1758,2.48249,-5.22719
49,-734,2.45532,5.23157,-0.000140734,0.000325198,-0.0012733,0.00138667,-0.0012022,-0.875879,0.00149595,0.0106218,1273,1758,2.45529,-5.23155
56,-734,2.46338,5.24231,4.09591e-05,0.000412666,-0.00137812,0.00161741,-0.00116378,-0.852424,0.00161282,0.0101504,1280,1758,2.46339,-5.24228
63,-734,2.50696,5.22949,0.000163092,0.000773335,-0.00116615,0.00167362,-0.000737197,-0.913353,0.00142646,0.0118946,1287,1758,2.50702,-5.22946
70,-734,2.47119,5.23828,0.000254397,0.000933359,-0.000810857,0.00147293,-0.000285176,-0.983646,0.00108953,0.0123659,1294,1758,2.47122,-5.2383
77,-734,2.46326,5.26355,0.000400508,0.000882323,-0.000435122,0.00113878,0.000144055,-1.03822,0.000716013,0.0166496,1301,1758,2.46323,-5.26349
84,-734,2.46045,5.24414,0.000423129,0.000756169,-1.22703e-05,0.00075662,0.000422677,-1.53402,0.000437835,0.0170046,1308,1758,2.46044,-5.24417
91,-734,2.46387,5.23132,0.00042532,0.000738621,0.000392643,0.00100471,0.000159232,0.975205,0.000623543,0.018274,1315,1758,2.46385,-5.23135
98,-734,2.50208,5.23926,0.000497227,0.000782505,0.000825098,0.0014772,-0.000197471,0.87099,0.00105679,0.0132281,1322,1758,2.50209,-5.23929
105,-734,2.51685,5.24133,0.000511302,0.00078108,0.00122172,0.00187534,-0.000582955,0.84038,0.00148323,0.0140696,1329,1758,2.5169,-5.24138
112,-734,2.50293,5.2345,0.000597148,0.000804871,0.0017347,0.00243882,-0.0010368,0.815299,0.00206035,0.0127102,1336,1758,2.50289,-5.23455
119,-734,2.48096,5.21216,0.00115824,0.000732266,0.00233819,0.00329313,-0.00140262,0.739979,0.00278337,0.0134756,1343,1758,2.481,-5.21218
126,-734,2.48682,5.20251,0.00196872,0.00044016,0.0030629,0.00436125,-0.00195237,0.663131,0.00373256,0.0152479,1350,1758,2.48684,-5.20252
133,-734,2.48462,5.19861,0.00276203,0.000364425,0.00376987,0.00551912,-0.00239266,0.631456,0.00468524,0.013992,1357,1758,2.48457,-5.19862
140,-734,2.47974,5.1958,0.00313202,0.000323854,0.0036754,0.0056624,-0.00220653,0.602942,0.0046869,0.0192609,1364,1758,2.47971,-5.19578
147,-734,2.49438,5.17798,0.00316148,-8.09236e-05,0.0036327,0.00551832,-0.00243776,0.57552,0.00470682,0.0140458,1371,1758,2.49434,-5.17804
154,-734,2.48853,5.17688,0.00219453,-0.000577502,0.00313865,0.00423957,-0.00262254,0.577476,0.00399834,0.00990339,1378,1758,2.4885,-5.17683
161,-734,2.48547,5.1571,0.00136001,-0.00127306,0.00240751,0.00278745,-0.0027005,0.535189,0.0031686,0.00878736,1385,1758,2.48548,-5.15714
168,-734,2.46472,5.12561,0.000539367,-0.00251319,0.00105471,0.000868334,-0.00284216,0.302341,0.00224101,0.0128275,1392,1758,2.46467,-5.12566
175,-734,2.47961,5.12036,-0.000452128,-0.00361508,-0.000524971,-0.000367272,-0.00369993,-0.160253,0.00235377,0.0158579,1399,1758,2.47967,-5.12034
182,-734,2.49109,5.10217,-0.00159743,-0.00455411,-0.00211977,-0.000491406,-0.00566013,-0.480906,0.00362075,0.014914,1406,1758,2.49114,-5.10223
189,-734,2.47046,5.08325,-0.0030793,-0.00557307,-0.00376212,-0.000362816,-0.00828955,-0.625379,0.00540949,0.0106728,1413,1758,2.47041,-5.08328
196,-734,2.47217,5.08337,-0.00436084,-0.00657127,-0.0052439,-0.000106954,-0.0108252,-0.681537,0.00718139,0.0105806,1420,1758,2.47221,-5.08336
203,-734,2.48157,5.06958,-0.00515001,-0.00727894,-0.00671538,0.000584743,-0.0130137,-0.706796,0.00887713,0.0108115,1427,1758,2.48159,-5.06955
210,-734,2.48132,5.03333,-0.00568375,-0.00742576,-0.00782658,0.00132014,-0.0144297,-0.729982,0.0100886,0.0115196,1434,1758,2.48136,-5.0333
217,-734,2.4668,5.01233,-0.00585051,-0.00683026,-0.00908662,0.00275944,-0.0154402,-0.758469,0.0113259,0.00899204,1441,1758,2.4668,-5.01228
224,-734,2.45032,4.99817,-0.00547191,-0.0054763,-0.0100984,0.00462426,-0.0155725,-0.78529,0.0122183,0.0103525,1448,1758,2.45034,-4.99821
231,-734,2.44763,4.97058,-0.00485682,-0.0033459,-0.0112027,0.00712679,-0.0153295,-0.819065,0.0132503,0.0121263,1455,1758,2.44759,-4.97053
238,-734,2.46472,4.92859,-0.00399707,-0.00108116,-0.011938,0.0094876,-0.0145658,-0.846161,0.01399,0.0147588,1462,1758,2.4647,-4.92858
245,-734,2.41846,4.9032,-0.00240968,0.000845756,-0.0120448,0.0113724,-0.0129363,-0.85256,0.0140443,0.0198165,1469,1758,2.41845,-4.90315
252,-734,2.41956,4.85925,-0.000975223,0.00349317,-0.0126523,0.014107,-0.011589,-0.87279,0.0148593,0.0264178,1476,1758,2.4196,-4.85921
259,-734,2.44727,4.87549,0.00103041,0.00567317,-0.0128463,0.0164062,-0.00970261,-0.874785,0.0152386,0.0310038,1483,1758,2.44727,-4.87549
266,-734,2.36841,4.89307,0.00199215,0.00755531,-0.0134662,0.0185242,-0.00897677,-0.887246,0.0161935,0.0362857,1490,1758,2.36839,-4.89308
273,-734,2.68823,4.71204,0.00243797,0.0092606,-0.0140244,0.0202826,-0.00858402,-0.904702,0.0171163,0.0412783,1497,1758,2.68823,-4.71202
280,-734,2.83374,4.50403,0.00282532,0.00973498,-0.0146835,0.0213646,-0.00880431,-0.90094,0.0179142,0.0463675,1504,1758,2.83375,-4.50406
287,-734,2.82446,4.19458,0.00446865,0.00910656,-0.0153896,0.0223509,-0.00877574,-0.860177,0.0185319,0.0452648,1511,1758,2.82452,-4.19453
294,-734,2.87817,3.64417,0.00747675,0.00791205,-0.017214,0.0249098,-0.00952102,-0.79172,0.0205298,0.0438832,1518,1758,2.87814,-3.64417
301,-734,2.96216,3.01074,0,0,0,0,0,0,0,-1,1525,1758,2.96217,-3.01069
308,-734,3.16455,3.2594,0,0,0,0,0,0,0,-1,1532,1758,3.16453,-3.25937
315,-734,1.91638,3.35352,0,0,0,0,0,0,0,-1,1539,1758,1.91634,-3.35354
322,-734,2.26135,3.82153,0,0,0,0,0,0,0,-1,1546,1758,2.26139,-3.82158
329,-734,2.82227,3.78967,0,0,0,0,0,0,0,-1,1553,1758,2.82226,-3.78966
336,-734,2.65833,4.66052,0,0,0,0,0,0,0,-1,1560,1758,2.65836,-4.66048
343,-734,4.09021,3.91174,0,0,0,0,0,0,0,-1,1567,1758,4.09025,-3.91172
350,-734,4.57056,2.9762,0,0,0,0,0,0,0,-1,1574,1758,4.57055,-2.97624
357,-734,4.4325,3.48083,0,0,0,0,0,0,0,-1,1581,1758,4.43246,-3.48086
364,-734,4.4165,3.2887,0,0,0,0,0,0,0,-1,1588,1758,4.41655,-3.2887
371,-734,1.92993,1.95569,0,0,0,0,0,0,0,-1,1595,1758,1.92997,-1.95567
378,-734,0,0,0,0,0,0,0,0,0,-1,1602,1758,0,0
385,-734,0,0,0,0,0,0,0,0,0,-1,1609,1758,0,0
392,-734,0,0,0,0,0,0,0,0,0,-1,1616,1758,0,0
399,-734,0,0,0,0,0,0,0,0,0,-1,1623,1758,0,0
406,-734,0,0,0,0,0,0,0,0,0,-1,1630,1758,0,0
413,-734,0,0,0,0,0,0,0,0,0,-1,1637,1758,0,0
420,-734,0,0,0,0,0,0,0,0,0,-1,1644,1758,0,0
427,-734,0,0,0,0,0,0,0,0,0,-1,1651,1758,0,0
434,-734,0,0,0,0,0,0,0,0,0,-1,1658,1758,0,0
441,-734,0,0,0,0,0,0,0,0,0,-1,1665,1758,0,0
448,-734,0,0,0,0,0,0,0,0,0,-1,1672,1758,0,0
455,-734,0,0,0,0,0,0,0,0,0,-1,1679,1758,0,0
462,-734,0,0,0,0,0,0,0,0,0,-1,1686,1758,0,0
469,-734,0,0,0,0,0,0,0,0,0,-1,1693,1758,0,0
476,-734,0,0,0,0,0,0,0,0,0,-1,1700,1758,0,0
483,-734,0,0,0,0,0,0,0,0,0,-1,1707,1758,0,0
490,-734,0,0,0,0,0,0,0,0,0,-1,1714,1758,0,0
497,-734,0,0,0,0,0,0,0,0,0,-1,1721,1758,0,0
504,-734,0,0,0,0,0,0,0,0,0,-1,1728,1758,0,0
511,-734,0,0,0,0,0,0,0,0,0,-1,1735,1758,0,0
518,-734,0,0,0,0,0,0,0,0,0,-1,1742,1758,0,0
525,-734,0,0,0,0,0,0,0,0,0,-1,1749,1758,0,0
532,-734,0,0,0,0,0,0,0,0,0,-1,1756,1758,0,0
539,-734,0,0,0,0,0,0,0,0,0,-1,1763,1758,0,0
546,-734,0,0,0,0,0,0,0,0,0,-1,1770,1758,0,0
553,-734,0,0,0,0,0,0,0,0,0,-1,1777,1758,0,0
560,-734,0,0,0,0,0,0,0,0,0,-1,1784,1758,0,0
567,-734,0,0,0,0,0,0,0,0,0,-1,1791,1758,0,0
574,-734,0,0,0,0,0,0,0,0,0,-1,1798,1758,0,0
581,-734,0,0,0,0,0,0,0,0,0,-1,1805,1758,0,0
588,-734,0,0,0,0,0,0,0,0,0,-1,1812,1758,0,0
595,-734,0,0,0,0,0,0,0,0,0,-1,1819,1758,0,0
602,-734,0,0,0,0,0,0,0,0,0,-1,1826,1758,0,0
609,-734,0,0,0,0,0,0,0,0,0,-1,1833,1758,0,0
616,-734,0,0,0,0,0,0,0,0,0,-1,1840,1758,0,0
623,-734,0,0,0,0,0,0,0,0,0,-1,1847,1758,0,0
630,-734,0,0,0,0,0,0,0,0,0,-1,1854,1758,0,0
637,-734,0,0,0,0,0,0,0,0,0,-1,1861,1758,0,0
644,-734,0,0,0,0,0,0,0,0,0,-1,1868,1758,0,0
651,-734,0,0,0,0,0,0,0,0,0,-1,1875,1758,0,0
658,-734,0,0,0,0,0,0,0,0,0,-1,1882,1758,0,0
665,-734,0,0,0,0,0,0,0,0,0,-1,1889,1758,0,0
672,-734,0,0,0,0,0,0,0,0,0,-1,1896,1758,0,0
679,-734,0,0,0,0,0,0,0,0,0,-1,1903,1758,0,0
686,-734,0,0,0,0,0,0,0,0,0,-1,1910,1758,0,0
693,-734,0,0,0,0,0,0,0,0,0,-1,1917,1758,0,0
700,-734,0,0,0,0,0,0,0,0,0,-1,1924,1758,0,0
707,-734,0,0,0,0,0,0,0,0,0,-1,1931,1758,0,0
714,-734,0,0,0,0,0,0,0,0,0,-1,1938,1758,0,0
721,-734,0,0,0,0,0,0,0,0,0,-1,1945,1758,0,0
728,-734,0,0,0,0,0,0,0,0,0,-1,1952,1758,0,0
735,-734,0,0,0,0,0,0,0,0,0,-1,1959,1758,0,0
742,-734,0,0,0,0,0,0,0,0,0,-1,1966,1758,0,0
749,-734,0,0,0,0,0,0,0,0,0,-1,1973,1758,0,0
756,-734,0,0,0,0,0,0,0,0,0,-1,1980,1758,0,0
763,-734,0,0,0,0,0,0,0,0,0,-1,1987,1758,0,0
770,-734,0,0,0,0,0,0,0,0,0,-1,1994,1758,0,0
777,-734,0,0,0,0,0,0,0,0,0,-1,2001,1758,0,0
784,-734,0,0,0,0,0,0,0,0,0,-1,2008,1758,0,0
791,-734,0,0,0,0,0,0,0,0,0,-1,2015,1758,0,0
798,-734,0,0,0,0,0,0,0,0,0,-1,2022,1758,0,0
805,-734,0,0,0,0,0,0,0,0,0,-1,2029,1758,0,0
812,-734,0,0,0,0,0,0,0,0,0,-1,2036,1758,0,0
-700,-741,0,0,0,0,0,0,0,0,0,-1,524,1765,0,0
-693,-741,0,0,0,0,0,0,0,0,0,-1,531,1765,0,0
-686,-741,0,0,0,0,0,0,0,0,0,-1,538,1765,0,0
-679,-741,0,0,0,0,0,0,0,0,0,-1,545,1765,0,0
-672,-741,0,0,0,0,0,0,0,0,0,-1,552,1765,0,0
-665,-741,0,0,0,0,0,0,0,0,0,-1,559,1765,0,0
-658,-741,0,0,0,0,0,0,0,0,0,-1,566,1765,0,0
-651,-741,0,0,0,0,0,0,0,0,0,-1,573,1765,0,0
-644,-741,0,0,0,0,0,0,0,0,0,-1,580,1765,0,0
-637,-741,0,0,0,0,0,0,0,0,0,-1,587,1765,0,0
-630,-741,0,0,0,0,0,0,0,0,0,-1,594,1765,0,0
-623,-741,0,0,0,0,0,0,0,0,0,-1,601,1765,0,0
-616,-741,0,0,0,0,0,0,0,0,0,-1,608,1765,0,0
-609,-741,0,0,0,0,0,0,0,0,0,-1,615,1765,0,0
-602,-741,0,0,0,0,0,0,0,0,0,-1,622,1765,0,0
-595,-741,0,0,0,0,0,0,0,0,0,-1,629,1765,0,0
-588,-741,0,0,0,0,0,0,0,0,0,-1,636,1765,0,0
-581,-741,0,0,0,0,0,0,0,0,0,-1,643,1765,0,0
-574,-741,0,0,0,0,0,0,0,0,0,-1,650,1765,0,0
-567,-741,0,0,0,0,0,0,0,0,0,-1,657,1765,0,0
-560,-741,0,0,0,0,0,0,0,0,0,-1,664,1765,0,0
-553,-741,0,0,0,0,0,0,0,0,0,-1,671,1765,0,0
-546,-741,0,0,0,0,0,0,0,0,0,-1,678,1765,0,0
-539,-741,0,0,0,0,0,0,0,0,0,-1,685,1765,0,0
-532,-741,0,0,0,0,0,0,0,0,0,-1,692,1765,0,0
-525,-741,0,0,0,0,0,0,0,0,0,-1,699,1765,0,0
-518,-741,0,0,0,0,0,0,0,0,0,-1,706,1765,0,0
-511,-741,0,0,0,0,0,0,0,0,0,-1,713,1765,0,0
-504,-741,0,0,0,0,0,0,0,0,0,-1,720,1765,0,0
-497,-741,0,0,0,0,0,0,0,0,0,-1,727,1765,0,0
-490,-741,0,0,0,0,0,0,0,0,0,-1,734,1765,0,0
-483,-741,0,0,0,0,0,0,0,0,0,-1,741,1765,0,0
-476,-741,0,0,0,0,0,0,0,0,0,-1,748,1765,0,0
-469,-741,0,0,0,0,0,0,0,0,0,-1,755,1765,0,0
-462,-741,0,0,0,0,0,0,0,0,0,-1,762,1765,0,0
-455,-741,0,0,0,0,0,0,0,0,0,-1,769,1765,0,0
-448,-741,0,0,0,0,0,0,0,0,0,-1,776,1765,0,0
-441,-741,0,0,0,0,0,0,0,0,0,-1,783,1765,0,0
-434,-741,0,0,0,0,0,0,0,0,0,-1,790,1765,0,0
-427,-741,0,0,0,0,0,0,0,0,0,-1,797,1765,0,0
-420,-741,0,0,0,0,0,0,0,0,0,-1,804,1765,0,0
-413,-741,0,0,0,0,0,0,0,0,0,-1,811,1765,0,0
-406,-741,0,0,0,0,0,0,0,0,0,-1,818,1765,0,0
-399,-741,0,0,0,0,0,0,0,0,0,-1,825,1765,0,0
-392,-741,0,0,0,0,0,0,0,0,0,-1,832,1765,0,0
-385,-741,0,0,0,0,0,0,0,0,0,-1,839,1765,0,0
-378,-741,0,0,0,0,0,0,0,0,0,-1,846,1765,0,0
-371,-741,0,0,0,0,0,0,0,0,0,-1,853,1765,0,0
-364,-741,0,0,0,0,0,0,0,0,0,-1,860,1765,0,0
-357,-741,0,0,0,0,0,0,0,0,0,-1,867,1765,0,0
-350,-741,0,0,0,0,0,0,0,0,0,-1,874,1765,0,0
-343,-741,0,0,0,0,0,0,0,0,0,-1,881,1765,0,0
-336,-741,0,0,0,0,0,0,0,0,0,-1,888,1765,0,0
-329,-741,0,0,0,0,0,0,0,0,0,-1,895,1765,0,0
-322,-741,0,0,0,0,0,0,0,0,0,-1,902,1765,0,0
-315,-741,0,0,0,0,0,0,0,0,0,-1,909,1765,0,0
-308,-741,0,0,0,0,0,0,0,0,0,-1,916,1765,0,0
-301,-741,0,0,0,0,0,0,0,0,0,-1,923,1765,0,0
-294,-741,0,0,0,0,0,0,0,0,0,-1,930,1765,0,0
-287,-741,0,0,0,0,0,0,0,0,0,-1,937,1765,0,0
-280,-741,0,0,0,0,0,0,0,0,0,-1,944,1765,0,0
-273,-741,0,0,0,0,0,0,0,0,0,-1,951,1765,0,0
-266,-741,0,0,0,0,0,0,0,0,0,-1,958,1765,0,0
-259,-741,0,0,0,0,0,0,0,0,0,-1,965,1765,0,0
-252,-741,0,0,0,0,0,0,0,0,0,-1,972,1765,0,0
-245,-741,0,0,0,0,0,0,0,0,0,-1,979,1765,0,0
-238,-741,-1.2677,4.28687,0,0,0,0,0,0,0,-1,986,1765,-1.26771,-4.28689
-231,-741,2.33179,3.06543,0,0,0,0,0,0,0,-1,993,1765,2.33181,-3.06547
-224,-741,4.24243,3.56274,0,0,0,0,0,0,0,-1,1000,1765,4.24245,-3.56277
-217,-741,4.16846,3.50818,0,0,0,0,0,0,0,-1,1007,1765,4.16849,-3.50818
-210,-741,3.64868,3.6875,0,0,0,0,0,0,0,-1,1014,1765,3.64868,-3.68748
-203,-741,3.51599,3.9259,0,0,0,0,0,0,0,-1,1021,1765,3.51594,-3.92586
-196,-741,2.58557,4.94519,0,0,0,0,0,0,0,-1,1028,1765,2.5856,-4.94515
-189,-741,2.69531,6.02734,0,0,0,0,0,0,0,-1,1035,1765,2.69528,-6.02735
-182,-741,2.46729,5.96204,-0.0142256,-0.0201535,-0.0309662,0.0139182,-0.0482973,-0.737685,0.0377038,0.0456741,1042,1765,2.46728,-5.96199
-175,-741,2.31519,5.42651,-0.0136745,-0.0174896,-0.0317948,0.01627,-0.0474341,-0.755436,0.0382184,0.0435675,1049,1765,2.31521,-5.42654
-168,-741,2.80225,4.60376,0,0,0,0,0,0,0,-1,1056,1765,2.80229,-4.60374
-161,-741,3.51196,4.34314,-0.0127291,-0.00467291,-0.0272513,0.0188464,-0.0362484,-0.858773,0.0323336,0.0450979,1063,1765,3.51192,-4.34318
-154,-741,3.89001,4.26123,-0.0120767,0.00143846,-0.0235893,0.0192191,-0.0298573,-0.924896,0.0285553,0.045974,1070,1765,3.89005,-4.26126
-147,-741,4.48755,4.42139,0,0,0,0,0,0,0,-1,1077,1765,4.4875,-4.42145
-140,-741,3.16626,4.0658,-0.0149073,0.0132742,-0.0140087,0.0190528,-0.0206859,-1.17956,0.0229496,0.0457595,1084,1765,3.16622,-4.06582
-133,-741,3.30798,4.3064,-0.0160989,0.0174334,-0.00832899,0.0193882,-0.0180537,-1.34026,0.0216217,0.0421766,1091,1765,3.30801,-4.30639
-126,-741,2.88757,4.64832,-0.0164072,0.0206284,-0.00336716,0.020932,-0.0167108,-1.48086,0.0217786,0.0410244,1098,1765,2.88753,-4.64836
-119,-741,2.74133,4.45398,0,0,0,0,0,0,0,-1,1105,1765,2.74131,-4.45402
-112,-741,2.55261,4.82458,-0.0167022,0.0217349,0.00477112,0.0223183,-0.0172856,1.44913,0.0229268,0.038822,1112,1765,2.55266,-4.8246
-105,-741,2.52441,4.92944,-0.0168596,0.0198847,0.0075648,0.0213811,-0.0183561,1.3755,0.0229644,0.0296211,1119,1765,2.52435,-4.9295
-98,-741,2.49719,4.9187,-0.0166682,0.0166839,0.0095639,0.0192318,-0.019216,1.31044,0.0221978,0.027035,1126,1765,2.49717,-4.91868
-91,-741,2.41479,4.90247,-0.0161512,0.0129503,0.00985376,0.0159729,-0.0191738,1.27317,0.02032,0.0317812,1133,1765,2.41475,-4.90245
-84,-741,2.47192,4.948,-0.0152842,0.00996721,0.01008,0.0134974,-0.0188144,1.23392,0.0187393,0.0325435,1140,1765,2.47193,-4.94803
-77,-741,2.49451,4.95703,-0.0135265,0.0070907,0.0100649,0.0111894,-0.0176252,1.18408,0.0167739,0.0297094,1147,1765,2.49448,-4.95708
-70,-741,2.49927,4.97192,-0.0114549,0.00482761,0.00965438,0.00931517,-0.0159425,1.13569,0.0147489,0.0287624,1154,1765,2.49922,-4.9719
-63,-741,2.46826,4.99524,-0.009769,0.00380165,0.00888945,0.00819948,-0.0141668,1.11138,0.0130655,0.0278251,1161,1765,2.46832,-4.99518
-56,-741,2.43347,4.98633,-0.00960266,0.00220247,0.00655893,0.00512373,-0.0125239,1.15179,0.0104832,0.0284035,1168,1765,2.43348,-4.98629
-49,-741,2.44604,4.97412,-0.0091184,0.00425573,0.00650363,0.0068968,-0.0117595,1.18505,0.0108925,0.0261999,1175,1765,2.44602,-4.97415
-42,-741,2.46973,5.02942,-0.00592957,0.00503519,0.00667771,0.00819273,-0.00908712,1.1291,0.00998098,0.0198036,1182,1765,2.46974,-5.02941
-35,-741,2.50439,5.1095,-0.00350832,0.00506653,0.00560147,0.00783307,-0.00627486,1.11204,0.00816176,0.0103745,1189,1765,2.50445,-5.10946
-28,-741,2.51624,5.12439,-0.00361301,0.00514723,0.00379797,0.00656452,-0.00503031,1.21363,0.00671378,0.0131658,1196,1765,2.51627,-5.12437
-21,-741,2.52087,5.14563,-0.0036919,0.00521616,0.00293917,0.00609853,-0.00457427,1.27915,0.00618285,0.0176804,1203,1765,2.52083,-5.14561
-14,-741,2.49878,5.17395,-0.00333574,0.0049453,0.0023382,0.00555989,-0.00395033,1.31376,0.00551688,0.0164363,1210,1765,2.49884,-5.17397
-7,-741,2.49048,5.1792,-0.00263144,0.00478869,0.00182207,0.00521197,-0.00305472,1.34254,0.00482664,0.0141687,1217,1765,2.49047,-5.17919
0,-741,2.47009,5.18018,-0.0020963,0.0044531,0.00105934,0.00462018,-0.00226338,1.41436,0.00405113,0.0152152,1224,1765,2.47009,-5.18021
7,-741,2.46216,5.1875,-0.00167915,0.0036157,0.000593813,0.00368148,-0.00174493,1.46047,0.00319875,0.0173059,1231,1765,2.4621,-5.18746
14,-741,2.47949,5.21643,-0.00121093,0.00304413,0.000164194,0.00305045,-0.00121726,1.53228,0.00253861,0.0151161,1238,1765,2.47947,-5.21641
21,-741,2.48694,5.21667,-0.000967499,0.00289661,-0.000411039,0.00293985,-0.00101074,-1.46599,0.00236978,0.0121271,1245,1765,2.48689,-5.21664
28,-741,2.47595,5.22864,-0.000567778,0.00281817,-0.000744169,0.00297451,-0.000724114,-1.36373,0.00226332,0.0126269,1252,1765,2.476,-5.22869
35,-741,2.47974,5.22937,1.14748e-07,0.00265911,-0.00102782,0.00301008,-0.00035086,-1.24174,0.00213331,0.0137633,1259,1765,2.47975,-5.22941
42,-741,2.48828,5.224,0.000502705,0.0024257,-0.00138279,0.00314842,-0.00022001,-1.08919,0.00217599,0.0137837,1266,1765,2.4883,-5.22396
49,-741,2.46802,5.24255,0.00096635,0.00208517,-0.00181577,0.00342575,-0.000374228,-0.934827,0.00241824,0.00885712,1273,1765,2.46805,-5.2425
56,-741,2.46143,5.24841,0.00117348,0.00189232,-0.00216325,0.00372581,-0.000660008,-0.86772,0.00273059,0.00894866,1280,1765,2.46137,-5.24836
63,-741,2.48669,5.22778,0.00112655,0.0020785,-0.00211747,0.00377284,-0.000567786,-0.895953,0.00272428,0.0135698,1287,1765,2.48667,-5.22781
70,-741,2.47034,5.23352,0.00103901,0.00195095,-0.00187453,0.00342417,-0.000434216,-0.904703,0.00244043,0.0160944,1294,1765,2.47032,-5.23346
77,-741,2.44702,5.2793,0.00113169,0.00169256,-0.00141451,0.00285417,-2.99136e-05,-0.883258,0.00191283,0.0138163,1301,1765,2.44702,-5.27935
84,-741,2.42517,5.28186,0.00105995,0.00134165,-0.000872224,0.00208432,0.000317279,-0.865448,0.00129679,0.0158854,1308,1765,2.42512,-5.2819
91,-741,2.43604,5.26904,0.00078284,0.0010404,-0.000318831,0.00125548,0.000567763,-0.977336,0.000725952,0.0128494,1315,1765,2.43609,-5.26909
98,-741,2.46875,5.25574,0.000510743,0.000841595,0.000292831,0.0010125,0.000339841,1.04251,0.000594999,0.00990262,1322,1765,2.46871,-5.25579
105,-741,2.48657,5.23926,0.00049224,0.000665288,0.000999919,0.00158242,-0.000424892,0.828556,0.00122146,0.0105122,1329,1765,2.48659,-5.23922
112,-741,2.48413,5.22278,0.000674981,0.000569111,0.00193911,0.00256188,-0.00131779,0.771752,0.002278,0.0108913,1336,1765,2.48415,-5.22274
119,-741,2.47119,5.19995,0.00159578,0.000186389,0.00309149,0.00406187,-0.0022797,0.673339,0.00370919,0.0141128,1343,1765,2.47125,-5.19994
126,-741,2.47156,5.18311,0.00288476,-0.000453843,0.00448109,0.00599737,-0.00356646,0.6071,0.00558082,0.0191618,1350,1765,2.47156,-5.18315
133,-741,2.47583,5.1637,0.00416759,-0.000872719,0.00581114,0.00798151,-0.00468664,0.5808,0.00739596,0.0145449,1357,1765,2.47582,-5.16364
140,-741,2.46484,5.17664,0.00490299,-0.00123434,0.00625199,0.00879881,-0.00513017,0.557256,0.00813435,0.0112602,1364,1765,2.4648,-5.17658
147,-741,2.47559,5.18359,0.00521447,-0.00195346,0.00688238,0.00939014,-0.00612914,0.545345,0.00902576,0.0105355,1371,1765,2.47553,-5.18362
154,-741,2.48389,5.18652,0.00439278,-0.00271273,0.00686129,0.00856656,-0.00688651,0.546507,0.00893939,0.00892002,1378,1765,2.48384,-5.18647
161,-741,2.46887,5.15942,0.00367872,-0.00374193,0.00633818,0.00731271,-0.00737593,0.520593,0.00848052,0.00972547,1385,1765,2.46889,-5.15947
168,-741,2.46313,5.1283,0.00288599,-0.00538004,0.00497794,0.00522303,-0.00771709,0.438936,0.0075171,0.0160401,1392,1765,2.46308,-5.1283
175,-741,2.5354,5.07019,0.00180184,-0.00676413,0.00323331,0.00288526,-0.00784755,0.323321,0.00641356,0.0256657,1399,1765,2.53544,-5.07022
182,-741,2.62024,4.97107,0.000420407,-0.00791053,0.00134012,0.000630671,-0.0081208,0.155631,0.00563586,0.0278592,1406,1765,2.62023,-4.97103
189,-741,2.75488,4.93738,-0.00145692,-0.00914023,-0.000747828,-0.00138481,-0.00921234,-0.0961293,0.00573595,0.0310838,1413,1765,2.75485,-4.93736
196,-741,2.5321,5.01355,-0.00320158,-0.0102979,-0.0028587,-0.00219326,-0.0113063,-0.339097,0.00692321,0.0282615,1420,1765,2.53216,-5.01356
203,-741,2.45862,5.05701,-0.00445427,-0.0110937,-0.0050725,-0.00171174,-0.0138362,-0.495649,0.00870981,0.0172078,1427,1765,2.45857,-5.05706
210,-741,2.46826,5.04138,-0.00543949,-0.0111922,-0.00699352,-0.000753916,-0.0158777,-0.590299,0.010343,0.0164805,1434,1765,2.46829,-5.04142
217,-741,2.50232,5.02356,-0.00607261,-0.0103967,-0.00929535,0.00130883,-0.0177781,-0.671134,0.0123116,0.0169579,1441,1765,2.50232,-5.02353
224,-741,2.4978,5.0083,-0.0059787,-0.00858594,-0.0113193,0.00411178,-0.0186764,-0.728067,0.0140239,0.0226673,1448,1765,2.49786,-5.00832
231,-741,2.50769,5.0177,-0.00560464,-0.00580583,-0.0135681,0.00786319,-0.0192737,-0.781691,0.0161225,0.030068,1455,1765,2.50771,-5.01768
238,-741,2.41846,4.97827,-0.00490301,-0.00300628,-0.0153071,0.0113818,-0.0192911,-0.816337,0.0179042,0.0358006,1462,1765,2.4185,-4.97822
245,-741,1.91516,4.89417,-0.0030469,-0.000909505,-0.0160221,0.0140795,-0.0180359,-0.8187,0.0185887,0.0373031,1469,1765,1.91516,-4.89415
252,-741,2.448,4.61023,-0.00124554,0.00225546,-0.0172458,0.0178393,-0.0168294,-0.835977,0.0200188,0.044491,1476,1765,2.44794,-4.61024
259,-741,2.58484,4.57861,0.00150994,0.00455142,-0.0170609,0.0201592,-0.0140979,-0.829849,0.0198813,0.0433653,1483,1765,2.58484,-4.57866
266,-741,2.08606,4.6947,0.00283731,0.00637266,-0.0173536,0.0220484,-0.0128384,-0.836154,0.0203745,0.0467474,1490,1765,2.0861,-4.69476
273,-741,2.70923,4.61951,0,0,0,0,0,0,0,-1,1497,1765,2.70918,-4.61955
280,-741,3.05811,4.22998,0.00398089,0.00803173,-0.0178477,0.0239686,-0.0119559,-0.841898,0.021124,0.0446353,1504,1765,3.05805,-4.23
287,-741,2.96289,3.99121,0.0058874,0.006397,-0.0184162,0.0245602,-0.0122758,-0.792315,0.0216579,0.0437293,1511,1765,2.96285,-3.99126
294,-741,3.10413,3.2417,0,0,0,0,0,0,0,-1,1518,1765,3.10415,-3.24174
301,-741,3.06287,3.42029,0,0,0,0,0,0,0,-1,1525,1765,3.06286,-3.42031
308,-741,2.7019,3.5752,0,0,0,0,0,0,0,-1,1532,1765,2.70194,-3.57515
315,-741,2.68933,3.94287,0,0,0,0,0,0,0,-1,1539,1765,2.68935,-3.94284
322,-741,2.97217,4.56628,0,0,0,0,0,0,0,-1,1546,1765,2.97214,-4.56634
329,-741,2.8988,5.26184,0,0,0,0,0,0,0,-1,1553,1765,2.89882,-5.26181
336,-741,3.40393,3.22864,0,0,0,0,0,0,0,-1,1560,1765,3.40389,-3.2286
343,-741,4.2323,3.52246,0,0,0,0,0,0,0,-1,1567,1765,4.23226,-3.52251
350,-741,4.61523,3.55847,0,0,0,0,0,0,0,-1,1574,1765,4.61527,-3.55847
357,-741,4.92651,3.56653,0,0,0,0,0,0,0,-1,1581,1765,4.92649,-3.56653
364,-741,0,0,0,0,0,0,0,0,0,-1,1588,1765,0,0
371,-741,0,0,0,0,0,0,0,0,0,-1,1595,1765,0,0
378,-741,0,0,0,0,0,0,0,0,0,-1,1602,1765,0,0
385,-741,0,0,0,0,0,0,0,0,0,-1,1609,1765,0,0
392,-741,0,0,0,0,0,0,0,0,0,-1,1616,1765,0,0
399,-741,0,0,0,0,0,0,0,0,0,-1,1623,1765,0,0
406,-741,0,0,0,0,0,0,0,0,0,-1,1630,1765,0,0
413,-741,0,0,0,0,0,0,0,0,0,-1,1637,1765,0,0
420,-741,0,0,0,0,0,0,0,0,0,-1,1644,1765,0,0
427,-741,0,0,0,0,0,0,0,0,0,-1,1651,1765,0,0
434,-741,0,0,0,0,0,0,0,0,0,-1,1658,1765,0,0
441,-741,0,0,0,0,0,0,0,0,0,-1,1665,1765,0,0
448,-741,0,0,0,0,0,0,0,0,0,-1,1672,1765,0,0
455,-741,0,0,0,0,0,0,0,0,0,-1,1679,1765,0,0
462,-741,0,0,0,0,0,0,0,0,0,-1,1686,1765,0,0
469,-741,0,0,0,0,0,0,0,0,0,-1,1693,1765,0,0
476,-741,0,0,0,0,0,0,0,0,0,-1,1700,1765,0,0
483,-741,0,0,0,0,0,0,0,0,0,-1,1707,1765,0,0
490,-741,0,0,0,0,0,0,0,0,0,-1,1714,1765,0,0
497,-741,0,0,0,0,0,0,0,0,0,-1,1721,1765,0,0
504,-741,0,0,0,0,0,0,0,0,0,-1,1728,1765,0,0
511,-741,0,0,0,0,0,0,0,0,0,-1,1735,1765,0,0
518,-741,0,0,0,0,0,0,0,0,0,-1,1742,1765,0,0
525,-741,0,0,0,0,0,0,0,0,0,-1,1749,1765,0,0
532,-741,0,0,0,0,0,0,0,0,0,-1,1756,1765,0,0
539,-741,0,0,0,0,0,0,0,0,0,-1,1763,1765,0,0
546,-741,0,0,0,0,0,0,0,0,0,-1,1770,1765,0,0
553,-741,0,0,0,0,0,0,0,0,0,-1,1777,1765,0,0
560,-741,0,0,0,0,0,0,0,0,0,-1,1784,1765,0,0
567,-741,0,0,0,0,0,0,0,0,0,-1,1791,1765,0,0
574,-741,0,0,0,0,0,0,0,0,0,-1,1798,1765,0,0
581,-741,0,0,0,0,0,0,0,0,0,-1,1805,1765,0,0
588,-741,0,0,0,0,0,0,0,0,0,-1,1812,1765,0,0
595,-741,0,0,0,0,0,0,0,0,0,-1,1819,1765,0,0
602,-741,0,0,0,0,0,0,0,0,0,-1,1826,1765,0,0
609,-741,0,0,0,0,0,0,0,0,0,-1,1833,1765,0,0
616,-741,0,0,0,0,0,0,0,0,0,-1,1840,1765,0,0
623,-741,0,0,0,0,0,0,0,0,0,-1,1847,1765,0,0
630,-741,0,0,0,0,0,0,0,0,0,-1,1854,1765,0,0
637,-741,0,0,0,0,0,0,0,0,0,-1,1861,1765,0,0
644,-741,0,0,0,0,0,0,0,0,0,-1,1868,1765,0,0
651,-741,0,0,0,0,0,0,0,0,0,-1,1875,1765,0,0
658,-741,0,0,0,0,0,0,0,0,0,-1,1882,1765,0,0
665,-741,0,0,0,0,0,0,0,0,0,-1,1889,1765,0,0
672,-741,0,0,0,0,0,0,0,0,0,-1,1896,1765,0,0
679,-741,0,0,0,0,0,0,0,0,0,-1,1903,1765,0,0
686,-741,0,0,0,0,0,0,0,0,0,-1,1910,1765,0,0
693,-741,0,0,0,0,0,0,0,0,0,-1,1917,1765,0,0
700,-741,0,0,0,0,0,0,0,0,0,-1,1924,1765,0,0
707,-741,0,0,0,0,0,0,0,0,0,-1,1931,1765,0,0
714,-741,0,0,0,0,0,0,0,0,0,-1,1938,1765,0,0
721,-741,0,0,0,0,0,0,0,0,0,-1,1945,1765,0,0
728,-741,0,0,0,0,0,0,0,0,0,-1,1952,1765,0,0
735,-741,0,0,0,0,0,0,0,0,0,-1,1959,1765,0,0
742,-741,0,0,0,0,0,0,0,0,0,-1,1966,1765,0,0
749,-741,0,0,0,0,0,0,0,0,0,-1,1973,1765,0,0
756,-741,0,0,0,0,0,0,0,0,0,-1,1980,1765,0,0
763,-741,0,0,0,0,0,0,0,0,0,-1,1987,1765,0,0
770,-741,0,0,0,0,0,0,0,0,0,-1,1994,1765,0,0
777,-741,0,0,0,0,0,0,0,0,0,-1,2001,1765,0,0
784,-741,0,0,0,0,0,0,0,0,0,-1,2008,1765,0,0
791,-741,0,0,0,0,0,0,0,0,0,-1,2015,1765,0,0
798,-741,0,0,0,0,0,0,0,0,0,-1,2022,1765,0,0
805,-741,0,0,0,0,0,0,0,0,0,-1,2029,1765,0,0
812,-741,0,0,0,0,0,0,0,0,0,-1,2036,1765,0,0
-700,-748,0,0,0,0,0,0,0,0,0,-1,524,1772,0,0
-693,-748,0,0,0,0,0,0,0,0,0,-1,531,1772,0,0
-686,-748,0,0,0,0,0,0,0,0,0,-1,538,1772,0,0
-679,-748,0,0,0,0,0,0,0,0,0,-1,545,1772,0,0
-672,-748,0,0,0,0,0,0,0,0,0,-1,552,1772,0,0
-665,-748,0,0,0,0,0,0,0,0,0,-1,559,1772,0,0
-658,-748,0,0,0,0,0,0,0,0,0,-1,566,1772,0,0
-651,-748,0,0,0,0,0,0,0,0,0,-1,573,1772,0,0
-644,-748,0,0,0,0,0,0,0,0,0,-1,580,1772,0,0
-637,-748,0,0,0,0,0,0,0,0,0,-1,587,1772,0,0
-630,-748,0,0,0,0,0,0,0,0,0,-1,594,1772,0,0
-623,-748,0,0,0,0,0,0,0,0,0,-1,601,1772,0,0
-616,-748,0,0,0,0,0,0,0,0,0,-1,608,1772,0,0
-609,-748,0,0,0,0,0,0,0,0,0,-1,615,1772,0,0
-602,-748,0,0,0,0,0,0,0,0,0,-1,622,1772,0,0
-595,-748,0,0,0,0,0,0,0,0,0,-1,629,1772,0,0
-588,-748,0,0,0,0,0,0,0,0,0,-1,636,1772,0,0
-581,-748,0,0,0,0,0,0,0,0,0,-1,643,1772,0,0
-574,-748,0,0,0,0,0,0,0,0,0,-1,650,1772,0,0
-567,-748,0,0,0,0,0,0,0,0,0,-1,657,1772,0,0
-560,-748,0,0,0,0,0,0,0,0,0,-1,664,1772,0,0
-553,-748,0,0,0,0,0,0,0,0,0,-1,671,1772,0,0
-546,-748,0,0,0,0,0,0,0,0,0,-1,678,1772,0,0
-539,-748,0,0,0,0,0,0,0,0,0,-1,685,1772,0,0
-532,-748,0,0,0,0,0,0,0,0,0,-1,692,1772,0,0
-525,-748,0,0,0,0,0,0,0,0,0,-1,699,1772,0,0
-518,-748,0,0,0,0,0,0,0,0,0,-1,706,1772,0,0
-511,-748,0,0,0,0,0,0,0,0,0,-1,713,1772,0,0
-504,-748,0,0,0,0,0,0,0,0,0,-1,720,1772,0,0
-497,-748,0,0,0,0,0,0,0,0,0,-1,727,1772,0,0
-490,-748,0,0,0,0,0,0,0,0,0,-1,734,1772,0,0
-483,-748,0,0,0,0,0,0,0,0,0,-1,741,1772,0,0
-476,-748,0,0,0,0,0,0,0,0,0,-1,748,1772,0,0
-469,-748,0,0,0,0,0,0,0,0,0,-1,755,1772,0,0
-462,-748,0,0,0,0,0,0,0,0,0,-1,762,1772,0,0
-455,-748,0,0,0,0,0,0,0,0,0,-1,769,1772,0,0
-448,-748,0,0,0,0,0,0,0,0,0,-1,776,1772,0,0
-441,-748,0,0,0,0,0,0,0,0,0,-1,783,1772,0,0
-434,-748,0,0,0,0,0,0,0,0,0,-1,790,1772,0,0
-427,-748,0,0,0,0,0,0,0,0,0,-1,797,1772,0,0
-420,-748,0,0,0,0,0,0,0,0,0,-1,804,1772,0,0
-413,-748,0,0,0,0,0,0,0,0,0,-1,811,1772,0,0
-406,-748,0,0,0,0,0,0,0,0,0,-1,818,1772,0,0
-399,-748,0,0,0,0,0,0,0,0,0,-1,825,1772,0,0
-392,-748,0,0,0,0,0,0,0,0,0,-1,832,1772,0,0
-385,-748,0,0,0,0,0,0,0,0,0,-1,839,1772,0,0
-378,-748,0,0,0,0,0,0,0,0,0,-1,846,1772,0,0
-371,-748,0,0,0,0,0,0,0,0,0,-1,853,1772,0,0
-364,-748,0,0,0,0,0,0,0,0,0,-1,860,1772,0,0
-357,-748,0,0,0,0,0,0,0,0,0,-1,867,1772,0,0
-350,-748,0,0,0,0,0,0,0,0,0,-1,874,1772,0,0
-343,-748,0,0,0,0,0,0,0,0,0,-1,881,1772,0,0
-336,-748,0,0,0,0,0,0,0,0,0,-1,888,1772,0,0
-329,-748,0,0,0,0,0,0,0,0,0,-1,895,1772,0,0
-322,-748,0,0,0,0,0,0,0,0,0,-1,902,1772,0,0
-315,-748,0,0,0,0,0,0,0,0,0,-1,909,1772,0,0
-308,-748,0,0,0,0,0,0,0,0,0,-1,916,1772,0,0
-301,-748,0,0,0,0,0,0,0,0,0,-1,923,1772,0,0
-294,-748,0,0,0,0,0,0,0,0,0,-1,930,1772,0,0
-287,-748,0,0,0,0,0,0,0,0,0,-1,937,1772,0,0
-280,-748,0,0,0,0,0,0,0,0,0,-1,944,1772,0,0
-273,-748,0,0,0,0,0,0,0,0,0,-1,951,1772,0,0
-266,-748,0,0,0,0,0,0,0,0,0,-1,958,1772,0,0
-259,-748,0,0,0,0,0,0,0,0,0,-1,965,1772,0,0
-252,-748,0,0,0,0,0,0,0,0,0,-1,972,1772,0,0
-245,-748,0,0,0,0,0,0,0,0,0,-1,979,1772,0,0
-238,-748,0,0,0,0,0,0,0,0,0,-1,986,1772,0,0
-231,-748,0,0,0,0,0,0,0,0,0,-1,993,1772,0,0
-224,-748,0,0,0,0,0,0,0,0,0,-1,1000,1772,0,0
-217,-748,4.47906,3.62744,0,0,0,0,0,0,0,-1,1007,1772,4.47904,-3.62739
-210,-748,4.27588,3.24463,0,0,0,0,0,0,0,-1,1014,1772,4.27586,-3.24458
-203,-748,0.133484,4.71594,0,0,0,0,0,0,0,-1,1021,1772,0.133495,-4.71591
-196,-748,-0.179199,4.54956,0,0,0,0,0,0,0,-1,1028,1772,-0.179174,-4.54952
-189,-748,2.70471,7.01563,0,0,0,0,0,0,0,-1,1035,1772,2.70473,-7.01567
-182,-748,2.65857,6.52502,-0.0187721,-0.0323402,-0.0404355,0.0154445,-0.0665568,-0.702285,0.0503158,0.0479644,1042,1772,2.65859,-6.52507
-175,-748,2.55481,5.9873,-0.0180487,-0.0287214,-0.0412267,0.0181856,-0.0649557,-0.721036,0.0504699,0.0425787,1049,1772,2.55485,-5.98733
-168,-748,2.48291,5.46741,-0.0185316,-0.0218036,-0.0399092,0.019775,-0.0601103,-0.764913,0.0480416,0.0445674,1056,1772,2.48287,-5.46735
-161,-748,2.33569,4.78613,-0.0174586,-0.0109865,-0.0349455,0.0208725,-0.0493176,-0.831568,0.0416187,0.0494404,1063,1772,2.33568,-4.78614
-154,-748,2.18188,4.12207,0,0,0,0,0,0,0,-1,1070,1772,2.18193,-4.12208
-147,-748,3.22729,3.21838,0,0,0,0,0,0,0,-1,1077,1772,3.22732,-3.21841
-140,-748,3.54578,3.61987,-0.0208184,0.0129701,-0.0172645,0.0202311,-0.0280794,-1.17268,0.0280145,0.0485379,1084,1772,3.54583,-3.61992
-133,-748,3.77234,3.64026,-0.0222105,0.0188287,-0.0101876,0.0212185,-0.0246003,-1.34038,0.0264775,0.0416515,1091,1772,3.77235,-3.64022
-126,-748,2.76575,3.47656,-0.0227594,0.0233226,-0.00401764,0.0236703,-0.023107,-1.48448,0.0270075,0.0393106,1098,1772,2.76572,-3.47657
-119,-748,1.90613,3.4491,-0.0230546,0.0251809,0.00134579,0.0252184,-0.0230921,1.54292,0.0279011,0.0398948,1105,1772,1.90618,-3.44912
-112,-748,2.70422,4.98486,-0.0233266,0.0256872,0.0061387,0.0264443,-0.0240838,1.44808,0.029183,0.0418811,1112,1772,2.70428,-4.98486
-105,-748,2.59424,5.0155,-0.0235861,0.0236843,0.00956575,0.0255467,-0.0254485,1.37851,0.0294421,0.0398075,1119,1772,2.59421,-5.01556
-98,-748,2.53625,5.02844,-0.0233984,0.0197912,0.0118564,0.0228319,-0.0264391,1.31974,0.028472,0.0430026,1126,1772,2.53625,-5.0284
-91,-748,1.79297,4.59985,-0.0229015,0.0151468,0.0120419,0.0186376,-0.0263924,1.28864,0.0261263,0.0463015,1133,1772,1.79303,-4.59989
-84,-748,1.64075,4.82031,-0.0219432,0.0115844,0.0122772,0.0155993,-0.0259581,1.25474,0.0242404,0.048565,1140,1772,1.6407,-4.82037
-77,-748,2.48425,4.8999,0,0,0,0,0,0,0,-1,1147,1772,2.4842,-4.89994
-70,-748,2.64111,4.7406,-0.0173908,0.00576336,0.0118691,0.0107665,-0.022394,1.17187,0.0195336,0.0439918,1154,1772,2.64115,-4.7406
-63,-748,2.50732,5.00586,-0.0150047,0.00459768,0.0110908,0.00959746,-0.0200045,1.14727,0.0174392,0.0455237,1161,1772,2.50736,-5.00583
-56,-748,1.89966,5.20886,-0.0147492,0.00340801,0.00807794,0.00648153,-0.0178227,1.20723,0.0145324,0.0483691,1168,1772,1.89968,-5.20889
-49,-748,2.36719,4.91833,0,0,0,0,0,0,0,-1,1175,1772,2.3672,-4.91829
-42,-748,2.47717,4.94006,0,0,0,0,0,0,0,-1,1182,1772,2.4772,-4.9401
-35,-748,2.09448,5.11682,-0.0066747,0.0101869,0.00786984,0.0132892,-0.00977701,1.1953,0.0133687,0.040436,1189,1772,2.0945,-5.11684
-28,-748,2.4834,5.17883,-0.00693113,0.0103872,0.00548321,0.0119773,-0.00852119,1.28855,0.0118907,0.0258634,1196,1772,2.48341,-5.17887
-21,-748,2.5365,5.17053,-0.00714541,0.0105601,0.00435597,0.0115738,-0.00815904,1.34216,0.0114495,0.0216539,1203,1772,2.53655,-5.17056
-14,-748,2.53247,5.15125,-0.00666592,0.010288,0.00359447,0.0110186,-0.00739651,1.37027,0.0107003,0.0156906,1210,1772,2.53247,-5.15128
-7,-748,2.51379,5.15796,-0.00557352,0.0100096,0.00295921,0.0105526,-0.00611655,1.38931,0.0097369,0.0149077,1217,1772,2.5138,-5.15801
0,-748,2.48523,5.16528,-0.00478029,0.00946578,0.00197714,0.00973509,-0.0050496,1.43542,0.00867765,0.0153256,1224,1772,2.48519,-5.16529
7,-748,2.48059,5.18958,-0.00405567,0.00821406,0.00132018,0.0083545,-0.00419611,1.46482,0.00737748,0.0144343,1231,1772,2.48061,-5.18961
14,-748,2.48901,5.20361,-0.00316159,0.00741586,0.000706288,0.00746281,-0.00320855,1.50442,0.0063222,0.0144375,1238,1772,2.48899,-5.20364
21,-748,2.50513,5.20898,-0.00250365,0.00702224,-9.0672e-05,0.00702311,-0.00250451,-1.56128,0.00570326,0.0110964,1245,1772,2.50509,-5.20902
28,-748,2.47083,5.23633,-0.00166561,0.00666365,-0.000580996,0.00670398,-0.00170594,-1.50149,0.00513334,0.0113488,1252,1772,2.47088,-5.23636
35,-748,2.47815,5.23499,-0.000656911,0.00615103,-0.000985272,0.00629075,-0.000796636,-1.42992,0.00448304,0.0117047,1259,1772,2.47818,-5.23498
42,-748,2.47925,5.23975,0.000239453,0.00556571,-0.00149962,0.0059589,-0.00015374,-1.31437,0.00402483,0.0122788,1266,1772,2.4793,-5.23977
49,-748,2.46667,5.23438,0.001071,0.00482662,-0.00209832,0.00576468,0.000132944,-1.1504,0.00379958,0.00954781,1273,1772,2.46669,-5.23442
56,-748,2.4613,5.24988,0.00154745,0.00431929,-0.00257748,0.00585983,6.90552e-06,-1.03207,0.00390425,0.00963415,1280,1772,2.46134,-5.24989
63,-748,2.47583,5.22754,0.00168144,0.00420154,-0.00256627,0.00580041,8.25657e-05,-1.01361,0.00383972,0.0117781,1287,1772,2.47583,-5.22749
70,-748,2.4679,5.21765,0.00168462,0.00361307,-0.00238497,0.00522136,7.63386e-05,-0.977499,0.00345574,0.0135741,1294,1772,2.46795,-5.21762
77,-748,2.45679,5.23242,0.0018418,0.0030505,-0.00177809,0.00432414,0.000568168,-0.949217,0.00271327,0.0122626,1301,1772,2.4568,-5.23246
84,-748,2.42749,5.27698,0.00181827,0.0023273,-0.00107607,0.00317855,0.000967024,-0.901526,0.00188144,0.0133536,1308,1772,2.42752,-5.27697
91,-748,2.43445,5.2644,0.00143659,0.0016366,-0.000356887,0.00190723,0.00116596,-0.922,0.0011102,0.0108593,1315,1772,2.4344,-5.26437
98,-748,2.44177,5.245,0.00097,0.00112848,0.000416998,0.0014737,0.00062478,0.879291,0.000854115,0.00967348,1322,1772,2.44173,-5.24498
105,-748,2.4502,5.23071,0.000914112,0.000670898,0.0013571,0.00215504,-0.000570034,0.740713,0.00165967,0.0116284,1329,1772,2.45018,-5.23077
112,-748,2.46814,5.22351,0.00116796,0.000381515,0.00267499,0.00347847,-0.001929,0.712421,0.00316444,0.015078,1336,1772,2.46809,-5.22348
119,-748,2.46814,5.21423,0.00239404,-0.000455389,0.00433464,0.0055321,-0.00359345,0.626619,0.00530812,0.0139812,1343,1772,2.46809,-5.21418
126,-748,2.47363,5.20886,0.00415175,-0.0014917,0.0064111,0.00833462,-0.00567456,0.57809,0.00813666,0.015157,1350,1772,2.47366,-5.20882
133,-748,2.44312,5.19836,0.00592268,-0.00219585,0.00842946,0.0112193,-0.00749252,0.561006,0.0108745,0.00897415,1357,1772,2.44312,-5.19835
140,-748,2.44043,5.20642,0.00700232,-0.00277216,0.00949433,0.0127934,-0.00856328,0.547708,0.0124107,0.0116866,1364,1772,2.44041,-5.20648
147,-748,2.46912,5.20178,0.00753492,-0.00380356,0.01091,0.0141607,-0.0104294,0.545781,0.0142515,0.0130625,1371,1772,2.46917,-5.20174
154,-748,2.46057,5.18835,0.00682667,-0.00484753,0.0114721,0.0138613,-0.0118822,0.550064,0.0148776,0.0110801,1378,1772,2.46051,-5.18831
161,-748,2.46558,5.18286,0.00617102,-0.00626801,0.0111791,0.0127442,-0.0128412,0.531544,0.0147718,0.0153867,1385,1772,2.46557,-5.1829
168,-748,2.74194,5.20178,0.00535776,-0.00839504,0.00979524,0.0104493,-0.0134866,0.47936,0.0138564,0.0384901,1392,1772,2.74192,-5.20173
175,-748,2.5918,5.02124,0,0,0,0,0,0,0,-1,1399,1772,2.59174,-5.02122
182,-748,3.1803,4.68994,0,0,0,0,0,0,0,-1,1406,1772,3.18033,-4.68992
189,-748,4.8822,5.25623,0.000221139,-0.0132073,0.00308502,0.000895972,-0.0138822,0.215353,0.00956742,0.0460661,1413,1772,4.88221,-5.25629
196,-748,4.46558,5.33655,-0.00202564,-0.0146521,0.000240767,-0.00202105,-0.0146567,0.0190592,0.00917195,0.0453674,1420,1772,4.46562,-5.33654
203,-748,3.02795,5.15613,-0.00373722,-0.0156433,-0.00285581,-0.00308766,-0.0162929,-0.223648,0.00999298,0.0450819,1427,1772,3.0279,-5.1561
210,-748,2.4458,5.07117,-0.00511006,-0.0157663,-0.00576567,-0.00258759,-0.0182888,-0.412408,0.0114281,0.0330721,1434,1772,2.44581,-5.07116
217,-748,2.55725,5.0144,-0.00607002,-0.0147972,-0.00928555,-0.000173852,-0.0206933,-0.565746,0.013738,0.0324718,1441,1772,2.55726,-5.01446
224,-748,2.55457,4.98108,-0.00611505,-0.0125131,-0.0125254,0.00361344,-0.0222416,-0.66037,0.0161674,0.0384114,1448,1772,2.55462,-4.98111
231,-748,2.604,5.0603,-0.00595795,-0.00911619,-0.0161869,0.00872664,-0.0238008,-0.736774,0.0194403,0.0422643,1455,1772,2.60403,-5.06032
238,-748,1.4054,4.80872,0,0,0,0,0,0,0,-1,1462,1772,1.40542,-4.80867
245,-748,1.37561,4.79456,0,0,0,0,0,0,0,-1,1469,1772,1.37556,-4.79459
252,-748,1.3457,4.78052,0,0,0,0,0,0,0,-1,1476,1772,1.3457,-4.7805
259,-748,3.2583,4.78406,0,0,0,0,0,0,0,-1,1483,1772,3.25828,-4.78407
266,-748,3.32263,4.43591,0.00404077,0.00320609,-0.021752,0.0253795,-0.0181326,-0.775806,0.0252376,0.0459616,1490,1772,3.32267,-4.4359
273,-748,3.39795,4.06213,0.00478201,0.00453981,-0.0211379,0.0257991,-0.0164773,-0.782534,0.0246053,0.0471497,1497,1772,3.39789,-4.06215
280,-748,3.38733,3.93884,0.00556084,0.00385685,-0.0206927,0.0254191,-0.0160014,-0.764823,0.0241193,0.0452526,1504,1772,3.38734,-3.93886
287,-748,3.32971,3.85205,0.00764813,0.000696365,-0.0208831,0.0253426,-0.0169981,-0.702932,0.0246032,0.0436092,1511,1772,3.32975,-3.85203
294,-748,3.34534,3.53748,0.0116867,-0.00331812,-0.0224865,0.0278893,-0.0195207,-0.624385,0.027514,0.0457076,1518,1772,3.34532,-3.5375
301,-748,3.33716,3.41309,0,0,0,0,0,0,0,-1,1525,1772,3.33717,-3.41307
308,-748,3.16895,4.02234,0,0,0,0,0,0,0,-1,1532,1772,3.16891,-4.02239
315,-748,3.20972,4.37488,0,0,0,0,0,0,0,-1,1539,1772,3.20975,-4.37486
322,-748,3.44971,4.7887,0,0,0,0,0,0,0,-1,1546,1772,3.44966,-4.78868
329,-748,3.54114,5.32104,0,0,0,0,0,0,0,-1,1553,1772,3.5411,-5.3211
336,-748,3.44043,3.01672,0,0,0,0,0,0,0,-1,1560,1772,3.44043,-3.01673
343,-748,0,0,0,0,0,0,0,0,0,-1,1567,1772,0,0
350,-748,0,0,0,0,0,0,0,0,0,-1,1574,1772,0,0
357,-748,0,0,0,0,0,0,0,0,0,-1,1581,1772,0,0
364,-748,0,0,0,0,0,0,0,0,0,-1,1588,1772,0,0
371,-748,0,0,0,0,0,0,0,0,0,-1,1595,1772,0,0
378,-748,0,0,0,0,0,0,0,0,0,-1,1602,1772,0,0
385,-748,0,0,0,0,0,0,0,0,0,-1,1609,1772,0,0
392,-748,0,0,0,0,0,0,0,0,0,-1,1616,1772,0,0
399,-748,0,0,0,0,0,0,0,0,0,-1,1623,1772,0,0
406,-748,0,0,0,0,0,0,0,0,0,-1,1630,1772,0,0
413,-748,0,0,0,0,0,0,0,0,0,-1,1637,1772,0,0
420,-748,0,0,0,0,0,0,0,0,0,-1,1644,1772,0,0
427,-748,0,0,0,0,0,0,0,0,0,-1,1651,1772,0,0
434,-748,0,0,0,0,0,0,0,0,0,-1,1658,1772,0,0
441,-748,0,0,0,0,0,0,0,0,0,-1,1665,1772,0,0
448,-748,0,0,0,0,0,0,0,0,0,-1,1672,1772,0,0
455,-748,0,0,0,0,0,0,0,0,0,-1,1679,1772,0,0
462,-748,0,0,0,0,0,0,0,0,0,-1,1686,1772,0,0
469,-748,0,0,0,0,0,0,0,0,0,-1,1693,1772,0,0
476,-748,0,0,0,0,0,0,0,0,0,-1,1700,1772,0,0
483,-748,0,0,0,0,0,0,0,0,0,-1,1707,1772,0,0
490,-748,0,0,0,0,0,0,0,0,0,-1,1714,1772,0,0
497,-748,0,0,0,0,0,0,0,0,0,-1,1721,1772,0,0
504,-748,0,0,0,0,0,0,0,0,0,-1,1728,1772,0,0
511,-748,0,0,0,0,0,0,0,0,0,-1,1735,1772,0,0
518,-748,0,0,0,0,0,0,0,0,0,-1,1742,1772,0,0
525,-748,0,0,0,0,0,0,0,0,0,-1,1749,1772,0,0
532,-748,0,0,0,0,0,0,0,0,0,-1,1756,1772,0,0
539,-748,0,0,0,0,0,0,0,0,0,-1,1763,1772,0,0
546,-748,0,0,0,0,0,0,0,0,0,-1,1770,1772,0,0
553,-748,0,0,0,0,0,0,0,0,0,-1,1777,1772,0,0
560,-748,0,0,0,0,0,0,0,0,0,-1,1784,1772,0,0
567,-748,0,0,0,0,0,0,0,0,0,-1,1791,1772,0,0
574,-748,0,0,0,0,0,0,0,0,0,-1,1798,1772,0,0
581,-748,0,0,0,0,0,0,0,0,0,-1,1805,1772,0,0
588,-748,0,0,0,0,0,0,0,0,0,-1,1812,1772,0,0
595,-748,0,0,0,0,0,0,0,0,0,-1,1819,1772,0,0
602,-748,0,0,0,0,0,0,0,0,0,-1,1826,1772,0,0
609,-748,0,0,0,0,0,0,0,0,0,-1,1833,1772,0,0
616,-748,0,0,0,0,0,0,0,0,0,-1,1840,1772,0,0
623,-748,0,0,0,0,0,0,0,0,0,-1,1847,1772,0,0
630,-748,0,0,0,0,0,0,0,0,0,-1,1854,1772,0,0
637,-748,0,0,0,0,0,0,0,0,0,-1,1861,1772,0,0
644,-748,0,0,0,0,0,0,0,0,0,-1,1868,1772,0,0
651,-748,0,0,0,0,0,0,0,0,0,-1,1875,1772,0,0
658,-748,0,0,0,0,0,0,0,0,0,-1,1882,1772,0,0
665,-748,0,0,0,0,0,0,0,0,0,-1,1889,1772,0,0
672,-748,0,0,0,0,0,0,0,0,0,-1,1896,1772,0,0
679,-748,0,0,0,0,0,0,0,0,0,-1,1903,1772,0,0
686,-748,0,0,0,0,0,0,0,0,0,-1,1910,1772,0,0
693,-748,0,0,0,0,0,0,0,0,0,-1,1917,1772,0,0
700,-748,0,0,0,0,0,0,0,0,0,-1,1924,1772,0,0
707,-748,0,0,0,0,0,0,0,0,0,-1,1931,1772,0,0
714,-748,0,0,0,0,0,0,0,0,0,-1,1938,1772,0,0
721,-748,0,0,0,0,0,0,0,0,0,-1,1945,1772,0,0
728,-748,0,0,0,0,0,0,0,0,0,-1,1952,1772,0,0
735,-748,0,0,0,0,0,0,0,0,0,-1,1959,1772,0,0
742,-748,0,0,0,0,0,0,0,0,0,-1,1966,1772,0,0
749,-748,0,0,0,0,0,0,0,0,0,-1,1973,1772,0,0
756,-748,0,0,0,0,0,0,0,0,0,-1,1980,1772,0,0
763,-748,0,0,0,0,0,0,0,0,0,-1,1987,1772,0,0
770,-748,0,0,0,0,0,0,0,0,0,-1,1994,1772,0,0
777,-748,0,0,0,0,0,0,0,0,0,-1,2001,1772,0,0
784,-748,0,0,0,0,0,0,0,0,0,-1,2008,1772,0,0
791,-748,0,0,0,0,0,0,0,0,0,-1,2015,1772,0,0
798,-748,0,0,0,0,0,0,0,0,0,-1,2022,1772,0,0
805,-748,0,0,0,0,0,0,0,0,0,-1,2029,1772,0,0
812,-748,0,0,0,0,0,0,0,0,0,-1,2036,1772,0,0
-700,-755,0,0,0,0,0,0,0,0,0,-1,524,1779,0,0
-693,-755,0,0,0,0,0,0,0,0,0,-1,531,1779,0,0
-686,-755,0,0,0,0,0,0,0,0,0,-1,538,1779,0,0
-679,-755,0,0,0,0,0,0,0,0,0,-1,545,1779,0,0
-672,-755,0,0,0,0,0,0,0,0,0,-1,552,1779,0,0
-665,-755,0,0,0,0,0,0,0,0,0,-1,559,1779,0,0
-658,-755,0,0,0,0,0,0,0,0,0,-1,566,1779,0,0
-651,-755,0,0,0,0,0,0,0,0,0,-1,573,1779,0,0
-644,-755,0,0,0,0,0,0,0,0,0,-1,580,1779,0,0
-637,-755,0,0,0,0,0,0,0,0,0,-1,587,1779,0,0
-630,-755,0,0,0,0,0,0,0,0,0,-1,594,1779,0,0
-623,-755,0,0,0,0,0,0,0,0,0,-1,601,1779,0,0
-616,-755,0,0,0,0,0,0,0,0,0,-1,608,1779,0,0
-609,-755,0,0,0,0,0,0,0,0,0,-1,615,1779,0,0
-602,-755,0,0,0,0,0,0,0,0,0,-1,622,1779,0,0
-595,-755,0,0,0,0,0,0,0,0,0,-1,629,1779,0,0
-588,-755,0,0,0,0,0,0,0,0,0,-1,636,1779,0,0
-581,-755,0,0,0,0,0,0,0,0,0,-1,643,1779,0,0
-574,-755,0,0,0,0,0,0,0,0,0,-1,650,1779,0,0
-567,-755,0,0,0,0,0,0,0,0,0,-1,657,1779,0,0
-560,-755,0,0,0,0,0,0,0,0,0,-1,664,1779,0,0
-553,-755,0,0,0,0,0,0,0,0,0,-1,671,1779,0,0
-546,-755,0,0,0,0,0,0,0,0,0,-1,678,1779,0,0
-539,-755,0,0,0,0,0,0,0,0,0,-1,685,1779,0,0
-532,-755,0,0,0,0,0,0,0,0,0,-1,692,1779,0,0
-525,-755,0,0,0,0,0,0,0,0,0,-1,699,1779,0,0
-518,-755,0,0,0,0,0,0,0,0,0,-1,706,1779,0,0
-511,-755,0,0,0,0,0,0,0,0,0,-1,713,1779,0,0
-504,-755,0,0,0,0,0,0,0,0,0,-1,720,1779,0,0
-497,-755,0,0,0,0,0,0,0,0,0,-1,727,1779,0,0
-490,-755,0,0,0,0,0,0,0,0,0,-1,734,1779,0,0
-483,-755,0,0,0,0,0,0,0,0,0,-1,741,1779,0,0
-476,-755,0,0,0,0,0,0,0,0,0,-1,748,1779,0,0
-469,-755,0,0,0,0,0,0,0,0,0,-1,755,1779,0,0
-462,-755,0,0,0,0,0,0,0,0,0,-1,762,1779,0,0
-455,-755,0,0,0,0,0,0,0,0,0,-1,769,1779,0,0
-448,-755,0,0,0,0,0,0,0,0,0,-1,776,1779,0,0
-441,-755,0,0,0,0,0,0,0,0,0,-1,783,1779,0,0
-434,-755,0,0,0,0,0,0,0,0,0,-1,790,1779,0,0
-427,-755,0,0,0,0,0,0,0,0,0,-1,797,1779,0,0
-420,-755,0,0,0,0,0,0,0,0,0,-1,804,1779,0,0
-413,-755,0,0,0,0,0,0,0,0,0,-1,811,1779,0,0
-406,-755,0,0,0,0,0,0,0,0,0,-1,818,1779,0,0
-399,-755,0,0,0,0,0,0,0,0,0,-1,825,1779,0,0
-392,-755,0,0,0,0,0,0,0,0,0,-1,832,1779,0,0
-385,-755,0,0,0,0,0,0,0,0,0,-1,839,1779,0,0
-378,-755,0,0,0,0,0,0,0,0,0,-1,846,1779,0,0
-371,-755,0,0,0,0,0,0,0,0,0,-1,853,1779,0,0
-364,-755,0,0,0,0,0,0,0,0,0,-1,860,1779,0,0
-357,-755,0,0,0,0,0,0,0,0,0,-1,867,1779,0,0
-350,-755,0,0,0,0,0,0,0,0,0,-1,874,1779,0,0
-343,-755,0,0,0,0,0,0,0,0,0,-1,881,1779,0,0
-336,-755,0,0,0,0,0,0,0,0,0,-1,888,1779,0,0
-329,-755,0,0,0,0,0,0,0,0,0,-1,895,1779,0,0
-322,-755,0,0,0,0,0,0,0,0,0,-1,902,1779,0,0
-315,-755,0,0,0,0,0,0,0,0,0,-1,909,1779,0,0
-308,-755,0,0,0,0,0,0,0,0,0,-1,916,1779,0,0
-301,-755,0,0,0,0,0,0,0,0,0,-1,923,1779,0,0
-294,-755,0,0,0,0,0,0,0,0,0,-1,930,1779,0,0
-287,-755,0,0,0,0,0,0,0,0,0,-1,937,1779,0,0
-280,-755,0,0,0,0,0,0,0,0,0,-1,944,1779,0,0
-273,-755,0,0,0,0,0,0,0,0,0,-1,951,1779,0,0
-266,-755,0,0,0,0,0,0,0,0,0,-1,958,1779,0,0
-259,-755,0,0,0,0,0,0,0,0,0,-1,965,1779,0,0
-252,-755,0,0,0,0,0,0,0,0,0,-1,972,1779,0,0
-245,-755,0,0,0,0,0,0,0,0,0,-1,979,1779,0,0
-238,-755,0,0,0,0,0,0,0,0,0,-1,986,1779,0,0
-231,-755,0,0,0,0,0,0,0,0,0,-1,993,1779,0,0
-224,-755,0,0,0,0,0,0,0,0,0,-1,1000,1779,0,0
-217,-755,0,0,0,0,0,0,0,0,0,-1,1007,1779,0,0
-210,-755,0,0,0,0,0,0,0,0,0,-1,1014,1779,0,0
-203,-755,-0.237671,5.41992,0,0,0,0,0,0,0,-1,1021,1779,-0.237688,-5.41993
-196,-755,-0.538208,5.12537,0,0,0,0,0,0,0,-1,1028,1779,-0.538163,-5.12538
-189,-755,-1.37549,4.99939,0,0,0,0,0,0,0,-1,1035,1779,-1.3755,-4.99942
-182,-755,2.78796,6.99622,0,0,0,0,0,0,0,-1,1042,1779,2.78793,-6.99622
-175,-755,2.66296,6.48218,0,0,0,0,0,0,0,-1,1049,1779,2.66292,-6.48217
-168,-755,2.62817,6.04529,-0.0243703,-0.0352864,-0.0506282,0.0210932,-0.08075,-0.731702,0.0620708,0.0460675,1056,1779,2.62813,-6.04528
-161,-755,2.44861,5.32813,-0.0236159,-0.0204902,-0.0439463,0.021921,-0.0660271,-0.803172,0.0528624,0.0472054,1063,1779,2.44865,-5.32811
-154,-755,2.32959,4.67969,-0.0232228,-0.00928479,-0.0369841,0.0213812,-0.0538888,-0.878522,0.0447877,0.0494203,1070,1779,2.32959,-4.67974
-147,-755,2.35547,4.22485,0,0,0,0,0,0,0,-1,1077,1779,2.35547,-4.22488
-140,-755,5.07397,2.73022,0,0,0,0,0,0,0,-1,1084,1779,5.07393,-2.7302
-133,-755,4.00024,2.85266,-0.0301315,0.0183887,-0.0125561,0.0214454,-0.0331883,-1.332,0.0317847,0.0489226,1091,1779,4.00025,-2.85266
-126,-755,2.9574,2.96387,-0.0309977,0.0245539,-0.00511407,0.0250208,-0.0314646,-1.47976,0.0326825,0.045913,1098,1779,2.95735,-2.96392
-119,-755,2.0675,3.32654,-0.031484,0.0274845,0.0013753,0.0275166,-0.031516,1.54749,0.0341086,0.0428495,1105,1779,2.0675,-3.32655
-112,-755,0.795044,3.23364,-0.0319523,0.0288588,0.00726705,0.0297151,-0.0328087,1.45349,0.0361129,0.0423207,1112,1779,0.795007,-3.23363
-105,-755,2.91577,5.44653,-0.0323194,0.0268549,0.0113634,0.0289621,-0.0344265,1.38745,0.0366427,0.0435727,1119,1779,2.9158,-5.44655
-98,-755,2.53918,5.14746,-0.0321544,0.0222697,0.0138694,0.0256004,-0.0354851,1.33512,0.0354213,0.0477795,1126,1779,2.53916,-5.14749
-91,-755,1.19031,4.38452,0,0,0,0,0,0,0,-1,1133,1779,1.19034,-4.38455
-84,-755,0.93457,4.72131,0,0,0,0,0,0,0,-1,1140,1779,0.934533,-4.72128
-77,-755,2.24023,4.65442,0,0,0,0,0,0,0,-1,1147,1779,2.24018,-4.65446
-70,-755,2.86511,4.40552,0,0,0,0,0,0,0,-1,1154,1779,2.86512,-4.40553
-63,-755,2.51697,4.953,0,0,0,0,0,0,0,-1,1161,1779,2.51697,-4.95295
-56,-755,1.09253,5.44617,0,0,0,0,0,0,0,-1,1168,1779,1.09247,-5.44622
-49,-755,-0.010376,5.51111,0,0,0,0,0,0,0,-1,1175,1779,-0.0103986,-5.51115
-42,-755,0.412231,4.39783,0,0,0,0,0,0,0,-1,1182,1779,0.41227,-4.39783
-35,-755,1.47656,5.11084,0,0,0,0,0,0,0,-1,1189,1779,1.47661,-5.11088
-28,-755,2.19653,5.38074,0,0,0,0,0,0,0,-1,1196,1779,2.19649,-5.3807
-21,-755,2.58337,5.12488,0,0,0,0,0,0,0,-1,1203,1779,2.58332,-5.12482
-14,-755,2.57019,5.13586,-0.0105882,0.0172311,0.00496468,0.0180906,-0.0114476,1.39938,0.017197,0.0321274,1210,1779,2.57021,-5.13591
-7,-755,2.49023,5.13574,-0.00886691,0.0165387,0.00417557,0.0172074,-0.00953559,1.412,0.0156504,0.0217409,1217,1779,2.49028,-5.1357
0,-755,2.4762,5.17261,-0.00765943,0.0155056,0.00294075,0.0158731,-0.00802692,1.44648,0.0140443,0.0132233,1224,1779,2.47616,-5.17266
7,-755,2.49219,5.20911,-0.00645391,0.0135503,0.00206062,0.0137603,-0.00666397,1.46921,0.0120269,0.0114286,1231,1779,2.49221,-5.20908
14,-755,2.48511,5.21289,-0.00491673,0.0122341,0.00118906,0.0123161,-0.00499877,1.50191,0.01029,0.0103392,1238,1779,2.48508,-5.21283
21,-755,2.46741,5.23315,-0.00365365,0.0114108,0.000144274,0.0114122,-0.00365503,1.56122,0.00907522,0.0145838,1245,1779,2.46744,-5.2331
28,-755,2.46033,5.23523,-0.00223839,0.0106012,-0.000468825,0.0106183,-0.00225548,-1.53435,0.0079382,0.0168795,1252,1779,2.46035,-5.23523
35,-755,2.49548,5.23425,-0.000710269,0.00952781,-0.000927122,0.00961109,-0.000793548,-1.48121,0.00668762,0.0167272,1259,1779,2.49547,-5.23426
42,-755,2.48291,5.22827,0.000625907,0.00846558,-0.00156765,0.00876743,0.000324056,-1.38057,0.00573998,0.0129585,1266,1779,2.48285,-5.22827
49,-755,2.47217,5.22461,0.00185606,0.00720348,-0.00228977,0.00804996,0.00100957,-1.2167,0.00506378,0.00918116,1273,1779,2.47214,-5.22461
56,-755,2.46631,5.24414,0.00259674,0.00629421,-0.00283721,0.00783186,0.0010591,-1.07415,0.00490646,0.0085931,1280,1779,2.46633,-5.24415
63,-755,2.47217,5.24023,0.00282536,0.00582672,-0.00279147,0.00749532,0.00115676,-1.03203,0.00465941,0.00892369,1287,1779,2.47214,-5.24026
70,-755,2.48181,5.22119,0.00282458,0.00476818,-0.00258009,0.00655341,0.00103934,-0.965508,0.00406701,0.0111205,1294,1779,2.48179,-5.22122
77,-755,2.47266,5.2207,0.00300095,0.00384243,-0.00176212,0.00523334,0.00161004,-0.902589,0.0030951,0.00974881,1301,1779,2.47265,-5.22067
84,-755,2.46863,5.23853,0.00296299,0.00270396,-0.000849566,0.00369286,0.00197409,-0.709756,0.00213377,0.0100798,1308,1779,2.46858,-5.23858
91,-755,2.46729,5.24109,0.00241017,0.00160569,5.84142e-05,0.00241439,0.00160147,0.0721068,0.00141852,0.0106384,1315,1779,2.46734,-5.24108
98,-755,2.45032,5.2384,0.00171275,0.000764035,0.00101595,0.00235963,0.000117154,0.566985,0.00153552,0.011431,1322,1779,2.45027,-5.23834
105,-755,2.47314,5.2323,0.00163483,9.44957e-07,0.00221014,0.00317418,-0.00153841,0.60837,0.00277491,0.0154876,1329,1779,2.47308,-5.23225
112,-755,2.48096,5.21667,0.00203376,-0.000464943,0.00396348,0.00494013,-0.00337131,0.632719,0.00482702,0.0213551,1336,1779,2.48099,-5.2167
119,-755,2.45825,5.22327,0.00363767,-0.00171772,0.00628833,0.00779467,-0.00587472,0.584116,0.00791794,0.0206196,1343,1779,2.45819,-5.22326
126,-755,2.4469,5.25525,0.00595039,-0.00316784,0.00918095,0.0116419,-0.00885936,0.554943,0.0118727,0.0217969,1350,1779,2.44695,-5.25521
133,-755,2.40405,5.21741,0.00829202,-0.00407838,0.0120087,0.0156148,-0.0114012,0.547587,0.0156608,0.0227395,1357,1779,2.4041,-5.21737
140,-755,2.37012,5.25061,0.00977702,-0.00468552,0.0139188,0.0182309,-0.0131394,0.545823,0.018191,0.0280482,1364,1779,2.37017,-5.25057
147,-755,2.46118,5.2832,0.0105383,-0.00590098,0.0164407,0.0206996,-0.0160623,0.553591,0.0212807,0.0279731,1371,1779,2.46116,-5.28324
154,-755,2.50891,5.19629,0.0101096,-0.00712697,0.017913,0.0213698,-0.0183871,0.561183,0.0229751,0.0304228,1378,1779,2.50892,-5.19629
161,-755,2.51843,5.20007,0,0,0,0,0,0,0,-1,1385,1779,2.51839,-5.20007
168,-755,3.2041,5.36682,0,0,0,0,0,0,0,-1,1392,1779,3.20407,-5.36687
175,-755,6.17651,2.59961,0,0,0,0,0,0,0,-1,1399,1779,6.17651,-2.59958
182,-755,4.54272,4.02441,0,0,0,0,0,0,0,-1,1406,1779,4.54275,-4.02445
189,-755,6.82092,5.63794,0,0,0,0,0,0,0,-1,1413,1779,6.82087,-5.63794
196,-755,6.13953,5.62012,0,0,0,0,0,0,0,-1,1420,1779,6.1395,-5.62015
203,-755,4.06848,5.41833,-0.00209658,-0.0206879,0.00129653,-0.0020066,-0.0207779,0.0692913,0.0132338,0.0478577,1427,1779,4.06854,-5.41839
210,-755,2.37854,5.19751,-0.00385451,-0.0209904,-0.00286722,-0.00338748,-0.0214574,-0.161465,0.0133202,0.0475797,1434,1779,2.37852,-5.19749
217,-755,2.62939,5.23352,-0.0051015,-0.0199949,-0.0078813,-0.00170531,-0.0233911,-0.406872,0.0150578,0.0438121,1441,1779,2.62942,-5.23357
224,-755,2.67346,5.17749,-0.00518369,-0.0172942,-0.0125778,0.00272053,-0.0251985,-0.561059,0.0177754,0.0448717,1448,1779,2.67348,-5.17749
231,-755,2.68591,5.17517,-0.00530825,-0.013413,-0.0180106,0.00910022,-0.0278214,-0.674742,0.0222114,0.0434896,1455,1779,2.68595,-5.17511
238,-755,2.79175,4.57996,0,0,0,0,0,0,0,-1,1462,1779,2.79176,-4.58
245,-755,1.03638,4.51624,0,0,0,0,0,0,0,-1,1469,1779,1.0364,-4.51625
252,-755,4.39954,3.9657,0,0,0,0,0,0,0,-1,1476,1779,4.39949,-3.96575
259,-755,3.05017,3.53613,0,0,0,0,0,0,0,-1,1483,1779,3.05017,-3.53613
266,-755,3.53149,4.11096,0,0,0,0,0,0,0,-1,1490,1779,3.53147,-4.11095
273,-755,3.49817,3.7002,0.00666656,-0.00211148,-0.0245667,0.0272332,-0.0226781,-0.697002,0.0288563,0.0466075,1497,1779,3.49818,-3.7002
280,-755,3.7334,3.97498,0.00769212,-0.00379998,-0.0227273,0.0253885,-0.0214964,-0.66158,0.0271001,0.0458041,1504,1779,3.73339,-3.97494
287,-755,3.65088,3.97302,0.00979801,-0.00910575,-0.0221901,0.0244654,-0.0237732,-0.584061,0.0278515,0.0421674,1511,1779,3.65086,-3.97307
294,-755,3.63818,4.11926,0.0141955,-0.0154202,-0.023272,0.0269713,-0.028196,-0.502058,0.0318535,0.0437691,1518,1779,3.6382,-4.11927
301,-755,3.72778,4.27295,0,0,0,0,0,0,0,-1,1525,1779,3.72775,-4.27298
308,-755,3.52393,4.47302,0,0,0,0,0,0,0,-1,1532,1779,3.52389,-4.47303
315,-755,3.2196,4.7959,0,0,0,0,0,0,0,-1,1539,1779,3.21956,-4.79593
322,-755,0,0,0,0,0,0,0,0,0,-1,1546,1779,0,0
329,-755,0,0,0,0,0,0,0,0,0,-1,1553,1779,0,0
336,-755,0,0,0,0,0,0,0,0,0,-1,1560,1779,0,0
343,-755,0,0,0,0,0,0,0,0,0,-1,1567,1779,0,0
350,-755,0,0,0,0,0,0,0,0,0,-1,1574,1779,0,0
357,-755,0,0,0,0,0,0,0,0,0,-1,1581,1779,0,0
364,-755,0,0,0,0,0,0,0,0,0,-1,1588,1779,0,0
371,-755,0,0,0,0,0,0,0,0,0,-1,1595,1779,0,0
378,-755,0,0,0,0,0,0,0,0,0,-1,1602,1779,0,0
385,-755,0,0,0,0,0,0,0,0,0,-1,1609,1779,0,0
392,-755,0,0,0,0,0,0,0,0,0,-1,1616,1779,0,0
399,-755,0,0,0,0,0,0,0,0,0,-1,1623,1779,0,0
406,-755,0,0,0,0,0,0,0,0,0,-1,1630,1779,0,0
413,-755,0,0,0,0,0,0,0,0,0,-1,1637,1779,0,0
420,-755,0,0,0,0,0,0,0,0,0,-1,1644,1779,0,0
427,-755,0,0,0,0,0,0,0,0,0,-1,1651,1779,0,0
434,-755,0,0,0,0,0,0,0,0,0,-1,1658,1779,0,0
441,-755,0,0,0,0,0,0,0,0,0,-1,1665,1779,0,0
448,-755,0,0,0,0,0,0,0,0,0,-1,1672,1779,0,0
455,-755,0,0,0,0,0,0,0,0,0,-1,1679,1779,0,0
462,-755,0,0,0,0,0,0,0,0,0,-1,1686,1779,0,0
469,-755,0,0,0,0,0,0,0,0,0,-1,1693,1779,0,0
476,-755,0,0,0,0,0,0,0,0,0,-1,1700,1779,0,0
483,-755,0,0,0,0,0,0,0,0,0,-1,1707,1779,0,0
490,-755,0,0,0,0,0,0,0,0,0,-1,1714,1779,0,0
497,-755,0,0,0,0,0,0,0,0,0,-1,1721,1779,0,0
504,-755,0,0,0,0,0,0,0,0,0,-1,1728,1779,0,0
511,-755,0,0,0,0,0,0,0,0,0,-1,1735,1779,0,0
518,-755,0,0,0,0,0,0,0,0,0,-1,1742,1779,0,0
525,-755,0,0,0,0,0,0,0,0,0,-1,1749,1779,0,0
532,-755,0,0,0,0,0,0,0,0,0,-1,1756,1779,0,0
539,-755,0,0,0,0,0,0,0,0,0,-1,1763,1779,0,0
546,-755,0,0,0,0,0,0,0,0,0,-1,1770,1779,0,0
553,-755,0,0,0,0,0,0,0,0,0,-1,1777,1779,0,0
560,-755,0,0,0,0,0,0,0,0,0,-1,1784,1779,0,0
567,-755,0,0,0,0,0,0,0,0,0,-1,1791,1779,0,0
574,-755,0,0,0,0,0,0,0,0,0,-1,1798,1779,0,0
581,-755,0,0,0,0,0,0,0,0,0,-1,1805,1779,0,0
588,-755,0,0,0,0,0,0,0,0,0,-1,1812,1779,0,0
595,-755,0,0,0,0,0,0,0,0,0,-1,1819,1779,0,0
602,-755,0,0,0,0,0,0,0,0,0,-1,1826,1779,0,0
609,-755,0,0,0,0,0,0,0,0,0,-1,1833,1779,0,0
616,-755,0,0,0,0,0,0,0,0,0,-1,1840,1779,0,0
623,-755,0,0,0,0,0,0,0,0,0,-1,1847,1779,0,0
630,-755,0,0,0,0,0,0,0,0,0,-1,1854,1779,0,0
637,-755,0,0,0,0,0,0,0,0,0,-1,1861,1779,0,0
644,-755,0,0,0,0,0,0,0,0,0,-1,1868,1779,0,0
651,-755,0,0,0,0,0,0,0,0,0,-1,1875,1779,0,0
658,-755,0,0,0,0,0,0,0,0,0,-1,1882,1779,0,0
665,-755,0,0,0,0,0,0,0,0,0,-1,1889,1779,0,0
672,-755,0,0,0,0,0,0,0,0,0,-1,1896,1779,0,0
679,-755,0,0,0,0,0,0,0,0,0,-1,1903,1779,0,0
686,-755,0,0,0,0,0,0,0,0,0,-1,1910,1779,0,0
693,-755,0,0,0,0,0,0,0,0,0,-1,1917,1779,0,0
700,-755,0,0,0,0,0,0,0,0,0,-1,1924,1779,0,0
707,-755,0,0,0,0,0,0,0,0,0,-1,1931,1779,0,0
714,-755,0,0,0,0,0,0,0,0,0,-1,1938,1779,0,0
721,-755,0,0,0,0,0,0,0,0,0,-1,1945,1779,0,0
728,-755,0,0,0,0,0,0,0,0,0,-1,1952,1779,0,0
735,-755,0,0,0,0,0,0,0,0,0,-1,1959,1779,0,0
742,-755,0,0,0,0,0,0,0,0,0,-1,1966,1779,0,0
749,-755,0,0,0,0,0,0,0,0,0,-1,1973,1779,0,0
756,-755,0,0,0,0,0,0,0,0,0,-1,1980,1779,0,0
763,-755,0,0,0,0,0,0,0,0,0,-1,1987,1779,0,0
770,-755,0,0,0,0,0,0,0,0,0,-1,1994,1779,0,0
777,-755,0,0,0,0,0,0,0,0,0,-1,2001,1779,0,0
784,-755,0,0,0,0,0,0,0,0,0,-1,2008,1779,0,0
791,-755,0,0,0,0,0,0,0,0,0,-1,2015,1779,0,0
798,-755,0,0,0,0,0,0,0,0,0,-1,2022,1779,0,0
805,-755,0,0,0,0,0,0,0,0,0,-1,2029,1779,0,0
812,-755,0,0,0,0,0,0,0,0,0,-1,2036,1779,0,0
-700,-762,0,0,0,0,0,0,0,0,0,-1,524,1786,0,0
-693,-762,0,0,0,0,0,0,0,0,0,-1,531,1786,0,0
-686,-762,0,0,0,0,0,0,0,0,0,-1,538,1786,0,0
-679,-762,0,0,0,0,0,0,0,0,0,-1,545,1786,0,0
-672,-762,0,0,0,0,0,0,0,0,0,-1,552,1786,0,0
-665,-762,0,0,0,0,0,0,0,0,0,-1,559,1786,0,0
-658,-762,0,0,0,0,0,0,0,0,0,-1,566,1786,0,0
-651,-762,0,0,0,0,0,0,0,0,0,-1,573,1786,0,0
-644,-762,0,0,0,0,0,0,0,0,0,-1,580,1786,0,0
-637,-762,0,0,0,0,0,0,0,0,0,-1,587,1786,0,0
-630,-762,0,0,0,0,0,0,0,0,0,-1,594,1786,0,0
-623,-762,0,0,0,0,0,0,0,0,0,-1,601,1786,0,0
-616,-762,0,0,0,0,0,0,0,0,0,-1,608,1786,0,0
-609,-762,0,0,0,0,0,0,0,0,0,-1,615,1786,0,0
-602,-762,0,0,0,0,0,0,0,0,0,-1,622,1786,0,0
-595,-762,0,0,0,0,0,0,0,0,0,-1,629,1786,0,0
-588,-762,0,0,0,0,0,0,0,0,0,-1,636,1786,0,0
-581,-762,0,0,0,0,0,0,0,0,0,-1,643,1786,0,0
-574,-762,0,0,0,0,0,0,0,0,0,-1,650,1786,0,0
-567,-762,0,0,0,0,0,0,0,0,0,-1,657,1786,0,0
-560,-762,0,0,0,0,0,0,0,0,0,-1,664,1786,0,0
-553,-762,0,0,0,0,0,0,0,0,0,-1,671,1786,0,0
-546,-762,0,0,0,0,0,0,0,0,0,-1,678,1786,0,0
-539,-762,0,0,0,0,0,0,0,0,0,-1,685,1786,0,0
-532,-762,0,0,0,0,0,0,0,0,0,-1,692,1786,0,0
-525,-762,0,0,0,0,0,0,0,0,0,-1,699,1786,0,0
-518,-762,0,0,0,0,0,0,0,0,0,-1,706,1786,0,0
-511,-762,0,0,0,0,0,0,0,0,0,-1,713,1786,0,0
-504,-762,0,0,0,0,0,0,0,0,0,-1,720,1786,0,0
-497,-762,0,0,0,0,0,0,0,0,0,-1,727,1786,0,0
-490,-762,0,0,0,0,0,0,0,0,0,-1,734,1786,0,0
-483,-762,0,0,0,0,0,0,0,0,0,-1,741,1786,0,0
-476,-762,0,0,0,0,0,0,0,0,0,-1,748,1786,0,0
-469,-762,0,0,0,0,0,0,0,0,0,-1,755,1786,0,0
-462,-762,0,0,0,0,0,0,0,0,0,-1,762,1786,0,0
-455,-762,0,0,0,0,0,0,0,0,0,-1,769,1786,0,0
-448,-762,0,0,0,0,0,0,0,0,0,-1,776,1786,0,0
-441,-762,0,0,0,0,0,0,0,0,0,-1,783,1786,0,0
-434,-762,0,0,0,0,0,0,0,0,0,-1,790,1786,0,0
-427,-762,0,0,0,0,0,0,0,0,0,-1,797,1786,0,0
-420,-762,0,0,0,0,0,0,0,0,0,-1,804,1786,0,0
-413,-762,0,0,0,0,0,0,0,0,0,-1,811,1786,0,0
-406,-762,0,0,0,0,0,0,0,0,0,-1,818,1786,0,0
-399,-762,0,0,0,0,0,0,0,0,0,-1,825,1786,0,0
-392,-762,0,0,0,0,0,0,0,0,0,-1,832,1786,0,0
-385,-762,0,0,0,0,0,0,0,0,0,-1,839,1786,0,0
-378,-762,0,0,0,0,0,0,0,0,0,-1,846,1786,0,0
-371,-762,0,0,0,0,0,0,0,0,0,-1,853,1786,0,0
-364,-762,0,0,0,0,0,0,0,0,0,-1,860,1786,0,0
-357,-762,0,0,0,0,0,0,0,0,0,-1,867,1786,0,0
-350,-762,0,0,0,0,0,0,0,0,0,-1,874,1786,0,0
-343,-762,0,0,0,0,0,0,0,0,0,-1,881,1786,0,0
-336,-762,0,0,0,0,0,0,0,0,0,-1,888,1786,0,0
-329,-762,0,0,0,0,0,0,0,0,0,-1,895,1786,0,0
-322,-762,0,0,0,0,0,0,0,0,0,-1,902,1786,0,0
-315,-762,0,0,0,0,0,0,0,0,0,-1,909,1786,0,0
-308,-762,0,0,0,0,0,0,0,0,0,-1,916,1786,0,0
-301,-762,0,0,0,0,0,0,0,0,0,-1,923,1786,0,0
-294,-762,0,0,0,0,0,0,0,0,0,-1,930,1786,0,0
-287,-762,0,0,0,0,0,0,0,0,0,-1,937,1786,0,0
-280,-762,0,0,0,0,0,0,0,0,0,-1,944,1786,0,0
-273,-762,0,0,0,0,0,0,0,0,0,-1,951,1786,0,0
-266,-762,0,0,0,0,0,0,0,0,0,-1,958,1786,0,0
-259,-762,0,0,0,0,0,0,0,0,0,-1,965,1786,0,0
-252,-762,0,0,0,0,0,0,0,0,0,-1,972,1786,0,0
-245,-762,0,0,0,0,0,0,0,0,0,-1,979,1786,0,0
-238,-762,0,0,0,0,0,0,0,0,0,-1,986,1786,0,0
-231,-762,0,0,0,0,0,0,0,0,0,-1,993,1786,0,0
-224,-762,0,0,0,0,0,0,0,0,0,-1,1000,1786,0,0
-217,-762,0,0,0,0,0,0,0,0,0,-1,1007,1786,0,0
-210,-762,0,0,0,0,0,0,0,0,0,-1,1014,1786,0,0
-203,-762,0,0,0,0,0,0,0,0,0,-1,1021,1786,0,0
-196,-762,0,0,0,0,0,0,0,0,0,-1,1028,1786,0,0
-189,-762,0,0,0,0,0,0,0,0,0,-1,1035,1786,0,0
-182,-762,-2.5061,5.68933,0,0,0,0,0,0,0,-1,1042,1786,-2.50608,-5.68931
-175,-762,2.60498,7.48376,0,0,0,0,0,0,0,-1,1049,1786,2.60498,-7.4838
-168,-762,3.10022,6.66711,-0.0316552,-0.0540663,-0.0630392,0.0211667,-0.106888,-0.697439,0.0792621,0.0473538,1056,1786,3.10027,-6.66707
-161,-762,2.89417,5.86304,-0.0316777,-0.0340737,-0.0540572,0.0211948,-0.0869462,-0.774319,0.0661703,0.0474959,1063,1786,2.89411,-5.86299
-154,-762,2.51587,5.15601,-0.031542,-0.0196575,-0.0447822,0.0195749,-0.0707745,-0.851359,0.0548841,0.0467409,1070,1786,2.51584,-5.15605
-147,-762,2.53772,4.70813,0,0,0,0,0,0,0,-1,1077,1786,2.53776,-4.70818
-140,-762,2.55737,2.02051,0,0,0,0,0,0,0,-1,1084,1786,2.55733,-2.02047
-133,-762,4.17419,2.23804,0,0,0,0,0,0,0,-1,1091,1786,4.17414,-2.23802
-126,-762,3.14148,2.36292,0,0,0,0,0,0,0,-1,1098,1786,3.14143,-2.3629
-119,-762,2.18872,3.14648,0,0,0,0,0,0,0,-1,1105,1786,2.18875,-3.14654
-112,-762,0.894897,3.20129,0,0,0,0,0,0,0,-1,1112,1786,0.894882,-3.20135
-105,-762,3.04089,5.854,-0.0434522,0.0287743,0.0125545,0.0308943,-0.0455722,1.40351,0.0444183,0.0407883,1119,1786,3.04091,-5.85405
-98,-762,2.61963,5.52295,-0.043313,0.0235057,0.0151622,0.0267853,-0.0465926,1.35778,0.0428761,0.0429918,1126,1786,2.61961,-5.523
-91,-762,2.29333,5.56018,-0.0432056,0.0168716,0.0148703,0.0203508,-0.0466848,1.34096,0.039686,0.0481868,1133,1786,2.29335,-5.56016
-84,-762,1.95361,5.56201,0,0,0,0,0,0,0,-1,1140,1786,1.95366,-5.56198
-77,-762,0.495361,4.07983,0,0,0,0,0,0,0,-1,1147,1786,0.495414,-4.07987
-70,-762,0.867432,3.40491,0,0,0,0,0,0,0,-1,1154,1786,0.867449,-3.40488
-63,-762,1.18726,2.70581,0,0,0,0,0,0,0,-1,1161,1786,1.18721,-2.70578
-56,-762,0.393799,5.67688,0,0,0,0,0,0,0,-1,1168,1786,0.393813,-5.67688
-49,-762,0.415283,4.04114,0,0,0,0,0,0,0,-1,1175,1786,0.415307,-4.04115
-42,-762,0.159546,4.00317,0,0,0,0,0,0,0,-1,1182,1786,0.159562,-4.00314
-35,-762,0.907593,3.74573,0,0,0,0,0,0,0,-1,1189,1786,0.907638,-3.74571
-28,-762,0.299316,4.29382,0,0,0,0,0,0,0,-1,1196,1786,0.299277,-4.29382
-21,-762,0.343628,4.69861,0,0,0,0,0,0,0,-1,1203,1786,0.343583,-4.69862
-14,-762,2.48608,5.1438,0,0,0,0,0,0,0,-1,1210,1786,2.48608,-5.14376
-7,-762,2.4032,5.11475,-0.0133655,0.0259827,0.00584695,0.0268332,-0.0142159,1.42636,0.02407,0.0468073,1217,1786,2.40319,-5.11473
0,-762,2.4679,5.18713,-0.0116035,0.0241618,0.0043423,0.0246815,-0.0121231,1.45169,0.0216576,0.0342719,1224,1786,2.4679,-5.18708
7,-762,2.45288,5.22559,-0.00972088,0.0211965,0.00320668,0.0215256,-0.01005,1.46853,0.0186272,0.0190377,1231,1786,2.4529,-5.22561
14,-762,2.43469,5.25903,-0.00732493,0.0190983,0.00202549,0.0192526,-0.00747929,1.49473,0.0159248,0.0308615,1238,1786,2.43465,-5.25899
21,-762,2.31628,5.28821,-0.0052366,0.0175961,0.000666731,0.0176156,-0.00525606,1.54163,0.0138327,0.0371177,1245,1786,2.31632,-5.28826
28,-762,2.34717,5.2771,-0.00305371,0.0161142,-0.000145239,0.0161153,-0.00305481,-1.56322,0.0118933,0.0364387,1252,1786,2.34717,-5.27706
35,-762,2.46069,5.22302,-0.000857745,0.0142815,-0.000735764,0.0143172,-0.000893419,-1.52235,0.00985611,0.0401861,1259,1786,2.4607,-5.223
42,-762,2.43164,5.2334,0.00103947,0.0125417,-0.00158183,0.0127552,0.000825897,-1.43659,0.008242,0.0384202,1266,1786,2.43167,-5.23341
49,-762,2.4115,5.25134,0.00277939,0.0105516,-0.00250864,0.011291,0.00204001,-1.28418,0.00694785,0.0305965,1273,1786,2.41146,-5.25136
56,-762,2.50378,5.23303,0.00386314,0.00907943,-0.00319991,0.0105995,0.00234311,-1.12733,0.0064292,0.0207803,1280,1786,2.50374,-5.23308
63,-762,2.49207,5.23987,0.00421946,0.00808318,-0.00318593,0.00987721,0.00242544,-1.05794,0.00594364,0.0191426,1287,1786,2.49211,-5.23987
70,-762,2.4751,5.25476,0.00422255,0.00634173,-0.00302856,0.00849071,0.00207358,-0.953676,0.00511145,0.0193047,1294,1786,2.47515,-5.25473
77,-762,2.49841,5.23425,0.004431,0.00491426,-0.00198543,0.00667271,0.00267255,-0.845951,0.00387782,0.024046,1301,1786,2.49844,-5.23422
84,-762,2.50415,5.18298,0.00440689,0.00319356,-0.000837277,0.00483418,0.00276626,-0.471887,0.00280071,0.0278478,1308,1786,2.50417,-5.18302
91,-762,2.5166,5.19263,0.00366522,0.00149846,0.000292794,0.00370408,0.00145959,0.131977,0.0021545,0.0383826,1315,1786,2.51656,-5.19262
98,-762,1.1897,3.72656,0,0,0,0,0,0,0,-1,1322,1786,1.18971,-3.72651
105,-762,2.51733,5.30212,0.00263778,-0.00108961,0.00299568,0.00430218,-0.00275401,0.507132,0.00410645,0.0389,1329,1786,2.51733,-5.30209
112,-762,2.34119,5.23218,0.00330997,-0.00182711,0.00534416,0.0066708,-0.00518794,0.561384,0.00686446,0.0418213,1336,1786,2.34116,-5.2322
119,-762,2.3147,5.27429,0.0054538,-0.00363441,0.00855144,0.0105935,-0.00877411,0.541179,0.0111983,0.0401999,1343,1786,2.31466,-5.27435
126,-762,2.32947,5.27124,0.00843417,-0.00556896,0.0124968,0.0157571,-0.0128919,0.530051,0.016568,0.0404105,1350,1786,2.32944,-5.27125
133,-762,2.34448,5.22437,0.0113704,-0.00669859,0.0163411,0.0210081,-0.0163363,0.532876,0.021617,0.0444025,1357,1786,2.34447,-5.22432
140,-762,2.30078,5.14722,0.0132431,-0.00728444,0.0193755,0.0249055,-0.0189468,0.541825,0.0253959,0.0442001,1364,1786,2.30078,-5.14723
147,-762,2.2616,5.00842,0.0142036,-0.00849579,0.0233111,0.0287812,-0.0230734,0.55885,0.0299986,0.0433772,1371,1786,2.26158,-5.00839
154,-762,2.28845,5.00549,0,0,0,0,0,0,0,-1,1378,1786,2.28843,-5.00546
161,-762,5.45007,0.808716,0,0,0,0,0,0,0,-1,1385,1786,5.45009,-0.808691
168,-762,5.83313,1.63477,0.0134226,-0.0147785,0.0257277,0.0286604,-0.0300164,0.534718,0.0338801,0.0466426,1392,1786,5.83313,-1.63483
175,-762,6.08386,2.4707,0.0122129,-0.0173619,0.0239422,0.0255662,-0.0307152,0.508758,0.0325394,0.0470106,1399,1786,6.08385,-2.47066
182,-762,6.28882,3.31836,0,0,0,0,0,0,0,-1,1406,1786,6.28883,-3.31838
189,-762,6.16504,3.38245,0,0,0,0,0,0,0,-1,1413,1786,6.16499,-3.38244
196,-762,6.37109,4.95178,0,0,0,0,0,0,0,-1,1420,1786,6.37107,-4.95181
203,-762,3.453,5.01294,0,0,0,0,0,0,0,-1,1427,1786,3.45301,-5.01294
210,-762,3.38403,5.49768,-0.00153411,-0.0268199,0.00187527,-0.00139579,-0.0269582,0.0736263,0.0175254,0.0461368,1434,1786,3.38406,-5.49764
217,-762,3.29907,5.63879,-0.00293001,-0.0258795,-0.00476457,-0.00198015,-0.0268293,-0.19678,0.0172641,0.0446144,1441,1786,3.2991,-5.63885
224,-762,3.29944,5.45605,-0.00278546,-0.0227203,-0.0109519,0.00205567,-0.0275614,-0.416212,0.0190964,0.0432386,1448,1786,3.29938,-5.4561
231,-762,2.87512,5.09412,0,0,0,0,0,0,0,-1,1455,1786,2.87511,-5.09414
238,-762,3.01807,4.54004,0,0,0,0,0,0,0,-1,1462,1786,3.01808,-4.54007
245,-762,1.88379,2.91736,0,0,0,0,0,0,0,-1,1469,1786,1.88379,-2.91741
252,-762,1.52161,3.17676,0,0,0,0,0,0,0,-1,1476,1786,1.52165,-3.17674
259,-762,1.04053,3.50891,0,0,0,0,0,0,0,-1,1483,1786,1.04053,-3.50893
266,-762,0.68396,3.55261,0,0,0,0,0,0,0,-1,1490,1786,0.683999,-3.5526
273,-762,3.68335,3.47852,0,0,0,0,0,0,0,-1,1497,1786,3.68341,-3.47857
280,-762,4.05188,4.04102,0,0,0,0,0,0,0,-1,1504,1786,4.05183,-4.04096
287,-762,3.85706,4.37524,0.012401,-0.024498,-0.0213269,0.0221511,-0.0342481,-0.428807,0.0328109,0.0436971,1511,1786,3.85705,-4.3753
294,-762,3.86975,4.93945,0.0169404,-0.0337746,-0.0215717,0.0248747,-0.0417089,-0.352451,0.0388495,0.0405546,1518,1786,3.8698,-4.93949
301,-762,4.6001,5.19873,0,0,0,0,0,0,0,-1,1525,1786,4.60006,-5.1987
308,-762,0,0,0,0,0,0,0,0,0,-1,1532,1786,0,0
315,-762,0,0,0,0,0,0,0,0,0,-1,1539,1786,0,0
322,-762,0,0,0,0,0,0,0,0,0,-1,1546,1786,0,0
329,-762,0,0,0,0,0,0,0,0,0,-1,1553,1786,0,0
336,-762,0,0,0,0,0,0,0,0,0,-1,1560,1786,0,0
343,-762,0,0,0,0,0,0,0,0,0,-1,1567,1786,0,0
350,-762,0,0,0,0,0,0,0,0,0,-1,1574,1786,0,0
357,-762,0,0,0,0,0,0,0,0,0,-1,1581,1786,0,0
364,-762,0,0,0,0,0,0,0,0,0,-1,1588,1786,0,0
371,-762,0,0,0,0,0,0,0,0,0,-1,1595,1786,0,0
378,-762,0,0,0,0,0,0,0,0,0,-1,1602,1786,0,0
385,-762,0,0,0,0,0,0,0,0,0,-1,1609,1786,0,0
392,-762,0,0,0,0,0,0,0,0,0,-1,1616,1786,0,0
399,-762,0,0,0,0,0,0,0,0,0,-1,1623,1786,0,0
406,-762,0,0,0,0,0,0,0,0,0,-1,1630,1786,0,0
413,-762,0,0,0,0,0,0,0,0,0,-1,1637,1786,0,0
420,-762,0,0,0,0,0,0,0,0,0,-1,1644,1786,0,0
427,-762,0,0,0,0,0,0,0,0,0,-1,1651,1786,0,0
434,-762,0,0,0,0,0,0,0,0,0,-1,1658,1786,0,0
441,-762,0,0,0,0,0,0,0,0,0,-1,1665,1786,0,0
448,-762,0,0,0,0,0,0,0,0,0,-1,1672,1786,0,0
455,-762,0,0,0,0,0,0,0,0,0,-1,1679,1786,0,0
462,-762,0,0,0,0,0,0,0,0,0,-1,1686,1786,0,0
469,-762,0,0,0,0,0,0,0,0,0,-1,1693,1786,0,0
476,-762,0,0,0,0,0,0,0,0,0,-1,1700,1786,0,0
483,-762,0,0,0,0,0,0,0,0,0,-1,1707,1786,0,0
490,-762,0,0,0,0,0,0,0,0,0,-1,1714,1786,0,0
497,-762,0,0,0,0,0,0,0,0,0,-1,1721,1786,0,0
504,-762,0,0,0,0,0,0,0,0,0,-1,1728,1786,0,0
511,-762,0,0,0,0,0,0,0,0,0,-1,1735,1786,0,0
518,-762,0,0,0,0,0,0,0,0,0,-1,1742,1786,0,0
525,-762,0,0,0,0,0,0,0,0,0,-1,1749,1786,0,0
532,-762,0,0,0,0,0,0,0,0,0,-1,1756,1786,0,0
539,-762,0,0,0,0,0,0,0,0,0,-1,1763,1786,0,0
546,-762,0,0,0,0,0,0,0,0,0,-1,1770,1786,0,0
553,-762,0,0,0,0,0,0,0,0,0,-1,1777,1786,0,0
560,-762,0,0,0,0,0,0,0,0,0,-1,1784,1786,0,0
567,-762,0,0,0,0,0,0,0,0,0,-1,1791,1786,0,0
574,-762,0,0,0,0,0,0,0,0,0,-1,1798,1786,0,0
581,-762,0,0,0,0,0,0,0,0,0,-1,1805,1786,0,0
588,-762,0,0,0,0,0,0,0,0,0,-1,1812,1786,0,0
595,-762,0,0,0,0,0,0,0,0,0,-1,1819,1786,0,0
602,-762,0,0,0,0,0,0,0,0,0,-1,1826,1786,0,0
609,-762,0,0,0,0,0,0,0,0,0,-1,1833,1786,0,0
616,-762,0,0,0,0,0,0,0,0,0,-1,1840,1786,0,0
623,-762,0,0,0,0,0,0,0,0,0,-1,1847,1786,0,0
630,-762,0,0,0,0,0,0,0,0,0,-1,1854,1786,0,0
637,-762,0,0,0,0,0,0,0,0,0,-1,1861,1786,0,0
644,-762,0,0,0,0,0,0,0,0,0,-1,1868,1786,0,0
651,-762,0,0,0,0,0,0,0,0,0,-1,1875,1786,0,0
658,-762,0,0,0,0,0,0,0,0,0,-1,1882,1786,0,0
665,-762,0,0,0,0,0,0,0,0,0,-1,1889,1786,0,0
672,-762,0,0,0,0,0,0,0,0,0,-1,1896,1786,0,0
679,-762,0,0,0,0,0,0,0,0,0,-1,1903,1786,0,0
686,-762,0,0,0,0,0,0,0,0,0,-1,1910,1786,0,0
693,-762,0,0,0,0,0,0,0,0,0,-1,1917,1786,0,0
700,-762,0,0,0,0,0,0,0,0,0,-1,1924,1786,0,0
707,-762,0,0,0,0,0,0,0,0,0,-1,1931,1786,0,0
714,-762,0,0,0,0,0,0,0,0,0,-1,1938,1786,0,0
721,-762,0,0,0,0,0,0,0,0,0,-1,1945,1786,0,0
728,-762,0,0,0,0,0,0,0,0,0,-1,1952,1786,0,0
735,-762,0,0,0,0,0,0,0,0,0,-1,1959,1786,0,0
742,-762,0,0,0,0,0,0,0,0,0,-1,1966,1786,0,0
749,-762,0,0,0,0,0,0,0,0,0,-1,1973,1786,0,0
756,-762,0,0,0,0,0,0,0,0,0,-1,1980,1786,0,0
763,-762,0,0,0,0,0,0,0,0,0,-1,1987,1786,0,0
770,-762,0,0,0,0,0,0,0,0,0,-1,1994,1786,0,0
777,-762,0,0,0,0,0,0,0,0,0,-1,2001,1786,0,0
784,-762,0,0,0,0,0,0,0,0,0,-1,2008,1786,0,0
791,-762,0,0,0,0,0,0,0,0,0,-1,2015,1786,0,0
798,-762,0,0,0,0,0,0,0,0,0,-1,2022,1786,0,0
805,-762,0,0,0,0,0,0,0,0,0,-1,2029,1786,0,0
812,-762,0,0,0,0,0,0,0,0,0,-1,2036,1786,0,0
-700,-769,0,0,0,0,0,0,0,0,0,-1,524,1793,0,0
-693,-769,0,0,0,0,0,0,0,0,0,-1,531,1793,0,0
-686,-769,0,0,0,0,0,0,0,0,0,-1,538,1793,0,0
-679,-769,0,0,0,0,0,0,0,0,0,-1,545,1793,0,0
-672,-769,0,0,0,0,0,0,0,0,0,-1,552,1793,0,0
-665,-769,0,0,0,0,0,0,0,0,0,-1,559,1793,0,0
-658,-769,0,0,0,0,0,0,0,0,0,-1,566,1793,0,0
-651,-769,0,0,0,0,0,0,0,0,0,-1,573,1793,0,0
-644,-769,0,0,0,0,0,0,0,0,0,-1,580,1793,0,0
-637,-769,0,0,0,0,0,0,0,0,0,-1,587,1793,0,0
-630,-769,0,0,0,0,0,0,0,0,0,-1,594,1793,0,0
-623,-769,0,0,0,0,0,0,0,0,0,-1,601,1793,0,0
-616,-769,0,0,0,0,0,0,0,0,0,-1,608,1793,0,0
-609,-769,0,0,0,0,0,0,0,0,0,-1,615,1793,0,0
-602,-769,0,0,0,0,0,0,0,0,0,-1,622,1793,0,0
-595,-769,0,0,0,0,0,0,0,0,0,-1,629,1793,0,0
-588,-769,0,0,0,0,0,0,0,0,0,-1,636,1793,0,0
-581,-769,0,0,0,0,0,0,0,0,0,-1,643,1793,0,0
-574,-769,0,0,0,0,0,0,0,0,0,-1,650,1793,0,0
-567,-769,0,0,0,0,0,0,0,0,0,-1,657,1793,0,0
-560,-769,0,0,0,0,0,0,0,0,0,-1,664,1793,0,0
-553,-769,0,0,0,0,0,0,0,0,0,-1,671,1793,0,0
-546,-769,0,0,0,0,0,0,0,0,0,-1,678,1793,0,0
-539,-769,0,0,0,0,0,0,0,0,0,-1,685,1793,0,0
-532,-769,0,0,0,0,0,0,0,0,0,-1,692,1793,0,0
-525,-769,0,0,0,0,0,0,0,0,0,-1,699,1793,0,0
-518,-769,0,0,0,0,0,0,0,0,0,-1,706,1793,0,0
-511,-769,0,0,0,0,0,0,0,0,0,-1,713,1793,0,0
-504,-769,0,0,0,0,0,0,0,0,0,-1,720,1793,0,0
-497,-769,0,0,0,0,0,0,0,0,0,-1,727,1793,0,0
-490,-769,0,0,0,0,0,0,0,0,0,-1,734,1793,0,0
-483,-769,0,0,0,0,0,0,0,0,0,-1,741,1793,0,0
-476,-769,0,0,0,0,0,0,0,0,0,-1,748,1793,0,0
-469,-769,0,0,0,0,0,0,0,0,0,-1,755,1793,0,0
-462,-769,0,0,0,0,0,0,0,0,0,-1,762,1793,0,0
-455,-769,0,0,0,0,0,0,0,0,0,-1,769,1793,0,0
-448,-769,0,0,0,0,0,0,0,0,0,-1,776,1793,0,0
-441,-769,0,0,0,0,0,0,0,0,0,-1,783,1793,0,0
-434,-769,0,0,0,0,0,0,0,0,0,-1,790,1793,0,0
-427,-769,0,0,0,0,0,0,0,0,0,-1,797,1793,0,0
-420,-769,0,0,0,0,0,0,0,0,0,-1,804,1793,0,0
-413,-769,0,0,0,0,0,0,0,0,0,-1,811,1793,0,0
-406,-769,0,0,0,0,0,0,0,0,0,-1,818,1793,0,0
-399,-769,0,0,0,0,0,0,0,0,0,-1,825,1793,0,0
-392,-769,0,0,0,0,0,0,0,0,0,-1,832,1793,0,0
-385,-769,0,0,0,0,0,0,0,0,0,-1,839,1793,0,0
-378,-769,0,0,0,0,0,0,0,0,0,-1,846,1793,0,0
-371,-769,0,0,0,0,0,0,0,0,0,-1,853,1793,0,0
-364,-769,0,0,0,0,0,0,0,0,0,-1,860,1793,0,0
-357,-769,0,0,0,0,0,0,0,0,0,-1,867,1793,0,0
-350,-769,0,0,0,0,0,0,0,0,0,-1,874,1793,0,0
-343,-769,0,0,0,0,0,0,0,0,0,-1,881,1793,0,0
-336,-769,0,0,0,0,0,0,0,0,0,-1,888,1793,0,0
-329,-769,0,0,0,0,0,0,0,0,0,-1,895,1793,0,0
-322,-769,0,0,0,0,0,0,0,0,0,-1,902,1793,0,0
-315,-769,0,0,0,0,0,0,0,0,0,-1,909,1793,0,0
-308,-769,0,0,0,0,0,0,0,0,0,-1,916,1793,0,0
-301,-769,0,0,0,0,0,0,0,0,0,-1,923,1793,0,0
-294,-769,0,0,0,0,0,0,0,0,0,-1,930,1793,0,0
-287,-769,0,0,0,0,0,0,0,0,0,-1,937,1793,0,0
-280,-769,0,0,0,0,0,0,0,0,0,-1,944,1793,0,0
-273,-769,0,0,0,0,0,0,0,0,0,-1,951,1793,0,0
-266,-769,0,0,0,0,0,0,0,0,0,-1,958,1793,0,0
-259,-769,0,0,0,0,0,0,0,0,0,-1,965,1793,0,0
-252,-769,0,0,0,0,0,0,0,0,0,-1,972,1793,0,0
-245,-769,0,0,0,0,0,0,0,0,0,-1,979,1793,0,0
-238,-769,0,0,0,0,0,0,0,0,0,-1,986,1793,0,0
-231,-769,0,0,0,0,0,0,0,0,0,-1,993,1793,0,0
-224,-769,0,0,0,0,0,0,0,0,0,-1,1000,1793,0,0
-217,-769,0,0,0,0,0,0,0,0,0,-1,1007,1793,0,0
-210,-769,0,0,0,0,0,0,0,0,0,-1,1014,1793,0,0
-203,-769,0,0,0,0,0,0,0,0,0,-1,1021,1793,0,0
-196,-769,0,0,0,0,0,0,0,0,0,-1,1028,1793,0,0
-189,-769,0,0,0,0,0,0,0,0,0,-1,1035,1793,0,0
-182,-769,0,0,0,0,0,0,0,0,0,-1,1042,1793,0,0
-175,-769,0,0,0,0,0,0,0,0,0,-1,1049,1793,0,0
-168,-769,0,0,0,0,0,0,0,0,0,-1,1056,1793,0,0
-161,-769,3.37207,6.10449,0,0,0,0,0,0,0,-1,1063,1793,3.37205,-6.10444
-154,-769,2.69153,5.62634,0,0,0,0,0,0,0,-1,1070,1793,2.69155,-5.62632
-147,-769,8.3103,1.14587,0,0,0,0,0,0,0,-1,1077,1793,8.31032,-1.14593
-140,-769,3.11731,2.23132,0,0,0,0,0,0,0,-1,1084,1793,3.11732,-2.23136
-133,-769,3.66296,2.20813,0,0,0,0,0,0,0,-1,1091,1793,3.66291,-2.20818
-126,-769,-0.184326,5.70325,0,0,0,0,0,0,0,-1,1098,1793,-0.184378,-5.7033
-119,-769,3.3457,5.43298,0,0,0,0,0,0,0,-1,1105,1793,3.3457,-5.43297
-112,-769,3.08472,5.55811,0,0,0,0,0,0,0,-1,1112,1793,3.08478,-5.55809
-105,-769,3.0376,5.84033,-0.05736,0.0287234,0.0125498,0.0305156,-0.0591523,1.42894,0.0526425,0.0401703,1119,1793,3.03761,-5.84029
-98,-769,2.7063,5.61279,-0.0572057,0.0228708,0.0151215,0.0256312,-0.0599661,1.39024,0.0507275,0.0418097,1126,1793,2.70631,-5.61274
-91,-769,2.16455,5.78662,-0.0574923,0.0151961,0.0144206,0.0179524,-0.0602487,1.38193,0.0472996,0.0458993,1133,1793,2.1645,-5.78662
-84,-769,1.4397,5.76123,0,0,0,0,0,0,0,-1,1140,1793,1.43965,-5.76125
-77,-769,0.874146,5.70361,0,0,0,0,0,0,0,-1,1147,1793,0.874183,-5.70359
-70,-769,0.415649,4.27429,0,0,0,0,0,0,0,-1,1154,1793,0.415597,-4.27429
-63,-769,0.95813,4.74219,0,0,0,0,0,0,0,-1,1161,1793,0.958132,-4.74219
-56,-769,0.776001,4.27942,0,0,0,0,0,0,0,-1,1168,1793,0.776031,-4.27946
-49,-769,0.143311,4.19751,0,0,0,0,0,0,0,-1,1175,1793,0.143282,-4.19751
-42,-769,0.681763,3.34949,0,0,0,0,0,0,0,-1,1182,1793,0.681766,-3.34952
-35,-769,0.471436,3.01514,0,0,0,0,0,0,0,-1,1189,1793,0.471401,-3.01513
-28,-769,0.318848,2.65234,0,0,0,0,0,0,0,-1,1196,1793,0.318906,-2.6524
-21,-769,2.29761,4.35144,0,0,0,0,0,0,0,-1,1203,1793,2.29757,-4.35145
-14,-769,1.53137,5.41614,0,0,0,0,0,0,0,-1,1210,1793,1.53141,-5.4161
-7,-769,2.38928,4.91125,0,0,0,0,0,0,0,-1,1217,1793,2.38927,-4.91122
0,-769,3.64539,7.07349,0,0,0,0,0,0,0,-1,1224,1793,3.64537,-7.07348
7,-769,2.39465,5.2821,-0.0140111,0.0316213,0.00491761,0.0321452,-0.014535,1.46465,0.0275827,0.0439544,1231,1793,2.39462,-5.28214
14,-769,2.56091,5.67151,-0.0104486,0.0284734,0.00336671,0.0287624,-0.0107377,1.48515,0.0235836,0.0391953,1238,1793,2.56091,-5.67145
21,-769,2.18542,5.33643,-0.00722052,0.0259987,0.00163927,0.0260794,-0.00730122,1.52161,0.0202633,0.0424732,1245,1793,2.18545,-5.33639
28,-769,2.19348,5.32617,0,0,0,0,0,0,0,-1,1252,1793,2.19349,-5.32622
35,-769,2.48401,5.06079,0,0,0,0,0,0,0,-1,1259,1793,2.48405,-5.06085
42,-769,2.56348,5.70056,0,0,0,0,0,0,0,-1,1266,1793,2.56349,-5.7006
49,-769,2.31873,5.37878,0.00403159,0.0149302,-0.00235764,0.0154183,0.00354343,-1.36663,0.00932491,0.0453859,1273,1793,2.31869,-5.37873
56,-769,2.651,5.25476,0.00556474,0.0126444,-0.00319944,0.0138761,0.00433311,-1.20333,0.00819741,0.0448406,1280,1793,2.65103,-5.25482
63,-769,2.68738,5.22375,0,0,0,0,0,0,0,-1,1287,1793,2.68741,-5.22377
70,-769,2.99512,5.27429,0.00612009,0.0081257,-0.00321193,0.0104877,0.00375807,-0.93671,0.00613558,0.0433908,1294,1793,2.99517,-5.27427
77,-769,2.56055,5.22717,0.00634029,0.00600302,-0.00192665,0.00810567,0.00423764,-0.741745,0.00468143,0.0452895,1301,1793,2.56052,-5.22717
84,-769,2.55054,5.12427,0.00632661,0.00349148,-0.000528226,0.00642183,0.00339627,-0.178346,0.0037097,0.0430743,1308,1793,2.55051,-5.12425
91,-769,1.61743,3.77454,0,0,0,0,0,0,0,-1,1315,1793,1.6174,-3.77457
98,-769,1.61646,3.9718,0,0,0,0,0,0,0,-1,1322,1793,1.61647,-3.97184
105,-769,1.85339,3.95288,0,0,0,0,0,0,0,-1,1329,1793,1.85336,-3.95291
112,-769,1.7146,4.10852,0.00522483,-0.00411238,0.00714108,0.00908798,-0.00797553,0.495889,0.0098586,0.0486912,1336,1793,1.71463,-4.10855
119,-769,2.09326,5.26147,0.00800821,-0.00658112,0.0113656,0.0142187,-0.0127916,0.500097,0.0156017,0.0442556,1343,1793,2.09322,-5.26153
126,-769,1.95935,5.18115,0.0116749,-0.00902572,0.01648,0.0207854,-0.0181361,0.505002,0.0224887,0.0448527,1350,1793,1.95935,-5.18115
133,-769,2.14465,5.26147,0.0151688,-0.0103502,0.0213769,0.0273046,-0.0224859,0.516336,0.0287914,0.0482192,1357,1793,2.14468,-5.26144
140,-769,2.30884,5.15552,0,0,0,0,0,0,0,-1,1364,1793,2.30889,-5.15555
147,-769,2.23779,4.86084,0,0,0,0,0,0,0,-1,1371,1793,2.23779,-4.86088
154,-769,2.96155,3.34241,0,0,0,0,0,0,0,-1,1378,1793,2.96155,-3.3424
161,-769,5.4635,0.491577,0,0,0,0,0,0,0,-1,1385,1793,5.46353,-0.491564
168,-769,5.89978,1.67578,0.0191485,-0.0181623,0.036755,0.0417115,-0.0407253,0.55056,0.047596,0.0472219,1392,1793,5.89984,-1.67572
175,-769,6.14343,2.65076,0.0179984,-0.0211073,0.0353479,0.0388409,-0.0419498,0.532767,0.0466561,0.0499109,1399,1793,6.14345,-2.65072
182,-769,6.39502,3.59387,0.0154443,-0.023822,0.03261,0.0338752,-0.0422529,0.514431,0.0440412,0.0481698,1406,1793,6.39508,-3.59391
189,-769,6.36023,4.64453,0,0,0,0,0,0,0,-1,1413,1793,6.36024,-4.6445
196,-769,6.45593,5.58643,0.00744,-0.0299216,0.0225352,0.0180305,-0.0405121,0.439322,0.0346203,0.040277,1420,1793,6.45595,-5.58646
203,-769,6.5094,7.021,0,0,0,0,0,0,0,-1,1427,1793,6.50934,-7.02099
210,-769,4.10339,6.13123,0,0,0,0,0,0,0,-1,1434,1793,4.10334,-6.13124
217,-769,4.07996,6.21118,0.000630024,-0.0321746,0.000358495,0.000633942,-0.0321786,0.0109264,0.0216668,0.0473467,1441,1793,4.07993,-6.2112
224,-769,4.01624,5.85608,0.00148163,-0.0283909,-0.00714979,0.0031047,-0.0300139,-0.223226,0.0211204,0.0481657,1448,1793,4.01621,-5.8561
231,-769,4.07434,5.08105,0.00122633,-0.023877,-0.0160908,0.00908201,-0.0317326,-0.45417,0.0247444,0.0431979,1455,1793,4.07432,-5.08101
238,-769,4.05798,4.15833,0,0,0,0,0,0,0,-1,1462,1793,4.05795,-4.15837
245,-769,3.95044,3.41516,0,0,0,0,0,0,0,-1,1469,1793,3.9504,-3.41512
252,-769,1.17712,3.24011,0,0,0,0,0,0,0,-1,1476,1793,1.17707,-3.2401
259,-769,0.802124,3.58533,0,0,0,0,0,0,0,-1,1483,1793,0.802063,-3.58531
266,-769,0.707642,4.04346,0,0,0,0,0,0,0,-1,1490,1793,0.707593,-4.04349
273,-769,0.462158,4.2356,0,0,0,0,0,0,0,-1,1497,1793,0.462098,-4.23562
280,-769,-0.106079,4.255,0,0,0,0,0,0,0,-1,1504,1793,-0.106129,-4.25504
287,-769,0,0,0,0,0,0,0,0,0,-1,1511,1793,0,0
294,-769,0,0,0,0,0,0,0,0,0,-1,1518,1793,0,0
301,-769,0,0,0,0,0,0,0,0,0,-1,1525,1793,0,0
308,-769,0,0,0,0,0,0,0,0,0,-1,1532,1793,0,0
315,-769,0,0,0,0,0,0,0,0,0,-1,1539,1793,0,0
322,-769,0,0,0,0,0,0,0,0,0,-1,1546,1793,0,0
329,-769,0,0,0,0,0,0,0,0,0,-1,1553,1793,0,0
336,-769,0,0,0,0,0,0,0,0,0,-1,1560,1793,0,0
343,-769,0,0,0,0,0,0,0,0,0,-1,1567,1793,0,0
350,-769,0,0,0,0,0,0,0,0,0,-1,1574,1793,0,0
357,-769,0,0,0,0,0,0,0,0,0,-1,1581,1793,0,0
364,-769,0,0,0,0,0,0,0,0,0,-1,1588,1793,0,0
371,-769,0,0,0,0,0,0,0,0,0,-1,1595,1793,0,0
378,-769,0,0,0,0,0,0,0,0,0,-1,1602,1793,0,0
385,-769,0,0,0,0,0,0,0,0,0,-1,1609,1793,0,0
392,-769,0,0,0,0,0,0,0,0,0,-1,1616,1793,0,0
399,-769,0,0,0,0,0,0,0,0,0,-1,1623,1793,0,0
406,-769,0,0,0,0,0,0,0,0,0,-1,1630,1793,0,0
413,-769,0,0,0,0,0,0,0,0,0,-1,1637,1793,0,0
420,-769,0,0,0,0,0,0,0,0,0,-1,1644,1793,0,0
427,-769,0,0,0,0,0,0,0,0,0,-1,1651,1793,0,0
434,-769,0,0,0,0,0,0,0,0,0,-1,1658,1793,0,0
441,-769,0,0,0,0,0,0,0,0,0,-1,1665,1793,0,0
448,-769,0,0,0,0,0,0,0,0,0,-1,1672,1793,0,0
455,-769,0,0,0,0,0,0,0,0,0,-1,1679,1793,0,0
462,-769,0,0,0,0,0,0,0,0,0,-1,1686,1793,0,0
469,-769,0,0,0,0,0,0,0,0,0,-1,1693,1793,0,0
476,-769,0,0,0,0,0,0,0,0,0,-1,1700,1793,0,0
483,-769,0,0,0,0,0,0,0,0,0,-1,1707,1793,0,0
490,-769,0,0,0,0,0,0,0,0,0,-1,1714,1793,0,0
497,-769,0,0,0,0,0,0,0,0,0,-1,1721,1793,0,0
504,-769,0,0,0,0,0,0,0,0,0,-1,1728,1793,0,0
511,-769,0,0,0,0,0,0,0,0,0,-1,1735,1793,0,0
518,-769,0,0,0,0,0,0,0,0,0,-1,1742,1793,0,0
525,-769,0,0,0,0,0,0,0,0,0,-1,1749,1793,0,0
532,-769,0,0,0,0,0,0,0,0,0,-1,1756,1793,0,0
539,-769,0,0,0,0,0,0,0,0,0,-1,1763,1793,0,0
546,-769,0,0,0,0,0,0,0,0,0,-1,1770,1793,0,0
553,-769,0,0,0,0,0,0,0,0,0,-1,1777,1793,0,0
560,-769,0,0,0,0,0,0,0,0,0,-1,1784,1793,0,0
567,-769,0,0,0,0,0,0,0,0,0,-1,1791,1793,0,0
574,-769,0,0,0,0,0,0,0,0,0,-1,1798,1793,0,0
581,-769,0,0,0,0,0,0,0,0,0,-1,1805,1793,0,0
588,-769,0,0,0,0,0,0,0,0,0,-1,1812,1793,0,0
595,-769,0,0,0,0,0,0,0,0,0,-1,1819,1793,0,0
602,-769,0,0,0,0,0,0,0,0,0,-1,1826,1793,0,0
609,-769,0,0,0,0,0,0,0,0,0,-1,1833,1793,0,0
616,-769,0,0,0,0,0,0,0,0,0,-1,1840,1793,0,0
623,-769,0,0,0,0,0,0,0,0,0,-1,1847,1793,0,0
630,-769,0,0,0,0,0,0,0,0,0,-1,1854,1793,0,0
637,-769,0,0,0,0,0,0,0,0,0,-1,1861,1793,0,0
644,-769,0,0,0,0,0,0,0,0,0,-1,1868,1793,0,0
651,-769,0,0,0,0,0,0,0,0,0,-1,1875,1793,0,0
658,-769,0,0,0,0,0,0,0,0,0,-1,1882,1793,0,0
665,-769,0,0,0,0,0,0,0,0,0,-1,1889,1793,0,0
672,-769,0,0,0,0,0,0,0,0,0,-1,1896,1793,0,0
679,-769,0,0,0,0,0,0,0,0,0,-1,1903,1793,0,0
686,-769,0,0,0,0,0,0,0,0,0,-1,1910,1793,0,0
693,-769,0,0,0,0,0,0,0,0,0,-1,1917,1793,0,0
700,-769,0,0,0,0,0,0,0,0,0,-1,1924,1793,0,0
707,-769,0,0,0,0,0,0,0,0,0,-1,1931,1793,0,0
714,-769,0,0,0,0,0,0,0,0,0,-1,1938,1793,0,0
721,-769,0,0,0,0,0,0,0,0,0,-1,1945,1793,0,0
728,-769,0,0,0,0,0,0,0,0,0,-1,1952,1793,0,0
735,-769,0,0,0,0,0,0,0,0,0,-1,1959,1793,0,0
742,-769,0,0,0,0,0,0,0,0,0,-1,1966,1793,0,0
749,-769,0,0,0,0,0,0,0,0,0,-1,1973,1793,0,0
756,-769,0,0,0,0,0,0,0,0,0,-1,1980,1793,0,0
763,-769,0,0,0,0,0,0,0,0,0,-1,1987,1793,0,0
770,-769,0,0,0,0,0,0,0,0,0,-1,1994,1793,0,0
777,-769,0,0,0,0,0,0,0,0,0,-1,2001,1793,0,0
784,-769,0,0,0,0,0,0,0,0,0,-1,2008,1793,0,0
791,-769,0,0,0,0,0,0,0,0,0,-1,2015,1793,0,0
798,-769,0,0,0,0,0,0,0,0,0,-1,2022,1793,0,0
805,-769,0,0,0,0,0,0,0,0,0,-1,2029,1793,0,0
812,-769,0,0,0,0,0,0,0,0,0,-1,2036,1793,0,0
-700,-776,0,0,0,0,0,0,0,0,0,-1,524,1800,0,0
-693,-776,0,0,0,0,0,0,0,0,0,-1,531,1800,0,0
-686,-776,0,0,0,0,0,0,0,0,0,-1,538,1800,0,0
-679,-776,0,0,0,0,0,0,0,0,0,-1,545,1800,0,0
-672,-776,0,0,0,0,0,0,0,0,0,-1,552,1800,0,0
-665,-776,0,0,0,0,0,0,0,0,0,-1,559,1800,0,0
-658,-776,0,0,0,0,0,0,0,0,0,-1,566,1800,0,0
-651,-776,0,0,0,0,0,0,0,0,0,-1,573,1800,0,0
-644,-776,0,0,0,0,0,0,0,0,0,-1,580,1800,0,0
-637,-776,0,0,0,0,0,0,0,0,0,-1,587,1800,0,0
-630,-776,0,0,0,0,0,0,0,0,0,-1,594,1800,0,0
-623,-776,0,0,0,0,0,0,0,0,0,-1,601,1800,0,0
-616,-776,0,0,0,0,0,0,0,0,0,-1,608,1800,0,0
-609,-776,0,0,0,0,0,0,0,0,0,-1,615,1800,0,0
-602,-776,0,0,0,0,0,0,0,0,0,-1,622,1800,0,0
-595,-776,0,0,0,0,0,0,0,0,0,-1,629,1800,0,0
-588,-776,0,0,0,0,0,0,0,0,0,-1,636,1800,0,0
-581,-776,0,0,0,0,0,0,0,0,0,-1,643,1800,0,0
-574,-776,0,0,0,0,0,0,0,0,0,-1,650,1800,0,0
-567,-776,0,0,0,0,0,0,0,0,0,-1,657,1800,0,0
-560,-776,0,0,0,0,0,0,0,0,0,-1,664,1800,0,0
-553,-776,0,0,0,0,0,0,0,0,0,-1,671,1800,0,0
-546,-776,0,0,0,0,0,0,0,0,0,-1,678,1800,0,0
-539,-776,0,0,0,0,0,0,0,0,0,-1,685,1800,0,0
-532,-776,0,0,0,0,0,0,0,0,0,-1,692,1800,0,0
-525,-776,0,0,0,0,0,0,0,0,0,-1,699,1800,0,0
-518,-776,0,0,0,0,0,0,0,0,0,-1,706,1800,0,0
-511,-776,0,0,0,0,0,0,0,0,0,-1,713,1800,0,0
-504,-776,0,0,0,0,0,0,0,0,0,-1,720,1800,0,0
-497,-776,0,0,0,0,0,0,0,0,0,-1,727,1800,0,0
-490,-776,0,0,0,0,0,0,0,0,0,-1,734,1800,0,0
-483,-776,0,0,0,0,0,0,0,0,0,-1,741,1800,0,0
-476,-776,0,0,0,0,0,0,0,0,0,-1,748,1800,0,0
-469,-776,0,0,0,0,0,0,0,0,0,-1,755,1800,0,0
-462,-776,0,0,0,0,0,0,0,0,0,-1,762,1800,0,0
-455,-776,0,0,0,0,0,0,0,0,0,-1,769,1800,0,0
-448,-776,0,0,0,0,0,0,0,0,0,-1,776,1800,0,0
-441,-776,0,0,0,0,0,0,0,0,0,-1,783,1800,0,0
-434,-776,0,0,0,0,0,0,0,0,0,-1,790,1800,0,0
-427,-776,0,0,0,0,0,0,0,0,0,-1,797,1800,0,0
-420,-776,0,0,0,0,0,0,0,0,0,-1,804,1800,0,0
-413,-776,0,0,0,0,0,0,0,0,0,-1,811,1800,0,0
-406,-776,0,0,0,0,0,0,0,0,0,-1,818,1800,0,0
-399,-776,0,0,0,0,0,0,0,0,0,-1,825,1800,0,0
-392,-776,0,0,0,0,0,0,0,0,0,-1,832,1800,0,0
-385,-776,0,0,0,0,0,0,0,0,0,-1,839,1800,0,0
-378,-776,0,0,0,0,0,0,0,0,0,-1,846,1800,0,0
-371,-776,0,0,0,0,0,0,0,0,0,-1,853,1800,0,0
-364,-776,0,0,0,0,0,0,0,0,0,-1,860,1800,0,0
-357,-776,0,0,0,0,0,0,0,0,0,-1,867,1800,0,0
-350,-776,0,0,0,0,0,0,0,0,0,-1,874,1800,0,0
-343,-776,0,0,0,0,0,0,0,0,0,-1,881,1800,0,0
-336,-776,0,0,0,0,0,0,0,0,0,-1,888,1800,0,0
-329,-776,0,0,0,0,0,0,0,0,0,-1,895,1800,0,0
-322,-776,0,0,0,0,0,0,0,0,0,-1,902,1800,0,0
-315,-776,0,0,0,0,0,0,0,0,0,-1,909,1800,0,0
-308,-776,0,0,0,0,0,0,0,0,0,-1,916,1800,0,0
-301,-776,0,0,0,0,0,0,0,0,0,-1,923,1800,0,0
-294,-776,0,0,0,0,0,0,0,0,0,-1,930,1800,0,0
-287,-776,0,0,0,0,0,0,0,0,0,-1,937,1800,0,0
-280,-776,0,0,0,0,0,0,0,0,0,-1,944,1800,0,0
-273,-776,0,0,0,0,0,0,0,0,0,-1,951,1800,0,0
-266,-776,0,0,0,0,0,0,0,0,0,-1,958,1800,0,0
-259,-776,0,0,0,0,0,0,0,0,0,-1,965,1800,0,0
-252,-776,0,0,0,0,0,0,0,0,0,-1,972,1800,0,0
-245,-776,0,0,0,0,0,0,0,0,0,-1,979,1800,0,0
-238,-776,0,0,0,0,0,0,0,0,0,-1,986,1800,0,0
-231,-776,0,0,0,0,0,0,0,0,0,-1,993,1800,0,0
-224,-776,0,0,0,0,0,0,0,0,0,-1,1000,1800,0,0
-217,-776,0,0,0,0,0,0,0,0,0,-1,1007,1800,0,0
-210,-776,0,0,0,0,0,0,0,0,0,-1,1014,1800,0,0
-203,-776,0,0,0,0,0,0,0,0,0,-1,1021,1800,0,0
-196,-776,0,0,0,0,0,0,0,0,0,-1,1028,1800,0,0
-189,-776,0,0,0,0,0,0,0,0,0,-1,1035,1800,0,0
-182,-776,0,0,0,0,0,0,0,0,0,-1,1042,1800,0,0
-175,-776,0,0,0,0,0,0,0,0,0,-1,1049,1800,0,0
-168,-776,0,0,0,0,0,0,0,0,0,-1,1056,1800,0,0
-161,-776,0,0,0,0,0,0,0,0,0,-1,1063,1800,0,0
-154,-776,0,0,0,0,0,0,0,0,0,-1,1070,1800,0,0
-147,-776,0,0,0,0,0,0,0,0,0,-1,1077,1800,0,0
-140,-776,4.03137,2.03589,0,0,0,0,0,0,0,-1,1084,1800,4.03142,-2.03594
-133,-776,3.92603,2.43945,0,0,0,0,0,0,0,-1,1091,1800,3.926,-2.43948
-126,-776,3.84546,2.75378,0,0,0,0,0,0,0,-1,1098,1800,3.84545,-2.75379
-119,-776,3.69629,2.86548,0,0,0,0,0,0,0,-1,1105,1800,3.69624,-2.86542
-112,-776,2.50342,5.90698,0,0,0,0,0,0,0,-1,1112,1800,2.5034,-5.90695
-105,-776,3.047,5.94019,0,0,0,0,0,0,0,-1,1119,1800,3.04701,-5.94022
-98,-776,2.87244,5.43994,-0.0741614,0.019448,0.0128099,0.0211694,-0.0758827,1.43722,0.0589264,0.0425401,1126,1800,2.87248,-5.43992
-91,-776,2.14417,5.56348,-0.0749125,0.0108128,0.0115939,0.0123531,-0.0764528,1.43871,0.055546,0.0478554,1133,1800,2.14411,-5.56345
-84,-776,1.3822,5.85229,0,0,0,0,0,0,0,-1,1140,1800,1.38226,-5.85224
-77,-776,-0.366577,6.12866,0,0,0,0,0,0,0,-1,1147,1800,-0.366576,-6.12872
-70,-776,1.28699,3.48572,0,0,0,0,0,0,0,-1,1154,1800,1.28695,-3.48566
-63,-776,0.50293,5.09167,0,0,0,0,0,0,0,-1,1161,1800,0.502905,-5.09165
-56,-776,0.499512,4.38,0,0,0,0,0,0,0,-1,1168,1800,0.499457,-4.37996
-49,-776,0.658936,4.00537,0,0,0,0,0,0,0,-1,1175,1800,0.65897,-4.00536
-42,-776,0.382568,3.56592,0,0,0,0,0,0,0,-1,1182,1800,0.382598,-3.56593
-35,-776,0.115112,3.31824,0,0,0,0,0,0,0,-1,1189,1800,0.115074,-3.31828
-28,-776,0.0148926,3.29688,0,0,0,0,0,0,0,-1,1196,1800,0.0148609,-3.29683
-21,-776,5.07581,8.09619,0,0,0,0,0,0,0,-1,1203,1800,5.07583,-8.09613
-14,-776,4.7406,7.71802,0,0,0,0,0,0,0,-1,1210,1800,4.74065,-7.71808
-7,-776,3.41125,7.15186,0,0,0,0,0,0,0,-1,1217,1800,3.41124,-7.15188
0,-776,2.98926,6.78223,-0.0234592,0.051061,0.00905416,0.0521453,-0.0245435,1.45161,0.0452222,0.0477829,1224,1800,2.98931,-6.78219
7,-776,2.69519,6.41516,-0.0194502,0.0452433,0.00737223,0.0460728,-0.0202797,1.45875,0.0392616,0.0484701,1231,1800,2.69516,-6.41522
14,-776,2.6781,5.77612,-0.0143645,0.0407779,0.0053968,0.0413011,-0.0148877,1.47415,0.0336142,0.0453352,1238,1800,2.67815,-5.77618
21,-776,2.21448,5.10864,-0.00963558,0.0369942,0.00324598,0.0372191,-0.00986045,1.50163,0.0286704,0.0426486,1245,1800,2.2145,-5.10864
28,-776,1.80969,4.49878,-0.00513163,0.0332167,0.00196228,0.0333168,-0.00523177,1.5198,0.0241448,0.0432556,1252,1800,1.80972,-4.49884
35,-776,2.53613,5.62708,0,0,0,0,0,0,0,-1,1259,1800,2.53613,-5.62714
42,-776,2.60901,5.51575,0.00245231,0.0247976,-0.000242249,0.0248002,0.00244968,-1.55996,0.0157804,0.0454445,1266,1800,2.60904,-5.51576
49,-776,2.71362,5.37183,0.00564422,0.0204752,-0.00160889,0.0206477,0.00547169,-1.46397,0.0123521,0.0461182,1273,1800,2.7136,-5.37183
56,-776,2.78967,5.25806,0.00775108,0.0170674,-0.00259703,0.0177425,0.00707604,-1.3165,0.0103133,0.0467191,1280,1800,2.7897,-5.25807
63,-776,3.29358,5.30029,0.00853721,0.0140951,-0.00273515,0.0152153,0.00741699,-1.18207,0.0087855,0.0462645,1287,1800,3.29357,-5.30027
70,-776,3.8811,5.50891,0.00859608,0.0100663,-0.00291542,0.0123378,0.00632451,-0.908894,0.00712401,0.0493157,1294,1800,3.88114,-5.50886
77,-776,3.08801,4.97791,0.00878855,0.00701554,-0.00137666,0.00953945,0.00626465,-0.499341,0.00559705,0.0497334,1301,1800,3.08803,-4.97789
84,-776,2.12073,3.96851,0,0,0,0,0,0,0,-1,1308,1800,2.12067,-3.96847
91,-776,2.08191,4.10193,0.00762033,-0.000152142,0.00189372,0.00805717,-0.000588983,0.226713,0.00557815,0.0476866,1315,1800,2.08189,-4.10194
98,-776,2.07556,4.25452,0.0060884,-0.00317958,0.00354546,0.00728915,-0.00438033,0.326548,0.00680679,0.0447023,1322,1800,2.07551,-4.25452
105,-776,2.0531,4.48499,0,0,0,0,0,0,0,-1,1329,1800,2.05316,-4.485
112,-776,1.89221,4.74426,0.00795579,-0.00763636,0.0094946,0.0124449,-0.0121255,0.441659,0.0141861,0.0480237,1336,1800,1.89223,-4.74421
119,-776,1.6792,5.00293,0.0114611,-0.0108079,0.0148005,0.0188477,-0.0181945,0.462912,0.0213874,0.0440562,1343,1800,1.67915,-5.00298
126,-776,1.78638,5.12634,0,0,0,0,0,0,0,-1,1350,1800,1.78643,-5.1264
133,-776,1.81653,5.6189,0,0,0,0,0,0,0,-1,1357,1800,1.81652,-5.6189
140,-776,2.11133,5.9137,0,0,0,0,0,0,0,-1,1364,1800,2.11132,-5.91369
147,-776,2.65845,3.48584,0,0,0,0,0,0,0,-1,1371,1800,2.65841,-3.48586
154,-776,5.34351,-0.176514,0,0,0,0,0,0,0,-1,1378,1800,5.34349,0.176541
161,-776,5.66394,0.72998,0,0,0,0,0,0,0,-1,1385,1800,5.66391,-0.730033
168,-776,6.01453,1.849,0.0261049,-0.0213968,0.0498427,0.0575663,-0.0528582,0.563056,0.0637729,0.0474845,1392,1800,6.01452,-1.84898
175,-776,6.23303,2.8501,0.0250542,-0.0246534,0.0491298,0.055259,-0.0548583,0.551228,0.0635764,0.0483871,1399,1800,6.23302,-2.85009
182,-776,6.53076,3.98755,0.0220575,-0.0279295,0.0464347,0.0497978,-0.0556698,0.538509,0.0609232,0.0427451,1406,1800,6.53082,-3.9875
189,-776,6.479,5.03613,0.0173745,-0.0317805,0.0414152,0.0409558,-0.0553618,0.517607,0.0558159,0.0390995,1413,1800,6.47902,-5.03613
196,-776,6.52527,6.27283,0.0126353,-0.0354274,0.0346985,0.0308116,-0.0536038,0.482535,0.0493259,0.0407525,1420,1800,6.52528,-6.27287
203,-776,6.62207,9.06042,0,0,0,0,0,0,0,-1,1427,1800,6.62211,-9.0604
210,-776,6.52087,5.04358,0,0,0,0,0,0,0,-1,1434,1800,6.52084,-5.0436
217,-776,4.77612,6.8905,0,0,0,0,0,0,0,-1,1441,1800,4.77611,-6.89054
224,-776,4.60181,6.24048,0,0,0,0,0,0,0,-1,1448,1800,4.60182,-6.24048
231,-776,4.12024,4.86206,0,0,0,0,0,0,0,-1,1455,1800,4.12028,-4.86212
238,-776,3.73682,4.38269,0,0,0,0,0,0,0,-1,1462,1800,3.73683,-4.38272
245,-776,0.953003,2.26978,0,0,0,0,0,0,0,-1,1469,1800,0.953033,-2.2698
252,-776,0.888184,3.26111,0,0,0,0,0,0,0,-1,1476,1800,0.888215,-3.26107
259,-776,0.652832,3.42163,0,0,0,0,0,0,0,-1,1483,1800,0.652779,-3.42158
266,-776,0,0,0,0,0,0,0,0,0,-1,1490,1800,0,0
273,-776,0,0,0,0,0,0,0,0,0,-1,1497,1800,0,0
280,-776,0,0,0,0,0,0,0,0,0,-1,1504,1800,0,0
287,-776,0,0,0,0,0,0,0,0,0,-1,1511,1800,0,0
294,-776,0,0,0,0,0,0,0,0,0,-1,1518,1800,0,0
301,-776,0,0,0,0,0,0,0,0,0,-1,1525,1800,0,0
308,-776,0,0,0,0,0,0,0,0,0,-1,1532,1800,0,0
315,-776,0,0,0,0,0,0,0,0,0,-1,1539,1800,0,0
322,-776,0,0,0,0,0,0,0,0,0,-1,1546,1800,0,0
329,-776,0,0,0,0,0,0,0,0,0,-1,1553,1800,0,0
336,-776,0,0,0,0,0,0,0,0,0,-1,1560,1800,0,0
343,-776,0,0,0,0,0,0,0,0,0,-1,1567,1800,0,0
350,-776,0,0,0,0,0,0,0,0,0,-1,1574,1800,0,0
357,-776,0,0,0,0,0,0,0,0,0,-1,1581,1800,0,0
364,-776,0,0,0,0,0,0,0,0,0,-1,1588,1800,0,0
371,-776,0,0,0,0,0,0,0,0,0,-1,1595,1800,0,0
378,-776,0,0,0,0,0,0,0,0,0,-1,1602,1800,0,0
385,-776,0,0,0,0,0,0,0,0,0,-1,1609,1800,0,0
392,-776,0,0,0,0,0,0,0,0,0,-1,1616,1800,0,0
399,-776,0,0,0,0,0,0,0,0,0,-1,1623,1800,0,0
406,-776,0,0,0,0,0,0,0,0,0,-1,1630,1800,0,0
413,-776,0,0,0,0,0,0,0,0,0,-1,1637,1800,0,0
420,-776,0,0,0,0,0,0,0,0,0,-1,1644,1800,0,0
427,-776,0,0,0,0,0,0,0,0,0,-1,1651,1800,0,0
434,-776,0,0,0,0,0,0,0,0,0,-1,1658,1800,0,0
441,-776,0,0,0,0,0,0,0,0,0,-1,1665,1800,0,0
448,-776,0,0,0,0,0,0,0,0,0,-1,1672,1800,0,0
455,-776,0,0,0,0,0,0,0,0,0,-1,1679,1800,0,0
462,-776,0,0,0,0,0,0,0,0,0,-1,1686,1800,0,0
469,-776,0,0,0,0,0,0,0,0,0,-1,1693,1800,0,0
476,-776,0,0,0,0,0,0,0,0,0,-1,1700,1800,0,0
483,-776,0,0,0,0,0,0,0,0,0,-1,1707,1800,0,0
490,-776,0,0,0,0,0,0,0,0,0,-1,1714,1800,0,0
497,-776,0,0,0,0,0,0,0,0,0,-1,1721,1800,0,0
504,-776,0,0,0,0,0,0,0,0,0,-1,1728,1800,0,0
511,-776,0,0,0,0,0,0,0,0,0,-1,1735,1800,0,0
518,-776,0,0,0,0,0,0,0,0,0,-1,1742,1800,0,0
525,-776,0,0,0,0,0,0,0,0,0,-1,1749,1800,0,0
532,-776,0,0,0,0,0,0,0,0,0,-1,1756,1800,0,0
539,-776,0,0,0,0,0,0,0,0,0,-1,1763,1800,0,0
546,-776,0,0,0,0,0,0,0,0,0,-1,1770,1800,0,0
553,-776,0,0,0,0,0,0,0,0,0,-1,1777,1800,0,0
560,-776,0,0,0,0,0,0,0,0,0,-1,1784,1800,0,0
567,-776,0,0,0,0,0,0,0,0,0,-1,1791,1800,0,0
574,-776,0,0,0,0,0,0,0,0,0,-1,1798,1800,0,0
581,-776,0,0,0,0,0,0,0,0,0,-1,1805,1800,0,0
588,-776,0,0,0,0,0,0,0,0,0,-1,1812,1800,0,0
595,-776,0,0,0,0,0,0,0,0,0,-1,1819,1800,0,0
602,-776,0,0,0,0,0,0,0,0,0,-1,1826,1800,0,0
609,-776,0,0,0,0,0,0,0,0,0,-1,1833,1800,0,0
616,-776,0,0,0,0,0,0,0,0,0,-1,1840,1800,0,0
623,-776,0,0,0,0,0,0,0,0,0,-1,1847,1800,0,0
630,-776,0,0,0,0,0,0,0,0,0,-1,1854,1800,0,0
637,-776,0,0,0,0,0,0,0,0,0,-1,1861,1800,0,0
644,-776,0,0,0,0,0,0,0,0,0,-1,1868,1800,0,0
651,-776,0,0,0,0,0,0,0,0,0,-1,1875,1800,0,0
658,-776,0,0,0,0,0,0,0,0,0,-1,1882,1800,0,0
665,-776,0,0,0,0,0,0,0,0,0,-1,1889,1800,0,0
672,-776,0,0,0,0,0,0,0,0,0,-1,1896,1800,0,0
679,-776,0,0,0,0,0,0,0,0,0,-1,1903,1800,0,0
686,-776,0,0,0,0,0,0,0,0,0,-1,1910,1800,0,0
693,-776,0,0,0,0,0,0,0,0,0,-1,1917,1800,0,0
700,-776,0,0,0,0,0,0,0,0,0,-1,1924,1800,0,0
707,-776,0,0,0,0,0,0,0,0,0,-1,1931,1800,0,0
714,-776,0,0,0,0,0,0,0,0,0,-1,1938,1800,0,0
721,-776,0,0,0,0,0,0,0,0,0,-1,1945,1800,0,0
728,-776,0,0,0,0,0,0,0,0,0,-1,1952,1800,0,0
735,-776,0,0,0,0,0,0,0,0,0,-1,1959,1800,0,0
742,-776,0,0,0,0,0,0,0,0,0,-1,1966,1800,0,0
749,-776,0,0,0,0,0,0,0,0,0,-1,1973,1800,0,0
756,-776,0,0,0,0,0,0,0,0,0,-1,1980,1800,0,0
763,-776,0,0,0,0,0,0,0,0,0,-1,1987,1800,0,0
770,-776,0,0,0,0,0,0,0,0,0,-1,1994,1800,0,0
777,-776,0,0,0,0,0,0,0,0,0,-1,2001,1800,0,0
784,-776,0,0,0,0,0,0,0,0,0,-1,2008,1800,0,0
791,-776,0,0,0,0,0,0,0,0,0,-1,2015,1800,0,0
798,-776,0,0,0,0,0,0,0,0,0,-1,2022,1800,0,0
805,-776,0,0,0,0,0,0,0,0,0,-1,2029,1800,0,0
812,-776,0,0,0,0,0,0,0,0,0,-1,2036,1800,0,0
-700,-783,0,0,0,0,0,0,0,0,0,-1,524,1807,0,0
-693,-783,0,0,0,0,0,0,0,0,0,-1,531,1807,0,0
-686,-783,0,0,0,0,0,0,0,0,0,-1,538,1807,0,0
-679,-783,0,0,0,0,0,0,0,0,0,-1,545,1807,0,0
-672,-783,0,0,0,0,0,0,0,0,0,-1,552,1807,0,0
-665,-783,0,0,0,0,0,0,0,0,0,-1,559,1807,0,0
-658,-783,0,0,0,0,0,0,0,0,0,-1,566,1807,0,0
-651,-783,0,0,0,0,0,0,0,0,0,-1,573,1807,0,0
-644,-783,0,0,0,0,0,0,0,0,0,-1,580,1807,0,0
-637,-783,0,0,0,0,0,0,0,0,0,-1,587,1807,0,0
-630,-783,0,0,0,0,0,0,0,0,0,-1,594,1807,0,0
-623,-783,0,0,0,0,0,0,0,0,0,-1,601,1807,0,0
-616,-783,0,0,0,0,0,0,0,0,0,-1,608,1807,0,0
-609,-783,0,0,0,0,0,0,0,0,0,-1,615,1807,0,0
-602,-783,0,0,0,0,0,0,0,0,0,-1,622,1807,0,0
-595,-783,0,0,0,0,0,0,0,0,0,-1,629,1807,0,0
-588,-783,0,0,0,0,0,0,0,0,0,-1,636,1807,0,0
-581,-783,0,0,0,0,0,0,0,0,0,-1,643,1807,0,0
-574,-783,0,0,0,0,0,0,0,0,0,-1,650,1807,0,0
-567,-783,0,0,0,0,0,0,0,0,0,-1,657,1807,0,0
-560,-783,0,0,0,0,0,0,0,0,0,-1,664,1807,0,0
-553,-783,0,0,0,0,0,0,0,0,0,-1,671,1807,0,0
-546,-783,0,0,0,0,0,0,0,0,0,-1,678,1807,0,0
-539,-783,0,0,0,0,0,0,0,0,0,-1,685,1807,0,0
-532,-783,0,0,0,0,0,0,0,0,0,-1,692,1807,0,0
-525,-783,0,0,0,0,0,0,0,0,0,-1,699,1807,0,0
-518,-783,0,0,0,0,0,0,0,0,0,-1,706,1807,0,0
-511,-783,0,0,0,0,0,0,0,0,0,-1,713,1807,0,0
-504,-783,0,0,0,0,0,0,0,0,0,-1,720,1807,0,0
-497,-783,0,0,0,0,0,0,0,0,0,-1,727,1807,0,0
-490,-783,0,0,0,0,0,0,0,0,0,-1,734,1807,0,0
-483,-783,0,0,0,0,0,0,0,0,0,-1,741,1807,0,0
-476,-783,0,0,0,0,0,0,0,0,0,-1,748,1807,0,0
-469,-783,0,0,0,0,0,0,0,0,0,-1,755,1807,0,0
-462,-783,0,0,0,0,0,0,0,0,0,-1,762,1807,0,0
-455,-783,0,0,0,0,0,0,0,0,0,-1,769,1807,0,0
-448,-783,0,0,0,0,0,0,0,0,0,-1,776,1807,0,0
-441,-783,0,0,0,0,0,0,0,0,0,-1,783,1807,0,0
-434,-783,0,0,0,0,0,0,0,0,0,-1,790,1807,0,0
-427,-783,0,0,0,0,0,0,0,0,0,-1,797,1807,0,0
-420,-783,0,0,0,0,0,0,0,0,0,-1,804,1807,0,0
-413,-783,0,0,0,0,0,0,0,0,0,-1,811,1807,0,0
-406,-783,0,0,0,0,0,0,0,0,0,-1,818,1807,0,0
-399,-783,0,0,0,0,0,0,0,0,0,-1,825,1807,0,0
-392,-783,0,0,0,0,0,0,0,0,0,-1,832,1807,0,0
-385,-783,0,0,0,0,0,0,0,0,0,-1,839,1807,0,0
-378,-783,0,0,0,0,0,0,0,0,0,-1,846,1807,0,0
-371,-783,0,0,0,0,0,0,0,0,0,-1,853,1807,0,0
-364,-783,0,0,0,0,0,0,0,0,0,-1,860,1807,0,0
-357,-783,0,0,0,0,0,0,0,0,0,-1,867,1807,0,0
-350,-783,0,0,0,0,0,0,0,0,0,-1,874,1807,0,0
-343,-783,0,0,0,0,0,0,0,0,0,-1,881,1807,0,0
-336,-783,0,0,0,0,0,0,0,0,0,-1,888,1807,0,0
-329,-783,0,0,0,0,0,0,0,0,0,-1,895,1807,0,0
-322,-783,0,0,0,0,0,0,0,0,0,-1,902,1807,0,0
-315,-783,0,0,0,0,0,0,0,0,0,-1,909,1807,0,0
-308,-783,0,0,0,0,0,0,0,0,0,-1,916,1807,0,0
-301,-783,0,0,0,0,0,0,0,0,0,-1,923,1807,0,0
-294,-783,0,0,0,0,0,0,0,0,0,-1,930,1807,0,0
-287,-783,0,0,0,0,0,0,0,0,0,-1,937,1807,0,0
-280,-783,0,0,0,0,0,0,0,0,0,-1,944,1807,0,0
-273,-783,0,0,0,0,0,0,0,0,0,-1,951,1807,0,0
-266,-783,0,0,0,0,0,0,0,0,0,-1,958,1807,0,0
-259,-783,0,0,0,0,0,0,0,0,0,-1,965,1807,0,0
-252,-783,0,0,0,0,0,0,0,0,0,-1,972,1807,0,0
-245,-783,0,0,0,0,0,0,0,0,0,-1,979,1807,0,0
-238,-783,0,0,0,0,0,0,0,0,0,-1,986,1807,0,0
-231,-783,0,0,0,0,0,0,0,0,0,-1,993,1807,0,0
-224,-783,0,0,0,0,0,0,0,0,0,-1,1000,1807,0,0
-217,-783,0,0,0,0,0,0,0,0,0,-1,1007,1807,0,0
-210,-783,0,0,0,0,0,0,0,0,0,-1,1014,1807,0,0
-203,-783,0,0,0,0,0,0,0,0,0,-1,1021,1807,0,0
-196,-783,0,0,0,0,0,0,0,0,0,-1,1028,1807,0,0
-189,-783,0,0,0,0,0,0,0,0,0,-1,1035,1807,0,0
-182,-783,0,0,0,0,0,0,0,0,0,-1,1042,1807,0,0
-175,-783,0,0,0,0,0,0,0,0,0,-1,1049,1807,0,0
-168,-783,0,0,0,0,0,0,0,0,0,-1,1056,1807,0,0
-161,-783,0,0,0,0,0,0,0,0,0,-1,1063,1807,0,0
-154,-783,0,0,0,0,0,0,0,0,0,-1,1070,1807,0,0
-147,-783,0,0,0,0,0,0,0,0,0,-1,1077,1807,0,0
-140,-783,0,0,0,0,0,0,0,0,0,-1,1084,1807,0,0
-133,-783,0,0,0,0,0,0,0,0,0,-1,1091,1807,0,0
-126,-783,0,0,0,0,0,0,0,0,0,-1,1098,1807,0,0
-119,-783,0,0,0,0,0,0,0,0,0,-1,1105,1807,0,0
-112,-783,-0.94397,4.91638,0,0,0,0,0,0,0,-1,1112,1807,-0.944016,-4.91644
-105,-783,-0.485474,5.39673,0,0,0,0,0,0,0,-1,1119,1807,-0.485501,-5.39668
-98,-783,2.92126,5.39038,0,0,0,0,0,0,0,-1,1126,1807,2.92124,-5.39037
-91,-783,2.1593,5.53076,0,0,0,0,0,0,0,-1,1133,1807,2.15931,-5.53079
-84,-783,-0.803467,6.83154,0,0,0,0,0,0,0,-1,1140,1807,-0.803409,-6.83149
-77,-783,-0.973145,6.91943,0,0,0,0,0,0,0,-1,1147,1807,-0.973095,-6.91938
-70,-783,-1.24524,1.60583,0,0,0,0,0,0,0,-1,1154,1807,-1.24523,-1.60583
-63,-783,-1.38721,1.6084,0,0,0,0,0,0,0,-1,1161,1807,-1.3872,-1.60841
-56,-783,-1.32239,1.82434,0,0,0,0,0,0,0,-1,1168,1807,-1.32239,-1.8243
-49,-783,0.773682,2.75671,0,0,0,0,0,0,0,-1,1175,1807,0.773639,-2.75667
-42,-783,0.104858,3.77209,0,0,0,0,0,0,0,-1,1182,1807,0.104905,-3.77212
-35,-783,-1.18164,3.12671,0,0,0,0,0,0,0,-1,1189,1807,-1.1817,-3.12675
-28,-783,-0.282349,3.16992,0,0,0,0,0,0,0,-1,1196,1807,-0.282359,-3.16998
-21,-783,4.15381,8.11157,0,0,0,0,0,0,0,-1,1203,1807,4.15384,-8.11156
-14,-783,3.56689,7.47656,0,0,0,0,0,0,0,-1,1210,1807,3.56691,-7.47652
-7,-783,2.87646,6.85596,-0.036371,0.0763607,0.0149891,0.0783196,-0.03833,1.44084,0.0686542,0.0460453,1217,1807,2.87644,-6.85593
0,-783,2.30115,6.38293,-0.0317526,0.0701883,0.0127193,0.0717513,-0.0333156,1.44852,0.0619986,0.04562,1224,1807,2.30115,-6.38287
7,-783,2.00269,6.05713,-0.0261331,0.062556,0.0107967,0.0638514,-0.0274286,1.45138,0.0540809,0.045284,1231,1807,2.0027,-6.05716
14,-783,2.57605,5.34924,0,0,0,0,0,0,0,-1,1238,1807,2.576,-5.34921
21,-783,2.10889,4.82458,-0.0124922,0.0510389,0.00572864,0.0515514,-0.0130046,1.48158,0.039424,0.0456111,1245,1807,2.10887,-4.82464
28,-783,1.73914,4.32776,-0.00639401,0.0454844,0.00420193,0.0458225,-0.00673214,1.4905,0.0330219,0.0432343,1252,1807,1.73916,-4.32771
35,-783,2.65796,5.45276,0,0,0,0,0,0,0,-1,1259,1807,2.65801,-5.45278
42,-783,2.66748,5.34253,0.00347987,0.0333461,0.00161342,0.033433,0.00339297,1.51698,0.0212482,0.0467451,1266,1807,2.66747,-5.34248
49,-783,2.7207,5.38416,0.00764426,0.027327,4.38695e-05,0.0273271,0.00764416,1.56857,0.0162796,0.0475111,1273,1807,2.72065,-5.38413
56,-783,3.05139,5.53088,0.0104669,0.0224215,-0.00107911,0.0225182,0.0103703,-1.48149,0.0130144,0.0456821,1280,1807,3.0514,-5.5309
63,-783,3.19299,5.39294,0.0115983,0.0178447,-0.0013507,0.0181242,0.0113187,-1.3667,0.0105716,0.0484054,1287,1807,3.19298,-5.39297
70,-783,1.9751,3.67578,0.0117344,0.0120772,-0.00185825,0.0137719,0.0100397,-0.831386,0.0082245,0.0447004,1294,1807,1.9751,-3.67577
77,-783,2.39197,3.99292,0.0118329,0.00781004,-6.02868e-05,0.0118338,0.00780913,-0.0149814,0.00694775,0.0471222,1301,1807,2.39199,-3.99291
84,-783,2.59302,4.52441,0.0117357,0.00288928,0.00185703,0.0121097,0.00251526,0.198745,0.00737902,0.0462463,1308,1807,2.59298,-4.52441
91,-783,2.5835,4.52393,0.010416,-0.00216473,0.00373546,0.0114416,-0.00319026,0.267938,0.00888417,0.0457504,1315,1807,2.58355,-4.52392
98,-783,2.75757,4.48193,0.00872414,-0.00652965,0.00565619,0.0105926,-0.00839812,0.319055,0.0109887,0.0468773,1322,1807,2.75757,-4.48191
105,-783,2.25293,5.01709,0,0,0,0,0,0,0,-1,1329,1807,2.25295,-5.01708
112,-783,1.82825,5.16882,0,0,0,0,0,0,0,-1,1336,1807,1.82827,-5.16881
119,-783,1.70679,5.40759,0.0159918,-0.0166426,0.0189746,0.0247004,-0.0253511,0.430278,0.028898,0.0455994,1343,1807,1.70681,-5.40758
126,-783,1.74719,5.59155,0.0207481,-0.0198922,0.0263002,0.0336636,-0.0328078,0.456487,0.0383783,0.0463265,1350,1807,1.74717,-5.59158
133,-783,1.76782,6.21765,0,0,0,0,0,0,0,-1,1357,1807,1.76784,-6.21764
140,-783,2.04968,6.6394,0,0,0,0,0,0,0,-1,1364,1807,2.04964,-6.63937
147,-783,4.70728,-1.04907,0,0,0,0,0,0,0,-1,1371,1807,4.70728,1.04907
154,-783,5.32227,0.000366211,0,0,0,0,0,0,0,-1,1378,1807,5.32225,-0.000410286
161,-783,5.8324,0.938965,0.0341454,-0.0209849,0.0633866,0.0757011,-0.0625407,0.580296,0.0799344,0.0457726,1385,1807,5.83245,-0.938976
168,-783,6.14453,1.91565,0.0344507,-0.024074,0.0651118,0.0765734,-0.0661967,0.574214,0.0825009,0.0468706,1392,1807,6.14448,-1.91567
175,-783,6.35803,3.01733,0.0335268,-0.0275773,0.0655513,0.0752963,-0.0693467,0.567326,0.0835332,0.0442889,1399,1807,6.35799,-3.01739
182,-783,6.55603,4.18677,0.0299248,-0.0315535,0.0631049,0.0693791,-0.0710078,0.558756,0.0810542,0.0421641,1406,1807,6.556,-4.18671
189,-783,6.61438,5.63477,0.0243729,-0.036279,0.0575321,0.0590823,-0.0709884,0.542847,0.0752012,0.0419299,1413,1807,6.61434,-5.63475
196,-783,6.54602,6.88513,0.0188624,-0.0406585,0.0498594,0.0471678,-0.0689639,0.516334,0.0674412,0.0435567,1420,1807,6.54602,-6.88519
203,-783,6.27954,7.99268,0,0,0,0,0,0,0,-1,1427,1807,6.27955,-7.99266
210,-783,5.6969,8.99231,0,0,0,0,0,0,0,-1,1434,1807,5.69693,-8.99234
217,-783,5.28503,3.80872,0,0,0,0,0,0,0,-1,1441,1807,5.285,-3.80868
224,-783,4.72083,3.98682,0,0,0,0,0,0,0,-1,1448,1807,4.72082,-3.98676
231,-783,4.27942,4.56262,0,0,0,0,0,0,0,-1,1455,1807,4.27948,-4.56267
238,-783,0,0,0,0,0,0,0,0,0,-1,1462,1807,0,0
245,-783,0,0,0,0,0,0,0,0,0,-1,1469,1807,0,0
252,-783,0,0,0,0,0,0,0,0,0,-1,1476,1807,0,0
259,-783,0,0,0,0,0,0,0,0,0,-1,1483,1807,0,0
266,-783,0,0,0,0,0,0,0,0,0,-1,1490,1807,0,0
273,-783,0,0,0,0,0,0,0,0,0,-1,1497,1807,0,0
280,-783,0,0,0,0,0,0,0,0,0,-1,1504,1807,0,0
287,-783,0,0,0,0,0,0,0,0,0,-1,1511,1807,0,0
294,-783,0,0,0,0,0,0,0,0,0,-1,1518,1807,0,0
301,-783,0,0,0,0,0,0,0,0,0,-1,1525,1807,0,0
308,-783,0,0,0,0,0,0,0,0,0,-1,1532,1807,0,0
315,-783,0,0,0,0,0,0,0,0,0,-1,1539,1807,0,0
322,-783,0,0,0,0,0,0,0,0,0,-1,1546,1807,0,0
329,-783,0,0,0,0,0,0,0,0,0,-1,1553,1807,0,0
336,-783,0,0,0,0,0,0,0,0,0,-1,1560,1807,0,0
343,-783,0,0,0,0,0,0,0,0,0,-1,1567,1807,0,0
350,-783,0,0,0,0,0,0,0,0,0,-1,1574,1807,0,0
357,-783,0,0,0,0,0,0,0,0,0,-1,1581,1807,0,0
364,-783,0,0,0,0,0,0,0,0,0,-1,1588,1807,0,0
371,-783,0,0,0,0,0,0,0,0,0,-1,1595,1807,0,0
378,-783,0,0,0,0,0,0,0,0,0,-1,1602,1807,0,0
385,-783,0,0,0,0,0,0,0,0,0,-1,1609,1807,0,0
392,-783,0,0,0,0,0,0,0,0,0,-1,1616,1807,0,0
399,-783,0,0,0,0,0,0,0,0,0,-1,1623,1807,0,0
406,-783,0,0,0,0,0,0,0,0,0,-1,1630,1807,0,0
413,-783,0,0,0,0,0,0,0,0,0,-1,1637,1807,0,0
420,-783,0,0,0,0,0,0,0,0,0,-1,1644,1807,0,0
427,-783,0,0,0,0,0,0,0,0,0,-1,1651,1807,0,0
434,-783,0,0,0,0,0,0,0,0,0,-1,1658,1807,0,0
441,-783,0,0,0,0,0,0,0,0,0,-1,1665,1807,0,0
448,-783,0,0,0,0,0,0,0,0,0,-1,1672,1807,0,0
455,-783,0,0,0,0,0,0,0,0,0,-1,1679,1807,0,0
462,-783,0,0,0,0,0,0,0,0,0,-1,1686,1807,0,0
469,-783,0,0,0,0,0,0,0,0,0,-1,1693,1807,0,0
476,-783,0,0,0,0,0,0,0,0,0,-1,1700,1807,0,0
483,-783,0,0,0,0,0,0,0,0,0,-1,1707,1807,0,0
490,-783,0,0,0,0,0,0,0,0,0,-1,1714,1807,0,0
497,-783,0,0,0,0,0,0,0,0,0,-1,1721,1807,0,0
504,-783,0,0,0,0,0,0,0,0,0,-1,1728,1807,0,0
511,-783,0,0,0,0,0,0,0,0,0,-1,1735,1807,0,0
518,-783,0,0,0,0,0,0,0,0,0,-1,1742,1807,0,0
525,-783,0,0,0,0,0,0,0,0,0,-1,1749,1807,0,0
532,-783,0,0,0,0,0,0,0,0,0,-1,1756,1807,0,0
539,-783,0,0,0,0,0,0,0,0,0,-1,1763,1807,0,0
546,-783,0,0,0,0,0,0,0,0,0,-1,1770,1807,0,0
553,-783,0,0,0,0,0,0,0,0,0,-1,1777,1807,0,0
560,-783,0,0,0,0,0,0,0,0,0,-1,1784,1807,0,0
567,-783,0,0,0,0,0,0,0,0,0,-1,1791,1807,0,0
574,-783,0,0,0,0,0,0,0,0,0,-1,1798,1807,0,0
581,-783,0,0,0,0,0,0,0,0,0,-1,1805,1807,0,0
588,-783,0,0,0,0,0,0,0,0,0,-1,1812,1807,0,0
595,-783,0,0,0,0,0,0,0,0,0,-1,1819,1807,0,0
602,-783,0,0,0,0,0,0,0,0,0,-1,1826,1807,0,0
609,-783,0,0,0,0,0,0,0,0,0,-1,1833,1807,0,0
616,-783,0,0,0,0,0,0,0,0,0,-1,1840,1807,0,0
623,-783,0,0,0,0,0,0,0,0,0,-1,1847,1807,0,0
630,-783,0,0,0,0,0,0,0,0,0,-1,1854,1807,0,0
637,-783,0,0,0,0,0,0,0,0,0,-1,1861,1807,0,0
644,-783,0,0,0,0,0,0,0,0,0,-1,1868,1807,0,0
651,-783,0,0,0,0,0,0,0,0,0,-1,1875,1807,0,0
658,-783,0,0,0,0,0,0,0,0,0,-1,1882,1807,0,0
665,-783,0,0,0,0,0,0,0,0,0,-1,1889,1807,0,0
672,-783,0,0,0,0,0,0,0,0,0,-1,1896,1807,0,0
679,-783,0,0,0,0,0,0,0,0,0,-1,1903,1807,0,0
686,-783,0,0,0,0,0,0,0,0,0,-1,1910,1807,0,0
693,-783,0,0,0,0,0,0,0,0,0,-1,1917,1807,0,0
700,-783,0,0,0,0,0,0,0,0,0,-1,1924,1807,0,0
707,-783,0,0,0,0,0,0,0,0,0,-1,1931,1807,0,0
714,-783,0,0,0,0,0,0,0,0,0,-1,1938,1807,0,0
721,-783,0,0,0,0,0,0,0,0,0,-1,1945,1807,0,0
728,-783,0,0,0,0,0,0,0,0,0,-1,1952,1807,0,0
735,-783,0,0,0,0,0,0,0,0,0,-1,1959,1807,0,0
742,-783,0,0,0,0,0,0,0,0,0,-1,1966,1807,0,0
749,-783,0,0,0,0,0,0,0,0,0,-1,1973,1807,0,0
756,-783,0,0,0,0,0,0,0,0,0,-1,1980,1807,0,0
763,-783,0,0,0,0,0,0,0,0,0,-1,1987,1807,0,0
770,-783,0,0,0,0,0,0,0,0,0,-1,1994,1807,0,0
777,-783,0,0,0,0,0,0,0,0,0,-1,2001,1807,0,0
784,-783,0,0,0,0,0,0,0,0,0,-1,2008,1807,0,0
791,-783,0,0,0,0,0,0,0,0,0,-1,2015,1807,0,0
798,-783,0,0,0,0,0,0,0,0,0,-1,2022,1807,0,0
805,-783,0,0,0,0,0,0,0,0,0,-1,2029,1807,0,0
812,-783,0,0,0,0,0,0,0,0,0,-1,2036,1807,0,0
-700,-790,0,0,0,0,0,0,0,0,0,-1,524,1814,0,0
-693,-790,0,0,0,0,0,0,0,0,0,-1,531,1814,0,0
-686,-790,0,0,0,0,0,0,0,0,0,-1,538,1814,0,0
-679,-790,0,0,0,0,0,0,0,0,0,-1,545,1814,0,0
-672,-790,0,0,0,0,0,0,0,0,0,-1,552,1814,0,0
-665,-790,0,0,0,0,0,0,0,0,0,-1,559,1814,0,0
-658,-790,0,0,0,0,0,0,0,0,0,-1,566,1814,0,0
-651,-790,0,0,0,0,0,0,0,0,0,-1,573,1814,0,0
-644,-790,0,0,0,0,0,0,0,0,0,-1,580,1814,0,0
-637,-790,0,0,0,0,0,0,0,0,0,-1,587,1814,0,0
-630,-790,0,0,0,0,0,0,0,0,0,-1,594,1814,0,0
-623,-790,0,0,0,0,0,0,0,0,0,-1,601,1814,0,0
-616,-790,0,0,0,0,0,0,0,0,0,-1,608,1814,0,0
-609,-790,0,0,0,0,0,0,0,0,0,-1,615,1814,0,0
-602,-790,0,0,0,0,0,0,0,0,0,-1,622,1814,0,0
-595,-790,0,0,0,0,0,0,0,0,0,-1,629,1814,0,0
-588,-790,0,0,0,0,0,0,0,0,0,-1,636,1814,0,0
-581,-790,0,0,0,0,0,0,0,0,0,-1,643,1814,0,0
-574,-790,0,0,0,0,0,0,0,0,0,-1,650,1814,0,0
-567,-790,0,0,0,0,0,0,0,0,0,-1,657,1814,0,0
-560,-790,0,0,0,0,0,0,0,0,0,-1,664,1814,0,0
-553,-790,0,0,0,0,0,0,0,0,0,-1,671,1814,0,0
-546,-790,0,0,0,0,0,0,0,0,0,-1,678,1814,0,0
-539,-790,0,0,0,0,0,0,0,0,0,-1,685,1814,0,0
-532,-790,0,0,0,0,0,0,0,0,0,-1,692,1814,0,0
-525,-790,0,0,0,0,0,0,0,0,0,-1,699,1814,0,0
-518,-790,0,0,0,0,0,0,0,0,0,-1,706,1814,0,0
-511,-790,0,0,0,0,0,0,0,0,0,-1,713,1814,0,0
-504,-790,0,0,0,0,0,0,0,0,0,-1,720,1814,0,0
-497,-790,0,0,0,0,0,0,0,0,0,-1,727,1814,0,0
-490,-790,0,0,0,0,0,0,0,0,0,-1,734,1814,0,0
-483,-790,0,0,0,0,0,0,0,0,0,-1,741,1814,0,0
-476,-790,0,0,0,0,0,0,0,0,0,-1,748,1814,0,0
-469,-790,0,0,0,0,0,0,0,0,0,-1,755,1814,0,0
-462,-790,0,0,0,0,0,0,0,0,0,-1,762,1814,0,0
-455,-790,0,0,0,0,0,0,0,0,0,-1,769,1814,0,0
-448,-790,0,0,0,0,0,0,0,0,0,-1,776,1814,0,0
-441,-790,0,0,0,0,0,0,0,0,0,-1,783,1814,0,0
-434,-790,0,0,0,0,0,0,0,0,0,-1,790,1814,0,0
-427,-790,0,0,0,0,0,0,0,0,0,-1,797,1814,0,0
-420,-790,0,0,0,0,0,0,0,0,0,-1,804,1814,0,0
-413,-790,0,0,0,0,0,0,0,0,0,-1,811,1814,0,0
-406,-790,0,0,0,0,0,0,0,0,0,-1,818,1814,0,0
-399,-790,0,0,0,0,0,0,0,0,0,-1,825,1814,0,0
-392,-790,0,0,0,0,0,0,0,0,0,-1,832,1814,0,0
-385,-790,0,0,0,0,0,0,0,0,0,-1,839,1814,0,0
-378,-790,0,0,0,0,0,0,0,0,0,-1,846,1814,0,0
-371,-790,0,0,0,0,0,0,0,0,0,-1,853,1814,0,0
-364,-790,0,0,0,0,0,0,0,0,0,-1,860,1814,0,0
-357,-790,0,0,0,0,0,0,0,0,0,-1,867,1814,0,0
-350,-790,0,0,0,0,0,0,0,0,0,-1,874,1814,0,0
-343,-790,0,0,0,0,0,0,0,0,0,-1,881,1814,0,0
-336,-790,0,0,0,0,0,0,0,0,0,-1,888,1814,0,0
-329,-790,0,0,0,0,0,0,0,0,0,-1,895,1814,0,0
-322,-790,0,0,0,0,0,0,0,0,0,-1,902,1814,0,0
-315,-790,0,0,0,0,0,0,0,0,0,-1,909,1814,0,0
-308,-790,0,0,0,0,0,0,0,0,0,-1,916,1814,0,0
-301,-790,0,0,0,0,0,0,0,0,0,-1,923,1814,0,0
-294,-790,0,0,0,0,0,0,0,0,0,-1,930,1814,0,0
-287,-790,0,0,0,0,0,0,0,0,0,-1,937,1814,0,0
-280,-790,0,0,0,0,0,0,0,0,0,-1,944,1814,0,0
-273,-790,0,0,0,0,0,0,0,0,0,-1,951,1814,0,0
-266,-790,0,0,0,0,0,0,0,0,0,-1,958,1814,0,0
-259,-790,0,0,0,0,0,0,0,0,0,-1,965,1814,0,0
-252,-790,0,0,0,0,0,0,0,0,0,-1,972,1814,0,0
-245,-790,0,0,0,0,0,0,0,0,0,-1,979,1814,0,0
-238,-790,0,0,0,0,0,0,0,0,0,-1,986,1814,0,0
-231,-790,0,0,0,0,0,0,0,0,0,-1,993,1814,0,0
-224,-790,0,0,0,0,0,0,0,0,0,-1,1000,1814,0,0
-217,-790,0,0,0,0,0,0,0,0,0,-1,1007,1814,0,0
-210,-790,0,0,0,0,0,0,0,0,0,-1,1014,1814,0,0
-203,-790,0,0,0,0,0,0,0,0,0,-1,1021,1814,0,0
-196,-790,0,0,0,0,0,0,0,0,0,-1,1028,1814,0,0
-189,-790,0,0,0,0,0,0,0,0,0,-1,1035,1814,0,0
-182,-790,0,0,0,0,0,0,0,0,0,-1,1042,1814,0,0
-175,-790,0,0,0,0,0,0,0,0,0,-1,1049,1814,0,0
-168,-790,0,0,0,0,0,0,0,0,0,-1,1056,1814,0,0
-161,-790,0,0,0,0,0,0,0,0,0,-1,1063,1814,0,0
-154,-790,0,0,0,0,0,0,0,0,0,-1,1070,1814,0,0
-147,-790,0,0,0,0,0,0,0,0,0,-1,1077,1814,0,0
-140,-790,0,0,0,0,0,0,0,0,0,-1,1084,1814,0,0
-133,-790,0,0,0,0,0,0,0,0,0,-1,1091,1814,0,0
-126,-790,0,0,0,0,0,0,0,0,0,-1,1098,1814,0,0
-119,-790,0,0,0,0,0,0,0,0,0,-1,1105,1814,0,0
-112,-790,0,0,0,0,0,0,0,0,0,-1,1112,1814,0,0
-105,-790,0,0,0,0,0,0,0,0,0,-1,1119,1814,0,0
-98,-790,0,0,0,0,0,0,0,0,0,-1,1126,1814,0,0
-91,-790,0,0,0,0,0,0,0,0,0,-1,1133,1814,0,0
-84,-790,0,0,0,0,0,0,0,0,0,-1,1140,1814,0,0
-77,-790,-1.61328,2.02075,0,0,0,0,0,0,0,-1,1147,1814,-1.61323,-2.02081
-70,-790,-1.74817,1.89734,0,0,0,0,0,0,0,-1,1154,1814,-1.74819,-1.89731
-63,-790,-1.91406,1.76953,0,0,0,0,0,0,0,-1,1161,1814,-1.91406,-1.7695
-56,-790,1.51978,3.66736,0,0,0,0,0,0,0,-1,1168,1814,1.5198,-3.66732
-49,-790,0.961548,2.47803,0,0,0,0,0,0,0,-1,1175,1814,0.961575,-2.47803
-42,-790,0.593262,1.19165,0,0,0,0,0,0,0,-1,1182,1814,0.593225,-1.19165
-35,-790,0.307129,-0.20105,0,0,0,0,0,0,0,-1,1189,1814,0.307178,0.201006
-28,-790,-0.632935,4.25732,0,0,0,0,0,0,0,-1,1196,1814,-0.632924,-4.25727
-21,-790,2.34644,1.85034,0,0,0,0,0,0,0,-1,1203,1814,2.34644,-1.85035
-14,-790,3.05835,6.56409,0,0,0,0,0,0,0,-1,1210,1814,3.0583,-6.56413
-7,-790,2.38916,6.1051,-0.0482306,0.10228,0.0200129,0.104896,-0.0508462,1.44084,0.0917049,0.0462336,1217,1814,2.38919,-6.10508
0,-790,1.8446,5.7948,-0.0418566,0.0939197,0.0176039,0.096165,-0.0441019,1.44394,0.0828217,0.0444043,1224,1814,1.84456,-5.79483
7,-790,1.27271,5.40662,-0.034092,0.0842305,0.0155064,0.0862289,-0.0360904,1.44263,0.0725717,0.04153,1231,1814,1.27265,-5.40663
14,-790,2.83032,5.1377,-0.0247162,0.0764213,0.0125605,0.0779579,-0.0262528,1.44907,0.0625859,0.0442817,1238,1814,2.83035,-5.13766
21,-790,2.08789,4.67053,-0.0157858,0.0687533,0.00943034,0.0697925,-0.016825,1.46104,0.0530339,0.0442696,1245,1814,2.08784,-4.67053
28,-790,1.37256,4.15796,-0.00780783,0.0608237,0.00769724,0.0616763,-0.00866051,1.46047,0.0442876,0.0419807,1252,1814,1.37262,-4.15801
35,-790,0.601318,3.46448,-0.00119054,0.0516214,0.00663347,0.0524418,-0.00201099,1.44774,0.0356505,0.04526,1259,1814,0.601304,-3.4645
42,-790,2.75232,5.18713,0.00471551,0.0437774,0.00477318,0.0443522,0.0041407,1.45095,0.0282891,0.0456241,1266,1814,2.75238,-5.18707
49,-790,2.88147,5.4917,0,0,0,0,0,0,0,-1,1273,1814,2.88147,-5.49165
56,-790,3.5564,5.99231,0.0137488,0.0287501,0.00181979,0.0289677,0.0135312,1.45179,0.0167366,0.0475376,1280,1814,3.55643,-5.99231
63,-790,3.73108,5.71045,0.0153551,0.0220113,0.00136762,0.0222814,0.0150851,1.37585,0.0131302,0.045107,1287,1814,3.73102,-5.71039
70,-790,2.35327,3.82397,0.0156272,0.0139781,0.000393927,0.0157164,0.0138889,0.222853,0.00992468,0.0392266,1294,1814,2.35324,-3.82393
77,-790,2.49011,4.2345,0.0155296,0.00812473,0.00245714,0.0162707,0.00738357,0.292959,0.00940727,0.0410236,1301,1814,2.49016,-4.23449
84,-790,2.61011,4.64856,0.0152561,0.00143552,0.00463991,0.0166693,2.23015e-05,0.295653,0.0111055,0.0421099,1308,1814,2.6101,-4.64859
91,-790,2.99365,4.85547,0.0137941,-0.00548528,0.00681613,0.0159604,-0.00765167,0.307735,0.0139109,0.0447398,1315,1814,2.99368,-4.85545
98,-790,3.3125,4.90625,0.0121503,-0.0116806,0.00907686,0.0152138,-0.014744,0.325496,0.0172969,0.0475468,1322,1814,3.31249,-4.9062
105,-790,3.37292,4.99487,0,0,0,0,0,0,0,-1,1329,1814,3.37295,-4.99492
112,-790,-0.831543,4.48425,0,0,0,0,0,0,0,-1,1336,1814,-0.831517,-4.48421
119,-790,1.86328,5.83423,0,0,0,0,0,0,0,-1,1343,1814,1.86333,-5.8342
126,-790,1.99402,5.92908,0,0,0,0,0,0,0,-1,1350,1814,1.99399,-5.92902
133,-790,1.99182,6.54785,0,0,0,0,0,0,0,-1,1357,1814,1.99177,-6.54785
140,-790,2.75867,2.94006,0,0,0,0,0,0,0,-1,1364,1814,2.75862,-2.94011
147,-790,3.6123,2.20117,0,0,0,0,0,0,0,-1,1371,1814,3.61231,-2.20113
154,-790,5.30103,0.177368,0,0,0,0,0,0,0,-1,1378,1814,5.30102,-0.177361
161,-790,5.89844,0.959106,0.0435486,-0.0226418,0.078874,0.0959893,-0.0750825,0.586756,0.0990139,0.0453321,1385,1814,5.8984,-0.959063
168,-790,6.3042,1.98486,0.044566,-0.0250491,0.0827646,0.0995445,-0.0800277,0.586346,0.10388,0.0459178,1392,1814,6.30416,-1.98482
175,-790,6.51013,3.10339,0.0437818,-0.0287064,0.0851135,0.100047,-0.0849715,0.58411,0.106939,0.0446504,1399,1814,6.51011,-3.10343
182,-790,6.68372,4.20605,0.0392935,-0.0336066,0.0832855,0.0937559,-0.088069,0.579129,0.104994,0.0457459,1406,1814,6.68367,-4.20603
189,-790,6.80859,5.95667,0.032667,-0.0393379,0.0774074,0.0820348,-0.0887057,0.567727,0.0986022,0.045689,1413,1814,6.80858,-5.95665
196,-790,6.59314,6.97156,0.0263154,-0.0443064,0.0690389,0.0685496,-0.0865405,0.54901,0.0897419,0.0455041,1420,1814,6.59318,-6.97155
203,-790,0,0,0,0,0,0,0,0,0,-1,1427,1814,0,0
210,-790,0,0,0,0,0,0,0,0,0,-1,1434,1814,0,0
217,-790,0,0,0,0,0,0,0,0,0,-1,1441,1814,0,0
224,-790,0,0,0,0,0,0,0,0,0,-1,1448,1814,0,0
231,-790,0,0,0,0,0,0,0,0,0,-1,1455,1814,0,0
238,-790,0,0,0,0,0,0,0,0,0,-1,1462,1814,0,0
245,-790,0,0,0,0,0,0,0,0,0,-1,1469,1814,0,0
252,-790,0,0,0,0,0,0,0,0,0,-1,1476,1814,0,0
259,-790,0,0,0,0,0,0,0,0,0,-1,1483,1814,0,0
266,-790,0,0,0,0,0,0,0,0,0,-1,1490,1814,0,0
273,-790,0,0,0,0,0,0,0,0,0,-1,1497,1814,0,0
280,-790,0,0,0,0,0,0,0,0,0,-1,1504,1814,0,0
287,-790,0,0,0,0,0,0,0,0,0,-1,1511,1814,0,0
294,-790,0,0,0,0,0,0,0,0,0,-1,1518,1814,0,0
301,-790,0,0,0,0,0,0,0,0,0,-1,1525,1814,0,0
308,-790,0,0,0,0,0,0,0,0,0,-1,1532,1814,0,0
315,-790,0,0,0,0,0,0,0,0,0,-1,1539,1814,0,0
322,-790,0,0,0,0,0,0,0,0,0,-1,1546,1814,0,0
329,-790,0,0,0,0,0,0,0,0,0,-1,1553,1814,0,0
336,-790,0,0,0,0,0,0,0,0,0,-1,1560,1814,0,0
343,-790,0,0,0,0,0,0,0,0,0,-1,1567,1814,0,0
350,-790,0,0,0,0,0,0,0,0,0,-1,1574,1814,0,0
357,-790,0,0,0,0,0,0,0,0,0,-1,1581,1814,0,0
364,-790,0,0,0,0,0,0,0,0,0,-1,1588,1814,0,0
371,-790,0,0,0,0,0,0,0,0,0,-1,1595,1814,0,0
378,-790,0,0,0,0,0,0,0,0,0,-1,1602,1814,0,0
385,-790,0,0,0,0,0,0,0,0,0,-1,1609,1814,0,0
392,-790,0,0,0,0,0,0,0,0,0,-1,1616,1814,0,0
399,-790,0,0,0,0,0,0,0,0,0,-1,1623,1814,0,0
406,-790,0,0,0,0,0,0,0,0,0,-1,1630,1814,0,0
413,-790,0,0,0,0,0,0,0,0,0,-1,1637,1814,0,0
420,-790,0,0,0,0,0,0,0,0,0,-1,1644,1814,0,0
427,-790,0,0,0,0,0,0,0,0,0,-1,1651,1814,0,0
434,-790,0,0,0,0,0,0,0,0,0,-1,1658,1814,0,0
441,-790,0,0,0,0,0,0,0,0,0,-1,1665,1814,0,0
448,-790,0,0,0,0,0,0,0,0,0,-1,1672,1814,0,0
455,-790,0,0,0,0,0,0,0,0,0,-1,1679,1814,0,0
462,-790,0,0,0,0,0,0,0,0,0,-1,1686,1814,0,0
469,-790,0,0,0,0,0,0,0,0,0,-1,1693,1814,0,0
476,-790,0,0,0,0,0,0,0,0,0,-1,1700,1814,0,0
483,-790,0,0,0,0,0,0,0,0,0,-1,1707,1814,0,0
490,-790,0,0,0,0,0,0,0,0,0,-1,1714,1814,0,0
497,-790,0,0,0,0,0,0,0,0,0,-1,1721,1814,0,0
504,-790,0,0,0,0,0,0,0,0,0,-1,1728,1814,0,0
511,-790,0,0,0,0,0,0,0,0,0,-1,1735,1814,0,0
518,-790,0,0,0,0,0,0,0,0,0,-1,1742,1814,0,0
525,-790,0,0,0,0,0,0,0,0,0,-1,1749,1814,0,0
532,-790,0,0,0,0,0,0,0,0,0,-1,1756,1814,0,0
539,-790,0,0,0,0,0,0,0,0,0,-1,1763,1814,0,0
546,-790,0,0,0,0,0,0,0,0,0,-1,1770,1814,0,0
553,-790,0,0,0,0,0,0,0,0,0,-1,1777,1814,0,0
560,-790,0,0,0,0,0,0,0,0,0,-1,1784,1814,0,0
567,-790,0,0,0,0,0,0,0,0,0,-1,1791,1814,0,0
574,-790,0,0,0,0,0,0,0,0,0,-1,1798,1814,0,0
581,-790,0,0,0,0,0,0,0,0,0,-1,1805,1814,0,0
588,-790,0,0,0,0,0,0,0,0,0,-1,1812,1814,0,0
595,-790,0,0,0,0,0,0,0,0,0,-1,1819,1814,0,0
602,-790,0,0,0,0,0,0,0,0,0,-1,1826,1814,0,0
609,-790,0,0,0,0,0,0,0,0,0,-1,1833,1814,0,0
616,-790,0,0,0,0,0,0,0,0,0,-1,1840,1814,0,0
623,-790,0,0,0,0,0,0,0,0,0,-1,1847,1814,0,0
630,-790,0,0,0,0,0,0,0,0,0,-1,1854,1814,0,0
637,-790,0,0,0,0,0,0,0,0,0,-1,1861,1814,0,0
644,-790,0,0,0,0,0,0,0,0,0,-1,1868,1814,0,0
651,-790,0,0,0,0,0,0,0,0,0,-1,1875,1814,0,0
658,-790,0,0,0,0,0,0,0,0,0,-1,1882,1814,0,0
665,-790,0,0,0,0,0,0,0,0,0,-1,1889,1814,0,0
672,-790,0,0,0,0,0,0,0,0,0,-1,1896,1814,0,0
679,-790,0,0,0,0,0,0,0,0,0,-1,1903,1814,0,0
686,-790,0,0,0,0,0,0,0,0,0,-1,1910,1814,0,0
693,-790,0,0,0,0,0,0,0,0,0,-1,1917,1814,0,0
700,-790,0,0,0,0,0,0,0,0,0,-1,1924,1814,0,0
707,-790,0,0,0,0,0,0,0,0,0,-1,1931,1814,0,0
714,-790,0,0,0,0,0,0,0,0,0,-1,1938,1814,0,0
721,-790,0,0,0,0,0,0,0,0,0,-1,1945,1814,0,0
728,-790,0,0,0,0,0,0,0,0,0,-1,1952,1814,0,0
735,-790,0,0,0,0,0,0,0,0,0,-1,1959,1814,0,0
742,-790,0,0,0,0,0,0,0,0,0,-1,1966,1814,0,0
749,-790,0,0,0,0,0,0,0,0,0,-1,1973,1814,0,0
756,-790,0,0,0,0,0,0,0,0,0,-1,1980,1814,0,0
763,-790,0,0,0,0,0,0,0,0,0,-1,1987,1814,0,0
770,-790,0,0,0,0,0,0,0,0,0,-1,1994,1814,0,0
777,-790,0,0,0,0,0,0,0,0,0,-1,2001,1814,0,0
784,-790,0,0,0,0,0,0,0,0,0,-1,2008,1814,0,0
791,-790,0,0,0,0,0,0,0,0,0,-1,2015,1814,0,0
798,-790,0,0,0,0,0,0,0,0,0,-1,2022,1814,0,0
805,-790,0,0,0,0,0,0,0,0,0,-1,2029,1814,0,0
812,-790,0,0,0,0,0,0,0,0,0,-1,2036,1814,0,0
-700,-797,0,0,0,0,0,0,0,0,0,-1,524,1821,0,0
-693,-797,0,0,0,0,0,0,0,0,0,-1,531,1821,0,0
-686,-797,0,0,0,0,0,0,0,0,0,-1,538,1821,0,0
-679,-797,0,0,0,0,0,0,0,0,0,-1,545,1821,0,0
-672,-797,0,0,0,0,0,0,0,0,0,-1,552,1821,0,0
-665,-797,0,0,0,0,0,0,0,0,0,-1,559,1821,0,0
-658,-797,0,0,0,0,0,0,0,0,0,-1,566,1821,0,0
-651,-797,0,0,0,0,0,0,0,0,0,-1,573,1821,0,0
-644,-797,0,0,0,0,0,0,0,0,0,-1,580,1821,0,0
-637,-797,0,0,0,0,0,0,0,0,0,-1,587,1821,0,0
-630,-797,0,0,0,0,0,0,0,0,0,-1,594,1821,0,0
-623,-797,0,0,0,0,0,0,0,0,0,-1,601,1821,0,0
-616,-797,0,0,0,0,0,0,0,0,0,-1,608,1821,0,0
-609,-797,0,0,0,0,0,0,0,0,0,-1,615,1821,0,0
-602,-797,0,0,0,0,0,0,0,0,0,-1,622,1821,0,0
-595,-797,0,0,0,0,0,0,0,0,0,-1,629,1821,0,0
-588,-797,0,0,0,0,0,0,0,0,0,-1,636,1821,0,0
-581,-797,0,0,0,0,0,0,0,0,0,-1,643,1821,0,0
-574,-797,0,0,0,0,0,0,0,0,0,-1,650,1821,0,0
-567,-797,0,0,0,0,0,0,0,0,0,-1,657,1821,0,0
-560,-797,0,0,0,0,0,0,0,0,0,-1,664,1821,0,0
-553,-797,0,0,0,0,0,0,0,0,0,-1,671,1821,0,0
-546,-797,0,0,0,0,0,0,0,0,0,-1,678,1821,0,0
-539,-797,0,0,0,0,0,0,0,0,0,-1,685,1821,0,0
-532,-797,0,0,0,0,0,0,0,0,0,-1,692,1821,0,0
-525,-797,0,0,0,0,0,0,0,0,0,-1,699,1821,0,0
-518,-797,0,0,0,0,0,0,0,0,0,-1,706,1821,0,0
-511,-797,0,0,0,0,0,0,0,0,0,-1,713,1821,0,0
-504,-797,0,0,0,0,0,0,0,0,0,-1,720,1821,0,0
-497,-797,0,0,0,0,0,0,0,0,0,-1,727,1821,0,0
-490,-797,0,0,0,0,0,0,0,0,0,-1,734,1821,0,0
-483,-797,0,0,0,0,0,0,0,0,0,-1,741,1821,0,0
-476,-797,0,0,0,0,0,0,0,0,0,-1,748,1821,0,0
-469,-797,0,0,0,0,0,0,0,0,0,-1,755,1821,0,0
-462,-797,0,0,0,0,0,0,0,0,0,-1,762,1821,0,0
-455,-797,0,0,0,0,0,0,0,0,0,-1,769,1821,0,0
-448,-797,0,0,0,0,0,0,0,0,0,-1,776,1821,0,0
-441,-797,0,0,0,0,0,0,0,0,0,-1,783,1821,0,0
-434,-797,0,0,0,0,0,0,0,0,0,-1,790,1821,0,0
-427,-797,0,0,0,0,0,0,0,0,0,-1,797,1821,0,0
-420,-797,0,0,0,0,0,0,0,0,0,-1,804,1821,0,0
-413,-797,0,0,0,0,0,0,0,0,0,-1,811,1821,0,0
-406,-797,0,0,0,0,0,0,0,0,0,-1,818,1821,0,0
-399,-797,0,0,0,0,0,0,0,0,0,-1,825,1821,0,0
-392,-797,0,0,0,0,0,0,0,0,0,-1,832,1821,0,0
-385,-797,0,0,0,0,0,0,0,0,0,-1,839,1821,0,0
-378,-797,0,0,0,0,0,0,0,0,0,-1,846,1821,0,0
-371,-797,0,0,0,0,0,0,0,0,0,-1,853,1821,0,0
-364,-797,0,0,0,0,0,0,0,0,0,-1,860,1821,0,0
-357,-797,0,0,0,0,0,0,0,0,0,-1,867,1821,0,0
-350,-797,0,0,0,0,0,0,0,0,0,-1,874,1821,0,0
-343,-797,0,0,0,0,0,0,0,0,0,-1,881,1821,0,0
-336,-797,0,0,0,0,0,0,0,0,0,-1,888,1821,0,0
-329,-797,0,0,0,0,0,0,0,0,0,-1,895,1821,0,0
-322,-797,0,0,0,0,0,0,0,0,0,-1,902,1821,0,0
-315,-797,0,0,0,0,0,0,0,0,0,-1,909,1821,0,0
-308,-797,0,0,0,0,0,0,0,0,0,-1,916,1821,0,0
-301,-797,0,0,0,0,0,0,0,0,0,-1,923,1821,0,0
-294,-797,0,0,0,0,0,0,0,0,0,-1,930,1821,0,0
-287,-797,0,0,0,0,0,0,0,0,0,-1,937,1821,0,0
-280,-797,0,0,0,0,0,0,0,0,0,-1,944,1821,0,0
-273,-797,0,0,0,0,0,0,0,0,0,-1,951,1821,0,0
-266,-797,0,0,0,0,0,0,0,0,0,-1,958,1821,0,0
-259,-797,0,0,0,0,0,0,0,0,0,-1,965,1821,0,0
-252,-797,0,0,0,0,0,0,0,0,0,-1,972,1821,0,0
-245,-797,0,0,0,0,0,0,0,0,0,-1,979,1821,0,0
-238,-797,0,0,0,0,0,0,0,0,0,-1,986,1821,0,0
-231,-797,0,0,0,0,0,0,0,0,0,-1,993,1821,0,0
-224,-797,0,0,0,0,0,0,0,0,0,-1,1000,1821,0,0
-217,-797,0,0,0,0,0,0,0,0,0,-1,1007,1821,0,0
-210,-797,0,0,0,0,0,0,0,0,0,-1,1014,1821,0,0
-203,-797,0,0,0,0,0,0,0,0,0,-1,1021,1821,0,0
-196,-797,0,0,0,0,0,0,0,0,0,-1,1028,1821,0,0
-189,-797,0,0,0,0,0,0,0,0,0,-1,1035,1821,0,0
-182,-797,0,0,0,0,0,0,0,0,0,-1,1042,1821,0,0
-175,-797,0,0,0,0,0,0,0,0,0,-1,1049,1821,0,0
-168,-797,0,0,0,0,0,0,0,0,0,-1,1056,1821,0,0
-161,-797,0,0,0,0,0,0,0,0,0,-1,1063,1821,0,0
-154,-797,0,0,0,0,0,0,0,0,0,-1,1070,1821,0,0
-147,-797,0,0,0,0,0,0,0,0,0,-1,1077,1821,0,0
-140,-797,0,0,0,0,0,0,0,0,0,-1,1084,1821,0,0
-133,-797,0,0,0,0,0,0,0,0,0,-1,1091,1821,0,0
-126,-797,0,0,0,0,0,0,0,0,0,-1,1098,1821,0,0
-119,-797,0,0,0,0,0,0,0,0,0,-1,1105,1821,0,0
-112,-797,0,0,0,0,0,0,0,0,0,-1,1112,1821,0,0
-105,-797,0,0,0,0,0,0,0,0,0,-1,1119,1821,0,0
-98,-797,0,0,0,0,0,0,0,0,0,-1,1126,1821,0,0
-91,-797,0,0,0,0,0,0,0,0,0,-1,1133,1821,0,0
-84,-797,0,0,0,0,0,0,0,0,0,-1,1140,1821,0,0
-77,-797,0,0,0,0,0,0,0,0,0,-1,1147,1821,0,0
-70,-797,0,0,0,0,0,0,0,0,0,-1,1154,1821,0,0
-63,-797,0,0,0,0,0,0,0,0,0,-1,1161,1821,0,0
-56,-797,0,0,0,0,0,0,0,0,0,-1,1168,1821,0,0
-49,-797,0,0,0,0,0,0,0,0,0,-1,1175,1821,0,0
-42,-797,0.579834,0.692871,0,0,0,0,0,0,0,-1,1182,1821,0.579856,-0.692816
-35,-797,-0.185425,5.55396,0,0,0,0,0,0,0,-1,1189,1821,-0.18542,-5.55396
-28,-797,-0.310181,4.71509,0,0,0,0,0,0,0,-1,1196,1821,-0.310228,-4.71503
-21,-797,3.35156,6.11902,0,0,0,0,0,0,0,-1,1203,1821,3.35151,-6.11899
-14,-797,2.68115,5.75244,0,0,0,0,0,0,0,-1,1210,1821,2.68114,-5.75243
-7,-797,1.96399,5.33179,0,0,0,0,0,0,0,-1,1217,1821,1.96395,-5.33176
0,-797,1.45337,5.07861,0,0,0,0,0,0,0,-1,1224,1821,1.4534,-5.07867
7,-797,0.849976,4.63013,-0.0432428,0.111327,0.0220166,0.114402,-0.0463176,1.43203,0.0955263,0.0467575,1231,1821,0.849967,-4.63007
14,-797,0.183105,4.15112,-0.0311083,0.101606,0.0185569,0.104152,-0.0336542,1.43445,0.0829603,0.0409476,1238,1821,0.183082,-4.15115
21,-797,1.99829,4.40979,0,0,0,0,0,0,0,-1,1245,1821,1.99826,-4.4098
28,-797,0.8573,3.78101,-0.00939914,0.079912,0.0130307,0.0817744,-0.0112615,1.42884,0.0586317,0.0397991,1252,1821,0.857285,-3.78101
35,-797,0.336304,3.0658,-0.00135449,0.0670324,0.0119573,0.0690629,-0.00338493,1.40259,0.0472107,0.048887,1259,1821,0.33626,-3.06578
42,-797,-0.343384,2.43311,0,0,0,0,0,0,0,-1,1266,1821,-0.343389,-2.43315
49,-797,2.93518,5.61951,0,0,0,0,0,0,0,-1,1273,1821,2.93514,-5.61957
56,-797,4.02039,6.43896,0,0,0,0,0,0,0,-1,1280,1821,4.02039,-6.43895
63,-797,2.1145,3.68079,0.0198582,0.0265664,0.00611555,0.0301873,0.0162374,1.03623,0.0174453,0.0401391,1287,1821,2.11445,-3.68078
70,-797,2.51599,3.6145,0.0203601,0.015606,0.00449537,0.0230682,0.0128979,0.542197,0.0133494,0.0392546,1294,1821,2.51593,-3.61449
77,-797,2.77808,4.25159,0.0199131,0.00769877,0.0068253,0.0229646,0.00464721,0.420436,0.0140198,0.0417058,1301,1821,2.77805,-4.25163
84,-797,2.66089,4.82983,0.0192805,-0.00125758,0.00927333,0.0228479,-0.00482501,0.367246,0.0170691,0.0438801,1308,1821,2.66094,-4.82989
91,-797,3.86206,5.13159,0,0,0,0,0,0,0,-1,1315,1821,3.86209,-5.13158
98,-797,3.88281,5.17017,0,0,0,0,0,0,0,-1,1322,1821,3.8828,-5.17011
105,-797,3.90344,5.20862,0,0,0,0,0,0,0,-1,1329,1821,3.9035,-5.20864
112,-797,-1.74316,4.38135,0,0,0,0,0,0,0,-1,1336,1821,-1.74311,-4.3813
119,-797,1.91418,5.71802,0,0,0,0,0,0,0,-1,1343,1821,1.91416,-5.71804
126,-797,2.09033,6.24622,0,0,0,0,0,0,0,-1,1350,1821,2.09038,-6.24624
133,-797,2.26611,6.74329,0,0,0,0,0,0,0,-1,1357,1821,2.26611,-6.74331
140,-797,2.4458,7.24866,0,0,0,0,0,0,0,-1,1364,1821,2.44577,-7.2486
147,-797,4.01025,2.44775,0,0,0,0,0,0,0,-1,1371,1821,4.01026,-2.44771
154,-797,5.67102,-0.195313,0,0,0,0,0,0,0,-1,1378,1821,5.67104,0.195347
161,-797,6.09656,0.963623,0,0,0,0,0,0,0,-1,1385,1821,6.09657,-0.963594
168,-797,0,0,0,0,0,0,0,0,0,-1,1392,1821,0,0
175,-797,0,0,0,0,0,0,0,0,0,-1,1399,1821,0,0
182,-797,0,0,0,0,0,0,0,0,0,-1,1406,1821,0,0
189,-797,0,0,0,0,0,0,0,0,0,-1,1413,1821,0,0
196,-797,0,0,0,0,0,0,0,0,0,-1,1420,1821,0,0
203,-797,0,0,0,0,0,0,0,0,0,-1,1427,1821,0,0
210,-797,0,0,0,0,0,0,0,0,0,-1,1434,1821,0,0
217,-797,0,0,0,0,0,0,0,0,0,-1,1441,1821,0,0
224,-797,0,0,0,0,0,0,0,0,0,-1,1448,1821,0,0
231,-797,0,0,0,0,0,0,0,0,0,-1,1455,1821,0,0
238,-797,0,0,0,0,0,0,0,0,0,-1,1462,1821,0,0
245,-797,0,0,0,0,0,0,0,0,0,-1,1469,1821,0,0
252,-797,0,0,0,0,0,0,0,0,0,-1,1476,1821,0,0
259,-797,0,0,0,0,0,0,0,0,0,-1,1483,1821,0,0
266,-797,0,0,0,0,0,0,0,0,0,-1,1490,1821,0,0
273,-797,0,0,0,0,0,0,0,0,0,-1,1497,1821,0,0
280,-797,0,0,0,0,0,0,0,0,0,-1,1504,1821,0,0
287,-797,0,0,0,0,0,0,0,0,0,-1,1511,1821,0,0
294,-797,0,0,0,0,0,0,0,0,0,-1,1518,1821,0,0
301,-797,0,0,0,0,0,0,0,0,0,-1,1525,1821,0,0
308,-797,0,0,0,0,0,0,0,0,0,-1,1532,1821,0,0
315,-797,0,0,0,0,0,0,0,0,0,-1,1539,1821,0,0
322,-797,0,0,0,0,0,0,0,0,0,-1,1546,1821,0,0
329,-797,0,0,0,0,0,0,0,0,0,-1,1553,1821,0,0
336,-797,0,0,0,0,0,0,0,0,0,-1,1560,1821,0,0
343,-797,0,0,0,0,0,0,0,0,0,-1,1567,1821,0,0
350,-797,0,0,0,0,0,0,0,0,0,-1,1574,1821,0,0
357,-797,0,0,0,0,0,0,0,0,0,-1,1581,1821,0,0
364,-797,0,0,0,0,0,0,0,0,0,-1,1588,1821,0,0
371,-797,0,0,0,0,0,0,0,0,0,-1,1595,1821,0,0
378,-797,0,0,0,0,0,0,0,0,0,-1,1602,1821,0,0
385,-797,0,0,0,0,0,0,0,0,0,-1,1609,1821,0,0
392,-797,0,0,0,0,0,0,0,0,0,-1,1616,1821,0,0
399,-797,0,0,0,0,0,0,0,0,0,-1,1623,1821,0,0
406,-797,0,0,0,0,0,0,0,0,0,-1,1630,1821,0,0
413,-797,0,0,0,0,0,0,0,0,0,-1,1637,1821,0,0
420,-797,0,0,0,0,0,0,0,0,0,-1,1644,1821,0,0
427,-797,0,0,0,0,0,0,0,0,0,-1,1651,1821,0,0
434,-797,0,0,0,0,0,0,0,0,0,-1,1658,1821,0,0
441,-797,0,0,0,0,0,0,0,0,0,-1,1665,1821,0,0
448,-797,0,0,0,0,0,0,0,0,0,-1,1672,1821,0,0
455,-797,0,0,0,0,0,0,0,0,0,-1,1679,1821,0,0
462,-797,0,0,0,0,0,0,0,0,0,-1,1686,1821,0,0
469,-797,0,0,0,0,0,0,0,0,0,-1,1693,1821,0,0
476,-797,0,0,0,0,0,0,0,0,0,-1,1700,1821,0,0
483,-797,0,0,0,0,0,0,0,0,0,-1,1707,1821,0,0
490,-797,0,0,0,0,0,0,0,0,0,-1,1714,1821,0,0
497,-797,0,0,0,0,0,0,0,0,0,-1,1721,1821,0,0
504,-797,0,0,0,0,0,0,0,0,0,-1,1728,1821,0,0
511,-797,0,0,0,0,0,0,0,0,0,-1,1735,1821,0,0
518,-797,0,0,0,0,0,0,0,0,0,-1,1742,1821,0,0
525,-797,0,0,0,0,0,0,0,0,0,-1,1749,1821,0,0
532,-797,0,0,0,0,0,0,0,0,0,-1,1756,1821,0,0
539,-797,0,0,0,0,0,0,0,0,0,-1,1763,1821,0,0
546,-797,0,0,0,0,0,0,0,0,0,-1,1770,1821,0,0
553,-797,0,0,0,0,0,0,0,0,0,-1,1777,1821,0,0
560,-797,0,0,0,0,0,0,0,0,0,-1,1784,1821,0,0
567,-797,0,0,0,0,0,0,0,0,0,-1,1791,1821,0,0
574,-797,0,0,0,0,0,0,0,0,0,-1,1798,1821,0,0
581,-797,0,0,0,0,0,0,0,0,0,-1,1805,1821,0,0
588,-797,0,0,0,0,0,0,0,0,0,-1,1812,1821,0,0
595,-797,0,0,0,0,0,0,0,0,0,-1,1819,1821,0,0
602,-797,0,0,0,0,0,0,0,0,0,-1,1826,1821,0,0
609,-797,0,0,0,0,0,0,0,0,0,-1,1833,1821,0,0
616,-797,0,0,0,0,0,0,0,0,0,-1,1840,1821,0,0
623,-797,0,0,0,0,0,0,0,0,0,-1,1847,1821,0,0
630,-797,0,0,0,0,0,0,0,0,0,-1,1854,1821,0,0
637,-797,0,0,0,0,0,0,0,0,0,-1,1861,1821,0,0
644,-797,0,0,0,0,0,0,0,0,0,-1,1868,1821,0,0
651,-797,0,0,0,0,0,0,0,0,0,-1,1875,1821,0,0
658,-797,0,0,0,0,0,0,0,0,0,-1,1882,1821,0,0
665,-797,0,0,0,0,0,0,0,0,0,-1,1889,1821,0,0
672,-797,0,0,0,0,0,0,0,0,0,-1,1896,1821,0,0
679,-797,0,0,0,0,0,0,0,0,0,-1,1903,1821,0,0
686,-797,0,0,0,0,0,0,0,0,0,-1,1910,1821,0,0
693,-797,0,0,0,0,0,0,0,0,0,-1,1917,1821,0,0
700,-797,0,0,0,0,0,0,0,0,0,-1,1924,1821,0,0
707,-797,0,0,0,0,0,0,0,0,0,-1,1931,1821,0,0
714,-797,0,0,0,0,0,0,0,0,0,-1,1938,1821,0,0
721,-797,0,0,0,0,0,0,0,0,0,-1,1945,1821,0,0
728,-797,0,0,0,0,0,0,0,0,0,-1,1952,1821,0,0
735,-797,0,0,0,0,0,0,0,0,0,-1,1959,1821,0,0
742,-797,0,0,0,0,0,0,0,0,0,-1,1966,1821,0,0
749,-797,0,0,0,0,0,0,0,0,0,-1,1973,1821,0,0
756,-797,0,0,0,0,0,0,0,0,0,-1,1980,1821,0,0
763,-797,0,0,0,0,0,0,0,0,0,-1,1987,1821,0,0
770,-797,0,0,0,0,0,0,0,0,0,-1,1994,1821,0,0
777,-797,0,0,0,0,0,0,0,0,0,-1,2001,1821,0,0
784,-797,0,0,0,0,0,0,0,0,0,-1,2008,1821,0,0
791,-797,0,0,0,0,0,0,0,0,0,-1,2015,1821,0,0
798,-797,0,0,0,0,0,0,0,0,0,-1,2022,1821,0,0
805,-797,0,0,0,0,0,0,0,0,0,-1,2029,1821,0,0
812,-797,0,0,0,0,0,0,0,0,0,-1,2036,1821,0,0
-700,-804,0,0,0,0,0,0,0,0,0,-1,524,1828,0,0
-693,-804,0,0,0,0,0,0,0,0,0,-1,531,1828,0,0
-686,-804,0,0,0,0,0,0,0,0,0,-1,538,1828,0,0
-679,-804,0,0,0,0,0,0,0,0,0,-1,545,1828,0,0
-672,-804,0,0,0,0,0,0,0,0,0,-1,552,1828,0,0
-665,-804,0,0,0,0,0,0,0,0,0,-1,559,1828,0,0
-658,-804,0,0,0,0,0,0,0,0,0,-1,566,1828,0,0
-651,-804,0,0,0,0,0,0,0,0,0,-1,573,1828,0,0
-644,-804,0,0,0,0,0,0,0,0,0,-1,580,1828,0,0
-637,-804,0,0,0,0,0,0,0,0,0,-1,587,1828,0,0
-630,-804,0,0,0,0,0,0,0,0,0,-1,594,1828,0,0
-623,-804,0,0,0,0,0,0,0,0,0,-1,601,1828,0,0
-616,-804,0,0,0,0,0,0,0,0,0,-1,608,1828,0,0
-609,-804,0,0,0,0,0,0,0,0,0,-1,615,1828,0,0
-602,-804,0,0,0,0,0,0,0,0,0,-1,622,1828,0,0
-595,-804,0,0,0,0,0,0,0,0,0,-1,629,1828,0,0
-588,-804,0,0,0,0,0,0,0,0,0,-1,636,1828,0,0
-581,-804,0,0,0,0,0,0,0,0,0,-1,643,1828,0,0
-574,-804,0,0,0,0,0,0,0,0,0,-1,650,1828,0,0
-567,-804,0,0,0,0,0,0,0,0,0,-1,657,1828,0,0
-560,-804,0,0,0,0,0,0,0,0,0,-1,664,1828,0,0
-553,-804,0,0,0,0,0,0,0,0,0,-1,671,1828,0,0
-546,-804,0,0,0,0,0,0,0,0,0,-1,678,1828,0,0
-539,-804,0,0,0,0,0,0,0,0,0,-1,685,1828,0,0
-532,-804,0,0,0,0,0,0,0,0,0,-1,692,1828,0,0
-525,-804,0,0,0,0,0,0,0,0,0,-1,699,1828,0,0
-518,-804,0,0,0,0,0,0,0,0,0,-1,706,1828,0,0
-511,-804,0,0,0,0,0,0,0,0,0,-1,713,1828,0,0
-504,-804,0,0,0,0,0,0,0,0,0,-1,720,1828,0,0
-497,-804,0,0,0,0,0,0,0,0,0,-1,727,1828,0,0
-490,-804,0,0,0,0,0,0,0,0,0,-1,734,1828,0,0
-483,-804,0,0,0,0,0,0,0,0,0,-1,741,1828,0,0
-476,-804,0,0,0,0,0,0,0,0,0,-1,748,1828,0,0
-469,-804,0,0,0,0,0,0,0,0,0,-1,755,1828,0,0
-462,-804,0,0,0,0,0,0,0,0,0,-1,762,1828,0,0
-455,-804,0,0,0,0,0,0,0,0,0,-1,769,1828,0,0
-448,-804,0,0,0,0,0,0,0,0,0,-1,776,1828,0,0
-441,-804,0,0,0,0,0,0,0,0,0,-1,783,1828,0,0
-434,-804,0,0,0,0,0,0,0,0,0,-1,790,1828,0,0
-427,-804,0,0,0,0,0,0,0,0,0,-1,797,1828,0,0
-420,-804,0,0,0,0,0,0,0,0,0,-1,804,1828,0,0
-413,-804,0,0,0,0,0,0,0,0,0,-1,811,1828,0,0
-406,-804,0,0,0,0,0,0,0,0,0,-1,818,1828,0,0
-399,-804,0,0,0,0,0,0,0,0,0,-1,825,1828,0,0
-392,-804,0,0,0,0,0,0,0,0,0,-1,832,1828,0,0
-385,-804,0,0,0,0,0,0,0,0,0,-1,839,1828,0,0
-378,-804,0,0,0,0,0,0,0,0,0,-1,846,1828,0,0
-371,-804,0,0,0,0,0,0,0,0,0,-1,853,1828,0,0
-364,-804,0,0,0,0,0,0,0,0,0,-1,860,1828,0,0
-357,-804,0,0,0,0,0,0,0,0,0,-1,867,1828,0,0
-350,-804,0,0,0,0,0,0,0,0,0,-1,874,1828,0,0
-343,-804,0,0,0,0,0,0,0,0,0,-1,881,1828,0,0
-336,-804,0,0,0,0,0,0,0,0,0,-1,888,1828,0,0
-329,-804,0,0,0,0,0,0,0,0,0,-1,895,1828,0,0
-322,-804,0,0,0,0,0,0,0,0,0,-1,902,1828,0,0
-315,-804,0,0,0,0,0,0,0,0,0,-1,909,1828,0,0
-308,-804,0,0,0,0,0,0,0,0,0,-1,916,1828,0,0
-301,-804,0,0,0,0,0,0,0,0,0,-1,923,1828,0,0
-294,-804,0,0,0,0,0,0,0,0,0,-1,930,1828,0,0
-287,-804,0,0,0,0,0,0,0,0,0,-1,937,1828,0,0
-280,-804,0,0,0,0,0,0,0,0,0,-1,944,1828,0,0
-273,-804,0,0,0,0,0,0,0,0,0,-1,951,1828,0,0
-266,-804,0,0,0,0,0,0,0,0,0,-1,958,1828,0,0
-259,-804,0,0,0,0,0,0,0,0,0,-1,965,1828,0,0
-252,-804,0,0,0,0,0,0,0,0,0,-1,972,1828,0,0
-245,-804,0,0,0,0,0,0,0,0,0,-1,979,1828,0,0
-238,-804,0,0,0,0,0,0,0,0,0,-1,986,1828,0,0
-231,-804,0,0,0,0,0,0,0,0,0,-1,993,1828,0,0
-224,-804,0,0,0,0,0,0,0,0,0,-1,1000,1828,0,0
-217,-804,0,0,0,0,0,0,0,0,0,-1,1007,1828,0,0
-210,-804,0,0,0,0,0,0,0,0,0,-1,1014,1828,0,0
-203,-804,0,0,0,0,0,0,0,0,0,-1,1021,1828,0,0
-196,-804,0,0,0,0,0,0,0,0,0,-1,1028,1828,0,0
-189,-804,0,0,0,0,0,0,0,0,0,-1,1035,1828,0,0
-182,-804,0,0,0,0,0,0,0,0,0,-1,1042,1828,0,0
-175,-804,0,0,0,0,0,0,0,0,0,-1,1049,1828,0,0
-168,-804,0,0,0,0,0,0,0,0,0,-1,1056,1828,0,0
-161,-804,0,0,0,0,0,0,0,0,0,-1,1063,1828,0,0
-154,-804,0,0,0,0,0,0,0,0,0,-1,1070,1828,0,0
-147,-804,0,0,0,0,0,0,0,0,0,-1,1077,1828,0,0
-140,-804,0,0,0,0,0,0,0,0,0,-1,1084,1828,0,0
-133,-804,0,0,0,0,0,0,0,0,0,-1,1091,1828,0,0
-126,-804,0,0,0,0,0,0,0,0,0,-1,1098,1828,0,0
-119,-804,0,0,0,0,0,0,0,0,0,-1,1105,1828,0,0
-112,-804,0,0,0,0,0,0,0,0,0,-1,1112,1828,0,0
-105,-804,0,0,0,0,0,0,0,0,0,-1,1119,1828,0,0
-98,-804,0,0,0,0,0,0,0,0,0,-1,1126,1828,0,0
-91,-804,0,0,0,0,0,0,0,0,0,-1,1133,1828,0,0
-84,-804,0,0,0,0,0,0,0,0,0,-1,1140,1828,0,0
-77,-804,0,0,0,0,0,0,0,0,0,-1,1147,1828,0,0
-70,-804,0,0,0,0,0,0,0,0,0,-1,1154,1828,0,0
-63,-804,0,0,0,0,0,0,0,0,0,-1,1161,1828,0,0
-56,-804,0,0,0,0,0,0,0,0,0,-1,1168,1828,0,0
-49,-804,0,0,0,0,0,0,0,0,0,-1,1175,1828,0,0
-42,-804,0,0,0,0,0,0,0,0,0,-1,1182,1828,0,0
-35,-804,0,0,0,0,0,0,0,0,0,-1,1189,1828,0,0
-28,-804,0,0,0,0,0,0,0,0,0,-1,1196,1828,0,0
-21,-804,0,0,0,0,0,0,0,0,0,-1,1203,1828,0,0
-14,-804,0,0,0,0,0,0,0,0,0,-1,1210,1828,0,0
-7,-804,0,0,0,0,0,0,0,0,0,-1,1217,1828,0,0
0,-804,0,0,0,0,0,0,0,0,0,-1,1224,1828,0,0
7,-804,0,0,0,0,0,0,0,0,0,-1,1231,1828,0,0
14,-804,0,0,0,0,0,0,0,0,0,-1,1238,1828,0,0
21,-804,0,0,0,0,0,0,0,0,0,-1,1245,1828,0,0
28,-804,0,0,0,0,0,0,0,0,0,-1,1252,1828,0,0
35,-804,0.0872803,2.69092,0,0,0,0,0,0,0,-1,1259,1828,0.0872558,-2.69089
42,-804,3.77002,5.15393,0,0,0,0,0,0,0,-1,1266,1828,3.77005,-5.15398
49,-804,1.97815,3.90137,0,0,0,0,0,0,0,-1,1273,1828,1.97809,-3.90134
56,-804,2.2489,3.61145,0,0,0,0,0,0,0,-1,1280,1828,2.2489,-3.61151
63,-804,2.35901,3.42542,0.0251352,0.0314527,0.0139767,0.0426232,0.0139647,0.896533,0.0250912,0.0466958,1287,1828,2.35897,-3.42544
70,-804,2.74023,3.43958,0.0260303,0.0167203,0.0114458,0.0337314,0.00901916,0.592265,0.0201652,0.0456412,1294,1828,2.74025,-3.43954
77,-804,2.88074,4.33948,0.0249968,0.00614332,0.0140282,0.0324714,-0.00133124,0.48956,0.0221047,0.0445383,1301,1828,2.88074,-4.33945
84,-804,2.71436,5.45386,0.0236963,-0.00575423,0.0167233,0.0312533,-0.0133113,0.424424,0.0264154,0.0430978,1308,1828,2.71436,-5.45382
91,-804,0,0,0,0,0,0,0,0,0,-1,1315,1828,0,0
98,-804,0,0,0,0,0,0,0,0,0,-1,1322,1828,0,0
105,-804,0,0,0,0,0,0,0,0,0,-1,1329,1828,0,0
112,-804,0,0,0,0,0,0,0,0,0,-1,1336,1828,0,0
119,-804,0,0,0,0,0,0,0,0,0,-1,1343,1828,0,0
126,-804,0,0,0,0,0,0,0,0,0,-1,1350,1828,0,0
133,-804,0,0,0,0,0,0,0,0,0,-1,1357,1828,0,0
140,-804,0,0,0,0,0,0,0,0,0,-1,1364,1828,0,0
147,-804,0,0,0,0,0,0,0,0,0,-1,1371,1828,0,0
154,-804,0,0,0,0,0,0,0,0,0,-1,1378,1828,0,0
161,-804,0,0,0,0,0,0,0,0,0,-1,1385,1828,0,0
168,-804,0,0,0,0,0,0,0,0,0,-1,1392,1828,0,0
175,-804,0,0,0,0,0,0,0,0,0,-1,1399,1828,0,0
182,-804,0,0,0,0,0,0,0,0,0,-1,1406,1828,0,0
189,-804,0,0,0,0,0,0,0,0,0,-1,1413,1828,0,0
196,-804,0,0,0,0,0,0,0,0,0,-1,1420,1828,0,0
203,-804,0,0,0,0,0,0,0,0,0,-1,1427,1828,0,0
210,-804,0,0,0,0,0,0,0,0,0,-1,1434,1828,0,0
217,-804,0,0,0,0,0,0,0,0,0,-1,1441,1828,0,0
224,-804,0,0,0,0,0,0,0,0,0,-1,1448,1828,0,0
231,-804,0,0,0,0,0,0,0,0,0,-1,1455,1828,0,0
238,-804,0,0,0,0,0,0,0,0,0,-1,1462,1828,0,0
245,-804,0,0,0,0,0,0,0,0,0,-1,1469,1828,0,0
252,-804,0,0,0,0,0,0,0,0,0,-1,1476,1828,0,0
259,-804,0,0,0,0,0,0,0,0,0,-1,1483,1828,0,0
266,-804,0,0,0,0,0,0,0,0,0,-1,1490,1828,0,0
273,-804,0,0,0,0,0,0,0,0,0,-1,1497,1828,0,0
280,-804,0,0,0,0,0,0,0,0,0,-1,1504,1828,0,0
287,-804,0,0,0,0,0,0,0,0,0,-1,1511,1828,0,0
294,-804,0,0,0,0,0,0,0,0,0,-1,1518,1828,0,0
301,-804,0,0,0,0,0,0,0,0,0,-1,1525,1828,0,0
308,-804,0,0,0,0,0,0,0,0,0,-1,1532,1828,0,0
315,-804,0,0,0,0,0,0,0,0,0,-1,1539,1828,0,0
322,-804,0,0,0,0,0,0,0,0,0,-1,1546,1828,0,0
329,-804,0,0,0,0,0,0,0,0,0,-1,1553,1828,0,0
336,-804,0,0,0,0,0,0,0,0,0,-1,1560,1828,0,0
343,-804,0,0,0,0,0,0,0,0,0,-1,1567,1828,0,0
350,-804,0,0,0,0,0,0,0,0,0,-1,1574,1828,0,0
357,-804,0,0,0,0,0,0,0,0,0,-1,1581,1828,0,0
364,-804,0,0,0,0,0,0,0,0,0,-1,1588,1828,0,0
371,-804,0,0,0,0,0,0,0,0,0,-1,1595,1828,0,0
378,-804,0,0,0,0,0,0,0,0,0,-1,1602,1828,0,0
385,-804,0,0,0,0,0,0,0,0,0,-1,1609,1828,0,0
392,-804,0,0,0,0,0,0,0,0,0,-1,1616,1828,0,0
399,-804,0,0,0,0,0,0,0,0,0,-1,1623,1828,0,0
406,-804,0,0,0,0,0,0,0,0,0,-1,1630,1828,0,0
413,-804,0,0,0,0,0,0,0,0,0,-1,1637,1828,0,0
420,-804,0,0,0,0,0,0,0,0,0,-1,1644,1828,0,0
427,-804,0,0,0,0,0,0,0,0,0,-1,1651,1828,0,0
434,-804,0,0,0,0,0,0,0,0,0,-1,1658,1828,0,0
441,-804,0,0,0,0,0,0,0,0,0,-1,1665,1828,0,0
448,-804,0,0,0,0,0,0,0,0,0,-1,1672,1828,0,0
455,-804,0,0,0,0,0,0,0,0,0,-1,1679,1828,0,0
462,-804,0,0,0,0,0,0,0,0,0,-1,1686,1828,0,0
469,-804,0,0,0,0,0,0,0,0,0,-1,1693,1828,0,0
476,-804,0,0,0,0,0,0,0,0,0,-1,1700,1828,0,0
483,-804,0,0,0,0,0,0,0,0,0,-1,1707,1828,0,0
490,-804,0,0,0,0,0,0,0,0,0,-1,1714,1828,0,0
497,-804,0,0,0,0,0,0,0,0,0,-1,1721,1828,0,0
504,-804,0,0,0,0,0,0,0,0,0,-1,1728,1828,0,0
511,-804,0,0,0,0,0,0,0,0,0,-1,1735,1828,0,0
518,-804,0,0,0,0,0,0,0,0,0,-1,1742,1828,0,0
525,-804,0,0,0,0,0,0,0,0,0,-1,1749,1828,0,0
532,-804,0,0,0,0,0,0,0,0,0,-1,1756,1828,0,0
539,-804,0,0,0,0,0,0,0,0,0,-1,1763,1828,0,0
546,-804,0,0,0,0,0,0,0,0,0,-1,1770,1828,0,0
553,-804,0,0,0,0,0,0,0,0,0,-1,1777,1828,0,0
560,-804,0,0,0,0,0,0,0,0,0,-1,1784,1828,0,0
567,-804,0,0,0,0,0,0,0,0,0,-1,1791,1828,0,0
574,-804,0,0,0,0,0,0,0,0,0,-1,1798,1828,0,0
581,-804,0,0,0,0,0,0,0,0,0,-1,1805,1828,0,0
588,-804,0,0,0,0,0,0,0,0,0,-1,1812,1828,0,0
595,-804,0,0,0,0,0,0,0,0,0,-1,1819,1828,0,0
602,-804,0,0,0,0,0,0,0,0,0,-1,1826,1828,0,0
609,-804,0,0,0,0,0,0,0,0,0,-1,1833,1828,0,0
616,-804,0,0,0,0,0,0,0,0,0,-1,1840,1828,0,0
623,-804,0,0,0,0,0,0,0,0,0,-1,1847,1828,0,0
630,-804,0,0,0,0,0,0,0,0,0,-1,1854,1828,0,0
637,-804,0,0,0,0,0,0,0,0,0,-1,1861,1828,0,0
644,-804,0,0,0,0,0,0,0,0,0,-1,1868,1828,0,0
651,-804,0,0,0,0,0,0,0,0,0,-1,1875,1828,0,0
658,-804,0,0,0,0,0,0,0,0,0,-1,1882,1828,0,0
665,-804,0,0,0,0,0,0,0,0,0,-1,1889,1828,0,0
672,-804,0,0,0,0,0,0,0,0,0,-1,1896,1828,0,0
679,-804,0,0,0,0,0,0,0,0,0,-1,1903,1828,0,0
686,-804,0,0,0,0,0,0,0,0,0,-1,1910,1828,0,0
693,-804,0,0,0,0,0,0,0,0,0,-1,1917,1828,0,0
700,-804,0,0,0,0,0,0,0,0,0,-1,1924,1828,0,0
707,-804,0,0,0,0,0,0,0,0,0,-1,1931,1828,0,0
714,-804,0,0,0,0,0,0,0,0,0,-1,1938,1828,0,0
721,-804,0,0,0,0,0,0,0,0,0,-1,1945,1828,0,0
728,-804,0,0,0,0,0,0,0,0,0,-1,1952,1828,0,0
735,-804,0,0,0,0,0,0,0,0,0,-1,1959,1828,0,0
742,-804,0,0,0,0,0,0,0,0,0,-1,1966,1828,0,0
749,-804,0,0,0,0,0,0,0,0,0,-1,1973,1828,0,0
756,-804,0,0,0,0,0,0,0,0,0,-1,1980,1828,0,0
763,-804,0,0,0,0,0,0,0,0,0,-1,1987,1828,0,0
770,-804,0,0,0,0,0,0,0,0,0,-1,1994,1828,0,0
777,-804,0,0,0,0,0,0,0,0,0,-1,2001,1828,0,0
784,-804,0,0,0,0,0,0,0,0,0,-1,2008,1828,0,0
791,-804,0,0,0,0,0,0,0,0,0,-1,2015,1828,0,0
798,-804,0,0,0,0,0,0,0,0,0,-1,2022,1828,0,0
805,-804,0,0,0,0,0,0,0,0,0,-1,2029,1828,0,0
812,-804,0,0,0,0,0,0,0,0,0,-1,2036,1828,0,0

